# vtk DataFile Version 2.0
phase field modeling fracture
ASCII
DATASET UNSTRUCTURED_GRID
POINTS 2538 float
0.0 0.0 0.0
10.0 0.0 0.0
0.0 10.0 0.0
10.0 10.0 0.0
0.0 4.9995 0.0
0.0 5.0005 0.0
5.0 5.0 0.0
0.9416964895726688 0.0 0.0
1.803581725054446 0.0 0.0
2.592419885431098 0.0 0.0
3.314401822861676 0.0 0.0
3.975193910351406 0.0 0.0
4.579982132660152 0.0 0.0
5.133512780936812 0.0 0.0
5.640130319506143 0.0 0.0
6.103810708661955 0.0 0.0
6.528192895506818 0.0 0.0
6.916607540127679 0.0 0.0
7.272102969376355 0.0 0.0
7.597469242948583 0.0 0.0
7.895259826292669 0.0 0.0
8.167811885738017 0.0 0.0
8.417264413845215 0.0 0.0
8.645575169389538 0.0 0.0
8.854535961159101 0.0 0.0
9.045786767735546 0.0 0.0
9.220828555767493 0.0 0.0
9.38103509633881 0.0 0.0
9.527663687265145 0.0 0.0
9.661865124984566 0.0 0.0
9.784692609918062 0.0 0.0
9.897110148790482 0.0 0.0
10.0 0.09999999999992584 0.0
10.0 0.199999999999856 0.0
10.0 0.2999999999997771 0.0
10.0 0.3999999999996677 0.0
10.0 0.4999999999995511 0.0
10.0 0.5999999999994683 0.0
10.0 0.6999999999993983 0.0
10.0 0.7999999999993286 0.0
10.0 0.8999999999992587 0.0
10.0 0.9999999999991888 0.0
10.0 1.099999999999119 0.0
10.0 1.199999999999033 0.0
10.0 1.299999999998852 0.0
10.0 1.399999999998576 0.0
10.0 1.499999999998284 0.0
10.0 1.599999999997992 0.0
10.0 1.6999999999977 0.0
10.0 1.799999999997408 0.0
10.0 1.899999999997116 0.0
10.0 1.999999999996825 0.0
10.0 2.099999999996533 0.0
10.0 2.199999999996241 0.0
10.0 2.299999999995949 0.0
10.0 2.399999999995657 0.0
10.0 2.499999999995365 0.0
10.0 2.599999999995073 0.0
10.0 2.699999999994782 0.0
10.0 2.79999999999449 0.0
10.0 2.899999999994198 0.0
10.0 2.999999999993906 0.0
10.0 3.099999999993614 0.0
10.0 3.199999999993322 0.0
10.0 3.299999999993029 0.0
10.0 3.399999999992738 0.0
10.0 3.499999999992446 0.0
10.0 3.599999999992154 0.0
10.0 3.699999999991863 0.0
10.0 3.799999999991571 0.0
10.0 3.899999999991278 0.0
10.0 3.999999999991022 0.0
10.0 4.099999999991035 0.0
10.0 4.199999999991187 0.0
10.0 4.299999999991338 0.0
10.0 4.399999999991491 0.0
10.0 4.499999999991642 0.0
10.0 4.599999999991795 0.0
10.0 4.699999999991947 0.0
10.0 4.799999999992099 0.0
10.0 4.89999999999225 0.0
10.0 4.999999999992403 0.0
10.0 5.099999999992555 0.0
10.0 5.199999999992706 0.0
10.0 5.299999999992858 0.0
10.0 5.39999999999301 0.0
10.0 5.499999999993161 0.0
10.0 5.599999999993313 0.0
10.0 5.699999999993466 0.0
10.0 5.799999999993618 0.0
10.0 5.899999999993771 0.0
10.0 5.999999999993922 0.0
10.0 6.099999999994074 0.0
10.0 6.199999999994227 0.0
10.0 6.299999999994378 0.0
10.0 6.39999999999453 0.0
10.0 6.499999999994682 0.0
10.0 6.599999999994833 0.0
10.0 6.699999999994986 0.0
10.0 6.799999999995138 0.0
10.0 6.899999999995289 0.0
10.0 6.999999999995442 0.0
10.0 7.099999999995594 0.0
10.0 7.199999999995747 0.0
10.0 7.299999999995897 0.0
10.0 7.39999999999605 0.0
10.0 7.499999999996202 0.0
10.0 7.599999999996353 0.0
10.0 7.699999999996505 0.0
10.0 7.799999999996658 0.0
10.0 7.899999999996808 0.0
10.0 7.999999999996962 0.0
10.0 8.099999999997113 0.0
10.0 8.199999999997265 0.0
10.0 8.299999999997418 0.0
10.0 8.399999999997569 0.0
10.0 8.499999999997721 0.0
10.0 8.599999999997873 0.0
10.0 8.699999999998024 0.0
10.0 8.799999999998176 0.0
10.0 8.899999999998329 0.0
10.0 8.99999999999848 0.0
10.0 9.099999999998634 0.0
10.0 9.199999999998786 0.0
10.0 9.299999999998937 0.0
10.0 9.399999999999089 0.0
10.0 9.499999999999241 0.0
10.0 9.599999999999392 0.0
10.0 9.699999999999545 0.0
10.0 9.799999999999697 0.0
10.0 9.899999999999848 0.0
9.897110148790565 10.0 0.0
9.784692609918244 10.0 0.0
9.66186512498486 10.0 0.0
9.527663687265571 10.0 0.0
9.381035096339392 10.0 0.0
9.220828555768257 10.0 0.0
9.045786767736512 10.0 0.0
8.854535961160305 10.0 0.0
8.645575169391027 10.0 0.0
8.417264413847017 10.0 0.0
8.167811885740178 10.0 0.0
7.895259826295246 10.0 0.0
7.597469242951631 10.0 0.0
7.272102969379938 10.0 0.0
6.916607540131873 10.0 0.0
6.528192895511704 10.0 0.0
6.103810708667616 10.0 0.0
5.640130319512691 10.0 0.0
5.13351278094435 10.0 0.0
4.579982132668816 10.0 0.0
3.975193910361222 10.0 0.0
3.314401822869852 10.0 0.0
2.592419885437257 10.0 0.0
1.803581725058137 10.0 0.0
0.9416964895740705 10.0 0.0
0.0 9.00010000000243 0.0
0.0 8.000200000005481 0.0
0.0 7.000300000005135 0.0
0.0 6.000400000002569 0.0
0.901790731451151 5.000409820926855 0.0
1.657200899774397 5.000334279910023 0.0
2.289991063707192 5.000271000893629 0.0
2.820065163538221 5.000217993483646 0.0
3.264096435579811 5.000173590356442 0.0
3.636051481595835 5.00013639485184 0.0
3.947629914072366 5.000105237008593 0.0
4.208632181002628 5.0000791367819 0.0
4.427267949625672 5.000057273205037 0.0
4.610414277633563 5.000038958572237 0.0
4.763831845154243 5.000023616815485 0.0
4.892346298799659 5.00001076537012 0.0
4.892346298799748 4.99998923462988 0.0
4.763831845154455 4.999976383184515 0.0
4.610414277633943 4.999961041427763 0.0
4.427267949626277 4.999942726794963 0.0
4.208632181003523 4.9999208632181 0.0
3.94762991407365 4.999894762991407 0.0
3.636051481597624 4.99986360514816 0.0
3.264096435582253 4.999826409643559 0.0
2.820065163541503 4.999782006516354 0.0
2.289991063711534 4.999728999106371 0.0
1.657200899778495 4.999665720089978 0.0
0.9017907314530094 4.999590179073145 0.0
0.0 3.999600000002013 0.0
0.0 2.999700000005187 0.0
0.0 1.99980000000512 0.0
0.0 0.9999000000025537 0.0
9.897889398521345 2.93573355845387 0.0
9.906568249974548 7.060009441434234 0.0
9.913122631074113 3.64016132281653 0.0
9.922462129543863 6.354535290629151 0.0
9.917693659967533 4.354211663134567 0.0
9.909873057440208 5.637584487339942 0.0
9.914183254994697 4.950672966925282 0.0
9.913885043715895 7.666887930262611 0.0
9.91009668007573 2.351889069770817 0.0
9.905135696074536 8.138152454502785 0.0
9.913397459621809 1.849999999997262 0.0
7.099302372137626 0.297750452375005 0.0
7.095143729410097 9.700359990366296 0.0
4.942912558701401 5.095838627899509 0.0
4.315009232304429 5.165022115481685 0.0
4.946182472483878 4.906763777264103 0.0
4.317967462990024 4.825955043772673 0.0
9.916390871492647 8.64999999999792 0.0
9.921504649680616 1.368376469890358 0.0
8.292538149791614 0.206877570318844 0.0
8.292538149793597 9.793122429681448 0.0
5.884594439766573 9.587645267048616 0.0
5.794826292691579 0.3794853783929359 0.0
9.913397459621425 9.049999999998557 0.0
9.908526577714177 0.9568239351922434 0.0
3.456851160380649 5.315740054130451 0.0
3.457889657868442 4.707121019609468 0.0
8.945214200703926 0.1503383337970344 0.0
8.950161364448409 9.8413906539257 0.0
9.913862335499305 4.055887885208452 0.0
9.916697353372683 4.650158482607802 0.0
9.919076340414442 6.049999999994006 0.0
9.906994308667635 5.25749687748192 0.0
9.917490342358025 6.655979201891897 0.0
9.915757520293784 7.343848891656911 0.0
9.910049507471042 3.363474386285078 0.0
9.914471988502868 2.647400064832979 0.0
9.91474124160965 9.337490423485129 0.0
9.916971008170838 0.6499999999994355 0.0
4.307157269264427 9.509674045029644 0.0
4.331527375865619 0.4401616696422582 0.0
9.45434939180249 9.878397030523757 0.0
9.457696120412969 0.1270877537061785 0.0
2.555070293622606 5.422044496190925 0.0
2.566232917480916 4.608001224030952 0.0
3.026511860837692 9.332320638257093 0.0
2.945561971800619 0.5895662714727601 0.0
7.7395404387124 0.2511088946967771 0.0
7.736379255744154 9.745848826372828 0.0
4.687135269408529 5.122111433928926 0.0
4.688420821504113 4.871895064967488 0.0
9.910554884115975 0.3448356354522978 0.0
9.911230082250466 9.65764729394159 0.0
9.921953841410854 6.851023993342036 0.0
9.912065178606017 5.448170483544033 0.0
9.911660025326261 3.861846960030188 0.0
9.914847467973438 3.14501593945607 0.0
9.913397459621425 5.849999999993703 0.0
9.913397459621425 7.849999999996735 0.0
9.906916878988277 2.15455769998631 0.0
9.913397459621425 8.349999999997479 0.0
9.909472363117661 1.640528221515488 0.0
9.913987325695956 1.152857110636247 0.0
9.913397459621425 8.849999999998241 0.0
0.9100099990995943 2.614215977520411 0.0
0.8395284981715456 7.451196254860987 0.0
9.723278867451556 9.898135916635193 0.0
9.723316350887044 0.09841820909386662 0.0
1.385819164827588 4.454539963646463 0.0
1.338343629665047 5.523111536005823 0.0
1.377179700550677 0.6809168304959698 0.0
1.418060461092743 9.285896715136046 0.0
9.91268220142518 0.1457914080939694 0.0
9.906737126737994 9.845745933882352 0.0
0.7108351382691361 6.537941170074089 0.0
1.527735020267026 6.915620208855231 0.0
1.630993885659103 7.838271825205868 0.0
2.232760943566823 7.370850737296832 0.0
2.243414218068206 6.688299277952821 0.0
2.779655053105118 7.021588754814074 0.0
2.80227799359795 7.632420170547022 0.0
3.282022065908813 7.305859666021318 0.0
3.327597298795347 7.857554136825748 0.0
3.743210251018715 7.549183328204379 0.0
3.716353232200752 7.062036086888612 0.0
4.111978858674101 7.27497101169417 0.0
4.104192177581432 6.879858986267289 0.0
4.436230765617037 7.045693351607117 0.0
4.430360014817357 6.703971783962796 0.0
4.732390145036301 6.849841042423394 0.0
5.056161327708878 5.095276573498806 0.0
5.111586796021131 4.999081142133581 0.0
5.169267363407189 5.09444870412406 0.0
5.223795108752053 4.996986220359468 0.0
5.281480803887719 5.092780870372803 0.0
5.335670761900611 4.994887492556936 0.0
5.393485214772442 5.090486192743301 0.0
5.447323082877892 4.992601527033996 0.0
5.505243219343024 5.087953380710069 0.0
5.558739102026105 4.990287787962959 0.0
5.616491581184779 5.085335255235766 0.0
5.669852346908056 4.9879269227514 0.0
5.727502713908907 5.082679981817038 0.0
5.780766004135139 4.988313988715834 0.0
5.838244881129535 5.080480568766611 0.0
5.891357695677371 4.986433849408193 0.0
5.948696036767613 5.077969900389505 0.0
6.001601341641615 4.981313698556656 0.0
6.058851024265095 5.074871552128682 0.0
6.111614020704875 4.978360695880202 0.0
6.168801161530775 5.072044953270978 0.0
6.221368818778567 4.975825765213497 0.0
6.278268309066882 5.066182320461055 0.0
6.330814273567539 4.972837984645718 0.0
6.387565032421376 5.062889771971895 0.0
6.437476667631405 4.971693683589553 0.0
6.496181111585419 5.060210690175857 0.0
6.539454812256072 4.964658165361536 0.0
6.604198202576491 5.056387520850258 0.0
6.648506025747331 4.939374587506267 0.0
6.714026758992516 5.05873885840664 0.0
6.764418045981209 4.959246676066148 0.0
6.8219334571197 5.055299567406268 0.0
6.873708540948134 4.960426349093742 0.0
6.930181428849307 5.053461390218819 0.0
6.981893615341967 4.96435459462232 0.0
7.037791764774784 5.051219747103022 0.0
7.090993561518408 4.96392420322464 0.0
5.504417457283294 4.900897920552702 0.0
7.145434864123609 5.048960634292441 0.0
6.054532384032612 4.883956083938546 0.0
6.738027949040956 4.850032323068674 0.0
7.198432914526514 4.956325226333323 0.0
7.252637187936749 5.046012229327236 0.0
7.30926729605109 4.948903216650376 0.0
7.248106275544042 4.860306312845646 0.0
7.363100274863074 4.849952416808486 0.0
7.365733472701664 5.039519554615095 0.0
7.308483293090149 5.137557220352172 0.0
6.768399513646964 5.145609705119954 0.0
7.422800035311104 5.132251445551834 0.0
7.358273518796229 5.235980394389298 0.0
7.480824155801127 5.227946127939927 0.0
7.302193400058628 4.761917474298247 0.0
7.413570879789824 4.754555110721153 0.0
7.414392998903179 5.334729114426734 0.0
7.352769630272076 4.660405502266205 0.0
7.467556835255426 4.658352623795039 0.0
7.536246869015014 5.328986926716081 0.0
7.478865844607288 5.432598185493195 0.0
7.406396991826072 4.556956233957538 0.0
7.523581002009154 4.552005631348623 0.0
7.597792398573263 5.429506106314967 0.0
7.540511043402902 5.53619421580439 0.0
7.46214474876342 4.452580994318881 0.0
7.5852185078634 4.446021810672608 0.0
7.663329342323453 5.533453399066901 0.0
7.603478967594521 5.643227430483237 0.0
7.513450346818673 4.347641323140766 0.0
7.640744971722214 4.333388343316237 0.0
7.727671715775243 5.642390483050116 0.0
7.667774597993788 5.753188858425915 0.0
7.570065256728661 4.230515669344811 0.0
7.702881065467917 4.218307808529532 0.0
7.638288257073729 4.107994211855027 0.0
7.493362356301017 4.120843902105771 0.0
7.779018500630071 5.521233457321821 0.0
7.794641287388929 5.752364621610818 0.0
7.73369774483611 5.865894287356292 0.0
7.600834531784728 5.867752110500446 0.0
6.233038857278689 5.15645045634683 0.0
7.669727996028819 5.985665563643058 0.0
7.528582452554481 5.987393423295551 0.0
7.598722674572824 6.11001923494443 0.0
7.778305000222867 4.104318908265786 0.0
7.704329019832056 3.987744174608892 0.0
7.838453459801382 4.213322728668484 0.0
7.864495721576461 5.862306066517277 0.0
7.846552353360407 3.98481756181946 0.0
7.769730409703277 3.86544808681145 0.0
5.785249360396857 5.177248808588045 0.0
7.908837087876153 3.861484036275285 0.0
7.834824606222196 3.740586825753288 0.0
7.97685993406276 3.736209527152902 0.0
7.89665098770825 3.615501862931453 0.0
7.753228010315262 3.617800245018972 0.0
7.826063013090472 3.483173292579822 0.0
7.66789744383048 3.48859328808356 0.0
8.042515855796823 3.595394268381807 0.0
7.75200750488492 3.341279823834038 0.0
7.582870318332553 3.346584916806707 0.0
8.120807847415062 3.732493963388337 0.0
8.189783970303546 3.61159165475499 0.0
7.657801000286734 3.200439907646711 0.0
7.486781956172036 3.201402473247712 0.0
7.452595103886905 6.11418616185016 0.0
7.527098033550077 6.243191052852112 0.0
8.260502906807751 3.728437634721859 0.0
8.327629317451398 3.608173631356984 0.0
7.372763970891452 6.247552889754036 0.0
7.456170570815929 6.384992468962936 0.0
7.621837793616884 6.376077080857113 0.0
7.548039512904141 6.520750676893614 0.0
7.717475944451644 6.514856553988943 0.0
7.636658166268699 6.661648164052906 0.0
7.807468267259438 6.664076174524672 0.0
7.718022764310774 6.817938967122142 0.0
7.887785766941087 6.807440365887151 0.0
7.545993589083432 6.815070675854734 0.0
7.809874785067209 6.967537287475282 0.0
7.975643812145337 6.948729406725126 0.0
8.396477808021062 3.725446935061211 0.0
7.565651643157136 3.044354774611752 0.0
7.384328725505071 3.043048915147076 0.0
8.056405351948353 6.802790889114673 0.0
8.14128318237188 6.940027831915737 0.0
8.064621760266059 7.086348792208953 0.0
8.225003598857908 6.805225152373254 0.0
8.463085452993242 3.606998510553562 0.0
8.230426869720718 7.079551841000411 0.0
8.155262284174286 7.224761758176069 0.0
8.530696760758996 3.721683301125054 0.0
8.596669886994064 3.604516769862316 0.0
8.528531058025589 3.490411531312337 0.0
8.320451770844851 7.218191678954744 0.0
8.245273958732774 7.363444652121271 0.0
8.66324687389452 3.717094013035765 0.0
8.600103125209296 3.831913857228569 0.0
8.662131102573216 3.488322280861316 0.0
8.594166125380536 3.374071873435548 0.0
8.411074336066186 7.353871649576861 0.0
8.339644223432472 7.505172120620427 0.0
8.165883718619623 7.513159193685373 0.0
8.483453820080417 7.2082285366806 0.0
8.261200365730348 7.657400951288149 0.0
8.081570576666843 7.670933304838066 0.0
7.471613195794025 2.872548423100142 0.0
7.268733678357991 2.881209199257603 0.0
7.184255506995786 3.084448584600423 0.0
7.065899603697895 2.883902449336828 0.0
6.960163891183182 3.081014635802978 0.0
6.847612128388715 2.885646860602812 0.0
6.739800729737967 3.078895733381448 0.0
8.729373804596847 3.827689165637365 0.0
8.668550856907444 3.938702277545298 0.0
8.72770789162863 3.371798381178293 0.0
8.659764090070603 3.257493349874974 0.0
8.436453928793245 7.648724489148887 0.0
6.619080287792762 2.90880017416788 0.0
6.511740956842646 3.09340654756684 0.0
8.793527829963288 3.935174834810256 0.0
8.736430500996828 4.042719556852617 0.0
7.631260330584174 4.565300771328012 0.0
8.359058396840432 7.801678182761817 0.0
5.339436215072359 5.184870243702279 0.0
4.994031736761993 5.193306795607908 0.0
6.383387675268097 4.87760645722207 0.0
7.29117392392962 6.382172868329505 0.0
6.378196825372041 2.907113079755629 0.0
6.269817199014261 3.12412150658573 0.0
8.793149127377946 3.255386294257182 0.0
8.725774239201558 3.141596687892195 0.0
8.857434600673502 4.041295940541356 0.0
8.802868937128341 4.1471119953668 0.0
8.532045262478793 7.7905977476835 0.0
7.364542641624493 2.699128473342751 0.0
7.571677611088925 2.695732556686516 0.0
6.723058333614999 2.672341359410618 0.0
8.456744924757372 7.94483904450548 0.0
6.140831279784704 2.921247401137864 0.0
6.02419219050745 3.14358702955763 0.0
8.916255604212301 3.934279868822481 0.0
8.859287250884009 3.140226640574265 0.0
8.791092798057303 3.025929352146465 0.0
7.210445465986021 6.245773134960393 0.0
7.120884161792869 6.385155584680196 0.0
7.036931702064287 6.240721609143972 0.0
6.943722280007011 6.3869279517155 0.0
8.920094519678617 4.144837222494242 0.0
8.864374107136287 4.250930406527029 0.0
7.347569838739255 4.463467417508182 0.0
5.90383431757064 2.935113219563906 0.0
5.783476009580765 3.156456199832474 0.0
8.626013191558314 7.935092223505354 0.0
8.687240186957197 7.796697889991163 0.0
5.642059327424706 2.903018174330269 0.0
5.52647853955939 3.162549070310043 0.0
8.555300051897738 8.086169516016518 0.0
8.405624441178524 8.083972416481254 0.0
5.374124307190728 2.945480555950917 0.0
8.935805220807357 3.249260758206028 0.0
8.981625171409894 4.247375537584228 0.0
8.924725364486765 4.352101286657735 0.0
8.807208588134106 4.356163101450244 0.0
8.868277832430604 4.45657124153171 0.0
8.75099635287701 4.460644845248524 0.0
8.812385950597063 4.560891222623518 0.0
8.693833206943118 4.564602972998703 0.0
8.756474732548273 4.665720853686476 0.0
8.63721608225855 4.669394550615355 0.0
8.700108119351134 4.770682016274914 0.0
8.81920502916846 4.767536120893284 0.0
8.76355311338807 4.871451945248518 0.0
8.881442328033694 4.868382238751069 0.0
8.826433523510634 4.97132552240372 0.0
8.943387824985514 4.967694248194483 0.0
8.888718468126953 5.071044784833541 0.0
8.580377663835254 4.774669738817985 0.0
8.770572242937233 5.073880380431421 0.0
8.832915096600454 5.174518948293615 0.0
8.952224483821848 5.170970838320107 0.0
8.897282771771884 5.275476392171722 0.0
7.463928467290875 2.513944501591933 0.0
7.675935950092034 2.509420347143072 0.0
8.924252417741767 3.024418701372628 0.0
8.857265893102921 2.911213535286156 0.0
8.776981063213334 5.27944309004916 0.0
8.840710910770163 5.380165700477552 0.0
8.960876896785969 5.375521424256389 0.0
8.904555918255223 5.482125846038813 0.0
7.567193097677677 2.32750151280277 0.0
7.780880844888839 2.323064027160363 0.0
6.851602118390116 6.234522818184622 0.0
6.758680682687229 6.389359516748128 0.0
6.66345977321418 6.231254850996584 0.0
8.715764716958308 8.079994249772627 0.0
8.65189989696114 8.227534663647639 0.0
9.042229096541828 4.348551764001607 0.0
6.436774206993324 3.316782326998922 0.0
7.590527613340588 5.22651784724799 0.0
9.024366884701616 5.476726561488805 0.0
8.968734351641839 5.583879050892151 0.0
8.845941080047659 5.586406316932274 0.0
8.909881305857882 5.690482454668167 0.0
7.348726871578975 5.44047403999932 0.0
6.567070253986433 6.398115757512583 0.0
6.697077150072261 6.553426749743366 0.0
5.252377383990728 3.187782967482479 0.0
8.988440431820699 2.908621158637298 0.0
8.922541972760119 2.796420836075996 0.0
6.466806010659505 6.229115583261771 0.0
9.033851153821296 5.686506775615425 0.0
8.978340519963718 5.795772485582058 0.0
8.85111463793018 5.798672910287243 0.0
8.922171984280597 5.907237880910408 0.0
8.795190680908043 5.911854068712683 0.0
8.864373398892472 6.019728357749566 0.0
8.991346995940626 6.014539153309398 0.0
8.93374019140187 6.12698887312768 0.0
5.095192648098848 2.952353430985476 0.0
7.672651464908932 2.141715359830917 0.0
7.886266921042761 2.136211284120189 0.0
9.098474286589756 4.245971410451114 0.0
8.813172564986438 8.216887361735234 0.0
8.74802978243154 8.366104673219047 0.0
9.059985162956899 6.120982589539211 0.0
9.00342813739303 6.233245043891739 0.0
4.961413514304496 3.214209167276753 0.0
9.05248113004685 2.794651022570942 0.0
8.986028039118027 2.681341972594222 0.0
5.671890458441996 3.377122473800023 0.0
4.755829262593116 7.184480462344647 0.0
9.158258644940048 4.34465968221255 0.0
4.799687186662534 2.961354824469195 0.0
6.030554747591715 2.726787502996874 0.0
8.938327180212585 8.34758372042188 0.0
8.847392320655468 8.503370672816716 0.0
8.67342124373679 8.518117686968314 0.0
5.234423106934083 2.694925204361751 0.0
8.964923046453565 8.185313058214797 0.0
7.456650986668838 2.134076476407834 0.0
9.111732084821366 2.897226832609386 0.0
6.368055837513985 6.402805870976705 0.0
6.265629899005033 6.226581076317183 0.0
8.736327196352686 6.026404178766982 0.0
9.117473097358854 2.67987006607594 0.0
9.052137415465204 2.565428515518978 0.0
7.781001557847192 1.955874236406257 0.0
7.992134447300669 1.949184538864554 0.0
8.593074792993455 3.143159483125708 0.0
9.1291360203536 6.226877897052981 0.0
9.072154326613617 6.338696745620542 0.0
8.916532550320525 2.566986282201109 0.0
8.984021113721658 2.449252898983242 0.0
9.178032243215632 6.120533546076094 0.0
9.213703592343162 4.244823670856978 0.0
9.11972142641474 2.449071238668887 0.0
9.052853896812186 2.33190758581705 0.0
8.635035926402708 4.462329956179506 0.0
8.773614475966344 8.657865377672689 0.0
8.596400917257634 8.67759750279447 0.0
8.942023339420883 8.644678093589654 0.0
9.19471670675691 6.33096438039349 0.0
9.138460613363325 6.443043552768813 0.0
8.66620319432524 5.916297234509582 0.0
8.606669825267202 6.032658196729024 0.0
9.27222540210304 4.341341907533128 0.0
9.013782808177437 6.451040569407859 0.0
9.08360982569773 6.55729980456602 0.0
7.885622149776354 1.768093045890686 0.0
8.095672144455353 1.768790621151345 0.0
9.208772072925791 6.549717411809656 0.0
9.154272208194383 6.662613503537815 0.0
9.187669783927937 2.334640996932141 0.0
9.122379015831417 2.215832190697178 0.0
6.164077036161143 6.404611236428829 0.0
6.062367614988677 6.224307160647549 0.0
8.987075041759633 2.211477580983978 0.0
9.056972755801603 2.093573581203428 0.0
9.194557288902232 2.096029761809264 0.0
9.131223008370409 1.972713028695079 0.0
8.87381302587057 8.795793668920256 0.0
9.039169086943392 8.781606667490083 0.0
4.662813350519927 3.228118291851354 0.0
4.474181267994617 2.945703616023359 0.0
6.562627723301209 6.075544382232434 0.0
9.326886053211574 4.243083624343211 0.0
9.280374192897945 6.656072830232892 0.0
9.224718905178564 6.766740750539347 0.0
4.703284910421452 6.528907865005451 0.0
8.955136474970331 6.565989985649191 0.0
8.998148826814893 4.865480736169776 0.0
8.99429836796776 1.965972383552685 0.0
9.065669391141741 1.847195105148808 0.0
9.207236162050343 1.853010386995843 0.0
9.143218073349985 1.725630086781897 0.0
8.998867447699345 1.719378449325465 0.0
9.082595782768397 1.592017827427701 0.0
8.92804562738841 1.585238202229766 0.0
9.01637794607019 1.453847302675876 0.0
8.854253119154375 1.446306868730686 0.0
8.941620273019874 1.320083886766936 0.0
8.775393064215876 1.308487027359826 0.0
9.102170347200483 1.324733726345249 0.0
9.013857060361985 1.178821526410403 0.0
7.991031819452564 1.587689878441685 0.0
7.767218744640202 1.595993197647291 0.0
9.191539171305216 1.194087248761656 0.0
9.123965901037613 1.057102462689568 0.0
4.853921953226772 3.470213116851758 0.0
7.496563223334782 3.470157221608763 0.0
8.536691379028115 5.921845852206257 0.0
8.475496498707471 6.037633662010236 0.0
7.978668526342969 2.307231488316941 0.0
9.384721922092124 4.337357165846226 0.0
9.331039180200886 4.435926256444196 0.0
8.546261775564837 6.150267290476958 0.0
8.411727261785726 6.155319300628062 0.0
8.972203609044218 8.930944433074036 0.0
9.133480321468399 8.90955269607895 0.0
9.197778815538276 8.768743880012563 0.0
6.162231825784922 6.05277753404107 0.0
5.962111081146334 6.046949845237622 0.0
9.268727788642101 4.146883230687689 0.0
9.380694211527906 4.144811697563401 0.0
9.323823335199954 4.049557759546529 0.0
9.283324894520613 1.736313094621396 0.0
5.858151623803662 6.22041808248046 0.0
5.759668475561988 6.038806123495502 0.0
7.836860473863919 3.191674397465999 0.0
9.348591928839294 6.75855034547469 0.0
9.293979592221298 6.870213350675044 0.0
9.170543172728557 6.879819332293818 0.0
9.240028263813034 6.983394994050525 0.0
4.347372565145963 3.312731475520695 0.0
4.114183445909965 2.96879678229065 0.0
8.616264880152233 4.042035981070631 0.0
9.403174760076901 6.650407069150438 0.0
4.173860112179449 7.723461240865885 0.0
9.365302975518428 6.973476802087294 0.0
9.312420275675276 7.088420778208979 0.0
9.184876614539778 7.0978133687822 0.0
9.25921281729617 7.204979813006656 0.0
9.12816413817609 7.21569648263899 0.0
9.203944409919862 7.322703303071253 0.0
9.334311975087337 7.311477957762272 0.0
9.280415785210538 7.428795599957155 0.0
9.274060219641907 1.066603180421249 0.0
9.211820491509728 0.9316562593680151 0.0
9.050684011148748 0.9017681241401576 0.0
9.441953732403995 4.432092590771756 0.0
9.394725873909666 4.526051349391942 0.0
9.43453556160865 4.048003950509361 0.0
9.378043599351757 3.952631412328806 0.0
9.289691247910705 8.890746792319852 0.0
9.228148443138926 9.030109127390128 0.0
4.440757888677695 6.389562448928118 0.0
4.689874463978985 6.239329075084555 0.0
4.291519540095677 2.622920583112654 0.0
3.886073352912894 2.632778677714434 0.0
9.344015622314338 1.202401041544343 0.0
8.193292196814806 3.849649660906171 0.0
6.960946604527747 6.07044529864598 0.0
9.347708267319902 8.756364147482309 0.0
6.826423138602714 3.261415861395883 0.0
6.06309517882478 5.884563187328262 0.0
9.4085057714426 7.414123963607981 0.0
9.356416821537886 7.532359471354527 0.0
5.042074134251055 6.938947182785697 0.0
5.063988238156824 7.311205832605263 0.0
3.946666851334923 3.30681624613374 0.0
8.189857914071878 1.939951128540477 0.0
7.880690277686857 1.38928908049477 0.0
7.63766396748483 1.399736360041063 0.0
9.345004233592562 1.857695941115052 0.0
9.440465164139875 7.085860901905448 0.0
7.918332480761888 5.744468010879592 0.0
9.08007135068879 5.372457017512481 0.0
8.78639561093144 3.718391405525285 0.0
9.356843485085705 0.9414458825132457 0.0
9.29705128845331 0.8103081541678832 0.0
9.251825423225316 2.451701826351773 0.0
8.483895366325516 6.270717564685176 0.0
8.346386886249478 6.275973306650227 0.0
9.493299170161215 4.138582531223591 0.0
5.321115649032961 7.117073603021904 0.0
5.354076009109965 7.436189411362466 0.0
5.597984079819928 7.254284331170681 0.0
5.644042313435943 7.564172740776336 0.0
5.383963016128051 7.753854027984002 0.0
5.681168258142109 7.880444993178456 0.0
5.935548099874979 7.687258900444162 0.0
5.979508404301389 7.994332725561488 0.0
6.21936843555201 7.802335560754011 0.0
6.267092590637372 8.104873033518185 0.0
6.498845418385807 7.917606504106031 0.0
6.544600005636809 8.209910620392591 0.0
6.77336078689533 8.027284686082275 0.0
6.814840179123049 8.311778392637773 0.0
6.721304148677048 7.737863326704131 0.0
7.031320924898797 8.1335673274533 0.0
7.077388928622946 8.403901803728003 0.0
5.417471987089176 8.090112295667405 0.0
8.845427688507666 2.446352368201366 0.0
9.318512319918124 2.339233739859646 0.0
9.380241452597096 2.451895615249572 0.0
7.283805558009199 8.237518806365102 0.0
7.329200330160381 8.497045124353782 0.0
7.233272584416691 7.991590926766813 0.0
9.142592248414191 5.471315142785471 0.0
9.196303265878848 5.36738298742727 0.0
9.25795832955665 5.465260877691205 0.0
9.310581303233182 5.36341558704714 0.0
9.371094700882272 5.459458038195667 0.0
9.422767107822985 5.360687090455724 0.0
9.36402660964156 5.264821436196721 0.0
9.474220736978928 5.262802348886269 0.0
9.41680330511366 5.169477108906666 0.0
5.168675939028436 4.895496152382537 0.0
9.482591449057548 5.454699312257291 0.0
9.431567605310825 5.552723344040521 0.0
7.531449703396948 4.741663470323411 0.0
8.517293123442691 4.672601123164268 0.0
8.459978676626639 4.778466809901586 0.0
8.396595115309985 4.67568709170855 0.0
8.338966609235166 4.782101664607259 0.0
8.275355646032752 4.678829956447008 0.0
8.217675280223542 4.785699596769931 0.0
8.28149024865807 4.888803783902183 0.0
8.16019781596952 4.892696417098926 0.0
8.22433278506531 4.995725219088695 0.0
8.102825704443651 4.999629142625341 0.0
8.166887930010795 5.098242831115916 0.0
8.034904900788316 4.896825406879729 0.0
8.15353539905931 4.682103688185489 0.0
8.211891449058882 4.574219757233394 0.0
8.290305306104333 5.094007100958221 0.0
8.225684228618732 5.201525567655179 0.0
9.444618942559746 2.343141375196729 0.0
6.929446520625337 4.868116916840016 0.0
5.737810725167649 4.893891407574175 0.0
8.720389971487277 5.38508368411851 0.0
8.805734920311323 8.951818172412821 0.0
8.905272694453211 9.083303226359831 0.0
6.006155038818204 5.171375272745409 0.0
6.431496448228514 5.152985998213245 0.0
9.052675024457304 7.106590131831544 0.0
7.740007013494393 6.09727525827826 0.0
9.375852260355511 9.013078430361404 0.0
9.32035844773103 9.14584923943073 0.0
6.989707597683965 5.146377438798643 0.0
9.488190206836386 3.951168069367155 0.0
9.432429152094464 3.855725756072153 0.0
5.568386402814275 5.185723849666124 0.0
9.525561551078322 5.166162126187324 0.0
9.465026391994275 5.072601962964018 0.0
9.320357339516937 3.857795423728873 0.0
9.375955927831914 3.759314274140895 0.0
9.261783786753899 3.761412578759438 0.0
9.31820665563318 3.661845422072752 0.0
9.431798673168924 3.660830894813109 0.0
9.374584413615914 3.563138564686839 0.0
9.48759661134647 3.562294297118573 0.0
9.431339678707085 3.464016717943268 0.0
9.417896212887529 1.746970678437863 0.0
8.731705369070733 9.110902182838881 0.0
5.652297951447118 6.21188565774667 0.0
5.569122518069258 6.024400786163834 0.0
8.257007204149394 3.505875091031567 0.0
8.717428603143034 2.925525757227976 0.0
6.882852832747376 8.57686572931064 0.0
6.337330066435714 8.416819098143066 0.0
9.50188906539997 4.521022403818629 0.0
9.453500859905136 4.617181635748691 0.0
9.46806769570129 6.749352117850711 0.0
8.836822104875719 1.72282859852854 0.0
7.481071063421426 5.64593758994851 0.0
5.668814988976305 5.86611128457842 0.0
5.487644760735084 5.847591822776978 0.0
8.993992818065195 7.228173913870249 0.0
7.98322414937693 7.229980191466666 0.0
9.22810751684646 7.54864871395298 0.0
9.304103360459063 7.654622011545798 0.0
9.432787371848761 7.633691049023619 0.0
9.382619818023882 7.759136995934441 0.0
7.239096822516492 4.679179578301165 0.0
9.47692479956498 1.861231395362419 0.0
8.041243110813022 5.095895152648969 0.0
6.190208781188077 7.509864122823853 0.0
9.283062812782122 4.549418667685757 0.0
9.503847665760087 2.450295046295932 0.0
9.443345385250678 2.557904120404248 0.0
9.52009568463353 6.644015937008899 0.0
9.203119005973903 3.662458522935253 0.0
8.406198651282708 5.92630414760378 0.0
8.467263597743843 5.811987729136874 0.0
9.461423029059445 9.128120577356565 0.0
9.408445330070542 9.26024300250086 0.0
9.266505293379728 9.277952925446408 0.0
4.14874709022218 3.631681332690154 0.0
9.437448107949258 0.8198473430736303 0.0
9.376993771693973 0.6910550697058979 0.0
9.22882356848217 0.6931820370818127 0.0
4.451823867195988 6.103664366188579 0.0
4.200031743909027 6.232039028149317 0.0
4.687154754667774 5.975132870483986 0.0
6.268889397098538 6.592235545990395 0.0
7.509366161722768 8.340075462391164 0.0
7.564775703413765 8.59800936579159 0.0
9.542148732924264 3.854614593058991 0.0
7.036231103929761 6.550562550831048 0.0
4.089373665437328 2.268193930262139 0.0
3.642558884866483 2.250386188148396 0.0
3.442182385618804 2.651948803899947 0.0
3.146832503011753 2.222630466765926 0.0
2.948870467975985 2.805088883766417 0.0
9.352005315330274 5.067356449300542 0.0
9.31729677031493 3.462944187594675 0.0
9.37428383619102 3.365546369736205 0.0
9.4883538239391 3.365384871181599 0.0
9.432147665178338 3.267287636377487 0.0
9.25034519267688 7.775848812012313 0.0
9.332091350002502 7.881724023243533 0.0
9.462101000264603 7.86490055671988 0.0
9.413353271651825 7.98561007219363 0.0
8.273592814723814 6.158623919352561 0.0
8.207135014732339 6.280394934566054 0.0
9.541483811580331 5.548224291759592 0.0
9.491365919893726 5.644847811894615 0.0
8.088095771120983 4.577581369371366 0.0
8.14760102783746 4.468303741922308 0.0
9.556217963323956 4.414867468889523 0.0
9.543667331547693 3.266908751519594 0.0
9.489307652535885 3.169908976697059 0.0
9.26285575842982 8.635341362685686 0.0
9.403220742003983 8.621447866627538 0.0
9.326013417886902 8.506778946171965 0.0
9.455477927154853 8.503896705359047 0.0
9.566646674069602 4.611465258087684 0.0
9.499341049870914 0.9352184973273918 0.0
8.683891958597638 1.444705608998412 0.0
8.599973456173778 1.287265568270043 0.0
7.760988189317371 1.175381292562583 0.0
7.50927661322749 1.171223823957793 0.0
7.380927152434357 1.411062577009695 0.0
7.242417847270241 1.170759311509981 0.0
7.107236746116019 1.421234419770886 0.0
6.960799033544566 1.169618322344823 0.0
6.817786081200392 1.434174581170586 0.0
9.48095050141868 8.738557748483624 0.0
9.319762046171894 3.263060331456388 0.0
8.920653400180534 7.117307656029475 0.0
9.452431221190624 6.544166520883111 0.0
9.571407933653493 6.540336592280795 0.0
9.507586285214174 6.443281357841339 0.0
9.575252974749443 5.070210512157044 0.0
5.755172844377253 6.370710487467459 0.0
9.541351959064952 7.969072511059531 0.0
9.354607289792183 9.3921968735401 0.0
9.495213435762107 9.37218405175897 0.0
3.77688136092967 3.643094492921176 0.0
5.460967180339239 6.159077196937325 0.0
8.656589552918996 5.283032675040985 0.0
8.599307076390474 5.387421722684671 0.0
9.584017606465821 5.263931993965828 0.0
9.51536593891754 4.977534386249715 0.0
7.788544970111893 2.70578432810479 0.0
7.381746833264364 8.755477463411431 0.0
7.615969996822885 8.852710176548548 0.0
7.783643411970649 8.691528137204457 0.0
7.845017394185501 8.938777577473743 0.0
8.570520580943368 7.342304222498308 0.0
9.103648004226827 5.781084627507008 0.0
8.338082930126799 5.815990105349368 0.0
8.930848895071895 4.561111316304916 0.0
7.381089602119859 5.983657236035151 0.0
8.42066837692862 6.393608568217351 0.0
8.888256157021065 6.459558428285236 0.0
8.826495664731354 6.575679897210801 0.0
4.22522220414496 5.921354747981145 0.0
3.943296448343383 6.075578573904587 0.0
9.563175937841836 2.554860696349795 0.0
9.505342423182917 2.656889632284623 0.0
6.660863480070611 1.168750929063519 0.0
6.518316961679488 1.436478598119306 0.0
6.683474168246802 1.694104067636375 0.0
6.376799057174731 1.707382100972048 0.0
6.205091481342603 1.443621641108414 0.0
6.058670988071357 1.728841803855816 0.0
5.877457486049096 1.454297236926778 0.0
5.724979192982589 1.756666409586195 0.0
5.529885788012015 1.462283739157555 0.0
9.514953777019835 0.7018468683209754 0.0
8.398665270372675 5.702731562702358 0.0
9.456442249775696 0.5772068858285652 0.0
9.565795671866349 2.345573662774494 0.0
8.830758563027459 9.247271599108435 0.0
8.523580738257648 4.88015211128435 0.0
5.580123316488715 5.701889892660689 0.0
5.398591029446707 5.685938459654249 0.0
5.367686360823392 1.778740548277203 0.0
9.546603444041448 1.754984055696778 0.0
9.489649223089446 1.641312329051244 0.0
9.617973952467912 3.363804764345866 0.0
9.584322830999731 6.729956156156573 0.0
9.597221861144487 3.948534024289882 0.0
9.49401963819799 8.089507968561776 0.0
9.207321074262563 9.416906871900888 0.0
8.27185428346661 4.464932191097996 0.0
8.207416067213774 4.35878753684812 0.0
8.332747746635944 4.354903699457511 0.0
3.990181919126853 3.930792395858886 0.0
8.267392138262498 4.254008221702929 0.0
7.997788712685495 1.196805377512679 0.0
9.600316638269724 5.639973985281733 0.0
9.550939606739425 5.737313319038155 0.0
9.44084303195315 5.74233753256161 0.0
9.50112296154558 5.834555019909565 0.0
8.897429225733994 6.685415510921676 0.0
8.762930941408914 6.695907295903629 0.0
8.654628175336732 9.278157371342388 0.0
8.544676900803436 9.133790942553834 0.0
5.294904777716057 5.855935872688884 0.0
5.216749389964556 5.66865685845661 0.0
9.508453581298625 2.239460033375932 0.0
9.599691370793206 3.169496930704394 0.0
9.546615051106684 3.073514534194011 0.0
7.484714626923596 5.028675123117963 0.0
9.588496050271255 7.850836295555126 0.0
5.153197381012662 1.471340286561097 0.0
9.433168304679345 3.071871997104804 0.0
9.610464706874994 5.829217654498672 0.0
9.561407772947403 5.926179534044419 0.0
8.273381980676042 5.705233340662362 0.0
8.330794188929296 5.594351887246082 0.0
8.207319603076424 5.596747949305344 0.0
7.251338559467102 5.233758892662348 0.0
8.708518799790543 1.130513882092466 0.0
9.590155250193266 0.5878623138195824 0.0
9.389919385420015 5.841079912164009 0.0
7.991397852194216 5.859910582924319 0.0
9.624951589233206 4.975554514425905 0.0
7.240016788025947 2.531866266726309 0.0
7.635666783493215 3.873554782053258 0.0
9.608476620993713 1.863530872936442 0.0
9.365330459496413 8.10677840682376 0.0
8.775076110585598 2.572737931759856 0.0
8.699389445914996 2.444602334375113 0.0
8.625078713232146 2.580891022578613 0.0
8.54447196848446 2.447624719286678 0.0
8.468898498943965 2.586757328881282 0.0
8.62282309213608 2.307826916202421 0.0
9.622102662978762 6.439307895185218 0.0
9.561995355724862 6.35103962032292 0.0
3.898245450818314 1.856155797593496 0.0
9.681759177700954 5.07069253017652 0.0
9.059254996454502 4.963357716933865 0.0
9.113144532326562 4.861710138088372 0.0
9.62140874877204 2.656009146517733 0.0
7.884510615470827 0.9666888912541309 0.0
8.14902661050739 1.005010215149227 0.0
8.491263206618079 8.527197931363634 0.0
8.408859203395778 8.697060715788105 0.0
6.54422152733529 1.954566069381189 0.0
9.563546573097593 2.755667904356369 0.0
9.453065492925557 2.761122255953964 0.0
9.676889098520615 2.755084315170127 0.0
9.678287124781653 2.556838324720633 0.0
2.60254317790297 2.278874965850319 0.0
9.211706272534968 4.050470567310489 0.0
8.526711683538949 5.698821878547752 0.0
8.296604023060945 8.533761944401608 0.0
9.649704314258118 5.543946557831669 0.0
9.651176136337964 3.85122804518279 0.0
9.44590154800397 9.498503704959054 0.0
9.580491248736612 9.476376347552954 0.0
4.3239388803087 3.921156392977062 0.0
9.65737873521736 3.075324100817917 0.0
8.128000846282253 6.160273991836929 0.0
8.06242981852327 6.292371360998262 0.0
8.500465019503922 1.442700595221201 0.0
9.615253212967009 1.649819368149096 0.0
9.561768620580791 1.538553925606111 0.0
9.435477757657937 1.527391516499924 0.0
9.627993450010088 2.242685831452484 0.0
9.5338252733548 0.4673994795805215 0.0
9.398055066504014 0.4589059948533885 0.0
9.669486082509058 5.920177035588319 0.0
9.621072177439727 6.016493814615133 0.0
9.506185962103057 6.018397021409126 0.0
9.196884440497488 7.898824858961557 0.0
9.112591143666748 7.789491461180181 0.0
9.664357762385308 7.950712034233033 0.0
8.46233617997115 2.308903464128035 0.0
8.547917980328803 2.169381684694277 0.0
8.139931430059324 6.410762600521521 0.0
7.672499127532963 9.099143622036436 0.0
7.91372855627271 9.178704612763656 0.0
8.463425076318451 9.290653726808348 0.0
9.643938029094286 9.335632419679458 0.0
9.647017668702574 0.7068996148634754 0.0
6.241662276606473 5.884018212993202 0.0
6.157742245066693 5.73500474100449 0.0
6.318815619949124 5.730068085823802 0.0
6.247706374231452 5.593094310939028 0.0
6.406948541886973 5.593272398468375 0.0
6.092564106310554 5.587409338401505 0.0
8.535507922245372 5.286142900439676 0.0
8.022959839404006 4.471630490587016 0.0
7.963561162854596 4.581393556789843 0.0
9.683487139413305 1.546750704925431 0.0
9.630761777960082 1.435922217091829 0.0
5.121714348989337 7.950140247572198 0.0
5.136464096196084 8.310254432483559 0.0
5.47349124035624 8.455234262268478 0.0
5.176273618280354 8.687190323573228 0.0
4.796664658962938 8.592678692862421 0.0
9.568705729418735 4.887269869750176 0.0
9.462711651199594 4.88832222094458 0.0
9.674903475028225 4.882285174433025 0.0
5.4996067353406 5.546583260717527 0.0
5.663632234555963 5.557613452957074 0.0
6.829408195405585 1.947174574944512 0.0
5.336529198289861 1.127585641139875 0.0
9.672387559812332 6.34138351957329 0.0
4.463988917379896 2.271060678869338 0.0
8.618048281355405 6.263841736419089 0.0
6.480949808711781 5.74815588680617 0.0
6.562207427719153 5.592185077216444 0.0
6.643040463857446 5.721233693378952 0.0
6.712825900331884 5.588664360236 0.0
6.79240375630333 5.711383948285569 0.0
6.86115931532141 5.584697050428064 0.0
6.939210100691576 5.704407337029545 0.0
7.007668476576536 5.580801046893123 0.0
7.084627386867475 5.702817970154801 0.0
6.633257976075473 5.460881327825488 0.0
6.931430743764456 5.461960451448691 0.0
9.682652370938209 6.533133024505995 0.0
8.761108695241376 9.450742747770144 0.0
9.146031326900015 3.764292700000154 0.0
9.089378801805193 3.661317181076136 0.0
9.514354521818781 8.994988681611192 0.0
8.157650730500988 4.262987189670279 0.0
6.329633198899328 5.4647789391701 0.0
2.340685767996258 2.811285337457589 0.0
7.379572471323651 0.9290892725587991 0.0
4.171878172186605 4.222320767259098 0.0
4.4876601621649 4.16473354200826 0.0
5.336389369563535 6.806464508860387 0.0
9.595468321212476 9.108133206829102 0.0
9.645038675267227 8.982113951305912 0.0
8.393140678816192 4.246338342095281 0.0
8.309440721624494 4.155300532283633 0.0
9.418269339704423 1.9925512363779 0.0
9.662781807969623 0.477809346089035 0.0
8.011297869803792 0.7518828483803571 0.0
8.250149975885678 0.7646904662196189 0.0
9.608674873602773 0.3618049194050078 0.0
8.692696069692623 6.582927327365709 0.0
8.628225948401226 6.705702462696891 0.0
8.701883181418305 6.822086652299242 0.0
8.559276855155542 6.829564723911442 0.0
7.069268463354993 5.459534423493629 0.0
2.654575201159115 3.323490466195074 0.0
3.610801136544596 4.044075244426243 0.0
8.263757217166944 5.48730323490738 0.0
8.138838162809126 5.491254533497952 0.0
7.90196833683664 4.477386962763833 0.0
7.987943097943191 3.978756490171551 0.0
9.704623491880403 3.945605151832784 0.0
9.461009573830147 7.301728818091931 0.0
9.532468631193666 7.399916015174975 0.0
9.582688928417856 7.292330983701011 0.0
9.652579613269625 7.387768793572397 0.0
9.699264016151023 7.282867433965265 0.0
9.633305589700536 7.188543855060478 0.0
9.505576100168666 6.961225778216469 0.0
9.43876966151099 6.342441564206569 0.0
4.908483672172518 6.098703904450545 0.0
9.135448256237908 5.269827196966999 0.0
5.905650502271389 2.025036080946255 0.0
9.709890722072377 9.452748507541063 0.0
9.663337613522643 9.572126259365891 0.0
9.603900123387826 7.495180532331903 0.0
9.720147629525837 7.483400774981126 0.0
9.674588415444239 7.588303295299578 0.0
9.653186673863587 4.039274180923234 0.0
9.053164539680804 4.764545162185531 0.0
9.164908495749003 4.763017269285045 0.0
9.226019227262443 4.858029410614327 0.0
8.809947621994619 3.4964384919072 0.0
9.10538997155458 4.665865142902959 0.0
9.331074106432244 5.748993480915537 0.0
9.055854333858068 7.918554535314415 0.0
9.446431573964945 8.209836764658437 0.0
9.573844810886287 8.191100251691205 0.0
9.309704769895653 8.244395007943949 0.0
7.240329561730736 1.676197957122907 0.0
9.543389817573933 3.660019800390455 0.0
9.598599341122098 3.563130123982772 0.0
9.652615161407017 3.658119804270645 0.0
9.706336063693934 3.564815526226687 0.0
8.632284427755456 6.946688912416058 0.0
9.682863230715835 2.349655023034811 0.0
9.571538455120994 2.142369886250143 0.0
8.090821900439733 9.017409120951333 0.0
6.812258669899192 0.9007667548831626 0.0
6.50135254578461 0.8974046495177885 0.0
9.598335906230732 6.246437748035812 0.0
9.719677442549804 6.253968775436637 0.0
8.593026822691716 5.180101360605356 0.0
5.537586126848265 8.836083861509138 0.0
9.688689404995035 2.143487155934306 0.0
2.821389253975936 6.507820864074362 0.0
9.176571289960709 8.507736431357309 0.0
2.918303740542162 8.256728920338826 0.0
3.428955230180972 8.401446814887457 0.0
8.490587404589881 6.715350139132777 0.0
8.86049054904785 7.243279881821806 0.0
8.93696309213556 7.356650230611625 0.0
3.951931175165697 5.78308550088855 0.0
3.65055612573298 5.91672400098539 0.0
3.668142216548471 6.247526235973777 0.0
9.717269848920886 5.821831227352286 0.0
9.708364917734201 3.164198601626433 0.0
8.45581975650687 4.569560863828342 0.0
8.204448312099833 6.040774355519757 0.0
8.65969449127868 5.485991799508151 0.0
9.707534571012967 5.634423933296901 0.0
9.62102991883279 2.849662850313935 0.0
9.144093558002634 3.560383427867003 0.0
8.29763273805118 1.77155302934031 0.0
5.280452715709455 9.01633391004168 0.0
8.984558945859158 6.99932633710603 0.0
8.4157550875812 1.275784953143711 0.0
2.068078118650995 3.355462780535101 0.0
9.205703884756806 5.568274778556933 0.0
9.745857863753141 7.178456670302003 0.0
9.681628895748586 7.081494416756802 0.0
8.875818787971069 6.240744812097083 0.0
7.993733797566922 6.414830952863579 0.0
8.462810157069566 3.377071044664789 0.0
9.29428363519789 4.759591981903337 0.0
7.933956818298286 5.97437536746848 0.0
9.028281726378319 3.558713145763133 0.0
9.083461773461467 3.455531762175701 0.0
9.73231939683535 2.849247643393067 0.0
6.70072305037728 2.192432536215492 0.0
6.423245125077639 2.212870246546939 0.0
4.931537051605536 1.135086496804522 0.0
4.746426561586179 1.500381091957315 0.0
9.707706579932626 7.836419656220658 0.0
8.590593344701457 1.595639668013959 0.0
8.708946574109854 2.1688179918246 0.0
8.634728854549891 2.028564483452208 0.0
9.230357659411311 8.129337203173913 0.0
9.102841374461482 4.452881308250647 0.0
8.472081531214734 5.388993924853032 0.0
4.925996806199801 5.844046944846857 0.0
4.702806345752284 5.745688656289065 0.0
4.884357002239844 5.633237011762874 0.0
4.709628434300812 5.536404116679045 0.0
4.530800966746534 5.627044171217377 0.0
6.040296145349247 6.603808099703576 0.0
6.162203578696918 6.795213950202512 0.0
5.923135943221574 6.824060069869489 0.0
6.046693245732212 7.010423490915212 0.0
6.297337598588478 6.979895528204233 0.0
7.760448385794147 0.7294020304851334 0.0
8.492228348169641 6.958778476405878 0.0
2.89219822877093 1.704113597264478 0.0
2.26178643438086 1.7814602252425 0.0
9.726968895980871 6.009547057102511 0.0
6.63195110828313 0.6072886418835157 0.0
7.984023036954866 7.515675826210831 0.0
7.893857204140559 7.681876703427663 0.0
7.778465117872411 7.537836322197895 0.0
7.998204230811618 7.844922503023499 0.0
7.798554315988981 7.858161805718108 0.0
7.917846202023782 8.03040048103727 0.0
8.547520504556728 2.721261126162116 0.0
8.39253850806587 2.732073315877738 0.0
8.306047241032278 2.59069854402512 0.0
8.233011054235162 2.739783364361515 0.0
8.318836035587811 2.879838477099622 0.0
8.159530874574331 2.888511553151382 0.0
8.245490421394788 3.024568439743106 0.0
9.759103003747676 3.077839427881478 0.0
8.083610090773394 3.033523757291178 0.0
8.174562583800352 3.166768504406541 0.0
6.046769434852523 1.155662270344939 0.0
6.968371001421964 2.176347877216873 0.0
8.324858098380334 3.152966249334499 0.0
8.145556596142626 2.609897633546475 0.0
8.970652052821418 7.804556541250797 0.0
9.033737629244714 7.681328986528639 0.0
9.62347010002576 4.796939565664328 0.0
9.72520380348743 4.790261082613535 0.0
4.882631186210167 5.455006233451049 0.0
4.618356368594037 3.933076284395493 0.0
4.748083507220199 4.151025177732873 0.0
4.641724290430313 4.358202249373887 0.0
4.87055838101999 4.337900676660481 0.0
4.974114446887331 4.149149057174687 0.0
5.081577844806959 4.3240148266423 0.0
5.179521650033781 4.148725180298481 0.0
5.276261408871418 4.316673822529601 0.0
5.369189110897883 4.148362797753505 0.0
5.463892033849439 4.338819369807593 0.0
5.550828466075906 4.146274465971151 0.0
5.646554822352869 4.303571429647391 0.0
5.728109623160046 4.138582010823754 0.0
5.821689108984419 4.291959598724587 0.0
5.906082534948073 4.141649907302701 0.0
5.99655838673762 4.288752711512514 0.0
6.077312859438928 4.141011188943332 0.0
6.164215275138099 4.281164574562373 0.0
6.241782344986693 4.140701084167517 0.0
6.324316420613108 4.277393447415522 0.0
6.40284165425941 4.140026953305852 0.0
6.483655157361099 4.273418937894759 0.0
6.561170698911611 4.136221843106807 0.0
6.63512300179586 4.269917278694155 0.0
6.720306110251473 4.133393659385058 0.0
6.63777078218551 3.99617001426095 0.0
6.802492763973074 3.994355399489989 0.0
6.798834760478153 4.276914787769972 0.0
6.15377608509923 4.000134206628027 0.0
6.548727135071258 4.400510710520637 0.0
6.251479300130713 4.421887359316258 0.0
5.275876048175579 3.979624500657822 0.0
5.910905077162284 4.431174408784691 0.0
6.717070288412452 3.851239795555301 0.0
6.883499045994213 3.852555480300214 0.0
6.96664848901999 3.994033961856844 0.0
7.048208567116626 3.854750001965969 0.0
5.810004974283072 3.982497501655442 0.0
5.586615391658107 4.471070246359201 0.0
6.547331954052155 3.853872077215347 0.0
5.179081233207816 4.485638492900557 0.0
7.126615227065496 3.995337770596979 0.0
7.209459742762513 3.856893463870469 0.0
7.130226097876905 3.713620439679428 0.0
6.63075064074106 3.699684148676045 0.0
6.446985573861992 3.697358756862005 0.0
7.043151422977365 4.131713936060725 0.0
7.198322215260019 4.129850614748363 0.0
7.119378405252723 4.26005098890218 0.0
4.797146270976422 4.525762781577414 0.0
4.608329098388589 4.573584257851931 0.0
7.294442092743627 3.720853338661503 0.0
7.215753312764997 3.571378507508807 0.0
7.049631633956289 3.568047985538775 0.0
7.133765707749521 3.414282375958479 0.0
9.755079417839903 5.539705890434435 0.0
9.698955703441971 5.450920012703194 0.0
9.717604099406742 9.09084770432896 0.0
9.276716006673976 5.847248422342224 0.0
9.339081208926798 5.941174203394446 0.0
9.031261921742963 3.750271483819014 0.0
9.08721978689863 3.853416037308712 0.0
4.801461566647803 7.510704110489921 0.0
8.206553504932042 5.818005960412773 0.0
7.362361315389098 3.863102442315545 0.0
9.492826845316191 2.963845037486267 0.0
9.376710375304633 2.97229517374228 0.0
9.3192743723601 3.070687802230453 0.0
7.915389082113898 6.293241865913004 0.0
6.735006382384437 5.832450056405368 0.0
8.456481836836168 4.35369289249905 0.0
8.517718268476031 4.246675068616396 0.0
5.583512022030555 5.411069060406398 0.0
5.73625200174779 5.422617752052123 0.0
5.81006929286229 5.548584937688919 0.0
5.903438861894402 5.420604003204523 0.0
5.43801870974416 5.402925156167655 0.0
7.022641548594327 5.825217331839047 0.0
7.165095795605366 5.826005223633447 0.0
7.223078558430726 5.690146755650336 0.0
7.841396000338385 4.586693006493787 0.0
7.904793170875705 4.690826189066096 0.0
7.785999820520073 4.696719777099973 0.0
7.846448506395101 4.798518978096564 0.0
7.728149182067156 4.803800941124008 0.0
7.788983823826226 4.904802634695232 0.0
7.672018889153144 4.910077510508749 0.0
7.731996012352178 5.014717724244488 0.0
7.852072803124419 5.00743796185411 0.0
7.779278698005006 5.118909346425974 0.0
8.088113864063853 5.605434545811022 0.0
8.016457362785575 5.494849890158723 0.0
8.072290383394757 5.385594956317259 0.0
7.95068657972964 5.38825563681957 0.0
8.309366678475389 1.438342408757099 0.0
9.748160780780179 1.447794693754379 0.0
9.696454228162398 1.337889922375316 0.0
9.568813761940916 1.329560834053294 0.0
9.638326779791626 1.226729570935787 0.0
8.472132467407484 5.182856496818138 0.0
8.066211547412054 6.53691730655352 0.0
8.217035586462373 6.522976700918602 0.0
3.544839338670893 3.324491119989469 0.0
6.999740002965287 5.347729916247808 0.0
6.874544698914502 5.347027470386579 0.0
4.880451234715014 5.193043717957879 0.0
9.104510033763066 9.313204713465637 0.0
9.0466357104558 9.45359399494339 0.0
9.146803165140184 9.569652364413551 0.0
8.134107047896672 0.5527712356100052 0.0
8.369770412730738 0.5571215815175228 0.0
8.47386979744655 0.7564607169846485 0.0
8.585193608569258 0.5749174254532757 0.0
8.683868132726584 0.75505070091701 0.0
8.787381435061018 0.5813987798627239 0.0
8.697570280442534 0.3771156480326233 0.0
8.530048434259976 5.077280516000916 0.0
7.995091351438729 2.90367515012593 0.0
9.731083608815164 1.662638626153251 0.0
7.260488865351954 4.255073962371814 0.0
9.760728358076392 8.990038509880067 0.0
9.716710396257366 8.884160310398862 0.0
8.794627466210242 7.369659405098349 0.0
8.868068657550866 7.515048014893154 0.0
8.702594597629135 7.510501129643432 0.0
5.132320689147051 0.7610757801158905 0.0
9.755852887652699 3.853180024615871 0.0
9.787424819067885 2.757921105725315 0.0
9.731193479931608 0.3736343090103709 0.0
9.796526908308536 0.489684029254899 0.0
8.226019692057042 2.453349105940535 0.0
4.560989821496479 5.428206018250252 0.0
4.348810639659689 5.517048281386008 0.0
8.785190163106925 7.119142251269924 0.0
9.015515413043023 7.464769766852701 0.0
9.754861440190705 3.659036930324926 0.0
9.7543610723378 4.033687839160082 0.0
9.707881226943384 4.127219992296752 0.0
9.52841017383273 8.309020665649431 0.0
9.65186044414544 8.289498614805698 0.0
9.714051275521857 8.173576484362068 0.0
8.209758892476394 8.715513071423135 0.0
8.097084883671858 8.548851201381087 0.0
8.177989947800599 8.367872862579052 0.0
7.974142434808908 8.36779470623567 0.0
8.409012054919861 2.142624252464372 0.0
7.707002321497132 8.039129945341395 0.0
7.574653123518228 7.83895791570255 0.0
9.229858094382692 5.951357214361815 0.0
9.75307989876696 1.229893222503321 0.0
9.715811155868643 1.128779429890018 0.0
9.597960915003707 1.117058287635912 0.0
9.672063923518955 1.020806103150243 0.0
8.99090422125785 9.593878510105375 0.0
8.133165456134304 9.257620998029804 0.0
7.976779931497633 9.420725324095141 0.0
9.77231778617502 7.927819487779705 0.0
7.957213679655531 4.364530256281665 0.0
9.609903116082736 8.403725680286847 0.0
9.724891358972584 8.388392708395173 0.0
9.687487059868507 8.495935345161797 0.0
9.810055520269009 8.494090598382963 0.0
9.755967487162335 8.599790818513082 0.0
9.645698986824481 8.606121319182705 0.0
9.721376049217765 8.699989876681524 0.0
9.773009257015609 4.884557953188837 0.0
9.830105798750992 4.796546393900876 0.0
9.775335108731761 4.686093304257503 0.0
7.455611517737074 3.730099283949135 0.0
8.906943567829634 0.4197477661467797 0.0
8.980613334153533 0.5814185917581446 0.0
9.081059111759728 0.4263421860552371 0.0
9.821654809259165 3.576985724143072 0.0
9.761309244784803 3.4792267780002 0.0
9.763329553045937 9.353068233045157 0.0
4.463051839136694 1.164440352584939 0.0
8.0213168204867 5.283436382300235 0.0
7.89385412333227 5.290429544753158 0.0
5.806940001023414 8.583716119232427 0.0
5.88977793877374 8.96065112858812 0.0
9.177759062826041 8.25539130897928 0.0
9.626582559276994 2.05283181283147 0.0
9.747673294325121 2.064954301745188 0.0
8.775905508647185 6.951821187702613 0.0
2.3581644273991 6.029034686663493 0.0
9.777798009058461 9.548066962498762 0.0
9.737129197219856 9.662299853506903 0.0
9.615080366030512 9.683349544763068 0.0
3.315839678697904 6.042943273456425 0.0
8.915083018115329 7.937748428923896 0.0
9.489832173860055 4.712364754630572 0.0
8.118313727862493 8.013944064029838 0.0
8.902248750797776 7.67372145952523 0.0
8.954075939212636 3.463080912810881 0.0
9.45247551997678 2.133243108303608 0.0
8.311151553157742 8.899233004613622 0.0
3.28672004268868 6.826745674539142 0.0
9.86008383798735 3.468233656255824 0.0
8.389990589860254 1.947086063498656 0.0
7.144231739553659 5.329544660076687 0.0
9.654500729007207 7.743301971143119 0.0
9.761920842881946 7.740144345898896 0.0
9.692820773976567 0.2651585113981998 0.0
9.690951720399688 6.100517071814821 0.0
9.775704281989471 6.077882312279847 0.0
9.823117117198079 4.115168542267924 0.0
9.764391943581737 4.214465954230587 0.0
9.659455011849253 4.218716850797838 0.0
9.713462125022623 4.30742830316693 0.0
9.849638067150842 4.208845651573708 0.0
6.376241713254513 3.858766051594979 0.0
6.274931849158213 3.701528298009006 0.0
7.097780104117746 1.926449727602711 0.0
2.457742027508782 3.810157622192786 0.0
2.963634206580268 3.740748099915693 0.0
5.065585416063965 5.544355730437482 0.0
9.783560252464587 7.566507987677117 0.0
9.825819294611026 7.470942204664841 0.0
9.799976114123012 1.01659516618323 0.0
9.745559590633832 0.9150866860898854 0.0
8.20473400632469 9.495828670767946 0.0
8.784586030320169 2.054461500762216 0.0
8.758471587067168 1.888286802854785 0.0
0.9188935087347281 8.510730800272478 0.0
9.674192026048217 9.20389587377276 0.0
9.796314981283475 9.185916994648775 0.0
7.206882433199502 5.452024361489832 0.0
9.773927048949279 6.334665846819535 0.0
9.830288393591173 6.225300227041885 0.0
8.25177349297509 3.282767705830209 0.0
8.099233469407428 3.304040153764131 0.0
9.607860512870598 4.315652630490023 0.0
9.403674738018715 8.367349042046314 0.0
7.611756786273919 5.018691202305147 0.0
7.549513964643336 4.923310232561835 0.0
9.80986724662116 0.2915868356190958 0.0
0.7757562810577034 3.504187313079081 0.0
7.659562100664981 4.698467529240196 0.0
6.539424975891206 3.541729955691742 0.0
6.717348880400739 3.55221857686142 0.0
6.836337579501807 2.417476958454302 0.0
7.096480496160066 5.959124656438389 0.0
7.189742782777612 4.377051328076039 0.0
7.051723187622053 4.38470822973091 0.0
7.125489805519186 4.497018383456762 0.0
6.994915621927777 4.501504591168814 0.0
7.056755276274058 4.607929817497045 0.0
6.932937068803914 4.613249390039674 0.0
6.86629288290367 4.50541343988659 0.0
6.80427099775847 4.617607827251794 0.0
6.739195362053689 4.511124964201849 0.0
6.677260697693361 4.624288827143181 0.0
6.996760608675822 4.711715831373894 0.0
6.316045249462968 0.6456945497683586 0.0
7.321834163850416 5.816449323512759 0.0
7.833101485370825 4.390058096386987 0.0
4.996572652976738 4.498711166259074 0.0
5.112334577457371 4.663858846723513 0.0
5.271923064784868 4.629759173373871 0.0
4.93773508827367 4.668006487116195 0.0
5.348137647919096 4.485934621930562 0.0
5.413454827497575 4.62999925573761 0.0
5.356581113747675 4.770594395332836 0.0
5.013422223730484 4.793321773780133 0.0
8.58674425943957 0.9312335381466886 0.0
8.776450596582496 0.9362399987293505 0.0
4.783496233934828 9.486061758876032 0.0
4.544176394620909 9.034071856445296 0.0
4.082330493623582 9.015765881393772 0.0
9.820867469965414 7.285959215547852 0.0
9.852697883440127 7.166089674802766 0.0
9.260999083164238 2.971390964911171 0.0
9.197701900169713 3.073162109379564 0.0
9.31960210441945 2.867465579641856 0.0
6.660951583415121 3.383363199709994 0.0
5.210469976037585 4.761678854423166 0.0
6.740780285297665 4.733615686805694 0.0
6.611362405615225 4.731958642073806 0.0
6.549091884465382 4.629620704100811 0.0
6.491761716522486 4.733409494449344 0.0
6.425259228542098 4.640546096196947 0.0
9.715556659367534 2.986725573570596 0.0
3.710524324925069 9.463213827486557 0.0
4.768537031214573 4.727001037865238 0.0
5.039413681704655 5.378508462165627 0.0
5.188746429211535 5.440476671296013 0.0
5.172214816037712 5.298914527247826 0.0
4.469063601436893 3.667917323494335 0.0
3.799121596584382 4.741629285988305 0.0
3.661085664896249 4.442847704416992 0.0
3.316563386321876 4.380147387454913 0.0
3.802087298647255 5.26743535640985 0.0
9.738116341343215 8.047178982429934 0.0
9.85106076399546 8.021725551312715 0.0
9.837581050304836 2.844176011307251 0.0
9.664579962075123 4.402853107737106 0.0
9.76433159763034 4.39807801415352 0.0
9.718924973226878 4.487825491046641 0.0
9.826405563645343 4.494594135148365 0.0
4.931068003413168 6.359330991212394 0.0
5.130175746947236 6.201075257041828 0.0
5.143884286052002 6.445382329515047 0.0
4.953395875296406 6.628748468717369 0.0
7.833019185167153 5.400347121613631 0.0
7.766636138801143 5.313240048256084 0.0
9.767038723422333 4.578090619166644 0.0
7.315369355237483 3.441501197259575 0.0
9.556068971301514 0.2347811136726856 0.0
5.733871280791703 4.444861510772459 0.0
5.828809543126846 4.569791247698539 0.0
5.986701526182213 4.562881783985375 0.0
5.912543327921148 4.692966271273211 0.0
6.052130330528581 4.682477327897978 0.0
5.773525984744635 4.697697018456535 0.0
6.121646311546238 4.572302645403103 0.0
6.182349700936326 4.67713231096357 0.0
5.846371383601797 4.808939734754761 0.0
5.117807918383606 5.974361363083184 0.0
6.256132501905665 4.575863546153224 0.0
6.324770064521816 9.645040261272253 0.0
7.345522892050965 4.12581088034536 0.0
9.338523512844539 4.854480276600515 0.0
9.286984287289403 4.959628690044808 0.0
5.676298026114105 4.589279806918992 0.0
5.631257891894775 4.722749088404111 0.0
7.970415275563177 5.621040275419208 0.0
9.565118337557308 7.081391220827488 0.0
9.626201005045262 6.980441083020495 0.0
9.733729506193331 6.979928568877979 0.0
9.684556253529976 6.887102896543928 0.0
9.780785815410074 6.890287441101827 0.0
9.740054813822885 6.794211367612523 0.0
6.462628988057306 7.629921412015864 0.0
6.692564520952154 7.473594130811262 0.0
6.927983108788191 7.570982428592125 0.0
6.899878641134941 7.329306734748538 0.0
7.117542472438434 7.416951094809493 0.0
7.089537168123128 7.186691566729968 0.0
7.296585396514727 7.275888419524222 0.0
6.879678873774065 7.097443005287856 0.0
7.063454637059129 6.967740076426161 0.0
7.329105042924355 7.496317641003757 0.0
6.867084781778411 6.878842928865059 0.0
7.494278796275744 7.351949197351029 0.0
7.462564159480594 7.150140034494138 0.0
7.644835001206406 7.21506678718646 0.0
6.682478929414216 7.008358327294905 0.0
6.449199855715812 7.365660640952548 0.0
7.548139855358765 7.57299228324251 0.0
7.008502809092701 7.844601794812628 0.0
7.371739019901781 7.707688433423657 0.0
5.665345294602155 5.290628720253272 0.0
3.987583013016546 4.486920698115711 0.0
8.893480480320447 0.7785000884179994 0.0
9.715485963651112 0.5955299613117169 0.0
9.761785841543585 0.7048670948649375 0.0
9.670304314877074 4.578896619304786 0.0
8.058509626083154 5.744161686650483 0.0
6.181795443628869 5.462040811515966 0.0
6.256771804808641 5.338464817889848 0.0
6.124070400983443 5.352376180901929 0.0
6.399679261813415 5.349186390888865 0.0
6.477776305607503 5.46505688468465 0.0
6.541624525938461 5.346017118512589 0.0
6.673064575428321 5.339051516933525 0.0
6.599301548842115 5.241958624987057 0.0
9.573774011620444 0.815274945835158 0.0
5.86493292693426 5.877588788523632 0.0
5.552663040119136 6.957487930464628 0.0
5.535080960199246 6.663033131707637 0.0
3.708603689392072 0.5979254716153909 0.0
3.31896983256719 1.188583855309964 0.0
3.895664898001925 1.128137111173669 0.0
6.363360407965353 6.032416442205533 0.0
9.445959758065749 1.070139246426051 0.0
9.50632172780449 1.214052376665338 0.0
9.441030033980638 1.325047485624912 0.0
9.295799464644857 1.341410624832976 0.0
9.184164107767781 1.461677744200096 0.0
6.407191016756832 4.407273313799791 0.0
5.544591888593027 0.7652641669375747 0.0
7.883090151006535 2.497506182548758 0.0
8.073420508370992 2.120510489750234 0.0
5.494822040671399 4.732314720081375 0.0
0.8986976806403217 1.464611451578306 0.0
9.536325549598013 6.83286654168725 0.0
5.972289519322897 5.727532110854501 0.0
9.82203607053145 9.443411729566549 0.0
7.263199949874008 7.064207941227515 0.0
7.233659553805083 6.853135694774254 0.0
9.793310082768443 7.072747972018893 0.0
6.734168931095253 9.67499220075154 0.0
6.941134861034159 9.382328333169653 0.0
7.285822522704258 9.443989747444657 0.0
6.576263515512108 9.333035011158342 0.0
7.160560566479093 9.127732577621245 0.0
6.218711947378506 9.298064908857533 0.0
6.432383355119106 8.980985203293491 0.0
6.795390278360442 9.046043538032663 0.0
8.54677014121837 0.1957422484480979 0.0
8.528696320820908 9.804850950580938 0.0
8.42644965647489 9.604735484095604 0.0
8.010239224104339 9.715048083583248 0.0
8.644359648763341 9.628432815860457 0.0
5.344212921686536 5.526744195650314 0.0
9.760936589662048 7.38409687515441 0.0
9.128187788393989 0.1445485608215519 0.0
9.133307661752394 9.854833215426817 0.0
4.867351616228264 3.944459575003425 0.0
5.905323253270366 7.385600364255367 0.0
5.909045412185362 3.361969954191194 0.0
5.80580919758911 3.569999290452344 0.0
5.578230704221431 3.587842862412673 0.0
6.013352753603037 3.550699073477782 0.0
5.936624955014758 3.721630401607248 0.0
5.735413275357409 3.78528948606432 0.0
5.512538847486775 3.794760621907932 0.0
5.360571639388366 3.618649018042938 0.0
5.134141179590394 3.459385929220745 0.0
6.167399567008798 3.367365990358096 0.0
9.766756262206602 8.291756450136036 0.0
5.486063578307141 9.64505925252771 0.0
9.497624614180321 4.328873442170357 0.0
9.811387324954623 1.570516917365688 0.0
9.389210081887331 4.69150887571586 0.0
9.704395728912932 3.754226393630331 0.0
9.808172776193384 3.748784464356272 0.0
6.549660911932182 4.839747932361234 0.0
6.757415124099031 6.077939876843736 0.0
3.805578542126494 8.040840085419626 0.0
4.232580149691158 8.198659880701744 0.0
4.559765382564095 7.87091698350757 0.0
8.3829075948167 0.9495097054886067 0.0
9.8571301061408 1.456307792614791 0.0
2.005900212453279 4.535525273813588 0.0
1.85904408608185 3.956445706785572 0.0
1.979307922430775 5.474327285927505 0.0
4.387923194305381 4.427191306527721 0.0
9.429258370703248 8.873693567695483 0.0
8.99196583083892 4.664567567015693 0.0
3.050357122593155 5.368999067452741 0.0
2.861107385476722 5.785089447130829 0.0
5.005058958272409 3.711196438448062 0.0
9.8972295764837 2.755337284632969 0.0
9.581048890980513 8.853909321617065 0.0
9.668838904423916 1.762418716497425 0.0
9.716576458425756 1.852218615166234 0.0
9.799043132681442 1.780583141193779 0.0
7.661868217848455 2.880323287492419 0.0
6.780136552904057 5.443858690999834 0.0
6.489544866845868 5.913957888434588 0.0
6.880149522020364 4.134257616716107 0.0
6.970134365280068 4.264072319341612 0.0
2.225481516813409 9.348422240784 0.0
1.843418032490818 8.641605249943353 0.0
2.198000805242772 0.6459947140825729 0.0
8.740020306282506 0.1903932731609072 0.0
6.86957996016679 4.720776242956433 0.0
7.430920333506809 0.2702852342693345 0.0
7.302066064947383 0.6134316505458445 0.0
9.305398039877746 4.64854361125207 0.0
4.078151380865065 5.203425462519088 0.0
4.080704120371218 4.778853303303787 0.0
8.052525541571825 5.965483159581719 0.0
6.367194027835946 4.754896037842673 0.0
8.604191121620719 7.648182513679963 0.0
9.546446695207845 9.234701521982952 0.0
9.018652854946867 3.351011585453845 0.0
9.143853648154607 3.350173119015413 0.0
9.067079866763024 3.245174561579149 0.0
8.991492136849105 3.135578770028028 0.0
9.29603967712795 0.1426516429033488 0.0
9.392428271030795 0.2506306237151588 0.0
9.223973843394301 0.2912279164401488 0.0
8.39375191941536 3.018777714002827 0.0
8.4836475746111 2.88135207267795 0.0
8.741089053946197 9.821127577434911 0.0
9.803966507713174 5.448064463539533 0.0
9.748132240148552 5.359371181503531 0.0
9.850258990973547 5.355211921626304 0.0
9.7965346514158 5.266762244994661 0.0
9.84142096963129 5.171050273734619 0.0
9.738843612428232 5.167483913244169 0.0
9.64168976006725 5.359875132194057 0.0
3.335917453809221 5.671837672982919 0.0
6.962669142802881 1.683222554707996 0.0
7.365210844496719 1.887492842536114 0.0
7.517378971174123 1.677983072937792 0.0
8.00383870208024 6.089394601875145 0.0
1.725435941000569 2.759295503019395 0.0
7.907977929549089 5.102827208603365 0.0
8.052861051278896 0.2683271125209605 0.0
9.80169732768395 3.385443381464333 0.0
9.831597648680848 3.28491948963525 0.0
9.736335895866404 3.316207814499244 0.0
9.597256128490281 3.756160701977744 0.0
8.865819925321706 3.366235906378775 0.0
8.489614436807788 1.757152185195495 0.0
8.88089641144391 1.078983279100314 0.0
7.430923851187758 9.724389499796425 0.0
7.584252919312249 9.509430586267927 0.0
9.744026095940516 2.247117754488748 0.0
9.729961521243718 2.659836747108116 0.0
9.790866569780063 2.558993767350471 0.0
9.736606445116795 2.455104424879619 0.0
9.846806182714698 2.452157456754448 0.0
4.518102112052724 5.141350889745285 0.0
4.519880229178207 4.85678334497067 0.0
9.7302407894617 6.434012603549242 0.0
9.787537474544765 6.523591663056312 0.0
9.744262337067932 6.617499601377625 0.0
9.8406238811518 6.41591236129004 0.0
8.914967252734657 3.579360039684312 0.0
9.154797282599406 5.670753066089419 0.0
4.228839454580575 4.612979739018002 0.0
6.095037541675208 4.42126627187728 0.0
9.304166983880842 9.864854494751789 0.0
9.406445527105628 9.759007358529582 0.0
9.256225114941945 9.700832989525724 0.0
9.796206564635622 2.351215649506205 0.0
9.849373673349081 2.25090453834006 0.0
6.332048155295931 3.511675163099286 0.0
9.069679774213784 3.022879178706259 0.0
9.070599961450037 9.055284879641471 0.0
1.808685691036764 6.331557276533421 0.0
7.120156826652838 4.698481230214924 0.0
7.052894345811342 4.799848851879358 0.0
4.739957520484086 5.369107149361242 0.0
9.389197839958292 7.197139943834638 0.0
9.046688232613976 4.560364044038737 0.0
9.162685461967492 4.562194096410666 0.0
4.227377821420887 1.564128177298305 0.0
9.201090975245227 2.794301402811909 0.0
9.251941624303948 2.677556975242327 0.0
9.186758273070138 2.563916005021366 0.0
9.317609833868786 2.560335260954038 0.0
6.57599191748324 2.437689779955877 0.0
6.305556560534859 2.459112595979303 0.0
6.981058048792093 2.642476994448363 0.0
9.886113463139504 6.510498309609482 0.0
9.250462794607717 6.221362629571698 0.0
9.305373999084068 6.108271307139882 0.0
9.390477915810829 6.228015172491477 0.0
9.44452571968143 6.114582165110393 0.0
9.502105740270528 6.197677857389309 0.0
9.31559697209813 6.331647407124485 0.0
9.370938253597153 6.437386206819511 0.0
9.594764406124872 0.1099001288712305 0.0
9.602872681151728 9.894988341116305 0.0
9.622661196143387 8.076680696281343 0.0
9.769069277144705 5.9102532189237 0.0
2.615076109785583 8.807551523115547 0.0
9.658920005405456 5.730890135691177 0.0
9.76063135061807 5.720703211793342 0.0
8.63963723169499 7.177334225227945 0.0
7.841904391869763 6.41346852896409 0.0
7.764520718520185 6.297267738834625 0.0
9.546492996136271 3.465225175657335 0.0
9.25600964352143 2.219157062786616 0.0
7.625057159226293 7.012987957636062 0.0
9.529121062829038 7.730283486008674 0.0
8.329887090625894 3.845190321147069 0.0
8.265841850823831 3.95687001944245 0.0
8.402006523775544 3.947660780406651 0.0
8.128436391670505 3.968543393650448 0.0
8.46705122470662 3.835767362024195 0.0
8.218867047074696 4.063481375518748 0.0
8.089763413611255 4.08062363292928 0.0
7.939578083855268 4.111915744184436 0.0
3.74991304509639 6.615676756107112 0.0
2.627714335615619 1.170993030860914 0.0
7.046129971268607 6.759930788612616 0.0
8.534603732661887 7.486325780553722 0.0
1.569381386467569 2.042794535871475 0.0
6.228703743210918 1.986421863690014 0.0
6.467030855792859 2.67190498312861 0.0
9.272246093269825 1.975478263632296 0.0
8.05269609263041 3.854522845257449 0.0
8.008595521536957 3.177870309354594 0.0
7.929796740504207 3.350600835935766 0.0
8.048703574664067 3.449582532910417 0.0
9.72947480375618 4.973926800124758 0.0
9.784850360535604 5.072865219810449 0.0
9.896036387646596 5.069261557893528 0.0
9.633140953203334 5.168645132864771 0.0
9.558102991128836 7.602453108835212 0.0
7.278758746505716 3.994295887299482 0.0
8.306681733482405 6.936428510427854 0.0
9.487163072013963 3.757777670075558 0.0
9.532950522284125 5.359403698944497 0.0
9.816036650072329 3.927268437107025 0.0
6.173882586235392 8.734645960664665 0.0
7.972518459433741 5.003005338485466 0.0
8.398453459336153 1.601072016988848 0.0
8.97460527296194 4.040886705742754 0.0
9.037941657530773 4.143578781749325 0.0
8.849604200183613 3.828506169652706 0.0
9.545296177100065 4.042698359132156 0.0
8.595941796785514 5.806754902023664 0.0
8.65588412428292 5.694192853853139 0.0
8.723710665131787 5.801528918332044 0.0
6.861288985046249 6.673713222735126 0.0
8.87477249219366 4.664500928777609 0.0
8.72385765226959 3.608276264790996 0.0
7.145228858696953 5.573648565429618 0.0
7.282945121585866 5.558559688509987 0.0
9.224761401603633 1.602363370249125 0.0
9.609115686587552 2.986868833620756 0.0
9.633989947851914 6.628120633848649 0.0
6.046214325132457 5.45615093027661 0.0
9.017014346798927 5.271996636983457 0.0
9.070824864071271 5.168510834798647 0.0
9.189021391555556 5.166867900487267 0.0
9.123328759137758 5.064718588163964 0.0
9.240587446378079 5.06459430516883 0.0
9.250848280531756 5.267364371053135 0.0
5.773050603406019 5.7192906317521 0.0
8.576466432793914 4.3559007860436 0.0
8.634627802680399 4.253467736542067 0.0
8.461790117175607 5.591735227444779 0.0
8.907610717370224 3.713397213891439 0.0
9.80665594564509 5.628066492225966 0.0
8.985935132601089 4.455263493464225 0.0
9.00640209566022 5.067597672073404 0.0
9.833659276096986 6.976519563917422 0.0
8.0283368553477 4.687271895436317 0.0
8.326580191759327 9.127498457128247 0.0
8.650637373791266 5.07513089931925 0.0
8.701067313435203 2.700069743477523 0.0
4.825307249916392 4.884175191874744 0.0
9.418335984190309 6.858444798015129 0.0
3.91434687300816 8.542956908935874 0.0
5.569239724399552 2.064135034637056 0.0
5.234271567762738 2.128974435011933 0.0
5.757920427527626 2.312422707096966 0.0
5.43365689737979 2.427455772745759 0.0
5.673210219624612 2.602111218343444 0.0
7.214258468265766 6.652783071431555 0.0
9.823626269633962 4.30685540664529 0.0
7.96996639420014 4.794005510174826 0.0
7.616003332725032 0.502676560965646 0.0
3.050634530589821 4.659174799474146 0.0
2.870894249800723 4.246924313393336 0.0
5.285393339952368 6.079037173753393 0.0
9.439954241218905 4.23581687956071 0.0
9.67709722097145 4.710772408106511 0.0
7.40767785509217 4.259947873553335 0.0
8.396202587439676 5.486075637998701 0.0
8.323689688705493 5.372061002264632 0.0
8.191312386254125 5.384662546230823 0.0
5.304380054816289 5.369675374029755 0.0
9.093848379546637 4.047647920840374 0.0
7.916313220758624 3.045043876114836 0.0
8.435854831444637 4.144861908356168 0.0
9.060262453079693 0.7340576053322918 0.0
7.053195520344596 5.238809779682351 0.0
9.621762679347093 2.45205452967588 0.0
8.410730269104743 5.287995309529392 0.0
9.655094569234972 3.472720279371932 0.0
7.982140513923982 6.667914768024983 0.0
8.402690325256646 4.883576657130221 0.0
9.17488654147479 4.962006474835693 0.0
9.013188196102961 8.49700148123058 0.0
9.795977244531603 2.156818021002043 0.0
9.893813711206834 9.545820400859157 0.0
7.965349232662289 4.250048884270795 0.0
8.644264557989125 4.874751532150782 0.0
8.215430976121077 1.26077208565765 0.0
8.379717637669398 8.37324652769609 0.0
9.320026533461409 5.559861899725609 0.0
7.885778178744864 0.4977439426642278 0.0
7.547066983926719 5.125166613071239 0.0
7.657542898944819 5.122996245335209 0.0
7.423918840193691 9.000935553397358 0.0
9.854133000712425 5.541931969512857 0.0
9.328508174398952 2.101486405523264 0.0
9.300749600926641 9.530012105354274 0.0
8.130307182491519 5.277079344947874 0.0
8.346752967392757 4.987627363826086 0.0
9.118404185029991 6.007087846617186 0.0
9.048232213728614 5.89431792713258 0.0
9.088340967655858 5.576242562571367 0.0
8.094762487139027 4.789727191449318 0.0
9.915265904493378 5.749591413470928 0.0
9.92169805280126 6.154216704502091 0.0
9.918022441582268 4.549125436287157 0.0
9.919332362905616 4.849536560132457 0.0
9.914800786693318 6.750595509794719 0.0
9.811792900437824 6.703950687575952 0.0
9.900643083988882 3.749855087409844 0.0
9.912423171222734 3.043228996968949 0.0
9.91892875832665 5.949999999993851 0.0
9.913300070218703 3.960831593817277 0.0
7.709347001661226 4.444236534782706 0.0
7.479443107717332 8.071637285053104 0.0
8.839057072155848 6.807845119358974 0.0
8.972330068019902 6.78765448182788 0.0
8.542093772125282 3.941452413628317 0.0
8.279144752968262 5.930387616620717 0.0
9.393455876855919 4.973162505621418 0.0
9.507123333872533 2.855087674515822 0.0
8.77504684283825 2.317347145885344 0.0
8.394133129040345 4.464046960801843 0.0
5.725509852450801 8.210843960481027 0.0
5.62632390239664 3.967637659758752 0.0
7.910815814627989 4.900765971697654 0.0
8.595808444085467 5.590040244353608 0.0
9.705160502006024 0.8106158419444889 0.0
9.82021247904746 0.808810893177099 0.0
9.218352146075844 4.447736986422823 0.0
9.20781892622228 3.858281726888132 0.0
8.713609974387523 5.178241668554946 0.0
3.55755059259364 8.921522400238844 0.0
9.59122926011489 5.452844834281716 0.0
9.70565100407009 9.77887811062354 0.0
9.826938454219809 9.74303055702321 0.0
7.238962096855633 3.278078153406256 0.0
8.575609105166194 4.567807831727537 0.0
8.936449841121737 4.765835458965493 0.0
5.59323463391086 9.248527978398117 0.0
5.280809113285124 4.886132326418428 0.0
9.328132730893216 6.544753806716806 0.0
9.026944889277736 6.67247283515637 0.0
9.81946239021469 3.007926663525007 0.0
8.677633568960493 6.144049349297466 0.0
8.33427489656924 4.571212803519522 0.0
8.55734024448315 6.382535186588269 0.0
8.692399379422756 6.372347713955898 0.0
8.495817478252626 6.503308565233578 0.0
9.905494734661673 2.544078755559835 0.0
6.177101405266569 7.228490244483556 0.0
9.825373011845263 5.807482724503027 0.0
9.808678508609606 8.118683092442964 0.0
8.397717712407108 7.08010313863416 0.0
7.428555529689225 4.935946611338556 0.0
9.575504958128711 6.125633853639113 0.0
9.154066996197898 4.146562596982661 0.0
8.074381802159323 4.337569667261167 0.0
7.018337246891919 8.843475095716133 0.0
7.970627172560641 2.658650028065857 0.0
7.382546388883145 6.723381543491632 0.0
6.822972334933889 4.884555620881615 0.0
8.343732976791593 6.041576709398377 0.0
7.743680217306919 8.423336160305476 0.0
8.505717922983454 1.115022897794028 0.0
9.113973198216474 6.992972408167606 0.0
5.818882632841168 5.300437503812764 0.0
5.951991891717714 5.279516346785062 0.0
9.450183479138845 5.92934813870612 0.0
8.783346541536119 5.48419035750989 0.0
9.38074895894124 5.65076274999803 0.0
9.513658728876734 7.193620441323493 0.0
6.396040948797887 6.776064256962667 0.0
5.389661780244388 4.89715084345563 0.0
4.473247649068957 5.85935163892416 0.0
9.249586607512612 8.37680799459232 0.0
9.103796366487646 8.379197231055114 0.0
6.274057301184156 4.87985402946409 0.0
9.259628836118232 3.561431822636308 0.0
4.037922477011971 5.489409780163391 0.0
5.62712958624254 4.893925433488392 0.0
8.806426003347967 6.133410188141932 0.0
9.53304466499349 9.59279975429444 0.0
9.542890959420024 1.966631379116419 0.0
7.459736176874619 5.863847835420528 0.0
5.937613117200432 4.89232797168023 0.0
6.171611131472617 4.879541833448487 0.0
6.100695199816815 2.291172318314745 0.0
2.315194906726768 8.081958163666464 0.0
6.878489987598286 5.148099521847569 0.0
9.105264414399338 8.639184652727645 0.0
9.20047261316883 3.457820810661327 0.0
9.895329010385955 7.55944047105717 0.0
9.912742873006831 7.76210330502246 0.0
9.37761459375249 3.168397068877758 0.0
8.946121261512507 6.345629828835438 0.0
9.918632496443566 4.449809517365367 0.0
6.848211525651934 5.945010613369067 0.0
9.915721525903255 2.047407395915179 0.0
6.117255841708726 5.163321965161054 0.0
7.276595248786602 5.347247322210079 0.0
6.32682869954104 5.23674259421017 0.0
8.785886448438022 5.692775375342819 0.0
9.099994401883361 6.776698531382792 0.0
9.913397459621638 0.2499999999998165 0.0
9.910352525643928 0.4481571029410266 0.0
9.907850422008579 0.5479735220323012 0.0
9.911983631350465 9.24778487019403 0.0
9.917634740384067 0.7514684821956668 0.0
9.195214232985496 3.254172408378337 0.0
5.000896927376288 1.846006038077654 0.0
9.917172478547403 8.250155740683276 0.0
9.908120476950126 1.742986232208194 0.0
9.914524635720774 1.949567899316728 0.0
9.907358878377153 9.145625165175748 0.0
9.917695944922635 8.949999999998397 0.0
7.648387553139914 5.325741673607362 0.0
9.605343588986079 4.130627398479715 0.0
6.648113233057817 6.774798386229164 0.0
9.910347203087213 8.446729917003672 0.0
9.913623694530468 8.548470085896316 0.0
9.9201245863254 1.536225488581779 0.0
9.906538426683255 1.059019360781604 0.0
9.912867352010919 8.74999999999809 0.0
9.799662981388353 8.79550485462418 0.0
9.831828680383174 5.99966894118311 0.0
9.91414179906643 1.263025320602998 0.0
9.920690092699912 7.240982963665807 0.0
9.385889285950551 2.235126904097426 0.0
9.28133998925606 8.00415195851526 0.0
9.817074723108401 3.172398890123306 0.0
9.482030285089927 7.512954023388035 0.0
6.682432918504054 7.233889573028878 0.0
8.528699633246763 3.260502457553277 0.0
8.91699963742029 2.327016692708648 0.0
9.267676068834481 3.954520684561369 0.0
8.70811637467455 4.974101624783084 0.0
8.18184214270768 7.816666208279135 0.0
9.690393137288163 5.264344933127836 0.0
6.937111790104696 5.245184991960528 0.0
5.895846026722989 5.174232967273284 0.0
8.281683356622615 6.400073017261236 0.0
9.150883172924027 7.444273543454419 0.0
5.430406600793122 3.390815886517273 0.0
5.049583827974758 5.697634876048387 0.0
8.3966710383105 3.495813899905868 0.0
9.007538428392454 8.046563579784266 0.0
4.645155158868719 2.637132843684674 0.0
4.887444326771336 2.30020425915506 0.0
6.483736782775559 4.522536327482678 0.0
7.843169154548308 8.2116075844056 0.0
5.06295551628385 4.901632590583318 0.0
7.201400991012747 5.138239336380897 0.0
8.519791031104612 8.848807089071627 0.0
8.658623737989732 3.031313729049854 0.0
7.585566208322493 3.629882964874684 0.0
8.411818469596405 6.834326722716643 0.0
9.172363528634236 7.669230647622864 0.0
8.85455683341768 2.682483055215344 0.0
9.359398739738925 1.631421337140716 0.0
9.071793864444992 7.337030604117359 0.0
6.968394563521436 3.712808894519514 0.0
7.899236117684646 7.094583340182754 0.0
9.54362864504834 9.781852543872333 0.0
7.151298729743687 7.644795130415299 0.0
5.452218361466201 5.186873761308322 0.0
5.517642289161902 5.293540933999446 0.0
7.802500357665464 5.978295671754199 0.0
6.594850839687122 8.491429270558893 0.0
6.029132431949566 8.294997405201931 0.0
9.31286590869111 0.5672913838331921 0.0
9.25238720319541 0.4415953739444106 0.0
9.550589523211062 4.228044955453704 0.0
8.748611832783206 6.250900951984038 0.0
7.566980108995873 3.995148257893202 0.0
7.426142759241261 3.996743578498081 0.0
6.478912513785404 4.000296412419969 0.0
9.30435638148753 5.168210982711592 0.0
7.542154188520517 5.752525075248498 0.0
7.219033852073297 2.139582470800704 0.0
7.370913620388047 6.545121498197235 0.0
5.226731036024996 5.187572666585561 0.0
8.515591031124366 4.462223215179979 0.0
6.762864307079274 0.3078036604979366 0.0
8.587432696997471 4.977010533175154 0.0
8.703948448756302 8.815629076400704 0.0
8.081003990931544 7.370949680119862 0.0
7.424404567669909 6.949730915714445 0.0
8.578903262311433 8.377992954045473 0.0
7.301258690263783 6.106184350645308 0.0
5.991600556904204 3.99820087171043 0.0
8.203048538477193 1.601044215405025 0.0
7.289972483120081 4.572350254111052 0.0
7.714697186439165 5.420586967696794 0.0
8.918853780709807 1.841796898567452 0.0
9.919941345877513 4.749808449067644 0.0
7.245589454939737 5.94251251443003 0.0
9.258480524497795 3.358952871140391 0.0
3.705877615124628 5.574038727593425 0.0
8.287096858129765 7.962370605242409 0.0
6.799629860952143 3.705385600481528 0.0
4.146753450763018 6.544154457143895 0.0
7.413973555029582 5.545687501585183 0.0
8.466524978378082 4.980481756569235 0.0
7.336312153537934 2.337983522449311 0.0
7.695505222753409 3.747498713679684 0.0
4.898236813123799 4.795853653580084 0.0
4.59779105899602 1.896916774247134 0.0
8.560170375862322 7.072369101894893 0.0
8.386150468360862 2.449771437140704 0.0
8.41200018115259 5.084601315536367 0.0
5.102189912301071 7.621598618277815 0.0
8.336320418935243 6.71651223072348 0.0
5.081745734883095 3.977838926197614 0.0
7.63590698378166 0.9500570055008507 0.0
7.743369677149255 3.051233984704873 0.0
5.357527459690566 0.3809996753407537 0.0
5.967373112873382 0.7731113464301924 0.0
8.169449265206127 6.666271947462212 0.0
5.95122726745053 5.55758205410881 0.0
9.922289489207834 3.53923011719877 0.0
9.39154684476555 2.659037023454942 0.0
7.701415639167884 7.690060291860976 0.0
9.819179654793023 1.329863870021845 0.0
8.358229579054417 6.506108206863729 0.0
9.269720555169467 5.657096143475924 0.0
4.473187658045934 7.435037860084884 0.0
9.65807158077373 3.255496360750368 0.0
9.605155446454205 8.713645566904637 0.0
7.097383547728313 5.141197376985936 0.0
9.812212483832656 1.89920712759492 0.0
9.83875570675407 6.81603549325055 0.0
8.926246869879279 2.079976511571457 0.0
9.166785856141402 9.169070814302419 0.0
8.763479010228052 1.587152667342957 0.0
5.957377924852992 6.404530806530254 0.0
7.14506854375872 6.10342416684208 0.0
5.672595070581394 5.164323323112049 0.0
4.899782787268781 0.3801727265981219 0.0
4.447133848117348 4.673614099606824 0.0
7.044865074789195 3.253639989243549 0.0
9.818461337102992 7.819456450952447 0.0
9.925334577033155 7.954012377173311 0.0
6.352907898232792 1.173665225954276 0.0
7.351721385581032 5.660361289755705 0.0
9.337367583861807 2.76534436379692 0.0
8.693118347802024 4.360254099729149 0.0
9.476812970101324 0.3524826622168163 0.0
7.109868985890334 0.9024224571333925 0.0
7.899106846231403 5.511805431542581 0.0
8.352799544476607 5.187887629361129 0.0
6.957483547582747 0.6176251309213842 0.0
8.099559500483094 1.412323841044818 0.0
9.913030944540278 0.8542404645334569 0.0
9.143075088381442 8.022165366829135 0.0
8.819861450593166 6.356592599428041 0.0
9.319444417409162 1.49938505915629 0.0
6.490262520326714 7.118204362551877 0.0
6.490874470087819 6.582907761235813 0.0
9.82506653058937 0.6146757679104559 0.0
6.803129818897624 4.419048038171804 0.0
9.840901379354312 0.08198751964190581 0.0
9.839740374244226 9.918356239418472 0.0
8.551927134544655 9.449788917425456 0.0
9.92097857388158 3.249999999993177 0.0
5.797087413057367 7.077351493358238 0.0
9.255412859987286 6.433984412022419 0.0
8.668174522249984 1.740767926084485 0.0
9.920991430240607 6.25262219124529 0.0
7.57275248448898 1.94367954756322 0.0
8.052865444445507 8.19900054463639 0.0
8.748697149245206 4.25201068974208 0.0
9.158270227735827 0.5542256343091421 0.0
5.997487767477439 4.787924707603557 0.0
6.119759900601896 4.78043793682227 0.0
4.353034750397793 8.619182743639561 0.0
8.721093521611476 5.588932824583312 0.0
5.717101151444983 1.123034066822819 0.0
9.825602081347064 8.68753399402474 0.0
8.005502510832988 8.7824052910506 0.0
5.548184234622668 6.408009287230429 0.0
5.77830300433981 6.598697187164234 0.0
9.613093825495433 4.50282172481406 0.0
9.928981132641653 9.74928475696928 0.0
6.613628176297015 4.515513362596662 0.0
1.822126723816303 1.297795131355289 0.0
9.514164594137375 1.43081427463862 0.0
4.735494753432723 3.698541604583975 0.0
9.52844959749262 8.615213629960298 0.0
4.660704511759056 0.7947595073298008 0.0
6.82340845160293 5.239926830264399 0.0
7.885938077030673 7.380147032865134 0.0
7.884599891021201 6.09005968568029 0.0
8.846834820720167 9.653276456345532 0.0
8.457777199486827 0.3851010632068662 0.0
6.66485224572131 8.771510767670392 0.0
9.091499342133352 9.708315832477556 0.0
9.824286725109655 4.976315293637262 0.0
7.848197684391786 5.632217046637356 0.0
3.88430598115417 4.225391362015386 0.0
8.776890759183289 2.809688928468134 0.0
7.393884285023409 3.59397875231041 0.0
6.927568893329758 4.396788356869783 0.0
4.96854327720728 2.662368428358774 0.0
9.1480130720193 3.951479613991279 0.0
7.071049729490975 2.38092990636632 0.0
3.40193058782919 1.686321186206593 0.0
7.612042194200681 4.815904436723407 0.0
9.043395868401339 6.888481825015849 0.0
9.098933057562759 8.152197681006806 0.0
6.058682303253315 3.857501492181965 0.0
3.707092669281355 2.986685502034343 0.0
5.113272509841263 5.189455016444592 0.0
6.960565857079232 3.416349532571279 0.0
8.755151527375476 7.649255597361291 0.0
3.393680865444538 3.679982303262531 0.0
3.117424600120088 3.35605258976247 0.0
8.530814041264104 5.488376426140491 0.0
4.820719767306654 5.106646490188182 0.0
9.918899263509473 4.144927088739744 0.0
9.918194630017027 7.447268230913605 0.0
8.461970084137805 3.144844565847669 0.0
9.924415919486059 6.949999999995354 0.0
7.184050152099684 2.72771667662237 0.0
8.834356715215904 7.801565642745232 0.0
8.689015446783005 4.145232831954543 0.0
8.490778532265319 8.234414357968106 0.0
8.63666290918932 2.83060276219705 0.0
4.61028976098935 4.741894230894578 0.0
6.314735925012879 4.003132559161639 0.0
9.20786580425652 4.67001723737971 0.0
7.141401229301469 4.873205425098625 0.0
6.235177809922153 4.774126344778935 0.0
9.12491895896937 3.145675090615719 0.0
9.255747684068178 3.162525801823036 0.0
8.312852272796098 2.290855459722148 0.0
1.449266720542303 3.363629101350872 0.0
9.525687840398492 4.800807314407045 0.0
4.829905263804087 8.14474456977717 0.0
9.09338914689732 7.563794106183232 0.0
5.389401689694107 5.283808684471545 0.0
8.530979415204587 3.029374286908943 0.0
7.901489077080633 6.535344047486632 0.0
9.218572924671975 5.760893551533255 0.0
8.562382833959296 4.143913974026883 0.0
8.62959127904665 8.974877485888243 0.0
9.408442441596518 9.62276529745719 0.0
7.5034765601713 3.869833107932387 0.0
9.842813436634783 6.600620949014236 0.0
9.826116984327193 8.911617279149695 0.0
7.529907780698261 0.7369111006685982 0.0
7.832164962480427 2.905293639437395 0.0
8.39517908433056 3.267417602291069 0.0
9.823014010107707 9.085319632577246 0.0
9.022314123618541 3.944559746338292 0.0
4.243701230676532 5.332574856090426 0.0
9.816740542566388 1.127839952679595 0.0
8.166775715766304 5.693916696568397 0.0
8.865374421689054 8.068986769641638 0.0
8.761145809863661 6.470583506581853 0.0
8.998345275919851 9.209303502026401 0.0
9.698477487436316 6.706902829754045 0.0
6.439032098063426 0.3109134377713525 0.0
7.562681994382136 4.643158005207056 0.0
9.03999088074715 0.2799354672273258 0.0
5.180741540467516 3.805018725608906 0.0
6.243990330956698 2.718077286244967 0.0
9.79416634023361 0.1815240178579244 0.0
9.926540005061975 2.847049370876555 0.0
9.826476210374608 2.670192168078066 0.0
6.365816673179121 4.536333049275508 0.0
5.546353765219417 4.618331215552614 0.0
9.820703096450293 2.000649418331399 0.0
6.884388790679166 3.561583980715254 0.0
7.431303395649604 5.747824222777201 0.0
8.849816832721245 2.19318290395604 0.0
4.185147517585975 5.697469360586313 0.0
9.165905238119013 5.873664931582344 0.0
7.70479478158537 1.788324620089049 0.0
9.627376046933474 0.9196091445437269 0.0
6.657687963328663 5.144792385996769 0.0
9.83245016645186 0.3925568446109945 0.0
7.483092985762584 9.253837199159435 0.0
5.445348362202234 3.977855663863651 0.0
7.476680532833337 4.837183287808616 0.0
9.572749890969304 8.505160319814301 0.0
9.915853314998252 9.437014513917465 0.0
7.679469018350979 7.390484878021194 0.0
9.418139053434402 4.790576000488359 0.0
8.096967733471567 5.865447162201908 0.0
9.829153508938724 8.378494945652118 0.0
9.926595955569645 5.157718300415699 0.0
8.774484245600224 7.939747459426853 0.0
8.629764448155779 6.481031318922794 0.0
8.961169458302376 3.839036702328818 0.0
4.617199205561317 5.256318959792646 0.0
8.480815774219478 4.031210317621497 0.0
9.708341592512763 3.401018043990571 0.0
7.183974816647467 4.77882314543966 0.0
9.821437962294304 7.659391965474772 0.0
8.150320284869602 2.286501016204562 0.0
9.828114434347311 1.684891358832554 0.0
5.349187766238684 6.538177907133678 0.0
8.076053471314525 2.76180604769483 0.0
4.907713691134565 5.29818629967416 0.0
0.6874399366049438 4.328593906714074 0.0
0.6980011780697519 5.702671170050627 0.0
8.263861466707834 8.182284285231713 0.0
5.838783785156478 4.913981390426639 0.0
7.807619472656604 7.235706382002089 0.0
9.388504256318683 6.022122644748753 0.0
9.929839894767033 6.436189192303577 0.0
8.3205848711706 3.39107920408397 0.0
3.240770542267401 4.019899919523968 0.0
8.059047070496568 2.468855909103855 0.0
9.932479519490421 2.449625056415224 0.0
7.737639000139152 4.580708137963557 0.0
8.26141077223695 0.3940397126348397 0.0
9.69568953371801 1.959951226402445 0.0
6.469120930453264 4.892267070266994 0.0
9.167223997255698 0.8102256463122337 0.0
6.236889648241256 0.9291076084031108 0.0
8.306379082772498 5.268830342852036 0.0
6.716089118890225 5.239344620507032 0.0
9.82511981852641 9.282822358664017 0.0
6.68375719572285 4.404998642130821 0.0
8.913754712375674 6.908138360584365 0.0
6.173250048857013 5.251634416326969 0.0
4.235907497612446 1.924052997345291 0.0
5.151007663981651 2.438629730660893 0.0
8.924254300637541 9.3764975797567 0.0
4.438612423541503 5.287968640901957 0.0
8.571203234299599 1.897009944569934 0.0
6.878800676380218 5.821332862798138 0.0
5.710626178601224 4.792560699857408 0.0
7.149510071621283 5.216310009157644 0.0
2.099966541549645 2.334742113488256 0.0
9.93396330620579 5.350566393301629 0.0
7.143046479323961 8.646955109387985 0.0
7.965747313080266 5.193641450105844 0.0
6.3314394693073 5.135050228240639 0.0
7.665821333021348 6.222698255001823 0.0
6.305321657053551 4.659816230868476 0.0
7.833020917089713 5.208837056143474 0.0
9.41455902676429 2.869725681199307 0.0
8.567151507735133 6.598605357295113 0.0
7.405527786978573 4.377085529441429 0.0
6.552969697053132 5.137148974085434 0.0
9.93630620742063 8.042778076596578 0.0
7.166743296019233 4.593171678848165 0.0
6.595561806063966 5.839366735225723 0.0
6.066152182102007 5.262519562574559 0.0
9.834694151277489 0.9093455747994099 0.0
8.98259191950674 7.579732466796592 0.0
6.465071238839505 5.25485771955322 0.0
9.759759896588413 3.236659507608532 0.0
4.775529448101694 5.224235675150505 0.0
9.935991245222917 7.153416415978829 0.0
0.6530736820718381 9.352299998916202 0.0
0.6449439415299687 0.6468300344151556 0.0
7.804690364869245 4.495816547678174 0.0
9.84503784553893 5.70620404704573 0.0
9.83525329400959 3.826992990746767 0.0
9.922964894244684 4.265000406933376 0.0
8.333767638401964 1.121219971446645 0.0
8.876012546033895 7.019147158538482 0.0
8.172413577824324 3.413096916572049 0.0
7.232233017296214 4.478957103028363 0.0
6.214597295185415 3.852860083673202 0.0
9.85013791746415 4.400709747289421 0.0
3.941627380932058 6.342995010255737 0.0
3.097271569675528 8.77391871286929 0.0
9.292917152323044 6.010976049411984 0.0
8.104342196673183 5.184165973282902 0.0
8.994300084006271 3.652611812846807 0.0
9.937157897030163 5.549999999993244 0.0
8.721368888525245 7.274540720770752 0.0
8.920003648712827 0.9516585309368178 0.0
7.910527456030004 8.536826514867816 0.0
9.846441288756814 4.60515911863952 0.0
9.584942233925151 4.712073182517884 0.0
9.642357858573972 6.805672051759494 0.0
9.797024725252207 9.838837222258014 0.0
9.842451438022124 4.018973836958878 0.0
6.112723137676118 3.704473949316424 0.0
7.574641969193845 3.765362276156904 0.0
7.826594968121701 6.200366572362263 0.0
7.762805366733504 9.34009502796868 0.0
9.56854033867856 1.012566255816665 0.0
7.71256563655353 5.219373702836014 0.0
9.68039392238282 8.786964504862018 0.0
5.910362452777086 9.277662068919813 0.0
7.418090653922814 3.326443419100716 0.0
9.857704179097952 4.697553149694669 0.0
8.452469674653342 8.996585816905599 0.0
9.522351366699843 2.057525484575908 0.0
7.802315574700843 9.548878971475935 0.0
9.938875656926385 3.449999999992592 0.0
8.425189037911712 6.608575180629274 0.0
5.925965231566842 2.523669697740033 0.0
6.654918072256329 5.95749128982984 0.0
9.826748589235729 9.631118448471485 0.0
8.6684585637523 7.39633999085442 0.0
9.844673843931567 3.090088625379724 0.0
9.93613850661301 2.250382721159617 0.0
9.218291993658738 2.892108990205171 0.0
9.83502846611296 8.212781989607324 0.0
7.754136409732265 7.104288507262783 0.0
8.510570542791681 2.036933285735889 0.0
7.757745059307245 4.315798612475442 0.0
7.989231770559189 6.201656630465583 0.0
8.068934521422738 4.198631572122605 0.0
4.957478134450373 9.038766150325067 0.0
7.208661142641733 6.501402463831379 0.0
7.299506095906239 4.363561999234681 0.0
8.250303873550486 2.105322217421675 0.0
8.678637541413377 7.053471135702286 0.0
9.761528395137384 6.163503990672834 0.0
9.84494857233395 8.59999999999775 0.0
9.83825138794677 3.672838954969637 0.0
5.121008544047756 5.808127183024784 0.0
8.343911550360986 4.043535893276861 0.0
9.85324441775315 5.899999999993774 0.0
9.51114465213134 8.41035540646284 0.0
6.505812179224195 6.93390566262983 0.0
6.15572847138365 9.023097246950844 0.0
3.352081892333425 3.024853379890529 0.0
6.433163283162099 8.675072413910678 0.0
8.825744236698243 3.624446391299867 0.0
4.883007294861279 7.819620905924936 0.0
5.876659170760434 5.638247433601083 0.0
6.859400040348503 6.510797998354633 0.0
7.946400945409184 3.500317276373196 0.0
7.496830255505493 6.653194511698024 0.0
9.852183479755313 4.891525833556942 0.0
9.77998778436291 2.922486526124376 0.0
6.774672660492365 5.324728659740495 0.0
5.717254072187427 6.824125962512845 0.0
9.713440940838062 4.63793103997539 0.0
8.859858662536796 0.2721395536350836 0.0
8.37556017530946 9.436653414116012 0.0
7.395237381047616 7.885576562773319 0.0
5.4709157802033 4.511152089197594 0.0
9.489749416979361 9.691840729914848 0.0
4.599216022837964 3.46438688931078 0.0
5.572287492757569 4.807021644849729 0.0
9.926499336309957 9.92730688390086 0.0
9.926499336310107 0.07269311609890093 0.0
9.338127766332573 0.3585313952168247 0.0
6.810761948165162 3.414693294319008 0.0
8.166274345037138 5.943611545564389 0.0
5.2892644736731 6.301081312912763 0.0
9.731911074791544 7.649313380659622 0.0
8.90251102352767 9.50983415326544 0.0
8.997881406541017 1.033666784655452 0.0
5.835124768755703 2.738139962594905 0.0
9.665357480775825 6.185331297099201 0.0
7.656532192558493 8.217157287499347 0.0
9.170463887605525 2.975444721032631 0.0
4.208158615905443 0.8648302238584886 0.0
6.97015686031129 5.933674629077266 0.0
6.181941366523793 3.565885175921835 0.0
3.30313590337911 6.393402837735046 0.0
6.447482061767014 4.816169316820496 0.0
8.185341428749446 4.169172087371246 0.0
4.552595724340015 8.298301336212145 0.0
9.84850676569699 8.999999999998423 0.0
9.846941514449377 7.393642828194986 0.0
7.924592433490734 2.788309934035703 0.0
8.154308714226714 8.853640122009672 0.0
8.876629743004642 1.96110242719995 0.0
7.228849192966834 8.90811350348676 0.0
9.852301635085423 8.296637825215246 0.0
5.219795195341889 5.547413133147649 0.0
9.861497117995457 6.901363010201344 0.0
2.953911258021604 6.136007283255669 0.0
6.93158841067062 4.77708273647784 0.0
9.67540418457871 2.912802891506324 0.0
4.194055958522277 4.437353127730132 0.0
6.133959559341536 0.406856611599261 0.0
8.29952795189331 9.309744645643846 0.0
9.843692337952948 1.209647690818311 0.0
5.164986286280336 6.671544079402435 0.0
9.838533350075606 2.081705440779448 0.0
8.301244777513975 6.604088853319459 0.0
5.471494771710784 2.714598185146428 0.0
8.86534684892311 1.208599471795828 0.0
9.940610684232212 1.451558535868664 0.0
9.40896208432968 1.428353940655538 0.0
2.329177605337097 4.238803555614174 0.0
5.980761651517799 7.182207186682233 0.0
9.66541573964336 0.1719254072074424 0.0
7.220979380229172 7.806128737674462 0.0
1.251721227904697 6.151932667911503 0.0
8.104967286191181 6.057912607875576 0.0
6.650768762224724 4.817922869198292 0.0
6.634976350437587 3.213339182992986 0.0
7.034320437500567 4.898219100342838 0.0
9.502772020064167 6.283064492634301 0.0
8.13187938667684 3.518506862055515 0.0
9.855471943454193 2.599999999994991 0.0
9.056747742708522 8.263936599935574 0.0
4.352645795441222 5.724453640019 0.0
3.744263984699181 1.488951698361357 0.0
5.175860134287045 3.6375726667098 0.0
7.736434712114619 6.400417475661193 0.0
9.857658576695343 6.316607183405179 0.0
7.876525261950537 4.304285002335559 0.0
9.856114384785611 7.914602773442983 0.0
9.848334119947063 0.7059644476295188 0.0
9.59694321995579 6.895814046141667 0.0
5.906465212962551 3.869023950643881 0.0
9.840676994268005 9.364956386459765 0.0
5.355015287544095 3.83518170601625 0.0
6.374090407153147 5.855743754257685 0.0
8.227401290513832 5.297819733684674 0.0
5.451235131977493 4.825706629991923 0.0
6.022070213762754 5.355923882747634 0.0
9.845674433677614 6.108401449483281 0.0
9.835067400944396 7.739582406783081 0.0
8.602026805792988 2.941372356914139 0.0
5.059869081004962 5.269480960018243 0.0
5.284714507903736 5.26496663762182 0.0
9.627110479149561 7.660076105040499 0.0
6.820001127809743 4.792514421153957 0.0
5.120512795059439 4.806607659110254 0.0
9.56933817216883 2.911464407429096 0.0
9.74091654291531 9.267545397628387 0.0
9.93006767325302 6.576784040838644 0.0
9.642486276936268 4.650227701598451 0.0
5.185183328569137 9.410919109238325 0.0
9.37052946854105 4.605636695802024 0.0
1.677077220416309 5.871167715901136 0.0
7.345783833404538 3.184020711886284 0.0
5.419239942654976 5.982692039856376 0.0
6.133318300188262 2.551919945731369 0.0
6.187291396343277 4.499077117404439 0.0
1.231465237822878 3.921479198315213 0.0
8.969849937139944 9.699215363213542 0.0
9.218303154263054 6.037447959776716 0.0
CELLS 4886 19544
3 1113 1356 1450
3 1402 231 1659
3 272 269 1414
3 396 394 1777
3 1451 945 1452
3 194 81 1801
3 1847 1501 2104
3 2024 2121 2479
3 1115 1113 1450
3 1124 1413 1844
3 1061 1955 2409
3 307 305 1645
3 1592 1369 1593
3 238 1501 1847
3 1955 1883 2409
3 1808 243 1910
3 1885 978 2362
3 1440 793 2092
3 189 1488 1608
3 353 350 1864
3 2007 2231 2232
3 307 1645 2493
3 1096 1760 2496
3 2178 874 2179
3 621 625 1595
3 1493 1480 1938
3 1655 1268 2137
3 1341 1410 2212
3 243 1808 2360
3 1902 1446 2516
3 1760 1096 1763
3 856 790 2180
3 2008 2046 2105
3 789 1809 2067
3 694 1543 1575
3 1127 1762 1953
3 1748 807 2228
3 1543 1308 1575
3 820 1872 2170
3 1417 954 1998
3 1369 1592 2386
3 272 1414 1787
3 329 333 1998
3 1544 1095 1545
3 2231 1490 2232
3 1342 1683 1790
3 374 377 1797
3 807 1678 2228
3 1665 198 2128
3 141 142 1620
3 325 322 1952
3 231 1402 1654
3 198 1665 2010
3 1890 1307 2387
3 208 1438 1619
3 2016 1970 2156
3 1436 212 2020
3 954 1417 2333
3 1736 1894 2244
3 1491 1750 2143
3 1677 1064 2146
3 1474 1258 1475
3 1500 233 1930
3 1446 2415 2516
3 1700 973 1800
3 2128 2270 2316
3 1316 1315 1593
3 1307 2341 2387
3 2258 1324 2328
3 1083 1507 1508
3 693 1095 1544
3 621 1595 1596
3 667 1571 1872
3 1932 1766 2061
3 393 391 2240
3 1342 1790 2400
3 252 1707 2234
3 931 978 1885
3 1430 1116 1704
3 1411 1109 1714
3 1478 1227 2440
3 1990 195 2297
3 1792 1167 1985
3 1682 444 1975
3 394 397 1777
3 1711 2028 2162
3 1574 856 2180
3 2008 1851 2046
3 736 1493 1938
3 1069 1060 1662
3 1458 455 1754
3 862 691 1705
3 1161 1642 2286
3 1699 1700 1800
3 447 516 1637
3 955 1482 1483
3 2024 206 2121
3 391 1773 2240
3 1072 1412 1893
3 212 1436 2350
3 1566 1365 1568
3 259 1441 1672
3 872 870 1764
3 330 328 1889
3 1539 1161 2286
3 1897 1898 2275
3 1434 1990 2297
3 1109 1411 1730
3 319 307 2493
3 1762 1761 1953
3 1369 1316 1593
3 1540 834 1832
3 1505 652 2442
3 1732 1655 2137
3 921 1712 2295
3 1872 1388 2170
3 1712 921 2125
3 2028 244 2162
3 1506 1570 1680
3 1569 368 1964
3 1571 667 2375
3 1587 2178 2179
3 196 1723 1737
3 524 2016 2156
3 1528 1250 1733
3 1115 1450 1973
3 1938 1480 1971
3 1809 1396 2067
3 1641 249 2299
3 1223 1258 1474
3 1365 1566 2120
3 1981 962 2316
3 1538 353 1864
3 455 1458 1756
3 152 233 1500
3 1116 1430 1703
3 817 652 1505
3 1347 2003 2004
3 1607 1958 2085
3 194 1801 2195
3 1410 1341 2351
3 223 1415 1710
3 197 1511 2346
3 2198 787 2225
3 81 82 1801
3 1438 208 1620
3 1444 522 1823
3 1511 197 1950
3 726 718 1567
3 1637 516 1739
3 1708 2337 2341
3 1280 1649 2124
3 2337 1395 2341
3 1327 1709 2315
3 1225 1227 1478
3 691 624 1705
3 476 2224 2305
3 830 832 2204
3 1750 1491 2403
3 1366 1897 2275
3 2345 1583 2352
3 2054 405 2110
3 1984 2172 2230
3 1846 2198 2225
3 1177 2042 2418
3 2121 1367 2479
3 1527 1531 1541
3 916 1039 1834
3 1413 1124 2467
3 1622 1503 1868
3 249 1641 2019
3 1805 405 2054
3 1761 1007 1953
3 1415 223 2395
3 960 1756 2203
3 368 1569 2135
3 1402 1659 2473
3 941 1433 2471
3 1267 1477 1501
3 260 2002 2265
3 1704 558 2077
3 2224 1886 2305
3 2053 1386 2199
3 1452 945 1952
3 1717 1611 1718
3 1682 1975 2230
3 1760 1762 2496
3 1481 203 2104
3 1264 1266 1670
3 142 236 1620
3 2133 1182 2179
3 1791 1602 2183
3 350 346 1864
3 1412 1072 2393
3 1281 1575 2255
3 1565 1948 2155
3 849 1449 1513
3 1958 396 2085
3 1339 1069 1662
3 834 1540 1917
3 269 267 1414
3 1268 1267 1501
3 1440 2092 2468
3 1399 1981 2316
3 1635 1636 2041
3 1454 252 2234
3 1451 1305 1890
3 1375 1883 1955
3 362 366 1786
3 1484 2410 2528
3 1449 849 1640
3 1267 1474 1477
3 200 1611 1717
3 1054 1581 1582
3 1350 1977 2253
3 190 1390 2118
3 788 1956 2193
3 1709 1327 1888
3 2233 2298 2413
3 1488 189 2355
3 478 1685 1714
3 230 1525 1690
3 1687 478 1688
3 427 429 1756
3 1570 1065 2476
3 1880 1133 1988
3 1649 656 2124
3 1537 209 1614
3 1134 1769 1986
3 1220 1268 1655
3 396 1777 2085
3 1167 1755 1985
3 2229 1744 2296
3 1575 1281 2287
3 127 240 1882
3 377 647 1797
3 954 329 1998
3 220 1697 1698
3 1342 1341 2212
3 1441 264 1672
3 1512 188 2433
3 763 2345 2352
3 1685 1411 1714
3 1805 1188 1951
3 1347 2004 2157
3 1054 1582 1667
3 1333 1617 1674
3 2217 73 2361
3 1539 1036 1917
3 1039 1292 1834
3 208 141 1620
3 1965 1964 2038
3 693 1544 1969
3 1453 239 2279
3 203 1481 2049
3 945 1451 1889
3 680 1459 2134
3 354 2147 2196
3 1405 1932 2061
3 1723 1722 1737
3 1748 1175 1927
3 1532 1528 1733
3 2057 1824 2154
3 1406 1659 1702
3 1948 1186 2155
3 210 1598 2114
3 1685 478 1687
3 1324 1325 2328
3 1526 1250 1527
3 165 166 1509
3 1493 736 2523
3 1526 1527 1541
3 1390 190 2417
3 522 1444 1998
3 1680 1570 1732
3 1017 1442 2525
3 374 1797 2430
3 1507 1083 2197
3 1756 960 2221
3 2270 1400 2316
3 2205 1452 2282
3 1074 1187 1888
3 2158 1245 2200
3 1442 1017 1684
3 864 1116 1703
3 1750 1751 2143
3 1456 516 1492
3 1677 2146 2149
3 2022 1339 2388
3 1602 258 2183
3 678 1594 1595
3 1245 1670 2200
3 972 830 2204
3 2143 983 2342
3 1268 1501 2226
3 1266 1461 1670
3 1487 222 2465
3 1382 2022 2388
3 58 59 1661
3 2147 1543 2196
3 1484 1485 2410
3 628 2053 2199
3 1906 1549 2259
3 364 362 1786
3 1339 2022 2247
3 1636 525 2041
3 625 678 1595
3 678 1593 1594
3 2212 1410 2222
3 1837 1865 2215
3 1699 1800 1801
3 866 864 1703
3 893 1472 1982
3 1735 1736 2244
3 1633 1255 1922
3 126 127 1882
3 681 867 1656
3 1351 1401 2363
3 11 228 1588
3 1127 1953 2454
3 265 266 267
3 1722 1122 1737
3 1389 1691 2069
3 1613 1610 1616
3 1227 1256 2440
3 429 455 1756
3 1535 1177 2418
3 322 324 1952
3 973 1700 1802
3 1964 368 2038
3 1176 1865 1866
3 1096 872 1764
3 1176 1866 1875
3 193 1839 1892
3 156 157 1441
3 615 617 1596
3 686 1520 2480
3 1409 2097 2305
3 2410 1151 2528
3 1427 2217 2361
3 440 1911 2314
3 1744 1743 2296
3 516 1456 1739
3 1939 589 2164
3 690 931 2150
3 1062 1579 1580
3 1054 1580 1581
3 955 1483 1716
3 1064 1677 2248
3 1956 1616 2193
3 1776 1893 2026
3 1398 1115 1973
3 2002 1453 2265
3 1541 1531 1542
3 216 2191 2536
3 1736 1326 1894
3 1065 994 1066
3 1598 2115 2175
3 2314 1911 2358
3 1433 941 2042
3 2115 1209 2175
3 717 1550 1551
3 188 1941 2433
3 267 1132 1414
3 771 1569 2064
3 1157 1545 1546
3 1231 1250 1526
3 1933 240 2181
3 222 1487 2025
3 1525 230 1765
3 1430 1704 2077
3 757 1744 2495
3 264 263 265
3 883 773 1917
3 739 2205 2282
3 1667 1582 2434
3 1744 757 2474
3 239 1453 2002
3 1441 259 2356
3 2005 1443 2012
3 254 1766 1932
3 1509 166 1679
3 1477 1475 1481
3 793 1440 2165
3 1385 1523 2377
3 1481 1475 2523
3 156 1441 2356
3 1066 1220 1655
3 945 325 1952
3 2094 2087 2134
3 1747 1175 1748
3 253 262 263
3 1327 1074 1888
3 718 715 1567
3 2046 1043 2105
3 240 1933 2399
3 1305 1307 1890
3 224 58 1661
3 1195 1566 2285
3 1590 1393 1749
3 1255 1230 1922
3 353 1538 2073
3 358 1999 2325
3 882 1802 2036
3 1024 1020 1604
3 333 522 1998
3 1401 1351 2414
3 1475 1258 1476
3 2310 786 2364
3 328 945 1889
3 807 1748 1927
3 825 724 1912
3 1742 263 2491
3 267 266 1132
3 2077 2102 2203
3 1431 1432 1860
3 1212 1957 2312
3 2097 476 2305
3 1132 1402 2473
3 717 713 1550
3 1746 693 1969
3 1372 1124 1844
3 1256 1541 2269
3 1977 1350 2274
3 2332 1978 2443
3 874 2133 2179
3 1983 1534 2171
3 1157 1544 1545
3 1230 1228 1922
3 1580 1579 1581
3 1565 806 1948
3 1416 1363 2413
3 1287 1995 2398
3 265 263 266
3 1534 1529 2171
3 1604 1834 2428
3 1255 1633 2509
3 1344 1643 1644
3 1332 1388 1571
3 1423 217 2217
3 2191 1057 2451
3 458 447 1637
3 1250 1233 1733
3 472 2212 2222
3 1175 1747 1840
3 1652 256 1653
3 1073 1347 1572
3 200 145 1609
3 683 640 1585
3 1116 862 1705
3 1221 1223 1474
3 1778 801 1803
3 1503 1622 2471
3 1475 1493 2523
3 464 680 2134
3 14 210 2114
3 579 1880 1988
3 1434 1435 1990
3 1447 2310 2364
3 275 274 276
3 2294 1871 2419
3 814 1068 1684
3 1172 1439 2273
3 273 272 274
3 1363 1416 2406
3 1220 1219 1221
3 1060 1656 1662
3 1099 1792 1985
3 2048 1198 2168
3 1241 1245 2323
3 699 723 1753
3 1640 1862 2070
3 910 1018 1584
3 1586 1067 1587
3 1656 867 1662
3 1067 686 2480
3 654 2242 2294
3 1593 1315 1594
3 1880 553 1974
3 236 1717 1718
3 617 621 1596
3 1723 196 2313
3 402 1877 2116
3 273 274 275
3 2202 1869 2252
3 1510 1358 1767
3 193 1892 2373
3 1188 1805 2054
3 1220 1221 1267
3 1066 1218 1219
3 1517 1097 1518
3 1677 1676 1858
3 686 277 1520
3 268 267 269
3 697 857 1592
3 220 1698 1699
3 1802 1700 2036
3 1612 1537 1614
3 929 817 994
3 228 12 2136
3 2110 2116 2482
3 1659 1658 1702
3 1611 1613 2280
3 1344 991 1643
3 683 1585 1604
3 1638 1358 2404
3 1485 1034 2410
3 2214 833 2424
3 271 272 273
3 1482 955 1962
3 1066 1219 1220
3 931 1885 2150
3 1613 1891 2280
3 1189 1589 2204
3 1566 1195 2120
3 726 1567 2490
3 1122 1722 1874
3 1494 319 2493
3 1671 259 1672
3 1267 1221 1474
3 603 528 1591
3 1664 2128 2316
3 1817 1924 2174
3 1626 1660 2111
3 1474 1475 1477
3 1023 1062 1580
3 1957 1599 2312
3 1764 1939 2164
3 1358 1950 2404
3 200 1609 1610
3 1431 1082 1432
3 1778 1803 2521
3 1830 1832 2075
3 1930 233 2369
3 1329 1482 1650
3 757 1959 2522
3 1239 1247 1597
3 758 1978 2332
3 1569 1290 2064
3 216 1694 2191
3 1453 1420 2265
3 1549 1906 2129
3 24 215 1674
3 19 235 1676
3 1621 1057 2191
3 1691 1389 2262
3 1617 1333 2192
3 929 994 1065
3 1769 1672 1986
3 1893 1412 2026
3 1609 1537 1612
3 271 269 272
3 1373 1438 1620
3 217 1423 2381
3 517 330 1889
3 1322 1055 1667
3 1974 553 2499
3 228 2136 2187
3 1589 1189 1788
3 1999 1577 2325
3 2110 405 2116
3 189 1608 1842
3 1055 1050 1667
3 739 1455 2205
3 1865 1176 2215
3 319 1494 2522
3 2474 757 2522
3 1484 227 1485
3 10 11 1588
3 723 809 1753
3 27 230 1689
3 1550 806 1565
3 1179 1180 1217
3 207 1617 2192
3 1433 1217 1502
3 1562 1556 1606
3 1379 2017 2018
3 1245 2158 2323
3 675 1097 1517
3 884 501 1599
3 1020 683 1604
3 1603 1095 1848
3 1001 2057 2154
3 1604 1585 1834
3 1610 1612 1616
3 1764 870 1939
3 2242 1871 2294
3 1669 1264 1670
3 1658 213 1702
3 1995 1646 2398
3 631 539 1600
3 1491 2143 2342
3 1801 1800 2195
3 1200 1199 1693
3 1535 940 1861
3 1534 758 2332
3 914 2258 2328
3 1588 228 2457
3 216 138 1694
3 151 152 1500
3 1133 1880 1974
3 1677 1858 2248
3 1294 1622 1868
3 875 1010 1767
3 1379 2018 2416
3 1279 2202 2252
3 182 256 1652
3 1592 857 2386
3 672 681 1656
3 615 1596 1824
3 1093 1487 1623
3 1823 522 2100
3 1245 1242 1669
3 1582 1581 1583
3 758 1534 2306
3 1975 1984 2230
3 1358 1510 1950
3 1663 1336 1665
3 2102 960 2203
3 366 1087 1786
3 1740 1490 2231
3 21 207 1709
3 145 146 1609
3 2339 765 2384
3 603 1591 1668
3 2081 199 2149
3 1540 1832 1879
3 1721 1723 1947
3 1754 455 1793
3 1751 1753 2119
3 882 1701 1807
3 1540 1539 1917
3 242 1695 1697
3 1521 354 2091
3 1363 2233 2413
3 1584 1018 1925
3 703 1067 1586
3 1177 1178 1179
3 795 916 1834
3 277 276 607
3 1571 1388 1872
3 22 23 1617
3 1097 823 1177
3 25 26 1624
3 419 418 1790
3 1728 1906 2259
3 440 1455 2261
3 1877 1318 2116
3 1488 1156 1608
3 1439 2130 2273
3 1889 1451 1890
3 1614 209 2389
3 1472 893 2094
3 675 821 823
3 23 24 1674
3 1788 1190 2183
3 917 941 1622
3 1763 1096 1764
3 1068 1442 1684
3 1034 1485 2173
3 2172 1533 2230
3 138 139 1694
3 1065 1570 2197
3 607 674 675
3 1536 1248 2268
3 229 135 1734
3 1437 1925 1926
3 680 510 1646
3 147 209 1537
3 26 27 1689
3 1627 705 2163
3 206 1651 2121
3 2409 1785 2462
3 1492 682 2447
3 1223 1225 1258
3 889 1772 2374
3 253 263 264
3 275 276 277
3 1455 739 2261
3 2022 1382 2176
3 150 227 1484
3 639 1019 1591
3 1449 1640 2070
3 1082 833 2214
3 1503 1502 1504
3 144 200 1717
3 1643 991 1713
3 1190 1791 2183
3 1538 1804 2073
3 1256 2269 2440
3 18 19 1676
3 521 531 2000
3 790 849 2180
3 1075 1329 1650
3 1087 1782 1785
3 1066 994 1218
3 270 269 271
3 682 1492 2494
3 185 252 1454
3 253 158 262
3 1629 1632 1633
3 200 1610 1611
3 1477 1481 2104
3 1623 1487 2465
3 1518 1097 1535
3 1414 1132 2460
3 1179 1217 1433
3 177 1506 1680
3 1392 1017 2525
3 1832 834 2075
3 675 823 1097
3 1459 2094 2134
3 1782 1087 1795
3 1838 1730 2372
3 1639 149 2528
3 1617 23 1674
3 2265 1420 2489
3 180 232 1859
3 1527 1250 1528
3 20 21 1709
3 1083 1508 2311
3 903 866 1703
3 1455 440 2314
3 1187 1858 1888
3 1659 1406 2473
3 1446 1902 2166
3 421 1951 2106
3 1598 210 2115
3 154 259 1671
3 1288 1835 2080
3 1832 1831 1879
3 1258 1225 1478
3 1024 1604 2117
3 1263 1429 1739
3 706 705 1627
3 1583 1581 2352
3 407 1805 1951
3 856 1574 2527
3 1701 882 2036
3 1624 26 1689
3 717 1551 1552
3 1385 2377 2391
3 2302 1745 2354
3 1572 1347 2157
3 1036 883 1917
3 1689 1690 1691
3 1664 1665 2128
3 1476 1479 1480
3 1751 2119 2143
3 815 814 1684
3 1790 889 2400
3 1606 1607 2085
3 265 267 268
3 418 889 1790
3 1522 1521 2091
3 135 136 1734
3 1726 1445 1729
3 647 1796 1797
3 1346 1453 2279
3 1293 1827 2117
3 1242 1244 1669
3 1853 1852 1854
3 889 2374 2400
3 1039 1038 1290
3 1524 628 2199
3 1331 1332 1571
3 1291 1290 1569
3 1475 1476 1493
3 1850 1852 1853
3 1490 1740 2456
3 1689 230 1690
3 1256 1526 1541
3 1704 1705 2167
3 1465 1470 1675
3 956 1073 1572
3 1613 1616 1956
3 916 917 1038
3 2014 1522 2091
3 1221 1222 1223
3 1999 763 2352
3 234 10 1588
3 1697 220 2335
3 1527 1528 1529
3 2298 1600 2413
3 1436 2020 2254
3 1642 1161 1678
3 1523 1385 2436
3 1730 1838 2426
3 795 796 916
3 713 711 1550
3 1456 1263 1739
3 999 1336 1663
3 1785 1784 2462
3 409 415 1783
3 607 675 1517
3 1229 1231 1526
3 1958 1855 2078
3 1589 1588 1590
3 1933 261 2380
3 762 1965 2038
3 1756 1458 2203
3 1776 597 1893
3 1794 1072 1893
3 188 1512 2266
3 1774 2339 2384
3 188 1908 1941
3 1010 1510 1767
3 2189 2285 2307
3 773 834 1917
3 1245 1669 1670
3 1248 1597 2268
3 146 1537 1609
3 818 910 1584
3 1641 1313 1651
3 1217 1745 2302
3 1065 1066 1655
3 1597 1247 2047
3 1360 2177 2376
3 1612 1615 1616
3 2126 867 2186
3 1019 683 1020
3 1747 892 1840
3 1092 1093 1623
3 261 1933 2181
3 400 424 1666
3 1516 1903 2377
3 1100 1392 1605
3 247 1738 1881
3 268 1134 1986
3 1177 823 1178
3 884 1599 1957
3 263 262 2491
3 806 1627 1948
3 1227 1229 1256
3 191 1729 2504
3 1636 1635 2502
3 1480 1479 1601
3 1721 1947 2498
3 1924 1146 2174
3 229 1734 1735
3 175 204 1725
3 1179 1178 1180
3 354 1521 2147
3 665 697 1592
3 640 646 1585
3 627 545 1636
3 1882 240 2399
3 1556 1555 1606
3 1373 1620 2394
3 1871 1071 2419
3 548 1628 1629
3 455 436 1793
3 974 1831 1841
3 1844 1413 2392
3 1612 1614 1615
3 209 1639 1937
3 1329 1330 1331
3 1823 2100 2142
3 1097 1177 1535
3 1021 1020 1022
3 825 1912 2455
3 913 1122 1874
3 400 1666 2113
3 1256 1229 1526
3 1419 1418 2450
3 1552 1551 1553
3 1850 1099 1852
3 1629 1631 1632
3 801 685 2029
3 1618 1619 1621
3 265 268 1986
3 1715 2165 2330
3 1531 1529 1534
3 1022 1024 1576
3 658 693 1746
3 703 686 1067
3 1062 1576 1577
3 1023 1022 1062
3 236 1718 2394
3 1688 502 1740
3 1501 1477 2104
3 213 165 1509
3 646 795 1585
3 196 1737 1738
3 379 679 1795
3 639 640 683
3 924 875 1767
3 1752 699 1753
3 207 2192 2315
3 627 1636 1660
3 1217 1180 1745
3 730 728 1833
3 528 561 1591
3 1444 1417 1998
3 252 186 1602
3 1729 1445 2504
3 460 502 1688
3 1418 946 1778
3 1203 1200 1693
3 548 470 1628
3 849 668 1640
3 646 785 795
3 607 276 674
3 14 15 210
3 147 148 209
3 478 460 1688
3 1709 207 2315
3 1157 1546 1608
3 1155 1731 1899
3 1524 1934 2390
3 1775 921 1876
3 1433 1502 1503
3 470 458 1628
3 1223 1224 1225
3 1291 1569 1964
3 871 1056 1826
3 1781 1783 1915
3 1587 1067 2300
3 916 1038 1039
3 1388 1387 1389
3 1611 1610 1613
3 1075 1328 1329
3 1039 1290 1291
3 1538 1265 1804
3 1184 1185 2163
3 597 598 1794
3 1450 1356 2421
3 1835 576 2080
3 1629 1628 1631
3 1331 1330 1332
3 561 639 1591
3 1476 1480 1493
3 705 703 1586
3 639 683 1019
3 1951 1188 2106
3 436 446 1793
3 1472 1297 2142
3 1332 1387 1388
3 1345 984 1720
3 1329 1328 1330
3 1050 1048 1667
3 150 151 227
3 11 12 228
3 557 541 2256
3 1831 974 1879
3 134 229 1766
3 1357 1358 1638
3 1336 1641 2299
3 1650 1482 1962
3 1591 1019 2512
3 1506 1507 1570
3 1803 801 2029
3 1178 823 1972
3 1552 1553 1554
3 1290 1038 1294
3 1028 1313 1641
3 1237 1239 1597
3 993 1017 1100
3 893 2087 2094
3 149 1484 2528
3 1768 1142 1949
3 9 234 1673
3 1554 1553 1555
3 668 632 1640
3 711 806 1550
3 1628 458 1637
3 1098 1829 1830
3 1482 1331 1483
3 531 1818 2000
3 435 419 1790
3 1156 1157 1608
3 1182 1184 2179
3 510 512 1646
3 1231 1233 1250
3 946 841 1778
3 1483 1331 1571
3 1459 680 2458
3 1166 1040 1210
3 892 1657 1820
3 1042 1445 1726
3 1019 1020 1021
3 749 805 1810
3 234 1588 1589
3 1695 242 1892
3 556 1853 2483
3 1018 1572 1573
3 1529 1528 1530
3 1606 1558 1607
3 1761 1759 2308
3 1396 1032 1921
3 1018 956 1572
3 689 1150 1416
3 1827 1293 2515
3 149 150 1484
3 1647 656 1648
3 1543 694 2196
3 399 409 1783
3 545 525 1636
3 268 269 270
3 715 713 717
3 1100 1017 1392
3 1657 892 1747
3 207 22 1617
3 1666 884 2249
3 1671 1672 1769
3 1554 1555 1556
3 146 147 1537
3 1081 1444 1822
3 711 709 806
3 1443 2005 2322
3 660 658 1746
3 1166 1458 1754
3 916 796 917
3 1056 1728 1826
3 1068 1069 1275
3 184 185 1454
3 158 159 262
3 2007 1687 2231
3 805 1708 1810
3 1672 264 1986
3 1561 1562 1563
3 978 1075 1650
3 1590 1588 2457
3 215 25 1624
3 1551 1550 1565
3 1073 1346 1347
3 857 818 1584
3 1648 656 1649
3 675 674 821
3 561 594 639
3 1731 529 1899
3 2303 1454 2535
3 981 903 1040
3 1630 1629 1633
3 993 877 1017
3 724 718 726
3 512 603 1646
3 1676 235 1858
3 814 1060 1068
3 715 717 1567
3 1796 647 1870
3 1715 1171 2165
3 678 1592 1593
3 644 613 1824
3 1690 1525 2145
3 1297 1822 1823
3 271 656 1647
3 1704 1116 1705
3 1225 1226 1227
3 1275 1069 1338
3 910 956 1018
3 1824 1596 2154
3 1403 1100 1605
3 1221 1219 1222
3 1068 1060 1069
3 1901 245 1949
3 1081 1055 1321
3 1751 563 1752
3 1021 1022 1023
3 672 638 681
3 1095 657 1848
3 1235 1237 1248
3 1561 1556 1562
3 1265 1259 1804
3 524 1819 2016
3 978 1650 2362
3 1492 516 2494
3 229 1735 2061
3 185 186 252
3 157 158 253
3 152 153 233
3 9 10 234
3 1527 1529 1531
3 1808 1344 2360
3 1062 1577 1579
3 1509 1679 1977
3 424 454 1666
3 637 638 672
3 981 1040 1166
3 1555 1558 1606
3 751 749 1810
3 1166 1210 1458
3 1651 1313 2121
3 15 16 2260
3 1633 1632 2509
3 2167 1705 2276
3 551 602 2045
3 697 818 857
3 364 1786 1883
3 832 1189 2204
3 1476 1478 1479
3 678 665 1592
3 213 1509 2096
3 1015 888 1124
3 1062 1022 1576
3 679 1782 1795
3 680 1646 1995
3 1101 1100 1403
3 1109 433 1714
3 1248 1237 1597
3 733 730 1833
3 1702 213 2096
3 499 498 1828
3 1418 1778 2521
3 637 600 638
3 1048 1046 1054
3 1577 1576 1578
3 814 766 1060
3 1279 2252 2292
3 474 470 548
3 199 18 1676
3 157 253 1441
3 1048 1054 1667
3 471 472 2290
3 625 665 678
3 795 785 796
3 1264 1265 1266
3 1437 1926 2350
3 1362 2048 2168
3 1394 2337 2371
3 454 884 1666
3 1022 1020 1024
3 751 1810 1923
3 1046 1023 1580
3 1807 1701 1931
3 1618 208 1619
3 566 588 689
3 1828 498 1829
3 501 509 1599
3 1118 780 1775
3 878 817 929
3 1510 1511 1950
3 1618 1621 1694
3 1052 1081 1822
3 1416 1150 1715
3 1239 1241 1247
3 1396 1921 2067
3 1751 1752 1753
3 1264 1259 1265
3 539 566 1600
3 1762 1127 2496
3 1673 1788 2183
3 1555 1557 1558
3 1052 1050 1055
3 725 724 825
3 1142 1770 1771
3 681 853 867
3 454 501 884
3 1346 1420 1453
3 932 1147 1770
3 1546 1545 1547
3 533 582 1818
3 1266 1337 1460
3 1872 820 2318
3 1117 1119 1713
3 1081 1321 1417
3 1253 1259 1264
3 1569 771 2135
3 1052 1055 1081
3 1181 1178 1972
3 709 706 1627
3 1073 1076 1346
3 1098 1828 1829
3 1382 1380 2176
3 1442 1275 1443
3 919 999 1663
3 1789 828 1855
3 877 815 1684
3 509 539 631
3 992 877 993
3 1266 1265 1337
3 2268 1498 2340
3 1130 1032 1396
3 1095 1603 2508
3 886 826 887
3 531 533 1818
3 1131 1400 1881
3 447 437 516
3 2460 1132 2473
3 940 1535 2418
3 768 1873 2037
3 1813 1869 1954
3 1627 2163 2488
3 1497 1495 1645
3 1198 1409 2168
3 724 726 1912
3 1869 987 1954
3 763 1999 2338
3 1010 1170 1374
3 984 976 1720
3 1470 1743 1744
3 689 588 1150
3 1901 1949 2359
3 1640 632 1862
3 274 272 1787
3 563 564 1752
3 994 817 1505
3 737 1807 1931
3 1770 1147 1771
3 1233 1235 1733
3 2450 1418 2521
3 414 410 1821
3 908 1099 1850
3 1227 1228 1229
3 1692 1203 1693
3 1625 216 2194
3 512 528 603
3 1377 1357 1638
3 1465 1464 1470
3 1360 1359 2177
3 1686 2007 2095
3 1336 1028 1641
3 1857 751 1923
3 1758 572 1759
3 553 541 557
3 1171 1715 1811
3 956 1003 1073
3 1467 1465 1675
3 719 718 724
3 1509 1977 2096
3 1734 1625 1736
3 1503 1504 1868
3 592 597 1776
3 180 181 232
3 162 163 231
3 2308 1759 2370
3 1357 1114 1358
3 875 946 1010
3 509 631 1599
3 17 18 199
3 144 145 200
3 1099 906 1792
3 1469 1467 1494
3 605 589 1939
3 1208 1205 1211
3 354 344 2091
3 692 782 804
3 1010 946 1170
3 1463 1462 1464
3 716 715 718
3 714 713 715
3 271 273 656
3 139 1618 1694
3 549 277 686
3 673 672 766
3 1378 1377 1379
3 2007 868 2095
3 999 1028 1336
3 1208 1211 1447
3 601 545 627
3 1119 1643 1713
3 1332 1333 1387
3 910 912 956
3 520 521 2000
3 828 1789 1819
3 277 607 1520
3 1338 1339 2247
3 818 819 910
3 767 766 814
3 712 711 713
3 1494 1467 1675
3 639 594 640
3 2044 557 2256
3 235 20 1709
3 1620 236 2394
3 804 919 962
3 1862 702 2070
3 681 852 853
3 1559 1556 1561
3 1622 941 2471
3 2165 1440 2330
3 612 644 692
3 697 698 818
3 1903 1516 1994
3 371 379 1795
3 428 426 2138
3 1290 1294 2064
3 1384 1904 2432
3 566 689 1600
3 471 452 472
3 1092 1091 1093
3 1002 1131 1719
3 1090 1089 1091
3 875 841 946
3 1758 1760 1763
3 1562 1606 2085
3 1833 1830 2075
3 178 179 214
3 164 165 213
3 769 923 1815
3 692 644 782
3 804 782 919
3 182 183 256
3 160 161 257
3 1329 1331 1482
3 962 1663 1664
3 1177 1179 2042
3 403 405 1805
3 1461 1460 1462
3 140 208 1618
3 1859 232 1860
3 274 1787 2099
3 1381 2126 2186
3 1558 1560 1789
3 430 428 682
3 452 435 1683
3 1487 1156 1488
3 1470 1464 1743
3 597 1794 1893
3 1244 1253 1669
3 962 919 1663
3 258 8 1673
3 1087 1785 1786
3 970 1042 1726
3 199 1677 2149
3 1664 1663 1665
3 1229 1230 1231
3 991 827 1713
3 792 1603 1848
3 1822 1444 1823
3 665 666 697
3 19 20 235
3 142 143 236
3 728 1098 1833
3 532 530 1898
3 1015 1124 1372
3 1546 1547 1548
3 1851 1850 1853
3 1877 393 2240
3 923 1105 1815
3 1090 1091 1092
3 687 686 703
3 1683 435 1790
3 887 826 1961
3 684 663 1089
3 426 1934 2138
3 464 510 680
3 853 854 855
3 568 572 1758
3 1376 1357 1377
3 1205 1203 1692
3 1607 1789 1855
3 710 709 711
3 780 781 1775
3 1434 1103 1435
3 876 815 877
3 766 672 1656
3 1393 1590 2457
3 684 1089 1090
3 530 890 1898
3 926 1920 1943
3 696 414 1821
3 1563 1562 1777
3 1054 1046 1580
3 1398 1973 1974
3 137 216 1625
3 1210 1040 1430
3 1750 563 1751
3 2010 1665 2299
3 1510 1374 1511
3 1777 1562 2085
3 1707 252 1791
3 1932 1404 1933
3 459 438 1814
3 139 140 1618
3 1093 1156 1487
3 231 163 1658
3 699 722 723
3 1545 1095 2508
3 598 612 1794
3 579 554 1880
3 1941 1908 2401
3 1231 1232 1233
3 1831 1829 1841
3 1037 1383 1799
3 177 178 1506
3 636 600 637
3 1036 1539 2286
3 1356 1114 1357
3 1523 1516 2377
3 704 703 705
3 403 402 405
3 648 792 1848
3 723 756 808
3 1388 1389 2170
3 933 932 1770
3 223 1710 1711
3 1779 399 1783
3 1223 1222 1224
3 1028 1029 1313
3 257 161 1654
3 418 412 421
3 734 882 1807
3 693 657 1095
3 1368 1370 1436
3 136 137 1625
3 688 652 817
3 1075 1327 1328
3 540 479 1813
3 398 395 402
3 548 1629 1630
3 574 591 699
3 1469 1494 1495
3 1041 1598 2175
3 167 168 202
3 175 176 204
3 2045 2046 2201
3 186 187 1602
3 886 887 888
3 1253 1254 1259
3 8 9 1673
3 792 655 810
3 843 1145 1960
3 1180 1349 1745
3 1165 1345 1512
3 708 706 709
3 136 1625 1734
3 21 22 207
3 140 141 208
3 625 626 665
3 1093 1094 1156
3 1585 795 1834
3 1117 1713 1806
3 599 579 600
3 810 871 1826
3 1047 1046 1048
3 1292 1291 1293
3 161 162 1654
3 199 1676 1677
3 1260 1282 1804
3 1005 1142 1768
3 1233 1234 1235
3 792 810 922
3 1122 1719 1737
3 976 985 1720
3 1278 1279 2292
3 2390 1934 2531
3 1436 1437 2350
3 270 271 1647
3 1199 966 1846
3 1683 1342 2212
3 656 273 2124
3 699 591 722
3 1977 1139 2096
3 1738 1719 1881
3 1722 985 1874
3 1797 1448 1798
3 162 231 1654
3 632 604 1862
3 252 1602 1791
3 1051 1050 1052
3 1045 1023 1046
3 648 655 792
3 993 1100 1101
3 1321 1055 1322
3 806 709 1627
3 904 903 981
3 1220 1267 1268
3 648 605 655
3 1737 1719 1738
3 385 399 1779
3 506 499 1828
3 1132 266 1402
3 1170 1418 1419
3 1323 2302 2354
3 24 25 215
3 137 138 216
3 721 965 1919
3 1787 1414 2460
3 778 1117 1806
3 723 722 756
3 407 403 1805
3 564 574 1752
3 1049 1048 1050
3 842 841 875
3 1608 1546 1842
3 809 808 899
3 1517 1519 1520
3 1530 1532 1533
3 889 421 1772
3 913 1002 1122
3 1314 1316 1367
3 1017 877 1684
3 841 802 1778
3 1235 1236 1237
3 751 1857 1900
3 1114 924 1767
3 1344 1644 2360
3 1895 1394 2371
3 1518 1535 1861
3 1758 1759 1760
3 1122 1002 1719
3 546 563 1750
3 1056 1726 1727
3 663 660 1746
3 621 622 625
3 1720 985 1721
3 1857 1843 1900
3 808 756 913
3 1056 970 1726
3 27 28 230
3 134 135 229
3 908 906 1099
3 163 164 1658
3 1727 1726 1729
3 7 8 258
3 154 155 259
3 1101 1403 1404
3 808 913 1874
3 1260 1269 1282
3 1389 1387 2262
3 1297 1053 1822
3 1555 1553 1557
3 1463 1464 1465
3 230 28 1765
3 1237 1238 1239
3 554 553 1880
3 775 778 1806
3 985 899 1874
3 1270 1524 2199
3 489 1820 1936
3 692 1072 1794
3 1472 2142 2272
3 1845 496 1929
3 438 431 1814
3 613 615 1824
3 1241 1242 1245
3 1783 415 1915
3 1192 2081 2149
3 178 214 1506
3 1816 988 1817
3 1760 1759 1761
3 1103 1092 1623
3 1512 1345 1661
3 1876 921 2295
3 1165 984 1345
3 978 1074 1075
3 1239 1240 1241
3 542 541 553
3 813 988 1816
3 1148 984 1165
3 871 970 1056
3 472 452 1683
3 1207 1796 1870
3 1167 1166 1754
3 1296 1053 1297
3 966 964 1846
3 976 899 985
3 982 976 984
3 702 1815 2015
3 900 899 976
3 1143 995 1206
3 1576 1024 1827
3 1235 1248 1733
3 1558 1557 1560
3 943 995 1143
3 1920 1144 1943
3 1471 2115 2477
3 29 30 255
3 132 133 254
3 1630 1633 1634
3 1225 1224 1226
3 1925 1573 1926
3 1211 1205 1692
3 725 825 826
3 1113 924 1114
3 600 579 1988
3 717 1552 1567
3 1820 1657 1936
3 674 276 2099
3 395 393 1877
3 572 543 1897
3 1575 1308 2255
3 999 1000 1028
3 1118 1775 1876
3 1797 1798 2430
3 526 546 559
3 867 853 2186
3 1142 1771 1949
3 1068 1275 1442
3 679 385 1779
3 1607 1558 1789
3 580 568 1758
3 1244 1252 1253
3 1760 1761 1762
3 398 402 403
3 1476 1258 1478
3 418 421 889
3 1771 1147 1839
3 164 213 1658
3 1720 1721 2267
3 1668 1591 2512
3 1042 1128 1445
3 1098 1830 1833
3 1102 1092 1103
3 2249 884 2466
3 1104 1103 1434
3 410 416 1821
3 514 513 541
3 580 1758 1763
3 637 673 1741
3 1913 936 1914
3 1394 1395 2337
3 919 920 999
3 577 554 579
3 2111 1660 2263
3 231 1658 1659
3 612 613 644
3 568 543 572
3 770 775 1806
3 1445 1128 1446
3 1546 1548 1842
3 448 460 478
3 810 870 871
3 1789 1560 1819
3 1154 1082 1431
3 873 973 1802
3 379 385 679
3 837 850 921
3 1461 1462 1463
3 1346 1076 1420
3 1088 1344 1808
3 2125 1143 2353
3 931 977 978
3 882 772 1802
3 29 255 1765
3 849 1513 2180
3 1713 827 1806
3 1130 1396 1397
3 681 638 852
3 1417 1321 1873
3 1654 1402 2530
3 502 526 1740
3 1124 888 2177
3 1266 1460 1461
3 515 1175 1840
3 1253 1264 1669
3 479 466 1813
3 1727 1729 1757
3 379 380 385
3 1971 1480 2514
3 1637 1739 2459
3 1207 1205 1208
3 529 519 1899
3 1129 1845 1929
3 224 1661 2267
3 192 1856 2361
3 732 734 1807
3 1184 2163 2435
3 1119 1120 1353
3 415 414 431
3 719 724 725
3 559 546 1750
3 871 872 970
3 1038 917 1622
3 574 699 1752
3 166 167 1679
3 1117 1118 1119
3 1409 1196 2035
3 617 619 621
3 1172 1173 1439
3 1191 1005 1768
3 664 663 684
3 494 493 1841
3 890 529 1731
3 840 802 841
3 493 974 1841
3 385 386 399
3 679 1779 1780
3 371 376 379
3 416 433 1109
3 670 769 1815
3 902 866 903
3 1780 1779 1781
3 480 515 1840
3 970 971 1042
3 433 448 1714
3 28 29 1765
3 1005 949 1142
3 778 780 1117
3 959 1037 1799
3 1073 1003 1076
3 535 532 1898
3 1119 1118 1120
3 658 657 693
3 1378 1379 1380
3 1397 1396 1809
3 1610 1609 1612
3 1819 1560 2016
3 1837 952 1865
3 1719 1131 1881
3 1131 1399 1400
3 1352 1138 2058
3 399 406 409
3 548 1630 2041
3 1275 1338 2251
3 582 1816 1818
3 1835 1836 2144
3 993 1101 1980
3 1699 1698 1700
3 2407 364 2505
3 1189 1190 1788
3 1117 780 1118
3 1830 1829 1831
3 637 672 673
3 692 804 1072
3 1204 1203 1205
3 1374 1170 2139
3 612 692 1794
3 1642 1408 2286
3 723 808 809
3 450 459 1812
3 409 410 414
3 802 801 1778
3 1853 1854 2483
3 1042 1127 1128
3 1199 1846 2225
3 1147 990 1273
3 1383 1384 2432
3 432 431 438
3 1353 1120 1390
3 1093 1091 1094
3 2020 250 2254
3 148 149 1639
3 606 605 648
3 1970 2016 2422
3 2201 2046 2327
3 475 471 513
3 412 407 1951
3 1991 246 2139
3 727 695 728
3 1673 234 1788
3 1554 1556 1559
3 1089 663 1746
3 1846 964 2056
3 923 991 1088
3 409 406 410
3 729 728 730
3 1424 1427 1856
3 1473 1911 2407
3 1376 1377 1378
3 1010 1374 1510
3 853 852 854
3 366 369 1087
3 772 873 1802
3 1219 1218 1626
3 1766 229 2061
3 1088 991 1344
3 922 810 1826
3 518 506 695
3 405 402 2116
3 962 1664 2316
3 913 942 1002
3 932 990 1147
3 629 813 1816
3 876 877 992
3 399 386 406
3 932 845 990
3 1002 1123 1131
3 843 996 1145
3 781 837 1775
3 262 2304 2491
3 431 696 1814
3 1273 1695 1892
3 731 730 732
3 737 732 1807
3 439 438 450
3 1829 498 1841
3 800 685 801
3 767 814 815
3 1060 766 1656
3 673 766 767
3 1403 1605 1882
3 716 718 719
3 1338 1069 1339
3 847 752 1843
3 864 862 1116
3 2302 443 2519
3 923 827 991
3 526 559 1740
3 1911 1473 2358
3 1085 1310 1867
3 809 899 900
3 1227 1226 1228
3 729 730 731
3 1436 1370 1437
3 731 732 737
3 769 827 923
3 456 452 471
3 1433 1503 2471
3 1435 1103 1623
3 385 380 386
3 1141 1787 2460
3 1354 1088 1808
3 657 649 1848
3 415 431 432
3 484 892 1820
3 727 728 729
3 855 854 1450
3 1721 1722 1723
3 1643 1353 1644
3 1145 1916 1960
3 1421 1191 1422
3 466 1812 1813
3 943 944 995
3 1356 1357 1376
3 714 715 716
3 1156 1094 1157
3 598 611 612
3 631 1600 2298
3 590 589 605
3 965 969 1919
3 416 1109 1821
3 242 1697 2335
3 1548 1547 1549
3 550 573 584
3 584 604 632
3 409 414 415
3 712 713 714
3 642 670 702
3 818 698 819
3 1006 1005 1191
3 1624 1689 1691
3 169 170 237
3 173 174 238
3 956 912 1003
3 937 936 1913
3 1317 1025 1875
3 515 540 550
3 973 1799 1800
3 973 959 1799
3 518 695 727
3 910 819 912
3 584 573 604
3 1170 946 1418
3 173 238 1847
3 550 540 573
3 982 984 1148
3 900 976 982
3 441 435 452
3 448 478 1714
3 1849 1648 2173
3 1631 1628 1637
3 1830 1831 1832
3 1383 1216 1384
3 734 772 882
3 949 933 1770
3 1332 1330 1333
3 574 575 591
3 1105 1088 1354
3 702 670 1815
3 498 494 1841
3 827 770 1806
3 873 959 973
3 1390 1391 1415
3 450 438 459
3 950 949 1005
3 351 362 364
3 1313 1029 1314
3 432 438 439
3 837 838 850
3 1273 1274 1695
3 850 851 943
3 911 952 1837
3 1259 1260 1804
3 566 587 588
3 1037 1216 1383
3 1337 1265 1538
3 1087 369 1795
3 810 655 870
3 1559 1561 1566
3 1147 1273 1839
3 732 733 734
3 1662 867 2126
3 890 1731 2241
3 1854 1852 2397
3 515 479 540
3 451 450 466
3 697 666 698
3 1367 1316 1368
3 662 660 663
3 365 355 694
3 1358 1114 1767
3 379 376 380
3 1796 1448 1797
3 179 180 1859
3 790 668 849
3 569 568 580
3 690 860 931
3 466 450 1812
3 431 414 696
3 1973 1133 1974
3 651 649 657
3 467 466 479
3 1288 1289 1835
3 264 265 1986
3 1302 1303 1304
3 592 596 597
3 1873 1321 2037
3 544 543 568
3 275 277 549
3 209 1937 2389
3 539 565 566
3 1485 227 1486
3 2384 2190 2408
3 1781 1779 1783
3 480 479 515
3 689 1416 2413
3 1108 1161 1539
3 1867 1310 1895
3 1300 1301 1302
3 1695 1696 1697
3 633 632 668
3 1304 1451 1452
3 988 911 1837
3 168 169 1724
3 969 1012 1172
3 582 629 1816
3 1843 752 1900
3 629 812 813
3 710 711 712
3 1782 1780 1784
3 536 535 543
3 1089 1746 1969
3 1108 1107 1161
3 1514 1426 1856
3 486 484 1820
3 369 371 1795
3 1817 988 1924
3 493 609 974
3 1422 1191 2023
3 1426 1424 1856
3 842 875 924
3 922 1826 2259
3 989 1361 1886
3 928 1070 1288
3 669 668 790
3 1113 1114 1356
3 1027 847 1843
3 728 695 1098
3 734 735 772
3 975 1107 1108
3 955 859 1962
3 813 911 988
3 1208 1448 1796
3 1101 1405 1980
3 602 676 2045
3 586 581 589
3 546 547 563
3 493 491 609
3 628 1524 2390
3 348 344 354
3 1298 1299 1300
3 509 538 539
3 974 609 975
3 813 891 911
3 871 870 872
3 1355 1354 1423
3 489 486 1820
3 778 779 780
3 1025 1176 1875
3 772 773 873
3 803 1743 2347
3 167 202 1679
3 873 883 959
3 1483 1571 2375
3 427 1756 2221
3 540 1813 1954
3 1202 1200 1203
3 959 1035 1037
3 837 921 1775
3 1304 1305 1451
3 1799 1383 2195
3 604 642 1862
3 1470 1744 2474
3 1854 2397 2453
3 1282 1269 1386
3 1573 1572 2157
3 472 2222 2290
3 1307 1708 2341
3 769 770 827
3 1037 1215 1216
3 791 790 856
3 1053 1052 1822
3 1056 1727 1728
3 1341 1138 1352
3 1300 1299 1301
3 1814 696 1838
3 1198 1196 1409
3 492 491 493
3 439 450 451
3 1171 858 2132
3 1259 1254 1260
3 665 626 666
3 970 872 971
3 258 1602 2357
3 1296 1297 1472
3 490 489 491
3 516 437 2494
3 1298 1027 1299
3 846 845 932
3 501 508 509
3 460 461 502
3 448 449 460
3 482 480 1840
3 1229 1228 1230
3 604 641 642
3 1424 1423 1427
3 502 503 526
3 1028 1000 1029
3 935 933 949
3 1084 1085 1867
3 2028 1711 2353
3 1513 1426 1514
3 892 482 1840
3 852 638 1988
3 402 395 1877
3 738 737 845
3 413 412 418
3 1119 1353 1643
3 526 527 546
3 280 279 281
3 1731 1155 2123
3 1042 971 1127
3 1208 1447 1448
3 433 434 448
3 262 159 2304
3 184 1454 2303
3 1051 1052 1053
3 1816 1817 1818
3 1081 1417 1444
3 781 836 837
3 911 951 952
3 1090 1092 1102
3 202 168 1724
3 1085 1309 1310
3 408 407 412
3 1337 1538 1864
3 1515 1514 1516
3 530 529 890
3 1517 1518 1519
3 549 686 687
3 923 1088 1105
3 404 403 407
3 1835 1289 1836
3 1314 1367 2121
3 1380 1379 2416
3 670 671 769
3 899 808 1874
3 1040 903 1703
3 1596 1595 2154
3 1496 1495 1497
3 636 637 1741
3 1377 1638 2288
3 1288 1070 1289
3 1072 804 1981
3 1129 1334 1845
3 1865 1084 1866
3 792 922 1603
3 1253 1252 1254
3 981 1167 1792
3 1302 1301 1303
3 1641 1651 2019
3 952 953 1084
3 1813 1812 1869
3 732 730 733
3 975 1106 1107
3 1142 949 1770
3 981 1166 1167
3 840 841 842
3 451 466 467
3 1273 990 1274
3 1049 1050 1051
3 1473 2407 2505
3 968 966 1199
3 642 643 670
3 1310 1309 1311
3 422 419 435
3 1063 833 1082
3 919 782 920
3 911 891 951
3 1084 953 1085
3 1763 1764 2164
3 1498 1497 1682
3 515 550 1175
3 1079 937 1913
3 642 702 1862
3 845 737 1931
3 1394 1311 1395
3 1395 1521 1522
3 467 479 480
3 1755 1754 1793
3 1231 1230 1232
3 1557 1553 2030
3 1624 1691 2262
3 584 632 633
3 1094 1091 1969
3 708 709 710
3 1948 1627 2488
3 952 951 953
3 1102 1103 1104
3 1047 1048 1049
3 1310 1311 1394
3 1852 1099 1985
3 143 144 1717
3 813 812 891
3 1944 1044 1945
3 1105 1354 1355
3 1300 1302 1455
3 1914 936 1940
3 1415 1391 1710
3 1299 1027 1843
3 952 1084 1865
3 1695 1274 1696
3 776 774 1928
3 282 281 283
3 2003 1347 2279
3 1206 995 1499
3 1164 1685 1686
3 1551 1565 2030
3 969 1172 1919
3 633 668 669
3 734 733 735
3 1373 1372 1438
3 599 600 636
3 1431 1860 2487
3 1579 1577 1999
3 484 482 892
3 917 940 941
3 2144 1836 2169
3 1866 1084 1867
3 1110 1747 1748
3 998 1171 1811
3 1390 1120 1391
3 644 1824 2057
3 1362 1961 2048
3 944 1283 1825
3 1086 1027 1298
3 679 1780 1782
3 974 975 1879
3 507 506 518
3 1121 1079 1401
3 775 777 778
3 1965 762 2349
3 1045 1046 1047
3 1772 421 2106
3 16 17 2081
3 416 417 433
3 921 850 2125
3 1607 1855 1958
3 649 648 1848
3 1241 1240 1242
3 2012 1443 2251
3 926 928 1920
3 1487 1488 2025
3 1006 1191 1421
3 1355 1423 1424
3 1133 852 1988
3 591 592 1776
3 1299 1843 1857
3 1085 1308 1309
3 490 491 492
3 958 694 1575
3 1384 1216 1385
3 741 915 1878
3 1233 1232 1234
3 669 790 791
3 481 480 482
3 687 703 704
3 492 493 494
3 1634 1633 1922
3 1697 1696 1698
3 1721 985 1722
3 1839 1273 1892
3 772 735 773
3 488 486 489
3 950 1005 1006
3 1513 1514 1515
3 454 500 501
3 873 773 883
3 284 283 285
3 2185 1505 2442
3 959 883 1035
3 543 535 1897
3 1904 1384 2093
3 800 801 802
3 1037 1035 1215
3 1293 1964 1965
3 1239 1238 1240
3 943 1143 2125
3 1782 1784 1785
3 913 756 942
3 488 490 1884
3 1590 1749 2501
3 1235 1234 1236
3 791 856 1408
3 702 2015 2070
3 1108 1539 1540
3 1021 1023 1045
3 695 506 1828
3 1530 1528 1532
3 488 489 490
3 1621 1619 2161
3 704 705 706
3 1304 1303 1305
3 558 1704 2167
3 625 622 626
3 542 553 554
3 604 573 641
3 664 684 685
3 564 571 574
3 1108 1540 1879
3 1856 1427 2361
3 880 1025 1129
3 1395 1311 1521
3 1466 1465 1467
3 915 495 1884
3 1515 1516 1523
3 1237 1236 1238
3 606 648 649
3 999 920 1000
3 676 829 1043
3 2100 794 2142
3 227 151 1500
3 577 579 599
3 153 154 1671
3 1175 550 1927
3 1014 888 1015
3 286 285 287
3 1649 1280 2427
3 1725 204 2137
3 975 609 1106
3 1129 1317 1334
3 1109 1730 2426
3 1468 1467 1469
3 1131 1123 1399
3 1215 2235 2378
3 1976 1149 1989
3 397 395 398
3 746 743 1878
3 1041 1343 1598
3 975 1108 1879
3 741 495 915
3 1167 1754 1755
3 288 287 289
3 743 741 1878
3 1274 990 1931
3 1506 214 1507
3 857 1584 2277
3 2341 1522 2387
3 846 932 933
3 1107 1106 1110
3 584 633 1927
3 290 289 291
3 722 591 1776
3 1544 1094 1969
3 1135 270 1647
3 935 949 950
3 1920 1288 2080
3 754 1896 2108
3 1693 1199 2225
3 292 291 293
3 394 393 395
3 745 743 746
3 1002 942 1123
3 731 737 738
3 294 293 295
3 1018 1573 1925
3 296 295 297
3 298 297 299
3 321 322 325
3 317 320 321
3 314 315 317
3 312 313 314
3 310 311 312
3 308 309 310
3 1898 890 2275
3 306 307 308
3 304 305 306
3 1401 1079 1913
3 300 299 301
3 302 303 304
3 300 301 302
3 302 301 303
3 491 489 1936
3 298 299 300
3 304 303 305
3 306 305 307
3 308 307 309
3 310 309 311
3 312 311 313
3 314 313 315
3 317 315 320
3 321 320 322
3 1301 1299 1857
3 514 541 542
3 296 297 298
3 850 838 851
3 1310 1394 1895
3 294 295 296
3 590 605 606
3 292 293 294
3 651 657 658
3 290 291 292
3 1207 1208 1796
3 835 1976 1989
3 621 619 622
3 746 1878 1896
3 481 482 483
3 1026 847 1027
3 1335 1207 1870
3 1661 59 2266
3 727 729 1155
3 288 289 290
3 1058 776 1928
3 662 663 664
3 495 488 1884
3 1959 319 2522
3 943 851 944
3 1293 1291 1964
3 534 532 535
3 640 645 646
3 2280 1014 2385
3 286 287 288
3 591 575 592
3 521 519 529
3 13 14 2114
3 780 779 781
3 918 908 1850
3 837 836 838
3 209 148 1639
3 754 748 1896
3 745 746 747
3 769 671 770
3 929 1065 2197
3 1278 1058 1279
3 483 482 484
3 1564 1557 2030
3 633 807 1927
3 392 391 393
3 1057 1621 2161
3 569 580 581
3 284 285 286
3 876 992 1894
3 497 494 498
3 1630 1635 2041
3 982 1148 1918
3 612 611 613
3 700 634 1044
3 822 674 2099
3 880 1129 1929
3 432 439 654
3 1039 1291 1292
3 1164 1686 1989
3 1129 1025 1317
3 738 845 846
3 582 583 629
3 278 6 279
3 544 568 569
3 1701 1274 1931
3 747 749 751
3 1085 953 1308
3 928 930 1070
3 747 748 749
3 1421 1422 2415
3 902 903 904
3 1309 1308 1543
3 642 641 643
3 904 981 1792
3 646 784 785
3 536 543 544
3 1204 1205 1207
3 365 694 958
3 71 72 217
3 88 89 1901
3 87 88 193
3 101 102 189
3 85 86 242
3 99 100 241
3 74 75 192
3 91 92 219
3 94 95 191
3 83 84 220
3 97 98 221
3 77 78 218
3 80 81 194
3 89 90 245
3 62 63 244
3 60 61 188
3 64 65 223
3 67 68 190
3 90 91 1909
3 98 99 1905
3 61 62 1908
3 69 70 243
3 68 69 1907
3 70 71 1910
3 410 411 416
3 586 589 590
3 685 684 2029
3 390 389 391
3 1715 1150 1811
3 1924 1837 2215
3 282 283 284
3 496 497 1929
3 233 1671 1769
3 627 2185 2442
3 1567 1552 2062
3 629 630 812
3 424 453 454
3 583 562 1942
3 749 750 805
3 744 743 745
3 1897 535 1898
3 467 480 481
3 504 759 880
3 670 643 671
3 89 245 1901
3 193 88 1901
3 221 98 1905
3 245 90 1909
3 91 219 1909
3 62 244 1908
3 188 61 1908
3 99 241 1905
3 190 68 1907
3 71 217 1910
3 69 243 1907
3 243 70 1910
3 505 499 506
3 475 513 514
3 1945 1044 2071
3 1712 2125 2353
3 339 343 440
3 989 1360 1361
3 764 869 1152
3 778 777 779
3 1686 1685 1687
3 742 741 743
3 979 989 1886
3 729 731 1887
3 926 927 928
3 1305 1306 1307
3 1838 1278 2292
3 747 746 748
3 181 182 1652
3 1886 1361 2305
3 1595 1594 2486
3 597 596 598
3 928 1288 1920
3 1970 824 2156
3 1425 1424 1426
3 497 504 1929
3 748 746 1896
3 745 747 1900
3 998 858 1171
3 563 547 564
3 1155 729 1887
3 634 583 1942
3 1439 1173 1440
3 1026 1027 1086
3 79 80 1904
3 1533 1532 1536
3 1449 1426 1513
3 1106 609 1936
3 1318 1013 1319
3 1098 695 1828
3 492 494 496
3 750 748 754
3 731 738 1887
3 2415 1422 2516
3 533 562 582
3 988 1837 1924
3 1216 1215 1863
3 534 535 536
3 747 751 1900
3 1753 809 2119
3 1183 824 1970
3 740 495 741
3 80 194 1904
3 893 383 2087
3 655 605 1939
3 1884 2034 2082
3 1301 1857 1923
3 1307 1306 1708
3 752 745 1900
3 750 754 755
3 76 77 1903
3 2090 2347 2365
3 255 30 2159
3 132 254 2160
3 448 434 449
3 753 848 926
3 1075 1074 1327
3 487 488 495
3 377 381 647
3 483 484 485
3 755 754 2148
3 1584 1925 2277
3 1186 1183 1970
3 951 891 1281
3 485 484 486
3 546 527 547
3 133 134 1766
3 1786 1785 2409
3 280 281 282
3 460 449 461
3 744 745 752
3 77 218 1903
3 983 1918 2342
3 1708 1306 1810
3 1389 2069 2170
3 487 486 488
3 641 573 1954
3 507 518 519
3 502 461 503
3 519 518 1899
3 1202 1203 1204
3 821 897 1972
3 92 93 1902
3 521 529 530
3 749 748 750
3 2176 1380 2416
3 885 826 886
3 485 486 487
3 371 372 376
3 1289 1070 1871
3 1110 1657 1747
3 753 926 1943
3 700 1044 1944
3 880 881 1025
3 496 1845 2034
3 1072 1981 2393
3 462 464 2134
3 1949 1771 2359
3 1044 634 1942
3 550 584 1927
3 1390 1415 2118
3 526 503 527
3 990 845 1931
3 1009 1213 1214
3 740 742 1144
3 219 92 1902
3 727 1155 1899
3 369 370 371
3 623 690 2150
3 1279 1058 1928
3 1408 2235 2286
3 487 495 740
3 979 1886 2086
3 1305 1303 1306
3 421 412 1951
3 843 844 996
3 633 669 807
3 518 727 1899
3 826 825 1961
3 1657 1106 1936
3 1172 1012 1173
3 740 741 742
3 433 417 434
3 505 506 507
3 1333 1674 2437
3 742 743 744
3 469 458 470
3 1381 1380 1382
3 1293 1965 2515
3 1554 1559 2062
3 553 557 2499
3 1774 389 2339
3 497 498 499
3 483 485 576
3 740 1144 1935
3 773 735 834
3 366 367 369
3 1120 1118 1876
3 1515 1523 1574
3 1319 1013 2039
3 1303 1301 1923
3 457 447 458
3 561 593 594
3 1355 1424 1425
3 609 491 1936
3 204 1732 2137
3 791 1408 1642
3 995 944 1825
3 456 471 475
3 1692 1693 2239
3 580 1763 2164
3 1292 1293 2117
3 441 452 456
3 388 384 389
3 823 821 1972
3 504 880 1929
3 176 177 1680
3 1070 1071 1871
3 15 2260 2477
3 362 363 366
3 2178 2300 2449
3 1035 883 1036
3 2285 1563 2307
3 978 977 1074
3 1090 1102 2029
3 1810 1306 1923
3 496 494 497
3 1306 1303 1923
3 432 654 1915
3 934 933 935
3 356 355 365
3 398 403 404
3 635 701 843
3 1110 1106 1657
3 574 571 575
3 1025 881 1176
3 386 380 786
3 415 432 1915
3 343 347 1911
3 1070 930 1071
3 1688 1740 2231
3 1385 1216 1863
3 1696 1274 1701
3 1645 305 2317
3 880 759 881
3 926 848 927
3 1427 1423 2217
3 1339 1662 2388
3 770 774 775
3 1263 1257 1428
3 1337 1864 2412
3 349 348 355
3 2267 1721 2498
3 753 752 847
3 1375 1086 1473
3 900 982 983
3 332 335 739
3 429 428 430
3 744 752 753
3 1171 2132 2165
3 1425 1426 1449
3 987 641 1954
3 1883 1786 2409
3 427 426 428
3 928 927 930
3 1815 1105 2015
3 1206 1499 1941
3 410 406 411
3 573 540 1954
3 497 499 504
3 528 560 561
3 1933 1404 2399
3 1091 1089 1969
3 1804 1282 2073
3 504 505 759
3 963 924 1113
3 1711 1710 1712
3 881 759 1146
3 968 1199 1200
3 351 352 362
3 848 847 1026
3 521 530 531
3 1884 490 2034
3 1277 957 1966
3 1349 1350 2329
3 676 1043 2045
3 997 1159 1286
3 517 1889 1890
3 781 835 836
3 944 948 1283
3 722 1776 2026
3 507 519 520
3 2040 1352 2058
3 1276 957 1277
3 446 437 447
3 931 860 977
3 361 359 765
3 1248 1536 2534
3 512 523 528
3 408 412 413
3 1368 1369 1370
3 451 2169 2223
3 192 75 1994
3 942 756 2026
3 345 344 348
3 764 1152 1963
3 413 418 419
3 1286 1773 1774
3 770 671 774
3 275 549 2124
3 1497 1645 2461
3 1982 1472 2272
3 422 435 441
3 281 279 736
3 1134 270 1135
3 582 562 583
3 1421 2415 2454
3 485 487 1935
3 2300 1067 2480
3 1578 1576 1827
3 930 927 1061
3 1026 1086 1375
3 922 2259 2379
3 1391 1120 1876
3 1495 1494 2493
3 404 407 408
3 879 2178 2449
3 1700 1698 2036
3 607 1517 1520
3 753 847 848
3 416 411 417
3 1144 742 1943
3 775 776 777
3 754 2108 2148
3 1006 1421 1953
3 585 581 586
3 531 530 532
3 235 1709 1888
3 520 519 521
3 1180 1181 1349
3 1146 759 1967
3 708 710 1921
3 1350 2253 2329
3 436 430 437
3 504 499 505
3 643 641 987
3 336 330 517
3 811 1059 1149
3 1164 1411 1685
3 846 933 934
3 635 843 1960
3 983 982 1918
3 971 872 1096
3 1149 1163 1164
3 169 237 1724
3 1314 1315 1316
3 629 583 630
3 891 812 1916
3 462 463 464
3 487 740 1935
3 798 2084 2189
3 1814 1838 2292
3 1284 1489 1491
3 340 336 2014
3 1670 1461 2200
3 920 782 2057
3 890 2241 2275
3 510 511 512
3 278 279 280
3 839 802 840
3 1858 235 1888
3 1698 1696 2036
3 104 105 222
3 57 58 224
3 1185 1183 1186
3 588 587 623
3 638 600 1988
3 1282 1386 2245
3 811 776 1058
3 816 815 876
3 2034 1845 2082
3 761 636 1741
3 566 565 587
3 174 175 1725
3 347 350 351
3 1469 1495 1496
3 1059 1058 1278
3 811 1149 1976
3 576 485 1935
3 659 658 660
3 859 1153 1962
3 76 1903 1994
3 1821 1109 2426
3 1294 1038 1622
3 733 1833 2075
3 992 993 1980
3 1566 1561 2285
3 525 474 2041
3 464 465 510
3 343 346 347
3 360 893 1982
3 650 649 651
3 896 608 936
3 950 1006 1007
3 1508 1859 1860
3 539 538 565
3 440 343 1911
3 341 340 344
3 221 1905 1906
3 1297 1823 2142
3 759 505 1967
3 1295 1053 1296
3 473 470 474
3 1463 1465 1466
3 1143 1206 2028
3 799 685 800
3 1210 2077 2203
3 509 508 538
3 492 496 2034
3 1553 1551 2030
3 1260 1261 1269
3 1430 1040 1703
3 586 590 1940
3 838 836 868
3 1705 624 2276
3 1749 972 2501
3 742 744 1943
3 804 962 1981
3 1367 1368 2254
3 531 532 533
3 337 336 340
3 1157 1094 1544
3 536 544 1158
3 812 630 1960
3 781 779 835
3 56 57 1947
3 630 583 634
3 1405 1404 1932
3 1281 891 1916
3 339 342 343
3 1411 1163 1730
3 322 323 324
3 344 340 2091
3 1735 1734 1736
3 75 76 1994
3 430 682 2494
3 1907 243 2360
3 589 581 2164
3 694 355 2196
3 744 753 1943
3 775 774 776
3 1210 1430 2077
3 335 338 339
3 1102 1803 2029
3 1078 937 1079
3 870 655 1939
3 505 507 1967
3 357 360 1982
3 1896 1878 2101
3 326 325 328
3 934 935 957
3 585 608 895
3 333 330 336
3 1270 1272 1524
3 688 817 878
3 507 520 1967
3 1428 1257 2074
3 1818 1817 2000
3 896 937 1077
3 934 957 1111
3 329 328 330
3 1499 995 1825
3 944 851 948
3 387 445 462
3 1678 1161 2228
3 777 776 811
3 313 311 757
3 324 331 332
3 848 1026 1955
3 1312 998 1811
3 1321 1322 2037
3 1080 1079 1121
3 1105 1355 2015
3 1645 2317 2461
3 1559 1568 2062
3 332 334 335
3 501 500 508
3 321 325 326
3 394 395 397
3 322 320 323
3 1529 1530 2171
3 1137 797 1138
3 811 1058 1059
3 661 660 662
3 569 581 585
3 183 4 2303
3 5 160 2304
3 1340 1138 1341
3 1660 1626 2185
3 1743 1464 2347
3 1026 1375 1955
3 1149 1059 1163
3 1736 1625 2194
3 1322 1667 2434
3 311 309 1959
3 309 307 319
3 894 700 1944
3 533 534 562
3 1276 1277 1366
3 2190 1706 2408
3 533 532 534
3 1214 1213 1410
3 1164 1163 1411
3 843 701 844
3 1009 1214 2055
3 234 1589 1788
3 2000 1817 2174
3 317 321 2050
3 328 325 945
3 392 393 394
3 588 623 2089
3 1162 958 1681
3 1078 1080 1136
3 927 848 1955
3 1496 1497 1498
3 390 391 392
3 1061 927 1955
3 1283 948 1284
3 635 634 700
3 1244 1251 1252
3 218 78 2093
3 756 722 2026
3 1071 1784 2419
3 1218 1505 2185
3 1284 948 1285
3 1489 1285 1490
3 918 1850 1851
3 684 1090 2029
3 1759 572 2537
3 1691 1690 2446
3 1979 1158 2071
3 606 649 650
3 2045 1043 2046
3 103 104 2025
3 630 634 635
3 360 383 893
3 406 386 2043
3 1909 219 2023
3 1111 957 1276
3 1925 1437 2277
3 1536 2268 2340
3 854 852 1133
3 233 153 1671
3 651 658 659
3 2099 1787 2368
3 1033 1032 1130
3 1015 1372 1373
3 1412 942 2026
3 253 264 1441
3 1531 1534 2332
3 701 700 894
3 106 107 1990
3 2048 1961 2455
3 276 274 2099
3 738 846 1968
3 1325 925 1326
3 896 936 937
3 585 586 608
3 1450 854 1973
3 1361 1360 1362
3 1045 1668 2512
3 303 301 444
3 996 844 997
3 79 1904 2093
3 1989 1686 2095
3 1928 774 2033
3 1942 562 1979
3 287 285 316
3 935 950 1966
3 1466 1467 1468
3 1242 1243 1244
3 1887 738 1968
3 2115 210 2477
3 878 929 1083
3 1326 1736 2194
3 886 888 1014
3 895 608 896
3 289 287 1978
3 821 822 897
3 936 608 1940
3 613 614 615
3 51 52 1996
3 417 411 1160
3 1149 1164 1989
3 386 786 2043
3 285 283 1971
3 1309 1543 2147
3 375 373 2053
3 371 370 372
3 779 777 1976
3 1286 1159 1773
3 2177 887 2376
3 1560 1557 1564
3 1403 1882 2399
3 1727 1757 2246
3 279 6 2049
3 1619 1438 2438
3 291 289 758
3 1781 1915 2294
3 425 401 426
3 349 355 356
3 66 67 2118
3 474 548 2041
3 1686 1687 2007
3 1262 1456 1457
3 1123 942 1412
3 1916 812 1960
3 1355 1425 2015
3 735 733 2075
3 1861 879 2449
3 1284 1285 1489
3 490 492 2034
3 366 363 367
3 980 578 2051
3 906 904 1792
3 534 536 1979
3 842 924 963
3 2051 578 2083
3 1077 937 1078
3 1102 1104 1803
3 894 1944 1946
3 398 404 2060
3 1007 1006 1953
3 369 367 370
3 348 354 2196
3 1078 1079 1080
3 1378 1380 1381
3 1568 1365 2439
3 608 586 1940
3 598 610 611
3 760 636 761
3 869 1137 1351
3 671 643 2033
3 1661 1345 2267
3 938 914 1057
3 783 761 914
3 576 1835 2144
3 388 389 390
3 297 295 318
3 454 453 500
3 1906 1728 2246
3 1439 1440 2468
3 1159 1013 1318
3 764 797 869
3 236 143 1717
3 782 644 2057
3 592 595 596
3 1542 2332 2443
3 1521 1311 2147
3 345 348 349
3 1304 1452 2205
3 1644 1907 2360
3 2146 1125 2149
3 997 844 1013
3 628 375 2053
3 299 297 1984
3 957 935 1966
3 664 685 799
3 301 299 1975
3 362 352 363
3 777 811 1976
3 1942 1979 2071
3 1001 920 2057
3 312 314 768
3 1552 1554 2062
3 615 616 617
3 357 1982 2076
3 800 802 839
3 774 671 2033
3 1749 1169 2105
3 365 958 1162
3 617 618 619
3 283 281 1938
3 1351 1772 2414
3 1525 1765 2489
3 846 934 1968
3 635 700 701
3 555 554 577
3 536 1158 1979
3 1101 1404 1405
3 630 635 1960
3 1811 1150 2089
3 2113 1666 2249
3 172 173 1847
3 107 108 195
3 54 55 196
3 1191 1768 2023
3 1455 1302 2205
3 115 116 2017
3 1387 1333 2437
3 659 661 764
3 1080 1121 1188
3 50 51 2011
3 411 406 2043
3 295 293 1983
3 643 987 2033
3 707 706 708
3 129 130 261
3 32 33 260
3 2159 260 2265
3 449 434 567
3 1314 1029 1315
3 917 796 940
3 378 375 628
3 108 109 1991
3 2370 1759 2537
3 341 344 345
3 997 1013 1159
3 544 569 1993
3 950 1007 1966
3 477 474 525
3 351 350 352
3 1696 1701 2036
3 334 331 803
3 1137 1138 1340
3 562 534 1979
3 109 110 246
3 52 53 247
3 1368 1316 1369
3 659 660 661
3 33 34 2002
3 123 124 2005
3 835 779 1976
3 851 838 1992
3 1530 1533 2172
3 1668 1045 2348
3 1162 1681 1706
3 342 338 468
3 298 300 358
3 765 359 2065
3 725 826 885
3 35 36 2003
3 46 47 2019
3 38 39 2006
3 336 517 2014
3 934 1111 1968
3 116 117 2018
3 650 651 1963
3 223 1711 2162
3 640 594 645
3 1333 1330 2192
3 104 222 2025
3 1603 922 2379
3 963 1113 1115
3 2084 1193 2189
3 564 570 571
3 36 37 2004
3 57 224 1947
3 1542 1601 2269
3 122 123 2012
3 1000 920 1001
3 127 128 240
3 34 35 239
3 383 387 2087
3 1161 1107 2228
3 1781 2294 2419
3 1201 1200 1202
3 124 125 225
3 37 38 226
3 1340 1341 1342
3 869 797 1137
3 839 840 1008
3 1158 544 1993
3 1326 925 1894
3 352 350 353
3 326 329 954
3 1864 2344 2412
3 836 835 2095
3 1051 1053 1295
3 1031 720 1032
3 503 461 787
3 1407 1112 2044
3 661 662 2058
3 838 868 1992
3 112 113 197
3 49 50 198
3 1359 980 1413
3 121 122 211
3 40 41 212
3 48 49 2010
3 113 114 2009
3 1741 673 2131
3 41 42 2020
3 120 121 2013
3 1409 2035 2097
3 1511 1374 2506
3 114 115 248
3 47 48 249
3 42 43 250
3 119 120 251
3 171 6 201
3 6 172 203
3 585 895 1993
3 43 44 2024
3 118 119 2021
3 905 904 906
3 764 661 797
3 337 340 341
3 1413 980 2051
3 117 118 205
3 44 45 206
3 347 346 350
3 1420 1076 1525
3 324 323 331
3 434 417 2031
3 965 967 969
3 716 719 788
3 1260 1254 1261
3 2053 373 2103
3 2069 2068 2170
3 326 328 329
3 1706 996 2408
3 273 275 2124
3 969 1011 1012
3 590 606 2001
3 1718 1611 2280
3 1914 1940 2001
3 915 1884 2082
3 329 330 333
3 620 859 955
3 2168 1409 2305
3 296 298 1997
3 915 2082 2101
3 339 338 342
3 1218 994 1505
3 333 336 337
3 266 263 1742
3 1873 768 2127
3 244 63 2162
3 64 223 2162
3 343 342 346
3 914 761 2258
3 310 312 1987
3 799 800 2055
3 302 304 763
3 1559 1566 1568
3 1598 1343 2114
3 592 575 595
3 341 345 794
3 189 1842 2220
3 767 815 816
3 1003 912 1004
3 839 1008 1009
3 1263 1428 1429
3 564 547 570
3 1845 1334 2082
3 332 331 334
3 901 866 902
3 651 659 1963
3 1009 1112 1213
3 335 334 338
3 569 585 1993
3 1665 1336 2299
3 1945 2071 2153
3 863 862 864
3 907 906 908
3 1849 1486 1930
3 1935 1144 2080
3 967 966 968
3 809 900 2119
3 865 864 866
3 835 1989 2095
3 190 1907 2417
3 333 337 522
3 1110 1748 2228
3 1193 1194 1195
3 94 191 2166
3 473 1854 2453
3 1769 1134 2369
3 948 851 1992
3 237 170 2216
3 420 419 422
3 1448 1447 2364
3 483 576 2144
3 721 1919 2032
3 885 886 1891
3 613 611 614
3 886 1014 1891
3 1160 411 2043
3 1918 1283 2342
3 1651 206 2485
3 1242 1240 1243
3 598 596 610
3 1295 1296 1459
3 1185 1186 1948
3 1425 1449 2070
3 294 296 762
3 1285 948 1992
3 925 876 1894
3 712 714 789
3 603 1668 2398
3 1940 590 2001
3 721 570 964
3 834 735 2075
3 1144 1920 2080
3 2263 1635 2511
3 1204 1207 1335
3 2235 1408 2378
3 965 964 966
3 1990 1435 2218
3 397 398 2060
3 1138 797 2058
3 1787 1141 2368
3 2068 820 2170
3 360 359 361
3 387 462 2087
3 1524 1272 1934
3 819 698 820
3 1197 1196 1198
3 1662 2126 2388
3 78 79 2093
3 1150 588 2089
3 1269 1261 1270
3 1878 915 2101
3 451 467 2169
3 2262 1387 2437
3 1009 1008 1112
3 757 311 1959
3 897 898 1139
3 1854 473 2483
3 2015 1425 2070
3 2082 1334 2101
3 963 1115 1174
3 1047 1049 1287
3 1194 423 1196
3 321 326 2050
3 417 1160 2031
3 854 1133 1973
3 1201 1212 1348
3 705 1586 2163
3 309 319 1959
3 1353 1390 2417
3 427 428 429
3 357 356 359
3 606 650 2001
3 549 1280 2124
3 1213 1112 1407
3 256 2303 2535
3 356 365 2065
3 662 664 2040
3 701 894 2039
3 1325 1371 2451
3 666 626 667
3 1902 93 2166
3 1236 1234 1246
3 800 839 2055
3 1869 1812 2252
3 1197 1364 1365
3 576 1935 2080
3 404 408 798
3 1678 807 2529
3 1560 1564 2016
3 1319 2039 2122
3 425 426 427
3 349 356 357
3 308 310 327
3 1716 622 2484
3 1801 82 2289
3 1768 1949 2420
3 2006 1926 2507
3 351 364 2407
3 420 423 1193
3 659 764 1963
3 292 294 2038
3 840 842 2027
3 736 279 2049
3 372 373 374
3 461 449 2052
3 2189 1195 2285
3 1174 1115 1398
3 367 363 961
3 909 908 918
3 1738 247 2402
3 1007 1761 2308
3 288 290 2135
3 422 441 2035
3 623 624 690
3 537 525 545
3 1953 1421 2454
3 1887 1968 2123
3 861 691 862
3 654 439 2223
3 1136 1080 2054
3 1312 1811 2089
3 575 571 2032
3 383 361 384
3 968 1200 1201
3 797 661 2058
3 1423 1354 2381
3 1180 1178 1181
3 1513 1515 2180
3 72 73 2217
3 462 445 463
3 12 13 2136
3 457 458 469
3 542 554 555
3 599 636 760
3 254 133 1766
3 1130 1397 1937
3 404 798 2060
3 1044 1942 2071
3 690 691 860
3 357 359 360
3 1008 2027 2152
3 1232 1230 1255
3 372 370 373
3 850 943 2125
3 1457 1456 1492
3 1952 324 2282
3 155 2 2356
3 0 7 2357
3 2017 1379 2288
3 918 1851 2008
3 195 1991 2517
3 2090 803 2347
3 1244 1243 1251
3 290 292 368
3 1432 1082 2214
3 1008 840 2027
3 1743 803 2296
3 1013 844 2039
3 365 1162 2065
3 1594 1315 2184
3 387 384 388
3 1508 1860 2311
3 547 527 2056
3 2005 225 2322
3 314 317 2127
3 1853 556 2327
3 201 6 278
3 1907 1644 2417
3 1896 2101 2108
3 646 645 784
3 538 508 558
3 374 375 377
3 1630 1634 1635
3 1579 1999 2352
3 1647 1648 1849
3 1313 1314 2121
3 1179 1433 2042
3 844 701 2039
3 1252 1251 2098
3 816 876 925
3 1922 1228 2281
3 392 394 396
3 1915 654 2294
3 1652 1653 2487
3 429 430 436
3 456 475 476
3 1605 1392 2510
3 126 1882 2284
3 1784 1780 2419
3 500 453 960
3 377 378 381
3 2178 1587 2300
3 1222 1219 1626
3 413 419 420
3 381 382 400
3 2169 1836 2223
3 1906 1905 2129
3 616 614 793
3 1170 1419 2139
3 101 189 2220
3 241 100 2220
3 1968 1111 2123
3 567 434 2031
3 615 614 616
3 1032 720 1921
3 682 428 2138
3 469 470 473
3 339 440 2261
3 1501 238 2226
3 1154 1431 1653
3 446 447 457
3 1251 1243 1257
3 2229 315 2495
3 1201 1202 1212
3 785 784 879
3 464 463 465
3 66 2118 2395
3 324 332 2282
3 286 288 771
3 17 199 2081
3 571 570 721
3 611 610 2092
3 617 616 618
3 1542 1531 2332
3 400 401 424
3 1325 1326 1371
3 1140 1406 1702
3 1323 443 2302
3 1926 1573 2507
3 436 437 446
3 1262 1457 2098
3 67 190 2118
3 1518 1861 2449
3 989 1359 1360
3 1063 1082 1154
3 1757 96 2526
3 969 967 1011
3 868 836 2095
3 1215 1035 2235
3 96 1757 2309
3 261 2160 2380
3 1381 1382 2126
3 1468 1469 2182
3 1334 1317 2108
3 861 863 1064
3 1270 1261 1271
3 360 361 383
3 287 316 1978
3 1856 192 2367
3 1905 241 2129
3 1615 1809 2425
3 528 523 560
3 979 980 989
3 662 2040 2058
3 721 964 965
3 170 171 2216
3 664 799 2040
3 512 511 523
3 1201 1348 2107
3 620 618 858
3 758 289 1978
3 859 858 998
3 424 425 453
3 1616 1615 2193
3 444 301 1975
3 561 560 593
3 965 966 967
3 1798 376 2430
3 340 2014 2091
3 510 465 511
3 107 195 1990
3 1080 1188 2054
3 1153 998 1312
3 1226 1224 1249
3 1012 1011 1363
3 902 904 905
3 842 963 2027
3 268 270 1134
3 865 901 1125
3 2077 558 2102
3 282 284 442
3 1977 1679 2253
3 1496 1498 2047
3 284 286 2063
3 281 736 1938
3 2132 793 2165
3 1674 215 2437
3 2078 1855 2411
3 839 1009 2055
3 1182 824 1183
3 1168 947 1169
3 1289 1871 2242
3 316 285 1971
3 1270 1271 1272
3 1755 1793 2264
3 51 1996 2011
3 383 384 387
3 1146 1924 2215
3 1279 1928 2202
3 619 618 620
3 1194 1196 1197
3 555 578 979
3 1937 1639 2528
3 1262 1257 1263
3 389 384 2339
3 2251 1338 2464
3 1155 1887 2123
3 1151 1937 2528
3 465 463 828
3 1318 1319 2116
3 1687 1688 2231
3 326 954 2050
3 297 318 1984
3 1308 953 2255
3 1846 2056 2198
3 320 315 2229
3 1254 1252 2059
3 760 761 783
3 951 1281 2255
3 1459 1296 2094
3 2288 1638 2470
3 1975 299 1984
3 52 247 1996
3 468 338 2090
3 2140 1511 2506
3 1125 1126 1192
3 593 824 1182
3 720 708 1921
3 704 706 707
3 623 587 624
3 2044 1112 2152
3 1393 1169 1749
3 900 983 2119
3 783 914 938
3 255 2265 2489
3 2039 894 2122
3 317 2050 2127
3 1866 1867 2513
3 374 373 375
3 429 436 455
3 387 388 445
3 1193 423 1194
3 555 577 578
3 1074 977 1187
3 449 567 2052
3 1197 1198 1364
3 2154 1595 2486
3 1486 1849 2173
3 318 295 1983
3 939 1016 1844
3 131 132 2160
3 30 31 2159
3 881 1146 2215
3 1294 1868 2238
3 1300 1455 2314
3 1365 1364 1912
3 783 938 939
3 2061 1735 2441
3 551 545 601
3 2194 216 2536
3 1251 1257 1262
3 888 887 2177
3 1364 1198 2048
3 1498 1682 2340
3 1589 1590 2501
3 60 188 2266
3 1401 1913 2324
3 195 108 1991
3 420 422 423
3 1675 1470 2474
3 258 1673 2183
3 2161 1619 2438
3 1296 1472 2094
3 1808 1910 2381
3 334 803 2090
3 1490 1285 2232
3 523 511 524
3 1240 1238 2074
3 1184 1183 1185
3 39 40 2151
3 473 474 477
3 1461 1463 2200
3 2072 353 2073
3 861 862 863
3 1206 1941 2401
3 958 1575 2287
3 614 611 2092
3 110 111 2140
3 1136 2054 2110
3 645 594 2133
3 260 33 2002
3 673 767 2131
3 989 980 1359
3 1741 2131 2258
3 1317 1875 2148
3 894 1946 2122
3 863 864 865
3 787 461 2052
3 857 2277 2386
3 109 246 1991
3 2017 116 2018
3 1182 1183 1184
3 377 375 378
3 816 925 1324
3 865 866 901
3 1262 1263 1456
3 359 356 2065
3 2129 241 2472
3 283 1938 1971
3 1458 1210 2203
3 1076 1003 2145
3 196 1738 2402
3 1033 1130 1151
3 1188 1121 2106
3 1140 1702 2096
3 549 687 1280
3 1694 1621 2191
3 861 1064 2112
3 1548 1549 2129
3 1784 1071 2462
3 714 716 2066
3 1961 825 2455
3 1447 1211 2250
3 979 578 980
3 905 907 1209
3 381 378 382
3 457 469 552
3 595 575 2032
3 408 413 2084
3 481 483 2144
3 1745 1349 2293
3 1980 1405 2441
3 198 50 2011
3 248 115 2017
3 912 819 2068
3 620 858 859
3 707 708 720
3 821 674 822
3 514 542 2086
3 400 382 401
3 123 2005 2012
3 1772 1351 2374
3 34 239 2002
3 768 314 2127
3 2003 36 2004
3 280 282 2079
3 124 225 2005
3 596 595 2130
3 593 560 824
3 1504 1502 2519
3 239 35 2003
3 1311 1309 2147
3 1318 1877 2240
3 1860 1432 2311
3 1416 1715 2330
3 859 998 1153
3 352 353 2072
3 312 768 1987
3 2027 1174 2152
3 226 38 2006
3 1827 1024 2117
3 1710 1391 2295
3 690 624 691
3 37 226 2004
3 1153 1312 1885
3 853 855 2186
3 1892 242 2373
3 1967 520 2174
3 939 938 1016
3 47 249 2019
3 388 390 2078
3 1991 2139 2517
3 905 906 907
3 571 721 2032
3 1196 423 2035
3 1324 925 1325
3 1151 1130 1937
3 363 352 2072
3 345 349 2076
3 1031 1032 1033
3 214 179 1859
3 211 122 2012
3 602 601 652
3 117 205 2018
3 710 712 2067
3 1602 187 2357
3 520 2000 2174
3 85 242 2335
3 220 84 2335
3 381 400 2113
3 1586 1587 2435
3 424 401 425
3 963 1174 2027
3 860 691 861
3 610 596 2130
3 1958 2078 2431
3 570 547 2056
3 237 2216 2354
3 1211 1692 2219
3 298 358 1997
3 909 947 1041
3 441 456 2097
3 1135 1647 1849
3 1601 1542 2443
3 197 113 2009
3 49 198 2010
3 1911 347 2407
3 1729 191 2309
3 212 41 2020
3 121 211 2013
3 222 105 2218
3 1125 901 1126
3 114 248 2009
3 249 48 2010
3 42 250 2020
3 251 120 2013
3 233 1769 2369
3 1870 647 2113
3 794 345 2076
3 250 43 2024
3 119 251 2021
3 901 902 2141
3 964 570 2056
3 739 335 2261
3 2108 1317 2148
3 577 599 2083
3 205 118 2021
3 44 206 2024
3 1247 1241 2323
3 1894 992 2244
3 6 203 2049
3 1642 1678 2529
3 1417 1873 2333
3 1422 2023 2516
3 341 794 2100
3 73 74 2361
3 1234 1232 2088
3 1261 1254 2059
3 896 1077 2257
3 1921 710 2067
3 125 126 2284
3 220 1699 2289
3 159 5 2304
3 4 184 2303
3 2059 1252 2098
3 1003 1004 2145
3 2328 1325 2451
3 1486 227 1500
3 63 64 2162
3 2081 1192 2260
3 508 500 2102
3 667 1872 2318
3 338 334 2090
3 423 422 2035
3 1192 1126 1471
3 907 908 909
3 1330 1328 2192
3 1972 897 2500
3 2443 316 2514
3 242 86 2373
3 87 193 2373
3 420 1193 2084
3 1473 1086 2358
3 1987 768 2037
3 522 337 2100
3 627 1660 2185
3 1793 446 2264
3 1405 2061 2441
3 1502 1217 2302
3 171 201 2216
3 1158 1993 2153
3 1197 1365 2120
3 1712 1710 2295
3 1121 1401 2414
3 93 94 2166
3 653 652 688
3 622 1716 2452
3 1345 1720 2267
3 477 537 556
3 128 129 2181
3 2331 1295 2458
3 784 645 874
3 1269 1270 2199
3 189 102 2355
3 1041 1168 1343
3 246 110 2140
3 477 525 537
3 755 1895 2371
3 1947 1723 2313
3 1134 1135 2369
3 223 65 2395
3 968 1201 2107
3 1577 1578 2325
3 210 15 2477
3 961 363 2072
3 1581 1579 2352
3 349 357 2076
3 337 341 2100
3 305 303 2317
3 370 367 2103
3 762 296 1997
3 581 580 2164
3 1278 1838 2372
3 1548 2129 2472
3 594 593 2133
3 2021 251 2022
3 2047 1247 2182
3 967 968 2107
3 1169 947 2008
3 481 2144 2169
3 793 614 2092
3 1910 217 2381
3 1251 1262 2098
3 716 788 2066
3 2101 1334 2108
3 2006 39 2151
3 1603 2379 2508
3 1926 2006 2151
3 96 97 2526
3 750 755 2371
3 789 714 2066
3 909 918 947
3 1993 895 2153
3 106 1990 2218
3 1243 1240 2074
3 832 986 1189
3 1283 1284 2342
3 2297 195 2517
3 1043 829 2326
3 767 816 2131
3 602 653 676
3 1004 912 2068
3 2086 1886 2224
3 1124 2177 2467
3 426 401 2531
3 707 720 1030
3 1000 1001 2184
3 1315 1029 2184
3 467 481 2169
3 541 513 2256
3 647 381 2113
3 225 2284 2510
3 2 156 2356
3 187 0 2357
3 40 212 2151
3 2245 1386 2383
3 676 677 829
3 1004 2068 2069
3 1860 232 2487
3 1031 1033 1034
3 829 830 972
3 996 997 2408
3 1195 1194 2120
3 987 1869 2202
3 1410 1213 2222
3 819 820 2068
3 1485 1486 2173
3 1564 2030 2155
3 807 669 2529
3 129 261 2181
3 1525 1076 2145
3 578 577 2083
3 327 310 1987
3 1083 929 2197
3 2131 1324 2258
3 798 408 2084
3 1838 696 2426
3 1486 1500 1930
3 1946 1944 2291
3 2257 1077 2291
3 1512 1661 2266
3 445 388 2078
3 1192 1471 2260
3 2118 1415 2395
3 1466 1468 2158
3 830 677 831
3 211 2012 2251
3 652 601 2442
3 537 545 551
3 558 508 2102
3 198 2011 2128
3 1718 2280 2385
3 500 960 2102
3 1168 1169 1393
3 1127 971 2496
3 95 96 2309
3 2030 1565 2155
3 1919 1172 2273
3 977 860 2112
3 240 128 2181
3 294 762 2038
3 1800 1799 2195
3 712 789 2067
3 972 1749 2326
3 472 1683 2212
3 874 645 2133
3 551 2045 2201
3 2105 1043 2326
3 1957 1212 2301
3 1514 1856 2367
3 565 538 2167
3 373 370 2103
3 355 348 2196
3 1934 1272 2138
3 1934 426 2531
3 1881 1400 2481
3 2046 1851 2327
3 367 961 2103
3 1963 1152 2206
3 201 278 443
3 3 131 2444
3 31 1 2445
3 2035 441 2097
3 503 787 2198
3 1135 1849 1930
3 1534 1983 2306
3 2089 623 2150
3 687 704 2109
3 869 1351 2363
3 1302 1304 2205
3 955 1716 2484
3 1030 720 1031
3 1159 1318 2240
3 1228 1226 2281
3 947 918 2008
3 413 420 2084
3 785 879 2532
3 1041 947 1168
3 1468 2182 2323
3 1246 1234 2088
3 1730 1163 2372
3 542 555 2086
3 1599 631 2312
3 1146 1967 2174
3 1078 1136 2343
3 1515 1574 2180
3 2336 885 2469
3 1257 1243 2074
3 1347 1346 2279
3 2001 650 2206
3 1480 1601 2514
3 1029 1000 2184
3 1956 788 2336
3 1271 1261 2059
3 130 3 2444
3 1 32 2445
3 1570 1507 2197
3 1232 1255 2088
3 791 1642 2529
3 1601 1479 2269
3 1361 1362 2168
3 1634 1922 2281
3 765 2065 2190
3 2071 1158 2153
3 1699 1801 2289
3 832 831 833
3 1864 346 2344
3 456 476 2097
3 1855 828 2411
3 2065 1162 2190
3 1125 1192 2149
3 599 760 2083
3 361 765 2339
3 1731 2123 2241
3 1349 1181 1350
3 1443 1275 2251
3 1819 524 2429
3 1021 1045 2512
3 858 618 2132
3 1999 358 2338
3 368 292 2038
3 290 368 2135
3 803 331 2296
3 1112 1008 2152
3 56 1947 2313
3 555 979 2086
3 1469 1496 2182
3 1011 967 2107
3 248 2017 2288
3 1809 789 2425
3 960 453 2221
3 538 558 2167
3 1858 1187 2248
3 2246 1757 2526
3 902 905 2141
3 1851 1853 2327
3 1224 1222 2111
3 771 288 2135
3 1945 2153 2257
3 1420 1525 2489
3 1399 1123 2393
3 103 2025 2355
3 897 822 898
3 1861 940 2532
3 865 1125 2146
3 1675 2474 2522
3 1573 2157 2507
3 1632 1631 2382
3 551 601 602
3 527 503 2198
3 1708 805 2337
3 1059 1278 2372
3 2056 527 2198
3 860 861 2112
3 1668 2348 2398
3 255 2159 2265
3 1541 1542 2269
3 1428 2074 2227
3 1582 1583 2321
3 389 1774 2503
3 2004 226 2157
3 1777 397 2405
3 1368 1436 2254
3 1061 2409 2462
3 1071 930 2462
3 1126 901 2141
3 1194 1197 2120
3 1452 1952 2282
3 2116 1319 2482
3 105 106 2218
3 1981 1399 2393
3 2119 983 2143
3 444 1682 2461
3 2173 1648 2463
3 616 793 2132
3 1791 1190 2334
3 1826 1728 2259
3 602 652 653
3 1834 1292 2428
3 556 2201 2327
3 1014 1015 2385
3 1995 1287 2331
3 1193 1195 2189
3 816 1324 2131
3 879 1861 2532
3 593 1182 2133
3 1402 266 1742
3 2216 1323 2354
3 1660 1636 2502
3 620 955 2484
3 1162 1706 2190
3 1870 2113 2249
3 204 1680 1732
3 1909 2023 2420
3 217 72 2217
3 376 372 2430
3 905 1209 2141
3 1378 1381 2283
3 1236 1246 2227
3 286 771 2063
3 1635 2263 2502
3 100 101 2220
3 1139 898 1140
3 2114 1343 2136
3 442 284 2063
3 1772 2106 2414
3 1985 1755 2533
3 2192 1328 2315
3 1064 863 2146
3 1631 1637 2459
3 736 2049 2523
3 221 1906 2246
3 318 1983 2171
3 1496 2047 2182
3 1374 2139 2506
3 196 55 2313
3 2087 462 2134
3 676 653 677
3 2304 257 2491
3 1401 2324 2363
3 829 677 830
3 654 2223 2242
3 1187 977 2112
3 1463 1466 2200
3 2023 219 2516
3 1176 881 2215
3 513 471 2290
3 1812 459 2252
3 1386 1269 2199
3 291 758 2306
3 618 616 2132
3 278 280 2210
3 83 220 2289
3 82 83 2289
3 938 1057 2161
3 1189 986 1190
3 788 719 2336
3 1914 2001 2206
3 232 181 1652
3 1567 2062 2490
3 313 757 2495
3 622 619 2484
3 688 878 1320
3 1222 1626 2111
3 282 442 2079
3 1169 2008 2105
3 1966 1007 2308
3 2040 799 2237
3 1744 2229 2495
3 986 833 1063
3 2284 1605 2510
3 887 1961 2376
3 215 1624 2262
3 830 831 832
3 476 475 2224
3 439 451 2223
3 1932 1933 2380
3 2227 1246 2366
3 1212 1202 2301
3 1107 1110 2228
3 249 2010 2299
3 1983 293 2306
3 2055 1214 2237
3 1438 1372 2478
3 824 560 2156
3 2320 1866 2513
3 1351 1137 2374
3 868 2007 2232
3 2063 771 2064
3 1507 214 1508
3 1728 1727 2246
3 1045 1047 2348
3 1139 1140 2096
3 1648 1649 2463
3 1502 2302 2519
3 704 707 2109
3 2343 1136 2396
3 650 1963 2206
3 2153 895 2257
3 396 1958 2431
3 1379 1377 2288
3 2115 1471 2319
3 2033 987 2202
3 2239 1693 2518
3 2025 1488 2355
3 1209 2115 2319
3 523 524 2156
3 783 939 2243
3 376 1798 2497
3 2066 788 2193
3 1984 318 2172
3 425 427 2221
3 203 172 1847
3 446 457 2264
3 1312 2089 2150
3 2138 1272 2211
3 897 1139 2274
3 828 1819 2429
3 1249 1224 2111
3 666 667 2318
3 1371 1326 2194
3 2433 1499 2475
3 1272 1271 2211
3 1367 2254 2479
3 1386 2053 2383
3 2074 1238 2227
3 755 2148 2320
3 2117 1604 2428
3 475 514 2224
3 228 2187 2457
3 1868 1504 2520
3 1626 1218 2185
3 2123 1111 2241
3 1287 1049 2331
3 1280 687 2109
3 459 1814 2292
3 54 196 2402
3 863 865 2146
3 204 176 1680
3 514 2086 2224
3 1646 603 2398
3 112 197 2346
3 358 300 2338
3 1140 898 1141
3 1204 1335 2301
3 1016 2161 2438
3 909 1041 2175
3 1681 2448 2492
3 2252 459 2292
3 1992 868 2232
3 1035 1036 2235
3 1051 1295 2331
3 1836 1289 2242
3 1508 214 1859
3 247 53 2402
3 1016 938 2161
3 1408 856 2378
3 1466 2158 2200
3 725 885 2336
3 855 1450 2421
3 2023 1768 2420
3 1238 1236 2227
3 1679 202 2253
3 2107 1348 2233
3 1653 1431 2487
3 1946 2291 2343
3 2253 202 2329
3 1885 1312 2150
3 378 628 2390
3 2195 1383 2432
3 1520 1519 2480
3 1532 1733 2534
3 308 327 2278
3 953 951 2255
3 1213 1407 2222
3 1561 1563 2285
3 302 763 2338
3 1928 2033 2202
3 763 304 2345
3 832 833 986
3 1352 2040 2237
3 247 1881 2481
3 560 523 2156
3 335 339 2261
3 346 342 2344
3 201 443 1323
3 2301 1335 2466
3 323 320 2229
3 1136 2110 2396
3 1139 1977 2274
3 1809 1615 2423
3 1707 1791 2334
3 46 2019 2485
3 2064 1294 2238
3 1950 197 2404
3 2021 2022 2176
3 1949 245 2420
3 2044 2152 2207
3 1063 1154 1707
3 1012 1363 2406
3 280 2079 2210
3 2237 1214 2351
3 820 698 2318
3 1140 1141 1406
3 205 2021 2176
3 2043 786 2310
3 2145 1004 2446
3 707 1030 2109
3 1406 2460 2473
3 2137 1268 2226
3 16 2081 2260
3 567 2031 2219
3 2112 1064 2248
3 206 45 2485
3 2347 1462 2365
3 1650 1962 2362
3 453 425 2221
3 1209 907 2175
3 1111 1276 2241
3 2448 1145 2492
3 2051 2083 2243
3 59 60 2266
3 1402 1742 2530
3 831 677 2209
3 624 587 2276
3 238 174 1725
3 1011 2107 2233
3 468 2365 2412
3 2337 805 2371
3 254 1932 2380
3 1174 1398 2207
3 2140 111 2346
3 1381 2186 2283
3 1987 2037 2188
3 1740 559 2456
3 1773 391 2503
3 1335 1870 2249
3 1945 2257 2291
3 828 463 2411
3 1246 2088 2208
3 2060 798 2307
3 1773 1159 2240
3 1187 2112 2248
3 1352 2237 2351
3 2037 1322 2188
3 1941 1499 2433
3 2322 225 2510
3 1031 1034 2236
3 327 2188 2321
3 595 2032 2273
3 1464 1462 2347
3 1285 1992 2232
3 799 2055 2237
3 443 278 2210
3 784 874 2178
3 392 396 2431
3 191 95 2309
3 879 784 2178
3 524 511 2429
3 2128 2011 2270
3 895 896 2257
3 2206 1152 2324
3 318 2171 2172
3 2259 1549 2379
3 1214 1410 2351
3 306 308 2278
3 2022 251 2247
3 1757 1729 2309
3 1283 1918 2524
3 996 1706 2492
3 557 2044 2207
3 1798 1448 2364
3 1447 2250 2310
3 559 1750 2403
3 1363 1011 2233
3 1343 1168 2187
3 1407 2044 2256
3 1462 1460 2365
3 1995 2331 2458
3 327 1987 2188
3 2160 254 2380
3 1681 958 2287
3 2031 1160 2250
3 1600 689 2413
3 2219 1692 2239
3 1494 1675 2522
3 1281 1916 2448
3 907 909 2175
3 565 2167 2276
3 2241 1276 2275
3 1978 316 2443
3 2151 212 2350
3 203 1847 2104
3 2049 1481 2523
3 1961 1362 2376
3 2187 1393 2457
3 940 796 2532
3 2293 1349 2329
3 572 1897 2537
3 332 739 2282
3 2052 567 2239
3 1437 1370 2277
3 567 2219 2239
3 667 626 2452
3 1914 2206 2324
3 2243 939 2392
3 2136 1343 2187
3 257 1654 2530
3 1376 1378 2283
3 2076 1982 2272
3 2083 760 2243
3 1944 1945 2291
3 1771 1839 2359
3 1404 1403 2399
3 1875 1866 2320
3 1460 1337 2412
3 760 783 2243
3 1276 1366 2275
3 1428 2227 2366
3 1882 1605 2284
3 1739 1429 2459
3 2321 2188 2434
3 1328 1327 2315
3 798 2189 2307
3 2152 1174 2207
3 2182 1247 2323
3 1516 1514 2367
3 293 291 2306
3 556 537 2201
3 1298 1300 2314
3 1400 1399 2316
3 1649 2236 2463
3 833 831 2424
3 2127 2050 2333
3 1057 914 2328
3 1839 193 2359
3 761 1741 2258
3 1186 1970 2422
3 1429 2366 2382
3 2211 1271 2271
3 1733 1248 2534
3 13 2114 2136
3 2078 390 2431
3 1533 1536 2340
3 1690 2145 2446
3 1277 2308 2370
3 1168 1393 2187
3 1597 2047 2268
3 587 565 2276
3 1908 244 2401
3 225 125 2284
3 610 2130 2468
3 1749 2105 2326
3 1913 1914 2324
3 2366 2208 2382
3 1391 1876 2295
3 457 552 2264
3 653 688 2209
3 1601 2443 2514
3 682 2138 2211
3 992 1980 2244
3 55 56 2313
3 1645 1495 2493
3 473 477 2483
3 202 1724 2329
3 465 828 2429
3 1277 1966 2308
3 1416 2330 2406
3 1912 1364 2455
3 1716 1483 2375
3 2019 1651 2485
3 1725 2137 2226
3 201 1323 2216
3 878 1083 2213
3 2072 2073 2245
3 1563 1777 2405
3 244 2028 2401
3 2016 1564 2422
3 1682 1497 2461
3 1962 1153 2362
3 1298 2314 2358
3 1384 1385 2391
3 688 1320 2209
3 1587 2179 2435
3 786 380 2497
3 1395 1522 2341
3 2032 1919 2273
3 251 2013 2247
3 2219 2031 2250
3 2397 552 2453
3 1765 255 2489
3 2475 1825 2524
3 1202 1204 2301
3 445 2078 2411
3 323 2229 2296
3 1286 2384 2408
3 537 551 2201
3 1724 237 2293
3 84 85 2335
3 1471 1126 2319
3 1635 1634 2511
3 300 302 2338
3 698 666 2318
3 1030 1031 2236
3 2098 1457 2271
3 696 1821 2426
3 1457 1492 2447
3 1956 2336 2469
3 331 323 2296
3 1284 1491 2342
3 2011 1996 2270
3 256 183 2303
3 160 257 2304
3 2204 1589 2501
3 1891 1014 2280
3 719 725 2336
3 1354 1808 2381
3 437 430 2494
3 2377 218 2391
3 2211 2271 2447
3 1407 2256 2290
3 2365 1460 2412
3 2047 1498 2268
3 1825 1283 2524
3 1499 1825 2475
3 1226 1249 2281
3 2051 2243 2392
3 2250 1160 2310
3 111 112 2346
3 304 306 2345
3 1341 1352 2351
3 2166 191 2504
3 2223 1836 2242
3 1996 247 2481
3 1049 1051 2331
3 1086 1298 2358
3 2130 595 2273
3 1249 2111 2263
3 680 1995 2458
3 1511 2140 2346
3 102 103 2355
3 469 473 2453
3 961 2072 2245
3 2073 1282 2245
3 1442 1443 2525
3 74 192 2361
3 2163 1586 2435
3 1519 1518 2449
3 897 2274 2500
3 303 444 2317
3 1615 1614 2423
3 197 2009 2404
3 1634 2281 2511
3 1780 1781 2419
3 1435 1623 2465
3 1286 1774 2384
3 384 361 2339
3 193 1901 2359
3 1165 2433 2475
3 2277 1370 2386
3 677 653 2209
3 1994 1516 2367
3 1479 1478 2440
3 1165 1512 2433
3 1644 1353 2417
3 1711 1712 2353
3 2193 1615 2425
3 1613 1956 2469
3 1440 1173 2330
3 2269 1479 2440
3 222 2218 2465
3 391 389 2503
3 306 2278 2345
3 468 2090 2365
3 221 2246 2526
3 1445 1446 2504
3 939 1844 2392
3 86 87 2373
3 1429 1428 2366
3 2053 2103 2383
3 1348 1212 2312
3 805 750 2371
3 997 1286 2408
3 1152 869 2363
3 2063 2064 2238
3 192 1994 2367
3 1160 2043 2310
3 1926 2151 2350
3 2059 2098 2271
3 1897 1366 2537
3 215 2262 2437
3 1655 1732 2476
3 2415 1128 2454
3 1320 2213 2214
3 7 258 2357
3 259 155 2356
3 2171 1530 2172
3 347 351 2407
3 1077 1078 2343
3 239 2003 2279
3 1446 1128 2415
3 1034 1033 2410
3 601 627 2442
3 1154 1653 2234
3 397 2060 2405
3 2142 794 2272
3 442 2063 2238
3 1863 1215 2378
3 794 2076 2272
3 1883 1375 2505
3 1320 878 2213
3 342 468 2344
3 1903 218 2377
3 380 376 2497
3 1549 1547 2379
3 1148 1165 2475
3 2157 226 2507
3 829 972 2326
3 884 1957 2466
3 2291 1077 2343
3 65 66 2395
3 787 2052 2518
3 2298 1348 2312
3 1946 2343 2396
3 1653 256 2535
3 1842 1548 2472
3 1957 2301 2466
3 1366 1277 2370
3 2213 1432 2214
3 961 2245 2383
3 218 2093 2391
3 1376 2283 2421
3 1873 2127 2333
3 1019 1021 2512
3 1128 1127 2454
3 1104 1434 2450
3 2130 1439 2468
3 2396 2110 2482
3 2186 855 2283
3 1724 2293 2329
3 1163 1059 2372
3 1614 2389 2423
3 53 54 2402
3 1063 1707 2334
3 2283 855 2421
3 1385 1863 2436
3 364 1883 2505
3 517 1890 2387
3 1145 996 2492
3 1047 1287 2348
3 2148 1875 2320
3 205 2176 2416
3 1372 1844 2478
3 1211 2219 2250
3 1141 898 2368
3 245 1909 2420
3 2278 327 2321
3 2389 1397 2423
3 2256 513 2290
3 559 2403 2456
3 1137 1340 2374
3 2093 1384 2391
3 1918 1148 2524
3 1030 2236 2427
3 1867 1895 2513
3 2014 517 2387
3 2271 1457 2447
3 1143 2028 2353
3 1904 194 2432
3 1148 2475 2524
3 1574 1523 2436
3 2213 1083 2311
3 1997 358 2325
3 2139 246 2506
3 1370 1369 2386
3 1271 2059 2271
3 1034 2173 2463
3 1123 1412 2393
3 1578 1827 2515
3 2209 1320 2424
3 2079 1504 2210
3 1361 2168 2305
3 1491 1489 2403
3 238 1725 2226
3 1190 986 2334
3 1547 1545 2508
3 1891 1613 2469
3 1153 1885 2362
3 2208 1632 2382
3 2287 1281 2448
3 1356 1376 2421
3 1965 2349 2515
3 2155 1186 2422
3 1522 2014 2387
3 2158 1468 2323
3 2050 954 2333
3 1397 1809 2423
3 1362 1360 2376
3 1852 1985 2397
3 2069 1691 2446
3 789 2066 2425
3 1895 755 2513
3 1707 1154 2234
3 372 374 2430
3 2225 787 2518
3 2028 1206 2401
3 986 1063 2334
3 1912 726 2439
3 1340 1342 2400
3 1916 1145 2448
3 2236 1649 2427
3 2374 1340 2400
3 2222 1407 2290
3 2324 1152 2363
3 241 2220 2472
3 765 2190 2384
3 2375 667 2452
3 2330 1173 2406
3 1181 1972 2500
3 2126 1382 2388
3 1173 1012 2406
3 315 313 2495
3 1015 1373 2385
3 97 221 2526
3 1937 1397 2389
3 930 1061 2462
3 971 1096 2496
3 45 46 2485
3 669 791 2529
3 1104 2450 2521
3 382 378 2390
3 2191 1371 2536
3 2235 1036 2286
3 831 2209 2424
3 762 1997 2349
3 2379 1547 2508
3 2177 1359 2467
3 2403 1489 2456
3 796 785 2532
3 219 1902 2516
3 1519 2300 2480
3 1065 1655 2476
3 1375 1473 2505
3 1489 1490 2456
3 390 392 2431
3 2247 2013 2464
3 1135 1930 2369
3 2278 1583 2345
3 626 622 2452
3 631 2298 2312
3 2233 1348 2298
3 1398 1974 2499
3 1706 1681 2492
3 261 130 2444
3 32 260 2445
3 822 2099 2368
3 1365 1912 2439
3 941 940 2418
3 1446 2166 2504
3 2106 1121 2414
3 2300 1519 2449
3 1803 1104 2521
3 1732 1570 2476
3 1413 2051 2392
3 2122 1946 2396
3 2238 1868 2520
3 477 556 2483
3 2397 1985 2533
3 463 445 2411
3 2163 1185 2488
3 1126 2141 2319
3 1755 2264 2533
3 972 2204 2501
3 2230 1533 2340
3 1774 1773 2503
3 1997 2325 2349
3 1004 2069 2446
3 2159 31 2445
3 131 2160 2444
3 1371 2191 2451
3 1001 2154 2486
3 1682 2230 2340
3 2103 961 2383
3 1033 1151 2410
3 382 2390 2531
3 1504 2079 2520
3 1583 2278 2321
3 511 465 2429
3 250 2024 2479
3 2208 2088 2509
3 619 620 2484
3 1246 2208 2366
3 2141 1209 2319
3 1359 1413 2467
3 1295 1459 2458
3 2218 1435 2465
3 2281 1249 2511
3 2293 237 2354
3 2207 1398 2499
3 1564 2155 2422
3 552 469 2453
3 1947 224 2498
3 2062 1568 2490
3 2018 205 2416
3 260 2159 2445
3 2160 261 2444
3 2092 610 2468
3 194 2195 2432
3 1432 2213 2311
3 211 2251 2464
3 2378 856 2527
3 1536 1532 2534
3 2364 786 2497
3 2438 1438 2478
3 1185 1948 2488
3 2042 941 2418
3 1582 2321 2434
3 885 1891 2469
3 1364 2048 2455
3 1693 2225 2518
3 401 382 2531
3 1338 2247 2464
3 442 2238 2520
3 1292 2117 2428
3 2274 1350 2500
3 2066 2193 2425
3 2179 1184 2435
3 898 822 2368
3 2436 1863 2527
3 1844 1016 2478
3 2184 1001 2486
3 557 2207 2499
3 2013 211 2464
3 2254 250 2479
3 1350 1181 2500
3 2009 248 2470
3 246 2140 2506
3 1574 2436 2527
3 2139 1419 2517
3 316 1971 2514
3 1319 2122 2482
3 226 2006 2507
3 1400 2270 2481
3 1681 2287 2448
3 2325 1578 2349
3 232 1652 2487
3 1320 2214 2424
3 1632 2208 2509
3 248 2288 2470
3 1406 1141 2460
3 2188 1322 2434
3 2244 1980 2441
3 2088 1255 2509
3 1280 2109 2427
3 2060 2307 2405
3 2236 1034 2463
3 1745 2293 2354
3 2122 2396 2482
3 2109 1030 2427
3 2307 1563 2405
3 1429 2382 2459
3 224 2267 2498
3 682 2211 2447
3 2079 442 2520
3 2348 1287 2398
3 2220 1842 2472
3 1335 2249 2466
3 1249 2263 2511
3 443 2210 2519
3 2385 1373 2394
3 1594 2184 2486
3 2052 2239 2518
3 1568 2439 2490
3 2349 1578 2515
3 2344 468 2412
3 2270 1996 2481
3 1735 2244 2441
3 2260 1471 2477
3 2210 1504 2519
3 1434 2297 2450
3 2297 1419 2450
3 2263 1660 2502
3 2404 2009 2470
3 1718 2385 2394
3 1371 2194 2536
3 2317 444 2461
3 1443 2322 2525
3 1716 2375 2452
3 1863 2378 2527
3 2439 726 2490
3 1057 2328 2451
3 1638 2404 2470
3 1454 2234 2535
3 755 2320 2513
3 2234 1653 2535
3 2264 552 2533
3 1419 2297 2517
3 1392 2322 2510
3 552 2397 2533
3 1798 2364 2497
3 2322 1392 2525
3 2382 1631 2459
3 1016 2438 2478
3 1366 2370 2537
3 1742 2491 2530
3 2491 257 2530
CELL_TYPES 4886
5
5
5
5
5
5
5
5
5
5
5
5
5
5
5
5
5
5
5
5
5
5
5
5
5
5
5
5
5
5
5
5
5
5
5
5
5
5
5
5
5
5
5
5
5
5
5
5
5
5
5
5
5
5
5
5
5
5
5
5
5
5
5
5
5
5
5
5
5
5
5
5
5
5
5
5
5
5
5
5
5
5
5
5
5
5
5
5
5
5
5
5
5
5
5
5
5
5
5
5
5
5
5
5
5
5
5
5
5
5
5
5
5
5
5
5
5
5
5
5
5
5
5
5
5
5
5
5
5
5
5
5
5
5
5
5
5
5
5
5
5
5
5
5
5
5
5
5
5
5
5
5
5
5
5
5
5
5
5
5
5
5
5
5
5
5
5
5
5
5
5
5
5
5
5
5
5
5
5
5
5
5
5
5
5
5
5
5
5
5
5
5
5
5
5
5
5
5
5
5
5
5
5
5
5
5
5
5
5
5
5
5
5
5
5
5
5
5
5
5
5
5
5
5
5
5
5
5
5
5
5
5
5
5
5
5
5
5
5
5
5
5
5
5
5
5
5
5
5
5
5
5
5
5
5
5
5
5
5
5
5
5
5
5
5
5
5
5
5
5
5
5
5
5
5
5
5
5
5
5
5
5
5
5
5
5
5
5
5
5
5
5
5
5
5
5
5
5
5
5
5
5
5
5
5
5
5
5
5
5
5
5
5
5
5
5
5
5
5
5
5
5
5
5
5
5
5
5
5
5
5
5
5
5
5
5
5
5
5
5
5
5
5
5
5
5
5
5
5
5
5
5
5
5
5
5
5
5
5
5
5
5
5
5
5
5
5
5
5
5
5
5
5
5
5
5
5
5
5
5
5
5
5
5
5
5
5
5
5
5
5
5
5
5
5
5
5
5
5
5
5
5
5
5
5
5
5
5
5
5
5
5
5
5
5
5
5
5
5
5
5
5
5
5
5
5
5
5
5
5
5
5
5
5
5
5
5
5
5
5
5
5
5
5
5
5
5
5
5
5
5
5
5
5
5
5
5
5
5
5
5
5
5
5
5
5
5
5
5
5
5
5
5
5
5
5
5
5
5
5
5
5
5
5
5
5
5
5
5
5
5
5
5
5
5
5
5
5
5
5
5
5
5
5
5
5
5
5
5
5
5
5
5
5
5
5
5
5
5
5
5
5
5
5
5
5
5
5
5
5
5
5
5
5
5
5
5
5
5
5
5
5
5
5
5
5
5
5
5
5
5
5
5
5
5
5
5
5
5
5
5
5
5
5
5
5
5
5
5
5
5
5
5
5
5
5
5
5
5
5
5
5
5
5
5
5
5
5
5
5
5
5
5
5
5
5
5
5
5
5
5
5
5
5
5
5
5
5
5
5
5
5
5
5
5
5
5
5
5
5
5
5
5
5
5
5
5
5
5
5
5
5
5
5
5
5
5
5
5
5
5
5
5
5
5
5
5
5
5
5
5
5
5
5
5
5
5
5
5
5
5
5
5
5
5
5
5
5
5
5
5
5
5
5
5
5
5
5
5
5
5
5
5
5
5
5
5
5
5
5
5
5
5
5
5
5
5
5
5
5
5
5
5
5
5
5
5
5
5
5
5
5
5
5
5
5
5
5
5
5
5
5
5
5
5
5
5
5
5
5
5
5
5
5
5
5
5
5
5
5
5
5
5
5
5
5
5
5
5
5
5
5
5
5
5
5
5
5
5
5
5
5
5
5
5
5
5
5
5
5
5
5
5
5
5
5
5
5
5
5
5
5
5
5
5
5
5
5
5
5
5
5
5
5
5
5
5
5
5
5
5
5
5
5
5
5
5
5
5
5
5
5
5
5
5
5
5
5
5
5
5
5
5
5
5
5
5
5
5
5
5
5
5
5
5
5
5
5
5
5
5
5
5
5
5
5
5
5
5
5
5
5
5
5
5
5
5
5
5
5
5
5
5
5
5
5
5
5
5
5
5
5
5
5
5
5
5
5
5
5
5
5
5
5
5
5
5
5
5
5
5
5
5
5
5
5
5
5
5
5
5
5
5
5
5
5
5
5
5
5
5
5
5
5
5
5
5
5
5
5
5
5
5
5
5
5
5
5
5
5
5
5
5
5
5
5
5
5
5
5
5
5
5
5
5
5
5
5
5
5
5
5
5
5
5
5
5
5
5
5
5
5
5
5
5
5
5
5
5
5
5
5
5
5
5
5
5
5
5
5
5
5
5
5
5
5
5
5
5
5
5
5
5
5
5
5
5
5
5
5
5
5
5
5
5
5
5
5
5
5
5
5
5
5
5
5
5
5
5
5
5
5
5
5
5
5
5
5
5
5
5
5
5
5
5
5
5
5
5
5
5
5
5
5
5
5
5
5
5
5
5
5
5
5
5
5
5
5
5
5
5
5
5
5
5
5
5
5
5
5
5
5
5
5
5
5
5
5
5
5
5
5
5
5
5
5
5
5
5
5
5
5
5
5
5
5
5
5
5
5
5
5
5
5
5
5
5
5
5
5
5
5
5
5
5
5
5
5
5
5
5
5
5
5
5
5
5
5
5
5
5
5
5
5
5
5
5
5
5
5
5
5
5
5
5
5
5
5
5
5
5
5
5
5
5
5
5
5
5
5
5
5
5
5
5
5
5
5
5
5
5
5
5
5
5
5
5
5
5
5
5
5
5
5
5
5
5
5
5
5
5
5
5
5
5
5
5
5
5
5
5
5
5
5
5
5
5
5
5
5
5
5
5
5
5
5
5
5
5
5
5
5
5
5
5
5
5
5
5
5
5
5
5
5
5
5
5
5
5
5
5
5
5
5
5
5
5
5
5
5
5
5
5
5
5
5
5
5
5
5
5
5
5
5
5
5
5
5
5
5
5
5
5
5
5
5
5
5
5
5
5
5
5
5
5
5
5
5
5
5
5
5
5
5
5
5
5
5
5
5
5
5
5
5
5
5
5
5
5
5
5
5
5
5
5
5
5
5
5
5
5
5
5
5
5
5
5
5
5
5
5
5
5
5
5
5
5
5
5
5
5
5
5
5
5
5
5
5
5
5
5
5
5
5
5
5
5
5
5
5
5
5
5
5
5
5
5
5
5
5
5
5
5
5
5
5
5
5
5
5
5
5
5
5
5
5
5
5
5
5
5
5
5
5
5
5
5
5
5
5
5
5
5
5
5
5
5
5
5
5
5
5
5
5
5
5
5
5
5
5
5
5
5
5
5
5
5
5
5
5
5
5
5
5
5
5
5
5
5
5
5
5
5
5
5
5
5
5
5
5
5
5
5
5
5
5
5
5
5
5
5
5
5
5
5
5
5
5
5
5
5
5
5
5
5
5
5
5
5
5
5
5
5
5
5
5
5
5
5
5
5
5
5
5
5
5
5
5
5
5
5
5
5
5
5
5
5
5
5
5
5
5
5
5
5
5
5
5
5
5
5
5
5
5
5
5
5
5
5
5
5
5
5
5
5
5
5
5
5
5
5
5
5
5
5
5
5
5
5
5
5
5
5
5
5
5
5
5
5
5
5
5
5
5
5
5
5
5
5
5
5
5
5
5
5
5
5
5
5
5
5
5
5
5
5
5
5
5
5
5
5
5
5
5
5
5
5
5
5
5
5
5
5
5
5
5
5
5
5
5
5
5
5
5
5
5
5
5
5
5
5
5
5
5
5
5
5
5
5
5
5
5
5
5
5
5
5
5
5
5
5
5
5
5
5
5
5
5
5
5
5
5
5
5
5
5
5
5
5
5
5
5
5
5
5
5
5
5
5
5
5
5
5
5
5
5
5
5
5
5
5
5
5
5
5
5
5
5
5
5
5
5
5
5
5
5
5
5
5
5
5
5
5
5
5
5
5
5
5
5
5
5
5
5
5
5
5
5
5
5
5
5
5
5
5
5
5
5
5
5
5
5
5
5
5
5
5
5
5
5
5
5
5
5
5
5
5
5
5
5
5
5
5
5
5
5
5
5
5
5
5
5
5
5
5
5
5
5
5
5
5
5
5
5
5
5
5
5
5
5
5
5
5
5
5
5
5
5
5
5
5
5
5
5
5
5
5
5
5
5
5
5
5
5
5
5
5
5
5
5
5
5
5
5
5
5
5
5
5
5
5
5
5
5
5
5
5
5
5
5
5
5
5
5
5
5
5
5
5
5
5
5
5
5
5
5
5
5
5
5
5
5
5
5
5
5
5
5
5
5
5
5
5
5
5
5
5
5
5
5
5
5
5
5
5
5
5
5
5
5
5
5
5
5
5
5
5
5
5
5
5
5
5
5
5
5
5
5
5
5
5
5
5
5
5
5
5
5
5
5
5
5
5
5
5
5
5
5
5
5
5
5
5
5
5
5
5
5
5
5
5
5
5
5
5
5
5
5
5
5
5
5
5
5
5
5
5
5
5
5
5
5
5
5
5
5
5
5
5
5
5
5
5
5
5
5
5
5
5
5
5
5
5
5
5
5
5
5
5
5
5
5
5
5
5
5
5
5
5
5
5
5
5
5
5
5
5
5
5
5
5
5
5
5
5
5
5
5
5
5
5
5
5
5
5
5
5
5
5
5
5
5
5
5
5
5
5
5
5
5
5
5
5
5
5
5
5
5
5
5
5
5
5
5
5
5
5
5
5
5
5
5
5
5
5
5
5
5
5
5
5
5
5
5
5
5
5
5
5
5
5
5
5
5
5
5
5
5
5
5
5
5
5
5
5
5
5
5
5
5
5
5
5
5
5
5
5
5
5
5
5
5
5
5
5
5
5
5
5
5
5
5
5
5
5
5
5
5
5
5
5
5
5
5
5
5
5
5
5
5
5
5
5
5
5
5
5
5
5
5
5
5
5
5
5
5
5
5
5
5
5
5
5
5
5
5
5
5
5
5
5
5
5
5
5
5
5
5
5
5
5
5
5
5
5
5
5
5
5
5
5
5
5
5
5
5
5
5
5
5
5
5
5
5
5
5
5
5
5
5
5
5
5
5
5
5
5
5
5
5
5
5
5
5
5
5
5
5
5
5
5
5
5
5
5
5
5
5
5
5
5
5
5
5
5
5
5
5
5
5
5
5
5
5
5
5
5
5
5
5
5
5
5
5
5
5
5
5
5
5
5
5
5
5
5
5
5
5
5
5
5
5
5
5
5
5
5
5
5
5
5
5
5
5
5
5
5
5
5
5
5
5
5
5
5
5
5
5
5
5
5
5
5
5
5
5
5
5
5
5
5
5
5
5
5
5
5
5
5
5
5
5
5
5
5
5
5
5
5
5
5
5
5
5
5
5
5
5
5
5
5
5
5
5
5
5
5
5
5
5
5
5
5
5
5
5
5
5
5
5
5
5
5
5
5
5
5
5
5
5
5
5
5
5
5
5
5
5
5
5
5
5
5
5
5
5
5
5
5
5
5
5
5
5
5
5
5
5
5
5
5
5
5
5
5
5
5
5
5
5
5
5
5
5
5
5
5
5
5
5
5
5
5
5
5
5
5
5
5
5
5
5
5
5
5
5
5
5
5
5
5
5
5
5
5
5
5
5
5
5
5
5
5
5
5
5
5
5
5
5
5
5
5
5
5
5
5
5
5
5
5
5
5
5
5
5
5
5
5
5
5
5
5
5
5
5
5
5
5
5
5
5
5
5
5
5
5
5
5
5
5
5
5
5
5
5
5
5
5
5
5
5
5
5
5
5
5
5
5
5
5
5
5
5
5
5
5
5
5
5
5
5
5
5
5
5
5
5
5
5
5
5
5
5
5
5
5
5
5
5
5
5
5
5
5
5
5
5
5
5
5
5
5
5
5
5
5
5
5
5
5
5
5
5
5
5
5
5
5
5
5
5
5
5
5
5
5
5
5
5
5
5
5
5
5
5
5
5
5
5
5
5
5
5
5
5
5
5
5
5
5
5
5
5
5
5
5
5
5
5
5
5
5
5
5
5
5
5
5
5
5
5
5
5
5
5
5
5
5
5
5
5
5
5
5
5
5
5
5
5
5
5
5
5
5
5
5
5
5
5
5
5
5
5
5
5
5
5
5
5
5
5
5
5
5
5
5
5
5
5
5
5
5
5
5
5
5
5
5
5
5
5
5
5
5
5
5
5
5
5
5
5
5
5
5
5
5
5
5
5
5
5
5
5
5
5
5
5
5
5
5
5
5
5
5
5
5
5
5
5
5
5
5
5
5
5
5
5
5
5
5
5
5
5
5
5
5
5
5
5
5
5
5
5
5
5
5
5
5
5
5
5
5
5
5
5
5
5
5
5
5
5
5
5
5
5
5
5
5
5
5
5
5
5
5
5
5
5
5
5
5
5
5
5
5
5
5
5
5
5
5
5
5
5
5
5
5
5
5
5
5
5
5
5
5
5
5
5
5
5
5
5
5
5
5
5
5
5
5
5
5
5
5
5
5
5
5
5
5
5
5
5
5
5
5
5
5
5
5
5
5
5
5
5
5
5
5
5
5
5
5
5
5
5
5
5
5
5
5
5
5
5
5
5
5
5
5
5
5
5
5
5
5
5
5
5
5
5
5
5
5
5
5
5
5
5
5
5
5
5
5
5
5
5
5
5
5
5
5
5
5
5
5
5
5
5
5
5
5
5
5
5
5
5
5
5
5
5
5
5
5
5
5
5
5
5
5
5
5
5
5
5
5
5
5
5
5
5
5
5
5
5
5
5
5
5
5
5
5
5
5
5
5
5
5
5
5
5
5
5
5
5
5
5
5
5
5
5
5
5
5
5
5
5
5
5
5
5
5
5
5
5
5
5
5
5
5
5
5
5
5
5
5
5
5
5
5
5
5
5
5
5
5
5
5
5
5
5
5
5
5
5
5
5
5
5
5
5
5
5
5
5
5
5
5
5
5
5
5
5
5
5
5
5
5
5
5
5
5
5
5
5
5
5
5
5
5
5
5
5
5
5
5
5
5
5
5
5
5
5
5
5
5
5
5
5
5
5
5
5
5
5
5
5
5
5
5
5
5
5
5
5
5
5
5
5
5
5
5
5
5
5
5
5
5
5
5
5
5
5
5
5
5
5
5
5
5
5
5
5
5
5
5
5
5
5
5
5
5
5
5
5
5
5
5
5
5
5
5
5
5
5
5
5
5
5
5
5
5
5
5
5
5
5
5
5
5
5
5
5
5
5
5
5
5
5
5
5
5
5
5
5
5
5
5
5
5
5
5
5
5
5
5
5
5
5
5
5
5
5
5
5
5
5
5
5
5
5
5
5
5
5
5
5
5
5
5
5
5
5
5
5
5
5
5
5
5
5
5
5
5
5
5
5
5
5
5
5
5
5
5
5
5
5
5
5
5
5
5
5
5
5
5
5
5
5
5
5
5
5
5
5
5
5
5
5
5
5
5
5
5
5
5
5
5
5
5
5
5
5
5
5
5
5
5
5
5
5
5
5
5
5
5
5
5
5
5
5
5
5
5
5
5
5
5
5
5
5
5
5
5
5
5
5
5
5
5
5
5
5
5
5
5
5
5
5
5
5
5
5
5
5
5
5
5
5
5
5
5
5
5
5
5
5
5
5
5
5
5
5
5
5
5
5
5
5
5
5
5
5
5
5
5
5
5
5
5
5
5
5
5
5
5
5
5
5
5
5
5
5
5
5
5
5
5
5
5
5
5
5
5
5
5
5
5
5
5
5
5
5
5
5
5
5
5
5
5
5
5
5
5
5
5
5
5
5
5
5
5
5
5
5
5
5
5
5
5
5
5
5
5
5
5
5
5
5
5
5
5
5
5
5
5
5
5
5
5
5
5
5
5
5
5
5
5
5
5
5
5
5
5
5
5
5
5
5
5
5
5
5
5
5
5
5
5
5
5
5
5
5
5
5
5
5
5
5
5
5
5
5
5
5
5
5
5
5
5
5
5
5
5
5
5
5
5
5
5
5
5
5
5
5
5
5
5
5
5
5
5
5
5
5
5
5
5
5
5
5
5
5
5
5
5
5
5
5
5
5
5
5
5
5
5
5
5
5
5
5
5
5
5
5
5
5
5
5
5
5
5
5
5
5
5
5
5
5
5
5
5
5
5
5
5
5
5
5
5
5
5
5
5
5
5
5
5
5
5
5
5
5
5
5
5
5
5
5
5
5
5
5
5
5
5
5
5
5
5
5
5
5
5
5
5
5
5
5
5
5
5
5
5
5
5
5
5
5
5
5
5
5
5
5
5
5
5
5
5
5
5
5
5
5
5
5
5
5
5
5
5
5
5
5
5
5
5
5
5
5
5
5
5
5
5
5
5
5
5
5
5
5
5
5
5
5
5
5
5
5
5
5
5
5
5
5
5
5
5
5
5
5
5
5
5
5
5
5
5
5
5
5
5
5
5
5
5
5
5
5
5
5
5
5
5
5
5
5
5
5
5
5
5
5
5
5
5
5
5
5
5
5
5
5
5
5
5
5
5
5
5
5
5
5
5
5
5
5
5
5
5
5
5
5
5
5
5
5
5
5
5
5
5
5
5
5
5
5
5
5
5
5
5
5
5
5
5
5
5
5
5
5
5
5
5
5
5
5
5
5
5
5
5
5
5
5
5
5
5
5
5
5
5
5
5
5
5
5
5
5
5
5
5
5
5
5
5
5
5
5
5
5
5
5
5
5
5
5
5
5
5
5
5
5
5
5
5
5
5
5
5
5
5
5
5
5
5
5
5
5
5
5
5
5
5
5
5
5
5
5
5
5
5
5
5
5
5
5
5
5
5
5
5
5
5
5
5
5
5
5
5
5
5
5
5
5
5
5
5
5
5
5
5
5
5
5
5
5
5
5
5
5
5
5
5
5
5
5
5
5
5
5
5
5
5
5
5
5
5
5
5
5
5
5
5
5
5
5
5
5
5
5
5
5
5
5
5
5
5
5
5
5
5
5
5
5
5
5
5
5
5
5
5
5
5
5
5
5
5
5
5
5
5
5
5
5
5
5
5
5
5
5
5
5
5
5
5
5
5
5
5
5
5
5
5
5
5
5
5
5
5
5
5
5
5
5
5
5
5
5
5
5
5
5
5
5
5
5
5
5
5
5
5
5
5
5
5
5
5
5
5
5
5
5
5
5
5
5
5
5
5
5
5
5
5
5
5
5
5
5
5
5
5
5
5
5
5
5
5
5
5
5
5
5
5
5
5
5
5
5
5
5
5
5
5
5
5
5
5
5
5
5
5
5
5
5
5
5
5
5
5
5
5
5
5
5
5
5
5
5
5
5
5
5
5
5
5
5
5
5
5
5
5
5
5
5
5
5
5
5
5
5
5
5
5
5
5
5
5
5
5
5
5
5
5
5
5
5
5
5
5
5
5
5
5
5
5
5
5
5
5
5
5
5
5
5
5
5
5
5
5
5
5
5
5
5
5
5
5
5
5
5
5
5
5
5
5
5
5
5
5
5
5
5
5
5
5
5
5
5
5
5
5
5
5
5
5
5
5
5
5
5
5
5
5
5
5
5
5
5
5
5
5
5
5
5
5
5
5
5
5
5
5
5
5
5
5
5
5
5
5
5
5
5
5
5
5
5
5
5
5
5
5
5
5
5
5
5
5
5
5
5
5
5
5
5
5
5
5
5
5
5
5
5
5
5
5
5
5
5
5
5
5
5
5
5
5
5
5
5
5
5
5
5
5
5
5
5
5
5
5
5
5
5
5
5
5
5
5
5
5
5
5
5
5
5
5
5
5
5
5
5
5
5
5
5
5
5
5
5
5
5
5
5
5
5
5
5
5
5
5
5
5
5
5
5
5
5
5
5
5
5
5
5
5
5
5
5
5
5
5
5
5
5
5
5
5
5
5
5
5
5
5
5
5
5
5
5
5
5
5
5
5
5
5
5
5
5
5
5
5
5
5
5
5
5
5
5
5
5
5
5
5
5
5
5
5
5
5
5
5
5
5
5
5
5
5
5
5
5
5
5
5
5
5
5
5
5
5
5
5
5
5
5
5
5
5
5
5
5
5
5
5
5
5
5
5
5
5
5
5
5
5
5
5
5
5
5
5
5
5
5
5
5
5
5
5
5
5
5
5
5
5
5
5
5
5
5
5
5
5
5
5
5
5
5
5
5
5
5
5
5
5
5
5
5
5
5
5
5
5
5
5
5
5
5
5
5
5
5
5
5
5
5
5
5
5
5
5
5
5
5
5
5
5
5
5
5
5
5
5
5
5
5
5
5
5
5
5
5
5
5
5
5
5
5
5
5
5
5
5
5
5
5
5
5
5
5
5
5
5
5
5
5
5
5
5
5
5
5
5
5
5
5
5
5
5
5
5
5
5
5
5
5
5
5
5
5
5
5
5
5
5
5
5
5
5
5
5
5
5
5
5
5
5
5
5
5
5
5
5
5
5
5
5
5
5
5
5
5
5
5
5
5
5
5
5
5
5
5
5
5
5
5
5
5
5
5
5
5
5
5
5
5
5
5
5
5
5
5
5
5
5
5
5
5
5
5
5
5
5
5
5
5
5
5
5
5
5
5
5
5
5
5
5
5
5
5
5
5
5
5
5
5
5
5
5
5
5
5
5
5
5
5
5
5
5
5
5
5
5
5
5
5
5
5
5
5
5
5
5
5
5
5
5
5
5
5
5
5
5
5
5
5
5
5
5
5
5
5
5
5
5
5
5
5
5
5
5
5
5
5
5
5
5
5
5
5
5
5
5
5
5
5
5
5
5
5
5
5
5
5
5
5
5
5
5
5
5
5
5
5
5
5
5
5
5
5
5
5
5
5
5
5
5
5
5
5
5
5
5
5
5
5
5
5
5
5
5
5
5
5
5
5
5
5
5
5
5
5
5
5
5
5
5
5
5
5
5
5
5
5
5
5
5
5
5
5
5
5
5
5
5
5
5
5
5
5
5
5
5
5
5
5
5
5
5
5
5
5
5
5
5
5
5
5
5
5
5
5
5
5
5
5
5
5
5
5
5
5
5
5
5
5
5
5
5
5
5
5
5
5
5
5
5
5
5
5
5
5
5
5
5
5
5
5
5
5
5
5
5
5
5
5
5
5
5
5
5
5
5
5
5
5
5
5
5
5
POINT_DATA 2538
VECTORS disp float
8.063469854909479e-13 7.138236606608616e-13 0.0
7.556043193463746e-13 -7.315523353282694e-13 0.0
0.00019999999982007988 2.670470565007391e-13 0.0
0.00019999999748772308 -2.4070716313181855e-12 0.0
9.722639391716838e-5 3.235764567881135e-5 0.0
0.00014940891155414523 6.142696593073021e-6 0.0
0.0001305373359493967 -3.923317234555765e-6 0.0
-1.0587976133085504e-13 -3.2901180067811423e-14 0.0
2.8698221165212116e-14 1.0656202173964821e-13 0.0
5.369845268727838e-14 -7.016595145607156e-14 0.0
4.832267605058907e-14 -1.1952174869803476e-14 0.0
5.848097312611646e-15 -3.677836807480904e-14 0.0
8.202164904200694e-15 -8.944840982688222e-14 0.0
6.9699076916105796e-15 -1.4936726398543383e-13 0.0
1.3442991630706778e-14 -1.7083909097882478e-13 0.0
-5.473495368585258e-15 -1.5748907596227855e-13 0.0
6.892024879671314e-15 -1.2737164120883715e-13 0.0
-4.208331416974374e-15 -1.1227731001572142e-13 0.0
-1.0769817590731474e-14 -1.1012017647078366e-13 0.0
-1.1012618000644434e-14 -1.0408397040199568e-13 0.0
-2.192433533455185e-14 -7.658370775389958e-14 0.0
-1.9895348987933578e-14 -7.677731120144823e-14 0.0
-3.240413607162989e-14 -6.761371385854497e-14 0.0
-3.791275232583181e-14 -8.77308923616367e-14 0.0
-2.722338104840766e-14 -1.1329626230782121e-13 0.0
-3.1890459501108633e-14 -1.2519802270849072e-13 0.0
-2.2253538105519108e-14 -1.367918975316811e-13 0.0
4.4605953753787305e-15 -1.368600467323878e-13 0.0
2.4276819169627735e-14 -1.3152931069410635e-13 0.0
2.141523425121235e-14 -1.414340200729994e-13 0.0
1.2380903224432504e-13 -1.4161299606255127e-13 0.0
-9.598345781382146e-14 -3.3561452009489026e-14 0.0
2.686790956053546e-6 -1.193539404652979e-6 0.0
4.214167171297165e-6 -2.0920935000036117e-6 0.0
5.665629170039784e-6 -2.8828481037879874e-6 0.0
6.993707850170094e-6 -3.677000689182217e-6 0.0
8.208793601028112e-6 -4.477361261430429e-6 0.0
9.381635133843573e-6 -5.313645690470492e-6 0.0
1.0558058999567594e-5 -6.155707407669146e-6 0.0
1.1712325249719673e-5 -7.0166318042014046e-6 0.0
1.2873796926227344e-5 -7.901423056515183e-6 0.0
1.4044567548519296e-5 -8.789551294276648e-6 0.0
1.5235697078068358e-5 -9.699886891413527e-6 0.0
1.6456043273041627e-5 -1.0620480339825085e-5 0.0
1.7692791833712324e-5 -1.1549088904550157e-5 0.0
1.8979240049548533e-5 -1.2506191957002706e-5 0.0
2.0307807859564642e-5 -1.347784214546377e-5 0.0
2.165747214455876e-5 -1.44546669201356e-5 0.0
2.305963383502663e-5 -1.5433003411701138e-5 0.0
2.4500566605060755e-5 -1.6401812887636917e-5 0.0
2.599281510144941e-5 -1.7388307085079323e-5 0.0
2.7554436397128887e-5 -1.83896081097022e-5 0.0
2.9176793066326247e-5 -1.9398284802428592e-5 0.0
3.085732085930892e-5 -2.0420719697373567e-5 0.0
3.260967401071959e-5 -2.1470642853208514e-5 0.0
3.443329584176788e-5 -2.2517872673871298e-5 0.0
3.636016647901099e-5 -2.3585921926951154e-5 0.0
3.8351392888579376e-5 -2.4649324630541474e-5 0.0
4.0427777817067886e-5 -2.57258120337699e-5 0.0
4.2624959794125e-5 -2.6801465621153233e-5 0.0
4.4943820392727256e-5 -2.7931023641207123e-5 0.0
4.7354656736697e-5 -2.9043385943066686e-5 0.0
4.9923106296801334e-5 -3.0161054301854955e-5 0.0
5.258703779525158e-5 -3.1260407832743314e-5 0.0
5.5419569936928665e-5 -3.236721649781532e-5 0.0
5.8453034138780294e-5 -3.345702608226165e-5 0.0
6.166225771930008e-5 -3.4554190582295694e-5 0.0
6.501030165884438e-5 -3.560007184277169e-5 0.0
6.859294103647804e-5 -3.656294824848668e-5 0.0
7.239507690951077e-5 -3.741725743704018e-5 0.0
7.640377003182406e-5 -3.814162597247795e-5 0.0
8.06297065860499e-5 -3.8764813858339286e-5 0.0
8.501159591331825e-5 -3.919211478386479e-5 0.0
8.958237719183771e-5 -3.9469447634496274e-5 0.0
9.430402286136015e-5 -3.946867691999762e-5 0.0
9.908161394473248e-5 -3.928080787011441e-5 0.0
0.00010387463393870386 -3.881227213429029e-5 0.0
0.00010851962551225279 -3.8126869482317905e-5 0.0
0.00011291617014703696 -3.725981933845518e-5 0.0
0.00011683312771926455 -3.6293217237703296e-5 0.0
0.00011996886021866301 -3.549308761968846e-5 0.0
0.00012221347928775754 -3.506796589865068e-5 0.0
0.00012412990555782635 -3.4529739140737366e-5 0.0
0.00012603572489448454 -3.360538008270405e-5 0.0
0.00012788613083445217 -3.260944405597122e-5 0.0
0.00012974173150316452 -3.171303326766729e-5 0.0
0.00013152733569789753 -3.094211430039006e-5 0.0
0.0001332649064002134 -3.029860962403278e-5 0.0
0.00013499480333630567 -2.9735490065648302e-5 0.0
0.00013668001842382087 -2.929111715490954e-5 0.0
0.00013833038146790646 -2.8921258329633326e-5 0.0
0.00013996690175360754 -2.862146730693411e-5 0.0
0.0001415845393815203 -2.8380839389704102e-5 0.0
0.00014317795818154146 -2.818783093397418e-5 0.0
0.00014474375529202653 -2.8033835892103826e-5 0.0
0.0001462933049154312 -2.7907149957888662e-5 0.0
0.00014782669725480713 -2.779722345361079e-5 0.0
0.00014933728555430872 -2.7710972179933972e-5 0.0
0.0001508164801069669 -2.7624462275269813e-5 0.0
0.00015226843195780384 -2.7537672261753444e-5 0.0
0.000153704866085156 -2.7441968276596747e-5 0.0
0.00015512487965755773 -2.7339572969792028e-5 0.0
0.0001565112842334618 -2.722399541109913e-5 0.0
0.0001578862390387644 -2.708588967752654e-5 0.0
0.00015921818754920602 -2.6927770642825085e-5 0.0
0.00016051713634349774 -2.674216952139786e-5 0.0
0.00016180072668623216 -2.6515819940252155e-5 0.0
0.00016303528679019133 -2.6251397111585328e-5 0.0
0.00016425806086026894 -2.5955697700666794e-5 0.0
0.00016545097681142416 -2.5629032241226265e-5 0.0
0.000166631000854198 -2.527797165745123e-5 0.0
0.0001677659698640406 -2.485442763088802e-5 0.0
0.0001688976902328863 -2.4404494290137296e-5 0.0
0.00016999428725951484 -2.3917176254278227e-5 0.0
0.00017108608351265337 -2.3397591240080748e-5 0.0
0.0001721773144673016 -2.28359908880615e-5 0.0
0.0001732464938742289 -2.2233028277079936e-5 0.0
0.0001743096527170018 -2.1595717364522317e-5 0.0
0.00017538429819636642 -2.09044080059109e-5 0.0
0.0001764458878139891 -2.0175811772809918e-5 0.0
0.00017753819050409149 -1.9406322478784477e-5 0.0
0.00017866554053995784 -1.8585246035854707e-5 0.0
0.00017980666906897995 -1.7698735221230318e-5 0.0
0.0001809436532108116 -1.674991016117145e-5 0.0
0.00018214139500207015 -1.577618118928369e-5 0.0
0.0001833985579423422 -1.4764878366556365e-5 0.0
0.00018481927513475197 -1.364703756706482e-5 0.0
0.00018650428040780073 -1.2217410314737928e-5 0.0
0.0001885642258536756 -1.0291059600058792e-5 0.0
0.00019130079075545026 -7.927691385404544e-6 0.0
0.00019464665857111017 -4.577499699009162e-6 0.0
0.00020000000032636175 2.9005700781406926e-13 0.0
0.00019999999958383733 -4.4389270074090693e-13 0.0
0.00019999999984528395 -1.3887813331424602e-13 0.0
0.00019999999976904096 -1.7987883999888423e-13 0.0
0.0001999999998353004 -1.441229283901154e-13 0.0
0.00019999999985330133 -1.1223048266794236e-13 0.0
0.00019999999987944142 -9.179709853827832e-14 0.0
0.00019999999990885767 -6.605444814955093e-14 0.0
0.00019999999992639886 -3.412629319417114e-14 0.0
0.00019999999994449878 1.162280994031682e-14 0.0
0.000199999999959234 4.540596884478357e-14 0.0
0.0001999999999568851 1.0676517862020386e-13 0.0
0.00019999999996357285 1.3687255740277992e-13 0.0
0.0001999999999667702 1.638816143939118e-13 0.0
0.00019999999997372236 1.7021556872711462e-13 0.0
0.00019999999998065356 1.6907651226100733e-13 0.0
0.0001999999999902104 1.4943722984485469e-13 0.0
0.0001999999999842725 1.4237569851622765e-13 0.0
0.00020000000001631563 1.0879529444193004e-13 0.0
0.00019999999999196412 8.984925012128957e-14 0.0
0.00020000000000177623 6.2376451937155e-14 0.0
0.00020000000000807593 4.3054553206128355e-14 0.0
0.00020000000000902233 5.3060080073254546e-14 0.0
0.00019999999999810772 4.240469309844177e-14 0.0
0.0002000000000656415 -1.3940005042640158e-13 0.0
0.00018643131388376856 5.047178127897883e-6 0.0
0.00017425430743271296 7.097226382717434e-6 0.0
0.00016219356930678063 7.26746806593025e-6 0.0
0.00015432978650938703 6.584545412475416e-6 0.0
0.00015045915210630322 2.518005627805158e-6 0.0
0.00015060797576512468 4.09254635521361e-7 0.0
0.00015038327383343564 -1.4163907937899722e-6 0.0
0.00014978635004617255 -2.6994841261172382e-6 0.0
0.00014881577418883072 -3.4821925770676813e-6 0.0
0.00014767788970065552 -3.850452701426799e-6 0.0
0.00014636741711417475 -3.784867838775941e-6 0.0
0.00014513486680159648 -2.870729823334924e-6 0.0
0.00014337779480292866 -2.070206907912384e-6 0.0
0.00014139706763305348 -1.7975406481964771e-6 0.0
0.00013913232161168765 -1.214376447258138e-6 0.0
0.0001356293849063473 -2.1068196485133325e-6 0.0
0.0001254020779308826 -2.9743562468926242e-6 0.0
0.00012120693739559775 -2.2143792584070555e-6 0.0
0.00011712418383163051 -1.6658797962469647e-6 0.0
0.00011321138840712787 -9.261756198368892e-7 0.0
0.00010929694685241919 -1.9492573634623467e-7 0.0
0.0001057276007257784 5.73132540558378e-7 0.0
0.00010231608791447624 1.2574582786827698e-6 0.0
9.940071340583529e-5 1.6097857739241974e-6 0.0
9.725476712357286e-5 2.16273734830105e-6 0.0
9.604367593454862e-5 3.1294397212096356e-6 0.0
9.622524638845992e-5 5.7029001891993075e-6 0.0
9.677195226020821e-5 1.5348593230031866e-5 0.0
7.381573602921441e-5 3.611282728100303e-5 0.0
4.8862072736930087e-5 3.3098940804083334e-5 0.0
3.2126419991829215e-5 2.6321654730307707e-5 0.0
1.930179739257292e-5 1.5707434661597094e-5 0.0
4.4797501691397164e-5 -2.6021408139430385e-5 0.0
0.0001560562726697897 -2.5861706652115155e-5 0.0
6.573880114055694e-5 -3.2958717583225105e-5 0.0
0.00014568035731150908 -2.670954264967694e-5 0.0
9.702529011584919e-5 -3.552705189350671e-5 0.0
0.00013441118665802698 -2.8534244480472462e-5 0.0
0.00012129082665510401 -3.294009242045168e-5 0.0
0.00016409129984507216 -2.4868682143168807e-5 0.0
3.2705350085260876e-5 -2.05409554136026e-5 0.0
0.00016974750821309757 -2.2997721236916026e-5 0.0
2.4477189244560245e-5 -1.5796532361696087e-5 0.0
1.0200669509630269e-6 -2.5885030293823616e-7 0.0
0.00019801276280506918 2.6118308131255904e-7 0.0
0.00013712230690127023 -3.8258874633816434e-7 0.0
0.00014355188485897863 -1.1813180584461755e-6 0.0
0.00012193193463678442 -1.4689699460086083e-6 0.0
0.00010953728888166711 1.869758163609471e-6 0.0
0.00017539179093370764 -2.0170986540673513e-5 0.0
1.7887013789653e-5 -1.1394941426863125e-5 0.0
8.062102516884233e-7 -2.410034561640745e-7 0.0
0.00019874921149658833 -1.4892406064407654e-7 0.0
0.00019695171398849203 3.858998290063632e-7 0.0
1.8101510301837906e-6 -3.502874606923027e-7 0.0
0.00017996362767028743 -1.694257910867248e-5 0.0
1.2800203633469708e-5 -7.608830701602069e-6 0.0
0.00014847550401643885 -2.5856437118529047e-6 0.0
9.960658661515727e-5 3.2068235300833675e-6 0.0
8.572486134538525e-7 -3.1579298095990767e-7 0.0
0.0001989109648996524 -3.5521097384021465e-7 0.0
8.278927264091594e-5 -3.530405458197251e-5 0.0
0.00011122452320717049 -3.420367310163171e-5 0.0
0.00014096125477083848 -2.7160090824576563e-5 0.0
0.00012795503776201754 -3.123727053046893e-5 0.0
0.0001502290637455622 -2.6367419517936578e-5 0.0
0.00015992934804621084 -2.563273127023588e-5 0.0
5.6483154845222644e-5 -3.044924979565468e-5 0.0
3.851873364575343e-5 -2.3525886175552494e-5 0.0
0.00018345352291012368 -1.4084120543662467e-5 0.0
9.33373046138899e-6 -5.052175840579115e-6 0.0
0.00019603537927946163 3.037097772315083e-7 0.0
2.6882560753664906e-6 1.916590817264287e-7 0.0
0.00019892188695817272 -4.105152540261986e-7 0.0
1.2069822089067059e-6 -3.5667386023060583e-7 0.0
0.0001511720215034978 -1.4930047386633369e-6 0.0
9.449986889837613e-5 3.475107444430674e-6 0.0
0.00019390025013637862 3.2625281457561764e-7 0.0
4.381688868631555e-6 4.806437912795395e-7 0.0
8.326843663228368e-7 -2.729873005698709e-7 0.0
0.00019840492955631648 8.067229020027553e-8 0.0
0.0001400049509542891 7.016694522084143e-8 0.0
0.00011653592720350708 2.9089857128359346e-7 0.0
5.6188635569219005e-6 -2.4724565772693878e-6 0.0
0.000189455815419311 -8.920207083422444e-6 0.0
0.00015306946909719455 -2.6284941449037812e-5 0.0
0.0001312660459973959 -2.9786783464101594e-5 0.0
7.436210655779995e-5 -3.439672234634655e-5 0.0
5.03009799190803e-5 -2.8511891657471655e-5 0.0
0.00013781435499571993 -2.766010068198323e-5 0.0
0.0001663253142742376 -2.4286475061058133e-5 0.0
2.923312104685177e-5 -1.858510711114428e-5 0.0
0.0001720875301016721 -2.200229411238886e-5 0.0
2.142212461103319e-5 -1.3796846986973275e-5 0.0
1.5161582636232095e-5 -9.379622254562594e-6 0.0
0.00017762647492954408 -1.8642939134675783e-5 0.0
3.784202158726036e-5 1.3960316814534148e-5 0.0
0.00016758252269508827 1.417227483891384e-6 0.0
0.00019890042017028697 -4.654385685552082e-7 0.0
1.2820629998479847e-6 -3.1699526087305184e-7 0.0
8.877836653636121e-5 9.036955832419029e-6 0.0
0.00015219575001883753 1.2880982645481202e-6 0.0
4.827419058581484e-6 1.724660511352232e-6 0.0
0.0001928876013481595 1.8255617532357792e-7 0.0
2.7408172481556846e-6 -9.236727967624929e-7 0.0
0.00019590756721894902 -3.0047383189544677e-6 0.0
0.0001578979324283343 2.337267390633769e-6 0.0
0.0001612381847433978 1.2939903268089881e-6 0.0
0.00017301507669275254 9.987985785550507e-7 0.0
0.00016668908078241632 8.706232818279042e-7 0.0
0.00015826067706886627 5.707300001319651e-7 0.0
0.00016172981215926936 7.016612962219199e-7 0.0
0.00017008888454614706 8.568425337857535e-7 0.0
0.00016525970924548644 8.872333638175026e-7 0.0
0.00017325955786109967 8.876497897236675e-7 0.0
0.0001686554019702447 1.1425095290345194e-6 0.0
0.0001616309800835284 1.1506292866058913e-6 0.0
0.00016455501205558628 1.3776200264763063e-6 0.0
0.00015898666846352527 1.392338662696785e-6 0.0
0.00016119553950331745 1.6198831290615162e-6 0.0
0.00015651957413678115 1.6133163808801663e-6 0.0
0.00015837377210784788 1.7599060481218764e-6 0.0
0.00013531306035785085 -3.428602452087565e-6 0.0
0.0001304695758929398 -4.169820174179943e-6 0.0
0.00013434484081753466 -3.7713290350770044e-6 0.0
0.00013021168082269854 -4.241697972045429e-6 0.0
0.00013358149944866913 -3.799790191301738e-6 0.0
0.0001299206766725489 -4.077274458647397e-6 0.0
0.00013296890483622864 -3.7070453402037e-6 0.0
0.00012953828925507525 -3.948020318524981e-6 0.0
0.00013240075771036328 -3.54684949170109e-6 0.0
0.00012912353844832854 -3.7246820472023027e-6 0.0
0.0001318826539536003 -3.3261114017640826e-6 0.0
0.0001287175754975793 -3.469751246364521e-6 0.0
0.0001314054514950879 -3.149351180356618e-6 0.0
0.0001284325186746029 -3.2394750214775296e-6 0.0
0.00013097345639556478 -2.9468583548250686e-6 0.0
0.00012804579127883827 -3.0351550905174907e-6 0.0
0.00013055431341402234 -2.788747123626895e-6 0.0
0.00012757248264076446 -2.8914189894062642e-6 0.0
0.00013014050331673012 -2.6666149852012123e-6 0.0
0.0001272012716724917 -2.7485198508830715e-6 0.0
0.00012975615052431024 -2.5581860810831737e-6 0.0
0.00012685805558611949 -2.635246540483111e-6 0.0
0.00012931288003649092 -2.477168638304421e-6 0.0
0.0001265073578996286 -2.5703019735292186e-6 0.0
0.00012894602607983635 -2.450158108769971e-6 0.0
0.00012623811693851929 -2.542770429718853e-6 0.0
0.00012860879532211922 -2.4350170194975908e-6 0.0
0.0001257871571012756 -2.5483356681511645e-6 0.0
0.000128250799309524 -2.4569841422553574e-6 0.0
0.00012473119107448669 -2.6145115686210104e-6 0.0
0.00012805288234241528 -2.5327037744198105e-6 0.0
0.00012513791826762035 -2.652642729124387e-6 0.0
0.00012771332070963523 -2.6175579050487673e-6 0.0
0.00012495436841264364 -2.7705319325584643e-6 0.0
0.0001274221576917442 -2.7574794483292526e-6 0.0
0.00012486914018277733 -2.912994058079688e-6 0.0
0.00012712980575355648 -2.9082287688189162e-6 0.0
0.00012464134250285254 -3.075121815259276e-6 0.0
0.00012427951766960443 -3.955834657909424e-6 0.0
0.00012684525544522362 -3.097132366180228e-6 0.0
0.00012345359725056962 -2.900189863627704e-6 0.0
0.00012132427934720622 -2.7203567121280357e-6 0.0
0.00012421531043637133 -3.2907459921413487e-6 0.0
0.00012655321129549115 -3.3326484436045953e-6 0.0
0.00012380209680413847 -3.546593332822012e-6 0.0
0.00012104846205556325 -3.4579552482465887e-6 0.0
0.0001205572965506138 -3.736989021890905e-6 0.0
0.00012616888039874283 -3.6135399221751266e-6 0.0
0.00012857016340200912 -3.3751211067798702e-6 0.0
0.00012990384240419147 -2.463405603187463e-6 0.0
0.00012822903884452427 -3.68209928919333e-6 0.0
0.00013049830565364334 -3.400031916547116e-6 0.0
0.00013010657787702613 -3.761006101142881e-6 0.0
0.00011741823686805741 -3.619530075387815e-6 0.0
0.0001170363201300411 -3.901171123635314e-6 0.0
0.0001322583343214665 -3.4498243148261454e-6 0.0
0.00011318072982770155 -3.7613146905741202e-6 0.0
0.0001130186637028964 -4.0614338628478385e-6 0.0
0.00013193143939989465 -3.837898600038259e-6 0.0
0.0001338845957053586 -3.540131585672716e-6 0.0
0.00010847437745702427 -3.899944713247145e-6 0.0
0.00010820603522534547 -4.2094922784796615e-6 0.0
0.00013362576852983223 -3.95062971471328e-6 0.0
0.0001355386760435239 -3.632538855406547e-6 0.0
0.0001033357159453864 -4.0294864769683905e-6 0.0
0.00010294982876739928 -4.3870806219043565e-6 0.0
0.00013529176638223898 -4.091830784862771e-6 0.0
0.00013719168905984737 -3.742699871420822e-6 0.0
9.789190184280759e-5 -4.1593705057550405e-6 0.0
9.707384249787535e-5 -4.5407126119467945e-6 0.0
0.00013698364310048178 -4.2439773870096746e-6 0.0
0.0001388461352935719 -3.873411640636891e-6 0.0
9.163830926807467e-5 -4.298812998804793e-6 0.0
9.089835858438168e-5 -4.703615171426781e-6 0.0
8.492766551560781e-5 -4.4640456312311155e-6 0.0
8.570472923438225e-5 -4.044811238831704e-6 0.0
0.00013490365445586956 -4.582434680687587e-6 0.0
0.00013864337890837268 -4.433315869326529e-6 0.0
0.0001405181911026084 -4.032749577869945e-6 0.0
0.00014074629236376191 -3.4666346083666617e-6 0.0
0.0001314719599658022 -2.370159153361108e-6 0.0
0.0001424740291582972 -3.607016524820342e-6 0.0
0.000142713591370458 -3.0342503056532834e-6 0.0
0.00014449621261523166 -3.1445624268704324e-6 0.0
8.465582203080825e-5 -4.895979625757002e-6 0.0
7.825455810091889e-5 -4.604465867223655e-6 0.0
9.053963673709921e-5 -5.1446999605935455e-6 0.0
0.00014027504483650526 -4.666742382983772e-6 0.0
7.80775908289646e-5 -5.033923872785518e-6 0.0
7.193919708959093e-5 -4.706147934272227e-6 0.0
0.00013329882215944996 -2.794986675835234e-6 0.0
7.177475021740379e-5 -5.116747075261273e-6 0.0
6.606851136032945e-5 -4.769140604189122e-6 0.0
6.595097830633663e-5 -5.1838714356658495e-6 0.0
6.072038147698959e-5 -4.789849400498326e-6 0.0
6.069166035406026e-5 -4.415935904279489e-6 0.0
5.5673005404361875e-5 -4.437071142667836e-6 0.0
5.570338476847548e-5 -4.049697973681933e-6 0.0
6.004063610407759e-5 -5.181103650350367e-6 0.0
5.0708205285243316e-5 -4.070460604955791e-6 0.0
5.0704610926090364e-5 -3.667883682603713e-6 0.0
6.588725016102804e-5 -5.626134239055354e-6 0.0
6.0857526070525416e-5 -5.661411865014112e-6 0.0
4.6203332777338595e-5 -3.6666024944361594e-6 0.0
4.605296332096115e-5 -3.283292513600403e-6 0.0
0.0001447784357997613 -2.5871650037093784e-6 0.0
0.0001466463858196111 -2.6789629207471392e-6 0.0
6.582024356684218e-5 -6.108675257650314e-6 0.0
6.089738074037636e-5 -6.134716907333577e-6 0.0
0.00014694234413731804 -2.1250178936970975e-6 0.0
0.00014892792372542013 -2.2050096001528176e-6 0.0
0.0001485481095894397 -2.8759495415494714e-6 0.0
0.0001508939129713862 -2.352195047171815e-6 0.0
0.0001505551346045488 -3.117111094837629e-6 0.0
0.00015295384144824636 -2.5222615003314652e-6 0.0
0.00015274015604212335 -3.3724143275602353e-6 0.0
0.00015529284052057015 -2.6673440221344848e-6 0.0
0.00015486897375064637 -3.619455816708802e-6 0.0
0.00015549931283538902 -1.893562817123431e-6 0.0
0.0001575476637107288 -2.9102516753936844e-6 0.0
0.00015698232097368582 -3.9580670605472805e-6 0.0
6.581871558592667e-5 -6.641932471997176e-6 0.0
4.163152015105811e-5 -3.2733842298069557e-6 0.0
4.140241451764589e-5 -2.8926523382639007e-6 0.0
0.0001545342244520319 -4.739643024816554e-6 0.0
0.00015656670174134016 -5.165902215334117e-6 0.0
0.000159038971406792 -4.344470408709178e-6 0.0
0.00015431054389424475 -6.025802624168415e-6 0.0
6.104565812288565e-5 -6.682854416084038e-6 0.0
0.00015863151136581626 -5.667038690582683e-6 0.0
0.0001611178571242141 -4.7799517903291975e-6 0.0
6.580869936674674e-5 -7.259296925779563e-6 0.0
6.116335098601998e-5 -7.339567121116441e-6 0.0
5.68592574818728e-5 -6.7194269972786865e-6 0.0
0.00016069011008175576 -6.2238826869770465e-6 0.0
0.0001632154975930904 -5.253256775941178e-6 0.0
6.578625108791809e-5 -7.997782314022956e-6 0.0
7.074557319496899e-5 -7.877831280446337e-6 0.0
5.7011833958186986e-5 -7.430303505926472e-6 0.0
5.3016177083832924e-5 -6.773541802841854e-6 0.0
0.00016269354278242068 -6.822424739583951e-6 0.0
0.00016535911202801877 -5.779536023825486e-6 0.0
0.00016588839195446614 -4.248276779989475e-6 0.0
0.00016020968403964174 -7.820483177270299e-6 0.0
0.00016812177478469243 -4.676288749367997e-6 0.0
0.00016875429975199115 -3.2430965337104374e-6 0.0
3.726349918156864e-5 -2.8814752931775994e-6 0.0
3.7277159233714405e-5 -2.5233214384635905e-6 0.0
4.229032831348086e-5 -2.5501785100700423e-6 0.0
3.717248041090633e-5 -2.1599643024212854e-6 0.0
4.1990122472500514e-5 -2.1576553256032668e-6 0.0
3.705684117485829e-5 -1.833240723109184e-6 0.0
4.174485599750045e-5 -1.8354475373244507e-6 0.0
7.068284002256183e-5 -8.681556199727392e-6 0.0
7.585557093521759e-5 -8.521681698844777e-6 0.0
5.319317824356246e-5 -7.559324460791906e-6 0.0
4.943746223218749e-5 -6.858094684660808e-6 0.0
0.0001675187364441713 -6.358786735942041e-6 0.0
3.745592817154681e-5 -1.6068596588812266e-6 0.0
4.19600588762172e-5 -1.6549122977948011e-6 0.0
7.576783878803214e-5 -9.401865909709892e-6 0.0
8.108857240917592e-5 -9.20449041075778e-6 0.0
0.00010879922803882437 -4.544834758928482e-6 0.0
0.00017035678911125036 -5.140818649130908e-6 0.0
0.00013550011756398712 -3.2778629634081056e-6 0.0
0.00013925242593631237 -8.341083782038731e-7 0.0
0.00012282802794639616 -2.6194531191792503e-6 0.0
0.00014912320680774145 -1.6715581946192416e-6 0.0
3.7295112178651914e-5 -1.5222647531937382e-6 0.0
4.264472704316404e-5 -1.6248178496511743e-6 0.0
4.964341691701626e-5 -7.746976632683813e-6 0.0
4.6150765020651466e-5 -6.998793758490022e-6 0.0
8.10464555992486e-5 -1.0168547772207989e-5 0.0
8.648104832259617e-5 -9.93008484482455e-6 0.0
0.00016965285580385346 -6.935624433427633e-6 0.0
3.329932304352312e-5 -2.5087254172702437e-6 0.0
3.340144116793197e-5 -2.8659963221834734e-6 0.0
3.2294922768113e-5 -1.5535434992023053e-6 0.0
0.00017257701152898375 -5.613162677778504e-6 0.0
3.7535725809587724e-5 -1.5428222632757635e-6 0.0
4.304249790086438e-5 -1.7058833629831031e-6 0.0
7.58270216237717e-5 -1.0453980881439443e-5 0.0
4.6392643250273114e-5 -8.027246074120232e-6 0.0
4.31161094478638e-5 -7.204800563803203e-6 0.0
0.00014715497872872722 -1.6539880965432964e-6 0.0
0.00014940758271986607 -1.2227941747089626e-6 0.0
0.00014733306402018654 -1.256438264159971e-6 0.0
0.000149680659684384 -8.490539791992133e-7 0.0
8.634985699036719e-5 -1.0965110378568562e-5 0.0
9.188621381026166e-5 -1.0660594978041966e-5 0.0
0.00010391551253661594 -3.7386206334181186e-6 0.0
3.7797545207913e-5 -1.695712042971599e-6 0.0
4.328247155909494e-5 -1.9005273612065711e-6 0.0
0.00017182614490833764 -7.483057166594375e-6 0.0
0.00016926692685034116 -8.670074105115216e-6 0.0
3.700060987784687e-5 -1.867307667785704e-6 0.0
4.3381387528175325e-5 -2.010972437288572e-6 0.0
0.00017474031957705405 -6.086575217776089e-6 0.0
0.00017520972604802217 -4.623392013941817e-6 0.0
3.8018249345028255e-5 -1.7022769969889501e-6 0.0
4.975870560794884e-5 -9.000082181047768e-6 0.0
9.165953841839473e-5 -1.1807437134488626e-5 0.0
9.718322272334273e-5 -1.1427046957806981e-5 0.0
9.746858082191075e-5 -1.0347771913456848e-5 0.0
0.00010265735793041085 -1.1066684628104258e-5 0.0
0.00010294459821989706 -1.0047224591857933e-5 0.0
0.00010790227860338389 -1.0721318388742266e-5 0.0
0.00010814930081018528 -9.743767697228102e-6 0.0
0.00011265029896951778 -1.0387205472227842e-5 0.0
0.00011286091907408932 -9.448701100008683e-6 0.0
0.00011675476033392389 -1.0057711821194328e-5 0.0
0.00011660536671690208 -1.1084913668332289e-5 0.0
0.00011991613765269344 -1.0715544516787711e-5 0.0
0.00011977404161463403 -1.1825568132371537e-5 0.0
0.0001225306454707998 -1.1409300150706625e-5 0.0
0.00012236110177515675 -1.2605351194472973e-5 0.0
0.00012484863284297433 -1.2140234430948936e-5 0.0
0.0001169416805200914 -9.151902834199638e-6 0.0
0.00012501111882181828 -1.0984125927875554e-5 0.0
0.00012716277699272515 -1.1672192138268067e-5 0.0
0.00012699641048413604 -1.2932438841369935e-5 0.0
0.00012917057488524839 -1.243192673801597e-5 0.0
2.9484602384659075e-5 -2.483166797569643e-6 0.0
2.9575331930994274e-5 -2.811410410711947e-6 0.0
4.336450916650788e-5 -8.367373063635827e-6 0.0
4.034293444484945e-5 -7.486876859840111e-6 0.0
0.00012933633402790304 -1.121238829219912e-5 0.0
0.00013120739884861957 -1.192707743545797e-5 0.0
0.00013104983575354346 -1.3237442862846025e-5 0.0
0.00013301050954726303 -1.2695978170042194e-5 0.0
2.590694376130567e-5 -2.4348529527845954e-6 0.0
2.6016718952630607e-5 -2.7175075637167434e-6 0.0
0.0001475109782524597 -9.216064943590838e-7 0.0
0.00014997005006595754 -5.349379393079912e-7 0.0
0.00014774019982061003 -6.465749333436149e-7 0.0
0.00017398747091106192 -7.955196578229822e-6 0.0
0.00017687739487902922 -6.49042198261405e-6 0.0
9.693428804591444e-5 -1.268976076530894e-5 0.0
4.8605520781835475e-5 -1.7741474782752454e-6 0.0
0.00012987726249617587 -4.119470370796315e-6 0.0
0.00013286162034988516 -1.4097959699224167e-5 0.0
0.00013473916290891293 -1.3521038095253746e-5 0.0
0.00013483707050528042 -1.2137881561056602e-5 0.0
0.00013653225558776704 -1.2919726874961193e-5 0.0
0.00013425286462965595 -3.141418145622019e-6 0.0
0.00015035991238200602 -2.55928280575661e-7 0.0
0.00015251831014680934 -1.9840230436890315e-7 0.0
4.40517694348078e-5 -1.5556088525321255e-6 0.0
4.05545393925618e-5 -8.80228234867133e-6 0.0
3.7712743447826035e-5 -7.840753202767447e-6 0.0
0.00014800363210391328 -4.1183436493820287e-7 0.0
0.00013642720727729277 -1.4407147045054084e-5 0.0
0.00013820257041072622 -1.3801772096393719e-5 0.0
0.00013829627083232463 -1.2330396167361668e-5 0.0
0.00013996998391807626 -1.3200044983325632e-5 0.0
0.00014009759710745853 -1.1780720165093029e-5 0.0
0.0001417225495741677 -1.2585576094889204e-5 0.0
0.000141593922331064 -1.4085665697260606e-5 0.0
0.00014331582238941994 -1.3427834497238642e-5 0.0
3.82729345349518e-5 -8.524143045282973e-7 0.0
2.2624263144899404e-5 -2.356635751232145e-6 0.0
2.2738084834541456e-5 -2.5775118878662398e-6 0.0
9.156231572912313e-5 -1.3158244845177331e-5 0.0
0.00017592238858968426 -8.518991140112947e-6 0.0
0.00017893348690325517 -6.839283276731484e-6 0.0
0.00014317735965807348 -1.4985414963182043e-5 0.0
0.00014486857206511992 -1.429290532440089e-5 0.0
4.486394008701908e-5 -2.2733684418672265e-7 0.0
3.793443802257376e-5 -9.308057131762596e-6 0.0
3.5211211415474624e-5 -8.25580155430315e-6 0.0
4.999736708844981e-5 -2.1047489987341578e-6 0.0
0.0001631675685776643 1.7580898123758832e-6 0.0
9.668159120633056e-5 -1.414744970763697e-5 0.0
3.868597342810212e-5 6.747914256450414e-7 0.0
3.324877507774261e-5 -1.5147572800042268e-6 0.0
0.0001775242581330537 -9.424092744153877e-6 0.0
0.00018087586046833246 -7.159905963788497e-6 0.0
0.0001820576124873699 -5.112302467245441e-6 0.0
3.267144416114161e-5 -1.2299933300607893e-6 0.0
0.0001746459531599395 -1.064482438260138e-5 0.0
2.231880761079497e-5 -2.076033266261663e-6 0.0
4.0535421573609725e-5 -1.0345737497498804e-5 0.0
0.0001507002849589437 -6.23594736601998e-9 0.0
0.00014828260475695297 -1.9611924887508886e-7 0.0
0.0001418933953414718 -1.1198591224617383e-5 0.0
3.545150536773645e-5 -9.887904417641258e-6 0.0
3.284088444260438e-5 -8.744491194638853e-6 0.0
1.9633638141377156e-5 -2.234069978926147e-6 0.0
1.9739323309580126e-5 -2.402696128199228e-6 0.0
4.592692671411187e-5 -6.216049540143295e-6 0.0
0.00014471374470346888 -1.5883112372208808e-5 0.0
0.00014638158271822584 -1.514253378331982e-5 0.0
3.259816537381803e-5 -7.2644256296576635e-6 0.0
3.0310731680344455e-5 -7.669797067988203e-6 0.0
0.00014313023398482028 -1.6533717398136494e-5 0.0
9.149753366805176e-5 -1.4734102208801122e-5 0.0
3.060518661386837e-5 -9.253360315765962e-6 0.0
2.8171764123343164e-5 -8.101962527057302e-6 0.0
0.00010310953837224088 -9.173190250187244e-6 0.0
0.0001841263102214814 -5.21567313459738e-6 0.0
0.0001851319486011347 -3.6341454147505612e-6 0.0
0.00018283789225520514 -7.230435505176269e-6 0.0
0.00014618885519367938 -1.6706223616187415e-5 0.0
0.00014784963598441403 -1.594042060201677e-5 0.0
0.0001402445701141373 -1.0468609399498984e-5 0.0
0.00014207941387983224 -9.91279592314448e-6 0.0
9.647594795525157e-5 -1.584784834236034e-5 0.0
0.0001480616857666948 -1.4396424898676047e-5 0.0
0.00014954725598473301 -1.5204275695750404e-5 0.0
1.685120584226642e-5 -2.062772185710686e-6 0.0
1.7081933104790278e-5 -2.228178960317348e-6 0.0
0.0001493171097306902 -1.6755117349699444e-5 0.0
0.00015099736552299427 -1.6001909786844644e-5 0.0
2.8558179953947157e-5 -9.732173817010294e-6 0.0
2.6197144834002322e-5 -8.514478675615689e-6 0.0
0.00015100738387490128 2.3198793849515348e-7 0.0
0.0001485825220463789 2.0952049492098144e-8 0.0
2.579735860778218e-5 -7.058401948962257e-6 0.0
2.389134207543418e-5 -7.393365545690365e-6 0.0
2.4309736077939866e-5 -8.869524748492925e-6 0.0
2.2086621607699177e-5 -7.69455656712993e-6 0.0
0.00018608088808311544 -5.175104181722949e-6 0.0
0.0001846270422867053 -7.204619861825592e-6 0.0
4.5431054715562355e-5 1.6586899128122484e-6 0.0
3.869391364461385e-5 2.3787271982277633e-6 0.0
0.00014558311060510474 -7.810484299026079e-7 0.0
9.142579631543778e-5 -1.6609134094444305e-5 0.0
0.00015076223160203982 -1.756311175905569e-5 0.0
0.0001524186045602941 -1.678496248793334e-5 0.0
0.000154174498115086 1.7026845357448729e-6 0.0
0.00014978960325621223 -1.365149781149242e-5 0.0
0.00011964656780039592 -1.307951419900021e-5 0.0
2.162286561807611e-5 -6.386740025233453e-6 0.0
1.9935586261554485e-5 -6.599263803406387e-6 0.0
2.044217391028813e-5 -7.931306264129243e-6 0.0
1.8330844855095716e-5 -6.7841262071148796e-6 0.0
1.783662657762904e-5 -5.596873703727563e-6 0.0
1.624287641232005e-5 -5.745982999611182e-6 0.0
1.5742836959087776e-5 -4.655167632067573e-6 0.0
1.4192143049686851e-5 -4.7533566745321e-6 0.0
1.3703711474273607e-5 -3.8085602932224805e-6 0.0
1.22940592040536e-5 -3.860975340551974e-6 0.0
1.1791065210652287e-5 -3.0661505632377193e-6 0.0
1.2787845660343792e-5 -4.7565419406750906e-6 0.0
1.0761730347479818e-5 -3.712715118049785e-6 0.0
1.4361026850997649e-5 -1.8853034465411054e-6 0.0
1.4271791722284687e-5 -1.7717173863303232e-6 0.0
1.1484376088637728e-5 -4.663908577875565e-6 0.0
9.693929726589571e-6 -3.7258981141709612e-6 0.0
5.3125320934622536e-5 4.7413807936214343e-7 0.0
5.486595359683116e-5 -3.5935319713625437e-6 0.0
0.00014042952633540491 -9.268373204884694e-6 0.0
0.00014226730553083133 -8.722588291688859e-6 0.0
2.593291474482198e-5 -2.9370953223796135e-6 0.0
9.626049880378834e-5 -1.7904421068225084e-5 0.0
0.00010133485769959038 -1.704971662236504e-5 0.0
0.0001439207079331872 -9.33928565113985e-6 0.0
0.00014412563877421575 -8.142001844184096e-6 0.0
0.00018791475304081036 -4.9776912208882256e-6 0.0
0.00018618565646183984 -7.060788106381814e-6 0.0
0.00018280599074981479 -9.687594031577523e-6 0.0
0.00014594862534157647 -4.3561259338822395e-7 0.0
0.00014625790753964568 -2.5261828351789655e-7 0.0
8.653426775852414e-5 -1.5401513329837835e-5 0.0
8.650256530210625e-5 -1.7485205904912938e-5 0.0
8.177206952627307e-5 -1.6191694800479705e-5 0.0
1.8970185110142183e-5 -8.07746756809185e-6 0.0
0.00014888202418902988 2.5814662236008254e-7 0.0
0.00014656784687697754 -2.28458168093676e-8 0.0
4.614701375094804e-5 -4.056206491577775e-6 0.0
0.0001521581449667542 -1.8338089073408432e-5 0.0
0.00015383438677658747 -1.7561766904089207e-5 0.0
0.0001541232099529669 -1.6028564688726158e-5 0.0
0.00015554502277132317 -1.679604197143295e-5 0.0
4.798307733645643e-5 3.4348830483205828e-6 0.0
3.973190522559633e-5 3.688274623897101e-6 0.0
8.104352039944389e-5 -8.395808654501183e-6 0.0
0.0001505444408382705 -1.911732351008052e-5 0.0
0.00017126141459822644 1.2918097065248086e-6 0.0
0.00015525768289579098 -1.838940226070137e-5 0.0
0.00015699363023792692 -1.7621681323349236e-5 0.0
0.00015729441605190407 -1.6008628445522255e-5 0.0
0.0001587735809243919 -1.6836856664817235e-5 0.0
0.00015912452693998136 -1.5184572614082206e-5 0.0
0.00016059798597284212 -1.6006122993044998e-5 0.0
0.00016023850980535618 -1.7692324772176728e-5 0.0
0.00016204636509112378 -1.684788157819088e-5 0.0
1.032303113788644e-5 -4.429364124938818e-6 0.0
8.603101588301872e-6 -3.499152058060566e-6 0.0
7.790412291397359e-6 -2.8179840173746176e-6 0.0
0.00010110681932165363 -1.9289302466624153e-5 0.0
0.00010585451015331462 -1.8454958774876556e-5 0.0
8.182039239507902e-5 -1.8526713849402236e-5 0.0
7.725844091674983e-5 -1.711970274727858e-5 0.0
0.00018397913856929387 -9.727240102074953e-6 0.0
0.0001875076075940744 -6.839076425928302e-6 0.0
0.00015265963735536779 1.5413163033423541e-6 0.0
0.00015069963638352315 1.567834863831279e-6 0.0
3.2107408623219255e-5 2.6422004644619704e-6 0.0
3.291557503514735e-5 3.51510485900122e-6 0.0
1.2184435197047853e-5 -5.555584061213283e-6 0.0
7.129759231725658e-5 -6.050822351574747e-6 0.0
0.00014486784088878495 -1.367363249548986e-6 0.0
0.00018110688466040976 -1.202605317418093e-5 0.0
4.726997140770285e-5 -2.096706334280441e-6 0.0
0.00014372270490181893 -7.321958882415766e-7 0.0
0.00016162990061261416 -1.8542203717718658e-5 0.0
0.00016343275284846475 -1.7684834782511758e-5 0.0
0.00015953214258872345 1.7833384405175012e-6 0.0
0.00016500575983110377 1.7841850604969816e-6 0.0
4.817507051915173e-5 4.462877370009804e-6 0.0
1.9824666127210526e-5 -2.6021963737975735e-6 0.0
1.1625836916008624e-5 -1.5727145477557625e-6 0.0
1.1573170775077669e-5 -1.4778523398727591e-6 0.0
2.1021931202652224e-5 -9.34158765407928e-6 0.0
0.00015682058940908345 -1.9292120789715277e-5 0.0
0.00013834086920996708 -5.0523673839592284e-6 0.0
0.00013093618402235877 -1.4698769868129925e-5 0.0
6.601596590770129e-5 -8.827984114048968e-6 0.0
9.254665139258317e-6 -4.127525230700676e-6 0.0
7.6084574357163645e-6 -3.2050493211640435e-6 0.0
3.0997566013633256e-5 -1.1038669718510678e-5 0.0
0.0001458047536499404 -8.735114390330645e-6 0.0
0.00014603053416592168 -7.535585123029848e-6 0.0
8.628954546189957e-5 -2.0084797545111502e-5 0.0
0.00016205192227057002 1.755511963476939e-6 0.0
0.00016686741596383522 1.7586277592499116e-6 0.0
0.00016402120967454631 1.653526108532851e-6 0.0
0.00016880933850604325 1.6647675677569733e-6 0.0
0.0001718161440641086 1.6916195084594706e-6 0.0
0.0001738036395310587 1.6025767101644905e-6 0.0
0.00017069874093304628 1.538439445152888e-6 0.0
0.0001755960632318047 1.4911087313026858e-6 0.0
0.00017247766588360987 1.3869952133124388e-6 0.0
0.0001773341308806571 1.356666645313985e-6 0.0
0.00017427007491374206 1.2188437062511356e-6 0.0
0.00017896225157033207 1.2068883590637901e-6 0.0
0.00017597231261810332 1.0477317453443223e-6 0.0
0.00018054931424729361 1.0484015843519102e-6 0.0
0.0001712558524118502 9.826072156210252e-7 0.0
0.000177625460393576 8.328504106600225e-7 0.0
0.00018196632754739203 8.435387422534022e-7 0.0
0.00017709073001130556 1.5513153009429873e-6 0.0
2.9977800353131142e-5 -6.346727671199819e-6 0.0
2.904107169019551e-5 -1.1498667270942748e-5 0.0
3.140998683431391e-5 -1.2927954374072809e-5 0.0
0.00017923740664946432 5.603319656731847e-7 0.0
0.00018338296493607077 5.841969946527898e-7 0.0
0.00017519887348898066 4.962816756721816e-7 0.0
0.0001327281140438882 -1.5646830297330177e-5 0.0
0.00013079870452188495 -1.6303923154144036e-5 0.0
0.00013259722336735882 -1.7346188989111547e-5 0.0
0.00013069352131394528 -1.809371586471016e-5 0.0
0.00013248130331711307 -1.921934676323409e-5 0.0
0.00013061971900427675 -2.00824166519207e-5 0.0
0.0001287261983205206 -1.8916734208133394e-5 0.0
0.00012864596412645783 -2.1017685186689903e-5 0.0
0.00012668514724576113 -1.9803325676846873e-5 0.0
0.00012292805363536274 -4.267712210043868e-6 0.0
0.00013238795435409454 -2.128135170209481e-5 0.0
0.00013414222290643215 -2.0353894561278107e-5 0.0
0.00011643488442500456 -4.234479025381875e-6 0.0
0.00011305334086876781 -8.617429839834945e-6 0.0
0.000117131387837984 -8.341438266606886e-6 0.0
0.00011324348427029087 -7.869981322933804e-6 0.0
0.0001173258276688692 -7.6086589782297235e-6 0.0
0.00011343984909223655 -7.196366998371429e-6 0.0
0.00011752928572002414 -6.94920870951427e-6 0.0
0.00012075589087227895 -7.331073892515773e-6 0.0
0.00012098612123809097 -6.683144927839175e-6 0.0
0.00012371316955817692 -7.033245104566473e-6 0.0
0.00012396499050959433 -6.395175413964996e-6 0.0
0.00012623254723366975 -6.713757438103038e-6 0.0
0.00012124056638438489 -6.080090270403031e-6 0.0
0.00011364553046794523 -6.5884601707324335e-6 0.0
0.00010888469140238956 -6.81243362117203e-6 0.0
0.00012597406178124413 -7.419036625382251e-6 0.0
0.00012837231301208112 -7.0287695798072175e-6 0.0
2.9588833927145903e-5 -1.3318261189859844e-5 0.0
0.00012172524526774366 -2.9142976448211317e-6 0.0
0.00012405734566215288 -3.4410427449323273e-6 0.0
0.00013138433554579762 -1.0752121661355735e-5 0.0
0.00018900356760642798 -3.5949468970941323e-6 0.0
0.00019069521641350284 -3.3811815581882697e-6 0.0
0.00013244668790729627 -2.5303306703489257e-6 0.0
0.00013087430175463187 -2.3170937090117214e-6 0.0
0.00015761756122715018 -1.438693375119389e-5 0.0
0.0001440910422115348 -3.7905115747128026e-6 0.0
0.00018513083150877116 -9.549082848480995e-6 0.0
0.00018870817420008702 -6.505914708402564e-6 0.0
0.00012942621208336018 -2.7346128203422254e-6 0.0
7.735474585473943e-5 -1.9745512150235248e-5 0.0
7.2997159369112e-5 -1.821540096062243e-5 0.0
0.00013432466705440375 -3.0525591344153735e-6 0.0
0.00012655027916585456 -2.2042767941760286e-5 0.0
0.0001244662901119787 -2.0678647209669397e-5 0.0
7.289200697956956e-5 -1.578138534238802e-5 0.0
6.880446706507273e-5 -1.6770862171995442e-5 0.0
6.866794021308966e-5 -1.4519229750178319e-5 0.0
6.478910536689543e-5 -1.5399394056816206e-5 0.0
6.497559698093386e-5 -1.7916851247551227e-5 0.0
6.11785019141541e-5 -1.6421583489154756e-5 0.0
6.137926618206689e-5 -1.916933694135379e-5 0.0
5.777872031575096e-5 -1.7552062088089682e-5 0.0
1.9700647769182394e-5 -9.427109579341836e-6 0.0
0.00019150899795745507 -2.4501967670510923e-6 0.0
0.0001491348279393979 5.378800785119379e-7 0.0
0.0001467846787029245 2.534689478180927e-7 0.0
5.701608488785234e-5 -5.687312773033071e-6 0.0
4.041133656114675e-5 -6.44578027449152e-6 0.0
0.0001846681145152209 9.738571298264515e-7 0.0
0.00018221390023980544 1.258086949296334e-6 0.0
0.00010555316534158664 -2.0817483679444567e-5 0.0
0.00011011913725646411 -1.986087291846003e-5 0.0
0.00015190350683089566 -1.9882846584934883e-5 0.0
1.7515285840409408e-5 -4.48137949819409e-6 0.0
0.0001374334740599008 -3.3022004044991206e-6 0.0
0.00014441525617570484 -3.5853081498959104e-7 0.0
0.00014465471906575732 -9.809500970227709e-8 0.0
0.0001595371113806771 -1.3535456035635241e-5 0.0
0.0001615201571700925 -3.5133432983776272e-6 0.0
0.0001639172361375322 -1.598762898698046e-5 0.0
0.00016532509493146072 -1.6781112320116608e-5 0.0
0.00016474832070434903 -1.851295063967667e-5 0.0
0.00016666172305481987 -1.7585901251291717e-5 0.0
0.00011406301983918814 -3.494965350647068e-6 0.0
2.1680638622424795e-5 -1.0769574708692113e-5 0.0
0.00012635516977488597 -6.070462223805102e-6 0.0
0.0001677897225148097 1.3364963949054825e-6 0.0
0.00010706898808227358 -1.6412408373882238e-5 0.0
3.187700103776474e-5 -1.4843133106964437e-5 0.0
3.3768138446328985e-5 -1.446259782324002e-5 0.0
0.00015033155091762095 -2.0645640819535107e-5 0.0
6.457930347679393e-5 -1.3344477307388874e-5 0.0
0.0001406180939053432 -8.165777461904106e-6 0.0
0.00013877093538279393 -8.678006126305183e-6 0.0
0.0001861129536780481 -9.373788998290743e-6 0.0
0.0001899319119979021 -6.040441733161184e-6 0.0
0.00019190566074834192 -4.027349179085559e-6 0.0
5.9487331232197007e-5 4.382924751130078e-6 0.0
8.28936399896924e-6 -3.739816933496969e-6 0.0
6.680323721797606e-6 -2.8159201837946694e-6 0.0
6.180679215801709e-6 -2.4634754036133074e-6 0.0
0.00014942720957888394 1.3728605897543274e-6 0.0
0.0001511808568186258 1.1878866479385773e-6 0.0
0.00014769352734977443 1.3542187980295698e-6 0.0
0.0001536105384147968 4.0050803436631903e-7 0.0
0.0001808195434010244 2.196176932620272e-7 0.0
0.00018488751981966697 2.583636100855883e-7 0.0
7.313289405262336e-5 -2.1139759983611913e-5 0.0
0.00015204732569047152 -7.852860510492395e-7 0.0
2.5785936194379708e-5 2.5820106881106765e-6 0.0
2.6144049295190325e-5 3.0081579148142785e-6 0.0
3.39681038839327e-5 3.658934351254357e-6 0.0
2.637095192350132e-5 2.710175185404289e-6 0.0
3.773133260884117e-5 3.3947476128685393e-6 0.0
0.000124434102312643 -1.848284614259549e-5 0.0
5.750266339371764e-5 -1.5033649495061437e-5 0.0
5.437105623059694e-5 -1.604017377022902e-5 0.0
5.4625620545280864e-5 -1.87192014792324e-5 0.0
5.14096911657095e-5 -1.7105554556340583e-5 0.0
0.00016724144416997095 -1.581897021797338e-5 0.0
0.000168566221885116 -1.661147497679999e-5 0.0
0.00016794189044844538 -1.8358074532816235e-5 0.0
0.00016977983666482447 -1.734439577552076e-5 0.0
0.00014432674327827488 -7.023941887655429e-6 0.0
0.00014626516447196244 -6.433670759390122e-6 0.0
0.00013405079020716403 -2.241826955517205e-5 0.0
0.00013569875592874653 -2.1433775364610207e-5 0.0
0.00010911373891973417 -6.243928128005851e-6 0.0
0.00010373293962717717 -6.450238130032635e-6 0.0
0.00010022527382750121 -2.2054538211208642e-5 0.0
5.16881032855505e-5 -1.9802882126618582e-5 0.0
4.868233677347159e-5 -1.8126739706809987e-5 0.0
0.00017996986407685825 -1.1882144733115259e-5 0.0
0.0001786602042220701 -1.3875687761435778e-5 0.0
0.00017756683703752386 -1.3667952528372055e-5 0.0
0.00017668224536469249 -1.5341153223633093e-5 0.0
0.00010979987397805927 -2.25261377765337e-5 0.0
9.85735245162971e-6 -4.740294317152606e-6 0.0
1.3352668478036787e-5 -3.0190760559039913e-6 0.0
1.1216078723569609e-5 -2.386743337595572e-6 0.0
8.977945780369207e-6 -1.2797489835930767e-6 0.0
8.783491579138605e-6 -1.1742189026163574e-6 0.0
1.1577808515168831e-5 -1.31478000067974e-6 0.0
8.67532103709178e-6 -1.013238886402993e-6 0.0
1.161330031984998e-5 -1.1152047651389758e-6 0.0
8.612502800171647e-6 -8.572288482955604e-7 0.0
1.1736025273047361e-5 -9.495998520988614e-7 0.0
0.00017968193439489208 -1.3980557584552211e-5 0.0
5.1024862039737625e-5 -1.4681653523989482e-5 0.0
0.00015798995448013537 -1.2804693001330501e-5 0.0
0.00014896683951047757 -1.9841871331345358e-5 0.0
0.0001487810420042453 -2.141587047384867e-5 0.0
0.00014745604013350824 -2.065997858929389e-5 0.0
0.0001243193078857956 -2.313112920475896e-5 0.0
0.00015111028012130005 6.824920422802152e-7 0.0
0.00016909859608684401 -1.9047093120102665e-5 0.0
0.00019321537028812747 -3.4249124514833572e-6 0.0
0.00019109464466657544 -5.476326413417307e-6 0.0
6.027280154147034e-5 4.871406945935913e-6 0.0
0.00014876190246633974 7.479849544566428e-7 0.0
0.00012950728792466445 -1.0122172550977158e-5 0.0
0.00013152935795542194 -9.687802274430653e-6 0.0
0.0001286289432725202 -2.3383144632706053e-5 0.0
0.00012225659303039262 -2.1669840040055422e-5 0.0
3.383606169048665e-5 -3.2574701037081553e-6 0.0
0.0001872738719771944 5.568423129133621e-7 0.0
0.00018865817545542446 2.5288522491221247e-7 0.0
0.00018625351153504506 -1.450550637169463e-7 0.0
0.00018982184308019437 -1.1722770480231896e-7 0.0
0.00016215669899553097 -8.478959353544108e-6 0.0
0.0001379416999409859 -1.5392259452173712e-5 0.0
0.0001389607287811733 -7.664319751096667e-6 0.0
0.00010784022140558725 -1.1857492629825454e-5 0.0
0.00014288231140322232 -2.531834435401645e-6 0.0
0.0001477330274955849 -8.109730456351113e-6 0.0
0.00014828224566116205 -1.2901540960683616e-5 0.0
0.00015005072828402016 -1.2156184465970036e-5 0.0
0.0001479201819126069 8.254832113106114e-7 0.0
0.00015006023324389258 9.097008084704009e-7 0.0
3.422715263274697e-5 -1.646284770795258e-5 0.0
3.6089811478790765e-5 -1.606165223191144e-5 0.0
8.603663432461906e-6 -7.683822629054828e-7 0.0
1.1776856270851015e-5 -9.003137268142195e-7 0.0
1.5184137893533916e-5 -1.0329743225169056e-6 0.0
1.5390559907476127e-5 -1.0269686291418968e-6 0.0
1.1927324420216561e-5 -9.65029218116517e-7 0.0
1.5758413763018792e-5 -1.1504465624103692e-6 0.0
1.2150170094642775e-5 -1.0849817632580346e-6 0.0
1.62571834492863e-5 -1.278411574659744e-6 0.0
1.2369355367525482e-5 -1.0654642644009636e-6 0.0
7.39302474276335e-6 -3.295611921322499e-6 0.0
0.00013709152278986922 -8.142144204329705e-6 0.0
5.824932508661279e-6 -2.3923482714264432e-6 0.0
3.0207445868784565e-5 -1.5134267962015232e-5 0.0
0.00019312665576222627 -2.2284242771078938e-6 0.0
0.00012031060423815682 -8.844981496189802e-6 0.0
0.00014247175188180012 -7.731774191262937e-7 0.0
0.00014288702060494143 -4.5210321481882113e-7 0.0
1.6712045690933833e-5 -1.0966426340347538e-6 0.0
2.048130694488612e-5 -1.0794353691828494e-5 0.0
1.855681342982334e-5 -9.440920839712773e-6 0.0
5.492842866970111e-5 -2.214258850095069e-5 0.0
0.00015152342603150628 -2.1453647694691987e-5 0.0
7.739134315320997e-5 -2.2917717166398134e-5 0.0
0.00017088812794923574 -1.79859228877254e-5 0.0
0.00019430536871381255 -2.502832011276558e-6 0.0
0.00010348433666971714 -7.030433671298136e-6 0.0
9.803515042485807e-5 -6.6440820878444965e-6 0.0
9.77388667259913e-5 -7.2431123575692985e-6 0.0
7.457814979794537e-5 4.753651997177002e-6 0.0
9.241051750665833e-5 -6.832755406585985e-6 0.0
9.411987065516277e-6 -1.3728097003150425e-6 0.0
0.00013555436405659574 -2.342146687202096e-5 0.0
0.000137150958594746 -2.2391781826064748e-5 0.0
0.00013729167721255188 -2.0514751897053876e-5 0.0
0.00013869258793904255 -2.143560406341276e-5 0.0
0.00015159972706415398 -1.291536277508193e-5 0.0
0.00015190205764471483 -1.1383035083288214e-5 0.0
0.00019374570071078393 -1.6010590003847373e-6 0.0
0.00019206558781429967 -1.7102587633163215e-6 0.0
0.00014525879955268269 3.163498785797455e-7 0.0
0.00014325316517778267 -1.0647947078618127e-7 0.0
2.8010824829914708e-5 -1.360562886092161e-5 0.0
4.903425468195722e-5 -2.0769881628016835e-5 0.0
4.620237516029388e-5 -1.9047888750073416e-5 0.0
0.00012567195726082114 -3.952836004227549e-6 0.0
0.00016737828265523465 -2.0031141849124957e-5 0.0
1.264741358641593e-5 -6.546825979833537e-7 0.0
4.580104048109867e-5 -1.6520293186093968e-5 0.0
0.00013846178258803798 -2.3168912319191282e-5 0.0
0.00013997848457745598 -2.2209831093657226e-5 0.0
0.0001372629501601672 -7.228320887212656e-6 0.0
0.0001353919009671873 -7.655993539054104e-6 0.0
0.0001355730197545707 -6.823400928415564e-6 0.0
0.00013066418946638278 -3.134648407933212e-6 0.0
9.541930969015681e-6 -2.378732252230214e-6 0.0
6.539397484147081e-6 -2.8268140214421746e-6 0.0
0.00013885185287647542 -1.9650489889199278e-5 0.0
0.00014006485832232892 -5.355583975797705e-6 0.0
0.00012212615599774488 -2.434307394969432e-5 0.0
2.968789321504307e-5 -2.148702958438166e-6 0.0
7.232048870929394e-5 -4.331083568712468e-6 0.0
2.244750724155711e-5 -1.2265302525959377e-5 0.0
0.00017165818699742255 -1.6276828724904714e-5 0.0
3.2446618879524146e-5 -6.074766703058033e-6 0.0
2.9670882325462183e-5 -5.283542557138723e-6 0.0
3.2350004317605925e-5 -5.135321421318197e-6 0.0
2.946497029999147e-5 -4.4730398308222285e-6 0.0
3.2212371896094773e-5 -4.4481276373849595e-6 0.0
2.687811772842918e-5 -4.568131145651472e-6 0.0
0.00014726098318965875 -2.2199380056965908e-5 0.0
0.0001460633524100838 -2.148723824250421e-5 0.0
1.9290448837182512e-5 2.129187029125386e-6 0.0
0.00012421956193413622 -2.584932942908563e-5 0.0
0.00012218156705151093 -1.3949137303445324e-5 0.0
0.00011950158725784082 -1.4488948475468844e-5 0.0
3.661718331421344e-5 -1.815396712589024e-5 0.0
6.807903982009289e-6 -1.0605656576439654e-6 0.0
7.418320011179698e-6 -1.1972529359960792e-6 0.0
0.00018283321240831026 -3.5428865621264935e-6 0.0
0.00018585015337967579 -2.4182667830868413e-6 0.0
1.9060045930303964e-5 -1.1157498221135548e-6 0.0
3.850514823245894e-5 -1.770550167489998e-5 0.0
3.81916799799053e-5 -1.5640416768697552e-5 0.0
3.907762523753218e-5 -1.989785337266497e-5 0.0
3.4896681411366364e-5 -1.845575449913981e-5 0.0
2.8161110212047134e-5 2.280620685457343e-6 0.0
8.170918585593482e-5 -1.429553188206794e-5 0.0
0.00013691023726820055 -9.166777114855064e-6 0.0
0.00018333991954966723 -2.2951027261610305e-6 0.0
0.0001339066531501336 -2.454548478272277e-5 0.0
7.316167332312103e-5 -2.4589471991843536e-5 0.0
0.00019432332353879836 -2.8432063329173073e-6 0.0
0.00019208855253444732 -4.973285334311979e-6 0.0
7.38747813218094e-5 4.040803794968157e-6 0.0
4.670312090056297e-5 -2.1635861433686765e-5 0.0
0.00014452822277123863 -5.962277191796165e-6 0.0
0.00014663615210751258 -5.398788953563741e-6 0.0
1.3030455639188277e-5 -2.3938515772514304e-6 0.0
1.9393149486567715e-5 -1.0726224078746212e-5 0.0
1.754943304021217e-5 -9.396258895886716e-6 0.0
1.6722092310284843e-5 -8.203750889434626e-6 0.0
2.871317373574849e-5 -1.5325971894092766e-5 0.0
4.996410879175736e-6 -1.9486299434139375e-6 0.0
4.409208672294124e-6 -1.6781595758329028e-6 0.0
0.00013965818574178968 -2.3792361065588783e-5 0.0
0.00014116661871012453 -2.2863246497523976e-5 0.0
0.00014139982632586733 -2.1237864826725366e-5 0.0
0.00016923344220372006 -1.4796189989620734e-5 0.0
0.0001678241068031281 -1.3997000792057456e-5 0.0
0.0001684318786354775 -2.0679937356989218e-5 0.0
2.6634022460701006e-5 -3.873277919127519e-6 0.0
2.4221928956946503e-5 -3.943257901846173e-6 0.0
0.00014834201746086016 -5.820230663659081e-6 0.0
0.00019194670497072456 2.1828969774922318e-7 0.0
0.00019290417449664948 -1.136665260791802e-7 0.0
0.000194044188595809 -1.1080900794955796e-6 0.0
0.00018733229771182737 -9.349952016959716e-6 0.0
8.14870713032939e-6 -3.872237603483129e-6 0.0
0.0001433390358330364 -8.525543199967101e-7 0.0
0.00014132881597955934 -1.1364821792650075e-6 0.0
0.00014089555321104957 -1.2254915855916007e-6 0.0
0.00013897063792915067 -1.4879559637260152e-6 0.0
0.00013860738118273656 -1.5447500476636319e-6 0.0
0.00013926942935003957 -1.472616640112432e-6 0.0
0.00012968272272456213 -9.136932853821172e-6 0.0
0.0001039765289620662 -5.921134253806429e-6 0.0
0.00010936164447699628 -5.729280102368521e-6 0.0
1.8420306442171904e-5 -1.0601786935372213e-5 0.0
1.661395854205037e-5 -9.251508154045667e-6 0.0
0.00017487182966004 1.6000914510710633e-6 0.0
0.0001804191477970111 1.4044937868954434e-6 0.0
0.00018269538973146804 1.3294123657397613e-6 0.0
0.0001860295857859987 1.1528133211205626e-6 0.0
0.00018454313487249825 1.09924690937809e-6 0.0
0.00012004481409629811 -2.285449599795408e-5 0.0
0.00012011165973082667 -2.042847877993974e-5 0.0
0.00011986353903950972 -2.5693154831540976e-5 0.0
0.00014068363266131592 -1.2749479046413725e-6 0.0
0.0001401669924605405 -1.4412648751717474e-6 0.0
1.8976729482703623e-5 -1.2375411445338768e-6 0.0
8.491783541002519e-6 -7.375067908917638e-7 0.0
0.00014577337443754843 -2.3001926009463024e-5 0.0
2.5306603394390745e-5 1.5950853513100762e-6 0.0
0.00014557661392385757 -1.0010868795911099e-5 0.0
0.00014083526246542338 -1.297309614346254e-6 0.0
0.00013825983274371554 -1.6352790990288852e-6 0.0
0.00014010402260152243 -1.4853849578551144e-6 0.0
0.0001378998856056414 -1.771068311038367e-6 0.0
0.00013967093327610727 -1.6698975097370216e-6 0.0
0.00013754729837904528 -1.959029364467563e-6 0.0
0.00013929329441940967 -1.8958281288692685e-6 0.0
0.0001372087354055625 -2.19302855903112e-6 0.0
0.0001390105918674324 -2.1652195133795864e-6 0.0
0.000135999672534438 -1.904000329183834e-6 0.0
0.00013540511127091453 -2.2372559899036174e-6 0.0
0.00014857030559460043 -2.2959034010407268e-5 0.0
0.00019556384783775633 -1.2933899694522437e-6 0.0
6.856086545167733e-5 -1.271095733384771e-5 0.0
6.430322355802773e-5 -1.1715899182753262e-5 0.0
0.00018306098216605728 -1.2027019061403293e-5 0.0
9.297082754144124e-5 -6.360545140295716e-6 0.0
0.00013674795889663736 -1.7724096735290896e-6 0.0
3.897647073310293e-5 3.020433139180026e-6 0.0
6.176745854282493e-6 -8.805327077131419e-7 0.0
8.948600591400986e-5 4.321213760329296e-6 0.0
8.685418207531699e-5 3.2675213557363424e-6 0.0
0.0001575326879300978 1.642396946302312e-6 0.0
0.00018386834240642348 -1.1940118765906636e-5 0.0
0.00018153760929190781 -1.397812221220829e-5 0.0
9.191315048567248e-5 -7.440141797172716e-6 0.0
8.711362699834413e-5 -6.926060862590959e-6 0.0
2.343609045126931e-5 -1.0929682634222601e-5 0.0
5.705086999038674e-6 -2.3430831715982603e-6 0.0
4.800467521716569e-6 -8.30800968093446e-7 0.0
5.113192297939204e-6 -9.524206372009571e-7 0.0
4.145027333577175e-6 -1.5004944096171571e-6 0.0
0.00015029232651119303 -1.0680719111541462e-5 0.0
0.00015220825657329167 -9.922673487674956e-6 0.0
0.00015387103325147523 -1.0617937171053904e-5 0.0
0.00015417938681929277 -9.10361646176875e-6 0.0
0.0001350971707828477 -2.4712818863323792e-6 0.0
5.011050395160436e-5 3.7983310384276066e-6 0.0
8.039072456584529e-5 4.848095608976967e-6 0.0
0.0001336544064252553 -7.217013819132218e-6 0.0
0.000133876863354437 -6.439933353839026e-6 0.0
0.00010433089047146742 -5.4618792625343725e-6 0.0
7.7738317291922e-5 -5.4835354590829195e-6 0.0
7.740740474464756e-5 -2.6611216095853742e-5 0.0
0.00015993238686968575 -1.9372629330532674e-5 0.0
0.0001612477245731907 -2.021469378118858e-5 0.0
0.00015965429010376817 -2.1024163340093093e-5 0.0
0.00016091218983582307 -2.1861477094431825e-5 0.0
0.0001593841074453041 -2.2642611656951004e-5 0.0
0.00015812307557274406 -2.1825951806058616e-5 0.0
0.00015494927885471776 -2.024648738492293e-5 0.0
0.0001461064963196255 -1.9872457125492114e-5 0.0
0.0001488246584980319 1.2879738030072715e-6 0.0
0.0001289204688391146 -1.532451507457334e-5 0.0
2.0263171261966247e-5 -1.3456508902985419e-6 0.0
0.00018876059242564972 -8.400499270208861e-6 0.0
0.00019297937431649498 -4.5203500447771235e-6 0.0
0.00016248049876426833 -2.1039719945227142e-5 0.0
0.00016213510390894166 -2.2646563757013633e-5 0.0
0.00016363805064343562 -2.183740812726694e-5 0.0
8.165269758498095e-5 -2.4839718399178213e-5 0.0
0.00011644184159887596 -1.357013916379108e-5 0.0
0.00011636435200717935 -1.5024195453195443e-5 0.0
0.00011936544250130215 -1.6077222369543188e-5 0.0
5.757403555329963e-5 -8.450680942732138e-6 0.0
0.00011248658955104104 -1.4056459625868368e-5 0.0
0.0001374133126867336 -1.871304624902517e-5 0.0
0.00017000460566699696 -1.2886073143343282e-5 0.0
0.0001727170449513112 -1.6861389728700172e-5 0.0
0.0001718825828383151 -1.8565488423143255e-5 0.0
0.00017387532179047023 -1.4942007196634365e-5 0.0
1.5049477221357838e-5 -1.4265042640695177e-6 0.0
6.516038237978874e-5 -2.088639690477861e-5 0.0
6.165147093569318e-5 -2.2281544925594173e-5 0.0
6.532022005184998e-5 -2.42117486581865e-5 0.0
6.201657359186993e-5 -2.5595841201598228e-5 0.0
0.0001558598147001009 -9.745298003324448e-6 0.0
3.095955545959501e-5 -1.6946890051183092e-5 0.0
2.6667604756783863e-5 -1.3822182468102218e-5 0.0
0.00019082394425479036 -6.060255376286153e-7 0.0
5.847129755596938e-6 -6.379689070215374e-7 0.0
5.863180545975151e-6 -6.293091166367069e-7 0.0
0.0001445084448903228 -2.211609252448567e-5 0.0
0.0001444262836809005 -2.3782975699116516e-5 0.0
0.00012749687606698672 -9.541737313632473e-6 0.0
0.0001882771615578188 1.0384028714122501e-6 0.0
2.7392280927680344e-5 -1.5426826979262475e-5 0.0
0.00015590754983874907 3.451011875470601e-7 0.0
0.00017860662999378388 -1.1643075463766087e-5 0.0
0.00017908186186489292 7.832393877848635e-7 0.0
0.0001812781954906728 7.42035350476146e-7 0.0
0.00015253171173815742 -8.528897644447328e-6 0.0
0.0001600158534982241 -1.193265855898187e-5 0.0
0.00016159467054190448 -1.2664360663082872e-5 0.0
0.0001474926250039047 4.122894165340746e-7 0.0
0.00014960618224637448 3.446444017294212e-8 0.0
0.00015214957966977537 6.617076931375232e-7 0.0
0.00013807721467472818 -2.4791630844280707e-5 0.0
4.937246054899514e-5 -2.344053114981101e-5 0.0
0.00010852348448110278 -8.129156478800149e-6 0.0
0.00014260654570344433 -6.587036745089972e-6 0.0
0.00013323868605870406 -1.025257815878902e-5 0.0
0.0001352709840595372 -2.533248035851717e-5 0.0
4.0930074589614503e-5 -1.9429539674471053e-5 0.0
6.059310149802655e-5 -1.2232334997804342e-5 0.0
1.7371651997222813e-5 -2.491692663007019e-6 0.0
0.0001906250837846547 8.842837235611463e-7 0.0
0.00015612839608787607 -1.3688603754020769e-5 0.0
1.0807952560267645e-5 -1.9065559595028709e-6 0.0
5.21456743162679e-5 4.059710405429769e-6 0.0
0.00013441735503230326 -1.6650007702424078e-5 0.0
0.00015786988118042674 -2.3414961905705e-5 0.0
0.00015655110066905003 -2.259419822172757e-5 0.0
0.00014504701381348536 -1.2770945975416875e-5 0.0
0.00014860502912082766 -4.822473553705043e-6 0.0
5.288683686784089e-5 -6.165089127514555e-6 0.0
0.00011621318702814828 -1.6971098728749945e-5 0.0
0.00014192565453594437 -4.93055871678319e-6 0.0
6.0281185179144765e-5 -1.0722028219018515e-5 0.0
5.6744325823942924e-5 -1.1161175453691791e-5 0.0
4.154021343736034e-5 -2.1711154312099326e-5 0.0
2.3000122898973127e-5 -1.277769827149735e-6 0.0
2.332689946614183e-5 -1.2131759032454562e-6 0.0
8.750583616902246e-6 -2.2564796930171976e-7 0.0
1.328620935186412e-5 1.8892036704827144e-7 0.0
0.00016681952968122866 -2.1626756703025187e-5 0.0
1.5241270960215969e-5 -2.9743289295872436e-6 0.0
2.448441547782816e-5 -4.755430783934241e-6 0.0
2.195042477343522e-5 -4.0697568035665554e-6 0.0
0.00017256968436752903 -1.4427675538306794e-5 0.0
0.00010231867648948023 -1.3634531152856075e-5 0.0
0.00013168130024474376 -8.681136383710768e-6 0.0
0.00014590390502273394 8.794313722932325e-7 0.0
0.0001451382245545875 1.0844255124775889e-6 0.0
0.0001434732050265825 5.393849570721543e-7 0.0
0.00014281719966222694 6.984279462624154e-7 0.0
0.00014421336363591294 9.503571453537194e-7 0.0
0.00015404373613453793 6.895495243290341e-7 0.0
0.0001567366537153513 7.966288537754355e-7 0.0
0.00015738518725586783 1.1115683424449136e-6 0.0
0.00016007447751324098 1.15078338794694e-6 0.0
0.00015941295068584499 8.509335709649426e-7 0.0
4.454621276623149e-6 -7.805636133798738e-7 0.0
0.0001562688636267782 -8.28098777453141e-6 0.0
1.8076330189903476e-5 1.686903360879236e-6 0.0
1.9830490486333737e-5 1.6064903003114298e-6 0.0
0.0001408153106163453 -2.4369122832900437e-5 0.0
3.2676459643670784e-6 -4.4001250924159516e-7 0.0
0.00016629372548599956 -2.938638335292776e-6 0.0
0.0001692845693599295 -2.062861449605523e-6 0.0
0.00016701064424352343 -1.7355197028259832e-6 0.0
0.00017191922174313533 -2.3052578585277837e-6 0.0
0.00017244946684306234 -1.2610880360968446e-6 0.0
0.00017526730864751982 -1.4911424912222908e-6 0.0
3.527366275635819e-5 -5.046481479992329e-6 0.0
3.525556901247219e-5 -4.489549146994893e-6 0.0
3.204193996531352e-5 -3.969035715557406e-6 0.0
3.517988217416485e-5 -4.09202332046477e-6 0.0
3.8538975453115955e-5 -4.582754403569399e-6 0.0
3.849259755227438e-5 -4.220277021256503e-6 0.0
4.203381036337966e-5 -4.6870250983076936e-6 0.0
4.732767483608315e-5 -2.406983474820354e-5 0.0
4.2014128664773715e-5 -4.328467810077216e-6 0.0
4.586637068348777e-5 -4.786243430787709e-6 0.0
8.576791044909962e-6 -8.602187011510315e-7 0.0
2.279370502251567e-5 -1.5041576788789141e-6 0.0
4.5712775832819835e-5 -5.181572212885917e-6 0.0
3.222248373762266e-5 -3.682134608809638e-6 0.0
0.00016848967875833255 -1.2128628651478846e-5 0.0
0.00016637184348015203 -1.3248690602587504e-5 0.0
0.00011740544004075822 -2.4223396667091045e-5 0.0
0.00011711093458092755 -2.721079441876874e-5 0.0
0.00014206673152135347 2.776754122515604e-7 0.0
7.428840596234667e-5 2.3894307704109414e-6 0.0
8.621453593145389e-5 1.445055184637358e-6 0.0
9.624579816863038e-5 2.1880901686685896e-6 0.0
9.555767531937442e-5 3.733203428353369e-7 0.0
8.622792521511172e-5 -4.336621286346992e-7 0.0
9.517816277671363e-5 -1.4618196225010775e-6 0.0
8.642445353797884e-5 -1.9330656714809274e-6 0.0
9.518619316001619e-5 -2.826695487706027e-6 0.0
8.666277762486771e-5 -2.8274722666999025e-6 0.0
9.657815589717342e-5 -3.3071546866260815e-6 0.0
8.67618893408424e-5 -2.969392459247877e-6 0.0
9.506207362635388e-5 -3.0872254836761323e-6 0.0
8.64993353645711e-5 -2.787557270306333e-6 0.0
9.467238702669976e-5 -2.842406569179368e-6 0.0
8.679420010475572e-5 -2.6085449372412963e-6 0.0
9.467201113003874e-5 -2.6415458090106515e-6 0.0
8.685751856324196e-5 -2.453647215048443e-6 0.0
9.440379908869751e-5 -2.4942829897156497e-6 0.0
8.691346000743297e-5 -2.3619215807662367e-6 0.0
9.4301323082664e-5 -2.4318608413818947e-6 0.0
8.692636903995455e-5 -2.353587275025062e-6 0.0
9.415480027528419e-5 -2.4426786348590495e-6 0.0
8.6743408891004e-5 -2.4094815927043076e-6 0.0
9.400452471552026e-5 -2.52339798561068e-6 0.0
8.659657887685198e-5 -2.545615540780256e-6 0.0
7.872619712542573e-5 -2.3923286862621597e-6 0.0
7.865834407374709e-5 -2.580650586929698e-6 0.0
9.438850831049758e-5 -2.6924023495997004e-6 0.0
7.87657967109755e-5 -2.29733068602423e-6 0.0
0.00010070237666678768 -2.5303469964364477e-6 0.0
0.00010158183308602974 -2.5448896205003305e-6 0.0
7.68998579590634e-5 -2.215006800210671e-6 0.0
0.0001016510136667366 -2.860680268443983e-6 0.0
7.103172051962781e-5 -2.391858029689064e-6 0.0
7.114689941354722e-5 -2.625570674186846e-6 0.0
7.8657388559476e-5 -2.8351522468879855e-6 0.0
7.129615484154835e-5 -2.912405506260293e-6 0.0
7.756231469188323e-5 -2.5535400817730834e-6 0.0
0.00010302817930540836 -3.380233687047794e-6 0.0
7.110581442741962e-5 -2.2330568698447294e-6 0.0
0.00010274273653166283 -2.735391433174383e-6 0.0
7.873133408614722e-5 -3.130923472156721e-6 0.0
7.143336536721816e-5 -3.2331549437415222e-6 0.0
6.446986458053574e-5 -2.983016006740874e-6 0.0
6.35335466671886e-5 -2.1991723271838825e-6 0.0
6.330306416738892e-5 -2.0676571699933287e-6 0.0
8.646613680289172e-5 -3.0231667905531694e-6 0.0
8.631962591476927e-5 -3.3255873916435575e-6 0.0
9.343666882425796e-5 -3.201146903134326e-6 0.0
0.00010353405969989001 8.522324092536908e-7 0.0
0.00010501464835464902 2.178838774558957e-6 0.0
6.48878151128196e-5 -3.331165801707531e-6 0.0
5.841505694832727e-5 -3.0452902494628416e-6 0.0
5.815350887406433e-5 -2.7230242316241353e-6 0.0
5.2564541323605224e-5 -2.75068029307345e-6 0.0
0.00013361129552411847 -2.655190527513369e-5 0.0
0.00013221695331283524 -2.5772384929132517e-5 0.0
0.00018227177457813125 -1.3882864205584565e-5 0.0
0.00013896876476663712 -1.7901229642137815e-5 0.0
0.0001403949490552527 -1.884124395316608e-5 0.0
6.776008905784415e-5 -1.1217735117590721e-5 0.0
7.231238320477745e-5 -1.213210901627987e-5 0.0
0.00016805008720717935 1.695142169521625e-6 0.0
0.00013913625677505282 -6.719897619664642e-6 0.0
7.176753355111337e-5 -3.584714643518379e-6 0.0
4.316025248141136e-5 -1.7363908322824792e-5 0.0
4.30432433365817e-5 -1.5023005714796917e-5 0.0
4.548195806915873e-5 -1.4202534943876831e-5 0.0
0.00014685498745085375 -4.49170177818066e-6 0.0
0.00014162923668063646 -1.4026429169965332e-6 0.0
9.758452900931452e-5 -7.907009757864368e-6 0.0
9.184833537580481e-5 -8.129006690051934e-6 0.0
0.00013828303095915896 -2.021191143291029e-6 0.0
0.00013783842843219723 -1.9963853424976455e-6 0.0
0.00013952082042935577 -1.556468191641943e-6 0.0
0.00013722932561837064 -1.9514728917213933e-6 0.0
0.00013889095401074212 -1.925891753883534e-6 0.0
0.0001410213055947938 -1.8626733042938731e-6 0.0
0.00014079631882782856 -2.165809131891583e-6 0.0
0.00013857089552873417 -2.497214060830514e-6 0.0
0.00010967716125899211 -5.262367330780255e-6 0.0
0.00011415978165995154 -5.519194043212487e-6 0.0
0.00011448011157214313 -5.075857698921899e-6 0.0
0.00011827562859023023 -5.293897177449828e-6 0.0
0.00011857240638511065 -4.865516423251286e-6 0.0
0.00012177378675046424 -5.0536852131956934e-6 0.0
0.00012208955636405365 -4.628902646659582e-6 0.0
0.0001248923145050853 -4.787856169498223e-6 0.0
0.00012451781575309272 -5.258140151263295e-6 0.0
0.00012728741897840884 -4.901995047157852e-6 0.0
0.00013586495832174225 -6.0858985973200975e-6 0.0
0.00013410420644593724 -5.753484871354693e-6 0.0
0.00013210875082136795 -6.1126978897789605e-6 0.0
0.00013233235009197514 -5.4832946842228165e-6 0.0
1.2711356623619677e-5 -1.9832083736667374e-6 0.0
1.7561836423352336e-5 -1.041415520246534e-5 0.0
1.5806785673774548e-5 -9.048942636521803e-6 0.0
1.4892969425315626e-5 -7.940157326049629e-6 0.0
1.4055292280310587e-5 -7.708707443470849e-6 0.0
0.00012768323836265358 -8.634411648433953e-6 0.0
0.00015037975426926233 -5.160046872664566e-6 0.0
0.0001499543024277742 -6.286983048000116e-6 0.0
4.904883834967315e-5 4.60149135960673e-6 0.0
0.0001332997229603539 -2.4980162660222558e-6 0.0
0.00013354652765511224 -2.3223564006510196e-6 0.0
0.00013951070351566965 2.672416172863948e-7 0.0
0.0001932695701130099 -2.8134173412513623e-6 0.0
0.00019515505586544736 -1.8664796562659041e-6 0.0
0.00019624114596643766 -1.4861645586621661e-6 0.0
3.1483934613146178e-6 -6.336514985721097e-7 0.0
3.370746329493596e-6 -7.417516193207301e-7 0.0
5.2687277807360865e-6 -1.134631419387796e-6 0.0
3.7429537484235062e-6 -9.478153228705603e-7 0.0
5.541912941120009e-6 -1.456353120080637e-6 0.0
4.080818795565546e-6 -1.2311188527930894e-6 0.0
2.2411294319348463e-6 -6.738566878830954e-7 0.0
0.00012531781587846291 -9.011623435395865e-6 0.0
3.861995314182818e-5 -3.9263563448675754e-6 0.0
2.033959333712449e-5 -1.2028576364191468e-5 0.0
9.311920284809596e-5 -3.4910944335137305e-6 0.0
0.0001805621821148257 -1.5430497725536628e-5 0.0
0.00017961902181485518 -1.580727126477348e-5 0.0
0.0001620990056345632 -1.0961297882430527e-5 0.0
0.00016419720504814119 -1.1554656352587337e-5 0.0
0.0001645324020220637 -9.605282654878207e-6 0.0
4.936703054927789e-6 -3.8068716964007787e-7 0.0
7.344081373130188e-5 -2.8352047353023225e-5 0.0
3.985131821585952e-5 -2.208968620783917e-5 0.0
4.859714239552742e-6 -1.8714787333292788e-6 0.0
6.6139666458342924e-6 -2.975372513289848e-6 0.0
2.9086444164630537e-5 -3.543503218027848e-6 0.0
0.00014250521600062393 5.875384002529751e-7 0.0
0.00014400574466907158 1.4770055341250682e-7 0.0
0.00015824882679286217 -1.1230618360124804e-5 0.0
0.00016309140258355924 -1.3445816601174714e-5 0.0
6.565266331355019e-5 -2.7609587618445187e-5 0.0
8.148782780892949e-5 -2.862150999356174e-5 0.0
8.591449622310909e-5 -2.684023992293959e-5 0.0
0.00017364109327641788 -1.742400835309274e-5 0.0
0.0001727524843492426 -1.9071857385265897e-5 0.0
0.0001710236751375185 -2.0416325078109673e-5 0.0
0.00018637374928997548 -1.4541975390303044e-6 0.0
0.0001838288163949243 -1.3111373519396913e-6 0.0
0.0001807114347359421 -2.084151990213553e-6 0.0
0.00018096042719269786 -1.1228460218355142e-6 0.0
2.3529626844509674e-5 -3.389033086713477e-6 0.0
0.00017566188380658044 -6.124066535308747e-7 0.0
0.0001723775007872826 -4.4130108209476755e-7 0.0
0.00014057536546948333 -1.7240025421676172e-5 0.0
1.4863926484663917e-5 -8.654066075654272e-6 0.0
1.338232472678361e-5 -7.537018902454205e-6 0.0
1.2484617712836385e-5 -6.595382510924282e-6 0.0
1.1832885527903446e-5 -6.371885373504755e-6 0.0
0.00019671832471511823 -1.1776255653203267e-6 0.0
0.0001938030898033131 -4.5000321494438746e-7 0.0
0.00019559813957458936 -1.0263398122899536e-7 0.0
0.00016775904405261723 -2.2156888506283246e-5 0.0
9.851601131658842e-5 -5.622721991774849e-6 0.0
0.0001743960830088824 -1.792581612726012e-5 0.0
0.00017355703884236505 -1.9437811023884803e-5 0.0
0.00017506319766152906 -1.832722394436046e-5 0.0
0.00017429726397277107 -1.9862245495827352e-5 0.0
0.00017587348186014939 -1.8506533214927553e-5 0.0
0.0001767035633843813 -1.706305577514135e-5 0.0
0.0001773279933652578 -1.735063473257601e-5 0.0
0.00011985828824141829 -2.8650178194842445e-5 0.0
0.00011723485184282644 -3.0597773084979414e-5 0.0
0.00011298855055938733 -2.890185010478157e-5 0.0
6.539533084128164e-5 -3.7246730373090904e-6 0.0
2.8788133737019747e-6 -9.704439625816712e-7 0.0
4.446409090164519e-6 -1.5415233413247713e-6 0.0
3.258195283780288e-6 -1.176465480338124e-6 0.0
6.291742323595791e-5 -2.940954776272886e-5 0.0
5.9259261330199474e-5 -2.6894291908763343e-5 0.0
0.0001856197878407 -1.1406466242499014e-5 0.0
9.402212618412125e-6 5.146652440207627e-7 0.0
0.00013027626710832078 -5.896165350090591e-6 0.0
0.00013060571656407953 -5.275830435926716e-6 0.0
0.0001846871851959473 1.2363085519713201e-6 0.0
0.000190060984968089 9.42878394740031e-7 0.0
0.0001747098103450231 -1.3161860707577172e-5 0.0
2.550333197031331e-5 -1.3901799537847265e-5 0.0
2.6505981598968667e-5 -1.5583005061085218e-5 0.0
0.0001557234872827881 -1.131738389655578e-5 0.0
0.00015356341478800714 -3.1070888687199807e-7 0.0
0.00018967992771890343 -7.887133743409906e-6 0.0
0.00019395371908225773 -3.976359753195603e-6 0.0
0.00019627083027955232 -1.7999279546745577e-6 0.0
0.0001515067915652008 -2.2094939618214672e-7 0.0
0.00017080875862151207 -1.1009334674564252e-5 0.0
0.00011423882667430622 -2.0807629112235914e-5 0.0
0.0001746523880180257 -2.6364242010475777e-6 0.0
0.0001666179495763052 -1.1611307632783796e-5 0.0
5.671913088914712e-5 -9.674826134278024e-6 0.0
2.5915911850428333e-5 -1.2192897053133494e-5 0.0
0.00018906569538817877 -1.4518875740668233e-6 0.0
0.00015884198876158287 7.189670550479555e-7 0.0
5.9429207950186384e-5 -2.986578683327508e-5 0.0
2.0210159086204386e-5 -2.9818483074894004e-6 0.0
0.00013268418965657229 -2.7828723466131887e-6 0.0
0.000165753709531099 -2.1202986068690288e-5 0.0
0.00016542301836550285 -2.263104255418339e-5 0.0
3.362893010623581e-6 -1.0849185582951274e-6 0.0
0.00014223121162293477 -2.365015322632982e-5 0.0
0.00014171098388152424 -2.491032978081527e-5 0.0
8.539959356493288e-5 -3.1474961145492314e-5 0.0
9.020666767837451e-5 -2.903848240987101e-5 0.0
9.037911552287777e-5 -2.5084932717207064e-5 0.0
9.483503968497272e-5 -2.6987741960631502e-5 0.0
8.993647878208477e-5 -3.262593219635302e-5 0.0
7.128291741217912e-5 -2.1751087977679956e-6 0.0
6.337996209457534e-5 -2.0709334487399105e-6 0.0
1.8730783400630687e-5 -1.474026905766939e-6 0.0
6.826755106160011e-5 4.10448715442356e-6 0.0
6.531260534747564e-5 4.381030326575842e-6 0.0
0.00014243288407333294 -2.7644021026219606e-7 0.0
0.00016312865051662528 -2.335019897279783e-5 0.0
0.0001617797860581994 -2.413127868297638e-5 0.0
1.2662806065214893e-5 -7.248192707513609e-6 0.0
1.1116573806122946e-5 -6.034699565066354e-6 0.0
0.00019632070590486404 -3.4340592280271476e-7 0.0
2.264937620046443e-5 -4.9702033745986855e-6 0.0
1.988967104391384e-5 -4.416358461463321e-6 0.0
0.00018184807585125168 3.3893892574416324e-7 0.0
0.00018438089491340257 -1.1973492260962751e-5 0.0
0.0001827451170442601 -1.4029438949072193e-5 0.0
0.00013471066130014617 -2.7690416643151526e-6 0.0
0.00014555090326389726 -2.446236934041707e-5 0.0
0.00014383158319295842 -2.5446554712533198e-5 0.0
4.950083765696476e-5 -5.229473534534682e-6 0.0
4.995140242231419e-5 -4.844424038550723e-6 0.0
9.521228551686408e-5 -2.3450275800989097e-5 0.0
0.00017510977758677433 -1.5514648496576623e-5 0.0
0.00012519310361167887 -4.359239496749825e-6 0.0
0.0001226607815494507 -4.221169928248009e-6 0.0
4.290191116004311e-6 -1.5527102077672635e-6 0.0
5.955664086778172e-5 1.7977554129408467e-5 0.0
0.0001146389511217983 -4.6457803199778164e-6 0.0
5.670507292314428e-5 -2.005717580343473e-6 0.0
5.726006504197771e-5 -2.1890133762007955e-6 0.0
2.717910013347558e-5 -1.5124980882922854e-6 0.0
0.00014295680283855683 -1.8167405956080848e-6 0.0
9.954664965393174e-5 -3.3634546898056663e-6 0.0
9.996476704032314e-5 -3.1065768965220743e-6 0.0
0.00010562178493646833 -3.260086410110797e-6 0.0
0.00010584476150871601 -3.0371124488710603e-6 0.0
0.00011092982206018596 -3.153693419780395e-6 0.0
0.00011118387897434824 -2.9619535350273756e-6 0.0
0.000106021247646805 -2.850508785780099e-6 0.0
0.00011137801511035699 -2.803697457013712e-6 0.0
0.00010626010899001634 -2.7099517562201216e-6 0.0
0.00011166430356570925 -2.6909867290641324e-6 0.0
0.0001156042771535793 -3.055568422086477e-6 0.0
3.643304875122026e-6 -4.937372452868331e-7 0.0
0.00014039064485976986 -2.5834957793639454e-6 0.0
9.992178333810347e-5 -5.191618773242317e-6 0.0
0.00010278371653818597 -9.030986426283322e-7 0.0
0.00011033799815460209 -2.8902449418684783e-6 0.0
0.00010940932149999837 -3.6068210605409255e-6 0.0
0.0001098277913328536 -5.583100158399583e-7 0.0
0.00010318788185881628 -3.426376300112978e-6 0.0
0.00010989303504250583 -3.82544464226633e-6 0.0
0.00011673604483986252 -4.037403281742388e-6 0.0
0.00011611566861670379 -2.095138633361447e-6 0.0
7.16621996177701e-6 -1.6350084061861175e-6 0.0
7.536700049948534e-6 -2.1031699058947607e-6 0.0
0.00019592069190348574 3.663993969423024e-7 0.0
0.0001905754004367022 6.855969532661108e-7 0.0
0.00019015660149822314 5.8140145282499e-7 0.0
0.00015928405835552743 -2.4360418777548413e-5 0.0
0.00015758997893477696 -2.496036499745184e-5 0.0
4.274180340026025e-5 -1.2879722625124032e-5 0.0
4.527289492581096e-5 -1.2051055300727587e-5 0.0
4.027458883370307e-5 -1.3618898096368716e-5 0.0
5.1089362366451486e-5 -2.0011939494693693e-6 0.0
0.00011568947434446491 -3.874490467118395e-6 0.0
0.00011667802162830529 -2.7539332294623057e-6 0.0
0.00011662476277292768 -2.662138928474822e-6 0.0
0.00011186709495829689 -2.6286671418287896e-6 0.0
0.00011669746313847773 -2.6446767552620033e-6 0.0
0.0001123111951728265 -2.6185065111430812e-6 0.0
4.4729384919515456e-5 -2.238180613538804e-5 0.0
0.00019541905334441413 2.819813496699839e-7 0.0
0.00011174472829850063 7.224040320414659e-7 0.0
0.0001410861367856494 -5.714131936548861e-7 0.0
0.00014114175593249532 -1.036245541843103e-6 0.0
0.00013917377383101045 -1.8224254009892599e-6 0.0
6.0811568500217324e-5 3.1543294183947726e-6 0.0
0.00010253345494734031 3.105766727134039e-6 0.0
9.705343132454798e-5 4.26675065338365e-6 0.0
9.368788263177736e-5 4.2824513872041985e-6 0.0
0.00014679627224159286 -2.559940019780153e-6 0.0
0.00016937055332299442 -2.1256318584474456e-5 0.0
0.0001686244744129292 -2.2824872257593963e-5 0.0
4.215524576737048e-5 -2.3860424592610554e-5 0.0
9.962850290996888e-5 -2.5266660079867943e-5 0.0
9.939112903988664e-5 -2.8846543195769806e-5 0.0
0.00010386322084566328 -2.7092749401831898e-5 0.0
0.00010414231127748951 -3.108400542553444e-5 0.0
0.00015192655826470238 1.5461322087207067e-6 0.0
0.00014977768166849408 1.2207393211031197e-6 0.0
0.00015282703304658103 1.480615146306845e-6 0.0
0.0001553310532257227 1.7076087366456876e-6 0.0
0.00013272780050344884 -4.923667853567411e-6 0.0
0.00013124224496878807 -4.707825348898086e-6 0.0
0.00010816979771071096 -2.8726990683738904e-5 0.0
5.367441239569136e-5 -3.148125342304376e-6 0.0
2.5499250982137586e-6 -8.038670015409302e-7 0.0
0.0001020433097705759 -3.1230513956544496e-6 0.0
0.00010809411793119631 -3.1026564355136556e-6 0.0
0.0001080475176786782 -2.878635000796458e-6 0.0
0.00011423831691198679 -3.078924075243158e-6 0.0
0.00011394177545640582 -2.8758518536611084e-6 0.0
0.00011420795509759228 -3.306255511132093e-6 0.0
0.00010870095159666042 -2.733762402523234e-6 0.0
0.00011384430273044655 -2.7422718088224726e-6 0.0
0.00011992454926080868 -3.2351234848239346e-6 0.0
0.00014707176781134532 8.574616004224889e-7 0.0
0.00010904267485299955 -2.6402345530122706e-6 0.0
0.00019748889118177828 3.5511695406700865e-7 0.0
8.604261803689983e-5 -3.65792091674943e-6 0.0
0.00011924215736316355 -1.7933418584593676e-5 0.0
0.00012196298279891656 -1.7208123670602996e-5 0.0
0.0001086956148227588 -3.3745595558781057e-6 0.0
0.00011511304409547981 -3.611158874623855e-6 0.0
0.00013627979712828835 -5.42551804952269e-6 0.0
0.00015664586561825808 -2.097493455245692e-5 0.0
0.00015513760438978785 -2.189019462966515e-5 0.0
0.0001550574679257171 -2.3410738109371672e-5 0.0
0.0001537504514071291 -2.27703991666164e-5 0.0
0.00015373612004503928 -2.4154403519853402e-5 0.0
0.00015236571966696692 -2.36214490655933e-5 0.0
0.0001696091970240446 1.1594722506563264e-6 0.0
0.00016695860342928718 8.505044065147348e-7 0.0
0.00016840614368236328 6.418316769178496e-7 0.0
0.0001644746946824161 4.619992260492494e-7 0.0
0.00016573015524817445 1.8405510586246562e-7 0.0
0.00016199617464401542 -2.7824712348485276e-8 0.0
0.00016324203722092184 -3.860865054910581e-7 0.0
0.00016075788092624767 2.402154397632682e-7 0.0
0.0001585152433376491 -2.541704469770976e-7 0.0
0.00016685053170786466 -1.8499784923983575e-7 0.0
0.000157322555696493 -8.980544914569829e-9 0.0
0.0001642725788357191 -8.62528381093438e-7 0.0
0.00016099273904375506 -1.0606198310490755e-6 0.0
0.00016181073729266282 -1.6698136740128282e-6 0.0
0.00015952522055739354 4.2022917290709157e-7 0.0
0.00016536154534511698 1.0229572531248133e-6 0.0
0.0001679010939427832 -7.136094215919181e-7 0.0
0.00017287660304091948 7.289425564477417e-7 0.0
0.00017034629147744592 -3.767629962696169e-8 0.0
0.0001358923974894732 -2.5380094677210976e-6 0.0
9.983405559376786e-5 4.233210298104129e-6 0.0
6.14442605221406e-6 -1.9643446028446555e-6 0.0
7.316941703793228e-6 -3.3828113216327687e-6 0.0
8.848748608057699e-6 -4.473302812816821e-6 0.0
0.00010823920396771811 -2.550271493201278e-5 0.0
0.00013814653246322302 -5.824801532680519e-6 0.0
0.00013707462232050125 -1.7730975056466516e-6 0.0
0.00013482258219906293 -2.0234344182585044e-6 0.0
0.0001354183508144116 -2.041213533249868e-6 0.0
0.00013464884635794704 -1.993165859594881e-6 0.0
0.00013640833124490152 -1.8082737763826517e-6 0.0
0.0001342585602695957 -2.0324849455226917e-6 0.0
0.0001338375066533055 -2.1210840039613384e-6 0.0
0.0001322366629208195 -2.2174892048177724e-6 0.0
8.927108089153938e-6 -4.289883829422269e-6 0.0
0.0001440817237757443 -5.775848083829589e-7 0.0
0.00015959539414658864 1.5651067412593488e-6 0.0
0.00015538887044004644 1.364753920782562e-6 0.0
4.169628397096973e-6 5.56089838423337e-7 0.0
1.070794281494655e-5 1.260572920210264e-6 0.0
9.527957272901576e-6 1.1675579855540822e-6 0.0
0.00014528609014569208 -6.58836595371738e-7 0.0
1.1108247952299527e-5 -5.332471707711207e-6 0.0
1.3127781370993917e-5 -6.66426555635818e-6 0.0
1.4137502298586346e-5 -6.955346896058405e-6 0.0
1.3681298979678254e-5 -6.037045559301452e-6 0.0
1.4803631034310574e-5 -5.9047459874020455e-6 0.0
0.00010096700461338342 -2.5014797057124196e-6 0.0
4.841801973465489e-6 -6.364632883737012e-7 0.0
2.954483692894433e-5 -3.1020653851802406e-6 0.0
2.2683325193655152e-5 -2.7508919278474804e-6 0.0
0.00011522419941942824 -3.881175947509117e-6 0.0
1.706582724041898e-5 7.798297008088571e-6 0.0
0.00015305765496678579 -2.073881785284751e-5 0.0
0.00014166903187190673 -1.0762447279857034e-6 0.0
0.00018636984072650304 -1.1059932271410507e-5 0.0
0.00015983664084805497 -5.873989199871145e-7 0.0
0.0001565081245818664 -8.103553462572345e-7 0.0
0.0001563355273353719 -2.4191807689282195e-5 0.0
0.00019777951747138126 3.134882245187693e-7 0.0
0.00019517821975299082 5.446324352182084e-7 0.0
0.00019580380414180155 4.086911560871762e-7 0.0
0.00019465657279408145 6.310609758098884e-7 0.0
0.0001923098623623079 6.353421270969028e-7 0.0
0.00019426206059975135 6.683531983373057e-7 0.0
0.00019042904319271057 9.117469382530459e-7 0.0
0.00019128123842047134 8.066489851072596e-7 0.0
8.655405833594815e-7 -2.80793979368412e-7 0.0
0.00019879140478814254 -2.5319479697344725e-7 0.0
0.00019721787921099052 -4.7154134981977545e-7 0.0
0.00019821206687325194 -3.744825165282382e-8 0.0
0.00019734368958979927 -6.606277614558893e-7 0.0
0.00014115536554458146 -9.71979213907573e-7 0.0
0.0001607113100234788 -2.3376662889232212e-5 0.0
9.739550789467035e-7 -3.518356216870696e-7 0.0
0.00019891762256343457 -3.748384720551585e-7 0.0
7.479655385711167e-5 4.3310550261425557e-7 0.0
0.0001659370882864762 1.5044639454209903e-6 0.0
4.9642974440707523e-5 -1.9329863833276825e-6 0.0
5.718268313688672e-5 -2.171937055791115e-6 0.0
5.772602910863969e-5 -2.2807138511833636e-6 0.0
5.661935029629946e-5 -1.995926170443777e-6 0.0
6.413865774949716e-5 -2.1962694615874336e-6 0.0
6.702191323439e-5 -2.4058270660439026e-6 0.0
6.730933898467617e-5 -2.488304986082986e-6 0.0
5.88471986100236e-5 -2.128344183872224e-6 0.0
5.264249154263776e-5 -1.2546894955506622e-6 0.0
5.00148016507129e-5 -1.7869074581400086e-6 0.0
0.0001721931218801413 -2.048518226697394e-5 0.0
0.00019733063144271616 3.18999861351176e-7 0.0
9.584435050094802e-5 -2.043615965925448e-5 0.0
1.9658578245560664e-5 -1.2085110999068024e-5 0.0
0.00011341978531743016 -1.863722036497443e-5 0.0
6.923867537552691e-5 -2.6215136764695555e-5 0.0
6.934038447619566e-5 -2.9878385643200625e-5 0.0
0.0001211353709365365 -2.6335608754255207e-6 0.0
0.00014530352639452302 -1.025793751233739e-6 0.0
0.0001760107743331237 1.0188654438900468e-6 0.0
0.00017846859419614507 1.1050448678411582e-6 0.0
0.0001735591114572629 1.4515141541573178e-6 0.0
7.091393729713187e-6 -1.3312559293226467e-6 0.0
1.849956426422201e-5 -1.1546185224554011e-5 0.0
9.240838799676148e-5 4.2135631950362625e-6 0.0
7.412642294283886e-5 5.406668744756444e-6 0.0
0.00015196504337608078 -2.712477597382004e-7 0.0
9.88958895085766e-5 3.4851346541928936e-6 0.0
0.0001821122128565379 -1.2056376858584897e-5 0.0
0.000112488395957531 -1.2686256379953497e-5 0.0
0.00014994454294582572 -2.199751358298733e-6 0.0
0.00015163700434898004 -9.27421741912339e-7 0.0
6.26543163821899e-5 -5.714794892950753e-7 0.0
4.065995332821741e-5 -2.4240314507608126e-5 0.0
0.0001803946047889688 -1.4316851099139085e-5 0.0
2.1342244276975814e-5 -1.2156532325690859e-5 0.0
2.299540094916824e-5 -1.3427380902847075e-5 0.0
2.2530706959173483e-5 -1.3786372899943198e-5 0.0
3.7647447026665326e-5 -3.262220757337036e-6 0.0
0.00013540924352930194 -2.0663343160214447e-6 0.0
0.0001433048184699792 -9.970561125928451e-7 0.0
8.663642513218953e-5 -2.7536193222817534e-6 0.0
9.368731512800713e-5 -2.9371421174530284e-6 0.0
0.00019388047276022892 3.637351617087139e-7 0.0
0.00018427957784468066 6.345699017632108e-7 0.0
4.787807743244071e-6 4.5497448040878377e-7 0.0
9.586630902849478e-7 -3.3778819487618514e-7 0.0
0.00011606223881206278 -2.881493269506815e-6 0.0
8.756937900722061e-7 -2.7492766583890767e-7 0.0
3.2774021770934395e-6 -5.712127710487738e-7 0.0
0.0001116203368218663 -1.697616966970325e-5 0.0
0.0001450118583705859 -2.2531920248225043e-6 0.0
0.00010583368124547296 2.546919897393755e-6 0.0
0.00014163240292517032 -5.6329732116554e-6 0.0
0.00011764797931232017 -2.662280869574258e-6 0.0
0.0001670496608151713 -8.14483491397902e-6 0.0
0.00018690241380891947 -9.223394208846697e-6 0.0
5.3122231215234984e-5 -1.0116100080856387e-5 0.0
5.337079210211526e-5 -1.1786534953741824e-5 0.0
4.992121322797247e-5 -1.0487335904369701e-5 0.0
4.655245354464013e-5 -9.341672712637613e-6 0.0
1.1478816161640526e-6 -3.852457826040823e-7 0.0
2.310084465825539e-6 -7.838690762271171e-7 0.0
2.3403720872133195e-6 -8.44652063559713e-7 0.0
4.2140862187975975e-5 -5.110108646107309e-6 0.0
3.886356713355557e-5 -5.120117039315424e-6 0.0
0.00019884528247245782 -3.167308646658694e-7 0.0
0.0001319004657173749 -2.7911504728933972e-5 0.0
0.00013044816117770957 -2.7119806224330768e-5 0.0
0.00013007292744412314 -2.936585097507807e-5 0.0
0.0001285141224165425 -2.8589896744592692e-5 0.0
0.00012637087516751062 -3.0122492075516975e-5 0.0
0.0001264231769857599 -2.73018219607684e-5 0.0
0.00013055162316365072 -2.4659320637349105e-5 0.0
0.00014967440609681688 -1.2068992613503074e-6 0.0
1.5062876911458997e-5 -1.1842914751455625e-6 0.0
1.825048584339093e-5 -1.732141553526894e-6 0.0
1.5215462661512862e-5 -1.681238191023654e-6 0.0
0.000143602442514301 -5.228737050703112e-6 0.0
3.9116692729855096e-5 4.603402963133416e-6 0.0
0.0001267143730598386 -5.449293857917439e-6 0.0
1.0080105920729276e-6 -2.88643237468377e-7 0.0
5.6424986316143214e-5 -2.7504202542715245e-5 0.0
5.3569187372182076e-5 -2.7583095129967526e-5 0.0
5.394209198663438e-5 -2.5180930357944906e-5 0.0
6.908793272119914e-5 -2.2674309688149216e-5 0.0
5.328667746653616e-5 -8.603932968415925e-6 0.0
1.7423084176641486e-5 -2.9308852052980046e-6 0.0
9.307519563856782e-6 -2.8424367591529624e-6 0.0
0.0001982235268673046 1.8578577344862729e-7 0.0
0.00019642974265539836 2.3343878073090687e-7 0.0
2.9536858229677216e-5 -1.7045649517821045e-5 0.0
3.7342672512589836e-5 -2.0183888990144973e-5 0.0
3.569716127817382e-5 -2.044339472363761e-5 0.0
3.3281253708046375e-5 -1.8641724360812146e-5 0.0
3.4047274938976304e-5 -2.04460344185923e-5 0.0
0.00014200790935499965 -4.81381176039595e-7 0.0
0.00011318309992795037 9.350884914250052e-7 0.0
0.0001470688006938 -2.3724094467398505e-5 0.0
0.0001483451222419988 -2.4485871195622747e-5 0.0
0.00014976532768168815 -2.378407086201557e-5 0.0
0.00014669599132675519 -2.536941655579237e-5 0.0
6.079801080389003e-5 -9.576107135999256e-6 0.0
0.00013614701445469917 -1.6007116160474917e-5 0.0
0.00010431164974892732 3.447160155918442e-6 0.0
0.00010139856249851453 -2.64732718471028e-6 0.0
0.00019889509957552733 -4.011219443067999e-7 0.0
0.0001977674876672983 -9.057296881910747e-7 0.0
0.00019741534782602237 -9.983642390126875e-7 0.0
3.177314972986085e-5 -1.8720906904883026e-5 0.0
3.0393696107592428e-5 -1.8645160618463864e-5 0.0
5.537821759321386e-5 -1.928113653702139e-6 0.0
4.364156004073644e-5 -1.0044058767934865e-5 0.0
0.00018946885405295264 -4.7137801177171526e-6 0.0
0.00015614807412473217 6.748341787950251e-7 0.0
0.00011496409691923209 -3.255555475485739e-6 0.0
0.00011910114728966537 -3.1147952873954388e-6 0.0
0.00014174617878918067 7.312214109707856e-7 0.0
0.00015849657228220675 -1.8524162027848584e-5 0.0
0.00010773278362947036 -1.3140430018665883e-5 0.0
0.0001077481305026299 -1.463624989096234e-5 0.0
1.4642494639773819e-5 1.3128426713850085e-6 0.0
3.8240332088496316e-5 -1.1397425626601475e-5 0.0
3.571385997495781e-5 -1.1842616847792693e-5 0.0
3.3114706490968756e-5 -1.0509179368219009e-5 0.0
3.3387617391194345e-5 -1.2446141938737515e-5 0.0
2.7488614907424077e-5 -1.3308644293272754e-6 0.0
2.785790405476479e-5 -1.331934513480598e-6 0.0
3.1797593165185366e-5 -1.8380585264790468e-6 0.0
0.00014807810514021115 -2.598574939690631e-5 0.0
0.00014456578216077369 -1.748823030977003e-5 0.0
0.000142889202483615 -1.8295784058503886e-5 0.0
0.0001445457957728705 -1.936779890339923e-5 0.0
0.00014285603366326094 -2.0233761173590505e-5 0.0
0.00014396672451130724 -2.0900391319047736e-5 0.0
0.00014609936639322475 -1.828070263491357e-5 0.0
0.00014753870753221403 -1.889404075722832e-5 0.0
1.2296980135513157e-6 -3.301796354001001e-7 0.0
0.00019899157784420942 -3.8012746963306256e-7 0.0
0.00017019672484321597 -1.9679865693169025e-5 0.0
0.00013922664517365625 -2.5250225737618038e-5 0.0
0.00018682206867301937 5.896880024341401e-7 0.0
0.00013688285295360592 -2.420314831869953e-5 0.0
0.00013641292564326742 -2.5823226383662376e-5 0.0
0.00015941468891992938 -9.518539649853485e-6 0.0
0.00014880489525011576 -3.925007223966307e-6 0.0
0.00014713201898335413 -3.656784658044956e-6 0.0
5.8080523888392045e-5 -2.0531578940196026e-5 0.0
2.664299128236868e-5 -1.0131883019211245e-5 0.0
0.000158549366140566 -1.9084217376463905e-6 0.0
0.00016590221874207244 -1.9583295894754813e-5 0.0
7.115798228324835e-5 -6.57855363062073e-6 0.0
7.661655953743437e-5 -6.484476566918653e-6 0.0
7.618052195837647e-5 -7.071500767718661e-6 0.0
7.720408493726923e-5 -5.9655861517707495e-6 0.0
7.081112794231126e-5 -7.179925824252452e-6 0.0
8.225398599071625e-5 -6.429676690877632e-6 0.0
8.322381090027007e-5 -5.938802207869788e-6 0.0
8.498989113925143e-5 -5.424966664969874e-6 0.0
0.00015584016369399925 1.0678227327559668e-6 0.0
1.095811072630818e-5 8.594498608316337e-7 0.0
0.0001552718362897078 -5.034154195026224e-7 0.0
0.00016456989346773327 -7.790956061841642e-6 0.0
2.51001102703858e-5 4.567039554592006e-6 0.0
1.9577511531170977e-5 -1.1726738530267223e-6 0.0
3.218324002011428e-5 -1.4130451332308745e-6 0.0
2.2580370953728425e-5 -9.180906979081713e-6 0.0
7.147665819020381e-5 -5.567084050135758e-6 0.0
4.595078201180108e-5 -4.418076020632753e-6 0.0
5.121777127368344e-5 -4.5097954357647954e-6 0.0
5.4736990523954795e-5 -4.966154921447313e-6 0.0
0.00012199519739161126 -2.725019156855735e-5 0.0
0.00012413330584497127 -2.8748851599009064e-5 0.0
0.00012385630418769236 -3.2106521371682305e-5 0.0
0.0001265379048628637 -2.4556200968442913e-5 0.0
0.00016405468047501256 -2.0232326482766656e-5 0.0
7.866632333631602e-5 -3.4523056329456132e-6 0.0
0.0001562331599786315 -6.554749864363776e-6 0.0
6.895133470331965e-5 -1.9476426030777484e-5 0.0
0.00013057586997132088 -2.2276773118784556e-5 0.0
7.678148685145579e-5 -3.086634008447703e-5 0.0
0.00018696451609806356 1.118881103634567e-6 0.0
0.00012422798309108055 -5.777228502505057e-6 0.0
1.5032420678836073e-5 -2.413222503293317e-6 0.0
8.107517258085925e-5 -1.1279134317009973e-5 0.0
8.629268692805176e-5 -1.2208660770651678e-5 0.0
7.086283979690117e-5 -9.60822717912544e-6 0.0
8.169736528485851e-5 -2.141536000784471e-5 0.0
0.0001385799197733782 -9.787021274257117e-6 0.0
0.00013673452744726835 -1.0303792993100795e-5 0.0
0.00013840945436663366 -1.0998505649009734e-5 0.0
0.00015415584890995004 -2.775870814230304e-7 0.0
0.00011254255273516212 -1.1460571040009302e-5 0.0
6.153405645842182e-5 -8.127319512077723e-6 0.0
0.00013684156752902552 -2.4736188941551477e-6 0.0
0.00013635080702349082 -2.819869841206136e-6 0.0
1.684985505757484e-5 -6.890025645286045e-6 0.0
4.4191402197052285e-5 -2.0006983571798024e-5 0.0
0.0001500006392405224 -2.220563170337002e-5 0.0
0.00013735365041854373 -1.8110665422437313e-6 0.0
0.00012902642144675054 -1.379676489834758e-5 0.0
0.00012686264351927746 -1.4349555714678655e-5 0.0
0.0001267544012640772 -1.5959743555921072e-5 0.0
0.0001245299836144739 -1.4910830758417443e-5 0.0
0.00012444653323841957 -1.6606269560102866e-5 0.0
0.00012882015446369702 -1.7018922569457232e-5 0.0
0.00014209613205951185 -9.531490324948057e-7 0.0
9.76137164229417e-5 -8.636975589147479e-6 0.0
9.213696811589885e-5 -8.873371052395769e-6 0.0
0.00013521351005338998 -8.62977476542432e-6 0.0
6.599842343768655e-5 -9.830843009499512e-6 0.0
0.00013479731888098228 -2.696832361833093e-5 0.0
0.00010251308554625881 -1.2256745638286592e-5 0.0
0.00012467976877168768 -1.344120535619118e-5 0.0
0.0001549360493850446 -2.486211814113169e-5 0.0
0.00011393400065767319 -6.026029366983188e-6 0.0
0.0001921525186895174 -1.0747903222700221e-6 0.0
0.00012514836820656658 -9.942865180521182e-6 0.0
3.507787042026059e-5 -5.830518334557116e-6 0.0
0.0001190601143598123 -5.699065421784966e-7 0.0
0.00015353017944666104 -1.9159388226941057e-5 0.0
0.00018348782833573055 8.071309533182574e-7 0.0
2.100261221898511e-5 -1.417762319374597e-6 0.0
2.2226137955723814e-5 -1.013883183960175e-6 0.0
2.5170188240622757e-5 -1.5325319951675065e-6 0.0
2.7348243374120657e-5 -1.5021913795813447e-6 0.0
3.068577204854145e-5 -1.699088328282117e-6 0.0
0.00015339794820679078 -1.0546605263462408e-6 0.0
9.479132043437849e-5 -3.1382249251138404e-5 0.0
0.0001180087643242523 -5.79396209965817e-6 0.0
2.515687473422353e-6 -5.321429420451936e-7 0.0
9.687617394703123e-5 3.161151180932943e-6 0.0
8.808562656631648e-5 4.067307278474428e-6 0.0
0.00014804645610744894 8.390315538330213e-7 0.0
9.110037328556448e-5 -1.892429129771952e-5 0.0
0.00011406590096672457 -2.575483714892572e-5 0.0
9.331391106458267e-5 -3.849566888293486e-6 0.0
0.00013348537115131663 -8.132899895348705e-6 0.0
0.00013153885390123645 -7.626273007388398e-6 0.0
0.0001319311301107521 -6.788956985263842e-6 0.0
0.0001392823724009339 -1.9176136682338024e-6 0.0
8.147925690506625e-5 -1.266633630498432e-5 0.0
4.208107564739413e-5 -4.005545782503539e-6 0.0
8.64926937090218e-5 -7.53711302060825e-6 0.0
6.104455615823797e-6 -2.2314352652961132e-6 0.0
0.00013116426267508816 -2.724737536921593e-6 0.0
3.250882752841104e-5 -1.674324637209652e-5 0.0
0.00012985185664800855 -8.226287276419008e-6 0.0
5.864339930005191e-5 -2.3641538191817e-5 0.0
0.0001525358459051314 -4.416927121495696e-6 0.0
0.00012049999353906555 -8.048875332870726e-6 0.0
0.00012208200631091455 -1.548614344937848e-5 0.0
0.00017962674606552726 -9.427469778303172e-6 0.0
2.8372709782824304e-5 -1.70268892398904e-5 0.0
0.00018715495100824977 -1.0772735892770887e-5 0.0
9.242985291143261e-5 -5.595063366061574e-6 0.0
0.00012007617875006002 -9.728384212634322e-6 0.0
1.0381434733361737e-5 -1.6015442206748808e-6 0.0
0.00018042155694362875 -3.3283793489279405e-6 0.0
0.000134266432786631 -1.8428914869565657e-5 0.0
2.5752975674435254e-6 -5.314719291107206e-7 0.0
0.0001278370305786271 -4.064029224262769e-6 0.0
0.00012758920832926194 -4.442127453130299e-6 0.0
0.0001907046219151604 4.903800015151216e-7 0.0
0.00013318434791403277 -2.8201530678862382e-5 0.0
2.4857542798197858e-5 -1.0466528778253603e-5 0.0
0.0001954287045281933 -2.018312818563385e-6 0.0
0.0001299961411264566 -6.47674555894492e-6 0.0
0.00012336703952206735 -7.745327736792664e-6 0.0
0.0001414461286111568 -1.5714122722745966e-5 0.0
0.0001397324048831576 -1.4741477779555226e-5 0.0
0.00013457318859734637 -1.501476092794088e-5 0.0
0.00011775903160857025 -6.3474479499166995e-6 0.0
0.00013619723869079013 -2.8084883955422888e-5 0.0
0.00014259000881283021 -2.6988914642214235e-5 0.0
0.00010656919155808892 -3.480092256032901e-5 0.0
0.00011878714542653849 -3.338369963611407e-5 0.0
0.00015161804249230737 -2.625763277766836e-5 0.0
0.0001510017161723103 -2.4727968390860226e-5 0.0
6.978530133701821e-5 -3.329635407674536e-5 0.0
4.760605782541776e-5 -2.742666589778756e-5 0.0
0.00013938283668844912 -2.7421237409897036e-5 0.0
7.854242050499502e-5 -3.4929302678026554e-5 0.0
0.00010279509040916757 -4.7874460669687034e-6 0.0
0.00017639618143286002 8.568058702115705e-8 0.0
0.00015347931116069572 -1.2162144442199265e-5 0.0
0.00015302103546689026 -1.3726209515445478e-5 0.0
7.592731774936438e-5 -7.774239279203343e-6 0.0
0.0001408154266679594 -7.189295658820444e-6 0.0
0.00012223941668755074 -1.9142825883510873e-5 0.0
4.0558787051839216e-5 -1.7143085833402257e-5 0.0
2.7330537856160398e-5 -5.510453441553131e-6 0.0
0.0001033590941197725 -7.671449432338642e-6 0.0
0.00017900791642269388 1.4644740235904262e-6 0.0
7.66016493151109e-5 -2.6733517059502195e-6 0.0
0.00012150113525662659 -5.535537576209615e-6 0.0
0.000135066391842421 -9.72992093802957e-6 0.0
9.666948430695859e-6 -4.960376800624051e-6 0.0
1.0427295016747702e-5 -5.678902620395889e-6 0.0
0.00010199236176087052 -1.5211016999994293e-5 0.0
7.272054761827434e-5 -1.3826273355594885e-5 0.0
0.00012734295402568456 -1.0552715493069072e-5 0.0
0.00018872860090306498 5.108311448507302e-7 0.0
0.0001323338004990306 -2.348145401308172e-5 0.0
0.00019731947312665715 -1.243192010305182e-6 0.0
0.0001944282786019085 -3.922153789033436e-6 0.0
4.815533549598325e-5 -2.8374943796662765e-6 0.0
0.00010837050510577981 -8.893937636164038e-6 0.0
0.00011651387165651249 -1.2244415070310882e-5 0.0
0.00019365469313113249 6.766350763293961e-7 0.0
0.00012287524721195131 -4.181618316928438e-6 0.0
0.00014911704394961116 -1.825312768731668e-5 0.0
0.00015127538979395772 -1.4452637470715457e-5 0.0
4.594266317936638e-5 -2.491341814688799e-5 0.0
0.000143720925750275 -1.0613786720733106e-5 0.0
0.00010867246745996667 -7.436211142588691e-6 0.0
0.00014742135273452687 -9.384663720337651e-6 0.0
0.00014714347583994177 -1.0749275178718262e-5 0.0
0.00014931185822324934 -8.73904373698949e-6 0.0
3.6334902903276744e-5 -2.233401334242659e-5 0.0
0.00016335000036917874 1.2019530889413767e-6 0.0
0.00013747853608463232 -2.6437127122148065e-5 0.0
0.0001699473930076162 -2.1860822871579877e-5 0.0
0.00015833792419992797 -7.185515863265909e-6 0.0
0.00012322219741999328 -3.86142021557701e-6 0.0
0.0001428202452977061 -2.2011529324832728e-5 0.0
8.64697275371011e-5 -1.3673520235909415e-5 0.0
9.702333990491474e-5 -6.059124481554089e-6 0.0
0.00018855795979800364 8.225906341044678e-7 0.0
3.3037102664710984e-5 -3.4815572616617167e-6 0.0
0.00015427653033750764 -1.4393261527985068e-6 0.0
0.00012245421843618264 -2.769094571964439e-6 0.0
0.00014245964588966093 -7.630421775537278e-6 0.0
0.0001820576560868261 -2.627178027687235e-7 0.0
9.054397922641147e-6 -1.8124241655457053e-6 0.0
0.00015585054862553128 -1.5240886488872716e-5 0.0
0.0001354847379989534 -2.3685575829954832e-6 0.0
0.00013467366820497448 -2.3198689803975525e-6 0.0
0.00014016026505523697 -2.0533130001717187e-5 0.0
0.00013311779256881486 -1.1421376197780597e-5 0.0
0.00013580915118139284 -1.9496678507111828e-5 0.0
0.00015831254212764293 -2.0184736843226424e-5 0.0
0.0001562192933960367 4.979004930063135e-7 0.0
0.00012386249749499385 -4.127316895186089e-6 0.0
0.0001467351525878158 1.1266554092127214e-6 0.0
0.0001761320195680275 -1.3451898360779508e-5 0.0
0.00017704031597937228 -1.1489770414528547e-5 0.0
0.00012305193408461995 -2.6781854599724166e-6 0.0
6.087834804261302e-5 -1.4110089833247109e-5 0.0
0.00014522916142731436 -3.738665255463578e-7 0.0
0.00012402623928636092 -3.674992184298716e-6 0.0
0.00014347643289079544 -1.1971623758948582e-5 0.0
0.00019528185586773693 -2.3342548312083925e-6 0.0
2.36582917234239e-5 -1.2241413182851477e-5 0.0
0.00014090425103384873 -2.952560446232886e-6 0.0
0.00012390902775259345 -3.0769153386594267e-6 0.0
0.00012315400101158 -2.7627863036216053e-6 0.0
2.470941957089287e-5 -1.3238529720484e-6 0.0
0.00017652556269866712 8.110679302927194e-7 0.0
0.00012970916068054172 -2.580195962068133e-6 0.0
0.0001813836712328727 -9.56897594975808e-6 0.0
5.707842846752388e-5 -1.2892304766041233e-5 0.0
0.0001627909615951404 -2.490342706964535e-5 0.0
0.0001652656344877962 -2.457043524470424e-5 0.0
4.834946455700561e-5 -1.5634917538191214e-5 0.0
0.00014656119939209886 -1.3599333048942264e-5 0.0
0.00010176984378338074 -3.5263431812090165e-5 0.0
0.00014314491786248062 -1.3775538686644039e-6 0.0
2.7557288578532226e-5 -1.7679770124549643e-5 0.0
0.000131947151179819 -2.4456867931136104e-6 0.0
0.00013274579687494218 -3.0623886903243445e-6 0.0
0.00013281920450108786 -2.1942501000239077e-6 0.0
0.0001366291368576212 -1.1575424162753024e-5 0.0
0.0001527106522189489 -1.5258492024890202e-5 0.0
4.3438851794686715e-6 -1.7338489354645622e-6 0.0
6.924201793988637e-6 -3.333945425511655e-6 0.0
8.070266739514314e-6 -4.138111016732982e-6 0.0
0.00018234064121186485 -1.4999999466213696e-5 0.0
1.050627333994678e-5 -5.917386543621347e-6 0.0
5.0479549896560404e-5 -1.2390611406075989e-5 0.0
1.7899054520634283e-5 -3.8806421093788223e-7 0.0
0.0001709457063037792 -2.2591677395712705e-5 0.0
2.287375385759741e-5 -1.4738159651796829e-5 0.0
2.5996102016465293e-5 -1.6737453026662017e-5 0.0
0.00018116140673177805 -1.5969784772591752e-5 0.0
0.00017874432679687487 -1.787419578611979e-5 0.0
0.0001316753528607552 -4.236414598972486e-6 0.0
8.600249443016714e-5 -2.3289492253753364e-5 0.0
0.0001559388422571183 1.8095580419430875e-7 0.0
0.00017318374212871616 -2.140915646310133e-5 0.0
0.00017428057349392657 -2.0820239423752383e-5 0.0
2.0085539867869537e-5 -1.2943197648951435e-5 0.0
1.397461753924231e-5 -8.482623688072285e-6 0.0
0.00017651668555674236 -1.9413571705554004e-5 0.0
0.00017787664461056853 -1.7607692428069217e-5 0.0
0.00014039565969593576 -2.5922470967765577e-5 0.0
1.6510845364454267e-5 -1.0372304870244926e-5 0.0
0.00015854470681630323 -2.5859199559703504e-5 0.0
2.7392163177596758e-5 -1.1900447865424295e-5 0.0
0.0001705132361101932 -1.5570554341790568e-5 0.0
5.0262964005167997e-5 -2.6260207005281002e-5 0.0
0.00016293414570637833 -1.937600574158151e-5 0.0
0.00016310277641308897 6.607339983279546e-7 0.0
4.927828481953665e-5 -6.181378813999688e-6 0.0
2.778910635249347e-5 -6.695268811140977e-6 0.0
7.718735038781202e-5 -1.4998064500584745e-5 0.0
0.00012268868402062863 -1.0341664621223379e-5 0.0
0.0001710605958123138 -3.600355105856496e-6 0.0
0.00012858080525839224 -2.591731985152971e-5 0.0
0.00013153692836287 -2.5383166759699844e-6 0.0
0.0001328565988699212 -2.639301171514089e-6 0.0
0.00014799402696870665 -6.91758663258629e-6 0.0
0.00016250867298456706 -1.5169743974113652e-5 0.0
5.035633631816499e-5 -2.0838134733324692e-6 0.0
0.00014394587686909045 2.2869664666188672e-7 0.0
5.684801569964396e-5 -6.163734569810135e-6 0.0
0.00017220560869617694 -1.1806723788765926e-5 0.0
3.1921275597718266e-5 1.2481504005892125e-6 0.0
2.532711097153246e-5 2.032526642983026e-8 0.0
0.00010667689013154776 -2.5692444219735682e-6 0.0
0.00017845839708057897 -8.632748645855921e-7 0.0
0.00012273279943409554 -4.018577122212786e-6 0.0
0.00012880264575086122 -3.125305323495787e-6 0.0
0.0001880598609258778 -2.489608668780941e-6 0.0
4.298174906133824e-5 -6.317523614807501e-6 0.0
6.105483575747245e-5 -3.9808234595160656e-6 0.0
0.00015447121579088906 -7.65570625266495e-6 0.0
0.0001658403449027646 -1.5046011386594878e-5 0.0
3.497701921669448e-5 -6.956343938220633e-6 0.0
1.77906657417924e-5 -8.17864335645741e-6 0.0
0.00016103834196413354 -1.4336036392896898e-5 0.0
6.434299084406478e-5 -2.681405425109872e-6 0.0
0.00015945446955306498 -3.2254770724779973e-6 0.0
0.00019777904872011337 -9.279215975832722e-7 0.0
0.00016947343383965177 3.526047589049178e-7 0.0
0.0001349127546296999 -3.1869956178420607e-6 0.0
0.00013661433440560885 -2.587562733794257e-6 0.0
0.00014216700167845716 -4.236191569904367e-6 0.0
0.00018337188994576881 1.1209004871606297e-6 0.0
0.00018034045900239943 1.3755545443756787e-6 0.0
5.198672836438572e-6 -2.0599991609936904e-6 0.0
3.805746838435621e-6 -1.4325694563429111e-6 0.0
9.077584010748477e-5 -2.1721269099293783e-5 0.0
0.00014527993090160185 -1.1356381206435497e-5 0.0
7.867652932116848e-5 -4.198382053130461e-6 0.0
7.8782550710039e-5 -3.8117997390116993e-6 0.0
7.890891648155502e-5 -2.292219379861684e-6 0.0
0.00012671893958003872 -1.777061612863275e-5 0.0
0.0001390312713401893 -3.387083534663438e-6 0.0
2.2266890515018042e-5 -1.7823294067211486e-6 0.0
0.0001515202393350027 -1.6699005623402176e-6 0.0
0.00013630911785018532 -3.107468707656555e-6 0.0
0.00010318516236351723 -8.382365197492322e-6 0.0
1.1309709015096407e-6 -2.438819701846521e-7 0.0
0.0001228624840130907 -9.377553265616875e-6 0.0
0.00018712498216298331 -3.694200608117245e-6 0.0
0.00016367346885554275 -3.913146426240585e-6 0.0
0.0001578024804124722 -1.2339513155116389e-6 0.0
0.00017990045421746158 -4.955038607598322e-6 0.0
0.00014488537019782843 -2.1141162286558837e-6 0.0
7.856315475556666e-5 -2.4099316392990133e-6 0.0
1.4781332968926078e-5 -2.0875124697609695e-6 0.0
0.00010922870466081183 -3.611839508032387e-6 0.0
0.00013327500541675182 -4.404853454859364e-6 0.0
1.9499670981481254e-5 -5.388309546283822e-6 0.0
0.0001153716191633322 -3.380032988395708e-5 0.0
0.00014246146851472748 -2.1982861401258753e-6 0.0
5.3906414046562114e-5 -1.37105981847688e-5 0.0
0.0001476195109807603 -1.0514098827136116e-6 0.0
0.00017336478331768246 -4.0026258045108596e-6 0.0
6.390232599207089e-5 -2.4088879741941494e-6 0.0
0.0001546950319331426 1.3431336161286299e-6 0.0
0.00013591024019547402 -3.2064296481105296e-6 0.0
0.00012306225823475423 -8.515957735690897e-6 0.0
2.593062441852401e-5 -2.112738430849085e-6 0.0
6.631535445645443e-5 -4.396505531565355e-6 0.0
0.00011564303032689032 -4.707827265354502e-7 0.0
1.9016265533152932e-5 8.045773309506689e-7 0.0
0.00015792143472838035 -8.82619955092513e-6 0.0
2.9252400064551315e-5 -3.904482336088476e-6 0.0
0.000125613892298474 -8.1907302316806e-6 0.0
0.0001697561167964305 1.7237743021132954e-6 0.0
0.0001527630438318072 -7.0993670758619495e-6 0.0
7.664261710801733e-5 -1.1690397760298202e-6 0.0
6.491254727251417e-6 -1.0047398220501851e-6 0.0
4.2023213895861866e-5 -3.6553447560966707e-6 0.0
1.9105513195804015e-6 -3.028169829754124e-7 0.0
4.788873587182241e-6 -6.19212511546376e-7 0.0
0.00015223009771120344 -5.754286581577184e-6 0.0
0.00013920888986530128 -1.5384012779388982e-6 0.0
6.226383918642159e-5 -3.24425935358867e-5 0.0
3.5718591303249555e-5 -1.4074825110086029e-5 0.0
0.00016970297484100255 -1.1387493214380184e-6 0.0
1.658495346902315e-5 -1.00750805428006e-5 0.0
0.00014951837709897874 -7.483994207983348e-6 0.0
0.00013591439987918218 -1.7696617217543264e-5 0.0
0.00016690147317374775 1.562846499079626e-6 0.0
5.175048637738461e-5 -2.2695539909779945e-5 0.0
0.00017837424652952143 -1.574875867303859e-5 0.0
0.00012908465514857212 -2.9097240679658306e-6 0.0
2.44039718607284e-5 -1.4985831504119561e-5 0.0
0.000152624197794947 -2.5058342636983578e-5 0.0
2.3362599874568277e-5 -6.130076054514862e-6 0.0
0.00019076538430660772 -4.380189082724682e-6 0.0
1.5424209697003424e-5 -3.718663558758551e-6 0.0
0.00015129396295368672 4.892185457068772e-7 0.0
0.00014508192719998967 -1.705868446255384e-6 0.0
0.00013345889012613465 -2.9782686555351963e-6 0.0
2.030533409988146e-6 -1.1228442342757498e-7 0.0
0.00010761569243760254 2.576280920906885e-6 0.0
4.72169082364064e-5 -2.449356246864123e-6 0.0
0.00016625869363773294 -2.312984936173934e-5 0.0
0.0001675388657376547 -2.4068390454364635e-5 0.0
8.703868470551458e-6 -8.066931494893592e-7 0.0
0.00013787976030982252 -2.877585319367492e-6 0.0
3.792296784409002e-5 -1.3575571008730372e-5 0.0
9.775963908181402e-5 -9.447494483392044e-6 0.0
3.57603157343269e-6 -1.2712411249664056e-6 0.0
5.862856388836414e-6 -7.39536125981504e-7 0.0
0.00013456197442005701 -5.145534080595124e-6 0.0
0.0001279264184579155 -7.819767115158912e-6 0.0
3.3043504477704146e-6 -4.858679567733562e-7 0.0
1.2128137624522006e-5 -1.714769442618052e-6 0.0
1.1641717314487003e-5 -6.757749666749702e-6 0.0
0.00017129776976452493 -1.3686368136221666e-5 0.0
0.0001468085604560916 -1.2135733076378792e-5 0.0
1.582418622729421e-5 -7.0902408032092055e-6 0.0
0.00016141153913527254 7.73227891166192e-7 0.0
0.0001532110273895983 1.210358759171029e-7 0.0
8.259066206333649e-6 -4.129540726910739e-6 0.0
0.0001017098757390668 -2.746475928018971e-6 0.0
1.298004313126694e-6 -2.8273397583527736e-7 0.0
0.00019906592845330724 -4.3362467172801576e-7 0.0
0.00019571288795730375 -9.304138841803629e-7 0.0
5.324287856229331e-5 -2.9680589097407547e-5 0.0
0.00016124391483254838 1.4521079902210532e-6 0.0
0.0001476168689046546 -1.7425311754900005e-5 0.0
1.746667774487316e-5 -3.6056387504570535e-6 0.0
0.00014411523559727725 -2.6820891817016164e-5 0.0
1.926594853886866e-5 -2.0186949504999747e-6 0.0
0.00017798877886400293 -1.809610377137251e-6 0.0
9.199763237658512e-5 -9.690745929996933e-6 0.0
4.614981842032077e-6 -1.745210002121555e-6 0.0
0.00011903666283291542 -2.992704167133088e-6 0.0
0.00011875284930296935 -2.8380376550993736e-6 0.0
0.00018474334939601794 9.086082344040946e-7 0.0
0.00013495446900018868 -1.0874443673542227e-5 0.0
8.315804017025976e-6 -9.034800924285675e-7 0.0
0.0001764239979243413 -1.875937926448477e-5 0.0
0.00018753608330713978 -6.420647708080144e-7 0.0
0.00015190221204260156 1.0467349396025575e-6 0.0
0.00015425775064339196 1.018614135756067e-6 0.0
0.00010461993814157257 -2.3716048274781218e-5 0.0
0.0001916392453106585 -6.9457486786823045e-6 0.0
0.00010641715827050741 -2.615526087735933e-6 0.0
1.3065146384042196e-5 1.531384685436591e-6 0.0
1.5858070730530722e-5 -8.225798721803317e-6 0.0
6.208971321922051e-5 1.3621023257070314e-6 0.0
0.0001776661697126796 -1.550993687230476e-5 0.0
5.4566732295443686e-6 8.619985275775632e-8 0.0
0.0001316845300958615 -2.4017033400535207e-6 0.0
0.00016417856243300456 -2.610247973156764e-6 0.0
0.00014377315222406181 -4.5429037308305555e-6 0.0
0.00019742308736377253 -8.022918213821128e-7 0.0
2.0836600148313354e-6 -5.337948442717007e-7 0.0
0.00018753548097099232 9.8870402744981e-7 0.0
0.00019767880406857318 -8.457794058716392e-7 0.0
0.00012194736189202502 -3.012919127893095e-5 0.0
0.0001366373691913229 -4.800289139432206e-6 0.0
8.903785598418759e-5 4.667244345117657e-6 0.0
3.773597187431154e-5 -6.607106679665553e-6 0.0
5.946058077316548e-5 -3.467512463361324e-6 0.0
0.00010058896486637238 -2.9100909751976935e-6 0.0
3.2136793939025856e-5 -2.5183783207756226e-7 0.0
7.688947600544237e-5 -1.3154305384648389e-5 0.0
2.6580048032478788e-5 -1.7766746152325158e-6 0.0
1.7276696489171738e-5 2.0530673689764597e-6 0.0
0.00011911701643684688 -4.462917523242298e-6 0.0
0.0001544145831931845 -1.448893798008576e-5 0.0
0.00017349877379282453 -1.2593691987207572e-5 0.0
7.10528307992398e-5 -2.224237004334203e-6 0.0
4.074439693327992e-5 4.207067827190663e-6 0.0
0.00013741014498758636 -2.721667137422647e-6 0.0
5.2488747530651674e-5 -2.441390909078967e-6 0.0
0.0001666377186137053 -9.89422133941236e-6 0.0
6.222852739957219e-5 4.7008096009553245e-6 0.0
5.041646995909245e-5 4.191207621070778e-6 0.0
0.0001333912475313566 -9.158943599814729e-6 0.0
0.00013885636755291253 4.829645975118439e-7 0.0
8.689292764516466e-5 -3.5691992458788086e-5 0.0
0.0001612915875140109 -2.546951291063768e-5 0.0
4.5724151921359354e-5 -5.633303585712119e-6 0.0
0.00015448457723400818 -2.6234070570041472e-5 0.0
3.378581243081566e-5 -2.2367935264529965e-6 0.0
0.00016887312257000874 -1.0431590979013872e-5 0.0
8.641218858825147e-5 -9.061570701882594e-6 0.0
0.00017761939979238798 -4.792460926720535e-6 0.0
3.7957720940204646e-5 -5.7319110909579124e-6 0.0
0.00011112370549858756 1.5699619180615949e-6 0.0
7.900647404112822e-5 -2.2620583261293205e-6 0.0
0.00011260979956601005 -1.548601905320543e-5 0.0
0.00012162015787660329 -3.233865481055444e-6 0.0
0.00011849676198887578 -2.7279917252922174e-6 0.0
4.7131357528415964e-5 -1.1069657933404313e-5 0.0
4.790016725578737e-5 -1.324297164981604e-5 0.0
2.6066145154316126e-5 -3.423241887992406e-6 0.0
5.386840789818735e-5 8.10546593962378e-6 0.0
0.00011757782930642868 -2.1729557188621147e-5 0.0
0.00017781381124799508 1.4103066079972155e-6 0.0
0.0001644266149659471 -1.4245980521696865e-5 0.0
0.00013716201286715363 -2.660976532854246e-6 0.0
4.267611833684919e-5 -5.653510310024653e-6 0.0
0.00015059631321995477 -4.0964405157739696e-6 0.0
0.00013760769133650677 -1.6992872907072074e-5 0.0
8.638869297644154e-5 -8.241950371494102e-6 0.0
0.00018977205277547713 -2.561876345355835e-6 0.0
0.00019621557111754482 -1.6622270981166277e-6 0.0
7.211960962895457e-5 -3.944525963796484e-6 0.0
0.00014945232442500466 -2.5260742933578896e-5 0.0
0.0001790369268753162 -1.6984121683347574e-5 0.0
4.43212233902616e-6 -7.634060708217312e-7 0.0
3.8443540323797055e-5 -3.6278018759533694e-6 0.0
4.925426073584827e-5 -5.661565800918785e-6 0.0
0.0001811974170690024 -1.538256372684207e-5 0.0
7.641995251521274e-5 -1.157831669952044e-5 0.0
0.00014353959813904527 -4.6578637812244473e-7 0.0
1.4099405715342461e-5 -8.320617827727946e-6 0.0
0.0001372060316879142 -6.526702944152197e-6 0.0
0.00017316522916462296 -9.875153884849637e-6 0.0
0.00014855116563766555 -1.1464173877638622e-5 0.0
0.0001922173915631923 -3.0490717511928316e-6 0.0
0.0001511096092749245 -2.3068052390801004e-5 0.0
1.2445174675584544e-6 -2.5457174844644224e-7 0.0
0.00011229711646442792 -4.331338524492492e-6 0.0
1.9383111155771605e-6 -6.914649397846093e-7 0.0
6.75424193392289e-5 -1.6448104052525838e-6 0.0
3.309406013875963e-5 -1.4385037837585806e-6 0.0
2.676479961959576e-6 -7.511992965998932e-7 0.0
4.298525443032881e-5 -2.5755295557270877e-5 0.0
3.825991316460072e-5 -2.207081598890787e-5 0.0
0.00010724837569199092 -2.5793509678127704e-6 0.0
0.00010973782565512621 -3.6601756192160445e-6 0.0
2.602974945641452e-5 -1.5978225494644806e-5 0.0
5.7766764665208725e-5 -2.43255339923427e-6 0.0
0.0001391347563913412 -3.013497449853964e-6 0.0
2.5184534541377763e-5 -5.7877406247507275e-6 0.0
0.000145771419329028 2.0829897392718065e-7 0.0
0.00013939067591851908 -1.6303432661028295e-5 0.0
1.699713512709201e-5 -1.9628094004298848e-6 0.0
1.0410018321729417e-5 -5.333282240985482e-6 0.0
0.0001301480428604248 -2.3826773404052757e-6 0.0
5.692870208894261e-6 -2.4102057600678016e-6 0.0
0.00019377588679365018 3.852413824055078e-7 0.0
7.698625030144913e-5 -2.6934545695953388e-6 0.0
0.00011999061360055727 -4.0481648491740495e-6 0.0
0.00017591863485755407 -1.682878429676443e-5 0.0
0.00018487373954930093 -1.2883144271512724e-5 0.0
0.00016467157644459423 -1.532535804995229e-6 0.0
0.00011728044417959411 -1.9370432222584508e-5 0.0
0.00014001826305388868 -5.985754251593004e-6 0.0
0.00017286235255879718 -2.0778474168077344e-5 0.0
0.00012577682584579978 -3.243027397539836e-5 0.0
0.00017135862835291872 -9.239574630711047e-6 0.0
0.00014883149718657342 -1.0067277882194787e-5 0.0
7.148442755096774e-5 -1.0662707155192517e-5 0.0
0.00014148313986148408 8.144163743154407e-7 0.0
8.04916112691698e-5 -7.603654958688395e-6 0.0
5.646615888666867e-5 -2.4875260391420734e-5 0.0
0.00011817493709927616 -3.3567450684936813e-6 0.0
0.0001642393096994613 -2.3642405326991394e-5 0.0
2.575992696061027e-5 -3.1279729254746585e-6 0.0
2.1388730847680632e-5 -1.3276400537018882e-5 0.0
0.0001538521120419088 1.4309678770931954e-6 0.0
3.545303268324545e-5 -3.831196432712901e-6 0.0
0.0001406712855441621 5.0978466529685745e-8 0.0
8.442991412600254e-5 1.915264463830226e-5 0.0
0.00015273309351582145 2.654626848911198e-6 0.0
0.00017731434407532897 -3.1315803119759976e-6 0.0
0.00012496290492174838 -3.207947480482821e-6 0.0
0.00016191008103127606 -2.4435780950104393e-6 0.0
0.0001415748239698856 -1.9534875116921677e-5 0.0
0.0001469178070893741 -2.6740395962648003e-5 0.0
5.312797033484616e-5 -5.66808318954115e-6 0.0
7.874872686568518e-5 4.485666164576466e-6 0.0
2.9173069412668166e-5 -3.3037598134420795e-6 0.0
3.47423394490713e-5 -2.1872996586017947e-5 0.0
0.00010946322985158397 -4.90032089594132e-6 0.0
2.0201092530781853e-6 -4.854824272688815e-7 0.0
2.4482458572115824e-5 -1.4052651107241816e-5 0.0
0.00012324768884682522 -2.6101302528514043e-6 0.0
7.174370102268881e-6 -2.8109543945658597e-6 0.0
6.234454993057277e-6 -6.998975316013869e-7 0.0
0.00012960018279761315 -7.520340544389511e-6 0.0
0.00013191541600667515 -2.2945692932675247e-6 0.0
0.00018370989436949377 -1.3359393491659936e-5 0.0
0.00010097639525038299 -2.6206890735529294e-6 0.0
0.00015487755249073612 -1.294274294396914e-5 0.0
0.00013350939733046177 -2.2292384127702424e-6 0.0
1.99002610943494e-5 1.7531188850271826e-6 0.0
2.770925163467673e-5 -8.912356615084236e-7 0.0
0.00019449977816621045 -1.9186217815007556e-6 0.0
0.0001426001654432698 1.8740648907661522e-7 0.0
1.970363167864224e-5 -3.4928229234879825e-6 0.0
0.00014120826708358648 -1.6188621664471187e-6 0.0
0.00011889624241121531 -3.495181727423609e-6 0.0
0.0001305228116771236 -2.9271609532098823e-6 0.0
3.0015525003405556e-5 2.8140781191316774e-6 0.0
0.00012939464429312427 -3.09300293251269e-5 0.0
0.00018570087615251264 7.843642461014836e-7 0.0
0.00012857780919911245 -5.667758223230175e-6 0.0
0.0001307484516749484 -2.3558499962579538e-6 0.0
0.0001461284784807721 -3.280701232091012e-6 0.0
0.00011313511231782249 -2.6600342019816797e-6 0.0
0.00012910345548889252 -5.061047982504779e-6 0.0
4.058517347123108e-5 -1.5393799112795626e-5 0.0
0.00015066771470123835 -9.372514698660619e-6 0.0
9.94760887947823e-5 -3.867680305292442e-6 0.0
0.00013023454193592036 -2.340908274216565e-6 0.0
0.00016851479729064895 -2.3830525037026304e-5 0.0
0.00011022754995723276 -3.347646380222631e-6 0.0
0.0001419885026429577 -1.2334927903424571e-6 0.0
0.00013401666494493325 -2.2835644688351714e-6 0.0
1.1686695972849018e-5 -6.616728131292965e-6 0.0
0.00016492722022005144 -1.2828100005185581e-5 0.0
0.0001328055905451243 -2.1539126186704017e-6 0.0
5.1715998613017814e-5 -2.527273746646958e-5 0.0
0.00014017165089427565 6.299142371833822e-7 0.0
0.00015732609518394398 -2.619337938989906e-5 0.0
0.00019322918257044878 1.6610623427938486e-7 0.0
5.5835282061488195e-6 2.251329487524674e-6 0.0
0.00010529525475569686 -5.116307634114036e-6 0.0
0.0001358236632972012 -2.717358845441763e-5 0.0
7.260267142468288e-5 -3.1229989680343986e-5 0.0
9.267366507277443e-5 -3.590774759069347e-5 0.0
8.911925102618194e-6 -1.5379783958100244e-6 0.0
0.00015658691667284842 -1.2398275238167196e-5 0.0
5.3656942551111795e-5 -5.246514305733076e-6 0.0
0.00010471523749814304 -3.471077832329688e-6 0.0
7.090332269259271e-5 -2.1696156739574174e-6 0.0
9.944743198660542e-5 -3.2340474385507864e-5 0.0
0.0001527040521284463 1.1177405133302787e-6 0.0
0.00018651591290838167 5.92863441202571e-7 0.0
0.00014145190036464757 -1.8150942062880356e-5 0.0
0.000128175003993313 -6.361503489283371e-6 0.0
6.37772265871991e-5 -1.0575127553203225e-5 0.0
0.0001327934366886384 -2.9524908227050232e-5 0.0
0.000160771750944229 -1.0278119786762907e-5 0.0
8.012819463164464e-6 -2.5828416995382478e-6 0.0
0.000183770325196118 -6.602502007886445e-7 0.0
0.0001093524921798835 -3.1581860708826546e-5 0.0
0.00011417973631048007 -2.31092241833541e-5 0.0
0.00015259001779922268 -2.221862624332231e-5 0.0
0.00019763731481192422 -1.2705594348489724e-6 0.0
8.095322381346136e-5 -3.215581483439709e-5 0.0
6.343578074046612e-5 -2.0574157009333886e-6 0.0
6.708996615229647e-5 -4.073647166108485e-6 0.0
0.0001455544089183706 -4.100821670285576e-6 0.0
0.00019473713045418153 1.2494471439519239e-7 0.0
1.1117585072187145e-5 -5.669955253579008e-6 0.0
0.00012951923626935996 -4.569615856630906e-6 0.0
0.0001787206093342489 -1.61466981873483e-5 0.0
0.00019400470244902186 6.753738818165486e-7 0.0
4.988526408031426e-5 -3.2675259410682836e-6 0.0
0.00011337167060695896 -3.175440690107863e-5 0.0
0.00019030430217454399 -1.7645821027336543e-6 0.0
2.4997807863447554e-5 -1.2607846806182377e-5 0.0
0.0001967816366759377 8.049037971998822e-8 0.0
5.946724364520853e-5 -3.2127426931642395e-5 0.0
0.00015099612523468588 -8.005514748183103e-6 0.0
2.912062919300126e-5 -1.5055537096620938e-6 0.0
0.00014366194439089188 -1.0906115173386278e-6 0.0
0.00019077348455020116 -7.117103992535255e-6 0.0
0.0001628073164892414 -9.462764251007858e-6 0.0
4.82579971792313e-5 -2.6239327923781046e-5 0.0
3.113603479298304e-5 -1.9957363928363718e-5 0.0
4.065674536227316e-5 -1.1946414282976384e-5 0.0
0.00017092213959810546 -2.174918075564363e-5 0.0
0.00015984062434123752 -2.3906294812978538e-6 0.0
2.188762275736893e-5 -3.54169542137949e-6 0.0
9.607751845998658e-5 -4.913005511977987e-6 0.0
0.00014535033563610906 -5.029648087376176e-6 0.0
8.958929688391895e-5 -5.952809191037383e-6 0.0
0.0001908047913122562 7.950879183613394e-7 0.0
0.0001510665541644197 -1.2673134167864643e-6 0.0
9.881611423230214e-5 -3.6048423540240497e-6 0.0
2.265417507097417e-5 -2.9761209505710727e-6 0.0
0.00015742460260718006 -1.0124344692717547e-5 0.0
0.00014301715907908444 -2.4529312986424228e-5 0.0
0.0001752972335049692 -1.960663363701791e-5 0.0
6.653447476456425e-5 -3.0564805737668996e-5 0.0
0.00014507843478046975 4.255934562031602e-7 0.0
8.11610305197595e-5 -6.9461039413354175e-6 0.0
0.00013880294553081807 -2.6547614040627716e-5 0.0
0.00017506193550262983 -1.6637283283952028e-5 0.0
0.0001585271145370707 5.562768770643073e-7 0.0
0.00019092184877607447 8.928319085481887e-7 0.0
4.215543475358936e-5 4.089987952314033e-6 0.0
0.00018612096390755784 1.0924576829987894e-6 0.0
6.234567640363447e-5 -8.903803285845938e-6 0.0
0.0001728154991443104 1.592547020457645e-6 0.0
0.000140607705790448 -1.2788136157050417e-6 0.0
0.00015166843799862626 -5.147054596514894e-7 0.0
5.6424759615612755e-5 -4.775263284723392e-6 0.0
0.0001530228580755716 -1.9558310639803188e-6 0.0
0.00011996554212115421 -3.114957083553811e-5 0.0
4.357267343105043e-5 -2.330462382571991e-5 0.0
0.0001333603715842868 -2.231327721521516e-6 0.0
0.00015755327787803954 1.3295388792792844e-6 0.0
0.00011088544482637205 -2.6911072121880205e-5 0.0
1.646497364641543e-6 -5.661597069968427e-7 0.0
0.00019565935804307776 -6.728596588054289e-7 0.0
0.0001733226460632558 9.609601914560357e-8 0.0
0.00010463621857015004 -3.613365171490154e-6 0.0
0.0001968227610510639 -1.3983159001343448e-6 0.0
5.311590619430439e-5 2.1558114655446606e-6 0.0
0.00011938210370471044 -3.7895248819208487e-6 0.0
0.00019846977236545398 -8.697921136111304e-7 0.0
1.4301113434487778e-6 -3.4768804064923243e-7 0.0
3.241565713238372e-6 -1.172987350210477e-6 0.0
5.230686768658683e-5 -2.2075716322432554e-6 0.0
0.00014115068491096498 -6.379442676292106e-6 0.0
0.0001508349752486469 1.206029006127415e-6 0.0
0.00016432265706937428 -2.2470974220628052e-5 0.0
0.0001959820615643616 -1.346165516356926e-6 0.0
9.090731628139053e-6 -3.1210923846739413e-6 0.0
3.348866137398798e-5 -1.6519851407675231e-6 0.0
0.00014351415966595027 -2.3135446745204633e-5 0.0
0.00017870366800791995 -2.418520713219666e-7 0.0
4.265046057526723e-5 -1.1404994635212993e-5 0.0
6.4345598644878845e-6 5.470033092090285e-7 0.0
0.00014277094267664846 -1.59859255958232e-6 0.0
5.740724245513465e-5 -1.9328296115134196e-6 0.0
0.00015409526117859452 3.4505849735467725e-7 0.0
0.00012021539140725474 -2.643869829900996e-6 0.0
8.793081586713476e-5 -6.398015697500231e-6 0.0
0.00018005558636673185 1.208096324133437e-6 0.0
0.0001799179286636371 -1.6507008951507446e-5 0.0
0.00016070840037326906 -2.4564673373075274e-5 0.0
3.586628073113717e-5 -3.612705446881588e-6 0.0
0.00018847852947229045 -1.0335661299022362e-6 0.0
2.1288888485296224e-5 -5.415471034354962e-6 0.0
0.00018943690477979673 6.746680911671158e-7 0.0
0.0001718021563430961 -2.152111334623117e-5 0.0
0.00014190564404488093 -6.274165250257526e-7 0.0
0.000153838668625438 -2.533459076532415e-5 0.0
0.00015299576351528567 -2.4685888036559047e-7 0.0
0.00011831078170472501 -2.9458448398261603e-6 0.0
4.269797445850585e-5 -2.098035660880027e-5 0.0
9.858379681304552e-5 3.806927392357967e-6 0.0
1.8966459119675153e-6 -3.250510633087762e-7 0.0
0.00019432906093989305 -7.250169561709941e-7 0.0
1.529674658857206e-5 -9.256706516403566e-6 0.0
0.00015578521673745516 1.6320369930452564e-6 0.0
2.746967140276974e-5 -1.6947328236750807e-5 0.0
0.0001510931590853751 -6.912175863398551e-6 0.0
3.3020224371724446e-5 -1.6893708728207488e-6 0.0
1.0769493634956585e-5 -3.1686496724329798e-6 0.0
1.9137456654056118e-5 -1.2366611100701905e-5 0.0
1.5294622775536656e-5 -7.365766837437313e-6 0.0
8.563888369437828e-5 4.074515630603182e-6 0.0
0.0001627523104027146 1.3303045212937908e-6 0.0
2.122195091910441e-6 -5.978365711489843e-7 0.0
0.00017211251638953018 3.697549262345828e-7 0.0
0.00015514529116282077 1.6123946830135291e-6 0.0
0.00014299255489967736 -5.894639609328166e-6 0.0
0.00012017131910332506 -2.67461332481715e-6 0.0
4.562479933135713e-5 -1.8353713423783023e-6 0.0
0.00012261083471172917 -3.0337947771117767e-6 0.0
0.00014517723112628708 -2.0790810955634282e-5 0.0
5.732284956324963e-5 -5.318500461444754e-6 0.0
3.703833569002947e-5 -2.1969185491101963e-5 0.0
0.00017548065021528964 -1.1501645738342342e-5 0.0
0.00014555430278958398 6.771747182445816e-7 0.0
1.4186295974859407e-5 1.690451769105401e-6 0.0
5.9624377244438e-5 -1.4678293790378968e-6 0.0
0.00014875210557514578 -3.377871423149341e-6 0.0
0.00014517764730043975 -2.574492128983546e-5 0.0
9.538313916334542e-5 -5.312257579061304e-6 0.0
0.00016730563881089356 -2.3293302055110777e-5 0.0
9.467950358221458e-6 -5.028602544572799e-6 0.0
0.00015393299098104046 -2.153740860760984e-5 0.0
7.155296298390912e-5 -2.3714251331481794e-6 0.0
0.00018475001603878127 -1.255387505801901e-5 0.0
6.921331781868832e-5 -2.3201199898286583e-6 0.0
0.00014265872112431653 -1.0151567137601465e-6 0.0
0.00013025893510540534 -7.0243838994995175e-6 0.0
0.00012007532689991742 -4.039494115559092e-6 0.0
0.000135774816949219 -2.0885250457104884e-6 0.0
0.00014202314735883162 -2.5887459104072797e-5 0.0
0.0001652093279427111 -2.359609048012509e-5 0.0
4.057764893759169e-5 -5.805427016161718e-6 0.0
0.00013988623183113755 -1.1418559369741851e-6 0.0
0.0001375135976736431 -2.6774002580122602e-6 0.0
0.00016471288637879167 -2.104826044258313e-5 0.0
0.00011899874984338389 -2.8176780372570965e-6 0.0
0.00011759290731765125 -3.8498857733787e-6 0.0
4.216707180420564e-5 -1.8727977237467057e-5 0.0
0.00018453204735992864 -1.2271071450192701e-5 0.0
0.00014904059087321429 -2.6621446636842048e-5 0.0
0.00011145958259199416 -2.4709491852964204e-5 0.0
0.0001952913946354904 4.968472490197024e-7 0.0
0.00010963119113096242 -1.812236142745149e-5 0.0
0.00015359581697805424 5.831387415029142e-7 0.0
4.539696712622632e-5 -2.97099428490256e-6 0.0
0.00014657525722080387 4.22052581054648e-7 0.0
2.9679969239223926e-5 -1.3981780487257446e-6 0.0
0.00010525328098199766 -2.640318368798731e-6 0.0
7.248723777264927e-5 1.1042587782394727e-5 0.0
0.00019770786287163095 -8.01034484987922e-7 0.0
0.0001418708044401555 -1.7091616089511885e-5 0.0
SCALARS damage float 1
LOOKUP_TABLE damage
0.9997806893091372
0.9987035761706702
0.9996970590339163
0.9984572215462633
0.9999372334284558
0.9999941889728523
0.9915764403213053
0.9999778496962111
0.9999391847149662
0.9999315014701844
0.9999295480948684
0.9999349371352766
0.9999432590713996
0.9999501976021589
0.9999540638161525
0.9999623396735733
0.9999647082794239
0.9999694922433024
0.9999721689838516
0.9999703375830514
0.9999664057918908
0.9999649316592516
0.9999557901407342
0.9999438853087761
0.9999341716021998
0.9999158405958442
0.9998881808290436
0.9998575041310048
0.9998110074828207
0.9997552129197014
0.9996620645829084
0.9995180718227128
0.9985115033596133
0.9992120121068512
0.9992722139618846
0.9993090433493643
0.9993317368739626
0.9993352015892053
0.9993399518788175
0.9993358628768627
0.9993339566888729
0.9993366754684861
0.9993276311423486
0.9993275834909844
0.9993222922337837
0.9992988607489129
0.9992922945093763
0.999300253657015
0.9993113084201977
0.9993212023225029
0.9993073361559366
0.9992987057705315
0.9992886805415648
0.9992734684537385
0.9992614660187868
0.9992629222553168
0.9992512793882486
0.9992563721541765
0.9992623321280976
0.9992334245203442
0.9992014071284223
0.9992282997254813
0.9992370109915983
0.9992727408518521
0.9992758947915611
0.9992706782608592
0.9993094027406069
0.9994177627045818
0.9995287080940572
0.9996441096120667
0.9997494347014304
0.9998345732390261
0.9999291961667546
0.9999790815218027
0.9999948526112968
0.9999817967148027
0.9999581743381983
0.9999322520178816
0.9999146430393077
0.9999276218177771
0.999963269329558
0.9999612361738319
0.9999182828425041
0.9998298236421005
0.9998219585829395
0.9998768688917079
0.9999046276014545
0.9999328215743625
0.9999525363076146
0.9999680434875284
0.9999764402696161
0.9999834373388745
0.9999877489749804
0.9999903573083299
0.9999915815472007
0.9999920726346574
0.9999925573212484
0.9999921579637036
0.9999912408221795
0.9999901549563317
0.9999890024350732
0.9999878180447401
0.9999856861122198
0.9999840075354308
0.9999812887245756
0.9999774178614144
0.999972917239149
0.9999671339860642
0.9999628968987713
0.9999578249249483
0.9999504837838462
0.9999395410141909
0.9999339784857927
0.9999239952015871
0.999915565954585
0.9999050926151881
0.9998937233707716
0.9998803487968362
0.9998664581800809
0.999851295468127
0.9998357027380577
0.9998152430660641
0.9997900440399166
0.9997652469454078
0.9997528669412117
0.9997040226410737
0.9995846707265932
0.9993809904271401
0.9990058901083338
0.9980471286326732
0.9972932726714013
0.9998242762698923
0.9998255458699953
0.9998543150661215
0.9998775109732417
0.9998957992169626
0.9999109476073493
0.9999241413059191
0.9999337087984141
0.9999395830548753
0.9999453436643755
0.9999442771421317
0.9999455355015926
0.9999427412079942
0.9999405581923222
0.9999375148108468
0.9999335858531783
0.9999269881338616
0.999922462255515
0.9999212069580121
0.9999220631826219
0.9999123810934686
0.9999002068391905
0.9999055326027406
0.9998922785920761
0.9999341797023533
0.9997865094834776
0.9999981133733229
1.0000020264374962
1.0000057340913038
0.9999952549618493
1.0000008135906984
0.9999985899785809
0.9999925771886702
0.9999789661149963
0.9999587022987405
0.99992454708482
0.9998775286245859
0.9997480197315098
0.9995423946405879
0.9992220284545832
0.9988187461830971
0.9856300320809296
0.9940939954305479
0.9959706770418524
0.9974139587079908
0.9983022533805042
0.9989798791299018
0.9993751178198826
0.9997360089186508
0.9998641068617962
1.0000599102766794
1.0000927452436814
1.000062423137535
0.9999470274460368
0.9999819592377812
0.9998794550852051
0.9996881649333754
0.9993691618097446
0.9999884522967062
0.9996145603002331
0.9999926480577094
0.9999882105300304
0.9999423188438777
0.9999574812175342
0.9999677503291298
0.9993554962806949
0.9999339478478455
0.9993708805378094
0.9999476415210113
0.9999210167345153
0.9998953669443313
0.999877179431237
0.9919477406081844
0.998215245899227
0.9998761962152241
0.9993507121395788
0.999936562385918
0.9999369171996958
0.99990383125357
0.999938223938571
0.9998042736971946
0.9993615274532649
0.9999679706376308
0.9996108810691668
0.9998971035966144
0.9999238761596583
0.999932669160689
0.9999603860991586
0.99998646536101
0.9998926338116815
0.9999925929351596
0.9999816443730322
0.9994566911980413
0.9993434326496164
0.9997020339748748
0.9993493342558216
0.999866613082682
0.9999338635566036
0.9998777890206944
0.9997738946253426
0.999995927929736
0.9999450712844502
0.9998419576701113
0.9998842599124863
0.99994454662748
0.9999320485976669
0.9998153864603001
0.9964880017719214
0.9992850062003675
0.9987722652358599
0.9999905013310763
0.9999031313393081
0.9998021831852003
0.999372915210467
0.9999728625133361
0.9999579038897206
0.9993532811446006
0.9999140321889997
0.9993535586159527
0.9993564487066529
0.9998404712443021
0.9999839768098413
0.9998994532901528
0.9998248322460732
0.9996140056060454
0.9997964340030597
0.9999992657228957
0.9998885104015203
0.9997956224965359
0.9990900652840329
0.9984392115027574
0.9999812698717201
0.9998929529933185
0.9997695837236414
0.9998352959549336
0.9999231196132813
0.9998399475431772
0.9997853206386693
0.99978514972851
0.9997544960893171
0.9997452319927594
0.9997810530971355
0.9997517451716826
0.9997930990999085
0.9997635233798401
0.9998066217398444
0.9997953331010339
0.9996453916441528
0.9958826636468446
0.9993458560738033
0.9964464111214766
0.9993728973825844
0.9972122066741023
0.9993849332196831
0.9977117412643873
0.9993738944060203
0.9980058984565002
0.9993562162632367
0.9982878443267295
0.9993691521255103
0.998510335384992
0.9993724451784682
0.9986897079762638
0.9993894016224404
0.9987377709038467
0.9993890703409692
0.998817793320554
0.9993942432016413
0.9988942908197047
0.9993964875519602
0.9989588605456791
0.9994170113146935
0.99902388246062
0.9994248453276947
0.9990395340941394
0.9994502857874573
0.9990014460015577
0.9994434589041693
0.999147513342576
0.9994771626139265
0.9992099553959933
0.999493220981172
0.9992411598359919
0.9995058326370725
0.9992970811150582
0.9964526415533106
0.9995233025675148
0.9980504005295172
0.9987372914095608
0.9993141715456769
0.9995348329502801
0.9993342602258903
0.9990670086312545
0.9990839345732653
0.9995428992547264
0.999657063647451
0.9996132990471831
0.9996647668841375
0.9997266352553564
0.9997340110402733
0.9987688017244357
0.9987781155393306
0.9997679354026097
0.9984436788427926
0.9984766064010655
0.9997769841026813
0.9997984808760029
0.9981337271176929
0.9981535596250692
0.9998077744071815
0.9998215100857606
0.9978758410693523
0.9979052809913295
0.9998313301493811
0.9998402660419591
0.997744338343618
0.9977493696491864
0.999850803342698
0.9998556788524707
0.9976381890344975
0.9976568031871778
0.9974896577645597
0.9974373325195531
0.9998403960171324
0.9998667166655403
0.9998684347786482
0.9998565714055978
0.9995647319007558
0.9998690075340702
0.9998558846897192
0.9998667120820481
0.9975386794096415
0.9975812819009386
0.997681190261246
0.9998796488129811
0.9976390355803729
0.9979417328654152
0.9995674281151145
0.9980026057343048
0.9982370058617464
0.998287132950806
0.9985721902669508
0.9985378409569321
0.998835621721955
0.9988250083651832
0.9986306175332
0.9990091563511915
0.9990033484687797
0.9983532650335698
0.9986277723127854
0.999157685314941
0.9991502076368306
0.999854558608201
0.9998637163056918
0.9984047204741489
0.9986847751824921
0.9998514788198267
0.9998600464343042
0.9998743368984676
0.9998680347420754
0.9998868777921599
0.9998781216882883
0.9998963208770277
0.9998846581920282
0.9999040854409516
0.9998647984950785
0.999892583016471
0.9999136820159221
0.998479833952515
0.9993123565837988
0.9993121921878164
0.9999223817716044
0.9999319252417642
0.9999226371282173
0.9999406986027612
0.9987441611184598
0.9999412123239206
0.9999313181803676
0.9985682528572751
0.9988248281299207
0.9989778297726215
0.9999487245858214
0.9999396323415426
0.9986730894800392
0.9984033832220149
0.9990387897035391
0.9991278087624219
0.9999543642367054
0.9999463462146254
0.999925583438441
0.9999599832514298
0.9999328667923086
0.999906681064619
0.9994644302298479
0.9994685650753798
0.9992696714854431
0.9994762586665921
0.9992719513991264
0.9994713251643965
0.9992520156987461
0.9985183589061213
0.9982607029726579
0.9992019858153625
0.9992650458473493
0.9999511694406286
0.9994553200002191
0.9992376550099399
0.9984009691336139
0.998199996136563
0.9982422544483831
0.999938137305772
0.999590975855262
0.9998177590416766
0.9984987974346398
0.9998455888578562
0.9994383215444369
0.9992001539414306
0.9993559493057095
0.999402322246292
0.9983401245642485
0.9982295350896687
0.9999534662194979
0.9995386492068604
0.999531551590555
0.999544479267611
0.9999410283679543
0.9994258858968305
0.9991586372373533
0.9985455002736812
0.9994905998380382
0.999525704452643
0.9998387745988709
0.9998351049643863
0.9998289718039457
0.9998264867763859
0.9983645228235921
0.9982844978105411
0.9978625775715465
0.9994081305032279
0.9991867797088916
0.9999535461279274
0.999961900166177
0.9994739654471803
0.99925695682096
0.9999424749491937
0.9999291623913643
0.9995625759477234
0.9994661497767452
0.9984225505698548
0.9983768967862803
0.9982604294697862
0.99843256782859
0.9983396079326962
0.9986471577217343
0.9985760389279962
0.9989705349653147
0.9989263515849222
0.9993180139272513
0.9993622347585286
0.9996318599520437
0.9996785375315328
0.9997851625738454
0.999822948699511
0.9998595922831915
0.9992821031042177
0.9998317888597663
0.9998830597335097
0.9999049254909986
0.9999189238511299
0.9995825588545528
0.9995725235518215
0.99961444816049
0.9996283575077227
0.9999012476087897
0.9999286194399986
0.9999439600244554
0.9999489076740112
0.9996293005456278
0.9996164978841235
0.9998228521829264
0.9998225752896487
0.9998207703002185
0.9999501627874892
0.999938495748024
0.9985125296408977
0.9988897940299327
0.9997436023912558
0.9999618522082471
0.9999635549892562
0.9999516349995785
0.9999641228229874
0.9997899179047531
0.9998225081112313
0.9998202782276034
0.999388643405279
0.9997084091413392
0.999706577571986
0.9998233525207024
0.9999740488368244
0.9999735870864825
0.999963917271563
0.9999729040981017
0.999963706483277
0.9999717665364849
0.9999794605412653
0.9999779140195982
0.999667827570014
0.9996706077758506
0.9996570551760746
0.9985785781213538
0.9999421390805304
0.9999297710487783
0.9999839147673761
0.9999824528884417
0.9994976936964279
0.9997799642778701
0.9997716660651541
0.998851283525064
0.9997604955731771
0.9986661989350653
0.9997205052400269
0.9995171823989516
0.9999259637633157
0.9999126527511114
0.9999204470149903
0.9996747312375811
0.9999482902623458
0.9996917858415832
0.9997761430844172
0.9998279573189767
0.9998321238372716
0.9999631125729791
0.9998181645364459
0.9998099979330342
0.999705196679634
0.9996976323744419
0.9993285521327859
0.9999870639085067
0.9999852914799149
0.9997613718947698
0.999800814721383
0.9999885158777935
0.9987617817472507
0.9998265648461396
0.9998199372097237
0.9982625794942122
0.9999099668430304
0.9999061522536493
0.9998843185671964
0.9999885363126383
0.9999869417416007
0.9999539013215701
0.9999537392063718
0.9988660877770296
0.9999835279815841
0.9999853018055925
0.9997322237862187
0.9997295711521523
0.9999878471301183
0.9999863537409366
0.9998235093647617
0.9998200500635427
0.9998381159445059
0.9998457832277263
0.999814012874833
0.9998174931164678
0.9998039126913344
0.999805640381938
0.999896577684063
0.9998448432310625
0.9995149754157884
0.9997176300799273
0.9998166647966431
0.9989954077743907
0.9999885856608834
0.9999871971340756
0.9998393704510057
0.999981656832697
0.9997289402749348
0.9998151696548854
0.999806623192484
0.9997826902770794
0.9997850015824905
0.9998040618479642
0.9997876013758676
0.999806137550469
0.9997935857494592
0.9998098191924515
0.9997998213601003
0.9998164824295499
0.9997697948587806
0.9997886035422939
0.9997561574274454
0.9997650626291219
0.9997334269470322
0.9997579951894285
0.999254455882524
0.9988190358556414
0.9999436444049953
0.9999438996686099
0.9996106208509618
0.9991077054499461
0.9990237528902881
0.9999530178785727
0.9999430007717883
0.9998812695950462
0.9997911451824745
0.9997951929315215
0.9998324371391106
0.9998502822007281
0.9989109243552386
0.9991670098770967
0.9991098029040435
0.999745949317732
0.999862965963318
0.9998719059432067
0.9991535467572765
0.9999893063076142
0.9999880054774374
0.9999857607975434
0.9999866672594984
0.999404025526156
0.9996310106870152
0.9980738976659019
0.9999903846449703
0.9997282524145609
0.9999888154321823
0.9999874527555527
0.9999851052641393
0.9999858714114288
0.9999833270935741
0.9999840075801798
0.9999860875519699
0.999984006290009
0.999701536562594
0.9997229818295185
0.9997768286950431
0.9992488615712063
0.999272625797859
0.999369562342205
0.9993357592356765
0.9997211169035287
0.9997227816795329
0.9998497714898378
0.9998762677191524
0.9997349647010665
0.9996716312298706
0.9996693523771762
0.9981394232507926
0.9998219787525454
0.9998238388079386
0.9990313592029529
0.9998301232007109
0.9999855757121262
0.9999831920457916
0.9997951675541288
0.9997610106589221
0.999344628448504
0.9997034655312591
0.9997912442079422
0.999805722377846
0.9997344089612242
0.9999891532696448
0.9998774010693507
0.999959421165482
0.9987745488067841
0.9996613893385871
0.9996914655289029
0.9998276215821411
0.9999517430085408
0.9999415172827131
0.9994346773872822
0.9997861903260556
0.9997592253945834
0.9997815427915597
0.9997576517898049
0.9997408242852547
0.999742492888327
0.9997554262700001
0.9997428071961109
0.9997543372389663
0.9997511380097112
0.9997541699156719
0.9997537828547247
0.9997569927384011
0.9997575867136254
0.9997626170717159
0.9997637509455243
0.9997691834779661
0.9997362821348467
0.999754080169191
0.999803907393084
0.9997991879511737
0.999776643101127
0.9997871319513976
0.9997769498133007
0.9999742404394831
0.9999739391243471
0.9999847374616547
0.9999860149182425
0.9999914469383997
0.9999925358902187
0.9999877940234596
0.9999934387104591
0.9999894655856736
0.9943487620739893
0.9999932388850653
0.999993287497601
0.9987761213252065
0.9988913546483861
0.9992534072335773
0.9988614807498819
0.9992242900599619
0.9988339128581192
0.9991957838600217
0.9994944441322527
0.9994664223473401
0.9996469428233675
0.9996237920089469
0.999732989040552
0.9994391319720825
0.9988070900282989
0.9984074460475401
0.9997503232534859
0.9998002218265105
0.9997563180927513
0.9989055643540947
0.9973151422657117
0.9999135948824202
0.999901497660949
0.9998986774463887
0.9995693183814631
0.9995844185733123
0.9999822928121784
0.9998806662322204
0.9996303704489402
0.9996451032558998
0.9996290297813955
0.9995733180411438
0.9995499187030368
0.9995687178211979
0.9999943941877873
0.9999926620521795
0.9993247852339332
0.9995445453808577
0.9993358906538818
0.9995480965984066
0.9997118875873836
0.9997028646505824
0.9998163292672062
0.9998052488720623
0.9996897261462077
0.9998990655357337
0.9998839576369375
0.9998935745021361
0.9988807715348408
0.9995561707286504
0.9997722345352097
0.9997546824943553
0.999446422710392
0.9995188599321765
0.9999909761129636
0.9998067430107531
0.9998304270845616
0.999880280036164
0.9999072937895975
0.9999802741500914
0.9999096210845333
0.9999814671826192
0.9999800944218402
0.999981249236641
0.9999774776583152
0.9984348563398574
0.9996725067732941
0.9997115636446269
0.99976978202962
0.9990958258256082
0.9997421039632047
0.9997890014560488
0.9999918606370074
0.9993657320506596
0.9999328860161694
0.9999315966675164
0.9995255290001946
0.9995592621089394
0.9998247949279264
0.9984599885676635
0.9996178496413395
0.9996569588968914
0.9997278459281219
0.9998773764811798
0.9998895655628198
0.9999037048325651
0.9998263534756751
0.9997947747795876
0.9998074815693118
0.9997396988528847
0.9998287208181075
0.9997708250734971
0.9997355015468832
0.99960208540676
0.9996877275703214
0.9996089894213037
0.9999778973877144
0.9997000912400706
0.9997934277573602
0.999854435358243
0.9998454409837848
0.9999761454690586
0.9999720981886411
0.9999717764038226
0.9999645852121419
0.9999316730277087
0.9999298130615878
0.9999923347828791
0.9999930232471618
0.9983794332564233
0.9980683953688093
0.9994740528445177
0.9998518105004566
0.9998523893167165
0.9998630844676298
0.9998817863099226
0.9999060824128414
0.9999043638075349
0.9996622600412246
0.9995798815193189
0.9998113724724302
0.9998181857756852
0.9998280081142886
0.9998438576187224
0.999816806247271
0.9998549064797421
0.9998252297418355
0.9998600506490231
0.9998262114248652
0.9998560621807603
0.9997875530823251
0.9999789260327252
0.9999911756340835
0.9999925636206296
0.9999917487799512
0.9999912770080874
0.999867381992244
0.9999633670428135
0.9998143029446785
0.9994616058094388
0.9981986217553787
0.9998931944188727
0.9998845684965791
0.9998988153805751
0.9999922261005652
0.9999926655615917
0.9995109671098581
0.9998044233396798
0.9998258282848469
0.9998267079858054
0.9998484853703814
0.9999642659129963
0.999981635103228
0.9999204569879961
0.9987372632296218
0.9998443207841733
0.9999499456186691
0.9999788527878501
0.9999767554383985
0.9999124060707344
0.9999255089111138
0.9997213963425928
0.999776335754497
0.9998584924794727
0.9998218655603741
0.9997842067290001
0.9997788868335827
0.9998195983639915
0.9997746118412404
0.9998230872100266
0.9997838771768968
0.9998400825682691
0.9995802188580559
0.9999181360951993
0.9996251831826339
0.9996849026151657
0.9999024062805771
0.9995543336304362
0.9998879408215272
0.9999248247672865
0.9998148849226588
0.9996187693290174
0.9996420707653964
0.9998463635659786
0.9999923528931239
0.9997692294516822
0.999954916207213
0.9998878703182371
0.9981086089690501
0.9979224530493147
0.9979601723431453
0.9975867265763093
0.9978526498225542
0.9998154614192364
0.9999891226347101
0.9999909330124125
0.9999931801743294
0.999991952763821
0.999979670027799
0.9999745787438682
0.9999024623426814
0.9998956919496608
0.9999196899631455
0.9999355929594819
0.999705623195692
0.9998163117439658
0.9998276373491285
0.9995478999293496
0.9999698670883074
0.9998640042390903
0.9998511621712854
0.9999864948024582
0.999989163557386
0.9999075384011099
0.9999021219508399
0.9998902117290798
0.999717518148242
0.9998260379041802
0.9995395908339029
0.9999928348824496
0.9998903418467006
0.9999829714770916
0.9995829607472587
0.9978865816775341
0.9995869328556377
0.9999549386624954
0.9997035147433663
0.9997023632211182
0.9996434851576615
0.999651137436815
0.9995881229879015
0.9997070433282771
0.9999929815808348
0.9999920412507777
0.9997945194615802
0.9999778701144248
0.9998622305592523
0.9997810211690206
0.9996933804616263
0.9998488461584236
0.9998385419722814
0.9999051975942261
0.999887401463901
0.9997337060463701
0.9997557925982993
0.9998168277457896
0.9996602807596978
0.9996254525214109
0.9996786033435295
0.998866103680618
0.9999292554096983
0.9998817479372879
0.999986174116622
0.9998644858333858
0.9997960484379214
0.999372503176142
0.997704989923884
0.9997515596684884
0.9999190002329131
0.9999167151705148
0.9998013892363253
0.9995687094084157
0.9995912949045089
0.9996596989310811
0.9996272077627445
0.9995930600984952
0.9996750928239244
0.9999843841558129
0.999988032908979
0.9999906887691847
0.9999703112222963
0.9999734064661834
0.9999614184824172
0.9996654315209594
0.9997202188900374
0.9999267952192912
0.9998564059993441
0.9998740016757848
0.9999013000751883
0.9992882008155326
0.9994931285730108
0.9998166868110074
0.9998050634188462
0.9997964225152915
0.9997767377962588
0.9997736327287684
0.9997839991129478
0.999868234050463
0.9980440680669712
0.9983539683999911
0.999516622605959
0.9995396637879667
0.9997282831717875
0.9997316815139293
0.999745908450995
0.9997522040060077
0.9997398488247953
0.9999958511724933
0.9999802653140206
0.9999905484276674
0.9998826455819654
0.9998423153558196
0.9997422290780279
0.9998832664444925
0.9999930019957134
0.9998090818066518
0.9999610037216988
0.9997945289399088
0.9997728302143477
0.9997917754716604
0.9997761172856173
0.9997942338481434
0.9997807322652325
0.9997993082878546
0.9997880582835448
0.9998068040462658
0.9997496605361491
0.9997641195599083
0.9999935411839675
0.9999091847625662
0.9991387396673325
0.9992071405904817
0.999735943648258
0.9978169919163872
0.9997440308963875
0.9997078837730214
0.9998796246276263
0.9977406290053054
0.9978732139579077
0.999819654438894
0.9996800248508333
0.999797057553461
0.9979130284869111
0.9978524728762175
0.9997193690304925
0.9994936075770338
0.9998722855607108
0.999864487079852
0.9995567429535116
0.9999708113879943
0.9999680552419814
0.9999721435760367
0.9999648237452926
0.9997721889525135
0.9992860705957008
0.9975325860852918
0.9998813861776795
0.9998690857189177
0.9980265196040168
0.9977143662163643
0.9998932421784446
0.9999874147428649
0.9999862918556993
0.9999879448737423
0.9999862413467331
0.9999877248804273
0.9999892957602168
0.9999905201573145
0.999991051815277
0.9999038771781759
0.9999561579400119
0.9997183878848448
0.9991171353084541
0.999281970683871
0.9999842925503547
0.9999832950220524
0.9999809960874262
0.9998152666151605
0.9994746789906319
0.9995423102200143
0.9998358103868863
0.9991281254383614
0.9991908040678503
0.9999919153262014
0.9999672983526742
0.9999447295068951
0.9999450842018748
0.9999413466595325
0.999786191162188
0.9998269306078668
0.9998656907182103
0.9998725410420446
0.9998551735861729
0.9999693163597356
0.9995940971010558
0.9996539499209643
0.9998706110590634
0.9998905471352559
0.9998881365280984
0.9999915529670726
0.9999923870383943
0.9998428911030156
0.9997750245791316
0.9995680545607966
0.9999347758772936
0.9998958397914136
0.9997621628140025
0.9997487457834019
0.9999593242524287
0.9999767649275974
0.9999778405297497
0.9999645842068414
0.9999604032755032
0.9999131264071855
0.9999782047155036
0.9997220346715463
0.9984782901162967
0.9999225758685601
0.9999217444110641
0.9999753386430718
0.9997303004161245
0.99939480700585
0.9997395176366233
0.9997840406668214
0.9999814018829277
0.9998129530126998
0.9994325895568567
0.999983597179895
0.999988949751918
0.9999904595952708
0.9999763523862588
0.9999124296758256
0.999060718444621
0.9996289601498108
0.9998921906476258
0.9992474663435066
0.9994302607453944
0.9996238991467272
0.9996849112497579
0.999670261435234
0.999893046327546
0.9998727980135786
0.9999664306684309
0.9997949226757251
0.9997528030310174
0.9997586345919904
0.9999542912094026
0.9986731683970195
0.9998840623968122
0.9999285708978584
0.9999223482943422
0.9999548186536239
0.999971308505866
0.9999283367145707
0.999835866690396
0.9998203703520557
0.9998270574436401
0.9998058468462384
0.9998059459720472
0.9998823681186131
0.9999607580661982
0.9997512466132624
0.9997819006574739
0.9999861017442507
0.9999154638475128
0.9998985303006268
0.9998762646872187
0.9998656609163834
0.9998818033219902
0.9998491970068004
0.9998564007507756
0.9995706097099484
0.9995211101855989
0.9995467281935577
0.999494512417751
0.99944360375782
0.9994224986546064
0.9993282838094635
0.9996303056743816
0.9993043724402985
0.9991929103803054
0.9998613123300741
0.9996942161814448
0.9992294565621657
0.9995234066333686
0.9999701833370177
0.9999750322090694
0.99995616311551
0.9999819216802724
0.9999954568549971
0.9979205621014217
0.9980190298713724
0.9984293784260229
0.9984822998840864
0.9979083998047107
0.9983460026225108
0.9975834172948986
0.9979133591616942
0.9972313881926581
0.997519234993887
0.9968712638855189
0.9972907132763874
0.9968005950653908
0.9972593619046238
0.9968106360296032
0.9972601390019501
0.9968372913512549
0.9972809460112948
0.9968928779989494
0.9973219831233212
0.9969526584717899
0.9973626992146825
0.9970199459247614
0.997410188064135
0.9971029609866766
0.9971076265240165
0.9971935243257944
0.9974750791991731
0.9968702671036297
0.9975538058447906
0.9974822136688
0.9973332285083271
0.9974245498682688
0.997587542861764
0.9976499383881966
0.9972656540624977
0.9977021562469746
0.9968350086503677
0.9974759496445984
0.9974930596954629
0.998317672537614
0.9973296234268099
0.9977627738898939
0.9980947234578686
0.9979505758798853
0.9979211198588096
0.9972397401298005
0.9973003051351039
0.9975372271358836
0.9986817646853551
0.9985327720641838
0.998138471684348
0.9985572874003485
0.9985314102931241
0.9988903438157714
0.9999653949355021
0.9999818603133277
0.9997689673420166
0.9999908029648363
0.9999922422946068
0.9989946437804171
0.998908430460915
0.9997376784310165
0.9999086355303365
0.9978112009650731
0.9998332246585474
0.9998515296443791
0.9998334560269907
0.9999029343560849
0.9998038747227691
0.998012244033234
0.9979845805355332
0.999800042979111
0.999764869020306
0.999812162735797
0.9997476886314459
0.9998316933832675
0.9998130204242808
0.9998209315741968
0.999813949140016
0.9983477701252714
0.9987651970416396
0.9987356518745575
0.9991163330526016
0.9990896322216972
0.9993858616572708
0.9993707988663778
0.9995729508257399
0.9995845101557133
0.9996933723571035
0.9998795074308983
0.9998576754530724
0.9998414853085932
0.9998307858106078
0.9997861735002602
0.9994638441579904
0.9994955757013436
0.9995654762585754
0.9995218837363801
0.9998263391515431
0.9999215729648898
0.9999355849256409
0.9992224011523119
0.9997391878479477
0.9997320270450151
1.0000189322732458
0.9998922724485232
0.9998998646663704
0.9998952500109901
0.9998931296028035
0.9998826502328669
0.9998594544446733
0.9998699313420113
0.9998463349533229
0.9998469024473545
0.999882162543047
0.9997813210582195
0.9994157113709172
0.9994876229366605
0.9975687242762308
0.9998081373185782
0.999830188267571
0.9999738385483442
0.9999740979214967
0.9999687225252777
0.9999153040695548
0.9998940915900888
0.9995408263124185
0.9994246764746996
0.9993799007264513
0.9995760952017121
0.9999931960338739
0.9999870008063522
0.999974964214803
0.9999790615370371
0.999845716702524
0.9999178363286357
0.9998692336089327
0.9999316487759
0.9999315134529825
0.9999414825352821
0.9998647558709144
0.9998568971519464
0.9998742514856311
0.9998443948540365
0.9996895622540596
0.9998252805359132
0.9998207218503584
0.9999899195669021
0.9994517339173186
0.9994667651782841
0.9995442724693457
0.9994916193798706
0.9999069397169507
0.9998900069666841
0.9999002576900246
0.9999591147565557
0.9978651045971568
0.9999170661352431
0.9999167914617774
0.999902287581944
0.9999026792110076
0.9998875796962541
0.9998825211154371
0.9998663629025636
0.9999719216969877
0.9999938207783587
0.9999424616959105
0.9981595252850508
0.9998447655738566
0.999810240732076
0.9998040850417028
0.9997464033202884
0.9997831469475357
0.9994731200613629
0.999888421812383
0.999809250622312
0.999799202010068
0.9997563455535576
0.9997876637305552
0.999940384681474
0.9996035296404592
0.999505645547686
0.9999751600086493
0.9999913791830374
0.9989317173750478
0.9992087902645227
0.9997386004229795
0.9999754227074932
0.9999637024185958
0.9996982123384456
0.9998889010430311
0.9999719265471206
0.9992868800869109
0.9997231428501079
0.999876044883271
0.9998459722947173
0.9996133906281673
0.9997213032810148
0.9997446115514643
0.9999730109427296
0.9999706089921537
0.9994925150357141
0.9999892811272402
0.9999884084524862
0.9999528558071681
0.9999126939136795
0.9997555257907316
0.9998263343642686
0.999968065121489
0.9973947410875752
0.9978285469232173
0.9997460175665264
0.998306705918702
0.9981150930027909
0.9999799506917589
0.999978413227785
0.9999805923510293
0.9994170186426636
0.9994452143787821
0.999912851194279
0.9997877257934801
0.9997922100975222
0.9998187539830693
0.9996480166801451
0.9997470054674868
0.9997795405705208
0.9999935015065781
0.99999219677037
0.9990939688504443
0.9990532133601693
0.9996037301681946
0.999926441938484
0.9995580104357056
0.999357439443074
0.9993342206955393
0.9999604362067243
0.9986903846829441
0.9985252815970858
0.9985102843201749
0.9996209201046515
0.9998245843493706
0.9976903757836594
0.9976709050152318
0.9978578048951718
0.9978360916397117
0.998081610188681
0.9980285175407967
0.9978069072133571
0.9979480196264808
0.997756767862921
0.9978757349664837
0.9983959555678443
0.9999090713391705
0.9998314040641471
0.9978832505068647
0.9987389203307884
0.9980723371316195
0.9975281742936672
0.9984528715513937
0.9978676554677905
0.9973452640711994
0.9967146733832697
0.9984112465441205
0.999839040557764
0.9998256452571408
0.999873149962498
0.9997839936611084
0.9997816065609333
0.9999862712737475
0.9999881990778751
0.9998321937076032
0.9997817709689135
0.9998473110315801
0.9988626774741411
0.9967038448376819
0.9982843508474917
0.998136522171447
0.9977825235758678
0.9980404355377325
0.9976832022004262
0.9996670997032321
0.9998611546108178
0.9979305250079636
0.9999844057310486
0.9999462659067887
0.99984884812484
0.9986245026148637
0.9993976908447222
0.998624982046133
0.9988776289646992
0.9999271501247161
0.9999528053847047
0.9999484326170319
0.9994774193683716
0.9997085393860901
0.9998775380064245
0.999815417060975
0.9999412635814374
0.9998729525714605
0.9998907851670025
0.999863159648079
0.9998359599784188
0.9998231670361993
0.9997926439463478
0.9998911351517171
0.9988608747182584
0.9996514171907548
0.9974348146754167
0.9973710511827334
0.9974325680856833
0.9972359275587817
0.997382429989352
0.9970819932080626
0.997479112234217
0.9975173460565896
0.9972882051624443
0.9999170168808797
0.9975504996290976
0.9999112293152599
0.9973759031688535
0.9998995087742897
0.9999456730613587
0.9972969236656095
0.9968787733092251
0.9998703713197565
0.9999901945389126
0.9999912041393518
0.999991342348815
0.9999921160710248
0.9999919215171659
0.9999928328274178
0.9997643126114373
0.9997743299418596
0.9997771447795989
0.999789359559308
0.999796727695341
0.9998066171867072
0.9998181753564818
0.999800704976213
0.9998163894506321
0.9998094428633152
0.9998114462533135
0.9998364414332543
0.9998426727716144
0.9998641162247782
0.9998011638478119
0.9997795148261547
0.9998320606860972
0.9997688793829533
0.9998009841829373
0.9996934564155353
0.9987637893620696
0.999815930053669
0.9994446020340365
0.9994172087779367
0.9997948274139965
0.9998898357350103
0.999746254834672
0.9997052462905207
0.9997057985430188
0.9997086176964382
0.9997459825309446
0.9997154957538881
0.9997174359396673
0.9996648127487461
0.9995363942987262
0.9998531113561405
0.9998094813834404
0.9998436036715315
0.999906777969687
0.999838591409438
0.999873796362444
0.9998205812396149
0.999621822063063
0.9995935060901874
0.9996391365209151
0.9997083037580005
0.9997540055360672
0.9975139405578995
0.999906457799049
0.9995621741036008
0.9996558493830359
0.996736173182798
0.9998780889098431
0.9999914775213751
0.9998207476117809
0.9993585954639836
0.9998260657427671
0.9998329431092385
0.9999900377703109
0.9999162169535375
0.9998758724747475
0.9998872612189205
0.9998655250461149
0.9998425832964429
0.9998600023648968
0.9998078621316423
0.9998250397010754
0.9999270484268857
0.9999352340783635
0.9999228400327823
0.9999317725879951
0.9999208448321267
0.9999154424220266
0.9999850235864567
0.9998644671397472
0.9999138158601245
0.9978852882965756
0.9997757820640365
0.9988148691118097
0.9982437626744901
0.998248854586558
0.9983037108577895
0.997646006823272
0.9974800538954889
0.9975102786806399
0.9983536825986096
0.9991261068380626
0.9988235951286119
0.9999261301420599
0.9999071340813971
0.9993534433623709
0.9994268278061531
0.9995698943363466
0.9998818234771953
0.9998538336538584
0.998516113052618
0.9998176048019417
0.9997323158495817
0.9997257832116868
0.9997200671624742
0.9998423165048301
0.9993919433593902
0.9995626871123108
0.9990434687640509
0.9999991713913351
0.9983827502892885
0.9997828270420712
0.9991059221151655
0.9999846764793996
0.9999886987197906
0.9984682237267617
0.9993742877500856
0.9998332574011705
0.999539182769279
0.9995073849521938
0.999446133646139
0.9994520740146478
0.9997538898976137
0.999808395741411
0.9971750171573608
0.997502603487312
0.9998413801036309
0.9997463812409536
0.9998718328874197
0.9999156994926207
0.998312009425124
0.9999467149844438
0.9999086110243072
0.9993570591385682
0.9998939684441163
0.9987992136168535
0.9999026437267324
0.9979845246268618
0.9999616432411977
0.9994084908551134
0.9994502641681831
0.9995880952750832
0.9995859449516135
0.9995914553678238
0.9998267494541022
0.9997383759105168
0.9997926220491828
0.9993579057778678
0.9994791043422236
0.9999320473562214
0.9999490612738751
0.9999766992458642
0.9999301731979214
0.9999724371774434
0.9999634384076865
0.9999809781518787
0.9999886814508065
0.9999810998348224
0.9997880081050987
0.9997404859484788
0.9997696846719546
0.9999037312059996
0.9998886421843446
0.9996992305070717
0.9999339870909255
0.9996906724634065
0.9995935857575272
0.9997452128349483
0.9998409882071094
0.999318418785704
0.9997683013482213
0.9998113737600504
0.9999268133327113
0.9999011441318473
0.9995340023644472
0.9995834578058057
0.9995046549778843
0.9995530500423296
0.9994320324660779
0.9997938856684028
0.9974091073113204
0.9999937882745562
0.9999939879373869
0.9999936503550146
0.9999937247952232
0.9991137291299024
0.9999825728236355
0.9988351139375627
0.9974442369715036
0.9999018853313069
0.9998789045124855
0.9998951004880158
0.9994885452213885
0.9994223905143992
0.9984743354111959
0.9997130450555506
0.9998642008503247
0.9999956182157184
0.9984273198023866
0.9987860124679943
0.9999958257726146
0.9999877573329824
0.9988430889138179
0.9989686720103672
0.9998561857656851
0.9998287019717044
0.9998384936762523
0.9998339443182624
0.9998286489912692
0.999605592786551
0.9995931423466803
0.9995600417714711
0.9999935329401078
0.9999901584944327
0.9999911144767281
0.9999911207464885
0.99999145101112
0.9999910855106817
0.9999902304507581
0.9999904764063597
0.9997187350465943
0.9998636827324628
0.9999539472317495
0.9999809297530111
0.9997665707557666
0.9999821626483955
0.9999686671236683
0.9999687416874016
0.9998990203986141
0.9998896583796868
0.9998588885076914
0.9998038348088394
0.9998682545489758
0.9999772981302645
0.9982156558786993
0.9979131161190525
0.9980276587174263
0.9978125305585008
0.9983054094657567
0.9977513520257298
0.9976745567975673
0.9976111808633897
0.999844782793253
0.9998116401910982
0.9998240498526476
0.9999600978411958
0.9999018266833266
0.9997244036621104
0.9995270881622376
0.9997767366034037
0.9980659424496924
0.9991704661288703
0.9990012069041646
0.9988858460106369
0.9999536501388311
0.9999535283956155
0.9999456988826493
0.9999906530163274
0.9999819138074786
0.9973974295348227
0.9999487912984465
0.9997215971728765
0.9999931082310256
0.9999093564056981
0.9997665252839893
0.9996022591461178
0.9997739032869527
0.998503930301644
0.9985266025936724
0.9986372750120709
0.9996188153630468
0.999942528351284
0.9999410850510152
0.9999534042502372
0.9998182726240836
0.9990311223063669
0.9988956085204692
0.9997964410746637
0.9998034165138904
0.9997512374898458
0.9997737617458821
0.9999930601310513
0.9997528868958769
0.9999374125814601
0.9999280347636914
0.9999516919916213
0.9999188673794612
0.9999505323190246
0.9999737741666722
0.9998517113491038
0.9980806933581412
0.9980680379038926
0.9999138994508554
0.9989058035180443
0.9999550236735977
0.9985442964057638
0.9998884778136145
0.9999907141860814
0.9987857885192817
0.9998876961802491
0.9998052840141805
0.9996365189192011
0.9959586837683794
0.9999899538765408
0.9997406314500864
0.9997453668160533
0.9997866590433209
0.9996612902809189
0.9996932689134328
0.9995794349239916
0.9998371163116377
0.9999533714759187
0.9991430032837975
0.999910152786869
0.999728439929408
0.9983630468429231
0.9999037181968917
0.9992551974079712
0.9999019755543223
0.9976217433330656
0.9998938718585748
0.999866196412645
0.9998528677928864
0.999859188158627
0.9986681285338551
0.9992961888200129
0.9979242735564999
0.9997786621542388
0.9996987997728572
0.9996594020864007
0.9998546997200606
0.999856825888413
0.9999150077849911
0.999521817480573
0.9999043036418591
0.9998946236434832
0.9994724273952612
0.999291106956948
0.9977338753156605
0.9995891118779673
0.9998098058542829
0.9999027947603129
0.999990412742793
0.9999015439465626
0.9996726964827632
0.9996828529777773
0.9998332194809143
0.9999346343138702
0.9997685314405901
0.9998889448245706
0.9998182808897502
0.9996668458164342
0.9999857294816694
0.9999806776619123
0.999974202752531
0.9991691965905283
0.9999633962790896
0.9999902050142901
0.9999703066893721
0.9999736197468571
0.9999916616961075
0.9999932283983773
0.9997217905314983
0.9993441573000835
0.9999809750214698
0.9998633909180814
0.997937824730223
0.9997964983918087
0.9999775627575138
0.9999816657234903
0.9981452917651723
0.9999226355848497
0.9999794758567351
0.9998040933352238
0.999751582917436
0.998151195985859
0.9997413778361669
0.996830014230061
0.9994123352138694
0.999926460452529
0.9994604035039915
0.9994002767939075
0.9988130176422194
0.9990953297456805
0.9998622817221271
0.999772207342547
0.9999908972087246
0.99974749795523
0.9988990880847859
0.9990618817185772
0.9985218021685042
0.999416045358898
0.9998385436935928
0.9953528894752858
0.9999896811652538
0.9999835325577111
0.9995196167024863
0.9999621776423461
0.9984391741910708
0.9999592413392239
0.9999677307943584
0.9999571317472085
0.9993460007332051
0.9997883663030082
0.9999712190851927
0.9999417812348428
0.99995480044576
0.9993462182499636
0.9999902497237756
0.9986968863456392
0.997864081507355
0.9998014488644419
0.9995108277428947
0.9998493557544976
0.9988919740638615
0.9999330247346359
0.9998205844867782
0.9998315866282452
0.9999841916105892
0.9996818113974709
0.9996679503588571
0.9999923526592527
0.9999354161883205
0.9999927478234876
0.9999889281571814
0.9998152533017337
0.9959551022630214
0.999888924140894
0.9999255599782122
0.9999202781588166
0.9983772136894344
0.9995546641170066
0.999957385155645
0.9969180224400621
0.9999705063479655
0.999766501383414
0.9996450094209165
0.9998454662774569
0.9978581624061786
0.9982277491060351
0.9996500824877234
0.9997888793265943
0.9996246570368468
0.9998532596310158
0.9995715979297424
0.9999736491996836
0.9999628560381173
0.9998372483859522
0.999980661242514
0.9999792819969369
0.9998117263106534
0.9993509186600009
0.9995631644381863
0.9997596170424942
0.9996474142917865
0.9999529397949695
0.9999847661264507
0.9992521326912136
0.9993015203974338
0.9993417145449973
0.9997461086854412
0.9993503912043555
0.9996988219833208
0.9998396785067409
0.9999227521523547
0.9993608788962524
0.9993675667816249
0.9997755172234876
0.9998246538507968
0.9997862047308839
0.9996821801980762
0.9998124741420953
0.9999036617836735
0.9998897319454934
0.99933711327106
0.9993645032223988
0.9998592206345502
0.9998477965193567
0.9999848625214435
0.9993594542894123
0.9999849261005235
0.9997665512846478
0.9999645874958656
0.9995632723834381
0.9999840231508885
0.9997874662000772
0.9991959732437524
0.9997934519307283
0.9990874745716523
0.9997487052543939
0.9999132436885456
0.9999843185473714
0.9996947811281888
0.99956443696434
0.9999394933308319
0.9999818161362299
0.998975286476589
0.999943038674957
0.9989218062779525
0.9999591022231753
0.9997645414378599
0.9998078041796945
0.9976532607172914
0.9998367539751852
0.9947990998533227
0.9996469576184729
0.9998909649143201
0.9994518041938344
0.9984963297735748
0.9999549913208914
0.9999782255968885
0.999705869597266
0.9997034909244121
0.9999812656653253
0.9980500168828457
0.9999026273687612
0.9998809719335757
0.9997879840237281
0.9995738158462164
0.999719479179807
0.9998810462601945
0.99976144117296
0.9997505154529384
0.9996987760384314
0.9997430731053564
0.999514480730582
0.9999691567836747
0.9975226429981002
0.9974550197014663
0.9970151441815092
0.999973928496442
0.9998451412231849
0.9996966833600941
0.9998517913013447
0.9996520999911789
0.998200018928596
0.9999498535472932
0.999716136805199
0.9999036686583592
0.9999176290404312
0.9998469485930489
0.9999239014925632
0.9998420694972987
0.9967899496305027
0.9997570247044621
0.9981202569745021
0.9998159175538146
0.9998105544989215
0.9999643625640513
0.9998328695784569
0.9997004439116267
0.9999636814329131
0.9999195927799677
0.9980096933953405
0.9998422485997395
0.9998123832507441
0.9996876107782089
0.9996357207598473
0.9981774852209103
0.9975647967275496
0.9998416199126589
0.9999647981132742
0.99960507438318
0.9997641930225036
0.9997388559020922
0.9999495994077751
0.9976910784605464
0.9998617972592786
0.9993027465286546
0.9999403973230703
0.9999000686547541
0.9999332884835722
0.9997935789957658
0.9995054197112898
0.9998216054469587
0.9998490733288701
0.9994208297505167
0.9999474340121108
0.9999892089878839
0.9997343487670277
0.9997931674124239
0.9998675525354863
0.9996321516707793
0.9994511588199833
0.9999921595509332
0.9998100980499159
0.9998443859801673
0.9998086379942427
0.9998504643079902
0.9998317726047142
0.9995404258373496
0.9999404639906581
0.9983766612418047
0.9990547170651931
0.9999636727987369
0.999948432053005
0.9998564141434928
0.999821375403381
0.9998386200148458
0.9981623775470332
0.9996598003258281
0.9998858369961676
0.9998494867204661
0.999812919104158
0.9999138689324357
0.999784918292443
0.9993588076049192
0.9999629706242584
0.9999747678678759
0.9997082511691762
0.999793224428826
0.9998205789255769
0.9993743010789425
0.9976409580196189
0.9993955413826628
0.9996817050279687
0.9999109484170666
0.999412768923786
0.9998016121704458
0.9999890775997061
0.9997909710086448
0.9999916954509754
0.9997260964491033
0.9998668883481081
0.9981681146619844
0.9997639851980574
0.9974987393994165
0.9976889825471119
0.9997404697838147
0.9999393180389077
0.999866583296578
0.9998719103931402
0.9998498287789744
0.9998732419685428
0.9998468140952788
0.9996395228009363
0.9983129446609816
0.9977041577884774
0.9998772764928423
0.9996109287268098
0.9986089752948991
0.9998844064655037
0.9999142257506874
0.999684370907416
0.9998903530723928
0.9998927213235117
0.9999170120601673
0.9998989327277154
0.9997824048517303
0.9999062888169455
0.9999261961213718
0.9998608911225962
0.9977857757361566
0.9996327274182624
0.9985508747147644
0.9976606235075499
0.9997477544097325
0.9988627168732515
0.9996324454220361
0.9997742806781199
0.9990925941297072
0.999983164912632
0.9999529048925205
0.9972968219474664
0.9995809202842121
0.9996339797953695
0.9988704386402489
0.9999680106236163
0.9980656078166177
0.999215792601045
0.9999076728125734
0.9996724397494133
0.999971114551699
0.999978156020344
0.9992718877976684
0.9999896019209111
0.9995339644745869
0.9999667588906883
0.9981108533398471
0.9999266348655862
0.9995565645708709
0.9978684809464716
0.9969505431356835
0.9992759193399174
0.999049227095807
0.9978579229693446
0.9996985596142738
0.9997803755464786
0.9996347997235384
0.9997678387542458
0.9999061495250223
0.9997249145429983
0.9999791758018298
0.9997352818022609
0.9994006148551655
0.9999054082616632
0.9999879662314478
0.9980086345258612
0.9998966955166751
0.9998823310136313
0.997869081281026
0.9999937592369473
0.9998278206450356
0.9998886782852101
0.9994308321613792
0.9991387356786653
0.9997951533396555
0.998689501438926
0.999948294244795
0.9994070508384233
0.9998968608024895
0.9999544838539443
0.9999730035437875
0.9998982702796348
0.9999932674397609
0.9999499345227032
0.9984596798289723
0.9998455236252357
0.9978630964906701
0.9995154811664159
0.9993694268969913
0.9993115765161463
0.99947084921782
0.9976124962940248
0.9972111522907338
0.9994446658926033
0.9985091123691923
0.9998362140885417
0.9997888884605892
0.9999633101220176
0.9999866322540635
0.9997361548673565
0.9995067124281766
0.9996024343120363
0.9993267725178624
0.9998688340822118
0.9969309991781753
0.9990959895648482
0.9998989717693564
0.9996146494301861
0.9998629545233486
0.9998236174479974
0.9999011889386955
0.9999150808190475
0.9999150069472744
0.9999595897209349
0.9999657225842077
0.998771470830581
0.9999780375589803
0.9979628736684469
0.9998049449210564
0.9987721298601742
0.9999726892453218
0.9996172867472121
0.9994141026425941
0.9998587927136267
0.9994801056207605
1.0000093175062754
0.9998896539794786
0.9999960852382263
0.9999015214814508
0.9977579001390878
0.9998861843704111
0.999992173321983
0.999992871976166
0.9990022538874652
0.9975797598859796
0.9995624776880886
0.9993191864675114
0.9982873674237859
0.999903134899606
0.9995390704245011
0.9986416505792967
0.9997464876511369
0.999883905146157
0.9998396845259065
0.9996726785684301
0.9996863153045011
0.9975980637552355
0.9999799160015179
0.9996478250186285
0.999822822722354
0.9997481755579423
0.9999015144820333
0.9999836490799844
0.9997632756155388
0.9998064942401633
0.9969464796807187
0.9996991984361348
0.9997294710917398
0.9998665511982078
0.9997898525240009
0.9997659196434814
0.9995540749580043
0.9998766512371967
0.9976153674568131
0.9997592587893006
0.9998392359633896
0.9999633004954266
0.997738117628261
0.9995811156739965
0.9999401599083725
0.9981130082437352
0.9998040185058413
0.9996554992089561
0.9993958180639959
0.9999762269128191
0.9996649882388515
0.9996754091685119
1.0000216228425054
0.9999864112353025
0.9997669727392333
0.999793616745322
0.99806069126723
0.9999586408785784
0.9998521672701225
0.9999919107100088
0.9998254940456999
0.9999786720117285
0.9989502941876937
0.9978646658116073
0.9973822326945415
0.9999634562271473
0.999890789878463
0.9997644103540364
0.9999913886372005
0.9997756556613056
0.9990986158573266
0.9999206979598183
0.999972215953637
0.9998041643015118
0.9998394323873123
0.9999557881869514
0.9998082360640118
0.9999925159330089
0.999652073815014
0.9999345392217293
0.9977863949114419
0.9981307536630591
0.999891508979721
0.999883190797214
0.9995490536058971
0.9997516570243925
0.999849989889281
0.9998505905788387
0.9990244359844769
0.9999755477393061
0.9998906524793234
0.9996773978252583
0.999907428090717
0.9993948197654279
0.9999544401397973
0.9995723178766701
0.999810422724486
0.9987637158152375
0.9999693166793958
0.9994875178900683
0.9993184877776707
0.9998226428250455
0.9999308032462149
0.9998843985204525
0.9997319681052711
0.9977507600028824
0.9999053817026887
0.9977572658619976
0.9997795738607421
0.9998387263803594
0.9977054329151442
0.9996667347421822
0.9999709354216418
0.9999908323079257
0.999886478323835
0.9997752957941114
0.9999232120566378
0.997850965013159
0.9999785059887646
0.999915444936146
0.9998048278362787
0.9998047888791278
0.9995369492943587
0.9997713326102837
0.9989776155344265
0.9997262767420019
0.9998177248992509
0.9998233931509984
0.9988586511001987
0.9998631684558518
0.9999625864485511
0.9995708822375711
0.9997195290581532
0.999824041259017
0.9998683696895027
0.9998739629117737
0.9999094689658522
0.9997953688440926
0.9975638513913785
0.9998814009982179
0.9992284073856269
0.9966915339796846
0.9986462529600729
0.9989016517509074
0.9997239092543451
0.998843715489709
0.9999127510207935
0.9998823725281394
0.9999760916567854
0.9999142714919199
0.9997901450419703
0.9995103254706273
0.9999910322625871
0.9998134181450901
0.9997872671830026
0.9999010645717418
0.9998167049317394
0.9983326935204592
0.9999199418410919
0.9983604686887754
0.9977956084170315
0.9997201405873168
0.9998135547902794
0.9999826117938486
0.9994726055475607
0.999865152727022
0.9998112714375853
0.9998096504625418
0.9999207575142955
0.9999512425620084
0.9999911386358832
0.9999798674368006
0.9986452248697729
0.9996988337439067
0.9983293065362541
0.9999420219957252
0.9998980660268223
0.9993946329914722
0.9998396601167817
0.9994218959853737
0.9999456137568054
0.9996126128910106
0.9998110486628363
0.9993218699677167
0.9996711486935035
0.9986014955710938
0.999796189066341
0.9995925632152438
0.9997827775634731
0.999979627642985
0.9999118851789098
0.9985711023265889
0.9990436491074787
0.9990512255972218
0.9999912413349933
0.9988406292957775
0.9994228123411285
0.9999390590300314
0.9998959328664855
0.9998292596916135
0.998536150649762
0.9998873660295773
0.9999929819834913
0.9977575207591386
0.9999576855146259
0.9993726076246561
0.9999917969515151
0.9971988047682235
0.9996076023109979
0.997699556801596
0.9998095670633965
0.9998346917720964
0.9964579007728706
0.9997122971497068
0.9999895446229516
0.9999680755444753
0.9994906179733525
0.999898901106074
0.9997639432256189
0.9999782737187757
0.9986532104783734
0.9966741973458696
0.9997849362508194
0.9995915949684704
0.9999929447793466
0.9998269725799644
0.9998658143109407
0.9994063926528197
0.9999925872865555
0.9991331322306745
0.999906369179009
0.9995724555164076
0.9975447280586759
0.9995886874796867
0.9999200274472978
0.9999897666857767
CELL_DATA 4886
TENSORS stress float
-843930.3589722414 60395.48959593579 0.0
60395.48959593579 753595.5115792566 0.0
0.0 0.0 0.0

-379320.7340782161 220527.0940514128 0.0
220527.0940514128 254093.50340663124 0.0
0.0 0.0 0.0

-160879.8595252968 1.0919067433570498e6 0.0
1.0919067433570498e6 23561.324447555206 0.0
0.0 0.0 0.0

-208119.46226780827 882299.3104217343 0.0
882299.3104217343 284225.32707576966 0.0
0.0 0.0 0.0

-311662.9449433667 1.8802305619179257e6 0.0
1.8802305619179257e6 28255.51469905743 0.0
0.0 0.0 0.0

-144017.83157541015 -392916.47768092225 0.0
-392916.47768092225 551448.9656008824 0.0
0.0 0.0 0.0

1.0546561089901892e6 2.93625963811335e6 0.0
2.93625963811335e6 -895922.0812167623 0.0
0.0 0.0 0.0

1.1619477061885812e6 236680.79541024333 0.0
236680.79541024333 -1.3900912437472225e6 0.0
0.0 0.0 0.0

-757491.4439800172 83759.1478272303 0.0
83759.1478272303 790462.2702434538 0.0
0.0 0.0 0.0

-32546.508149466157 824667.421116626 0.0
824667.421116626 359160.99959649914 0.0
0.0 0.0 0.0

-197514.14275365038 3.7980877488157363e6 0.0
3.7980877488157363e6 -179680.75654324435 0.0
0.0 0.0 0.0

-192447.32741169177 2.8227978571040165e6 0.0
2.8227978571040165e6 71251.05294429707 0.0
0.0 0.0 0.0

755524.8781720062 422642.5535003158 0.0
422642.5535003158 -1.0988007663081998e6 0.0
0.0 0.0 0.0

2.8345648904142487e6 2.7293565982886134e6 0.0
2.7293565982886134e6 -379648.07881294773 0.0
0.0 0.0 0.0

-226822.0006421113 3.829159011686754e6 0.0
3.829159011686754e6 -191600.87090581155 0.0
0.0 0.0 0.0

469743.38530682074 155957.61348153884 0.0
155957.61348153884 -802131.7746477303 0.0
0.0 0.0 0.0

122559.46807338437 794012.8980041051 0.0
794012.8980041051 -226625.74559662267 0.0
0.0 0.0 0.0

250929.8655025602 646651.0901625972 0.0
646651.0901625972 -498884.87878381845 0.0
0.0 0.0 0.0

-125105.51157454101 -47534.73979008087 0.0
-47534.73979008087 176557.24818590342 0.0
0.0 0.0 0.0

-122276.27518768664 3.9687221620008033e6 0.0
3.9687221620008033e6 -104338.80818571684 0.0
0.0 0.0 0.0

354432.5636452571 1.0078390336914962e6 0.0
1.0078390336914962e6 -201816.47662666644 0.0
0.0 0.0 0.0

-283407.9730260039 2.862888986125609e6 0.0
2.862888986125609e6 12830.481787500888 0.0
0.0 0.0 0.0

-216691.4214229243 73332.65142511738 0.0
73332.65142511738 171468.19232144154 0.0
0.0 0.0 0.0

-181819.5152171163 959353.8060292249 0.0
959353.8060292249 270086.65133896185 0.0
0.0 0.0 0.0

453523.8886726506 478090.3097189049 0.0
478090.3097189049 -852271.9107643599 0.0
0.0 0.0 0.0

703014.0169457626 4.200707669072824e6 0.0
4.200707669072824e6 -169750.71095152505 0.0
0.0 0.0 0.0

935999.6912246224 2.3100492138896333e6 0.0
2.3100492138896333e6 -258010.70581530448 0.0
0.0 0.0 0.0

-461504.9927888159 292904.69788615283 0.0
292904.69788615283 309082.5049831453 0.0
0.0 0.0 0.0

550254.8887732865 211245.691338596 0.0
211245.691338596 -628747.343231858 0.0
0.0 0.0 0.0

-266177.0651607921 -22080.64173719094 0.0
-22080.64173719094 265687.6851015446 0.0
0.0 0.0 0.0

-188125.59568814206 86144.2917541623 0.0
86144.2917541623 160294.95400259725 0.0
0.0 0.0 0.0

-152618.62299236437 1.6391549555795866e6 0.0
1.6391549555795866e6 -86837.45394516687 0.0
0.0 0.0 0.0

-149325.5217849146 1.0180280886465614e6 0.0
1.0180280886465614e6 -11730.997094081336 0.0
0.0 0.0 0.0

-3596.823594560199 1.1420906610733627e6 0.0
1.1420906610733627e6 -106458.47016091841 0.0
0.0 0.0 0.0

-250884.91049774247 816891.8433813347 0.0
816891.8433813347 64463.90503703283 0.0
0.0 0.0 0.0

-241832.13594531003 60919.314016015465 0.0
60919.314016015465 264092.4352106239 0.0
0.0 0.0 0.0

-287454.72228056786 2.3465702018912877e6 0.0
2.3465702018912877e6 -411471.5200501826 0.0
0.0 0.0 0.0

-257507.9029892394 818000.0260266594 0.0
818000.0260266594 63686.719697882334 0.0
0.0 0.0 0.0

360754.15423019894 575857.9451199793 0.0
575857.9451199793 -687776.2231771915 0.0
0.0 0.0 0.0

-375046.5237160671 1.2718203097556988e6 0.0
1.2718203097556988e6 115611.53278279866 0.0
0.0 0.0 0.0

736918.7177217423 417715.0472078009 0.0
417715.0472078009 -1.2064062019525617e6 0.0
0.0 0.0 0.0

-112948.88194805151 1.0612734217234808e6 0.0
1.0612734217234808e6 16261.755419107612 0.0
0.0 0.0 0.0

-332353.13089158223 1.2417577965759062e6 0.0
1.2417577965759062e6 108282.09605143388 0.0
0.0 0.0 0.0

-114737.45629828074 57143.23112721754 0.0
57143.23112721754 115399.29161463803 0.0
0.0 0.0 0.0

317912.68378927105 897279.3569515208 0.0
897279.3569515208 -460671.59598185204 0.0
0.0 0.0 0.0

-396130.4736547308 404339.38634805736 0.0
404339.38634805736 404960.72218031075 0.0
0.0 0.0 0.0

145408.9650559863 2.464205714759793e6 0.0
2.464205714759793e6 -222460.618234055 0.0
0.0 0.0 0.0

-148514.78114576175 2.321042533498273e6 0.0
2.321042533498273e6 -472286.51370743144 0.0
0.0 0.0 0.0

1.175360063187993e6 203034.00512004015 0.0
203034.00512004015 -1.397306819728503e6 0.0
0.0 0.0 0.0

8665.045657939587 482654.4456927835 0.0
482654.4456927835 28883.479781061138 0.0
0.0 0.0 0.0

-360785.752599501 1.9040909149060254e6 0.0
1.9040909149060254e6 61438.79414869941 0.0
0.0 0.0 0.0

-145326.47173392557 122678.48562994477 0.0
122678.48562994477 215934.3679270738 0.0
0.0 0.0 0.0

1.1824444793919127e6 203741.02745413175 0.0
203741.02745413175 -1.5056033885659631e6 0.0
0.0 0.0 0.0

-335674.97031282797 1.329822441409414e6 0.0
1.329822441409414e6 62932.12648853313 0.0
0.0 0.0 0.0

72364.20757338703 546545.9020995855 0.0
546545.9020995855 214675.94213250946 0.0
0.0 0.0 0.0

-139738.2821275946 1.0626540622936166e6 0.0
1.0626540622936166e6 225490.54026984875 0.0
0.0 0.0 0.0

1.1128123126787303e6 271069.0279460142 0.0
271069.0279460142 -1.4077828953550821e6 0.0
0.0 0.0 0.0

-333293.3473452693 1.2894202563709735e6 0.0
1.2894202563709735e6 133995.54913683946 0.0
0.0 0.0 0.0

-118501.07892427646 734896.8563041263 0.0
734896.8563041263 1.0804563888359251e6 0.0
0.0 0.0 0.0

365793.91600711946 523121.14547707496 0.0
523121.14547707496 -555823.3276097239 0.0
0.0 0.0 0.0

43.34253110556892 668020.1723722103 0.0
668020.1723722103 -174536.28654713475 0.0
0.0 0.0 0.0

325068.19335960195 2.5634935003859615e6 0.0
2.5634935003859615e6 -853769.2556835248 0.0
0.0 0.0 0.0

-61413.66114536431 954676.4973644416 0.0
954676.4973644416 -103881.18308866958 0.0
0.0 0.0 0.0

-285782.69519485 20608.121442906962 0.0
20608.121442906962 274801.4361411807 0.0
0.0 0.0 0.0

-187413.8003758451 -354360.9682404271 0.0
-354360.9682404271 264009.5169057274 0.0
0.0 0.0 0.0

1.0418890642849872e6 219248.56470775764 0.0
219248.56470775764 -1.4337440016454635e6 0.0
0.0 0.0 0.0

818143.3267626138 375607.2082509545 0.0
375607.2082509545 -1.1817650639062603e6 0.0
0.0 0.0 0.0

-310040.2052334691 1.3174904958314877e6 0.0
1.3174904958314877e6 34230.43111002454 0.0
0.0 0.0 0.0

-172576.54688394995 732136.645196201 0.0
732136.645196201 1.0286451681219095e6 0.0
0.0 0.0 0.0

388829.9718018048 3.2100453877956322e6 0.0
3.2100453877956322e6 -180590.2501683834 0.0
0.0 0.0 0.0

-152727.28554580675 82832.87391620873 0.0
82832.87391620873 77437.43972590848 0.0
0.0 0.0 0.0

467861.40864551923 491986.68803865754 0.0
491986.68803865754 -792741.6858163155 0.0
0.0 0.0 0.0

304068.76184139005 586284.4566267637 0.0
586284.4566267637 -637642.0139171393 0.0
0.0 0.0 0.0

-191887.586835665 788257.0444185499 0.0
788257.0444185499 1.1034459027417917e6 0.0
0.0 0.0 0.0

-225446.68718414378 773181.9695971293 0.0
773181.9695971293 253689.7474686116 0.0
0.0 0.0 0.0

-414189.76206841355 366317.47408949345 0.0
366317.47408949345 289763.4913835965 0.0
0.0 0.0 0.0

-531397.8482370755 897656.7971575104 0.0
897656.7971575104 -57485.05987220249 0.0
0.0 0.0 0.0

156302.42715134047 819668.8377441139 0.0
819668.8377441139 -236291.90626592876 0.0
0.0 0.0 0.0

29959.642672585825 1.064864194397762e6 0.0
1.064864194397762e6 -152334.31705671625 0.0
0.0 0.0 0.0

231621.08936971525 1.892751140767511e6 0.0
1.892751140767511e6 -478467.05666495534 0.0
0.0 0.0 0.0

371933.93589320965 3.500063530269217e6 0.0
3.500063530269217e6 -234271.83994805903 0.0
0.0 0.0 0.0

-400790.4426527581 -71171.69501965542 0.0
-71171.69501965542 410018.38062340004 0.0
0.0 0.0 0.0

-74351.8939752724 1.3073063421150448e6 0.0
1.3073063421150448e6 -100687.06557848501 0.0
0.0 0.0 0.0

-240387.31585204956 3.300909548712049e6 0.0
3.300909548712049e6 -16642.215473027776 0.0
0.0 0.0 0.0

-229509.0376368154 840769.530935688 0.0
840769.530935688 227324.7561850286 0.0
0.0 0.0 0.0

1.0901584867908363e6 131403.05330747057 0.0
131403.05330747057 -1.3347564439105496e6 0.0
0.0 0.0 0.0

-120075.49945696202 1.4188353790096492e6 0.0
1.4188353790096492e6 -341904.2115571085 0.0
0.0 0.0 0.0

-205708.25660931313 1.016324451841845e6 0.0
1.016324451841845e6 -26510.981935676013 0.0
0.0 0.0 0.0

730382.9627411683 4.30207240226789e6 0.0
4.30207240226789e6 -335079.3551072872 0.0
0.0 0.0 0.0

-1.6235480846507717e6 4697.539462718708 0.0
4697.539462718708 1.437108778456511e6 0.0
0.0 0.0 0.0

51949.143244144565 1.5005615215041668e6 0.0
1.5005615215041668e6 -82010.58151529773 0.0
0.0 0.0 0.0

57752.03149474063 973561.0849726462 0.0
973561.0849726462 -187691.93047470527 0.0
0.0 0.0 0.0

-392447.6126540048 1.5711846225720288e6 0.0
1.5711846225720288e6 -494077.5657833264 0.0
0.0 0.0 0.0

-167375.7469976113 -308368.8708201191 0.0
-308368.8708201191 327962.99623824813 0.0
0.0 0.0 0.0

63005.06943593038 2.3403052374568586e6 0.0
2.3403052374568586e6 -121482.01064505422 0.0
0.0 0.0 0.0

216924.58209844353 653519.8297461725 0.0
653519.8297461725 -387019.86332027824 0.0
0.0 0.0 0.0

1.1662026604812527e6 231323.2842625024 0.0
231323.2842625024 -1.458806901829945e6 0.0
0.0 0.0 0.0

-245015.99169457844 766645.2258431666 0.0
766645.2258431666 179320.95894788927 0.0
0.0 0.0 0.0

549480.1646726665 321915.10057176015 0.0
321915.10057176015 -1.0280062931982246e6 0.0
0.0 0.0 0.0

1.120149945415222e6 275837.70597785705 0.0
275837.70597785705 -1.35869027310797e6 0.0
0.0 0.0 0.0

-120132.42133823852 1.0838506628716462e6 0.0
1.0838506628716462e6 225237.73606670427 0.0
0.0 0.0 0.0

118904.65009543637 1.0915171300152228e6 0.0
1.0915171300152228e6 -54036.78347278943 0.0
0.0 0.0 0.0

-201365.63376564512 103075.99016481881 0.0
103075.99016481881 143579.08100108322 0.0
0.0 0.0 0.0

-366295.6520761505 1.3690109256716382e6 0.0
1.3690109256716382e6 90970.66273373646 0.0
0.0 0.0 0.0

74260.9637327101 963877.5003852973 0.0
963877.5003852973 -228977.43446632515 0.0
0.0 0.0 0.0

-68652.0954455588 153693.62423405307 0.0
153693.62423405307 -86477.01068630321 0.0
0.0 0.0 0.0

-323282.6454960364 -67952.17639590189 0.0
-67952.17639590189 394565.982835094 0.0
0.0 0.0 0.0

377712.29917398654 2.0675940327870636e6 0.0
2.0675940327870636e6 -322111.74727750354 0.0
0.0 0.0 0.0

-99766.65951120968 2.83323592000363e6 0.0
2.83323592000363e6 66428.32131756755 0.0
0.0 0.0 0.0

-230217.52432547935 53901.9419440503 0.0
53901.9419440503 224650.97533100375 0.0
0.0 0.0 0.0

792665.6882800737 382624.56112410006 0.0
382624.56112410006 -1.2631158971630598e6 0.0
0.0 0.0 0.0

-263362.2732306828 504202.42330847966 0.0
504202.42330847966 -417494.42004969856 0.0
0.0 0.0 0.0

-299979.7732991907 2.377585429043186e6 0.0
2.377585429043186e6 149444.33887537319 0.0
0.0 0.0 0.0

1.0569150174893478e6 2.372472107850548e6 0.0
2.372472107850548e6 -267885.6245304189 0.0
0.0 0.0 0.0

550935.5456747699 247473.8299588288 0.0
247473.8299588288 -957562.3783606747 0.0
0.0 0.0 0.0

292067.3477379817 607554.7376500018 0.0
607554.7376500018 -638693.1692503986 0.0
0.0 0.0 0.0

554276.1321106979 238561.6242631782 0.0
238561.6242631782 -867197.9777448707 0.0
0.0 0.0 0.0

1.1462629804456441e6 140176.61410753938 0.0
140176.61410753938 -1.5820593212378845e6 0.0
0.0 0.0 0.0

1.7118566492219241e6 1.252170087947242e6 0.0
1.252170087947242e6 -560374.3542429496 0.0
0.0 0.0 0.0

-635400.3592640666 1.5150303831205752e6 0.0
1.5150303831205752e6 452654.1344400543 0.0
0.0 0.0 0.0

296628.747655603 573229.3359182475 0.0
573229.3359182475 -533838.4068274639 0.0
0.0 0.0 0.0

-151949.07042639342 962282.5514319501 0.0
962282.5514319501 192429.05725872162 0.0
0.0 0.0 0.0

1.1744707890106975e6 196459.48335432852 0.0
196459.48335432852 -1.4689708829232194e6 0.0
0.0 0.0 0.0

-167714.67574792166 1.064775149021724e6 0.0
1.064775149021724e6 232844.71820400818 0.0
0.0 0.0 0.0

213468.04227103502 3.768411078540208e6 0.0
3.768411078540208e6 -91762.9934733309 0.0
0.0 0.0 0.0

-912294.7254106943 105623.40788571225 0.0
105623.40788571225 791110.0534004413 0.0
0.0 0.0 0.0

703756.0045450362 4.307078582133774e6 0.0
4.307078582133774e6 38384.63551787491 0.0
0.0 0.0 0.0

-34191.181945960234 1.1516057306734729e6 0.0
1.1516057306734729e6 -120936.32842367163 0.0
0.0 0.0 0.0

1.1836238362141238e6 213052.58056511582 0.0
213052.58056511582 -1.400906596585643e6 0.0
0.0 0.0 0.0

543737.6628588574 2.6792407247445644e6 0.0
2.6792407247445644e6 -186433.10417757553 0.0
0.0 0.0 0.0

-168662.87867067812 1.0077424227639278e6 0.0
1.0077424227639278e6 230903.93067165458 0.0
0.0 0.0 0.0

839743.9199224517 263582.89106737793 0.0
263582.89106737793 -1.2516655974204761e6 0.0
0.0 0.0 0.0

-114506.35092451876 3.9842835192361283e6 0.0
3.9842835192361283e6 -76911.96727477868 0.0
0.0 0.0 0.0

46454.31934944007 1.4673823637380833e6 0.0
1.4673823637380833e6 -123366.98142078768 0.0
0.0 0.0 0.0

80005.52461584676 688092.4047501583 0.0
688092.4047501583 -76431.05259918238 0.0
0.0 0.0 0.0

26282.55395617598 1.077511276470788e6 0.0
1.077511276470788e6 -131484.12586557167 0.0
0.0 0.0 0.0

47006.12103949531 2.477169434086592e6 0.0
2.477169434086592e6 123176.13567915774 0.0
0.0 0.0 0.0

992322.8503346354 423924.99728567357 0.0
423924.99728567357 -1.3444028959887007e6 0.0
0.0 0.0 0.0

-171535.31273642374 988100.9855168259 0.0
988100.9855168259 239378.60546947364 0.0
0.0 0.0 0.0

-105519.66841307346 -703581.7375491346 0.0
-703581.7375491346 437696.0313644199 0.0
0.0 0.0 0.0

-408126.32038751506 259684.63872053643 0.0
259684.63872053643 341678.5397729503 0.0
0.0 0.0 0.0

978220.2173113504 198173.03353974767 0.0
198173.03353974767 -1.34371601051025e6 0.0
0.0 0.0 0.0

-613288.5378931244 -103146.89322127339 0.0
-103146.89322127339 718448.9353712588 0.0
0.0 0.0 0.0

314137.74588857166 1.3536902518493186e6 0.0
1.3536902518493186e6 -298007.0077495745 0.0
0.0 0.0 0.0

-312049.61818484246 -441185.65765366436 0.0
-441185.65765366436 982838.6303678761 0.0
0.0 0.0 0.0

-29963.232850163367 588947.4957253318 0.0
588947.4957253318 158883.5474119984 0.0
0.0 0.0 0.0

-322908.4186594696 1.0930320597992972e6 0.0
1.0930320597992972e6 167220.93835662323 0.0
0.0 0.0 0.0

-684454.3561144774 -74575.87854471807 0.0
-74575.87854471807 675146.798970114 0.0
0.0 0.0 0.0

-65563.07364761712 1.16378040356732e6 0.0
1.16378040356732e6 73401.73480066247 0.0
0.0 0.0 0.0

260223.0480146774 2.723990656906945e6 0.0
2.723990656906945e6 -92004.20404825687 0.0
0.0 0.0 0.0

-299200.05295771104 1.3043843151688967e6 0.0
1.3043843151688967e6 3862.349262531716 0.0
0.0 0.0 0.0

-28172.68056068191 1.2125075155368298e6 0.0
1.2125075155368298e6 -78764.54934651546 0.0
0.0 0.0 0.0

-327986.7396994825 1.1688433934393309e6 0.0
1.1688433934393309e6 44549.664945411394 0.0
0.0 0.0 0.0

9061.720337862876 550647.9980046044 0.0
550647.9980046044 -225187.36241498243 0.0
0.0 0.0 0.0

255047.2731940592 3.399742155834451e6 0.0
3.399742155834451e6 -440510.89557878964 0.0
0.0 0.0 0.0

64652.29192382736 973068.8834333102 0.0
973068.8834333102 -187451.09040274113 0.0
0.0 0.0 0.0

-361161.0015403397 724627.1739245387 0.0
724627.1739245387 585728.9954169665 0.0
0.0 0.0 0.0

-204188.1626550943 1.2941419423307807e6 0.0
1.2941419423307807e6 233134.95936274674 0.0
0.0 0.0 0.0

300248.7751299422 552907.6593835184 0.0
552907.6593835184 -429623.8924047828 0.0
0.0 0.0 0.0

-65959.82498468601 106847.52807426492 0.0
106847.52807426492 -131069.20665935411 0.0
0.0 0.0 0.0

-418840.9357947955 1.521194960051012e6 0.0
1.521194960051012e6 140430.36679959632 0.0
0.0 0.0 0.0

-277819.0199208361 509182.5506627034 0.0
509182.5506627034 109686.20950361133 0.0
0.0 0.0 0.0

61509.479430514344 3.4823149573775507e6 0.0
3.4823149573775507e6 69097.59742002063 0.0
0.0 0.0 0.0

240051.13000963553 1.2582372061917672e6 0.0
1.2582372061917672e6 -429699.7190191366 0.0
0.0 0.0 0.0

-266905.83085644024 755256.0865625323 0.0
755256.0865625323 507269.9949465416 0.0
0.0 0.0 0.0

1.0872789256046107e6 283530.7927031164 0.0
283530.7927031164 -1.3844796909500037e6 0.0
0.0 0.0 0.0

446115.9349623822 3.8816421469430956e6 0.0
3.8816421469430956e6 -40008.813703450345 0.0
0.0 0.0 0.0

-451287.3403819292 986733.2584652894 0.0
986733.2584652894 642155.093631558 0.0
0.0 0.0 0.0

10573.464526290045 853560.5978303546 0.0
853560.5978303546 286573.139517732 0.0
0.0 0.0 0.0

-1.2161218074485406e6 803455.7320765004 0.0
803455.7320765004 1.0120583556882411e6 0.0
0.0 0.0 0.0

1.1969321740787914e6 218029.0431136344 0.0
218029.0431136344 -1.4988122707452574e6 0.0
0.0 0.0 0.0

-244038.25864653545 512944.7612606069 0.0
512944.7612606069 236833.01798759482 0.0
0.0 0.0 0.0

-214590.401610677 37270.76566079275 0.0
37270.76566079275 265436.13798405067 0.0
0.0 0.0 0.0

1.1251393899766642e6 81041.45677761767 0.0
81041.45677761767 -1.4881748999033072e6 0.0
0.0 0.0 0.0

46314.605943451235 1.428911420144564e6 0.0
1.428911420144564e6 -137903.67242386198 0.0
0.0 0.0 0.0

-558467.0091415495 1.559904282865754e6 0.0
1.559904282865754e6 543587.9216183152 0.0
0.0 0.0 0.0

-247993.9946629319 313578.8017107985 0.0
313578.8017107985 326863.4904408631 0.0
0.0 0.0 0.0

-520070.7971986176 666368.8610664017 0.0
666368.8610664017 691443.6873502082 0.0
0.0 0.0 0.0

550389.3431906917 2.541017429067539e6 0.0
2.541017429067539e6 -197086.84878734546 0.0
0.0 0.0 0.0

625419.8624001981 888946.659280163 0.0
888946.659280163 -1.3620816920268289e6 0.0
0.0 0.0 0.0

69711.87029843146 1.1554083353604188e6 0.0
1.1554083353604188e6 -164744.59787349205 0.0
0.0 0.0 0.0

-350036.1984851054 748399.2455620425 0.0
748399.2455620425 687449.9466482855 0.0
0.0 0.0 0.0

-12464.083780790497 3.1526787514189747e6 0.0
3.1526787514189747e6 -151235.26796629105 0.0
0.0 0.0 0.0

-338341.7467024449 1.8920193746155598e6 0.0
1.8920193746155598e6 51872.48625388609 0.0
0.0 0.0 0.0

14329.045247335001 618771.8591888247 0.0
618771.8591888247 -106485.94914779137 0.0
0.0 0.0 0.0

-13994.08879361744 3.3596272280018628e6 0.0
3.3596272280018628e6 50481.29171498346 0.0
0.0 0.0 0.0

-201227.3010912118 64213.10878559985 0.0
64213.10878559985 217138.45117916522 0.0
0.0 0.0 0.0

975029.8245253684 3.0958871074371384e6 0.0
3.0958871074371384e6 -282770.2730238166 0.0
0.0 0.0 0.0

-68529.72107936974 4.0509730184583156e6 0.0
4.0509730184583156e6 -86727.03958162825 0.0
0.0 0.0 0.0

-2609.999673207562 449137.081366471 0.0
449137.081366471 -9711.925197235705 0.0
0.0 0.0 0.0

-139081.0905609455 997559.4372743021 0.0
997559.4372743021 266357.2794435511 0.0
0.0 0.0 0.0

-206609.82658665476 707519.092892301 0.0
707519.092892301 315624.3702658736 0.0
0.0 0.0 0.0

-165100.71908884967 3.8659017061122363e6 0.0
3.8659017061122363e6 -81688.97755662566 0.0
0.0 0.0 0.0

643613.8516985727 313717.4849909173 0.0
313717.4849909173 -999645.6397758047 0.0
0.0 0.0 0.0

-250931.91262952014 745558.3216703425 0.0
745558.3216703425 15480.756439559715 0.0
0.0 0.0 0.0

-77936.47245436432 1.1373630976249299e6 0.0
1.1373630976249299e6 142728.51718064552 0.0
0.0 0.0 0.0

-73150.8154771872 1.5981742631149006e6 0.0
1.5981742631149006e6 -310914.357993009 0.0
0.0 0.0 0.0

-203757.0344633464 936016.3305002374 0.0
936016.3305002374 256027.6953873498 0.0
0.0 0.0 0.0

-1.3026568209466753e6 16748.79381763441 0.0
16748.79381763441 1.4378511051330587e6 0.0
0.0 0.0 0.0

-137839.25881708245 391958.4464249498 0.0
391958.4464249498 -228800.9851094747 0.0
0.0 0.0 0.0

-97643.61928251879 1.0430232761132924e6 0.0
1.0430232761132924e6 41280.37124145369 0.0
0.0 0.0 0.0

455742.2608833348 2.5931129027865734e6 0.0
2.5931129027865734e6 -204355.9856279887 0.0
0.0 0.0 0.0

294797.4883271834 686600.3770684281 0.0
686600.3770684281 -440296.65060915775 0.0
0.0 0.0 0.0

844088.3559095778 256156.06384833704 0.0
256156.06384833704 -1.2342676141477444e6 0.0
0.0 0.0 0.0

140286.95316749916 2.65437110459324e6 0.0
2.65437110459324e6 -184653.48503225436 0.0
0.0 0.0 0.0

-604259.4219073347 747339.9758858779 0.0
747339.9758858779 294244.87565951445 0.0
0.0 0.0 0.0

-327428.6896732271 1.5528005646506962e6 0.0
1.5528005646506962e6 53589.946685073985 0.0
0.0 0.0 0.0

-147150.27662308956 3.791018966263205e6 0.0
3.791018966263205e6 -147085.319769751 0.0
0.0 0.0 0.0

-157788.99703138974 3.9623212990469835e6 0.0
3.9623212990469835e6 -187353.8886434071 0.0
0.0 0.0 0.0

76632.45741228494 910355.4454344434 0.0
910355.4454344434 -156486.38367337722 0.0
0.0 0.0 0.0

64870.7443015531 1.7957046051830254e6 0.0
1.7957046051830254e6 -15573.01732732775 0.0
0.0 0.0 0.0

363232.9563510933 2.5651554625355024e6 0.0
2.5651554625355024e6 -105634.60000218937 0.0
0.0 0.0 0.0

-44163.188718022764 650000.2506151765 0.0
650000.2506151765 -154221.2786851397 0.0
0.0 0.0 0.0

-401319.9354570832 1.2619370687930426e6 0.0
1.2619370687930426e6 197430.6465114553 0.0
0.0 0.0 0.0

-798459.7930055454 498411.20233858214 0.0
498411.20233858214 259692.02008232713 0.0
0.0 0.0 0.0

925377.4176332506 141871.2305818204 0.0
141871.2305818204 -1.3479669243492465e6 0.0
0.0 0.0 0.0

-43224.05706821396 1.0952927666571068e6 0.0
1.0952927666571068e6 -86262.97767671767 0.0
0.0 0.0 0.0

73150.97078787078 552090.673627085 0.0
552090.673627085 -211936.3692857811 0.0
0.0 0.0 0.0

188984.69713620917 1.242203689217261e6 0.0
1.242203689217261e6 -306075.10170240107 0.0
0.0 0.0 0.0

-160660.69584241378 -55132.462652882685 0.0
-55132.462652882685 164061.54974367114 0.0
0.0 0.0 0.0

273080.5477836067 1.6326380915481541e6 0.0
1.6326380915481541e6 -456790.3658878503 0.0
0.0 0.0 0.0

295039.27347624314 749593.5065672396 0.0
749593.5065672396 -653966.4147451635 0.0
0.0 0.0 0.0

301824.3116583392 1.372800185014926e6 0.0
1.372800185014926e6 -426305.70330744644 0.0
0.0 0.0 0.0

102012.3226436733 1.577842288154035e6 0.0
1.577842288154035e6 -130417.1198175413 0.0
0.0 0.0 0.0

739512.095693063 3.0247015591263897e6 0.0
3.0247015591263897e6 -203364.73145354417 0.0
0.0 0.0 0.0

-1.0833766396197123e6 233369.4509661215 0.0
233369.4509661215 1.301511134839084e6 0.0
0.0 0.0 0.0

3922.0670967473707 1.2155520811774638e6 0.0
1.2155520811774638e6 -71893.34490298422 0.0
0.0 0.0 0.0

-58752.181466376845 719013.8430435101 0.0
719013.8430435101 -201220.21951363332 0.0
0.0 0.0 0.0

10129.870964068483 1.0907036782441405e6 0.0
1.0907036782441405e6 -61950.91973723836 0.0
0.0 0.0 0.0

85937.92712770434 2.728205630529119e6 0.0
2.728205630529119e6 -148637.31297673995 0.0
0.0 0.0 0.0

-190028.37016136793 931641.5754691515 0.0
931641.5754691515 233067.49372198357 0.0
0.0 0.0 0.0

21185.99459011272 1.4426162194155203e6 0.0
1.4426162194155203e6 -65656.98047400337 0.0
0.0 0.0 0.0

-253507.16599148265 2.6268781457906645e6 0.0
2.6268781457906645e6 25135.963022035416 0.0
0.0 0.0 0.0

-218079.77976712893 724458.0650131942 0.0
724458.0650131942 74770.21900931784 0.0
0.0 0.0 0.0

-2.631123437565585e6 -44124.48092050556 0.0
-44124.48092050556 3.2702507133335704e6 0.0
0.0 0.0 0.0

174730.19731766757 2.214731389141736e6 0.0
2.214731389141736e6 -238302.57886784116 0.0
0.0 0.0 0.0

-347893.308688505 1.251346742578166e6 0.0
1.251346742578166e6 134540.45389054393 0.0
0.0 0.0 0.0

-386415.62339993776 -293126.7200137237 0.0
-293126.7200137237 984919.4572889804 0.0
0.0 0.0 0.0

-383919.6439061704 327790.32869526953 0.0
327790.32869526953 365793.52180182445 0.0
0.0 0.0 0.0

110431.15331270678 1.0956829187139857e6 0.0
1.0956829187139857e6 -78644.94121176624 0.0
0.0 0.0 0.0

1.0962459286653113e6 135004.75537259367 0.0
135004.75537259367 -1.490650078995585e6 0.0
0.0 0.0 0.0

-483634.74386911484 1.527195365259142e6 0.0
1.527195365259142e6 174467.07239928137 0.0
0.0 0.0 0.0

371202.4236509511 1.793181015104121e6 0.0
1.793181015104121e6 -262877.4559477491 0.0
0.0 0.0 0.0

-266675.39591834723 479096.37812834553 0.0
479096.37812834553 245807.7085955778 0.0
0.0 0.0 0.0

1.032309887738287e6 398833.3250375087 0.0
398833.3250375087 -1.2461352744663572e6 0.0
0.0 0.0 0.0

-351044.21616500884 1.2420547723603817e6 0.0
1.2420547723603817e6 190018.13315893986 0.0
0.0 0.0 0.0

24753.514026713267 513470.66582800774 0.0
513470.66582800774 -368314.1046224407 0.0
0.0 0.0 0.0

90716.28827835369 130966.68404845928 0.0
130966.68404845928 -17774.252656423996 0.0
0.0 0.0 0.0

-37181.17626351939 413701.16963426233 0.0
413701.16963426233 -215107.47165074837 0.0
0.0 0.0 0.0

-550968.8626012681 1.0572552339493395e6 0.0
1.0572552339493395e6 516558.17777719715 0.0
0.0 0.0 0.0

70669.2255085011 435085.68137605867 0.0
435085.68137605867 103787.99654029938 0.0
0.0 0.0 0.0

-512830.0529155473 1.5153644918488225e6 0.0
1.5153644918488225e6 370032.29599342786 0.0
0.0 0.0 0.0

-137181.55139063616 75115.30608678232 0.0
75115.30608678232 131868.1539986031 0.0
0.0 0.0 0.0

975694.2295267032 549390.1610386169 0.0
549390.1610386169 -1.170237748898523e6 0.0
0.0 0.0 0.0

1.5535851927323034e6 2.6651519090284277e6 0.0
2.6651519090284277e6 -1.057962924882982e6 0.0
0.0 0.0 0.0

-362151.4485595715 1.58007590849661e6 0.0
1.58007590849661e6 65471.197732833825 0.0
0.0 0.0 0.0

-247658.90373917867 1.0117547904181568e6 0.0
1.0117547904181568e6 220990.4739905623 0.0
0.0 0.0 0.0

-278850.5149159257 920472.3627769387 0.0
920472.3627769387 99362.32136729309 0.0
0.0 0.0 0.0

-71962.81292032724 894257.8907473171 0.0
894257.8907473171 1.4867201357637323e6 0.0
0.0 0.0 0.0

1.060251512999136e6 168091.73992100815 0.0
168091.73992100815 -1.4350033229384238e6 0.0
0.0 0.0 0.0

-240418.80129725955 2.7903866823432073e6 0.0
2.7903866823432073e6 -402492.95572499663 0.0
0.0 0.0 0.0

275579.2210139068 3.7857144374105134e6 0.0
3.7857144374105134e6 -71505.8140871855 0.0
0.0 0.0 0.0

510074.51640263374 410422.1955915782 0.0
410422.1955915782 -991099.5933468166 0.0
0.0 0.0 0.0

-482763.5970278486 370870.399321503 0.0
370870.399321503 387023.3027883463 0.0
0.0 0.0 0.0

-102683.48101373677 1.1099522424943724e6 0.0
1.1099522424943724e6 149958.29044323065 0.0
0.0 0.0 0.0

-98253.01321757022 585813.8908616334 0.0
585813.8908616334 -192286.8956899373 0.0
0.0 0.0 0.0

373779.9557883781 1.5287785571302716e6 0.0
1.5287785571302716e6 -227960.66841983158 0.0
0.0 0.0 0.0

-179726.63808902126 721453.3939619242 0.0
721453.3939619242 1.0448722223745085e6 0.0
0.0 0.0 0.0

257349.99229952856 3.7498622216246165e6 0.0
3.7498622216246165e6 -104707.078390085 0.0
0.0 0.0 0.0

-614704.2020435929 -36514.435854992094 0.0
-36514.435854992094 754975.4294469494 0.0
0.0 0.0 0.0

1.2889938594106822e6 4.1690391231192467e6 0.0
4.1690391231192467e6 -329860.8074989328 0.0
0.0 0.0 0.0

378145.1591637322 3.7325088170693545e6 0.0
3.7325088170693545e6 -103779.55391405028 0.0
0.0 0.0 0.0

794368.7077621372 167452.45787323688 0.0
167452.45787323688 -973373.0377686196 0.0
0.0 0.0 0.0

-321718.9716658907 1.1555426752398442e6 0.0
1.1555426752398442e6 126155.07813662567 0.0
0.0 0.0 0.0

1.6879345071501555e6 1.328435067135139e6 0.0
1.328435067135139e6 -630508.2691122935 0.0
0.0 0.0 0.0

-2.422808888402179e6 -33633.224635523045 0.0
-33633.224635523045 2.3723732927499684e6 0.0
0.0 0.0 0.0

190657.8710464247 2.464198740254541e6 0.0
2.464198740254541e6 -239786.4193548594 0.0
0.0 0.0 0.0

840097.2966920888 3.1984088377334205e6 0.0
3.1984088377334205e6 -47937.66375420254 0.0
0.0 0.0 0.0

138348.82095445943 1.5073691675728995e6 0.0
1.5073691675728995e6 -139050.29242437423 0.0
0.0 0.0 0.0

1.0529105057393673e6 227917.15986185803 0.0
227917.15986185803 -1.3409254634402324e6 0.0
0.0 0.0 0.0

-272647.69808063284 2.246073797673311e6 0.0
2.246073797673311e6 21015.43101377391 0.0
0.0 0.0 0.0

62169.883072749464 642280.4247827372 0.0
642280.4247827372 -207123.1388560171 0.0
0.0 0.0 0.0

22800.007239520928 3.8560725101663913e6 0.0
3.8560725101663913e6 -60935.81570976556 0.0
0.0 0.0 0.0

-2.2905145734539195e6 93262.21775607699 0.0
93262.21775607699 2.4825979556326037e6 0.0
0.0 0.0 0.0

13670.951647999427 956529.1259780151 0.0
956529.1259780151 -147021.32080976083 0.0
0.0 0.0 0.0

320928.80832053523 462303.8785417997 0.0
462303.8785417997 -597643.6630334846 0.0
0.0 0.0 0.0

54837.87908669017 2.691137749729674e6 0.0
2.691137749729674e6 -114789.40878662642 0.0
0.0 0.0 0.0

-42870.22357942331 670016.4938533774 0.0
670016.4938533774 -163514.8863761739 0.0
0.0 0.0 0.0

-1.2007570039534639e6 -48399.1924376578 0.0
-48399.1924376578 1.297968740554177e6 0.0
0.0 0.0 0.0

-106074.47615777887 655758.6245281184 0.0
655758.6245281184 778893.0297856703 0.0
0.0 0.0 0.0

607811.4157842554 411810.7175505607 0.0
411810.7175505607 -995006.9930052278 0.0
0.0 0.0 0.0

-61022.673461147315 3.883915176321467e6 0.0
3.883915176321467e6 -70440.64635106479 0.0
0.0 0.0 0.0

-214537.41273421643 1.2216875305417704e6 0.0
1.2216875305417704e6 316846.798057426 0.0
0.0 0.0 0.0

425213.84280829405 397318.77353418677 0.0
397318.77353418677 -694468.6791659697 0.0
0.0 0.0 0.0

1.3773486364935858e6 2.347762793902094e6 0.0
2.347762793902094e6 -297056.85411142453 0.0
0.0 0.0 0.0

-73339.94092879085 3.8804695023516943e6 0.0
3.8804695023516943e6 -62883.85956600956 0.0
0.0 0.0 0.0

-222836.57085777487 -60526.6622233249 0.0
-60526.6622233249 249904.1529837977 0.0
0.0 0.0 0.0

-1.2334475346310178e6 -41913.74485719221 0.0
-41913.74485719221 1.191370786111087e6 0.0
0.0 0.0 0.0

1.3944432029018807e6 132721.6704889341 0.0
132721.6704889341 -1.7329742139009354e6 0.0
0.0 0.0 0.0

-260212.59025726453 891817.8698507968 0.0
891817.8698507968 68466.50392871558 0.0
0.0 0.0 0.0

36871.55217841307 913586.2268228123 0.0
913586.2268228123 -159257.57661332987 0.0
0.0 0.0 0.0

191330.783476707 2.738836827376725e6 0.0
2.738836827376725e6 -150839.79850134166 0.0
0.0 0.0 0.0

-83816.84302847832 2027.7261490991154 0.0
2027.7261490991154 100781.56700355076 0.0
0.0 0.0 0.0

-138264.73819515068 3.9221353821605216e6 0.0
3.9221353821605216e6 -138359.74633190333 0.0
0.0 0.0 0.0

-1.277889948499912e6 -73390.28495698693 0.0
-73390.28495698693 1.2757158840740882e6 0.0
0.0 0.0 0.0

-104863.09954318387 2.2008491092428244e6 0.0
2.2008491092428244e6 -56004.485408738845 0.0
0.0 0.0 0.0

508311.8008076673 505928.35311250685 0.0
505928.35311250685 -925500.1399381871 0.0
0.0 0.0 0.0

667825.5191362803 433492.2600908291 0.0
433492.2600908291 -1.07396514506047e6 0.0
0.0 0.0 0.0

-436145.77605414385 308214.73400721385 0.0
308214.73400721385 425737.892109593 0.0
0.0 0.0 0.0

-215498.80534428608 719003.6463508862 0.0
719003.6463508862 -58813.64414194353 0.0
0.0 0.0 0.0

-157497.8643652778 -485350.8344064451 0.0
-485350.8344064451 622059.3345765495 0.0
0.0 0.0 0.0

-2067.870402777109 973952.0999463194 0.0
973952.0999463194 -119433.67595040832 0.0
0.0 0.0 0.0

-255321.0671864114 945931.642451049 0.0
945931.642451049 209761.5903576691 0.0
0.0 0.0 0.0

-87107.01236911665 756597.2689606285 0.0
756597.2689606285 1.0799171401818828e6 0.0
0.0 0.0 0.0

137704.7028116503 4.1407673596950895e6 0.0
4.1407673596950895e6 -164122.61986726645 0.0
0.0 0.0 0.0

-2.2936660223506293e6 -311496.22911728313 0.0
-311496.22911728313 2.1711546979454877e6 0.0
0.0 0.0 0.0

-1.3208724461504947e6 91379.2049701489 0.0
91379.2049701489 1.4222513395790188e6 0.0
0.0 0.0 0.0

-271704.9043408111 277116.02737079957 0.0
277116.02737079957 150694.90506397342 0.0
0.0 0.0 0.0

-101879.67935871576 482456.3300279068 0.0
482456.3300279068 120310.86859197446 0.0
0.0 0.0 0.0

-279581.16583685507 51177.50460828658 0.0
51177.50460828658 258846.75119438302 0.0
0.0 0.0 0.0

-233464.05087326263 946238.795602371 0.0
946238.795602371 17745.57451530233 0.0
0.0 0.0 0.0

984125.2951824547 226851.13479436035 0.0
226851.13479436035 -1.3352962194131322e6 0.0
0.0 0.0 0.0

277209.81028094667 625497.1309033406 0.0
625497.1309033406 -654732.9062013922 0.0
0.0 0.0 0.0

12596.447620574865 858009.1753132271 0.0
858009.1753132271 -123753.06636279242 0.0
0.0 0.0 0.0

377646.4158518178 3.6958643545454433e6 0.0
3.6958643545454433e6 -253325.68721975543 0.0
0.0 0.0 0.0

93935.5859872083 1.599246811328624e6 0.0
1.599246811328624e6 -96833.20855484877 0.0
0.0 0.0 0.0

-277535.0348393789 776670.1156855895 0.0
776670.1156855895 429185.3131946026 0.0
0.0 0.0 0.0

-269343.17531417543 2.265983594152066e6 0.0
2.265983594152066e6 22993.310765208633 0.0
0.0 0.0 0.0

-161906.30033995345 -208880.09873370538 0.0
-208880.09873370538 13577.798911049242 0.0
0.0 0.0 0.0

-565345.6425964759 1.5529168842580796e6 0.0
1.5529168842580796e6 441300.6496696868 0.0
0.0 0.0 0.0

-228670.3272282703 817847.7471673655 0.0
817847.7471673655 -51879.34761735688 0.0
0.0 0.0 0.0

-199144.06564181234 95865.13616211456 0.0
95865.13616211456 148313.4799816229 0.0
0.0 0.0 0.0

-274550.52806674165 903859.2941410322 0.0
903859.2941410322 -122207.35974304183 0.0
0.0 0.0 0.0

-769940.8893222089 12649.293579527935 0.0
12649.293579527935 902399.2226595015 0.0
0.0 0.0 0.0

194027.07629845582 458655.4097330552 0.0
458655.4097330552 -351842.5331412278 0.0
0.0 0.0 0.0

400872.5818702553 516827.636729262 0.0
516827.636729262 -676632.9683443913 0.0
0.0 0.0 0.0

-114047.08133585885 1.0224303390534625e6 0.0
1.0224303390534625e6 39282.76315582122 0.0
0.0 0.0 0.0

-274652.30958396394 816309.9853184348 0.0
816309.9853184348 559450.1540310358 0.0
0.0 0.0 0.0

-2147.702500319887 930957.3585156364 0.0
930957.3585156364 -186806.94193260345 0.0
0.0 0.0 0.0

84663.44615353856 276360.7958172681 0.0
276360.7958172681 -32387.945022780958 0.0
0.0 0.0 0.0

-198309.58594986532 3.516753892570282e6 0.0
3.516753892570282e6 -87189.1375417564 0.0
0.0 0.0 0.0

-115697.86868048743 2.9700105035951734e6 0.0
2.9700105035951734e6 1957.9614564132498 0.0
0.0 0.0 0.0

217065.86305723578 2.7068353710413896e6 0.0
2.7068353710413896e6 -118776.9186360818 0.0
0.0 0.0 0.0

-188946.80958943765 133475.24063727533 0.0
133475.24063727533 92426.84843986413 0.0
0.0 0.0 0.0

135188.98084688725 893407.7619033844 0.0
893407.7619033844 -228873.09799492417 0.0
0.0 0.0 0.0

-394652.8976074421 1.2696853264730948e6 0.0
1.2696853264730948e6 233819.27186774378 0.0
0.0 0.0 0.0

-374039.4978202941 1.2553466044277705e6 0.0
1.2553466044277705e6 202982.9205067587 0.0
0.0 0.0 0.0

249847.47358084872 578303.3714334397 0.0
578303.3714334397 -451931.97085395124 0.0
0.0 0.0 0.0

-35909.13395140361 676854.9460835524 0.0
676854.9460835524 -189057.24972399592 0.0
0.0 0.0 0.0

-4157.074804099029 1.0163728393002079e6 0.0
1.0163728393002079e6 -98611.71449676856 0.0
0.0 0.0 0.0

457395.8458572643 340404.4897507822 0.0
340404.4897507822 -893809.1155266683 0.0
0.0 0.0 0.0

-768807.5340075847 129338.85952926634 0.0
129338.85952926634 835306.6736058064 0.0
0.0 0.0 0.0

893473.6705133554 721204.632372319 0.0
721204.632372319 -1.062270480744204e6 0.0
0.0 0.0 0.0

418270.04934675177 3.906427732334529e6 0.0
3.906427732334529e6 -97672.01556907056 0.0
0.0 0.0 0.0

20063.493245073594 557470.0854684861 0.0
557470.0854684861 602596.6825467832 0.0
0.0 0.0 0.0

-179478.65585081634 687295.0553312209 0.0
687295.0553312209 1.0330809752750978e6 0.0
0.0 0.0 0.0

216081.70724672807 3.7669402956144046e6 0.0
3.7669402956144046e6 -101198.66318153215 0.0
0.0 0.0 0.0

-118693.71354256154 762607.9763672071 0.0
762607.9763672071 -190193.8229910318 0.0
0.0 0.0 0.0

-60471.85115099084 3.502248195267106e6 0.0
3.502248195267106e6 -43378.214534584855 0.0
0.0 0.0 0.0

-337290.6354520282 627075.5297777674 0.0
627075.5297777674 527432.331538135 0.0
0.0 0.0 0.0

-86503.71123909802 779944.726559016 0.0
779944.726559016 -160154.44113319583 0.0
0.0 0.0 0.0

-56973.0127837023 1.1826113017193847e6 0.0
1.1826113017193847e6 103215.0359740597 0.0
0.0 0.0 0.0

1.1166315875772052e6 163222.21280659665 0.0
163222.21280659665 -1.391297499699664e6 0.0
0.0 0.0 0.0

-256707.40106428615 886966.7523087685 0.0
886966.7523087685 66834.27042555621 0.0
0.0 0.0 0.0

-693873.505615588 1.5029230673267567e6 0.0
1.5029230673267567e6 694358.2908827942 0.0
0.0 0.0 0.0

-96824.55356400154 17059.612078670558 0.0
17059.612078670558 128464.22483407173 0.0
0.0 0.0 0.0

279631.018125941 3.8859611534878463e6 0.0
3.8859611534878463e6 -122110.05333554199 0.0
0.0 0.0 0.0

-4.583322444476401e6 -142458.19098333566 0.0
-142458.19098333566 4.1478040557749635e6 0.0
0.0 0.0 0.0

-201567.48139714243 -72096.817829294 0.0
-72096.817829294 242397.75467421144 0.0
0.0 0.0 0.0

84930.29229553635 827609.5508002758 0.0
827609.5508002758 -751347.6366706655 0.0
0.0 0.0 0.0

71369.10811323738 1.1676172255607734e6 0.0
1.1676172255607734e6 -144339.78623069127 0.0
0.0 0.0 0.0

-336493.24987998494 2.619347348769067e6 0.0
2.619347348769067e6 14453.817385135946 0.0
0.0 0.0 0.0

-138842.6575084301 953933.5257225218 0.0
953933.5257225218 -96136.65870248992 0.0
0.0 0.0 0.0

-184971.20850464422 167256.97289872495 0.0
167256.97289872495 -163408.22803614475 0.0
0.0 0.0 0.0

-131385.97574130696 2.6011603430924397e6 0.0
2.6011603430924397e6 3156.0100468155288 0.0
0.0 0.0 0.0

-402030.462889109 1.2629297601035307e6 0.0
1.2629297601035307e6 164497.35376203572 0.0
0.0 0.0 0.0

-94006.9487042736 2.772602221267606e6 0.0
2.772602221267606e6 34276.587459259215 0.0
0.0 0.0 0.0

793451.6814474663 668163.6558844458 0.0
668163.6558844458 -1.3492221729518378e6 0.0
0.0 0.0 0.0

150908.00361080348 1.0587447542665678e6 0.0
1.0587447542665678e6 4437.312579030542 0.0
0.0 0.0 0.0

-1.5111150792922066e6 -139293.300587972 0.0
-139293.300587972 1.5702002496194313e6 0.0
0.0 0.0 0.0

195100.03219497495 964453.2673217625 0.0
964453.2673217625 1.3889395843433603e6 0.0
0.0 0.0 0.0

-1.140874744677233e6 22776.896946848417 0.0
22776.896946848417 845018.2177593653 0.0
0.0 0.0 0.0

618593.2998650691 2.6363532550791726e6 0.0
2.6363532550791726e6 -641964.5655619542 0.0
0.0 0.0 0.0

276546.1381862062 756240.3167878006 0.0
756240.3167878006 -352147.17865163716 0.0
0.0 0.0 0.0

6263.920508527095 637489.8621962595 0.0
637489.8621962595 236597.76842926958 0.0
0.0 0.0 0.0

1.273655825052823e6 2.6713715600865064e6 0.0
2.6713715600865064e6 -782950.9303021177 0.0
0.0 0.0 0.0

440546.8110763255 621004.5777926338 0.0
621004.5777926338 -306360.7742079646 0.0
0.0 0.0 0.0

415667.87079789856 3.1763782675012834e6 0.0
3.1763782675012834e6 -123520.51921405122 0.0
0.0 0.0 0.0

-322051.24856783997 1.89584957375787e6 0.0
1.89584957375787e6 43873.107226786975 0.0
0.0 0.0 0.0

-243037.95271010284 976227.7487805435 0.0
976227.7487805435 209441.78561048507 0.0
0.0 0.0 0.0

-284335.8755484377 2.858986359253169e6 0.0
2.858986359253169e6 -509797.8304608243 0.0
0.0 0.0 0.0

-249694.1312379517 758404.498291973 0.0
758404.498291973 -251933.844840217 0.0
0.0 0.0 0.0

18570.57311460258 644836.1346678691 0.0
644836.1346678691 -213301.39283078857 0.0
0.0 0.0 0.0

-53351.44494797652 1.1884173851351584e6 0.0
1.1884173851351584e6 71928.13838524124 0.0
0.0 0.0 0.0

-187430.24821374673 973402.6306281172 0.0
973402.6306281172 96591.15178002529 0.0
0.0 0.0 0.0

-3.79912531152648e6 182877.49238695903 0.0
182877.49238695903 4.580300653416012e6 0.0
0.0 0.0 0.0

-329415.0169087339 1.5379642000790264e6 0.0
1.5379642000790264e6 23081.72455451195 0.0
0.0 0.0 0.0

1.381255151058522e6 122728.08112411009 0.0
122728.08112411009 -1.5392582491578837e6 0.0
0.0 0.0 0.0

-191787.00121134688 964505.097522701 0.0
964505.097522701 233293.26771902168 0.0
0.0 0.0 0.0

-140830.04777516358 867412.0410634717 0.0
867412.0410634717 211863.33437674702 0.0
0.0 0.0 0.0

52877.43239044708 4.484661389324431e6 0.0
4.484661389324431e6 -206125.07056749 0.0
0.0 0.0 0.0

-118618.62043773623 4.1050504451772477e6 0.0
4.1050504451772477e6 -125963.75087641375 0.0
0.0 0.0 0.0

-452017.8873574998 1.5525416670371958e6 0.0
1.5525416670371958e6 210177.98234291674 0.0
0.0 0.0 0.0

-116013.14546638251 -165770.57960472433 0.0
-165770.57960472433 -28949.108780362152 0.0
0.0 0.0 0.0

-373789.96245050296 1.1235665489711412e6 0.0
1.1235665489711412e6 380802.7177287274 0.0
0.0 0.0 0.0

-343061.96327442 1.1509508819012472e6 0.0
1.1509508819012472e6 145183.7405130504 0.0
0.0 0.0 0.0

-281788.8790115558 315523.5451349893 0.0
315523.5451349893 142151.65954594192 0.0
0.0 0.0 0.0

602447.9808682699 2.990216634588055e6 0.0
2.990216634588055e6 -373742.68504509254 0.0
0.0 0.0 0.0

225108.6026665839 2.4327126940291254e6 0.0
2.4327126940291254e6 -312382.34229344875 0.0
0.0 0.0 0.0

-344495.30333100515 1.5830083275141553e6 0.0
1.5830083275141553e6 57465.76565506161 0.0
0.0 0.0 0.0

-220428.79937017348 2.7027085548098534e6 0.0
2.7027085548098534e6 -520466.8748526742 0.0
0.0 0.0 0.0

-64302.85708826998 1.1310864211573082e6 0.0
1.1310864211573082e6 121300.5034632782 0.0
0.0 0.0 0.0

-177914.83557556415 503161.0279357886 0.0
503161.0279357886 -10028.700385694756 0.0
0.0 0.0 0.0

-75308.67660316397 854607.3351297018 0.0
854607.3351297018 113314.54447127486 0.0
0.0 0.0 0.0

53465.90795715181 1.2901420861157181e6 0.0
1.2901420861157181e6 -151243.97363815206 0.0
0.0 0.0 0.0

39638.11063518067 3.5020119967612624e6 0.0
3.5020119967612624e6 -94715.57838946712 0.0
0.0 0.0 0.0

145454.7333651387 1.4835321713576831e6 0.0
1.4835321713576831e6 -294454.3570373803 0.0
0.0 0.0 0.0

-364380.887663214 715051.9399642808 0.0
715051.9399642808 505536.31467550155 0.0
0.0 0.0 0.0

-386257.19928479934 528701.7159933742 0.0
528701.7159933742 190568.2671314187 0.0
0.0 0.0 0.0

-71247.36287980825 1.1877884349436176e6 0.0
1.1877884349436176e6 40359.008688364396 0.0
0.0 0.0 0.0

-184027.75858766137 96088.71857612407 0.0
96088.71857612407 97652.25531104286 0.0
0.0 0.0 0.0

34495.651390444706 764226.0803392753 0.0
764226.0803392753 228291.05916846666 0.0
0.0 0.0 0.0

415734.5005296081 3.698624744898088e6 0.0
3.698624744898088e6 -152218.26699939923 0.0
0.0 0.0 0.0

-863942.4044089966 559815.6703408851 0.0
559815.6703408851 84633.28357150336 0.0
0.0 0.0 0.0

426106.7578278856 4.1797944481386477e6 0.0
4.1797944481386477e6 123179.87439598737 0.0
0.0 0.0 0.0

-207765.4487943758 978991.0694422616 0.0
978991.0694422616 257350.678797377 0.0
0.0 0.0 0.0

154878.87018545886 3.744074516981322e6 0.0
3.744074516981322e6 71108.77030411166 0.0
0.0 0.0 0.0

-138270.0646380036 41706.8930778305 0.0
41706.8930778305 89866.33855056122 0.0
0.0 0.0 0.0

138768.41652494017 4.4825392119924445e6 0.0
4.4825392119924445e6 -207690.6148025801 0.0
0.0 0.0 0.0

-406151.5554728396 1.2729027624732282e6 0.0
1.2729027624732282e6 229345.2927802685 0.0
0.0 0.0 0.0

-92057.90338345611 1.1450013795450046e6 0.0
1.1450013795450046e6 76591.81023481073 0.0
0.0 0.0 0.0

219827.85243589885 1.1278790865904798e6 0.0
1.1278790865904798e6 -308470.6939141878 0.0
0.0 0.0 0.0

-266355.054939397 1.0607706651288534e6 0.0
1.0607706651288534e6 242344.19434424682 0.0
0.0 0.0 0.0

-24540.114100078332 882251.3018346488 0.0
882251.3018346488 77779.58057033343 0.0
0.0 0.0 0.0

194189.6115314068 3.9349109372201245e6 0.0
3.9349109372201245e6 -35489.45862978822 0.0
0.0 0.0 0.0

-403871.4428671272 1.0842951804426764e6 0.0
1.0842951804426764e6 492117.31159412593 0.0
0.0 0.0 0.0

20906.23599328268 4.153389633888532e6 0.0
4.153389633888532e6 -196244.08224176234 0.0
0.0 0.0 0.0

478215.1788380039 413676.77997654263 0.0
413676.77997654263 -487143.93671279715 0.0
0.0 0.0 0.0

227331.9627314822 603520.4021507307 0.0
603520.4021507307 -502898.68181288004 0.0
0.0 0.0 0.0

159264.14845095814 198295.92951154642 0.0
198295.92951154642 -332161.9868641022 0.0
0.0 0.0 0.0

-27715.5662779329 611325.1011542846 0.0
611325.1011542846 619237.8200569731 0.0
0.0 0.0 0.0

141768.4556883244 2.3789502877530386e6 0.0
2.3789502877530386e6 -66591.24516494812 0.0
0.0 0.0 0.0

230138.6616658464 3.915459395396679e6 0.0
3.915459395396679e6 -104946.02818395177 0.0
0.0 0.0 0.0

-526173.9990866741 329657.22432478506 0.0
329657.22432478506 391289.02380230697 0.0
0.0 0.0 0.0

-245372.83884276805 2.939863956057266e6 0.0
2.939863956057266e6 -388992.377469611 0.0
0.0 0.0 0.0

387455.85877051536 1.7961494680133197e6 0.0
1.7961494680133197e6 98103.74210541915 0.0
0.0 0.0 0.0

816008.4101115612 537229.8220045266 0.0
537229.8220045266 -1.153918233443413e6 0.0
0.0 0.0 0.0

-22638.518222094513 511906.5944802538 0.0
511906.5944802538 -190689.63818776427 0.0
0.0 0.0 0.0

-348587.09666044917 1.0238443069965444e6 0.0
1.0238443069965444e6 378472.3306988907 0.0
0.0 0.0 0.0

53019.39432436129 957874.3370038061 0.0
957874.3370038061 -165266.91947857998 0.0
0.0 0.0 0.0

171724.28192153963 2.715776266792605e6 0.0
2.715776266792605e6 -161998.3943971109 0.0
0.0 0.0 0.0

-312706.5637115189 60608.2939445393 0.0
60608.2939445393 323063.04300058086 0.0
0.0 0.0 0.0

-724497.1145068504 496071.27946705767 0.0
496071.27946705767 665505.5197188284 0.0
0.0 0.0 0.0

472614.7887779525 3.6198123413296565e6 0.0
3.6198123413296565e6 -1.1622839750518906e6 0.0
0.0 0.0 0.0

-236216.41938111556 1.0035802485993906e6 0.0
1.0035802485993906e6 249079.26443919877 0.0
0.0 0.0 0.0

-104625.11456534636 365012.2287743941 0.0
365012.2287743941 -206901.19612277308 0.0
0.0 0.0 0.0

-1.292280910102612e6 283558.19614543306 0.0
283558.19614543306 1.2333711675205277e6 0.0
0.0 0.0 0.0

-343763.37710267096 -47599.38007358715 0.0
-47599.38007358715 314153.2179445318 0.0
0.0 0.0 0.0

147321.6826042016 2.2709320593174268e6 0.0
2.2709320593174268e6 -365518.70274547435 0.0
0.0 0.0 0.0

-39785.30889672712 1.105249826676529e6 0.0
1.105249826676529e6 -10434.040321764163 0.0
0.0 0.0 0.0

-120837.70127117996 3.6785382340119113e6 0.0
3.6785382340119113e6 -308879.7741324625 0.0
0.0 0.0 0.0

-2.0889888043539752e6 125843.37621461015 0.0
125843.37621461015 2.3553799852942806e6 0.0
0.0 0.0 0.0

257140.67806771584 806299.2035677005 0.0
806299.2035677005 -455692.90968574747 0.0
0.0 0.0 0.0

-46400.458900070866 1.1305471644714326e6 0.0
1.1305471644714326e6 -23736.060831731527 0.0
0.0 0.0 0.0

183193.95013768342 1.0392896262177458e6 0.0
1.0392896262177458e6 -296674.5355665516 0.0
0.0 0.0 0.0

263209.24313743506 3.1643281637588236e6 0.0
3.1643281637588236e6 -22631.942805532075 0.0
0.0 0.0 0.0

-1.4275328152204717e6 63438.492395554815 0.0
63438.492395554815 1.530573485600365e6 0.0
0.0 0.0 0.0

-44186.096088125385 1.3301963916941497e6 0.0
1.3301963916941497e6 -70355.66911279906 0.0
0.0 0.0 0.0

-157585.4863472788 976712.6497107245 0.0
976712.6497107245 281903.5568542976 0.0
0.0 0.0 0.0

7780.282470636492 3.8880153205674076e6 0.0
3.8880153205674076e6 -68468.45465264608 0.0
0.0 0.0 0.0

432109.8896620845 412959.93870539224 0.0
412959.93870539224 -680503.8709562978 0.0
0.0 0.0 0.0

99848.72724181636 1.9442074580923559e6 0.0
1.9442074580923559e6 -81055.8056407509 0.0
0.0 0.0 0.0

729687.5964267715 512203.3432630228 0.0
512203.3432630228 -1.1077047292292318e6 0.0
0.0 0.0 0.0

-52229.62345794275 1.0341832334400653e6 0.0
1.0341832334400653e6 130789.51942488828 0.0
0.0 0.0 0.0

-1.4824669932076237e6 50140.381580045 0.0
50140.381580045 1.3533803947145967e6 0.0
0.0 0.0 0.0

-105971.12398811948 1.0344515166268473e6 0.0
1.0344515166268473e6 55386.40381324481 0.0
0.0 0.0 0.0

-125159.14049351594 3.5907093326187683e6 0.0
3.5907093326187683e6 -341288.4756617717 0.0
0.0 0.0 0.0

741513.6117846572 373808.461473479 0.0
373808.461473479 -1.1796046047835278e6 0.0
0.0 0.0 0.0

-909820.2766238058 260052.06025029853 0.0
260052.06025029853 1.1053879370962044e6 0.0
0.0 0.0 0.0

-27734.81084123552 618237.6071578134 0.0
618237.6071578134 -97290.73900043276 0.0
0.0 0.0 0.0

378658.3858462765 480088.55044466234 0.0
480088.55044466234 -766141.4583882738 0.0
0.0 0.0 0.0

1.2628032932610405e6 147086.8256135894 0.0
147086.8256135894 -1.570873258837204e6 0.0
0.0 0.0 0.0

-227643.9357812883 654862.8334529247 0.0
654862.8334529247 237954.86601970502 0.0
0.0 0.0 0.0

-89110.71822759767 1.139358500119324e6 0.0
1.139358500119324e6 -36985.58337931825 0.0
0.0 0.0 0.0

109067.3931408349 2.761546227222087e6 0.0
2.761546227222087e6 -352830.8066359126 0.0
0.0 0.0 0.0

-600656.855746849 -19386.417896638293 0.0
-19386.417896638293 670381.8313008042 0.0
0.0 0.0 0.0

-981210.7410654491 -2592.3223695861325 0.0
-2592.3223695861325 937421.9001211425 0.0
0.0 0.0 0.0

-298253.2468185617 468949.45455652184 0.0
468949.45455652184 124548.9765953694 0.0
0.0 0.0 0.0

135422.9193472981 2.6757878028109767e6 0.0
2.6757878028109767e6 -73278.26648160603 0.0
0.0 0.0 0.0

79683.64198545497 3.6514134850034313e6 0.0
3.6514134850034313e6 -8601.097721133494 0.0
0.0 0.0 0.0

-204208.1988144365 862872.5551925577 0.0
862872.5551925577 150575.7469844418 0.0
0.0 0.0 0.0

-51202.61186370906 523843.99311558565 0.0
523843.99311558565 -203644.87865806042 0.0
0.0 0.0 0.0

-21452.87657165477 1.045986410434444e6 0.0
1.045986410434444e6 42053.01443752392 0.0
0.0 0.0 0.0

-144804.04400434683 1.0724879475492844e6 0.0
1.0724879475492844e6 5661.488770962525 0.0
0.0 0.0 0.0

627888.4276797208 505094.84188404074 0.0
505094.84188404074 -1.0511553918487579e6 0.0
0.0 0.0 0.0

-400664.3920849365 -208569.78931170885 0.0
-208569.78931170885 873439.7077002414 0.0
0.0 0.0 0.0

-99538.1165956438 -315992.53207265324 0.0
-315992.53207265324 231750.11292083486 0.0
0.0 0.0 0.0

-15283.790604182352 709409.3943640918 0.0
709409.3943640918 -184129.013028261 0.0
0.0 0.0 0.0

-138080.56123601814 3.6899360686244583e6 0.0
3.6899360686244583e6 -19654.82227378111 0.0
0.0 0.0 0.0

-110460.31775682501 406139.0650146394 0.0
406139.0650146394 -4743.237455333732 0.0
0.0 0.0 0.0

-248213.37652306468 534669.9403048888 0.0
534669.9403048888 113119.69695405671 0.0
0.0 0.0 0.0

-573470.1953982693 200891.60204443464 0.0
200891.60204443464 453883.69211145496 0.0
0.0 0.0 0.0

26785.181020422617 796613.138640381 0.0
796613.138640381 -88880.3328771883 0.0
0.0 0.0 0.0

222774.31025618495 430094.343608895 0.0
430094.343608895 -519525.5995173402 0.0
0.0 0.0 0.0

-331895.67517276586 1.0418551177672466e6 0.0
1.0418551177672466e6 439836.88313018763 0.0
0.0 0.0 0.0

-705711.8863213819 -50248.15284172812 0.0
-50248.15284172812 800783.1024235408 0.0
0.0 0.0 0.0

35836.34421635807 1.089801813945467e6 0.0
1.089801813945467e6 -145356.15390474699 0.0
0.0 0.0 0.0

-343166.4680889387 1.9020061749717398e6 0.0
1.9020061749717398e6 117409.00953378425 0.0
0.0 0.0 0.0

-87088.93610306109 1.1570053544422567e6 0.0
1.1570053544422567e6 -36082.00064548619 0.0
0.0 0.0 0.0

204184.51330303698 641083.4052584695 0.0
641083.4052584695 -363715.16872865637 0.0
0.0 0.0 0.0

20482.904558696137 3.1899370762649253e6 0.0
3.1899370762649253e6 4878.412106421616 0.0
0.0 0.0 0.0

107979.08214517515 885589.2323936532 0.0
885589.2323936532 -220831.44777952007 0.0
0.0 0.0 0.0

-66058.57994205189 886287.1812088989 0.0
886287.1812088989 -71394.76619197612 0.0
0.0 0.0 0.0

-145601.02666505537 1.088484306113555e6 0.0
1.088484306113555e6 249108.93832096717 0.0
0.0 0.0 0.0

-158164.22343601554 991307.8481457626 0.0
991307.8481457626 315515.23005347385 0.0
0.0 0.0 0.0

-74828.65101627866 1.1639417764337617e6 0.0
1.1639417764337617e6 134522.64260531118 0.0
0.0 0.0 0.0

857090.192489594 193787.80790666628 0.0
193787.80790666628 -1.2933259165854354e6 0.0
0.0 0.0 0.0

-302938.02003171825 3.0193194001077274e6 0.0
3.0193194001077274e6 -36152.92045215108 0.0
0.0 0.0 0.0

6072.186903438247 1.0575486785310283e6 0.0
1.0575486785310283e6 -103479.79813228991 0.0
0.0 0.0 0.0

401457.401539717 2.642562482037563e6 0.0
2.642562482037563e6 -67590.04390754644 0.0
0.0 0.0 0.0

-254489.40535977046 1.0543778107305828e6 0.0
1.0543778107305828e6 279852.8038555095 0.0
0.0 0.0 0.0

1.055015346026649e6 225778.5223956036 0.0
225778.5223956036 -1.3202373268808757e6 0.0
0.0 0.0 0.0

-180170.73620575562 562325.1317484641 0.0
562325.1317484641 -101928.49168046104 0.0
0.0 0.0 0.0

95562.1741071617 3.451508373489899e6 0.0
3.451508373489899e6 9440.089463401251 0.0
0.0 0.0 0.0

693421.3028032744 2.273869561285125e6 0.0
2.273869561285125e6 -317342.02555399516 0.0
0.0 0.0 0.0

-383836.96324106725 1.201740110568154e6 0.0
1.201740110568154e6 268767.94435060245 0.0
0.0 0.0 0.0

180957.97054261313 1.5045907644187808e6 0.0
1.5045907644187808e6 -264019.6535057555 0.0
0.0 0.0 0.0

-182306.37445205322 117187.26008173055 0.0
117187.26008173055 123358.21245977235 0.0
0.0 0.0 0.0

-704556.7062057161 -68368.64390516878 0.0
-68368.64390516878 728213.3656226993 0.0
0.0 0.0 0.0

-51539.8594524636 678283.0105326857 0.0
678283.0105326857 -185466.01756992927 0.0
0.0 0.0 0.0

-108698.39090768478 2.897681342303437e6 0.0
2.897681342303437e6 147416.06514689163 0.0
0.0 0.0 0.0

-334758.26395915635 35705.98097095353 0.0
35705.98097095353 302585.94707313343 0.0
0.0 0.0 0.0

-229138.52165689768 507482.5887435491 0.0
507482.5887435491 -385850.9277634896 0.0
0.0 0.0 0.0

87971.12013816283 1.0206854536886899e6 0.0
1.0206854536886899e6 -69710.8220264143 0.0
0.0 0.0 0.0

160039.7308762751 645175.1129798038 0.0
645175.1129798038 -311302.6638006968 0.0
0.0 0.0 0.0

-192153.66569520123 2.792344382174562e6 0.0
2.792344382174562e6 56160.297997886184 0.0
0.0 0.0 0.0

89300.76182878378 3.922417438807428e6 0.0
3.922417438807428e6 -87489.26347827677 0.0
0.0 0.0 0.0

63042.90749218047 4.07441404393128e6 0.0
4.07441404393128e6 12357.333816384413 0.0
0.0 0.0 0.0

-699635.2386064812 1.321411177812459e6 0.0
1.321411177812459e6 706186.4597308732 0.0
0.0 0.0 0.0

67531.05760381206 594939.6630120259 0.0
594939.6630120259 543671.5007782086 0.0
0.0 0.0 0.0

590062.2742143193 888560.8224017898 0.0
888560.8224017898 -1.2100943951369855e6 0.0
0.0 0.0 0.0

-96465.9320677376 -4940.370946180642 0.0
-4940.370946180642 88192.1223579281 0.0
0.0 0.0 0.0

-6038.8619002141495 392095.2498535292 0.0
392095.2498535292 -389236.57400274184 0.0
0.0 0.0 0.0

-55312.98585804816 247723.13213188955 0.0
247723.13213188955 -227322.5403016721 0.0
0.0 0.0 0.0

19018.46417130166 650453.7714716294 0.0
650453.7714716294 579699.2450623997 0.0
0.0 0.0 0.0

158384.81106804332 608389.9727047958 0.0
608389.9727047958 -579100.5428430903 0.0
0.0 0.0 0.0

86570.60257388036 477699.30865152966 0.0
477699.30865152966 -301270.18813465664 0.0
0.0 0.0 0.0

-146094.82558527638 3.7986996073019933e6 0.0
3.7986996073019933e6 -73727.20057096219 0.0
0.0 0.0 0.0

38315.50841754176 1.083718515712436e6 0.0
1.083718515712436e6 -50201.57975230705 0.0
0.0 0.0 0.0

556579.3039965013 356336.7671424144 0.0
356336.7671424144 -900495.2809725117 0.0
0.0 0.0 0.0

-50674.84440161307 698284.1269187888 0.0
698284.1269187888 -197715.90822265967 0.0
0.0 0.0 0.0

-58625.68600207569 1.1548127361175523e6 0.0
1.1548127361175523e6 -27307.244684410645 0.0
0.0 0.0 0.0

79049.92544557182 590710.2521841968 0.0
590710.2521841968 94683.41037622723 0.0
0.0 0.0 0.0

255342.3961884954 254017.1677044953 0.0
254017.1677044953 -246451.74983244063 0.0
0.0 0.0 0.0

-343573.6932740032 1.357954763572647e6 0.0
1.357954763572647e6 66810.55976380884 0.0
0.0 0.0 0.0

-367296.78573137184 1.2237144746242322e6 0.0
1.2237144746242322e6 166090.9105984421 0.0
0.0 0.0 0.0

-941630.9524075857 185382.65471862743 0.0
185382.65471862743 845220.9572931738 0.0
0.0 0.0 0.0

-54749.652247272796 582556.3821140372 0.0
582556.3821140372 19845.0550470421 0.0
0.0 0.0 0.0

-71766.74885255814 1.096326587143831e6 0.0
1.096326587143831e6 234545.5796017336 0.0
0.0 0.0 0.0

-478912.10450386733 1.4004576566787888e6 0.0
1.4004576566787888e6 249832.68875977956 0.0
0.0 0.0 0.0

-233210.4343863912 544206.4670419394 0.0
544206.4670419394 218490.9148440412 0.0
0.0 0.0 0.0

-137210.4114919474 -36431.98961508615 0.0
-36431.98961508615 123292.02677340244 0.0
0.0 0.0 0.0

-335181.4265566502 1.1545237741049894e6 0.0
1.1545237741049894e6 202682.29899367125 0.0
0.0 0.0 0.0

-275899.9066631217 2.652131097145966e6 0.0
2.652131097145966e6 -23012.34012038294 0.0
0.0 0.0 0.0

-240731.71813725785 783207.6772094409 0.0
783207.6772094409 -133478.06604041642 0.0
0.0 0.0 0.0

-64214.013193010185 2.992333808573597e6 0.0
2.992333808573597e6 33683.76615412232 0.0
0.0 0.0 0.0

-194574.11198600096 2.798473005286721e6 0.0
2.798473005286721e6 5739.988105219767 0.0
0.0 0.0 0.0

24133.69154255525 903232.7199822429 0.0
903232.7199822429 -143968.87864106626 0.0
0.0 0.0 0.0

61320.78181988258 536422.4433656905 0.0
536422.4433656905 204402.64891846184 0.0
0.0 0.0 0.0

429660.364242165 313790.83694001264 0.0
313790.83694001264 -845894.0440686289 0.0
0.0 0.0 0.0

84338.33165415167 667630.1376929444 0.0
667630.1376929444 -525345.2023292236 0.0
0.0 0.0 0.0

-53949.999397441185 1.1690131036555886e6 0.0
1.1690131036555886e6 96256.07069166616 0.0
0.0 0.0 0.0

-38824.57315123422 474156.99608221586 0.0
474156.99608221586 285384.2470451342 0.0
0.0 0.0 0.0

20697.407866445865 496961.1035830816 0.0
496961.1035830816 -281645.8802332792 0.0
0.0 0.0 0.0

-306589.9272314423 325656.49199871335 0.0
325656.49199871335 397014.9770474419 0.0
0.0 0.0 0.0

-173943.128173335 1.0225342098606628e6 0.0
1.0225342098606628e6 232228.15724451636 0.0
0.0 0.0 0.0

-893297.0782552774 -117624.67425241171 0.0
-117624.67425241171 970213.9593594396 0.0
0.0 0.0 0.0

-4981.737643508797 3.8842726123483554e6 0.0
3.8842726123483554e6 -71463.484956317 0.0
0.0 0.0 0.0

-122905.8110944131 874476.8603682752 0.0
874476.8603682752 171789.31118964512 0.0
0.0 0.0 0.0

140558.6814455943 1.5078678161422932e6 0.0
1.5078678161422932e6 -241858.1444947825 0.0
0.0 0.0 0.0

-370804.6019945239 1.0810249277759502e6 0.0
1.0810249277759502e6 375866.2015568365 0.0
0.0 0.0 0.0

-144057.3975762499 99220.47760032273 0.0
99220.47760032273 89432.35408783353 0.0
0.0 0.0 0.0

602648.9156390013 410356.5942822 0.0
410356.5942822 -971205.9779337154 0.0
0.0 0.0 0.0

-415058.91268974455 1.0302482448463334e6 0.0
1.0302482448463334e6 435144.3878966456 0.0
0.0 0.0 0.0

-79100.0352620052 885468.7290294551 0.0
885468.7290294551 -167442.59659322994 0.0
0.0 0.0 0.0

-193090.88589596975 112909.10233987747 0.0
112909.10233987747 117104.18677668051 0.0
0.0 0.0 0.0

-201001.3229002799 3.6192701990595106e6 0.0
3.6192701990595106e6 -384914.19384166406 0.0
0.0 0.0 0.0

-60301.58503697307 4.0609557464746833e6 0.0
4.0609557464746833e6 -71009.21627529987 0.0
0.0 0.0 0.0

-484867.27704538667 136651.843907825 0.0
136651.843907825 597481.3592590832 0.0
0.0 0.0 0.0

-261336.2924976329 1.0540343265326342e6 0.0
1.0540343265326342e6 263110.6853356043 0.0
0.0 0.0 0.0

166937.03564270173 1.305171396540154e6 0.0
1.305171396540154e6 -256434.55945799965 0.0
0.0 0.0 0.0

354557.694412618 376533.11260422005 0.0
376533.11260422005 -625792.3460041975 0.0
0.0 0.0 0.0

-260366.03597561287 -632398.2578789919 0.0
-632398.2578789919 319519.183768001 0.0
0.0 0.0 0.0

251627.84600777872 1.4911291964522842e6 0.0
1.4911291964522842e6 -314096.2317205123 0.0
0.0 0.0 0.0

-275528.28568864765 836918.8968125343 0.0
836918.8968125343 372834.4637575333 0.0
0.0 0.0 0.0

326106.61962401087 4.034625755972845e6 0.0
4.034625755972845e6 102032.49601440888 0.0
0.0 0.0 0.0

-233430.62420734268 673952.5359855142 0.0
673952.5359855142 950709.6623352006 0.0
0.0 0.0 0.0

13323.483015770318 644142.3479908917 0.0
644142.3479908917 147948.42459300032 0.0
0.0 0.0 0.0

59651.1347185763 483621.5512224235 0.0
483621.5512224235 420106.915062333 0.0
0.0 0.0 0.0

-34636.09045017786 656463.4700932581 0.0
656463.4700932581 -115453.6284781885 0.0
0.0 0.0 0.0

-1.1639202596250963e6 178809.54518449423 0.0
178809.54518449423 997943.3520252205 0.0
0.0 0.0 0.0

44861.35132333652 624522.3959997247 0.0
624522.3959997247 -202913.44474411695 0.0
0.0 0.0 0.0

-958257.6638526509 911971.673124364 0.0
911971.673124364 1.0010699483186174e6 0.0
0.0 0.0 0.0

-523780.44835983834 10241.673622894687 0.0
10241.673622894687 588734.1965648644 0.0
0.0 0.0 0.0

-924907.3379958486 -95085.25838021982 0.0
-95085.25838021982 1.0431781267209265e6 0.0
0.0 0.0 0.0

84295.97194354056 2.5799837611588305e6 0.0
2.5799837611588305e6 -523678.2652651835 0.0
0.0 0.0 0.0

798475.7710223197 309888.8465072565 0.0
309888.8465072565 -240392.67963769817 0.0
0.0 0.0 0.0

752377.3823586477 423920.00362202746 0.0
423920.00362202746 -1.120034234822696e6 0.0
0.0 0.0 0.0

-1.808471028320686e6 81250.02720370122 0.0
81250.02720370122 1.5480691352818557e6 0.0
0.0 0.0 0.0

405597.7841633349 453759.8391238562 0.0
453759.8391238562 -834650.6983839548 0.0
0.0 0.0 0.0

-167345.56446022686 -25772.43026286596 0.0
-25772.43026286596 225036.60979743482 0.0
0.0 0.0 0.0

-300664.9108868132 1.0750254690704916e6 0.0
1.0750254690704916e6 138210.10803200965 0.0
0.0 0.0 0.0

-30283.80794060288 4.078137596651432e6 0.0
4.078137596651432e6 -71417.40294367234 0.0
0.0 0.0 0.0

-396799.090117252 1.3532091222706265e6 0.0
1.3532091222706265e6 170313.62416804052 0.0
0.0 0.0 0.0

-96935.24124839608 3.8576460311210323e6 0.0
3.8576460311210323e6 54807.45413824686 0.0
0.0 0.0 0.0

-237050.62706358108 3.4095707445704527e6 0.0
3.4095707445704527e6 -37596.74726269564 0.0
0.0 0.0 0.0

-658467.1376009649 -42954.61231180232 0.0
-42954.61231180232 643171.7091043168 0.0
0.0 0.0 0.0

1.0106210787066026e6 240879.82614508836 0.0
240879.82614508836 -1.369462946096752e6 0.0
0.0 0.0 0.0

106318.89229605603 1.410846211885765e6 0.0
1.410846211885765e6 -145298.84920302482 0.0
0.0 0.0 0.0

-62425.46606595154 3.9402178578781164e6 0.0
3.9402178578781164e6 -164018.85231027703 0.0
0.0 0.0 0.0

317769.3169340398 961474.7304027274 0.0
961474.7304027274 -220430.99764009094 0.0
0.0 0.0 0.0

-43451.40211118963 286802.4902999806 0.0
286802.4902999806 -235592.41426078795 0.0
0.0 0.0 0.0

-63597.06874635541 525545.377842239 0.0
525545.377842239 -211990.21725800127 0.0
0.0 0.0 0.0

-239460.00287535216 804230.3720501445 0.0
804230.3720501445 156418.3893614624 0.0
0.0 0.0 0.0

-262334.2244820199 1.0678142110911056e6 0.0
1.0678142110911056e6 279167.13473541697 0.0
0.0 0.0 0.0

-74633.51315600869 540182.2336628783 0.0
540182.2336628783 -170235.39406612053 0.0
0.0 0.0 0.0

-194520.13672744337 617442.042891322 0.0
617442.042891322 -271600.04185921774 0.0
0.0 0.0 0.0

1.176784783527128e6 154027.44312537124 0.0
154027.44312537124 -1.4951396725620432e6 0.0
0.0 0.0 0.0

48357.09388258465 1.5140945294107085e6 0.0
1.5140945294107085e6 -106631.0371714917 0.0
0.0 0.0 0.0

361801.38702239236 378711.4443297973 0.0
378711.4443297973 -714372.6297250006 0.0
0.0 0.0 0.0

-76920.95669191003 -129503.86769086463 0.0
-129503.86769086463 -49288.33060321363 0.0
0.0 0.0 0.0

-268025.1295875143 586590.2606288719 0.0
586590.2606288719 -458614.0777393277 0.0
0.0 0.0 0.0

-831238.8510214726 -46672.47960254292 0.0
-46672.47960254292 1.1527509327160718e6 0.0
0.0 0.0 0.0

-306164.45758106967 1.0020599443561169e6 0.0
1.0020599443561169e6 95259.61549533092 0.0
0.0 0.0 0.0

175188.503568658 1.2109647663186993e6 0.0
1.2109647663186993e6 -280388.1998397888 0.0
0.0 0.0 0.0

832013.2061728677 453027.986761157 0.0
453027.986761157 -1.2467824430788956e6 0.0
0.0 0.0 0.0

-110169.43148706877 1.071433012412111e6 0.0
1.071433012412111e6 33967.59050523006 0.0
0.0 0.0 0.0

-267783.20639780245 777134.5783150627 0.0
777134.5783150627 312777.572006165 0.0
0.0 0.0 0.0

-486497.214787266 948153.0766438815 0.0
948153.0766438815 490814.3473915119 0.0
0.0 0.0 0.0

-32169.394617543578 1.0399379652788019e6 0.0
1.0399379652788019e6 18435.632545295342 0.0
0.0 0.0 0.0

298999.69850742293 552535.4062998684 0.0
552535.4062998684 -557198.4462849515 0.0
0.0 0.0 0.0

-94582.97697047492 340141.419688034 0.0
340141.419688034 -315276.57381644147 0.0
0.0 0.0 0.0

-173082.23638534162 787148.112756366 0.0
787148.112756366 253103.7669029386 0.0
0.0 0.0 0.0

-160485.46303548975 518300.71776085696 0.0
518300.71776085696 -534951.5801549497 0.0
0.0 0.0 0.0

-400344.0710558251 488104.6119342977 0.0
488104.6119342977 303644.01022535725 0.0
0.0 0.0 0.0

-90949.99288674886 8464.443577106096 0.0
8464.443577106096 75498.70962155468 0.0
0.0 0.0 0.0

-221060.4189058023 3.143090911145025e6 0.0
3.143090911145025e6 -81850.39031242464 0.0
0.0 0.0 0.0

-256562.84730432782 643726.1851708314 0.0
643726.1851708314 142382.73554884118 0.0
0.0 0.0 0.0

-158324.58131320155 -22320.881752655485 0.0
-22320.881752655485 133045.11928349794 0.0
0.0 0.0 0.0

271364.3398107644 738005.5034424411 0.0
738005.5034424411 -365063.48406419787 0.0
0.0 0.0 0.0

-344201.98203585437 1.564868213275201e6 0.0
1.564868213275201e6 37061.67225563532 0.0
0.0 0.0 0.0

-16425.34176489531 735600.565880952 0.0
735600.565880952 -191049.97837869095 0.0
0.0 0.0 0.0

-262202.33486554737 969350.5363372648 0.0
969350.5363372648 186091.61934224248 0.0
0.0 0.0 0.0

-198805.57536776533 903883.4901563907 0.0
903883.4901563907 101326.55237654892 0.0
0.0 0.0 0.0

-116977.55942782249 387321.01279587287 0.0
387321.01279587287 -389925.23219601746 0.0
0.0 0.0 0.0

-26874.778144439784 1.0468033474953979e6 0.0
1.0468033474953979e6 151766.62085264912 0.0
0.0 0.0 0.0

-425422.1155222414 743709.8178427889 0.0
743709.8178427889 681626.6479109622 0.0
0.0 0.0 0.0

-194892.90672304283 94109.477346488 0.0
94109.477346488 143406.42756093873 0.0
0.0 0.0 0.0

-2.4290589001101777e6 -2126.9925864501292 0.0
-2126.9925864501292 2.167028901628226e6 0.0
0.0 0.0 0.0

35902.06259372818 1.0976663077730625e6 0.0
1.0976663077730625e6 -132388.3700594369 0.0
0.0 0.0 0.0

62452.85099137614 3.7451030250305575e6 0.0
3.7451030250305575e6 -53527.165447974214 0.0
0.0 0.0 0.0

116749.95453377036 496579.7160964446 0.0
496579.7160964446 389166.5710759037 0.0
0.0 0.0 0.0

359768.0743292661 3.021461401283711e6 0.0
3.021461401283711e6 -127960.47716878747 0.0
0.0 0.0 0.0

-105404.09089246373 954223.7179147953 0.0
954223.7179147953 58024.25129891386 0.0
0.0 0.0 0.0

198621.89654223958 3.7499876001077034e6 0.0
3.7499876001077034e6 -66241.65267671768 0.0
0.0 0.0 0.0

79281.95718828501 627896.1739213027 0.0
627896.1739213027 656990.9028275738 0.0
0.0 0.0 0.0

975593.6906654336 375699.38168217684 0.0
375699.38168217684 -1.2715179707272602e6 0.0
0.0 0.0 0.0

-240617.7988406286 1.033384957840613e6 0.0
1.033384957840613e6 255526.42848450222 0.0
0.0 0.0 0.0

-3100.9725938197735 561681.6212274606 0.0
561681.6212274606 -194050.30882107114 0.0
0.0 0.0 0.0

-178061.78789686435 618980.5094710658 0.0
618980.5094710658 -593539.4041549364 0.0
0.0 0.0 0.0

-43817.55492543118 1.129341344540369e6 0.0
1.129341344540369e6 66892.89278741484 0.0
0.0 0.0 0.0

1.16371449475158e6 243075.20342185075 0.0
243075.20342185075 -1.40122433302271e6 0.0
0.0 0.0 0.0

-191942.1932338223 3.8304749780880352e6 0.0
3.8304749780880352e6 -223754.9213139842 0.0
0.0 0.0 0.0

214196.70347941923 2.445087902142858e6 0.0
2.445087902142858e6 -104936.48016142305 0.0
0.0 0.0 0.0

152777.7057381534 2.9686896701987158e6 0.0
2.9686896701987158e6 -668020.2423572823 0.0
0.0 0.0 0.0

-358215.0685242271 348569.29116051167 0.0
348569.29116051167 213961.20185530797 0.0
0.0 0.0 0.0

126300.24818597223 945911.2490897642 0.0
945911.2490897642 -17284.10260520241 0.0
0.0 0.0 0.0

-103333.26158061165 1.0901336534930991e6 0.0
1.0901336534930991e6 -28806.090448526073 0.0
0.0 0.0 0.0

33041.96255883191 2.98717509809161e6 0.0
2.98717509809161e6 2158.314097045866 0.0
0.0 0.0 0.0

-1.0951111206798067e6 -68991.90769954301 0.0
-68991.90769954301 1.1992259523254675e6 0.0
0.0 0.0 0.0

-10212.35805534981 622863.0194377417 0.0
622863.0194377417 -137871.84832777403 0.0
0.0 0.0 0.0

-264051.910008014 1.0543289526360796e6 0.0
1.0543289526360796e6 329929.35631363036 0.0
0.0 0.0 0.0

-44600.87453917628 1.7603551312310107e6 0.0
1.7603551312310107e6 -358608.2219963964 0.0
0.0 0.0 0.0

-135424.76681260363 1.852833905107599e6 0.0
1.852833905107599e6 201769.42811169574 0.0
0.0 0.0 0.0

-836411.2759341963 682384.2468121492 0.0
682384.2468121492 992766.9622344007 0.0
0.0 0.0 0.0

-15751.958868792179 489874.7540380366 0.0
489874.7540380366 -159057.41685206408 0.0
0.0 0.0 0.0

382970.2572783597 657929.8914435405 0.0
657929.8914435405 -162438.60376910103 0.0
0.0 0.0 0.0

-183051.49167625362 955814.8131888615 0.0
955814.8131888615 546981.7811792281 0.0
0.0 0.0 0.0

-53289.58010780775 4.1328096675813184e6 0.0
4.1328096675813184e6 -81576.44586381281 0.0
0.0 0.0 0.0

359540.16486141784 3.663913372689695e6 0.0
3.663913372689695e6 -190406.977213764 0.0
0.0 0.0 0.0

-67066.52649172547 249222.13076184387 0.0
249222.13076184387 -223555.08780826008 0.0
0.0 0.0 0.0

-135948.50413732193 399353.3999910975 0.0
399353.3999910975 -130032.66015419428 0.0
0.0 0.0 0.0

-163944.88369039295 1.8249413241389212e6 0.0
1.8249413241389212e6 -417328.118109378 0.0
0.0 0.0 0.0

139081.62547952484 698031.5188204381 0.0
698031.5188204381 -243679.29065522627 0.0
0.0 0.0 0.0

-40954.57948313982 3.864886133926193e6 0.0
3.864886133926193e6 -206134.81622652395 0.0
0.0 0.0 0.0

-129654.40512149678 3.705601451949396e6 0.0
3.705601451949396e6 83511.68687681136 0.0
0.0 0.0 0.0

-69182.3723482145 1.1618207980127025e6 0.0
1.1618207980127025e6 -30158.808211880227 0.0
0.0 0.0 0.0

66796.35524172275 2.376319142080734e6 0.0
2.376319142080734e6 -139428.01804945452 0.0
0.0 0.0 0.0

-322077.1010384854 283774.278783966 0.0
283774.278783966 189948.9563011162 0.0
0.0 0.0 0.0

170225.98729236994 272343.8850066169 0.0
272343.8850066169 45561.021376418845 0.0
0.0 0.0 0.0

-23049.385834238517 3.579059054900963e6 0.0
3.579059054900963e6 -173297.04676237894 0.0
0.0 0.0 0.0

2511.376486110181 656816.7963981914 0.0
656816.7963981914 -152585.29697452215 0.0
0.0 0.0 0.0

885450.6853810347 2.529990511467231e6 0.0
2.529990511467231e6 -473827.8499067455 0.0
0.0 0.0 0.0

-241113.49521322985 -29046.76806746485 0.0
-29046.76806746485 225240.58658822416 0.0
0.0 0.0 0.0

-163885.7212763489 841004.8022149802 0.0
841004.8022149802 282982.72017998353 0.0
0.0 0.0 0.0

-199924.42197984562 855084.2397652966 0.0
855084.2397652966 114158.13088015457 0.0
0.0 0.0 0.0

-309869.3373552875 318900.6275442771 0.0
318900.6275442771 208002.77472590044 0.0
0.0 0.0 0.0

1.7805818502976722e6 411258.5279230396 0.0
411258.5279230396 -1.3414186222615088e6 0.0
0.0 0.0 0.0

-2.6997974831478787e6 -177853.1256646069 0.0
-177853.1256646069 2.2312122142661447e6 0.0
0.0 0.0 0.0

-204598.09580633082 424589.0761612851 0.0
424589.0761612851 -238388.27516706008 0.0
0.0 0.0 0.0

-220730.54619000189 818162.2677916345 0.0
818162.2677916345 97045.58762430814 0.0
0.0 0.0 0.0

-252554.59223581303 991460.8111768179 0.0
991460.8111768179 238436.87711256096 0.0
0.0 0.0 0.0

-108126.30910912257 3.600905166173906e6 0.0
3.600905166173906e6 -264398.7965850557 0.0
0.0 0.0 0.0

199052.51305936562 2.197953136528357e6 0.0
2.197953136528357e6 -433610.2738680946 0.0
0.0 0.0 0.0

59428.354402370154 623076.3028710033 0.0
623076.3028710033 -149785.4825135864 0.0
0.0 0.0 0.0

28810.053789625992 337831.18727342243 0.0
337831.18727342243 -312519.6786106668 0.0
0.0 0.0 0.0

415869.7317516515 884015.2585701288 0.0
884015.2585701288 -871923.2513675599 0.0
0.0 0.0 0.0

774752.9195716892 293895.8135950877 0.0
293895.8135950877 -396594.7560201993 0.0
0.0 0.0 0.0

331066.755744395 3.762832552116268e6 0.0
3.762832552116268e6 -86567.71499627498 0.0
0.0 0.0 0.0

-70926.17878225245 288972.9523281817 0.0
288972.9523281817 -236420.60090377438 0.0
0.0 0.0 0.0

333618.2317514527 3.240843943153272e6 0.0
3.240843943153272e6 -56094.69918830773 0.0
0.0 0.0 0.0

-21879.435733344042 980254.2059753919 0.0
980254.2059753919 -129195.64725948607 0.0
0.0 0.0 0.0

-28093.614293505445 3.118628592915062e6 0.0
3.118628592915062e6 -18297.935072116034 0.0
0.0 0.0 0.0

10459.459140759587 638225.5784815212 0.0
638225.5784815212 -213790.0183318668 0.0
0.0 0.0 0.0

-523157.5153542969 398319.11037091 0.0
398319.11037091 202686.5385461938 0.0
0.0 0.0 0.0

-232889.49129457359 -11092.502874882566 0.0
-11092.502874882566 249173.29406010764 0.0
0.0 0.0 0.0

-282766.04445041285 446467.3629443022 0.0
446467.3629443022 264502.0869266244 0.0
0.0 0.0 0.0

-105467.75375412495 595286.0524532048 0.0
595286.0524532048 -173007.63488848956 0.0
0.0 0.0 0.0

79216.39631038261 765882.3851246864 0.0
765882.3851246864 -54880.15583307723 0.0
0.0 0.0 0.0

-227839.29318316386 3.5329923701453856e6 0.0
3.5329923701453856e6 -283806.6409996908 0.0
0.0 0.0 0.0

-260229.68646831452 694455.9159086267 0.0
694455.9159086267 -409577.72857980314 0.0
0.0 0.0 0.0

441674.93112155015 3.238953262280273e6 0.0
3.238953262280273e6 -229221.58638075928 0.0
0.0 0.0 0.0

-412562.03855446656 1.1306600765154175e6 0.0
1.1306600765154175e6 422864.80372447846 0.0
0.0 0.0 0.0

77595.76177225125 3.255533060387549e6 0.0
3.255533060387549e6 -127124.98761090834 0.0
0.0 0.0 0.0

-78736.49096757238 1.1519305126289895e6 0.0
1.1519305126289895e6 -478.95252339388026 0.0
0.0 0.0 0.0

-444938.3496471564 1.3632539099734938e6 0.0
1.3632539099734938e6 186641.83171379231 0.0
0.0 0.0 0.0

-307212.2320507714 516393.6274302189 0.0
516393.6274302189 180626.18606698042 0.0
0.0 0.0 0.0

-224068.35146358097 1.2320205532425172e6 0.0
1.2320205532425172e6 -85065.81376536918 0.0
0.0 0.0 0.0

-49498.83647234316 -266735.97664509725 0.0
-266735.97664509725 189378.4266951006 0.0
0.0 0.0 0.0

76124.41118918612 555984.4743931472 0.0
555984.4743931472 -493219.8834546967 0.0
0.0 0.0 0.0

-91857.08740925934 1.1678478223666358e6 0.0
1.1678478223666358e6 97315.8768672116 0.0
0.0 0.0 0.0

-155301.81608371582 669965.209225863 0.0
669965.209225863 432349.49061624793 0.0
0.0 0.0 0.0

-466348.6731251085 475156.925565322 0.0
475156.925565322 -206043.74377893627 0.0
0.0 0.0 0.0

914403.8042552867 480514.58776315046 0.0
480514.58776315046 -1.3250860191260304e6 0.0
0.0 0.0 0.0

-275156.03382429876 293158.20288487984 0.0
293158.20288487984 -425903.5163295775 0.0
0.0 0.0 0.0

218851.6434622634 658040.923108721 0.0
658040.923108721 -594976.9136238674 0.0
0.0 0.0 0.0

1.0411683476374359e6 230159.93949393404 0.0
230159.93949393404 -1.4439125435506345e6 0.0
0.0 0.0 0.0

591990.9966862022 3.7291435736239017e6 0.0
3.7291435736239017e6 -248599.0320888442 0.0
0.0 0.0 0.0

412247.22769113805 444410.60725431255 0.0
444410.60725431255 -616926.5707672483 0.0
0.0 0.0 0.0

-2.8033591002517072e6 141838.04996205188 0.0
141838.04996205188 2.6113844991747206e6 0.0
0.0 0.0 0.0

-370938.61919081095 387567.2440842372 0.0
387567.2440842372 288151.69983646716 0.0
0.0 0.0 0.0

-186857.1081403851 998804.214013358 0.0
998804.214013358 238220.71873039915 0.0
0.0 0.0 0.0

-53449.792809375984 1.0425629719711217e6 0.0
1.0425629719711217e6 35836.479389405715 0.0
0.0 0.0 0.0

-334735.60579032614 460124.0752966485 0.0
460124.0752966485 344865.1477565939 0.0
0.0 0.0 0.0

-281605.3132525552 1.0731878498404066e6 0.0
1.0731878498404066e6 68331.46589076494 0.0
0.0 0.0 0.0

195697.14023349123 628894.9537290935 0.0
628894.9537290935 652323.8756855432 0.0
0.0 0.0 0.0

-144250.4098092634 8838.0358994819 0.0
8838.0358994819 145710.64468980124 0.0
0.0 0.0 0.0

196358.98604242387 2.2215731667010505e6 0.0
2.2215731667010505e6 -250905.42847007996 0.0
0.0 0.0 0.0

789314.3640475657 667787.3025777811 0.0
667787.3025777811 -1.2874368586734247e6 0.0
0.0 0.0 0.0

-463446.8063549478 1.2114165368758151e6 0.0
1.2114165368758151e6 446312.60054630775 0.0
0.0 0.0 0.0

-46988.01693804181 4.289263837255013e6 0.0
4.289263837255013e6 -117212.17202777354 0.0
0.0 0.0 0.0

-35128.22290230478 1.4399962363913592e6 0.0
1.4399962363913592e6 -144943.19366452142 0.0
0.0 0.0 0.0

-333038.4579632515 363596.8496288839 0.0
363596.8496288839 276084.79804681626 0.0
0.0 0.0 0.0

-607103.4022457892 1.0619581555564161e6 0.0
1.0619581555564161e6 754652.5913188712 0.0
0.0 0.0 0.0

77983.14743929604 2.7161616539827185e6 0.0
2.7161616539827185e6 -157075.16748759127 0.0
0.0 0.0 0.0

228837.9355801896 566021.7889148215 0.0
566021.7889148215 -445403.2196085468 0.0
0.0 0.0 0.0

-646190.6702191931 1.2956891528494856e6 0.0
1.2956891528494856e6 643413.3441587097 0.0
0.0 0.0 0.0

760697.3053202844 3.414599720780067e6 0.0
3.414599720780067e6 -687033.2178399875 0.0
0.0 0.0 0.0

-152280.5339992856 1.3106699721000819e6 0.0
1.3106699721000819e6 -107301.11116397422 0.0
0.0 0.0 0.0

377461.81610390486 881496.3544920484 0.0
881496.3544920484 -390217.5554650584 0.0
0.0 0.0 0.0

49992.947142832185 726642.3578656163 0.0
726642.3578656163 -693961.4722890418 0.0
0.0 0.0 0.0

283064.28969984996 3.7120781292801714e6 0.0
3.7120781292801714e6 -140101.1964269955 0.0
0.0 0.0 0.0

109699.31964162234 1.0751394424943873e6 0.0
1.0751394424943873e6 -175304.53849052315 0.0
0.0 0.0 0.0

-88607.9916092056 3.3668378165379153e6 0.0
3.3668378165379153e6 -38732.48954293011 0.0
0.0 0.0 0.0

748512.7375508179 555110.1259806517 0.0
555110.1259806517 -1.1832129261617362e6 0.0
0.0 0.0 0.0

-65085.56000764323 993319.4205963823 0.0
993319.4205963823 -115016.46448735824 0.0
0.0 0.0 0.0

-473191.4971519944 858078.8275123163 0.0
858078.8275123163 727195.2703835209 0.0
0.0 0.0 0.0

-322574.05575171666 1.092499075759532e6 0.0
1.092499075759532e6 91556.16119417369 0.0
0.0 0.0 0.0

297636.6141307743 3.1943063339414904e6 0.0
3.1943063339414904e6 -13598.74063821345 0.0
0.0 0.0 0.0

-489495.82542475994 1.5333276051239946e6 0.0
1.5333276051239946e6 167875.85537133788 0.0
0.0 0.0 0.0

-20999.227357185424 561393.3488786992 0.0
561393.3488786992 167927.6350911947 0.0
0.0 0.0 0.0

-1.0014778496484318e6 -52050.33142766222 0.0
-52050.33142766222 1.415198947181917e6 0.0
0.0 0.0 0.0

353478.6575822116 3.8478223175840997e6 0.0
3.8478223175840997e6 -43864.87551107521 0.0
0.0 0.0 0.0

194921.04806434864 1.2682247817887363e6 0.0
1.2682247817887363e6 -265015.41566127195 0.0
0.0 0.0 0.0

1.1224408523848555e6 271073.0468077258 0.0
271073.0468077258 -1.3429443675287939e6 0.0
0.0 0.0 0.0

-65546.78701166133 1.7315932362198967e6 0.0
1.7315932362198967e6 -388332.2504823845 0.0
0.0 0.0 0.0

-113049.66455501865 908326.8873546931 0.0
908326.8873546931 147257.24475520404 0.0
0.0 0.0 0.0

353852.96170774254 2.322157825365071e6 0.0
2.322157825365071e6 -369854.9230606364 0.0
0.0 0.0 0.0

-358500.22430879384 883619.3094512364 0.0
883619.3094512364 591289.0407221222 0.0
0.0 0.0 0.0

-42699.70296838209 1.193278204944444e6 0.0
1.193278204944444e6 46704.18241605426 0.0
0.0 0.0 0.0

13732.14999761663 3.2494713237196933e6 0.0
3.2494713237196933e6 -110101.88561611137 0.0
0.0 0.0 0.0

939516.6781504 290994.9864884538 0.0
290994.9864884538 -1.2702592126337478e6 0.0
0.0 0.0 0.0

-149631.5535586344 3.8198449987432016e6 0.0
3.8198449987432016e6 -234162.45634328737 0.0
0.0 0.0 0.0

24146.106661764643 2.9983334884199714e6 0.0
2.9983334884199714e6 -446197.27564792894 0.0
0.0 0.0 0.0

-167019.90861718464 900948.4272681589 0.0
900948.4272681589 46078.65346251299 0.0
0.0 0.0 0.0

151113.37684436078 3.8548806252267114e6 0.0
3.8548806252267114e6 -169359.49933927378 0.0
0.0 0.0 0.0

-188240.32777051162 972240.6802012884 0.0
972240.6802012884 240175.89006005516 0.0
0.0 0.0 0.0

-132209.77053266333 800215.2246716005 0.0
800215.2246716005 193737.384184169 0.0
0.0 0.0 0.0

-2.382399335906217e6 831559.7860333481 0.0
831559.7860333481 3.745823061838039e6 0.0
0.0 0.0 0.0

-545594.0325747652 1.5407905302092806e6 0.0
1.5407905302092806e6 330930.712113446 0.0
0.0 0.0 0.0

85307.41642717799 1.4555618318893358e6 0.0
1.4555618318893358e6 -105842.08640837646 0.0
0.0 0.0 0.0

454747.85853046656 424332.58034672786 0.0
424332.58034672786 -741849.2282354357 0.0
0.0 0.0 0.0

531156.4724304467 379177.24269014917 0.0
379177.24269014917 -865230.81706053 0.0
0.0 0.0 0.0

1.2410224119457793e6 170947.94078533712 0.0
170947.94078533712 -1.5837004295714023e6 0.0
0.0 0.0 0.0

-220710.37576404185 804564.3452108863 0.0
804564.3452108863 222396.54442977917 0.0
0.0 0.0 0.0

1.1922812238336126e6 132722.7676547264 0.0
132722.7676547264 -1.6277382728090084e6 0.0
0.0 0.0 0.0

-612221.7144201554 1341.7513626432326 0.0
1341.7513626432326 563399.784615958 0.0
0.0 0.0 0.0

-235063.0276972555 877897.8871090872 0.0
877897.8871090872 255887.86425738866 0.0
0.0 0.0 0.0

-271262.96765558375 276773.31659171067 0.0
276773.31659171067 -383782.7702136971 0.0
0.0 0.0 0.0

-30991.983567415067 4.066938033673546e6 0.0
4.066938033673546e6 -89788.16177179094 0.0
0.0 0.0 0.0

105403.3478199188 3.7772325053318664e6 0.0
3.7772325053318664e6 -74368.05719372041 0.0
0.0 0.0 0.0

-20721.602903622967 533044.0198613593 0.0
533044.0198613593 -202896.68269282693 0.0
0.0 0.0 0.0

676092.7485574757 511856.8175972365 0.0
511856.8175972365 -1.1090088055815198e6 0.0
0.0 0.0 0.0

1.0972603036061367e6 266650.9676166849 0.0
266650.9676166849 -1.392849606140332e6 0.0
0.0 0.0 0.0

-567250.6995662862 365461.47870498477 0.0
365461.47870498477 789.1432660712453 0.0
0.0 0.0 0.0

-23381.609326661775 3.2670090672135167e6 0.0
3.2670090672135167e6 -101325.28737262932 0.0
0.0 0.0 0.0

77006.58357471299 3.76868556075267e6 0.0
3.76868556075267e6 -64608.25460512531 0.0
0.0 0.0 0.0

-55862.786042047985 924527.1412260185 0.0
924527.1412260185 275191.1137438461 0.0
0.0 0.0 0.0

-1951.6297832390628 904916.3760622585 0.0
904916.3760622585 -147111.0391313491 0.0
0.0 0.0 0.0

-1.2326776587731245e6 44929.17224184462 0.0
44929.17224184462 1.1294000751847285e6 0.0
0.0 0.0 0.0

-311977.0880468285 1.0775332356447778e6 0.0
1.0775332356447778e6 362617.59660193854 0.0
0.0 0.0 0.0

-264705.9806411277 2.9942645561545226e6 0.0
2.9942645561545226e6 -479127.59543003247 0.0
0.0 0.0 0.0

-221634.36396543175 849.5671992425837 0.0
849.5671992425837 181930.81049188128 0.0
0.0 0.0 0.0

-4.299049716550771e6 440814.7035707544 0.0
440814.7035707544 5.420065763362676e6 0.0
0.0 0.0 0.0

140141.8827631562 1.7634036518416516e6 0.0
1.7634036518416516e6 -200528.91186379205 0.0
0.0 0.0 0.0

-173454.8095782261 382221.7678709206 0.0
382221.7678709206 586649.8766721343 0.0
0.0 0.0 0.0

-3.0969480056383107e6 -90461.18635762372 0.0
-90461.18635762372 2.7224718667103574e6 0.0
0.0 0.0 0.0

1.1786223077804316e6 203985.70386803956 0.0
203985.70386803956 -1.471030421025404e6 0.0
0.0 0.0 0.0

7317.9757044133075 1.1061081335022054e6 0.0
1.1061081335022054e6 -20913.14703729716 0.0
0.0 0.0 0.0

-243958.4491940383 741873.4063209745 0.0
741873.4063209745 142955.18492979085 0.0
0.0 0.0 0.0

137994.3410670365 1.4981746664447524e6 0.0
1.4981746664447524e6 -254308.9290590959 0.0
0.0 0.0 0.0

109171.64427954571 500202.76163702394 0.0
500202.76163702394 43472.722681824096 0.0
0.0 0.0 0.0

-51087.728852072825 1.152465275532594e6 0.0
1.152465275532594e6 87897.31125248694 0.0
0.0 0.0 0.0

113775.36415216539 3.755938118999217e6 0.0
3.755938118999217e6 -249118.31268229545 0.0
0.0 0.0 0.0

-164355.2982617119 -33418.75691098548 0.0
-33418.75691098548 173869.19593832816 0.0
0.0 0.0 0.0

-64586.853192076625 2.7396397833501003e6 0.0
2.7396397833501003e6 -89479.8229637767 0.0
0.0 0.0 0.0

550953.1733298743 3.8947624187753987e6 0.0
3.8947624187753987e6 -71300.80462268475 0.0
0.0 0.0 0.0

1.176831312552364e6 166372.82119095649 0.0
166372.82119095649 -1.5097303664910789e6 0.0
0.0 0.0 0.0

-201942.74086379126 613054.0309286802 0.0
613054.0309286802 -178406.21521672196 0.0
0.0 0.0 0.0

127321.45857539025 731148.386178954 0.0
731148.386178954 904122.6739559554 0.0
0.0 0.0 0.0

2.6457915477654524e6 646495.2258101886 0.0
646495.2258101886 -2.117871043841128e6 0.0
0.0 0.0 0.0

-398794.5313723424 701202.5668274898 0.0
701202.5668274898 236860.74924315387 0.0
0.0 0.0 0.0

-276442.16604217724 977413.4089472702 0.0
977413.4089472702 67987.31511704567 0.0
0.0 0.0 0.0

569459.3739249964 482166.77951858594 0.0
482166.77951858594 -990687.8312522707 0.0
0.0 0.0 0.0

-287264.52320567955 985490.5612914882 0.0
985490.5612914882 439972.2774796657 0.0
0.0 0.0 0.0

-96350.45783356989 1.9925856195378823e6 0.0
1.9925856195378823e6 1509.6816181054892 0.0
0.0 0.0 0.0

-3.718364211513114e6 -286378.14402898477 0.0
-286378.14402898477 3.0670691510257283e6 0.0
0.0 0.0 0.0

-128764.35165879714 1.0727642947811417e6 0.0
1.0727642947811417e6 223999.1283755675 0.0
0.0 0.0 0.0

-31980.894790628634 622295.0324979755 0.0
622295.0324979755 53313.05235882247 0.0
0.0 0.0 0.0

-204641.5724717285 3.704045100680884e6 0.0
3.704045100680884e6 -330548.05871843774 0.0
0.0 0.0 0.0

132687.57981790393 2.872047969704156e6 0.0
2.872047969704156e6 -123205.99664936669 0.0
0.0 0.0 0.0

56875.50373290421 1.6502763606504076e6 0.0
1.6502763606504076e6 -76224.44854213166 0.0
0.0 0.0 0.0

-253921.67922671518 846534.8746392226 0.0
846534.8746392226 -379978.0891684338 0.0
0.0 0.0 0.0

-2467.1519850334007 772894.7966088853 0.0
772894.7966088853 377170.38593261165 0.0
0.0 0.0 0.0

-68105.7648195501 923936.7533091162 0.0
923936.7533091162 -177648.86207266749 0.0
0.0 0.0 0.0

29216.804927439814 724453.704724163 0.0
724453.704724163 -169483.25041082432 0.0
0.0 0.0 0.0

169218.8483963929 591918.0218378674 0.0
591918.0218378674 -344560.337219124 0.0
0.0 0.0 0.0

-300714.84208682086 1.0304296804651745e6 0.0
1.0304296804651745e6 177270.02603100505 0.0
0.0 0.0 0.0

-257135.9220317294 785133.0130635799 0.0
785133.0130635799 227889.10690372117 0.0
0.0 0.0 0.0

-345756.9585487499 1.1324215111738641e6 0.0
1.1324215111738641e6 329981.2803396364 0.0
0.0 0.0 0.0

-72343.5805486328 1.0810313891232538e6 0.0
1.0810313891232538e6 133540.9987469883 0.0
0.0 0.0 0.0

801366.2177372407 256981.95601412482 0.0
256981.95601412482 -1.1800674055353028e6 0.0
0.0 0.0 0.0

185936.71178251627 1.7626452226434753e6 0.0
1.7626452226434753e6 -204069.1350994109 0.0
0.0 0.0 0.0

337818.0494810063 3.82853136395815e6 0.0
3.82853136395815e6 -138816.7275723188 0.0
0.0 0.0 0.0

-420831.9346909571 -16336.546361827515 0.0
-16336.546361827515 394690.7833864057 0.0
0.0 0.0 0.0

-75406.96936150441 1.1602953241114195e6 0.0
1.1602953241114195e6 155377.91948686086 0.0
0.0 0.0 0.0

-87789.757839848 1.3158048464432666e6 0.0
1.3158048464432666e6 -141218.26896207326 0.0
0.0 0.0 0.0

261258.3584723709 3.4927924450936033e6 0.0
3.4927924450936033e6 -86794.83914429546 0.0
0.0 0.0 0.0

-269965.62378334015 86029.70914962326 0.0
86029.70914962326 272733.9969909844 0.0
0.0 0.0 0.0

42490.70412871224 536071.9024786869 0.0
536071.9024786869 337694.0220530854 0.0
0.0 0.0 0.0

-94653.8528232313 1.0688189574752254e6 0.0
1.0688189574752254e6 -45495.58090094027 0.0
0.0 0.0 0.0

249568.99013499828 877361.6490356555 0.0
877361.6490356555 -269391.45352095214 0.0
0.0 0.0 0.0

395092.09723800875 3.980716907382199e6 0.0
3.980716907382199e6 34128.291642266035 0.0
0.0 0.0 0.0

-400437.5219975474 1.195689312593375e6 0.0
1.195689312593375e6 333323.6827329055 0.0
0.0 0.0 0.0

-173695.40567854594 118841.67330397601 0.0
118841.67330397601 127728.53482465517 0.0
0.0 0.0 0.0

-31929.26146014402 1.093478820054832e6 0.0
1.093478820054832e6 60087.98038277976 0.0
0.0 0.0 0.0

-421322.0500490902 1.2817842225453379e6 0.0
1.2817842225453379e6 274814.06690423907 0.0
0.0 0.0 0.0

-374193.4803993134 1.191948497601103e6 0.0
1.191948497601103e6 285281.54752084136 0.0
0.0 0.0 0.0

10916.798131097137 586045.8195814133 0.0
586045.8195814133 -40828.39853299991 0.0
0.0 0.0 0.0

365010.75055462966 1.2156266035947264e6 0.0
1.2156266035947264e6 -246382.61597246004 0.0
0.0 0.0 0.0

993606.6663140091 2.9875988837794666e6 0.0
2.9875988837794666e6 -72634.28934255207 0.0
0.0 0.0 0.0

-786778.97188684 33479.65649731166 0.0
33479.65649731166 643840.6230283934 0.0
0.0 0.0 0.0

-378856.50345634995 962615.4886128146 0.0
962615.4886128146 408710.87732579163 0.0
0.0 0.0 0.0

1.1691260955676828e6 162088.39097302518 0.0
162088.39097302518 -1.4885499722813223e6 0.0
0.0 0.0 0.0

-26214.524093134067 3.268560929597719e6 0.0
3.268560929597719e6 -300835.9697901867 0.0
0.0 0.0 0.0

-277333.8878391072 1.0313701436588742e6 0.0
1.0313701436588742e6 385247.01499996515 0.0
0.0 0.0 0.0

-640993.7512390483 36604.66896213613 0.0
36604.66896213613 564559.0040002387 0.0
0.0 0.0 0.0

322147.7424675793 422292.8731201957 0.0
422292.8731201957 -688772.690781841 0.0
0.0 0.0 0.0

47551.542748303385 483207.910429288 0.0
483207.910429288 -257221.79908489808 0.0
0.0 0.0 0.0

-72117.57320354242 2.5749534502087943e6 0.0
2.5749534502087943e6 -113336.36700178299 0.0
0.0 0.0 0.0

-364465.78457377414 259959.62469386886 0.0
259959.62469386886 -248603.32453157025 0.0
0.0 0.0 0.0

-145923.4264660676 303148.20355463884 0.0
303148.20355463884 -327640.19633390504 0.0
0.0 0.0 0.0

-224536.04264796138 1.0420518654249756e6 0.0
1.0420518654249756e6 298996.79684819037 0.0
0.0 0.0 0.0

-327798.8928370678 1.1709080364729683e6 0.0
1.1709080364729683e6 157806.51614827235 0.0
0.0 0.0 0.0

-945431.1567342497 62562.43894302033 0.0
62562.43894302033 822477.0233389769 0.0
0.0 0.0 0.0

-185787.40800183773 1844.722267485848 0.0
1844.722267485848 183886.18880780824 0.0
0.0 0.0 0.0

299524.46005191864 1.332974581006956e6 0.0
1.332974581006956e6 -448846.6781273217 0.0
0.0 0.0 0.0

-384852.9717049125 23911.69333474551 0.0
23911.69333474551 442605.61097091483 0.0
0.0 0.0 0.0

238095.32379231128 1.527472160986702e6 0.0
1.527472160986702e6 -377918.20796722913 0.0
0.0 0.0 0.0

64080.51071035508 2.4117339533253955e6 0.0
2.4117339533253955e6 -96357.19323714479 0.0
0.0 0.0 0.0

-146351.17777450086 2.0344082851223075e6 0.0
2.0344082851223075e6 -466566.7872135878 0.0
0.0 0.0 0.0

-290287.4065844633 918556.741105717 0.0
918556.741105717 476676.72981020366 0.0
0.0 0.0 0.0

-144978.74795678706 979781.3327308554 0.0
979781.3327308554 5511.95024007537 0.0
0.0 0.0 0.0

-60861.02463045156 366924.24835636356 0.0
366924.24835636356 -202870.05490391044 0.0
0.0 0.0 0.0

-61703.99402009548 568645.198231558 0.0
568645.198231558 -205679.98860435426 0.0
0.0 0.0 0.0

366916.18840816355 1.4839494715664547e6 0.0
1.4839494715664547e6 -269552.77995857125 0.0
0.0 0.0 0.0

100767.23669708111 498940.277653081 0.0
498940.277653081 -235747.9713579969 0.0
0.0 0.0 0.0

-130088.01442838396 3239.0339540608165 0.0
3239.0339540608165 107120.31469810769 0.0
0.0 0.0 0.0

-85592.75044335064 215846.2492706693 0.0
215846.2492706693 -159794.8458982711 0.0
0.0 0.0 0.0

76842.08761242792 2.409472072647601e6 0.0
2.409472072647601e6 -155109.05188205023 0.0
0.0 0.0 0.0

366454.10606340744 366756.67738112394 0.0
366756.67738112394 -709872.9133429336 0.0
0.0 0.0 0.0

-544753.125550112 346608.9883688558 0.0
346608.9883688558 322342.35274268547 0.0
0.0 0.0 0.0

98346.88825172366 2.4103836852033474e6 0.0
2.4103836852033474e6 -96771.04577773539 0.0
0.0 0.0 0.0

349255.3836915322 3.382985909816514e6 0.0
3.382985909816514e6 -146292.12182871503 0.0
0.0 0.0 0.0

-578955.2029246223 1.3551038440043433e6 0.0
1.3551038440043433e6 553397.8624553111 0.0
0.0 0.0 0.0

-152708.3620283604 58033.10242589436 0.0
58033.10242589436 124850.81790489082 0.0
0.0 0.0 0.0

-59767.75987674593 3.313240881028245e6 0.0
3.313240881028245e6 -417647.5574781606 0.0
0.0 0.0 0.0

-152485.22770885474 985924.6159936835 0.0
985924.6159936835 103682.61984097077 0.0
0.0 0.0 0.0

-636940.9740996135 949661.2735294708 0.0
949661.2735294708 587359.9501572303 0.0
0.0 0.0 0.0

204344.65941154657 599099.1672798614 0.0
599099.1672798614 -547845.4963790489 0.0
0.0 0.0 0.0

-77952.38777390115 833085.4956512456 0.0
833085.4956512456 -144025.1991886319 0.0
0.0 0.0 0.0

125458.55443745767 624264.9299918278 0.0
624264.9299918278 -265652.5567151144 0.0
0.0 0.0 0.0

-624111.3631685067 1.148279236411907e6 0.0
1.148279236411907e6 619839.646593771 0.0
0.0 0.0 0.0

-101398.87185278414 4.153049845435709e6 0.0
4.153049845435709e6 -112734.86036753318 0.0
0.0 0.0 0.0

-95658.51675361131 1.0701948902981025e6 0.0
1.0701948902981025e6 142946.43406282057 0.0
0.0 0.0 0.0

424766.19301393564 456641.9223492427 0.0
456641.9223492427 -703928.3469489691 0.0
0.0 0.0 0.0

-876694.103671242 28272.995078990352 0.0
28272.995078990352 857366.6751077538 0.0
0.0 0.0 0.0

-241367.435060395 3.4917472811755217e6 0.0
3.4917472811755217e6 -351485.3903931712 0.0
0.0 0.0 0.0

100872.82529949132 2.873997072411455e6 0.0
2.873997072411455e6 -122336.20949884449 0.0
0.0 0.0 0.0

164254.98482838323 607651.5284233317 0.0
607651.5284233317 -369185.0884550803 0.0
0.0 0.0 0.0

-274286.0424599032 1.0460889081323566e6 0.0
1.0460889081323566e6 302202.80285282584 0.0
0.0 0.0 0.0

746569.7479821868 3.7362151695394977e6 0.0
3.7362151695394977e6 -271629.3151368538 0.0
0.0 0.0 0.0

-40686.794709256865 1.1076568885640423e6 0.0
1.1076568885640423e6 64425.19969658839 0.0
0.0 0.0 0.0

-320326.1452598452 1.0619569362471155e6 0.0
1.0619569362471155e6 335198.62645807577 0.0
0.0 0.0 0.0

-320293.92068982375 430358.9442568195 0.0
430358.9442568195 145239.557088473 0.0
0.0 0.0 0.0

73716.24934433299 1.6600406036053193e6 0.0
1.6600406036053193e6 -96968.13324828149 0.0
0.0 0.0 0.0

-288057.2557953708 1.009128248707126e6 0.0
1.009128248707126e6 189404.55993256962 0.0
0.0 0.0 0.0

230971.879518046 556031.0855090289 0.0
556031.0855090289 -490807.82379786094 0.0
0.0 0.0 0.0

892350.3960091101 167534.01981645462 0.0
167534.01981645462 -1.318776795226823e6 0.0
0.0 0.0 0.0

114806.49803015983 629087.8985441864 0.0
629087.8985441864 -273101.10948313185 0.0
0.0 0.0 0.0

-329804.5513698254 1.1592094549853413e6 0.0
1.1592094549853413e6 194716.30944272844 0.0
0.0 0.0 0.0

-40839.80649033475 621975.6939256758 0.0
621975.6939256758 -136132.67748507884 0.0
0.0 0.0 0.0

28709.604335323504 469802.2104859287 0.0
469802.2104859287 95698.67852282281 0.0
0.0 0.0 0.0

-774486.2217226148 296569.0081605079 0.0
296569.0081605079 679628.0961780444 0.0
0.0 0.0 0.0

-199812.53716014503 787261.4622091533 0.0
787261.4622091533 -275413.1008511858 0.0
0.0 0.0 0.0

107124.34262289603 693674.7197954789 0.0
693674.7197954789 729613.8124474591 0.0
0.0 0.0 0.0

-796413.0691602464 -17291.25965467484 0.0
-17291.25965467484 750391.2327274107 0.0
0.0 0.0 0.0

1.0876306810966562e6 244700.53211868377 0.0
244700.53211868377 -1.4399358358272277e6 0.0
0.0 0.0 0.0

183413.1516986809 709483.741298245 0.0
709483.741298245 -282786.7274180562 0.0
0.0 0.0 0.0

-307146.953269799 1.0725343566767941e6 0.0
1.0725343566767941e6 301412.2942816904 0.0
0.0 0.0 0.0

1.1460228940799318e6 1.2165146197801994e6 0.0
1.2165146197801994e6 -474904.537528547 0.0
0.0 0.0 0.0

-323894.8426199553 71056.20529148135 0.0
71056.20529148135 248435.28330604703 0.0
0.0 0.0 0.0

-248666.79668660247 880559.5395280074 0.0
880559.5395280074 166194.35067674547 0.0
0.0 0.0 0.0

-118648.95619690936 1.1314533497777088e6 0.0
1.1314533497777088e6 151695.64829471856 0.0
0.0 0.0 0.0

-773111.9942301326 1.0530751342090587e6 0.0
1.0530751342090587e6 754131.3673243595 0.0
0.0 0.0 0.0

1.0243451013552416e6 257741.76824592942 0.0
257741.76824592942 -1.382621669431285e6 0.0
0.0 0.0 0.0

46032.73900786834 3.9242635128283543e6 0.0
3.9242635128283543e6 -83187.19100184728 0.0
0.0 0.0 0.0

-3.305200304979273e6 116721.77421323024 0.0
116721.77421323024 3.183525275736127e6 0.0
0.0 0.0 0.0

-241568.58257400242 955222.5644050564 0.0
955222.5644050564 228965.73460709676 0.0
0.0 0.0 0.0

-70578.03404261774 627425.4590138332 0.0
627425.4590138332 -186880.9360582834 0.0
0.0 0.0 0.0

-549254.9411091667 23819.805064649 0.0
23819.805064649 527524.2629283011 0.0
0.0 0.0 0.0

53859.946790327944 577970.5623125865 0.0
577970.5623125865 168219.22170315788 0.0
0.0 0.0 0.0

-101486.65049419185 1.1216559707781998e6 0.0
1.1216559707781998e6 195727.76981136116 0.0
0.0 0.0 0.0

-34346.58304797177 2.1972245385955805e6 0.0
2.1972245385955805e6 -215302.12080979338 0.0
0.0 0.0 0.0

-72135.85805327009 1.177661463002056e6 0.0
1.177661463002056e6 28031.79953955076 0.0
0.0 0.0 0.0

127258.69521227315 2.402033490309147e6 0.0
2.402033490309147e6 -108566.46980825352 0.0
0.0 0.0 0.0

-199018.6714290829 544272.8856260219 0.0
544272.8856260219 -244799.9999865476 0.0
0.0 0.0 0.0

216036.8537702358 595562.9866142882 0.0
595562.9866142882 -403271.86413914006 0.0
0.0 0.0 0.0

-160960.39023674285 430684.81677460007 0.0
430684.81677460007 -184413.0701221489 0.0
0.0 0.0 0.0

-354277.04321054183 510342.7480626109 0.0
510342.7480626109 442463.506654338 0.0
0.0 0.0 0.0

-117373.30706050582 -6466.5322355475455 0.0
-6466.5322355475455 157032.69279533924 0.0
0.0 0.0 0.0

-160627.07590763972 1.0234666065557592e6 0.0
1.0234666065557592e6 198839.94620942895 0.0
0.0 0.0 0.0

-222057.45171752982 1.0383191141114014e6 0.0
1.0383191141114014e6 245582.97878504219 0.0
0.0 0.0 0.0

142704.24719005375 3.898497285733751e6 0.0
3.898497285733751e6 -128646.85116102095 0.0
0.0 0.0 0.0

-469920.6309314413 57623.06292255816 0.0
57623.06292255816 390779.97322622675 0.0
0.0 0.0 0.0

219896.68216707316 613250.6188568857 0.0
613250.6188568857 -428604.36292875814 0.0
0.0 0.0 0.0

-248319.52102450386 1.0141688305112228e6 0.0
1.0141688305112228e6 236158.39160390606 0.0
0.0 0.0 0.0

7326.776059015836 1.2028820073369008e6 0.0
1.2028820073369008e6 -123326.70046789754 0.0
0.0 0.0 0.0

-228065.83440378815 2.6738043185673063e6 0.0
2.6738043185673063e6 -435002.07950948976 0.0
0.0 0.0 0.0

-192001.31759743218 33589.731722517645 0.0
33589.731722517645 170346.8659882173 0.0
0.0 0.0 0.0

-348148.0957188687 1.0972781176226821e6 0.0
1.0972781176226821e6 331352.1573683949 0.0
0.0 0.0 0.0

-284522.48051706585 1.4770168806637626e6 0.0
1.4770168806637626e6 -16329.124194029733 0.0
0.0 0.0 0.0

-4757.455131743249 837945.7095071913 0.0
837945.7095071913 248354.14939098197 0.0
0.0 0.0 0.0

-885699.2838503857 -40840.16326546037 0.0
-40840.16326546037 971265.2018575479 0.0
0.0 0.0 0.0

-63761.441373118054 1.374702459203765e6 0.0
1.374702459203765e6 -99311.13527633762 0.0
0.0 0.0 0.0

877147.803740381 459107.60019913217 0.0
459107.60019913217 -1.2764918223311452e6 0.0
0.0 0.0 0.0

284395.03844613803 3.834941868655278e6 0.0
3.834941868655278e6 -63105.960995582616 0.0
0.0 0.0 0.0

-144640.10802884938 1.0448780236406974e6 0.0
1.0448780236406974e6 233264.43484782806 0.0
0.0 0.0 0.0

-136255.1076601535 32994.05957287428 0.0
32994.05957287428 140018.49649769205 0.0
0.0 0.0 0.0

-14568.063476529245 1.166059856895134e6 0.0
1.166059856895134e6 -124681.57485632219 0.0
0.0 0.0 0.0

764739.6544862506 527484.2373280721 0.0
527484.2373280721 -1.1433342170785028e6 0.0
0.0 0.0 0.0

181739.30734043295 1.0473273252923258e6 0.0
1.0473273252923258e6 -311191.1508708913 0.0
0.0 0.0 0.0

-535814.4942164887 1.2959554212386673e6 0.0
1.2959554212386673e6 377838.01164560113 0.0
0.0 0.0 0.0

-47006.01883756819 610565.4470049291 0.0
610565.4470049291 -156686.7587872413 0.0
0.0 0.0 0.0

5759.134422868574 1.19314541442414e6 0.0
1.19314541442414e6 -85865.58418297168 0.0
0.0 0.0 0.0

-260434.1527323255 850098.8887685782 0.0
850098.8887685782 101721.86308695721 0.0
0.0 0.0 0.0

132585.25002384413 3.0654011266694525e6 0.0
3.0654011266694525e6 -340240.96597498714 0.0
0.0 0.0 0.0

-41741.93365761842 2.0783360361263908e6 0.0
2.0783360361263908e6 -195635.21119927178 0.0
0.0 0.0 0.0

-40999.427967249125 1.1212517504584985e6 0.0
1.1212517504584985e6 -13147.812042891073 0.0
0.0 0.0 0.0

-49455.06780850068 1.1990613290384572e6 0.0
1.1990613290384572e6 57810.0376404079 0.0
0.0 0.0 0.0

-2.5821536294327835e6 156244.34828416535 0.0
156244.34828416535 3.1058886692576734e6 0.0
0.0 0.0 0.0

-236039.1595813019 2.6322744134919546e6 0.0
2.6322744134919546e6 -363318.46517921204 0.0
0.0 0.0 0.0

5929.1500363260275 302622.2335447278 0.0
302622.2335447278 -256916.15966750975 0.0
0.0 0.0 0.0

198095.21827704733 1.6051053061602248e6 0.0
1.6051053061602248e6 -227129.96445844008 0.0
0.0 0.0 0.0

66701.92287954464 1.0293937579002852e6 0.0
1.0293937579002852e6 -59589.63328007569 0.0
0.0 0.0 0.0

-146028.41794513358 1.0843389100752675e6 0.0
1.0843389100752675e6 194820.6869603622 0.0
0.0 0.0 0.0

-65963.24410561474 544180.6375179646 0.0
544180.6375179646 -219877.46533910165 0.0
0.0 0.0 0.0

-328394.33100544836 1.112743312280161e6 0.0
1.112743312280161e6 175490.74862005992 0.0
0.0 0.0 0.0

-37424.431189215466 1.1864394207914292e6 0.0
1.1864394207914292e6 35848.05372900958 0.0
0.0 0.0 0.0

-1.567810677736123e6 -100053.80487969553 0.0
-100053.80487969553 1.767105001847636e6 0.0
0.0 0.0 0.0

-218706.569512626 136317.96727079203 0.0
136317.96727079203 100512.58715370034 0.0
0.0 0.0 0.0

13871.346285726053 1.3600125993873866e6 0.0
1.3600125993873866e6 -114795.156213794 0.0
0.0 0.0 0.0

-531017.598253792 827293.941855317 0.0
827293.941855317 505744.2427286045 0.0
0.0 0.0 0.0

-116524.57274828518 33566.91998342474 0.0
33566.91998342474 90951.62389048746 0.0
0.0 0.0 0.0

-1.740857530283733e6 -21550.416810242292 0.0
-21550.416810242292 1.5777033631059518e6 0.0
0.0 0.0 0.0

-338277.4404446789 269502.8425046535 0.0
269502.8425046535 501354.3470103635 0.0
0.0 0.0 0.0

-158839.8320686047 105617.73838418834 0.0
105617.73838418834 88946.24088908586 0.0
0.0 0.0 0.0

328120.683859383 1.1312939218004744e6 0.0
1.1312939218004744e6 -436137.8357203659 0.0
0.0 0.0 0.0

-299819.35682984674 1.4865556592976325e6 0.0
1.4865556592976325e6 -33755.57266499211 0.0
0.0 0.0 0.0

5424.165124267583 1.065975791944491e6 0.0
1.065975791944491e6 -82460.6843912134 0.0
0.0 0.0 0.0

-197735.6800158901 966000.664367645 0.0
966000.664367645 259913.1612280422 0.0
0.0 0.0 0.0

122176.17202087355 699802.3436462211 0.0
699802.3436462211 -243272.44809686672 0.0
0.0 0.0 0.0

-140208.2473611065 746202.8090458033 0.0
746202.8090458033 243745.9930713895 0.0
0.0 0.0 0.0

33357.9099004459 460939.8264549981 0.0
460939.8264549981 -446112.7072502805 0.0
0.0 0.0 0.0

-90071.03953443511 1.164908122685428e6 0.0
1.164908122685428e6 86047.50533159013 0.0
0.0 0.0 0.0

786168.5787514572 599795.1899490446 0.0
599795.1899490446 -1.206385077721415e6 0.0
0.0 0.0 0.0

686928.600693316 510459.86608391436 0.0
510459.86608391436 -1.0723579861765574e6 0.0
0.0 0.0 0.0

5895.655082382709 1.2106185651077486e6 0.0
1.2106185651077486e6 -91466.15187830121 0.0
0.0 0.0 0.0

-196098.84202202494 902881.2784387704 0.0
902881.2784387704 62673.754717040196 0.0
0.0 0.0 0.0

-226067.87396016414 1.0239912260049997e6 0.0
1.0239912260049997e6 337534.30306110735 0.0
0.0 0.0 0.0

-102083.68111744545 259674.69438446252 0.0
259674.69438446252 -250113.75654904384 0.0
0.0 0.0 0.0

137215.22657825166 1.1689907327173473e6 0.0
1.1689907327173473e6 3848.9056453840676 0.0
0.0 0.0 0.0

-15667.596376577465 1.114630454073232e6 0.0
1.114630454073232e6 -115459.80238979783 0.0
0.0 0.0 0.0

206794.75799207637 3.5774311976929824e6 0.0
3.5774311976929824e6 -128877.19069345569 0.0
0.0 0.0 0.0

-2.7646273621308925e6 344871.8260842609 0.0
344871.8260842609 3.524008860747017e6 0.0
0.0 0.0 0.0

-55703.29334088619 1.1699948795535392e6 0.0
1.1699948795535392e6 88647.43533237342 0.0
0.0 0.0 0.0

-244257.24809088936 1.0480056445446651e6 0.0
1.0480056445446651e6 264866.9519814473 0.0
0.0 0.0 0.0

-7206.953017857704 520806.96923525183 0.0
520806.96923525183 -214042.23202698302 0.0
0.0 0.0 0.0

-2.250261237940759e6 7617.888658009052 0.0
7617.888658009052 1.9436576906527875e6 0.0
0.0 0.0 0.0

-70200.77739621198 1.1799763514536584e6 0.0
1.1799763514536584e6 61215.57403752331 0.0
0.0 0.0 0.0

147076.1499092489 2.0086456682555682e6 0.0
2.0086456682555682e6 -266875.8399108795 0.0
0.0 0.0 0.0

199484.0250296 808463.5978139985 0.0
808463.5978139985 -384356.10091506917 0.0
0.0 0.0 0.0

654439.2777982473 430557.0241092244 0.0
430557.0241092244 -1.1211536969290904e6 0.0
0.0 0.0 0.0

433707.0966735688 420085.2520269958 0.0
420085.2520269958 -868983.2819380362 0.0
0.0 0.0 0.0

257235.71733830933 756901.4532738181 0.0
756901.4532738181 -790012.1818981327 0.0
0.0 0.0 0.0

-305925.23483401455 1.0528498253807153e6 0.0
1.0528498253807153e6 183580.75848181167 0.0
0.0 0.0 0.0

-21208.424336025408 1.1871919377605275e6 0.0
1.1871919377605275e6 -68652.80592984935 0.0
0.0 0.0 0.0

50871.45086991899 1.0721796477792729e6 0.0
1.0721796477792729e6 -166043.70777611004 0.0
0.0 0.0 0.0

210228.48473654478 3.767969059783379e6 0.0
3.767969059783379e6 -201524.5185199295 0.0
0.0 0.0 0.0

-1.4089429816066443e6 -18964.204973992826 0.0
-18964.204973992826 1.5168283916511852e6 0.0
0.0 0.0 0.0

715463.2424444024 529348.0154812791 0.0
529348.0154812791 -1.1496180073945662e6 0.0
0.0 0.0 0.0

513265.4292326998 464813.5365253313 0.0
464813.5365253313 -819223.9528567424 0.0
0.0 0.0 0.0

-2.8696221802201597e6 113777.61045769854 0.0
113777.61045769854 3.3456792542119687e6 0.0
0.0 0.0 0.0

84798.51378735408 3.182564504899955e6 0.0
3.182564504899955e6 -31776.046518577845 0.0
0.0 0.0 0.0

-1.5421793183067688e6 45860.452724429124 0.0
45860.452724429124 1.6802693299752716e6 0.0
0.0 0.0 0.0

-603910.3232416224 18248.228368745044 0.0
18248.228368745044 606152.2836481822 0.0
0.0 0.0 0.0

-339717.3302745987 1.2001252474109293e6 0.0
1.2001252474109293e6 154272.66413410025 0.0
0.0 0.0 0.0

288528.8996130808 534274.6421036902 0.0
534274.6421036902 -585952.6463068216 0.0
0.0 0.0 0.0

-366472.0453915893 1.1451743879181114e6 0.0
1.1451743879181114e6 310566.4105594224 0.0
0.0 0.0 0.0

-1.471361990053424e6 183180.28802845065 0.0
183180.28802845065 1.7098295344816197e6 0.0
0.0 0.0 0.0

-162586.42105679552 108163.8909472702 0.0
108163.8909472702 74192.03326054248 0.0
0.0 0.0 0.0

82529.52206569671 3.9262408305628398e6 0.0
3.9262408305628398e6 -93788.84484498319 0.0
0.0 0.0 0.0

-147830.9409612089 1.0353150887869678e6 0.0
1.0353150887869678e6 245221.78317101323 0.0
0.0 0.0 0.0

-30068.618199751647 4.17848869813957e6 0.0
4.17848869813957e6 -73008.09569119364 0.0
0.0 0.0 0.0

-163443.81828966807 1.053850091897466e6 0.0
1.053850091897466e6 227556.65181054454 0.0
0.0 0.0 0.0

166886.96918242367 771110.8736073727 0.0
771110.8736073727 -243440.32340248907 0.0
0.0 0.0 0.0

296542.05773205083 2.395147068837235e6 0.0
2.395147068837235e6 -82949.76408233147 0.0
0.0 0.0 0.0

-61729.268247956235 723978.3339022967 0.0
723978.3339022967 884369.2543592965 0.0
0.0 0.0 0.0

-656356.6920012448 -109440.28180239626 0.0
-109440.28180239626 1.158685766432064e6 0.0
0.0 0.0 0.0

-24245.227006071436 398838.7476307969 0.0
398838.7476307969 -41325.309918554376 0.0
0.0 0.0 0.0

-32217.817279524963 702749.7849934057 0.0
702749.7849934057 -107392.72339118013 0.0
0.0 0.0 0.0

53752.73780499738 571696.526636561 0.0
571696.526636561 179175.79764723146 0.0
0.0 0.0 0.0

352329.4736623383 3.862585304467629e6 0.0
3.862585304467629e6 -73941.36355832437 0.0
0.0 0.0 0.0

514380.7666677566 377766.29149709275 0.0
377766.29149709275 -554402.3824724767 0.0
0.0 0.0 0.0

-413445.28136923385 1.286983216057873e6 0.0
1.286983216057873e6 265865.8760191412 0.0
0.0 0.0 0.0

-969935.7509440363 197633.3620538084 0.0
197633.3620538084 1.099931877792305e6 0.0
0.0 0.0 0.0

163138.61229882803 1.5778685402098414e6 0.0
1.5778685402098414e6 -189561.01570263694 0.0
0.0 0.0 0.0

-1.8553024955388496e6 222052.082834699 0.0
222052.082834699 1.7418704746483965e6 0.0
0.0 0.0 0.0

3699.1823581177523 1.233711472538112e6 0.0
1.233711472538112e6 -77580.45636217226 0.0
0.0 0.0 0.0

-161589.88540307438 1.0563584240822874e6 0.0
1.0563584240822874e6 213070.9416803716 0.0
0.0 0.0 0.0

-283316.6452655257 1.740438146657827e6 0.0
1.740438146657827e6 -71585.11478566896 0.0
0.0 0.0 0.0

39182.94111664252 1.3455625718322804e6 0.0
1.3455625718322804e6 -91180.55001047278 0.0
0.0 0.0 0.0

1.0954755490530657e6 242578.56397635958 0.0
242578.56397635958 -1.4155484654556138e6 0.0
0.0 0.0 0.0

-53985.893182835076 307906.0041351229 0.0
307906.0041351229 -179952.99670124933 0.0
0.0 0.0 0.0

303773.03758906934 3.950860318002291e6 0.0
3.950860318002291e6 -117418.30034543974 0.0
0.0 0.0 0.0

61132.31007467948 1.0968038182134735e6 0.0
1.0968038182134735e6 -199823.78862991667 0.0
0.0 0.0 0.0

-182115.44150564307 1.2380913868743142e6 0.0
1.2380913868743142e6 94090.58905238727 0.0
0.0 0.0 0.0

625753.9242345726 499269.4361636753 0.0
499269.4361636753 -1.0560913890349963e6 0.0
0.0 0.0 0.0

-200576.5015656292 3.8940357168933647e6 0.0
3.8940357168933647e6 -180522.10177125817 0.0
0.0 0.0 0.0

-113256.27376662126 1.3275839192724351e6 0.0
1.3275839192724351e6 284699.0652121978 0.0
0.0 0.0 0.0

597786.5057805559 3.345121179294372e6 0.0
3.345121179294372e6 -234926.21744543803 0.0
0.0 0.0 0.0

579733.1255704488 487547.75526318944 0.0
487547.75526318944 -955437.3096513541 0.0
0.0 0.0 0.0

-690831.3361982536 154603.93491674768 0.0
154603.93491674768 826852.574031021 0.0
0.0 0.0 0.0

34465.31108580268 820228.3855058746 0.0
820228.3855058746 138992.76915533317 0.0
0.0 0.0 0.0

-404988.9229610987 1.2068671511246008e6 0.0
1.2068671511246008e6 317275.32649958367 0.0
0.0 0.0 0.0

22471.395674616506 3.5728003484322606e6 0.0
3.5728003484322606e6 -229715.02937624624 0.0
0.0 0.0 0.0

-246348.95374921738 1.0412552989133057e6 0.0
1.0412552989133057e6 233820.58341806522 0.0
0.0 0.0 0.0

-3.6121294556312067e6 127051.60110985141 0.0
127051.60110985141 3.4984626556528886e6 0.0
0.0 0.0 0.0

309210.63929253333 2.0119088244120867e6 0.0
2.0119088244120867e6 -328233.2875982777 0.0
0.0 0.0 0.0

135624.42665807137 3.924213033478913e6 0.0
3.924213033478913e6 -94027.72367245296 0.0
0.0 0.0 0.0

-134489.05043420463 227615.83669796438 0.0
227615.83669796438 -190603.8837524915 0.0
0.0 0.0 0.0

-835440.7553365887 247130.11374260974 0.0
247130.11374260974 631468.5235729355 0.0
0.0 0.0 0.0

-214351.94063920047 696126.5884486868 0.0
696126.5884486868 -308748.6655205557 0.0
0.0 0.0 0.0

-401702.0416443484 13585.533144602703 0.0
13585.533144602703 374898.1514060721 0.0
0.0 0.0 0.0

-1.3883048046096144e6 368832.85879434017 0.0
368832.85879434017 1.9733385792804274e6 0.0
0.0 0.0 0.0

-338304.89220230444 1.1737975204098676e6 0.0
1.1737975204098676e6 214246.54744969713 0.0
0.0 0.0 0.0

-456971.18251115124 1.301747560655107e6 0.0
1.301747560655107e6 312944.8931243125 0.0
0.0 0.0 0.0

-1.8790084301503762e6 137501.705842224 0.0
137501.705842224 2.13991911322481e6 0.0
0.0 0.0 0.0

154437.06129940812 2.6603529281403827e6 0.0
2.6603529281403827e6 -365306.45573362475 0.0
0.0 0.0 0.0

27604.361663083837 2.3857768950532298e6 0.0
2.3857768950532298e6 -135069.7450169007 0.0
0.0 0.0 0.0

-97168.57439730494 246685.37669089602 0.0
246685.37669089602 -217711.8091084966 0.0
0.0 0.0 0.0

147571.45981390032 486041.10222573974 0.0
486041.10222573974 -53139.34120409979 0.0
0.0 0.0 0.0

-364436.3266430709 1.1758394561178852e6 0.0
1.1758394561178852e6 213099.85426866412 0.0
0.0 0.0 0.0

-590874.9784960814 379314.3959274196 0.0
379314.3959274196 482198.5399981262 0.0
0.0 0.0 0.0

510974.4338628961 470622.79840890307 0.0
470622.79840890307 -933394.5138174524 0.0
0.0 0.0 0.0

-405458.9536744908 889193.5788900624 0.0
889193.5788900624 434736.12821495766 0.0
0.0 0.0 0.0

-78722.16638396961 4.041135893747819e6 0.0
4.041135893747819e6 -69135.79953555364 0.0
0.0 0.0 0.0

1.020579472689852e6 341071.66797158547 0.0
341071.66797158547 -1.3559622485807692e6 0.0
0.0 0.0 0.0

-133843.61492328282 972847.745454865 0.0
972847.745454865 363959.73169232067 0.0
0.0 0.0 0.0

-305105.57882365247 1.1464169508549315e6 0.0
1.1464169508549315e6 14777.318147039405 0.0
0.0 0.0 0.0

125608.67426057586 1.5990937020631966e6 0.0
1.5990937020631966e6 -221081.47254805086 0.0
0.0 0.0 0.0

-388905.08220230765 1.1431974361577246e6 0.0
1.1431974361577246e6 355177.21451530384 0.0
0.0 0.0 0.0

-251776.89134690847 1.7718143220578642e6 0.0
1.7718143220578642e6 -19707.018992262063 0.0
0.0 0.0 0.0

-352667.6124672104 1.1850407679059128e6 0.0
1.1850407679059128e6 242189.14475898517 0.0
0.0 0.0 0.0

-15999.176471589344 -223870.30507283378 0.0
-223870.30507283378 150249.91386088997 0.0
0.0 0.0 0.0

41303.775628780546 574270.9616535524 0.0
574270.9616535524 282586.8004058842 0.0
0.0 0.0 0.0

148053.10492383596 1.1006237797122174e6 0.0
1.1006237797122174e6 -273409.42569137865 0.0
0.0 0.0 0.0

-212310.8235496143 659776.5227780377 0.0
659776.5227780377 -239865.2138978627 0.0
0.0 0.0 0.0

127843.26979975111 1.3976346711173127e6 0.0
1.3976346711173127e6 -229114.52397422388 0.0
0.0 0.0 0.0

285075.0826885839 561161.6704946926 0.0
561161.6704946926 -507321.7189217174 0.0
0.0 0.0 0.0

-89558.76288584253 3.7578272148049963e6 0.0
3.7578272148049963e6 83541.4607609665 0.0
0.0 0.0 0.0

-577579.9976844564 -75964.13676261921 0.0
-75964.13676261921 685822.2016181976 0.0
0.0 0.0 0.0

54157.85239257493 578352.5055413684 0.0
578352.5055413684 418696.6543057835 0.0
0.0 0.0 0.0

-312934.1771394587 1.1169057052562353e6 0.0
1.1169057052562353e6 164631.10579945712 0.0
0.0 0.0 0.0

212341.35341790633 1.0014508751312966e6 0.0
1.0014508751312966e6 -241974.53194315673 0.0
0.0 0.0 0.0

16030.144593641617 3.913493205869903e6 0.0
3.913493205869903e6 -77604.93273245664 0.0
0.0 0.0 0.0

676.4491420781269 1.1585426365615313e6 0.0
1.1585426365615313e6 -116449.17404108093 0.0
0.0 0.0 0.0

376207.94869956165 496171.3823141471 0.0
496171.3823141471 -525726.7315573252 0.0
0.0 0.0 0.0

-85002.24991641115 4.200047925388081e6 0.0
4.200047925388081e6 -106624.66434035891 0.0
0.0 0.0 0.0

141856.92510350602 1.2003417290389312e6 0.0
1.2003417290389312e6 -263813.12516813737 0.0
0.0 0.0 0.0

-251406.83705368888 65590.57472809096 0.0
65590.57472809096 202059.4242091521 0.0
0.0 0.0 0.0

-64176.741442768296 898202.3024214621 0.0
898202.3024214621 238205.36495010462 0.0
0.0 0.0 0.0

-116862.60794772653 1.0921279054893067e6 0.0
1.0921279054893067e6 214783.02755954556 0.0
0.0 0.0 0.0

-321602.1271496983 1.1399393992312076e6 0.0
1.1399393992312076e6 178185.4670498086 0.0
0.0 0.0 0.0

-33827.93121160681 1.1026406948165926e6 0.0
1.1026406948165926e6 67239.70689280362 0.0
0.0 0.0 0.0

-450226.73495942744 -34586.522301231285 0.0
-34586.522301231285 569430.9094700278 0.0
0.0 0.0 0.0

-1.3881416402602424e6 73080.77988696804 0.0
73080.77988696804 1.2076392654519333e6 0.0
0.0 0.0 0.0

141668.34940870263 1.4895145641708572e6 0.0
1.4895145641708572e6 -211533.1527617551 0.0
0.0 0.0 0.0

729870.6839805678 722035.4041428331 0.0
722035.4041428331 -1.0498277528500513e6 0.0
0.0 0.0 0.0

-216792.7313002967 -145364.4583416675 0.0
-145364.4583416675 494503.42498751316 0.0
0.0 0.0 0.0

-109691.08563921551 23126.598049204757 0.0
23126.598049204757 85322.19475680639 0.0
0.0 0.0 0.0

-163851.02578831438 423107.1032995998 0.0
423107.1032995998 -146847.18742152303 0.0
0.0 0.0 0.0

-97563.85859972221 3.877086448557993e6 0.0
3.877086448557993e6 -58940.83842901332 0.0
0.0 0.0 0.0

353460.68940272584 584733.9645467463 0.0
584733.9645467463 -740683.8239222228 0.0
0.0 0.0 0.0

372698.9099203867 705717.8598369033 0.0
705717.8598369033 -193017.1671608128 0.0
0.0 0.0 0.0

-366297.3927961778 1.1974015518732732e6 0.0
1.1974015518732732e6 161862.34500039805 0.0
0.0 0.0 0.0

-22403.668190566485 4.220806288118494e6 0.0
4.220806288118494e6 -74669.89322859752 0.0
0.0 0.0 0.0

-732468.5211550784 1.5738365152150085e6 0.0
1.5738365152150085e6 493990.91816517955 0.0
0.0 0.0 0.0

-332195.5768004016 1.134782492143896e6 0.0
1.134782492143896e6 189346.35663639352 0.0
0.0 0.0 0.0

-342599.6592481502 817491.1665025387 0.0
817491.1665025387 59832.45651406147 0.0
0.0 0.0 0.0

-31375.695294930887 1.1770727105795783e6 0.0
1.1770727105795783e6 23176.049430517058 0.0
0.0 0.0 0.0

639688.2115613825 676690.6926006656 0.0
676690.6926006656 -1.0334988106671581e6 0.0
0.0 0.0 0.0

-204443.2905184463 593499.2253171729 0.0
593499.2253171729 -337124.64800934744 0.0
0.0 0.0 0.0

-1.1181427124440626e6 -49397.40289047222 0.0
-49397.40289047222 1.0976524673537195e6 0.0
0.0 0.0 0.0

-1.7518685943061314e6 -68111.01873416867 0.0
-68111.01873416867 1.6843770043338975e6 0.0
0.0 0.0 0.0

853415.7908314033 284135.451363119 0.0
284135.451363119 -1.2679447504502276e6 0.0
0.0 0.0 0.0

-187766.84011513233 1.0086376253683541e6 0.0
1.0086376253683541e6 235148.90850692458 0.0
0.0 0.0 0.0

-2.5284768521156404e6 354597.25624111114 0.0
354597.25624111114 3.2498736405219287e6 0.0
0.0 0.0 0.0

130794.394704256 1.300036049079337e6 0.0
1.300036049079337e6 -248848.21586298925 0.0
0.0 0.0 0.0

-1.879335241022462e6 548943.5374146288 0.0
548943.5374146288 2.5707030842834515e6 0.0
0.0 0.0 0.0

-91817.56350231048 4.0305873121336577e6 0.0
4.0305873121336577e6 -86831.01338263525 0.0
0.0 0.0 0.0

153809.2546490508 3.7195599263174897e6 0.0
3.7195599263174897e6 -58877.11125414098 0.0
0.0 0.0 0.0

26089.101642749934 1.1241284726923401e6 0.0
1.1241284726923401e6 -145541.74288695637 0.0
0.0 0.0 0.0

-116020.22448299426 64003.02927322004 0.0
64003.02927322004 74034.2184361578 0.0
0.0 0.0 0.0

4865.973140262828 985884.3859693352 0.0
985884.3859693352 77811.42670232021 0.0
0.0 0.0 0.0

-138738.02703569204 399133.5003829887 0.0
399133.5003829887 -104085.34296906862 0.0
0.0 0.0 0.0

999520.639644725 210255.87801116193 0.0
210255.87801116193 -1.3853914288057587e6 0.0
0.0 0.0 0.0

177762.90912944486 2.2985691119841216e6 0.0
2.2985691119841216e6 -66901.21848509848 0.0
0.0 0.0 0.0

-341984.45651163673 577210.3966549287 0.0
577210.3966549287 245263.00550269938 0.0
0.0 0.0 0.0

-324375.5669274368 816342.445006926 0.0
816342.445006926 417135.16085994657 0.0
0.0 0.0 0.0

-384334.12581017957 1.4386897974879497e6 0.0
1.4386897974879497e6 117878.97677279118 0.0
0.0 0.0 0.0

-116686.50672782729 2.9047692459746986e6 0.0
2.9047692459746986e6 -543509.0843235486 0.0
0.0 0.0 0.0

-98580.84949758067 1.1142420659303523e6 0.0
1.1142420659303523e6 71158.37691445446 0.0
0.0 0.0 0.0

-10127.767759123042 3.203459510771147e6 0.0
3.203459510771147e6 33526.02804346914 0.0
0.0 0.0 0.0

-193125.6229645789 918822.6730729862 0.0
918822.6730729862 446174.7918378777 0.0
0.0 0.0 0.0

-69493.82654652133 1.1267925738932285e6 0.0
1.1267925738932285e6 108423.64195979529 0.0
0.0 0.0 0.0

47407.96843288488 2.7856195285534984e6 0.0
2.7856195285534984e6 -344357.9075278464 0.0
0.0 0.0 0.0

-416479.0200159009 1.565921247127508e6 0.0
1.565921247127508e6 193799.25021085236 0.0
0.0 0.0 0.0

-552629.4459596993 -15094.300490170624 0.0
-15094.300490170624 507442.0614698768 0.0
0.0 0.0 0.0

822529.401164582 236386.50818470365 0.0
236386.50818470365 -1.2079760350716577e6 0.0
0.0 0.0 0.0

-169609.78385806884 2.972970627187906e6 0.0
2.972970627187906e6 16556.998786305834 0.0
0.0 0.0 0.0

171664.1559814479 1.0819941107799143e6 0.0
1.0819941107799143e6 -244165.2039059001 0.0
0.0 0.0 0.0

-657353.7827366162 -6596.645367604981 0.0
-6596.645367604981 651415.0151752376 0.0
0.0 0.0 0.0

-117630.48363638758 2.1769979133815533e6 0.0
2.1769979133815533e6 -484336.1897697519 0.0
0.0 0.0 0.0

-149094.78389376984 1.0502593108480205e6 0.0
1.0502593108480205e6 3447.514300673887 0.0
0.0 0.0 0.0

335887.39910720056 644309.5888970807 0.0
644309.5888970807 -397525.4591802048 0.0
0.0 0.0 0.0

-270513.54704242013 3.5919165883873357e6 0.0
3.5919165883873357e6 163482.33175381762 0.0
0.0 0.0 0.0

-55624.95951609877 -102573.6979772749 0.0
-102573.6979772749 -68439.65781786597 0.0
0.0 0.0 0.0

-426520.12785833445 -30370.66276287481 0.0
-30370.66276287481 647154.5516150686 0.0
0.0 0.0 0.0

103925.1006701034 3.9313443734778375e6 0.0
3.9313443734778375e6 -103568.58125470609 0.0
0.0 0.0 0.0

-352186.35479539185 -2597.605875223672 0.0
-2597.605875223672 399021.14720697876 0.0
0.0 0.0 0.0

233900.7561510857 2.6086605966978003e6 0.0
2.6086605966978003e6 -374390.4878980867 0.0
0.0 0.0 0.0

-118548.1787867175 1.183699177961455e6 0.0
1.183699177961455e6 -108804.87515639687 0.0
0.0 0.0 0.0

282824.48726355965 4.053113685472446e6 0.0
4.053113685472446e6 -180374.86476789325 0.0
0.0 0.0 0.0

247407.35309216654 1.6726396754219886e6 0.0
1.6726396754219886e6 -335312.6140837805 0.0
0.0 0.0 0.0

87370.2677511874 636534.3079136577 0.0
636534.3079136577 689056.1785845109 0.0
0.0 0.0 0.0

-221183.85791091685 1.0471916867517383e6 0.0
1.0471916867517383e6 263284.8805694284 0.0
0.0 0.0 0.0

-761213.8619266327 -38830.48731481655 0.0
-38830.48731481655 864186.4651331586 0.0
0.0 0.0 0.0

-22932.43859877529 3.3402885054248087e6 0.0
3.3402885054248087e6 3434.965559134602 0.0
0.0 0.0 0.0

-25345.57307293314 935874.2427197937 0.0
935874.2427197937 291997.8116285436 0.0
0.0 0.0 0.0

329279.32547977543 1.1342441517577232e6 0.0
1.1342441517577232e6 -417621.4932938962 0.0
0.0 0.0 0.0

1.032543993923943e6 272779.87885881827 0.0
272779.87885881827 -1.3246896701611464e6 0.0
0.0 0.0 0.0

-238097.6166707089 2.1326970839493996e6 0.0
2.1326970839493996e6 -73625.94382168243 0.0
0.0 0.0 0.0

-78071.74465852839 61028.03308331796 0.0
61028.03308331796 65129.584368624375 0.0
0.0 0.0 0.0

-717373.2263410084 311832.04423576157 0.0
311832.04423576157 867056.2725370221 0.0
0.0 0.0 0.0

224149.7263548182 882955.0176492728 0.0
882955.0176492728 -249720.95584384145 0.0
0.0 0.0 0.0

617499.0279870247 621038.3604143262 0.0
621038.3604143262 -1.0326728793250427e6 0.0
0.0 0.0 0.0

7860.442129236005 3.3966479103753353e6 0.0
3.3966479103753353e6 7164.691264596488 0.0
0.0 0.0 0.0

-37742.55106012942 1.1477423203026864e6 0.0
1.1477423203026864e6 36743.62840285356 0.0
0.0 0.0 0.0

-1.1577363604404605e6 311079.22389553225 0.0
311079.22389553225 861438.5222608382 0.0
0.0 0.0 0.0

99485.28579857663 680342.3193045114 0.0
680342.3193045114 779946.3412855852 0.0
0.0 0.0 0.0

-1.1557869226974489e6 829751.0100827926 0.0
829751.0100827926 856005.603601065 0.0
0.0 0.0 0.0

356387.1138435763 423435.17240486544 0.0
423435.17240486544 -746001.8981642359 0.0
0.0 0.0 0.0

359056.1393164484 286793.7328681891 0.0
286793.7328681891 -325948.2685812423 0.0
0.0 0.0 0.0

-159116.9464623364 12092.440482795442 0.0
12092.440482795442 220180.90352607344 0.0
0.0 0.0 0.0

-72997.2200150372 23683.842641971725 0.0
23683.842641971725 52204.017860705804 0.0
0.0 0.0 0.0

-684881.3507810892 -10241.107918059948 0.0
-10241.107918059948 762641.5605086302 0.0
0.0 0.0 0.0

-546712.0464765561 29148.268621094925 0.0
29148.268621094925 480294.83669983025 0.0
0.0 0.0 0.0

153058.1523160747 1.4097801177370301e6 0.0
1.4097801177370301e6 -250958.44375716092 0.0
0.0 0.0 0.0

-57319.96940014997 263531.721385525 0.0
263531.721385525 -191066.5523622992 0.0
0.0 0.0 0.0

-57471.806918538874 510160.1655143718 0.0
510160.1655143718 -191572.67669093178 0.0
0.0 0.0 0.0

-98212.02733847543 1.19444842317773e6 0.0
1.19444842317773e6 -110981.26375810249 0.0
0.0 0.0 0.0

29902.64223423339 3.4523215808625254e6 0.0
3.4523215808625254e6 -2706.55558804825 0.0
0.0 0.0 0.0

-182891.26967397958 138424.08963079666 0.0
138424.08963079666 110924.5581393736 0.0
0.0 0.0 0.0

195834.82614037953 1.9144411268676433e6 0.0
1.9144411268676433e6 -362489.61706870503 0.0
0.0 0.0 0.0

-280371.95754780236 1.0015290815881263e6 0.0
1.0015290815881263e6 93077.81521790758 0.0
0.0 0.0 0.0

597659.7900330231 330688.3439407213 0.0
330688.3439407213 -1.0693924747460952e6 0.0
0.0 0.0 0.0

-465019.378646884 -4313.4669640708225 0.0
-4313.4669640708225 532849.8622340899 0.0
0.0 0.0 0.0

-20899.77237806195 3.546699835185867e6 0.0
3.546699835185867e6 -26502.066149339822 0.0
0.0 0.0 0.0

-42758.05655289372 1.1719299898881835e6 0.0
1.1719299898881835e6 13516.466060547426 0.0
0.0 0.0 0.0

-45853.41698179337 1.1877231104636823e6 0.0
1.1877231104636823e6 -1666.1356726127979 0.0
0.0 0.0 0.0

-16709.774179770866 1.1848067388203058e6 0.0
1.1848067388203058e6 -55674.98780030044 0.0
0.0 0.0 0.0

51147.48850920445 454933.51555455534 0.0
454933.51555455534 324872.3282138818 0.0
0.0 0.0 0.0

-86258.97943593752 1.1101027050021985e6 0.0
1.1101027050021985e6 -28067.27630282912 0.0
0.0 0.0 0.0

-2.173446630706705e6 182735.3980938463 0.0
182735.3980938463 2.0077563272617026e6 0.0
0.0 0.0 0.0

-938300.9294429448 -41494.45170853005 0.0
-41494.45170853005 919006.0401613673 0.0
0.0 0.0 0.0

366837.4324378631 1.0101126809021924e6 0.0
1.0101126809021924e6 -201542.7535082224 0.0
0.0 0.0 0.0

927857.4437070801 267920.1276463601 0.0
267920.1276463601 -1.3337033784402325e6 0.0
0.0 0.0 0.0

255653.11227849696 2.1044995548828007e6 0.0
2.1044995548828007e6 -313488.99094930047 0.0
0.0 0.0 0.0

-82860.52561345435 1.983758767430724e6 0.0
1.983758767430724e6 -6902.79408590465 0.0
0.0 0.0 0.0

267998.6187576531 501952.01416725916 0.0
501952.01416725916 -521624.50693407014 0.0
0.0 0.0 0.0

140113.4282323704 574968.9863771932 0.0
574968.9863771932 -420384.9489760015 0.0
0.0 0.0 0.0

599165.3399341486 591422.2034681132 0.0
591422.2034681132 -1.00905158722393e6 0.0
0.0 0.0 0.0

-159857.43373454065 440186.4175342177 0.0
440186.4175342177 -216363.40573401283 0.0
0.0 0.0 0.0

-162926.67054481845 1.0434719982322314e6 0.0
1.0434719982322314e6 238265.4298235343 0.0
0.0 0.0 0.0

-124518.19202687083 1.0067321759829483e6 0.0
1.0067321759829483e6 -727.0860747799961 0.0
0.0 0.0 0.0

-1.2629529994483911e6 -45502.704235918725 0.0
-45502.704235918725 1.4143192139368402e6 0.0
0.0 0.0 0.0

576391.9673682777 571165.762538104 0.0
571165.762538104 -977616.0421661569 0.0
0.0 0.0 0.0

-2.478370556858772e6 146512.18388409392 0.0
146512.18388409392 2.301036060303525e6 0.0
0.0 0.0 0.0

-49137.192954296595 1.1913945018215533e6 0.0
1.1913945018215533e6 -15882.820311555395 0.0
0.0 0.0 0.0

-60571.441824304144 3.427162981978473e6 0.0
3.427162981978473e6 -42087.488668976024 0.0
0.0 0.0 0.0

-292585.28542436287 1.0183985908802111e6 0.0
1.0183985908802111e6 330994.8282610511 0.0
0.0 0.0 0.0

-627233.5731127388 262632.9380389705 0.0
262632.9380389705 694807.1477922867 0.0
0.0 0.0 0.0

8907.757551526927 273213.19765672716 0.0
273213.19765672716 -213580.74888288695 0.0
0.0 0.0 0.0

41020.57411384243 605437.9587888026 0.0
605437.9587888026 -17508.608374274303 0.0
0.0 0.0 0.0

752928.2757520215 284216.585117841 0.0
284216.585117841 -1.2024124071973832e6 0.0
0.0 0.0 0.0

-8709.588624046752 1.874126674295927e6 0.0
1.874126674295927e6 -405044.1451286283 0.0
0.0 0.0 0.0

-1.1858025658425586e6 116286.07928933094 0.0
116286.07928933094 1.2841942322143114e6 0.0
0.0 0.0 0.0

-164306.75747789338 1.0471504558805571e6 0.0
1.0471504558805571e6 219527.12431611493 0.0
0.0 0.0 0.0

-643534.9633621103 688027.9399101251 0.0
688027.9399101251 655890.2958409507 0.0
0.0 0.0 0.0

216982.1330849181 794969.7949911105 0.0
794969.7949911105 -416578.5048500945 0.0
0.0 0.0 0.0

462839.0454157719 382166.3588273917 0.0
382166.3588273917 -922020.4559690157 0.0
0.0 0.0 0.0

546067.1776655398 556545.398446116 0.0
556545.398446116 -929594.138191039 0.0
0.0 0.0 0.0

-208293.68790862995 394302.9945002816 0.0
394302.9945002816 815849.4759294114 0.0
0.0 0.0 0.0

82568.7876476819 3.3167838589118095e6 0.0
3.3167838589118095e6 -225024.10958259337 0.0
0.0 0.0 0.0

138752.61127978825 2.162037411075078e6 0.0
2.162037411075078e6 -125699.11074567461 0.0
0.0 0.0 0.0

-775369.8736735301 1.240081716021995e6 0.0
1.240081716021995e6 838209.3440493119 0.0
0.0 0.0 0.0

193092.56456582202 -273654.1866254301 0.0
-273654.1866254301 393920.50436507835 0.0
0.0 0.0 0.0

165129.47671272437 1.1946802986892199e6 0.0
1.1946802986892199e6 -254454.30967740834 0.0
0.0 0.0 0.0

-458787.3740614576 444499.93939655693 0.0
444499.93939655693 576488.9990119336 0.0
0.0 0.0 0.0

-172102.75168348238 20478.081542718144 0.0
20478.081542718144 211445.86986862312 0.0
0.0 0.0 0.0

896560.3088263273 210436.4439415004 0.0
210436.4439415004 -1.3045568953748785e6 0.0
0.0 0.0 0.0

-179003.12130901698 60037.45423537017 0.0
60037.45423537017 192836.97049936495 0.0
0.0 0.0 0.0

-443099.48575062957 37117.04214354557 0.0
37117.04214354557 504312.5635524674 0.0
0.0 0.0 0.0

-131306.95110637575 71811.5345451352 0.0
71811.5345451352 113404.70428415271 0.0
0.0 0.0 0.0

-159815.30973898788 1.0113178263449837e6 0.0
1.0113178263449837e6 238973.58594392566 0.0
0.0 0.0 0.0

-179491.2568045887 400282.2459165021 0.0
400282.2459165021 -231115.89987192146 0.0
0.0 0.0 0.0

1.3214654591018576e6 272236.1077761882 0.0
272236.1077761882 -820133.0379513649 0.0
0.0 0.0 0.0

-445150.2567891856 -15340.7436362425 0.0
-15340.7436362425 555579.0947426152 0.0
0.0 0.0 0.0

314893.59235532844 1.3413295552481057e6 0.0
1.3413295552481057e6 76414.4088462418 0.0
0.0 0.0 0.0

571109.2882562007 395970.9259921262 0.0
395970.9259921262 -936884.7788771181 0.0
0.0 0.0 0.0

705807.4754147106 342068.5324505555 0.0
342068.5324505555 -1.082116156661938e6 0.0
0.0 0.0 0.0

-143501.85315789917 96384.48001514131 0.0
96384.48001514131 5075.653490239616 0.0
0.0 0.0 0.0

41948.616249138824 28154.81029941102 0.0
28154.81029941102 8277.9516430788 0.0
0.0 0.0 0.0

177628.74672418565 648380.7253378888 0.0
648380.7253378888 -319809.6575499509 0.0
0.0 0.0 0.0

929331.853729632 253874.98523045104 0.0
253874.98523045104 -1.3197318453969345e6 0.0
0.0 0.0 0.0

-247134.80816176004 704727.7706036394 0.0
704727.7706036394 355855.9221957929 0.0
0.0 0.0 0.0

-290340.6669332483 563473.8444901619 0.0
563473.8444901619 148874.86095023493 0.0
0.0 0.0 0.0

-59030.394363172905 3.742281903608751e6 0.0
3.742281903608751e6 -45573.41782442991 0.0
0.0 0.0 0.0

39470.90358145958 433045.95623424795 0.0
433045.95623424795 215141.1774360221 0.0
0.0 0.0 0.0

478834.9609998112 1.5134432633542875e6 0.0
1.5134432633542875e6 -257944.4915153225 0.0
0.0 0.0 0.0

-114982.83143932786 1.0342712836752498e6 0.0
1.0342712836752498e6 13507.673928714532 0.0
0.0 0.0 0.0

-1.0949697756639533e6 11383.769426725417 0.0
11383.769426725417 1.1607677229711637e6 0.0
0.0 0.0 0.0

-137241.47285486618 1.0639771580442737e6 0.0
1.0639771580442737e6 229749.88966564124 0.0
0.0 0.0 0.0

132626.58802726475 2.186488509612398e6 0.0
2.186488509612398e6 -108381.3430271505 0.0
0.0 0.0 0.0

-398110.57694021694 480923.91876975924 0.0
480923.91876975924 500910.46399039257 0.0
0.0 0.0 0.0

-143923.99077331193 -35577.16549787907 0.0
-35577.16549787907 197009.46726015466 0.0
0.0 0.0 0.0

-83138.02865014017 3.32303001229422e6 0.0
3.32303001229422e6 -23108.416326927367 0.0
0.0 0.0 0.0

422992.8599612059 371287.0225585643 0.0
371287.0225585643 -867066.7188536255 0.0
0.0 0.0 0.0

-1512.635440755712 4.262794851597112e6 0.0
4.262794851597112e6 -75527.88526150775 0.0
0.0 0.0 0.0

861017.5621172282 301165.6598105743 0.0
301165.6598105743 -1.2332284407990125e6 0.0
0.0 0.0 0.0

163166.24382964295 444162.83140847675 0.0
444162.83140847675 370350.1503802392 0.0
0.0 0.0 0.0

-155390.99314334872 3.8994946362338895e6 0.0
3.8994946362338895e6 -220329.8510180053 0.0
0.0 0.0 0.0

-168348.08659320278 45799.92292267199 0.0
45799.92292267199 145477.8520839527 0.0
0.0 0.0 0.0

-52404.58573283759 529796.7469522274 0.0
529796.7469522274 -180513.94278650463 0.0
0.0 0.0 0.0

1.0231642196861831e6 250401.46963921262 0.0
250401.46963921262 -1.3127020158085066e6 0.0
0.0 0.0 0.0

199584.324818307 4.141605650245211e6 0.0
4.141605650245211e6 -172811.60493942525 0.0
0.0 0.0 0.0

201971.50314147247 788785.8391407608 0.0
788785.8391407608 -371673.4499445142 0.0
0.0 0.0 0.0

-149637.08120456565 97028.21439698234 0.0
97028.21439698234 72573.48024288658 0.0
0.0 0.0 0.0

-301957.41756274574 1.0967504917824778e6 0.0
1.0967504917824778e6 153884.44007096929 0.0
0.0 0.0 0.0

490898.8313824248 540319.0802477561 0.0
540319.0802477561 -863139.5367998771 0.0
0.0 0.0 0.0

-71678.69828459722 255079.16265573108 0.0
255079.16265573108 -238928.96985382336 0.0
0.0 0.0 0.0

-20928.66690742859 482774.5615627583 0.0
482774.5615627583 -69762.20805286962 0.0
0.0 0.0 0.0

-156700.7434721497 371821.33684024005 0.0
371821.33684024005 -220760.0773542692 0.0
0.0 0.0 0.0

-113221.04710589492 262154.4946102943 0.0
262154.4946102943 -194951.45628318324 0.0
0.0 0.0 0.0

-20609.8573946327 814211.4675194249 0.0
814211.4675194249 190207.53226765056 0.0
0.0 0.0 0.0

-89195.33510797597 406.7039899636172 0.0
406.7039899636172 119924.96752383003 0.0
0.0 0.0 0.0

-112892.61788657059 1.231400775141677e6 0.0
1.231400775141677e6 -180958.90523750347 0.0
0.0 0.0 0.0

-250615.07829528785 734048.2080495959 0.0
734048.2080495959 172213.76228031388 0.0
0.0 0.0 0.0

128188.2953195656 1.117062161490071e6 0.0
1.117062161490071e6 -276563.9103476207 0.0
0.0 0.0 0.0

-221089.32338141708 44995.713155649246 0.0
44995.713155649246 169607.41912894114 0.0
0.0 0.0 0.0

-80752.7258880325 1.1246505042696802e6 0.0
1.1246505042696802e6 -22533.277306585926 0.0
0.0 0.0 0.0

-445433.6433104403 450765.8014151662 0.0
450765.8014151662 344006.45668301673 0.0
0.0 0.0 0.0

-53907.65042488113 1.0420635324522292e6 0.0
1.0420635324522292e6 136205.86071404908 0.0
0.0 0.0 0.0

-204282.29694245767 102181.50991085559 0.0
102181.50991085559 186240.7548953225 0.0
0.0 0.0 0.0

169884.48023393573 2.162379494906229e6 0.0
2.162379494906229e6 -139585.0432555096 0.0
0.0 0.0 0.0

-224657.03565622692 1.0212193975122317e6 0.0
1.0212193975122317e6 228553.333522901 0.0
0.0 0.0 0.0

-985958.7167843637 88757.85059818304 0.0
88757.85059818304 1.0619032156995006e6 0.0
0.0 0.0 0.0

-119452.6211515468 108268.56130185629 0.0
108268.56130185629 -28686.036292373632 0.0
0.0 0.0 0.0

-882146.1323905673 -8301.384725049214 0.0
-8301.384725049214 829577.6431807805 0.0
0.0 0.0 0.0

227626.38404763347 1.6975562689062865e6 0.0
1.6975562689062865e6 -373782.2186981051 0.0
0.0 0.0 0.0

-163830.06008599023 1.0216572959444153e6 0.0
1.0216572959444153e6 240358.60316202923 0.0
0.0 0.0 0.0

-51773.234838456825 1.1906466851297196e6 0.0
1.1906466851297196e6 -32039.395487932434 0.0
0.0 0.0 0.0

385374.08148001303 730122.4306455968 0.0
730122.4306455968 -215369.67943952008 0.0
0.0 0.0 0.0

-257448.93169634498 -37251.23203461551 0.0
-37251.23203461551 336370.40224737045 0.0
0.0 0.0 0.0

-1.7220664732650535e6 568473.089442707 0.0
568473.089442707 2.4281533782307487e6 0.0
0.0 0.0 0.0

-1.672167244121652e6 164715.49853534138 0.0
164715.49853534138 1.9310536529353461e6 0.0
0.0 0.0 0.0

-138081.11362247242 728077.8784448728 0.0
728077.8784448728 142809.12049596745 0.0
0.0 0.0 0.0

-238292.45981504943 82727.17194215047 0.0
82727.17194215047 157980.91148581658 0.0
0.0 0.0 0.0

-85688.45666950481 226569.23585744112 0.0
226569.23585744112 -124252.77805615643 0.0
0.0 0.0 0.0

-195339.71072547097 3.3815505682611875e6 0.0
3.3815505682611875e6 -205798.45464894804 0.0
0.0 0.0 0.0

149519.6607096653 2.5512816757768043e6 0.0
2.5512816757768043e6 -465060.3321521558 0.0
0.0 0.0 0.0

-184164.2337161423 951401.4326653742 0.0
951401.4326653742 257220.1847106128 0.0
0.0 0.0 0.0

-368441.16541129304 1.1888351363836785e6 0.0
1.1888351363836785e6 237202.71696572538 0.0
0.0 0.0 0.0

-950409.9005149918 144855.0328560064 0.0
144855.0328560064 818779.8897882865 0.0
0.0 0.0 0.0

51426.02067954668 529000.1842238527 0.0
529000.1842238527 497593.3399958421 0.0
0.0 0.0 0.0

38010.67043490591 1.1933564973564423e6 0.0
1.1933564973564423e6 -108781.52758625071 0.0
0.0 0.0 0.0

347174.20090210554 621571.8899580193 0.0
621571.8899580193 -403319.94146336004 0.0
0.0 0.0 0.0

1.194120760768096e6 199905.07815439123 0.0
199905.07815439123 -1.4244874764616154e6 0.0
0.0 0.0 0.0

-585819.9178468215 -47611.15316672955 0.0
-47611.15316672955 586599.0110787296 0.0
0.0 0.0 0.0

-197509.5174584639 947321.5079030066 0.0
947321.5079030066 260953.15002709534 0.0
0.0 0.0 0.0

-263473.2978015051 619240.0018047062 0.0
619240.0018047062 451515.6286647904 0.0
0.0 0.0 0.0

-2.4027793348295093e6 608256.4901762606 0.0
608256.4901762606 3.0785492897745767e6 0.0
0.0 0.0 0.0

10128.690564969264 2.909489859012778e6 0.0
2.909489859012778e6 -513370.78004843486 0.0
0.0 0.0 0.0

85545.68101361714 476399.21777983295 0.0
476399.21777983295 285152.3228971383 0.0
0.0 0.0 0.0

-187649.15760823165 -13610.61671812559 0.0
-13610.61671812559 159910.62581683457 0.0
0.0 0.0 0.0

-362260.60317185934 50094.201281344016 0.0
50094.201281344016 312394.952020893 0.0
0.0 0.0 0.0

394221.7837179025 352138.1931558706 0.0
352138.1931558706 -807593.900075041 0.0
0.0 0.0 0.0

-126424.5638791862 59596.32995013335 0.0
59596.32995013335 76866.17343558958 0.0
0.0 0.0 0.0

394491.54239784734 408949.5288669358 0.0
408949.5288669358 -813076.9104215916 0.0
0.0 0.0 0.0

-943346.0876953133 392535.8979031355 0.0
392535.8979031355 1.405557793420107e6 0.0
0.0 0.0 0.0

1.203892183897599e6 155184.12518664048 0.0
155184.12518664048 -1.414072517407032e6 0.0
0.0 0.0 0.0

152283.63376909995 4.16068127871953e6 0.0
4.16068127871953e6 -138400.19161901507 0.0
0.0 0.0 0.0

-225384.4856113575 731471.0776301132 0.0
731471.0776301132 -260074.56438809127 0.0
0.0 0.0 0.0

-67959.20774577899 -503474.8983800576 0.0
-503474.8983800576 173924.39752161017 0.0
0.0 0.0 0.0

1.8429359987600157e6 298198.3033970205 0.0
298198.3033970205 -1.1558953059571264e6 0.0
0.0 0.0 0.0

-1.183619862137689e6 512751.23989794357 0.0
512751.23989794357 1.584294680032236e6 0.0
0.0 0.0 0.0

-348963.3105877116 758131.2118031834 0.0
758131.2118031834 -484455.17510921205 0.0
0.0 0.0 0.0

-814170.7741926556 26356.670030128982 0.0
26356.670030128982 722025.3980158351 0.0
0.0 0.0 0.0

-132523.9778315774 820268.6930056879 0.0
820268.6930056879 389253.85113416513 0.0
0.0 0.0 0.0

-81376.6044900694 1.1335839218480058e6 0.0
1.1335839218480058e6 -14335.140815890109 0.0
0.0 0.0 0.0

-234382.48829961717 624563.5407982866 0.0
624563.5407982866 255003.88380266863 0.0
0.0 0.0 0.0

-173583.2795957606 121210.09749723751 0.0
121210.09749723751 100786.56509753256 0.0
0.0 0.0 0.0

513871.1443034258 273977.2569451421 0.0
273977.2569451421 -971055.5943377707 0.0
0.0 0.0 0.0

290971.5499722732 578071.3489781602 0.0
578071.3489781602 -600202.7724313292 0.0
0.0 0.0 0.0

-200907.1578154513 -79542.48792378278 0.0
-79542.48792378278 366386.5212467015 0.0
0.0 0.0 0.0

960569.6584938895 126689.77783882908 0.0
126689.77783882908 -1.265495460822717e6 0.0
0.0 0.0 0.0

-8731.263500188943 3.10596866417974e6 0.0
3.10596866417974e6 -399561.4520362435 0.0
0.0 0.0 0.0

141421.84974956277 3.3252977922223033e6 0.0
3.3252977922223033e6 -235960.8421489162 0.0
0.0 0.0 0.0

966059.9373776256 305967.4415779475 0.0
305967.4415779475 -1.2801301168486823e6 0.0
0.0 0.0 0.0

-16040.390242018604 41365.84507935279 0.0
41365.84507935279 36560.727730485916 0.0
0.0 0.0 0.0

-296805.6740298334 492940.67020307976 0.0
492940.67020307976 320397.92131509044 0.0
0.0 0.0 0.0

-75496.38156386753 -103537.85762557056 0.0
-103537.85762557056 -9764.657646795986 0.0
0.0 0.0 0.0

-153137.19995314063 104412.77535807593 0.0
104412.77535807593 109350.58965453447 0.0
0.0 0.0 0.0

988151.9351072559 342759.12087940384 0.0
342759.12087940384 -1.285493938148895e6 0.0
0.0 0.0 0.0

170249.7793354221 573545.7424022973 0.0
573545.7424022973 567499.364008922 0.0
0.0 0.0 0.0

-130485.46797316625 2.5276434025993566e6 0.0
2.5276434025993566e6 233299.608816688 0.0
0.0 0.0 0.0

88024.11624242339 646835.3745080186 0.0
646835.3745080186 -226756.35430158963 0.0
0.0 0.0 0.0

-206341.30387235607 3.076994421950335e6 0.0
3.076994421950335e6 -546406.4222686883 0.0
0.0 0.0 0.0

-227412.87727242179 717144.7719679317 0.0
717144.7719679317 272812.44537107303 0.0
0.0 0.0 0.0

68641.93667738902 2.8715050890839803e6 0.0
2.8715050890839803e6 -108426.84897744912 0.0
0.0 0.0 0.0

317534.053838874 460299.9381171893 0.0
460299.9381171893 -663863.7840160036 0.0
0.0 0.0 0.0

-49767.030703983095 3.4811953945637587e6 0.0
3.4811953945637587e6 -47908.365526879286 0.0
0.0 0.0 0.0

-110809.66158825697 725667.5053825679 0.0
725667.5053825679 -139838.35219077163 0.0
0.0 0.0 0.0

-1.246772598302742e6 -57816.43118714274 0.0
-57816.43118714274 1.2020694722636784e6 0.0
0.0 0.0 0.0

3.0136493393385587e6 502078.6061580054 0.0
502078.6061580054 -1.8898037949711306e6 0.0
0.0 0.0 0.0

-159866.70913333842 1.1018546172504784e6 0.0
1.1018546172504784e6 10495.326340827341 0.0
0.0 0.0 0.0

-1.3045339611144878e6 -112604.76434773784 0.0
-112604.76434773784 1.7316961310342648e6 0.0
0.0 0.0 0.0

-45686.12976008468 976703.9378206744 0.0
976703.9378206744 99592.49854737813 0.0
0.0 0.0 0.0

-27760.902937827286 3.9249410597285167e6 0.0
3.9249410597285167e6 -113434.79726944825 0.0
0.0 0.0 0.0

46437.40890654242 570117.496313637 0.0
570117.496313637 154791.34189349323 0.0
0.0 0.0 0.0

-173811.2439441161 106597.43110050193 0.0
106597.43110050193 109267.60813868133 0.0
0.0 0.0 0.0

-205621.1550944376 597842.1943884896 0.0
597842.1943884896 76342.17867468041 0.0
0.0 0.0 0.0

-500815.0699663673 521295.72492636443 0.0
521295.72492636443 -160981.8971952897 0.0
0.0 0.0 0.0

969115.6375456243 142592.1977921132 0.0
142592.1977921132 -1.3933024272449545e6 0.0
0.0 0.0 0.0

-53161.94182300727 1.1881178999580774e6 0.0
1.1881178999580774e6 -46622.17344298475 0.0
0.0 0.0 0.0

53159.263740110575 576564.3812742658 0.0
576564.3812742658 570531.9633598486 0.0
0.0 0.0 0.0

-76810.33407534972 299772.35186649516 0.0
299772.35186649516 -256034.41348785895 0.0
0.0 0.0 0.0

47463.666616166796 465079.3909486085 0.0
465079.3909486085 158212.2614340638 0.0
0.0 0.0 0.0

454490.91994758416 535922.4165556093 0.0
535922.4165556093 -800007.072181673 0.0
0.0 0.0 0.0

-142104.20954838593 3500.5072715176907 0.0
3500.5072715176907 185910.86911907233 0.0
0.0 0.0 0.0

-347747.7369401805 977409.875484802 0.0
977409.875484802 521086.941940213 0.0
0.0 0.0 0.0

249401.10910402448 826782.2049693443 0.0
826782.2049693443 -385817.48112389864 0.0
0.0 0.0 0.0

-1.0363273100517029e6 510946.40700782416 0.0
510946.40700782416 1.3662551039658412e6 0.0
0.0 0.0 0.0

-147137.82179517113 70804.35178846805 0.0
70804.35178846805 95551.12853413523 0.0
0.0 0.0 0.0

-333117.6592974759 1.130613516815145e6 0.0
1.130613516815145e6 240330.38104045112 0.0
0.0 0.0 0.0

-541651.2174718255 1.2069771498376136e6 0.0
1.2069771498376136e6 499808.5582853069 0.0
0.0 0.0 0.0

-43368.54422318719 16856.40382992328 0.0
16856.40382992328 91962.62085346223 0.0
0.0 0.0 0.0

-27260.041793532586 533166.5066374039 0.0
533166.5066374039 -190166.2223298368 0.0
0.0 0.0 0.0

-18556.264425107984 3.871909077390723e6 0.0
3.871909077390723e6 -94452.15091618207 0.0
0.0 0.0 0.0

-419696.16557936056 27727.18219327505 0.0
27727.18219327505 514652.4777834446 0.0
0.0 0.0 0.0

125445.07725747886 4.1676703668095926e6 0.0
4.1676703668095926e6 -124723.34758433515 0.0
0.0 0.0 0.0

-145924.89538310855 84243.2041312178 0.0
84243.2041312178 79979.50658197096 0.0
0.0 0.0 0.0

975547.5546646138 190105.92518614628 0.0
190105.92518614628 -1.3682927746380642e6 0.0
0.0 0.0 0.0

811492.2059638675 179058.65273677386 0.0
179058.65273677386 -1.2624976816467082e6 0.0
0.0 0.0 0.0

180743.1085931598 2.453833121788713e6 0.0
2.453833121788713e6 -487437.6001470046 0.0
0.0 0.0 0.0

226585.62351081416 2.2082734442988588e6 0.0
2.2082734442988588e6 -132099.14716657047 0.0
0.0 0.0 0.0

1.0284620723611219e6 334891.65977957 0.0
334891.65977957 -1.3258534789490514e6 0.0
0.0 0.0 0.0

-15401.52694535004 1.1805952978666464e6 0.0
1.1805952978666464e6 -64809.93364243225 0.0
0.0 0.0 0.0

224338.54548102865 1.257827298132431e6 0.0
1.257827298132431e6 -406508.9928075719 0.0
0.0 0.0 0.0

-472603.3045879296 357346.48580350657 0.0
357346.48580350657 320871.0202566702 0.0
0.0 0.0 0.0

-48907.28624881494 1.2006873394705274e6 0.0
1.2006873394705274e6 -70502.96698946274 0.0
0.0 0.0 0.0

410241.2711017984 447595.36195064394 0.0
447595.36195064394 -644004.7001524565 0.0
0.0 0.0 0.0

-1.0099080510479594e6 691801.5993256816 0.0
691801.5993256816 404730.29243613296 0.0
0.0 0.0 0.0

1.0738683364388952e6 180547.55142377169 0.0
180547.55142377169 -1.4301858766047321e6 0.0
0.0 0.0 0.0

868029.644134478 239059.20770105172 0.0
239059.20770105172 -1.2463386717629936e6 0.0
0.0 0.0 0.0

268470.8816730315 2.3879303303211266e6 0.0
2.3879303303211266e6 -255976.94632776294 0.0
0.0 0.0 0.0

-179207.84015004872 43461.18902420244 0.0
43461.18902420244 164196.78171796227 0.0
0.0 0.0 0.0

13623.28957537115 2.3452739639517027e6 0.0
2.3452739639517027e6 -222574.68588077644 0.0
0.0 0.0 0.0

-438536.78679797053 660672.4253318526 0.0
660672.4253318526 959197.8938593434 0.0
0.0 0.0 0.0

-313730.57880834816 1.0970359139177985e6 0.0
1.0970359139177985e6 214391.52828149073 0.0
0.0 0.0 0.0

-344981.50964484655 1.140941848588914e6 0.0
1.140941848588914e6 270490.3249211235 0.0
0.0 0.0 0.0

-178031.42146320903 117766.01156444136 0.0
117766.01156444136 88031.79273777283 0.0
0.0 0.0 0.0

-2.984654059718902e6 394214.35981013265 0.0
394214.35981013265 3.8795478270938364e6 0.0
0.0 0.0 0.0

-359596.8847554749 1.2141025908421627e6 0.0
1.2141025908421627e6 179898.59566574532 0.0
0.0 0.0 0.0

-75979.97004780536 1.1659253969930124e6 0.0
1.1659253969930124e6 13116.227933012608 0.0
0.0 0.0 0.0

-28637.438852534673 1.1408461070947854e6 0.0
1.1408461070947854e6 -75801.52262039606 0.0
0.0 0.0 0.0

487322.93989586004 2.599019272348809e6 0.0
2.599019272348809e6 -89524.31821873965 0.0
0.0 0.0 0.0

-188972.16506030815 134109.19946313195 0.0
134109.19946313195 110717.47059734358 0.0
0.0 0.0 0.0

1.07800287731492e6 219405.94580680438 0.0
219405.94580680438 -1.4041919562165271e6 0.0
0.0 0.0 0.0

105463.76618890422 3.16742672658424e6 0.0
3.16742672658424e6 -302777.89823248616 0.0
0.0 0.0 0.0

-194156.28870881445 597901.2161890742 0.0
597901.2161890742 -216446.0884621012 0.0
0.0 0.0 0.0

-340660.65987551166 524139.20708798734 0.0
524139.20708798734 166200.59099982612 0.0
0.0 0.0 0.0

-395228.4908957194 -16867.40095601799 0.0
-16867.40095601799 480395.5623811077 0.0
0.0 0.0 0.0

-686855.4409320891 614442.3290024996 0.0
614442.3290024996 -421563.1749795348 0.0
0.0 0.0 0.0

-138497.66500932834 438625.3386883258 0.0
438625.3386883258 -461658.8670958134 0.0
0.0 0.0 0.0

147661.49526354237 528165.0992505003 0.0
528165.0992505003 492205.08675160166 0.0
0.0 0.0 0.0

243907.1829390134 942431.119689293 0.0
942431.119689293 -432265.1109181844 0.0
0.0 0.0 0.0

-273261.8380262947 927908.6417034002 0.0
927908.6417034002 99428.50104166892 0.0
0.0 0.0 0.0

369238.9319444208 1.0216024047569499e6 0.0
1.0216024047569499e6 -66478.66190567892 0.0
0.0 0.0 0.0

504812.0797233873 360812.31003449054 0.0
360812.31003449054 -821199.5535161359 0.0
0.0 0.0 0.0

-252011.10763115808 577527.5897710441 0.0
577527.5897710441 274169.15733415954 0.0
0.0 0.0 0.0

282665.8248600397 568019.1747930109 0.0
568019.1747930109 -567566.9182743416 0.0
0.0 0.0 0.0

-323439.9022763681 1.1136036558039812e6 0.0
1.1136036558039812e6 226574.54029061506 0.0
0.0 0.0 0.0

-567486.3303886212 69744.13358721686 0.0
69744.13358721686 468177.41431914817 0.0
0.0 0.0 0.0

-101710.44232333769 -19708.73954952788 0.0
-19708.73954952788 147192.77475734823 0.0
0.0 0.0 0.0

562364.1962955862 243891.864733193 0.0
243891.864733193 -1.0180043501301853e6 0.0
0.0 0.0 0.0

-157093.72490478487 934041.1275476759 0.0
934041.1275476759 82178.52318492238 0.0
0.0 0.0 0.0

228160.7216772646 3.795916113730404e6 0.0
3.795916113730404e6 -63453.66719674805 0.0
0.0 0.0 0.0

-306344.5407562419 407879.24558830727 0.0
407879.24558830727 288974.4646581656 0.0
0.0 0.0 0.0

789768.3007775934 215352.51163892294 0.0
215352.51163892294 -1.231499684512288e6 0.0
0.0 0.0 0.0

956128.5424293459 325134.5779283791 0.0
325134.5779283791 -1.2856094361373303e6 0.0
0.0 0.0 0.0

-3.0335697119149296e6 145511.17868410677 0.0
145511.17868410677 2.9535604200323904e6 0.0
0.0 0.0 0.0

-366979.1259989542 62190.13827138068 0.0
62190.13827138068 402964.9816758577 0.0
0.0 0.0 0.0

88602.74639832636 4.157159529483474e6 0.0
4.157159529483474e6 -120737.79406707664 0.0
0.0 0.0 0.0

-197499.39608929006 2.120624190906897e6 0.0
2.120624190906897e6 -55666.62419954769 0.0
0.0 0.0 0.0

-612670.3987192509 19616.147166414816 0.0
19616.147166414816 677099.6117198383 0.0
0.0 0.0 0.0

351486.54621821607 236253.23799968517 0.0
236253.23799968517 -743866.5227997352 0.0
0.0 0.0 0.0

-292480.18339841487 1.1292391021701249e6 0.0
1.1292391021701249e6 -38879.89212087988 0.0
0.0 0.0 0.0

-263117.9543672652 836762.683651234 0.0
836762.683651234 254084.2515741061 0.0
0.0 0.0 0.0

-141850.89990724545 74615.60167336735 0.0
74615.60167336735 79179.12263359802 0.0
0.0 0.0 0.0

903716.2047508802 244570.46976588664 0.0
244570.46976588664 -1.2692433172222706e6 0.0
0.0 0.0 0.0

272131.72526529204 673966.0569075223 0.0
673966.0569075223 -500944.19868745876 0.0
0.0 0.0 0.0

-126417.85507522372 21109.335139096485 0.0
21109.335139096485 114630.0206389532 0.0
0.0 0.0 0.0

-203469.82529393095 132293.61448436504 0.0
132293.61448436504 153998.46774489744 0.0
0.0 0.0 0.0

394108.6977263451 542481.7805091692 0.0
542481.7805091692 -707441.3188331503 0.0
0.0 0.0 0.0

949677.5280530973 221075.05788633207 0.0
221075.05788633207 -1.3145624500124338e6 0.0
0.0 0.0 0.0

-171946.7241674123 2.5651689630720327e6 0.0
2.5651689630720327e6 -102786.49810013076 0.0
0.0 0.0 0.0

642804.3615432838 298036.9298289373 0.0
298036.9298289373 -1.0099063858342799e6 0.0
0.0 0.0 0.0

-168955.81810108476 45162.634155941734 0.0
45162.634155941734 143709.8641345828 0.0
0.0 0.0 0.0

-185044.935619753 730556.4998064328 0.0
730556.4998064328 -616816.5421629779 0.0
0.0 0.0 0.0

222584.3429971152 681987.9095596854 0.0
681987.9095596854 741948.1112479562 0.0
0.0 0.0 0.0

-83786.7842605005 1.1869087100195312e6 0.0
1.1869087100195312e6 -121471.15709871051 0.0
0.0 0.0 0.0

-318447.32145650336 2410.9011379119524 0.0
2410.9011379119524 395607.8114293951 0.0
0.0 0.0 0.0

-145625.25443630543 7536.005940005192 0.0
7536.005940005192 142749.77481916425 0.0
0.0 0.0 0.0

167001.16029876718 545352.8571207582 0.0
545352.8571207582 556670.4302333986 0.0
0.0 0.0 0.0

-16855.665026526243 766146.3179973077 0.0
766146.3179973077 -56185.4978511626 0.0
0.0 0.0 0.0

-3.2861478945998987e6 410082.76762692054 0.0
410082.76762692054 4.151196109448215e6 0.0
0.0 0.0 0.0

674210.2357854784 225456.37278272628 0.0
225456.37278272628 -1.136383252919362e6 0.0
0.0 0.0 0.0

3627.1563088145704 3.5373147460116893e6 0.0
3.5373147460116893e6 -138541.20428548506 0.0
0.0 0.0 0.0

209530.27072263393 571160.7120856611 0.0
571160.7120856611 -539699.1234926232 0.0
0.0 0.0 0.0

-289399.3789335742 1.0547272319533415e6 0.0
1.0547272319533415e6 177017.67674241 0.0
0.0 0.0 0.0

-136109.30417632585 1.1049437953109446e6 0.0
1.1049437953109446e6 180943.79650722176 0.0
0.0 0.0 0.0

-12383.79143739996 3.55563896059671e6 0.0
3.55563896059671e6 -41885.632193609425 0.0
0.0 0.0 0.0

129039.85002616426 779162.4520083552 0.0
779162.4520083552 -541352.9121239086 0.0
0.0 0.0 0.0

52847.97015232681 4.1421698669961556e6 0.0
4.1421698669961556e6 -107631.55152839697 0.0
0.0 0.0 0.0

-1.0661973158825326e6 314575.48983503814 0.0
314575.48983503814 1.0202957373413972e6 0.0
0.0 0.0 0.0

268080.79256454227 1.198538900879072e6 0.0
1.198538900879072e6 -354757.1237801052 0.0
0.0 0.0 0.0

737306.582789666 203323.5444712272 0.0
203323.5444712272 -1.1927138507445436e6 0.0
0.0 0.0 0.0

186371.2871897096 2.701147144653402e6 0.0
2.701147144653402e6 -131132.70125526108 0.0
0.0 0.0 0.0

-158313.91475590426 2.2618299970545014e6 0.0
2.2618299970545014e6 -387673.46843718784 0.0
0.0 0.0 0.0

513055.3424707864 338335.3772492769 0.0
338335.3772492769 -971550.3382681943 0.0
0.0 0.0 0.0

-261891.701920356 974050.1213138861 0.0
974050.1213138861 178714.05027920465 0.0
0.0 0.0 0.0

-241565.52464334466 1.0119492642828113e6 0.0
1.0119492642828113e6 -194144.58751521877 0.0
0.0 0.0 0.0

120333.55121074835 2.9931493520186497e6 0.0
2.9931493520186497e6 -385844.26764965156 0.0
0.0 0.0 0.0

431097.1246775471 493850.38574063685 0.0
493850.38574063685 -722524.2585088366 0.0
0.0 0.0 0.0

-25305.304629389804 4.0973010284373723e6 0.0
4.0973010284373723e6 -101366.23401277272 0.0
0.0 0.0 0.0

73151.86487598982 3.2675258091580314e6 0.0
3.2675258091580314e6 -350186.72805944795 0.0
0.0 0.0 0.0

-71258.58295731645 535924.2503442431 0.0
535924.2503442431 -162709.46387277212 0.0
0.0 0.0 0.0

1.3343751760201114e6 361699.2615083121 0.0
361699.2615083121 -980413.4070493093 0.0
0.0 0.0 0.0

-179626.56863253072 551468.3126535907 0.0
551468.3126535907 -73558.01182711688 0.0
0.0 0.0 0.0

-132194.91195534126 38377.21269648965 0.0
38377.21269648965 155767.9797663256 0.0
0.0 0.0 0.0

-197348.62248279917 -12314.889121827493 0.0
-12314.889121827493 267047.46556008235 0.0
0.0 0.0 0.0

1.1384419407265657e6 179044.52454632145 0.0
179044.52454632145 -1.4618201629787153e6 0.0
0.0 0.0 0.0

494340.10091460124 334401.7295812962 0.0
334401.7295812962 -655807.3246211943 0.0
0.0 0.0 0.0

904437.0371235744 210644.74740655132 0.0
210644.74740655132 -1.268797472382467e6 0.0
0.0 0.0 0.0

91353.71108139349 728808.9867721287 0.0
728808.9867721287 -213759.44201062602 0.0
0.0 0.0 0.0

20887.758923082678 4.1247199350393037e6 0.0
4.1247199350393037e6 -103782.96888918211 0.0
0.0 0.0 0.0

-882172.9487795611 358215.616668549 0.0
358215.616668549 848014.7526607616 0.0
0.0 0.0 0.0

-197251.97743760183 567471.9000918398 0.0
567471.9000918398 -101764.59326326364 0.0
0.0 0.0 0.0

750764.2117109513 180490.96134237398 0.0
180490.96134237398 -1.2093136166861383e6 0.0
0.0 0.0 0.0

-154851.5517973179 57691.259807888215 0.0
57691.259807888215 117809.26181838172 0.0
0.0 0.0 0.0

-507794.68171423464 415531.5731746214 0.0
415531.5731746214 402442.47654109646 0.0
0.0 0.0 0.0

225803.07526521652 2.001732796303014e6 0.0
2.001732796303014e6 -269092.13291534036 0.0
0.0 0.0 0.0

15948.443000357427 1.3948254508997914e6 0.0
1.3948254508997914e6 -64797.066860084175 0.0
0.0 0.0 0.0

-286322.92564311996 1.0286710968240103e6 0.0
1.0286710968240103e6 208801.46696002243 0.0
0.0 0.0 0.0

283847.6477882352 1.1819632790227588e6 0.0
1.1819632790227588e6 -270495.8433277529 0.0
0.0 0.0 0.0

751355.804188316 252863.84837844866 0.0
252863.84837844866 -1.138457590167231e6 0.0
0.0 0.0 0.0

689814.3803654492 197305.049257438 0.0
197305.049257438 -1.1431770040161205e6 0.0
0.0 0.0 0.0

79617.69429918395 1.5110185010173384e6 0.0
1.5110185010173384e6 -315960.6039143666 0.0
0.0 0.0 0.0

617242.4747365904 218991.95673757515 0.0
218991.95673757515 -1.0774744184486861e6 0.0
0.0 0.0 0.0

763193.6245179358 240926.44795897295 0.0
240926.44795897295 -1.1057977079718246e6 0.0
0.0 0.0 0.0

-434843.1965040997 1.2101196176051036e6 0.0
1.2101196176051036e6 373195.2634180978 0.0
0.0 0.0 0.0

162881.5105626737 3.9279852500290964e6 0.0
3.9279852500290964e6 -104646.93867938532 0.0
0.0 0.0 0.0

-152781.21921141903 1.074210504947446e6 0.0
1.074210504947446e6 203036.22932182928 0.0
0.0 0.0 0.0

580302.1737298517 200886.6324235326 0.0
200886.6324235326 -1.0336233887264719e6 0.0
0.0 0.0 0.0

-187950.10182918404 3.350425725724359e6 0.0
3.350425725724359e6 -255764.64800200294 0.0
0.0 0.0 0.0

-155944.87883538095 596790.845217003 0.0
596790.845217003 -200175.25962979282 0.0
0.0 0.0 0.0

-212366.78924023674 1.002052628944854e6 0.0
1.002052628944854e6 -707889.8532268776 0.0
0.0 0.0 0.0

301266.0536235406 830351.7747842064 0.0
830351.7747842064 1.0042215977902829e6 0.0
0.0 0.0 0.0

91964.98097373873 3.604988872297311e6 0.0
3.604988872297311e6 -151986.61722936292 0.0
0.0 0.0 0.0

126198.08160572429 3.5898617409605547e6 0.0
3.5898617409605547e6 -482487.0952677104 0.0
0.0 0.0 0.0

963052.2135123401 384654.01774393854 0.0
384654.01774393854 -1.314572634717452e6 0.0
0.0 0.0 0.0

260702.69176119904 1.892950456352429e6 0.0
1.892950456352429e6 -329493.7447227405 0.0
0.0 0.0 0.0

-57724.7801234138 1.0973277455484162e6 0.0
1.0973277455484162e6 81223.81926265474 0.0
0.0 0.0 0.0

-722764.9370062521 49731.42630783366 0.0
49731.42630783366 644476.758324619 0.0
0.0 0.0 0.0

-1.151216043886241e6 380692.30394865526 0.0
380692.30394865526 1.6767719451191127e6 0.0
0.0 0.0 0.0

-63019.03681531483 1.181184080296e6 0.0
1.181184080296e6 110953.01546956258 0.0
0.0 0.0 0.0

-196828.71749310778 2.232864221227449e6 0.0
2.232864221227449e6 -333051.2193680871 0.0
0.0 0.0 0.0

-87744.7578628556 1.0053538888808058e6 0.0
1.0053538888808058e6 24824.742221923232 0.0
0.0 0.0 0.0

-224281.62238786358 744733.3187683942 0.0
744733.3187683942 262159.09607708635 0.0
0.0 0.0 0.0

-96937.2433189499 146737.99506919907 0.0
146737.99506919907 -95085.89350964785 0.0
0.0 0.0 0.0

-220701.4796376748 766960.0289288883 0.0
766960.0289288883 44471.09059640553 0.0
0.0 0.0 0.0

881563.745284542 320519.75838565006 0.0
320519.75838565006 -1.2220889498966485e6 0.0
0.0 0.0 0.0

427959.03220033564 504080.33508193196 0.0
504080.33508193196 -418384.5237002807 0.0
0.0 0.0 0.0

58375.31876840425 2.4690749320032294e6 0.0
2.4690749320032294e6 -279396.3536525433 0.0
0.0 0.0 0.0

275999.8141846121 875757.8956739532 0.0
875757.8956739532 -464963.21000869677 0.0
0.0 0.0 0.0

-1.1006684168106797e6 66897.96175905813 0.0
66897.96175905813 1.173378929664832e6 0.0
0.0 0.0 0.0

-524672.5560847227 17543.56799647898 0.0
17543.56799647898 621787.7015094175 0.0
0.0 0.0 0.0

-1.672699308788945e6 9834.947394426628 0.0
9834.947394426628 1.778438307631092e6 0.0
0.0 0.0 0.0

-10370.240884002269 3.1942486454008557e6 0.0
3.1942486454008557e6 -342243.6921477887 0.0
0.0 0.0 0.0

-175160.59704855154 1.0291939801530013e6 0.0
1.0291939801530013e6 226169.73406023026 0.0
0.0 0.0 0.0

-95515.66687914482 101041.60654405372 0.0
101041.60654405372 54474.35930513187 0.0
0.0 0.0 0.0

-16009.872366178395 3.9597420861990997e6 0.0
3.9597420861990997e6 -118709.56969386015 0.0
0.0 0.0 0.0

-204839.21913629264 68051.29559835601 0.0
68051.29559835601 189527.34437168774 0.0
0.0 0.0 0.0

-278851.19067239953 663573.2564113213 0.0
663573.2564113213 188288.09367352718 0.0
0.0 0.0 0.0

336212.0648990611 3.1176726170891677e6 0.0
3.1176726170891677e6 -582608.930426031 0.0
0.0 0.0 0.0

-369993.4014771983 438025.347119764 0.0
438025.347119764 239571.95157259746 0.0
0.0 0.0 0.0

-547450.1107868343 -51211.93063514453 0.0
-51211.93063514453 695516.6561479294 0.0
0.0 0.0 0.0

-555320.2252914149 39322.21422127605 0.0
39322.21422127605 466894.0460030554 0.0
0.0 0.0 0.0

1.0284195114484549e6 161141.76171332653 0.0
161141.76171332653 -1.425966113898429e6 0.0
0.0 0.0 0.0

-276026.9699096388 1.0711310067089945e6 0.0
1.0711310067089945e6 310421.87025573896 0.0
0.0 0.0 0.0

-188106.77639228967 34557.509895347124 0.0
34557.509895347124 182940.46457838942 0.0
0.0 0.0 0.0

-191439.45536725968 469408.89865032776 0.0
469408.89865032776 -354793.33552961686 0.0
0.0 0.0 0.0

-247825.95907550224 16688.86038695764 0.0
16688.86038695764 216208.86204922234 0.0
0.0 0.0 0.0

133928.00247484155 1.627030681902887e6 0.0
1.627030681902887e6 -256193.17951585268 0.0
0.0 0.0 0.0

-313803.82789527066 -3601.917692948353 0.0
-3601.917692948353 274757.0280133771 0.0
0.0 0.0 0.0

226124.4725734226 2.357235813553595e6 0.0
2.357235813553595e6 -464977.1329637618 0.0
0.0 0.0 0.0

-742893.2795426201 403928.039215119 0.0
403928.039215119 700146.2731792452 0.0
0.0 0.0 0.0

-147040.3536450724 104841.51873053637 0.0
104841.51873053637 57615.15451289909 0.0
0.0 0.0 0.0

-1.3604269711320829e6 515664.61681383447 0.0
515664.61681383447 1.801069583252742e6 0.0
0.0 0.0 0.0

-224030.89976766452 241203.3927961282 0.0
241203.3927961282 52830.67300613756 0.0
0.0 0.0 0.0

-298964.4948633287 1.1537518226790472e6 0.0
1.1537518226790472e6 867.8085620207858 0.0
0.0 0.0 0.0

791254.7983446452 331839.37206776056 0.0
331839.37206776056 -1.1661230939644682e6 0.0
0.0 0.0 0.0

-899948.0791122734 512046.20196378435 0.0
512046.20196378435 1.157675626783106e6 0.0
0.0 0.0 0.0

-87800.24947324197 3.5940238247889206e6 0.0
3.5940238247889206e6 -140695.30833274612 0.0
0.0 0.0 0.0

-304975.2626782727 148856.78194726745 0.0
148856.78194726745 414937.9375294169 0.0
0.0 0.0 0.0

454657.7456360219 458910.81789079105 0.0
458910.81789079105 -771727.9113213788 0.0
0.0 0.0 0.0

-69655.8688819424 124383.07747060372 0.0
124383.07747060372 -3406.967121229747 0.0
0.0 0.0 0.0

371035.40898386226 1.3870674409460863e6 0.0
1.3870674409460863e6 -33967.16872531852 0.0
0.0 0.0 0.0

-235257.39049154823 21535.36965468014 0.0
21535.36965468014 217559.18307946424 0.0
0.0 0.0 0.0

-114276.88600686989 -10839.760592668108 0.0
-10839.760592668108 102523.81727169048 0.0
0.0 0.0 0.0

278726.3219157916 1.578381571012493e6 0.0
1.578381571012493e6 -451808.0781014868 0.0
0.0 0.0 0.0

-182192.11515350715 93149.25680990778 0.0
93149.25680990778 124501.12571149998 0.0
0.0 0.0 0.0

-169261.54955921345 1.0472221694653722e6 0.0
1.0472221694653722e6 221604.62947935789 0.0
0.0 0.0 0.0

-292499.70804663794 2.7918738264649804e6 0.0
2.7918738264649804e6 4041.6850939537107 0.0
0.0 0.0 0.0

-193720.69460526234 -182520.7398475901 0.0
-182520.7398475901 48466.35457204864 0.0
0.0 0.0 0.0

89585.32274013542 3.243124921858285e6 0.0
3.243124921858285e6 -265441.6200005314 0.0
0.0 0.0 0.0

343149.9650027582 376822.8590212711 0.0
376822.8590212711 -668410.811591656 0.0
0.0 0.0 0.0

-10887.768552904308 3.741461826830548e6 0.0
3.741461826830548e6 -51231.21459229514 0.0
0.0 0.0 0.0

602339.914423041 749226.972535706 0.0
749226.972535706 -1.0989827622807487e6 0.0
0.0 0.0 0.0

180205.05500986055 398719.3588377042 0.0
398719.3588377042 -459636.5303690941 0.0
0.0 0.0 0.0

671956.5768413376 173691.77292661156 0.0
173691.77292661156 -1.0905297654268532e6 0.0
0.0 0.0 0.0

79866.00894872303 816723.7744703848 0.0
816723.7744703848 -213477.38221290134 0.0
0.0 0.0 0.0

-117649.04094353871 -133966.6561807994 0.0
-133966.6561807994 17312.81691047643 0.0
0.0 0.0 0.0

121857.54978737599 917102.1665173006 0.0
917102.1665173006 -585726.1288183461 0.0
0.0 0.0 0.0

23772.8547360629 1.5639928684896962e6 0.0
1.5639928684896962e6 58974.24202954858 0.0
0.0 0.0 0.0

363998.495733206 1.0052749161328449e6 0.0
1.0052749161328449e6 -26312.711489471505 0.0
0.0 0.0 0.0

-46031.78238613815 1.096589413021955e6 0.0
1.096589413021955e6 -169697.99091888027 0.0
0.0 0.0 0.0

-1.5857809486110783e6 119652.09949832824 0.0
119652.09949832824 1.366880570048737e6 0.0
0.0 0.0 0.0

-341599.7113478465 1.2958556172503931e6 0.0
1.2958556172503931e6 134988.21015671632 0.0
0.0 0.0 0.0

-122176.6591412145 147876.40797876872 0.0
147876.40797876872 159427.65620750692 0.0
0.0 0.0 0.0

303194.1364278133 1.0703291945471033e6 0.0
1.0703291945471033e6 -439172.47957836324 0.0
0.0 0.0 0.0

-33848.52096799114 911467.8949639502 0.0
911467.8949639502 187911.628114933 0.0
0.0 0.0 0.0

-45232.46331062562 3.878719088387133e6 0.0
3.878719088387133e6 -65425.43261145422 0.0
0.0 0.0 0.0

-276705.4798890578 3.086966115896619e6 0.0
3.086966115896619e6 -519580.44063606777 0.0
0.0 0.0 0.0

-63982.44276370381 4.241848982727724e6 0.0
4.241848982727724e6 -107772.6385173904 0.0
0.0 0.0 0.0

-108523.16955317237 3.166904149701665e6 0.0
3.166904149701665e6 -406684.2125181922 0.0
0.0 0.0 0.0

-108955.99536315748 -12000.695117721854 0.0
-12000.695117721854 117990.19801435746 0.0
0.0 0.0 0.0

50205.806944354204 2.9630964449385456e6 0.0
2.9630964449385456e6 -326374.37873028 0.0
0.0 0.0 0.0

591231.4457210747 4.307999282783429e6 0.0
4.307999282783429e6 11131.162828776054 0.0
0.0 0.0 0.0

-62137.20563478593 2.847294616603586e6 0.0
2.847294616603586e6 -162311.3825067429 0.0
0.0 0.0 0.0

242248.6113209288 1.9585806776727086e6 0.0
1.9585806776727086e6 -298061.62346203066 0.0
0.0 0.0 0.0

-116293.72656701552 317063.4909739172 0.0
317063.4909739172 -171403.76958590702 0.0
0.0 0.0 0.0

-258329.60434450977 1.0354822198221327e6 0.0
1.0354822198221327e6 -234842.78186747967 0.0
0.0 0.0 0.0

1.2154274588363722e6 165094.11378210757 0.0
165094.11378210757 -1.5673941315903617e6 0.0
0.0 0.0 0.0

-65937.46877394903 296693.7814226763 0.0
296693.7814226763 303376.3472377613 0.0
0.0 0.0 0.0

-96693.91504966463 11662.42203592963 0.0
11662.42203592963 -212911.57393465406 0.0
0.0 0.0 0.0

-124478.63770689687 1.0593808291637169e6 0.0
1.0593808291637169e6 126201.60345959206 0.0
0.0 0.0 0.0

359456.17340893915 299552.40622048004 0.0
299552.40622048004 -747631.8658083071 0.0
0.0 0.0 0.0

47878.8082283361 2.8780400763409287e6 0.0
2.8780400763409287e6 -469224.0081416676 0.0
0.0 0.0 0.0

-47253.3235364767 1.1453010825902717e6 0.0
1.1453010825902717e6 44008.68088830209 0.0
0.0 0.0 0.0

333503.3859017022 774677.7119623474 0.0
774677.7119623474 -298422.03135800734 0.0
0.0 0.0 0.0

-196443.15363925527 79662.10737607194 0.0
79662.10737607194 146646.42860143416 0.0
0.0 0.0 0.0

-745700.4437156778 767948.9799688173 0.0
767948.9799688173 598475.1419005321 0.0
0.0 0.0 0.0

360499.2571701163 530859.4925995595 0.0
530859.4925995595 -508280.7085403715 0.0
0.0 0.0 0.0

-689528.9441127155 -10185.16429559572 0.0
-10185.16429559572 850061.8591203357 0.0
0.0 0.0 0.0

268316.84628613864 532586.6794671505 0.0
532586.6794671505 -515149.7389124967 0.0
0.0 0.0 0.0

-251968.53813051424 841744.8097077468 0.0
841744.8097077468 474694.5735112243 0.0
0.0 0.0 0.0

357092.5758821504 554050.5080514372 0.0
554050.5080514372 -615335.2931878997 0.0
0.0 0.0 0.0

248949.11663462917 883505.5782658262 0.0
883505.5782658262 -301562.83739775594 0.0
0.0 0.0 0.0

-444976.55723778566 32679.692849449486 0.0
32679.692849449486 423335.4097794601 0.0
0.0 0.0 0.0

-266769.931855786 122857.78483072342 0.0
122857.78483072342 156645.80190417194 0.0
0.0 0.0 0.0

-253169.96016719507 967831.29997483 0.0
967831.29997483 -349649.36969005474 0.0
0.0 0.0 0.0

-85591.69052012876 220171.8123715827 0.0
220171.8123715827 -144875.11403157166 0.0
0.0 0.0 0.0

-480206.32927990635 93503.68051214189 0.0
93503.68051214189 365392.8304509798 0.0
0.0 0.0 0.0

-213909.13225236937 922503.0845275511 0.0
922503.0845275511 -269600.5574706945 0.0
0.0 0.0 0.0

66165.57578986112 2.882351048206037e6 0.0
2.882351048206037e6 -379535.7943432864 0.0
0.0 0.0 0.0

36199.787714865655 3.4848559989936715e6 0.0
3.4848559989936715e6 -269023.0497207033 0.0
0.0 0.0 0.0

45607.279062235204 3.0126420311632464e6 0.0
3.0126420311632464e6 -280289.8676370715 0.0
0.0 0.0 0.0

249585.55160452105 2.085412584882815e6 0.0
2.085412584882815e6 -463991.08777556254 0.0
0.0 0.0 0.0

121691.94043401367 1.5822241328687645e6 0.0
1.5822241328687645e6 -346493.370783173 0.0
0.0 0.0 0.0

-34427.763119702926 1.0061592712320907e6 0.0
1.0061592712320907e6 -91812.2026278442 0.0
0.0 0.0 0.0

-88156.17796304941 3.424074092656512e6 0.0
3.424074092656512e6 -365587.53000525525 0.0
0.0 0.0 0.0

-228394.83257815937 3.1688017887974223e6 0.0
3.1688017887974223e6 -395966.8434633275 0.0
0.0 0.0 0.0

-219316.38783220603 67527.7962029056 0.0
67527.7962029056 174969.4869037397 0.0
0.0 0.0 0.0

250312.00285739292 1.8397349234293909e6 0.0
1.8397349234293909e6 -465109.18070775754 0.0
0.0 0.0 0.0

-198089.64366463444 860710.1145265676 0.0
860710.1145265676 -660298.7980000768 0.0
0.0 0.0 0.0

-376444.1415068 -13085.597425094324 0.0
-13085.597425094324 462140.61143681244 0.0
0.0 0.0 0.0

267869.9150891082 843204.749204935 0.0
843204.749204935 -393189.7216364328 0.0
0.0 0.0 0.0

-221926.052328331 -310262.4718016236 0.0
-310262.4718016236 -151423.16407567565 0.0
0.0 0.0 0.0

607225.6171400324 672441.2702369047 0.0
672441.2702369047 -1.0308492098648928e6 0.0
0.0 0.0 0.0

-91678.71219460592 236360.86526570885 0.0
236360.86526570885 -97030.14335515541 0.0
0.0 0.0 0.0

429444.97314810444 485123.739480573 0.0
485123.739480573 -441606.27556535474 0.0
0.0 0.0 0.0

-187737.80801950395 121781.64736421728 0.0
121781.64736421728 80353.63110182578 0.0
0.0 0.0 0.0

-907949.9754119299 -47775.2496184384 0.0
-47775.2496184384 1.0210653409728084e6 0.0
0.0 0.0 0.0

31366.875056412755 1.0903133778136447e6 0.0
1.0903133778136447e6 -146291.32499231477 0.0
0.0 0.0 0.0

-11698.68769044477 685943.5401796708 0.0
685943.5401796708 -178274.1987499687 0.0
0.0 0.0 0.0

-137193.16352936433 1.0736018164959166e6 0.0
1.0736018164959166e6 229263.49899385322 0.0
0.0 0.0 0.0

-230451.41561990228 734997.5007187912 0.0
734997.5007187912 -86558.03025003595 0.0
0.0 0.0 0.0

1.0050856451412021e6 234151.4272940252 0.0
234151.4272940252 -1.3387972541851914e6 0.0
0.0 0.0 0.0

944091.2446502972 244806.06304782405 0.0
244806.06304782405 -1.286556599587548e6 0.0
0.0 0.0 0.0

-313598.1481678447 235907.62921859985 0.0
235907.62921859985 227896.95873538574 0.0
0.0 0.0 0.0

85525.60480497291 2.7873791733816564e6 0.0
2.7873791733816564e6 -429738.56348673964 0.0
0.0 0.0 0.0

74674.49675231532 2.8315644418840515e6 0.0
2.8315644418840515e6 -156834.56061608536 0.0
0.0 0.0 0.0

-1.4665342296285743e6 -64801.41940777321 0.0
-64801.41940777321 1.4557556340156954e6 0.0
0.0 0.0 0.0

-161634.4919734313 473412.36147871375 0.0
473412.36147871375 -75853.9792888109 0.0
0.0 0.0 0.0

-265925.1103733928 3.551105751688964e6 0.0
3.551105751688964e6 -400455.7056595136 0.0
0.0 0.0 0.0

-2.0138719339392823e6 579381.1643026456 0.0
579381.1643026456 2.780668949879464e6 0.0
0.0 0.0 0.0

-76420.67474741061 -446651.1193169712 0.0
-446651.1193169712 590427.1616551016 0.0
0.0 0.0 0.0

-172159.17205000547 3.8554543988038064e6 0.0
3.8554543988038064e6 -135296.95963167952 0.0
0.0 0.0 0.0

-144549.54660124175 1.0912990164077275e6 0.0
1.0912990164077275e6 237313.36338422267 0.0
0.0 0.0 0.0

373453.91730576585 725136.3426729934 0.0
725136.3426729934 -201972.22190699575 0.0
0.0 0.0 0.0

-232062.9780827958 655630.0025287743 0.0
655630.0025287743 -368435.77187369904 0.0
0.0 0.0 0.0

-1.653008628739377e6 366101.3103993807 0.0
366101.3103993807 2.2894080046106013e6 0.0
0.0 0.0 0.0

612169.6470761672 365327.52941796347 0.0
365327.52941796347 -1.0128558615275278e6 0.0
0.0 0.0 0.0

235896.52011780077 1.73875988077133e6 0.0
1.73875988077133e6 -314572.68002516 0.0
0.0 0.0 0.0

-466292.67054715636 -41709.34135231962 0.0
-41709.34135231962 544702.2955899995 0.0
0.0 0.0 0.0

488723.9184450011 417991.2186990965 0.0
417991.2186990965 -824833.1251526091 0.0
0.0 0.0 0.0

-62759.896412751514 1.355695359554835e6 0.0
1.355695359554835e6 -253523.4410105147 0.0
0.0 0.0 0.0

543129.5206546565 329322.61008924316 0.0
329322.61008924316 -879692.597926602 0.0
0.0 0.0 0.0

-76484.03615490148 3.0395343827001443e6 0.0
3.0395343827001443e6 -532433.6427427666 0.0
0.0 0.0 0.0

104848.84514423611 2.6677305999232004e6 0.0
2.6677305999232004e6 -468692.4213494695 0.0
0.0 0.0 0.0

-381463.2923872612 83585.80707662288 0.0
83585.80707662288 306216.4414148164 0.0
0.0 0.0 0.0

-153807.2581248481 1.4952412250805437e6 0.0
1.4952412250805437e6 -166408.86832102187 0.0
0.0 0.0 0.0

-251450.2602513234 55994.3839656674 0.0
55994.3839656674 215485.22649330058 0.0
0.0 0.0 0.0

292571.0746529049 1.3562931040556082e6 0.0
1.3562931040556082e6 -290795.87468637415 0.0
0.0 0.0 0.0

-247369.01066413533 -188985.71709517832 0.0
-188985.71709517832 602771.6202036449 0.0
0.0 0.0 0.0

-160892.3162335796 -205867.406235639 0.0
-205867.406235639 263774.0393308097 0.0
0.0 0.0 0.0

-25089.536917108344 3.0634456184767447e6 0.0
3.0634456184767447e6 -498828.67144200887 0.0
0.0 0.0 0.0

566385.2030271313 305224.91315699066 0.0
305224.91315699066 -748069.4916956119 0.0
0.0 0.0 0.0

-190772.661338019 29388.276597170097 0.0
29388.276597170097 141531.1972696173 0.0
0.0 0.0 0.0

1.1352869058603682e6 263168.44015003776 0.0
263168.44015003776 -1.4345833066249974e6 0.0
0.0 0.0 0.0

-59257.64866667989 578507.950072797 0.0
578507.950072797 -197525.4533894954 0.0
0.0 0.0 0.0

-203522.18074619034 146127.57336247785 0.0
146127.57336247785 89128.93754201701 0.0
0.0 0.0 0.0

-145836.7778764479 1.083859911719752e6 0.0
1.083859911719752e6 204237.65137371706 0.0
0.0 0.0 0.0

-206791.30441745732 1.1956084709699664e6 0.0
1.1956084709699664e6 -56826.665423755025 0.0
0.0 0.0 0.0

-629242.58387781 454648.74324209103 0.0
454648.74324209103 583724.3411550759 0.0
0.0 0.0 0.0

-273249.43936386 533793.7258248933 0.0
533793.7258248933 294336.19826697535 0.0
0.0 0.0 0.0

-480401.6242815884 -90357.52113769838 0.0
-90357.52113769838 521743.66751804005 0.0
0.0 0.0 0.0

-138677.13584139032 347764.32453356124 0.0
347764.32453356124 -208261.39228298233 0.0
0.0 0.0 0.0

117280.45921356768 890384.8696456258 0.0
890384.8696456258 175010.46735410666 0.0
0.0 0.0 0.0

-115078.30456445394 1.0994968810687822e6 0.0
1.0994968810687822e6 213103.50741080873 0.0
0.0 0.0 0.0

-221635.8202254623 109637.12360493228 0.0
109637.12360493228 122263.70569091523 0.0
0.0 0.0 0.0

237146.6539474857 1.085155570709686e6 0.0
1.085155570709686e6 -431323.9878670114 0.0
0.0 0.0 0.0

171501.44386661076 752108.2573327832 0.0
752108.2573327832 -331941.28862278606 0.0
0.0 0.0 0.0

220483.43582758633 2.7394357110813847e6 0.0
2.7394357110813847e6 -354861.6750921361 0.0
0.0 0.0 0.0

-111278.55413578672 220070.91199099223 0.0
220070.91199099223 -186636.13681681556 0.0
0.0 0.0 0.0

123574.04568727984 582990.2446835006 0.0
582990.2446835006 346574.17071055016 0.0
0.0 0.0 0.0

-104334.64090325679 3.750681547421378e6 0.0
3.750681547421378e6 -91915.76914958461 0.0
0.0 0.0 0.0

-853473.3957483266 -24582.652263686992 0.0
-24582.652263686992 950633.8323884066 0.0
0.0 0.0 0.0

-533950.0121992978 -29904.2355809744 0.0
-29904.2355809744 611711.5097892917 0.0
0.0 0.0 0.0

-1.2489163412812587e6 103510.82932656725 0.0
103510.82932656725 1.0786808338080691e6 0.0
0.0 0.0 0.0

-109884.06472177035 3.6750284694908294e6 0.0
3.6750284694908294e6 -223971.42145019997 0.0
0.0 0.0 0.0

-190835.2699682997 -32981.26161229553 0.0
-32981.26161229553 -206799.88073399416 0.0
0.0 0.0 0.0

-80829.2452377078 3.625291496365008e6 0.0
3.625291496365008e6 46381.689242514534 0.0
0.0 0.0 0.0

161636.90111904655 828092.2097589856 0.0
828092.2097589856 1.0542819361761538e6 0.0
0.0 0.0 0.0

334971.53515081824 616623.2529487659 0.0
616623.2529487659 -114959.37137126055 0.0
0.0 0.0 0.0

-143215.5357433369 71818.85909482259 0.0
71818.85909482259 108139.21814758447 0.0
0.0 0.0 0.0

-159341.69670517943 455851.26040613203 0.0
455851.26040613203 -207526.44159100906 0.0
0.0 0.0 0.0

-268384.94489116897 611403.9995320829 0.0
611403.9995320829 139942.82395885646 0.0
0.0 0.0 0.0

930175.7423121174 269189.96677712904 0.0
269189.96677712904 -1.3312378249105278e6 0.0
0.0 0.0 0.0

742293.034554566 275012.0787115467 0.0
275012.0787115467 -1.1226938370658446e6 0.0
0.0 0.0 0.0

-224282.6052390833 -112084.38289227057 0.0
-112084.38289227057 454267.65743111493 0.0
0.0 0.0 0.0

-181842.52252540673 539868.1093555394 0.0
539868.1093555394 -40358.08642267878 0.0
0.0 0.0 0.0

-1.6056892631472899e6 655563.7397238524 0.0
655563.7397238524 2.7264315286764544e6 0.0
0.0 0.0 0.0

191089.8565549339 2.8499383506614384e6 0.0
2.8499383506614384e6 -330577.96989601327 0.0
0.0 0.0 0.0

-39236.959013401356 -213562.30245594244 0.0
-213562.30245594244 314007.9137475136 0.0
0.0 0.0 0.0

841158.0467531318 259529.710188231 0.0
259529.710188231 -1.2119339059650374e6 0.0
0.0 0.0 0.0

-228614.3772063328 617006.4292036558 0.0
617006.4292036558 44875.309214302004 0.0
0.0 0.0 0.0

294561.4637649131 572285.8657984819 0.0
572285.8657984819 -532540.2191561807 0.0
0.0 0.0 0.0

-170454.38655785326 353836.92510454654 0.0
353836.92510454654 -122228.11856189232 0.0
0.0 0.0 0.0

88163.86072172475 2.741298370393413e6 0.0
2.741298370393413e6 -507926.0776262141 0.0
0.0 0.0 0.0

-639422.4866820413 -46968.299907672845 0.0
-46968.299907672845 984450.4333220015 0.0
0.0 0.0 0.0

-80184.28738252219 77057.39659867821 0.0
77057.39659867821 -132591.36882646062 0.0
0.0 0.0 0.0

-44250.51782715787 -76526.61715328417 0.0
-76526.61715328417 -29121.796645655 0.0
0.0 0.0 0.0

-107124.69342549995 3.200318343449281e6 0.0
3.200318343449281e6 -514068.94101926725 0.0
0.0 0.0 0.0

-236689.0667360616 775567.1727256197 0.0
775567.1727256197 -342077.0611452753 0.0
0.0 0.0 0.0

-348334.2542392581 107820.39503775297 0.0
107820.39503775297 246582.02197021752 0.0
0.0 0.0 0.0

-2.231466582701197e6 353858.3232312117 0.0
353858.3232312117 2.9272781777677555e6 0.0
0.0 0.0 0.0

-2.0303907995971523e6 31510.90782467329 0.0
31510.90782467329 1.7348357913087257e6 0.0
0.0 0.0 0.0

-1.941770911361098e6 364751.8728966684 0.0
364751.8728966684 2.6222738081673533e6 0.0
0.0 0.0 0.0

-3.3706079728706544e6 -144002.31572862898 0.0
-144002.31572862898 2.9821023894867795e6 0.0
0.0 0.0 0.0

-43324.963160909596 1.1735156113739386e6 0.0
1.1735156113739386e6 23698.019861422912 0.0
0.0 0.0 0.0

-1.4496907722285818e6 -30448.351430873543 0.0
-30448.351430873543 1.3721126474223575e6 0.0
0.0 0.0 0.0

-141276.73977161336 3.012252459079094e6 0.0
3.012252459079094e6 -136684.7307948626 0.0
0.0 0.0 0.0

25680.479006594447 963631.4979111693 0.0
963631.4979111693 -157159.17461475256 0.0
0.0 0.0 0.0

-523273.5145132189 276335.1919860301 0.0
276335.1919860301 313450.3709492263 0.0
0.0 0.0 0.0

336564.1021125516 978933.9166498553 0.0
978933.9166498553 26932.929129629163 0.0
0.0 0.0 0.0

361257.42029798386 982016.2981070441 0.0
982016.2981070441 -260794.6740178463 0.0
0.0 0.0 0.0

-254991.98176055562 3.6280311733268686e6 0.0
3.6280311733268686e6 -113954.40388474069 0.0
0.0 0.0 0.0

-266113.38342875877 916088.2743816806 0.0
916088.2743816806 15994.21388473206 0.0
0.0 0.0 0.0

587649.0555913806 299309.3800512792 0.0
299309.3800512792 -945780.6562331617 0.0
0.0 0.0 0.0

110397.37752786124 3.899208150981356e6 0.0
3.899208150981356e6 -390475.67648912524 0.0
0.0 0.0 0.0

-97156.50472904864 156652.85316931581 0.0
156652.85316931581 -278743.08616492676 0.0
0.0 0.0 0.0

972953.9935350254 340903.15028205124 0.0
340903.15028205124 -1.3357894375333572e6 0.0
0.0 0.0 0.0

-70570.93792147707 22704.97536733747 0.0
22704.97536733747 -212859.16104742856 0.0
0.0 0.0 0.0

188539.40614781616 1.1827071241373897e6 0.0
1.1827071241373897e6 -312237.1604750765 0.0
0.0 0.0 0.0

-540474.8979780456 493841.9959702401 0.0
493841.9959702401 492436.3046330442 0.0
0.0 0.0 0.0

-489726.4864298792 447523.2262628546 0.0
447523.2262628546 755059.1038968726 0.0
0.0 0.0 0.0

-276639.550717438 -18337.212945400843 0.0
-18337.212945400843 249308.34730953182 0.0
0.0 0.0 0.0

176985.2004331291 2.9381220579535896e6 0.0
2.9381220579535896e6 -291666.73262065323 0.0
0.0 0.0 0.0

-212157.34824052057 884346.1837606559 0.0
884346.1837606559 103594.22767433983 0.0
0.0 0.0 0.0

327632.4030927852 531292.2097855525 0.0
531292.2097855525 -131695.11843744863 0.0
0.0 0.0 0.0

-182424.97662150237 134815.71133939503 0.0
134815.71133939503 106461.56491120739 0.0
0.0 0.0 0.0

100171.0236973264 3.14551279374603e6 0.0
3.14551279374603e6 -370378.22944267106 0.0
0.0 0.0 0.0

-223337.92402760792 2.7356612842794256e6 0.0
2.7356612842794256e6 -339298.5906255252 0.0
0.0 0.0 0.0

-123652.96672287877 283016.97178333934 0.0
283016.97178333934 -302298.9882163073 0.0
0.0 0.0 0.0

-1.0295940222748753e6 92475.91371788699 0.0
92475.91371788699 915514.596424788 0.0
0.0 0.0 0.0

1.0698617990128347e6 211449.66060490266 0.0
211449.66060490266 -1.412972219438489e6 0.0
0.0 0.0 0.0

392459.7599582642 289662.4500121724 0.0
289662.4500121724 -718519.7299764641 0.0
0.0 0.0 0.0

-225950.0399530526 612207.6541458516 0.0
612207.6541458516 9289.676978038202 0.0
0.0 0.0 0.0

-338294.2248769167 32349.565236811373 0.0
32349.565236811373 349481.6624420242 0.0
0.0 0.0 0.0

-154059.4628099769 3.0917666827512733e6 0.0
3.0917666827512733e6 -551567.9325917665 0.0
0.0 0.0 0.0

561711.5959454766 305258.24971027684 0.0
305258.24971027684 -844729.9008213857 0.0
0.0 0.0 0.0

-789532.2083512445 -1371.6438390413869 0.0
-1371.6438390413869 852408.4519478839 0.0
0.0 0.0 0.0

-38456.37365875604 1.1920231662489288e6 0.0
1.1920231662489288e6 7057.3746255569 0.0
0.0 0.0 0.0

-158601.92259262764 15575.722873232204 0.0
15575.722873232204 119904.63310995346 0.0
0.0 0.0 0.0

388748.287066258 488758.81496806943 0.0
488758.81496806943 -662499.4605663568 0.0
0.0 0.0 0.0

146467.54695590018 1.2832281632284871e6 0.0
1.2832281632284871e6 -288752.34792281524 0.0
0.0 0.0 0.0

-199307.01536156854 153745.26695746233 0.0
153745.26695746233 82797.29089132875 0.0
0.0 0.0 0.0

265449.50443825795 1.0276400506351709e6 0.0
1.0276400506351709e6 -286214.953515626 0.0
0.0 0.0 0.0

238798.5040735485 2.3081806050581713e6 0.0
2.3081806050581713e6 -393196.7685874571 0.0
0.0 0.0 0.0

-1.064473902636744e6 -53085.78554052231 0.0
-53085.78554052231 1.2037330200074294e6 0.0
0.0 0.0 0.0

-101630.06515402315 9993.566684371644 0.0
9993.566684371644 81097.33050784163 0.0
0.0 0.0 0.0

-226905.74726459154 2.8283868511908296e6 0.0
2.8283868511908296e6 -557968.9874610299 0.0
0.0 0.0 0.0

-184117.13414229482 2.536482409153195e6 0.0
2.536482409153195e6 -549362.8222572282 0.0
0.0 0.0 0.0

161385.82288182556 2.945614538416798e6 0.0
2.945614538416798e6 -363265.95675483777 0.0
0.0 0.0 0.0

-45758.41830487889 1.1946063419238536e6 0.0
1.1946063419238536e6 -4461.851286381134 0.0
0.0 0.0 0.0

36154.78195406482 1.9700549130890514e6 0.0
1.9700549130890514e6 -418593.7598470289 0.0
0.0 0.0 0.0

541519.1709555621 547875.3276464915 0.0
547875.3276464915 -950154.9481587615 0.0
0.0 0.0 0.0

-350119.74537270976 32311.509541868745 0.0
32311.509541868745 411724.20882385666 0.0
0.0 0.0 0.0

37637.981910328584 641572.4800646063 0.0
641572.4800646063 -629944.0371291948 0.0
0.0 0.0 0.0

-2.3932144839842366e6 128944.23993131676 0.0
128944.23993131676 1.8640756035077204e6 0.0
0.0 0.0 0.0

4.697390321237174e6 1.3252594784045455e6 0.0
1.3252594784045455e6 -2.082001651396151e6 0.0
0.0 0.0 0.0

591570.1673172445 610593.8400364964 0.0
610593.8400364964 -1.021340089910469e6 0.0
0.0 0.0 0.0

-190412.0376847565 269055.95415194257 0.0
269055.95415194257 92506.74384988466 0.0
0.0 0.0 0.0

-257928.70430830884 977250.0080539434 0.0
977250.0080539434 -154129.85843981034 0.0
0.0 0.0 0.0

-250238.14577051732 3.0377487832864313e6 0.0
3.0377487832864313e6 -548048.4521270231 0.0
0.0 0.0 0.0

-247710.56438783475 -445856.92456760147 0.0
-445856.92456760147 46012.257113124986 0.0
0.0 0.0 0.0

-147577.96671412495 -404521.04400293814 0.0
-404521.04400293814 109318.03429099736 0.0
0.0 0.0 0.0

-147588.5229656937 396259.48093215545 0.0
396259.48093215545 -297863.4606631829 0.0
0.0 0.0 0.0

569814.7039546439 578607.4509601765 0.0
578607.4509601765 -994805.5819014285 0.0
0.0 0.0 0.0

-62971.445724172525 2.6842467538653053e6 0.0
2.6842467538653053e6 -315032.6561233476 0.0
0.0 0.0 0.0

-487997.2849323499 13589.630755341668 0.0
13589.630755341668 432958.99830108415 0.0
0.0 0.0 0.0

2.415748223796079e6 1.71183022338279e6 0.0
1.71183022338279e6 -2.6236477458507484e6 0.0
0.0 0.0 0.0

-123905.7215884878 2.939041960753578e6 0.0
2.939041960753578e6 -382854.9410990404 0.0
0.0 0.0 0.0

707640.5171450537 250935.47066517358 0.0
250935.47066517358 -1.0861451733577286e6 0.0
0.0 0.0 0.0

639627.4624289579 277347.3155190927 0.0
277347.3155190927 -1.0066821224808745e6 0.0
0.0 0.0 0.0

-469476.15248428425 527128.4993336857 0.0
527128.4993336857 419927.4440198895 0.0
0.0 0.0 0.0

347961.21330644167 1.7373121216205398e6 0.0
1.7373121216205398e6 -279236.4994427167 0.0
0.0 0.0 0.0

25272.7501318828 1.1668460470300545e6 0.0
1.1668460470300545e6 -104682.5481715938 0.0
0.0 0.0 0.0

105249.8851736591 2.859312319844266e6 0.0
2.859312319844266e6 -99132.10809741425 0.0
0.0 0.0 0.0

-215136.95724132896 596822.2084579035 0.0
596822.2084579035 -258371.2681896348 0.0
0.0 0.0 0.0

-52849.60489046978 -225004.33275288795 0.0
-225004.33275288795 211885.70800762725 0.0
0.0 0.0 0.0

-137618.20295904603 -3826.572582399639 0.0
-3826.572582399639 -208009.81341213887 0.0
0.0 0.0 0.0

-192956.03799749873 -104207.34693432994 0.0
-104207.34693432994 406045.4661584245 0.0
0.0 0.0 0.0

166923.920405349 542817.9135733758 0.0
542817.9135733758 -378334.7676552556 0.0
0.0 0.0 0.0

348500.73741276143 563499.5447961132 0.0
563499.5447961132 -487511.09262560896 0.0
0.0 0.0 0.0

88120.29309245372 641982.5563866647 0.0
641982.5563866647 -306400.4233494069 0.0
0.0 0.0 0.0

249003.74160144178 1.7275905855411538e6 0.0
1.7275905855411538e6 20042.36527911682 0.0
0.0 0.0 0.0

-232159.8023764731 839643.1096863726 0.0
839643.1096863726 -246797.73804395698 0.0
0.0 0.0 0.0

231992.38093198472 1.1971180193583155e6 0.0
1.1971180193583155e6 -336587.5947447106 0.0
0.0 0.0 0.0

-267554.24140080914 -222661.38034734968 0.0
-222661.38034734968 -199235.30249258212 0.0
0.0 0.0 0.0

768638.0387800641 245519.10383267328 0.0
245519.10383267328 -1.1091426291260577e6 0.0
0.0 0.0 0.0

49529.408638067776 3.1267002638637275e6 0.0
3.1267002638637275e6 -395743.9541631036 0.0
0.0 0.0 0.0

-305258.5735497603 3938.7542681820055 0.0
3938.7542681820055 419404.8335808361 0.0
0.0 0.0 0.0

-173860.3596728337 3.9280468150907224e6 0.0
3.9280468150907224e6 -147517.67932910315 0.0
0.0 0.0 0.0

953105.0570168138 284546.8510989145 0.0
284546.8510989145 -1.3441367307307231e6 0.0
0.0 0.0 0.0

27504.40884644947 3.2885830164063904e6 0.0
3.2885830164063904e6 -378309.2384724864 0.0
0.0 0.0 0.0

401537.93988733215 545841.9780276547 0.0
545841.9780276547 -396768.2996513874 0.0
0.0 0.0 0.0

-293361.07058969996 -226834.64115450636 0.0
-226834.64115450636 717523.850694781 0.0
0.0 0.0 0.0

470567.15309512743 398486.06300527375 0.0
398486.06300527375 -629380.6180639202 0.0
0.0 0.0 0.0

-216559.9733533735 684638.9410700188 0.0
684638.9410700188 -31467.534338779762 0.0
0.0 0.0 0.0

-49431.2647316629 3.889099440614285e6 0.0
3.889099440614285e6 -120381.61482727216 0.0
0.0 0.0 0.0

136816.34655168265 1.11919310954913e6 0.0
1.11919310954913e6 -242293.06762423977 0.0
0.0 0.0 0.0

-160927.6808964343 -48668.76991229625 0.0
-48668.76991229625 -44997.50786116998 0.0
0.0 0.0 0.0

-97987.4781321519 4.0175605804697536e6 0.0
4.0175605804697536e6 -69030.87341562766 0.0
0.0 0.0 0.0

17827.174667031715 3.6477227630077526e6 0.0
3.6477227630077526e6 -191438.32356020805 0.0
0.0 0.0 0.0

-176164.4178914319 103118.32350556961 0.0
103118.32350556961 103016.6512405826 0.0
0.0 0.0 0.0

-137311.04420049483 1.0594034279515878e6 0.0
1.0594034279515878e6 234693.0976625314 0.0
0.0 0.0 0.0

-517254.3850328962 -44032.210091644905 0.0
-44032.210091644905 793396.0721045554 0.0
0.0 0.0 0.0

-110701.51737758945 69166.03492250838 0.0
69166.03492250838 -127579.44201031834 0.0
0.0 0.0 0.0

-1.2088862134683202e6 32340.957239675437 0.0
32340.957239675437 1.2451520675487244e6 0.0
0.0 0.0 0.0

-75053.79639277284 165021.28586128226 0.0
165021.28586128226 -214973.96000452177 0.0
0.0 0.0 0.0

-93966.62573089683 1.5072640557419697e6 0.0
1.5072640557419697e6 -105406.43794436318 0.0
0.0 0.0 0.0

-162435.06942828337 3.128832771967157e6 0.0
3.128832771967157e6 -405389.41079944593 0.0
0.0 0.0 0.0

-180340.96341289714 3.263125635101629e6 0.0
3.263125635101629e6 -518636.145088622 0.0
0.0 0.0 0.0

482496.73179887526 527520.7237887166 0.0
527520.7237887166 -899142.5842740914 0.0
0.0 0.0 0.0

941317.0749549527 320323.41255625826 0.0
320323.41255625826 -1.3362475767660611e6 0.0
0.0 0.0 0.0

-258286.11425997518 150406.335959777 0.0
150406.335959777 127676.4331241046 0.0
0.0 0.0 0.0

-249478.6595486559 832004.9333955703 0.0
832004.9333955703 128269.91729022982 0.0
0.0 0.0 0.0

-708616.5721254265 11120.914784126133 0.0
11120.914784126133 655158.6725191136 0.0
0.0 0.0 0.0

103548.33249366052 3.001841047540319e6 0.0
3.001841047540319e6 -264190.79983420495 0.0
0.0 0.0 0.0

119526.69269942777 2.1953724184152377e6 0.0
2.1953724184152377e6 -291581.730651151 0.0
0.0 0.0 0.0

813237.5993762446 241373.26962908133 0.0
241373.26962908133 -510830.4545355242 0.0
0.0 0.0 0.0

-87786.53996968019 1.9836303750282743e6 0.0
1.9836303750282743e6 -185014.05759960925 0.0
0.0 0.0 0.0

-135117.6471895987 140973.55403740265 0.0
140973.55403740265 -15424.367490911623 0.0
0.0 0.0 0.0

85216.20628552216 898073.3386728489 0.0
898073.3386728489 -216631.378512755 0.0
0.0 0.0 0.0

-35786.727276326055 3.1906875099875955e6 0.0
3.1906875099875955e6 -401346.44734071725 0.0
0.0 0.0 0.0

166621.39182906694 2.824194034293819e6 0.0
2.824194034293819e6 -383107.9376545998 0.0
0.0 0.0 0.0

-893319.0243707632 170320.16593422875 0.0
170320.16593422875 1.0056179071254224e6 0.0
0.0 0.0 0.0

-202429.13869234524 146884.0086384984 0.0
146884.0086384984 85303.01405071044 0.0
0.0 0.0 0.0

-230293.22560862635 3.24196912895996e6 0.0
3.24196912895996e6 -529780.7826570756 0.0
0.0 0.0 0.0

-253400.55527289995 3.624722166959323e6 0.0
3.624722166959323e6 -354452.91445896134 0.0
0.0 0.0 0.0

43222.98815439349 1.0425276654025513e6 0.0
1.0425276654025513e6 2130.870659442933 0.0
0.0 0.0 0.0

-250971.26803809084 2.217207527517986e6 0.0
2.217207527517986e6 -12127.200286557563 0.0
0.0 0.0 0.0

371740.6419862901 517850.44983807346 0.0
517850.44983807346 -581118.0047919272 0.0
0.0 0.0 0.0

-394268.8744124903 1.3074388122634147e6 0.0
1.3074388122634147e6 147562.4692892921 0.0
0.0 0.0 0.0

-119511.85881820563 166300.60102994845 0.0
166300.60102994845 -77788.1807661066 0.0
0.0 0.0 0.0

-13870.621865887664 1.136718533208795e6 0.0
1.136718533208795e6 -11528.615205245016 0.0
0.0 0.0 0.0

-10897.096500583342 739015.0602150039 0.0
739015.0602150039 -188686.83026322883 0.0
0.0 0.0 0.0

132609.31437258492 1.2132149337006381e6 0.0
1.2132149337006381e6 -242643.26538394246 0.0
0.0 0.0 0.0

52717.75436837866 919489.3171703556 0.0
919489.3171703556 -119614.05519890587 0.0
0.0 0.0 0.0

-236703.20922066225 746542.0841750815 0.0
746542.0841750815 129072.51280510605 0.0
0.0 0.0 0.0

67294.28152207009 3.381096389839603e6 0.0
3.381096389839603e6 -308882.52419215266 0.0
0.0 0.0 0.0

-265266.281267211 3.2030941127219973e6 0.0
3.2030941127219973e6 -528218.0402016531 0.0
0.0 0.0 0.0

188361.0363183454 1.137095560420465e6 0.0
1.137095560420465e6 -261179.06378059677 0.0
0.0 0.0 0.0

-178388.26436864183 1.183630658576238e6 0.0
1.183630658576238e6 -536277.9679266495 0.0
0.0 0.0 0.0

-274710.7597530188 1.0053550680431628e6 0.0
1.0053550680431628e6 -18730.968594121412 0.0
0.0 0.0 0.0

-180161.64084411305 2.627059546189473e6 0.0
2.627059546189473e6 -52412.34710211264 0.0
0.0 0.0 0.0

-328230.07995411486 -275161.46979043115 0.0
-275161.46979043115 860665.011427753 0.0
0.0 0.0 0.0

-218255.44797252835 2.388673746494124e6 0.0
2.388673746494124e6 -539571.5099427463 0.0
0.0 0.0 0.0

-323921.30466812575 1.8760471584121974e6 0.0
1.8760471584121974e6 38161.68049637393 0.0
0.0 0.0 0.0

-211688.96232488588 645557.4948399116 0.0
645557.4948399116 -95591.31928725744 0.0
0.0 0.0 0.0

-1.6987135992625244e6 -96355.54496340628 0.0
-96355.54496340628 1.5478028272822776e6 0.0
0.0 0.0 0.0

254863.49618273863 1.0168780770168108e6 0.0
1.0168780770168108e6 -279798.1207666659 0.0
0.0 0.0 0.0

-184049.7028317193 492500.80131750676 0.0
492500.80131750676 -109320.35704783196 0.0
0.0 0.0 0.0

-177738.14991161475 2.562621622899996e6 0.0
2.562621622899996e6 -97075.36368261234 0.0
0.0 0.0 0.0

-202106.90139831722 555522.7471132311 0.0
555522.7471132311 -67294.10089040075 0.0
0.0 0.0 0.0

-31452.722871962615 1.2013106103653978e6 0.0
1.2013106103653978e6 -15078.528915848372 0.0
0.0 0.0 0.0

-29342.985053523218 3.776887836400091e6 0.0
3.776887836400091e6 -247728.04757429467 0.0
0.0 0.0 0.0

-114754.97946925362 212195.97859502878 0.0
212195.97859502878 -130877.78032196047 0.0
0.0 0.0 0.0

-167275.6204205398 88426.70147134991 0.0
88426.70147134991 155511.31748745072 0.0
0.0 0.0 0.0

-162803.04534615038 1.2854913968718692e6 0.0
1.2854913968718692e6 -324948.2319165974 0.0
0.0 0.0 0.0

93897.10317232927 804261.4044057659 0.0
804261.4044057659 403048.8151522919 0.0
0.0 0.0 0.0

-207597.6156159044 2.7664771387236216e6 0.0
2.7664771387236216e6 -394534.6635645159 0.0
0.0 0.0 0.0

-38774.78058934406 3.3383662450134987e6 0.0
3.3383662450134987e6 -250706.34894043003 0.0
0.0 0.0 0.0

-197268.68208910566 587932.7002789497 0.0
587932.7002789497 -143968.87394740936 0.0
0.0 0.0 0.0

-230529.74682182708 1.1227688417626761e6 0.0
1.1227688417626761e6 -390503.0728371649 0.0
0.0 0.0 0.0

-406499.209911455 28944.444489135167 0.0
28944.444489135167 373724.1751272277 0.0
0.0 0.0 0.0

-16801.781304859822 755564.7916759041 0.0
755564.7916759041 36217.21722329367 0.0
0.0 0.0 0.0

-538910.42860672 48873.62360964045 0.0
48873.62360964045 593284.3211594411 0.0
0.0 0.0 0.0

-111946.27768735265 45596.74889229604 0.0
45596.74889229604 74424.62418691014 0.0
0.0 0.0 0.0

-205564.16152125684 842063.1313925801 0.0
842063.1313925801 578219.747569361 0.0
0.0 0.0 0.0

-237159.09244609793 3.683070918805018e6 0.0
3.683070918805018e6 -306407.0243952818 0.0
0.0 0.0 0.0

-247869.35069791274 2.1654431883429065e6 0.0
2.1654431883429065e6 -525283.9139623092 0.0
0.0 0.0 0.0

-698531.8786097898 35729.91390666906 0.0
35729.91390666906 750194.2987192054 0.0
0.0 0.0 0.0

-162028.61649591374 3.034289926574568e6 0.0
3.034289926574568e6 -102491.08526653047 0.0
0.0 0.0 0.0

-164700.19778911263 430026.90168927464 0.0
430026.90168927464 -326831.5812377145 0.0
0.0 0.0 0.0

-151613.0910914707 59340.4295537741 0.0
59340.4295537741 -112959.94177257978 0.0
0.0 0.0 0.0

-169191.137661793 1.350870639073737e6 0.0
1.350870639073737e6 -448943.82794944244 0.0
0.0 0.0 0.0

207226.39828136296 698179.0329532919 0.0
698179.0329532919 -314845.23787845473 0.0
0.0 0.0 0.0

-196360.39229903108 611994.7021583108 0.0
611994.7021583108 -35441.99393586027 0.0
0.0 0.0 0.0

225796.1396061181 2.174670770635021e6 0.0
2.174670770635021e6 -273000.30830411555 0.0
0.0 0.0 0.0

-1.8462728251086646e6 745849.2742165613 0.0
745849.2742165613 3.136018030455349e6 0.0
0.0 0.0 0.0

-207364.6275557523 1.3219077416525534e6 0.0
1.3219077416525534e6 227282.01586709695 0.0
0.0 0.0 0.0

-178896.45831026573 156468.1831687537 0.0
156468.1831687537 48208.38460978127 0.0
0.0 0.0 0.0

326614.70482366043 797904.4457550952 0.0
797904.4457550952 -300308.79202553025 0.0
0.0 0.0 0.0

-170896.00212682982 1.1961785932175878e6 0.0
1.1961785932175878e6 -277765.5658247982 0.0
0.0 0.0 0.0

196569.09983704716 2.438824718871747e6 0.0
2.438824718871747e6 -143776.0090929831 0.0
0.0 0.0 0.0

-285875.89111570123 950254.3711153464 0.0
950254.3711153464 122838.36563964769 0.0
0.0 0.0 0.0

-132088.63954379395 3.049007560191699e6 0.0
3.049007560191699e6 -77339.11749366147 0.0
0.0 0.0 0.0

130517.33038286811 1.3108846605619206e6 0.0
1.3108846605619206e6 -231255.7632888779 0.0
0.0 0.0 0.0

-168293.84792084515 1.0658144987278755e6 0.0
1.0658144987278755e6 -292138.62700055254 0.0
0.0 0.0 0.0

-212629.44497386657 625885.717226166 0.0
625885.717226166 -59421.56153904779 0.0
0.0 0.0 0.0

-182684.1684995191 90300.47250981988 0.0
90300.47250981988 123653.29728340964 0.0
0.0 0.0 0.0

46058.14169089864 558208.7668612615 0.0
558208.7668612615 -184944.9921680265 0.0
0.0 0.0 0.0

-194136.2270310091 2.313195295793649e6 0.0
2.313195295793649e6 -309123.14707516955 0.0
0.0 0.0 0.0

382272.0997640223 1.0262300863717217e6 0.0
1.0262300863717217e6 -97656.79574578672 0.0
0.0 0.0 0.0

-241265.9856676218 882192.9053330347 0.0
882192.9053330347 -86311.02235605221 0.0
0.0 0.0 0.0

-196255.2253024019 43338.00679587296 0.0
43338.00679587296 -95232.5567604687 0.0
0.0 0.0 0.0

-66707.91573835218 3.29459470295067e6 0.0
3.29459470295067e6 -23452.31024659718 0.0
0.0 0.0 0.0

-1.0988986452616628e6 39293.08115030373 0.0
39293.08115030373 996429.7726577746 0.0
0.0 0.0 0.0

-171506.12319500285 -125648.05803928155 0.0
-125648.05803928155 -52313.548923668444 0.0
0.0 0.0 0.0

277028.3892710987 572829.439590589 0.0
572829.439590589 -539136.6862748065 0.0
0.0 0.0 0.0

65228.422444197146 1.5716766374700272e6 0.0
1.5716766374700272e6 -131309.20036818075 0.0
0.0 0.0 0.0

-76495.56563343138 2.982805981463934e6 0.0
2.982805981463934e6 -391854.2097352503 0.0
0.0 0.0 0.0

222116.33166586183 1.5713171488610294e6 0.0
1.5713171488610294e6 -317357.11054308136 0.0
0.0 0.0 0.0

-117337.37682135506 -213500.64045374046 0.0
-213500.64045374046 -2492.340073753803 0.0
0.0 0.0 0.0

420317.91574121686 505008.4260575563 0.0
505008.4260575563 -424617.7141350607 0.0
0.0 0.0 0.0

-314742.8006851228 1.8574075623011726e6 0.0
1.8574075623011726e6 8457.90600125007 0.0
0.0 0.0 0.0

-183442.18613446248 -539127.6730846119 0.0
-539127.6730846119 117511.56923499395 0.0
0.0 0.0 0.0

-79126.6636041372 2.2817825186464125e6 0.0
2.2817825186464125e6 -499810.701906089 0.0
0.0 0.0 0.0

-216276.95813571996 2.993232339793501e6 0.0
2.993232339793501e6 -16031.020360798051 0.0
0.0 0.0 0.0

5271.672117278689 1.6205255859827858e6 0.0
1.6205255859827858e6 -80956.13861210001 0.0
0.0 0.0 0.0

42805.08057268365 3.5211435444031754e6 0.0
3.5211435444031754e6 -113963.30508902331 0.0
0.0 0.0 0.0

954900.502498343 440048.4223070122 0.0
440048.4223070122 -1.2443979112078832e6 0.0
0.0 0.0 0.0

-485447.0957255789 346443.6039229861 0.0
346443.6039229861 532329.1506770955 0.0
0.0 0.0 0.0

-347113.6871676159 1.3157287473125919e6 0.0
1.3157287473125919e6 39669.10629791232 0.0
0.0 0.0 0.0

341160.2653256716 1.3855410185494695e6 0.0
1.3855410185494695e6 10875.07255340599 0.0
0.0 0.0 0.0

-182134.51574788062 3765.9459576730287 0.0
3765.9459576730287 36828.681864188155 0.0
0.0 0.0 0.0

-224239.62994996476 1.8161833367986209e6 0.0
1.8161833367986209e6 -458294.80655652547 0.0
0.0 0.0 0.0

-307919.8374250561 1.074220929693023e6 0.0
1.074220929693023e6 200893.6362408102 0.0
0.0 0.0 0.0

-124264.69472098097 20603.42652660962 0.0
20603.42652660962 122402.67158792248 0.0
0.0 0.0 0.0

-379050.65639928856 246686.41493636247 0.0
246686.41493636247 221424.3247687112 0.0
0.0 0.0 0.0

-176025.70345769238 2.6187968441598546e6 0.0
2.6187968441598546e6 -38389.916547915935 0.0
0.0 0.0 0.0

207794.88558760102 2.670256465594302e6 0.0
2.670256465594302e6 -394184.73686377256 0.0
0.0 0.0 0.0

-230478.0209138114 906823.289914753 0.0
906823.289914753 327796.35473782016 0.0
0.0 0.0 0.0

-233445.95213974646 1.2438795154857163e6 0.0
1.2438795154857163e6 -359039.53408167115 0.0
0.0 0.0 0.0

-66395.89373880881 3.3463595367976106e6 0.0
3.3463595367976106e6 -393147.00028666673 0.0
0.0 0.0 0.0

218259.90015271626 704139.7841316655 0.0
704139.7841316655 -422293.8189305597 0.0
0.0 0.0 0.0

3192.7208335599753 3.9092393348483294e6 0.0
3.9092393348483294e6 -88700.34787954985 0.0
0.0 0.0 0.0

444892.3757705455 519916.9920080454 0.0
519916.9920080454 -841295.535373279 0.0
0.0 0.0 0.0

-194681.65437698067 75552.99088003863 0.0
75552.99088003863 153780.26981601544 0.0
0.0 0.0 0.0

92682.34321758058 1.0401154033650644e6 0.0
1.0401154033650644e6 1.4495677077357587e6 0.0
0.0 0.0 0.0

-270545.3713369787 1.0077355739295963e6 0.0
1.0077355739295963e6 186194.4597008457 0.0
0.0 0.0 0.0

-183251.87250082352 1.7077644141862728e6 0.0
1.7077644141862728e6 -356808.7460861893 0.0
0.0 0.0 0.0

79078.8388408956 2.2489594735229174e6 0.0
2.2489594735229174e6 -130840.309022272 0.0
0.0 0.0 0.0

-162135.01754065018 3.049494377434867e6 0.0
3.049494377434867e6 -75817.831636825 0.0
0.0 0.0 0.0

-77521.35139030092 -111828.75697306707 0.0
-111828.75697306707 125386.77609633983 0.0
0.0 0.0 0.0

119113.77509040311 1.405033343008258e6 0.0
1.405033343008258e6 -216977.4123363707 0.0
0.0 0.0 0.0

348119.45162868965 1.4319594763887778e6 0.0
1.4319594763887778e6 -290211.78746229986 0.0
0.0 0.0 0.0

332563.26699904155 1.6706788658279004e6 0.0
1.6706788658279004e6 -300635.2071631786 0.0
0.0 0.0 0.0

-276057.7186425661 3.223999664818941e6 0.0
3.223999664818941e6 -488400.643323938 0.0
0.0 0.0 0.0

84934.22288656869 4.0965982870804877e6 0.0
4.0965982870804877e6 -242116.56786906352 0.0
0.0 0.0 0.0

58002.97671120502 2.4477166269186116e6 0.0
2.4477166269186116e6 -240208.94005275547 0.0
0.0 0.0 0.0

-19015.618739259888 485924.2704155754 0.0
485924.2704155754 -78805.26792828631 0.0
0.0 0.0 0.0

344850.0726303199 1.182705803778449e6 0.0
1.182705803778449e6 -261102.16447831676 0.0
0.0 0.0 0.0

866378.3286483021 302856.7210636921 0.0
302856.7210636921 -1.28388092380221e6 0.0
0.0 0.0 0.0

-185609.38057069317 -47340.08175035196 0.0
-47340.08175035196 295490.93838972587 0.0
0.0 0.0 0.0

-254471.17677459013 879874.3977544766 0.0
879874.3977544766 -33268.39322384055 0.0
0.0 0.0 0.0

908599.5521791042 150855.21899297234 0.0
150855.21899297234 -1.3930184883313335e6 0.0
0.0 0.0 0.0

-17885.3824486069 1.1031516251888156e6 0.0
1.1031516251888156e6 -76697.17435262538 0.0
0.0 0.0 0.0

-246351.12545089782 3.065221901557112e6 0.0
3.065221901557112e6 -374040.3301611609 0.0
0.0 0.0 0.0

-1.2602269719780243e6 202906.1227558076 0.0
202906.1227558076 1.5023391769102858e6 0.0
0.0 0.0 0.0

-259170.12683053612 697126.9164843239 0.0
697126.9164843239 171506.06344752313 0.0
0.0 0.0 0.0

-43497.81907368303 -73155.40338092571 0.0
-73155.40338092571 -77341.77386666983 0.0
0.0 0.0 0.0

-364532.0394575644 529548.9195984415 0.0
529548.9195984415 258426.53559420683 0.0
0.0 0.0 0.0

442461.5088701885 461866.5530514816 0.0
461866.5530514816 -458258.501295722 0.0
0.0 0.0 0.0

320483.6236417025 985718.4866214151 0.0
985718.4866214151 -288279.5201979593 0.0
0.0 0.0 0.0

-36930.83483466541 3.1538164462289046e6 0.0
3.1538164462289046e6 891906.5143454189 0.0
0.0 0.0 0.0

-76417.68004674037 156729.73853581204 0.0
156729.73853581204 -241724.32611898394 0.0
0.0 0.0 0.0

-216026.3399327491 60080.25259998208 0.0
60080.25259998208 191991.09647820453 0.0
0.0 0.0 0.0

155538.2215033237 2.1286276926820027e6 0.0
2.1286276926820027e6 -345129.7762907521 0.0
0.0 0.0 0.0

307230.42933135224 1.9187694144569018e6 0.0
1.9187694144569018e6 -338501.38747434266 0.0
0.0 0.0 0.0

57198.62477735115 32576.72068577605 0.0
32576.72068577605 -41146.15730967696 0.0
0.0 0.0 0.0

132884.27205292438 473531.6060657749 0.0
473531.6060657749 -191780.8805872073 0.0
0.0 0.0 0.0

-297677.7695399434 1.0805047039981617e6 0.0
1.0805047039981617e6 188054.99317132193 0.0
0.0 0.0 0.0

-179988.48280747476 502475.40073670336 0.0
502475.40073670336 -147706.27616988472 0.0
0.0 0.0 0.0

-329226.9748376935 1.184209738306636e6 0.0
1.184209738306636e6 138549.57840142865 0.0
0.0 0.0 0.0

385832.976498739 753640.5087723108 0.0
753640.5087723108 -233073.75025306037 0.0
0.0 0.0 0.0

-223689.19584731726 695560.8336310141 0.0
695560.8336310141 -50877.12040816941 0.0
0.0 0.0 0.0

-204042.44279820815 32091.915246534525 0.0
32091.915246534525 239964.7361357152 0.0
0.0 0.0 0.0

-1.2315779260026366e6 -3646.398083652358 0.0
-3646.398083652358 1.3104980412159632e6 0.0
0.0 0.0 0.0

-266568.79161809 921711.4652705931 0.0
921711.4652705931 5591.98359654106 0.0
0.0 0.0 0.0

-321589.1316244114 572083.852996498 0.0
572083.852996498 227061.79271098867 0.0
0.0 0.0 0.0

-125491.2001879715 4.0003687857694807e6 0.0
4.0003687857694807e6 -98626.44278037158 0.0
0.0 0.0 0.0

-67159.57321475312 952585.2080887797 0.0
952585.2080887797 125918.6079986562 0.0
0.0 0.0 0.0

-105093.2336056102 257423.0606313171 0.0
257423.0606313171 -224607.91819711548 0.0
0.0 0.0 0.0

-110499.03104235388 905643.2294277172 0.0
905643.2294277172 188069.5756997646 0.0
0.0 0.0 0.0

-18567.745304522265 1.138042244463836e6 0.0
1.138042244463836e6 -6125.918775635567 0.0
0.0 0.0 0.0

310996.7281198025 900448.4758739015 0.0
900448.4758739015 98948.2973313379 0.0
0.0 0.0 0.0

-299713.667491216 618056.7250090276 0.0
618056.7250090276 203329.93326714807 0.0
0.0 0.0 0.0

-219116.4641209749 3.601741491749756e6 0.0
3.601741491749756e6 -318859.78052084823 0.0
0.0 0.0 0.0

1.0240275146310787e6 275181.4431263963 0.0
275181.4431263963 -1.3579735199083993e6 0.0
0.0 0.0 0.0

-1.0012711203905784e6 -61094.90204348169 0.0
-61094.90204348169 997969.6161463525 0.0
0.0 0.0 0.0

287883.8623123368 1.7767759889805373e6 0.0
1.7767759889805373e6 -39071.31306643368 0.0
0.0 0.0 0.0

691311.493950739 275567.5396650968 0.0
275567.5396650968 -1.0728553045391284e6 0.0
0.0 0.0 0.0

219.17178215007516 1.1031512393233713e6 0.0
1.1031512393233713e6 -96915.89049301614 0.0
0.0 0.0 0.0

494581.9687566047 443957.0821885833 0.0
443957.0821885833 -969299.6457600516 0.0
0.0 0.0 0.0

-25170.25533401916 3.566724638424346e6 0.0
3.566724638424346e6 -54848.11247971011 0.0
0.0 0.0 0.0

-1.0661864183589208e6 581171.4415492574 0.0
581171.4415492574 1.9143788853060033e6 0.0
0.0 0.0 0.0

-857857.0817136157 -48314.89060124609 0.0
-48314.89060124609 841363.5511593509 0.0
0.0 0.0 0.0

-217699.61121239723 3.6687440334199183e6 0.0
3.6687440334199183e6 -282911.5336631002 0.0
0.0 0.0 0.0

675296.4441668125 287040.6115310418 0.0
287040.6115310418 -1.1028121173687498e6 0.0
0.0 0.0 0.0

-251122.4895453479 1.083485859462076e6 0.0
1.083485859462076e6 -159549.00908426792 0.0
0.0 0.0 0.0

-247260.89189107096 835676.5468345088 0.0
835676.5468345088 -83221.63559737403 0.0
0.0 0.0 0.0

-140317.06990852865 85982.0213960542 0.0
85982.0213960542 97640.61386057195 0.0
0.0 0.0 0.0

13626.93866804224 3.940970478762159e6 0.0
3.940970478762159e6 -88210.78278224333 0.0
0.0 0.0 0.0

-13856.892024219178 1.2832115205593456e6 0.0
1.2832115205593456e6 -65598.14588353828 0.0
0.0 0.0 0.0

-213612.71134577674 2.21002672552037e6 0.0
2.21002672552037e6 -2140.4747706748312 0.0
0.0 0.0 0.0

1.198162391677306e6 206139.78423040142 0.0
206139.78423040142 -1.444251923922102e6 0.0
0.0 0.0 0.0

-242179.27191603184 784836.8914047851 0.0
784836.8914047851 -48560.51665799029 0.0
0.0 0.0 0.0

-12540.183875185568 2.9968943092799108e6 0.0
2.9968943092799108e6 -392677.78617183544 0.0
0.0 0.0 0.0

-122733.50342996982 161616.5591210239 0.0
161616.5591210239 -292536.00637718634 0.0
0.0 0.0 0.0

-150373.02304116922 1.4322644206583917e6 0.0
1.4322644206583917e6 -327452.95100431726 0.0
0.0 0.0 0.0

-359683.8576791403 -14522.655858249773 0.0
-14522.655858249773 519707.1602522222 0.0
0.0 0.0 0.0

-24319.62841913956 1.2513666232530824e6 0.0
1.2513666232530824e6 -108010.65657747079 0.0
0.0 0.0 0.0

-449933.01541483874 76225.45983817782 0.0
76225.45983817782 492255.0971985959 0.0
0.0 0.0 0.0

-141348.75003054485 3.3279543349197004e6 0.0
3.3279543349197004e6 -399429.88128154294 0.0
0.0 0.0 0.0

-255909.26767502516 -143858.34041666298 0.0
-143858.34041666298 558338.6503988792 0.0
0.0 0.0 0.0

-302672.13751188276 1.1004022820864294e6 0.0
1.1004022820864294e6 206265.1038303855 0.0
0.0 0.0 0.0

-186136.85473164968 3.7801206007986143e6 0.0
3.7801206007986143e6 -117927.64914622625 0.0
0.0 0.0 0.0

252292.18654559905 1.3306062493647803e6 0.0
1.3306062493647803e6 -291578.79773637326 0.0
0.0 0.0 0.0

182479.9636690198 2.1450931387404315e6 0.0
2.1450931387404315e6 -141095.31168256636 0.0
0.0 0.0 0.0

-277007.52328118 950678.8375632559 0.0
950678.8375632559 46912.46628763025 0.0
0.0 0.0 0.0

-417781.1733310551 563088.2900538194 0.0
563088.2900538194 346750.5220023453 0.0
0.0 0.0 0.0

-323991.39683036355 1.805879476806492e6 0.0
1.805879476806492e6 129697.1608386503 0.0
0.0 0.0 0.0

688761.076957549 318367.64231089706 0.0
318367.64231089706 -1.152570552627282e6 0.0
0.0 0.0 0.0

-209617.37788957835 665738.6503406493 0.0
665738.6503406493 1253.7783626855817 0.0
0.0 0.0 0.0

-247938.24409457613 821492.3492070102 0.0
821492.3492070102 4632.430998841781 0.0
0.0 0.0 0.0

-183346.6924062203 111226.91576592128 0.0
111226.91576592128 118355.84258629795 0.0
0.0 0.0 0.0

78606.16171237457 3.6143613440575646e6 0.0
3.6143613440575646e6 -44599.897494063334 0.0
0.0 0.0 0.0

-209919.19300912524 3.018699363356654e6 0.0
3.018699363356654e6 -407632.73386946047 0.0
0.0 0.0 0.0

-243077.55753782613 291179.0404302545 0.0
291179.0404302545 57023.783803789236 0.0
0.0 0.0 0.0

141921.76702547068 2.0636349129375024e6 0.0
2.0636349129375024e6 -108058.1605726211 0.0
0.0 0.0 0.0

-3508.9055360531784 -180045.22734162695 0.0
-180045.22734162695 116906.69228008702 0.0
0.0 0.0 0.0

-299108.8907555086 1.0562158849193882e6 0.0
1.0562158849193882e6 47229.59556786883 0.0
0.0 0.0 0.0

-322552.5524181765 1.0799881990251804e6 0.0
1.0799881990251804e6 65936.81386541028 0.0
0.0 0.0 0.0

-187424.02587573498 3.2866747540878793e6 0.0
3.2866747540878793e6 -398266.7338785066 0.0
0.0 0.0 0.0

26827.079610003188 1.5482061101228548e6 0.0
1.5482061101228548e6 -64430.11096305894 0.0
0.0 0.0 0.0

99251.08004304414 4.1426685727836504e6 0.0
4.1426685727836504e6 -166549.0528954462 0.0
0.0 0.0 0.0

-94626.84368247853 1.1314719774596668e6 0.0
1.1314719774596668e6 187078.7704052183 0.0
0.0 0.0 0.0

176002.20140673936 581956.3108088127 0.0
581956.3108088127 -533936.2523353272 0.0
0.0 0.0 0.0

-106951.35241198944 2.546283110169961e6 0.0
2.546283110169961e6 -294181.7978863705 0.0
0.0 0.0 0.0

-145183.1620519615 46480.877571969 0.0
46480.877571969 167921.3408063674 0.0
0.0 0.0 0.0

-25642.68069884409 1.2021153684813385e6 0.0
1.2021153684813385e6 -28985.775444756 0.0
0.0 0.0 0.0

-93536.88136914474 1.1269842614926032e6 0.0
1.1269842614926032e6 84829.68828642217 0.0
0.0 0.0 0.0

-228607.5894515778 734039.4785766471 0.0
734039.4785766471 5283.974977451711 0.0
0.0 0.0 0.0

-231350.43446817127 -345.8644498270444 0.0
-345.8644498270444 288388.9818430514 0.0
0.0 0.0 0.0

-307770.58661618887 1.1161874872618178e6 0.0
1.1161874872618178e6 219428.83695664775 0.0
0.0 0.0 0.0

-284233.07151560386 1.0373583530154204e6 0.0
1.0373583530154204e6 6329.321944024399 0.0
0.0 0.0 0.0

-87828.88927997078 1.3469323036477484e6 0.0
1.3469323036477484e6 -96035.38685404786 0.0
0.0 0.0 0.0

-44445.33893396739 495814.8361583621 0.0
495814.8361583621 -148151.12322863578 0.0
0.0 0.0 0.0

-197074.55662581004 599558.610460663 0.0
599558.610460663 -328.49383111276256 0.0
0.0 0.0 0.0

-194927.8516082132 382756.74360995105 0.0
382756.74360995105 -36004.78159704369 0.0
0.0 0.0 0.0

254105.8321912192 806006.4051266849 0.0
806006.4051266849 172757.72704660657 0.0
0.0 0.0 0.0

-152789.08841680086 2.647751212824562e6 0.0
2.647751212824562e6 -20314.749251880337 0.0
0.0 0.0 0.0

-181358.6384170722 220365.7252310019 0.0
220365.7252310019 88099.4877638584 0.0
0.0 0.0 0.0

726789.9632187635 129487.88984946892 0.0
129487.88984946892 -1.1373643811269454e6 0.0
0.0 0.0 0.0

-145351.13372053186 3.0327714022640907e6 0.0
3.0327714022640907e6 -101165.80618366753 0.0
0.0 0.0 0.0

-230945.2918474168 770673.8883019041 0.0
770673.8883019041 -23599.046702300817 0.0
0.0 0.0 0.0

-302378.1287989246 -177080.85828483768 0.0
-177080.85828483768 675644.8652683117 0.0
0.0 0.0 0.0

208619.11099872203 1.954144752750526e6 0.0
1.954144752750526e6 -443574.8604269418 0.0
0.0 0.0 0.0

-178817.9358250798 2.9132530852874317e6 0.0
2.9132530852874317e6 683635.7281557819 0.0
0.0 0.0 0.0

1.0391565790163098e6 464028.11743916146 0.0
464028.11743916146 -1.3029193582292635e6 0.0
0.0 0.0 0.0

735558.5132596821 164524.5679129923 0.0
164524.5679129923 -1.2144922914430224e6 0.0
0.0 0.0 0.0

371995.3372270171 1.5332091571227375e6 0.0
1.5332091571227375e6 -232154.6408237921 0.0
0.0 0.0 0.0

-72841.10940966793 1.1561840975500753e6 0.0
1.1561840975500753e6 145614.10212664705 0.0
0.0 0.0 0.0

243058.50515079676 946886.5707978543 0.0
946886.5707978543 -406097.2367872554 0.0
0.0 0.0 0.0

-154402.089035469 2.318043474826071e6 0.0
2.318043474826071e6 -304710.2740054866 0.0
0.0 0.0 0.0

-158160.7035903543 163861.45554897838 0.0
163861.45554897838 -300992.43569928186 0.0
0.0 0.0 0.0

-20220.32348292815 718249.7757690576 0.0
718249.7757690576 163706.6984578563 0.0
0.0 0.0 0.0

-932782.0815908716 566285.6230576952 0.0
566285.6230576952 1.6771227407559187e6 0.0
0.0 0.0 0.0

850452.184499429 3.206237217129273e6 0.0
3.206237217129273e6 240419.33528987048 0.0
0.0 0.0 0.0

-448427.2853487925 1.385571748935437e6 0.0
1.385571748935437e6 212559.50366031178 0.0
0.0 0.0 0.0

-255931.35287933378 3.1045600054391483e6 0.0
3.1045600054391483e6 -442004.45211601816 0.0
0.0 0.0 0.0

-484267.97591388517 755692.3817164376 0.0
755692.3817164376 490108.7825701758 0.0
0.0 0.0 0.0

-214848.3144277766 3.5206177465581372e6 0.0
3.5206177465581372e6 -352743.8684419134 0.0
0.0 0.0 0.0

-262963.8370461159 876401.8188307778 0.0
876401.8188307778 -23797.431474037418 0.0
0.0 0.0 0.0

-228569.22245521768 2.5009823542073173e6 0.0
2.5009823542073173e6 -372759.5283912445 0.0
0.0 0.0 0.0

188791.36609120318 816197.73150873 0.0
816197.73150873 -351467.34853475454 0.0
0.0 0.0 0.0

533252.0587795582 184512.74210608838 0.0
184512.74210608838 -977053.5508440434 0.0
0.0 0.0 0.0

525958.369440554 434578.74258417863 0.0
434578.74258417863 -875808.1676611319 0.0
0.0 0.0 0.0

-84097.62931555272 1.016119594819959e6 0.0
1.016119594819959e6 218971.60945843437 0.0
0.0 0.0 0.0

514304.1249109019 315363.9393523433 0.0
315363.9393523433 -777748.4214474922 0.0
0.0 0.0 0.0

-123583.45994304003 3.4472532967345286e6 0.0
3.4472532967345286e6 -97057.73932465093 0.0
0.0 0.0 0.0

-105614.98615600464 3.519315290366711e6 0.0
3.519315290366711e6 -313350.13817338634 0.0
0.0 0.0 0.0

-237481.06972441904 981365.6198232129 0.0
981365.6198232129 -420694.0634998387 0.0
0.0 0.0 0.0

-167674.29343890608 493502.71999690967 0.0
493502.71999690967 -276276.6308816177 0.0
0.0 0.0 0.0

-269951.52220308525 319356.7420308748 0.0
319356.7420308748 93390.40965419804 0.0
0.0 0.0 0.0

377721.7793268245 1.3724056847773064e6 0.0
1.3724056847773064e6 -73678.174924644 0.0
0.0 0.0 0.0

-488616.55804321857 1.5226672591257188e6 0.0
1.5226672591257188e6 308437.3586661268 0.0
0.0 0.0 0.0

-312782.17079735687 1.125174548411706e6 0.0
1.125174548411706e6 248241.39760167967 0.0
0.0 0.0 0.0

-341309.72003945726 394927.33767514775 0.0
394927.33767514775 182050.12088655974 0.0
0.0 0.0 0.0

-52241.497104866976 282640.44170142483 0.0
282640.44170142483 -174138.30463047355 0.0
0.0 0.0 0.0

271189.7254879641 2.147656716154383e6 0.0
2.147656716154383e6 -363751.34436107776 0.0
0.0 0.0 0.0

501060.55861610855 380852.2212687098 0.0
380852.2212687098 -733403.6081116624 0.0
0.0 0.0 0.0

-196864.48389528366 979856.1246321601 0.0
979856.1246321601 241284.93404228688 0.0
0.0 0.0 0.0

-190094.50194679998 131148.46578421965 0.0
131148.46578421965 83280.94258833583 0.0
0.0 0.0 0.0

-15476.773734448137 4.1096491353727574e6 0.0
4.1096491353727574e6 -79679.35793166462 0.0
0.0 0.0 0.0

-1.467865041389782e6 -84540.87380826953 0.0
-84540.87380826953 1.5101345564853093e6 0.0
0.0 0.0 0.0

-206695.37863370922 3.585358764451358e6 0.0
3.585358764451358e6 -256446.2287401626 0.0
0.0 0.0 0.0

-183141.1991399682 -51855.4760825368 0.0
-51855.4760825368 176333.53781471157 0.0
0.0 0.0 0.0

-364289.3615428069 43375.77949377816 0.0
43375.77949377816 357484.76078345295 0.0
0.0 0.0 0.0

192085.9448650615 665385.2771853344 0.0
665385.2771853344 217757.42863531577 0.0
0.0 0.0 0.0

-1.3611360809126766e6 153284.82602750414 0.0
153284.82602750414 1.1758762332453257e6 0.0
0.0 0.0 0.0

392761.80998754944 482795.16874062933 0.0
482795.16874062933 -611698.1407559582 0.0
0.0 0.0 0.0

-167469.16763474268 2.589790824484747e6 0.0
2.589790824484747e6 -64321.65832411035 0.0
0.0 0.0 0.0

-259092.578236104 862693.292035938 0.0
862693.292035938 45648.284614854216 0.0
0.0 0.0 0.0

-179286.14557074825 1.3123587233036738e6 0.0
1.3123587233036738e6 -254128.86355640617 0.0
0.0 0.0 0.0

-240417.13327015296 790832.0366182681 0.0
790832.0366182681 99850.55484801439 0.0
0.0 0.0 0.0

-209601.92711904418 514637.77782336186 0.0
514637.77782336186 72346.55293285195 0.0
0.0 0.0 0.0

-201018.3735691856 1.9288626397293294e6 0.0
1.9288626397293294e6 -223999.77090338734 0.0
0.0 0.0 0.0

73530.2284007321 4.161946932013313e6 0.0
4.161946932013313e6 -133728.45428099512 0.0
0.0 0.0 0.0

-208752.01660865778 1.9293464191379733e6 0.0
1.9293464191379733e6 -297282.6479750265 0.0
0.0 0.0 0.0

-239862.8469089354 3.2940036193207367e6 0.0
3.2940036193207367e6 -380296.61648384173 0.0
0.0 0.0 0.0

-18014.008543272714 1.1540448416097392e6 0.0
1.1540448416097392e6 -1455.7778123477583 0.0
0.0 0.0 0.0

-217889.70492225848 1.0335225700418195e6 0.0
1.0335225700418195e6 -250246.1678880086 0.0
0.0 0.0 0.0

128354.61221028866 4.1099959805152584e6 0.0
4.1099959805152584e6 -217136.5094895649 0.0
0.0 0.0 0.0

-339038.3242160579 -187264.44351838203 0.0
-187264.44351838203 793258.4202082267 0.0
0.0 0.0 0.0

938800.4418612067 172304.59194151877 0.0
172304.59194151877 -1.3589622367189606e6 0.0
0.0 0.0 0.0

-692479.6375117879 -47507.518724843576 0.0
-47507.518724843576 807216.6595773969 0.0
0.0 0.0 0.0

-202244.06018627025 153982.6344284353 0.0
153982.6344284353 -307285.51428308076 0.0
0.0 0.0 0.0

-149200.71515291883 2.332231995789801e6 0.0
2.332231995789801e6 -347573.9837799155 0.0
0.0 0.0 0.0

-318308.0714485509 5129.550737495756 0.0
5129.550737495756 374916.16904825345 0.0
0.0 0.0 0.0

94823.61973805379 1.07789402387665e6 0.0
1.07789402387665e6 312190.37123140955 0.0
0.0 0.0 0.0

115304.96704571685 1.4964054677662381e6 0.0
1.4964054677662381e6 -200085.51556451438 0.0
0.0 0.0 0.0

-274745.1217058038 40005.50764575103 0.0
40005.50764575103 -356612.0993564082 0.0
0.0 0.0 0.0

-395148.384503283 2.674104637371294e6 0.0
2.674104637371294e6 508223.0216827957 0.0
0.0 0.0 0.0

129495.99759232861 2.4067798777994094e6 0.0
2.4067798777994094e6 151448.3117574323 0.0
0.0 0.0 0.0

-252103.2926873448 -27754.862843039566 0.0
-27754.862843039566 -336581.85632707784 0.0
0.0 0.0 0.0

-73541.46417858948 171475.85234942648 0.0
171475.85234942648 -58331.1042969337 0.0
0.0 0.0 0.0

-382399.52325558907 49858.40991452711 0.0
49858.40991452711 679798.7263854814 0.0
0.0 0.0 0.0

-328812.4141929145 99083.5878012598 0.0
99083.5878012598 330889.194776364 0.0
0.0 0.0 0.0

-147224.17499515117 171467.81383194192 0.0
171467.81383194192 -260547.45298053353 0.0
0.0 0.0 0.0

-563475.8976175798 1.3656543560747004e6 0.0
1.3656543560747004e6 409656.5855906892 0.0
0.0 0.0 0.0

2286.6941948649473 4.1336907239932073e6 0.0
4.1336907239932073e6 -88814.03096686625 0.0
0.0 0.0 0.0

625308.9027127286 283314.5817731516 0.0
283314.5817731516 -917617.8410545972 0.0
0.0 0.0 0.0

-161794.03115230508 3.816921708676982e6 0.0
3.816921708676982e6 -273433.5039620297 0.0
0.0 0.0 0.0

621544.831258978 252328.57334763109 0.0
252328.57334763109 -1.0888202975935556e6 0.0
0.0 0.0 0.0

-187765.8980407741 1.7964797798560574e6 0.0
1.7964797798560574e6 -315389.1079596204 0.0
0.0 0.0 0.0

-150263.43476188922 888141.8460856448 0.0
888141.8460856448 165422.58128617646 0.0
0.0 0.0 0.0

55084.92673903689 4.163537960028515e6 0.0
4.163537960028515e6 -110474.99915544764 0.0
0.0 0.0 0.0

-198721.62820904807 1.5320113484426874e6 0.0
1.5320113484426874e6 -247075.4850105432 0.0
0.0 0.0 0.0

211421.61606225302 1.6104045979017776e6 0.0
1.6104045979017776e6 68018.05229998629 0.0
0.0 0.0 0.0

-142040.58507056584 707683.6551954035 0.0
707683.6551954035 -284192.98433949496 0.0
0.0 0.0 0.0

-332864.2020551648 1.1327411324424518e6 0.0
1.1327411324424518e6 282359.5294456034 0.0
0.0 0.0 0.0

-183795.13213225274 538823.1576771515 0.0
538823.1576771515 -307729.8003587985 0.0
0.0 0.0 0.0

281589.7837443291 3.8155572826074255e6 0.0
3.8155572826074255e6 -32815.108660676764 0.0
0.0 0.0 0.0

-163228.30169953883 1.7678784946195886e6 0.0
1.7678784946195886e6 -264935.2050159306 0.0
0.0 0.0 0.0

40139.75545219163 635618.5249326258 0.0
635618.5249326258 427236.32927929313 0.0
0.0 0.0 0.0

-22895.03655583076 1.1620842012932715e6 0.0
1.1620842012932715e6 11193.54778083402 0.0
0.0 0.0 0.0

-283441.0476494198 1.8470176579944573e6 0.0
1.8470176579944573e6 24643.746128719635 0.0
0.0 0.0 0.0

39432.11519161551 1.1698446017653446e6 0.0
1.1698446017653446e6 -184394.03940467827 0.0
0.0 0.0 0.0

386048.1940592566 505992.89228090824 0.0
505992.89228090824 -762781.6179457537 0.0
0.0 0.0 0.0

-775934.9026270005 409650.3109823407 0.0
409650.3109823407 1.1678490101990164e6 0.0
0.0 0.0 0.0

-133586.1509534579 2.627198765830497e6 0.0
2.627198765830497e6 -542976.8422421936 0.0
0.0 0.0 0.0

-249430.57720285002 114920.6119236264 0.0
114920.6119236264 225088.5270259477 0.0
0.0 0.0 0.0

324251.44253387506 678274.5128423871 0.0
678274.5128423871 -384042.8718860771 0.0
0.0 0.0 0.0

-237302.3474282368 805601.9820600931 0.0
805601.9820600931 -449044.63828990253 0.0
0.0 0.0 0.0

-66148.47719346022 317574.4204704656 0.0
317574.4204704656 114979.47803314243 0.0
0.0 0.0 0.0

-244790.7448519538 919603.6280680527 0.0
919603.6280680527 -194370.000759307 0.0
0.0 0.0 0.0

-280890.61618500174 1.0618792076092781e6 0.0
1.0618792076092781e6 36951.228058530294 0.0
0.0 0.0 0.0

6647.677405441282 3.5821145963431527e6 0.0
3.5821145963431527e6 -51549.39218775562 0.0
0.0 0.0 0.0

-185292.92423999374 1.8682920012495697e6 0.0
1.8682920012495697e6 -267031.54784193623 0.0
0.0 0.0 0.0

22455.324149806518 822351.6315767028 0.0
822351.6315767028 356244.4878123901 0.0
0.0 0.0 0.0

31459.428124668113 4.1471025720446967e6 0.0
4.1471025720446967e6 -98868.23882240446 0.0
0.0 0.0 0.0

-196237.14697857708 151426.47211692 0.0
151426.47211692 110657.81436354521 0.0
0.0 0.0 0.0

778299.2311477326 313778.4375788712 0.0
313778.4375788712 -1.2206846749187466e6 0.0
0.0 0.0 0.0

-201893.6997229663 1.2295190196319027e6 0.0
1.2295190196319027e6 275093.2095261774 0.0
0.0 0.0 0.0

-282924.501720192 1.0103170176616526e6 0.0
1.0103170176616526e6 146232.3666271951 0.0
0.0 0.0 0.0

46962.54294683407 648116.2511860852 0.0
648116.2511860852 -98903.7197962079 0.0
0.0 0.0 0.0

-799644.57692015 566850.6028867419 0.0
566850.6028867419 1.460400270897402e6 0.0
0.0 0.0 0.0

-36806.862484713085 722450.7879837438 0.0
722450.7879837438 -122689.55083992169 0.0
0.0 0.0 0.0

-265384.15354287357 2.9287036372699174e6 0.0
2.9287036372699174e6 -539956.8115517542 0.0
0.0 0.0 0.0

-35266.95097643916 877435.6512902637 0.0
877435.6512902637 79737.8988874373 0.0
0.0 0.0 0.0

-477978.1606244136 2.611152677293645e6 0.0
2.611152677293645e6 447085.3153523229 0.0
0.0 0.0 0.0

2817.0303920801525 1.2120768146294071e6 0.0
1.2120768146294071e6 -85015.34996989221 0.0
0.0 0.0 0.0

2.638962158997123e6 1.634715769482195e6 0.0
1.634715769482195e6 -724557.9141577166 0.0
0.0 0.0 0.0

-171323.73070240978 1.4854718652059846e6 0.0
1.4854718652059846e6 -421954.9226015951 0.0
0.0 0.0 0.0

-265781.8894339829 1.1011200482902823e6 0.0
1.1011200482902823e6 -189951.669685124 0.0
0.0 0.0 0.0

146354.12773345603 2.1789596394649134e6 0.0
2.1789596394649134e6 -447442.6572196337 0.0
0.0 0.0 0.0

36784.330527109676 3.615093416099724e6 0.0
3.615093416099724e6 -54469.17617808265 0.0
0.0 0.0 0.0

830830.3817681631 237084.16858876482 0.0
237084.16858876482 -1.2482247348670857e6 0.0
0.0 0.0 0.0

-156443.43698726757 966208.7785747045 0.0
966208.7785747045 -351498.3262137701 0.0
0.0 0.0 0.0

307946.99816233374 1.478370651807393e6 0.0
1.478370651807393e6 -405004.07584127196 0.0
0.0 0.0 0.0

-257270.06459020512 753419.9637893519 0.0
753419.9637893519 209395.38574298506 0.0
0.0 0.0 0.0

-202860.30758226605 1.9844552149305926e6 0.0
1.9844552149305926e6 -181398.93817460196 0.0
0.0 0.0 0.0

-114295.47326749444 713079.5184222705 0.0
713079.5184222705 -160581.11563847965 0.0
0.0 0.0 0.0

-161872.4730314348 910576.2513045364 0.0
910576.2513045364 -299594.6285041747 0.0
0.0 0.0 0.0

-175031.11519542342 1.9132687138702872e6 0.0
1.9132687138702872e6 -197953.94970159713 0.0
0.0 0.0 0.0

-11885.52377065286 1.4162106327433332e6 0.0
1.4162106327433332e6 -103424.82017322509 0.0
0.0 0.0 0.0

-476706.5692781975 2.5541207125883684e6 0.0
2.5541207125883684e6 409713.96014433925 0.0
0.0 0.0 0.0

-178580.53810809046 1.9707923411797897e6 0.0
1.9707923411797897e6 -158696.07061728716 0.0
0.0 0.0 0.0

-40209.38356571384 -267232.9658912118 0.0
-267232.9658912118 377557.4478842042 0.0
0.0 0.0 0.0

1.2905978133384993e6 1.1680602417836466e6 0.0
1.1680602417836466e6 -399349.3214465243 0.0
0.0 0.0 0.0

778279.6467605256 444815.30921393266 0.0
444815.30921393266 -1.2008983340700779e6 0.0
0.0 0.0 0.0

-331174.5517554031 1.1816678558036177e6 0.0
1.1816678558036177e6 67767.35149257597 0.0
0.0 0.0 0.0

-43722.59504751892 -160618.58489849896 0.0
-160618.58489849896 257780.44721180672 0.0
0.0 0.0 0.0

-162260.36148996066 2.0742079429950507e6 0.0
2.0742079429950507e6 -443218.0982418232 0.0
0.0 0.0 0.0

-251479.83545197308 2.6973355361158834e6 0.0
2.6973355361158834e6 -556267.4839662524 0.0
0.0 0.0 0.0

-447897.91726551054 2.4664099884019652e6 0.0
2.4664099884019652e6 290175.9679545561 0.0
0.0 0.0 0.0

376796.1085893343 387762.9595533005 0.0
387762.9595533005 -774183.7032450404 0.0
0.0 0.0 0.0

-163185.3391056638 55396.249867510385 0.0
55396.249867510385 104286.22137945611 0.0
0.0 0.0 0.0

1632.170410809871 1.1637444325663962e6 0.0
1.1637444325663962e6 -68195.61582118204 0.0
0.0 0.0 0.0

-177119.94381916174 -62710.16384762538 0.0
-62710.16384762538 330549.62142079754 0.0
0.0 0.0 0.0

-221223.60422965663 3.5452608559003873e6 0.0
3.5452608559003873e6 -302851.8359504462 0.0
0.0 0.0 0.0

-264646.63219416334 1.3501542100313355e6 0.0
1.3501542100313355e6 -141453.81540484406 0.0
0.0 0.0 0.0

228147.53844309264 1.4106155875594965e6 0.0
1.4106155875594965e6 -405277.4398709087 0.0
0.0 0.0 0.0

-526592.0756457114 2.409170095989752e6 0.0
2.409170095989752e6 242314.3779289171 0.0
0.0 0.0 0.0

-244888.22615617822 783082.725903987 0.0
783082.725903987 200807.93336541066 0.0
0.0 0.0 0.0

-183595.54961205783 2.0233180615678206e6 0.0
2.0233180615678206e6 -121573.45469816396 0.0
0.0 0.0 0.0

727026.5361400617 241973.23939109166 0.0
241973.23939109166 -1.1814404737668487e6 0.0
0.0 0.0 0.0

-27625.295776234987 -49525.27114698685 0.0
-49525.27114698685 -42030.23055215552 0.0
0.0 0.0 0.0

-524936.2346448911 2.356288034961633e6 0.0
2.356288034961633e6 206960.11776626937 0.0
0.0 0.0 0.0

890541.615084458 441462.34210049215 0.0
441462.34210049215 -1.229092151659723e6 0.0
0.0 0.0 0.0

-465988.92172120477 2.336747043304805e6 0.0
2.336747043304805e6 176605.15222397618 0.0
0.0 0.0 0.0

-450084.3894500608 2.295256727899487e6 0.0
2.295256727899487e6 141409.04254394 0.0
0.0 0.0 0.0

-351422.3588011773 1.909405514173531e6 0.0
1.909405514173531e6 50757.313763079655 0.0
0.0 0.0 0.0

-378139.2180342974 1.9297692953212957e6 0.0
1.9297692953212957e6 55855.11911882552 0.0
0.0 0.0 0.0

-399062.4562185634 1.9620464336701524e6 0.0
1.9620464336701524e6 50923.440989147726 0.0
0.0 0.0 0.0

-409398.8545276833 2.001896445701597e6 0.0
2.001896445701597e6 65916.84518466945 0.0
0.0 0.0 0.0

-426781.49509608577 2.0456729097890693e6 0.0
2.0456729097890693e6 55061.14460760084 0.0
0.0 0.0 0.0

-440253.34260293597 2.107613424279903e6 0.0
2.107613424279903e6 32018.79258237357 0.0
0.0 0.0 0.0

-84897.43645127927 179081.50250246277 0.0
179081.50250246277 -189303.62483437432 0.0
0.0 0.0 0.0

-462287.90111149056 2.188273990077102e6 0.0
2.188273990077102e6 76604.28123677633 0.0
0.0 0.0 0.0

-433526.36525396793 2.1785639423910063e6 0.0
2.1785639423910063e6 92271.83229469106 0.0
0.0 0.0 0.0

-220709.6879847644 297101.91498587985 0.0
297101.91498587985 128584.06745526502 0.0
0.0 0.0 0.0

-442913.02880980633 2.255622005181304e6 0.0
2.255622005181304e6 137638.79140310994 0.0
0.0 0.0 0.0

-455566.7526476389 2.1956753599217907e6 0.0
2.1956753599217907e6 84682.76775303084 0.0
0.0 0.0 0.0

-471739.87564399274 2.225693526389275e6 0.0
2.225693526389275e6 89771.4539959631 0.0
0.0 0.0 0.0

-410904.7419152637 2.2115049271870106e6 0.0
2.2115049271870106e6 109454.61896218677 0.0
0.0 0.0 0.0

-151810.4663390796 1.6701561177545646e6 0.0
1.6701561177545646e6 -291548.8020237647 0.0
0.0 0.0 0.0

-469718.17951011285 2.273476742392877e6 0.0
2.273476742392877e6 107395.82148100814 0.0
0.0 0.0 0.0

-462015.52848940424 2.1879191475423896e6 0.0
2.1879191475423896e6 101128.75866151953 0.0
0.0 0.0 0.0

-572091.1138324379 2.202387958732282e6 0.0
2.202387958732282e6 73153.98915305128 0.0
0.0 0.0 0.0

-243141.58216972902 2.1615394463673984e6 0.0
2.1615394463673984e6 118236.01538780138 0.0
0.0 0.0 0.0

-368431.42515763326 2.069945020321054e6 0.0
2.069945020321054e6 93019.3423984454 0.0
0.0 0.0 0.0

-330147.0229097236 2.020033878028334e6 0.0
2.020033878028334e6 93116.30263713683 0.0
0.0 0.0 0.0

-368726.46534540073 1.9859422644958503e6 0.0
1.9859422644958503e6 91097.51141531745 0.0
0.0 0.0 0.0

-383605.5206463461 1.9450554323120606e6 0.0
1.9450554323120606e6 81234.6493571653 0.0
0.0 0.0 0.0

-359988.89558631246 1.9207925573189508e6 0.0
1.9207925573189508e6 70366.42114003797 0.0
0.0 0.0 0.0

-178117.82831570282 2.59568005641492e6 0.0
2.59568005641492e6 -74111.21928970132 0.0
0.0 0.0 0.0

-647180.0692294438 456128.5476894442 0.0
456128.5476894442 993162.3946907116 0.0
0.0 0.0 0.0

-511903.4442955735 2.3056199051596867e6 0.0
2.3056199051596867e6 127945.77759266947 0.0
0.0 0.0 0.0

325588.0168079261 410184.7304568349 0.0
410184.7304568349 -645949.0268990209 0.0
0.0 0.0 0.0

-290969.36290194007 1.0292423894322908e6 0.0
1.0292423894322908e6 17336.58899641616 0.0
0.0 0.0 0.0

-533078.5541436679 2.3384844115785905e6 0.0
2.3384844115785905e6 179117.60672211047 0.0
0.0 0.0 0.0

-191084.99479045632 159037.62688010372 0.0
159037.62688010372 108029.1359669392 0.0
0.0 0.0 0.0

-570626.7783498432 2.3719589299658337e6 0.0
2.3719589299658337e6 182816.6336517811 0.0
0.0 0.0 0.0

-193818.7054267082 148258.3001837377 0.0
148258.3001837377 113598.71625015416 0.0
0.0 0.0 0.0

-595483.7751939704 2.42331574392565e6 0.0
2.42331574392565e6 223283.61960394317 0.0
0.0 0.0 0.0

178421.86214448203 1.9722593108658611e6 0.0
1.9722593108658611e6 -313970.19880991336 0.0
0.0 0.0 0.0

368916.7195339996 1.3244984458593763e6 0.0
1.3244984458593763e6 -153583.90206716952 0.0
0.0 0.0 0.0

344530.65539527085 520933.5726067246 0.0
520933.5726067246 -665650.9685189577 0.0
0.0 0.0 0.0

-225666.10788741361 1.6240089081294588e6 0.0
1.6240089081294588e6 -122282.89423759049 0.0
0.0 0.0 0.0

-261757.65488809816 3.331569305515904e6 0.0
3.331569305515904e6 -445394.37866819726 0.0
0.0 0.0 0.0

-141991.0182236418 3.434193421676671e6 0.0
3.434193421676671e6 -141935.23267989815 0.0
0.0 0.0 0.0

181696.97797265498 1.7831264375741244e6 0.0
1.7831264375741244e6 -285703.88128222176 0.0
0.0 0.0 0.0

1.4127895747557331e6 134125.30539057104 0.0
134125.30539057104 -1.5629732499620942e6 0.0
0.0 0.0 0.0

-95166.34792436566 214778.71156638328 0.0
214778.71156638328 -175219.62147349975 0.0
0.0 0.0 0.0

-627437.0270658891 2.4759494915020787e6 0.0
2.4759494915020787e6 287375.03768724453 0.0
0.0 0.0 0.0

334571.5773771459 2.098887351176302e6 0.0
2.098887351176302e6 -213838.64944455202 0.0
0.0 0.0 0.0

-241134.30068846114 146464.7064452132 0.0
146464.7064452132 189183.47718179866 0.0
0.0 0.0 0.0

-171579.16556081176 1.8498019308677125e6 0.0
1.8498019308677125e6 -233748.9248257851 0.0
0.0 0.0 0.0

-399115.32414768223 2.83137251410538e6 0.0
2.83137251410538e6 -9008.584439096463 0.0
0.0 0.0 0.0

414175.3754030138 286268.95224805473 0.0
286268.95224805473 -813730.6091094716 0.0
0.0 0.0 0.0

-541306.3019201356 1.3266125641120262e6 0.0
1.3266125641120262e6 488464.1043942748 0.0
0.0 0.0 0.0

-125414.68219894929 272509.5568137985 0.0
272509.5568137985 -161796.45184961485 0.0
0.0 0.0 0.0

-313382.1811481228 973183.4449340723 0.0
973183.4449340723 348169.77590998553 0.0
0.0 0.0 0.0

-36369.92456507482 824681.2653337065 0.0
824681.2653337065 -19645.903791012315 0.0
0.0 0.0 0.0

-666878.8432386738 2.5740745329847224e6 0.0
2.5740745329847224e6 389063.2261915728 0.0
0.0 0.0 0.0

307185.3545975572 498873.992250973 0.0
498873.992250973 -636772.4455094126 0.0
0.0 0.0 0.0

-134901.90958414084 355138.49684391957 0.0
355138.49684391957 -240672.70277771668 0.0
0.0 0.0 0.0

-52404.09551347817 385736.5074961541 0.0
385736.5074961541 -174680.32689630223 0.0
0.0 0.0 0.0

282023.5095666224 856557.6254540838 0.0
856557.6254540838 -420887.83986340294 0.0
0.0 0.0 0.0

-120886.79261234804 1.131745872042459e6 0.0
1.131745872042459e6 -183040.52697711095 0.0
0.0 0.0 0.0

303090.9717857403 614525.4068082146 0.0
614525.4068082146 -507175.1371114928 0.0
0.0 0.0 0.0

-32850.901411695086 577118.3754222351 0.0
577118.3754222351 -192740.0367524604 0.0
0.0 0.0 0.0

-276085.40928367217 1.3865645597909575e6 0.0
1.3865645597909575e6 -86817.08295944278 0.0
0.0 0.0 0.0

-218306.80544978354 2.0371279409585393e6 0.0
2.0371279409585393e6 -143424.07731910862 0.0
0.0 0.0 0.0

185309.26573879545 1.6100970293009644e6 0.0
1.6100970293009644e6 -361967.0493017951 0.0
0.0 0.0 0.0

411414.4924124626 3.7402247284482657e6 0.0
3.7402247284482657e6 -22285.56280569703 0.0
0.0 0.0 0.0

245597.22351612 2.3415145988616413e6 0.0
2.3415145988616413e6 -313259.2814347588 0.0
0.0 0.0 0.0

-247866.04133628617 3.1656504022985604e6 0.0
3.1656504022985604e6 -348771.59235908504 0.0
0.0 0.0 0.0

-130825.02529433569 1.1129343918331827e6 0.0
1.1129343918331827e6 173974.09212486597 0.0
0.0 0.0 0.0

-212484.96719784464 2.602177833020648e6 0.0
2.602177833020648e6 -332066.5268095491 0.0
0.0 0.0 0.0

-237626.68703214283 810377.6610515385 0.0
810377.6610515385 189093.6816170165 0.0
0.0 0.0 0.0

-6986.434143178514 597974.6312970348 0.0
597974.6312970348 480645.67855315586 0.0
0.0 0.0 0.0

-115518.76299476234 135156.5803957502 0.0
135156.5803957502 53927.93533241038 0.0
0.0 0.0 0.0

-737626.3653556214 2.6281932452106024e6 0.0
2.6281932452106024e6 436962.1083229628 0.0
0.0 0.0 0.0

-416297.02052580693 808313.9078723973 0.0
808313.9078723973 1.620260290304824e6 0.0
0.0 0.0 0.0

-241520.56377019788 874340.422586984 0.0
874340.422586984 -310929.0132900339 0.0
0.0 0.0 0.0

144.98293293095412 2.8112933208892345e6 0.0
2.8112933208892345e6 -85680.96914579073 0.0
0.0 0.0 0.0

569873.2040989773 213658.68264347725 0.0
213658.68264347725 -1.007898683779676e6 0.0
0.0 0.0 0.0

362302.6257171771 450628.70881748595 0.0
450628.70881748595 -764756.884014776 0.0
0.0 0.0 0.0

-196712.96386279812 435285.5831924628 0.0
435285.5831924628 -40105.80724198224 0.0
0.0 0.0 0.0

-197749.0284522989 930696.2720828896 0.0
930696.2720828896 75247.78845599874 0.0
0.0 0.0 0.0

-242472.41110283328 902847.8350529143 0.0
902847.8350529143 -164205.12051380807 0.0
0.0 0.0 0.0

-124214.79218622937 3.348732665541932e6 0.0
3.348732665541932e6 -473421.52308202896 0.0
0.0 0.0 0.0

-509754.3982645311 1.1410970774139503e6 0.0
1.1410970774139503e6 610169.1738459273 0.0
0.0 0.0 0.0

318514.36308834096 1.4259698508196922e6 0.0
1.4259698508196922e6 -407757.7481133224 0.0
0.0 0.0 0.0

-255424.35849382498 962579.5402296262 0.0
962579.5402296262 -127961.48786015844 0.0
0.0 0.0 0.0

98.48203213324814 -136768.03276221105 0.0
-136768.03276221105 91414.64577504051 0.0
0.0 0.0 0.0

-166727.34783285222 469927.5199898529 0.0
469927.5199898529 -42822.60789937554 0.0
0.0 0.0 0.0

383605.608263056 3.6986996656047376e6 0.0
3.6986996656047376e6 1.4077185946838073e6 0.0
0.0 0.0 0.0

-95465.17414495558 155817.37121501277 0.0
155817.37121501277 7638.087967690506 0.0
0.0 0.0 0.0

-89681.48407242738 -191013.28201821022 0.0
-191013.28201821022 200675.14201371078 0.0
0.0 0.0 0.0

-241542.14436799832 1.7261686045203654e6 0.0
1.7261686045203654e6 -49941.2831386621 0.0
0.0 0.0 0.0

-244066.87056343985 823831.3387239124 0.0
823831.3387239124 -424.61367736592365 0.0
0.0 0.0 0.0

-214735.31333195823 3.7217556516280253e6 0.0
3.7217556516280253e6 -244963.85736951942 0.0
0.0 0.0 0.0

-271667.7625545134 1.6891723345814818e6 0.0
1.6891723345814818e6 -106828.18475494042 0.0
0.0 0.0 0.0

-337456.63475291285 44948.535551611654 0.0
44948.535551611654 314808.81310765224 0.0
0.0 0.0 0.0

-53713.65261038643 1.0190489968896707e6 0.0
1.0190489968896707e6 -113876.8577353174 0.0
0.0 0.0 0.0

-247836.80483849946 863979.9617817377 0.0
863979.9617817377 41624.41476737293 0.0
0.0 0.0 0.0

-22805.86639131399 2.3562627139204373e6 0.0
2.3562627139204373e6 -495170.7987707705 0.0
0.0 0.0 0.0

-58760.28761372858 1.1592017556826388e6 0.0
1.1592017556826388e6 -107739.61664827945 0.0
0.0 0.0 0.0

-326902.00526135333 913338.2436359134 0.0
913338.2436359134 348985.4674761562 0.0
0.0 0.0 0.0

-88754.05706622504 194506.70851349147 0.0
194506.70851349147 -36259.19197922251 0.0
0.0 0.0 0.0

202184.22704801866 1.7500564384983755e6 0.0
1.7500564384983755e6 -331855.7494296256 0.0
0.0 0.0 0.0

-245787.16514287988 798484.492126815 0.0
798484.492126815 86151.70278448584 0.0
0.0 0.0 0.0

456614.1079832242 66877.20423622496 0.0
66877.20423622496 -717617.6186554665 0.0
0.0 0.0 0.0

-658174.7001972407 -2073.037941928584 0.0
-2073.037941928584 691293.4114185338 0.0
0.0 0.0 0.0

-838501.3958372809 5448.4463448323995 0.0
5448.4463448323995 874688.6980195488 0.0
0.0 0.0 0.0

-157659.96061831043 -93171.10539773804 0.0
-93171.10539773804 183857.12919969205 0.0
0.0 0.0 0.0

-1.1517233075845072e6 13360.813904929384 0.0
13360.813904929384 1.1963209422758196e6 0.0
0.0 0.0 0.0

-128701.2413961954 -81625.42440711631 0.0
-81625.42440711631 152797.59789414646 0.0
0.0 0.0 0.0

-226618.48507517355 86433.45035597267 0.0
86433.45035597267 307752.55424350494 0.0
0.0 0.0 0.0

-345235.77684175724 -30428.44669285529 0.0
-30428.44669285529 377685.1014076165 0.0
0.0 0.0 0.0

-175970.03804075532 -53291.00183913746 0.0
-53291.00183913746 200580.85701733874 0.0
0.0 0.0 0.0

-1.3646903832869576e6 -61612.935962916126 0.0
-61612.935962916126 1.5824649384807902e6 0.0
0.0 0.0 0.0

-112735.86267750339 -69592.5494175338 0.0
-69592.5494175338 139199.05052460585 0.0
0.0 0.0 0.0

-746582.3592517824 160804.62023015728 0.0
160804.62023015728 1.510125579951397e6 0.0
0.0 0.0 0.0

-192343.5953317886 -368687.5824519269 0.0
-368687.5824519269 792540.3634757444 0.0
0.0 0.0 0.0

-540711.7690713858 -14949.586901819155 0.0
-14949.586901819155 577504.1198274586 0.0
0.0 0.0 0.0

1.3949936745419565e6 112339.72649988178 0.0
112339.72649988178 -1.7802089594196384e6 0.0
0.0 0.0 0.0

1.4357290518541522e6 116478.0406776182 0.0
116478.0406776182 -1.794005888168734e6 0.0
0.0 0.0 0.0

1.3873349456586689e6 101679.3018182981 0.0
101679.3018182981 -1.7634186852019979e6 0.0
0.0 0.0 0.0

1.1621265923307573e6 74769.11173076827 0.0
74769.11173076827 -1.5771148337352474e6 0.0
0.0 0.0 0.0

-437227.1315362712 -22181.907828577558 0.0
-22181.907828577558 468413.9059351776 0.0
0.0 0.0 0.0

-115454.35434194349 -77525.17709965719 0.0
-77525.17709965719 138943.7207297482 0.0
0.0 0.0 0.0

1.4185807167925932e6 131304.31986201854 0.0
131304.31986201854 -1.809762502546384e6 0.0
0.0 0.0 0.0

796754.7530729689 63342.24458399283 0.0
63342.24458399283 -1.2097106449554327e6 0.0
0.0 0.0 0.0

992212.1505118118 65942.66788744832 0.0
65942.66788744832 -1.4109547319578591e6 0.0
0.0 0.0 0.0

684343.5559191405 64293.909913307616 0.0
64293.909913307616 -1.0410727049513226e6 0.0
0.0 0.0 0.0

229658.0001359946 2.4107556059979545e6 0.0
2.4107556059979545e6 -378400.3042447743 0.0
0.0 0.0 0.0

-165294.83264620224 159199.53669725443 0.0
159199.53669725443 92606.30769632774 0.0
0.0 0.0 0.0

-287185.829104409 95433.08412113567 0.0
95433.08412113567 197140.7229356633 0.0
0.0 0.0 0.0

-232739.46060123364 846247.1082686194 0.0
846247.1082686194 198419.71865109046 0.0
0.0 0.0 0.0

173223.4643231418 930314.9880521657 0.0
930314.9880521657 -327506.1562892278 0.0
0.0 0.0 0.0

-217983.31183122128 679058.1278375201 0.0
679058.1278375201 -138465.13045104578 0.0
0.0 0.0 0.0

-825928.0855926864 2.742993297453e6 0.0
2.742993297453e6 418362.3448366546 0.0
0.0 0.0 0.0

-248036.4950496507 959827.7366820351 0.0
959827.7366820351 -275386.0947271881 0.0
0.0 0.0 0.0

33801.98131262258 1.0156807334548753e6 0.0
1.0156807334548753e6 -81478.52288103028 0.0
0.0 0.0 0.0

-156767.3131008236 2.4774338913836177e6 0.0
2.4774338913836177e6 44781.0159545727 0.0
0.0 0.0 0.0

-100099.91029138805 1.153031766414175e6 0.0
1.153031766414175e6 124943.21705962982 0.0
0.0 0.0 0.0

-185405.81859837298 534246.809713685 0.0
534246.809713685 -5101.587732554901 0.0
0.0 0.0 0.0

118018.45035696306 1.583538846656962e6 0.0
1.583538846656962e6 -179319.04102780944 0.0
0.0 0.0 0.0

-152773.754848175 405243.23954447184 0.0
405243.23954447184 -41046.254368883616 0.0
0.0 0.0 0.0

-306346.86682418117 1.4459168696233267e6 0.0
1.4459168696233267e6 -72578.0499975397 0.0
0.0 0.0 0.0

-162795.04661224468 2.5009632421332397e6 0.0
2.5009632421332397e6 -175209.07293560324 0.0
0.0 0.0 0.0

-99005.53211403663 192803.3734638279 0.0
192803.3734638279 -155072.73165098287 0.0
0.0 0.0 0.0

-268694.9202418684 3.3433509281162624e6 0.0
3.3433509281162624e6 -491594.3784394302 0.0
0.0 0.0 0.0

-221156.92807620426 758276.2074305505 0.0
758276.2074305505 -166774.69205348904 0.0
0.0 0.0 0.0

93678.63540876243 2.0046042035369568e6 0.0
2.0046042035369568e6 -420177.2872751899 0.0
0.0 0.0 0.0

-585572.6390713789 -41151.82913120195 0.0
-41151.82913120195 608773.624622364 0.0
0.0 0.0 0.0

-721057.3637696045 -37607.95914984382 0.0
-37607.95914984382 746512.2018321306 0.0
0.0 0.0 0.0

-107087.34775683918 -73627.23358475622 0.0
-73627.23358475622 111153.75634719507 0.0
0.0 0.0 0.0

-485580.13596077444 -46598.96264686539 0.0
-46598.96264686539 514226.5230519243 0.0
0.0 0.0 0.0

-382858.732774506 -49405.18927303857 0.0
-49405.18927303857 412285.15315084474 0.0
0.0 0.0 0.0

1.4105611303776838e6 119898.52906573119 0.0
119898.52906573119 -1.5915568778770813e6 0.0
0.0 0.0 0.0

1.411933522124698e6 115512.89689327683 0.0
115512.89689327683 -1.5594334718368058e6 0.0
0.0 0.0 0.0

-116293.30997375297 -76848.85519699958 0.0
-76848.85519699958 131623.92228139238 0.0
0.0 0.0 0.0

1.0404557433474828e6 89895.62846237811 0.0
89895.62846237811 -1.1340938339638137e6 0.0
0.0 0.0 0.0

614121.0656892296 160195.50778452487 0.0
160195.50778452487 -553884.9722382493 0.0
0.0 0.0 0.0

905982.102450951 142980.23580215932 0.0
142980.23580215932 -937304.5393041561 0.0
0.0 0.0 0.0

767805.1054289612 137973.7228212542 0.0
137973.7228212542 -712012.9406798163 0.0
0.0 0.0 0.0

-197609.57349131914 630796.6541152003 0.0
630796.6541152003 -277902.7404096242 0.0
0.0 0.0 0.0

-552436.8759386542 492315.0934689186 0.0
492315.0934689186 828274.2045140275 0.0
0.0 0.0 0.0

-157269.99729387774 361413.16680199944 0.0
361413.16680199944 824.0836677050029 0.0
0.0 0.0 0.0

686229.7184381341 224068.57470554183 0.0
224068.57470554183 -1.1286823881250762e6 0.0
0.0 0.0 0.0

-134351.9668285545 3.550947687966101e6 0.0
3.550947687966101e6 -65601.74203577921 0.0
0.0 0.0 0.0

-120031.3243660747 917248.8663216828 0.0
917248.8663216828 391781.0462843111 0.0
0.0 0.0 0.0

-284994.1695290635 231249.2495326145 0.0
231249.2495326145 123771.65017046311 0.0
0.0 0.0 0.0

282258.49125720025 1.1943225615021242e6 0.0
1.1943225615021242e6 -378177.9932728444 0.0
0.0 0.0 0.0

310553.2319444517 1.3761110303973267e6 0.0
1.3761110303973267e6 -427870.11749103456 0.0
0.0 0.0 0.0

-156737.73407050714 2.4639902658535084e6 0.0
2.4639902658535084e6 -214464.30083425943 0.0
0.0 0.0 0.0

-235882.1010985111 833032.0918478059 0.0
833032.0918478059 563946.7294705649 0.0
0.0 0.0 0.0

-62571.621734777116 87316.24502842204 0.0
87316.24502842204 -131437.94665809785 0.0
0.0 0.0 0.0

-214560.67174188147 3.6150790946128606e6 0.0
3.6150790946128606e6 -209299.18823728233 0.0
0.0 0.0 0.0

-325255.6402003713 1.5287029269052239e6 0.0
1.5287029269052239e6 35145.59926206582 0.0
0.0 0.0 0.0

169660.53396952784 2.4983380339630754e6 0.0
2.4983380339630754e6 -370631.06754810846 0.0
0.0 0.0 0.0

-230670.2233365629 1.674203394143828e6 0.0
1.674203394143828e6 -83473.44850778053 0.0
0.0 0.0 0.0

-53120.93592885934 303112.7644239152 0.0
303112.7644239152 14754.88691464618 0.0
0.0 0.0 0.0

-236119.16286687073 860268.5810096428 0.0
860268.5810096428 480362.95485317154 0.0
0.0 0.0 0.0

597274.2436832569 430858.63524120837 0.0
430858.63524120837 -1.0509647944653465e6 0.0
0.0 0.0 0.0

335794.66771365376 458577.0091703005 0.0
458577.0091703005 -710234.3364651515 0.0
0.0 0.0 0.0

-221960.92024229004 3.579656811819516e6 0.0
3.579656811819516e6 -246958.57038659882 0.0
0.0 0.0 0.0

-167275.32835007197 1.0614091470115064e6 0.0
1.0614091470115064e6 222027.62826148322 0.0
0.0 0.0 0.0

179650.75768441794 952321.4279940409 0.0
952321.4279940409 344183.46228041826 0.0
0.0 0.0 0.0

-234627.40194515156 834172.6451971295 0.0
834172.6451971295 -196465.2439818438 0.0
0.0 0.0 0.0

-249489.11364055896 1.6358866621593735e6 0.0
1.6358866621593735e6 -142016.35973315788 0.0
0.0 0.0 0.0

-190947.64954454757 2.0741550493348038e6 0.0
2.0741550493348038e6 -86464.97282039995 0.0
0.0 0.0 0.0

235048.80351617222 778340.4640455492 0.0
778340.4640455492 -289157.8769802322 0.0
0.0 0.0 0.0

264854.55025114946 706227.8375807318 0.0
706227.8375807318 -497353.527948107 0.0
0.0 0.0 0.0

-82282.7163388873 154702.514461778 0.0
154702.514461778 -260483.84670513292 0.0
0.0 0.0 0.0

-182841.66911407153 426071.2834116341 0.0
426071.2834116341 -76704.062884488 0.0
0.0 0.0 0.0

243447.5840411069 825617.7567443468 0.0
825617.7567443468 -418029.2107925081 0.0
0.0 0.0 0.0

-154857.4175255725 3.4554062638922543e6 0.0
3.4554062638922543e6 -109314.9844778664 0.0
0.0 0.0 0.0

-564110.9002998245 15600.957297236868 0.0
15600.957297236868 1.4310259659386987e6 0.0
0.0 0.0 0.0

244782.68935543232 3.7724642744604913e6 0.0
3.7724642744604913e6 -24848.771293281825 0.0
0.0 0.0 0.0

137965.50731264212 1.306696408576319e6 0.0
1.306696408576319e6 223922.6315443694 0.0
0.0 0.0 0.0

-147095.3885637989 1.5562156041304073e6 0.0
1.5562156041304073e6 -311813.3562116209 0.0
0.0 0.0 0.0

-248081.54449649452 611174.2166595658 0.0
611174.2166595658 108847.4902322145 0.0
0.0 0.0 0.0

-176206.5962806463 494892.02782688907 0.0
494892.02782688907 -227234.64951063716 0.0
0.0 0.0 0.0

-256111.00316390715 1.0718411922379525e6 0.0
1.0718411922379525e6 -316821.40552641405 0.0
0.0 0.0 0.0

-286092.1141005242 1.3955976193181868e6 0.0
1.3955976193181868e6 -103303.97410580696 0.0
0.0 0.0 0.0

-56184.967399723995 36487.311189455926 0.0
36487.311189455926 -204025.54258276938 0.0
0.0 0.0 0.0

-317953.3758507866 6307.444913522424 0.0
6307.444913522424 303397.62374605995 0.0
0.0 0.0 0.0

-143872.757072935 398916.0017613908 0.0
398916.0017613908 -72761.72078527742 0.0
0.0 0.0 0.0

-198204.96761091365 628839.8093748414 0.0
628839.8093748414 -66997.90543163952 0.0
0.0 0.0 0.0

-114898.28479632558 702286.5039998223 0.0
702286.5039998223 -139285.17595455088 0.0
0.0 0.0 0.0

-100545.81882129869 252875.51176654836 0.0
252875.51176654836 -71484.74159838786 0.0
0.0 0.0 0.0

-227851.5160842593 2.087835974986226e6 0.0
2.087835974986226e6 -107825.12657844914 0.0
0.0 0.0 0.0

462901.4136654023 378591.31072654197 0.0
378591.31072654197 -745837.0942394534 0.0
0.0 0.0 0.0

-130266.17105861133 1.054677591612588e6 0.0
1.054677591612588e6 228452.15916037274 0.0
0.0 0.0 0.0

-150260.1638655797 2.4274960912301694e6 0.0
2.4274960912301694e6 -256152.45286860084 0.0
0.0 0.0 0.0

16891.679527877102 -252847.6719313102 0.0
-252847.6719313102 597190.5842896128 0.0
0.0 0.0 0.0

-246284.97888104935 935572.8217472271 0.0
935572.8217472271 191494.37362485798 0.0
0.0 0.0 0.0

-193066.3858251409 129309.19967046258 0.0
129309.19967046258 98914.36914061553 0.0
0.0 0.0 0.0

-241939.97546131432 1.4456041737096682e6 0.0
1.4456041737096682e6 -277132.048423478 0.0
0.0 0.0 0.0

-204567.56629769492 2.163422739092017e6 0.0
2.163422739092017e6 -25132.683935257788 0.0
0.0 0.0 0.0

-292556.1595224382 1.5147517749663915e6 0.0
1.5147517749663915e6 3241.919181862031 0.0
0.0 0.0 0.0

-167169.25613790157 2.5359963035997488e6 0.0
2.5359963035997488e6 -138573.3031670009 0.0
0.0 0.0 0.0

-285070.9034031123 1.2140179576691552e6 0.0
1.2140179576691552e6 -45665.19590689044 0.0
0.0 0.0 0.0

-654487.1732224089 124994.94934098613 0.0
124994.94934098613 1.17445915197731e6 0.0
0.0 0.0 0.0

1107.186997284918 3.547865368031001e6 0.0
3.547865368031001e6 -32577.608414193477 0.0
0.0 0.0 0.0

251376.55797895716 1.0914611484047468e6 0.0
1.0914611484047468e6 -590449.8108256664 0.0
0.0 0.0 0.0

213150.55133997576 809129.6597692354 0.0
809129.6597692354 1.0478384992872293e6 0.0
0.0 0.0 0.0

270027.60697875434 1.7537359260516604e6 0.0
1.7537359260516604e6 -439991.9346147076 0.0
0.0 0.0 0.0

-185202.02338078874 3.4124248823188106e6 0.0
3.4124248823188106e6 -170726.285192179 0.0
0.0 0.0 0.0

100651.62237213731 643984.6915511303 0.0
643984.6915511303 -222294.48808667477 0.0
0.0 0.0 0.0

-145415.8710697044 2.3850741040351633e6 0.0
2.3850741040351633e6 -301323.4368418364 0.0
0.0 0.0 0.0

176132.44324036056 2.2255819863069667e6 0.0
2.2255819863069667e6 -220626.10062643402 0.0
0.0 0.0 0.0

-223778.15706195545 3.190725489263453e6 0.0
3.190725489263453e6 -395793.5678540961 0.0
0.0 0.0 0.0

-269639.3807412285 1.1810797107080664e6 0.0
1.1810797107080664e6 -104451.96854000131 0.0
0.0 0.0 0.0

846427.6922360185 442876.3549680467 0.0
442876.3549680467 -1.1954170855405128e6 0.0
0.0 0.0 0.0

-136250.29639504023 1.07822767726297e6 0.0
1.07822767726297e6 190993.3505128442 0.0
0.0 0.0 0.0

-222662.1925378725 676088.081873511 0.0
676088.081873511 -15658.67744994568 0.0
0.0 0.0 0.0

-229946.7308772807 2.819035403121849e6 0.0
2.819035403121849e6 -315230.5480636017 0.0
0.0 0.0 0.0

269124.37548931316 886326.4150084889 0.0
886326.4150084889 -447833.63111346925 0.0
0.0 0.0 0.0

238672.09297980758 738688.6739452883 0.0
738688.6739452883 795573.2645170545 0.0
0.0 0.0 0.0

-168187.79724121987 3.866782609829111e6 0.0
3.866782609829111e6 -200489.23153864712 0.0
0.0 0.0 0.0

-1.0564776127875033e6 2.9801606709829285e6 0.0
2.9801606709829285e6 627762.8250027709 0.0
0.0 0.0 0.0

289630.9749613035 1.5144979626858244e6 0.0
1.5144979626858244e6 -429894.0237114155 0.0
0.0 0.0 0.0

-172671.42667519758 2.531044477961276e6 0.0
2.531044477961276e6 -129048.23708220958 0.0
0.0 0.0 0.0

-695241.825361381 163999.73973498013 0.0
163999.73973498013 858604.6760031155 0.0
0.0 0.0 0.0

435687.30655610655 276976.30126699456 0.0
276976.30126699456 -807858.1852577715 0.0
0.0 0.0 0.0

-301695.51913831837 1.5100545464022653e6 0.0
1.5100545464022653e6 11664.85634663704 0.0
0.0 0.0 0.0

275909.5957959165 616289.1891245114 0.0
616289.1891245114 -666471.5053386874 0.0
0.0 0.0 0.0

-198348.1454303026 2.376495304081884e6 0.0
2.376495304081884e6 -280541.7219575503 0.0
0.0 0.0 0.0

-16354.31182744485 2.757442364214824e6 0.0
2.757442364214824e6 -334853.8533224686 0.0
0.0 0.0 0.0

-148628.80428542756 426752.53868584905 0.0
426752.53868584905 -186150.0422555757 0.0
0.0 0.0 0.0

302304.0999957386 1.2812764353732308e6 0.0
1.2812764353732308e6 -428167.6969888455 0.0
0.0 0.0 0.0

-136137.80971002713 370498.34610379575 0.0
370498.34610379575 -268354.7329054475 0.0
0.0 0.0 0.0

205036.77661077544 1.5885077881595087e6 0.0
1.5885077881595087e6 -346770.0852332512 0.0
0.0 0.0 0.0

-379529.91757926747 948966.5205090324 0.0
948966.5205090324 113980.81759034391 0.0
0.0 0.0 0.0

-270105.29278396664 -38906.56357346562 0.0
-38906.56357346562 304985.32362402836 0.0
0.0 0.0 0.0

-110108.53071200021 312559.4662822879 0.0
312559.4662822879 -145894.36968988285 0.0
0.0 0.0 0.0

-275449.75724648515 1.4305709656053553e6 0.0
1.4305709656053553e6 -47217.50052931128 0.0
0.0 0.0 0.0

-971438.9308070465 -72660.427244809 0.0
-72660.427244809 1.0971762740444352e6 0.0
0.0 0.0 0.0

-39248.1916269293 1.0345978395814265e6 0.0
1.0345978395814265e6 40449.19496963395 0.0
0.0 0.0 0.0

-181449.75046862807 2.8336900248571853e6 0.0
2.8336900248571853e6 -346496.5286126033 0.0
0.0 0.0 0.0

174918.82087774127 3.051064729834682e6 0.0
3.051064729834682e6 -219034.55320060495 0.0
0.0 0.0 0.0

-236268.79788449 3.6623508453784534e6 0.0
3.6623508453784534e6 -344959.96181619447 0.0
0.0 0.0 0.0

-247668.50084518176 2.561469562623209e6 0.0
2.561469562623209e6 -469021.49398043647 0.0
0.0 0.0 0.0

-169431.9187693251 3.385237950945619e6 0.0
3.385237950945619e6 -213377.9294947821 0.0
0.0 0.0 0.0

-176142.4329533511 429169.3009314047 0.0
429169.3009314047 31754.677926639713 0.0
0.0 0.0 0.0

-232403.8865428586 822778.1634614845 0.0
822778.1634614845 -131394.77770162383 0.0
0.0 0.0 0.0

-262686.3548913906 1.164945622467045e6 0.0
1.164945622467045e6 -278401.0006222087 0.0
0.0 0.0 0.0

674600.1257577979 304771.8871856202 0.0
304771.8871856202 -1.1428362305731648e6 0.0
0.0 0.0 0.0

-228395.98595038184 992716.1741831485 0.0
992716.1741831485 218667.19720755293 0.0
0.0 0.0 0.0

-665001.2811877792 18705.67159212393 0.0
18705.67159212393 662305.6341043531 0.0
0.0 0.0 0.0

-163250.8147971296 415251.638969665 0.0
415251.638969665 -6482.504882859772 0.0
0.0 0.0 0.0

-170826.25296023733 2.825406118850274e6 0.0
2.825406118850274e6 -369801.2509735212 0.0
0.0 0.0 0.0

912799.5415080055 107722.82562651866 0.0
107722.82562651866 -1.214439125098514e6 0.0
0.0 0.0 0.0

284539.3767443752 1.078493904905649e6 0.0
1.078493904905649e6 -444503.8644767323 0.0
0.0 0.0 0.0

-78943.63911306963 -149911.1095256183 0.0
-149911.1095256183 159102.2345884792 0.0
0.0 0.0 0.0

-501966.8566262921 210461.22740809963 0.0
210461.22740809963 346534.5260297181 0.0
0.0 0.0 0.0

-165517.84823525464 2.9237097418776103e6 0.0
2.9237097418776103e6 -255341.60778805663 0.0
0.0 0.0 0.0

-300855.2789644555 -51981.83289936508 0.0
-51981.83289936508 320526.4606041477 0.0
0.0 0.0 0.0

-111161.06458096582 268939.38165442756 0.0
268939.38165442756 -277959.13683146524 0.0
0.0 0.0 0.0

64887.09652881259 3.3745753354848768e6 0.0
3.3745753354848768e6 -194039.98691673833 0.0
0.0 0.0 0.0

111980.74848748973 982638.7966616576 0.0
982638.7966616576 -224423.26915657806 0.0
0.0 0.0 0.0

182744.16517113164 2.2491187458482315e6 0.0
2.2491187458482315e6 -485811.9019948697 0.0
0.0 0.0 0.0

-293923.99513120216 1.2552263276887562e6 0.0
1.2552263276887562e6 -406694.1010513954 0.0
0.0 0.0 0.0

-188443.3651864729 2.4226803556666155e6 0.0
2.4226803556666155e6 -243875.9357959066 0.0
0.0 0.0 0.0

-365056.93061111483 737912.7739709434 0.0
737912.7739709434 811124.9970918302 0.0
0.0 0.0 0.0

-290986.8921095158 1.8254741508198641e6 0.0
1.8254741508198641e6 -7200.847601856731 0.0
0.0 0.0 0.0

-332523.48794742866 479109.88251637475 0.0
479109.88251637475 207391.2713609198 0.0
0.0 0.0 0.0

-208575.60700929543 613502.5047920779 0.0
613502.5047920779 112041.56360460288 0.0
0.0 0.0 0.0

-226249.96796591865 2.431199844544213e6 0.0
2.431199844544213e6 -532396.3045998574 0.0
0.0 0.0 0.0

-123658.20119360698 328950.5085512513 0.0
328950.5085512513 -190696.56867484405 0.0
0.0 0.0 0.0

-33897.31778783048 1.0430345999879229e6 0.0
1.0430345999879229e6 118107.66174767572 0.0
0.0 0.0 0.0

-162931.83642666208 2.1748729192913817e6 0.0
2.1748729192913817e6 -423919.5334691165 0.0
0.0 0.0 0.0

225372.54718658095 932416.7164640139 0.0
932416.7164640139 -375542.4171387134 0.0
0.0 0.0 0.0

-181450.86128811995 2.460364621195489e6 0.0
2.460364621195489e6 -205661.91478379536 0.0
0.0 0.0 0.0

237960.03349932292 1.9860938680105773e6 0.0
1.9860938680105773e6 -450753.3998658034 0.0
0.0 0.0 0.0

-180600.57424649192 548977.9453320078 0.0
548977.9453320078 -193405.0407218345 0.0
0.0 0.0 0.0

73184.98550082304 499150.0067292144 0.0
499150.0067292144 -364696.5689611063 0.0
0.0 0.0 0.0

-176350.18883931 2.496049415476391e6 0.0
2.496049415476391e6 -165114.31333846794 0.0
0.0 0.0 0.0

41241.20168703453 1.9804389820471401e6 0.0
1.9804389820471401e6 -87663.88887511993 0.0
0.0 0.0 0.0

-1.0290560391192099e6 -40092.82934671949 0.0
-40092.82934671949 1.1230196492064688e6 0.0
0.0 0.0 0.0

-465491.7220980043 1.3410863514347265e6 0.0
1.3410863514347265e6 405311.208174117 0.0
0.0 0.0 0.0

-132208.5602336155 1.1095618366846787e6 0.0
1.1095618366846787e6 171726.9557131792 0.0
0.0 0.0 0.0

-828649.7118736245 233074.5035922115 0.0
233074.5035922115 802581.5504983631 0.0
0.0 0.0 0.0

-232528.87090864405 814786.6104569489 0.0
814786.6104569489 184416.3428127341 0.0
0.0 0.0 0.0

-224360.62287256037 754159.656017619 0.0
754159.656017619 -222508.8540911165 0.0
0.0 0.0 0.0

-235396.85975673608 3.240378648264426e6 0.0
3.240378648264426e6 -317695.3874608719 0.0
0.0 0.0 0.0

-198845.98379497294 2.91837947089667e6 0.0
2.91837947089667e6 -243998.44621290307 0.0
0.0 0.0 0.0

-208136.11855568222 240479.77022903782 0.0
240479.77022903782 -186679.2401176646 0.0
0.0 0.0 0.0

6331.35794917115 3.7130093407558356e6 0.0
3.7130093407558356e6 -164311.30858685225 0.0
0.0 0.0 0.0

351330.3257883679 334490.19564146973 0.0
334490.19564146973 -722621.275974286 0.0
0.0 0.0 0.0

-92228.83173072767 1.1189289031323204e6 0.0
1.1189289031323204e6 -95061.79328613356 0.0
0.0 0.0 0.0

-213865.11482586415 585047.1681585552 0.0
585047.1681585552 156364.08392807597 0.0
0.0 0.0 0.0

-248606.45900374808 2.179290512204802e6 0.0
2.179290512204802e6 -49795.65927851216 0.0
0.0 0.0 0.0

40196.660970338926 1.9414649736482734e6 0.0
1.9414649736482734e6 -104851.44788835046 0.0
0.0 0.0 0.0

-241991.056312915 1.0218364310187191e6 0.0
1.0218364310187191e6 284227.86559440667 0.0
0.0 0.0 0.0

23918.98719601059 866832.3412275162 0.0
866832.3412275162 -147342.12197894303 0.0
0.0 0.0 0.0

-179440.73491750244 1.603166732859768e6 0.0
1.603166732859768e6 -394174.9293832288 0.0
0.0 0.0 0.0

1.6411705122323488e6 1.416154874104556e6 0.0
1.416154874104556e6 -805955.6663397909 0.0
0.0 0.0 0.0

-321057.4538167155 1.7263081922933215e6 0.0
1.7263081922933215e6 -468452.2394139138 0.0
0.0 0.0 0.0

522688.81861066195 222344.87072426843 0.0
222344.87072426843 -986661.299304533 0.0
0.0 0.0 0.0

-475084.7730713085 529528.415228488 0.0
529528.415228488 694611.9627622507 0.0
0.0 0.0 0.0

272762.3885372382 1.6426979140165318e6 0.0
1.6426979140165318e6 -397456.85713777447 0.0
0.0 0.0 0.0

-134615.55754642843 101260.9709343131 0.0
101260.9709343131 98859.79311800412 0.0
0.0 0.0 0.0

-503421.427779817 1.1925504870241152e6 0.0
1.1925504870241152e6 456677.1594460644 0.0
0.0 0.0 0.0

-408900.6678419527 567397.3682401875 0.0
567397.3682401875 601729.0391062021 0.0
0.0 0.0 0.0

-233036.03196910082 875320.4067494338 0.0
875320.4067494338 200702.82062675236 0.0
0.0 0.0 0.0

-242037.92201032303 876120.4702969394 0.0
876120.4702969394 137617.23116820102 0.0
0.0 0.0 0.0

-234537.39375666087 856047.3531359361 0.0
856047.3531359361 -236836.49051933113 0.0
0.0 0.0 0.0

2.299917081212342e6 370083.54800302215 0.0
370083.54800302215 -1.4501174651224092e6 0.0
0.0 0.0 0.0

-187802.72698579018 3.713181246023213e6 0.0
3.713181246023213e6 -279920.97366924 0.0
0.0 0.0 0.0

-196811.06322492543 360812.4903457069 0.0
360812.4903457069 -218536.74348154193 0.0
0.0 0.0 0.0

-62848.48475237224 3.99626157593314e6 0.0
3.99626157593314e6 -134243.88951129274 0.0
0.0 0.0 0.0

-196837.9892051394 916984.5955254391 0.0
916984.5955254391 187527.98879159178 0.0
0.0 0.0 0.0

-112236.74749271382 106215.6887998127 0.0
106215.6887998127 -114347.79484999205 0.0
0.0 0.0 0.0

-212168.41769992828 894363.2848215026 0.0
894363.2848215026 289398.1589873516 0.0
0.0 0.0 0.0

109613.21075025997 733128.7538566468 0.0
733128.7538566468 -220387.13329691644 0.0
0.0 0.0 0.0

-269907.96227264794 56656.37166454997 0.0
56656.37166454997 203135.56892672612 0.0
0.0 0.0 0.0

-291048.9143433556 1.7854773321535452e6 0.0
1.7854773321535452e6 -40944.3201199846 0.0
0.0 0.0 0.0

-237073.5286144778 930967.5615869053 0.0
930967.5615869053 -223893.08417183274 0.0
0.0 0.0 0.0

-262859.5883137361 1.8161114649517806e6 0.0
1.8161114649517806e6 7206.070729539104 0.0
0.0 0.0 0.0

-1620.0614706724882 3.4249619185087024e6 0.0
3.4249619185087024e6 -358953.0743533009 0.0
0.0 0.0 0.0

-50634.90932603026 -110382.02105606228 0.0
-110382.02105606228 209846.11478581838 0.0
0.0 0.0 0.0

-251621.20211556737 840503.4129972843 0.0
840503.4129972843 112548.73782253204 0.0
0.0 0.0 0.0

-244878.87400501885 679039.0421051598 0.0
679039.0421051598 295379.1507096719 0.0
0.0 0.0 0.0

-197132.0884159133 547547.7231835708 0.0
547547.7231835708 71100.17017947003 0.0
0.0 0.0 0.0

-199671.46433083888 2.136023714809322e6 0.0
2.136023714809322e6 -351167.8989778868 0.0
0.0 0.0 0.0

273972.94758953725 603255.6813843192 0.0
603255.6813843192 -550768.3955184991 0.0
0.0 0.0 0.0

-241067.81808939116 840063.0897705943 0.0
840063.0897705943 -162577.99593068263 0.0
0.0 0.0 0.0

135909.5661269309 2.586435483076192e6 0.0
2.586435483076192e6 -353108.98250362644 0.0
0.0 0.0 0.0

-43116.1426063636 3.1995163403341034e6 0.0
3.1995163403341034e6 -454913.2313852459 0.0
0.0 0.0 0.0

-124863.3013692097 3.7456928642502544e6 0.0
3.7456928642502544e6 -82997.01587043889 0.0
0.0 0.0 0.0

-229226.17362991034 3.728016451795489e6 0.0
3.728016451795489e6 -297169.74989400845 0.0
0.0 0.0 0.0

325450.2968964708 1.1267316722022283e6 0.0
1.1267316722022283e6 -425409.13022616156 0.0
0.0 0.0 0.0

-194955.2620764039 554789.4277946927 0.0
554789.4277946927 127414.85851004325 0.0
0.0 0.0 0.0

-41899.49705557272 -327550.19963531225 0.0
-327550.19963531225 448848.47339761374 0.0
0.0 0.0 0.0

-405093.1555596417 2.864311050590781e6 0.0
2.864311050590781e6 17588.513922483253 0.0
0.0 0.0 0.0

-227106.68343825068 777750.7747606857 0.0
777750.7747606857 -202022.52030845932 0.0
0.0 0.0 0.0

-183634.4613861282 3.616106740532142e6 0.0
3.616106740532142e6 -213506.2184664987 0.0
0.0 0.0 0.0

143933.5594419918 321100.4463189392 0.0
321100.4463189392 82215.30344449362 0.0
0.0 0.0 0.0

-1.31843340923385e6 -32355.867562484927 0.0
-32355.867562484927 1.2620024896562616e6 0.0
0.0 0.0 0.0

231106.92038583342 1.593747521894156e6 0.0
1.593747521894156e6 -378124.72402215295 0.0
0.0 0.0 0.0

30001.993921301073 3.788091969419117e6 0.0
3.788091969419117e6 -155900.20433813313 0.0
0.0 0.0 0.0

-104045.87156947955 3.8641251237235474e6 0.0
3.8641251237235474e6 -66146.2682627276 0.0
0.0 0.0 0.0

-264967.95009952394 891915.082494706 0.0
891915.082494706 112921.35014671138 0.0
0.0 0.0 0.0

1.1060612991085886e6 199944.28174110525 0.0
199944.28174110525 -1.4434820934945175e6 0.0
0.0 0.0 0.0

-172710.60077058958 3.0129122802177053e6 0.0
3.0129122802177053e6 -134625.3501768365 0.0
0.0 0.0 0.0

-198303.39960208567 3.6608667916256404e6 0.0
3.6608667916256404e6 -120680.56755476515 0.0
0.0 0.0 0.0

503190.2040408618 244196.97562049038 0.0
244196.97562049038 -942800.5651849293 0.0
0.0 0.0 0.0

-119677.20918078383 2.9711080524867047e6 0.0
2.9711080524867047e6 -19037.041243621636 0.0
0.0 0.0 0.0

138073.481339765 1.7917597864208643e6 0.0
1.7917597864208643e6 -123124.54120953215 0.0
0.0 0.0 0.0

-153764.426476383 2.98817408710882e6 0.0
2.98817408710882e6 -172610.433935126 0.0
0.0 0.0 0.0

256211.03101717666 768263.2808296237 0.0
768263.2808296237 -322360.02084207255 0.0
0.0 0.0 0.0

4782.914812728573 1.2657940225329804e6 0.0
1.2657940225329804e6 -200178.2922292639 0.0
0.0 0.0 0.0

-75843.77661026422 2.6717137593784207e6 0.0
2.6717137593784207e6 -535234.4756549584 0.0
0.0 0.0 0.0

-173647.5491883864 3.865984307686294e6 0.0
3.865984307686294e6 -159554.74922404403 0.0
0.0 0.0 0.0

149704.67983982526 1.7859304627323349e6 0.0
1.7859304627323349e6 -139154.8785103584 0.0
0.0 0.0 0.0

-219511.60551320147 3.7279598000852233e6 0.0
3.7279598000852233e6 -256263.8844409257 0.0
0.0 0.0 0.0

268498.0818888642 1.2670363482567193e6 0.0
1.2670363482567193e6 151178.5305933684 0.0
0.0 0.0 0.0

923822.1245351735 200468.5414584826 0.0
200468.5414584826 -1.2479758593561915e6 0.0
0.0 0.0 0.0

180866.08680093265 2.4480117630081824e6 0.0
2.4480117630081824e6 -440081.72840325674 0.0
0.0 0.0 0.0

-174889.31827942602 2.8845389748367975e6 0.0
2.8845389748367975e6 -548144.941226962 0.0
0.0 0.0 0.0

-224019.0222247098 782065.8259877842 0.0
782065.8259877842 -275234.87516677595 0.0
0.0 0.0 0.0

-232323.2080332917 1.0414288549818359e6 0.0
1.0414288549818359e6 272959.0147158002 0.0
0.0 0.0 0.0

-3.413567749096912e6 584698.2084504621 0.0
584698.2084504621 4.694194462906048e6 0.0
0.0 0.0 0.0

-195863.20861368498 70164.68728244232 0.0
70164.68728244232 128682.80551050523 0.0
0.0 0.0 0.0

-53984.78041731693 3.8539419515864304e6 0.0
3.8539419515864304e6 -124070.73546227507 0.0
0.0 0.0 0.0

-211310.60529061643 708721.4865486035 0.0
708721.4865486035 -242156.11915849775 0.0
0.0 0.0 0.0

-630409.7700895849 65492.00021674028 0.0
65492.00021674028 675394.9642461264 0.0
0.0 0.0 0.0

828557.4019099347 194894.1785585854 0.0
194894.1785585854 -1.239996420722605e6 0.0
0.0 0.0 0.0

-209880.14963656754 697469.5148992891 0.0
697469.5148992891 -131084.0766238036 0.0
0.0 0.0 0.0

211201.14175773898 1.3885863820911283e6 0.0
1.3885863820911283e6 -387852.0077191976 0.0
0.0 0.0 0.0

-136453.56389351265 3.948517577646344e6 0.0
3.948517577646344e6 -112910.35357026159 0.0
0.0 0.0 0.0

-171095.23663428723 3.433041340806556e6 0.0
3.433041340806556e6 -137299.4913569907 0.0
0.0 0.0 0.0

-136904.4453148179 347673.78827891115 0.0
347673.78827891115 -210110.48642410192 0.0
0.0 0.0 0.0

-187993.98286283997 1.414248204435833e6 0.0
1.414248204435833e6 -224286.5012656942 0.0
0.0 0.0 0.0

-85091.17392749252 -1955.0388025393722 0.0
-1955.0388025393722 48557.229176180364 0.0
0.0 0.0 0.0

-1.1335496979712683e6 493627.9591767679 0.0
493627.9591767679 -187098.22883378383 0.0
0.0 0.0 0.0

-213382.12364155296 1.132197770133922e6 0.0
1.132197770133922e6 140690.35584295308 0.0
0.0 0.0 0.0

-224792.03113891336 702472.0945993265 0.0
702472.0945993265 182508.07173141965 0.0
0.0 0.0 0.0

-342517.0751599057 1.3470396359429404e6 0.0
1.3470396359429404e6 79820.32334534195 0.0
0.0 0.0 0.0

293395.8236700232 871270.0637106138 0.0
871270.0637106138 -426456.8007089989 0.0
0.0 0.0 0.0

400145.686934211 305727.84276793356 0.0
305727.84276793356 -771819.6345946088 0.0
0.0 0.0 0.0

475291.24614632974 390484.3325254539 0.0
390484.3325254539 -775077.4988490617 0.0
0.0 0.0 0.0

-162472.49536745102 460225.53093882155 0.0
460225.53093882155 -246943.23926211713 0.0
0.0 0.0 0.0

-344703.4691910993 205704.08951625772 0.0
205704.08951625772 187662.26724723823 0.0
0.0 0.0 0.0

-27519.99221515836 -9488.536038245913 0.0
-9488.536038245913 40397.38868238617 0.0
0.0 0.0 0.0

32687.00384917006 1.8934293396923565e6 0.0
1.8934293396923565e6 -104374.50701303198 0.0
0.0 0.0 0.0

105830.09214148298 816667.721457013 0.0
816667.721457013 -211785.1129068538 0.0
0.0 0.0 0.0

-247580.90653801608 842429.8982634188 0.0
842429.8982634188 159418.74199728854 0.0
0.0 0.0 0.0

184873.68313177934 3.779948183469547e6 0.0
3.779948183469547e6 -72709.4168814071 0.0
0.0 0.0 0.0

-221657.91473249038 1.0478011382138918e6 0.0
1.0478011382138918e6 261761.60486485076 0.0
0.0 0.0 0.0

-280602.3905325311 594597.6625155768 0.0
594597.6625155768 356541.67729803093 0.0
0.0 0.0 0.0

898636.5166038496 348428.1061268101 0.0
348428.1061268101 -1.304564790186623e6 0.0
0.0 0.0 0.0

-165737.00292585322 3.450280833598282e6 0.0
3.450280833598282e6 -378481.41869270743 0.0
0.0 0.0 0.0

-367882.80023119564 173544.6352730422 0.0
173544.6352730422 534254.4598045812 0.0
0.0 0.0 0.0

596113.8678649606 325003.3834109075 0.0
325003.3834109075 -955288.881120156 0.0
0.0 0.0 0.0

-278960.27835786407 955772.5224907052 0.0
955772.5224907052 112996.5107728186 0.0
0.0 0.0 0.0

-241554.96854548767 218739.22970233738 0.0
218739.22970233738 142166.3181874489 0.0
0.0 0.0 0.0

-317097.4014828765 558711.2385025171 0.0
558711.2385025171 403402.1371048503 0.0
0.0 0.0 0.0

-224351.82496427963 757583.4432826537 0.0
757583.4432826537 203313.1781600077 0.0
0.0 0.0 0.0

329957.20845236507 1.787023408573194e6 0.0
1.787023408573194e6 -79251.56515800452 0.0
0.0 0.0 0.0

-57314.30482919059 1.1685995958793997e6 0.0
1.1685995958793997e6 -56315.12275435807 0.0
0.0 0.0 0.0

-153813.94947618953 3.247071548266836e6 0.0
3.247071548266836e6 -34798.765253362006 0.0
0.0 0.0 0.0

-279174.74081146193 964438.2809739962 0.0
964438.2809739962 174186.27497188802 0.0
0.0 0.0 0.0

-358606.55011755775 600245.1561373507 0.0
600245.1561373507 529403.643066008 0.0
0.0 0.0 0.0

-169100.98193917976 5.511754755055207e6 0.0
5.511754755055207e6 68900.4006109126 0.0
0.0 0.0 0.0

10923.25808160452 1.131829999302304e6 0.0
1.131829999302304e6 -50078.804353074636 0.0
0.0 0.0 0.0

-171986.90511254454 421798.0496788648 0.0
421798.0496788648 -112520.20579782425 0.0
0.0 0.0 0.0

-289317.16759241436 37225.39267636829 0.0
37225.39267636829 277111.96371472714 0.0
0.0 0.0 0.0

-216937.8039371329 2.8758848358150427e6 0.0
2.8758848358150427e6 -281849.9812067214 0.0
0.0 0.0 0.0

-77618.3923524899 1.0116489427997675e6 0.0
1.0116489427997675e6 129180.31583573722 0.0
0.0 0.0 0.0

-455443.2410474968 1.2879270022405172e6 0.0
1.2879270022405172e6 333612.42901151744 0.0
0.0 0.0 0.0

-210359.6175000714 3.7609556772522163e6 0.0
3.7609556772522163e6 -202085.38505884167 0.0
0.0 0.0 0.0

-136650.4636903439 3.651409404376684e6 0.0
3.651409404376684e6 -129639.30060562311 0.0
0.0 0.0 0.0

-106445.39195925677 45476.82554651132 0.0
45476.82554651132 95629.06654985787 0.0
0.0 0.0 0.0

523382.9856610822 324639.1345940631 0.0
324639.1345940631 -708727.9028382131 0.0
0.0 0.0 0.0

-13862.146698780314 3.1229538550350885e6 0.0
3.1229538550350885e6 32059.570101617555 0.0
0.0 0.0 0.0

-260816.27050653836 638483.6528895603 0.0
638483.6528895603 326354.4513919194 0.0
0.0 0.0 0.0

-170409.4750674935 904768.1576218515 0.0
904768.1576218515 279911.37198953493 0.0
0.0 0.0 0.0

-136013.2783281194 -269518.15382764395 0.0
-269518.15382764395 295133.11849056167 0.0
0.0 0.0 0.0

-54738.55338962017 957341.2466053149 0.0
957341.2466053149 107213.09096170789 0.0
0.0 0.0 0.0

-155472.03173050907 3.4113024783314e6 0.0
3.4113024783314e6 -171022.4425167874 0.0
0.0 0.0 0.0

199028.74070674286 2.2012609858667594e6 0.0
2.2012609858667594e6 -452157.6275652708 0.0
0.0 0.0 0.0

-186713.31967541936 2.954977396370868e6 0.0
2.954977396370868e6 -205031.03673814647 0.0
0.0 0.0 0.0

268958.2955333947 1.5605363422584175e6 0.0
1.5605363422584175e6 -391396.53731501 0.0
0.0 0.0 0.0

-285626.89859037317 1.1775093612639469e6 0.0
1.1775093612639469e6 -94686.01012710364 0.0
0.0 0.0 0.0

-300358.2755529708 44440.905719278446 0.0
44440.905719278446 322982.1217896512 0.0
0.0 0.0 0.0

-135699.83175757792 164360.02457443584 0.0
164360.02457443584 62017.19600634103 0.0
0.0 0.0 0.0

-112019.96851596501 314617.33603798156 0.0
314617.33603798156 -120488.67943487674 0.0
0.0 0.0 0.0

-30494.994094524045 536034.657201429 0.0
536034.657201429 -219692.35445692428 0.0
0.0 0.0 0.0

-138841.14013839298 407088.3144079316 0.0
407088.3144079316 -158579.06510478497 0.0
0.0 0.0 0.0

-707131.1578787713 576799.7271435776 0.0
576799.7271435776 136879.86906440833 0.0
0.0 0.0 0.0

-206307.6090401993 652514.6943848679 0.0
652514.6943848679 -210195.39243584327 0.0
0.0 0.0 0.0

-26710.786444617996 1.1943514517147122e6 0.0
1.1943514517147122e6 -85554.72204825928 0.0
0.0 0.0 0.0

-742064.4526257298 638676.0827537751 0.0
638676.0827537751 27937.53233915221 0.0
0.0 0.0 0.0

89603.79862114758 1.84053236792361e6 0.0
1.84053236792361e6 -122771.70844344265 0.0
0.0 0.0 0.0

-208783.0040931772 683955.8760611168 0.0
683955.8760611168 -196141.6608737815 0.0
0.0 0.0 0.0

115417.92746464151 2.5039950884817285e6 0.0
2.5039950884817285e6 -257732.53753106436 0.0
0.0 0.0 0.0

-337323.9078982985 1.2166755394431504e6 0.0
1.2166755394431504e6 103604.20418720496 0.0
0.0 0.0 0.0

276488.44732490915 1.8135229533800923e6 0.0
1.8135229533800923e6 -443235.52992850286 0.0
0.0 0.0 0.0

287186.30271962855 1.6675660131975715e6 0.0
1.6675660131975715e6 -468902.0990316463 0.0
0.0 0.0 0.0

-79924.80509700548 -74197.15852920039 0.0
-74197.15852920039 97180.92564394642 0.0
0.0 0.0 0.0

-217377.18519140861 554815.3883451005 0.0
554815.3883451005 1989.4187801748049 0.0
0.0 0.0 0.0

536292.8724560202 305008.20951948425 0.0
305008.20951948425 -857868.0275011299 0.0
0.0 0.0 0.0

-217838.40549959603 85828.60396757013 0.0
85828.60396757013 172614.87775761032 0.0
0.0 0.0 0.0

301738.51158834 1.726376649637707e6 0.0
1.726376649637707e6 -448938.9443924151 0.0
0.0 0.0 0.0

-1.8813998526398751e6 75208.7173242864 0.0
75208.7173242864 1.9085304406587754e6 0.0
0.0 0.0 0.0

882150.8691703738 327539.6931296095 0.0
327539.6931296095 -1.2913119915555844e6 0.0
0.0 0.0 0.0

-191733.11898920048 488262.44566435355 0.0
488262.44566435355 -74211.78833765037 0.0
0.0 0.0 0.0

-217724.73904404708 614830.3266725207 0.0
614830.3266725207 -26117.622971583856 0.0
0.0 0.0 0.0

-217995.70285368647 990742.7588370248 0.0
990742.7588370248 252924.8591766508 0.0
0.0 0.0 0.0

-172976.45072616194 2.883860311912153e6 0.0
2.883860311912153e6 -299334.1183698629 0.0
0.0 0.0 0.0

-283069.65095124376 764092.3292407853 0.0
764092.3292407853 263060.20993318164 0.0
0.0 0.0 0.0

153995.90532567108 2.601831213610284e6 0.0
2.601831213610284e6 -493911.5173434657 0.0
0.0 0.0 0.0

310697.3747259631 507838.8431932717 0.0
507838.8431932717 -570324.8293487041 0.0
0.0 0.0 0.0

-319507.25977422413 1.1086496439640142e6 0.0
1.1086496439640142e6 111349.92713727448 0.0
0.0 0.0 0.0

-13351.641000761767 3.876978082442929e6 0.0
3.876978082442929e6 -66712.73596248926 0.0
0.0 0.0 0.0

653098.5605318388 374477.96667998866 0.0
374477.96667998866 -1.0309189800805481e6 0.0
0.0 0.0 0.0

-58862.448155440434 134069.7304429991 0.0
134069.7304429991 -102836.79613269246 0.0
0.0 0.0 0.0

-219297.52236979932 1.0388137891830145e6 0.0
1.0388137891830145e6 254865.71297516522 0.0
0.0 0.0 0.0

-1.413414299234027e6 3.278789031531423e6 0.0
3.278789031531423e6 772911.8335964109 0.0
0.0 0.0 0.0

-391141.4132749061 111631.04426100444 0.0
111631.04426100444 398072.9207708443 0.0
0.0 0.0 0.0

7673.832909407836 526436.0522119296 0.0
526436.0522119296 -205350.58818813387 0.0
0.0 0.0 0.0

-62908.35726009507 -378975.2719439507 0.0
-378975.2719439507 517558.36072650366 0.0
0.0 0.0 0.0

-247008.97600245144 -109015.58666026594 0.0
-109015.58666026594 297099.5500536377 0.0
0.0 0.0 0.0

1.3893207173816494e6 127890.22682645237 0.0
127890.22682645237 -1.7361785912498652e6 0.0
0.0 0.0 0.0

-105631.89096562844 1.0779421981194443e6 0.0
1.0779421981194443e6 183053.4200360462 0.0
0.0 0.0 0.0

135877.82625004766 1.0488134864798854e6 0.0
1.0488134864798854e6 -247447.31183655508 0.0
0.0 0.0 0.0

-1.560647892065125e6 250694.78184451995 0.0
250694.78184451995 1.4720376642855115e6 0.0
0.0 0.0 0.0

-2295.6551329901995 3.5028214493975397e6 0.0
3.5028214493975397e6 -143005.9192337136 0.0
0.0 0.0 0.0

253410.38235908863 1.8839672431598937e6 0.0
1.8839672431598937e6 -438443.5036461302 0.0
0.0 0.0 0.0

-1.526113752101052e6 607891.1107940702 0.0
607891.1107940702 2.4997078717339076e6 0.0
0.0 0.0 0.0

-230102.34569712798 1.2192829611721996e6 0.0
1.2192829611721996e6 -190233.89774985865 0.0
0.0 0.0 0.0

-532786.5075421683 723584.6359930374 0.0
723584.6359930374 1.3393170714723351e6 0.0
0.0 0.0 0.0

125935.3686208522 1.1173180970808684e6 0.0
1.1173180970808684e6 -238535.90433919927 0.0
0.0 0.0 0.0

3.6657070089109633e6 767717.6373300117 0.0
767717.6373300117 -2.0229172723570364e6 0.0
0.0 0.0 0.0

-163700.93743208077 3.8637870489963093e6 0.0
3.8637870489963093e6 -97531.02902966572 0.0
0.0 0.0 0.0

73397.12575389775 3.5225782156665213e6 0.0
3.5225782156665213e6 15931.255073477549 0.0
0.0 0.0 0.0

276732.7282004793 2.1175115458027725e6 0.0
2.1175115458027725e6 -454120.0535703639 0.0
0.0 0.0 0.0

367953.2764186552 1.6602666040708881e6 0.0
1.6602666040708881e6 -190624.3303833112 0.0
0.0 0.0 0.0

-209729.11952340213 3.257970428445775e6 0.0
3.257970428445775e6 -347754.541333833 0.0
0.0 0.0 0.0

-215075.41593480902 162626.17244252164 0.0
162626.17244252164 134173.745133618 0.0
0.0 0.0 0.0

195894.91292027658 711896.2045225844 0.0
711896.2045225844 -336294.97442150523 0.0
0.0 0.0 0.0

-574449.6520124972 152913.69013293454 0.0
152913.69013293454 702160.0642507579 0.0
0.0 0.0 0.0

284724.8684466537 2.293679706978043e6 0.0
2.293679706978043e6 -444834.49720575684 0.0
0.0 0.0 0.0

-701882.4246190398 915660.3289678161 0.0
915660.3289678161 924999.797488569 0.0
0.0 0.0 0.0

-176734.59164250904 322803.8811434086 0.0
322803.8811434086 -350205.1904011088 0.0
0.0 0.0 0.0

-1.7030347116645067e6 705890.6451058602 0.0
705890.6451058602 2.965555095132559e6 0.0
0.0 0.0 0.0

-183993.30077559536 983101.009929692 0.0
983101.009929692 272473.4093859887 0.0
0.0 0.0 0.0

14124.194563919795 2.2275465042338683e6 0.0
2.2275465042338683e6 -207632.7540684008 0.0
0.0 0.0 0.0

-216627.61567790358 1.0201574522117143e6 0.0
1.0201574522117143e6 255100.24602939948 0.0
0.0 0.0 0.0

-144007.80019033447 3.7580479845709503e6 0.0
3.7580479845709503e6 -67091.69725161465 0.0
0.0 0.0 0.0

-254983.77877899772 927941.2635558059 0.0
927941.2635558059 174447.8832585489 0.0
0.0 0.0 0.0

-207766.3922819096 168099.27948945356 0.0
168099.27948945356 113103.11160514949 0.0
0.0 0.0 0.0

-165135.26657724415 240798.0016525974 0.0
240798.0016525974 64032.65502927044 0.0
0.0 0.0 0.0

-256208.1668982339 17421.704902394038 0.0
17421.704902394038 340872.897233163 0.0
0.0 0.0 0.0

1.3833075001731445e6 1.5021155398548262e6 0.0
1.5021155398548262e6 -138908.08630667056 0.0
0.0 0.0 0.0

126910.18533858305 1.1989376827677023e6 0.0
1.1989376827677023e6 -218249.7739059443 0.0
0.0 0.0 0.0

-123392.28899966918 3.540070744349958e6 0.0
3.540070744349958e6 -52442.45427493885 0.0
0.0 0.0 0.0

-293212.9298066056 1.0259431162280183e6 0.0
1.0259431162280183e6 109135.8177702034 0.0
0.0 0.0 0.0

-96083.74226797954 -39886.99165904634 0.0
-39886.99165904634 116941.00295112818 0.0
0.0 0.0 0.0

-278594.39767906495 1.0350547414739238e6 0.0
1.0350547414739238e6 163847.93120669975 0.0
0.0 0.0 0.0

-197190.22686958365 628584.3075544611 0.0
628584.3075544611 -166301.53618369013 0.0
0.0 0.0 0.0

-274390.5291954807 1.034489930948872e6 0.0
1.034489930948872e6 195734.42371940005 0.0
0.0 0.0 0.0

19843.977385825947 1.9304614283464707e6 0.0
1.9304614283464707e6 -67253.30015127615 0.0
0.0 0.0 0.0

9004.045956463686 3.5669055115340175e6 0.0
3.5669055115340175e6 -24166.321715241174 0.0
0.0 0.0 0.0

846002.8528069863 147546.13983480778 0.0
147546.13983480778 -1.2690938235873044e6 0.0
0.0 0.0 0.0

-300124.4540003806 127950.55699204937 0.0
127950.55699204937 276242.2468535291 0.0
0.0 0.0 0.0

77864.14976492632 1.3081193782838634e6 0.0
1.3081193782838634e6 -121029.92972672336 0.0
0.0 0.0 0.0

117669.792583438 1.2944312630089798e6 0.0
1.2944312630089798e6 -201862.85484291962 0.0
0.0 0.0 0.0

-222401.6213792108 1.1323955870165413e6 0.0
1.1323955870165413e6 -222562.32660644807 0.0
0.0 0.0 0.0

-112019.0311780928 1.1409870663397566e6 0.0
1.1409870663397566e6 135595.41475833132 0.0
0.0 0.0 0.0

52346.422348086824 3.559969149785902e6 0.0
3.559969149785902e6 -101846.52180695842 0.0
0.0 0.0 0.0

7924.370385174952 1.0780662260196486e6 0.0
1.0780662260196486e6 -132193.96805013638 0.0
0.0 0.0 0.0

-196444.49324797664 181377.76585777223 0.0
181377.76585777223 53283.660637844194 0.0
0.0 0.0 0.0

372627.58904673596 766059.3292306821 0.0
766059.3292306821 -251848.63494857596 0.0
0.0 0.0 0.0

132766.58183358563 1.0551493791154819e6 0.0
1.0551493791154819e6 -208880.00946688646 0.0
0.0 0.0 0.0

-179141.0191180942 1.0316670951141703e6 0.0
1.0316670951141703e6 272026.3119927674 0.0
0.0 0.0 0.0

-159458.95564927996 2.958482707308857e6 0.0
2.958482707308857e6 -212820.59175167014 0.0
0.0 0.0 0.0

765947.5775460633 310248.8041497984 0.0
310248.8041497984 -1.1550268273235827e6 0.0
0.0 0.0 0.0

1.0481460595364487e6 319477.38299587864 0.0
319477.38299587864 -1.3171216459309862e6 0.0
0.0 0.0 0.0

-140162.01466010502 346060.61661548656 0.0
346060.61661548656 -177741.7370500551 0.0
0.0 0.0 0.0

-311641.5786287325 1.1136153979417004e6 0.0
1.1136153979417004e6 101779.51388767295 0.0
0.0 0.0 0.0

-122041.75995563972 31760.693211667287 0.0
31760.693211667287 143884.46645448141 0.0
0.0 0.0 0.0

-134440.06811005223 231476.29591959767 0.0
231476.29591959767 -101813.73932202178 0.0
0.0 0.0 0.0

-209081.20772085615 550054.3024290344 0.0
550054.3024290344 -31706.17895964451 0.0
0.0 0.0 0.0

377365.3325415326 1.0324970614539423e6 0.0
1.0324970614539423e6 -133338.36336774952 0.0
0.0 0.0 0.0

1.3987939350906094e6 131185.64051222784 0.0
131185.64051222784 -1.7071672266590572e6 0.0
0.0 0.0 0.0

-173439.0244433305 473199.15984144626 0.0
473199.15984144626 -7988.439254370169 0.0
0.0 0.0 0.0

-1.940193049645592e6 803249.123393397 0.0
803249.123393397 3.3259023368396587e6 0.0
0.0 0.0 0.0

-210478.28260718784 651957.8199408493 0.0
651957.8199408493 28190.9930826271 0.0
0.0 0.0 0.0

-112620.5994883096 3.5686657417639922e6 0.0
3.5686657417639922e6 -36709.48671021836 0.0
0.0 0.0 0.0

249326.42322855775 1.9327752635335997e6 0.0
1.9327752635335997e6 -468983.6077077221 0.0
0.0 0.0 0.0

-262869.2723991788 2.2821826893091616e6 0.0
2.2821826893091616e6 48168.31586975751 0.0
0.0 0.0 0.0

-304105.598367278 1.0223600616165852e6 0.0
1.0223600616165852e6 117010.56171450079 0.0
0.0 0.0 0.0

-27580.61186869128 654297.5599349977 0.0
654297.5599349977 772278.562764725 0.0
0.0 0.0 0.0

-503694.7870636351 109626.11673496252 0.0
109626.11673496252 785963.0355287993 0.0
0.0 0.0 0.0

188757.57721920754 2.199642298735843e6 0.0
2.199642298735843e6 -121287.8467993753 0.0
0.0 0.0 0.0

612211.4487556161 131945.72661513687 0.0
131945.72661513687 -1.020010685945596e6 0.0
0.0 0.0 0.0

-147476.03050791193 130296.50953867203 0.0
130296.50953867203 94923.69528232774 0.0
0.0 0.0 0.0

-256247.49476479331 854803.9323928311 0.0
854803.9323928311 92636.11660077232 0.0
0.0 0.0 0.0

-181385.63777140528 2.986942030379153e6 0.0
2.986942030379153e6 -168312.8408007069 0.0
0.0 0.0 0.0

362585.49298806465 1.7601228734917755e6 0.0
1.7601228734917755e6 -110811.68277823608 0.0
0.0 0.0 0.0

17693.350933403366 1.1689835936324268e6 0.0
1.1689835936324268e6 -145171.64290491538 0.0
0.0 0.0 0.0

-84948.07379090712 3.2622132056878833e6 0.0
3.2622132056878833e6 -25354.18670626529 0.0
0.0 0.0 0.0

-251418.57021772675 43601.58221894548 0.0
43601.58221894548 286806.2229975316 0.0
0.0 0.0 0.0

-203393.7036632123 327246.93623341655 0.0
327246.93623341655 108634.80526749969 0.0
0.0 0.0 0.0

-191648.35213316185 118691.914033866 0.0
118691.914033866 121676.14441413751 0.0
0.0 0.0 0.0

-189374.5941645373 578030.9730510488 0.0
578030.9730510488 -246094.84128226415 0.0
0.0 0.0 0.0

-248671.93017393697 909710.9289584989 0.0
909710.9289584989 203501.21459809158 0.0
0.0 0.0 0.0

-241433.0561660388 1.5835754647184669e6 0.0
1.5835754647184669e6 -184353.85830544936 0.0
0.0 0.0 0.0

-358752.2250049319 1.5954306367059425e6 0.0
1.5954306367059425e6 69943.48501898325 0.0
0.0 0.0 0.0

-82247.96384258155 -37857.07494042324 0.0
-37857.07494042324 73078.95752648744 0.0
0.0 0.0 0.0

-140161.70828508618 212461.84127115802 0.0
212461.84127115802 41783.1843867828 0.0
0.0 0.0 0.0

-329040.2850033028 1.2231174944697735e6 0.0
1.2231174944697735e6 93497.56084566528 0.0
0.0 0.0 0.0

73857.08792680252 2.682491958312478e6 0.0
2.682491958312478e6 -136919.4087229215 0.0
0.0 0.0 0.0

-188104.36021018637 2.627843210390167e6 0.0
2.627843210390167e6 55630.298095131424 0.0
0.0 0.0 0.0

-167410.84964131168 512117.826632829 0.0
512117.826632829 -163078.6228269898 0.0
0.0 0.0 0.0

71401.19398874513 4.089824199570519e6 0.0
4.089824199570519e6 -92565.49462523103 0.0
0.0 0.0 0.0

-158885.53331982016 478595.92135814496 0.0
478595.92135814496 -105514.67248441286 0.0
0.0 0.0 0.0

-179072.28945596854 298137.9940299281 0.0
298137.9940299281 69914.75221211495 0.0
0.0 0.0 0.0

-14447.451480123276 -51923.83187041376 0.0
-51923.83187041376 55089.00606781951 0.0
0.0 0.0 0.0

-342803.4601618688 1.3730124515091756e6 0.0
1.3730124515091756e6 82093.77867801317 0.0
0.0 0.0 0.0

707199.3933670772 253788.90840715193 0.0
253788.90840715193 -1.035177304144179e6 0.0
0.0 0.0 0.0

448505.3376246903 412756.0832365932 0.0
412756.0832365932 -597078.9094731149 0.0
0.0 0.0 0.0

-219357.31446051257 952697.4994968227 0.0
952697.4994968227 254002.9468549326 0.0
0.0 0.0 0.0

-333512.08914403163 1.9723190060539837e6 0.0
1.9723190060539837e6 -403440.3462889232 0.0
0.0 0.0 0.0

363076.5302581417 1.71146490503853e6 0.0
1.71146490503853e6 -147516.09951479698 0.0
0.0 0.0 0.0

-393418.80785802956 2.49396881584135e6 0.0
2.49396881584135e6 31164.23740053817 0.0
0.0 0.0 0.0

-199119.6812945862 2.6049034984103697e6 0.0
2.6049034984103697e6 19682.50459263008 0.0
0.0 0.0 0.0

-166468.89837108602 3.6449127637524726e6 0.0
3.6449127637524726e6 -170971.4129194147 0.0
0.0 0.0 0.0

201347.73295308015 877149.7820386189 0.0
877149.7820386189 -236524.62737400978 0.0
0.0 0.0 0.0

-373330.4927567624 1.3113517646304285e6 0.0
1.3113517646304285e6 138844.95605655469 0.0
0.0 0.0 0.0

-227246.79822634632 356727.4540140281 0.0
356727.4540140281 152702.14896784202 0.0
0.0 0.0 0.0

83716.59376394594 1.0256091273428422e6 0.0
1.0256091273428422e6 -212217.69691602286 0.0
0.0 0.0 0.0

-15781.05798034832 3.069550374387099e6 0.0
3.069550374387099e6 84026.43894887855 0.0
0.0 0.0 0.0

-103244.6027993436 1.123952672842026e6 0.0
1.123952672842026e6 192716.92658209108 0.0
0.0 0.0 0.0

-134402.15297678715 2.982658620221593e6 0.0
2.982658620221593e6 -183.54306680433365 0.0
0.0 0.0 0.0

111747.21066209297 1.3912324571163633e6 0.0
1.3912324571163633e6 -192480.50824015436 0.0
0.0 0.0 0.0

-386055.47299945785 1.6049576087934785e6 0.0
1.6049576087934785e6 87304.03453593585 0.0
0.0 0.0 0.0

-215708.96877213268 807540.5422222485 0.0
807540.5422222485 285937.1328009384 0.0
0.0 0.0 0.0

-308588.55167363764 2.2997495212579872e6 0.0
2.2997495212579872e6 20797.171169372145 0.0
0.0 0.0 0.0

320148.72440551774 3.8889331897689835e6 0.0
3.8889331897689835e6 22317.778725881843 0.0
0.0 0.0 0.0

-309759.48706124077 257931.70760575 0.0
257931.70760575 212603.29284229944 0.0
0.0 0.0 0.0

326346.3364881646 1.994807501949755e6 0.0
1.994807501949755e6 -261220.7441968417 0.0
0.0 0.0 0.0

-244426.00786525515 176708.9507460012 0.0
176708.9507460012 163236.92324177187 0.0
0.0 0.0 0.0

-154484.55009254292 168175.16809331474 0.0
168175.16809331474 -3541.1100362929647 0.0
0.0 0.0 0.0

-87685.5849424967 -23559.828935105554 0.0
-23559.828935105554 44906.72801380929 0.0
0.0 0.0 0.0

191957.9281244568 -34110.95239408171 0.0
-34110.95239408171 -136789.78376887337 0.0
0.0 0.0 0.0

-343567.9440314908 285538.22881330654 0.0
285538.22881330654 272172.65088395454 0.0
0.0 0.0 0.0

-70051.85167262323 3.436688503199908e6 0.0
3.436688503199908e6 -6990.182471257125 0.0
0.0 0.0 0.0

-75148.1086429551 3.3125277070412654e6 0.0
3.3125277070412654e6 -2474.9224668204915 0.0
0.0 0.0 0.0

-222959.7219748532 3.669372406929736e6 0.0
3.669372406929736e6 -154486.41218616773 0.0
0.0 0.0 0.0

343976.81313826784 1.9160323816583918e6 0.0
1.9160323816583918e6 -284333.4434489418 0.0
0.0 0.0 0.0

-37256.93386843 617471.835389735 0.0
617471.835389735 675630.0796054908 0.0
0.0 0.0 0.0

-343743.90359238215 1.2351441469687885e6 0.0
1.2351441469687885e6 185187.16988161873 0.0
0.0 0.0 0.0

-403891.3677559581 2.556714635079958e6 0.0
2.556714635079958e6 20331.428789944184 0.0
0.0 0.0 0.0

-519945.1325310634 2.69917847464609e6 0.0
2.69917847464609e6 -10037.537615809386 0.0
0.0 0.0 0.0

-211522.5043874695 449629.7138048942 0.0
449629.7138048942 -3040.2858745019475 0.0
0.0 0.0 0.0

-149545.33410330836 349705.76754636725 0.0
349705.76754636725 -144387.0946169336 0.0
0.0 0.0 0.0

-65894.01468770378 49823.9182960982 0.0
49823.9182960982 -71374.42390365055 0.0
0.0 0.0 0.0

-228144.76871975898 742201.0770961863 0.0
742201.0770961863 136713.98332640756 0.0
0.0 0.0 0.0

-117088.0684343554 320169.53760264104 0.0
320169.53760264104 -92325.51005462217 0.0
0.0 0.0 0.0

-437959.18565650797 242782.880362458 0.0
242782.880362458 395861.52515416243 0.0
0.0 0.0 0.0

369437.8658734293 1.8375527832987343e6 0.0
1.8375527832987343e6 -278809.6176410925 0.0
0.0 0.0 0.0

-228321.04965104593 566730.3724367386 0.0
566730.3724367386 39114.08242768119 0.0
0.0 0.0 0.0

-393050.1097900864 191852.24350411334 0.0
191852.24350411334 358503.4387176578 0.0
0.0 0.0 0.0

-77844.08419311381 885883.4608001785 0.0
885883.4608001785 167735.06930977944 0.0
0.0 0.0 0.0

-180963.83074315218 517831.85562222125 0.0
517831.85562222125 -182844.6905746134 0.0
0.0 0.0 0.0

-389493.9440309786 1.620266916488531e6 0.0
1.620266916488531e6 91878.71939879726 0.0
0.0 0.0 0.0

-384360.09756814735 1.5927704128929072e6 0.0
1.5927704128929072e6 77019.37180430218 0.0
0.0 0.0 0.0

-213646.3388929856 825568.8077836143 0.0
825568.8077836143 270949.91827547527 0.0
0.0 0.0 0.0

144470.93872157802 1.041307867482422e6 0.0
1.041307867482422e6 -235240.01553057178 0.0
0.0 0.0 0.0

-235682.4685414249 748933.295249453 0.0
748933.295249453 83145.04137649026 0.0
0.0 0.0 0.0

-215403.7761413661 395659.70876759646 0.0
395659.70876759646 138445.61552965065 0.0
0.0 0.0 0.0

-178250.68637629232 3.6442104803266735e6 0.0
3.6442104803266735e6 -169664.76318717928 0.0
0.0 0.0 0.0

106267.72931814894 3.595511731306452e6 0.0
3.595511731306452e6 -10079.526825001056 0.0
0.0 0.0 0.0

-215320.19253218517 852212.3667210509 0.0
852212.3667210509 254892.22857773543 0.0
0.0 0.0 0.0

-246411.93978325027 3.7731818603683575e6 0.0
3.7731818603683575e6 -221235.65195530662 0.0
0.0 0.0 0.0

409747.0911865635 433618.56700609316 0.0
433618.56700609316 -569744.5439524447 0.0
0.0 0.0 0.0

-182332.8697706434 481820.8075608676 0.0
481820.8075608676 28519.060847123015 0.0
0.0 0.0 0.0

27931.766202198705 3.9790077314275857e6 0.0
3.9790077314275857e6 -88272.11324549578 0.0
0.0 0.0 0.0

-676962.9731786612 144862.61980903236 0.0
144862.61980903236 866119.2506234087 0.0
0.0 0.0 0.0

475982.64817470545 309273.5202736409 0.0
309273.5202736409 -931463.72829641 0.0
0.0 0.0 0.0

-132565.71105234761 3.759002037825843e6 0.0
3.759002037825843e6 -269983.1318085341 0.0
0.0 0.0 0.0

-181861.704521878 3.432053031874463e6 0.0
3.432053031874463e6 138476.9097496751 0.0
0.0 0.0 0.0

323687.6199554992 457538.0452992012 0.0
457538.0452992012 -606724.377797645 0.0
0.0 0.0 0.0

304186.1637055634 655108.021452811 0.0
655108.021452811 -488960.29206390807 0.0
0.0 0.0 0.0

-159451.71154126688 1.0956037069530508e6 0.0
1.0956037069530508e6 -95985.82895811458 0.0
0.0 0.0 0.0

-220794.8918548533 73118.89719321283 0.0
73118.89719321283 228717.88554855267 0.0
0.0 0.0 0.0

-99310.3741825317 84730.22823248726 0.0
84730.22823248726 -28132.087950537218 0.0
0.0 0.0 0.0

218420.76107199787 703296.7308049628 0.0
703296.7308049628 -713944.1327750769 0.0
0.0 0.0 0.0

-154668.49092306916 300019.9819910499 0.0
300019.9819910499 -95413.51533221961 0.0
0.0 0.0 0.0

-215794.3251168942 164044.75623121994 0.0
164044.75623121994 88632.54015390843 0.0
0.0 0.0 0.0

-210999.9059544609 1.1460927107544248e6 0.0
1.1460927107544248e6 121535.24972844947 0.0
0.0 0.0 0.0

-207766.36146254902 -102345.46589128766 0.0
-102345.46589128766 253908.16096381575 0.0
0.0 0.0 0.0

-201228.85707071912 490838.44671159115 0.0
490838.44671159115 -37686.89487880524 0.0
0.0 0.0 0.0

-240534.73579781078 917149.2219733881 0.0
917149.2219733881 220330.96487269746 0.0
0.0 0.0 0.0

163249.34386600924 2.5263562985141873e6 0.0
2.5263562985141873e6 -399065.9839173619 0.0
0.0 0.0 0.0

-403233.8459544359 6389.05970924003 0.0
6389.05970924003 405958.5694154648 0.0
0.0 0.0 0.0

-58027.63204295747 20405.12109318721 0.0
20405.12109318721 -76478.2363942152 0.0
0.0 0.0 0.0

890757.1607840033 396858.7812183666 0.0
396858.7812183666 -1.3071555577618624e6 0.0
0.0 0.0 0.0

188982.05132009904 3.734602924172306e6 0.0
3.734602924172306e6 -35955.521985670275 0.0
0.0 0.0 0.0

-1.0291309400384938e6 139889.28316626462 0.0
139889.28316626462 1.1426725555533648e6 0.0
0.0 0.0 0.0

11715.942364187067 708893.937328332 0.0
708893.937328332 -101671.70322398664 0.0
0.0 0.0 0.0

-227097.9045280015 160499.97734489094 0.0
160499.97734489094 94809.39066734008 0.0
0.0 0.0 0.0

-181554.07761157732 892558.347421291 0.0
892558.347421291 15315.576655363708 0.0
0.0 0.0 0.0

-7628.658376742591 1.1247293294582467e6 0.0
1.1247293294582467e6 -155045.75064322556 0.0
0.0 0.0 0.0

55005.535581857854 722694.9940955858 0.0
722694.9940955858 114678.33594557205 0.0
0.0 0.0 0.0

573291.525979588 283783.91082328005 0.0
283783.91082328005 -1.0443355020493555e6 0.0
0.0 0.0 0.0

-3246.7441692893553 1.0315490308445294e6 0.0
1.0315490308445294e6 -204032.65293538035 0.0
0.0 0.0 0.0

284024.9637756612 4.0313381988421134e6 0.0
4.0313381988421134e6 -48363.55118162425 0.0
0.0 0.0 0.0

-193243.32094425897 495697.72731545655 0.0
495697.72731545655 64601.14975829824 0.0
0.0 0.0 0.0

-364038.37692889955 -119783.6985453237 0.0
-119783.6985453237 419634.1442552436 0.0
0.0 0.0 0.0

-95199.1971392455 1.024831048292317e6 0.0
1.024831048292317e6 229427.80555116027 0.0
0.0 0.0 0.0

-141624.8004592183 1.0388335906318316e6 0.0
1.0388335906318316e6 7417.838621888586 0.0
0.0 0.0 0.0

-42702.56222594771 -44216.97603130155 0.0
-44216.97603130155 -81436.06818217342 0.0
0.0 0.0 0.0

-209818.7884653535 688223.7290232624 0.0
688223.7290232624 1.0556203561543857e6 0.0
0.0 0.0 0.0

-211921.14052135858 266277.8709174913 0.0
266277.8709174913 21375.982921426083 0.0
0.0 0.0 0.0

-176495.69651672684 192930.74268661052 0.0
192930.74268661052 12115.894614412267 0.0
0.0 0.0 0.0

-868347.7761928344 107781.0327997163 0.0
107781.0327997163 938133.1503714608 0.0
0.0 0.0 0.0

-127258.62708285096 919970.8480352692 0.0
919970.8480352692 394376.61761349475 0.0
0.0 0.0 0.0

-309893.44449620537 1.0938365201896946e6 0.0
1.0938365201896946e6 277267.03299686493 0.0
0.0 0.0 0.0

-422758.03091560863 2.9022472611600203e6 0.0
2.9022472611600203e6 5681.238497310231 0.0
0.0 0.0 0.0

-235688.16662988576 632618.9743362806 0.0
632618.9743362806 78573.52968176924 0.0
0.0 0.0 0.0

-442212.86326888227 46167.33967457613 0.0
46167.33967457613 661798.1512656403 0.0
0.0 0.0 0.0

366774.8496625075 1.281307735232624e6 0.0
1.281307735232624e6 -190797.51689110172 0.0
0.0 0.0 0.0

287788.0092937423 2.151188268731091e6 0.0
2.151188268731091e6 -187043.43516247685 0.0
0.0 0.0 0.0

-160869.8011671235 357419.96804646245 0.0
357419.96804646245 -108533.23214577217 0.0
0.0 0.0 0.0

-474642.38879880693 4.4446957547206795e6 0.0
4.4446957547206795e6 127747.09141977571 0.0
0.0 0.0 0.0

-171283.5358710991 -15549.227575072553 0.0
-15549.227575072553 236939.1948867835 0.0
0.0 0.0 0.0

46878.862453922426 3.5985765532014836e6 0.0
3.5985765532014836e6 -25748.361097816 0.0
0.0 0.0 0.0

19885.501493889828 4.313465296420034e6 0.0
4.313465296420034e6 -79353.05495942303 0.0
0.0 0.0 0.0

-19561.60869377449 -21723.632943719538 0.0
-21723.632943719538 -47675.69287216102 0.0
0.0 0.0 0.0

-129973.84528262899 604872.8016297335 0.0
604872.8016297335 -187406.77045490098 0.0
0.0 0.0 0.0

-97391.01496059843 3.8236334032509434e6 0.0
3.8236334032509434e6 -66017.2820216305 0.0
0.0 0.0 0.0

32738.658028498467 706145.7475359257 0.0
706145.7475359257 875267.2137256204 0.0
0.0 0.0 0.0

32515.088384104572 893640.5264664011 0.0
893640.5264664011 60154.84248302887 0.0
0.0 0.0 0.0

-185856.92377258104 241164.2091904325 0.0
241164.2091904325 -6494.919629127311 0.0
0.0 0.0 0.0

-489996.6540827779 4.1071300706936875e6 0.0
4.1071300706936875e6 78944.64545976534 0.0
0.0 0.0 0.0

-285647.9641997511 903486.1743072994 0.0
903486.1743072994 170085.70310029807 0.0
0.0 0.0 0.0

-198832.90287118268 217698.70356728137 0.0
217698.70356728137 30416.134954756984 0.0
0.0 0.0 0.0

344241.3322748706 485335.295848875 0.0
485335.295848875 -720532.90738889 0.0
0.0 0.0 0.0

1.3331931932451408e6 163626.14783074983 0.0
163626.14783074983 -1.6173954274869752e6 0.0
0.0 0.0 0.0

243676.0172312573 2.257332723481783e6 0.0
2.257332723481783e6 -362129.60157833004 0.0
0.0 0.0 0.0

364339.649565649 1.5919306007807357e6 0.0
1.5919306007807357e6 -226655.7487210828 0.0
0.0 0.0 0.0

193508.4809268501 2.568081348911278e6 0.0
2.568081348911278e6 -326536.879242072 0.0
0.0 0.0 0.0

-402414.630633666 4.766287706816502e6 0.0
4.766287706816502e6 112212.82298741661 0.0
0.0 0.0 0.0

-277765.9381602761 894229.5998473126 0.0
894229.5998473126 66311.98566995627 0.0
0.0 0.0 0.0

58730.78666368706 2.7343218433285914e6 0.0
2.7343218433285914e6 -196319.39726543732 0.0
0.0 0.0 0.0

23852.009347496438 3.080162302283698e6 0.0
3.080162302283698e6 -252333.64077074808 0.0
0.0 0.0 0.0

376861.22100379126 1.3583977606932044e6 0.0
1.3583977606932044e6 -110839.42720052038 0.0
0.0 0.0 0.0

-247375.63551508868 723775.2241249441 0.0
723775.2241249441 144712.84435256582 0.0
0.0 0.0 0.0

-56931.003013926704 989701.1590418359 0.0
989701.1590418359 206410.21869456308 0.0
0.0 0.0 0.0

-110725.74604306647 1.099947967316227e6 0.0
1.099947967316227e6 211666.59728720327 0.0
0.0 0.0 0.0

-3.1138333822748605e6 99024.30044933892 0.0
99024.30044933892 3.798155747351962e6 0.0
0.0 0.0 0.0

-108717.22647462238 -16435.683173634792 0.0
-16435.683173634792 124255.67945540449 0.0
0.0 0.0 0.0

-19340.09356693677 5.9351976722401865e6 0.0
5.9351976722401865e6 -95354.69431878938 0.0
0.0 0.0 0.0

-24856.93018603974 621776.0764963647 0.0
621776.0764963647 315048.40425501583 0.0
0.0 0.0 0.0

-522744.5763319783 3.8194490556395524e6 0.0
3.8194490556395524e6 81602.07052783022 0.0
0.0 0.0 0.0

-2523.1800183956075 3.5445500146652125e6 0.0
3.5445500146652125e6 -315116.54890943755 0.0
0.0 0.0 0.0

99306.65376444728 1.7743462281091274e6 0.0
1.7743462281091274e6 -154814.9399808902 0.0
0.0 0.0 0.0

-252118.63548408335 869612.1714919971 0.0
869612.1714919971 157013.85318944516 0.0
0.0 0.0 0.0

1.323684754004768e6 79075.09295648112 0.0
79075.09295648112 -1.6946570947541986e6 0.0
0.0 0.0 0.0

31409.31098675907 2.3503780223612185e6 0.0
2.3503780223612185e6 -63434.56180824866 0.0
0.0 0.0 0.0

369895.38779673143 1.2716490141518791e6 0.0
1.2716490141518791e6 -207924.90966549126 0.0
0.0 0.0 0.0

86936.45280681786 3.222865144816598e6 0.0
3.222865144816598e6 -104182.44264749924 0.0
0.0 0.0 0.0

681362.4718430301 299083.0608448012 0.0
299083.0608448012 -1.0645810034509539e6 0.0
0.0 0.0 0.0

-200379.04093901027 594796.4473956765 0.0
594796.4473956765 37482.75282349426 0.0
0.0 0.0 0.0

228247.33796967106 1.123599968732332e6 0.0
1.123599968732332e6 242845.5368359136 0.0
0.0 0.0 0.0

-164645.6953920921 233853.93161407908 0.0
233853.93161407908 -190016.82454075114 0.0
0.0 0.0 0.0

-255131.6752529085 869628.0133965081 0.0
869628.0133965081 258494.02705777896 0.0
0.0 0.0 0.0

365212.8835176092 591028.0975342767 0.0
591028.0975342767 -382937.7121581121 0.0
0.0 0.0 0.0

-238463.39003696473 1.3517735188650927e6 0.0
1.3517735188650927e6 -320883.2001413767 0.0
0.0 0.0 0.0

-92597.01478351635 3.7312147620909302e6 0.0
3.7312147620909302e6 -186198.18772546784 0.0
0.0 0.0 0.0

-211949.40599797387 774285.0004817585 0.0
774285.0004817585 730069.8665761519 0.0
0.0 0.0 0.0

-54475.066412606364 1.1762721229492712e6 0.0
1.1762721229492712e6 -81924.16315136352 0.0
0.0 0.0 0.0

-138120.64710149053 285763.496342738 0.0
285763.496342738 -129638.21159551275 0.0
0.0 0.0 0.0

-659089.9387510678 83845.15598480745 0.0
83845.15598480745 551528.2826575569 0.0
0.0 0.0 0.0

-207518.5682403904 794265.3991621073 0.0
794265.3991621073 755270.9642142595 0.0
0.0 0.0 0.0

-227116.5743709087 321455.2595445312 0.0
321455.2595445312 31982.928346052315 0.0
0.0 0.0 0.0

-301559.67363504786 22932.105600699473 0.0
22932.105600699473 256291.1226706033 0.0
0.0 0.0 0.0

-191204.96214231092 449020.204356823 0.0
449020.204356823 66501.15511713718 0.0
0.0 0.0 0.0

-276416.30060857406 720129.1832996019 0.0
720129.1832996019 220656.77341249946 0.0
0.0 0.0 0.0

-267739.4894820986 22109.90792372044 0.0
22109.90792372044 301729.4170327069 0.0
0.0 0.0 0.0

-34048.21113578484 3.393808283029197e6 0.0
3.393808283029197e6 -220195.4300892249 0.0
0.0 0.0 0.0

-267298.73263491166 923035.7036123009 0.0
923035.7036123009 93502.20214032856 0.0
0.0 0.0 0.0

-252945.76803913247 351658.0426616908 0.0
351658.0426616908 68642.97923541947 0.0
0.0 0.0 0.0

-1.0605896783322277e6 -31421.533299381375 0.0
-31421.533299381375 1.0124826331073141e6 0.0
0.0 0.0 0.0

-122420.99191333537 1.0878620879299818e6 0.0
1.0878620879299818e6 185189.884467336 0.0
0.0 0.0 0.0

-158576.6664656012 193489.12970348186 0.0
193489.12970348186 72355.40256316954 0.0
0.0 0.0 0.0

320761.4469097703 493188.96427489986 0.0
493188.96427489986 -671068.1876379687 0.0
0.0 0.0 0.0

-512502.1460738954 682498.15372398 0.0
682498.15372398 1.2918094577187416e6 0.0
0.0 0.0 0.0

-283448.0602349891 282073.8450203838 0.0
282073.8450203838 191330.69787204312 0.0
0.0 0.0 0.0

241328.28990634347 2.1644521747927796e6 0.0
2.1644521747927796e6 -165708.92010076845 0.0
0.0 0.0 0.0

1.1352089977429179e6 142038.12400387521 0.0
142038.12400387521 -1.4650538897306947e6 0.0
0.0 0.0 0.0

-93856.45862683622 656226.671292 0.0
656226.671292 690189.5818008633 0.0
0.0 0.0 0.0

-225718.3025647453 700802.284567636 0.0
700802.284567636 922393.8058646619 0.0
0.0 0.0 0.0

-233481.02015369048 3.470484516912711e6 0.0
3.470484516912711e6 -318046.6728999667 0.0
0.0 0.0 0.0

-215529.53331696236 885055.4697615447 0.0
885055.4697615447 254990.78240506165 0.0
0.0 0.0 0.0

-446015.6070312379 3.260943390789904e6 0.0
3.260943390789904e6 27811.622129836644 0.0
0.0 0.0 0.0

113441.13025225351 1.4851545530300653e6 0.0
1.4851545530300653e6 -180597.51736071552 0.0
0.0 0.0 0.0

-95136.47836266145 -4832.8694714363755 0.0
-4832.8694714363755 110146.08066766553 0.0
0.0 0.0 0.0

244896.0810572705 710712.8745085864 0.0
710712.8745085864 -370327.87365484686 0.0
0.0 0.0 0.0

-218054.00802135252 658580.207377254 0.0
658580.207377254 187706.3208799071 0.0
0.0 0.0 0.0

-268404.8958655803 241003.3994128291 0.0
241003.3994128291 173182.6965241874 0.0
0.0 0.0 0.0

277.1392396540723 465127.6926990951 0.0
465127.6926990951 -97278.760126305 0.0
0.0 0.0 0.0

549687.5015539291 369273.42767131224 0.0
369273.42767131224 -1.0283939186354459e6 0.0
0.0 0.0 0.0

296064.95354192227 533252.2674125842 0.0
533252.2674125842 -605695.3251111419 0.0
0.0 0.0 0.0

378212.79678182886 4.1585409067857075e6 0.0
4.1585409067857075e6 -21975.74745420969 0.0
0.0 0.0 0.0

-294348.2195743121 977973.1925544835 0.0
977973.1925544835 68054.94008163208 0.0
0.0 0.0 0.0

-267601.6303275741 917990.2777324468 0.0
917990.2777324468 153070.91405185405 0.0
0.0 0.0 0.0

-235693.4076779078 2.2322528347715302e6 0.0
2.2322528347715302e6 -3873.328899922926 0.0
0.0 0.0 0.0

658358.9558683652 253622.64343261984 0.0
253622.64343261984 -702756.2489195839 0.0
0.0 0.0 0.0

-46195.36447921057 664980.0332630756 0.0
664980.0332630756 -155899.82166787345 0.0
0.0 0.0 0.0

-215708.74718800408 630510.4856842512 0.0
630510.4856842512 148135.4509191657 0.0
0.0 0.0 0.0

101953.59308024748 2.7512593315930227e6 0.0
2.7512593315930227e6 -169651.2621460051 0.0
0.0 0.0 0.0

-434640.1657281986 3.1279584218542874e6 0.0
3.1279584218542874e6 25996.09240388937 0.0
0.0 0.0 0.0

-57977.94390088627 -62011.32065287408 0.0
-62011.32065287408 167259.1518156506 0.0
0.0 0.0 0.0

-319416.67398004094 134002.5999351992 0.0
134002.5999351992 201575.6151998153 0.0
0.0 0.0 0.0

-421638.61709436285 3.0070066843095557e6 0.0
3.0070066843095557e6 30498.65405630393 0.0
0.0 0.0 0.0

-143339.4913702403 4.0095792404048783e6 0.0
4.0095792404048783e6 -149834.51916177844 0.0
0.0 0.0 0.0

285554.1469606487 1.530581528500138e6 0.0
1.530581528500138e6 -397594.20333084534 0.0
0.0 0.0 0.0

-141057.03344585342 345244.4439416535 0.0
345244.4439416535 -32172.139105186256 0.0
0.0 0.0 0.0

634706.2925112555 354469.75269358774 0.0
354469.75269358774 -1.106746064594021e6 0.0
0.0 0.0 0.0

-417374.97812589054 1.6634292446746652e6 0.0
1.6634292446746652e6 100488.85610862257 0.0
0.0 0.0 0.0

-85864.22076826362 1.1470467633554528e6 0.0
1.1470467633554528e6 170163.3896739256 0.0
0.0 0.0 0.0

324158.9197920596 514556.43990154564 0.0
514556.43990154564 -679387.4186459291 0.0
0.0 0.0 0.0

-263454.87132613955 922981.7640848311 0.0
922981.7640848311 157300.65236570215 0.0
0.0 0.0 0.0

-414795.734131591 122977.55170960476 0.0
122977.55170960476 302070.7238513243 0.0
0.0 0.0 0.0

153701.51902040804 1.993488077447587e6 0.0
1.993488077447587e6 -432669.67344744166 0.0
0.0 0.0 0.0

-141923.2624179184 926995.4872273994 0.0
926995.4872273994 112762.07387697372 0.0
0.0 0.0 0.0

-233566.98045943136 781812.905953384 0.0
781812.905953384 129660.40312337317 0.0
0.0 0.0 0.0

299745.544836874 551949.0577324381 0.0
551949.0577324381 -611184.7344910131 0.0
0.0 0.0 0.0

-287486.08014254825 5.149905657962219e6 0.0
5.149905657962219e6 -43045.20232948941 0.0
0.0 0.0 0.0

-309308.96813834854 328910.88420236047 0.0
328910.88420236047 178860.61591212387 0.0
0.0 0.0 0.0

321576.4128795535 848296.1314685727 0.0
848296.1314685727 -684483.0155382238 0.0
0.0 0.0 0.0

-4251.21090506122 -93791.30985162934 0.0
-93791.30985162934 71052.56425751824 0.0
0.0 0.0 0.0

-212735.68428971156 500174.48936930054 0.0
500174.48936930054 -2152.91060459883 0.0
0.0 0.0 0.0

-668880.469463852 568579.8348339124 0.0
568579.8348339124 1.2508702266158736e6 0.0
0.0 0.0 0.0

-114762.5083505383 270757.5096037695 0.0
270757.5096037695 -44556.316854412056 0.0
0.0 0.0 0.0

-2.105842363009031e6 643707.3462796973 0.0
643707.3462796973 2.983153656629297e6 0.0
0.0 0.0 0.0

-190922.17603137463 536270.5992967087 0.0
536270.5992967087 32574.371103972895 0.0
0.0 0.0 0.0

186620.77430915064 985647.1807396999 0.0
985647.1807396999 -233197.99383683686 0.0
0.0 0.0 0.0

127065.59606291933 1.7834707200528814e6 0.0
1.7834707200528814e6 -236367.0052050594 0.0
0.0 0.0 0.0

6.030325046129914e6 2.3041939175817263e6 0.0
2.3041939175817263e6 -1.6587496522841216e6 0.0
0.0 0.0 0.0

-412768.8802132022 -117853.55336260416 0.0
-117853.55336260416 467568.1577718201 0.0
0.0 0.0 0.0

1.3888815094495341e6 142384.84798185437 0.0
142384.84798185437 -1.6777951884935673e6 0.0
0.0 0.0 0.0

-393056.3830344079 26051.734113242208 0.0
26051.734113242208 422210.2435542456 0.0
0.0 0.0 0.0

-153593.0290136887 2.644511246045095e6 0.0
2.644511246045095e6 -13916.006700159567 0.0
0.0 0.0 0.0

-844844.4976778756 -160037.26973567766 0.0
-160037.26973567766 952471.8726612937 0.0
0.0 0.0 0.0

155049.04000910683 536226.4280201468 0.0
536226.4280201468 -442666.65116989036 0.0
0.0 0.0 0.0

-246774.23582195726 202315.92768821836 0.0
202315.92768821836 150951.333122626 0.0
0.0 0.0 0.0

-285854.4339245914 382484.30100475805 0.0
382484.30100475805 111325.22049640586 0.0
0.0 0.0 0.0

1.3216744345834246e6 168850.76548976137 0.0
168850.76548976137 -1.6060997188765532e6 0.0
0.0 0.0 0.0

211643.96357818137 2.500146834317281e6 0.0
2.500146834317281e6 -356560.14976489736 0.0
0.0 0.0 0.0

-433253.4242618792 3.3985652327965577e6 0.0
3.3985652327965577e6 92013.79665793988 0.0
0.0 0.0 0.0

40083.575834238145 2.365193407201003e6 0.0
2.365193407201003e6 -499101.5076665105 0.0
0.0 0.0 0.0

-20174.49905308682 1.1975945896901493e6 0.0
1.1975945896901493e6 -40045.62461614992 0.0
0.0 0.0 0.0

-5.040302270153614e6 -222633.0163354648 0.0
-222633.0163354648 5.188292691742636e6 0.0
0.0 0.0 0.0

1.0319799450391462e6 574685.9941641357 0.0
574685.9941641357 -1.487514207190746e6 0.0
0.0 0.0 0.0

794030.6801880072 1.0062605467739314e6 0.0
1.0062605467739314e6 -1.0175048282679189e6 0.0
0.0 0.0 0.0

304703.655144149 1.8148868405416969e6 0.0
1.8148868405416969e6 -340610.45808303775 0.0
0.0 0.0 0.0

896151.115772971 330127.04597513523 0.0
330127.04597513523 -1.2425487403366477e6 0.0
0.0 0.0 0.0

-353851.94551401347 796860.0043324989 0.0
796860.0043324989 553022.8076609902 0.0
0.0 0.0 0.0

181273.81838350056 2.4584630883796127e6 0.0
2.4584630883796127e6 -179602.7109538191 0.0
0.0 0.0 0.0

-456454.99015335954 -124731.46693259793 0.0
-124731.46693259793 516394.42183401086 0.0
0.0 0.0 0.0

-57705.56697597889 56348.672317353296 0.0
56348.672317353296 45635.027770590226 0.0
0.0 0.0 0.0

-285152.8906577785 976719.812180869 0.0
976719.812180869 145579.15952297024 0.0
0.0 0.0 0.0

-242977.9812577241 654433.3635871338 0.0
654433.3635871338 105433.45197915539 0.0
0.0 0.0 0.0

-139815.46740788806 192267.67071930238 0.0
192267.67071930238 -56806.00000795925 0.0
0.0 0.0 0.0

-165784.4254833152 -26642.700691854094 0.0
-26642.700691854094 258061.2159856215 0.0
0.0 0.0 0.0

-51202.26369708829 1.77973412161059e6 0.0
1.77973412161059e6 -63470.664999174354 0.0
0.0 0.0 0.0

-148588.97764709988 3.9518818473530873e6 0.0
3.9518818473530873e6 -118039.63274964335 0.0
0.0 0.0 0.0

-101167.43057727053 -225044.9208893555 0.0
-225044.9208893555 247068.92646749772 0.0
0.0 0.0 0.0

-191227.66785831528 2.99778536665705e6 0.0
2.99778536665705e6 -7392.804542055361 0.0
0.0 0.0 0.0

-369610.07229576306 272525.8391361772 0.0
272525.8391361772 193705.4724814655 0.0
0.0 0.0 0.0

-127820.00546311753 331703.3121091383 0.0
331703.3121091383 -63158.07508983332 0.0
0.0 0.0 0.0

-490093.54979572585 -128878.87186648953 0.0
-128878.87186648953 555093.1026097105 0.0
0.0 0.0 0.0

1.3576782774787694e6 159735.69827510728 0.0
159735.69827510728 -1.6375663066541236e6 0.0
0.0 0.0 0.0

919316.3365052142 362303.60546078434 0.0
362303.60546078434 -1.221125120548833e6 0.0
0.0 0.0 0.0

-258748.9833199375 176155.0719505836 0.0
176155.0719505836 114904.61941332322 0.0
0.0 0.0 0.0

991187.1223837235 447118.7875695477 0.0
447118.7875695477 -1.2841530708548839e6 0.0
0.0 0.0 0.0

-1.4171599151853318e6 -201367.03657510897 0.0
-201367.03657510897 1.52230996921242e6 0.0
0.0 0.0 0.0

301391.9782808876 1.1863885739272835e6 0.0
1.1863885739272835e6 -384721.24116432155 0.0
0.0 0.0 0.0

396524.15527189 557537.6832231389 0.0
557537.6832231389 -398663.5385105693 0.0
0.0 0.0 0.0

250205.79690047842 3.7903417281468916e6 0.0
3.7903417281468916e6 12401.77774179948 0.0
0.0 0.0 0.0

-288089.649041048 1.0822347779278948e6 0.0
1.0822347779278948e6 285319.77793127886 0.0
0.0 0.0 0.0

-226573.08581347083 732946.5600017871 0.0
732946.5600017871 124626.97993085977 0.0
0.0 0.0 0.0

-96544.48942018584 3.5743988579550264e6 0.0
3.5743988579550264e6 -53151.079844805325 0.0
0.0 0.0 0.0

-519766.52021638956 1.7937627056902717e6 0.0
1.7937627056902717e6 163912.53751699202 0.0
0.0 0.0 0.0

-234927.18426473677 826065.7506908196 0.0
826065.7506908196 188440.92823351847 0.0
0.0 0.0 0.0

-3217.692214803006 1.0465400959010017e6 0.0
1.0465400959010017e6 37459.59572399738 0.0
0.0 0.0 0.0

1.0772481991899516e6 309595.54131075327 0.0
309595.54131075327 -1.27754668474115e6 0.0
0.0 0.0 0.0

1.3128071768380515e6 182539.93543751727 0.0
182539.93543751727 -1.5598073962980667e6 0.0
0.0 0.0 0.0

1.1557689259961548e6 251495.88463778302 0.0
251495.88463778302 -1.3751181152669324e6 0.0
0.0 0.0 0.0

-322274.7686320117 1.2001603883660457e6 0.0
1.2001603883660457e6 79085.72764915577 0.0
0.0 0.0 0.0

-48687.502029737996 -12674.632058105552 0.0
-12674.632058105552 -81215.03731156097 0.0
0.0 0.0 0.0

-899768.3488758309 -165257.5507593215 0.0
-165257.5507593215 1.004691320451916e6 0.0
0.0 0.0 0.0

-234376.65691120017 179555.21938508225 0.0
179555.21938508225 94618.47756141968 0.0
0.0 0.0 0.0

1.0950481600567903e6 167069.71991515666 0.0
167069.71991515666 -1.548937772133627e6 0.0
0.0 0.0 0.0

-234722.17263614314 991063.4905057165 0.0
991063.4905057165 374178.99894193193 0.0
0.0 0.0 0.0

88369.51561291468 575145.8691440374 0.0
575145.8691440374 -323482.06792948995 0.0
0.0 0.0 0.0

-224532.3846791259 -92380.63034646634 0.0
-92380.63034646634 233025.76265758954 0.0
0.0 0.0 0.0

-113742.37725908158 59128.677958282635 0.0
59128.677958282635 65148.55203891808 0.0
0.0 0.0 0.0

-781313.342692845 94264.42882117443 0.0
94264.42882117443 662266.5083862226 0.0
0.0 0.0 0.0

-240203.83660288228 794964.545306039 0.0
794964.545306039 394207.40553455363 0.0
0.0 0.0 0.0

258639.10298295176 741805.2031892429 0.0
741805.2031892429 -488825.7966156724 0.0
0.0 0.0 0.0

1.120945027250827e6 284089.2708577821 0.0
284089.2708577821 -1.336285349906135e6 0.0
0.0 0.0 0.0

1.3920866612156539e6 130477.88839786132 0.0
130477.88839786132 -1.5657311190180806e6 0.0
0.0 0.0 0.0

509943.4355028407 3.9409042249284596e6 0.0
3.9409042249284596e6 -62681.468289899436 0.0
0.0 0.0 0.0

-1.357681840412885e6 -201549.12919571126 0.0
-201549.12919571126 1.490345567990956e6 0.0
0.0 0.0 0.0

737972.0278427567 361934.4130799053 0.0
361934.4130799053 -1.1084618939378208e6 0.0
0.0 0.0 0.0

-3.0973422635108037e6 -310311.54520730773 0.0
-310311.54520730773 2.923498750292233e6 0.0
0.0 0.0 0.0

1.0544102861717837e6 362445.4080595081 0.0
362445.4080595081 -1.271982084938375e6 0.0
0.0 0.0 0.0

-231411.39751038118 931536.9708470242 0.0
931536.9708470242 239630.5713836567 0.0
0.0 0.0 0.0

-154662.98577418728 1.9402491709762411e6 0.0
1.9402491709762411e6 -448346.4342389936 0.0
0.0 0.0 0.0

-161216.69152519346 3.604300447412851e6 0.0
3.604300447412851e6 -387343.89935845224 0.0
0.0 0.0 0.0

197644.47042068426 1.4771825495824043e6 0.0
1.4771825495824043e6 -359773.4168509194 0.0
0.0 0.0 0.0

-1.5006545110855969e6 -217507.47181150893 0.0
-217507.47181150893 1.572409292117422e6 0.0
0.0 0.0 0.0

1.1286141144765588e6 272631.5233856311 0.0
272631.5233856311 -1.3455392000554237e6 0.0
0.0 0.0 0.0

-414845.90837724536 295369.83173684904 0.0
295369.83173684904 254729.11332605226 0.0
0.0 0.0 0.0

-327528.87978299713 255904.41072403308 0.0
255904.41072403308 153045.7857855725 0.0
0.0 0.0 0.0

-498155.1367781963 136661.18924278597 0.0
136661.18924278597 375475.3096417088 0.0
0.0 0.0 0.0

-110170.89460689331 220766.52116973215 0.0
220766.52116973215 -14540.457978981336 0.0
0.0 0.0 0.0

-104809.43499323091 757207.9090839557 0.0
757207.9090839557 1.1459555687790776e6 0.0
0.0 0.0 0.0

-135068.9614326268 3.9659871372451764e6 0.0
3.9659871372451764e6 -95674.37143396464 0.0
0.0 0.0 0.0

-368161.02427219355 1.391438974879901e6 0.0
1.391438974879901e6 92151.95822712328 0.0
0.0 0.0 0.0

-119566.76431448398 3.857213737745832e6 0.0
3.857213737745832e6 -75804.04107120285 0.0
0.0 0.0 0.0

372396.66407545225 1.026964534664503e6 0.0
1.026964534664503e6 -166225.27629581097 0.0
0.0 0.0 0.0

-288286.3489887077 1.053325241582856e6 0.0
1.053325241582856e6 221946.65042344845 0.0
0.0 0.0 0.0

-5031.200559586723 1.1820571622897296e6 0.0
1.1820571622897296e6 -124329.57229129749 0.0
0.0 0.0 0.0

335020.5850055529 1.3651147162710167e6 0.0
1.3651147162710167e6 -289673.9156190002 0.0
0.0 0.0 0.0

-544074.8258961606 231598.37352765276 0.0
231598.37352765276 553637.4597403269 0.0
0.0 0.0 0.0

-297524.92007453076 189986.94620093686 0.0
189986.94620093686 147054.3000629361 0.0
0.0 0.0 0.0

306764.68842786027 632267.3713610636 0.0
632267.3713610636 -516159.8796760171 0.0
0.0 0.0 0.0

-678243.6066123892 -146419.7706567809 0.0
-146419.7706567809 771162.9897334174 0.0
0.0 0.0 0.0

1.3024080496977726e6 172136.9667442466 0.0
172136.9667442466 -1.5822659799807426e6 0.0
0.0 0.0 0.0

-97512.59809160029 824215.1590517383 0.0
824215.1590517383 481593.5935324931 0.0
0.0 0.0 0.0

-1.2617973636399638e6 -187563.5374692061 0.0
-187563.5374692061 1.3944824201555504e6 0.0
0.0 0.0 0.0

1.1896828465691777e6 230148.5538889018 0.0
230148.5538889018 -1.4193516215532813e6 0.0
0.0 0.0 0.0

1.287499271052137e6 178012.1307137808 0.0
178012.1307137808 -1.5513691705611225e6 0.0
0.0 0.0 0.0

-728941.577814704 -149141.59299851308 0.0
-149141.59299851308 820487.5550501469 0.0
0.0 0.0 0.0

-1.2251124941694443e6 602884.5251535967 0.0
602884.5251535967 2.15827540854681e6 0.0
0.0 0.0 0.0

1.217407781713155e6 221437.40050263 0.0
221437.40050263 -1.455448859760639e6 0.0
0.0 0.0 0.0

-1.174224152760286e6 -181067.5124882482 0.0
-181067.5124882482 1.2898856400296108e6 0.0
0.0 0.0 0.0

-336791.8415695944 780552.2417497259 0.0
780552.2417497259 404629.64205326024 0.0
0.0 0.0 0.0

-520147.588380228 -63215.86836401559 0.0
-63215.86836401559 596162.8604293971 0.0
0.0 0.0 0.0

-786523.7900588424 -150522.51960049337 0.0
-150522.51960049337 887243.5670163753 0.0
0.0 0.0 0.0

1.305943872050268e6 182707.93607450073 0.0
182707.93607450073 -1.5648898215226708e6 0.0
0.0 0.0 0.0

1.2306033743870035e6 217131.38444478938 0.0
217131.38444478938 -1.4720058845086878e6 0.0
0.0 0.0 0.0

-1.1027176649632258e6 -179570.24567153526 0.0
-179570.24567153526 1.2081632885557886e6 0.0
0.0 0.0 0.0

-8.621451221658109e6 1.8204264080239243e6 0.0
1.8204264080239243e6 2.792639077177774e6 0.0
0.0 0.0 0.0

9.082207599128623e6 4.304114421712486e6 0.0
4.304114421712486e6 -1.5227497488776399e6 0.0
0.0 0.0 0.0

-161418.53360724723 216750.50440374744 0.0
216750.50440374744 -32639.4379992791 0.0
0.0 0.0 0.0

1.2427254294422339e6 204645.1789354118 0.0
204645.1789354118 -1.4843995006213551e6 0.0
0.0 0.0 0.0

-1.0370420342070248e6 -177931.22047237505 0.0
-177931.22047237505 1.1460798559365561e6 0.0
0.0 0.0 0.0

-87760.4557799432 1.0504316714469038e6 0.0
1.0504316714469038e6 -119728.5415975714 0.0
0.0 0.0 0.0

-295819.46668365225 214541.60565787504 0.0
214541.60565787504 135504.90330308262 0.0
0.0 0.0 0.0

-305741.4746700401 1.0443656388821105e6 0.0
1.0443656388821105e6 137126.40879379795 0.0
0.0 0.0 0.0

-65695.13426759126 849763.2303844446 0.0
849763.2303844446 518387.9474247805 0.0
0.0 0.0 0.0

-976327.8997896437 -166134.25602973468 0.0
-166134.25602973468 1.089720347283918e6 0.0
0.0 0.0 0.0

1.2880205845139138e6 197190.78381697906 0.0
197190.78381697906 -1.5277999295555553e6 0.0
0.0 0.0 0.0

-122107.53868719548 3.856681918572714e6 0.0
3.856681918572714e6 -91081.6090339588 0.0
0.0 0.0 0.0

427323.2773276819 784352.5364705299 0.0
784352.5364705299 -892301.2536664836 0.0
0.0 0.0 0.0

-198070.46909407075 2.6115767103421614e6 0.0
2.6115767103421614e6 5447.080740324527 0.0
0.0 0.0 0.0

281723.35819113126 2.0444662953416978e6 0.0
2.0444662953416978e6 -357195.04760117206 0.0
0.0 0.0 0.0

225448.5513514095 1.0912107172026173e6 0.0
1.0912107172026173e6 -387750.81060347735 0.0
0.0 0.0 0.0

-19076.39767959299 1.1387608862949796e6 0.0
1.1387608862949796e6 -23528.191105466067 0.0
0.0 0.0 0.0

2455.8102824450907 3.577569900515977e6 0.0
3.577569900515977e6 -129389.96979119764 0.0
0.0 0.0 0.0

149201.13838105096 3.1638865072821667e6 0.0
3.1638865072821667e6 -162937.68233930337 0.0
0.0 0.0 0.0

374674.22527390637 613464.5386897111 0.0
613464.5386897111 -723993.6606937022 0.0
0.0 0.0 0.0

-374327.363569394 1.383125826444933e6 0.0
1.383125826444933e6 103700.93371770863 0.0
0.0 0.0 0.0

-231290.86849483204 688807.9749252374 0.0
688807.9749252374 117663.88114136131 0.0
0.0 0.0 0.0

-13023.970356370572 1.1737027342408197e6 0.0
1.1737027342408197e6 -44654.983616132675 0.0
0.0 0.0 0.0

218629.81664817533 1.0732586472396725e6 0.0
1.0732586472396725e6 -367034.0310171191 0.0
0.0 0.0 0.0

-213491.8429771318 174722.80433385127 0.0
174722.80433385127 80143.41288140303 0.0
0.0 0.0 0.0

-69278.41353849441 766186.8920072298 0.0
766186.8920072298 -99954.47125838607 0.0
0.0 0.0 0.0

-216709.85183786656 203800.02325516462 0.0
203800.02325516462 63350.257707214565 0.0
0.0 0.0 0.0

-206084.91815291057 1.4989346898555628e6 0.0
1.4989346898555628e6 -192550.8883365079 0.0
0.0 0.0 0.0

-355346.9582564386 1.235603357844894e6 0.0
1.235603357844894e6 118936.3802550562 0.0
0.0 0.0 0.0

236417.3936308146 644696.539635739 0.0
644696.539635739 -433435.5185767617 0.0
0.0 0.0 0.0

-247022.71110549764 869530.0339074443 0.0
869530.0339074443 389286.21960572206 0.0
0.0 0.0 0.0

-522260.74520797137 1.7990129808859255e6 0.0
1.7990129808859255e6 206474.68877223856 0.0
0.0 0.0 0.0

-245056.6452884611 1.521345970432295e6 0.0
1.521345970432295e6 -230691.37099129183 0.0
0.0 0.0 0.0

-58675.862786758305 3.574532217619713e6 0.0
3.574532217619713e6 -52338.64348901197 0.0
0.0 0.0 0.0

-128387.61247895772 3.5062596947943503e6 0.0
3.5062596947943503e6 17425.78527074845 0.0
0.0 0.0 0.0

-329775.8746586506 1.1307237899974156e6 0.0
1.1307237899974156e6 129044.32221022568 0.0
0.0 0.0 0.0

-316503.82771142153 548392.770102225 0.0
548392.770102225 40543.06247717269 0.0
0.0 0.0 0.0

-404295.10359196016 1.441679129397062e6 0.0
1.441679129397062e6 115654.47907767497 0.0
0.0 0.0 0.0

1.3653580670674017e6 109121.52749991715 0.0
109121.52749991715 -1.5122912231791127e6 0.0
0.0 0.0 0.0

1.3388689737040128e6 108431.27910299519 0.0
108431.27910299519 -1.4925803107241555e6 0.0
0.0 0.0 0.0

-96032.46972935228 3.751848421105577e6 0.0
3.751848421105577e6 -66353.32799854068 0.0
0.0 0.0 0.0

-153021.61215539346 776826.5899841269 0.0
776826.5899841269 1.025397783073069e6 0.0
0.0 0.0 0.0

-427977.8912273579 1.6643459123661544e6 0.0
1.6643459123661544e6 107243.6072069591 0.0
0.0 0.0 0.0

-376788.5604176412 148842.4871640284 0.0
148842.4871640284 249605.81745555828 0.0
0.0 0.0 0.0

-467826.16296809696 1.755208940148772e6 0.0
1.755208940148772e6 138091.73410307543 0.0
0.0 0.0 0.0

-150864.83750024237 1.068831732118702e6 0.0
1.068831732118702e6 209479.67582576344 0.0
0.0 0.0 0.0

-105480.67976032897 551085.8169730242 0.0
551085.8169730242 -145457.27994399535 0.0
0.0 0.0 0.0

331986.06736344995 596607.0367713167 0.0
596607.0367713167 -467848.179629998 0.0
0.0 0.0 0.0

-283548.26440303976 985969.6365144483 0.0
985969.6365144483 129708.97477892043 0.0
0.0 0.0 0.0

-120003.10985288056 -52318.91897766618 0.0
-52318.91897766618 159742.22246092156 0.0
0.0 0.0 0.0

-1.618903088756186e6 542513.8567956663 0.0
542513.8567956663 2.249569666805355e6 0.0
0.0 0.0 0.0

467211.894789593 652302.2457467606 0.0
652302.2457467606 -902807.6829476657 0.0
0.0 0.0 0.0

-426121.4642435333 157304.57233640947 0.0
157304.57233640947 408687.9924948458 0.0
0.0 0.0 0.0

123055.43267222203 3.8288417105727866e6 0.0
3.8288417105727866e6 -95969.07230851008 0.0
0.0 0.0 0.0

314616.18091479293 821058.9730911745 0.0
821058.9730911745 -310054.6887508376 0.0
0.0 0.0 0.0

-266384.9903241638 1.2454473795562896e6 0.0
1.2454473795562896e6 -235521.37190463307 0.0
0.0 0.0 0.0

-142855.3537740233 2.9907357303066463e6 0.0
2.9907357303066463e6 -14554.049869724768 0.0
0.0 0.0 0.0

-48391.51685519987 896854.7466740883 0.0
896854.7466740883 -131076.70909683168 0.0
0.0 0.0 0.0

-223922.49114839107 184200.83742990633 0.0
184200.83742990633 126968.81121324052 0.0
0.0 0.0 0.0

-472520.45859407244 208486.0633862857 0.0
208486.0633862857 450061.86000433064 0.0
0.0 0.0 0.0

-133732.72556277306 3.274340353281007e6 0.0
3.274340353281007e6 -43207.84649255456 0.0
0.0 0.0 0.0

-117348.02148932591 184936.30166945435 0.0
184936.30166945435 22310.806610294007 0.0
0.0 0.0 0.0

1.0899220521466504e6 257509.08247351475 0.0
257509.08247351475 -1.3999501652737404e6 0.0
0.0 0.0 0.0

-172881.7150989505 315662.7758049805 0.0
315662.7758049805 -59445.70918152145 0.0
0.0 0.0 0.0

14817.489102916756 856825.4299242403 0.0
856825.4299242403 -158960.08005211322 0.0
0.0 0.0 0.0

-113798.94006817449 1.056676049551329e6 0.0
1.056676049551329e6 -127324.3870851353 0.0
0.0 0.0 0.0

7180.51974879278 1.0975694925410033e6 0.0
1.0975694925410033e6 -110044.70077302869 0.0
0.0 0.0 0.0

-201222.2440873995 3.3095018708176413e6 0.0
3.3095018708176413e6 -301566.156797922 0.0
0.0 0.0 0.0

215309.38862033637 1.2432128037687172e6 0.0
1.2432128037687172e6 -386801.2508800829 0.0
0.0 0.0 0.0

464630.9053253807 277264.56047765806 0.0
277264.56047765806 -892227.0968922272 0.0
0.0 0.0 0.0

-21102.672897447123 866297.5227907957 0.0
866297.5227907957 -141279.59657860073 0.0
0.0 0.0 0.0

317337.9767912411 1.1639991778226004e6 0.0
1.1639991778226004e6 -387918.8293178751 0.0
0.0 0.0 0.0

799796.1970275897 191260.2894093262 0.0
191260.2894093262 -1.173346143633917e6 0.0
0.0 0.0 0.0

-316084.48965318647 1.136334975838848e6 0.0
1.136334975838848e6 115886.1636458624 0.0
0.0 0.0 0.0

-276181.60122239473 2.422247941147986e6 0.0
2.422247941147986e6 -497023.05341947614 0.0
0.0 0.0 0.0

-214623.9091729613 883878.3256993063 0.0
883878.3256993063 380449.9516566647 0.0
0.0 0.0 0.0

-190619.46595874947 -59330.13374714897 0.0
-59330.13374714897 207935.117215576 0.0
0.0 0.0 0.0

-96785.14896149292 1.665789296159035e6 0.0
1.665789296159035e6 -126356.23360036098 0.0
0.0 0.0 0.0

55053.424576547855 1.0946976498522419e6 0.0
1.0946976498522419e6 -55813.36580340981 0.0
0.0 0.0 0.0

332054.7432254016 433790.035743464 0.0
433790.035743464 -628207.3417424436 0.0
0.0 0.0 0.0

-955630.4844189935 502244.37273061596 0.0
502244.37273061596 2.4013512026215913e6 0.0
0.0 0.0 0.0

-315151.25627164193 638124.3816887802 0.0
638124.3816887802 459827.63765381183 0.0
0.0 0.0 0.0

238499.28554209613 2.315737261731262e6 0.0
2.315737261731262e6 -292967.0935765746 0.0
0.0 0.0 0.0

-252911.91378325375 3.4208525448484165e6 0.0
3.4208525448484165e6 -398861.5896706744 0.0
0.0 0.0 0.0

286228.13429961307 867085.0015557767 0.0
867085.0015557767 -314800.276163612 0.0
0.0 0.0 0.0

22157.728291678817 975430.677694218 0.0
975430.677694218 -3648.454690925316 0.0
0.0 0.0 0.0

370898.5697940347 531029.7279820794 0.0
531029.7279820794 -613907.7714908989 0.0
0.0 0.0 0.0

-58528.279688635135 943945.2003493528 0.0
943945.2003493528 6787.74503655103 0.0
0.0 0.0 0.0

168960.8979096933 2.298057559921184e6 0.0
2.298057559921184e6 -427404.4241995561 0.0
0.0 0.0 0.0

481036.3353233021 366328.46306356165 0.0
366328.46306356165 -777782.069970167 0.0
0.0 0.0 0.0

1.229916794919691e6 211482.67739171282 0.0
211482.67739171282 -1.4914961958980751e6 0.0
0.0 0.0 0.0

-18292.137855960354 4.340834495024043e6 0.0
4.340834495024043e6 -124718.89634361153 0.0
0.0 0.0 0.0

349668.3428616849 547963.7328777623 0.0
547963.7328777623 -550437.7721318044 0.0
0.0 0.0 0.0

-265508.93461346626 1.0181085166682899e6 0.0
1.0181085166682899e6 224557.1802989011 0.0
0.0 0.0 0.0

-107507.62290022407 1.1064371213831773e6 0.0
1.1064371213831773e6 144861.5213971161 0.0
0.0 0.0 0.0

173500.57550473727 1.4884497225076498e6 0.0
1.4884497225076498e6 139645.96412072078 0.0
0.0 0.0 0.0

-553369.2835359237 1.796399179881246e6 0.0
1.796399179881246e6 243811.980679918 0.0
0.0 0.0 0.0

385635.12389497284 578734.7280921538 0.0
578734.7280921538 -389239.9487654052 0.0
0.0 0.0 0.0

-559354.8958817493 709592.4686019025 0.0
709592.4686019025 1.4930549308859054e6 0.0
0.0 0.0 0.0

-26988.50194018421 1.1690019125720302e6 0.0
1.1690019125720302e6 -50618.577442369606 0.0
0.0 0.0 0.0

-268018.70284809207 1.0657489495010343e6 0.0
1.0657489495010343e6 281176.53786793264 0.0
0.0 0.0 0.0

-183110.81421313004 184945.74059043665 0.0
184945.74059043665 96110.846995153 0.0
0.0 0.0 0.0

248867.14771151592 929325.3325261441 0.0
929325.3325261441 -442969.1154604987 0.0
0.0 0.0 0.0

-218438.56311436387 333321.12156072154 0.0
333321.12156072154 -359684.79572623776 0.0
0.0 0.0 0.0

-211741.25095721852 3.3447920440539257e6 0.0
3.3447920440539257e6 -245114.9412801746 0.0
0.0 0.0 0.0

220217.45251740923 3.4000957048277883e6 0.0
3.4000957048277883e6 -130083.86955416817 0.0
0.0 0.0 0.0

221763.55590039684 1.7799879877997502e6 0.0
1.7799879877997502e6 -286909.1678282111 0.0
0.0 0.0 0.0

-151361.98041279634 1.0582221456477754e6 0.0
1.0582221456477754e6 -167927.4118693496 0.0
0.0 0.0 0.0

229752.50220378302 1.094350849766356e6 0.0
1.094350849766356e6 -410762.4627765548 0.0
0.0 0.0 0.0

-285524.52188103145 -73385.6262580128 0.0
-73385.6262580128 356123.23222653364 0.0
0.0 0.0 0.0

-227576.72982229677 769736.8729990904 0.0
769736.8729990904 295647.4392704453 0.0
0.0 0.0 0.0

-331927.85487987666 227939.25505395464 0.0
227939.25505395464 173387.80509120558 0.0
0.0 0.0 0.0

-298334.15646094346 905329.7268787408 0.0
905329.7268787408 69368.2389967254 0.0
0.0 0.0 0.0

363458.5931001998 622978.0261352021 0.0
622978.0261352021 -755070.5877718928 0.0
0.0 0.0 0.0

-238517.74943140338 873796.9530649654 0.0
873796.9530649654 210772.87782650313 0.0
0.0 0.0 0.0

-232568.70234795043 952358.3381234076 0.0
952358.3381234076 209916.67910559132 0.0
0.0 0.0 0.0

185887.85153947474 2.399755428417162e6 0.0
2.399755428417162e6 -132968.71516712726 0.0
0.0 0.0 0.0

449721.04128201725 591687.7148758429 0.0
591687.7148758429 -846044.076083373 0.0
0.0 0.0 0.0

-185966.86842495503 947334.9666179518 0.0
947334.9666179518 381450.29807654733 0.0
0.0 0.0 0.0

-1.2505695006965906e6 -2772.9607387305855 0.0
-2772.9607387305855 1.2179465387264309e6 0.0
0.0 0.0 0.0

-747579.9382096286 151642.25742516163 0.0
151642.25742516163 1.7089302200368876e6 0.0
0.0 0.0 0.0

162273.98483836418 1.0172247715876544e6 0.0
1.0172247715876544e6 -283166.2452005328 0.0
0.0 0.0 0.0

89750.09929268809 3.144263470483833e6 0.0
3.144263470483833e6 -136146.64191435266 0.0
0.0 0.0 0.0

-207600.65858375857 1.566994665877111e6 0.0
1.566994665877111e6 -156915.01155627298 0.0
0.0 0.0 0.0

-239947.373460174 3.380102688777379e6 0.0
3.380102688777379e6 -483590.48245151306 0.0
0.0 0.0 0.0

112226.24883179466 565866.6816036062 0.0
565866.6816036062 -476780.0425154034 0.0
0.0 0.0 0.0

-540600.7039151825 176318.98566321467 0.0
176318.98566321467 403318.3662291245 0.0
0.0 0.0 0.0

-297015.884454965 2.521546265760194e6 0.0
2.521546265760194e6 72783.90375929624 0.0
0.0 0.0 0.0

-509595.5600296933 718200.63365722 0.0
718200.63365722 191029.84521592487 0.0
0.0 0.0 0.0

-9170.844412373102 1.5860238116442272e6 0.0
1.5860238116442272e6 -122468.14290732182 0.0
0.0 0.0 0.0

40140.139654750514 1.408810465974532e6 0.0
1.408810465974532e6 -254413.31687305716 0.0
0.0 0.0 0.0

-240858.67753572718 1.2920226594317493e6 0.0
1.2920226594317493e6 -159446.24554416066 0.0
0.0 0.0 0.0

-662780.5195048528 107428.05820197378 0.0
107428.05820197378 693841.8605213808 0.0
0.0 0.0 0.0

-305445.5920233157 1.088734859340947e6 0.0
1.088734859340947e6 243203.1244923093 0.0
0.0 0.0 0.0

-237658.08181617298 859675.9497900873 0.0
859675.9497900873 417889.2509879618 0.0
0.0 0.0 0.0

-381582.5394002339 1.6107335088137223e6 0.0
1.6107335088137223e6 76628.24526699196 0.0
0.0 0.0 0.0

211056.13848324618 2.0950490696147175e6 0.0
2.0950490696147175e6 -438866.0615643756 0.0
0.0 0.0 0.0

-1.0937979382092212e6 120370.55876733594 0.0
120370.55876733594 928173.0320299198 0.0
0.0 0.0 0.0

170988.9631029099 1.439312736814818e6 0.0
1.439312736814818e6 -333219.52604325983 0.0
0.0 0.0 0.0

-108721.40337569444 1.1036998935607804e6 0.0
1.1036998935607804e6 47050.69078683969 0.0
0.0 0.0 0.0

-161363.13734724667 2.63396652731598e6 0.0
2.63396652731598e6 119844.89960085152 0.0
0.0 0.0 0.0

577882.2523159898 194864.37672296923 0.0
194864.37672296923 -1.0448116048855577e6 0.0
0.0 0.0 0.0

107652.51011293834 1.7945100642048675e6 0.0
1.7945100642048675e6 -126622.10052683185 0.0
0.0 0.0 0.0

-244646.76843172533 868148.5579521704 0.0
868148.5579521704 184293.38560542814 0.0
0.0 0.0 0.0

-203462.9119684726 179800.75300519398 0.0
179800.75300519398 110643.71013710978 0.0
0.0 0.0 0.0

-5825.703625083483 1.1863129391490684e6 0.0
1.1863129391490684e6 -53275.24771228437 0.0
0.0 0.0 0.0

-579331.6888736321 231822.64080185033 0.0
231822.64080185033 428766.88119965175 0.0
0.0 0.0 0.0

195835.63428726554 1.2135674279676543e6 0.0
1.2135674279676543e6 149843.1818908695 0.0
0.0 0.0 0.0

-239801.14347474556 825376.4142132548 0.0
825376.4142132548 155644.67337152915 0.0
0.0 0.0 0.0

-306877.1632283645 164397.788617839 0.0
164397.788617839 166469.0862786516 0.0
0.0 0.0 0.0

-222918.9086616183 512183.4926676799 0.0
512183.4926676799 37185.65811126529 0.0
0.0 0.0 0.0

-90215.63249064871 652718.931247116 0.0
652718.931247116 795723.0546158624 0.0
0.0 0.0 0.0

389062.3313881243 567491.124071853 0.0
567491.124071853 -727254.7953991112 0.0
0.0 0.0 0.0

-235174.310753991 -57947.05395237618 0.0
-57947.05395237618 247613.17304051982 0.0
0.0 0.0 0.0

45401.173055533196 4.479848998526762e6 0.0
4.479848998526762e6 -147923.38546833716 0.0
0.0 0.0 0.0

-353497.7060523896 144248.42152072047 0.0
144248.42152072047 334865.3905263225 0.0
0.0 0.0 0.0

-31688.582861739327 2.857907531912915e6 0.0
2.857907531912915e6 -526174.2896608878 0.0
0.0 0.0 0.0

-143538.04320234118 1.0280881438997418e6 0.0
1.0280881438997418e6 288973.3929966389 0.0
0.0 0.0 0.0

-220222.34982888546 3.2981496697247378e6 0.0
3.2981496697247378e6 -282501.0001730166 0.0
0.0 0.0 0.0

-297462.14907882415 685836.3834692203 0.0
685836.3834692203 239245.13929628948 0.0
0.0 0.0 0.0

-154881.16395619788 2.106670699420739e6 0.0
2.106670699420739e6 -346367.19019650295 0.0
0.0 0.0 0.0

-149177.06506202833 1.0810662815164651e6 0.0
1.0810662815164651e6 202985.17040374194 0.0
0.0 0.0 0.0

-229931.94079248386 530318.8683048374 0.0
530318.8683048374 74333.62848474928 0.0
0.0 0.0 0.0

128307.2888082655 1.7858320237259916e6 0.0
1.7858320237259916e6 -137832.1645164091 0.0
0.0 0.0 0.0

-258504.59877221507 881953.0914431512 0.0
881953.0914431512 136399.19917310783 0.0
0.0 0.0 0.0

-448356.9688237476 1.6981003038993315e6 0.0
1.6981003038993315e6 118427.81065494602 0.0
0.0 0.0 0.0

297815.40799539373 559997.9496409978 0.0
559997.9496409978 -516479.260735317 0.0
0.0 0.0 0.0

-604587.3526514976 -121996.09391349411 0.0
-121996.09391349411 797050.4685836828 0.0
0.0 0.0 0.0

-478088.3779435882 20273.33390112557 0.0
20273.33390112557 521960.97186872124 0.0
0.0 0.0 0.0

1.1010145600108858e6 309866.74523559946 0.0
309866.74523559946 -1.336414036733289e6 0.0
0.0 0.0 0.0

-169592.19563411744 3.8647327852569185e6 0.0
3.8647327852569185e6 -112963.67585755172 0.0
0.0 0.0 0.0

-270271.8155584079 764143.4083480628 0.0
764143.4083480628 427213.3796067041 0.0
0.0 0.0 0.0

-260417.94991155757 196712.16163690397 0.0
196712.16163690397 108127.52162533854 0.0
0.0 0.0 0.0

-567446.3027833077 1.8149557064455284e6 0.0
1.8149557064455284e6 303355.069833376 0.0
0.0 0.0 0.0

-569916.6520540458 110896.78945802874 0.0
110896.78945802874 451720.10188551736 0.0
0.0 0.0 0.0

1.354694279581558e6 5.6834565262796115e6 0.0
5.6834565262796115e6 333324.20187233435 0.0
0.0 0.0 0.0

93470.91824127373 2.6989395088556795e6 0.0
2.6989395088556795e6 -224844.82536102805 0.0
0.0 0.0 0.0

332974.01039854775 1.5890301758303207e6 0.0
1.5890301758303207e6 -309791.238109178 0.0
0.0 0.0 0.0

-202899.6104558043 907146.994413047 0.0
907146.994413047 351122.17254877044 0.0
0.0 0.0 0.0

-816501.0760702067 134220.92677082602 0.0
134220.92677082602 669289.6900467877 0.0
0.0 0.0 0.0

17965.4920005721 3.7657421213841015e6 0.0
3.7657421213841015e6 -131990.49955151655 0.0
0.0 0.0 0.0

-120983.21759207407 997392.1079920499 0.0
997392.1079920499 -110500.12393028657 0.0
0.0 0.0 0.0

1.2641940226205937e6 156586.10781177972 0.0
156586.10781177972 -1.5588896086190986e6 0.0
0.0 0.0 0.0

-147838.60540402224 3587.370700685901 0.0
3587.370700685901 192951.4839005297 0.0
0.0 0.0 0.0

-613650.2007833618 1.8687321375579997e6 0.0
1.8687321375579997e6 459526.3950706419 0.0
0.0 0.0 0.0

-386292.4174580615 670748.9505771614 0.0
670748.9505771614 390304.6813672582 0.0
0.0 0.0 0.0

112443.63482827345 979670.1335248357 0.0
979670.1335248357 -219696.25272529872 0.0
0.0 0.0 0.0

-112657.07942860246 1.564601928481712e6 0.0
1.564601928481712e6 -22291.070166615686 0.0
0.0 0.0 0.0

-300057.59618901066 58734.66273590707 0.0
58734.66273590707 292154.9838623465 0.0
0.0 0.0 0.0

-53931.15041235425 53499.90088571938 0.0
53499.90088571938 -192715.90460450784 0.0
0.0 0.0 0.0

49099.99916103972 865047.2163637126 0.0
865047.2163637126 -174943.38914441975 0.0
0.0 0.0 0.0

-95584.54566396734 3.480591657476133e6 0.0
3.480591657476133e6 -371476.4758624849 0.0
0.0 0.0 0.0

-269744.88207538205 425184.1200730821 0.0
425184.1200730821 90420.8191511378 0.0
0.0 0.0 0.0

167911.00325254234 914947.5133748965 0.0
914947.5133748965 -295651.07851243677 0.0
0.0 0.0 0.0

310624.4623140993 707608.8116522796 0.0
707608.8116522796 -375100.1734776669 0.0
0.0 0.0 0.0

-231581.28297529544 889983.9620639486 0.0
889983.9620639486 223961.50415756018 0.0
0.0 0.0 0.0

223521.67394840205 1.444763202976914e6 0.0
1.444763202976914e6 -303848.40078993846 0.0
0.0 0.0 0.0

-280995.75702933816 217368.22784270433 0.0
217368.22784270433 183906.20016557473 0.0
0.0 0.0 0.0

308382.6285881904 482642.37564781663 0.0
482642.37564781663 -111573.25001749539 0.0
0.0 0.0 0.0

-367968.9450933981 810454.6464984892 0.0
810454.6464984892 255340.9705203412 0.0
0.0 0.0 0.0

-83368.77065304483 1.3723765517937457e6 0.0
1.3723765517937457e6 -223839.5722961861 0.0
0.0 0.0 0.0

283764.67375344306 77982.1991889591 0.0
77982.1991889591 -469536.29913711903 0.0
0.0 0.0 0.0

-214901.6044614255 973040.9587097974 0.0
973040.9587097974 218771.71738326928 0.0
0.0 0.0 0.0

-19473.676214750372 410852.39161490934 0.0
410852.39161490934 -64912.252565049894 0.0
0.0 0.0 0.0

51202.88250763057 1.9673082362440606e6 0.0
1.9673082362440606e6 -66132.78669065461 0.0
0.0 0.0 0.0

-774066.8478079349 514560.669656822 0.0
514560.669656822 933078.2370546826 0.0
0.0 0.0 0.0

-520989.0202551135 719510.8269585609 0.0
719510.8269585609 1.2196487649053787e6 0.0
0.0 0.0 0.0

43997.337077277596 720199.9076168633 0.0
720199.9076168633 828753.5896417556 0.0
0.0 0.0 0.0

46448.63150297367 1.0011480209887145e6 0.0
1.0011480209887145e6 -162597.0437347489 0.0
0.0 0.0 0.0

-241210.5713186394 741940.6098764037 0.0
741940.6098764037 329408.6786635126 0.0
0.0 0.0 0.0

-176812.21986068995 368475.86295104655 0.0
368475.86295104655 -72595.69424857377 0.0
0.0 0.0 0.0

86598.02197421544 886983.68590831 0.0
886983.68590831 -198843.57479573681 0.0
0.0 0.0 0.0

-253958.19024510807 883808.8665665082 0.0
883808.8665665082 158218.5930226284 0.0
0.0 0.0 0.0

-600684.4981206954 147319.23626094474 0.0
147319.23626094474 467162.9838978189 0.0
0.0 0.0 0.0

82403.14206808069 4.509868704349004e6 0.0
4.509868704349004e6 -167846.90473806276 0.0
0.0 0.0 0.0

121514.70089620772 3.120915980303027e6 0.0
3.120915980303027e6 -189949.11535393854 0.0
0.0 0.0 0.0

437987.8804272761 266271.5173099453 0.0
266271.5173099453 -847751.2196933562 0.0
0.0 0.0 0.0

164673.0732377788 2.710118258764516e6 0.0
2.710118258764516e6 -107329.53141729053 0.0
0.0 0.0 0.0

-265990.88786216715 2.259323281811542e6 0.0
2.259323281811542e6 37813.540911079166 0.0
0.0 0.0 0.0

-16909.098721587987 804125.5007714286 0.0
804125.5007714286 -56363.83624872716 0.0
0.0 0.0 0.0

229487.11085528007 664010.7809301739 0.0
664010.7809301739 764957.6819880597 0.0
0.0 0.0 0.0

-864739.5541658942 -91967.79182054792 0.0
-91967.79182054792 907169.1952634286 0.0
0.0 0.0 0.0

-117859.14826466358 1.0439069406130442e6 0.0
1.0439069406130442e6 -142782.1179454789 0.0
0.0 0.0 0.0

-428499.7441226188 -85074.50522365086 0.0
-85074.50522365086 465756.84416820004 0.0
0.0 0.0 0.0

-104582.2876032412 3.298787579300895e6 0.0
3.298787579300895e6 -15492.114615764993 0.0
0.0 0.0 0.0

-3471.8997296784364 4.002758694578645e6 0.0
4.002758694578645e6 -127563.33426525987 0.0
0.0 0.0 0.0

-589356.2260207125 1.8472915239363175e6 0.0
1.8472915239363175e6 343012.39534239215 0.0
0.0 0.0 0.0

-387617.2355744378 2.9778091270799283e6 0.0
2.9778091270799283e6 45712.9383704006 0.0
0.0 0.0 0.0

-473707.0806947816 122341.87296673753 0.0
122341.87296673753 477726.212713382 0.0
0.0 0.0 0.0

-192462.25363376012 2.9821430120447623e6 0.0
2.9821430120447623e6 2388.6793526327456 0.0
0.0 0.0 0.0

-237617.39829235247 582545.505675293 0.0
582545.505675293 77464.24917656809 0.0
0.0 0.0 0.0

-241851.607501715 794098.327519454 0.0
794098.327519454 108071.7144356812 0.0
0.0 0.0 0.0

750792.0796750493 386118.7201143807 0.0
386118.7201143807 -1.1447748428380247e6 0.0
0.0 0.0 0.0

-222663.33298490237 907887.2122584156 0.0
907887.2122584156 247051.06342401414 0.0
0.0 0.0 0.0

-5994.426948434484 3.240395088360649e6 0.0
3.240395088360649e6 -143865.75663559462 0.0
0.0 0.0 0.0

312741.2665057776 994576.4947260455 0.0
994576.4947260455 -277172.28854632453 0.0
0.0 0.0 0.0

-1.6329415509446727e6 -142718.2172647335 0.0
-142718.2172647335 1.6417734270228867e6 0.0
0.0 0.0 0.0

-399675.9307308278 1.6479741939528077e6 0.0
1.6479741939528077e6 106085.72616479878 0.0
0.0 0.0 0.0

-151305.28480313253 1.3338476631492577e6 0.0
1.3338476631492577e6 -167469.09427988116 0.0
0.0 0.0 0.0

-2.0627677767010839e6 2.5058252428080603e6 0.0
2.5058252428080603e6 3.5782511485467693e6 0.0
0.0 0.0 0.0

591438.8375815602 136637.73216141484 0.0
136637.73216141484 -937657.899526489 0.0
0.0 0.0 0.0

-262337.4743197372 1.34402121880547e6 0.0
1.34402121880547e6 -129446.92913653696 0.0
0.0 0.0 0.0

-240797.8981547449 943149.1344749749 0.0
943149.1344749749 395085.38705326954 0.0
0.0 0.0 0.0

95177.07878155365 1.2961087245385624e6 0.0
1.2961087245385624e6 -198569.31637239098 0.0
0.0 0.0 0.0

132856.4065156649 2.4600168032888724e6 0.0
2.4600168032888724e6 -216648.0151462294 0.0
0.0 0.0 0.0

238497.33648567245 3.530743285881675e6 0.0
3.530743285881675e6 -185082.49701452363 0.0
0.0 0.0 0.0

-420516.5275920561 1.3779770063090522e6 0.0
1.3779770063090522e6 223371.99123547718 0.0
0.0 0.0 0.0

26910.19329306283 1.1708055646012935e6 0.0
1.1708055646012935e6 -93108.36456363645 0.0
0.0 0.0 0.0

1.0316928474242867e6 284486.7661662505 0.0
284486.7661662505 -1.3374365408655414e6 0.0
0.0 0.0 0.0

-11970.972074860038 517753.18860330863 0.0
517753.18860330863 592020.9044225644 0.0
0.0 0.0 0.0

-207013.5486689033 562263.9386476722 0.0
562263.9386476722 111590.29947551864 0.0
0.0 0.0 0.0

22363.002686836764 3.6656597753397655e6 0.0
3.6656597753397655e6 -128311.18700750728 0.0
0.0 0.0 0.0

-476168.49373396393 803401.3324494448 0.0
803401.3324494448 1.6459486320506134e6 0.0
0.0 0.0 0.0

135778.36133836763 4.412669500643624e6 0.0
4.412669500643624e6 -289194.36337183346 0.0
0.0 0.0 0.0

-227411.5147437437 861945.4689638955 0.0
861945.4689638955 216920.3131050127 0.0
0.0 0.0 0.0

-128637.28530623893 3.47447091865907e6 0.0
3.47447091865907e6 -435379.16159575677 0.0
0.0 0.0 0.0

1.3285064701436784e6 2.1564942684258e6 0.0
2.1564942684258e6 81985.45574864221 0.0
0.0 0.0 0.0

126310.4074080484 1.817575176515878e6 0.0
1.817575176515878e6 -81676.75083439071 0.0
0.0 0.0 0.0

-515310.7532766539 603653.9847231667 0.0
603653.9847231667 546034.6844063627 0.0
0.0 0.0 0.0

-2.070144382971634e6 15841.835014552706 0.0
15841.835014552706 2.373074219950257e6 0.0
0.0 0.0 0.0

-2.113310805207877e6 -184469.36797378605 0.0
-184469.36797378605 2.415144799247438e6 0.0
0.0 0.0 0.0

-164952.15655405488 3.7214827638819423e6 0.0
3.7214827638819423e6 -330368.7181075286 0.0
0.0 0.0 0.0

105400.37758754083 1.4955979448131006e6 0.0
1.4955979448131006e6 -164751.96555647693 0.0
0.0 0.0 0.0

138173.47467721254 2.222707971269595e6 0.0
2.222707971269595e6 -208389.72496741806 0.0
0.0 0.0 0.0

-116257.64811240493 959421.0948382617 0.0
959421.0948382617 202668.1084639312 0.0
0.0 0.0 0.0

121016.23242734878 3.6357646906761155e6 0.0
3.6357646906761155e6 56366.12086052762 0.0
0.0 0.0 0.0

-363477.64544328954 609795.369424083 0.0
609795.369424083 309065.45932398236 0.0
0.0 0.0 0.0

150118.34262136678 2.0329297199615221e6 0.0
2.0329297199615221e6 -193376.63366529648 0.0
0.0 0.0 0.0

-244305.22920710366 3.4943509907688624e6 0.0
3.4943509907688624e6 -448072.8336719082 0.0
0.0 0.0 0.0

-94759.02361540037 -41358.13677097717 0.0
-41358.13677097717 111792.57598906627 0.0
0.0 0.0 0.0

282452.6890349201 572690.8295554554 0.0
572690.8295554554 -584908.4944565209 0.0
0.0 0.0 0.0

-482343.09816684877 -26920.636293087384 0.0
-26920.636293087384 465775.4926947807 0.0
0.0 0.0 0.0

-134178.98108789994 -83635.86947255836 0.0
-83635.86947255836 142516.51805828122 0.0
0.0 0.0 0.0

-126351.46187288719 -82242.82916835509 0.0
-82242.82916835509 141443.97023996012 0.0
0.0 0.0 0.0

-18728.42887215931 7414.980912102704 0.0
7414.980912102704 -51169.66042135273 0.0
0.0 0.0 0.0

246862.947377127 1.8751724986927249e6 0.0
1.8751724986927249e6 -439837.5207630213 0.0
0.0 0.0 0.0

351562.8219380416 563095.2437242453 0.0
563095.2437242453 -568931.8704858632 0.0
0.0 0.0 0.0

8940.351640516521 1.1745924844873222e6 0.0
1.1745924844873222e6 -117440.62282006224 0.0
0.0 0.0 0.0

122172.75735267853 2.1715222793660928e6 0.0
2.1715222793660928e6 -139799.99604326632 0.0
0.0 0.0 0.0

-33894.95977764781 1.9618656035345271e6 0.0
1.9618656035345271e6 -116834.90396879688 0.0
0.0 0.0 0.0

-7636.886749460897 3.2140320092117186e6 0.0
3.2140320092117186e6 -2465.3073267372247 0.0
0.0 0.0 0.0

1.2182453525829904e6 2.4019660882507963e6 0.0
2.4019660882507963e6 -887639.4338478498 0.0
0.0 0.0 0.0

-96992.84202043133 2.651793000995526e6 0.0
2.651793000995526e6 295431.54995066224 0.0
0.0 0.0 0.0

73718.0270814407 1.9189012635330989e6 0.0
1.9189012635330989e6 -66380.95747666914 0.0
0.0 0.0 0.0

51484.036376859454 4.0277492659720527e6 0.0
4.0277492659720527e6 -88466.0275689635 0.0
0.0 0.0 0.0

-317919.6078957947 2.3604069015378333e6 0.0
2.3604069015378333e6 68187.52540733186 0.0
0.0 0.0 0.0

206091.0907176144 1.5207047180856299e6 0.0
1.5207047180856299e6 -299490.70163721254 0.0
0.0 0.0 0.0

-227760.1574662773 890028.854020975 0.0
890028.854020975 388430.90216370515 0.0
0.0 0.0 0.0

-209761.1676367671 1.005825508870332e6 0.0
1.005825508870332e6 227213.2682635907 0.0
0.0 0.0 0.0

1.3353455202335143e6 80368.29160056714 0.0
80368.29160056714 -1.493742565147847e6 0.0
0.0 0.0 0.0

-177221.96474065335 2.594528795221605e6 0.0
2.594528795221605e6 4583.882937214068 0.0
0.0 0.0 0.0

-662855.2990485488 1.8782780619561519e6 0.0
1.8782780619561519e6 544676.0296179213 0.0
0.0 0.0 0.0

-103570.73502588685 268742.46355535433 0.0
268742.46355535433 -196449.8741720565 0.0
0.0 0.0 0.0

301188.31193995266 850374.4274277218 0.0
850374.4274277218 -310667.9919197186 0.0
0.0 0.0 0.0

321846.73773266905 577666.747467235 0.0
577666.747467235 -523131.4549875756 0.0
0.0 0.0 0.0

322364.1357053274 594129.419435791 0.0
594129.419435791 -518165.2721664197 0.0
0.0 0.0 0.0

539872.70308945 4.0929196123117087e6 0.0
4.0929196123117087e6 32773.66976783698 0.0
0.0 0.0 0.0

163475.0308380159 1.7491401614480691e6 0.0
1.7491401614480691e6 -178215.36170960736 0.0
0.0 0.0 0.0

-21527.316479409812 714210.0233061629 0.0
714210.0233061629 872645.8416930882 0.0
0.0 0.0 0.0

-674619.3675985311 502196.6517059555 0.0
502196.6517059555 348467.5298507959 0.0
0.0 0.0 0.0

-475518.58111956815 149005.3887943311 0.0
149005.3887943311 -51122.42938585827 0.0
0.0 0.0 0.0

1.0103265761559984e6 379322.3578478221 0.0
379322.3578478221 -1.306797957974504e6 0.0
0.0 0.0 0.0

78226.16098883562 1.8721746091566568e6 0.0
1.8721746091566568e6 -69054.34174772845 0.0
0.0 0.0 0.0

109479.10959046026 3.212078604036482e6 0.0
3.212078604036482e6 -123680.00574418611 0.0
0.0 0.0 0.0

1.1855677375040448e6 72287.09422593769 0.0
72287.09422593769 -1.2883400822383852e6 0.0
0.0 0.0 0.0

-167144.71762019926 879724.3069240291 0.0
879724.3069240291 284408.08318733756 0.0
0.0 0.0 0.0

-115586.35106327533 873056.8248576628 0.0
873056.8248576628 436388.04415883636 0.0
0.0 0.0 0.0

-371649.5948761622 1.7493356879320326e6 0.0
1.7493356879320326e6 235286.84239499277 0.0
0.0 0.0 0.0

-120526.35698845789 -58423.59820992339 0.0
-58423.59820992339 144219.2630927643 0.0
0.0 0.0 0.0

247342.00045195135 1.16063975145809e6 0.0
1.16063975145809e6 -276394.4444754276 0.0
0.0 0.0 0.0

314403.4953290579 884784.0936930429 0.0
884784.0936930429 -432383.53045565356 0.0
0.0 0.0 0.0

-157535.71731712646 255804.98989644283 0.0
255804.98989644283 -110348.16739293243 0.0
0.0 0.0 0.0

-123027.25307639042 -53218.94597045385 0.0
-53218.94597045385 131382.53105864924 0.0
0.0 0.0 0.0

-2.546071274506581e6 793418.5586232418 0.0
793418.5586232418 3.172505353211607e6 0.0
0.0 0.0 0.0

-1.1656664360956906e6 -16384.971940028357 0.0
-16384.971940028357 1.1206766239959956e6 0.0
0.0 0.0 0.0

77319.63438260999 3.6329366410927474e6 0.0
3.6329366410927474e6 -26551.109008809137 0.0
0.0 0.0 0.0

-271019.8986484301 1.1384813885031901e6 0.0
1.1384813885031901e6 -131370.15799451666 0.0
0.0 0.0 0.0

26327.373366425178 765901.0070368472 0.0
765901.0070368472 -170221.32831314992 0.0
0.0 0.0 0.0

109109.39424675927 3.159218113926788e6 0.0
3.159218113926788e6 -111259.68536674796 0.0
0.0 0.0 0.0

-244829.44971017566 893251.6279316897 0.0
893251.6279316897 178881.97639295287 0.0
0.0 0.0 0.0

291811.1460948748 4.303679517945848e6 0.0
4.303679517945848e6 318587.2180185924 0.0
0.0 0.0 0.0

-142316.68564689087 356851.0569468882 0.0
356851.0569468882 478827.34648329375 0.0
0.0 0.0 0.0

-111575.50322985346 -44217.0081206209 0.0
-44217.0081206209 126965.28157539596 0.0
0.0 0.0 0.0

-42886.68741373463 1.0649908491478455e6 0.0
1.0649908491478455e6 -131132.51917401206 0.0
0.0 0.0 0.0

-191097.51892252872 1.0411543855062597e6 0.0
1.0411543855062597e6 271448.7685246304 0.0
0.0 0.0 0.0

-212444.6775892708 806376.910928897 0.0
806376.910928897 650161.4347742614 0.0
0.0 0.0 0.0

-281247.22503225494 191399.75739314596 0.0
191399.75739314596 201945.1095453683 0.0
0.0 0.0 0.0

283243.9930234849 1.0237793264158784e6 0.0
1.0237793264158784e6 -292632.71518786775 0.0
0.0 0.0 0.0

-4.696484041732144e6 385519.7325697973 0.0
385519.7325697973 2.5156842195781814e6 0.0
0.0 0.0 0.0

-289102.78458309086 158606.71046137845 0.0
158606.71046137845 234708.1220422911 0.0
0.0 0.0 0.0

-195761.60845908523 1.0409787088608284e6 0.0
1.0409787088608284e6 249405.2514974018 0.0
0.0 0.0 0.0

212991.33562923514 1.4116790465854362e6 0.0
1.4116790465854362e6 -288456.7338325435 0.0
0.0 0.0 0.0

245185.66473768244 627626.8389314888 0.0
627626.8389314888 -476432.42173539934 0.0
0.0 0.0 0.0

145738.15475293095 3.991265792366587e6 0.0
3.991265792366587e6 288229.7716258957 0.0
0.0 0.0 0.0

209668.95212566096 717242.5243251084 0.0
717242.5243251084 -379578.42008419044 0.0
0.0 0.0 0.0

126480.78474937649 1.5771460520731506e6 0.0
1.5771460520731506e6 -168507.67160802428 0.0
0.0 0.0 0.0

-61349.201053890196 1.039102634153309e6 0.0
1.039102634153309e6 -133291.235927257 0.0
0.0 0.0 0.0

-224507.09630489588 2.960742727731491e6 0.0
2.960742727731491e6 97051.47520195365 0.0
0.0 0.0 0.0

-187436.81583729206 1.0282492155491286e6 0.0
1.0282492155491286e6 293232.88271950604 0.0
0.0 0.0 0.0

262831.7471509051 1.1796101451417806e6 0.0
1.1796101451417806e6 -277961.9841869074 0.0
0.0 0.0 0.0

241276.11384418875 2.599013488658755e6 0.0
2.599013488658755e6 -244963.15304565456 0.0
0.0 0.0 0.0

-298683.523758482 1.0912323538903408e6 0.0
1.0912323538903408e6 88969.11200599482 0.0
0.0 0.0 0.0

-201958.88379419607 1.0295371204264292e6 0.0
1.0295371204264292e6 237468.46969266585 0.0
0.0 0.0 0.0

-374762.4093700843 -107542.75619202846 0.0
-107542.75619202846 433592.646614295 0.0
0.0 0.0 0.0

-240390.8689141145 432654.5906965475 0.0
432654.5906965475 186480.0125449893 0.0
0.0 0.0 0.0

181772.39685612838 808232.680368701 0.0
808232.680368701 -315524.1243356535 0.0
0.0 0.0 0.0

232833.73479436515 4.029656898939202e6 0.0
4.029656898939202e6 -134313.51162592034 0.0
0.0 0.0 0.0

210309.29707339464 1.1185208867798774e6 0.0
1.1185208867798774e6 -284948.8557101821 0.0
0.0 0.0 0.0

-63183.10431190563 1.0342012128180482e6 0.0
1.0342012128180482e6 -91741.30052421076 0.0
0.0 0.0 0.0

-542884.0578354454 89670.36834916059 0.0
89670.36834916059 575257.4557371595 0.0
0.0 0.0 0.0

-42098.87498502806 1.1193161887763964e6 0.0
1.1193161887763964e6 -40617.71849565638 0.0
0.0 0.0 0.0

-43110.58106649267 768591.8797320314 0.0
768591.8797320314 -143518.2054451429 0.0
0.0 0.0 0.0

79346.49297537736 1.2947670027365135e6 0.0
1.2947670027365135e6 -160613.17777811643 0.0
0.0 0.0 0.0

-759133.1085650506 1.9153474325881442e6 0.0
1.9153474325881442e6 788456.6393914162 0.0
0.0 0.0 0.0

-1.3979862556820854e6 358997.36217957945 0.0
358997.36217957945 1.0386397936748409e6 0.0
0.0 0.0 0.0

112299.73707342442 3.6880378703261376e6 0.0
3.6880378703261376e6 -62118.71975135462 0.0
0.0 0.0 0.0

-708910.4169349978 1.8832579348572998e6 0.0
1.8832579348572998e6 679399.3254212865 0.0
0.0 0.0 0.0

1.1508532969956598e6 5.357917653279616e6 0.0
5.357917653279616e6 314518.2049484879 0.0
0.0 0.0 0.0

225140.09346817608 688543.8135276054 0.0
688543.8135276054 -464757.6838239012 0.0
0.0 0.0 0.0

44946.449256176595 520368.73784337187 0.0
520368.73784337187 -445368.4966342894 0.0
0.0 0.0 0.0

-200826.75521722785 966376.9491883239 0.0
966376.9491883239 242064.05365925346 0.0
0.0 0.0 0.0

-451074.74635122065 164306.7431658371 0.0
164306.7431658371 316738.8877689523 0.0
0.0 0.0 0.0

-164663.97068986195 1.0462655376187342e6 0.0
1.0462655376187342e6 215027.22452448573 0.0
0.0 0.0 0.0

-150220.25710008023 768389.6230489856 0.0
768389.6230489856 -27645.406519606855 0.0
0.0 0.0 0.0

-180932.2349363133 3.643390163503507e6 0.0
3.643390163503507e6 -319572.23838689434 0.0
0.0 0.0 0.0

445057.5154117541 4.606306895260254e6 0.0
4.606306895260254e6 332585.2712906694 0.0
0.0 0.0 0.0

126359.40265293016 2.683275644780265e6 0.0
2.683275644780265e6 -136497.937133753 0.0
0.0 0.0 0.0

-3063.269584334932 1.5596575483074626e6 0.0
1.5596575483074626e6 -81775.13350770244 0.0
0.0 0.0 0.0

1.3278793687785338e6 161719.90594203997 0.0
161719.90594203997 -1.494256542031702e6 0.0
0.0 0.0 0.0

-237882.66986665994 906571.5919320094 0.0
906571.5919320094 196519.80426539754 0.0
0.0 0.0 0.0

-203371.9564516809 657187.6700006699 0.0
657187.6700006699 -98842.2134987935 0.0
0.0 0.0 0.0

222450.84108019172 2.441785360009751e6 0.0
2.441785360009751e6 -285062.89739187155 0.0
0.0 0.0 0.0

289010.6468272238 620195.8185418446 0.0
620195.8185418446 -465505.0973583095 0.0
0.0 0.0 0.0

-216355.5306675653 924614.357097792 0.0
924614.357097792 292035.4981986456 0.0
0.0 0.0 0.0

-397389.9332622347 714690.2717787006 0.0
714690.2717787006 927521.3272486613 0.0
0.0 0.0 0.0

-137076.91253609757 712638.7395577937 0.0
712638.7395577937 -216558.21385037524 0.0
0.0 0.0 0.0

98377.95144140876 3.7494315978191765e6 0.0
3.7494315978191765e6 -91051.77379529085 0.0
0.0 0.0 0.0

-225934.49930015084 864070.2519332784 0.0
864070.2519332784 223563.3599916931 0.0
0.0 0.0 0.0

-1.3151743011098884e6 -71139.97255440585 0.0
-71139.97255440585 1.446006508543932e6 0.0
0.0 0.0 0.0

-52250.14419843114 100697.76588961243 0.0
100697.76588961243 -123624.81705123321 0.0
0.0 0.0 0.0

105193.01822391982 928209.4381192828 0.0
928209.4381192828 -162155.96586815052 0.0
0.0 0.0 0.0

-201499.07395179162 1.0118791192245883e6 0.0
1.0118791192245883e6 254236.90132002888 0.0
0.0 0.0 0.0

-222668.1406611054 620336.4879171113 0.0
620336.4879171113 188263.7994145069 0.0
0.0 0.0 0.0

360897.459396223 1.2649252649737496e6 0.0
1.2649252649737496e6 -212768.90196144462 0.0
0.0 0.0 0.0

-374657.0876853553 1.4022599859534043e6 0.0
1.4022599859534043e6 111226.64103340823 0.0
0.0 0.0 0.0

-170420.6578714682 3.194815393168608e6 0.0
3.194815393168608e6 124271.19254401012 0.0
0.0 0.0 0.0

-245436.27548907802 779054.9747342474 0.0
779054.9747342474 23723.717501266743 0.0
0.0 0.0 0.0

309136.0361962328 1.1800452838103322e6 0.0
1.1800452838103322e6 -279905.48531149 0.0
0.0 0.0 0.0

-324735.5648014723 2.339339513636012e6 0.0
2.339339513636012e6 34710.679862629506 0.0
0.0 0.0 0.0

13073.483235559339 3.623837111182196e6 0.0
3.623837111182196e6 -126698.04521938901 0.0
0.0 0.0 0.0

-183785.51025973726 776510.1135043054 0.0
776510.1135043054 959942.1314481362 0.0
0.0 0.0 0.0

-216482.15656272217 714136.2371296253 0.0
714136.2371296253 49513.60566118591 0.0
0.0 0.0 0.0

-261812.08250820704 999772.9243209675 0.0
999772.9243209675 197994.4900574957 0.0
0.0 0.0 0.0

-781877.9839274262 -73281.85534050618 0.0
-73281.85534050618 877080.8566187453 0.0
0.0 0.0 0.0

-185825.52586169587 3.066888381025555e6 0.0
3.066888381025555e6 124107.55951468131 0.0
0.0 0.0 0.0

1.3419120494837603e6 153711.49527401454 0.0
153711.49527401454 -1.5236097532733208e6 0.0
0.0 0.0 0.0

-16628.008015581225 3.5605245972121493e6 0.0
3.5605245972121493e6 -36093.94051714084 0.0
0.0 0.0 0.0

-532217.9491623737 -91140.80879210017 0.0
-91140.80879210017 589138.7219529522 0.0
0.0 0.0 0.0

-76086.77228964401 681490.4443252411 0.0
681490.4443252411 -155186.58085335774 0.0
0.0 0.0 0.0

-152032.97733955854 1.0259068369900662e6 0.0
1.0259068369900662e6 266470.03519541875 0.0
0.0 0.0 0.0

-14796.8111664431 1.2015172053714618e6 0.0
1.2015172053714618e6 -84690.83836443376 0.0
0.0 0.0 0.0

-53427.402327711054 1.1811879968757844e6 0.0
1.1811879968757844e6 -53689.33807374979 0.0
0.0 0.0 0.0

118327.79434935047 1.0608715717218122e6 0.0
1.0608715717218122e6 -226228.9680786351 0.0
0.0 0.0 0.0

-623397.5109238948 191111.4282695443 0.0
191111.4282695443 499077.544028678 0.0
0.0 0.0 0.0

-186407.80679830472 800268.2752177303 0.0
800268.2752177303 99365.97215387292 0.0
0.0 0.0 0.0

494365.1270399447 343087.5147637739 0.0
343087.5147637739 -803783.6604693076 0.0
0.0 0.0 0.0

-33238.49134639278 760003.7048414701 0.0
760003.7048414701 737520.2443891086 0.0
0.0 0.0 0.0

420447.1785297437 1.0109411086164728e6 0.0
1.0109411086164728e6 -772846.0106816384 0.0
0.0 0.0 0.0

-202888.96591645875 513942.13303385983 0.0
513942.13303385983 103679.38724089686 0.0
0.0 0.0 0.0

-387075.46238134603 1.6280933753389323e6 0.0
1.6280933753389323e6 77163.0068128781 0.0
0.0 0.0 0.0

-252995.95620172544 957638.348341198 0.0
957638.348341198 -58738.35999364548 0.0
0.0 0.0 0.0

164580.99143868024 2.7220447404842637e6 0.0
2.7220447404842637e6 -188646.2287404531 0.0
0.0 0.0 0.0

61339.01997687846 1.6138112668405413e6 0.0
1.6138112668405413e6 -119976.97316553982 0.0
0.0 0.0 0.0

-225732.2771814023 928243.5063274732 0.0
928243.5063274732 211178.35678969443 0.0
0.0 0.0 0.0

-276497.20680094825 832688.6997589867 0.0
832688.6997589867 300867.152220961 0.0
0.0 0.0 0.0

-473991.824205077 702734.8222593584 0.0
702734.8222593584 905881.0155718521 0.0
0.0 0.0 0.0

38580.89281462239 734581.5761407024 0.0
734581.5761407024 -214059.4254462985 0.0
0.0 0.0 0.0

272653.16160914314 1.660161126001246e6 0.0
1.660161126001246e6 -431690.7206688376 0.0
0.0 0.0 0.0

-155710.74625968264 1.0045199085658808e6 0.0
1.0045199085658808e6 254813.9077290175 0.0
0.0 0.0 0.0

586571.5591462936 418197.33136001776 0.0
418197.33136001776 -933498.3920007988 0.0
0.0 0.0 0.0

56994.46268952247 1.0987562071151803e6 0.0
1.0987562071151803e6 -102187.2024669032 0.0
0.0 0.0 0.0

-135463.17441843497 3.3381819492549403e6 0.0
3.3381819492549403e6 149121.41045562478 0.0
0.0 0.0 0.0

-13780.355815323855 711115.5714951474 0.0
711115.5714951474 454922.4841649428 0.0
0.0 0.0 0.0

350189.0461755581 880063.5086527752 0.0
880063.5086527752 1.167292417212851e6 0.0
0.0 0.0 0.0

-227373.99717865174 1.2178254818880616e6 0.0
1.2178254818880616e6 -757912.020499426 0.0
0.0 0.0 0.0

-222143.84861589313 720660.6223955903 0.0
720660.6223955903 -171670.14301200246 0.0
0.0 0.0 0.0

-1.1451487400738923e6 1.2083009435113186e6 0.0
1.2083009435113186e6 1.0358119017442861e6 0.0
0.0 0.0 0.0

-150132.27239028504 3.085751279311683e6 0.0
3.085751279311683e6 -63959.22374330293 0.0
0.0 0.0 0.0

-106611.23987379711 1.078974097978729e6 0.0
1.078974097978729e6 182464.32296785404 0.0
0.0 0.0 0.0

-84606.89133739073 706506.4742935848 0.0
706506.4742935848 664251.8675696349 0.0
0.0 0.0 0.0

-21512.723859277496 815227.609136163 0.0
815227.609136163 1.175961175614633e6 0.0
0.0 0.0 0.0

-132215.3547124681 1.4315978072160326e6 0.0
1.4315978072160326e6 52023.3623120675 0.0
0.0 0.0 0.0

11642.864133198571 595875.0025229976 0.0
595875.0025229976 614126.0161906803 0.0
0.0 0.0 0.0

23783.605085486226 3.7185451388515215e6 0.0
3.7185451388515215e6 -139277.3328130191 0.0
0.0 0.0 0.0

17120.082734150088 917162.9486492317 0.0
917162.9486492317 153997.29503582112 0.0
0.0 0.0 0.0

-138202.79599681948 1.0028569658246388e6 0.0
1.0028569658246388e6 314079.0649401131 0.0
0.0 0.0 0.0

135644.87298121836 3.6406458465688666e6 0.0
3.6406458465688666e6 -4382.63055747818 0.0
0.0 0.0 0.0

-64007.01799228339 968975.3850127799 0.0
968975.3850127799 269814.3081512265 0.0
0.0 0.0 0.0

1.4548975720482632e6 99411.7487682098 0.0
99411.7487682098 -1.6025376910004797e6 0.0
0.0 0.0 0.0

-252350.1845004431 264798.1215177346 0.0
264798.1215177346 85874.09575052328 0.0
0.0 0.0 0.0

-418196.17559237476 -112601.66604904267 0.0
-112601.66604904267 467987.9920152859 0.0
0.0 0.0 0.0

-348227.3221525561 704056.2799573079 0.0
704056.2799573079 334674.68310511834 0.0
0.0 0.0 0.0

-131776.58787777912 3.0277914430276654e6 0.0
3.0277914430276654e6 28054.323843411184 0.0
0.0 0.0 0.0

162190.07964554275 882795.6485947096 0.0
882795.6485947096 204361.04744175778 0.0
0.0 0.0 0.0

23583.78047806707 600538.0666880328 0.0
600538.0666880328 342616.6963896382 0.0
0.0 0.0 0.0

-263231.9036842492 988999.6134307024 0.0
988999.6134307024 220874.9447339803 0.0
0.0 0.0 0.0

438890.13897249533 286566.8133117474 0.0
286566.8133117474 -318884.19290521176 0.0
0.0 0.0 0.0

-70210.39112275027 3.2889931509048934e6 0.0
3.2889931509048934e6 -25805.241540999545 0.0
0.0 0.0 0.0

382893.03807769954 783049.9699579861 0.0
783049.9699579861 -248872.64335574745 0.0
0.0 0.0 0.0

-195340.36608668877 1.049190432670429e6 0.0
1.049190432670429e6 247543.29392220985 0.0
0.0 0.0 0.0

7566.5548169179965 4.394829353242987e6 0.0
4.394829353242987e6 -125679.87472211376 0.0
0.0 0.0 0.0

-131549.943744116 1.0638857316399992e6 0.0
1.0638857316399992e6 161243.74173167406 0.0
0.0 0.0 0.0

1.1871020101248985e6 239982.72647582975 0.0
239982.72647582975 -1.413451901591389e6 0.0
0.0 0.0 0.0

-35488.8918116698 1.8366004486919972e6 0.0
1.8366004486919972e6 -188791.7137296991 0.0
0.0 0.0 0.0

-41908.858763722565 3.744428950686472e6 0.0
3.744428950686472e6 -49310.46801922227 0.0
0.0 0.0 0.0

-52034.761069342916 4.0842098335140226e6 0.0
4.0842098335140226e6 -93298.66259673309 0.0
0.0 0.0 0.0

24680.47677344948 865771.6678688677 0.0
865771.6678688677 -174204.39132717432 0.0
0.0 0.0 0.0

995513.2642178949 144898.47830725272 0.0
144898.47830725272 -1.4497680784266987e6 0.0
0.0 0.0 0.0

-241601.3464082143 756641.3516339292 0.0
756641.3516339292 42574.805392534996 0.0
0.0 0.0 0.0

292623.1095873066 541959.5972709735 0.0
541959.5972709735 -632374.8266308266 0.0
0.0 0.0 0.0

-588615.1596413724 -137418.76649465584 0.0
-137418.76649465584 670503.505232569 0.0
0.0 0.0 0.0

-224305.1358121435 471386.2058995942 0.0
471386.2058995942 174754.79022191235 0.0
0.0 0.0 0.0

-255760.65014809236 987470.2816092393 0.0
987470.2816092393 303379.73072034516 0.0
0.0 0.0 0.0

1.1076599272685489e6 518579.1624940982 0.0
518579.1624940982 -1.2108208002165155e6 0.0
0.0 0.0 0.0

-1.5015918018713067e6 524417.4024492451 0.0
524417.4024492451 2.0317530947138316e6 0.0
0.0 0.0 0.0

-89432.36878515559 887156.1165683705 0.0
887156.1165683705 457204.87074808707 0.0
0.0 0.0 0.0

-551336.2518765369 734669.1264998156 0.0
734669.1264998156 1.434052949455405e6 0.0
0.0 0.0 0.0

-270335.07046741614 1.007351523688539e6 0.0
1.007351523688539e6 -102645.44872086497 0.0
0.0 0.0 0.0

-228572.0062833589 468998.8271160815 0.0
468998.8271160815 32448.546674942816 0.0
0.0 0.0 0.0

-7956.840170391304 867156.5636821323 0.0
867156.5636821323 -143292.93975410875 0.0
0.0 0.0 0.0

280769.37721878954 1.4333763182025517e6 0.0
1.4333763182025517e6 -429548.08302152297 0.0
0.0 0.0 0.0

780809.2565872835 439350.00322662824 0.0
439350.00322662824 -1.1859907041134494e6 0.0
0.0 0.0 0.0

-466487.37991130515 -115362.77114727424 0.0
-115362.77114727424 526401.4180187376 0.0
0.0 0.0 0.0

-869483.3252375682 -146715.2420230905 0.0
-146715.2420230905 979772.1640539283 0.0
0.0 0.0 0.0

-121564.06008240664 1.0391465466546485e6 0.0
1.0391465466546485e6 223264.99539151997 0.0
0.0 0.0 0.0

160992.8081202945 2.4707771954236226e6 0.0
2.4707771954236226e6 -199753.40177760346 0.0
0.0 0.0 0.0

-563785.2391045846 727218.2563014827 0.0
727218.2563014827 1.5457387639891843e6 0.0
0.0 0.0 0.0

-34552.18052721216 885336.6753580985 0.0
885336.6753580985 -112063.37539365141 0.0
0.0 0.0 0.0

102704.20567418406 3.2395001852409733e6 0.0
3.2395001852409733e6 -132577.63125165866 0.0
0.0 0.0 0.0

-248902.22989221915 836591.390353349 0.0
836591.390353349 136301.47303737325 0.0
0.0 0.0 0.0

-105480.81406617275 -49808.42856143635 0.0
-49808.42856143635 124184.58408224458 0.0
0.0 0.0 0.0

630986.4399604728 4.91311055711303e6 0.0
4.91311055711303e6 338471.54160137265 0.0
0.0 0.0 0.0

20262.987011914927 1.3167660525716783e6 0.0
1.3167660525716783e6 -136232.7734316704 0.0
0.0 0.0 0.0

439970.0444382632 709294.5627823503 0.0
709294.5627823503 -911002.533160222 0.0
0.0 0.0 0.0

1.2678754526378065e6 192375.56876869677 0.0
192375.56876869677 -1.548482496210197e6 0.0
0.0 0.0 0.0

63767.097612755286 1.062653019193907e6 0.0
1.062653019193907e6 -145461.68291518427 0.0
0.0 0.0 0.0

-256778.20658488382 396885.5973533433 0.0
396885.5973533433 199444.29056256806 0.0
0.0 0.0 0.0

-700409.9539540356 494859.1800844886 0.0
494859.1800844886 466047.0410103408 0.0
0.0 0.0 0.0

-58581.45525624305 1.1668455844605102e6 0.0
1.1668455844605102e6 -61035.21160583843 0.0
0.0 0.0 0.0

17976.06433543196 547336.2074996383 0.0
547336.2074996383 460608.8982122931 0.0
0.0 0.0 0.0

13866.461004961297 782205.7563725412 0.0
782205.7563725412 -195246.57769185572 0.0
0.0 0.0 0.0

-84325.73548846575 -15110.576718298988 0.0
-15110.576718298988 112545.41286770237 0.0
0.0 0.0 0.0

-204212.86734511028 3.780297691120313e6 0.0
3.780297691120313e6 -279014.7989429158 0.0
0.0 0.0 0.0

-21663.36683496738 1.1664992344287476e6 0.0
1.1664992344287476e6 -49547.38328724317 0.0
0.0 0.0 0.0

-68732.23732289372 1.0872525580357593e6 0.0
1.0872525580357593e6 160336.66170926217 0.0
0.0 0.0 0.0

183521.03222722714 2.0597376660712427e6 0.0
2.0597376660712427e6 -384547.3322950823 0.0
0.0 0.0 0.0

-218388.50148346132 818687.3261371305 0.0
818687.3261371305 666454.7821413588 0.0
0.0 0.0 0.0

-101612.52581842954 934312.3789268504 0.0
934312.3789268504 -141548.19191837445 0.0
0.0 0.0 0.0

155444.73663244914 2.237958989778633e6 0.0
2.237958989778633e6 -185622.57624282816 0.0
0.0 0.0 0.0

6809.429179762443 1.7353901167190294e6 0.0
1.7353901167190294e6 -96712.74711133892 0.0
0.0 0.0 0.0

269916.51966777444 638330.4527078217 0.0
638330.4527078217 -533038.3527649776 0.0
0.0 0.0 0.0

-327063.1059040009 644058.2145467884 0.0
644058.2145467884 267450.6486474128 0.0
0.0 0.0 0.0

-242577.97332882183 3.3924405666538244e6 0.0
3.3924405666538244e6 -351927.4693270156 0.0
0.0 0.0 0.0

-639336.5474549622 424817.36402159696 0.0
424817.36402159696 -428879.06724764034 0.0
0.0 0.0 0.0

-211753.96277939726 877448.1173603487 0.0
877448.1173603487 1.5954521240930506e6 0.0
0.0 0.0 0.0

1.309846109168509e6 165131.17393965326 0.0
165131.17393965326 -1.4675994694748782e6 0.0
0.0 0.0 0.0

-811101.9905684856 -136102.91847781622 0.0
-136102.91847781622 901492.4546571809 0.0
0.0 0.0 0.0

470136.7832698094 623746.4026889501 0.0
623746.4026889501 -877065.41401543 0.0
0.0 0.0 0.0

246783.88458656822 693695.3144936995 0.0
693695.3144936995 -343260.25822716707 0.0
0.0 0.0 0.0

-25304.01186789338 1.1967856941706394e6 0.0
1.1967856941706394e6 -88504.72061850868 0.0
0.0 0.0 0.0

-227558.5640878299 947285.0839684175 0.0
947285.0839684175 57749.362999989666 0.0
0.0 0.0 0.0

-651955.2240143855 549090.5280565176 0.0
549090.5280565176 798205.7333837767 0.0
0.0 0.0 0.0

158873.6086630898 2.045582971272148e6 0.0
2.045582971272148e6 -175049.87941554777 0.0
0.0 0.0 0.0

-1.3915627100180646e6 -185167.36010192434 0.0
-185167.36010192434 1.6112456386704359e6 0.0
0.0 0.0 0.0

-297007.61770833255 334410.336241002 0.0
334410.336241002 221632.42656259504 0.0
0.0 0.0 0.0

1.0898104015825915e6 387949.68312653527 0.0
387949.68312653527 -1.2824003357434897e6 0.0
0.0 0.0 0.0

-385253.69675140455 1.6549420077152266e6 0.0
1.6549420077152266e6 89966.84572375973 0.0
0.0 0.0 0.0

1.1214719789785682e6 283988.2263857768 0.0
283988.2263857768 -1.3148540259990073e6 0.0
0.0 0.0 0.0

-937225.9410433985 1.916508187434485e6 0.0
1.916508187434485e6 1.162648280971617e6 0.0
0.0 0.0 0.0

-1.45045252540388e6 -188044.3203092159 0.0
-188044.3203092159 1.6999869120862633e6 0.0
0.0 0.0 0.0

309866.50953475595 623442.3775190987 0.0
623442.3775190987 -451087.5972965087 0.0
0.0 0.0 0.0

-200671.01323526434 1.0375926519464717e6 0.0
1.0375926519464717e6 248391.51682550405 0.0
0.0 0.0 0.0

-1.6750993676667002e6 175023.66428121654 0.0
175023.66428121654 278204.3547552511 0.0
0.0 0.0 0.0

1.1128925625761324e6 333393.6220076392 0.0
333393.6220076392 -1.3369783229104187e6 0.0
0.0 0.0 0.0

-262449.5187135019 952221.5852821267 0.0
952221.5852821267 42791.84801435853 0.0
0.0 0.0 0.0

-221331.7245560481 696053.2558089757 0.0
696053.2558089757 237509.18328997906 0.0
0.0 0.0 0.0

556489.4735328075 3.563502627675038e6 0.0
3.563502627675038e6 73980.72248091415 0.0
0.0 0.0 0.0

189067.45095097416 927864.988434872 0.0
927864.988434872 -351986.12845176074 0.0
0.0 0.0 0.0

205777.56927901373 775774.8491799578 0.0
775774.8491799578 -268005.4157216498 0.0
0.0 0.0 0.0

-126561.40201876452 4.055983496456938e6 0.0
4.055983496456938e6 -137637.34510626202 0.0
0.0 0.0 0.0

-406834.62762498605 1.6614950238500014e6 0.0
1.6614950238500014e6 102835.67579871466 0.0
0.0 0.0 0.0

-570966.130988213 136346.9956711352 0.0
136346.9956711352 584762.1590598217 0.0
0.0 0.0 0.0

1.1595025434809118e6 255100.87818166497 0.0
255100.87818166497 -1.3468151184601285e6 0.0
0.0 0.0 0.0

-457762.57469121256 1.1940187467803715e6 0.0
1.1940187467803715e6 384377.9939737785 0.0
0.0 0.0 0.0

689935.7753500082 244991.1808321901 0.0
244991.1808321901 -1.0048859619934238e6 0.0
0.0 0.0 0.0

93161.74864036623 983826.8449006438 0.0
983826.8449006438 -213145.08086127232 0.0
0.0 0.0 0.0

1.1326803699665486e6 276485.7402203345 0.0
276485.7402203345 -1.3070559732822995e6 0.0
0.0 0.0 0.0

169953.45712831 851711.2222048705 0.0
851711.2222048705 -228891.7095095701 0.0
0.0 0.0 0.0

-1.1463623956501589e6 68294.24776998295 0.0
68294.24776998295 1.019303655799713e6 0.0
0.0 0.0 0.0

-949348.8037927067 -2341.959647203771 0.0
-2341.959647203771 1.0469871485750459e6 0.0
0.0 0.0 0.0

-183164.17084897883 542066.539546461 0.0
542066.539546461 -215475.38171512293 0.0
0.0 0.0 0.0

3247.910045250639 754591.6292033979 0.0
754591.6292033979 519186.1966073569 0.0
0.0 0.0 0.0

1.3032556462327843e6 173262.66115470038 0.0
173262.66115470038 -1.4798518030022834e6 0.0
0.0 0.0 0.0

-218505.62313772878 905900.9900320111 0.0
905900.9900320111 213017.98352776177 0.0
0.0 0.0 0.0

-438495.02720950614 -68758.41838191908 0.0
-68758.41838191908 477595.4279651973 0.0
0.0 0.0 0.0

-85191.75140054322 1.0504799368084553e6 0.0
1.0504799368084553e6 -119556.88900470053 0.0
0.0 0.0 0.0

255460.19579464055 772902.8562447422 0.0
772902.8562447422 -477370.1138449663 0.0
0.0 0.0 0.0

-302141.7008306763 807781.9507598105 0.0
807781.9507598105 343581.9627171091 0.0
0.0 0.0 0.0

-166860.38980633928 749828.6379550695 0.0
749828.6379550695 1.0786827213484542e6 0.0
0.0 0.0 0.0

-55977.19367083042 1.0017684588211058e6 0.0
1.0017684588211058e6 -191837.5312080017 0.0
0.0 0.0 0.0

-49274.17828050029 4.03584438728568e6 0.0
4.03584438728568e6 -108766.22322110861 0.0
0.0 0.0 0.0

-271341.8295540963 929201.5589412528 0.0
929201.5589412528 134253.6381506197 0.0
0.0 0.0 0.0

36332.21014884749 1.1471544213598508e6 0.0
1.1471544213598508e6 -124066.70831423461 0.0
0.0 0.0 0.0

1.0546448276629625e6 320409.30748030887 0.0
320409.30748030887 -682149.255697761 0.0
0.0 0.0 0.0

-1.3057293335014929e6 -162787.88059831844 0.0
-162787.88059831844 1.4649154976705438e6 0.0
0.0 0.0 0.0

-247515.78177438083 1.4967928492819488e6 0.0
1.4967928492819488e6 131213.3817651596 0.0
0.0 0.0 0.0

-938529.2237989721 -145227.52602086673 0.0
-145227.52602086673 1.0682660027106255e6 0.0
0.0 0.0 0.0

-26703.92298430596 1.18785264052831e6 0.0
1.18785264052831e6 -73606.84696679332 0.0
0.0 0.0 0.0

-1.8048171111708716e6 229493.63570075997 0.0
229493.63570075997 1.7249531970477581e6 0.0
0.0 0.0 0.0

-161652.94514899404 490519.0089282249 0.0
490519.0089282249 -134629.0752845175 0.0
0.0 0.0 0.0

-1.200741966748488e6 -17957.80807671739 0.0
-17957.80807671739 1.1899954384748098e6 0.0
0.0 0.0 0.0

-1.4026205393007738e6 -51382.42804517161 0.0
-51382.42804517161 1.325783744989084e6 0.0
0.0 0.0 0.0

156344.21600123047 2.041859547082119e6 0.0
2.041859547082119e6 -209021.9738962897 0.0
0.0 0.0 0.0

-126243.14523444627 1.0379909845571024e6 0.0
1.0379909845571024e6 108234.07785985767 0.0
0.0 0.0 0.0

152377.75470934412 1.7672737228632923e6 0.0
1.7672737228632923e6 -152476.4633094865 0.0
0.0 0.0 0.0

-693961.8534795095 124030.44978520546 0.0
124030.44978520546 553674.754869699 0.0
0.0 0.0 0.0

53892.351925786046 883324.1223096126 0.0
883324.1223096126 -204517.69883973195 0.0
0.0 0.0 0.0

290178.3376338399 563245.1464496573 0.0
563245.1464496573 -575243.167775968 0.0
0.0 0.0 0.0

-210727.90136666887 921006.9398504675 0.0
921006.9398504675 242220.7699884877 0.0
0.0 0.0 0.0

258168.11954341608 903573.7368202894 0.0
903573.7368202894 -452277.32719266566 0.0
0.0 0.0 0.0

-1.5116680892561288e6 894884.0273639472 0.0
894884.0273639472 56647.801558515406 0.0
0.0 0.0 0.0

224968.9844498753 1.8513049281127476e6 0.0
1.8513049281127476e6 -391271.24882575084 0.0
0.0 0.0 0.0

-500125.2080652384 1.783755777977112e6 0.0
1.783755777977112e6 181240.72060147082 0.0
0.0 0.0 0.0

-122385.01540837008 826797.5153263839 0.0
826797.5153263839 -105730.78066448518 0.0
0.0 0.0 0.0

-428540.4000040543 635408.2410826392 0.0
635408.2410826392 465259.4822388658 0.0
0.0 0.0 0.0

17767.55716357983 1.1628200220823907e6 0.0
1.1628200220823907e6 -90893.42130241235 0.0
0.0 0.0 0.0

581831.211705354 4.19976255414278e6 0.0
4.19976255414278e6 20667.390171795996 0.0
0.0 0.0 0.0

-702662.8580431711 -135454.83786145048 0.0
-135454.83786145048 792905.4416112509 0.0
0.0 0.0 0.0

1.2943612053025218e6 169851.39516939968 0.0
169851.39516939968 -1.467928059692975e6 0.0
0.0 0.0 0.0

-167500.0814712941 3.7557049268273897e6 0.0
3.7557049268273897e6 -97199.81861129441 0.0
0.0 0.0 0.0

-146950.32579095333 -27559.629406017073 0.0
-27559.629406017073 162275.35436441086 0.0
0.0 0.0 0.0

1.206270774525283e6 219862.07774158844 0.0
219862.07774158844 -1.382367964442242e6 0.0
0.0 0.0 0.0

-1.2168205695230693e6 -160954.81305587757 0.0
-160954.81305587757 1.378388206844078e6 0.0
0.0 0.0 0.0

-275933.3485636082 -94871.27289687401 0.0
-94871.27289687401 300960.3743802036 0.0
0.0 0.0 0.0

-68498.8603602591 782483.0655660621 0.0
782483.0655660621 -120415.80582201337 0.0
0.0 0.0 0.0

-757849.5017832755 -134045.64849228936 0.0
-134045.64849228936 855046.0091889946 0.0
0.0 0.0 0.0

1.2971363926298674e6 180643.00271715454 0.0
180643.00271715454 -1.4798136031603361e6 0.0
0.0 0.0 0.0

1.2271394425035145e6 218786.95916384106 0.0
218786.95916384106 -1.398378015597777e6 0.0
0.0 0.0 0.0

-1.1389110228156256e6 -160190.50245297235 0.0
-160190.50245297235 1.312649753287577e6 0.0
0.0 0.0 0.0

32033.21756191282 1.0179883778588156e6 0.0
1.0179883778588156e6 -86563.7527104627 0.0
0.0 0.0 0.0

200425.8420553228 2.0296029343178694e6 0.0
2.0296029343178694e6 -234124.90562568564 0.0
0.0 0.0 0.0

-274227.66310769285 949961.7538925763 0.0
949961.7538925763 167744.54266529556 0.0
0.0 0.0 0.0

1.2404887657178547e6 210806.92003048057 0.0
210806.92003048057 -1.4273123515835404e6 0.0
0.0 0.0 0.0

-1.0703126382583946e6 -159563.9561419618 0.0
-159563.9561419618 1.2341772258108591e6 0.0
0.0 0.0 0.0

-58566.771828878846 915129.8942587165 0.0
915129.8942587165 -103610.22871353591 0.0
0.0 0.0 0.0

304483.85212741105 1.0120800448260613e6 0.0
1.0120800448260613e6 -285968.6571434358 0.0
0.0 0.0 0.0

-196891.1180295951 2.991519707308036e6 0.0
2.991519707308036e6 -41440.238776107464 0.0
0.0 0.0 0.0

-268071.0671383102 1.1466489387892112e6 0.0
1.1466489387892112e6 -146259.1973916568 0.0
0.0 0.0 0.0

-507218.5279130938 705705.8586813502 0.0
705705.8586813502 1.0696781026631412e6 0.0
0.0 0.0 0.0

-998133.0304680439 -154870.21345290245 0.0
-154870.21345290245 1.123587792883216e6 0.0
0.0 0.0 0.0

1.249957414860053e6 204200.84528245332 0.0
204200.84528245332 -1.4291176324546344e6 0.0
0.0 0.0 0.0

37835.4631266958 3.9111591506610294e6 0.0
3.9111591506610294e6 -85682.04588547666 0.0
0.0 0.0 0.0

-463878.6313201644 766491.2036975598 0.0
766491.2036975598 1.5281026271528697e6 0.0
0.0 0.0 0.0

1.4570302219427095e6 4.90238379086924e6 0.0
4.90238379086924e6 -2.2392267119531585e6 0.0
0.0 0.0 0.0

-408728.8738783504 1.965606085108723e6 0.0
1.965606085108723e6 -501754.5804368525 0.0
0.0 0.0 0.0

-410642.1290355606 1.3199998326911586e6 0.0
1.3199998326911586e6 114652.51788509014 0.0
0.0 0.0 0.0

-334421.48769983754 23971.090092456765 0.0
23971.090092456765 344428.8091683429 0.0
0.0 0.0 0.0

-294426.0784215635 1.0049641120461195e6 0.0
1.0049641120461195e6 158959.6317226187 0.0
0.0 0.0 0.0

-62825.26048645898 76014.95239766822 0.0
76014.95239766822 -17306.149148626195 0.0
0.0 0.0 0.0

72742.36185467138 4.509989220098485e6 0.0
4.509989220098485e6 -147606.8711066266 0.0
0.0 0.0 0.0

80335.68274968257 3.6016830694813766e6 0.0
3.6016830694813766e6 -92117.583276792 0.0
0.0 0.0 0.0

-202217.1236928651 298198.3465153489 0.0
298198.3465153489 -7956.700457671577 0.0
0.0 0.0 0.0

-19705.351167426925 1.1985986880358679e6 0.0
1.1985986880358679e6 -76331.57733068202 0.0
0.0 0.0 0.0

-1.7424367337748716e6 -249092.80197375733 0.0
-249092.80197375733 1.7129505788493105e6 0.0
0.0 0.0 0.0

-355397.54138750257 -377991.942119629 0.0
-377991.942119629 1.2622189603489672e6 0.0
0.0 0.0 0.0

-12257.158481470844 -40030.15584908613 0.0
-40030.15584908613 84701.45419598478 0.0
0.0 0.0 0.0

683193.5241205551 41447.3643792853 0.0
41447.3643792853 -546153.3743468388 0.0
0.0 0.0 0.0

63173.69536579792 3.644264116328916e6 0.0
3.644264116328916e6 -94307.11638459233 0.0
0.0 0.0 0.0

471755.721790126 682013.4096624701 0.0
682013.4096624701 -871158.0793177607 0.0
0.0 0.0 0.0

-67771.71760749296 677438.5119934196 0.0
677438.5119934196 770940.7972851924 0.0
0.0 0.0 0.0

-15379.881246030964 918125.1441071526 0.0
918125.1441071526 -124630.36321597712 0.0
0.0 0.0 0.0

1.3851869969707108e6 102293.80027508298 0.0
102293.80027508298 -1.7980612310572756e6 0.0
0.0 0.0 0.0

-104672.33675848295 541345.3336710748 0.0
541345.3336710748 -160034.27882102007 0.0
0.0 0.0 0.0

103494.04757256714 1.3986542216486763e6 0.0
1.3986542216486763e6 -180647.94213994063 0.0
0.0 0.0 0.0

359467.34348507377 568905.9432620915 0.0
568905.9432620915 -623770.167987542 0.0
0.0 0.0 0.0

-105360.4251253899 3.28998071395285e6 0.0
3.28998071395285e6 -19313.954197629322 0.0
0.0 0.0 0.0

-296206.44988147024 737542.6321186288 0.0
737542.6321186288 488835.4662495345 0.0
0.0 0.0 0.0

-63767.011961541706 691862.0076022259 0.0
691862.0076022259 -140984.76508465546 0.0
0.0 0.0 0.0

-115386.06667067803 1.026814732310877e6 0.0
1.026814732310877e6 -169788.35813695233 0.0
0.0 0.0 0.0

126566.9609259825 554225.3195114626 0.0
554225.3195114626 -287914.089569667 0.0
0.0 0.0 0.0

-344111.4252584581 947626.3124194107 0.0
947626.3124194107 263979.0131128938 0.0
0.0 0.0 0.0

554705.2415799769 4.313701280929757e6 0.0
4.313701280929757e6 103677.12702239209 0.0
0.0 0.0 0.0

-1.0610640449648714e6 -34827.15384131572 0.0
-34827.15384131572 1.0409592845402935e6 0.0
0.0 0.0 0.0

-872004.2399496587 -31030.722130197784 0.0
-31030.722130197784 936525.2497667476 0.0
0.0 0.0 0.0

-311884.7861012162 737861.6593846552 0.0
737861.6593846552 291576.87486662157 0.0
0.0 0.0 0.0

-83425.4672559263 3.6251337826247574e6 0.0
3.6251337826247574e6 -76069.62669581713 0.0
0.0 0.0 0.0

-407547.47747966874 1.446537550654229e6 0.0
1.446537550654229e6 129326.82330999625 0.0
0.0 0.0 0.0

-316024.757473384 1.068086250978417e6 0.0
1.068086250978417e6 152326.12793849304 0.0
0.0 0.0 0.0

64784.20171260768 2.477500884971918e6 0.0
2.477500884971918e6 52345.80005393439 0.0
0.0 0.0 0.0

68920.97089217433 1.686397035178733e6 0.0
1.686397035178733e6 -70718.01167606181 0.0
0.0 0.0 0.0

-325440.40434379387 769537.2811131362 0.0
769537.2811131362 1.275485319889379e6 0.0
0.0 0.0 0.0

-414536.98712589307 265959.43392578047 0.0
265959.43392578047 1322.0578382079548 0.0
0.0 0.0 0.0

-1.3216077662251394e6 1.2916788380156665e6 0.0
1.2916788380156665e6 3.755878118278484e6 0.0
0.0 0.0 0.0

-154544.98986110912 252393.13420784468 0.0
252393.13420784468 -70587.28521156732 0.0
0.0 0.0 0.0

-153431.29003157892 1.0160181113541808e6 0.0
1.0160181113541808e6 246043.90931432572 0.0
0.0 0.0 0.0

655147.7232657562 167418.09914294956 0.0
167418.09914294956 -1.0080067012225742e6 0.0
0.0 0.0 0.0

-248316.92779289698 331827.25215204584 0.0
331827.25215204584 169664.90749563772 0.0
0.0 0.0 0.0

-213691.88835404668 -47501.80832903719 0.0
-47501.80832903719 243882.51723488356 0.0
0.0 0.0 0.0

-118214.3272237107 1.6908302236588998e6 0.0
1.6908302236588998e6 167092.787856582 0.0
0.0 0.0 0.0

308206.0045405794 572143.8532495655 0.0
572143.8532495655 -639079.4433148685 0.0
0.0 0.0 0.0

1.0240534437631263e6 208712.67403017226 0.0
208712.67403017226 -1.3950477853730698e6 0.0
0.0 0.0 0.0

-96064.61520658943 1.4231877261891589e6 0.0
1.4231877261891589e6 -65540.34864222616 0.0
0.0 0.0 0.0

-3.7841016645865766e6 -256760.8510665853 0.0
-256760.8510665853 3.591505929901312e6 0.0
0.0 0.0 0.0

-271407.0960759516 1.0434625017946924e6 0.0
1.0434625017946924e6 237339.04774343473 0.0
0.0 0.0 0.0

-272458.4996721527 935638.9679356469 0.0
935638.9679356469 286283.5278922165 0.0
0.0 0.0 0.0

41428.94991193409 3.1393604068023874e6 0.0
3.1393604068023874e6 -130032.23590053519 0.0
0.0 0.0 0.0

-161592.58411551605 -88934.67254964489 0.0
-88934.67254964489 192401.87785174727 0.0
0.0 0.0 0.0

-117509.33864902091 668026.6541643689 0.0
668026.6541643689 -88576.07458845849 0.0
0.0 0.0 0.0

-513873.84385105304 -115093.82844624884 0.0
-115093.82844624884 576374.7567628818 0.0
0.0 0.0 0.0

-128447.4227314457 1.6675738533569868e6 0.0
1.6675738533569868e6 -225975.89853981574 0.0
0.0 0.0 0.0

-249334.11071694182 1.107697749366906e6 0.0
1.107697749366906e6 -13048.849944112968 0.0
0.0 0.0 0.0

1.267748547727847e6 184518.2857095586 0.0
184518.2857095586 -1.5639623196879555e6 0.0
0.0 0.0 0.0

30566.341975096 1.100988500948244e6 0.0
1.100988500948244e6 -66262.58794713992 0.0
0.0 0.0 0.0

1.3772498977347156e6 144962.17196023546 0.0
144962.17196023546 -1.4961570320620514e6 0.0
0.0 0.0 0.0

197557.75914624814 1.3599444370850106e6 0.0
1.3599444370850106e6 -372723.75317392504 0.0
0.0 0.0 0.0

-445557.9441030932 1.3852726449354892e6 0.0
1.3852726449354892e6 273533.5903846489 0.0
0.0 0.0 0.0

-80156.4183745171 370036.3361391568 0.0
370036.3361391568 -185904.26695358238 0.0
0.0 0.0 0.0

-97023.35554179092 3.779684706461588e6 0.0
3.779684706461588e6 -148499.7545998346 0.0
0.0 0.0 0.0

-415135.9377462551 1.3591712311954275e6 0.0
1.3591712311954275e6 182630.88006287089 0.0
0.0 0.0 0.0

-257411.71113365336 907566.2130546019 0.0
907566.2130546019 179700.4161989335 0.0
0.0 0.0 0.0

-295590.06312864623 1.0514873892659086e6 0.0
1.0514873892659086e6 124184.17862927383 0.0
0.0 0.0 0.0

-356325.4771132125 2.838981584734083e6 0.0
2.838981584734083e6 63040.12050941898 0.0
0.0 0.0 0.0

66304.95126390409 3.4306016782194795e6 0.0
3.4306016782194795e6 -162813.3661002915 0.0
0.0 0.0 0.0

-506999.76505054056 1.786593852421146e6 0.0
1.786593852421146e6 228616.53235035922 0.0
0.0 0.0 0.0

-161100.53802579016 132189.13968435992 0.0
132189.13968435992 47368.74373975818 0.0
0.0 0.0 0.0

343009.8430163207 2.26633088238345e6 0.0
2.26633088238345e6 -423516.4888223598 0.0
0.0 0.0 0.0

-110565.71981882025 -22646.948513186628 0.0
-22646.948513186628 103763.60311909005 0.0
0.0 0.0 0.0

-182447.4907142485 999135.4509355032 0.0
999135.4509355032 319837.6714169958 0.0
0.0 0.0 0.0

-1.1437193673832477e6 -129960.44810762667 0.0
-129960.44810762667 1.2117490616581796e6 0.0
0.0 0.0 0.0

112030.86209880945 3.763974453229268e6 0.0
3.763974453229268e6 -71113.15972605595 0.0
0.0 0.0 0.0

238885.8916139301 1.308654058585309e6 0.0
1.308654058585309e6 -285278.4459702822 0.0
0.0 0.0 0.0

-137873.5005476452 899600.3217756711 0.0
899600.3217756711 -68431.26478618613 0.0
0.0 0.0 0.0

-265029.39708561177 3.4568530013110833e6 0.0
3.4568530013110833e6 -447162.0122900354 0.0
0.0 0.0 0.0

319518.921994392 626680.5334666109 0.0
626680.5334666109 -471161.7181621115 0.0
0.0 0.0 0.0

333280.81241002755 191108.96442125825 0.0
191108.96442125825 -638603.5356268232 0.0
0.0 0.0 0.0

77123.09160963868 3.688784120509465e6 0.0
3.688784120509465e6 -91895.90147010177 0.0
0.0 0.0 0.0

-36529.12159367809 1.1619476296731082e6 0.0
1.1619476296731082e6 -43476.3671178339 0.0
0.0 0.0 0.0

-259798.49622584568 1.306520773956966e6 0.0
1.306520773956966e6 -185011.77329434245 0.0
0.0 0.0 0.0

1.1777986006007656e6 238040.105881874 0.0
238040.105881874 -1.3564927755149421e6 0.0
0.0 0.0 0.0

-108912.37126397855 58166.05881795089 0.0
58166.05881795089 88103.75542204504 0.0
0.0 0.0 0.0

1.0897480874264296e6 302090.2334187262 0.0
302090.2334187262 -1.3752826215211893e6 0.0
0.0 0.0 0.0

-112848.89309684702 -58474.176861308384 0.0
-58474.176861308384 138647.87942413273 0.0
0.0 0.0 0.0

-314330.11858747416 1.2334700385287555e6 0.0
1.2334700385287555e6 -76776.87684853807 0.0
0.0 0.0 0.0

-24242.686967691563 1.169470068282267e6 0.0
1.169470068282267e6 -51637.73525470617 0.0
0.0 0.0 0.0

-134730.86973567045 954191.6449211553 0.0
954191.6449211553 -173552.12148207158 0.0
0.0 0.0 0.0

-132513.86970520028 245529.9089612417 0.0
245529.9089612417 9870.15679735857 0.0
0.0 0.0 0.0

-322578.43319515465 -95717.67790245262 0.0
-95717.67790245262 334440.59254282305 0.0
0.0 0.0 0.0

43831.66021302214 4.3683808197828755e6 0.0
4.3683808197828755e6 -81626.3180529477 0.0
0.0 0.0 0.0

-242668.33174228627 1.3620438577282152e6 0.0
1.3620438577282152e6 229060.3792166731 0.0
0.0 0.0 0.0

362359.7324334023 350954.20346975053 0.0
350954.20346975053 -677212.2634154643 0.0
0.0 0.0 0.0

-386029.6130225342 -73545.75689664623 0.0
-73545.75689664623 458518.6817247557 0.0
0.0 0.0 0.0

-224403.84747131693 1.0661229075935064e6 0.0
1.0661229075935064e6 189207.21382999327 0.0
0.0 0.0 0.0

-1.3584403424070347e6 634389.9375810388 0.0
634389.9375810388 2.3887424732180233e6 0.0
0.0 0.0 0.0

-254853.72993930403 1.3618711625637058e6 0.0
1.3618711625637058e6 163296.54834785964 0.0
0.0 0.0 0.0

470320.8782036203 630449.6194649425 0.0
630449.6194649425 -872365.8711317992 0.0
0.0 0.0 0.0

-408327.6805620601 730164.9050259506 0.0
730164.9050259506 665037.1393803812 0.0
0.0 0.0 0.0

-8383.574527370118 836723.9666686013 0.0
836723.9666686013 265829.7653249584 0.0
0.0 0.0 0.0

260508.47458437938 2.0625112631627433e6 0.0
2.0625112631627433e6 -138877.87870020082 0.0
0.0 0.0 0.0

-9577.609145767346 1.2086188360609517e6 0.0
1.2086188360609517e6 -87004.42813099753 0.0
0.0 0.0 0.0

721822.6563554863 345950.3134080487 0.0
345950.3134080487 -1.176174325241561e6 0.0
0.0 0.0 0.0

814719.4511311064 327418.72510756017 0.0
327418.72510756017 -1.2344268479438168e6 0.0
0.0 0.0 0.0

-208161.6750454867 3.4148819027612912e6 0.0
3.4148819027612912e6 -380425.8332731385 0.0
0.0 0.0 0.0

-616526.9557259602 358834.6646063765 0.0
358834.6646063765 767771.9107316927 0.0
0.0 0.0 0.0

149232.92747115396 2.0305336094714126e6 0.0
2.0305336094714126e6 -227530.63918895894 0.0
0.0 0.0 0.0

-1.865599294823999e6 -131791.057514768 0.0
-131791.057514768 1.889781593559382e6 0.0
0.0 0.0 0.0

346475.5453119657 678326.0791460435 0.0
678326.0791460435 -905593.8622316108 0.0
0.0 0.0 0.0

-1.316504137505649e6 541501.3718274666 0.0
541501.3718274666 2.746849728391933e6 0.0
0.0 0.0 0.0

1.1949715849656728e6 235338.33588738507 0.0
235338.33588738507 -1.376210418298519e6 0.0
0.0 0.0 0.0

-46471.31584023274 3.4911714328932357e6 0.0
3.4911714328932357e6 -140615.35637875347 0.0
0.0 0.0 0.0

-247344.55677021982 1.2752352859014983e6 0.0
1.2752352859014983e6 201292.6608049826 0.0
0.0 0.0 0.0

366373.49176942045 652350.8588598653 0.0
652350.8588598653 -776881.8438476996 0.0
0.0 0.0 0.0

814956.0222465957 1.6397543490379436e6 0.0
1.6397543490379436e6 -81652.15473549895 0.0
0.0 0.0 0.0

1172.4791844354622 1.16747706377573e6 0.0
1.16747706377573e6 -139855.78136881595 0.0
0.0 0.0 0.0

-216608.12265048362 1.1864350684140758e6 0.0
1.1864350684140758e6 249101.9367635828 0.0
0.0 0.0 0.0

-228749.47463334032 683302.2786507315 0.0
683302.2786507315 149608.07458945847 0.0
0.0 0.0 0.0

-219032.01614224288 939516.8214080167 0.0
939516.8214080167 238794.71453740777 0.0
0.0 0.0 0.0

-1217.0748723187135 2.647399251047606e6 0.0
2.647399251047606e6 -535468.299840147 0.0
0.0 0.0 0.0

-524821.7786615343 265544.64343179436 0.0
265544.64343179436 359634.3479125805 0.0
0.0 0.0 0.0

454065.2624039637 592366.540884215 0.0
592366.540884215 -831638.7916552088 0.0
0.0 0.0 0.0

35189.75232146208 1.088024970212455e6 0.0
1.088024970212455e6 -120121.03338234873 0.0
0.0 0.0 0.0

-94206.13330022497 1.1258035307978408e6 0.0
1.1258035307978408e6 184966.584503954 0.0
0.0 0.0 0.0

-319285.12905304553 2.1958800099744876e6 0.0
2.1958800099744876e6 -391015.44323568884 0.0
0.0 0.0 0.0

-4.729739854517688e6 9777.55520755362 0.0
9777.55520755362 5.049415076404691e6 0.0
0.0 0.0 0.0

452376.1996832845 746437.7315521785 0.0
746437.7315521785 -845867.5917283162 0.0
0.0 0.0 0.0

-427015.15430880117 699865.5273419606 0.0
699865.5273419606 1.0715009294978736e6 0.0
0.0 0.0 0.0

-432341.2459930786 1.678104756569287e6 0.0
1.678104756569287e6 83058.70225370722 0.0
0.0 0.0 0.0

-192034.92007710057 3.7259931610026024e6 0.0
3.7259931610026024e6 -143368.0565045994 0.0
0.0 0.0 0.0

-547418.5736840097 715645.5800530397 0.0
715645.5800530397 1.4985300303923492e6 0.0
0.0 0.0 0.0

-256991.1682935912 711839.7800519322 0.0
711839.7800519322 367669.11447389855 0.0
0.0 0.0 0.0

149273.54370648618 2.408309291865682e6 0.0
2.408309291865682e6 -496198.7487857662 0.0
0.0 0.0 0.0

84488.15197929475 955613.095225896 0.0
955613.095225896 -71663.15815672674 0.0
0.0 0.0 0.0

-214796.39748274762 403361.0970741322 0.0
403361.0970741322 -113.83375474798959 0.0
0.0 0.0 0.0

-173823.53730173738 333112.6393189598 0.0
333112.6393189598 52008.503634514585 0.0
0.0 0.0 0.0

1.2431352808063887e6 124791.1248524156 0.0
124791.1248524156 -1.5896010229290803e6 0.0
0.0 0.0 0.0

-212158.4319110567 935225.3210663189 0.0
935225.3210663189 257499.6636059548 0.0
0.0 0.0 0.0

-118160.1701625466 548465.064544634 0.0
548465.064544634 -171926.96674845018 0.0
0.0 0.0 0.0

1.165599766642e6 153506.7299351546 0.0
153506.7299351546 -1.5035559242627537e6 0.0
0.0 0.0 0.0

52181.93150033125 3.733792072145741e6 0.0
3.733792072145741e6 -60980.88284934543 0.0
0.0 0.0 0.0

-245289.6092546404 1.4187906586369623e6 0.0
1.4187906586369623e6 224624.86887302558 0.0
0.0 0.0 0.0

-1.3590156357317315e6 -127835.59504909976 0.0
-127835.59504909976 1.454868754297189e6 0.0
0.0 0.0 0.0

192079.46580533416 2.096094441418353e6 0.0
2.096094441418353e6 184457.71136851318 0.0
0.0 0.0 0.0

-157838.62042075503 1.5128416935168821e6 0.0
1.5128416935168821e6 -98797.07774188004 0.0
0.0 0.0 0.0

90466.35540986469 1.2843505686306825e6 0.0
1.2843505686306825e6 -179061.08710953235 0.0
0.0 0.0 0.0

1.165989167601543e6 201899.9706108029 0.0
201899.9706108029 -1.5118220598180883e6 0.0
0.0 0.0 0.0

41783.25893764916 725078.4045736967 0.0
725078.4045736967 -38859.944037954905 0.0
0.0 0.0 0.0

83533.62653141501 1.3954400238677002e6 0.0
1.3954400238677002e6 -168095.38780062305 0.0
0.0 0.0 0.0

-116381.23212030978 810534.3926542418 0.0
810534.3926542418 34100.60574659728 0.0
0.0 0.0 0.0

-239048.49819645807 77187.36929132607 0.0
77187.36929132607 203741.29782701575 0.0
0.0 0.0 0.0

-145483.5929550558 -56072.63130579846 0.0
-56072.63130579846 176207.93066951534 0.0
0.0 0.0 0.0

-106892.30928200381 1.135068315283041e6 0.0
1.135068315283041e6 133775.06090666878 0.0
0.0 0.0 0.0

264076.65288804093 875161.8753739423 0.0
875161.8753739423 -315585.14462702017 0.0
0.0 0.0 0.0

47165.10012573088 813767.178857589 0.0
813767.178857589 -213473.57869530277 0.0
0.0 0.0 0.0

-3.4024584120984483e6 4213.926113165029 0.0
4213.926113165029 4.386570399201669e6 0.0
0.0 0.0 0.0

-550240.4883567684 1.787307589617661e6 0.0
1.787307589617661e6 259938.57877721716 0.0
0.0 0.0 0.0

-110243.62160593027 -631278.0851586019 0.0
-631278.0851586019 341815.6421928272 0.0
0.0 0.0 0.0

-41877.41424949911 1.1836584898165553e6 0.0
1.1836584898165553e6 -63100.42837230901 0.0
0.0 0.0 0.0

-167059.24966278556 1.0206673722551976e6 0.0
1.0206673722551976e6 201006.69413693232 0.0
0.0 0.0 0.0

-430693.1953223276 377827.6747670624 0.0
377827.6747670624 461854.775728857 0.0
0.0 0.0 0.0

-181569.94979058078 967608.2077706355 0.0
967608.2077706355 334643.57017580536 0.0
0.0 0.0 0.0

-189239.2482450185 1.282021670164454e6 0.0
1.282021670164454e6 35112.96296714233 0.0
0.0 0.0 0.0

-187310.66034679883 1.065206888065861e6 0.0
1.065206888065861e6 185379.5846660378 0.0
0.0 0.0 0.0

206128.84370249705 1.561908076438361e6 0.0
1.561908076438361e6 -283353.3543924979 0.0
0.0 0.0 0.0

-105903.185998954 699828.778194207 0.0
699828.778194207 228968.5599091244 0.0
0.0 0.0 0.0

94474.6464628799 1.1995226130127085e6 0.0
1.1995226130127085e6 -215820.60026937607 0.0
0.0 0.0 0.0

15104.543017190168 3.1388415971798813e6 0.0
3.1388415971798813e6 -208280.5886462991 0.0
0.0 0.0 0.0

-265975.2371775159 883844.6917307994 0.0
883844.6917307994 127378.83689375484 0.0
0.0 0.0 0.0

97516.91552917383 2.385433183291808e6 0.0
2.385433183291808e6 -136083.2558940641 0.0
0.0 0.0 0.0

89593.89098191503 2.1577594389585988e6 0.0
2.1577594389585988e6 -154219.7112584096 0.0
0.0 0.0 0.0

1.0984218728111754e6 223657.35955366812 0.0
223657.35955366812 -1.4028346364162718e6 0.0
0.0 0.0 0.0

-81249.97171067026 1.1101998861108513e6 0.0
1.1101998861108513e6 -117943.60864620683 0.0
0.0 0.0 0.0

-46650.12141561275 3.446802475126611e6 0.0
3.446802475126611e6 -180586.88258443103 0.0
0.0 0.0 0.0

-255402.98627773667 211797.68317161404 0.0
211797.68317161404 98643.64020819357 0.0
0.0 0.0 0.0

-2.855247039124599e6 254240.20284157083 0.0
254240.20284157083 1.0333109830332516e6 0.0
0.0 0.0 0.0

788911.8144444618 1.6192679652675095e6 0.0
1.6192679652675095e6 2.6297244408833133e6 0.0
0.0 0.0 0.0

-315357.76475071115 1.5133278296847462e6 0.0
1.5133278296847462e6 -1.0511980669647974e6 0.0
0.0 0.0 0.0

-326932.9339962343 707322.8850560465 0.0
707322.8850560465 565104.7745319358 0.0
0.0 0.0 0.0

265831.0867823054 1.2618630059946761e6 0.0
1.2618630059946761e6 -432998.45975442475 0.0
0.0 0.0 0.0

55066.230905080476 1.1161293178087226e6 0.0
1.1161293178087226e6 -86446.43863863937 0.0
0.0 0.0 0.0

-10742.299557563205 3.796825717904812e6 0.0
3.796825717904812e6 68814.93236718142 0.0
0.0 0.0 0.0

150531.3417322746 967449.356763968 0.0
967449.356763968 -255651.19203254482 0.0
0.0 0.0 0.0

-53707.21933915298 1.1786742564270496e6 0.0
1.1786742564270496e6 -54927.12146323188 0.0
0.0 0.0 0.0

-300174.6590615888 266540.76331156824 0.0
266540.76331156824 137368.62039216113 0.0
0.0 0.0 0.0

-261003.6853436269 2.228996474103813e6 0.0
2.228996474103813e6 5309.279079439992 0.0
0.0 0.0 0.0

264452.9777536543 612241.6232312566 0.0
612241.6232312566 -509683.0629134955 0.0
0.0 0.0 0.0

11466.46571792668 1.191494728410144e6 0.0
1.191494728410144e6 -105960.65496520662 0.0
0.0 0.0 0.0

-250446.16481650414 687479.9972053439 0.0
687479.9972053439 139724.31952344574 0.0
0.0 0.0 0.0

189464.0300410748 4.345763722740297e6 0.0
4.345763722740297e6 -171329.66947034025 0.0
0.0 0.0 0.0

-163332.3967499568 906003.501612974 0.0
906003.501612974 -64920.61502859465 0.0
0.0 0.0 0.0

-282955.75012786244 671941.1456188847 0.0
671941.1456188847 404294.82927001384 0.0
0.0 0.0 0.0

-333697.66141411546 858638.1835917165 0.0
858638.1835917165 352470.8346464989 0.0
0.0 0.0 0.0

-120988.2957163129 814874.0642403875 0.0
814874.0642403875 -123782.90986842877 0.0
0.0 0.0 0.0

76576.96618923082 3.7514341639751922e6 0.0
3.7514341639751922e6 -65074.07352716294 0.0
0.0 0.0 0.0

75328.76174339205 4.495829384550693e6 0.0
4.495829384550693e6 -123008.28044742178 0.0
0.0 0.0 0.0

375162.8536699063 2.1209137569455793e6 0.0
2.1209137569455793e6 -336098.17398309766 0.0
0.0 0.0 0.0

-570219.7316333323 589818.0539477239 0.0
589818.0539477239 1.0495825111070909e6 0.0
0.0 0.0 0.0

130495.13169936818 1.3935071566671957e6 0.0
1.3935071566671957e6 -275115.7257748641 0.0
0.0 0.0 0.0

-186471.28033429652 588002.080108322 0.0
588002.080108322 -135880.46876915387 0.0
0.0 0.0 0.0

-243123.7689300622 387455.93642674765 0.0
387455.93642674765 49712.274673417385 0.0
0.0 0.0 0.0

-50880.80030765744 1.2316603399583115e6 0.0
1.2316603399583115e6 76726.43906633413 0.0
0.0 0.0 0.0

13924.8283911659 1.0289505374585293e6 0.0
1.0289505374585293e6 -20951.261728021935 0.0
0.0 0.0 0.0

5449.771222469841 4.0579368831197727e6 0.0
4.0579368831197727e6 -139783.82128318705 0.0
0.0 0.0 0.0

846942.4359512331 596728.468906406 0.0
596728.468906406 -1.2025624825311461e6 0.0
0.0 0.0 0.0

-233808.1632117887 194628.355411158 0.0
194628.355411158 85893.02021875897 0.0
0.0 0.0 0.0

781647.9561273423 4.1961648069182765e6 0.0
4.1961648069182765e6 -33722.319455558 0.0
0.0 0.0 0.0

829709.8476278572 354011.8265886769 0.0
354011.8265886769 -1.1740044003279873e6 0.0
0.0 0.0 0.0

-5133.462670416784 1.0692594189253785e6 0.0
1.0692594189253785e6 -47253.49901139008 0.0
0.0 0.0 0.0

74966.08993364748 3.170413931698139e6 0.0
3.170413931698139e6 -128762.63356481778 0.0
0.0 0.0 0.0

-4.0425335335772303e6 1.545777689205968e6 0.0
1.545777689205968e6 7.942234523772024e6 0.0
0.0 0.0 0.0

776918.388087853 1.522618888490462e6 0.0
1.522618888490462e6 -2.154001829776756e6 0.0
0.0 0.0 0.0

570732.3361402651 3.0908514495929903e6 0.0
3.0908514495929903e6 -170819.65374473308 0.0
0.0 0.0 0.0

57595.7756369546 4.504385618089807e6 0.0
4.504385618089807e6 -156389.77294462314 0.0
0.0 0.0 0.0

-156207.6241504755 1.8023065802612947e6 0.0
1.8023065802612947e6 -343336.58535950433 0.0
0.0 0.0 0.0

605353.5007585961 3.899263972584484e6 0.0
3.899263972584484e6 -105107.26887769744 0.0
0.0 0.0 0.0

-146662.4686551804 947378.2342040803 0.0
947378.2342040803 329788.18757949333 0.0
0.0 0.0 0.0

120067.98490531901 4.0940413366766623e6 0.0
4.0940413366766623e6 -184486.53220460535 0.0
0.0 0.0 0.0

-245492.2918555651 789922.3999248834 0.0
789922.3999248834 134350.74201327877 0.0
0.0 0.0 0.0

-133372.00703949662 291140.45799718273 0.0
291140.45799718273 -16745.341004351943 0.0
0.0 0.0 0.0

-389058.5799386845 -258816.54311721824 0.0
-258816.54311721824 964891.6507637519 0.0
0.0 0.0 0.0

-286628.8778806713 1.5317552955460018e6 0.0
1.5317552955460018e6 217497.51300080662 0.0
0.0 0.0 0.0

-85653.18658778079 3.8339609422879843e6 0.0
3.8339609422879843e6 -66750.17489562492 0.0
0.0 0.0 0.0

-365618.639222837 676281.397173877 0.0
676281.397173877 644085.714191549 0.0
0.0 0.0 0.0

-183709.02647302015 1.0060249663794682e6 0.0
1.0060249663794682e6 243364.92212088464 0.0
0.0 0.0 0.0

-229397.53636384904 779509.0046496411 0.0
779509.0046496411 153479.5480640375 0.0
0.0 0.0 0.0

-76822.82705041213 674750.7456677286 0.0
674750.7456677286 -142981.52674596512 0.0
0.0 0.0 0.0

-477549.71346345416 690140.8610549137 0.0
690140.8610549137 1.1893616173036173e6 0.0
0.0 0.0 0.0

-230855.7686973805 840451.167835762 0.0
840451.167835762 218173.44525870332 0.0
0.0 0.0 0.0

-52465.441150984065 116074.61091220843 0.0
116074.61091220843 -114355.28327699268 0.0
0.0 0.0 0.0

-664940.4092753469 850523.7027427321 0.0
850523.7027427321 257450.40818618634 0.0
0.0 0.0 0.0

-1.4449175631609387e6 -65672.41001280022 0.0
-65672.41001280022 1.5288174236510568e6 0.0
0.0 0.0 0.0

-171477.6025311053 1.0554372579119175e6 0.0
1.0554372579119175e6 243272.19435884664 0.0
0.0 0.0 0.0

-318128.83648064075 1.0971726355647647e6 0.0
1.0971726355647647e6 297533.810418865 0.0
0.0 0.0 0.0

271156.473672271 680747.385410046 0.0
680747.385410046 -385511.3897039043 0.0
0.0 0.0 0.0

-542809.9913311517 1.594224479154193e6 0.0
1.594224479154193e6 159475.02065450232 0.0
0.0 0.0 0.0

-589269.7548061443 1.8187716715914535e6 0.0
1.8187716715914535e6 298387.7537292704 0.0
0.0 0.0 0.0

-683468.0042377743 1.8268967218315576e6 0.0
1.8268967218315576e6 387191.9028045312 0.0
0.0 0.0 0.0

-107968.93317592898 2.982130754090312e6 0.0
2.982130754090312e6 1809.0886894340147 0.0
0.0 0.0 0.0

-514917.06236812274 169256.1506969246 0.0
169256.1506969246 503528.53548093955 0.0
0.0 0.0 0.0

1.40269860839037e6 125461.65758180834 0.0
125461.65758180834 -1.5787207992187615e6 0.0
0.0 0.0 0.0

-443056.50077360246 714064.1731199761 0.0
714064.1731199761 774415.2482583318 0.0
0.0 0.0 0.0

64738.120888422134 3.6533098420609003e6 0.0
3.6533098420609003e6 -60491.55504425154 0.0
0.0 0.0 0.0

209351.45146535992 1.2181206948099686e6 0.0
1.2181206948099686e6 -373136.1148843161 0.0
0.0 0.0 0.0

-813515.1968428956 -109657.47379075745 0.0
-109657.47379075745 902939.5262514764 0.0
0.0 0.0 0.0

8419.365324252998 1.1402302820696987e6 0.0
1.1402302820696987e6 -108696.59736425521 0.0
0.0 0.0 0.0

81644.48932805698 1.4966359994549202e6 0.0
1.4966359994549202e6 -159916.8511310004 0.0
0.0 0.0 0.0

111679.01140556103 1.1752761349165863e6 0.0
1.1752761349165863e6 -180543.27752687535 0.0
0.0 0.0 0.0

13275.825733311052 631481.795552997 0.0
631481.795552997 -201410.1103450495 0.0
0.0 0.0 0.0

-98026.41953184764 -36819.74197181829 0.0
-36819.74197181829 97691.98154602485 0.0
0.0 0.0 0.0

-77917.31589384969 924688.8825939205 0.0
924688.8825939205 -119251.17785827068 0.0
0.0 0.0 0.0

-140561.7077337556 1.1831804378274428e6 0.0
1.1831804378274428e6 -79594.74014666805 0.0
0.0 0.0 0.0

216580.14474338587 3.7944022157530393e6 0.0
3.7944022157530393e6 6180.239468862601 0.0
0.0 0.0 0.0

-583237.4296940418 1.8443384391553507e6 0.0
1.8443384391553507e6 505280.3274810716 0.0
0.0 0.0 0.0

-152905.66626326652 310917.56012729765 0.0
310917.56012729765 15748.784200168753 0.0
0.0 0.0 0.0

376850.0887505256 877723.4721964406 0.0
877723.4721964406 -875543.1477149596 0.0
0.0 0.0 0.0

771423.8621346238 285636.1015656229 0.0
285636.1015656229 -1.1554760375410984e6 0.0
0.0 0.0 0.0

-187755.8278467378 -87039.42557109147 0.0
-87039.42557109147 188504.9564444496 0.0
0.0 0.0 0.0

-346564.67333826044 822564.8265058972 0.0
822564.8265058972 135083.13918844494 0.0
0.0 0.0 0.0

-302592.4747964777 840997.5159810665 0.0
840997.5159810665 365212.33755013486 0.0
0.0 0.0 0.0

-42433.06201889983 765424.8948862705 0.0
765424.8948862705 -138514.14063885668 0.0
0.0 0.0 0.0

-115606.0636355608 3.0318700064451518e6 0.0
3.0318700064451518e6 -13504.755462669811 0.0
0.0 0.0 0.0

997186.5680875977 395719.094296327 0.0
395719.094296327 -1.3488166271297422e6 0.0
0.0 0.0 0.0

11247.692084008027 3.4487352170276875e6 0.0
3.4487352170276875e6 -167733.7580702483 0.0
0.0 0.0 0.0

-201499.65622604126 1.4909319313259919e6 0.0
1.4909319313259919e6 135201.09249353662 0.0
0.0 0.0 0.0

326277.0029326569 1.187091664723451e6 0.0
1.187091664723451e6 -267776.14753537695 0.0
0.0 0.0 0.0

-310647.46030415164 1.2991314062611177e6 0.0
1.2991314062611177e6 15114.305770537147 0.0
0.0 0.0 0.0

270114.02148415096 2.174870343558786e6 0.0
2.174870343558786e6 -341414.55881033 0.0
0.0 0.0 0.0

253322.04306002252 1.0891731304650586e6 0.0
1.0891731304650586e6 -437749.9107063067 0.0
0.0 0.0 0.0

65194.72141504074 792506.3003124966 0.0
792506.3003124966 -179823.92998133492 0.0
0.0 0.0 0.0

-284091.8388862836 1.0812990426785308e6 0.0
1.0812990426785308e6 259087.5414515849 0.0
0.0 0.0 0.0

164613.524580774 1.1151913041446572e6 0.0
1.1151913041446572e6 -928720.4168301924 0.0
0.0 0.0 0.0

575222.9926082654 3.9251144636958796e6 0.0
3.9251144636958796e6 -50450.74961875795 0.0
0.0 0.0 0.0

27856.967291389956 4.111208913133931e6 0.0
4.111208913133931e6 -128762.35348090463 0.0
0.0 0.0 0.0

-417808.99440785154 1.356905295358601e6 0.0
1.356905295358601e6 168526.56794127877 0.0
0.0 0.0 0.0

-229051.1430746644 817102.0037673736 0.0
817102.0037673736 217036.9818623323 0.0
0.0 0.0 0.0

1.0276175428770663e6 377812.7414921725 0.0
377812.7414921725 -1.3614165005204957e6 0.0
0.0 0.0 0.0

-200144.14268179177 861086.0874212836 0.0
861086.0874212836 293463.7832729097 0.0
0.0 0.0 0.0

1.0279900192588252e6 306463.4608517542 0.0
306463.4608517542 -1.3832759526374417e6 0.0
0.0 0.0 0.0

-206715.62922053735 3.806994396591515e6 0.0
3.806994396591515e6 -219684.54036304605 0.0
0.0 0.0 0.0

-195435.8746095393 3.7725501346213194e6 0.0
3.7725501346213194e6 -240769.61704339372 0.0
0.0 0.0 0.0

-74013.19305090379 793104.834983533 0.0
793104.834983533 -138247.57658622673 0.0
0.0 0.0 0.0

-185608.21094056361 958123.338040161 0.0
958123.338040161 343923.22255396366 0.0
0.0 0.0 0.0

-252559.50409498005 2.2436127006984497e6 0.0
2.2436127006984497e6 17287.740276933124 0.0
0.0 0.0 0.0

-232794.71158482696 545973.5106819768 0.0
545973.5106819768 119873.22507873269 0.0
0.0 0.0 0.0

-301360.9347442733 -108718.9669722112 0.0
-108718.9669722112 362290.88186663477 0.0
0.0 0.0 0.0

768844.1960624037 251581.88323180567 0.0
251581.88323180567 -1.1507473311785804e6 0.0
0.0 0.0 0.0

394020.77257708594 332653.27111812163 0.0
332653.27111812163 -778324.6177077454 0.0
0.0 0.0 0.0

-34932.53924933599 3.2467242392461584e6 0.0
3.2467242392461584e6 60410.42114540424 0.0
0.0 0.0 0.0

35069.001833530085 1.1796983602342505e6 0.0
1.1796983602342505e6 -112306.78623873397 0.0
0.0 0.0 0.0

295254.6894517869 658131.7328572541 0.0
658131.7328572541 -417308.55305655533 0.0
0.0 0.0 0.0

-94647.59671942021 1.1007852146563902e6 0.0
1.1007852146563902e6 181146.6635602308 0.0
0.0 0.0 0.0

-111465.96404664553 32425.213717755352 0.0
32425.213717755352 109286.72721937217 0.0
0.0 0.0 0.0

-173866.97967176195 1.6409767368143804e6 0.0
1.6409767368143804e6 279342.1407331996 0.0
0.0 0.0 0.0

-452466.4361429743 1.0738665842945552e6 0.0
1.0738665842945552e6 551333.191875515 0.0
0.0 0.0 0.0

-90921.86004844555 1.2169336065140779e6 0.0
1.2169336065140779e6 -53184.57735730107 0.0
0.0 0.0 0.0

47169.13955128986 776345.3815571967 0.0
776345.3815571967 43440.89778755034 0.0
0.0 0.0 0.0

-278554.1680896335 1.0651321721783804e6 0.0
1.0651321721783804e6 238431.56322081445 0.0
0.0 0.0 0.0

-257146.63255663548 857459.6125778389 0.0
857459.6125778389 259187.57069162413 0.0
0.0 0.0 0.0

-569825.4096143054 730880.2229859305 0.0
730880.2229859305 1.5139699830817448e6 0.0
0.0 0.0 0.0

-242761.12924726875 868429.1931689248 0.0
868429.1931689248 368916.4137911291 0.0
0.0 0.0 0.0

-205504.32485604333 1.0102223883431114e6 0.0
1.0102223883431114e6 243018.91122362053 0.0
0.0 0.0 0.0

-115127.70603957387 446543.8135787673 0.0
446543.8135787673 192147.68872049177 0.0
0.0 0.0 0.0

-743829.9313197355 493229.30979111354 0.0
493229.30979111354 -240921.02315564165 0.0
0.0 0.0 0.0

-167692.65370526025 2.6252702809869675e6 0.0
2.6252702809869675e6 -44396.98993412111 0.0
0.0 0.0 0.0

255277.01287084163 622891.5307339444 0.0
622891.5307339444 -408063.0643886951 0.0
0.0 0.0 0.0

-236495.32598463213 742248.8609823842 0.0
742248.8609823842 108873.85520766638 0.0
0.0 0.0 0.0

176654.1021803635 1.7850429963237566e6 0.0
1.7850429963237566e6 -237484.70296228043 0.0
0.0 0.0 0.0

2.1273003993916744e6 1.3943117440606353e6 0.0
1.3943117440606353e6 -716803.4587151323 0.0
0.0 0.0 0.0

-436610.97281852586 -13078.161330969384 0.0
-13078.161330969384 455899.37638159073 0.0
0.0 0.0 0.0

374886.23414126673 136428.42923009978 0.0
136428.42923009978 -258995.5791331273 0.0
0.0 0.0 0.0

22264.3359789268 2.664885544757677e6 0.0
2.664885544757677e6 -266625.4237074308 0.0
0.0 0.0 0.0

-92478.85915547276 922396.984264616 0.0
922396.984264616 -122839.42590636062 0.0
0.0 0.0 0.0

-975376.1752139537 -6158.309394417369 0.0
-6158.309394417369 1.0524246485509463e6 0.0
0.0 0.0 0.0

52596.44327353142 4.456157905835718e6 0.0
4.456157905835718e6 -104969.48400183932 0.0
0.0 0.0 0.0

-780752.5351007306 1.846240652815501e6 0.0
1.846240652815501e6 621946.1955854251 0.0
0.0 0.0 0.0

76960.87040524668 3.353489705526444e6 0.0
3.353489705526444e6 -166883.90327330134 0.0
0.0 0.0 0.0

-135170.03363781795 -84873.23573411118 0.0
-84873.23573411118 164239.60351807944 0.0
0.0 0.0 0.0

-578826.9637656009 824569.8444055135 0.0
824569.8444055135 178481.84133229931 0.0
0.0 0.0 0.0

-90442.66278368713 567913.5464465896 0.0
567913.5464465896 -117339.57465349809 0.0
0.0 0.0 0.0

-909817.9508370019 1.8702670798190513e6 0.0
1.8702670798190513e6 718680.8418190358 0.0
0.0 0.0 0.0

-277370.5395938641 370022.35426906456 0.0
370022.35426906456 220160.0825588328 0.0
0.0 0.0 0.0

-83827.5736897032 1.4857778013783596e6 0.0
1.4857778013783596e6 -87572.95573162653 0.0
0.0 0.0 0.0

59358.22862266634 578603.9164595183 0.0
578603.9164595183 -255513.41371444162 0.0
0.0 0.0 0.0

-23340.017294991056 767021.2377862484 0.0
767021.2377862484 -167177.11226561895 0.0
0.0 0.0 0.0

241241.80509229744 2.8910804785149796e6 0.0
2.8910804785149796e6 -81134.03688270795 0.0
0.0 0.0 0.0

917010.5480161516 4.205471523269295e6 0.0
4.205471523269295e6 -388758.5759635306 0.0
0.0 0.0 0.0

-90266.03646025513 -33003.336407233066 0.0
-33003.336407233066 88597.3492690087 0.0
0.0 0.0 0.0

-122735.66455492741 3.6810494539456996e6 0.0
3.6810494539456996e6 -24254.499636724366 0.0
0.0 0.0 0.0

110580.15035587191 3.6713467860474153e6 0.0
3.6713467860474153e6 -32160.734796583914 0.0
0.0 0.0 0.0

-533841.2820027863 -49795.32685228233 0.0
-49795.32685228233 526757.5345748235 0.0
0.0 0.0 0.0

1.3748291690767189e6 152905.2506920316 0.0
152905.2506920316 -1.5462174808859874e6 0.0
0.0 0.0 0.0

-231845.8377644744 971027.7828237192 0.0
971027.7828237192 245986.9729369547 0.0
0.0 0.0 0.0

-196098.26033638153 1.4755180103913182e6 0.0
1.4755180103913182e6 330133.0778038143 0.0
0.0 0.0 0.0

124060.44150780073 206879.5878328779 0.0
206879.5878328779 83349.45043963101 0.0
0.0 0.0 0.0

-243435.75447980413 265138.07487457816 0.0
265138.07487457816 127790.70552411865 0.0
0.0 0.0 0.0

-209113.19159671268 1.358488721727223e6 0.0
1.358488721727223e6 333951.23580994067 0.0
0.0 0.0 0.0

-204320.2312409011 3.524921077657513e6 0.0
3.524921077657513e6 -441793.7457910065 0.0
0.0 0.0 0.0

66374.14512305062 725842.9032769202 0.0
725842.9032769202 -200312.47338953073 0.0
0.0 0.0 0.0

14915.506527872116 3.741161116580361e6 0.0
3.741161116580361e6 -50443.29113465376 0.0
0.0 0.0 0.0

-358994.65575157874 -18975.654089386553 0.0
-18975.654089386553 351709.4557490581 0.0
0.0 0.0 0.0

-222804.71342158667 759044.4120084919 0.0
759044.4120084919 -92991.31302653003 0.0
0.0 0.0 0.0

-536952.9405736154 403029.2217632289 0.0
403029.2217632289 668941.8596379798 0.0
0.0 0.0 0.0

55160.08099791914 2.950223229825336e6 0.0
2.950223229825336e6 -392725.7160793988 0.0
0.0 0.0 0.0

93229.20369307595 3.146317205212996e6 0.0
3.146317205212996e6 -132612.6402579425 0.0
0.0 0.0 0.0

17999.86519364622 3.733292744066014e6 0.0
3.733292744066014e6 243897.00976620457 0.0
0.0 0.0 0.0

258964.8549691552 602983.3416676241 0.0
602983.3416676241 -532761.6365639914 0.0
0.0 0.0 0.0

-1.2240487752482109e6 1.8749874671800896e6 0.0
1.8749874671800896e6 1.493298733134409e6 0.0
0.0 0.0 0.0

-1.2644190219876976e6 -25740.745937430205 0.0
-25740.745937430205 1.2038393029430879e6 0.0
0.0 0.0 0.0

-1.0280556911700683e6 -174998.06499384483 0.0
-174998.06499384483 1.5403014087086385e6 0.0
0.0 0.0 0.0

21039.140106520616 712080.8524280612 0.0
712080.8524280612 578579.764385926 0.0
0.0 0.0 0.0

-70425.29809919262 1.3445210354088235e6 0.0
1.3445210354088235e6 212788.52516392164 0.0
0.0 0.0 0.0

-43561.818715605084 1.1307615273917215e6 0.0
1.1307615273917215e6 -23147.802974774957 0.0
0.0 0.0 0.0

-202406.83110844475 209128.32928507883 0.0
209128.32928507883 108056.17645109176 0.0
0.0 0.0 0.0

539633.1968875085 378508.66214236506 0.0
378508.66214236506 -170176.96670310522 0.0
0.0 0.0 0.0

-78120.65847587617 1.1586110394255815e6 0.0
1.1586110394255815e6 131715.83522657238 0.0
0.0 0.0 0.0

-193341.26007402127 2.4550063483869256e6 0.0
2.4550063483869256e6 92431.07139046601 0.0
0.0 0.0 0.0

305101.5658446222 595414.6563837467 0.0
595414.6563837467 -559842.1489188095 0.0
0.0 0.0 0.0

-62904.35948301091 2.720884322867444e6 0.0
2.720884322867444e6 193993.5857163952 0.0
0.0 0.0 0.0

-44348.580036428655 3.729187994603961e6 0.0
3.729187994603961e6 -86618.64519704896 0.0
0.0 0.0 0.0

-1.01603818969023e6 1.8168716943164587e6 0.0
1.8168716943164587e6 999326.3379377234 0.0
0.0 0.0 0.0

-187655.95113103907 859850.7849302145 0.0
859850.7849302145 36829.89860289822 0.0
0.0 0.0 0.0

-148754.3408880281 10069.315182498993 0.0
10069.315182498993 188105.28613556427 0.0
0.0 0.0 0.0

-354099.27774982597 176381.60274100356 0.0
176381.60274100356 213037.11277840412 0.0
0.0 0.0 0.0

-178454.91202304245 2.5956725693662204e6 0.0
2.5956725693662204e6 44934.52424488415 0.0
0.0 0.0 0.0

-294366.87841115403 1.5413113855307621e6 0.0
1.5413113855307621e6 251846.06015058386 0.0
0.0 0.0 0.0

-2.28130620992458e6 -99907.47145188184 0.0
-99907.47145188184 2.2480235687015215e6 0.0
0.0 0.0 0.0

-33938.54047187948 978772.0997011948 0.0
978772.0997011948 166475.52347643833 0.0
0.0 0.0 0.0

16190.895144690847 570381.7000406842 0.0
570381.7000406842 -533623.9264297212 0.0
0.0 0.0 0.0

-207918.77491626592 1.4791357947474464e6 0.0
1.4791357947474464e6 311295.6829010235 0.0
0.0 0.0 0.0

-453976.86065136816 623119.6058719745 0.0
623119.6058719745 753092.8870145644 0.0
0.0 0.0 0.0

-194681.21053932607 3.401675620597752e6 0.0
3.401675620597752e6 -482000.92228758516 0.0
0.0 0.0 0.0

-1.8652770676032605e6 1.0291611963402774e6 0.0
1.0291611963402774e6 4.018947071287159e6 0.0
0.0 0.0 0.0

58401.48372236489 4.1404147190148635e6 0.0
4.1404147190148635e6 -136632.28376608464 0.0
0.0 0.0 0.0

169363.2111555999 1.5347352980352626e6 0.0
1.5347352980352626e6 -321400.4026632621 0.0
0.0 0.0 0.0

-189160.15796916006 2.0218122573741202e6 0.0
2.0218122573741202e6 -346887.5220628798 0.0
0.0 0.0 0.0

1.1853506688606907e6 214371.17943852668 0.0
214371.17943852668 -1.5121744769405904e6 0.0
0.0 0.0 0.0

-173320.74948037328 3.4603678069385868e6 0.0
3.4603678069385868e6 193534.30580681848 0.0
0.0 0.0 0.0

-418121.2793759877 191531.07662466398 0.0
191531.07662466398 273201.0293563795 0.0
0.0 0.0 0.0

32373.798439037644 664540.4490712886 0.0
664540.4490712886 218167.76354679372 0.0
0.0 0.0 0.0

-159041.10502250923 1.0423397555380791e6 0.0
1.0423397555380791e6 256608.57186205126 0.0
0.0 0.0 0.0

-298047.26223249245 979866.2958004297 0.0
979866.2958004297 -84353.42255465982 0.0
0.0 0.0 0.0

-341819.2520050883 295609.1974864095 0.0
295609.1974864095 171793.33993707545 0.0
0.0 0.0 0.0

317985.27729676117 879927.1269586177 0.0
879927.1269586177 -448847.8926657001 0.0
0.0 0.0 0.0

-749629.8176136712 1.5498302885976522e6 0.0
1.5498302885976522e6 751156.3882066295 0.0
0.0 0.0 0.0

1.3104278934648572e6 1.204960409573232e6 0.0
1.204960409573232e6 -316697.55381828925 0.0
0.0 0.0 0.0

-99117.60374578234 -3683.9208987524717 0.0
-3683.9208987524717 93676.72509987616 0.0
0.0 0.0 0.0

-320744.63672801683 1.0989687470594752e6 0.0
1.0989687470594752e6 260796.68172776554 0.0
0.0 0.0 0.0

-812206.3778859052 606822.9659341322 0.0
606822.9659341322 482545.42031808186 0.0
0.0 0.0 0.0

12452.689769014047 1.2077756362075196e6 0.0
1.2077756362075196e6 -108507.98596353448 0.0
0.0 0.0 0.0

-445412.340087131 253990.38918773318 0.0
253990.38918773318 646232.0233973308 0.0
0.0 0.0 0.0

-14062.594033245567 1.1971362333614288e6 0.0
1.1971362333614288e6 -46109.42529762876 0.0
0.0 0.0 0.0

-211672.94389680558 429589.37743930507 0.0
429589.37743930507 127501.15946798559 0.0
0.0 0.0 0.0

-222837.1253297784 197901.33918979936 0.0
197901.33918979936 121023.20767593944 0.0
0.0 0.0 0.0

-177071.40027173946 273805.8852668174 0.0
273805.8852668174 -39161.181492588636 0.0
0.0 0.0 0.0

-193961.62148160674 930115.7577299053 0.0
930115.7577299053 238018.11415792652 0.0
0.0 0.0 0.0

-835958.6867318354 -62029.96001159376 0.0
-62029.96001159376 928048.8075049769 0.0
0.0 0.0 0.0

-32442.665224740478 712666.5200320974 0.0
712666.5200320974 -149366.61774592745 0.0
0.0 0.0 0.0

171485.9594854527 2.5002510296262875e6 0.0
2.5002510296262875e6 -276873.7410052885 0.0
0.0 0.0 0.0

234722.4709940356 1.5758275277049912e6 0.0
1.5758275277049912e6 -347863.3624038396 0.0
0.0 0.0 0.0

-153945.97699948406 -67944.87176455965 0.0
-67944.87176455965 206454.9973194238 0.0
0.0 0.0 0.0

-134354.3155095234 774046.843221945 0.0
774046.843221945 -169385.16549592264 0.0
0.0 0.0 0.0

-171232.705257211 1.0451595680184695e6 0.0
1.0451595680184695e6 246420.15663458608 0.0
0.0 0.0 0.0

-55541.62590174566 785355.1046782095 0.0
785355.1046782095 677744.6329897938 0.0
0.0 0.0 0.0

95946.65163096692 2.5769177715562237e6 0.0
2.5769177715562237e6 -290762.9399722401 0.0
0.0 0.0 0.0

-2965.885831033873 1.1108388247412175e6 0.0
1.1108388247412175e6 -75282.78494826425 0.0
0.0 0.0 0.0

-181251.0653094507 3.5417143442762233e6 0.0
3.5417143442762233e6 -25879.50433040875 0.0
0.0 0.0 0.0

121001.3064309624 1.576537214008649e6 0.0
1.576537214008649e6 -138099.32647051025 0.0
0.0 0.0 0.0

2.116542677217767e6 3.2301063275522646e6 0.0
3.2301063275522646e6 -3.05540167984466e6 0.0
0.0 0.0 0.0

33376.02295692597 1.6977257848318073e6 0.0
1.6977257848318073e6 -86810.49395020893 0.0
0.0 0.0 0.0

154288.57900836272 949162.4001950645 0.0
949162.4001950645 -226995.79965340855 0.0
0.0 0.0 0.0

124161.3342078729 2.387213609445361e6 0.0
2.387213609445361e6 -139087.8723534115 0.0
0.0 0.0 0.0

-615167.3430658649 798020.6328185502 0.0
798020.6328185502 362176.1123435758 0.0
0.0 0.0 0.0

-187031.57132130134 1.0323706921100483e6 0.0
1.0323706921100483e6 239303.3013195387 0.0
0.0 0.0 0.0

84434.33017276695 3.954409316298608e6 0.0
3.954409316298608e6 -253765.09177630523 0.0
0.0 0.0 0.0

383638.278231424 556154.5791305751 0.0
556154.5791305751 -768050.5846231503 0.0
0.0 0.0 0.0

-70523.5702645678 646677.1722107468 0.0
646677.1722107468 795227.6761836999 0.0
0.0 0.0 0.0

868538.7072460917 199958.35780326938 0.0
199958.35780326938 -1.1897662940432306e6 0.0
0.0 0.0 0.0

139869.6837973619 2.6947646929721846e6 0.0
2.6947646929721846e6 -118531.49526194873 0.0
0.0 0.0 0.0

1.079096718470031e6 276207.8813862028 0.0
276207.8813862028 -1.3996975114182772e6 0.0
0.0 0.0 0.0

163895.3225711378 3.227942259358473e6 0.0
3.227942259358473e6 -130842.03933800929 0.0
0.0 0.0 0.0

52187.27997406753 4.4156162907798905e6 0.0
4.4156162907798905e6 -93208.00065822864 0.0
0.0 0.0 0.0

-292758.3230651405 1.052520636550232e6 0.0
1.052520636550232e6 -60005.72361196985 0.0
0.0 0.0 0.0

-417508.369447388 1.1029759390351293e6 0.0
1.1029759390351293e6 430412.1239471877 0.0
0.0 0.0 0.0

-567274.3933817386 568337.9472035941 0.0
568337.9472035941 674083.9305141158 0.0
0.0 0.0 0.0

-145592.04962146693 588412.3154454806 0.0
588412.3154454806 69608.0466682745 0.0
0.0 0.0 0.0

-1.467319537134355e6 1.0376339813937313e6 0.0
1.0376339813937313e6 1.2033616855614956e6 0.0
0.0 0.0 0.0

-43017.54664456492 3.3823439916389547e6 0.0
3.3823439916389547e6 76291.03857779106 0.0
0.0 0.0 0.0

-52994.427422175584 72139.5457161193 0.0
72139.5457161193 -175099.44957543685 0.0
0.0 0.0 0.0

-280300.0089626069 1.0743423326800745e6 0.0
1.0743423326800745e6 226207.73101027036 0.0
0.0 0.0 0.0

-7467.276089497829 1.19041987932444e6 0.0
1.19041987932444e6 -45471.13724185327 0.0
0.0 0.0 0.0

123761.76263598731 2.8400207817667294e6 0.0
2.8400207817667294e6 -396687.18922610633 0.0
0.0 0.0 0.0

1.3771561860935888e6 137965.13630795546 0.0
137965.13630795546 -1.5594006094664065e6 0.0
0.0 0.0 0.0

-9537.568475434477 756981.845541296 0.0
756981.845541296 -152431.10878469588 0.0
0.0 0.0 0.0

2.302861169355775e6 542402.8061911444 0.0
542402.8061911444 -1.7384545574660944e6 0.0
0.0 0.0 0.0

-498181.94155839086 609187.4111895382 0.0
609187.4111895382 890464.5326824638 0.0
0.0 0.0 0.0

-248920.1831408614 1.0562242746128505e6 0.0
1.0562242746128505e6 250193.10596427857 0.0
0.0 0.0 0.0

-656507.0183559121 -116931.26583200238 0.0
-116931.26583200238 697722.4117670686 0.0
0.0 0.0 0.0

-437416.79325189855 1.7816582608795601e6 0.0
1.7816582608795601e6 151217.74381105736 0.0
0.0 0.0 0.0

-475245.66164843255 757783.3403198821 0.0
757783.3403198821 215183.69880030022 0.0
0.0 0.0 0.0

180197.3273988621 1.6264848075592758e6 0.0
1.6264848075592758e6 -302884.97406238026 0.0
0.0 0.0 0.0

23187.112787704493 704067.832802018 0.0
704067.832802018 409356.90773926803 0.0
0.0 0.0 0.0

-118352.49125800797 871255.8735384438 0.0
871255.8735384438 -180089.73039263868 0.0
0.0 0.0 0.0

-225451.7450649317 694368.8042602533 0.0
694368.8042602533 93279.36973717791 0.0
0.0 0.0 0.0

69139.23170569303 2.7524730360961e6 0.0
2.7524730360961e6 -516243.92058561364 0.0
0.0 0.0 0.0

373110.9780340844 777322.581258967 0.0
777322.581258967 -262078.9674915102 0.0
0.0 0.0 0.0

-182460.51588665394 446162.89393028227 0.0
446162.89393028227 -377757.78216984414 0.0
0.0 0.0 0.0

-280517.0825612469 1.0580993075914255e6 0.0
1.0580993075914255e6 210339.1218770867 0.0
0.0 0.0 0.0

-239781.53107929596 3.5842290817076904e6 0.0
3.5842290817076904e6 -397375.46762821585 0.0
0.0 0.0 0.0

827122.4326463989 1.2726918428712673e6 0.0
1.2726918428712673e6 -455281.32640069874 0.0
0.0 0.0 0.0

1.3588383749503572e6 163418.14172069018 0.0
163418.14172069018 -1.544307647904009e6 0.0
0.0 0.0 0.0

-23467.16473463428 656816.3603233456 0.0
656816.3603233456 485147.52722965047 0.0
0.0 0.0 0.0

-199080.65709088903 1.4937750874940506e6 0.0
1.4937750874940506e6 -338566.67511557974 0.0
0.0 0.0 0.0

-29324.305916654015 3.7397930595103805e6 0.0
3.7397930595103805e6 -51770.67270156826 0.0
0.0 0.0 0.0

-55389.72728608012 1.0858253103781515e6 0.0
1.0858253103781515e6 2766.3773156463903 0.0
0.0 0.0 0.0

-902618.9697680327 66230.84207004022 0.0
66230.84207004022 963282.0945140957 0.0
0.0 0.0 0.0

-496267.58410213585 19710.8718384146 0.0
19710.8718384146 459119.1258356362 0.0
0.0 0.0 0.0

24490.239364797977 4.438152803649687e6 0.0
4.438152803649687e6 -132658.6404929521 0.0
0.0 0.0 0.0

-1.0190858316459318e6 208311.47512651267 0.0
208311.47512651267 1.0254119347832582e6 0.0
0.0 0.0 0.0

193127.01929544559 1.313387140330536e6 0.0
1.313387140330536e6 -335707.35564675473 0.0
0.0 0.0 0.0

-23815.08084492814 2.9383253942385926e6 0.0
2.9383253942385926e6 -163024.23036269692 0.0
0.0 0.0 0.0

-192973.31422367843 402950.3413167167 0.0
402950.3413167167 80005.26893207162 0.0
0.0 0.0 0.0

-761549.2514210423 187831.5134107565 0.0
187831.5134107565 1.0338226063885249e6 0.0
0.0 0.0 0.0

167200.18059838627 875734.7401391183 0.0
875734.7401391183 -265022.8524349314 0.0
0.0 0.0 0.0

106827.25328737148 2.455383325552447e6 0.0
2.455383325552447e6 -169775.3665879267 0.0
0.0 0.0 0.0

-44424.901944576355 -658490.2877654502 0.0
-658490.2877654502 306984.70154336304 0.0
0.0 0.0 0.0

-64564.61073810027 971181.3470350379 0.0
971181.3470350379 123905.19367892892 0.0
0.0 0.0 0.0

213967.64539470986 3.7536027039566822e6 0.0
3.7536027039566822e6 -73385.6167283836 0.0
0.0 0.0 0.0

-438686.5501386558 1.6964963338193875e6 0.0
1.6964963338193875e6 120380.17442104546 0.0
0.0 0.0 0.0

-243689.86744847533 745678.4297948186 0.0
745678.4297948186 -14248.43696729609 0.0
0.0 0.0 0.0

-486263.78913752345 274580.65522403375 0.0
274580.65522403375 490070.2835457177 0.0
0.0 0.0 0.0

-181072.3267489901 970849.5540769625 0.0
970849.5540769625 257883.1027133629 0.0
0.0 0.0 0.0

-527972.6572014709 1.7626590396458437e6 0.0
1.7626590396458437e6 123890.15236201341 0.0
0.0 0.0 0.0

118786.3528731429 2.326537711679242e6 0.0
2.326537711679242e6 -491227.1339307252 0.0
0.0 0.0 0.0

-421309.1656393323 1.7529524108795177e6 0.0
1.7529524108795177e6 123167.21704519616 0.0
0.0 0.0 0.0

-191435.72315264208 1.5384160627760473e6 0.0
1.5384160627760473e6 241786.98814932583 0.0
0.0 0.0 0.0

-330500.94259914674 200055.37189601717 0.0
200055.37189601717 246594.32603547128 0.0
0.0 0.0 0.0

1.1774436119139462e6 182828.369344257 0.0
182828.369344257 -1.4712232745243316e6 0.0
0.0 0.0 0.0

-197502.40617447224 1.049972175344629e6 0.0
1.049972175344629e6 248258.78268611655 0.0
0.0 0.0 0.0

-92975.49989773287 3.2456618421309656e6 0.0
3.2456618421309656e6 -50280.18255312842 0.0
0.0 0.0 0.0

-139724.16419367155 3.7576828818517923e6 0.0
3.7576828818517923e6 -61233.63789808097 0.0
0.0 0.0 0.0

-481605.66931871156 1.0290360856014596e6 0.0
1.0290360856014596e6 -53747.06884737343 0.0
0.0 0.0 0.0

178146.21682901512 1.641274893326877e6 0.0
1.641274893326877e6 -278505.19390822964 0.0
0.0 0.0 0.0

-275289.1900726568 2.3238044526832667e6 0.0
2.3238044526832667e6 57148.94741532512 0.0
0.0 0.0 0.0

-253563.75144839633 459147.5252256055 0.0
459147.5252256055 78008.44526762297 0.0
0.0 0.0 0.0

-941808.7880703649 487338.37406582676 0.0
487338.37406582676 259937.833863843 0.0
0.0 0.0 0.0

16246.938804917998 1.052872331041145e6 0.0
1.052872331041145e6 -152506.0500843783 0.0
0.0 0.0 0.0

-316825.8557618328 1.2421770567322113e6 0.0
1.2421770567322113e6 79995.3397761467 0.0
0.0 0.0 0.0

1.3163829001206646e6 180506.98047936242 0.0
180506.98047936242 -1.4988175209571833e6 0.0
0.0 0.0 0.0

-814456.4632313988 1.2988406159708498e6 0.0
1.2988406159708498e6 981119.2316024255 0.0
0.0 0.0 0.0

-656218.9575389482 -88624.93210764937 0.0
-88624.93210764937 754285.5277462037 0.0
0.0 0.0 0.0

-1.108085487994126e6 -93382.25926219266 0.0
-93382.25926219266 1.1805237412029714e6 0.0
0.0 0.0 0.0

-566384.9409250235 -13573.5171177573 0.0
-13573.5171177573 530221.3830766513 0.0
0.0 0.0 0.0

-595167.7416782567 188216.0038252774 0.0
188216.0038252774 608610.2701002419 0.0
0.0 0.0 0.0

-439969.1120716649 1.5757392408078245e6 0.0
1.5757392408078245e6 -12851.113016315416 0.0
0.0 0.0 0.0

236347.99517858805 1.0422261092710276e6 0.0
1.0422261092710276e6 -332353.7990100136 0.0
0.0 0.0 0.0

-1.4328401161251117e6 1.8121549741484136e6 0.0
1.8121549741484136e6 1.396854688671369e6 0.0
0.0 0.0 0.0

-365202.5873996763 222443.64208094694 0.0
222443.64208094694 319840.8309599116 0.0
0.0 0.0 0.0

432440.7686297981 554890.1407621931 0.0
554890.1407621931 -783239.9070560213 0.0
0.0 0.0 0.0

-478816.5879919454 714034.4817300125 0.0
714034.4817300125 220173.75756380663 0.0
0.0 0.0 0.0

-1.0283604143742534e6 -122444.96758856936 0.0
-122444.96758856936 1.117525373228026e6 0.0
0.0 0.0 0.0

141817.92998301063 2.385967820973367e6 0.0
2.385967820973367e6 -385897.50673497235 0.0
0.0 0.0 0.0

329034.12015668635 694605.8920225915 0.0
694605.8920225915 -799868.8733124087 0.0
0.0 0.0 0.0

-24526.71436880434 1.2027079631715543e6 0.0
1.2027079631715543e6 -83415.22683135096 0.0
0.0 0.0 0.0

-383693.2666147459 599718.4373334361 0.0
599718.4373334361 211463.8869174427 0.0
0.0 0.0 0.0

1.1589092294019803e6 2.426607688775586e6 0.0
2.426607688775586e6 -364949.8284446352 0.0
0.0 0.0 0.0

-122312.87952669032 302939.94228410185 0.0
302939.94228410185 -199004.80779167707 0.0
0.0 0.0 0.0

281288.560531084 1.934237365328364e6 0.0
1.934237365328364e6 -347263.493267239 0.0
0.0 0.0 0.0

38795.23153465658 694286.3048652866 0.0
694286.3048652866 -174175.2665150031 0.0
0.0 0.0 0.0

1.290750731635185e6 202230.56105941758 0.0
202230.56105941758 -1.4705994134666743e6 0.0
0.0 0.0 0.0

-83333.91256530106 3.543761629214156e6 0.0
3.543761629214156e6 -36669.01431084356 0.0
0.0 0.0 0.0

158220.2855064546 715067.3718230714 0.0
715067.3718230714 -288128.614296937 0.0
0.0 0.0 0.0

120613.52480510937 1.5867848350017108e6 0.0
1.5867848350017108e6 -154274.34429175884 0.0
0.0 0.0 0.0

-124047.06752506018 919209.9220750452 0.0
919209.9220750452 -165654.02794893275 0.0
0.0 0.0 0.0

-26212.05573938067 37469.752903149725 0.0
37469.752903149725 -49663.18873921046 0.0
0.0 0.0 0.0

-230444.8983486077 661390.8278060816 0.0
661390.8278060816 42878.61381612065 0.0
0.0 0.0 0.0

-207562.92519455467 755209.620766728 0.0
755209.620766728 823486.5951196919 0.0
0.0 0.0 0.0

1.441414602450001e6 131746.08992941523 0.0
131746.08992941523 -1.8266916593843058e6 0.0
0.0 0.0 0.0

-273090.04894485977 345899.1743066087 0.0
345899.1743066087 41090.329449835364 0.0
0.0 0.0 0.0

-197366.1861684402 1.6264774824639563e6 0.0
1.6264774824639563e6 307058.95377469005 0.0
0.0 0.0 0.0

97265.96088580813 1.0571694275252777e6 0.0
1.0571694275252777e6 -214255.7165987299 0.0
0.0 0.0 0.0

2.959086912527781e6 1.0400052911544414e6 0.0
1.0400052911544414e6 -2.4514248964004056e6 0.0
0.0 0.0 0.0

206274.27719480332 1.275062957140378e6 0.0
1.275062957140378e6 -285389.5949413365 0.0
0.0 0.0 0.0

-30097.371412244414 3.748468765503276e6 0.0
3.748468765503276e6 -50936.727058010525 0.0
0.0 0.0 0.0

-295982.04860016675 1.280721446252561e6 0.0
1.280721446252561e6 -35211.05369831503 0.0
0.0 0.0 0.0

-791168.5671414575 695405.3359579871 0.0
695405.3359579871 1.2168787929930917e6 0.0
0.0 0.0 0.0

-675510.9172496111 150962.40705253236 0.0
150962.40705253236 707180.400880186 0.0
0.0 0.0 0.0

-603235.1975062108 -129839.31248975567 0.0
-129839.31248975567 680819.4748515019 0.0
0.0 0.0 0.0

-1.1304644982944685e6 20424.058009758643 0.0
20424.058009758643 1.0340496396940246e6 0.0
0.0 0.0 0.0

-411873.2736135686 1.4551535107127796e6 0.0
1.4551535107127796e6 114452.97773125843 0.0
0.0 0.0 0.0

303975.14680586255 826811.178140187 0.0
826811.178140187 -411684.8519526324 0.0
0.0 0.0 0.0

-220389.65645034812 781570.8982608024 0.0
781570.8982608024 212017.25403235527 0.0
0.0 0.0 0.0

188205.895377109 1.7982861822872641e6 0.0
1.7982861822872641e6 -261558.77581353474 0.0
0.0 0.0 0.0

-196785.88189219122 336053.1926114929 0.0
336053.1926114929 -28102.767987357467 0.0
0.0 0.0 0.0

-199087.8148779576 991310.9981828014 0.0
991310.9981828014 224633.69146471185 0.0
0.0 0.0 0.0

69179.11951702571 4.1827114404317504e6 0.0
4.1827114404317504e6 -175881.82274566725 0.0
0.0 0.0 0.0

-264354.13319360826 789619.9427105279 0.0
789619.9427105279 244694.34046349663 0.0
0.0 0.0 0.0

-221478.5249567788 729657.5463645404 0.0
729657.5463645404 231515.2235368949 0.0
0.0 0.0 0.0

18099.064492743026 719184.0526616984 0.0
719184.0526616984 -210125.79077511097 0.0
0.0 0.0 0.0

-391646.2513976466 212663.6525143889 0.0
212663.6525143889 238848.69553489986 0.0
0.0 0.0 0.0

-383805.60173814965 1.319090727581974e6 0.0
1.319090727581974e6 153699.5373171407 0.0
0.0 0.0 0.0

908762.6539272848 154679.59703409433 0.0
154679.59703409433 -1.3995539689755002e6 0.0
0.0 0.0 0.0

-1.7850601256291673e6 -75089.32545770926 0.0
-75089.32545770926 2.0285422139221341e6 0.0
0.0 0.0 0.0

37831.91333265011 1.184072028323162e6 0.0
1.184072028323162e6 -122457.24159457136 0.0
0.0 0.0 0.0

-415134.79004128027 1.4764202200885818e6 0.0
1.4764202200885818e6 123529.84704403777 0.0
0.0 0.0 0.0

289870.2964225594 730933.0477548807 0.0
730933.0477548807 -370419.3623037192 0.0
0.0 0.0 0.0

-826.328042910538 3.5461650874700574e6 0.0
3.5461650874700574e6 -29382.9687403476 0.0
0.0 0.0 0.0

314716.22543874284 651413.1605055286 0.0
651413.1605055286 -511091.42954415805 0.0
0.0 0.0 0.0

-333453.8212856423 174487.1851216051 0.0
174487.1851216051 286536.6507280144 0.0
0.0 0.0 0.0

-2.0691551848460773e6 1.2108174702595146e6 0.0
1.2108174702595146e6 2.7346782639531516e6 0.0
0.0 0.0 0.0

-190823.48313771765 917554.861698035 0.0
917554.861698035 309959.3377916095 0.0
0.0 0.0 0.0

-209114.3033313009 891303.4580949915 0.0
891303.4580949915 266300.5416018414 0.0
0.0 0.0 0.0

-156801.7672178796 -63627.88483136696 0.0
-63627.88483136696 167887.27110466885 0.0
0.0 0.0 0.0

-257244.78305813516 894403.5547941222 0.0
894403.5547941222 273734.43832996464 0.0
0.0 0.0 0.0

-185526.8194113638 1.0373682676344052e6 0.0
1.0373682676344052e6 237121.74917593435 0.0
0.0 0.0 0.0

1.184583134794394e6 194084.89264366473 0.0
194084.89264366473 -1.3863597912499795e6 0.0
0.0 0.0 0.0

-155144.72831084402 270403.27819745085 0.0
270403.27819745085 38262.120696309015 0.0
0.0 0.0 0.0

-229454.52465422655 228703.26437150434 0.0
228703.26437150434 124646.29960953508 0.0
0.0 0.0 0.0

118482.6195090052 3.6144905567210116e6 0.0
3.6144905567210116e6 76452.35318470384 0.0
0.0 0.0 0.0

-95394.25640120199 27529.187168035503 0.0
27529.187168035503 65992.39008197816 0.0
0.0 0.0 0.0

-465342.46523940965 233599.76536211508 0.0
233599.76536211508 298990.04456956394 0.0
0.0 0.0 0.0

-419546.8715576583 1.7023409328913703e6 0.0
1.7023409328913703e6 128971.82154543968 0.0
0.0 0.0 0.0

-1.1729434105767107e6 -102032.29887279913 0.0
-102032.29887279913 1.3193990256320036e6 0.0
0.0 0.0 0.0

-141253.27566424437 -40545.58792899769 0.0
-40545.58792899769 153960.57674135317 0.0
0.0 0.0 0.0

503036.91743787366 253181.6872111422 0.0
253181.6872111422 -810402.2402842597 0.0
0.0 0.0 0.0

-228844.70696449658 687894.3743461343 0.0
687894.3743461343 84784.59179926157 0.0
0.0 0.0 0.0

-723467.6885426166 206897.5391072091 0.0
206897.5391072091 628634.2412666494 0.0
0.0 0.0 0.0

117558.69192189489 2.3427320194034744e6 0.0
2.3427320194034744e6 -326406.4665416576 0.0
0.0 0.0 0.0

251989.8997638308 2.2424165644617085e6 0.0
2.2424165644617085e6 -324267.27672339475 0.0
0.0 0.0 0.0

312472.0155061087 702878.2934257041 0.0
702878.2934257041 -495520.6728212538 0.0
0.0 0.0 0.0

219666.74339911924 1.183717464789591e6 0.0
1.183717464789591e6 -339136.35294249305 0.0
0.0 0.0 0.0

-93542.36008592362 691514.341288635 0.0
691514.341288635 -52380.01257238818 0.0
0.0 0.0 0.0

-670665.7828857107 259760.40053177826 0.0
259760.40053177826 542401.8372136893 0.0
0.0 0.0 0.0

4001.199183621604 3.743946706945046e6 0.0
3.743946706945046e6 -42130.27779214506 0.0
0.0 0.0 0.0

-261004.6135911411 1.0447212603180761e6 0.0
1.0447212603180761e6 229330.5007375488 0.0
0.0 0.0 0.0

-403896.39337281184 1.4682528792114232e6 0.0
1.4682528792114232e6 136819.72704928674 0.0
0.0 0.0 0.0

343065.0986027516 1.327509916276156e6 0.0
1.327509916276156e6 2.3920625128837074e6 0.0
0.0 0.0 0.0

-220188.99963628504 735579.6333805859 0.0
735579.6333805859 104888.71940297143 0.0
0.0 0.0 0.0

263753.04551959864 2.153209231419785e6 0.0
2.153209231419785e6 -345467.47210756596 0.0
0.0 0.0 0.0

163156.81141401408 1.1711521592952833e6 0.0
1.1711521592952833e6 -299264.99235064327 0.0
0.0 0.0 0.0

253090.67925560393 1.8201854112424073e6 0.0
1.8201854112424073e6 -343050.31608474965 0.0
0.0 0.0 0.0

-150809.62886060047 3.034262511601932e6 0.0
3.034262511601932e6 -1187.5689314344636 0.0
0.0 0.0 0.0

-221149.7072532384 657607.6442388735 0.0
657607.6442388735 18774.930785934368 0.0
0.0 0.0 0.0

-113216.81429886994 898582.523022609 0.0
898582.523022609 -136964.38999609198 0.0
0.0 0.0 0.0

112805.60321844496 1.1058518962871535e6 0.0
1.1058518962871535e6 -202162.4464801243 0.0
0.0 0.0 0.0

-55528.64713733492 92679.3711119984 0.0
92679.3711119984 -156323.1814701804 0.0
0.0 0.0 0.0

198283.9069999696 4.240709870394961e6 0.0
4.240709870394961e6 35089.50291453158 0.0
0.0 0.0 0.0

1.1015359571317309e6 288260.88746792346 0.0
288260.88746792346 -1.3980317243968507e6 0.0
0.0 0.0 0.0

2.732106726514754e6 3.4039053563133525e6 0.0
3.4039053563133525e6 -438962.00108603714 0.0
0.0 0.0 0.0

730540.9295738374 3.3111686197617073e6 0.0
3.3111686197617073e6 -1.9573117263301273e6 0.0
0.0 0.0 0.0

-85825.77248713135 994768.6982025853 0.0
994768.6982025853 267254.1370423078 0.0
0.0 0.0 0.0

-77619.25071445471 727848.4243244748 0.0
727848.4243244748 110728.74010623201 0.0
0.0 0.0 0.0

-379831.2255265612 837208.1593949792 0.0
837208.1593949792 450696.20696332416 0.0
0.0 0.0 0.0

-1.2254228172284185e6 586108.6292940559 0.0
586108.6292940559 -404099.72630316904 0.0
0.0 0.0 0.0

-66325.66977774528 93137.53805176575 0.0
93137.53805176575 -14424.698626429348 0.0
0.0 0.0 0.0

-218611.8996699483 2.6003964183904394e6 0.0
2.6003964183904394e6 4676.12764821657 0.0
0.0 0.0 0.0

294487.6925906391 1.7170120883103376e6 0.0
1.7170120883103376e6 -336169.4206143478 0.0
0.0 0.0 0.0

912881.1549453924 385229.62053923326 0.0
385229.62053923326 -1.2292041021868645e6 0.0
0.0 0.0 0.0

252822.81124983684 1.773499624957932e6 0.0
1.773499624957932e6 -424282.0921675528 0.0
0.0 0.0 0.0

344918.0541862905 530092.9840325253 0.0
530092.9840325253 -681763.0906692406 0.0
0.0 0.0 0.0

-242857.40396940004 226868.08612318922 0.0
226868.08612318922 79207.67274027238 0.0
0.0 0.0 0.0

-82312.84082812988 739368.941885549 0.0
739368.941885549 607447.3565243992 0.0
0.0 0.0 0.0

-123765.18296145165 535310.4750291773 0.0
535310.4750291773 -56347.436072503624 0.0
0.0 0.0 0.0

10004.122273020761 127899.9386065813 0.0
127899.9386065813 66727.24275915684 0.0
0.0 0.0 0.0

-1.0052730453099284e6 7065.001006315366 0.0
7065.001006315366 941354.257621957 0.0
0.0 0.0 0.0

-260948.5184512522 939571.4472609863 0.0
939571.4472609863 194774.57201152554 0.0
0.0 0.0 0.0

-204873.8151486467 790723.3339056466 0.0
790723.3339056466 869853.6115446497 0.0
0.0 0.0 0.0

-172383.73078433407 379201.0324245356 0.0
379201.0324245356 42833.68334568374 0.0
0.0 0.0 0.0

-639543.3945306729 8141.917295782839 0.0
8141.917295782839 773031.6200617438 0.0
0.0 0.0 0.0

-3.9989401724870903e6 144469.06364334436 0.0
144469.06364334436 3.7672400936094103e6 0.0
0.0 0.0 0.0

-227858.84621945678 936449.6674711194 0.0
936449.6674711194 -46017.93404152553 0.0
0.0 0.0 0.0

-58805.040606360824 3.873232426614241e6 0.0
3.873232426614241e6 -66973.84115662046 0.0
0.0 0.0 0.0

-224931.92703847005 720505.1852001654 0.0
720505.1852001654 883801.2127744706 0.0
0.0 0.0 0.0

-41916.54648971177 70067.92338866966 0.0
70067.92338866966 -43664.43821657916 0.0
0.0 0.0 0.0

45143.064701595664 4.127152256247277e6 0.0
4.127152256247277e6 -107918.64356144423 0.0
0.0 0.0 0.0

-2.2017210738942213e6 -29280.83647246446 0.0
-29280.83647246446 2.474712967835146e6 0.0
0.0 0.0 0.0

365181.3720321258 3.2655822690570178e6 0.0
3.2655822690570178e6 -57116.6282603313 0.0
0.0 0.0 0.0

-400505.631838757 1.3432177776083003e6 0.0
1.3432177776083003e6 166034.6866039071 0.0
0.0 0.0 0.0

91372.57131753708 562697.2307931114 0.0
562697.2307931114 -229059.5764342231 0.0
0.0 0.0 0.0

-229689.44239260146 814804.425781068 0.0
814804.425781068 353474.7145443642 0.0
0.0 0.0 0.0

-706630.7100638784 166262.0971221456 0.0
166262.0971221456 567207.9967934692 0.0
0.0 0.0 0.0

60200.95697294063 3.7552787716967706e6 0.0
3.7552787716967706e6 -55946.956101632575 0.0
0.0 0.0 0.0

10786.284455667716 690310.826738385 0.0
690310.826738385 616508.8874639984 0.0
0.0 0.0 0.0

-534118.2772139062 3.569503703909303e6 0.0
3.569503703909303e6 46077.0135728227 0.0
0.0 0.0 0.0

-167059.30876098055 1.3699256717517166e6 0.0
1.3699256717517166e6 -148225.32248200465 0.0
0.0 0.0 0.0

-101365.44817885835 3.0725765417798054e6 0.0
3.0725765417798054e6 -42400.344141143956 0.0
0.0 0.0 0.0

934360.1810567367 222329.8435079974 0.0
222329.8435079974 -1.3401886203796745e6 0.0
0.0 0.0 0.0

36803.94867372798 1.2018360284706557e6 0.0
1.2018360284706557e6 -101467.93324293457 0.0
0.0 0.0 0.0

-101497.76508617503 1.746935424734002e6 0.0
1.746935424734002e6 247461.87431083963 0.0
0.0 0.0 0.0

-388990.06457265205 1.4294064966012768e6 0.0
1.4294064966012768e6 119866.43902200219 0.0
0.0 0.0 0.0

-22413.201433662383 729340.6932309493 0.0
729340.6932309493 771169.4398249658 0.0
0.0 0.0 0.0

-806793.1899959678 3529.327757095748 0.0
3529.327757095748 768796.1816138704 0.0
0.0 0.0 0.0

-545653.4933221624 679980.977378963 0.0
679980.977378963 1.3631185246775316e6 0.0
0.0 0.0 0.0

-117728.63392479686 1.0833621473500656e6 0.0
1.0833621473500656e6 199252.13113291556 0.0
0.0 0.0 0.0

78166.62876270793 3.8340644415764175e6 0.0
3.8340644415764175e6 -114612.98650118447 0.0
0.0 0.0 0.0

142246.96127191384 2.69913718960909e6 0.0
2.69913718960909e6 -126094.64376495878 0.0
0.0 0.0 0.0

169796.7169986766 3.7719932570357835e6 0.0
3.7719932570357835e6 -86962.71298276758 0.0
0.0 0.0 0.0

-95968.49055197828 366072.19111049303 0.0
366072.19111049303 -138919.43890030068 0.0
0.0 0.0 0.0

-202738.49017009998 915377.9802483662 0.0
915377.9802483662 256734.43717033064 0.0
0.0 0.0 0.0

184517.8581560541 3.7492480802883897e6 0.0
3.7492480802883897e6 -60611.68185105032 0.0
0.0 0.0 0.0

359398.2339295761 706324.3318081871 0.0
706324.3318081871 -702525.1945158597 0.0
0.0 0.0 0.0

-78665.01251473722 25795.082126106994 0.0
25795.082126106994 34730.090017241295 0.0
0.0 0.0 0.0

-142797.04648076012 670265.3581134663 0.0
670265.3581134663 22165.269582406218 0.0
0.0 0.0 0.0

154201.56867752085 3.7668026026234333e6 0.0
3.7668026026234333e6 -73407.6233612416 0.0
0.0 0.0 0.0

113621.01594218763 1.124965236270681e6 0.0
1.124965236270681e6 -226179.74295049216 0.0
0.0 0.0 0.0

1.2143686732088276e6 136635.45061845897 0.0
136635.45061845897 -1.651349933490422e6 0.0
0.0 0.0 0.0

-1.653152960088842e6 -198137.63480559425 0.0
-198137.63480559425 1.9554189393371954e6 0.0
0.0 0.0 0.0

301125.40797381673 646119.0618641992 0.0
646119.0618641992 -431919.15545342426 0.0
0.0 0.0 0.0

-211001.02302098705 931917.0018081248 0.0
931917.0018081248 193315.99519365668 0.0
0.0 0.0 0.0

-205244.26141063988 247991.52498243895 0.0
247991.52498243895 110522.668405711 0.0
0.0 0.0 0.0

51737.21987574359 3.86796451174012e6 0.0
3.86796451174012e6 -179816.92418994245 0.0
0.0 0.0 0.0

478753.3280309237 220180.22321126566 0.0
220180.22321126566 -915368.223831158 0.0
0.0 0.0 0.0

15188.690429282717 1.714767312407088e6 0.0
1.714767312407088e6 -63259.10617709012 0.0
0.0 0.0 0.0

-200298.96246155992 1.7749666209149277e6 0.0
1.7749666209149277e6 279306.55806473305 0.0
0.0 0.0 0.0

490660.87550355896 4.233797027325845e6 0.0
4.233797027325845e6 -10450.926200324524 0.0
0.0 0.0 0.0

150959.97116954965 2.4029168661854905e6 0.0
2.4029168661854905e6 -115161.90435750666 0.0
0.0 0.0 0.0

-347848.81397437165 817844.3540820736 0.0
817844.3540820736 1.5944250892839874e6 0.0
0.0 0.0 0.0

1.402330514341392e6 143701.33423204202 0.0
143701.33423204202 -1.7153993518635887e6 0.0
0.0 0.0 0.0

-123405.03733345406 3.1631338936578752e6 0.0
3.1631338936578752e6 -29557.543586444935 0.0
0.0 0.0 0.0

-108830.39587259485 1.600916606975708e6 0.0
1.600916606975708e6 -100302.5656089816 0.0
0.0 0.0 0.0

-1.2205379093374806e6 319895.71435285936 0.0
319895.71435285936 1.0065650078996413e6 0.0
0.0 0.0 0.0

-184633.96515775396 1.0252637353796983e6 0.0
1.0252637353796983e6 232110.9965097485 0.0
0.0 0.0 0.0

-70623.50403718703 -19860.22714077909 0.0
-19860.22714077909 115671.22621182639 0.0
0.0 0.0 0.0

261331.74666708073 1.0032909418950652e6 0.0
1.0032909418950652e6 -278578.4633982054 0.0
0.0 0.0 0.0

-96784.071070624 1.0743454849353118e6 0.0
1.0743454849353118e6 223545.9544441991 0.0
0.0 0.0 0.0

277647.9217651243 600553.5022726113 0.0
600553.5022726113 -510157.23153852305 0.0
0.0 0.0 0.0

1.2305343688065587e6 220847.41306961884 0.0
220847.41306961884 -1.4940848396013945e6 0.0
0.0 0.0 0.0

1.7997266582962442e6 1.7932481182838066e6 0.0
1.7932481182838066e6 -1.0217168204694878e6 0.0
0.0 0.0 0.0

-2.6513214497382264e6 730732.6760169719 0.0
730732.6760169719 -342987.54084551096 0.0
0.0 0.0 0.0

-54051.056872505505 3.885495438944199e6 0.0
3.885495438944199e6 10084.378784638404 0.0
0.0 0.0 0.0

-76601.0455014648 3.819390438570346e6 0.0
3.819390438570346e6 -149209.51284000115 0.0
0.0 0.0 0.0

-223850.78742367323 875128.5796052414 0.0
875128.5796052414 265126.0138133218 0.0
0.0 0.0 0.0

1.168689141405142e6 117851.95313686799 0.0
117851.95313686799 -1.4098517506573768e6 0.0
0.0 0.0 0.0

-112513.03744862293 1.092529122828792e6 0.0
1.092529122828792e6 208843.42895624787 0.0
0.0 0.0 0.0

-66053.61400585712 3.2684098689656877e6 0.0
3.2684098689656877e6 -1007.7633628927142 0.0
0.0 0.0 0.0

174525.06357634653 765771.4246887957 0.0
765771.4246887957 -249470.3623333414 0.0
0.0 0.0 0.0

-175250.58001292066 3.464470836046014e6 0.0
3.464470836046014e6 -93089.72370854444 0.0
0.0 0.0 0.0

-35851.1737199722 300975.8159200749 0.0
300975.8159200749 379903.6163212352 0.0
0.0 0.0 0.0

-177951.99187957673 1.826704953228905e6 0.0
1.826704953228905e6 151322.49216597795 0.0
0.0 0.0 0.0

-114931.5253540189 1.0192590190031759e6 0.0
1.0192590190031759e6 179628.86168090944 0.0
0.0 0.0 0.0

170948.8409555166 2.6185119654658237e6 0.0
2.6185119654658237e6 -296917.08291469037 0.0
0.0 0.0 0.0

-289483.65156350774 1.1674258993524956e6 0.0
1.1674258993524956e6 36023.42458182722 0.0
0.0 0.0 0.0

256557.81308860733 792879.1912043476 0.0
792879.1912043476 -459611.32582869974 0.0
0.0 0.0 0.0

-1.2194760893341545e6 -127317.60455123051 0.0
-127317.60455123051 1.28493983797115e6 0.0
0.0 0.0 0.0

218454.1908059427 1.9783717351252397e6 0.0
1.9783717351252397e6 -418518.7614200483 0.0
0.0 0.0 0.0

-36050.34083869906 1.6174283706093086e6 0.0
1.6174283706093086e6 -89827.8202494039 0.0
0.0 0.0 0.0

72397.20844570611 952506.9139462205 0.0
952506.9139462205 -782847.4420135717 0.0
0.0 0.0 0.0

650198.9431890703 246584.55336941313 0.0
246584.55336941313 -964596.3968606804 0.0
0.0 0.0 0.0

207793.81241172316 1.6225591337928853e6 0.0
1.6225591337928853e6 -299407.0830100754 0.0
0.0 0.0 0.0

-202588.1771302331 962094.119877825 0.0
962094.119877825 221292.0180796227 0.0
0.0 0.0 0.0

-194951.20400109535 2.615170516093248e6 0.0
2.615170516093248e6 16532.550564347228 0.0
0.0 0.0 0.0

-219339.6196829488 738327.6911512178 0.0
738327.6911512178 186397.37452276621 0.0
0.0 0.0 0.0

-151251.63862836803 1.2555620848385056e6 0.0
1.2555620848385056e6 -8647.12971777391 0.0
0.0 0.0 0.0

-1.9677214521665943e6 714169.3709942927 0.0
714169.3709942927 950227.259760707 0.0
0.0 0.0 0.0

-1.3066831584325698e6 -879.224851653226 0.0
-879.224851653226 1.4008166290717109e6 0.0
0.0 0.0 0.0

-114549.48616095207 710740.7638175408 0.0
710740.7638175408 -169462.5980637809 0.0
0.0 0.0 0.0

-16909.390427859216 3.582677041701794e6 0.0
3.582677041701794e6 -188896.03420407066 0.0
0.0 0.0 0.0

-484831.34975228354 1.7844165401550827e6 0.0
1.7844165401550827e6 161571.81645409364 0.0
0.0 0.0 0.0

433138.7899724182 577514.5859446813 0.0
577514.5859446813 -780788.5543818728 0.0
0.0 0.0 0.0

4315.695710416854 1.2059384270544138e6 0.0
1.2059384270544138e6 -109633.87937072887 0.0
0.0 0.0 0.0

92072.343062727 3.200955822946933e6 0.0
3.200955822946933e6 -106889.8197645517 0.0
0.0 0.0 0.0

216378.64413992575 2.4996708281911723e6 0.0
2.4996708281911723e6 -382355.0807465986 0.0
0.0 0.0 0.0

68225.98440290167 2.7030316909158234e6 0.0
2.7030316909158234e6 -119766.85852292512 0.0
0.0 0.0 0.0

-66991.80924789293 1.057456566138858e6 0.0
1.057456566138858e6 -62177.35191491973 0.0
0.0 0.0 0.0

-238156.98671013073 2.6206273203584477e6 0.0
2.6206273203584477e6 19769.797538544008 0.0
0.0 0.0 0.0

373798.0642230461 487577.25344154413 0.0
487577.25344154413 -538598.0367992453 0.0
0.0 0.0 0.0

1.1940973818653151e6 200584.65603415904 0.0
200584.65603415904 -1.5356091187448925e6 0.0
0.0 0.0 0.0

605599.2812657817 240176.16871909497 0.0
240176.16871909497 -39493.19095882535 0.0
0.0 0.0 0.0

-14017.701256746062 76619.98032439256 0.0
76619.98032439256 -96677.84489125149 0.0
0.0 0.0 0.0

-178070.94801510457 1.0218513595973621e6 0.0
1.0218513595973621e6 269314.25355296093 0.0
0.0 0.0 0.0

36561.8150076953 851365.0675931644 0.0
851365.0675931644 -24206.916035199734 0.0
0.0 0.0 0.0

-11537.092698702316 1.1029434989870836e6 0.0
1.1029434989870836e6 4260.8077267469125 0.0
0.0 0.0 0.0

163196.87163566926 349982.9995560101 0.0
349982.9995560101 -428950.91733186925 0.0
0.0 0.0 0.0

163638.53801578298 2.21220689687357e6 0.0
2.21220689687357e6 -80675.64117534604 0.0
0.0 0.0 0.0

-98201.88958014303 344636.45489060506 0.0
344636.45489060506 552275.8262443888 0.0
0.0 0.0 0.0

127825.82578775022 2.708651646214953e6 0.0
2.708651646214953e6 -112343.49201928763 0.0
0.0 0.0 0.0

-550938.3950851449 310124.0813594388 0.0
310124.0813594388 613814.7902387633 0.0
0.0 0.0 0.0

-97041.86655254789 3.743953567417852e6 0.0
3.743953567417852e6 -55585.8409726153 0.0
0.0 0.0 0.0

146342.10608345576 3.705588970541047e6 0.0
3.705588970541047e6 -35707.0134909542 0.0
0.0 0.0 0.0

505610.23281787627 240367.68599668433 0.0
240367.68599668433 -958719.4778598325 0.0
0.0 0.0 0.0

667510.0505493826 184341.57923594472 0.0
184341.57923594472 -1.1666657630742842e6 0.0
0.0 0.0 0.0

107756.5490389668 4.184723077406494e6 0.0
4.184723077406494e6 -378989.9778651619 0.0
0.0 0.0 0.0

-66780.45186144041 808105.8953722772 0.0
808105.8953722772 584844.4013571795 0.0
0.0 0.0 0.0

173300.9467590862 2.1919747315647798e6 0.0
2.1919747315647798e6 -407430.40383595054 0.0
0.0 0.0 0.0

-616705.2142302789 -133564.68856067743 0.0
-133564.68856067743 714855.1172309378 0.0
0.0 0.0 0.0

-461433.9204657095 1.7554266442551e6 0.0
1.7554266442551e6 129232.89281826626 0.0
0.0 0.0 0.0

-376168.37900672073 241011.88018216778 0.0
241011.88018216778 263948.249597254 0.0
0.0 0.0 0.0

-185898.7800225946 -21668.956534402627 0.0
-21668.956534402627 207937.2783729345 0.0
0.0 0.0 0.0

-179148.3409986159 3.557908654713582e6 0.0
3.557908654713582e6 -354881.22917151387 0.0
0.0 0.0 0.0

1.2126186452233358e6 198788.23518245408 0.0
198788.23518245408 -1.551951785112651e6 0.0
0.0 0.0 0.0

-297853.85084792454 1.0742448882266143e6 0.0
1.0742448882266143e6 233291.87288580637 0.0
0.0 0.0 0.0

-169475.27175941117 3.4559678015296943e6 0.0
3.4559678015296943e6 -82869.5928234904 0.0
0.0 0.0 0.0

272576.7567574566 666750.3223348364 0.0
666750.3223348364 -510173.91066067666 0.0
0.0 0.0 0.0

161948.8336563335 3.673169204593852e6 0.0
3.673169204593852e6 -17742.29567156059 0.0
0.0 0.0 0.0

-258975.9312549368 1.0426445589580836e6 0.0
1.0426445589580836e6 237998.00462469412 0.0
0.0 0.0 0.0

-625802.0898179421 -103580.15427058977 0.0
-103580.15427058977 665886.9439551241 0.0
0.0 0.0 0.0

-184862.91252745077 -92239.11119085987 0.0
-92239.11119085987 220752.59338690306 0.0
0.0 0.0 0.0

52142.91960025047 1.727436874825409e6 0.0
1.727436874825409e6 -78514.63748926957 0.0
0.0 0.0 0.0

-26008.72123324308 3.7992931023834613e6 0.0
3.7992931023834613e6 -118151.80189823125 0.0
0.0 0.0 0.0

-34496.18836844266 3.843805102310221e6 0.0
3.843805102310221e6 -109058.84151391606 0.0
0.0 0.0 0.0

-1.7426900986874164e6 -73766.46413372125 0.0
-73766.46413372125 1.7249177295718456e6 0.0
0.0 0.0 0.0

-114980.99017116342 139773.06386051764 0.0
139773.06386051764 264686.8191830224 0.0
0.0 0.0 0.0

-55575.25948017682 1.0690045926788528e6 0.0
1.0690045926788528e6 132318.00271897085 0.0
0.0 0.0 0.0

-200380.11979237467 904805.4642505434 0.0
904805.4642505434 161485.35585595283 0.0
0.0 0.0 0.0

-490118.4502950612 965123.2034212217 0.0
965123.2034212217 317486.70907807746 0.0
0.0 0.0 0.0

-262532.29359388415 2.849275484572459e6 0.0
2.849275484572459e6 88149.05076632374 0.0
0.0 0.0 0.0

-38612.79388320681 929125.5252672377 0.0
929125.5252672377 -172385.7796811676 0.0
0.0 0.0 0.0

-730707.9151716309 -100184.0824817364 0.0
-100184.0824817364 774898.1835633498 0.0
0.0 0.0 0.0

247805.1036178025 3.996410223166205e6 0.0
3.996410223166205e6 -259552.2171193423 0.0
0.0 0.0 0.0

-18380.03040749504 3.6724097647954156e6 0.0
3.6724097647954156e6 -277539.87462143885 0.0
0.0 0.0 0.0

-218123.14918650364 -43647.21947022687 0.0
-43647.21947022687 290215.2616881528 0.0
0.0 0.0 0.0

-243865.53749525908 758545.3853946069 0.0
758545.3853946069 137903.64499035088 0.0
0.0 0.0 0.0

-238574.73230881433 862086.2483467172 0.0
862086.2483467172 181160.73306746426 0.0
0.0 0.0 0.0

-711499.5865273825 18629.4886612167 0.0
18629.4886612167 742314.4669030865 0.0
0.0 0.0 0.0

843440.3167605924 171739.73411265522 0.0
171739.73411265522 -1.298977944092918e6 0.0
0.0 0.0 0.0

822244.7388854248 402267.2714773228 0.0
402267.2714773228 -1.2600889715416634e6 0.0
0.0 0.0 0.0

-252166.48556496957 1.5478478108023913e6 0.0
1.5478478108023913e6 192451.35576348536 0.0
0.0 0.0 0.0

-216182.61911746283 410930.94919567055 0.0
410930.94919567055 374667.0081839507 0.0
0.0 0.0 0.0

390926.75005459384 3.413255721640986e6 0.0
3.413255721640986e6 -341341.9798481937 0.0
0.0 0.0 0.0

988705.9059495216 185084.1126294405 0.0
185084.1126294405 -1.3454198536713317e6 0.0
0.0 0.0 0.0

610591.2502272946 303199.338253261 0.0
303199.338253261 -754795.5764685725 0.0
0.0 0.0 0.0

826141.5029416876 169814.6800116865 0.0
169814.6800116865 -1.1406896227019986e6 0.0
0.0 0.0 0.0

14465.485542405171 1.0678160028129246e6 0.0
1.0678160028129246e6 -113908.47931234974 0.0
0.0 0.0 0.0

7879.113801873307 964253.9017972727 0.0
964253.9017972727 -70217.82648972147 0.0
0.0 0.0 0.0

255301.57569446246 862385.5156054801 0.0
862385.5156054801 -315414.3365474235 0.0
0.0 0.0 0.0

541798.8893492573 3.595225344100551e6 0.0
3.595225344100551e6 -84595.57461031605 0.0
0.0 0.0 0.0

-260742.3245260128 -71075.76201256599 0.0
-71075.76201256599 304051.8137773374 0.0
0.0 0.0 0.0

-233630.68021565123 831243.1298319043 0.0
831243.1298319043 229951.5348052602 0.0
0.0 0.0 0.0

-475479.89854449726 1.7302930713332614e6 0.0
1.7302930713332614e6 83726.6607664456 0.0
0.0 0.0 0.0

-94438.04497988774 3.5578472193716587e6 0.0
3.5578472193716587e6 -41827.44385063935 0.0
0.0 0.0 0.0

-91848.20700860277 -37064.994819913125 0.0
-37064.994819913125 125265.07748555139 0.0
0.0 0.0 0.0

-181894.6032578238 4064.411898804398 0.0
4064.411898804398 194118.70714988478 0.0
0.0 0.0 0.0

-14061.943584490917 798531.0828540473 0.0
798531.0828540473 475900.4665559554 0.0
0.0 0.0 0.0

-965259.2038707642 -4318.228450035448 0.0
-4318.228450035448 997431.5915550397 0.0
0.0 0.0 0.0

71970.75485501501 3.8394895108265025e6 0.0
3.8394895108265025e6 -109625.44972242185 0.0
0.0 0.0 0.0

-21173.643023385426 3.2119086483844705e6 0.0
3.2119086483844705e6 -188633.58622704138 0.0
0.0 0.0 0.0

197228.4301798158 1.4740269100475027e6 0.0
1.4740269100475027e6 -281815.22299183754 0.0
0.0 0.0 0.0

-278963.77107657754 1.2673728988057424e6 0.0
1.2673728988057424e6 -10150.850924612649 0.0
0.0 0.0 0.0

-247564.48007098245 702959.5257535346 0.0
702959.5257535346 106566.82556872598 0.0
0.0 0.0 0.0

-250512.02787678584 253628.40074142054 0.0
253628.40074142054 158580.0308046921 0.0
0.0 0.0 0.0

-899166.6192150299 1.5101106503828678e6 0.0
1.5101106503828678e6 835398.5123531537 0.0
0.0 0.0 0.0

-158828.86754692893 359941.9715763843 0.0
359941.9715763843 592192.724512469 0.0
0.0 0.0 0.0

234795.98381408968 2.3538701610087967e6 0.0
2.3538701610087967e6 -339026.13200363854 0.0
0.0 0.0 0.0

1.1009894222606625e6 296676.98316512967 0.0
296676.98316512967 -1.3166361834726366e6 0.0
0.0 0.0 0.0

106730.02961240678 3.192902348596294e6 0.0
3.192902348596294e6 -121443.36556729054 0.0
0.0 0.0 0.0

-76023.7958793633 96463.08115404558 0.0
96463.08115404558 -47181.87655433446 0.0
0.0 0.0 0.0

123006.47436706844 523238.44317053293 0.0
523238.44317053293 -456730.1068565351 0.0
0.0 0.0 0.0

609802.3017196867 2.324160188629284e6 0.0
2.324160188629284e6 -157472.6456697461 0.0
0.0 0.0 0.0

-287088.8691257078 48521.07327004089 0.0
48521.07327004089 259115.95971856016 0.0
0.0 0.0 0.0

-58047.35342937482 2.914159218230589e6 0.0
2.914159218230589e6 124553.53021318575 0.0
0.0 0.0 0.0

-105283.62765237619 548073.0194956163 0.0
548073.0194956163 585354.0593020936 0.0
0.0 0.0 0.0

80634.42003481815 788859.4746067894 0.0
788859.4746067894 -27035.81357603857 0.0
0.0 0.0 0.0

113830.90292655838 3.838019215757039e6 0.0
3.838019215757039e6 -59351.577895168324 0.0
0.0 0.0 0.0

-128874.39305558505 3.8590398586301845e6 0.0
3.8590398586301845e6 -104510.77415280734 0.0
0.0 0.0 0.0

-195347.22624368628 361052.08671322727 0.0
361052.08671322727 91759.21579797896 0.0
0.0 0.0 0.0

939523.541740365 519119.69988693565 0.0
519119.69988693565 -1.3880426713576145e6 0.0
0.0 0.0 0.0

-237651.2468062215 16394.36368123587 0.0
16394.36368123587 222364.51012520728 0.0
0.0 0.0 0.0

48571.5604416542 1.0932023232173785e6 0.0
1.0932023232173785e6 -146419.36784242044 0.0
0.0 0.0 0.0

-133024.55951715406 1.9789935043308835e6 0.0
1.9789935043308835e6 25063.80267019527 0.0
0.0 0.0 0.0

-510276.95459197013 2.248627972581799e6 0.0
2.248627972581799e6 -159667.5350570496 0.0
0.0 0.0 0.0

-249303.07913942952 805276.993704422 0.0
805276.993704422 224292.7021383342 0.0
0.0 0.0 0.0

-283400.9568150013 979975.0802868066 0.0
979975.0802868066 175172.4987947272 0.0
0.0 0.0 0.0

-833385.8709432124 1.561880303610322e6 0.0
1.561880303610322e6 926169.6838093407 0.0
0.0 0.0 0.0

-158850.38068019066 739597.6822367869 0.0
739597.6822367869 -66629.34730881637 0.0
0.0 0.0 0.0

-276782.0065542532 960975.6342064482 0.0
960975.6342064482 149620.70544578653 0.0
0.0 0.0 0.0

-213148.169210816 3.8170655581712956e6 0.0
3.8170655581712956e6 -161761.05865046973 0.0
0.0 0.0 0.0

-319487.61822327325 2.837412894672851e6 0.0
2.837412894672851e6 1890.829271648734 0.0
0.0 0.0 0.0

-56349.52110978152 3.7466204891342493e6 0.0
3.7466204891342493e6 -61604.46907769237 0.0
0.0 0.0 0.0

-270328.9768681566 406015.20736131584 0.0
406015.20736131584 994265.1737658265 0.0
0.0 0.0 0.0

206195.23052956356 2.614726267757914e6 0.0
2.614726267757914e6 -293457.74446117383 0.0
0.0 0.0 0.0

-87981.23267905814 20774.092335235055 0.0
20774.092335235055 98981.42235817881 0.0
0.0 0.0 0.0

770066.1459945963 205883.8920457352 0.0
205883.8920457352 -1.145792218096631e6 0.0
0.0 0.0 0.0

1.0760760244175503e6 341822.4878280872 0.0
341822.4878280872 -1.293479729404261e6 0.0
0.0 0.0 0.0

-213113.51680273906 1.1530771361171093e6 0.0
1.1530771361171093e6 292425.8651095733 0.0
0.0 0.0 0.0

199900.26892828464 1.5899404056861144e6 0.0
1.5899404056861144e6 -259033.887015795 0.0
0.0 0.0 0.0

-219374.03695330955 357868.918701439 0.0
357868.918701439 11307.508294174724 0.0
0.0 0.0 0.0

1.3994600828360217e6 105000.88398647068 0.0
105000.88398647068 -1.774490975222377e6 0.0
0.0 0.0 0.0

317344.5303212834 1.5085532888953101e6 0.0
1.5085532888953101e6 -310158.4890278075 0.0
0.0 0.0 0.0

164725.97975957475 1.3659574260534097e6 0.0
1.3659574260534097e6 -303517.7763333585 0.0
0.0 0.0 0.0

-239284.68120729874 428493.0780253001 0.0
428493.0780253001 34740.475463415394 0.0
0.0 0.0 0.0

125209.00012394514 1.644562358928981e6 0.0
1.644562358928981e6 -198668.3444394198 0.0
0.0 0.0 0.0

-98710.69031351103 -30240.98338119207 0.0
-30240.98338119207 136052.42707716738 0.0
0.0 0.0 0.0

148274.52925274812 1.5773631569587607e6 0.0
1.5773631569587607e6 -280433.36173093924 0.0
0.0 0.0 0.0

-42611.07296881959 25549.349549842573 0.0
25549.349549842573 28541.897013619106 0.0
0.0 0.0 0.0

-340757.3382889251 2.9895046849808428e6 0.0
2.9895046849808428e6 65381.32301348125 0.0
0.0 0.0 0.0

-13506.728239857053 3.488489525175604e6 0.0
3.488489525175604e6 -152415.22566302237 0.0
0.0 0.0 0.0

-287493.109720158 339992.72616208356 0.0
339992.72616208356 966063.4154199632 0.0
0.0 0.0 0.0

-884094.9787155921 17299.405780342553 0.0
17299.405780342553 972448.4398083043 0.0
0.0 0.0 0.0

-344056.3169636056 1.4305846670466373e6 0.0
1.4305846670466373e6 107843.2645552606 0.0
0.0 0.0 0.0

-296894.7383524726 1.0842208218768472e6 0.0
1.0842208218768472e6 315659.17260918766 0.0
0.0 0.0 0.0

-247454.75441201907 54465.649516674755 0.0
54465.649516674755 228128.2284921513 0.0
0.0 0.0 0.0

-302059.68364533735 -22414.152569806927 0.0
-22414.152569806927 357011.91414872184 0.0
0.0 0.0 0.0

264863.2361403225 685222.5741694564 0.0
685222.5741694564 -481508.0135335132 0.0
0.0 0.0 0.0

-221043.13134778998 493017.507445678 0.0
493017.507445678 153596.00337149028 0.0
0.0 0.0 0.0

-1.0108499928358188e6 33965.3874969836 0.0
33965.3874969836 1.066291870150264e6 0.0
0.0 0.0 0.0

-875175.7551594274 422751.4588049265 0.0
422751.4588049265 1.1678701922282507e6 0.0
0.0 0.0 0.0

274419.136463164 2.0172162151814003e6 0.0
2.0172162151814003e6 -455386.2150870896 0.0
0.0 0.0 0.0

-47422.818395618786 936323.8105851004 0.0
936323.8105851004 -178956.91878468002 0.0
0.0 0.0 0.0

1.3869999340607468e6 152666.05193966313 0.0
152666.05193966313 -1.6837463314587348e6 0.0
0.0 0.0 0.0

-297784.6893927129 1.3105325208938606e6 0.0
1.3105325208938606e6 272652.94282019295 0.0
0.0 0.0 0.0

-1.04952172437676e6 46797.6803066306 0.0
46797.6803066306 938539.4779289532 0.0
0.0 0.0 0.0

-7770.725974422488 892133.2420916556 0.0
892133.2420916556 -27513.977285546258 0.0
0.0 0.0 0.0

-155548.52156315086 3.85084650730321e6 0.0
3.85084650730321e6 -127816.08108656923 0.0
0.0 0.0 0.0

-324645.6031189756 1.3349687857103029e6 0.0
1.3349687857103029e6 54148.10643811624 0.0
0.0 0.0 0.0

-216665.3959433329 651780.962498071 0.0
651780.962498071 109322.84318456578 0.0
0.0 0.0 0.0

-289670.8664875833 1.0838720502941606e6 0.0
1.0838720502941606e6 248739.71589709172 0.0
0.0 0.0 0.0

-286349.4376816114 1.0172438257011992e6 0.0
1.0172438257011992e6 -118570.5685229133 0.0
0.0 0.0 0.0

-1.0098134341511859e6 -100506.50148415702 0.0
-100506.50148415702 1.0711555600664269e6 0.0
0.0 0.0 0.0

-16404.427857179544 746640.6716589903 0.0
746640.6716589903 314971.79745723656 0.0
0.0 0.0 0.0

268253.71395630087 2.0299023324457798e6 0.0
2.0299023324457798e6 -338204.9627151205 0.0
0.0 0.0 0.0

-260370.30126168777 866964.2821667017 0.0
866964.2821667017 79219.93769155335 0.0
0.0 0.0 0.0

-498756.88586498704 6255.129716784805 0.0
6255.129716784805 502702.08881221106 0.0
0.0 0.0 0.0

-425911.28519177774 1.4928354593149503e6 0.0
1.4928354593149503e6 149938.64411863382 0.0
0.0 0.0 0.0

14823.13139976305 956123.0253217657 0.0
956123.0253217657 -164451.08863734404 0.0
0.0 0.0 0.0

-676061.168841672 340014.48931174265 0.0
340014.48931174265 578227.2710167577 0.0
0.0 0.0 0.0

372982.7884330413 780591.9359957088 0.0
780591.9359957088 -324994.1385277677 0.0
0.0 0.0 0.0

-319402.79761446326 303722.0749029087 0.0
303722.0749029087 241278.42300462187 0.0
0.0 0.0 0.0

22146.171741733473 330386.26656336454 0.0
330386.26656336454 414930.06950402434 0.0
0.0 0.0 0.0

590915.0928190136 257132.41865092414 0.0
257132.41865092414 -955353.371434489 0.0
0.0 0.0 0.0

8461.736262689708 1.2088624717723408e6 0.0
1.2088624717723408e6 -99428.28493420324 0.0
0.0 0.0 0.0

-261706.82899488666 1.000481178771573e6 0.0
1.000481178771573e6 -11088.173107614231 0.0
0.0 0.0 0.0

-336043.61591205565 1.1957005865185114e6 0.0
1.1957005865185114e6 87229.32312691936 0.0
0.0 0.0 0.0

160365.87329840698 2.712952465383219e6 0.0
2.712952465383219e6 -116689.16613206646 0.0
0.0 0.0 0.0

855759.2240636566 203317.46499620867 0.0
203317.46499620867 -1.1988349261668536e6 0.0
0.0 0.0 0.0

-286328.59674573236 -529668.0967794192 0.0
-529668.0967794192 470268.3597588297 0.0
0.0 0.0 0.0

615444.6107212079 214910.96589991965 0.0
214910.96589991965 -1.0839660690601156e6 0.0
0.0 0.0 0.0

-42466.81019667366 903703.3131782108 0.0
903703.3131782108 86391.90560045936 0.0
0.0 0.0 0.0

257173.45817839605 3.8572198369771545e6 0.0
3.8572198369771545e6 39785.50952709169 0.0
0.0 0.0 0.0

-517469.38114046544 1.563474237383119e6 0.0
1.563474237383119e6 237449.79991932918 0.0
0.0 0.0 0.0

-480359.05654610845 -79743.69962497137 0.0
-79743.69962497137 567138.067964716 0.0
0.0 0.0 0.0

850720.317130781 398290.6349924875 0.0
398290.6349924875 -1.166109317926773e6 0.0
0.0 0.0 0.0

98541.88865852263 3.184019813074674e6 0.0
3.184019813074674e6 -107228.00828835211 0.0
0.0 0.0 0.0

50597.0029234453 1.1745891680393706e6 0.0
1.1745891680393706e6 -123177.0520622814 0.0
0.0 0.0 0.0

664932.3064259149 276397.9708323209 0.0
276397.9708323209 -1.1357156715307173e6 0.0
0.0 0.0 0.0

-468578.3972538023 1.3086170375014672e6 0.0
1.3086170375014672e6 386324.5879953954 0.0
0.0 0.0 0.0

-216409.0069941001 1.8760911493424377e6 0.0
1.8760911493424377e6 214719.837393841 0.0
0.0 0.0 0.0

-1.39915122045091e6 1.3779709210231728e6 0.0
1.3779709210231728e6 1.5717315852068355e6 0.0
0.0 0.0 0.0

-210532.06702106073 878925.9957990162 0.0
878925.9957990162 506697.71021568694 0.0
0.0 0.0 0.0

342251.8030452223 609325.4618829881 0.0
609325.4618829881 -406469.0463301892 0.0
0.0 0.0 0.0

3.2284641206653216e6 2.173774733435136e6 0.0
2.173774733435136e6 -625720.8849541834 0.0
0.0 0.0 0.0

-245763.01835618407 1.3127095640482272e6 0.0
1.3127095640482272e6 313282.8621730721 0.0
0.0 0.0 0.0

-97561.51277852923 34734.18154274425 0.0
34734.18154274425 105448.37694073305 0.0
0.0 0.0 0.0

25312.98163043771 954387.7647711395 0.0
954387.7647711395 -74781.88310608505 0.0
0.0 0.0 0.0

168622.7460291099 784541.5851210868 0.0
784541.5851210868 -277863.7850383634 0.0
0.0 0.0 0.0

139872.18170230236 3.9073915478081447e6 0.0
3.9073915478081447e6 -126159.38580757726 0.0
0.0 0.0 0.0

-239115.3728869347 708414.551436553 0.0
708414.551436553 58829.58244291374 0.0
0.0 0.0 0.0

-920148.8259669759 26953.525132292183 0.0
26953.525132292183 844898.6403251362 0.0
0.0 0.0 0.0

-539244.8230244858 1.3846662899555578e6 0.0
1.3846662899555578e6 319698.8674648223 0.0
0.0 0.0 0.0

-107306.99354210078 1.1082111526548462e6 0.0
1.1082111526548462e6 183404.6594396028 0.0
0.0 0.0 0.0

-305530.9923122783 1.1835771595734926e6 0.0
1.1835771595734926e6 63685.51769101956 0.0
0.0 0.0 0.0

46285.51952022045 3.739322645796973e6 0.0
3.739322645796973e6 -48052.4345290834 0.0
0.0 0.0 0.0

-400941.63112383086 1.414562014896723e6 0.0
1.414562014896723e6 92247.23491813015 0.0
0.0 0.0 0.0

-48307.30728688187 1.0550843968048138e6 0.0
1.0550843968048138e6 -171276.95865346753 0.0
0.0 0.0 0.0

-70991.1158669649 982035.4381788915 0.0
982035.4381788915 256695.10825071583 0.0
0.0 0.0 0.0

-61130.17608999207 1.494497462631709e6 0.0
1.494497462631709e6 -86303.14038341226 0.0
0.0 0.0 0.0

281703.51417718956 665053.160808743 0.0
665053.160808743 -673176.4759706082 0.0
0.0 0.0 0.0

-4827.683723490893 1.1302245006378177e6 0.0
1.1302245006378177e6 -100869.50882884552 0.0
0.0 0.0 0.0

-316525.19688338845 1.0728559666065706e6 0.0
1.0728559666065706e6 -65622.04165181387 0.0
0.0 0.0 0.0

-358126.4481352779 1.2905681714546324e6 0.0
1.2905681714546324e6 457407.8891925252 0.0
0.0 0.0 0.0

110119.2464987971 2.695611583399187e6 0.0
2.695611583399187e6 -219517.21806796885 0.0
0.0 0.0 0.0

249627.97805767928 1.411480379129861e6 0.0
1.411480379129861e6 -426384.22384185693 0.0
0.0 0.0 0.0

997961.4362291032 197241.12499687992 0.0
197241.12499687992 -1.3713659256947986e6 0.0
0.0 0.0 0.0

-272348.7163932151 1.4315110554007161e6 0.0
1.4315110554007161e6 101829.44582152546 0.0
0.0 0.0 0.0

-76800.58515202807 1.1426137096435009e6 0.0
1.1426137096435009e6 140856.92069560717 0.0
0.0 0.0 0.0

-357109.46481910744 336307.34762793645 0.0
336307.34762793645 326089.5103074681 0.0
0.0 0.0 0.0

-212223.97375370908 641643.4836249179 0.0
641643.4836249179 66812.66296358433 0.0
0.0 0.0 0.0

-1712.6822491440653 1.2118084158384344e6 0.0
1.2118084158384344e6 -100970.52845188616 0.0
0.0 0.0 0.0

-391922.3457227808 322903.0017066699 0.0
322903.0017066699 220418.2079693973 0.0
0.0 0.0 0.0

-597841.1085737629 296287.1904588626 0.0
296287.1904588626 459082.64537852973 0.0
0.0 0.0 0.0

-270288.3791042435 243627.76508437138 0.0
243627.76508437138 102963.26978011645 0.0
0.0 0.0 0.0

-117759.69480691451 -51064.07438347164 0.0
-51064.07438347164 141999.76018551624 0.0
0.0 0.0 0.0

-228239.35905992927 789057.9051866098 0.0
789057.9051866098 192675.58890796197 0.0
0.0 0.0 0.0

299974.2484752465 590244.0624351506 0.0
590244.0624351506 -622590.2419126092 0.0
0.0 0.0 0.0

203802.50305058807 915271.6468093203 0.0
915271.6468093203 -390507.1181649114 0.0
0.0 0.0 0.0

-317716.80152358976 973304.5294141468 0.0
973304.5294141468 168129.8614441902 0.0
0.0 0.0 0.0

-1.1439026076117652e6 -31490.728960167806 0.0
-31490.728960167806 1.2125317972453055e6 0.0
0.0 0.0 0.0

246740.40079302195 983171.0727931348 0.0
983171.0727931348 -285652.7509023277 0.0
0.0 0.0 0.0

-387740.55253637873 2.393070723398081e6 0.0
2.393070723398081e6 13794.03974498043 0.0
0.0 0.0 0.0

-17977.804090513822 767846.6006400863 0.0
767846.6006400863 66165.39946213024 0.0
0.0 0.0 0.0

-108427.1570794433 -70432.27352003189 0.0
-70432.27352003189 106791.8371189573 0.0
0.0 0.0 0.0

-64618.91258838029 962835.8482410079 0.0
962835.8482410079 -189113.24444310676 0.0
0.0 0.0 0.0

-218769.5713761946 3.779390830244048e6 0.0
3.779390830244048e6 -244071.55482168472 0.0
0.0 0.0 0.0

-212518.3544287026 77939.27033505711 0.0
77939.27033505711 185765.0855655657 0.0
0.0 0.0 0.0

1.3087660864548194e6 192313.61827751048 0.0
192313.61827751048 -1.5506705509920788e6 0.0
0.0 0.0 0.0

-290875.98123707133 2.0448640151475966e6 0.0
2.0448640151475966e6 -507730.42962978926 0.0
0.0 0.0 0.0

-372829.27415390906 5457.006780045654 0.0
5457.006780045654 320499.7106881623 0.0
0.0 0.0 0.0

177848.2973497797 2.229872887489502e6 0.0
2.229872887489502e6 -173163.30541040748 0.0
0.0 0.0 0.0

-24543.707726703113 610712.7923773525 0.0
610712.7923773525 658375.9495588313 0.0
0.0 0.0 0.0

-54430.57004043264 546669.5844469062 0.0
546669.5844469062 -188145.16124340694 0.0
0.0 0.0 0.0

-280577.24040103034 1.6939488908089525e6 0.0
1.6939488908089525e6 169541.36935492395 0.0
0.0 0.0 0.0

-542442.5378462633 1.5523171425556068e6 0.0
1.5523171425556068e6 258357.51742518906 0.0
0.0 0.0 0.0

-106911.39175813893 42675.25016600613 0.0
42675.25016600613 66239.64555767723 0.0
0.0 0.0 0.0

-67189.6030471114 883438.003741433 0.0
883438.003741433 313531.48983710824 0.0
0.0 0.0 0.0

276241.59293170087 671473.0851894899 0.0
671473.0851894899 -502520.21710120386 0.0
0.0 0.0 0.0

-303301.5633942253 858092.5094464242 0.0
858092.5094464242 484097.53679058456 0.0
0.0 0.0 0.0

-303497.3196585376 -2907.40728129854 0.0
-2907.40728129854 316524.9731842946 0.0
0.0 0.0 0.0

-163238.77108149556 969311.9943786194 0.0
969311.9943786194 95541.39606651769 0.0
0.0 0.0 0.0

691069.7209341724 3.087744495280987e6 0.0
3.087744495280987e6 -234386.49615543452 0.0
0.0 0.0 0.0

-134579.72813974333 3.77768479893959e6 0.0
3.77768479893959e6 -118960.35155416379 0.0
0.0 0.0 0.0

344976.24736665253 757519.4384889948 0.0
757519.4384889948 -305617.27909192163 0.0
0.0 0.0 0.0

-222807.59567717655 875807.1698605221 0.0
875807.1698605221 211924.26030651928 0.0
0.0 0.0 0.0

-1.2330648442619445e6 -103642.4642787879 0.0
-103642.4642787879 1.3889035167043658e6 0.0
0.0 0.0 0.0

22234.278426217516 1.0945852095309184e6 0.0
1.0945852095309184e6 -80326.10873870633 0.0
0.0 0.0 0.0

-412007.180526312 1.5088993629647268e6 0.0
1.5088993629647268e6 156201.58177667356 0.0
0.0 0.0 0.0

354500.0450959905 545471.3283854402 0.0
545471.3283854402 -618043.0840932988 0.0
0.0 0.0 0.0

186320.3509943571 1.3905316532464563e6 0.0
1.3905316532464563e6 -267783.66281896114 0.0
0.0 0.0 0.0

189118.26769587342 1.349686094066157e6 0.0
1.349686094066157e6 -280612.56396096834 0.0
0.0 0.0 0.0

-791143.5711284624 180908.55419696102 0.0
180908.55419696102 871347.0175478564 0.0
0.0 0.0 0.0

-220086.11577700553 697643.9250308919 0.0
697643.9250308919 87801.45696722547 0.0
0.0 0.0 0.0

-5.811760331769679e6 232749.80480466658 0.0
232749.80480466658 5.301998948829172e6 0.0
0.0 0.0 0.0

1.523652633288233e6 904329.5315786642 0.0
904329.5315786642 -1.42192304102765e6 0.0
0.0 0.0 0.0

-212715.28656013182 891335.161983788 0.0
891335.161983788 53534.89264628482 0.0
0.0 0.0 0.0

-115200.8245764157 1.0939216213613169e6 0.0
1.0939216213613169e6 198009.05210415504 0.0
0.0 0.0 0.0

-285779.0971039649 784427.6338494436 0.0
784427.6338494436 483566.81400170526 0.0
0.0 0.0 0.0

-224965.07465038256 -30692.54095467665 0.0
-30692.54095467665 212656.16721436795 0.0
0.0 0.0 0.0

-307113.0666916605 356139.7149761594 0.0
356139.7149761594 133628.22698219685 0.0
0.0 0.0 0.0

-113098.48970671561 937286.0797978132 0.0
937286.0797978132 194086.0480600342 0.0
0.0 0.0 0.0

-285234.34010866657 13876.992340289808 0.0
13876.992340289808 323296.60958258825 0.0
0.0 0.0 0.0

269042.57987818227 2.295232979407724e6 0.0
2.295232979407724e6 -232319.1719020206 0.0
0.0 0.0 0.0

-88435.36189674182 795568.9465118472 0.0
795568.9465118472 566873.8453039217 0.0
0.0 0.0 0.0

-205222.71125639218 468933.64124852704 0.0
468933.64124852704 110388.9266430593 0.0
0.0 0.0 0.0

-962370.4205675359 1.3036019787094595e6 0.0
1.3036019787094595e6 1.207200734403819e6 0.0
0.0 0.0 0.0

-124671.40994185781 1.5113292793531506e6 0.0
1.5113292793531506e6 -206116.1238179778 0.0
0.0 0.0 0.0

-1021.496207260283 1.5089412147735718e6 0.0
1.5089412147735718e6 -71486.7478468682 0.0
0.0 0.0 0.0

-203443.75278047565 978600.8434830101 0.0
978600.8434830101 256155.2735135178 0.0
0.0 0.0 0.0

-81051.24976472207 1.1029895293939752e6 0.0
1.1029895293939752e6 105373.21871389277 0.0
0.0 0.0 0.0

-75367.19054054338 799024.1577459426 0.0
799024.1577459426 -129210.31572082527 0.0
0.0 0.0 0.0

55497.09800956027 1.5763525481014699e6 0.0
1.5763525481014699e6 -56773.363497707134 0.0
0.0 0.0 0.0

-92355.30898455888 1.0726165132911382e6 0.0
1.0726165132911382e6 236269.2602609294 0.0
0.0 0.0 0.0

188227.16716749824 3.7005711651723394e6 0.0
3.7005711651723394e6 16157.566368730557 0.0
0.0 0.0 0.0

-224428.9174876379 767988.7450106542 0.0
767988.7450106542 182544.66079182317 0.0
0.0 0.0 0.0

-474835.09592098347 1.550070868310621e6 0.0
1.550070868310621e6 257630.0235942187 0.0
0.0 0.0 0.0

367250.3507830819 668310.4071042472 0.0
668310.4071042472 -756578.6582001057 0.0
0.0 0.0 0.0

491954.8025566414 1.3095243451167124e6 0.0
1.3095243451167124e6 -710000.3931760846 0.0
0.0 0.0 0.0

-1.2792361972983514e6 886908.0504554802 0.0
886908.0504554802 1.5232393796592515e6 0.0
0.0 0.0 0.0

22014.181427239615 650688.3538080911 0.0
650688.3538080911 668620.9805487938 0.0
0.0 0.0 0.0

585494.9250333509 393702.7382963753 0.0
393702.7382963753 -1.0841580127091266e6 0.0
0.0 0.0 0.0

76337.30294810825 3.6636538523941063e6 0.0
3.6636538523941063e6 -40587.59316553024 0.0
0.0 0.0 0.0

96262.77648837416 3.4746846066008313e6 0.0
3.4746846066008313e6 -132235.53770395293 0.0
0.0 0.0 0.0

30610.802905885503 1.0806739719578198e6 0.0
1.0806739719578198e6 -167581.89272611827 0.0
0.0 0.0 0.0

112613.41998357531 2.2314778397435863e6 0.0
2.2314778397435863e6 -170514.6286463075 0.0
0.0 0.0 0.0

-1.1984417665151502e6 1.2984527794537747e6 0.0
1.2984527794537747e6 1.4756901644011375e6 0.0
0.0 0.0 0.0

-418493.1391106187 1.4986566189874983e6 0.0
1.4986566189874983e6 138699.39063241493 0.0
0.0 0.0 0.0

-197361.92608933212 1.0339104448770346e6 0.0
1.0339104448770346e6 252301.3474355993 0.0
0.0 0.0 0.0

1.1567564751821985e6 247553.90853801108 0.0
247553.90853801108 -1.452565854350978e6 0.0
0.0 0.0 0.0

113397.81505632246 4.203958728114508e6 0.0
4.203958728114508e6 -144166.53273188963 0.0
0.0 0.0 0.0

274712.79592880176 586178.629792137 0.0
586178.629792137 -534786.8761246203 0.0
0.0 0.0 0.0

92031.85811088736 4.1522136348272315e6 0.0
4.1522136348272315e6 -118691.92395494325 0.0
0.0 0.0 0.0

-75646.63107833572 799304.2428407656 0.0
799304.2428407656 -129603.25677074812 0.0
0.0 0.0 0.0

-18409.143550792534 908483.5804678637 0.0
908483.5804678637 348117.86172816664 0.0
0.0 0.0 0.0

-260134.90801371034 1.0251735977899567e6 0.0
1.0251735977899567e6 213387.3332603493 0.0
0.0 0.0 0.0

-292673.7068989465 -52437.15117468574 0.0
-52437.15117468574 266643.6810972164 0.0
0.0 0.0 0.0

181139.78305037794 3.9207943661899525e6 0.0
3.9207943661899525e6 -110415.52589331176 0.0
0.0 0.0 0.0

-1.122951317590259e6 572462.9394131735 0.0
572462.9394131735 767371.4760159258 0.0
0.0 0.0 0.0

-844359.4935207618 181960.34453882359 0.0
181960.34453882359 690577.5457639644 0.0
0.0 0.0 0.0

-129973.86941046476 1.1039255497171492e6 0.0
1.1039255497171492e6 175809.61288079817 0.0
0.0 0.0 0.0

-20856.744449725826 1.733560385101739e6 0.0
1.733560385101739e6 -97789.24469143063 0.0
0.0 0.0 0.0

1.2611864330765256e6 152080.20309067957 0.0
152080.20309067957 -1.608991039293531e6 0.0
0.0 0.0 0.0

-111833.10940417254 1.1271173033126518e6 0.0
1.1271173033126518e6 165126.51407266373 0.0
0.0 0.0 0.0

-975372.1880773725 -114977.2181893749 0.0
-114977.2181893749 1.0550939344831554e6 0.0
0.0 0.0 0.0

243097.36858494952 1.3043122280026958e6 0.0
1.3043122280026958e6 -1.5652997465172138e6 0.0
0.0 0.0 0.0

-426955.8608835472 2.000128385952492e6 0.0
2.000128385952492e6 5.491222598417911e6 0.0
0.0 0.0 0.0

275722.6041895889 588047.9752945965 0.0
588047.9752945965 -537986.6458896867 0.0
0.0 0.0 0.0

-27197.6677303741 -582762.3796328376 0.0
-582762.3796328376 377353.2651513709 0.0
0.0 0.0 0.0

-92409.37232420011 3.7810018772680406e6 0.0
3.7810018772680406e6 -91459.49442585486 0.0
0.0 0.0 0.0

-1.3396628128711567e6 -103824.6299213677 0.0
-103824.6299213677 1.4146141088054623e6 0.0
0.0 0.0 0.0

-129467.48852132392 1.1641559429341594e6 0.0
1.1641559429341594e6 -162389.66811167152 0.0
0.0 0.0 0.0

235831.44248240947 3.7637416351969577e6 0.0
3.7637416351969577e6 -56756.17283553265 0.0
0.0 0.0 0.0

117603.01540039892 2.4663947041867743e6 0.0
2.4663947041867743e6 -342658.0504088539 0.0
0.0 0.0 0.0

41788.313149034824 701716.6646100385 0.0
701716.6646100385 271977.23313499684 0.0
0.0 0.0 0.0

-79054.3855533922 1.1185463059449487e6 0.0
1.1185463059449487e6 121934.01663829345 0.0
0.0 0.0 0.0

-285301.5925763233 776983.4991221116 0.0
776983.4991221116 467997.82087759196 0.0
0.0 0.0 0.0

-373704.5219854121 1.3441756318797357e6 0.0
1.3441756318797357e6 158715.8321534823 0.0
0.0 0.0 0.0

-44167.60865183906 1.0089876433489111e6 0.0
1.0089876433489111e6 -36872.495651423786 0.0
0.0 0.0 0.0

-103032.28324161285 1.043085572572141e6 0.0
1.043085572572141e6 198529.08023449694 0.0
0.0 0.0 0.0

331117.3838201208 1.5089988200684623e6 0.0
1.5089988200684623e6 -327730.23574068514 0.0
0.0 0.0 0.0

172424.17496059573 2.0435444138379018e6 0.0
2.0435444138379018e6 -172966.0322999726 0.0
0.0 0.0 0.0

-1.3394398434704826e6 -83099.92637981841 0.0
-83099.92637981841 1.3495291875559308e6 0.0
0.0 0.0 0.0

-1.0963392886378767e6 1.483115275856842e6 0.0
1.483115275856842e6 1.0253584181495107e6 0.0
0.0 0.0 0.0

-480306.0518749871 1.1057042151524806e6 0.0
1.1057042151524806e6 486058.90896936326 0.0
0.0 0.0 0.0

-385488.209080398 762141.4208251088 0.0
762141.4208251088 386065.1428470798 0.0
0.0 0.0 0.0

-46720.37784018612 1.123700147029989e6 0.0
1.123700147029989e6 -94391.65017935856 0.0
0.0 0.0 0.0

-106382.75422181495 1.0262082586589241e6 0.0
1.0262082586589241e6 186613.2470304935 0.0
0.0 0.0 0.0

-311947.7394272215 806410.3739988188 0.0
806410.3739988188 62765.867646611645 0.0
0.0 0.0 0.0

-97937.79613234002 955583.7591406647 0.0
955583.7591406647 56465.75057447589 0.0
0.0 0.0 0.0

27886.617679888674 749195.5048305575 0.0
749195.5048305575 328357.70200525376 0.0
0.0 0.0 0.0

693793.5981565411 387220.1810431142 0.0
387220.1810431142 -1.0542762486846694e6 0.0
0.0 0.0 0.0

-701154.3252034426 201675.49470729887 0.0
201675.49470729887 734351.6837786218 0.0
0.0 0.0 0.0

-1.2726825876449817e6 -124152.55575296823 0.0
-124152.55575296823 1.3658389043479222e6 0.0
0.0 0.0 0.0

1.1528389643772251e6 259817.8852513535 0.0
259817.8852513535 -1.3705917246739552e6 0.0
0.0 0.0 0.0

-584661.6801950693 802252.4230323303 0.0
802252.4230323303 324446.4702099004 0.0
0.0 0.0 0.0

-773564.8141150795 -105663.95923846106 0.0
-105663.95923846106 853143.0868179572 0.0
0.0 0.0 0.0

-531139.4099642702 -91393.47088515402 0.0
-91393.47088515402 564302.7888047993 0.0
0.0 0.0 0.0

-132365.0273502565 1.0634516662192312e6 0.0
1.0634516662192312e6 -249946.93420249925 0.0
0.0 0.0 0.0

-416531.6391469763 -47623.44592457435 0.0
-47623.44592457435 494883.75497191475 0.0
0.0 0.0 0.0

410575.6795190971 4.315116858039165e6 0.0
4.315116858039165e6 134575.09248313867 0.0
0.0 0.0 0.0

-211538.31140068255 537022.6845729768 0.0
537022.6845729768 131144.91790600808 0.0
0.0 0.0 0.0

1.0732422793790507e6 326910.80766108335 0.0
326910.80766108335 -1.373911146782048e6 0.0
0.0 0.0 0.0

1.0847238151552957e6 210055.8193257259 0.0
210055.8193257259 -1.4783134110341812e6 0.0
0.0 0.0 0.0

-228063.7911276801 703966.8731519228 0.0
703966.8731519228 65216.17920633526 0.0
0.0 0.0 0.0

-503290.805562261 1.4029722020780807e6 0.0
1.4029722020780807e6 293893.2207464245 0.0
0.0 0.0 0.0

94678.97929874471 1.7194243666454174e6 0.0
1.7194243666454174e6 -141147.5178335511 0.0
0.0 0.0 0.0

-246341.8395038676 1.9203311533825833e6 0.0
1.9203311533825833e6 134126.40447833264 0.0
0.0 0.0 0.0

50228.03890336843 3.9463159068298517e6 0.0
3.9463159068298517e6 -186146.96362559393 0.0
0.0 0.0 0.0

-808599.889970276 -94205.35514577762 0.0
-94205.35514577762 855294.6092778218 0.0
0.0 0.0 0.0

-420324.64422012906 679511.889281696 0.0
679511.889281696 208041.56317918282 0.0
0.0 0.0 0.0

-409590.72050051566 1.3275765998856116e6 0.0
1.3275765998856116e6 140398.17137826266 0.0
0.0 0.0 0.0

-398920.4138969404 787541.8990241743 0.0
787541.8990241743 1.4654295544875935e6 0.0
0.0 0.0 0.0

133493.0061387875 4.197077058553119e6 0.0
4.197077058553119e6 -133712.10197672137 0.0
0.0 0.0 0.0

-29860.457610435165 1.2055286554032487e6 0.0
1.2055286554032487e6 -88112.10759839948 0.0
0.0 0.0 0.0

-219614.69785227705 827449.8574251767 0.0
827449.8574251767 311569.500119967 0.0
0.0 0.0 0.0

9786.949815834596 1.184662606439338e6 0.0
1.184662606439338e6 -130615.81994494902 0.0
0.0 0.0 0.0

-1.3777761869447485e6 632304.2072538481 0.0
632304.2072538481 -326374.0128149295 0.0
0.0 0.0 0.0

-248168.94465600312 496064.9206754261 0.0
496064.9206754261 63775.87666077251 0.0
0.0 0.0 0.0

-2927.4661426713465 1.216170187552946e6 0.0
1.216170187552946e6 -79087.21918105855 0.0
0.0 0.0 0.0

-214787.0794714371 875690.4002983202 0.0
875690.4002983202 258538.96071952657 0.0
0.0 0.0 0.0

36294.70278107507 3.3556615672797654e6 0.0
3.3556615672797654e6 -178950.25872828 0.0
0.0 0.0 0.0

1.2220500581323311e6 147095.74838454416 0.0
147095.74838454416 -1.4874924976385697e6 0.0
0.0 0.0 0.0

128639.37228089204 2.415157712836458e6 0.0
2.415157712836458e6 -137764.4309153189 0.0
0.0 0.0 0.0

-1.0358943250502385e6 1.478223161095525e6 0.0
1.478223161095525e6 1.0035324524992607e6 0.0
0.0 0.0 0.0

-284765.7892839773 1.073876059474486e6 0.0
1.073876059474486e6 269545.6207307766 0.0
0.0 0.0 0.0

-123668.19617599164 -44955.481982288584 0.0
-44955.481982288584 117035.94869601841 0.0
0.0 0.0 0.0

183544.99469033885 1.632248225479226e6 0.0
1.632248225479226e6 -262800.26664986205 0.0
0.0 0.0 0.0

-8271.51674701547 3.826890846347629e6 0.0
3.826890846347629e6 -257383.1076392522 0.0
0.0 0.0 0.0

-2.6274832485507047e6 427576.8749375187 0.0
427576.8749375187 1.08771121517475e6 0.0
0.0 0.0 0.0

78186.7912627374 666581.8299535854 0.0
666581.8299535854 20947.33067759118 0.0
0.0 0.0 0.0

685298.2888173305 365140.72619927407 0.0
365140.72619927407 -1.0871243443557266e6 0.0
0.0 0.0 0.0

280084.6554711504 1.561652667248872e6 0.0
1.561652667248872e6 -404687.03262910375 0.0
0.0 0.0 0.0

-92605.84488357278 1.137833645211673e6 0.0
1.137833645211673e6 176405.43775036183 0.0
0.0 0.0 0.0

-479957.9822185333 1.3850546653857727e6 0.0
1.3850546653857727e6 325118.3739598665 0.0
0.0 0.0 0.0

-77192.9222474242 3.7484246932475404e6 0.0
3.7484246932475404e6 -54346.7790123163 0.0
0.0 0.0 0.0

1.2148939930113708e6 190126.85591079775 0.0
190126.85591079775 -1.4335127330469794e6 0.0
0.0 0.0 0.0

-114909.8641875622 761966.6328299638 0.0
761966.6328299638 1.0717863518121592e6 0.0
0.0 0.0 0.0

-18153.749506858094 555424.7677200789 0.0
555424.7677200789 -147797.10732989988 0.0
0.0 0.0 0.0

-1.8217820401727813e6 1.0135156466527593e6 0.0
1.0135156466527593e6 2.1259630892073456e6 0.0
0.0 0.0 0.0

-373202.7024380646 -31716.904680898177 0.0
-31716.904680898177 347104.58179169986 0.0
0.0 0.0 0.0

-348460.79091137915 -37097.04697538081 0.0
-37097.04697538081 427407.22165548126 0.0
0.0 0.0 0.0

514922.39066111617 3.198329626436623e6 0.0
3.198329626436623e6 -24070.801933415758 0.0
0.0 0.0 0.0

-736764.2299322106 -89839.93975432611 0.0
-89839.93975432611 845400.4256073569 0.0
0.0 0.0 0.0

-41376.907634890835 702845.1441440322 0.0
702845.1441440322 -29019.21134321448 0.0
0.0 0.0 0.0

23569.89684716359 660206.8298529242 0.0
660206.8298529242 697072.5721073755 0.0
0.0 0.0 0.0

-414741.75952974305 3.111968467921863e6 0.0
3.111968467921863e6 -37716.41327071801 0.0
0.0 0.0 0.0

-1.9382186725069587e6 -107428.54354629393 0.0
-107428.54354629393 1.6924304407274937e6 0.0
0.0 0.0 0.0

312999.90738703206 561197.1473030492 0.0
561197.1473030492 -535019.4679209356 0.0
0.0 0.0 0.0

-192715.17979357886 1.1294994605539488e6 0.0
1.1294994605539488e6 -227308.90684418258 0.0
0.0 0.0 0.0

-92194.47595042209 1.1342515595389323e6 0.0
1.1342515595389323e6 134505.94773250708 0.0
0.0 0.0 0.0

-86075.46611817292 679233.2149850915 0.0
679233.2149850915 766663.2061747928 0.0
0.0 0.0 0.0

-801696.0425520054 -64535.94021497403 0.0
-64535.94021497403 814733.6725324353 0.0
0.0 0.0 0.0

-387042.88216304797 1.383476055998366e6 0.0
1.383476055998366e6 -215777.42010564066 0.0
0.0 0.0 0.0

-240673.7090323806 1.0300298148579688e6 0.0
1.0300298148579688e6 -40902.86203380649 0.0
0.0 0.0 0.0

275324.3169589344 1.8913226234443753e6 0.0
1.8913226234443753e6 426877.77480922244 0.0
0.0 0.0 0.0

-6536.318817501884 1.6009086723442385e6 0.0
1.6009086723442385e6 -95549.00719355686 0.0
0.0 0.0 0.0

-435143.39619128057 -45782.262838789946 0.0
-45782.262838789946 432710.84500487306 0.0
0.0 0.0 0.0

-2.1292912900698637e6 -122663.30010474836 0.0
-122663.30010474836 1.9603173325163783e6 0.0
0.0 0.0 0.0

-39008.29449546535 1.6097703135087623e6 0.0
1.6097703135087623e6 -78801.28772339087 0.0
0.0 0.0 0.0

262797.0719511402 2.512026169600945e6 0.0
2.512026169600945e6 -271804.1661859519 0.0
0.0 0.0 0.0

-1.8511818234603333e6 41869.326309192475 0.0
41869.326309192475 2.278778060713794e6 0.0
0.0 0.0 0.0

113889.31656614685 3.4073861406575693e6 0.0
3.4073861406575693e6 -102109.46971842594 0.0
0.0 0.0 0.0

5393.83509392885 663988.6943496452 0.0
663988.6943496452 340240.89617611247 0.0
0.0 0.0 0.0

-76202.324523527 57185.77138784455 0.0
57185.77138784455 -61013.461683297835 0.0
0.0 0.0 0.0

52458.2442977601 278052.61833653203 0.0
278052.61833653203 165631.4727847956 0.0
0.0 0.0 0.0

-118931.37568798839 178494.96686208263 0.0
178494.96686208263 4447.538856889565 0.0
0.0 0.0 0.0

