# vtk DataFile Version 2.0
phase field modeling fracture
ASCII
DATASET UNSTRUCTURED_GRID
POINTS 2538 float
0.0 0.0 0.0
10.0 0.0 0.0
0.0 10.0 0.0
10.0 10.0 0.0
0.0 4.9995 0.0
0.0 5.0005 0.0
5.0 5.0 0.0
0.9416964895726688 0.0 0.0
1.803581725054446 0.0 0.0
2.592419885431098 0.0 0.0
3.314401822861676 0.0 0.0
3.975193910351406 0.0 0.0
4.579982132660152 0.0 0.0
5.133512780936812 0.0 0.0
5.640130319506143 0.0 0.0
6.103810708661955 0.0 0.0
6.528192895506818 0.0 0.0
6.916607540127679 0.0 0.0
7.272102969376355 0.0 0.0
7.597469242948583 0.0 0.0
7.895259826292669 0.0 0.0
8.167811885738017 0.0 0.0
8.417264413845215 0.0 0.0
8.645575169389538 0.0 0.0
8.854535961159101 0.0 0.0
9.045786767735546 0.0 0.0
9.220828555767493 0.0 0.0
9.38103509633881 0.0 0.0
9.527663687265145 0.0 0.0
9.661865124984566 0.0 0.0
9.784692609918062 0.0 0.0
9.897110148790482 0.0 0.0
10.0 0.09999999999992584 0.0
10.0 0.199999999999856 0.0
10.0 0.2999999999997771 0.0
10.0 0.3999999999996677 0.0
10.0 0.4999999999995511 0.0
10.0 0.5999999999994683 0.0
10.0 0.6999999999993983 0.0
10.0 0.7999999999993286 0.0
10.0 0.8999999999992587 0.0
10.0 0.9999999999991888 0.0
10.0 1.099999999999119 0.0
10.0 1.199999999999033 0.0
10.0 1.299999999998852 0.0
10.0 1.399999999998576 0.0
10.0 1.499999999998284 0.0
10.0 1.599999999997992 0.0
10.0 1.6999999999977 0.0
10.0 1.799999999997408 0.0
10.0 1.899999999997116 0.0
10.0 1.999999999996825 0.0
10.0 2.099999999996533 0.0
10.0 2.199999999996241 0.0
10.0 2.299999999995949 0.0
10.0 2.399999999995657 0.0
10.0 2.499999999995365 0.0
10.0 2.599999999995073 0.0
10.0 2.699999999994782 0.0
10.0 2.79999999999449 0.0
10.0 2.899999999994198 0.0
10.0 2.999999999993906 0.0
10.0 3.099999999993614 0.0
10.0 3.199999999993322 0.0
10.0 3.299999999993029 0.0
10.0 3.399999999992738 0.0
10.0 3.499999999992446 0.0
10.0 3.599999999992154 0.0
10.0 3.699999999991863 0.0
10.0 3.799999999991571 0.0
10.0 3.899999999991278 0.0
10.0 3.999999999991022 0.0
10.0 4.099999999991035 0.0
10.0 4.199999999991187 0.0
10.0 4.299999999991338 0.0
10.0 4.399999999991491 0.0
10.0 4.499999999991642 0.0
10.0 4.599999999991795 0.0
10.0 4.699999999991947 0.0
10.0 4.799999999992099 0.0
10.0 4.89999999999225 0.0
10.0 4.999999999992403 0.0
10.0 5.099999999992555 0.0
10.0 5.199999999992706 0.0
10.0 5.299999999992858 0.0
10.0 5.39999999999301 0.0
10.0 5.499999999993161 0.0
10.0 5.599999999993313 0.0
10.0 5.699999999993466 0.0
10.0 5.799999999993618 0.0
10.0 5.899999999993771 0.0
10.0 5.999999999993922 0.0
10.0 6.099999999994074 0.0
10.0 6.199999999994227 0.0
10.0 6.299999999994378 0.0
10.0 6.39999999999453 0.0
10.0 6.499999999994682 0.0
10.0 6.599999999994833 0.0
10.0 6.699999999994986 0.0
10.0 6.799999999995138 0.0
10.0 6.899999999995289 0.0
10.0 6.999999999995442 0.0
10.0 7.099999999995594 0.0
10.0 7.199999999995747 0.0
10.0 7.299999999995897 0.0
10.0 7.39999999999605 0.0
10.0 7.499999999996202 0.0
10.0 7.599999999996353 0.0
10.0 7.699999999996505 0.0
10.0 7.799999999996658 0.0
10.0 7.899999999996808 0.0
10.0 7.999999999996962 0.0
10.0 8.099999999997113 0.0
10.0 8.199999999997265 0.0
10.0 8.299999999997418 0.0
10.0 8.399999999997569 0.0
10.0 8.499999999997721 0.0
10.0 8.599999999997873 0.0
10.0 8.699999999998024 0.0
10.0 8.799999999998176 0.0
10.0 8.899999999998329 0.0
10.0 8.99999999999848 0.0
10.0 9.099999999998634 0.0
10.0 9.199999999998786 0.0
10.0 9.299999999998937 0.0
10.0 9.399999999999089 0.0
10.0 9.499999999999241 0.0
10.0 9.599999999999392 0.0
10.0 9.699999999999545 0.0
10.0 9.799999999999697 0.0
10.0 9.899999999999848 0.0
9.897110148790565 10.0 0.0
9.784692609918244 10.0 0.0
9.66186512498486 10.0 0.0
9.527663687265571 10.0 0.0
9.381035096339392 10.0 0.0
9.220828555768257 10.0 0.0
9.045786767736512 10.0 0.0
8.854535961160305 10.0 0.0
8.645575169391027 10.0 0.0
8.417264413847017 10.0 0.0
8.167811885740178 10.0 0.0
7.895259826295246 10.0 0.0
7.597469242951631 10.0 0.0
7.272102969379938 10.0 0.0
6.916607540131873 10.0 0.0
6.528192895511704 10.0 0.0
6.103810708667616 10.0 0.0
5.640130319512691 10.0 0.0
5.13351278094435 10.0 0.0
4.579982132668816 10.0 0.0
3.975193910361222 10.0 0.0
3.314401822869852 10.0 0.0
2.592419885437257 10.0 0.0
1.803581725058137 10.0 0.0
0.9416964895740705 10.0 0.0
0.0 9.00010000000243 0.0
0.0 8.000200000005481 0.0
0.0 7.000300000005135 0.0
0.0 6.000400000002569 0.0
0.901790731451151 5.000409820926855 0.0
1.657200899774397 5.000334279910023 0.0
2.289991063707192 5.000271000893629 0.0
2.820065163538221 5.000217993483646 0.0
3.264096435579811 5.000173590356442 0.0
3.636051481595835 5.00013639485184 0.0
3.947629914072366 5.000105237008593 0.0
4.208632181002628 5.0000791367819 0.0
4.427267949625672 5.000057273205037 0.0
4.610414277633563 5.000038958572237 0.0
4.763831845154243 5.000023616815485 0.0
4.892346298799659 5.00001076537012 0.0
4.892346298799748 4.99998923462988 0.0
4.763831845154455 4.999976383184515 0.0
4.610414277633943 4.999961041427763 0.0
4.427267949626277 4.999942726794963 0.0
4.208632181003523 4.9999208632181 0.0
3.94762991407365 4.999894762991407 0.0
3.636051481597624 4.99986360514816 0.0
3.264096435582253 4.999826409643559 0.0
2.820065163541503 4.999782006516354 0.0
2.289991063711534 4.999728999106371 0.0
1.657200899778495 4.999665720089978 0.0
0.9017907314530094 4.999590179073145 0.0
0.0 3.999600000002013 0.0
0.0 2.999700000005187 0.0
0.0 1.99980000000512 0.0
0.0 0.9999000000025537 0.0
9.897889398521345 2.93573355845387 0.0
9.906568249974548 7.060009441434234 0.0
9.913122631074113 3.64016132281653 0.0
9.922462129543863 6.354535290629151 0.0
9.917693659967533 4.354211663134567 0.0
9.909873057440208 5.637584487339942 0.0
9.914183254994697 4.950672966925282 0.0
9.913885043715895 7.666887930262611 0.0
9.91009668007573 2.351889069770817 0.0
9.905135696074536 8.138152454502785 0.0
9.913397459621809 1.849999999997262 0.0
7.099302372137626 0.297750452375005 0.0
7.095143729410097 9.700359990366296 0.0
4.942912558701401 5.095838627899509 0.0
4.315009232304429 5.165022115481685 0.0
4.946182472483878 4.906763777264103 0.0
4.317967462990024 4.825955043772673 0.0
9.916390871492647 8.64999999999792 0.0
9.921504649680616 1.368376469890358 0.0
8.292538149791614 0.206877570318844 0.0
8.292538149793597 9.793122429681448 0.0
5.884594439766573 9.587645267048616 0.0
5.794826292691579 0.3794853783929359 0.0
9.913397459621425 9.049999999998557 0.0
9.908526577714177 0.9568239351922434 0.0
3.456851160380649 5.315740054130451 0.0
3.457889657868442 4.707121019609468 0.0
8.945214200703926 0.1503383337970344 0.0
8.950161364448409 9.8413906539257 0.0
9.913862335499305 4.055887885208452 0.0
9.916697353372683 4.650158482607802 0.0
9.919076340414442 6.049999999994006 0.0
9.906994308667635 5.25749687748192 0.0
9.917490342358025 6.655979201891897 0.0
9.915757520293784 7.343848891656911 0.0
9.910049507471042 3.363474386285078 0.0
9.914471988502868 2.647400064832979 0.0
9.91474124160965 9.337490423485129 0.0
9.916971008170838 0.6499999999994355 0.0
4.307157269264427 9.509674045029644 0.0
4.331527375865619 0.4401616696422582 0.0
9.45434939180249 9.878397030523757 0.0
9.457696120412969 0.1270877537061785 0.0
2.555070293622606 5.422044496190925 0.0
2.566232917480916 4.608001224030952 0.0
3.026511860837692 9.332320638257093 0.0
2.945561971800619 0.5895662714727601 0.0
7.7395404387124 0.2511088946967771 0.0
7.736379255744154 9.745848826372828 0.0
4.687135269408529 5.122111433928926 0.0
4.688420821504113 4.871895064967488 0.0
9.910554884115975 0.3448356354522978 0.0
9.911230082250466 9.65764729394159 0.0
9.921953841410854 6.851023993342036 0.0
9.912065178606017 5.448170483544033 0.0
9.911660025326261 3.861846960030188 0.0
9.914847467973438 3.14501593945607 0.0
9.913397459621425 5.849999999993703 0.0
9.913397459621425 7.849999999996735 0.0
9.906916878988277 2.15455769998631 0.0
9.913397459621425 8.349999999997479 0.0
9.909472363117661 1.640528221515488 0.0
9.913987325695956 1.152857110636247 0.0
9.913397459621425 8.849999999998241 0.0
0.9100099990995943 2.614215977520411 0.0
0.8395284981715456 7.451196254860987 0.0
9.723278867451556 9.898135916635193 0.0
9.723316350887044 0.09841820909386662 0.0
1.385819164827588 4.454539963646463 0.0
1.338343629665047 5.523111536005823 0.0
1.377179700550677 0.6809168304959698 0.0
1.418060461092743 9.285896715136046 0.0
9.91268220142518 0.1457914080939694 0.0
9.906737126737994 9.845745933882352 0.0
0.7108351382691361 6.537941170074089 0.0
1.527735020267026 6.915620208855231 0.0
1.630993885659103 7.838271825205868 0.0
2.232760943566823 7.370850737296832 0.0
2.243414218068206 6.688299277952821 0.0
2.779655053105118 7.021588754814074 0.0
2.80227799359795 7.632420170547022 0.0
3.282022065908813 7.305859666021318 0.0
3.327597298795347 7.857554136825748 0.0
3.743210251018715 7.549183328204379 0.0
3.716353232200752 7.062036086888612 0.0
4.111978858674101 7.27497101169417 0.0
4.104192177581432 6.879858986267289 0.0
4.436230765617037 7.045693351607117 0.0
4.430360014817357 6.703971783962796 0.0
4.732390145036301 6.849841042423394 0.0
5.056161327708878 5.095276573498806 0.0
5.111586796021131 4.999081142133581 0.0
5.169267363407189 5.09444870412406 0.0
5.223795108752053 4.996986220359468 0.0
5.281480803887719 5.092780870372803 0.0
5.335670761900611 4.994887492556936 0.0
5.393485214772442 5.090486192743301 0.0
5.447323082877892 4.992601527033996 0.0
5.505243219343024 5.087953380710069 0.0
5.558739102026105 4.990287787962959 0.0
5.616491581184779 5.085335255235766 0.0
5.669852346908056 4.9879269227514 0.0
5.727502713908907 5.082679981817038 0.0
5.780766004135139 4.988313988715834 0.0
5.838244881129535 5.080480568766611 0.0
5.891357695677371 4.986433849408193 0.0
5.948696036767613 5.077969900389505 0.0
6.001601341641615 4.981313698556656 0.0
6.058851024265095 5.074871552128682 0.0
6.111614020704875 4.978360695880202 0.0
6.168801161530775 5.072044953270978 0.0
6.221368818778567 4.975825765213497 0.0
6.278268309066882 5.066182320461055 0.0
6.330814273567539 4.972837984645718 0.0
6.387565032421376 5.062889771971895 0.0
6.437476667631405 4.971693683589553 0.0
6.496181111585419 5.060210690175857 0.0
6.539454812256072 4.964658165361536 0.0
6.604198202576491 5.056387520850258 0.0
6.648506025747331 4.939374587506267 0.0
6.714026758992516 5.05873885840664 0.0
6.764418045981209 4.959246676066148 0.0
6.8219334571197 5.055299567406268 0.0
6.873708540948134 4.960426349093742 0.0
6.930181428849307 5.053461390218819 0.0
6.981893615341967 4.96435459462232 0.0
7.037791764774784 5.051219747103022 0.0
7.090993561518408 4.96392420322464 0.0
5.504417457283294 4.900897920552702 0.0
7.145434864123609 5.048960634292441 0.0
6.054532384032612 4.883956083938546 0.0
6.738027949040956 4.850032323068674 0.0
7.198432914526514 4.956325226333323 0.0
7.252637187936749 5.046012229327236 0.0
7.30926729605109 4.948903216650376 0.0
7.248106275544042 4.860306312845646 0.0
7.363100274863074 4.849952416808486 0.0
7.365733472701664 5.039519554615095 0.0
7.308483293090149 5.137557220352172 0.0
6.768399513646964 5.145609705119954 0.0
7.422800035311104 5.132251445551834 0.0
7.358273518796229 5.235980394389298 0.0
7.480824155801127 5.227946127939927 0.0
7.302193400058628 4.761917474298247 0.0
7.413570879789824 4.754555110721153 0.0
7.414392998903179 5.334729114426734 0.0
7.352769630272076 4.660405502266205 0.0
7.467556835255426 4.658352623795039 0.0
7.536246869015014 5.328986926716081 0.0
7.478865844607288 5.432598185493195 0.0
7.406396991826072 4.556956233957538 0.0
7.523581002009154 4.552005631348623 0.0
7.597792398573263 5.429506106314967 0.0
7.540511043402902 5.53619421580439 0.0
7.46214474876342 4.452580994318881 0.0
7.5852185078634 4.446021810672608 0.0
7.663329342323453 5.533453399066901 0.0
7.603478967594521 5.643227430483237 0.0
7.513450346818673 4.347641323140766 0.0
7.640744971722214 4.333388343316237 0.0
7.727671715775243 5.642390483050116 0.0
7.667774597993788 5.753188858425915 0.0
7.570065256728661 4.230515669344811 0.0
7.702881065467917 4.218307808529532 0.0
7.638288257073729 4.107994211855027 0.0
7.493362356301017 4.120843902105771 0.0
7.779018500630071 5.521233457321821 0.0
7.794641287388929 5.752364621610818 0.0
7.73369774483611 5.865894287356292 0.0
7.600834531784728 5.867752110500446 0.0
6.233038857278689 5.15645045634683 0.0
7.669727996028819 5.985665563643058 0.0
7.528582452554481 5.987393423295551 0.0
7.598722674572824 6.11001923494443 0.0
7.778305000222867 4.104318908265786 0.0
7.704329019832056 3.987744174608892 0.0
7.838453459801382 4.213322728668484 0.0
7.864495721576461 5.862306066517277 0.0
7.846552353360407 3.98481756181946 0.0
7.769730409703277 3.86544808681145 0.0
5.785249360396857 5.177248808588045 0.0
7.908837087876153 3.861484036275285 0.0
7.834824606222196 3.740586825753288 0.0
7.97685993406276 3.736209527152902 0.0
7.89665098770825 3.615501862931453 0.0
7.753228010315262 3.617800245018972 0.0
7.826063013090472 3.483173292579822 0.0
7.66789744383048 3.48859328808356 0.0
8.042515855796823 3.595394268381807 0.0
7.75200750488492 3.341279823834038 0.0
7.582870318332553 3.346584916806707 0.0
8.120807847415062 3.732493963388337 0.0
8.189783970303546 3.61159165475499 0.0
7.657801000286734 3.200439907646711 0.0
7.486781956172036 3.201402473247712 0.0
7.452595103886905 6.11418616185016 0.0
7.527098033550077 6.243191052852112 0.0
8.260502906807751 3.728437634721859 0.0
8.327629317451398 3.608173631356984 0.0
7.372763970891452 6.247552889754036 0.0
7.456170570815929 6.384992468962936 0.0
7.621837793616884 6.376077080857113 0.0
7.548039512904141 6.520750676893614 0.0
7.717475944451644 6.514856553988943 0.0
7.636658166268699 6.661648164052906 0.0
7.807468267259438 6.664076174524672 0.0
7.718022764310774 6.817938967122142 0.0
7.887785766941087 6.807440365887151 0.0
7.545993589083432 6.815070675854734 0.0
7.809874785067209 6.967537287475282 0.0
7.975643812145337 6.948729406725126 0.0
8.396477808021062 3.725446935061211 0.0
7.565651643157136 3.044354774611752 0.0
7.384328725505071 3.043048915147076 0.0
8.056405351948353 6.802790889114673 0.0
8.14128318237188 6.940027831915737 0.0
8.064621760266059 7.086348792208953 0.0
8.225003598857908 6.805225152373254 0.0
8.463085452993242 3.606998510553562 0.0
8.230426869720718 7.079551841000411 0.0
8.155262284174286 7.224761758176069 0.0
8.530696760758996 3.721683301125054 0.0
8.596669886994064 3.604516769862316 0.0
8.528531058025589 3.490411531312337 0.0
8.320451770844851 7.218191678954744 0.0
8.245273958732774 7.363444652121271 0.0
8.66324687389452 3.717094013035765 0.0
8.600103125209296 3.831913857228569 0.0
8.662131102573216 3.488322280861316 0.0
8.594166125380536 3.374071873435548 0.0
8.411074336066186 7.353871649576861 0.0
8.339644223432472 7.505172120620427 0.0
8.165883718619623 7.513159193685373 0.0
8.483453820080417 7.2082285366806 0.0
8.261200365730348 7.657400951288149 0.0
8.081570576666843 7.670933304838066 0.0
7.471613195794025 2.872548423100142 0.0
7.268733678357991 2.881209199257603 0.0
7.184255506995786 3.084448584600423 0.0
7.065899603697895 2.883902449336828 0.0
6.960163891183182 3.081014635802978 0.0
6.847612128388715 2.885646860602812 0.0
6.739800729737967 3.078895733381448 0.0
8.729373804596847 3.827689165637365 0.0
8.668550856907444 3.938702277545298 0.0
8.72770789162863 3.371798381178293 0.0
8.659764090070603 3.257493349874974 0.0
8.436453928793245 7.648724489148887 0.0
6.619080287792762 2.90880017416788 0.0
6.511740956842646 3.09340654756684 0.0
8.793527829963288 3.935174834810256 0.0
8.736430500996828 4.042719556852617 0.0
7.631260330584174 4.565300771328012 0.0
8.359058396840432 7.801678182761817 0.0
5.339436215072359 5.184870243702279 0.0
4.994031736761993 5.193306795607908 0.0
6.383387675268097 4.87760645722207 0.0
7.29117392392962 6.382172868329505 0.0
6.378196825372041 2.907113079755629 0.0
6.269817199014261 3.12412150658573 0.0
8.793149127377946 3.255386294257182 0.0
8.725774239201558 3.141596687892195 0.0
8.857434600673502 4.041295940541356 0.0
8.802868937128341 4.1471119953668 0.0
8.532045262478793 7.7905977476835 0.0
7.364542641624493 2.699128473342751 0.0
7.571677611088925 2.695732556686516 0.0
6.723058333614999 2.672341359410618 0.0
8.456744924757372 7.94483904450548 0.0
6.140831279784704 2.921247401137864 0.0
6.02419219050745 3.14358702955763 0.0
8.916255604212301 3.934279868822481 0.0
8.859287250884009 3.140226640574265 0.0
8.791092798057303 3.025929352146465 0.0
7.210445465986021 6.245773134960393 0.0
7.120884161792869 6.385155584680196 0.0
7.036931702064287 6.240721609143972 0.0
6.943722280007011 6.3869279517155 0.0
8.920094519678617 4.144837222494242 0.0
8.864374107136287 4.250930406527029 0.0
7.347569838739255 4.463467417508182 0.0
5.90383431757064 2.935113219563906 0.0
5.783476009580765 3.156456199832474 0.0
8.626013191558314 7.935092223505354 0.0
8.687240186957197 7.796697889991163 0.0
5.642059327424706 2.903018174330269 0.0
5.52647853955939 3.162549070310043 0.0
8.555300051897738 8.086169516016518 0.0
8.405624441178524 8.083972416481254 0.0
5.374124307190728 2.945480555950917 0.0
8.935805220807357 3.249260758206028 0.0
8.981625171409894 4.247375537584228 0.0
8.924725364486765 4.352101286657735 0.0
8.807208588134106 4.356163101450244 0.0
8.868277832430604 4.45657124153171 0.0
8.75099635287701 4.460644845248524 0.0
8.812385950597063 4.560891222623518 0.0
8.693833206943118 4.564602972998703 0.0
8.756474732548273 4.665720853686476 0.0
8.63721608225855 4.669394550615355 0.0
8.700108119351134 4.770682016274914 0.0
8.81920502916846 4.767536120893284 0.0
8.76355311338807 4.871451945248518 0.0
8.881442328033694 4.868382238751069 0.0
8.826433523510634 4.97132552240372 0.0
8.943387824985514 4.967694248194483 0.0
8.888718468126953 5.071044784833541 0.0
8.580377663835254 4.774669738817985 0.0
8.770572242937233 5.073880380431421 0.0
8.832915096600454 5.174518948293615 0.0
8.952224483821848 5.170970838320107 0.0
8.897282771771884 5.275476392171722 0.0
7.463928467290875 2.513944501591933 0.0
7.675935950092034 2.509420347143072 0.0
8.924252417741767 3.024418701372628 0.0
8.857265893102921 2.911213535286156 0.0
8.776981063213334 5.27944309004916 0.0
8.840710910770163 5.380165700477552 0.0
8.960876896785969 5.375521424256389 0.0
8.904555918255223 5.482125846038813 0.0
7.567193097677677 2.32750151280277 0.0
7.780880844888839 2.323064027160363 0.0
6.851602118390116 6.234522818184622 0.0
6.758680682687229 6.389359516748128 0.0
6.66345977321418 6.231254850996584 0.0
8.715764716958308 8.079994249772627 0.0
8.65189989696114 8.227534663647639 0.0
9.042229096541828 4.348551764001607 0.0
6.436774206993324 3.316782326998922 0.0
7.590527613340588 5.22651784724799 0.0
9.024366884701616 5.476726561488805 0.0
8.968734351641839 5.583879050892151 0.0
8.845941080047659 5.586406316932274 0.0
8.909881305857882 5.690482454668167 0.0
7.348726871578975 5.44047403999932 0.0
6.567070253986433 6.398115757512583 0.0
6.697077150072261 6.553426749743366 0.0
5.252377383990728 3.187782967482479 0.0
8.988440431820699 2.908621158637298 0.0
8.922541972760119 2.796420836075996 0.0
6.466806010659505 6.229115583261771 0.0
9.033851153821296 5.686506775615425 0.0
8.978340519963718 5.795772485582058 0.0
8.85111463793018 5.798672910287243 0.0
8.922171984280597 5.907237880910408 0.0
8.795190680908043 5.911854068712683 0.0
8.864373398892472 6.019728357749566 0.0
8.991346995940626 6.014539153309398 0.0
8.93374019140187 6.12698887312768 0.0
5.095192648098848 2.952353430985476 0.0
7.672651464908932 2.141715359830917 0.0
7.886266921042761 2.136211284120189 0.0
9.098474286589756 4.245971410451114 0.0
8.813172564986438 8.216887361735234 0.0
8.74802978243154 8.366104673219047 0.0
9.059985162956899 6.120982589539211 0.0
9.00342813739303 6.233245043891739 0.0
4.961413514304496 3.214209167276753 0.0
9.05248113004685 2.794651022570942 0.0
8.986028039118027 2.681341972594222 0.0
5.671890458441996 3.377122473800023 0.0
4.755829262593116 7.184480462344647 0.0
9.158258644940048 4.34465968221255 0.0
4.799687186662534 2.961354824469195 0.0
6.030554747591715 2.726787502996874 0.0
8.938327180212585 8.34758372042188 0.0
8.847392320655468 8.503370672816716 0.0
8.67342124373679 8.518117686968314 0.0
5.234423106934083 2.694925204361751 0.0
8.964923046453565 8.185313058214797 0.0
7.456650986668838 2.134076476407834 0.0
9.111732084821366 2.897226832609386 0.0
6.368055837513985 6.402805870976705 0.0
6.265629899005033 6.226581076317183 0.0
8.736327196352686 6.026404178766982 0.0
9.117473097358854 2.67987006607594 0.0
9.052137415465204 2.565428515518978 0.0
7.781001557847192 1.955874236406257 0.0
7.992134447300669 1.949184538864554 0.0
8.593074792993455 3.143159483125708 0.0
9.1291360203536 6.226877897052981 0.0
9.072154326613617 6.338696745620542 0.0
8.916532550320525 2.566986282201109 0.0
8.984021113721658 2.449252898983242 0.0
9.178032243215632 6.120533546076094 0.0
9.213703592343162 4.244823670856978 0.0
9.11972142641474 2.449071238668887 0.0
9.052853896812186 2.33190758581705 0.0
8.635035926402708 4.462329956179506 0.0
8.773614475966344 8.657865377672689 0.0
8.596400917257634 8.67759750279447 0.0
8.942023339420883 8.644678093589654 0.0
9.19471670675691 6.33096438039349 0.0
9.138460613363325 6.443043552768813 0.0
8.66620319432524 5.916297234509582 0.0
8.606669825267202 6.032658196729024 0.0
9.27222540210304 4.341341907533128 0.0
9.013782808177437 6.451040569407859 0.0
9.08360982569773 6.55729980456602 0.0
7.885622149776354 1.768093045890686 0.0
8.095672144455353 1.768790621151345 0.0
9.208772072925791 6.549717411809656 0.0
9.154272208194383 6.662613503537815 0.0
9.187669783927937 2.334640996932141 0.0
9.122379015831417 2.215832190697178 0.0
6.164077036161143 6.404611236428829 0.0
6.062367614988677 6.224307160647549 0.0
8.987075041759633 2.211477580983978 0.0
9.056972755801603 2.093573581203428 0.0
9.194557288902232 2.096029761809264 0.0
9.131223008370409 1.972713028695079 0.0
8.87381302587057 8.795793668920256 0.0
9.039169086943392 8.781606667490083 0.0
4.662813350519927 3.228118291851354 0.0
4.474181267994617 2.945703616023359 0.0
6.562627723301209 6.075544382232434 0.0
9.326886053211574 4.243083624343211 0.0
9.280374192897945 6.656072830232892 0.0
9.224718905178564 6.766740750539347 0.0
4.703284910421452 6.528907865005451 0.0
8.955136474970331 6.565989985649191 0.0
8.998148826814893 4.865480736169776 0.0
8.99429836796776 1.965972383552685 0.0
9.065669391141741 1.847195105148808 0.0
9.207236162050343 1.853010386995843 0.0
9.143218073349985 1.725630086781897 0.0
8.998867447699345 1.719378449325465 0.0
9.082595782768397 1.592017827427701 0.0
8.92804562738841 1.585238202229766 0.0
9.01637794607019 1.453847302675876 0.0
8.854253119154375 1.446306868730686 0.0
8.941620273019874 1.320083886766936 0.0
8.775393064215876 1.308487027359826 0.0
9.102170347200483 1.324733726345249 0.0
9.013857060361985 1.178821526410403 0.0
7.991031819452564 1.587689878441685 0.0
7.767218744640202 1.595993197647291 0.0
9.191539171305216 1.194087248761656 0.0
9.123965901037613 1.057102462689568 0.0
4.853921953226772 3.470213116851758 0.0
7.496563223334782 3.470157221608763 0.0
8.536691379028115 5.921845852206257 0.0
8.475496498707471 6.037633662010236 0.0
7.978668526342969 2.307231488316941 0.0
9.384721922092124 4.337357165846226 0.0
9.331039180200886 4.435926256444196 0.0
8.546261775564837 6.150267290476958 0.0
8.411727261785726 6.155319300628062 0.0
8.972203609044218 8.930944433074036 0.0
9.133480321468399 8.90955269607895 0.0
9.197778815538276 8.768743880012563 0.0
6.162231825784922 6.05277753404107 0.0
5.962111081146334 6.046949845237622 0.0
9.268727788642101 4.146883230687689 0.0
9.380694211527906 4.144811697563401 0.0
9.323823335199954 4.049557759546529 0.0
9.283324894520613 1.736313094621396 0.0
5.858151623803662 6.22041808248046 0.0
5.759668475561988 6.038806123495502 0.0
7.836860473863919 3.191674397465999 0.0
9.348591928839294 6.75855034547469 0.0
9.293979592221298 6.870213350675044 0.0
9.170543172728557 6.879819332293818 0.0
9.240028263813034 6.983394994050525 0.0
4.347372565145963 3.312731475520695 0.0
4.114183445909965 2.96879678229065 0.0
8.616264880152233 4.042035981070631 0.0
9.403174760076901 6.650407069150438 0.0
4.173860112179449 7.723461240865885 0.0
9.365302975518428 6.973476802087294 0.0
9.312420275675276 7.088420778208979 0.0
9.184876614539778 7.0978133687822 0.0
9.25921281729617 7.204979813006656 0.0
9.12816413817609 7.21569648263899 0.0
9.203944409919862 7.322703303071253 0.0
9.334311975087337 7.311477957762272 0.0
9.280415785210538 7.428795599957155 0.0
9.274060219641907 1.066603180421249 0.0
9.211820491509728 0.9316562593680151 0.0
9.050684011148748 0.9017681241401576 0.0
9.441953732403995 4.432092590771756 0.0
9.394725873909666 4.526051349391942 0.0
9.43453556160865 4.048003950509361 0.0
9.378043599351757 3.952631412328806 0.0
9.289691247910705 8.890746792319852 0.0
9.228148443138926 9.030109127390128 0.0
4.440757888677695 6.389562448928118 0.0
4.689874463978985 6.239329075084555 0.0
4.291519540095677 2.622920583112654 0.0
3.886073352912894 2.632778677714434 0.0
9.344015622314338 1.202401041544343 0.0
8.193292196814806 3.849649660906171 0.0
6.960946604527747 6.07044529864598 0.0
9.347708267319902 8.756364147482309 0.0
6.826423138602714 3.261415861395883 0.0
6.06309517882478 5.884563187328262 0.0
9.4085057714426 7.414123963607981 0.0
9.356416821537886 7.532359471354527 0.0
5.042074134251055 6.938947182785697 0.0
5.063988238156824 7.311205832605263 0.0
3.946666851334923 3.30681624613374 0.0
8.189857914071878 1.939951128540477 0.0
7.880690277686857 1.38928908049477 0.0
7.63766396748483 1.399736360041063 0.0
9.345004233592562 1.857695941115052 0.0
9.440465164139875 7.085860901905448 0.0
7.918332480761888 5.744468010879592 0.0
9.08007135068879 5.372457017512481 0.0
8.78639561093144 3.718391405525285 0.0
9.356843485085705 0.9414458825132457 0.0
9.29705128845331 0.8103081541678832 0.0
9.251825423225316 2.451701826351773 0.0
8.483895366325516 6.270717564685176 0.0
8.346386886249478 6.275973306650227 0.0
9.493299170161215 4.138582531223591 0.0
5.321115649032961 7.117073603021904 0.0
5.354076009109965 7.436189411362466 0.0
5.597984079819928 7.254284331170681 0.0
5.644042313435943 7.564172740776336 0.0
5.383963016128051 7.753854027984002 0.0
5.681168258142109 7.880444993178456 0.0
5.935548099874979 7.687258900444162 0.0
5.979508404301389 7.994332725561488 0.0
6.21936843555201 7.802335560754011 0.0
6.267092590637372 8.104873033518185 0.0
6.498845418385807 7.917606504106031 0.0
6.544600005636809 8.209910620392591 0.0
6.77336078689533 8.027284686082275 0.0
6.814840179123049 8.311778392637773 0.0
6.721304148677048 7.737863326704131 0.0
7.031320924898797 8.1335673274533 0.0
7.077388928622946 8.403901803728003 0.0
5.417471987089176 8.090112295667405 0.0
8.845427688507666 2.446352368201366 0.0
9.318512319918124 2.339233739859646 0.0
9.380241452597096 2.451895615249572 0.0
7.283805558009199 8.237518806365102 0.0
7.329200330160381 8.497045124353782 0.0
7.233272584416691 7.991590926766813 0.0
9.142592248414191 5.471315142785471 0.0
9.196303265878848 5.36738298742727 0.0
9.25795832955665 5.465260877691205 0.0
9.310581303233182 5.36341558704714 0.0
9.371094700882272 5.459458038195667 0.0
9.422767107822985 5.360687090455724 0.0
9.36402660964156 5.264821436196721 0.0
9.474220736978928 5.262802348886269 0.0
9.41680330511366 5.169477108906666 0.0
5.168675939028436 4.895496152382537 0.0
9.482591449057548 5.454699312257291 0.0
9.431567605310825 5.552723344040521 0.0
7.531449703396948 4.741663470323411 0.0
8.517293123442691 4.672601123164268 0.0
8.459978676626639 4.778466809901586 0.0
8.396595115309985 4.67568709170855 0.0
8.338966609235166 4.782101664607259 0.0
8.275355646032752 4.678829956447008 0.0
8.217675280223542 4.785699596769931 0.0
8.28149024865807 4.888803783902183 0.0
8.16019781596952 4.892696417098926 0.0
8.22433278506531 4.995725219088695 0.0
8.102825704443651 4.999629142625341 0.0
8.166887930010795 5.098242831115916 0.0
8.034904900788316 4.896825406879729 0.0
8.15353539905931 4.682103688185489 0.0
8.211891449058882 4.574219757233394 0.0
8.290305306104333 5.094007100958221 0.0
8.225684228618732 5.201525567655179 0.0
9.444618942559746 2.343141375196729 0.0
6.929446520625337 4.868116916840016 0.0
5.737810725167649 4.893891407574175 0.0
8.720389971487277 5.38508368411851 0.0
8.805734920311323 8.951818172412821 0.0
8.905272694453211 9.083303226359831 0.0
6.006155038818204 5.171375272745409 0.0
6.431496448228514 5.152985998213245 0.0
9.052675024457304 7.106590131831544 0.0
7.740007013494393 6.09727525827826 0.0
9.375852260355511 9.013078430361404 0.0
9.32035844773103 9.14584923943073 0.0
6.989707597683965 5.146377438798643 0.0
9.488190206836386 3.951168069367155 0.0
9.432429152094464 3.855725756072153 0.0
5.568386402814275 5.185723849666124 0.0
9.525561551078322 5.166162126187324 0.0
9.465026391994275 5.072601962964018 0.0
9.320357339516937 3.857795423728873 0.0
9.375955927831914 3.759314274140895 0.0
9.261783786753899 3.761412578759438 0.0
9.31820665563318 3.661845422072752 0.0
9.431798673168924 3.660830894813109 0.0
9.374584413615914 3.563138564686839 0.0
9.48759661134647 3.562294297118573 0.0
9.431339678707085 3.464016717943268 0.0
9.417896212887529 1.746970678437863 0.0
8.731705369070733 9.110902182838881 0.0
5.652297951447118 6.21188565774667 0.0
5.569122518069258 6.024400786163834 0.0
8.257007204149394 3.505875091031567 0.0
8.717428603143034 2.925525757227976 0.0
6.882852832747376 8.57686572931064 0.0
6.337330066435714 8.416819098143066 0.0
9.50188906539997 4.521022403818629 0.0
9.453500859905136 4.617181635748691 0.0
9.46806769570129 6.749352117850711 0.0
8.836822104875719 1.72282859852854 0.0
7.481071063421426 5.64593758994851 0.0
5.668814988976305 5.86611128457842 0.0
5.487644760735084 5.847591822776978 0.0
8.993992818065195 7.228173913870249 0.0
7.98322414937693 7.229980191466666 0.0
9.22810751684646 7.54864871395298 0.0
9.304103360459063 7.654622011545798 0.0
9.432787371848761 7.633691049023619 0.0
9.382619818023882 7.759136995934441 0.0
7.239096822516492 4.679179578301165 0.0
9.47692479956498 1.861231395362419 0.0
8.041243110813022 5.095895152648969 0.0
6.190208781188077 7.509864122823853 0.0
9.283062812782122 4.549418667685757 0.0
9.503847665760087 2.450295046295932 0.0
9.443345385250678 2.557904120404248 0.0
9.52009568463353 6.644015937008899 0.0
9.203119005973903 3.662458522935253 0.0
8.406198651282708 5.92630414760378 0.0
8.467263597743843 5.811987729136874 0.0
9.461423029059445 9.128120577356565 0.0
9.408445330070542 9.26024300250086 0.0
9.266505293379728 9.277952925446408 0.0
4.14874709022218 3.631681332690154 0.0
9.437448107949258 0.8198473430736303 0.0
9.376993771693973 0.6910550697058979 0.0
9.22882356848217 0.6931820370818127 0.0
4.451823867195988 6.103664366188579 0.0
4.200031743909027 6.232039028149317 0.0
4.687154754667774 5.975132870483986 0.0
6.268889397098538 6.592235545990395 0.0
7.509366161722768 8.340075462391164 0.0
7.564775703413765 8.59800936579159 0.0
9.542148732924264 3.854614593058991 0.0
7.036231103929761 6.550562550831048 0.0
4.089373665437328 2.268193930262139 0.0
3.642558884866483 2.250386188148396 0.0
3.442182385618804 2.651948803899947 0.0
3.146832503011753 2.222630466765926 0.0
2.948870467975985 2.805088883766417 0.0
9.352005315330274 5.067356449300542 0.0
9.31729677031493 3.462944187594675 0.0
9.37428383619102 3.365546369736205 0.0
9.4883538239391 3.365384871181599 0.0
9.432147665178338 3.267287636377487 0.0
9.25034519267688 7.775848812012313 0.0
9.332091350002502 7.881724023243533 0.0
9.462101000264603 7.86490055671988 0.0
9.413353271651825 7.98561007219363 0.0
8.273592814723814 6.158623919352561 0.0
8.207135014732339 6.280394934566054 0.0
9.541483811580331 5.548224291759592 0.0
9.491365919893726 5.644847811894615 0.0
8.088095771120983 4.577581369371366 0.0
8.14760102783746 4.468303741922308 0.0
9.556217963323956 4.414867468889523 0.0
9.543667331547693 3.266908751519594 0.0
9.489307652535885 3.169908976697059 0.0
9.26285575842982 8.635341362685686 0.0
9.403220742003983 8.621447866627538 0.0
9.326013417886902 8.506778946171965 0.0
9.455477927154853 8.503896705359047 0.0
9.566646674069602 4.611465258087684 0.0
9.499341049870914 0.9352184973273918 0.0
8.683891958597638 1.444705608998412 0.0
8.599973456173778 1.287265568270043 0.0
7.760988189317371 1.175381292562583 0.0
7.50927661322749 1.171223823957793 0.0
7.380927152434357 1.411062577009695 0.0
7.242417847270241 1.170759311509981 0.0
7.107236746116019 1.421234419770886 0.0
6.960799033544566 1.169618322344823 0.0
6.817786081200392 1.434174581170586 0.0
9.48095050141868 8.738557748483624 0.0
9.319762046171894 3.263060331456388 0.0
8.920653400180534 7.117307656029475 0.0
9.452431221190624 6.544166520883111 0.0
9.571407933653493 6.540336592280795 0.0
9.507586285214174 6.443281357841339 0.0
9.575252974749443 5.070210512157044 0.0
5.755172844377253 6.370710487467459 0.0
9.541351959064952 7.969072511059531 0.0
9.354607289792183 9.3921968735401 0.0
9.495213435762107 9.37218405175897 0.0
3.77688136092967 3.643094492921176 0.0
5.460967180339239 6.159077196937325 0.0
8.656589552918996 5.283032675040985 0.0
8.599307076390474 5.387421722684671 0.0
9.584017606465821 5.263931993965828 0.0
9.51536593891754 4.977534386249715 0.0
7.788544970111893 2.70578432810479 0.0
7.381746833264364 8.755477463411431 0.0
7.615969996822885 8.852710176548548 0.0
7.783643411970649 8.691528137204457 0.0
7.845017394185501 8.938777577473743 0.0
8.570520580943368 7.342304222498308 0.0
9.103648004226827 5.781084627507008 0.0
8.338082930126799 5.815990105349368 0.0
8.930848895071895 4.561111316304916 0.0
7.381089602119859 5.983657236035151 0.0
8.42066837692862 6.393608568217351 0.0
8.888256157021065 6.459558428285236 0.0
8.826495664731354 6.575679897210801 0.0
4.22522220414496 5.921354747981145 0.0
3.943296448343383 6.075578573904587 0.0
9.563175937841836 2.554860696349795 0.0
9.505342423182917 2.656889632284623 0.0
6.660863480070611 1.168750929063519 0.0
6.518316961679488 1.436478598119306 0.0
6.683474168246802 1.694104067636375 0.0
6.376799057174731 1.707382100972048 0.0
6.205091481342603 1.443621641108414 0.0
6.058670988071357 1.728841803855816 0.0
5.877457486049096 1.454297236926778 0.0
5.724979192982589 1.756666409586195 0.0
5.529885788012015 1.462283739157555 0.0
9.514953777019835 0.7018468683209754 0.0
8.398665270372675 5.702731562702358 0.0
9.456442249775696 0.5772068858285652 0.0
9.565795671866349 2.345573662774494 0.0
8.830758563027459 9.247271599108435 0.0
8.523580738257648 4.88015211128435 0.0
5.580123316488715 5.701889892660689 0.0
5.398591029446707 5.685938459654249 0.0
5.367686360823392 1.778740548277203 0.0
9.546603444041448 1.754984055696778 0.0
9.489649223089446 1.641312329051244 0.0
9.617973952467912 3.363804764345866 0.0
9.584322830999731 6.729956156156573 0.0
9.597221861144487 3.948534024289882 0.0
9.49401963819799 8.089507968561776 0.0
9.207321074262563 9.416906871900888 0.0
8.27185428346661 4.464932191097996 0.0
8.207416067213774 4.35878753684812 0.0
8.332747746635944 4.354903699457511 0.0
3.990181919126853 3.930792395858886 0.0
8.267392138262498 4.254008221702929 0.0
7.997788712685495 1.196805377512679 0.0
9.600316638269724 5.639973985281733 0.0
9.550939606739425 5.737313319038155 0.0
9.44084303195315 5.74233753256161 0.0
9.50112296154558 5.834555019909565 0.0
8.897429225733994 6.685415510921676 0.0
8.762930941408914 6.695907295903629 0.0
8.654628175336732 9.278157371342388 0.0
8.544676900803436 9.133790942553834 0.0
5.294904777716057 5.855935872688884 0.0
5.216749389964556 5.66865685845661 0.0
9.508453581298625 2.239460033375932 0.0
9.599691370793206 3.169496930704394 0.0
9.546615051106684 3.073514534194011 0.0
7.484714626923596 5.028675123117963 0.0
9.588496050271255 7.850836295555126 0.0
5.153197381012662 1.471340286561097 0.0
9.433168304679345 3.071871997104804 0.0
9.610464706874994 5.829217654498672 0.0
9.561407772947403 5.926179534044419 0.0
8.273381980676042 5.705233340662362 0.0
8.330794188929296 5.594351887246082 0.0
8.207319603076424 5.596747949305344 0.0
7.251338559467102 5.233758892662348 0.0
8.708518799790543 1.130513882092466 0.0
9.590155250193266 0.5878623138195824 0.0
9.389919385420015 5.841079912164009 0.0
7.991397852194216 5.859910582924319 0.0
9.624951589233206 4.975554514425905 0.0
7.240016788025947 2.531866266726309 0.0
7.635666783493215 3.873554782053258 0.0
9.608476620993713 1.863530872936442 0.0
9.365330459496413 8.10677840682376 0.0
8.775076110585598 2.572737931759856 0.0
8.699389445914996 2.444602334375113 0.0
8.625078713232146 2.580891022578613 0.0
8.54447196848446 2.447624719286678 0.0
8.468898498943965 2.586757328881282 0.0
8.62282309213608 2.307826916202421 0.0
9.622102662978762 6.439307895185218 0.0
9.561995355724862 6.35103962032292 0.0
3.898245450818314 1.856155797593496 0.0
9.681759177700954 5.07069253017652 0.0
9.059254996454502 4.963357716933865 0.0
9.113144532326562 4.861710138088372 0.0
9.62140874877204 2.656009146517733 0.0
7.884510615470827 0.9666888912541309 0.0
8.14902661050739 1.005010215149227 0.0
8.491263206618079 8.527197931363634 0.0
8.408859203395778 8.697060715788105 0.0
6.54422152733529 1.954566069381189 0.0
9.563546573097593 2.755667904356369 0.0
9.453065492925557 2.761122255953964 0.0
9.676889098520615 2.755084315170127 0.0
9.678287124781653 2.556838324720633 0.0
2.60254317790297 2.278874965850319 0.0
9.211706272534968 4.050470567310489 0.0
8.526711683538949 5.698821878547752 0.0
8.296604023060945 8.533761944401608 0.0
9.649704314258118 5.543946557831669 0.0
9.651176136337964 3.85122804518279 0.0
9.44590154800397 9.498503704959054 0.0
9.580491248736612 9.476376347552954 0.0
4.3239388803087 3.921156392977062 0.0
9.65737873521736 3.075324100817917 0.0
8.128000846282253 6.160273991836929 0.0
8.06242981852327 6.292371360998262 0.0
8.500465019503922 1.442700595221201 0.0
9.615253212967009 1.649819368149096 0.0
9.561768620580791 1.538553925606111 0.0
9.435477757657937 1.527391516499924 0.0
9.627993450010088 2.242685831452484 0.0
9.5338252733548 0.4673994795805215 0.0
9.398055066504014 0.4589059948533885 0.0
9.669486082509058 5.920177035588319 0.0
9.621072177439727 6.016493814615133 0.0
9.506185962103057 6.018397021409126 0.0
9.196884440497488 7.898824858961557 0.0
9.112591143666748 7.789491461180181 0.0
9.664357762385308 7.950712034233033 0.0
8.46233617997115 2.308903464128035 0.0
8.547917980328803 2.169381684694277 0.0
8.139931430059324 6.410762600521521 0.0
7.672499127532963 9.099143622036436 0.0
7.91372855627271 9.178704612763656 0.0
8.463425076318451 9.290653726808348 0.0
9.643938029094286 9.335632419679458 0.0
9.647017668702574 0.7068996148634754 0.0
6.241662276606473 5.884018212993202 0.0
6.157742245066693 5.73500474100449 0.0
6.318815619949124 5.730068085823802 0.0
6.247706374231452 5.593094310939028 0.0
6.406948541886973 5.593272398468375 0.0
6.092564106310554 5.587409338401505 0.0
8.535507922245372 5.286142900439676 0.0
8.022959839404006 4.471630490587016 0.0
7.963561162854596 4.581393556789843 0.0
9.683487139413305 1.546750704925431 0.0
9.630761777960082 1.435922217091829 0.0
5.121714348989337 7.950140247572198 0.0
5.136464096196084 8.310254432483559 0.0
5.47349124035624 8.455234262268478 0.0
5.176273618280354 8.687190323573228 0.0
4.796664658962938 8.592678692862421 0.0
9.568705729418735 4.887269869750176 0.0
9.462711651199594 4.88832222094458 0.0
9.674903475028225 4.882285174433025 0.0
5.4996067353406 5.546583260717527 0.0
5.663632234555963 5.557613452957074 0.0
6.829408195405585 1.947174574944512 0.0
5.336529198289861 1.127585641139875 0.0
9.672387559812332 6.34138351957329 0.0
4.463988917379896 2.271060678869338 0.0
8.618048281355405 6.263841736419089 0.0
6.480949808711781 5.74815588680617 0.0
6.562207427719153 5.592185077216444 0.0
6.643040463857446 5.721233693378952 0.0
6.712825900331884 5.588664360236 0.0
6.79240375630333 5.711383948285569 0.0
6.86115931532141 5.584697050428064 0.0
6.939210100691576 5.704407337029545 0.0
7.007668476576536 5.580801046893123 0.0
7.084627386867475 5.702817970154801 0.0
6.633257976075473 5.460881327825488 0.0
6.931430743764456 5.461960451448691 0.0
9.682652370938209 6.533133024505995 0.0
8.761108695241376 9.450742747770144 0.0
9.146031326900015 3.764292700000154 0.0
9.089378801805193 3.661317181076136 0.0
9.514354521818781 8.994988681611192 0.0
8.157650730500988 4.262987189670279 0.0
6.329633198899328 5.4647789391701 0.0
2.340685767996258 2.811285337457589 0.0
7.379572471323651 0.9290892725587991 0.0
4.171878172186605 4.222320767259098 0.0
4.4876601621649 4.16473354200826 0.0
5.336389369563535 6.806464508860387 0.0
9.595468321212476 9.108133206829102 0.0
9.645038675267227 8.982113951305912 0.0
8.393140678816192 4.246338342095281 0.0
8.309440721624494 4.155300532283633 0.0
9.418269339704423 1.9925512363779 0.0
9.662781807969623 0.477809346089035 0.0
8.011297869803792 0.7518828483803571 0.0
8.250149975885678 0.7646904662196189 0.0
9.608674873602773 0.3618049194050078 0.0
8.692696069692623 6.582927327365709 0.0
8.628225948401226 6.705702462696891 0.0
8.701883181418305 6.822086652299242 0.0
8.559276855155542 6.829564723911442 0.0
7.069268463354993 5.459534423493629 0.0
2.654575201159115 3.323490466195074 0.0
3.610801136544596 4.044075244426243 0.0
8.263757217166944 5.48730323490738 0.0
8.138838162809126 5.491254533497952 0.0
7.90196833683664 4.477386962763833 0.0
7.987943097943191 3.978756490171551 0.0
9.704623491880403 3.945605151832784 0.0
9.461009573830147 7.301728818091931 0.0
9.532468631193666 7.399916015174975 0.0
9.582688928417856 7.292330983701011 0.0
9.652579613269625 7.387768793572397 0.0
9.699264016151023 7.282867433965265 0.0
9.633305589700536 7.188543855060478 0.0
9.505576100168666 6.961225778216469 0.0
9.43876966151099 6.342441564206569 0.0
4.908483672172518 6.098703904450545 0.0
9.135448256237908 5.269827196966999 0.0
5.905650502271389 2.025036080946255 0.0
9.709890722072377 9.452748507541063 0.0
9.663337613522643 9.572126259365891 0.0
9.603900123387826 7.495180532331903 0.0
9.720147629525837 7.483400774981126 0.0
9.674588415444239 7.588303295299578 0.0
9.653186673863587 4.039274180923234 0.0
9.053164539680804 4.764545162185531 0.0
9.164908495749003 4.763017269285045 0.0
9.226019227262443 4.858029410614327 0.0
8.809947621994619 3.4964384919072 0.0
9.10538997155458 4.665865142902959 0.0
9.331074106432244 5.748993480915537 0.0
9.055854333858068 7.918554535314415 0.0
9.446431573964945 8.209836764658437 0.0
9.573844810886287 8.191100251691205 0.0
9.309704769895653 8.244395007943949 0.0
7.240329561730736 1.676197957122907 0.0
9.543389817573933 3.660019800390455 0.0
9.598599341122098 3.563130123982772 0.0
9.652615161407017 3.658119804270645 0.0
9.706336063693934 3.564815526226687 0.0
8.632284427755456 6.946688912416058 0.0
9.682863230715835 2.349655023034811 0.0
9.571538455120994 2.142369886250143 0.0
8.090821900439733 9.017409120951333 0.0
6.812258669899192 0.9007667548831626 0.0
6.50135254578461 0.8974046495177885 0.0
9.598335906230732 6.246437748035812 0.0
9.719677442549804 6.253968775436637 0.0
8.593026822691716 5.180101360605356 0.0
5.537586126848265 8.836083861509138 0.0
9.688689404995035 2.143487155934306 0.0
2.821389253975936 6.507820864074362 0.0
9.176571289960709 8.507736431357309 0.0
2.918303740542162 8.256728920338826 0.0
3.428955230180972 8.401446814887457 0.0
8.490587404589881 6.715350139132777 0.0
8.86049054904785 7.243279881821806 0.0
8.93696309213556 7.356650230611625 0.0
3.951931175165697 5.78308550088855 0.0
3.65055612573298 5.91672400098539 0.0
3.668142216548471 6.247526235973777 0.0
9.717269848920886 5.821831227352286 0.0
9.708364917734201 3.164198601626433 0.0
8.45581975650687 4.569560863828342 0.0
8.204448312099833 6.040774355519757 0.0
8.65969449127868 5.485991799508151 0.0
9.707534571012967 5.634423933296901 0.0
9.62102991883279 2.849662850313935 0.0
9.144093558002634 3.560383427867003 0.0
8.29763273805118 1.77155302934031 0.0
5.280452715709455 9.01633391004168 0.0
8.984558945859158 6.99932633710603 0.0
8.4157550875812 1.275784953143711 0.0
2.068078118650995 3.355462780535101 0.0
9.205703884756806 5.568274778556933 0.0
9.745857863753141 7.178456670302003 0.0
9.681628895748586 7.081494416756802 0.0
8.875818787971069 6.240744812097083 0.0
7.993733797566922 6.414830952863579 0.0
8.462810157069566 3.377071044664789 0.0
9.29428363519789 4.759591981903337 0.0
7.933956818298286 5.97437536746848 0.0
9.028281726378319 3.558713145763133 0.0
9.083461773461467 3.455531762175701 0.0
9.73231939683535 2.849247643393067 0.0
6.70072305037728 2.192432536215492 0.0
6.423245125077639 2.212870246546939 0.0
4.931537051605536 1.135086496804522 0.0
4.746426561586179 1.500381091957315 0.0
9.707706579932626 7.836419656220658 0.0
8.590593344701457 1.595639668013959 0.0
8.708946574109854 2.1688179918246 0.0
8.634728854549891 2.028564483452208 0.0
9.230357659411311 8.129337203173913 0.0
9.102841374461482 4.452881308250647 0.0
8.472081531214734 5.388993924853032 0.0
4.925996806199801 5.844046944846857 0.0
4.702806345752284 5.745688656289065 0.0
4.884357002239844 5.633237011762874 0.0
4.709628434300812 5.536404116679045 0.0
4.530800966746534 5.627044171217377 0.0
6.040296145349247 6.603808099703576 0.0
6.162203578696918 6.795213950202512 0.0
5.923135943221574 6.824060069869489 0.0
6.046693245732212 7.010423490915212 0.0
6.297337598588478 6.979895528204233 0.0
7.760448385794147 0.7294020304851334 0.0
8.492228348169641 6.958778476405878 0.0
2.89219822877093 1.704113597264478 0.0
2.26178643438086 1.7814602252425 0.0
9.726968895980871 6.009547057102511 0.0
6.63195110828313 0.6072886418835157 0.0
7.984023036954866 7.515675826210831 0.0
7.893857204140559 7.681876703427663 0.0
7.778465117872411 7.537836322197895 0.0
7.998204230811618 7.844922503023499 0.0
7.798554315988981 7.858161805718108 0.0
7.917846202023782 8.03040048103727 0.0
8.547520504556728 2.721261126162116 0.0
8.39253850806587 2.732073315877738 0.0
8.306047241032278 2.59069854402512 0.0
8.233011054235162 2.739783364361515 0.0
8.318836035587811 2.879838477099622 0.0
8.159530874574331 2.888511553151382 0.0
8.245490421394788 3.024568439743106 0.0
9.759103003747676 3.077839427881478 0.0
8.083610090773394 3.033523757291178 0.0
8.174562583800352 3.166768504406541 0.0
6.046769434852523 1.155662270344939 0.0
6.968371001421964 2.176347877216873 0.0
8.324858098380334 3.152966249334499 0.0
8.145556596142626 2.609897633546475 0.0
8.970652052821418 7.804556541250797 0.0
9.033737629244714 7.681328986528639 0.0
9.62347010002576 4.796939565664328 0.0
9.72520380348743 4.790261082613535 0.0
4.882631186210167 5.455006233451049 0.0
4.618356368594037 3.933076284395493 0.0
4.748083507220199 4.151025177732873 0.0
4.641724290430313 4.358202249373887 0.0
4.87055838101999 4.337900676660481 0.0
4.974114446887331 4.149149057174687 0.0
5.081577844806959 4.3240148266423 0.0
5.179521650033781 4.148725180298481 0.0
5.276261408871418 4.316673822529601 0.0
5.369189110897883 4.148362797753505 0.0
5.463892033849439 4.338819369807593 0.0
5.550828466075906 4.146274465971151 0.0
5.646554822352869 4.303571429647391 0.0
5.728109623160046 4.138582010823754 0.0
5.821689108984419 4.291959598724587 0.0
5.906082534948073 4.141649907302701 0.0
5.99655838673762 4.288752711512514 0.0
6.077312859438928 4.141011188943332 0.0
6.164215275138099 4.281164574562373 0.0
6.241782344986693 4.140701084167517 0.0
6.324316420613108 4.277393447415522 0.0
6.40284165425941 4.140026953305852 0.0
6.483655157361099 4.273418937894759 0.0
6.561170698911611 4.136221843106807 0.0
6.63512300179586 4.269917278694155 0.0
6.720306110251473 4.133393659385058 0.0
6.63777078218551 3.99617001426095 0.0
6.802492763973074 3.994355399489989 0.0
6.798834760478153 4.276914787769972 0.0
6.15377608509923 4.000134206628027 0.0
6.548727135071258 4.400510710520637 0.0
6.251479300130713 4.421887359316258 0.0
5.275876048175579 3.979624500657822 0.0
5.910905077162284 4.431174408784691 0.0
6.717070288412452 3.851239795555301 0.0
6.883499045994213 3.852555480300214 0.0
6.96664848901999 3.994033961856844 0.0
7.048208567116626 3.854750001965969 0.0
5.810004974283072 3.982497501655442 0.0
5.586615391658107 4.471070246359201 0.0
6.547331954052155 3.853872077215347 0.0
5.179081233207816 4.485638492900557 0.0
7.126615227065496 3.995337770596979 0.0
7.209459742762513 3.856893463870469 0.0
7.130226097876905 3.713620439679428 0.0
6.63075064074106 3.699684148676045 0.0
6.446985573861992 3.697358756862005 0.0
7.043151422977365 4.131713936060725 0.0
7.198322215260019 4.129850614748363 0.0
7.119378405252723 4.26005098890218 0.0
4.797146270976422 4.525762781577414 0.0
4.608329098388589 4.573584257851931 0.0
7.294442092743627 3.720853338661503 0.0
7.215753312764997 3.571378507508807 0.0
7.049631633956289 3.568047985538775 0.0
7.133765707749521 3.414282375958479 0.0
9.755079417839903 5.539705890434435 0.0
9.698955703441971 5.450920012703194 0.0
9.717604099406742 9.09084770432896 0.0
9.276716006673976 5.847248422342224 0.0
9.339081208926798 5.941174203394446 0.0
9.031261921742963 3.750271483819014 0.0
9.08721978689863 3.853416037308712 0.0
4.801461566647803 7.510704110489921 0.0
8.206553504932042 5.818005960412773 0.0
7.362361315389098 3.863102442315545 0.0
9.492826845316191 2.963845037486267 0.0
9.376710375304633 2.97229517374228 0.0
9.3192743723601 3.070687802230453 0.0
7.915389082113898 6.293241865913004 0.0
6.735006382384437 5.832450056405368 0.0
8.456481836836168 4.35369289249905 0.0
8.517718268476031 4.246675068616396 0.0
5.583512022030555 5.411069060406398 0.0
5.73625200174779 5.422617752052123 0.0
5.81006929286229 5.548584937688919 0.0
5.903438861894402 5.420604003204523 0.0
5.43801870974416 5.402925156167655 0.0
7.022641548594327 5.825217331839047 0.0
7.165095795605366 5.826005223633447 0.0
7.223078558430726 5.690146755650336 0.0
7.841396000338385 4.586693006493787 0.0
7.904793170875705 4.690826189066096 0.0
7.785999820520073 4.696719777099973 0.0
7.846448506395101 4.798518978096564 0.0
7.728149182067156 4.803800941124008 0.0
7.788983823826226 4.904802634695232 0.0
7.672018889153144 4.910077510508749 0.0
7.731996012352178 5.014717724244488 0.0
7.852072803124419 5.00743796185411 0.0
7.779278698005006 5.118909346425974 0.0
8.088113864063853 5.605434545811022 0.0
8.016457362785575 5.494849890158723 0.0
8.072290383394757 5.385594956317259 0.0
7.95068657972964 5.38825563681957 0.0
8.309366678475389 1.438342408757099 0.0
9.748160780780179 1.447794693754379 0.0
9.696454228162398 1.337889922375316 0.0
9.568813761940916 1.329560834053294 0.0
9.638326779791626 1.226729570935787 0.0
8.472132467407484 5.182856496818138 0.0
8.066211547412054 6.53691730655352 0.0
8.217035586462373 6.522976700918602 0.0
3.544839338670893 3.324491119989469 0.0
6.999740002965287 5.347729916247808 0.0
6.874544698914502 5.347027470386579 0.0
4.880451234715014 5.193043717957879 0.0
9.104510033763066 9.313204713465637 0.0
9.0466357104558 9.45359399494339 0.0
9.146803165140184 9.569652364413551 0.0
8.134107047896672 0.5527712356100052 0.0
8.369770412730738 0.5571215815175228 0.0
8.47386979744655 0.7564607169846485 0.0
8.585193608569258 0.5749174254532757 0.0
8.683868132726584 0.75505070091701 0.0
8.787381435061018 0.5813987798627239 0.0
8.697570280442534 0.3771156480326233 0.0
8.530048434259976 5.077280516000916 0.0
7.995091351438729 2.90367515012593 0.0
9.731083608815164 1.662638626153251 0.0
7.260488865351954 4.255073962371814 0.0
9.760728358076392 8.990038509880067 0.0
9.716710396257366 8.884160310398862 0.0
8.794627466210242 7.369659405098349 0.0
8.868068657550866 7.515048014893154 0.0
8.702594597629135 7.510501129643432 0.0
5.132320689147051 0.7610757801158905 0.0
9.755852887652699 3.853180024615871 0.0
9.787424819067885 2.757921105725315 0.0
9.731193479931608 0.3736343090103709 0.0
9.796526908308536 0.489684029254899 0.0
8.226019692057042 2.453349105940535 0.0
4.560989821496479 5.428206018250252 0.0
4.348810639659689 5.517048281386008 0.0
8.785190163106925 7.119142251269924 0.0
9.015515413043023 7.464769766852701 0.0
9.754861440190705 3.659036930324926 0.0
9.7543610723378 4.033687839160082 0.0
9.707881226943384 4.127219992296752 0.0
9.52841017383273 8.309020665649431 0.0
9.65186044414544 8.289498614805698 0.0
9.714051275521857 8.173576484362068 0.0
8.209758892476394 8.715513071423135 0.0
8.097084883671858 8.548851201381087 0.0
8.177989947800599 8.367872862579052 0.0
7.974142434808908 8.36779470623567 0.0
8.409012054919861 2.142624252464372 0.0
7.707002321497132 8.039129945341395 0.0
7.574653123518228 7.83895791570255 0.0
9.229858094382692 5.951357214361815 0.0
9.75307989876696 1.229893222503321 0.0
9.715811155868643 1.128779429890018 0.0
9.597960915003707 1.117058287635912 0.0
9.672063923518955 1.020806103150243 0.0
8.99090422125785 9.593878510105375 0.0
8.133165456134304 9.257620998029804 0.0
7.976779931497633 9.420725324095141 0.0
9.77231778617502 7.927819487779705 0.0
7.957213679655531 4.364530256281665 0.0
9.609903116082736 8.403725680286847 0.0
9.724891358972584 8.388392708395173 0.0
9.687487059868507 8.495935345161797 0.0
9.810055520269009 8.494090598382963 0.0
9.755967487162335 8.599790818513082 0.0
9.645698986824481 8.606121319182705 0.0
9.721376049217765 8.699989876681524 0.0
9.773009257015609 4.884557953188837 0.0
9.830105798750992 4.796546393900876 0.0
9.775335108731761 4.686093304257503 0.0
7.455611517737074 3.730099283949135 0.0
8.906943567829634 0.4197477661467797 0.0
8.980613334153533 0.5814185917581446 0.0
9.081059111759728 0.4263421860552371 0.0
9.821654809259165 3.576985724143072 0.0
9.761309244784803 3.4792267780002 0.0
9.763329553045937 9.353068233045157 0.0
4.463051839136694 1.164440352584939 0.0
8.0213168204867 5.283436382300235 0.0
7.89385412333227 5.290429544753158 0.0
5.806940001023414 8.583716119232427 0.0
5.88977793877374 8.96065112858812 0.0
9.177759062826041 8.25539130897928 0.0
9.626582559276994 2.05283181283147 0.0
9.747673294325121 2.064954301745188 0.0
8.775905508647185 6.951821187702613 0.0
2.3581644273991 6.029034686663493 0.0
9.777798009058461 9.548066962498762 0.0
9.737129197219856 9.662299853506903 0.0
9.615080366030512 9.683349544763068 0.0
3.315839678697904 6.042943273456425 0.0
8.915083018115329 7.937748428923896 0.0
9.489832173860055 4.712364754630572 0.0
8.118313727862493 8.013944064029838 0.0
8.902248750797776 7.67372145952523 0.0
8.954075939212636 3.463080912810881 0.0
9.45247551997678 2.133243108303608 0.0
8.311151553157742 8.899233004613622 0.0
3.28672004268868 6.826745674539142 0.0
9.86008383798735 3.468233656255824 0.0
8.389990589860254 1.947086063498656 0.0
7.144231739553659 5.329544660076687 0.0
9.654500729007207 7.743301971143119 0.0
9.761920842881946 7.740144345898896 0.0
9.692820773976567 0.2651585113981998 0.0
9.690951720399688 6.100517071814821 0.0
9.775704281989471 6.077882312279847 0.0
9.823117117198079 4.115168542267924 0.0
9.764391943581737 4.214465954230587 0.0
9.659455011849253 4.218716850797838 0.0
9.713462125022623 4.30742830316693 0.0
9.849638067150842 4.208845651573708 0.0
6.376241713254513 3.858766051594979 0.0
6.274931849158213 3.701528298009006 0.0
7.097780104117746 1.926449727602711 0.0
2.457742027508782 3.810157622192786 0.0
2.963634206580268 3.740748099915693 0.0
5.065585416063965 5.544355730437482 0.0
9.783560252464587 7.566507987677117 0.0
9.825819294611026 7.470942204664841 0.0
9.799976114123012 1.01659516618323 0.0
9.745559590633832 0.9150866860898854 0.0
8.20473400632469 9.495828670767946 0.0
8.784586030320169 2.054461500762216 0.0
8.758471587067168 1.888286802854785 0.0
0.9188935087347281 8.510730800272478 0.0
9.674192026048217 9.20389587377276 0.0
9.796314981283475 9.185916994648775 0.0
7.206882433199502 5.452024361489832 0.0
9.773927048949279 6.334665846819535 0.0
9.830288393591173 6.225300227041885 0.0
8.25177349297509 3.282767705830209 0.0
8.099233469407428 3.304040153764131 0.0
9.607860512870598 4.315652630490023 0.0
9.403674738018715 8.367349042046314 0.0
7.611756786273919 5.018691202305147 0.0
7.549513964643336 4.923310232561835 0.0
9.80986724662116 0.2915868356190958 0.0
0.7757562810577034 3.504187313079081 0.0
7.659562100664981 4.698467529240196 0.0
6.539424975891206 3.541729955691742 0.0
6.717348880400739 3.55221857686142 0.0
6.836337579501807 2.417476958454302 0.0
7.096480496160066 5.959124656438389 0.0
7.189742782777612 4.377051328076039 0.0
7.051723187622053 4.38470822973091 0.0
7.125489805519186 4.497018383456762 0.0
6.994915621927777 4.501504591168814 0.0
7.056755276274058 4.607929817497045 0.0
6.932937068803914 4.613249390039674 0.0
6.86629288290367 4.50541343988659 0.0
6.80427099775847 4.617607827251794 0.0
6.739195362053689 4.511124964201849 0.0
6.677260697693361 4.624288827143181 0.0
6.996760608675822 4.711715831373894 0.0
6.316045249462968 0.6456945497683586 0.0
7.321834163850416 5.816449323512759 0.0
7.833101485370825 4.390058096386987 0.0
4.996572652976738 4.498711166259074 0.0
5.112334577457371 4.663858846723513 0.0
5.271923064784868 4.629759173373871 0.0
4.93773508827367 4.668006487116195 0.0
5.348137647919096 4.485934621930562 0.0
5.413454827497575 4.62999925573761 0.0
5.356581113747675 4.770594395332836 0.0
5.013422223730484 4.793321773780133 0.0
8.58674425943957 0.9312335381466886 0.0
8.776450596582496 0.9362399987293505 0.0
4.783496233934828 9.486061758876032 0.0
4.544176394620909 9.034071856445296 0.0
4.082330493623582 9.015765881393772 0.0
9.820867469965414 7.285959215547852 0.0
9.852697883440127 7.166089674802766 0.0
9.260999083164238 2.971390964911171 0.0
9.197701900169713 3.073162109379564 0.0
9.31960210441945 2.867465579641856 0.0
6.660951583415121 3.383363199709994 0.0
5.210469976037585 4.761678854423166 0.0
6.740780285297665 4.733615686805694 0.0
6.611362405615225 4.731958642073806 0.0
6.549091884465382 4.629620704100811 0.0
6.491761716522486 4.733409494449344 0.0
6.425259228542098 4.640546096196947 0.0
9.715556659367534 2.986725573570596 0.0
3.710524324925069 9.463213827486557 0.0
4.768537031214573 4.727001037865238 0.0
5.039413681704655 5.378508462165627 0.0
5.188746429211535 5.440476671296013 0.0
5.172214816037712 5.298914527247826 0.0
4.469063601436893 3.667917323494335 0.0
3.799121596584382 4.741629285988305 0.0
3.661085664896249 4.442847704416992 0.0
3.316563386321876 4.380147387454913 0.0
3.802087298647255 5.26743535640985 0.0
9.738116341343215 8.047178982429934 0.0
9.85106076399546 8.021725551312715 0.0
9.837581050304836 2.844176011307251 0.0
9.664579962075123 4.402853107737106 0.0
9.76433159763034 4.39807801415352 0.0
9.718924973226878 4.487825491046641 0.0
9.826405563645343 4.494594135148365 0.0
4.931068003413168 6.359330991212394 0.0
5.130175746947236 6.201075257041828 0.0
5.143884286052002 6.445382329515047 0.0
4.953395875296406 6.628748468717369 0.0
7.833019185167153 5.400347121613631 0.0
7.766636138801143 5.313240048256084 0.0
9.767038723422333 4.578090619166644 0.0
7.315369355237483 3.441501197259575 0.0
9.556068971301514 0.2347811136726856 0.0
5.733871280791703 4.444861510772459 0.0
5.828809543126846 4.569791247698539 0.0
5.986701526182213 4.562881783985375 0.0
5.912543327921148 4.692966271273211 0.0
6.052130330528581 4.682477327897978 0.0
5.773525984744635 4.697697018456535 0.0
6.121646311546238 4.572302645403103 0.0
6.182349700936326 4.67713231096357 0.0
5.846371383601797 4.808939734754761 0.0
5.117807918383606 5.974361363083184 0.0
6.256132501905665 4.575863546153224 0.0
6.324770064521816 9.645040261272253 0.0
7.345522892050965 4.12581088034536 0.0
9.338523512844539 4.854480276600515 0.0
9.286984287289403 4.959628690044808 0.0
5.676298026114105 4.589279806918992 0.0
5.631257891894775 4.722749088404111 0.0
7.970415275563177 5.621040275419208 0.0
9.565118337557308 7.081391220827488 0.0
9.626201005045262 6.980441083020495 0.0
9.733729506193331 6.979928568877979 0.0
9.684556253529976 6.887102896543928 0.0
9.780785815410074 6.890287441101827 0.0
9.740054813822885 6.794211367612523 0.0
6.462628988057306 7.629921412015864 0.0
6.692564520952154 7.473594130811262 0.0
6.927983108788191 7.570982428592125 0.0
6.899878641134941 7.329306734748538 0.0
7.117542472438434 7.416951094809493 0.0
7.089537168123128 7.186691566729968 0.0
7.296585396514727 7.275888419524222 0.0
6.879678873774065 7.097443005287856 0.0
7.063454637059129 6.967740076426161 0.0
7.329105042924355 7.496317641003757 0.0
6.867084781778411 6.878842928865059 0.0
7.494278796275744 7.351949197351029 0.0
7.462564159480594 7.150140034494138 0.0
7.644835001206406 7.21506678718646 0.0
6.682478929414216 7.008358327294905 0.0
6.449199855715812 7.365660640952548 0.0
7.548139855358765 7.57299228324251 0.0
7.008502809092701 7.844601794812628 0.0
7.371739019901781 7.707688433423657 0.0
5.665345294602155 5.290628720253272 0.0
3.987583013016546 4.486920698115711 0.0
8.893480480320447 0.7785000884179994 0.0
9.715485963651112 0.5955299613117169 0.0
9.761785841543585 0.7048670948649375 0.0
9.670304314877074 4.578896619304786 0.0
8.058509626083154 5.744161686650483 0.0
6.181795443628869 5.462040811515966 0.0
6.256771804808641 5.338464817889848 0.0
6.124070400983443 5.352376180901929 0.0
6.399679261813415 5.349186390888865 0.0
6.477776305607503 5.46505688468465 0.0
6.541624525938461 5.346017118512589 0.0
6.673064575428321 5.339051516933525 0.0
6.599301548842115 5.241958624987057 0.0
9.573774011620444 0.815274945835158 0.0
5.86493292693426 5.877588788523632 0.0
5.552663040119136 6.957487930464628 0.0
5.535080960199246 6.663033131707637 0.0
3.708603689392072 0.5979254716153909 0.0
3.31896983256719 1.188583855309964 0.0
3.895664898001925 1.128137111173669 0.0
6.363360407965353 6.032416442205533 0.0
9.445959758065749 1.070139246426051 0.0
9.50632172780449 1.214052376665338 0.0
9.441030033980638 1.325047485624912 0.0
9.295799464644857 1.341410624832976 0.0
9.184164107767781 1.461677744200096 0.0
6.407191016756832 4.407273313799791 0.0
5.544591888593027 0.7652641669375747 0.0
7.883090151006535 2.497506182548758 0.0
8.073420508370992 2.120510489750234 0.0
5.494822040671399 4.732314720081375 0.0
0.8986976806403217 1.464611451578306 0.0
9.536325549598013 6.83286654168725 0.0
5.972289519322897 5.727532110854501 0.0
9.82203607053145 9.443411729566549 0.0
7.263199949874008 7.064207941227515 0.0
7.233659553805083 6.853135694774254 0.0
9.793310082768443 7.072747972018893 0.0
6.734168931095253 9.67499220075154 0.0
6.941134861034159 9.382328333169653 0.0
7.285822522704258 9.443989747444657 0.0
6.576263515512108 9.333035011158342 0.0
7.160560566479093 9.127732577621245 0.0
6.218711947378506 9.298064908857533 0.0
6.432383355119106 8.980985203293491 0.0
6.795390278360442 9.046043538032663 0.0
8.54677014121837 0.1957422484480979 0.0
8.528696320820908 9.804850950580938 0.0
8.42644965647489 9.604735484095604 0.0
8.010239224104339 9.715048083583248 0.0
8.644359648763341 9.628432815860457 0.0
5.344212921686536 5.526744195650314 0.0
9.760936589662048 7.38409687515441 0.0
9.128187788393989 0.1445485608215519 0.0
9.133307661752394 9.854833215426817 0.0
4.867351616228264 3.944459575003425 0.0
5.905323253270366 7.385600364255367 0.0
5.909045412185362 3.361969954191194 0.0
5.80580919758911 3.569999290452344 0.0
5.578230704221431 3.587842862412673 0.0
6.013352753603037 3.550699073477782 0.0
5.936624955014758 3.721630401607248 0.0
5.735413275357409 3.78528948606432 0.0
5.512538847486775 3.794760621907932 0.0
5.360571639388366 3.618649018042938 0.0
5.134141179590394 3.459385929220745 0.0
6.167399567008798 3.367365990358096 0.0
9.766756262206602 8.291756450136036 0.0
5.486063578307141 9.64505925252771 0.0
9.497624614180321 4.328873442170357 0.0
9.811387324954623 1.570516917365688 0.0
9.389210081887331 4.69150887571586 0.0
9.704395728912932 3.754226393630331 0.0
9.808172776193384 3.748784464356272 0.0
6.549660911932182 4.839747932361234 0.0
6.757415124099031 6.077939876843736 0.0
3.805578542126494 8.040840085419626 0.0
4.232580149691158 8.198659880701744 0.0
4.559765382564095 7.87091698350757 0.0
8.3829075948167 0.9495097054886067 0.0
9.8571301061408 1.456307792614791 0.0
2.005900212453279 4.535525273813588 0.0
1.85904408608185 3.956445706785572 0.0
1.979307922430775 5.474327285927505 0.0
4.387923194305381 4.427191306527721 0.0
9.429258370703248 8.873693567695483 0.0
8.99196583083892 4.664567567015693 0.0
3.050357122593155 5.368999067452741 0.0
2.861107385476722 5.785089447130829 0.0
5.005058958272409 3.711196438448062 0.0
9.8972295764837 2.755337284632969 0.0
9.581048890980513 8.853909321617065 0.0
9.668838904423916 1.762418716497425 0.0
9.716576458425756 1.852218615166234 0.0
9.799043132681442 1.780583141193779 0.0
7.661868217848455 2.880323287492419 0.0
6.780136552904057 5.443858690999834 0.0
6.489544866845868 5.913957888434588 0.0
6.880149522020364 4.134257616716107 0.0
6.970134365280068 4.264072319341612 0.0
2.225481516813409 9.348422240784 0.0
1.843418032490818 8.641605249943353 0.0
2.198000805242772 0.6459947140825729 0.0
8.740020306282506 0.1903932731609072 0.0
6.86957996016679 4.720776242956433 0.0
7.430920333506809 0.2702852342693345 0.0
7.302066064947383 0.6134316505458445 0.0
9.305398039877746 4.64854361125207 0.0
4.078151380865065 5.203425462519088 0.0
4.080704120371218 4.778853303303787 0.0
8.052525541571825 5.965483159581719 0.0
6.367194027835946 4.754896037842673 0.0
8.604191121620719 7.648182513679963 0.0
9.546446695207845 9.234701521982952 0.0
9.018652854946867 3.351011585453845 0.0
9.143853648154607 3.350173119015413 0.0
9.067079866763024 3.245174561579149 0.0
8.991492136849105 3.135578770028028 0.0
9.29603967712795 0.1426516429033488 0.0
9.392428271030795 0.2506306237151588 0.0
9.223973843394301 0.2912279164401488 0.0
8.39375191941536 3.018777714002827 0.0
8.4836475746111 2.88135207267795 0.0
8.741089053946197 9.821127577434911 0.0
9.803966507713174 5.448064463539533 0.0
9.748132240148552 5.359371181503531 0.0
9.850258990973547 5.355211921626304 0.0
9.7965346514158 5.266762244994661 0.0
9.84142096963129 5.171050273734619 0.0
9.738843612428232 5.167483913244169 0.0
9.64168976006725 5.359875132194057 0.0
3.335917453809221 5.671837672982919 0.0
6.962669142802881 1.683222554707996 0.0
7.365210844496719 1.887492842536114 0.0
7.517378971174123 1.677983072937792 0.0
8.00383870208024 6.089394601875145 0.0
1.725435941000569 2.759295503019395 0.0
7.907977929549089 5.102827208603365 0.0
8.052861051278896 0.2683271125209605 0.0
9.80169732768395 3.385443381464333 0.0
9.831597648680848 3.28491948963525 0.0
9.736335895866404 3.316207814499244 0.0
9.597256128490281 3.756160701977744 0.0
8.865819925321706 3.366235906378775 0.0
8.489614436807788 1.757152185195495 0.0
8.88089641144391 1.078983279100314 0.0
7.430923851187758 9.724389499796425 0.0
7.584252919312249 9.509430586267927 0.0
9.744026095940516 2.247117754488748 0.0
9.729961521243718 2.659836747108116 0.0
9.790866569780063 2.558993767350471 0.0
9.736606445116795 2.455104424879619 0.0
9.846806182714698 2.452157456754448 0.0
4.518102112052724 5.141350889745285 0.0
4.519880229178207 4.85678334497067 0.0
9.7302407894617 6.434012603549242 0.0
9.787537474544765 6.523591663056312 0.0
9.744262337067932 6.617499601377625 0.0
9.8406238811518 6.41591236129004 0.0
8.914967252734657 3.579360039684312 0.0
9.154797282599406 5.670753066089419 0.0
4.228839454580575 4.612979739018002 0.0
6.095037541675208 4.42126627187728 0.0
9.304166983880842 9.864854494751789 0.0
9.406445527105628 9.759007358529582 0.0
9.256225114941945 9.700832989525724 0.0
9.796206564635622 2.351215649506205 0.0
9.849373673349081 2.25090453834006 0.0
6.332048155295931 3.511675163099286 0.0
9.069679774213784 3.022879178706259 0.0
9.070599961450037 9.055284879641471 0.0
1.808685691036764 6.331557276533421 0.0
7.120156826652838 4.698481230214924 0.0
7.052894345811342 4.799848851879358 0.0
4.739957520484086 5.369107149361242 0.0
9.389197839958292 7.197139943834638 0.0
9.046688232613976 4.560364044038737 0.0
9.162685461967492 4.562194096410666 0.0
4.227377821420887 1.564128177298305 0.0
9.201090975245227 2.794301402811909 0.0
9.251941624303948 2.677556975242327 0.0
9.186758273070138 2.563916005021366 0.0
9.317609833868786 2.560335260954038 0.0
6.57599191748324 2.437689779955877 0.0
6.305556560534859 2.459112595979303 0.0
6.981058048792093 2.642476994448363 0.0
9.886113463139504 6.510498309609482 0.0
9.250462794607717 6.221362629571698 0.0
9.305373999084068 6.108271307139882 0.0
9.390477915810829 6.228015172491477 0.0
9.44452571968143 6.114582165110393 0.0
9.502105740270528 6.197677857389309 0.0
9.31559697209813 6.331647407124485 0.0
9.370938253597153 6.437386206819511 0.0
9.594764406124872 0.1099001288712305 0.0
9.602872681151728 9.894988341116305 0.0
9.622661196143387 8.076680696281343 0.0
9.769069277144705 5.9102532189237 0.0
2.615076109785583 8.807551523115547 0.0
9.658920005405456 5.730890135691177 0.0
9.76063135061807 5.720703211793342 0.0
8.63963723169499 7.177334225227945 0.0
7.841904391869763 6.41346852896409 0.0
7.764520718520185 6.297267738834625 0.0
9.546492996136271 3.465225175657335 0.0
9.25600964352143 2.219157062786616 0.0
7.625057159226293 7.012987957636062 0.0
9.529121062829038 7.730283486008674 0.0
8.329887090625894 3.845190321147069 0.0
8.265841850823831 3.95687001944245 0.0
8.402006523775544 3.947660780406651 0.0
8.128436391670505 3.968543393650448 0.0
8.46705122470662 3.835767362024195 0.0
8.218867047074696 4.063481375518748 0.0
8.089763413611255 4.08062363292928 0.0
7.939578083855268 4.111915744184436 0.0
3.74991304509639 6.615676756107112 0.0
2.627714335615619 1.170993030860914 0.0
7.046129971268607 6.759930788612616 0.0
8.534603732661887 7.486325780553722 0.0
1.569381386467569 2.042794535871475 0.0
6.228703743210918 1.986421863690014 0.0
6.467030855792859 2.67190498312861 0.0
9.272246093269825 1.975478263632296 0.0
8.05269609263041 3.854522845257449 0.0
8.008595521536957 3.177870309354594 0.0
7.929796740504207 3.350600835935766 0.0
8.048703574664067 3.449582532910417 0.0
9.72947480375618 4.973926800124758 0.0
9.784850360535604 5.072865219810449 0.0
9.896036387646596 5.069261557893528 0.0
9.633140953203334 5.168645132864771 0.0
9.558102991128836 7.602453108835212 0.0
7.278758746505716 3.994295887299482 0.0
8.306681733482405 6.936428510427854 0.0
9.487163072013963 3.757777670075558 0.0
9.532950522284125 5.359403698944497 0.0
9.816036650072329 3.927268437107025 0.0
6.173882586235392 8.734645960664665 0.0
7.972518459433741 5.003005338485466 0.0
8.398453459336153 1.601072016988848 0.0
8.97460527296194 4.040886705742754 0.0
9.037941657530773 4.143578781749325 0.0
8.849604200183613 3.828506169652706 0.0
9.545296177100065 4.042698359132156 0.0
8.595941796785514 5.806754902023664 0.0
8.65588412428292 5.694192853853139 0.0
8.723710665131787 5.801528918332044 0.0
6.861288985046249 6.673713222735126 0.0
8.87477249219366 4.664500928777609 0.0
8.72385765226959 3.608276264790996 0.0
7.145228858696953 5.573648565429618 0.0
7.282945121585866 5.558559688509987 0.0
9.224761401603633 1.602363370249125 0.0
9.609115686587552 2.986868833620756 0.0
9.633989947851914 6.628120633848649 0.0
6.046214325132457 5.45615093027661 0.0
9.017014346798927 5.271996636983457 0.0
9.070824864071271 5.168510834798647 0.0
9.189021391555556 5.166867900487267 0.0
9.123328759137758 5.064718588163964 0.0
9.240587446378079 5.06459430516883 0.0
9.250848280531756 5.267364371053135 0.0
5.773050603406019 5.7192906317521 0.0
8.576466432793914 4.3559007860436 0.0
8.634627802680399 4.253467736542067 0.0
8.461790117175607 5.591735227444779 0.0
8.907610717370224 3.713397213891439 0.0
9.80665594564509 5.628066492225966 0.0
8.985935132601089 4.455263493464225 0.0
9.00640209566022 5.067597672073404 0.0
9.833659276096986 6.976519563917422 0.0
8.0283368553477 4.687271895436317 0.0
8.326580191759327 9.127498457128247 0.0
8.650637373791266 5.07513089931925 0.0
8.701067313435203 2.700069743477523 0.0
4.825307249916392 4.884175191874744 0.0
9.418335984190309 6.858444798015129 0.0
3.91434687300816 8.542956908935874 0.0
5.569239724399552 2.064135034637056 0.0
5.234271567762738 2.128974435011933 0.0
5.757920427527626 2.312422707096966 0.0
5.43365689737979 2.427455772745759 0.0
5.673210219624612 2.602111218343444 0.0
7.214258468265766 6.652783071431555 0.0
9.823626269633962 4.30685540664529 0.0
7.96996639420014 4.794005510174826 0.0
7.616003332725032 0.502676560965646 0.0
3.050634530589821 4.659174799474146 0.0
2.870894249800723 4.246924313393336 0.0
5.285393339952368 6.079037173753393 0.0
9.439954241218905 4.23581687956071 0.0
9.67709722097145 4.710772408106511 0.0
7.40767785509217 4.259947873553335 0.0
8.396202587439676 5.486075637998701 0.0
8.323689688705493 5.372061002264632 0.0
8.191312386254125 5.384662546230823 0.0
5.304380054816289 5.369675374029755 0.0
9.093848379546637 4.047647920840374 0.0
7.916313220758624 3.045043876114836 0.0
8.435854831444637 4.144861908356168 0.0
9.060262453079693 0.7340576053322918 0.0
7.053195520344596 5.238809779682351 0.0
9.621762679347093 2.45205452967588 0.0
8.410730269104743 5.287995309529392 0.0
9.655094569234972 3.472720279371932 0.0
7.982140513923982 6.667914768024983 0.0
8.402690325256646 4.883576657130221 0.0
9.17488654147479 4.962006474835693 0.0
9.013188196102961 8.49700148123058 0.0
9.795977244531603 2.156818021002043 0.0
9.893813711206834 9.545820400859157 0.0
7.965349232662289 4.250048884270795 0.0
8.644264557989125 4.874751532150782 0.0
8.215430976121077 1.26077208565765 0.0
8.379717637669398 8.37324652769609 0.0
9.320026533461409 5.559861899725609 0.0
7.885778178744864 0.4977439426642278 0.0
7.547066983926719 5.125166613071239 0.0
7.657542898944819 5.122996245335209 0.0
7.423918840193691 9.000935553397358 0.0
9.854133000712425 5.541931969512857 0.0
9.328508174398952 2.101486405523264 0.0
9.300749600926641 9.530012105354274 0.0
8.130307182491519 5.277079344947874 0.0
8.346752967392757 4.987627363826086 0.0
9.118404185029991 6.007087846617186 0.0
9.048232213728614 5.89431792713258 0.0
9.088340967655858 5.576242562571367 0.0
8.094762487139027 4.789727191449318 0.0
9.915265904493378 5.749591413470928 0.0
9.92169805280126 6.154216704502091 0.0
9.918022441582268 4.549125436287157 0.0
9.919332362905616 4.849536560132457 0.0
9.914800786693318 6.750595509794719 0.0
9.811792900437824 6.703950687575952 0.0
9.900643083988882 3.749855087409844 0.0
9.912423171222734 3.043228996968949 0.0
9.91892875832665 5.949999999993851 0.0
9.913300070218703 3.960831593817277 0.0
7.709347001661226 4.444236534782706 0.0
7.479443107717332 8.071637285053104 0.0
8.839057072155848 6.807845119358974 0.0
8.972330068019902 6.78765448182788 0.0
8.542093772125282 3.941452413628317 0.0
8.279144752968262 5.930387616620717 0.0
9.393455876855919 4.973162505621418 0.0
9.507123333872533 2.855087674515822 0.0
8.77504684283825 2.317347145885344 0.0
8.394133129040345 4.464046960801843 0.0
5.725509852450801 8.210843960481027 0.0
5.62632390239664 3.967637659758752 0.0
7.910815814627989 4.900765971697654 0.0
8.595808444085467 5.590040244353608 0.0
9.705160502006024 0.8106158419444889 0.0
9.82021247904746 0.808810893177099 0.0
9.218352146075844 4.447736986422823 0.0
9.20781892622228 3.858281726888132 0.0
8.713609974387523 5.178241668554946 0.0
3.55755059259364 8.921522400238844 0.0
9.59122926011489 5.452844834281716 0.0
9.70565100407009 9.77887811062354 0.0
9.826938454219809 9.74303055702321 0.0
7.238962096855633 3.278078153406256 0.0
8.575609105166194 4.567807831727537 0.0
8.936449841121737 4.765835458965493 0.0
5.59323463391086 9.248527978398117 0.0
5.280809113285124 4.886132326418428 0.0
9.328132730893216 6.544753806716806 0.0
9.026944889277736 6.67247283515637 0.0
9.81946239021469 3.007926663525007 0.0
8.677633568960493 6.144049349297466 0.0
8.33427489656924 4.571212803519522 0.0
8.55734024448315 6.382535186588269 0.0
8.692399379422756 6.372347713955898 0.0
8.495817478252626 6.503308565233578 0.0
9.905494734661673 2.544078755559835 0.0
6.177101405266569 7.228490244483556 0.0
9.825373011845263 5.807482724503027 0.0
9.808678508609606 8.118683092442964 0.0
8.397717712407108 7.08010313863416 0.0
7.428555529689225 4.935946611338556 0.0
9.575504958128711 6.125633853639113 0.0
9.154066996197898 4.146562596982661 0.0
8.074381802159323 4.337569667261167 0.0
7.018337246891919 8.843475095716133 0.0
7.970627172560641 2.658650028065857 0.0
7.382546388883145 6.723381543491632 0.0
6.822972334933889 4.884555620881615 0.0
8.343732976791593 6.041576709398377 0.0
7.743680217306919 8.423336160305476 0.0
8.505717922983454 1.115022897794028 0.0
9.113973198216474 6.992972408167606 0.0
5.818882632841168 5.300437503812764 0.0
5.951991891717714 5.279516346785062 0.0
9.450183479138845 5.92934813870612 0.0
8.783346541536119 5.48419035750989 0.0
9.38074895894124 5.65076274999803 0.0
9.513658728876734 7.193620441323493 0.0
6.396040948797887 6.776064256962667 0.0
5.389661780244388 4.89715084345563 0.0
4.473247649068957 5.85935163892416 0.0
9.249586607512612 8.37680799459232 0.0
9.103796366487646 8.379197231055114 0.0
6.274057301184156 4.87985402946409 0.0
9.259628836118232 3.561431822636308 0.0
4.037922477011971 5.489409780163391 0.0
5.62712958624254 4.893925433488392 0.0
8.806426003347967 6.133410188141932 0.0
9.53304466499349 9.59279975429444 0.0
9.542890959420024 1.966631379116419 0.0
7.459736176874619 5.863847835420528 0.0
5.937613117200432 4.89232797168023 0.0
6.171611131472617 4.879541833448487 0.0
6.100695199816815 2.291172318314745 0.0
2.315194906726768 8.081958163666464 0.0
6.878489987598286 5.148099521847569 0.0
9.105264414399338 8.639184652727645 0.0
9.20047261316883 3.457820810661327 0.0
9.895329010385955 7.55944047105717 0.0
9.912742873006831 7.76210330502246 0.0
9.37761459375249 3.168397068877758 0.0
8.946121261512507 6.345629828835438 0.0
9.918632496443566 4.449809517365367 0.0
6.848211525651934 5.945010613369067 0.0
9.915721525903255 2.047407395915179 0.0
6.117255841708726 5.163321965161054 0.0
7.276595248786602 5.347247322210079 0.0
6.32682869954104 5.23674259421017 0.0
8.785886448438022 5.692775375342819 0.0
9.099994401883361 6.776698531382792 0.0
9.913397459621638 0.2499999999998165 0.0
9.910352525643928 0.4481571029410266 0.0
9.907850422008579 0.5479735220323012 0.0
9.911983631350465 9.24778487019403 0.0
9.917634740384067 0.7514684821956668 0.0
9.195214232985496 3.254172408378337 0.0
5.000896927376288 1.846006038077654 0.0
9.917172478547403 8.250155740683276 0.0
9.908120476950126 1.742986232208194 0.0
9.914524635720774 1.949567899316728 0.0
9.907358878377153 9.145625165175748 0.0
9.917695944922635 8.949999999998397 0.0
7.648387553139914 5.325741673607362 0.0
9.605343588986079 4.130627398479715 0.0
6.648113233057817 6.774798386229164 0.0
9.910347203087213 8.446729917003672 0.0
9.913623694530468 8.548470085896316 0.0
9.9201245863254 1.536225488581779 0.0
9.906538426683255 1.059019360781604 0.0
9.912867352010919 8.74999999999809 0.0
9.799662981388353 8.79550485462418 0.0
9.831828680383174 5.99966894118311 0.0
9.91414179906643 1.263025320602998 0.0
9.920690092699912 7.240982963665807 0.0
9.385889285950551 2.235126904097426 0.0
9.28133998925606 8.00415195851526 0.0
9.817074723108401 3.172398890123306 0.0
9.482030285089927 7.512954023388035 0.0
6.682432918504054 7.233889573028878 0.0
8.528699633246763 3.260502457553277 0.0
8.91699963742029 2.327016692708648 0.0
9.267676068834481 3.954520684561369 0.0
8.70811637467455 4.974101624783084 0.0
8.18184214270768 7.816666208279135 0.0
9.690393137288163 5.264344933127836 0.0
6.937111790104696 5.245184991960528 0.0
5.895846026722989 5.174232967273284 0.0
8.281683356622615 6.400073017261236 0.0
9.150883172924027 7.444273543454419 0.0
5.430406600793122 3.390815886517273 0.0
5.049583827974758 5.697634876048387 0.0
8.3966710383105 3.495813899905868 0.0
9.007538428392454 8.046563579784266 0.0
4.645155158868719 2.637132843684674 0.0
4.887444326771336 2.30020425915506 0.0
6.483736782775559 4.522536327482678 0.0
7.843169154548308 8.2116075844056 0.0
5.06295551628385 4.901632590583318 0.0
7.201400991012747 5.138239336380897 0.0
8.519791031104612 8.848807089071627 0.0
8.658623737989732 3.031313729049854 0.0
7.585566208322493 3.629882964874684 0.0
8.411818469596405 6.834326722716643 0.0
9.172363528634236 7.669230647622864 0.0
8.85455683341768 2.682483055215344 0.0
9.359398739738925 1.631421337140716 0.0
9.071793864444992 7.337030604117359 0.0
6.968394563521436 3.712808894519514 0.0
7.899236117684646 7.094583340182754 0.0
9.54362864504834 9.781852543872333 0.0
7.151298729743687 7.644795130415299 0.0
5.452218361466201 5.186873761308322 0.0
5.517642289161902 5.293540933999446 0.0
7.802500357665464 5.978295671754199 0.0
6.594850839687122 8.491429270558893 0.0
6.029132431949566 8.294997405201931 0.0
9.31286590869111 0.5672913838331921 0.0
9.25238720319541 0.4415953739444106 0.0
9.550589523211062 4.228044955453704 0.0
8.748611832783206 6.250900951984038 0.0
7.566980108995873 3.995148257893202 0.0
7.426142759241261 3.996743578498081 0.0
6.478912513785404 4.000296412419969 0.0
9.30435638148753 5.168210982711592 0.0
7.542154188520517 5.752525075248498 0.0
7.219033852073297 2.139582470800704 0.0
7.370913620388047 6.545121498197235 0.0
5.226731036024996 5.187572666585561 0.0
8.515591031124366 4.462223215179979 0.0
6.762864307079274 0.3078036604979366 0.0
8.587432696997471 4.977010533175154 0.0
8.703948448756302 8.815629076400704 0.0
8.081003990931544 7.370949680119862 0.0
7.424404567669909 6.949730915714445 0.0
8.578903262311433 8.377992954045473 0.0
7.301258690263783 6.106184350645308 0.0
5.991600556904204 3.99820087171043 0.0
8.203048538477193 1.601044215405025 0.0
7.289972483120081 4.572350254111052 0.0
7.714697186439165 5.420586967696794 0.0
8.918853780709807 1.841796898567452 0.0
9.919941345877513 4.749808449067644 0.0
7.245589454939737 5.94251251443003 0.0
9.258480524497795 3.358952871140391 0.0
3.705877615124628 5.574038727593425 0.0
8.287096858129765 7.962370605242409 0.0
6.799629860952143 3.705385600481528 0.0
4.146753450763018 6.544154457143895 0.0
7.413973555029582 5.545687501585183 0.0
8.466524978378082 4.980481756569235 0.0
7.336312153537934 2.337983522449311 0.0
7.695505222753409 3.747498713679684 0.0
4.898236813123799 4.795853653580084 0.0
4.59779105899602 1.896916774247134 0.0
8.560170375862322 7.072369101894893 0.0
8.386150468360862 2.449771437140704 0.0
8.41200018115259 5.084601315536367 0.0
5.102189912301071 7.621598618277815 0.0
8.336320418935243 6.71651223072348 0.0
5.081745734883095 3.977838926197614 0.0
7.63590698378166 0.9500570055008507 0.0
7.743369677149255 3.051233984704873 0.0
5.357527459690566 0.3809996753407537 0.0
5.967373112873382 0.7731113464301924 0.0
8.169449265206127 6.666271947462212 0.0
5.95122726745053 5.55758205410881 0.0
9.922289489207834 3.53923011719877 0.0
9.39154684476555 2.659037023454942 0.0
7.701415639167884 7.690060291860976 0.0
9.819179654793023 1.329863870021845 0.0
8.358229579054417 6.506108206863729 0.0
9.269720555169467 5.657096143475924 0.0
4.473187658045934 7.435037860084884 0.0
9.65807158077373 3.255496360750368 0.0
9.605155446454205 8.713645566904637 0.0
7.097383547728313 5.141197376985936 0.0
9.812212483832656 1.89920712759492 0.0
9.83875570675407 6.81603549325055 0.0
8.926246869879279 2.079976511571457 0.0
9.166785856141402 9.169070814302419 0.0
8.763479010228052 1.587152667342957 0.0
5.957377924852992 6.404530806530254 0.0
7.14506854375872 6.10342416684208 0.0
5.672595070581394 5.164323323112049 0.0
4.899782787268781 0.3801727265981219 0.0
4.447133848117348 4.673614099606824 0.0
7.044865074789195 3.253639989243549 0.0
9.818461337102992 7.819456450952447 0.0
9.925334577033155 7.954012377173311 0.0
6.352907898232792 1.173665225954276 0.0
7.351721385581032 5.660361289755705 0.0
9.337367583861807 2.76534436379692 0.0
8.693118347802024 4.360254099729149 0.0
9.476812970101324 0.3524826622168163 0.0
7.109868985890334 0.9024224571333925 0.0
7.899106846231403 5.511805431542581 0.0
8.352799544476607 5.187887629361129 0.0
6.957483547582747 0.6176251309213842 0.0
8.099559500483094 1.412323841044818 0.0
9.913030944540278 0.8542404645334569 0.0
9.143075088381442 8.022165366829135 0.0
8.819861450593166 6.356592599428041 0.0
9.319444417409162 1.49938505915629 0.0
6.490262520326714 7.118204362551877 0.0
6.490874470087819 6.582907761235813 0.0
9.82506653058937 0.6146757679104559 0.0
6.803129818897624 4.419048038171804 0.0
9.840901379354312 0.08198751964190581 0.0
9.839740374244226 9.918356239418472 0.0
8.551927134544655 9.449788917425456 0.0
9.92097857388158 3.249999999993177 0.0
5.797087413057367 7.077351493358238 0.0
9.255412859987286 6.433984412022419 0.0
8.668174522249984 1.740767926084485 0.0
9.920991430240607 6.25262219124529 0.0
7.57275248448898 1.94367954756322 0.0
8.052865444445507 8.19900054463639 0.0
8.748697149245206 4.25201068974208 0.0
9.158270227735827 0.5542256343091421 0.0
5.997487767477439 4.787924707603557 0.0
6.119759900601896 4.78043793682227 0.0
4.353034750397793 8.619182743639561 0.0
8.721093521611476 5.588932824583312 0.0
5.717101151444983 1.123034066822819 0.0
9.825602081347064 8.68753399402474 0.0
8.005502510832988 8.7824052910506 0.0
5.548184234622668 6.408009287230429 0.0
5.77830300433981 6.598697187164234 0.0
9.613093825495433 4.50282172481406 0.0
9.928981132641653 9.74928475696928 0.0
6.613628176297015 4.515513362596662 0.0
1.822126723816303 1.297795131355289 0.0
9.514164594137375 1.43081427463862 0.0
4.735494753432723 3.698541604583975 0.0
9.52844959749262 8.615213629960298 0.0
4.660704511759056 0.7947595073298008 0.0
6.82340845160293 5.239926830264399 0.0
7.885938077030673 7.380147032865134 0.0
7.884599891021201 6.09005968568029 0.0
8.846834820720167 9.653276456345532 0.0
8.457777199486827 0.3851010632068662 0.0
6.66485224572131 8.771510767670392 0.0
9.091499342133352 9.708315832477556 0.0
9.824286725109655 4.976315293637262 0.0
7.848197684391786 5.632217046637356 0.0
3.88430598115417 4.225391362015386 0.0
8.776890759183289 2.809688928468134 0.0
7.393884285023409 3.59397875231041 0.0
6.927568893329758 4.396788356869783 0.0
4.96854327720728 2.662368428358774 0.0
9.1480130720193 3.951479613991279 0.0
7.071049729490975 2.38092990636632 0.0
3.40193058782919 1.686321186206593 0.0
7.612042194200681 4.815904436723407 0.0
9.043395868401339 6.888481825015849 0.0
9.098933057562759 8.152197681006806 0.0
6.058682303253315 3.857501492181965 0.0
3.707092669281355 2.986685502034343 0.0
5.113272509841263 5.189455016444592 0.0
6.960565857079232 3.416349532571279 0.0
8.755151527375476 7.649255597361291 0.0
3.393680865444538 3.679982303262531 0.0
3.117424600120088 3.35605258976247 0.0
8.530814041264104 5.488376426140491 0.0
4.820719767306654 5.106646490188182 0.0
9.918899263509473 4.144927088739744 0.0
9.918194630017027 7.447268230913605 0.0
8.461970084137805 3.144844565847669 0.0
9.924415919486059 6.949999999995354 0.0
7.184050152099684 2.72771667662237 0.0
8.834356715215904 7.801565642745232 0.0
8.689015446783005 4.145232831954543 0.0
8.490778532265319 8.234414357968106 0.0
8.63666290918932 2.83060276219705 0.0
4.61028976098935 4.741894230894578 0.0
6.314735925012879 4.003132559161639 0.0
9.20786580425652 4.67001723737971 0.0
7.141401229301469 4.873205425098625 0.0
6.235177809922153 4.774126344778935 0.0
9.12491895896937 3.145675090615719 0.0
9.255747684068178 3.162525801823036 0.0
8.312852272796098 2.290855459722148 0.0
1.449266720542303 3.363629101350872 0.0
9.525687840398492 4.800807314407045 0.0
4.829905263804087 8.14474456977717 0.0
9.09338914689732 7.563794106183232 0.0
5.389401689694107 5.283808684471545 0.0
8.530979415204587 3.029374286908943 0.0
7.901489077080633 6.535344047486632 0.0
9.218572924671975 5.760893551533255 0.0
8.562382833959296 4.143913974026883 0.0
8.62959127904665 8.974877485888243 0.0
9.408442441596518 9.62276529745719 0.0
7.5034765601713 3.869833107932387 0.0
9.842813436634783 6.600620949014236 0.0
9.826116984327193 8.911617279149695 0.0
7.529907780698261 0.7369111006685982 0.0
7.832164962480427 2.905293639437395 0.0
8.39517908433056 3.267417602291069 0.0
9.823014010107707 9.085319632577246 0.0
9.022314123618541 3.944559746338292 0.0
4.243701230676532 5.332574856090426 0.0
9.816740542566388 1.127839952679595 0.0
8.166775715766304 5.693916696568397 0.0
8.865374421689054 8.068986769641638 0.0
8.761145809863661 6.470583506581853 0.0
8.998345275919851 9.209303502026401 0.0
9.698477487436316 6.706902829754045 0.0
6.439032098063426 0.3109134377713525 0.0
7.562681994382136 4.643158005207056 0.0
9.03999088074715 0.2799354672273258 0.0
5.180741540467516 3.805018725608906 0.0
6.243990330956698 2.718077286244967 0.0
9.79416634023361 0.1815240178579244 0.0
9.926540005061975 2.847049370876555 0.0
9.826476210374608 2.670192168078066 0.0
6.365816673179121 4.536333049275508 0.0
5.546353765219417 4.618331215552614 0.0
9.820703096450293 2.000649418331399 0.0
6.884388790679166 3.561583980715254 0.0
7.431303395649604 5.747824222777201 0.0
8.849816832721245 2.19318290395604 0.0
4.185147517585975 5.697469360586313 0.0
9.165905238119013 5.873664931582344 0.0
7.70479478158537 1.788324620089049 0.0
9.627376046933474 0.9196091445437269 0.0
6.657687963328663 5.144792385996769 0.0
9.83245016645186 0.3925568446109945 0.0
7.483092985762584 9.253837199159435 0.0
5.445348362202234 3.977855663863651 0.0
7.476680532833337 4.837183287808616 0.0
9.572749890969304 8.505160319814301 0.0
9.915853314998252 9.437014513917465 0.0
7.679469018350979 7.390484878021194 0.0
9.418139053434402 4.790576000488359 0.0
8.096967733471567 5.865447162201908 0.0
9.829153508938724 8.378494945652118 0.0
9.926595955569645 5.157718300415699 0.0
8.774484245600224 7.939747459426853 0.0
8.629764448155779 6.481031318922794 0.0
8.961169458302376 3.839036702328818 0.0
4.617199205561317 5.256318959792646 0.0
8.480815774219478 4.031210317621497 0.0
9.708341592512763 3.401018043990571 0.0
7.183974816647467 4.77882314543966 0.0
9.821437962294304 7.659391965474772 0.0
8.150320284869602 2.286501016204562 0.0
9.828114434347311 1.684891358832554 0.0
5.349187766238684 6.538177907133678 0.0
8.076053471314525 2.76180604769483 0.0
4.907713691134565 5.29818629967416 0.0
0.6874399366049438 4.328593906714074 0.0
0.6980011780697519 5.702671170050627 0.0
8.263861466707834 8.182284285231713 0.0
5.838783785156478 4.913981390426639 0.0
7.807619472656604 7.235706382002089 0.0
9.388504256318683 6.022122644748753 0.0
9.929839894767033 6.436189192303577 0.0
8.3205848711706 3.39107920408397 0.0
3.240770542267401 4.019899919523968 0.0
8.059047070496568 2.468855909103855 0.0
9.932479519490421 2.449625056415224 0.0
7.737639000139152 4.580708137963557 0.0
8.26141077223695 0.3940397126348397 0.0
9.69568953371801 1.959951226402445 0.0
6.469120930453264 4.892267070266994 0.0
9.167223997255698 0.8102256463122337 0.0
6.236889648241256 0.9291076084031108 0.0
8.306379082772498 5.268830342852036 0.0
6.716089118890225 5.239344620507032 0.0
9.82511981852641 9.282822358664017 0.0
6.68375719572285 4.404998642130821 0.0
8.913754712375674 6.908138360584365 0.0
6.173250048857013 5.251634416326969 0.0
4.235907497612446 1.924052997345291 0.0
5.151007663981651 2.438629730660893 0.0
8.924254300637541 9.3764975797567 0.0
4.438612423541503 5.287968640901957 0.0
8.571203234299599 1.897009944569934 0.0
6.878800676380218 5.821332862798138 0.0
5.710626178601224 4.792560699857408 0.0
7.149510071621283 5.216310009157644 0.0
2.099966541549645 2.334742113488256 0.0
9.93396330620579 5.350566393301629 0.0
7.143046479323961 8.646955109387985 0.0
7.965747313080266 5.193641450105844 0.0
6.3314394693073 5.135050228240639 0.0
7.665821333021348 6.222698255001823 0.0
6.305321657053551 4.659816230868476 0.0
7.833020917089713 5.208837056143474 0.0
9.41455902676429 2.869725681199307 0.0
8.567151507735133 6.598605357295113 0.0
7.405527786978573 4.377085529441429 0.0
6.552969697053132 5.137148974085434 0.0
9.93630620742063 8.042778076596578 0.0
7.166743296019233 4.593171678848165 0.0
6.595561806063966 5.839366735225723 0.0
6.066152182102007 5.262519562574559 0.0
9.834694151277489 0.9093455747994099 0.0
8.98259191950674 7.579732466796592 0.0
6.465071238839505 5.25485771955322 0.0
9.759759896588413 3.236659507608532 0.0
4.775529448101694 5.224235675150505 0.0
9.935991245222917 7.153416415978829 0.0
0.6530736820718381 9.352299998916202 0.0
0.6449439415299687 0.6468300344151556 0.0
7.804690364869245 4.495816547678174 0.0
9.84503784553893 5.70620404704573 0.0
9.83525329400959 3.826992990746767 0.0
9.922964894244684 4.265000406933376 0.0
8.333767638401964 1.121219971446645 0.0
8.876012546033895 7.019147158538482 0.0
8.172413577824324 3.413096916572049 0.0
7.232233017296214 4.478957103028363 0.0
6.214597295185415 3.852860083673202 0.0
9.85013791746415 4.400709747289421 0.0
3.941627380932058 6.342995010255737 0.0
3.097271569675528 8.77391871286929 0.0
9.292917152323044 6.010976049411984 0.0
8.104342196673183 5.184165973282902 0.0
8.994300084006271 3.652611812846807 0.0
9.937157897030163 5.549999999993244 0.0
8.721368888525245 7.274540720770752 0.0
8.920003648712827 0.9516585309368178 0.0
7.910527456030004 8.536826514867816 0.0
9.846441288756814 4.60515911863952 0.0
9.584942233925151 4.712073182517884 0.0
9.642357858573972 6.805672051759494 0.0
9.797024725252207 9.838837222258014 0.0
9.842451438022124 4.018973836958878 0.0
6.112723137676118 3.704473949316424 0.0
7.574641969193845 3.765362276156904 0.0
7.826594968121701 6.200366572362263 0.0
7.762805366733504 9.34009502796868 0.0
9.56854033867856 1.012566255816665 0.0
7.71256563655353 5.219373702836014 0.0
9.68039392238282 8.786964504862018 0.0
5.910362452777086 9.277662068919813 0.0
7.418090653922814 3.326443419100716 0.0
9.857704179097952 4.697553149694669 0.0
8.452469674653342 8.996585816905599 0.0
9.522351366699843 2.057525484575908 0.0
7.802315574700843 9.548878971475935 0.0
9.938875656926385 3.449999999992592 0.0
8.425189037911712 6.608575180629274 0.0
5.925965231566842 2.523669697740033 0.0
6.654918072256329 5.95749128982984 0.0
9.826748589235729 9.631118448471485 0.0
8.6684585637523 7.39633999085442 0.0
9.844673843931567 3.090088625379724 0.0
9.93613850661301 2.250382721159617 0.0
9.218291993658738 2.892108990205171 0.0
9.83502846611296 8.212781989607324 0.0
7.754136409732265 7.104288507262783 0.0
8.510570542791681 2.036933285735889 0.0
7.757745059307245 4.315798612475442 0.0
7.989231770559189 6.201656630465583 0.0
8.068934521422738 4.198631572122605 0.0
4.957478134450373 9.038766150325067 0.0
7.208661142641733 6.501402463831379 0.0
7.299506095906239 4.363561999234681 0.0
8.250303873550486 2.105322217421675 0.0
8.678637541413377 7.053471135702286 0.0
9.761528395137384 6.163503990672834 0.0
9.84494857233395 8.59999999999775 0.0
9.83825138794677 3.672838954969637 0.0
5.121008544047756 5.808127183024784 0.0
8.343911550360986 4.043535893276861 0.0
9.85324441775315 5.899999999993774 0.0
9.51114465213134 8.41035540646284 0.0
6.505812179224195 6.93390566262983 0.0
6.15572847138365 9.023097246950844 0.0
3.352081892333425 3.024853379890529 0.0
6.433163283162099 8.675072413910678 0.0
8.825744236698243 3.624446391299867 0.0
4.883007294861279 7.819620905924936 0.0
5.876659170760434 5.638247433601083 0.0
6.859400040348503 6.510797998354633 0.0
7.946400945409184 3.500317276373196 0.0
7.496830255505493 6.653194511698024 0.0
9.852183479755313 4.891525833556942 0.0
9.77998778436291 2.922486526124376 0.0
6.774672660492365 5.324728659740495 0.0
5.717254072187427 6.824125962512845 0.0
9.713440940838062 4.63793103997539 0.0
8.859858662536796 0.2721395536350836 0.0
8.37556017530946 9.436653414116012 0.0
7.395237381047616 7.885576562773319 0.0
5.4709157802033 4.511152089197594 0.0
9.489749416979361 9.691840729914848 0.0
4.599216022837964 3.46438688931078 0.0
5.572287492757569 4.807021644849729 0.0
9.926499336309957 9.92730688390086 0.0
9.926499336310107 0.07269311609890093 0.0
9.338127766332573 0.3585313952168247 0.0
6.810761948165162 3.414693294319008 0.0
8.166274345037138 5.943611545564389 0.0
5.2892644736731 6.301081312912763 0.0
9.731911074791544 7.649313380659622 0.0
8.90251102352767 9.50983415326544 0.0
8.997881406541017 1.033666784655452 0.0
5.835124768755703 2.738139962594905 0.0
9.665357480775825 6.185331297099201 0.0
7.656532192558493 8.217157287499347 0.0
9.170463887605525 2.975444721032631 0.0
4.208158615905443 0.8648302238584886 0.0
6.97015686031129 5.933674629077266 0.0
6.181941366523793 3.565885175921835 0.0
3.30313590337911 6.393402837735046 0.0
6.447482061767014 4.816169316820496 0.0
8.185341428749446 4.169172087371246 0.0
4.552595724340015 8.298301336212145 0.0
9.84850676569699 8.999999999998423 0.0
9.846941514449377 7.393642828194986 0.0
7.924592433490734 2.788309934035703 0.0
8.154308714226714 8.853640122009672 0.0
8.876629743004642 1.96110242719995 0.0
7.228849192966834 8.90811350348676 0.0
9.852301635085423 8.296637825215246 0.0
5.219795195341889 5.547413133147649 0.0
9.861497117995457 6.901363010201344 0.0
2.953911258021604 6.136007283255669 0.0
6.93158841067062 4.77708273647784 0.0
9.67540418457871 2.912802891506324 0.0
4.194055958522277 4.437353127730132 0.0
6.133959559341536 0.406856611599261 0.0
8.29952795189331 9.309744645643846 0.0
9.843692337952948 1.209647690818311 0.0
5.164986286280336 6.671544079402435 0.0
9.838533350075606 2.081705440779448 0.0
8.301244777513975 6.604088853319459 0.0
5.471494771710784 2.714598185146428 0.0
8.86534684892311 1.208599471795828 0.0
9.940610684232212 1.451558535868664 0.0
9.40896208432968 1.428353940655538 0.0
2.329177605337097 4.238803555614174 0.0
5.980761651517799 7.182207186682233 0.0
9.66541573964336 0.1719254072074424 0.0
7.220979380229172 7.806128737674462 0.0
1.251721227904697 6.151932667911503 0.0
8.104967286191181 6.057912607875576 0.0
6.650768762224724 4.817922869198292 0.0
6.634976350437587 3.213339182992986 0.0
7.034320437500567 4.898219100342838 0.0
9.502772020064167 6.283064492634301 0.0
8.13187938667684 3.518506862055515 0.0
9.855471943454193 2.599999999994991 0.0
9.056747742708522 8.263936599935574 0.0
4.352645795441222 5.724453640019 0.0
3.744263984699181 1.488951698361357 0.0
5.175860134287045 3.6375726667098 0.0
7.736434712114619 6.400417475661193 0.0
9.857658576695343 6.316607183405179 0.0
7.876525261950537 4.304285002335559 0.0
9.856114384785611 7.914602773442983 0.0
9.848334119947063 0.7059644476295188 0.0
9.59694321995579 6.895814046141667 0.0
5.906465212962551 3.869023950643881 0.0
9.840676994268005 9.364956386459765 0.0
5.355015287544095 3.83518170601625 0.0
6.374090407153147 5.855743754257685 0.0
8.227401290513832 5.297819733684674 0.0
5.451235131977493 4.825706629991923 0.0
6.022070213762754 5.355923882747634 0.0
9.845674433677614 6.108401449483281 0.0
9.835067400944396 7.739582406783081 0.0
8.602026805792988 2.941372356914139 0.0
5.059869081004962 5.269480960018243 0.0
5.284714507903736 5.26496663762182 0.0
9.627110479149561 7.660076105040499 0.0
6.820001127809743 4.792514421153957 0.0
5.120512795059439 4.806607659110254 0.0
9.56933817216883 2.911464407429096 0.0
9.74091654291531 9.267545397628387 0.0
9.93006767325302 6.576784040838644 0.0
9.642486276936268 4.650227701598451 0.0
5.185183328569137 9.410919109238325 0.0
9.37052946854105 4.605636695802024 0.0
1.677077220416309 5.871167715901136 0.0
7.345783833404538 3.184020711886284 0.0
5.419239942654976 5.982692039856376 0.0
6.133318300188262 2.551919945731369 0.0
6.187291396343277 4.499077117404439 0.0
1.231465237822878 3.921479198315213 0.0
8.969849937139944 9.699215363213542 0.0
9.218303154263054 6.037447959776716 0.0
CELLS 4886 19544
3 1113 1356 1450
3 1402 231 1659
3 272 269 1414
3 396 394 1777
3 1451 945 1452
3 194 81 1801
3 1847 1501 2104
3 2024 2121 2479
3 1115 1113 1450
3 1124 1413 1844
3 1061 1955 2409
3 307 305 1645
3 1592 1369 1593
3 238 1501 1847
3 1955 1883 2409
3 1808 243 1910
3 1885 978 2362
3 1440 793 2092
3 189 1488 1608
3 353 350 1864
3 2007 2231 2232
3 307 1645 2493
3 1096 1760 2496
3 2178 874 2179
3 621 625 1595
3 1493 1480 1938
3 1655 1268 2137
3 1341 1410 2212
3 243 1808 2360
3 1902 1446 2516
3 1760 1096 1763
3 856 790 2180
3 2008 2046 2105
3 789 1809 2067
3 694 1543 1575
3 1127 1762 1953
3 1748 807 2228
3 1543 1308 1575
3 820 1872 2170
3 1417 954 1998
3 1369 1592 2386
3 272 1414 1787
3 329 333 1998
3 1544 1095 1545
3 2231 1490 2232
3 1342 1683 1790
3 374 377 1797
3 807 1678 2228
3 1665 198 2128
3 141 142 1620
3 325 322 1952
3 231 1402 1654
3 198 1665 2010
3 1890 1307 2387
3 208 1438 1619
3 2016 1970 2156
3 1436 212 2020
3 954 1417 2333
3 1736 1894 2244
3 1491 1750 2143
3 1677 1064 2146
3 1474 1258 1475
3 1500 233 1930
3 1446 2415 2516
3 1700 973 1800
3 2128 2270 2316
3 1316 1315 1593
3 1307 2341 2387
3 2258 1324 2328
3 1083 1507 1508
3 693 1095 1544
3 621 1595 1596
3 667 1571 1872
3 1932 1766 2061
3 393 391 2240
3 1342 1790 2400
3 252 1707 2234
3 931 978 1885
3 1430 1116 1704
3 1411 1109 1714
3 1478 1227 2440
3 1990 195 2297
3 1792 1167 1985
3 1682 444 1975
3 394 397 1777
3 1711 2028 2162
3 1574 856 2180
3 2008 1851 2046
3 736 1493 1938
3 1069 1060 1662
3 1458 455 1754
3 862 691 1705
3 1161 1642 2286
3 1699 1700 1800
3 447 516 1637
3 955 1482 1483
3 2024 206 2121
3 391 1773 2240
3 1072 1412 1893
3 212 1436 2350
3 1566 1365 1568
3 259 1441 1672
3 872 870 1764
3 330 328 1889
3 1539 1161 2286
3 1897 1898 2275
3 1434 1990 2297
3 1109 1411 1730
3 319 307 2493
3 1762 1761 1953
3 1369 1316 1593
3 1540 834 1832
3 1505 652 2442
3 1732 1655 2137
3 921 1712 2295
3 1872 1388 2170
3 1712 921 2125
3 2028 244 2162
3 1506 1570 1680
3 1569 368 1964
3 1571 667 2375
3 1587 2178 2179
3 196 1723 1737
3 524 2016 2156
3 1528 1250 1733
3 1115 1450 1973
3 1938 1480 1971
3 1809 1396 2067
3 1641 249 2299
3 1223 1258 1474
3 1365 1566 2120
3 1981 962 2316
3 1538 353 1864
3 455 1458 1756
3 152 233 1500
3 1116 1430 1703
3 817 652 1505
3 1347 2003 2004
3 1607 1958 2085
3 194 1801 2195
3 1410 1341 2351
3 223 1415 1710
3 197 1511 2346
3 2198 787 2225
3 81 82 1801
3 1438 208 1620
3 1444 522 1823
3 1511 197 1950
3 726 718 1567
3 1637 516 1739
3 1708 2337 2341
3 1280 1649 2124
3 2337 1395 2341
3 1327 1709 2315
3 1225 1227 1478
3 691 624 1705
3 476 2224 2305
3 830 832 2204
3 1750 1491 2403
3 1366 1897 2275
3 2345 1583 2352
3 2054 405 2110
3 1984 2172 2230
3 1846 2198 2225
3 1177 2042 2418
3 2121 1367 2479
3 1527 1531 1541
3 916 1039 1834
3 1413 1124 2467
3 1622 1503 1868
3 249 1641 2019
3 1805 405 2054
3 1761 1007 1953
3 1415 223 2395
3 960 1756 2203
3 368 1569 2135
3 1402 1659 2473
3 941 1433 2471
3 1267 1477 1501
3 260 2002 2265
3 1704 558 2077
3 2224 1886 2305
3 2053 1386 2199
3 1452 945 1952
3 1717 1611 1718
3 1682 1975 2230
3 1760 1762 2496
3 1481 203 2104
3 1264 1266 1670
3 142 236 1620
3 2133 1182 2179
3 1791 1602 2183
3 350 346 1864
3 1412 1072 2393
3 1281 1575 2255
3 1565 1948 2155
3 849 1449 1513
3 1958 396 2085
3 1339 1069 1662
3 834 1540 1917
3 269 267 1414
3 1268 1267 1501
3 1440 2092 2468
3 1399 1981 2316
3 1635 1636 2041
3 1454 252 2234
3 1451 1305 1890
3 1375 1883 1955
3 362 366 1786
3 1484 2410 2528
3 1449 849 1640
3 1267 1474 1477
3 200 1611 1717
3 1054 1581 1582
3 1350 1977 2253
3 190 1390 2118
3 788 1956 2193
3 1709 1327 1888
3 2233 2298 2413
3 1488 189 2355
3 478 1685 1714
3 230 1525 1690
3 1687 478 1688
3 427 429 1756
3 1570 1065 2476
3 1880 1133 1988
3 1649 656 2124
3 1537 209 1614
3 1134 1769 1986
3 1220 1268 1655
3 396 1777 2085
3 1167 1755 1985
3 2229 1744 2296
3 1575 1281 2287
3 127 240 1882
3 377 647 1797
3 954 329 1998
3 220 1697 1698
3 1342 1341 2212
3 1441 264 1672
3 1512 188 2433
3 763 2345 2352
3 1685 1411 1714
3 1805 1188 1951
3 1347 2004 2157
3 1054 1582 1667
3 1333 1617 1674
3 2217 73 2361
3 1539 1036 1917
3 1039 1292 1834
3 208 141 1620
3 1965 1964 2038
3 693 1544 1969
3 1453 239 2279
3 203 1481 2049
3 945 1451 1889
3 680 1459 2134
3 354 2147 2196
3 1405 1932 2061
3 1723 1722 1737
3 1748 1175 1927
3 1532 1528 1733
3 2057 1824 2154
3 1406 1659 1702
3 1948 1186 2155
3 210 1598 2114
3 1685 478 1687
3 1324 1325 2328
3 1526 1250 1527
3 165 166 1509
3 1493 736 2523
3 1526 1527 1541
3 1390 190 2417
3 522 1444 1998
3 1680 1570 1732
3 1017 1442 2525
3 374 1797 2430
3 1507 1083 2197
3 1756 960 2221
3 2270 1400 2316
3 2205 1452 2282
3 1074 1187 1888
3 2158 1245 2200
3 1442 1017 1684
3 864 1116 1703
3 1750 1751 2143
3 1456 516 1492
3 1677 2146 2149
3 2022 1339 2388
3 1602 258 2183
3 678 1594 1595
3 1245 1670 2200
3 972 830 2204
3 2143 983 2342
3 1268 1501 2226
3 1266 1461 1670
3 1487 222 2465
3 1382 2022 2388
3 58 59 1661
3 2147 1543 2196
3 1484 1485 2410
3 628 2053 2199
3 1906 1549 2259
3 364 362 1786
3 1339 2022 2247
3 1636 525 2041
3 625 678 1595
3 678 1593 1594
3 2212 1410 2222
3 1837 1865 2215
3 1699 1800 1801
3 866 864 1703
3 893 1472 1982
3 1735 1736 2244
3 1633 1255 1922
3 126 127 1882
3 681 867 1656
3 1351 1401 2363
3 11 228 1588
3 1127 1953 2454
3 265 266 267
3 1722 1122 1737
3 1389 1691 2069
3 1613 1610 1616
3 1227 1256 2440
3 429 455 1756
3 1535 1177 2418
3 322 324 1952
3 973 1700 1802
3 1964 368 2038
3 1176 1865 1866
3 1096 872 1764
3 1176 1866 1875
3 193 1839 1892
3 156 157 1441
3 615 617 1596
3 686 1520 2480
3 1409 2097 2305
3 2410 1151 2528
3 1427 2217 2361
3 440 1911 2314
3 1744 1743 2296
3 516 1456 1739
3 1939 589 2164
3 690 931 2150
3 1062 1579 1580
3 1054 1580 1581
3 955 1483 1716
3 1064 1677 2248
3 1956 1616 2193
3 1776 1893 2026
3 1398 1115 1973
3 2002 1453 2265
3 1541 1531 1542
3 216 2191 2536
3 1736 1326 1894
3 1065 994 1066
3 1598 2115 2175
3 2314 1911 2358
3 1433 941 2042
3 2115 1209 2175
3 717 1550 1551
3 188 1941 2433
3 267 1132 1414
3 771 1569 2064
3 1157 1545 1546
3 1231 1250 1526
3 1933 240 2181
3 222 1487 2025
3 1525 230 1765
3 1430 1704 2077
3 757 1744 2495
3 264 263 265
3 883 773 1917
3 739 2205 2282
3 1667 1582 2434
3 1744 757 2474
3 239 1453 2002
3 1441 259 2356
3 2005 1443 2012
3 254 1766 1932
3 1509 166 1679
3 1477 1475 1481
3 793 1440 2165
3 1385 1523 2377
3 1481 1475 2523
3 156 1441 2356
3 1066 1220 1655
3 945 325 1952
3 2094 2087 2134
3 1747 1175 1748
3 253 262 263
3 1327 1074 1888
3 718 715 1567
3 2046 1043 2105
3 240 1933 2399
3 1305 1307 1890
3 224 58 1661
3 1195 1566 2285
3 1590 1393 1749
3 1255 1230 1922
3 353 1538 2073
3 358 1999 2325
3 882 1802 2036
3 1024 1020 1604
3 333 522 1998
3 1401 1351 2414
3 1475 1258 1476
3 2310 786 2364
3 328 945 1889
3 807 1748 1927
3 825 724 1912
3 1742 263 2491
3 267 266 1132
3 2077 2102 2203
3 1431 1432 1860
3 1212 1957 2312
3 2097 476 2305
3 1132 1402 2473
3 717 713 1550
3 1746 693 1969
3 1372 1124 1844
3 1256 1541 2269
3 1977 1350 2274
3 2332 1978 2443
3 874 2133 2179
3 1983 1534 2171
3 1157 1544 1545
3 1230 1228 1922
3 1580 1579 1581
3 1565 806 1948
3 1416 1363 2413
3 1287 1995 2398
3 265 263 266
3 1534 1529 2171
3 1604 1834 2428
3 1255 1633 2509
3 1344 1643 1644
3 1332 1388 1571
3 1423 217 2217
3 2191 1057 2451
3 458 447 1637
3 1250 1233 1733
3 472 2212 2222
3 1175 1747 1840
3 1652 256 1653
3 1073 1347 1572
3 200 145 1609
3 683 640 1585
3 1116 862 1705
3 1221 1223 1474
3 1778 801 1803
3 1503 1622 2471
3 1475 1493 2523
3 464 680 2134
3 14 210 2114
3 579 1880 1988
3 1434 1435 1990
3 1447 2310 2364
3 275 274 276
3 2294 1871 2419
3 814 1068 1684
3 1172 1439 2273
3 273 272 274
3 1363 1416 2406
3 1220 1219 1221
3 1060 1656 1662
3 1099 1792 1985
3 2048 1198 2168
3 1241 1245 2323
3 699 723 1753
3 1640 1862 2070
3 910 1018 1584
3 1586 1067 1587
3 1656 867 1662
3 1067 686 2480
3 654 2242 2294
3 1593 1315 1594
3 1880 553 1974
3 236 1717 1718
3 617 621 1596
3 1723 196 2313
3 402 1877 2116
3 273 274 275
3 2202 1869 2252
3 1510 1358 1767
3 193 1892 2373
3 1188 1805 2054
3 1220 1221 1267
3 1066 1218 1219
3 1517 1097 1518
3 1677 1676 1858
3 686 277 1520
3 268 267 269
3 697 857 1592
3 220 1698 1699
3 1802 1700 2036
3 1612 1537 1614
3 929 817 994
3 228 12 2136
3 2110 2116 2482
3 1659 1658 1702
3 1611 1613 2280
3 1344 991 1643
3 683 1585 1604
3 1638 1358 2404
3 1485 1034 2410
3 2214 833 2424
3 271 272 273
3 1482 955 1962
3 1066 1219 1220
3 931 1885 2150
3 1613 1891 2280
3 1189 1589 2204
3 1566 1195 2120
3 726 1567 2490
3 1122 1722 1874
3 1494 319 2493
3 1671 259 1672
3 1267 1221 1474
3 603 528 1591
3 1664 2128 2316
3 1817 1924 2174
3 1626 1660 2111
3 1474 1475 1477
3 1023 1062 1580
3 1957 1599 2312
3 1764 1939 2164
3 1358 1950 2404
3 200 1609 1610
3 1431 1082 1432
3 1778 1803 2521
3 1830 1832 2075
3 1930 233 2369
3 1329 1482 1650
3 757 1959 2522
3 1239 1247 1597
3 758 1978 2332
3 1569 1290 2064
3 216 1694 2191
3 1453 1420 2265
3 1549 1906 2129
3 24 215 1674
3 19 235 1676
3 1621 1057 2191
3 1691 1389 2262
3 1617 1333 2192
3 929 994 1065
3 1769 1672 1986
3 1893 1412 2026
3 1609 1537 1612
3 271 269 272
3 1373 1438 1620
3 217 1423 2381
3 517 330 1889
3 1322 1055 1667
3 1974 553 2499
3 228 2136 2187
3 1589 1189 1788
3 1999 1577 2325
3 2110 405 2116
3 189 1608 1842
3 1055 1050 1667
3 739 1455 2205
3 1865 1176 2215
3 319 1494 2522
3 2474 757 2522
3 1484 227 1485
3 10 11 1588
3 723 809 1753
3 27 230 1689
3 1550 806 1565
3 1179 1180 1217
3 207 1617 2192
3 1433 1217 1502
3 1562 1556 1606
3 1379 2017 2018
3 1245 2158 2323
3 675 1097 1517
3 884 501 1599
3 1020 683 1604
3 1603 1095 1848
3 1001 2057 2154
3 1604 1585 1834
3 1610 1612 1616
3 1764 870 1939
3 2242 1871 2294
3 1669 1264 1670
3 1658 213 1702
3 1995 1646 2398
3 631 539 1600
3 1491 2143 2342
3 1801 1800 2195
3 1200 1199 1693
3 1535 940 1861
3 1534 758 2332
3 914 2258 2328
3 1588 228 2457
3 216 138 1694
3 151 152 1500
3 1133 1880 1974
3 1677 1858 2248
3 1294 1622 1868
3 875 1010 1767
3 1379 2018 2416
3 1279 2202 2252
3 182 256 1652
3 1592 857 2386
3 672 681 1656
3 615 1596 1824
3 1093 1487 1623
3 1823 522 2100
3 1245 1242 1669
3 1582 1581 1583
3 758 1534 2306
3 1975 1984 2230
3 1358 1510 1950
3 1663 1336 1665
3 2102 960 2203
3 366 1087 1786
3 1740 1490 2231
3 21 207 1709
3 145 146 1609
3 2339 765 2384
3 603 1591 1668
3 2081 199 2149
3 1540 1832 1879
3 1721 1723 1947
3 1754 455 1793
3 1751 1753 2119
3 882 1701 1807
3 1540 1539 1917
3 242 1695 1697
3 1521 354 2091
3 1363 2233 2413
3 1584 1018 1925
3 703 1067 1586
3 1177 1178 1179
3 795 916 1834
3 277 276 607
3 1571 1388 1872
3 22 23 1617
3 1097 823 1177
3 25 26 1624
3 419 418 1790
3 1728 1906 2259
3 440 1455 2261
3 1877 1318 2116
3 1488 1156 1608
3 1439 2130 2273
3 1889 1451 1890
3 1614 209 2389
3 1472 893 2094
3 675 821 823
3 23 24 1674
3 1788 1190 2183
3 917 941 1622
3 1763 1096 1764
3 1068 1442 1684
3 1034 1485 2173
3 2172 1533 2230
3 138 139 1694
3 1065 1570 2197
3 607 674 675
3 1536 1248 2268
3 229 135 1734
3 1437 1925 1926
3 680 510 1646
3 147 209 1537
3 26 27 1689
3 1627 705 2163
3 206 1651 2121
3 2409 1785 2462
3 1492 682 2447
3 1223 1225 1258
3 889 1772 2374
3 253 263 264
3 275 276 277
3 1455 739 2261
3 2022 1382 2176
3 150 227 1484
3 639 1019 1591
3 1449 1640 2070
3 1082 833 2214
3 1503 1502 1504
3 144 200 1717
3 1643 991 1713
3 1190 1791 2183
3 1538 1804 2073
3 1256 2269 2440
3 18 19 1676
3 521 531 2000
3 790 849 2180
3 1075 1329 1650
3 1087 1782 1785
3 1066 994 1218
3 270 269 271
3 682 1492 2494
3 185 252 1454
3 253 158 262
3 1629 1632 1633
3 200 1610 1611
3 1477 1481 2104
3 1623 1487 2465
3 1518 1097 1535
3 1414 1132 2460
3 1179 1217 1433
3 177 1506 1680
3 1392 1017 2525
3 1832 834 2075
3 675 823 1097
3 1459 2094 2134
3 1782 1087 1795
3 1838 1730 2372
3 1639 149 2528
3 1617 23 1674
3 2265 1420 2489
3 180 232 1859
3 1527 1250 1528
3 20 21 1709
3 1083 1508 2311
3 903 866 1703
3 1455 440 2314
3 1187 1858 1888
3 1659 1406 2473
3 1446 1902 2166
3 421 1951 2106
3 1598 210 2115
3 154 259 1671
3 1288 1835 2080
3 1832 1831 1879
3 1258 1225 1478
3 1024 1604 2117
3 1263 1429 1739
3 706 705 1627
3 1583 1581 2352
3 407 1805 1951
3 856 1574 2527
3 1701 882 2036
3 1624 26 1689
3 717 1551 1552
3 1385 2377 2391
3 2302 1745 2354
3 1572 1347 2157
3 1036 883 1917
3 1689 1690 1691
3 1664 1665 2128
3 1476 1479 1480
3 1751 2119 2143
3 815 814 1684
3 1790 889 2400
3 1606 1607 2085
3 265 267 268
3 418 889 1790
3 1522 1521 2091
3 135 136 1734
3 1726 1445 1729
3 647 1796 1797
3 1346 1453 2279
3 1293 1827 2117
3 1242 1244 1669
3 1853 1852 1854
3 889 2374 2400
3 1039 1038 1290
3 1524 628 2199
3 1331 1332 1571
3 1291 1290 1569
3 1475 1476 1493
3 1850 1852 1853
3 1490 1740 2456
3 1689 230 1690
3 1256 1526 1541
3 1704 1705 2167
3 1465 1470 1675
3 956 1073 1572
3 1613 1616 1956
3 916 917 1038
3 2014 1522 2091
3 1221 1222 1223
3 1999 763 2352
3 234 10 1588
3 1697 220 2335
3 1527 1528 1529
3 2298 1600 2413
3 1436 2020 2254
3 1642 1161 1678
3 1523 1385 2436
3 1730 1838 2426
3 795 796 916
3 713 711 1550
3 1456 1263 1739
3 999 1336 1663
3 1785 1784 2462
3 409 415 1783
3 607 675 1517
3 1229 1231 1526
3 1958 1855 2078
3 1589 1588 1590
3 1933 261 2380
3 762 1965 2038
3 1756 1458 2203
3 1776 597 1893
3 1794 1072 1893
3 188 1512 2266
3 1774 2339 2384
3 188 1908 1941
3 1010 1510 1767
3 2189 2285 2307
3 773 834 1917
3 1245 1669 1670
3 1248 1597 2268
3 146 1537 1609
3 818 910 1584
3 1641 1313 1651
3 1217 1745 2302
3 1065 1066 1655
3 1597 1247 2047
3 1360 2177 2376
3 1612 1615 1616
3 2126 867 2186
3 1019 683 1020
3 1747 892 1840
3 1092 1093 1623
3 261 1933 2181
3 400 424 1666
3 1516 1903 2377
3 1100 1392 1605
3 247 1738 1881
3 268 1134 1986
3 1177 823 1178
3 884 1599 1957
3 263 262 2491
3 806 1627 1948
3 1227 1229 1256
3 191 1729 2504
3 1636 1635 2502
3 1480 1479 1601
3 1721 1947 2498
3 1924 1146 2174
3 229 1734 1735
3 175 204 1725
3 1179 1178 1180
3 354 1521 2147
3 665 697 1592
3 640 646 1585
3 627 545 1636
3 1882 240 2399
3 1556 1555 1606
3 1373 1620 2394
3 1871 1071 2419
3 548 1628 1629
3 455 436 1793
3 974 1831 1841
3 1844 1413 2392
3 1612 1614 1615
3 209 1639 1937
3 1329 1330 1331
3 1823 2100 2142
3 1097 1177 1535
3 1021 1020 1022
3 825 1912 2455
3 913 1122 1874
3 400 1666 2113
3 1256 1229 1526
3 1419 1418 2450
3 1552 1551 1553
3 1850 1099 1852
3 1629 1631 1632
3 801 685 2029
3 1618 1619 1621
3 265 268 1986
3 1715 2165 2330
3 1531 1529 1534
3 1022 1024 1576
3 658 693 1746
3 703 686 1067
3 1062 1576 1577
3 1023 1022 1062
3 236 1718 2394
3 1688 502 1740
3 1501 1477 2104
3 213 165 1509
3 646 795 1585
3 196 1737 1738
3 379 679 1795
3 639 640 683
3 924 875 1767
3 1752 699 1753
3 207 2192 2315
3 627 1636 1660
3 1217 1180 1745
3 730 728 1833
3 528 561 1591
3 1444 1417 1998
3 252 186 1602
3 1729 1445 2504
3 460 502 1688
3 1418 946 1778
3 1203 1200 1693
3 548 470 1628
3 849 668 1640
3 646 785 795
3 607 276 674
3 14 15 210
3 147 148 209
3 478 460 1688
3 1709 207 2315
3 1157 1546 1608
3 1155 1731 1899
3 1524 1934 2390
3 1775 921 1876
3 1433 1502 1503
3 470 458 1628
3 1223 1224 1225
3 1291 1569 1964
3 871 1056 1826
3 1781 1783 1915
3 1587 1067 2300
3 916 1038 1039
3 1388 1387 1389
3 1611 1610 1613
3 1075 1328 1329
3 1039 1290 1291
3 1538 1265 1804
3 1184 1185 2163
3 597 598 1794
3 1450 1356 2421
3 1835 576 2080
3 1629 1628 1631
3 1331 1330 1332
3 561 639 1591
3 1476 1480 1493
3 705 703 1586
3 639 683 1019
3 1951 1188 2106
3 436 446 1793
3 1472 1297 2142
3 1332 1387 1388
3 1345 984 1720
3 1329 1328 1330
3 1050 1048 1667
3 150 151 227
3 11 12 228
3 557 541 2256
3 1831 974 1879
3 134 229 1766
3 1357 1358 1638
3 1336 1641 2299
3 1650 1482 1962
3 1591 1019 2512
3 1506 1507 1570
3 1803 801 2029
3 1178 823 1972
3 1552 1553 1554
3 1290 1038 1294
3 1028 1313 1641
3 1237 1239 1597
3 993 1017 1100
3 893 2087 2094
3 149 1484 2528
3 1768 1142 1949
3 9 234 1673
3 1554 1553 1555
3 668 632 1640
3 711 806 1550
3 1628 458 1637
3 1098 1829 1830
3 1482 1331 1483
3 531 1818 2000
3 435 419 1790
3 1156 1157 1608
3 1182 1184 2179
3 510 512 1646
3 1231 1233 1250
3 946 841 1778
3 1483 1331 1571
3 1459 680 2458
3 1166 1040 1210
3 892 1657 1820
3 1042 1445 1726
3 1019 1020 1021
3 749 805 1810
3 234 1588 1589
3 1695 242 1892
3 556 1853 2483
3 1018 1572 1573
3 1529 1528 1530
3 1606 1558 1607
3 1761 1759 2308
3 1396 1032 1921
3 1018 956 1572
3 689 1150 1416
3 1827 1293 2515
3 149 150 1484
3 1647 656 1648
3 1543 694 2196
3 399 409 1783
3 545 525 1636
3 268 269 270
3 715 713 717
3 1100 1017 1392
3 1657 892 1747
3 207 22 1617
3 1666 884 2249
3 1671 1672 1769
3 1554 1555 1556
3 146 147 1537
3 1081 1444 1822
3 711 709 806
3 1443 2005 2322
3 660 658 1746
3 1166 1458 1754
3 916 796 917
3 1056 1728 1826
3 1068 1069 1275
3 184 185 1454
3 158 159 262
3 2007 1687 2231
3 805 1708 1810
3 1672 264 1986
3 1561 1562 1563
3 978 1075 1650
3 1590 1588 2457
3 215 25 1624
3 1551 1550 1565
3 1073 1346 1347
3 857 818 1584
3 1648 656 1649
3 675 674 821
3 561 594 639
3 1731 529 1899
3 2303 1454 2535
3 981 903 1040
3 1630 1629 1633
3 993 877 1017
3 724 718 726
3 512 603 1646
3 1676 235 1858
3 814 1060 1068
3 715 717 1567
3 1796 647 1870
3 1715 1171 2165
3 678 1592 1593
3 644 613 1824
3 1690 1525 2145
3 1297 1822 1823
3 271 656 1647
3 1704 1116 1705
3 1225 1226 1227
3 1275 1069 1338
3 910 956 1018
3 1824 1596 2154
3 1403 1100 1605
3 1221 1219 1222
3 1068 1060 1069
3 1901 245 1949
3 1081 1055 1321
3 1751 563 1752
3 1021 1022 1023
3 672 638 681
3 1095 657 1848
3 1235 1237 1248
3 1561 1556 1562
3 1265 1259 1804
3 524 1819 2016
3 978 1650 2362
3 1492 516 2494
3 229 1735 2061
3 185 186 252
3 157 158 253
3 152 153 233
3 9 10 234
3 1527 1529 1531
3 1808 1344 2360
3 1062 1577 1579
3 1509 1679 1977
3 424 454 1666
3 637 638 672
3 981 1040 1166
3 1555 1558 1606
3 751 749 1810
3 1166 1210 1458
3 1651 1313 2121
3 15 16 2260
3 1633 1632 2509
3 2167 1705 2276
3 551 602 2045
3 697 818 857
3 364 1786 1883
3 832 1189 2204
3 1476 1478 1479
3 678 665 1592
3 213 1509 2096
3 1015 888 1124
3 1062 1022 1576
3 679 1782 1795
3 680 1646 1995
3 1101 1100 1403
3 1109 433 1714
3 1248 1237 1597
3 733 730 1833
3 1702 213 2096
3 499 498 1828
3 1418 1778 2521
3 637 600 638
3 1048 1046 1054
3 1577 1576 1578
3 814 766 1060
3 1279 2252 2292
3 474 470 548
3 199 18 1676
3 157 253 1441
3 1048 1054 1667
3 471 472 2290
3 625 665 678
3 795 785 796
3 1264 1265 1266
3 1437 1926 2350
3 1362 2048 2168
3 1394 2337 2371
3 454 884 1666
3 1022 1020 1024
3 751 1810 1923
3 1046 1023 1580
3 1807 1701 1931
3 1618 208 1619
3 566 588 689
3 1828 498 1829
3 501 509 1599
3 1118 780 1775
3 878 817 929
3 1510 1511 1950
3 1618 1621 1694
3 1052 1081 1822
3 1416 1150 1715
3 1239 1241 1247
3 1396 1921 2067
3 1751 1752 1753
3 1264 1259 1265
3 539 566 1600
3 1762 1127 2496
3 1673 1788 2183
3 1555 1557 1558
3 1052 1050 1055
3 725 724 825
3 1142 1770 1771
3 681 853 867
3 454 501 884
3 1346 1420 1453
3 932 1147 1770
3 1546 1545 1547
3 533 582 1818
3 1266 1337 1460
3 1872 820 2318
3 1117 1119 1713
3 1081 1321 1417
3 1253 1259 1264
3 1569 771 2135
3 1052 1055 1081
3 1181 1178 1972
3 709 706 1627
3 1073 1076 1346
3 1098 1828 1829
3 1382 1380 2176
3 1442 1275 1443
3 919 999 1663
3 1789 828 1855
3 877 815 1684
3 509 539 631
3 992 877 993
3 1266 1265 1337
3 2268 1498 2340
3 1130 1032 1396
3 1095 1603 2508
3 886 826 887
3 531 533 1818
3 1131 1400 1881
3 447 437 516
3 2460 1132 2473
3 940 1535 2418
3 768 1873 2037
3 1813 1869 1954
3 1627 2163 2488
3 1497 1495 1645
3 1198 1409 2168
3 724 726 1912
3 1869 987 1954
3 763 1999 2338
3 1010 1170 1374
3 984 976 1720
3 1470 1743 1744
3 689 588 1150
3 1901 1949 2359
3 1640 632 1862
3 274 272 1787
3 563 564 1752
3 994 817 1505
3 737 1807 1931
3 1770 1147 1771
3 1233 1235 1733
3 2450 1418 2521
3 414 410 1821
3 908 1099 1850
3 1227 1228 1229
3 1692 1203 1693
3 1625 216 2194
3 512 528 603
3 1377 1357 1638
3 1465 1464 1470
3 1360 1359 2177
3 1686 2007 2095
3 1336 1028 1641
3 1857 751 1923
3 1758 572 1759
3 553 541 557
3 1171 1715 1811
3 956 1003 1073
3 1467 1465 1675
3 719 718 724
3 1509 1977 2096
3 1734 1625 1736
3 1503 1504 1868
3 592 597 1776
3 180 181 232
3 162 163 231
3 2308 1759 2370
3 1357 1114 1358
3 875 946 1010
3 509 631 1599
3 17 18 199
3 144 145 200
3 1099 906 1792
3 1469 1467 1494
3 605 589 1939
3 1208 1205 1211
3 354 344 2091
3 692 782 804
3 1010 946 1170
3 1463 1462 1464
3 716 715 718
3 714 713 715
3 271 273 656
3 139 1618 1694
3 549 277 686
3 673 672 766
3 1378 1377 1379
3 2007 868 2095
3 999 1028 1336
3 1208 1211 1447
3 601 545 627
3 1119 1643 1713
3 1332 1333 1387
3 910 912 956
3 520 521 2000
3 828 1789 1819
3 277 607 1520
3 1338 1339 2247
3 818 819 910
3 767 766 814
3 712 711 713
3 1494 1467 1675
3 639 594 640
3 2044 557 2256
3 235 20 1709
3 1620 236 2394
3 804 919 962
3 1862 702 2070
3 681 852 853
3 1559 1556 1561
3 1622 941 2471
3 2165 1440 2330
3 612 644 692
3 697 698 818
3 1903 1516 1994
3 371 379 1795
3 428 426 2138
3 1290 1294 2064
3 1384 1904 2432
3 566 689 1600
3 471 452 472
3 1092 1091 1093
3 1002 1131 1719
3 1090 1089 1091
3 875 841 946
3 1758 1760 1763
3 1562 1606 2085
3 1833 1830 2075
3 178 179 214
3 164 165 213
3 769 923 1815
3 692 644 782
3 804 782 919
3 182 183 256
3 160 161 257
3 1329 1331 1482
3 962 1663 1664
3 1177 1179 2042
3 403 405 1805
3 1461 1460 1462
3 140 208 1618
3 1859 232 1860
3 274 1787 2099
3 1381 2126 2186
3 1558 1560 1789
3 430 428 682
3 452 435 1683
3 1487 1156 1488
3 1470 1464 1743
3 597 1794 1893
3 1244 1253 1669
3 962 919 1663
3 258 8 1673
3 1087 1785 1786
3 970 1042 1726
3 199 1677 2149
3 1664 1663 1665
3 1229 1230 1231
3 991 827 1713
3 792 1603 1848
3 1822 1444 1823
3 665 666 697
3 19 20 235
3 142 143 236
3 728 1098 1833
3 532 530 1898
3 1015 1124 1372
3 1546 1547 1548
3 1851 1850 1853
3 1877 393 2240
3 923 1105 1815
3 1090 1091 1092
3 687 686 703
3 1683 435 1790
3 887 826 1961
3 684 663 1089
3 426 1934 2138
3 464 510 680
3 853 854 855
3 568 572 1758
3 1376 1357 1377
3 1205 1203 1692
3 1607 1789 1855
3 710 709 711
3 780 781 1775
3 1434 1103 1435
3 876 815 877
3 766 672 1656
3 1393 1590 2457
3 684 1089 1090
3 530 890 1898
3 926 1920 1943
3 696 414 1821
3 1563 1562 1777
3 1054 1046 1580
3 1398 1973 1974
3 137 216 1625
3 1210 1040 1430
3 1750 563 1751
3 2010 1665 2299
3 1510 1374 1511
3 1777 1562 2085
3 1707 252 1791
3 1932 1404 1933
3 459 438 1814
3 139 140 1618
3 1093 1156 1487
3 231 163 1658
3 699 722 723
3 1545 1095 2508
3 598 612 1794
3 579 554 1880
3 1941 1908 2401
3 1231 1232 1233
3 1831 1829 1841
3 1037 1383 1799
3 177 178 1506
3 636 600 637
3 1036 1539 2286
3 1356 1114 1357
3 1523 1516 2377
3 704 703 705
3 403 402 405
3 648 792 1848
3 723 756 808
3 1388 1389 2170
3 933 932 1770
3 223 1710 1711
3 1779 399 1783
3 1223 1222 1224
3 1028 1029 1313
3 257 161 1654
3 418 412 421
3 734 882 1807
3 693 657 1095
3 1368 1370 1436
3 136 137 1625
3 688 652 817
3 1075 1327 1328
3 540 479 1813
3 398 395 402
3 548 1629 1630
3 574 591 699
3 1469 1494 1495
3 1041 1598 2175
3 167 168 202
3 175 176 204
3 2045 2046 2201
3 186 187 1602
3 886 887 888
3 1253 1254 1259
3 8 9 1673
3 792 655 810
3 843 1145 1960
3 1180 1349 1745
3 1165 1345 1512
3 708 706 709
3 136 1625 1734
3 21 22 207
3 140 141 208
3 625 626 665
3 1093 1094 1156
3 1585 795 1834
3 1117 1713 1806
3 599 579 600
3 810 871 1826
3 1047 1046 1048
3 1292 1291 1293
3 161 162 1654
3 199 1676 1677
3 1260 1282 1804
3 1005 1142 1768
3 1233 1234 1235
3 792 810 922
3 1122 1719 1737
3 976 985 1720
3 1278 1279 2292
3 2390 1934 2531
3 1436 1437 2350
3 270 271 1647
3 1199 966 1846
3 1683 1342 2212
3 656 273 2124
3 699 591 722
3 1977 1139 2096
3 1738 1719 1881
3 1722 985 1874
3 1797 1448 1798
3 162 231 1654
3 632 604 1862
3 252 1602 1791
3 1051 1050 1052
3 1045 1023 1046
3 648 655 792
3 993 1100 1101
3 1321 1055 1322
3 806 709 1627
3 904 903 981
3 1220 1267 1268
3 648 605 655
3 1737 1719 1738
3 385 399 1779
3 506 499 1828
3 1132 266 1402
3 1170 1418 1419
3 1323 2302 2354
3 24 25 215
3 137 138 216
3 721 965 1919
3 1787 1414 2460
3 778 1117 1806
3 723 722 756
3 407 403 1805
3 564 574 1752
3 1049 1048 1050
3 842 841 875
3 1608 1546 1842
3 809 808 899
3 1517 1519 1520
3 1530 1532 1533
3 889 421 1772
3 913 1002 1122
3 1314 1316 1367
3 1017 877 1684
3 841 802 1778
3 1235 1236 1237
3 751 1857 1900
3 1114 924 1767
3 1344 1644 2360
3 1895 1394 2371
3 1518 1535 1861
3 1758 1759 1760
3 1122 1002 1719
3 546 563 1750
3 1056 1726 1727
3 663 660 1746
3 621 622 625
3 1720 985 1721
3 1857 1843 1900
3 808 756 913
3 1056 970 1726
3 27 28 230
3 134 135 229
3 908 906 1099
3 163 164 1658
3 1727 1726 1729
3 7 8 258
3 154 155 259
3 1101 1403 1404
3 808 913 1874
3 1260 1269 1282
3 1389 1387 2262
3 1297 1053 1822
3 1555 1553 1557
3 1463 1464 1465
3 230 28 1765
3 1237 1238 1239
3 554 553 1880
3 775 778 1806
3 985 899 1874
3 1270 1524 2199
3 489 1820 1936
3 692 1072 1794
3 1472 2142 2272
3 1845 496 1929
3 438 431 1814
3 613 615 1824
3 1241 1242 1245
3 1783 415 1915
3 1192 2081 2149
3 178 214 1506
3 1816 988 1817
3 1760 1759 1761
3 1103 1092 1623
3 1512 1345 1661
3 1876 921 2295
3 1165 984 1345
3 978 1074 1075
3 1239 1240 1241
3 542 541 553
3 813 988 1816
3 1148 984 1165
3 871 970 1056
3 472 452 1683
3 1207 1796 1870
3 1167 1166 1754
3 1296 1053 1297
3 966 964 1846
3 976 899 985
3 982 976 984
3 702 1815 2015
3 900 899 976
3 1143 995 1206
3 1576 1024 1827
3 1235 1248 1733
3 1558 1557 1560
3 943 995 1143
3 1920 1144 1943
3 1471 2115 2477
3 29 30 255
3 132 133 254
3 1630 1633 1634
3 1225 1224 1226
3 1925 1573 1926
3 1211 1205 1692
3 725 825 826
3 1113 924 1114
3 600 579 1988
3 717 1552 1567
3 1820 1657 1936
3 674 276 2099
3 395 393 1877
3 572 543 1897
3 1575 1308 2255
3 999 1000 1028
3 1118 1775 1876
3 1797 1798 2430
3 526 546 559
3 867 853 2186
3 1142 1771 1949
3 1068 1275 1442
3 679 385 1779
3 1607 1558 1789
3 580 568 1758
3 1244 1252 1253
3 1760 1761 1762
3 398 402 403
3 1476 1258 1478
3 418 421 889
3 1771 1147 1839
3 164 213 1658
3 1720 1721 2267
3 1668 1591 2512
3 1042 1128 1445
3 1098 1830 1833
3 1102 1092 1103
3 2249 884 2466
3 1104 1103 1434
3 410 416 1821
3 514 513 541
3 580 1758 1763
3 637 673 1741
3 1913 936 1914
3 1394 1395 2337
3 919 920 999
3 577 554 579
3 2111 1660 2263
3 231 1658 1659
3 612 613 644
3 568 543 572
3 770 775 1806
3 1445 1128 1446
3 1546 1548 1842
3 448 460 478
3 810 870 871
3 1789 1560 1819
3 1154 1082 1431
3 873 973 1802
3 379 385 679
3 837 850 921
3 1461 1462 1463
3 1346 1076 1420
3 1088 1344 1808
3 2125 1143 2353
3 931 977 978
3 882 772 1802
3 29 255 1765
3 849 1513 2180
3 1713 827 1806
3 1130 1396 1397
3 681 638 852
3 1417 1321 1873
3 1654 1402 2530
3 502 526 1740
3 1124 888 2177
3 1266 1460 1461
3 515 1175 1840
3 1253 1264 1669
3 479 466 1813
3 1727 1729 1757
3 379 380 385
3 1971 1480 2514
3 1637 1739 2459
3 1207 1205 1208
3 529 519 1899
3 1129 1845 1929
3 224 1661 2267
3 192 1856 2361
3 732 734 1807
3 1184 2163 2435
3 1119 1120 1353
3 415 414 431
3 719 724 725
3 559 546 1750
3 871 872 970
3 1038 917 1622
3 574 699 1752
3 166 167 1679
3 1117 1118 1119
3 1409 1196 2035
3 617 619 621
3 1172 1173 1439
3 1191 1005 1768
3 664 663 684
3 494 493 1841
3 890 529 1731
3 840 802 841
3 493 974 1841
3 385 386 399
3 679 1779 1780
3 371 376 379
3 416 433 1109
3 670 769 1815
3 902 866 903
3 1780 1779 1781
3 480 515 1840
3 970 971 1042
3 433 448 1714
3 28 29 1765
3 1005 949 1142
3 778 780 1117
3 959 1037 1799
3 1073 1003 1076
3 535 532 1898
3 1119 1118 1120
3 658 657 693
3 1378 1379 1380
3 1397 1396 1809
3 1610 1609 1612
3 1819 1560 2016
3 1837 952 1865
3 1719 1131 1881
3 1131 1399 1400
3 1352 1138 2058
3 399 406 409
3 548 1630 2041
3 1275 1338 2251
3 582 1816 1818
3 1835 1836 2144
3 993 1101 1980
3 1699 1698 1700
3 2407 364 2505
3 1189 1190 1788
3 1117 780 1118
3 1830 1829 1831
3 637 672 673
3 692 804 1072
3 1204 1203 1205
3 1374 1170 2139
3 612 692 1794
3 1642 1408 2286
3 723 808 809
3 450 459 1812
3 409 410 414
3 802 801 1778
3 1853 1854 2483
3 1042 1127 1128
3 1199 1846 2225
3 1147 990 1273
3 1383 1384 2432
3 432 431 438
3 1353 1120 1390
3 1093 1091 1094
3 2020 250 2254
3 148 149 1639
3 606 605 648
3 1970 2016 2422
3 2201 2046 2327
3 475 471 513
3 412 407 1951
3 1991 246 2139
3 727 695 728
3 1673 234 1788
3 1554 1556 1559
3 1089 663 1746
3 1846 964 2056
3 923 991 1088
3 409 406 410
3 729 728 730
3 1424 1427 1856
3 1473 1911 2407
3 1376 1377 1378
3 1010 1374 1510
3 853 852 854
3 366 369 1087
3 772 873 1802
3 1219 1218 1626
3 1766 229 2061
3 1088 991 1344
3 922 810 1826
3 518 506 695
3 405 402 2116
3 962 1664 2316
3 913 942 1002
3 932 990 1147
3 629 813 1816
3 876 877 992
3 399 386 406
3 932 845 990
3 1002 1123 1131
3 843 996 1145
3 781 837 1775
3 262 2304 2491
3 431 696 1814
3 1273 1695 1892
3 731 730 732
3 737 732 1807
3 439 438 450
3 1829 498 1841
3 800 685 801
3 767 814 815
3 1060 766 1656
3 673 766 767
3 1403 1605 1882
3 716 718 719
3 1338 1069 1339
3 847 752 1843
3 864 862 1116
3 2302 443 2519
3 923 827 991
3 526 559 1740
3 1911 1473 2358
3 1085 1310 1867
3 809 899 900
3 1227 1226 1228
3 729 730 731
3 1436 1370 1437
3 731 732 737
3 769 827 923
3 456 452 471
3 1433 1503 2471
3 1435 1103 1623
3 385 380 386
3 1141 1787 2460
3 1354 1088 1808
3 657 649 1848
3 415 431 432
3 484 892 1820
3 727 728 729
3 855 854 1450
3 1721 1722 1723
3 1643 1353 1644
3 1145 1916 1960
3 1421 1191 1422
3 466 1812 1813
3 943 944 995
3 1356 1357 1376
3 714 715 716
3 1156 1094 1157
3 598 611 612
3 631 1600 2298
3 590 589 605
3 965 969 1919
3 416 1109 1821
3 242 1697 2335
3 1548 1547 1549
3 550 573 584
3 584 604 632
3 409 414 415
3 712 713 714
3 642 670 702
3 818 698 819
3 1006 1005 1191
3 1624 1689 1691
3 169 170 237
3 173 174 238
3 956 912 1003
3 937 936 1913
3 1317 1025 1875
3 515 540 550
3 973 1799 1800
3 973 959 1799
3 518 695 727
3 910 819 912
3 584 573 604
3 1170 946 1418
3 173 238 1847
3 550 540 573
3 982 984 1148
3 900 976 982
3 441 435 452
3 448 478 1714
3 1849 1648 2173
3 1631 1628 1637
3 1830 1831 1832
3 1383 1216 1384
3 734 772 882
3 949 933 1770
3 1332 1330 1333
3 574 575 591
3 1105 1088 1354
3 702 670 1815
3 498 494 1841
3 827 770 1806
3 873 959 973
3 1390 1391 1415
3 450 438 459
3 950 949 1005
3 351 362 364
3 1313 1029 1314
3 432 438 439
3 837 838 850
3 1273 1274 1695
3 850 851 943
3 911 952 1837
3 1259 1260 1804
3 566 587 588
3 1037 1216 1383
3 1337 1265 1538
3 1087 369 1795
3 810 655 870
3 1559 1561 1566
3 1147 1273 1839
3 732 733 734
3 1662 867 2126
3 890 1731 2241
3 1854 1852 2397
3 515 479 540
3 451 450 466
3 697 666 698
3 1367 1316 1368
3 662 660 663
3 365 355 694
3 1358 1114 1767
3 379 376 380
3 1796 1448 1797
3 179 180 1859
3 790 668 849
3 569 568 580
3 690 860 931
3 466 450 1812
3 431 414 696
3 1973 1133 1974
3 651 649 657
3 467 466 479
3 1288 1289 1835
3 264 265 1986
3 1302 1303 1304
3 592 596 597
3 1873 1321 2037
3 544 543 568
3 275 277 549
3 209 1937 2389
3 539 565 566
3 1485 227 1486
3 2384 2190 2408
3 1781 1779 1783
3 480 479 515
3 689 1416 2413
3 1108 1161 1539
3 1867 1310 1895
3 1300 1301 1302
3 1695 1696 1697
3 633 632 668
3 1304 1451 1452
3 988 911 1837
3 168 169 1724
3 969 1012 1172
3 582 629 1816
3 1843 752 1900
3 629 812 813
3 710 711 712
3 1782 1780 1784
3 536 535 543
3 1089 1746 1969
3 1108 1107 1161
3 1514 1426 1856
3 486 484 1820
3 369 371 1795
3 1817 988 1924
3 493 609 974
3 1422 1191 2023
3 1426 1424 1856
3 842 875 924
3 922 1826 2259
3 989 1361 1886
3 928 1070 1288
3 669 668 790
3 1113 1114 1356
3 1027 847 1843
3 728 695 1098
3 734 735 772
3 975 1107 1108
3 955 859 1962
3 813 911 988
3 1208 1448 1796
3 1101 1405 1980
3 602 676 2045
3 586 581 589
3 546 547 563
3 493 491 609
3 628 1524 2390
3 348 344 354
3 1298 1299 1300
3 509 538 539
3 974 609 975
3 813 891 911
3 871 870 872
3 1355 1354 1423
3 489 486 1820
3 778 779 780
3 1025 1176 1875
3 772 773 873
3 803 1743 2347
3 167 202 1679
3 873 883 959
3 1483 1571 2375
3 427 1756 2221
3 540 1813 1954
3 1202 1200 1203
3 959 1035 1037
3 837 921 1775
3 1304 1305 1451
3 1799 1383 2195
3 604 642 1862
3 1470 1744 2474
3 1854 2397 2453
3 1282 1269 1386
3 1573 1572 2157
3 472 2222 2290
3 1307 1708 2341
3 769 770 827
3 1037 1215 1216
3 791 790 856
3 1053 1052 1822
3 1056 1727 1728
3 1341 1138 1352
3 1300 1299 1301
3 1814 696 1838
3 1198 1196 1409
3 492 491 493
3 439 450 451
3 1171 858 2132
3 1259 1254 1260
3 665 626 666
3 970 872 971
3 258 1602 2357
3 1296 1297 1472
3 490 489 491
3 516 437 2494
3 1298 1027 1299
3 846 845 932
3 501 508 509
3 460 461 502
3 448 449 460
3 482 480 1840
3 1229 1228 1230
3 604 641 642
3 1424 1423 1427
3 502 503 526
3 1028 1000 1029
3 935 933 949
3 1084 1085 1867
3 2028 1711 2353
3 1513 1426 1514
3 892 482 1840
3 852 638 1988
3 402 395 1877
3 738 737 845
3 413 412 418
3 1119 1353 1643
3 526 527 546
3 280 279 281
3 1731 1155 2123
3 1042 971 1127
3 1208 1447 1448
3 433 434 448
3 262 159 2304
3 184 1454 2303
3 1051 1052 1053
3 1816 1817 1818
3 1081 1417 1444
3 781 836 837
3 911 951 952
3 1090 1092 1102
3 202 168 1724
3 1085 1309 1310
3 408 407 412
3 1337 1538 1864
3 1515 1514 1516
3 530 529 890
3 1517 1518 1519
3 549 686 687
3 923 1088 1105
3 404 403 407
3 1835 1289 1836
3 1314 1367 2121
3 1380 1379 2416
3 670 671 769
3 899 808 1874
3 1040 903 1703
3 1596 1595 2154
3 1496 1495 1497
3 636 637 1741
3 1377 1638 2288
3 1288 1070 1289
3 1072 804 1981
3 1129 1334 1845
3 1865 1084 1866
3 792 922 1603
3 1253 1252 1254
3 981 1167 1792
3 1302 1301 1303
3 1641 1651 2019
3 952 953 1084
3 1813 1812 1869
3 732 730 733
3 975 1106 1107
3 1142 949 1770
3 981 1166 1167
3 840 841 842
3 451 466 467
3 1273 990 1274
3 1049 1050 1051
3 1473 2407 2505
3 968 966 1199
3 642 643 670
3 1310 1309 1311
3 422 419 435
3 1063 833 1082
3 919 782 920
3 911 891 951
3 1084 953 1085
3 1763 1764 2164
3 1498 1497 1682
3 515 550 1175
3 1079 937 1913
3 642 702 1862
3 845 737 1931
3 1394 1311 1395
3 1395 1521 1522
3 467 479 480
3 1755 1754 1793
3 1231 1230 1232
3 1557 1553 2030
3 1624 1691 2262
3 584 632 633
3 1094 1091 1969
3 708 709 710
3 1948 1627 2488
3 952 951 953
3 1102 1103 1104
3 1047 1048 1049
3 1310 1311 1394
3 1852 1099 1985
3 143 144 1717
3 813 812 891
3 1944 1044 1945
3 1105 1354 1355
3 1300 1302 1455
3 1914 936 1940
3 1415 1391 1710
3 1299 1027 1843
3 952 1084 1865
3 1695 1274 1696
3 776 774 1928
3 282 281 283
3 2003 1347 2279
3 1206 995 1499
3 1164 1685 1686
3 1551 1565 2030
3 969 1172 1919
3 633 668 669
3 734 733 735
3 1373 1372 1438
3 599 600 636
3 1431 1860 2487
3 1579 1577 1999
3 484 482 892
3 917 940 941
3 2144 1836 2169
3 1866 1084 1867
3 1110 1747 1748
3 998 1171 1811
3 1390 1120 1391
3 644 1824 2057
3 1362 1961 2048
3 944 1283 1825
3 1086 1027 1298
3 679 1780 1782
3 974 975 1879
3 507 506 518
3 1121 1079 1401
3 775 777 778
3 1965 762 2349
3 1045 1046 1047
3 1772 421 2106
3 16 17 2081
3 416 417 433
3 921 850 2125
3 1607 1855 1958
3 649 648 1848
3 1241 1240 1242
3 2012 1443 2251
3 926 928 1920
3 1487 1488 2025
3 1006 1191 1421
3 1355 1423 1424
3 1133 852 1988
3 591 592 1776
3 1299 1843 1857
3 1085 1308 1309
3 490 491 492
3 958 694 1575
3 1384 1216 1385
3 741 915 1878
3 1233 1232 1234
3 669 790 791
3 481 480 482
3 687 703 704
3 492 493 494
3 1634 1633 1922
3 1697 1696 1698
3 1721 985 1722
3 1839 1273 1892
3 772 735 773
3 488 486 489
3 950 1005 1006
3 1513 1514 1515
3 454 500 501
3 873 773 883
3 284 283 285
3 2185 1505 2442
3 959 883 1035
3 543 535 1897
3 1904 1384 2093
3 800 801 802
3 1037 1035 1215
3 1293 1964 1965
3 1239 1238 1240
3 943 1143 2125
3 1782 1784 1785
3 913 756 942
3 488 490 1884
3 1590 1749 2501
3 1235 1234 1236
3 791 856 1408
3 702 2015 2070
3 1108 1539 1540
3 1021 1023 1045
3 695 506 1828
3 1530 1528 1532
3 488 489 490
3 1621 1619 2161
3 704 705 706
3 1304 1303 1305
3 558 1704 2167
3 625 622 626
3 542 553 554
3 604 573 641
3 664 684 685
3 564 571 574
3 1108 1540 1879
3 1856 1427 2361
3 880 1025 1129
3 1395 1311 1521
3 1466 1465 1467
3 915 495 1884
3 1515 1516 1523
3 1237 1236 1238
3 606 648 649
3 999 920 1000
3 676 829 1043
3 2100 794 2142
3 227 151 1500
3 577 579 599
3 153 154 1671
3 1175 550 1927
3 1014 888 1015
3 286 285 287
3 1649 1280 2427
3 1725 204 2137
3 975 609 1106
3 1129 1317 1334
3 1109 1730 2426
3 1468 1467 1469
3 1131 1123 1399
3 1215 2235 2378
3 1976 1149 1989
3 397 395 398
3 746 743 1878
3 1041 1343 1598
3 975 1108 1879
3 741 495 915
3 1167 1754 1755
3 288 287 289
3 743 741 1878
3 1274 990 1931
3 1506 214 1507
3 857 1584 2277
3 2341 1522 2387
3 846 932 933
3 1107 1106 1110
3 584 633 1927
3 290 289 291
3 722 591 1776
3 1544 1094 1969
3 1135 270 1647
3 935 949 950
3 1920 1288 2080
3 754 1896 2108
3 1693 1199 2225
3 292 291 293
3 394 393 395
3 745 743 746
3 1002 942 1123
3 731 737 738
3 294 293 295
3 1018 1573 1925
3 296 295 297
3 298 297 299
3 321 322 325
3 317 320 321
3 314 315 317
3 312 313 314
3 310 311 312
3 308 309 310
3 1898 890 2275
3 306 307 308
3 304 305 306
3 1401 1079 1913
3 300 299 301
3 302 303 304
3 300 301 302
3 302 301 303
3 491 489 1936
3 298 299 300
3 304 303 305
3 306 305 307
3 308 307 309
3 310 309 311
3 312 311 313
3 314 313 315
3 317 315 320
3 321 320 322
3 1301 1299 1857
3 514 541 542
3 296 297 298
3 850 838 851
3 1310 1394 1895
3 294 295 296
3 590 605 606
3 292 293 294
3 651 657 658
3 290 291 292
3 1207 1208 1796
3 835 1976 1989
3 621 619 622
3 746 1878 1896
3 481 482 483
3 1026 847 1027
3 1335 1207 1870
3 1661 59 2266
3 727 729 1155
3 288 289 290
3 1058 776 1928
3 662 663 664
3 495 488 1884
3 1959 319 2522
3 943 851 944
3 1293 1291 1964
3 534 532 535
3 640 645 646
3 2280 1014 2385
3 286 287 288
3 591 575 592
3 521 519 529
3 13 14 2114
3 780 779 781
3 918 908 1850
3 837 836 838
3 209 148 1639
3 754 748 1896
3 745 746 747
3 769 671 770
3 929 1065 2197
3 1278 1058 1279
3 483 482 484
3 1564 1557 2030
3 633 807 1927
3 392 391 393
3 1057 1621 2161
3 569 580 581
3 284 285 286
3 876 992 1894
3 497 494 498
3 1630 1635 2041
3 982 1148 1918
3 612 611 613
3 700 634 1044
3 822 674 2099
3 880 1129 1929
3 432 439 654
3 1039 1291 1292
3 1164 1686 1989
3 1129 1025 1317
3 738 845 846
3 582 583 629
3 278 6 279
3 544 568 569
3 1701 1274 1931
3 747 749 751
3 1085 953 1308
3 928 930 1070
3 747 748 749
3 1421 1422 2415
3 902 903 904
3 1309 1308 1543
3 642 641 643
3 904 981 1792
3 646 784 785
3 536 543 544
3 1204 1205 1207
3 365 694 958
3 71 72 217
3 88 89 1901
3 87 88 193
3 101 102 189
3 85 86 242
3 99 100 241
3 74 75 192
3 91 92 219
3 94 95 191
3 83 84 220
3 97 98 221
3 77 78 218
3 80 81 194
3 89 90 245
3 62 63 244
3 60 61 188
3 64 65 223
3 67 68 190
3 90 91 1909
3 98 99 1905
3 61 62 1908
3 69 70 243
3 68 69 1907
3 70 71 1910
3 410 411 416
3 586 589 590
3 685 684 2029
3 390 389 391
3 1715 1150 1811
3 1924 1837 2215
3 282 283 284
3 496 497 1929
3 233 1671 1769
3 627 2185 2442
3 1567 1552 2062
3 629 630 812
3 424 453 454
3 583 562 1942
3 749 750 805
3 744 743 745
3 1897 535 1898
3 467 480 481
3 504 759 880
3 670 643 671
3 89 245 1901
3 193 88 1901
3 221 98 1905
3 245 90 1909
3 91 219 1909
3 62 244 1908
3 188 61 1908
3 99 241 1905
3 190 68 1907
3 71 217 1910
3 69 243 1907
3 243 70 1910
3 505 499 506
3 475 513 514
3 1945 1044 2071
3 1712 2125 2353
3 339 343 440
3 989 1360 1361
3 764 869 1152
3 778 777 779
3 1686 1685 1687
3 742 741 743
3 979 989 1886
3 729 731 1887
3 926 927 928
3 1305 1306 1307
3 1838 1278 2292
3 747 746 748
3 181 182 1652
3 1886 1361 2305
3 1595 1594 2486
3 597 596 598
3 928 1288 1920
3 1970 824 2156
3 1425 1424 1426
3 497 504 1929
3 748 746 1896
3 745 747 1900
3 998 858 1171
3 563 547 564
3 1155 729 1887
3 634 583 1942
3 1439 1173 1440
3 1026 1027 1086
3 79 80 1904
3 1533 1532 1536
3 1449 1426 1513
3 1106 609 1936
3 1318 1013 1319
3 1098 695 1828
3 492 494 496
3 750 748 754
3 731 738 1887
3 2415 1422 2516
3 533 562 582
3 988 1837 1924
3 1216 1215 1863
3 534 535 536
3 747 751 1900
3 1753 809 2119
3 1183 824 1970
3 740 495 741
3 80 194 1904
3 893 383 2087
3 655 605 1939
3 1884 2034 2082
3 1301 1857 1923
3 1307 1306 1708
3 752 745 1900
3 750 754 755
3 76 77 1903
3 2090 2347 2365
3 255 30 2159
3 132 254 2160
3 448 434 449
3 753 848 926
3 1075 1074 1327
3 487 488 495
3 377 381 647
3 483 484 485
3 755 754 2148
3 1584 1925 2277
3 1186 1183 1970
3 951 891 1281
3 485 484 486
3 546 527 547
3 133 134 1766
3 1786 1785 2409
3 280 281 282
3 460 449 461
3 744 745 752
3 77 218 1903
3 983 1918 2342
3 1708 1306 1810
3 1389 2069 2170
3 487 486 488
3 641 573 1954
3 507 518 519
3 502 461 503
3 519 518 1899
3 1202 1203 1204
3 821 897 1972
3 92 93 1902
3 521 529 530
3 749 748 750
3 2176 1380 2416
3 885 826 886
3 485 486 487
3 371 372 376
3 1289 1070 1871
3 1110 1657 1747
3 753 926 1943
3 700 1044 1944
3 880 881 1025
3 496 1845 2034
3 1072 1981 2393
3 462 464 2134
3 1949 1771 2359
3 1044 634 1942
3 550 584 1927
3 1390 1415 2118
3 526 503 527
3 990 845 1931
3 1009 1213 1214
3 740 742 1144
3 219 92 1902
3 727 1155 1899
3 369 370 371
3 623 690 2150
3 1279 1058 1928
3 1408 2235 2286
3 487 495 740
3 979 1886 2086
3 1305 1303 1306
3 421 412 1951
3 843 844 996
3 633 669 807
3 518 727 1899
3 826 825 1961
3 1657 1106 1936
3 1172 1012 1173
3 740 741 742
3 433 417 434
3 505 506 507
3 1333 1674 2437
3 742 743 744
3 469 458 470
3 1381 1380 1382
3 1293 1965 2515
3 1554 1559 2062
3 553 557 2499
3 1774 389 2339
3 497 498 499
3 483 485 576
3 740 1144 1935
3 773 735 834
3 366 367 369
3 1120 1118 1876
3 1515 1523 1574
3 1319 1013 2039
3 1303 1301 1923
3 457 447 458
3 561 593 594
3 1355 1424 1425
3 609 491 1936
3 204 1732 2137
3 791 1408 1642
3 995 944 1825
3 456 471 475
3 1692 1693 2239
3 580 1763 2164
3 1292 1293 2117
3 441 452 456
3 388 384 389
3 823 821 1972
3 504 880 1929
3 176 177 1680
3 1070 1071 1871
3 15 2260 2477
3 362 363 366
3 2178 2300 2449
3 1035 883 1036
3 2285 1563 2307
3 978 977 1074
3 1090 1102 2029
3 1810 1306 1923
3 496 494 497
3 1306 1303 1923
3 432 654 1915
3 934 933 935
3 356 355 365
3 398 403 404
3 635 701 843
3 1110 1106 1657
3 574 571 575
3 1025 881 1176
3 386 380 786
3 415 432 1915
3 343 347 1911
3 1070 930 1071
3 1688 1740 2231
3 1385 1216 1863
3 1696 1274 1701
3 1645 305 2317
3 880 759 881
3 926 848 927
3 1427 1423 2217
3 1339 1662 2388
3 770 774 775
3 1263 1257 1428
3 1337 1864 2412
3 349 348 355
3 2267 1721 2498
3 753 752 847
3 1375 1086 1473
3 900 982 983
3 332 335 739
3 429 428 430
3 744 752 753
3 1171 2132 2165
3 1425 1426 1449
3 987 641 1954
3 1883 1786 2409
3 427 426 428
3 928 927 930
3 1815 1105 2015
3 1206 1499 1941
3 410 406 411
3 573 540 1954
3 497 499 504
3 528 560 561
3 1933 1404 2399
3 1091 1089 1969
3 1804 1282 2073
3 504 505 759
3 963 924 1113
3 1711 1710 1712
3 881 759 1146
3 968 1199 1200
3 351 352 362
3 848 847 1026
3 521 530 531
3 1884 490 2034
3 1277 957 1966
3 1349 1350 2329
3 676 1043 2045
3 997 1159 1286
3 517 1889 1890
3 781 835 836
3 944 948 1283
3 722 1776 2026
3 507 519 520
3 2040 1352 2058
3 1276 957 1277
3 446 437 447
3 931 860 977
3 361 359 765
3 1248 1536 2534
3 512 523 528
3 408 412 413
3 1368 1369 1370
3 451 2169 2223
3 192 75 1994
3 942 756 2026
3 345 344 348
3 764 1152 1963
3 413 418 419
3 1286 1773 1774
3 770 671 774
3 275 549 2124
3 1497 1645 2461
3 1982 1472 2272
3 422 435 441
3 281 279 736
3 1134 270 1135
3 582 562 583
3 1421 2415 2454
3 485 487 1935
3 2300 1067 2480
3 1578 1576 1827
3 930 927 1061
3 1026 1086 1375
3 922 2259 2379
3 1391 1120 1876
3 1495 1494 2493
3 404 407 408
3 879 2178 2449
3 1700 1698 2036
3 607 1517 1520
3 753 847 848
3 416 411 417
3 1144 742 1943
3 775 776 777
3 754 2108 2148
3 1006 1421 1953
3 585 581 586
3 531 530 532
3 235 1709 1888
3 520 519 521
3 1180 1181 1349
3 1146 759 1967
3 708 710 1921
3 1350 2253 2329
3 436 430 437
3 504 499 505
3 643 641 987
3 336 330 517
3 811 1059 1149
3 1164 1411 1685
3 846 933 934
3 635 843 1960
3 983 982 1918
3 971 872 1096
3 1149 1163 1164
3 169 237 1724
3 1314 1315 1316
3 629 583 630
3 891 812 1916
3 462 463 464
3 487 740 1935
3 798 2084 2189
3 1814 1838 2292
3 1284 1489 1491
3 340 336 2014
3 1670 1461 2200
3 920 782 2057
3 890 2241 2275
3 510 511 512
3 278 279 280
3 839 802 840
3 1858 235 1888
3 1698 1696 2036
3 104 105 222
3 57 58 224
3 1185 1183 1186
3 588 587 623
3 638 600 1988
3 1282 1386 2245
3 811 776 1058
3 816 815 876
3 2034 1845 2082
3 761 636 1741
3 566 565 587
3 174 175 1725
3 347 350 351
3 1469 1495 1496
3 1059 1058 1278
3 811 1149 1976
3 576 485 1935
3 659 658 660
3 859 1153 1962
3 76 1903 1994
3 1821 1109 2426
3 1294 1038 1622
3 733 1833 2075
3 992 993 1980
3 1566 1561 2285
3 525 474 2041
3 464 465 510
3 343 346 347
3 360 893 1982
3 650 649 651
3 896 608 936
3 950 1006 1007
3 1508 1859 1860
3 539 538 565
3 440 343 1911
3 341 340 344
3 221 1905 1906
3 1297 1823 2142
3 759 505 1967
3 1295 1053 1296
3 473 470 474
3 1463 1465 1466
3 1143 1206 2028
3 799 685 800
3 1210 2077 2203
3 509 508 538
3 492 496 2034
3 1553 1551 2030
3 1260 1261 1269
3 1430 1040 1703
3 586 590 1940
3 838 836 868
3 1705 624 2276
3 1749 972 2501
3 742 744 1943
3 804 962 1981
3 1367 1368 2254
3 531 532 533
3 337 336 340
3 1157 1094 1544
3 536 544 1158
3 812 630 1960
3 781 779 835
3 56 57 1947
3 630 583 634
3 1405 1404 1932
3 1281 891 1916
3 339 342 343
3 1411 1163 1730
3 322 323 324
3 344 340 2091
3 1735 1734 1736
3 75 76 1994
3 430 682 2494
3 1907 243 2360
3 589 581 2164
3 694 355 2196
3 744 753 1943
3 775 774 776
3 1210 1430 2077
3 335 338 339
3 1102 1803 2029
3 1078 937 1079
3 870 655 1939
3 505 507 1967
3 357 360 1982
3 1896 1878 2101
3 326 325 328
3 934 935 957
3 585 608 895
3 333 330 336
3 1270 1272 1524
3 688 817 878
3 507 520 1967
3 1428 1257 2074
3 1818 1817 2000
3 896 937 1077
3 934 957 1111
3 329 328 330
3 1499 995 1825
3 944 851 948
3 387 445 462
3 1678 1161 2228
3 777 776 811
3 313 311 757
3 324 331 332
3 848 1026 1955
3 1312 998 1811
3 1321 1322 2037
3 1080 1079 1121
3 1105 1355 2015
3 1645 2317 2461
3 1559 1568 2062
3 332 334 335
3 501 500 508
3 321 325 326
3 394 395 397
3 322 320 323
3 1529 1530 2171
3 1137 797 1138
3 811 1058 1059
3 661 660 662
3 569 581 585
3 183 4 2303
3 5 160 2304
3 1340 1138 1341
3 1660 1626 2185
3 1743 1464 2347
3 1026 1375 1955
3 1149 1059 1163
3 1736 1625 2194
3 1322 1667 2434
3 311 309 1959
3 309 307 319
3 894 700 1944
3 533 534 562
3 1276 1277 1366
3 2190 1706 2408
3 533 532 534
3 1214 1213 1410
3 1164 1163 1411
3 843 701 844
3 1009 1214 2055
3 234 1589 1788
3 2000 1817 2174
3 317 321 2050
3 328 325 945
3 392 393 394
3 588 623 2089
3 1162 958 1681
3 1078 1080 1136
3 927 848 1955
3 1496 1497 1498
3 390 391 392
3 1061 927 1955
3 1283 948 1284
3 635 634 700
3 1244 1251 1252
3 218 78 2093
3 756 722 2026
3 1071 1784 2419
3 1218 1505 2185
3 1284 948 1285
3 1489 1285 1490
3 918 1850 1851
3 684 1090 2029
3 1759 572 2537
3 1691 1690 2446
3 1979 1158 2071
3 606 649 650
3 2045 1043 2046
3 103 104 2025
3 630 634 635
3 360 383 893
3 406 386 2043
3 1909 219 2023
3 1111 957 1276
3 1925 1437 2277
3 1536 2268 2340
3 854 852 1133
3 233 153 1671
3 651 658 659
3 2099 1787 2368
3 1033 1032 1130
3 1015 1372 1373
3 1412 942 2026
3 253 264 1441
3 1531 1534 2332
3 701 700 894
3 106 107 1990
3 2048 1961 2455
3 276 274 2099
3 738 846 1968
3 1325 925 1326
3 896 936 937
3 585 586 608
3 1450 854 1973
3 1361 1360 1362
3 1045 1668 2512
3 303 301 444
3 996 844 997
3 79 1904 2093
3 1989 1686 2095
3 1928 774 2033
3 1942 562 1979
3 287 285 316
3 935 950 1966
3 1466 1467 1468
3 1242 1243 1244
3 1887 738 1968
3 2115 210 2477
3 878 929 1083
3 1326 1736 2194
3 886 888 1014
3 895 608 896
3 289 287 1978
3 821 822 897
3 936 608 1940
3 613 614 615
3 51 52 1996
3 417 411 1160
3 1149 1164 1989
3 386 786 2043
3 285 283 1971
3 1309 1543 2147
3 375 373 2053
3 371 370 372
3 779 777 1976
3 1286 1159 1773
3 2177 887 2376
3 1560 1557 1564
3 1403 1882 2399
3 1727 1757 2246
3 279 6 2049
3 1619 1438 2438
3 291 289 758
3 1781 1915 2294
3 425 401 426
3 349 355 356
3 66 67 2118
3 474 548 2041
3 1686 1687 2007
3 1262 1456 1457
3 1123 942 1412
3 1916 812 1960
3 1355 1425 2015
3 735 733 2075
3 1861 879 2449
3 1284 1285 1489
3 490 492 2034
3 366 363 367
3 980 578 2051
3 906 904 1792
3 534 536 1979
3 842 924 963
3 2051 578 2083
3 1077 937 1078
3 1102 1104 1803
3 894 1944 1946
3 398 404 2060
3 1007 1006 1953
3 369 367 370
3 348 354 2196
3 1078 1079 1080
3 1378 1380 1381
3 1568 1365 2439
3 608 586 1940
3 598 610 611
3 760 636 761
3 869 1137 1351
3 671 643 2033
3 1661 1345 2267
3 938 914 1057
3 783 761 914
3 576 1835 2144
3 388 389 390
3 297 295 318
3 454 453 500
3 1906 1728 2246
3 1439 1440 2468
3 1159 1013 1318
3 764 797 869
3 236 143 1717
3 782 644 2057
3 592 595 596
3 1542 2332 2443
3 1521 1311 2147
3 345 348 349
3 1304 1452 2205
3 1644 1907 2360
3 2146 1125 2149
3 997 844 1013
3 628 375 2053
3 299 297 1984
3 957 935 1966
3 664 685 799
3 301 299 1975
3 362 352 363
3 777 811 1976
3 1942 1979 2071
3 1001 920 2057
3 312 314 768
3 1552 1554 2062
3 615 616 617
3 357 1982 2076
3 800 802 839
3 774 671 2033
3 1749 1169 2105
3 365 958 1162
3 617 618 619
3 283 281 1938
3 1351 1772 2414
3 1525 1765 2489
3 846 934 1968
3 635 700 701
3 555 554 577
3 536 1158 1979
3 1101 1404 1405
3 630 635 1960
3 1811 1150 2089
3 2113 1666 2249
3 172 173 1847
3 107 108 195
3 54 55 196
3 1191 1768 2023
3 1455 1302 2205
3 115 116 2017
3 1387 1333 2437
3 659 661 764
3 1080 1121 1188
3 50 51 2011
3 411 406 2043
3 295 293 1983
3 643 987 2033
3 707 706 708
3 129 130 261
3 32 33 260
3 2159 260 2265
3 449 434 567
3 1314 1029 1315
3 917 796 940
3 378 375 628
3 108 109 1991
3 2370 1759 2537
3 341 344 345
3 997 1013 1159
3 544 569 1993
3 950 1007 1966
3 477 474 525
3 351 350 352
3 1696 1701 2036
3 334 331 803
3 1137 1138 1340
3 562 534 1979
3 109 110 246
3 52 53 247
3 1368 1316 1369
3 659 660 661
3 33 34 2002
3 123 124 2005
3 835 779 1976
3 851 838 1992
3 1530 1533 2172
3 1668 1045 2348
3 1162 1681 1706
3 342 338 468
3 298 300 358
3 765 359 2065
3 725 826 885
3 35 36 2003
3 46 47 2019
3 38 39 2006
3 336 517 2014
3 934 1111 1968
3 116 117 2018
3 650 651 1963
3 223 1711 2162
3 640 594 645
3 1333 1330 2192
3 104 222 2025
3 1603 922 2379
3 963 1113 1115
3 2084 1193 2189
3 564 570 571
3 36 37 2004
3 57 224 1947
3 1542 1601 2269
3 122 123 2012
3 1000 920 1001
3 127 128 240
3 34 35 239
3 383 387 2087
3 1161 1107 2228
3 1781 2294 2419
3 1201 1200 1202
3 124 125 225
3 37 38 226
3 1340 1341 1342
3 869 797 1137
3 839 840 1008
3 1158 544 1993
3 1326 925 1894
3 352 350 353
3 326 329 954
3 1864 2344 2412
3 836 835 2095
3 1051 1053 1295
3 1031 720 1032
3 503 461 787
3 1407 1112 2044
3 661 662 2058
3 838 868 1992
3 112 113 197
3 49 50 198
3 1359 980 1413
3 121 122 211
3 40 41 212
3 48 49 2010
3 113 114 2009
3 1741 673 2131
3 41 42 2020
3 120 121 2013
3 1409 2035 2097
3 1511 1374 2506
3 114 115 248
3 47 48 249
3 42 43 250
3 119 120 251
3 171 6 201
3 6 172 203
3 585 895 1993
3 43 44 2024
3 118 119 2021
3 905 904 906
3 764 661 797
3 337 340 341
3 1413 980 2051
3 117 118 205
3 44 45 206
3 347 346 350
3 1420 1076 1525
3 324 323 331
3 434 417 2031
3 965 967 969
3 716 719 788
3 1260 1254 1261
3 2053 373 2103
3 2069 2068 2170
3 326 328 329
3 1706 996 2408
3 273 275 2124
3 969 1011 1012
3 590 606 2001
3 1718 1611 2280
3 1914 1940 2001
3 915 1884 2082
3 329 330 333
3 620 859 955
3 2168 1409 2305
3 296 298 1997
3 915 2082 2101
3 339 338 342
3 1218 994 1505
3 333 336 337
3 266 263 1742
3 1873 768 2127
3 244 63 2162
3 64 223 2162
3 343 342 346
3 914 761 2258
3 310 312 1987
3 799 800 2055
3 302 304 763
3 1559 1566 1568
3 1598 1343 2114
3 592 575 595
3 341 345 794
3 189 1842 2220
3 767 815 816
3 1003 912 1004
3 839 1008 1009
3 1263 1428 1429
3 564 547 570
3 1845 1334 2082
3 332 331 334
3 901 866 902
3 651 659 1963
3 1009 1112 1213
3 335 334 338
3 569 585 1993
3 1665 1336 2299
3 1945 2071 2153
3 863 862 864
3 907 906 908
3 1849 1486 1930
3 1935 1144 2080
3 967 966 968
3 809 900 2119
3 865 864 866
3 835 1989 2095
3 190 1907 2417
3 333 337 522
3 1110 1748 2228
3 1193 1194 1195
3 94 191 2166
3 473 1854 2453
3 1769 1134 2369
3 948 851 1992
3 237 170 2216
3 420 419 422
3 1448 1447 2364
3 483 576 2144
3 721 1919 2032
3 885 886 1891
3 613 611 614
3 886 1014 1891
3 1160 411 2043
3 1918 1283 2342
3 1651 206 2485
3 1242 1240 1243
3 598 596 610
3 1295 1296 1459
3 1185 1186 1948
3 1425 1449 2070
3 294 296 762
3 1285 948 1992
3 925 876 1894
3 712 714 789
3 603 1668 2398
3 1940 590 2001
3 721 570 964
3 834 735 2075
3 1144 1920 2080
3 2263 1635 2511
3 1204 1207 1335
3 2235 1408 2378
3 965 964 966
3 1990 1435 2218
3 397 398 2060
3 1138 797 2058
3 1787 1141 2368
3 2068 820 2170
3 360 359 361
3 387 462 2087
3 1524 1272 1934
3 819 698 820
3 1197 1196 1198
3 1662 2126 2388
3 78 79 2093
3 1150 588 2089
3 1269 1261 1270
3 1878 915 2101
3 451 467 2169
3 2262 1387 2437
3 1009 1008 1112
3 757 311 1959
3 897 898 1139
3 1854 473 2483
3 2015 1425 2070
3 2082 1334 2101
3 963 1115 1174
3 1047 1049 1287
3 1194 423 1196
3 321 326 2050
3 417 1160 2031
3 854 1133 1973
3 1201 1212 1348
3 705 1586 2163
3 309 319 1959
3 1353 1390 2417
3 427 428 429
3 357 356 359
3 606 650 2001
3 549 1280 2124
3 1213 1112 1407
3 256 2303 2535
3 356 365 2065
3 662 664 2040
3 701 894 2039
3 1325 1371 2451
3 666 626 667
3 1902 93 2166
3 1236 1234 1246
3 800 839 2055
3 1869 1812 2252
3 1197 1364 1365
3 576 1935 2080
3 404 408 798
3 1678 807 2529
3 1560 1564 2016
3 1319 2039 2122
3 425 426 427
3 349 356 357
3 308 310 327
3 1716 622 2484
3 1801 82 2289
3 1768 1949 2420
3 2006 1926 2507
3 351 364 2407
3 420 423 1193
3 659 764 1963
3 292 294 2038
3 840 842 2027
3 736 279 2049
3 372 373 374
3 461 449 2052
3 2189 1195 2285
3 1174 1115 1398
3 367 363 961
3 909 908 918
3 1738 247 2402
3 1007 1761 2308
3 288 290 2135
3 422 441 2035
3 623 624 690
3 537 525 545
3 1953 1421 2454
3 1887 1968 2123
3 861 691 862
3 654 439 2223
3 1136 1080 2054
3 1312 1811 2089
3 575 571 2032
3 383 361 384
3 968 1200 1201
3 797 661 2058
3 1423 1354 2381
3 1180 1178 1181
3 1513 1515 2180
3 72 73 2217
3 462 445 463
3 12 13 2136
3 457 458 469
3 542 554 555
3 599 636 760
3 254 133 1766
3 1130 1397 1937
3 404 798 2060
3 1044 1942 2071
3 690 691 860
3 357 359 360
3 1008 2027 2152
3 1232 1230 1255
3 372 370 373
3 850 943 2125
3 1457 1456 1492
3 1952 324 2282
3 155 2 2356
3 0 7 2357
3 2017 1379 2288
3 918 1851 2008
3 195 1991 2517
3 2090 803 2347
3 1244 1243 1251
3 290 292 368
3 1432 1082 2214
3 1008 840 2027
3 1743 803 2296
3 1013 844 2039
3 365 1162 2065
3 1594 1315 2184
3 387 384 388
3 1508 1860 2311
3 547 527 2056
3 2005 225 2322
3 314 317 2127
3 1853 556 2327
3 201 6 278
3 1907 1644 2417
3 1896 2101 2108
3 646 645 784
3 538 508 558
3 374 375 377
3 1630 1634 1635
3 1579 1999 2352
3 1647 1648 1849
3 1313 1314 2121
3 1179 1433 2042
3 844 701 2039
3 1252 1251 2098
3 816 876 925
3 1922 1228 2281
3 392 394 396
3 1915 654 2294
3 1652 1653 2487
3 429 430 436
3 456 475 476
3 1605 1392 2510
3 126 1882 2284
3 1784 1780 2419
3 500 453 960
3 377 378 381
3 2178 1587 2300
3 1222 1219 1626
3 413 419 420
3 381 382 400
3 2169 1836 2223
3 1906 1905 2129
3 616 614 793
3 1170 1419 2139
3 101 189 2220
3 241 100 2220
3 1968 1111 2123
3 567 434 2031
3 615 614 616
3 1032 720 1921
3 682 428 2138
3 469 470 473
3 339 440 2261
3 1501 238 2226
3 1154 1431 1653
3 446 447 457
3 1251 1243 1257
3 2229 315 2495
3 1201 1202 1212
3 785 784 879
3 464 463 465
3 66 2118 2395
3 324 332 2282
3 286 288 771
3 17 199 2081
3 571 570 721
3 611 610 2092
3 617 616 618
3 1542 1531 2332
3 400 401 424
3 1325 1326 1371
3 1140 1406 1702
3 1323 443 2302
3 1926 1573 2507
3 436 437 446
3 1262 1457 2098
3 67 190 2118
3 1518 1861 2449
3 989 1359 1360
3 1063 1082 1154
3 1757 96 2526
3 969 967 1011
3 868 836 2095
3 1215 1035 2235
3 96 1757 2309
3 261 2160 2380
3 1381 1382 2126
3 1468 1469 2182
3 1334 1317 2108
3 861 863 1064
3 1270 1261 1271
3 360 361 383
3 287 316 1978
3 1856 192 2367
3 1905 241 2129
3 1615 1809 2425
3 528 523 560
3 979 980 989
3 662 2040 2058
3 721 964 965
3 170 171 2216
3 664 799 2040
3 512 511 523
3 1201 1348 2107
3 620 618 858
3 758 289 1978
3 859 858 998
3 424 425 453
3 1616 1615 2193
3 444 301 1975
3 561 560 593
3 965 966 967
3 1798 376 2430
3 340 2014 2091
3 510 465 511
3 107 195 1990
3 1080 1188 2054
3 1153 998 1312
3 1226 1224 1249
3 1012 1011 1363
3 902 904 905
3 842 963 2027
3 268 270 1134
3 865 901 1125
3 2077 558 2102
3 282 284 442
3 1977 1679 2253
3 1496 1498 2047
3 284 286 2063
3 281 736 1938
3 2132 793 2165
3 1674 215 2437
3 2078 1855 2411
3 839 1009 2055
3 1182 824 1183
3 1168 947 1169
3 1289 1871 2242
3 316 285 1971
3 1270 1271 1272
3 1755 1793 2264
3 51 1996 2011
3 383 384 387
3 1146 1924 2215
3 1279 1928 2202
3 619 618 620
3 1194 1196 1197
3 555 578 979
3 1937 1639 2528
3 1262 1257 1263
3 389 384 2339
3 2251 1338 2464
3 1155 1887 2123
3 1151 1937 2528
3 465 463 828
3 1318 1319 2116
3 1687 1688 2231
3 326 954 2050
3 297 318 1984
3 1308 953 2255
3 1846 2056 2198
3 320 315 2229
3 1254 1252 2059
3 760 761 783
3 951 1281 2255
3 1459 1296 2094
3 2288 1638 2470
3 1975 299 1984
3 52 247 1996
3 468 338 2090
3 2140 1511 2506
3 1125 1126 1192
3 593 824 1182
3 720 708 1921
3 704 706 707
3 623 587 624
3 2044 1112 2152
3 1393 1169 1749
3 900 983 2119
3 783 914 938
3 255 2265 2489
3 2039 894 2122
3 317 2050 2127
3 1866 1867 2513
3 374 373 375
3 429 436 455
3 387 388 445
3 1193 423 1194
3 555 577 578
3 1074 977 1187
3 449 567 2052
3 1197 1198 1364
3 2154 1595 2486
3 1486 1849 2173
3 318 295 1983
3 939 1016 1844
3 131 132 2160
3 30 31 2159
3 881 1146 2215
3 1294 1868 2238
3 1300 1455 2314
3 1365 1364 1912
3 783 938 939
3 2061 1735 2441
3 551 545 601
3 2194 216 2536
3 1251 1257 1262
3 888 887 2177
3 1364 1198 2048
3 1498 1682 2340
3 1589 1590 2501
3 60 188 2266
3 1401 1913 2324
3 195 108 1991
3 420 422 423
3 1675 1470 2474
3 258 1673 2183
3 2161 1619 2438
3 1296 1472 2094
3 1808 1910 2381
3 334 803 2090
3 1490 1285 2232
3 523 511 524
3 1240 1238 2074
3 1184 1183 1185
3 39 40 2151
3 473 474 477
3 1461 1463 2200
3 2072 353 2073
3 861 862 863
3 1206 1941 2401
3 958 1575 2287
3 614 611 2092
3 110 111 2140
3 1136 2054 2110
3 645 594 2133
3 260 33 2002
3 673 767 2131
3 989 980 1359
3 1741 2131 2258
3 1317 1875 2148
3 894 1946 2122
3 863 864 865
3 787 461 2052
3 857 2277 2386
3 109 246 1991
3 2017 116 2018
3 1182 1183 1184
3 377 375 378
3 816 925 1324
3 865 866 901
3 1262 1263 1456
3 359 356 2065
3 2129 241 2472
3 283 1938 1971
3 1458 1210 2203
3 1076 1003 2145
3 196 1738 2402
3 1033 1130 1151
3 1188 1121 2106
3 1140 1702 2096
3 549 687 1280
3 1694 1621 2191
3 861 1064 2112
3 1548 1549 2129
3 1784 1071 2462
3 714 716 2066
3 1961 825 2455
3 1447 1211 2250
3 979 578 980
3 905 907 1209
3 381 378 382
3 457 469 552
3 595 575 2032
3 408 413 2084
3 481 483 2144
3 1745 1349 2293
3 1980 1405 2441
3 198 50 2011
3 248 115 2017
3 912 819 2068
3 620 858 859
3 707 708 720
3 821 674 822
3 514 542 2086
3 400 382 401
3 123 2005 2012
3 1772 1351 2374
3 34 239 2002
3 768 314 2127
3 2003 36 2004
3 280 282 2079
3 124 225 2005
3 596 595 2130
3 593 560 824
3 1504 1502 2519
3 239 35 2003
3 1311 1309 2147
3 1318 1877 2240
3 1860 1432 2311
3 1416 1715 2330
3 859 998 1153
3 352 353 2072
3 312 768 1987
3 2027 1174 2152
3 226 38 2006
3 1827 1024 2117
3 1710 1391 2295
3 690 624 691
3 37 226 2004
3 1153 1312 1885
3 853 855 2186
3 1892 242 2373
3 1967 520 2174
3 939 938 1016
3 47 249 2019
3 388 390 2078
3 1991 2139 2517
3 905 906 907
3 571 721 2032
3 1196 423 2035
3 1324 925 1325
3 1151 1130 1937
3 363 352 2072
3 345 349 2076
3 1031 1032 1033
3 214 179 1859
3 211 122 2012
3 602 601 652
3 117 205 2018
3 710 712 2067
3 1602 187 2357
3 520 2000 2174
3 85 242 2335
3 220 84 2335
3 381 400 2113
3 1586 1587 2435
3 424 401 425
3 963 1174 2027
3 860 691 861
3 610 596 2130
3 1958 2078 2431
3 570 547 2056
3 237 2216 2354
3 1211 1692 2219
3 298 358 1997
3 909 947 1041
3 441 456 2097
3 1135 1647 1849
3 1601 1542 2443
3 197 113 2009
3 49 198 2010
3 1911 347 2407
3 1729 191 2309
3 212 41 2020
3 121 211 2013
3 222 105 2218
3 1125 901 1126
3 114 248 2009
3 249 48 2010
3 42 250 2020
3 251 120 2013
3 233 1769 2369
3 1870 647 2113
3 794 345 2076
3 250 43 2024
3 119 251 2021
3 901 902 2141
3 964 570 2056
3 739 335 2261
3 2108 1317 2148
3 577 599 2083
3 205 118 2021
3 44 206 2024
3 1247 1241 2323
3 1894 992 2244
3 6 203 2049
3 1642 1678 2529
3 1417 1873 2333
3 1422 2023 2516
3 341 794 2100
3 73 74 2361
3 1234 1232 2088
3 1261 1254 2059
3 896 1077 2257
3 1921 710 2067
3 125 126 2284
3 220 1699 2289
3 159 5 2304
3 4 184 2303
3 2059 1252 2098
3 1003 1004 2145
3 2328 1325 2451
3 1486 227 1500
3 63 64 2162
3 2081 1192 2260
3 508 500 2102
3 667 1872 2318
3 338 334 2090
3 423 422 2035
3 1192 1126 1471
3 907 908 909
3 1330 1328 2192
3 1972 897 2500
3 2443 316 2514
3 242 86 2373
3 87 193 2373
3 420 1193 2084
3 1473 1086 2358
3 1987 768 2037
3 522 337 2100
3 627 1660 2185
3 1793 446 2264
3 1405 2061 2441
3 1502 1217 2302
3 171 201 2216
3 1158 1993 2153
3 1197 1365 2120
3 1712 1710 2295
3 1121 1401 2414
3 93 94 2166
3 653 652 688
3 622 1716 2452
3 1345 1720 2267
3 477 537 556
3 128 129 2181
3 2331 1295 2458
3 784 645 874
3 1269 1270 2199
3 189 102 2355
3 1041 1168 1343
3 246 110 2140
3 477 525 537
3 755 1895 2371
3 1947 1723 2313
3 1134 1135 2369
3 223 65 2395
3 968 1201 2107
3 1577 1578 2325
3 210 15 2477
3 961 363 2072
3 1581 1579 2352
3 349 357 2076
3 337 341 2100
3 305 303 2317
3 370 367 2103
3 762 296 1997
3 581 580 2164
3 1278 1838 2372
3 1548 2129 2472
3 594 593 2133
3 2021 251 2022
3 2047 1247 2182
3 967 968 2107
3 1169 947 2008
3 481 2144 2169
3 793 614 2092
3 1910 217 2381
3 1251 1262 2098
3 716 788 2066
3 2101 1334 2108
3 2006 39 2151
3 1603 2379 2508
3 1926 2006 2151
3 96 97 2526
3 750 755 2371
3 789 714 2066
3 909 918 947
3 1993 895 2153
3 106 1990 2218
3 1243 1240 2074
3 832 986 1189
3 1283 1284 2342
3 2297 195 2517
3 1043 829 2326
3 767 816 2131
3 602 653 676
3 1004 912 2068
3 2086 1886 2224
3 1124 2177 2467
3 426 401 2531
3 707 720 1030
3 1000 1001 2184
3 1315 1029 2184
3 467 481 2169
3 541 513 2256
3 647 381 2113
3 225 2284 2510
3 2 156 2356
3 187 0 2357
3 40 212 2151
3 2245 1386 2383
3 676 677 829
3 1004 2068 2069
3 1860 232 2487
3 1031 1033 1034
3 829 830 972
3 996 997 2408
3 1195 1194 2120
3 987 1869 2202
3 1410 1213 2222
3 819 820 2068
3 1485 1486 2173
3 1564 2030 2155
3 807 669 2529
3 129 261 2181
3 1525 1076 2145
3 578 577 2083
3 327 310 1987
3 1083 929 2197
3 2131 1324 2258
3 798 408 2084
3 1838 696 2426
3 1486 1500 1930
3 1946 1944 2291
3 2257 1077 2291
3 1512 1661 2266
3 445 388 2078
3 1192 1471 2260
3 2118 1415 2395
3 1466 1468 2158
3 830 677 831
3 211 2012 2251
3 652 601 2442
3 537 545 551
3 558 508 2102
3 198 2011 2128
3 1718 2280 2385
3 500 960 2102
3 1168 1169 1393
3 1127 971 2496
3 95 96 2309
3 2030 1565 2155
3 1919 1172 2273
3 977 860 2112
3 240 128 2181
3 294 762 2038
3 1800 1799 2195
3 712 789 2067
3 972 1749 2326
3 472 1683 2212
3 874 645 2133
3 551 2045 2201
3 2105 1043 2326
3 1957 1212 2301
3 1514 1856 2367
3 565 538 2167
3 373 370 2103
3 355 348 2196
3 1934 1272 2138
3 1934 426 2531
3 1881 1400 2481
3 2046 1851 2327
3 367 961 2103
3 1963 1152 2206
3 201 278 443
3 3 131 2444
3 31 1 2445
3 2035 441 2097
3 503 787 2198
3 1135 1849 1930
3 1534 1983 2306
3 2089 623 2150
3 687 704 2109
3 869 1351 2363
3 1302 1304 2205
3 955 1716 2484
3 1030 720 1031
3 1159 1318 2240
3 1228 1226 2281
3 947 918 2008
3 413 420 2084
3 785 879 2532
3 1041 947 1168
3 1468 2182 2323
3 1246 1234 2088
3 1730 1163 2372
3 542 555 2086
3 1599 631 2312
3 1146 1967 2174
3 1078 1136 2343
3 1515 1574 2180
3 2336 885 2469
3 1257 1243 2074
3 1347 1346 2279
3 2001 650 2206
3 1480 1601 2514
3 1029 1000 2184
3 1956 788 2336
3 1271 1261 2059
3 130 3 2444
3 1 32 2445
3 1570 1507 2197
3 1232 1255 2088
3 791 1642 2529
3 1601 1479 2269
3 1361 1362 2168
3 1634 1922 2281
3 765 2065 2190
3 2071 1158 2153
3 1699 1801 2289
3 832 831 833
3 1864 346 2344
3 456 476 2097
3 1855 828 2411
3 2065 1162 2190
3 1125 1192 2149
3 599 760 2083
3 361 765 2339
3 1731 2123 2241
3 1349 1181 1350
3 1443 1275 2251
3 1819 524 2429
3 1021 1045 2512
3 858 618 2132
3 1999 358 2338
3 368 292 2038
3 290 368 2135
3 803 331 2296
3 1112 1008 2152
3 56 1947 2313
3 555 979 2086
3 1469 1496 2182
3 1011 967 2107
3 248 2017 2288
3 1809 789 2425
3 960 453 2221
3 538 558 2167
3 1858 1187 2248
3 2246 1757 2526
3 902 905 2141
3 1851 1853 2327
3 1224 1222 2111
3 771 288 2135
3 1945 2153 2257
3 1420 1525 2489
3 1399 1123 2393
3 103 2025 2355
3 897 822 898
3 1861 940 2532
3 865 1125 2146
3 1675 2474 2522
3 1573 2157 2507
3 1632 1631 2382
3 551 601 602
3 527 503 2198
3 1708 805 2337
3 1059 1278 2372
3 2056 527 2198
3 860 861 2112
3 1668 2348 2398
3 255 2159 2265
3 1541 1542 2269
3 1428 2074 2227
3 1582 1583 2321
3 389 1774 2503
3 2004 226 2157
3 1777 397 2405
3 1368 1436 2254
3 1061 2409 2462
3 1071 930 2462
3 1126 901 2141
3 1194 1197 2120
3 1452 1952 2282
3 2116 1319 2482
3 105 106 2218
3 1981 1399 2393
3 2119 983 2143
3 444 1682 2461
3 2173 1648 2463
3 616 793 2132
3 1791 1190 2334
3 1826 1728 2259
3 602 652 653
3 1834 1292 2428
3 556 2201 2327
3 1014 1015 2385
3 1995 1287 2331
3 1193 1195 2189
3 816 1324 2131
3 879 1861 2532
3 593 1182 2133
3 1402 266 1742
3 2216 1323 2354
3 1660 1636 2502
3 620 955 2484
3 1162 1706 2190
3 1870 2113 2249
3 204 1680 1732
3 1909 2023 2420
3 217 72 2217
3 376 372 2430
3 905 1209 2141
3 1378 1381 2283
3 1236 1246 2227
3 286 771 2063
3 1635 2263 2502
3 100 101 2220
3 1139 898 1140
3 2114 1343 2136
3 442 284 2063
3 1772 2106 2414
3 1985 1755 2533
3 2192 1328 2315
3 1064 863 2146
3 1631 1637 2459
3 736 2049 2523
3 221 1906 2246
3 318 1983 2171
3 1496 2047 2182
3 1374 2139 2506
3 196 55 2313
3 2087 462 2134
3 676 653 677
3 2304 257 2491
3 1401 2324 2363
3 829 677 830
3 654 2223 2242
3 1187 977 2112
3 1463 1466 2200
3 2023 219 2516
3 1176 881 2215
3 513 471 2290
3 1812 459 2252
3 1386 1269 2199
3 291 758 2306
3 618 616 2132
3 278 280 2210
3 83 220 2289
3 82 83 2289
3 938 1057 2161
3 1189 986 1190
3 788 719 2336
3 1914 2001 2206
3 232 181 1652
3 1567 2062 2490
3 313 757 2495
3 622 619 2484
3 688 878 1320
3 1222 1626 2111
3 282 442 2079
3 1169 2008 2105
3 1966 1007 2308
3 2040 799 2237
3 1744 2229 2495
3 986 833 1063
3 2284 1605 2510
3 887 1961 2376
3 215 1624 2262
3 830 831 832
3 476 475 2224
3 439 451 2223
3 1932 1933 2380
3 2227 1246 2366
3 1212 1202 2301
3 1107 1110 2228
3 249 2010 2299
3 1983 293 2306
3 2055 1214 2237
3 1438 1372 2478
3 824 560 2156
3 2320 1866 2513
3 1351 1137 2374
3 868 2007 2232
3 2063 771 2064
3 1507 214 1508
3 1728 1727 2246
3 1045 1047 2348
3 1139 1140 2096
3 1648 1649 2463
3 1502 2302 2519
3 704 707 2109
3 2343 1136 2396
3 650 1963 2206
3 2153 895 2257
3 396 1958 2431
3 1379 1377 2288
3 2115 1471 2319
3 2033 987 2202
3 2239 1693 2518
3 2025 1488 2355
3 1209 2115 2319
3 523 524 2156
3 783 939 2243
3 376 1798 2497
3 2066 788 2193
3 1984 318 2172
3 425 427 2221
3 203 172 1847
3 446 457 2264
3 1312 2089 2150
3 2138 1272 2211
3 897 1139 2274
3 828 1819 2429
3 1249 1224 2111
3 666 667 2318
3 1371 1326 2194
3 2433 1499 2475
3 1272 1271 2211
3 1367 2254 2479
3 1386 2053 2383
3 2074 1238 2227
3 755 2148 2320
3 2117 1604 2428
3 475 514 2224
3 228 2187 2457
3 1868 1504 2520
3 1626 1218 2185
3 2123 1111 2241
3 1287 1049 2331
3 1280 687 2109
3 459 1814 2292
3 54 196 2402
3 863 865 2146
3 204 176 1680
3 514 2086 2224
3 1646 603 2398
3 112 197 2346
3 358 300 2338
3 1140 898 1141
3 1204 1335 2301
3 1016 2161 2438
3 909 1041 2175
3 1681 2448 2492
3 2252 459 2292
3 1992 868 2232
3 1035 1036 2235
3 1051 1295 2331
3 1836 1289 2242
3 1508 214 1859
3 247 53 2402
3 1016 938 2161
3 1408 856 2378
3 1466 2158 2200
3 725 885 2336
3 855 1450 2421
3 2023 1768 2420
3 1238 1236 2227
3 1679 202 2253
3 2107 1348 2233
3 1653 1431 2487
3 1946 2291 2343
3 2253 202 2329
3 1885 1312 2150
3 378 628 2390
3 2195 1383 2432
3 1520 1519 2480
3 1532 1733 2534
3 308 327 2278
3 953 951 2255
3 1213 1407 2222
3 1561 1563 2285
3 302 763 2338
3 1928 2033 2202
3 763 304 2345
3 832 833 986
3 1352 2040 2237
3 247 1881 2481
3 560 523 2156
3 335 339 2261
3 346 342 2344
3 201 443 1323
3 2301 1335 2466
3 323 320 2229
3 1136 2110 2396
3 1139 1977 2274
3 1809 1615 2423
3 1707 1791 2334
3 46 2019 2485
3 2064 1294 2238
3 1950 197 2404
3 2021 2022 2176
3 1949 245 2420
3 2044 2152 2207
3 1063 1154 1707
3 1012 1363 2406
3 280 2079 2210
3 2237 1214 2351
3 820 698 2318
3 1140 1141 1406
3 205 2021 2176
3 2043 786 2310
3 2145 1004 2446
3 707 1030 2109
3 1406 2460 2473
3 2137 1268 2226
3 16 2081 2260
3 567 2031 2219
3 2112 1064 2248
3 206 45 2485
3 2347 1462 2365
3 1650 1962 2362
3 453 425 2221
3 1209 907 2175
3 1111 1276 2241
3 2448 1145 2492
3 2051 2083 2243
3 59 60 2266
3 1402 1742 2530
3 831 677 2209
3 624 587 2276
3 238 174 1725
3 1011 2107 2233
3 468 2365 2412
3 2337 805 2371
3 254 1932 2380
3 1174 1398 2207
3 2140 111 2346
3 1381 2186 2283
3 1987 2037 2188
3 1740 559 2456
3 1773 391 2503
3 1335 1870 2249
3 1945 2257 2291
3 828 463 2411
3 1246 2088 2208
3 2060 798 2307
3 1773 1159 2240
3 1187 2112 2248
3 1352 2237 2351
3 2037 1322 2188
3 1941 1499 2433
3 2322 225 2510
3 1031 1034 2236
3 327 2188 2321
3 595 2032 2273
3 1464 1462 2347
3 1285 1992 2232
3 799 2055 2237
3 443 278 2210
3 784 874 2178
3 392 396 2431
3 191 95 2309
3 879 784 2178
3 524 511 2429
3 2128 2011 2270
3 895 896 2257
3 2206 1152 2324
3 318 2171 2172
3 2259 1549 2379
3 1214 1410 2351
3 306 308 2278
3 2022 251 2247
3 1757 1729 2309
3 1283 1918 2524
3 996 1706 2492
3 557 2044 2207
3 1798 1448 2364
3 1447 2250 2310
3 559 1750 2403
3 1363 1011 2233
3 1343 1168 2187
3 1407 2044 2256
3 1462 1460 2365
3 1995 2331 2458
3 327 1987 2188
3 2160 254 2380
3 1681 958 2287
3 2031 1160 2250
3 1600 689 2413
3 2219 1692 2239
3 1494 1675 2522
3 1281 1916 2448
3 907 909 2175
3 565 2167 2276
3 2241 1276 2275
3 1978 316 2443
3 2151 212 2350
3 203 1847 2104
3 2049 1481 2523
3 1961 1362 2376
3 2187 1393 2457
3 940 796 2532
3 2293 1349 2329
3 572 1897 2537
3 332 739 2282
3 2052 567 2239
3 1437 1370 2277
3 567 2219 2239
3 667 626 2452
3 1914 2206 2324
3 2243 939 2392
3 2136 1343 2187
3 257 1654 2530
3 1376 1378 2283
3 2076 1982 2272
3 2083 760 2243
3 1944 1945 2291
3 1771 1839 2359
3 1404 1403 2399
3 1875 1866 2320
3 1460 1337 2412
3 760 783 2243
3 1276 1366 2275
3 1428 2227 2366
3 1882 1605 2284
3 1739 1429 2459
3 2321 2188 2434
3 1328 1327 2315
3 798 2189 2307
3 2152 1174 2207
3 2182 1247 2323
3 1516 1514 2367
3 293 291 2306
3 556 537 2201
3 1298 1300 2314
3 1400 1399 2316
3 1649 2236 2463
3 833 831 2424
3 2127 2050 2333
3 1057 914 2328
3 1839 193 2359
3 761 1741 2258
3 1186 1970 2422
3 1429 2366 2382
3 2211 1271 2271
3 1733 1248 2534
3 13 2114 2136
3 2078 390 2431
3 1533 1536 2340
3 1690 2145 2446
3 1277 2308 2370
3 1168 1393 2187
3 1597 2047 2268
3 587 565 2276
3 1908 244 2401
3 225 125 2284
3 610 2130 2468
3 1749 2105 2326
3 1913 1914 2324
3 2366 2208 2382
3 1391 1876 2295
3 457 552 2264
3 653 688 2209
3 1601 2443 2514
3 682 2138 2211
3 992 1980 2244
3 55 56 2313
3 1645 1495 2493
3 473 477 2483
3 202 1724 2329
3 465 828 2429
3 1277 1966 2308
3 1416 2330 2406
3 1912 1364 2455
3 1716 1483 2375
3 2019 1651 2485
3 1725 2137 2226
3 201 1323 2216
3 878 1083 2213
3 2072 2073 2245
3 1563 1777 2405
3 244 2028 2401
3 2016 1564 2422
3 1682 1497 2461
3 1962 1153 2362
3 1298 2314 2358
3 1384 1385 2391
3 688 1320 2209
3 1587 2179 2435
3 786 380 2497
3 1395 1522 2341
3 2032 1919 2273
3 251 2013 2247
3 2219 2031 2250
3 2397 552 2453
3 1765 255 2489
3 2475 1825 2524
3 1202 1204 2301
3 445 2078 2411
3 323 2229 2296
3 1286 2384 2408
3 537 551 2201
3 1724 237 2293
3 84 85 2335
3 1471 1126 2319
3 1635 1634 2511
3 300 302 2338
3 698 666 2318
3 1030 1031 2236
3 2098 1457 2271
3 696 1821 2426
3 1457 1492 2447
3 1956 2336 2469
3 331 323 2296
3 1284 1491 2342
3 2011 1996 2270
3 256 183 2303
3 160 257 2304
3 2204 1589 2501
3 1891 1014 2280
3 719 725 2336
3 1354 1808 2381
3 437 430 2494
3 2377 218 2391
3 2211 2271 2447
3 1407 2256 2290
3 2365 1460 2412
3 2047 1498 2268
3 1825 1283 2524
3 1499 1825 2475
3 1226 1249 2281
3 2051 2243 2392
3 2250 1160 2310
3 111 112 2346
3 304 306 2345
3 1341 1352 2351
3 2166 191 2504
3 2223 1836 2242
3 1996 247 2481
3 1049 1051 2331
3 1086 1298 2358
3 2130 595 2273
3 1249 2111 2263
3 680 1995 2458
3 1511 2140 2346
3 102 103 2355
3 469 473 2453
3 961 2072 2245
3 2073 1282 2245
3 1442 1443 2525
3 74 192 2361
3 2163 1586 2435
3 1519 1518 2449
3 897 2274 2500
3 303 444 2317
3 1615 1614 2423
3 197 2009 2404
3 1634 2281 2511
3 1780 1781 2419
3 1435 1623 2465
3 1286 1774 2384
3 384 361 2339
3 193 1901 2359
3 1165 2433 2475
3 2277 1370 2386
3 677 653 2209
3 1994 1516 2367
3 1479 1478 2440
3 1165 1512 2433
3 1644 1353 2417
3 1711 1712 2353
3 2193 1615 2425
3 1613 1956 2469
3 1440 1173 2330
3 2269 1479 2440
3 222 2218 2465
3 391 389 2503
3 306 2278 2345
3 468 2090 2365
3 221 2246 2526
3 1445 1446 2504
3 939 1844 2392
3 86 87 2373
3 1429 1428 2366
3 2053 2103 2383
3 1348 1212 2312
3 805 750 2371
3 997 1286 2408
3 1152 869 2363
3 2063 2064 2238
3 192 1994 2367
3 1160 2043 2310
3 1926 2151 2350
3 2059 2098 2271
3 1897 1366 2537
3 215 2262 2437
3 1655 1732 2476
3 2415 1128 2454
3 1320 2213 2214
3 7 258 2357
3 259 155 2356
3 2171 1530 2172
3 347 351 2407
3 1077 1078 2343
3 239 2003 2279
3 1446 1128 2415
3 1034 1033 2410
3 601 627 2442
3 1154 1653 2234
3 397 2060 2405
3 2142 794 2272
3 442 2063 2238
3 1863 1215 2378
3 794 2076 2272
3 1883 1375 2505
3 1320 878 2213
3 342 468 2344
3 1903 218 2377
3 380 376 2497
3 1549 1547 2379
3 1148 1165 2475
3 2157 226 2507
3 829 972 2326
3 884 1957 2466
3 2291 1077 2343
3 65 66 2395
3 787 2052 2518
3 2298 1348 2312
3 1946 2343 2396
3 1653 256 2535
3 1842 1548 2472
3 1957 2301 2466
3 1366 1277 2370
3 2213 1432 2214
3 961 2245 2383
3 218 2093 2391
3 1376 2283 2421
3 1873 2127 2333
3 1019 1021 2512
3 1128 1127 2454
3 1104 1434 2450
3 2130 1439 2468
3 2396 2110 2482
3 2186 855 2283
3 1724 2293 2329
3 1163 1059 2372
3 1614 2389 2423
3 53 54 2402
3 1063 1707 2334
3 2283 855 2421
3 1385 1863 2436
3 364 1883 2505
3 517 1890 2387
3 1145 996 2492
3 1047 1287 2348
3 2148 1875 2320
3 205 2176 2416
3 1372 1844 2478
3 1211 2219 2250
3 1141 898 2368
3 245 1909 2420
3 2278 327 2321
3 2389 1397 2423
3 2256 513 2290
3 559 2403 2456
3 1137 1340 2374
3 2093 1384 2391
3 1918 1148 2524
3 1030 2236 2427
3 1867 1895 2513
3 2014 517 2387
3 2271 1457 2447
3 1143 2028 2353
3 1904 194 2432
3 1148 2475 2524
3 1574 1523 2436
3 2213 1083 2311
3 1997 358 2325
3 2139 246 2506
3 1370 1369 2386
3 1271 2059 2271
3 1034 2173 2463
3 1123 1412 2393
3 1578 1827 2515
3 2209 1320 2424
3 2079 1504 2210
3 1361 2168 2305
3 1491 1489 2403
3 238 1725 2226
3 1190 986 2334
3 1547 1545 2508
3 1891 1613 2469
3 1153 1885 2362
3 2208 1632 2382
3 2287 1281 2448
3 1356 1376 2421
3 1965 2349 2515
3 2155 1186 2422
3 1522 2014 2387
3 2158 1468 2323
3 2050 954 2333
3 1397 1809 2423
3 1362 1360 2376
3 1852 1985 2397
3 2069 1691 2446
3 789 2066 2425
3 1895 755 2513
3 1707 1154 2234
3 372 374 2430
3 2225 787 2518
3 2028 1206 2401
3 986 1063 2334
3 1912 726 2439
3 1340 1342 2400
3 1916 1145 2448
3 2236 1649 2427
3 2374 1340 2400
3 2222 1407 2290
3 2324 1152 2363
3 241 2220 2472
3 765 2190 2384
3 2375 667 2452
3 2330 1173 2406
3 1181 1972 2500
3 2126 1382 2388
3 1173 1012 2406
3 315 313 2495
3 1015 1373 2385
3 97 221 2526
3 1937 1397 2389
3 930 1061 2462
3 971 1096 2496
3 45 46 2485
3 669 791 2529
3 1104 2450 2521
3 382 378 2390
3 2191 1371 2536
3 2235 1036 2286
3 831 2209 2424
3 762 1997 2349
3 2379 1547 2508
3 2177 1359 2467
3 2403 1489 2456
3 796 785 2532
3 219 1902 2516
3 1519 2300 2480
3 1065 1655 2476
3 1375 1473 2505
3 1489 1490 2456
3 390 392 2431
3 2247 2013 2464
3 1135 1930 2369
3 2278 1583 2345
3 626 622 2452
3 631 2298 2312
3 2233 1348 2298
3 1398 1974 2499
3 1706 1681 2492
3 261 130 2444
3 32 260 2445
3 822 2099 2368
3 1365 1912 2439
3 941 940 2418
3 1446 2166 2504
3 2106 1121 2414
3 2300 1519 2449
3 1803 1104 2521
3 1732 1570 2476
3 1413 2051 2392
3 2122 1946 2396
3 2238 1868 2520
3 477 556 2483
3 2397 1985 2533
3 463 445 2411
3 2163 1185 2488
3 1126 2141 2319
3 1755 2264 2533
3 972 2204 2501
3 2230 1533 2340
3 1774 1773 2503
3 1997 2325 2349
3 1004 2069 2446
3 2159 31 2445
3 131 2160 2444
3 1371 2191 2451
3 1001 2154 2486
3 1682 2230 2340
3 2103 961 2383
3 1033 1151 2410
3 382 2390 2531
3 1504 2079 2520
3 1583 2278 2321
3 511 465 2429
3 250 2024 2479
3 2208 2088 2509
3 619 620 2484
3 1246 2208 2366
3 2141 1209 2319
3 1359 1413 2467
3 1295 1459 2458
3 2218 1435 2465
3 2281 1249 2511
3 2293 237 2354
3 2207 1398 2499
3 1564 2155 2422
3 552 469 2453
3 1947 224 2498
3 2062 1568 2490
3 2018 205 2416
3 260 2159 2445
3 2160 261 2444
3 2092 610 2468
3 194 2195 2432
3 1432 2213 2311
3 211 2251 2464
3 2378 856 2527
3 1536 1532 2534
3 2364 786 2497
3 2438 1438 2478
3 1185 1948 2488
3 2042 941 2418
3 1582 2321 2434
3 885 1891 2469
3 1364 2048 2455
3 1693 2225 2518
3 401 382 2531
3 1338 2247 2464
3 442 2238 2520
3 1292 2117 2428
3 2274 1350 2500
3 2066 2193 2425
3 2179 1184 2435
3 898 822 2368
3 2436 1863 2527
3 1844 1016 2478
3 2184 1001 2486
3 557 2207 2499
3 2013 211 2464
3 2254 250 2479
3 1350 1181 2500
3 2009 248 2470
3 246 2140 2506
3 1574 2436 2527
3 2139 1419 2517
3 316 1971 2514
3 1319 2122 2482
3 226 2006 2507
3 1400 2270 2481
3 1681 2287 2448
3 2325 1578 2349
3 232 1652 2487
3 1320 2214 2424
3 1632 2208 2509
3 248 2288 2470
3 1406 1141 2460
3 2188 1322 2434
3 2244 1980 2441
3 2088 1255 2509
3 1280 2109 2427
3 2060 2307 2405
3 2236 1034 2463
3 1745 2293 2354
3 2122 2396 2482
3 2109 1030 2427
3 2307 1563 2405
3 1429 2382 2459
3 224 2267 2498
3 682 2211 2447
3 2079 442 2520
3 2348 1287 2398
3 2220 1842 2472
3 1335 2249 2466
3 1249 2263 2511
3 443 2210 2519
3 2385 1373 2394
3 1594 2184 2486
3 2052 2239 2518
3 1568 2439 2490
3 2349 1578 2515
3 2344 468 2412
3 2270 1996 2481
3 1735 2244 2441
3 2260 1471 2477
3 2210 1504 2519
3 1434 2297 2450
3 2297 1419 2450
3 2263 1660 2502
3 2404 2009 2470
3 1718 2385 2394
3 1371 2194 2536
3 2317 444 2461
3 1443 2322 2525
3 1716 2375 2452
3 1863 2378 2527
3 2439 726 2490
3 1057 2328 2451
3 1638 2404 2470
3 1454 2234 2535
3 755 2320 2513
3 2234 1653 2535
3 2264 552 2533
3 1419 2297 2517
3 1392 2322 2510
3 552 2397 2533
3 1798 2364 2497
3 2322 1392 2525
3 2382 1631 2459
3 1016 2438 2478
3 1366 2370 2537
3 1742 2491 2530
3 2491 257 2530
CELL_TYPES 4886
5
5
5
5
5
5
5
5
5
5
5
5
5
5
5
5
5
5
5
5
5
5
5
5
5
5
5
5
5
5
5
5
5
5
5
5
5
5
5
5
5
5
5
5
5
5
5
5
5
5
5
5
5
5
5
5
5
5
5
5
5
5
5
5
5
5
5
5
5
5
5
5
5
5
5
5
5
5
5
5
5
5
5
5
5
5
5
5
5
5
5
5
5
5
5
5
5
5
5
5
5
5
5
5
5
5
5
5
5
5
5
5
5
5
5
5
5
5
5
5
5
5
5
5
5
5
5
5
5
5
5
5
5
5
5
5
5
5
5
5
5
5
5
5
5
5
5
5
5
5
5
5
5
5
5
5
5
5
5
5
5
5
5
5
5
5
5
5
5
5
5
5
5
5
5
5
5
5
5
5
5
5
5
5
5
5
5
5
5
5
5
5
5
5
5
5
5
5
5
5
5
5
5
5
5
5
5
5
5
5
5
5
5
5
5
5
5
5
5
5
5
5
5
5
5
5
5
5
5
5
5
5
5
5
5
5
5
5
5
5
5
5
5
5
5
5
5
5
5
5
5
5
5
5
5
5
5
5
5
5
5
5
5
5
5
5
5
5
5
5
5
5
5
5
5
5
5
5
5
5
5
5
5
5
5
5
5
5
5
5
5
5
5
5
5
5
5
5
5
5
5
5
5
5
5
5
5
5
5
5
5
5
5
5
5
5
5
5
5
5
5
5
5
5
5
5
5
5
5
5
5
5
5
5
5
5
5
5
5
5
5
5
5
5
5
5
5
5
5
5
5
5
5
5
5
5
5
5
5
5
5
5
5
5
5
5
5
5
5
5
5
5
5
5
5
5
5
5
5
5
5
5
5
5
5
5
5
5
5
5
5
5
5
5
5
5
5
5
5
5
5
5
5
5
5
5
5
5
5
5
5
5
5
5
5
5
5
5
5
5
5
5
5
5
5
5
5
5
5
5
5
5
5
5
5
5
5
5
5
5
5
5
5
5
5
5
5
5
5
5
5
5
5
5
5
5
5
5
5
5
5
5
5
5
5
5
5
5
5
5
5
5
5
5
5
5
5
5
5
5
5
5
5
5
5
5
5
5
5
5
5
5
5
5
5
5
5
5
5
5
5
5
5
5
5
5
5
5
5
5
5
5
5
5
5
5
5
5
5
5
5
5
5
5
5
5
5
5
5
5
5
5
5
5
5
5
5
5
5
5
5
5
5
5
5
5
5
5
5
5
5
5
5
5
5
5
5
5
5
5
5
5
5
5
5
5
5
5
5
5
5
5
5
5
5
5
5
5
5
5
5
5
5
5
5
5
5
5
5
5
5
5
5
5
5
5
5
5
5
5
5
5
5
5
5
5
5
5
5
5
5
5
5
5
5
5
5
5
5
5
5
5
5
5
5
5
5
5
5
5
5
5
5
5
5
5
5
5
5
5
5
5
5
5
5
5
5
5
5
5
5
5
5
5
5
5
5
5
5
5
5
5
5
5
5
5
5
5
5
5
5
5
5
5
5
5
5
5
5
5
5
5
5
5
5
5
5
5
5
5
5
5
5
5
5
5
5
5
5
5
5
5
5
5
5
5
5
5
5
5
5
5
5
5
5
5
5
5
5
5
5
5
5
5
5
5
5
5
5
5
5
5
5
5
5
5
5
5
5
5
5
5
5
5
5
5
5
5
5
5
5
5
5
5
5
5
5
5
5
5
5
5
5
5
5
5
5
5
5
5
5
5
5
5
5
5
5
5
5
5
5
5
5
5
5
5
5
5
5
5
5
5
5
5
5
5
5
5
5
5
5
5
5
5
5
5
5
5
5
5
5
5
5
5
5
5
5
5
5
5
5
5
5
5
5
5
5
5
5
5
5
5
5
5
5
5
5
5
5
5
5
5
5
5
5
5
5
5
5
5
5
5
5
5
5
5
5
5
5
5
5
5
5
5
5
5
5
5
5
5
5
5
5
5
5
5
5
5
5
5
5
5
5
5
5
5
5
5
5
5
5
5
5
5
5
5
5
5
5
5
5
5
5
5
5
5
5
5
5
5
5
5
5
5
5
5
5
5
5
5
5
5
5
5
5
5
5
5
5
5
5
5
5
5
5
5
5
5
5
5
5
5
5
5
5
5
5
5
5
5
5
5
5
5
5
5
5
5
5
5
5
5
5
5
5
5
5
5
5
5
5
5
5
5
5
5
5
5
5
5
5
5
5
5
5
5
5
5
5
5
5
5
5
5
5
5
5
5
5
5
5
5
5
5
5
5
5
5
5
5
5
5
5
5
5
5
5
5
5
5
5
5
5
5
5
5
5
5
5
5
5
5
5
5
5
5
5
5
5
5
5
5
5
5
5
5
5
5
5
5
5
5
5
5
5
5
5
5
5
5
5
5
5
5
5
5
5
5
5
5
5
5
5
5
5
5
5
5
5
5
5
5
5
5
5
5
5
5
5
5
5
5
5
5
5
5
5
5
5
5
5
5
5
5
5
5
5
5
5
5
5
5
5
5
5
5
5
5
5
5
5
5
5
5
5
5
5
5
5
5
5
5
5
5
5
5
5
5
5
5
5
5
5
5
5
5
5
5
5
5
5
5
5
5
5
5
5
5
5
5
5
5
5
5
5
5
5
5
5
5
5
5
5
5
5
5
5
5
5
5
5
5
5
5
5
5
5
5
5
5
5
5
5
5
5
5
5
5
5
5
5
5
5
5
5
5
5
5
5
5
5
5
5
5
5
5
5
5
5
5
5
5
5
5
5
5
5
5
5
5
5
5
5
5
5
5
5
5
5
5
5
5
5
5
5
5
5
5
5
5
5
5
5
5
5
5
5
5
5
5
5
5
5
5
5
5
5
5
5
5
5
5
5
5
5
5
5
5
5
5
5
5
5
5
5
5
5
5
5
5
5
5
5
5
5
5
5
5
5
5
5
5
5
5
5
5
5
5
5
5
5
5
5
5
5
5
5
5
5
5
5
5
5
5
5
5
5
5
5
5
5
5
5
5
5
5
5
5
5
5
5
5
5
5
5
5
5
5
5
5
5
5
5
5
5
5
5
5
5
5
5
5
5
5
5
5
5
5
5
5
5
5
5
5
5
5
5
5
5
5
5
5
5
5
5
5
5
5
5
5
5
5
5
5
5
5
5
5
5
5
5
5
5
5
5
5
5
5
5
5
5
5
5
5
5
5
5
5
5
5
5
5
5
5
5
5
5
5
5
5
5
5
5
5
5
5
5
5
5
5
5
5
5
5
5
5
5
5
5
5
5
5
5
5
5
5
5
5
5
5
5
5
5
5
5
5
5
5
5
5
5
5
5
5
5
5
5
5
5
5
5
5
5
5
5
5
5
5
5
5
5
5
5
5
5
5
5
5
5
5
5
5
5
5
5
5
5
5
5
5
5
5
5
5
5
5
5
5
5
5
5
5
5
5
5
5
5
5
5
5
5
5
5
5
5
5
5
5
5
5
5
5
5
5
5
5
5
5
5
5
5
5
5
5
5
5
5
5
5
5
5
5
5
5
5
5
5
5
5
5
5
5
5
5
5
5
5
5
5
5
5
5
5
5
5
5
5
5
5
5
5
5
5
5
5
5
5
5
5
5
5
5
5
5
5
5
5
5
5
5
5
5
5
5
5
5
5
5
5
5
5
5
5
5
5
5
5
5
5
5
5
5
5
5
5
5
5
5
5
5
5
5
5
5
5
5
5
5
5
5
5
5
5
5
5
5
5
5
5
5
5
5
5
5
5
5
5
5
5
5
5
5
5
5
5
5
5
5
5
5
5
5
5
5
5
5
5
5
5
5
5
5
5
5
5
5
5
5
5
5
5
5
5
5
5
5
5
5
5
5
5
5
5
5
5
5
5
5
5
5
5
5
5
5
5
5
5
5
5
5
5
5
5
5
5
5
5
5
5
5
5
5
5
5
5
5
5
5
5
5
5
5
5
5
5
5
5
5
5
5
5
5
5
5
5
5
5
5
5
5
5
5
5
5
5
5
5
5
5
5
5
5
5
5
5
5
5
5
5
5
5
5
5
5
5
5
5
5
5
5
5
5
5
5
5
5
5
5
5
5
5
5
5
5
5
5
5
5
5
5
5
5
5
5
5
5
5
5
5
5
5
5
5
5
5
5
5
5
5
5
5
5
5
5
5
5
5
5
5
5
5
5
5
5
5
5
5
5
5
5
5
5
5
5
5
5
5
5
5
5
5
5
5
5
5
5
5
5
5
5
5
5
5
5
5
5
5
5
5
5
5
5
5
5
5
5
5
5
5
5
5
5
5
5
5
5
5
5
5
5
5
5
5
5
5
5
5
5
5
5
5
5
5
5
5
5
5
5
5
5
5
5
5
5
5
5
5
5
5
5
5
5
5
5
5
5
5
5
5
5
5
5
5
5
5
5
5
5
5
5
5
5
5
5
5
5
5
5
5
5
5
5
5
5
5
5
5
5
5
5
5
5
5
5
5
5
5
5
5
5
5
5
5
5
5
5
5
5
5
5
5
5
5
5
5
5
5
5
5
5
5
5
5
5
5
5
5
5
5
5
5
5
5
5
5
5
5
5
5
5
5
5
5
5
5
5
5
5
5
5
5
5
5
5
5
5
5
5
5
5
5
5
5
5
5
5
5
5
5
5
5
5
5
5
5
5
5
5
5
5
5
5
5
5
5
5
5
5
5
5
5
5
5
5
5
5
5
5
5
5
5
5
5
5
5
5
5
5
5
5
5
5
5
5
5
5
5
5
5
5
5
5
5
5
5
5
5
5
5
5
5
5
5
5
5
5
5
5
5
5
5
5
5
5
5
5
5
5
5
5
5
5
5
5
5
5
5
5
5
5
5
5
5
5
5
5
5
5
5
5
5
5
5
5
5
5
5
5
5
5
5
5
5
5
5
5
5
5
5
5
5
5
5
5
5
5
5
5
5
5
5
5
5
5
5
5
5
5
5
5
5
5
5
5
5
5
5
5
5
5
5
5
5
5
5
5
5
5
5
5
5
5
5
5
5
5
5
5
5
5
5
5
5
5
5
5
5
5
5
5
5
5
5
5
5
5
5
5
5
5
5
5
5
5
5
5
5
5
5
5
5
5
5
5
5
5
5
5
5
5
5
5
5
5
5
5
5
5
5
5
5
5
5
5
5
5
5
5
5
5
5
5
5
5
5
5
5
5
5
5
5
5
5
5
5
5
5
5
5
5
5
5
5
5
5
5
5
5
5
5
5
5
5
5
5
5
5
5
5
5
5
5
5
5
5
5
5
5
5
5
5
5
5
5
5
5
5
5
5
5
5
5
5
5
5
5
5
5
5
5
5
5
5
5
5
5
5
5
5
5
5
5
5
5
5
5
5
5
5
5
5
5
5
5
5
5
5
5
5
5
5
5
5
5
5
5
5
5
5
5
5
5
5
5
5
5
5
5
5
5
5
5
5
5
5
5
5
5
5
5
5
5
5
5
5
5
5
5
5
5
5
5
5
5
5
5
5
5
5
5
5
5
5
5
5
5
5
5
5
5
5
5
5
5
5
5
5
5
5
5
5
5
5
5
5
5
5
5
5
5
5
5
5
5
5
5
5
5
5
5
5
5
5
5
5
5
5
5
5
5
5
5
5
5
5
5
5
5
5
5
5
5
5
5
5
5
5
5
5
5
5
5
5
5
5
5
5
5
5
5
5
5
5
5
5
5
5
5
5
5
5
5
5
5
5
5
5
5
5
5
5
5
5
5
5
5
5
5
5
5
5
5
5
5
5
5
5
5
5
5
5
5
5
5
5
5
5
5
5
5
5
5
5
5
5
5
5
5
5
5
5
5
5
5
5
5
5
5
5
5
5
5
5
5
5
5
5
5
5
5
5
5
5
5
5
5
5
5
5
5
5
5
5
5
5
5
5
5
5
5
5
5
5
5
5
5
5
5
5
5
5
5
5
5
5
5
5
5
5
5
5
5
5
5
5
5
5
5
5
5
5
5
5
5
5
5
5
5
5
5
5
5
5
5
5
5
5
5
5
5
5
5
5
5
5
5
5
5
5
5
5
5
5
5
5
5
5
5
5
5
5
5
5
5
5
5
5
5
5
5
5
5
5
5
5
5
5
5
5
5
5
5
5
5
5
5
5
5
5
5
5
5
5
5
5
5
5
5
5
5
5
5
5
5
5
5
5
5
5
5
5
5
5
5
5
5
5
5
5
5
5
5
5
5
5
5
5
5
5
5
5
5
5
5
5
5
5
5
5
5
5
5
5
5
5
5
5
5
5
5
5
5
5
5
5
5
5
5
5
5
5
5
5
5
5
5
5
5
5
5
5
5
5
5
5
5
5
5
5
5
5
5
5
5
5
5
5
5
5
5
5
5
5
5
5
5
5
5
5
5
5
5
5
5
5
5
5
5
5
5
5
5
5
5
5
5
5
5
5
5
5
5
5
5
5
5
5
5
5
5
5
5
5
5
5
5
5
5
5
5
5
5
5
5
5
5
5
5
5
5
5
5
5
5
5
5
5
5
5
5
5
5
5
5
5
5
5
5
5
5
5
5
5
5
5
5
5
5
5
5
5
5
5
5
5
5
5
5
5
5
5
5
5
5
5
5
5
5
5
5
5
5
5
5
5
5
5
5
5
5
5
5
5
5
5
5
5
5
5
5
5
5
5
5
5
5
5
5
5
5
5
5
5
5
5
5
5
5
5
5
5
5
5
5
5
5
5
5
5
5
5
5
5
5
5
5
5
5
5
5
5
5
5
5
5
5
5
5
5
5
5
5
5
5
5
5
5
5
5
5
5
5
5
5
5
5
5
5
5
5
5
5
5
5
5
5
5
5
5
5
5
5
5
5
5
5
5
5
5
5
5
5
5
5
5
5
5
5
5
5
5
5
5
5
5
5
5
5
5
5
5
5
5
5
5
5
5
5
5
5
5
5
5
5
5
5
5
5
5
5
5
5
5
5
5
5
5
5
5
5
5
5
5
5
5
5
5
5
5
5
5
5
5
5
5
5
5
5
5
5
5
5
5
5
5
5
5
5
5
5
5
5
5
5
5
5
5
5
5
5
5
5
5
5
5
5
5
5
5
5
5
5
5
5
5
5
5
5
5
5
5
5
5
5
5
5
5
5
5
5
5
5
5
5
5
5
5
5
5
5
5
5
5
5
5
5
5
5
5
5
5
5
5
5
5
5
5
5
5
5
5
5
5
5
5
5
5
5
5
5
5
5
5
5
5
5
5
5
5
5
5
5
5
5
5
5
5
5
5
5
5
5
5
5
5
5
5
5
5
5
5
5
5
5
5
5
5
5
5
5
5
5
5
5
5
5
5
5
5
5
5
5
5
5
5
5
5
5
5
5
5
5
5
5
5
5
5
5
5
5
5
5
5
5
5
5
5
5
5
5
5
5
5
5
5
5
5
5
5
5
5
5
5
5
5
5
5
5
5
5
5
5
5
5
5
5
5
5
5
5
5
5
5
5
5
5
5
5
5
5
5
5
5
5
5
5
5
5
5
5
5
5
5
5
5
5
5
5
5
5
5
5
5
5
5
5
5
5
5
5
5
5
5
5
5
5
5
5
5
5
5
5
5
5
5
5
5
5
5
5
5
5
5
5
5
5
5
5
5
5
5
5
5
5
5
5
5
5
5
5
5
5
5
5
5
5
5
5
5
5
5
5
5
5
5
5
5
5
5
5
5
5
5
5
5
5
5
5
5
5
5
5
5
5
5
5
5
5
5
5
5
5
5
5
5
5
5
5
5
5
5
5
5
5
5
5
5
5
5
5
5
5
5
5
5
5
5
5
5
5
5
5
5
5
5
5
5
5
5
5
5
5
5
5
5
5
5
5
5
5
5
5
5
5
5
5
5
5
5
5
5
5
5
5
5
5
5
5
5
5
5
5
5
5
5
5
5
5
5
5
5
5
5
5
5
5
5
5
5
5
5
5
5
5
5
5
5
5
5
5
5
5
5
5
5
5
5
5
5
5
5
5
5
5
5
5
5
5
5
5
5
5
5
5
5
5
5
5
5
5
5
5
5
5
5
5
5
5
5
5
5
5
5
5
5
5
5
5
5
5
5
5
5
5
5
5
5
5
5
5
5
5
5
5
5
5
5
5
5
5
5
5
5
5
5
5
5
5
5
5
5
5
5
5
5
5
5
5
5
5
5
5
5
5
5
5
5
5
5
5
5
5
5
5
5
5
5
5
5
5
5
5
5
5
5
5
5
5
5
5
5
5
5
5
5
5
5
5
5
5
5
5
5
5
5
5
5
5
5
5
5
5
5
5
5
5
5
5
5
5
5
5
5
5
5
5
5
5
5
5
5
5
5
5
5
5
5
5
5
5
5
5
5
5
5
5
5
5
5
5
5
5
5
5
5
5
5
5
5
5
5
5
5
5
5
5
5
5
5
5
5
5
5
5
5
5
5
5
5
5
5
5
5
5
5
5
5
5
5
5
5
5
5
5
5
5
5
5
5
5
5
5
5
5
5
5
5
5
5
5
5
5
5
5
5
5
5
5
5
5
5
5
5
5
5
5
5
5
5
5
5
5
5
5
5
5
5
5
5
5
5
5
5
5
5
5
5
5
5
5
5
5
5
5
5
5
5
5
5
5
5
5
5
5
5
5
5
5
5
5
5
5
5
5
5
5
5
5
5
5
5
5
5
5
5
5
5
5
5
5
5
5
5
5
5
5
5
5
5
5
5
5
5
5
5
5
5
5
5
5
5
5
5
5
5
5
5
5
5
5
5
5
5
5
5
5
5
5
5
5
5
5
5
5
5
5
5
5
5
5
5
5
5
5
5
5
5
5
5
5
5
5
5
5
5
5
5
5
5
5
5
5
5
5
5
5
5
5
5
5
5
5
5
5
5
5
5
5
5
5
5
5
5
5
5
5
5
5
5
5
5
5
5
5
5
5
5
5
5
5
5
5
5
5
5
5
5
5
5
5
5
5
5
5
5
5
5
5
5
5
5
5
5
5
5
5
5
5
5
5
5
5
5
5
5
5
5
5
5
5
5
5
5
5
5
5
5
5
5
5
5
5
5
5
5
5
5
5
5
5
5
5
5
5
5
5
5
5
5
5
5
5
5
5
5
5
5
5
5
5
5
5
5
5
5
5
5
5
5
5
5
5
5
5
5
5
5
5
5
5
5
5
5
5
5
5
5
5
5
5
5
5
5
5
5
5
5
5
5
5
5
5
5
5
5
5
5
5
5
5
5
5
5
5
5
5
5
5
5
5
5
5
5
5
5
5
5
5
5
5
5
5
5
5
5
5
5
5
5
5
5
5
5
5
5
5
5
5
5
5
5
5
5
5
5
5
5
5
5
5
5
5
5
5
5
5
5
5
5
5
5
5
5
5
5
5
5
5
5
5
5
5
5
5
5
5
5
5
5
5
5
5
5
5
5
5
5
5
5
5
5
5
5
5
5
5
5
5
5
5
5
5
5
5
5
5
5
5
5
5
5
5
5
5
5
5
5
5
5
5
5
5
5
5
5
5
5
5
5
5
5
5
5
5
5
5
5
5
5
5
5
5
5
5
5
5
5
5
5
5
5
5
5
5
5
5
5
5
5
5
5
5
5
5
5
5
5
5
5
5
5
5
5
5
5
5
5
5
5
5
5
5
5
5
5
5
5
5
5
5
5
5
5
5
5
5
5
5
5
5
5
5
5
5
5
5
5
5
5
5
5
5
5
5
5
5
5
5
5
5
5
5
5
5
5
5
5
5
5
5
5
5
5
5
5
5
5
5
5
5
5
5
5
5
5
5
5
5
5
5
5
5
5
5
5
5
5
5
5
5
5
5
5
5
5
5
5
5
5
5
5
5
5
5
5
5
5
5
5
5
5
5
5
5
5
5
5
5
5
5
5
5
5
5
5
5
5
5
5
5
5
5
5
5
5
5
5
5
5
5
5
5
5
5
5
5
5
5
5
5
5
5
5
5
5
5
5
5
5
5
5
5
5
5
5
5
5
5
5
5
5
5
5
5
5
5
5
5
5
5
5
5
5
5
5
5
5
5
5
5
5
5
5
5
5
5
5
5
5
5
5
5
5
5
5
5
5
5
5
5
5
5
5
5
5
5
5
5
5
5
5
5
5
5
5
5
5
5
5
5
5
5
5
5
5
5
5
5
5
5
5
5
5
5
5
5
5
5
5
5
5
5
5
5
5
5
5
5
5
5
5
5
5
5
5
5
5
5
5
5
5
5
5
5
5
5
5
5
5
5
5
5
5
5
5
5
5
5
5
5
5
5
5
5
5
5
5
5
5
5
5
5
5
5
5
5
5
5
5
5
5
5
5
5
5
5
5
5
5
5
5
5
5
5
5
5
5
5
5
5
5
5
5
5
5
5
5
5
5
5
5
5
5
5
5
5
5
5
5
5
5
5
5
5
5
5
5
5
5
5
5
5
5
5
5
5
5
5
5
5
5
5
5
5
5
5
5
5
5
5
5
5
5
5
5
5
5
5
5
5
5
5
5
5
5
5
5
5
5
5
5
5
5
5
5
5
5
5
5
5
5
5
5
5
5
5
5
5
5
5
5
5
5
5
5
5
5
5
5
5
5
5
5
5
5
5
5
5
5
5
5
5
5
5
5
5
5
5
5
5
5
5
5
5
5
5
5
5
5
5
5
5
5
5
5
5
5
5
5
5
5
5
5
5
5
5
5
5
5
5
5
5
5
5
5
5
5
5
5
5
5
5
5
5
5
5
5
5
5
5
5
5
5
5
5
5
5
5
5
5
5
5
5
5
5
5
5
5
5
5
5
5
5
5
5
5
5
5
5
5
5
5
5
5
5
5
5
5
5
5
5
5
5
5
5
5
5
5
5
5
5
5
5
5
5
5
5
5
5
5
5
5
5
5
5
5
5
5
5
5
5
5
5
5
5
5
5
5
5
5
5
5
5
5
5
5
5
5
5
5
5
5
5
5
5
5
5
5
5
5
5
5
5
5
5
5
5
5
5
5
5
5
5
5
5
5
5
5
5
5
5
5
5
5
5
5
POINT_DATA 2538
VECTORS disp float
1.3101687017766985e-11 2.47983497677894e-11 0.0
1.2902412370754556e-11 -3.039772758245702e-11 0.0
0.002099999998957399 5.034466781639105e-12 0.0
0.002099999974910612 -6.191432853777373e-11 0.0
0.0008354338619772674 0.00035149651770484636 0.0
0.0015574351014092161 6.050294148206207e-5 0.0
0.0011098680181440526 -1.3741719399549503e-6 0.0
-2.386916671990141e-13 -3.1101539909363247e-12 0.0
2.9237574975707683e-12 1.926351718027113e-12 0.0
2.010636866173931e-12 -3.478503307151833e-13 0.0
1.7637436231441924e-12 -1.7503343930212795e-13 0.0
1.1312946457442327e-12 -2.6125774899601686e-13 0.0
1.0676039328208173e-12 -6.437036842527724e-13 0.0
8.377920342317097e-13 -7.699544878728354e-13 0.0
7.058016118029613e-13 -1.1526427841511355e-12 0.0
4.553182512084394e-13 -1.5405047615964266e-12 0.0
6.648806738763908e-13 -2.081487537337182e-12 0.0
6.527966296176876e-13 -2.5997561967764154e-12 0.0
7.804186416356733e-13 -3.128435766071167e-12 0.0
9.203563913431167e-13 -3.642983153913144e-12 0.0
9.59814801382472e-13 -3.947478228435951e-12 0.0
1.2048488577675046e-12 -4.4583484860624185e-12 0.0
1.2176165098561947e-12 -4.6369808158462715e-12 0.0
1.3198696685084902e-12 -5.05291284648253e-12 0.0
1.4970399005903125e-12 -5.370311811234079e-12 0.0
1.507275231887843e-12 -5.652342960247704e-12 0.0
1.6330226025117682e-12 -6.044388709686659e-12 0.0
1.8098483180980642e-12 -6.4670535519810685e-12 0.0
2.0279134873135035e-12 -7.018329524798689e-12 0.0
1.950234266040129e-12 -7.632228467458538e-12 0.0
3.070018040468922e-12 -9.610881311706671e-12 0.0
8.889419721708543e-13 -7.0440716006662055e-12 0.0
3.024578475466556e-5 -2.3296792721567932e-5 0.0
5.297997346842003e-5 -3.975434586933367e-5 0.0
7.509169891500092e-5 -5.420668288597429e-5 0.0
9.583664821563813e-5 -6.737179035436323e-5 0.0
0.0001155375007323897 -7.962393150827822e-5 0.0
0.00013462767988847157 -9.142686058926393e-5 0.0
0.00015346437954556898 -0.00010264018206634557 0.0
0.00017179982747990509 -0.00011345371420782127 0.0
0.0001898429292492558 -0.0001240002299360931 0.0
0.00020769885756434292 -0.00013420630647903073 0.0
0.00022532055520542817 -0.00014422637944940436 0.0
0.00024290941025396586 -0.00015400413830304297 0.0
0.00026037468931791434 -0.00016353704418102728 0.0
0.00027780155300283823 -0.0001729605961846265 0.0
0.00029523203747266487 -0.0001821741927190164 0.0
0.00031252622130687775 -0.00019113779667254073 0.0
0.0003298412569751044 -0.00019995903852868414 0.0
0.00034723215886310404 -0.00020852354277178553 0.0
0.00036464223937356745 -0.00021691304560362185 0.0
0.0003821083507285204 -0.00022513592974104116 0.0
0.0003996235375550672 -0.00023319425907353096 0.0
0.0004172054665370118 -0.00024108300016103162 0.0
0.00043496065655075763 -0.0002488183643665679 0.0
0.0004526836707316275 -0.0002563963587394786 0.0
0.0004706368047107517 -0.00026380597252252685 0.0
0.0004885577117457249 -0.00027105449491211293 0.0
0.00050663860667066 -0.00027816831106028297 0.0
0.0005248148000619845 -0.0002850959577369696 0.0
0.0005431947102020352 -0.0002918670351293385 0.0
0.0005615728551692914 -0.0002985437292277679 0.0
0.0005801679599511608 -0.00030508438069522974 0.0
0.0005988691009366562 -0.0003114831467334172 0.0
0.0006177563903758366 -0.0003178412757104652 0.0
0.0006368446665102531 -0.0003241038111129672 0.0
0.0006561422546541638 -0.0003304416763116063 0.0
0.0006754085401377106 -0.0003366158642823182 0.0
0.0006949630838953755 -0.0003426723252257549 0.0
0.0007145199894833334 -0.0003483729626365174 0.0
0.0007341190647167133 -0.00035379146814177697 0.0
0.0007538841120673408 -0.0003590518410535372 0.0
0.0007735983142771985 -0.0003639341039810329 0.0
0.0007936203581606054 -0.00036859571754289803 0.0
0.0008139355881438158 -0.0003728945052512359 0.0
0.0008344470807891027 -0.00037712261440991614 0.0
0.0008553405580537866 -0.00038097749598858496 0.0
0.0008763167944566236 -0.00038467371146196116 0.0
0.0008974740886036507 -0.0003882656706322318 0.0
0.0009188841003518616 -0.00039141015239766905 0.0
0.0009401439785871085 -0.00039459406926574105 0.0
0.0009617370978501508 -0.00039728499718161693 0.0
0.0009832926130824622 -0.0003998028359951338 0.0
0.0010051239584610316 -0.0004022318262446776 0.0
0.001026788360653475 -0.0004045098976980805 0.0
0.0010489727286171094 -0.00040653908898013866 0.0
0.001070912969818969 -0.00040835309526173695 0.0
0.0010936841361224982 -0.0004100463947977968 0.0
0.0011164866560503754 -0.0004116695993450176 0.0
0.0011394444026060142 -0.0004128678289112562 0.0
0.0011625341700456906 -0.0004138365429506751 0.0
0.0011857834118680392 -0.00041425584767250037 0.0
0.0012087918783120534 -0.00041449264259482325 0.0
0.0012313783089070252 -0.00041444469745136503 0.0
0.0012533729954251486 -0.0004142635866044708 0.0
0.0012742943201691868 -0.0004138086437870937 0.0
0.001294772704503305 -0.00041331184044350296 0.0
0.0013152404421233317 -0.0004125304592254875 0.0
0.0013345336526486447 -0.0004107559711780855 0.0
0.0013537434079933784 -0.0004082465432056064 0.0
0.0013739540413397772 -0.0004059373612377735 0.0
0.0013944085486422327 -0.00040378565837529724 0.0
0.001414366534674507 -0.00040149516873809053 0.0
0.0014354873612857362 -0.00039932549948651515 0.0
0.0014552587522721416 -0.0003965936241858499 0.0
0.0014748464707665726 -0.00039314693250511455 0.0
0.001495629839024585 -0.0003887381020437653 0.0
0.0015154651723880525 -0.000383440244199646 0.0
0.0015364693759903527 -0.00037775519289410696 0.0
0.001556684415545512 -0.00037145720582231417 0.0
0.0015772809377470338 -0.0003643478921456442 0.0
0.001597656812755089 -0.00035611411344716327 0.0
0.0016192825768094417 -0.00034754470740358604 0.0
0.0016395863420108018 -0.000338088124710267 0.0
0.0016602230416720874 -0.00032796909240947856 0.0
0.0016816004032478022 -0.0003167514862156673 0.0
0.0017028826214488914 -0.00030507080217393405 0.0
0.0017243519936388301 -0.0002931048085840384 0.0
0.0017464825100551296 -0.00028025671530700796 0.0
0.0017685601751504041 -0.000266727634593348 0.0
0.0017906651576253296 -0.00025258327189627016 0.0
0.0018133727303368179 -0.00023758982367355215 0.0
0.0018368649868350298 -0.00022154056495926692 0.0
0.0018608873750084196 -0.00020459465735039758 0.0
0.001885417052125584 -0.00018687318443494184 0.0
0.0019108195139982333 -0.00016808423556493064 0.0
0.001937550492651417 -0.00014791339623931938 0.0
0.0019652572048859717 -0.00012620668988796963 0.0
0.0019942389944464576 -0.00010246085945418255 0.0
0.0020257953681844386 -7.547778566068755e-5 0.0
0.0020589671865694115 -4.404362209361068e-5 0.0
0.002099999998049679 -8.85534494235044e-12 0.0
0.0020999999947153873 -1.1399339522686754e-11 0.0
0.002099999997703202 -4.444573608804026e-12 0.0
0.0020999999971839235 -3.8333440645803954e-12 0.0
0.0020999999976213535 -2.4618356931403094e-12 0.0
0.0020999999976283996 -1.6574661172122145e-12 0.0
0.0020999999976316517 -1.1410028281912086e-12 0.0
0.0020999999977507943 -7.679498815347954e-13 0.0
0.002099999997748313 -4.24013876210863e-13 0.0
0.0020999999978415598 -1.9214651067631136e-13 0.0
0.002099999997909504 -1.8348358273108566e-14 0.0
0.0020999999980348587 1.94246576818694e-13 0.0
0.002099999998072075 3.791552519768445e-13 0.0
0.0020999999981424493 6.27798909933771e-13 0.0
0.0020999999981736526 8.887669458386047e-13 0.0
0.00209999999819358 1.2062753260888614e-12 0.0
0.0020999999982121756 1.525554609350569e-12 0.0
0.0020999999981122976 1.9299482353426217e-12 0.0
0.0020999999982810077 2.22210276702883e-12 0.0
0.002099999998123204 2.5930235505759772e-12 0.0
0.0020999999982259723 2.8092554735629133e-12 0.0
0.002099999998199202 2.8652985324399127e-12 0.0
0.0020999999984139687 2.7479654554173216e-12 0.0
0.002099999998892195 2.9877577930722866e-12 0.0
0.0020999999993949964 1.927913033369518e-12 0.0
0.001962662044920004 4.860619445152529e-5 0.0
0.0018380469681703194 7.05000104310445e-5 0.0
0.001723820867966376 7.056401996999106e-5 0.0
0.0016214973581771 6.372865465847935e-5 0.0
0.0015573888635276513 -8.286284931149208e-6 0.0
0.0015546000699243623 -5.001063431644322e-5 0.0
0.001547700937638696 -8.899667582724368e-5 0.0
0.0015286958294478644 -0.00011111223305109087 0.0
0.001498168573349798 -0.00011782228163899497 0.0
0.0014615697883265842 -0.00011421693742074574 0.0
0.0014215672920041625 -0.00010449299345480803 0.0
0.0013804861000310028 -8.917904546721531e-5 0.0
0.0013378205372046046 -7.229421418258059e-5 0.0
0.0012937924694238303 -5.5047326030880736e-5 0.0
0.0012455796287973457 -3.754172857445291e-5 0.0
0.0011883859129509853 -2.0356770190474046e-5 0.0
0.0010571118246410784 4.111827285432931e-5 0.0
0.001018797394330695 6.336247696658824e-5 0.0
0.000986376180574108 8.016563089568594e-5 0.0
0.0009574522494373629 9.548172082200948e-5 0.0
0.0009306038480120746 0.00011025258177199435 0.0
0.0009061156635532087 0.00012510223625794863 0.0
0.0008835765851653715 0.00014086385775734963 0.0
0.0008638379100973638 0.00015704317568109843 0.0
0.0008485875172696597 0.00017812155885483169 0.0
0.0008365148087605777 0.00019683046306282213 0.0
0.0008371043322087453 0.0002332541403809951 0.0
0.0008325326628352914 0.00027606995664422455 0.0
0.0007553214079897871 0.00036646614499366293 0.0
0.0006488740871654098 0.00036526543014078327 0.0
0.0004912726283147025 0.00031368102617789157 0.0
0.0002790682437379396 0.0002064485388296497 0.0
0.0005455785868150043 -0.0002826345445407203 0.0
0.001408345382435349 -0.0003806199525226027 0.0
0.0006800461126832381 -0.0003276425151931288 0.0
0.0012651811494512884 -0.00039936315294934906 0.0
0.0008229923301674394 -0.00036288348635938797 0.0
0.0011015706588974816 -0.00039421898135497704 0.0
0.0009499734822914956 -0.00038185147342970023 0.0
0.0015330676737686769 -0.00035274304747743467 0.0
0.00044004546703127316 -0.00024266489283937992 0.0
0.0016328268335394354 -0.00031203070848357696 0.0
0.0003516238893908659 -0.00020305018509494664 0.0
3.335286118730279e-5 -8.190667744705485e-6 0.0
0.002056086762984109 -7.316289542099493e-7 0.0
0.0011833312982287446 5.2437124598061076e-6 0.0
0.001345522366428943 -6.353605906795704e-5 0.0
0.0010267461794272192 3.386615640037111e-5 0.0
0.0009183585181568283 0.00011271924360324394 0.0
0.0017420323148824464 -0.00025929050522854283 0.0
0.00026797833434456174 -0.00016122035567162112 0.0
2.7931810407179014e-5 -9.231790879462864e-6 0.0
0.0020679733698819097 -2.818370836633715e-6 0.0
0.002038984521238356 3.834996078322411e-6 0.0
4.008153632642397e-5 -2.0611680643539218e-6 0.0
0.0018333494737549551 -0.00020156731690214156 0.0
0.00019466751541123313 -0.00011927187539034486 0.0
0.0014608617071895016 -9.441758048139785e-5 0.0
0.0008391400693674909 0.00015688712552900224 0.0
2.2544879564167193e-5 -8.089000908505013e-6 0.0
0.0020747539039929325 -3.5422863175374146e-6 0.0
0.0007624135904846939 -0.00034940174318792575 0.0
0.0008852742137465824 -0.0003735510197634607 0.0
0.0011974052333334527 -0.00039863575040431014 0.0
0.001016558012390421 -0.00038763327433969616 0.0
0.0013275102972302524 -0.0003958321918864611 0.0
0.0014661106749731861 -0.00037167627616140736 0.0
0.0006264136524668186 -0.00031118216185210693 0.0
0.000493410409093249 -0.00026474887116927965 0.0
0.001903804976889504 -0.0001526966891438497 0.0
0.00013888500064411337 -8.679341465213397e-5 0.0
0.0020245666554383965 9.386358265912711e-6 0.0
5.697378893811645e-5 4.242227026454941e-6 0.0
0.00207986003908828 -5.78226248218551e-6 0.0
2.144655602302484e-5 -8.574032920448243e-6 0.0
0.0015362400432074306 -8.690610754959562e-5 0.0
0.0008038676339860569 0.0001907357744523182 0.0
0.0019987381556906695 1.1796277661085334e-5 0.0
9.17962703000056e-5 1.0248055967977944e-5 0.0
3.11943207834585e-5 -9.436333866863627e-6 0.0
0.002061828153386909 -2.232565633597775e-6 0.0
0.0012645748800219855 -2.9916376167391313e-5 0.0
0.0009741550842222112 8.07266049293014e-5 0.0
7.828156854918815e-5 -4.816219540591526e-5 0.0
0.0019925790361466546 -8.525139460222958e-5 0.0
0.001366091709910111 -0.00039069294928636885 0.0
0.0010588230382213664 -0.00039200460496721136 0.0
0.0007237874656294938 -0.0003394513443198358 0.0
0.0005852394304994124 -0.00029817623058329734 0.0
0.0011507530452137622 -0.00039680988875096613 0.0
0.0015711680425132047 -0.000339782555931348 0.0
0.00040481372714228244 -0.00022709508032827904 0.0
0.0016769980417640977 -0.00029318962051837915 0.0
0.0003148181385057118 -0.00018462793579739835 0.0
0.0002297551793571424 -0.0001396968358799305 0.0
0.0017870691302583003 -0.00023170253274028594 0.0
0.0005548007221470836 0.00019576053300833534 0.0
0.0017614804585120987 1.9589733971606066e-5 0.0
0.0020794370127785256 -1.042766040490412e-5 0.0
1.8416737616872764e-5 -8.334106803477441e-6 0.0
0.0007932922682911342 0.0002487404217496891 0.0
0.00157739729509204 -3.0389688872577423e-5 0.0
0.00011960443440660634 1.9384680923561808e-5 0.0
0.002007756854751874 1.0957984305207616e-5 0.0
3.4462666030468336e-5 -2.0174112621404522e-5 0.0
0.0020528679854101765 -3.6492832509772134e-5 0.0
0.0016667635982024036 1.1072509988747472e-5 0.0
0.001680559732029113 -7.553934221098895e-6 0.0
0.0017979665464065943 6.883467325319162e-6 0.0
0.001715949854607564 -2.558121959881635e-6 0.0
0.0016248246055293627 -2.416681821451703e-5 0.0
0.001643723760617704 -7.176551986044328e-6 0.0
0.0017348295977514196 8.878369863050847e-6 0.0
0.0016667271273099365 1.083143654935644e-5 0.0
0.0017567801866481849 1.9883825797948844e-5 0.0
0.0016941146952059055 2.447397204650854e-5 0.0
0.0016105733849223996 1.6134998387344164e-5 0.0
0.0016365184449988882 2.918663107745403e-5 0.0
0.001564927365010462 2.373633630489947e-5 0.0
0.001587163978296071 3.2970025376649354e-5 0.0
0.0015232545267497193 3.0158298254501498e-5 0.0
0.00154468372792469 3.549070647618031e-5 0.0
0.0011588807770410601 -7.120256721620388e-6 0.0
0.0010975525625924348 -1.924793515063116e-5 0.0
0.0011383259784249044 -1.8383741325844105e-5 0.0
0.0010866179206982694 -2.9510280280729476e-5 0.0
0.001123348477458766 -2.885532312186026e-5 0.0
0.0010779899067231854 -3.798988572351366e-5 0.0
0.0011111271709015466 -3.6795486438166795e-5 0.0
0.0010697940452662406 -4.486844503935733e-5 0.0
0.0011004581699526489 -4.327676098104164e-5 0.0
0.0010620778477412488 -5.069802120142156e-5 0.0
0.0010909951653753597 -4.8705516317496904e-5 0.0
0.0010548804634313521 -5.568410956114865e-5 0.0
0.0010825387631763434 -5.385555168400647e-5 0.0
0.0010490503779631024 -6.015420714833912e-5 0.0
0.0010748450021123364 -5.829401381865303e-5 0.0
0.0010426857233784687 -6.439912250314438e-5 0.0
0.0010675582868081362 -6.253478281597774e-5 0.0
0.0010356729386745763 -6.856696961126113e-5 0.0
0.0010606434256465785 -6.67663570245374e-5 0.0
0.001029751169878843 -7.250221820742967e-5 0.0
0.0010543205198562174 -7.093575027682599e-5 0.0
0.0010242119019375382 -7.647440399236949e-5 0.0
0.0010474788270386664 -7.512806691858533e-5 0.0
0.0010186538106106392 -8.058030441923699e-5 0.0
0.0010415902257877884 -7.94361283494608e-5 0.0
0.001013895590367599 -8.470121317339311e-5 0.0
0.0010360462947202633 -8.390210332409972e-5 0.0
0.0010077429405455298 -8.90543051740807e-5 0.0
0.0010304003226215765 -8.861509028580005e-5 0.0
0.000996517541755537 -9.448384253130805e-5 0.0
0.0010266031648211973 -9.344470928239116e-5 0.0
0.0009975720197279937 -9.88915156810554e-5 0.0
0.0010215003799615616 -9.861441412624449e-5 0.0
0.0009938862097948187 -0.00010402959408121127 0.0
0.0010169451116173226 -0.00010407725889836114 0.0
0.000991135379315329 -0.00010925888854790159 0.0
0.001012458917664298 -0.00010973575561626423 0.0
0.000987295003987883 -0.00011494986918692765 0.0
0.0010329723793084038 -5.0216161754519455e-5 0.0
0.001008088905992213 -0.00011568550812442638 0.0
0.00100465176110575 -7.356245041087448e-5 0.0
0.0009690873091658775 -0.00010086787944662656 0.0
0.0009817516577121177 -0.0001210205160740175 0.0
0.001003696670189843 -0.00012194014902756611 0.0
0.0009763304468918792 -0.00012753968082703394 0.0
0.0009550358135104167 -0.00012590464891246126 0.0
0.0009490082285029315 -0.0001326411162941387 0.0
0.0009983349675236758 -0.00012888720989911556 0.0
0.0010261375446961752 -0.00012292449514882784 0.0
0.0010482371732553853 -9.298560853508013e-5 0.0
0.001020920634790608 -0.00013022950846266305 0.0
0.0010506331594334773 -0.0001233322856130639 0.0
0.001044313307585765 -0.00013159693121010454 0.0
0.000927984334142516 -0.0001307212464451055 0.0
0.0009231254380204593 -0.00013711317406726281 0.0
0.001075081029452303 -0.00012413258404668428 0.0
0.0009006703870609425 -0.00013499247455455902 0.0
0.0008973363159220868 -0.00014146345556393175 0.0
0.001069286169844746 -0.00013266410429711985 0.0
0.0010990438791581274 -0.0001255829842814377 0.0
0.0008732743978906634 -0.0001390629691249637 0.0
0.0008694358308797244 -0.00014560694783315035 0.0
0.001093963515386621 -0.0001342251545717042 0.0
0.0011246863206134782 -0.0001267206238941759 0.0
0.0008460900481373119 -0.0001428313312936623 0.0
0.0008420354965908373 -0.0001496565517236155 0.0
0.0011194213608152757 -0.00013601226635770716 0.0
0.0011512073826550175 -0.00012786509426264251 0.0
0.0008192851253353536 -0.00014601950046120698 0.0
0.0008136253386014683 -0.00015296315019862892 0.0
0.0011462584299819921 -0.00013755676903624012 0.0
0.0011784265876402693 -0.0001289958647987481 0.0
0.0007899910868070033 -0.00014898672166372624 0.0
0.0007851026375793169 -0.00015612028852265332 0.0
0.0007597832750258567 -0.00015203727918630978 0.0
0.0007648159463666492 -0.00014470037947558363 0.0
0.0011120165812729796 -0.0001453912882170305 0.0
0.0011732615528614327 -0.00013930711911945443 0.0
0.001206321282469468 -0.00013018730903564723 0.0
0.0012122239009661631 -0.00011942597712066139 0.0
0.001075446411641547 -6.968159215542693e-5 0.0
0.0012415166431259592 -0.00012027130330959302 0.0
0.0012479005430620206 -0.00010902379961383305 0.0
0.001278420099102682 -0.0001093874186437067 0.0
0.0007572392643272785 -0.000159565785029693 0.0
0.0007308096405861582 -0.00015448625053963858 0.0
0.0007821976676940369 -0.0001638615536652598 0.0
0.0012001527159379354 -0.00014133842544727522 0.0
0.0007288026201885103 -0.0001621244556269807 0.0
0.0007019566292339669 -0.00015641031845372132 0.0
0.0011084123508857265 -5.095189149354029e-5 0.0
0.0007001878782062237 -0.00016374122422278706 0.0
0.0006732001058809634 -0.00015768337999898027 0.0
0.0006717512266041012 -0.00016508665344942722 0.0
0.0006450919449545488 -0.00015824290194630682 0.0
0.0006459069103274119 -0.00015117705013883168 0.0
0.0006158097765039935 -0.00015163359709197583 0.0
0.0006170784778193911 -0.0001442386771186369 0.0
0.0006405773678781714 -0.00016538103395555425 0.0
0.0005845147968272818 -0.00014434269089403488 0.0
0.0005854808763953104 -0.0001368547235914921 0.0
0.0006707597838178323 -0.00017300935338120324 0.0
0.0006442999868227472 -0.00017397045323214687 0.0
0.0005535428099428325 -0.00013603914716419404 0.0
0.0005531417602219885 -0.0001285979636896022 0.0
0.0012857393464297709 -9.797609665960645e-5 0.0
0.0013177124354902738 -9.808826292021463e-5 0.0
0.0006699631379485989 -0.00018117823001679036 0.0
0.0006440727786191202 -0.0001819819998904627 0.0
0.0013254345921055457 -8.637281313973087e-5 0.0
0.001359096035320445 -8.649078470082599e-5 0.0
0.0013496563583423509 -9.96203341092467e-5 0.0
0.0013916326350143311 -8.739158839145465e-5 0.0
0.0013828225803864582 -0.00010098594898281698 0.0
0.001425255323178126 -8.782619818032077e-5 0.0
0.0014185260814955796 -0.00010142287141691579 0.0
0.0014627887363060077 -8.69409985070111e-5 0.0
0.0014526463713832984 -0.00010121237832111809 0.0
0.0014690138075460675 -7.426839608689199e-5 0.0
0.0014974789858530559 -8.705977054686028e-5 0.0
0.0014853595907027208 -0.00010168820349344943 0.0
0.000669731831328514 -0.00018962623723238077 0.0
0.0005192351237889391 -0.00012713875390892192 0.0
0.0005178578687667612 -0.0001192951121351419 0.0
0.001443618293804862 -0.0001165359779006344 0.0
0.0014751679514562897 -0.00011714694212199749 0.0
0.0015164852559475576 -0.0001021906022158403 0.0
0.0014359425675858903 -0.0001327182632523671 0.0
0.0006446543679993349 -0.0001903859696764208 0.0
0.0015065189324798955 -0.00011785089133821227 0.0
0.0015470981585578377 -0.000102582236969923 0.0
0.0006696837086038541 -0.00019842232325042078 0.0
0.0006452549530196511 -0.0001991769136895634 0.0
0.0006205749999904108 -0.00019069706792702274 0.0
0.0015370178670783764 -0.0001185794119185651 0.0
0.0015771254199580364 -0.00010275679925854658 0.0
0.000669781072367903 -0.00020763293588381835 0.0
0.0006938712897629246 -0.00020656920537886873 0.0
0.0006216257947812336 -0.00019949654274785235 0.0
0.0005970833184513853 -0.0001906184524392182 0.0
0.0015658442037961582 -0.00011929757611111414 0.0
0.0016066861009579702 -0.00010271293516094163 0.0
0.0016173045041537734 -8.75228544239267e-5 0.0
0.0015255770261998827 -0.000136240113545693 0.0
0.00164681234305321 -8.68374022408135e-5 0.0
0.0016580214298744025 -7.309969122742518e-5 0.0
0.0004815992416616148 -0.00011729082179475959 0.0
0.0004816671376368606 -0.00010900473575376235 0.0
0.0005257619324559183 -0.00011181309030692129 0.0
0.0004804471851188575 -0.00010006573520662671 0.0
0.0005235227699165015 -0.00010132129186381818 0.0
0.00047852657014415444 -8.967370000490683e-5 0.0
0.0005211618931624298 -9.002864616912213e-5 0.0
0.0006939306023239089 -0.0002160591771393586 0.0
0.0007174180745765663 -0.00021465618768774447 0.0
0.000598461366251541 -0.00019945027851388141 0.0
0.0005740429281940563 -0.00019014318662690562 0.0
0.0016353772020174303 -0.00010238188800774758 0.0
0.00048093611287558974 -7.821331336091029e-5 0.0
0.0005219584525333816 -7.765608809593825e-5 0.0
0.0007175570046540885 -0.00022437762250806725 0.0
0.0007404685581165977 -0.00022279543297752628 0.0
0.0008705411137018322 -0.00015179265603005795 0.0
0.0016750034069266965 -8.575215952446451e-5 0.0
0.0011513904827280454 -2.56450610482896e-5 0.0
0.0012072291019355034 8.52128540781159e-6 0.0
0.0009898004093869337 -8.55900920973467e-5 0.0
0.0013651850882921398 -7.480400494823235e-5 0.0
0.0004770843059737557 -6.401883386416733e-5 0.0
0.0005259395626809871 -6.319926204208816e-5 0.0
0.0005757898042420945 -0.00019903036166908015 0.0
0.0005516078270359912 -0.00018938363517272187 0.0
0.000741003854747786 -0.00023278648550762473 0.0
0.0007637363865941727 -0.0002309954031279624 0.0
0.0016622898947245247 -0.00010126364638308551 0.0
0.0004438356198932967 -0.00010658433708869479 0.0
0.00044541850046400324 -0.00011481673178849614 0.0
0.00043008254756003424 -7.6337331979549e-5 0.0
0.0017017762798978873 -8.398046623609764e-5 0.0
0.0004764604329334953 -4.858720729588655e-5 0.0
0.0005264220453371622 -4.597872808525459e-5 0.0
0.0007185342272122631 -0.00023455514937199034 0.0
0.0005538071368762343 -0.0001984389428587733 0.0
0.0005296468611043644 -0.00018828847223076572 0.0
0.0013317639673456434 -7.508952386730434e-5 0.0
0.0013729843860851424 -6.320955018132466e-5 0.0
0.0013377043234994869 -6.388848769303537e-5 0.0
0.0013807830362789462 -5.1872658531463756e-5 0.0
0.0007639945512723898 -0.00024111761102634064 0.0
0.000786941728865417 -0.00023886648344429538 0.0
0.0008512518091433491 -0.00013674314003882655 0.0
0.0004754439630474356 -3.151435237745299e-5 0.0
0.0005247944156075377 -2.6836934050915205e-5 0.0
0.0016888540000148475 -9.93098871158037e-5 0.0
0.0016532545879754277 -0.00011627447617526311 0.0
0.00046334996237438385 -1.044264810444569e-5 0.0
0.0005213092451328267 -4.6486436273015105e-6 0.0
0.0017274322728956612 -8.192238337206415e-5 0.0
0.0017354438521152414 -7.145841769908437e-5 0.0
0.0004691489031363533 1.0115277608852468e-5 0.0
0.00057718719631343 -0.00020912874471948204 0.0
0.000786848705450021 -0.000249433884507335 0.0
0.0008096391409941728 -0.00024667021950636805 0.0
0.0008101717732655186 -0.00023609800651259378 0.0
0.0008328065124496209 -0.00024359753841306182 0.0
0.0008336750923711677 -0.00023304372386729876 0.0
0.0008563882604849637 -0.00024021003332333954 0.0
0.000857525093660878 -0.00022951409144522807 0.0
0.0008805519265461894 -0.00023645324982312114 0.0
0.0008820223083686082 -0.0002256733499008076 0.0
0.000905223730681001 -0.00023227963516731773 0.0
0.0009037936152193218 -0.00024352763547997325 0.0
0.000928339584608596 -0.00023905602362130128 0.0
0.0009268619340735988 -0.00025068444362238583 0.0
0.0009512963123016352 -0.00024591233774982755 0.0
0.0009496410099295528 -0.00025795986927843823 0.0
0.0009742562773786382 -0.00025286270029249394 0.0
0.0009071110772692573 -0.00022142944723379154 0.0
0.0009760755566670799 -0.00024066128417611345 0.0
0.0009993233885248556 -0.00024723872349520054 0.0
0.0009972525927520325 -0.0002600978633377889 0.0
0.0010225968671533695 -0.00025417039054872185 0.0
0.00040674552823257554 -0.00010340421115470422 0.0
0.0004086541548866658 -0.00011130945540280022 0.0
0.0005321567094529971 -0.00019737287629246485 0.0
0.0005083838236732129 -0.00018693307256279705 0.0
0.0010251629365029802 -0.00024118112668862477 0.0
0.0010484690965390337 -0.00024763518860302665 0.0
0.0010456393433431526 -0.0002611573624739156 0.0
0.0010720630161682105 -0.0002542197454910382 0.0
0.0003708190361568735 -9.950387342725852e-5 0.0
0.00037318479910944564 -0.00010697317737246616 0.0
0.0013439327560594817 -5.254648109482698e-5 0.0
0.0013891984393959065 -4.046536960990636e-5 0.0
0.0013512831139749237 -4.129017437102495e-5 0.0
0.0017150289419860586 -9.637065734831932e-5 0.0
0.0017524351354758548 -7.902704603157367e-5 0.0
0.0008094654573515875 -0.0002577191705666714 0.0
0.0005745774854410454 -7.950958156165197e-5 0.0
0.0010403715766892654 -0.00013912070126562815 0.0
0.0010689468058129525 -0.0002682608776216242 0.0
0.0010956285836472947 -0.00026097455867198625 0.0
0.0010985250899171232 -0.0002465934304641107 0.0
0.0011227991584175094 -0.0002528730106817809 0.0
0.001106006743456538 -0.00011638728340524772 0.0
0.0013996919268602017 -2.8656240162487284e-5 0.0
0.001434399859774576 -3.0339827526716245e-5 0.0
0.0005228530915763603 1.919408523828486e-5 0.0
0.0005109366908404771 -0.00019599049512661223 0.0
0.0004875124068883725 -0.000185218527404772 0.0
0.0013596506834006195 -2.9707160104725896e-5 0.0
0.0011194264613366223 -0.0002679767087034075 0.0
0.001147293932693427 -0.0002598500897031022 0.0
0.001150924531514134 -0.0002442640770600909 0.0
0.0011762370624059267 -0.00025106513575526106 0.0
0.0011807399388356116 -0.0002354058593908891 0.0
0.00120587202089358 -0.00024149914309900823 0.0
0.001201100643401099 -0.0002578573888612949 0.0
0.0012306074103468631 -0.0002478058147791085 0.0
0.00046844477199358813 3.101824257352803e-5 0.0
0.00033629904187832294 -9.493800113097299e-5 0.0
0.0003388399124620916 -0.00010180689666871915 0.0
0.000787460337504517 -0.000260523795342822 0.0
0.0017384050871187922 -9.466698688484731e-5 0.0
0.0017765565884181294 -7.604343892419505e-5 0.0
0.0012255703206314214 -0.00026484235419265925 0.0
0.0012546702202746185 -0.0002543671815121266 0.0
0.0005263590434756515 4.3123489627463716e-5 0.0
0.0004904798223302072 -0.0001943557365481157 0.0
0.0004669192132324152 -0.00018308127190875753 0.0
0.0005764308151656292 -2.1981516891885713e-5 0.0
0.0016092269591747076 3.5228198022643566e-5 0.0
0.000809437898764336 -0.0002691359640031933 0.0
0.0004703909916836364 5.0805601076338265e-5 0.0
0.0004307907088340055 -3.5936279856798735e-5 0.0
0.0017580255296081738 -9.638958564339015e-5 0.0
0.0018002687565163097 -7.352406322647647e-5 0.0
0.0018149280343247485 -5.938429088475426e-5 0.0
0.00041406456945488126 2.0061125086402177e-5 0.0
0.0017192414612606502 -0.00011441075424141593 0.0
0.00033132665453104065 -8.722777590219924e-5 0.0
0.000511881586789431 -0.0002046920674575082 0.0
0.00140956544428768 -1.6797430797800687e-5 0.0
0.0013686130341311923 -1.789824932796411e-5 0.0
0.0012114334284638486 -0.00022557098587228287 0.0
0.00047030486345711213 -0.0001925148234445445 0.0
0.0004466942509465805 -0.0001807624435488199 0.0
0.000303072418543066 -8.966776838687912e-5 0.0
0.00030566951099640947 -9.58387142970308e-5 0.0
0.0005497452209264757 -0.00018104112523243548 0.0
0.0012493816310412533 -0.0002720651984875217 0.0
0.0012780862566788437 -0.00026095173398133615 0.0
0.0004431902491180159 -0.00017170718130730614 0.0
0.0004227476872375775 -0.00016891059163931011 0.0
0.001222534263865586 -0.00028111293969387016 0.0
0.0007883345837192561 -0.0002720088401138777 0.0
0.0004268539140751222 -0.00017819364714843265 0.0
0.00040285514477252034 -0.00016589952603891436 0.0
0.0008342536548405372 -0.00022299764556969116 0.0
0.0018397394901224348 -5.5742697653147454e-5 0.0
0.0018533898230163012 -4.51591648281477e-5 0.0
0.001825313929076139 -7.00741131168257e-5 0.0
0.0012724511288532332 -0.0002791009741945847 0.0
0.0013009671889291315 -0.0002674453337377537 0.0
0.001185631672454918 -0.0002201262720701045 0.0
0.001217314330631406 -0.00021008431849279152 0.0
0.0008097463244719435 -0.0002808998237661009 0.0
0.0013074815844302385 -0.00024869058535606227 0.0
0.0013305988438714097 -0.00025488852314509185 0.0
0.0002705786709500348 -8.343069570228405e-5 0.0
0.00027471463815306605 -8.940908369271913e-5 0.0
0.0013239362487623553 -0.0002746473941752807 0.0
0.0013531773030953018 -0.0002613814016381132 0.0
0.000407801272127294 -0.0001754864089997233 0.0
0.0003836187034100979 -0.0001627223245138051 0.0
0.0014189500085047444 -5.033011454907348e-6 0.0
0.0013780918096928762 -5.879045849506418e-6 0.0
0.0003783905368000925 -0.00015368719622831654 0.0
0.00035891689626347823 -0.00014994705856078642 0.0
0.00036419695491528916 -0.0001591432984639235 0.0
0.00033944568937764125 -0.00014592145188577064 0.0
0.001864395588170356 -5.2078910749712054e-5 0.0
0.001849642650492499 -6.739860967241075e-5 0.0
0.000529526350258583 6.514902672446373e-5 0.0
0.00046999075348135635 6.918815710688045e-5 0.0
0.0013139044708052991 -4.206955039159612e-5 0.0
0.0007892864713470404 -0.00028384559281789413 0.0
0.0013463420173934714 -0.00028205303958228026 0.0
0.0013749880861105436 -0.00026785241471597446 0.0
0.0014831583726722182 3.385391929717812e-5 0.0
0.0013381382300971106 -0.00023542134318453277 0.0
0.0009257101120714862 -0.0002626876190597019 0.0
0.0003334783568379523 -0.00013723638496087188 0.0
0.000314400035315713 -0.00013269041911480065 0.0
0.00032063074509616383 -0.00014180966455462908 0.0
0.0002952937548114152 -0.00012803464941253827 0.0
0.0002890531532277625 -0.00011961978803497032 0.0
0.00026917499174763384 -0.0001143537317775658 0.0
0.0002626877409808531 -0.00010632429578074862 0.0
0.00024229041362669262 -0.00010042537535259661 0.0
0.00023582185546641842 -9.322324042182775e-5 0.0
0.0002163640191685941 -8.724393877775995e-5 0.0
0.00020957817737697057 -8.081722300160898e-5 0.0
0.00022244490203307787 -9.429604563466344e-5 0.0
0.00019389736756882694 -7.925186952980726e-5 0.0
0.00024044756437692307 -7.688878590099302e-5 0.0
0.00023778582511325126 -7.167629421437129e-5 0.0
0.00020258876180735984 -8.789419211392025e-5 0.0
0.00017626644018592375 -7.392190035934124e-5 0.0
0.0005858558291165038 5.4651668834491686e-5 0.0
0.0006132602707570357 -0.00013597224709208393 0.0
0.0011911762211264361 -0.00020536410952770432 0.0
0.0012232562340635045 -0.00019510622422812588 0.0
0.00037329322316252196 -0.00011331201876675681 0.0
0.0008101257562403552 -0.0002931151754775675 0.0
0.0008307895997772525 -0.00028990259010562065 0.0
0.001249814473096672 -0.00019927298770311297 0.0
0.0012563899916662666 -0.00018390306362643346 0.0
0.0018890110232523158 -4.8538365439926585e-5 0.0
0.0018724419881355145 -6.530558661592154e-5 0.0
0.0018337292133540305 -8.77973643252193e-5 0.0
0.0013279723377072055 -1.967575297601184e-5 0.0
0.0013378052679190056 -7.857935445873555e-6 0.0
0.0007680827449054471 -0.0002746222467249135 0.0
0.0007692556047632146 -0.0002864856323215978 0.0
0.0007483934146300724 -0.00027704151697270326 0.0
0.0003026392485062168 -0.00013770174284810348 0.0
0.001387308308840781 5.828945997279825e-6 0.0
0.0013476408005691164 4.237482531977451e-6 0.0
0.0005524318125108584 -0.00014373049367974133 0.0
0.0013674742149345812 -0.00028905785605482144 0.0
0.0013961139314329354 -0.00027410905921615745 0.0
0.0014046793890947057 -0.00025295753710553724 0.0
0.001425460672957624 -0.000258379985048682 0.0
0.0005511411221598361 8.805130096779054e-5 0.0
0.00048108338156144166 8.755187493356661e-5 0.0
0.0007397547130889325 -0.0002133185622869147 0.0
0.0013403324918147043 -0.00030267645279126275 0.0
0.0017175749685711984 3.121415651261652e-5 0.0
0.0014163450565164546 -0.0002806631669363122 0.0
0.0014455317741919704 -0.0002640301126721646 0.0
0.001455525452586883 -0.00024161851971066058 0.0
0.0014756936123881013 -0.00024641098812875554 0.0
0.0014869615165741864 -0.0002238322337196241 0.0
0.0015064698598518146 -0.00022787489173882501 0.0
0.0014945170675945507 -0.00025120654060138085 0.0
0.0015246797919186634 -0.00023201846507309333 0.0
0.00018323669427281624 -8.098483643463601e-5 0.0
0.00015725481737159042 -6.696222916228198e-5 0.0
0.00014719497639847963 -5.9324426915661334e-5 0.0
0.00083115380465524 -0.00030254544715002944 0.0
0.0008510600563883025 -0.0002996050548385829 0.0
0.0007499554401957231 -0.0002889583016488497 0.0
0.0007291791571306468 -0.00027917812516595983 0.0
0.0018547900730724008 -8.737350741630304e-5 0.0
0.0018937672243982111 -6.383457854082678e-5 0.0
0.0014654407281251614 2.4984230473272103e-5 0.0
0.0014282638417524832 3.0321046309002927e-5 0.0
0.0004078503465177669 6.681918767716512e-5 0.0
0.00041997216836281665 8.147098843219105e-5 0.0
0.00021005666522954145 -9.654544868050465e-5 0.0
0.0006966559333242251 -0.0001799024482331539 0.0
0.001294674621921081 -6.630737045701156e-5 0.0
0.0018177058441204818 -0.00011165155156504129 0.0
0.0005643980040549602 -9.980856918841034e-5 0.0
0.0012884684040206913 -2.2427588586527625e-5 0.0
0.0015117474394540306 -0.0002562989479655126 0.0
0.0015415279721211657 -0.00023668691100863003 0.0
0.0015583651930548689 3.4508398403404053e-5 0.0
0.0016316002676251631 3.268730589858669e-5 0.0
0.0005568556482161683 0.00010973195209224628 0.0
0.00030781373108471527 -0.00010162625697351932 0.0
0.00020415871060029534 -6.399805350779434e-5 0.0
0.0002016798624880055 -5.9158083864213315e-5 0.0
0.0003269428151615131 -0.00015173336559700276 0.0
0.0014372577624611406 -0.0002871885888036156 0.0
0.001166450731487141 -0.00015003326453382897 0.0
0.0010435022641896688 -0.0002751152418448055 0.0
0.0006713220974461228 -0.00021683335772958555 0.0
0.00016414979916914052 -7.416216344215673e-5 0.0
0.00013865380560789124 -6.008919074651946e-5 0.0
0.00043169744042575683 -0.0001882397896414534 0.0
0.0012835809794961236 -0.0001875105132697304 0.0
0.001290787630594889 -0.00017189223461511362 0.0
0.0007698070414558659 -0.00029896854904393373 0.0
0.0015915087174307094 3.0149640660293458e-5 0.0
0.0016547062903838295 2.8165554890178814e-5 0.0
0.0016171254389995776 2.4519051471763653e-5 0.0
0.0016787329793640587 2.2562424382756623e-5 0.0
0.001716544749586836 2.5783683803053406e-5 0.0
0.0017403328688108987 2.0313350176404892e-5 0.0
0.0017018444056455086 1.6243549892842324e-5 0.0
0.0017617037690828663 1.433503408783229e-5 0.0
0.0017233305351617002 9.541426592742163e-6 0.0
0.001782244107422682 8.271125021369399e-6 0.0
0.0017445509101578964 2.545659529795636e-6 0.0
0.001801238587678599 2.3126200562394838e-6 0.0
0.0017641576439313127 -4.346375280984491e-6 0.0
0.0018192349914007715 -3.4216465663708722e-6 0.0
0.0017060807426401237 -5.30884658837095e-6 0.0
0.0017826468010016525 -1.0937632858630159e-5 0.0
0.00183477139823607 -9.060560726682662e-6 0.0
0.0017804355790230842 2.2705776611462933e-5 0.0
0.0004183140708847538 -0.00016008605018889572 0.0
0.00041328661510706675 -0.00018574947130179775 0.0
0.00043628201605325586 -0.0001986231088357329 0.0
0.0018001357231200161 -1.7043949059444652e-5 0.0
0.0018499147175498102 -1.405266107592091e-5 0.0
0.001751231091036461 -1.9732286628669567e-5 0.0
0.001066144241800227 -0.00028263881642936605 0.0
0.0010412052450904364 -0.0002892433579563197 0.0
0.0010635169202192502 -0.00029717400655407747 0.0
0.001039454339512066 -0.0003036284208870271 0.0
0.0010612593047234476 -0.0003119157665753197 0.0
0.0010382679175188815 -0.00031824402791526534 0.0
0.0010166179813393863 -0.00030981585673357516 0.0
0.0010159560439652045 -0.00032418832811090227 0.0
0.0009949286256295377 -0.0003155810420282288 0.0
0.001038914852342331 -2.3142438324651446e-5 0.0
0.0010595416701298275 -0.0003269483550375566 0.0
0.0010825035137623884 -0.0003203700385087365 0.0
0.0009168837005398771 -0.00014424243198378042 0.0
0.0008836424636131706 -0.00021527674099579964 0.0
0.0009092228823972724 -0.00021095202188594164 0.0
0.0008854955577187258 -0.00020523937400968248 0.0
0.0009115562585604894 -0.00020085668451728573 0.0
0.0008876124622047056 -0.00019558057770543375 0.0
0.0009141296141986619 -0.00019115396241063987 0.0
0.0009381758267084436 -0.00019607266717932322 0.0
0.0009411837522498663 -0.00018630855417720965 0.0
0.0009653642621218677 -0.00019087024610736313 0.0
0.0009687441077648785 -0.0001810236473916468 0.0
0.000991956040973268 -0.00018523146907027985 0.0
0.0009445745174405475 -0.00017663041177368307 0.0
0.0008900085594445153 -0.00018629228650285907 0.0
0.0008633978932820456 -0.0001903888283360534 0.0
0.0009883349949774344 -0.00019570473351892545 0.0
0.0010164355182738206 -0.0001890377476187259 0.0
0.00041875834750053034 -0.00019641907896723385 0.0
0.0009672690758626612 -0.00010922314375174965 0.0
0.0010209299955604957 -6.143838136390029e-5 0.0
0.0010516645938259141 -0.0002346208062822366 0.0
0.0019026848216975214 -3.76065948402472e-5 0.0
0.0019268635685316966 -3.380136577946626e-5 0.0
0.0010922150074204968 -6.0133808120071805e-5 0.0
0.0010649166391112615 -7.759130934969741e-5 0.0
0.0014657332489589926 -0.00021969961355166915 0.0
0.001268925125897121 -0.00012150053171464569 0.0
0.001876767928587575 -8.592522975745589e-5 0.0
0.0019144731009277099 -6.23932631948838e-5 0.0
0.0010398705968320415 -0.00010430598746318636 0.0
0.000731033412601677 -0.00029120510594322945 0.0
0.0007103759424763774 -0.0002811347516044311 0.0
0.0011283299682728876 -4.00107612141004e-5 0.0
0.0009943281673646268 -0.0003297998478012645 0.0
0.0009732243797102338 -0.0003204019888180344 0.0
0.0007085499428395596 -0.0002694260941130081 0.0
0.0006895510698362585 -0.00027108457968016357 0.0
0.000687640221881458 -0.0002596662117550114 0.0
0.0006684919465128922 -0.0002610009161654152 0.0
0.0006708447000613103 -0.00027260587488641503 0.0
0.000649810752798573 -0.0002622144646553052 0.0
0.0006524034712963275 -0.00027395492913052954 0.0
0.0006313507453591314 -0.0002632769293177016 0.0
0.0003101916500060848 -0.00014821374960068763 0.0
0.0019392153689981452 -2.6270936515551965e-5 0.0
0.0013949789130216625 1.6470947359939977e-5 0.0
0.0013547208133624289 1.5468434129756037e-5 0.0
0.0006217872072704712 -0.00017478585887772515 0.0
0.0005082479523914342 -0.00017863212676795472 0.0
0.001868518592670376 -3.27944821508494e-6 0.0
0.001840708615244833 6.505115497107398e-6 0.0
0.000851115561502044 -0.00031241256006275087 0.0
0.0008716008349388864 -0.0003090951159546675 0.0
0.0013605238002140012 -0.0003099910625175509 0.0
0.0002844415308557693 -0.00011211822573875565 0.0
0.0011567018270252816 -0.00011862952369568234 0.0
0.0013090062081317336 1.6782462936012104e-6 0.0
0.0013166843191595554 1.297538402177562e-5 0.0
0.0014988445805983722 -0.0002018226078777875 0.0
0.00155637432791761 -8.790488104951632e-5 0.0
0.0015552264256256823 -0.0002125763365746642 0.0
0.0015726474599739896 -0.0002163077507949015 0.0
0.001557828240496724 -0.00024232246225851042 0.0
0.0015894786496890845 -0.00022123441117903486 0.0
0.0009084413311611347 -0.00012867109315640519 0.0
0.0003331657041797039 -0.0001621940268670259 0.0
0.0009941872276632896 -0.0001751383984383586 0.0
0.0016645477543437176 1.0025573082129821e-5 0.0
0.0008551848367013428 -0.00028748597291597676 0.0
0.0004406588182931682 -0.00020927930024411097 0.0
0.0004581742917658575 -0.00021133215231541248 0.0
0.0013347993001602946 -0.00032297816721838765 0.0
0.0006662372549757829 -0.00024994384129772124 0.0
0.001196799574674445 -0.0001911500884758538 0.0
0.001165123306218307 -0.00020079508734365052 0.0
0.0018974190707986708 -8.518231807084512e-5 0.0
0.0019357411992869027 -6.040664232162225e-5 0.0
0.001951429074489772 -4.230304018143598e-5 0.0
0.0006273834254246604 0.00011167618929442239 0.0
0.00014555792315755682 -6.706603686511163e-5 0.0
0.00012015844683580906 -5.271216535299003e-5 0.0
0.00011604129221584195 -4.81800864468009e-5 0.0
0.0014150872378574967 1.6948426450607257e-5 0.0
0.0014510607218417718 8.381952928119558e-6 0.0
0.0013801711886316673 2.480832172616808e-5 0.0
0.0014606673409228981 -4.923548022790488e-6 0.0
0.0018169177669596684 -2.2080172575603935e-5 0.0
0.0018659778079806932 -1.792838716369738e-5 0.0
0.0007125535951629923 -0.0002932826881945296 0.0
0.0014201107061722193 -5.0933624713973e-5 0.0
0.0003458716918712638 5.978829616141113e-5 0.0
0.0003556209726732912 6.971761382433915e-5 0.0
0.00043778466457816245 9.43824196790412e-5 0.0
0.0003666969000896758 7.628476220038804e-5 0.0
0.00048480268340943646 0.0001123370308072243 0.0
0.0009717772119274758 -0.00030600791453601307 0.0
0.0006283506056683562 -0.0002518647967298857 0.0
0.00061034831653715 -0.00025266944742207505 0.0
0.0006133511825977612 -0.0002641765676800215 0.0
0.0005925515678223569 -0.00025332010790403393 0.0
0.0016039338439385472 -0.000195809622315551 0.0
0.0016207439426590671 -0.00020034940589279206 0.0
0.0016064169095995867 -0.0002271097409446143 0.0
0.001637127123630783 -0.00020574082532580953 0.0
0.0012629283509758655 -0.00016898937348626536 0.0
0.0012980506878642753 -0.00015706711375154528 0.0
0.0010808204629409318 -0.0003357195158306378 0.0
0.001103627158280987 -0.0003289495860519868 0.0
0.0008657413221617601 -0.00018141281860652893 0.0
0.0008389628150582425 -0.00018520922635771928 0.0
0.0008289480263805843 -0.00031593249020494667 0.0
0.0005956807885327431 -0.00026470113258738795 0.0
0.0005752707340971666 -0.00025373824160297774 0.0
0.0017967895520092183 -0.00011154752217494703 0.0
0.0017810582732875333 -0.0001368189661803061 0.0
0.0017614132589424646 -0.00013589434560197421 0.0
0.001749348285588047 -0.00015998565917288107 0.0
0.0008716105788065667 -0.00032319784704658695 0.0
0.0001690341651942736 -8.147318359000809e-5 0.0
0.00023078913076768934 -8.724075485315882e-5 0.0
0.00020144320432162477 -7.439167292630309e-5 0.0
0.00016666476165547853 -5.098004480966108e-5 0.0
0.00016195685339165833 -4.6045613814485375e-5 0.0
0.00019931787157981962 -5.358414864181928e-5 0.0
0.00015783978414262575 -4.0515255054998424e-5 0.0
0.000196654154561399 -4.689608805283279e-5 0.0
0.00015365659339083127 -3.4091843509499976e-5 0.0
0.0001944597230947679 -3.8970897052531284e-5 0.0
0.001801397723234089 -0.00013787573315533433 0.0
0.0005887091535364944 -0.0002422287140877799 0.0
0.0014764683568509907 -0.00019886373798879054 0.0
0.0013143897946900217 -0.00031447398573088354 0.0
0.0013101928854127192 -0.0003347827651405645 0.0
0.001290247974718283 -0.0003260782205966733 0.0
0.0009732001758392032 -0.00033488180325005087 0.0
0.0014269545179530886 1.5145209418240007e-5 0.0
0.0016229611376453801 -0.00023387068161466487 0.0
0.001973558565020522 -3.901803059718041e-5 0.0
0.001956780816909452 -5.7731810075208546e-5 0.0
0.0006346453053847141 0.00013213397858142148 0.0
0.0013902588343602256 2.4190352087525646e-5 0.0
0.0010279368526791447 -0.00022870085161734829 0.0
0.0010545432185357704 -0.0002220440318486586 0.0
0.0010162591109977362 -0.00033910379727833655 0.0
0.0009522396336855786 -0.00032518831662171443 0.0
0.0004499662595050516 -0.0001238879632220047 0.0
0.0018974985134783634 -1.1222832155622265e-5 0.0
0.0019126880306111506 -1.3907634139835783e-5 0.0
0.001880223738357346 -2.1005918220399776e-5 0.0
0.0019253769888594482 -1.6126728141001847e-5 0.0
0.0015536406563147964 -0.00013700077665737765 0.0
0.0011412200319579854 -0.00027584967587257735 0.0
0.001170400150898873 -0.00018733994637303337 0.0
0.0008563970587146816 -0.0002514179220226321 0.0
0.0012530681277909022 -9.818601158410306e-5 0.0
0.0013184557389964904 -0.00017501501011889494 0.0
0.0013146854216972822 -0.00023060913722849124 0.0
0.0013464078884371565 -0.0002168886011913602 0.0
0.0014047237909752253 -5.991621850420543e-6 0.0
0.0014473540166754222 -1.3703367716061123e-5 0.0
0.00046214149355444585 -0.0002220862639782344 0.0
0.0004787856779825019 -0.00022363920657412993 0.0
0.00014973405015039222 -2.667933725296851e-5 0.0
0.0001908067340644045 -2.957177920579993e-5 0.0
0.0002371125737971593 -4.260847826982878e-5 0.0
0.00023510516058332712 -3.1092812500563086e-5 0.0
0.00018859519532561517 -1.9351580661793447e-5 0.0
0.00023521003556234798 -1.8493621149619232e-5 0.0
0.00018804540067548977 -8.6758410078157e-6 0.0
0.0002376602288184963 -5.1475537525182914e-6 0.0
0.00018886132298698223 1.897634295363798e-6 0.0
0.00012729518321467025 -5.979516695838338e-5 0.0
0.0011391171910818483 -0.0001963802837401545 0.0
0.00010229015969399468 -4.542542535547966e-5 0.0
0.0004240479468547025 -0.00020737144039485243 0.0
0.001964511206905326 -2.2345122069708227e-5 0.0
0.0009327298910092683 -0.00021678704486430126 0.0
0.0012737347451944935 -2.141257972409111e-6 0.0
0.0012847903507377549 1.0670399153001915e-5 0.0
0.00024113032750594518 8.322620360724915e-6 0.0
0.0003173291603989467 -0.00015928917977835958 0.0
0.00029453259147338727 -0.00014498401530741977 0.0
0.0006167768649756955 -0.0002779207615574933 0.0
0.001351868992195959 -0.00033139999174797 0.0
0.0007328440319212626 -0.00030367849328679356 0.0
0.0016533970936268945 -0.00021175255986682654 0.0
0.0019880359573848207 -2.6245277401597363e-5 0.0
0.0008369350951938541 -0.0001941905091727656 0.0
0.0008125821982818696 -0.00018862444706836651 0.0
0.0008107907426531343 -0.00019762818046421813 0.0
0.0006988072893162678 0.0001314181079073317 0.0
0.0007878837583037331 -0.0001917010195652332 0.0
0.00017416037033513663 -5.6383072148503926e-5 0.0
0.0011019124499220864 -0.00034478935554543665 0.0
0.0011250799142833979 -0.0003378245467754799 0.0
0.0011271183107571443 -0.0003218128502807019 0.0
0.0011486017413677066 -0.00033050466443641953 0.0
0.0013704696973498914 -0.0002213390582761971 0.0
0.0013797942893147435 -0.000202126878103277 0.0
0.0019746894009851535 -1.7500479099085242e-5 0.0
0.00194893816580943 -2.1240118112225665e-5 0.0
0.0013309083856197623 2.5024735051694804e-5 0.0
0.0012946202593770652 2.255187545770817e-5 0.0
0.00040247742224215003 -0.0001943467714429336 0.0
0.0005786313605591765 -0.00026506024322433213 0.0
0.0005585653778504133 -0.00025396275041381344 0.0
0.0009918452345586551 -0.00013653311039228723 0.0
0.0015934809097003266 -0.0002553306141718596 0.0
0.0001922355586110006 1.1735410150385345e-5 0.0
0.0005546713075812809 -0.000242622902180537 0.0
0.0011465520117875665 -0.0003470110990449512 0.0
0.0011699488984694868 -0.00033948972984052775 0.0
0.0011436958975911517 -0.00018388105154499212 0.0
0.0011133064700257897 -0.00019207593825654084 0.0
0.0011176456554693299 -0.00018025009603599837 0.0
0.001053869257852926 -0.0001166621613506961 0.0
0.0001773076869453096 -6.677821099215229e-5 0.0
0.00010932163171891148 -5.2463016349642596e-5 0.0
0.0011513242495385138 -0.00031425287399611127 0.0
0.001194604317516512 -0.0001526348782623906 0.0
0.0009525883570561917 -0.0003398115901090098 0.0
0.00040749122454485895 -9.519646935813875e-5 0.0
0.0007049266363988651 -0.00014965518931117804 0.0
0.00033946412969065127 -0.00017376643852859612 0.0
0.001668074184635099 -0.0001846358777214304 0.0
0.00044064952615202314 -0.00016334743525953433 0.0
0.0004142374434983232 -0.00015172752368858134 0.0
0.00043874691286022627 -0.00015535781903342792 0.0
0.0004112454241029566 -0.0001439584633840017 0.0
0.0004366520589704686 -0.00014769221103691933 0.0
0.00038635712769383466 -0.0001398542512095947 0.0
0.0012868484581849676 -0.00034561021919255315 0.0
0.0012684532648111072 -0.00033676877068648754 0.0
0.00027789356490678306 4.7268724894042425e-5 0.0
0.0009739721788818311 -0.0003496465284640318 0.0
0.0009481202561849986 -0.0002703830754540003 0.0
0.0009246584471542888 -0.0002749902718450137 0.0
0.0004830146290555098 -0.00023467386020238986 0.0
0.00013545401477233314 -4.279265717306066e-5 0.0
0.0001456462790965843 -4.873655641924596e-5 0.0
0.0018263859949743681 -4.940673321365324e-5 0.0
0.0018651578817579218 -3.719084097837599e-5 0.0
0.00028236847940224296 -4.47570142601514e-5 0.0
0.0004992813462858038 -0.00023572848752654536 0.0
0.0004963688910197473 -0.00022561378501031087 0.0
0.0005034789762168732 -0.0002469609165214527 0.0
0.0004670813805194179 -0.0002333985544772616 0.0
0.0003968800631942142 8.506683453483416e-5 0.0
0.0007468954996446413 -0.00026562388843615097 0.0
0.0011343473943379579 -0.00020969762845474978 0.0
0.0018357749395157478 -4.1283378476327126e-5 0.0
0.0010795338858460846 -0.00035150651411171784 0.0
0.0007144596571630569 -0.00030583301064911807 0.0
0.0019937347923157087 -3.5916096048292746e-5 0.0
0.0019765928175051496 -5.5471717563108424e-5 0.0
0.0006968155587031906 0.00010848566099601885 0.0
0.0005626049075413865 -0.00026553976376282763 0.0
0.001269483693830858 -0.00015423310357473577 0.0
0.0013076422389458734 -0.00014214167794337134 0.0
0.0002258701026019578 -8.165945748911587e-5 0.0
0.000301883274291765 -0.00015627699117405175 0.0
0.00027960213386102583 -0.0001419790107831711 0.0
0.00027181071589022323 -0.00013106419537923158 0.0
0.0004080596414798347 -0.00020551240363813624 0.0
8.464119652364002e-5 -3.8072906134440625e-5 0.0
7.925367250358713e-5 -3.3360593386130006e-5 0.0
0.0011678226417284926 -0.00035643677918115104 0.0
0.0011908784545934471 -0.0003487367307071615 0.0
0.0011924063644965276 -0.0003306652460282463 0.0
0.001635739378290977 -0.00017537419290066794 0.0
0.0016182592287810123 -0.00017214055367062838 0.0
0.001609409968352883 -0.000263740786370808 0.0
0.00038288394743321656 -0.00013244229331049121 0.0
0.0003584444073689487 -0.00012823925958087534 0.0
0.0013357747869947281 -0.0001443364482705241 0.0
0.0019561529605878173 -1.0315138128753344e-5 0.0
0.0019675736223642177 -1.172854750181e-5 0.0
0.0019803575921925813 -1.4692122179838666e-5 0.0
0.0019326281673920178 -8.753555168306126e-5 0.0
0.00013426549608312003 -6.840032854029684e-5 0.0
0.0012780985359240851 -3.25771538138397e-5 0.0
0.00124221926180512 -3.57095804146174e-5 0.0
0.0012317229787802055 -4.472738333424424e-5 0.0
0.0011977550220616015 -4.8065145305481875e-5 0.0
0.0011891386553068233 -5.619774987949116e-5 0.0
0.0012054028229144405 -4.034474709189674e-5 0.0
0.0010308864697616072 -0.00021663574693030267 0.0
0.0008412115788430522 -0.0001766243036710681 0.0
0.000868449975513863 -0.0001727877699502283 0.0
0.00028695307721313926 -0.0001534283752665777 0.0
0.0002647679299130902 -0.00013871726862549222 0.0
0.0017543990701129064 2.7426094304531996e-5 0.0
0.0018210836862462955 2.3711744760388035e-5 0.0
0.0018476482358175588 1.854705086401061e-5 0.0
0.0018887274196488478 1.8980237000940894e-5 0.0
0.001871943495787851 2.2899293142212668e-5 0.0
0.0009325584385716012 -0.00033033740246682706 0.0
0.0009319590053437157 -0.0003166547216653913 0.0
0.0009324684474230787 -0.0003446574438162823 0.0
0.0012403638322842964 -7.159333996963789e-6 0.0
0.0012287162828062634 -1.8025176737486826e-5 0.0
0.0002855416041026137 -5.6604275667741674e-5 0.0
0.00013907592056171687 4.731167868749601e-6 0.0
0.001264617963671913 -0.00035542636576245753 0.0
0.0003379825733172037 4.8951292947877314e-5 0.0
0.0012763196294486173 -0.00020359339680423182 0.0
0.0012282501787768483 -5.2624921644946386e-5 0.0
0.0011810608995117683 -6.425144716563952e-5 0.0
0.0012129229143569347 -6.273477669795981e-5 0.0
0.001173035386057571 -7.238343156358199e-5 0.0
0.0012033575600513872 -7.15149557551288e-5 0.0
0.0011653272150004522 -8.080227301292431e-5 0.0
0.0011949850839572157 -8.04297335017357e-5 0.0
0.0011579816557087067 -8.95764626576055e-5 0.0
0.0011883607595013141 -8.947834506847988e-5 0.0
0.0011413293045668034 -7.373929051777744e-5 0.0
0.0011284460339298936 -8.976267118264572e-5 0.0
0.0013059224924258622 -0.0003545251025029432 0.0
0.002006082669488124 -1.2900132058798858e-5 0.0
0.0006860762554495466 -0.0002488312216803155 0.0
0.0006638577637350725 -0.000239614974140203 0.0
0.0018594607117535945 -0.00011188750278787249 0.0
0.0007907227057222946 -0.0001843051054958128 0.0
0.0011574142032010353 -5.871133622707143e-5 0.0
0.0005126807337587114 0.00012468401755320521 0.0
0.00012233190942320465 -3.3493453724011724e-5 0.0
0.0007718910313412372 0.00012710682997492458 0.0
0.0007607278883159175 0.00010092850938357413 0.0
0.0015286519297494463 3.0614866926367406e-5 0.0
0.0018795112310628565 -0.0001121980989525431 0.0
0.0018437249880228124 -0.00014045884808648826 0.0
0.0007855574553834082 -0.00020060793081746477 0.0
0.0007651162244967238 -0.00019321132470593097 0.0
0.0003541873426739582 -0.00016794923917354756 0.0
9.158958965168686e-5 -4.494772094659164e-5 0.0
0.0001042203738160179 -3.37669575411637e-5 0.0
0.0001095258852871328 -3.719835005846352e-5 0.0
6.704508687002228e-5 -3.058828809163794e-5 0.0
0.0013546445559999036 -0.000198767685834995 0.0
0.0013892076538417762 -0.00018401548549464272 0.0
0.001415062262353603 -0.00018686772210925546 0.0
0.0014245901311787806 -0.00016852216074589166 0.0
0.0011221048281639082 -9.795353737626229e-5 0.0
0.0005928209062642024 0.00014911123938676858 0.0
0.0007221177234892822 0.00015140986789574963 0.0
0.0010877663993158647 -0.00018786995047324266 0.0
0.0010923863753119487 -0.00017638122082940994 0.0
0.0008442628438613646 -0.0001687308152252004 0.0
0.00072639316874383 -0.00017004048838549878 0.0
0.000734767515717057 -0.0003165041234031011 0.0
0.001483303107445584 -0.000275249111918652 0.0
0.001499619251457906 -0.00028148445756500556 0.0
0.0014729435786164033 -0.00029975841472016084 0.0
0.0014888565313163097 -0.0003073585527706422 0.0
0.001463663641254877 -0.000324648359819464 0.0
0.0014476898177862695 -0.00031706809578219565 0.0
0.00140626998718997 -0.0003067177476687451 0.0
0.0012692317287459007 -0.0003169017468380276 0.0
0.0013942443034408968 3.30656835458475e-5 0.0
0.0010189377779232362 -0.000281514126941212 0.0
0.00028688568239381286 -1.5691101141865756e-5 0.0
0.0019571347637054306 -8.09226031116949e-5 0.0
0.001994892858738451 -5.2820033172157396e-5 0.0
0.0015152363230299668 -0.0002888319139514939 0.0
0.001505430734078312 -0.00031580656656486964 0.0
0.0015307459951893782 -0.0002976627127415977 0.0
0.0007525190415585522 -0.00031417832037984155 0.0
0.0009025119001072993 -0.00026708653567016327 0.0
0.0009022854526736 -0.000279048175810914 0.0
0.0009239375992950632 -0.0002875810618452025 0.0
0.0006253190169613986 -0.00021034767011135258 0.0
0.0008802151433818159 -0.0002708955235470162 0.0
0.00112993394783529 -0.0003064130704040483 0.0
0.001651857121648763 -0.00015157948166420762 0.0
0.001684073277958133 -0.00018967376184135496 0.0
0.0016692171562361466 -0.00021894147703392243 0.0
0.0017035829994373006 -0.0001606628330843396 0.0
0.00024283496628829887 -6.085088462843145e-5 0.0
0.0006733832159131559 -0.00028465698896850745 0.0
0.0006554681186617482 -0.00028614926296345106 0.0
0.0006758331649623071 -0.00029696174249299546 0.0
0.0006588299624247688 -0.00029850106137277915 0.0
0.0014504971107138682 -0.00017054129508456157 0.0
0.0004296708200420014 -0.00021881285472299668 0.0
0.00038759392400495825 -0.0001926279873728316 0.0
0.0019359961036928242 -1.797573509537968e-5 0.0
0.00011125546767256653 -2.2518055064464914e-5 0.0
0.00010794877740677246 -1.6578617871985685e-5 0.0
0.0012446087759887194 -0.00034386132399141415 0.0
0.001244812764265027 -0.000364150500330875 0.0
0.001003998736413437 -0.0002229226763581821 0.0
0.0019152216662880832 1.3915159781962289e-5 0.0
0.00039289890753352476 -0.00020373550893334905 0.0
0.001574647923188271 -2.5927325042780463e-5 0.0
0.0017746032766453733 -0.00011193045520589766 0.0
0.0018307737298091282 1.6626263330398787e-5 0.0
0.0018459067730616154 2.2112185589616498e-5 0.0
0.0013988049568152685 -0.000166865093296358 0.0
0.0015113052553362885 -0.00018120517356808453 0.0
0.001533373373223862 -0.00018342130463435845 0.0
0.0014176009209236537 -3.390918592279305e-5 0.0
0.0014587362200033087 -4.036508259334744e-5 0.0
0.0014886558691855369 -1.754589477507861e-5 0.0
0.0011443977044694623 -0.00036381254499582145 0.0
0.0005812348047006551 -0.00027636369450420264 0.0
0.0008599706812733039 -0.00020935088480448214 0.0
0.0012346099974065799 -0.00016649795625811757 0.0
0.001077631181674179 -0.0002272114154091496 0.0
0.0011004018564747219 -0.0003611057799993851 0.0
0.0005189229301899618 -0.0002475969910017068 0.0
0.0006442701536692118 -0.00024019167783026076 0.0
0.0002794008612608532 -9.55818592409868e-5 0.0
0.0019454431807080946 1.3823986326874953e-5 0.0
0.001443787152638083 -0.00021637635980790193 0.0
0.00019538265358899607 -6.922367154907045e-5 0.0
0.0006189992162276708 0.00016425395599387456 0.0
0.0010883570068472746 -0.00029037771872879753 0.0
0.0014393205112438801 -0.00034084226119207296 0.0
0.001422608120063726 -0.0003332228574822358 0.0
0.0012607676020947177 -0.00023695490101710085 0.0
0.0013435467056999461 -0.00013001180191170032 0.0
0.0005962007221582599 -0.00018251975874360816 0.0
0.0009019641445451159 -0.0002934956849596078 0.0
0.00122761471524248 -0.00014333408895397614 0.0
0.0006417297106652258 -0.00023013003669890495 0.0
0.0006217838767662608 -0.0002303061532936242 0.0
0.000523054828831723 -0.0002589591816256591 0.0
0.0003305597900442729 -5.932016389701793e-5 0.0
0.000330096580742839 -4.632329789904178e-5 0.0
0.00014368930385336102 1.1274045109185292e-5 0.0
0.00020144173037701506 2.1090724638934913e-5 0.0
0.0015814372369105667 -0.00028479405870792665 0.0
0.0002548948953381425 -9.41522951540949e-5 0.0
0.00036239237079708044 -0.00013569054915611834 0.0
0.0003343867752662661 -0.00012356008731662161 0.0
0.0016845852819273887 -0.00015868258794582885 0.0
0.0008328066302978425 -0.0002661831517953379 0.0
0.001057641347430818 -0.0002093623930255089 0.0
0.001344926911717382 3.0396695720471957e-5 0.0
0.001340643546368525 1.8497020004744917e-5 0.0
0.001308374340152726 2.438785853963005e-5 0.0
0.001307432604505452 9.086117645785255e-6 0.0
0.0013391178669137 -1.2806552643454114e-6 0.0
0.0014713280502081949 6.865919040176556e-6 0.0
0.0015116251438818278 4.952547791152513e-6 0.0
0.001523657836608996 1.494809928774571e-5 0.0
0.0015615321402857186 1.2080747464308877e-5 0.0
0.0015499295136589967 2.0356941008070573e-6 0.0
9.769700826720707e-5 -2.9922614069901406e-5 0.0
0.0014613795002072162 -0.00015292191805112517 0.0
0.0002812156290884787 5.1679661714522645e-5 0.0
0.0003147694049269213 6.036400923090918e-5 0.0
0.0011886323571150153 -0.00036583867458885207 0.0
6.957647022947224e-5 -1.218382982907331e-5 0.0
0.0016256385933983881 -7.393656480390124e-5 0.0
0.0016676222044989565 -6.0582866506420805e-5 0.0
0.0016383260339053163 -5.948617730370445e-5 0.0
0.0017005680654319435 -5.9604460424741824e-5 0.0
0.0017101077867677393 -4.811773853226467e-5 0.0
0.0017436537139125076 -4.742712229361466e-5 0.0
0.00046455419308652225 -0.0001585813755795897 0.0
0.0004638538970038256 -0.0001512165387390243 0.0
0.0004344123773758126 -0.0001402843108427619 0.0
0.00046281458965515015 -0.00014404179954882203 0.0
0.0004922572207201372 -0.00015441268522409333 0.0
0.0004918383126156491 -0.00014720920736206356 0.0
0.0005207503708149008 -0.00015695285049483268 0.0
0.0005667171940132065 -0.00027659275836628615 0.0
0.000520842063807209 -0.0001495029298887116 0.0
0.0005494721204257138 -0.00015891541284391122 0.0
0.00014256287679236578 -1.0619455897244809e-5 0.0
0.0003317248951813836 -7.051704151377484e-5 0.0
0.0005481601414960712 -0.00016621381388103618 0.0
0.00043558433173718284 -0.00013423966413949535 0.0
0.001633301752976195 -0.000149992485993832 0.0
0.001600361825808362 -0.00017016079810321127 0.0
0.0009131080304242609 -0.00033556407482909247 0.0
0.0009127489865671401 -0.00034954068448617663 0.0
0.0012765749024830058 1.866642511554959e-5 0.0
0.0007002369917584539 8.346264155718494e-5 0.0
0.0007598857966463169 7.32318282303893e-5 0.0
0.0008167264384768037 8.845845329343236e-5 0.0
0.0008161922741475518 5.8265610313423055e-5 0.0
0.0007641030856135868 4.442640304980226e-5 0.0
0.0008196334879650925 2.5272311525246667e-5 0.0
0.0007708738942293864 1.5073941351176935e-5 0.0
0.000826014469443549 -5.520428944757592e-6 0.0
0.0007779760306031717 -1.1419578157776374e-5 0.0
0.0008399685409890674 -3.123708641477726e-5 0.0
0.0007832880673028569 -3.310596109189473e-5 0.0
0.0008332296985188063 -4.835500663564611e-5 0.0
0.0007850787646100495 -5.014488833923595e-5 0.0
0.0008318419319793544 -6.223407724090462e-5 0.0
0.0007882902175407173 -6.464635952490016e-5 0.0
0.0008311759339295715 -7.37865676829067e-5 0.0
0.0007887803817984653 -7.618199484617812e-5 0.0
0.0008279637894986054 -8.309882239944346e-5 0.0
0.0007882305032781892 -8.571296909514843e-5 0.0
0.0008250332824696901 -9.110259336738937e-5 0.0
0.0007867360963946696 -9.406076317215658e-5 0.0
0.0008214414843519151 -9.843334493659164e-5 0.0
0.0007837831078506381 -0.00010163117626790335 0.0
0.0008177417391102347 -0.0001051798219036992 0.0
0.0007806904750355697 -0.00010894942980532645 0.0
0.0007463243138207658 -0.0001042789976785064 0.0
0.0007439939430348541 -0.00011197076404881975 0.0
0.0008162790101433245 -0.00011239054824099178 0.0
0.0007496710111534789 -7.819795827418439e-5 0.0
0.0008542140665987728 -0.00010087808333752632 0.0
0.0008663605585674446 -8.797120194183073e-5 0.0
0.0007255822855685707 6.452266823044919e-6 0.0
0.0008735758981054279 -7.071681624985139e-5 0.0
0.0007085826498285332 -0.00010646195394597366 0.0
0.0007075498045028103 -0.00011436811204555758 0.0
0.0007417723677019372 -0.00011943202983880164 0.0
0.0007064620106242856 -0.00012195875164675477 0.0
0.0007413264659138133 -5.2418454524934073e-5 0.0
0.0008851920501655574 -4.872532101199861e-5 0.0
0.0007102139551753645 -9.79921106975898e-5 0.0
0.0008766200274440516 1.945354407974421e-6 0.0
0.0007398719478641895 -0.00012668869592448613 0.0
0.0007052716617205177 -0.0001293414667424648 0.0
0.0006716224004735407 -0.00012390767246581267 0.0
0.0006706539890432009 -9.968639054823304e-5 0.0
0.0006699695033435128 -8.958285285612247e-5 0.0
0.0007748319339982174 -0.00012337964814918004 0.0
0.0007717223651547994 -0.0001304923270783761 0.0
0.0008053869186263687 -0.0001267555582297686 0.0
0.000871537553929494 6.933852265825365e-5 0.0
0.0008792800549784132 9.469394605743897e-5 0.0
0.000672145261178833 -0.00013147636449320341 0.0
0.0006374534396475075 -0.00012536933080456314 0.0
0.0006372631929211078 -0.00011772159521284974 0.0
0.0006009275291659269 -0.0001183285585396445 0.0
0.0010786281399877678 -0.0003676175087440065 0.0
0.0010583497426251516 -0.00035795679806221255 0.0
0.0018629948415543995 -0.00014148131840362106 0.0
0.0011543824758108317 -0.0002983414080170993 0.0
0.0011761618174487148 -0.00030636585473998117 0.0
0.0006812703705060719 -0.00023801112675226677 0.0
0.00070367732971665 -0.0002468158817506159 0.0
0.0016718394556035226 3.3603582122342534e-5 0.0
0.001175434631681626 -0.0001741807389963589 0.0
0.0007051543363308893 -0.0001364751142415143 0.0
0.0005358909588530436 -0.00024204932177095167 0.0
0.0005338730182918968 -0.00023153048311590413 0.0
0.0005511125637588966 -0.00023188409751591135 0.0
0.0013144656719816649 -0.00012844880195380612 0.0
0.0012392830791087199 -6.296290956638881e-5 0.0
0.0008099080958091214 -0.000206962870201956 0.0
0.0007853459661813103 -0.00021001292995084727 0.0
0.0011952207208885547 -2.369207559588674e-5 0.0
0.0011851923495264556 -3.2226344279893696e-5 0.0
0.001214474543103099 -2.7767825933647938e-5 0.0
0.001171802791004481 -4.106538586741016e-5 0.0
0.0012071434794882388 -1.371154596396806e-5 0.0
0.001224706592629707 -8.055608610152003e-5 0.0
0.0012188917435377174 -8.972346762345712e-5 0.0
0.0011791284172359168 -9.899821908098215e-5 0.0
0.0008717626999803178 -0.00016469208136022645 0.0
0.0008961687648831792 -0.00016851549385012355 0.0
0.0008999277162807469 -0.00016051268945719405 0.0
0.0009239775614985543 -0.00016381187044992336 0.0
0.0009278605652747276 -0.00015584506888315298 0.0
0.0009518931427563075 -0.00015879768825774034 0.0
0.00095610295820266 -0.0001507938309967171 0.0
0.0009812755179831128 -0.00015326871038259088 0.0
0.0009763484340322299 -0.00016194326516463735 0.0
0.0010067564803874706 -0.00015485372941634925 0.0
0.001123674695411191 -0.0001690735561221769 0.0
0.0010971328675414174 -0.00016566176713143723 0.0
0.00106715293004493 -0.00017287435833950396 0.0
0.0010714422705151037 -0.0001626737174736339 0.0
0.00022085962994579107 -7.645570878816369e-5 0.0
0.0002728003756144598 -0.0001506459467304234 0.0
0.0002507724842406898 -0.00013554552107202395 0.0
0.00024292121274043744 -0.00012374609161845064 0.0
0.00022809310760208288 -0.00011991358375971616 0.0
0.0010067755126531859 -0.00021140936728185849 0.0
0.0013727940406769218 -0.00013101434362335619 0.0
0.0013619284016147181 -0.00014669872049454468 0.0
0.0005696154262311294 0.0001272915511551853 0.0
0.001094332419080948 -9.795683424235755e-5 0.0
0.0010992667178487247 -9.107236031313404e-5 0.0
0.0012256062923275786 4.262286938564379e-6 0.0
0.001968863774816812 -2.8051270075666468e-5 0.0
0.0020013109283266235 -1.801973270322965e-5 0.0
0.0020230784964926202 -1.482577096330625e-5 0.0
7.61078742456597e-5 -2.5134179271099654e-5 0.0
7.951274787410517e-5 -2.7176257572003855e-5 0.0
0.0001115639465192255 -3.9265014799092464e-5 0.0
8.480729788416551e-5 -2.994264963440981e-5 0.0
0.0001148111825694331 -4.189617712637504e-5 0.0
8.852163849132759e-5 -3.2458202922781524e-5 0.0
5.555243971855877e-5 -1.962329349771388e-5 0.0
0.0009800676109646335 -0.0002173223630739853 0.0
0.0004930379607475003 -0.00014045820887313956 0.0
0.0003097802605622444 -0.00016820308521785192 0.0
0.0008013594559085784 -0.00013339474312750276 0.0
0.0018342102092142477 -0.0001674608522546121 0.0
0.0018131262395763726 -0.00017125157395320414 0.0
0.001546279577550405 -0.00016284401943687826 0.0
0.001575365000528635 -0.00016113419147150475 0.0
0.0015857418629908263 -0.00014041976086168255 0.0
9.052259948252391e-5 4.381204592270866e-6 0.0
0.000717508702502759 -0.00031871665773781666 0.0
0.0005083563854589817 -0.0002586301714839528 0.0
7.4190071135854e-5 -3.7481622271367575e-5 0.0
0.000100642405297663 -5.5583508171127614e-5 0.0
0.0004060382848062466 -0.00013004350009194698 0.0
0.00131265155911361 -1.3245829764299276e-5 0.0
0.0013499786564199986 -2.6434708022261803e-5 0.0
0.0014852373963041045 -0.00017939748360504905 0.0
0.0015530565713663216 -0.00018620530272051236 0.0
0.000678884092783391 -0.0003090963385846692 0.0
0.0007537057620592902 -0.0003266815169815341 0.0
0.0007716466426148915 -0.00032463101270755205 0.0
0.0016993000083382493 -0.00019650442794699895 0.0
0.0016846443466957898 -0.00022725718470886173 0.0
0.001654044178216142 -0.00025473077511659276 0.0
0.001875185964521288 -3.0677033726974614e-5 0.0
0.0018453329576324047 -3.3968663733906585e-5 0.0
0.001805807468240444 -4.455402176364609e-5 0.0
0.0018121555072809373 -3.663920287715922e-5 0.0
0.0003502311167055223 -0.00012083041590182258 0.0
0.0017514625626138373 -3.742467371890414e-5 0.0
0.001712139233597761 -3.7735141236990484e-5 0.0
0.0011804554205958446 -0.000290875596105463 0.0
0.00023457134350309672 -0.000130683382037237 0.0
0.00021457219626653452 -0.00011736063889347248 0.0
0.0002063683488588057 -0.00010606637375567192 0.0
0.0001929526779091185 -0.0001027394438391296 0.0
0.0020301888324144564 -1.1118017419675991e-5 0.0
0.0019788742444734496 -1.2174039119786773e-5 0.0
0.0020085954142777755 -7.607704450786409e-6 0.0
0.001596458089046767 -0.0002932715139759115 0.0
0.0008166061770378148 -0.00017191774731865195 0.0
0.001713223469503474 -0.0002048482682725574 0.0
0.0017001921497226556 -0.00023503929420590466 0.0
0.0017269577178462773 -0.00021309795135860654 0.0
0.0017160421521053642 -0.0002460016486792925 0.0
0.0017442529646432012 -0.00021862034899607026 0.0
0.0017555174271118013 -0.00018959223089763113 0.0
0.0017702981070262583 -0.00019686430165197683 0.0
0.0009340281717283587 -0.0003588305270448277 0.0
0.0009154517561399353 -0.0003650425683431679 0.0
0.000890743327650242 -0.000353909332509867 0.0
0.0006731342957282361 -0.0001390677788771995 0.0
6.445608494367448e-5 -2.366523352113948e-5 0.0
9.169339646218828e-5 -3.4971153303767156e-5 0.0
6.78034089847944e-5 -2.584315038001606e-5 0.0
0.0006647050737235951 -0.0003128403401387947 0.0
0.000643709843116517 -0.0003003872482233397 0.0
0.0019243531764644994 -0.00010993063472363757 0.0
0.0001545706210863224 1.7558194678538833e-5 0.0
0.0010423531781365968 -0.00017060926720879682 0.0
0.001047784549810233 -0.00016022383336131927 0.0
0.0018710875962772895 1.3403262978254589e-5 0.0
0.0019371026376370057 9.38042469987578e-6 0.0
0.0017174412419641524 -0.00013774656458769127 0.0
0.0003739353785562091 -0.0001907236792939933 0.0
0.0003816074122459016 -0.0002033080573346827 0.0
0.0014438513062567312 -0.00018895917911400454 0.0
0.0015701746282558245 -5.472618179888742e-5 0.0
0.0019760037007616692 -7.711367696897338e-5 0.0
0.002013532464621875 -4.852742411343886e-5 0.0
0.0020304205046455287 -2.9804810149113632e-5 0.0
0.0014992582854529905 -4.4109106457213834e-5 0.0
0.0016676856191708905 -0.0001307528904040633 0.0
0.000893042443941881 -0.00031608021244362546 0.0
0.0017330755978551575 -5.843914545437238e-5 0.0
0.0016091110289495995 -0.00015227431990277898 0.0
0.000620851664332347 -0.00022002010517821133 0.0
0.0003809747398043218 -0.00018153998507519723 0.0
0.0019088068035090153 -2.5656534413586412e-5 0.0
0.0015915569940966828 -3.6033734285023395e-6 0.0
0.0006448093771119058 -0.00031140979377452854 0.0
0.00031340279818711824 -0.00010887622205677946 0.0
0.001083681345114361 -0.0001070757501001805 0.0
0.0015648740802101948 -0.0002801810772469549 0.0
0.0015567888120427047 -0.00030656084104966106 0.0
5.084953551276065e-5 -2.3686016308694317e-5 0.0
0.001210151858918078 -0.0003599681725496416 0.0
0.0012043622710086646 -0.0003739653223804488 0.0
0.0007718853243616199 -0.00033941274257719985 0.0
0.0007907711895543185 -0.00033568644094673954 0.0
0.000789445525316581 -0.0003220593961011897 0.0
0.0008089481356481936 -0.0003324809968722783 0.0
0.0007916049236686539 -0.0003471200601759527 0.0
0.000711851423699391 -8.879010143216297e-5 0.0
0.0006701694990189593 -7.92713049942527e-5 0.0
0.00028605503623501093 -6.606565550600334e-5 0.0
0.0006817565170256885 0.00017513446805837737 0.0
0.0006629693527367796 0.00016024739239609476 0.0
0.0012785512237857772 2.4896397382549243e-5 0.0
0.001519402106551924 -0.00032493570814844244 0.0
0.0014966880105326894 -0.00034216389478452445 0.0
0.00019912360076271396 -0.00011401371245187699 0.0
0.00017783890156792878 -9.843459766582686e-5 0.0
0.002019636127406174 -7.577662130873113e-6 0.0
0.0003432879095353182 -0.00013208513051260777 0.0
0.00031206186646691984 -0.00011993147565515597 0.0
0.001904102846594848 1.8802677079793566e-5 0.0
0.0018953885782940615 -0.00011414930930626161 0.0
0.0018782853569712045 -0.0001460332625286958 0.0
0.001114603909570294 -0.00010671664885073428 0.0
0.00126186950280579 -0.00037297462935210514 0.0
0.001237604582025866 -0.0003831193717781897 0.0
0.0005744998718807061 -0.00016714400341127922 0.0
0.0005778935661390962 -0.00015987374588706833 0.0
0.000808720482269155 -0.00031908683674422594 0.0
0.0017228356120812661 -0.00016487223682521622 0.0
0.0009855634429252315 -0.00014500229320023748 0.0
0.0009627149206452502 -0.00014266486732916617 0.0
6.130205572883132e-5 -3.2535691315610246e-5 0.0
0.0006993507431977063 0.00026660735992573606 0.0
0.0009030235167247549 -0.00015251829364967587 0.0
0.0006309067243162334 -9.137352103583313e-5 0.0
0.0006339316809102198 -0.00010120052475005205 0.0
0.0003780379666737386 -7.331944272645808e-5 0.0
0.001258382801944586 -7.971203967011425e-5 0.0
0.000833148493521287 -0.00012950975267576027 0.0
0.0008381915284477962 -0.0001229736130369325 0.0
0.0008649104449005588 -0.00012541232420769125 0.0
0.0008693507819140679 -0.00011921309111829687 0.0
0.0008951352791231949 -0.00012067403838985837 0.0
0.0009000346966821358 -0.00011470657905679525 0.0
0.0008738041701095722 -0.0001133083627409602 0.0
0.0009049266342446724 -0.00010887431238240551 0.0
0.0008787510041824196 -0.00010772808985936959 0.0
0.0009104948877374961 -0.00010335441078810069 0.0
0.0009239090612223587 -0.00011592518426704522 0.0
7.294207194678923e-5 -9.065928949871943e-6 0.0
0.00120972928710764 -0.00010075839727363084 0.0
0.0008243925931623394 -0.00016433872451235548 0.0
0.0008710774423684134 3.548767408270127e-5 0.0
0.0009357946892114736 4.339745059503695e-6 0.0
0.0009318389312658154 -2.114854261152511e-5 0.0
0.0009259191208703601 4.295892776107824e-5 0.0
0.0008842506164515722 -2.3719555401527708e-5 0.0
0.0009358353660842718 -3.827863901282471e-5 0.0
0.0009873593687527464 -3.826030403982375e-5 0.0
0.000980559037335304 1.907954838307874e-5 0.0
0.00014150940868158145 -5.1401833299913045e-5 0.0
0.00014630956635002158 -5.5283023660186073e-5 0.0
0.0020214466974534133 8.680299584044666e-6 0.0
0.0019472355711942463 1.7216817377947274e-5 0.0
0.0019440604837913612 1.8337618417108115e-5 0.0
0.001458078051747237 -0.0003515466261596939 0.0
0.0014320651006615884 -0.0003643827104494341 0.0
0.0005303181953050989 -0.0002211509910703241 0.0
0.0005482676090457843 -0.00022134162755959658 0.0
0.0005120551257079915 -0.0002202583718929902 0.0
0.0005925793439286953 -9.42881663634785e-5 0.0
0.0009812676654316135 -2.054970159166025e-5 0.0
0.0009376585449877618 -0.0001038485693362899 0.0
0.0009414674051464651 -9.843121467255498e-5 0.0
0.0009158269910691882 -9.805065227349718e-5 0.0
0.0009458873315837806 -9.368029772604316e-5 0.0
0.0009225108618284109 -9.297959303808265e-5 0.0
0.0005479755419988073 -0.0002661591169292966 0.0
0.002017177955999423 1.0716789775871372e-5 0.0
0.0009370024033730981 7.436063419716226e-5 0.0
0.0012461088768471837 1.86707924215192e-5 0.0
0.00124469898755277 1.216964416986766e-5 0.0
0.0012101506210312192 2.643885381124709e-6 0.0
0.0006336646107145367 9.006548421838946e-5 0.0
0.0008623662562201913 0.00014227462872266674 0.0
0.0008039699658804311 0.00015212009113931512 0.0
0.0007817053757215987 0.00016504007146606373 0.0
0.001421252027684579 -8.677417455007914e-5 0.0
0.0016249540767391169 -0.0002730905033728546 0.0
0.0016116669581970715 -0.00030703700277376664 0.0
0.0005262761480694569 -0.00026988792794046005 0.0
0.0008281129346681728 -0.00032945689571909275 0.0
0.0008289743816394477 -0.000342794246767957 0.0
0.000847189871988504 -0.00033968998006658437 0.0
0.0008505875529400342 -0.00035493531152581417 0.0
0.0014447891553307829 3.4847286488283895e-5 0.0
0.0014085452756133832 3.308324881708331e-5 0.0
0.0014579174966629891 3.359944155788239e-5 0.0
0.0014978764667929175 3.539103193710898e-5 0.0
0.0010782875570610221 -0.00015293700307014642 0.0
0.001057579767036376 -0.00014989182094249395 0.0
0.0008673449991559397 -0.00034935630738103853 0.0
0.0006070692995783725 -0.00012714924971471975 0.0
4.1815710460221224e-5 -1.7758329646876678e-5 0.0
0.0008781025863689879 -5.958767364201702e-5 0.0
0.0009164322390111284 -6.758831064735058e-5 0.0
0.0009119159715194512 -7.558176180989084e-5 0.0
0.0009525472246854083 -7.18129210258985e-5 0.0
0.0009456921092658196 -7.764489255372856e-5 0.0
0.0009572693027638096 -6.531629566100186e-5 0.0
0.0009118349059937563 -8.157559794505328e-5 0.0
0.0009402822537377209 -8.279580147838039e-5 0.0
0.0009899692315888148 -6.771607317744556e-5 0.0
0.0013629742428901386 3.159473979379834e-5 0.0
0.0009093337180068976 -8.714816592575111e-5 0.0
0.0020479697534564133 1.887069314556289e-6 0.0
0.000768304807797927 -0.00013743268729864535 0.0
0.0009236149152641965 -0.0003006757373728287 0.0
0.0009471744469830506 -0.00029644339348048856 0.0
0.0009237563845311937 -5.8698555547772966e-5 0.0
0.0009679454050188713 -5.7708404781105875e-5 0.0
0.0011317663358113845 -0.00015837914615239316 0.0
0.0014290365499404947 -0.00031061109541203377 0.0
0.0014042334577223008 -0.00032815246326702734 0.0
0.0013990803729493997 -0.0003488319738686854 0.0
0.001382269938094219 -0.0003439068242469478 0.0
0.0013790463706901304 -0.0003621764835281686 0.0
0.001360787412953722 -0.0003582513997813482 0.0
0.0016866648710050715 2.282517282146033e-6 0.0
0.0016508042896062585 -7.217748349498392e-6 0.0
0.0016677830230251382 -1.5235925311910038e-5 0.0
0.0016149271499627232 -1.8653747849359455e-5 0.0
0.0016296128200770984 -2.7175901103607716e-5 0.0
0.001577025078126269 -3.1949771692702634e-5 0.0
0.001592093484978923 -4.0650967869911027e-5 0.0
0.0015618599642460817 -2.3206262367109823e-5 0.0
0.001525032442827587 -3.726333828509957e-5 0.0
0.0016423234314467908 -3.569378488789612e-5 0.0
0.0015096532074851995 -2.8832709029519448e-5 0.0
0.0016040744181221448 -4.948011743462576e-5 0.0
0.0015565054825951625 -5.4972292353288315e-5 0.0
0.0015659959290069705 -6.421049713196818e-5 0.0
0.0015463862568221107 -1.5341643606931114e-5 0.0
0.0016314359757916843 7.871598182905149e-7 0.0
0.001653748305523763 -4.4832613528247826e-5 0.0
0.0017244116440714276 -1.4034992565105126e-5 0.0
0.0016882800163973575 -3.186640974046925e-5 0.0
0.0011524505823282806 -3.7767463226515244e-5 0.0
0.0008271753962265114 0.00013906573809450127 0.0
0.00012258946653811797 -4.684951384217908e-5 0.0
0.00011673299029646299 -6.136493757566948e-5 0.0
0.00013999418975493147 -7.735485227229079e-5 0.0
0.0008659863482070422 -0.0003360216064371888 0.0
0.0011612053623708133 -0.00016248646285405848 0.0
0.00116497781103714 -5.180701015278418e-5 0.0
0.001125874070838067 -6.175705726915735e-5 0.0
0.0011375535316309614 -5.525372621025648e-5 0.0
0.0011213737576019117 -6.75224374894918e-5 0.0
0.0011498926340979768 -6.581964116158136e-5 0.0
0.0011136201899925385 -7.421692813135661e-5 0.0
0.001105707180213173 -8.088195622678977e-5 0.0
0.0010820580062895768 -8.12646102500064e-5 0.0
0.00015070911828335206 -7.451017733508744e-5 0.0
0.001299036855894582 -1.0709853166139645e-5 0.0
0.001557148564644359 2.595108807103418e-5 0.0
0.0014962037213170209 2.5973621781972735e-5 0.0
8.424371173596194e-5 8.651029138495115e-6 0.0
0.00018197468733415753 2.6640661857079382e-5 0.0
0.00016096606137788004 2.2635470547329324e-5 0.0
0.0013119549886394712 -3.239447464026185e-5 0.0
0.00019085238572903504 -9.078000725740873e-5 0.0
0.00021940776674733028 -0.00010824230804196108 0.0
0.00023610573279278196 -0.00011374985093862754 0.0
0.0002327498049249086 -0.00010572438973991691 0.0
0.00024970756733225734 -0.00010951468225898587 0.0
0.0008591778018029946 -9.47756810719104e-5 0.0
8.833460020148973e-5 -1.4347479549447425e-7 0.0
0.0004091693371959649 -0.00011861498772519081 0.0
0.00033923263474393576 -0.00010733504685412079 0.0
0.0009729981257896021 -4.871285957672093e-5 0.0
0.00031828234604499856 9.163636385156703e-5 0.0
0.0013764992191970847 -0.0003185370620402737 0.0
0.0012516121681316415 -2.5877493610046845e-5 0.0
0.0019421939986323138 -0.00010720959942965711 0.0
0.0015421642511215519 -4.582763117082274e-5 0.0
0.0014905247093654579 -5.171574690985696e-5 0.0
0.0014154041465924314 -0.0003560818473780511 0.0
0.0020525222996346563 3.953745475639041e-7 0.0
0.002006793826510122 -8.759352402275283e-7 0.0
0.0020158419190995985 -2.893336470948579e-6 0.0
0.0019992148955429237 1.670462832203962e-6 0.0
0.001964395205566188 -4.023081380192978e-6 0.0
0.0019934616633299927 4.293198919092046e-6 0.0
0.0019410002760781929 3.7386742650294374e-6 0.0
0.0019516273031021881 -2.855650438114112e-7 0.0
2.757531338456465e-5 -9.382235208608518e-6 0.0
0.002069337003221625 -3.0652034719165446e-6 0.0
0.0020365130878325006 -6.4711312478760745e-6 0.0
0.0020564686287016477 -3.181797029582314e-6 0.0
0.0020393359283041638 -6.998711456274736e-6 0.0
0.0012499872745487812 4.9031935277029914e-6 0.0
0.0014816416822654552 -0.00033217242044499755 0.0
2.244067333201845e-5 -8.349826755914691e-6 0.0
0.00207675730531591 -3.941639787872687e-6 0.0
0.0007055485229737789 5.771346321418171e-5 0.0
0.0016415286232210609 1.7380827652943294e-5 0.0
0.0005777188466024152 -4.273559715427363e-5 0.0
0.0006287561279864505 -3.9539763408105274e-5 0.0
0.0006279893989755534 -1.8026320846062155e-5 0.0
0.0006277114145980284 -5.644637013262629e-5 0.0
0.0006715337173630641 -5.517596772317667e-5 0.0
0.0006847260125088288 -3.9434848862267704e-5 0.0
0.0006816529578433295 -1.669535406502879e-5 0.0
0.0006305088292059123 4.4485733403915515e-6 0.0
0.0005858785436809062 2.9216892460874522e-5 0.0
0.0005835752320427496 -6.299936441695073e-5 0.0
0.0016759705599839023 -0.00025661535951701487 0.0
0.002047009222792965 4.536505796529672e-6 0.0
0.0008097990392723445 -0.0003060037301330559 0.0
0.0002976073514045977 -0.00016804006834371485 0.0
0.0008874886438912779 -0.0003031635873091571 0.0
0.0006964396085622309 -0.00030772543286865266 0.0
0.0006982695984983843 -0.0003200903121514289 0.0
0.0009729563580936556 -9.331402760840082e-5 0.0
0.0013056425802400473 -5.3533731739090284e-5 0.0
0.0017792360721550064 2.6969069371322975e-5 0.0
0.001802863977071333 2.8982691090156396e-5 0.0
0.0017412269554454552 3.194207606096246e-5 0.0
0.00014072477357508355 -4.922716935997665e-5 0.0
0.00027997787156788204 -0.00016245157489899444 0.0
0.0007951825037254511 0.0002071756951368988 0.0
0.0007205227566027829 0.0002014492633485509 0.0
0.0015651933319296542 -6.390918288698754e-5 0.0
0.0008296703162461625 0.00011459222448053409 0.0
0.0018380777829817248 -0.00011166708870424686 0.0
0.0008797913187724057 -0.00025919954392442985 0.0
0.0014991934757347042 -9.50043240893593e-5 0.0
0.0015239032028390997 -6.702262918331043e-5 0.0
0.0006468520687887958 4.205245823043276e-5 0.0
0.000512373002554784 -0.00027035470671989896 0.0
0.001818961409544614 -0.0001435531211761117 0.0
0.0003243659310434703 -0.00017079592612570397 0.0
0.0003424977276839006 -0.00018290101582143494 0.0
0.0003338360352995006 -0.0001850259539973991 0.0
0.0004849490204702106 -0.0001255062482055681 0.0
0.0011299784837184143 -8.211569888084562e-5 0.0
0.001273318813424022 -4.523274113058013e-5 0.0
0.0007782751677776001 -0.00011611054650492905 0.0
0.0008094464089396488 -0.00011993495679915433 0.0
0.0020072093043768196 9.13132662742744e-6 0.0
0.0019086847067405644 1.0371559439895247e-5 0.0
0.0001077526109687952 1.2246516409319555e-5 0.0
2.775703375473528e-5 -9.725147323269206e-6 0.0
0.0009301860903976974 -0.00010981769601891725 0.0
3.192489829552209e-5 -8.941250824077336e-6 0.0
7.581199491087475e-5 -2.024685425322284e-5 0.0
0.0008773256887156402 -0.00029230033425153737 0.0
0.0013840269489831568 -7.797313764504954e-5 0.0
0.000888624244127937 0.00012770497779480844 0.0
0.0012205164080716464 -0.00015447584791746508 0.0
0.0009560481802901032 -8.838712533912229e-5 0.0
0.0016248194410784578 -0.00011880729186089575 0.0
0.0019162443093635193 -8.509017798843833e-5 0.0
0.0005993345139726778 -0.00022022575231339092 0.0
0.0006017971816234329 -0.00023066755768846864 0.0
0.0005791101214204583 -0.00021920627468205586 0.0
0.0005556533338635144 -0.00020792769672386234 0.0
2.3074884496006845e-5 -8.90333840097507e-6 0.0
4.224870928380296e-5 -1.702113876102032e-5 0.0
4.7179969150215195e-5 -1.8255971814593818e-5 0.0
0.0005215221114213493 -0.00016437163916276654 0.0
0.0004951600630714167 -0.00016299117680435842 0.0
0.00207164248222954 -3.2585677756249868e-6 0.0
0.0010580510946821932 -0.00037421101943044613 0.0
0.0010379359688663032 -0.00036419741143885523 0.0
0.001037618972609333 -0.0003801954415051075 0.0
0.001017711067955551 -0.00037011641946937593 0.0
0.0009970521279078987 -0.00037535954743962154 0.0
0.0009955431318366484 -0.00035966106133390567 0.0
0.0010377641704175644 -0.00034843986431014426 0.0
0.0014758455366064883 -6.998333159429603e-5 0.0
0.00023955170887275461 -5.22019415600438e-5 0.0
0.0002832280818248736 -7.358219024979032e-5 0.0
0.00024777881599314896 -6.891798730364981e-5 0.0
0.0012556704299784976 -0.00014526937308338987 0.0
0.0005334530291447744 0.00014253601876973568 0.0
0.000999220781302825 -0.00016468978234881584 0.0
3.508963009989635e-5 -1.1164618322227536e-5 0.0
0.0006268408085405126 -0.00029981862620745734 0.0
0.0006085708985394 -0.00029738185122220095 0.0
0.0006113308556488156 -0.0002884079613072816 0.0
0.0006940420178027368 -0.00029519689782448697 0.0
0.000599549859737308 -0.00020908897533057543 0.0
0.00028120471229354024 -0.00010094498284747443 0.0
0.00017290024298091786 -6.775733485122415e-5 0.0
0.0020591978291917648 -1.6034397456474502e-6 0.0
0.002025229469230661 -4.031541194541984e-6 0.0
0.00041388187936698234 -0.00021716595209439232 0.0
0.00048803514453646466 -0.0002458917631976911 0.0
0.0004721412402496445 -0.00024509895082200323 0.0
0.00045101933552000434 -0.0002319583715631355 0.0
0.0004552396028431969 -0.00024327989508402618 0.0
0.0013054049326469048 -4.7488538527954194e-5 0.0
0.000947322536854738 9.664397798157409e-5 0.0
0.0012838593922552583 -0.00036436985054610064 0.0
0.0013020181625380397 -0.00037350074054725733 0.0
0.001322703986681265 -0.0003640327851190164 0.0
0.0012786034401361713 -0.00038423686705193506 0.0
0.0006440197910345467 -0.0002217116383202217 0.0
0.001113591694368225 -0.0002833593698276998 0.0
0.0008674328869532766 0.00012424015033079652 0.0
0.0008686635223692321 -8.056105446255028e-5 0.0
0.0020780751930438244 -4.746108127098473e-6 0.0
0.0020568856564119674 -1.1643842176092973e-5 0.0
0.0020478321330446646 -1.0734962324310158e-5 0.0
0.0004348569076553736 -0.00023040396983488952 0.0
0.00041928302242590055 -0.0002284082035717016 0.0
0.0006219431786029275 -7.81529185074645e-5 0.0
0.0005352400529444886 -0.00020821020490478247 0.0
0.0019115110438217876 -4.585085809251581e-5 0.0
0.0016206834330030177 -3.2395362582610214e-5 0.0
0.0009167606853014475 -0.0001222553077981813 0.0
0.0009452212038822978 -0.00011686386962410216 0.0
0.0012796319238724998 1.232884832109754e-6 0.0
0.0014652166382158154 -0.0002699662374364816 0.0
0.0008564322257316667 -0.00026282935689418967 0.0
0.000857291858942386 -0.0002748010016350823 0.0
0.00022123238828500986 3.241917957841129e-5 0.0
0.0004945371193896799 -0.00020586176523858818 0.0
0.0004739576527906589 -0.00020285855135787563 0.0
0.00045052325567342377 -0.00019055006810040037 0.0
0.00045415031281803326 -0.00020073174563837285 0.0
0.0003781452141745287 -6.105092495648939e-5 0.0
0.0003781941543431429 -4.658474441630021e-5 0.0
0.00042717065602598884 -8.798883952539961e-5 0.0
0.0012979401908374264 -0.00039155747515944695 0.0
0.0012449531430978535 -0.00028975208976549674 0.0
0.0012167977027015397 -0.000299778235383943 0.0
0.0012435585212968053 -0.00031104331298319654 0.0
0.0012159500006764484 -0.00032056253158507526 0.0
0.0012347512151721994 -0.0003290015765116141 0.0
0.0012694823386840937 -0.00029759041160376347 0.0
0.0012924994210751892 -0.0003039943066506963 0.0
1.9520361502603114e-5 -8.18232682429845e-6 0.0
0.0020817664690936724 -6.779208675061474e-6 0.0
0.0016400846931861938 -0.00024189951498001478 0.0
0.0011650854832660608 -0.00037258342408536693 0.0
0.0019213432713748237 1.4326936472130497e-5 0.0
0.0011230796188458263 -0.0003541651666879782 0.0
0.0011205601247474203 -0.0003702681299547741 0.0
0.0015086051192536695 -0.00015654067601665855 0.0
0.001350082076224879 -0.00011636971458876613 0.0
0.00132218489987368 -0.00011490985959997405 0.0
0.0006346485888888534 -0.0002755087836578767 0.0
0.00038896150218027876 -0.00017244422215663066 0.0
0.0015165705539293185 -7.128092035410679e-5 0.0
0.001571532451713772 -0.00025325710665247066 0.0
0.0006957091800902099 -0.0001884009856410034 0.0
0.0007204939515157047 -0.00018670080980938845 0.0
0.0007184330069373776 -0.00019558527959189282 0.0
0.0007234293771860601 -0.00017826184053823185 0.0
0.0006940116904743414 -0.00019730581875053883 0.0
0.0007446053139820691 -0.00018563330855541756 0.0
0.0007491211449844775 -0.00017765068202856422 0.0
0.00075741876736462 -0.00016890203738764118 0.0
0.0015352484557336584 3.357766089468157e-6 0.0
0.00019480038965808 2.892584982133805e-5 0.0
0.0014736751288815673 -4.3521002741247746e-5 0.0
0.001590994040905105 -0.0001231441879956974 0.0
0.0003967085820715242 9.659267641141851e-5 0.0
0.0002836730094828916 -3.094008541363146e-5 0.0
0.00042616006831300773 -6.221427377306597e-5 0.0
0.00034522714019099134 -0.0001556046059153121 0.0
0.0006980172370042189 -0.00017167362763451956 0.0
0.0005504813283369861 -0.0001511911229579154 0.0
0.0005870139521876603 -0.00015298446688809513 0.0
0.000608780913185116 -0.00016181631091169863 0.0
0.0009531557117078805 -0.00035450159298925206 0.0
0.0009752128177162517 -0.00036468859372296055 0.0
0.0009754266820855746 -0.00038176986308713237 0.0
0.0009952581980812712 -0.0003445299540561108 0.0
0.0015416601083256562 -0.0002703051561509129 0.0
0.00073751244221303 -0.00013370051218056727 0.0
0.0014657763873088191 -0.00013376139094078992 0.0
0.0006917183014359513 -0.00028290129088715216 0.0
0.0010376860160615981 -0.000333134912980318 0.0
0.0007339122350664688 -0.0003298523699188619 0.0
0.0018982511950468622 7.781953585780889e-6 0.0
0.0009723941672185243 -0.00017093038455553384 0.0
0.00025122702083698174 -8.853588543072579e-5 0.0
0.0007419815275827731 -0.0002429700701876155 0.0
0.0007647308138840553 -0.00025183335778018577 0.0
0.0006952904588896429 -0.00022556373611703267 0.0
0.0007509636607996096 -0.000301412724328937 0.0
0.0011598297613498968 -0.00021480377482057623 0.0
0.0011296712302007483 -0.0002236827073336206 0.0
0.0011549051976519804 -0.0002292863843053714 0.0
0.0014585388456914955 -3.54943850222052e-5 0.0
0.0008799002042204579 -0.000247631752637177 0.0
0.0006474345886464423 -0.00020832855966935811 0.0
0.0011503206185326355 -9.838163552865987e-5 0.0
0.0011406712672945949 -0.00010789187690845817 0.0
0.00027635876874702913 -0.00012320668980548424 0.0
0.0005441728936154327 -0.00025510455408796895 0.0
0.001327801470095669 -0.0003435479721597268 0.0
0.0011717851392591566 -4.562879764254871e-5 0.0
0.001020456832442054 -0.000267636069980878 0.0
0.000995751343034825 -0.00027342539112152264 0.0
0.0009947483910510992 -0.0002872762715900487 0.0
0.0009713755266039414 -0.0002786393625557373 0.0
0.0009711083810987728 -0.0002923867652624461 0.0
0.0010176532942853447 -0.0002955553841112144 0.0
0.0012631347243963363 -1.4093808355780107e-5 0.0
0.0008100729844818622 -0.00021650654323559644 0.0
0.0007868580848780453 -0.0002194061662815799 0.0
0.0011089382976572108 -0.00020511592926591578 0.0
0.0006717894835523473 -0.00022619864794205677 0.0
0.001099100653209519 -0.0003768892415281657 0.0
0.0008328053038934505 -0.00025469504367364607 0.0
0.000972592627900479 -0.0002655217651754219 0.0
0.001394065165987927 -0.00036871797627353886 0.0
0.0008931616240309154 -0.0001771555252812289 0.0
0.0019522428048642181 -1.8100818448181105e-5 0.0
0.0009778213394004338 -0.00022877929886945433 0.0
0.0004636145953387517 -0.0001660182958600979 0.0
0.0009981837795756828 6.218441567745463e-5 0.0
0.001387367008046376 -0.0002964470464230367 0.0
0.001865084948885777 2.461066010023231e-5 0.0
0.0002915735516711289 5.321394271732749e-7 0.0
0.0003031595040255437 1.618878861341167e-5 0.0
0.0003404358603860043 -1.1224686957129313e-5 0.0
0.0003602951907326027 7.292724739731625e-6 0.0
0.0003984685660592311 -8.965810593193303e-6 0.0
0.001439806519041028 -5.8316092243345316e-5 0.0
0.0008111258529877442 -0.0003475152984657817 0.0
0.000920386158267022 -0.00017253695322822638 0.0
6.380444638218084e-5 -1.882461637331588e-5 0.0
0.000817541105167415 0.00017221898866242723 0.0
0.0007530485402774779 0.00017624833806670012 0.0
0.0013789289834656607 2.8805806456718923e-5 0.0
0.0007892833458194169 -0.0002962044212347677 0.0
0.0008948085885278213 -0.00034074059520191165 0.0
0.0007998381002177967 -0.0001406443974369535 0.0
0.001083897898494918 -0.0002005258327284505 0.0
0.0010569256858493454 -0.00019546219973782302 0.0
0.0010635849223245206 -0.00018318125238479623 0.0
0.0012129108032242469 -4.893535865514421e-6 0.0
0.0007447435992624554 -0.00025414052228128276 0.0
0.0005217975211292923 -0.00014229770160394196 0.0
0.0007624606808214983 -0.00020202553560285286 0.0
0.00011887758666589683 -4.7208871472739864e-5 0.0
0.0010625305975838668 -0.00010480876951111884 0.0
0.0004456830783365334 -0.00022037612219308914 0.0
0.0010338920948744215 -0.0002047514349554514 0.0
0.0006392292772930847 -0.00028783343221759015 0.0
0.001411553319120865 -0.00011652784892892023 0.0
0.0009351022906832856 -0.00020622587550037436 0.0
0.0009476044496929733 -0.0002833427912783363 0.0
0.0017859146503101519 -9.124636042082962e-5 0.0
0.00040009854587455784 -0.00021545812247016877 0.0
0.0019621570921778265 -0.00010497144706916432 0.0
0.0007894706306744425 -0.00017173762557513058 0.0
0.0009301502307443085 -0.00022776335781778681 0.0
0.00018877264461315656 -6.410462946097821e-5 0.0
0.0017988827256601163 -5.303960416949602e-5 0.0
0.0010851117873005795 -0.00030531288372194357 0.0
6.561856113219913e-5 -2.0536347302502862e-5 0.0
0.0010151338875947248 -0.00013850972390558178 0.0
0.0010112548539074435 -0.0001461224611133606 0.0
0.0019410704177902304 -8.429113191969217e-6 0.0
0.0010795456859948728 -0.0003837560692584854 0.0
0.00037026711603304284 -0.0001693004961805759 0.0
0.0020098245412070144 -2.27505985272367e-5 0.0
0.001037827068856189 -0.00017981129867035875 0.0
0.0009611934142128633 -0.0002012093202128423 0.0
0.0011962014257845541 -0.0002748947386101621 0.0
0.0011700699954030147 -0.0002673379073037167 0.0
0.0010918542287204481 -0.0002755539774939676 0.0
0.0009170798257645497 -0.00018172969943836838 0.0
0.001127549460553527 -0.0003963866028332218 0.0
0.0012212853972019605 -0.00039927974282349894 0.0
0.0008639326058547769 -0.00037026155030866884 0.0
0.0009281007169157237 -0.000380118252306481 0.0
0.0013464563317739757 -0.0003929465790587968 0.0
0.001339677864393327 -0.00037462024363658274 0.0
0.0007013195433275199 -0.0003320216638723571 0.0
0.0005660893841930489 -0.0002913407647973632 0.0
0.0011742471861537402 -0.0003982931945888775 0.0
0.0007433871328557703 -0.0003446972305565347 0.0
0.0008393768156237949 -0.0001569049823407125 0.0
0.0017634735064943707 -2.7223005158422958e-5 0.0
0.0014040954187154214 -0.00020639297708332298 0.0
0.001392270227587301 -0.00022700514181568315 0.0
0.0007174125707180476 -0.00020531864554785434 0.0
0.0012024838663356853 -0.0001779465131158179 0.0
0.0009506140318883846 -0.0003096384565124188 0.0
0.0005158226219575534 -0.00023668219902555146 0.0
0.0003920297531112669 -0.00014824024466226194 0.0
0.0008357750249073733 -0.00020346341707669667 0.0
0.0018029851397142688 1.7400810324143587e-5 0.0
0.0007331754176960253 -3.453654094415634e-5 0.0
0.0009481316421562576 -0.00016743374143364195 0.0
0.0011050206455019487 -0.0002189986264743531 0.0
0.00015651110457704507 -8.387341870927999e-5 0.0
0.00016259796934413767 -9.419321669171324e-5 0.0
0.0008324160022858347 -0.0002780078809840551 0.0
0.0007066086372263361 -0.0002582923854199294 0.0
0.001001732824845049 -0.0002348970229014473 0.0
0.0019300187298089287 1.8670557179776962e-5 0.0
0.0010587812149845165 -0.0003421632851231751 0.0
0.002050214365732158 -2.441252242783619e-5 0.0
0.002028611991128604 -4.6584473295905716e-5 0.0
0.0005696820984022978 -0.00011970276684095388 0.0
0.0008587898286989385 -0.00021929035925660547 0.0
0.0009029671179874195 -0.0002550844854478614 0.0
0.0019847764804716895 8.865046732172718e-6 0.0
0.0010343747313324506 -3.443463854264858e-5 0.0
0.0013185683023592756 -0.00029393801271512923 0.0
0.0013612065975385998 -0.00024115317404452602 0.0
0.000555875042601687 -0.0002787282084853581 0.0
0.0012433618748181926 -0.000215017624392389 0.0
0.000861397180656067 -0.00019968796307883797 0.0
0.001309499001473564 -0.00019141820145920262 0.0
0.0013010499853282325 -0.00020843647564123296 0.0
0.0013436901594204179 -0.00017856489665579633 0.0
0.0004743794457593344 -0.00025633502434789756 0.0
0.001606163989643644 9.380741879319512e-6 0.0
0.0011408480424203065 -0.0003814273133167841 0.0
0.001635478275775555 -0.00028589456721310523 0.0
0.001497808511297586 -0.000134885150047518 0.0
0.0009694009409005115 -0.00013491068401023378 0.0
0.0012170801610067842 -0.00034106992268817657 0.0
0.0007665854387532621 -0.0002630626355432021 0.0
0.0008088668218182492 -0.0001793662060943973 0.0
0.001915894826708724 -4.0431779086376324e-6 0.0
0.00044278653119764053 -0.00012921193219900753 0.0
0.0014516729773548479 -6.672663176886812e-5 0.0
0.0009753520264323144 -0.0001037579355031306 0.0
0.0012292675731271066 -0.00018076499417244693 0.0
0.001829004454457229 -2.7074676083295547e-5 0.0
0.0001702777469625047 -6.130860611141696e-5 0.0
0.0014348234385628826 -0.00023696042014150506 0.0
0.0011431695471309437 -4.4647025602561136e-5 0.0
0.0011276973178000538 -5.1934967857354816e-5 0.0
0.0011718578977557026 -0.0003226663100099012 0.0
0.0010746998173125155 -0.00024058528162401727 0.0
0.0011059534266004173 -0.0003134897973173181 0.0
0.001456206225139271 -0.00029336607050079144 0.0
0.001500335399628807 -6.6582019143191264e-6 0.0
0.0010360237368743977 -4.307761717866799e-5 0.0
0.0013756986390069184 6.914696052051715e-6 0.0
0.0017383869657528867 -0.00013674340582317727 0.0
0.0017514306129291337 -0.00011453272049096445 0.0
0.000994717362367985 -8.152451946194437e-5 0.0
0.0006468783156053644 -0.00025086959765009784 0.0
0.0013894277239989681 -5.3623929070628087e-5 0.0
0.0010255720431913227 -5.651361973542721e-5 0.0
0.001236228527020462 -0.0002312457100674109 0.0
0.0020119488277131644 -3.3456343568205e-5 0.0
0.0003549276114371841 -0.00017627064356785988 0.0
0.0012169691765163445 -0.00010881703085397011 0.0
0.00101193800241545 -6.931765400818389e-5 0.0
0.000998672062002809 -7.781576083922535e-5 0.0
0.0003405967737515269 -3.075624080820973e-5 0.0
0.0018167957100075282 9.831524728301935e-6 0.0
0.00104458716139106 -9.839281594864204e-5 0.0
0.0018111024482844404 -8.881210894172789e-5 0.0
0.0006246823795314375 -0.00024068696398786186 0.0
0.0015115733804201377 -0.00035423060969820027 0.0
0.0015529110958653629 -0.0003461282132025444 0.0
0.0005717263986511406 -0.00024268251358185717 0.0
0.0012842317963120502 -0.00024296307270496326 0.0
0.0008430588412918487 -0.00036669429678688205 0.0
0.00126521436343089 -6.477830402734347e-5 0.0
0.0003863378009813009 -0.00021953722318849902 0.0
0.0010835513862175264 -6.490098951546599e-5 0.0
0.0010834656352547265 -0.00011468769096241116 0.0
0.0010934777069646824 -6.966239181252397e-5 0.0
0.001126107784523203 -0.00023831879597534738 0.0
0.001383308835127798 -0.0002472798940672508 0.0
5.802837004920952e-5 -3.535450150058736e-5 0.0
9.947149783882191e-5 -6.172832522536066e-5 0.0
0.00011870459407721149 -7.375328720102948e-5 0.0
0.001881472821555555 -0.00016811532816192736 0.0
0.00015789575937885962 -9.832970578863531e-5 0.0
0.0005838595227368835 -0.00023045143357024436 0.0
0.00025488368848196433 2.114591229934012e-5 0.0
0.0016552466376649811 -0.0003050687020229666 0.0
0.0003326721137734084 -0.00019337818167811804 0.0
0.0003691071757094945 -0.00021143672319734108 0.0
0.0018569719184419189 -0.00018412811487933685 0.0
0.0018094288951406696 -0.0002184648203587362 0.0
0.0010646627300095626 -0.00014079156670392757 0.0
0.0007702344576023851 -0.00031198436547423737 0.0
0.0014915625909284497 -1.990221393520132e-5 0.0
0.0016980693393872197 -0.00028160100640953965 0.0
0.001719622923722413 -0.0002709601815135968 0.0
0.0002972929199495064 -0.00017648070674151394 0.0
0.00021271228267529736 -0.0001295265098721468 0.0
0.0017647662500874415 -0.0002452145084311017 0.0
0.0017849950910325814 -0.0002052549852657572 0.0
0.0011859277490196677 -0.00038329563837253807 0.0
0.00024918536614479734 -0.00015043172994203138 0.0
0.0014453353934452719 -0.0003772958948646408 0.0
0.00039678974135868254 -0.00018368086608942932 0.0
0.0016522160753356951 -0.00017958558616548758 0.0
0.0005866831823967459 -0.00028886176462107236 0.0
0.0015277995059823095 -0.00026223624664952286 0.0
0.001598291849173657 -1.0482026562681702e-5 0.0
0.0005728043351214776 -0.0001820448359003383 0.0
0.0003978133287466733 -0.00015697343314173383 0.0
0.0007276242908027599 -0.00026780647820458264 0.0
0.0009530448618417299 -0.00023421115057613103 0.0
0.001686933618787665 -7.226154766395506e-5 0.0
0.0010166276285094554 -0.0003541787711729009 0.0
0.0010688013541617697 -9.815629602663131e-5 0.0
0.0010998904477011883 -5.555818524308092e-5 0.0
0.00132640613671059 -0.00015940452450687536 0.0
0.0015381161386602545 -0.00020900345228404992 0.0
0.0005745501258703849 8.616026088578145e-7 0.0
0.0013102377385184323 2.8341785535599972e-5 0.0
0.000620551260411773 -0.00018265125667870578 0.0
0.0016845375173080827 -0.0001328593162544098 0.0
0.0004046235118507893 5.207657272054316e-5 0.0
0.00033682364219847754 3.3631150346141885e-5 0.0
0.000888721448436341 -9.702877075229641e-5 0.0
0.0017838946822201353 -3.734325811043832e-5 0.0
0.001039233350969913 -6.989778700680486e-6 0.0
0.0010300218635915575 -0.00011642828480786088 0.0
0.0018922213609732922 -3.315426085807737e-5 0.0
0.0005282429970640232 -0.00018005067166839518 0.0
0.0006492541069186336 -0.00014339114092800886 0.0
0.001433720003131271 -0.00015119320956833918 0.0
0.0015864872051657834 -0.00019256549025579157 0.0
0.0004637639201220064 -0.00017441789207004566 0.0
0.00028704628034671357 -0.00013434417835913145 0.0
0.0015192650694283453 -0.0002053791113983866 0.0
0.0006725244804460231 -0.0001164353540463598 0.0
0.0015260678452532874 -8.803032498374648e-5 0.0
0.002058339568863336 -1.4389625301031181e-5 0.0
0.0016794986004830812 -2.3466210957435838e-5 0.0
0.001139779670065241 -3.321166104010802e-5 0.0
0.0011669574780179182 -2.8676440464002048e-5 0.0
0.0012340044369607897 -0.0001316687228820077 0.0
0.0018539148801296056 1.7627596689644445e-6 0.0
0.0018185880826876366 1.20726618913239e-5 0.0
9.629355247035158e-5 -4.0220871980438726e-5 0.0
7.313922077887999e-5 -2.925849315365165e-5 0.0
0.0007894057135581127 -0.00030895191038682855 0.0
0.001267933283469917 -0.00022018564057267603 0.0
0.0007340406051449624 -0.0001475340872389066 0.0
0.0007361253646054232 -0.0001406784387832381 0.0
0.0007488144511886417 -9.649387309298208e-5 0.0
0.0009947230661883678 -0.0003013477455399031 0.0
0.0011832651968620763 -0.00011930388261357296 0.0
0.0003285516163715811 -7.89513744412602e-5 0.0
0.0014053846936904397 -7.339836031929855e-5 0.0
0.0011665289473498648 -1.505094431305532e-5 0.0
0.0008346644032543076 -0.00021307669388939983 0.0
3.293754740897098e-5 -6.605166929808377e-6 0.0
0.0009551196729968793 -0.0002227594156286453 0.0
0.0018778752944270003 -4.155900798275494e-5 0.0
0.0015867731146884908 -8.838486536186848e-5 0.0
0.0015080556385313664 -6.033726350909619e-5 0.0
0.0017898345464441839 -6.327210701570874e-5 0.0
0.0012899555265474664 -8.733612151818974e-5 0.0
0.0007481902396505296 -6.726611629830977e-5 0.0
0.00024698905530407163 -8.310762797199007e-5 0.0
0.0008799314025397326 -0.00013274256320360846 0.0
0.0010875472518565787 -0.0001432207354451863 0.0
0.0003085160899973699 -0.00012440129803648541 0.0
0.0009068191486352515 -0.0003771853943953464 0.0
0.001247492151257129 -9.036059845335e-5 0.0
0.0006061815186433334 -0.00024132825886653505 0.0
0.0014331311362471273 -6.468668088336123e-5 0.0
0.001714545483659039 -7.106400456586931e-5 0.0
0.0006715931801618706 -0.00010828326421253772 0.0
0.0015051880141098268 1.6928676122268248e-5 0.0
0.0011320456970308195 -0.00011731556265337793 0.0
0.0009575854947673369 -0.00021172165441073876 0.0
0.0003694698989572433 -9.140036810697317e-5 0.0
0.0006754643448666398 -0.00015081950832042412 0.0
0.0009724312266898285 4.938135002440136e-5 0.0
0.00026901702311656566 3.419936626230924e-5 0.0
0.0014866697160965925 -0.0001538524228690772 0.0
0.0004083660489673699 -0.00013670108011568587 0.0
0.000983769500878765 -0.00020648066265334424 0.0
0.001691842571911588 3.030568465120492e-5 0.0
0.0014070441828331773 -0.0001495007164085354 0.0
0.0007191002852117869 3.180847452569056e-5 0.0
0.00012919338188115956 -3.8345039365332635e-5 0.0
0.0005218447135599264 -0.00013497259956602605 0.0
4.17780891860455e-5 1.933328279460336e-7 0.0
8.842498823096816e-5 -5.615328985364765e-6 0.0
0.0014022153533639514 -0.00013456124422348123 0.0
0.0012064328899872429 -3.471212708494869e-5 0.0
0.0006607672211321073 -0.00032306195549074493 0.0
0.00047514254105893785 -0.00021349841022299761 0.0
0.0016756445722009021 -4.917218237464918e-5 0.0
0.0002557508867840377 -0.00014674998640188463 0.0
0.0013508936020156647 -0.00016273532063873562 0.0
0.0011087003533092191 -0.0002984512401517176 0.0
0.0016602981899206716 3.379611930285248e-5 0.0
0.0005970226263955862 -0.000276234081855796 0.0
0.001784028489230274 -0.0001666632503869071 0.0
0.0010345176772265494 -0.00011033429280585257 0.0
0.0003553566869592861 -0.000196372854687073 0.0
0.0013620915497913747 -0.0003760955917459969 0.0
0.0003521961461971665 -0.00014126874586916765 0.0
0.0019319396314859039 -4.367025047490397e-5 0.0
0.0002580514882898478 -9.970077306449909e-5 0.0
0.0014274549407481752 6.401464772817283e-6 0.0
0.0012957987812679417 -7.677375872067828e-5 0.0
0.0011129375196735653 -4.654091197934661e-5 0.0
4.4610586081663034e-5 2.0204727617647557e-6 0.0
0.0008968987506388472 0.00010851296637514167 0.0
0.0005635374624263174 -0.00011022485062239753 0.0
0.0015703021439292316 -0.00031482163560893946 0.0
0.0015925754142275326 -0.00033531411490950945 0.0
0.00014741768690490384 -1.8830668619185792e-5 0.0
0.0011657506271599547 -0.0001088424137884542 0.0
0.0004932855302800134 -0.00021557619245284062 0.0
0.0008109561759621579 -0.00022627369540024355 0.0
6.183836481443544e-5 -2.6226997321416606e-5 0.0
0.0001148431163670002 -2.7923057526839263e-5 0.0
0.0011054001357010813 -0.00015539388865287734 0.0
0.0010103231673934468 -0.00020038421320778312 0.0
7.331618214765975e-5 -1.6532003665175043e-5 0.0
0.0002121457047465465 -7.004740128561685e-5 0.0
0.00017635693916305228 -0.00010898974378251013 0.0
0.0016678340655923278 -0.00015504187459921583 0.0
0.0012918298676782539 -0.00022551510899149717 0.0
0.0002618557715799832 -0.00012062328826759697 0.0
0.0015764443198474133 -3.857100354794755e-6 0.0
0.0014499624941168828 -1.7422360590967218e-5 0.0
0.00012657938981359775 -7.293644317997999e-5 0.0
0.000852978790740841 -0.00011149629113259152 0.0
1.6710648166510184e-5 -8.174211542846562e-6 0.0
0.0020811495441066825 -1.2427676852282745e-5 0.0
0.002008363542473643 -1.0886763639182312e-5 0.0
0.0006052164581278161 -0.00030548484502018416 0.0
0.0015792330063835874 2.0012563312547796e-5 0.0
0.00129505734802387 -0.0002857225241774665 0.0
0.00028282985645921026 -0.00010640420082328402 0.0
0.0012432179104657803 -0.0003991239187239196 0.0
0.00029717866955394185 -8.264581263234628e-5 0.0
0.0017748847019333903 -4.664522696519108e-5 0.0
0.0007867452019867 -0.00022883315405765008 0.0
9.050788134781578e-5 -3.5957897253535937e-5 0.0
0.000978486407238082 -7.388364130050547e-5 0.0
0.0009720481629520869 -7.852113270699446e-5 0.0
0.0018766785663179048 2.4100734419786182e-5 0.0
0.0011017871880379948 -0.00023253359761286495 0.0
0.00013699935241583502 -2.855346213125938e-6 0.0
0.001758027108156158 -0.00022695625019308457 0.0
0.0018933553498360549 -2.329226266507659e-5 0.0
0.0014417846667213467 2.412012987883801e-5 0.0
0.0014776019184167923 1.807788393515584e-5 0.0
0.0008486660631184758 -0.0003260015115312454 0.0
0.0020182277576213823 -6.776105856902528e-5 0.0
0.0008833594972876891 -0.00010246309736086695 0.0
0.00024073787894708884 3.764406542819667e-5 0.0
0.0002582355058694671 -0.00012862812611430765 0.0
0.0006411736374328326 6.834994842459403e-5 0.0
0.0017683932333457193 -0.0001621877574740671 0.0
9.97691605878888e-5 8.476075389359784e-6 0.0
0.00107193031360423 -9.234345648814135e-5 0.0
0.00159711530715319 -7.33866177298389e-5 0.0
0.001260837493551727 -0.00013437305339215097 0.0
0.002042401371369122 -7.705069368203312e-6 0.0
5.472424374784798e-5 -1.8670293048775417e-5 0.0
0.0019043011357761045 9.865625674007038e-7 0.0
0.0020507688082703384 -8.321649101361425e-6 0.0
0.0009545613351081211 -0.0003685882971765 0.0
0.0011390937626288434 -0.00014767870406591285 0.0
0.0007661647628731425 0.00014274884374815478 0.0
0.000486715308660287 -0.0001764212494517434 0.0
0.0006419111713215099 -0.0001338645873999134 0.0
0.0008441650960928637 -0.00011729726955303187 0.0
0.00040726996585315655 3.5835717408600155e-5 0.0
0.0007251206642428836 -0.00025598666991160583 0.0
0.0003741088248296275 -8.2444561465334e-5 0.0
0.00026283609820118076 4.749417177833795e-5 0.0
0.0009336680210152368 -0.00014822618052476736 0.0
0.0014135320726132662 -0.00023220804478901882 0.0
0.0017008139928464672 -0.00013593020327990656 0.0
0.0007100891528897795 -6.844103323062037e-5 0.0
0.000495205316932389 0.00010449796039525567 0.0
0.0011841319832354817 -2.129525641339444e-6 0.0
0.0006013542675051691 -0.00011029943999999958 0.0
0.0016146219757276518 -0.0001358926366853539 0.0
0.00064594203252981 0.00014732491390949596 0.0
0.000585798428336086 0.00013967582719077003 0.0
0.0010811251786213387 -0.00021384313377963547 0.0
0.0012257199329299118 -1.373643742087861e-5 0.0
0.0007803103569512677 -0.0003541868294872446 0.0
0.0014873732503836894 -0.00036694575508854646 0.0
0.0005481945060178276 -0.00017343263145337893 0.0
0.001385807264366406 -0.0003880046190739358 0.0
0.0004478934497821651 -0.00010001551777482781 0.0
0.0016434016454123688 -0.00013267744468762295 0.0
0.0007628299039237057 -0.0002214883783747572 0.0
0.0017636536031763466 -6.738250146384887e-5 0.0
0.00048791069176744485 -0.00016905902680731437 0.0
0.0009285461907036157 9.253337024312212e-5 0.0
0.0007504472256978317 -8.776222823541882e-5 0.0
0.0008815004112503158 -0.0002819954077404867 0.0
0.0009616928124325013 -0.00011983160597018097 0.0
0.0009661709744296778 -8.286980219875317e-5 0.0
0.000560732469033852 -0.00021898356269427395 0.0
0.0005672811842786228 -0.00023113155808272888 0.0
0.0003762927676520154 -0.00012518118252868925 0.0
0.0006448805348049845 0.00019882817431300458 0.0
0.0009129696570848613 -0.0003227647371028409 0.0
0.0017909952540336917 2.795222832368486e-5 0.0
0.0015692826533814225 -0.0001895586981909674 0.0
0.001177560224412777 -2.052991697663354e-5 0.0
0.0005257489706110227 -0.00017236031652659553 0.0
0.0013800091397000586 -0.00011579063879801108 0.0
0.0011343566011182452 -0.0002910681115753781 0.0
0.0007622575698331434 -0.00021146991791302477 0.0
0.001914566014806842 -3.021144778327699e-5 0.0
0.002026564081696853 -2.095100467928291e-5 0.0
0.0007053065298898994 -0.00014314413689269582 0.0
0.0013171366692591956 -0.00038243013423647324 0.0
0.0018092340789347297 -0.0001967140691894955 0.0
9.609810077785895e-5 -2.763970744850684e-5 0.0
0.0004917771914922272 -0.00013349017192487787 0.0
0.000572653237207077 -0.0001744927268220114 0.0
0.0018508431966123924 -0.0001695182693613561 0.0
0.0007219532052900024 -0.0002441717173377389 0.0
0.0013566081740032962 -5.178412850566363e-5 0.0
0.00021989528466077153 -0.0001269282766065362 0.0
0.0011443073601977991 -0.00017397510216722503 0.0
0.0017011435750943016 -0.00011312593696935331 0.0
0.001322982208162854 -0.00021304272362503293 0.0
0.0019505585779834443 -2.996655179997811e-5 0.0
0.0013433433011958741 -0.00035321734606856857 0.0
3.2456800722565315e-5 -4.764701183334301e-6 0.0
0.0008913511418457181 -0.00014715538679581589 0.0
4.354028889783686e-5 -1.609815283802583e-5 0.0
0.0006751179291996054 2.165439476802038e-5 0.0
0.0004325298605782314 -5.0009739667671996e-5 0.0
3.688065651154882e-5 -1.8056860786816735e-5 0.0
0.0005304263371833975 -0.0002798975220944288 0.0
0.0004938916721396043 -0.0002567373153308282 0.0
0.0008955425907524829 -9.215187505462932e-5 0.0
0.0009332732516487631 -4.992392627388939e-5 0.0
0.00037359148421166 -0.0002055717806502664 0.0
0.0006361387974626361 -0.00010974959026370554 0.0
0.0011864839068619194 -0.00011125826317313708 0.0
0.00037084578957634367 -0.00014452061246066593 0.0
0.0013843790066053788 -2.452296164535391e-5 0.0
0.0011626462862233918 -0.0002829898569136213 0.0
0.0002710199994305622 -7.932460150820601e-5 0.0
0.00017241748300186267 -8.894166465474718e-5 0.0
0.0010525784851612568 -8.777164251621047e-5 0.0
8.331977522513001e-5 -4.6942182993930934e-5 0.0
0.001983968325996058 -6.112713727592053e-6 0.0
0.0007308268474534835 -1.4775294064223836e-5 0.0
0.0009426005145769797 -0.0001395794071083402 0.0
0.0017392072123624588 -0.00018480341771721768 0.0
0.0019297038148208758 -0.00013391391267418142 0.0
0.001607162836599025 -5.9321740087633745e-5 0.0
0.0009097854021116755 -0.00030899059907374296 0.0
0.0011921134156028619 -0.00016217697457373827 0.0
0.0016895061778757763 -0.00026448333472721473 0.0
0.0009950235635927636 -0.00038875400401769655 0.0
0.0016791383143206495 -0.00011403624406734269 0.0
0.001331638605534965 -0.00019576143484833952 0.0
0.0006988960043624779 -0.00023517226982052868 0.0
0.0012878432824767658 -2.3243691712610985e-5 0.0
0.000737048016150831 -0.000202988934155868 0.0
0.0006268020270044482 -0.00029002851485792654 0.0
0.0009357456532437245 -0.00012403541549092938 0.0
0.0015361996648924254 -0.00032774963097537363 0.0
0.00037232233424341524 -0.00011863393868580298 0.0
0.00031846823578793754 -0.0001798160948238513 0.0
0.0014733692577540345 3.017904458581915e-5 0.0
0.00046500841357691966 -0.00013810511382550172 0.0
0.0012441970129645611 1.3301581679843685e-5 0.0
0.0007892310446781093 0.0002900873487017328 0.0
0.0015979855659877889 8.987534568606168e-6 0.0
0.0017633728333701396 -5.768134201421066e-5 0.0
0.0010228380512804414 -6.485278770577021e-5 0.0
0.0015650453080837642 -7.447990869015123e-5 0.0
0.0011948265319361242 -0.0003129863901581869 0.0
0.0012819764564390573 -0.0004003813459376045 0.0
0.0005978580343907425 -0.00017468490184704283 0.0
0.0007139711271461213 0.00016166501456123743 0.0
0.00040621272607351287 -0.00012409463179842588 0.0
0.0004585578010408518 -0.00025243142268130707 0.0
0.000872252117492054 -0.00015815883452333554 0.0
5.4520071763602364e-5 -1.80624118921173e-5 0.0
0.00036059780159557187 -0.0001897210978739485 0.0
0.0009905232071133056 -8.856149124861517e-5 0.0
0.00013465525839948922 -5.571490277774851e-5 0.0
0.0001108628678833897 -1.1988245656683242e-5 0.0
0.0010314170328473906 -0.0001953156783150691 0.0
0.0010762472765317522 -8.694830723535259e-5 0.0
0.0018997085093827495 -0.00013732727691329185 0.0
0.0008522632595117318 -0.00010661778867888251 0.0
0.0014253660574774383 -0.00021140596777640948 0.0
0.001105993274311837 -6.271214441317447e-5 0.0
0.0002814135040736753 4.385135115827695e-5 0.0
0.0003623145505715294 2.3110239459480237e-5 0.0
0.0019882778054132115 -1.8418277732948678e-5 0.0
0.0013229781371266384 -3.943716930240641e-5 0.0
0.00030862717796335045 -0.00011261463470494999 0.0
0.0012298506960179028 -7.189098549547526e-5 0.0
0.0009890404613878644 -6.188131864683082e-5 0.0
0.0010528770114950497 -0.00011101895163624746 0.0
0.00042923241559982543 0.00010034613374650347 0.0
0.0010373381451106274 -0.0003939561454582838 0.0
0.001879704059241561 -7.947418604691299e-6 0.0
0.0010208851297087884 -0.00016770301756055805 0.0
0.0010645787095444118 -7.429763436357257e-5 0.0
0.0013062121248252209 -0.00010993388560985607 0.0
0.0009315143453090623 -8.797303263926336e-5 0.0
0.0010284234053952778 -0.00015716516467647834 0.0
0.0005154497567719744 -0.00022893649967395846 0.0
0.0013648521832159218 -0.00018223014165362565 0.0
0.000828625109377566 -0.00014020227102646944 0.0
0.0010549706775388264 -8.334845335294885e-5 0.0
0.0016103504365383788 -0.0003308288727675593 0.0
0.000888370111483238 -0.00012624269068630268 0.0
0.0012476873791973156 -5.4691965134059676e-5 0.0
0.0011154619187156945 -5.779340943610661e-5 0.0
0.00018180158302350235 -0.00010641880544674367 0.0
0.0015814525366877252 -0.00017175962882844258 0.0
0.0010917555406253277 -7.464686453468276e-5 0.0
0.0005968372103690608 -0.0002863910131121289 0.0
0.0012526721708384554 -6.620969331303e-6 0.0
0.0014269185546083468 -0.00038416544041133604 0.0
0.0020231709323316376 1.1684513816282826e-5 0.0
0.00012713934456101879 4.2882567376208855e-5 0.0
0.0008502890628858052 -0.00016260586418325078 0.0
0.0011172558523116149 -0.0003839583332108584 0.0
0.0007145457991509488 -0.00032745916387273363 0.0
0.0008048780141428742 -0.00035997219414911374 0.0
0.000167963227017261 -5.8349370169872104e-5 0.0
0.00145495993422668 -0.0001989961357654339 0.0
0.0006015473615572297 -0.00016724864123262713 0.0
0.0008577731529111595 -0.0001308154848886461 0.0
0.000709957741243468 -7.889389734896153e-5 0.0
0.0008312706435604165 -0.0003548639253497384 0.0
0.0014839606564703393 3.4851045682880136e-7 0.0
0.0019102954688652125 1.716672293922887e-5 0.0
0.0011936612885479574 -0.0002990776416306845 0.0
0.0010149241043395463 -0.00017902877967279407 0.0
0.000660456669462843 -0.00023112481266977973 0.0
0.001081776055304086 -0.00039779425238904427 0.0
0.001527731860205023 -0.00016014522372919326 0.0
0.00015239827302578578 -5.970949640048634e-5 0.0
0.0018476579006310705 -2.8758418273701775e-5 0.0
0.0008745040225462707 -0.00036164724262435533 0.0
0.0008940049264411832 -0.0003282711399384608 0.0
0.0013665826610745194 -0.0003394413976506506 0.0
0.002060286540657964 -2.345809409291722e-5 0.0
0.0007530470349942684 -0.00033770439359926253 0.0
0.0006694806889978421 -6.827843584113875e-5 0.0
0.0006803929845128392 -0.0001451426851407743 0.0
0.0012932345433264475 -0.00012455300811357276 0.0
0.001996630719551883 -7.349983200533806e-6 0.0
0.00018629354359346007 -9.382915654163129e-5 0.0
0.0010347051646944173 -0.00014800592869927245 0.0
0.0017941750065732622 -0.00017527651640658766 0.0
0.0019897434370743463 6.491777794248999e-6 0.0
0.0005808551401297927 -0.00012899300436834538 0.0
0.0008944821472892814 -0.00036615486714522454 0.0
0.0019242414757600793 -2.4890534718458517e-5 0.0
0.0003702248657990991 -0.00018170963907256825 0.0
0.002030570516795357 -4.662405416234808e-6 0.0
0.0006441270905331744 -0.0003198224597296431 0.0
0.0013745349484836483 -0.00016511616021190354 0.0
0.00038550304832260393 -2.4644363796936847e-5 0.0
0.0012773532903558242 -5.273784724691516e-5 0.0
0.001994405469704582 -7.084658847396386e-5 0.0
0.0015609462883142086 -0.0001448906028937557 0.0
0.0005722232896948267 -0.0002867756049296526 0.0
0.00042317068310889383 -0.00023779290878305683 0.0
0.0005138849263657888 -0.00021300041529834132 0.0
0.0016532068008339275 -0.00028411750977771664 0.0
0.0015344188687172237 -7.655876632264708e-5 0.0
0.00033283278540906453 -0.00011879133638641938 0.0
0.0008076111204802927 -0.00015962936776493133 0.0
0.0012866134639724044 -0.00013923256546836938 0.0
0.0007764683606546612 -0.0001777939759982807 0.0
0.0019486734221479118 1.54550106854417e-5 0.0
0.0014002785118865087 -6.418730268553934e-5 0.0
0.0008274597817903811 -0.0001349846191968141 0.0
0.00033984382659506745 -0.0001127848589006383 0.0
0.001474999653397175 -0.0001697804092144945 0.0
0.0012240325582674944 -0.0003715297344159594 0.0
0.001736731811218181 -0.00024361654350123484 0.0
0.0006841040380389495 -0.0003199640887961695 0.0
0.001329481107064456 2.8937054555788643e-5 0.0
0.000739810633928917 -0.00019361488637693495 0.0
0.0011625323576606617 -0.0003865759289058146 0.0
0.001723089038095948 -0.00018205470893389817 0.0
0.00153389189066434 -8.262349912066654e-6 0.0
0.00194786916980299 6.393203680626081e-6 0.0
0.0005139240400770678 0.00011721850434451976 0.0
0.0018874590585818277 4.369942042798186e-6 0.0
0.0006521212876920323 -0.00021646357132038842 0.0
0.0017303201186450001 3.0600372108379596e-5 0.0
0.0012335061346048716 -2.552298099037235e-5 0.0
0.0014167943259510382 -4.168722700447431e-5 0.0
0.0006196532108813391 -0.00015794783536365113 0.0
0.0014287681344660969 -7.780889942081014e-5 0.0
0.0009364344323917047 -0.00037079738274952914 0.0
0.0005384634185862712 -0.00026885610886460433 0.0
0.001097345843865016 -8.658409514976374e-5 0.0
0.001527149378118241 2.1397470649948778e-5 0.0
0.0008793777728520734 -0.00034376820536393435 0.0
4.085449067971391e-5 -1.461566260723185e-5 0.0
0.0020077532113482875 -1.006023964356156e-5 0.0
0.0017259978662090242 -2.839470810374996e-5 0.0
0.0008962078626711472 -3.91267780218819e-5 0.0
0.0020393705262310136 -1.9771041398600633e-5 0.0
0.0005846455099168263 7.500806035196064e-5 0.0
0.0009978877048256206 -5.45183223311572e-5 0.0
0.002078969656537843 -1.779819275582229e-5 0.0
1.6885899667794854e-5 -9.774112600595736e-6 0.0
6.0320807613757925e-5 -2.434269816314861e-5 0.0
0.0006006802554058847 -0.00010283462866781831 0.0
0.0012102077933071741 -0.0001661237594224043 0.0
0.0014253602157697377 3.058882863420866e-5 0.0
0.001539676933280762 -0.00030638593793222234 0.0
0.002015227661179671 -1.276080149862e-5 0.0
0.000168434972079518 -6.778039290649224e-5 0.0
0.00043006635361879814 -2.2281665630545554e-5 0.0
0.0012297988875073996 -0.0003554744784285903 0.0
0.0017894452199199349 -3.0034774742274062e-5 0.0
0.0005286491415333591 -0.00021379119279382584 0.0
0.00011551467938625238 1.2245845946851654e-5 0.0
0.0012567938702363857 -7.271765293443367e-5 0.0
0.0006341037734569187 -6.944019732072473e-5 0.0
0.0015310727777458819 -2.343842131077788e-5 0.0
0.0009701740178739935 -8.992148556455559e-5 0.0
0.0007688698949376676 -0.000185024364944766 0.0
0.0018194963540035935 2.7684642178352535e-5 0.0
0.0018278688925647683 -0.00019004116386634712 0.0
0.0014794284329422154 -0.00035192735949587624 0.0
0.0004685314019465889 -0.00013281971344968437 0.0
0.0019037625951541122 -2.444958608892427e-5 0.0
0.00032884316091054487 -0.00013056236333011212 0.0
0.0019260881710061386 -6.7868019916411575e-6 0.0
0.0016701698334379983 -0.000280253333671535 0.0
0.0012658428890671373 1.5742596103761292e-5 0.0
0.001378145994635883 -0.0003770516609591441 0.0
0.0015344126227909045 -4.562175123279063e-5 0.0
0.0009430897870794765 -0.00011146141790990039 0.0
0.0005326808458146075 -0.00025721958276678756 0.0
0.0008243104292028441 0.00012621533659595377 0.0
4.317453535214791e-5 -4.190750619249953e-6 0.0
0.00198614680875207 -1.267090691251513e-5 0.0
0.00023589391733576688 -0.0001377538984474412 0.0
0.001503434201693865 3.3381401617615545e-5 0.0
0.00038876046365882925 -0.00021398168154129044 0.0
0.0013794560788272492 -0.00015164484057312178 0.0
0.0004201525441390472 4.045238130879751e-6 0.0
0.00019478266332395098 -7.656975551060997e-5 0.0
0.0002835948764479727 -0.0001710447453463335 0.0
0.00025301671034600625 -0.00012061541864626545 0.0
0.0007543456581230053 0.00019296883695489904 0.0
0.0015988651270461114 1.482719178282554e-5 0.0
3.202091978122483e-5 -1.4126043273591646e-5 0.0
0.0017125348200136264 -2.297950889644674e-5 0.0
0.001626100364875053 -1.4287931546455094e-5 0.0
0.0012431717777571522 -0.00015600533748951577 0.0
0.000963458657435194 -9.79672359480396e-5 0.0
0.000551654141999286 -8.818572268699202e-5 0.0
0.0009717591907111952 -0.00011362885120681139 0.0
0.0012543123175933941 -0.00032821944824136957 0.0
0.0006240016278295428 -0.0001682339906207877 0.0
0.00048230341222274217 -0.00025496564636725937 0.0
0.0017296326714142066 -0.00011931510449680645 0.0
0.001369252318920877 -1.0296102751630883e-5 0.0
0.00022034036165205677 3.5188165549269886e-5 0.0
0.0006316904317044856 2.376809479336586e-5 0.0
0.001351155161745983 -0.00010789257847851862 0.0
0.0012573573118864405 -0.0003877111069734713 0.0
0.0008033296210887954 -0.00016667572056595442 0.0
0.0015882780289575525 -0.00031773836518387964 0.0
0.0001452119919787317 -8.571697559288998e-5 0.0
0.0013879126798574755 -0.00032709960521592395 0.0
0.0007112779632203217 -5.7042322290426904e-5 0.0
0.0019189805266921387 -0.00012683189557788897 0.0
0.0006882395567119068 3.7199698750339525e-7 0.0
0.0012632952468483076 -4.155885628425755e-5 0.0
0.0010405753419796082 -0.000187844904814529 0.0
0.001007313199258214 -4.711687099008702e-5 0.0
0.001145107069747884 -5.059778193852271e-5 0.0
0.0012110906880792357 -0.0003858255196447658 0.0
0.0015522224802488156 -0.00032557326456855734 0.0
0.0005092145217886964 -0.0001724599271318534 0.0
0.0012170750731634206 1.0941760146883638e-5 0.0
0.0011843018320688383 -1.3321991964421676e-5 0.0
0.0015493255760590699 -0.00028104350093364447 0.0
0.0009508169247190352 -0.00010602166710900674 0.0
0.0009962379303800127 -8.778347625165998e-6 0.0
0.0005286293700768425 -0.00024640452778215704 0.0
0.0019049279893837243 -0.00011928408014218891 0.0
0.0013110660760200193 -0.00039917114622633744 0.0
0.0008810666641124189 -0.0003343740276866203 0.0
0.0020102380953281717 8.86114714530228e-6 0.0
0.0008682752586279307 -0.0002988566184940971 0.0
0.0015935107017882308 -4.3526842675413596e-5 0.0
0.0005487859630545981 -0.00012190744882972975 0.0
0.0013528081703023497 2.234082099956288e-5 0.0
0.00039487492668489644 -3.855904528874606e-5 0.0
0.0008894106302207743 -8.494710144896953e-5 0.0
0.0007353988392180606 0.00024579788153200014 0.0
0.0020497973314801085 -7.629404208043587e-6 0.0
0.001201367984150926 -0.0002881793450851481 0.0
SCALARS damage float 1
LOOKUP_TABLE damage
0.635988324899809
0.5667440820896806
0.8854542619030965
0.3419317946199374
0.9888469679320444
0.9957722759194113
0.26597360005607323
0.8275011736911209
0.8287978121450796
0.8419127141510081
0.862095082584396
0.875741260421214
0.8915873991880268
0.9066392208111017
0.912398295105397
0.911992705804895
0.9060296287332116
0.8990046187918829
0.8894899020995841
0.8786761649106598
0.8685217895632523
0.8635192932218569
0.8537667987646171
0.8450394393548777
0.8389357606768421
0.8320044679385703
0.8217752259886086
0.8123455687748488
0.7994070798389163
0.7866225196573421
0.766035111664169
0.7403024907594274
0.536200790606331
0.6653131546599316
0.6802630109014457
0.7035713002171807
0.7194925197163193
0.7298161816205391
0.7405297216135375
0.7467795724089414
0.7536217798686481
0.7608064069868691
0.765595644660809
0.7702361134274307
0.7776248502894645
0.7807229264660879
0.7763925364228704
0.7835382956415113
0.7897427371578833
0.7977196905820271
0.801688870112745
0.8073225840156165
0.8110517711456735
0.8199831333074068
0.8196151233963338
0.8278344076772085
0.8295805235997002
0.8357729623381499
0.8403160366594927
0.8484374797733347
0.8483823875318361
0.8562450945430877
0.8608867891628765
0.8682088016739269
0.8739030263986997
0.8767746491781446
0.8726484217832854
0.8691732828785844
0.8722264590011177
0.8614185954564781
0.8775634604872188
0.8809099536063726
0.877705762268029
0.8969746604331577
0.9011564160406244
0.9080815724882615
0.9171205163745144
0.9167328307008306
0.92983680924303
0.9298068362171599
0.9355128399572709
0.9375963460321958
0.9365091300215905
0.9314198556891501
0.9411197826569818
0.9440718386494562
0.9599590551597216
0.9598151352803466
0.9722064850365782
0.9764642774117083
0.9793350172520588
0.982639851511441
0.9846099768200705
0.9870323712009275
0.9879326897554794
0.9910963763894993
0.9906662999434019
0.9923187259233966
0.9940188418244028
0.9940404600679755
0.993254813798498
0.9918332625228617
0.9887111749482632
0.9835363925531494
0.9749288657378633
0.9671114619751596
0.9626793967097471
0.9567536496619743
0.9515507724386018
0.9404526409626298
0.9286570150354473
0.9127895440030056
0.9181051942445231
0.9022112498451947
0.8982165223536354
0.878949091670036
0.8636772534178141
0.8502188476315912
0.8299398665625378
0.8154404454603866
0.8060571822442162
0.7899611184868913
0.7679488245425737
0.7417824310498038
0.7272235125912481
0.7090204289491809
0.6897681021723928
0.6430150809194419
0.6021287184843955
0.5919132201444267
0.4307475855847361
0.568211907094288
0.6625406561722038
0.7447897585890378
0.773465295412168
0.7892024295209941
0.7973229051856362
0.8032981556236545
0.8078532911222815
0.8117322260208246
0.8174239452289003
0.8218745400060556
0.8246172507732015
0.8267169815316948
0.8276944888167477
0.8271090048167784
0.8254542764452658
0.8224510456736376
0.8211471855760379
0.8216911638423402
0.8242120146835236
0.831821435700604
0.8418374802505959
0.8592691252946589
0.8862954385686972
0.9214947678338352
0.9192273987689233
0.9909787829404062
0.996761293782586
0.9969394314044838
0.9936832570562855
0.9974615489267262
0.9761185762992516
0.9412244364983345
0.8922468631306788
0.83347883304279
0.7674951735992073
0.7126265662267928
0.6483345890350083
0.5748979495268711
0.4961424964338239
0.4476035424362167
0.1612819202246405
0.34125656119755376
0.467960745431724
0.5667773499354326
0.6524655736638022
0.7402739922104742
0.8068947421008591
0.8731604863202285
0.9327894787981662
0.9661653982512813
0.9956707656070471
0.9929945472857936
0.9961490508676744
0.9860927201826147
0.9145005932091604
0.7468584117792854
0.8509957327102732
0.987602067194908
0.8801609886684794
0.987844620100149
0.9037830827796873
0.96268118957862
0.9380682451235997
0.959072217947536
0.8208509017761856
0.9137344856518724
0.7939994647706083
0.8713568708552143
0.8241483410846049
0.6936296225870316
0.716865896409476
0.29076172358925306
0.6343567056300912
0.8529863074043679
0.7761254441166341
0.8421921097810837
0.8198363268512554
0.818406700394288
0.9018705315217965
0.7957945181216893
0.750386991549807
0.8700045811010231
0.821577186421902
0.823257155778045
0.8012424204904446
0.8739168631133264
0.9271068643214543
0.9803753857323997
0.9348801623967313
0.9912525544695198
0.9727363177228623
0.8770626160692243
0.8354502693099694
0.7324525475398976
0.725987910511415
0.8292524300227261
0.8994451186854634
0.7709715837061774
0.7890185653603596
0.9582420065570765
0.9402377821595314
0.8628344975266115
0.8462122690736233
0.8572827086678733
0.8255317824222396
0.6387068172921805
0.49833457532006653
0.6810306335989152
0.6497299668926775
0.9920794912420715
0.9494598302210105
0.8678456666553044
0.862732887922041
0.9731279513597337
0.9425086212451157
0.8105624898153378
0.8980841626249324
0.7835457263293063
0.7627447676362491
0.8214864112309213
0.9286844440196106
0.9800890623668201
0.7195568667767749
0.7530523073460328
0.9930546248547181
0.9955819367280291
0.7917715669516113
0.9132787145919783
0.6358752793224492
0.5933210670718541
0.9976226674282102
0.978504419036301
0.9479291050107326
0.9499991103208334
0.9638367634175384
0.9415019315354611
0.9162556321419462
0.9029405075716704
0.8823498103888381
0.8673929930266548
0.8858490848720645
0.8514556491548482
0.865593377144696
0.837466147464157
0.8499911661888053
0.8292623743033146
0.8235543452324028
0.5887779616689004
0.7669653018111727
0.6269810755611899
0.7832946221579519
0.6896459410414646
0.7889946706913206
0.7303890834940748
0.7994609872237217
0.7535642847375598
0.8045290513393656
0.7748212304390588
0.8131201936062258
0.7854536060120849
0.8168600054511493
0.7979232910229029
0.8221014460342333
0.8016679123722171
0.821107052814074
0.8065459668387284
0.8226780519392839
0.812974614651226
0.8264833530878892
0.8196840044135367
0.8321334895848418
0.8260388351837784
0.8361857716246153
0.830323259943828
0.8403482210268512
0.8318788605870489
0.840637373176081
0.837520272951699
0.8439947966736175
0.8435474608172602
0.8479514852321745
0.8458624516717609
0.8507723904431294
0.8505974767594625
0.6934517102622614
0.8552501073720854
0.7875616777683737
0.8313174441828649
0.8545677922642404
0.8590957200167211
0.8580233349705805
0.85351589033637
0.857051008352477
0.862393649122292
0.8627879905782045
0.844824678515309
0.866128023629365
0.8659418037263585
0.8688871121796561
0.8518908210101017
0.8556199416999333
0.8683552388353711
0.8500945176143726
0.8538676677663354
0.8722601945981429
0.8717583199821628
0.8482151727655065
0.852868114253873
0.8758366366875588
0.8751576826494157
0.8455373552227885
0.8495150564250809
0.8795261305343387
0.8788966247246017
0.8423396735420675
0.8460375960687855
0.8835467700593119
0.882537548429063
0.8377801025600735
0.8438470152919259
0.8339134020146506
0.8271423146588551
0.8840027786849579
0.8874393162114728
0.8856101058755524
0.879904427398449
0.8336981409415603
0.88333661002898
0.8760133306153629
0.8789966844883993
0.8409907015029271
0.8322328281034651
0.8477715743910519
0.8907525231522717
0.8371706964765924
0.8274807938098537
0.8370916727289459
0.8327845885153426
0.8235505896930979
0.82967167878439
0.8195848615700005
0.8132880730762708
0.8085325244806559
0.8028121896963982
0.8262766989991049
0.8012370765509207
0.7939100618588892
0.8355811901233284
0.8325742087569032
0.791971724069819
0.7846313829507006
0.8723524750658289
0.8742173407735659
0.84009164437088
0.8358165377168861
0.8681656644909618
0.8701871965031014
0.8777155672290995
0.8712828956269615
0.8815350475936687
0.8736044062039556
0.8841434539538539
0.8755697194292381
0.8874134276555802
0.8656363250799878
0.8761004322760303
0.8902336894827054
0.8437820780854413
0.7834324016666938
0.7762303423215087
0.8988873922060971
0.9032098946977943
0.8937786243249475
0.9126238070713799
0.8399121932023694
0.9080261101619184
0.8985854223103874
0.8476307414885714
0.8441701940426645
0.8369427471526572
0.9136234221103819
0.9048229580823081
0.8521733746462251
0.8562409619020612
0.8403488194745525
0.8324412599852449
0.9190416230923542
0.9114643739332797
0.8896652047452658
0.9255733061586894
0.8962316515097661
0.8761041613779272
0.7758228421185954
0.7707944277648159
0.7697199231054279
0.7668083968466503
0.7606889390035242
0.7603897387649988
0.75367924334714
0.8603965794718134
0.8639877097364194
0.8359600627171971
0.8281249907314239
0.9176393409207425
0.7573753464718442
0.7482366017863977
0.867440941924343
0.871086957441759
0.8566371795541253
0.9013589434972896
0.8329084805725107
0.8813518698316561
0.8144725691428911
0.8638623471725332
0.7570165880533762
0.7481098177052921
0.8323306403229553
0.8250996621889554
0.8742647162594008
0.8777025774204704
0.9224966791641337
0.7729338169087101
0.7777922920983589
0.7653139853014365
0.9043311981361539
0.7633887480256625
0.7505134760596931
0.870379204737558
0.8283125974447049
0.8210255602643026
0.8628585888341831
0.8614179144441303
0.8601110101177109
0.8594271597794647
0.880625483845329
0.883544234677093
0.839789299558491
0.7696817127401249
0.7637743887509012
0.9252982730874567
0.9357446095645316
0.7939285356275833
0.7848253664496545
0.9103681047371072
0.8874731604557816
0.8174993961089153
0.835844596431911
0.8865925417329586
0.8889069453466516
0.8858174656314671
0.8909540357582522
0.8878449461384116
0.8927316720287157
0.889656534474675
0.894105791301492
0.8910073553432062
0.8952046603425663
0.8981238114896455
0.8994550261858786
0.9023423624644772
0.9038793855130856
0.906830341953389
0.9084294144150887
0.8922378536146085
0.9051367167857338
0.9098399017341904
0.9133805095255787
0.9147724878382109
0.77423269139202
0.7784129488871669
0.8248788385216436
0.8183120760493783
0.9110802687616656
0.9158318486382041
0.9197313378693215
0.9207951623262215
0.7761145715682783
0.7791387709681257
0.859484324024697
0.8606954479991071
0.8616884902187797
0.9278649553267286
0.9135910387630463
0.8918769020164118
0.7399028722647143
0.8727617920640525
0.9248230032261556
0.9257881542724928
0.9220578929595838
0.927377870895882
0.8673443710546919
0.8645910397998634
0.8628934919334591
0.8123963886264258
0.8221755432880011
0.8153765219414637
0.8670888302817443
0.9307467398902508
0.9327813076898391
0.9289992874641905
0.9353038009550315
0.930627941852546
0.9367804370000103
0.9414434611201317
0.9426176944256934
0.8407604083283094
0.7783012573646353
0.7793001850929676
0.8898579712235907
0.9292501680661887
0.9176181975892959
0.9465337374720297
0.9484835100767659
0.8351189879528403
0.8200730690197596
0.8126908549832391
0.7510689209665037
0.8221708283782758
0.8945961667729326
0.8582373987710974
0.7800931994649627
0.9297383460306703
0.9188980734147044
0.8942247085045717
0.8397685174593004
0.9329266070655328
0.7784189543378652
0.8241790909124896
0.8713050724906114
0.8747674625648773
0.9318625228076013
0.8166251173388592
0.8091901561898898
0.7804844165563686
0.7807326709815737
0.8210473863002143
0.95233571339296
0.9530803924461316
0.8053000419872229
0.8022932010370109
0.9509741992643227
0.8922001722712952
0.8052573936395359
0.7988572326928897
0.8846342655706549
0.8966340812244545
0.8695396253876573
0.9186605836609523
0.9569757658366169
0.9574431730957619
0.925884802090599
0.9267594815813359
0.8966929292177584
0.9530266434611763
0.957143283185936
0.7829893540197669
0.7823727635337783
0.9625426745205063
0.9616619731395237
0.8014572782908147
0.7949752727300087
0.8782512796532329
0.8851258844743681
0.7929499233469623
0.7893307496596632
0.7906603852603248
0.7854853977514559
0.8974054883526064
0.9159751213146303
0.8569179142020219
0.8725397300138862
0.8627610546039066
0.8937849457735407
0.96733884562322
0.965798577980854
0.8408745410106031
0.9521245761500635
0.9049911138966888
0.7846406687592807
0.7810570377476379
0.7821833946227655
0.7769392557845597
0.7761474072547616
0.7727886455495645
0.7739301089588195
0.770972335048381
0.77429855872724
0.7713413335568422
0.7760975677569365
0.7671585063961882
0.7697898266846632
0.7849613941633142
0.7869677404860221
0.7607048465335136
0.7646176684192684
0.8361824918301928
0.7956513615772667
0.9209970094147275
0.9216059891759033
0.7813815576231954
0.8969835790657947
0.8989736766380202
0.9267680355590442
0.9212021744713403
0.8981809561769513
0.9089995170078935
0.9108349874743632
0.8804287256087802
0.8939533682227346
0.888542061637269
0.8888962649373119
0.8844906489030814
0.7767835715304341
0.8915600875259817
0.903538534206541
0.7986099275383519
0.97133414414331
0.9692226240847879
0.9636791617039299
0.9665233286532816
0.8648609850024996
0.8782476480108946
0.8674326162423354
0.9719186559694071
0.8425259757918303
0.9716014612706023
0.9681893339797816
0.9629131560817912
0.9646513255218195
0.9601469280081851
0.9612590485069643
0.9650554981866157
0.9607639778045487
0.7575581999665301
0.7598399892568983
0.7704877695373443
0.8972068535418467
0.9011507973062262
0.8841619391796541
0.8792479524561612
0.898624919826298
0.8984963617025856
0.8688669023022506
0.8551137210535631
0.8830608966991755
0.8861908541040542
0.7558066845875522
0.843877178814132
0.8592873663134677
0.8983507931067888
0.7568343042239348
0.8839325353596406
0.9640292527432238
0.9588102056507538
0.8222870367003812
0.8159393106917017
0.8711457584909879
0.7817093274439063
0.7906361737038254
0.7948784812802293
0.7829222566620845
0.9728356049994218
0.8927374018118014
0.9238863257303583
0.8555131260523057
0.7518040076418379
0.7558203226885177
0.8086144512800831
0.9258794624750607
0.9195871483053994
0.887378203819334
0.8184359552846094
0.8131874207589082
0.8174392479088934
0.8125471013586134
0.8115429247229644
0.8086162329377239
0.8124846757284299
0.8078203425350172
0.8145727832277179
0.8104992980014804
0.8175361287724668
0.8132828176605301
0.821529569984118
0.8165666839375243
0.8268355304020385
0.8238704129197998
0.8205659806776968
0.8088771426537115
0.7987033588457386
0.8046291841855222
0.811484469196639
0.8282780233394277
0.8241654196325491
0.8313695645389745
0.9289965381736592
0.9282437257415946
0.9331187509136886
0.9326148194040288
0.9369540735004768
0.9365228339938368
0.93197728605899
0.9353512406321361
0.9301768489855805
0.46871547017477605
0.940779505433638
0.9412414957552655
0.8594138947044391
0.8878870033064503
0.8892396471774763
0.8846951670239576
0.8859565327350998
0.8812271057017634
0.8824242570686728
0.8869437528828144
0.8835059876375844
0.8881723807446685
0.8841284295878712
0.8885342488293192
0.8800816633825921
0.8774564401325438
0.8760407139909366
0.8922500864252505
0.8929216655442529
0.8075340507004547
0.8403430444763154
0.7457156571089136
0.9121426237596676
0.8675873771198418
0.8647079590868592
0.8349563322783168
0.8395972792760863
0.957144336585514
0.8869684511143093
0.886861844012912
0.8876793136994829
0.8518463538963692
0.8796824615298623
0.8739938051963979
0.8410421922941141
0.9323843903934763
0.9270501786982219
0.8731582302545055
0.8692957252528899
0.867548554417763
0.8645916419914734
0.8671931137200606
0.8622526731037519
0.866769582158418
0.8612529968076664
0.7793822673711209
0.8420412199635114
0.8942298283748412
0.9069961581578347
0.8291566707485738
0.8151342395902161
0.8143602940983244
0.8084135065009729
0.8998572847853111
0.9032149003877468
0.9755875305617169
0.7768858049858801
0.8740476959650728
0.911569109264908
0.9199966465665985
0.9545842714958874
0.8826835519348959
0.9556015118973901
0.952423006885242
0.9557957410962262
0.9484426017537279
0.8458777790922245
0.7856829109441815
0.8845539648268839
0.8221490741475944
0.9003789339135293
0.8143994988995217
0.8183486715310996
0.9758950560806725
0.8620906206623682
0.9155587570519587
0.9151308189600457
0.8719072585744853
0.8724729494000045
0.881411743945949
0.8564187607587028
0.7440849249327787
0.7498227508410237
0.7645684643503025
0.8852532599774392
0.9038759045781958
0.8667729216972305
0.8687209433679042
0.8311301155876418
0.827811158377446
0.8761869245551628
0.8590043803872928
0.8839351283841671
0.8825717978131218
0.8785503493243608
0.8656151105261949
0.8783950403137748
0.9238860330330261
0.8570884999025352
0.8550016413923295
0.8598891992322709
0.8535707139527711
0.9476145483324288
0.943062436404793
0.9445596190044208
0.9370390947329712
0.9148197048035275
0.9121085874257688
0.9445408853370039
0.9453980246794398
0.8717652455237165
0.870706592437079
0.8950821249052265
0.857414638359732
0.8512851274198334
0.909919964635634
0.9030840496351521
0.9138218943991879
0.90601868212849
0.9061470478045025
0.7423430927603849
0.7777514853837217
0.7806809874136812
0.8003920112801296
0.8062365975559813
0.7986183302491021
0.8132677982624875
0.8047671748810269
0.8209160678526278
0.8134019528524765
0.8915838776922815
0.8486289130861255
0.9506241444454235
0.9716902330066868
0.976308010246957
0.9720127705977629
0.9291091290633893
0.8782148665126059
0.9388671293735601
0.8693548161057129
0.8515444187328226
0.8508973345251478
0.8784526046553375
0.9076282454700662
0.9082853508423102
0.9371316045384146
0.9237826858921336
0.7826002335963637
0.8210925075777509
0.8249226007728565
0.8298128799558375
0.8261429320115485
0.9322124855764644
0.9360667351620973
0.910057013353232
0.8955473772414664
0.8701395366255081
0.9239160301237739
0.9481423548585335
0.9466019136501033
0.9046518965475606
0.9161800477103849
0.8216339699569216
0.8258512491865103
0.8315708395501579
0.8251439665985303
0.8058288096949714
0.8183120603307635
0.839013190550972
0.8334327321236997
0.853985796724565
0.8499374618603922
0.8678202023957241
0.7378577256892
0.9101300200014079
0.7454064867771327
0.8107236092430095
0.8362975951428208
0.8933777531141881
0.9184021754964723
0.9321315770514647
0.864876119728658
0.7819479148065244
0.7755243887611234
0.8644036649811079
0.9796934423997573
0.8817375185069052
0.9296144813441314
0.8517433854533267
0.8740714306875296
0.868533756542493
0.8715998882759355
0.8179021202409882
0.866033576138447
0.7952120910077654
0.9483560688092699
0.9497780658314655
0.9471449935182504
0.9519580436209939
0.9504780897833327
0.9442006975994591
0.8259210247980621
0.8328703768803936
0.911011194775163
0.9232049872099528
0.8039935186932009
0.8557725892773196
0.8490700028430711
0.866043163579014
0.9463600884758903
0.8778255462367541
0.8449563431327985
0.9554323261592554
0.9580576750528194
0.9063338381674024
0.9053820669054629
0.9011354269739422
0.8628524989473687
0.7805486114623921
0.7299582345795891
0.9485796714023245
0.89571330932238
0.9257646630387691
0.7708768138086579
0.8224791544800455
0.7869579017593379
0.9307645112750145
0.8021598589076079
0.7962290598722562
0.7996088209730945
0.7936419658984857
0.7961569629883929
0.7907549388486964
0.9763139665968159
0.972424219898189
0.8793894563536574
0.9307003042169967
0.9097386199666008
0.9073576045269602
0.8278383380898362
0.807046550765305
0.7997749740003494
0.8685999205057298
0.8531214300755356
0.7992954946364104
0.8323616947882351
0.8297531680577014
0.834738027443081
0.8244810161235073
0.8643751253758497
0.8830587673759508
0.9145038624782739
0.8546319036099809
0.9465883922984344
0.8802667218637611
0.8510871078136876
0.8326876089685666
0.8334331142681263
0.852583201337084
0.9072459337778088
0.904383749910487
0.7807523390121776
0.7771571646640723
0.7706623636132031
0.7704074504791212
0.8077364443328949
0.7385111652550197
0.7579988575665385
0.9619796046803557
0.963337775997484
0.9581189736978449
0.9423963798085189
0.9453692905361862
0.940293924635034
0.7883704721316322
0.7868362036427515
0.9087127564444966
0.8223364025635524
0.8242249313043741
0.8230782042961869
0.822044456835719
0.7274728051267347
0.8743517620818767
0.8726058580904836
0.8664640957030161
0.8633786945480023
0.8571484662069027
0.8687312287673321
0.903880808258947
0.8667322162256647
0.8677194260532379
0.773091780080073
0.7659576463387404
0.8134424230915018
0.8113930373239152
0.807973943445802
0.8125197093920574
0.8196215928714711
0.9200821715139648
0.9176736086187552
0.9231726714076066
0.9127625660539139
0.9012397069010281
0.7903110206850605
0.8843380267439431
0.9776636894931922
0.8831133933782487
0.9319737352422484
0.8608541021020221
0.8543900490649409
0.857667580059063
0.8547056438655248
0.857342584850604
0.8563042094618794
0.858217759419077
0.8581368083556031
0.8604780042332615
0.8516405656085603
0.8553274144145299
0.9801846134238412
0.8152230859077718
0.8657221994850821
0.8598546867544377
0.8742683748448871
0.8638119971169247
0.854807469121046
0.9042938860628524
0.8217409901321274
0.7911698261728539
0.8133336133911357
0.8276159493117692
0.8518138535121669
0.8528169644613399
0.86966314956647
0.8633720702725993
0.7899722828762266
0.7188649633438858
0.8154999682490851
0.8078130389913954
0.7304059501116756
0.9408442406184709
0.9373147478631983
0.9408336323403291
0.9323800303169242
0.8585812735681567
0.9071345454595785
0.8088733667717023
0.900545312562095
0.8963762313276766
0.8638424614724253
0.8417894349817178
0.8833031557648061
0.9682710742249848
0.9669740278088256
0.9719739091268398
0.9714904245915187
0.9756858447305572
0.9763783937258372
0.9766580682153198
0.9669279928012244
0.852178017834733
0.9229728217053994
0.8270702333057212
0.7907880800772237
0.7995235434785475
0.9665041307877201
0.9704452585069613
0.9639802757193981
0.888035207318659
0.9027332060320684
0.9051522719161752
0.9090002074894964
0.8444268258412291
0.9013807975339696
0.9440018385077945
0.9413879894847993
0.924331207055703
0.9220774781977441
0.9252332454671816
0.7925466031454095
0.871698430816039
0.8716629113980495
0.8761082021203562
0.8782513762659555
0.9372666179152744
0.8138206022059422
0.8011791026515352
0.8292204843554991
0.8415907524194891
0.852143425825465
0.9716951476435833
0.9778020114823371
0.9030768217401202
0.8108952770710971
0.8029739666637115
0.9557882356421412
0.9201493939956479
0.8938400131854026
0.8673652538977399
0.9288045260780529
0.9484138019461082
0.9523818725730212
0.8931527967382475
0.9141898386091195
0.9297279824944134
0.9603683531044409
0.8589781495669222
0.882996741845584
0.9110280331579885
0.9131276018743953
0.9508599743375785
0.8380573980253839
0.8559521001957451
0.7812276235769132
0.8119584159114878
0.9552319743034087
0.7851825567952002
0.9357289859016216
0.9337963327317608
0.9798551758637293
0.9801038677340874
0.9434760899973624
0.8995237986753609
0.8289129735634434
0.9058891112637283
0.8951684331817201
0.8529032413734743
0.8490667906684408
0.8422243421094815
0.7831164923811152
0.7912181922789308
0.8889759179389648
0.8869644245196056
0.9468593906340289
0.7790135453458735
0.7872660875681634
0.7834617241486079
0.9325660456367221
0.8959973364012848
0.9041764405674652
0.8724874000217573
0.8806875004224574
0.8772995571533403
0.8726567511110005
0.8870205704759841
0.8670362594884473
0.857117715373485
0.8495116596805767
0.8394225849323813
0.8506294688727116
0.8223303296868142
0.9284353145546356
0.8746958126849946
0.8852951845801577
0.9674193547752867
0.8629816412536265
0.8719362007282075
0.8630625434017823
0.8598214167654078
0.864908402835574
0.8545345897868877
0.8541193014994538
0.8015060718455784
0.7990548624912963
0.7926716394095117
0.795641360207375
0.801761504455623
0.7972700305712772
0.8048728057891846
0.8551525602996494
0.8013353136831515
0.8086161081551412
0.8595456090081196
0.7792369543604628
0.8126503232695118
0.7894841746478098
0.9439550004807435
0.9478331161366415
0.9212107431324343
0.9260821173466997
0.8810986730475094
0.8299496726873883
0.8094798049837918
0.7881385437924
0.7752549594547052
0.7741147374739346
0.7095439083279097
0.7130915785693248
0.646751522557361
0.6695705724086113
0.6328446755757434
0.6599489135064264
0.6489371316632934
0.6692801104560274
0.673283506819519
0.6854979133465692
0.6998371392751783
0.7031518113779502
0.7198558529037508
0.7229139901091914
0.740077134114057
0.7416973034866823
0.7584032530491808
0.7586523005856847
0.7746286144190709
0.7741829260214532
0.7577878626162683
0.7725525303504425
0.7918603188021147
0.7106190599392511
0.777317179261915
0.744412185704872
0.7232896613880652
0.6937347027884605
0.7585083253684871
0.7720581556305528
0.7860756308233595
0.7847505317940073
0.688625465783351
0.6328901886307184
0.7437806637996226
0.6222850669107083
0.7979588097892678
0.7957465316855542
0.7829913831274825
0.7474679022088799
0.7333991547245717
0.8004491694903874
0.8112911355058596
0.8147092151311653
0.7616082334708232
0.7090815923117043
0.7935968058952035
0.7827629958824074
0.772542141843817
0.7725181359856927
0.9485973831191622
0.9442306564055087
0.8277404747042164
0.9451918907262297
0.9507874877470024
0.8646513211900452
0.8701155311670732
0.8196017218637427
0.9053907219316782
0.8057919911018188
0.8416917679476476
0.8388711345411525
0.8404168594420989
0.896098347185936
0.8575800954480144
0.875142922831323
0.873413755833585
0.8854749902899572
0.8783724598999397
0.8918201499126721
0.8712767039261091
0.8910828808595675
0.8594985492405248
0.8631556494729493
0.8641209919448554
0.8652166010959098
0.870977558601427
0.8670554943635792
0.8720240736713321
0.8682373914357129
0.8727952087842861
0.8691978985526089
0.8735896321882288
0.8770872344610348
0.8770392817557596
0.8965501761109392
0.8920184656352654
0.8915189338975383
0.8876614357619115
0.7834659541315246
0.7695939337727798
0.763468781287014
0.7594761249927976
0.756069879641693
0.8996915974795184
0.9024450262612964
0.9122017280933343
0.8647516770532444
0.8553663100904266
0.8528738198722645
0.8158636540271095
0.8549659760793022
0.8225332171098422
0.8134767420125424
0.822490429656334
0.8146559807984728
0.8009099137626908
0.8079008536149602
0.7933144287309708
0.7980523440337965
0.81540243037783
0.8983571292326211
0.7939059408162524
0.7806683287485279
0.8225676944039616
0.8304826851400011
0.8494833648344966
0.9477659572643828
0.9491389630020216
0.9437697618178603
0.8963819596493722
0.880859358318324
0.8385447982962868
0.7017936273094505
0.7027497816254081
0.7864289092226321
0.8393104360949041
0.8510267809730032
0.9448600702262493
0.9555047768483788
0.8794536494926934
0.8788066349451618
0.8845920787305878
0.9151609723355171
0.9116764692662757
0.9192722547716453
0.8411753202417691
0.8460440360949301
0.8545189348888982
0.8445224019139512
0.7848778955807864
0.8446132260485782
0.8454445779649985
0.9483089022957026
0.758823195863122
0.7507498345284145
0.7510939026750504
0.7460246176342908
0.8062576819288357
0.824402488313733
0.822333804194155
0.9404582697555214
0.8607027026288157
0.90324038826454
0.903635603404332
0.8935558418197572
0.8921759408298034
0.8847111099285229
0.8868472151213231
0.8748309173779519
0.9270071108374683
0.9291958447482453
0.9200189890672725
0.8036736258623998
0.8015445802030117
0.7869917100799291
0.7909166875149003
0.879791649618113
0.8751287254579939
0.7802750165580801
0.8951082239647132
0.8879156995514593
0.8841524666474212
0.8064565217278404
0.8091301463457403
0.9282467713958323
0.797758167782745
0.799626134340173
0.9449985507862043
0.9708079557799899
0.7528821596119372
0.758844360756819
0.7983702529620399
0.9342279398668577
0.9395682893415156
0.907587000371768
0.8657293132609136
0.9457428855262431
0.8464731861287168
0.7982211945595405
0.8361073970646823
0.9291709777919187
0.8741800526168241
0.7814922244002923
0.8594301343018472
0.9498709541379824
0.9560058186272461
0.7161351694449655
0.9701995390349809
0.9729254139643406
0.8765829313764385
0.8821183734116876
0.8861785873490305
0.8884671753925217
0.8817166087913444
0.7297030731517493
0.7231167052472229
0.7855590594462688
0.9060526997165934
0.8752208105601024
0.9080127138237348
0.9643183111338113
0.9701379003782299
0.7466173303847631
0.7388169723063399
0.819382038092519
0.7855719554445274
0.7811392962992098
0.9428380144147702
0.8298452785546419
0.8053547111120877
0.8623636690668479
0.9804182535828174
0.9807562660489015
0.8168945760202073
0.8129457070889524
0.8917586794824608
0.916864593560551
0.8697099251674284
0.8654847225648675
0.6806060805710961
0.9834552021042974
0.8626526388122869
0.7418531604119685
0.7526799822072797
0.772864659814537
0.8610643743172138
0.8258175660821672
0.8180729420652386
0.8291918910998748
0.8234702676705031
0.8329558559543923
0.8268479769830007
0.8168126543970164
0.818000380056294
0.8052672703477902
0.8106562623014836
0.8376111064086275
0.8702772189119105
0.8680615212250061
0.8578868060744858
0.7003065343088678
0.5530137515919814
0.5562745367190367
0.6897667590691072
0.6078370831905862
0.594231679641499
0.5871672328941279
0.5481410305099477
0.7885754424802146
0.7824814989805413
0.8231315238601632
0.823112397656436
0.8317912568575367
0.9787394311098963
0.9837387464772416
0.8355912004937164
0.837189551211195
0.8328647114608255
0.7489060756473219
0.5000904120334644
0.8229742523522945
0.8135241291160992
0.8002918644767754
0.8071208662832874
0.7892079131102121
0.8489561322404576
0.8408040384437511
0.6518595701576623
0.9122343791768259
0.9302575847435237
0.8981758185801949
0.8477586141247727
0.7665884395061946
0.7735184097662036
0.8188471020835212
0.8184475224786698
0.9346887756763297
0.9293341652138472
0.8443437026128116
0.89362214277392
0.8977212496675536
0.906306709405819
0.9097673887603219
0.8392113939566787
0.852699165888752
0.8381366647613989
0.8280209702906184
0.8840416742172379
0.8799576017663898
0.9143969442942621
0.7850135362112036
0.7559440912121353
0.6616054201548096
0.6909377298286048
0.7177753858324647
0.7287801368718564
0.7490198948657185
0.704157024056961
0.7459239131375781
0.7696780624780011
0.7460698421276845
0.8772123512709898
0.7637060068214381
0.8198110176960959
0.8205461813666488
0.911942612125678
0.9161474645015644
0.6594506277478438
0.6733535024572075
0.8927118263085572
0.9769225599418179
0.9803603850346394
0.9833052599476944
0.9834711487850408
0.9861177263224357
0.985754097225059
0.8246253383152105
0.8343869679740692
0.8360200447677306
0.8434715847187904
0.8435419622199203
0.8487406204816365
0.8497161132449279
0.8488385460841579
0.8530243327187594
0.8460524231897553
0.854089934301572
0.8537193792645791
0.85697858602862
0.8608171573453647
0.8518012222453664
0.8335269136878071
0.8518814509475277
0.8307457363420271
0.8434029347305533
0.8618035977591106
0.7350072312867015
0.7824838070012664
0.7164778493112705
0.7217272183883241
0.9119097130887778
0.898279128963058
0.8611099861216033
0.8516072396523754
0.8555510780673052
0.847996402909397
0.8517452258860586
0.8480326315834602
0.8496507285114283
0.8457386982937294
0.7356941702743841
0.8982173887768143
0.8274229035470552
0.8403855344560434
0.8766166687369515
0.875991773117783
0.894656248610001
0.8698628910755423
0.7509092772708399
0.7528438060966329
0.75967253041392
0.762049911201686
0.7673706915157604
0.7620129709282301
0.8899498964630321
0.7810565494150966
0.7807447546844204
0.6330344681014491
0.8414980814258896
0.9787676500974856
0.8836593481041518
0.7454389628864352
0.8538405328770683
0.8569641643529392
0.9830869446202571
0.8219430454540171
0.8166838561535664
0.8190746091980723
0.8139300487437836
0.8165280052258109
0.8125531618763194
0.8097806504339937
0.8126999598186668
0.8349118028190948
0.8144211490776694
0.8149662827373974
0.8233048222056598
0.8108607366956597
0.9246996061441158
0.974140134683095
0.8130452182511031
0.7915765157244312
0.8110049095787727
0.8197976652084039
0.736754567005796
0.7211396522727745
0.7348816026447806
0.7202420469820537
0.7062041102786829
0.7025944454762112
0.7139615295218338
0.758092733184253
0.8075868285136424
0.7332059898888659
0.9081753128189122
0.8184019040496059
0.8955120609887836
0.7769947120861865
0.9057911852108771
0.879272178627417
0.8864227629742034
0.818663925646307
0.8597268415397854
0.856043226271372
0.8356787573803811
0.8270041842362856
0.7954839210448188
0.7731475826984125
0.9711922892767086
0.9588501883629148
0.9859455671571734
0.7429309947529058
0.8858225324711849
0.8994299173657659
0.9144499356619407
0.940871741623823
0.8080117970714868
0.8423714500030498
0.8736180062337071
0.784206045147952
0.7879249720748185
0.7855817857469821
0.7814844266882541
0.8536600143294412
0.8614840377521438
0.787459968840586
0.8038318281068403
0.8927316237065782
0.9131879016898736
0.7952217366233527
0.8303116697221489
0.8295799683983784
0.8643172569648412
0.8417063451326385
0.9030496416063367
0.7737877595452829
0.6934246718643275
0.8999660128276835
0.8011220678586722
0.9324562419819626
0.8486400623303489
0.8423217004834095
0.8461767640745753
0.8390069530040069
0.8316804734534095
0.8027675760738733
0.7780055607837724
0.7908667091862697
0.8081817637815262
0.8061102497961832
0.808242302510791
0.9469006021798668
0.9407344838168743
0.9394469354562105
0.9368870907787231
0.9314304908549036
0.9338663018054469
0.939791887859413
0.9115968755662894
0.7973121816225526
0.7825542627046962
0.7873795810796208
0.8993619612495315
0.9203364960556142
0.8809502400978835
0.8460400690944182
0.8724024883826624
0.86967979824534
0.8667791640615584
0.8755527801233625
0.8393563508260963
0.7802346424404284
0.7749026922561134
0.8255016369378241
0.821465613290282
0.8101441561221314
0.8311295825655169
0.8275678229676451
0.8201705321418057
0.8223818188380997
0.6774688409607349
0.5644078419325202
0.9805039068795215
0.9831736443625397
0.9829155433582834
0.9844895641386485
0.8525267245918747
0.9348339274546554
0.687860433325439
0.7215820313458953
0.7877339302466144
0.7888048665051588
0.799172379344016
0.8168126689064344
0.8118929813853756
0.7281945432587068
0.8304282868697448
0.8955406079236082
0.9846986279082741
0.8421401258905017
0.8451935047874441
0.8425290580488446
0.9686822820577442
0.8978403823452373
0.8995324933825461
0.8933107944580276
0.8238648775618349
0.8187803841417199
0.8125332925014296
0.8153951336716442
0.7757951853197567
0.7789380930388978
0.7663379083746195
0.9877345430296715
0.9569548054133834
0.9547607450276668
0.960655857875553
0.9573545958612848
0.9629158214162189
0.9613113692951568
0.9670594238778725
0.7762408258669377
0.7623103068183773
0.9324387650466459
0.9654321625104834
0.8869198328878153
0.9535113892040176
0.958028388394549
0.9368760447756693
0.8913393933651663
0.8878573960252076
0.8657618075754966
0.7974722750132892
0.8651447094149439
0.9512754676290365
0.8483560635512339
0.8511966361246347
0.8559936534369006
0.8464182669779904
0.8520498661218108
0.8548319460041042
0.8510537813289766
0.8463939141113287
0.9086121454181144
0.8543307959651272
0.855834293168078
0.9282185833308492
0.9130864424372314
0.8115600490644143
0.7658469695131506
0.787625512839433
0.8384180160319136
0.8041982586147061
0.8083048269543336
0.8182592014136348
0.9294463828221413
0.9327375566152153
0.9336144307196863
0.9339234290052453
0.9604439801105438
0.8083841308461305
0.9173145394957782
0.8714296791739345
0.9393536419246399
0.8733732311723045
0.8061268777068012
0.8806101314169196
0.7810864402939294
0.8778925703718261
0.8841781108988002
0.8627481333275365
0.8848531578327562
0.919919393948458
0.9189860688124684
0.9245225336770075
0.8573905393297193
0.896974943895131
0.8469371832889014
0.8616166528014385
0.865887810622746
0.7716375030518049
0.8474533988154254
0.9798113038078866
0.8666462750071999
0.9186909689649413
0.9172585200284205
0.9215824386544157
0.9153785081522496
0.9195756400057811
0.9275012004894818
0.9021295954761391
0.8789875134534328
0.8767675563682765
0.9096995191698531
0.8595966867076996
0.9559123489498219
0.893693295055517
0.9117455354321232
0.9863675196635117
0.8738108395451654
0.8276515185677119
0.9017776277300458
0.8049418950737784
0.48748578190907765
0.9740458272262106
0.8456956793842242
0.8457333019364386
0.8618847296764564
0.8228197021380703
0.8387101726004697
0.8104159730637949
0.8592073943918496
0.8913767251797234
0.8757851153173928
0.8393511578563172
0.8882174139215745
0.876241971302747
0.8756862022424401
0.8930348047296776
0.9200207899244414
0.8314776361706108
0.904685090700155
0.9001833502206877
0.8956432539298005
0.8932172467862038
0.8808796527064425
0.796504444834226
0.8671473980742039
0.7751354462244335
0.8554794534080773
0.8175770965576321
0.9008606851680823
0.8723014507888507
0.8959857580952495
0.8902547386084076
0.9129479895826893
0.925462844477623
0.8064168593075373
0.700443170708544
0.8543101285524427
0.8964019404106742
0.7894365202491018
0.8682425272910516
0.9375047695090847
0.8327296228258922
0.8697788909096811
0.8733389333812781
0.8189825557536236
0.9539319368627253
0.7932491099091731
0.8437171697727915
0.8908929168121971
0.8913258223933885
0.9450360337740483
0.9387323146542934
0.9297358409056949
0.8788860971456605
0.9699440212904165
0.9842288485231814
0.9181840333895981
0.937443035909276
0.9927871865949364
0.987613760805496
0.8756254143981101
0.8565524727554169
0.9761101850668447
0.8758868142350852
0.8548839955370012
0.8366004472698818
0.9474891644884083
0.9536021337955107
0.8602214603170519
0.9105724279199128
0.9203757612407061
0.8351612973716409
0.7927605084954422
0.8774610783553007
0.8059366300556761
0.6837132660189983
0.8765717774975958
0.9139113502839846
0.7310527646258189
0.7321792970794971
0.8979808821984279
0.8719535769740706
0.9064030092053579
0.8490608729233917
0.9429656605659318
0.7601132164391595
0.6949156650026385
0.776940095341595
0.8863168323307568
0.900732470642005
0.8131363355441327
0.5630453387419707
0.9675170646050371
0.9560668762162751
0.8521843323611057
0.932241355556396
0.8797066830789315
0.9304586335088741
0.9373429883929915
0.9282784957567386
0.8295588406485634
0.8340126830154373
0.9646968626904374
0.9203146582064848
0.9204505790020809
0.8618972530737319
0.9645043410356008
0.8867207747816582
0.8646374826838662
0.8142529161426645
0.7861352747465766
0.8612318296211344
0.838262950653174
0.916003817143273
0.8363576231207654
0.7869466647107234
0.9608855702951477
0.8562322766762007
0.8509967912805435
0.9538275645852584
0.9170386154226932
0.9423284663340638
0.9727874069327145
0.8603198765569922
0.6470919218849238
0.8904549242964473
0.9219659616059698
0.9266307578786115
0.8061863764491477
0.8592791885188645
0.8543188457470842
0.7258784495924254
0.9376340452916186
0.8285888087746829
0.7924098531217049
0.8738771862632577
0.7791050007593346
0.7976824108991952
0.8020232355100475
0.9183599591969368
0.8480513154298553
0.9203647118236932
0.8531642170407597
0.9626169610739974
0.9501825989755904
0.8466496391377769
0.9487590961509728
0.9118046757261791
0.8574178932513518
0.80416232557714
0.8327085092445399
0.8640105510359283
0.8443636247560601
0.9234312029968746
0.9596405988985152
0.6652110050093937
0.6947352598605793
0.7143157407170069
0.7532333150210614
0.7342785276196137
0.844103010170005
0.8751843967552898
0.9082603651307343
0.7870916201137297
0.801022057426119
0.7789594995745642
0.8079175134942052
0.876181108468613
0.8872283061767248
0.8587152886406411
0.8853265161365975
0.8675232029426582
0.7783118003628979
0.7576048222268166
0.8391439111402818
0.8506495564134604
0.9714515366501608
0.7684860957207047
0.9812795889295416
0.8005529019294657
0.9372971367761603
0.861252792190647
0.9619065021392961
0.8428064950382377
0.8241593581338653
0.795943238359721
0.8786003545171541
0.9007864299474156
0.8793783785320951
0.9368987561023603
0.8519461013610355
0.8346991080789327
0.9171576478324321
0.957300787726394
0.778407348547968
0.8960201609869315
0.8331061930781855
0.936919200046021
0.8728034946261933
0.8723648387141015
0.7822875080482344
0.8468283723205217
0.33598912181568363
0.8592016812174353
0.8478892487547309
0.8181727138985457
0.8062770361867725
0.9241987129546794
0.9508373095941255
0.8083883989205861
0.7732186137291903
0.9569930740930281
0.7724686760556699
0.879722212955038
0.7936663150359489
0.8404458950040351
0.8381871058874257
0.8656022660629707
0.8896101537433903
0.811145858617904
0.8065495777259888
0.7613005908093794
0.7743828598073552
0.8910738446256065
0.9378660472327892
0.824347367100776
0.8169449987417938
0.742452741856797
0.9261433090112484
0.8776413374968085
0.7776889431388097
0.8639657136715295
0.8357422262928106
0.8809865531634461
0.8835940976714545
0.8975422800041507
0.8675896001496944
0.8856089659066518
0.8588986107379009
0.889904853270989
0.8665579423820473
0.6972467065931138
0.7829430545861585
0.8435151802601604
0.8799013951674407
0.7804169754205684
0.9315527953366008
0.8648912494106763
0.8506415062524817
0.8846976717616943
0.8816744328144346
0.7600869841254688
0.8835862096280314
0.870698957552288
0.8944146433903034
0.7733556249033182
0.8190759334149356
0.6479021335080926
0.8821848992850785
0.9313219832082115
0.7897653663428518
0.8951623644633055
0.814032415134765
0.9224470023975533
0.7725244879549882
0.8129028263810453
0.7894530363958306
0.9073694485311088
0.8787968533010592
0.9087838699615226
0.8791727839978156
0.8749979001031285
0.8213968881429415
0.8534680772992629
0.7666587396453949
0.920877098940924
0.9386902431302997
0.8316926601191166
0.8599948149662588
0.8857985859628786
0.854555149091516
0.7929293348132839
0.9893679904211304
0.7879739038095028
0.8887038841523907
0.7768884331477598
0.8789860618138241
0.8617435571184721
0.8355571528354182
0.906086491244752
0.6501902379872622
0.7654702510607218
0.9500292721895944
0.924877623866184
0.844347524502658
0.8687390547859997
0.8259788979612575
0.8823353575996999
0.7563614890038941
0.830438132565713
0.8881643183970038
0.8967066246670174
0.8525651244501872
0.78764406289689
0.7439533438884119
0.9383337166576002
0.9433798516148322
0.7673148611488605
0.8439816661309785
0.8653013200847408
0.7124542405914345
0.8049026981326768
0.7037602251543223
0.6477077049688909
0.8155958355382864
0.8700817846030104
0.8281651002420247
0.9623073601461571
0.7785972954512699
0.9852863790054573
0.7818360335490856
0.8559680881954768
0.8803089007243726
0.776757068842742
0.7636963847901255
0.7775180901334781
0.8288338533631945
0.9182084617471692
0.8724210877080949
0.8679119812862751
0.8338282418313046
0.859475633436493
0.8573703269852598
0.901361946659624
0.6037413446870389
0.7953475674393194
0.847082587803029
0.7647182768462857
0.8354587918514943
0.8953097416792927
0.8942118731679314
0.8490902775410736
0.8713966690583146
0.8933602073014617
0.8061840167874826
0.8237355232374672
0.8094993259458116
0.7944296215583793
0.9314547118192756
0.8884620495303792
0.7706094995411501
0.8121299288496683
0.7944845019180325
0.8111017200969817
0.8575602063089519
0.8767772445325821
0.7718997861827529
0.8832589895673078
0.8654773813280826
0.9577245585230497
0.9350059372425676
0.705523175649463
0.8813933045303411
0.8393418400146362
0.7639733552837279
0.9420678577435723
0.8449378696070268
0.8756879540585506
0.9086777322752486
0.592822410339
0.8841489472917402
0.9683051275695319
0.8161850595356049
0.9911291701073934
0.7689625767136777
0.9417923781180196
0.8741239185058398
0.8891993145064059
0.8090227084195483
0.602574184516778
0.7271200116000095
0.9014492628264584
0.8502851782408127
0.7910709924672334
0.8375922278706935
0.8420186743678136
0.7852006066048621
0.9611574960047778
0.915917740751312
0.8200853068749054
0.9537341074515083
0.863545836460781
0.8139075587675128
0.8926294625561095
0.940318181284877
0.870413607572199
0.8472343715210914
0.8224412945791566
0.8142764184869195
0.9858411920451232
0.8320538538678764
0.8252006447646282
0.7894820090762116
0.8207317189429367
0.8121351778557039
0.8741476167711438
0.8154648584207832
0.7533633847344986
0.9025690284906982
0.9341437636951412
0.9425136984536207
0.8632315366894039
0.9832968889071064
0.8935976872523506
0.85721374225124
0.8052276721757826
0.7636630215810702
0.7694773692795683
0.6871716876353999
0.8467318697516865
0.8355139754825703
0.7719339747313985
0.6294203337635444
0.7996565308963679
0.7625430570756766
0.8731394443407008
0.7901251717479224
0.8796293217265454
0.9411846264294659
0.782538236938929
0.7380539967562063
0.843644992874229
0.6852079849977032
0.8197502399308518
0.6918132287491089
0.8613111957986934
0.8974106406765956
0.7119912308676639
0.8610320969386531
0.9110027841367915
0.9011339548573625
0.9062121667842136
0.9311443278965301
0.9356981789239337
0.9358814225538505
0.8666348441702433
0.7858509897646136
0.8633927709409628
0.8712585720672574
0.8486968757232377
0.9611737437202788
0.7832764500919103
0.7817577595305599
0.8419074387573324
0.791962886836942
0.8715672148960224
0.9945410392847234
0.9963580508010842
0.8691300177196422
0.773370765648334
0.8696400292618996
0.9548912933901845
0.9899407724579177
0.8253453631755638
0.8322743389748072
0.7835141486663127
0.826665277533223
0.8619934291458164
0.8273946718114752
0.7939071331334248
0.818773140608029
0.7661219977682702
0.8611174918012495
0.8974635855860266
0.8475329055323336
0.7740070416180272
0.7892849638770333
0.952395603191378
0.8450389880970504
0.8820654882858021
0.8548984424695084
0.8264893716968189
0.788778156548924
0.7814186315797216
0.8577945918908505
0.7171919701751737
0.8582104285167669
0.8796268936548512
0.9378006331357118
0.8189963964666023
0.8847450805217404
0.8362744361920825
0.8817515763897683
0.7829670470466941
0.8805369373811497
0.8334718238963311
0.9339474034641179
0.8385237762505625
0.8409589462182824
0.917852449290268
0.8382046134686122
0.8599674627688397
0.8479097598520662
0.7409586041388323
0.9510422078066494
0.8445208552761094
0.8623407133120126
0.7855546877451125
0.9864787945466021
0.901391644855199
0.7119361236234245
0.8622301042898481
0.9611428586491569
0.8794613897530847
0.8955996734400099
0.7898787686469424
0.9506041592102737
0.8215500967906507
0.835419991291929
0.7182582829911064
0.9059341723272875
0.9169147160962682
0.8772290780119464
0.9521932305129674
0.8883510916029345
0.8588430803408863
0.959696543017918
0.9428488602241777
0.774924166852108
0.837992180410238
0.9215045168826067
0.9144432124208218
0.9826345441545086
0.7066267081635119
0.8656587356089555
0.7146022117518261
0.8152067176837203
0.8904001761265268
0.8223049882117744
0.7449685260157376
0.8765729397777526
0.8666638573366906
0.8127448245683294
0.7863429110029045
0.9249273558579476
0.8373069462011578
0.7977323925965868
0.8209240082277053
0.8765244911420106
0.9261776491397076
0.798850949744104
0.8580905873318331
0.7223072095225823
0.942451108112228
0.8566586003214622
0.8156481700728241
0.8292502493071934
0.9114353227186357
0.8696096348163664
0.784038948026183
0.849726639902591
0.8981517740287048
0.8570686617114532
0.8165046405505904
0.8606321314268027
0.8307573701930989
0.7818386692838275
0.9386163094845412
0.9752408342368397
0.8741772667671606
0.8849998211003246
0.8925632274755863
0.8591857880274739
0.9680287130077831
0.9067138463502727
0.8540380832290225
0.8086186218969255
0.86988189024933
0.8084070085468743
0.8513512828699464
0.8181862503389058
0.8871049894790399
0.8603041279847774
0.8164755281738153
0.867082000391295
0.9350384957880894
0.8477324314067208
0.8515012653606739
0.837245901908198
0.9135309573414434
0.813413507924608
0.8183825782180106
0.8382169088106882
0.6221192084820377
0.8173403631986541
0.846768472988655
0.6852649360638301
0.4799610548480425
0.6077147656902651
0.7721164160859267
0.7577298604720847
0.9062633655912863
0.8558815137747361
0.9572443564894637
0.8175980316539787
0.7710031703614134
0.7909242750937453
0.9736403500663441
0.8390851003937017
0.8312457882839935
0.8894904171204213
0.8592350317997086
0.7255416347676449
0.9404936737441386
0.813784496694909
0.8599919306002233
0.822968223629944
0.816185041090888
0.9735661612159847
0.7891896548028533
0.8362005364790973
0.7852264148100028
0.8180941740020488
0.9075681332624479
0.9369202666825502
0.9889458358915982
0.9440958150340498
0.8380328756890918
0.8448053473148742
0.7361806651538264
0.89559185753941
0.8230591639507172
0.759526645259513
0.8295384679073322
0.8035045910557512
0.9200715591271571
0.823468659681022
0.7740714127550469
0.7767885058041868
0.7671094815393102
0.9184546885933801
0.8305899550970649
0.7450468274788387
0.836931472165008
0.9959462694270579
0.9044882709449993
0.8219973288443433
0.7480424606065746
0.8461016498838375
0.9669554873183527
0.8259544707969722
0.832156207565422
0.9342103909156934
0.8893630652602403
0.8937901766609876
0.7880899741119721
0.8846245790347234
0.9826173053726757
0.85233467093787
0.9432391398959731
0.7223463692522223
0.9812603003011109
0.6956937722344191
0.7567334102353666
0.7328318890302392
0.8691118484459193
0.8951739867223155
0.6545512660294674
0.8586724747259423
0.9780729347321502
0.9589499735203083
0.8131882389945267
0.9098151908812144
0.8552503549381649
0.9550557195035282
0.8337731601163824
0.4453606359964534
0.842196672547568
0.8086801037501353
0.9898995623110438
0.913708882820356
0.8187060067943169
0.9036576675191258
0.9919706527800479
0.7792824135758719
0.9035108311587632
0.7855075853030898
0.7446274026412696
0.9797105044444175
0.8083083170253121
0.9503406828433955
CELL_DATA 4886
TENSORS stress float
-1.1837081173173036e7 1.313498181853124e6 0.0
1.313498181853124e6 1.6749620830565026e7 0.0
0.0 0.0 0.0

-1.3395499391317738e7 2.4945662733962e6 0.0
2.4945662733962e6 6.681894085026068e6 0.0
0.0 0.0 0.0

-7.102118770603629e6 1.4290233270466346e7 0.0
1.4290233270466346e7 3.952422676065316e6 0.0
0.0 0.0 0.0

-5.937527960965213e6 1.4002838965468282e7 0.0
1.4002838965468282e7 7.182903004487595e6 0.0
0.0 0.0 0.0

-5.210119093288367e6 1.4870259250889346e7 0.0
1.4870259250889346e7 2.0510194575540503e6 0.0
0.0 0.0 0.0

1.142962348480621e6 3.9150537732257573e6 0.0
3.9150537732257573e6 -4.589664229274885e6 0.0
0.0 0.0 0.0

1.7442512504246484e7 1.3240982096086245e7 0.0
1.3240982096086245e7 3.2763704805617067e6 0.0
0.0 0.0 0.0

5.7221669387327805e6 5.356290672349402e6 0.0
5.356290672349402e6 -1.7603792516447578e7 0.0
0.0 0.0 0.0

-1.1924182237338807e7 2.8884510284464643e6 0.0
2.8884510284464643e6 1.7866147978607453e7 0.0
0.0 0.0 0.0

-2.270060448122686e6 1.347469192025076e7 0.0
1.347469192025076e7 6.16225546753105e6 0.0
0.0 0.0 0.0

-2.491455780949534e6 1.2802802389697678e7 0.0
1.2802802389697678e7 -2.4845560390797723e6 0.0
0.0 0.0 0.0

-6.576909206485628e6 1.789278165537563e7 0.0
1.789278165537563e7 4.14974667359412e6 0.0
0.0 0.0 0.0

4.312859472797936e6 8.173000288967092e6 0.0
8.173000288967092e6 -1.689224301123593e7 0.0
0.0 0.0 0.0

2.999474257925473e7 1.5689035030886598e7 0.0
1.5689035030886598e7 3.098538400327849e6 0.0
0.0 0.0 0.0

-2.690769066375306e6 1.3130865088086054e7 0.0
1.3130865088086054e7 -2.5775282445390387e6 0.0
0.0 0.0 0.0

3.0829168782964097e6 4.800967419271744e6 0.0
4.800967419271744e6 -9.226801565695267e6 0.0
0.0 0.0 0.0

199503.86085407902 1.1310148673789762e7 0.0
1.1310148673789762e7 -1.1074076096721007e7 0.0
0.0 0.0 0.0

2.0773506521863993e6 1.0245160013420856e7 0.0
1.0245160013420856e7 -1.3383225654025014e7 0.0
0.0 0.0 0.0

-5.655502538013469e6 -610970.3642651158 0.0
-610970.3642651158 7.4331754581412515e6 0.0
0.0 0.0 0.0

-3.89719080933454e6 1.4575690101016974e7 0.0
1.4575690101016974e7 -1.7289611928248813e6 0.0
0.0 0.0 0.0

2.143680909456194e6 8.517422160572411e6 0.0
8.517422160572411e6 -9.293533000485076e6 0.0
0.0 0.0 0.0

-5.921125236521531e6 1.7811364565407164e7 0.0
1.7811364565407164e7 3.810906899687288e6 0.0
0.0 0.0 0.0

-2.8315299981786003e6 5.440178539116969e6 0.0
5.440178539116969e6 2.518184750541524e6 0.0
0.0 0.0 0.0

-5.706122390596824e6 1.4230459769443296e7 0.0
1.4230459769443296e7 1.678649505396672e6 0.0
0.0 0.0 0.0

2.764003238781754e6 9.704216709350713e6 0.0
9.704216709350713e6 -1.6051321618304884e7 0.0
0.0 0.0 0.0

622862.7453442216 2.3005140504148465e7 0.0
2.3005140504148465e7 -8.732645617541395e6 0.0
0.0 0.0 0.0

1.1241491454381442e7 1.3257307153809356e7 0.0
1.3257307153809356e7 2.6638736755530676e6 0.0
0.0 0.0 0.0

-1.114430048349227e7 7.985557471625836e6 0.0
7.985557471625836e6 1.3215323935741186e7 0.0
0.0 0.0 0.0

3.369264805229298e6 4.969200848849137e6 0.0
4.969200848849137e6 -8.910765081531234e6 0.0
0.0 0.0 0.0

-535579.9627383829 3.815472025878415e6 0.0
3.815472025878415e6 -187280.84151662575 0.0
0.0 0.0 0.0

-3.9267425187303256e6 5.82522746200346e6 0.0
5.82522746200346e6 1.9307962928822932e6 0.0
0.0 0.0 0.0

1.0888451772685999e6 6.931129692298251e6 0.0
6.931129692298251e6 -5.358260743260696e6 0.0
0.0 0.0 0.0

-1.4652527015555874e6 1.1337465572767107e7 0.0
1.1337465572767107e7 3.5667904857793506e6 0.0
0.0 0.0 0.0

-250575.34326019612 1.2677463760842161e7 0.0
1.2677463760842161e7 -951570.568697003 0.0
0.0 0.0 0.0

-6.108147694398662e6 1.359165297860798e7 0.0
1.359165297860798e7 4.199150262268505e6 0.0
0.0 0.0 0.0

-2.723630461473774e6 5.598271550973702e6 0.0
5.598271550973702e6 527028.659886596 0.0
0.0 0.0 0.0

-93880.00036526727 8.793362007848104e6 0.0
8.793362007848104e6 -4.349761699866989e6 0.0
0.0 0.0 0.0

-5.530235475849084e6 1.356045536767686e7 0.0
1.356045536767686e7 4.1230033085520817e6 0.0
0.0 0.0 0.0

435042.96525646094 1.131483103379246e7 0.0
1.131483103379246e7 -1.5011442773462556e7 0.0
0.0 0.0 0.0

-6.217873081390006e6 1.5960878947484465e7 0.0
1.5960878947484465e7 4.359162277567105e6 0.0
0.0 0.0 0.0

3.884168907123084e6 8.336798152510944e6 0.0
8.336798152510944e6 -1.828429361227366e7 0.0
0.0 0.0 0.0

-8.133878374677242e6 1.4949624094056526e7 0.0
1.4949624094056526e7 3.7220330510826027e6 0.0
0.0 0.0 0.0

-6.081973131602719e6 1.5571352838423623e7 0.0
1.5571352838423623e7 4.042173600677564e6 0.0
0.0 0.0 0.0

-7.246473393340941e6 2.1120781953331153e6 0.0
2.1120781953331153e6 9.909750990808617e6 0.0
0.0 0.0 0.0

1.8899480021065138e6 8.521272627337087e6 0.0
8.521272627337087e6 -1.0179811315490268e7 0.0
0.0 0.0 0.0

-9.379676589968655e6 9.489665138071101e6 0.0
9.489665138071101e6 1.232416623540647e7 0.0
0.0 0.0 0.0

-1.199980911121787e6 1.3231526615323396e7 0.0
1.3231526615323396e7 -5.709281443905448e6 0.0
0.0 0.0 0.0

-220755.43532538833 8.54953738995264e6 0.0
8.54953738995264e6 -4.784485364585732e6 0.0
0.0 0.0 0.0

5.1789400189839685e6 5.328163852184048e6 0.0
5.328163852184048e6 -1.520705636493585e7 0.0
0.0 0.0 0.0

736225.2406149248 1.1751339990020795e7 0.0
1.1751339990020795e7 2.4540844420023956e6 0.0
0.0 0.0 0.0

-5.068989317875942e6 1.553495348047874e7 0.0
1.553495348047874e7 2.9064133732221825e6 0.0
0.0 0.0 0.0

-7.516504709696146e6 353953.12448383035 0.0
353953.12448383035 5.999933141950937e6 0.0
0.0 0.0 0.0

5.270796088071212e6 5.286953187921201e6 0.0
5.286953187921201e6 -1.5450298746347306e7 0.0
0.0 0.0 0.0

-4.822276572630539e6 1.44940758793612e7 0.0
1.44940758793612e7 2.7537554282728317e6 0.0
0.0 0.0 0.0

158248.70179966628 1.2348026582289154e7 0.0
1.2348026582289154e7 3.447701058722102e6 0.0
0.0 0.0 0.0

-5.400902694256165e6 1.4762579680270826e7 0.0
1.4762579680270826e7 4.380920091947522e6 0.0
0.0 0.0 0.0

5.729283829241671e6 5.604700534343841e6 0.0
5.604700534343841e6 -1.8757712671869803e7 0.0
0.0 0.0 0.0

-5.930490465664607e6 1.6110401492788002e7 0.0
1.6110401492788002e7 4.617753007814833e6 0.0
0.0 0.0 0.0

-2.474556401656124e6 1.3766618872277869e7 0.0
1.3766618872277869e7 1.1457984175601903e7 0.0
0.0 0.0 0.0

2.8288115361220823e6 8.081223968525076e6 0.0
8.081223968525076e6 -1.1248580991976112e7 0.0
0.0 0.0 0.0

479111.7070222455 9.77991448643305e6 0.0
9.77991448643305e6 -7.418615983331887e6 0.0
0.0 0.0 0.0

8.476355653155668e6 1.2692960793643007e7 0.0
1.2692960793643007e7 -8.841627385539968e6 0.0
0.0 0.0 0.0

-1.8826895037918375e6 1.2565227732138608e7 0.0
1.2565227732138608e7 -3.574984142199424e6 0.0
0.0 0.0 0.0

-1.2122354710258113e6 4.363319936694808e6 0.0
4.363319936694808e6 -191097.36477045846 0.0
0.0 0.0 0.0

470447.03693453385 5.610742576222644e6 0.0
5.610742576222644e6 -3.385083793809135e6 0.0
0.0 0.0 0.0

4.834607015858643e6 5.834795067925409e6 0.0
5.834795067925409e6 -1.501199597300465e7 0.0
0.0 0.0 0.0

4.712933116497361e6 7.500710564257393e6 0.0
7.500710564257393e6 -1.681057662756788e7 0.0
0.0 0.0 0.0

-5.253493334606299e6 1.4168272796626199e7 0.0
1.4168272796626199e7 2.1755424001331907e6 0.0
0.0 0.0 0.0

-3.8706026245105145e6 1.354496860585626e7 0.0
1.354496860585626e7 9.589454142547674e6 0.0
0.0 0.0 0.0

6.573199795298222e6 1.2540576772285104e7 0.0
1.2540576772285104e7 3.304511412336778e6 0.0
0.0 0.0 0.0

-8.842354400985803e6 2.4999433984327815e6 0.0
2.4999433984327815e6 9.27647744171041e6 0.0
0.0 0.0 0.0

3.090358247023546e6 9.551292371739235e6 0.0
9.551292371739235e6 -1.5055416267305978e7 0.0
0.0 0.0 0.0

229346.1766131008 1.1417688787822528e7 0.0
1.1417688787822528e7 -1.4627647957767133e7 0.0
0.0 0.0 0.0

-3.5806749439947978e6 1.3158360466712194e7 0.0
1.3158360466712194e7 1.866837695629863e7 0.0
0.0 0.0 0.0

-6.655901127496196e6 1.388298646379131e7 0.0
1.388298646379131e7 7.778173510920506e6 0.0
0.0 0.0 0.0

-9.541954446494635e6 9.491060877435531e6 0.0
9.491060877435531e6 1.174860949575173e7 0.0
0.0 0.0 0.0

-8.127900304686808e6 6.4432357720143655e6 0.0
6.4432357720143655e6 9.27328313741029e6 0.0
0.0 0.0 0.0

551457.5428902227 1.1106738292376846e7 0.0
1.1106738292376846e7 -1.0850379637446256e7 0.0
0.0 0.0 0.0

846753.2606442622 1.1369826044422189e7 0.0
1.1369826044422189e7 -7.7824685119106015e6 0.0
0.0 0.0 0.0

798201.7182889502 9.844470989262387e6 0.0
9.844470989262387e6 -8.301894177033348e6 0.0
0.0 0.0 0.0

4.0252173971063546e6 1.6002190451799233e7 0.0
1.6002190451799233e7 -6.994540198466398e6 0.0
0.0 0.0 0.0

-7.119218515464437e6 -5.116323725346664e6 0.0
-5.116323725346664e6 1.0143033418372363e7 0.0
0.0 0.0 0.0

1.6862721901764306e6 1.070703177461147e7 0.0
1.070703177461147e7 -3.874614029605818e6 0.0
0.0 0.0 0.0

-6.796622083274319e6 1.8739420587857265e7 0.0
1.8739420587857265e7 3.486241612259737e6 0.0
0.0 0.0 0.0

-5.878374570562178e6 1.4017570705098212e7 0.0
1.4017570705098212e7 7.207117214688657e6 0.0
0.0 0.0 0.0

4.0299003153774524e6 5.794462116887963e6 0.0
5.794462116887963e6 -1.0980239113697786e7 0.0
0.0 0.0 0.0

1.0084674875088418e6 6.432508976952056e6 0.0
6.432508976952056e6 -5.954624127626229e6 0.0
0.0 0.0 0.0

-882015.0789747767 1.0480158109113881e7 0.0
1.0480158109113881e7 3.1406205564957256e6 0.0
0.0 0.0 0.0

-4.459849619347749e6 2.4944680914490625e7 0.0
2.4944680914490625e7 -1.177559146486607e7 0.0
0.0 0.0 0.0

-1.2862789213027682e7 2.7131214505223897e6 0.0
2.7131214505223897e6 2.1543663645162582e7 0.0
0.0 0.0 0.0

1.2761975516538555e6 1.2427189519117722e7 0.0
1.2427189519117722e7 -6.408760828214984e6 0.0
0.0 0.0 0.0

710355.5157265384 1.1480136761077374e7 0.0
1.1480136761077374e7 -8.852156713501958e6 0.0
0.0 0.0 0.0

37677.42473826883 7.986202488079213e6 0.0
7.986202488079213e6 -4.7972622533299625e6 0.0
0.0 0.0 0.0

185189.28111900692 5.078061403221956e6 0.0
5.078061403221956e6 -4.1294328952368386e6 0.0
0.0 0.0 0.0

858255.3575734403 1.3510088613472443e7 0.0
1.3510088613472443e7 -5.16845045751818e6 0.0
0.0 0.0 0.0

260252.78902351204 1.139554941468688e7 0.0
1.139554941468688e7 -1.3065414167553762e7 0.0
0.0 0.0 0.0

5.552638667799171e6 5.305724329315513e6 0.0
5.305724329315513e6 -1.733870595045165e7 0.0
0.0 0.0 0.0

-6.834208825019253e6 1.3996132400012588e7 0.0
1.3996132400012588e7 7.27438533703066e6 0.0
0.0 0.0 0.0

3.708309432005805e6 7.826842778579469e6 0.0
7.826842778579469e6 -1.4370827711857934e7 0.0
0.0 0.0 0.0

5.866176450804407e6 5.69043123055222e6 0.0
5.69043123055222e6 -1.9291662494571716e7 0.0
0.0 0.0 0.0

-3.6587328571403213e6 1.329063729080987e7 0.0
1.329063729080987e7 5.223814788277368e6 0.0
0.0 0.0 0.0

-3.687181963964804e6 1.0397008331755621e7 0.0
1.0397008331755621e7 -2.0408781910333205e6 0.0
0.0 0.0 0.0

-4.0364749703926696e6 4.788470328941186e6 0.0
4.788470328941186e6 4.000007894664058e6 0.0
0.0 0.0 0.0

-5.267634596791603e6 1.5260134213175742e7 0.0
1.5260134213175742e7 3.467785471655205e6 0.0
0.0 0.0 0.0

215495.9121331307 8.059556430025617e6 0.0
8.059556430025617e6 -3.86139966632878e6 0.0
0.0 0.0 0.0

-3.505181263724937e6 8.752336173113076e6 0.0
8.752336173113076e6 1.789529533734054e6 0.0
0.0 0.0 0.0

-7.634287268457973e6 -4.0951901265041837e6 0.0
-4.0951901265041837e6 1.2642535395391826e7 0.0
0.0 0.0 0.0

949264.395152905 9.871844385901783e6 0.0
9.871844385901783e6 -7.7655916867469195e6 0.0
0.0 0.0 0.0

-5.945871979299493e6 1.7541566478552356e7 0.0
1.7541566478552356e7 3.7904203281448395e6 0.0
0.0 0.0 0.0

-1.9566546315474035e6 5.905286206441785e6 0.0
5.905286206441785e6 886078.2679266079 0.0
0.0 0.0 0.0

4.250514302474949e6 7.781444473613704e6 0.0
7.781444473613704e6 -1.8155393942227703e7 0.0
0.0 0.0 0.0

-927659.5335226969 8.176507451325848e6 0.0
8.176507451325848e6 -3.3231152703352557e6 0.0
0.0 0.0 0.0

41797.27905126149 1.2749970320410768e7 0.0
1.2749970320410768e7 5.912873221044515e6 0.0
0.0 0.0 0.0

1.3422347645761224e7 1.4439933585983599e7 0.0
1.4439933585983599e7 2.449687189128662e6 0.0
0.0 0.0 0.0

3.2537171869248925e6 6.292714924072823e6 0.0
6.292714924072823e6 -1.017485009069858e7 0.0
0.0 0.0 0.0

-528328.1275422354 1.1664546756001456e7 0.0
1.1664546756001456e7 -1.4470573863624956e7 0.0
0.0 0.0 0.0

3.310435583445454e6 6.37070337953644e6 0.0
6.37070337953644e6 -1.037423512307637e7 0.0
0.0 0.0 0.0

4.1758146332540605e6 5.781202780240091e6 0.0
5.781202780240091e6 -1.1351662286929129e7 0.0
0.0 0.0 0.0

1.3469597935496077e7 1.0773272304054117e7 0.0
1.0773272304054117e7 -638635.2634594096 0.0
0.0 0.0 0.0

-1.329762835031704e7 1.9616999184362397e7 0.0
1.9616999184362397e7 8.918632400899168e6 0.0
0.0 0.0 0.0

724450.093133213 1.1107378086112432e7 0.0
1.1107378086112432e7 -1.3900771745989261e7 0.0
0.0 0.0 0.0

-4.0899487297822037e6 1.3952541233160503e7 0.0
1.3952541233160503e7 -91564.42246707855 0.0
0.0 0.0 0.0

4.912538685557477e6 5.5693404287395915e6 0.0
5.5693404287395915e6 -1.328854659747734e7 0.0
0.0 0.0 0.0

-6.483331802194981e6 1.474504043631649e7 0.0
1.474504043631649e7 4.93119674877882e6 0.0
0.0 0.0 0.0

-2.742643889012406e6 1.8727991549547464e7 0.0
1.8727991549547464e7 -2.0197573611141886e6 0.0
0.0 0.0 0.0

-1.253883263463344e7 3.6051562264336403e6 0.0
3.6051562264336403e6 1.6351130090182303e7 0.0
0.0 0.0 0.0

-6.539495880937627e6 2.4100721976498272e7 0.0
2.4100721976498272e7 -5.51792771554702e6 0.0
0.0 0.0 0.0

-487421.7068574789 1.2947141163441777e7 0.0
1.2947141163441777e7 -1.237086142992222e6 0.0
0.0 0.0 0.0

5.352706207453748e6 5.248087702262284e6 0.0
5.248087702262284e6 -1.5863197746773507e7 0.0
0.0 0.0 0.0

9.60414035617015e6 1.0333790217559813e7 0.0
1.0333790217559813e7 -3.53283063443958e6 0.0
0.0 0.0 0.0

-3.799983505638928e6 1.303960873591015e7 0.0
1.303960873591015e7 5.247978323784047e6 0.0
0.0 0.0 0.0

4.426448149101734e6 6.6860623886009175e6 0.0
6.6860623886009175e6 -1.51886257078585e7 0.0
0.0 0.0 0.0

-3.473454970122518e6 1.4849896108062958e7 0.0
1.4849896108062958e7 -1.271380906807036e6 0.0
0.0 0.0 0.0

643408.2644255687 1.2379765548647286e7 0.0
1.2379765548647286e7 -6.535929317247345e6 0.0
0.0 0.0 0.0

-1.7151654601381845e6 1.1892091094450485e7 0.0
1.1892091094450485e7 -4.217503741778582e6 0.0
0.0 0.0 0.0

1.0301432281987891e6 1.1532772905435896e7 0.0
1.1532772905435896e7 -7.520087818935721e6 0.0
0.0 0.0 0.0

448492.80771871423 1.260487111971992e7 0.0
1.260487111971992e7 6.123824504843717e6 0.0
0.0 0.0 0.0

5.204292074378548e6 7.33562992941557e6 0.0
7.33562992941557e6 -2.302839247215458e7 0.0
0.0 0.0 0.0

-5.64054152745023e6 1.464922639725003e7 0.0
1.464922639725003e7 6.381192651556721e6 0.0
0.0 0.0 0.0

832260.1607487409 4.784450569886487e6 0.0
4.784450569886487e6 -4.327860600951258e6 0.0
0.0 0.0 0.0

-1.1064980768898364e7 6.735516551302367e6 0.0
6.735516551302367e6 1.3945717257196717e7 0.0
0.0 0.0 0.0

3.8937553567359755e6 5.825102289913019e6 0.0
5.825102289913019e6 -1.0388286968779791e7 0.0
0.0 0.0 0.0

-8.51689669669964e6 -6.915455333843245e6 0.0
-6.915455333843245e6 1.7039947935504247e7 0.0
0.0 0.0 0.0

1.2823570551315984e6 1.0509467860706283e7 0.0
1.0509467860706283e7 -9.585983676722208e6 0.0
0.0 0.0 0.0

961474.5526403601 3.811143961515417e6 0.0
3.811143961515417e6 -4.7472352612262145e6 0.0
0.0 0.0 0.0

113721.83032129635 1.2348194939404162e7 0.0
1.2348194939404162e7 3.437839670728069e6 0.0
0.0 0.0 0.0

-6.104822246471597e6 1.5911850840523968e7 0.0
1.5911850840523968e7 5.283940176401283e6 0.0
0.0 0.0 0.0

-9.527224270409696e6 -5.754277314382904e6 0.0
-5.754277314382904e6 1.5449663746446207e7 0.0
0.0 0.0 0.0

-2.0058911569857644e6 1.2957654187946673e7 0.0
1.2957654187946673e7 2.0808254649120816e6 0.0
0.0 0.0 0.0

1.0860749481801265e6 1.4125483669882638e7 0.0
1.4125483669882638e7 -5.451924896940253e6 0.0
0.0 0.0 0.0

-4.975258304402957e6 1.3730189274362335e7 0.0
1.3730189274362335e7 1.7372541945005325e6 0.0
0.0 0.0 0.0

-2.0452071506316853e6 1.44362117472601e7 0.0
1.44362117472601e7 -1.4806761931238463e6 0.0
0.0 0.0 0.0

-4.680930380009057e6 1.3887561104066342e7 0.0
1.3887561104066342e7 2.5958539314961955e6 0.0
0.0 0.0 0.0

-1.5016032404427503e6 1.0604468711070102e7 0.0
1.0604468711070102e7 -1.0033331793224366e7 0.0
0.0 0.0 0.0

4.388183989648653e6 1.5233588043151278e7 0.0
1.5233588043151278e7 -9.067797431025479e6 0.0
0.0 0.0 0.0

619209.6954082609 1.1279795185552193e7 0.0
1.1279795185552193e7 -9.101631634674503e6 0.0
0.0 0.0 0.0

-6.6827851264993055e6 1.2187576863766598e7 0.0
1.2187576863766598e7 9.786826238489032e6 0.0
0.0 0.0 0.0

-4.0613527413774957e6 1.2496255409835065e7 0.0
1.2496255409835065e7 8.012081178699256e6 0.0
0.0 0.0 0.0

2.5165935034500617e6 8.2321877346962225e6 0.0
8.2321877346962225e6 -1.0827048205720779e7 0.0
0.0 0.0 0.0

-3.378382255175987e6 8.249310554521305e6 0.0
8.249310554521305e6 1.3283357777350747e6 0.0
0.0 0.0 0.0

-7.359264194186807e6 1.7929791531223837e7 0.0
1.7929791531223837e7 5.787809048867555e6 0.0
0.0 0.0 0.0

-7.926739185689501e6 1.1740428849114541e7 0.0
1.1740428849114541e7 8.51051507588856e6 0.0
0.0 0.0 0.0

-6.021342036463725e6 1.92941158128213e7 0.0
1.92941158128213e7 3.410427334905255e6 0.0
0.0 0.0 0.0

1.0617560894602179e6 1.0457844176358432e7 0.0
1.0457844176358432e7 -1.0302837075085528e7 0.0
0.0 0.0 0.0

-8.652752531663755e6 1.5044632800119977e7 0.0
1.5044632800119977e7 -768262.0266962431 0.0
0.0 0.0 0.0

5.59062572190824e6 5.915921851848495e6 0.0
5.915921851848495e6 -1.7337777519071817e7 0.0
0.0 0.0 0.0

-2.199382697745162e6 1.9744231564675543e7 0.0
1.9744231564675543e7 -2.232806163458539e6 0.0
0.0 0.0 0.0

-1.2702948171253968e7 1.5231321738459656e7 0.0
1.5231321738459656e7 1.02993196305862e7 0.0
0.0 0.0 0.0

-2.783020483696459e6 1.3142382864019241e7 0.0
1.3142382864019241e7 5.734261641859526e6 0.0
0.0 0.0 0.0

-1.9106500968274277e7 1.3076840127648491e7 0.0
1.3076840127648491e7 1.1544287006137054e7 0.0
0.0 0.0 0.0

5.514833034630487e6 5.203744434813972e6 0.0
5.203744434813972e6 -1.6125999463395013e7 0.0
0.0 0.0 0.0

-7.60193348814716e6 1.168182506775867e7 0.0
1.168182506775867e7 9.593827326615075e6 0.0
0.0 0.0 0.0

-2.2154891419630824e6 6.193690351219189e6 0.0
6.193690351219189e6 220239.32670700352 0.0
0.0 0.0 0.0

3.9645851520829215e6 5.550843612513445e6 0.0
5.550843612513445e6 -1.0747790764405515e7 0.0
0.0 0.0 0.0

368228.515158562 1.261033554146254e7 0.0
1.261033554146254e7 -7.104884082288016e6 0.0
0.0 0.0 0.0

-1.2204872152505968e7 2.012951339027781e7 0.0
2.012951339027781e7 9.69353327312925e6 0.0
0.0 0.0 0.0

-1.1149969925642613e7 4.0504533320919177e6 0.0
4.0504533320919177e6 8.611555907226525e6 0.0
0.0 0.0 0.0

-1.5533794841040451e7 1.3440097975662284e7 0.0
1.3440097975662284e7 6.2685630180929415e6 0.0
0.0 0.0 0.0

1.0982410191489913e7 1.1258672982950717e7 0.0
1.1258672982950717e7 2.9940714491812056e6 0.0
0.0 0.0 0.0

902282.8594457414 1.2627294114633076e7 0.0
1.2627294114633076e7 -2.877929549481254e7 0.0
0.0 0.0 0.0

756529.1164015778 1.1792211336374484e7 0.0
1.1792211336374484e7 -8.185221752543387e6 0.0
0.0 0.0 0.0

-6.744029608360599e6 1.223315197717415e7 0.0
1.223315197717415e7 9.653130676564492e6 0.0
0.0 0.0 0.0

-2.248933678688663e6 1.4245990917585835e7 0.0
1.4245990917585835e7 -4.1033717111985013e6 0.0
0.0 0.0 0.0

-4.876313025828866e6 1.5162625949695775e7 0.0
1.5162625949695775e7 2.548894061812848e6 0.0
0.0 0.0 0.0

-118358.603388939 1.158550936514667e7 0.0
1.158550936514667e7 1.4475548195931246e6 0.0
0.0 0.0 0.0

-6.033066802979919e6 1.885588557535061e7 0.0
1.885588557535061e7 3.5229367265458023e6 0.0
0.0 0.0 0.0

-2.963919792973062e6 5.474343633027585e6 0.0
5.474343633027585e6 1.1894512371443547e6 0.0
0.0 0.0 0.0

1.5996867668934729e7 1.4711890339914357e7 0.0
1.4711890339914357e7 -384996.73796427064 0.0
0.0 0.0 0.0

-4.441751616128924e6 1.573509899502538e7 0.0
1.573509899502538e7 -1.1672701498261078e6 0.0
0.0 0.0 0.0

124674.97136136098 1.1495567993380548e7 0.0
1.1495567993380548e7 2.083768029448885e6 0.0
0.0 0.0 0.0

-4.91912139183273e6 1.4524423094653329e7 0.0
1.4524423094653329e7 2.5847055475510955e6 0.0
0.0 0.0 0.0

-6.641663043244514e6 1.1201299989866482e7 0.0
1.1201299989866482e7 1.0639604061888173e7 0.0
0.0 0.0 0.0

-3.651150807739228e6 1.4671127067779062e7 0.0
1.4671127067779062e7 -985402.6295757805 0.0
0.0 0.0 0.0

4.117453362524002e6 7.348465131706858e6 0.0
7.348465131706858e6 -1.3962632282888282e7 0.0
0.0 0.0 0.0

-5.731186613033706e6 1.2990118436799346e7 0.0
1.2990118436799346e7 3.9142978205344398e6 0.0
0.0 0.0 0.0

-3.061135588990385e6 1.3955351831474068e7 0.0
1.3955351831474068e7 1.5782535008978122e6 0.0
0.0 0.0 0.0

1.1537265908083562e6 6.414997785784643e6 0.0
6.414997785784643e6 -6.694356710893555e6 0.0
0.0 0.0 0.0

-5.545097528864589e6 1.437587890491102e7 0.0
1.437587890491102e7 6.539615654414827e6 0.0
0.0 0.0 0.0

-1.1937810562627736e7 438848.86921854777 0.0
438848.86921854777 2.478428170654262e7 0.0
0.0 0.0 0.0

-218919.04134284577 8.017896959672388e6 0.0
8.017896959672388e6 -3.0948306642272384e6 0.0
0.0 0.0 0.0

-7.397785199757601e6 1.3474537270399742e7 0.0
1.3474537270399742e7 3.842952310522255e6 0.0
0.0 0.0 0.0

9.836631584048297e6 1.5282224763575016e7 0.0
1.5282224763575016e7 4.167844373465604e6 0.0
0.0 0.0 0.0

2.1619671957236947e6 1.026155851642634e7 0.0
1.026155851642634e7 -1.305853778869814e7 0.0
0.0 0.0 0.0

4.65693485727463e6 6.576260862613685e6 0.0
6.576260862613685e6 -1.437398378934339e7 0.0
0.0 0.0 0.0

3.437576836498942e6 1.1742843467864012e7 0.0
1.1742843467864012e7 -1.8948566694663665e6 0.0
0.0 0.0 0.0

-6.2747366561465375e6 5.257713048121288e6 0.0
5.257713048121288e6 1.1421342462947493e7 0.0
0.0 0.0 0.0

-4.698902371119251e6 1.4623245003379028e7 0.0
1.4623245003379028e7 2.422595881963756e6 0.0
0.0 0.0 0.0

-2.9805281848118696e6 1.3169459678051874e7 0.0
1.3169459678051874e7 -2.132606918842371e6 0.0
0.0 0.0 0.0

-2.9088487142654792e6 1.3460725400917413e7 0.0
1.3460725400917413e7 -3.1416851636284273e6 0.0
0.0 0.0 0.0

-464543.5751987579 1.2399071432366842e7 0.0
1.2399071432366842e7 -3.368485885629295e6 0.0
0.0 0.0 0.0

1.329680385728918e6 6.884680519570252e6 0.0
6.884680519570252e6 -5.996917753669377e6 0.0
0.0 0.0 0.0

8.57483455633911e6 1.2866919370054644e7 0.0
1.2866919370054644e7 -546801.6731545902 0.0
0.0 0.0 0.0

-3859.7942222921993 1.1734692809299335e7 0.0
1.1734692809299335e7 1.233313411022509e6 0.0
0.0 0.0 0.0

-7.176846558722759e6 1.7622152970672578e7 0.0
1.7622152970672578e7 6.407171530705338e6 0.0
0.0 0.0 0.0

-2.2553749553739674e7 9.042908755189326e6 0.0
9.042908755189326e6 1.1685311242769843e7 0.0
0.0 0.0 0.0

3.6745868193525677e6 5.483640189134247e6 0.0
5.483640189134247e6 -1.0204499406837845e7 0.0
0.0 0.0 0.0

-507144.88952268497 1.2645665770735513e7 0.0
1.2645665770735513e7 821872.2055108435 0.0
0.0 0.0 0.0

-671470.1720224624 1.0224657794723976e7 0.0
1.0224657794723976e7 -9.558329532415302e6 0.0
0.0 0.0 0.0

708621.2844646494 1.1622414917479008e7 0.0
1.1622414917479008e7 -1.053127713920314e7 0.0
0.0 0.0 0.0

-4.2946213022216875e6 -1.8334686942547774e6 0.0
-1.8334686942547774e6 5.745815434805486e6 0.0
0.0 0.0 0.0

1.0885163610933716e6 9.61098145942212e6 0.0
9.61098145942212e6 -8.873117473646535e6 0.0
0.0 0.0 0.0

-1.7519871815934628e6 1.263536956145003e7 0.0
1.263536956145003e7 -1.5439493359428268e7 0.0
0.0 0.0 0.0

1.3599774117175369e6 9.33476796473614e6 0.0
9.33476796473614e6 -9.374981444724062e6 0.0
0.0 0.0 0.0

125817.36347376183 1.3007779256402653e7 0.0
1.3007779256402653e7 -6.602254828740115e6 0.0
0.0 0.0 0.0

9.72163828820107e6 1.365967814668107e7 0.0
1.365967814668107e7 3.3601370999274924e6 0.0
0.0 0.0 0.0

-1.173913950487559e7 7.573051872104403e6 0.0
7.573051872104403e6 1.7179992311970375e7 0.0
0.0 0.0 0.0

-2.6264131906686225e6 1.4734083218618382e7 0.0
1.4734083218618382e7 -1.7895944682502123e6 0.0
0.0 0.0 0.0

-399558.1617455927 1.1803868157353565e7 0.0
1.1803868157353565e7 -1.282591630428622e6 0.0
0.0 0.0 0.0

-4.523061439406312e6 1.258210529347968e7 0.0
1.258210529347968e7 -1.007174987161069e6 0.0
0.0 0.0 0.0

7.306042144292635e6 1.5051556719575353e7 0.0
1.5051556719575353e7 4.903152214359139e6 0.0
0.0 0.0 0.0

-5.594933240032201e6 1.4436108854230199e7 0.0
1.4436108854230199e7 6.760788149875598e6 0.0
0.0 0.0 0.0

1.8958119425144047e6 1.1421063139593344e7 0.0
1.1421063139593344e7 -4.890276187685769e6 0.0
0.0 0.0 0.0

-5.26733772835429e6 1.6148529334709628e7 0.0
1.6148529334709628e7 2.701908574884981e6 0.0
0.0 0.0 0.0

-5.930996907364072e6 1.3166769422344565e7 0.0
1.3166769422344565e7 4.777576811356162e6 0.0
0.0 0.0 0.0

-1.1308244024929231e7 -1.876795735709844e6 0.0
-1.876795735709844e6 4.168792538176519e7 0.0
0.0 0.0 0.0

-1.4266932058046872e6 1.3000430783528663e7 0.0
1.3000430783528663e7 -6.57732202725248e6 0.0
0.0 0.0 0.0

-5.806211022740393e6 1.5825898298426054e7 0.0
1.5825898298426054e7 4.543108647044079e6 0.0
0.0 0.0 0.0

659122.6078416242 4.631474183052698e6 0.0
4.631474183052698e6 -3.1572611347911675e6 0.0
0.0 0.0 0.0

-9.864474585401576e6 8.225023649324678e6 0.0
8.225023649324678e6 1.3217627375133049e7 0.0
0.0 0.0 0.0

-2.860515257647188e6 1.0131463507939974e7 0.0
1.0131463507939974e7 545061.4678284901 0.0
0.0 0.0 0.0

4.2694470625453545e6 5.802544611294227e6 0.0
5.802544611294227e6 -1.2162549500455517e7 0.0
0.0 0.0 0.0

-7.201020477606634e6 1.8203729368207414e7 0.0
1.8203729368207414e7 6.377560283346584e6 0.0
0.0 0.0 0.0

1.3221821687924e6 9.670508545157507e6 0.0
9.670508545157507e6 -8.12313429794862e6 0.0
0.0 0.0 0.0

-7.916094356126333e6 1.1296068261361156e7 0.0
1.1296068261361156e7 1.0099237551539049e7 0.0
0.0 0.0 0.0

5.773064560381814e6 6.984254960805032e6 0.0
6.984254960805032e6 -2.13394339661873e7 0.0
0.0 0.0 0.0

-7.171537404322507e6 1.7341874564413887e7 0.0
1.7341874564413887e7 6.162250451051092e6 0.0
0.0 0.0 0.0

-2.4247940940787387e6 1.128885227924829e7 0.0
1.128885227924829e7 -1.147776024438317e7 0.0
0.0 0.0 0.0

2.8177590165003934e6 4.259539022151746e6 0.0
4.259539022151746e6 -7.786385023251083e6 0.0
0.0 0.0 0.0

102427.20814415859 7.77301240097506e6 0.0
7.77301240097506e6 -3.6230252618914684e6 0.0
0.0 0.0 0.0

-1.3360537394668803e7 1.5777880751908576e7 0.0
1.5777880751908576e7 9.304859271474523e6 0.0
0.0 0.0 0.0

425439.19424575235 1.16629608405396e7 0.0
1.16629608405396e7 2.595965359047639e6 0.0
0.0 0.0 0.0

-1.128323766492584e7 1.9642757286617097e7 0.0
1.9642757286617097e7 8.3535451902319575e6 0.0
0.0 0.0 0.0

-8.27259767386002e6 2.3039150870117485e6 0.0
2.3039150870117485e6 1.124428526698961e7 0.0
0.0 0.0 0.0

5.215178323639763e6 8.776942291650843e6 0.0
8.776942291650843e6 -2.292615441905931e7 0.0
0.0 0.0 0.0

2.295291634466899e7 9.981445297971759e6 0.0
9.981445297971759e6 -8.932909387695447e6 0.0
0.0 0.0 0.0

-4.957281871417569e6 1.500949673447312e7 0.0
1.500949673447312e7 2.8131039863569755e6 0.0
0.0 0.0 0.0

-6.6626708221845385e6 1.6105650280151673e7 0.0
1.6105650280151673e7 6.408870118930788e6 0.0
0.0 0.0 0.0

-5.562846490572285e6 1.4183300694798399e7 0.0
1.4183300694798399e7 4.300788325208282e6 0.0
0.0 0.0 0.0

-2.5523957093067886e6 1.4662076930295154e7 0.0
1.4662076930295154e7 2.185996585357084e7 0.0
0.0 0.0 0.0

4.5280509866784215e6 5.8128893443270195e6 0.0
5.8128893443270195e6 -1.3652107441403937e7 0.0
0.0 0.0 0.0

-52419.80873420136 9.00833714397645e6 0.0
9.00833714397645e6 -4.466006310677053e6 0.0
0.0 0.0 0.0

-4.500011412246326e6 1.8846581241376456e7 0.0
1.8846581241376456e7 -1.1256591450122064e6 0.0
0.0 0.0 0.0

3.418497106374872e6 8.762253873622043e6 0.0
8.762253873622043e6 -1.5853982472090745e7 0.0
0.0 0.0 0.0

-1.4550642363369342e7 5.2997577305934895e6 0.0
5.2997577305934895e6 9.69315238940243e6 0.0
0.0 0.0 0.0

-3.3133145045811133e6 1.3762902810603147e7 0.0
1.3762902810603147e7 1.1998972928250255e6 0.0
0.0 0.0 0.0

-651668.5140465788 9.053012428225683e6 0.0
9.053012428225683e6 130602.81324519237 0.0
0.0 0.0 0.0

1.5983144633235754e6 9.420774534117233e6 0.0
9.420774534117233e6 -8.60145914658086e6 0.0
0.0 0.0 0.0

-3.0121913619220834e6 1.4244358121847276e7 0.0
1.4244358121847276e7 1.0654283883754004e7 0.0
0.0 0.0 0.0

-1.3969526354064099e6 1.8775725006148987e7 0.0
1.8775725006148987e7 -3.4921843043104573e6 0.0
0.0 0.0 0.0

-2.27276634405743e7 -3.066442269917957e6 0.0
-3.066442269917957e6 9.836928837596372e6 0.0
0.0 0.0 0.0

7.985937479070436e6 2.17170752324086e7 0.0
2.17170752324086e7 -1.187986127176017e7 0.0
0.0 0.0 0.0

-2.953164157582818e6 1.9409911879707508e7 0.0
1.9409911879707508e7 -4.485466832534671e6 0.0
0.0 0.0 0.0

3.506935837562443e6 5.4907862863119235e6 0.0
5.4907862863119235e6 -9.465576203150855e6 0.0
0.0 0.0 0.0

-6.319467481622084e6 1.5849207591250217e7 0.0
1.5849207591250217e7 4.598947990258893e6 0.0
0.0 0.0 0.0

1.347400890847502e7 1.0721132623006413e7 0.0
1.0721132623006413e7 -593129.5877715386 0.0
0.0 0.0 0.0

-1.2869268143432098e7 2.8930129025646397e6 0.0
2.8930129025646397e6 2.6383464619869694e7 0.0
0.0 0.0 0.0

-1.6345180278333912e6 1.3030273442329088e7 0.0
1.3030273442329088e7 -6.044621609754859e6 0.0
0.0 0.0 0.0

6.404476507185893e6 1.27677268482151e7 0.0
1.27677268482151e7 3.181518132652668e6 0.0
0.0 0.0 0.0

588847.6195808351 1.281248169014777e7 0.0
1.281248169014777e7 -7.240570879527192e6 0.0
0.0 0.0 0.0

4.929076292468746e6 5.865516112770373e6 0.0
5.865516112770373e6 -1.4406539583670635e7 0.0
0.0 0.0 0.0

-4.620551613677744e6 1.4926322782344764e7 0.0
1.4926322782344764e7 1.8258209676353424e6 0.0
0.0 0.0 0.0

-219548.62245012354 1.0333458439932402e7 0.0
1.0333458439932402e7 -9.37623879710452e6 0.0
0.0 0.0 0.0

-4.881129417981068e6 1.6438495787897978e7 0.0
1.6438495787897978e7 67456.8900978805 0.0
0.0 0.0 0.0

-1.1669875661436133e7 5.409523488408526e6 0.0
5.409523488408526e6 2.8211567667690348e7 0.0
0.0 0.0 0.0

1.0553814111944875e6 1.0812626162660718e7 0.0
1.0812626162660718e7 -7.277559828689111e6 0.0
0.0 0.0 0.0

2.722368864740006e6 8.097682032498982e6 0.0
8.097682032498982e6 -1.1696270932456486e7 0.0
0.0 0.0 0.0

-220581.9951077504 1.454931603425097e7 0.0
1.454931603425097e7 -5.308200750009106e6 0.0
0.0 0.0 0.0

-273186.58811621694 9.986453849583523e6 0.0
9.986453849583523e6 -6.883397454961486e6 0.0
0.0 0.0 0.0

-1.136605965420694e7 -2.4168425410118615e6 0.0
-2.4168425410118615e6 2.4399473017488077e7 0.0
0.0 0.0 0.0

-5.244055459681556e6 1.3870574657802684e7 0.0
1.3870574657802684e7 1.1126583133401578e7 0.0
0.0 0.0 0.0

3.646085372894261e6 8.690700842907313e6 0.0
8.690700842907313e6 -1.6638818142060947e7 0.0
0.0 0.0 0.0

-4.1772847565434175e6 1.6256771120558448e7 0.0
1.6256771120558448e7 -75016.42068043724 0.0
0.0 0.0 0.0

-3.6213530171446158e6 1.2395169510954998e7 0.0
1.2395169510954998e7 8.185600800638291e6 0.0
0.0 0.0 0.0

3.263084744308194e6 7.580288644172352e6 0.0
7.580288644172352e6 -1.1453027360604709e7 0.0
0.0 0.0 0.0

1.702199236320775e7 1.3526902584315997e7 0.0
1.3526902584315997e7 2.8092906023678323e6 0.0
0.0 0.0 0.0

-4.1148999604139742e6 1.588713630493704e7 0.0
1.588713630493704e7 -110949.3973405722 0.0
0.0 0.0 0.0

-5.662269124327944e6 -2.906886956046438e6 0.0
-2.906886956046438e6 9.525368813817648e6 0.0
0.0 0.0 0.0

-1.2266195197979141e7 -2.2967100422196537e6 0.0
-2.2967100422196537e6 2.142739209129617e7 0.0
0.0 0.0 0.0

4.679039878729222e6 5.263842370682165e6 0.0
5.263842370682165e6 -1.2451581389785592e7 0.0
0.0 0.0 0.0

-6.000662087544264e6 1.3825269110246334e7 0.0
1.3825269110246334e7 3.828825016732883e6 0.0
0.0 0.0 0.0

-746191.2717278085 1.2250387316328589e7 0.0
1.2250387316328589e7 -3.5698746896262e6 0.0
0.0 0.0 0.0

-2.338208044767705e6 1.3999843855363939e7 0.0
1.3999843855363939e7 -4.889326231294161e6 0.0
0.0 0.0 0.0

-3.7893680334474845e6 1.885946298625678e6 0.0
1.885946298625678e6 5.241679033437384e6 0.0
0.0 0.0 0.0

-2.6879131405975204e6 1.3609078369185336e7 0.0
1.3609078369185336e7 -2.339223514642513e6 0.0
0.0 0.0 0.0

-1.1653212439622149e7 -2.8011846477219844e6 0.0
-2.8011846477219844e6 2.3355528958697826e7 0.0
0.0 0.0 0.0

3.4317937374097886e6 1.0969558552592846e7 0.0
1.0969558552592846e7 -29653.108911490068 0.0
0.0 0.0 0.0

3.098106873184302e6 9.595363156554554e6 0.0
9.595363156554554e6 -1.589457876152214e7 0.0
0.0 0.0 0.0

4.0511120362986242e6 8.548622284306899e6 0.0
8.548622284306899e6 -1.6441491333386593e7 0.0
0.0 0.0 0.0

-1.0871165306199355e7 7.878320528423006e6 0.0
7.878320528423006e6 1.4039652398366898e7 0.0
0.0 0.0 0.0

-4.277914401857151e6 1.1785691104678294e7 0.0
1.1785691104678294e7 2.3489126829306553e6 0.0
0.0 0.0 0.0

665048.9035365179 4.84577884788921e6 0.0
4.84577884788921e6 -3.760016334116411e6 0.0
0.0 0.0 0.0

967423.0213467381 1.1012949833803488e7 0.0
1.1012949833803488e7 -6.960826051329839e6 0.0
0.0 0.0 0.0

-6.446478360139493e6 1.5491657386932172e7 0.0
1.5491657386932172e7 6.285985846020229e6 0.0
0.0 0.0 0.0

-1.191394063390945e6 1.4604382402878385e7 0.0
1.4604382402878385e7 1.3210518642012764e7 0.0
0.0 0.0 0.0

2.8232429184233677e6 1.4140169373592334e7 0.0
1.4140169373592334e7 -5.139081648755839e6 0.0
0.0 0.0 0.0

-1.0341371875748651e7 -2.589875034134834e6 0.0
-2.589875034134834e6 4.0311001139927715e7 0.0
0.0 0.0 0.0

-1.1702298144704718e7 4.354549528200671e6 0.0
4.354549528200671e6 2.1499214334488645e7 0.0
0.0 0.0 0.0

-8.348780237790102e6 8.189687157272949e6 0.0
8.189687157272949e6 1.052343479437577e7 0.0
0.0 0.0 0.0

-1.1645409772458444e6 1.0229024626723394e7 0.0
1.0229024626723394e7 2.2012073318113377e6 0.0
0.0 0.0 0.0

-1.9334575740849953e6 4.940797398748546e6 0.0
4.940797398748546e6 1.0646872335672688e6 0.0
0.0 0.0 0.0

-8.290704397859581e6 1.112774921246976e7 0.0
1.112774921246976e7 3.8816515743944864e6 0.0
0.0 0.0 0.0

4.693505383214164e6 6.087637017457052e6 0.0
6.087637017457052e6 -1.320274405811666e7 0.0
0.0 0.0 0.0

-1.1282721938855364e6 1.1996716662619276e7 0.0
1.1996716662619276e7 -1.4456808386019243e7 0.0
0.0 0.0 0.0

-226146.45285362523 1.184461080336135e7 0.0
1.184461080336135e7 525754.8336137816 0.0
0.0 0.0 0.0

1.1104660333372862e6 1.7552244210647903e7 0.0
1.7552244210647903e7 -8.028895279725497e6 0.0
0.0 0.0 0.0

855762.2077784091 1.3063433628525188e7 0.0
1.3063433628525188e7 -6.515886627716145e6 0.0
0.0 0.0 0.0

-8.235794018706996e6 1.5085543539724864e7 0.0
1.5085543539724864e7 709236.4522333234 0.0
0.0 0.0 0.0

-5.306533083296069e6 1.539624545508426e7 0.0
1.539624545508426e7 2.221021535435309e6 0.0
0.0 0.0 0.0

-124129.7457888925 5.883877946305062e6 0.0
5.883877946305062e6 -3.8209544294080446e6 0.0
0.0 0.0 0.0

-1.1037509107449276e7 2.007588722596815e7 0.0
2.007588722596815e7 9.10665529845791e6 0.0
0.0 0.0 0.0

-4.176262668550047e6 1.2018062116962539e7 0.0
1.2018062116962539e7 2.0170427924890853e6 0.0
0.0 0.0 0.0

-4.456635893406612e6 4.911555952211289e6 0.0
4.911555952211289e6 2.637823131671309e6 0.0
0.0 0.0 0.0

-4.40069983693586e6 1.1881415942943327e7 0.0
1.1881415942943327e7 1.0967619589683479e6 0.0
0.0 0.0 0.0

-178050.4072533513 4.756032634487384e6 0.0
4.756032634487384e6 -2.493695166114299e6 0.0
0.0 0.0 0.0

-862563.5161586939 6.194799109064125e6 0.0
6.194799109064125e6 -4.637970170876416e6 0.0
0.0 0.0 0.0

2.84881213318854e6 9.750565974101895e6 0.0
9.750565974101895e6 -1.4456565997123023e7 0.0
0.0 0.0 0.0

-3.08208769151902e6 1.4579020315854808e7 0.0
1.4579020315854808e7 -952266.248233058 0.0
0.0 0.0 0.0

-5.918032051526606e6 1.2259265650328832e7 0.0
1.2259265650328832e7 9.168117793440886e6 0.0
0.0 0.0 0.0

-611414.965666655 1.2194638061697789e7 0.0
1.2194638061697789e7 -2.989814117366573e6 0.0
0.0 0.0 0.0

2.6283068580181026e6 4.746378799821755e6 0.0
4.746378799821755e6 -7.885896576050028e6 0.0
0.0 0.0 0.0

-4.0423224975427464e6 1.4199157646047452e7 0.0
1.4199157646047452e7 -549018.6675233806 0.0
0.0 0.0 0.0

-5.45718357554191e6 1.6065214822768416e7 0.0
1.6065214822768416e7 2.141753074246105e6 0.0
0.0 0.0 0.0

-38319.709934767336 1.4380134697702495e7 0.0
1.4380134697702495e7 -5.076258991166428e6 0.0
0.0 0.0 0.0

-5.683534273641504e6 5.771304864212968e6 0.0
5.771304864212968e6 4.511857055180827e6 0.0
0.0 0.0 0.0

656237.4953222293 1.1174786699641641e7 0.0
1.1174786699641641e7 -1.0399877459474616e7 0.0
0.0 0.0 0.0

-8.169287740724247e6 1.7894751558167197e7 0.0
1.7894751558167197e7 6.968356027696848e6 0.0
0.0 0.0 0.0

-7.565344725403519e6 1.7648537088395707e7 0.0
1.7648537088395707e7 6.5010695519493595e6 0.0
0.0 0.0 0.0

928525.496879695 1.0931085932899315e7 0.0
1.0931085932899315e7 -1.338046131269192e7 0.0
0.0 0.0 0.0

-262010.56220674934 1.0275750645614909e7 0.0
1.0275750645614909e7 -7.9219169321093885e6 0.0
0.0 0.0 0.0

-403405.17477044306 1.222215050323344e7 0.0
1.222215050323344e7 351075.28376467305 0.0
0.0 0.0 0.0

3.4185071248341566e6 8.064066699038071e6 0.0
8.064066699038071e6 -1.385140301681797e7 0.0
0.0 0.0 0.0

-1.2012320164132439e7 4.519750065474312e6 0.0
4.519750065474312e6 1.7554609524563886e7 0.0
0.0 0.0 0.0

3.992822079140435e6 1.0645930925701959e7 0.0
1.0645930925701959e7 -2.2951644449375283e7 0.0
0.0 0.0 0.0

-4.6570003393073585e6 2.0739085626916535e7 0.0
2.0739085626916535e7 -3.656817423970661e6 0.0
0.0 0.0 0.0

672993.8153693229 1.270741121741631e7 0.0
1.270741121741631e7 5.6847952618561e6 0.0
0.0 0.0 0.0

-2.7624211259797127e6 1.3745093657244189e7 0.0
1.3745093657244189e7 1.1374901060549805e7 0.0
0.0 0.0 0.0

3.8977256407285677e6 1.3539848756123237e7 0.0
1.3539848756123237e7 5.569165150572349e6 0.0
0.0 0.0 0.0

-601580.4541007534 9.556106395477317e6 0.0
9.556106395477317e6 -450756.26267288666 0.0
0.0 0.0 0.0

-3.690293195567907e6 1.4065576170477385e7 0.0
1.4065576170477385e7 -384415.59708872135 0.0
0.0 0.0 0.0

-1.1623785715513898e7 1.3022734784939844e7 0.0
1.3022734784939844e7 354803.3423483558 0.0
0.0 0.0 0.0

92398.5503566208 9.09128138173367e6 0.0
9.09128138173367e6 -1.6452464554442307e6 0.0
0.0 0.0 0.0

-2.0949645416185623e6 1.358923900598569e7 0.0
1.358923900598569e7 1.553502370097211e6 0.0
0.0 0.0 0.0

4.401241947176963e6 5.843644436175063e6 0.0
5.843644436175063e6 -1.1663892192047875e7 0.0
0.0 0.0 0.0

-9.096242347578555e6 1.16849822905435e7 0.0
1.16849822905435e7 4.923797340250138e6 0.0
0.0 0.0 0.0

-1.5152833907711953e7 1.961017768528632e7 0.0
1.961017768528632e7 1.0828268835126046e7 0.0
0.0 0.0 0.0

-6.677742952940151e6 1.1939126505825387e6 0.0
1.1939126505825387e6 9.029925078691619e6 0.0
0.0 0.0 0.0

-1.798010942836707e6 1.8219736385957725e7 0.0
1.8219736385957725e7 -4.4736632694363175e6 0.0
0.0 0.0 0.0

-1.103185327726987e7 6.257456819578856e6 0.0
6.257456819578856e6 4.345857350854026e7 0.0
0.0 0.0 0.0

-5.38604585908566e6 -2.9477093162504393e6 0.0
-2.9477093162504393e6 7.0231157673219945e6 0.0
0.0 0.0 0.0

-3.293785646968792e6 1.3399137157055004e7 0.0
1.3399137157055004e7 -1.6760054264776941e7 0.0
0.0 0.0 0.0

1.0419973714138796e6 1.1968898626022756e7 0.0
1.1968898626022756e7 -7.900461967103252e6 0.0
0.0 0.0 0.0

-5.656913192319952e6 1.6520909405974105e7 0.0
1.6520909405974105e7 3.0371589952216796e6 0.0
0.0 0.0 0.0

-6.517272693660884e6 9.834841633327581e6 0.0
9.834841633327581e6 1.2471688424754571e6 0.0
0.0 0.0 0.0

56161.36649958021 7.4310749479388315e6 0.0
7.4310749479388315e6 -3.3578379390814663e6 0.0
0.0 0.0 0.0

-4.833407366263098e6 1.4810987751630403e7 0.0
1.4810987751630403e7 1.2295802733108469e6 0.0
0.0 0.0 0.0

-6.911893201330489e6 1.733921395925659e7 0.0
1.733921395925659e7 5.891427796205105e6 0.0
0.0 0.0 0.0

-5.517483272885269e6 1.6608963796485415e7 0.0
1.6608963796485415e7 3.03192355720467e6 0.0
0.0 0.0 0.0

2.981844125119034e6 1.0210456628157232e7 0.0
1.0210456628157232e7 -2.6610121619946986e7 0.0
0.0 0.0 0.0

-2.3717795870164945e6 1.0553590118130827e7 0.0
1.0553590118130827e7 -2.5125511359763904e6 0.0
0.0 0.0 0.0

-1.151070862649906e7 -2.850816030255409e6 0.0
-2.850816030255409e6 3.044458522568515e7 0.0
0.0 0.0 0.0

2.376470686751865e6 1.6566367659525596e7 0.0
1.6566367659525596e7 2.5156333818648066e7 0.0
0.0 0.0 0.0

-2.7674702132577233e7 -2.4071613520023488e6 0.0
-2.4071613520023488e6 1.0841712142773274e7 0.0
0.0 0.0 0.0

1.0796753108610708e7 1.335789631811538e7 0.0
1.335789631811538e7 -7.992453676712812e6 0.0
0.0 0.0 0.0

1.928698210978629e6 1.073724565536637e7 0.0
1.073724565536637e7 -1.2745750930275444e7 0.0
0.0 0.0 0.0

1.6309096857054674e6 5.474004331693761e6 0.0
5.474004331693761e6 -5.726697033919388e6 0.0
0.0 0.0 0.0

1.5667185409582932e7 1.2884099647668054e7 0.0
1.2884099647668054e7 -1.0808677145036697e7 0.0
0.0 0.0 0.0

1.5880319526882493e6 7.806720836919527e6 0.0
7.806720836919527e6 -4.0206552159324577e6 0.0
0.0 0.0 0.0

5.951416038571913e6 1.3252058382960863e7 0.0
1.3252058382960863e7 4.669549693538486e6 0.0
0.0 0.0 0.0

-5.4271872628180655e6 1.5251981580905812e7 0.0
1.5251981580905812e7 2.432134856999051e6 0.0
0.0 0.0 0.0

-6.534221222932895e6 1.5803848505932847e7 0.0
1.5803848505932847e7 6.385903305673894e6 0.0
0.0 0.0 0.0

-626004.6042245665 9.15388839048203e6 0.0
9.15388839048203e6 -4.693833572300367e6 0.0
0.0 0.0 0.0

-6.418114559557406e6 6.107146827346021e6 0.0
6.107146827346021e6 757207.965652368 0.0
0.0 0.0 0.0

-1.0594945738550252e6 1.0715118255643642e7 0.0
1.0715118255643642e7 -9.955850439215114e6 0.0
0.0 0.0 0.0

-1.7122453163308105e6 1.319087165418379e7 0.0
1.319087165418379e7 2.1192785911018164e6 0.0
0.0 0.0 0.0

-1.6035921095831108e6 1.0845201593173381e7 0.0
1.0845201593173381e7 4.689678956718087e6 0.0
0.0 0.0 0.0

-1.1539211116542397e7 5.164693183595536e6 0.0
5.164693183595536e6 3.997846648926194e7 0.0
0.0 0.0 0.0

-5.096186565517377e6 1.4327399047425654e7 0.0
1.4327399047425654e7 1.8862674313304129e6 0.0
0.0 0.0 0.0

4.70688825903358e6 5.283145738928027e6 0.0
5.283145738928027e6 -1.2610364456594827e7 0.0
0.0 0.0 0.0

-4.423263209864939e6 1.3443192329971928e7 0.0
1.3443192329971928e7 6.22410060242685e6 0.0
0.0 0.0 0.0

-2.6201910389112085e6 1.1030815867123215e7 0.0
1.1030815867123215e7 5.362961300396862e6 0.0
0.0 0.0 0.0

2.26532856215197e6 1.5131822793894624e7 0.0
1.5131822793894624e7 -6.325749962412178e6 0.0
0.0 0.0 0.0

-3.7916857451707455e6 1.4635428075794784e7 0.0
1.4635428075794784e7 -2.2731123024459137e6 0.0
0.0 0.0 0.0

-8.644319111468159e6 1.8969233918747842e7 0.0
1.8969233918747842e7 6.946594353031669e6 0.0
0.0 0.0 0.0

-488057.1956424449 6.160514319845173e6 0.0
6.160514319845173e6 -3.362549841556024e6 0.0
0.0 0.0 0.0

-9.902467867562683e6 1.7035898340910755e7 0.0
1.7035898340910755e7 8.191216207214374e6 0.0
0.0 0.0 0.0

-5.840376607962333e6 1.571603630576457e7 0.0
1.571603630576457e7 4.751090881817394e6 0.0
0.0 0.0 0.0

-8.583099701562133e6 9.281806753590554e6 0.0
9.281806753590554e6 1.0296085837566156e7 0.0
0.0 0.0 0.0

7.703160756343139e6 1.3872081578480424e7 0.0
1.3872081578480424e7 -7.771960551710822e6 0.0
0.0 0.0 0.0

-605088.1979295458 1.2098962374020452e7 0.0
1.2098962374020452e7 -6.430737232295378e6 0.0
0.0 0.0 0.0

-5.518639623854496e6 1.5108421931660071e7 0.0
1.5108421931660071e7 2.698546242079143e6 0.0
0.0 0.0 0.0

-326172.1879911411 8.631824065195551e6 0.0
8.631824065195551e6 -4.99718033448535e6 0.0
0.0 0.0 0.0

-2.2287915372091522e6 1.2945449936402822e7 0.0
1.2945449936402822e7 3.891952228552503e6 0.0
0.0 0.0 0.0

-6.605980382436997e6 3.4368733114534756e6 0.0
3.4368733114534756e6 2.6745358745727562e6 0.0
0.0 0.0 0.0

-7.657236928732646e6 1.0713903586059742e7 0.0
1.0713903586059742e7 5.141340235761028e6 0.0
0.0 0.0 0.0

614942.1352504045 1.2121262537393287e7 0.0
1.2121262537393287e7 -7.625896456132979e6 0.0
0.0 0.0 0.0

-1.0943727857744582e6 1.1525561813549802e7 0.0
1.1525561813549802e7 5.050874157293685e6 0.0
0.0 0.0 0.0

108103.4243519241 1.2134406405326976e7 0.0
1.2134406405326976e7 -9.242216713571375e6 0.0
0.0 0.0 0.0

-6.607121351160285e6 1.2138006548843278e7 0.0
1.2138006548843278e7 8.934991995299533e6 0.0
0.0 0.0 0.0

-1.2793349230561018e7 6.693863682316894e6 0.0
6.693863682316894e6 7.142363079721127e6 0.0
0.0 0.0 0.0

-1.7448731296819672e6 1.3155331083740555e7 0.0
1.3155331083740555e7 449482.5289359803 0.0
0.0 0.0 0.0

-9.986333363566853e6 2.6704679267000807e6 0.0
2.6704679267000807e6 1.0813903980824225e7 0.0
0.0 0.0 0.0

-1.7163083405010877e6 1.2954397967717974e7 0.0
1.2954397967717974e7 4.769250994002174e6 0.0
0.0 0.0 0.0

-1.924829035541222e6 1.9428641675038576e7 0.0
1.9428641675038576e7 -6.244052262756004e6 0.0
0.0 0.0 0.0

-2.3767527079374984e7 1.1536999222666973e7 0.0
1.1536999222666973e7 9.51341179296254e6 0.0
0.0 0.0 0.0

-5.662644721035169e6 2.188676926990673e7 0.0
2.188676926990673e7 295324.0082357703 0.0
0.0 0.0 0.0

-6.596868082105196e6 1.3811766665380944e7 0.0
1.3811766665380944e7 1.5305799664474083e6 0.0
0.0 0.0 0.0

-6.049669930740449e6 2.0236893577847596e7 0.0
2.0236893577847596e7 2.603026492099707e6 0.0
0.0 0.0 0.0

-8.455371466249773e6 1.3902413871718878e6 0.0
1.3902413871718878e6 8.723830715017112e6 0.0
0.0 0.0 0.0

2.796367946694186e6 1.4812556081340494e7 0.0
1.4812556081340494e7 -5.805067588263163e6 0.0
0.0 0.0 0.0

-7.617943800447669e6 1.789298658257891e7 0.0
1.789298658257891e7 6.873454115459979e6 0.0
0.0 0.0 0.0

-2.3847178999410933e6 1.3425339222276006e7 0.0
1.3425339222276006e7 55273.71044268389 0.0
0.0 0.0 0.0

971803.218932522 1.1466115729204563e7 0.0
1.1466115729204563e7 -1.1212164029555708e7 0.0
0.0 0.0 0.0

-7.010581390439858e6 1.6628192738735195e7 0.0
1.6628192738735195e7 6.633412521161191e6 0.0
0.0 0.0 0.0

-5.761003570182986e6 9.209832552917872e6 0.0
9.209832552917872e6 4.562164620682495e6 0.0
0.0 0.0 0.0

-6.565313829110584e6 2.0338437829999804e7 0.0
2.0338437829999804e7 645619.4687264902 0.0
0.0 0.0 0.0

-1.1132407976482574e7 1.6560947650065389e7 0.0
1.6560947650065389e7 9.086072999096436e6 0.0
0.0 0.0 0.0

1.7958512328054253e6 1.487673472798789e7 0.0
1.487673472798789e7 -6.064382712814947e6 0.0
0.0 0.0 0.0

3.0090062946868828e6 5.898832749614832e6 0.0
5.898832749614832e6 -8.659693111396749e6 0.0
0.0 0.0 0.0

-749000.0345156915 1.1616883421762388e7 0.0
1.1616883421762388e7 -1.3428293450792806e7 0.0
0.0 0.0 0.0

2.686200383157477e6 4.578387255321434e6 0.0
4.578387255321434e6 -8.358333918040745e6 0.0
0.0 0.0 0.0

-719382.826600377 1.3290333437295405e7 0.0
1.3290333437295405e7 5.915333753777847e6 0.0
0.0 0.0 0.0

1.8653465557801465e6 1.3215942213181023e7 0.0
1.3215942213181023e7 -5.378016878858947e6 0.0
0.0 0.0 0.0

-3.143165478034077e6 1.8233097391726904e7 0.0
1.8233097391726904e7 -3.1336254734258656e6 0.0
0.0 0.0 0.0

-1.1069284469067615e7 8.73394890754911e6 0.0
8.73394890754911e6 1.2774267679729668e7 0.0
0.0 0.0 0.0

-344407.26511463523 9.499771918152815e6 0.0
9.499771918152815e6 -4.1738052082900414e6 0.0
0.0 0.0 0.0

-1.3010712266321292e6 4.760171067348141e6 0.0
4.760171067348141e6 5.171520348399755e6 0.0
0.0 0.0 0.0

4.020656346448931e6 9.303721251215354e6 0.0
9.303721251215354e6 -2.042490869152909e7 0.0
0.0 0.0 0.0

-52772.991279389295 1.1011473516940074e7 0.0
1.1011473516940074e7 95780.76323146108 0.0
0.0 0.0 0.0

-1.0353762327848917e7 1.5684974835890345e7 0.0
1.5684974835890345e7 7.25691298719034e6 0.0
0.0 0.0 0.0

861355.3041209513 1.1089267615644297e7 0.0
1.1089267615644297e7 -8.282106252463318e6 0.0
0.0 0.0 0.0

6.903228616927808e6 1.191278054527966e7 0.0
1.191278054527966e7 -1.5663036761779585e6 0.0
0.0 0.0 0.0

-1.070281994477953e7 1.172617032101033e6 0.0
1.172617032101033e6 1.432801024920468e7 0.0
0.0 0.0 0.0

-1.6140046507829519e7 1.123904731274476e7 0.0
1.123904731274476e7 6.359170429706874e6 0.0
0.0 0.0 0.0

4.218253761499424e6 1.915987825021784e7 0.0
1.915987825021784e7 -1.5144866186166096e7 0.0
0.0 0.0 0.0

-6.517858103664113e6 1.5934496938139543e7 0.0
1.5934496938139543e7 6.646679151788941e6 0.0
0.0 0.0 0.0

-990431.7735940055 7.8372409956686525e6 0.0
7.8372409956686525e6 -962160.7861352799 0.0
0.0 0.0 0.0

-1.154189338162126e7 8.982489332682073e6 0.0
8.982489332682073e6 1.443841179046895e7 0.0
0.0 0.0 0.0

-8.072390798148224e6 -3.481696223619278e6 0.0
-3.481696223619278e6 1.082348886268908e7 0.0
0.0 0.0 0.0

-838351.9170410768 1.2015197593042191e7 0.0
1.2015197593042191e7 -7.148053658267384e6 0.0
0.0 0.0 0.0

-5.345151957830837e6 1.626037177320328e7 0.0
1.626037177320328e7 -40057.21718983818 0.0
0.0 0.0 0.0

-1.2833926682058605e6 1.1797900781604895e7 0.0
1.1797900781604895e7 -4.244645630493104e6 0.0
0.0 0.0 0.0

-1.1542573644853313e7 5.622677624376214e6 0.0
5.622677624376214e6 2.5429021705988944e7 0.0
0.0 0.0 0.0

1.8178198819218623e6 1.0321037486607961e7 0.0
1.0321037486607961e7 -1.2553726453194711e7 0.0
0.0 0.0 0.0

-6.219509438400783e6 1.5974432257528044e7 0.0
1.5974432257528044e7 791161.0329010743 0.0
0.0 0.0 0.0

1.1510273286292339e6 1.1278499572020086e7 0.0
1.1278499572020086e7 -1.1112357282606276e7 0.0
0.0 0.0 0.0

5.465193397460255e6 1.1906733037529543e7 0.0
1.1906733037529543e7 2.846560297645827e6 0.0
0.0 0.0 0.0

-1.1939992461480863e7 3.8297871227650023e6 0.0
3.8297871227650023e6 2.309051101119934e7 0.0
0.0 0.0 0.0

1.5306271062845164e6 1.0972461276941007e7 0.0
1.0972461276941007e7 -3.588840488472971e6 0.0
0.0 0.0 0.0

-4.1479391600390775e6 1.2884698927507548e7 0.0
1.2884698927507548e7 6.418976363423163e6 0.0
0.0 0.0 0.0

-4.083584688330947e6 1.6811600894502345e7 0.0
1.6811600894502345e7 -166240.83073943295 0.0
0.0 0.0 0.0

3.427461556549498e6 8.036744091168282e6 0.0
8.036744091168282e6 -1.2189413673520692e7 0.0
0.0 0.0 0.0

1.352909596542412e6 7.162119388881654e6 0.0
7.162119388881654e6 -6.090990603026028e6 0.0
0.0 0.0 0.0

3.6101065223057093e6 9.327787995893776e6 0.0
9.327787995893776e6 -1.849345785031688e7 0.0
0.0 0.0 0.0

-2.845015538205623e6 1.4255695905885877e7 0.0
1.4255695905885877e7 -600748.2282104455 0.0
0.0 0.0 0.0

-1.306559495406923e7 3.114444265883571e6 0.0
3.114444265883571e6 1.9990111994826656e7 0.0
0.0 0.0 0.0

-2.5073273739703065e6 1.4324324080414068e7 0.0
1.4324324080414068e7 -1.2228066299801427e6 0.0
0.0 0.0 0.0

-912439.7916911652 1.1346299849307528e7 0.0
1.1346299849307528e7 -4.531438383913803e6 0.0
0.0 0.0 0.0

4.1622293570920853e6 7.9379894742364315e6 0.0
7.9379894742364315e6 -1.7489290664699372e7 0.0
0.0 0.0 0.0

-1.1838568261454761e7 7.689722782068931e6 0.0
7.689722782068931e6 1.6211525765288461e7 0.0
0.0 0.0 0.0

95744.5630458215 1.1816450108714819e7 0.0
1.1816450108714819e7 1.9002443835326117e6 0.0
0.0 0.0 0.0

2.556378065031836e6 9.783012289333308e6 0.0
9.783012289333308e6 -1.5424613928525072e7 0.0
0.0 0.0 0.0

4.735018088878536e6 5.407179877513166e6 0.0
5.407179877513166e6 -1.3570959558950953e7 0.0
0.0 0.0 0.0

-6.9735649265843965e6 1.2930604569248501e7 0.0
1.2930604569248501e7 8.447218867649037e6 0.0
0.0 0.0 0.0

-4.33967460854059e6 1.5599050153605768e7 0.0
1.5599050153605768e7 1.373683670449804e6 0.0
0.0 0.0 0.0

819171.3380566407 9.191141683001708e6 0.0
9.191141683001708e6 -6.299899668594182e6 0.0
0.0 0.0 0.0

-1.0187456144801263e7 -2.251390606792593e6 0.0
-2.251390606792593e6 1.6666937786805805e7 0.0
0.0 0.0 0.0

287034.13416557934 4.578606464129991e6 0.0
4.578606464129991e6 -2.214878760260245e6 0.0
0.0 0.0 0.0

-8.250692120742573e6 1.1341906286991147e7 0.0
1.1341906286991147e7 8.9826137374356e6 0.0
0.0 0.0 0.0

5.923364092871492e6 1.33059761697333e7 0.0
1.33059761697333e7 3.3063978353441693e6 0.0
0.0 0.0 0.0

3.4269677611123007e6 1.2439761151205638e7 0.0
1.2439761151205638e7 4.201001078354831e6 0.0
0.0 0.0 0.0

-5.265000321946675e6 1.484543638239073e7 0.0
1.484543638239073e7 -156777.54578959732 0.0
0.0 0.0 0.0

-633610.5866344399 9.4380525888899e6 0.0
9.4380525888899e6 -7.393512126549731e6 0.0
0.0 0.0 0.0

-2.9960211355003505e6 1.5088585668046352e7 0.0
1.5088585668046352e7 -1.321275275404423e6 0.0
0.0 0.0 0.0

-6.986413428820306e6 1.3233333153219664e7 0.0
1.3233333153219664e7 3.002139735725844e6 0.0
0.0 0.0 0.0

3.25633323222169e6 9.467714536993807e6 0.0
9.467714536993807e6 -1.719311342275371e7 0.0
0.0 0.0 0.0

409366.87455810816 4.561189409602467e6 0.0
4.561189409602467e6 -3.955653331457337e6 0.0
0.0 0.0 0.0

129458.74498628499 5.917141689560907e6 0.0
5.917141689560907e6 -2.97851819012508e6 0.0
0.0 0.0 0.0

-154435.44601184814 1.1538772305832906e7 0.0
1.1538772305832906e7 -1.0137420409211529e6 0.0
0.0 0.0 0.0

2.1872536050238274e6 1.3187929145068318e7 0.0
1.3187929145068318e7 6.663584734814084e6 0.0
0.0 0.0 0.0

-1.3701584622597657e6 9.346587920183914e6 0.0
9.346587920183914e6 1.1693161097776294e6 0.0
0.0 0.0 0.0

-7.4814146053953e6 1.1978856335458435e7 0.0
1.1978856335458435e7 8.130956249108575e6 0.0
0.0 0.0 0.0

-1.669612190435037e7 1.9978933753306367e6 0.0
1.9978933753306367e6 9.441403221051931e6 0.0
0.0 0.0 0.0

-279647.18587273615 1.1901698337100979e7 0.0
1.1901698337100979e7 1.3687262210256897e6 0.0
0.0 0.0 0.0

2.4493356345144548e6 5.96265005139237e6 0.0
5.96265005139237e6 -8.771614524901256e6 0.0
0.0 0.0 0.0

-1.0038108250183485e7 1.6147219250461545e7 0.0
1.6147219250461545e7 8.454644653814824e6 0.0
0.0 0.0 0.0

-1.0105050459801082e7 -4.417056744983994e6 0.0
-4.417056744983994e6 1.85670824101997e7 0.0
0.0 0.0 0.0

-666484.0419114487 1.2874182852429336e7 0.0
1.2874182852429336e7 -3.2426493902481175e6 0.0
0.0 0.0 0.0

-3.6690598196353572e6 1.3503433086884106e7 0.0
1.3503433086884106e7 9.92016331079718e6 0.0
0.0 0.0 0.0

-5.012651711342174e6 1.5193286735286148e7 0.0
1.5193286735286148e7 1.6496159275742455e6 0.0
0.0 0.0 0.0

631443.3125241138 1.1085026653479107e7 0.0
1.1085026653479107e7 -1.254050705907054e7 0.0
0.0 0.0 0.0

3.8123516999819856e6 1.3457035605414554e7 0.0
1.3457035605414554e7 5.028102271781546e6 0.0
0.0 0.0 0.0

342685.22272482654 1.1406380414566746e7 0.0
1.1406380414566746e7 -1.073048199245888e7 0.0
0.0 0.0 0.0

-588162.5605454663 1.2307762761200417e7 0.0
1.2307762761200417e7 2.1735800728638796e6 0.0
0.0 0.0 0.0

-3.8035837404936897e6 1.2367977603968611e7 0.0
1.2367977603968611e7 7.46191693337593e6 0.0
0.0 0.0 0.0

-4.49524607617043e6 1.3170155738470845e7 0.0
1.3170155738470845e7 6.357369891176125e6 0.0
0.0 0.0 0.0

-2.612074212422508e6 1.3182299781978158e7 0.0
1.3182299781978158e7 3.2280573494574386e6 0.0
0.0 0.0 0.0

4.257706749032608e6 6.334165070012113e6 0.0
6.334165070012113e6 -1.3576051773502825e7 0.0
0.0 0.0 0.0

-5.968287805436037e6 1.7450472628198154e7 0.0
1.7450472628198154e7 3.1302518950677635e6 0.0
0.0 0.0 0.0

-2.6681686828887416e6 1.1049603550898416e7 0.0
1.1049603550898416e7 -911454.7117118597 0.0
0.0 0.0 0.0

8.22465708583665e6 1.0718833360854087e7 0.0
1.0718833360854087e7 906849.3475928751 0.0
0.0 0.0 0.0

-7.673029207463719e6 1.6130247934894886e7 0.0
1.6130247934894886e7 6.544317447194934e6 0.0
0.0 0.0 0.0

4.961449394763403e6 5.921719897866524e6 0.0
5.921719897866524e6 -1.5058607716108855e7 0.0
0.0 0.0 0.0

-4.048478542606526e6 1.0954400449788898e7 0.0
1.0954400449788898e7 2.236040412437507e6 0.0
0.0 0.0 0.0

4.584110989394117e6 1.110725970848517e7 0.0
1.110725970848517e7 607271.5183724272 0.0
0.0 0.0 0.0

1.2063174399589846e7 9.575944509491099e6 0.0
9.575944509491099e6 -2.983721290138753e6 0.0
0.0 0.0 0.0

-8.076260616614718e6 1.766810751639629e7 0.0
1.766810751639629e7 7.274764394141957e6 0.0
0.0 0.0 0.0

507193.29773342237 1.2430822418152565e7 0.0
1.2430822418152565e7 -8.822756045257919e6 0.0
0.0 0.0 0.0

-4.3683926912622405e6 5.554201945383221e6 0.0
5.554201945383221e6 4.739606428996228e6 0.0
0.0 0.0 0.0

-1.012943465906589e7 -4.965209165228077e6 0.0
-4.965209165228077e6 1.6077117214308076e7 0.0
0.0 0.0 0.0

-97395.3996884088 1.1710685444879187e7 0.0
1.1710685444879187e7 377761.6492111705 0.0
0.0 0.0 0.0

94783.28861064976 1.1860740011817513e7 0.0
1.1860740011817513e7 8.830981660440546e6 0.0
0.0 0.0 0.0

-1.0094973167267138e7 -524031.8921126259 0.0
-524031.8921126259 1.3465686734693605e7 0.0
0.0 0.0 0.0

-1.392926044089477e6 8.29337969824523e6 0.0
8.29337969824523e6 -2.713568884342962e6 0.0
0.0 0.0 0.0

-2.260216978136112e6 1.2578598489710115e7 0.0
1.2578598489710115e7 -2.446888428649001e6 0.0
0.0 0.0 0.0

92615.74890844338 1.1049279301037664e7 0.0
1.1049279301037664e7 -1.1798065994445989e7 0.0
0.0 0.0 0.0

-5.879169044407769e6 1.695284670421512e7 0.0
1.695284670421512e7 3.4605572060643863e6 0.0
0.0 0.0 0.0

-4.697773922346439e6 1.7404018681841906e7 0.0
1.7404018681841906e7 -854999.2658656305 0.0
0.0 0.0 0.0

-8.120547922276398e6 2.1649405199644856e7 0.0
2.1649405199644856e7 825193.4293132811 0.0
0.0 0.0 0.0

-1.5304160705903588e7 1.7865194441198975e7 0.0
1.7865194441198975e7 1.0621816624348734e7 0.0
0.0 0.0 0.0

1.1783088911200159e6 1.3024709919405414e7 0.0
1.3024709919405414e7 5.185613279532665e6 0.0
0.0 0.0 0.0

675033.0728641665 1.2974983972017478e7 0.0
1.2974983972017478e7 -2.475431595421795e7 0.0
0.0 0.0 0.0

-5.084737342185104e6 1.5365106543517688e6 0.0
1.5365106543517688e6 4.88087093157138e6 0.0
0.0 0.0 0.0

-2.6962460384790297e6 1.1200654515718104e7 0.0
1.1200654515718104e7 -1.1296941572697455e7 0.0
0.0 0.0 0.0

-1.1995140907808635e6 9.038144473406307e6 0.0
9.038144473406307e6 -7.44498366045085e6 0.0
0.0 0.0 0.0

295620.39451774093 1.3491254603338169e7 0.0
1.3491254603338169e7 5.811285015625532e6 0.0
0.0 0.0 0.0

-2.0955135832062424e6 1.1938771335292136e7 0.0
1.1938771335292136e7 -1.3504585685736472e7 0.0
0.0 0.0 0.0

-1.5734276485845323e6 1.089266366154266e7 0.0
1.089266366154266e7 -1.0817506283722198e7 0.0
0.0 0.0 0.0

2.090033547686207e6 1.3999932856979545e7 0.0
1.3999932856979545e7 6.134952096932025e6 0.0
0.0 0.0 0.0

-3.2222954994926e6 1.1912567521700414e7 0.0
1.1912567521700414e7 -71737.62941675982 0.0
0.0 0.0 0.0

3.9438212866995577e6 7.796769617313006e6 0.0
7.796769617313006e6 -1.347122838650187e7 0.0
0.0 0.0 0.0

-204440.36550389035 1.173358394060155e7 0.0
1.173358394060155e7 -484897.87932064006 0.0
0.0 0.0 0.0

-5.986876698576628e6 1.4955534253840508e7 0.0
1.4955534253840508e7 1.3941563188471254e6 0.0
0.0 0.0 0.0

-148164.45324809442 1.217339647841941e7 0.0
1.217339647841941e7 3.0769858757509952e6 0.0
0.0 0.0 0.0

2.932187289965263e6 4.708817814315636e6 0.0
4.708817814315636e6 -8.3027878908942025e6 0.0
0.0 0.0 0.0

-5.61142607391339e6 1.4974737595883805e7 0.0
1.4974737595883805e7 2.9667730492017763e6 0.0
0.0 0.0 0.0

-6.910617780479438e6 1.6924341638745695e7 0.0
1.6924341638745695e7 5.667582627079443e6 0.0
0.0 0.0 0.0

-1.1945438329454683e7 7.326260728869391e6 0.0
7.326260728869391e6 1.5125197393845307e7 0.0
0.0 0.0 0.0

-869725.660718224 9.68436323929843e6 0.0
9.68436323929843e6 2.575032860073838e6 0.0
0.0 0.0 0.0

-2.0885570469224225e6 1.300309207688434e7 0.0
1.300309207688434e7 8.350865213913583e6 0.0
0.0 0.0 0.0

-8.63071415218443e6 1.8516081243208945e7 0.0
1.8516081243208945e7 7.386415364293506e6 0.0
0.0 0.0 0.0

-7.351456546014832e6 1.2036008184168812e7 0.0
1.2036008184168812e7 8.948521931742921e6 0.0
0.0 0.0 0.0

-5.822422976635214e6 -505913.85205706477 0.0
-505913.85205706477 6.747569380223768e6 0.0
0.0 0.0 0.0

-6.75926154615796e6 1.6947722549987253e7 0.0
1.6947722549987253e7 6.220568126159504e6 0.0
0.0 0.0 0.0

-4.347366267833664e6 1.4687910531493159e7 0.0
1.4687910531493159e7 1.1064924761709766e6 0.0
0.0 0.0 0.0

-4.57871686995211e6 1.1680251472532725e7 0.0
1.1680251472532725e7 1.329714268779859e6 0.0
0.0 0.0 0.0

-5.859753756020365e6 1.7192291410420176e7 0.0
1.7192291410420176e7 3.1468839592895503e6 0.0
0.0 0.0 0.0

-5.619162537020601e6 1.687250011369191e7 0.0
1.687250011369191e7 3.0175952259394964e6 0.0
0.0 0.0 0.0

-822702.1518222841 1.2385472864129903e7 0.0
1.2385472864129903e7 -3.7745584901650413e6 0.0
0.0 0.0 0.0

953960.7222797258 1.0837948395126509e7 0.0
1.0837948395126509e7 3.1798697123373337e6 0.0
0.0 0.0 0.0

3.277908569408454e6 7.668530271647709e6 0.0
7.668530271647709e6 -1.2798263209897455e7 0.0
0.0 0.0 0.0

-2.9981466605584053e6 1.2386169338280741e7 0.0
1.2386169338280741e7 -1.3884181579536332e7 0.0
0.0 0.0 0.0

-1.9753404667734718e6 1.368739657124887e7 0.0
1.368739657124887e7 860551.4797483573 0.0
0.0 0.0 0.0

-1.8585760781236812e7 1.9191382357719403e7 0.0
1.9191382357719403e7 708651.0682139015 0.0
0.0 0.0 0.0

-2.226262708000168e6 1.099351112574793e7 0.0
1.099351112574793e7 -1.0740857437384e7 0.0
0.0 0.0 0.0

-1.787933076491331e7 1.747196473781068e7 0.0
1.747196473781068e7 1.606280816730637e6 0.0
0.0 0.0 0.0

-4.769480975465678e6 1.3875201312367149e7 0.0
1.3875201312367149e7 5.369311139172096e6 0.0
0.0 0.0 0.0

-9.602990873489365e6 -6.663891189968477e6 0.0
-6.663891189968477e6 1.997540405833278e7 0.0
0.0 0.0 0.0

-4.882685746440808e6 1.6706910035397261e7 0.0
1.6706910035397261e7 45896.685392792104 0.0
0.0 0.0 0.0

-6.066333125899496e6 1.6348161235090079e7 0.0
1.6348161235090079e7 -731017.6286225857 0.0
0.0 0.0 0.0

305751.3919239212 1.2660046188755251e7 0.0
1.2660046188755251e7 -8.394962103192465e6 0.0
0.0 0.0 0.0

-9.97249789695987e6 1.654654604808278e7 0.0
1.654654604808278e7 7.784808035938224e6 0.0
0.0 0.0 0.0

-6.412035152298408e6 3.4571849592671986e6 0.0
3.4571849592671986e6 8.039801960363261e6 0.0
0.0 0.0 0.0

3.968596587919972e6 8.292063794800393e6 0.0
8.292063794800393e6 -1.5355708021936417e7 0.0
0.0 0.0 0.0

-1.1372512683931286e7 1.5789986307732029e7 0.0
1.5789986307732029e7 8.003575012691145e6 0.0
0.0 0.0 0.0

-235821.20023335813 1.2117409507621512e7 0.0
1.2117409507621512e7 198850.8359482601 0.0
0.0 0.0 0.0

-5.313596732402339e6 4.980569092219711e6 0.0
4.980569092219711e6 3.9752214086975264e6 0.0
0.0 0.0 0.0

-1.3767608059494412e6 1.1448340041935554e7 0.0
1.1448340041935554e7 -4.635963563344612e6 0.0
0.0 0.0 0.0

-3.683488445150787e6 1.595881184941763e7 0.0
1.595881184941763e7 -817768.8111651083 0.0
0.0 0.0 0.0

-1.5653281035554916e7 1.6493052952687677e6 0.0
1.6493052952687677e6 9.769028190315448e6 0.0
0.0 0.0 0.0

-7.024094943845995e6 1.6449205717640216e7 0.0
1.6449205717640216e7 6.689361270144504e6 0.0
0.0 0.0 0.0

757938.4371125419 1.2152401185238725e7 0.0
1.2152401185238725e7 -9.590441378962886e6 0.0
0.0 0.0 0.0

2.812570451373472e6 7.638941670995602e6 0.0
7.638941670995602e6 -1.1454882674649492e7 0.0
0.0 0.0 0.0

478454.1729646388 4.861377050571422e6 0.0
4.861377050571422e6 -4.388384525215324e6 0.0
0.0 0.0 0.0

882665.7995893117 1.1357557336145751e7 0.0
1.1357557336145751e7 -9.302566823786438e6 0.0
0.0 0.0 0.0

-7.357284487196081e6 1.4391566442199985e7 0.0
1.4391566442199985e7 956233.8748414721 0.0
0.0 0.0 0.0

-5.9871866345384335e6 2.1413257870072957e7 0.0
2.1413257870072957e7 1.490747009310556e6 0.0
0.0 0.0 0.0

-4.267815055988299e6 1.3585326654747708e7 0.0
1.3585326654747708e7 9.595127155180503e6 0.0
0.0 0.0 0.0

-908027.0277254935 1.0198736874863353e7 0.0
1.0198736874863353e7 3.3524185969816544e6 0.0
0.0 0.0 0.0

1.2271652477115635e6 1.1964162553430976e7 0.0
1.1964162553430976e7 4.433641730553546e6 0.0
0.0 0.0 0.0

-1.316355316848317e6 1.1868648350163868e7 0.0
1.1868648350163868e7 -4.387851083169256e6 0.0
0.0 0.0 0.0

-1.2212727736557331e7 7.314020548609006e6 0.0
7.314020548609006e6 1.5430735556374071e7 0.0
0.0 0.0 0.0

-100884.11389087234 1.0169809362555798e7 0.0
1.0169809362555798e7 -8.29576765320355e6 0.0
0.0 0.0 0.0

-1.833373566164585e7 1.3587681928978296e7 0.0
1.3587681928978296e7 1.1386543260533188e7 0.0
0.0 0.0 0.0

-1.061624755161041e7 -801902.1892375067 0.0
-801902.1892375067 1.6383219055999555e7 0.0
0.0 0.0 0.0

-9.945194381966189e6 -6.403895027978725e6 0.0
-6.403895027978725e6 2.1663204031136144e7 0.0
0.0 0.0 0.0

588515.5257970486 9.095034950477304e6 0.0
9.095034950477304e6 -7.122213886529979e6 0.0
0.0 0.0 0.0

-1.4009516637989029e6 1.277867296441261e6 0.0
1.277867296441261e6 641058.4269519534 0.0
0.0 0.0 0.0

4.080100654464972e6 8.477135968431966e6 0.0
8.477135968431966e6 -1.813831894017611e7 0.0
0.0 0.0 0.0

-1.2615059594561353e7 5.869133980874031e6 0.0
5.869133980874031e6 1.8493689486154966e7 0.0
0.0 0.0 0.0

2.9048069401233857e6 9.402567410668515e6 0.0
9.402567410668515e6 -1.5339724915372835e7 0.0
0.0 0.0 0.0

-7.214619573209089e6 -1.0724530938198736e6 0.0
-1.0724530938198736e6 1.0112584486654645e7 0.0
0.0 0.0 0.0

-6.37706743904677e6 1.5626658602070203e7 0.0
1.5626658602070203e7 4.8315707177640265e6 0.0
0.0 0.0 0.0

-3.5907760160655444e6 1.6322409317165935e7 0.0
1.6322409317165935e7 -969571.5062076842 0.0
0.0 0.0 0.0

-7.300585158357502e6 1.7659072168328468e7 0.0
1.7659072168328468e7 5.974045918812189e6 0.0
0.0 0.0 0.0

-7.781945480164913e6 2.0857068167198975e7 0.0
2.0857068167198975e7 2.5582901873224396e6 0.0
0.0 0.0 0.0

-6.956037162881154e6 1.909477087499386e7 0.0
1.909477087499386e7 3.1263689795376547e6 0.0
0.0 0.0 0.0

-9.37027041120756e6 -4.520627130527575e6 0.0
-4.520627130527575e6 1.5749175547557943e7 0.0
0.0 0.0 0.0

4.870823036974202e6 6.07764163894253e6 0.0
6.07764163894253e6 -1.5863573571797082e7 0.0
0.0 0.0 0.0

802369.6378055811 1.2588151885363257e7 0.0
1.2588151885363257e7 -7.664541621075324e6 0.0
0.0 0.0 0.0

-2.364012677317595e6 1.337644344629715e7 0.0
1.337644344629715e7 -3.103597934341755e6 0.0
0.0 0.0 0.0

2.0672120626399023e6 8.75550235390298e6 0.0
8.75550235390298e6 -9.483503269342177e6 0.0
0.0 0.0 0.0

-1.921504650273861e6 9.970020279196957e6 0.0
9.970020279196957e6 -9.148677804903492e6 0.0
0.0 0.0 0.0

-80209.11122651178 1.1237055373978518e7 0.0
1.1237055373978518e7 -267363.6698854081 0.0
0.0 0.0 0.0

-6.679386276059896e6 1.4366928310960118e7 0.0
1.4366928310960118e7 6.371820061310623e6 0.0
0.0 0.0 0.0

-7.824720768934246e6 1.6538551934978725e7 0.0
1.6538551934978725e7 6.861128444711791e6 0.0
0.0 0.0 0.0

-775601.3327291082 9.353904998669565e6 0.0
9.353904998669565e6 -5.941563704474449e6 0.0
0.0 0.0 0.0

-643950.8080490384 8.562857131978726e6 0.0
8.562857131978726e6 -2.8199273989558993e6 0.0
0.0 0.0 0.0

4.623828270904551e6 5.628677531371594e6 0.0
5.628677531371594e6 -1.3282471902909132e7 0.0
0.0 0.0 0.0

1.269825561940298e6 1.2065565709359137e7 0.0
1.2065565709359137e7 -5.7400939764348995e6 0.0
0.0 0.0 0.0

3.0038192607011525e6 7.903282377292398e6 0.0
7.903282377292398e6 -1.2243491244373342e7 0.0
0.0 0.0 0.0

-895503.4000671797 6.43095372159313e6 0.0
6.43095372159313e6 -2.815882717114443e6 0.0
0.0 0.0 0.0

-480761.02861850907 8.026642758969966e6 0.0
8.026642758969966e6 -4.002666274833356e6 0.0
0.0 0.0 0.0

360466.54605244333 4.531719138595421e6 0.0
4.531719138595421e6 -3.4130440184842283e6 0.0
0.0 0.0 0.0

-5.427874486304395e6 1.4376716517970262e7 0.0
1.4376716517970262e7 3.945047317453827e6 0.0
0.0 0.0 0.0

1.0401896151366238e6 1.1645870191128705e7 0.0
1.1645870191128705e7 -1.048859506092323e7 0.0
0.0 0.0 0.0

4.0932995288525308e6 8.536033893312361e6 0.0
8.536033893312361e6 -2.0193373817840327e7 0.0
0.0 0.0 0.0

-2.192284053183327e6 1.4005770875338607e7 0.0
1.4005770875338607e7 -1.152335152990406e6 0.0
0.0 0.0 0.0

-1.2477047297560824e7 1.772399380995501e7 0.0
1.772399380995501e7 194085.6500318083 0.0
0.0 0.0 0.0

-1.323812766142879e7 1.4587647033365855e7 0.0
1.4587647033365855e7 7.952973571931125e6 0.0
0.0 0.0 0.0

-4.73196494432907e6 1.6126751786497291e7 0.0
1.6126751786497291e7 -687745.8235700186 0.0
0.0 0.0 0.0

286747.65939181484 1.122322780345713e7 0.0
1.122322780345713e7 -1.379397414460678e7 0.0
0.0 0.0 0.0

-3.160322205346643e6 1.0836586602641786e7 0.0
1.0836586602641786e7 -1.053440764973437e7 0.0
0.0 0.0 0.0

-8.598570972531967e6 1.7000437552385736e7 0.0
1.7000437552385736e7 -66763.01436927496 0.0
0.0 0.0 0.0

-3.808668983355607e6 1.1942045536198638e7 0.0
1.1942045536198638e7 -1.2695563756775266e7 0.0
0.0 0.0 0.0

-8.371708948835401e6 1.1101923789170565e7 0.0
1.1101923789170565e7 1.0091306355318941e7 0.0
0.0 0.0 0.0

-4.245460021786099e6 2.2269147624474852e6 0.0
2.2269147624474852e6 3.64107420843828e6 0.0
0.0 0.0 0.0

-4.222137730675183e6 1.4538783652798606e7 0.0
1.4538783652798606e7 170919.88743150514 0.0
0.0 0.0 0.0

-7.2095517793331845e6 1.3040867094492046e7 0.0
1.3040867094492046e7 7.6520289663962275e6 0.0
0.0 0.0 0.0

-6.52420625827733e6 -639568.4151567514 0.0
-639568.4151567514 7.590649008767892e6 0.0
0.0 0.0 0.0

2.2464741557842763e6 1.0118868113094663e7 0.0
1.0118868113094663e7 -1.2252777562595822e7 0.0
0.0 0.0 0.0

-5.321234245172233e6 1.4688995218610728e7 0.0
1.4688995218610728e7 2.2720703804240655e6 0.0
0.0 0.0 0.0

-262594.47576664825 1.1727047789682105e7 0.0
1.1727047789682105e7 -1.9014405102753793e6 0.0
0.0 0.0 0.0

-6.599717962884441e6 1.570409052594798e7 0.0
1.570409052594798e7 6.054814869881872e6 0.0
0.0 0.0 0.0

-9.352098322823474e6 1.746771313853351e7 0.0
1.746771313853351e7 1.2758630327065564e6 0.0
0.0 0.0 0.0

-3.3678612489249664e6 1.121445247140348e7 0.0
1.121445247140348e7 -1.1226204728325568e7 0.0
0.0 0.0 0.0

-3.0546381847081427e6 1.3557862607201304e7 0.0
1.3557862607201304e7 9.023765531915525e6 0.0
0.0 0.0 0.0

-1.3009241258100774e7 1.3380738356415741e7 0.0
1.3380738356415741e7 8.19938276820688e6 0.0
0.0 0.0 0.0

-3.377509530438482e6 5.4232315661981e6 0.0
5.4232315661981e6 3.4920058218417596e6 0.0
0.0 0.0 0.0

-1.344276743441444e7 4.340965774966522e6 0.0
4.340965774966522e6 2.3779057408035263e7 0.0
0.0 0.0 0.0

-1.094422763606606e6 1.2822468820348535e7 0.0
1.2822468820348535e7 -3.3150205021954346e6 0.0
0.0 0.0 0.0

-6.487552091022322e6 1.9191876218285162e7 0.0
1.9191876218285162e7 1.8910980456034197e6 0.0
0.0 0.0 0.0

1.2011386754430938e6 1.2194989556010276e7 0.0
1.2194989556010276e7 4.0037955768953473e6 0.0
0.0 0.0 0.0

5.388798255316749e6 1.308919404937921e7 0.0
1.308919404937921e7 3.089785953898241e6 0.0
0.0 0.0 0.0

-6.7459902940234e6 1.6856784376711674e7 0.0
1.6856784376711674e7 156888.49096874986 0.0
0.0 0.0 0.0

-5.029400714224238e6 1.820149536744562e7 0.0
1.820149536744562e7 -178540.4974227266 0.0
0.0 0.0 0.0

2.0776164522516415e6 1.1789710798951779e7 0.0
1.1789710798951779e7 8.853964904638184e6 0.0
0.0 0.0 0.0

5.395788325269096e6 7.019618945993385e6 0.0
7.019618945993385e6 -1.9193874086754166e7 0.0
0.0 0.0 0.0

-6.80895893598477e6 1.6136645554200167e7 0.0
1.6136645554200167e7 6.577590700962197e6 0.0
0.0 0.0 0.0

-227937.0849022696 1.1067479257634033e7 0.0
1.1067479257634033e7 -1.5614011621325547e6 0.0
0.0 0.0 0.0

-4.1151496260189954e6 1.2442835693993723e7 0.0
1.2442835693993723e7 -1.3717166155887274e7 0.0
0.0 0.0 0.0

-1.8260276274225507e6 1.3994729537273152e7 0.0
1.3994729537273152e7 -637778.6728863247 0.0
0.0 0.0 0.0

5.664361862851216e6 5.295012978620711e6 0.0
5.295012978620711e6 -1.6729306111332322e7 0.0
0.0 0.0 0.0

-2.3651998816757137e6 1.2705923652180338e7 0.0
1.2705923652180338e7 -3.258934084942981e6 0.0
0.0 0.0 0.0

-667162.2837696717 1.4258022938038252e7 0.0
1.4258022938038252e7 -5.207418309231914e6 0.0
0.0 0.0 0.0

6.747240870432667e6 1.2726228813849775e7 0.0
1.2726228813849775e7 -7.540272225636659e6 0.0
0.0 0.0 0.0

-8.899628373742957e6 9.552654828902118e6 0.0
9.552654828902118e6 1.0674369655008111e7 0.0
0.0 0.0 0.0

-2.534332348771614e6 8.006151377779424e6 0.0
8.006151377779424e6 2.9306020290269144e6 0.0
0.0 0.0 0.0

-3.766781350826243e6 1.547334176076411e7 0.0
1.547334176076411e7 468188.0141742369 0.0
0.0 0.0 0.0

-4.445802585999171e6 1.4665455012630515e7 0.0
1.4665455012630515e7 701836.0771184298 0.0
0.0 0.0 0.0

-1.0950860610962186e7 -3.4222361266610795e6 0.0
-3.4222361266610795e6 2.3818872256580207e7 0.0
0.0 0.0 0.0

-945206.188816622 1.1607275884669159e7 0.0
1.1607275884669159e7 -3.8488921802897723e6 0.0
0.0 0.0 0.0

-8.241943084074843e6 1.6360422856252436e7 0.0
1.6360422856252436e7 7.331501103733158e6 0.0
0.0 0.0 0.0

1.065317353730829e6 6.727031383368835e6 0.0
6.727031383368835e6 -6.746397416688768e6 0.0
0.0 0.0 0.0

-2.5406799893539166e6 1.289858491796064e7 0.0
1.289858491796064e7 1.065479874705279e7 0.0
0.0 0.0 0.0

-2.055709914630665e7 1.4041649546997279e7 0.0
1.4041649546997279e7 9.044896465140592e6 0.0
0.0 0.0 0.0

-6913.332251497486 1.1108756646775875e7 0.0
1.1108756646775875e7 828017.0063489209 0.0
0.0 0.0 0.0

2.7387380367370527e6 6.329147440176885e6 0.0
6.329147440176885e6 -8.197237919231244e6 0.0
0.0 0.0 0.0

-5.270458374029203e6 1.2946223195187612e7 0.0
1.2946223195187612e7 1.2496394931159977e7 0.0
0.0 0.0 0.0

-3.236682222054222e6 1.4897876747179491e7 0.0
1.4897876747179491e7 -1.8470562828288963e6 0.0
0.0 0.0 0.0

2.100935253359848e6 1.824261451586372e7 0.0
1.824261451586372e7 -6.178870016154222e6 0.0
0.0 0.0 0.0

-2.181150496740828e6 9.085813791567322e6 0.0
9.085813791567322e6 -7.2705019425314125e6 0.0
0.0 0.0 0.0

-3.8034367915852843e6 1.006740174622028e7 0.0
1.006740174622028e7 2.0540863875305695e6 0.0
0.0 0.0 0.0

800310.3545840993 6.781818458908627e6 0.0
6.781818458908627e6 -6.173298222841796e6 0.0
0.0 0.0 0.0

-474274.5689507467 1.1288779742788622e7 0.0
1.1288779742788622e7 -1.1531082336108731e7 0.0
0.0 0.0 0.0

-1.9959197632969604e6 1.292624648476073e7 0.0
1.292624648476073e7 -3.622320554386995e6 0.0
0.0 0.0 0.0

1.9945660346912632e6 1.3509470942523649e7 0.0
1.3509470942523649e7 5.964751840595258e6 0.0
0.0 0.0 0.0

-5.181023991574674e6 1.4416689444638053e7 0.0
1.4416689444638053e7 1.365898127405639e6 0.0
0.0 0.0 0.0

-426204.3582095683 1.4305408190399963e7 0.0
1.4305408190399963e7 -5.663571764963786e6 0.0
0.0 0.0 0.0

-4.489494810026666e6 -469973.5318380139 0.0
-469973.5318380139 9.657768159462087e6 0.0
0.0 0.0 0.0

-1.3030061625978774e6 2.6352547298948932e6 0.0
2.6352547298948932e6 3.478425822403459e6 0.0
0.0 0.0 0.0

2.2450206758218175e6 1.37671655885725e7 0.0
1.37671655885725e7 -4.9241703434251165e6 0.0
0.0 0.0 0.0

-118007.90636467992 1.148307501170558e7 0.0
1.148307501170558e7 684572.8907753406 0.0
0.0 0.0 0.0

1.5323338788010785e7 9.576183923686367e6 0.0
9.576183923686367e6 -1.6534522713535083e6 0.0
0.0 0.0 0.0

-7.253398698867278e6 -1.9605633725040655e6 0.0
-1.9605633725040655e6 8.528014370944355e6 0.0
0.0 0.0 0.0

-5.939242414313547e6 1.5350944445841957e7 0.0
1.5350944445841957e7 -435609.4169098283 0.0
0.0 0.0 0.0

-9.649863213429974e6 1.181297627422926e7 0.0
1.181297627422926e7 6.382088037998715e6 0.0
0.0 0.0 0.0

-1.4751078523415193e7 1.520168515885786e7 0.0
1.520168515885786e7 1.9591756256499263e6 0.0
0.0 0.0 0.0

1.4232762699648937e7 6.062640862255128e6 0.0
6.062640862255128e6 -3.6823477237138757e6 0.0
0.0 0.0 0.0

-1.2551210082518078e7 3.3393232723761885e6 0.0
3.3393232723761885e6 2.9201596929556914e7 0.0
0.0 0.0 0.0

-674061.1017025716 8.131841181491612e6 0.0
8.131841181491612e6 -2.485824460285935e6 0.0
0.0 0.0 0.0

-7.052145232706513e6 1.601803217452587e7 0.0
1.601803217452587e7 2.004429281987181e6 0.0
0.0 0.0 0.0

-6.530357218214239e6 1.592127725345424e7 0.0
1.592127725345424e7 6.60152748901237e6 0.0
0.0 0.0 0.0

-2.215385259721183e6 1.2780417636624765e7 0.0
1.2780417636624765e7 -4.2722865841008285e6 0.0
0.0 0.0 0.0

814581.1254616957 9.576686712167721e6 0.0
9.576686712167721e6 -7.367499024347223e6 0.0
0.0 0.0 0.0

-258358.64863653888 1.1552116592006892e7 0.0
1.1552116592006892e7 -3.129779180468072e6 0.0
0.0 0.0 0.0

-2.186267828662455e6 1.0785235703051692e7 0.0
1.0785235703051692e7 -1.0559700946895968e7 0.0
0.0 0.0 0.0

-1.2088737875022339e6 1.321034331177962e7 0.0
1.321034331177962e7 -1.949476814624667e7 0.0
0.0 0.0 0.0

3.288776961921282e6 5.039715289598495e6 0.0
5.039715289598495e6 -608695.9856372983 0.0
0.0 0.0 0.0

-3.9029327076084353e6 1.9157465161248643e7 0.0
1.9157465161248643e7 -2.693078550293933e6 0.0
0.0 0.0 0.0

-2.7433990583393862e6 1.0059371811509294e7 0.0
1.0059371811509294e7 -9.144664127155147e6 0.0
0.0 0.0 0.0

3.1848349943289487e6 1.2094168714652278e7 0.0
1.2094168714652278e7 4.0377307351553086e6 0.0
0.0 0.0 0.0

1.2576100310136653e6 1.0496121656270761e7 0.0
1.0496121656270761e7 -6.103176396542515e6 0.0
0.0 0.0 0.0

-3.869350258934953e6 1.4400910062598214e7 0.0
1.4400910062598214e7 339288.21478220564 0.0
0.0 0.0 0.0

-872082.8238795602 1.0490342266033478e7 0.0
1.0490342266033478e7 -9.139544941507068e6 0.0
0.0 0.0 0.0

-1.470669995629173e7 5.437646369946445e6 0.0
5.437646369946445e6 6.801483728037198e6 0.0
0.0 0.0 0.0

-1.130467629958908e6 3.561252122215548e6 0.0
3.561252122215548e6 -275986.560525101 0.0
0.0 0.0 0.0

-8.090089480336066e6 1.0835710890434831e7 0.0
1.0835710890434831e7 1.0666390628086384e7 0.0
0.0 0.0 0.0

-680823.03963999 8.52684237576218e6 0.0
8.52684237576218e6 -880933.052279552 0.0
0.0 0.0 0.0

-3.4217937797847176e6 1.0313115142182188e7 0.0
1.0313115142182188e7 -3.9745297673008116e6 0.0
0.0 0.0 0.0

-1.4934091763118957e6 1.1566093733624874e7 0.0
1.1566093733624874e7 -3.0768303497486757e6 0.0
0.0 0.0 0.0

-1.3084600476852888e6 8.704554027573287e6 0.0
8.704554027573287e6 -3.005505534143111e6 0.0
0.0 0.0 0.0

6.954048801384857e6 1.3338400447842412e7 0.0
1.3338400447842412e7 -6.531050142709821e6 0.0
0.0 0.0 0.0

-1.0452036932773564e7 1.7055207682379633e7 0.0
1.7055207682379633e7 8.554679175521031e6 0.0
0.0 0.0 0.0

-483267.50792358886 1.5001252771173213e7 0.0
1.5001252771173213e7 -4.96432919106671e6 0.0
0.0 0.0 0.0

-1.5020358120908798e6 1.3674224638859048e7 0.0
1.3674224638859048e7 -1.0618138682731949e6 0.0
0.0 0.0 0.0

-7.191334189309178e6 1.7913782655826308e7 0.0
1.7913782655826308e7 6.377509911643129e6 0.0
0.0 0.0 0.0

-7.883092037835792e6 1.1881884668254228e7 0.0
1.1881884668254228e7 8.998182165370699e6 0.0
0.0 0.0 0.0

1.1577929615699842e6 6.46946217637356e6 0.0
6.46946217637356e6 -5.384697813149096e6 0.0
0.0 0.0 0.0

-229671.01940808736 6.224096005481795e6 0.0
6.224096005481795e6 -2.4990840217213146e6 0.0
0.0 0.0 0.0

-2.7519348575063394e6 1.1910708512008013e7 0.0
1.1910708512008013e7 -1.2888601126003703e7 0.0
0.0 0.0 0.0

-2.561141789915924e6 1.3231939665470324e7 0.0
1.3231939665470324e7 1.5200716193803847e6 0.0
0.0 0.0 0.0

1.3656771079123649e6 5.384803109649467e6 0.0
5.384803109649467e6 -5.8289852398016015e6 0.0
0.0 0.0 0.0

-2.7219358225279175e7 1.9663466871368114e7 0.0
1.9663466871368114e7 7.874742185729794e6 0.0
0.0 0.0 0.0

4.391253311578908e6 8.46471250780748e6 0.0
8.46471250780748e6 -2.2580236271005116e7 0.0
0.0 0.0 0.0

-208727.94130452466 7.492317882464043e6 0.0
7.492317882464043e6 -4.225145340543778e6 0.0
0.0 0.0 0.0

-1.988901553899379e6 1.2212276135950264e7 0.0
1.2212276135950264e7 -1.4047573487411236e7 0.0
0.0 0.0 0.0

4.955245058961569e6 5.908736956528686e6 0.0
5.908736956528686e6 -1.5439848551778762e7 0.0
0.0 0.0 0.0

2.8477811765704486e6 1.974486592574553e7 0.0
1.974486592574553e7 -8.905016816875126e6 0.0
0.0 0.0 0.0

3.2084903023578837e6 7.935293474565009e6 0.0
7.935293474565009e6 -1.1561662729877975e7 0.0
0.0 0.0 0.0

-1.254824630004413e7 7.415100783586203e6 0.0
7.415100783586203e6 2.12521953810262e7 0.0
0.0 0.0 0.0

-8.822694198283922e6 9.758756345065106e6 0.0
9.758756345065106e6 1.0736094623395544e7 0.0
0.0 0.0 0.0

-5.13792726712741e6 1.4278470593257785e7 0.0
1.4278470593257785e7 5.825118319707207e6 0.0
0.0 0.0 0.0

-6.190990847585756e6 1.2202343987951424e7 0.0
1.2202343987951424e7 3.33909258075103e6 0.0
0.0 0.0 0.0

-8.318481158645197e6 1.0671778622111922e7 0.0
1.0671778622111922e7 1.1461540396839038e7 0.0
0.0 0.0 0.0

-5.698260068595488e6 1.4241234833900161e7 0.0
1.4241234833900161e7 3.1776793478181297e6 0.0
0.0 0.0 0.0

2.3155048140836074e6 1.2479315342440797e7 0.0
1.2479315342440797e7 7.718349409598988e6 0.0
0.0 0.0 0.0

-2.1505615185442343e6 2.8705837901748247e6 0.0
2.8705837901748247e6 964711.9208315907 0.0
0.0 0.0 0.0

-779634.1281685017 1.2939256958769139e7 0.0
1.2939256958769139e7 -6.503935817163898e6 0.0
0.0 0.0 0.0

2.9537892941190926e6 1.0526772516894814e7 0.0
1.0526772516894814e7 -2.4533116842770882e7 0.0
0.0 0.0 0.0

-1.102522422208501e7 1.7635535979692604e7 0.0
1.7635535979692604e7 9.29344172793018e6 0.0
0.0 0.0 0.0

-3.9352473214655994e6 1.6108609658453682e7 0.0
1.6108609658453682e7 -2.1279270605786326e6 0.0
0.0 0.0 0.0

1.7537774757139692e6 1.0992563608582312e7 0.0
1.0992563608582312e7 -1.460167247809001e6 0.0
0.0 0.0 0.0

-8.649533675842963e6 9.645290232347535e6 0.0
9.645290232347535e6 1.1965138190973887e7 0.0
0.0 0.0 0.0

-1.4583355789308477e7 1.5855856019647108e7 0.0
1.5855856019647108e7 1.1174322520320497e7 0.0
0.0 0.0 0.0

-1.8330064461643165e6 1.4167820549591707e7 0.0
1.4167820549591707e7 -4.679774257073695e6 0.0
0.0 0.0 0.0

-74013.48918731092 1.1247011484370882e7 0.0
1.1247011484370882e7 -1.2853779602767745e7 0.0
0.0 0.0 0.0

-1.4389580683873998e7 1.7983337558781803e7 0.0
1.7983337558781803e7 1.0692464550102945e7 0.0
0.0 0.0 0.0

8.375449418478267e6 1.7460980485963378e7 0.0
1.7460980485963378e7 -1.3003956479616998e7 0.0
0.0 0.0 0.0

1.2781157046225788e6 1.0265878003178379e7 0.0
1.0265878003178379e7 -239627.02891290747 0.0
0.0 0.0 0.0

2.0489772740757968e6 8.653501006227583e6 0.0
8.653501006227583e6 -1.0317587709418587e7 0.0
0.0 0.0 0.0

-3.2535903681983473e6 1.2846720671075452e7 0.0
1.2846720671075452e7 -1.5156903854595132e7 0.0
0.0 0.0 0.0

270800.81390918535 1.8568224069214094e7 0.0
1.8568224069214094e7 -4.923973556478522e6 0.0
0.0 0.0 0.0

958178.3268101686 1.1595243799864588e7 0.0
1.1595243799864588e7 -8.734758139686704e6 0.0
0.0 0.0 0.0

-5.558038610488127e6 1.6584127063004458e7 0.0
1.6584127063004458e7 1.9172500459581346e6 0.0
0.0 0.0 0.0

3.111483262409415e6 9.855730870684193e6 0.0
9.855730870684193e6 -2.1204885431994483e7 0.0
0.0 0.0 0.0

-407467.0004333076 1.2375664144664044e7 0.0
1.2375664144664044e7 1.0469408436621326e6 0.0
0.0 0.0 0.0

-1.3611902510411508e7 1.3945322092792057e7 0.0
1.3945322092792057e7 1.0354031013923733e7 0.0
0.0 0.0 0.0

-5.307063034984614e6 1.4575973428988168e7 0.0
1.4575973428988168e7 3.658310778636637e6 0.0
0.0 0.0 0.0

7.006573540942639e6 1.0644805907666614e7 0.0
1.0644805907666614e7 -483515.68737693457 0.0
0.0 0.0 0.0

-7.9808771099980995e6 1.830759252109488e7 0.0
1.830759252109488e7 6.131287020090781e6 0.0
0.0 0.0 0.0

-1.480358486278079e6 1.1247962046119817e7 0.0
1.1247962046119817e7 2.748605665013902e6 0.0
0.0 0.0 0.0

637395.9134087604 4.24560838425084e6 0.0
4.24560838425084e6 -3.804412630053918e6 0.0
0.0 0.0 0.0

-3.3588797085078163e6 1.9460926843240168e7 0.0
1.9460926843240168e7 -984796.5829803804 0.0
0.0 0.0 0.0

937164.6685349615 1.1917543031504622e7 0.0
1.1917543031504622e7 -1.0066388397964077e7 0.0
0.0 0.0 0.0

5.830255108262382e6 5.576620845829332e6 0.0
5.576620845829332e6 -1.8283484895445004e7 0.0
0.0 0.0 0.0

83216.28722119634 8.042100149217683e6 0.0
8.042100149217683e6 -4.490714317912459e6 0.0
0.0 0.0 0.0

1.4439255870195236e6 5.849454085138359e6 0.0
5.849454085138359e6 -5.856905298918636e6 0.0
0.0 0.0 0.0

651103.304589292 1.0005160180830067e7 0.0
1.0005160180830067e7 -7.3548957359801745e6 0.0
0.0 0.0 0.0

-1.099261221392664e7 1.4079980449035568e7 0.0
1.4079980449035568e7 8.754669754445463e6 0.0
0.0 0.0 0.0

-1.3543230695397952e6 1.3488495905368654e7 0.0
1.3488495905368654e7 451418.5141235585 0.0
0.0 0.0 0.0

-214853.48492338625 1.4962308142743567e7 0.0
1.4962308142743567e7 -4.918731014688172e6 0.0
0.0 0.0 0.0

5.126244428087923e6 6.376862742142061e6 0.0
6.376862742142061e6 -1.5339891740695693e7 0.0
0.0 0.0 0.0

-1.9847521926419158e6 1.2641640775050074e7 0.0
1.2641640775050074e7 -3.487554106926672e6 0.0
0.0 0.0 0.0

-803183.9993854954 1.1205555439589264e7 0.0
1.1205555439589264e7 -6.14727374931715e6 0.0
0.0 0.0 0.0

-5.039599219324909e6 1.5675797145041745e7 0.0
1.5675797145041745e7 807763.5044798856 0.0
0.0 0.0 0.0

839343.5466482234 1.7584984996831805e7 0.0
1.7584984996831805e7 -5.613054606586833e6 0.0
0.0 0.0 0.0

-5.923403884885382e6 1.49783283156937e7 0.0
1.49783283156937e7 6.5896891179332845e6 0.0
0.0 0.0 0.0

-2.673598334409456e6 1.137722046942216e7 0.0
1.137722046942216e7 4.757425261242011e6 0.0
0.0 0.0 0.0

-5.851953143913502e6 1.3238783611689776e7 0.0
1.3238783611689776e7 3.8314652772234574e7 0.0
0.0 0.0 0.0

-9.924140509423086e6 1.97754517651752e7 0.0
1.97754517651752e7 8.175590958300473e6 0.0
0.0 0.0 0.0

1.0397107032309091e6 1.2593006448039513e7 0.0
1.2593006448039513e7 -6.994517040235542e6 0.0
0.0 0.0 0.0

3.6049279050501278e6 8.40827393620406e6 0.0
8.40827393620406e6 -1.324590354383984e7 0.0
0.0 0.0 0.0

3.905943564174167e6 8.074500217959643e6 0.0
8.074500217959643e6 -1.3798592647053126e7 0.0
0.0 0.0 0.0

4.561239211609213e6 5.664408718620556e6 0.0
5.664408718620556e6 -1.1935486630452782e7 0.0
0.0 0.0 0.0

-6.475359988654461e6 1.434960424956295e7 0.0
1.434960424956295e7 7.116733039081483e6 0.0
0.0 0.0 0.0

4.314732269698773e6 5.759661062045994e6 0.0
5.759661062045994e6 -1.1913244530683797e7 0.0
0.0 0.0 0.0

-1.0477381216687553e7 -2.161305255513698e6 0.0
-2.161305255513698e6 1.520087181386372e7 0.0
0.0 0.0 0.0

-5.177027266145567e6 1.3530604364284959e7 0.0
1.3530604364284959e7 7.112763727900475e6 0.0
0.0 0.0 0.0

-618912.844357735 7.626168387534979e6 0.0
7.626168387534979e6 -3.615831851597653e6 0.0
0.0 0.0 0.0

-4.505255541935175e6 1.6198128345387055e7 0.0
1.6198128345387055e7 -1.148416593866e6 0.0
0.0 0.0 0.0

-4.030617781015666e6 1.785950012412735e7 0.0
1.785950012412735e7 94220.77096695802 0.0
0.0 0.0 0.0

-131292.6590687586 1.0995895277356777e7 0.0
1.0995895277356777e7 -713277.311645818 0.0
0.0 0.0 0.0

3.0859587931274166e6 9.667982030495595e6 0.0
9.667982030495595e6 -1.9010108328784633e7 0.0
0.0 0.0 0.0

5.564498345436045e6 5.6856429807451e6 0.0
5.6856429807451e6 -1.6235179003631415e7 0.0
0.0 0.0 0.0

-2.598284427102612e7 2.137496977563855e7 0.0
2.137496977563855e7 2.011632423095554e6 0.0
0.0 0.0 0.0

4.420606697077863e6 1.4533349139660826e7 0.0
1.4533349139660826e7 5.743864850534872e6 0.0
0.0 0.0 0.0

-4.281306948978288e6 1.7562407094846092e7 0.0
1.7562407094846092e7 476820.4056411234 0.0
0.0 0.0 0.0

-3.2769654194163373e6 1.2743609659055399e7 0.0
1.2743609659055399e7 5.797794785180208e6 0.0
0.0 0.0 0.0

-181177.29704830353 1.1899400763890767e7 0.0
1.1899400763890767e7 -344411.9490081959 0.0
0.0 0.0 0.0

-1.2818238383610679e7 1.7912671593072822e6 0.0
1.7912671593072822e6 1.953055284879199e7 0.0
0.0 0.0 0.0

-9.089540216646262e6 1.6641302890416872e7 0.0
1.6641302890416872e7 7.861165341536706e6 0.0
0.0 0.0 0.0

-959432.9804598953 9.626977526051316e6 0.0
9.626977526051316e6 -4.362949353954399e6 0.0
0.0 0.0 0.0

-8.830690154916435e6 -1.0067155122241663e6 0.0
-1.0067155122241663e6 1.0124831472247992e7 0.0
0.0 0.0 0.0

-8.860316974115398e6 8.210850373197287e6 0.0
8.210850373197287e6 5.1831314637396134e7 0.0
0.0 0.0 0.0

-326111.55034404644 1.3264708474796768e7 0.0
1.3264708474796768e7 -6.988912193058461e6 0.0
0.0 0.0 0.0

1.9198922445497923e6 5.066662148202739e6 0.0
5.066662148202739e6 -6.237186053512776e6 0.0
0.0 0.0 0.0

-1.2938429942762459e7 3.806145756634488e6 0.0
3.806145756634488e6 3.0732997922299016e7 0.0
0.0 0.0 0.0

5.045750734877238e6 5.481434689926471e6 0.0
5.481434689926471e6 -1.392968519091789e7 0.0
0.0 0.0 0.0

-4.242190364708751e6 1.2767859506053152e7 0.0
1.2767859506053152e7 908102.3804935887 0.0
0.0 0.0 0.0

-1.0110524279144919e7 1.6039283953546315e7 0.0
1.6039283953546315e7 3.0138367342780884e6 0.0
0.0 0.0 0.0

-75436.98928460525 1.2393637549216185e7 0.0
1.2393637549216185e7 -8.768273819178754e6 0.0
0.0 0.0 0.0

-2.8929377593688644e6 3.539900336530609e6 0.0
3.539900336530609e6 3.2283152701161993e6 0.0
0.0 0.0 0.0

-1.9421860719164142e6 1.3890977383923303e7 0.0
1.3890977383923303e7 130725.34896491561 0.0
0.0 0.0 0.0

2.891353543450528e6 1.6764030657534178e7 0.0
1.6764030657534178e7 -6.812113411758359e6 0.0
0.0 0.0 0.0

-648086.0910022248 2.403053206184564e6 0.0
2.403053206184564e6 558361.799824356 0.0
0.0 0.0 0.0

3.8881944624013165e6 1.1333711581124274e7 0.0
1.1333711581124274e7 -23154.847342058783 0.0
0.0 0.0 0.0

-2.857340685908968e6 2.155888081085592e7 0.0
2.155888081085592e7 -7.716749164937835e6 0.0
0.0 0.0 0.0

4.727016082295109e6 5.600225345195331e6 0.0
5.600225345195331e6 -1.288578810392036e7 0.0
0.0 0.0 0.0

-4.3537669334417e6 1.0832270208628392e7 0.0
1.0832270208628392e7 1.227529598273444e6 0.0
0.0 0.0 0.0

2.301177546280183e6 1.407357529162163e7 0.0
1.407357529162163e7 1.1452643146950215e7 0.0
0.0 0.0 0.0

2.2954262881725926e7 5.963443305844079e6 0.0
5.963443305844079e6 -3.9663590370842693e6 0.0
0.0 0.0 0.0

-1.4724580341688922e7 1.673746252143212e7 0.0
1.673746252143212e7 4.97725137675369e6 0.0
0.0 0.0 0.0

-5.837171963229904e6 1.4031257739885543e7 0.0
1.4031257739885543e7 3.4745369755462646e6 0.0
0.0 0.0 0.0

2.9283559177716905e6 9.558125748061242e6 0.0
9.558125748061242e6 -1.7314473168539695e7 0.0
0.0 0.0 0.0

-9.55149285389448e6 1.5461686374025324e7 0.0
1.5461686374025324e7 7.600508976733281e6 0.0
0.0 0.0 0.0

2.4879902964844843e6 1.1213638564406581e7 0.0
1.1213638564406581e7 2.153141440306414e6 0.0
0.0 0.0 0.0

-1.0670600366585456e7 4.005755449338803e6 0.0
4.005755449338803e6 3.946553181554403e7 0.0
0.0 0.0 0.0

-4.6008326544895135e6 1.4181420245224433e7 0.0
1.4181420245224433e7 5.289546571965212e6 0.0
0.0 0.0 0.0

-282177.8814417742 1.2149920000313088e7 0.0
1.2149920000313088e7 3.0453300967723196e6 0.0
0.0 0.0 0.0

-1.7316666532093019e6 1.1880486465325324e7 0.0
1.1880486465325324e7 -4.1918211444651634e6 0.0
0.0 0.0 0.0

2.8795510137436725e6 1.2829959369975815e7 0.0
1.2829959369975815e7 -4.933240937289204e6 0.0
0.0 0.0 0.0

1.1632899304187438e6 1.280972604835352e7 0.0
1.280972604835352e7 -6.084223354583846e6 0.0
0.0 0.0 0.0

-1.7142055939169116e6 9.227013461030707e6 0.0
9.227013461030707e6 -2.5894288641803414e6 0.0
0.0 0.0 0.0

-2.777135356871284e6 1.3354330135837113e7 0.0
1.3354330135837113e7 6.033424903865434e6 0.0
0.0 0.0 0.0

-216401.4538516348 1.2180912185397051e7 0.0
1.2180912185397051e7 -664257.0733051405 0.0
0.0 0.0 0.0

-215743.02799302002 1.1859287507195283e7 0.0
1.1859287507195283e7 -2.4353789870730555e6 0.0
0.0 0.0 0.0

-277491.73764806986 1.1122123752831008e7 0.0
1.1122123752831008e7 -1.1938821127125842e7 0.0
0.0 0.0 0.0

-6.152599973165892e6 1.572488527397053e7 0.0
1.572488527397053e7 5.51601675851319e6 0.0
0.0 0.0 0.0

-7.183022204955298e6 1.4643375363371251e7 0.0
1.4643375363371251e7 -70254.65383132454 0.0
0.0 0.0 0.0

-8.985461482460536e6 1.7156241834799122e7 0.0
1.7156241834799122e7 7.823506602456626e6 0.0
0.0 0.0 0.0

-2.5801047740927776e6 1.2797164700991182e7 0.0
1.2797164700991182e7 3.833683065918158e6 0.0
0.0 0.0 0.0

4.414670709740852e6 6.618381980301124e6 0.0
6.618381980301124e6 -1.30922402209375e7 0.0
0.0 0.0 0.0

-891762.7798164731 1.3082923498949885e7 0.0
1.3082923498949885e7 -7.270264796406907e6 0.0
0.0 0.0 0.0

-354909.93221324356 1.797879115824801e7 0.0
1.797879115824801e7 -6.217207819043735e6 0.0
0.0 0.0 0.0

-1.0005414302947182e7 -2.466192560498376e6 0.0
-2.466192560498376e6 1.268809642524349e7 0.0
0.0 0.0 0.0

-2.9835696848398214e6 1.3770874769028202e7 0.0
1.3770874769028202e7 2.9084941096368404e6 0.0
0.0 0.0 0.0

1.1563762755911401e6 1.0860676578072436e7 0.0
1.0860676578072436e7 -1.6202436314898331e6 0.0
0.0 0.0 0.0

2.3089665719369557e6 1.3915074814920312e7 0.0
1.3915074814920312e7 -5.387898197434669e6 0.0
0.0 0.0 0.0

-1.0854266502098208e7 2.1526096513386834e6 0.0
2.1526096513386834e6 1.4242128047018653e7 0.0
0.0 0.0 0.0

138181.3230913484 1.2472570576350873e7 0.0
1.2472570576350873e7 3.907642256828036e6 0.0
0.0 0.0 0.0

-6.373235115685949e6 1.2191498395895371e7 0.0
1.2191498395895371e7 1.2768409103033757e6 0.0
0.0 0.0 0.0

1.5461501963420068e6 1.1137276621231802e7 0.0
1.1137276621231802e7 -1.1990251195179796e7 0.0
0.0 0.0 0.0

-4.569720014913674e6 2.0220761703599513e7 0.0
2.0220761703599513e7 395623.2824441518 0.0
0.0 0.0 0.0

-9.490563393220656e6 1.756119198033448e7 0.0
1.756119198033448e7 8.069974702241545e6 0.0
0.0 0.0 0.0

-8.465302473222319e6 3.3937140944373333e6 0.0
3.3937140944373333e6 1.1881699074942544e7 0.0
0.0 0.0 0.0

-2.3619295238715387e6 1.4434778841612931e7 0.0
1.4434778841612931e7 -1.1479663337042946e6 0.0
0.0 0.0 0.0

-8.990738746803666e6 1.8043439172281645e7 0.0
1.8043439172281645e7 7.623293461964761e6 0.0
0.0 0.0 0.0

-8.642569429804863e6 1.757801249310077e7 0.0
1.757801249310077e7 7.472308480123932e6 0.0
0.0 0.0 0.0

-166741.66557932715 1.1733079311564142e7 0.0
1.1733079311564142e7 2.0936872396153063e6 0.0
0.0 0.0 0.0

1.8512669936319697e6 9.40331487115103e6 0.0
9.40331487115103e6 -9.356098225376435e6 0.0
0.0 0.0 0.0

1.4585345119073067e7 1.5129528204016259e7 0.0
1.5129528204016259e7 2.783464152012821e6 0.0
0.0 0.0 0.0

-2.207325132353962e7 -3.047604421535737e6 0.0
-3.047604421535737e6 9.738993288561888e6 0.0
0.0 0.0 0.0

-1.1227170690486897e7 1.479594971027784e7 0.0
1.479594971027784e7 6.547311219667653e6 0.0
0.0 0.0 0.0

4.722096898061621e6 5.510751180363474e6 0.0
5.510751180363474e6 -1.3926422647434492e7 0.0
0.0 0.0 0.0

-1.8953142680262113e6 1.253605454068676e7 0.0
1.253605454068676e7 -4.998723034777589e6 0.0
0.0 0.0 0.0

-9.084524558748735e6 1.5987503121263692e7 0.0
1.5987503121263692e7 7.6857361544822175e6 0.0
0.0 0.0 0.0

-1.1624859480226073e7 -319483.22975184646 0.0
-319483.22975184646 1.5569341798465075e7 0.0
0.0 0.0 0.0

2.813392306931927e6 8.243515419066827e6 0.0
8.243515419066827e6 -1.2509183717213029e7 0.0
0.0 0.0 0.0

-1.506480347241952e6 1.0618045898225274e7 0.0
1.0618045898225274e7 -1.0064014411863687e7 0.0
0.0 0.0 0.0

2.414913168322271e6 1.2037197334108386e7 0.0
1.2037197334108386e7 1.6312820854346508e6 0.0
0.0 0.0 0.0

-1.996331753365825e7 1.776975760748637e7 0.0
1.776975760748637e7 6.469914329365607e6 0.0
0.0 0.0 0.0

-1.9731931107069852e6 8.10995470501363e6 0.0
8.10995470501363e6 -1.7210851887730192e6 0.0
0.0 0.0 0.0

-7.576551246365074e6 1.6032225422811585e7 0.0
1.6032225422811585e7 6.692940980824765e6 0.0
0.0 0.0 0.0

-6.061103538237686e6 1.6134944006462855e7 0.0
1.6134944006462855e7 5.126430165604278e6 0.0
0.0 0.0 0.0

-9.191779056779675e6 1.1086882569664456e6 0.0
1.1086882569664456e6 1.57351305316086e7 0.0
0.0 0.0 0.0

-1.4394917027469233e6 2.895787190728955e6 0.0
2.895787190728955e6 564037.6349509038 0.0
0.0 0.0 0.0

1.2772217066741716e6 9.627427081773657e6 0.0
9.627427081773657e6 -9.709533436140534e6 0.0
0.0 0.0 0.0

-1.0525230590549871e7 -383681.1636630351 0.0
-383681.1636630351 1.5509899757219408e7 0.0
0.0 0.0 0.0

343550.019979808 1.1420973974070732e7 0.0
1.1420973974070732e7 -9.371856600443756e6 0.0
0.0 0.0 0.0

3.1131950434081885e6 1.1974720299353782e7 0.0
1.1974720299353782e7 -3.6645383840876217e6 0.0
0.0 0.0 0.0

712499.953859611 7.064208541486698e6 0.0
7.064208541486698e6 -6.248643024745846e6 0.0
0.0 0.0 0.0

-9.228841464807248e6 1.46762093284542e7 0.0
1.46762093284542e7 6.776544987793816e6 0.0
0.0 0.0 0.0

-5.365189414728315e6 1.596313960950436e7 0.0
1.596313960950436e7 1.8445716014097081e6 0.0
0.0 0.0 0.0

-358119.59911749704 8.1246741121024e6 0.0
8.1246741121024e6 -1.1937316369203685e6 0.0
0.0 0.0 0.0

-613202.0111956241 1.1382185827882547e7 0.0
1.1382185827882547e7 -2.044006847587558e6 0.0
0.0 0.0 0.0

1.5446719057398099e6 9.714839881878931e6 0.0
9.714839881878931e6 -8.84142058793772e6 0.0
0.0 0.0 0.0

-1.651645562000549e6 1.0691328183604728e7 0.0
1.0691328183604728e7 -1.0071926237678993e7 0.0
0.0 0.0 0.0

-7.271510115200048e6 474136.7511909406 0.0
474136.7511909406 7.96389708972761e6 0.0
0.0 0.0 0.0

-2.583389954164167e6 8.73970073060131e6 0.0
8.73970073060131e6 413596.8274510219 0.0
0.0 0.0 0.0

-1.456595533105436e6 1.4090460729985034e7 0.0
1.4090460729985034e7 -5.3164016243481655e6 0.0
0.0 0.0 0.0

2.757485959054981e6 6.661773903292398e6 0.0
6.661773903292398e6 -9.891780675387703e6 0.0
0.0 0.0 0.0

-1.8177828292068835e7 1.1358738286737558e7 0.0
1.1358738286737558e7 4.0506603428676855e6 0.0
0.0 0.0 0.0

2.5320627750959266e6 1.2643545618827345e7 0.0
1.2643545618827345e7 -4.813058622930681e6 0.0
0.0 0.0 0.0

7.679598479252798e6 1.1040720973965079e7 0.0
1.1040720973965079e7 -3.865503515108575e6 0.0
0.0 0.0 0.0

-1.2854329212009192e7 1.856395860682668e7 0.0
1.856395860682668e7 9.823760726539344e6 0.0
0.0 0.0 0.0

-3.6549501632186603e6 3.2369385484178807e6 0.0
3.2369385484178807e6 4.001930470540613e6 0.0
0.0 0.0 0.0

-1.1540510640560482e6 1.1466279795160087e7 0.0
1.1466279795160087e7 -5.4811478672230765e6 0.0
0.0 0.0 0.0

-3.2793357566349576e6 1.402778958278823e7 0.0
1.402778958278823e7 -878133.6562254527 0.0
0.0 0.0 0.0

-1.490733369739267e7 1.4606774949654467e7 0.0
1.4606774949654467e7 9.340243128166635e6 0.0
0.0 0.0 0.0

-1.4370181914863582e6 1.172964293914345e7 0.0
1.172964293914345e7 -1.350308535017455e7 0.0
0.0 0.0 0.0

-256306.10313318315 1.2069378787217839e7 0.0
1.2069378787217839e7 1.1910267891935383e6 0.0
0.0 0.0 0.0

-371200.6053750445 1.0910504957658475e7 0.0
1.0910504957658475e7 -1.1064940896426737e7 0.0
0.0 0.0 0.0

-1.4253644541344564e7 1.6502766830291875e7 0.0
1.6502766830291875e7 1.0164547656490348e7 0.0
0.0 0.0 0.0

-3.9286341521802023e6 1.5021051774939248e7 0.0
1.5021051774939248e7 -2.0549704598083205e6 0.0
0.0 0.0 0.0

-2.7464871790261413e6 1.3999167354860954e7 0.0
1.3999167354860954e7 140979.10624422657 0.0
0.0 0.0 0.0

3.43564101855141e6 8.78822086934564e6 0.0
8.78822086934564e6 -1.3506431862473983e7 0.0
0.0 0.0 0.0

-1.1723508642037096e7 1.3117186871163298e6 0.0
1.3117186871163298e6 1.8080982121960383e7 0.0
0.0 0.0 0.0

-1.8088618679577415e6 1.124304950275058e7 0.0
1.124304950275058e7 -3.6004475396893253e6 0.0
0.0 0.0 0.0

2.364537708837798e6 1.3129528022050858e7 0.0
1.3129528022050858e7 -4.545759165276545e6 0.0
0.0 0.0 0.0

-1.080931275853172e6 1.144616557169476e7 0.0
1.144616557169476e7 -1.2445930189390754e7 0.0
0.0 0.0 0.0

-8.625863246585317e6 1.5889733924443988e7 0.0
1.5889733924443988e7 6.438148885895772e6 0.0
0.0 0.0 0.0

694831.1822256246 2.039112949862711e7 0.0
2.039112949862711e7 -9.889748274608208e6 0.0
0.0 0.0 0.0

-1.9355304508030803e6 1.4148129177899031e7 0.0
1.4148129177899031e7 -952725.5721950365 0.0
0.0 0.0 0.0

-9.301699048783649e6 1.6299819203879878e7 0.0
1.6299819203879878e7 7.162981798484543e6 0.0
0.0 0.0 0.0

-8.435353635149237e6 1.095792586419915e7 0.0
1.095792586419915e7 9.456727427667301e6 0.0
0.0 0.0 0.0

1.204643237751022e6 1.2557047084069261e7 0.0
1.2557047084069261e7 -5.608375669152094e6 0.0
0.0 0.0 0.0

-6.350432568101265e6 1.5881921758676905e7 0.0
1.5881921758676905e7 5.8672348221219815e6 0.0
0.0 0.0 0.0

-616452.9983455595 1.1384885822649281e7 0.0
1.1384885822649281e7 -1.2986676132550297e7 0.0
0.0 0.0 0.0

4.1059396597798793e6 6.176973776929782e6 0.0
6.176973776929782e6 -1.2580524809813458e7 0.0
0.0 0.0 0.0

-1.1223508327614036e6 1.1264447949039493e7 0.0
1.1264447949039493e7 -1.1610659093554048e7 0.0
0.0 0.0 0.0

-7.069071703145957e6 1.6998160819495846e7 0.0
1.6998160819495846e7 6.147456938880393e6 0.0
0.0 0.0 0.0

-1.2621820228434736e6 1.1834096794528753e7 0.0
1.1834096794528753e7 -4.20727329619502e6 0.0
0.0 0.0 0.0

635464.9158617221 9.956793936875153e6 0.0
9.956793936875153e6 2.11821645641292e6 0.0
0.0 0.0 0.0

-1.1907097054396719e7 8.569758739621816e6 0.0
8.569758739621816e6 1.345532458226454e7 0.0
0.0 0.0 0.0

-1.082454880345255e6 9.103577008714736e6 0.0
9.103577008714736e6 -2.4304109813666595e6 0.0
0.0 0.0 0.0

2.3126402212635158e6 1.2030032694599511e7 0.0
1.2030032694599511e7 1.1758423036536507e7 0.0
0.0 0.0 0.0

-1.1027667608626727e7 -2.794113500930416e6 0.0
-2.794113500930416e6 1.6466620771881185e7 0.0
0.0 0.0 0.0

5.019406540908861e6 5.8281816902412e6 0.0
5.8281816902412e6 -1.6178661741916863e7 0.0
0.0 0.0 0.0

69093.91547894571 1.1430622673723854e7 0.0
1.1430622673723854e7 -1.2182922908083651e7 0.0
0.0 0.0 0.0

-8.60669558328582e6 1.6513046849623056e7 0.0
1.6513046849623056e7 7.094048177296408e6 0.0
0.0 0.0 0.0

9.457226552196467e6 1.0425340089587947e7 0.0
1.0425340089587947e7 -251456.78134200256 0.0
0.0 0.0 0.0

-1.0975902443931462e7 1.1908707293933735e6 0.0
1.1908707293933735e6 1.3151606041438326e7 0.0
0.0 0.0 0.0

-1.3220563556388415e7 1.7986998283163924e7 0.0
1.7986998283163924e7 2.439941656880918e6 0.0
0.0 0.0 0.0

-3.4553889368670075e6 1.3397531606844626e7 0.0
1.3397531606844626e7 2.8861199492751323e6 0.0
0.0 0.0 0.0

-1.6300035744146973e7 1.5386683558261521e7 0.0
1.5386683558261521e7 1.048258887969384e7 0.0
0.0 0.0 0.0

5.07410859621913e6 6.066664657605063e6 0.0
6.066664657605063e6 -1.680814239942599e7 0.0
0.0 0.0 0.0

-3.3881723253434957e6 1.7457828996983673e7 0.0
1.7457828996983673e7 -804621.1737351147 0.0
0.0 0.0 0.0

-1.2355043307166276e7 7.502153863353391e6 0.0
7.502153863353391e6 2.6620231549876563e7 0.0
0.0 0.0 0.0

-6.419523656773387e6 1.561951766381436e7 0.0
1.561951766381436e7 6.576673894066101e6 0.0
0.0 0.0 0.0

-871444.5534407404 1.1540509973988373e7 0.0
1.1540509973988373e7 -3.3120557158994214e6 0.0
0.0 0.0 0.0

-591950.4866961574 5.502345417534229e6 0.0
5.502345417534229e6 -871140.7231065469 0.0
0.0 0.0 0.0

-819344.0929996031 1.2299673885689322e7 0.0
1.2299673885689322e7 3.3866870337944897e6 0.0
0.0 0.0 0.0

-3.89245976973558e6 1.3966906699450167e7 0.0
1.3966906699450167e7 4.193736788262872e6 0.0
0.0 0.0 0.0

969507.5471162316 7.5111901187412385e6 0.0
7.5111901187412385e6 -5.55934645844822e6 0.0
0.0 0.0 0.0

-1.6171943197055652e6 1.329157389609653e7 0.0
1.329157389609653e7 -238635.40471454378 0.0
0.0 0.0 0.0

2.1326524314268157e6 1.2790052964162247e7 0.0
1.2790052964162247e7 -4.6035162371321805e6 0.0
0.0 0.0 0.0

-1.4883007441521815e6 8.842317912123866e6 0.0
8.842317912123866e6 -1.4558026162539402e6 0.0
0.0 0.0 0.0

375727.80038417876 1.110389893507361e7 0.0
1.110389893507361e7 -1.2746543438661521e7 0.0
0.0 0.0 0.0

-4.576372269663678e6 1.0225940937399367e7 0.0
1.0225940937399367e7 1.8368325268026355e6 0.0
0.0 0.0 0.0

-8.103431042123399e6 1.0801314177342381e7 0.0
1.0801314177342381e7 1.1271673768689945e7 0.0
0.0 0.0 0.0

-7.084283573691865e6 311062.55427216 0.0
311062.55427216 8.712834078691384e6 0.0
0.0 0.0 0.0

-5.308054794506656e6 1.3806096188045764e7 0.0
1.3806096188045764e7 1.1651622983908877e6 0.0
0.0 0.0 0.0

-6.802441800952366e6 1.617654541809873e7 0.0
1.617654541809873e7 6.5071396667935755e6 0.0
0.0 0.0 0.0

-844943.8433191194 1.7870043850552954e7 0.0
1.7870043850552954e7 -3.9294446285895603e6 0.0
0.0 0.0 0.0

-1.1304961938052416e7 531172.206781616 0.0
531172.206781616 1.4198141548523102e7 0.0
0.0 0.0 0.0

-205690.30364943016 1.1382637877385562e7 0.0
1.1382637877385562e7 -1.317287022015859e7 0.0
0.0 0.0 0.0

-6.565655060846616e6 1.616539148113798e7 0.0
1.616539148113798e7 6.54286524963052e6 0.0
0.0 0.0 0.0

1.2429138942275168e6 1.1385045158190241e7 0.0
1.1385045158190241e7 -6.446926645658601e6 0.0
0.0 0.0 0.0

-1.3475467954699516e6 9.850372160685098e6 0.0
9.850372160685098e6 -3.786459408999543e6 0.0
0.0 0.0 0.0

-2.0913526436400604e6 3.3553249580930443e6 0.0
3.3553249580930443e6 1.5597540739316163e6 0.0
0.0 0.0 0.0

-9.078450930054754e6 1.6797463301851764e7 0.0
1.6797463301851764e7 7.608253979602328e6 0.0
0.0 0.0 0.0

-3.952960679440626e6 1.3337025445547296e7 0.0
1.3337025445547296e7 1.170117038967079e6 0.0
0.0 0.0 0.0

-651931.9681536034 1.1952481868523441e7 0.0
1.1952481868523441e7 5.577949926868341e6 0.0
0.0 0.0 0.0

616150.8665136923 4.669127151231999e6 0.0
4.669127151231999e6 -2.5595924899379667e6 0.0
0.0 0.0 0.0

1.701925254647569e6 1.0768226846361281e7 0.0
1.0768226846361281e7 23773.761367707397 0.0
0.0 0.0 0.0

4.302168629968511e6 8.474727353445953e6 0.0
8.474727353445953e6 -2.118175185305273e7 0.0
0.0 0.0 0.0

-5.532200034813856e6 1.9669145957634803e7 0.0
1.9669145957634803e7 -582660.3115047973 0.0
0.0 0.0 0.0

-5.237313833252651e6 1.454472296593593e7 0.0
1.454472296593593e7 5.699627655644399e6 0.0
0.0 0.0 0.0

-3.1379133639011737e6 6.8422351025075335e6 0.0
6.8422351025075335e6 819022.7837105349 0.0
0.0 0.0 0.0

-548682.054803734 1.3102253607399648e7 0.0
1.3102253607399648e7 -1.7701303139079916e6 0.0
0.0 0.0 0.0

3.6965187088680137e6 9.386825051795162e6 0.0
9.386825051795162e6 -1.94841116079231e7 0.0
0.0 0.0 0.0

899950.8108086823 1.1405263793745717e7 0.0
1.1405263793745717e7 -1.1282040108015342e7 0.0
0.0 0.0 0.0

-1.1505605110552898e7 1.8158340646347355e7 0.0
1.8158340646347355e7 8.734550588800147e6 0.0
0.0 0.0 0.0

-1.1136109460775473e6 1.175736904640534e7 0.0
1.175736904640534e7 -3.7120366769826184e6 0.0
0.0 0.0 0.0

-2.8983482894609007e6 1.4435794476237576e7 0.0
1.4435794476237576e7 -1.9757433485684218e6 0.0
0.0 0.0 0.0

-5.727329834326781e6 1.3949225653310353e7 0.0
1.3949225653310353e7 4.662647410106852e6 0.0
0.0 0.0 0.0

-538358.8092241012 1.1548753457627665e7 0.0
1.1548753457627665e7 -5.601480810445017e6 0.0
0.0 0.0 0.0

2.1409359131863737e6 1.1846397933311187e7 0.0
1.1846397933311187e7 871399.0951819204 0.0
0.0 0.0 0.0

-5.41506827062159e6 1.3851634004169563e7 0.0
1.3851634004169563e7 1.4187555952938194e6 0.0
0.0 0.0 0.0

-1.5148466226022928e6 1.3375352070202617e7 0.0
1.3375352070202617e7 1.2352117322845617e6 0.0
0.0 0.0 0.0

-1.2270533657587014e7 4.396877257932156e6 0.0
4.396877257932156e6 3.164329785051591e7 0.0
0.0 0.0 0.0

-732157.7664435457 9.728436920216333e6 0.0
9.728436920216333e6 -3.6109428544307165e6 0.0
0.0 0.0 0.0

-2.0278152805149285e6 1.0399575266131695e7 0.0
1.0399575266131695e7 -9.848583591250869e6 0.0
0.0 0.0 0.0

-453372.05725220917 1.2792976766195605e7 0.0
1.2792976766195605e7 -7.962706908058433e6 0.0
0.0 0.0 0.0

-3.712850306499251e6 1.1840015488908373e7 0.0
1.1840015488908373e7 -2.137980966934881e6 0.0
0.0 0.0 0.0

-4.141898857241449e6 1.368443774825488e7 0.0
1.368443774825488e7 4.211999678481137e6 0.0
0.0 0.0 0.0

-350524.4477784705 1.127543792074103e7 0.0
1.127543792074103e7 -1.1684147967160698e6 0.0
0.0 0.0 0.0

-6.23974686899988e6 1.6304507434220014e7 0.0
1.6304507434220014e7 5.58452040302762e6 0.0
0.0 0.0 0.0

-1.2776193504577077e6 1.3667573715342386e7 0.0
1.3667573715342386e7 -237602.81424665573 0.0
0.0 0.0 0.0

-1.2207363614898246e7 -2.385328136012533e6 0.0
-2.385328136012533e6 3.1197481928716544e7 0.0
0.0 0.0 0.0

-1.0048651170950763e7 3.9453455130143566e6 0.0
3.9453455130143566e6 1.1060634545439847e7 0.0
0.0 0.0 0.0

1.2229679723470723e6 1.170374702796302e7 0.0
1.170374702796302e7 -6.092742362663401e6 0.0
0.0 0.0 0.0

-1.4388138209706405e7 1.285462737636451e7 0.0
1.285462737636451e7 6.851815543093051e6 0.0
0.0 0.0 0.0

-4.1434820029621236e6 2.5907856171402163e6 0.0
2.5907856171402163e6 3.0477955691348696e6 0.0
0.0 0.0 0.0

-1.3046224556887602e7 1.8539782954434967e6 0.0
1.8539782954434967e6 2.360759821577958e7 0.0
0.0 0.0 0.0

-835928.9423998559 -1.6538144118824773e6 0.0
-1.6538144118824773e6 -10611.69544453302 0.0
0.0 0.0 0.0

-2.561472092607933e6 1.7759844598645687e6 0.0
1.7759844598645687e6 598768.1554947817 0.0
0.0 0.0 0.0

1.7145454074245752e6 8.76851990060962e6 0.0
8.76851990060962e6 -9.718653859573213e6 0.0
0.0 0.0 0.0

-4.60415942047173e6 1.3466047145915281e7 0.0
1.3466047145915281e7 1.0659105221248774e6 0.0
0.0 0.0 0.0

-4.999830799103179e6 1.1320687341139993e7 0.0
1.1320687341139993e7 -792819.2800546889 0.0
0.0 0.0 0.0

-4.968565552204272e6 1.3620282969473202e7 0.0
1.3620282969473202e7 5.96260353556266e6 0.0
0.0 0.0 0.0

-10810.308747095987 1.093461853701803e7 0.0
1.093461853701803e7 -1.0866939220379688e7 0.0
0.0 0.0 0.0

-2.048354314841089e6 1.0969291256331878e7 0.0
1.0969291256331878e7 5.260135874577771e6 0.0
0.0 0.0 0.0

-2.7509841317065684e6 1.150916025144638e7 0.0
1.150916025144638e7 -1.2013914994707515e7 0.0
0.0 0.0 0.0

-2.452026895830991e6 1.334281791350821e7 0.0
1.334281791350821e7 764229.7752676437 0.0
0.0 0.0 0.0

3.258468482375754e6 1.0053252176114677e7 0.0
1.0053252176114677e7 -2.2435613239042006e7 0.0
0.0 0.0 0.0

3.4405272126717037e6 9.401583177399294e6 0.0
9.401583177399294e6 -1.774643666517424e7 0.0
0.0 0.0 0.0

-2.0228249866699448e6 1.4176096476085743e7 0.0
1.4176096476085743e7 -1.641487992070037e6 0.0
0.0 0.0 0.0

-7.727605400789174e6 1.643919431408469e7 0.0
1.643919431408469e7 3.6073213464277056e6 0.0
0.0 0.0 0.0

-7.882693723431918e6 1.5667972582426444e7 0.0
1.5667972582426444e7 6.77707678700262e6 0.0
0.0 0.0 0.0

-3.267886033126697e6 8.877637941610945e6 0.0
8.877637941610945e6 273768.0683371355 0.0
0.0 0.0 0.0

-2.7326425581756774e6 3.205149846639502e6 0.0
3.205149846639502e6 3.4765936141346274e6 0.0
0.0 0.0 0.0

1.446894017090748e6 1.0760266720054787e7 0.0
1.0760266720054787e7 -5.743311201822568e6 0.0
0.0 0.0 0.0

3.299040373904287e6 1.31511624402985e7 0.0
1.31511624402985e7 -5.2549635378259085e6 0.0
0.0 0.0 0.0

-1.0970003479853801e7 8.1973585945945745e6 0.0
8.1973585945945745e6 2.76307120868873e7 0.0
0.0 0.0 0.0

-1.8811034723554177e6 1.3103888305942044e7 0.0
1.3103888305942044e7 2.909749412112032e6 0.0
0.0 0.0 0.0

-7.185100085528912e6 1.6175127064071821e7 0.0
1.6175127064071821e7 6.537175648109872e6 0.0
0.0 0.0 0.0

-1.302329588977648e6 9.881683819570953e6 0.0
9.881683819570953e6 -8.25194439750873e6 0.0
0.0 0.0 0.0

-1.2836436047938142e7 4.936545616995884e6 0.0
4.936545616995884e6 2.175964400891528e7 0.0
0.0 0.0 0.0

-1.9111456135895178e6 1.2988709847207641e7 0.0
1.2988709847207641e7 1.310687707227123e6 0.0
0.0 0.0 0.0

-1.0473101033215004e6 1.2750689120073644e7 0.0
1.2750689120073644e7 -7.279807608018849e6 0.0
0.0 0.0 0.0

1.3282696580811674e6 1.094758516579209e7 0.0
1.094758516579209e7 -1.2580398703759816e7 0.0
0.0 0.0 0.0

3.6339207889493825e6 8.79556421009904e6 0.0
8.79556421009904e6 -1.7697927232514776e7 0.0
0.0 0.0 0.0

3.195335275695175e6 8.954510007423133e6 0.0
8.954510007423133e6 -1.518897354704885e7 0.0
0.0 0.0 0.0

-2.037196963873731e6 1.2907861643339362e7 0.0
1.2907861643339362e7 -1.6654235950001301e7 0.0
0.0 0.0 0.0

-6.290472523303989e6 1.6088694002254274e7 0.0
1.6088694002254274e7 5.726311045337909e6 0.0
0.0 0.0 0.0

-3.3964868630274027e6 1.4580716486092059e7 0.0
1.4580716486092059e7 -367615.3883938276 0.0
0.0 0.0 0.0

816211.8959064535 1.172874313061192e7 0.0
1.172874313061192e7 -8.396888673930014e6 0.0
0.0 0.0 0.0

5.87967662421505e6 1.3380297735258492e7 0.0
1.3380297735258492e7 -5.863897520735092e6 0.0
0.0 0.0 0.0

-1.1624856654118711e7 -52285.15631521204 0.0
-52285.15631521204 2.718686586173537e7 0.0
0.0 0.0 0.0

3.119605458967233e6 9.73936650201694e6 0.0
9.73936650201694e6 -1.999861417659441e7 0.0
0.0 0.0 0.0

3.5633210365892323e6 9.07923922626758e6 0.0
9.07923922626758e6 -1.4944548713292966e7 0.0
0.0 0.0 0.0

-1.1340474178921448e7 4.487429231731088e6 0.0
4.487429231731088e6 3.5670951637683354e7 0.0
0.0 0.0 0.0

4.85044245794463e6 1.231544429780203e7 0.0
1.231544429780203e7 2.13850683108238e6 0.0
0.0 0.0 0.0

-1.1650664138150627e7 3.2069482385816607e6 0.0
3.2069482385816607e6 2.527127367238122e7 0.0
0.0 0.0 0.0

-290962.81107733154 4.609975339171844e6 0.0
4.609975339171844e6 -1.5674884824334267e6 0.0
0.0 0.0 0.0

-6.638918921071142e6 1.6556273060720371e7 0.0
1.6556273060720371e7 5.324999291344711e6 0.0
0.0 0.0 0.0

2.4930929566646093e6 8.519539750532998e6 0.0
8.519539750532998e6 -1.1964235859476643e7 0.0
0.0 0.0 0.0

-8.603153017526843e6 1.7316286703498207e7 0.0
1.7316286703498207e7 7.601160280067066e6 0.0
0.0 0.0 0.0

-1.1507899286203377e7 6.830774113640047e6 0.0
6.830774113640047e6 1.9770296560261115e7 0.0
0.0 0.0 0.0

-7.8659841048307605e6 3.6101058878295324e6 0.0
3.6101058878295324e6 8.389153209367722e6 0.0
0.0 0.0 0.0

-2.808235006365771e6 1.769515394410639e7 0.0
1.769515394410639e7 -1.5566960507663726e6 0.0
0.0 0.0 0.0

-4.635132515821986e6 1.4005017809142942e7 0.0
1.4005017809142942e7 5.896710141923867e6 0.0
0.0 0.0 0.0

-3.2846160303922156e6 1.5234408320598073e7 0.0
1.5234408320598073e7 -1.7244473580715954e6 0.0
0.0 0.0 0.0

-5.690657951313322e6 1.4881741486422785e7 0.0
1.4881741486422785e7 5.212968743789648e6 0.0
0.0 0.0 0.0

113843.83040584717 1.1380870385551622e7 0.0
1.1380870385551622e7 -1.1493901544899136e7 0.0
0.0 0.0 0.0

245636.95198451565 1.3953968582703633e7 0.0
1.3953968582703633e7 -5.335808993112268e6 0.0
0.0 0.0 0.0

-1.0149155100319213e6 1.3187968659315392e7 0.0
1.3187968659315392e7 1.1939061948068285e7 0.0
0.0 0.0 0.0

-4.644397557377081e6 -522792.07031182677 0.0
-522792.07031182677 8.9245933166229e6 0.0
0.0 0.0 0.0

-3.62992975964554e6 4.1195500321581853e6 0.0
4.1195500321581853e6 -1.1017821160017792e6 0.0
0.0 0.0 0.0

-1.1648950850713428e6 1.166633711016212e7 0.0
1.166633711016212e7 -3.8829834185923333e6 0.0
0.0 0.0 0.0

1.1460899370181058e6 1.1977027466954889e7 0.0
1.1977027466954889e7 3.8203000180376563e6 0.0
0.0 0.0 0.0

-5.316289134378966e6 2.017872930715497e7 0.0
2.017872930715497e7 -2.089271435445065e6 0.0
0.0 0.0 0.0

3.0243117631487735e6 5.583951944523052e6 0.0
5.583951944523052e6 -8.692875790157743e6 0.0
0.0 0.0 0.0

-8.272140976690328e6 1.8147546446159296e7 0.0
1.8147546446159296e7 7.423717911005085e6 0.0
0.0 0.0 0.0

-2.353135122134398e7 4.0981869059150126e6 0.0
4.0981869059150126e6 1.1470224980624337e7 0.0
0.0 0.0 0.0

-490671.38580150506 1.2930093772372901e7 0.0
1.2930093772372901e7 -7.659412263508476e6 0.0
0.0 0.0 0.0

-1.1938732684612125e7 8.244876049344044e6 0.0
8.244876049344044e6 1.6570967558535058e7 0.0
0.0 0.0 0.0

1.3419246411608402e6 1.1507513106530849e7 0.0
1.1507513106530849e7 -6.26214944456779e6 0.0
0.0 0.0 0.0

-4.68777014192074e6 1.40913351037496e7 0.0
1.40913351037496e7 4.827478188139876e6 0.0
0.0 0.0 0.0

-4.1892852150393007e6 1.3238468893049939e7 0.0
1.3238468893049939e7 402941.3199689763 0.0
0.0 0.0 0.0

1.2583293923745966e6 1.2083660090955459e7 0.0
1.2083660090955459e7 -6.763268625848005e6 0.0
0.0 0.0 0.0

5.266310973771438e6 5.765633380572039e6 0.0
5.765633380572039e6 -1.7192636562253825e7 0.0
0.0 0.0 0.0

-1.0104290143903896e6 8.030135070101121e6 0.0
8.030135070101121e6 -3.368097043838558e6 0.0
0.0 0.0 0.0

2.619064088044137e6 1.4310551866853714e7 0.0
1.4310551866853714e7 -5.345220129626231e6 0.0
0.0 0.0 0.0

630256.0728780925 1.1834735497938825e7 0.0
1.1834735497938825e7 -8.951487526976027e6 0.0
0.0 0.0 0.0

-365482.88867646665 1.1492273572606357e7 0.0
1.1492273572606357e7 4.597574446240892e6 0.0
0.0 0.0 0.0

2.9986558546924395e6 9.645592300394177e6 0.0
9.645592300394177e6 -1.8124848287225805e7 0.0
0.0 0.0 0.0

-2.910061933704434e6 1.343440392078561e7 0.0
1.343440392078561e7 -2.764809552854235e6 0.0
0.0 0.0 0.0

-3.2103009827982625e6 1.3311023996866973e7 0.0
1.3311023996866973e7 9.160417158574678e6 0.0
0.0 0.0 0.0

3.0296620504179206e6 1.7274996075363033e7 0.0
1.7274996075363033e7 -8.335052816909079e6 0.0
0.0 0.0 0.0

3.2588587492121207e6 9.333667320203794e6 0.0
9.333667320203794e6 -1.6251453535230972e7 0.0
0.0 0.0 0.0

-1.9680598060151737e7 2.812838349292971e6 0.0
2.812838349292971e6 1.0618562928502107e7 0.0
0.0 0.0 0.0

-1.6727186805619993e6 1.2711809699591883e7 0.0
1.2711809699591883e7 4.008502038631754e6 0.0
0.0 0.0 0.0

-8.914189286540965e6 1.7750377893501885e7 0.0
1.7750377893501885e7 7.831629039502457e6 0.0
0.0 0.0 0.0

-1.6387845901585687e6 1.2690445217428159e7 0.0
1.2690445217428159e7 -4.187059996068505e6 0.0
0.0 0.0 0.0

-6.802386496439105e6 1.6387567739289926e7 0.0
1.6387567739289926e7 6.519148972960142e6 0.0
0.0 0.0 0.0

-1.2629068335322132e7 7.471950857449548e6 0.0
7.471950857449548e6 2.94652392852441e7 0.0
0.0 0.0 0.0

887388.9306155127 1.0263499205565846e7 0.0
1.0263499205565846e7 -7.796107226929907e6 0.0
0.0 0.0 0.0

-4.47367579543995e6 1.785195981123545e7 0.0
1.785195981123545e7 -1.4169742161888294e6 0.0
0.0 0.0 0.0

-1.2474813931102112e6 7.948433626042668e6 0.0
7.948433626042668e6 -1.4968557957008483e6 0.0
0.0 0.0 0.0

-1.986946623750057e7 2.985183491866386e6 0.0
2.985183491866386e6 1.0184367925899405e7 0.0
0.0 0.0 0.0

-2.5773050496123694e6 9.553839137688173e6 0.0
9.553839137688173e6 -1.2621254594916534e6 0.0
0.0 0.0 0.0

-1.0966739448596084e7 -917111.9190561392 0.0
-917111.9190561392 1.3490362239277147e7 0.0
0.0 0.0 0.0

-1.0894246994101088e7 9.063394038641853e6 0.0
9.063394038641853e6 1.770953343226236e7 0.0
0.0 0.0 0.0

-7.411888079633887e6 1.7253522427549064e7 0.0
1.7253522427549064e7 6.495428120996369e6 0.0
0.0 0.0 0.0

-9.29573659811843e6 1.827537136758928e7 0.0
1.827537136758928e7 8.057934857169565e6 0.0
0.0 0.0 0.0

-1.1568031007210385e7 6.019115564110233e6 0.0
6.019115564110233e6 2.312341614015563e7 0.0
0.0 0.0 0.0

818491.8434540858 9.380085900830658e6 0.0
9.380085900830658e6 -6.555913416711247e6 0.0
0.0 0.0 0.0

2.8055789805669663e6 1.2071238720342254e7 0.0
1.2071238720342254e7 -3.5418537150097694e6 0.0
0.0 0.0 0.0

-848539.4816926466 8.482764815040594e6 0.0
8.482764815040594e6 -6.310035848634866e6 0.0
0.0 0.0 0.0

-426500.3540122066 5.88941837908514e6 0.0
5.88941837908514e6 596475.2018522305 0.0
0.0 0.0 0.0

-7.110421431644167e6 1.725087839424453e7 0.0
1.725087839424453e7 6.470343119315794e6 0.0
0.0 0.0 0.0

-1.0815578334551878e7 9.502872715294303e6 0.0
9.502872715294303e6 1.2280047223632438e7 0.0
0.0 0.0 0.0

2.849555287145124e6 9.6382872404422e6 0.0
9.6382872404422e6 -1.6710143505388346e7 0.0
0.0 0.0 0.0

-1.1882968136521216e7 1.3792785699946327e7 0.0
1.3792785699946327e7 5.425740294630272e6 0.0
0.0 0.0 0.0

-3.6889589237755276e6 1.55684222155417e7 0.0
1.55684222155417e7 -923847.3480079671 0.0
0.0 0.0 0.0

5.258821245799577e6 6.646302517967833e6 0.0
6.646302517967833e6 -1.996304970429899e7 0.0
0.0 0.0 0.0

-4.096068514502903e6 1.2660518619098863e7 0.0
1.2660518619098863e7 6.712029628949276e6 0.0
0.0 0.0 0.0

-4.470897012054511e6 1.3414318781020131e7 0.0
1.3414318781020131e7 2.152124793247717e6 0.0
0.0 0.0 0.0

-44364.75637628976 1.2967659727299478e7 0.0
1.2967659727299478e7 -7.6813599545748215e6 0.0
0.0 0.0 0.0

-9.476832265329126e6 1.7224599987663895e7 0.0
1.7224599987663895e7 8.008557605536808e6 0.0
0.0 0.0 0.0

-3.875512600492774e6 1.3541375947336257e7 0.0
1.3541375947336257e7 903306.4247648506 0.0
0.0 0.0 0.0

-7.935561339167933e6 1.7452621868107554e7 0.0
1.7452621868107554e7 6.933280814858187e6 0.0
0.0 0.0 0.0

-641510.851105396 6.55470419569544e6 0.0
6.55470419569544e6 -1.9645425365281755e6 0.0
0.0 0.0 0.0

652668.4269576975 1.256374005618596e7 0.0
1.256374005618596e7 3.7979754457294513e6 0.0
0.0 0.0 0.0

705761.3167436328 1.1610021045393398e7 0.0
1.1610021045393398e7 -1.0565593852466106e7 0.0
0.0 0.0 0.0

-1.8780317917043432e6 9.40436604253861e6 0.0
9.40436604253861e6 -1.0665850663148228e6 0.0
0.0 0.0 0.0

112427.04270045087 1.233226036217058e7 0.0
1.233226036217058e7 -8.880707986870974e6 0.0
0.0 0.0 0.0

2.41475568542279e6 6.867433770726346e6 0.0
6.867433770726346e6 -9.358939570329484e6 0.0
0.0 0.0 0.0

-256501.86221182672 1.371910304166075e7 0.0
1.371910304166075e7 7.412487708435029e6 0.0
0.0 0.0 0.0

-8.848373949619565e6 -4.885625225751659e6 0.0
-4.885625225751659e6 1.6575373450096183e7 0.0
0.0 0.0 0.0

906636.9046332191 1.2784890101014988e7 0.0
1.2784890101014988e7 4.404295521792395e6 0.0
0.0 0.0 0.0

-6.623266610388717e6 1.6366351773256453e7 0.0
1.6366351773256453e7 5.52437014646985e6 0.0
0.0 0.0 0.0

1.1871283692256776e6 1.1481191084136946e7 0.0
1.1481191084136946e7 -1.1388063842373021e7 0.0
0.0 0.0 0.0

-3.7780976434563715e6 1.7134599210065357e7 0.0
1.7134599210065357e7 -427949.06287144846 0.0
0.0 0.0 0.0

-303997.01065900037 1.2842175780408897e7 0.0
1.2842175780408897e7 -1.5576814981556516e6 0.0
0.0 0.0 0.0

3.0852656816746616e6 8.295958448512673e6 0.0
8.295958448512673e6 -1.1613344123442085e7 0.0
0.0 0.0 0.0

-4.0070505535951275e6 1.538528438830898e7 0.0
1.538528438830898e7 -1.9655482697226116e6 0.0
0.0 0.0 0.0

550995.8423147611 1.1817264604904339e7 0.0
1.1817264604904339e7 -1.0045809060939817e7 0.0
0.0 0.0 0.0

-2.3240403315596785e6 5.346457322669407e6 0.0
5.346457322669407e6 1.3839742302405746e6 0.0
0.0 0.0 0.0

-3.647973965427605e6 1.4082482978290468e7 0.0
1.4082482978290468e7 6.1038708567183325e6 0.0
0.0 0.0 0.0

-4.619711813597141e6 1.4331340895894818e7 0.0
1.4331340895894818e7 4.772359632411227e6 0.0
0.0 0.0 0.0

-6.813957143333895e6 1.6703390859572796e7 0.0
1.6703390859572796e7 5.818873846611381e6 0.0
0.0 0.0 0.0

-1.952873191192182e6 1.2637769318454398e7 0.0
1.2637769318454398e7 2.7670642840693626e6 0.0
0.0 0.0 0.0

-545927.3757756117 5.88092636990724e6 0.0
5.88092636990724e6 -1.0098127583016128e6 0.0
0.0 0.0 0.0

-1.2657774615562942e7 4.019889220743517e6 0.0
4.019889220743517e6 1.8542973486292668e7 0.0
0.0 0.0 0.0

-181078.02596548107 1.2604262812526375e7 0.0
1.2604262812526375e7 -8.287090904319309e6 0.0
0.0 0.0 0.0

2.5293953005486047e6 1.142697142533825e7 0.0
1.142697142533825e7 -2.1070960341957387e7 0.0
0.0 0.0 0.0

-754392.6091623548 6.281495754937444e6 0.0
6.281495754937444e6 -1.2003517515355446e6 0.0
0.0 0.0 0.0

-7.106019495696271e6 1.0676108880409023e6 0.0
1.0676108880409023e6 7.607455890268674e6 0.0
0.0 0.0 0.0

-5.046344089464128e6 1.0411608621839724e7 0.0
1.0411608621839724e7 2.6495016681642216e6 0.0
0.0 0.0 0.0

-4.0343386232490526e6 1.5559394627072731e7 0.0
1.5559394627072731e7 -278917.9269307249 0.0
0.0 0.0 0.0

382008.6798925325 1.1357671950570205e7 0.0
1.1357671950570205e7 -1.5339432517407881e7 0.0
0.0 0.0 0.0

2.658659646444038e6 6.684951916531901e6 0.0
6.684951916531901e6 -8.41482314377767e6 0.0
0.0 0.0 0.0

-6.251015189060865e6 1.6489126527220264e7 0.0
1.6489126527220264e7 5.409758034538968e6 0.0
0.0 0.0 0.0

-3.284528145917121e6 1.5577493574190924e7 0.0
1.5577493574190924e7 -1.6816705897012434e6 0.0
0.0 0.0 0.0

-1.4167736517439483e7 1.9924083497775156e7 0.0
1.9924083497775156e7 9.0798766198503e6 0.0
0.0 0.0 0.0

-6.459837520223602e6 1.6631270952528499e7 0.0
1.6631270952528499e7 5.911046898760106e6 0.0
0.0 0.0 0.0

-1.51321208034029e7 1.6444687949762868e7 0.0
1.6444687949762868e7 6.352028531038207e6 0.0
0.0 0.0 0.0

-1.2903658220872728e6 1.3808713264314234e7 0.0
1.3808713264314234e7 -720865.3046003412 0.0
0.0 0.0 0.0

1.9853625802048277e6 1.1282708633054724e7 0.0
1.1282708633054724e7 -1.9832541307564877e7 0.0
0.0 0.0 0.0

-2.2077352725574523e6 9.001799907549454e6 0.0
9.001799907549454e6 -1.669504424468025e6 0.0
0.0 0.0 0.0

-1.1790566606472775e7 -3.4885972000790276e6 0.0
-3.4885972000790276e6 2.0964697822646834e7 0.0
0.0 0.0 0.0

-1.2907610579925364e7 593573.150635914 0.0
593573.150635914 2.6126577344392344e7 0.0
0.0 0.0 0.0

4.567289778240585e6 6.81100169506741e6 0.0
6.81100169506741e6 -1.5960314987663874e7 0.0
0.0 0.0 0.0

-5.660286154503783e6 1.4929180632413287e7 0.0
1.4929180632413287e7 5.983511142935169e6 0.0
0.0 0.0 0.0

-1.1096597008106932e7 8.275852494823961e6 0.0
8.275852494823961e6 2.5099974787309166e7 0.0
0.0 0.0 0.0

355438.5432993639 1.207230162953038e7 0.0
1.207230162953038e7 -9.470684104780577e6 0.0
0.0 0.0 0.0

-1.0444907457445852e7 1.0350343580452131e7 0.0
1.0350343580452131e7 2.165374565954405e7 0.0
0.0 0.0 0.0

-4.350141788536352e6 1.5344849083413588e7 0.0
1.5344849083413588e7 -1.2697292090392858e6 0.0
0.0 0.0 0.0

-5.7842261272566e6 1.8220887764831148e7 0.0
1.8220887764831148e7 1.1718065680886488e6 0.0
0.0 0.0 0.0

-221209.55696156598 1.2738190241335383e7 0.0
1.2738190241335383e7 -2.112203466041019e6 0.0
0.0 0.0 0.0

-6.175615498544198e6 2.474112990022826e6 0.0
2.474112990022826e6 7.475132144740191e6 0.0
0.0 0.0 0.0

-1.8483733009362202e6 1.2580734814371893e7 0.0
1.2580734814371893e7 3.5177116640309594e6 0.0
0.0 0.0 0.0

-4.286100893851168e6 1.0282079699371513e7 0.0
1.0282079699371513e7 2.7949561817336204e6 0.0
0.0 0.0 0.0

4.621124461825272e6 6.022216487321167e6 0.0
6.022216487321167e6 -1.4621295717743661e7 0.0
0.0 0.0 0.0

1.1352882601447531e6 1.3596955906052997e7 0.0
1.3596955906052997e7 -5.582355577263548e6 0.0
0.0 0.0 0.0

-1.1599017560453992e7 7.8760598950375905e6 0.0
7.8760598950375905e6 8.49606387568039e6 0.0
0.0 0.0 0.0

-9.295559598116158e6 1.3371240061772145e7 0.0
1.3371240061772145e7 305837.3254947495 0.0
0.0 0.0 0.0

-6.433981835094819e6 1.665257599297248e7 0.0
1.665257599297248e7 4.607725120873753e6 0.0
0.0 0.0 0.0

200521.79333627876 9.1203616792105e6 0.0
9.1203616792105e6 -6.305415423434725e6 0.0
0.0 0.0 0.0

-2.219312278273174e6 1.3585292692001231e7 0.0
1.3585292692001231e7 -321795.2685116852 0.0
0.0 0.0 0.0

-5.752307972966702e6 1.7957980473317187e7 0.0
1.7957980473317187e7 3.2559761020124285e6 0.0
0.0 0.0 0.0

-4.737480238105852e6 1.2482728529363396e7 0.0
1.2482728529363396e7 7.704488781852961e6 0.0
0.0 0.0 0.0

-2.302212323242639e6 1.2748343340563053e7 0.0
1.2748343340563053e7 2.992188950520641e6 0.0
0.0 0.0 0.0

826364.4932223335 8.93220296891607e6 0.0
8.93220296891607e6 -6.020060654271893e6 0.0
0.0 0.0 0.0

-7.485758836234016e6 1.8560311078575555e7 0.0
1.8560311078575555e7 6.500886840792138e6 0.0
0.0 0.0 0.0

-1.0500218161939729e7 -2.946896460714687e6 0.0
-2.946896460714687e6 1.4349201193853283e7 0.0
0.0 0.0 0.0

4.287247123215694e6 6.410198117550106e6 0.0
6.410198117550106e6 -1.2210036125128657e7 0.0
0.0 0.0 0.0

-5.222944714871451e6 1.6292667776799016e7 0.0
1.6292667776799016e7 2.556018472309322e6 0.0
0.0 0.0 0.0

928020.203482151 1.1705336094952058e7 0.0
1.1705336094952058e7 -1.0716274722482508e7 0.0
0.0 0.0 0.0

-29669.112749167834 4.7387406250860905e6 0.0
4.7387406250860905e6 -1.6823335316146703e6 0.0
0.0 0.0 0.0

694026.8355506202 7.363925125705423e6 0.0
7.363925125705423e6 -6.395901506782028e6 0.0
0.0 0.0 0.0

-6.697131642760979e6 1.5385709758347318e7 0.0
1.5385709758347318e7 4.231045718827356e6 0.0
0.0 0.0 0.0

2.7090550180855975e6 8.882589017797532e6 0.0
8.882589017797532e6 -1.1346353069595953e7 0.0
0.0 0.0 0.0

334639.7487806785 1.3358236761136727e7 0.0
1.3358236761136727e7 6.500453581588452e6 0.0
0.0 0.0 0.0

-1.2890327444382464e6 6.7301776570506925e6 0.0
6.7301776570506925e6 -2.2214453141504102e6 0.0
0.0 0.0 0.0

-828007.9521253202 5.7913406273298105e6 0.0
5.7913406273298105e6 -1.8992296182915033e6 0.0
0.0 0.0 0.0

-1.9792939018772494e6 1.780699012126224e7 0.0
1.780699012126224e7 -2.4987315074903355e6 0.0
0.0 0.0 0.0

-9.757411673701344e6 -1.7581744870158562e6 0.0
-1.7581744870158562e6 1.4473811776153725e7 0.0
0.0 0.0 0.0

207896.6420465717 1.0803627812531663e7 0.0
1.0803627812531663e7 -6.565559778745264e6 0.0
0.0 0.0 0.0

1.0877990066935616e6 9.98879737027874e6 0.0
9.98879737027874e6 -939014.0744035398 0.0
0.0 0.0 0.0

2.4390084320929614e6 1.5662959470369428e7 0.0
1.5662959470369428e7 -6.412013040654972e6 0.0
0.0 0.0 0.0

573125.1020018714 1.1575927717655348e7 0.0
1.1575927717655348e7 -8.594073805918774e6 0.0
0.0 0.0 0.0

1.5881532164493613e6 1.3347140939552454e7 0.0
1.3347140939552454e7 6.710272885415128e6 0.0
0.0 0.0 0.0

-7.130898227547083e6 1.6163925691245738e7 0.0
1.6163925691245738e7 6.5513498626648765e6 0.0
0.0 0.0 0.0

-1.0165300197272427e7 -3.2008655483104526e6 0.0
-3.2008655483104526e6 1.9275187111750007e7 0.0
0.0 0.0 0.0

-5.023546904795225e6 1.6418394571260694e7 0.0
1.6418394571260694e7 2.1633623410084704e6 0.0
0.0 0.0 0.0

-3.0652131228023e6 1.319887746793664e7 0.0
1.319887746793664e7 6.316861636760978e6 0.0
0.0 0.0 0.0

1.7596935415083691e6 8.459598600763898e6 0.0
8.459598600763898e6 -9.464300542223806e6 0.0
0.0 0.0 0.0

5.360408009026384e6 6.01362612701441e6 0.0
6.01362612701441e6 -1.5837381460834038e7 0.0
0.0 0.0 0.0

-4.114496153504014e6 1.3421337072029447e7 0.0
1.3421337072029447e7 137397.87790228962 0.0
0.0 0.0 0.0

-3.6496204962560395e6 7.185930255025351e6 0.0
7.185930255025351e6 2.573743082433765e6 0.0
0.0 0.0 0.0

-1.1293789474904936e7 8.864702665168826e6 0.0
8.864702665168826e6 1.519186926081856e7 0.0
0.0 0.0 0.0

1.2519172422088408e6 1.1308472540232053e7 0.0
1.1308472540232053e7 -1.1907969594562948e7 0.0
0.0 0.0 0.0

2.0520978376663616e6 1.087322417131933e7 0.0
1.087322417131933e7 -1.9031581250548474e7 0.0
0.0 0.0 0.0

-5.1342277693226645e6 1.6813825069421574e7 0.0
1.6813825069421574e7 2.287733079581343e6 0.0
0.0 0.0 0.0

-1.606798472922247e6 1.2737323971577523e7 0.0
1.2737323971577523e7 1.8979186884428607e6 0.0
0.0 0.0 0.0

-2.3170940637406208e7 4.107009771636013e6 0.0
4.107009771636013e6 1.0981727581796227e7 0.0
0.0 0.0 0.0

1.8482490369144822e6 1.3718278261425022e7 0.0
1.3718278261425022e7 8.264414799578816e6 0.0
0.0 0.0 0.0

-2.053552613677303e7 1.21894118688756e7 0.0
1.21894118688756e7 9.61580062970592e6 0.0
0.0 0.0 0.0

2.9960761555442e6 8.65444186263277e6 0.0
8.65444186263277e6 -1.3624638242677394e7 0.0
0.0 0.0 0.0

4.388230897297945e6 4.930888411687277e6 0.0
4.930888411687277e6 -549611.3310649397 0.0
0.0 0.0 0.0

-5.824460710734297e6 -3.565980584116655e6 0.0
-3.565980584116655e6 4.487894886668015e6 0.0
0.0 0.0 0.0

-2.702047351455463e6 7.150308911150504e6 0.0
7.150308911150504e6 1.5098246706960322e6 0.0
0.0 0.0 0.0

-1.0650284200308949e7 -1.6264541663189002e6 0.0
-1.6264541663189002e6 1.825430844175612e7 0.0
0.0 0.0 0.0

-1.1111306066454135e7 -845435.7435004958 0.0
-845435.7435004958 1.467338628295017e7 0.0
0.0 0.0 0.0

561151.4622048633 1.2386098302647386e7 0.0
1.2386098302647386e7 -8.993803471016569e6 0.0
0.0 0.0 0.0

-1.813746410782983e6 8.616627101416592e6 0.0
8.616627101416592e6 -6.045821608608356e6 0.0
0.0 0.0 0.0

160990.903528723 1.12733314700865e7 0.0
1.12733314700865e7 536636.4036120139 0.0
0.0 0.0 0.0

1.5065926001109495e6 1.0105240672176877e7 0.0
1.0105240672176877e7 -2.7293087465724833e6 0.0
0.0 0.0 0.0

-5.23604343766679e6 1.7185291888927113e7 0.0
1.7185291888927113e7 2.452365359755801e6 0.0
0.0 0.0 0.0

-5.229312300424818e6 5.719415604027204e6 0.0
5.719415604027204e6 6.052727971006783e6 0.0
0.0 0.0 0.0

-365625.3315062835 1.1914959219634399e7 0.0
1.1914959219634399e7 -8.079298941397062e6 0.0
0.0 0.0 0.0

-6.022486309330194e6 1.4460585838071223e7 0.0
1.4460585838071223e7 3.859702925609643e6 0.0
0.0 0.0 0.0

3.8703181797929984e6 7.853460863892694e6 0.0
7.853460863892694e6 -1.5345292573135579e7 0.0
0.0 0.0 0.0

-1.0202223006993413e7 -1.4873744204677232e6 0.0
-1.4873744204677232e6 1.5902021350148335e7 0.0
0.0 0.0 0.0

-4.638027627831455e6 1.6146080153159484e7 0.0
1.6146080153159484e7 1.3262293716502334e6 0.0
0.0 0.0 0.0

-1.4023399177628972e6 1.2787955216427622e7 0.0
1.2787955216427622e7 1.063636216821804e6 0.0
0.0 0.0 0.0

-1.200409839855293e6 1.2961883821086697e7 0.0
1.2961883821086697e7 308201.83668191254 0.0
0.0 0.0 0.0

-4.1794915809079455e6 1.52383431298854e7 0.0
1.52383431298854e7 -753663.0176386232 0.0
0.0 0.0 0.0

849813.6542818204 1.1973462915049033e7 0.0
1.1973462915049033e7 3.6617597726080776e6 0.0
0.0 0.0 0.0

-2.576315957670015e6 1.4667392997488998e7 0.0
1.4667392997488998e7 -887663.3356909524 0.0
0.0 0.0 0.0

-1.2038188071323533e7 8.005517135923057e6 0.0
8.005517135923057e6 1.8063849365156434e7 0.0
0.0 0.0 0.0

-1.1514030730010163e7 -3.670934550987167e6 0.0
-3.670934550987167e6 1.879319357956519e7 0.0
0.0 0.0 0.0

2.232960326040807e6 8.229406962269394e6 0.0
8.229406962269394e6 -9.092863532636316e6 0.0
0.0 0.0 0.0

4.792821428065184e6 6.456828356773719e6 0.0
6.456828356773719e6 -1.641438741098817e7 0.0
0.0 0.0 0.0

-103479.58601867734 1.2069440734338816e7 0.0
1.2069440734338816e7 -7.308986997110332e6 0.0
0.0 0.0 0.0

994487.400364064 1.226189662111575e7 0.0
1.226189662111575e7 3.1663641098165135e6 0.0
0.0 0.0 0.0

2.5142259443562184e6 6.353341643772441e6 0.0
6.353341643772441e6 -8.95014204999004e6 0.0
0.0 0.0 0.0

-1.6026127237381008e6 1.1505500616735544e7 0.0
1.1505500616735544e7 -1.2417718738767013e7 0.0
0.0 0.0 0.0

2.1518500806011697e6 1.0587368829168031e7 0.0
1.0587368829168031e7 -1.8174942068573855e7 0.0
0.0 0.0 0.0

-4.0936894298064606e6 9.973901557838393e6 0.0
9.973901557838393e6 1.100574747579768e6 0.0
0.0 0.0 0.0

-5.889942140390141e6 1.5104488098269902e7 0.0
1.5104488098269902e7 5.89351730327915e6 0.0
0.0 0.0 0.0

-3.7210376738227634e6 1.5202736118898084e7 0.0
1.5202736118898084e7 -173637.69663856982 0.0
0.0 0.0 0.0

-1.1234251920039352e7 -2.3870202542814873e6 0.0
-2.3870202542814873e6 2.6229946162742987e7 0.0
0.0 0.0 0.0

2.304048827854175e6 1.0405757649521178e7 0.0
1.0405757649521178e7 -1.744483036256725e7 0.0
0.0 0.0 0.0

-1.212945151125967e7 7.646347738672433e6 0.0
7.646347738672433e6 1.9520656926890813e7 0.0
0.0 0.0 0.0

-1.0492880445706095e6 1.3119282596593583e7 0.0
1.3119282596593583e7 -368303.67277999956 0.0
0.0 0.0 0.0

-5.695828199965459e6 1.6953791057392307e7 0.0
1.6953791057392307e7 2.0901864636270078e6 0.0
0.0 0.0 0.0

-9.47195567398008e6 1.52937333992423e7 0.0
1.52937333992423e7 6.215377152455852e6 0.0
0.0 0.0 0.0

-1.1608383566154268e7 7.793522261897019e6 0.0
7.793522261897019e6 1.5503240043671407e7 0.0
0.0 0.0 0.0

-1.4227601800380216e6 9.557745711827813e6 0.0
9.557745711827813e6 -8.35645323791717e6 0.0
0.0 0.0 0.0

372350.1968695822 1.1994873975976473e7 0.0
1.1994873975976473e7 2.434310591908861e6 0.0
0.0 0.0 0.0

4.294300893959667e6 7.069882761268453e6 0.0
7.069882761268453e6 -1.5525268493865466e7 0.0
0.0 0.0 0.0

1.0838304764256324e6 7.015423688779312e6 0.0
7.015423688779312e6 -6.910767052273581e6 0.0
0.0 0.0 0.0

-1.1787578444184195e7 5.127373740783049e6 0.0
5.127373740783049e6 1.991096808430261e7 0.0
0.0 0.0 0.0

-4.274578717479476e6 1.3506593507010065e7 0.0
1.3506593507010065e7 4.883085983049924e6 0.0
0.0 0.0 0.0

-1.5849985942189453e7 1.2078009808408527e7 0.0
1.2078009808408527e7 6.084904995867443e6 0.0
0.0 0.0 0.0

1.5463587393955244e6 1.0739057504700314e7 0.0
1.0739057504700314e7 -1.2716833770817477e7 0.0
0.0 0.0 0.0

3.423613506434612e6 8.519605798588345e6 0.0
8.519605798588345e6 -1.5049928301575808e7 0.0
0.0 0.0 0.0

2.397094141274686e6 1.0287745211772632e7 0.0
1.0287745211772632e7 -1.6753479126903892e7 0.0
0.0 0.0 0.0

2.0757546264615278e6 4.994268381775956e6 0.0
4.994268381775956e6 -6.739518779707529e6 0.0
0.0 0.0 0.0

-1.573054164766236e6 1.2859765711014906e7 0.0
1.2859765711014906e7 -4.484617586142257e6 0.0
0.0 0.0 0.0

-474191.5348344594 1.4018410771685485e7 0.0
1.4018410771685485e7 -5.906558858252006e6 0.0
0.0 0.0 0.0

-1.6144044953642784e7 1.7108801387062933e7 0.0
1.7108801387062933e7 1.185178852260179e7 0.0
0.0 0.0 0.0

1.06273353146671e6 4.907433269621077e6 0.0
4.907433269621077e6 -4.62714548176231e6 0.0
0.0 0.0 0.0

866206.321550021 1.1916924425788641e7 0.0
1.1916924425788641e7 -1.0152333309561845e7 0.0
0.0 0.0 0.0

-9.58988364522537e6 9.824115216250293e6 0.0
9.824115216250293e6 1.2808392281606574e7 0.0
0.0 0.0 0.0

-8.931125614648778e6 367213.5286555432 0.0
367213.5286555432 1.180411681944825e7 0.0
0.0 0.0 0.0

4.409244938404662e6 6.297789098483331e6 0.0
6.297789098483331e6 -1.4187524097937424e7 0.0
0.0 0.0 0.0

-9.858339080689952e6 1.5881015743388338e6 0.0
1.5881015743388338e6 1.2776003551413037e7 0.0
0.0 0.0 0.0

-1.0776950720413432e7 438373.4626680165 0.0
438373.4626680165 1.6120470513122654e7 0.0
0.0 0.0 0.0

-3.3709897804201962e6 6.30086553504436e6 0.0
6.30086553504436e6 2.8439579109707074e6 0.0
0.0 0.0 0.0

-5.175934264179844e6 1.4300586393533565e7 0.0
1.4300586393533565e7 6.182893902080776e6 0.0
0.0 0.0 0.0

-1.122437978556946e6 8.290678670014557e6 0.0
8.290678670014557e6 -1.8118436757208414e6 0.0
0.0 0.0 0.0

9.796969942160383e6 5.8468702128330385e6 0.0
5.8468702128330385e6 -2.713711463403398e6 0.0
0.0 0.0 0.0

-1.7127209596584782e7 -3.7243355394568844e6 0.0
-3.7243355394568844e6 8.510323250483412e6 0.0
0.0 0.0 0.0

2.1268117895376645e6 6.842130181622385e6 0.0
6.842130181622385e6 -7.272004661924497e6 0.0
0.0 0.0 0.0

4.00594105682969e6 8.234846623110152e6 0.0
8.234846623110152e6 -1.4615744734648518e7 0.0
0.0 0.0 0.0

4.443400399080489e6 7.469837947972093e6 0.0
7.469837947972093e6 -1.476453815615625e7 0.0
0.0 0.0 0.0

1.3157285074141033e6 1.590976624249535e6 0.0
1.590976624249535e6 356316.85657067667 0.0
0.0 0.0 0.0

-557049.30043499 -1.0673019755475607e6 0.0
-1.0673019755475607e6 601585.5782141519 0.0
0.0 0.0 0.0

-392109.99364808993 1.1362802296610352e7 0.0
1.1362802296610352e7 -1.233494181096469e7 0.0
0.0 0.0 0.0

4.627925832588535e6 6.4407323652559975e6 0.0
6.4407323652559975e6 -1.5640294268992294e7 0.0
0.0 0.0 0.0

-1.1707713928416794e7 1.5333069189993847e7 0.0
1.5333069189993847e7 1.639672461011598e6 0.0
0.0 0.0 0.0

-7.688835746132818e6 1.2303345054793265e7 0.0
1.2303345054793265e7 8.464110541967759e6 0.0
0.0 0.0 0.0

-4.352043259775073e6 1.5833866663209232e7 0.0
1.5833866663209232e7 506419.46408963134 0.0
0.0 0.0 0.0

535112.0416702749 1.1863409786537278e7 0.0
1.1863409786537278e7 3.0992298359591463e6 0.0
0.0 0.0 0.0

3.1721521533095427e6 8.623308935431877e6 0.0
8.623308935431877e6 2.396697302232733e6 0.0
0.0 0.0 0.0

-8.162992611798998e6 1.623250491907614e7 0.0
1.623250491907614e7 2.589087105435961e6 0.0
0.0 0.0 0.0

-1.1709195684552079e7 519833.4336904911 0.0
519833.4336904911 2.2263803445448913e7 0.0
0.0 0.0 0.0

-5.356954613397837e6 1.4712425454258487e7 0.0
1.4712425454258487e7 5.395545184427967e6 0.0
0.0 0.0 0.0

-75683.23279799148 1.3992246130456056e7 0.0
1.3992246130456056e7 -5.901934902141977e6 0.0
0.0 0.0 0.0

-8.80963613938597e6 1.030115640697433e7 0.0
1.030115640697433e7 1.2097182115695108e7 0.0
0.0 0.0 0.0

-6.398162397408839e6 -711137.4958573087 0.0
-711137.4958573087 8.103823076830264e6 0.0
0.0 0.0 0.0

-5.474506963451885e6 1.6185192039883418e7 0.0
1.6185192039883418e7 1.7909365435201551e6 0.0
0.0 0.0 0.0

3.306564180766901e6 8.389785935325373e6 0.0
8.389785935325373e6 -1.425204673119988e7 0.0
0.0 0.0 0.0

-3.153011699099474e6 1.5908770169873497e7 0.0
1.5908770169873497e7 -1.817136029261779e6 0.0
0.0 0.0 0.0

4.838058362713605e6 6.779899251751147e6 0.0
6.779899251751147e6 -1.5064098218665345e7 0.0
0.0 0.0 0.0

-13323.04762030486 1.2575421513852546e7 0.0
1.2575421513852546e7 4.7265735760516515e6 0.0
0.0 0.0 0.0

-2.4931676843406064e6 1.3020602340883305e7 0.0
1.3020602340883305e7 -3.4760866752720526e6 0.0
0.0 0.0 0.0

-2.9706893339177477e6 3.491899747240919e6 0.0
3.491899747240919e6 1.3982942242847704e6 0.0
0.0 0.0 0.0

-109062.78185519692 9.052494575452443e6 0.0
9.052494575452443e6 -6.237517842559197e6 0.0
0.0 0.0 0.0

5.116522503585028e6 6.045607275095923e6 0.0
6.045607275095923e6 -1.5034289641372105e7 0.0
0.0 0.0 0.0

665460.614040571 1.6653231602554396e7 0.0
1.6653231602554396e7 -5.657140779709269e6 0.0
0.0 0.0 0.0

2.197797974932426e6 6.521105738162267e6 0.0
6.521105738162267e6 -8.49756164672065e6 0.0
0.0 0.0 0.0

-6.615344396573339e6 3.7356117872728542e6 0.0
3.7356117872728542e6 6.627278806298997e6 0.0
0.0 0.0 0.0

-6.477138546905177e6 1.6012257765939446e7 0.0
1.6012257765939446e7 5.15609568592564e6 0.0
0.0 0.0 0.0

2.323556361979016e6 1.0160455874098998e7 0.0
1.0160455874098998e7 -1.6026417307901753e7 0.0
0.0 0.0 0.0

-2.477712320853062e6 9.555866382554853e6 0.0
9.555866382554853e6 -8.259041157846132e6 0.0
0.0 0.0 0.0

579191.2739110237 1.1553343191891722e7 0.0
1.1553343191891722e7 1.9306376630198683e6 0.0
0.0 0.0 0.0

-1.5741993693157316e6 8.489401115133509e6 0.0
8.489401115133509e6 -1.129223542438911e6 0.0
0.0 0.0 0.0

-4.2130733925758675e6 9.246665247734416e6 0.0
9.246665247734416e6 1.6389823610135785e6 0.0
0.0 0.0 0.0

-1.2538410139054244e6 1.3034572533954516e7 0.0
1.3034572533954516e7 4.85769999320792e6 0.0
0.0 0.0 0.0

-5.645613060355721e6 841151.1599153368 0.0
841151.1599153368 7.978936399806618e6 0.0
0.0 0.0 0.0

562533.2495855268 1.103581799345489e7 0.0
1.103581799345489e7 419948.23472338036 0.0
0.0 0.0 0.0

-6.913011187425784e6 1.3712074819301788e7 0.0
1.3712074819301788e7 7.463241460290093e6 0.0
0.0 0.0 0.0

1.8271804536609277e6 6.484174224333054e6 0.0
6.484174224333054e6 -7.835390400250982e6 0.0
0.0 0.0 0.0

-1.0089645774824902e7 636313.7617150996 0.0
636313.7617150996 1.1519734394646015e7 0.0
0.0 0.0 0.0

-1.826730255917529e6 1.4166343311546441e7 0.0
1.4166343311546441e7 -1.3735333747122441e6 0.0
0.0 0.0 0.0

-9.12984604867746e6 1.0616606827476373e7 0.0
1.0616606827476373e7 1.102094812822638e7 0.0
0.0 0.0 0.0

-2.13515985411845e6 1.2943415344555393e7 0.0
1.2943415344555393e7 4.640419922980907e6 0.0
0.0 0.0 0.0

-1.0269977248913962e7 2.7877925892911623e6 0.0
2.7877925892911623e6 1.3506807514939189e7 0.0
0.0 0.0 0.0

-1.1363285870423042e6 1.3892730423822362e7 0.0
1.3892730423822362e7 -5.929699607198236e6 0.0
0.0 0.0 0.0

-6.605183675555006e6 1.6088442281691879e7 0.0
1.6088442281691879e7 6.44734959531967e6 0.0
0.0 0.0 0.0

-1.1738071561685763e7 3.6227691854804e6 0.0
3.6227691854804e6 1.9578000053646192e7 0.0
0.0 0.0 0.0

-4.401625998078149e6 7.366498213033732e6 0.0
7.366498213033732e6 2.3669316031707246e6 0.0
0.0 0.0 0.0

-1.1565167104461513e7 -2.250977058404384e6 0.0
-2.250977058404384e6 1.7505249401754353e7 0.0
0.0 0.0 0.0

4876.768072572537 1.1676108632996222e7 0.0
1.1676108632996222e7 -8.753707021552797e6 0.0
0.0 0.0 0.0

-5.729307870576493e6 1.4899561417609358e7 0.0
1.4899561417609358e7 6.092168490186576e6 0.0
0.0 0.0 0.0

-976360.5670478627 1.3311359125384929e7 0.0
1.3311359125384929e7 -894767.5832852998 0.0
0.0 0.0 0.0

2.661404595274355e6 7.177055526010777e6 0.0
7.177055526010777e6 -8.828749899630647e6 0.0
0.0 0.0 0.0

-7.818304618751841e6 -2.197433382059529e6 0.0
-2.197433382059529e6 1.2420236533968497e7 0.0
0.0 0.0 0.0

-1.0778937754995115e7 1.0444009945404688e7 0.0
1.0444009945404688e7 1.965311844377439e7 0.0
0.0 0.0 0.0

-1.1628116639993899e7 6.472171186572818e6 0.0
6.472171186572818e6 2.1268255173792973e7 0.0
0.0 0.0 0.0

-2.791323272402077e6 1.0564471686122306e7 0.0
1.0564471686122306e7 4.523163344949828e6 0.0
0.0 0.0 0.0

-1.0849624501406685e7 1.9120366779825801e6 0.0
1.9120366779825801e6 1.2317919117748735e7 0.0
0.0 0.0 0.0

-3.4513371727602663e6 9.155170130062155e6 0.0
9.155170130062155e6 1.6555602522586274e6 0.0
0.0 0.0 0.0

-2.18344859632651e6 1.2219463392219773e7 0.0
1.2219463392219773e7 -2.086354940846426e6 0.0
0.0 0.0 0.0

-47204.98826235393 1.0519023975200264e7 0.0
1.0519023975200264e7 -7.017134783412356e6 0.0
0.0 0.0 0.0

-5.2537201201198865e6 1.4054717354479894e7 0.0
1.4054717354479894e7 6.702288981165937e6 0.0
0.0 0.0 0.0

-7.480333102494787e6 1.7468838087042622e7 0.0
1.7468838087042622e7 6.826988563862149e6 0.0
0.0 0.0 0.0

-1.2434450879104186e7 5.5787872735539805e6 0.0
5.5787872735539805e6 1.5758185045417834e7 0.0
0.0 0.0 0.0

1.4603013647357437e6 1.1972638816924423e7 0.0
1.1972638816924423e7 5.386678216601001e6 0.0
0.0 0.0 0.0

1.1916951265079845e6 1.1787886356384138e7 0.0
1.1787886356384138e7 -7.156869033407993e6 0.0
0.0 0.0 0.0

2.752016349742817e6 8.58312166776151e6 0.0
8.58312166776151e6 -1.1109870706614532e7 0.0
0.0 0.0 0.0

5.24655353612552e6 5.328565221444057e6 0.0
5.328565221444057e6 -1.5785131679564439e7 0.0
0.0 0.0 0.0

-9.152174371418336e6 -4.72219545445938e6 0.0
-4.72219545445938e6 1.4990648929673763e7 0.0
0.0 0.0 0.0

-5.291744065105614e6 1.396888062387252e7 0.0
1.396888062387252e7 6.318034483373522e6 0.0
0.0 0.0 0.0

-8.376054480879487e6 9.592630878762582e6 0.0
9.592630878762582e6 1.3786417619743261e7 0.0
0.0 0.0 0.0

-9.042856612460157e6 1.2112433865347315e7 0.0
1.2112433865347315e7 3.1518042170798346e7 0.0
0.0 0.0 0.0

-56930.70831972733 1.0044995521866117e7 0.0
1.0044995521866117e7 -6.537269121785218e6 0.0
0.0 0.0 0.0

1.0356252862755839e6 1.2086617291332727e7 0.0
1.2086617291332727e7 3.4520845598651636e6 0.0
0.0 0.0 0.0

-7.593896211968111e6 -949990.8810545134 0.0
-949990.8810545134 8.872887587175937e6 0.0
0.0 0.0 0.0

-1.38432614476506e7 -3.2418805625044876e6 0.0
-3.2418805625044876e6 5.9492157752558e6 0.0
0.0 0.0 0.0

3.1681974690355435e6 7.996176203199148e6 0.0
7.996176203199148e6 -1.305416384424518e7 0.0
0.0 0.0 0.0

-7.6537369698737655e6 1.87046697184978e6 0.0
1.87046697184978e6 8.073669018103547e6 0.0
0.0 0.0 0.0

3.153842427475894e6 8.754384074610095e6 0.0
8.754384074610095e6 -1.4452615009380335e7 0.0
0.0 0.0 0.0

-1.0920955151088525e7 9.693961178356111e6 0.0
9.693961178356111e6 1.5441826740921168e7 0.0
0.0 0.0 0.0

4.334023893784437e6 5.814380924848108e6 0.0
5.814380924848108e6 -1.144795654151772e7 0.0
0.0 0.0 0.0

-1.0677009334073223e6 1.7242066359552313e7 0.0
1.7242066359552313e7 -4.572806350715232e6 0.0
0.0 0.0 0.0

-1.4646147544441454e6 9.241017546010962e6 0.0
9.241017546010962e6 -1.758920751564925e6 0.0
0.0 0.0 0.0

947403.8900873617 5.794930984666967e6 0.0
5.794930984666967e6 -4.05397309284179e6 0.0
0.0 0.0 0.0

1.3429463896467634e7 5.940431232568269e6 0.0
5.940431232568269e6 -3.452185049759307e6 0.0
0.0 0.0 0.0

-1.0251116299447933e7 1.0659935807635844e7 0.0
1.0659935807635844e7 1.3866891882914614e7 0.0
0.0 0.0 0.0

-137796.80433500907 7.80963663877273e6 0.0
7.80963663877273e6 -4.54852736383649e6 0.0
0.0 0.0 0.0

-1.1722458020034548e7 -790589.4434770463 0.0
-790589.4434770463 1.6564993827506479e7 0.0
0.0 0.0 0.0

1.5515544600102329e6 5.40096997904936e6 0.0
5.40096997904936e6 -6.495647881724823e6 0.0
0.0 0.0 0.0

-1.58825711910009e6 1.3881940552056229e7 0.0
1.3881940552056229e7 -1.3442856965524442e6 0.0
0.0 0.0 0.0

-7.179022684369305e6 1.2584066270957517e7 0.0
1.2584066270957517e7 8.927306168718442e6 0.0
0.0 0.0 0.0

-5.910002200198324e6 4.296039534582126e6 0.0
4.296039534582126e6 7.405038926256636e6 0.0
0.0 0.0 0.0

3.5671282077125097e6 7.4120689319947045e6 0.0
7.4120689319947045e6 -1.3299803516053554e7 0.0
0.0 0.0 0.0

-446628.16763418354 1.1541736523246923e7 0.0
1.1541736523246923e7 -1.4000531486810207e7 0.0
0.0 0.0 0.0

-1.3439849577102866e6 6.467225740999662e6 0.0
6.467225740999662e6 -1.4781556968548223e6 0.0
0.0 0.0 0.0

3.8070061212649797e6 5.794328665548908e6 0.0
5.794328665548908e6 -1.0656572920042094e7 0.0
0.0 0.0 0.0

-1.1958754992239056e6 1.1664199428746458e7 0.0
1.1664199428746458e7 -5.738495690359891e6 0.0
0.0 0.0 0.0

5.949125496241728e6 1.184482307365681e7 0.0
1.184482307365681e7 -2.5533109237854136e6 0.0
0.0 0.0 0.0

5.277376291874177e6 6.41971377202719e6 0.0
6.41971377202719e6 -1.6149690089805983e7 0.0
0.0 0.0 0.0

-3.233695474268738e6 -1.4071672567406197e6 0.0
-1.4071672567406197e6 211885.33951761643 0.0
0.0 0.0 0.0

-7.829875362660979e6 1.1135255607826361e7 0.0
1.1135255607826361e7 1.0539485453706618e7 0.0
0.0 0.0 0.0

-566495.3022829338 6.840750762450282e6 0.0
6.840750762450282e6 -2.187460417596107e6 0.0
0.0 0.0 0.0

-7.418291736737039e6 3.1473668418965554e6 0.0
3.1473668418965554e6 1.0276284500296602e7 0.0
0.0 0.0 0.0

5.405734022550683e6 6.686574784358718e6 0.0
6.686574784358718e6 -1.80564419764636e7 0.0
0.0 0.0 0.0

1.790273481474307e6 1.2316173986286711e7 0.0
1.2316173986286711e7 5.967578283968105e6 0.0
0.0 0.0 0.0

-1.2363256845332999e6 1.3335936607538408e7 0.0
1.3335936607538408e7 7.630808446774231e6 0.0
0.0 0.0 0.0

-914281.433039187 1.104754895456578e7 0.0
1.104754895456578e7 -1.0817506516336946e7 0.0
0.0 0.0 0.0

-158846.61527104885 9.391870274545155e6 0.0
9.391870274545155e6 -5.760238740135181e6 0.0
0.0 0.0 0.0

-6.744604722686257e6 1.3148247281070972e7 0.0
1.3148247281070972e7 8.425917525208328e6 0.0
0.0 0.0 0.0

3.547631806523175e6 1.2203349819438083e7 0.0
1.2203349819438083e7 -3.7530178303926755e6 0.0
0.0 0.0 0.0

2.7595602673372636e6 8.56755761747854e6 0.0
8.56755761747854e6 -1.277430493640047e7 0.0
0.0 0.0 0.0

-5.905872408630082e6 1.7341365573042035e7 0.0
1.7341365573042035e7 2.2180310791159784e6 0.0
0.0 0.0 0.0

-703637.274567751 9.072933039234385e6 0.0
9.072933039234385e6 192993.7374067666 0.0
0.0 0.0 0.0

-3.5924720313044235e7 -682726.943630538 0.0
-682726.943630538 1.0352991552816177e7 0.0
0.0 0.0 0.0

2.3251485069687936e7 6.154190667588623e6 0.0
6.154190667588623e6 -4.35166285548056e6 0.0
0.0 0.0 0.0

-401635.5377608258 1.111628042507392e7 0.0
1.111628042507392e7 3.407786070081279e6 0.0
0.0 0.0 0.0

-7.457873503053533e6 2.2320620950232623e6 0.0
2.2320620950232623e6 1.9211280282910652e7 0.0
0.0 0.0 0.0

-1.5954301521878554e6 1.2875335735791998e7 0.0
1.2875335735791998e7 4.404609963567736e6 0.0
0.0 0.0 0.0

-3.6032735657692216e6 1.5391572699284445e7 0.0
1.5391572699284445e7 -2.757505391231776e6 0.0
0.0 0.0 0.0

1.2499520296500113e6 1.2830851195030898e7 0.0
1.2830851195030898e7 4.166507537200899e6 0.0
0.0 0.0 0.0

-5.131136854633518e6 4.264514460567446e6 0.0
4.264514460567446e6 6.174723435945057e6 0.0
0.0 0.0 0.0

-6.186438205245793e6 1.2387069506345246e7 0.0
1.2387069506345246e7 5.96196482543342e6 0.0
0.0 0.0 0.0

-2.5982566807032328e7 1.874774044692077e7 0.0
1.874774044692077e7 5.311518149658248e6 0.0
0.0 0.0 0.0

4.183759010307338e6 5.97455220626149e6 0.0
5.97455220626149e6 -1.2391438832771564e7 0.0
0.0 0.0 0.0

-1.0005069954015119e6 1.3498911779041525e7 0.0
1.3498911779041525e7 -1.2611142663932706e6 0.0
0.0 0.0 0.0

1.6677229943222865e6 1.1894371152031524e7 0.0
1.1894371152031524e7 6.718427449982954e6 0.0
0.0 0.0 0.0

-2.9422677645755108e6 1.0385856198297804e7 0.0
1.0385856198297804e7 -9.807559249373497e6 0.0
0.0 0.0 0.0

898244.4494080927 1.1908428515761714e7 0.0
1.1908428515761714e7 2.9941483462764e6 0.0
0.0 0.0 0.0

2.413874603820729e6 1.0214860224031856e7 0.0
1.0214860224031856e7 -1.5540960464782584e7 0.0
0.0 0.0 0.0

-8.061563291624061e6 211292.78423912203 0.0
211292.78423912203 1.0255730902932208e7 0.0
0.0 0.0 0.0

-1.0623327904649623e7 1.5279712788665418e7 0.0
1.5279712788665418e7 8.82947332859091e6 0.0
0.0 0.0 0.0

2.211761751213492e6 6.848313467616184e6 0.0
6.848313467616184e6 -8.670672974697545e6 0.0
0.0 0.0 0.0

-1.0025919482479502e7 1.0876559898271384e7 0.0
1.0876559898271384e7 1.306749583881021e7 0.0
0.0 0.0 0.0

-4.952387999644441e6 3.487780653755415e6 0.0
3.487780653755415e6 3.772115690924232e6 0.0
0.0 0.0 0.0

-7.330274823664021e6 1.717613680265056e7 0.0
1.717613680265056e7 6.783629702944061e6 0.0
0.0 0.0 0.0

-1.2521438750391986e7 1.73351441864038e7 0.0
1.73351441864038e7 9.425699100149684e6 0.0
0.0 0.0 0.0

-1.5684413486808902e6 -2.450190149808754e6 0.0
-2.450190149808754e6 2.038356655452235e6 0.0
0.0 0.0 0.0

-873879.7568106405 9.629245263025856e6 0.0
9.629245263025856e6 -7.238490227536639e6 0.0
0.0 0.0 0.0

-2.861672837656619e6 1.4894667661741937e7 0.0
1.4894667661741937e7 -2.531587588105823e6 0.0
0.0 0.0 0.0

-1.1281411343177874e6 5.6720373925639065e6 0.0
5.6720373925639065e6 -1.1334552346146782e6 0.0
0.0 0.0 0.0

-2.347114882889321e6 1.7484522471992888e7 0.0
1.7484522471992888e7 -3.6051137976783817e6 0.0
0.0 0.0 0.0

-5.748935879108002e6 3.6766451076260386e6 0.0
3.6766451076260386e6 5.32281012181808e6 0.0
0.0 0.0 0.0

4.472429970504513e6 6.045043889382041e6 0.0
6.045043889382041e6 -1.394517206891391e7 0.0
0.0 0.0 0.0

4.0813278685258804e6 6.356339577171633e6 0.0
6.356339577171633e6 -1.291556010003307e7 0.0
0.0 0.0 0.0

603354.1848938437 9.349785774597207e6 0.0
9.349785774597207e6 -7.333945172286355e6 0.0
0.0 0.0 0.0

-1.3875035120559447e6 1.3823448558230704e7 0.0
1.3823448558230704e7 -5.8442071563552935e6 0.0
0.0 0.0 0.0

5.592793965368363e6 6.423681677521013e6 0.0
6.423681677521013e6 -1.8709588786035597e7 0.0
0.0 0.0 0.0

-4.262225589771652e6 1.455809693347075e7 0.0
1.455809693347075e7 -607101.5193453932 0.0
0.0 0.0 0.0

1.0318198067880175e6 1.07311548682876e7 0.0
1.07311548682876e7 -1.0456611288112883e7 0.0
0.0 0.0 0.0

-1.022122367553252e7 9.28000568724728e6 0.0
9.28000568724728e6 1.207357823019284e7 0.0
0.0 0.0 0.0

-3.1434445790011575e6 1.494504966685195e7 0.0
1.494504966685195e7 -355080.3348638236 0.0
0.0 0.0 0.0

3.3547308198207337e6 8.356474272226054e6 0.0
8.356474272226054e6 -1.2443974146190275e7 0.0
0.0 0.0 0.0

-1.997473925211262e7 8.962764996639198e6 0.0
8.962764996639198e6 1.0625039633471135e7 0.0
0.0 0.0 0.0

4.6705446114156665e6 5.735261975822814e6 0.0
5.735261975822814e6 -1.4335111999022665e7 0.0
0.0 0.0 0.0

4.477202318547664e6 6.3679080235411e6 0.0
6.3679080235411e6 -1.2835046377237987e7 0.0
0.0 0.0 0.0

-910782.0528810644 1.2687925511729963e7 0.0
1.2687925511729963e7 -6.345235973729898e6 0.0
0.0 0.0 0.0

-9.093454041260622e6 -2.551321780822499e6 0.0
-2.551321780822499e6 2.959277036925205e6 0.0
0.0 0.0 0.0

1.0145490861868968e6 7.803454504349757e6 0.0
7.803454504349757e6 -5.712293335168101e6 0.0
0.0 0.0 0.0

-7.376488307896326e6 1.0387829846456232e7 0.0
1.0387829846456232e7 1.6042148937716229e7 0.0
0.0 0.0 0.0

-6.675759761238232e6 1.6682358782937422e7 0.0
1.6682358782937422e7 6.285380866151586e6 0.0
0.0 0.0 0.0

-7.864584138539226e6 1.7301277923596278e7 0.0
1.7301277923596278e7 7.17909402273244e6 0.0
0.0 0.0 0.0

-6.311695355451701e6 4.490137562067429e6 0.0
4.490137562067429e6 5.909384287039746e6 0.0
0.0 0.0 0.0

-1.064972496288057e7 8.60928191126273e6 0.0
8.60928191126273e6 3.098030803471204e7 0.0
0.0 0.0 0.0

-6.447255567435707e6 1.6841746556383364e7 0.0
1.6841746556383364e7 5.809821613728451e6 0.0
0.0 0.0 0.0

-1.555515820430846e6 1.3487736028507967e7 0.0
1.3487736028507967e7 -714110.794568538 0.0
0.0 0.0 0.0

1.2534701897558672e6 1.09728317674422e7 0.0
1.09728317674422e7 -5.423116254521771e6 0.0
0.0 0.0 0.0

8.004606330712244e6 1.2580161727503434e7 0.0
1.2580161727503434e7 4.0937903327197125e6 0.0
0.0 0.0 0.0

-5.62726471199236e6 5.052046834071658e6 0.0
5.052046834071658e6 6.741324087030148e6 0.0
0.0 0.0 0.0

4.906892838688809e6 5.769260558966717e6 0.0
5.769260558966717e6 -1.3533546112171102e7 0.0
0.0 0.0 0.0

-940093.8108548942 1.199998534269364e7 0.0
1.199998534269364e7 -5.205945553313541e6 0.0
0.0 0.0 0.0

-2.30564306037763e6 9.606167361801779e6 0.0
9.606167361801779e6 -367476.4381265038 0.0
0.0 0.0 0.0

-1.0965822465593938e7 6.443522011423277e6 0.0
6.443522011423277e6 6.401703588101105e6 0.0
0.0 0.0 0.0

-9.25241909262393e6 -1.9784466052511474e6 0.0
-1.9784466052511474e6 1.5080062287187925e7 0.0
0.0 0.0 0.0

-3.829526268497171e7 2.663796843872891e7 0.0
2.663796843872891e7 -518906.31529861875 0.0
0.0 0.0 0.0

-3.547600542723971e6 1.1535456916086739e7 0.0
1.1535456916086739e7 -1.1825335178091802e7 0.0
0.0 0.0 0.0

1.4725314790713298e6 1.2243964380587595e7 0.0
1.2243964380587595e7 4.908438678880091e6 0.0
0.0 0.0 0.0

1.6135429767676801e6 1.0250241861319141e7 0.0
1.0250241861319141e7 -1.1715427450139083e7 0.0
0.0 0.0 0.0

-9.85390216928168e6 1.3373698377791712e7 0.0
1.3373698377791712e7 6.4749293331685085e6 0.0
0.0 0.0 0.0

2.3980112713858895e6 7.166668953980107e6 0.0
7.166668953980107e6 -8.14851412154689e6 0.0
0.0 0.0 0.0

3.731937786984819e6 7.767958279796731e6 0.0
7.767958279796731e6 -1.2697000996914864e7 0.0
0.0 0.0 0.0

-7.4028738062581085e6 1.217056355072443e7 0.0
1.217056355072443e7 9.443770577188715e6 0.0
0.0 0.0 0.0

2.4482333287913026e6 8.8329958713142e6 0.0
8.8329958713142e6 -1.2211260679729654e7 0.0
0.0 0.0 0.0

-6.954650601110054e6 1.6953284666284375e7 0.0
1.6953284666284375e7 6.540117242452579e6 0.0
0.0 0.0 0.0

-1.1899899934453826e7 1.0408527910665247e6 0.0
1.0408527910665247e6 1.5057192283680256e7 0.0
0.0 0.0 0.0

-6.301302658642247e6 483019.7592583059 0.0
483019.7592583059 7.822954973038806e6 0.0
0.0 0.0 0.0

3.6522102423588876e6 7.113473786628183e6 0.0
7.113473786628183e6 -1.3012784408942508e7 0.0
0.0 0.0 0.0

-3.919096901858826e6 1.4744298936994243e7 0.0
1.4744298936994243e7 -657532.2200079386 0.0
0.0 0.0 0.0

-5.801859065394688e6 1.918934336996479e7 0.0
1.918934336996479e7 460230.00734747597 0.0
0.0 0.0 0.0

-8.500024485374786e6 1.0141656415156841e7 0.0
1.0141656415156841e7 1.1404141815410448e7 0.0
0.0 0.0 0.0

4.190428860682031e6 6.578862961860096e6 0.0
6.578862961860096e6 -1.3854469277758837e7 0.0
0.0 0.0 0.0

5.210132307912251e6 6.597301529737023e6 0.0
6.597301529737023e6 -1.7014484815018557e7 0.0
0.0 0.0 0.0

-1.2735448173824899e7 7.014858372642094e6 0.0
7.014858372642094e6 2.3549540227166492e7 0.0
0.0 0.0 0.0

-1.1169376068152262e7 1.5200691650935712e6 0.0
1.5200691650935712e6 1.5588664289354797e7 0.0
0.0 0.0 0.0

-3.1931552772216517e6 1.7396371811483193e7 0.0
1.7396371811483193e7 -2.780820475452537e6 0.0
0.0 0.0 0.0

-3.5313541887160623e6 1.3323496055177083e7 0.0
1.3323496055177083e7 254397.76460870425 0.0
0.0 0.0 0.0

-1.0994543277010277e7 -311831.4108691385 0.0
-311831.4108691385 1.7729095743894823e7 0.0
0.0 0.0 0.0

2.8588369032737454e6 5.512921993123059e6 0.0
5.512921993123059e6 -9.211459652839966e6 0.0
0.0 0.0 0.0

-4.887059817773258e6 1.3108043513221394e7 0.0
1.3108043513221394e7 1.5196522036066658e6 0.0
0.0 0.0 0.0

-6.394941206867771e6 1.3942015635645974e7 0.0
1.3942015635645974e7 -371067.44345814944 0.0
0.0 0.0 0.0

-3.7257197222220777e6 6.605283668956319e6 0.0
6.605283668956319e6 1.7796700262140385e6 0.0
0.0 0.0 0.0

4.621160566078355e6 6.32461194072705e6 0.0
6.32461194072705e6 -1.3469074929649953e7 0.0
0.0 0.0 0.0

2.1460950206673834e6 8.762903728391148e6 0.0
8.762903728391148e6 -1.1347786215159038e7 0.0
0.0 0.0 0.0

-3.0422612295586932e6 2.641025304196847e6 0.0
2.641025304196847e6 1.6933212772730081e6 0.0
0.0 0.0 0.0

-9.510596735573258e6 3.6638431918477104e6 0.0
3.6638431918477104e6 1.3023135263535969e7 0.0
0.0 0.0 0.0

2.3198526142470213e6 1.0245198242872143e7 0.0
1.0245198242872143e7 -1.4845283687867051e7 0.0
0.0 0.0 0.0

4.505649817965478e6 6.157691149429579e6 0.0
6.157691149429579e6 -1.2613106938376637e7 0.0
0.0 0.0 0.0

-3.774762994623637e6 1.3201529562887676e7 0.0
1.3201529562887676e7 -523488.2671319244 0.0
0.0 0.0 0.0

4.11871188494513e6 7.178177320626009e6 0.0
7.178177320626009e6 -1.293310707108508e7 0.0
0.0 0.0 0.0

-2.6854706651373114e6 3.206400118625053e6 0.0
3.206400118625053e6 2.478132807501138e6 0.0
0.0 0.0 0.0

-4.448267818649276e6 1.2981068953069415e7 0.0
1.2981068953069415e7 -1.4827560386960296e7 0.0
0.0 0.0 0.0

3.1351848571289363e6 1.2740046413478428e7 0.0
1.2740046413478428e7 1.0450618179264812e7 0.0
0.0 0.0 0.0

883044.9586285318 1.056799967639553e7 0.0
1.056799967639553e7 -2.0760578821348632e6 0.0
0.0 0.0 0.0

-1.1608853085888365e7 -4.0131809969652384e6 0.0
-4.0131809969652384e6 7.139786746768282e6 0.0
0.0 0.0 0.0

-2.0724458318324825e6 2.539177242443999e6 0.0
2.539177242443999e6 1.7657656942434844e6 0.0
0.0 0.0 0.0

1.877044830244164e6 1.3511696139193228e7 0.0
1.3511696139193228e7 6.256813654665186e6 0.0
0.0 0.0 0.0

-1.0117645455755149e6 9.936414952260172e6 0.0
9.936414952260172e6 -3.372548096335676e6 0.0
0.0 0.0 0.0

-1.0349719291308424e7 9.156928614570403e6 0.0
9.156928614570403e6 3.4657518095489345e7 0.0
0.0 0.0 0.0

3.9379346688235635e6 6.861614495767438e6 0.0
6.861614495767438e6 -1.3467013463154059e7 0.0
0.0 0.0 0.0

-3.148909857064726e6 1.4683887750028012e7 0.0
1.4683887750028012e7 -3.5684503616352146e6 0.0
0.0 0.0 0.0

-1.3256439210640336e6 1.1689096803199127e7 0.0
1.1689096803199127e7 -1.3143587482835038e7 0.0
0.0 0.0 0.0

-6.597550941704726e6 1.6136038694106607e7 0.0
1.6136038694106607e7 5.683293359789524e6 0.0
0.0 0.0 0.0

-4.1292532639770387e6 1.3784784557721864e7 0.0
1.3784784557721864e7 3.5930764663741426e6 0.0
0.0 0.0 0.0

-5.33439286700105e6 1.6247118690155609e7 0.0
1.6247118690155609e7 1.1855402223633248e6 0.0
0.0 0.0 0.0

-2.9886533947274787e6 1.2841531025930518e7 0.0
1.2841531025930518e7 -1.5052253854984941e7 0.0
0.0 0.0 0.0

-3.794149280229453e6 1.7202169826631438e7 0.0
1.7202169826631438e7 -2.105053916088326e6 0.0
0.0 0.0 0.0

-1.143131248550184e7 9.392959017684337e6 0.0
9.392959017684337e6 1.3833692869177055e7 0.0
0.0 0.0 0.0

1.9208784224032136e6 7.361497718197284e6 0.0
7.361497718197284e6 -8.45534952989806e6 0.0
0.0 0.0 0.0

3.998715493356731e6 6.59393733415312e6 0.0
6.59393733415312e6 -1.3187104979833892e7 0.0
0.0 0.0 0.0

-2.3071201130260564e6 1.4280293997719143e7 0.0
1.4280293997719143e7 -4.861318633034179e6 0.0
0.0 0.0 0.0

-1.702067072257297e6 1.008670712675675e7 0.0
1.008670712675675e7 -3.1970965892008357e6 0.0
0.0 0.0 0.0

3.6247948515104474e6 8.067149428693968e6 0.0
8.067149428693968e6 -1.4784275105689488e7 0.0
0.0 0.0 0.0

-6.416090048720791e6 1.5529237182456505e7 0.0
1.5529237182456505e7 5.672219541357305e6 0.0
0.0 0.0 0.0

-2.5739646443785597e6 1.0785306476872394e7 0.0
1.0785306476872394e7 -538992.0487796204 0.0
0.0 0.0 0.0

166491.14859639527 1.039076318807031e7 0.0
1.039076318807031e7 -6.016177570935053e6 0.0
0.0 0.0 0.0

3.1965351118296217e6 9.365695297281167e6 0.0
9.365695297281167e6 -1.4375068963105917e7 0.0
0.0 0.0 0.0

-4.387584480073449e6 1.6527728690358007e7 0.0
1.6527728690358007e7 -1.2910249228586247e6 0.0
0.0 0.0 0.0

-550645.5497321016 1.1332482768741364e7 0.0
1.1332482768741364e7 -5.33528008637491e6 0.0
0.0 0.0 0.0

57118.92462279508 8.694387312505942e6 0.0
8.694387312505942e6 -4.809133387365791e6 0.0
0.0 0.0 0.0

1.0331007483725345e7 5.99036561016813e6 0.0
5.99036561016813e6 -3.0114443127102177e6 0.0
0.0 0.0 0.0

-4.533069369992817e6 1.1230479893873999e7 0.0
1.1230479893873999e7 2.96774270300013e6 0.0
0.0 0.0 0.0

-2.8623015409939457e6 6.574671441625432e6 0.0
6.574671441625432e6 1.6376073917466823e6 0.0
0.0 0.0 0.0

-8.300808054325875e6 -874288.1898325084 0.0
-874288.1898325084 1.1858239321630742e7 0.0
0.0 0.0 0.0

4.540040710164389e6 5.815465518951538e6 0.0
5.815465518951538e6 -1.2138886479004674e7 0.0
0.0 0.0 0.0

3.181130494127284e6 6.427565893796054e6 0.0
6.427565893796054e6 -9.596052427472834e6 0.0
0.0 0.0 0.0

4.286159261032557e6 6.218394374271696e6 0.0
6.218394374271696e6 -1.196935687303393e7 0.0
0.0 0.0 0.0

-443606.6723690559 1.1122609416332005e7 0.0
1.1122609416332005e7 -1.0705923049804827e7 0.0
0.0 0.0 0.0

-4.150354018354562e6 1.6888393917829536e7 0.0
1.6888393917829536e7 -1.6214017606719101e6 0.0
0.0 0.0 0.0

-1.125990276679302e7 9.511412930994693e6 0.0
9.511412930994693e6 1.2941828156309243e7 0.0
0.0 0.0 0.0

-5.307882702213567e6 1.1371906756196307e7 0.0
1.1371906756196307e7 2.7971598292565197e6 0.0
0.0 0.0 0.0

3.883152120945179e6 6.406377245493157e6 0.0
6.406377245493157e6 -1.2269523894535374e7 0.0
0.0 0.0 0.0

-4.0862915716620563e6 3.281771844415915e6 0.0
3.281771844415915e6 2.520061536059605e6 0.0
0.0 0.0 0.0

-9.97810886527453e6 9.959344291401166e6 0.0
9.959344291401166e6 1.1554517050636917e7 0.0
0.0 0.0 0.0

-409148.115143182 1.2644188086144788e7 0.0
1.2644188086144788e7 -7.19117845106001e6 0.0
0.0 0.0 0.0

1.5290811954040383e6 1.1788703893306328e7 0.0
1.1788703893306328e7 -5.957231037126624e6 0.0
0.0 0.0 0.0

-6.454269950218596e6 1.614690219775534e7 0.0
1.614690219775534e7 6.164515703012225e6 0.0
0.0 0.0 0.0

1.5675738608233933e6 1.0590219740602374e7 0.0
1.0590219740602374e7 -1.0255526769633923e7 0.0
0.0 0.0 0.0

4.21928498459311e6 6.644206886896064e6 0.0
6.644206886896064e6 -1.2443722190974085e7 0.0
0.0 0.0 0.0

3.8442405752769187e6 6.6020923908375185e6 0.0
6.6020923908375185e6 -1.2511797140106138e7 0.0
0.0 0.0 0.0

1.4894900425037225e6 6.739029007716699e6 0.0
6.739029007716699e6 -7.354531764982356e6 0.0
0.0 0.0 0.0

3.7391484853760134e6 6.844628151985795e6 0.0
6.844628151985795e6 -1.2760082525149513e7 0.0
0.0 0.0 0.0

3.880613005450621e6 6.303537311314536e6 0.0
6.303537311314536e6 -1.0897743816428963e7 0.0
0.0 0.0 0.0

-9.917048509701796e6 1.7696908753834873e7 0.0
1.7696908753834873e7 8.47003434338438e6 0.0
0.0 0.0 0.0

-3.82909948105677e6 1.8102507355034363e7 0.0
1.8102507355034363e7 -2.2015580005617486e6 0.0
0.0 0.0 0.0

-4.814483893707174e6 1.4195369285720425e7 0.0
1.4195369285720425e7 4.349153167509754e6 0.0
0.0 0.0 0.0

3.322688288723096e6 6.429852424407305e6 0.0
6.429852424407305e6 -1.1088769559189528e7 0.0
0.0 0.0 0.0

-2.4891436931492216e6 1.1898893730270982e7 0.0
1.1898893730270982e7 -2.5959318716643653e6 0.0
0.0 0.0 0.0

-467487.90265134757 8.490836431076517e6 0.0
8.490836431076517e6 -2.152953113352631e6 0.0
0.0 0.0 0.0

-5.583324334482492e6 1.4394407522229163e7 0.0
1.4394407522229163e7 -1.8611087192754894e7 0.0
0.0 0.0 0.0

6.749552531641967e6 1.5528216229742406e7 0.0
1.5528216229742406e7 2.2498524655670058e7 0.0
0.0 0.0 0.0

3.792155416942233e6 1.2629607760020107e7 0.0
1.2629607760020107e7 -4.125236380446415e6 0.0
0.0 0.0 0.0

5.581401432868758e6 1.2819046312792694e7 0.0
1.2819046312792694e7 -6.74908804952906e6 0.0
0.0 0.0 0.0

4.976767154129924e6 7.280820029596218e6 0.0
7.280820029596218e6 -2.0627197938701637e7 0.0
0.0 0.0 0.0

254124.01157344226 1.1822429472029895e7 0.0
1.1822429472029895e7 -7.968801261926058e6 0.0
0.0 0.0 0.0

-1.8016774596457835e6 1.2895356407361437e7 0.0
1.2895356407361437e7 3.783742485112257e6 0.0
0.0 0.0 0.0

-1.197469920146814e7 498133.44236815115 0.0
498133.44236815115 1.6080059220172502e7 0.0
0.0 0.0 0.0

-1.0901498553971335e7 9.414416328041276e6 0.0
9.414416328041276e6 1.6453971583824579e7 0.0
0.0 0.0 0.0

-2.24370322573018e6 1.3487738473386802e7 0.0
1.3487738473386802e7 2.320329233076449e6 0.0
0.0 0.0 0.0

-1.12102176383198e6 9.967430439120393e6 0.0
9.967430439120393e6 -3.030798363214783e6 0.0
0.0 0.0 0.0

-7.447479123534986e6 1.686732508526764e7 0.0
1.686732508526764e7 1.2997296670399685e6 0.0
0.0 0.0 0.0

-6.714493622498728e6 1.3540005242538627e7 0.0
1.3540005242538627e7 8.093112668374408e6 0.0
0.0 0.0 0.0

-4.287274918440027e6 8.260158406393689e6 0.0
8.260158406393689e6 2.23342486435159e6 0.0
0.0 0.0 0.0

-5.628824698810803e6 1.3075739307532674e7 0.0
1.3075739307532674e7 3.8249050257010637e6 0.0
0.0 0.0 0.0

4.979068929468304e6 6.821670125177174e6 0.0
6.821670125177174e6 -1.572098164755205e7 0.0
0.0 0.0 0.0

2.9701488626249745e6 6.725327037077733e6 0.0
6.725327037077733e6 -9.133871240964787e6 0.0
0.0 0.0 0.0

-1.4264622499878472e6 1.2799022399258833e7 0.0
1.2799022399258833e7 -5.917613722408088e6 0.0
0.0 0.0 0.0

1.8665519277481488e6 9.07892327208152e6 0.0
9.07892327208152e6 -1.0831934960687477e7 0.0
0.0 0.0 0.0

-1.1671159474703832e7 2.812936231976167e6 0.0
2.812936231976167e6 2.0783239467650484e7 0.0
0.0 0.0 0.0

-782692.3458729025 5.47843316755858e6 0.0
5.47843316755858e6 -1.5138204239215122e6 0.0
0.0 0.0 0.0

-1.1565913886812186e7 2.365144659673829e6 0.0
2.365144659673829e6 2.819137881985969e7 0.0
0.0 0.0 0.0

-1.552024690789258e6 1.2103642226573024e7 0.0
1.2103642226573024e7 -5.348696267619667e6 0.0
0.0 0.0 0.0

-5.239885232344631e6 1.452342186784307e7 0.0
1.452342186784307e7 5.470977482617401e6 0.0
0.0 0.0 0.0

-4.091413144569193e6 7.162814528801572e6 0.0
7.162814528801572e6 3.488302568923765e6 0.0
0.0 0.0 0.0

-3.464932936123513e6 1.5699140092586314e7 0.0
1.5699140092586314e7 -2.853328021435073e6 0.0
0.0 0.0 0.0

-2.669224580099982e6 5.984837445319865e6 0.0
5.984837445319865e6 868618.004219346 0.0
0.0 0.0 0.0

-7.124859171819687e6 1.2992080755858462e7 0.0
1.2992080755858462e7 8.181104097999804e6 0.0
0.0 0.0 0.0

5.661841411146426e6 1.5597207132412456e7 0.0
1.5597207132412456e7 -1.080415682266191e7 0.0
0.0 0.0 0.0

-8.694521667801421e6 1.0841036036254724e7 0.0
1.0841036036254724e7 1.0079383136269905e7 0.0
0.0 0.0 0.0

-127373.26287701027 5.600012661724736e6 0.0
5.600012661724736e6 -1.6160807346025878e6 0.0
0.0 0.0 0.0

-1.7867284760680392e7 -3.522802780125655e6 0.0
-3.522802780125655e6 8.210842269557962e6 0.0
0.0 0.0 0.0

4.344941167524754e6 5.976577564784011e6 0.0
5.976577564784011e6 -1.2920767207694925e7 0.0
0.0 0.0 0.0

-7.905789611316062e6 1.6623256623315144e7 0.0
1.6623256623315144e7 7.319386952373652e6 0.0
0.0 0.0 0.0

-2.321857802864228e6 3.6461321430927534e6 0.0
3.6461321430927534e6 611842.1915034325 0.0
0.0 0.0 0.0

-1.8492160420379112e6 8.453048295094198e6 0.0
8.453048295094198e6 -2.0404801612049998e6 0.0
0.0 0.0 0.0

-9.04584568509382e6 -580501.8851653631 0.0
-580501.8851653631 1.1398044936679458e7 0.0
0.0 0.0 0.0

-201452.46996191237 1.2706457485574545e7 0.0
1.2706457485574545e7 -7.84835105013599e6 0.0
0.0 0.0 0.0

-8.797967846411258e6 -1.6486633311333382e6 0.0
-1.6486633311333382e6 1.1436134644978337e7 0.0
0.0 0.0 0.0

-45340.12293270789 1.0666846841979723e7 0.0
1.0666846841979723e7 -7.44706818040889e6 0.0
0.0 0.0 0.0

-1.076603029578944e7 1.002947622335316e7 0.0
1.002947622335316e7 1.2329498312357228e7 0.0
0.0 0.0 0.0

-4.418636513444988e6 6.51148652469047e6 0.0
6.51148652469047e6 2.539847748900065e6 0.0
0.0 0.0 0.0

-1.0507226519371647e7 1.0466091120496139e7 0.0
1.0466091120496139e7 1.4944441104445973e7 0.0
0.0 0.0 0.0

-7.726852272994796e6 7.974691656691858e6 0.0
7.974691656691858e6 8.102516495569125e6 0.0
0.0 0.0 0.0

-5.117959846164637e6 1.3554759221331926e7 0.0
1.3554759221331926e7 1.9574815504863637e6 0.0
0.0 0.0 0.0

4.709351810890261e6 7.15346045064025e6 0.0
7.15346045064025e6 -1.5314430576211967e7 0.0
0.0 0.0 0.0

-9.889765554915074e6 1.1066985877014654e7 0.0
1.1066985877014654e7 1.2502598668268617e7 0.0
0.0 0.0 0.0

3.812294739351194e6 1.1732143798017254e7 0.0
1.1732143798017254e7 -43855.94552922738 0.0
0.0 0.0 0.0

-1.1665918867975127e7 1.3113378411231996e6 0.0
1.3113378411231996e6 9.07525944808388e6 0.0
0.0 0.0 0.0

3.478802200545936e6 8.943248376143843e6 0.0
8.943248376143843e6 -1.4234679880541367e7 0.0
0.0 0.0 0.0

-4.0173350967632807e6 7.946501622648194e6 0.0
7.946501622648194e6 3.143604725863105e6 0.0
0.0 0.0 0.0

2.152343708268563e6 7.392911752804427e6 0.0
7.392911752804427e6 -7.687115738484419e6 0.0
0.0 0.0 0.0

-1.6100924034554122e6 3.6254951787752765e6 0.0
3.6254951787752765e6 528465.5845952041 0.0
0.0 0.0 0.0

-6.544070402473622e6 252556.4084120976 0.0
252556.4084120976 7.079264327560469e6 0.0
0.0 0.0 0.0

958801.8582700831 9.898372440721313e6 0.0
9.898372440721313e6 -9.102026161169175e6 0.0
0.0 0.0 0.0

-4.203667786116515e6 4.130693742236893e6 0.0
4.130693742236893e6 4.70950568404071e6 0.0
0.0 0.0 0.0

-5.396272097687051e6 1.4677640354694549e7 0.0
1.4677640354694549e7 5.211609390991416e6 0.0
0.0 0.0 0.0

-4.891125909515148e6 1.1152635397699682e7 0.0
1.1152635397699682e7 7.332654993321929e6 0.0
0.0 0.0 0.0

283619.17587449704 6.296843865779256e6 0.0
6.296843865779256e6 -3.221874870578389e6 0.0
0.0 0.0 0.0

-1.3130408084845806e6 1.242174933314165e7 0.0
1.242174933314165e7 -4.8454552002270315e6 0.0
0.0 0.0 0.0

2.7322013145877495e6 6.840198756342491e6 0.0
6.840198756342491e6 -1.0101546575868936e7 0.0
0.0 0.0 0.0

-4.941611834590573e6 1.594900216742844e7 0.0
1.594900216742844e7 369559.06527629914 0.0
0.0 0.0 0.0

1.2197959963786276e6 1.1990629061963761e7 0.0
1.1990629061963761e7 -2.18475321131441e7 0.0
0.0 0.0 0.0

2.49478970644173e6 5.6381283043989735e6 0.0
5.6381283043989735e6 -8.597947554250944e6 0.0
0.0 0.0 0.0

3.4581225723839155e6 6.193748913908175e6 0.0
6.193748913908175e6 -1.0901459863684356e7 0.0
0.0 0.0 0.0

-55758.28591529466 1.1208641162261277e7 0.0
1.1208641162261277e7 -1.0353344476604227e7 0.0
0.0 0.0 0.0

-116121.17918306577 6.584428663342719e6 0.0
6.584428663342719e6 -2.7312804181194883e6 0.0
0.0 0.0 0.0

-3.5502071581317103e6 1.3387517807483483e7 0.0
1.3387517807483483e7 -1.696688716351772e7 0.0
0.0 0.0 0.0

1.4391397288618276e6 6.57966599181286e6 0.0
6.57966599181286e6 -5.870978397913249e6 0.0
0.0 0.0 0.0

2.425973546064783e6 6.859366613206524e6 0.0
6.859366613206524e6 -7.9575740632800665e6 0.0
0.0 0.0 0.0

-516908.56784517446 1.270958465665479e7 0.0
1.270958465665479e7 -1.855838871244224e6 0.0
0.0 0.0 0.0

-1.2339395884949468e7 6.441483300640619e6 0.0
6.441483300640619e6 1.7225046736612536e7 0.0
0.0 0.0 0.0

-6.415330518317509e6 1.6446938862559099e7 0.0
1.6446938862559099e7 4.882838345349928e6 0.0
0.0 0.0 0.0

-7.313584182729512e6 1.1058879576755136e6 0.0
1.1058879576755136e6 4.4081423389301635e6 0.0
0.0 0.0 0.0

1.5847289487115596e6 9.312847541387085e6 0.0
9.312847541387085e6 -1.0236557297961358e7 0.0
0.0 0.0 0.0

-1.7993566300843384e6 1.3141930926999649e7 0.0
1.3141930926999649e7 5.197331431639724e6 0.0
0.0 0.0 0.0

-4.656295384215196e6 1.5676179297136357e7 0.0
1.5676179297136357e7 -440718.4644638358 0.0
0.0 0.0 0.0

-573621.573596462 9.41150772231608e6 0.0
9.41150772231608e6 -4.923207516997012e6 0.0
0.0 0.0 0.0

-4.0407001020212043e6 1.5772002433329247e7 0.0
1.5772002433329247e7 -1.9840689953063768e6 0.0
0.0 0.0 0.0

145391.7766601364 9.732995157452714e6 0.0
9.732995157452714e6 -5.230533797529876e6 0.0
0.0 0.0 0.0

-2.273435667412126e6 2.232428328418989e6 0.0
2.232428328418989e6 1.329300154281033e6 0.0
0.0 0.0 0.0

-1.5580184758449781e6 1.2308013734803278e7 0.0
1.2308013734803278e7 -5.635439077414427e6 0.0
0.0 0.0 0.0

-4.44963433674334e6 2.3410575488330886e7 0.0
2.3410575488330886e7 -4.544777685831147e6 0.0
0.0 0.0 0.0

524580.644793936 1.4291244600801762e7 0.0
1.4291244600801762e7 -5.335831589245054e6 0.0
0.0 0.0 0.0

-94831.96216983302 1.2254613099462096e7 0.0
1.2254613099462096e7 -7.588304670617419e6 0.0
0.0 0.0 0.0

-2.9608002504733754e6 9.289592189534921e6 0.0
9.289592189534921e6 863400.1852020884 0.0
0.0 0.0 0.0

-3.226753604807129e6 1.090944604640419e7 0.0
1.090944604640419e7 -707299.3112062885 0.0
0.0 0.0 0.0

4.606141210729907e6 5.641989371877566e6 0.0
5.641989371877566e6 -1.2488040339364897e7 0.0
0.0 0.0 0.0

2.3992855866641677e6 4.747842196978614e6 0.0
4.747842196978614e6 -7.493305674727703e6 0.0
0.0 0.0 0.0

-1.26490107834978e6 7.021851912919499e6 0.0
7.021851912919499e6 -2.454744071507796e6 0.0
0.0 0.0 0.0

-3.421870417059722e6 1.3821684643286573e7 0.0
1.3821684643286573e7 -145286.0921498431 0.0
0.0 0.0 0.0

2.766893255466027e6 6.167070691216533e6 0.0
6.167070691216533e6 -9.483357307783918e6 0.0
0.0 0.0 0.0

-451333.71849964815 1.072759323109673e7 0.0
1.072759323109673e7 -6.470756957604606e6 0.0
0.0 0.0 0.0

-1.4833397053161035e6 1.292880128834316e7 0.0
1.292880128834316e7 2.7611502939070365e6 0.0
0.0 0.0 0.0

2.4096981538976347e6 8.85040587664908e6 0.0
8.85040587664908e6 -1.0470878485207006e7 0.0
0.0 0.0 0.0

-3.398105725653083e6 3.8617945674756854e6 0.0
3.8617945674756854e6 3.3745036524873553e6 0.0
0.0 0.0 0.0

-1.6319976494351499e7 1.2669718513634082e7 0.0
1.2669718513634082e7 8.224814850447189e6 0.0
0.0 0.0 0.0

3.024109080226342e6 8.622698512046311e6 0.0
8.622698512046311e6 -1.1881884714592442e7 0.0
0.0 0.0 0.0

-2.8478563968018115e7 -1.9158999648209184e6 0.0
-1.9158999648209184e6 1.0008916662717262e7 0.0
0.0 0.0 0.0

2.44385936961318e6 6.626944577414744e6 0.0
6.626944577414744e6 -9.122728001638532e6 0.0
0.0 0.0 0.0

-5.525704661547118e6 1.2288994033940084e7 0.0
1.2288994033940084e7 8.41548429709908e6 0.0
0.0 0.0 0.0

2.24815415288835e6 1.0288403871066889e7 0.0
1.0288403871066889e7 -1.4367894342928018e7 0.0
0.0 0.0 0.0

1.9291293099422394e6 1.0693726890740227e7 0.0
1.0693726890740227e7 -1.1833587441101491e7 0.0
0.0 0.0 0.0

-940903.2601648984 5.631501032793978e6 0.0
5.631501032793978e6 -453676.06177465204 0.0
0.0 0.0 0.0

-1.1268136837819897e7 3.2394044027628456e6 0.0
3.2394044027628456e6 1.276365680513716e7 0.0
0.0 0.0 0.0

-2.106180365778557e6 9.73317527729403e6 0.0
9.73317527729403e6 -2.1719901784241316e6 0.0
0.0 0.0 0.0

-3.016201320644681e6 8.982931811798455e6 0.0
8.982931811798455e6 1.032492818077134e6 0.0
0.0 0.0 0.0

-1.1965270796575394e7 2.0993276485709324e6 0.0
2.0993276485709324e6 1.4479675991392411e7 0.0
0.0 0.0 0.0

-1.4912999988308714e6 9.61639867625382e6 0.0
9.61639867625382e6 -2.022845518680104e6 0.0
0.0 0.0 0.0

-1.1936659597210689e6 1.1864711789944544e7 0.0
1.1864711789944544e7 -6.026601003878993e6 0.0
0.0 0.0 0.0

-1.3041518576108315e6 1.2247165382109934e7 0.0
1.2247165382109934e7 -4.560525451414954e6 0.0
0.0 0.0 0.0

-1.8340978067849055e6 1.2705620229393309e7 0.0
1.2705620229393309e7 -5.3219659788312465e6 0.0
0.0 0.0 0.0

331903.96777782077 1.0406803274839204e7 0.0
1.0406803274839204e7 -7.992395853460072e6 0.0
0.0 0.0 0.0

1.520019553766577e6 7.041787786630866e6 0.0
7.041787786630866e6 -7.577380366000809e6 0.0
0.0 0.0 0.0

970228.5014231596 1.0727527577151826e7 0.0
1.0727527577151826e7 -5.775523352872368e6 0.0
0.0 0.0 0.0

-1.5512250111775876e6 1.192634322752709e7 0.0
1.192634322752709e7 -5.083327567339736e6 0.0
0.0 0.0 0.0

-279314.8167107564 9.752670824952435e6 0.0
9.752670824952435e6 -4.405676664388917e6 0.0
0.0 0.0 0.0

-2.4965681600055094e6 3.941083358427493e6 0.0
3.941083358427493e6 2.068219080478334e6 0.0
0.0 0.0 0.0

646095.0997765367 1.0172532147992704e7 0.0
1.0172532147992704e7 -8.572474246648194e6 0.0
0.0 0.0 0.0

-4.908944264796505e6 1.3663005614059782e7 0.0
1.3663005614059782e7 -1.6363147163437983e7 0.0
0.0 0.0 0.0

-938812.5415785183 6.070645178707714e6 0.0
6.070645178707714e6 -578497.694476072 0.0
0.0 0.0 0.0

2.1781997279121904e6 7.116887382075125e6 0.0
7.116887382075125e6 -8.878200250993382e6 0.0
0.0 0.0 0.0

397377.86313589336 6.1196200815033475e6 0.0
6.1196200815033475e6 -4.582913343496148e6 0.0
0.0 0.0 0.0

1.627543134538183e6 1.1440926557983547e7 0.0
1.1440926557983547e7 -2.0069370670182392e7 0.0
0.0 0.0 0.0

-3.957630085510837e6 9.21290776138919e6 0.0
9.21290776138919e6 2.549648129414334e6 0.0
0.0 0.0 0.0

2.9405166702113855e6 6.502508336464512e6 0.0
6.502508336464512e6 -8.931835173059324e6 0.0
0.0 0.0 0.0

-9.115248882842094e6 3.5886206037580357e6 0.0
3.5886206037580357e6 9.678765592458334e6 0.0
0.0 0.0 0.0

-1.075023145426489e7 -3.351166010005417e6 0.0
-3.351166010005417e6 2.129919984467257e7 0.0
0.0 0.0 0.0

-48697.35236859531 1.2510759807600131e7 0.0
1.2510759807600131e7 -1.6209785805222953e6 0.0
0.0 0.0 0.0

-103280.34699127081 1.1471182104033852e7 0.0
1.1471182104033852e7 -138950.45176407977 0.0
0.0 0.0 0.0

-5.723838923544744e6 1.4863534344872344e7 0.0
1.4863534344872344e7 5.099918099540448e6 0.0
0.0 0.0 0.0

-5.016272267970515e6 1.1950111559272524e7 0.0
1.1950111559272524e7 2.120097401066279e6 0.0
0.0 0.0 0.0

4.842327643716414e6 6.054416433544494e6 0.0
6.054416433544494e6 -1.381099139274792e7 0.0
0.0 0.0 0.0

4.888321592534474e6 6.2948773272504825e6 0.0
6.2948773272504825e6 -1.406532793591085e7 0.0
0.0 0.0 0.0

-1.0012966642892282e7 6.36349499025206e6 0.0
6.36349499025206e6 1.3739920675615668e7 0.0
0.0 0.0 0.0

-793485.3613187976 1.1423140087006854e7 0.0
1.1423140087006854e7 -6.423329289301967e6 0.0
0.0 0.0 0.0

3.309806437799513e6 1.2200489873183604e7 0.0
1.2200489873183604e7 -3.782429516418176e6 0.0
0.0 0.0 0.0

-1.2843473723619824e7 -1.278195455361287e6 0.0
-1.278195455361287e6 2.5593303602594502e7 0.0
0.0 0.0 0.0

-4.641751711349515e6 1.0863240414144833e7 0.0
1.0863240414144833e7 3.3072202251652395e6 0.0
0.0 0.0 0.0

-1.4326549032322823e6 1.1008904466291977e7 0.0
1.1008904466291977e7 -4.196727914593881e6 0.0
0.0 0.0 0.0

-1.0376470653695745e7 1.0833111618206687e7 0.0
1.0833111618206687e7 2.4370439619326048e7 0.0
0.0 0.0 0.0

456069.9592238371 5.131623107215396e6 0.0
5.131623107215396e6 -3.2069687476110794e6 0.0
0.0 0.0 0.0

-3.244057790962276e6 1.3681903282490434e7 0.0
1.3681903282490434e7 -2.1472950730005275e6 0.0
0.0 0.0 0.0

-3.829168766780898e6 1.30487750928298e7 0.0
1.30487750928298e7 8.185982078728007e6 0.0
0.0 0.0 0.0

2.6387002986087995e6 6.944195037009694e6 0.0
6.944195037009694e6 -8.607318874774579e6 0.0
0.0 0.0 0.0

-1.756137165858346e6 8.836956975732144e6 0.0
8.836956975732144e6 -2.3484680327081154e6 0.0
0.0 0.0 0.0

-1.0996572059144165e7 8.842791452057429e6 0.0
8.842791452057429e6 1.92010682808673e7 0.0
0.0 0.0 0.0

4.149923161501834e6 7.831539484106536e6 0.0
7.831539484106536e6 -1.441634436587262e7 0.0
0.0 0.0 0.0

273011.8001077813 1.2026437587994969e7 0.0
1.2026437587994969e7 -8.241030188589058e6 0.0
0.0 0.0 0.0

-9.062037395426352e6 -3.464168593079165e6 0.0
-3.464168593079165e6 1.512970523454912e7 0.0
0.0 0.0 0.0

3.7299045317150783e6 8.485319451141804e6 0.0
8.485319451141804e6 -1.4035507351055352e7 0.0
0.0 0.0 0.0

501800.0874583132 7.596164542042589e6 0.0
7.596164542042589e6 -4.391080528150164e6 0.0
0.0 0.0 0.0

3.8195583464984894e6 7.455835024421564e6 0.0
7.455835024421564e6 -1.2462855873349207e7 0.0
0.0 0.0 0.0

-65150.11759844958 9.841705230307495e6 0.0
9.841705230307495e6 -6.280365436842875e6 0.0
0.0 0.0 0.0

-415253.2154729278 1.0955489851213537e7 0.0
1.0955489851213537e7 -6.791806764307413e6 0.0
0.0 0.0 0.0

-1.1594602059720052e7 1.489595997812885e6 0.0
1.489595997812885e6 1.4039441270090064e7 0.0
0.0 0.0 0.0

1.6187484481792657e6 1.0878692789887045e7 0.0
1.0878692789887045e7 -37903.235159630305 0.0
0.0 0.0 0.0

-2.0364624084108863e6 4.0244149434769223e6 0.0
4.0244149434769223e6 1.1974255448392932e6 0.0
0.0 0.0 0.0

1.2762175554002668e6 1.0851340378623746e7 0.0
1.0851340378623746e7 -9.745193178193454e6 0.0
0.0 0.0 0.0

-391083.67176357843 5.922683998559266e6 0.0
5.922683998559266e6 -1.74976642593667e6 0.0
0.0 0.0 0.0

743256.1023971711 5.343155431035564e6 0.0
5.343155431035564e6 -4.974694370725547e6 0.0
0.0 0.0 0.0

-426537.99930720124 1.0528491068351062e7 0.0
1.0528491068351062e7 -6.218139440600388e6 0.0
0.0 0.0 0.0

3.244725450270935e6 6.029648085843414e6 0.0
6.029648085843414e6 -9.26538965313607e6 0.0
0.0 0.0 0.0

-9.395305012624372e6 362737.48646947445 0.0
362737.48646947445 1.022844723686432e7 0.0
0.0 0.0 0.0

5.671843685536606e6 5.508931091613037e6 0.0
5.508931091613037e6 -1.8298734987937026e7 0.0
0.0 0.0 0.0

-842704.5001155959 1.148420828922178e7 0.0
1.148420828922178e7 -2.8090147783765662e6 0.0
0.0 0.0 0.0

-7.019103077558396e6 5.22285217411967e6 0.0
5.22285217411967e6 6.63013920751301e6 0.0
0.0 0.0 0.0

-5.65545662750273e6 1.4120557323715968e7 0.0
1.4120557323715968e7 3.560286995733345e6 0.0
0.0 0.0 0.0

-233248.56140709762 1.1310379802129894e7 0.0
1.1310379802129894e7 3.33576767423768e6 0.0
0.0 0.0 0.0

-1.0202583431114078e7 1.0462623650666777e7 0.0
1.0462623650666777e7 1.1796025548467167e7 0.0
0.0 0.0 0.0

-7.605999841047358e6 1.171658171357757e7 0.0
1.171658171357757e7 9.917131940273559e6 0.0
0.0 0.0 0.0

-7.811925340410038e6 -6.053662146548383e6 0.0
-6.053662146548383e6 1.252254966923612e7 0.0
0.0 0.0 0.0

-2.0390121760139666e6 8.732749733777542e6 0.0
8.732749733777542e6 -462258.4972467395 0.0
0.0 0.0 0.0

281212.041482799 1.3257899055436622e7 0.0
1.3257899055436622e7 6.480841799234831e6 0.0
0.0 0.0 0.0

-3.926591836006605e6 1.3868432467975639e7 0.0
1.3868432467975639e7 4.8408400812654365e6 0.0
0.0 0.0 0.0

-1.0702322114605926e7 2.926215560112812e6 0.0
2.926215560112812e6 1.1945082581376838e7 0.0
0.0 0.0 0.0

1.3663925163779724e6 1.0202032655797975e7 0.0
1.0202032655797975e7 -1.0899842232046446e7 0.0
0.0 0.0 0.0

2.1957595199054964e6 6.252258243753265e6 0.0
6.252258243753265e6 -8.291200122948123e6 0.0
0.0 0.0 0.0

-180999.98818434915 1.1298113834565636e7 0.0
1.1298113834565636e7 -6.241899716054905e6 0.0
0.0 0.0 0.0

-1.7050260994526239e6 8.198756662035638e6 0.0
8.198756662035638e6 -850740.5391581103 0.0
0.0 0.0 0.0

2.4657972997712204e6 5.275256293825603e6 0.0
5.275256293825603e6 -7.327292140424709e6 0.0
0.0 0.0 0.0

-3.4825638244814253e6 1.390233492227374e7 0.0
1.390233492227374e7 -1.385677582666639e6 0.0
0.0 0.0 0.0

-1.0677382084374968e7 -2.087996123263711e6 0.0
-2.087996123263711e6 2.0433980900043797e7 0.0
0.0 0.0 0.0

-9.859604378144301e6 -2.7286310575614935e6 0.0
-2.7286310575614935e6 1.635534004857992e7 0.0
0.0 0.0 0.0

-1.2603739982834365e7 4.755428075413108e6 0.0
4.755428075413108e6 1.7436690635026995e7 0.0
0.0 0.0 0.0

-2.6159423438995527e6 1.3207473184191572e7 0.0
1.3207473184191572e7 -3.884910813507763e6 0.0
0.0 0.0 0.0

-395486.98565285234 6.577211946499245e6 0.0
6.577211946499245e6 -3.665453365035574e6 0.0
0.0 0.0 0.0

2.983020343391834e6 1.2629760198906524e7 0.0
1.2629760198906524e7 3.8989619681561724e6 0.0
0.0 0.0 0.0

2.553652115964022e6 1.5206488962442363e7 0.0
1.5206488962442363e7 1.5802250122697381e7 0.0
0.0 0.0 0.0

2.688992821071157e6 6.041506940686576e6 0.0
6.041506940686576e6 -7.959154512447581e6 0.0
0.0 0.0 0.0

-4.503456027742311e6 3.5009948641745127e6 0.0
3.5009948641745127e6 5.346013951188871e6 0.0
0.0 0.0 0.0

-2.384947877623263e6 9.284162625578295e6 0.0
9.284162625578295e6 -71217.5897650508 0.0
0.0 0.0 0.0

-7.414239622770768e6 1.2746855589318855e7 0.0
1.2746855589318855e7 8.163137807059112e6 0.0
0.0 0.0 0.0

4.87650364317906e6 6.463755441244303e6 0.0
6.463755441244303e6 -1.4804806431191752e7 0.0
0.0 0.0 0.0

4.35619680821581e6 6.865510475414072e6 0.0
6.865510475414072e6 -1.3360638574458772e7 0.0
0.0 0.0 0.0

-1.0207534829079967e6 6.103911301796636e6 0.0
6.103911301796636e6 -2.0151164027824593e6 0.0
0.0 0.0 0.0

-4.999150052023061e6 1.1443694676912952e7 0.0
1.1443694676912952e7 3.8060185118219308e6 0.0
0.0 0.0 0.0

-9.648668185187895e6 1.1195091589086642e7 0.0
1.1195091589086642e7 2.267537927020749e7 0.0
0.0 0.0 0.0

-532716.6060775323 1.1760787085231008e7 0.0
1.1760787085231008e7 -5.882598493420677e6 0.0
0.0 0.0 0.0

-942120.597620926 6.581180496530009e6 0.0
6.581180496530009e6 -1.318871468052445e6 0.0
0.0 0.0 0.0

4.599121842852144e6 6.569071943497639e6 0.0
6.569071943497639e6 -1.3717261551091712e7 0.0
0.0 0.0 0.0

-6.725491680312224e6 1.2617364906247336e7 0.0
1.2617364906247336e7 5.596791496393006e6 0.0
0.0 0.0 0.0

2.411609409019948e6 7.089987305615354e6 0.0
7.089987305615354e6 -9.669600624403255e6 0.0
0.0 0.0 0.0

-3.358686700447471e6 2.921196651320899e6 0.0
2.921196651320899e6 -371266.17377879925 0.0
0.0 0.0 0.0

-75130.87651876919 1.0244616549750304e7 0.0
1.0244616549750304e7 -6.830305456564617e6 0.0
0.0 0.0 0.0

-59281.82149950508 4.935876854922921e6 0.0
4.935876854922921e6 -2.9756090251353956e6 0.0
0.0 0.0 0.0

-1.3668693623535573e6 7.676136880515733e6 0.0
7.676136880515733e6 -1.237916444957144e6 0.0
0.0 0.0 0.0

-1.0082751081453385e6 7.1335108507324215e6 0.0
7.1335108507324215e6 -1.610248753336933e6 0.0
0.0 0.0 0.0

-399682.98219320807 1.029476270190604e7 0.0
1.029476270190604e7 -5.981473296133997e6 0.0
0.0 0.0 0.0

-2.141441446108416e6 9.381501826915706e6 0.0
9.381501826915706e6 -1.9416486924515285e6 0.0
0.0 0.0 0.0

-1.1741152186648235e7 2.497493673548364e6 0.0
2.497493673548364e6 1.3714022997798277e7 0.0
0.0 0.0 0.0

-1.102121845474437e7 8.391403842081258e6 0.0
8.391403842081258e6 2.2544971893970527e7 0.0
0.0 0.0 0.0

-1.2689459994759798e7 5.374323498919857e6 0.0
5.374323498919857e6 1.995410654237427e7 0.0
0.0 0.0 0.0

-1.1066982157569638e7 8.627998157172935e6 0.0
8.627998157172935e6 2.0786925298252393e7 0.0
0.0 0.0 0.0

-1.2691501194777235e7 2.9515279806132577e6 0.0
2.9515279806132577e6 3.371415362803409e7 0.0
0.0 0.0 0.0

-1.2386437575276108e6 1.2993645214882528e7 0.0
1.2993645214882528e7 1.8839845316893363e6 0.0
0.0 0.0 0.0

-1.2675990960794894e7 -200025.5298662951 0.0
-200025.5298662951 2.3543324943522066e7 0.0
0.0 0.0 0.0

-3.406110067042164e6 1.2975054988171274e7 0.0
1.2975054988171274e7 -1.215453104186649e6 0.0
0.0 0.0 0.0

834651.3741606502 1.1286864663534464e7 0.0
1.1286864663534464e7 -7.985118318400974e6 0.0
0.0 0.0 0.0

-2.6514495547837514e7 1.810906046326947e7 0.0
1.810906046326947e7 -185132.6044733934 0.0
0.0 0.0 0.0

2.425357864127488e6 6.590698826110388e6 0.0
6.590698826110388e6 -7.755596441822605e6 0.0
0.0 0.0 0.0

2.1224322072463897e6 9.1521275111572e6 0.0
9.1521275111572e6 -1.001660687862579e7 0.0
0.0 0.0 0.0

-3.4388842942933114e6 1.3899453143129632e7 0.0
1.3899453143129632e7 -975412.0452410906 0.0
0.0 0.0 0.0

-4.746144351970067e6 1.30772234596305e7 0.0
1.30772234596305e7 2.8254049425999355e6 0.0
0.0 0.0 0.0

3.8850984842242766e6 7.162120687482971e6 0.0
7.162120687482971e6 -1.224569899228859e7 0.0
0.0 0.0 0.0

4.279163920775528e6 1.4560112054063777e7 0.0
1.4560112054063777e7 -7.602590031083507e6 0.0
0.0 0.0 0.0

-2.0368156888508159e6 7.815206701058171e6 0.0
7.815206701058171e6 -1.422777870657451e6 0.0
0.0 0.0 0.0

5.027460049988249e6 6.850523638079863e6 0.0
6.850523638079863e6 -1.9368461431518998e7 0.0
0.0 0.0 0.0

-1.66568098088911e6 7.287697009963052e6 0.0
7.287697009963052e6 -1.822099681308285e6 0.0
0.0 0.0 0.0

1.8949360396981183e6 6.76778211055928e6 0.0
6.76778211055928e6 -8.030697945692015e6 0.0
0.0 0.0 0.0

-9.327867929962685e6 1.0655171077781187e7 0.0
1.0655171077781187e7 1.1162135854982875e7 0.0
0.0 0.0 0.0

-1.5724691970536476e7 1.2505024714242132e7 0.0
1.2505024714242132e7 5.470597384828085e6 0.0
0.0 0.0 0.0

-8.265075729432192e6 -1.9741691652095574e6 0.0
-1.9741691652095574e6 1.0625944068771165e7 0.0
0.0 0.0 0.0

-899752.2662513014 1.220002491558756e7 0.0
1.220002491558756e7 -5.493563460180273e6 0.0
0.0 0.0 0.0

-1.0026572866315393e7 1.3508986870102264e7 0.0
1.3508986870102264e7 6.763528077179322e6 0.0
0.0 0.0 0.0

2.682993436736841e6 5.666819184975119e6 0.0
5.666819184975119e6 -7.95892552742981e6 0.0
0.0 0.0 0.0

-6.935080310682993e6 4.250187141114017e6 0.0
4.250187141114017e6 9.295611453188578e6 0.0
0.0 0.0 0.0

-201803.56387087726 1.0873671001107093e7 0.0
1.0873671001107093e7 -5.677807615728929e6 0.0
0.0 0.0 0.0

-1.044325073301845e6 1.01964409298503e7 0.0
1.01964409298503e7 -3.249262714600161e6 0.0
0.0 0.0 0.0

-2.406054024814954e6 8.343850364052209e6 0.0
8.343850364052209e6 -1.0434565475056283e6 0.0
0.0 0.0 0.0

-1.2412492759196375e7 3.3739193054285473e6 0.0
3.3739193054285473e6 1.7374637602134075e7 0.0
0.0 0.0 0.0

4.7436337958932435e6 5.855968014797316e6 0.0
5.855968014797316e6 -1.2941943472851673e7 0.0
0.0 0.0 0.0

2.8654136494432082e6 5.964478486311666e6 0.0
5.964478486311666e6 -9.172474497693855e6 0.0
0.0 0.0 0.0

-6.50487572945049e6 1.2416942056957485e7 0.0
1.2416942056957485e7 4.901891096718209e6 0.0
0.0 0.0 0.0

-1.3250966257932032e6 5.297989859237573e6 0.0
5.297989859237573e6 -588914.1344923739 0.0
0.0 0.0 0.0

-99373.93672234984 9.61551611155251e6 0.0
9.61551611155251e6 -6.035825274432533e6 0.0
0.0 0.0 0.0

3.4836839661644506e6 6.695945565275322e6 0.0
6.695945565275322e6 -1.062485835737011e7 0.0
0.0 0.0 0.0

-1.1141435900277443e7 -939025.8530105855 0.0
-939025.8530105855 1.888394162278658e7 0.0
0.0 0.0 0.0

-1.0418393245473442e6 1.3140989404662125e7 0.0
1.3140989404662125e7 1.0300800487725267e6 0.0
0.0 0.0 0.0

-8.404442089110352e6 242951.42642901794 0.0
242951.42642901794 9.058922420724973e6 0.0
0.0 0.0 0.0

3.2084317914343663e6 9.15532228579081e6 0.0
9.15532228579081e6 -1.370595915600664e7 0.0
0.0 0.0 0.0

480228.21829785965 1.1855331145770594e7 0.0
1.1855331145770594e7 -1.002799060730137e7 0.0
0.0 0.0 0.0

-6.595658881797111e6 5.918076143955479e6 0.0
5.918076143955479e6 5.892603066104863e6 0.0
0.0 0.0 0.0

1.7595944892357662e6 1.0627331052223159e7 0.0
1.0627331052223159e7 -1.1072120967322623e7 0.0
0.0 0.0 0.0

546351.0196808246 1.0522863252547292e7 0.0
1.0522863252547292e7 -7.215179605823858e6 0.0
0.0 0.0 0.0

844573.4206436025 4.368490938014253e6 0.0
4.368490938014253e6 -3.1670205603244533e6 0.0
0.0 0.0 0.0

-6.218612648092566e6 1.2284294543414991e6 0.0
1.2284294543414991e6 6.174050929175731e6 0.0
0.0 0.0 0.0

65925.49476027023 8.63957397021386e6 0.0
8.63957397021386e6 -5.783925499180823e6 0.0
0.0 0.0 0.0

363391.9767978657 8.049313576127127e6 0.0
8.049313576127127e6 -6.098313854425037e6 0.0
0.0 0.0 0.0

-153721.6759708738 1.106026762741866e7 0.0
1.106026762741866e7 -5.948418712052515e6 0.0
0.0 0.0 0.0

-978604.4843638964 1.3250449930350162e7 0.0
1.3250449930350162e7 251451.01159286808 0.0
0.0 0.0 0.0

1.1546566014377088e6 7.35288680967734e6 0.0
7.35288680967734e6 -7.10534380043579e6 0.0
0.0 0.0 0.0

2.120161813607593e6 1.0489028963112468e7 0.0
1.0489028963112468e7 -1.7569336626642484e7 0.0
0.0 0.0 0.0

-1.335671192259964e6 5.764009062459099e6 0.0
5.764009062459099e6 -655423.5570676995 0.0
0.0 0.0 0.0

-3.0391769698450984e6 1.238049084912772e7 0.0
1.238049084912772e7 -1.3892477515123624e7 0.0
0.0 0.0 0.0

-6.022391983635077e7 5.560136385823248e6 0.0
5.560136385823248e6 8.762343000599641e6 0.0
0.0 0.0 0.0

4.1753268013312325e7 8.816736278416073e6 0.0
8.816736278416073e6 -1.6919011664937101e6 0.0
0.0 0.0 0.0

1.782015011050512e6 1.0960532303261386e7 0.0
1.0960532303261386e7 -1.916869223964091e7 0.0
0.0 0.0 0.0

-7.238825869870357e6 8.650864503961077e6 0.0
8.650864503961077e6 9.040133019200414e6 0.0
0.0 0.0 0.0

-3.979216097253953e6 1.1603745427816749e7 0.0
1.1603745427816749e7 360045.0136382084 0.0
0.0 0.0 0.0

-229447.5750469165 9.16136302098355e6 0.0
9.16136302098355e6 -5.490530919712149e6 0.0
0.0 0.0 0.0

210536.44828422833 5.640519562851608e6 0.0
5.640519562851608e6 -4.247174495116222e6 0.0
0.0 0.0 0.0

673163.3710715633 6.04931893786379e6 0.0
6.04931893786379e6 -3.6534557391377254e6 0.0
0.0 0.0 0.0

-2.772370878820731e6 8.891000405257277e6 0.0
8.891000405257277e6 -674644.8013347185 0.0
0.0 0.0 0.0

1.9806068524553236e6 1.0701510094707254e7 0.0
1.0701510094707254e7 -1.8338720458982784e7 0.0
0.0 0.0 0.0

698715.470456626 8.440147454986038e6 0.0
8.440147454986038e6 -5.47867043654995e6 0.0
0.0 0.0 0.0

-1.0692655921828605e7 -1.2624802857609529e6 0.0
-1.2624802857609529e6 1.394321421444631e7 0.0
0.0 0.0 0.0

2.9590165510853317e7 9.899824820341747e6 0.0
9.899824820341747e6 -2.9090075120325796e6 0.0
0.0 0.0 0.0

379951.24696271424 8.988855783069447e6 0.0
8.988855783069447e6 -5.231076672561168e6 0.0
0.0 0.0 0.0

4.0340046438187854e6 6.6378292079670895e6 0.0
6.6378292079670895e6 -1.1880794225977946e7 0.0
0.0 0.0 0.0

3.9601751339753177e6 6.89394600726745e6 0.0
6.89394600726745e6 -1.202644146019993e7 0.0
0.0 0.0 0.0

-8.607371474718254e6 1.1064805966046706e7 0.0
1.1064805966046706e7 1.0512420694770759e7 0.0
0.0 0.0 0.0

1.2182819769479195e6 9.968505161238516e6 0.0
9.968505161238516e6 -8.258485691194162e6 0.0
0.0 0.0 0.0

-1.7242584516864624e6 1.3665967469827885e7 0.0
1.3665967469827885e7 -2.89066429806156e6 0.0
0.0 0.0 0.0

1.8556791668721144e6 1.3653424373891052e7 0.0
1.3653424373891052e7 -5.37147425244955e6 0.0
0.0 0.0 0.0

-1.050281410115794e6 8.68226462730562e6 0.0
8.68226462730562e6 -2.144702395387739e6 0.0
0.0 0.0 0.0

1.1704985034086055e6 5.611020629906888e6 0.0
5.611020629906888e6 -4.516690953052677e6 0.0
0.0 0.0 0.0

-824771.24892475 6.795230205237063e6 0.0
6.795230205237063e6 -3.0527171325985654e6 0.0
0.0 0.0 0.0

-1.1025845439698538e6 6.544619747215907e6 0.0
6.544619747215907e6 -705123.3474700559 0.0
0.0 0.0 0.0

-894035.2822025078 1.1148314321823426e7 0.0
1.1148314321823426e7 -1.1904028324387275e7 0.0
0.0 0.0 0.0

2.9419518009412447e6 8.942647992702361e6 0.0
8.942647992702361e6 -1.2137439328328945e7 0.0
0.0 0.0 0.0

2.1041826006986713e6 5.850043321527507e6 0.0
5.850043321527507e6 -8.244311570595959e6 0.0
0.0 0.0 0.0

1.7758944417008702e6 7.126282754913294e6 0.0
7.126282754913294e6 -6.753829995906164e6 0.0
0.0 0.0 0.0

-1.8573654503721755e6 9.774059858100567e6 0.0
9.774059858100567e6 -1.350851088008199e6 0.0
0.0 0.0 0.0

1.9066639808412492e6 7.04297048088593e6 0.0
7.04297048088593e6 -8.244771060789872e6 0.0
0.0 0.0 0.0

11296.274627776118 6.346244846192488e6 0.0
6.346244846192488e6 -4.127736490663464e6 0.0
0.0 0.0 0.0

3.595591805681875e6 5.911091586354422e6 0.0
5.911091586354422e6 -9.869296801655335e6 0.0
0.0 0.0 0.0

171567.77538190177 1.0158750074562518e7 0.0
1.0158750074562518e7 -5.782675168520663e6 0.0
0.0 0.0 0.0

-1.5378792121176796e6 6.240826350132823e6 0.0
6.240826350132823e6 -824120.5442027884 0.0
0.0 0.0 0.0

-3.3126734731156016e6 1.3739843674362468e7 0.0
1.3739843674362468e7 -2.5426065584962764e6 0.0
0.0 0.0 0.0

4.909011758816664e6 6.50361455715288e6 0.0
6.50361455715288e6 -1.7340877495531913e7 0.0
0.0 0.0 0.0

-189892.55836323136 1.0641128362339456e7 0.0
1.0641128362339456e7 -5.455036146035023e6 0.0
0.0 0.0 0.0

2.8781395506831855e6 7.1801282353709e6 0.0
7.1801282353709e6 -9.555710118843189e6 0.0
0.0 0.0 0.0

16702.378948934027 5.478851742855465e6 0.0
5.478851742855465e6 -2.150925990590528e6 0.0
0.0 0.0 0.0

3.1952418040393917e6 6.936288364393116e6 0.0
6.936288364393116e6 -1.0125989799668476e7 0.0
0.0 0.0 0.0

-4.732416107702638e6 1.205648650645472e7 0.0
1.205648650645472e7 3.0489913981548203e6 0.0
0.0 0.0 0.0

-3.602017100661022e6 1.5037486095875286e7 0.0
1.5037486095875286e7 -2.770912369664795e6 0.0
0.0 0.0 0.0

773725.3156444477 1.186615019586988e7 0.0
1.186615019586988e7 -1.0143681173903082e7 0.0
0.0 0.0 0.0

686649.9262440137 5.8702212225467255e6 0.0
5.8702212225467255e6 -4.909426839571986e6 0.0
0.0 0.0 0.0

-3.6108227012299397e6 1.5209304332375841e7 0.0
1.5209304332375841e7 -1.0380603796093242e6 0.0
0.0 0.0 0.0

-1.9648460288746506e6 1.310271806647795e7 0.0
1.310271806647795e7 -3.789030882097653e6 0.0
0.0 0.0 0.0

-5.595370181719383e6 4.315599114358212e6 0.0
4.315599114358212e6 4.5886686405592635e6 0.0
0.0 0.0 0.0

-4.1204392057953314e6 1.3701970852437016e7 0.0
1.3701970852437016e7 5.583992358059145e6 0.0
0.0 0.0 0.0

-394592.36361557775 5.44177834656401e6 0.0
5.44177834656401e6 -2.4289009434009497e6 0.0
0.0 0.0 0.0

-927693.2276758194 7.415010908660258e6 0.0
7.415010908660258e6 -1.8601354279309278e6 0.0
0.0 0.0 0.0

-1.193035842158649e7 2.0944977620990607e6 0.0
2.0944977620990607e6 2.2298506548111606e7 0.0
0.0 0.0 0.0

-3.283667556331986e6 8.563910892518258e6 0.0
8.563910892518258e6 468292.7839875554 0.0
0.0 0.0 0.0

1.8785758621118916e6 1.0635754501902953e7 0.0
1.0635754501902953e7 -1.711113951450442e6 0.0
0.0 0.0 0.0

89122.39811515389 9.509311389912412e6 0.0
9.509311389912412e6 -4.945549791131167e6 0.0
0.0 0.0 0.0

-423802.6229050101 1.0096930527725123e7 0.0
1.0096930527725123e7 -5.703005041118906e6 0.0
0.0 0.0 0.0

2.0445650902803093e6 1.0344629841796294e7 0.0
1.0344629841796294e7 -1.6860030837378446e7 0.0
0.0 0.0 0.0

4.851603193024186e6 6.742460700558484e6 0.0
6.742460700558484e6 -1.8177572761152737e7 0.0
0.0 0.0 0.0

-1.0798043061726958e7 4.246559914837435e6 0.0
4.246559914837435e6 1.2065930601011042e7 0.0
0.0 0.0 0.0

-6.011373767584344e6 1.4170175315521229e7 0.0
1.4170175315521229e7 5.235456762791578e6 0.0
0.0 0.0 0.0

-1.1346473511007085e7 -1.7667768315055063e6 0.0
-1.7667768315055063e6 1.5978022393788118e7 0.0
0.0 0.0 0.0

-1.3215878980917803e6 1.2599746103726834e7 0.0
1.2599746103726834e7 -5.162554107751617e6 0.0
0.0 0.0 0.0

-1.1024460206149314e6 1.2614596474958636e7 0.0
1.2614596474958636e7 -6.946298268498875e6 0.0
0.0 0.0 0.0

6.569822039766137e6 5.14792483785462e6 0.0
5.14792483785462e6 -989842.1096918602 0.0
0.0 0.0 0.0

984718.6960249781 7.233680986413412e6 0.0
7.233680986413412e6 -5.513131408571889e6 0.0
0.0 0.0 0.0

-5.132941273406085e6 7.269516293907952e6 0.0
7.269516293907952e6 3.4045346929321736e6 0.0
0.0 0.0 0.0

316813.1479317853 1.1364346369865442e7 0.0
1.1364346369865442e7 -1.0035835118890034e7 0.0
0.0 0.0 0.0

166671.16495962744 9.963618443928799e6 0.0
9.963618443928799e6 -5.511289640320034e6 0.0
0.0 0.0 0.0

167473.9850144582 1.0602983535944108e7 0.0
1.0602983535944108e7 -6.293628451227863e6 0.0
0.0 0.0 0.0

-1.1881946387094919e7 6.014676529459956e6 0.0
6.014676529459956e6 1.7539403184131883e7 0.0
0.0 0.0 0.0

-8.218252058388606e6 4.615045841413612e6 0.0
4.615045841413612e6 8.796104071412783e6 0.0
0.0 0.0 0.0

-462431.2661579293 9.879860563749231e6 0.0
9.879860563749231e6 -5.446476046656327e6 0.0
0.0 0.0 0.0

-1.729736693361341e6 1.1436157739664497e7 0.0
1.1436157739664497e7 -3.886144321141749e6 0.0
0.0 0.0 0.0

-4.1062821937412284e6 1.097051060679196e7 0.0
1.097051060679196e7 2.298588727814325e6 0.0
0.0 0.0 0.0

-4.635966762869603e6 1.4219368673985314e7 0.0
1.4219368673985314e7 942363.4446538547 0.0
0.0 0.0 0.0

3.139728491957154e6 9.051010469956337e6 0.0
9.051010469956337e6 -1.2937678111830687e7 0.0
0.0 0.0 0.0

-6.222558207929467e6 1.6728549709461052e7 0.0
1.6728549709461052e7 5.282455535880613e6 0.0
0.0 0.0 0.0

-5.012872506504854e6 8.048263766391723e6 0.0
8.048263766391723e6 3.089807687618643e6 0.0
0.0 0.0 0.0

-3.4243263470192044e6 1.5505861600168606e7 0.0
1.5505861600168606e7 -1.2911948472153784e6 0.0
0.0 0.0 0.0

-368380.5737506305 1.1714884211762644e7 0.0
1.1714884211762644e7 -1.9351441344978432e6 0.0
0.0 0.0 0.0

757235.7351983865 1.2068804064781247e7 0.0
1.2068804064781247e7 -9.64089590691637e6 0.0
0.0 0.0 0.0

-1.0500461934848034e6 1.2389728744732464e7 0.0
1.2389728744732464e7 -3.7812856410040366e6 0.0
0.0 0.0 0.0

-6.691211503812259e6 1.3890180311382387e7 0.0
1.3890180311382387e7 6.27043729302427e6 0.0
0.0 0.0 0.0

-936430.3384116874 1.1793789403377594e7 0.0
1.1793789403377594e7 -4.939489398972552e6 0.0
0.0 0.0 0.0

-517081.9751543589 9.665059705683954e6 0.0
9.665059705683954e6 -5.177427693985406e6 0.0
0.0 0.0 0.0

1.0580071736903354e6 1.166417028748574e7 0.0
1.166417028748574e7 -1.067280958084766e7 0.0
0.0 0.0 0.0

-452884.2159978171 8.39412473221632e6 0.0
8.39412473221632e6 -4.354336039729122e6 0.0
0.0 0.0 0.0

-4.9818117539243335e6 1.2986894065465713e7 0.0
1.2986894065465713e7 2.0458347534322129e6 0.0
0.0 0.0 0.0

-4.282309533045668e6 1.4009128452437378e7 0.0
1.4009128452437378e7 192274.09268659772 0.0
0.0 0.0 0.0

395618.01065061905 5.062618759093897e6 0.0
5.062618759093897e6 -2.6674581203413806e6 0.0
0.0 0.0 0.0

377059.77174617397 7.727438779017467e6 0.0
7.727438779017467e6 -5.897554589843129e6 0.0
0.0 0.0 0.0

-4.6109272379910555e6 1.4786049805384114e7 0.0
1.4786049805384114e7 2.128370875520249e6 0.0
0.0 0.0 0.0

-5.16275654353643e6 1.1672308938892728e7 0.0
1.1672308938892728e7 2.4310532013948914e6 0.0
0.0 0.0 0.0

-4.525308212557993e7 1.485558112147364e6 0.0
1.485558112147364e6 9.42692436096259e6 0.0
0.0 0.0 0.0

1.6594716153198918e6 1.0885840893644953e7 0.0
1.0885840893644953e7 -1.1251926199927647e7 0.0
0.0 0.0 0.0

-5.4253109781466825e6 1.1000591182478564e7 0.0
1.1000591182478564e7 3.1454979448830187e6 0.0
0.0 0.0 0.0

-3.1566148253187183e6 1.3107434481750172e7 0.0
1.3107434481750172e7 -427109.73059374955 0.0
0.0 0.0 0.0

-5.769162191659598e6 1.1598627222050557e7 0.0
1.1598627222050557e7 3.6037412507054294e6 0.0
0.0 0.0 0.0

-862882.0650006713 1.3429095604526596e7 0.0
1.3429095604526596e7 -444657.16812490934 0.0
0.0 0.0 0.0

-1.658569777083627e6 1.248124000911176e7 0.0
1.248124000911176e7 -4.0398022111840732e6 0.0
0.0 0.0 0.0

-4.807025385222667e6 8.772591007487247e6 0.0
8.772591007487247e6 2.7100332029265426e6 0.0
0.0 0.0 0.0

-9.471478413927954e6 2.50511418562957e6 0.0
2.50511418562957e6 1.2574893533436373e7 0.0
0.0 0.0 0.0

-398667.4677028622 8.731044542946057e6 0.0
8.731044542946057e6 -3.6558946444412204e6 0.0
0.0 0.0 0.0

2.138959240892924e6 5.580827209929449e6 0.0
5.580827209929449e6 -6.774091778230781e6 0.0
0.0 0.0 0.0

-1.6576285615421333e6 1.032144311084239e7 0.0
1.032144311084239e7 -3.425790261487916e6 0.0
0.0 0.0 0.0

-2.226599875675439e6 1.2970115736093504e7 0.0
1.2970115736093504e7 -4.611742459222269e6 0.0
0.0 0.0 0.0

-4.839895872568063e6 1.1129941131810518e7 0.0
1.1129941131810518e7 1.972345902473076e6 0.0
0.0 0.0 0.0

-1.7312300467067906e6 9.54575866834075e6 0.0
9.54575866834075e6 -2.803005832434874e6 0.0
0.0 0.0 0.0

-858026.3217165421 5.110512941490908e6 0.0
5.110512941490908e6 -293674.6848981478 0.0
0.0 0.0 0.0

1.9173516251253588e6 5.4052176217851015e6 0.0
5.4052176217851015e6 -7.504928987869136e6 0.0
0.0 0.0 0.0

-1.1307695545543611e7 1.0682052138375454e6 0.0
1.0682052138375454e6 1.710461861078591e7 0.0
0.0 0.0 0.0

-4.664847238912561e6 2.8056566515476285e6 0.0
2.8056566515476285e6 4.385722297612716e6 0.0
0.0 0.0 0.0

-5.422278580657912e6 1.2750749447883166e7 0.0
1.2750749447883166e7 8.52524841031197e6 0.0
0.0 0.0 0.0

-2.0363718556560008e6 1.1855590723074375e7 0.0
1.1855590723074375e7 -3.530836060592581e6 0.0
0.0 0.0 0.0

411148.5737211709 7.411474970205129e6 0.0
7.411474970205129e6 -5.7714171936713755e6 0.0
0.0 0.0 0.0

-1.1311902040738638e7 689822.0874170022 0.0
689822.0874170022 1.818228343538841e7 0.0
0.0 0.0 0.0

-3.0785736326668616e6 1.330333552422916e7 0.0
1.330333552422916e7 -703853.4919651754 0.0
0.0 0.0 0.0

-2.314938201603008e6 8.654450300479496e6 0.0
8.654450300479496e6 -1.3575496448876867e6 0.0
0.0 0.0 0.0

-472797.4590415549 7.1853460699424315e6 0.0
7.1853460699424315e6 -2.457185368647448e6 0.0
0.0 0.0 0.0

-941554.1412754063 8.854338487761304e6 0.0
8.854338487761304e6 -3.820825400319282e6 0.0
0.0 0.0 0.0

569673.6368393246 1.130338566237431e7 0.0
1.130338566237431e7 -1.260270040996095e7 0.0
0.0 0.0 0.0

-4.855240505075709e6 1.1787813764436927e7 0.0
1.1787813764436927e7 3.4283540516500473e6 0.0
0.0 0.0 0.0

-453464.6415135197 1.2513196018166529e7 0.0
1.2513196018166529e7 -6.888122450272096e6 0.0
0.0 0.0 0.0

-8.8481633874696e6 1.2131005504511336e7 0.0
1.2131005504511336e7 2.7941199999888636e7 0.0
0.0 0.0 0.0

-1.7052662105600245e6 1.2255215319413885e7 0.0
1.2255215319413885e7 5.818522696421966e6 0.0
0.0 0.0 0.0

-6.176621979367142e6 6.542645408083287e6 0.0
6.542645408083287e6 5.174173963101925e6 0.0
0.0 0.0 0.0

2.371690765908681e6 9.166270598168027e6 0.0
9.166270598168027e6 -1.0695904067362437e7 0.0
0.0 0.0 0.0

-1.493079295244239e6 9.912001769243881e6 0.0
9.912001769243881e6 -2.2413981070164945e6 0.0
0.0 0.0 0.0

-1.9449679927016804e6 1.3960473915313337e7 0.0
1.3960473915313337e7 -5.393917393520055e6 0.0
0.0 0.0 0.0

-5.766077648834726e6 1.459627080858229e7 0.0
1.459627080858229e7 4.615432541593336e6 0.0
0.0 0.0 0.0

-3.9949010673080315e6 1.3772393645249646e7 0.0
1.3772393645249646e7 -364206.11161101656 0.0
0.0 0.0 0.0

645689.0780815673 1.2305600736640118e7 0.0
1.2305600736640118e7 -9.098286790552571e6 0.0
0.0 0.0 0.0

-1.1172300023107412e6 9.430813908482052e6 0.0
9.430813908482052e6 -2.654136664065595e6 0.0
0.0 0.0 0.0

-5.600286757258217e6 1.1942057989579579e7 0.0
1.1942057989579579e7 3.2223956734575895e6 0.0
0.0 0.0 0.0

-4.711694817291403e6 4.1516817199609783e6 0.0
4.1516817199609783e6 3.004865335464625e6 0.0
0.0 0.0 0.0

2.222078831225224e6 5.425297021433565e6 0.0
5.425297021433565e6 -8.156158093214902e6 0.0
0.0 0.0 0.0

-1.4269637106390432e6 1.0430365377147116e7 0.0
1.0430365377147116e7 -2.6663975274125477e6 0.0
0.0 0.0 0.0

2.3835063024200653e6 7.443633628034395e6 0.0
7.443633628034395e6 -8.350624124640871e6 0.0
0.0 0.0 0.0

-3.689017563378675e6 1.1729206932725215e7 0.0
1.1729206932725215e7 1.3118665568057701e6 0.0
0.0 0.0 0.0

8350.817505990155 6.991284387892237e6 0.0
6.991284387892237e6 -3.0451587633090448e6 0.0
0.0 0.0 0.0

-5.20817679153473e6 1.5816398460900586e7 0.0
1.5816398460900586e7 1.4543311073451354e6 0.0
0.0 0.0 0.0

-3.2250971207894586e7 -1.4605534265085831e6 0.0
-1.4605534265085831e6 1.1356571834948804e7 0.0
0.0 0.0 0.0

382055.108034682 6.750594161230711e6 0.0
6.750594161230711e6 -3.5161541509033297e6 0.0
0.0 0.0 0.0

684078.0288265441 1.1167770168592473e7 0.0
1.1167770168592473e7 -1.3936236891212333e7 0.0
0.0 0.0 0.0

170401.77192567708 1.322532442190933e7 0.0
1.322532442190933e7 -6.800499018581111e6 0.0
0.0 0.0 0.0

436313.5168111918 9.218763728749786e6 0.0
9.218763728749786e6 -5.495904197174163e6 0.0
0.0 0.0 0.0

582438.1617798195 1.1780014351219762e7 0.0
1.1780014351219762e7 -8.855466014655882e6 0.0
0.0 0.0 0.0

721294.0378257304 6.538208414692932e6 0.0
6.538208414692932e6 -3.9404957489555385e6 0.0
0.0 0.0 0.0

2.946514896073389e6 6.9129811604533745e6 0.0
6.9129811604533745e6 -9.39453900748869e6 0.0
0.0 0.0 0.0

-4.957866211375341e6 1.4454817460053189e7 0.0
1.4454817460053189e7 1.6049274535285605e6 0.0
0.0 0.0 0.0

489060.02276451676 5.42994794598927e6 0.0
5.42994794598927e6 -4.582612832570289e6 0.0
0.0 0.0 0.0

723722.1473649503 7.672951157991478e6 0.0
7.672951157991478e6 -6.620327467979542e6 0.0
0.0 0.0 0.0

-5.615944837612896e6 1.6432732578130487e7 0.0
1.6432732578130487e7 2.3392144108179808e6 0.0
0.0 0.0 0.0

2.1788910854543187e6 1.128708714204363e7 0.0
1.128708714204363e7 -2.8595636094338433e6 0.0
0.0 0.0 0.0

-2.47911694870393e6 1.4555228069130383e7 0.0
1.4555228069130383e7 -3.3452211591745936e6 0.0
0.0 0.0 0.0

5.275134313413002e6 7.862555736695451e6 0.0
7.862555736695451e6 -2.0345339245890453e7 0.0
0.0 0.0 0.0

-1.0736814405243654e7 8.618112623107588e6 0.0
8.618112623107588e6 1.3852856104305664e7 0.0
0.0 0.0 0.0

-4.592095665150435e6 1.4050060193083784e7 0.0
1.4050060193083784e7 2.3389320648803953e6 0.0
0.0 0.0 0.0

2.139289305862056e6 7.116134075006559e6 0.0
7.116134075006559e6 -7.475535750959588e6 0.0
0.0 0.0 0.0

895677.2497444982 6.259692654345117e6 0.0
6.259692654345117e6 -4.301148379614833e6 0.0
0.0 0.0 0.0

537319.2303878716 7.117815184788822e6 0.0
7.117815184788822e6 -5.630355344815082e6 0.0
0.0 0.0 0.0

-6.467839070033589e6 1.6395632063712444e7 0.0
1.6395632063712444e7 6.033434837741027e6 0.0
0.0 0.0 0.0

-2.7415793173624976e6 2.5192191124802683e6 0.0
2.5192191124802683e6 2.820224006501644e6 0.0
0.0 0.0 0.0

-1.0548178256764274e7 6.97617233799512e6 0.0
6.97617233799512e6 1.2509723046035055e7 0.0
0.0 0.0 0.0

-3.7667755146088097e6 1.3902896176734382e7 0.0
1.3902896176734382e7 345360.1824787054 0.0
0.0 0.0 0.0

503196.53309344547 1.0139084141089816e7 0.0
1.0139084141089816e7 -6.674459719908921e6 0.0
0.0 0.0 0.0

-4.817865112809922e6 1.2752927891542904e7 0.0
1.2752927891542904e7 7.234286013175442e6 0.0
0.0 0.0 0.0

-2.098600648244417e6 1.0029741599885374e7 0.0
1.0029741599885374e7 -2.3965195983095625e6 0.0
0.0 0.0 0.0

-164520.46778695658 1.0428119254968507e7 0.0
1.0428119254968507e7 -5.210872762039458e6 0.0
0.0 0.0 0.0

1.4527643988242839e6 1.084092624117336e7 0.0
1.084092624117336e7 -1.3100942751743678e7 0.0
0.0 0.0 0.0

-2.872706687280006e6 1.5222460384290017e7 0.0
1.5222460384290017e7 -2.4959424256831817e6 0.0
0.0 0.0 0.0

2.1709533571798317e6 1.0351143654955892e7 0.0
1.0351143654955892e7 -1.6284897259062892e7 0.0
0.0 0.0 0.0

-3.791922235995438e6 4.101522245443416e6 0.0
4.101522245443416e6 1.9845887243153136e6 0.0
0.0 0.0 0.0

-66578.0941005554 1.5770942448697053e7 0.0
1.5770942448697053e7 1.4098913006545028e7 0.0
0.0 0.0 0.0

-6.577046082227301e6 1.5913440418922096e7 0.0
1.5913440418922096e7 5.875174854683872e6 0.0
0.0 0.0 0.0

-2.0777547499465086e6 1.0295836411610886e7 0.0
1.0295836411610886e7 -2.609946008583311e6 0.0
0.0 0.0 0.0

103646.5349124847 1.3862095959455686e7 0.0
1.3862095959455686e7 -5.54296399809509e6 0.0
0.0 0.0 0.0

-3.396310466450117e6 1.3716320955511922e7 0.0
1.3716320955511922e7 -311924.20509423956 0.0
0.0 0.0 0.0

-1.5261690845835558e6 6.742832151718579e6 0.0
6.742832151718579e6 -1.5522295872970312e6 0.0
0.0 0.0 0.0

475381.0682607619 1.2541117502553588e7 0.0
1.2541117502553588e7 -8.54962415840107e6 0.0
0.0 0.0 0.0

1.4878142771197166e6 1.0001981165006079e7 0.0
1.0001981165006079e7 -9.109699969812023e6 0.0
0.0 0.0 0.0

1.1507608378226915e6 1.0250642822885776e7 0.0
1.0250642822885776e7 -8.524598074958187e6 0.0
0.0 0.0 0.0

-886835.4977645404 9.88721528838293e6 0.0
9.88721528838293e6 -4.602390936362689e6 0.0
0.0 0.0 0.0

2.642667839347422e6 1.581566236721795e7 0.0
1.581566236721795e7 -6.699954052792972e6 0.0
0.0 0.0 0.0

1.0882064415059914e6 8.090324609938748e6 0.0
8.090324609938748e6 -5.967347896804342e6 0.0
0.0 0.0 0.0

2.236942908730435e6 5.149113201883063e6 0.0
5.149113201883063e6 -8.027209013316902e6 0.0
0.0 0.0 0.0

1.7820341802138742e6 9.702774466381304e6 0.0
9.702774466381304e6 -9.619106964977425e6 0.0
0.0 0.0 0.0

4.658351713179097e6 6.859671698082823e6 0.0
6.859671698082823e6 -1.678245141610042e7 0.0
0.0 0.0 0.0

-1.7035239915916948e6 6.706111224803158e6 0.0
6.706111224803158e6 -934075.3587936258 0.0
0.0 0.0 0.0

-5.108384546487604e6 1.2662134036005141e7 0.0
1.2662134036005141e7 2.229932010209271e6 0.0
0.0 0.0 0.0

3.8180582391320933e6 6.006429223960101e6 0.0
6.006429223960101e6 -1.1112053274372973e7 0.0
0.0 0.0 0.0

1.62437518443865e6 5.762217500871714e6 0.0
5.762217500871714e6 -7.0578855178321265e6 0.0
0.0 0.0 0.0

-656738.7812307897 9.973220865429504e6 0.0
9.973220865429504e6 -3.843402590147086e6 0.0
0.0 0.0 0.0

-1.1515662211990312e7 7.214436337069485e6 0.0
7.214436337069485e6 1.8335809313580148e7 0.0
0.0 0.0 0.0

-6.926151918291528e6 1.336164508493425e7 0.0
1.336164508493425e7 7.768235191472056e6 0.0
0.0 0.0 0.0

-1.6613590111791347e6 7.024790158448693e6 0.0
7.024790158448693e6 -1.6387865163040143e6 0.0
0.0 0.0 0.0

-7.90862826477332e6 1.1690327107664304e7 0.0
1.1690327107664304e7 9.439908314517634e6 0.0
0.0 0.0 0.0

2.9813056136936033e6 6.234759100152121e6 0.0
6.234759100152121e6 -8.763211597880416e6 0.0
0.0 0.0 0.0

2.0209027899147514e6 9.44234252259969e6 0.0
9.44234252259969e6 -1.0248123657858606e7 0.0
0.0 0.0 0.0

-1.524630918548503e7 3.0059843369925592e7 0.0
3.0059843369925592e7 8.157874541550271e6 0.0
0.0 0.0 0.0

-2.878452322448498e6 8.331742409350352e6 0.0
8.331742409350352e6 -172395.338828463 0.0
0.0 0.0 0.0

-2.737442984825204e6 4.1891207831487693e6 0.0
4.1891207831487693e6 1.053227384658889e6 0.0
0.0 0.0 0.0

-788992.4197650112 1.217824699026382e7 0.0
1.217824699026382e7 -7.413061270644248e6 0.0
0.0 0.0 0.0

854689.8374960683 1.0511024702106053e7 0.0
1.0511024702106053e7 -8.029610207621526e6 0.0
0.0 0.0 0.0

556478.4554870382 420247.7134100884 0.0
420247.7134100884 902359.9623794861 0.0
0.0 0.0 0.0

444120.3868622434 -763035.5938164849 0.0
-763035.5938164849 3.2872521288000597e6 0.0
0.0 0.0 0.0

-6.726681787905905e6 1.6462671118126823e7 0.0
1.6462671118126823e7 5.937349516903821e6 0.0
0.0 0.0 0.0

-4.949226090569296e6 1.079507681008034e7 0.0
1.079507681008034e7 2.3013736993598775e6 0.0
0.0 0.0 0.0

-6.430872568891829e6 1.6226519280411465e7 0.0
1.6226519280411465e7 4.978877440133478e6 0.0
0.0 0.0 0.0

2.6012012765415916e6 7.455688732060327e6 0.0
7.455688732060327e6 -9.065937170001028e6 0.0
0.0 0.0 0.0

-5.41848803175082e6 1.2191920484107943e7 0.0
1.2191920484107943e7 2.870740013144118e6 0.0
0.0 0.0 0.0

-9.746144142948626e6 565172.3467257469 0.0
565172.3467257469 1.2766072775183043e7 0.0
0.0 0.0 0.0

-3.8201948670269325e7 -211353.524941854 0.0
-211353.524941854 1.1752840443963427e7 0.0
0.0 0.0 0.0

-5.432509641708614e6 1.3192816428493198e7 0.0
1.3192816428493198e7 2.685872377447188e6 0.0
0.0 0.0 0.0

-7.495324003412405e6 1.2189878463588454e7 0.0
1.2189878463588454e7 8.986940961631581e6 0.0
0.0 0.0 0.0

-4.11961440787391e6 1.4953359284633936e7 0.0
1.4953359284633936e7 -1.4635154755912854e6 0.0
0.0 0.0 0.0

1.6353468680062662e6 5.586365661753346e6 0.0
5.586365661753346e6 -6.714747057769261e6 0.0
0.0 0.0 0.0

-3.6748478348001144e6 9.116163502141932e6 0.0
9.116163502141932e6 919511.64774307 0.0
0.0 0.0 0.0

-4.338740980777293e6 1.5105141722506559e7 0.0
1.5105141722506559e7 -801905.1393347748 0.0
0.0 0.0 0.0

-2.1670905123082204e6 1.468031599669331e7 0.0
1.468031599669331e7 -1.5533158112182831e6 0.0
0.0 0.0 0.0

2.421648750938236e6 6.294844509989221e6 0.0
6.294844509989221e6 -7.546623220304297e6 0.0
0.0 0.0 0.0

-7.347650112041968e6 1.2626745056678168e7 0.0
1.2626745056678168e7 8.573411510436717e6 0.0
0.0 0.0 0.0

-1.154808670944254e6 1.1317994397397561e7 0.0
1.1317994397397561e7 -3.698455849431253e6 0.0
0.0 0.0 0.0

5.122669803900874e6 6.136846591198638e6 0.0
6.136846591198638e6 -1.7701016986669898e7 0.0
0.0 0.0 0.0

-1.109941178770326e7 -4.447176017632064e6 0.0
-4.447176017632064e6 1.970224301985468e7 0.0
0.0 0.0 0.0

1.824651306435144e6 7.427617533167251e6 0.0
7.427617533167251e6 -6.967517143564587e6 0.0
0.0 0.0 0.0

4.17131570607954e6 6.903848176533558e6 0.0
6.903848176533558e6 -1.268308512702786e7 0.0
0.0 0.0 0.0

1.192513093947297e6 1.1270642085532911e7 0.0
1.1270642085532911e7 -6.58411993075499e6 0.0
0.0 0.0 0.0

3.173819923095233e6 9.229390910924427e6 0.0
9.229390910924427e6 -1.6166310663671931e7 0.0
0.0 0.0 0.0

-6.060922090579546e6 1.781198724470798e7 0.0
1.781198724470798e7 2.2421592897283654e6 0.0
0.0 0.0 0.0

-9.461551528635796e6 1.1219062777150944e7 0.0
1.1219062777150944e7 1.5965194999511365e7 0.0
0.0 0.0 0.0

-1.109792165691211e7 -4.409254784415344e6 0.0
-4.409254784415344e6 1.7721877457419794e7 0.0
0.0 0.0 0.0

-1.476296384087838e6 1.1748815250916246e7 0.0
1.1748815250916246e7 -3.378030703900126e6 0.0
0.0 0.0 0.0

4.152726648440023e6 7.36449171076284e6 0.0
7.36449171076284e6 -1.4992965826711792e7 0.0
0.0 0.0 0.0

-2.9046966177858654e6 1.1275063229574582e7 0.0
1.1275063229574582e7 -134183.7483212566 0.0
0.0 0.0 0.0

-4.830284712649625e6 1.2172644725155672e7 0.0
1.2172644725155672e7 1.8039020535955941e6 0.0
0.0 0.0 0.0

-5.430294719608691e6 3.446130124774101e6 0.0
3.446130124774101e6 6.851200910816569e6 0.0
0.0 0.0 0.0

-2.7555442032645373e6 1.5518883293045765e7 0.0
1.5518883293045765e7 -2.581980624982675e6 0.0
0.0 0.0 0.0

1.510769895723162e6 1.1177371387668459e7 0.0
1.1177371387668459e7 -5.125213039440531e6 0.0
0.0 0.0 0.0

-4.0238552328181807e6 1.4162417526811324e7 0.0
1.4162417526811324e7 999319.5070361916 0.0
0.0 0.0 0.0

5.479138050975128e6 5.295633632686346e6 0.0
5.295633632686346e6 -1.6674364296861077e7 0.0
0.0 0.0 0.0

-5.277939209989568e6 1.246794579025619e7 0.0
1.246794579025619e7 2.5043386011558906e6 0.0
0.0 0.0 0.0

465206.0122751456 9.442422683256248e6 0.0
9.442422683256248e6 -5.773735982271046e6 0.0
0.0 0.0 0.0

-1.626212431943254e6 7.571596902515416e6 0.0
7.571596902515416e6 -2.0818686384600883e6 0.0
0.0 0.0 0.0

-760470.2487408929 9.231384242352182e6 0.0
9.231384242352182e6 -3.2554860396336196e6 0.0
0.0 0.0 0.0

-1.158245990250721e6 6.092159796935442e6 0.0
6.092159796935442e6 -1.333830288263217e6 0.0
0.0 0.0 0.0

1.5658270404708926e6 1.1016229718672229e7 0.0
1.1016229718672229e7 -5.330505221007142e6 0.0
0.0 0.0 0.0

-1.1387900481608232e7 2.190223863046227e6 0.0
2.190223863046227e6 1.6399811615425456e7 0.0
0.0 0.0 0.0

-186535.67104131868 1.0220544139791805e7 0.0
1.0220544139791805e7 -4.932025840267141e6 0.0
0.0 0.0 0.0

-654275.3917393689 5.743081363189383e6 0.0
5.743081363189383e6 -2.568424078701004e6 0.0
0.0 0.0 0.0

-6.916650387367241e6 1.673934479174876e7 0.0
1.673934479174876e7 6.209198581003083e6 0.0
0.0 0.0 0.0

-3.022686420314632e6 1.3803218165554598e7 0.0
1.3803218165554598e7 -1.4928887983931159e6 0.0
0.0 0.0 0.0

1.188090943468512e6 1.1101028774610003e7 0.0
1.1101028774610003e7 -9.87260088939346e6 0.0
0.0 0.0 0.0

1.464216683434254e6 7.747691933927011e6 0.0
7.747691933927011e6 -6.479225420037974e6 0.0
0.0 0.0 0.0

-4.961992021251005e6 1.3531140014372878e7 0.0
1.3531140014372878e7 3.1934425422078045e6 0.0
0.0 0.0 0.0

-7.809062105981672e6 1.1559085645337038e7 0.0
1.1559085645337038e7 9.680302277111368e6 0.0
0.0 0.0 0.0

-5.723520949639261e6 1.2593379938524313e7 0.0
1.2593379938524313e7 1.023460063993158e7 0.0
0.0 0.0 0.0

4.1174346508694217e6 7.506938610997357e6 0.0
7.506938610997357e6 -1.5843752685222961e7 0.0
0.0 0.0 0.0

-5.130614383583644e6 1.2322822712976778e7 0.0
1.2322822712976778e7 3.808796397583159e6 0.0
0.0 0.0 0.0

-4.845909926250206e6 1.2837791318066547e7 0.0
1.2837791318066547e7 3.059196760926573e6 0.0
0.0 0.0 0.0

-4.885608115506318e6 5.694532428054367e6 0.0
5.694532428054367e6 3.0469236661623525e6 0.0
0.0 0.0 0.0

-6.119466606796401e6 1.8235870511519965e7 0.0
1.8235870511519965e7 2.2378744942660113e6 0.0
0.0 0.0 0.0

16889.003145837458 9.261551879984878e6 0.0
9.261551879984878e6 -4.695831808194364e6 0.0
0.0 0.0 0.0

-8.1708688651988115e6 8.993443678385405e6 0.0
8.993443678385405e6 8.512657579633404e6 0.0
0.0 0.0 0.0

1.418985623459753e6 7.43377057623016e6 0.0
7.43377057623016e6 -6.255161667446931e6 0.0
0.0 0.0 0.0

-1.0424800330460279e6 6.870372986546863e6 0.0
6.870372986546863e6 -1.4196368169535887e6 0.0
0.0 0.0 0.0

-4.82549268157801e6 1.3697081907414425e7 0.0
1.3697081907414425e7 2.8730045948242643e6 0.0
0.0 0.0 0.0

-5.083442899864547e6 1.4138919567645932e7 0.0
1.4138919567645932e7 3.2141361114104856e6 0.0
0.0 0.0 0.0

-216506.81829124875 1.0000342929170229e7 0.0
1.0000342929170229e7 -4.656190407686941e6 0.0
0.0 0.0 0.0

1.6207877044494024e6 1.206248106725399e7 0.0
1.206248106725399e7 -5.712716721666481e6 0.0
0.0 0.0 0.0

901156.8078096402 1.661762449096844e7 0.0
1.661762449096844e7 -5.612725887230877e6 0.0
0.0 0.0 0.0

-3.89745371462489e6 1.4077480721357571e7 0.0
1.4077480721357571e7 3.5945618796927314e6 0.0
0.0 0.0 0.0

-1.9535841281634173e6 1.1872848019506685e7 0.0
1.1872848019506685e7 -1.3061525746965462e7 0.0
0.0 0.0 0.0

635317.9181796086 8.160914389746857e6 0.0
8.160914389746857e6 -5.222833281304243e6 0.0
0.0 0.0 0.0

-8.933212269939795e6 1.3812935376458978e6 0.0
1.3812935376458978e6 1.1650153453751255e7 0.0
0.0 0.0 0.0

-880016.4752671022 1.358989865546683e7 0.0
1.358989865546683e7 -971989.6223776422 0.0
0.0 0.0 0.0

-2.342795167411357e6 1.3641685178077068e7 0.0
1.3641685178077068e7 -285994.10132055014 0.0
0.0 0.0 0.0

-5.001700133420253e6 1.2551808560212843e7 0.0
1.2551808560212843e7 3.412066916106007e6 0.0
0.0 0.0 0.0

-8.791850334910773e6 -790992.0561374045 0.0
-790992.0561374045 1.246341082988522e7 0.0
0.0 0.0 0.0

-7.205754901448625e6 1.6988544960139047e7 0.0
1.6988544960139047e7 6.506710873117443e6 0.0
0.0 0.0 0.0

-5.230081497209672e6 1.3391348768214779e7 0.0
1.3391348768214779e7 2.32506160453936e6 0.0
0.0 0.0 0.0

1.7926315140400445e6 1.0373594588292979e7 0.0
1.0373594588292979e7 -2.3025796341738855e6 0.0
0.0 0.0 0.0

383589.6024351812 1.1387912868553506e7 0.0
1.1387912868553506e7 1.278632152312112e6 0.0
0.0 0.0 0.0

-5.283851635990197e6 1.2024323660580143e7 0.0
1.2024323660580143e7 4.258099909381827e6 0.0
0.0 0.0 0.0

-6.865720734391592e6 1.0343127217758961e7 0.0
1.0343127217758961e7 5.872005348220121e6 0.0
0.0 0.0 0.0

2.366872674229978e6 5.9536505573333455e6 0.0
5.9536505573333455e6 -7.410585416107905e6 0.0
0.0 0.0 0.0

-3.9968285211958312e6 1.4338112754541004e7 0.0
1.4338112754541004e7 701271.4234436846 0.0
0.0 0.0 0.0

-6.80202766693447e6 7.676710215529146e6 0.0
7.676710215529146e6 8.518102750246316e6 0.0
0.0 0.0 0.0

3.442897311613827e6 5.849477378068777e6 0.0
5.849477378068777e6 -1.033623594223192e7 0.0
0.0 0.0 0.0

-3.707498443816008e6 1.3392454749769248e7 0.0
1.3392454749769248e7 -810909.4995735465 0.0
0.0 0.0 0.0

-4.552074177313052e6 1.230971761067195e7 0.0
1.230971761067195e7 2.7204981873208927e6 0.0
0.0 0.0 0.0

-284125.84054902976 5.349069019876331e6 0.0
5.349069019876331e6 -3.1252797698555854e6 0.0
0.0 0.0 0.0

1.2814810227768347e6 8.216201077050235e6 0.0
8.216201077050235e6 -7.821721362033088e6 0.0
0.0 0.0 0.0

-1.17757035691707e7 2.694214977755776e7 0.0
2.694214977755776e7 6.845912646882082e6 0.0
0.0 0.0 0.0

5.614701427098772e6 7.83420420986563e6 0.0
7.83420420986563e6 -2.3501156692351356e7 0.0
0.0 0.0 0.0

3.6842281729744608e6 6.270187327088263e6 0.0
6.270187327088263e6 -1.1560737976210484e7 0.0
0.0 0.0 0.0

1.6828607646427923e6 9.080918888897516e6 0.0
9.080918888897516e6 -8.404373616283804e6 0.0
0.0 0.0 0.0

-2.9277013359696832e6 1.3857882810380885e7 0.0
1.3857882810380885e7 2.1806717953539495e6 0.0
0.0 0.0 0.0

1.5356553555792002e6 1.053549211685563e7 0.0
1.053549211685563e7 -1.187799450551327e7 0.0
0.0 0.0 0.0

627669.0698617462 7.875783906665544e6 0.0
7.875783906665544e6 -5.103766235169589e6 0.0
0.0 0.0 0.0

-1.189619974172973e6 7.370032544666346e6 0.0
7.370032544666346e6 -2.7269641853801426e6 0.0
0.0 0.0 0.0

-528669.7703388231 1.2835282296122812e7 0.0
1.2835282296122812e7 4.1157161997217946e6 0.0
0.0 0.0 0.0

-9.412005835154124e6 1.1344216807546746e7 0.0
1.1344216807546746e7 1.4804233533918781e7 0.0
0.0 0.0 0.0

1.0439933763722824e6 1.0501825666548394e7 0.0
1.0501825666548394e7 6.75397468560972e6 0.0
0.0 0.0 0.0

-8.444092646523645e6 1.8331032897636972e7 0.0
1.8331032897636972e7 6.9621589272208065e6 0.0
0.0 0.0 0.0

-1.2758829674323052e6 1.0099224742854193e7 0.0
1.0099224742854193e7 -4.022695827008514e6 0.0
0.0 0.0 0.0

-1.3807107358965538e7 1.1993340829228027e7 0.0
1.1993340829228027e7 4.286502255475341e6 0.0
0.0 0.0 0.0

-833837.8121251 1.0904044792711288e7 0.0
1.0904044792711288e7 -4.0326349682409195e6 0.0
0.0 0.0 0.0

-4.518015673093034e6 1.254037826614886e7 0.0
1.254037826614886e7 2.35507771680847e6 0.0
0.0 0.0 0.0

-411294.4718763875 9.25855365017055e6 0.0
9.25855365017055e6 -3.9632694202231774e6 0.0
0.0 0.0 0.0

1.1062957013320145e6 1.112162986575586e7 0.0
1.112162986575586e7 -1.2348650156277929e7 0.0
0.0 0.0 0.0

3.0780357431217455e6 5.958592555836481e6 0.0
5.958592555836481e6 -9.908013480995998e6 0.0
0.0 0.0 0.0

3.742657001655738e6 8.674182744464274e6 0.0
8.674182744464274e6 -1.478773025698388e7 0.0
0.0 0.0 0.0

-3.237831124338241e6 1.2915533743680224e7 0.0
1.2915533743680224e7 5.568822352996463e6 0.0
0.0 0.0 0.0

3.4598184213003805e6 6.906372149739543e6 0.0
6.906372149739543e6 -1.0828063026350912e7 0.0
0.0 0.0 0.0

-3.6335731922401576e6 1.3548257077426832e7 0.0
1.3548257077426832e7 -1.0437595715438104e6 0.0
0.0 0.0 0.0

-1.876699281042798e6 1.2364566254406497e7 0.0
1.2364566254406497e7 -4.695188802565326e6 0.0
0.0 0.0 0.0

-1.3250701833315587e6 9.048541316622952e6 0.0
9.048541316622952e6 -3.2338874359491197e6 0.0
0.0 0.0 0.0

-3.127322330978e6 9.445189308188902e6 0.0
9.445189308188902e6 -290276.128840139 0.0
0.0 0.0 0.0

-8.320985173707493e6 9.47361817582846e6 0.0
9.47361817582846e6 9.150821511035409e6 0.0
0.0 0.0 0.0

2.1347881419143407e6 7.705433144065632e6 0.0
7.705433144065632e6 -7.899260930982893e6 0.0
0.0 0.0 0.0

-1.0281510595908707e7 1.9483758417131472e7 0.0
1.9483758417131472e7 7.74583578335712e6 0.0
0.0 0.0 0.0

-7.625406188746002e6 1.7119674832467917e7 0.0
1.7119674832467917e7 6.918740285005599e6 0.0
0.0 0.0 0.0

-8.695774662102617e6 1.0450515849316109e7 0.0
1.0450515849316109e7 1.0053675296956275e7 0.0
0.0 0.0 0.0

-1.4148803668188893e6 8.2314076665724795e6 0.0
8.2314076665724795e6 -4.7162678686555e6 0.0
0.0 0.0 0.0

536730.8725284897 1.0753867763511851e7 0.0
1.0753867763511851e7 -7.435031523111483e6 0.0
0.0 0.0 0.0

3.207439214530451e6 6.738778121304425e6 0.0
6.738778121304425e6 -1.0022248500625758e7 0.0
0.0 0.0 0.0

-5.578009460783561e6 1.4634440288431529e7 0.0
1.4634440288431529e7 6.20320124188227e6 0.0
0.0 0.0 0.0

-7.43390792755825e6 4.446026357258754e6 0.0
4.446026357258754e6 7.420726547689874e6 0.0
0.0 0.0 0.0

-3.3193234481827593e6 1.6628101023006167e7 0.0
1.6628101023006167e7 -1.2146815408048113e6 0.0
0.0 0.0 0.0

-1.221693158839099e7 -3.107041860819621e6 0.0
-3.107041860819621e6 2.7851033144667443e7 0.0
0.0 0.0 0.0

-2.423908956906161e6 1.2106658541009359e7 0.0
1.2106658541009359e7 -2.8809381056670714e6 0.0
0.0 0.0 0.0

-4.568636815171618e6 -2.3232809549900307e6 0.0
-2.3232809549900307e6 7.39565646451647e6 0.0
0.0 0.0 0.0

-1.2443485867585647e6 5.598891131935558e6 0.0
5.598891131935558e6 -251743.22559721873 0.0
0.0 0.0 0.0

2.4507867574728243e6 5.499429810407372e6 0.0
5.499429810407372e6 -7.437283110119504e6 0.0
0.0 0.0 0.0

-1.2198142491206996e7 6.892866524314037e6 0.0
6.892866524314037e6 1.612486470180402e7 0.0
0.0 0.0 0.0

3.271435767841112e6 8.695131020885851e6 0.0
8.695131020885851e6 -1.2696253516570617e7 0.0
0.0 0.0 0.0

-3.459863965419929e6 1.3525757683705116e7 0.0
1.3525757683705116e7 -16712.25877407589 0.0
0.0 0.0 0.0

-5.167981299684271e6 1.333445695700298e7 0.0
1.333445695700298e7 3.5337810801541563e6 0.0
0.0 0.0 0.0

-1.840834781436095e6 1.039294871420798e7 0.0
1.039294871420798e7 -1.8405499051004287e6 0.0
0.0 0.0 0.0

-5.877403315744412e6 1.372489551112694e7 0.0
1.372489551112694e7 4.965785816906866e6 0.0
0.0 0.0 0.0

930029.6994921984 5.485201250178166e6 0.0
5.485201250178166e6 -5.393213736064172e6 0.0
0.0 0.0 0.0

-3.0012947741757366e6 1.1674811035935905e7 0.0
1.1674811035935905e7 -1.4389114439526128e6 0.0
0.0 0.0 0.0

-495505.0603288737 1.7051199212772112e7 0.0
1.7051199212772112e7 -4.279042271567792e6 0.0
0.0 0.0 0.0

635425.924207625 7.51598702328429e6 0.0
7.51598702328429e6 -5.061615401342257e6 0.0
0.0 0.0 0.0

-588277.7639797434 1.0218943947224477e7 0.0
1.0218943947224477e7 -4.0889959894485483e6 0.0
0.0 0.0 0.0

-1.6228263783681989e6 1.4241761312922599e7 0.0
1.4241761312922599e7 -1.4512580889720211e6 0.0
0.0 0.0 0.0

-1.856772786411642e6 1.010492973874202e7 0.0
1.010492973874202e7 -1.6083594346632115e6 0.0
0.0 0.0 0.0

3.343562714754842e6 1.3659515415279767e7 0.0
1.3659515415279767e7 -6.010391209886603e6 0.0
0.0 0.0 0.0

90406.75104808551 4.9297263123208545e6 0.0
4.9297263123208545e6 -3.6428092243434116e6 0.0
0.0 0.0 0.0

4.304745311765698e6 6.086169573218613e6 0.0
6.086169573218613e6 -1.329541638957162e7 0.0
0.0 0.0 0.0

246640.28862058336 5.122302995009056e6 0.0
5.122302995009056e6 -1.917932286109112e6 0.0
0.0 0.0 0.0

-733455.1436711611 7.191757171654309e6 0.0
7.191757171654309e6 -3.330199299370146e6 0.0
0.0 0.0 0.0

-2.02558247317575e6 1.0550754659019165e7 0.0
1.0550754659019165e7 -2.830259435285265e6 0.0
0.0 0.0 0.0

-1.3657295845053282e6 6.10287797222919e6 0.0
6.10287797222919e6 -177774.8026343587 0.0
0.0 0.0 0.0

1.8997298184275744e6 5.934752218760344e6 0.0
5.934752218760344e6 -6.205738473089373e6 0.0
0.0 0.0 0.0

290584.35827955836 1.282040507867754e7 0.0
1.282040507867754e7 -7.946853698212571e6 0.0
0.0 0.0 0.0

-265534.000218929 7.030537127489538e6 0.0
7.030537127489538e6 -3.966806014494514e6 0.0
0.0 0.0 0.0

-1.1154829855507625e7 2.5049101606110487e7 0.0
2.5049101606110487e7 6.482139739005951e6 0.0
0.0 0.0 0.0

1.445144016450164e6 1.209971580281932e7 0.0
1.209971580281932e7 4.506323830549562e6 0.0
0.0 0.0 0.0

128522.03262212314 6.804078618276897e6 0.0
6.804078618276897e6 -4.370485774976781e6 0.0
0.0 0.0 0.0

-3.9863667547242735e6 8.657834138269862e6 0.0
8.657834138269862e6 2.8212665624023667e6 0.0
0.0 0.0 0.0

1.2915670070281636e6 4.810799037826146e6 0.0
4.810799037826146e6 -5.678586894184364e6 0.0
0.0 0.0 0.0

-1.127028411643207e7 2.586101310586457e6 0.0
2.586101310586457e6 1.5284736045607492e7 0.0
0.0 0.0 0.0

473411.7009713531 6.546633774195553e6 0.0
6.546633774195553e6 -4.775785739346671e6 0.0
0.0 0.0 0.0

-1.1534512845230184e7 1.870125752679727e7 0.0
1.870125752679727e7 8.845124827184308e6 0.0
0.0 0.0 0.0

-2.933520791001266e6 1.689805186134638e7 0.0
1.689805186134638e7 -1.6315739681615313e6 0.0
0.0 0.0 0.0

3.5286378966474878e6 6.496005873423074e6 0.0
6.496005873423074e6 -1.0425457189094527e7 0.0
0.0 0.0 0.0

-2.143570036783696e6 1.2580229438837003e7 0.0
1.2580229438837003e7 -3.9719441490438897e6 0.0
0.0 0.0 0.0

3.866426229434453e6 7.13657377504187e6 0.0
7.13657377504187e6 -1.3782335435809426e7 0.0
0.0 0.0 0.0

-2.4035689931350597e6 1.0768017036077285e7 0.0
1.0768017036077285e7 -2.223640819805007e6 0.0
0.0 0.0 0.0

-2.8974976848901142e6 1.1133497453582814e7 0.0
1.1133497453582814e7 5.210735510474088e6 0.0
0.0 0.0 0.0

-1.502022713911715e6 1.718032775084398e7 0.0
1.718032775084398e7 -3.131460170449034e6 0.0
0.0 0.0 0.0

802992.6968514663 7.311642407344163e6 0.0
7.311642407344163e6 -4.823458963897778e6 0.0
0.0 0.0 0.0

1.7255630657013096e6 6.808809738533544e6 0.0
6.808809738533544e6 -6.599055570559274e6 0.0
0.0 0.0 0.0

-187451.8234259101 8.401529344947444e6 0.0
8.401529344947444e6 -3.4689127882199255e6 0.0
0.0 0.0 0.0

-8.2852746868120935e6 1.7183026142659094e7 0.0
1.7183026142659094e7 7.304401422772497e6 0.0
0.0 0.0 0.0

-2.6637470620778687e6 9.208048413678247e6 0.0
9.208048413678247e6 -985418.8098193951 0.0
0.0 0.0 0.0

-4.1594219712535674e6 1.9157516423696823e7 0.0
1.9157516423696823e7 217936.4537445684 0.0
0.0 0.0 0.0

-1.7908464442641574e6 1.0648467767217042e7 0.0
1.0648467767217042e7 -2.0685673792734223e6 0.0
0.0 0.0 0.0

234052.5971343438 1.3195107401470896e7 0.0
1.3195107401470896e7 4.948073869746443e6 0.0
0.0 0.0 0.0

-1.3923832895198334e6 1.3991184184214277e7 0.0
1.3991184184214277e7 -1.1544381484155438e6 0.0
0.0 0.0 0.0

-4.385967098386676e6 1.437432752234187e7 0.0
1.437432752234187e7 1.7198929338456595e6 0.0
0.0 0.0 0.0

651682.7550662328 1.2094473893331697e7 0.0
1.2094473893331697e7 -8.506958176202739e6 0.0
0.0 0.0 0.0

2.0666095978959994e6 1.0293938600726966e7 0.0
1.0293938600726966e7 -1.5671597018600713e7 0.0
0.0 0.0 0.0

-1.0644010760203533e7 9.924262512807129e6 0.0
9.924262512807129e6 1.4696122291087285e7 0.0
0.0 0.0 0.0

436237.3593606497 8.3281720807125475e6 0.0
8.3281720807125475e6 -6.339293904632019e6 0.0
0.0 0.0 0.0

-1.0972171811640497e7 2.9841623101258893e6 0.0
2.9841623101258893e6 1.4056228789496325e7 0.0
0.0 0.0 0.0

2.627228493165282e6 9.210996629866555e6 0.0
9.210996629866555e6 -1.1583578781480415e7 0.0
0.0 0.0 0.0

-893035.0884113649 8.529482037297139e6 0.0
8.529482037297139e6 -3.6451984893058725e6 0.0
0.0 0.0 0.0

2.4326030221745623e6 4.796665036835384e6 0.0
4.796665036835384e6 -7.672453184557651e6 0.0
0.0 0.0 0.0

-3.62765866514947e6 1.1094847582449825e7 0.0
1.1094847582449825e7 -25802.54339275416 0.0
0.0 0.0 0.0

-5.478477689447183e6 1.3814534381705767e7 0.0
1.3814534381705767e7 2.7028591814690283e6 0.0
0.0 0.0 0.0

-5.43919648996734e6 1.6649448102690227e7 0.0
1.6649448102690227e7 1.3160610756728495e6 0.0
0.0 0.0 0.0

-2.7014092856917717e6 1.1222873846174942e7 0.0
1.1222873846174942e7 -1.827191024833833e6 0.0
0.0 0.0 0.0

1.8433495515571078e6 5.67824311007562e6 0.0
5.67824311007562e6 -5.962134802736079e6 0.0
0.0 0.0 0.0

-2.3220101534262365e6 1.7098693997274622e7 0.0
1.7098693997274622e7 -2.319274781175732e6 0.0
0.0 0.0 0.0

-6.508124283180866e6 5.125882259611709e6 0.0
5.125882259611709e6 8.41271173155974e6 0.0
0.0 0.0 0.0

4.401419496534531e6 7.228783122361178e6 0.0
7.228783122361178e6 -1.6310476063062388e7 0.0
0.0 0.0 0.0

-2.539553256055466e6 1.2179511128406268e7 0.0
1.2179511128406268e7 6.531100302123217e6 0.0
0.0 0.0 0.0

-6.3952825182352355e6 1.5435849618111048e7 0.0
1.5435849618111048e7 5.067082646639244e6 0.0
0.0 0.0 0.0

-1.209158761802963e6 1.1800073806470595e7 0.0
1.1800073806470595e7 -4.286446930264904e6 0.0
0.0 0.0 0.0

-9.387961210449051e6 1.149735018106457e7 0.0
1.149735018106457e7 1.3908881425557267e7 0.0
0.0 0.0 0.0

-924011.5729546001 1.095455699044964e7 0.0
1.095455699044964e7 -3.080038172354543e6 0.0
0.0 0.0 0.0

-293657.9526101167 8.898975963818748e6 0.0
8.898975963818748e6 -5.232512078902184e6 0.0
0.0 0.0 0.0

-1.1307731760365176e6 1.2776748836784048e7 0.0
1.2776748836784048e7 4.0800445028248467e6 0.0
0.0 0.0 0.0

-1.0425582411138684e7 2.367684165320298e7 0.0
2.367684165320298e7 6.446625046679314e6 0.0
0.0 0.0 0.0

-1.326403342099477e6 1.4213971095695276e7 0.0
1.4213971095695276e7 -2.0537669733196995e6 0.0
0.0 0.0 0.0

2.139953854089216e7 1.2168057348594056e7 0.0
1.2168057348594056e7 -644201.3122985894 0.0
0.0 0.0 0.0

-1.3490615707967984e6 9.34333637577599e6 0.0
9.34333637577599e6 -3.4044897465189374e6 0.0
0.0 0.0 0.0

-3.5775208099437663e6 1.1405298541791303e7 0.0
1.1405298541791303e7 -310903.2234093285 0.0
0.0 0.0 0.0

589194.2198613058 9.964927327233424e6 0.0
9.964927327233424e6 -7.451360353396894e6 0.0
0.0 0.0 0.0

-5.57284552088911e6 1.7035919434197094e7 0.0
1.7035919434197094e7 1.388911730963033e6 0.0
0.0 0.0 0.0

4.3616470872110035e6 6.559376712646652e6 0.0
6.559376712646652e6 -1.4509864123555735e7 0.0
0.0 0.0 0.0

510791.3272799426 6.812919336852375e6 0.0
6.812919336852375e6 -5.055166792652236e6 0.0
0.0 0.0 0.0

1.5415405720037678e6 8.49055471287788e6 0.0
8.49055471287788e6 -8.686943560346786e6 0.0
0.0 0.0 0.0

-6.443990263532852e6 1.353494815104173e7 0.0
1.353494815104173e7 7.689196557190721e6 0.0
0.0 0.0 0.0

-3.304615894095043e6 1.2126081101800146e7 0.0
1.2126081101800146e7 -1.0506981560081253e6 0.0
0.0 0.0 0.0

-1.001734955341009e6 9.627349145926557e6 0.0
9.627349145926557e6 1.1214896890356536e6 0.0
0.0 0.0 0.0

-712973.9784561889 8.932322441322798e6 0.0
8.932322441322798e6 -3.078542703853035e6 0.0
0.0 0.0 0.0

-2.399940265616153e6 1.1565157883547021e7 0.0
1.1565157883547021e7 -1.2990290203011143e6 0.0
0.0 0.0 0.0

1.6683711287987048e6 1.132598830289232e7 0.0
1.132598830289232e7 -5.034588342147754e6 0.0
0.0 0.0 0.0

-9.512805605729762e6 2.271982084782111e7 0.0
2.271982084782111e7 6.669101822367305e6 0.0
0.0 0.0 0.0

-2.6897875602429505e6 1.201437589850806e7 0.0
1.201437589850806e7 -909635.0536840324 0.0
0.0 0.0 0.0

-537096.8485854291 6.2306559184852885e6 0.0
6.2306559184852885e6 -1.8331244514023191e6 0.0
0.0 0.0 0.0

1.0224949100189446e7 1.0047234043574892e7 0.0
1.0047234043574892e7 304791.9183962634 0.0
0.0 0.0 0.0

3.988777475448302e6 8.635650921211831e6 0.0
8.635650921211831e6 -1.9196423760639668e7 0.0
0.0 0.0 0.0

-4.963211159597648e6 1.4349116650405586e7 0.0
1.4349116650405586e7 3.025508833267399e6 0.0
0.0 0.0 0.0

-1.293174156828063e6 6.913793528020487e6 0.0
6.913793528020487e6 -837560.0357913869 0.0
0.0 0.0 0.0

-963673.5842786338 9.17100089516134e6 0.0
9.17100089516134e6 -3.926054919773449e6 0.0
0.0 0.0 0.0

4404.943311360665 8.371692321697239e6 0.0
8.371692321697239e6 -5.546471983081918e6 0.0
0.0 0.0 0.0

-8.906176352879453e6 2.1854896506733738e7 0.0
2.1854896506733738e7 6.110652828556117e6 0.0
0.0 0.0 0.0

3.093716696467367e6 8.321973525646818e6 0.0
8.321973525646818e6 -1.3327825123028632e7 0.0
0.0 0.0 0.0

-9.42735426170264e6 1.402153692104423e6 0.0
1.402153692104423e6 9.986247277411597e6 0.0
0.0 0.0 0.0

-3.6582253218610343e6 1.3947870207538687e7 0.0
1.3947870207538687e7 -809995.6881974261 0.0
0.0 0.0 0.0

-1.4894369006163971e6 6.675640876965336e6 0.0
6.675640876965336e6 -202258.82390571182 0.0
0.0 0.0 0.0

-2.1116741355317435e6 1.1680649565894552e7 0.0
1.1680649565894552e7 -3.257182313156096e6 0.0
0.0 0.0 0.0

-3.7513660351168374e6 1.2086648299731733e7 0.0
1.2086648299731733e7 -132992.2764933065 0.0
0.0 0.0 0.0

764830.9510892923 1.094745556404869e7 0.0
1.094745556404869e7 -9.766743947598279e6 0.0
0.0 0.0 0.0

-8.602586890282772e6 2.113896831354754e7 0.0
2.113896831354754e7 6.150766745779188e6 0.0
0.0 0.0 0.0

-6.469550446613255e6 1.3939535791068502e7 0.0
1.3939535791068502e7 7.446912272806987e6 0.0
0.0 0.0 0.0

-2.9688705854666466e6 1.245922760361723e7 0.0
1.245922760361723e7 -536012.8729726488 0.0
0.0 0.0 0.0

4.1131151921544187e6 6.857477163556534e6 0.0
6.857477163556534e6 -1.4174588094274726e7 0.0
0.0 0.0 0.0

-1.422517197159025e6 7.416078605979304e6 0.0
7.416078605979304e6 -1.0548256993654717e6 0.0
0.0 0.0 0.0

-8.067937654901872e6 2.053421187731344e7 0.0
2.053421187731344e7 6.140341069834657e6 0.0
0.0 0.0 0.0

4.804946122503357e6 8.061369217060249e6 0.0
8.061369217060249e6 -1.9440720193953607e7 0.0
0.0 0.0 0.0

-7.421704006324784e6 2.002364045342169e7 0.0
2.002364045342169e7 5.867501193235222e6 0.0
0.0 0.0 0.0

-7.101734760050032e6 1.9514072492855124e7 0.0
1.9514072492855124e7 5.524131618218365e6 0.0
0.0 0.0 0.0

-5.611548044736918e6 1.5602888485863317e7 0.0
1.5602888485863317e7 2.8360591496828273e6 0.0
0.0 0.0 0.0

-5.780728938310897e6 1.5951780266940227e7 0.0
1.5951780266940227e7 3.1855661108434424e6 0.0
0.0 0.0 0.0

-5.951815484661803e6 1.632417617731124e7 0.0
1.632417617731124e7 3.490666602095328e6 0.0
0.0 0.0 0.0

-6.087910955354575e6 1.6669492530858718e7 0.0
1.6669492530858718e7 3.7681942720108526e6 0.0
0.0 0.0 0.0

-6.273077989393119e6 1.6972818422547262e7 0.0
1.6972818422547262e7 4.080790850061395e6 0.0
0.0 0.0 0.0

-6.443428920230949e6 1.7331946816425845e7 0.0
1.7331946816425845e7 4.263172496144587e6 0.0
0.0 0.0 0.0

-3.690083833932068e6 8.759271468849814e6 0.0
8.759271468849814e6 1.0972500482469343e6 0.0
0.0 0.0 0.0

-6.697737962680024e6 1.765876484608409e7 0.0
1.765876484608409e7 4.637511441403011e6 0.0
0.0 0.0 0.0

-7.044166415266199e6 1.804402043671483e7 0.0
1.804402043671483e7 4.830078596736042e6 0.0
0.0 0.0 0.0

-7.75633306838692e6 8.969461033413867e6 0.0
8.969461033413867e6 9.9636891395802e6 0.0
0.0 0.0 0.0

-6.956704160324886e6 1.908516795249721e7 0.0
1.908516795249721e7 5.487691320027232e6 0.0
0.0 0.0 0.0

-7.347971163094447e6 1.8406493667118393e7 0.0
1.8406493667118393e7 4.93808639668623e6 0.0
0.0 0.0 0.0

-7.536169995544573e6 1.8843986017853994e7 0.0
1.8843986017853994e7 5.108425056502275e6 0.0
0.0 0.0 0.0

-6.71536703775646e6 1.866741255159117e7 0.0
1.866741255159117e7 5.34634839174293e6 0.0
0.0 0.0 0.0

-1.4750925912973045e6 1.0178007944472913e7 0.0
1.0178007944472913e7 -2.4515174394595856e6 0.0
0.0 0.0 0.0

-7.86743528189882e6 1.929982366209072e7 0.0
1.929982366209072e7 5.188588465739457e6 0.0
0.0 0.0 0.0

-6.697401364790058e6 1.8256345329536814e7 0.0
1.8256345329536814e7 5.131545363781268e6 0.0
0.0 0.0 0.0

-6.363198651431914e6 1.7913093185723636e7 0.0
1.7913093185723636e7 4.953904624477016e6 0.0
0.0 0.0 0.0

-6.1236929307976505e6 1.7622779231168497e7 0.0
1.7622779231168497e7 4.69314829086593e6 0.0
0.0 0.0 0.0

-5.995476104406418e6 1.720864075682066e7 0.0
1.720864075682066e7 4.448891634991471e6 0.0
0.0 0.0 0.0

-5.79322448474861e6 1.69086975484143e7 0.0
1.69086975484143e7 4.1576319532894897e6 0.0
0.0 0.0 0.0

-5.657924199059097e6 1.6569143906632736e7 0.0
1.6569143906632736e7 3.9038847384721246e6 0.0
0.0 0.0 0.0

-5.475815195989957e6 1.6222820126147047e7 0.0
1.6222820126147047e7 3.62340153667382e6 0.0
0.0 0.0 0.0

-5.267907680917225e6 1.5875955048376383e7 0.0
1.5875955048376383e7 3.281790204863432e6 0.0
0.0 0.0 0.0

-4.0400302056930866e6 1.3610103713950392e7 0.0
1.3610103713950392e7 -108833.42105358513 0.0
0.0 0.0 0.0

-1.0268383223146884e7 1.021439498467555e7 0.0
1.021439498467555e7 1.3903210910592936e7 0.0
0.0 0.0 0.0

-8.396668968404172e6 1.9681129055807464e7 0.0
1.9681129055807464e7 5.331497136849362e6 0.0
0.0 0.0 0.0

2.6381391680358616e6 7.082703980937715e6 0.0
7.082703980937715e6 -1.0352870662754107e7 0.0
0.0 0.0 0.0

-4.56640825890428e6 1.3286795292918634e7 0.0
1.3286795292918634e7 2.5082520506151984e6 0.0
0.0 0.0 0.0

-9.169871394779457e6 2.022406353407021e7 0.0
2.022406353407021e7 5.65488609082528e6 0.0
0.0 0.0 0.0

-6.096443626647351e6 5.869657203385688e6 0.0
5.869657203385688e6 7.592318836888481e6 0.0
0.0 0.0 0.0

-1.0069876940373838e7 2.086577328538323e7 0.0
2.086577328538323e7 5.737911305547109e6 0.0
0.0 0.0 0.0

-7.709514734310609e6 4.312945010720223e6 0.0
4.312945010720223e6 1.0736536784064315e7 0.0
0.0 0.0 0.0

-1.0933314486773241e7 2.154228592382334e7 0.0
2.154228592382334e7 5.645063570219297e6 0.0
0.0 0.0 0.0

-708193.7854688133 1.2340570570478525e7 0.0
1.2340570570478525e7 -7.647327638957214e6 0.0
0.0 0.0 0.0

2.008527393279518e6 8.278474661305704e6 0.0
8.278474661305704e6 -8.351441352691593e6 0.0
0.0 0.0 0.0

2.0699686833778722e6 1.0318266979467459e7 0.0
1.0318266979467459e7 -1.4955844602013249e7 0.0
0.0 0.0 0.0

-3.0580673433332015e6 1.223978004414242e7 0.0
1.223978004414242e7 -266967.04270477814 0.0
0.0 0.0 0.0

-1.1975328359163764e6 1.0346834114877747e7 0.0
1.0346834114877747e7 -4.2685634580475995e6 0.0
0.0 0.0 0.0

-3.3325060488452963e6 1.3156232929791052e7 0.0
1.3156232929791052e7 -1.5135598482750584e6 0.0
0.0 0.0 0.0

-641326.9928058768 1.2501998021487966e7 0.0
1.2501998021487966e7 -7.890198139530042e6 0.0
0.0 0.0 0.0

4.607745131285202e6 5.354259478502402e6 0.0
5.354259478502402e6 -1.2137460232507778e7 0.0
0.0 0.0 0.0

-2.145039067273979e6 8.459941583852211e6 0.0
8.459941583852211e6 -219360.38153606752 0.0
0.0 0.0 0.0

-1.190085948506388e7 2.2163300917970486e7 0.0
2.2163300917970486e7 5.798271707293056e6 0.0
0.0 0.0 0.0

1.558815414238545e6 8.587486932721045e6 0.0
8.587486932721045e6 -7.231892378836118e6 0.0
0.0 0.0 0.0

-1.0330857270359408e7 4.0123599401852484e6 0.0
4.0123599401852484e6 1.3838326267138258e7 0.0
0.0 0.0 0.0

-2.0935013957511624e6 1.1112665575901639e7 0.0
1.1112665575901639e7 -1.6932459010627042e6 0.0
0.0 0.0 0.0

-5.986199772581797e6 1.716107044358437e7 0.0
1.716107044358437e7 3.411067559256925e6 0.0
0.0 0.0 0.0

2.972975813300732e6 6.849128835610393e6 0.0
6.849128835610393e6 -1.0864087890250878e7 0.0
0.0 0.0 0.0

-1.2447264585710045e7 1.8468373336240243e7 0.0
1.8468373336240243e7 9.554701140633535e6 0.0
0.0 0.0 0.0

-4.749891646933472e6 9.332892673256144e6 0.0
9.332892673256144e6 2.4245281965324264e6 0.0
0.0 0.0 0.0

-1.0115610241689704e7 1.4521784518330686e7 0.0
1.4521784518330686e7 5.381376005168096e6 0.0
0.0 0.0 0.0

-583174.0521064163 1.2420677804433271e7 0.0
1.2420677804433271e7 2.9827851515008565e6 0.0
0.0 0.0 0.0

-1.3589784926882751e7 2.3329529391576666e7 0.0
2.3329529391576666e7 5.903168542467672e6 0.0
0.0 0.0 0.0

2.6792193954836885e6 8.902849107604207e6 0.0
8.902849107604207e6 -1.3021310528042756e7 0.0
0.0 0.0 0.0

-3.671880830997222e6 9.433107452911716e6 0.0
9.433107452911716e6 677088.642191944 0.0
0.0 0.0 0.0

33457.402610454876 8.434912925289629e6 0.0
8.434912925289629e6 111524.8490566328 0.0
0.0 0.0 0.0

2.1418645154967154e6 7.382733031960006e6 0.0
7.382733031960006e6 -9.152289382412035e6 0.0
0.0 0.0 0.0

211866.08815371562 1.0630112373472476e7 0.0
1.0630112373472476e7 -65222.44823243437 0.0
0.0 0.0 0.0

2.36371391899875e6 7.371946753162186e6 0.0
7.371946753162186e6 -9.856538976116655e6 0.0
0.0 0.0 0.0

-461843.06596994033 1.1180348876347039e7 0.0
1.1180348876347039e7 -2.400499217660766e6 0.0
0.0 0.0 0.0

-3.442562609917437e6 1.2438709201897562e7 0.0
1.2438709201897562e7 403750.6355599207 0.0
0.0 0.0 0.0

-3.5942259919654857e6 1.256124498128013e7 0.0
1.256124498128013e7 -662797.3376523983 0.0
0.0 0.0 0.0

1.5689614746595244e6 7.328621881832243e6 0.0
7.328621881832243e6 -7.808868071793829e6 0.0
0.0 0.0 0.0

6.183673676499834e6 1.4039638842725476e7 0.0
1.4039638842725476e7 5.652300125278717e6 0.0
0.0 0.0 0.0

1.1933034119135193e6 9.117588543463623e6 0.0
9.117588543463623e6 -6.97102775376632e6 0.0
0.0 0.0 0.0

-957706.9800023759 1.0442402286196806e7 0.0
1.0442402286196806e7 -3.4950911604734543e6 0.0
0.0 0.0 0.0

-4.1842442883159895e6 1.3887080060708283e7 0.0
1.3887080060708283e7 3.0521869829724943e6 0.0
0.0 0.0 0.0

252428.97618462914 8.493680997342326e6 0.0
8.493680997342326e6 -4.806150161673893e6 0.0
0.0 0.0 0.0

-6.489405527966603e6 1.4234944685575146e7 0.0
1.4234944685575146e7 7.14679407551309e6 0.0
0.0 0.0 0.0

-808732.7093115987 1.305329933972193e7 0.0
1.305329933972193e7 5.118897829397481e6 0.0
0.0 0.0 0.0

-4.77213432766298e6 7.13592998959561e6 0.0
7.13592998959561e6 4.695963865455677e6 0.0
0.0 0.0 0.0

-1.5739547655120539e7 2.4430041256906908e7 0.0
2.4430041256906908e7 5.521179550615517e6 0.0
0.0 0.0 0.0

-6.951860037431256e6 1.3007402235192245e7 0.0
1.3007402235192245e7 1.5964040068674752e7 0.0
0.0 0.0 0.0

-2.5204967701379927e6 9.907435437062813e6 0.0
9.907435437062813e6 -1.5232262586048031e6 0.0
0.0 0.0 0.0

4.230911922888076e6 1.1340894465412736e7 0.0
1.1340894465412736e7 -2.0562743052007072e6 0.0
0.0 0.0 0.0

3.602755707482717e6 6.763251714485034e6 0.0
6.763251714485034e6 -1.2069479248614492e7 0.0
0.0 0.0 0.0

2.9424472174803475e6 9.175134515545659e6 0.0
9.175134515545659e6 -1.4590044935546039e7 0.0
0.0 0.0 0.0

-6.5665704321774375e6 1.0859744628046904e7 0.0
1.0859744628046904e7 5.340148696983511e6 0.0
0.0 0.0 0.0

-8.302925793219303e6 1.6237523156115992e7 0.0
1.6237523156115992e7 4.5534634912405e6 0.0
0.0 0.0 0.0

-2.971407562895785e6 1.0972322953609286e7 0.0
1.0972322953609286e7 136057.85239668156 0.0
0.0 0.0 0.0

-740121.3598404933 1.0755762143338935e7 0.0
1.0755762143338935e7 -5.598629043023192e6 0.0
0.0 0.0 0.0

-1.2856018934237722e7 1.6711720398860272e7 0.0
1.6711720398860272e7 1.0500836239037983e7 0.0
0.0 0.0 0.0

1.4851996327838209e6 8.756935921477793e6 0.0
8.756935921477793e6 -8.933748474786349e6 0.0
0.0 0.0 0.0

-3.3159289277182384e6 1.1466089374861885e7 0.0
1.1466089374861885e7 550418.1951358991 0.0
0.0 0.0 0.0

-1.4284395606385167e6 7.176612158224516e6 0.0
7.176612158224516e6 -912580.4514799769 0.0
0.0 0.0 0.0

-5.112287708203252e6 1.1017651040511483e7 0.0
1.1017651040511483e7 4.1883805838525537e6 0.0
0.0 0.0 0.0

-2.09746882287201e7 3.206035483535723e7 0.0
3.206035483535723e7 496321.2603372028 0.0
0.0 0.0 0.0

-4.686863066140806e6 7.857819720510356e6 0.0
7.857819720510356e6 4.2693555361235235e6 0.0
0.0 0.0 0.0

-795483.1865981678 6.096676948921638e6 0.0
6.096676948921638e6 -2.6744780301681003e6 0.0
0.0 0.0 0.0

-3.6190036583834896e6 1.3124376831450833e7 0.0
1.3124376831450833e7 538882.3984444721 0.0
0.0 0.0 0.0

-5.42928269669247e6 1.2915255353657117e7 0.0
1.2915255353657117e7 2.9906031300385534e6 0.0
0.0 0.0 0.0

-1.7994752909061364e6 1.2180733786595378e7 0.0
1.2180733786595378e7 -3.0149140285283136e6 0.0
0.0 0.0 0.0

-3.9699619904638687e6 1.2786736579312908e7 0.0
1.2786736579312908e7 18703.44183986727 0.0
0.0 0.0 0.0

-1.5236125634078244e6 4.898829156173317e6 0.0
4.898829156173317e6 -226387.39210768562 0.0
0.0 0.0 0.0

1.3619031088225094e6 1.016430650571064e7 0.0
1.016430650571064e7 -4.754307525376547e6 0.0
0.0 0.0 0.0

-5.7717680137394145e6 1.3431272954361616e7 0.0
1.3431272954361616e7 3.4299748936311537e6 0.0
0.0 0.0 0.0

817592.1814043378 7.986644065867169e6 0.0
7.986644065867169e6 -6.853689432026081e6 0.0
0.0 0.0 0.0

1.5397042744607122e6 1.0413636013146402e7 0.0
1.0413636013146402e7 -4.333890119294597e6 0.0
0.0 0.0 0.0

-9.992553960636752e6 1.3679256983520882e7 0.0
1.3679256983520882e7 3.519953041030705e6 0.0
0.0 0.0 0.0

-4.496745592377545e6 8.559245013567924e6 0.0
8.559245013567924e6 3.8400919394732825e6 0.0
0.0 0.0 0.0

-333916.72754495544 1.2105717121745234e7 0.0
1.2105717121745234e7 -8.32060510032585e6 0.0
0.0 0.0 0.0

-6.293394012503778e6 1.3842697124981359e7 0.0
1.3842697124981359e7 4.793011926750785e6 0.0
0.0 0.0 0.0

3.130006526932791e6 4.110291642005495e6 0.0
4.110291642005495e6 -8.825523896904932e6 0.0
0.0 0.0 0.0

45841.71464522241 3.246194309225445e6 0.0
3.246194309225445e6 -2.3827066180841257e6 0.0
0.0 0.0 0.0

596970.085216112 3.5110541525329305e6 0.0
3.5110541525329305e6 -3.0673180688820044e6 0.0
0.0 0.0 0.0

-3.100681352888358e6 -2.588561823161193e6 0.0
-2.588561823161193e6 3.6507748685346814e6 0.0
0.0 0.0 0.0

599514.2690537325 3.3983319797647344e6 0.0
3.3983319797647344e6 -3.448158282472702e6 0.0
0.0 0.0 0.0

-4.210980444432285e6 -593075.1780587446 0.0
-593075.1780587446 3.3550698023269083e6 0.0
0.0 0.0 0.0

2.7206820947970557e6 4.2796139531514e6 0.0
4.2796139531514e6 -7.640013688913363e6 0.0
0.0 0.0 0.0

-475485.9258397545 2.738381739027267e6 0.0
2.738381739027267e6 -616235.6223977623 0.0
0.0 0.0 0.0

-830003.1543814307 1.5571749759042123e6 0.0
1.5571749759042123e6 660884.6884370227 0.0
0.0 0.0 0.0

913757.2123638326 3.5074405858508046e6 0.0
3.5074405858508046e6 -4.282015743099464e6 0.0
0.0 0.0 0.0

-2.744753965983491e6 199360.21508479604 0.0
199360.21508479604 2.725549904999447e6 0.0
0.0 0.0 0.0

1.997480960980468e6 4.340264782407184e6 0.0
4.340264782407184e6 -6.584674052253319e6 0.0
0.0 0.0 0.0

1.0745884437751863e6 3.9658238721066257e6 0.0
3.9658238721066257e6 -5.059479298617493e6 0.0
0.0 0.0 0.0

-39179.060451431666 3.067975369139916e6 0.0
3.067975369139916e6 -1.9491817969638368e6 0.0
0.0 0.0 0.0

4.419762017256075e6 5.542886180459349e6 0.0
5.542886180459349e6 -1.1471603471230138e7 0.0
0.0 0.0 0.0

4.601786304675816e6 5.384601286606881e6 0.0
5.384601286606881e6 -1.1972852305491306e7 0.0
0.0 0.0 0.0

4.322156805828871e6 5.589210108004233e6 0.0
5.589210108004233e6 -1.1228423763295148e7 0.0
0.0 0.0 0.0

4.1419573531011674e6 4.9431030204876475e6 0.0
4.9431030204876475e6 -1.087033468097125e7 0.0
0.0 0.0 0.0

-516099.76027460705 2.9370637842998886e6 0.0
2.9370637842998886e6 -993439.3717295469 0.0
0.0 0.0 0.0

-4.029345387555421e6 -156351.9418061812 0.0
-156351.9418061812 3.8100523286799286e6 0.0
0.0 0.0 0.0

4.526059755106192e6 5.493708700135613e6 0.0
5.493708700135613e6 -1.172348500843634e7 0.0
0.0 0.0 0.0

3.527690393496505e6 4.389526733678685e6 0.0
4.389526733678685e6 -9.778703892483553e6 0.0
0.0 0.0 0.0

3.748191243505063e6 4.597581031746302e6 0.0
4.597581031746302e6 -1.0276817448502831e7 0.0
0.0 0.0 0.0

3.5162412310342006e6 4.296051661111274e6 0.0
4.296051661111274e6 -9.465873454247229e6 0.0
0.0 0.0 0.0

163794.12437410234 1.1017719285294771e7 0.0
1.1017719285294771e7 -6.883050766411822e6 0.0
0.0 0.0 0.0

-5.694350365726876e6 6.542396046125655e6 0.0
6.542396046125655e6 6.799996211032099e6 0.0
0.0 0.0 0.0

-1.1202105716770846e7 2.142306536861715e6 0.0
2.142306536861715e6 1.3006459514221229e7 0.0
0.0 0.0 0.0

-6.449209673662748e6 1.4591922459633814e7 0.0
1.4591922459633814e7 6.942673110632895e6 0.0
0.0 0.0 0.0

1.0204759898746209e6 1.1251571440523654e7 0.0
1.1251571440523654e7 -1.1801105229521627e7 0.0
0.0 0.0 0.0

-4.710375377109488e6 1.1407983843604745e7 0.0
1.1407983843604745e7 1.664680306790912e6 0.0
0.0 0.0 0.0

-1.8540194627174553e7 2.598432821762335e7 0.0
2.598432821762335e7 5.375698820928187e6 0.0
0.0 0.0 0.0

-2.8827234918004395e6 1.0416192156343391e7 0.0
1.0416192156343391e7 -1.114929651671783e6 0.0
0.0 0.0 0.0

-2.129077957559248e6 1.2041385767084204e7 0.0
1.2041385767084204e7 -2.1018294203343014e6 0.0
0.0 0.0 0.0

1.0365597505047412e6 1.242520587840724e7 0.0
1.242520587840724e7 3.9756912373664174e6 0.0
0.0 0.0 0.0

-2.7693072799644917e6 1.3055856995948562e7 0.0
1.3055856995948562e7 2.5444270095593603e6 0.0
0.0 0.0 0.0

-5.4434190993832555e6 1.1624080747247806e7 0.0
1.1624080747247806e7 4.685844906934017e6 0.0
0.0 0.0 0.0

11345.398190455977 1.3119804530984137e7 0.0
1.3119804530984137e7 -7.361857939618063e6 0.0
0.0 0.0 0.0

-5.231867842340074e6 1.0534362557564577e7 0.0
1.0534362557564577e7 4.601838583539916e6 0.0
0.0 0.0 0.0

-4.294217418395534e6 1.3034026561047474e7 0.0
1.3034026561047474e7 638115.8478172806 0.0
0.0 0.0 0.0

-3.2124115097054443e6 1.2344455731807197e7 0.0
1.2344455731807197e7 -1.3203962920837605e6 0.0
0.0 0.0 0.0

-4.24954848178619e6 8.734731436716175e6 0.0
8.734731436716175e6 1.8951988700510887e6 0.0
0.0 0.0 0.0

-822314.1924981321 1.0131227791892748e7 0.0
1.0131227791892748e7 -4.845575092258129e6 0.0
0.0 0.0 0.0

-3.0354182760982574e6 1.0686916994062549e7 0.0
1.0686916994062549e7 424314.596150302 0.0
0.0 0.0 0.0

1.2051825880847904e6 7.660139936835101e6 0.0
7.660139936835101e6 -7.332532361115599e6 0.0
0.0 0.0 0.0

119982.10508502816 3.173068023691525e6 0.0
3.173068023691525e6 -1.5138620201931451e6 0.0
0.0 0.0 0.0

424301.5254029883 3.4815010464870427e6 0.0
3.4815010464870427e6 -1.947930814425963e6 0.0
0.0 0.0 0.0

-3.053562977633776e6 417954.94091469044 0.0
417954.94091469044 4.0794820427942947e6 0.0
0.0 0.0 0.0

-180311.5796002983 3.128668946740894e6 0.0
3.128668946740894e6 -871837.1419195702 0.0
0.0 0.0 0.0

-323018.568297054 2.816912796586083e6 0.0
2.816912796586083e6 -724471.58480761 0.0
0.0 0.0 0.0

4.413733195616462e6 5.540160487288448e6 0.0
5.540160487288448e6 -1.1558161808224516e7 0.0
0.0 0.0 0.0

4.460692342079349e6 5.44818058575306e6 0.0
5.44818058575306e6 -1.1761799586189503e7 0.0
0.0 0.0 0.0

-3.9602374540046873e6 -254105.88519392154 0.0
-254105.88519392154 6.161622453063896e6 0.0
0.0 0.0 0.0

4.1258635338642527e6 4.848196091336149e6 0.0
4.848196091336149e6 -9.81668562285901e6 0.0
0.0 0.0 0.0

3.5463069311500913e6 4.337444186094914e6 0.0
4.337444186094914e6 -8.664609055687917e6 0.0
0.0 0.0 0.0

3.8299088466818156e6 4.570136115103845e6 0.0
4.570136115103845e6 -9.405418404941216e6 0.0
0.0 0.0 0.0

3.6178489863750604e6 4.387503534898e6 0.0
4.387503534898e6 -9.048642677058518e6 0.0
0.0 0.0 0.0

-3.0330962660852084e6 9.764842093565965e6 0.0
9.764842093565965e6 -579753.4648314954 0.0
0.0 0.0 0.0

-9.82667393904324e6 1.0525856530659042e7 0.0
1.0525856530659042e7 1.3033519786203276e7 0.0
0.0 0.0 0.0

-5.949413929778093e6 1.0114933491318535e7 0.0
1.0114933491318535e7 6.164392563919816e6 0.0
0.0 0.0 0.0

3.6025215214765733e6 6.271521917162934e6 0.0
6.271521917162934e6 -1.050454393485487e7 0.0
0.0 0.0 0.0

-4.1454566128660585e6 1.4521805371024588e7 0.0
1.4521805371024588e7 -347820.42446669296 0.0
0.0 0.0 0.0

-4.26691481124779e6 1.3116139194791893e7 0.0
1.3116139194791893e7 7.434617188874714e6 0.0
0.0 0.0 0.0

-9.182007548949335e6 7.015205579605061e6 0.0
7.015205579605061e6 1.0414495623131787e7 0.0
0.0 0.0 0.0

1.8965695769799082e6 7.65719579774099e6 0.0
7.65719579774099e6 -8.689780203979142e6 0.0
0.0 0.0 0.0

1.457530742613276e6 8.99873674910301e6 0.0
8.99873674910301e6 -9.150805286417168e6 0.0
0.0 0.0 0.0

-2.9321081131485556e6 1.190664187196226e7 0.0
1.190664187196226e7 -1.6914573659134358e6 0.0
0.0 0.0 0.0

-5.590539166468944e6 1.2964827914058547e7 0.0
1.2964827914058547e7 8.832826847027814e6 0.0
0.0 0.0 0.0

-1.7880375545216743e6 7.936907478886294e6 0.0
7.936907478886294e6 -641418.3842968376 0.0
0.0 0.0 0.0

-2.120956230716376e6 1.2431094344885584e7 0.0
1.2431094344885584e7 -2.368959792110046e6 0.0
0.0 0.0 0.0

-4.477869745164985e6 1.4225210420640768e7 0.0
1.4225210420640768e7 2.0767680226298317e6 0.0
0.0 0.0 0.0

787017.555890745 9.590905848514013e6 0.0
9.590905848514013e6 -6.798096183956881e6 0.0
0.0 0.0 0.0

-3.3433685947884414e6 1.268597105023861e7 0.0
1.268597105023861e7 141204.72595012817 0.0
0.0 0.0 0.0

646568.4376122991 2.4656196784890667e6 0.0
2.4656196784890667e6 2.782286106109113e6 0.0
0.0 0.0 0.0

-5.435619194478152e6 1.2827820381927833e7 0.0
1.2827820381927833e7 8.498518883717304e6 0.0
0.0 0.0 0.0

3.7504671639400655e6 8.618518521710044e6 0.0
8.618518521710044e6 -1.6203290333133794e7 0.0
0.0 0.0 0.0

2.867324740103959e6 9.011579272776488e6 0.0
9.011579272776488e6 -1.385267657802605e7 0.0
0.0 0.0 0.0

-1.7930808787935579e6 1.2007764295229044e7 0.0
1.2007764295229044e7 -2.7325401865775217e6 0.0
0.0 0.0 0.0

-6.471943232281103e6 1.4385149939252825e7 0.0
1.4385149939252825e7 3.793507823171359e6 0.0
0.0 0.0 0.0

2.147625495747708e6 5.820610472221249e6 0.0
5.820610472221249e6 -6.854721024479644e6 0.0
0.0 0.0 0.0

-2.6227781131630125e6 1.0470923543030383e7 0.0
1.0470923543030383e7 -260726.79715276696 0.0
0.0 0.0 0.0

-3.690257122903122e6 1.2346924533469498e7 0.0
1.2346924533469498e7 -379620.98631966684 0.0
0.0 0.0 0.0

-3.2412375618463345e6 1.2901373572708014e7 0.0
1.2901373572708014e7 -138302.68994249997 0.0
0.0 0.0 0.0

1.2424697160105407e6 1.1182911415281659e7 0.0
1.1182911415281659e7 -1.246065402903097e7 0.0
0.0 0.0 0.0

2.0858547165311836e6 9.071895158811644e6 0.0
9.071895158811644e6 -1.1639890641400067e7 0.0
0.0 0.0 0.0

-2.4496560421178103e6 8.066385039010073e6 0.0
8.066385039010073e6 -795919.3861094507 0.0
0.0 0.0 0.0

-6.0655342928822115e6 1.0691865046114573e7 0.0
1.0691865046114573e7 4.405269878845733e6 0.0
0.0 0.0 0.0

1.731631298553748e6 1.062136003018704e7 0.0
1.062136003018704e7 -1.2678508179362698e7 0.0
0.0 0.0 0.0

-3.0494552400282077e6 1.3496094517405247e7 0.0
1.3496094517405247e7 -987098.3923633181 0.0
0.0 0.0 0.0

1.4828955723126368e6 4.082028231784035e6 0.0
4.082028231784035e6 -5.922965064446063e6 0.0
0.0 0.0 0.0

-4.927644109961635e6 1.882783798090579e7 0.0
1.882783798090579e7 1.0310490084288735e6 0.0
0.0 0.0 0.0

1.788358353215388e6 6.2150565058892965e6 0.0
6.2150565058892965e6 -6.396534298947893e6 0.0
0.0 0.0 0.0

-1.12764869320507e6 9.701181152820388e6 0.0
9.701181152820388e6 -2.8470419271562668e6 0.0
0.0 0.0 0.0

-7.311179523648649e6 1.2775766030496705e7 0.0
1.2775766030496705e7 7.285187063952187e6 0.0
0.0 0.0 0.0

-1.9323728728753382e6 9.042604749151401e6 0.0
9.042604749151401e6 -757179.6684394871 0.0
0.0 0.0 0.0

-2.4751392366103497e6 1.0224973706934376e7 0.0
1.0224973706934376e7 -1.7660275742147279e6 0.0
0.0 0.0 0.0

-4.0788639541801377e6 1.2547007231166692e7 0.0
1.2547007231166692e7 295994.1562639575 0.0
0.0 0.0 0.0

-2.0557470930468398e6 7.5447047203271855e6 0.0
7.5447047203271855e6 -1.2157064004679772e6 0.0
0.0 0.0 0.0

-805236.3326637413 4.57318879785002e6 0.0
4.57318879785002e6 -170282.3483155352 0.0
0.0 0.0 0.0

-4.7430189523285525e6 1.0411975901969112e7 0.0
1.0411975901969112e7 3.6641289539827006e6 0.0
0.0 0.0 0.0

-4.411584984232329e6 1.151699925268995e7 0.0
1.151699925268995e7 2.6491761476914245e6 0.0
0.0 0.0 0.0

637938.3995791001 6.154080229168463e6 0.0
6.154080229168463e6 -5.110709538671261e6 0.0
0.0 0.0 0.0

-4.45311054257459e6 9.268686052719485e6 0.0
9.268686052719485e6 3.4417074187127817e6 0.0
0.0 0.0 0.0

-3.8668462760802233e6 1.3002845950685643e7 0.0
1.3002845950685643e7 -255154.83342814655 0.0
0.0 0.0 0.0

3.522232943538647e6 7.726674573429801e6 0.0
7.726674573429801e6 -1.199267948034506e7 0.0
0.0 0.0 0.0

-4.81231636309448e6 1.4469396415408606e7 0.0
1.4469396415408606e7 3.270862045272105e6 0.0
0.0 0.0 0.0

-2.6380627481360096e6 1.1457211934602853e7 0.0
1.1457211934602853e7 -2.0655709182331176e6 0.0
0.0 0.0 0.0

1.3035873311344995e6 4.11073118362581e6 0.0
4.11073118362581e6 -4.701471953036122e6 0.0
0.0 0.0 0.0

-6.576664888290076e6 1.5460809014868444e7 0.0
1.5460809014868444e7 6.291006517912026e6 0.0
0.0 0.0 0.0

-6.056572209582398e6 5.139022357552399e6 0.0
5.139022357552399e6 5.265966090288518e6 0.0
0.0 0.0 0.0

-2.772833462736319e6 1.0986609139901469e7 0.0
1.0986609139901469e7 -1.6027192943564835e6 0.0
0.0 0.0 0.0

-3.8090838016410815e6 1.3730624176751409e7 0.0
1.3730624176751409e7 625781.7220597311 0.0
0.0 0.0 0.0

-4.871895266201114e6 1.3909830850293128e7 0.0
1.3909830850293128e7 1.5198695457892406e6 0.0
0.0 0.0 0.0

-3.491816040753572e6 1.2778184649569554e7 0.0
1.2778184649569554e7 -941184.6025260271 0.0
0.0 0.0 0.0

-3.830355655225102e6 1.2644593305910634e7 0.0
1.2644593305910634e7 1.0981857611074436e6 0.0
0.0 0.0 0.0

2.1544349456338775e6 4.376506189242077e6 0.0
4.376506189242077e6 -6.746100463058252e6 0.0
0.0 0.0 0.0

-4.934787449483446e6 1.5556638298375195e7 0.0
1.5556638298375195e7 688190.7712077347 0.0
0.0 0.0 0.0

-3.2529139543449255e6 1.412351569103589e7 0.0
1.412351569103589e7 -1.9342900961561363e7 0.0
0.0 0.0 0.0

3.307218642527379e6 1.3579520571076838e7 0.0
1.3579520571076838e7 2.6172335962926924e7 0.0
0.0 0.0 0.0

621793.3644129448 1.0425045173744423e7 0.0
1.0425045173744423e7 -8.794739025979718e6 0.0
0.0 0.0 0.0

-2.5011533248522216e6 1.263792836144298e7 0.0
1.263792836144298e7 -1.7396727764776102e6 0.0
0.0 0.0 0.0

-217736.86110816384 1.0636577122285673e7 0.0
1.0636577122285673e7 -1.017444827355969e7 0.0
0.0 0.0 0.0

-2.3298826249795803e6 1.1007651526299635e7 0.0
1.1007651526299635e7 -2.4534195702206646e6 0.0
0.0 0.0 0.0

-959166.0840454459 1.3274497045970306e7 0.0
1.3274497045970306e7 -6.14122069697672e6 0.0
0.0 0.0 0.0

-1.5885638884890042e6 1.0565628711701797e7 0.0
1.0565628711701797e7 -3.6628400951253055e6 0.0
0.0 0.0 0.0

-4.1199226466953913e6 1.2321158177855896e7 0.0
1.2321158177855896e7 551222.8420891524 0.0
0.0 0.0 0.0

4.53836052513503e6 8.250358093424948e6 0.0
8.250358093424948e6 -1.861598851382535e7 0.0
0.0 0.0 0.0

-5.211595032240675e6 1.3918906934839444e7 0.0
1.3918906934839444e7 2.3118778712513456e6 0.0
0.0 0.0 0.0

-5.754324038861289e6 1.2422696938093355e7 0.0
1.2422696938093355e7 3.668468498596748e6 0.0
0.0 0.0 0.0

-1.353864656105807e6 1.0661944807668483e7 0.0
1.0661944807668483e7 -2.904395917167261e6 0.0
0.0 0.0 0.0

1.785878188187901e6 9.376222495181642e6 0.0
9.376222495181642e6 -1.102417029246045e7 0.0
0.0 0.0 0.0

4.2564855225144485e6 1.3356412843804972e7 0.0
1.3356412843804972e7 1.4188282495451903e7 0.0
0.0 0.0 0.0

-2.3760329982005833e6 1.305578552248553e7 0.0
1.305578552248553e7 -3.0998038823115523e6 0.0
0.0 0.0 0.0

-2.371410182092527e7 2.8253921195142787e7 0.0
2.8253921195142787e7 5.380272014788645e6 0.0
0.0 0.0 0.0

904200.1114213928 1.0154602042010527e7 0.0
1.0154602042010527e7 -9.338185549779208e6 0.0
0.0 0.0 0.0

-2.8814587123850794e6 1.2674406346363453e7 0.0
1.2674406346363453e7 -809888.6050553713 0.0
0.0 0.0 0.0

2.07516364356599e6 4.396103843547537e6 0.0
4.396103843547537e6 -6.293979004078633e6 0.0
0.0 0.0 0.0

3.1974770230226964e6 7.220538961135693e6 0.0
7.220538961135693e6 -1.180954532894628e7 0.0
0.0 0.0 0.0

-4.200551563069029e6 1.3805683730565233e7 0.0
1.3805683730565233e7 1.6642545543431e6 0.0
0.0 0.0 0.0

-1.1101737211448355e6 1.1856061432329543e7 0.0
1.1856061432329543e7 -1.4506463057896337e7 0.0
0.0 0.0 0.0

-1.7257253400676653e6 1.0893227975469898e7 0.0
1.0893227975469898e7 -2.3029776726362784e6 0.0
0.0 0.0 0.0

766612.1844511463 8.695816602257337e6 0.0
8.695816602257337e6 -5.751806350488261e6 0.0
0.0 0.0 0.0

-2.844983616382162e6 9.56014879310718e6 0.0
9.56014879310718e6 611485.0353128436 0.0
0.0 0.0 0.0

1.2390091412143428e6 9.900997271925349e6 0.0
9.900997271925349e6 -9.92944129747532e6 0.0
0.0 0.0 0.0

-3.2379278529039975e6 9.155058374571776e6 0.0
9.155058374571776e6 3529.9590944307856 0.0
0.0 0.0 0.0

36788.06297961855 1.1862752693636088e7 0.0
1.1862752693636088e7 -8.957589007744802e6 0.0
0.0 0.0 0.0

-1.4163632538036713e7 1.6772535612516912e7 0.0
1.6772535612516912e7 5.081912112841276e6 0.0
0.0 0.0 0.0

-664202.423467734 2.4547080523631596e6 0.0
2.4547080523631596e6 -103370.44012412676 0.0
0.0 0.0 0.0

-3.4144966482759425e6 9.522314938608767e6 0.0
9.522314938608767e6 1.5128422408779496e6 0.0
0.0 0.0 0.0

-3.716085233910106e6 1.2888254579147989e7 0.0
1.2888254579147989e7 839252.7061047207 0.0
0.0 0.0 0.0

-1.0241830566894703e7 -4.364230102574838e6 0.0
-4.364230102574838e6 2.2562584987419207e7 0.0
0.0 0.0 0.0

-1.4036724394299428e6 1.2785414707983764e7 0.0
1.2785414707983764e7 3.526295476414587e6 0.0
0.0 0.0 0.0

-1.9631802094799662e6 1.0783125641680472e7 0.0
1.0783125641680472e7 -3.0672919138277965e6 0.0
0.0 0.0 0.0

-1.562104385236616e6 1.3013505541787172e7 0.0
1.3013505541787172e7 -4.898651373469203e6 0.0
0.0 0.0 0.0

-1.6805710265831621e6 1.1629831047440045e7 0.0
1.1629831047440045e7 -4.0617486055564284e6 0.0
0.0 0.0 0.0

-1.0100344000996964e6 9.375564181126397e6 0.0
9.375564181126397e6 -4.143545378744264e6 0.0
0.0 0.0 0.0

-2.778050361556896e6 1.2323096837416138e7 0.0
1.2323096837416138e7 -2.233064725886818e6 0.0
0.0 0.0 0.0

-6.189103163076034e6 1.084005944557474e7 0.0
1.084005944557474e7 6.617308872819126e6 0.0
0.0 0.0 0.0

-3.36309799078364e6 1.1196514307755014e7 0.0
1.1196514307755014e7 835152.2741280475 0.0
0.0 0.0 0.0

-2.8253003369686427e6 1.0713506844055708e7 0.0
1.0713506844055708e7 -1.3705635910392506e6 0.0
0.0 0.0 0.0

4.258555926005634e6 7.298464679314758e6 0.0
7.298464679314758e6 -1.4447040585331308e7 0.0
0.0 0.0 0.0

-6.492819683578451e6 1.5864421481079787e7 0.0
1.5864421481079787e7 6.460513924465876e6 0.0
0.0 0.0 0.0

-246274.53619092389 5.366800944640577e6 0.0
5.366800944640577e6 -1.4191079527950212e6 0.0
0.0 0.0 0.0

-5.710039194916915e6 1.0663253148621954e7 0.0
1.0663253148621954e7 5.610191375142002e6 0.0
0.0 0.0 0.0

308626.2347079434 8.745102134020165e6 0.0
8.745102134020165e6 -4.999537809803535e6 0.0
0.0 0.0 0.0

3.7480078211988024e6 5.552376946734257e6 0.0
5.552376946734257e6 -1.0183958162864417e7 0.0
0.0 0.0 0.0

1.5103430791845336e6 9.611181628451375e6 0.0
9.611181628451375e6 -1.05101100422883e7 0.0
0.0 0.0 0.0

-1.1920359903644547e6 6.41384757698014e6 0.0
6.41384757698014e6 -2.098267379775512e6 0.0
0.0 0.0 0.0

-1.2194920987494577e7 6.0508285452652145e6 0.0
6.0508285452652145e6 1.4061127696891619e7 0.0
0.0 0.0 0.0

-2.564915829721443e6 1.1687989835845308e7 0.0
1.1687989835845308e7 -2.32506995519883e6 0.0
0.0 0.0 0.0

-277744.16183741717 2.6151893612353085e6 0.0
2.6151893612353085e6 -337270.80730080395 0.0
0.0 0.0 0.0

-2.8468863659551456e6 8.601682167669483e6 0.0
8.601682167669483e6 -394721.1991917901 0.0
0.0 0.0 0.0

-1.8940959710118342e6 1.3273190311136719e7 0.0
1.3273190311136719e7 -4.140468244069753e6 0.0
0.0 0.0 0.0

551324.3084227736 1.1586695625654928e7 0.0
1.1586695625654928e7 -1.0371675149130192e7 0.0
0.0 0.0 0.0

916931.6615210031 8.800755753501127e6 0.0
8.800755753501127e6 -7.553244605745077e6 0.0
0.0 0.0 0.0

245917.31355256867 7.394891443780482e6 0.0
7.394891443780482e6 -4.847616779900541e6 0.0
0.0 0.0 0.0

-2.0261535259194514e6 1.1348899162847277e7 0.0
1.1348899162847277e7 -1.9256586752187307e6 0.0
0.0 0.0 0.0

-7.030673278594887e6 1.2494833581543047e7 0.0
1.2494833581543047e7 1.0268281517979931e7 0.0
0.0 0.0 0.0

-4.758865619646168e6 1.4045522742312834e7 0.0
1.4045522742312834e7 1.2251261674478096e6 0.0
0.0 0.0 0.0

-8.100242056138438e6 1.1432654619972734e7 0.0
1.1432654619972734e7 9.468393105395816e6 0.0
0.0 0.0 0.0

-6.408604623044696e6 1.2663892735730056e7 0.0
1.2663892735730056e7 6.648921316974735e6 0.0
0.0 0.0 0.0

160674.89950489393 8.038691602359791e6 0.0
8.038691602359791e6 -5.346312979139719e6 0.0
0.0 0.0 0.0

-2.498078416548509e6 9.001160230664007e6 0.0
9.001160230664007e6 201508.01285645575 0.0
0.0 0.0 0.0

-2.33203978742916e6 1.2665892605825152e7 0.0
1.2665892605825152e7 3.7771813711175555e6 0.0
0.0 0.0 0.0

-1.3470007355202804e6 9.622550902624061e6 0.0
9.622550902624061e6 -3.570949847230494e6 0.0
0.0 0.0 0.0

1.451193100294982e6 1.0759211590084938e7 0.0
1.0759211590084938e7 -1.1942371845634392e7 0.0
0.0 0.0 0.0

-2.3237304991796883e6 1.1794204352398317e7 0.0
1.1794204352398317e7 -1.5431083196552028e6 0.0
0.0 0.0 0.0

287752.2549730181 1.0659049860036308e7 0.0
1.0659049860036308e7 -8.251687038074005e6 0.0
0.0 0.0 0.0

-2.7553464403114123e6 9.848121802825773e6 0.0
9.848121802825773e6 322260.53970847884 0.0
0.0 0.0 0.0

-2.0808865842603326e6 1.1258454904207574e7 0.0
1.1258454904207574e7 -1.1409268439857567e7 0.0
0.0 0.0 0.0

-2.6079563678316846e6 1.223660535706376e7 0.0
1.223660535706376e7 -1.1796511425000806e6 0.0
0.0 0.0 0.0

2.727419418783605e6 1.1744933031767879e7 0.0
1.1744933031767879e7 -3.7358040438806717e6 0.0
0.0 0.0 0.0

-1.1067225858012203e7 -2.049601630313638e6 0.0
-2.049601630313638e6 2.243986385866359e7 0.0
0.0 0.0 0.0

-1.0760216245578106e7 1.8636890152744543e7 0.0
1.8636890152744543e7 8.931180200851716e6 0.0
0.0 0.0 0.0

-3.5798703791467696e6 1.3331430525398158e7 0.0
1.3331430525398158e7 3.6372236348157926e6 0.0
0.0 0.0 0.0

-1.1716854829504497e7 7.356514397016014e6 0.0
7.356514397016014e6 1.4427461888824586e7 0.0
0.0 0.0 0.0

-6.563070437757667e6 1.4442939169214012e7 0.0
1.4442939169214012e7 6.70813887170954e6 0.0
0.0 0.0 0.0

-2.2611895603791587e6 9.947695618032593e6 0.0
9.947695618032593e6 -666950.4283305081 0.0
0.0 0.0 0.0

-1.2763099566652102e6 1.089750451834083e7 0.0
1.089750451834083e7 -3.1418504512231075e6 0.0
0.0 0.0 0.0

-1.93870083253048e6 1.1575719175513526e7 0.0
1.1575719175513526e7 -2.1693118612229354e6 0.0
0.0 0.0 0.0

-361649.348085842 7.575012459069283e6 0.0
7.575012459069283e6 -2.7733687229097807e6 0.0
0.0 0.0 0.0

-2.2644774084046017e6 1.3522564281786613e7 0.0
1.3522564281786613e7 -3.419798053217849e6 0.0
0.0 0.0 0.0

2.7185969335900187e6 6.412174122326577e6 0.0
6.412174122326577e6 -9.684374612456026e6 0.0
0.0 0.0 0.0

1.2739636200575796e6 5.901541990945109e6 0.0
5.901541990945109e6 -6.310318753925073e6 0.0
0.0 0.0 0.0

-6.878644380074085e6 1.2476246791879313e7 0.0
1.2476246791879313e7 7.821837669000454e6 0.0
0.0 0.0 0.0

-4.36758297928091e6 1.3835299323199108e7 0.0
1.3835299323199108e7 492378.1209807857 0.0
0.0 0.0 0.0

1.910059518223004e6 1.2400038484012702e7 0.0
1.2400038484012702e7 -4.65370892824599e6 0.0
0.0 0.0 0.0

-8.350235724756025e6 1.4996867918328112e7 0.0
1.4996867918328112e7 5.152917542812839e6 0.0
0.0 0.0 0.0

1.8699704182122722e6 5.698747817016338e6 0.0
5.698747817016338e6 -7.741851516933155e6 0.0
0.0 0.0 0.0

-1.7274196926907678e6 9.81841900279478e6 0.0
9.81841900279478e6 -3.003794737947934e6 0.0
0.0 0.0 0.0

1.5264776256710583e7 1.0932886353014877e7 0.0
1.0932886353014877e7 -839381.7561464235 0.0
0.0 0.0 0.0

283360.6381597591 7.6048999752033325e6 0.0
7.6048999752033325e6 -5.211642013164306e6 0.0
0.0 0.0 0.0

3.2781252354179043e6 6.665986621030517e6 0.0
6.665986621030517e6 -1.131485499201532e7 0.0
0.0 0.0 0.0

-8.995808788429014e6 1.0726499249889592e7 0.0
1.0726499249889592e7 1.2244262716303438e7 0.0
0.0 0.0 0.0

324559.3298501335 1.1315894096214106e7 0.0
1.1315894096214106e7 -9.064989827852657e6 0.0
0.0 0.0 0.0

-3.9795815541414423e6 6.275628013295378e6 0.0
6.275628013295378e6 3.9919546971041425e6 0.0
0.0 0.0 0.0

-1.2142465236776542e7 1.735032370990648e7 0.0
1.735032370990648e7 9.355219833852911e6 0.0
0.0 0.0 0.0

-8.306580634234639e6 1.0928918070468664e7 0.0
1.0928918070468664e7 1.160418963336008e7 0.0
0.0 0.0 0.0

-6.466503981067669e6 1.4900322050318986e7 0.0
1.4900322050318986e7 6.72232349290356e6 0.0
0.0 0.0 0.0

-1.0875926676685333e7 1.6485052234149141e7 0.0
1.6485052234149141e7 5.979468997963728e6 0.0
0.0 0.0 0.0

-3.2993613274086374e6 1.0604468643687887e7 0.0
1.0604468643687887e7 -436506.7590918923 0.0
0.0 0.0 0.0

1.7583010512833677e7 6.055266559337373e6 0.0
6.055266559337373e6 -3.9300221292993296e6 0.0
0.0 0.0 0.0

-1.5542093878230937e6 1.1969388923756009e7 0.0
1.1969388923756009e7 -3.6528804435266107e6 0.0
0.0 0.0 0.0

-1.0323961312438219e6 7.787735221426225e6 0.0
7.787735221426225e6 -2.2956178853821033e6 0.0
0.0 0.0 0.0

-2.667199722099403e6 1.374900065353832e7 0.0
1.374900065353832e7 -2.674216210230261e6 0.0
0.0 0.0 0.0

-4.616419937489174e6 1.3929706862675695e7 0.0
1.3929706862675695e7 -360856.24117091903 0.0
0.0 0.0 0.0

452932.97390263947 7.185098282081655e6 0.0
7.185098282081655e6 -3.7344075708402875e6 0.0
0.0 0.0 0.0

-5.296882638228608e6 1.3350536637354458e7 0.0
1.3350536637354458e7 6.682944190651311e6 0.0
0.0 0.0 0.0

178628.83474553097 1.0754486225107495e7 0.0
1.0754486225107495e7 -1.0131689198119842e7 0.0
0.0 0.0 0.0

-1.0545034526164733e7 814914.4567201722 0.0
814914.4567201722 1.2432407684860725e7 0.0
0.0 0.0 0.0

-4.482330445802372e6 1.3639391727624014e7 0.0
1.3639391727624014e7 774394.6293380058 0.0
0.0 0.0 0.0

-2.223816816047917e6 1.02855162969835e7 0.0
1.02855162969835e7 -939437.0340540523 0.0
0.0 0.0 0.0

-4.114551741400729e6 1.3973219823636847e7 0.0
1.3973219823636847e7 1.298884798737296e6 0.0
0.0 0.0 0.0

-573511.8254925802 1.1093160148081891e7 0.0
1.1093160148081891e7 -5.109890265253909e6 0.0
0.0 0.0 0.0

-1.630427800510341e6 7.12088301443736e6 0.0
7.12088301443736e6 -331415.72360102815 0.0
0.0 0.0 0.0

-6.424971653058125e6 1.427419750122606e7 0.0
1.427419750122606e7 5.088736773460517e6 0.0
0.0 0.0 0.0

-6.938058342722582e6 1.2828455084519465e7 0.0
1.2828455084519465e7 8.88422293112192e6 0.0
0.0 0.0 0.0

-6.276756592080364e6 1.199199946412954e7 0.0
1.199199946412954e7 6.440623425307132e6 0.0
0.0 0.0 0.0

-795306.9578470816 9.509261728974523e6 0.0
9.509261728974523e6 -3.414241478780314e6 0.0
0.0 0.0 0.0

2.3645635514223e6 9.147820041261438e6 0.0
9.147820041261438e6 -1.2458400370267589e7 0.0
0.0 0.0 0.0

-4.066730741576123e6 1.1341098030008571e7 0.0
1.1341098030008571e7 643679.3236126304 0.0
0.0 0.0 0.0

-1.1480171660053437e6 1.2034167126432527e7 0.0
1.2034167126432527e7 -6.286943778194329e6 0.0
0.0 0.0 0.0

-797943.3104507918 1.0999366160120837e7 0.0
1.0999366160120837e7 -5.841364052210014e6 0.0
0.0 0.0 0.0

-3.9002104316201387e6 1.4231989159442687e7 0.0
1.4231989159442687e7 -1.055332842551389e6 0.0
0.0 0.0 0.0

-2.00660796322806e6 1.2073517202098588e7 0.0
1.2073517202098588e7 -3.655857845743891e6 0.0
0.0 0.0 0.0

1.6427538805083935e6 9.098441580968708e6 0.0
9.098441580968708e6 -9.954650622147482e6 0.0
0.0 0.0 0.0

1.2291379058675468e6 5.934661182629121e6 0.0
5.934661182629121e6 -4.766842143329058e6 0.0
0.0 0.0 0.0

-162238.4712856001 5.871387874202849e6 0.0
5.871387874202849e6 -2.3251395283519314e6 0.0
0.0 0.0 0.0

-6.436914999711299e6 1.8192409070904512e7 0.0
1.8192409070904512e7 4.25467314742209e6 0.0
0.0 0.0 0.0

-3.7364768164485907e6 1.0821855732769568e7 0.0
1.0821855732769568e7 247993.4020103095 0.0
0.0 0.0 0.0

-2.737542495057275e6 1.2534546187468925e7 0.0
1.2534546187468925e7 -2.5050290763177276e6 0.0
0.0 0.0 0.0

2.645029478124893e6 4.800641316218863e6 0.0
4.800641316218863e6 -7.672456069062338e6 0.0
0.0 0.0 0.0

-1.2271087974361988e7 -197707.75026637033 0.0
-197707.75026637033 2.1997907091631986e7 0.0
0.0 0.0 0.0

1.602051158416254e6 7.6142891228870945e6 0.0
7.6142891228870945e6 -8.036506313702817e6 0.0
0.0 0.0 0.0

-1.7242656736477988e6 1.5707767470748032e7 0.0
1.5707767470748032e7 -4.297057008531785e6 0.0
0.0 0.0 0.0

-3.8668870580343567e6 1.522213205380342e7 0.0
1.522213205380342e7 -540862.9281692565 0.0
0.0 0.0 0.0

-6.358079905276991e6 1.4477570079515697e7 0.0
1.4477570079515697e7 4.781669772736957e6 0.0
0.0 0.0 0.0

4.52894548650589e6 5.690254536028574e6 0.0
5.690254536028574e6 -1.2637319500974936e7 0.0
0.0 0.0 0.0

-2.811924656611587e6 1.287723537937716e7 0.0
1.287723537937716e7 -1.096937075645064e6 0.0
0.0 0.0 0.0

-3.1350670652829353e6 1.3607936082475971e7 0.0
1.3607936082475971e7 -1.30837461170117e6 0.0
0.0 0.0 0.0

3.4325799795055883e6 7.053633152576895e6 0.0
7.053633152576895e6 -1.2271731113655992e7 0.0
0.0 0.0 0.0

-4.741316557133894e6 1.4982820556895023e7 0.0
1.4982820556895023e7 981269.789218859 0.0
0.0 0.0 0.0

-117100.1717851921 1.3418245954930017e7 0.0
1.3418245954930017e7 -6.087878774648943e6 0.0
0.0 0.0 0.0

-3.1271600689120246e6 1.2551324658292439e7 0.0
1.2551324658292439e7 -1.6019562757931338e6 0.0
0.0 0.0 0.0

1.6121675704782577e6 1.0980069213949854e7 0.0
1.0980069213949854e7 -1.2625360926886216e7 0.0
0.0 0.0 0.0

1.5106475520469225e6 6.062175535423724e6 0.0
6.062175535423724e6 -7.234301053338025e6 0.0
0.0 0.0 0.0

513427.2157751145 8.589424326957203e6 0.0
8.589424326957203e6 -6.598354768420248e6 0.0
0.0 0.0 0.0

-2.661455877784525e6 1.3151143570209982e7 0.0
1.3151143570209982e7 -2.5593328109980747e6 0.0
0.0 0.0 0.0

-610806.8232817452 1.3517481779961461e7 0.0
1.3517481779961461e7 -6.428846660871835e6 0.0
0.0 0.0 0.0

-2.353113172959787e6 1.2264276140666435e7 0.0
1.2264276140666435e7 -3.100131950073976e6 0.0
0.0 0.0 0.0

2.053017528595589e6 6.564066301396566e6 0.0
6.564066301396566e6 -7.102341370642063e6 0.0
0.0 0.0 0.0

4.1511540235703746e6 6.116349285734471e6 0.0
6.116349285734471e6 -1.1319630122418387e7 0.0
0.0 0.0 0.0

-432836.82686490286 1.1139310804004015e7 0.0
1.1139310804004015e7 -7.056637402335894e6 0.0
0.0 0.0 0.0

136717.45013917168 8.88151077251274e6 0.0
8.88151077251274e6 -6.032830535982401e6 0.0
0.0 0.0 0.0

-2.943577401866108e6 1.0087241126428088e7 0.0
1.0087241126428088e7 -847634.4035678353 0.0
0.0 0.0 0.0

-7.830584354953773e6 1.5459558919356728e7 0.0
1.5459558919356728e7 5.783195470297479e6 0.0
0.0 0.0 0.0

-9.206008443090988e6 1.0178884130946983e7 0.0
1.0178884130946983e7 4.0656303356673725e7 0.0
0.0 0.0 0.0

-1.0261459880309792e7 1.6546050814931616e6 0.0
1.6546050814931616e6 1.1362042112544905e7 0.0
0.0 0.0 0.0

-3.5261915022552516e6 1.4686909652496556e7 0.0
1.4686909652496556e7 -2.8432882591243912e6 0.0
0.0 0.0 0.0

-3.3833048394606593e6 1.0303573171885122e7 0.0
1.0303573171885122e7 -164865.19376603188 0.0
0.0 0.0 0.0

-1.155657861475759e7 1.9285996050097398e6 0.0
1.9285996050097398e6 1.768635659476749e7 0.0
0.0 0.0 0.0

3.664223810946207e6 6.049890946405418e6 0.0
6.049890946405418e6 -1.048456900372553e7 0.0
0.0 0.0 0.0

-3.4510600816937867e6 1.0940752362947999e7 0.0
1.0940752362947999e7 1.180537972950486e6 0.0
0.0 0.0 0.0

641233.6523946221 1.1207216383991677e7 0.0
1.1207216383991677e7 -1.0027019150397101e7 0.0
0.0 0.0 0.0

-2.9877848365425835e6 1.404720185053342e7 0.0
1.404720185053342e7 -1.9854322344548844e6 0.0
0.0 0.0 0.0

-2.75004132786275e6 1.3057154715326633e7 0.0
1.3057154715326633e7 -1.3861471821935335e6 0.0
0.0 0.0 0.0

-4.1617407593506733e6 9.640037296219993e6 0.0
9.640037296219993e6 1.3899770780079325e6 0.0
0.0 0.0 0.0

-2.1641318224331397e6 1.0863590306903096e7 0.0
1.0863590306903096e7 -1.446629738564638e6 0.0
0.0 0.0 0.0

-2.565474299190237e6 7.329961086269125e6 0.0
7.329961086269125e6 134970.65759076353 0.0
0.0 0.0 0.0

-2.6881001483629074e7 1.2407930434047986e7 0.0
1.2407930434047986e7 1.1347247843825376e7 0.0
0.0 0.0 0.0

-1.7244634243196663e6 1.1343075266835129e7 0.0
1.1343075266835129e7 5.434794446831709e6 0.0
0.0 0.0 0.0

-6.7532863878530655e6 1.3477528863551829e7 0.0
1.3477528863551829e7 7.367802776098818e6 0.0
0.0 0.0 0.0

-5.0484333177502155e6 1.4877865953643873e7 0.0
1.4877865953643873e7 3.1502738122397065e6 0.0
0.0 0.0 0.0

2.0726240333794635e6 7.656201597404484e6 0.0
7.656201597404484e6 -9.380839920714859e6 0.0
0.0 0.0 0.0

2.9771870336891883e6 7.091328142112976e6 0.0
7.091328142112976e6 -1.1113185844199257e7 0.0
0.0 0.0 0.0

3.670580662904772e6 8.079833641705926e6 0.0
8.079833641705926e6 -1.2952885141992018e7 0.0
0.0 0.0 0.0

-3.5965283409222355e6 9.71924273910417e6 0.0
9.71924273910417e6 398707.7807712364 0.0
0.0 0.0 0.0

-1.1196360182287846e7 5.78762702621409e6 0.0
5.78762702621409e6 1.2906417671268566e7 0.0
0.0 0.0 0.0

-2.547854268461028e6 7.765510630926686e6 0.0
7.765510630926686e6 759182.6539871466 0.0
0.0 0.0 0.0

1.0105530313541256e6 1.2946593500913303e7 0.0
1.2946593500913303e7 -5.263375890828709e6 0.0
0.0 0.0 0.0

480225.78710020287 1.088056835145302e7 0.0
1.088056835145302e7 -9.867193158901505e6 0.0
0.0 0.0 0.0

-6.688626377910081e6 1.4642419744496912e7 0.0
1.4642419744496912e7 6.126072867477106e6 0.0
0.0 0.0 0.0

-4.549076560921655e6 1.8501214294305116e7 0.0
1.8501214294305116e7 -58398.723221615655 0.0
0.0 0.0 0.0

-7.250816011407822e6 1.5732758303749459e7 0.0
1.5732758303749459e7 6.11081430230535e6 0.0
0.0 0.0 0.0

-7.269976803445993e6 1.1940417832803693e7 0.0
1.1940417832803693e7 9.828166459451742e6 0.0
0.0 0.0 0.0

4.745602883148917e6 7.186345664952829e6 0.0
7.186345664952829e6 -1.87045056594224e7 0.0
0.0 0.0 0.0

-525477.0698695042 1.0648648457863899e7 0.0
1.0648648457863899e7 -4.621497004084514e6 0.0
0.0 0.0 0.0

2.419637632428642e6 4.463886590945381e6 0.0
4.463886590945381e6 -6.948825640215079e6 0.0
0.0 0.0 0.0

4.040495923079934e6 7.4744810967215905e6 0.0
7.4744810967215905e6 -1.3187547066833686e7 0.0
0.0 0.0 0.0

-6.2639889871820165e6 1.4692077180542916e7 0.0
1.4692077180542916e7 4.47827706810501e6 0.0
0.0 0.0 0.0

-8.144172658251857e6 6.565103783449559e6 0.0
6.565103783449559e6 1.113800904571616e7 0.0
0.0 0.0 0.0

-7.6143013697521435e6 1.1417536778064381e7 0.0
1.1417536778064381e7 1.056906781198658e7 0.0
0.0 0.0 0.0

-6.607682237562791e6 1.391241626265009e7 0.0
1.391241626265009e7 7.292677892383523e6 0.0
0.0 0.0 0.0

1.8529952706972146e6 7.70125063240587e6 0.0
7.70125063240587e6 -7.213093669695378e6 0.0
0.0 0.0 0.0

-2.7739766919715563e6 1.5037608171434816e7 0.0
1.5037608171434816e7 -529500.4674772511 0.0
0.0 0.0 0.0

-6.297630734783402e6 1.8099668906219196e7 0.0
1.8099668906219196e7 3.0336947864038376e6 0.0
0.0 0.0 0.0

-6.528272709287462e6 1.547377834345895e7 0.0
1.547377834345895e7 5.764310846294086e6 0.0
0.0 0.0 0.0

-7.499999505676405e6 1.126231667437649e7 0.0
1.126231667437649e7 1.084661698456541e7 0.0
0.0 0.0 0.0

-2.014647703607981e7 3.2769445515980877e7 0.0
3.2769445515980877e7 -8.632248641456854e6 0.0
0.0 0.0 0.0

-3.75354594409173e6 1.3637729976277512e7 0.0
1.3637729976277512e7 -683694.3453558709 0.0
0.0 0.0 0.0

-5.558480157616565e6 1.0552161948302936e7 0.0
1.0552161948302936e7 3.4978884313492165e6 0.0
0.0 0.0 0.0

-1.5577492645381643e6 4.84194737817426e6 0.0
4.84194737817426e6 91784.99576596991 0.0
0.0 0.0 0.0

-1.646527789974336e6 1.1125015791513713e7 0.0
1.1125015791513713e7 -2.5381231782718203e6 0.0
0.0 0.0 0.0

-3.138778916136561e6 1.4505877004342087e7 0.0
1.4505877004342087e7 -776919.7505070574 0.0
0.0 0.0 0.0

-9.997274175931085e6 1.8072410094437294e7 0.0
1.8072410094437294e7 8.343344342377183e6 0.0
0.0 0.0 0.0

-2.155301262772563e6 1.258310571560995e7 0.0
1.258310571560995e7 -2.5799743742886116e6 0.0
0.0 0.0 0.0

-3.300768035019846e6 1.3295692446886195e7 0.0
1.3295692446886195e7 -1.7473417262540807e6 0.0
0.0 0.0 0.0

-4.4450339011965e6 2.598115931677075e6 0.0
2.598115931677075e6 5.643727980670701e6 0.0
0.0 0.0 0.0

3.2140171666170675e6 6.232609703465778e6 0.0
6.232609703465778e6 -9.403246610764105e6 0.0
0.0 0.0 0.0

-5.599991064325765e6 1.759413505478698e7 0.0
1.759413505478698e7 3.2662071560044857e6 0.0
0.0 0.0 0.0

-7.134963640180249e6 1.2432954354986452e7 0.0
1.2432954354986452e7 9.35523804901771e6 0.0
0.0 0.0 0.0

-5.012079073740955e6 1.4380379798798716e7 0.0
1.4380379798798716e7 477235.15504776733 0.0
0.0 0.0 0.0

-65759.5182750579 5.425877516478559e6 0.0
5.425877516478559e6 -3.679783856073002e6 0.0
0.0 0.0 0.0

-4.4001710850293e6 1.57127377222522e7 0.0
1.57127377222522e7 -1.0079457712197168e6 0.0
0.0 0.0 0.0

-3.055729424082044e6 1.2740623810815036e7 0.0
1.2740623810815036e7 -1.879212556662297e6 0.0
0.0 0.0 0.0

-72585.98572193505 1.0902780370988116e7 0.0
1.0902780370988116e7 -7.655979034497142e6 0.0
0.0 0.0 0.0

-2.248893364352399e6 1.2013455922203925e7 0.0
1.2013455922203925e7 -1.8081510770026678e6 0.0
0.0 0.0 0.0

1.6191395363876503e6 7.931506702721865e6 0.0
7.931506702721865e6 -8.259095743732827e6 0.0
0.0 0.0 0.0

-3.487286033649449e6 1.2201950763054835e7 0.0
1.2201950763054835e7 684745.116055182 0.0
0.0 0.0 0.0

-1.7432668439073774e6 5.635308670858199e6 0.0
5.635308670858199e6 -104530.31366447906 0.0
0.0 0.0 0.0

-5.512466595549099e6 7.2131722633483885e6 0.0
7.2131722633483885e6 6.122885623801766e6 0.0
0.0 0.0 0.0

-3.8892413601000523e6 9.693702151082056e6 0.0
9.693702151082056e6 2.2891214866827e6 0.0
0.0 0.0 0.0

-1.7625866827796872e6 1.0270127321697183e7 0.0
1.0270127321697183e7 -9.156955722248698e6 0.0
0.0 0.0 0.0

-3.321426486714344e6 9.827063981178708e6 0.0
9.827063981178708e6 1.297634333793998e6 0.0
0.0 0.0 0.0

-2.119718753165938e7 1.622345420435312e7 0.0
1.622345420435312e7 8.586352245924424e6 0.0
0.0 0.0 0.0

-3.8682325196118206e6 1.0552640898945102e7 0.0
1.0552640898945102e7 528595.9500470683 0.0
0.0 0.0 0.0

-600564.8307701028 1.3243004371949838e7 0.0
1.3243004371949838e7 -1.4715103895515767e6 0.0
0.0 0.0 0.0

-2.9235745323877595e7 1.0695170393453855e7 0.0
1.0695170393453855e7 9.155967799642347e6 0.0
0.0 0.0 0.0

476615.91653766367 1.3269774646589944e7 0.0
1.3269774646589944e7 -5.781394330103208e6 0.0
0.0 0.0 0.0

-2.675796571566583e6 1.0157362831240566e7 0.0
1.0157362831240566e7 27811.536714304006 0.0
0.0 0.0 0.0

1.141482593164506e6 8.364156165250857e6 0.0
8.364156165250857e6 -6.246280935160386e6 0.0
0.0 0.0 0.0

-5.367341308799211e6 1.5133815650237761e7 0.0
1.5133815650237761e7 3.762847723846685e6 0.0
0.0 0.0 0.0

1.2938268280515443e6 8.762817626868619e6 0.0
8.762817626868619e6 -8.2675075735669695e6 0.0
0.0 0.0 0.0

1.1860307416032036e6 9.293865454304937e6 0.0
9.293865454304937e6 -8.74499548061668e6 0.0
0.0 0.0 0.0

-1.8385802801629582e6 7.0334778311216645e6 0.0
7.0334778311216645e6 -994860.5509481925 0.0
0.0 0.0 0.0

-6.618170608508076e6 1.1991943531509524e7 0.0
1.1991943531509524e7 5.300608855801305e6 0.0
0.0 0.0 0.0

3.6428014058930753e6 7.068347297153807e6 0.0
7.068347297153807e6 -1.157211715958864e7 0.0
0.0 0.0 0.0

-3.49657368631238e6 4.672351359727273e6 0.0
4.672351359727273e6 2.946242969330103e6 0.0
0.0 0.0 0.0

1.2478451062451322e6 9.017806741581444e6 0.0
9.017806741581444e6 -8.508136357695116e6 0.0
0.0 0.0 0.0

-4.648421891725264e7 2.861045421770614e6 0.0
2.861045421770614e6 1.2285056066461945e7 0.0
0.0 0.0 0.0

4.667342493618228e6 7.055577511562912e6 0.0
7.055577511562912e6 -1.770893071882962e7 0.0
0.0 0.0 0.0

-5.902036716956009e6 1.1169527034812735e7 0.0
1.1169527034812735e7 3.993753942208667e6 0.0
0.0 0.0 0.0

-6.068377055549123e6 1.2211926075929169e7 0.0
1.2211926075929169e7 3.9900130144536397e6 0.0
0.0 0.0 0.0

-6.411814797689072e6 1.5608183430138955e7 0.0
1.5608183430138955e7 6.666390848939721e6 0.0
0.0 0.0 0.0

-2.2648610274731577e6 1.1241935373035679e7 0.0
1.1241935373035679e7 -2.6982336570550376e6 0.0
0.0 0.0 0.0

-5.932047096829172e6 1.3062602686474094e7 0.0
1.3062602686474094e7 7.889476939708816e6 0.0
0.0 0.0 0.0

352807.35079189437 9.825222219948603e6 0.0
9.825222219948603e6 -7.127094357500847e6 0.0
0.0 0.0 0.0

2.5375752889821227e6 7.920613289899503e6 0.0
7.920613289899503e6 -1.102107997769297e7 0.0
0.0 0.0 0.0

-5.5005233368039e6 1.4951793294708395e7 0.0
1.4951793294708395e7 4.018447499659664e6 0.0
0.0 0.0 0.0

-4.786086615729981e6 1.6069437520928973e7 0.0
1.6069437520928973e7 -360043.4309971151 0.0
0.0 0.0 0.0

4.265575178164966e6 7.890821724199582e6 0.0
7.890821724199582e6 -1.5084816922250984e7 0.0
0.0 0.0 0.0

-3.0433366816176735e6 8.642341296210922e6 0.0
8.642341296210922e6 1.2198870050209928e6 0.0
0.0 0.0 0.0

-6.853819183631663e6 1.581323955599357e7 0.0
1.581323955599357e7 6.280978808384493e6 0.0
0.0 0.0 0.0

-3.453138749233778e7 3.3539017813739628e7 0.0
3.3539017813739628e7 3.437929242746869e6 0.0
0.0 0.0 0.0

-1.1526907139458813e7 3.190295136956678e6 0.0
3.190295136956678e6 1.5771730951577816e7 0.0
0.0 0.0 0.0

-673253.8039244874 9.772552360234575e6 0.0
9.772552360234575e6 -8.362238588660795e6 0.0
0.0 0.0 0.0

187723.18404922064 5.482058157601761e6 0.0
5.482058157601761e6 -2.8224018077312657e6 0.0
0.0 0.0 0.0

-3.6312020810223883e6 -6.304906220163725e6 0.0
-6.304906220163725e6 5.804022737162593e6 0.0
0.0 0.0 0.0

4.862790690433796e6 5.2044601703385385e6 0.0
5.2044601703385385e6 -1.2768795089259576e7 0.0
0.0 0.0 0.0

-3.424500107147548e6 1.4074787554411447e7 0.0
1.4074787554411447e7 1.4573807251808024e6 0.0
0.0 0.0 0.0

716815.4398788163 1.1530298069643283e7 0.0
1.1530298069643283e7 -1.0343053946950741e7 0.0
0.0 0.0 0.0

-1.1689456821924986e7 8.602808582513094e6 0.0
8.602808582513094e6 1.533574311873169e7 0.0
0.0 0.0 0.0

-3.082942043860711e6 1.438908883941893e7 0.0
1.438908883941893e7 -3.5647857478266363e6 0.0
0.0 0.0 0.0

1.3137337279539965e6 8.507755463779753e6 0.0
8.507755463779753e6 -8.033139686323492e6 0.0
0.0 0.0 0.0

-9.668039860852253e6 1.0875226081595952e7 0.0
1.0875226081595952e7 2.029074222253567e7 0.0
0.0 0.0 0.0

-2.5286017806324232e6 1.1064407599694913e7 0.0
1.1064407599694913e7 -803459.646080735 0.0
0.0 0.0 0.0

-7.443067381766443e6 1.2562927757613605e7 0.0
1.2562927757613605e7 1.1749755121730005e7 0.0
0.0 0.0 0.0

656406.165812646 1.1715548158609482e7 0.0
1.1715548158609482e7 -9.880691148416286e6 0.0
0.0 0.0 0.0

3.060357645438636e7 6.868619787601134e6 0.0
6.868619787601134e6 -3.261876419022564e6 0.0
0.0 0.0 0.0

-3.3520030472101658e6 1.4309249703497805e7 0.0
1.4309249703497805e7 -1.335136314172444e6 0.0
0.0 0.0 0.0

-5.303360816433472e6 1.7579986679699354e7 0.0
1.7579986679699354e7 2.595191139402615e6 0.0
0.0 0.0 0.0

995440.4173841625 9.020484937314738e6 0.0
9.020484937314738e6 -7.770189418009702e6 0.0
0.0 0.0 0.0

1.7659615909689316e6 8.552343411835639e6 0.0
8.552343411835639e6 -7.933825992236885e6 0.0
0.0 0.0 0.0

-1.8891123158121961e6 1.1019625078754649e7 0.0
1.1019625078754649e7 -3.323723978786517e6 0.0
0.0 0.0 0.0

-8.645391113547556e6 4.649823509767722e6 0.0
4.649823509767722e6 1.2089648077621043e7 0.0
0.0 0.0 0.0

782925.6508798394 1.1118904882319847e7 0.0
1.1118904882319847e7 -1.2314188776076127e7 0.0
0.0 0.0 0.0

2.2329428480413626e6 4.423158321752603e6 0.0
4.423158321752603e6 -6.701488828959112e6 0.0
0.0 0.0 0.0

311989.3590879119 1.0312916997571293e7 0.0
1.0312916997571293e7 -7.642827258943585e6 0.0
0.0 0.0 0.0

-1.5760615418401873e7 1.4187885847920764e7 0.0
1.4187885847920764e7 1.1963151131071568e7 0.0
0.0 0.0 0.0

-1.5183863470015828e6 7.9141267735605575e6 0.0
7.9141267735605575e6 -2.3945657423636992e6 0.0
0.0 0.0 0.0

-9.062598456401855e6 1.134224378153121e7 0.0
1.134224378153121e7 2.5123374145348217e7 0.0
0.0 0.0 0.0

-4.605596759778821e6 1.3219744764679726e7 0.0
1.3219744764679726e7 5.776181711202331e6 0.0
0.0 0.0 0.0

2.766222593926763e6 1.1691963176348079e7 0.0
1.1691963176348079e7 -1.7647503144112483e6 0.0
0.0 0.0 0.0

-6.565895450829413e6 1.5761599080951132e7 0.0
1.5761599080951132e7 6.48365733432599e6 0.0
0.0 0.0 0.0

-3.600944030849488e6 1.4578205282014543e7 0.0
1.4578205282014543e7 -558279.2383877641 0.0
0.0 0.0 0.0

-6.597789900317627e6 1.5327933595915128e7 0.0
1.5327933595915128e7 5.987817759788913e6 0.0
0.0 0.0 0.0

-7.309929661582392e6 5.246204255922822e6 0.0
5.246204255922822e6 9.706504343634395e6 0.0
0.0 0.0 0.0

-6.7059376028061e6 8.340366788457222e6 0.0
8.340366788457222e6 8.013780634769745e6 0.0
0.0 0.0 0.0

-1.9569144153376506e6 6.203813477469178e6 0.0
6.203813477469178e6 -284456.26747001166 0.0
0.0 0.0 0.0

4.522023226377543e6 9.391534261914926e6 0.0
9.391534261914926e6 1.6305059521112454e6 0.0
0.0 0.0 0.0

528710.7354651317 1.1936172023282822e7 0.0
1.1936172023282822e7 -9.406322321778249e6 0.0
0.0 0.0 0.0

-3.626470295054544e6 1.4427465815537367e7 0.0
1.4427465815537367e7 -166675.40866852028 0.0
0.0 0.0 0.0

-6.122799093837842e6 1.4860249485567542e7 0.0
1.4860249485567542e7 4.179662143975736e6 0.0
0.0 0.0 0.0

-3.740203238886782e6 788993.1838026252 0.0
788993.1838026252 3.901424098928013e6 0.0
0.0 0.0 0.0

-6.507966560973945e6 1.5826364918482352e7 0.0
1.5826364918482352e7 5.373890777569456e6 0.0
0.0 0.0 0.0

-3.106064717705214e6 1.0397386894813992e7 0.0
1.0397386894813992e7 730559.3084762006 0.0
0.0 0.0 0.0

-6.656081243767855e6 1.6225061304560507e7 0.0
1.6225061304560507e7 6.041607936230188e6 0.0
0.0 0.0 0.0

3.1138066715012975e6 1.11605496178858e7 0.0
1.11605496178858e7 -2.3252039717694814e6 0.0
0.0 0.0 0.0

-4.877590015551703e6 1.648585290703327e7 0.0
1.648585290703327e7 1.5609758467396197e6 0.0
0.0 0.0 0.0

3.781773681415675e6 6.068427252101585e6 0.0
6.068427252101585e6 -1.1293394871065037e7 0.0
0.0 0.0 0.0

-1.1286380751397822e7 3.4245163820330217e6 0.0
3.4245163820330217e6 1.4861516880132183e7 0.0
0.0 0.0 0.0

1.085560109318818e6 1.2275402791152604e7 0.0
1.2275402791152604e7 -7.389219292737224e6 0.0
0.0 0.0 0.0

356829.67116035474 1.2191764051742235e7 0.0
1.2191764051742235e7 -8.882348143943917e6 0.0
0.0 0.0 0.0

-2.2060473891083905e6 1.0587168362402447e7 0.0
1.0587168362402447e7 -1.2019899212427922e6 0.0
0.0 0.0 0.0

-3.373657223824391e6 1.3502884007797357e7 0.0
1.3502884007797357e7 2.0866436835348872e6 0.0
0.0 0.0 0.0

-2.453536471359407e6 1.4876270854882797e7 0.0
1.4876270854882797e7 -3.2856192239187085e6 0.0
0.0 0.0 0.0

1.1492297048687022e6 1.1098796029396864e7 0.0
1.1098796029396864e7 -6.830486323633396e6 0.0
0.0 0.0 0.0

-6.889596674822109e6 6.805065492563381e6 0.0
6.805065492563381e6 6.477771035221202e6 0.0
0.0 0.0 0.0

2.5647170721032233e6 7.699878464545964e6 0.0
7.699878464545964e6 -9.306630271222625e6 0.0
0.0 0.0 0.0

911131.6965382611 1.1684907971701149e7 0.0
1.1684907971701149e7 -9.430114013838373e6 0.0
0.0 0.0 0.0

-2.810173358199256e6 1.1941385710862543e7 0.0
1.1941385710862543e7 6.710254617419576e6 0.0
0.0 0.0 0.0

-2.8494223170377663e6 1.2122857088091165e7 0.0
1.2122857088091165e7 -1.96056945303237e6 0.0
0.0 0.0 0.0

4.604110417561413e6 7.067366331308461e6 0.0
7.067366331308461e6 -1.4491993606985876e7 0.0
0.0 0.0 0.0

5.59307048780303e6 6.311224888632219e6 0.0
6.311224888632219e6 -1.7619874348860584e7 0.0
0.0 0.0 0.0

-4.629228301716126e6 9.825326477541814e6 0.0
9.825326477541814e6 2.14111665347585e6 0.0
0.0 0.0 0.0

-5.980967728014946e6 1.503621360486542e7 0.0
1.503621360486542e7 3.90756355357397e6 0.0
0.0 0.0 0.0

-7.99496350535576e6 1.1676276177069056e6 0.0
1.1676276177069056e6 1.0256818725570152e7 0.0
0.0 0.0 0.0

-5.534000341323338e6 8.71921132480686e6 0.0
8.71921132480686e6 3.6818868954498796e6 0.0
0.0 0.0 0.0

-6.223997058690929e6 1.1790876874069786e7 0.0
1.1790876874069786e7 4.457642434662323e6 0.0
0.0 0.0 0.0

2.3132654421345624e6 7.737479613805116e6 0.0
7.737479613805116e6 -8.57185996536747e6 0.0
0.0 0.0 0.0

4.887456416981979e6 5.103658739384746e6 0.0
5.103658739384746e6 -1.3030807854115728e7 0.0
0.0 0.0 0.0

-5.5663513552616555e6 1.1169532791046167e7 0.0
1.1169532791046167e7 5.117610012966247e6 0.0
0.0 0.0 0.0

-7.946439602771854e6 1.2873819118810223e7 0.0
1.2873819118810223e7 3.231907640001113e7 0.0
0.0 0.0 0.0

-5.495687673744923e6 1.2556748387827376e7 0.0
1.2556748387827376e7 4.513384778771136e6 0.0
0.0 0.0 0.0

-3.941581707440179e6 1.476167230922327e7 0.0
1.476167230922327e7 47165.76204439136 0.0
0.0 0.0 0.0

991323.5241735247 9.465089656656599e6 0.0
9.465089656656599e6 -8.125645322020671e6 0.0
0.0 0.0 0.0

-5.003244255886591e6 1.5664515856639158e7 0.0
1.5664515856639158e7 2.638806065926995e6 0.0
0.0 0.0 0.0

-5.620355971244788e6 1.477067085333431e7 0.0
1.477067085333431e7 4.290760811018843e6 0.0
0.0 0.0 0.0

86181.08995954925 1.2714465643027415e7 0.0
1.2714465643027415e7 8.659306987501435e6 0.0
0.0 0.0 0.0

2.307245620123041e6 4.39798078551357e6 0.0
4.39798078551357e6 -7.017589471297912e6 0.0
0.0 0.0 0.0

-87816.98584631202 1.3801631801525494e7 0.0
1.3801631801525494e7 -5.650656972167243e6 0.0
0.0 0.0 0.0

3.259940225728903e6 4.995962694893179e6 0.0
4.995962694893179e6 -9.680605441672388e6 0.0
0.0 0.0 0.0

-4.852367474904898e6 6.375903562714604e6 0.0
6.375903562714604e6 5.298024506141318e6 0.0
0.0 0.0 0.0

-6.243819443023475e6 1.4059196219281768e7 0.0
1.4059196219281768e7 4.513176324654111e6 0.0
0.0 0.0 0.0

-2.5380524674327644e6 1.244443544134992e7 0.0
1.244443544134992e7 -1.457493744516483e6 0.0
0.0 0.0 0.0

1.8645675023741843e6 7.980268683470183e6 0.0
7.980268683470183e6 -7.447938943399792e6 0.0
0.0 0.0 0.0

850118.6760460907 1.1649221937315537e7 0.0
1.1649221937315537e7 -7.37172623863416e6 0.0
0.0 0.0 0.0

-4.228228762745814e6 1.5018812009227475e7 0.0
1.5018812009227475e7 683634.8536089347 0.0
0.0 0.0 0.0

-1.0148599801815994e7 760514.8384700231 0.0
760514.8384700231 1.3919623132777855e7 0.0
0.0 0.0 0.0

-7.469882958988303e6 9.570411549026038e6 0.0
9.570411549026038e6 9.342956163723748e6 0.0
0.0 0.0 0.0

-4.874192476363899e6 4.927116137916414e6 0.0
4.927116137916414e6 5.442190420938337e6 0.0
0.0 0.0 0.0

-3.4914731669166796e6 1.0003951301061844e7 0.0
1.0003951301061844e7 111572.83214798057 0.0
0.0 0.0 0.0

-6.359843579346966e6 1.5153896503238354e7 0.0
1.5153896503238354e7 6.263113615473787e6 0.0
0.0 0.0 0.0

-3.3729825257187546e6 1.1894302198469581e7 0.0
1.1894302198469581e7 -799491.8673501137 0.0
0.0 0.0 0.0

-5.74288151595694e6 1.548608786680663e7 0.0
1.548608786680663e7 3.1090267062462075e6 0.0
0.0 0.0 0.0

-2.2075991828065617e6 7.207655586937161e6 0.0
7.207655586937161e6 -416305.3361465642 0.0
0.0 0.0 0.0

-6.080434408782639e6 8.06425102574533e6 0.0
8.06425102574533e6 6.865705459627277e6 0.0
0.0 0.0 0.0

-5.903713914805501e6 1.5201634221110001e7 0.0
1.5201634221110001e7 3.657046471849203e6 0.0
0.0 0.0 0.0

-1.6378584745581145e6 1.4437205098493833e7 0.0
1.4437205098493833e7 -4.715637038542957e6 0.0
0.0 0.0 0.0

-173259.4671149971 1.3165258648313858e7 0.0
1.3165258648313858e7 7.8385410081087025e6 0.0
0.0 0.0 0.0

-3.208826615186207e6 1.0119164617372157e7 0.0
1.0119164617372157e7 1.0375341215613082e6 0.0
0.0 0.0 0.0

-1.447903215256053e6 1.6034065451420164e7 0.0
1.6034065451420164e7 -3.4546689047240852e6 0.0
0.0 0.0 0.0

-4.1836271657428257e6 1.0639125260143992e7 0.0
1.0639125260143992e7 2.506089357519867e6 0.0
0.0 0.0 0.0

-7.051346770714727e6 9.214995905478787e6 0.0
9.214995905478787e6 8.421874833665775e6 0.0
0.0 0.0 0.0

-2.1605223299248163e6 7.643921224145164e6 0.0
7.643921224145164e6 221137.82151275605 0.0
0.0 0.0 0.0

-5.826178196875542e6 1.5339805195822174e7 0.0
1.5339805195822174e7 3.369086739408777e6 0.0
0.0 0.0 0.0

3.868421405125407e6 6.523599938658246e6 0.0
6.523599938658246e6 -1.1091564604564842e7 0.0
0.0 0.0 0.0

3.2003578463573297e6 7.147514029558717e6 0.0
7.147514029558717e6 -1.0361754634514358e7 0.0
0.0 0.0 0.0

-6.351035762469217e6 1.5374042033000967e7 0.0
1.5374042033000967e7 6.7981330572738e6 0.0
0.0 0.0 0.0

-79981.66996604158 8.617649223077301e6 0.0
8.617649223077301e6 -4.387958425870918e6 0.0
0.0 0.0 0.0

1.8305573678527717e6 8.287576070370243e6 0.0
8.287576070370243e6 -7.683486692816e6 0.0
0.0 0.0 0.0

-5.97327509429114e6 1.675677055458273e7 0.0
1.675677055458273e7 3.5070314155695504e6 0.0
0.0 0.0 0.0

-4.722522547020401e6 1.545944942662464e7 0.0
1.545944942662464e7 2.0061053042244848e6 0.0
0.0 0.0 0.0

-2.9738009428496878e6 1.2902687499932783e7 0.0
1.2902687499932783e7 -2.0978119650560403e6 0.0
0.0 0.0 0.0

927029.8339947853 1.142892150222046e7 0.0
1.142892150222046e7 -1.1737328906552646e7 0.0
0.0 0.0 0.0

-6.6493523172800485e6 1.6830334836476117e7 0.0
1.6830334836476117e7 5.1355464698024e6 0.0
0.0 0.0 0.0

-7.731570249148048e6 9.928550481184134e6 0.0
9.928550481184134e6 9.871932300619278e6 0.0
0.0 0.0 0.0

1.7990926674389425e6 6.152961913275848e6 0.0
6.152961913275848e6 -7.719433688066574e6 0.0
0.0 0.0 0.0

-6.182087402614583e6 1.8304105783236705e7 0.0
1.8304105783236705e7 3.9915600848239553e6 0.0
0.0 0.0 0.0

-3.3716532879846683e6 1.3558241438895054e7 0.0
1.3558241438895054e7 4.462212503672553e6 0.0
0.0 0.0 0.0

-4.479235838802693e6 1.5245832587597892e7 0.0
1.5245832587597892e7 1.4007357656301674e6 0.0
0.0 0.0 0.0

143015.27476478973 1.24507378700035e7 0.0
1.24507378700035e7 -8.370959776040841e6 0.0
0.0 0.0 0.0

-5.376449985018539e6 1.5756829039409153e7 0.0
1.5756829039409153e7 3.550198402945404e6 0.0
0.0 0.0 0.0

-6.38544314637544e6 1.3669877351275971e7 0.0
1.3669877351275971e7 7.876959517973586e6 0.0
0.0 0.0 0.0

-5.498039488309262e6 1.573897766224755e7 0.0
1.573897766224755e7 2.584794205234777e6 0.0
0.0 0.0 0.0

-4.924676770355224e6 1.9726028921849914e7 0.0
1.9726028921849914e7 1.4400121877400668e6 0.0
0.0 0.0 0.0

-9.377442669421306e6 7.215961339955076e6 0.0
7.215961339955076e6 1.2911486639355376e7 0.0
0.0 0.0 0.0

1.523468990085599e6 8.844393300453642e6 0.0
8.844393300453642e6 -7.494703053583302e6 0.0
0.0 0.0 0.0

-9.515618213771895e6 4.93121336059637e6 0.0
4.93121336059637e6 1.3070114845813978e7 0.0
0.0 0.0 0.0

-5.950502989994428e6 7.247834442729546e6 0.0
7.247834442729546e6 4.624752967908695e6 0.0
0.0 0.0 0.0

-324179.68304831407 -1.3906393890185119e6 0.0
-1.3906393890185119e6 1.0685408837599726e6 0.0
0.0 0.0 0.0

152302.179717536 -1.4219319138525245e6 0.0
-1.4219319138525245e6 538003.1800524371 0.0
0.0 0.0 0.0

-9.864104719052084e6 7.5265210323525e6 0.0
7.5265210323525e6 1.3249908252026647e7 0.0
0.0 0.0 0.0

2.591098130278252e6 1.2227311739877222e7 0.0
1.2227311739877222e7 2.6351746409960445e6 0.0
0.0 0.0 0.0

-4.835303764202053e6 1.6096427466185944e7 0.0
1.6096427466185944e7 1.8378206645033269e6 0.0
0.0 0.0 0.0

-2.824288110356829e6 1.3251807156310387e7 0.0
1.3251807156310387e7 -1.7096503249671808e6 0.0
0.0 0.0 0.0

1.4659886341140224e6 9.082344274742695e6 0.0
9.082344274742695e6 -7.772459757173307e6 0.0
0.0 0.0 0.0

98104.20612574555 1.2846511228460858e7 0.0
1.2846511228460858e7 6.75714590782464e6 0.0
0.0 0.0 0.0

-6.67403833214822e6 1.7076996975679446e7 0.0
1.7076996975679446e7 5.993617472745536e6 0.0
0.0 0.0 0.0

-6.199541429093202e6 1.7035613874284785e7 0.0
1.7035613874284785e7 3.752240907248556e6 0.0
0.0 0.0 0.0

-6.289507802293183e6 1.745285731679334e7 0.0
1.745285731679334e7 3.8059054463311187e6 0.0
0.0 0.0 0.0

-7.009258882226854e6 1.1100276201243231e7 0.0
1.1100276201243231e7 6.230668507685298e6 0.0
0.0 0.0 0.0

-5.167601894110278e6 9.93634733059456e6 0.0
9.93634733059456e6 2.9574200001193276e6 0.0
0.0 0.0 0.0

-3.1194166051876303e6 7.837329125851961e6 0.0
7.837329125851961e6 709091.6583210321 0.0
0.0 0.0 0.0

-6.429085134358237e6 1.377241821266232e7 0.0
1.377241821266232e7 6.4541751680070665e6 0.0
0.0 0.0 0.0

-4.340682930283556e6 9.798083323402496e6 0.0
9.798083323402496e6 3.1154285492801247e6 0.0
0.0 0.0 0.0

-1.1483380769000743e7 6.555496218841426e6 0.0
6.555496218841426e6 1.4819469899038872e7 0.0
0.0 0.0 0.0

1.4158790963678793e6 9.350380389903804e6 0.0
9.350380389903804e6 -7.999737584541798e6 0.0
0.0 0.0 0.0

-6.946319123499046e6 1.2259366409412e7 0.0
1.2259366409412e7 6.017316103894059e6 0.0
0.0 0.0 0.0

-1.1527923593414372e7 5.439790941664038e6 0.0
5.439790941664038e6 1.5255347329993177e7 0.0
0.0 0.0 0.0

-3.0276385496028797e6 1.2358170900106618e7 0.0
1.2358170900106618e7 5.071888692640664e6 0.0
0.0 0.0 0.0

-4.474245621980494e6 1.0552721708830195e7 0.0
1.0552721708830195e7 1.54517979072373e6 0.0
0.0 0.0 0.0

-5.560925621110434e6 1.6090213601245519e7 0.0
1.6090213601245519e7 3.886848700683534e6 0.0
0.0 0.0 0.0

-5.166054320565039e6 1.5408380244181702e7 0.0
1.5408380244181702e7 3.198076513409163e6 0.0
0.0 0.0 0.0

-6.349964387809843e6 1.402524966129048e7 0.0
1.402524966129048e7 7.58603239670036e6 0.0
0.0 0.0 0.0

748007.3370234226 1.168774777310176e7 0.0
1.168774777310176e7 -1.0607089015533652e7 0.0
0.0 0.0 0.0

-6.396519629784422e6 1.3626019698989056e7 0.0
1.3626019698989056e7 5.16752579826557e6 0.0
0.0 0.0 0.0

-7.544563750108808e6 1.0486726142923024e7 0.0
1.0486726142923024e7 9.333693057044528e6 0.0
0.0 0.0 0.0

-2.5349014446861646e6 1.284776360327919e7 0.0
1.284776360327919e7 -2.0161489680659552e6 0.0
0.0 0.0 0.0

-5.215823773050368e6 1.7998670848993514e7 0.0
1.7998670848993514e7 2.532523455450997e6 0.0
0.0 0.0 0.0

-6.3407103697482245e6 1.4377403178688597e7 0.0
1.4377403178688597e7 7.370606478577866e6 0.0
0.0 0.0 0.0

-2.6707564614533056e6 1.2687139862387437e7 0.0
1.2687139862387437e7 -2.749772765802554e6 0.0
0.0 0.0 0.0

3.0749528473091177e6 7.411002064991577e6 0.0
7.411002064991577e6 -1.0608486582593182e7 0.0
0.0 0.0 0.0

-6.006631969013846e6 1.1331917267753446e7 0.0
1.1331917267753446e7 6.050821077718417e6 0.0
0.0 0.0 0.0

-2.473920842592028e6 1.5761688319253711e7 0.0
1.5761688319253711e7 -2.779290593519477e6 0.0
0.0 0.0 0.0

1.7653666950471643e6 4.441840316904395e6 0.0
4.441840316904395e6 -5.736654539968361e6 0.0
0.0 0.0 0.0

3.4670235153577244e6 7.733397078746238e6 0.0
7.733397078746238e6 -1.3591940019266184e7 0.0
0.0 0.0 0.0

-1.629891398556818e6 1.2243764501901276e7 0.0
1.2243764501901276e7 -3.8704869110853383e6 0.0
0.0 0.0 0.0

1.32113444012941e6 1.287594421026608e7 0.0
1.287594421026608e7 4.884506493740963e6 0.0
0.0 0.0 0.0

2.5852467510437802e6 7.584815779672829e6 0.0
7.584815779672829e6 -1.0880427503757782e7 0.0
0.0 0.0 0.0

2.281311994860981e6 8.115751466117542e6 0.0
8.115751466117542e6 -1.0620247172319118e7 0.0
0.0 0.0 0.0

258816.83403339906 1.0093400424535228e7 0.0
1.0093400424535228e7 1.0827136643445897e6 0.0
0.0 0.0 0.0

-1.0510366783603847e7 1.7827195419262943e6 0.0
1.7827195419262943e6 1.3630239943547029e7 0.0
0.0 0.0 0.0

-3.7614496568877324e6 7.627653598490535e6 0.0
7.627653598490535e6 1.8097636761863858e6 0.0
0.0 0.0 0.0

-2.0406375033123894e6 1.2582470663652789e7 0.0
1.2582470663652789e7 -1.5216544736397974e7 0.0
0.0 0.0 0.0

-5.9493662702331785e6 9.433625477619214e6 0.0
9.433625477619214e6 4.307994903219506e6 0.0
0.0 0.0 0.0

-7.77798166090888e6 5.451086109462443e6 0.0
5.451086109462443e6 7.976049802030582e6 0.0
0.0 0.0 0.0

-1.6684892078699255e6 1.167704171557162e7 0.0
1.167704171557162e7 4.974323079856943e6 0.0
0.0 0.0 0.0

-3.034793567045898e6 -5.071952716087299e6 0.0
-5.071952716087299e6 4.5533125312108975e6 0.0
0.0 0.0 0.0

-6.352642367087549e6 1.1337629960248115e7 0.0
1.1337629960248115e7 4.89062838567098e6 0.0
0.0 0.0 0.0

-6.422774816602882e6 1.528683624549096e7 0.0
1.528683624549096e7 6.56329754192403e6 0.0
0.0 0.0 0.0

-782262.4913353284 1.1599457404805828e7 0.0
1.1599457404805828e7 -6.702475307445581e6 0.0
0.0 0.0 0.0

-658220.4795953748 4.429912219078491e6 0.0
4.429912219078491e6 -831220.7932449518 0.0
0.0 0.0 0.0

-2.751013599722022e6 7.757042916517491e6 0.0
7.757042916517491e6 79863.51038531889 0.0
0.0 0.0 0.0

4.5890780467500035e6 7.637319831010375e6 0.0
7.637319831010375e6 -1.9971176014049936e7 0.0
0.0 0.0 0.0

-4.617101411431999e6 1.833666305636616e7 0.0
1.833666305636616e7 1.406169827584157e6 0.0
0.0 0.0 0.0

-1.1755325759197164e7 5.6073743809839e6 0.0
5.6073743809839e6 1.8663452075718015e7 0.0
0.0 0.0 0.0

-2.7119491904121973e6 1.1516553324860215e7 0.0
1.1516553324860215e7 -3.9555638388576256e6 0.0
0.0 0.0 0.0

-9.221026770312663e6 4.790379746784074e6 0.0
4.790379746784074e6 1.004735788932585e7 0.0
0.0 0.0 0.0

-7.884082528941445e6 1.5063868036971416e7 0.0
1.5063868036971416e7 5.668555064663476e6 0.0
0.0 0.0 0.0

-644600.3884280357 1.2900924947951013e7 0.0
1.2900924947951013e7 -2.300032084524518e6 0.0
0.0 0.0 0.0

-1.0164287763919369e6 1.2555336919307321e7 0.0
1.2555336919307321e7 3.5691860129812355e6 0.0
0.0 0.0 0.0

3.770417097865396e6 7.464024224556416e6 0.0
7.464024224556416e6 -1.4094454719295133e7 0.0
0.0 0.0 0.0

-4.470262476160318e6 9.219640881673649e6 0.0
9.219640881673649e6 -1.2456408021894519e6 0.0
0.0 0.0 0.0

-6.360557704762597e6 2.080463740008684e7 0.0
2.080463740008684e7 -480498.35257616197 0.0
0.0 0.0 0.0

-6.409397707196707e6 1.1544544187319756e7 0.0
1.1544544187319756e7 6.899224190456947e6 0.0
0.0 0.0 0.0

-5.227746015960859e6 -7.7874644682235485e6 0.0
-7.7874644682235485e6 9.02739188345553e6 0.0
0.0 0.0 0.0

-3.204101211604762e6 1.2588477345645925e7 0.0
1.2588477345645925e7 5.143770452134129e6 0.0
0.0 0.0 0.0

-5.890916221797321e6 1.5884310146175299e7 0.0
1.5884310146175299e7 3.121982602458196e6 0.0
0.0 0.0 0.0

-2.0162772116217825e6 7.300878107105473e6 0.0
7.300878107105473e6 -1.070998959449552e6 0.0
0.0 0.0 0.0

-3.3565572005332587e6 1.3748675514970874e7 0.0
1.3748675514970874e7 1.0972700730010338e7 0.0
0.0 0.0 0.0

-7.676772602018231e6 8.646921507620119e6 0.0
8.646921507620119e6 7.555528151615912e6 0.0
0.0 0.0 0.0

-6.648404121657236e6 7.412561316588739e6 0.0
7.412561316588739e6 5.90355495623349e6 0.0
0.0 0.0 0.0

-1.1854754545807082e7 4.036049826919897e6 0.0
4.036049826919897e6 1.8425627503616467e7 0.0
0.0 0.0 0.0

-4.1498775524490587e6 1.2738433176632436e7 0.0
1.2738433176632436e7 6.980075122972408e6 0.0
0.0 0.0 0.0

-8.207679933291256e6 1.682596493919705e7 0.0
1.682596493919705e7 7.0326718922808645e6 0.0
0.0 0.0 0.0

-7.0696439473241605e6 1.8593469545784038e7 0.0
1.8593469545784038e7 4.171890639702587e6 0.0
0.0 0.0 0.0

-6.9389039961294085e6 1.2866822154991388e7 0.0
1.2866822154991388e7 6.331001550111413e6 0.0
0.0 0.0 0.0

1.7007544339967766e6 4.220317018095761e6 0.0
4.220317018095761e6 -5.565219576162633e6 0.0
0.0 0.0 0.0

1.9963734779033586e6 8.544333236856464e6 0.0
8.544333236856464e6 -8.603677750168039e6 0.0
0.0 0.0 0.0

1.533416450587335e6 8.3069677525837235e6 0.0
8.3069677525837235e6 -6.985288508317637e6 0.0
0.0 0.0 0.0

-5.711084186436552e6 1.0042502720061095e7 0.0
1.0042502720061095e7 3.8858749782458767e6 0.0
0.0 0.0 0.0

-1.1844460053818464e7 2.394802298812449e7 0.0
2.394802298812449e7 1.6619601679264419e6 0.0
0.0 0.0 0.0

-2.1766280338051603e6 6.81288646919306e6 0.0
6.81288646919306e6 -367122.6121243716 0.0
0.0 0.0 0.0

-4.931489585169001e6 1.6861343096479606e7 0.0
1.6861343096479606e7 1.6482292280350924e6 0.0
0.0 0.0 0.0

-2.8761615266177612e6 1.619101206592485e7 0.0
1.619101206592485e7 -2.044910586542386e6 0.0
0.0 0.0 0.0

-1.8218584151856676e6 7.6831046103358e6 0.0
7.6831046103358e6 -504084.6741348919 0.0
0.0 0.0 0.0

-609490.856032479 9.032409883001374e6 0.0
9.032409883001374e6 -1.4842203185892552e6 0.0
0.0 0.0 0.0

2.901416185355673e6 1.3549221469961163e7 0.0
1.3549221469961163e7 6.860456351898631e6 0.0
0.0 0.0 0.0

797407.7534384625 1.4106679142379193e7 0.0
1.4106679142379193e7 8.603294603522211e6 0.0
0.0 0.0 0.0

-1.403745640627965e6 1.2500728732141761e7 0.0
1.2500728732141761e7 3.255891545629331e6 0.0
0.0 0.0 0.0

-7.154109328051254e6 8.320033405343757e6 0.0
8.320033405343757e6 6.507197768533736e6 0.0
0.0 0.0 0.0

-1.074999305931771e7 2.2592601077590443e7 0.0
2.2592601077590443e7 2.562949834959611e6 0.0
0.0 0.0 0.0

-1.1949445891495883e7 1.566048295955977e7 0.0
1.566048295955977e7 6.642502799540305e6 0.0
0.0 0.0 0.0

-7.221063859595062e6 7.6754589522126615e6 0.0
7.6754589522126615e6 7.078668443103406e6 0.0
0.0 0.0 0.0

2.6864526672476847e6 9.573223606858524e6 0.0
9.573223606858524e6 -1.4687177579676578e7 0.0
0.0 0.0 0.0

5.311049735001568e6 4.87630816610626e6 0.0
4.87630816610626e6 -1.4523343744541012e7 0.0
0.0 0.0 0.0

154013.8467733916 1.122489687423762e7 0.0
1.122489687423762e7 -7.138188956215927e6 0.0
0.0 0.0 0.0

1.7076685610148637e6 8.812104608199175e6 0.0
8.812104608199175e6 -8.181957997944137e6 0.0
0.0 0.0 0.0

-543474.4004982507 1.1913183101309435e7 0.0
1.1913183101309435e7 -6.158123805206417e6 0.0
0.0 0.0 0.0

-1.316142554831101e7 2.5541873099238258e7 0.0
2.5541873099238258e7 -302589.4609527588 0.0
0.0 0.0 0.0

-5.349819208450306e6 1.3771442197983153e7 0.0
1.3771442197983153e7 3.839439422667111e6 0.0
0.0 0.0 0.0

-2.2645424117954494e6 1.3657286327619018e7 0.0
1.3657286327619018e7 -5.076313081014879e6 0.0
0.0 0.0 0.0

-2.156478779865573e6 1.3098419165871933e7 0.0
1.3098419165871933e7 -4.970777001230741e6 0.0
0.0 0.0 0.0

2.0654365476206099e6 8.005775382766572e6 0.0
8.005775382766572e6 -8.120882689355623e6 0.0
0.0 0.0 0.0

-7.00276356261974e6 1.3708005916603908e7 0.0
1.3708005916603908e7 6.959575989699025e6 0.0
0.0 0.0 0.0

-2.392031844493502e6 1.3140694139407037e7 0.0
1.3140694139407037e7 5.51913637885151e6 0.0
0.0 0.0 0.0

-4.740952696880455e6 1.4436788652215565e7 0.0
1.4436788652215565e7 4.334791364723969e6 0.0
0.0 0.0 0.0

-1.0857258020960508e7 4.050446877038145e6 0.0
4.050446877038145e6 3.965060503608023e7 0.0
0.0 0.0 0.0

-2.135373851126612e6 1.9230568587098764e6 0.0
1.9230568587098764e6 2.1940582734900913e6 0.0
0.0 0.0 0.0

-2.6089502163572226e7 3.771620909617948e7 0.0
3.771620909617948e7 -1.6960289501042217e7 0.0
0.0 0.0 0.0

-509866.99562735134 1.2882090543494828e7 0.0
1.2882090543494828e7 4.508783226162288e6 0.0
0.0 0.0 0.0

-9.690771689928493e6 2.1678802908503573e7 0.0
2.1678802908503573e7 3.4899122712068385e6 0.0
0.0 0.0 0.0

-914045.9712062122 1.153806525455287e7 0.0
1.153806525455287e7 -4.704086872161512e6 0.0
0.0 0.0 0.0

-822520.7437704527 1.3489722308436345e7 0.0
1.3489722308436345e7 -6.671788058950823e6 0.0
0.0 0.0 0.0

-6.133567306513111e6 1.455769261121542e7 0.0
1.455769261121542e7 5.525628900670154e6 0.0
0.0 0.0 0.0

4.224814934278281e6 5.117679022348093e6 0.0
5.117679022348093e6 -1.108093146116181e7 0.0
0.0 0.0 0.0

3.672714725083076e6 1.129191581791257e7 0.0
1.129191581791257e7 -2.1094557544724904e6 0.0
0.0 0.0 0.0

1.9453421812204113e6 8.82810079936497e6 0.0
8.82810079936497e6 -8.900765307698917e6 0.0
0.0 0.0 0.0

-919487.1749556002 1.5105546010158326e7 0.0
1.5105546010158326e7 -4.560836213607163e6 0.0
0.0 0.0 0.0

4.266451786717814e6 7.155011293582013e6 0.0
7.155011293582013e6 -1.3620501813633041e7 0.0
0.0 0.0 0.0

-5.715695493099998e6 1.224349319033625e7 0.0
1.224349319033625e7 5.160491278026153e6 0.0
0.0 0.0 0.0

2.0324899706674777e6 6.218335786803353e6 0.0
6.218335786803353e6 -6.957724284495733e6 0.0
0.0 0.0 0.0

-789139.7895196364 7.739273827239324e6 0.0
7.739273827239324e6 -2.1445843644786407e6 0.0
0.0 0.0 0.0

-6.258668657705602e6 1.3804682894433515e7 0.0
1.3804682894433515e7 -166332.05534137622 0.0
0.0 0.0 0.0

2.749072735185275e6 7.923216099014241e6 0.0
7.923216099014241e6 -1.0315781570216084e7 0.0
0.0 0.0 0.0

-2.4475012295725625e6 1.0510493092581622e7 0.0
1.0510493092581622e7 -1.9925621294334377e6 0.0
0.0 0.0 0.0

-2.9229969696010426e6 1.3611236160359342e7 0.0
1.3611236160359342e7 -3.5033669061617646e6 0.0
0.0 0.0 0.0

-5.503700671380419e6 1.3190851317101745e7 0.0
1.3190851317101745e7 9.067912159947082e6 0.0
0.0 0.0 0.0

1.2011940968459744e6 1.071525816013869e7 0.0
1.071525816013869e7 -3.886038786974848e6 0.0
0.0 0.0 0.0

-5.304701655288347e6 9.39549589900687e6 0.0
9.39549589900687e6 3.313027173561382e6 0.0
0.0 0.0 0.0

-1.2204017356964815e7 1.8576002056947143e6 0.0
1.8576002056947143e6 1.5490648377941705e7 0.0
0.0 0.0 0.0

-5.290292329009201e6 1.3298430558051746e7 0.0
1.3298430558051746e7 9.22372246877337e6 0.0
0.0 0.0 0.0

-7.893587054517902e6 9.525663986607093e6 0.0
9.525663986607093e6 7.93625615284231e6 0.0
0.0 0.0 0.0

-9.745199647169601e6 -613003.679660078 0.0
-613003.679660078 1.2357074220694024e7 0.0
0.0 0.0 0.0

-6.650588517992912e6 1.1098206167470766e7 0.0
1.1098206167470766e7 7.4520616007845905e6 0.0
0.0 0.0 0.0

-6.636407490479521e6 1.3252778605386617e7 0.0
1.3252778605386617e7 8.027931851579851e6 0.0
0.0 0.0 0.0

-1.7594809451651333e6 6.07171070757411e6 0.0
6.07171070757411e6 393187.2860586671 0.0
0.0 0.0 0.0

-2.528912457896007e6 1.3373266866978519e7 0.0
1.3373266866978519e7 -4.266453331066722e6 0.0
0.0 0.0 0.0

-6.123982819762381e6 1.4272692728563482e7 0.0
1.4272692728563482e7 4.1930370334784873e6 0.0
0.0 0.0 0.0

-8.10259684529878e6 1.0014054251539322e7 0.0
1.0014054251539322e7 8.585547519870024e6 0.0
0.0 0.0 0.0

-1.1958701852025025e7 -2.402230728572372e6 0.0
-2.402230728572372e6 1.961563900358393e7 0.0
0.0 0.0 0.0

-3.024079289272873e6 1.3033088081582528e7 0.0
1.3033088081582528e7 4.196243417946724e6 0.0
0.0 0.0 0.0

-6.20566314758546e6 7.433679253511676e6 0.0
7.433679253511676e6 7.387586094245771e6 0.0
0.0 0.0 0.0

2.7233708043277506e6 9.358876158513872e6 0.0
9.358876158513872e6 -1.4021386265292387e7 0.0
0.0 0.0 0.0

-7.123010315480681e6 1.2929054920028526e7 0.0
1.2929054920028526e7 1.2229991159103958e7 0.0
0.0 0.0 0.0

-8.743145186527837e6 8.038554134780939e6 0.0
8.038554134780939e6 1.1779843965432838e7 0.0
0.0 0.0 0.0

1.5097196992219822e6 8.03536497063433e6 0.0
8.03536497063433e6 -6.734596814843042e6 0.0
0.0 0.0 0.0

4.381620878062941e6 5.743129091679347e6 0.0
5.743129091679347e6 -1.265306189742359e7 0.0
0.0 0.0 0.0

-2.5390453541022977e6 1.3516257821654793e7 0.0
1.3516257821654793e7 7.111650297403363e6 0.0
0.0 0.0 0.0

-4.645462758319579e6 1.3679789612049105e7 0.0
1.3679789612049105e7 9.418041975165337e6 0.0
0.0 0.0 0.0

-1.2075322301050902e6 1.1119136671077171e7 0.0
1.1119136671077171e7 -3.407315435127566e6 0.0
0.0 0.0 0.0

-6.358217269410959e6 1.4741238119980337e7 0.0
1.4741238119980337e7 7.161400505106478e6 0.0
0.0 0.0 0.0

-7.966005904491581e6 1.990374595043704e7 0.0
1.990374595043704e7 4.07714532845014e6 0.0
0.0 0.0 0.0

-138679.23171985568 1.275557263084006e7 0.0
1.275557263084006e7 -7.810548942952946e6 0.0
0.0 0.0 0.0

-3.0740952458433327e6 2.226429122851773e6 0.0
2.226429122851773e6 3.197530777422947e6 0.0
0.0 0.0 0.0

2.0741019844156345e6 1.027949324953991e7 0.0
1.027949324953991e7 -1.2442794527126852e7 0.0
0.0 0.0 0.0

-6.812102075920666e6 1.3084756411275908e7 0.0
1.3084756411275908e7 7.785167045139381e6 0.0
0.0 0.0 0.0

-8.680002380223963e6 6.98141337108241e6 0.0
6.98141337108241e6 1.2146357132370977e7 0.0
0.0 0.0 0.0

75588.99111233099 1.1276484942486042e7 0.0
1.1276484942486042e7 1.4977717900450886e6 0.0
0.0 0.0 0.0

3.6891447159121092e6 8.2769726052090805e6 0.0
8.2769726052090805e6 -1.5662720649438977e7 0.0
0.0 0.0 0.0

2.573248929238418e6 9.232832622167002e6 0.0
9.232832622167002e6 -1.3222886861044945e7 0.0
0.0 0.0 0.0

-6.314554362803466e6 2.1684952928372607e7 0.0
2.1684952928372607e7 -1.7627100846072086e6 0.0
0.0 0.0 0.0

-5.193848624234129e6 1.397425350653554e7 0.0
1.397425350653554e7 3.535688074183205e6 0.0
0.0 0.0 0.0

-6.037095800181649e6 1.4767009534923397e7 0.0
1.4767009534923397e7 5.23031476957079e6 0.0
0.0 0.0 0.0

-4.881988209808909e6 1.4632145033580897e7 0.0
1.4632145033580897e7 1.3414709176778006e6 0.0
0.0 0.0 0.0

3.4667665074648145e6 5.310061577199626e6 0.0
5.310061577199626e6 -8.908439381151358e6 0.0
0.0 0.0 0.0

476096.9927101126 9.368137623016853e6 0.0
9.368137623016853e6 -5.931158151702289e6 0.0
0.0 0.0 0.0

-6.655256956446409e6 1.2867181499483718e7 0.0
1.2867181499483718e7 7.296332468344245e6 0.0
0.0 0.0 0.0

-1.831080269838374e6 1.3884863645723777e7 0.0
1.3884863645723777e7 -4.71150504127721e6 0.0
0.0 0.0 0.0

-7.5044437709032325e6 1.9419554990518637e7 0.0
1.9419554990518637e7 4.198545382911021e6 0.0
0.0 0.0 0.0

-2.0062651791494628e6 7.218931624061356e6 0.0
7.218931624061356e6 256097.23381010932 0.0
0.0 0.0 0.0

-1.1713481367637439e7 3.3353248162059933e6 0.0
3.3353248162059933e6 1.3468001024892185e7 0.0
0.0 0.0 0.0

-7.315554922708679e6 1.9005284199746624e7 0.0
1.9005284199746624e7 4.307758383444447e6 0.0
0.0 0.0 0.0

-3.2543662394725396e6 1.3871692547112107e7 0.0
1.3871692547112107e7 -2.835879570003516e6 0.0
0.0 0.0 0.0

1.5957179834407219e6 8.220954871528624e6 0.0
8.220954871528624e6 -8.463275874897102e6 0.0
0.0 0.0 0.0

-5.373354682162789e6 9.972214317272982e6 0.0
9.972214317272982e6 5.08697753097827e6 0.0
0.0 0.0 0.0

3.95073754976211e6 7.95761842689921e6 0.0
7.95761842689921e6 -1.6108170077849295e7 0.0
0.0 0.0 0.0

-5.895362491312576e6 1.6761453171748409e7 0.0
1.6761453171748409e7 4.394242244225768e6 0.0
0.0 0.0 0.0

-3.093048106278818e6 1.3664372039647324e7 0.0
1.3664372039647324e7 3.644381571965753e6 0.0
0.0 0.0 0.0

2.3948674249099297e6 9.973311759191439e6 0.0
9.973311759191439e6 -1.4788940861287557e7 0.0
0.0 0.0 0.0

-6.557438948973597e6 1.5080704405027343e7 0.0
1.5080704405027343e7 5.585331506281762e6 0.0
0.0 0.0 0.0

-1.1995004003163975e7 3.1594105388976564e6 0.0
3.1594105388976564e6 1.4167331312052673e7 0.0
0.0 0.0 0.0

1.2538588977026404e6 7.929827484329057e6 0.0
7.929827484329057e6 -7.572552529551845e6 0.0
0.0 0.0 0.0

-2.243077026042129e6 1.1156419573970748e7 0.0
1.1156419573970748e7 4.542570340631283e6 0.0
0.0 0.0 0.0

-6.058026369404821e6 1.3898211557240378e7 0.0
1.3898211557240378e7 5.569326925816385e6 0.0
0.0 0.0 0.0

1.9787420007368075e6 1.0399872843314715e7 0.0
1.0399872843314715e7 -1.4542945136920102e7 0.0
0.0 0.0 0.0

-1.4790763840583455e7 2.7702145208225694e7 0.0
2.7702145208225694e7 -3.338736020970431e6 0.0
0.0 0.0 0.0

-8.760065697334949e6 9.368717815882837e6 0.0
9.368717815882837e6 1.0515591042793598e7 0.0
0.0 0.0 0.0

-1.8360637440076e6 1.3095293165834546e7 0.0
1.3095293165834546e7 -1.6705924243144974e7 0.0
0.0 0.0 0.0

-1.7885486214239947e6 7.453987958129481e6 0.0
7.453987958129481e6 -376894.44603518205 0.0
0.0 0.0 0.0

-6.755380237296056e6 1.154162966331921e7 0.0
1.154162966331921e7 5.741783759223319e6 0.0
0.0 0.0 0.0

-9.09841682221596e6 1.1522047999380032e7 0.0
1.1522047999380032e7 1.3170223788244236e7 0.0
0.0 0.0 0.0

-4.969769530212507e6 9.267874546555469e6 0.0
9.267874546555469e6 4.494418908671592e6 0.0
0.0 0.0 0.0

-9.779935329860952e6 1.1779659464008864e7 0.0
1.1779659464008864e7 2.7410771391109988e7 0.0
0.0 0.0 0.0

-5.882453791505516e6 1.1793685507475963e7 0.0
1.1793685507475963e7 5.598491207255629e6 0.0
0.0 0.0 0.0

953119.8292117314 1.1561592530973323e7 0.0
1.1561592530973323e7 -1.1264790774813201e7 0.0
0.0 0.0 0.0

-346732.5850668943 1.306720507992535e7 0.0
1.306720507992535e7 -7.206883753057897e6 0.0
0.0 0.0 0.0

6.012896837712178e7 1.2552450846467339e7 0.0
1.2552450846467339e7 1.6968193834010735e6 0.0
0.0 0.0 0.0

-5.320055781292602e6 -7.866785729449789e6 0.0
-7.866785729449789e6 9.774085876665685e6 0.0
0.0 0.0 0.0

5.054602313843886e6 5.003627853804856e6 0.0
5.003627853804856e6 -1.3639608051688923e7 0.0
0.0 0.0 0.0

-973124.8017600907 5.29833139072319e6 0.0
5.29833139072319e6 -845992.8722394243 0.0
0.0 0.0 0.0

-4.547288877197277e6 1.4367214445904115e7 0.0
1.4367214445904115e7 723019.1498625732 0.0
0.0 0.0 0.0

-8.291217349002841e6 -9.105213369126525e6 0.0
-9.105213369126525e6 2.0874002878795166e7 0.0
0.0 0.0 0.0

-1.5458905022533205e6 1.1476737043326546e7 0.0
1.1476737043326546e7 -1.2259951568206593e7 0.0
0.0 0.0 0.0

-8.666895719582863e6 5.859640226144621e6 0.0
5.859640226144621e6 1.2092454206760418e7 0.0
0.0 0.0 0.0

-8.395256739114083e6 1.0389831726358596e7 0.0
1.0389831726358596e7 9.092229205998467e6 0.0
0.0 0.0 0.0

5.358747586718327e6 4.838991206368184e6 0.0
4.838991206368184e6 -1.4838143998870922e7 0.0
0.0 0.0 0.0

-187434.52538761008 1.1473743103778556e7 0.0
1.1473743103778556e7 -6.521669656001308e6 0.0
0.0 0.0 0.0

-8.621378384218255e6 2.0474341620211177e7 0.0
2.0474341620211177e7 4.307653794588305e6 0.0
0.0 0.0 0.0

882990.7984137777 8.269155948800999e6 0.0
8.269155948800999e6 -7.101388820151436e6 0.0
0.0 0.0 0.0

-1.019111932905182e6 1.3764851451035855e7 0.0
1.3764851451035855e7 -1.3479641725736894e6 0.0
0.0 0.0 0.0

-7.312281357323963e6 5.222532865847477e6 0.0
5.222532865847477e6 6.06746427269374e7 0.0
0.0 0.0 0.0

4.737807581034068e6 8.097888785725916e6 0.0
8.097888785725916e6 -3.1493764021243695e7 0.0
0.0 0.0 0.0

2.148355728920011e6 1.301651329220889e7 0.0
1.301651329220889e7 -2.44416897076298e7 0.0
0.0 0.0 0.0

798287.7908752984 1.073571258318538e7 0.0
1.073571258318538e7 -8.2898562547063995e6 0.0
0.0 0.0 0.0

5.033653197779544e6 6.90212606327514e6 0.0
6.90212606327514e6 -1.6559928698315324e7 0.0
0.0 0.0 0.0

-1.0872202983002327e7 1.3227250205764463e7 0.0
1.3227250205764463e7 6.251166569783104e6 0.0
0.0 0.0 0.0

-2.017840264072548e6 1.3690468273997832e7 0.0
1.3690468273997832e7 -5.545342769083689e6 0.0
0.0 0.0 0.0

-5.639211709343995e6 -8.883258357115475e6 0.0
-8.883258357115475e6 1.090421063076241e7 0.0
0.0 0.0 0.0

-3.2525230798640093e6 7.5348844573531225e6 0.0
7.5348844573531225e6 1.2242830624399711e6 0.0
0.0 0.0 0.0

-5.899249171207267e6 1.4965871476972913e7 0.0
1.4965871476972913e7 4.905494234340279e6 0.0
0.0 0.0 0.0

-7.094294567158246e6 1.3139585347702686e7 0.0
1.3139585347702686e7 6.829052625052721e6 0.0
0.0 0.0 0.0

-5.807629877357181e6 7.995597387096878e6 0.0
7.995597387096878e6 4.16203567711743e6 0.0
0.0 0.0 0.0

-1.9432399578590388e6 6.629928638264626e6 0.0
6.629928638264626e6 458052.7995102218 0.0
0.0 0.0 0.0

2.972843262370184e6 1.0910480198124612e7 0.0
1.0910480198124612e7 -416155.0664387279 0.0
0.0 0.0 0.0

-3.6244042142542643e6 1.4158075997693207e7 0.0
1.4158075997693207e7 -2.1431689536261363e6 0.0
0.0 0.0 0.0

-431394.7879025006 5.731080448246627e6 0.0
5.731080448246627e6 -3.216630700548047e6 0.0
0.0 0.0 0.0

-4.69683023374669e6 1.561993044744172e7 0.0
1.561993044744172e7 1.7225215000420527e6 0.0
0.0 0.0 0.0

-1.0245823087303445e7 7.931261266483892e6 0.0
7.931261266483892e6 1.161456508240727e7 0.0
0.0 0.0 0.0

-4.848628726509396e6 9.893683242730688e6 0.0
9.893683242730688e6 4.048964447736887e6 0.0
0.0 0.0 0.0

-5.934176080994816e6 -9.133576088880036e6 0.0
-9.133576088880036e6 1.2438374529008228e7 0.0
0.0 0.0 0.0

5.192524493590947e6 4.92753451468514e6 0.0
4.92753451468514e6 -1.4219724826984292e7 0.0
0.0 0.0 0.0

5.159105063904222e6 7.121459245864692e6 0.0
7.121459245864692e6 -1.7341234379803013e7 0.0
0.0 0.0 0.0

-1.0015463032478178e7 5.232920687604327e6 0.0
5.232920687604327e6 1.1150693637450436e7 0.0
0.0 0.0 0.0

5.716754470443847e6 6.682432398640514e6 0.0
6.682432398640514e6 -2.7189647692170925e7 0.0
0.0 0.0 0.0

-1.0449187987251295e7 -5.61173180511754e6 0.0
-5.61173180511754e6 3.2308189434599496e7 0.0
0.0 0.0 0.0

1.8328421993910926e6 7.947799902690561e6 0.0
7.947799902690561e6 -8.904181382477583e6 0.0
0.0 0.0 0.0

2.8756784711846556e6 7.406204587695074e6 0.0
7.406204587695074e6 -9.814041732373316e6 0.0
0.0 0.0 0.0

-5.3413351844783025e6 1.9284734005674902e7 0.0
1.9284734005674902e7 1.969073652511524e6 0.0
0.0 0.0 0.0

-7.582039939274017e6 1.680996315312417e7 0.0
1.680996315312417e7 7.220991177618464e6 0.0
0.0 0.0 0.0

-6.199581599857423e6 1.3615326570933431e7 0.0
1.3615326570933431e7 5.842482586544499e6 0.0
0.0 0.0 0.0

-4.1647260783491363e6 1.5127642858735524e7 0.0
1.5127642858735524e7 377742.94039238454 0.0
0.0 0.0 0.0

-7.579789766895467e6 1.924297493683303e7 0.0
1.924297493683303e7 6.182470663220387e6 0.0
0.0 0.0 0.0

-6.3784643278312925e6 1.447473429029026e7 0.0
1.447473429029026e7 6.403696346301088e6 0.0
0.0 0.0 0.0

-1.5500361707270974e6 1.2565404392969603e7 0.0
1.2565404392969603e7 2.6669521489023236e6 0.0
0.0 0.0 0.0

6.269709979426256e6 5.249257970497483e6 0.0
5.249257970497483e6 -2.2623369314028315e7 0.0
0.0 0.0 0.0

5.657451701435795e6 4.693083266235144e6 0.0
4.693083266235144e6 -1.6229972396671347e7 0.0
0.0 0.0 0.0

6.226936572802764e6 4.880700519483692e6 0.0
4.880700519483692e6 -1.975898331112642e7 0.0
0.0 0.0 0.0

-5.731281001536788e6 1.4818431156838106e7 0.0
1.4818431156838106e7 3.2808374317259067e6 0.0
0.0 0.0 0.0

-2.3849807608271255e6 7.557005066785449e6 0.0
7.557005066785449e6 -489262.68343256623 0.0
0.0 0.0 0.0

-8.227083692814801e6 -8.697401918341808e6 0.0
-8.697401918341808e6 2.1463862071936056e7 0.0
0.0 0.0 0.0

-8.477447766699485e6 5.604140267701299e6 0.0
5.604140267701299e6 9.187264958398806e6 0.0
0.0 0.0 0.0

4.0578350045707524e6 5.828129417267024e6 0.0
5.828129417267024e6 -1.103142222228583e7 0.0
0.0 0.0 0.0

-8.084206763230647e6 1.5172321044963645e7 0.0
1.5172321044963645e7 6.382746081767561e6 0.0
0.0 0.0 0.0

-1.780807057680629e6 1.1302331207041914e7 0.0
1.1302331207041914e7 -1.1629778210800447e7 0.0
0.0 0.0 0.0

-2.6055277629975947e6 -5.645364443468895e6 0.0
-5.645364443468895e6 7.514890086110566e6 0.0
0.0 0.0 0.0

-5.549088060238118e6 2.6757311814646935e6 0.0
2.6757311814646935e6 5.841284064394117e6 0.0
0.0 0.0 0.0

-1.247029978782642e7 2.758658146341119e6 0.0
2.758658146341119e6 1.5958791586481262e7 0.0
0.0 0.0 0.0

-5.869919158931073e6 1.2775645252033887e7 0.0
1.2775645252033887e7 8.216112758268215e6 0.0
0.0 0.0 0.0

2.040859889439581e6 9.400121420555655e6 0.0
9.400121420555655e6 -1.1876421758976096e7 0.0
0.0 0.0 0.0

6.506939000121254e6 5.05749170306214e6 0.0
5.05749170306214e6 -2.1653776461952798e7 0.0
0.0 0.0 0.0

4.787840839413551e6 5.156687493385688e6 0.0
5.156687493385688e6 -1.2879877298103508e7 0.0
0.0 0.0 0.0

-4.16587999392186e6 2.117772296337149e7 0.0
2.117772296337149e7 -5.211951242521368e6 0.0
0.0 0.0 0.0

-1.0526295669350574e7 -6.166261448277215e6 0.0
-6.166261448277215e6 3.0733926516881544e7 0.0
0.0 0.0 0.0

4.528309396177691e6 7.58737768459314e6 0.0
7.58737768459314e6 -1.5571334926826235e7 0.0
0.0 0.0 0.0

-1.0623506791349746e7 -1.333920232694788e6 0.0
-1.333920232694788e6 4.4304608830011494e7 0.0
0.0 0.0 0.0

6.33600285731872e6 5.683069792808127e6 0.0
5.683069792808127e6 -2.442941407960631e7 0.0
0.0 0.0 0.0

-6.417045637422694e6 1.5364224777740039e7 0.0
1.5364224777740039e7 6.782949685980126e6 0.0
0.0 0.0 0.0

-563751.2350745209 8.684311312127108e6 0.0
8.684311312127108e6 -4.196598329758998e6 0.0
0.0 0.0 0.0

-1.4845532392199747e6 1.172624014577122e7 0.0
1.172624014577122e7 -4.8746579468582515e6 0.0
0.0 0.0 0.0

349224.4184482312 1.162202058135449e7 0.0
1.162202058135449e7 -9.571699084183408e6 0.0
0.0 0.0 0.0

-1.0462440631024892e7 -4.939366394092161e6 0.0
-4.939366394092161e6 3.443916555050043e7 0.0
0.0 0.0 0.0

6.267999236166442e6 5.002715154119145e6 0.0
5.002715154119145e6 -2.054624318332775e7 0.0
0.0 0.0 0.0

-1.0187235377491731e7 8.286133915364085e6 0.0
8.286133915364085e6 1.2153877456497591e7 0.0
0.0 0.0 0.0

-9.78571276765979e6 7.594562340002078e6 0.0
7.594562340002078e6 1.110755284028503e7 0.0
0.0 0.0 0.0

-1.2194474447458617e7 3.802688122478201e6 0.0
3.802688122478201e6 1.4515382605638575e7 0.0
0.0 0.0 0.0

-5.155325173041629e6 8.579274770840174e6 0.0
8.579274770840174e6 5.029623596809654e6 0.0
0.0 0.0 0.0

-2.621531067086709e6 1.396979765708611e7 0.0
1.396979765708611e7 1.1322062948684407e7 0.0
0.0 0.0 0.0

-3.2027366708224737e6 1.4467929734926244e7 0.0
1.4467929734926244e7 -1.653248748333375e6 0.0
0.0 0.0 0.0

-6.043570879904151e6 1.5695733895753928e7 0.0
1.5695733895753928e7 3.727402766152214e6 0.0
0.0 0.0 0.0

-4.274435344063464e6 1.5061730106351051e7 0.0
1.5061730106351051e7 -709450.067007553 0.0
0.0 0.0 0.0

2.285596751950146e6 8.001144924204116e6 0.0
8.001144924204116e6 -8.806083626144629e6 0.0
0.0 0.0 0.0

-6.606603056259096e6 1.6433008639614256e7 0.0
1.6433008639614256e7 6.3405679204169335e6 0.0
0.0 0.0 0.0

-724471.4935525046 1.3306292729861105e7 0.0
1.3306292729861105e7 -2.15284836741695e6 0.0
0.0 0.0 0.0

1.430660346878848e6 1.0246792224986862e7 0.0
1.0246792224986862e7 -9.360280293875664e6 0.0
0.0 0.0 0.0

-1.1703839067202155e7 6.881125009627897e6 0.0
6.881125009627897e6 1.5549771968386747e7 0.0
0.0 0.0 0.0

-1.0659730414856259e7 5.468823571996183e6 0.0
5.468823571996183e6 1.2176312750394635e7 0.0
0.0 0.0 0.0

2.3171747161658313e6 7.6266465546207e6 0.0
7.6266465546207e6 -1.0159315493958984e7 0.0
0.0 0.0 0.0

-7.197314725147239e6 -1.0253556888839895e7 0.0
-1.0253556888839895e7 1.6753970969074467e7 0.0
0.0 0.0 0.0

5.414791681234195e6 4.804853643049356e6 0.0
4.804853643049356e6 -1.5154568159347078e7 0.0
0.0 0.0 0.0

-4.1382210749589084e6 1.3217327194198348e7 0.0
1.3217327194198348e7 7.393390527163592e6 0.0
0.0 0.0 0.0

-1.0305754181503974e7 -6.797621250395738e6 0.0
-6.797621250395738e6 2.9006791174096927e7 0.0
0.0 0.0 0.0

6.057366798298067e6 4.882107324721816e6 0.0
4.882107324721816e6 -1.859494304639855e7 0.0
0.0 0.0 0.0

5.463745910197631e6 4.785751356249125e6 0.0
4.785751356249125e6 -1.5489884713189581e7 0.0
0.0 0.0 0.0

-7.417513804174101e6 -1.0077735643404962e7 0.0
-1.0077735643404962e7 1.8012810460316855e7 0.0
0.0 0.0 0.0

-9.533860099269386e6 1.1090680415808689e7 0.0
1.1090680415808689e7 1.751821470388382e7 0.0
0.0 0.0 0.0

6.060698132807261e6 4.836159707987169e6 0.0
4.836159707987169e6 -1.8221936500914253e7 0.0
0.0 0.0 0.0

-9.901335796487173e6 -7.413854982885555e6 0.0
-7.413854982885555e6 2.7016495706456207e7 0.0
0.0 0.0 0.0

-5.978233089526283e6 1.2383885156047309e7 0.0
1.2383885156047309e7 8.40580081028948e6 0.0
0.0 0.0 0.0

-8.268979564386638e6 -4.842987883496254e6 0.0
-4.842987883496254e6 1.4873174213869017e7 0.0
0.0 0.0 0.0

-8.049657844173104e6 -9.4661733736739e6 0.0
-9.4661733736739e6 2.0020315034281403e7 0.0
0.0 0.0 0.0

5.6563633015512e6 4.749879104610527e6 0.0
4.749879104610527e6 -1.594557472188173e7 0.0
0.0 0.0 0.0

5.977403916609438e6 4.856940933493078e6 0.0
4.856940933493078e6 -1.7762296532312136e7 0.0
0.0 0.0 0.0

-9.597085794411423e6 -7.824822985293454e6 0.0
-7.824822985293454e6 2.5409599655719683e7 0.0
0.0 0.0 0.0

-1.4881191324713022e8 3.911142506674481e7 0.0
3.911142506674481e7 -9.82438184365815e6 0.0
0.0 0.0 0.0

9.779151747052819e7 1.6460526552399363e7 0.0
1.6460526552399363e7 -690775.2225977592 0.0
0.0 0.0 0.0

-6.525581973956507e6 8.083975811284949e6 0.0
8.083975811284949e6 5.3490514709991645e6 0.0
0.0 0.0 0.0

5.826519232688843e6 4.851309825152223e6 0.0
4.851309825152223e6 -1.731785598620182e7 0.0
0.0 0.0 0.0

-9.35401793676097e6 -7.981475561931902e6 0.0
-7.981475561931902e6 2.425195604623037e7 0.0
0.0 0.0 0.0

1.2517146303267167e6 9.869792782966338e6 0.0
9.869792782966338e6 -3.213388145509307e6 0.0
0.0 0.0 0.0

-9.86757855679002e6 6.38017892960418e6 0.0
6.38017892960418e6 1.1249577717595592e7 0.0
0.0 0.0 0.0

-5.758151304294153e6 1.5149429537586948e7 0.0
1.5149429537586948e7 4.626242523768575e6 0.0
0.0 0.0 0.0

-3.834089058223306e6 1.3529032369638858e7 0.0
1.3529032369638858e7 7.836303249550358e6 0.0
0.0 0.0 0.0

-8.9175009307934e6 -8.176439551174067e6 0.0
-8.176439551174067e6 2.3020936274785217e7 0.0
0.0 0.0 0.0

5.860539266328892e6 4.82056675606929e6 0.0
4.82056675606929e6 -1.7088942227345474e7 0.0
0.0 0.0 0.0

-3.896107569062273e6 1.438670728588749e7 0.0
1.438670728588749e7 -1.3872723504986844e6 0.0
0.0 0.0 0.0

-720378.6876007011 1.2737261000223773e7 0.0
1.2737261000223773e7 -1.850959886026355e7 0.0
0.0 0.0 0.0

-5.233914077380772e6 1.5534809746673165e7 0.0
1.5534809746673165e7 1.9544986773684805e6 0.0
0.0 0.0 0.0

519749.8614373524 1.0993820712872736e7 0.0
1.0993820712872736e7 -7.714773104340045e6 0.0
0.0 0.0 0.0

1.2326914190552006e6 1.0743065466035528e7 0.0
1.0743065466035528e7 -1.1250271531032555e7 0.0
0.0 0.0 0.0

-1.0251561309589093e6 1.2601044435594864e7 0.0
1.2601044435594864e7 1.0214693230735847e6 0.0
0.0 0.0 0.0

-3.1629942624855703e6 1.500753200238216e7 0.0
1.500753200238216e7 -3.48886166062061e6 0.0
0.0 0.0 0.0

-2.0240003133787396e6 1.373029162452687e7 0.0
1.373029162452687e7 -4.308052523795085e6 0.0
0.0 0.0 0.0

-75077.30068130698 1.1706666371981073e7 0.0
1.1706666371981073e7 -1.543855118774168e7 0.0
0.0 0.0 0.0

-5.503599946223704e6 1.5623390556926541e7 0.0
1.5623390556926541e7 3.8562525951901465e6 0.0
0.0 0.0 0.0

-6.706635640887959e6 1.3405527298638366e7 0.0
1.3405527298638366e7 6.250455745512831e6 0.0
0.0 0.0 0.0

-3.930747608379329e6 1.5531088913243806e7 0.0
1.5531088913243806e7 -989139.8103577634 0.0
0.0 0.0 0.0

1.1653301820083312e6 1.097245522701222e7 0.0
1.097245522701222e7 -1.1389436607221145e7 0.0
0.0 0.0 0.0

-7.330625268029736e6 6.180901231517826e6 0.0
6.180901231517826e6 7.183320278663812e6 0.0
0.0 0.0 0.0

-252100.3139975596 1.2077695494376328e7 0.0
1.2077695494376328e7 2.0382349793071314e6 0.0
0.0 0.0 0.0

-7.512652446774034e6 7.067354666355336e6 0.0
7.067354666355336e6 7.655259968441872e6 0.0
0.0 0.0 0.0

-2.464006657401201e6 1.1322957448731717e7 0.0
1.1322957448731717e7 -1.0700861488479145e6 0.0
0.0 0.0 0.0

-5.566685022553133e6 1.5493059867270967e7 0.0
1.5493059867270967e7 4.1571634795421697e6 0.0
0.0 0.0 0.0

1.1289289314870117e6 1.1025021486708239e7 0.0
1.1025021486708239e7 -1.3305340088945873e7 0.0
0.0 0.0 0.0

-5.221160874929819e6 1.2612990414212033e7 0.0
1.2612990414212033e7 7.741034824867035e6 0.0
0.0 0.0 0.0

-7.998331385531563e6 1.9634852458198793e7 0.0
1.9634852458198793e7 6.672290143987375e6 0.0
0.0 0.0 0.0

-3.0632295076428317e6 1.1440650165543245e7 0.0
1.1440650165543245e7 -1.209317744500738e6 0.0
0.0 0.0 0.0

-4.467963985406328e6 1.484529791227562e7 0.0
1.484529791227562e7 -55924.80469348817 0.0
0.0 0.0 0.0

1.8761124097099747e6 1.2637257980462551e7 0.0
1.2637257980462551e7 5.260207468477375e6 0.0
0.0 0.0 0.0

-5.675848064269871e6 1.5328865787058981e7 0.0
1.5328865787058981e7 4.369404344360661e6 0.0
0.0 0.0 0.0

-9.314338877296746e6 5.025758349838902e6 0.0
5.025758349838902e6 4.610256405692443e6 0.0
0.0 0.0 0.0

-5.960210133336553e6 1.6608950110982697e7 0.0
1.6608950110982697e7 4.603679134456573e6 0.0
0.0 0.0 0.0

4.349639631781157e6 5.565193031361705e6 0.0
5.565193031361705e6 -1.126722212056469e7 0.0
0.0 0.0 0.0

4.332254976889654e6 5.618088236161736e6 0.0
5.618088236161736e6 -1.1004163197070891e7 0.0
0.0 0.0 0.0

-4.140973412247575e6 1.465003018514645e7 0.0
1.465003018514645e7 -571195.2856254025 0.0
0.0 0.0 0.0

-4.0370199203043226e6 1.3902067419788167e7 0.0
1.3902067419788167e7 9.75865570308339e6 0.0
0.0 0.0 0.0

-6.0720930463990625e6 1.705436299402138e7 0.0
1.705436299402138e7 4.7393147516032085e6 0.0
0.0 0.0 0.0

-1.1933540693677403e7 3.9619931327988636e6 0.0
3.9619931327988636e6 1.3840527329191849e7 0.0
0.0 0.0 0.0

-7.05752876722445e6 1.848397397351478e7 0.0
1.848397397351478e7 5.891421494646225e6 0.0
0.0 0.0 0.0

-3.781966172648999e6 1.3146635528712125e7 0.0
1.3146635528712125e7 4.573021011474925e6 0.0
0.0 0.0 0.0

-1.1481356311392111e6 8.718113783982132e6 0.0
8.718113783982132e6 553251.362198447 0.0
0.0 0.0 0.0

2.823788843927972e6 9.280499531702375e6 0.0
9.280499531702375e6 -1.2371779126117622e7 0.0
0.0 0.0 0.0

-6.355037250307695e6 1.507323357877157e7 0.0
1.507323357877157e7 4.745694387199493e6 0.0
0.0 0.0 0.0

-4.920972662639968e6 -224644.1465259733 0.0
-224644.1465259733 5.378794438640105e6 0.0
0.0 0.0 0.0

-1.055782598631043e7 1.0221798519067403e7 0.0
1.0221798519067403e7 1.7922317480118994e7 0.0
0.0 0.0 0.0

463356.84677093383 1.1653279532786582e7 0.0
1.1653279532786582e7 -1.7372509296053037e7 0.0
0.0 0.0 0.0

-1.1698106732713878e7 4.667077866684787e6 0.0
4.667077866684787e6 1.5609526349319302e7 0.0
0.0 0.0 0.0

-284584.3995864375 1.548424707845889e7 0.0
1.548424707845889e7 -4.402511137566965e6 0.0
0.0 0.0 0.0

2.3045946958552543e6 9.463074855945462e6 0.0
9.463074855945462e6 -1.1003224002232447e7 0.0
0.0 0.0 0.0

-3.161242064495624e6 1.1199297396977834e7 0.0
1.1199297396977834e7 -978442.7658800612 0.0
0.0 0.0 0.0

-4.953075341685807e6 1.5330061075169591e7 0.0
1.5330061075169591e7 1.3024803376792618e6 0.0
0.0 0.0 0.0

1.1308220956221789e6 9.92047079319926e6 0.0
9.92047079319926e6 -5.186291294770286e6 0.0
0.0 0.0 0.0

-7.969878416306283e6 5.443016321936064e6 0.0
5.443016321936064e6 1.1017547707894186e7 0.0
0.0 0.0 0.0

-1.178836844737857e7 6.019497587432131e6 0.0
6.019497587432131e6 1.5494361909478288e7 0.0
0.0 0.0 0.0

-4.718975035296255e6 1.5070354665425006e7 0.0
1.5070354665425006e7 628056.459416897 0.0
0.0 0.0 0.0

-5.401335646525079e6 7.886468261857391e6 0.0
7.886468261857391e6 5.581465807872785e6 0.0
0.0 0.0 0.0

5.232423918819681e6 5.7962406506027635e6 0.0
5.7962406506027635e6 -1.5408221119387183e7 0.0
0.0 0.0 0.0

-6.576947165400626e6 9.560172689145973e6 0.0
9.560172689145973e6 5.393406636830564e6 0.0
0.0 0.0 0.0

873089.4891293342 1.0584009241302848e7 0.0
1.0584009241302848e7 -7.629014292143191e6 0.0
0.0 0.0 0.0

869435.9723704281 9.745315328585314e6 0.0
9.745315328585314e6 -1.5137715658917509e6 0.0
0.0 0.0 0.0

-1.6791050877331304e6 1.3087052087835114e7 0.0
1.3087052087835114e7 -3.2899452258111546e6 0.0
0.0 0.0 0.0

-2.183856976841984e6 1.1463211424553363e7 0.0
1.1463211424553363e7 -2.972750644336617e6 0.0
0.0 0.0 0.0

947509.572863034 1.0978068791610157e7 0.0
1.0978068791610157e7 -1.0637770663115358e7 0.0
0.0 0.0 0.0

3.3426579777042205e6 7.352660132301252e6 0.0
7.352660132301252e6 -1.2540633322292214e7 0.0
0.0 0.0 0.0

1.0142768435858842e6 1.025759127748219e7 0.0
1.025759127748219e7 -6.509065899800775e6 0.0
0.0 0.0 0.0

1.777887180596381e6 8.218115966029255e6 0.0
8.218115966029255e6 -9.147845391941736e6 0.0
0.0 0.0 0.0

3.4614576146513834e6 5.48705292879526e6 0.0
5.48705292879526e6 -9.818444447575655e6 0.0
0.0 0.0 0.0

-6.164520650392967e6 1.5426123057751963e7 0.0
1.5426123057751963e7 4.253157366425116e6 0.0
0.0 0.0 0.0

-660886.8807226577 8.893446337808894e6 0.0
8.893446337808894e6 -4.539331882054676e6 0.0
0.0 0.0 0.0

-5.095017902803337e6 1.2866866683770355e7 0.0
1.2866866683770355e7 7.437712153305132e6 0.0
0.0 0.0 0.0

-127332.07198847446 1.8189497783954733e6 0.0
1.8189497783954733e6 46095.19298187144 0.0
0.0 0.0 0.0

2.0172599589143996e6 1.1160525936034074e7 0.0
1.1160525936034074e7 -1.8643807377188858e6 0.0
0.0 0.0 0.0

-2.679260176777322e6 1.2592062368526848e7 0.0
1.2592062368526848e7 -997683.8198549324 0.0
0.0 0.0 0.0

2.6312126716805142e6 7.325958610262282e6 0.0
7.325958610262282e6 -1.0638800680776335e7 0.0
0.0 0.0 0.0

-5.48193434041387e7 8.39646299336666e6 0.0
8.39646299336666e6 1.3436958364041205e7 0.0
0.0 0.0 0.0

-7.028285935926131e6 1.1777096414045492e7 0.0
1.1777096414045492e7 1.0026909416474504e7 0.0
0.0 0.0 0.0

-541345.633870991 1.229073665282895e7 0.0
1.229073665282895e7 -6.6808800996565465e6 0.0
0.0 0.0 0.0

-1.5142863538197475e6 1.0799347018579775e7 0.0
1.0799347018579775e7 -3.9232427253815327e6 0.0
0.0 0.0 0.0

2.1425110286825155e6 1.0086481011408083e7 0.0
1.0086481011408083e7 -1.1458992383409865e7 0.0
0.0 0.0 0.0

-1.1441571085078355e6 1.2439799453150887e7 0.0
1.2439799453150887e7 2.5320329716490395e6 0.0
0.0 0.0 0.0

2.9470839832852827e6 9.589825588996608e6 0.0
9.589825588996608e6 -1.3807161971459454e7 0.0
0.0 0.0 0.0

-993710.4942368364 1.2613177625183685e7 0.0
1.2613177625183685e7 3.290811745536226e6 0.0
0.0 0.0 0.0

-437763.6101233789 1.1343995927417587e7 0.0
1.1343995927417587e7 -7.314042977432457e6 0.0
0.0 0.0 0.0

3.389975461848393e6 7.350514035794416e6 0.0
7.350514035794416e6 -1.1309117959627628e7 0.0
0.0 0.0 0.0

5.56876556999629e6 5.173328918728535e6 0.0
5.173328918728535e6 -1.6978425159121037e7 0.0
0.0 0.0 0.0

-3.674064718580531e6 1.6404299729086079e7 0.0
1.6404299729086079e7 -2.3637790807488807e6 0.0
0.0 0.0 0.0

2.9796576860117074e6 9.414414555571375e6 0.0
9.414414555571375e6 -1.3136876992003512e7 0.0
0.0 0.0 0.0

-6.541575223008925e6 1.6173115574267639e7 0.0
1.6173115574267639e7 6.420839874297298e6 0.0
0.0 0.0 0.0

-3.664345577241357e6 1.3678223554257978e7 0.0
1.3678223554257978e7 1.0604308852888138e6 0.0
0.0 0.0 0.0

1.698996834693356e6 6.54978567613899e6 0.0
6.54978567613899e6 -6.493401854056942e6 0.0
0.0 0.0 0.0

-8.760129473028611e6 2.0030308911694776e7 0.0
2.0030308911694776e7 7.071335024783203e6 0.0
0.0 0.0 0.0

2.82789462124388e6 7.676580550783925e6 0.0
7.676580550783925e6 -1.0063064008889135e7 0.0
0.0 0.0 0.0

-6.797711317274818e6 1.2991673751217334e7 0.0
1.2991673751217334e7 1.5971084311580982e7 0.0
0.0 0.0 0.0

-658283.9621095904 1.2838658245856717e7 0.0
1.2838658245856717e7 -378241.8411984828 0.0
0.0 0.0 0.0

-7.407698428595571e6 1.6555736927028643e7 0.0
1.6555736927028643e7 6.882001500119832e6 0.0
0.0 0.0 0.0

-6.435480539417954e6 6.77385144318557e6 0.0
6.77385144318557e6 8.040958160068737e6 0.0
0.0 0.0 0.0

1.694717027732512e6 9.962071795234332e6 0.0
9.962071795234332e6 -1.150372209858787e7 0.0
0.0 0.0 0.0

-1.0520405898304926e6 7.749531624327229e6 0.0
7.749531624327229e6 -3.020256096553231e6 0.0
0.0 0.0 0.0

-1.8645953894979171e6 1.1794274019264745e7 0.0
1.1794274019264745e7 -2.4478203252465106e6 0.0
0.0 0.0 0.0

4.936314295058227e6 1.1463274004853547e7 0.0
1.1463274004853547e7 -2.8917437836769046e6 0.0
0.0 0.0 0.0

-10443.022787124384 1.2420920828643627e7 0.0
1.2420920828643627e7 -7.843971157556065e6 0.0
0.0 0.0 0.0

817802.1528034417 7.129684697627137e6 0.0
7.129684697627137e6 -4.4719770016276715e6 0.0
0.0 0.0 0.0

1.3035620568555477e6 1.046698674257451e7 0.0
1.046698674257451e7 -1.1084901874947462e7 0.0
0.0 0.0 0.0

-6.480422921877651e6 -3.574198732714091e6 0.0
-3.574198732714091e6 1.0436205921353476e7 0.0
0.0 0.0 0.0

-6.360463334749119e6 1.3345649331610458e7 0.0
1.3345649331610458e7 8.173462568682967e6 0.0
0.0 0.0 0.0

-1.039646636119866e7 6.603065252361264e6 0.0
6.603065252361264e6 1.2048180300423263e7 0.0
0.0 0.0 0.0

-1.1596559785773743e7 1.4674886574396957e7 0.0
1.4674886574396957e7 5.680660727144911e6 0.0
0.0 0.0 0.0

-67090.69606750458 1.1622443432174644e7 0.0
1.1622443432174644e7 -1.5474533614517558e7 0.0
0.0 0.0 0.0

-6.416178769445552e6 1.4898029541209456e7 0.0
1.4898029541209456e7 6.538826232938411e6 0.0
0.0 0.0 0.0

-6.442978496868059e6 1.5555800011243578e7 0.0
1.5555800011243578e7 6.508824196287703e6 0.0
0.0 0.0 0.0

-1.7315145261658938e6 1.4163410686173633e7 0.0
1.4163410686173633e7 -5.43525405692489e6 0.0
0.0 0.0 0.0

1.1769622686451785e6 1.1048272319912927e7 0.0
1.1048272319912927e7 -1.6279875748502882e7 0.0
0.0 0.0 0.0

-4.56182897406937e6 1.2546061518788358e7 0.0
1.2546061518788358e7 7.017824876551422e6 0.0
0.0 0.0 0.0

-1.2107127141290195e7 -185066.27716975217 0.0
-185066.27716975217 2.1222536538080644e7 0.0
0.0 0.0 0.0

1.5475078017616626e6 4.31805854056831e6 0.0
4.31805854056831e6 -5.824711190332976e6 0.0
0.0 0.0 0.0

828776.8738518651 1.1444811788484868e7 0.0
1.1444811788484868e7 -1.1078176091210952e7 0.0
0.0 0.0 0.0

-2.7036738229902256e6 1.4657153439612629e7 0.0
1.4657153439612629e7 -4.20853551619005e6 0.0
0.0 0.0 0.0

-2.761979144671105e6 1.177804621195515e7 0.0
1.177804621195515e7 -664658.6217289746 0.0
0.0 0.0 0.0

-774388.7475224287 1.0332700784014868e7 0.0
1.0332700784014868e7 -5.091622028347617e6 0.0
0.0 0.0 0.0

-2.1427000627588388e6 1.166571904844561e7 0.0
1.166571904844561e7 -1.254366304047429e7 0.0
0.0 0.0 0.0

-1.2253763723204339e7 5.216755402209996e6 0.0
5.216755402209996e6 1.4467644203092135e7 0.0
0.0 0.0 0.0

-5.772323733075319e6 1.6954897695592053e7 0.0
1.6954897695592053e7 3.8417011238179216e6 0.0
0.0 0.0 0.0

-1.6664333797762413e7 1.2697543593352703e7 0.0
1.2697543593352703e7 9.207908651519636e6 0.0
0.0 0.0 0.0

2.161505529364274e6 1.1204692928557917e7 0.0
1.1204692928557917e7 -1.8105920030472905e6 0.0
0.0 0.0 0.0

1.4465776507708277e6 6.405945686290554e6 0.0
6.405945686290554e6 -7.244512079984492e6 0.0
0.0 0.0 0.0

-2.8283311507642968e6 1.152802902193793e7 0.0
1.152802902193793e7 -446161.4468627993 0.0
0.0 0.0 0.0

-1.1846459290370107e7 3.7462229916079356e6 0.0
3.7462229916079356e6 1.713977580867225e7 0.0
0.0 0.0 0.0

-7.1785395361747835e6 1.6854287172076624e7 0.0
1.6854287172076624e7 6.676502995242358e6 0.0
0.0 0.0 0.0

-5.246711695793627e6 1.249289300287627e7 0.0
1.249289300287627e7 7.8109133858117275e6 0.0
0.0 0.0 0.0

-5.875164836391989e6 1.582538969843594e7 0.0
1.582538969843594e7 3.468291246065301e6 0.0
0.0 0.0 0.0

-83582.75951721705 1.1125081783555271e7 0.0
1.1125081783555271e7 -7.91164635366722e6 0.0
0.0 0.0 0.0

-1.2453874484316371e7 5.2687380150998e6 0.0
5.2687380150998e6 1.6353472675871668e7 0.0
0.0 0.0 0.0

334097.83708984917 1.1811703041954106e7 0.0
1.1811703041954106e7 -9.737158813233485e6 0.0
0.0 0.0 0.0

-2.157210876172544e6 1.3832271605695112e7 0.0
1.3832271605695112e7 -888206.928365761 0.0
0.0 0.0 0.0

-5.935646702115196e6 1.7197881891625542e7 0.0
1.7197881891625542e7 4.055971931311043e6 0.0
0.0 0.0 0.0

3.071299966256142e6 5.822224568035753e6 0.0
5.822224568035753e6 -9.734835041074183e6 0.0
0.0 0.0 0.0

214706.79252639227 1.3565466358983219e7 0.0
1.3565466358983219e7 -6.344532036603173e6 0.0
0.0 0.0 0.0

-6.301537440820146e6 1.4747742069828045e7 0.0
1.4747742069828045e7 6.075331568014088e6 0.0
0.0 0.0 0.0

-6.842050167060184e6 6.093295492509885e6 0.0
6.093295492509885e6 8.906009035868324e6 0.0
0.0 0.0 0.0

-2.3962957329591424e6 1.4909540720616002e7 0.0
1.4909540720616002e7 -1.731130696365437e6 0.0
0.0 0.0 0.0

-1.2216932654401947e7 6.768937239858718e6 0.0
6.768937239858718e6 1.3877968740386587e7 0.0
0.0 0.0 0.0

-1.616685094362733e6 3.792034866716126e6 0.0
3.792034866716126e6 4.297394552868153e6 0.0
0.0 0.0 0.0

-6.2041141431629e6 1.4339233608511906e7 0.0
1.4339233608511906e7 5.811111743535923e6 0.0
0.0 0.0 0.0

-1.1436057193596244e7 4.5373820289471755e6 0.0
4.5373820289471755e6 1.2960167443223769e7 0.0
0.0 0.0 0.0

-7.03520535666343e6 1.178998624280093e7 0.0
1.178998624280093e7 6.511694428524214e6 0.0
0.0 0.0 0.0

-1.5143993232236817e6 1.3673636652311303e7 0.0
1.3673636652311303e7 7.759386629101434e6 0.0
0.0 0.0 0.0

1.5011893885499137e6 1.0767815415184319e7 0.0
1.0767815415184319e7 -1.524571143904443e7 0.0
0.0 0.0 0.0

-298218.13198881026 2.2372152278625276e6 0.0
2.2372152278625276e6 -51070.75537232984 0.0
0.0 0.0 0.0

-1.7518663258810733e6 1.6776873332814382e7 0.0
1.6776873332814382e7 -3.957688316303819e6 0.0
0.0 0.0 0.0

-1.148428536846029e7 4.0470688531130594e6 0.0
4.0470688531130594e6 1.5311033075736985e7 0.0
0.0 0.0 0.0

255977.33773574932 9.35327708607471e6 0.0
9.35327708607471e6 -6.522321597875828e6 0.0
0.0 0.0 0.0

-3.7882267456805184e6 1.2716698590247605e7 0.0
1.2716698590247605e7 5.692956035668066e6 0.0
0.0 0.0 0.0

-1.568698386072399e6 1.1347477479215214e7 0.0
1.1347477479215214e7 -2.7990918745223237e6 0.0
0.0 0.0 0.0

-6.744859682745655e6 1.290366457697492e7 0.0
1.290366457697492e7 8.377785615155549e6 0.0
0.0 0.0 0.0

81019.11731962487 8.172651714094349e6 0.0
8.172651714094349e6 -4.48390048217549e6 0.0
0.0 0.0 0.0

-5.023285763068956e6 1.4267713622824593e7 0.0
1.4267713622824593e7 3.982224583490827e6 0.0
0.0 0.0 0.0

-7.160360381537077e6 1.2040378110778818e7 0.0
1.2040378110778818e7 7.16461818378073e6 0.0
0.0 0.0 0.0

-164760.92467403063 1.3552173385772044e7 0.0
1.3552173385772044e7 -6.512346846309956e6 0.0
0.0 0.0 0.0

-6.523394954162415e6 1.467559544470341e7 0.0
1.467559544470341e7 5.344116481843434e6 0.0
0.0 0.0 0.0

-6.199398902580482e6 1.741369633871176e7 0.0
1.741369633871176e7 5.056462504313272e6 0.0
0.0 0.0 0.0

1.5411376425413582e6 1.0752256607451057e7 0.0
1.0752256607451057e7 -1.3914524560292391e7 0.0
0.0 0.0 0.0

1.0889828885611321e6 3.8804398373123137e6 0.0
3.8804398373123137e6 -3.9125727910440327e6 0.0
0.0 0.0 0.0

-732088.1400976672 5.23180005754209e6 0.0
5.23180005754209e6 -1.2946262751944726e6 0.0
0.0 0.0 0.0

6.03158419804803e6 5.948141585414477e6 0.0
5.948141585414477e6 -2.0602865181201e7 0.0
0.0 0.0 0.0

-3.035195035161813e6 1.3905515043439208e7 0.0
1.3905515043439208e7 -1.6669027977872998e6 0.0
0.0 0.0 0.0

-5.935635733263807e6 1.2410196452651713e7 0.0
1.2410196452651713e7 8.594773178353384e6 0.0
0.0 0.0 0.0

-9.21165859418219e6 5.958007236880918e6 0.0
5.958007236880918e6 1.0194496901801446e7 0.0
0.0 0.0 0.0

-9.551975792629136e6 2.0479075025680307e7 0.0
2.0479075025680307e7 7.543270720465951e6 0.0
0.0 0.0 0.0

-1.2123878251875747e7 2.889832737851875e6 0.0
2.889832737851875e6 1.4938197938238893e7 0.0
0.0 0.0 0.0

3.601477032005538e6 3.2884151706567697e7 0.0
3.2884151706567697e7 -8.549331791466968e6 0.0
0.0 0.0 0.0

-2.0126912765188154e6 1.3290134158611039e7 0.0
1.3290134158611039e7 -5.296952157515708e6 0.0
0.0 0.0 0.0

1.1110446243057097e6 1.049287240372011e7 0.0
1.049287240372011e7 -8.793301191345913e6 0.0
0.0 0.0 0.0

-5.24751409367e6 1.3098316450416133e7 0.0
1.3098316450416133e7 7.0651725627839025e6 0.0
0.0 0.0 0.0

-1.2574089182350703e7 4.54146714790356e6 0.0
4.54146714790356e6 1.5625602508208133e7 0.0
0.0 0.0 0.0

-2.555473434740604e6 1.3883101910461947e7 0.0
1.3883101910461947e7 -3.0842494557231776e6 0.0
0.0 0.0 0.0

178415.89559784945 9.830143021618746e6 0.0
9.830143021618746e6 255825.68434208454 0.0
0.0 0.0 0.0

4.905817354798606e6 5.303330896671146e6 0.0
5.303330896671146e6 -1.4230510635138279e7 0.0
0.0 0.0 0.0

-2.2875356385117033e6 6.649547203430468e6 0.0
6.649547203430468e6 1.0960027169128377e6 0.0
0.0 0.0 0.0

-1.1113389633974496e7 2.1644808330190327e7 0.0
2.1644808330190327e7 8.53542299599683e6 0.0
0.0 0.0 0.0

-6.869274524947354e6 1.204496770158538e7 0.0
1.204496770158538e7 9.128336104349282e6 0.0
0.0 0.0 0.0

661563.7516549816 1.1349869805795422e7 0.0
1.1349869805795422e7 -9.995328467478134e6 0.0
0.0 0.0 0.0

2.1437399281821265e6 1.104878205370221e7 0.0
1.104878205370221e7 1.52656641996691e6 0.0
0.0 0.0 0.0

-2.0088068873457257e6 5.052328243650391e6 0.0
5.052328243650391e6 164596.28633168945 0.0
0.0 0.0 0.0

-2.4355925441813115e6 7.797248238988485e6 0.0
7.797248238988485e6 -629352.5012776587 0.0
0.0 0.0 0.0

710670.5193754206 1.0840674288197493e7 0.0
1.0840674288197493e7 -8.605012418093856e6 0.0
0.0 0.0 0.0

-530136.6595423955 1.088990531860264e7 0.0
1.088990531860264e7 -4.891997179114863e6 0.0
0.0 0.0 0.0

-8.143803380853625e6 1.0942156615178721e7 0.0
1.0942156615178721e7 8.576345150746573e6 0.0
0.0 0.0 0.0

868983.7528139958 1.1306294426399458e7 0.0
1.1306294426399458e7 -1.1545559179322984e7 0.0
0.0 0.0 0.0

2.528769930287681e6 9.530356003891096e6 0.0
9.530356003891096e6 -1.1815905963930054e7 0.0
0.0 0.0 0.0

-6.432882986366905e6 1.5033543185784712e7 0.0
1.5033543185784712e7 6.7728058988560755e6 0.0
0.0 0.0 0.0

854019.3600735259 1.1557913363862194e7 0.0
1.1557913363862194e7 -9.499069926759182e6 0.0
0.0 0.0 0.0

-9.428279628450312e6 6.045157005993872e6 0.0
6.045157005993872e6 1.3031493610095177e7 0.0
0.0 0.0 0.0

2.81088760436683e6 5.271925130764931e6 0.0
5.271925130764931e6 -8.03678635424524e6 0.0
0.0 0.0 0.0

-1.8479877142647337e7 1.8276973550676562e7 0.0
1.8276973550676562e7 3.9848139856614294e6 0.0
0.0 0.0 0.0

1.3204031152577074e6 6.137710060750257e6 0.0
6.137710060750257e6 -6.518430838999569e6 0.0
0.0 0.0 0.0

3.1140158974908306e6 4.1699548224585927e6 0.0
4.1699548224585927e6 -8.389022354486257e6 0.0
0.0 0.0 0.0

-6.262834880741946e6 1.5537415669312367e7 0.0
1.5537415669312367e7 6.512253580380121e6 0.0
0.0 0.0 0.0

350414.39728162374 9.026379921752483e6 0.0
9.026379921752483e6 1.1680482677218523e6 0.0
0.0 0.0 0.0

2.1807917441792367e6 1.2348752505342819e7 0.0
1.2348752505342819e7 -4.722638575298615e6 0.0
0.0 0.0 0.0

-9.621345770299934e6 1.1162780028608803e7 0.0
1.1162780028608803e7 1.1658614861956175e7 0.0
0.0 0.0 0.0

-7.472017873045432e6 1.2656073184375605e7 0.0
1.2656073184375605e7 1.1321143545350876e7 0.0
0.0 0.0 0.0

131167.09027647134 1.1906619393669063e7 0.0
1.1906619393669063e7 1.6598325265280906e7 0.0
0.0 0.0 0.0

-154836.25219150214 1.2255059827984992e7 0.0
1.2255059827984992e7 -2.253181550548449e6 0.0
0.0 0.0 0.0

-6.520583585282635e6 1.299869862405128e7 0.0
1.299869862405128e7 8.527491357611021e6 0.0
0.0 0.0 0.0

-6.314906306769715e6 1.0158122693249352e7 0.0
1.0158122693249352e7 4.870196293946348e6 0.0
0.0 0.0 0.0

605415.4877093737 1.104517786391933e7 0.0
1.104517786391933e7 -9.527499811829379e6 0.0
0.0 0.0 0.0

-6.627554980912069e6 1.4899346668439122e7 0.0
1.4899346668439122e7 5.833778605639262e6 0.0
0.0 0.0 0.0

-1.231181634780538e7 4.477328627384713e6 0.0
4.477328627384713e6 1.484077697681785e7 0.0
0.0 0.0 0.0

1.0360898991466893e6 1.5860161909664981e7 0.0
1.5860161909664981e7 -5.275817163443171e6 0.0
0.0 0.0 0.0

-1.7821398748594983e6 1.3391441621897237e7 0.0
1.3391441621897237e7 -4.541930471132907e6 0.0
0.0 0.0 0.0

3.0079782595091825e6 6.636828845997413e6 0.0
6.636828845997413e6 -1.0616712448136086e7 0.0
0.0 0.0 0.0

-937614.5240125414 1.4626541612538226e7 0.0
1.4626541612538226e7 -4.8694966530144345e6 0.0
0.0 0.0 0.0

-4.803058873005475e6 1.5307606127262624e7 0.0
1.5307606127262624e7 2.263101802312161e6 0.0
0.0 0.0 0.0

-1.1894507442310504e6 9.124483636059964e6 0.0
9.124483636059964e6 -3.9648361238970696e6 0.0
0.0 0.0 0.0

4.371194109232098e6 1.511981089568636e7 0.0
1.511981089568636e7 1.4570656474990442e7 0.0
0.0 0.0 0.0

-9.637544187972244e6 -6.633354392771285e6 0.0
-6.633354392771285e6 1.9069751941268153e7 0.0
0.0 0.0 0.0

-537360.9863490111 1.0914988806194214e7 0.0
1.0914988806194214e7 1.8045317961446014e6 0.0
0.0 0.0 0.0

-6.936221520565198e6 -5.845554638844583e6 0.0
-5.845554638844583e6 1.1132771257317722e7 0.0
0.0 0.0 0.0

-4.658300043718743e6 1.5723248648287896e7 0.0
1.5723248648287896e7 1.4283834822080038e6 0.0
0.0 0.0 0.0

-3.1895131465014154e6 1.5953264396180805e7 0.0
1.5953264396180805e7 -3.0670927424790347e6 0.0
0.0 0.0 0.0

-1.0311736941429738e7 2.1018115579280972e7 0.0
2.1018115579280972e7 7.809813017724697e6 0.0
0.0 0.0 0.0

-3.3534531454608194e6 1.274835382122997e7 0.0
1.274835382122997e7 7.81106457077935e6 0.0
0.0 0.0 0.0

-1.170970231329342e7 3.882274775773239e6 0.0
3.882274775773239e6 1.612196376556758e7 0.0
0.0 0.0 0.0

-4.943308991937475e6 1.596682640582265e7 0.0
1.596682640582265e7 2.182612814810032e6 0.0
0.0 0.0 0.0

-7.1833878135544015e6 1.251433690808876e7 0.0
1.251433690808876e7 6.762790029022876e6 0.0
0.0 0.0 0.0

-6.504233687742243e6 1.4040575322782556e7 0.0
1.4040575322782556e7 5.352468314371425e6 0.0
0.0 0.0 0.0

4.499433080305226e6 7.813300357799172e6 0.0
7.813300357799172e6 -1.6399334858134987e7 0.0
0.0 0.0 0.0

-6.385193935874805e6 1.5075938296448495e7 0.0
1.5075938296448495e7 6.973622579786568e6 0.0
0.0 0.0 0.0

2.93016359449003e6 1.2029091276988745e7 0.0
1.2029091276988745e7 4.007803221304462e6 0.0
0.0 0.0 0.0

2.00421695493838e6 9.749127658744138e6 0.0
9.749127658744138e6 -1.0436593291325714e7 0.0
0.0 0.0 0.0

-1.187143087149478e7 -2.2572031188099994e6 0.0
-2.2572031188099994e6 3.254610861672365e7 0.0
0.0 0.0 0.0

-5.736872155309419e6 1.6435632417617613e7 0.0
1.6435632417617613e7 4.187800676569528e6 0.0
0.0 0.0 0.0

593014.3047432131 1.1225470844819287e7 0.0
1.1225470844819287e7 1.42520280348249e6 0.0
0.0 0.0 0.0

-4.648697949825192e7 4.082024243309367e7 0.0
4.082024243309367e7 -1.3139554744243128e7 0.0
0.0 0.0 0.0

3.2803450542038963e6 5.404142128317781e6 0.0
5.404142128317781e6 -9.520652484244328e6 0.0
0.0 0.0 0.0

-3.132555658846996e6 1.1985132763773812e7 0.0
1.1985132763773812e7 -36840.63013861072 0.0
0.0 0.0 0.0

-7.931373204742352e6 1.4681157555767806e7 0.0
1.4681157555767806e7 5.149165382523708e6 0.0
0.0 0.0 0.0

645910.5152301565 1.2370573764660433e7 0.0
1.2370573764660433e7 -8.597320890984055e6 0.0
0.0 0.0 0.0

-1.8478140486123548e6 1.3317510869810065e7 0.0
1.3317510869810065e7 -5.855820882209914e6 0.0
0.0 0.0 0.0

3.9641594173685834e6 1.2349165951833362e7 0.0
1.2349165951833362e7 -4.32861016542016e6 0.0
0.0 0.0 0.0

-7.74533999126906e6 1.829220573990783e7 0.0
1.829220573990783e7 6.941252114388555e6 0.0
0.0 0.0 0.0

-2.28707140137197e6 1.3833641288650608e7 0.0
1.3833641288650608e7 -1.9293476337083634e6 0.0
0.0 0.0 0.0

5.402991376578533e6 6.049257319211436e6 0.0
6.049257319211436e6 -1.6703951560722891e7 0.0
0.0 0.0 0.0

-1.3051592505329976e7 1.6488422745228246e7 0.0
1.6488422745228246e7 884435.6230769148 0.0
0.0 0.0 0.0

-6.594584140950963e6 1.2245309655185912e7 0.0
1.2245309655185912e7 7.197245188161252e6 0.0
0.0 0.0 0.0

-2.7419126586544015e6 1.550672668718692e7 0.0
1.550672668718692e7 -3.690237955033197e6 0.0
0.0 0.0 0.0

-7.221230148694616e6 1.277824982828868e7 0.0
1.277824982828868e7 1.4768792313258126e7 0.0
0.0 0.0 0.0

3.911906889802348e6 1.396962924503209e7 0.0
1.396962924503209e7 -6.640638704884548e6 0.0
0.0 0.0 0.0

-5.98294213044467e6 1.4373197487932073e7 0.0
1.4373197487932073e7 7.084961776919581e6 0.0
0.0 0.0 0.0

-1.1115991444599507e6 1.123803881259225e7 0.0
1.123803881259225e7 -5.285067541943955e6 0.0
0.0 0.0 0.0

-298404.2759503927 7.868077543843434e6 0.0
7.868077543843434e6 3.322916264553012e6 0.0
0.0 0.0 0.0

667266.0907230643 1.3404391741187712e7 0.0
1.3404391741187712e7 -6.119768343808275e6 0.0
0.0 0.0 0.0

-8.259684810309058e6 1.1559334342060108e7 0.0
1.1559334342060108e7 1.031581068831357e7 0.0
0.0 0.0 0.0

-1.1763956818842418e7 1.6642535433359446e6 0.0
1.6642535433359446e6 3.471225633413551e7 0.0
0.0 0.0 0.0

-1.1511547229837345e7 -3.227612147470678e6 0.0
-3.227612147470678e6 3.6889930880026296e7 0.0
0.0 0.0 0.0

-1.8209282392926433e6 1.2165272107136464e7 0.0
1.2165272107136464e7 -4.4424125300479885e6 0.0
0.0 0.0 0.0

378203.6845484474 1.2897874443629364e7 0.0
1.2897874443629364e7 -7.586431414493939e6 0.0
0.0 0.0 0.0

-1.6397878542681646e6 1.3381480184990937e7 0.0
1.3381480184990937e7 -6.240232952701587e6 0.0
0.0 0.0 0.0

-3.963029567140964e6 1.4291066392371885e7 0.0
1.4291066392371885e7 -8534.562771145953 0.0
0.0 0.0 0.0

4.704841324358842e6 1.1362700383122928e7 0.0
1.1362700383122928e7 1.721620387512648e6 0.0
0.0 0.0 0.0

-7.243476900104195e6 1.208092246743949e7 0.0
1.208092246743949e7 9.183082119056718e6 0.0
0.0 0.0 0.0

-1.2745013285070932e6 1.3385126238886436e7 0.0
1.3385126238886436e7 -6.628555226338009e6 0.0
0.0 0.0 0.0

-1.0707906110324454e6 1.0769598823661746e7 0.0
1.0769598823661746e7 -4.807977170876342e6 0.0
0.0 0.0 0.0

-3.910949113115375e6 1.0522657473948936e6 0.0
1.0522657473948936e6 5.478325253668664e6 0.0
0.0 0.0 0.0

2.225776196714487e6 1.012635533916245e7 0.0
1.012635533916245e7 -1.4101270930079252e7 0.0
0.0 0.0 0.0

-9.452822709955726e6 -3.1219117601232235e6 0.0
-3.1219117601232235e6 1.3233691574241595e7 0.0
0.0 0.0 0.0

-2.3328455376386633e6 -2.0741033866969193e6 0.0
-2.0741033866969193e6 5.306403919325894e6 0.0
0.0 0.0 0.0

-3.271881840444449e6 -1.225339492182227e6 0.0
-1.225339492182227e6 5.5240393048733035e6 0.0
0.0 0.0 0.0

-2.2067819434910687e6 7.942559279204143e6 0.0
7.942559279204143e6 68334.51961188146 0.0
0.0 0.0 0.0

272992.9064809913 1.0883966991560802e7 0.0
1.0883966991560802e7 -8.51671680891884e6 0.0
0.0 0.0 0.0

2.6654760972346785e6 9.983837634683004e6 0.0
9.983837634683004e6 -1.3877585231970074e7 0.0
0.0 0.0 0.0

-366997.4456814729 1.3102820257542856e7 0.0
1.3102820257542856e7 -1.9715740166817703e6 0.0
0.0 0.0 0.0

-894730.440314222 1.3927002144132059e7 0.0
1.3927002144132059e7 -5.8077239771902105e6 0.0
0.0 0.0 0.0

2.487442394910816e6 1.1898636307324791e7 0.0
1.1898636307324791e7 -3.4984864686050927e6 0.0
0.0 0.0 0.0

-3.974049301298587e6 1.467523345221354e7 0.0
1.467523345221354e7 424341.30012445594 0.0
0.0 0.0 0.0

1.662330069928957e7 1.422134706367123e7 0.0
1.422134706367123e7 859870.7355900966 0.0
0.0 0.0 0.0

-2.280221744616273e6 9.884417738791175e6 0.0
9.884417738791175e6 9.502225950116342e6 0.0
0.0 0.0 0.0

1.6822233018519457e6 1.2816232539523372e7 0.0
1.2816232539523372e7 -5.409625167463303e6 0.0
0.0 0.0 0.0

-2.0491365475211386e6 1.594206215229005e7 0.0
1.594206215229005e7 -3.0838251263933624e6 0.0
0.0 0.0 0.0

-5.454168881724765e6 1.6320180144391613e7 0.0
1.6320180144391613e7 3.3339363207410066e6 0.0
0.0 0.0 0.0

558318.6956668277 1.195071454497043e7 0.0
1.195071454497043e7 -9.107029144167121e6 0.0
0.0 0.0 0.0

-6.917947829650853e6 1.4196908271224665e7 0.0
1.4196908271224665e7 3.2225578798103165e6 0.0
0.0 0.0 0.0

-6.338406193686504e6 1.5747371470697334e7 0.0
1.5747371470697334e7 6.4292255126356855e6 0.0
0.0 0.0 0.0

4.472412314323484e6 5.274222398078409e6 0.0
5.274222398078409e6 -1.0567170698359996e7 0.0
0.0 0.0 0.0

-5.03472811675017e6 1.5184025854546852e7 0.0
1.5184025854546852e7 1.5856677142272007e6 0.0
0.0 0.0 0.0

-1.2746251388911402e7 2.2125033761717487e7 0.0
2.2125033761717487e7 8.965805113922006e6 0.0
0.0 0.0 0.0

-605047.4450704765 7.986200308999582e6 0.0
7.986200308999582e6 -5.016252757543608e6 0.0
0.0 0.0 0.0

2.2326568672099267e6 9.790019763170373e6 0.0
9.790019763170373e6 -1.1237850922927838e7 0.0
0.0 0.0 0.0

2.6903869302544612e6 9.757655387464145e6 0.0
9.757655387464145e6 -1.3320438289128866e7 0.0
0.0 0.0 0.0

2.184438455828361e6 1.0422536545703907e7 0.0
1.0422536545703907e7 -1.3843556778870793e7 0.0
0.0 0.0 0.0

-3.941842684507507e6 2.0732808522067472e7 0.0
2.0732808522067472e7 -1.012208715210186e6 0.0
0.0 0.0 0.0

-899116.4273077848 1.3287562512929112e7 0.0
1.3287562512929112e7 -7.024903839924744e6 0.0
0.0 0.0 0.0

-397041.5229385742 1.4068142923996583e7 0.0
1.4068142923996583e7 8.35388402489833e6 0.0
0.0 0.0 0.0

-1.709047987067069e7 7.38266986961099e6 0.0
7.38266986961099e6 9.23122630352098e6 0.0
0.0 0.0 0.0

-3.064118293127311e7 1.9709201637143645e7 0.0
1.9709201637143645e7 6.0666107907376755e6 0.0
0.0 0.0 0.0

5.583691670543186e6 6.896057010225291e6 0.0
6.896057010225291e6 -2.0016700172767673e7 0.0
0.0 0.0 0.0

1.1077174621099592e6 1.3220382926416872e7 0.0
1.3220382926416872e7 -5.891238987737955e6 0.0
0.0 0.0 0.0

-1.882176251813873e6 1.5163728768183097e7 0.0
1.5163728768183097e7 -4.413585043729959e6 0.0
0.0 0.0 0.0

4.241740751956921e6 4.96981526441297e6 0.0
4.96981526441297e6 -1.0160256366952779e7 0.0
0.0 0.0 0.0

-5.169350728783227e6 1.4508089228887983e7 0.0
1.4508089228887983e7 128274.67485993705 0.0
0.0 0.0 0.0

-4.390404581321758e6 1.2904958834412655e7 0.0
1.2904958834412655e7 7.1568112964875875e6 0.0
0.0 0.0 0.0

-3.626518941673837e6 1.1954121739479672e7 0.0
1.1954121739479672e7 1.1203935943508076e7 0.0
0.0 0.0 0.0

-1.2464180058955417e6 1.076964543434134e6 0.0
1.076964543434134e6 1.8506883486259177e6 0.0
0.0 0.0 0.0

1.38167059572778e6 1.1101641807771357e7 0.0
1.1101641807771357e7 -1.0675714980548328e7 0.0
0.0 0.0 0.0

2.0460704308701763e6 7.921963422708674e6 0.0
7.921963422708674e6 -9.651941066810627e6 0.0
0.0 0.0 0.0

784372.7004376017 6.902111711865789e6 0.0
6.902111711865789e6 -4.1696143560196497e6 0.0
0.0 0.0 0.0

-1.4190343672882188e6 1.4958325904454342e6 0.0
1.4958325904454342e6 915643.1519142846 0.0
0.0 0.0 0.0

-5.31815769290006e6 1.362588108694834e7 0.0
1.362588108694834e7 4.032974781052163e7 0.0
0.0 0.0 0.0

-1.2051907562290898e7 -1.1422299676614166e6 0.0
-1.1422299676614166e6 2.05052771461669e7 0.0
0.0 0.0 0.0

-4.971489438208291e6 1.724107579661078e7 0.0
1.724107579661078e7 1.7099744477548897e6 0.0
0.0 0.0 0.0

-3.1814750061557693e6 1.1737984812375057e7 0.0
1.1737984812375057e7 210286.467771905 0.0
0.0 0.0 0.0

642688.9846356241 1.0375098023527438e7 0.0
1.0375098023527438e7 -7.962484164593399e6 0.0
0.0 0.0 0.0

-1.9310912436492238e6 1.4795704830777382e7 0.0
1.4795704830777382e7 -4.018910085679205e6 0.0
0.0 0.0 0.0

-6.591476660437975e6 1.508905975493976e7 0.0
1.508905975493976e7 6.229095425352001e6 0.0
0.0 0.0 0.0

-7.237385235694755e6 2.3096651171853576e7 0.0
2.3096651171853576e7 2.815721821348475e6 0.0
0.0 0.0 0.0

2.1646621346882083e6 4.936477926317635e6 0.0
4.936477926317635e6 -6.846307222659524e6 0.0
0.0 0.0 0.0

-5.3610587929259315e6 571066.9426146043 0.0
571066.9426146043 5.5948094502188265e6 0.0
0.0 0.0 0.0

-448354.0839109585 1.2413533336054854e7 0.0
1.2413533336054854e7 -554173.0754318475 0.0
0.0 0.0 0.0

-6.8400214769692365e6 1.5697663087017132e7 0.0
1.5697663087017132e7 6.147466784129277e6 0.0
0.0 0.0 0.0

-5.593570409513293e6 1.294634754544447e7 0.0
1.294634754544447e7 8.828109058356168e6 0.0
0.0 0.0 0.0

-1.0224764098025877e7 5.220410759541355e6 0.0
5.220410759541355e6 1.392293228904625e7 0.0
0.0 0.0 0.0

1.855241396762047e6 1.0341581334880156e7 0.0
1.0341581334880156e7 -1.0899924239598295e7 0.0
0.0 0.0 0.0

-8.779303047496828e7 1.4224463365935812e7 0.0
1.4224463365935812e7 4.044636353335362e6 0.0
0.0 0.0 0.0

-1.1100602277154516e7 4.1634242158801085e6 0.0
4.1634242158801085e6 1.4535816953807471e7 0.0
0.0 0.0 0.0

-6.653209026259556e6 1.5826110791728256e7 0.0
1.5826110791728256e7 6.24424356251284e6 0.0
0.0 0.0 0.0

878980.0074862405 1.176011235649932e7 0.0
1.176011235649932e7 -9.674097836853594e6 0.0
0.0 0.0 0.0

1.4970420662854398e6 1.0769166133358289e7 0.0
1.0769166133358289e7 -1.3611036694914352e7 0.0
0.0 0.0 0.0

-7.280472647005172e6 2.2024314358321518e7 0.0
2.2024314358321518e7 3.6244462670419533e6 0.0
0.0 0.0 0.0

1.1410993901879778e6 1.1030755970645472e7 0.0
1.1030755970645472e7 -1.281309768303285e7 0.0
0.0 0.0 0.0

-427205.8057099716 1.307739610639504e7 0.0
1.307739610639504e7 -7.244787562198054e6 0.0
0.0 0.0 0.0

-343387.4572428847 1.2463048175936949e7 0.0
1.2463048175936949e7 36347.235017678264 0.0
0.0 0.0 0.0

-6.473806638790283e6 1.8832889757179737e7 0.0
1.8832889757179737e7 4.546997943205195e6 0.0
0.0 0.0 0.0

-7.001384789688222e6 1.5421327062331349e7 0.0
1.5421327062331349e7 5.8125889523431035e6 0.0
0.0 0.0 0.0

1.4723545316945775e6 1.086140540608767e7 0.0
1.086140540608767e7 -1.0470505721289417e7 0.0
0.0 0.0 0.0

-1.335100474030795e6 1.2856489753948292e7 0.0
1.2856489753948292e7 -5.722968038722057e6 0.0
0.0 0.0 0.0

-5.846517034442164e6 1.4660499475724341e7 0.0
1.4660499475724341e7 3.597604976888408e6 0.0
0.0 0.0 0.0

-6.49699240971285e6 1.5850384221835116e7 0.0
1.5850384221835116e7 6.321893975653438e6 0.0
0.0 0.0 0.0

-5.116878965071416e6 -7.485759846310121e6 0.0
-7.485759846310121e6 1.176242125105087e7 0.0
0.0 0.0 0.0

-7.777470206518994e6 1.0872270153093716e7 0.0
1.0872270153093716e7 9.82096017660786e6 0.0
0.0 0.0 0.0

855762.2177602467 1.1192144223946417e7 0.0
1.1192144223946417e7 -1.202214382456152e7 0.0
0.0 0.0 0.0

6.4630310508892955e6 1.1519305837003725e7 0.0
1.1519305837003725e7 -3.7887678253302095e6 0.0
0.0 0.0 0.0

1.2842487320552692e6 1.127549963195099e7 0.0
1.127549963195099e7 -1.0854861400049927e7 0.0
0.0 0.0 0.0

887867.9196853044 1.0467195847919177e7 0.0
1.0467195847919177e7 -4.3202293360364e6 0.0
0.0 0.0 0.0

-1.1573779507469231e7 2.968618105233657e6 0.0
2.968618105233657e6 1.6786656656639718e7 0.0
0.0 0.0 0.0

-5.139449007871946e6 1.3502044346172605e7 0.0
1.3502044346172605e7 308947.7142580142 0.0
0.0 0.0 0.0

837260.8967475228 9.699905776325166e6 0.0
9.699905776325166e6 -5.63717064309003e6 0.0
0.0 0.0 0.0

826112.7537487452 1.2372989883649569e7 0.0
1.2372989883649569e7 -8.069739762444556e6 0.0
0.0 0.0 0.0

-1.7148870050819933e7 2.3011095036058348e7 0.0
2.3011095036058348e7 1.0548019467062019e7 0.0
0.0 0.0 0.0

-2.9337986219971806e7 6.055481424751095e6 0.0
6.055481424751095e6 1.055354764035537e7 0.0
0.0 0.0 0.0

-5.632463179635366e6 1.7830079635765925e7 0.0
1.7830079635765925e7 1.242404890717577e6 0.0
0.0 0.0 0.0

-1.4518696877918757e7 2.2632327105447557e7 0.0
2.2632327105447557e7 9.950738354630213e6 0.0
0.0 0.0 0.0

-768214.5898132796 2.8409516976112567e7 0.0
2.8409516976112567e7 -1.7709073959726612e6 0.0
0.0 0.0 0.0

1.721739054583368e6 1.0600091886832276e7 0.0
1.0600091886832276e7 -1.3328824101493519e7 0.0
0.0 0.0 0.0

-2.6622399945372175e6 1.158802419773454e7 0.0
1.158802419773454e7 -1.1919274898799457e7 0.0
0.0 0.0 0.0

-5.909962466695176e6 1.4974785250174176e7 0.0
1.4974785250174176e7 6.485996759158384e6 0.0
0.0 0.0 0.0

-1.2134889672376346e7 4.652469796195957e6 0.0
4.652469796195957e6 1.4121764778078798e7 0.0
0.0 0.0 0.0

-6.20062773624692e6 1.4021361388933813e7 0.0
1.4021361388933813e7 2.5673235976888887e6 0.0
0.0 0.0 0.0

-1.545932434941995e6 1.0020129022427985e7 0.0
1.0020129022427985e7 2.6942208013064777e6 0.0
0.0 0.0 0.0

-1.1909926156240732e6 1.1533418306004087e7 0.0
1.1533418306004087e7 -4.0221559588075844e6 0.0
0.0 0.0 0.0

-7.286015776867208e6 2.4190046380211424e7 0.0
2.4190046380211424e7 1.653285242140377e6 0.0
0.0 0.0 0.0

-2.1663536730321324e6 1.451888904407259e7 0.0
1.451888904407259e7 -4.852238353495132e6 0.0
0.0 0.0 0.0

1.6194817196578344e6 1.1777524772861991e7 0.0
1.1777524772861991e7 -5.032668258831979e6 0.0
0.0 0.0 0.0

5.301002258857675e6 4.868176317857503e6 0.0
4.868176317857503e6 -1.46938629032234e7 0.0
0.0 0.0 0.0

-6.517731778979581e6 1.5198556568112832e7 0.0
1.5198556568112832e7 6.500642191655317e6 0.0
0.0 0.0 0.0

-3.9273731775829718e6 1.122957542811183e7 0.0
1.122957542811183e7 1.9056543349602139e6 0.0
0.0 0.0 0.0

1.1556358656429239e6 8.85297310949686e6 0.0
8.85297310949686e6 -6.735255498495089e6 0.0
0.0 0.0 0.0

1.641315626126768e6 1.0790705667146329e7 0.0
1.0790705667146329e7 -1.365095675985294e7 0.0
0.0 0.0 0.0

-4.540534270358222e6 1.2951034607594395e7 0.0
1.2951034607594395e7 6.853564149876211e6 0.0
0.0 0.0 0.0

-7.219092576480606e6 1.2647903327134293e7 0.0
1.2647903327134293e7 1.0692623365238301e7 0.0
0.0 0.0 0.0

-791498.7734433705 1.1700303046639154e7 0.0
1.1700303046639154e7 -2.683198686734754e6 0.0
0.0 0.0 0.0

-1.1239668049542664e6 1.5544747891456911e7 0.0
1.5544747891456911e7 -4.063130402532631e6 0.0
0.0 0.0 0.0

-6.479275445151452e6 1.4781393124808716e7 0.0
1.4781393124808716e7 6.985577791322143e6 0.0
0.0 0.0 0.0

-1.141445386823189e7 -2.741795042513676e6 0.0
-2.741795042513676e6 2.823796903826162e7 0.0
0.0 0.0 0.0

-2.2026567154190894e6 8.193607671724861e6 0.0
8.193607671724861e6 -41445.651435133885 0.0
0.0 0.0 0.0

-199444.0832232954 1.2267068223055042e7 0.0
1.2267068223055042e7 -2.842188693920551e6 0.0
0.0 0.0 0.0

-6.346709300351977e6 1.5396778833263826e7 0.0
1.5396778833263826e7 6.431947757392116e6 0.0
0.0 0.0 0.0

-7.030071028913615e6 1.2781570203982757e7 0.0
1.2781570203982757e7 8.242423987644313e6 0.0
0.0 0.0 0.0

1.8881545725695812e6 9.146723829249082e6 0.0
9.146723829249082e6 -9.08988483102989e6 0.0
0.0 0.0 0.0

-5.674195457594752e6 1.5942502334301451e7 0.0
1.5942502334301451e7 4.1318053505757437e6 0.0
0.0 0.0 0.0

-6.680868278446808e6 1.961794337839592e7 0.0
1.961794337839592e7 4.487111674186316e6 0.0
0.0 0.0 0.0

-5.200970661072062e6 1.3029219371921407e7 0.0
1.3029219371921407e7 3.690852136587207e6 0.0
0.0 0.0 0.0

1.6300141386903916e6 1.0296656590776123e7 0.0
1.0296656590776123e7 -1.0082771748743784e7 0.0
0.0 0.0 0.0

-5.698638899659177e6 1.6081956987533076e7 0.0
1.6081956987533076e7 2.957004236883634e6 0.0
0.0 0.0 0.0

-3.031456942334131e6 1.5287063134845488e7 0.0
1.5287063134845488e7 -3.528969660446503e6 0.0
0.0 0.0 0.0

-4.588047608622894e6 1.3661540692044036e7 0.0
1.3661540692044036e7 9.652918255837863e6 0.0
0.0 0.0 0.0

-5.443497490380812e6 1.273643532128233e7 0.0
1.273643532128233e7 4.191004794296814e6 0.0
0.0 0.0 0.0

-6.638053706497504e6 1.5993505101626726e7 0.0
1.5993505101626726e7 6.1556906119579505e6 0.0
0.0 0.0 0.0

-1.0151383630197559e7 -5.319453686986373e6 0.0
-5.319453686986373e6 1.949344989524877e7 0.0
0.0 0.0 0.0

-6.519964609769082e6 1.918098668903528e7 0.0
1.918098668903528e7 4.582262215215582e6 0.0
0.0 0.0 0.0

5.202173043503049e6 4.928306597753859e6 0.0
4.928306597753859e6 -1.4391487484042846e7 0.0
0.0 0.0 0.0

-4.712913157925452e6 1.5195326560327755e7 0.0
1.5195326560327755e7 311770.3778048428 0.0
0.0 0.0 0.0

-7.672798565384069e6 -6.706035758249079e6 0.0
-6.706035758249079e6 1.4822150774754189e7 0.0
0.0 0.0 0.0

455131.7206933608 9.041625012157902e6 0.0
9.041625012157902e6 -4.590065527515842e6 0.0
0.0 0.0 0.0

-5.677175766730818e6 1.4726065991443174e7 0.0
1.4726065991443174e7 4.0139911323162443e6 0.0
0.0 0.0 0.0

-711943.9239740315 1.3481024967013516e7 0.0
1.3481024967013516e7 -1.5865938667749264e6 0.0
0.0 0.0 0.0

-1.092399915201872e6 1.3712191983285831e7 0.0
1.3712191983285831e7 -1.5129490072445138e6 0.0
0.0 0.0 0.0

702665.3025605781 1.1741840179999027e7 0.0
1.1741840179999027e7 -9.984358868218288e6 0.0
0.0 0.0 0.0

-1.2248146933670327e7 5.896178639153976e6 0.0
5.896178639153976e6 1.4450465314805172e7 0.0
0.0 0.0 0.0

-2.452636566328564e6 1.0535508656162402e7 0.0
1.0535508656162402e7 4.5062710673763435e6 0.0
0.0 0.0 0.0

3.5737271276081596e6 7.3990353497044975e6 0.0
7.3990353497044975e6 -1.1777163313612761e7 0.0
0.0 0.0 0.0

-2.0722542163291886e6 1.3988406551021447e7 0.0
1.3988406551021447e7 8.029825667529017e6 0.0
0.0 0.0 0.0

-1.4333998454102166e6 1.3815479950276976e7 0.0
1.3815479950276976e7 -1.9857674766258594e7 0.0
0.0 0.0 0.0

-6.711175456845576e6 1.1792738738444801e7 0.0
1.1792738738444801e7 7.597815772496907e6 0.0
0.0 0.0 0.0

-5.984213853131621e6 1.6168683601284917e7 0.0
1.6168683601284917e7 3.7864713318170295e6 0.0
0.0 0.0 0.0

-4.69973927570666e6 1.2525618093204565e7 0.0
1.2525618093204565e7 1.744719792106365e6 0.0
0.0 0.0 0.0

-1.5521822412726348e6 1.352628825530746e7 0.0
1.352628825530746e7 -4.929105653389769e6 0.0
0.0 0.0 0.0

517476.23304025107 1.2839314012421783e7 0.0
1.2839314012421783e7 -6.121421242685926e6 0.0
0.0 0.0 0.0

-6.318654754038585e6 1.5273626967572752e7 0.0
1.5273626967572752e7 6.617852111942276e6 0.0
0.0 0.0 0.0

-5.258114649587849e6 1.2937169124777008e7 0.0
1.2937169124777008e7 7.545463054597776e6 0.0
0.0 0.0 0.0

-7.448391107538434e6 1.2534000320328575e7 0.0
1.2534000320328575e7 1.052237893930747e7 0.0
0.0 0.0 0.0

-489466.0396296126 1.0899855881837122e7 0.0
1.0899855881837122e7 -9.846465923399467e6 0.0
0.0 0.0 0.0

573263.0811798256 1.065067210004816e7 0.0
1.065067210004816e7 -9.031570499889122e6 0.0
0.0 0.0 0.0

-3.8270708603666467e6 1.2947291160773374e7 0.0
1.2947291160773374e7 6.01963545159089e6 0.0
0.0 0.0 0.0

3.7634349757097242e6 8.544883515360301e6 0.0
8.544883515360301e6 -1.5733344369811762e7 0.0
0.0 0.0 0.0

-1.5113666900175791e6 1.3018144623241458e7 0.0
1.3018144623241458e7 -3.1934914215592286e6 0.0
0.0 0.0 0.0

-6.867711295185128e6 2.017932196688362e7 0.0
2.017932196688362e7 4.509914066666233e6 0.0
0.0 0.0 0.0

-2.3050832935652235e6 1.3403672740162093e7 0.0
1.3403672740162093e7 6.065024371088822e6 0.0
0.0 0.0 0.0

1.0036371694420662e7 1.7760511269926712e7 0.0
1.7760511269926712e7 3.3454552541476123e7 0.0
0.0 0.0 0.0

-6.573668842721382e6 1.5678416321094755e7 0.0
1.5678416321094755e7 -2.1912216541361988e7 0.0
0.0 0.0 0.0

-4.224571075834404e6 1.1115652638230894e7 0.0
1.1115652638230894e7 932253.8284072503 0.0
0.0 0.0 0.0

-1.9495371443467274e7 1.5902910622659473e7 0.0
1.5902910622659473e7 1.2888596070836902e7 0.0
0.0 0.0 0.0

-4.2320821598546235e6 1.416890713558116e7 0.0
1.416890713558116e7 -63078.48935671081 0.0
0.0 0.0 0.0

-3.0846915395762455e6 1.3124702777763508e7 0.0
1.3124702777763508e7 4.774644934428251e6 0.0
0.0 0.0 0.0

-3.2647105519249304e6 1.3667515128563061e7 0.0
1.3667515128563061e7 7.507573691579716e6 0.0
0.0 0.0 0.0

-724111.0258114152 1.4902759298647592e7 0.0
1.4902759298647592e7 1.5725243092050817e7 0.0
0.0 0.0 0.0

1.0121474051838742e6 1.142511192974609e7 0.0
1.142511192974609e7 3.565894533447418e6 0.0
0.0 0.0 0.0

705236.4655220537 1.2851379030534944e7 0.0
1.2851379030534944e7 5.746037761745172e6 0.0
0.0 0.0 0.0

-2.3126557342412844e6 1.5642100914326381e7 0.0
1.5642100914326381e7 -3.9225160979474126e6 0.0
0.0 0.0 0.0

-2.1844237886922206e6 1.2805175707895063e7 0.0
1.2805175707895063e7 4.307692755518082e6 0.0
0.0 0.0 0.0

-3.8039141264634756e6 1.2652235980374012e7 0.0
1.2652235980374012e7 6.203708843490909e6 0.0
0.0 0.0 0.0

-5.32613031890513e6 1.8416162519609615e7 0.0
1.8416162519609615e7 2.532105850617596e6 0.0
0.0 0.0 0.0

-2.2112216608179375e6 1.174515911379492e7 0.0
1.174515911379492e7 6.005053885675935e6 0.0
0.0 0.0 0.0

4.565173220803141e6 5.385571211221197e6 0.0
5.385571211221197e6 -1.2176476270803662e7 0.0
0.0 0.0 0.0

-8.090832644003816e6 8.294911434683971e6 0.0
8.294911434683971e6 9.1090952582197e6 0.0
0.0 0.0 0.0

-4.558259764025922e6 -8.291292727563623e6 0.0
-8.291292727563623e6 1.176956570158682e7 0.0
0.0 0.0 0.0

-6.365065795569103e6 1.2433901812068593e7 0.0
1.2433901812068593e7 8.62402068307464e6 0.0
0.0 0.0 0.0

-5.282544930134167e6 1.6649199420243796e7 0.0
1.6649199420243796e7 2.809074624856512e6 0.0
0.0 0.0 0.0

997331.6348801849 1.487751225832234e7 0.0
1.487751225832234e7 7.26003781742036e6 0.0
0.0 0.0 0.0

-551211.168965009 1.2889234893378688e7 0.0
1.2889234893378688e7 4.494143307054337e6 0.0
0.0 0.0 0.0

-6.440568841519438e6 1.5879744929667924e7 0.0
1.5879744929667924e7 6.353320027874194e6 0.0
0.0 0.0 0.0

3.1517656104483614e6 4.912642974379613e6 0.0
4.912642974379613e6 -8.306058470189677e6 0.0
0.0 0.0 0.0

-4.961041161060112e6 1.5445748259417048e7 0.0
1.5445748259417048e7 1.0359163256189732e6 0.0
0.0 0.0 0.0

2.551820579603873e6 8.246276110942817e6 0.0
8.246276110942817e6 -9.740472247256774e6 0.0
0.0 0.0 0.0

-6.843171883343479e6 1.535046442226598e7 0.0
1.535046442226598e7 5.796695345672118e6 0.0
0.0 0.0 0.0

-3.276714565078533e6 1.6667419630973056e7 0.0
1.6667419630973056e7 -2.7294313498728285e6 0.0
0.0 0.0 0.0

-4.499357293038953e6 1.3741538589628031e7 0.0
1.3741538589628031e7 934314.3487690245 0.0
0.0 0.0 0.0

6.261893795794416e6 4.871286695325107e6 0.0
4.871286695325107e6 -1.9214463317820843e7 0.0
0.0 0.0 0.0

2.4109653144739773e6 1.1628023712552084e7 0.0
1.1628023712552084e7 -1.8256501933665772e6 0.0
0.0 0.0 0.0

-4.42209301302206e6 1.6212936074205851e7 0.0
1.6212936074205851e7 764296.9229032015 0.0
0.0 0.0 0.0

-3.0573954763280163e6 1.4538616331810212e7 0.0
1.4538616331810212e7 -2.1182917758427034e6 0.0
0.0 0.0 0.0

527008.807660161 1.1017628209752426e7 0.0
1.1017628209752426e7 -8.338395126975178e6 0.0
0.0 0.0 0.0

4.0075740794675928e6 5.9741819386638235e6 0.0
5.9741819386638235e6 -1.1648304230243597e7 0.0
0.0 0.0 0.0

-6.167624441056605e6 1.343874764754827e7 0.0
1.343874764754827e7 4.497712166387083e6 0.0
0.0 0.0 0.0

2.4559377316087857e6 9.777216817072101e6 0.0
9.777216817072101e6 -1.4098893245705046e7 0.0
0.0 0.0 0.0

-7.195899816953444e6 -9.656188695641892e6 0.0
-9.656188695641892e6 1.4308787451847568e7 0.0
0.0 0.0 0.0

-7.518343627281786e6 1.132831599474408e7 0.0
1.132831599474408e7 9.242087747400895e6 0.0
0.0 0.0 0.0

-8.678380894524138e6 1.4377341251924533e7 0.0
1.4377341251924533e7 4.268615901241313e6 0.0
0.0 0.0 0.0

6.276372301079443e6 7.020672728475091e6 0.0
7.020672728475091e6 -2.7067243771829344e7 0.0
0.0 0.0 0.0

-1.0554521045838825e7 1.0262103234881312e7 0.0
1.0262103234881312e7 1.6393977779982138e7 0.0
0.0 0.0 0.0

-4.013639384265264e6 1.3317944457242584e7 0.0
1.3317944457242584e7 7.736601961633382e6 0.0
0.0 0.0 0.0

-7.547251659704526e6 1.255669730324383e7 0.0
1.255669730324383e7 1.2368628462238532e7 0.0
0.0 0.0 0.0

-3.6153492725573294e6 1.1895197306684427e7 0.0
1.1895197306684427e7 836390.1150691172 0.0
0.0 0.0 0.0

-7.313040819782771e6 1.1394067255301928e7 0.0
1.1394067255301928e7 6.969273033069601e6 0.0
0.0 0.0 0.0

633953.6297676926 1.0766768347117139e7 0.0
1.0766768347117139e7 -7.350295016077431e6 0.0
0.0 0.0 0.0

874049.5125407022 1.0401940082800226e7 0.0
1.0401940082800226e7 -9.555055850859428e6 0.0
0.0 0.0 0.0

4.233065797774233e6 8.440323816250572e6 0.0
8.440323816250572e6 -1.8126363673132837e7 0.0
0.0 0.0 0.0

-5.437303594023321e6 -8.816799498030178e6 0.0
-8.816799498030178e6 1.3288319281752897e7 0.0
0.0 0.0 0.0

-8.578068332737435e6 -8.925372282238862e6 0.0
-8.925372282238862e6 2.047132981084525e7 0.0
0.0 0.0 0.0

-4.0694316615555515e6 1.4256117484792512e7 0.0
1.4256117484792512e7 1.868360381875833e6 0.0
0.0 0.0 0.0

-1.3762497023684594e6 1.3592626801719205e7 0.0
1.3592626801719205e7 -5.416728285518884e6 0.0
0.0 0.0 0.0

-6.508565193721649e6 1.3122147077065296e7 0.0
1.3122147077065296e7 1.5260923626650091e7 0.0
0.0 0.0 0.0

678349.093283569 1.0494489517778719e7 0.0
1.0494489517778719e7 -6.146974557796623e6 0.0
0.0 0.0 0.0

-1.2645016827097016e6 1.5123693958855756e7 0.0
1.5123693958855756e7 -4.578009024318248e6 0.0
0.0 0.0 0.0

-6.610357570292827e6 1.4458602183498891e7 0.0
1.4458602183498891e7 5.6312607926594205e6 0.0
0.0 0.0 0.0

-5.044225541836761e6 398145.56995087 0.0
398145.56995087 6.495782709735664e6 0.0
0.0 0.0 0.0

-5.3818315313209575e6 2.5721602209832665e7 0.0
2.5721602209832665e7 -62626.66154627269 0.0
0.0 0.0 0.0

791330.2891459148 1.1959160984259931e7 0.0
1.1959160984259931e7 -6.958121635290059e6 0.0
0.0 0.0 0.0

-123961.60526195727 1.2201189785874838e7 0.0
1.2201189785874838e7 -1.8001991800941333e7 0.0
0.0 0.0 0.0

5.080979097826112e6 5.338066551168253e6 0.0
5.338066551168253e6 -1.3648384824208105e7 0.0
0.0 0.0 0.0

-265239.3684665847 1.2520898902643666e7 0.0
1.2520898902643666e7 -2.662137460351946e6 0.0
0.0 0.0 0.0

-8.017990037356933e6 1.0431348576310426e7 0.0
1.0431348576310426e7 1.0347081560728721e7 0.0
0.0 0.0 0.0

-1.6924309663459964e7 7.16410254372312e6 0.0
7.16410254372312e6 1.0233044262642682e7 0.0
0.0 0.0 0.0

-1.742768701538383e6 1.4330333271684252e7 0.0
1.4330333271684252e7 -1.334882438966498e6 0.0
0.0 0.0 0.0

214696.7853548946 1.2638974599472685e7 0.0
1.2638974599472685e7 4.574372444123294e6 0.0
0.0 0.0 0.0

200234.98063006904 1.0830195299208704e7 0.0
1.0830195299208704e7 -8.662339852441126e6 0.0
0.0 0.0 0.0

-4.382591394845174e6 1.076958834010148e6 0.0
1.076958834010148e6 6.583929767840325e6 0.0
0.0 0.0 0.0

-2.081419978598428e6 1.23342037529432e7 0.0
1.23342037529432e7 -3.768873064426515e6 0.0
0.0 0.0 0.0

-798564.049084234 1.276216336779428e7 0.0
1.276216336779428e7 153778.74005772406 0.0
0.0 0.0 0.0

-2.478894994018647e6 1.300281975841867e7 0.0
1.300281975841867e7 4.755611817530587e6 0.0
0.0 0.0 0.0

-458851.2558739912 1.1759615988727765e7 0.0
1.1759615988727765e7 -7.803533048621492e6 0.0
0.0 0.0 0.0

-5.47784487584834e6 1.3186063171474962e7 0.0
1.3186063171474962e7 9.161485708923971e6 0.0
0.0 0.0 0.0

683172.9104081497 9.473510138248945e6 0.0
9.473510138248945e6 -2.233180788113471e6 0.0
0.0 0.0 0.0

-1.0561685666102066e6 1.3592834631881641e7 0.0
1.3592834631881641e7 -5.910842407611425e6 0.0
0.0 0.0 0.0

2.2906111346317055e6 1.165763753008927e7 0.0
1.165763753008927e7 -3.9982515175070423e6 0.0
0.0 0.0 0.0

2.273925706056743e6 9.480305226592543e6 0.0
9.480305226592543e6 -1.2684424919498602e7 0.0
0.0 0.0 0.0

-6.869016170323443e6 1.2482857518100489e7 0.0
1.2482857518100489e7 8.724714099540198e6 0.0
0.0 0.0 0.0

-882448.2143601035 1.0682286000584131e7 0.0
1.0682286000584131e7 -3.751064119281039e6 0.0
0.0 0.0 0.0

-2.746072685110009e7 1.5876224238618463e7 0.0
1.5876224238618463e7 1.0734840181341968e7 0.0
0.0 0.0 0.0

-4.914480197542476e6 1.3869114745826041e7 0.0
1.3869114745826041e7 1.97917171025398e7 0.0
0.0 0.0 0.0

5.358085698224662e6 4.835074577431145e6 0.0
4.835074577431145e6 -1.4984455656850208e7 0.0
0.0 0.0 0.0

-8.473656876370959e6 -9.19607912185281e6 0.0
-9.19607912185281e6 1.9305047759282894e7 0.0
0.0 0.0 0.0

867395.4018540783 1.132096706539854e7 0.0
1.132096706539854e7 -1.67787076181641e7 0.0
0.0 0.0 0.0

1.2213381969471183e6 1.1093765721124396e7 0.0
1.1093765721124396e7 -1.2907161958407601e7 0.0
0.0 0.0 0.0

-708493.9330331049 1.345752065210827e7 0.0
1.345752065210827e7 -1.741277761874536e6 0.0
0.0 0.0 0.0

-9.920351910196485e6 1.71810751453353e7 0.0
1.71810751453353e7 3.0271814007710936e6 0.0
0.0 0.0 0.0

-9.241189833101777e6 1.1334814043324532e7 0.0
1.1334814043324532e7 1.1323709876074027e7 0.0
0.0 0.0 0.0

-714776.6589859324 1.3529821010806903e7 0.0
1.3529821010806903e7 -6.39521783807102e6 0.0
0.0 0.0 0.0

-1.0945261884383257e7 -5.927135264839782e6 0.0
-5.927135264839782e6 3.0975474445753977e7 0.0
0.0 0.0 0.0

-8.782341837730478e6 9.205020792325104e6 0.0
9.205020792325104e6 1.1578312899274468e7 0.0
0.0 0.0 0.0

6.753007473584468e6 6.030453393067607e6 0.0
6.030453393067607e6 -2.5807698935779892e7 0.0
0.0 0.0 0.0

-6.132328187708448e6 1.6533036211956842e7 0.0
1.6533036211956842e7 4.0577904993558014e6 0.0
0.0 0.0 0.0

6.529879665642081e6 5.097110735182757e6 0.0
5.097110735182757e6 -2.2777395838573165e7 0.0
0.0 0.0 0.0

-2.198740700582953e7 2.2290140164094537e7 0.0
2.2290140164094537e7 1.190856019071983e7 0.0
0.0 0.0 0.0

-1.104664579684911e7 -5.289763929823181e6 0.0
-5.289763929823181e6 3.303528320543962e7 0.0
0.0 0.0 0.0

2.6722654441690464e6 9.604490292331137e6 0.0
9.604490292331137e6 -1.2588199456465933e7 0.0
0.0 0.0 0.0

-7.47927791138748e6 1.4572305863635588e7 0.0
1.4572305863635588e7 4.284375717546051e6 0.0
0.0 0.0 0.0

-2.394245124067028e7 1.189979349229048e7 0.0
1.189979349229048e7 3.6895019874665095e6 0.0
0.0 0.0 0.0

6.643556558148887e6 5.507639238081186e6 0.0
5.507639238081186e6 -2.4319315569795776e7 0.0
0.0 0.0 0.0

-5.61775820839541e6 1.3626272111248286e7 0.0
1.3626272111248286e7 3.080902288397276e6 0.0
0.0 0.0 0.0

-6.8253270316155795e6 1.332530388402591e7 0.0
1.332530388402591e7 8.14451219818009e6 0.0
0.0 0.0 0.0

2.698031755467443e6 1.2010521967762671e7 0.0
1.2010521967762671e7 6.304937050035101e6 0.0
0.0 0.0 0.0

1.2128037426574263e6 1.1113121265583765e7 0.0
1.1113121265583765e7 -1.193447845108677e7 0.0
0.0 0.0 0.0

779806.9179987335 1.1323135424868634e7 0.0
1.1323135424868634e7 -1.2212954343731146e7 0.0
0.0 0.0 0.0

-3.511855989454768e6 1.4269906616135111e7 0.0
1.4269906616135111e7 -2.5526187832393646e6 0.0
0.0 0.0 0.0

-6.334543538182201e6 1.6809894040781684e7 0.0
1.6809894040781684e7 4.35753224385486e6 0.0
0.0 0.0 0.0

-1.1805459637902984e7 4.614848275313247e6 0.0
4.614848275313247e6 1.6456158205823462e7 0.0
0.0 0.0 0.0

6.40645318969737e6 4.928297696701822e6 0.0
4.928297696701822e6 -2.0655979834700927e7 0.0
0.0 0.0 0.0

-1.0695879234052218e7 1.748314922021944e7 0.0
1.748314922021944e7 8.53207484732192e6 0.0
0.0 0.0 0.0

3.565198727573176e6 6.147091846078603e6 0.0
6.147091846078603e6 -9.968531081948102e6 0.0
0.0 0.0 0.0

623443.8024872993 1.1562822336989215e7 0.0
1.1562822336989215e7 -9.661118025945872e6 0.0
0.0 0.0 0.0

6.463187500448797e6 5.080829261836387e6 0.0
5.080829261836387e6 -2.1370718698021628e7 0.0
0.0 0.0 0.0

604862.308144819 1.1446387704483781e7 0.0
1.1446387704483781e7 -1.1488787588811347e7 0.0
0.0 0.0 0.0

-1.2496261393709872e7 2.51936543536043e6 0.0
2.51936543536043e6 1.8139767957361132e7 0.0
0.0 0.0 0.0

90639.44512991572 4.352502839805853e6 0.0
4.352502839805853e6 -3.0855006759603294e6 0.0
0.0 0.0 0.0

-3.984995565062426e6 1.0278975302567523e7 0.0
1.0278975302567523e7 816428.2084445688 0.0
0.0 0.0 0.0

-1.4361832559506055e6 1.3772691655277625e7 0.0
1.3772691655277625e7 6.635455783155253e6 0.0
0.0 0.0 0.0

5.589154836793987e6 4.720216841765555e6 0.0
4.720216841765555e6 -1.6233205920195267e7 0.0
0.0 0.0 0.0

-6.155760361325762e6 1.4939116003271095e7 0.0
1.4939116003271095e7 6.720729971131315e6 0.0
0.0 0.0 0.0

-6.816596916108856e6 -5.474480249429404e6 0.0
-5.474480249429404e6 1.296819310320966e7 0.0
0.0 0.0 0.0

645430.5302475003 1.0311695139911605e7 0.0
1.0311695139911605e7 -2.5969342901909146e6 0.0
0.0 0.0 0.0

1.9781738521770672e6 9.712736210716916e6 0.0
9.712736210716916e6 -1.2101294403494876e7 0.0
0.0 0.0 0.0

-5.5185155579543635e6 1.262059925161899e7 0.0
1.262059925161899e7 7.961219705947965e6 0.0
0.0 0.0 0.0

-3.5761168545834124e6 1.3772396637887634e7 0.0
1.3772396637887634e7 1.0043963845140904e7 0.0
0.0 0.0 0.0

-603041.2553832853 1.2387581683332698e7 0.0
1.2387581683332698e7 -2.426921489349051e6 0.0
0.0 0.0 0.0

-2.891083252472172e6 1.4150217905573092e7 0.0
1.4150217905573092e7 -2.3992495813183608e6 0.0
0.0 0.0 0.0

-6.47650174227805e6 1.4888865933027966e7 0.0
1.4888865933027966e7 5.044399493829351e6 0.0
0.0 0.0 0.0

-381610.4038423732 1.2990805118760372e7 0.0
1.2990805118760372e7 -2.405384097182114e6 0.0
0.0 0.0 0.0

7.295938746229067e6 5.836006962566706e6 0.0
5.836006962566706e6 -2.33684832180318e6 0.0
0.0 0.0 0.0

-1.096044587081032e7 -6.407002095520278e6 0.0
-6.407002095520278e6 2.9092588996751674e7 0.0
0.0 0.0 0.0

-320180.9006130353 1.1751271561183961e7 0.0
1.1751271561183961e7 5.703311811588962e6 0.0
0.0 0.0 0.0

-9.014015622764807e6 -8.2665800338710565e6 0.0
-8.2665800338710565e6 2.208398384788416e7 0.0
0.0 0.0 0.0

-589386.62675039 1.3076783381749446e7 0.0
1.3076783381749446e7 -1.0404928594490788e6 0.0
0.0 0.0 0.0

-1.2421746764409993e7 5.64520166235404e6 0.0
5.64520166235404e6 1.991919769243648e7 0.0
0.0 0.0 0.0

-3.694515783135743e6 1.0389286719211578e7 0.0
1.0389286719211578e7 1.7665251757740728e6 0.0
0.0 0.0 0.0

861442.5073641506 3.565668219547782e6 0.0
3.565668219547782e6 -3.6382330476989504e6 0.0
0.0 0.0 0.0

849822.7565769022 3.634372858843382e6 0.0
3.634372858843382e6 -3.284925318107883e6 0.0
0.0 0.0 0.0

-702630.5900354041 1.332443296357757e7 0.0
1.332443296357757e7 -6.555517536263122e6 0.0
0.0 0.0 0.0

-2.953395805061715e6 1.3950451802341785e7 0.0
1.3950451802341785e7 -585471.1315215288 0.0
0.0 0.0 0.0

-237163.58300388698 1.3459088679857006e7 0.0
1.3459088679857006e7 -6.749869562639225e6 0.0
0.0 0.0 0.0

-1.2384152896471139e7 3.662673016917466e6 0.0
3.662673016917466e6 1.5313449195086967e7 0.0
0.0 0.0 0.0

426390.8495685407 1.1232605037438288e7 0.0
1.1232605037438288e7 -9.232508470922336e6 0.0
0.0 0.0 0.0

2.4489600319092656e6 9.572364016990254e6 0.0
9.572364016990254e6 -1.3387934652518515e7 0.0
0.0 0.0 0.0

-5.878772404682305e6 1.470010997829507e7 0.0
1.470010997829507e7 6.6501707852569055e6 0.0
0.0 0.0 0.0

1.7437336292217956e6 9.653499356122749e6 0.0
9.653499356122749e6 -1.1297874444218092e7 0.0
0.0 0.0 0.0

-5.341181850522796e7 1.976814745024539e7 0.0
1.976814745024539e7 6.385241871950809e6 0.0
0.0 0.0 0.0

-49500.155349450186 1.1517842335927939e7 0.0
1.1517842335927939e7 -8.42230105493128e6 0.0
0.0 0.0 0.0

-8.676754799436755e6 1.9368133521555834e7 0.0
1.9368133521555834e7 6.253429256639235e6 0.0
0.0 0.0 0.0

-735903.7123452115 9.681075732662369e6 0.0
9.681075732662369e6 1.085420493040716e6 0.0
0.0 0.0 0.0

-7.523215659100733e6 1.1749530122637628e7 0.0
1.1749530122637628e7 9.761150931654798e6 0.0
0.0 0.0 0.0

-2.833503234213342e6 1.387072850044756e7 0.0
1.387072850044756e7 -2.0907970744793948e6 0.0
0.0 0.0 0.0

-3.3761397600572277e6 2.1526088260554124e7 0.0
2.1526088260554124e7 -2.754781061152753e6 0.0
0.0 0.0 0.0

-7.502599877905881e6 -1.0148977744329564e7 0.0
-1.0148977744329564e7 1.746637509690796e7 0.0
0.0 0.0 0.0

5.418508709634746e6 4.802871221392169e6 0.0
4.802871221392169e6 -1.5344202957019875e7 0.0
0.0 0.0 0.0

-3.331248079657439e6 1.4201955137003154e7 0.0
1.4201955137003154e7 -1.0540960012053624e6 0.0
0.0 0.0 0.0

-1.745072024665209e6 1.896449624212757e6 0.0
1.896449624212757e6 268913.2277887601 0.0
0.0 0.0 0.0

6.111302563467053e6 4.83560889394729e6 0.0
4.83560889394729e6 -1.8682144824934818e7 0.0
0.0 0.0 0.0

-1.0646057142667888e7 -7.028576172599751e6 0.0
-7.028576172599751e6 2.779430397805354e7 0.0
0.0 0.0 0.0

-3.978023430442402e6 -6.424266380904046e6 0.0
-6.424266380904046e6 9.321187509423869e6 0.0
0.0 0.0 0.0

259248.20238267235 9.98959290107357e6 0.0
9.98959290107357e6 -5.154363715517245e6 0.0
0.0 0.0 0.0

-8.2651973431882495e6 -9.623785222518286e6 0.0
-9.623785222518286e6 1.8742096526159845e7 0.0
0.0 0.0 0.0

5.486980133879032e6 4.819664398044984e6 0.0
4.819664398044984e6 -1.5730834839132711e7 0.0
0.0 0.0 0.0

6.0337157930651475e6 4.873681709746168e6 0.0
4.873681709746168e6 -1.8060895127596583e7 0.0
0.0 0.0 0.0

-1.008511060275905e7 -7.550869366953024e6 0.0
-7.550869366953024e6 2.624922824679945e7 0.0
0.0 0.0 0.0

-3.220899323932333e6 1.247181096815345e7 0.0
1.247181096815345e7 -2.756340683382837e6 0.0
0.0 0.0 0.0

-585336.3775461088 1.3027162708614651e7 0.0
1.3027162708614651e7 -6.84944381057999e6 0.0
0.0 0.0 0.0

-6.140794532783285e6 1.514254785904236e7 0.0
1.514254785904236e7 5.447578367544311e6 0.0
0.0 0.0 0.0

5.961762148961471e6 4.866901271262153e6 0.0
4.866901271262153e6 -1.7667965262222707e7 0.0
0.0 0.0 0.0

-9.592215077170381e6 -7.8422940512450505e6 0.0
-7.8422940512450505e6 2.449131016934263e7 0.0
0.0 0.0 0.0

589147.596805292 1.0222098769187294e7 0.0
1.0222098769187294e7 -4.739708865310398e6 0.0
0.0 0.0 0.0

1.9433870976183368e6 1.0043597435124319e7 0.0
1.0043597435124319e7 -1.0699529904281171e7 0.0
0.0 0.0 0.0

-4.244951204973526e6 1.4920055328485647e7 0.0
1.4920055328485647e7 959554.9880551796 0.0
0.0 0.0 0.0

-3.8443752807867243e6 1.1835764766179373e7 0.0
1.1835764766179373e7 90674.90807160293 0.0
0.0 0.0 0.0

-7.499129238859986e6 1.2591781494705452e7 0.0
1.2591781494705452e7 1.0941844369534051e7 0.0
0.0 0.0 0.0

-9.287854848721376e6 -7.9650281661184775e6 0.0
-7.9650281661184775e6 2.305399727883955e7 0.0
0.0 0.0 0.0

5.887285521383835e6 4.817138808036755e6 0.0
4.817138808036755e6 -1.715089011334318e7 0.0
0.0 0.0 0.0

-4.792184265756645e6 1.7019772282285493e7 0.0
1.7019772282285493e7 -494605.1221684456 0.0
0.0 0.0 0.0

-6.013594897412308e6 1.3681468388336826e7 0.0
1.3681468388336826e7 1.8117504710138187e7 0.0
0.0 0.0 0.0

1.999948771133871e7 3.475768923442165e7 0.0
3.475768923442165e7 -2.8332280420112107e7 0.0
0.0 0.0 0.0

-7085.415235871682 8.091822862688912e6 0.0
8.091822862688912e6 -4.945232709245531e6 0.0
0.0 0.0 0.0

-6.029174566251975e6 1.641136609233176e7 0.0
1.641136609233176e7 4.624842736627072e6 0.0
0.0 0.0 0.0

-1.2294153956911052e6 4.872177176119178e6 0.0
4.872177176119178e6 -725177.4151387773 0.0
0.0 0.0 0.0

-6.0094443711470235e6 1.534947791272112e7 0.0
1.534947791272112e7 5.174766589929497e6 0.0
0.0 0.0 0.0

2.7213323796138545e6 4.225951434947316e6 0.0
4.225951434947316e6 -7.781175702791729e6 0.0
0.0 0.0 0.0

-586936.8465078295 1.6494156083369495e7 0.0
1.6494156083369495e7 -4.565818748608902e6 0.0
0.0 0.0 0.0

-2.349072667341521e6 1.5138992479616228e7 0.0
1.5138992479616228e7 -3.3020079896825943e6 0.0
0.0 0.0 0.0

-7.484249749524916e6 9.209808701672941e6 0.0
9.209808701672941e6 6.968354751644628e6 0.0
0.0 0.0 0.0

-561375.5972114826 1.3320946518688304e7 0.0
1.3320946518688304e7 -1.1384292467187606e6 0.0
0.0 0.0 0.0

-1.0181151618272012e7 -3.84946135420984e6 0.0
-3.84946135420984e6 3.728733316571708e7 0.0
0.0 0.0 0.0

922120.4262346069 4.416068960524532e6 0.0
4.416068960524532e6 -3.7803987135180053e6 0.0
0.0 0.0 0.0

-1.1842830531373727e6 -998525.2639903986 0.0
-998525.2639903986 289922.2400561864 0.0
0.0 0.0 0.0

1.4268473472843454e6 -1.8323703781768475e6 0.0
-1.8323703781768475e6 -2.5661706760720704e6 0.0
0.0 0.0 0.0

-2.113135916205261e6 1.5361203073997864e7 0.0
1.5361203073997864e7 -3.468593313958073e6 0.0
0.0 0.0 0.0

342260.4008695595 1.194638992420848e7 0.0
1.194638992420848e7 -1.7620003811024267e7 0.0
0.0 0.0 0.0

-1.5833466333105164e6 1.367323214832377e7 0.0
1.367323214832377e7 7.316770897870845e6 0.0
0.0 0.0 0.0

-1.2398327015606542e6 1.2484252368859539e7 0.0
1.2484252368859539e7 -3.919349376468182e6 0.0
0.0 0.0 0.0

4.419450337208632e6 5.595015418906801e6 0.0
5.595015418906801e6 -1.139042285295922e7 0.0
0.0 0.0 0.0

-810915.4938095615 9.047705708497766e6 0.0
9.047705708497766e6 -4.483451954632512e6 0.0
0.0 0.0 0.0

559998.5723353839 1.2615909971973965e7 0.0
1.2615909971973965e7 -8.112102631809245e6 0.0
0.0 0.0 0.0

894624.8437252743 1.1027687608817466e7 0.0
1.1027687608817466e7 -1.4488010481102508e7 0.0
0.0 0.0 0.0

-4.436166720130142e6 1.5368769161813347e7 0.0
1.5368769161813347e7 1.0751536867584242e6 0.0
0.0 0.0 0.0

-6.256724117908097e6 1.208746163343377e7 0.0
1.208746163343377e7 9.22204906775802e6 0.0
0.0 0.0 0.0

-104904.20735117281 9.420005037209682e6 0.0
9.420005037209682e6 -4.1765901704015397e6 0.0
0.0 0.0 0.0

71452.45799866269 1.0331270972395914e7 0.0
1.0331270972395914e7 -721542.854474157 0.0
0.0 0.0 0.0

-871271.9364289078 1.0917006315401463e7 0.0
1.0917006315401463e7 -1.1010540002744887e7 0.0
0.0 0.0 0.0

-1.4507220387422035e7 1.4859088907610252e7 0.0
1.4859088907610252e7 8.898770424703041e6 0.0
0.0 0.0 0.0

-4.870676121714837e6 2.2804158269953165e7 0.0
2.2804158269953165e7 -1.0957055050709206e6 0.0
0.0 0.0 0.0

338925.848697203 3.5207770160223492e6 0.0
3.5207770160223492e6 -2.482223844088548e6 0.0
0.0 0.0 0.0

651091.5388441917 3.5501609108275315e6 0.0
3.5501609108275315e6 -2.9967643689741716e6 0.0
0.0 0.0 0.0

-6.0293956270638425e6 1.277312426902013e7 0.0
1.277312426902013e7 8.23850427979555e6 0.0
0.0 0.0 0.0

-3.6395342276179036e6 1.3645500553659048e7 0.0
1.3645500553659048e7 -1.2034412055933e6 0.0
0.0 0.0 0.0

-6.1370562567797955e6 1.6910217156453665e7 0.0
1.6910217156453665e7 5.002828790832685e6 0.0
0.0 0.0 0.0

-5.936917514125429e6 1.5530352596429728e7 0.0
1.5530352596429728e7 4.965023641521237e6 0.0
0.0 0.0 0.0

2.6840877207052973e6 1.1476465356235348e7 0.0
1.1476465356235348e7 2.6394763143544896e6 0.0
0.0 0.0 0.0

1.8499914096354148e6 1.2468199224856192e7 0.0
1.2468199224856192e7 -5.593433357750633e6 0.0
0.0 0.0 0.0

-5.24264904866496e6 1.3120010217220644e7 0.0
1.3120010217220644e7 1.9129037992817882e7 0.0
0.0 0.0 0.0

-1.986136262975712e7 1.6028130776835736e7 0.0
1.6028130776835736e7 1.4637555027017016e6 0.0
0.0 0.0 0.0

-6.215594225204277e7 2.272867736122497e7 0.0
2.272867736122497e7 1.6739012213883698e7 0.0
0.0 0.0 0.0

-6.262073633531971e6 8.787432613376696e6 0.0
8.787432613376696e6 4.801298160684263e6 0.0
0.0 0.0 0.0

-3.8701276511991587e6 1.3220457647352258e7 0.0
1.3220457647352258e7 5.797583120666731e6 0.0
0.0 0.0 0.0

3.4264870264196205e6 6.064862926524109e6 0.0
6.064862926524109e6 -1.0342880774794092e7 0.0
0.0 0.0 0.0

-7.955288853778407e6 9.45868078871825e6 0.0
9.45868078871825e6 1.0369905265776334e7 0.0
0.0 0.0 0.0

-619177.8660650247 2.095403668379807e6 0.0
2.095403668379807e6 176468.33396944535 0.0
0.0 0.0 0.0

-1.293654397346248e6 1.2372790262234492e7 0.0
1.2372790262234492e7 7.316274137726098e6 0.0
0.0 0.0 0.0

1.281381804776147e6 1.0978540673441827e7 0.0
1.0978540673441827e7 -1.4770974365815995e7 0.0
0.0 0.0 0.0

4.512079224270636e6 6.007946653766641e6 0.0
6.007946653766641e6 -1.2313075952508671e7 0.0
0.0 0.0 0.0

1.857556987516287e6 1.0814804718427977e7 0.0
1.0814804718427977e7 969297.4168487795 0.0
0.0 0.0 0.0

-8.316499339229494e6 1.093664589003375e6 0.0
1.093664589003375e6 5.147119778486482e7 0.0
0.0 0.0 0.0

-6.685368037737994e6 1.6427846784640085e7 0.0
1.6427846784640085e7 6.5071973049237e6 0.0
0.0 0.0 0.0

-8.59689462846521e6 1.3762655888724703e7 0.0
1.3762655888724703e7 2.5872845282427156e6 0.0
0.0 0.0 0.0

-2.1540985973261585e6 1.4541218038575169e7 0.0
1.4541218038575169e7 -4.021755527920706e6 0.0
0.0 0.0 0.0

-2.7783153063272582e6 -2.546341214204499e6 0.0
-2.546341214204499e6 6.6613450800723955e6 0.0
0.0 0.0 0.0

-1.2945201575852665e6 9.340825101333404e6 0.0
9.340825101333404e6 1.5825572956446165e6 0.0
0.0 0.0 0.0

-6.02272035938064e6 -9.123335262396675e6 0.0
-9.123335262396675e6 1.4367891617887773e7 0.0
0.0 0.0 0.0

1.7647312535316665e6 1.1596916446551787e7 0.0
1.1596916446551787e7 491951.2974696675 0.0
0.0 0.0 0.0

-4.217023927389725e6 1.2959381700922625e7 0.0
1.2959381700922625e7 1.782509894758775e6 0.0
0.0 0.0 0.0

4.904810620193024e6 5.471711105002821e6 0.0
5.471711105002821e6 -1.3020059725835022e7 0.0
0.0 0.0 0.0

-3.592183764608913e6 1.3129868679957572e7 0.0
1.3129868679957572e7 -1.6702710531073767e6 0.0
0.0 0.0 0.0

4.380511465451635e6 5.602648073855515e6 0.0
5.602648073855515e6 -1.071288707409009e7 0.0
0.0 0.0 0.0

633158.3648190969 1.1429094420293631e7 0.0
1.1429094420293631e7 -1.0209511815219639e7 0.0
0.0 0.0 0.0

-9.297381058235921e6 1.8570928663804315e7 0.0
1.8570928663804315e7 7.773525777054675e6 0.0
0.0 0.0 0.0

-529508.2462630006 7.7380744507223945e6 0.0
7.7380744507223945e6 -2.1376848660968943e6 0.0
0.0 0.0 0.0

-3.1647224356644563e6 1.4001139833652332e7 0.0
1.4001139833652332e7 -3.2491692992800833e6 0.0
0.0 0.0 0.0

-7.760373050214601e6 1.8020959250679556e7 0.0
1.8020959250679556e7 6.373166348699754e6 0.0
0.0 0.0 0.0

-6.253382004281236e6 1.4946897965845767e7 0.0
1.4946897965845767e7 5.790852773992061e6 0.0
0.0 0.0 0.0

-6.230761210295339e6 1.5241228683810174e7 0.0
1.5241228683810174e7 4.49593750560667e6 0.0
0.0 0.0 0.0

-6.9047505383411115e6 1.8263000535913795e7 0.0
1.8263000535913795e7 4.426198346237389e6 0.0
0.0 0.0 0.0

-2.1372075886637e6 1.3666844372657798e7 0.0
1.3666844372657798e7 -3.8211611840842958e6 0.0
0.0 0.0 0.0

-9.308243834254097e6 1.9754711817689024e7 0.0
1.9754711817689024e7 6.640521740703652e6 0.0
0.0 0.0 0.0

-5.2955788974395795e6 6.470056050570174e6 0.0
6.470056050570174e6 3.7287193043018705e6 0.0
0.0 0.0 0.0

696368.4367939588 9.503611822045665e6 0.0
9.503611822045665e6 -7.536782334838785e6 0.0
0.0 0.0 0.0

-5.83993734199471e6 667530.6022465705 0.0
667530.6022465705 6.118888745134028e6 0.0
0.0 0.0 0.0

-6.697126929138601e6 1.496456263524891e7 0.0
1.496456263524891e7 5.172022099516972e6 0.0
0.0 0.0 0.0

-1.0514901417265825e7 -5.733584314690987e6 0.0
-5.733584314690987e6 2.418546369759144e7 0.0
0.0 0.0 0.0

-5.25273068439343e6 1.7477950014569566e7 0.0
1.7477950014569566e7 331639.4085039054 0.0
0.0 0.0 0.0

1.138596036818225e6 1.1335998299718661e7 0.0
1.1335998299718661e7 -1.0082155787569389e7 0.0
0.0 0.0 0.0

-1.3499810355229634e6 1.0837990631291252e7 0.0
1.0837990631291252e7 2.842872048533416e6 0.0
0.0 0.0 0.0

-1.1252429633976533e6 1.0569934594056128e7 0.0
1.0569934594056128e7 -4.528484757858598e6 0.0
0.0 0.0 0.0

2.4626246299811574e6 1.0177265682824867e7 0.0
1.0177265682824867e7 -1.3320097313036684e7 0.0
0.0 0.0 0.0

2.8967197879981454e6 4.719367529516353e6 0.0
4.719367529516353e6 -8.86533825329124e6 0.0
0.0 0.0 0.0

-1.7034414901311807e6 1.5505741703002727e7 0.0
1.5505741703002727e7 -3.7152832101099924e6 0.0
0.0 0.0 0.0

-698557.8852974125 1.2925145766455865e7 0.0
1.2925145766455865e7 878935.5811608259 0.0
0.0 0.0 0.0

-3.4280554243535157e6 1.163465786937858e7 0.0
1.163465786937858e7 -565105.4755983311 0.0
0.0 0.0 0.0

6.291321057674404e6 4.848224110641507e6 0.0
4.848224110641507e6 -1.9926949265065644e7 0.0
0.0 0.0 0.0

-5.441327368455216e6 2.42688480331777e6 0.0
2.42688480331777e6 7.000754974208785e6 0.0
0.0 0.0 0.0

5.818606354931606e6 5.84319201523179e6 0.0
5.84319201523179e6 -1.995194605646358e7 0.0
0.0 0.0 0.0

-1.2994794656105984e6 850104.2722310966 0.0
850104.2722310966 1.1729185963435513e6 0.0
0.0 0.0 0.0

-4.407538126500224e6 1.2788458603089152e7 0.0
1.2788458603089152e7 877708.4269179881 0.0
0.0 0.0 0.0

-586202.7078448229 1.2987937918357523e7 0.0
1.2987937918357523e7 105477.75127379416 0.0
0.0 0.0 0.0

-647864.7600435361 1.0510279801650615e7 0.0
1.0510279801650615e7 1.2062854789135712e6 0.0
0.0 0.0 0.0

-5.861688451363573e6 8.688054814071368e6 0.0
8.688054814071368e6 6.243931989989722e6 0.0
0.0 0.0 0.0

-3.966998566522789e6 -7.012822351093488e6 0.0
-7.012822351093488e6 9.248539772977775e6 0.0
0.0 0.0 0.0

-2.4740685021459106e6 1.6415892492325228e7 0.0
1.6415892492325228e7 -2.344540403420324e6 0.0
0.0 0.0 0.0

-4.561007801662704e6 1.324029547427453e7 0.0
1.324029547427453e7 9.172095585324494e6 0.0
0.0 0.0 0.0

2.8986223979901825e6 7.398762482208454e6 0.0
7.398762482208454e6 -1.1198008254884401e7 0.0
0.0 0.0 0.0

-6.27393701465735e6 -5.224827127470668e6 0.0
-5.224827127470668e6 1.2940132063861234e7 0.0
0.0 0.0 0.0

-2.693432888281622e6 1.142830281910908e7 0.0
1.142830281910908e7 5.968245854234696e6 0.0
0.0 0.0 0.0

-9.53741348820781e6 1.1022872889080815e7 0.0
1.1022872889080815e7 1.895964831099011e7 0.0
0.0 0.0 0.0

-1.6122069320572382e6 1.1832885203542259e7 0.0
1.1832885203542259e7 6.503868730317614e6 0.0
0.0 0.0 0.0

703055.714363981 1.1540123544531167e7 0.0
1.1540123544531167e7 -1.720126954110768e7 0.0
0.0 0.0 0.0

-7.075658078107307e6 1.2347751201172872e7 0.0
1.2347751201172872e7 1.008764045470906e7 0.0
0.0 0.0 0.0

-2.47072854396153e6 1.2797045284455428e7 0.0
1.2797045284455428e7 5.418719802587963e6 0.0
0.0 0.0 0.0

-637254.9928243663 1.3645844598177683e7 0.0
1.3645844598177683e7 -6.287266591022536e6 0.0
0.0 0.0 0.0

-959227.4354558119 1.3692248321237689e7 0.0
1.3692248321237689e7 -1.8752240314430797e6 0.0
0.0 0.0 0.0

4.2188877183781555e6 7.651483751980959e6 0.0
7.651483751980959e6 -1.6577415898754394e7 0.0
0.0 0.0 0.0

4.492486748619262e6 7.294298217074068e6 0.0
7.294298217074068e6 -1.719745400043815e7 0.0
0.0 0.0 0.0

-548348.311118508 1.0451648225406408e7 0.0
1.0451648225406408e7 -4.347584476434221e6 0.0
0.0 0.0 0.0

-1.0986630640500532e7 9.19001865313566e6 0.0
9.19001865313566e6 1.4214361944219742e7 0.0
0.0 0.0 0.0

-1.2073930053565246e6 1.3105062177807475e7 0.0
1.3105062177807475e7 -6.902243552906311e6 0.0
0.0 0.0 0.0

-1.1076353049498202e7 -1.280666264732125e6 0.0
-1.280666264732125e6 3.504373199614013e7 0.0
0.0 0.0 0.0

878228.5872218106 8.23324518335933e6 0.0
8.23324518335933e6 -9.458741528279224e6 0.0
0.0 0.0 0.0

-4.580046824497564e6 1.0654885833161592e7 0.0
1.0654885833161592e7 3.9919818142024204e7 0.0
0.0 0.0 0.0

6.188240995485736e6 4.920582653665303e6 0.0
4.920582653665303e6 -1.921870443307668e7 0.0
0.0 0.0 0.0

-2.6255806315661995e6 1.4293258180538638e7 0.0
1.4293258180538638e7 -3.3897322661196073e6 0.0
0.0 0.0 0.0

-2.931913974739707e6 1.1843911690508189e7 0.0
1.1843911690508189e7 7.092768299036051e6 0.0
0.0 0.0 0.0

-469616.0490839612 1.192949056609303e7 0.0
1.192949056609303e7 -1.5767147536602242e7 0.0
0.0 0.0 0.0

-60860.443551553646 8.1473739396914095e6 0.0
8.1473739396914095e6 2.762496282858615e6 0.0
0.0 0.0 0.0

-881306.0274683275 1.3239560440383334e7 0.0
1.3239560440383334e7 -2.618740016111034e6 0.0
0.0 0.0 0.0

-3.6245887599129933e6 1.188651464591872e7 0.0
1.188651464591872e7 7.204437328561926e6 0.0
0.0 0.0 0.0

-6.690168529455747e6 1.3253613977700807e7 0.0
1.3253613977700807e7 6.88443691337366e6 0.0
0.0 0.0 0.0

-4.4786234767849e6 1.3179221678261332e7 0.0
1.3179221678261332e7 6.371082873627342e6 0.0
0.0 0.0 0.0

578442.994333019 8.83753874701727e6 0.0
8.83753874701727e6 -6.8675926664632745e6 0.0
0.0 0.0 0.0

-1.178406979670135e7 7.486978233593413e6 0.0
7.486978233593413e6 1.3431436592308063e7 0.0
0.0 0.0 0.0

1.0974754129405804e6 1.1177853250515483e7 0.0
1.1177853250515483e7 -1.6561129784808068e7 0.0
0.0 0.0 0.0

-1.0092318759877966e6 1.2938258242804743e7 0.0
1.2938258242804743e7 -3.4551651451063952e6 0.0
0.0 0.0 0.0

-4.042820861514483e6 1.4054096358651299e7 0.0
1.4054096358651299e7 3.094702595988039e6 0.0
0.0 0.0 0.0

293205.75503640296 8.093048624699501e6 0.0
8.093048624699501e6 -4.951264373223238e6 0.0
0.0 0.0 0.0

-1.1352021062395755e7 2.875969183893603e6 0.0
2.875969183893603e6 4.795588945564475e7 0.0
0.0 0.0 0.0

-169277.21952250134 1.238828337507192e7 0.0
1.238828337507192e7 -1.803879672420933e7 0.0
0.0 0.0 0.0

-7.177609828031649e6 1.2782488721597156e7 0.0
1.2782488721597156e7 1.1210261850165784e7 0.0
0.0 0.0 0.0

-6.481568309479667e6 1.7145242132438224e7 0.0
1.7145242132438224e7 4.610167243652307e6 0.0
0.0 0.0 0.0

3.12323599639354e6 1.4248086024167014e7 0.0
1.4248086024167014e7 5.311010223230294e6 0.0
0.0 0.0 0.0

-6.711019635051358e6 1.3119034819344461e7 0.0
1.3119034819344461e7 1.431429220678473e7 0.0
0.0 0.0 0.0

-6.596771029237645e6 1.2628362127558546e7 0.0
1.2628362127558546e7 8.945392204967806e6 0.0
0.0 0.0 0.0

310307.4642998171 1.0064026843688596e7 0.0
1.0064026843688596e7 -7.293799182020978e6 0.0
0.0 0.0 0.0

-1.5024964231201431e6 1.2588276822788192e7 0.0
1.2588276822788192e7 -3.506532422370368e6 0.0
0.0 0.0 0.0

-7.3432488442694135e6 1.0638704611896653e7 0.0
1.0638704611896653e7 6.761669242067868e6 0.0
0.0 0.0 0.0

-6.790206489926944e6 9.721744573214443e6 0.0
9.721744573214443e6 7.825341585650042e6 0.0
0.0 0.0 0.0

4.411961236898925e6 5.656831160805362e6 0.0
5.656831160805362e6 -1.2436788667826597e7 0.0
0.0 0.0 0.0

-6.235370559915568e6 1.5032049684846941e7 0.0
1.5032049684846941e7 6.859899006647909e6 0.0
0.0 0.0 0.0

-205648.6984325219 8.501626654057257e6 0.0
8.501626654057257e6 -3.51045682874667e6 0.0
0.0 0.0 0.0

4.0536761044026697e6 5.602827926982164e6 0.0
5.602827926982164e6 -1.0519012524832519e7 0.0
0.0 0.0 0.0

-5.265835158448172e6 1.6738192934851836e7 0.0
1.6738192934851836e7 575158.3738681457 0.0
0.0 0.0 0.0

-3.867815128558489e6 1.2433475654121954e7 0.0
1.2433475654121954e7 8.427862393999245e6 0.0
0.0 0.0 0.0

-1.1046790870228441e7 -3.826314501516636e6 0.0
-3.826314501516636e6 2.9491219421549477e7 0.0
0.0 0.0 0.0

168269.17981374124 1.2721180897976678e7 0.0
1.2721180897976678e7 4.832767801336278e6 0.0
0.0 0.0 0.0

838691.5357549284 1.1896753588495163e7 0.0
1.1896753588495163e7 2.693415380459131e6 0.0
0.0 0.0 0.0

447816.91113896575 1.2210491838759452e7 0.0
1.2210491838759452e7 -8.327773307757699e6 0.0
0.0 0.0 0.0

5.126983017574419e6 5.282950020037414e6 0.0
5.282950020037414e6 -1.506694267407572e7 0.0
0.0 0.0 0.0

-386867.3189458406 1.1966848982736615e7 0.0
1.1966848982736615e7 2.1376530331041403e6 0.0
0.0 0.0 0.0

235792.45235667704 1.2515001758032324e7 0.0
1.2515001758032324e7 -7.799176976902839e6 0.0
0.0 0.0 0.0

-1.6565183929998016e6 1.0693239610344302e7 0.0
1.0693239610344302e7 3.649909860747615e6 0.0
0.0 0.0 0.0

-2.7609815524228346e6 4.879396947784306e6 0.0
4.879396947784306e6 1.6957909108169775e6 0.0
0.0 0.0 0.0

-521905.368357482 1.2281220798880185e6 0.0
1.2281220798880185e6 837035.0766757128 0.0
0.0 0.0 0.0

-3.232478793325804e6 1.3660102546776967e7 0.0
1.3660102546776967e7 1.40273588523946e6 0.0
0.0 0.0 0.0

2.027966820827973e6 1.0397652104056146e7 0.0
1.0397652104056146e7 -1.1655067252506254e7 0.0
0.0 0.0 0.0

48956.925337743014 1.1039304313504495e7 0.0
1.1039304313504495e7 -9.569969041970609e6 0.0
0.0 0.0 0.0

-1.1215422755168494e7 -733778.7007415321 0.0
-733778.7007415321 4.6971029948690556e7 0.0
0.0 0.0 0.0

-1.0249008520240938e7 2.013789675103254e7 0.0
2.013789675103254e7 7.008929164017684e6 0.0
0.0 0.0 0.0

728377.888465784 5.356962255811521e6 0.0
5.356962255811521e6 -3.799316433144869e6 0.0
0.0 0.0 0.0

-672006.177100318 1.3124276204116544e7 0.0
1.3124276204116544e7 -551502.562825505 0.0
0.0 0.0 0.0

-3.002522794396594e6 1.1628497933047814e7 0.0
1.1628497933047814e7 5.53039160863908e6 0.0
0.0 0.0 0.0

-9.887389815920155e6 8.9538777002931e6 0.0
8.9538777002931e6 1.316643354062815e7 0.0
0.0 0.0 0.0

-6.297827142250365e6 1.4622639037643373e7 0.0
1.4622639037643373e7 3.916960283221422e6 0.0
0.0 0.0 0.0

-374525.4890673137 1.1906821626565207e7 0.0
1.1906821626565207e7 4.0455793630884327e6 0.0
0.0 0.0 0.0

-2.5895061945458055e6 1.172705796808406e7 0.0
1.172705796808406e7 5.36590796318577e6 0.0
0.0 0.0 0.0

310288.05240906635 1.2257222864136359e7 0.0
1.2257222864136359e7 -8.754293174256023e6 0.0
0.0 0.0 0.0

1.9085176123536327e6 5.340041623851847e6 0.0
5.340041623851847e6 -7.207757299741778e6 0.0
0.0 0.0 0.0

728201.8331271508 1.214181747354603e7 0.0
1.214181747354603e7 -9.068060315563062e6 0.0
0.0 0.0 0.0

-2.4040444514583917e6 1.3492528747395057e7 0.0
1.3492528747395057e7 -4.641742701395865e6 0.0
0.0 0.0 0.0

-5.884711855236866e6 1.4370223747083489e7 0.0
1.4370223747083489e7 4.935179584605654e6 0.0
0.0 0.0 0.0

-1.104289935387434e6 1.4284096637810325e7 0.0
1.4284096637810325e7 -5.366600490687488e6 0.0
0.0 0.0 0.0

-1.1210046044153727e6 1.3895342650679944e7 0.0
1.3895342650679944e7 -5.928208840376584e6 0.0
0.0 0.0 0.0

4.981479561749466e6 5.690381627654927e6 0.0
5.690381627654927e6 -1.41173598658596e7 0.0
0.0 0.0 0.0

-25253.0462318582 1.1147542184955047e7 0.0
1.1147542184955047e7 2.0285682911772942e6 0.0
0.0 0.0 0.0

-2.8115509125307812e6 1.3730942489539195e7 0.0
1.3730942489539195e7 -3.866700079681858e6 0.0
0.0 0.0 0.0

-8.652404133032743e6 6.645652119851275e6 0.0
6.645652119851275e6 9.396864406620746e6 0.0
0.0 0.0 0.0

-4.1083880139437295e7 1.913565320380233e7 0.0
1.913565320380233e7 5.804912066698253e6 0.0
0.0 0.0 0.0

1.6143234758965122e7 2.225403549367677e7 0.0
2.225403549367677e7 5.381093245764145e7 0.0
0.0 0.0 0.0

-8.865271562764753e6 1.786845615128223e7 0.0
1.786845615128223e7 -2.9550983049548708e7 0.0
0.0 0.0 0.0

-6.696260185084198e6 1.1795288230773857e7 0.0
1.1795288230773857e7 9.905349748630976e6 0.0
0.0 0.0 0.0

1.189921220811895e6 1.0154387231693223e7 0.0
1.0154387231693223e7 -1.0104233849507205e7 0.0
0.0 0.0 0.0

-2.370170405668131e6 1.3184031200863592e7 0.0
1.3184031200863592e7 -2.4117052250847537e6 0.0
0.0 0.0 0.0

-7.712005655668482e6 2.0770273403872807e7 0.0
2.0770273403872807e7 2.5626131435930706e6 0.0
0.0 0.0 0.0

748617.9941018014 1.1372610628644465e7 0.0
1.1372610628644465e7 -1.0779364075969232e7 0.0
0.0 0.0 0.0

-1.3217713521558754e6 1.3971578766265858e7 0.0
1.3971578766265858e7 -1.611874638455959e6 0.0
0.0 0.0 0.0

-9.120984724842586e6 8.017615591056482e6 0.0
8.017615591056482e6 1.0522136828480907e7 0.0
0.0 0.0 0.0

-4.29218264169628e6 1.4543991618876662e7 0.0
1.4543991618876662e7 1.436744803742711e6 0.0
0.0 0.0 0.0

979972.3847513907 1.1150083928568307e7 0.0
1.1150083928568307e7 -1.3950867656243544e7 0.0
0.0 0.0 0.0

-560894.5575721571 1.3374010956704251e7 0.0
1.3374010956704251e7 -2.138594608365877e6 0.0
0.0 0.0 0.0

-7.093684579720305e6 1.3400906765566628e7 0.0
1.3400906765566628e7 7.255999380440885e6 0.0
0.0 0.0 0.0

4.933015190920884e6 1.3176868932835566e7 0.0
1.3176868932835566e7 -5.28432190726183e6 0.0
0.0 0.0 0.0

-845486.184039306 1.0108465665486522e7 0.0
1.0108465665486522e7 2.1031599943033005e6 0.0
0.0 0.0 0.0

-6.725975925126705e6 1.2170767580343753e7 0.0
1.2170767580343753e7 9.32899444790854e6 0.0
0.0 0.0 0.0

-9.392776772400005e6 1.3219047388832586e7 0.0
1.3219047388832586e7 1.7494076855327017e6 0.0
0.0 0.0 0.0

-1.1096978728090292e6 1.0316574215921734e7 0.0
1.0316574215921734e7 2.0424714426052724e6 0.0
0.0 0.0 0.0

-5.2980806715677325e6 1.7107952774442855e7 0.0
1.7107952774442855e7 657773.3816532535 0.0
0.0 0.0 0.0

-188176.59212965798 1.6431479819572305e7 0.0
1.6431479819572305e7 -4.4830865827131225e6 0.0
0.0 0.0 0.0

1.149490846265349e6 9.544885648278825e6 0.0
9.544885648278825e6 -7.680408397417535e6 0.0
0.0 0.0 0.0

-8.879371601334676e6 1.1638403064007029e7 0.0
1.1638403064007029e7 1.2360106108767977e7 0.0
0.0 0.0 0.0

201918.07883307803 1.2099519026211139e7 0.0
1.2099519026211139e7 -9.417265452281222e6 0.0
0.0 0.0 0.0

-3.5831956227916065e6 1.0667914377746724e7 0.0
1.0667914377746724e7 1.464766161197598e6 0.0
0.0 0.0 0.0

-7.918928577742427e6 1.0459285726114966e7 0.0
1.0459285726114966e7 8.08385010592005e6 0.0
0.0 0.0 0.0

1.584851401406438e6 6.26733474467219e6 0.0
6.26733474467219e6 -5.750003387863511e6 0.0
0.0 0.0 0.0

-908174.4969040316 1.2422876776961844e7 0.0
1.2422876776961844e7 1.8324301991220275e6 0.0
0.0 0.0 0.0

-2.809420495885693e6 1.6161956721420314e7 0.0
1.6161956721420314e7 -3.4073785716895903e6 0.0
0.0 0.0 0.0

4.065549843122538e6 9.705530825849248e6 0.0
9.705530825849248e6 -2.1888270906277258e7 0.0
0.0 0.0 0.0

-8.091009627009179e6 6.462457863012409e6 0.0
6.462457863012409e6 8.386259024262074e6 0.0
0.0 0.0 0.0

-1.918674953851527e6 2.1914175657434657e7 0.0
2.1914175657434657e7 -4.755672406063434e6 0.0
0.0 0.0 0.0

4.848125596719151e6 7.252808915404905e6 0.0
7.252808915404905e6 -1.602089935107533e7 0.0
0.0 0.0 0.0

-764626.5121150019 1.2359976780956179e7 0.0
1.2359976780956179e7 1.2193854572348879e6 0.0
0.0 0.0 0.0

-2.608836872229521e6 1.489936364894123e7 0.0
1.489936364894123e7 -4.178370156558928e6 0.0
0.0 0.0 0.0

2.733020454261698e6 1.6683121220285356e7 0.0
1.6683121220285356e7 8.89070264945554e7 0.0
0.0 0.0 0.0

-108469.36721890233 1.5771477439291324e7 0.0
1.5771477439291324e7 -4.662606545788199e7 0.0
0.0 0.0 0.0

9.308354923830103e6 1.3580479334594334e7 0.0
1.3580479334594334e7 3.152962146477351e6 0.0
0.0 0.0 0.0

936282.9513356797 1.600074669772464e7 0.0
1.600074669772464e7 -5.516341157613498e6 0.0
0.0 0.0 0.0

443073.4158875728 7.821814175438743e6 0.0
7.821814175438743e6 -4.674932883969967e6 0.0
0.0 0.0 0.0

600205.8373159827 2.027444327815698e7 0.0
2.027444327815698e7 -5.857635126594124e6 0.0
0.0 0.0 0.0

-4.147490902107446e6 1.2877130095738616e7 0.0
1.2877130095738616e7 6.988491497138297e6 0.0
0.0 0.0 0.0

4.32382337272277e6 1.2939777260211995e7 0.0
1.2939777260211995e7 -4.744818483253822e6 0.0
0.0 0.0 0.0

-6.697963194912786e6 1.416839917194523e7 0.0
1.416839917194523e7 5.939205184199056e6 0.0
0.0 0.0 0.0

-5.578113854708863e6 9.359258021101596e6 0.0
9.359258021101596e6 5.622525362573613e6 0.0
0.0 0.0 0.0

723991.7611621174 4.389803886412307e6 0.0
4.389803886412307e6 -4.455474719467903e6 0.0
0.0 0.0 0.0

-4.30132936115193e6 1.3174318930152657e7 0.0
1.3174318930152657e7 9.783297097173177e6 0.0
0.0 0.0 0.0

-4.1216504733515424e6 1.4788908697166344e7 0.0
1.4788908697166344e7 -676682.6634723799 0.0
0.0 0.0 0.0

-7.231614600346301e6 1.179309799283993e7 0.0
1.179309799283993e7 1.0725343144116627e7 0.0
0.0 0.0 0.0

-6.107732315745119e6 1.5190852382172452e7 0.0
1.5190852382172452e7 6.406131715322208e6 0.0
0.0 0.0 0.0

-6.269351728085541e6 1.4025933498536125e7 0.0
1.4025933498536125e7 6.141322155593111e6 0.0
0.0 0.0 0.0

-251813.79113534256 9.627850878109522e6 0.0
9.627850878109522e6 -5.584324069114294e6 0.0
0.0 0.0 0.0

-7.174070622015705e6 1.2942536980634399e7 0.0
1.2942536980634399e7 1.1700448321627053e7 0.0
0.0 0.0 0.0

-6.48580050458999e6 1.4636441732726948e7 0.0
1.4636441732726948e7 6.824113475911029e6 0.0
0.0 0.0 0.0

-2.6292710986366863e6 8.443244439021314e6 0.0
8.443244439021314e6 575037.0210240165 0.0
0.0 0.0 0.0

-2.3307152429749593e7 1.591567343648377e7 0.0
1.591567343648377e7 7.875588910750881e6 0.0
0.0 0.0 0.0

-1.1615476701871483e7 -900283.092170825 0.0
-900283.092170825 2.9547737618461113e7 0.0
0.0 0.0 0.0

-6.46852978122907e6 1.5151449198741743e7 0.0
1.5151449198741743e7 5.800510933477437e6 0.0
0.0 0.0 0.0

-8.194361465776419e6 1.6916038886949316e7 0.0
1.6916038886949316e7 7.350069489069842e6 0.0
0.0 0.0 0.0

1.632147924992538e6 1.08714245848037e7 0.0
1.08714245848037e7 -1.315223070568023e7 0.0
0.0 0.0 0.0

-7.902858761365149e6 1.8814394260629628e7 0.0
1.8814394260629628e7 6.406508698825109e6 0.0
0.0 0.0 0.0

-1.1529463866596917e7 2.07018172289332e7 0.0
2.07018172289332e7 7.314804647730576e6 0.0
0.0 0.0 0.0

-1.3040155995372092e7 2.1130063376585443e7 0.0
2.1130063376585443e7 7.833556235621171e6 0.0
0.0 0.0 0.0

-5.225558817415363e6 1.5687111623089982e7 0.0
1.5687111623089982e7 1.7415021128303292e6 0.0
0.0 0.0 0.0

-1.1822906089155836e7 5.299908901815064e6 0.0
5.299908901815064e6 1.5887192615154747e7 0.0
0.0 0.0 0.0

4.906923296421428e6 5.135317511768876e6 0.0
5.135317511768876e6 -1.3275732811197862e7 0.0
0.0 0.0 0.0

-7.34996190350475e6 1.2511402891829712e7 0.0
1.2511402891829712e7 1.0312539879798513e7 0.0
0.0 0.0 0.0

-5.668733351479013e6 1.7427980062737174e7 0.0
1.7427980062737174e7 1.4259742076504955e6 0.0
0.0 0.0 0.0

914950.3978056549 1.1195954329594284e7 0.0
1.1195954329594284e7 -1.0811590126959698e7 0.0
0.0 0.0 0.0

-9.347148484736538e6 -6.770260808552565e6 0.0
-6.770260808552565e6 1.9242737622529194e7 0.0
0.0 0.0 0.0

-211716.12004219776 1.2858442481241958e7 0.0
1.2858442481241958e7 -687232.0196300808 0.0
0.0 0.0 0.0

-71187.93091771333 1.2856974825516308e7 0.0
1.2856974825516308e7 -7.354414391375302e6 0.0
0.0 0.0 0.0

629910.4080725256 1.193829208361971e7 0.0
1.193829208361971e7 -8.78390579183077e6 0.0
0.0 0.0 0.0

-212639.90094584646 1.0065886369882466e7 0.0
1.0065886369882466e7 -8.41848479288879e6 0.0
0.0 0.0 0.0

-2.1895947724029906e6 1.3618095572945355e6 0.0
1.3618095572945355e6 1.4367611719183987e6 0.0
0.0 0.0 0.0

1.0238404691549444e6 9.637813017715015e6 0.0
9.637813017715015e6 -3.702066097875543e6 0.0
0.0 0.0 0.0

577372.7371437688 1.0421246830686273e7 0.0
1.0421246830686273e7 1.649801082818455e6 0.0
0.0 0.0 0.0

6.308686397979688e6 1.0834119727318568e7 0.0
1.0834119727318568e7 -1.3366829493429763e6 0.0
0.0 0.0 0.0

-1.325085298746217e7 2.186261008708211e7 0.0
2.186261008708211e7 8.576524470146962e6 0.0
0.0 0.0 0.0

-6.205291169102794e6 9.493908436808659e6 0.0
9.493908436808659e6 6.76755041646622e6 0.0
0.0 0.0 0.0

-1.3496182320111394e6 1.3329200683629278e7 0.0
1.3329200683629278e7 -1.961888446775082e7 0.0
0.0 0.0 0.0

4.552004217916754e6 6.882075503240733e6 0.0
6.882075503240733e6 -1.394484643269402e7 0.0
0.0 0.0 0.0

-1.5744136120421938e6 -4.1101224507620144e6 0.0
-4.1101224507620144e6 6.104155401930777e6 0.0
0.0 0.0 0.0

-1.266699489210606e7 1.5257225489827888e7 0.0
1.5257225489827888e7 6.346360748606111e6 0.0
0.0 0.0 0.0

-8.106772300555085e6 1.3555931706478184e7 0.0
1.3555931706478184e7 639951.0981174787 0.0
0.0 0.0 0.0

280641.31259384705 1.0272334476794774e7 0.0
1.0272334476794774e7 -6.539137489368334e6 0.0
0.0 0.0 0.0

-5.761491794169113e6 1.686550377646404e7 0.0
1.686550377646404e7 2.5227240073604407e6 0.0
0.0 0.0 0.0

5.090577431530776e6 7.246290460404592e6 0.0
7.246290460404592e6 -2.162271009631293e7 0.0
0.0 0.0 0.0

1.2707314569479795e6 1.4275071549172128e7 0.0
1.4275071549172128e7 -5.049570623294837e6 0.0
0.0 0.0 0.0

-427176.5693406998 1.2255259858466936e7 0.0
1.2255259858466936e7 4.710894027398422e6 0.0
0.0 0.0 0.0

1.680648134397156e6 9.992225547476746e6 0.0
9.992225547476746e6 -9.890631228633381e6 0.0
0.0 0.0 0.0

-4.3300001080622785e6 1.3585332402660003e7 0.0
1.3585332402660003e7 1.9330788038050383e6 0.0
0.0 0.0 0.0

1.1935914651364014e6 9.302856168510748e6 0.0
9.302856168510748e6 -7.24891812644964e6 0.0
0.0 0.0 0.0

1.4244567042421e6 9.931952829500945e6 0.0
9.931952829500945e6 -1.0717771528670562e7 0.0
0.0 0.0 0.0

532150.4302135687 1.0654595368086744e7 0.0
1.0654595368086744e7 -8.962499372714944e6 0.0
0.0 0.0 0.0

-7.575927491376025e6 1.6767531692235574e7 0.0
1.6767531692235574e7 6.796296270606827e6 0.0
0.0 0.0 0.0

-3.7135698654311956e6 1.5091098847051749e7 0.0
1.5091098847051749e7 -2.2229048006476294e7 0.0
0.0 0.0 0.0

-910365.4769316844 2.000943900758671e7 0.0
2.000943900758671e7 -3.597644864244639e6 0.0
0.0 0.0 0.0

-2.211545282496373e6 1.6277291958752085e7 0.0
1.6277291958752085e7 -3.7942618966547674e6 0.0
0.0 0.0 0.0

-6.921568439788237e6 1.7607770773547295e7 0.0
1.7607770773547295e7 5.969549578462019e6 0.0
0.0 0.0 0.0

-6.661446588305306e6 1.4382259809621215e7 0.0
1.4382259809621215e7 7.147636060420076e6 0.0
0.0 0.0 0.0

5.364869108575611e6 6.705452429754313e6 0.0
6.705452429754313e6 -2.2070718716025434e7 0.0
0.0 0.0 0.0

-5.928936160837346e6 1.3809571045237182e7 0.0
1.3809571045237182e7 7.555101282659764e6 0.0
0.0 0.0 0.0

5.253509000935701e6 6.3677288490449805e6 0.0
6.3677288490449805e6 -1.875660311762642e7 0.0
0.0 0.0 0.0

-2.2625053127347827e6 1.27605164354389e7 0.0
1.27605164354389e7 -2.984304702205368e6 0.0
0.0 0.0 0.0

-1.9167057171948715e6 1.239887351802376e7 0.0
1.239887351802376e7 -3.263483521024188e6 0.0
0.0 0.0 0.0

719935.8064677797 9.410977814790819e6 0.0
9.410977814790819e6 -4.191136962083306e6 0.0
0.0 0.0 0.0

-4.463537632746553e6 1.2768996834145684e7 0.0
1.2768996834145684e7 6.57375198301382e6 0.0
0.0 0.0 0.0

-5.121448660172503e6 1.5014953739978045e7 0.0
1.5014953739978045e7 1.8424527671222726e6 0.0
0.0 0.0 0.0

-7.1773289568984015e6 1.2235727853815142e7 0.0
1.2235727853815142e7 7.726111597343213e6 0.0
0.0 0.0 0.0

-4.354616451423187e6 -6.6906365272751665e6 0.0
-6.6906365272751665e6 7.511275987242442e6 0.0
0.0 0.0 0.0

4.299392362307651e6 6.774014286343532e6 0.0
6.774014286343532e6 -1.4749640392550219e7 0.0
0.0 0.0 0.0

3.0792392057006788e6 7.585496110238217e6 0.0
7.585496110238217e6 -1.2069986642150419e7 0.0
0.0 0.0 0.0

-6.447039075657865e6 1.841899772973638e7 0.0
1.841899772973638e7 3.6960658183488245e6 0.0
0.0 0.0 0.0

-1.4030502990130084e6 1.35298997420732e7 0.0
1.35298997420732e7 -2.7149967136603016e6 0.0
0.0 0.0 0.0

2.0760839754557982e6 1.0546411564807523e7 0.0
1.0546411564807523e7 -1.324310585998324e7 0.0
0.0 0.0 0.0

-5.723959474865989e6 1.2729867856970418e7 0.0
1.2729867856970418e7 1.1088514250287019e7 0.0
0.0 0.0 0.0

-3.7541874491308187e6 2.675784976012803e6 0.0
2.675784976012803e6 4.309908203050338e6 0.0
0.0 0.0 0.0

-1.4606806419024803e6 1.2802329207843078e7 0.0
1.2802329207843078e7 6.46889070407176e6 0.0
0.0 0.0 0.0

-1.2212737965517681e7 1.6247102635863299e7 0.0
1.6247102635863299e7 9.867722879232932e6 0.0
0.0 0.0 0.0

699220.6405147235 1.0873744620652532e7 0.0
1.0873744620652532e7 1.753894516351077e6 0.0
0.0 0.0 0.0

-930854.2340553154 1.231711737671392e7 0.0
1.231711737671392e7 3.0302333702498265e6 0.0
0.0 0.0 0.0

-6.911034020535944e6 1.6630864479166519e7 0.0
1.6630864479166519e7 6.5217013907609135e6 0.0
0.0 0.0 0.0

-5.094294018170213e6 1.315749442669018e7 0.0
1.315749442669018e7 7.1577295383003615e6 0.0
0.0 0.0 0.0

-7.464904699075157e6 1.2335408107261596e7 0.0
1.2335408107261596e7 1.329125914591846e7 0.0
0.0 0.0 0.0

-6.7133289510881975e6 1.4311891089635598e7 0.0
1.4311891089635598e7 1.730789309696124e6 0.0
0.0 0.0 0.0

-7.391848001000616e6 1.3999311829131342e7 0.0
1.3999311829131342e7 2.853028976799709e6 0.0
0.0 0.0 0.0

-8.385613770945132e6 4.404919666957142e6 0.0
4.404919666957142e6 6.172946075872172e6 0.0
0.0 0.0 0.0

-3.962860125402749e7 2.1866436788931403e7 0.0
2.1866436788931403e7 1.0775675208917167e7 0.0
0.0 0.0 0.0

4.0726455286649843e6 1.1015382562440129e7 0.0
1.1015382562440129e7 219844.96926328144 0.0
0.0 0.0 0.0

1.2218943648305219e6 1.1004541485233309e7 0.0
1.1004541485233309e7 -1.326903021519982e7 0.0
0.0 0.0 0.0

-6.651013272870218e6 1.370539387079416e7 0.0
1.370539387079416e7 5.717585211224262e6 0.0
0.0 0.0 0.0

-826157.2675088849 1.2828689268720577e7 0.0
1.2828689268720577e7 -7.593481858529643e6 0.0
0.0 0.0 0.0

1.6671557495515736e7 1.126240075814755e7 0.0
1.126240075814755e7 -1.0323994147734921e6 0.0
0.0 0.0 0.0

-369481.95894055953 4.602075345598535e6 0.0
4.602075345598535e6 -1.042128548618899e6 0.0
0.0 0.0 0.0

3.0904159576625135e6 4.1560950414770436e6 0.0
4.1560950414770436e6 -8.176076477186422e6 0.0
0.0 0.0 0.0

-1.779636481438221e6 1.2939182200405143e7 0.0
1.2939182200405143e7 -5.5735820218945155e6 0.0
0.0 0.0 0.0

405276.16727376473 1.002405437028112e7 0.0
1.002405437028112e7 -3.097971562792786e6 0.0
0.0 0.0 0.0

-1.1330266910905305e7 -852538.9196626061 0.0
-852538.9196626061 2.131519070170501e7 0.0
0.0 0.0 0.0

-1.148691263059021e6 1.6567890710299037e7 0.0
1.6567890710299037e7 -3.635041612321746e6 0.0
0.0 0.0 0.0

-1.6243077311132643e7 2.2206528187838193e7 0.0
2.2206528187838193e7 9.277425151478544e6 0.0
0.0 0.0 0.0

3.79116736885325e6 1.1784224704065878e7 0.0
1.1784224704065878e7 -771760.8613966475 0.0
0.0 0.0 0.0

-3.309220382453976e6 -1.4212796122712852e6 0.0
-1.4212796122712852e6 3.310639610215826e6 0.0
0.0 0.0 0.0

-1.5693624448426172e7 1.1671802108901178e7 0.0
1.1671802108901178e7 9.419600101078017e6 0.0
0.0 0.0 0.0

-839458.7659349667 9.264796147495968e6 0.0
9.264796147495968e6 1.476982680796866e6 0.0
0.0 0.0 0.0

-1.8843760121378742e7 2.27263007703276e7 0.0
2.27263007703276e7 1.0130224781991959e7 0.0
0.0 0.0 0.0

-8.298629055114737e6 9.953382136912035e6 0.0
9.953382136912035e6 1.1104424884343835e7 0.0
0.0 0.0 0.0

1.665619089811634e6 1.1354501591003686e7 0.0
1.1354501591003686e7 -4.0149359760867655e6 0.0
0.0 0.0 0.0

-1.7349156904012118e6 1.0969891610145144e7 0.0
1.0969891610145144e7 -1.0970056479194826e7 0.0
0.0 0.0 0.0

209420.53388109943 1.05542620554112e7 0.0
1.05542620554112e7 -7.659242952364335e6 0.0
0.0 0.0 0.0

1.5376309018247009e6 1.3752135885957623e7 0.0
1.3752135885957623e7 -4.9340303517137e6 0.0
0.0 0.0 0.0

258238.06128348783 2.383377068911637e7 0.0
2.383377068911637e7 -1.5204156498750333e7 0.0
0.0 0.0 0.0

-2.9283506013727477e6 1.5324065562006999e6 0.0
1.5324065562006999e6 2.672200077675257e6 0.0
0.0 0.0 0.0

-7.449224530652026e6 2.0174165250817776e7 0.0
2.0174165250817776e7 2.5441219420469217e6 0.0
0.0 0.0 0.0

-4.850285937120562e6 1.7571232558555223e7 0.0
1.7571232558555223e7 1.6409932088391357e6 0.0
0.0 0.0 0.0

-8.761244414818201e6 -5.0142581778961625e6 0.0
-5.0142581778961625e6 1.3352560138361277e7 0.0
0.0 0.0 0.0

4.941633779340163e6 5.08095844536673e6 0.0
5.08095844536673e6 -1.3321644986555422e7 0.0
0.0 0.0 0.0

-6.427786912917998e6 1.5665827707019553e7 0.0
1.5665827707019553e7 6.719859913427388e6 0.0
0.0 0.0 0.0

-2.743011969306548e6 1.2597272001181135e7 0.0
1.2597272001181135e7 7.564509274639238e6 0.0
0.0 0.0 0.0

-1.2100625797537314e6 1.496949161650621e6 0.0
1.496949161650621e6 3.2017266199877188e6 0.0
0.0 0.0 0.0

-8.052065963686387e6 8.068340464927983e6 0.0
8.068340464927983e6 1.023281024141023e7 0.0
0.0 0.0 0.0

-3.39610523412946e6 1.2528227036106601e7 0.0
1.2528227036106601e7 8.192571146088361e6 0.0
0.0 0.0 0.0

-1.0688124592459593e6 1.1013753902735867e7 0.0
1.1013753902735867e7 -5.034075769228089e6 0.0
0.0 0.0 0.0

244262.3145426931 1.0497269138607766e7 0.0
1.0497269138607766e7 -9.229016177844469e6 0.0
0.0 0.0 0.0

-5.161890418273141e6 1.6320858442961304e7 0.0
1.6320858442961304e7 654235.2747842306 0.0
0.0 0.0 0.0

-525108.8047196114 4.33944150948933e6 0.0
4.33944150948933e6 -347089.3595494608 0.0
0.0 0.0 0.0

-3.771343467871848e6 1.1489399306613492e7 0.0
1.1489399306613492e7 1.6128688654252312e6 0.0
0.0 0.0 0.0

-1.0441485334702455e7 9.519355609514358e6 0.0
9.519355609514358e6 1.3535248477072302e7 0.0
0.0 0.0 0.0

493597.3809529126 9.689099577828513e6 0.0
9.689099577828513e6 -6.041491396915579e6 0.0
0.0 0.0 0.0

-2.7262921089060586e6 1.4349177706571985e7 0.0
1.4349177706571985e7 -4.281036805032686e6 0.0
0.0 0.0 0.0

-7.65133589100528e6 2.1372725500973936e7 0.0
2.1372725500973936e7 4.0782235600240957e6 0.0
0.0 0.0 0.0

1.8666542822670778e6 1.0478816410660677e7 0.0
1.0478816410660677e7 -1.393467335472668e7 0.0
0.0 0.0 0.0

-3.189218419588913e7 2.137659993204011e7 0.0
2.137659993204011e7 1.30083627832565e7 0.0
0.0 0.0 0.0

1.151435132223963e6 3.646779176225321e6 0.0
3.646779176225321e6 -4.1172878290940314e6 0.0
0.0 0.0 0.0

1.002543426470685e6 3.7456399682892095e6 0.0
3.7456399682892095e6 -4.5572174711281825e6 0.0
0.0 0.0 0.0

-430899.05005928455 1.3798878391473835e7 0.0
1.3798878391473835e7 6.407888963364635e6 0.0
0.0 0.0 0.0

-3.0901412056625765e6 1.3755708246403908e7 0.0
1.3755708246403908e7 9.976417692098329e6 0.0
0.0 0.0 0.0

-943757.7641226097 1.2782504560012538e7 0.0
1.2782504560012538e7 1.7500578094972717e6 0.0
0.0 0.0 0.0

-7.04591169089973e6 7.043765746717617e6 0.0
7.043765746717617e6 9.264679701499116e6 0.0
0.0 0.0 0.0

640633.8942478204 4.435426939843203e6 0.0
4.435426939843203e6 -748312.9816690334 0.0
0.0 0.0 0.0

-2.5398392025789283e6 1.3367059948055105e7 0.0
1.3367059948055105e7 3.1702120043774117e6 0.0
0.0 0.0 0.0

-5.630363886180452e6 1.666512461506864e7 0.0
1.666512461506864e7 3.6507198317852747e6 0.0
0.0 0.0 0.0

1.5146660406910768e6 1.0850164576707745e7 0.0
1.0850164576707745e7 -1.4211660675464792e7 0.0
0.0 0.0 0.0

-1.846068160797812e6 1.3729805037139982e7 0.0
1.3729805037139982e7 8.559351695624277e6 0.0
0.0 0.0 0.0

4.330661380665152e6 1.1919794150936544e7 0.0
1.1919794150936544e7 887608.5979346375 0.0
0.0 0.0 0.0

-2.139420301680215e7 2.242151896900709e7 0.0
2.242151896900709e7 1.2105646478318665e7 0.0
0.0 0.0 0.0

-1.6754622993771522e6 1.0421422991363302e7 0.0
1.0421422991363302e7 3.889260224441209e6 0.0
0.0 0.0 0.0

-2.5567781586221727e6 6.834584617408069e6 0.0
6.834584617408069e6 144850.4772071354 0.0
0.0 0.0 0.0

-1.1819890046520159e7 4.71699785391164e6 0.0
4.71699785391164e6 1.3474609403757464e7 0.0
0.0 0.0 0.0

-5.610972813686588e6 1.6237941041356226e7 0.0
1.6237941041356226e7 2.909017204898822e6 0.0
0.0 0.0 0.0

-5.36629557008345e6 1.3561392591109995e7 0.0
1.3561392591109995e7 1.134022204292973e7 0.0
0.0 0.0 0.0

-1.3005076262346355e7 -261033.46830778383 0.0
-261033.46830778383 3.3194927260500874e7 0.0
0.0 0.0 0.0

-2.6575704271312286e6 1.2740342571666947e7 0.0
1.2740342571666947e7 4.573526193017023e6 0.0
0.0 0.0 0.0

-2.936574246635668e6 1.1957198954178588e7 0.0
1.1957198954178588e7 -1.2757713893935438e7 0.0
0.0 0.0 0.0

-3.71070972331229e6 1.3228452729590748e7 0.0
1.3228452729590748e7 9.551171217152333e6 0.0
0.0 0.0 0.0

-8.040316348431688e6 1.1441306429351166e7 0.0
1.1441306429351166e7 1.103249103052507e7 0.0
0.0 0.0 0.0

-741592.2501596401 1.0542675686544113e7 0.0
1.0542675686544113e7 -5.357649327698571e6 0.0
0.0 0.0 0.0

-6.077781621532021e6 1.3858661202217048e7 0.0
1.3858661202217048e7 3.8785918108273715e7 0.0
0.0 0.0 0.0

-1.3402129457718576e6 1.6193787634728355e7 0.0
1.6193787634728355e7 -4.334585954206366e6 0.0
0.0 0.0 0.0

88039.7096795612 1.1993587722381584e7 0.0
1.1993587722381584e7 -9.110425083592394e6 0.0
0.0 0.0 0.0

-434910.5990980824 9.037563295823649e6 0.0
9.037563295823649e6 -3.7314201793912305e6 0.0
0.0 0.0 0.0

5.379238275079805e6 5.264915882604216e6 0.0
5.264915882604216e6 -1.5747864820390202e7 0.0
0.0 0.0 0.0

-7.311874465313749e6 2.0586056848248318e7 0.0
2.0586056848248318e7 4.544033405513404e6 0.0
0.0 0.0 0.0

-1.1982467126673106e7 5.345426991970844e6 0.0
5.345426991970844e6 1.3777517977540642e7 0.0
0.0 0.0 0.0

-931872.4147783713 1.264856576193068e7 0.0
1.264856576193068e7 4.178713034506099e6 0.0
0.0 0.0 0.0

-6.050832579867476e6 1.5011080704490604e7 0.0
1.5011080704490604e7 4.97547640093069e6 0.0
0.0 0.0 0.0

-4.3325610033548325e6 1.2422631165466893e7 0.0
1.2422631165466893e7 1.4213185021265757e6 0.0
0.0 0.0 0.0

-9.22786602533691e6 8.59493282028548e6 0.0
8.59493282028548e6 1.0830507275384089e7 0.0
0.0 0.0 0.0

1.9977003090110165e6 8.192547655521574e6 0.0
8.192547655521574e6 -9.912576325392678e6 0.0
0.0 0.0 0.0

-1.5841140903380347e7 1.9660315215696897e7 0.0
1.9660315215696897e7 1.083611909015402e7 0.0
0.0 0.0 0.0

7.165626498995317e6 9.58136355198585e6 0.0
9.58136355198585e6 255568.89987179986 0.0
0.0 0.0 0.0

-3.4184757541425265e6 2.074010738299485e6 0.0
2.074010738299485e6 2.1871441171262776e6 0.0
0.0 0.0 0.0

-7.719007303383084e6 1.6914863686662603e7 0.0
1.6914863686662603e7 6.902660958889177e6 0.0
0.0 0.0 0.0

-1.918192287274996e7 8.747543459007619e6 0.0
8.747543459007619e6 1.0279580929139262e7 0.0
0.0 0.0 0.0

-1.7616184619591376e6 1.4007849888654754e7 0.0
1.4007849888654754e7 -2.5239923240319905e6 0.0
0.0 0.0 0.0

-2.452022720651045e7 1.8398913187530532e7 0.0
1.8398913187530532e7 6.739005587502576e6 0.0
0.0 0.0 0.0

-1.2645372107679609e6 1.399403908023801e7 0.0
1.399403908023801e7 -1.6323281374536406e6 0.0
0.0 0.0 0.0

-7.376392952813204e6 1.0868873194657821e7 0.0
1.0868873194657821e7 8.80467838269277e6 0.0
0.0 0.0 0.0

-7.631114329686273e6 6.214062795440935e6 0.0
6.214062795440935e6 1.0090137771512672e7 0.0
0.0 0.0 0.0

-6.924536485355411e6 8.934469670990506e6 0.0
8.934469670990506e6 5.926436662645223e6 0.0
0.0 0.0 0.0

-5.989357234017794e6 1.4648550730275203e7 0.0
1.4648550730275203e7 6.8541598517698515e6 0.0
0.0 0.0 0.0

-1.043430764529211e7 -4.266959085477134e6 0.0
-4.266959085477134e6 1.987556815927648e7 0.0
0.0 0.0 0.0

138869.73510354385 9.229182823661437e6 0.0
9.229182823661437e6 -2.870609024107307e6 0.0
0.0 0.0 0.0

1.1601122314658193e6 8.618178997649334e6 0.0
8.618178997649334e6 -6.524295341865258e6 0.0
0.0 0.0 0.0

690627.852228282 1.1089652005699381e7 0.0
1.1089652005699381e7 -8.796262609336553e6 0.0
0.0 0.0 0.0

-4.222910376406493e6 -2.0584934457775888e6 0.0
-2.0584934457775888e6 6.324582996274666e6 0.0
0.0 0.0 0.0

-277369.51570398785 9.456352279232176e6 0.0
9.456352279232176e6 -1.9410699215778152e6 0.0
0.0 0.0 0.0

-6.0933612290257225e6 1.5282942859471463e7 0.0
1.5282942859471463e7 5.602351611136537e6 0.0
0.0 0.0 0.0

-3.031406360293989e6 1.387065426991118e7 0.0
1.387065426991118e7 8.095662941157585e6 0.0
0.0 0.0 0.0

-1.2788792361819644e6 1.255327737196102e7 0.0
1.255327737196102e7 -5.739666729730908e6 0.0
0.0 0.0 0.0

-517257.7518279479 1.2507315500749e7 0.0
1.2507315500749e7 191393.40743392965 0.0
0.0 0.0 0.0

-7.135704689512687e6 1.956091127888014e7 0.0
1.956091127888014e7 2.9831463007892086e6 0.0
0.0 0.0 0.0

-292129.6786954652 1.3124494687921477e7 0.0
1.3124494687921477e7 -6.887891703222838e6 0.0
0.0 0.0 0.0

3.1377971399187803e7 1.4814075595393272e7 0.0
1.4814075595393272e7 -966416.3448091038 0.0
0.0 0.0 0.0

1.745391823069329e6 1.21333820734802e7 0.0
1.21333820734802e7 -4.840157420831881e6 0.0
0.0 0.0 0.0

683952.600557439 1.154613591462516e7 0.0
1.154613591462516e7 -1.105125293717026e7 0.0
0.0 0.0 0.0

-1.5552725847369502e6 1.4302251982851375e7 0.0
1.4302251982851375e7 -5.392257935874248e6 0.0
0.0 0.0 0.0

-1.782247712068588e7 1.3497866839008227e7 0.0
1.3497866839008227e7 8.83486354208929e6 0.0
0.0 0.0 0.0

-6.011295802858537e6 1.5053070832115328e7 0.0
1.5053070832115328e7 5.940591030488182e6 0.0
0.0 0.0 0.0

5.224190012423574e6 1.1920644178684719e7 0.0
1.1920644178684719e7 -3.0961533713986585e6 0.0
0.0 0.0 0.0

1.260697532739072e6 1.0975603431922175e7 0.0
1.0975603431922175e7 -1.576455417832325e7 0.0
0.0 0.0 0.0

-785082.7764019505 1.3531739656155888e7 0.0
1.3531739656155888e7 7.743024925871836e6 0.0
0.0 0.0 0.0

4.1621669677945254e6 6.2205984006837625e6 0.0
6.2205984006837625e6 -1.1491083359053556e7 0.0
0.0 0.0 0.0

-1.3425675619819923e6 1.460669413272151e7 0.0
1.460669413272151e7 -4.714440380949652e6 0.0
0.0 0.0 0.0

5.384716313095568e6 5.958212789417415e6 0.0
5.958212789417415e6 -1.8247062803470418e7 0.0
0.0 0.0 0.0

-2.6236054885495696e6 1.4090561397877559e7 0.0
1.4090561397877559e7 -4.116309667441623e6 0.0
0.0 0.0 0.0

-1.9345365041086501e6 1.6547414408641653e7 0.0
1.6547414408641653e7 -2.910544669331735e6 0.0
0.0 0.0 0.0

-3.9103336754475706e6 1.233453259842069e7 0.0
1.233453259842069e7 1.2622871334183516e6 0.0
0.0 0.0 0.0

-1.0719952116670057e7 1.6539330636220468e7 0.0
1.6539330636220468e7 8.645063600064881e6 0.0
0.0 0.0 0.0

-8.78013426704021e6 1.1439214308015484e7 0.0
1.1439214308015484e7 1.0943250842077576e7 0.0
0.0 0.0 0.0

-1.9609070563615146e6 9.853301505617248e6 0.0
9.853301505617248e6 2.851824238665169e6 0.0
0.0 0.0 0.0

-2.395552710992755e7 1.44683316511008e7 0.0
1.44683316511008e7 1.3093659334241679e7 0.0
0.0 0.0 0.0

2.934138389030867e6 1.174174979313484e7 0.0
1.174174979313484e7 3.3806720940207457e6 0.0
0.0 0.0 0.0

-2.780306775142981e6 8.0285004848523475e6 0.0
8.0285004848523475e6 -7391.02782118076 0.0
0.0 0.0 0.0

-6.911196437287119e6 1.668990241554839e7 0.0
1.668990241554839e7 6.480787564638922e6 0.0
0.0 0.0 0.0

-1.6002107499550595e6 1.4323987424796421e7 0.0
1.4323987424796421e7 -1.804834903022044e6 0.0
0.0 0.0 0.0

550312.1141060647 9.919555912945144e6 0.0
9.919555912945144e6 -6.370878425518022e6 0.0
0.0 0.0 0.0

5.08849795150171e6 5.019012381113499e6 0.0
5.019012381113499e6 -1.3863697354628831e7 0.0
0.0 0.0 0.0

772288.381784854 1.0041463399997314e7 0.0
1.0041463399997314e7 -6.914625476359319e6 0.0
0.0 0.0 0.0

1.859932594549834e7 6.073492852415065e6 0.0
6.073492852415065e6 -3.9999090893626856e6 0.0
0.0 0.0 0.0

-8.555017826673694e6 1.1546001798613908e7 0.0
1.1546001798613908e7 1.165805521694381e7 0.0
0.0 0.0 0.0

-7.165236313800341e6 1.6494614801086418e7 0.0
1.6494614801086418e7 6.6374876301350575e6 0.0
0.0 0.0 0.0

-6.470572786841983e6 -9.396158345015975e6 0.0
-9.396158345015975e6 1.5270624783990912e7 0.0
0.0 0.0 0.0

-7.896126420931153e6 1.9053215345893137e7 0.0
1.9053215345893137e7 5.8983829112247825e6 0.0
0.0 0.0 0.0

-1.5551891239501253e7 1.1576782132439997e7 0.0
1.1576782132439997e7 8.543399795200665e6 0.0
0.0 0.0 0.0

-250787.7139302981 1.2246457020286476e7 0.0
1.2246457020286476e7 -8.522891002019282e6 0.0
0.0 0.0 0.0

-387712.24756215676 1.344910670885634e7 0.0
1.344910670885634e7 5.416675489404375e6 0.0
0.0 0.0 0.0

-602945.1550079617 1.007375525329942e7 0.0
1.007375525329942e7 424993.2998115687 0.0
0.0 0.0 0.0

-6.149172321922561e6 1.3243407584608814e7 0.0
1.3243407584608814e7 5.648079174691463e6 0.0
0.0 0.0 0.0

287460.41614059545 9.569664665670395e6 0.0
9.569664665670395e6 -6.852401131183797e6 0.0
0.0 0.0 0.0

2.5391247613514634e6 7.971401045561289e6 0.0
7.971401045561289e6 -9.560757185706882e6 0.0
0.0 0.0 0.0

196291.71993883955 7.178815230162535e6 0.0
7.178815230162535e6 -4.58959348165163e6 0.0
0.0 0.0 0.0

-6.772307226276161e6 1.6500310746196624e7 0.0
1.6500310746196624e7 6.2337586046823235e6 0.0
0.0 0.0 0.0

-1.3598048809602049e6 1.1189131129817197e7 0.0
1.1189131129817197e7 -4.4544809880991895e6 0.0
0.0 0.0 0.0

6.89057191328621e6 9.565267487181984e6 0.0
9.565267487181984e6 241752.0160782917 0.0
0.0 0.0 0.0

5.128300230061071e6 4.988758719462365e6 0.0
4.988758719462365e6 -1.3926562602665458e7 0.0
0.0 0.0 0.0

-1.8065364295560662e6 1.3312303760669628e7 0.0
1.3312303760669628e7 5.649259565037189e6 0.0
0.0 0.0 0.0

585792.16123221 7.1051457589561585e6 0.0
7.1051457589561585e6 -5.244713697521718e6 0.0
0.0 0.0 0.0

-4.617913262700714e6 1.6499906097845206e7 0.0
1.6499906097845206e7 933600.8068710424 0.0
0.0 0.0 0.0

-1.2207468161532176e6 1.2736365462801417e7 0.0
1.2736365462801417e7 2.661681021338189e6 0.0
0.0 0.0 0.0

-1.2025218567264829e7 1.7292297051113623e6 0.0
1.7292297051113623e6 1.913331075095622e7 0.0
0.0 0.0 0.0

-582440.3521792587 5.212730944049576e6 0.0
5.212730944049576e6 -751003.8011004359 0.0
0.0 0.0 0.0

-2.622521094911033e6 1.6803596158793334e7 0.0
1.6803596158793334e7 -3.3103257805262483e6 0.0
0.0 0.0 0.0

-2.903961754931286e7 5.726098223059461e6 0.0
5.726098223059461e6 1.1928179329312328e7 0.0
0.0 0.0 0.0

663848.3734693099 1.156734028254842e7 0.0
1.156734028254842e7 -1.0354901824353209e7 0.0
0.0 0.0 0.0

-3.520768343900394e6 9.640124020401899e6 0.0
9.640124020401899e6 5.077982186290414e6 0.0
0.0 0.0 0.0

-6.986953925255176e6 1.057796841876598e7 0.0
1.057796841876598e7 8.15552292461662e6 0.0
0.0 0.0 0.0

-3.1233032874887478e7 6.14722639768744e6 0.0
6.14722639768744e6 1.2145213120880812e7 0.0
0.0 0.0 0.0

730239.8591217124 1.126278952557031e7 0.0
1.126278952557031e7 -1.121036228002478e7 0.0
0.0 0.0 0.0

-1.4701842728743851e6 1.387868941434094e7 0.0
1.387868941434094e7 -5.265440157689071e6 0.0
0.0 0.0 0.0

955776.559014189 5.2590884293522285e6 0.0
5.2590884293522285e6 -4.315028149638417e6 0.0
0.0 0.0 0.0

-3.239723821901112e6 1.4857599287017044e7 0.0
1.4857599287017044e7 -987797.4221462167 0.0
0.0 0.0 0.0

-4.051678569888244e6 1.8461438363548983e7 0.0
1.8461438363548983e7 -825866.7734801825 0.0
0.0 0.0 0.0

-6.761520917565386e6 1.7499771072407458e7 0.0
1.7499771072407458e7 4.956180630679355e6 0.0
0.0 0.0 0.0

-5.707776653913366e6 1.268552502405147e7 0.0
1.268552502405147e7 3.230122256602797e6 0.0
0.0 0.0 0.0

-1.139756258184537e7 7.395817061086708e6 0.0
7.395817061086708e6 1.47043136841227e7 0.0
0.0 0.0 0.0

-4.732477151960131e6 1.3833218433423279e7 0.0
1.3833218433423279e7 6.5812978427357245e6 0.0
0.0 0.0 0.0

-7.72457215239073e6 1.8600425789962877e7 0.0
1.8600425789962877e7 5.687741475941373e6 0.0
0.0 0.0 0.0

925736.6156578045 8.526554689653536e6 0.0
8.526554689653536e6 -7.327305159006987e6 0.0
0.0 0.0 0.0

-7.449376763151756e6 1.8240599890982136e7 0.0
1.8240599890982136e7 5.460296206057884e6 0.0
0.0 0.0 0.0

-4.0036677694337605e6 1.3886553867714833e7 0.0
1.3886553867714833e7 1.0492157464665018e7 0.0
0.0 0.0 0.0

-1.0995185520662915e7 5.30048964039115e6 0.0
5.30048964039115e6 1.4319619354877174e7 0.0
0.0 0.0 0.0

4.8587079190018475e6 5.426727343347558e6 0.0
5.426727343347558e6 -1.4544273924116962e7 0.0
0.0 0.0 0.0

-7.17619418690525e6 1.502499880719864e7 0.0
1.502499880719864e7 5.162642736783793e6 0.0
0.0 0.0 0.0

-4.506821903799827e6 1.4748316919071805e7 0.0
1.4748316919071805e7 272661.1680118025 0.0
0.0 0.0 0.0

-3.9680196762130456e6 1.4868406610123854e7 0.0
1.4868406610123854e7 -260801.98583128653 0.0
0.0 0.0 0.0

-3.480678897748879e7 2.830085372126002e7 0.0
2.830085372126002e7 -7.646497413472139e6 0.0
0.0 0.0 0.0

88550.35833620047 1.251951546724941e7 0.0
1.251951546724941e7 -8.083519717101557e6 0.0
0.0 0.0 0.0

-5.233998431194169e6 1.6016675049714483e7 0.0
1.6016675049714483e7 3.000213215108704e6 0.0
0.0 0.0 0.0

-7.859980245696151e6 1.1280944591149554e7 0.0
1.1280944591149554e7 8.106196233578101e6 0.0
0.0 0.0 0.0

-2.0576293759225946e7 1.026609505805754e7 0.0
1.026609505805754e7 1.1511176282415535e7 0.0
0.0 0.0 0.0

-59911.97993486666 1.2436413795558332e7 0.0
1.2436413795558332e7 -1.1121329064966808e6 0.0
0.0 0.0 0.0

-6.2277911218001535e6 1.3047619851272905e7 0.0
1.3047619851272905e7 1.2352077394542372e7 0.0
0.0 0.0 0.0

5.712120040325377e6 4.764941323991094e6 0.0
4.764941323991094e6 -1.6584501605489518e7 0.0
0.0 0.0 0.0

-1.7367790813590977e7 1.700608743354561e7 0.0
1.700608743354561e7 1.1955128010535214e7 0.0
0.0 0.0 0.0

-8.639583561420646e6 -6.414265800331523e6 0.0
-6.414265800331523e6 1.7495621041261222e7 0.0
0.0 0.0 0.0

-1.0566685847348483e7 -5.564385886408133e6 0.0
-5.564385886408133e6 2.2551967956541333e7 0.0
0.0 0.0 0.0

-407901.83538758167 4.735970860470378e6 0.0
4.735970860470378e6 -825657.3333195769 0.0
0.0 0.0 0.0

-1.174123429767488e7 6.11076846465877e6 0.0
6.11076846465877e6 1.595105030722573e7 0.0
0.0 0.0 0.0

-6.91983303834036e6 1.0575465759249741e7 0.0
1.0575465759249741e7 9.087396222495245e6 0.0
0.0 0.0 0.0

1.1600641460313662e6 1.1152007872809526e7 0.0
1.1152007872809526e7 -1.1557242197012262e7 0.0
0.0 0.0 0.0

-2.5737746223557103e7 2.172365394978982e7 0.0
2.172365394978982e7 1.3276607740018044e7 0.0
0.0 0.0 0.0

-1.1083637790230209e7 5.955991684795242e6 0.0
5.955991684795242e6 1.4691986738611896e7 0.0
0.0 0.0 0.0

1.3325856599687124e6 1.08880202214982e7 0.0
1.08880202214982e7 -1.6016473831536468e7 0.0
0.0 0.0 0.0

-1.4315519107930183e7 1.011113090221942e7 0.0
1.011113090221942e7 9.113884768109486e6 0.0
0.0 0.0 0.0

-9.752100000209915e6 -5.996833281200384e6 0.0
-5.996833281200384e6 2.3095624905650996e7 0.0
0.0 0.0 0.0

-790628.2650935191 1.1791097872104028e7 0.0
1.1791097872104028e7 -6.917603234996362e6 0.0
0.0 0.0 0.0

-1.145979131528953e6 1.2338980479293855e7 0.0
1.2338980479293855e7 -1.6275057155132163e7 0.0
0.0 0.0 0.0

-915031.6411485656 1.371029698128169e7 0.0
1.371029698128169e7 -1.8815450801732228e6 0.0
0.0 0.0 0.0

-1.2434194455125384e7 8.277464281126056e6 0.0
8.277464281126056e6 8.207643432811696e6 0.0
0.0 0.0 0.0

1.5010190701043071e7 1.5296316349584796e7 0.0
1.5296316349584796e7 2.152404885273745e6 0.0
0.0 0.0 0.0

-572867.0429232061 7.635405790549534e6 0.0
7.635405790549534e6 -3.5721582441499187e6 0.0
0.0 0.0 0.0

495006.7959589218 1.1221873517435562e7 0.0
1.1221873517435562e7 -7.987133116576673e6 0.0
0.0 0.0 0.0

417626.12518445915 1.0194738514851915e7 0.0
1.0194738514851915e7 -8.383423788806967e6 0.0
0.0 0.0 0.0

5.905395478988307e6 4.832648118883702e6 0.0
4.832648118883702e6 -1.6687133565800473e7 0.0
0.0 0.0 0.0

-4.4376786886991905e6 1.5819992105675038e7 0.0
1.5819992105675038e7 1.1078945487361725e6 0.0
0.0 0.0 0.0

391340.00143748196 1.114245512462894e7 0.0
1.114245512462894e7 -1.1613720013014369e7 0.0
0.0 0.0 0.0

166468.96974026412 1.3212241819113003e7 0.0
1.3212241819113003e7 -7.028622380362604e6 0.0
0.0 0.0 0.0

-52194.8782557142 1.0027624019008406e7 0.0
1.0027624019008406e7 -1.3117575522173939e6 0.0
0.0 0.0 0.0

-2.564303174078767e6 8.1189715586001985e6 0.0
8.1189715586001985e6 651853.2608453048 0.0
0.0 0.0 0.0

-6.488563683674145e6 1.2883666956065154e7 0.0
1.2883666956065154e7 5.094442351184839e6 0.0
0.0 0.0 0.0

-5.137208164576037e6 1.3540941126567354e7 0.0
1.3540941126567354e7 9.365744914804265e6 0.0
0.0 0.0 0.0

4.619050037471902e6 5.35895668348835e6 0.0
5.35895668348835e6 -1.215643977356517e7 0.0
0.0 0.0 0.0

-9.245482184430525e6 3.8528355398119865e6 0.0
3.8528355398119865e6 3.411999255590963e6 0.0
0.0 0.0 0.0

-3.559284257613534e6 1.3054979943386309e7 0.0
1.3054979943386309e7 9.22807924826509e6 0.0
0.0 0.0 0.0

627524.9372082455 1.156199365258522e7 0.0
1.156199365258522e7 -9.594230244549919e6 0.0
0.0 0.0 0.0

2.752468116562617e7 7.173775493279076e6 0.0
7.173775493279076e6 -3.4826879720584396e6 0.0
0.0 0.0 0.0

1.0937935596774602e6 1.1539998486820765e7 0.0
1.1539998486820765e7 -1.0279803494068587e7 0.0
0.0 0.0 0.0

-4.628804589776949e6 1.528829944626865e7 0.0
1.528829944626865e7 -50395.50007862761 0.0
0.0 0.0 0.0

-4.745350032314122e6 1.326971643984213e7 0.0
1.326971643984213e7 1.3111415100836852e6 0.0
0.0 0.0 0.0

-3.856646800137829e6 1.3820513636554087e7 0.0
1.3820513636554087e7 2.4473377763201803e7 0.0
0.0 0.0 0.0

-1.1846637325143747e7 5.382399082170311e6 0.0
5.382399082170311e6 1.6684835323020972e7 0.0
0.0 0.0 0.0

-7.086985985305947e6 -9.813466400626529e6 0.0
-9.813466400626529e6 1.6266418628465623e7 0.0
0.0 0.0 0.0

-1.2664817883679716e7 254238.73614438114 0.0
254238.73614438114 1.9201252661041714e7 0.0
0.0 0.0 0.0

-6.5705082124337815e6 1.6997056375237044e7 0.0
1.6997056375237044e7 4.881192026758484e6 0.0
0.0 0.0 0.0

2.1228731051360564e6 8.715765206098823e6 0.0
8.715765206098823e6 -1.040942255731474e7 0.0
0.0 0.0 0.0

-6.526679271648699e6 1.410996336748554e7 0.0
1.410996336748554e7 7.260325663225405e6 0.0
0.0 0.0 0.0

-286022.41439465014 1.2751466502046784e7 0.0
1.2751466502046784e7 -7.495748904751489e6 0.0
0.0 0.0 0.0

-7.200432502268674e6 9.772002627077814e6 0.0
9.772002627077814e6 6.395742692385951e6 0.0
0.0 0.0 0.0

-6.001808405140513e6 1.534184790566553e7 0.0
1.534184790566553e7 6.366872693434943e6 0.0
0.0 0.0 0.0

-269641.596469468 1.5882350074457718e7 0.0
1.5882350074457718e7 -4.811515312713267e6 0.0
0.0 0.0 0.0

-5.9401115387486e6 1.3424179031643538e7 0.0
1.3424179031643538e7 7.696085134530164e6 0.0
0.0 0.0 0.0

-6.764569036980489e6 1.3652548384173622e7 0.0
1.3652548384173622e7 7.749437669185279e6 0.0
0.0 0.0 0.0

-345474.4314131965 1.0619004142756512e7 0.0
1.0619004142756512e7 -9.019388585545003e6 0.0
0.0 0.0 0.0

-1.1555836338374602e7 5.8547041283145305e6 0.0
5.8547041283145305e6 1.3147504839090701e7 0.0
0.0 0.0 0.0

-6.391429720770105e6 1.7046200394433346e7 0.0
1.7046200394433346e7 5.501858047829926e6 0.0
0.0 0.0 0.0

4.015411346387635e6 6.053081288325418e6 0.0
6.053081288325418e6 -1.1968364023023067e7 0.0
0.0 0.0 0.0

-1.226051579028025e7 -2.039995640369716e6 0.0
-2.039995640369716e6 3.2562314523762487e7 0.0
0.0 0.0 0.0

-657233.795104557 1.3331704493015246e7 0.0
1.3331704493015246e7 -2.563758010812421e6 0.0
0.0 0.0 0.0

-6.779601955298815e6 1.731317586535937e7 0.0
1.731317586535937e7 5.214798954237663e6 0.0
0.0 0.0 0.0

2.4151139888275517e6 9.853563768337665e6 0.0
9.853563768337665e6 -1.203358136110607e7 0.0
0.0 0.0 0.0

-5.1631998062106585e6 1.5898807929106463e7 0.0
1.5898807929106463e7 925813.9569592031 0.0
0.0 0.0 0.0

2.293469153100083e6 7.898999202573486e6 0.0
7.898999202573486e6 -1.0415885795771131e7 0.0
0.0 0.0 0.0

-1.138337107333761e7 4.772182488993977e6 0.0
4.772182488993977e6 1.4931777273255292e7 0.0
0.0 0.0 0.0

-3.295727026310672e7 2.248072314199934e7 0.0
2.248072314199934e7 1.1132742105355995e7 0.0
0.0 0.0 0.0

-5.795504148568299e6 1.3974344859349407e7 0.0
1.3974344859349407e7 1.7963270082227113e6 0.0
0.0 0.0 0.0

-6.059504992698881e6 1.4362763672003306e7 0.0
1.4362763672003306e7 7.071263841884686e6 0.0
0.0 0.0 0.0

-409797.8561468188 1.3060162024977403e6 0.0
1.3060162024977403e6 798596.7777061593 0.0
0.0 0.0 0.0

-6.8866097998720715e6 1.3461461281205408e7 0.0
1.3461461281205408e7 1.0013748015556722e6 0.0
0.0 0.0 0.0

-6.209500295216433e6 1.5453213427216945e7 0.0
1.5453213427216945e7 6.006647467365003e6 0.0
0.0 0.0 0.0

5.136822173702816e6 5.287680557902154e6 0.0
5.287680557902154e6 -1.4803949799279993e7 0.0
0.0 0.0 0.0

-6.493174665335491e6 8.912535357904317e6 0.0
8.912535357904317e6 7.414878585598363e6 0.0
0.0 0.0 0.0

-7.792073856260264e6 7.168834361354818e6 0.0
7.168834361354818e6 1.020271861088325e7 0.0
0.0 0.0 0.0

-5.982294181623675e6 1.9745066168063447e7 0.0
1.9745066168063447e7 3.1985829373454954e6 0.0
0.0 0.0 0.0

-5.343664485667895e6 2.0944356955036079e6 0.0
2.0944356955036079e6 4.842575971328771e6 0.0
0.0 0.0 0.0

-1.1781083962299485e7 6.550632692993548e6 0.0
6.550632692993548e6 1.3814469935043823e7 0.0
0.0 0.0 0.0

-6.479577549104303e6 1.7738300955460653e7 0.0
1.7738300955460653e7 5.380505616466612e6 0.0
0.0 0.0 0.0

-1.0812557974001197e7 -5.455751496242735e6 0.0
-5.455751496242735e6 2.5164722817027792e7 0.0
0.0 0.0 0.0

-1.422891830439643e6 1.9763330212674343e6 0.0
1.9763330212674343e6 1.7361978074645353e6 0.0
0.0 0.0 0.0

3.4703628186321445e6 6.875716874094778e6 0.0
6.875716874094778e6 -1.1449393229810499e7 0.0
0.0 0.0 0.0

-6.410276293066729e6 1.3233618082337363e7 0.0
1.3233618082337363e7 5.777892574166719e6 0.0
0.0 0.0 0.0

-1.2036172919872014e7 6.672678396902257e6 0.0
6.672678396902257e6 1.4491564991175447e7 0.0
0.0 0.0 0.0

-1.0918321990324908e6 1.2346834988196291e7 0.0
1.2346834988196291e7 -6.69839286643887e6 0.0
0.0 0.0 0.0

-187879.6261985288 1.1894334775223775e7 0.0
1.1894334775223775e7 -6.997594436281513e6 0.0
0.0 0.0 0.0

2.2923664974724306e6 8.622135123333326e6 0.0
8.622135123333326e6 -1.1067920153590953e7 0.0
0.0 0.0 0.0

938947.5490280315 1.1370256176986353e7 0.0
1.1370256176986353e7 -1.1006630182665609e7 0.0
0.0 0.0 0.0

-1.2164843534114128e6 9.93966081453825e6 0.0
9.93966081453825e6 2.498515297355511e6 0.0
0.0 0.0 0.0

-1.2172685654189218e7 7.614499973542472e6 0.0
7.614499973542472e6 1.3734297885398215e7 0.0
0.0 0.0 0.0

-4.822395838224684e6 1.5573194062780498e7 0.0
1.5573194062780498e7 102480.68927435414 0.0
0.0 0.0 0.0

-6.759572100197436e6 1.6462798198040856e7 0.0
1.6462798198040856e7 6.448454435024396e6 0.0
0.0 0.0 0.0

-6.280560567061659e6 1.7248601622304082e7 0.0
1.7248601622304082e7 5.3015280780419335e6 0.0
0.0 0.0 0.0

3.280469244341164e6 1.808763738821322e7 0.0
1.808763738821322e7 3.361535640480831e7 0.0
0.0 0.0 0.0

-5.892778046462002e6 1.34573411020623e7 0.0
1.34573411020623e7 5.430110340056186e6 0.0
0.0 0.0 0.0

161434.63147409353 1.1456651060698641e7 0.0
1.1456651060698641e7 -7.377989022632378e6 0.0
0.0 0.0 0.0

686595.4903979865 1.162134235011805e7 0.0
1.162134235011805e7 -1.0694791215558903e7 0.0
0.0 0.0 0.0

539575.1495952988 1.1418746984578177e7 0.0
1.1418746984578177e7 -8.264815929953314e6 0.0
0.0 0.0 0.0

-5.448372304350998e6 1.7053350344688535e7 0.0
1.7053350344688535e7 2.851794637590357e6 0.0
0.0 0.0 0.0

-6.126933837428857e6 1.2601797159120336e7 0.0
1.2601797159120336e7 4.511494104561879e6 0.0
0.0 0.0 0.0

73889.82646177697 9.464478668145936e6 0.0
9.464478668145936e6 -540485.6004536226 0.0
0.0 0.0 0.0

718148.5461525791 1.1721781278740497e7 0.0
1.1721781278740497e7 -9.317558799015608e6 0.0
0.0 0.0 0.0

-3.139239061738485e6 8.18585567771768e6 0.0
8.18585567771768e6 618372.8738006139 0.0
0.0 0.0 0.0

-8.354924397372708e6 2.2574910235373016e7 0.0
2.2574910235373016e7 -686565.6528262468 0.0
0.0 0.0 0.0

5.795475905359437e6 5.724238493823902e6 0.0
5.724238493823902e6 -1.9244042676768433e7 0.0
0.0 0.0 0.0

3.184653433443148e7 1.5015839947343016e7 0.0
1.5015839947343016e7 1.152533788470244e6 0.0
0.0 0.0 0.0

9.945229872189147e6 1.9938326783585895e7 0.0
1.9938326783585895e7 -2.2825575074176196e7 0.0
0.0 0.0 0.0

-3.188048647908718e6 1.2880057620548792e7 0.0
1.2880057620548792e7 5.862906112749522e6 0.0
0.0 0.0 0.0

-1.3912414582854197e6 1.0492568017499335e7 0.0
1.0492568017499335e7 3.968443093658001e6 0.0
0.0 0.0 0.0

-1.144270831968686e7 1.3409632451349989e7 0.0
1.3409632451349989e7 4.269743971554103e6 0.0
0.0 0.0 0.0

-3.3785399706158824e7 1.4777723272942811e7 0.0
1.4777723272942811e7 8.508372937475836e6 0.0
0.0 0.0 0.0

-3.7402702751265336e6 8.112158369300469e6 0.0
8.112158369300469e6 2.468113389471256e6 0.0
0.0 0.0 0.0

-4.517247440572695e6 1.5078501597091552e7 0.0
1.5078501597091552e7 1.6619355026328482e6 0.0
0.0 0.0 0.0

733757.4177732775 1.0947607144148592e7 0.0
1.0947607144148592e7 -8.534909973064924e6 0.0
0.0 0.0 0.0

5.052075030322072e6 7.34698733350087e6 0.0
7.34698733350087e6 -1.832420526902483e7 0.0
0.0 0.0 0.0

251511.2054891307 1.1108364201997343e7 0.0
1.1108364201997343e7 -8.786541003207155e6 0.0
0.0 0.0 0.0

1.4520570716749066e6 1.0675263122176778e7 0.0
1.0675263122176778e7 -1.5128141303836372e7 0.0
0.0 0.0 0.0

-8.113440295533589e6 7.431176740070279e6 0.0
7.431176740070279e6 8.677252099475294e6 0.0
0.0 0.0 0.0

-3.7619858148977696e6 1.3498130966439892e7 0.0
1.3498130966439892e7 7.518067200132513e6 0.0
0.0 0.0 0.0

-1.5895453270131107e6 9.159398623416906e6 0.0
9.159398623416906e6 1.726733027349773e6 0.0
0.0 0.0 0.0

-2.3677626828185767e6 691636.5327911325 0.0
691636.5327911325 1.7383612608211408e6 0.0
0.0 0.0 0.0

-1.2223520915133286e7 -1.0823814049113991e6 0.0
-1.0823814049113991e6 1.8441690400932055e7 0.0
0.0 0.0 0.0

-6.3363219689630605e6 1.5265826497090334e7 0.0
1.5265826497090334e7 5.946142425475338e6 0.0
0.0 0.0 0.0

-5.101640688927889e6 1.362099305607278e7 0.0
1.362099305607278e7 9.472849608892877e6 0.0
0.0 0.0 0.0

-6.462665976877759e6 1.030848632556436e7 0.0
1.030848632556436e7 7.262240020981789e6 0.0
0.0 0.0 0.0

-501491.09554106684 5.238320878282102e6 0.0
5.238320878282102e6 -2.14214214979131e6 0.0
0.0 0.0 0.0

-1.2704425143946568e7 7.951930952395866e6 0.0
7.951930952395866e6 3.3073948011453465e7 0.0
0.0 0.0 0.0

-3.9776585234148363e6 1.2140330070737597e7 0.0
1.2140330070737597e7 1.6427581705072378e6 0.0
0.0 0.0 0.0

-4.478035175619427e6 1.528902151464496e7 0.0
1.528902151464496e7 -714440.7939417091 0.0
0.0 0.0 0.0

-5.119506872349704e6 1.3563728079078887e7 0.0
1.3563728079078887e7 9.478919776218092e6 0.0
0.0 0.0 0.0

-2.970521218038414e6 8.22316731921008e6 0.0
8.22316731921008e6 1.2052686942486009e6 0.0
0.0 0.0 0.0

-809765.0800897756 1.5970998108540729e7 0.0
1.5970998108540729e7 -3.9774198266143273e6 0.0
0.0 0.0 0.0

-1.1207901584020793e7 374136.8247587552 0.0
374136.8247587552 3.8890058261884905e7 0.0
0.0 0.0 0.0

916841.9442705412 1.4625652135047782e7 0.0
1.4625652135047782e7 -4.964823599280859e6 0.0
0.0 0.0 0.0

-6.604476745916404e6 1.7326517386956796e7 0.0
1.7326517386956796e7 5.799229108756647e6 0.0
0.0 0.0 0.0

-760814.1663772012 1.0592910013282558e7 0.0
1.0592910013282558e7 -1.0378238463093022e7 0.0
0.0 0.0 0.0

-5.924109202503411e6 1.3046207846661087e7 0.0
1.3046207846661087e7 7.856795888138617e6 0.0
0.0 0.0 0.0

-1.2356880209772155e7 5.24463867072368e6 0.0
5.24463867072368e6 1.504139014944471e7 0.0
0.0 0.0 0.0

-4.436759559187096e6 1.721027837137964e7 0.0
1.721027837137964e7 749206.5442106796 0.0
0.0 0.0 0.0

2.083901877052534e6 5.4865586235090215e6 0.0
5.4865586235090215e6 -6.582401200445783e6 0.0
0.0 0.0 0.0

-9.261468953216482e6 2.1080276072045274e7 0.0
2.1080276072045274e7 3.9612218877343326e6 0.0
0.0 0.0 0.0

583559.5038266316 1.1581025373685366e7 0.0
1.1581025373685366e7 2.1399726235780646e6 0.0
0.0 0.0 0.0

-3.758465206512961e6 1.4087087177210495e7 0.0
1.4087087177210495e7 93549.55047590798 0.0
0.0 0.0 0.0

4.611703795599504e6 6.29247786372194e6 0.0
6.29247786372194e6 -1.5018540998227697e7 0.0
0.0 0.0 0.0

-965361.4720236689 1.3732218216304408e7 0.0
1.3732218216304408e7 -2.297342331231738e6 0.0
0.0 0.0 0.0

-3.8476540527245407e6 1.3618779241129769e7 0.0
1.3618779241129769e7 1.0185122944165034e7 0.0
0.0 0.0 0.0

-5.7778557664936045e6 1.6261650334881753e7 0.0
1.6261650334881753e7 4.453048870042661e6 0.0
0.0 0.0 0.0

-1.4847793871430778e6 1.4055286034660097e7 0.0
1.4055286034660097e7 7.80863316719776e6 0.0
0.0 0.0 0.0

24211.868338031694 4.918238574244751e6 0.0
4.918238574244751e6 -1.6681765818356914e6 0.0
0.0 0.0 0.0

-6.975166172225512e6 1.291579293223786e7 0.0
1.291579293223786e7 1.2886545598107299e7 0.0
0.0 0.0 0.0

-4.33917607774798e6 1.430245464011711e7 0.0
1.430245464011711e7 2.8927927015949385e6 0.0
0.0 0.0 0.0

368246.6539045926 1.5255759625847042e7 0.0
1.5255759625847042e7 -4.830360626822269e6 0.0
0.0 0.0 0.0

-1.9425909778841059e6 1.4674510686540509e7 0.0
1.4674510686540509e7 -4.799980198722398e6 0.0
0.0 0.0 0.0

-3.498272715974463e6 1.8312774558870196e7 0.0
1.8312774558870196e7 -1.091514258427758e6 0.0
0.0 0.0 0.0

-1.2166170457597845e6 8.416604291281858e6 0.0
8.416604291281858e6 206495.71975388727 0.0
0.0 0.0 0.0

-6.155931317072189e6 1.4731455663382359e7 0.0
1.4731455663382359e7 6.984428289111229e6 0.0
0.0 0.0 0.0

-6.018602190187985e6 1.8652984648162294e7 0.0
1.8652984648162294e7 936613.0764206522 0.0
0.0 0.0 0.0

-934848.3431162876 1.2304573893265381e7 0.0
1.2304573893265381e7 -1.555411255786036e7 0.0
0.0 0.0 0.0

-2.977127010808587e6 7.218659015929242e6 0.0
7.218659015929242e6 625631.6980211353 0.0
0.0 0.0 0.0

-1.9828265306416599e6 9.864873967839057e6 0.0
9.864873967839057e6 3.0048809154223665e6 0.0
0.0 0.0 0.0

-5.196460608479589e6 1.7921743773362678e7 0.0
1.7921743773362678e7 -89497.82184363552 0.0
0.0 0.0 0.0

740681.9240655266 1.1916447921968704e7 0.0
1.1916447921968704e7 -9.560758779388834e6 0.0
0.0 0.0 0.0

4.308167774741261e6 5.786484264544075e6 0.0
5.786484264544075e6 -1.1605033163842726e7 0.0
0.0 0.0 0.0

-1.136685208167022e7 -4.617996648940756e6 0.0
-4.617996648940756e6 3.5053575615989365e7 0.0
0.0 0.0 0.0

2.537040852669704e6 9.942388110208832e6 0.0
9.942388110208832e6 -1.2750478640026685e7 0.0
0.0 0.0 0.0

-2.632464403961554e6 1.1036289642382076e7 0.0
1.1036289642382076e7 5.677715672102477e6 0.0
0.0 0.0 0.0

-7.314552310515279e6 8.013878466489678e6 0.0
8.013878466489678e6 9.524743639787344e6 0.0
0.0 0.0 0.0

-80982.25222174218 1.5392250937746767e7 0.0
1.5392250937746767e7 -5.024475175928615e6 0.0
0.0 0.0 0.0

3.031261544649047e6 6.222744745442171e6 0.0
6.222744745442171e6 -1.002475770781001e7 0.0
0.0 0.0 0.0

2.0263925442786918e6 1.2152650607034558e7 0.0
1.2152650607034558e7 -4.799737862114107e6 0.0
0.0 0.0 0.0

-2.5484736518763434e6 1.3228844355048897e7 0.0
1.3228844355048897e7 8.433360956812931e6 0.0
0.0 0.0 0.0

-5.822125942291634e6 2.259599818386748e7 0.0
2.259599818386748e7 -4.21369619809175e6 0.0
0.0 0.0 0.0

-719892.5373788463 1.431612924691965e7 0.0
1.431612924691965e7 -5.343239094562711e6 0.0
0.0 0.0 0.0

-6.32818726526917e6 1.3057092694872022e7 0.0
1.3057092694872022e7 1.7546783380459055e7 0.0
0.0 0.0 0.0

4.993911741806054e6 5.103957081973628e6 0.0
5.103957081973628e6 -1.3321054043598365e7 0.0
0.0 0.0 0.0

-6.153177467951983e6 1.7780756756097782e7 0.0
1.7780756756097782e7 2.975759582652103e6 0.0
0.0 0.0 0.0

2.394836110343916e6 1.0759524410367753e7 0.0
1.0759524410367753e7 -582012.8511974019 0.0
0.0 0.0 0.0

-3.6184718131950386e7 8.0617295933466535e6 0.0
8.0617295933466535e6 1.0013888200609121e7 0.0
0.0 0.0 0.0

-6.219513640977506e6 1.5524002728914449e7 0.0
1.5524002728914449e7 6.222353928526143e6 0.0
0.0 0.0 0.0

-2.4471505045662094e6 7.136629889713173e6 0.0
7.136629889713173e6 728819.9092585008 0.0
0.0 0.0 0.0

1.37967751417503e6 1.125055583793675e7 0.0
1.125055583793675e7 -1.164692874672164e7 0.0
0.0 0.0 0.0

-3.129719007082708e6 1.2786160700717764e7 0.0
1.2786160700717764e7 5.064308809742492e6 0.0
0.0 0.0 0.0

705559.9282175684 1.1170136539994871e7 0.0
1.1170136539994871e7 -1.385973378678456e7 0.0
0.0 0.0 0.0

5.749138542898499e6 5.122993751122222e6 0.0
5.122993751122222e6 -1.6346126343605112e7 0.0
0.0 0.0 0.0

1.871353434078351e7 1.1755930751666522e7 0.0
1.1755930751666522e7 -598616.8255764544 0.0
0.0 0.0 0.0

-6.560058469899368e7 2.98857490796546e7 0.0
2.98857490796546e7 -656130.8919421621 0.0
0.0 0.0 0.0

232370.06223673047 1.3693767324454628e7 0.0
1.3693767324454628e7 6.663118071173446e6 0.0
0.0 0.0 0.0

-3.346598455853436e6 1.4357673013068516e7 0.0
1.4357673013068516e7 -3.064906120709081e6 0.0
0.0 0.0 0.0

-5.437720629123373e6 1.3670603068257472e7 0.0
1.3670603068257472e7 6.746723444995036e6 0.0
0.0 0.0 0.0

4.183648259017245e6 5.803400283617955e6 0.0
5.803400283617955e6 -1.1390091106428321e7 0.0
0.0 0.0 0.0

-4.820447834515615e6 1.4435437847545572e7 0.0
1.4435437847545572e7 3.9744695307868132e6 0.0
0.0 0.0 0.0

-5.846202145478874e6 1.8233439092661913e7 0.0
1.8233439092661913e7 3.244047422220191e6 0.0
0.0 0.0 0.0

320500.155497883 1.1360669746466003e7 0.0
1.1360669746466003e7 -1.1919242053425916e7 0.0
0.0 0.0 0.0

-3.9612989039119896e6 1.3905304875832332e7 0.0
1.3905304875832332e7 -681356.308850078 0.0
0.0 0.0 0.0

1.450662508089345e6 5.498523080491596e6 0.0
5.498523080491596e6 -5.381341923022469e6 0.0
0.0 0.0 0.0

-1.8230230310524772e6 1.2910569527225152e7 0.0
1.2910569527225152e7 8.95095374107821e6 0.0
0.0 0.0 0.0

-3.9208932433997253e6 1.4128398571603475e7 0.0
1.4128398571603475e7 102160.44054741785 0.0
0.0 0.0 0.0

-909858.5123782391 1.2339657132748606e7 0.0
1.2339657132748606e7 -5.740436941866012e6 0.0
0.0 0.0 0.0

-5.336939547728596e6 1.402915604652086e7 0.0
1.402915604652086e7 2.4678938507854436e6 0.0
0.0 0.0 0.0

1.904237869458557e6 1.0024647855615111e7 0.0
1.0024647855615111e7 -1.230166781341839e7 0.0
0.0 0.0 0.0

-1.0924593950978015e7 -5.442988974514028e6 0.0
-5.442988974514028e6 2.576308686608525e7 0.0
0.0 0.0 0.0

-84725.04408611963 1.1331438109325469e7 0.0
1.1331438109325469e7 -8.148548200760464e6 0.0
0.0 0.0 0.0

2.2990535717612198e6 1.105061461792199e7 0.0
1.105061461792199e7 -3.119475831379166e6 0.0
0.0 0.0 0.0

-3.776003582985279e6 1.407418315664004e7 0.0
1.407418315664004e7 -1.828430995286712e7 0.0
0.0 0.0 0.0

3.787769493387929e6 6.619138562151378e6 0.0
6.619138562151378e6 -1.1264061065418398e7 0.0
0.0 0.0 0.0

332653.56392823067 1.2185390584057795e7 0.0
1.2185390584057795e7 -8.492550327717513e6 0.0
0.0 0.0 0.0

-6.0964014653755985e6 1.525861118849481e7 0.0
1.525861118849481e7 6.558391317772944e6 0.0
0.0 0.0 0.0

-5.4611497720783185e6 1.5884979619241558e7 0.0
1.5884979619241558e7 2.352799370666261e6 0.0
0.0 0.0 0.0

-6.471052630212607e6 1.3765399228785697e7 0.0
1.3765399228785697e7 6.995860391975601e6 0.0
0.0 0.0 0.0

787230.0962828082 1.1111244575861996e7 0.0
1.1111244575861996e7 2.7294070686076735e6 0.0
0.0 0.0 0.0

-4.454289140586735e7 1.2848155447435504e7 0.0
1.2848155447435504e7 8.725547682442777e6 0.0
0.0 0.0 0.0

885445.2856414786 3.576079485790205e6 0.0
3.576079485790205e6 -3.7927489784094943e6 0.0
0.0 0.0 0.0

107552.07184009824 8.924136569328794e6 0.0
8.924136569328794e6 -3.1045497881527483e6 0.0
0.0 0.0 0.0

4.4509950713102175e6 1.1797878135558615e7 0.0
1.1797878135558615e7 -3.0147203342553615e6 0.0
0.0 0.0 0.0

-7.227508727804974e6 1.8857101451472152e7 0.0
1.8857101451472152e7 6.136702194434004e6 0.0
0.0 0.0 0.0

1.4521813493585773e6 1.086141325440831e7 0.0
1.086141325440831e7 -1.561796759231998e7 0.0
0.0 0.0 0.0

-1.067858078019301e6 1.360016272766482e7 0.0
1.360016272766482e7 -2.314004856407854e6 0.0
0.0 0.0 0.0

-1.40436009170479e6 1.5085115985849915e7 0.0
1.5085115985849915e7 -4.287405561266949e6 0.0
0.0 0.0 0.0

483979.9247502871 1.0417580450099522e7 0.0
1.0417580450099522e7 -6.864553123453784e6 0.0
0.0 0.0 0.0

-875724.8193738577 1.474945883163311e7 0.0
1.474945883163311e7 -4.967866445340257e6 0.0
0.0 0.0 0.0

-854552.1530687078 1.2602311426959587e7 0.0
1.2602311426959587e7 1.6846668552869214e6 0.0
0.0 0.0 0.0

-5.003149786917506e6 1.5803897182389075e7 0.0
1.5803897182389075e7 2.3768897645452665e6 0.0
0.0 0.0 0.0

3.000026508889919e6 7.779425768971587e6 0.0
7.779425768971587e6 -1.0799919735478768e7 0.0
0.0 0.0 0.0

5.126200760018236e6 5.280732252444979e6 0.0
5.280732252444979e6 -1.4759402022693716e7 0.0
0.0 0.0 0.0

-1.496319468862458e6 590880.016748874 0.0
590880.016748874 -868588.3431357845 0.0
0.0 0.0 0.0

-3.329390992463283e6 -512324.2083271571 0.0
-512324.2083271571 471299.93057632726 0.0
0.0 0.0 0.0

-3.2292959320591306e6 1.2025629180950968e7 0.0
1.2025629180950968e7 7.769168896548842e6 0.0
0.0 0.0 0.0

-740740.1186596084 1.2223849032658722e7 0.0
1.2223849032658722e7 2.1874364926572894e6 0.0
0.0 0.0 0.0

-1.285144416735337e6 1.2571842721585972e7 0.0
1.2571842721585972e7 1.8220903327259757e6 0.0
0.0 0.0 0.0

2.621271760274543e6 5.238415670438398e6 0.0
5.238415670438398e6 -8.674331724076733e6 0.0
0.0 0.0 0.0

545908.1704570602 1.3816270175427398e7 0.0
1.3816270175427398e7 -5.853024666598987e6 0.0
0.0 0.0 0.0

1.517250402497087e6 4.952389751595822e6 0.0
4.952389751595822e6 -5.647908572823618e6 0.0
0.0 0.0 0.0

-1.0606429719048925e6 1.4683586434080709e7 0.0
1.4683586434080709e7 -4.762565251048875e6 0.0
0.0 0.0 0.0

-1.1280135197010167e7 8.283144581856725e6 0.0
8.283144581856725e6 1.4568388307858739e7 0.0
0.0 0.0 0.0

-4.126021627246627e6 1.5497977673238039e7 0.0
1.5497977673238039e7 281188.27880536485 0.0
0.0 0.0 0.0

-4.7126872297158865e6 1.7990745580346774e7 0.0
1.7990745580346774e7 1.519928335162059e6 0.0
0.0 0.0 0.0

3.32769292684751e6 6.797998945995527e6 0.0
6.797998945995527e6 -1.15426272137803e7 0.0
0.0 0.0 0.0

3.6562429758406095e6 6.416639984447655e6 0.0
6.416639984447655e6 -1.1797582273505034e7 0.0
0.0 0.0 0.0

5.06814250398566e6 1.277451302605278e7 0.0
1.277451302605278e7 -5.7668912487368975e6 0.0
0.0 0.0 0.0

-3.584677400839021e6 1.3736453321322557e7 0.0
1.3736453321322557e7 7.870954955724881e6 0.0
0.0 0.0 0.0

-470348.8958464216 1.1576306106698636e7 0.0
1.1576306106698636e7 -7.53724329513833e6 0.0
0.0 0.0 0.0

-6.228577901780323e6 -9.474591068385042e6 0.0
-9.474591068385042e6 1.5270238716593096e7 0.0
0.0 0.0 0.0

-6.79889363790057e6 1.8079331956206553e7 0.0
1.8079331956206553e7 5.639897133602837e6 0.0
0.0 0.0 0.0

-1.0713114034223143e7 6.520160766573507e6 0.0
6.520160766573507e6 1.384383617528165e7 0.0
0.0 0.0 0.0

-1.1807838022395442e6 2.741264328845952e6 0.0
2.741264328845952e6 -304348.42965221545 0.0
0.0 0.0 0.0

-863063.6581577022 1.109246102376476e7 0.0
1.109246102376476e7 -4.3409138726880355e6 0.0
0.0 0.0 0.0

5.086116680630556e6 5.31204197334511e6 0.0
5.31204197334511e6 -1.4343440462763587e7 0.0
0.0 0.0 0.0

-6.841381039431317e6 1.6676157677329183e7 0.0
1.6676157677329183e7 6.488049981408187e6 0.0
0.0 0.0 0.0

-3.3562130772669963e6 1.386257498178274e7 0.0
1.386257498178274e7 -547100.8633184413 0.0
0.0 0.0 0.0

2.1909557955280654e6 9.80224134117367e6 0.0
9.80224134117367e6 -1.2886591523474714e7 0.0
0.0 0.0 0.0

5.734599582837118e6 1.0901761177007934e7 0.0
1.0901761177007934e7 -1.4755939531707345e6 0.0
0.0 0.0 0.0

-6.75866566615285e6 1.6376871616683446e7 0.0
1.6376871616683446e7 6.522837350444371e6 0.0
0.0 0.0 0.0

-8.929646607700858e6 -7.09518571340629e6 0.0
-7.09518571340629e6 1.4861772022534424e7 0.0
0.0 0.0 0.0

-2.9302236527230437e6 -3.1865721045127097e6 0.0
-3.1865721045127097e6 3.460271407333156e6 0.0
0.0 0.0 0.0

2.8279048979654247e6 1.1211016157407863e7 0.0
1.1211016157407863e7 -3.078328379661333e6 0.0
0.0 0.0 0.0

-2.7537350968363155e6 1.4240236555505602e7 0.0
1.4240236555505602e7 -2.8695105558958617e6 0.0
0.0 0.0 0.0

-2.8436750560973072e6 1.4599547159074081e7 0.0
1.4599547159074081e7 -2.674022087163276e6 0.0
0.0 0.0 0.0

-1.1438691999692384e7 1.5814585282599307e6 0.0
1.5814585282599307e6 3.001134691007742e7 0.0
0.0 0.0 0.0

2.6885859109370257e6 4.275813621240925e6 0.0
4.275813621240925e6 -7.480027777516831e6 0.0
0.0 0.0 0.0

-2.561774862536798e6 1.4156458212914871e7 0.0
1.4156458212914871e7 -250286.22247977462 0.0
0.0 0.0 0.0

-4.657651037399633e6 1.4284825379359597e7 0.0
1.4284825379359597e7 -776873.6421596338 0.0
0.0 0.0 0.0

-1.916329666514335e7 1.414950143453648e7 0.0
1.414950143453648e7 8.165882271148169e6 0.0
0.0 0.0 0.0

-6.471431896766087e6 1.833926351550585e7 0.0
1.833926351550585e7 4.573422072038105e6 0.0
0.0 0.0 0.0

-259263.47569828038 1.1948016788753154e7 0.0
1.1948016788753154e7 -1.1290154178028072e6 0.0
0.0 0.0 0.0

-9.097639845331755e6 -6.941981381740053e6 0.0
-6.941981381740053e6 1.6105479948016891e7 0.0
0.0 0.0 0.0

4.445054319791854e6 1.2531501216185162e7 0.0
1.2531501216185162e7 -5.129877229494645e6 0.0
0.0 0.0 0.0

-1.3179156944338754e6 1.2027068862569816e7 0.0
1.2027068862569816e7 -4.35462691432895e6 0.0
0.0 0.0 0.0

-6.70948613484803e6 -2.0504496652174229e6 0.0
-2.0504496652174229e6 1.0321541291221483e7 0.0
0.0 0.0 0.0

-6.838758324666755e6 1.4000944634967193e7 0.0
1.4000944634967193e7 6.500234183187101e6 0.0
0.0 0.0 0.0

-6.598766271503461e6 1.484117787426214e7 0.0
1.484117787426214e7 6.4762956164212e6 0.0
0.0 0.0 0.0

6980.50420078414 4.746423291920195e6 0.0
4.746423291920195e6 -2.230703557554626e6 0.0
0.0 0.0 0.0

3.975151074197783e6 6.1922468815291915e6 0.0
6.1922468815291915e6 -1.2154578683393689e7 0.0
0.0 0.0 0.0

4.253233540377944e6 7.91670593183286e6 0.0
7.91670593183286e6 -1.9108054131448068e7 0.0
0.0 0.0 0.0

-2.7298257019272116e6 1.2293756975390915e7 0.0
1.2293756975390915e7 8.183714094363904e6 0.0
0.0 0.0 0.0

2.0999472083251555e6 5.0197933752922155e6 0.0
5.0197933752922155e6 -6.891309095178499e6 0.0
0.0 0.0 0.0

2.5679670041373204e6 1.7743028161706626e7 0.0
1.7743028161706626e7 -8.969500603962278e6 0.0
0.0 0.0 0.0

4.362685979431928e6 5.976757737733821e6 0.0
5.976757737733821e6 -1.1791711185520727e7 0.0
0.0 0.0 0.0

3.2468942932862113e6 5.866595566465739e6 0.0
5.866595566465739e6 -9.02595270140399e6 0.0
0.0 0.0 0.0

3.6355731811811486e6 6.058044409498539e6 0.0
6.058044409498539e6 -1.0665109971170258e7 0.0
0.0 0.0 0.0

-173121.72464711202 1.240701324476086e7 0.0
1.240701324476086e7 -471648.21565804 0.0
0.0 0.0 0.0

-516927.1312130189 1.2118662807903845e7 0.0
1.2118662807903845e7 1.4025332703981681e6 0.0
0.0 0.0 0.0

1.7543445027812244e6 1.0833675984889599e7 0.0
1.0833675984889599e7 -1.2057427587324325e7 0.0
0.0 0.0 0.0

-131577.11494396906 1.9048010374137588e7 0.0
1.9048010374137588e7 -7.397645145227605e6 0.0
0.0 0.0 0.0

-6.269088184648281e6 -3.30727946135717e6 0.0
-3.30727946135717e6 8.4440169757178e6 0.0
0.0 0.0 0.0

-6.619419758625083e6 1.4406973044484524e7 0.0
1.4406973044484524e7 7.363833224540332e6 0.0
0.0 0.0 0.0

-7.041959238846662e6 1.7846379548067834e7 0.0
1.7846379548067834e7 5.231259742639705e6 0.0
0.0 0.0 0.0

-4.329758167215396e6 1.548709357695854e7 0.0
1.548709357695854e7 758267.6595017524 0.0
0.0 0.0 0.0

-2.1460991521752076e6 1.306343237366744e6 0.0
1.306343237366744e6 1.8002517372484775e6 0.0
0.0 0.0 0.0

-1.3399896941700554e6 3.297882699542795e6 0.0
3.297882699542795e6 61594.11021208536 0.0
0.0 0.0 0.0

-2.1206287621904737e6 1.372923991610086e7 0.0
1.372923991610086e7 6.763063915415125e6 0.0
0.0 0.0 0.0

710890.9180481229 3.5551705696349097e6 0.0
3.5551705696349097e6 -3.173331796709777e6 0.0
0.0 0.0 0.0

-967356.2164282331 1.5639725437769834e7 0.0
1.5639725437769834e7 -4.610227309598099e6 0.0
0.0 0.0 0.0

-2.629744952009909e6 1.3832105013097055e7 0.0
1.3832105013097055e7 -4.1724059767082552e6 0.0
0.0 0.0 0.0

680432.3034350388 1.2123306107969943e7 0.0
1.2123306107969943e7 -9.271430088908786e6 0.0
0.0 0.0 0.0

-4.041355691937058e6 1.3106649845851718e7 0.0
1.3106649845851718e7 1.4936560365454194e6 0.0
0.0 0.0 0.0

-7.023796186698811e6 1.3469783646174055e7 0.0
1.3469783646174055e7 6.466405011432152e6 0.0
0.0 0.0 0.0

-8.253135557136925e6 7.532449046823161e6 0.0
7.532449046823161e6 1.1219968071580548e7 0.0
0.0 0.0 0.0

-1.7880784521954134e7 1.9261922952107485e7 0.0
1.9261922952107485e7 1.1727436132171106e7 0.0
0.0 0.0 0.0

2.254355038791885e6 4.963470149956749e6 0.0
4.963470149956749e6 -7.011152538898329e6 0.0
0.0 0.0 0.0

-230711.21684814664 1.166959903410558e7 0.0
1.166959903410558e7 -6.796456788079012e6 0.0
0.0 0.0 0.0

5.947001699744184e6 5.773822746542852e6 0.0
5.773822746542852e6 -1.9440862397682074e7 0.0
0.0 0.0 0.0

-2.3155320198208247e6 1.5074579274126265e7 0.0
1.5074579274126265e7 -4.257205934318469e6 0.0
0.0 0.0 0.0

-3.814583840518173e6 7.934510697200246e6 0.0
7.934510697200246e6 1.4441056406927737e6 0.0
0.0 0.0 0.0

-2.0053917781423673e6 1.1561765831301462e7 0.0
1.1561765831301462e7 -1.212258806625576e7 0.0
0.0 0.0 0.0

8.85435223278318e6 1.3667023910391688e7 0.0
1.3667023910391688e7 2.78053538682535e6 0.0
0.0 0.0 0.0

-1.6018480072136698e6 4.60119172882797e6 0.0
4.60119172882797e6 488803.02514549356 0.0
0.0 0.0 0.0

-1.9962743427211642e6 1.3802170721862895e7 0.0
1.3802170721862895e7 8.493328291578198e6 0.0
0.0 0.0 0.0

-853888.0465941764 1.179876727638209e7 0.0
1.179876727638209e7 9.842944245081563e6 0.0
0.0 0.0 0.0

-3.203147460136125e6 9.263341042705383e6 0.0
9.263341042705383e6 -4.353093290684667e6 0.0
0.0 0.0 0.0

-6.538826177372171e6 1.9699855105766434e7 0.0
1.9699855105766434e7 1.3464076579675525e6 0.0
0.0 0.0 0.0

-3.621606121555374e6 1.4001438105512869e7 0.0
1.4001438105512869e7 -1.8111691909358245e6 0.0
0.0 0.0 0.0

-7.257304827809919e6 1.0051378422503373e7 0.0
1.0051378422503373e7 8.735560189626781e6 0.0
0.0 0.0 0.0

4.709223979150163e6 8.40372599257466e6 0.0
8.40372599257466e6 -2.4884861164950456e7 0.0
0.0 0.0 0.0

-1.2388496525100917e6 4.300853740108206e6 0.0
4.300853740108206e6 136118.5099924336 0.0
0.0 0.0 0.0

-603812.695594213 1.2667608537308944e7 0.0
1.2667608537308944e7 -3.0300844358449546e6 0.0
0.0 0.0 0.0

1.197044668767179e6 1.1750241121576756e7 0.0
1.1750241121576756e7 4.3774498628920475e6 0.0
0.0 0.0 0.0

-5.930012142708768e6 7.675741662293418e6 0.0
7.675741662293418e6 6.751629393878704e6 0.0
0.0 0.0 0.0

-5.900764724921052e6 1.3660310340794336e7 0.0
1.3660310340794336e7 7.39259711339828e6 0.0
0.0 0.0 0.0

-6.216541085259048e6 1.5501137863915158e7 0.0
1.5501137863915158e7 5.620507630812712e6 0.0
0.0 0.0 0.0

-1.817918811167449e7 1.9287445803405985e7 0.0
1.9287445803405985e7 1.1817587616425628e7 0.0
0.0 0.0 0.0

992799.6710435613 6.467371552422293e6 0.0
6.467371552422293e6 -4.572173815329385e6 0.0
0.0 0.0 0.0

-6.53793318816801e6 1.5258865110774849e7 0.0
1.5258865110774849e7 5.267843016472083e6 0.0
0.0 0.0 0.0

-2.982919449194757e6 1.3508747264232213e7 0.0
1.3508747264232213e7 -2.0705288489952506e6 0.0
0.0 0.0 0.0

696107.0131297114 1.347099098416437e7 0.0
1.347099098416437e7 8.44552254027057e6 0.0
0.0 0.0 0.0

-4.423896195991296e6 1.4984375644324478e7 0.0
1.4984375644324478e7 -388912.6242003263 0.0
0.0 0.0 0.0

1.6495562818925702e6 4.932727612758599e6 0.0
4.932727612758599e6 -6.40329475986423e6 0.0
0.0 0.0 0.0

-1.4884993396233602e6 1.2451248341115562e7 0.0
1.2451248341115562e7 -5.887695710008658e6 0.0
0.0 0.0 0.0

-4.814729783804579e6 1.7706645290139776e6 0.0
1.7706645290139776e6 7.027821776682964e6 0.0
0.0 0.0 0.0

4.0741031625075126e6 6.383934940577711e6 0.0
6.383934940577711e6 -1.1632267858419519e7 0.0
0.0 0.0 0.0

6.084950718488642e6 6.226432172599657e6 0.0
6.226432172599657e6 -2.0695071394872583e7 0.0
0.0 0.0 0.0

-2.9634675072889826e6 1.2209112461133413e7 0.0
1.2209112461133413e7 6.848480515661338e6 0.0
0.0 0.0 0.0

122437.9678797042 1.2546577904436275e7 0.0
1.2546577904436275e7 -8.377863962096336e6 0.0
0.0 0.0 0.0

-7.663023260544784e6 1.0039777564970225e7 0.0
1.0039777564970225e7 7.328926353000521e6 0.0
0.0 0.0 0.0

4.32976723252718e6 5.468348842963389e6 0.0
5.468348842963389e6 -1.1376800227549426e7 0.0
0.0 0.0 0.0

1.1032538826484727e6 1.0745521512972936e7 0.0
1.0745521512972936e7 -9.010024632348444e6 0.0
0.0 0.0 0.0

433716.4211193458 1.1852229529729137e7 0.0
1.1852229529729137e7 -9.891327202781336e6 0.0
0.0 0.0 0.0

-7.741987131735153e6 1.0952405164691964e7 0.0
1.0952405164691964e7 7.515803368004424e6 0.0
0.0 0.0 0.0

-4.905597708765567e6 3.478869070251829e6 0.0
3.478869070251829e6 3.8099927228462235e6 0.0
0.0 0.0 0.0

-5.738153711620765e6 597653.9430561068 0.0
597653.9430561068 6.390176350119399e6 0.0
0.0 0.0 0.0

-135750.00161088537 1.2346568069571903e7 0.0
1.2346568069571903e7 -8.616427124076637e6 0.0
0.0 0.0 0.0

-2.98676287034947e6 7.592472880001358e6 0.0
7.592472880001358e6 1.3670253631158501e6 0.0
0.0 0.0 0.0

277144.5846566013 1.3230520095229162e7 0.0
1.3230520095229162e7 8.872046853599057e6 0.0
0.0 0.0 0.0

-3.0005897066364517e6 1.4092971011648294e7 0.0
1.4092971011648294e7 -3.730371004223736e6 0.0
0.0 0.0 0.0

1.691290350603373e6 4.993512027310252e6 0.0
4.993512027310252e6 -5.8055143671775935e6 0.0
0.0 0.0 0.0

-1.0990389712574322e7 160693.66225996075 0.0
160693.66225996075 1.9888220543114185e7 0.0
0.0 0.0 0.0

-6.135285389110185e6 1.6374200520764679e7 0.0
1.6374200520764679e7 4.291546868713182e6 0.0
0.0 0.0 0.0

-8.3647185721027e6 1.6732196452880142e7 0.0
1.6732196452880142e7 7.5539802940654345e6 0.0
0.0 0.0 0.0

-2.338507192488695e6 4.695985907535438e6 0.0
4.695985907535438e6 544625.1661383669 0.0
0.0 0.0 0.0

-8.727114909328412e6 -2.245728941973901e6 0.0
-2.245728941973901e6 1.2899577686643101e7 0.0
0.0 0.0 0.0

2.0434918862690935e6 1.0114023962303698e7 0.0
1.0114023962303698e7 -1.3012517109056644e7 0.0
0.0 0.0 0.0

-7.26714435039572e6 1.1546042371243164e7 0.0
1.1546042371243164e7 8.53734154498102e6 0.0
0.0 0.0 0.0

-1.1650388524317019e7 1.267569774596269e6 0.0
1.267569774596269e6 2.0463090166103482e7 0.0
0.0 0.0 0.0

-3.5079174823197894e7 9.667505210552542e6 0.0
9.667505210552542e6 1.250365285798132e7 0.0
0.0 0.0 0.0

986616.4155263193 9.236811733660797e6 0.0
9.236811733660797e6 -8.01079703596538e6 0.0
0.0 0.0 0.0

-159352.37743093714 1.2217751382904677e7 0.0
1.2217751382904677e7 -1.2670981069299271e6 0.0
0.0 0.0 0.0

5.156611598532186e6 5.000426487560908e6 0.0
5.000426487560908e6 -1.392374493156497e7 0.0
0.0 0.0 0.0

-6.621326206083261e6 1.2762845954494102e7 0.0
1.2762845954494102e7 1.1745484319555419e7 0.0
0.0 0.0 0.0

-1.2339089368156742e7 1.153702278415974e6 0.0
1.153702278415974e6 1.8155974372517962e7 0.0
0.0 0.0 0.0

1.0656407101261653e6 5.943998894957775e6 0.0
5.943998894957775e6 -5.469704335582274e6 0.0
0.0 0.0 0.0

-2.853385872416052e6 1.3585151390661078e7 0.0
1.3585151390661078e7 -1.984699260954232e6 0.0
0.0 0.0 0.0

-5.440285394190878e6 1.4579987221977651e7 0.0
1.4579987221977651e7 2.630177435936306e6 0.0
0.0 0.0 0.0

-6.2345056989524495e6 1.2879540511775123e7 0.0
1.2879540511775123e7 6.032750643961428e6 0.0
0.0 0.0 0.0

-7.265660628767967e6 1.6806024750205375e7 0.0
1.6806024750205375e7 6.849108070911063e6 0.0
0.0 0.0 0.0

-4.1586434970897147e6 1.198958100826211e7 0.0
1.198958100826211e7 699586.2946187293 0.0
0.0 0.0 0.0

-1.018667036357074e7 -6.190189845249498e6 0.0
-6.190189845249498e6 2.1511762593208138e7 0.0
0.0 0.0 0.0

-1.211050032488365e6 1.3245626169804579e7 0.0
1.3245626169804579e7 5.24601694135887e6 0.0
0.0 0.0 0.0

197392.6093088081 1.1646638391018039e7 0.0
1.1646638391018039e7 -7.65736393851873e6 0.0
0.0 0.0 0.0

-1.0760592066855248e7 1.4113150852902511e7 0.0
1.4113150852902511e7 7.339834044753263e6 0.0
0.0 0.0 0.0

-454438.8865012445 4.656041673715278e6 0.0
4.656041673715278e6 -1.1731704398500968e6 0.0
0.0 0.0 0.0

-6.562204262301279e6 1.7571345286660388e7 0.0
1.7571345286660388e7 5.625259556090361e6 0.0
0.0 0.0 0.0

-228000.57609453506 1.2055511614252726e7 0.0
1.2055511614252726e7 -1.7709159429525705e6 0.0
0.0 0.0 0.0

-1.1397448519417994e7 9.073836637969173e6 0.0
9.073836637969173e6 1.289751465062507e7 0.0
0.0 0.0 0.0

2.494678064313407e6 8.664264181036929e6 0.0
8.664264181036929e6 -1.0406464913260302e7 0.0
0.0 0.0 0.0

-8.954364472327769e6 8.405375734269142e6 0.0
8.405375734269142e6 1.2353907741101213e7 0.0
0.0 0.0 0.0

1.5883116083265939e6 5.01304882386605e6 0.0
5.01304882386605e6 -5.710315250719782e6 0.0
0.0 0.0 0.0

3.7636054518058985e6 6.803340378055939e6 0.0
6.803340378055939e6 -1.1546269186502922e7 0.0
0.0 0.0 0.0

-860113.1894209327 1.371749169170134e7 0.0
1.371749169170134e7 -2.1522609268131284e6 0.0
0.0 0.0 0.0

-4.541271931647602e6 1.2894410653949887e7 0.0
1.2894410653949887e7 2.1862375639535645e6 0.0
0.0 0.0 0.0

-5.188868753304707e6 1.473502177181655e7 0.0
1.473502177181655e7 3.397479691326145e6 0.0
0.0 0.0 0.0

-1.5259221695242436e6 1.4739670833414717e7 0.0
1.4739670833414717e7 -4.866150857989757e6 0.0
0.0 0.0 0.0

3.9067445753237125e6 6.115260198312862e6 0.0
6.115260198312862e6 -1.0838287181827571e7 0.0
0.0 0.0 0.0

877988.4437835021 4.8009976366320755e6 0.0
4.8009976366320755e6 -4.736703521735927e6 0.0
0.0 0.0 0.0

3.570798970160947e6 6.607068244620578e6 0.0
6.607068244620578e6 -1.1988966492620882e7 0.0
0.0 0.0 0.0

1.4825381974480678e6 5.935874686533721e6 0.0
5.935874686533721e6 -5.617403507994081e6 0.0
0.0 0.0 0.0

3.8124654523399975e6 1.3418502987850823e7 0.0
1.3418502987850823e7 6.918001421182047e6 0.0
0.0 0.0 0.0

-8.394138978762541e6 1.9177215104234133e7 0.0
1.9177215104234133e7 7.305032117976913e6 0.0
0.0 0.0 0.0

-7.465856207197153e6 -5.971112361631665e6 0.0
-5.971112361631665e6 1.4580526585916484e7 0.0
0.0 0.0 0.0

4.75941871349532e6 7.652897850781131e6 0.0
7.652897850781131e6 -1.7573550917533252e7 0.0
0.0 0.0 0.0

-1.7593036261516586e6 1.4964549398711393e7 0.0
1.4964549398711393e7 -4.087337563156817e6 0.0
0.0 0.0 0.0

-886318.9830788209 1.3436956029989565e7 0.0
1.3436956029989565e7 -2.9357393718492016e6 0.0
0.0 0.0 0.0

4.023203667214442e6 7.182590098285882e6 0.0
7.182590098285882e6 -1.4427381830631629e7 0.0
0.0 0.0 0.0

-1.0161938644684676e7 1.8315273943633188e7 0.0
1.8315273943633188e7 8.965405289579574e6 0.0
0.0 0.0 0.0

-3.236471756998415e6 1.3494725617315928e7 0.0
1.3494725617315928e7 9.629473404042453e6 0.0
0.0 0.0 0.0

-2.6080266397253305e7 1.5864691044765797e7 0.0
1.5864691044765797e7 1.2977127650512874e7 0.0
0.0 0.0 0.0

-5.129849677993484e6 1.2512790930187175e7 0.0
1.2512790930187175e7 8.121593541056414e6 0.0
0.0 0.0 0.0

2.5443788113671523e6 8.185685279963347e6 0.0
8.185685279963347e6 -1.0591603823312726e7 0.0
0.0 0.0 0.0

2.73021075978528e7 1.3728497403060423e7 0.0
1.3728497403060423e7 990555.4909221958 0.0
0.0 0.0 0.0

-5.080410525207903e6 1.3173186403960947e7 0.0
1.3173186403960947e7 1.1576155835541908e7 0.0
0.0 0.0 0.0

-6.175797326988454e6 1.63980694546944e6 0.0
1.63980694546944e6 8.565366639664907e6 0.0
0.0 0.0 0.0

-613405.2516069203 1.2322843643151838e7 0.0
1.2322843643151838e7 1.5523321633646952e6 0.0
0.0 0.0 0.0

609287.6943936571 1.1184094430079345e7 0.0
1.1184094430079345e7 -1.164739124880307e7 0.0
0.0 0.0 0.0

1.3642284774355018e6 1.4876607835971931e7 0.0
1.4876607835971931e7 -5.253152207137876e6 0.0
0.0 0.0 0.0

-6.033992828486921e6 1.306525150877615e7 0.0
1.306525150877615e7 4.929115699153931e6 0.0
0.0 0.0 0.0

-1.1817716514085528e7 -271732.1495873563 0.0
-271732.1495873563 1.7347613615252465e7 0.0
0.0 0.0 0.0

-1.0419604111577522e7 1.8777510384150945e7 0.0
1.8777510384150945e7 8.236110576280069e6 0.0
0.0 0.0 0.0

-4.495437305358075e6 1.4130203936902506e7 0.0
1.4130203936902506e7 2.67323313832979e6 0.0
0.0 0.0 0.0

-5.5650275657335315e6 1.4437266783143677e7 0.0
1.4437266783143677e7 2.900157585375191e6 0.0
0.0 0.0 0.0

-4.710427021471052e6 1.6951351731834788e7 0.0
1.6951351731834788e7 906789.3269600004 0.0
0.0 0.0 0.0

-6.054232117048582e6 1.6016888996854402e7 0.0
1.6016888996854402e7 4.0106165188695667e6 0.0
0.0 0.0 0.0

-338505.50616929255 1.2466632014634777e7 0.0
1.2466632014634777e7 -1.1897549374561275e6 0.0
0.0 0.0 0.0

-3.254361083567868e6 1.3098423019881058e7 0.0
1.3098423019881058e7 6.075093207616935e6 0.0
0.0 0.0 0.0

1.725015813098537e6 1.1146183734388486e7 0.0
1.1146183734388486e7 -2.9511198298457507e6 0.0
0.0 0.0 0.0

-1.384793218647812e6 1.2180616250066081e7 0.0
1.2180616250066081e7 -1.4616666681143353e7 0.0
0.0 0.0 0.0

-392901.3834393281 1.2581549938124577e7 0.0
1.2581549938124577e7 -439243.72729459696 0.0
0.0 0.0 0.0

-4.651944106000947e6 1.272516952689895e7 0.0
1.272516952689895e7 1.3875912349508272e6 0.0
0.0 0.0 0.0

-4.224708866995034e6 8.561257486585438e6 0.0
8.561257486585438e6 1.2337641099333191e7 0.0
0.0 0.0 0.0

-1.4684253110604805e6 1.322765972195135e7 0.0
1.322765972195135e7 -5.193023007249518e6 0.0
0.0 0.0 0.0

873999.1277772528 1.0609884189514505e7 0.0
1.0609884189514505e7 -9.648601750071416e6 0.0
0.0 0.0 0.0

4.1154829463174297e6 6.009987198439644e6 0.0
6.009987198439644e6 -1.121693494919495e7 0.0
0.0 0.0 0.0

-5.197939290591213e6 1.3321523912649358e7 0.0
1.3321523912649358e7 1.102003078339926e7 0.0
0.0 0.0 0.0

-2.5104770691678086e6 1.3207692126282824e7 0.0
1.3207692126282824e7 3.9531851779221958e6 0.0
0.0 0.0 0.0

-9.467897001956932e6 8.532949283491487e6 0.0
8.532949283491487e6 1.2530042129495557e7 0.0
0.0 0.0 0.0

-5.844520694978824e6 1.2710028564180112e7 0.0
1.2710028564180112e7 5.378780482436991e6 0.0
0.0 0.0 0.0

-1.5282809959951113e6 1.3872432741642842e7 0.0
1.3872432741642842e7 -2.2700331210975065e6 0.0
0.0 0.0 0.0

-9.57184607387368e6 9.01152717354254e6 0.0
9.01152717354254e6 1.1097570322567422e7 0.0
0.0 0.0 0.0

-1.1668222821891408e7 8.231359520177087e6 0.0
8.231359520177087e6 1.3280354504095435e7 0.0
0.0 0.0 0.0

-8.68072167009291e6 7.536349287555504e6 0.0
7.536349287555504e6 9.625554315714132e6 0.0
0.0 0.0 0.0

-5.102159333184004e6 85441.51052775275 0.0
85441.51052775275 4.891194656346608e6 0.0
0.0 0.0 0.0

-6.458335733566284e6 1.419582734876425e7 0.0
1.419582734876425e7 6.732085883721735e6 0.0
0.0 0.0 0.0

721783.3170870226 1.1219690674794296e7 0.0
1.1219690674794296e7 -1.4640054336451534e7 0.0
0.0 0.0 0.0

1.3448844288017037e6 1.0858023373086093e7 0.0
1.0858023373086093e7 -1.2119714104958342e7 0.0
0.0 0.0 0.0

-1.7465880728467092e7 1.6500969787148777e7 0.0
1.6500969787148777e7 5.82162953480695e6 0.0
0.0 0.0 0.0

-1.1203908948647765e7 -963827.5433638885 0.0
-963827.5433638885 2.3265589419726893e7 0.0
0.0 0.0 0.0

1.595920307474251e6 1.1068436563640818e7 0.0
1.1068436563640818e7 -1.1396025687125102e7 0.0
0.0 0.0 0.0

-5.870479198274044e6 1.6449187101036964e7 0.0
1.6449187101036964e7 3.1994360871792184e6 0.0
0.0 0.0 0.0

-670571.1841267033 1.2564972452377768e7 0.0
1.2564972452377768e7 3.644475938198693e6 0.0
0.0 0.0 0.0

-1.1887834302732167e6 883647.636072842 0.0
883647.636072842 1.8894374905224377e6 0.0
0.0 0.0 0.0

-482140.4772810419 1.2256966992063364e7 0.0
1.2256966992063364e7 -1.8802355936657004e6 0.0
0.0 0.0 0.0

-2.3599542601339933e6 1.2496599258537352e7 0.0
1.2496599258537352e7 -3.2135778577439534e6 0.0
0.0 0.0 0.0

-3.8433163605504963e6 5.00308346484156e6 0.0
5.00308346484156e6 1.9763816758038732e6 0.0
0.0 0.0 0.0

5.743481592939681e6 4.773714315457261e6 0.0
4.773714315457261e6 -1.6704148590958465e7 0.0
0.0 0.0 0.0

326600.92216566275 7.659851045185717e6 0.0
7.659851045185717e6 -5.296335864556716e6 0.0
0.0 0.0 0.0

-1.0376215152442666e7 -1.656515984891819e6 0.0
-1.656515984891819e6 1.2248963415383467e7 0.0
0.0 0.0 0.0

-1.6124908172200609e6 1.3676388161878133e7 0.0
1.3676388161878133e7 -5.987960998373526e6 0.0
0.0 0.0 0.0

118335.59151223022 1.3343597554078663e7 0.0
1.3343597554078663e7 6.2220419287257735e6 0.0
0.0 0.0 0.0

465250.5507155084 7.456810990532878e6 0.0
7.456810990532878e6 -4.043172202617523e6 0.0
0.0 0.0 0.0

-3.3849034542364543e6 1.2809032421877543e7 0.0
1.2809032421877543e7 9.781169654114319e6 0.0
0.0 0.0 0.0

-9.086172228641827e6 1.948123565781032e7 0.0
1.948123565781032e7 7.567633489777526e6 0.0
0.0 0.0 0.0

-6.663031595980203e6 2.101998790828969e6 0.0
2.101998790828969e6 6.479045786940256e6 0.0
0.0 0.0 0.0

-3.0439041503374255e6 1.3266184102108316e7 0.0
1.3266184102108316e7 6.12652765046408e6 0.0
0.0 0.0 0.0

2.1485743617326715e6 8.3711925067271115e6 0.0
8.3711925067271115e6 -1.0880451674324458e7 0.0
0.0 0.0 0.0

-9.210831260274699e6 1.4071518759834884e7 0.0
1.4071518759834884e7 5.319180119708406e6 0.0
0.0 0.0 0.0

-1.0061869157344365e6 4.101859649842374e6 0.0
4.101859649842374e6 -652640.4512914505 0.0
0.0 0.0 0.0

-3.5626884436010355e6 1.4296019636139648e7 0.0
1.4296019636139648e7 -945529.5977938336 0.0
0.0 0.0 0.0

8.970464743113594e6 1.3829217005972711e7 0.0
1.3829217005972711e7 3.096471159319772e6 0.0
0.0 0.0 0.0

-3.2698850399183156e6 1.3595980978829611e7 0.0
1.3595980978829611e7 -1.8000952328983801e6 0.0
0.0 0.0 0.0

2.3969679588462804e6 8.423850970504357e6 0.0
8.423850970504357e6 -1.0067975717549019e7 0.0
0.0 0.0 0.0

-6.158868802700503e6 1.4631721899470681e7 0.0
1.4631721899470681e7 6.878996603542166e6 0.0
0.0 0.0 0.0

-1.1197955276708204e7 -5.064537534124186e6 0.0
-5.064537534124186e6 2.6997225238238018e7 0.0
0.0 0.0 0.0

-2.6833455681865164e6 1.3077261398502946e7 0.0
1.3077261398502946e7 -2.4179852424862315e6 0.0
0.0 0.0 0.0

-6.845410275797881e6 1.7872940785040855e7 0.0
1.7872940785040855e7 5.914307957615627e6 0.0
0.0 0.0 0.0

1.6619939163900493e6 1.0566887174447302e7 0.0
1.0566887174447302e7 -1.4542775310889214e7 0.0
0.0 0.0 0.0

736787.5264071636 1.2149564234031018e7 0.0
1.2149564234031018e7 -9.45672836370794e6 0.0
0.0 0.0 0.0

886111.4888804271 1.1878359510448325e7 0.0
1.1878359510448325e7 -9.87878127116794e6 0.0
0.0 0.0 0.0

-1.2025257808915593e7 6.045788317097292e6 0.0
6.045788317097292e6 1.6544464325628567e7 0.0
0.0 0.0 0.0

-6.384764474792875e6 1.3331417531544534e7 0.0
1.3331417531544534e7 5.510085336893614e6 0.0
0.0 0.0 0.0

-1.1800365350240424e7 8.048180501062363e6 0.0
8.048180501062363e6 5.439108227770376e7 0.0
0.0 0.0 0.0

8.074144118988147e6 1.0327704530629873e7 0.0
1.0327704530629873e7 -3.0664332312966887e7 0.0
0.0 0.0 0.0

-1.0209323891495802e7 1.6147726966806639e7 0.0
1.6147726966806639e7 3.992335369510724e6 0.0
0.0 0.0 0.0

-3.1367323958552587e6 1.2798797914755732e7 0.0
1.2798797914755732e7 4.4023157554556765e6 0.0
0.0 0.0 0.0

-9.504943202264417e6 1.4268754699648067e7 0.0
1.4268754699648067e7 2.2527437959331237e6 0.0
0.0 0.0 0.0

-603228.6316599115 3.084714068749795e6 0.0
3.084714068749795e6 391450.3934075872 0.0
0.0 0.0 0.0

-8.685996615273703e6 9.99341576701651e6 0.0
9.99341576701651e6 9.643817036630234e6 0.0
0.0 0.0 0.0

-3.8496455959613747e6 1.4553830278449105e7 0.0
1.4553830278449105e7 -594401.2093581839 0.0
0.0 0.0 0.0

-9.413987671891743e6 -823379.6944441113 0.0
-823379.6944441113 1.3746019228713382e7 0.0
0.0 0.0 0.0

9.52373320969076e6 1.3463357513876492e7 0.0
1.3463357513876492e7 3.063296333641469e6 0.0
0.0 0.0 0.0

-3.768911254697557e6 1.3661160497029277e7 0.0
1.3661160497029277e7 7.7576868821678115e6 0.0
0.0 0.0 0.0

-6.957219554175112e6 1.1342330965419522e7 0.0
1.1342330965419522e7 8.165971875608655e6 0.0
0.0 0.0 0.0

-1.945911239310669e7 1.6080431800678326e7 0.0
1.6080431800678326e7 1.3501085551926017e7 0.0
0.0 0.0 0.0

1.5734198205682968e6 1.1393920327289654e7 0.0
1.1393920327289654e7 46827.84541782865 0.0
0.0 0.0 0.0

2.3205140762055386e6 1.0915250755752264e7 0.0
1.0915250755752264e7 -3.6842796933537084e6 0.0
0.0 0.0 0.0

-6.24432038976245e6 1.527063525923269e7 0.0
1.527063525923269e7 6.614565113503756e6 0.0
0.0 0.0 0.0

-2.818715643479682e6 1.3944032982555764e7 0.0
1.3944032982555764e7 -332.1546225331258 0.0
0.0 0.0 0.0

202991.04772303835 9.752259488344342e6 0.0
9.752259488344342e6 -3.675504363467507e6 0.0
0.0 0.0 0.0

2.248186176434914e6 1.1740221755922874e7 0.0
1.1740221755922874e7 -4.900406689502328e6 0.0
0.0 0.0 0.0

-3.430118986862957e6 1.1881854876645595e7 0.0
1.1881854876645595e7 6.697515935868262e6 0.0
0.0 0.0 0.0

-5.524704477968584e6 1.882799190323807e7 0.0
1.882799190323807e7 2.4602758169370657e6 0.0
0.0 0.0 0.0

-6.609096518773267e6 1.4086370907038616e7 0.0
1.4086370907038616e7 6.94549295799874e6 0.0
0.0 0.0 0.0

-9.582790255975343e6 1.9278239717872463e7 0.0
1.9278239717872463e7 7.253541204333193e6 0.0
0.0 0.0 0.0

-555614.6852804534 1.2094829145721903e7 0.0
1.2094829145721903e7 -1.5887999580790248e7 0.0
0.0 0.0 0.0

-2.2738576377764493e6 1.4602945264940044e7 0.0
1.4602945264940044e7 -2.499496318372839e7 0.0
0.0 0.0 0.0

2.314847828705754e6 1.4176698087720735e7 0.0
1.4176698087720735e7 4.289696346837551e7 0.0
0.0 0.0 0.0

301016.365513809 1.349671180755213e7 0.0
1.349671180755213e7 6.2930687215487035e6 0.0
0.0 0.0 0.0

3.6577194370010616e6 8.411192017424732e6 0.0
8.411192017424732e6 -1.630996622739882e7 0.0
0.0 0.0 0.0

-6.4720520237892885e6 1.8655106689919487e7 0.0
1.8655106689919487e7 2.231066277864138e6 0.0
0.0 0.0 0.0

-2.3996064022027105e6 1.3961244486988781e7 0.0
1.3961244486988781e7 -3.5288634766122177e6 0.0
0.0 0.0 0.0

-484659.6437260482 1.2746004339807471e7 0.0
1.2746004339807471e7 -2.89832861387298e6 0.0
0.0 0.0 0.0

-1.0698979756037015e6 1.379959228731323e7 0.0
1.379959228731323e7 -5.795534739067944e6 0.0
0.0 0.0 0.0

-2.1846011839879293e7 1.6726583298516085e7 0.0
1.6726583298516085e7 1.4434320243225463e7 0.0
0.0 0.0 0.0

-7.050129932844588e6 1.764714403819401e7 0.0
1.764714403819401e7 5.53270846986011e6 0.0
0.0 0.0 0.0

-6.559719696570177e6 1.546084332522108e7 0.0
1.546084332522108e7 6.157082065532353e6 0.0
0.0 0.0 0.0

5.694042303026038e6 5.388475113683139e6 0.0
5.388475113683139e6 -1.7750182195019566e7 0.0
0.0 0.0 0.0

1.0221724494533769e6 1.5387800385601165e7 0.0
1.5387800385601165e7 -5.368660578186712e6 0.0
0.0 0.0 0.0

1.506872375718766e6 1.0797685806435352e7 0.0
1.0797685806435352e7 -1.410153631988219e7 0.0
0.0 0.0 0.0

65870.46554872021 1.5763485349314926e7 0.0
1.5763485349314926e7 -4.629707354480799e6 0.0
0.0 0.0 0.0

563380.7469009341 9.240366297609746e6 0.0
9.240366297609746e6 -2.969433472963637e6 0.0
0.0 0.0 0.0

-3.0270900226167627e6 1.370776193529566e7 0.0
1.370776193529566e7 6.613293869503917e6 0.0
0.0 0.0 0.0

-6.685092873080715e6 1.6261479907346353e7 0.0
1.6261479907346353e7 6.282078383070895e6 0.0
0.0 0.0 0.0

-6.549403224542737e6 -3.3230942763109044e6 0.0
-3.3230942763109044e6 9.433565178534e6 0.0
0.0 0.0 0.0

5.67751450573975e6 1.1656459721073622e7 0.0
1.1656459721073622e7 -3.6338075537265944e6 0.0
0.0 0.0 0.0

-3.8254117550551735e7 1.4851455186540924e7 0.0
1.4851455186540924e7 1.187527033220342e7 0.0
0.0 0.0 0.0

-1.2458705455361895e7 6.169401285986324e6 0.0
6.169401285986324e6 1.5000484992596485e7 0.0
0.0 0.0 0.0

-4.334650194717849e6 1.3869208641207762e7 0.0
1.3869208641207762e7 2.6630490962552023e6 0.0
0.0 0.0 0.0

2.227117684200502e6 1.1798548698915476e7 0.0
1.1798548698915476e7 -3.742570637448446e6 0.0
0.0 0.0 0.0

4.7651522125758985e6 5.577083019376695e6 0.0
5.577083019376695e6 -1.2981712933186749e7 0.0
0.0 0.0 0.0

-3.1945290948089664e6 1.303705196323079e7 0.0
1.303705196323079e7 3.4840791043056315e6 0.0
0.0 0.0 0.0

-9.859307827606589e6 -6.3628802435405245e6 0.0
-6.3628802435405245e6 2.1696036774710316e7 0.0
0.0 0.0 0.0

-3.4972266871493924e6 1.6233296844305366e7 0.0
1.6233296844305366e7 -3.082166049878756e7 0.0
0.0 0.0 0.0

3.408480808754191e6 1.8979517301112633e7 0.0
1.8979517301112633e7 5.11166438537879e7 0.0
0.0 0.0 0.0

2.3450092741902964e6 9.835789702112468e6 0.0
9.835789702112468e6 -1.3432383933935177e7 0.0
0.0 0.0 0.0

776134.882075717 4.829345048174058e6 0.0
4.829345048174058e6 -4.730585690539154e6 0.0
0.0 0.0 0.0

-637020.7887778867 1.2998116436976656e7 0.0
1.2998116436976656e7 5.932016378856066e6 0.0
0.0 0.0 0.0

-1.193079120133655e7 -4.280556618653881e6 0.0
-4.280556618653881e6 2.6897875025905397e7 0.0
0.0 0.0 0.0

927686.485193105 6.642269656149118e6 0.0
6.642269656149118e6 -4.931491679293401e6 0.0
0.0 0.0 0.0

-5.160511332832396e6 1.8552536103966046e7 0.0
1.8552536103966046e7 189847.63549288292 0.0
0.0 0.0 0.0

-1.1518989170678542e6 1.2237206046281943e7 0.0
1.2237206046281943e7 -6.480268654606541e6 0.0
0.0 0.0 0.0

-327958.6984100265 1.3028420388416115e7 0.0
1.3028420388416115e7 4.750817643791366e6 0.0
0.0 0.0 0.0

-2.509857593711524e6 1.4114160205406733e7 0.0
1.4114160205406733e7 226627.28980703547 0.0
0.0 0.0 0.0

-1.0850430418026397e7 1.3893212570902517e7 0.0
1.3893212570902517e7 1.7404384266962279e6 0.0
0.0 0.0 0.0

-6.939232842519747e6 1.739774099520816e7 0.0
1.739774099520816e7 5.717840878416905e6 0.0
0.0 0.0 0.0

-913028.8521184163 1.2606130510632291e7 0.0
1.2606130510632291e7 2.5201427806177596e6 0.0
0.0 0.0 0.0

-3.1636114416092318e6 1.2955157237367615e7 0.0
1.2955157237367615e7 5.184324542980107e6 0.0
0.0 0.0 0.0

853239.6881717183 1.0957388921884155e7 0.0
1.0957388921884155e7 -9.361873983799474e6 0.0
0.0 0.0 0.0

-1.1916667211743542e6 1.3593512013375152e7 0.0
1.3593512013375152e7 -6.453063986855888e6 0.0
0.0 0.0 0.0

-1.2212560707058948e7 -2.9040301578960996e6 0.0
-2.9040301578960996e6 2.5302302432937507e7 0.0
0.0 0.0 0.0

-2.0806102108391006e7 1.8519468096329954e7 0.0
1.8519468096329954e7 1.2781631501525026e7 0.0
0.0 0.0 0.0

-1.2002505757673662e7 1.6453989891805017e7 0.0
1.6453989891805017e7 9.325651805214068e6 0.0
0.0 0.0 0.0

-1.8165743108335305e7 1.288446935289549e7 0.0
1.288446935289549e7 9.844099673879279e6 0.0
0.0 0.0 0.0

-472182.5658886775 1.2730600770515526e7 0.0
1.2730600770515526e7 54437.652171081776 0.0
0.0 0.0 0.0

-3.3004888394556013e6 1.4145726486413024e7 0.0
1.4145726486413024e7 258420.47342451639 0.0
0.0 0.0 0.0

-1.1617567161553381e7 1.4635146985263925e7 0.0
1.4635146985263925e7 7.091242833965132e6 0.0
0.0 0.0 0.0

1.3381529690148924e6 6.296078827918537e6 0.0
6.296078827918537e6 -4.961067707731958e6 0.0
0.0 0.0 0.0

-1.177202154312259e6 1.3458014323112253e7 0.0
1.3458014323112253e7 5.338002312398201e6 0.0
0.0 0.0 0.0

4.34273799091117e6 7.956564013234155e6 0.0
7.956564013234155e6 -1.5826701580679234e7 0.0
0.0 0.0 0.0

-1.1478375141303767e7 6.97029746851387e6 0.0
6.97029746851387e6 1.5983019938087238e7 0.0
0.0 0.0 0.0

-1.0945979763952015e7 -4.838784334729307e6 0.0
-4.838784334729307e6 2.7949699984237578e7 0.0
0.0 0.0 0.0

5.84937962413561e6 5.454798424237104e6 0.0
5.454798424237104e6 -1.770937656556712e7 0.0
0.0 0.0 0.0

-2.0729891625932258e7 1.4408533727388348e7 0.0
1.4408533727388348e7 9.002373235812783e6 0.0
0.0 0.0 0.0

-9.62150461048204e6 -6.967938779253003e6 0.0
-6.967938779253003e6 1.8598160736371808e7 0.0
0.0 0.0 0.0

-7.869180053020337e6 -6.557652345252386e6 0.0
-6.557652345252386e6 1.3067555517274272e7 0.0
0.0 0.0 0.0

1.0077990406762527e6 6.0831635230494775e6 0.0
6.0831635230494775e6 -5.8183618069438e6 0.0
0.0 0.0 0.0

-8.038696102515802e6 -3.506743145034634e6 0.0
-3.506743145034634e6 1.3727894779313229e7 0.0
0.0 0.0 0.0

-8.301384759180954e6 2.3559367630974595e7 0.0
2.3559367630974595e7 -1.9213752964118272e6 0.0
0.0 0.0 0.0

-6.893546748024229e6 1.206958318432612e7 0.0
1.206958318432612e7 8.062676583784944e6 0.0
0.0 0.0 0.0

5.794766966882824e6 6.088606908611938e6 0.0
6.088606908611938e6 -2.0859195850769732e7 0.0
0.0 0.0 0.0

4.776171088325242e6 5.730820476797145e6 0.0
5.730820476797145e6 -1.4808426073342072e7 0.0
0.0 0.0 0.0

-6.388643395057987e6 1.3126539804190185e7 0.0
1.3126539804190185e7 4.969865295583231e6 0.0
0.0 0.0 0.0

-9.501315517360514e6 1.8754856238876373e7 0.0
1.8754856238876373e7 8.011404308230124e6 0.0
0.0 0.0 0.0

476364.8081106132 8.021957198770349e6 0.0
8.021957198770349e6 2.9325922385320365e6 0.0
0.0 0.0 0.0

-1.7751992215296677e6 1.349193452983702e7 0.0
1.349193452983702e7 9.444877029689549e6 0.0
0.0 0.0 0.0

938953.2942561561 1.501768687941117e7 0.0
1.501768687941117e7 -5.403433863774765e6 0.0
0.0 0.0 0.0

-9.645057060472785e6 -6.919942205414379e6 0.0
-6.919942205414379e6 1.8401918347486734e7 0.0
0.0 0.0 0.0

-1.3839665732371382e7 9.85686288517443e6 0.0
9.85686288517443e6 7.936595789844217e6 0.0
0.0 0.0 0.0

-6.828502610163109e6 1.7088401668140694e7 0.0
1.7088401668140694e7 5.411829167048305e6 0.0
0.0 0.0 0.0

-5.506042842173027e6 1.3621690956306845e7 0.0
1.3621690956306845e7 1.9425057122563954e7 0.0
0.0 0.0 0.0

1.2839794645548663e6 1.5165958695052775e7 0.0
1.5165958695052775e7 -4.972012380383862e6 0.0
0.0 0.0 0.0

-1.300360379619268e6 1.4007248959968468e7 0.0
1.4007248959968468e7 -1.9027318625590112e6 0.0
0.0 0.0 0.0

-5.89835040279207e6 1.3364444823713403e7 0.0
1.3364444823713403e7 7.574859471416746e6 0.0
0.0 0.0 0.0

-1.3915504929588856e6 1.3461318526093807e7 0.0
1.3461318526093807e7 -2.7553175931867007e6 0.0
0.0 0.0 0.0

-3.710577072204565e7 2.0037215887325436e7 0.0
2.0037215887325436e7 5.70422095872239e6 0.0
0.0 0.0 0.0

-7.590235735435542e6 1.1725019348711558e7 0.0
1.1725019348711558e7 7.512463019803653e6 0.0
0.0 0.0 0.0

-1.2788668223367482e6 1.3985721487822631e7 0.0
1.3985721487822631e7 -2.0321265569585674e6 0.0
0.0 0.0 0.0

-5.316085912014502e6 1.3815269793651849e7 0.0
1.3815269793651849e7 7.155224029814756e6 0.0
0.0 0.0 0.0

275575.19975014124 1.4731193222266443e7 0.0
1.4731193222266443e7 -5.05692585628693e6 0.0
0.0 0.0 0.0

4.537655737195836e6 5.620764548960583e6 0.0
5.620764548960583e6 -1.2714793664631266e7 0.0
0.0 0.0 0.0

-1.222338797067273e6 1.4411190625052098e7 0.0
1.4411190625052098e7 -5.3278626037486205e6 0.0
0.0 0.0 0.0

-2.1802598070294484e7 1.7894739375336867e7 0.0
1.7894739375336867e7 1.1684456670836415e7 0.0
0.0 0.0 0.0

-7.271222050955383e6 1.6731661068449777e7 0.0
1.6731661068449777e7 6.8626623606127035e6 0.0
0.0 0.0 0.0

-4.792338456270937e6 -172285.63470466342 0.0
-172285.63470466342 5.777463019065019e6 0.0
0.0 0.0 0.0

-474999.56619949127 1.2560011075190378e7 0.0
1.2560011075190378e7 -8.109372867597669e6 0.0
0.0 0.0 0.0

4.6378033471941035e6 1.1970685976007937e7 0.0
1.1970685976007937e7 -3.141670729018827e6 0.0
0.0 0.0 0.0

-3.3532652213560954e7 1.5593628136337591e7 0.0
1.5593628136337591e7 1.114351886836223e7 0.0
0.0 0.0 0.0

-333536.76744981844 1.208672430715668e7 0.0
1.208672430715668e7 2.7212152780230762e6 0.0
0.0 0.0 0.0

4.090856677603404e6 7.979431895304581e6 0.0
7.979431895304581e6 -1.6663058011587862e7 0.0
0.0 0.0 0.0

527903.1598953786 1.0896817643316925e7 0.0
1.0896817643316925e7 -9.22826494960408e6 0.0
0.0 0.0 0.0

-2.882107566874807e6 1.324802404580727e7 0.0
1.324802404580727e7 4.1623604069051594e6 0.0
0.0 0.0 0.0

-1.0360546205676846e7 1.8728079124192014e7 0.0
1.8728079124192014e7 8.176001868593871e6 0.0
0.0 0.0 0.0

-4.112319559402904e6 1.523405753612302e7 0.0
1.523405753612302e7 60561.869777311105 0.0
0.0 0.0 0.0

5.083808015046281e6 5.323481345590843e6 0.0
5.323481345590843e6 -1.449347826470355e7 0.0
0.0 0.0 0.0

-2.3901943375910884e6 1.3777752393445374e7 0.0
1.3777752393445374e7 1.281960929310661e7 0.0
0.0 0.0 0.0

-288657.12564293435 8.879972112731112e6 0.0
8.879972112731112e6 -3.1481101777832983e6 0.0
0.0 0.0 0.0

-2.5305497937189136e7 1.6622391569988564e7 0.0
1.6622391569988564e7 1.1823741763713e7 0.0
0.0 0.0 0.0

-9.005561822804075e6 -3.1068431609002557e6 0.0
-3.1068431609002557e6 1.134662656502776e7 0.0
0.0 0.0 0.0

-8.440165392012732e6 -2.971034803536238e6 0.0
-2.971034803536238e6 1.3445275034432516e7 0.0
0.0 0.0 0.0

4.379072303938799e6 1.1353345137470523e7 0.0
1.1353345137470523e7 -563177.1022530356 0.0
0.0 0.0 0.0

-9.12279809232603e6 -6.692396375555158e6 0.0
-6.692396375555158e6 1.9026606475949436e7 0.0
0.0 0.0 0.0

-202185.94199695892 1.2162736024265429e7 0.0
1.2162736024265429e7 2.718487805011923e6 0.0
0.0 0.0 0.0

791359.1115343417 1.3610226538077997e7 0.0
1.3610226538077997e7 6.539426308847192e6 0.0
0.0 0.0 0.0

-6.694460826128942e6 1.8377983266763657e7 0.0
1.8377983266763657e7 3.8205089463343755e6 0.0
0.0 0.0 0.0

-1.301750738333549e7 725041.4975606273 0.0
725041.4975606273 2.855207291005329e7 0.0
0.0 0.0 0.0

1.3033938397321235e6 1.0880365238583764e7 0.0
1.0880365238583764e7 -1.3971346282120217e7 0.0
0.0 0.0 0.0

781243.2614774373 6.5008020127775995e6 0.0
6.5008020127775995e6 -5.281880596039216e6 0.0
0.0 0.0 0.0

-2.718860511219811e6 1.3045652454881245e7 0.0
1.3045652454881245e7 3.220029690064933e6 0.0
0.0 0.0 0.0

-1.4431615629629777e6 1.410922771333176e7 0.0
1.410922771333176e7 7.541748365328865e6 0.0
0.0 0.0 0.0

-1.0775407368686788e7 -4.88002449252924e6 0.0
-4.88002449252924e6 1.7612299012440927e7 0.0
0.0 0.0 0.0

-8.02526858272291e6 3.9882469377607456e6 0.0
3.9882469377607456e6 7.370444171675516e6 0.0
0.0 0.0 0.0

-4.306159164443772e6 1.2434739442688305e7 0.0
1.2434739442688305e7 1.5046927733407586e6 0.0
0.0 0.0 0.0

-3.3905067845877395e6 5.845956259630819e6 0.0
5.845956259630819e6 1.0063311109983755e7 0.0
0.0 0.0 0.0

2.117816483719425e6 1.1416198208303472e7 0.0
1.1416198208303472e7 -4.231518519777266e6 0.0
0.0 0.0 0.0

-8.669333493891329e6 -3.7868979478165437e6 0.0
-3.7868979478165437e6 1.1644050271378603e7 0.0
0.0 0.0 0.0

-1.2399091510468705e7 764317.5306476619 0.0
764317.5306476619 3.1129245301516593e7 0.0
0.0 0.0 0.0

2.0112498787773808e6 1.1594739886168662e7 0.0
1.1594739886168662e7 -3.921798060165434e6 0.0
0.0 0.0 0.0

-871763.0338248187 1.2482162924714142e7 0.0
1.2482162924714142e7 -6.17939661866276e6 0.0
0.0 0.0 0.0

-1.2354033499365544e7 747496.724717375 0.0
747496.724717375 3.1051347573039576e7 0.0
0.0 0.0 0.0

1.2386827129929771e6 1.4455333647479659e7 0.0
1.4455333647479659e7 -5.391502988039507e6 0.0
0.0 0.0 0.0

-1.4593283429416337e6 1.304915704138906e7 0.0
1.304915704138906e7 4.789338186425791e6 0.0
0.0 0.0 0.0

-3.136461522278665e6 7.600300604873492e6 0.0
7.600300604873492e6 1.5191032561156366e6 0.0
0.0 0.0 0.0

-4.531846464323953e6 1.821193948429206e6 0.0
1.821193948429206e6 6.014714932434825e6 0.0
0.0 0.0 0.0

-4.993102163180706e6 1.2742604252144478e6 0.0
1.2742604252144478e6 2.0523003977767453e6 0.0
0.0 0.0 0.0

