# vtk DataFile Version 2.0
phase field modeling fracture
ASCII
DATASET UNSTRUCTURED_GRID
POINTS 2538 float
0.0 0.0 0.0
10.0 0.0 0.0
0.0 10.0 0.0
10.0 10.0 0.0
0.0 4.9995 0.0
0.0 5.0005 0.0
5.0 5.0 0.0
0.9416964895726688 0.0 0.0
1.803581725054446 0.0 0.0
2.592419885431098 0.0 0.0
3.314401822861676 0.0 0.0
3.975193910351406 0.0 0.0
4.579982132660152 0.0 0.0
5.133512780936812 0.0 0.0
5.640130319506143 0.0 0.0
6.103810708661955 0.0 0.0
6.528192895506818 0.0 0.0
6.916607540127679 0.0 0.0
7.272102969376355 0.0 0.0
7.597469242948583 0.0 0.0
7.895259826292669 0.0 0.0
8.167811885738017 0.0 0.0
8.417264413845215 0.0 0.0
8.645575169389538 0.0 0.0
8.854535961159101 0.0 0.0
9.045786767735546 0.0 0.0
9.220828555767493 0.0 0.0
9.38103509633881 0.0 0.0
9.527663687265145 0.0 0.0
9.661865124984566 0.0 0.0
9.784692609918062 0.0 0.0
9.897110148790482 0.0 0.0
10.0 0.09999999999992584 0.0
10.0 0.199999999999856 0.0
10.0 0.2999999999997771 0.0
10.0 0.3999999999996677 0.0
10.0 0.4999999999995511 0.0
10.0 0.5999999999994683 0.0
10.0 0.6999999999993983 0.0
10.0 0.7999999999993286 0.0
10.0 0.8999999999992587 0.0
10.0 0.9999999999991888 0.0
10.0 1.099999999999119 0.0
10.0 1.199999999999033 0.0
10.0 1.299999999998852 0.0
10.0 1.399999999998576 0.0
10.0 1.499999999998284 0.0
10.0 1.599999999997992 0.0
10.0 1.6999999999977 0.0
10.0 1.799999999997408 0.0
10.0 1.899999999997116 0.0
10.0 1.999999999996825 0.0
10.0 2.099999999996533 0.0
10.0 2.199999999996241 0.0
10.0 2.299999999995949 0.0
10.0 2.399999999995657 0.0
10.0 2.499999999995365 0.0
10.0 2.599999999995073 0.0
10.0 2.699999999994782 0.0
10.0 2.79999999999449 0.0
10.0 2.899999999994198 0.0
10.0 2.999999999993906 0.0
10.0 3.099999999993614 0.0
10.0 3.199999999993322 0.0
10.0 3.299999999993029 0.0
10.0 3.399999999992738 0.0
10.0 3.499999999992446 0.0
10.0 3.599999999992154 0.0
10.0 3.699999999991863 0.0
10.0 3.799999999991571 0.0
10.0 3.899999999991278 0.0
10.0 3.999999999991022 0.0
10.0 4.099999999991035 0.0
10.0 4.199999999991187 0.0
10.0 4.299999999991338 0.0
10.0 4.399999999991491 0.0
10.0 4.499999999991642 0.0
10.0 4.599999999991795 0.0
10.0 4.699999999991947 0.0
10.0 4.799999999992099 0.0
10.0 4.89999999999225 0.0
10.0 4.999999999992403 0.0
10.0 5.099999999992555 0.0
10.0 5.199999999992706 0.0
10.0 5.299999999992858 0.0
10.0 5.39999999999301 0.0
10.0 5.499999999993161 0.0
10.0 5.599999999993313 0.0
10.0 5.699999999993466 0.0
10.0 5.799999999993618 0.0
10.0 5.899999999993771 0.0
10.0 5.999999999993922 0.0
10.0 6.099999999994074 0.0
10.0 6.199999999994227 0.0
10.0 6.299999999994378 0.0
10.0 6.39999999999453 0.0
10.0 6.499999999994682 0.0
10.0 6.599999999994833 0.0
10.0 6.699999999994986 0.0
10.0 6.799999999995138 0.0
10.0 6.899999999995289 0.0
10.0 6.999999999995442 0.0
10.0 7.099999999995594 0.0
10.0 7.199999999995747 0.0
10.0 7.299999999995897 0.0
10.0 7.39999999999605 0.0
10.0 7.499999999996202 0.0
10.0 7.599999999996353 0.0
10.0 7.699999999996505 0.0
10.0 7.799999999996658 0.0
10.0 7.899999999996808 0.0
10.0 7.999999999996962 0.0
10.0 8.099999999997113 0.0
10.0 8.199999999997265 0.0
10.0 8.299999999997418 0.0
10.0 8.399999999997569 0.0
10.0 8.499999999997721 0.0
10.0 8.599999999997873 0.0
10.0 8.699999999998024 0.0
10.0 8.799999999998176 0.0
10.0 8.899999999998329 0.0
10.0 8.99999999999848 0.0
10.0 9.099999999998634 0.0
10.0 9.199999999998786 0.0
10.0 9.299999999998937 0.0
10.0 9.399999999999089 0.0
10.0 9.499999999999241 0.0
10.0 9.599999999999392 0.0
10.0 9.699999999999545 0.0
10.0 9.799999999999697 0.0
10.0 9.899999999999848 0.0
9.897110148790565 10.0 0.0
9.784692609918244 10.0 0.0
9.66186512498486 10.0 0.0
9.527663687265571 10.0 0.0
9.381035096339392 10.0 0.0
9.220828555768257 10.0 0.0
9.045786767736512 10.0 0.0
8.854535961160305 10.0 0.0
8.645575169391027 10.0 0.0
8.417264413847017 10.0 0.0
8.167811885740178 10.0 0.0
7.895259826295246 10.0 0.0
7.597469242951631 10.0 0.0
7.272102969379938 10.0 0.0
6.916607540131873 10.0 0.0
6.528192895511704 10.0 0.0
6.103810708667616 10.0 0.0
5.640130319512691 10.0 0.0
5.13351278094435 10.0 0.0
4.579982132668816 10.0 0.0
3.975193910361222 10.0 0.0
3.314401822869852 10.0 0.0
2.592419885437257 10.0 0.0
1.803581725058137 10.0 0.0
0.9416964895740705 10.0 0.0
0.0 9.00010000000243 0.0
0.0 8.000200000005481 0.0
0.0 7.000300000005135 0.0
0.0 6.000400000002569 0.0
0.901790731451151 5.000409820926855 0.0
1.657200899774397 5.000334279910023 0.0
2.289991063707192 5.000271000893629 0.0
2.820065163538221 5.000217993483646 0.0
3.264096435579811 5.000173590356442 0.0
3.636051481595835 5.00013639485184 0.0
3.947629914072366 5.000105237008593 0.0
4.208632181002628 5.0000791367819 0.0
4.427267949625672 5.000057273205037 0.0
4.610414277633563 5.000038958572237 0.0
4.763831845154243 5.000023616815485 0.0
4.892346298799659 5.00001076537012 0.0
4.892346298799748 4.99998923462988 0.0
4.763831845154455 4.999976383184515 0.0
4.610414277633943 4.999961041427763 0.0
4.427267949626277 4.999942726794963 0.0
4.208632181003523 4.9999208632181 0.0
3.94762991407365 4.999894762991407 0.0
3.636051481597624 4.99986360514816 0.0
3.264096435582253 4.999826409643559 0.0
2.820065163541503 4.999782006516354 0.0
2.289991063711534 4.999728999106371 0.0
1.657200899778495 4.999665720089978 0.0
0.9017907314530094 4.999590179073145 0.0
0.0 3.999600000002013 0.0
0.0 2.999700000005187 0.0
0.0 1.99980000000512 0.0
0.0 0.9999000000025537 0.0
9.897889398521345 2.93573355845387 0.0
9.906568249974548 7.060009441434234 0.0
9.913122631074113 3.64016132281653 0.0
9.922462129543863 6.354535290629151 0.0
9.917693659967533 4.354211663134567 0.0
9.909873057440208 5.637584487339942 0.0
9.914183254994697 4.950672966925282 0.0
9.913885043715895 7.666887930262611 0.0
9.91009668007573 2.351889069770817 0.0
9.905135696074536 8.138152454502785 0.0
9.913397459621809 1.849999999997262 0.0
7.099302372137626 0.297750452375005 0.0
7.095143729410097 9.700359990366296 0.0
4.942912558701401 5.095838627899509 0.0
4.315009232304429 5.165022115481685 0.0
4.946182472483878 4.906763777264103 0.0
4.317967462990024 4.825955043772673 0.0
9.916390871492647 8.64999999999792 0.0
9.921504649680616 1.368376469890358 0.0
8.292538149791614 0.206877570318844 0.0
8.292538149793597 9.793122429681448 0.0
5.884594439766573 9.587645267048616 0.0
5.794826292691579 0.3794853783929359 0.0
9.913397459621425 9.049999999998557 0.0
9.908526577714177 0.9568239351922434 0.0
3.456851160380649 5.315740054130451 0.0
3.457889657868442 4.707121019609468 0.0
8.945214200703926 0.1503383337970344 0.0
8.950161364448409 9.8413906539257 0.0
9.913862335499305 4.055887885208452 0.0
9.916697353372683 4.650158482607802 0.0
9.919076340414442 6.049999999994006 0.0
9.906994308667635 5.25749687748192 0.0
9.917490342358025 6.655979201891897 0.0
9.915757520293784 7.343848891656911 0.0
9.910049507471042 3.363474386285078 0.0
9.914471988502868 2.647400064832979 0.0
9.91474124160965 9.337490423485129 0.0
9.916971008170838 0.6499999999994355 0.0
4.307157269264427 9.509674045029644 0.0
4.331527375865619 0.4401616696422582 0.0
9.45434939180249 9.878397030523757 0.0
9.457696120412969 0.1270877537061785 0.0
2.555070293622606 5.422044496190925 0.0
2.566232917480916 4.608001224030952 0.0
3.026511860837692 9.332320638257093 0.0
2.945561971800619 0.5895662714727601 0.0
7.7395404387124 0.2511088946967771 0.0
7.736379255744154 9.745848826372828 0.0
4.687135269408529 5.122111433928926 0.0
4.688420821504113 4.871895064967488 0.0
9.910554884115975 0.3448356354522978 0.0
9.911230082250466 9.65764729394159 0.0
9.921953841410854 6.851023993342036 0.0
9.912065178606017 5.448170483544033 0.0
9.911660025326261 3.861846960030188 0.0
9.914847467973438 3.14501593945607 0.0
9.913397459621425 5.849999999993703 0.0
9.913397459621425 7.849999999996735 0.0
9.906916878988277 2.15455769998631 0.0
9.913397459621425 8.349999999997479 0.0
9.909472363117661 1.640528221515488 0.0
9.913987325695956 1.152857110636247 0.0
9.913397459621425 8.849999999998241 0.0
0.9100099990995943 2.614215977520411 0.0
0.8395284981715456 7.451196254860987 0.0
9.723278867451556 9.898135916635193 0.0
9.723316350887044 0.09841820909386662 0.0
1.385819164827588 4.454539963646463 0.0
1.338343629665047 5.523111536005823 0.0
1.377179700550677 0.6809168304959698 0.0
1.418060461092743 9.285896715136046 0.0
9.91268220142518 0.1457914080939694 0.0
9.906737126737994 9.845745933882352 0.0
0.7108351382691361 6.537941170074089 0.0
1.527735020267026 6.915620208855231 0.0
1.630993885659103 7.838271825205868 0.0
2.232760943566823 7.370850737296832 0.0
2.243414218068206 6.688299277952821 0.0
2.779655053105118 7.021588754814074 0.0
2.80227799359795 7.632420170547022 0.0
3.282022065908813 7.305859666021318 0.0
3.327597298795347 7.857554136825748 0.0
3.743210251018715 7.549183328204379 0.0
3.716353232200752 7.062036086888612 0.0
4.111978858674101 7.27497101169417 0.0
4.104192177581432 6.879858986267289 0.0
4.436230765617037 7.045693351607117 0.0
4.430360014817357 6.703971783962796 0.0
4.732390145036301 6.849841042423394 0.0
5.056161327708878 5.095276573498806 0.0
5.111586796021131 4.999081142133581 0.0
5.169267363407189 5.09444870412406 0.0
5.223795108752053 4.996986220359468 0.0
5.281480803887719 5.092780870372803 0.0
5.335670761900611 4.994887492556936 0.0
5.393485214772442 5.090486192743301 0.0
5.447323082877892 4.992601527033996 0.0
5.505243219343024 5.087953380710069 0.0
5.558739102026105 4.990287787962959 0.0
5.616491581184779 5.085335255235766 0.0
5.669852346908056 4.9879269227514 0.0
5.727502713908907 5.082679981817038 0.0
5.780766004135139 4.988313988715834 0.0
5.838244881129535 5.080480568766611 0.0
5.891357695677371 4.986433849408193 0.0
5.948696036767613 5.077969900389505 0.0
6.001601341641615 4.981313698556656 0.0
6.058851024265095 5.074871552128682 0.0
6.111614020704875 4.978360695880202 0.0
6.168801161530775 5.072044953270978 0.0
6.221368818778567 4.975825765213497 0.0
6.278268309066882 5.066182320461055 0.0
6.330814273567539 4.972837984645718 0.0
6.387565032421376 5.062889771971895 0.0
6.437476667631405 4.971693683589553 0.0
6.496181111585419 5.060210690175857 0.0
6.539454812256072 4.964658165361536 0.0
6.604198202576491 5.056387520850258 0.0
6.648506025747331 4.939374587506267 0.0
6.714026758992516 5.05873885840664 0.0
6.764418045981209 4.959246676066148 0.0
6.8219334571197 5.055299567406268 0.0
6.873708540948134 4.960426349093742 0.0
6.930181428849307 5.053461390218819 0.0
6.981893615341967 4.96435459462232 0.0
7.037791764774784 5.051219747103022 0.0
7.090993561518408 4.96392420322464 0.0
5.504417457283294 4.900897920552702 0.0
7.145434864123609 5.048960634292441 0.0
6.054532384032612 4.883956083938546 0.0
6.738027949040956 4.850032323068674 0.0
7.198432914526514 4.956325226333323 0.0
7.252637187936749 5.046012229327236 0.0
7.30926729605109 4.948903216650376 0.0
7.248106275544042 4.860306312845646 0.0
7.363100274863074 4.849952416808486 0.0
7.365733472701664 5.039519554615095 0.0
7.308483293090149 5.137557220352172 0.0
6.768399513646964 5.145609705119954 0.0
7.422800035311104 5.132251445551834 0.0
7.358273518796229 5.235980394389298 0.0
7.480824155801127 5.227946127939927 0.0
7.302193400058628 4.761917474298247 0.0
7.413570879789824 4.754555110721153 0.0
7.414392998903179 5.334729114426734 0.0
7.352769630272076 4.660405502266205 0.0
7.467556835255426 4.658352623795039 0.0
7.536246869015014 5.328986926716081 0.0
7.478865844607288 5.432598185493195 0.0
7.406396991826072 4.556956233957538 0.0
7.523581002009154 4.552005631348623 0.0
7.597792398573263 5.429506106314967 0.0
7.540511043402902 5.53619421580439 0.0
7.46214474876342 4.452580994318881 0.0
7.5852185078634 4.446021810672608 0.0
7.663329342323453 5.533453399066901 0.0
7.603478967594521 5.643227430483237 0.0
7.513450346818673 4.347641323140766 0.0
7.640744971722214 4.333388343316237 0.0
7.727671715775243 5.642390483050116 0.0
7.667774597993788 5.753188858425915 0.0
7.570065256728661 4.230515669344811 0.0
7.702881065467917 4.218307808529532 0.0
7.638288257073729 4.107994211855027 0.0
7.493362356301017 4.120843902105771 0.0
7.779018500630071 5.521233457321821 0.0
7.794641287388929 5.752364621610818 0.0
7.73369774483611 5.865894287356292 0.0
7.600834531784728 5.867752110500446 0.0
6.233038857278689 5.15645045634683 0.0
7.669727996028819 5.985665563643058 0.0
7.528582452554481 5.987393423295551 0.0
7.598722674572824 6.11001923494443 0.0
7.778305000222867 4.104318908265786 0.0
7.704329019832056 3.987744174608892 0.0
7.838453459801382 4.213322728668484 0.0
7.864495721576461 5.862306066517277 0.0
7.846552353360407 3.98481756181946 0.0
7.769730409703277 3.86544808681145 0.0
5.785249360396857 5.177248808588045 0.0
7.908837087876153 3.861484036275285 0.0
7.834824606222196 3.740586825753288 0.0
7.97685993406276 3.736209527152902 0.0
7.89665098770825 3.615501862931453 0.0
7.753228010315262 3.617800245018972 0.0
7.826063013090472 3.483173292579822 0.0
7.66789744383048 3.48859328808356 0.0
8.042515855796823 3.595394268381807 0.0
7.75200750488492 3.341279823834038 0.0
7.582870318332553 3.346584916806707 0.0
8.120807847415062 3.732493963388337 0.0
8.189783970303546 3.61159165475499 0.0
7.657801000286734 3.200439907646711 0.0
7.486781956172036 3.201402473247712 0.0
7.452595103886905 6.11418616185016 0.0
7.527098033550077 6.243191052852112 0.0
8.260502906807751 3.728437634721859 0.0
8.327629317451398 3.608173631356984 0.0
7.372763970891452 6.247552889754036 0.0
7.456170570815929 6.384992468962936 0.0
7.621837793616884 6.376077080857113 0.0
7.548039512904141 6.520750676893614 0.0
7.717475944451644 6.514856553988943 0.0
7.636658166268699 6.661648164052906 0.0
7.807468267259438 6.664076174524672 0.0
7.718022764310774 6.817938967122142 0.0
7.887785766941087 6.807440365887151 0.0
7.545993589083432 6.815070675854734 0.0
7.809874785067209 6.967537287475282 0.0
7.975643812145337 6.948729406725126 0.0
8.396477808021062 3.725446935061211 0.0
7.565651643157136 3.044354774611752 0.0
7.384328725505071 3.043048915147076 0.0
8.056405351948353 6.802790889114673 0.0
8.14128318237188 6.940027831915737 0.0
8.064621760266059 7.086348792208953 0.0
8.225003598857908 6.805225152373254 0.0
8.463085452993242 3.606998510553562 0.0
8.230426869720718 7.079551841000411 0.0
8.155262284174286 7.224761758176069 0.0
8.530696760758996 3.721683301125054 0.0
8.596669886994064 3.604516769862316 0.0
8.528531058025589 3.490411531312337 0.0
8.320451770844851 7.218191678954744 0.0
8.245273958732774 7.363444652121271 0.0
8.66324687389452 3.717094013035765 0.0
8.600103125209296 3.831913857228569 0.0
8.662131102573216 3.488322280861316 0.0
8.594166125380536 3.374071873435548 0.0
8.411074336066186 7.353871649576861 0.0
8.339644223432472 7.505172120620427 0.0
8.165883718619623 7.513159193685373 0.0
8.483453820080417 7.2082285366806 0.0
8.261200365730348 7.657400951288149 0.0
8.081570576666843 7.670933304838066 0.0
7.471613195794025 2.872548423100142 0.0
7.268733678357991 2.881209199257603 0.0
7.184255506995786 3.084448584600423 0.0
7.065899603697895 2.883902449336828 0.0
6.960163891183182 3.081014635802978 0.0
6.847612128388715 2.885646860602812 0.0
6.739800729737967 3.078895733381448 0.0
8.729373804596847 3.827689165637365 0.0
8.668550856907444 3.938702277545298 0.0
8.72770789162863 3.371798381178293 0.0
8.659764090070603 3.257493349874974 0.0
8.436453928793245 7.648724489148887 0.0
6.619080287792762 2.90880017416788 0.0
6.511740956842646 3.09340654756684 0.0
8.793527829963288 3.935174834810256 0.0
8.736430500996828 4.042719556852617 0.0
7.631260330584174 4.565300771328012 0.0
8.359058396840432 7.801678182761817 0.0
5.339436215072359 5.184870243702279 0.0
4.994031736761993 5.193306795607908 0.0
6.383387675268097 4.87760645722207 0.0
7.29117392392962 6.382172868329505 0.0
6.378196825372041 2.907113079755629 0.0
6.269817199014261 3.12412150658573 0.0
8.793149127377946 3.255386294257182 0.0
8.725774239201558 3.141596687892195 0.0
8.857434600673502 4.041295940541356 0.0
8.802868937128341 4.1471119953668 0.0
8.532045262478793 7.7905977476835 0.0
7.364542641624493 2.699128473342751 0.0
7.571677611088925 2.695732556686516 0.0
6.723058333614999 2.672341359410618 0.0
8.456744924757372 7.94483904450548 0.0
6.140831279784704 2.921247401137864 0.0
6.02419219050745 3.14358702955763 0.0
8.916255604212301 3.934279868822481 0.0
8.859287250884009 3.140226640574265 0.0
8.791092798057303 3.025929352146465 0.0
7.210445465986021 6.245773134960393 0.0
7.120884161792869 6.385155584680196 0.0
7.036931702064287 6.240721609143972 0.0
6.943722280007011 6.3869279517155 0.0
8.920094519678617 4.144837222494242 0.0
8.864374107136287 4.250930406527029 0.0
7.347569838739255 4.463467417508182 0.0
5.90383431757064 2.935113219563906 0.0
5.783476009580765 3.156456199832474 0.0
8.626013191558314 7.935092223505354 0.0
8.687240186957197 7.796697889991163 0.0
5.642059327424706 2.903018174330269 0.0
5.52647853955939 3.162549070310043 0.0
8.555300051897738 8.086169516016518 0.0
8.405624441178524 8.083972416481254 0.0
5.374124307190728 2.945480555950917 0.0
8.935805220807357 3.249260758206028 0.0
8.981625171409894 4.247375537584228 0.0
8.924725364486765 4.352101286657735 0.0
8.807208588134106 4.356163101450244 0.0
8.868277832430604 4.45657124153171 0.0
8.75099635287701 4.460644845248524 0.0
8.812385950597063 4.560891222623518 0.0
8.693833206943118 4.564602972998703 0.0
8.756474732548273 4.665720853686476 0.0
8.63721608225855 4.669394550615355 0.0
8.700108119351134 4.770682016274914 0.0
8.81920502916846 4.767536120893284 0.0
8.76355311338807 4.871451945248518 0.0
8.881442328033694 4.868382238751069 0.0
8.826433523510634 4.97132552240372 0.0
8.943387824985514 4.967694248194483 0.0
8.888718468126953 5.071044784833541 0.0
8.580377663835254 4.774669738817985 0.0
8.770572242937233 5.073880380431421 0.0
8.832915096600454 5.174518948293615 0.0
8.952224483821848 5.170970838320107 0.0
8.897282771771884 5.275476392171722 0.0
7.463928467290875 2.513944501591933 0.0
7.675935950092034 2.509420347143072 0.0
8.924252417741767 3.024418701372628 0.0
8.857265893102921 2.911213535286156 0.0
8.776981063213334 5.27944309004916 0.0
8.840710910770163 5.380165700477552 0.0
8.960876896785969 5.375521424256389 0.0
8.904555918255223 5.482125846038813 0.0
7.567193097677677 2.32750151280277 0.0
7.780880844888839 2.323064027160363 0.0
6.851602118390116 6.234522818184622 0.0
6.758680682687229 6.389359516748128 0.0
6.66345977321418 6.231254850996584 0.0
8.715764716958308 8.079994249772627 0.0
8.65189989696114 8.227534663647639 0.0
9.042229096541828 4.348551764001607 0.0
6.436774206993324 3.316782326998922 0.0
7.590527613340588 5.22651784724799 0.0
9.024366884701616 5.476726561488805 0.0
8.968734351641839 5.583879050892151 0.0
8.845941080047659 5.586406316932274 0.0
8.909881305857882 5.690482454668167 0.0
7.348726871578975 5.44047403999932 0.0
6.567070253986433 6.398115757512583 0.0
6.697077150072261 6.553426749743366 0.0
5.252377383990728 3.187782967482479 0.0
8.988440431820699 2.908621158637298 0.0
8.922541972760119 2.796420836075996 0.0
6.466806010659505 6.229115583261771 0.0
9.033851153821296 5.686506775615425 0.0
8.978340519963718 5.795772485582058 0.0
8.85111463793018 5.798672910287243 0.0
8.922171984280597 5.907237880910408 0.0
8.795190680908043 5.911854068712683 0.0
8.864373398892472 6.019728357749566 0.0
8.991346995940626 6.014539153309398 0.0
8.93374019140187 6.12698887312768 0.0
5.095192648098848 2.952353430985476 0.0
7.672651464908932 2.141715359830917 0.0
7.886266921042761 2.136211284120189 0.0
9.098474286589756 4.245971410451114 0.0
8.813172564986438 8.216887361735234 0.0
8.74802978243154 8.366104673219047 0.0
9.059985162956899 6.120982589539211 0.0
9.00342813739303 6.233245043891739 0.0
4.961413514304496 3.214209167276753 0.0
9.05248113004685 2.794651022570942 0.0
8.986028039118027 2.681341972594222 0.0
5.671890458441996 3.377122473800023 0.0
4.755829262593116 7.184480462344647 0.0
9.158258644940048 4.34465968221255 0.0
4.799687186662534 2.961354824469195 0.0
6.030554747591715 2.726787502996874 0.0
8.938327180212585 8.34758372042188 0.0
8.847392320655468 8.503370672816716 0.0
8.67342124373679 8.518117686968314 0.0
5.234423106934083 2.694925204361751 0.0
8.964923046453565 8.185313058214797 0.0
7.456650986668838 2.134076476407834 0.0
9.111732084821366 2.897226832609386 0.0
6.368055837513985 6.402805870976705 0.0
6.265629899005033 6.226581076317183 0.0
8.736327196352686 6.026404178766982 0.0
9.117473097358854 2.67987006607594 0.0
9.052137415465204 2.565428515518978 0.0
7.781001557847192 1.955874236406257 0.0
7.992134447300669 1.949184538864554 0.0
8.593074792993455 3.143159483125708 0.0
9.1291360203536 6.226877897052981 0.0
9.072154326613617 6.338696745620542 0.0
8.916532550320525 2.566986282201109 0.0
8.984021113721658 2.449252898983242 0.0
9.178032243215632 6.120533546076094 0.0
9.213703592343162 4.244823670856978 0.0
9.11972142641474 2.449071238668887 0.0
9.052853896812186 2.33190758581705 0.0
8.635035926402708 4.462329956179506 0.0
8.773614475966344 8.657865377672689 0.0
8.596400917257634 8.67759750279447 0.0
8.942023339420883 8.644678093589654 0.0
9.19471670675691 6.33096438039349 0.0
9.138460613363325 6.443043552768813 0.0
8.66620319432524 5.916297234509582 0.0
8.606669825267202 6.032658196729024 0.0
9.27222540210304 4.341341907533128 0.0
9.013782808177437 6.451040569407859 0.0
9.08360982569773 6.55729980456602 0.0
7.885622149776354 1.768093045890686 0.0
8.095672144455353 1.768790621151345 0.0
9.208772072925791 6.549717411809656 0.0
9.154272208194383 6.662613503537815 0.0
9.187669783927937 2.334640996932141 0.0
9.122379015831417 2.215832190697178 0.0
6.164077036161143 6.404611236428829 0.0
6.062367614988677 6.224307160647549 0.0
8.987075041759633 2.211477580983978 0.0
9.056972755801603 2.093573581203428 0.0
9.194557288902232 2.096029761809264 0.0
9.131223008370409 1.972713028695079 0.0
8.87381302587057 8.795793668920256 0.0
9.039169086943392 8.781606667490083 0.0
4.662813350519927 3.228118291851354 0.0
4.474181267994617 2.945703616023359 0.0
6.562627723301209 6.075544382232434 0.0
9.326886053211574 4.243083624343211 0.0
9.280374192897945 6.656072830232892 0.0
9.224718905178564 6.766740750539347 0.0
4.703284910421452 6.528907865005451 0.0
8.955136474970331 6.565989985649191 0.0
8.998148826814893 4.865480736169776 0.0
8.99429836796776 1.965972383552685 0.0
9.065669391141741 1.847195105148808 0.0
9.207236162050343 1.853010386995843 0.0
9.143218073349985 1.725630086781897 0.0
8.998867447699345 1.719378449325465 0.0
9.082595782768397 1.592017827427701 0.0
8.92804562738841 1.585238202229766 0.0
9.01637794607019 1.453847302675876 0.0
8.854253119154375 1.446306868730686 0.0
8.941620273019874 1.320083886766936 0.0
8.775393064215876 1.308487027359826 0.0
9.102170347200483 1.324733726345249 0.0
9.013857060361985 1.178821526410403 0.0
7.991031819452564 1.587689878441685 0.0
7.767218744640202 1.595993197647291 0.0
9.191539171305216 1.194087248761656 0.0
9.123965901037613 1.057102462689568 0.0
4.853921953226772 3.470213116851758 0.0
7.496563223334782 3.470157221608763 0.0
8.536691379028115 5.921845852206257 0.0
8.475496498707471 6.037633662010236 0.0
7.978668526342969 2.307231488316941 0.0
9.384721922092124 4.337357165846226 0.0
9.331039180200886 4.435926256444196 0.0
8.546261775564837 6.150267290476958 0.0
8.411727261785726 6.155319300628062 0.0
8.972203609044218 8.930944433074036 0.0
9.133480321468399 8.90955269607895 0.0
9.197778815538276 8.768743880012563 0.0
6.162231825784922 6.05277753404107 0.0
5.962111081146334 6.046949845237622 0.0
9.268727788642101 4.146883230687689 0.0
9.380694211527906 4.144811697563401 0.0
9.323823335199954 4.049557759546529 0.0
9.283324894520613 1.736313094621396 0.0
5.858151623803662 6.22041808248046 0.0
5.759668475561988 6.038806123495502 0.0
7.836860473863919 3.191674397465999 0.0
9.348591928839294 6.75855034547469 0.0
9.293979592221298 6.870213350675044 0.0
9.170543172728557 6.879819332293818 0.0
9.240028263813034 6.983394994050525 0.0
4.347372565145963 3.312731475520695 0.0
4.114183445909965 2.96879678229065 0.0
8.616264880152233 4.042035981070631 0.0
9.403174760076901 6.650407069150438 0.0
4.173860112179449 7.723461240865885 0.0
9.365302975518428 6.973476802087294 0.0
9.312420275675276 7.088420778208979 0.0
9.184876614539778 7.0978133687822 0.0
9.25921281729617 7.204979813006656 0.0
9.12816413817609 7.21569648263899 0.0
9.203944409919862 7.322703303071253 0.0
9.334311975087337 7.311477957762272 0.0
9.280415785210538 7.428795599957155 0.0
9.274060219641907 1.066603180421249 0.0
9.211820491509728 0.9316562593680151 0.0
9.050684011148748 0.9017681241401576 0.0
9.441953732403995 4.432092590771756 0.0
9.394725873909666 4.526051349391942 0.0
9.43453556160865 4.048003950509361 0.0
9.378043599351757 3.952631412328806 0.0
9.289691247910705 8.890746792319852 0.0
9.228148443138926 9.030109127390128 0.0
4.440757888677695 6.389562448928118 0.0
4.689874463978985 6.239329075084555 0.0
4.291519540095677 2.622920583112654 0.0
3.886073352912894 2.632778677714434 0.0
9.344015622314338 1.202401041544343 0.0
8.193292196814806 3.849649660906171 0.0
6.960946604527747 6.07044529864598 0.0
9.347708267319902 8.756364147482309 0.0
6.826423138602714 3.261415861395883 0.0
6.06309517882478 5.884563187328262 0.0
9.4085057714426 7.414123963607981 0.0
9.356416821537886 7.532359471354527 0.0
5.042074134251055 6.938947182785697 0.0
5.063988238156824 7.311205832605263 0.0
3.946666851334923 3.30681624613374 0.0
8.189857914071878 1.939951128540477 0.0
7.880690277686857 1.38928908049477 0.0
7.63766396748483 1.399736360041063 0.0
9.345004233592562 1.857695941115052 0.0
9.440465164139875 7.085860901905448 0.0
7.918332480761888 5.744468010879592 0.0
9.08007135068879 5.372457017512481 0.0
8.78639561093144 3.718391405525285 0.0
9.356843485085705 0.9414458825132457 0.0
9.29705128845331 0.8103081541678832 0.0
9.251825423225316 2.451701826351773 0.0
8.483895366325516 6.270717564685176 0.0
8.346386886249478 6.275973306650227 0.0
9.493299170161215 4.138582531223591 0.0
5.321115649032961 7.117073603021904 0.0
5.354076009109965 7.436189411362466 0.0
5.597984079819928 7.254284331170681 0.0
5.644042313435943 7.564172740776336 0.0
5.383963016128051 7.753854027984002 0.0
5.681168258142109 7.880444993178456 0.0
5.935548099874979 7.687258900444162 0.0
5.979508404301389 7.994332725561488 0.0
6.21936843555201 7.802335560754011 0.0
6.267092590637372 8.104873033518185 0.0
6.498845418385807 7.917606504106031 0.0
6.544600005636809 8.209910620392591 0.0
6.77336078689533 8.027284686082275 0.0
6.814840179123049 8.311778392637773 0.0
6.721304148677048 7.737863326704131 0.0
7.031320924898797 8.1335673274533 0.0
7.077388928622946 8.403901803728003 0.0
5.417471987089176 8.090112295667405 0.0
8.845427688507666 2.446352368201366 0.0
9.318512319918124 2.339233739859646 0.0
9.380241452597096 2.451895615249572 0.0
7.283805558009199 8.237518806365102 0.0
7.329200330160381 8.497045124353782 0.0
7.233272584416691 7.991590926766813 0.0
9.142592248414191 5.471315142785471 0.0
9.196303265878848 5.36738298742727 0.0
9.25795832955665 5.465260877691205 0.0
9.310581303233182 5.36341558704714 0.0
9.371094700882272 5.459458038195667 0.0
9.422767107822985 5.360687090455724 0.0
9.36402660964156 5.264821436196721 0.0
9.474220736978928 5.262802348886269 0.0
9.41680330511366 5.169477108906666 0.0
5.168675939028436 4.895496152382537 0.0
9.482591449057548 5.454699312257291 0.0
9.431567605310825 5.552723344040521 0.0
7.531449703396948 4.741663470323411 0.0
8.517293123442691 4.672601123164268 0.0
8.459978676626639 4.778466809901586 0.0
8.396595115309985 4.67568709170855 0.0
8.338966609235166 4.782101664607259 0.0
8.275355646032752 4.678829956447008 0.0
8.217675280223542 4.785699596769931 0.0
8.28149024865807 4.888803783902183 0.0
8.16019781596952 4.892696417098926 0.0
8.22433278506531 4.995725219088695 0.0
8.102825704443651 4.999629142625341 0.0
8.166887930010795 5.098242831115916 0.0
8.034904900788316 4.896825406879729 0.0
8.15353539905931 4.682103688185489 0.0
8.211891449058882 4.574219757233394 0.0
8.290305306104333 5.094007100958221 0.0
8.225684228618732 5.201525567655179 0.0
9.444618942559746 2.343141375196729 0.0
6.929446520625337 4.868116916840016 0.0
5.737810725167649 4.893891407574175 0.0
8.720389971487277 5.38508368411851 0.0
8.805734920311323 8.951818172412821 0.0
8.905272694453211 9.083303226359831 0.0
6.006155038818204 5.171375272745409 0.0
6.431496448228514 5.152985998213245 0.0
9.052675024457304 7.106590131831544 0.0
7.740007013494393 6.09727525827826 0.0
9.375852260355511 9.013078430361404 0.0
9.32035844773103 9.14584923943073 0.0
6.989707597683965 5.146377438798643 0.0
9.488190206836386 3.951168069367155 0.0
9.432429152094464 3.855725756072153 0.0
5.568386402814275 5.185723849666124 0.0
9.525561551078322 5.166162126187324 0.0
9.465026391994275 5.072601962964018 0.0
9.320357339516937 3.857795423728873 0.0
9.375955927831914 3.759314274140895 0.0
9.261783786753899 3.761412578759438 0.0
9.31820665563318 3.661845422072752 0.0
9.431798673168924 3.660830894813109 0.0
9.374584413615914 3.563138564686839 0.0
9.48759661134647 3.562294297118573 0.0
9.431339678707085 3.464016717943268 0.0
9.417896212887529 1.746970678437863 0.0
8.731705369070733 9.110902182838881 0.0
5.652297951447118 6.21188565774667 0.0
5.569122518069258 6.024400786163834 0.0
8.257007204149394 3.505875091031567 0.0
8.717428603143034 2.925525757227976 0.0
6.882852832747376 8.57686572931064 0.0
6.337330066435714 8.416819098143066 0.0
9.50188906539997 4.521022403818629 0.0
9.453500859905136 4.617181635748691 0.0
9.46806769570129 6.749352117850711 0.0
8.836822104875719 1.72282859852854 0.0
7.481071063421426 5.64593758994851 0.0
5.668814988976305 5.86611128457842 0.0
5.487644760735084 5.847591822776978 0.0
8.993992818065195 7.228173913870249 0.0
7.98322414937693 7.229980191466666 0.0
9.22810751684646 7.54864871395298 0.0
9.304103360459063 7.654622011545798 0.0
9.432787371848761 7.633691049023619 0.0
9.382619818023882 7.759136995934441 0.0
7.239096822516492 4.679179578301165 0.0
9.47692479956498 1.861231395362419 0.0
8.041243110813022 5.095895152648969 0.0
6.190208781188077 7.509864122823853 0.0
9.283062812782122 4.549418667685757 0.0
9.503847665760087 2.450295046295932 0.0
9.443345385250678 2.557904120404248 0.0
9.52009568463353 6.644015937008899 0.0
9.203119005973903 3.662458522935253 0.0
8.406198651282708 5.92630414760378 0.0
8.467263597743843 5.811987729136874 0.0
9.461423029059445 9.128120577356565 0.0
9.408445330070542 9.26024300250086 0.0
9.266505293379728 9.277952925446408 0.0
4.14874709022218 3.631681332690154 0.0
9.437448107949258 0.8198473430736303 0.0
9.376993771693973 0.6910550697058979 0.0
9.22882356848217 0.6931820370818127 0.0
4.451823867195988 6.103664366188579 0.0
4.200031743909027 6.232039028149317 0.0
4.687154754667774 5.975132870483986 0.0
6.268889397098538 6.592235545990395 0.0
7.509366161722768 8.340075462391164 0.0
7.564775703413765 8.59800936579159 0.0
9.542148732924264 3.854614593058991 0.0
7.036231103929761 6.550562550831048 0.0
4.089373665437328 2.268193930262139 0.0
3.642558884866483 2.250386188148396 0.0
3.442182385618804 2.651948803899947 0.0
3.146832503011753 2.222630466765926 0.0
2.948870467975985 2.805088883766417 0.0
9.352005315330274 5.067356449300542 0.0
9.31729677031493 3.462944187594675 0.0
9.37428383619102 3.365546369736205 0.0
9.4883538239391 3.365384871181599 0.0
9.432147665178338 3.267287636377487 0.0
9.25034519267688 7.775848812012313 0.0
9.332091350002502 7.881724023243533 0.0
9.462101000264603 7.86490055671988 0.0
9.413353271651825 7.98561007219363 0.0
8.273592814723814 6.158623919352561 0.0
8.207135014732339 6.280394934566054 0.0
9.541483811580331 5.548224291759592 0.0
9.491365919893726 5.644847811894615 0.0
8.088095771120983 4.577581369371366 0.0
8.14760102783746 4.468303741922308 0.0
9.556217963323956 4.414867468889523 0.0
9.543667331547693 3.266908751519594 0.0
9.489307652535885 3.169908976697059 0.0
9.26285575842982 8.635341362685686 0.0
9.403220742003983 8.621447866627538 0.0
9.326013417886902 8.506778946171965 0.0
9.455477927154853 8.503896705359047 0.0
9.566646674069602 4.611465258087684 0.0
9.499341049870914 0.9352184973273918 0.0
8.683891958597638 1.444705608998412 0.0
8.599973456173778 1.287265568270043 0.0
7.760988189317371 1.175381292562583 0.0
7.50927661322749 1.171223823957793 0.0
7.380927152434357 1.411062577009695 0.0
7.242417847270241 1.170759311509981 0.0
7.107236746116019 1.421234419770886 0.0
6.960799033544566 1.169618322344823 0.0
6.817786081200392 1.434174581170586 0.0
9.48095050141868 8.738557748483624 0.0
9.319762046171894 3.263060331456388 0.0
8.920653400180534 7.117307656029475 0.0
9.452431221190624 6.544166520883111 0.0
9.571407933653493 6.540336592280795 0.0
9.507586285214174 6.443281357841339 0.0
9.575252974749443 5.070210512157044 0.0
5.755172844377253 6.370710487467459 0.0
9.541351959064952 7.969072511059531 0.0
9.354607289792183 9.3921968735401 0.0
9.495213435762107 9.37218405175897 0.0
3.77688136092967 3.643094492921176 0.0
5.460967180339239 6.159077196937325 0.0
8.656589552918996 5.283032675040985 0.0
8.599307076390474 5.387421722684671 0.0
9.584017606465821 5.263931993965828 0.0
9.51536593891754 4.977534386249715 0.0
7.788544970111893 2.70578432810479 0.0
7.381746833264364 8.755477463411431 0.0
7.615969996822885 8.852710176548548 0.0
7.783643411970649 8.691528137204457 0.0
7.845017394185501 8.938777577473743 0.0
8.570520580943368 7.342304222498308 0.0
9.103648004226827 5.781084627507008 0.0
8.338082930126799 5.815990105349368 0.0
8.930848895071895 4.561111316304916 0.0
7.381089602119859 5.983657236035151 0.0
8.42066837692862 6.393608568217351 0.0
8.888256157021065 6.459558428285236 0.0
8.826495664731354 6.575679897210801 0.0
4.22522220414496 5.921354747981145 0.0
3.943296448343383 6.075578573904587 0.0
9.563175937841836 2.554860696349795 0.0
9.505342423182917 2.656889632284623 0.0
6.660863480070611 1.168750929063519 0.0
6.518316961679488 1.436478598119306 0.0
6.683474168246802 1.694104067636375 0.0
6.376799057174731 1.707382100972048 0.0
6.205091481342603 1.443621641108414 0.0
6.058670988071357 1.728841803855816 0.0
5.877457486049096 1.454297236926778 0.0
5.724979192982589 1.756666409586195 0.0
5.529885788012015 1.462283739157555 0.0
9.514953777019835 0.7018468683209754 0.0
8.398665270372675 5.702731562702358 0.0
9.456442249775696 0.5772068858285652 0.0
9.565795671866349 2.345573662774494 0.0
8.830758563027459 9.247271599108435 0.0
8.523580738257648 4.88015211128435 0.0
5.580123316488715 5.701889892660689 0.0
5.398591029446707 5.685938459654249 0.0
5.367686360823392 1.778740548277203 0.0
9.546603444041448 1.754984055696778 0.0
9.489649223089446 1.641312329051244 0.0
9.617973952467912 3.363804764345866 0.0
9.584322830999731 6.729956156156573 0.0
9.597221861144487 3.948534024289882 0.0
9.49401963819799 8.089507968561776 0.0
9.207321074262563 9.416906871900888 0.0
8.27185428346661 4.464932191097996 0.0
8.207416067213774 4.35878753684812 0.0
8.332747746635944 4.354903699457511 0.0
3.990181919126853 3.930792395858886 0.0
8.267392138262498 4.254008221702929 0.0
7.997788712685495 1.196805377512679 0.0
9.600316638269724 5.639973985281733 0.0
9.550939606739425 5.737313319038155 0.0
9.44084303195315 5.74233753256161 0.0
9.50112296154558 5.834555019909565 0.0
8.897429225733994 6.685415510921676 0.0
8.762930941408914 6.695907295903629 0.0
8.654628175336732 9.278157371342388 0.0
8.544676900803436 9.133790942553834 0.0
5.294904777716057 5.855935872688884 0.0
5.216749389964556 5.66865685845661 0.0
9.508453581298625 2.239460033375932 0.0
9.599691370793206 3.169496930704394 0.0
9.546615051106684 3.073514534194011 0.0
7.484714626923596 5.028675123117963 0.0
9.588496050271255 7.850836295555126 0.0
5.153197381012662 1.471340286561097 0.0
9.433168304679345 3.071871997104804 0.0
9.610464706874994 5.829217654498672 0.0
9.561407772947403 5.926179534044419 0.0
8.273381980676042 5.705233340662362 0.0
8.330794188929296 5.594351887246082 0.0
8.207319603076424 5.596747949305344 0.0
7.251338559467102 5.233758892662348 0.0
8.708518799790543 1.130513882092466 0.0
9.590155250193266 0.5878623138195824 0.0
9.389919385420015 5.841079912164009 0.0
7.991397852194216 5.859910582924319 0.0
9.624951589233206 4.975554514425905 0.0
7.240016788025947 2.531866266726309 0.0
7.635666783493215 3.873554782053258 0.0
9.608476620993713 1.863530872936442 0.0
9.365330459496413 8.10677840682376 0.0
8.775076110585598 2.572737931759856 0.0
8.699389445914996 2.444602334375113 0.0
8.625078713232146 2.580891022578613 0.0
8.54447196848446 2.447624719286678 0.0
8.468898498943965 2.586757328881282 0.0
8.62282309213608 2.307826916202421 0.0
9.622102662978762 6.439307895185218 0.0
9.561995355724862 6.35103962032292 0.0
3.898245450818314 1.856155797593496 0.0
9.681759177700954 5.07069253017652 0.0
9.059254996454502 4.963357716933865 0.0
9.113144532326562 4.861710138088372 0.0
9.62140874877204 2.656009146517733 0.0
7.884510615470827 0.9666888912541309 0.0
8.14902661050739 1.005010215149227 0.0
8.491263206618079 8.527197931363634 0.0
8.408859203395778 8.697060715788105 0.0
6.54422152733529 1.954566069381189 0.0
9.563546573097593 2.755667904356369 0.0
9.453065492925557 2.761122255953964 0.0
9.676889098520615 2.755084315170127 0.0
9.678287124781653 2.556838324720633 0.0
2.60254317790297 2.278874965850319 0.0
9.211706272534968 4.050470567310489 0.0
8.526711683538949 5.698821878547752 0.0
8.296604023060945 8.533761944401608 0.0
9.649704314258118 5.543946557831669 0.0
9.651176136337964 3.85122804518279 0.0
9.44590154800397 9.498503704959054 0.0
9.580491248736612 9.476376347552954 0.0
4.3239388803087 3.921156392977062 0.0
9.65737873521736 3.075324100817917 0.0
8.128000846282253 6.160273991836929 0.0
8.06242981852327 6.292371360998262 0.0
8.500465019503922 1.442700595221201 0.0
9.615253212967009 1.649819368149096 0.0
9.561768620580791 1.538553925606111 0.0
9.435477757657937 1.527391516499924 0.0
9.627993450010088 2.242685831452484 0.0
9.5338252733548 0.4673994795805215 0.0
9.398055066504014 0.4589059948533885 0.0
9.669486082509058 5.920177035588319 0.0
9.621072177439727 6.016493814615133 0.0
9.506185962103057 6.018397021409126 0.0
9.196884440497488 7.898824858961557 0.0
9.112591143666748 7.789491461180181 0.0
9.664357762385308 7.950712034233033 0.0
8.46233617997115 2.308903464128035 0.0
8.547917980328803 2.169381684694277 0.0
8.139931430059324 6.410762600521521 0.0
7.672499127532963 9.099143622036436 0.0
7.91372855627271 9.178704612763656 0.0
8.463425076318451 9.290653726808348 0.0
9.643938029094286 9.335632419679458 0.0
9.647017668702574 0.7068996148634754 0.0
6.241662276606473 5.884018212993202 0.0
6.157742245066693 5.73500474100449 0.0
6.318815619949124 5.730068085823802 0.0
6.247706374231452 5.593094310939028 0.0
6.406948541886973 5.593272398468375 0.0
6.092564106310554 5.587409338401505 0.0
8.535507922245372 5.286142900439676 0.0
8.022959839404006 4.471630490587016 0.0
7.963561162854596 4.581393556789843 0.0
9.683487139413305 1.546750704925431 0.0
9.630761777960082 1.435922217091829 0.0
5.121714348989337 7.950140247572198 0.0
5.136464096196084 8.310254432483559 0.0
5.47349124035624 8.455234262268478 0.0
5.176273618280354 8.687190323573228 0.0
4.796664658962938 8.592678692862421 0.0
9.568705729418735 4.887269869750176 0.0
9.462711651199594 4.88832222094458 0.0
9.674903475028225 4.882285174433025 0.0
5.4996067353406 5.546583260717527 0.0
5.663632234555963 5.557613452957074 0.0
6.829408195405585 1.947174574944512 0.0
5.336529198289861 1.127585641139875 0.0
9.672387559812332 6.34138351957329 0.0
4.463988917379896 2.271060678869338 0.0
8.618048281355405 6.263841736419089 0.0
6.480949808711781 5.74815588680617 0.0
6.562207427719153 5.592185077216444 0.0
6.643040463857446 5.721233693378952 0.0
6.712825900331884 5.588664360236 0.0
6.79240375630333 5.711383948285569 0.0
6.86115931532141 5.584697050428064 0.0
6.939210100691576 5.704407337029545 0.0
7.007668476576536 5.580801046893123 0.0
7.084627386867475 5.702817970154801 0.0
6.633257976075473 5.460881327825488 0.0
6.931430743764456 5.461960451448691 0.0
9.682652370938209 6.533133024505995 0.0
8.761108695241376 9.450742747770144 0.0
9.146031326900015 3.764292700000154 0.0
9.089378801805193 3.661317181076136 0.0
9.514354521818781 8.994988681611192 0.0
8.157650730500988 4.262987189670279 0.0
6.329633198899328 5.4647789391701 0.0
2.340685767996258 2.811285337457589 0.0
7.379572471323651 0.9290892725587991 0.0
4.171878172186605 4.222320767259098 0.0
4.4876601621649 4.16473354200826 0.0
5.336389369563535 6.806464508860387 0.0
9.595468321212476 9.108133206829102 0.0
9.645038675267227 8.982113951305912 0.0
8.393140678816192 4.246338342095281 0.0
8.309440721624494 4.155300532283633 0.0
9.418269339704423 1.9925512363779 0.0
9.662781807969623 0.477809346089035 0.0
8.011297869803792 0.7518828483803571 0.0
8.250149975885678 0.7646904662196189 0.0
9.608674873602773 0.3618049194050078 0.0
8.692696069692623 6.582927327365709 0.0
8.628225948401226 6.705702462696891 0.0
8.701883181418305 6.822086652299242 0.0
8.559276855155542 6.829564723911442 0.0
7.069268463354993 5.459534423493629 0.0
2.654575201159115 3.323490466195074 0.0
3.610801136544596 4.044075244426243 0.0
8.263757217166944 5.48730323490738 0.0
8.138838162809126 5.491254533497952 0.0
7.90196833683664 4.477386962763833 0.0
7.987943097943191 3.978756490171551 0.0
9.704623491880403 3.945605151832784 0.0
9.461009573830147 7.301728818091931 0.0
9.532468631193666 7.399916015174975 0.0
9.582688928417856 7.292330983701011 0.0
9.652579613269625 7.387768793572397 0.0
9.699264016151023 7.282867433965265 0.0
9.633305589700536 7.188543855060478 0.0
9.505576100168666 6.961225778216469 0.0
9.43876966151099 6.342441564206569 0.0
4.908483672172518 6.098703904450545 0.0
9.135448256237908 5.269827196966999 0.0
5.905650502271389 2.025036080946255 0.0
9.709890722072377 9.452748507541063 0.0
9.663337613522643 9.572126259365891 0.0
9.603900123387826 7.495180532331903 0.0
9.720147629525837 7.483400774981126 0.0
9.674588415444239 7.588303295299578 0.0
9.653186673863587 4.039274180923234 0.0
9.053164539680804 4.764545162185531 0.0
9.164908495749003 4.763017269285045 0.0
9.226019227262443 4.858029410614327 0.0
8.809947621994619 3.4964384919072 0.0
9.10538997155458 4.665865142902959 0.0
9.331074106432244 5.748993480915537 0.0
9.055854333858068 7.918554535314415 0.0
9.446431573964945 8.209836764658437 0.0
9.573844810886287 8.191100251691205 0.0
9.309704769895653 8.244395007943949 0.0
7.240329561730736 1.676197957122907 0.0
9.543389817573933 3.660019800390455 0.0
9.598599341122098 3.563130123982772 0.0
9.652615161407017 3.658119804270645 0.0
9.706336063693934 3.564815526226687 0.0
8.632284427755456 6.946688912416058 0.0
9.682863230715835 2.349655023034811 0.0
9.571538455120994 2.142369886250143 0.0
8.090821900439733 9.017409120951333 0.0
6.812258669899192 0.9007667548831626 0.0
6.50135254578461 0.8974046495177885 0.0
9.598335906230732 6.246437748035812 0.0
9.719677442549804 6.253968775436637 0.0
8.593026822691716 5.180101360605356 0.0
5.537586126848265 8.836083861509138 0.0
9.688689404995035 2.143487155934306 0.0
2.821389253975936 6.507820864074362 0.0
9.176571289960709 8.507736431357309 0.0
2.918303740542162 8.256728920338826 0.0
3.428955230180972 8.401446814887457 0.0
8.490587404589881 6.715350139132777 0.0
8.86049054904785 7.243279881821806 0.0
8.93696309213556 7.356650230611625 0.0
3.951931175165697 5.78308550088855 0.0
3.65055612573298 5.91672400098539 0.0
3.668142216548471 6.247526235973777 0.0
9.717269848920886 5.821831227352286 0.0
9.708364917734201 3.164198601626433 0.0
8.45581975650687 4.569560863828342 0.0
8.204448312099833 6.040774355519757 0.0
8.65969449127868 5.485991799508151 0.0
9.707534571012967 5.634423933296901 0.0
9.62102991883279 2.849662850313935 0.0
9.144093558002634 3.560383427867003 0.0
8.29763273805118 1.77155302934031 0.0
5.280452715709455 9.01633391004168 0.0
8.984558945859158 6.99932633710603 0.0
8.4157550875812 1.275784953143711 0.0
2.068078118650995 3.355462780535101 0.0
9.205703884756806 5.568274778556933 0.0
9.745857863753141 7.178456670302003 0.0
9.681628895748586 7.081494416756802 0.0
8.875818787971069 6.240744812097083 0.0
7.993733797566922 6.414830952863579 0.0
8.462810157069566 3.377071044664789 0.0
9.29428363519789 4.759591981903337 0.0
7.933956818298286 5.97437536746848 0.0
9.028281726378319 3.558713145763133 0.0
9.083461773461467 3.455531762175701 0.0
9.73231939683535 2.849247643393067 0.0
6.70072305037728 2.192432536215492 0.0
6.423245125077639 2.212870246546939 0.0
4.931537051605536 1.135086496804522 0.0
4.746426561586179 1.500381091957315 0.0
9.707706579932626 7.836419656220658 0.0
8.590593344701457 1.595639668013959 0.0
8.708946574109854 2.1688179918246 0.0
8.634728854549891 2.028564483452208 0.0
9.230357659411311 8.129337203173913 0.0
9.102841374461482 4.452881308250647 0.0
8.472081531214734 5.388993924853032 0.0
4.925996806199801 5.844046944846857 0.0
4.702806345752284 5.745688656289065 0.0
4.884357002239844 5.633237011762874 0.0
4.709628434300812 5.536404116679045 0.0
4.530800966746534 5.627044171217377 0.0
6.040296145349247 6.603808099703576 0.0
6.162203578696918 6.795213950202512 0.0
5.923135943221574 6.824060069869489 0.0
6.046693245732212 7.010423490915212 0.0
6.297337598588478 6.979895528204233 0.0
7.760448385794147 0.7294020304851334 0.0
8.492228348169641 6.958778476405878 0.0
2.89219822877093 1.704113597264478 0.0
2.26178643438086 1.7814602252425 0.0
9.726968895980871 6.009547057102511 0.0
6.63195110828313 0.6072886418835157 0.0
7.984023036954866 7.515675826210831 0.0
7.893857204140559 7.681876703427663 0.0
7.778465117872411 7.537836322197895 0.0
7.998204230811618 7.844922503023499 0.0
7.798554315988981 7.858161805718108 0.0
7.917846202023782 8.03040048103727 0.0
8.547520504556728 2.721261126162116 0.0
8.39253850806587 2.732073315877738 0.0
8.306047241032278 2.59069854402512 0.0
8.233011054235162 2.739783364361515 0.0
8.318836035587811 2.879838477099622 0.0
8.159530874574331 2.888511553151382 0.0
8.245490421394788 3.024568439743106 0.0
9.759103003747676 3.077839427881478 0.0
8.083610090773394 3.033523757291178 0.0
8.174562583800352 3.166768504406541 0.0
6.046769434852523 1.155662270344939 0.0
6.968371001421964 2.176347877216873 0.0
8.324858098380334 3.152966249334499 0.0
8.145556596142626 2.609897633546475 0.0
8.970652052821418 7.804556541250797 0.0
9.033737629244714 7.681328986528639 0.0
9.62347010002576 4.796939565664328 0.0
9.72520380348743 4.790261082613535 0.0
4.882631186210167 5.455006233451049 0.0
4.618356368594037 3.933076284395493 0.0
4.748083507220199 4.151025177732873 0.0
4.641724290430313 4.358202249373887 0.0
4.87055838101999 4.337900676660481 0.0
4.974114446887331 4.149149057174687 0.0
5.081577844806959 4.3240148266423 0.0
5.179521650033781 4.148725180298481 0.0
5.276261408871418 4.316673822529601 0.0
5.369189110897883 4.148362797753505 0.0
5.463892033849439 4.338819369807593 0.0
5.550828466075906 4.146274465971151 0.0
5.646554822352869 4.303571429647391 0.0
5.728109623160046 4.138582010823754 0.0
5.821689108984419 4.291959598724587 0.0
5.906082534948073 4.141649907302701 0.0
5.99655838673762 4.288752711512514 0.0
6.077312859438928 4.141011188943332 0.0
6.164215275138099 4.281164574562373 0.0
6.241782344986693 4.140701084167517 0.0
6.324316420613108 4.277393447415522 0.0
6.40284165425941 4.140026953305852 0.0
6.483655157361099 4.273418937894759 0.0
6.561170698911611 4.136221843106807 0.0
6.63512300179586 4.269917278694155 0.0
6.720306110251473 4.133393659385058 0.0
6.63777078218551 3.99617001426095 0.0
6.802492763973074 3.994355399489989 0.0
6.798834760478153 4.276914787769972 0.0
6.15377608509923 4.000134206628027 0.0
6.548727135071258 4.400510710520637 0.0
6.251479300130713 4.421887359316258 0.0
5.275876048175579 3.979624500657822 0.0
5.910905077162284 4.431174408784691 0.0
6.717070288412452 3.851239795555301 0.0
6.883499045994213 3.852555480300214 0.0
6.96664848901999 3.994033961856844 0.0
7.048208567116626 3.854750001965969 0.0
5.810004974283072 3.982497501655442 0.0
5.586615391658107 4.471070246359201 0.0
6.547331954052155 3.853872077215347 0.0
5.179081233207816 4.485638492900557 0.0
7.126615227065496 3.995337770596979 0.0
7.209459742762513 3.856893463870469 0.0
7.130226097876905 3.713620439679428 0.0
6.63075064074106 3.699684148676045 0.0
6.446985573861992 3.697358756862005 0.0
7.043151422977365 4.131713936060725 0.0
7.198322215260019 4.129850614748363 0.0
7.119378405252723 4.26005098890218 0.0
4.797146270976422 4.525762781577414 0.0
4.608329098388589 4.573584257851931 0.0
7.294442092743627 3.720853338661503 0.0
7.215753312764997 3.571378507508807 0.0
7.049631633956289 3.568047985538775 0.0
7.133765707749521 3.414282375958479 0.0
9.755079417839903 5.539705890434435 0.0
9.698955703441971 5.450920012703194 0.0
9.717604099406742 9.09084770432896 0.0
9.276716006673976 5.847248422342224 0.0
9.339081208926798 5.941174203394446 0.0
9.031261921742963 3.750271483819014 0.0
9.08721978689863 3.853416037308712 0.0
4.801461566647803 7.510704110489921 0.0
8.206553504932042 5.818005960412773 0.0
7.362361315389098 3.863102442315545 0.0
9.492826845316191 2.963845037486267 0.0
9.376710375304633 2.97229517374228 0.0
9.3192743723601 3.070687802230453 0.0
7.915389082113898 6.293241865913004 0.0
6.735006382384437 5.832450056405368 0.0
8.456481836836168 4.35369289249905 0.0
8.517718268476031 4.246675068616396 0.0
5.583512022030555 5.411069060406398 0.0
5.73625200174779 5.422617752052123 0.0
5.81006929286229 5.548584937688919 0.0
5.903438861894402 5.420604003204523 0.0
5.43801870974416 5.402925156167655 0.0
7.022641548594327 5.825217331839047 0.0
7.165095795605366 5.826005223633447 0.0
7.223078558430726 5.690146755650336 0.0
7.841396000338385 4.586693006493787 0.0
7.904793170875705 4.690826189066096 0.0
7.785999820520073 4.696719777099973 0.0
7.846448506395101 4.798518978096564 0.0
7.728149182067156 4.803800941124008 0.0
7.788983823826226 4.904802634695232 0.0
7.672018889153144 4.910077510508749 0.0
7.731996012352178 5.014717724244488 0.0
7.852072803124419 5.00743796185411 0.0
7.779278698005006 5.118909346425974 0.0
8.088113864063853 5.605434545811022 0.0
8.016457362785575 5.494849890158723 0.0
8.072290383394757 5.385594956317259 0.0
7.95068657972964 5.38825563681957 0.0
8.309366678475389 1.438342408757099 0.0
9.748160780780179 1.447794693754379 0.0
9.696454228162398 1.337889922375316 0.0
9.568813761940916 1.329560834053294 0.0
9.638326779791626 1.226729570935787 0.0
8.472132467407484 5.182856496818138 0.0
8.066211547412054 6.53691730655352 0.0
8.217035586462373 6.522976700918602 0.0
3.544839338670893 3.324491119989469 0.0
6.999740002965287 5.347729916247808 0.0
6.874544698914502 5.347027470386579 0.0
4.880451234715014 5.193043717957879 0.0
9.104510033763066 9.313204713465637 0.0
9.0466357104558 9.45359399494339 0.0
9.146803165140184 9.569652364413551 0.0
8.134107047896672 0.5527712356100052 0.0
8.369770412730738 0.5571215815175228 0.0
8.47386979744655 0.7564607169846485 0.0
8.585193608569258 0.5749174254532757 0.0
8.683868132726584 0.75505070091701 0.0
8.787381435061018 0.5813987798627239 0.0
8.697570280442534 0.3771156480326233 0.0
8.530048434259976 5.077280516000916 0.0
7.995091351438729 2.90367515012593 0.0
9.731083608815164 1.662638626153251 0.0
7.260488865351954 4.255073962371814 0.0
9.760728358076392 8.990038509880067 0.0
9.716710396257366 8.884160310398862 0.0
8.794627466210242 7.369659405098349 0.0
8.868068657550866 7.515048014893154 0.0
8.702594597629135 7.510501129643432 0.0
5.132320689147051 0.7610757801158905 0.0
9.755852887652699 3.853180024615871 0.0
9.787424819067885 2.757921105725315 0.0
9.731193479931608 0.3736343090103709 0.0
9.796526908308536 0.489684029254899 0.0
8.226019692057042 2.453349105940535 0.0
4.560989821496479 5.428206018250252 0.0
4.348810639659689 5.517048281386008 0.0
8.785190163106925 7.119142251269924 0.0
9.015515413043023 7.464769766852701 0.0
9.754861440190705 3.659036930324926 0.0
9.7543610723378 4.033687839160082 0.0
9.707881226943384 4.127219992296752 0.0
9.52841017383273 8.309020665649431 0.0
9.65186044414544 8.289498614805698 0.0
9.714051275521857 8.173576484362068 0.0
8.209758892476394 8.715513071423135 0.0
8.097084883671858 8.548851201381087 0.0
8.177989947800599 8.367872862579052 0.0
7.974142434808908 8.36779470623567 0.0
8.409012054919861 2.142624252464372 0.0
7.707002321497132 8.039129945341395 0.0
7.574653123518228 7.83895791570255 0.0
9.229858094382692 5.951357214361815 0.0
9.75307989876696 1.229893222503321 0.0
9.715811155868643 1.128779429890018 0.0
9.597960915003707 1.117058287635912 0.0
9.672063923518955 1.020806103150243 0.0
8.99090422125785 9.593878510105375 0.0
8.133165456134304 9.257620998029804 0.0
7.976779931497633 9.420725324095141 0.0
9.77231778617502 7.927819487779705 0.0
7.957213679655531 4.364530256281665 0.0
9.609903116082736 8.403725680286847 0.0
9.724891358972584 8.388392708395173 0.0
9.687487059868507 8.495935345161797 0.0
9.810055520269009 8.494090598382963 0.0
9.755967487162335 8.599790818513082 0.0
9.645698986824481 8.606121319182705 0.0
9.721376049217765 8.699989876681524 0.0
9.773009257015609 4.884557953188837 0.0
9.830105798750992 4.796546393900876 0.0
9.775335108731761 4.686093304257503 0.0
7.455611517737074 3.730099283949135 0.0
8.906943567829634 0.4197477661467797 0.0
8.980613334153533 0.5814185917581446 0.0
9.081059111759728 0.4263421860552371 0.0
9.821654809259165 3.576985724143072 0.0
9.761309244784803 3.4792267780002 0.0
9.763329553045937 9.353068233045157 0.0
4.463051839136694 1.164440352584939 0.0
8.0213168204867 5.283436382300235 0.0
7.89385412333227 5.290429544753158 0.0
5.806940001023414 8.583716119232427 0.0
5.88977793877374 8.96065112858812 0.0
9.177759062826041 8.25539130897928 0.0
9.626582559276994 2.05283181283147 0.0
9.747673294325121 2.064954301745188 0.0
8.775905508647185 6.951821187702613 0.0
2.3581644273991 6.029034686663493 0.0
9.777798009058461 9.548066962498762 0.0
9.737129197219856 9.662299853506903 0.0
9.615080366030512 9.683349544763068 0.0
3.315839678697904 6.042943273456425 0.0
8.915083018115329 7.937748428923896 0.0
9.489832173860055 4.712364754630572 0.0
8.118313727862493 8.013944064029838 0.0
8.902248750797776 7.67372145952523 0.0
8.954075939212636 3.463080912810881 0.0
9.45247551997678 2.133243108303608 0.0
8.311151553157742 8.899233004613622 0.0
3.28672004268868 6.826745674539142 0.0
9.86008383798735 3.468233656255824 0.0
8.389990589860254 1.947086063498656 0.0
7.144231739553659 5.329544660076687 0.0
9.654500729007207 7.743301971143119 0.0
9.761920842881946 7.740144345898896 0.0
9.692820773976567 0.2651585113981998 0.0
9.690951720399688 6.100517071814821 0.0
9.775704281989471 6.077882312279847 0.0
9.823117117198079 4.115168542267924 0.0
9.764391943581737 4.214465954230587 0.0
9.659455011849253 4.218716850797838 0.0
9.713462125022623 4.30742830316693 0.0
9.849638067150842 4.208845651573708 0.0
6.376241713254513 3.858766051594979 0.0
6.274931849158213 3.701528298009006 0.0
7.097780104117746 1.926449727602711 0.0
2.457742027508782 3.810157622192786 0.0
2.963634206580268 3.740748099915693 0.0
5.065585416063965 5.544355730437482 0.0
9.783560252464587 7.566507987677117 0.0
9.825819294611026 7.470942204664841 0.0
9.799976114123012 1.01659516618323 0.0
9.745559590633832 0.9150866860898854 0.0
8.20473400632469 9.495828670767946 0.0
8.784586030320169 2.054461500762216 0.0
8.758471587067168 1.888286802854785 0.0
0.9188935087347281 8.510730800272478 0.0
9.674192026048217 9.20389587377276 0.0
9.796314981283475 9.185916994648775 0.0
7.206882433199502 5.452024361489832 0.0
9.773927048949279 6.334665846819535 0.0
9.830288393591173 6.225300227041885 0.0
8.25177349297509 3.282767705830209 0.0
8.099233469407428 3.304040153764131 0.0
9.607860512870598 4.315652630490023 0.0
9.403674738018715 8.367349042046314 0.0
7.611756786273919 5.018691202305147 0.0
7.549513964643336 4.923310232561835 0.0
9.80986724662116 0.2915868356190958 0.0
0.7757562810577034 3.504187313079081 0.0
7.659562100664981 4.698467529240196 0.0
6.539424975891206 3.541729955691742 0.0
6.717348880400739 3.55221857686142 0.0
6.836337579501807 2.417476958454302 0.0
7.096480496160066 5.959124656438389 0.0
7.189742782777612 4.377051328076039 0.0
7.051723187622053 4.38470822973091 0.0
7.125489805519186 4.497018383456762 0.0
6.994915621927777 4.501504591168814 0.0
7.056755276274058 4.607929817497045 0.0
6.932937068803914 4.613249390039674 0.0
6.86629288290367 4.50541343988659 0.0
6.80427099775847 4.617607827251794 0.0
6.739195362053689 4.511124964201849 0.0
6.677260697693361 4.624288827143181 0.0
6.996760608675822 4.711715831373894 0.0
6.316045249462968 0.6456945497683586 0.0
7.321834163850416 5.816449323512759 0.0
7.833101485370825 4.390058096386987 0.0
4.996572652976738 4.498711166259074 0.0
5.112334577457371 4.663858846723513 0.0
5.271923064784868 4.629759173373871 0.0
4.93773508827367 4.668006487116195 0.0
5.348137647919096 4.485934621930562 0.0
5.413454827497575 4.62999925573761 0.0
5.356581113747675 4.770594395332836 0.0
5.013422223730484 4.793321773780133 0.0
8.58674425943957 0.9312335381466886 0.0
8.776450596582496 0.9362399987293505 0.0
4.783496233934828 9.486061758876032 0.0
4.544176394620909 9.034071856445296 0.0
4.082330493623582 9.015765881393772 0.0
9.820867469965414 7.285959215547852 0.0
9.852697883440127 7.166089674802766 0.0
9.260999083164238 2.971390964911171 0.0
9.197701900169713 3.073162109379564 0.0
9.31960210441945 2.867465579641856 0.0
6.660951583415121 3.383363199709994 0.0
5.210469976037585 4.761678854423166 0.0
6.740780285297665 4.733615686805694 0.0
6.611362405615225 4.731958642073806 0.0
6.549091884465382 4.629620704100811 0.0
6.491761716522486 4.733409494449344 0.0
6.425259228542098 4.640546096196947 0.0
9.715556659367534 2.986725573570596 0.0
3.710524324925069 9.463213827486557 0.0
4.768537031214573 4.727001037865238 0.0
5.039413681704655 5.378508462165627 0.0
5.188746429211535 5.440476671296013 0.0
5.172214816037712 5.298914527247826 0.0
4.469063601436893 3.667917323494335 0.0
3.799121596584382 4.741629285988305 0.0
3.661085664896249 4.442847704416992 0.0
3.316563386321876 4.380147387454913 0.0
3.802087298647255 5.26743535640985 0.0
9.738116341343215 8.047178982429934 0.0
9.85106076399546 8.021725551312715 0.0
9.837581050304836 2.844176011307251 0.0
9.664579962075123 4.402853107737106 0.0
9.76433159763034 4.39807801415352 0.0
9.718924973226878 4.487825491046641 0.0
9.826405563645343 4.494594135148365 0.0
4.931068003413168 6.359330991212394 0.0
5.130175746947236 6.201075257041828 0.0
5.143884286052002 6.445382329515047 0.0
4.953395875296406 6.628748468717369 0.0
7.833019185167153 5.400347121613631 0.0
7.766636138801143 5.313240048256084 0.0
9.767038723422333 4.578090619166644 0.0
7.315369355237483 3.441501197259575 0.0
9.556068971301514 0.2347811136726856 0.0
5.733871280791703 4.444861510772459 0.0
5.828809543126846 4.569791247698539 0.0
5.986701526182213 4.562881783985375 0.0
5.912543327921148 4.692966271273211 0.0
6.052130330528581 4.682477327897978 0.0
5.773525984744635 4.697697018456535 0.0
6.121646311546238 4.572302645403103 0.0
6.182349700936326 4.67713231096357 0.0
5.846371383601797 4.808939734754761 0.0
5.117807918383606 5.974361363083184 0.0
6.256132501905665 4.575863546153224 0.0
6.324770064521816 9.645040261272253 0.0
7.345522892050965 4.12581088034536 0.0
9.338523512844539 4.854480276600515 0.0
9.286984287289403 4.959628690044808 0.0
5.676298026114105 4.589279806918992 0.0
5.631257891894775 4.722749088404111 0.0
7.970415275563177 5.621040275419208 0.0
9.565118337557308 7.081391220827488 0.0
9.626201005045262 6.980441083020495 0.0
9.733729506193331 6.979928568877979 0.0
9.684556253529976 6.887102896543928 0.0
9.780785815410074 6.890287441101827 0.0
9.740054813822885 6.794211367612523 0.0
6.462628988057306 7.629921412015864 0.0
6.692564520952154 7.473594130811262 0.0
6.927983108788191 7.570982428592125 0.0
6.899878641134941 7.329306734748538 0.0
7.117542472438434 7.416951094809493 0.0
7.089537168123128 7.186691566729968 0.0
7.296585396514727 7.275888419524222 0.0
6.879678873774065 7.097443005287856 0.0
7.063454637059129 6.967740076426161 0.0
7.329105042924355 7.496317641003757 0.0
6.867084781778411 6.878842928865059 0.0
7.494278796275744 7.351949197351029 0.0
7.462564159480594 7.150140034494138 0.0
7.644835001206406 7.21506678718646 0.0
6.682478929414216 7.008358327294905 0.0
6.449199855715812 7.365660640952548 0.0
7.548139855358765 7.57299228324251 0.0
7.008502809092701 7.844601794812628 0.0
7.371739019901781 7.707688433423657 0.0
5.665345294602155 5.290628720253272 0.0
3.987583013016546 4.486920698115711 0.0
8.893480480320447 0.7785000884179994 0.0
9.715485963651112 0.5955299613117169 0.0
9.761785841543585 0.7048670948649375 0.0
9.670304314877074 4.578896619304786 0.0
8.058509626083154 5.744161686650483 0.0
6.181795443628869 5.462040811515966 0.0
6.256771804808641 5.338464817889848 0.0
6.124070400983443 5.352376180901929 0.0
6.399679261813415 5.349186390888865 0.0
6.477776305607503 5.46505688468465 0.0
6.541624525938461 5.346017118512589 0.0
6.673064575428321 5.339051516933525 0.0
6.599301548842115 5.241958624987057 0.0
9.573774011620444 0.815274945835158 0.0
5.86493292693426 5.877588788523632 0.0
5.552663040119136 6.957487930464628 0.0
5.535080960199246 6.663033131707637 0.0
3.708603689392072 0.5979254716153909 0.0
3.31896983256719 1.188583855309964 0.0
3.895664898001925 1.128137111173669 0.0
6.363360407965353 6.032416442205533 0.0
9.445959758065749 1.070139246426051 0.0
9.50632172780449 1.214052376665338 0.0
9.441030033980638 1.325047485624912 0.0
9.295799464644857 1.341410624832976 0.0
9.184164107767781 1.461677744200096 0.0
6.407191016756832 4.407273313799791 0.0
5.544591888593027 0.7652641669375747 0.0
7.883090151006535 2.497506182548758 0.0
8.073420508370992 2.120510489750234 0.0
5.494822040671399 4.732314720081375 0.0
0.8986976806403217 1.464611451578306 0.0
9.536325549598013 6.83286654168725 0.0
5.972289519322897 5.727532110854501 0.0
9.82203607053145 9.443411729566549 0.0
7.263199949874008 7.064207941227515 0.0
7.233659553805083 6.853135694774254 0.0
9.793310082768443 7.072747972018893 0.0
6.734168931095253 9.67499220075154 0.0
6.941134861034159 9.382328333169653 0.0
7.285822522704258 9.443989747444657 0.0
6.576263515512108 9.333035011158342 0.0
7.160560566479093 9.127732577621245 0.0
6.218711947378506 9.298064908857533 0.0
6.432383355119106 8.980985203293491 0.0
6.795390278360442 9.046043538032663 0.0
8.54677014121837 0.1957422484480979 0.0
8.528696320820908 9.804850950580938 0.0
8.42644965647489 9.604735484095604 0.0
8.010239224104339 9.715048083583248 0.0
8.644359648763341 9.628432815860457 0.0
5.344212921686536 5.526744195650314 0.0
9.760936589662048 7.38409687515441 0.0
9.128187788393989 0.1445485608215519 0.0
9.133307661752394 9.854833215426817 0.0
4.867351616228264 3.944459575003425 0.0
5.905323253270366 7.385600364255367 0.0
5.909045412185362 3.361969954191194 0.0
5.80580919758911 3.569999290452344 0.0
5.578230704221431 3.587842862412673 0.0
6.013352753603037 3.550699073477782 0.0
5.936624955014758 3.721630401607248 0.0
5.735413275357409 3.78528948606432 0.0
5.512538847486775 3.794760621907932 0.0
5.360571639388366 3.618649018042938 0.0
5.134141179590394 3.459385929220745 0.0
6.167399567008798 3.367365990358096 0.0
9.766756262206602 8.291756450136036 0.0
5.486063578307141 9.64505925252771 0.0
9.497624614180321 4.328873442170357 0.0
9.811387324954623 1.570516917365688 0.0
9.389210081887331 4.69150887571586 0.0
9.704395728912932 3.754226393630331 0.0
9.808172776193384 3.748784464356272 0.0
6.549660911932182 4.839747932361234 0.0
6.757415124099031 6.077939876843736 0.0
3.805578542126494 8.040840085419626 0.0
4.232580149691158 8.198659880701744 0.0
4.559765382564095 7.87091698350757 0.0
8.3829075948167 0.9495097054886067 0.0
9.8571301061408 1.456307792614791 0.0
2.005900212453279 4.535525273813588 0.0
1.85904408608185 3.956445706785572 0.0
1.979307922430775 5.474327285927505 0.0
4.387923194305381 4.427191306527721 0.0
9.429258370703248 8.873693567695483 0.0
8.99196583083892 4.664567567015693 0.0
3.050357122593155 5.368999067452741 0.0
2.861107385476722 5.785089447130829 0.0
5.005058958272409 3.711196438448062 0.0
9.8972295764837 2.755337284632969 0.0
9.581048890980513 8.853909321617065 0.0
9.668838904423916 1.762418716497425 0.0
9.716576458425756 1.852218615166234 0.0
9.799043132681442 1.780583141193779 0.0
7.661868217848455 2.880323287492419 0.0
6.780136552904057 5.443858690999834 0.0
6.489544866845868 5.913957888434588 0.0
6.880149522020364 4.134257616716107 0.0
6.970134365280068 4.264072319341612 0.0
2.225481516813409 9.348422240784 0.0
1.843418032490818 8.641605249943353 0.0
2.198000805242772 0.6459947140825729 0.0
8.740020306282506 0.1903932731609072 0.0
6.86957996016679 4.720776242956433 0.0
7.430920333506809 0.2702852342693345 0.0
7.302066064947383 0.6134316505458445 0.0
9.305398039877746 4.64854361125207 0.0
4.078151380865065 5.203425462519088 0.0
4.080704120371218 4.778853303303787 0.0
8.052525541571825 5.965483159581719 0.0
6.367194027835946 4.754896037842673 0.0
8.604191121620719 7.648182513679963 0.0
9.546446695207845 9.234701521982952 0.0
9.018652854946867 3.351011585453845 0.0
9.143853648154607 3.350173119015413 0.0
9.067079866763024 3.245174561579149 0.0
8.991492136849105 3.135578770028028 0.0
9.29603967712795 0.1426516429033488 0.0
9.392428271030795 0.2506306237151588 0.0
9.223973843394301 0.2912279164401488 0.0
8.39375191941536 3.018777714002827 0.0
8.4836475746111 2.88135207267795 0.0
8.741089053946197 9.821127577434911 0.0
9.803966507713174 5.448064463539533 0.0
9.748132240148552 5.359371181503531 0.0
9.850258990973547 5.355211921626304 0.0
9.7965346514158 5.266762244994661 0.0
9.84142096963129 5.171050273734619 0.0
9.738843612428232 5.167483913244169 0.0
9.64168976006725 5.359875132194057 0.0
3.335917453809221 5.671837672982919 0.0
6.962669142802881 1.683222554707996 0.0
7.365210844496719 1.887492842536114 0.0
7.517378971174123 1.677983072937792 0.0
8.00383870208024 6.089394601875145 0.0
1.725435941000569 2.759295503019395 0.0
7.907977929549089 5.102827208603365 0.0
8.052861051278896 0.2683271125209605 0.0
9.80169732768395 3.385443381464333 0.0
9.831597648680848 3.28491948963525 0.0
9.736335895866404 3.316207814499244 0.0
9.597256128490281 3.756160701977744 0.0
8.865819925321706 3.366235906378775 0.0
8.489614436807788 1.757152185195495 0.0
8.88089641144391 1.078983279100314 0.0
7.430923851187758 9.724389499796425 0.0
7.584252919312249 9.509430586267927 0.0
9.744026095940516 2.247117754488748 0.0
9.729961521243718 2.659836747108116 0.0
9.790866569780063 2.558993767350471 0.0
9.736606445116795 2.455104424879619 0.0
9.846806182714698 2.452157456754448 0.0
4.518102112052724 5.141350889745285 0.0
4.519880229178207 4.85678334497067 0.0
9.7302407894617 6.434012603549242 0.0
9.787537474544765 6.523591663056312 0.0
9.744262337067932 6.617499601377625 0.0
9.8406238811518 6.41591236129004 0.0
8.914967252734657 3.579360039684312 0.0
9.154797282599406 5.670753066089419 0.0
4.228839454580575 4.612979739018002 0.0
6.095037541675208 4.42126627187728 0.0
9.304166983880842 9.864854494751789 0.0
9.406445527105628 9.759007358529582 0.0
9.256225114941945 9.700832989525724 0.0
9.796206564635622 2.351215649506205 0.0
9.849373673349081 2.25090453834006 0.0
6.332048155295931 3.511675163099286 0.0
9.069679774213784 3.022879178706259 0.0
9.070599961450037 9.055284879641471 0.0
1.808685691036764 6.331557276533421 0.0
7.120156826652838 4.698481230214924 0.0
7.052894345811342 4.799848851879358 0.0
4.739957520484086 5.369107149361242 0.0
9.389197839958292 7.197139943834638 0.0
9.046688232613976 4.560364044038737 0.0
9.162685461967492 4.562194096410666 0.0
4.227377821420887 1.564128177298305 0.0
9.201090975245227 2.794301402811909 0.0
9.251941624303948 2.677556975242327 0.0
9.186758273070138 2.563916005021366 0.0
9.317609833868786 2.560335260954038 0.0
6.57599191748324 2.437689779955877 0.0
6.305556560534859 2.459112595979303 0.0
6.981058048792093 2.642476994448363 0.0
9.886113463139504 6.510498309609482 0.0
9.250462794607717 6.221362629571698 0.0
9.305373999084068 6.108271307139882 0.0
9.390477915810829 6.228015172491477 0.0
9.44452571968143 6.114582165110393 0.0
9.502105740270528 6.197677857389309 0.0
9.31559697209813 6.331647407124485 0.0
9.370938253597153 6.437386206819511 0.0
9.594764406124872 0.1099001288712305 0.0
9.602872681151728 9.894988341116305 0.0
9.622661196143387 8.076680696281343 0.0
9.769069277144705 5.9102532189237 0.0
2.615076109785583 8.807551523115547 0.0
9.658920005405456 5.730890135691177 0.0
9.76063135061807 5.720703211793342 0.0
8.63963723169499 7.177334225227945 0.0
7.841904391869763 6.41346852896409 0.0
7.764520718520185 6.297267738834625 0.0
9.546492996136271 3.465225175657335 0.0
9.25600964352143 2.219157062786616 0.0
7.625057159226293 7.012987957636062 0.0
9.529121062829038 7.730283486008674 0.0
8.329887090625894 3.845190321147069 0.0
8.265841850823831 3.95687001944245 0.0
8.402006523775544 3.947660780406651 0.0
8.128436391670505 3.968543393650448 0.0
8.46705122470662 3.835767362024195 0.0
8.218867047074696 4.063481375518748 0.0
8.089763413611255 4.08062363292928 0.0
7.939578083855268 4.111915744184436 0.0
3.74991304509639 6.615676756107112 0.0
2.627714335615619 1.170993030860914 0.0
7.046129971268607 6.759930788612616 0.0
8.534603732661887 7.486325780553722 0.0
1.569381386467569 2.042794535871475 0.0
6.228703743210918 1.986421863690014 0.0
6.467030855792859 2.67190498312861 0.0
9.272246093269825 1.975478263632296 0.0
8.05269609263041 3.854522845257449 0.0
8.008595521536957 3.177870309354594 0.0
7.929796740504207 3.350600835935766 0.0
8.048703574664067 3.449582532910417 0.0
9.72947480375618 4.973926800124758 0.0
9.784850360535604 5.072865219810449 0.0
9.896036387646596 5.069261557893528 0.0
9.633140953203334 5.168645132864771 0.0
9.558102991128836 7.602453108835212 0.0
7.278758746505716 3.994295887299482 0.0
8.306681733482405 6.936428510427854 0.0
9.487163072013963 3.757777670075558 0.0
9.532950522284125 5.359403698944497 0.0
9.816036650072329 3.927268437107025 0.0
6.173882586235392 8.734645960664665 0.0
7.972518459433741 5.003005338485466 0.0
8.398453459336153 1.601072016988848 0.0
8.97460527296194 4.040886705742754 0.0
9.037941657530773 4.143578781749325 0.0
8.849604200183613 3.828506169652706 0.0
9.545296177100065 4.042698359132156 0.0
8.595941796785514 5.806754902023664 0.0
8.65588412428292 5.694192853853139 0.0
8.723710665131787 5.801528918332044 0.0
6.861288985046249 6.673713222735126 0.0
8.87477249219366 4.664500928777609 0.0
8.72385765226959 3.608276264790996 0.0
7.145228858696953 5.573648565429618 0.0
7.282945121585866 5.558559688509987 0.0
9.224761401603633 1.602363370249125 0.0
9.609115686587552 2.986868833620756 0.0
9.633989947851914 6.628120633848649 0.0
6.046214325132457 5.45615093027661 0.0
9.017014346798927 5.271996636983457 0.0
9.070824864071271 5.168510834798647 0.0
9.189021391555556 5.166867900487267 0.0
9.123328759137758 5.064718588163964 0.0
9.240587446378079 5.06459430516883 0.0
9.250848280531756 5.267364371053135 0.0
5.773050603406019 5.7192906317521 0.0
8.576466432793914 4.3559007860436 0.0
8.634627802680399 4.253467736542067 0.0
8.461790117175607 5.591735227444779 0.0
8.907610717370224 3.713397213891439 0.0
9.80665594564509 5.628066492225966 0.0
8.985935132601089 4.455263493464225 0.0
9.00640209566022 5.067597672073404 0.0
9.833659276096986 6.976519563917422 0.0
8.0283368553477 4.687271895436317 0.0
8.326580191759327 9.127498457128247 0.0
8.650637373791266 5.07513089931925 0.0
8.701067313435203 2.700069743477523 0.0
4.825307249916392 4.884175191874744 0.0
9.418335984190309 6.858444798015129 0.0
3.91434687300816 8.542956908935874 0.0
5.569239724399552 2.064135034637056 0.0
5.234271567762738 2.128974435011933 0.0
5.757920427527626 2.312422707096966 0.0
5.43365689737979 2.427455772745759 0.0
5.673210219624612 2.602111218343444 0.0
7.214258468265766 6.652783071431555 0.0
9.823626269633962 4.30685540664529 0.0
7.96996639420014 4.794005510174826 0.0
7.616003332725032 0.502676560965646 0.0
3.050634530589821 4.659174799474146 0.0
2.870894249800723 4.246924313393336 0.0
5.285393339952368 6.079037173753393 0.0
9.439954241218905 4.23581687956071 0.0
9.67709722097145 4.710772408106511 0.0
7.40767785509217 4.259947873553335 0.0
8.396202587439676 5.486075637998701 0.0
8.323689688705493 5.372061002264632 0.0
8.191312386254125 5.384662546230823 0.0
5.304380054816289 5.369675374029755 0.0
9.093848379546637 4.047647920840374 0.0
7.916313220758624 3.045043876114836 0.0
8.435854831444637 4.144861908356168 0.0
9.060262453079693 0.7340576053322918 0.0
7.053195520344596 5.238809779682351 0.0
9.621762679347093 2.45205452967588 0.0
8.410730269104743 5.287995309529392 0.0
9.655094569234972 3.472720279371932 0.0
7.982140513923982 6.667914768024983 0.0
8.402690325256646 4.883576657130221 0.0
9.17488654147479 4.962006474835693 0.0
9.013188196102961 8.49700148123058 0.0
9.795977244531603 2.156818021002043 0.0
9.893813711206834 9.545820400859157 0.0
7.965349232662289 4.250048884270795 0.0
8.644264557989125 4.874751532150782 0.0
8.215430976121077 1.26077208565765 0.0
8.379717637669398 8.37324652769609 0.0
9.320026533461409 5.559861899725609 0.0
7.885778178744864 0.4977439426642278 0.0
7.547066983926719 5.125166613071239 0.0
7.657542898944819 5.122996245335209 0.0
7.423918840193691 9.000935553397358 0.0
9.854133000712425 5.541931969512857 0.0
9.328508174398952 2.101486405523264 0.0
9.300749600926641 9.530012105354274 0.0
8.130307182491519 5.277079344947874 0.0
8.346752967392757 4.987627363826086 0.0
9.118404185029991 6.007087846617186 0.0
9.048232213728614 5.89431792713258 0.0
9.088340967655858 5.576242562571367 0.0
8.094762487139027 4.789727191449318 0.0
9.915265904493378 5.749591413470928 0.0
9.92169805280126 6.154216704502091 0.0
9.918022441582268 4.549125436287157 0.0
9.919332362905616 4.849536560132457 0.0
9.914800786693318 6.750595509794719 0.0
9.811792900437824 6.703950687575952 0.0
9.900643083988882 3.749855087409844 0.0
9.912423171222734 3.043228996968949 0.0
9.91892875832665 5.949999999993851 0.0
9.913300070218703 3.960831593817277 0.0
7.709347001661226 4.444236534782706 0.0
7.479443107717332 8.071637285053104 0.0
8.839057072155848 6.807845119358974 0.0
8.972330068019902 6.78765448182788 0.0
8.542093772125282 3.941452413628317 0.0
8.279144752968262 5.930387616620717 0.0
9.393455876855919 4.973162505621418 0.0
9.507123333872533 2.855087674515822 0.0
8.77504684283825 2.317347145885344 0.0
8.394133129040345 4.464046960801843 0.0
5.725509852450801 8.210843960481027 0.0
5.62632390239664 3.967637659758752 0.0
7.910815814627989 4.900765971697654 0.0
8.595808444085467 5.590040244353608 0.0
9.705160502006024 0.8106158419444889 0.0
9.82021247904746 0.808810893177099 0.0
9.218352146075844 4.447736986422823 0.0
9.20781892622228 3.858281726888132 0.0
8.713609974387523 5.178241668554946 0.0
3.55755059259364 8.921522400238844 0.0
9.59122926011489 5.452844834281716 0.0
9.70565100407009 9.77887811062354 0.0
9.826938454219809 9.74303055702321 0.0
7.238962096855633 3.278078153406256 0.0
8.575609105166194 4.567807831727537 0.0
8.936449841121737 4.765835458965493 0.0
5.59323463391086 9.248527978398117 0.0
5.280809113285124 4.886132326418428 0.0
9.328132730893216 6.544753806716806 0.0
9.026944889277736 6.67247283515637 0.0
9.81946239021469 3.007926663525007 0.0
8.677633568960493 6.144049349297466 0.0
8.33427489656924 4.571212803519522 0.0
8.55734024448315 6.382535186588269 0.0
8.692399379422756 6.372347713955898 0.0
8.495817478252626 6.503308565233578 0.0
9.905494734661673 2.544078755559835 0.0
6.177101405266569 7.228490244483556 0.0
9.825373011845263 5.807482724503027 0.0
9.808678508609606 8.118683092442964 0.0
8.397717712407108 7.08010313863416 0.0
7.428555529689225 4.935946611338556 0.0
9.575504958128711 6.125633853639113 0.0
9.154066996197898 4.146562596982661 0.0
8.074381802159323 4.337569667261167 0.0
7.018337246891919 8.843475095716133 0.0
7.970627172560641 2.658650028065857 0.0
7.382546388883145 6.723381543491632 0.0
6.822972334933889 4.884555620881615 0.0
8.343732976791593 6.041576709398377 0.0
7.743680217306919 8.423336160305476 0.0
8.505717922983454 1.115022897794028 0.0
9.113973198216474 6.992972408167606 0.0
5.818882632841168 5.300437503812764 0.0
5.951991891717714 5.279516346785062 0.0
9.450183479138845 5.92934813870612 0.0
8.783346541536119 5.48419035750989 0.0
9.38074895894124 5.65076274999803 0.0
9.513658728876734 7.193620441323493 0.0
6.396040948797887 6.776064256962667 0.0
5.389661780244388 4.89715084345563 0.0
4.473247649068957 5.85935163892416 0.0
9.249586607512612 8.37680799459232 0.0
9.103796366487646 8.379197231055114 0.0
6.274057301184156 4.87985402946409 0.0
9.259628836118232 3.561431822636308 0.0
4.037922477011971 5.489409780163391 0.0
5.62712958624254 4.893925433488392 0.0
8.806426003347967 6.133410188141932 0.0
9.53304466499349 9.59279975429444 0.0
9.542890959420024 1.966631379116419 0.0
7.459736176874619 5.863847835420528 0.0
5.937613117200432 4.89232797168023 0.0
6.171611131472617 4.879541833448487 0.0
6.100695199816815 2.291172318314745 0.0
2.315194906726768 8.081958163666464 0.0
6.878489987598286 5.148099521847569 0.0
9.105264414399338 8.639184652727645 0.0
9.20047261316883 3.457820810661327 0.0
9.895329010385955 7.55944047105717 0.0
9.912742873006831 7.76210330502246 0.0
9.37761459375249 3.168397068877758 0.0
8.946121261512507 6.345629828835438 0.0
9.918632496443566 4.449809517365367 0.0
6.848211525651934 5.945010613369067 0.0
9.915721525903255 2.047407395915179 0.0
6.117255841708726 5.163321965161054 0.0
7.276595248786602 5.347247322210079 0.0
6.32682869954104 5.23674259421017 0.0
8.785886448438022 5.692775375342819 0.0
9.099994401883361 6.776698531382792 0.0
9.913397459621638 0.2499999999998165 0.0
9.910352525643928 0.4481571029410266 0.0
9.907850422008579 0.5479735220323012 0.0
9.911983631350465 9.24778487019403 0.0
9.917634740384067 0.7514684821956668 0.0
9.195214232985496 3.254172408378337 0.0
5.000896927376288 1.846006038077654 0.0
9.917172478547403 8.250155740683276 0.0
9.908120476950126 1.742986232208194 0.0
9.914524635720774 1.949567899316728 0.0
9.907358878377153 9.145625165175748 0.0
9.917695944922635 8.949999999998397 0.0
7.648387553139914 5.325741673607362 0.0
9.605343588986079 4.130627398479715 0.0
6.648113233057817 6.774798386229164 0.0
9.910347203087213 8.446729917003672 0.0
9.913623694530468 8.548470085896316 0.0
9.9201245863254 1.536225488581779 0.0
9.906538426683255 1.059019360781604 0.0
9.912867352010919 8.74999999999809 0.0
9.799662981388353 8.79550485462418 0.0
9.831828680383174 5.99966894118311 0.0
9.91414179906643 1.263025320602998 0.0
9.920690092699912 7.240982963665807 0.0
9.385889285950551 2.235126904097426 0.0
9.28133998925606 8.00415195851526 0.0
9.817074723108401 3.172398890123306 0.0
9.482030285089927 7.512954023388035 0.0
6.682432918504054 7.233889573028878 0.0
8.528699633246763 3.260502457553277 0.0
8.91699963742029 2.327016692708648 0.0
9.267676068834481 3.954520684561369 0.0
8.70811637467455 4.974101624783084 0.0
8.18184214270768 7.816666208279135 0.0
9.690393137288163 5.264344933127836 0.0
6.937111790104696 5.245184991960528 0.0
5.895846026722989 5.174232967273284 0.0
8.281683356622615 6.400073017261236 0.0
9.150883172924027 7.444273543454419 0.0
5.430406600793122 3.390815886517273 0.0
5.049583827974758 5.697634876048387 0.0
8.3966710383105 3.495813899905868 0.0
9.007538428392454 8.046563579784266 0.0
4.645155158868719 2.637132843684674 0.0
4.887444326771336 2.30020425915506 0.0
6.483736782775559 4.522536327482678 0.0
7.843169154548308 8.2116075844056 0.0
5.06295551628385 4.901632590583318 0.0
7.201400991012747 5.138239336380897 0.0
8.519791031104612 8.848807089071627 0.0
8.658623737989732 3.031313729049854 0.0
7.585566208322493 3.629882964874684 0.0
8.411818469596405 6.834326722716643 0.0
9.172363528634236 7.669230647622864 0.0
8.85455683341768 2.682483055215344 0.0
9.359398739738925 1.631421337140716 0.0
9.071793864444992 7.337030604117359 0.0
6.968394563521436 3.712808894519514 0.0
7.899236117684646 7.094583340182754 0.0
9.54362864504834 9.781852543872333 0.0
7.151298729743687 7.644795130415299 0.0
5.452218361466201 5.186873761308322 0.0
5.517642289161902 5.293540933999446 0.0
7.802500357665464 5.978295671754199 0.0
6.594850839687122 8.491429270558893 0.0
6.029132431949566 8.294997405201931 0.0
9.31286590869111 0.5672913838331921 0.0
9.25238720319541 0.4415953739444106 0.0
9.550589523211062 4.228044955453704 0.0
8.748611832783206 6.250900951984038 0.0
7.566980108995873 3.995148257893202 0.0
7.426142759241261 3.996743578498081 0.0
6.478912513785404 4.000296412419969 0.0
9.30435638148753 5.168210982711592 0.0
7.542154188520517 5.752525075248498 0.0
7.219033852073297 2.139582470800704 0.0
7.370913620388047 6.545121498197235 0.0
5.226731036024996 5.187572666585561 0.0
8.515591031124366 4.462223215179979 0.0
6.762864307079274 0.3078036604979366 0.0
8.587432696997471 4.977010533175154 0.0
8.703948448756302 8.815629076400704 0.0
8.081003990931544 7.370949680119862 0.0
7.424404567669909 6.949730915714445 0.0
8.578903262311433 8.377992954045473 0.0
7.301258690263783 6.106184350645308 0.0
5.991600556904204 3.99820087171043 0.0
8.203048538477193 1.601044215405025 0.0
7.289972483120081 4.572350254111052 0.0
7.714697186439165 5.420586967696794 0.0
8.918853780709807 1.841796898567452 0.0
9.919941345877513 4.749808449067644 0.0
7.245589454939737 5.94251251443003 0.0
9.258480524497795 3.358952871140391 0.0
3.705877615124628 5.574038727593425 0.0
8.287096858129765 7.962370605242409 0.0
6.799629860952143 3.705385600481528 0.0
4.146753450763018 6.544154457143895 0.0
7.413973555029582 5.545687501585183 0.0
8.466524978378082 4.980481756569235 0.0
7.336312153537934 2.337983522449311 0.0
7.695505222753409 3.747498713679684 0.0
4.898236813123799 4.795853653580084 0.0
4.59779105899602 1.896916774247134 0.0
8.560170375862322 7.072369101894893 0.0
8.386150468360862 2.449771437140704 0.0
8.41200018115259 5.084601315536367 0.0
5.102189912301071 7.621598618277815 0.0
8.336320418935243 6.71651223072348 0.0
5.081745734883095 3.977838926197614 0.0
7.63590698378166 0.9500570055008507 0.0
7.743369677149255 3.051233984704873 0.0
5.357527459690566 0.3809996753407537 0.0
5.967373112873382 0.7731113464301924 0.0
8.169449265206127 6.666271947462212 0.0
5.95122726745053 5.55758205410881 0.0
9.922289489207834 3.53923011719877 0.0
9.39154684476555 2.659037023454942 0.0
7.701415639167884 7.690060291860976 0.0
9.819179654793023 1.329863870021845 0.0
8.358229579054417 6.506108206863729 0.0
9.269720555169467 5.657096143475924 0.0
4.473187658045934 7.435037860084884 0.0
9.65807158077373 3.255496360750368 0.0
9.605155446454205 8.713645566904637 0.0
7.097383547728313 5.141197376985936 0.0
9.812212483832656 1.89920712759492 0.0
9.83875570675407 6.81603549325055 0.0
8.926246869879279 2.079976511571457 0.0
9.166785856141402 9.169070814302419 0.0
8.763479010228052 1.587152667342957 0.0
5.957377924852992 6.404530806530254 0.0
7.14506854375872 6.10342416684208 0.0
5.672595070581394 5.164323323112049 0.0
4.899782787268781 0.3801727265981219 0.0
4.447133848117348 4.673614099606824 0.0
7.044865074789195 3.253639989243549 0.0
9.818461337102992 7.819456450952447 0.0
9.925334577033155 7.954012377173311 0.0
6.352907898232792 1.173665225954276 0.0
7.351721385581032 5.660361289755705 0.0
9.337367583861807 2.76534436379692 0.0
8.693118347802024 4.360254099729149 0.0
9.476812970101324 0.3524826622168163 0.0
7.109868985890334 0.9024224571333925 0.0
7.899106846231403 5.511805431542581 0.0
8.352799544476607 5.187887629361129 0.0
6.957483547582747 0.6176251309213842 0.0
8.099559500483094 1.412323841044818 0.0
9.913030944540278 0.8542404645334569 0.0
9.143075088381442 8.022165366829135 0.0
8.819861450593166 6.356592599428041 0.0
9.319444417409162 1.49938505915629 0.0
6.490262520326714 7.118204362551877 0.0
6.490874470087819 6.582907761235813 0.0
9.82506653058937 0.6146757679104559 0.0
6.803129818897624 4.419048038171804 0.0
9.840901379354312 0.08198751964190581 0.0
9.839740374244226 9.918356239418472 0.0
8.551927134544655 9.449788917425456 0.0
9.92097857388158 3.249999999993177 0.0
5.797087413057367 7.077351493358238 0.0
9.255412859987286 6.433984412022419 0.0
8.668174522249984 1.740767926084485 0.0
9.920991430240607 6.25262219124529 0.0
7.57275248448898 1.94367954756322 0.0
8.052865444445507 8.19900054463639 0.0
8.748697149245206 4.25201068974208 0.0
9.158270227735827 0.5542256343091421 0.0
5.997487767477439 4.787924707603557 0.0
6.119759900601896 4.78043793682227 0.0
4.353034750397793 8.619182743639561 0.0
8.721093521611476 5.588932824583312 0.0
5.717101151444983 1.123034066822819 0.0
9.825602081347064 8.68753399402474 0.0
8.005502510832988 8.7824052910506 0.0
5.548184234622668 6.408009287230429 0.0
5.77830300433981 6.598697187164234 0.0
9.613093825495433 4.50282172481406 0.0
9.928981132641653 9.74928475696928 0.0
6.613628176297015 4.515513362596662 0.0
1.822126723816303 1.297795131355289 0.0
9.514164594137375 1.43081427463862 0.0
4.735494753432723 3.698541604583975 0.0
9.52844959749262 8.615213629960298 0.0
4.660704511759056 0.7947595073298008 0.0
6.82340845160293 5.239926830264399 0.0
7.885938077030673 7.380147032865134 0.0
7.884599891021201 6.09005968568029 0.0
8.846834820720167 9.653276456345532 0.0
8.457777199486827 0.3851010632068662 0.0
6.66485224572131 8.771510767670392 0.0
9.091499342133352 9.708315832477556 0.0
9.824286725109655 4.976315293637262 0.0
7.848197684391786 5.632217046637356 0.0
3.88430598115417 4.225391362015386 0.0
8.776890759183289 2.809688928468134 0.0
7.393884285023409 3.59397875231041 0.0
6.927568893329758 4.396788356869783 0.0
4.96854327720728 2.662368428358774 0.0
9.1480130720193 3.951479613991279 0.0
7.071049729490975 2.38092990636632 0.0
3.40193058782919 1.686321186206593 0.0
7.612042194200681 4.815904436723407 0.0
9.043395868401339 6.888481825015849 0.0
9.098933057562759 8.152197681006806 0.0
6.058682303253315 3.857501492181965 0.0
3.707092669281355 2.986685502034343 0.0
5.113272509841263 5.189455016444592 0.0
6.960565857079232 3.416349532571279 0.0
8.755151527375476 7.649255597361291 0.0
3.393680865444538 3.679982303262531 0.0
3.117424600120088 3.35605258976247 0.0
8.530814041264104 5.488376426140491 0.0
4.820719767306654 5.106646490188182 0.0
9.918899263509473 4.144927088739744 0.0
9.918194630017027 7.447268230913605 0.0
8.461970084137805 3.144844565847669 0.0
9.924415919486059 6.949999999995354 0.0
7.184050152099684 2.72771667662237 0.0
8.834356715215904 7.801565642745232 0.0
8.689015446783005 4.145232831954543 0.0
8.490778532265319 8.234414357968106 0.0
8.63666290918932 2.83060276219705 0.0
4.61028976098935 4.741894230894578 0.0
6.314735925012879 4.003132559161639 0.0
9.20786580425652 4.67001723737971 0.0
7.141401229301469 4.873205425098625 0.0
6.235177809922153 4.774126344778935 0.0
9.12491895896937 3.145675090615719 0.0
9.255747684068178 3.162525801823036 0.0
8.312852272796098 2.290855459722148 0.0
1.449266720542303 3.363629101350872 0.0
9.525687840398492 4.800807314407045 0.0
4.829905263804087 8.14474456977717 0.0
9.09338914689732 7.563794106183232 0.0
5.389401689694107 5.283808684471545 0.0
8.530979415204587 3.029374286908943 0.0
7.901489077080633 6.535344047486632 0.0
9.218572924671975 5.760893551533255 0.0
8.562382833959296 4.143913974026883 0.0
8.62959127904665 8.974877485888243 0.0
9.408442441596518 9.62276529745719 0.0
7.5034765601713 3.869833107932387 0.0
9.842813436634783 6.600620949014236 0.0
9.826116984327193 8.911617279149695 0.0
7.529907780698261 0.7369111006685982 0.0
7.832164962480427 2.905293639437395 0.0
8.39517908433056 3.267417602291069 0.0
9.823014010107707 9.085319632577246 0.0
9.022314123618541 3.944559746338292 0.0
4.243701230676532 5.332574856090426 0.0
9.816740542566388 1.127839952679595 0.0
8.166775715766304 5.693916696568397 0.0
8.865374421689054 8.068986769641638 0.0
8.761145809863661 6.470583506581853 0.0
8.998345275919851 9.209303502026401 0.0
9.698477487436316 6.706902829754045 0.0
6.439032098063426 0.3109134377713525 0.0
7.562681994382136 4.643158005207056 0.0
9.03999088074715 0.2799354672273258 0.0
5.180741540467516 3.805018725608906 0.0
6.243990330956698 2.718077286244967 0.0
9.79416634023361 0.1815240178579244 0.0
9.926540005061975 2.847049370876555 0.0
9.826476210374608 2.670192168078066 0.0
6.365816673179121 4.536333049275508 0.0
5.546353765219417 4.618331215552614 0.0
9.820703096450293 2.000649418331399 0.0
6.884388790679166 3.561583980715254 0.0
7.431303395649604 5.747824222777201 0.0
8.849816832721245 2.19318290395604 0.0
4.185147517585975 5.697469360586313 0.0
9.165905238119013 5.873664931582344 0.0
7.70479478158537 1.788324620089049 0.0
9.627376046933474 0.9196091445437269 0.0
6.657687963328663 5.144792385996769 0.0
9.83245016645186 0.3925568446109945 0.0
7.483092985762584 9.253837199159435 0.0
5.445348362202234 3.977855663863651 0.0
7.476680532833337 4.837183287808616 0.0
9.572749890969304 8.505160319814301 0.0
9.915853314998252 9.437014513917465 0.0
7.679469018350979 7.390484878021194 0.0
9.418139053434402 4.790576000488359 0.0
8.096967733471567 5.865447162201908 0.0
9.829153508938724 8.378494945652118 0.0
9.926595955569645 5.157718300415699 0.0
8.774484245600224 7.939747459426853 0.0
8.629764448155779 6.481031318922794 0.0
8.961169458302376 3.839036702328818 0.0
4.617199205561317 5.256318959792646 0.0
8.480815774219478 4.031210317621497 0.0
9.708341592512763 3.401018043990571 0.0
7.183974816647467 4.77882314543966 0.0
9.821437962294304 7.659391965474772 0.0
8.150320284869602 2.286501016204562 0.0
9.828114434347311 1.684891358832554 0.0
5.349187766238684 6.538177907133678 0.0
8.076053471314525 2.76180604769483 0.0
4.907713691134565 5.29818629967416 0.0
0.6874399366049438 4.328593906714074 0.0
0.6980011780697519 5.702671170050627 0.0
8.263861466707834 8.182284285231713 0.0
5.838783785156478 4.913981390426639 0.0
7.807619472656604 7.235706382002089 0.0
9.388504256318683 6.022122644748753 0.0
9.929839894767033 6.436189192303577 0.0
8.3205848711706 3.39107920408397 0.0
3.240770542267401 4.019899919523968 0.0
8.059047070496568 2.468855909103855 0.0
9.932479519490421 2.449625056415224 0.0
7.737639000139152 4.580708137963557 0.0
8.26141077223695 0.3940397126348397 0.0
9.69568953371801 1.959951226402445 0.0
6.469120930453264 4.892267070266994 0.0
9.167223997255698 0.8102256463122337 0.0
6.236889648241256 0.9291076084031108 0.0
8.306379082772498 5.268830342852036 0.0
6.716089118890225 5.239344620507032 0.0
9.82511981852641 9.282822358664017 0.0
6.68375719572285 4.404998642130821 0.0
8.913754712375674 6.908138360584365 0.0
6.173250048857013 5.251634416326969 0.0
4.235907497612446 1.924052997345291 0.0
5.151007663981651 2.438629730660893 0.0
8.924254300637541 9.3764975797567 0.0
4.438612423541503 5.287968640901957 0.0
8.571203234299599 1.897009944569934 0.0
6.878800676380218 5.821332862798138 0.0
5.710626178601224 4.792560699857408 0.0
7.149510071621283 5.216310009157644 0.0
2.099966541549645 2.334742113488256 0.0
9.93396330620579 5.350566393301629 0.0
7.143046479323961 8.646955109387985 0.0
7.965747313080266 5.193641450105844 0.0
6.3314394693073 5.135050228240639 0.0
7.665821333021348 6.222698255001823 0.0
6.305321657053551 4.659816230868476 0.0
7.833020917089713 5.208837056143474 0.0
9.41455902676429 2.869725681199307 0.0
8.567151507735133 6.598605357295113 0.0
7.405527786978573 4.377085529441429 0.0
6.552969697053132 5.137148974085434 0.0
9.93630620742063 8.042778076596578 0.0
7.166743296019233 4.593171678848165 0.0
6.595561806063966 5.839366735225723 0.0
6.066152182102007 5.262519562574559 0.0
9.834694151277489 0.9093455747994099 0.0
8.98259191950674 7.579732466796592 0.0
6.465071238839505 5.25485771955322 0.0
9.759759896588413 3.236659507608532 0.0
4.775529448101694 5.224235675150505 0.0
9.935991245222917 7.153416415978829 0.0
0.6530736820718381 9.352299998916202 0.0
0.6449439415299687 0.6468300344151556 0.0
7.804690364869245 4.495816547678174 0.0
9.84503784553893 5.70620404704573 0.0
9.83525329400959 3.826992990746767 0.0
9.922964894244684 4.265000406933376 0.0
8.333767638401964 1.121219971446645 0.0
8.876012546033895 7.019147158538482 0.0
8.172413577824324 3.413096916572049 0.0
7.232233017296214 4.478957103028363 0.0
6.214597295185415 3.852860083673202 0.0
9.85013791746415 4.400709747289421 0.0
3.941627380932058 6.342995010255737 0.0
3.097271569675528 8.77391871286929 0.0
9.292917152323044 6.010976049411984 0.0
8.104342196673183 5.184165973282902 0.0
8.994300084006271 3.652611812846807 0.0
9.937157897030163 5.549999999993244 0.0
8.721368888525245 7.274540720770752 0.0
8.920003648712827 0.9516585309368178 0.0
7.910527456030004 8.536826514867816 0.0
9.846441288756814 4.60515911863952 0.0
9.584942233925151 4.712073182517884 0.0
9.642357858573972 6.805672051759494 0.0
9.797024725252207 9.838837222258014 0.0
9.842451438022124 4.018973836958878 0.0
6.112723137676118 3.704473949316424 0.0
7.574641969193845 3.765362276156904 0.0
7.826594968121701 6.200366572362263 0.0
7.762805366733504 9.34009502796868 0.0
9.56854033867856 1.012566255816665 0.0
7.71256563655353 5.219373702836014 0.0
9.68039392238282 8.786964504862018 0.0
5.910362452777086 9.277662068919813 0.0
7.418090653922814 3.326443419100716 0.0
9.857704179097952 4.697553149694669 0.0
8.452469674653342 8.996585816905599 0.0
9.522351366699843 2.057525484575908 0.0
7.802315574700843 9.548878971475935 0.0
9.938875656926385 3.449999999992592 0.0
8.425189037911712 6.608575180629274 0.0
5.925965231566842 2.523669697740033 0.0
6.654918072256329 5.95749128982984 0.0
9.826748589235729 9.631118448471485 0.0
8.6684585637523 7.39633999085442 0.0
9.844673843931567 3.090088625379724 0.0
9.93613850661301 2.250382721159617 0.0
9.218291993658738 2.892108990205171 0.0
9.83502846611296 8.212781989607324 0.0
7.754136409732265 7.104288507262783 0.0
8.510570542791681 2.036933285735889 0.0
7.757745059307245 4.315798612475442 0.0
7.989231770559189 6.201656630465583 0.0
8.068934521422738 4.198631572122605 0.0
4.957478134450373 9.038766150325067 0.0
7.208661142641733 6.501402463831379 0.0
7.299506095906239 4.363561999234681 0.0
8.250303873550486 2.105322217421675 0.0
8.678637541413377 7.053471135702286 0.0
9.761528395137384 6.163503990672834 0.0
9.84494857233395 8.59999999999775 0.0
9.83825138794677 3.672838954969637 0.0
5.121008544047756 5.808127183024784 0.0
8.343911550360986 4.043535893276861 0.0
9.85324441775315 5.899999999993774 0.0
9.51114465213134 8.41035540646284 0.0
6.505812179224195 6.93390566262983 0.0
6.15572847138365 9.023097246950844 0.0
3.352081892333425 3.024853379890529 0.0
6.433163283162099 8.675072413910678 0.0
8.825744236698243 3.624446391299867 0.0
4.883007294861279 7.819620905924936 0.0
5.876659170760434 5.638247433601083 0.0
6.859400040348503 6.510797998354633 0.0
7.946400945409184 3.500317276373196 0.0
7.496830255505493 6.653194511698024 0.0
9.852183479755313 4.891525833556942 0.0
9.77998778436291 2.922486526124376 0.0
6.774672660492365 5.324728659740495 0.0
5.717254072187427 6.824125962512845 0.0
9.713440940838062 4.63793103997539 0.0
8.859858662536796 0.2721395536350836 0.0
8.37556017530946 9.436653414116012 0.0
7.395237381047616 7.885576562773319 0.0
5.4709157802033 4.511152089197594 0.0
9.489749416979361 9.691840729914848 0.0
4.599216022837964 3.46438688931078 0.0
5.572287492757569 4.807021644849729 0.0
9.926499336309957 9.92730688390086 0.0
9.926499336310107 0.07269311609890093 0.0
9.338127766332573 0.3585313952168247 0.0
6.810761948165162 3.414693294319008 0.0
8.166274345037138 5.943611545564389 0.0
5.2892644736731 6.301081312912763 0.0
9.731911074791544 7.649313380659622 0.0
8.90251102352767 9.50983415326544 0.0
8.997881406541017 1.033666784655452 0.0
5.835124768755703 2.738139962594905 0.0
9.665357480775825 6.185331297099201 0.0
7.656532192558493 8.217157287499347 0.0
9.170463887605525 2.975444721032631 0.0
4.208158615905443 0.8648302238584886 0.0
6.97015686031129 5.933674629077266 0.0
6.181941366523793 3.565885175921835 0.0
3.30313590337911 6.393402837735046 0.0
6.447482061767014 4.816169316820496 0.0
8.185341428749446 4.169172087371246 0.0
4.552595724340015 8.298301336212145 0.0
9.84850676569699 8.999999999998423 0.0
9.846941514449377 7.393642828194986 0.0
7.924592433490734 2.788309934035703 0.0
8.154308714226714 8.853640122009672 0.0
8.876629743004642 1.96110242719995 0.0
7.228849192966834 8.90811350348676 0.0
9.852301635085423 8.296637825215246 0.0
5.219795195341889 5.547413133147649 0.0
9.861497117995457 6.901363010201344 0.0
2.953911258021604 6.136007283255669 0.0
6.93158841067062 4.77708273647784 0.0
9.67540418457871 2.912802891506324 0.0
4.194055958522277 4.437353127730132 0.0
6.133959559341536 0.406856611599261 0.0
8.29952795189331 9.309744645643846 0.0
9.843692337952948 1.209647690818311 0.0
5.164986286280336 6.671544079402435 0.0
9.838533350075606 2.081705440779448 0.0
8.301244777513975 6.604088853319459 0.0
5.471494771710784 2.714598185146428 0.0
8.86534684892311 1.208599471795828 0.0
9.940610684232212 1.451558535868664 0.0
9.40896208432968 1.428353940655538 0.0
2.329177605337097 4.238803555614174 0.0
5.980761651517799 7.182207186682233 0.0
9.66541573964336 0.1719254072074424 0.0
7.220979380229172 7.806128737674462 0.0
1.251721227904697 6.151932667911503 0.0
8.104967286191181 6.057912607875576 0.0
6.650768762224724 4.817922869198292 0.0
6.634976350437587 3.213339182992986 0.0
7.034320437500567 4.898219100342838 0.0
9.502772020064167 6.283064492634301 0.0
8.13187938667684 3.518506862055515 0.0
9.855471943454193 2.599999999994991 0.0
9.056747742708522 8.263936599935574 0.0
4.352645795441222 5.724453640019 0.0
3.744263984699181 1.488951698361357 0.0
5.175860134287045 3.6375726667098 0.0
7.736434712114619 6.400417475661193 0.0
9.857658576695343 6.316607183405179 0.0
7.876525261950537 4.304285002335559 0.0
9.856114384785611 7.914602773442983 0.0
9.848334119947063 0.7059644476295188 0.0
9.59694321995579 6.895814046141667 0.0
5.906465212962551 3.869023950643881 0.0
9.840676994268005 9.364956386459765 0.0
5.355015287544095 3.83518170601625 0.0
6.374090407153147 5.855743754257685 0.0
8.227401290513832 5.297819733684674 0.0
5.451235131977493 4.825706629991923 0.0
6.022070213762754 5.355923882747634 0.0
9.845674433677614 6.108401449483281 0.0
9.835067400944396 7.739582406783081 0.0
8.602026805792988 2.941372356914139 0.0
5.059869081004962 5.269480960018243 0.0
5.284714507903736 5.26496663762182 0.0
9.627110479149561 7.660076105040499 0.0
6.820001127809743 4.792514421153957 0.0
5.120512795059439 4.806607659110254 0.0
9.56933817216883 2.911464407429096 0.0
9.74091654291531 9.267545397628387 0.0
9.93006767325302 6.576784040838644 0.0
9.642486276936268 4.650227701598451 0.0
5.185183328569137 9.410919109238325 0.0
9.37052946854105 4.605636695802024 0.0
1.677077220416309 5.871167715901136 0.0
7.345783833404538 3.184020711886284 0.0
5.419239942654976 5.982692039856376 0.0
6.133318300188262 2.551919945731369 0.0
6.187291396343277 4.499077117404439 0.0
1.231465237822878 3.921479198315213 0.0
8.969849937139944 9.699215363213542 0.0
9.218303154263054 6.037447959776716 0.0
CELLS 4886 19544
3 1113 1356 1450
3 1402 231 1659
3 272 269 1414
3 396 394 1777
3 1451 945 1452
3 194 81 1801
3 1847 1501 2104
3 2024 2121 2479
3 1115 1113 1450
3 1124 1413 1844
3 1061 1955 2409
3 307 305 1645
3 1592 1369 1593
3 238 1501 1847
3 1955 1883 2409
3 1808 243 1910
3 1885 978 2362
3 1440 793 2092
3 189 1488 1608
3 353 350 1864
3 2007 2231 2232
3 307 1645 2493
3 1096 1760 2496
3 2178 874 2179
3 621 625 1595
3 1493 1480 1938
3 1655 1268 2137
3 1341 1410 2212
3 243 1808 2360
3 1902 1446 2516
3 1760 1096 1763
3 856 790 2180
3 2008 2046 2105
3 789 1809 2067
3 694 1543 1575
3 1127 1762 1953
3 1748 807 2228
3 1543 1308 1575
3 820 1872 2170
3 1417 954 1998
3 1369 1592 2386
3 272 1414 1787
3 329 333 1998
3 1544 1095 1545
3 2231 1490 2232
3 1342 1683 1790
3 374 377 1797
3 807 1678 2228
3 1665 198 2128
3 141 142 1620
3 325 322 1952
3 231 1402 1654
3 198 1665 2010
3 1890 1307 2387
3 208 1438 1619
3 2016 1970 2156
3 1436 212 2020
3 954 1417 2333
3 1736 1894 2244
3 1491 1750 2143
3 1677 1064 2146
3 1474 1258 1475
3 1500 233 1930
3 1446 2415 2516
3 1700 973 1800
3 2128 2270 2316
3 1316 1315 1593
3 1307 2341 2387
3 2258 1324 2328
3 1083 1507 1508
3 693 1095 1544
3 621 1595 1596
3 667 1571 1872
3 1932 1766 2061
3 393 391 2240
3 1342 1790 2400
3 252 1707 2234
3 931 978 1885
3 1430 1116 1704
3 1411 1109 1714
3 1478 1227 2440
3 1990 195 2297
3 1792 1167 1985
3 1682 444 1975
3 394 397 1777
3 1711 2028 2162
3 1574 856 2180
3 2008 1851 2046
3 736 1493 1938
3 1069 1060 1662
3 1458 455 1754
3 862 691 1705
3 1161 1642 2286
3 1699 1700 1800
3 447 516 1637
3 955 1482 1483
3 2024 206 2121
3 391 1773 2240
3 1072 1412 1893
3 212 1436 2350
3 1566 1365 1568
3 259 1441 1672
3 872 870 1764
3 330 328 1889
3 1539 1161 2286
3 1897 1898 2275
3 1434 1990 2297
3 1109 1411 1730
3 319 307 2493
3 1762 1761 1953
3 1369 1316 1593
3 1540 834 1832
3 1505 652 2442
3 1732 1655 2137
3 921 1712 2295
3 1872 1388 2170
3 1712 921 2125
3 2028 244 2162
3 1506 1570 1680
3 1569 368 1964
3 1571 667 2375
3 1587 2178 2179
3 196 1723 1737
3 524 2016 2156
3 1528 1250 1733
3 1115 1450 1973
3 1938 1480 1971
3 1809 1396 2067
3 1641 249 2299
3 1223 1258 1474
3 1365 1566 2120
3 1981 962 2316
3 1538 353 1864
3 455 1458 1756
3 152 233 1500
3 1116 1430 1703
3 817 652 1505
3 1347 2003 2004
3 1607 1958 2085
3 194 1801 2195
3 1410 1341 2351
3 223 1415 1710
3 197 1511 2346
3 2198 787 2225
3 81 82 1801
3 1438 208 1620
3 1444 522 1823
3 1511 197 1950
3 726 718 1567
3 1637 516 1739
3 1708 2337 2341
3 1280 1649 2124
3 2337 1395 2341
3 1327 1709 2315
3 1225 1227 1478
3 691 624 1705
3 476 2224 2305
3 830 832 2204
3 1750 1491 2403
3 1366 1897 2275
3 2345 1583 2352
3 2054 405 2110
3 1984 2172 2230
3 1846 2198 2225
3 1177 2042 2418
3 2121 1367 2479
3 1527 1531 1541
3 916 1039 1834
3 1413 1124 2467
3 1622 1503 1868
3 249 1641 2019
3 1805 405 2054
3 1761 1007 1953
3 1415 223 2395
3 960 1756 2203
3 368 1569 2135
3 1402 1659 2473
3 941 1433 2471
3 1267 1477 1501
3 260 2002 2265
3 1704 558 2077
3 2224 1886 2305
3 2053 1386 2199
3 1452 945 1952
3 1717 1611 1718
3 1682 1975 2230
3 1760 1762 2496
3 1481 203 2104
3 1264 1266 1670
3 142 236 1620
3 2133 1182 2179
3 1791 1602 2183
3 350 346 1864
3 1412 1072 2393
3 1281 1575 2255
3 1565 1948 2155
3 849 1449 1513
3 1958 396 2085
3 1339 1069 1662
3 834 1540 1917
3 269 267 1414
3 1268 1267 1501
3 1440 2092 2468
3 1399 1981 2316
3 1635 1636 2041
3 1454 252 2234
3 1451 1305 1890
3 1375 1883 1955
3 362 366 1786
3 1484 2410 2528
3 1449 849 1640
3 1267 1474 1477
3 200 1611 1717
3 1054 1581 1582
3 1350 1977 2253
3 190 1390 2118
3 788 1956 2193
3 1709 1327 1888
3 2233 2298 2413
3 1488 189 2355
3 478 1685 1714
3 230 1525 1690
3 1687 478 1688
3 427 429 1756
3 1570 1065 2476
3 1880 1133 1988
3 1649 656 2124
3 1537 209 1614
3 1134 1769 1986
3 1220 1268 1655
3 396 1777 2085
3 1167 1755 1985
3 2229 1744 2296
3 1575 1281 2287
3 127 240 1882
3 377 647 1797
3 954 329 1998
3 220 1697 1698
3 1342 1341 2212
3 1441 264 1672
3 1512 188 2433
3 763 2345 2352
3 1685 1411 1714
3 1805 1188 1951
3 1347 2004 2157
3 1054 1582 1667
3 1333 1617 1674
3 2217 73 2361
3 1539 1036 1917
3 1039 1292 1834
3 208 141 1620
3 1965 1964 2038
3 693 1544 1969
3 1453 239 2279
3 203 1481 2049
3 945 1451 1889
3 680 1459 2134
3 354 2147 2196
3 1405 1932 2061
3 1723 1722 1737
3 1748 1175 1927
3 1532 1528 1733
3 2057 1824 2154
3 1406 1659 1702
3 1948 1186 2155
3 210 1598 2114
3 1685 478 1687
3 1324 1325 2328
3 1526 1250 1527
3 165 166 1509
3 1493 736 2523
3 1526 1527 1541
3 1390 190 2417
3 522 1444 1998
3 1680 1570 1732
3 1017 1442 2525
3 374 1797 2430
3 1507 1083 2197
3 1756 960 2221
3 2270 1400 2316
3 2205 1452 2282
3 1074 1187 1888
3 2158 1245 2200
3 1442 1017 1684
3 864 1116 1703
3 1750 1751 2143
3 1456 516 1492
3 1677 2146 2149
3 2022 1339 2388
3 1602 258 2183
3 678 1594 1595
3 1245 1670 2200
3 972 830 2204
3 2143 983 2342
3 1268 1501 2226
3 1266 1461 1670
3 1487 222 2465
3 1382 2022 2388
3 58 59 1661
3 2147 1543 2196
3 1484 1485 2410
3 628 2053 2199
3 1906 1549 2259
3 364 362 1786
3 1339 2022 2247
3 1636 525 2041
3 625 678 1595
3 678 1593 1594
3 2212 1410 2222
3 1837 1865 2215
3 1699 1800 1801
3 866 864 1703
3 893 1472 1982
3 1735 1736 2244
3 1633 1255 1922
3 126 127 1882
3 681 867 1656
3 1351 1401 2363
3 11 228 1588
3 1127 1953 2454
3 265 266 267
3 1722 1122 1737
3 1389 1691 2069
3 1613 1610 1616
3 1227 1256 2440
3 429 455 1756
3 1535 1177 2418
3 322 324 1952
3 973 1700 1802
3 1964 368 2038
3 1176 1865 1866
3 1096 872 1764
3 1176 1866 1875
3 193 1839 1892
3 156 157 1441
3 615 617 1596
3 686 1520 2480
3 1409 2097 2305
3 2410 1151 2528
3 1427 2217 2361
3 440 1911 2314
3 1744 1743 2296
3 516 1456 1739
3 1939 589 2164
3 690 931 2150
3 1062 1579 1580
3 1054 1580 1581
3 955 1483 1716
3 1064 1677 2248
3 1956 1616 2193
3 1776 1893 2026
3 1398 1115 1973
3 2002 1453 2265
3 1541 1531 1542
3 216 2191 2536
3 1736 1326 1894
3 1065 994 1066
3 1598 2115 2175
3 2314 1911 2358
3 1433 941 2042
3 2115 1209 2175
3 717 1550 1551
3 188 1941 2433
3 267 1132 1414
3 771 1569 2064
3 1157 1545 1546
3 1231 1250 1526
3 1933 240 2181
3 222 1487 2025
3 1525 230 1765
3 1430 1704 2077
3 757 1744 2495
3 264 263 265
3 883 773 1917
3 739 2205 2282
3 1667 1582 2434
3 1744 757 2474
3 239 1453 2002
3 1441 259 2356
3 2005 1443 2012
3 254 1766 1932
3 1509 166 1679
3 1477 1475 1481
3 793 1440 2165
3 1385 1523 2377
3 1481 1475 2523
3 156 1441 2356
3 1066 1220 1655
3 945 325 1952
3 2094 2087 2134
3 1747 1175 1748
3 253 262 263
3 1327 1074 1888
3 718 715 1567
3 2046 1043 2105
3 240 1933 2399
3 1305 1307 1890
3 224 58 1661
3 1195 1566 2285
3 1590 1393 1749
3 1255 1230 1922
3 353 1538 2073
3 358 1999 2325
3 882 1802 2036
3 1024 1020 1604
3 333 522 1998
3 1401 1351 2414
3 1475 1258 1476
3 2310 786 2364
3 328 945 1889
3 807 1748 1927
3 825 724 1912
3 1742 263 2491
3 267 266 1132
3 2077 2102 2203
3 1431 1432 1860
3 1212 1957 2312
3 2097 476 2305
3 1132 1402 2473
3 717 713 1550
3 1746 693 1969
3 1372 1124 1844
3 1256 1541 2269
3 1977 1350 2274
3 2332 1978 2443
3 874 2133 2179
3 1983 1534 2171
3 1157 1544 1545
3 1230 1228 1922
3 1580 1579 1581
3 1565 806 1948
3 1416 1363 2413
3 1287 1995 2398
3 265 263 266
3 1534 1529 2171
3 1604 1834 2428
3 1255 1633 2509
3 1344 1643 1644
3 1332 1388 1571
3 1423 217 2217
3 2191 1057 2451
3 458 447 1637
3 1250 1233 1733
3 472 2212 2222
3 1175 1747 1840
3 1652 256 1653
3 1073 1347 1572
3 200 145 1609
3 683 640 1585
3 1116 862 1705
3 1221 1223 1474
3 1778 801 1803
3 1503 1622 2471
3 1475 1493 2523
3 464 680 2134
3 14 210 2114
3 579 1880 1988
3 1434 1435 1990
3 1447 2310 2364
3 275 274 276
3 2294 1871 2419
3 814 1068 1684
3 1172 1439 2273
3 273 272 274
3 1363 1416 2406
3 1220 1219 1221
3 1060 1656 1662
3 1099 1792 1985
3 2048 1198 2168
3 1241 1245 2323
3 699 723 1753
3 1640 1862 2070
3 910 1018 1584
3 1586 1067 1587
3 1656 867 1662
3 1067 686 2480
3 654 2242 2294
3 1593 1315 1594
3 1880 553 1974
3 236 1717 1718
3 617 621 1596
3 1723 196 2313
3 402 1877 2116
3 273 274 275
3 2202 1869 2252
3 1510 1358 1767
3 193 1892 2373
3 1188 1805 2054
3 1220 1221 1267
3 1066 1218 1219
3 1517 1097 1518
3 1677 1676 1858
3 686 277 1520
3 268 267 269
3 697 857 1592
3 220 1698 1699
3 1802 1700 2036
3 1612 1537 1614
3 929 817 994
3 228 12 2136
3 2110 2116 2482
3 1659 1658 1702
3 1611 1613 2280
3 1344 991 1643
3 683 1585 1604
3 1638 1358 2404
3 1485 1034 2410
3 2214 833 2424
3 271 272 273
3 1482 955 1962
3 1066 1219 1220
3 931 1885 2150
3 1613 1891 2280
3 1189 1589 2204
3 1566 1195 2120
3 726 1567 2490
3 1122 1722 1874
3 1494 319 2493
3 1671 259 1672
3 1267 1221 1474
3 603 528 1591
3 1664 2128 2316
3 1817 1924 2174
3 1626 1660 2111
3 1474 1475 1477
3 1023 1062 1580
3 1957 1599 2312
3 1764 1939 2164
3 1358 1950 2404
3 200 1609 1610
3 1431 1082 1432
3 1778 1803 2521
3 1830 1832 2075
3 1930 233 2369
3 1329 1482 1650
3 757 1959 2522
3 1239 1247 1597
3 758 1978 2332
3 1569 1290 2064
3 216 1694 2191
3 1453 1420 2265
3 1549 1906 2129
3 24 215 1674
3 19 235 1676
3 1621 1057 2191
3 1691 1389 2262
3 1617 1333 2192
3 929 994 1065
3 1769 1672 1986
3 1893 1412 2026
3 1609 1537 1612
3 271 269 272
3 1373 1438 1620
3 217 1423 2381
3 517 330 1889
3 1322 1055 1667
3 1974 553 2499
3 228 2136 2187
3 1589 1189 1788
3 1999 1577 2325
3 2110 405 2116
3 189 1608 1842
3 1055 1050 1667
3 739 1455 2205
3 1865 1176 2215
3 319 1494 2522
3 2474 757 2522
3 1484 227 1485
3 10 11 1588
3 723 809 1753
3 27 230 1689
3 1550 806 1565
3 1179 1180 1217
3 207 1617 2192
3 1433 1217 1502
3 1562 1556 1606
3 1379 2017 2018
3 1245 2158 2323
3 675 1097 1517
3 884 501 1599
3 1020 683 1604
3 1603 1095 1848
3 1001 2057 2154
3 1604 1585 1834
3 1610 1612 1616
3 1764 870 1939
3 2242 1871 2294
3 1669 1264 1670
3 1658 213 1702
3 1995 1646 2398
3 631 539 1600
3 1491 2143 2342
3 1801 1800 2195
3 1200 1199 1693
3 1535 940 1861
3 1534 758 2332
3 914 2258 2328
3 1588 228 2457
3 216 138 1694
3 151 152 1500
3 1133 1880 1974
3 1677 1858 2248
3 1294 1622 1868
3 875 1010 1767
3 1379 2018 2416
3 1279 2202 2252
3 182 256 1652
3 1592 857 2386
3 672 681 1656
3 615 1596 1824
3 1093 1487 1623
3 1823 522 2100
3 1245 1242 1669
3 1582 1581 1583
3 758 1534 2306
3 1975 1984 2230
3 1358 1510 1950
3 1663 1336 1665
3 2102 960 2203
3 366 1087 1786
3 1740 1490 2231
3 21 207 1709
3 145 146 1609
3 2339 765 2384
3 603 1591 1668
3 2081 199 2149
3 1540 1832 1879
3 1721 1723 1947
3 1754 455 1793
3 1751 1753 2119
3 882 1701 1807
3 1540 1539 1917
3 242 1695 1697
3 1521 354 2091
3 1363 2233 2413
3 1584 1018 1925
3 703 1067 1586
3 1177 1178 1179
3 795 916 1834
3 277 276 607
3 1571 1388 1872
3 22 23 1617
3 1097 823 1177
3 25 26 1624
3 419 418 1790
3 1728 1906 2259
3 440 1455 2261
3 1877 1318 2116
3 1488 1156 1608
3 1439 2130 2273
3 1889 1451 1890
3 1614 209 2389
3 1472 893 2094
3 675 821 823
3 23 24 1674
3 1788 1190 2183
3 917 941 1622
3 1763 1096 1764
3 1068 1442 1684
3 1034 1485 2173
3 2172 1533 2230
3 138 139 1694
3 1065 1570 2197
3 607 674 675
3 1536 1248 2268
3 229 135 1734
3 1437 1925 1926
3 680 510 1646
3 147 209 1537
3 26 27 1689
3 1627 705 2163
3 206 1651 2121
3 2409 1785 2462
3 1492 682 2447
3 1223 1225 1258
3 889 1772 2374
3 253 263 264
3 275 276 277
3 1455 739 2261
3 2022 1382 2176
3 150 227 1484
3 639 1019 1591
3 1449 1640 2070
3 1082 833 2214
3 1503 1502 1504
3 144 200 1717
3 1643 991 1713
3 1190 1791 2183
3 1538 1804 2073
3 1256 2269 2440
3 18 19 1676
3 521 531 2000
3 790 849 2180
3 1075 1329 1650
3 1087 1782 1785
3 1066 994 1218
3 270 269 271
3 682 1492 2494
3 185 252 1454
3 253 158 262
3 1629 1632 1633
3 200 1610 1611
3 1477 1481 2104
3 1623 1487 2465
3 1518 1097 1535
3 1414 1132 2460
3 1179 1217 1433
3 177 1506 1680
3 1392 1017 2525
3 1832 834 2075
3 675 823 1097
3 1459 2094 2134
3 1782 1087 1795
3 1838 1730 2372
3 1639 149 2528
3 1617 23 1674
3 2265 1420 2489
3 180 232 1859
3 1527 1250 1528
3 20 21 1709
3 1083 1508 2311
3 903 866 1703
3 1455 440 2314
3 1187 1858 1888
3 1659 1406 2473
3 1446 1902 2166
3 421 1951 2106
3 1598 210 2115
3 154 259 1671
3 1288 1835 2080
3 1832 1831 1879
3 1258 1225 1478
3 1024 1604 2117
3 1263 1429 1739
3 706 705 1627
3 1583 1581 2352
3 407 1805 1951
3 856 1574 2527
3 1701 882 2036
3 1624 26 1689
3 717 1551 1552
3 1385 2377 2391
3 2302 1745 2354
3 1572 1347 2157
3 1036 883 1917
3 1689 1690 1691
3 1664 1665 2128
3 1476 1479 1480
3 1751 2119 2143
3 815 814 1684
3 1790 889 2400
3 1606 1607 2085
3 265 267 268
3 418 889 1790
3 1522 1521 2091
3 135 136 1734
3 1726 1445 1729
3 647 1796 1797
3 1346 1453 2279
3 1293 1827 2117
3 1242 1244 1669
3 1853 1852 1854
3 889 2374 2400
3 1039 1038 1290
3 1524 628 2199
3 1331 1332 1571
3 1291 1290 1569
3 1475 1476 1493
3 1850 1852 1853
3 1490 1740 2456
3 1689 230 1690
3 1256 1526 1541
3 1704 1705 2167
3 1465 1470 1675
3 956 1073 1572
3 1613 1616 1956
3 916 917 1038
3 2014 1522 2091
3 1221 1222 1223
3 1999 763 2352
3 234 10 1588
3 1697 220 2335
3 1527 1528 1529
3 2298 1600 2413
3 1436 2020 2254
3 1642 1161 1678
3 1523 1385 2436
3 1730 1838 2426
3 795 796 916
3 713 711 1550
3 1456 1263 1739
3 999 1336 1663
3 1785 1784 2462
3 409 415 1783
3 607 675 1517
3 1229 1231 1526
3 1958 1855 2078
3 1589 1588 1590
3 1933 261 2380
3 762 1965 2038
3 1756 1458 2203
3 1776 597 1893
3 1794 1072 1893
3 188 1512 2266
3 1774 2339 2384
3 188 1908 1941
3 1010 1510 1767
3 2189 2285 2307
3 773 834 1917
3 1245 1669 1670
3 1248 1597 2268
3 146 1537 1609
3 818 910 1584
3 1641 1313 1651
3 1217 1745 2302
3 1065 1066 1655
3 1597 1247 2047
3 1360 2177 2376
3 1612 1615 1616
3 2126 867 2186
3 1019 683 1020
3 1747 892 1840
3 1092 1093 1623
3 261 1933 2181
3 400 424 1666
3 1516 1903 2377
3 1100 1392 1605
3 247 1738 1881
3 268 1134 1986
3 1177 823 1178
3 884 1599 1957
3 263 262 2491
3 806 1627 1948
3 1227 1229 1256
3 191 1729 2504
3 1636 1635 2502
3 1480 1479 1601
3 1721 1947 2498
3 1924 1146 2174
3 229 1734 1735
3 175 204 1725
3 1179 1178 1180
3 354 1521 2147
3 665 697 1592
3 640 646 1585
3 627 545 1636
3 1882 240 2399
3 1556 1555 1606
3 1373 1620 2394
3 1871 1071 2419
3 548 1628 1629
3 455 436 1793
3 974 1831 1841
3 1844 1413 2392
3 1612 1614 1615
3 209 1639 1937
3 1329 1330 1331
3 1823 2100 2142
3 1097 1177 1535
3 1021 1020 1022
3 825 1912 2455
3 913 1122 1874
3 400 1666 2113
3 1256 1229 1526
3 1419 1418 2450
3 1552 1551 1553
3 1850 1099 1852
3 1629 1631 1632
3 801 685 2029
3 1618 1619 1621
3 265 268 1986
3 1715 2165 2330
3 1531 1529 1534
3 1022 1024 1576
3 658 693 1746
3 703 686 1067
3 1062 1576 1577
3 1023 1022 1062
3 236 1718 2394
3 1688 502 1740
3 1501 1477 2104
3 213 165 1509
3 646 795 1585
3 196 1737 1738
3 379 679 1795
3 639 640 683
3 924 875 1767
3 1752 699 1753
3 207 2192 2315
3 627 1636 1660
3 1217 1180 1745
3 730 728 1833
3 528 561 1591
3 1444 1417 1998
3 252 186 1602
3 1729 1445 2504
3 460 502 1688
3 1418 946 1778
3 1203 1200 1693
3 548 470 1628
3 849 668 1640
3 646 785 795
3 607 276 674
3 14 15 210
3 147 148 209
3 478 460 1688
3 1709 207 2315
3 1157 1546 1608
3 1155 1731 1899
3 1524 1934 2390
3 1775 921 1876
3 1433 1502 1503
3 470 458 1628
3 1223 1224 1225
3 1291 1569 1964
3 871 1056 1826
3 1781 1783 1915
3 1587 1067 2300
3 916 1038 1039
3 1388 1387 1389
3 1611 1610 1613
3 1075 1328 1329
3 1039 1290 1291
3 1538 1265 1804
3 1184 1185 2163
3 597 598 1794
3 1450 1356 2421
3 1835 576 2080
3 1629 1628 1631
3 1331 1330 1332
3 561 639 1591
3 1476 1480 1493
3 705 703 1586
3 639 683 1019
3 1951 1188 2106
3 436 446 1793
3 1472 1297 2142
3 1332 1387 1388
3 1345 984 1720
3 1329 1328 1330
3 1050 1048 1667
3 150 151 227
3 11 12 228
3 557 541 2256
3 1831 974 1879
3 134 229 1766
3 1357 1358 1638
3 1336 1641 2299
3 1650 1482 1962
3 1591 1019 2512
3 1506 1507 1570
3 1803 801 2029
3 1178 823 1972
3 1552 1553 1554
3 1290 1038 1294
3 1028 1313 1641
3 1237 1239 1597
3 993 1017 1100
3 893 2087 2094
3 149 1484 2528
3 1768 1142 1949
3 9 234 1673
3 1554 1553 1555
3 668 632 1640
3 711 806 1550
3 1628 458 1637
3 1098 1829 1830
3 1482 1331 1483
3 531 1818 2000
3 435 419 1790
3 1156 1157 1608
3 1182 1184 2179
3 510 512 1646
3 1231 1233 1250
3 946 841 1778
3 1483 1331 1571
3 1459 680 2458
3 1166 1040 1210
3 892 1657 1820
3 1042 1445 1726
3 1019 1020 1021
3 749 805 1810
3 234 1588 1589
3 1695 242 1892
3 556 1853 2483
3 1018 1572 1573
3 1529 1528 1530
3 1606 1558 1607
3 1761 1759 2308
3 1396 1032 1921
3 1018 956 1572
3 689 1150 1416
3 1827 1293 2515
3 149 150 1484
3 1647 656 1648
3 1543 694 2196
3 399 409 1783
3 545 525 1636
3 268 269 270
3 715 713 717
3 1100 1017 1392
3 1657 892 1747
3 207 22 1617
3 1666 884 2249
3 1671 1672 1769
3 1554 1555 1556
3 146 147 1537
3 1081 1444 1822
3 711 709 806
3 1443 2005 2322
3 660 658 1746
3 1166 1458 1754
3 916 796 917
3 1056 1728 1826
3 1068 1069 1275
3 184 185 1454
3 158 159 262
3 2007 1687 2231
3 805 1708 1810
3 1672 264 1986
3 1561 1562 1563
3 978 1075 1650
3 1590 1588 2457
3 215 25 1624
3 1551 1550 1565
3 1073 1346 1347
3 857 818 1584
3 1648 656 1649
3 675 674 821
3 561 594 639
3 1731 529 1899
3 2303 1454 2535
3 981 903 1040
3 1630 1629 1633
3 993 877 1017
3 724 718 726
3 512 603 1646
3 1676 235 1858
3 814 1060 1068
3 715 717 1567
3 1796 647 1870
3 1715 1171 2165
3 678 1592 1593
3 644 613 1824
3 1690 1525 2145
3 1297 1822 1823
3 271 656 1647
3 1704 1116 1705
3 1225 1226 1227
3 1275 1069 1338
3 910 956 1018
3 1824 1596 2154
3 1403 1100 1605
3 1221 1219 1222
3 1068 1060 1069
3 1901 245 1949
3 1081 1055 1321
3 1751 563 1752
3 1021 1022 1023
3 672 638 681
3 1095 657 1848
3 1235 1237 1248
3 1561 1556 1562
3 1265 1259 1804
3 524 1819 2016
3 978 1650 2362
3 1492 516 2494
3 229 1735 2061
3 185 186 252
3 157 158 253
3 152 153 233
3 9 10 234
3 1527 1529 1531
3 1808 1344 2360
3 1062 1577 1579
3 1509 1679 1977
3 424 454 1666
3 637 638 672
3 981 1040 1166
3 1555 1558 1606
3 751 749 1810
3 1166 1210 1458
3 1651 1313 2121
3 15 16 2260
3 1633 1632 2509
3 2167 1705 2276
3 551 602 2045
3 697 818 857
3 364 1786 1883
3 832 1189 2204
3 1476 1478 1479
3 678 665 1592
3 213 1509 2096
3 1015 888 1124
3 1062 1022 1576
3 679 1782 1795
3 680 1646 1995
3 1101 1100 1403
3 1109 433 1714
3 1248 1237 1597
3 733 730 1833
3 1702 213 2096
3 499 498 1828
3 1418 1778 2521
3 637 600 638
3 1048 1046 1054
3 1577 1576 1578
3 814 766 1060
3 1279 2252 2292
3 474 470 548
3 199 18 1676
3 157 253 1441
3 1048 1054 1667
3 471 472 2290
3 625 665 678
3 795 785 796
3 1264 1265 1266
3 1437 1926 2350
3 1362 2048 2168
3 1394 2337 2371
3 454 884 1666
3 1022 1020 1024
3 751 1810 1923
3 1046 1023 1580
3 1807 1701 1931
3 1618 208 1619
3 566 588 689
3 1828 498 1829
3 501 509 1599
3 1118 780 1775
3 878 817 929
3 1510 1511 1950
3 1618 1621 1694
3 1052 1081 1822
3 1416 1150 1715
3 1239 1241 1247
3 1396 1921 2067
3 1751 1752 1753
3 1264 1259 1265
3 539 566 1600
3 1762 1127 2496
3 1673 1788 2183
3 1555 1557 1558
3 1052 1050 1055
3 725 724 825
3 1142 1770 1771
3 681 853 867
3 454 501 884
3 1346 1420 1453
3 932 1147 1770
3 1546 1545 1547
3 533 582 1818
3 1266 1337 1460
3 1872 820 2318
3 1117 1119 1713
3 1081 1321 1417
3 1253 1259 1264
3 1569 771 2135
3 1052 1055 1081
3 1181 1178 1972
3 709 706 1627
3 1073 1076 1346
3 1098 1828 1829
3 1382 1380 2176
3 1442 1275 1443
3 919 999 1663
3 1789 828 1855
3 877 815 1684
3 509 539 631
3 992 877 993
3 1266 1265 1337
3 2268 1498 2340
3 1130 1032 1396
3 1095 1603 2508
3 886 826 887
3 531 533 1818
3 1131 1400 1881
3 447 437 516
3 2460 1132 2473
3 940 1535 2418
3 768 1873 2037
3 1813 1869 1954
3 1627 2163 2488
3 1497 1495 1645
3 1198 1409 2168
3 724 726 1912
3 1869 987 1954
3 763 1999 2338
3 1010 1170 1374
3 984 976 1720
3 1470 1743 1744
3 689 588 1150
3 1901 1949 2359
3 1640 632 1862
3 274 272 1787
3 563 564 1752
3 994 817 1505
3 737 1807 1931
3 1770 1147 1771
3 1233 1235 1733
3 2450 1418 2521
3 414 410 1821
3 908 1099 1850
3 1227 1228 1229
3 1692 1203 1693
3 1625 216 2194
3 512 528 603
3 1377 1357 1638
3 1465 1464 1470
3 1360 1359 2177
3 1686 2007 2095
3 1336 1028 1641
3 1857 751 1923
3 1758 572 1759
3 553 541 557
3 1171 1715 1811
3 956 1003 1073
3 1467 1465 1675
3 719 718 724
3 1509 1977 2096
3 1734 1625 1736
3 1503 1504 1868
3 592 597 1776
3 180 181 232
3 162 163 231
3 2308 1759 2370
3 1357 1114 1358
3 875 946 1010
3 509 631 1599
3 17 18 199
3 144 145 200
3 1099 906 1792
3 1469 1467 1494
3 605 589 1939
3 1208 1205 1211
3 354 344 2091
3 692 782 804
3 1010 946 1170
3 1463 1462 1464
3 716 715 718
3 714 713 715
3 271 273 656
3 139 1618 1694
3 549 277 686
3 673 672 766
3 1378 1377 1379
3 2007 868 2095
3 999 1028 1336
3 1208 1211 1447
3 601 545 627
3 1119 1643 1713
3 1332 1333 1387
3 910 912 956
3 520 521 2000
3 828 1789 1819
3 277 607 1520
3 1338 1339 2247
3 818 819 910
3 767 766 814
3 712 711 713
3 1494 1467 1675
3 639 594 640
3 2044 557 2256
3 235 20 1709
3 1620 236 2394
3 804 919 962
3 1862 702 2070
3 681 852 853
3 1559 1556 1561
3 1622 941 2471
3 2165 1440 2330
3 612 644 692
3 697 698 818
3 1903 1516 1994
3 371 379 1795
3 428 426 2138
3 1290 1294 2064
3 1384 1904 2432
3 566 689 1600
3 471 452 472
3 1092 1091 1093
3 1002 1131 1719
3 1090 1089 1091
3 875 841 946
3 1758 1760 1763
3 1562 1606 2085
3 1833 1830 2075
3 178 179 214
3 164 165 213
3 769 923 1815
3 692 644 782
3 804 782 919
3 182 183 256
3 160 161 257
3 1329 1331 1482
3 962 1663 1664
3 1177 1179 2042
3 403 405 1805
3 1461 1460 1462
3 140 208 1618
3 1859 232 1860
3 274 1787 2099
3 1381 2126 2186
3 1558 1560 1789
3 430 428 682
3 452 435 1683
3 1487 1156 1488
3 1470 1464 1743
3 597 1794 1893
3 1244 1253 1669
3 962 919 1663
3 258 8 1673
3 1087 1785 1786
3 970 1042 1726
3 199 1677 2149
3 1664 1663 1665
3 1229 1230 1231
3 991 827 1713
3 792 1603 1848
3 1822 1444 1823
3 665 666 697
3 19 20 235
3 142 143 236
3 728 1098 1833
3 532 530 1898
3 1015 1124 1372
3 1546 1547 1548
3 1851 1850 1853
3 1877 393 2240
3 923 1105 1815
3 1090 1091 1092
3 687 686 703
3 1683 435 1790
3 887 826 1961
3 684 663 1089
3 426 1934 2138
3 464 510 680
3 853 854 855
3 568 572 1758
3 1376 1357 1377
3 1205 1203 1692
3 1607 1789 1855
3 710 709 711
3 780 781 1775
3 1434 1103 1435
3 876 815 877
3 766 672 1656
3 1393 1590 2457
3 684 1089 1090
3 530 890 1898
3 926 1920 1943
3 696 414 1821
3 1563 1562 1777
3 1054 1046 1580
3 1398 1973 1974
3 137 216 1625
3 1210 1040 1430
3 1750 563 1751
3 2010 1665 2299
3 1510 1374 1511
3 1777 1562 2085
3 1707 252 1791
3 1932 1404 1933
3 459 438 1814
3 139 140 1618
3 1093 1156 1487
3 231 163 1658
3 699 722 723
3 1545 1095 2508
3 598 612 1794
3 579 554 1880
3 1941 1908 2401
3 1231 1232 1233
3 1831 1829 1841
3 1037 1383 1799
3 177 178 1506
3 636 600 637
3 1036 1539 2286
3 1356 1114 1357
3 1523 1516 2377
3 704 703 705
3 403 402 405
3 648 792 1848
3 723 756 808
3 1388 1389 2170
3 933 932 1770
3 223 1710 1711
3 1779 399 1783
3 1223 1222 1224
3 1028 1029 1313
3 257 161 1654
3 418 412 421
3 734 882 1807
3 693 657 1095
3 1368 1370 1436
3 136 137 1625
3 688 652 817
3 1075 1327 1328
3 540 479 1813
3 398 395 402
3 548 1629 1630
3 574 591 699
3 1469 1494 1495
3 1041 1598 2175
3 167 168 202
3 175 176 204
3 2045 2046 2201
3 186 187 1602
3 886 887 888
3 1253 1254 1259
3 8 9 1673
3 792 655 810
3 843 1145 1960
3 1180 1349 1745
3 1165 1345 1512
3 708 706 709
3 136 1625 1734
3 21 22 207
3 140 141 208
3 625 626 665
3 1093 1094 1156
3 1585 795 1834
3 1117 1713 1806
3 599 579 600
3 810 871 1826
3 1047 1046 1048
3 1292 1291 1293
3 161 162 1654
3 199 1676 1677
3 1260 1282 1804
3 1005 1142 1768
3 1233 1234 1235
3 792 810 922
3 1122 1719 1737
3 976 985 1720
3 1278 1279 2292
3 2390 1934 2531
3 1436 1437 2350
3 270 271 1647
3 1199 966 1846
3 1683 1342 2212
3 656 273 2124
3 699 591 722
3 1977 1139 2096
3 1738 1719 1881
3 1722 985 1874
3 1797 1448 1798
3 162 231 1654
3 632 604 1862
3 252 1602 1791
3 1051 1050 1052
3 1045 1023 1046
3 648 655 792
3 993 1100 1101
3 1321 1055 1322
3 806 709 1627
3 904 903 981
3 1220 1267 1268
3 648 605 655
3 1737 1719 1738
3 385 399 1779
3 506 499 1828
3 1132 266 1402
3 1170 1418 1419
3 1323 2302 2354
3 24 25 215
3 137 138 216
3 721 965 1919
3 1787 1414 2460
3 778 1117 1806
3 723 722 756
3 407 403 1805
3 564 574 1752
3 1049 1048 1050
3 842 841 875
3 1608 1546 1842
3 809 808 899
3 1517 1519 1520
3 1530 1532 1533
3 889 421 1772
3 913 1002 1122
3 1314 1316 1367
3 1017 877 1684
3 841 802 1778
3 1235 1236 1237
3 751 1857 1900
3 1114 924 1767
3 1344 1644 2360
3 1895 1394 2371
3 1518 1535 1861
3 1758 1759 1760
3 1122 1002 1719
3 546 563 1750
3 1056 1726 1727
3 663 660 1746
3 621 622 625
3 1720 985 1721
3 1857 1843 1900
3 808 756 913
3 1056 970 1726
3 27 28 230
3 134 135 229
3 908 906 1099
3 163 164 1658
3 1727 1726 1729
3 7 8 258
3 154 155 259
3 1101 1403 1404
3 808 913 1874
3 1260 1269 1282
3 1389 1387 2262
3 1297 1053 1822
3 1555 1553 1557
3 1463 1464 1465
3 230 28 1765
3 1237 1238 1239
3 554 553 1880
3 775 778 1806
3 985 899 1874
3 1270 1524 2199
3 489 1820 1936
3 692 1072 1794
3 1472 2142 2272
3 1845 496 1929
3 438 431 1814
3 613 615 1824
3 1241 1242 1245
3 1783 415 1915
3 1192 2081 2149
3 178 214 1506
3 1816 988 1817
3 1760 1759 1761
3 1103 1092 1623
3 1512 1345 1661
3 1876 921 2295
3 1165 984 1345
3 978 1074 1075
3 1239 1240 1241
3 542 541 553
3 813 988 1816
3 1148 984 1165
3 871 970 1056
3 472 452 1683
3 1207 1796 1870
3 1167 1166 1754
3 1296 1053 1297
3 966 964 1846
3 976 899 985
3 982 976 984
3 702 1815 2015
3 900 899 976
3 1143 995 1206
3 1576 1024 1827
3 1235 1248 1733
3 1558 1557 1560
3 943 995 1143
3 1920 1144 1943
3 1471 2115 2477
3 29 30 255
3 132 133 254
3 1630 1633 1634
3 1225 1224 1226
3 1925 1573 1926
3 1211 1205 1692
3 725 825 826
3 1113 924 1114
3 600 579 1988
3 717 1552 1567
3 1820 1657 1936
3 674 276 2099
3 395 393 1877
3 572 543 1897
3 1575 1308 2255
3 999 1000 1028
3 1118 1775 1876
3 1797 1798 2430
3 526 546 559
3 867 853 2186
3 1142 1771 1949
3 1068 1275 1442
3 679 385 1779
3 1607 1558 1789
3 580 568 1758
3 1244 1252 1253
3 1760 1761 1762
3 398 402 403
3 1476 1258 1478
3 418 421 889
3 1771 1147 1839
3 164 213 1658
3 1720 1721 2267
3 1668 1591 2512
3 1042 1128 1445
3 1098 1830 1833
3 1102 1092 1103
3 2249 884 2466
3 1104 1103 1434
3 410 416 1821
3 514 513 541
3 580 1758 1763
3 637 673 1741
3 1913 936 1914
3 1394 1395 2337
3 919 920 999
3 577 554 579
3 2111 1660 2263
3 231 1658 1659
3 612 613 644
3 568 543 572
3 770 775 1806
3 1445 1128 1446
3 1546 1548 1842
3 448 460 478
3 810 870 871
3 1789 1560 1819
3 1154 1082 1431
3 873 973 1802
3 379 385 679
3 837 850 921
3 1461 1462 1463
3 1346 1076 1420
3 1088 1344 1808
3 2125 1143 2353
3 931 977 978
3 882 772 1802
3 29 255 1765
3 849 1513 2180
3 1713 827 1806
3 1130 1396 1397
3 681 638 852
3 1417 1321 1873
3 1654 1402 2530
3 502 526 1740
3 1124 888 2177
3 1266 1460 1461
3 515 1175 1840
3 1253 1264 1669
3 479 466 1813
3 1727 1729 1757
3 379 380 385
3 1971 1480 2514
3 1637 1739 2459
3 1207 1205 1208
3 529 519 1899
3 1129 1845 1929
3 224 1661 2267
3 192 1856 2361
3 732 734 1807
3 1184 2163 2435
3 1119 1120 1353
3 415 414 431
3 719 724 725
3 559 546 1750
3 871 872 970
3 1038 917 1622
3 574 699 1752
3 166 167 1679
3 1117 1118 1119
3 1409 1196 2035
3 617 619 621
3 1172 1173 1439
3 1191 1005 1768
3 664 663 684
3 494 493 1841
3 890 529 1731
3 840 802 841
3 493 974 1841
3 385 386 399
3 679 1779 1780
3 371 376 379
3 416 433 1109
3 670 769 1815
3 902 866 903
3 1780 1779 1781
3 480 515 1840
3 970 971 1042
3 433 448 1714
3 28 29 1765
3 1005 949 1142
3 778 780 1117
3 959 1037 1799
3 1073 1003 1076
3 535 532 1898
3 1119 1118 1120
3 658 657 693
3 1378 1379 1380
3 1397 1396 1809
3 1610 1609 1612
3 1819 1560 2016
3 1837 952 1865
3 1719 1131 1881
3 1131 1399 1400
3 1352 1138 2058
3 399 406 409
3 548 1630 2041
3 1275 1338 2251
3 582 1816 1818
3 1835 1836 2144
3 993 1101 1980
3 1699 1698 1700
3 2407 364 2505
3 1189 1190 1788
3 1117 780 1118
3 1830 1829 1831
3 637 672 673
3 692 804 1072
3 1204 1203 1205
3 1374 1170 2139
3 612 692 1794
3 1642 1408 2286
3 723 808 809
3 450 459 1812
3 409 410 414
3 802 801 1778
3 1853 1854 2483
3 1042 1127 1128
3 1199 1846 2225
3 1147 990 1273
3 1383 1384 2432
3 432 431 438
3 1353 1120 1390
3 1093 1091 1094
3 2020 250 2254
3 148 149 1639
3 606 605 648
3 1970 2016 2422
3 2201 2046 2327
3 475 471 513
3 412 407 1951
3 1991 246 2139
3 727 695 728
3 1673 234 1788
3 1554 1556 1559
3 1089 663 1746
3 1846 964 2056
3 923 991 1088
3 409 406 410
3 729 728 730
3 1424 1427 1856
3 1473 1911 2407
3 1376 1377 1378
3 1010 1374 1510
3 853 852 854
3 366 369 1087
3 772 873 1802
3 1219 1218 1626
3 1766 229 2061
3 1088 991 1344
3 922 810 1826
3 518 506 695
3 405 402 2116
3 962 1664 2316
3 913 942 1002
3 932 990 1147
3 629 813 1816
3 876 877 992
3 399 386 406
3 932 845 990
3 1002 1123 1131
3 843 996 1145
3 781 837 1775
3 262 2304 2491
3 431 696 1814
3 1273 1695 1892
3 731 730 732
3 737 732 1807
3 439 438 450
3 1829 498 1841
3 800 685 801
3 767 814 815
3 1060 766 1656
3 673 766 767
3 1403 1605 1882
3 716 718 719
3 1338 1069 1339
3 847 752 1843
3 864 862 1116
3 2302 443 2519
3 923 827 991
3 526 559 1740
3 1911 1473 2358
3 1085 1310 1867
3 809 899 900
3 1227 1226 1228
3 729 730 731
3 1436 1370 1437
3 731 732 737
3 769 827 923
3 456 452 471
3 1433 1503 2471
3 1435 1103 1623
3 385 380 386
3 1141 1787 2460
3 1354 1088 1808
3 657 649 1848
3 415 431 432
3 484 892 1820
3 727 728 729
3 855 854 1450
3 1721 1722 1723
3 1643 1353 1644
3 1145 1916 1960
3 1421 1191 1422
3 466 1812 1813
3 943 944 995
3 1356 1357 1376
3 714 715 716
3 1156 1094 1157
3 598 611 612
3 631 1600 2298
3 590 589 605
3 965 969 1919
3 416 1109 1821
3 242 1697 2335
3 1548 1547 1549
3 550 573 584
3 584 604 632
3 409 414 415
3 712 713 714
3 642 670 702
3 818 698 819
3 1006 1005 1191
3 1624 1689 1691
3 169 170 237
3 173 174 238
3 956 912 1003
3 937 936 1913
3 1317 1025 1875
3 515 540 550
3 973 1799 1800
3 973 959 1799
3 518 695 727
3 910 819 912
3 584 573 604
3 1170 946 1418
3 173 238 1847
3 550 540 573
3 982 984 1148
3 900 976 982
3 441 435 452
3 448 478 1714
3 1849 1648 2173
3 1631 1628 1637
3 1830 1831 1832
3 1383 1216 1384
3 734 772 882
3 949 933 1770
3 1332 1330 1333
3 574 575 591
3 1105 1088 1354
3 702 670 1815
3 498 494 1841
3 827 770 1806
3 873 959 973
3 1390 1391 1415
3 450 438 459
3 950 949 1005
3 351 362 364
3 1313 1029 1314
3 432 438 439
3 837 838 850
3 1273 1274 1695
3 850 851 943
3 911 952 1837
3 1259 1260 1804
3 566 587 588
3 1037 1216 1383
3 1337 1265 1538
3 1087 369 1795
3 810 655 870
3 1559 1561 1566
3 1147 1273 1839
3 732 733 734
3 1662 867 2126
3 890 1731 2241
3 1854 1852 2397
3 515 479 540
3 451 450 466
3 697 666 698
3 1367 1316 1368
3 662 660 663
3 365 355 694
3 1358 1114 1767
3 379 376 380
3 1796 1448 1797
3 179 180 1859
3 790 668 849
3 569 568 580
3 690 860 931
3 466 450 1812
3 431 414 696
3 1973 1133 1974
3 651 649 657
3 467 466 479
3 1288 1289 1835
3 264 265 1986
3 1302 1303 1304
3 592 596 597
3 1873 1321 2037
3 544 543 568
3 275 277 549
3 209 1937 2389
3 539 565 566
3 1485 227 1486
3 2384 2190 2408
3 1781 1779 1783
3 480 479 515
3 689 1416 2413
3 1108 1161 1539
3 1867 1310 1895
3 1300 1301 1302
3 1695 1696 1697
3 633 632 668
3 1304 1451 1452
3 988 911 1837
3 168 169 1724
3 969 1012 1172
3 582 629 1816
3 1843 752 1900
3 629 812 813
3 710 711 712
3 1782 1780 1784
3 536 535 543
3 1089 1746 1969
3 1108 1107 1161
3 1514 1426 1856
3 486 484 1820
3 369 371 1795
3 1817 988 1924
3 493 609 974
3 1422 1191 2023
3 1426 1424 1856
3 842 875 924
3 922 1826 2259
3 989 1361 1886
3 928 1070 1288
3 669 668 790
3 1113 1114 1356
3 1027 847 1843
3 728 695 1098
3 734 735 772
3 975 1107 1108
3 955 859 1962
3 813 911 988
3 1208 1448 1796
3 1101 1405 1980
3 602 676 2045
3 586 581 589
3 546 547 563
3 493 491 609
3 628 1524 2390
3 348 344 354
3 1298 1299 1300
3 509 538 539
3 974 609 975
3 813 891 911
3 871 870 872
3 1355 1354 1423
3 489 486 1820
3 778 779 780
3 1025 1176 1875
3 772 773 873
3 803 1743 2347
3 167 202 1679
3 873 883 959
3 1483 1571 2375
3 427 1756 2221
3 540 1813 1954
3 1202 1200 1203
3 959 1035 1037
3 837 921 1775
3 1304 1305 1451
3 1799 1383 2195
3 604 642 1862
3 1470 1744 2474
3 1854 2397 2453
3 1282 1269 1386
3 1573 1572 2157
3 472 2222 2290
3 1307 1708 2341
3 769 770 827
3 1037 1215 1216
3 791 790 856
3 1053 1052 1822
3 1056 1727 1728
3 1341 1138 1352
3 1300 1299 1301
3 1814 696 1838
3 1198 1196 1409
3 492 491 493
3 439 450 451
3 1171 858 2132
3 1259 1254 1260
3 665 626 666
3 970 872 971
3 258 1602 2357
3 1296 1297 1472
3 490 489 491
3 516 437 2494
3 1298 1027 1299
3 846 845 932
3 501 508 509
3 460 461 502
3 448 449 460
3 482 480 1840
3 1229 1228 1230
3 604 641 642
3 1424 1423 1427
3 502 503 526
3 1028 1000 1029
3 935 933 949
3 1084 1085 1867
3 2028 1711 2353
3 1513 1426 1514
3 892 482 1840
3 852 638 1988
3 402 395 1877
3 738 737 845
3 413 412 418
3 1119 1353 1643
3 526 527 546
3 280 279 281
3 1731 1155 2123
3 1042 971 1127
3 1208 1447 1448
3 433 434 448
3 262 159 2304
3 184 1454 2303
3 1051 1052 1053
3 1816 1817 1818
3 1081 1417 1444
3 781 836 837
3 911 951 952
3 1090 1092 1102
3 202 168 1724
3 1085 1309 1310
3 408 407 412
3 1337 1538 1864
3 1515 1514 1516
3 530 529 890
3 1517 1518 1519
3 549 686 687
3 923 1088 1105
3 404 403 407
3 1835 1289 1836
3 1314 1367 2121
3 1380 1379 2416
3 670 671 769
3 899 808 1874
3 1040 903 1703
3 1596 1595 2154
3 1496 1495 1497
3 636 637 1741
3 1377 1638 2288
3 1288 1070 1289
3 1072 804 1981
3 1129 1334 1845
3 1865 1084 1866
3 792 922 1603
3 1253 1252 1254
3 981 1167 1792
3 1302 1301 1303
3 1641 1651 2019
3 952 953 1084
3 1813 1812 1869
3 732 730 733
3 975 1106 1107
3 1142 949 1770
3 981 1166 1167
3 840 841 842
3 451 466 467
3 1273 990 1274
3 1049 1050 1051
3 1473 2407 2505
3 968 966 1199
3 642 643 670
3 1310 1309 1311
3 422 419 435
3 1063 833 1082
3 919 782 920
3 911 891 951
3 1084 953 1085
3 1763 1764 2164
3 1498 1497 1682
3 515 550 1175
3 1079 937 1913
3 642 702 1862
3 845 737 1931
3 1394 1311 1395
3 1395 1521 1522
3 467 479 480
3 1755 1754 1793
3 1231 1230 1232
3 1557 1553 2030
3 1624 1691 2262
3 584 632 633
3 1094 1091 1969
3 708 709 710
3 1948 1627 2488
3 952 951 953
3 1102 1103 1104
3 1047 1048 1049
3 1310 1311 1394
3 1852 1099 1985
3 143 144 1717
3 813 812 891
3 1944 1044 1945
3 1105 1354 1355
3 1300 1302 1455
3 1914 936 1940
3 1415 1391 1710
3 1299 1027 1843
3 952 1084 1865
3 1695 1274 1696
3 776 774 1928
3 282 281 283
3 2003 1347 2279
3 1206 995 1499
3 1164 1685 1686
3 1551 1565 2030
3 969 1172 1919
3 633 668 669
3 734 733 735
3 1373 1372 1438
3 599 600 636
3 1431 1860 2487
3 1579 1577 1999
3 484 482 892
3 917 940 941
3 2144 1836 2169
3 1866 1084 1867
3 1110 1747 1748
3 998 1171 1811
3 1390 1120 1391
3 644 1824 2057
3 1362 1961 2048
3 944 1283 1825
3 1086 1027 1298
3 679 1780 1782
3 974 975 1879
3 507 506 518
3 1121 1079 1401
3 775 777 778
3 1965 762 2349
3 1045 1046 1047
3 1772 421 2106
3 16 17 2081
3 416 417 433
3 921 850 2125
3 1607 1855 1958
3 649 648 1848
3 1241 1240 1242
3 2012 1443 2251
3 926 928 1920
3 1487 1488 2025
3 1006 1191 1421
3 1355 1423 1424
3 1133 852 1988
3 591 592 1776
3 1299 1843 1857
3 1085 1308 1309
3 490 491 492
3 958 694 1575
3 1384 1216 1385
3 741 915 1878
3 1233 1232 1234
3 669 790 791
3 481 480 482
3 687 703 704
3 492 493 494
3 1634 1633 1922
3 1697 1696 1698
3 1721 985 1722
3 1839 1273 1892
3 772 735 773
3 488 486 489
3 950 1005 1006
3 1513 1514 1515
3 454 500 501
3 873 773 883
3 284 283 285
3 2185 1505 2442
3 959 883 1035
3 543 535 1897
3 1904 1384 2093
3 800 801 802
3 1037 1035 1215
3 1293 1964 1965
3 1239 1238 1240
3 943 1143 2125
3 1782 1784 1785
3 913 756 942
3 488 490 1884
3 1590 1749 2501
3 1235 1234 1236
3 791 856 1408
3 702 2015 2070
3 1108 1539 1540
3 1021 1023 1045
3 695 506 1828
3 1530 1528 1532
3 488 489 490
3 1621 1619 2161
3 704 705 706
3 1304 1303 1305
3 558 1704 2167
3 625 622 626
3 542 553 554
3 604 573 641
3 664 684 685
3 564 571 574
3 1108 1540 1879
3 1856 1427 2361
3 880 1025 1129
3 1395 1311 1521
3 1466 1465 1467
3 915 495 1884
3 1515 1516 1523
3 1237 1236 1238
3 606 648 649
3 999 920 1000
3 676 829 1043
3 2100 794 2142
3 227 151 1500
3 577 579 599
3 153 154 1671
3 1175 550 1927
3 1014 888 1015
3 286 285 287
3 1649 1280 2427
3 1725 204 2137
3 975 609 1106
3 1129 1317 1334
3 1109 1730 2426
3 1468 1467 1469
3 1131 1123 1399
3 1215 2235 2378
3 1976 1149 1989
3 397 395 398
3 746 743 1878
3 1041 1343 1598
3 975 1108 1879
3 741 495 915
3 1167 1754 1755
3 288 287 289
3 743 741 1878
3 1274 990 1931
3 1506 214 1507
3 857 1584 2277
3 2341 1522 2387
3 846 932 933
3 1107 1106 1110
3 584 633 1927
3 290 289 291
3 722 591 1776
3 1544 1094 1969
3 1135 270 1647
3 935 949 950
3 1920 1288 2080
3 754 1896 2108
3 1693 1199 2225
3 292 291 293
3 394 393 395
3 745 743 746
3 1002 942 1123
3 731 737 738
3 294 293 295
3 1018 1573 1925
3 296 295 297
3 298 297 299
3 321 322 325
3 317 320 321
3 314 315 317
3 312 313 314
3 310 311 312
3 308 309 310
3 1898 890 2275
3 306 307 308
3 304 305 306
3 1401 1079 1913
3 300 299 301
3 302 303 304
3 300 301 302
3 302 301 303
3 491 489 1936
3 298 299 300
3 304 303 305
3 306 305 307
3 308 307 309
3 310 309 311
3 312 311 313
3 314 313 315
3 317 315 320
3 321 320 322
3 1301 1299 1857
3 514 541 542
3 296 297 298
3 850 838 851
3 1310 1394 1895
3 294 295 296
3 590 605 606
3 292 293 294
3 651 657 658
3 290 291 292
3 1207 1208 1796
3 835 1976 1989
3 621 619 622
3 746 1878 1896
3 481 482 483
3 1026 847 1027
3 1335 1207 1870
3 1661 59 2266
3 727 729 1155
3 288 289 290
3 1058 776 1928
3 662 663 664
3 495 488 1884
3 1959 319 2522
3 943 851 944
3 1293 1291 1964
3 534 532 535
3 640 645 646
3 2280 1014 2385
3 286 287 288
3 591 575 592
3 521 519 529
3 13 14 2114
3 780 779 781
3 918 908 1850
3 837 836 838
3 209 148 1639
3 754 748 1896
3 745 746 747
3 769 671 770
3 929 1065 2197
3 1278 1058 1279
3 483 482 484
3 1564 1557 2030
3 633 807 1927
3 392 391 393
3 1057 1621 2161
3 569 580 581
3 284 285 286
3 876 992 1894
3 497 494 498
3 1630 1635 2041
3 982 1148 1918
3 612 611 613
3 700 634 1044
3 822 674 2099
3 880 1129 1929
3 432 439 654
3 1039 1291 1292
3 1164 1686 1989
3 1129 1025 1317
3 738 845 846
3 582 583 629
3 278 6 279
3 544 568 569
3 1701 1274 1931
3 747 749 751
3 1085 953 1308
3 928 930 1070
3 747 748 749
3 1421 1422 2415
3 902 903 904
3 1309 1308 1543
3 642 641 643
3 904 981 1792
3 646 784 785
3 536 543 544
3 1204 1205 1207
3 365 694 958
3 71 72 217
3 88 89 1901
3 87 88 193
3 101 102 189
3 85 86 242
3 99 100 241
3 74 75 192
3 91 92 219
3 94 95 191
3 83 84 220
3 97 98 221
3 77 78 218
3 80 81 194
3 89 90 245
3 62 63 244
3 60 61 188
3 64 65 223
3 67 68 190
3 90 91 1909
3 98 99 1905
3 61 62 1908
3 69 70 243
3 68 69 1907
3 70 71 1910
3 410 411 416
3 586 589 590
3 685 684 2029
3 390 389 391
3 1715 1150 1811
3 1924 1837 2215
3 282 283 284
3 496 497 1929
3 233 1671 1769
3 627 2185 2442
3 1567 1552 2062
3 629 630 812
3 424 453 454
3 583 562 1942
3 749 750 805
3 744 743 745
3 1897 535 1898
3 467 480 481
3 504 759 880
3 670 643 671
3 89 245 1901
3 193 88 1901
3 221 98 1905
3 245 90 1909
3 91 219 1909
3 62 244 1908
3 188 61 1908
3 99 241 1905
3 190 68 1907
3 71 217 1910
3 69 243 1907
3 243 70 1910
3 505 499 506
3 475 513 514
3 1945 1044 2071
3 1712 2125 2353
3 339 343 440
3 989 1360 1361
3 764 869 1152
3 778 777 779
3 1686 1685 1687
3 742 741 743
3 979 989 1886
3 729 731 1887
3 926 927 928
3 1305 1306 1307
3 1838 1278 2292
3 747 746 748
3 181 182 1652
3 1886 1361 2305
3 1595 1594 2486
3 597 596 598
3 928 1288 1920
3 1970 824 2156
3 1425 1424 1426
3 497 504 1929
3 748 746 1896
3 745 747 1900
3 998 858 1171
3 563 547 564
3 1155 729 1887
3 634 583 1942
3 1439 1173 1440
3 1026 1027 1086
3 79 80 1904
3 1533 1532 1536
3 1449 1426 1513
3 1106 609 1936
3 1318 1013 1319
3 1098 695 1828
3 492 494 496
3 750 748 754
3 731 738 1887
3 2415 1422 2516
3 533 562 582
3 988 1837 1924
3 1216 1215 1863
3 534 535 536
3 747 751 1900
3 1753 809 2119
3 1183 824 1970
3 740 495 741
3 80 194 1904
3 893 383 2087
3 655 605 1939
3 1884 2034 2082
3 1301 1857 1923
3 1307 1306 1708
3 752 745 1900
3 750 754 755
3 76 77 1903
3 2090 2347 2365
3 255 30 2159
3 132 254 2160
3 448 434 449
3 753 848 926
3 1075 1074 1327
3 487 488 495
3 377 381 647
3 483 484 485
3 755 754 2148
3 1584 1925 2277
3 1186 1183 1970
3 951 891 1281
3 485 484 486
3 546 527 547
3 133 134 1766
3 1786 1785 2409
3 280 281 282
3 460 449 461
3 744 745 752
3 77 218 1903
3 983 1918 2342
3 1708 1306 1810
3 1389 2069 2170
3 487 486 488
3 641 573 1954
3 507 518 519
3 502 461 503
3 519 518 1899
3 1202 1203 1204
3 821 897 1972
3 92 93 1902
3 521 529 530
3 749 748 750
3 2176 1380 2416
3 885 826 886
3 485 486 487
3 371 372 376
3 1289 1070 1871
3 1110 1657 1747
3 753 926 1943
3 700 1044 1944
3 880 881 1025
3 496 1845 2034
3 1072 1981 2393
3 462 464 2134
3 1949 1771 2359
3 1044 634 1942
3 550 584 1927
3 1390 1415 2118
3 526 503 527
3 990 845 1931
3 1009 1213 1214
3 740 742 1144
3 219 92 1902
3 727 1155 1899
3 369 370 371
3 623 690 2150
3 1279 1058 1928
3 1408 2235 2286
3 487 495 740
3 979 1886 2086
3 1305 1303 1306
3 421 412 1951
3 843 844 996
3 633 669 807
3 518 727 1899
3 826 825 1961
3 1657 1106 1936
3 1172 1012 1173
3 740 741 742
3 433 417 434
3 505 506 507
3 1333 1674 2437
3 742 743 744
3 469 458 470
3 1381 1380 1382
3 1293 1965 2515
3 1554 1559 2062
3 553 557 2499
3 1774 389 2339
3 497 498 499
3 483 485 576
3 740 1144 1935
3 773 735 834
3 366 367 369
3 1120 1118 1876
3 1515 1523 1574
3 1319 1013 2039
3 1303 1301 1923
3 457 447 458
3 561 593 594
3 1355 1424 1425
3 609 491 1936
3 204 1732 2137
3 791 1408 1642
3 995 944 1825
3 456 471 475
3 1692 1693 2239
3 580 1763 2164
3 1292 1293 2117
3 441 452 456
3 388 384 389
3 823 821 1972
3 504 880 1929
3 176 177 1680
3 1070 1071 1871
3 15 2260 2477
3 362 363 366
3 2178 2300 2449
3 1035 883 1036
3 2285 1563 2307
3 978 977 1074
3 1090 1102 2029
3 1810 1306 1923
3 496 494 497
3 1306 1303 1923
3 432 654 1915
3 934 933 935
3 356 355 365
3 398 403 404
3 635 701 843
3 1110 1106 1657
3 574 571 575
3 1025 881 1176
3 386 380 786
3 415 432 1915
3 343 347 1911
3 1070 930 1071
3 1688 1740 2231
3 1385 1216 1863
3 1696 1274 1701
3 1645 305 2317
3 880 759 881
3 926 848 927
3 1427 1423 2217
3 1339 1662 2388
3 770 774 775
3 1263 1257 1428
3 1337 1864 2412
3 349 348 355
3 2267 1721 2498
3 753 752 847
3 1375 1086 1473
3 900 982 983
3 332 335 739
3 429 428 430
3 744 752 753
3 1171 2132 2165
3 1425 1426 1449
3 987 641 1954
3 1883 1786 2409
3 427 426 428
3 928 927 930
3 1815 1105 2015
3 1206 1499 1941
3 410 406 411
3 573 540 1954
3 497 499 504
3 528 560 561
3 1933 1404 2399
3 1091 1089 1969
3 1804 1282 2073
3 504 505 759
3 963 924 1113
3 1711 1710 1712
3 881 759 1146
3 968 1199 1200
3 351 352 362
3 848 847 1026
3 521 530 531
3 1884 490 2034
3 1277 957 1966
3 1349 1350 2329
3 676 1043 2045
3 997 1159 1286
3 517 1889 1890
3 781 835 836
3 944 948 1283
3 722 1776 2026
3 507 519 520
3 2040 1352 2058
3 1276 957 1277
3 446 437 447
3 931 860 977
3 361 359 765
3 1248 1536 2534
3 512 523 528
3 408 412 413
3 1368 1369 1370
3 451 2169 2223
3 192 75 1994
3 942 756 2026
3 345 344 348
3 764 1152 1963
3 413 418 419
3 1286 1773 1774
3 770 671 774
3 275 549 2124
3 1497 1645 2461
3 1982 1472 2272
3 422 435 441
3 281 279 736
3 1134 270 1135
3 582 562 583
3 1421 2415 2454
3 485 487 1935
3 2300 1067 2480
3 1578 1576 1827
3 930 927 1061
3 1026 1086 1375
3 922 2259 2379
3 1391 1120 1876
3 1495 1494 2493
3 404 407 408
3 879 2178 2449
3 1700 1698 2036
3 607 1517 1520
3 753 847 848
3 416 411 417
3 1144 742 1943
3 775 776 777
3 754 2108 2148
3 1006 1421 1953
3 585 581 586
3 531 530 532
3 235 1709 1888
3 520 519 521
3 1180 1181 1349
3 1146 759 1967
3 708 710 1921
3 1350 2253 2329
3 436 430 437
3 504 499 505
3 643 641 987
3 336 330 517
3 811 1059 1149
3 1164 1411 1685
3 846 933 934
3 635 843 1960
3 983 982 1918
3 971 872 1096
3 1149 1163 1164
3 169 237 1724
3 1314 1315 1316
3 629 583 630
3 891 812 1916
3 462 463 464
3 487 740 1935
3 798 2084 2189
3 1814 1838 2292
3 1284 1489 1491
3 340 336 2014
3 1670 1461 2200
3 920 782 2057
3 890 2241 2275
3 510 511 512
3 278 279 280
3 839 802 840
3 1858 235 1888
3 1698 1696 2036
3 104 105 222
3 57 58 224
3 1185 1183 1186
3 588 587 623
3 638 600 1988
3 1282 1386 2245
3 811 776 1058
3 816 815 876
3 2034 1845 2082
3 761 636 1741
3 566 565 587
3 174 175 1725
3 347 350 351
3 1469 1495 1496
3 1059 1058 1278
3 811 1149 1976
3 576 485 1935
3 659 658 660
3 859 1153 1962
3 76 1903 1994
3 1821 1109 2426
3 1294 1038 1622
3 733 1833 2075
3 992 993 1980
3 1566 1561 2285
3 525 474 2041
3 464 465 510
3 343 346 347
3 360 893 1982
3 650 649 651
3 896 608 936
3 950 1006 1007
3 1508 1859 1860
3 539 538 565
3 440 343 1911
3 341 340 344
3 221 1905 1906
3 1297 1823 2142
3 759 505 1967
3 1295 1053 1296
3 473 470 474
3 1463 1465 1466
3 1143 1206 2028
3 799 685 800
3 1210 2077 2203
3 509 508 538
3 492 496 2034
3 1553 1551 2030
3 1260 1261 1269
3 1430 1040 1703
3 586 590 1940
3 838 836 868
3 1705 624 2276
3 1749 972 2501
3 742 744 1943
3 804 962 1981
3 1367 1368 2254
3 531 532 533
3 337 336 340
3 1157 1094 1544
3 536 544 1158
3 812 630 1960
3 781 779 835
3 56 57 1947
3 630 583 634
3 1405 1404 1932
3 1281 891 1916
3 339 342 343
3 1411 1163 1730
3 322 323 324
3 344 340 2091
3 1735 1734 1736
3 75 76 1994
3 430 682 2494
3 1907 243 2360
3 589 581 2164
3 694 355 2196
3 744 753 1943
3 775 774 776
3 1210 1430 2077
3 335 338 339
3 1102 1803 2029
3 1078 937 1079
3 870 655 1939
3 505 507 1967
3 357 360 1982
3 1896 1878 2101
3 326 325 328
3 934 935 957
3 585 608 895
3 333 330 336
3 1270 1272 1524
3 688 817 878
3 507 520 1967
3 1428 1257 2074
3 1818 1817 2000
3 896 937 1077
3 934 957 1111
3 329 328 330
3 1499 995 1825
3 944 851 948
3 387 445 462
3 1678 1161 2228
3 777 776 811
3 313 311 757
3 324 331 332
3 848 1026 1955
3 1312 998 1811
3 1321 1322 2037
3 1080 1079 1121
3 1105 1355 2015
3 1645 2317 2461
3 1559 1568 2062
3 332 334 335
3 501 500 508
3 321 325 326
3 394 395 397
3 322 320 323
3 1529 1530 2171
3 1137 797 1138
3 811 1058 1059
3 661 660 662
3 569 581 585
3 183 4 2303
3 5 160 2304
3 1340 1138 1341
3 1660 1626 2185
3 1743 1464 2347
3 1026 1375 1955
3 1149 1059 1163
3 1736 1625 2194
3 1322 1667 2434
3 311 309 1959
3 309 307 319
3 894 700 1944
3 533 534 562
3 1276 1277 1366
3 2190 1706 2408
3 533 532 534
3 1214 1213 1410
3 1164 1163 1411
3 843 701 844
3 1009 1214 2055
3 234 1589 1788
3 2000 1817 2174
3 317 321 2050
3 328 325 945
3 392 393 394
3 588 623 2089
3 1162 958 1681
3 1078 1080 1136
3 927 848 1955
3 1496 1497 1498
3 390 391 392
3 1061 927 1955
3 1283 948 1284
3 635 634 700
3 1244 1251 1252
3 218 78 2093
3 756 722 2026
3 1071 1784 2419
3 1218 1505 2185
3 1284 948 1285
3 1489 1285 1490
3 918 1850 1851
3 684 1090 2029
3 1759 572 2537
3 1691 1690 2446
3 1979 1158 2071
3 606 649 650
3 2045 1043 2046
3 103 104 2025
3 630 634 635
3 360 383 893
3 406 386 2043
3 1909 219 2023
3 1111 957 1276
3 1925 1437 2277
3 1536 2268 2340
3 854 852 1133
3 233 153 1671
3 651 658 659
3 2099 1787 2368
3 1033 1032 1130
3 1015 1372 1373
3 1412 942 2026
3 253 264 1441
3 1531 1534 2332
3 701 700 894
3 106 107 1990
3 2048 1961 2455
3 276 274 2099
3 738 846 1968
3 1325 925 1326
3 896 936 937
3 585 586 608
3 1450 854 1973
3 1361 1360 1362
3 1045 1668 2512
3 303 301 444
3 996 844 997
3 79 1904 2093
3 1989 1686 2095
3 1928 774 2033
3 1942 562 1979
3 287 285 316
3 935 950 1966
3 1466 1467 1468
3 1242 1243 1244
3 1887 738 1968
3 2115 210 2477
3 878 929 1083
3 1326 1736 2194
3 886 888 1014
3 895 608 896
3 289 287 1978
3 821 822 897
3 936 608 1940
3 613 614 615
3 51 52 1996
3 417 411 1160
3 1149 1164 1989
3 386 786 2043
3 285 283 1971
3 1309 1543 2147
3 375 373 2053
3 371 370 372
3 779 777 1976
3 1286 1159 1773
3 2177 887 2376
3 1560 1557 1564
3 1403 1882 2399
3 1727 1757 2246
3 279 6 2049
3 1619 1438 2438
3 291 289 758
3 1781 1915 2294
3 425 401 426
3 349 355 356
3 66 67 2118
3 474 548 2041
3 1686 1687 2007
3 1262 1456 1457
3 1123 942 1412
3 1916 812 1960
3 1355 1425 2015
3 735 733 2075
3 1861 879 2449
3 1284 1285 1489
3 490 492 2034
3 366 363 367
3 980 578 2051
3 906 904 1792
3 534 536 1979
3 842 924 963
3 2051 578 2083
3 1077 937 1078
3 1102 1104 1803
3 894 1944 1946
3 398 404 2060
3 1007 1006 1953
3 369 367 370
3 348 354 2196
3 1078 1079 1080
3 1378 1380 1381
3 1568 1365 2439
3 608 586 1940
3 598 610 611
3 760 636 761
3 869 1137 1351
3 671 643 2033
3 1661 1345 2267
3 938 914 1057
3 783 761 914
3 576 1835 2144
3 388 389 390
3 297 295 318
3 454 453 500
3 1906 1728 2246
3 1439 1440 2468
3 1159 1013 1318
3 764 797 869
3 236 143 1717
3 782 644 2057
3 592 595 596
3 1542 2332 2443
3 1521 1311 2147
3 345 348 349
3 1304 1452 2205
3 1644 1907 2360
3 2146 1125 2149
3 997 844 1013
3 628 375 2053
3 299 297 1984
3 957 935 1966
3 664 685 799
3 301 299 1975
3 362 352 363
3 777 811 1976
3 1942 1979 2071
3 1001 920 2057
3 312 314 768
3 1552 1554 2062
3 615 616 617
3 357 1982 2076
3 800 802 839
3 774 671 2033
3 1749 1169 2105
3 365 958 1162
3 617 618 619
3 283 281 1938
3 1351 1772 2414
3 1525 1765 2489
3 846 934 1968
3 635 700 701
3 555 554 577
3 536 1158 1979
3 1101 1404 1405
3 630 635 1960
3 1811 1150 2089
3 2113 1666 2249
3 172 173 1847
3 107 108 195
3 54 55 196
3 1191 1768 2023
3 1455 1302 2205
3 115 116 2017
3 1387 1333 2437
3 659 661 764
3 1080 1121 1188
3 50 51 2011
3 411 406 2043
3 295 293 1983
3 643 987 2033
3 707 706 708
3 129 130 261
3 32 33 260
3 2159 260 2265
3 449 434 567
3 1314 1029 1315
3 917 796 940
3 378 375 628
3 108 109 1991
3 2370 1759 2537
3 341 344 345
3 997 1013 1159
3 544 569 1993
3 950 1007 1966
3 477 474 525
3 351 350 352
3 1696 1701 2036
3 334 331 803
3 1137 1138 1340
3 562 534 1979
3 109 110 246
3 52 53 247
3 1368 1316 1369
3 659 660 661
3 33 34 2002
3 123 124 2005
3 835 779 1976
3 851 838 1992
3 1530 1533 2172
3 1668 1045 2348
3 1162 1681 1706
3 342 338 468
3 298 300 358
3 765 359 2065
3 725 826 885
3 35 36 2003
3 46 47 2019
3 38 39 2006
3 336 517 2014
3 934 1111 1968
3 116 117 2018
3 650 651 1963
3 223 1711 2162
3 640 594 645
3 1333 1330 2192
3 104 222 2025
3 1603 922 2379
3 963 1113 1115
3 2084 1193 2189
3 564 570 571
3 36 37 2004
3 57 224 1947
3 1542 1601 2269
3 122 123 2012
3 1000 920 1001
3 127 128 240
3 34 35 239
3 383 387 2087
3 1161 1107 2228
3 1781 2294 2419
3 1201 1200 1202
3 124 125 225
3 37 38 226
3 1340 1341 1342
3 869 797 1137
3 839 840 1008
3 1158 544 1993
3 1326 925 1894
3 352 350 353
3 326 329 954
3 1864 2344 2412
3 836 835 2095
3 1051 1053 1295
3 1031 720 1032
3 503 461 787
3 1407 1112 2044
3 661 662 2058
3 838 868 1992
3 112 113 197
3 49 50 198
3 1359 980 1413
3 121 122 211
3 40 41 212
3 48 49 2010
3 113 114 2009
3 1741 673 2131
3 41 42 2020
3 120 121 2013
3 1409 2035 2097
3 1511 1374 2506
3 114 115 248
3 47 48 249
3 42 43 250
3 119 120 251
3 171 6 201
3 6 172 203
3 585 895 1993
3 43 44 2024
3 118 119 2021
3 905 904 906
3 764 661 797
3 337 340 341
3 1413 980 2051
3 117 118 205
3 44 45 206
3 347 346 350
3 1420 1076 1525
3 324 323 331
3 434 417 2031
3 965 967 969
3 716 719 788
3 1260 1254 1261
3 2053 373 2103
3 2069 2068 2170
3 326 328 329
3 1706 996 2408
3 273 275 2124
3 969 1011 1012
3 590 606 2001
3 1718 1611 2280
3 1914 1940 2001
3 915 1884 2082
3 329 330 333
3 620 859 955
3 2168 1409 2305
3 296 298 1997
3 915 2082 2101
3 339 338 342
3 1218 994 1505
3 333 336 337
3 266 263 1742
3 1873 768 2127
3 244 63 2162
3 64 223 2162
3 343 342 346
3 914 761 2258
3 310 312 1987
3 799 800 2055
3 302 304 763
3 1559 1566 1568
3 1598 1343 2114
3 592 575 595
3 341 345 794
3 189 1842 2220
3 767 815 816
3 1003 912 1004
3 839 1008 1009
3 1263 1428 1429
3 564 547 570
3 1845 1334 2082
3 332 331 334
3 901 866 902
3 651 659 1963
3 1009 1112 1213
3 335 334 338
3 569 585 1993
3 1665 1336 2299
3 1945 2071 2153
3 863 862 864
3 907 906 908
3 1849 1486 1930
3 1935 1144 2080
3 967 966 968
3 809 900 2119
3 865 864 866
3 835 1989 2095
3 190 1907 2417
3 333 337 522
3 1110 1748 2228
3 1193 1194 1195
3 94 191 2166
3 473 1854 2453
3 1769 1134 2369
3 948 851 1992
3 237 170 2216
3 420 419 422
3 1448 1447 2364
3 483 576 2144
3 721 1919 2032
3 885 886 1891
3 613 611 614
3 886 1014 1891
3 1160 411 2043
3 1918 1283 2342
3 1651 206 2485
3 1242 1240 1243
3 598 596 610
3 1295 1296 1459
3 1185 1186 1948
3 1425 1449 2070
3 294 296 762
3 1285 948 1992
3 925 876 1894
3 712 714 789
3 603 1668 2398
3 1940 590 2001
3 721 570 964
3 834 735 2075
3 1144 1920 2080
3 2263 1635 2511
3 1204 1207 1335
3 2235 1408 2378
3 965 964 966
3 1990 1435 2218
3 397 398 2060
3 1138 797 2058
3 1787 1141 2368
3 2068 820 2170
3 360 359 361
3 387 462 2087
3 1524 1272 1934
3 819 698 820
3 1197 1196 1198
3 1662 2126 2388
3 78 79 2093
3 1150 588 2089
3 1269 1261 1270
3 1878 915 2101
3 451 467 2169
3 2262 1387 2437
3 1009 1008 1112
3 757 311 1959
3 897 898 1139
3 1854 473 2483
3 2015 1425 2070
3 2082 1334 2101
3 963 1115 1174
3 1047 1049 1287
3 1194 423 1196
3 321 326 2050
3 417 1160 2031
3 854 1133 1973
3 1201 1212 1348
3 705 1586 2163
3 309 319 1959
3 1353 1390 2417
3 427 428 429
3 357 356 359
3 606 650 2001
3 549 1280 2124
3 1213 1112 1407
3 256 2303 2535
3 356 365 2065
3 662 664 2040
3 701 894 2039
3 1325 1371 2451
3 666 626 667
3 1902 93 2166
3 1236 1234 1246
3 800 839 2055
3 1869 1812 2252
3 1197 1364 1365
3 576 1935 2080
3 404 408 798
3 1678 807 2529
3 1560 1564 2016
3 1319 2039 2122
3 425 426 427
3 349 356 357
3 308 310 327
3 1716 622 2484
3 1801 82 2289
3 1768 1949 2420
3 2006 1926 2507
3 351 364 2407
3 420 423 1193
3 659 764 1963
3 292 294 2038
3 840 842 2027
3 736 279 2049
3 372 373 374
3 461 449 2052
3 2189 1195 2285
3 1174 1115 1398
3 367 363 961
3 909 908 918
3 1738 247 2402
3 1007 1761 2308
3 288 290 2135
3 422 441 2035
3 623 624 690
3 537 525 545
3 1953 1421 2454
3 1887 1968 2123
3 861 691 862
3 654 439 2223
3 1136 1080 2054
3 1312 1811 2089
3 575 571 2032
3 383 361 384
3 968 1200 1201
3 797 661 2058
3 1423 1354 2381
3 1180 1178 1181
3 1513 1515 2180
3 72 73 2217
3 462 445 463
3 12 13 2136
3 457 458 469
3 542 554 555
3 599 636 760
3 254 133 1766
3 1130 1397 1937
3 404 798 2060
3 1044 1942 2071
3 690 691 860
3 357 359 360
3 1008 2027 2152
3 1232 1230 1255
3 372 370 373
3 850 943 2125
3 1457 1456 1492
3 1952 324 2282
3 155 2 2356
3 0 7 2357
3 2017 1379 2288
3 918 1851 2008
3 195 1991 2517
3 2090 803 2347
3 1244 1243 1251
3 290 292 368
3 1432 1082 2214
3 1008 840 2027
3 1743 803 2296
3 1013 844 2039
3 365 1162 2065
3 1594 1315 2184
3 387 384 388
3 1508 1860 2311
3 547 527 2056
3 2005 225 2322
3 314 317 2127
3 1853 556 2327
3 201 6 278
3 1907 1644 2417
3 1896 2101 2108
3 646 645 784
3 538 508 558
3 374 375 377
3 1630 1634 1635
3 1579 1999 2352
3 1647 1648 1849
3 1313 1314 2121
3 1179 1433 2042
3 844 701 2039
3 1252 1251 2098
3 816 876 925
3 1922 1228 2281
3 392 394 396
3 1915 654 2294
3 1652 1653 2487
3 429 430 436
3 456 475 476
3 1605 1392 2510
3 126 1882 2284
3 1784 1780 2419
3 500 453 960
3 377 378 381
3 2178 1587 2300
3 1222 1219 1626
3 413 419 420
3 381 382 400
3 2169 1836 2223
3 1906 1905 2129
3 616 614 793
3 1170 1419 2139
3 101 189 2220
3 241 100 2220
3 1968 1111 2123
3 567 434 2031
3 615 614 616
3 1032 720 1921
3 682 428 2138
3 469 470 473
3 339 440 2261
3 1501 238 2226
3 1154 1431 1653
3 446 447 457
3 1251 1243 1257
3 2229 315 2495
3 1201 1202 1212
3 785 784 879
3 464 463 465
3 66 2118 2395
3 324 332 2282
3 286 288 771
3 17 199 2081
3 571 570 721
3 611 610 2092
3 617 616 618
3 1542 1531 2332
3 400 401 424
3 1325 1326 1371
3 1140 1406 1702
3 1323 443 2302
3 1926 1573 2507
3 436 437 446
3 1262 1457 2098
3 67 190 2118
3 1518 1861 2449
3 989 1359 1360
3 1063 1082 1154
3 1757 96 2526
3 969 967 1011
3 868 836 2095
3 1215 1035 2235
3 96 1757 2309
3 261 2160 2380
3 1381 1382 2126
3 1468 1469 2182
3 1334 1317 2108
3 861 863 1064
3 1270 1261 1271
3 360 361 383
3 287 316 1978
3 1856 192 2367
3 1905 241 2129
3 1615 1809 2425
3 528 523 560
3 979 980 989
3 662 2040 2058
3 721 964 965
3 170 171 2216
3 664 799 2040
3 512 511 523
3 1201 1348 2107
3 620 618 858
3 758 289 1978
3 859 858 998
3 424 425 453
3 1616 1615 2193
3 444 301 1975
3 561 560 593
3 965 966 967
3 1798 376 2430
3 340 2014 2091
3 510 465 511
3 107 195 1990
3 1080 1188 2054
3 1153 998 1312
3 1226 1224 1249
3 1012 1011 1363
3 902 904 905
3 842 963 2027
3 268 270 1134
3 865 901 1125
3 2077 558 2102
3 282 284 442
3 1977 1679 2253
3 1496 1498 2047
3 284 286 2063
3 281 736 1938
3 2132 793 2165
3 1674 215 2437
3 2078 1855 2411
3 839 1009 2055
3 1182 824 1183
3 1168 947 1169
3 1289 1871 2242
3 316 285 1971
3 1270 1271 1272
3 1755 1793 2264
3 51 1996 2011
3 383 384 387
3 1146 1924 2215
3 1279 1928 2202
3 619 618 620
3 1194 1196 1197
3 555 578 979
3 1937 1639 2528
3 1262 1257 1263
3 389 384 2339
3 2251 1338 2464
3 1155 1887 2123
3 1151 1937 2528
3 465 463 828
3 1318 1319 2116
3 1687 1688 2231
3 326 954 2050
3 297 318 1984
3 1308 953 2255
3 1846 2056 2198
3 320 315 2229
3 1254 1252 2059
3 760 761 783
3 951 1281 2255
3 1459 1296 2094
3 2288 1638 2470
3 1975 299 1984
3 52 247 1996
3 468 338 2090
3 2140 1511 2506
3 1125 1126 1192
3 593 824 1182
3 720 708 1921
3 704 706 707
3 623 587 624
3 2044 1112 2152
3 1393 1169 1749
3 900 983 2119
3 783 914 938
3 255 2265 2489
3 2039 894 2122
3 317 2050 2127
3 1866 1867 2513
3 374 373 375
3 429 436 455
3 387 388 445
3 1193 423 1194
3 555 577 578
3 1074 977 1187
3 449 567 2052
3 1197 1198 1364
3 2154 1595 2486
3 1486 1849 2173
3 318 295 1983
3 939 1016 1844
3 131 132 2160
3 30 31 2159
3 881 1146 2215
3 1294 1868 2238
3 1300 1455 2314
3 1365 1364 1912
3 783 938 939
3 2061 1735 2441
3 551 545 601
3 2194 216 2536
3 1251 1257 1262
3 888 887 2177
3 1364 1198 2048
3 1498 1682 2340
3 1589 1590 2501
3 60 188 2266
3 1401 1913 2324
3 195 108 1991
3 420 422 423
3 1675 1470 2474
3 258 1673 2183
3 2161 1619 2438
3 1296 1472 2094
3 1808 1910 2381
3 334 803 2090
3 1490 1285 2232
3 523 511 524
3 1240 1238 2074
3 1184 1183 1185
3 39 40 2151
3 473 474 477
3 1461 1463 2200
3 2072 353 2073
3 861 862 863
3 1206 1941 2401
3 958 1575 2287
3 614 611 2092
3 110 111 2140
3 1136 2054 2110
3 645 594 2133
3 260 33 2002
3 673 767 2131
3 989 980 1359
3 1741 2131 2258
3 1317 1875 2148
3 894 1946 2122
3 863 864 865
3 787 461 2052
3 857 2277 2386
3 109 246 1991
3 2017 116 2018
3 1182 1183 1184
3 377 375 378
3 816 925 1324
3 865 866 901
3 1262 1263 1456
3 359 356 2065
3 2129 241 2472
3 283 1938 1971
3 1458 1210 2203
3 1076 1003 2145
3 196 1738 2402
3 1033 1130 1151
3 1188 1121 2106
3 1140 1702 2096
3 549 687 1280
3 1694 1621 2191
3 861 1064 2112
3 1548 1549 2129
3 1784 1071 2462
3 714 716 2066
3 1961 825 2455
3 1447 1211 2250
3 979 578 980
3 905 907 1209
3 381 378 382
3 457 469 552
3 595 575 2032
3 408 413 2084
3 481 483 2144
3 1745 1349 2293
3 1980 1405 2441
3 198 50 2011
3 248 115 2017
3 912 819 2068
3 620 858 859
3 707 708 720
3 821 674 822
3 514 542 2086
3 400 382 401
3 123 2005 2012
3 1772 1351 2374
3 34 239 2002
3 768 314 2127
3 2003 36 2004
3 280 282 2079
3 124 225 2005
3 596 595 2130
3 593 560 824
3 1504 1502 2519
3 239 35 2003
3 1311 1309 2147
3 1318 1877 2240
3 1860 1432 2311
3 1416 1715 2330
3 859 998 1153
3 352 353 2072
3 312 768 1987
3 2027 1174 2152
3 226 38 2006
3 1827 1024 2117
3 1710 1391 2295
3 690 624 691
3 37 226 2004
3 1153 1312 1885
3 853 855 2186
3 1892 242 2373
3 1967 520 2174
3 939 938 1016
3 47 249 2019
3 388 390 2078
3 1991 2139 2517
3 905 906 907
3 571 721 2032
3 1196 423 2035
3 1324 925 1325
3 1151 1130 1937
3 363 352 2072
3 345 349 2076
3 1031 1032 1033
3 214 179 1859
3 211 122 2012
3 602 601 652
3 117 205 2018
3 710 712 2067
3 1602 187 2357
3 520 2000 2174
3 85 242 2335
3 220 84 2335
3 381 400 2113
3 1586 1587 2435
3 424 401 425
3 963 1174 2027
3 860 691 861
3 610 596 2130
3 1958 2078 2431
3 570 547 2056
3 237 2216 2354
3 1211 1692 2219
3 298 358 1997
3 909 947 1041
3 441 456 2097
3 1135 1647 1849
3 1601 1542 2443
3 197 113 2009
3 49 198 2010
3 1911 347 2407
3 1729 191 2309
3 212 41 2020
3 121 211 2013
3 222 105 2218
3 1125 901 1126
3 114 248 2009
3 249 48 2010
3 42 250 2020
3 251 120 2013
3 233 1769 2369
3 1870 647 2113
3 794 345 2076
3 250 43 2024
3 119 251 2021
3 901 902 2141
3 964 570 2056
3 739 335 2261
3 2108 1317 2148
3 577 599 2083
3 205 118 2021
3 44 206 2024
3 1247 1241 2323
3 1894 992 2244
3 6 203 2049
3 1642 1678 2529
3 1417 1873 2333
3 1422 2023 2516
3 341 794 2100
3 73 74 2361
3 1234 1232 2088
3 1261 1254 2059
3 896 1077 2257
3 1921 710 2067
3 125 126 2284
3 220 1699 2289
3 159 5 2304
3 4 184 2303
3 2059 1252 2098
3 1003 1004 2145
3 2328 1325 2451
3 1486 227 1500
3 63 64 2162
3 2081 1192 2260
3 508 500 2102
3 667 1872 2318
3 338 334 2090
3 423 422 2035
3 1192 1126 1471
3 907 908 909
3 1330 1328 2192
3 1972 897 2500
3 2443 316 2514
3 242 86 2373
3 87 193 2373
3 420 1193 2084
3 1473 1086 2358
3 1987 768 2037
3 522 337 2100
3 627 1660 2185
3 1793 446 2264
3 1405 2061 2441
3 1502 1217 2302
3 171 201 2216
3 1158 1993 2153
3 1197 1365 2120
3 1712 1710 2295
3 1121 1401 2414
3 93 94 2166
3 653 652 688
3 622 1716 2452
3 1345 1720 2267
3 477 537 556
3 128 129 2181
3 2331 1295 2458
3 784 645 874
3 1269 1270 2199
3 189 102 2355
3 1041 1168 1343
3 246 110 2140
3 477 525 537
3 755 1895 2371
3 1947 1723 2313
3 1134 1135 2369
3 223 65 2395
3 968 1201 2107
3 1577 1578 2325
3 210 15 2477
3 961 363 2072
3 1581 1579 2352
3 349 357 2076
3 337 341 2100
3 305 303 2317
3 370 367 2103
3 762 296 1997
3 581 580 2164
3 1278 1838 2372
3 1548 2129 2472
3 594 593 2133
3 2021 251 2022
3 2047 1247 2182
3 967 968 2107
3 1169 947 2008
3 481 2144 2169
3 793 614 2092
3 1910 217 2381
3 1251 1262 2098
3 716 788 2066
3 2101 1334 2108
3 2006 39 2151
3 1603 2379 2508
3 1926 2006 2151
3 96 97 2526
3 750 755 2371
3 789 714 2066
3 909 918 947
3 1993 895 2153
3 106 1990 2218
3 1243 1240 2074
3 832 986 1189
3 1283 1284 2342
3 2297 195 2517
3 1043 829 2326
3 767 816 2131
3 602 653 676
3 1004 912 2068
3 2086 1886 2224
3 1124 2177 2467
3 426 401 2531
3 707 720 1030
3 1000 1001 2184
3 1315 1029 2184
3 467 481 2169
3 541 513 2256
3 647 381 2113
3 225 2284 2510
3 2 156 2356
3 187 0 2357
3 40 212 2151
3 2245 1386 2383
3 676 677 829
3 1004 2068 2069
3 1860 232 2487
3 1031 1033 1034
3 829 830 972
3 996 997 2408
3 1195 1194 2120
3 987 1869 2202
3 1410 1213 2222
3 819 820 2068
3 1485 1486 2173
3 1564 2030 2155
3 807 669 2529
3 129 261 2181
3 1525 1076 2145
3 578 577 2083
3 327 310 1987
3 1083 929 2197
3 2131 1324 2258
3 798 408 2084
3 1838 696 2426
3 1486 1500 1930
3 1946 1944 2291
3 2257 1077 2291
3 1512 1661 2266
3 445 388 2078
3 1192 1471 2260
3 2118 1415 2395
3 1466 1468 2158
3 830 677 831
3 211 2012 2251
3 652 601 2442
3 537 545 551
3 558 508 2102
3 198 2011 2128
3 1718 2280 2385
3 500 960 2102
3 1168 1169 1393
3 1127 971 2496
3 95 96 2309
3 2030 1565 2155
3 1919 1172 2273
3 977 860 2112
3 240 128 2181
3 294 762 2038
3 1800 1799 2195
3 712 789 2067
3 972 1749 2326
3 472 1683 2212
3 874 645 2133
3 551 2045 2201
3 2105 1043 2326
3 1957 1212 2301
3 1514 1856 2367
3 565 538 2167
3 373 370 2103
3 355 348 2196
3 1934 1272 2138
3 1934 426 2531
3 1881 1400 2481
3 2046 1851 2327
3 367 961 2103
3 1963 1152 2206
3 201 278 443
3 3 131 2444
3 31 1 2445
3 2035 441 2097
3 503 787 2198
3 1135 1849 1930
3 1534 1983 2306
3 2089 623 2150
3 687 704 2109
3 869 1351 2363
3 1302 1304 2205
3 955 1716 2484
3 1030 720 1031
3 1159 1318 2240
3 1228 1226 2281
3 947 918 2008
3 413 420 2084
3 785 879 2532
3 1041 947 1168
3 1468 2182 2323
3 1246 1234 2088
3 1730 1163 2372
3 542 555 2086
3 1599 631 2312
3 1146 1967 2174
3 1078 1136 2343
3 1515 1574 2180
3 2336 885 2469
3 1257 1243 2074
3 1347 1346 2279
3 2001 650 2206
3 1480 1601 2514
3 1029 1000 2184
3 1956 788 2336
3 1271 1261 2059
3 130 3 2444
3 1 32 2445
3 1570 1507 2197
3 1232 1255 2088
3 791 1642 2529
3 1601 1479 2269
3 1361 1362 2168
3 1634 1922 2281
3 765 2065 2190
3 2071 1158 2153
3 1699 1801 2289
3 832 831 833
3 1864 346 2344
3 456 476 2097
3 1855 828 2411
3 2065 1162 2190
3 1125 1192 2149
3 599 760 2083
3 361 765 2339
3 1731 2123 2241
3 1349 1181 1350
3 1443 1275 2251
3 1819 524 2429
3 1021 1045 2512
3 858 618 2132
3 1999 358 2338
3 368 292 2038
3 290 368 2135
3 803 331 2296
3 1112 1008 2152
3 56 1947 2313
3 555 979 2086
3 1469 1496 2182
3 1011 967 2107
3 248 2017 2288
3 1809 789 2425
3 960 453 2221
3 538 558 2167
3 1858 1187 2248
3 2246 1757 2526
3 902 905 2141
3 1851 1853 2327
3 1224 1222 2111
3 771 288 2135
3 1945 2153 2257
3 1420 1525 2489
3 1399 1123 2393
3 103 2025 2355
3 897 822 898
3 1861 940 2532
3 865 1125 2146
3 1675 2474 2522
3 1573 2157 2507
3 1632 1631 2382
3 551 601 602
3 527 503 2198
3 1708 805 2337
3 1059 1278 2372
3 2056 527 2198
3 860 861 2112
3 1668 2348 2398
3 255 2159 2265
3 1541 1542 2269
3 1428 2074 2227
3 1582 1583 2321
3 389 1774 2503
3 2004 226 2157
3 1777 397 2405
3 1368 1436 2254
3 1061 2409 2462
3 1071 930 2462
3 1126 901 2141
3 1194 1197 2120
3 1452 1952 2282
3 2116 1319 2482
3 105 106 2218
3 1981 1399 2393
3 2119 983 2143
3 444 1682 2461
3 2173 1648 2463
3 616 793 2132
3 1791 1190 2334
3 1826 1728 2259
3 602 652 653
3 1834 1292 2428
3 556 2201 2327
3 1014 1015 2385
3 1995 1287 2331
3 1193 1195 2189
3 816 1324 2131
3 879 1861 2532
3 593 1182 2133
3 1402 266 1742
3 2216 1323 2354
3 1660 1636 2502
3 620 955 2484
3 1162 1706 2190
3 1870 2113 2249
3 204 1680 1732
3 1909 2023 2420
3 217 72 2217
3 376 372 2430
3 905 1209 2141
3 1378 1381 2283
3 1236 1246 2227
3 286 771 2063
3 1635 2263 2502
3 100 101 2220
3 1139 898 1140
3 2114 1343 2136
3 442 284 2063
3 1772 2106 2414
3 1985 1755 2533
3 2192 1328 2315
3 1064 863 2146
3 1631 1637 2459
3 736 2049 2523
3 221 1906 2246
3 318 1983 2171
3 1496 2047 2182
3 1374 2139 2506
3 196 55 2313
3 2087 462 2134
3 676 653 677
3 2304 257 2491
3 1401 2324 2363
3 829 677 830
3 654 2223 2242
3 1187 977 2112
3 1463 1466 2200
3 2023 219 2516
3 1176 881 2215
3 513 471 2290
3 1812 459 2252
3 1386 1269 2199
3 291 758 2306
3 618 616 2132
3 278 280 2210
3 83 220 2289
3 82 83 2289
3 938 1057 2161
3 1189 986 1190
3 788 719 2336
3 1914 2001 2206
3 232 181 1652
3 1567 2062 2490
3 313 757 2495
3 622 619 2484
3 688 878 1320
3 1222 1626 2111
3 282 442 2079
3 1169 2008 2105
3 1966 1007 2308
3 2040 799 2237
3 1744 2229 2495
3 986 833 1063
3 2284 1605 2510
3 887 1961 2376
3 215 1624 2262
3 830 831 832
3 476 475 2224
3 439 451 2223
3 1932 1933 2380
3 2227 1246 2366
3 1212 1202 2301
3 1107 1110 2228
3 249 2010 2299
3 1983 293 2306
3 2055 1214 2237
3 1438 1372 2478
3 824 560 2156
3 2320 1866 2513
3 1351 1137 2374
3 868 2007 2232
3 2063 771 2064
3 1507 214 1508
3 1728 1727 2246
3 1045 1047 2348
3 1139 1140 2096
3 1648 1649 2463
3 1502 2302 2519
3 704 707 2109
3 2343 1136 2396
3 650 1963 2206
3 2153 895 2257
3 396 1958 2431
3 1379 1377 2288
3 2115 1471 2319
3 2033 987 2202
3 2239 1693 2518
3 2025 1488 2355
3 1209 2115 2319
3 523 524 2156
3 783 939 2243
3 376 1798 2497
3 2066 788 2193
3 1984 318 2172
3 425 427 2221
3 203 172 1847
3 446 457 2264
3 1312 2089 2150
3 2138 1272 2211
3 897 1139 2274
3 828 1819 2429
3 1249 1224 2111
3 666 667 2318
3 1371 1326 2194
3 2433 1499 2475
3 1272 1271 2211
3 1367 2254 2479
3 1386 2053 2383
3 2074 1238 2227
3 755 2148 2320
3 2117 1604 2428
3 475 514 2224
3 228 2187 2457
3 1868 1504 2520
3 1626 1218 2185
3 2123 1111 2241
3 1287 1049 2331
3 1280 687 2109
3 459 1814 2292
3 54 196 2402
3 863 865 2146
3 204 176 1680
3 514 2086 2224
3 1646 603 2398
3 112 197 2346
3 358 300 2338
3 1140 898 1141
3 1204 1335 2301
3 1016 2161 2438
3 909 1041 2175
3 1681 2448 2492
3 2252 459 2292
3 1992 868 2232
3 1035 1036 2235
3 1051 1295 2331
3 1836 1289 2242
3 1508 214 1859
3 247 53 2402
3 1016 938 2161
3 1408 856 2378
3 1466 2158 2200
3 725 885 2336
3 855 1450 2421
3 2023 1768 2420
3 1238 1236 2227
3 1679 202 2253
3 2107 1348 2233
3 1653 1431 2487
3 1946 2291 2343
3 2253 202 2329
3 1885 1312 2150
3 378 628 2390
3 2195 1383 2432
3 1520 1519 2480
3 1532 1733 2534
3 308 327 2278
3 953 951 2255
3 1213 1407 2222
3 1561 1563 2285
3 302 763 2338
3 1928 2033 2202
3 763 304 2345
3 832 833 986
3 1352 2040 2237
3 247 1881 2481
3 560 523 2156
3 335 339 2261
3 346 342 2344
3 201 443 1323
3 2301 1335 2466
3 323 320 2229
3 1136 2110 2396
3 1139 1977 2274
3 1809 1615 2423
3 1707 1791 2334
3 46 2019 2485
3 2064 1294 2238
3 1950 197 2404
3 2021 2022 2176
3 1949 245 2420
3 2044 2152 2207
3 1063 1154 1707
3 1012 1363 2406
3 280 2079 2210
3 2237 1214 2351
3 820 698 2318
3 1140 1141 1406
3 205 2021 2176
3 2043 786 2310
3 2145 1004 2446
3 707 1030 2109
3 1406 2460 2473
3 2137 1268 2226
3 16 2081 2260
3 567 2031 2219
3 2112 1064 2248
3 206 45 2485
3 2347 1462 2365
3 1650 1962 2362
3 453 425 2221
3 1209 907 2175
3 1111 1276 2241
3 2448 1145 2492
3 2051 2083 2243
3 59 60 2266
3 1402 1742 2530
3 831 677 2209
3 624 587 2276
3 238 174 1725
3 1011 2107 2233
3 468 2365 2412
3 2337 805 2371
3 254 1932 2380
3 1174 1398 2207
3 2140 111 2346
3 1381 2186 2283
3 1987 2037 2188
3 1740 559 2456
3 1773 391 2503
3 1335 1870 2249
3 1945 2257 2291
3 828 463 2411
3 1246 2088 2208
3 2060 798 2307
3 1773 1159 2240
3 1187 2112 2248
3 1352 2237 2351
3 2037 1322 2188
3 1941 1499 2433
3 2322 225 2510
3 1031 1034 2236
3 327 2188 2321
3 595 2032 2273
3 1464 1462 2347
3 1285 1992 2232
3 799 2055 2237
3 443 278 2210
3 784 874 2178
3 392 396 2431
3 191 95 2309
3 879 784 2178
3 524 511 2429
3 2128 2011 2270
3 895 896 2257
3 2206 1152 2324
3 318 2171 2172
3 2259 1549 2379
3 1214 1410 2351
3 306 308 2278
3 2022 251 2247
3 1757 1729 2309
3 1283 1918 2524
3 996 1706 2492
3 557 2044 2207
3 1798 1448 2364
3 1447 2250 2310
3 559 1750 2403
3 1363 1011 2233
3 1343 1168 2187
3 1407 2044 2256
3 1462 1460 2365
3 1995 2331 2458
3 327 1987 2188
3 2160 254 2380
3 1681 958 2287
3 2031 1160 2250
3 1600 689 2413
3 2219 1692 2239
3 1494 1675 2522
3 1281 1916 2448
3 907 909 2175
3 565 2167 2276
3 2241 1276 2275
3 1978 316 2443
3 2151 212 2350
3 203 1847 2104
3 2049 1481 2523
3 1961 1362 2376
3 2187 1393 2457
3 940 796 2532
3 2293 1349 2329
3 572 1897 2537
3 332 739 2282
3 2052 567 2239
3 1437 1370 2277
3 567 2219 2239
3 667 626 2452
3 1914 2206 2324
3 2243 939 2392
3 2136 1343 2187
3 257 1654 2530
3 1376 1378 2283
3 2076 1982 2272
3 2083 760 2243
3 1944 1945 2291
3 1771 1839 2359
3 1404 1403 2399
3 1875 1866 2320
3 1460 1337 2412
3 760 783 2243
3 1276 1366 2275
3 1428 2227 2366
3 1882 1605 2284
3 1739 1429 2459
3 2321 2188 2434
3 1328 1327 2315
3 798 2189 2307
3 2152 1174 2207
3 2182 1247 2323
3 1516 1514 2367
3 293 291 2306
3 556 537 2201
3 1298 1300 2314
3 1400 1399 2316
3 1649 2236 2463
3 833 831 2424
3 2127 2050 2333
3 1057 914 2328
3 1839 193 2359
3 761 1741 2258
3 1186 1970 2422
3 1429 2366 2382
3 2211 1271 2271
3 1733 1248 2534
3 13 2114 2136
3 2078 390 2431
3 1533 1536 2340
3 1690 2145 2446
3 1277 2308 2370
3 1168 1393 2187
3 1597 2047 2268
3 587 565 2276
3 1908 244 2401
3 225 125 2284
3 610 2130 2468
3 1749 2105 2326
3 1913 1914 2324
3 2366 2208 2382
3 1391 1876 2295
3 457 552 2264
3 653 688 2209
3 1601 2443 2514
3 682 2138 2211
3 992 1980 2244
3 55 56 2313
3 1645 1495 2493
3 473 477 2483
3 202 1724 2329
3 465 828 2429
3 1277 1966 2308
3 1416 2330 2406
3 1912 1364 2455
3 1716 1483 2375
3 2019 1651 2485
3 1725 2137 2226
3 201 1323 2216
3 878 1083 2213
3 2072 2073 2245
3 1563 1777 2405
3 244 2028 2401
3 2016 1564 2422
3 1682 1497 2461
3 1962 1153 2362
3 1298 2314 2358
3 1384 1385 2391
3 688 1320 2209
3 1587 2179 2435
3 786 380 2497
3 1395 1522 2341
3 2032 1919 2273
3 251 2013 2247
3 2219 2031 2250
3 2397 552 2453
3 1765 255 2489
3 2475 1825 2524
3 1202 1204 2301
3 445 2078 2411
3 323 2229 2296
3 1286 2384 2408
3 537 551 2201
3 1724 237 2293
3 84 85 2335
3 1471 1126 2319
3 1635 1634 2511
3 300 302 2338
3 698 666 2318
3 1030 1031 2236
3 2098 1457 2271
3 696 1821 2426
3 1457 1492 2447
3 1956 2336 2469
3 331 323 2296
3 1284 1491 2342
3 2011 1996 2270
3 256 183 2303
3 160 257 2304
3 2204 1589 2501
3 1891 1014 2280
3 719 725 2336
3 1354 1808 2381
3 437 430 2494
3 2377 218 2391
3 2211 2271 2447
3 1407 2256 2290
3 2365 1460 2412
3 2047 1498 2268
3 1825 1283 2524
3 1499 1825 2475
3 1226 1249 2281
3 2051 2243 2392
3 2250 1160 2310
3 111 112 2346
3 304 306 2345
3 1341 1352 2351
3 2166 191 2504
3 2223 1836 2242
3 1996 247 2481
3 1049 1051 2331
3 1086 1298 2358
3 2130 595 2273
3 1249 2111 2263
3 680 1995 2458
3 1511 2140 2346
3 102 103 2355
3 469 473 2453
3 961 2072 2245
3 2073 1282 2245
3 1442 1443 2525
3 74 192 2361
3 2163 1586 2435
3 1519 1518 2449
3 897 2274 2500
3 303 444 2317
3 1615 1614 2423
3 197 2009 2404
3 1634 2281 2511
3 1780 1781 2419
3 1435 1623 2465
3 1286 1774 2384
3 384 361 2339
3 193 1901 2359
3 1165 2433 2475
3 2277 1370 2386
3 677 653 2209
3 1994 1516 2367
3 1479 1478 2440
3 1165 1512 2433
3 1644 1353 2417
3 1711 1712 2353
3 2193 1615 2425
3 1613 1956 2469
3 1440 1173 2330
3 2269 1479 2440
3 222 2218 2465
3 391 389 2503
3 306 2278 2345
3 468 2090 2365
3 221 2246 2526
3 1445 1446 2504
3 939 1844 2392
3 86 87 2373
3 1429 1428 2366
3 2053 2103 2383
3 1348 1212 2312
3 805 750 2371
3 997 1286 2408
3 1152 869 2363
3 2063 2064 2238
3 192 1994 2367
3 1160 2043 2310
3 1926 2151 2350
3 2059 2098 2271
3 1897 1366 2537
3 215 2262 2437
3 1655 1732 2476
3 2415 1128 2454
3 1320 2213 2214
3 7 258 2357
3 259 155 2356
3 2171 1530 2172
3 347 351 2407
3 1077 1078 2343
3 239 2003 2279
3 1446 1128 2415
3 1034 1033 2410
3 601 627 2442
3 1154 1653 2234
3 397 2060 2405
3 2142 794 2272
3 442 2063 2238
3 1863 1215 2378
3 794 2076 2272
3 1883 1375 2505
3 1320 878 2213
3 342 468 2344
3 1903 218 2377
3 380 376 2497
3 1549 1547 2379
3 1148 1165 2475
3 2157 226 2507
3 829 972 2326
3 884 1957 2466
3 2291 1077 2343
3 65 66 2395
3 787 2052 2518
3 2298 1348 2312
3 1946 2343 2396
3 1653 256 2535
3 1842 1548 2472
3 1957 2301 2466
3 1366 1277 2370
3 2213 1432 2214
3 961 2245 2383
3 218 2093 2391
3 1376 2283 2421
3 1873 2127 2333
3 1019 1021 2512
3 1128 1127 2454
3 1104 1434 2450
3 2130 1439 2468
3 2396 2110 2482
3 2186 855 2283
3 1724 2293 2329
3 1163 1059 2372
3 1614 2389 2423
3 53 54 2402
3 1063 1707 2334
3 2283 855 2421
3 1385 1863 2436
3 364 1883 2505
3 517 1890 2387
3 1145 996 2492
3 1047 1287 2348
3 2148 1875 2320
3 205 2176 2416
3 1372 1844 2478
3 1211 2219 2250
3 1141 898 2368
3 245 1909 2420
3 2278 327 2321
3 2389 1397 2423
3 2256 513 2290
3 559 2403 2456
3 1137 1340 2374
3 2093 1384 2391
3 1918 1148 2524
3 1030 2236 2427
3 1867 1895 2513
3 2014 517 2387
3 2271 1457 2447
3 1143 2028 2353
3 1904 194 2432
3 1148 2475 2524
3 1574 1523 2436
3 2213 1083 2311
3 1997 358 2325
3 2139 246 2506
3 1370 1369 2386
3 1271 2059 2271
3 1034 2173 2463
3 1123 1412 2393
3 1578 1827 2515
3 2209 1320 2424
3 2079 1504 2210
3 1361 2168 2305
3 1491 1489 2403
3 238 1725 2226
3 1190 986 2334
3 1547 1545 2508
3 1891 1613 2469
3 1153 1885 2362
3 2208 1632 2382
3 2287 1281 2448
3 1356 1376 2421
3 1965 2349 2515
3 2155 1186 2422
3 1522 2014 2387
3 2158 1468 2323
3 2050 954 2333
3 1397 1809 2423
3 1362 1360 2376
3 1852 1985 2397
3 2069 1691 2446
3 789 2066 2425
3 1895 755 2513
3 1707 1154 2234
3 372 374 2430
3 2225 787 2518
3 2028 1206 2401
3 986 1063 2334
3 1912 726 2439
3 1340 1342 2400
3 1916 1145 2448
3 2236 1649 2427
3 2374 1340 2400
3 2222 1407 2290
3 2324 1152 2363
3 241 2220 2472
3 765 2190 2384
3 2375 667 2452
3 2330 1173 2406
3 1181 1972 2500
3 2126 1382 2388
3 1173 1012 2406
3 315 313 2495
3 1015 1373 2385
3 97 221 2526
3 1937 1397 2389
3 930 1061 2462
3 971 1096 2496
3 45 46 2485
3 669 791 2529
3 1104 2450 2521
3 382 378 2390
3 2191 1371 2536
3 2235 1036 2286
3 831 2209 2424
3 762 1997 2349
3 2379 1547 2508
3 2177 1359 2467
3 2403 1489 2456
3 796 785 2532
3 219 1902 2516
3 1519 2300 2480
3 1065 1655 2476
3 1375 1473 2505
3 1489 1490 2456
3 390 392 2431
3 2247 2013 2464
3 1135 1930 2369
3 2278 1583 2345
3 626 622 2452
3 631 2298 2312
3 2233 1348 2298
3 1398 1974 2499
3 1706 1681 2492
3 261 130 2444
3 32 260 2445
3 822 2099 2368
3 1365 1912 2439
3 941 940 2418
3 1446 2166 2504
3 2106 1121 2414
3 2300 1519 2449
3 1803 1104 2521
3 1732 1570 2476
3 1413 2051 2392
3 2122 1946 2396
3 2238 1868 2520
3 477 556 2483
3 2397 1985 2533
3 463 445 2411
3 2163 1185 2488
3 1126 2141 2319
3 1755 2264 2533
3 972 2204 2501
3 2230 1533 2340
3 1774 1773 2503
3 1997 2325 2349
3 1004 2069 2446
3 2159 31 2445
3 131 2160 2444
3 1371 2191 2451
3 1001 2154 2486
3 1682 2230 2340
3 2103 961 2383
3 1033 1151 2410
3 382 2390 2531
3 1504 2079 2520
3 1583 2278 2321
3 511 465 2429
3 250 2024 2479
3 2208 2088 2509
3 619 620 2484
3 1246 2208 2366
3 2141 1209 2319
3 1359 1413 2467
3 1295 1459 2458
3 2218 1435 2465
3 2281 1249 2511
3 2293 237 2354
3 2207 1398 2499
3 1564 2155 2422
3 552 469 2453
3 1947 224 2498
3 2062 1568 2490
3 2018 205 2416
3 260 2159 2445
3 2160 261 2444
3 2092 610 2468
3 194 2195 2432
3 1432 2213 2311
3 211 2251 2464
3 2378 856 2527
3 1536 1532 2534
3 2364 786 2497
3 2438 1438 2478
3 1185 1948 2488
3 2042 941 2418
3 1582 2321 2434
3 885 1891 2469
3 1364 2048 2455
3 1693 2225 2518
3 401 382 2531
3 1338 2247 2464
3 442 2238 2520
3 1292 2117 2428
3 2274 1350 2500
3 2066 2193 2425
3 2179 1184 2435
3 898 822 2368
3 2436 1863 2527
3 1844 1016 2478
3 2184 1001 2486
3 557 2207 2499
3 2013 211 2464
3 2254 250 2479
3 1350 1181 2500
3 2009 248 2470
3 246 2140 2506
3 1574 2436 2527
3 2139 1419 2517
3 316 1971 2514
3 1319 2122 2482
3 226 2006 2507
3 1400 2270 2481
3 1681 2287 2448
3 2325 1578 2349
3 232 1652 2487
3 1320 2214 2424
3 1632 2208 2509
3 248 2288 2470
3 1406 1141 2460
3 2188 1322 2434
3 2244 1980 2441
3 2088 1255 2509
3 1280 2109 2427
3 2060 2307 2405
3 2236 1034 2463
3 1745 2293 2354
3 2122 2396 2482
3 2109 1030 2427
3 2307 1563 2405
3 1429 2382 2459
3 224 2267 2498
3 682 2211 2447
3 2079 442 2520
3 2348 1287 2398
3 2220 1842 2472
3 1335 2249 2466
3 1249 2263 2511
3 443 2210 2519
3 2385 1373 2394
3 1594 2184 2486
3 2052 2239 2518
3 1568 2439 2490
3 2349 1578 2515
3 2344 468 2412
3 2270 1996 2481
3 1735 2244 2441
3 2260 1471 2477
3 2210 1504 2519
3 1434 2297 2450
3 2297 1419 2450
3 2263 1660 2502
3 2404 2009 2470
3 1718 2385 2394
3 1371 2194 2536
3 2317 444 2461
3 1443 2322 2525
3 1716 2375 2452
3 1863 2378 2527
3 2439 726 2490
3 1057 2328 2451
3 1638 2404 2470
3 1454 2234 2535
3 755 2320 2513
3 2234 1653 2535
3 2264 552 2533
3 1419 2297 2517
3 1392 2322 2510
3 552 2397 2533
3 1798 2364 2497
3 2322 1392 2525
3 2382 1631 2459
3 1016 2438 2478
3 1366 2370 2537
3 1742 2491 2530
3 2491 257 2530
CELL_TYPES 4886
5
5
5
5
5
5
5
5
5
5
5
5
5
5
5
5
5
5
5
5
5
5
5
5
5
5
5
5
5
5
5
5
5
5
5
5
5
5
5
5
5
5
5
5
5
5
5
5
5
5
5
5
5
5
5
5
5
5
5
5
5
5
5
5
5
5
5
5
5
5
5
5
5
5
5
5
5
5
5
5
5
5
5
5
5
5
5
5
5
5
5
5
5
5
5
5
5
5
5
5
5
5
5
5
5
5
5
5
5
5
5
5
5
5
5
5
5
5
5
5
5
5
5
5
5
5
5
5
5
5
5
5
5
5
5
5
5
5
5
5
5
5
5
5
5
5
5
5
5
5
5
5
5
5
5
5
5
5
5
5
5
5
5
5
5
5
5
5
5
5
5
5
5
5
5
5
5
5
5
5
5
5
5
5
5
5
5
5
5
5
5
5
5
5
5
5
5
5
5
5
5
5
5
5
5
5
5
5
5
5
5
5
5
5
5
5
5
5
5
5
5
5
5
5
5
5
5
5
5
5
5
5
5
5
5
5
5
5
5
5
5
5
5
5
5
5
5
5
5
5
5
5
5
5
5
5
5
5
5
5
5
5
5
5
5
5
5
5
5
5
5
5
5
5
5
5
5
5
5
5
5
5
5
5
5
5
5
5
5
5
5
5
5
5
5
5
5
5
5
5
5
5
5
5
5
5
5
5
5
5
5
5
5
5
5
5
5
5
5
5
5
5
5
5
5
5
5
5
5
5
5
5
5
5
5
5
5
5
5
5
5
5
5
5
5
5
5
5
5
5
5
5
5
5
5
5
5
5
5
5
5
5
5
5
5
5
5
5
5
5
5
5
5
5
5
5
5
5
5
5
5
5
5
5
5
5
5
5
5
5
5
5
5
5
5
5
5
5
5
5
5
5
5
5
5
5
5
5
5
5
5
5
5
5
5
5
5
5
5
5
5
5
5
5
5
5
5
5
5
5
5
5
5
5
5
5
5
5
5
5
5
5
5
5
5
5
5
5
5
5
5
5
5
5
5
5
5
5
5
5
5
5
5
5
5
5
5
5
5
5
5
5
5
5
5
5
5
5
5
5
5
5
5
5
5
5
5
5
5
5
5
5
5
5
5
5
5
5
5
5
5
5
5
5
5
5
5
5
5
5
5
5
5
5
5
5
5
5
5
5
5
5
5
5
5
5
5
5
5
5
5
5
5
5
5
5
5
5
5
5
5
5
5
5
5
5
5
5
5
5
5
5
5
5
5
5
5
5
5
5
5
5
5
5
5
5
5
5
5
5
5
5
5
5
5
5
5
5
5
5
5
5
5
5
5
5
5
5
5
5
5
5
5
5
5
5
5
5
5
5
5
5
5
5
5
5
5
5
5
5
5
5
5
5
5
5
5
5
5
5
5
5
5
5
5
5
5
5
5
5
5
5
5
5
5
5
5
5
5
5
5
5
5
5
5
5
5
5
5
5
5
5
5
5
5
5
5
5
5
5
5
5
5
5
5
5
5
5
5
5
5
5
5
5
5
5
5
5
5
5
5
5
5
5
5
5
5
5
5
5
5
5
5
5
5
5
5
5
5
5
5
5
5
5
5
5
5
5
5
5
5
5
5
5
5
5
5
5
5
5
5
5
5
5
5
5
5
5
5
5
5
5
5
5
5
5
5
5
5
5
5
5
5
5
5
5
5
5
5
5
5
5
5
5
5
5
5
5
5
5
5
5
5
5
5
5
5
5
5
5
5
5
5
5
5
5
5
5
5
5
5
5
5
5
5
5
5
5
5
5
5
5
5
5
5
5
5
5
5
5
5
5
5
5
5
5
5
5
5
5
5
5
5
5
5
5
5
5
5
5
5
5
5
5
5
5
5
5
5
5
5
5
5
5
5
5
5
5
5
5
5
5
5
5
5
5
5
5
5
5
5
5
5
5
5
5
5
5
5
5
5
5
5
5
5
5
5
5
5
5
5
5
5
5
5
5
5
5
5
5
5
5
5
5
5
5
5
5
5
5
5
5
5
5
5
5
5
5
5
5
5
5
5
5
5
5
5
5
5
5
5
5
5
5
5
5
5
5
5
5
5
5
5
5
5
5
5
5
5
5
5
5
5
5
5
5
5
5
5
5
5
5
5
5
5
5
5
5
5
5
5
5
5
5
5
5
5
5
5
5
5
5
5
5
5
5
5
5
5
5
5
5
5
5
5
5
5
5
5
5
5
5
5
5
5
5
5
5
5
5
5
5
5
5
5
5
5
5
5
5
5
5
5
5
5
5
5
5
5
5
5
5
5
5
5
5
5
5
5
5
5
5
5
5
5
5
5
5
5
5
5
5
5
5
5
5
5
5
5
5
5
5
5
5
5
5
5
5
5
5
5
5
5
5
5
5
5
5
5
5
5
5
5
5
5
5
5
5
5
5
5
5
5
5
5
5
5
5
5
5
5
5
5
5
5
5
5
5
5
5
5
5
5
5
5
5
5
5
5
5
5
5
5
5
5
5
5
5
5
5
5
5
5
5
5
5
5
5
5
5
5
5
5
5
5
5
5
5
5
5
5
5
5
5
5
5
5
5
5
5
5
5
5
5
5
5
5
5
5
5
5
5
5
5
5
5
5
5
5
5
5
5
5
5
5
5
5
5
5
5
5
5
5
5
5
5
5
5
5
5
5
5
5
5
5
5
5
5
5
5
5
5
5
5
5
5
5
5
5
5
5
5
5
5
5
5
5
5
5
5
5
5
5
5
5
5
5
5
5
5
5
5
5
5
5
5
5
5
5
5
5
5
5
5
5
5
5
5
5
5
5
5
5
5
5
5
5
5
5
5
5
5
5
5
5
5
5
5
5
5
5
5
5
5
5
5
5
5
5
5
5
5
5
5
5
5
5
5
5
5
5
5
5
5
5
5
5
5
5
5
5
5
5
5
5
5
5
5
5
5
5
5
5
5
5
5
5
5
5
5
5
5
5
5
5
5
5
5
5
5
5
5
5
5
5
5
5
5
5
5
5
5
5
5
5
5
5
5
5
5
5
5
5
5
5
5
5
5
5
5
5
5
5
5
5
5
5
5
5
5
5
5
5
5
5
5
5
5
5
5
5
5
5
5
5
5
5
5
5
5
5
5
5
5
5
5
5
5
5
5
5
5
5
5
5
5
5
5
5
5
5
5
5
5
5
5
5
5
5
5
5
5
5
5
5
5
5
5
5
5
5
5
5
5
5
5
5
5
5
5
5
5
5
5
5
5
5
5
5
5
5
5
5
5
5
5
5
5
5
5
5
5
5
5
5
5
5
5
5
5
5
5
5
5
5
5
5
5
5
5
5
5
5
5
5
5
5
5
5
5
5
5
5
5
5
5
5
5
5
5
5
5
5
5
5
5
5
5
5
5
5
5
5
5
5
5
5
5
5
5
5
5
5
5
5
5
5
5
5
5
5
5
5
5
5
5
5
5
5
5
5
5
5
5
5
5
5
5
5
5
5
5
5
5
5
5
5
5
5
5
5
5
5
5
5
5
5
5
5
5
5
5
5
5
5
5
5
5
5
5
5
5
5
5
5
5
5
5
5
5
5
5
5
5
5
5
5
5
5
5
5
5
5
5
5
5
5
5
5
5
5
5
5
5
5
5
5
5
5
5
5
5
5
5
5
5
5
5
5
5
5
5
5
5
5
5
5
5
5
5
5
5
5
5
5
5
5
5
5
5
5
5
5
5
5
5
5
5
5
5
5
5
5
5
5
5
5
5
5
5
5
5
5
5
5
5
5
5
5
5
5
5
5
5
5
5
5
5
5
5
5
5
5
5
5
5
5
5
5
5
5
5
5
5
5
5
5
5
5
5
5
5
5
5
5
5
5
5
5
5
5
5
5
5
5
5
5
5
5
5
5
5
5
5
5
5
5
5
5
5
5
5
5
5
5
5
5
5
5
5
5
5
5
5
5
5
5
5
5
5
5
5
5
5
5
5
5
5
5
5
5
5
5
5
5
5
5
5
5
5
5
5
5
5
5
5
5
5
5
5
5
5
5
5
5
5
5
5
5
5
5
5
5
5
5
5
5
5
5
5
5
5
5
5
5
5
5
5
5
5
5
5
5
5
5
5
5
5
5
5
5
5
5
5
5
5
5
5
5
5
5
5
5
5
5
5
5
5
5
5
5
5
5
5
5
5
5
5
5
5
5
5
5
5
5
5
5
5
5
5
5
5
5
5
5
5
5
5
5
5
5
5
5
5
5
5
5
5
5
5
5
5
5
5
5
5
5
5
5
5
5
5
5
5
5
5
5
5
5
5
5
5
5
5
5
5
5
5
5
5
5
5
5
5
5
5
5
5
5
5
5
5
5
5
5
5
5
5
5
5
5
5
5
5
5
5
5
5
5
5
5
5
5
5
5
5
5
5
5
5
5
5
5
5
5
5
5
5
5
5
5
5
5
5
5
5
5
5
5
5
5
5
5
5
5
5
5
5
5
5
5
5
5
5
5
5
5
5
5
5
5
5
5
5
5
5
5
5
5
5
5
5
5
5
5
5
5
5
5
5
5
5
5
5
5
5
5
5
5
5
5
5
5
5
5
5
5
5
5
5
5
5
5
5
5
5
5
5
5
5
5
5
5
5
5
5
5
5
5
5
5
5
5
5
5
5
5
5
5
5
5
5
5
5
5
5
5
5
5
5
5
5
5
5
5
5
5
5
5
5
5
5
5
5
5
5
5
5
5
5
5
5
5
5
5
5
5
5
5
5
5
5
5
5
5
5
5
5
5
5
5
5
5
5
5
5
5
5
5
5
5
5
5
5
5
5
5
5
5
5
5
5
5
5
5
5
5
5
5
5
5
5
5
5
5
5
5
5
5
5
5
5
5
5
5
5
5
5
5
5
5
5
5
5
5
5
5
5
5
5
5
5
5
5
5
5
5
5
5
5
5
5
5
5
5
5
5
5
5
5
5
5
5
5
5
5
5
5
5
5
5
5
5
5
5
5
5
5
5
5
5
5
5
5
5
5
5
5
5
5
5
5
5
5
5
5
5
5
5
5
5
5
5
5
5
5
5
5
5
5
5
5
5
5
5
5
5
5
5
5
5
5
5
5
5
5
5
5
5
5
5
5
5
5
5
5
5
5
5
5
5
5
5
5
5
5
5
5
5
5
5
5
5
5
5
5
5
5
5
5
5
5
5
5
5
5
5
5
5
5
5
5
5
5
5
5
5
5
5
5
5
5
5
5
5
5
5
5
5
5
5
5
5
5
5
5
5
5
5
5
5
5
5
5
5
5
5
5
5
5
5
5
5
5
5
5
5
5
5
5
5
5
5
5
5
5
5
5
5
5
5
5
5
5
5
5
5
5
5
5
5
5
5
5
5
5
5
5
5
5
5
5
5
5
5
5
5
5
5
5
5
5
5
5
5
5
5
5
5
5
5
5
5
5
5
5
5
5
5
5
5
5
5
5
5
5
5
5
5
5
5
5
5
5
5
5
5
5
5
5
5
5
5
5
5
5
5
5
5
5
5
5
5
5
5
5
5
5
5
5
5
5
5
5
5
5
5
5
5
5
5
5
5
5
5
5
5
5
5
5
5
5
5
5
5
5
5
5
5
5
5
5
5
5
5
5
5
5
5
5
5
5
5
5
5
5
5
5
5
5
5
5
5
5
5
5
5
5
5
5
5
5
5
5
5
5
5
5
5
5
5
5
5
5
5
5
5
5
5
5
5
5
5
5
5
5
5
5
5
5
5
5
5
5
5
5
5
5
5
5
5
5
5
5
5
5
5
5
5
5
5
5
5
5
5
5
5
5
5
5
5
5
5
5
5
5
5
5
5
5
5
5
5
5
5
5
5
5
5
5
5
5
5
5
5
5
5
5
5
5
5
5
5
5
5
5
5
5
5
5
5
5
5
5
5
5
5
5
5
5
5
5
5
5
5
5
5
5
5
5
5
5
5
5
5
5
5
5
5
5
5
5
5
5
5
5
5
5
5
5
5
5
5
5
5
5
5
5
5
5
5
5
5
5
5
5
5
5
5
5
5
5
5
5
5
5
5
5
5
5
5
5
5
5
5
5
5
5
5
5
5
5
5
5
5
5
5
5
5
5
5
5
5
5
5
5
5
5
5
5
5
5
5
5
5
5
5
5
5
5
5
5
5
5
5
5
5
5
5
5
5
5
5
5
5
5
5
5
5
5
5
5
5
5
5
5
5
5
5
5
5
5
5
5
5
5
5
5
5
5
5
5
5
5
5
5
5
5
5
5
5
5
5
5
5
5
5
5
5
5
5
5
5
5
5
5
5
5
5
5
5
5
5
5
5
5
5
5
5
5
5
5
5
5
5
5
5
5
5
5
5
5
5
5
5
5
5
5
5
5
5
5
5
5
5
5
5
5
5
5
5
5
5
5
5
5
5
5
5
5
5
5
5
5
5
5
5
5
5
5
5
5
5
5
5
5
5
5
5
5
5
5
5
5
5
5
5
5
5
5
5
5
5
5
5
5
5
5
5
5
5
5
5
5
5
5
5
5
5
5
5
5
5
5
5
5
5
5
5
5
5
5
5
5
5
5
5
5
5
5
5
5
5
5
5
5
5
5
5
5
5
5
5
5
5
5
5
5
5
5
5
5
5
5
5
5
5
5
5
5
5
5
5
5
5
5
5
5
5
5
5
5
5
5
5
5
5
5
5
5
5
5
5
5
5
5
5
5
5
5
5
5
5
5
5
5
5
5
5
5
5
5
5
5
5
5
5
5
5
5
5
5
5
5
5
5
5
5
5
5
5
5
5
5
5
5
5
5
5
5
5
5
5
5
5
5
5
5
5
5
5
5
5
5
5
5
5
5
5
5
5
5
5
5
5
5
5
5
5
5
5
5
5
5
5
5
5
5
5
5
5
5
5
5
5
5
5
5
5
5
5
5
5
5
5
5
5
5
5
5
5
5
5
5
5
5
5
5
5
5
5
5
5
5
5
5
5
5
5
5
5
5
5
5
5
5
5
5
5
5
5
5
5
5
5
5
5
5
5
5
5
5
5
5
5
5
5
5
5
5
5
5
5
5
5
5
5
5
5
5
5
5
5
5
5
5
5
5
5
5
5
5
5
5
5
5
5
5
5
5
5
5
5
5
5
5
5
5
5
5
5
5
5
5
5
5
5
5
5
5
5
5
5
5
5
5
5
5
5
5
5
5
5
5
5
5
5
5
5
5
5
5
5
5
5
5
5
5
5
5
5
5
5
5
5
5
5
5
5
5
5
5
5
5
5
5
5
5
5
5
5
5
5
5
5
5
5
5
5
5
5
5
5
5
5
5
5
5
5
5
5
5
5
5
5
5
5
5
5
5
5
5
5
5
5
5
5
5
5
5
5
5
5
5
5
5
5
5
5
5
5
5
5
5
5
5
5
5
5
5
5
5
5
5
5
5
5
5
5
5
5
5
5
5
5
5
5
5
5
5
5
5
5
5
5
5
5
5
5
5
5
5
5
5
5
5
5
5
5
5
5
5
5
5
5
5
5
5
5
5
5
5
5
5
5
5
5
5
5
5
5
5
5
5
5
5
5
5
5
5
5
5
5
5
5
5
5
5
5
5
5
5
5
5
5
5
5
5
5
5
5
5
5
5
5
5
5
5
5
5
5
5
5
5
5
5
5
5
5
5
5
5
5
5
5
5
5
5
5
5
5
5
5
5
5
5
5
5
5
5
5
5
5
5
5
5
5
5
5
5
5
5
5
5
5
5
5
5
5
5
5
5
5
5
5
5
5
5
5
5
5
5
5
5
5
5
5
5
5
5
5
5
5
5
5
5
5
5
5
5
5
5
5
5
5
5
5
5
5
5
5
5
5
5
5
5
5
5
5
5
5
5
5
5
5
5
5
5
5
5
5
5
5
5
5
5
5
5
5
5
5
5
5
5
5
5
5
5
5
5
5
5
5
5
5
5
5
5
5
5
5
5
5
5
5
5
5
5
5
5
5
5
5
5
5
5
5
5
5
5
5
5
5
5
5
5
5
5
5
5
5
5
5
5
5
5
5
5
5
5
5
5
5
5
5
5
5
5
5
5
5
5
5
5
5
5
5
5
5
5
5
5
5
5
5
5
5
5
5
5
5
5
5
5
5
5
5
5
5
5
5
5
5
5
5
5
5
5
5
5
5
5
5
5
5
5
5
5
5
5
5
5
5
5
5
5
5
5
5
5
5
5
5
5
5
5
5
5
5
5
5
5
5
5
5
5
5
5
5
5
5
5
5
5
5
5
5
5
5
5
5
5
5
5
5
5
5
5
5
5
5
5
5
5
5
5
5
5
5
5
5
5
5
5
5
5
5
5
5
5
5
5
5
5
5
5
5
5
5
5
5
5
5
5
5
5
5
5
5
5
5
5
5
5
5
5
5
5
5
5
5
5
5
5
5
5
5
5
5
5
5
5
5
5
5
5
5
5
5
5
5
5
5
5
5
5
5
5
5
5
5
5
5
5
5
5
5
5
5
5
5
5
5
5
5
5
5
5
5
5
5
5
5
5
5
5
5
5
5
5
5
5
5
5
5
5
5
5
5
5
5
5
5
5
5
5
5
5
5
5
5
5
5
5
5
5
5
5
5
5
5
5
5
5
5
5
5
5
5
5
5
5
5
5
5
5
5
5
5
5
5
5
5
5
5
5
5
5
5
5
5
5
5
5
5
5
5
5
5
5
5
5
5
5
5
5
5
5
5
5
5
5
5
5
5
5
5
5
5
5
5
5
5
5
5
5
5
5
5
5
5
5
5
5
5
5
5
5
5
5
5
5
5
5
5
5
5
5
5
5
5
5
5
5
5
5
5
5
5
5
5
5
5
5
5
5
5
5
5
5
5
5
5
5
5
5
5
5
5
5
5
5
5
5
5
5
5
5
5
5
5
5
5
5
5
5
5
5
5
5
5
5
5
5
5
5
5
5
5
5
5
5
5
5
5
5
5
5
5
5
5
5
5
5
5
5
5
5
5
5
5
5
5
5
5
5
5
5
5
5
5
5
5
5
5
5
5
5
5
5
5
5
5
5
5
5
5
5
5
5
5
5
5
5
5
5
5
5
5
5
5
5
5
5
5
5
5
5
5
5
5
5
5
5
5
5
5
5
5
5
5
5
5
5
5
5
5
5
5
5
5
5
5
5
5
5
5
5
5
5
5
5
5
5
5
5
5
5
5
5
5
5
5
5
5
5
5
5
5
5
5
5
5
5
5
5
5
5
5
5
5
5
5
5
5
5
5
5
5
5
5
5
5
5
5
5
5
5
5
5
5
5
5
5
5
5
5
5
5
5
5
5
5
5
5
5
5
5
5
5
5
5
5
5
5
5
5
5
5
5
5
5
5
5
5
5
5
5
5
5
5
5
5
5
5
5
5
5
5
5
5
5
5
5
5
5
5
5
5
5
5
5
5
5
5
5
5
5
5
5
5
5
5
5
5
5
5
5
5
5
5
5
5
5
5
5
5
5
5
5
5
5
5
5
5
5
5
5
5
5
5
5
5
5
5
5
5
5
5
5
5
5
5
5
5
5
5
5
5
5
5
5
5
5
5
5
5
5
5
5
5
5
5
5
5
5
5
5
5
5
5
5
5
5
5
5
5
5
5
5
5
5
5
5
5
5
5
5
5
5
5
5
5
5
5
5
5
5
5
5
5
5
5
5
5
5
5
5
5
5
5
5
5
5
5
5
5
5
5
5
5
5
5
5
5
5
5
5
5
5
5
5
5
5
5
5
5
5
5
5
5
5
5
5
5
5
5
5
5
5
5
5
5
5
5
5
5
5
5
5
5
5
5
5
5
5
5
5
5
5
5
5
5
5
5
5
5
5
5
5
5
5
5
5
5
5
5
5
5
5
5
5
5
5
5
5
5
5
5
5
5
5
5
5
5
5
5
5
5
5
5
5
5
5
5
5
5
5
5
5
5
5
5
5
5
5
5
5
5
5
5
5
5
5
5
5
5
5
5
5
5
5
5
5
5
5
5
5
5
5
5
5
5
5
5
5
5
5
5
5
5
5
5
5
5
5
5
5
5
5
5
5
5
5
5
5
5
5
5
5
5
5
5
5
5
5
5
5
5
5
5
5
5
5
5
5
5
5
5
5
5
5
5
5
5
5
5
5
5
5
5
5
5
5
5
5
5
5
5
5
5
5
5
5
5
5
5
5
5
5
5
5
5
5
5
5
5
5
5
5
5
5
5
5
5
5
5
5
5
5
5
5
5
5
5
5
5
5
5
5
5
5
5
5
5
5
5
5
5
5
5
5
5
5
5
5
5
5
5
5
5
5
5
5
5
5
5
5
5
5
5
5
5
5
5
5
5
5
5
5
5
5
5
5
5
5
5
5
5
5
5
5
5
5
5
5
5
5
5
5
5
5
5
5
5
5
5
5
5
5
5
5
5
5
5
5
5
5
5
5
5
5
5
5
5
5
5
5
5
5
5
5
5
5
5
5
5
5
5
5
5
5
5
5
5
5
5
5
5
5
5
5
5
5
5
5
5
5
5
5
5
5
5
5
5
5
5
5
5
5
5
5
5
5
5
5
5
5
5
5
5
5
5
5
5
5
5
5
5
5
5
5
5
5
5
5
5
5
5
5
5
5
5
5
5
5
5
5
5
5
5
5
5
5
5
5
5
5
5
5
5
5
5
5
5
5
5
5
5
5
5
5
5
5
5
5
5
5
5
5
5
5
5
5
5
5
5
5
5
5
5
5
5
5
5
5
5
5
5
5
5
5
5
5
5
5
5
5
5
5
5
5
5
5
5
5
5
5
5
5
5
5
5
5
5
5
5
5
5
5
5
5
5
5
5
5
5
5
5
5
5
5
5
5
5
5
5
5
5
5
5
5
5
5
5
5
5
5
5
5
5
5
5
5
5
5
5
5
5
5
5
5
5
5
5
5
5
5
5
5
5
5
5
5
5
5
5
5
5
5
5
5
5
5
5
5
5
5
5
5
5
5
5
5
5
5
5
5
5
5
5
5
5
5
5
5
5
5
5
5
5
5
5
5
5
5
POINT_DATA 2538
VECTORS disp float
1.3138659967554246e-11 2.555372862925909e-11 0.0
1.4567972247663404e-11 -3.4665584419255484e-11 0.0
0.0021999999986535967 5.700341088278398e-12 0.0
0.002199999974419359 -6.399325009660025e-11 0.0
0.0008605314990693917 0.00035559665632755135 0.0
0.00162211189838277 6.399485648189043e-5 0.0
0.0011483157041132556 7.581466675936524e-6 0.0
4.795788163990531e-14 -2.9013268944890788e-12 0.0
3.1868012909748323e-12 2.2033275457762137e-12 0.0
2.253897398469264e-12 -1.3492586817096284e-13 0.0
1.9618648222998913e-12 6.405631293182117e-15 0.0
1.313633937348232e-12 -1.328331757510751e-13 0.0
1.2162863655980386e-12 -5.292477402530859e-13 0.0
9.688139509704117e-13 -6.784442323874995e-13 0.0
8.215668358821982e-13 -1.0764677132543821e-12 0.0
5.516918615716645e-13 -1.4868954680332414e-12 0.0
7.652690659769113e-13 -2.049924146216348e-12 0.0
7.52270010514238e-13 -2.6092631862323602e-12 0.0
8.855125020382199e-13 -3.187187853019389e-12 0.0
1.0366852217163924e-12 -3.753082856275044e-12 0.0
1.0848264751854491e-12 -4.110628355584928e-12 0.0
1.342765173172706e-12 -4.6744829100432624e-12 0.0
1.365157769623784e-12 -4.9043691804448865e-12 0.0
1.4826422572337756e-12 -5.374547116806796e-12 0.0
1.6668499738774003e-12 -5.7538993244926386e-12 0.0
1.6921323395384242e-12 -6.096981534561462e-12 0.0
1.8332885453937653e-12 -6.559053350314797e-12 0.0
2.028815314116178e-12 -7.062130541860817e-12 0.0
2.2818136091505115e-12 -7.72306040535159e-12 0.0
2.213331596251687e-12 -8.438282671082562e-12 0.0
3.4615115902715078e-12 -1.0764372063211419e-11 0.0
1.093469807905885e-12 -7.943162413368053e-12 0.0
3.142571578328905e-5 -2.5804861916671823e-5 0.0
5.500769642905104e-5 -4.3854770741447584e-5 0.0
7.786288726249985e-5 -5.9666003647970226e-5 0.0
9.929430528855326e-5 -7.402177795760039e-5 0.0
0.00011966500197914175 -8.736444241044515e-5 0.0
0.00013941202036218026 -0.00010018818357366382 0.0
0.00015889832222345054 -0.00011237425538872521 0.0
0.00017788392448500742 -0.00012411341151888832 0.0
0.00019658578659045566 -0.00013554564054794112 0.0
0.00021510695070284854 -0.00014660407545424408 0.0
0.00023340776738544873 -0.00015744435284824896 0.0
0.0002516990784056025 -0.00016801270211376677 0.0
0.00026987941299270166 -0.00017830842626321699 0.0
0.00028802684133550494 -0.00018846526261419186 0.0
0.0003062102741790758 -0.0001983815545081296 0.0
0.0003242860894095689 -0.00020803448461263185 0.0
0.0003424066273332902 -0.0002175303123172629 0.0
0.00036062053989971356 -0.00022675770247012952 0.0
0.00037887646229676705 -0.0002357998978444291 0.0
0.0003972085607669596 -0.0002446628798608392 0.0
0.0004156135749110009 -0.0002533460765527026 0.0
0.0004341033163334056 -0.0002618443589475317 0.0
0.0004527885433374667 -0.0002701770112347941 0.0
0.00047146329048406853 -0.00027833266829348983 0.0
0.0004903934962799312 -0.00028630838721509054 0.0
0.0005093060745152448 -0.0002941006842117669 0.0
0.000528406360388654 -0.00030173977891193813 0.0
0.0005476211633562282 -0.0003091746568548029 0.0
0.0005670588254252514 -0.00031643720773514124 0.0
0.0005865111154386064 -0.00032357031704937305 0.0
0.0006062074938141316 -0.0003305426186579149 0.0
0.0006260367697827389 -0.0003373448581315159 0.0
0.0006460725322170229 -0.0003440742674130778 0.0
0.0006663115033229831 -0.0003507071233125974 0.0
0.0006867690536769157 -0.00035736980969014914 0.0
0.0007072163733976377 -0.00036387855197597777 0.0
0.0007279838757198487 -0.00037026172677574016 0.0
0.0007487335125331852 -0.0003763072961649796 0.0
0.0007695353048955731 -0.0003820600419441129 0.0
0.0007905252658680932 -0.00038766645776449466 0.0
0.0008114712848379628 -0.00039290481458829343 0.0
0.0008327201507367719 -0.00039792028577641383 0.0
0.0008542493438758062 -0.00040258710918271987 0.0
0.0008759763821405104 -0.00040713192027198647 0.0
0.0008980612952519389 -0.00041131508893533266 0.0
0.0009202468584135235 -0.0004153148680598562 0.0
0.0009426836403813463 -0.00041917242879785675 0.0
0.0009653490762793837 -0.0004226555507454406 0.0
0.0009880066547040315 -0.00042611133235053215 0.0
0.001010967624419234 -0.00042913375560579945 0.0
0.0010338731626021278 -0.0004318884750358861 0.0
0.0010570289284240618 -0.0004345209721036287 0.0
0.0010799411560387126 -0.00043690424664408455 0.0
0.001103298069280399 -0.0004390451888647358 0.0
0.0011262556669233462 -0.0004409076983273966 0.0
0.0011499158360486175 -0.0004426375049048751 0.0
0.001173424367023898 -0.0004442350460940016 0.0
0.0011971255419732474 -0.00044543510355933254 0.0
0.00122099100717042 -0.0004463902602287178 0.0
0.0012451135007140312 -0.0004467595452502076 0.0
0.0012691920777281455 -0.00044682980296013603 0.0
0.0012931264522223194 -0.00044646349470071504 0.0
0.001316599787110528 -0.00044582985461720005 0.0
0.0013387641572640625 -0.0004447021139123134 0.0
0.0013602015657636904 -0.00044353480933874835 0.0
0.001381466880967259 -0.00044151983527880773 0.0
0.0014017640191493158 -0.0004388851120070016 0.0
0.0014223909066983084 -0.0004358907814282955 0.0
0.0014439809966880581 -0.0004325261217715209 0.0
0.0014658612695440667 -0.0004295123259009032 0.0
0.001487110447789055 -0.0004264055450720509 0.0
0.0015096225658436577 -0.0004235160173800881 0.0
0.0015306512886236981 -0.00042013967147581097 0.0
0.0015514527123193195 -0.0004160656575617372 0.0
0.0015733019003495306 -0.00041100490930165445 0.0
0.0015939595932781604 -0.00040501183566135347 0.0
0.0016157703985651911 -0.00039843326869668514 0.0
0.0016369118794105576 -0.000391241591448746 0.0
0.0016584235822689536 -0.000383290252834857 0.0
0.001679808840010942 -0.00037423090603635746 0.0
0.001702265295836416 -0.00036479654707872783 0.0
0.001723746028068354 -0.0003545406344114091 0.0
0.001745338094486652 -0.00034350597845904976 0.0
0.0017674797438631887 -0.000331354452743232 0.0
0.001789693910131969 -0.00031859094788945844 0.0
0.0018121885395732619 -0.0003054583737739355 0.0
0.0018353903014526464 -0.00029151180827583645 0.0
0.0018586569146625898 -0.0002769489789452149 0.0
0.001881990499795021 -0.00026182194208433055 0.0
0.0019058811363161148 -0.0002459085467548307 0.0
0.001930483134119352 -0.00022903074695285327 0.0
0.001955563207047053 -0.00021130507782775545 0.0
0.0019811058828171635 -0.0001928122287582134 0.0
0.0020074353085813026 -0.00017325625438940675 0.0
0.0020349872009657833 -0.0001523215172950193 0.0
0.0020634001915320445 -0.00012984460741683124 0.0
0.0020929793245239585 -0.00010530905495764207 0.0
0.0021249980815660104 -7.750939508256465e-5 0.0
0.0021585209124520984 -4.519165199538546e-5 0.0
0.0021999999977548026 -1.0081529864993605e-11 0.0
0.0021999999943860997 -1.2513534800198467e-11 0.0
0.002199999997434255 -5.27855466244294e-12 0.0
0.0021999999969743817 -4.52875845391034e-12 0.0
0.002199999997413663 -3.054462152476232e-12 0.0
0.0021999999974311106 -2.1712135377990294e-12 0.0
0.002199999997438967 -1.589447759165807e-12 0.0
0.0021999999975584445 -1.1549740393367014e-12 0.0
0.002199999997557615 -7.570563514505155e-13 0.0
0.0021999999976540794 -4.703126817521514e-13 0.0
0.00219999999772696 -2.593964143560023e-13 0.0
0.0021999999978474793 -2.1604172374583732e-15 0.0
0.0021999999978938377 2.0572243184749057e-13 0.0
0.00219999999797185 4.853427055204805e-13 0.0
0.002199999998011491 7.757547987765496e-13 0.0
0.002199999998036831 1.1303280595482153e-12 0.0
0.002199999998062895 1.4925198732123087e-12 0.0
0.0021999999979474974 1.9496359301059903e-12 0.0
0.002199999998135947 2.289356961138557e-12 0.0
0.0021999999979465945 2.7303802043277234e-12 0.0
0.002199999998052559 3.0023534879737734e-12 0.0
0.002199999998020211 3.129364411766614e-12 0.0
0.002199999998215499 3.0306168512118867e-12 0.0
0.00219999999869814 3.316634371555115e-12 0.0
0.00219999999928578 2.0260589364641867e-12 0.0
0.002054150436306512 5.264091398139538e-5 0.0
0.0019232005284614542 7.641424503345291e-5 0.0
0.001802329372860729 7.569003296131682e-5 0.0
0.0016945816360033502 6.662123705100702e-5 0.0
0.0016227261784236733 -4.827910245627885e-6 0.0
0.0016204070064671455 -4.76099075478348e-5 0.0
0.001612360518902452 -8.64151019178685e-5 0.0
0.0015911479711113463 -0.00010662361202105542 0.0
0.001557485233062526 -0.0001104868178357369 0.0
0.001518028891562331 -0.0001042959546145072 0.0
0.0014754880116051247 -9.25209975371873e-5 0.0
0.0014320146913033318 -7.594577212441385e-5 0.0
0.0013870324736254484 -5.851918619706622e-5 0.0
0.0013406529469636294 -4.138432959056127e-5 0.0
0.0012899855391760413 -2.4603166787650532e-5 0.0
0.0012300297729842624 -8.742374254250888e-6 0.0
0.0010919788876932806 4.986694492933176e-5 0.0
0.001051230575545637 7.15126509784707e-5 0.0
0.0010168936643617868 8.75846448800949e-5 0.0
0.000986382488223499 0.00010205934218735555 0.0
0.0009581823565913162 0.00011595011717369565 0.0
0.0009325112892430502 0.00012990049794785514 0.0
0.0009089983336166931 0.00014474937172302772 0.0
0.0008885246384179164 0.0001602292127752126 0.0
0.0008726849145553103 0.00018091568935036975 0.0
0.0008604208388453543 0.0002003974606377498 0.0
0.000861618602532928 0.0002380770755167789 0.0
0.0008576865367032179 0.00028158563089803916 0.0
0.0007788209625469473 0.0003718538409863383 0.0
0.0006680711754508323 0.00037094689713660316 0.0
0.0005006182065051374 0.00031651204078499324 0.0
0.00028057527207583314 0.00020748120157799448 0.0
0.0005695797021652285 -0.0003059531517994706 0.0
0.0014810215246607655 -0.000403537140629091 0.0
0.0007121442882580762 -0.0003540815621279205 0.0
0.001329488822388682 -0.00042909628803066845 0.0
0.0008637232898607893 -0.0003919329127322431 0.0
0.001158064088979697 -0.0004256221298545928 0.0
0.0009982446118356777 -0.0004125606973980779 0.0
0.0016123071332095693 -0.000372172805906273 0.0
0.0004581171421367207 -0.0002631761267115048 0.0
0.0017165830827104123 -0.0003283157565590451 0.0
0.00036519373186199677 -0.0002205850408010801 0.0
3.463823114289766e-5 -8.221796386772315e-6 0.0
0.0021550063193133545 -1.1603847098471664e-6 0.0
0.0012267164511759509 1.589084472985607e-5 0.0
0.001396969074142111 -4.9705471662234307e-5 0.0
0.0010619868291321612 4.313798565340289e-5 0.0
0.0009475008124466123 0.00011902743771387487 0.0
0.0018308950632688187 -0.0002706561879554539 0.0
0.0002777586456717872 -0.00017557481040626047 0.0
2.87012565901363e-5 -9.763687240921182e-6 0.0
0.0021672268784436867 -3.360041352614741e-6 0.0
0.0021375726034729634 3.8361295911112085e-6 0.0
4.217365324556828e-5 -1.5740140503151255e-6 0.0
0.001926644324048495 -0.00020927518850059272 0.0
0.00020151555769765356 -0.00013026730806373716 0.0
0.0015186971061449464 -8.463313701374677e-5 0.0
0.000864973023949472 0.00016074184087641797 0.0
2.3111531266397133e-5 -8.755059913750237e-6 0.0
0.0021742256547819935 -4.227868297886313e-6 0.0
0.0007994999427608122 -0.0003774001732895448 0.0
0.0009295996483300653 -0.00040344209549290975 0.0
0.0012573623755397082 -0.0004294422564430933 0.0
0.0010690388017190668 -0.000418852881104095 0.0
0.0013951244414962117 -0.0004227938761325573 0.0
0.0015421601026211586 -0.00039289496652075196 0.0
0.0006552557178177784 -0.0003364574533423665 0.0
0.0005144143678029582 -0.0002869033674396685 0.0
0.0019999701307418473 -0.000158198555649042 0.0
0.00014373940998230908 -9.510981399431993e-5 0.0
0.0021224577240179046 1.0388661221563017e-5 0.0
5.9579031838520955e-5 5.003273750595851e-6 0.0
0.0021793901264868425 -6.601371764866936e-6 0.0
2.20308404297062e-5 -9.461978414401798e-6 0.0
0.0015997377679748902 -8.203012756833861e-5 0.0
0.0008277778935614027 0.00019397115354453167 0.0
0.0020946360058736336 1.4043480356459139e-5 0.0
9.506976873231234e-5 1.1537831789084924e-5 0.0
3.217684550620311e-5 -9.77449580882131e-6 0.0
0.0021608594122370615 -2.7403473479091947e-6 0.0
0.0013118237809868131 -1.6362258189910038e-5 0.0
0.001006095493703228 8.874013690427098e-5 0.0
8.108580256798138e-5 -5.3144984793281026e-5 0.0
0.002091131011971724 -8.833947687427787e-5 0.0
0.0014359773995433946 -0.00041589160549089965 0.0
0.0011135617385123436 -0.0004234455726690231 0.0
0.0007585297824614022 -0.00036672575838765154 0.0
0.0006115960297551987 -0.00032261910013068473 0.0
0.0012088303958699127 -0.000428021488697452 0.0
0.0016520466433336655 -0.0003580649624407059 0.0
0.0004210393122055476 -0.00024643021418344025 0.0
0.0017629640406210513 -0.0003077517371960472 0.0
0.0003266557942793181 -0.00020074323305809647 0.0
0.00023796390047741865 -0.0001523404696303471 0.0
0.001878153701095042 -0.0002410909658914029 0.0
0.0005685445338073198 0.00019743830727597303 0.0
0.0018421182411582709 2.4377017905358755e-5 0.0
0.002178961585375573 -1.1368984756843361e-5 0.0
1.9006749209895946e-5 -9.310924454951159e-6 0.0
0.0008178215094358797 0.00025349698765703805 0.0
0.001646195593365456 -2.7539741394523046e-5 0.0
0.00012256023685203952 2.08041027427236e-5 0.0
0.0021023548759233103 1.2817289184424741e-5 0.0
3.576585053874894e-5 -2.249489237702532e-5 0.0
0.00215224610779439 -3.808638668942117e-5 0.0
0.0017410667477826733 1.4889994596432224e-5 0.0
0.0017560752658625377 -1.3918775559296426e-6 0.0
0.0018820943021138042 1.2271517392470921e-5 0.0
0.001795850654264975 4.78844071373784e-6 0.0
0.001697515249236157 -1.6425004273705612e-5 0.0
0.0017199693304993952 2.1076657712330236e-6 0.0
0.0018173697692798875 1.6990461831170513e-5 0.0
0.0017463308403384058 2.0395504509510307e-5 0.0
0.0018418729688160754 2.7647718813926128e-5 0.0
0.0017768948307866233 3.299253366343278e-5 0.0
0.0016879842053034834 2.653862524723205e-5 0.0
0.0017171646762791136 3.781926347897005e-5 0.0
0.0016409035592483908 3.4068859500414735e-5 0.0
0.001665998592070112 4.117147153514206e-5 0.0
0.0015978772188101709 3.9880498465675573e-5 0.0
0.001621886701997781 4.280887474338359e-5 0.0
0.0012006380101112928 8.399188119003409e-7 0.0
0.0011363078946849802 -1.1606875679938257e-5 0.0
0.0011797070105845297 -1.1839972668754521e-5 0.0
0.0011258439217212994 -2.2894962674209745e-5 0.0
0.001164755981109165 -2.321225417079408e-5 0.0
0.0011177044209206915 -3.214686048003725e-5 0.0
0.0011528353034598187 -3.191556062274701e-5 0.0
0.001110038087895677 -3.974040261515153e-5 0.0
0.0011426102218393874 -3.907531157422375e-5 0.0
0.0011028837014941178 -4.622127680626145e-5 0.0
0.001133661238666287 -4.5108087004457806e-5 0.0
0.0010962438936035312 -5.1832424819973864e-5 0.0
0.0011257293307955537 -5.0813675596606426e-5 0.0
0.0010909849536356005 -5.6947563190370454e-5 0.0
0.001118572240191791 -5.5882729060894424e-5 0.0
0.0010851506229274264 -6.184771053185558e-5 0.0
0.0011118028393694958 -6.073666615376934e-5 0.0
0.00107859126338226 -6.666283946822889e-5 0.0
0.0011053628609037401 -6.559719188709457e-5 0.0
0.001073115708971627 -7.129435040281859e-5 0.0
0.001099487617939895 -7.044304406465614e-5 0.0
0.0010680011956429535 -7.598133128450405e-5 0.0
0.001093018193783969 -7.532730653769355e-5 0.0
0.0010628439404937638 -8.080177167359402e-5 0.0
0.001087517770507099 -8.031676047028312e-5 0.0
0.0010584730160607403 -8.561663043732221e-5 0.0
0.0010823484786864103 -8.547774584141122e-5 0.0
0.00105257945678501 -9.061631259057063e-5 0.0
0.001077030615102927 -9.086900934131582e-5 0.0
0.0010413085500283502 -9.668810038364849e-5 0.0
0.001073643567770449 -9.64034392804377e-5 0.0
0.0010430675084690329 -0.00010193025125932126 0.0
0.0010688074291747348 -0.00010226503835476466 0.0
0.0010397212079417363 -0.00010778562425894692 0.0
0.0010645220760414646 -0.00010841501487145483 0.0
0.0010373259956895555 -0.00011373415131459232 0.0
0.001060273502598376 -0.00011476581499261058 0.0
0.0010337437979029683 -0.00012014669611894189 0.0
0.0010720452258576449 -4.492832852652706e-5 0.0
0.0010561152633756531 -0.00012140683941591938 0.0
0.0010462094344773163 -7.163027969508758e-5 0.0
0.0010126486389124294 -0.00010344753851931569 0.0
0.001028307699023235 -0.00012690774606475855 0.0
0.0010518946382186952 -0.0001283451755941723 0.0
0.0010229767692926468 -0.0001341472898254104 0.0
0.0010000613646310417 -0.0001319406032001582 0.0
0.0009940724118250477 -0.00013944152171832026 0.0
0.001046629985529866 -0.00013602044851010876 0.0
0.0010760131683391907 -0.00012984181906608804 0.0
0.0010969410824653802 -9.651102888769687e-5 0.0
0.0010709026731505512 -0.0001378760947217874 0.0
0.00110229719810739 -0.0001307111240256933 0.0
0.0010960313172690584 -0.00013974140998348645 0.0
0.0009714577701312664 -0.00013694137490283633 0.0
0.0009666760177014571 -0.00014409521502634963 0.0
0.0011285393691518432 -0.00013198199248465176 0.0
0.0009425583574214824 -0.00014137198542797563 0.0
0.0009393904451763981 -0.00014865400232479519 0.0
0.0011228150788701891 -0.0001412652082056526 0.0
0.0011542773623134767 -0.00013392050478404528 0.0
0.0009135764369953348 -0.00014562289849512366 0.0
0.0009098546491670037 -0.00015300544920064926 0.0
0.0011492832207670419 -0.00014328522918351293 0.0
0.00118176423483267 -0.00013549235340815509 0.0
0.0008848307299194198 -0.0001495899997103826 0.0
0.0008808784897821973 -0.00015729655299078009 0.0
0.0011765654560309939 -0.00014551684827890867 0.0
0.0012101557138474639 -0.00013703613910720752 0.0
0.0008564987828453157 -0.00015293424086446476 0.0
0.0008508304124216015 -0.0001607853419756521 0.0
0.0012052730499382428 -0.00014745153856346517 0.0
0.0012392624112235902 -0.00013852437807980255 0.0
0.0008255444222616034 -0.00015606914828995714 0.0
0.0008206896657931493 -0.00016416331388258103 0.0
0.0007936734125482595 -0.00015935780202076593 0.0
0.0007986519113958567 -0.0001509819926488819 0.0
0.0011690298010562609 -0.00015560690793442347 0.0
0.0012341301744037323 -0.00014955379309096613 0.0
0.0012690487914639177 -0.00014003214692869895 0.0
0.0012749236783464195 -0.00012856317521756547 0.0
0.001122349139312868 -6.990533250292683e-5 0.0
0.0013061797970393356 -0.00012971862983338588 0.0
0.001312518147288651 -0.0001177569397616014 0.0
0.0013450450913398328 -0.00011842100773947885 0.0
0.000791298853683696 -0.00016791740848163565 0.0
0.0007631197187448712 -0.0001620192197597813 0.0
0.0008179196187035755 -0.00017290874364430406 0.0
0.0012628371395271428 -0.0001519008908441772 0.0
0.0007612959363341187 -0.0001707064387456435 0.0
0.0007327099474591426 -0.00016413105560883902 0.0
0.0011536460894869508 -4.869218270760605e-5 0.0
0.0007311024456575269 -0.00017249002797964038 0.0
0.0007024106008835769 -0.0001655769684123097 0.0
0.0007011209941098223 -0.0001740271040230992 0.0
0.0006727994527380151 -0.00016627211319264677 0.0
0.000673432245009536 -0.00015816937739195663 0.0
0.0006417911777050282 -0.00015880977835198702 0.0
0.0006429126419641281 -0.00015031352198362577 0.0
0.0006682514557384486 -0.00017443595196831374 0.0
0.0006087285455821981 -0.0001506446716562042 0.0
0.0006095496665373223 -0.00014201486996005702 0.0
0.0007003038054837421 -0.0001830317159524154 0.0
0.00067241138829881 -0.00018418240159721525 0.0
0.0005760573100131587 -0.00014136666637189522 0.0
0.0005754913169106899 -0.00013281154601487805 0.0
0.0013523473836875436 -0.00010628741129790765 0.0
0.0013863698716969875 -0.00010670350271659482 0.0
0.0006996745157917981 -0.00019227016081289154 0.0
0.0006723610303248684 -0.00019325597062296826 0.0
0.001394076911149049 -9.423605624326975e-5 0.0
0.0014298362541781953 -9.467638768057577e-5 0.0
0.0014203376610776065 -0.00010859464504370574 0.0
0.001464329049320228 -9.590210028427412e-5 0.0
0.001455479201113061 -0.00011026157612592658 0.0
0.0014998207163423104 -9.658173033649037e-5 0.0
0.0014931307714964193 -0.00011090670798599577 0.0
0.0015392597679072407 -9.582762983700172e-5 0.0
0.001528969712981047 -0.00011082118403396475 0.0
0.0015454908673771775 -8.239511254846625e-5 0.0
0.0015756264755026487 -9.60713724524369e-5 0.0
0.0015632189314113262 -0.00011138523123702205 0.0
0.0006996203472996006 -0.00020179102288044295 0.0
0.0005399873371464582 -0.00013152646382433563 0.0
0.0005384503478482133 -0.0001225619668040811 0.0
0.0015198567294748009 -0.00012678532368633292 0.0
0.0015528503860700804 -0.00012745038275978327 0.0
0.0015956587293185604 -0.0001119144287115904 0.0
0.0015121565224642886 -0.0001435553350121729 0.0
0.0006731476353013746 -0.0002027407615958294 0.0
0.0015854758217626515 -0.00012814675873513447 0.0
0.0016274421457797002 -0.00011225567103806042 0.0
0.0006997394060084065 -0.000211676361576403 0.0
0.0006739378008527549 -0.00021262845903699084 0.0
0.0006477338686122877 -0.00020322396863054759 0.0
0.0016170638161740012 -0.00012879481374639983 0.0
0.001658502058245842 -0.00011227997686295775 0.0
0.000699993787717272 -0.00022199610423765051 0.0
0.0007254661909274648 -0.00022072736826608615 0.0
0.000648986271345757 -0.00021313029584842417 0.0
0.0006229506417162524 -0.0002033061590031253 0.0
0.001646783534969291 -0.0001293344672114701 0.0
0.0016889687681041104 -0.00011196886117784264 0.0
0.0017001013145165043 -9.623343347471645e-5 0.0
0.0016052741536976467 -0.0001469376184105144 0.0
0.0017305414500470918 -9.521239331470453e-5 0.0
0.0017423755132276865 -8.088151357787517e-5 0.0
0.0005005476150580295 -0.00012076619062740946 0.0
0.0005005865429673443 -0.00011132187068648979 0.0
0.0005466376021871703 -0.00011394557196697553 0.0
0.000499300624423152 -0.00010125448187794013 0.0
0.0005442507700728147 -0.00010213394337236928 0.0
0.0004973490309799902 -8.969601485544857e-5 0.0
0.0005418007864054918 -8.960704844123456e-5 0.0
0.0007256769329643024 -0.00023132731956701947 0.0
0.0007505313983217481 -0.0002297042001188889 0.0
0.0006245356294975077 -0.0002132531969644329 0.0
0.0005986567437252027 -0.00020297611472147012 0.0
0.00171846679627755 -0.00011125235212505445 0.0
0.0004999672833139438 -7.708679464188833e-5 0.0
0.0005427113157385 -7.602461351882658e-5 0.0
0.0007508170728461192 -0.00024052684815967508 0.0
0.0007750790953144645 -0.0002387216899333689 0.0
0.0009113389509367469 -0.0001599969512334857 0.0
0.001759601784777756 -9.369578399954232e-5 0.0
0.0011952215373833102 -2.0806511394111066e-5 0.0
0.0012527833373603145 1.8136167921716338e-5 0.0
0.0010326054053974778 -8.585704398275445e-5 0.0
0.0014358217380231538 -8.217954310902344e-5 0.0
0.0004961481387737722 -6.174180803058625e-5 0.0
0.0005469856956851259 -6.036593721425679e-5 0.0
0.0006006215121150458 -0.00021298038629759535 0.0
0.0005750190542378937 -0.00020234646737291799 0.0
0.0007757737765307883 -0.0002498105125780068 0.0
0.0007998584099351325 -0.00024778678111955234 0.0
0.0017461630423642903 -0.000109659768042902 0.0
0.0004610738349393291 -0.00010915451380118993 0.0
0.0004627307914439403 -0.00011852976341254172 0.0
0.0004470031754489551 -7.56395806091301e-5 0.0
0.0017872689528626593 -9.144905710580577e-5 0.0
0.0004957325791260015 -4.529324801867852e-5 0.0
0.0005477099243748626 -4.2040453713278256e-5 0.0
0.0007519733142043687 -0.0002518383643909641 0.0
0.0005774541968353265 -0.00021252342200364681 0.0
0.0005518995898752688 -0.00020135338470949306 0.0
0.00140028413473944 -8.212442040212764e-5 0.0
0.0014436010083321623 -6.969984526017294e-5 0.0
0.0014060521548404127 -7.001187065140612e-5 0.0
0.001451383286998678 -5.741904795852803e-5 0.0
0.000800250093041603 -0.00025899662751459286 0.0
0.0008245729156116713 -0.0002564723313632721 0.0
0.0008899599929235251 -0.0001426908860645662 0.0
0.0004949681651121816 -2.7337267568712527e-5 0.0
0.0005463177894301915 -2.1972856422384076e-5 0.0
0.0017736639900295045 -0.00010723257123523786 0.0
0.0017365949288689017 -0.00012497334470203754 0.0
0.0004828002445231366 -5.548338614653965e-6 0.0
0.0005430613210613996 9.670092302660514e-7 0.0
0.0018139223928554111 -8.896056624427959e-5 0.0
0.0018224051839888086 -7.81018097910313e-5 0.0
0.0004891916541983635 1.561709637420512e-5 0.0
0.0006022221137875838 -0.00022430409845529097 0.0
0.0008245865835464684 -0.00026815328353156463 0.0
0.0008487519065626521 -0.00026506849844991126 0.0
0.0008492002173545686 -0.0002534027995885028 0.0
0.0008733284201285917 -0.0002616657110144556 0.0
0.0008741318482118231 -0.0002500395903394937 0.0
0.0008983593885061431 -0.0002579360367615689 0.0
0.0008994468337350252 -0.00024617311415271856 0.0
0.0009240208879668392 -0.00025381828644389985 0.0
0.0009254643873454965 -0.00024198232841548325 0.0
0.0009502323445391128 -0.0002492590449958731 0.0
0.0009488102382230957 -0.00026158074787806056 0.0
0.000974896026109947 -0.0002566887675531138 0.0
0.0009733980557221313 -0.00026939818787227244 0.0
0.000999379039262684 -0.00026417171563224346 0.0
0.000997667889904663 -0.0002773114101305093 0.0
0.0010238679785849504 -0.00027172714565501917 0.0
0.0009521221375893196 -0.0002373665528884718 0.0
0.0010257519790370844 -0.0002584439490833394 0.0
0.0010505700475248855 -0.0002655940611100475 0.0
0.0010484056404725687 -0.00027956866662843844 0.0
0.0010753965102436806 -0.00027310522697831206 0.0
0.00042234768882705643 -0.00010620159764269738 0.0
0.0004243155802890504 -0.00011522197229368536 0.0
0.0005546561548900289 -0.00021154962455299556 0.0
0.0005295329715306325 -0.00020008300027137812 0.0
0.0010780802240182563 -0.00025901135913495026 0.0
0.0011028891726825368 -0.00026599565807151323 0.0
0.001099910051310594 -0.0002806499533251221 0.0
0.001127900214655636 -0.00027308162049923565 0.0
0.00038485104271817727 -0.00010250163139442582 0.0
0.00038727291237886617 -0.00011104232941139413 0.0
0.0014120925956130877 -5.7654863097472846e-5 0.0
0.0014598209133443155 -4.4957710206002064e-5 0.0
0.0014193496257251055 -4.5321279704674564e-5 0.0
0.001800979607357465 -0.00010389475226469947 0.0
0.0018400598223345976 -8.570392366155448e-5 0.0
0.0008486736779555573 -0.0002772628641025646 0.0
0.0005974518535530098 -7.752780459258415e-5 0.0
0.0010922081525118 -0.0001479741807147629 0.0
0.0011245933252710886 -0.0002882858444947886 0.0
0.0011527583878744856 -0.0002803006297585623 0.0
0.0011558649052661812 -0.0002647546052020023 0.0
0.0011814129671567136 -0.00027140439215760055 0.0
0.0011611874439624772 -0.00012395708074346018 0.0
0.0014704960801258068 -3.203634232320142e-5 0.0
0.0015075601712754444 -3.4353853490544225e-5 0.0
0.0005450412698955013 2.5364916502945866e-5 0.0
0.0005323318155060716 -0.0002102183692614204 0.0
0.0005075998214315017 -0.00019841160230427124 0.0
0.0014276919509288834 -3.258458876928603e-5 0.0
0.0011777427323329055 -0.00028772426539011646 0.0
0.0012071108992991711 -0.00027872875312001053 0.0
0.0012111173994045327 -0.0002619272267275305 0.0
0.0012377312347632689 -0.00026897985530581654 0.0
0.0012427094137792436 -0.0002521473751736149 0.0
0.0012692533553812797 -0.0002583710117563936 0.0
0.0012639082290220234 -0.00027594361893829456 0.0
0.0012954743671887553 -0.0002647541059280751 0.0
0.000488790621204189 3.6859193841953794e-5 0.0
0.0003488341638434487 -9.809955660496073e-5 0.0
0.00035142339612349323 -0.00010598138111910997 0.0
0.0008253381410886751 -0.0002804110195722422 0.0
0.001825502976674356 -0.00010191143602123342 0.0
0.0018653510215490181 -8.241567254807748e-5 0.0
0.0012897915528984772 -0.0002830501284183131 0.0
0.001321076381564769 -0.0002713630810411255 0.0
0.0005489923908434426 4.962127081570256e-5 0.0
0.0005108345964029607 -0.00020860664938027537 0.0
0.00048597690367152004 -0.0001962711705681138 0.0
0.0005999597635252664 -1.6451309596769298e-5 0.0
0.001690278175420231 4.130007109936992e-5 0.0
0.0008487392873783277 -0.0002898681753590777 0.0
0.0004910182566124834 5.68146855477133e-5 0.0
0.00044846928779728763 -3.241630419191775e-5 0.0
0.0018461611496218234 -0.00010349167368158116 0.0
0.0018902472336607481 -7.962153411001906e-5 0.0
0.0019054520213535322 -6.480039731257741e-5 0.0
0.00043215273226391524 2.521149771232147e-5 0.0
0.0018056354970640515 -0.00012232056920449626 0.0
0.0003437499415255551 -8.939637155573706e-5 0.0
0.0005334370477560521 -0.0002199158016287332 0.0
0.0014805631957447996 -1.897099197693043e-5 0.0
0.0014366899794340815 -1.953211906724178e-5 0.0
0.0012753784287056345 -0.0002413207040629227 0.0
0.0004896485831928157 -0.00020676311244635586 0.0
0.0004647567045966084 -0.00019393712492424923 0.0
0.00031418279752939076 -9.295102116616829e-5 0.0
0.00031682058148679724 -0.00010006181999645071 0.0
0.0005729383164915949 -0.00019292955362866247 0.0
0.0013150896229769894 -0.0002903591396364276 0.0
0.0013460528548979841 -0.00027796542753362685 0.0
0.0004609742180794329 -0.00018383356628923211 0.0
0.000439546338710622 -0.00018100910871294857 0.0
0.001286215974564823 -0.0003005633721470932 0.0
0.0008263607338041283 -0.00029310222255195007 0.0
0.00044395068997188863 -0.00019134254865237413 0.0
0.00041870498173102763 -0.00017796000923645411 0.0
0.0008746155659228209 -0.00023896623279036754 0.0
0.0019314528645146733 -6.087981923141569e-5 0.0
0.0019455940574238976 -4.9629558302627174e-5 0.0
0.0019165678778011546 -7.58828369431787e-5 0.0
0.0013396964452383226 -0.00029744785767250095 0.0
0.0013704587734878686 -0.0002844557406634289 0.0
0.0012480541257448461 -0.00023576972738269703 0.0
0.001281766181400394 -0.00022481117885970482 0.0
0.0008491542654751656 -0.0003028535557716667 0.0
0.0013776472224349052 -0.0002644658249403125 0.0
0.0014021951531193288 -0.0002706345900237542 0.0
0.0002803072569412803 -8.675676124724564e-5 0.0
0.000284547406560751 -9.362035172840081e-5 0.0
0.001394864274691109 -0.0002916817690788583 0.0
0.0014260382228682964 -0.00027710916410885595 0.0
0.0004239759985007898 -0.00018861068981795772 0.0
0.0003985591357807965 -0.00017474182409789177 0.0
0.00149017828036607 -5.901213001172194e-6 0.0
0.001446321922346705 -6.199737609596064e-6 0.0
0.00039300991781260786 -0.0001646820617323828 0.0
0.000372635695318649 -0.00016087462720045865 0.0
0.0003782208920826773 -0.0001711185158388241 0.0
0.0003522701999303957 -0.00015678841401337498 0.0
0.001957280192307982 -5.696313376878849e-5 0.0
0.001942091717468205 -7.292253355749958e-5 0.0
0.000552427524336821 7.171702288645391e-5 0.0
0.0004906205744224628 7.511067749487909e-5 0.0
0.0013792619504144508 -4.55531980630273e-5 0.0
0.0008274605065539583 -0.00030616811777111865 0.0
0.0014185352259205243 -0.0002991255272952269 0.0
0.0014489241396421738 -0.0002835650536309467 0.0
0.0015561278850722516 4.2598563495841786e-5 0.0
0.0014103344149309484 -0.00025008391757974066 0.0
0.0009722260281782689 -0.0002825153841270921 0.0
0.00034598130582293667 -0.00014709924100858563 0.0
0.0003260470961812795 -0.00014245538955875439 0.0
0.0003325979035455947 -0.00015262491877620737 0.0
0.00030609948715046114 -0.000137715287193495 0.0
0.00029955172087924926 -0.00012830279413242668 0.0
0.0002788226398371609 -0.00012293044594540375 0.0
0.00027203143444660683 -0.0001139196176745542 0.0
0.0002507847345663475 -0.00010787897337241084 0.0
0.00024402191145611187 -9.974884832191079e-5 0.0
0.00022377371231374255 -9.360981834462346e-5 0.0
0.00021669494951413143 -8.633002619118753e-5 0.0
0.00023012766881765366 -0.00010157166714894189 0.0
0.00020041272598198866 -8.526212457746695e-5 0.0
0.0002489229430819979 -8.02085397675872e-5 0.0
0.0002462614378814918 -7.419727905766423e-5 0.0
0.0002094843026650061 -9.496441596458718e-5 0.0
0.0001821110053528209 -7.98312887333254e-5 0.0
0.0006106441782441968 6.171156161363859e-5 0.0
0.0006386548987040802 -0.00014082330585037602 0.0
0.0012540279017561613 -0.00021999494510241432 0.0
0.0012881297776347884 -0.00020891074096343666 0.0
0.00038737505898008055 -0.00011839356763159726 0.0
0.0008496400204374313 -0.0003163152587557686 0.0
0.000871543967076859 -0.0003127095244542659 0.0
0.0013163969858038577 -0.0002131198598598577 0.0
0.0013233544657912577 -0.00019692626242804622 0.0
0.0019829884617701336 -5.314408709590737e-5 0.0
0.0019659466173022615 -7.054119439725974e-5 0.0
0.0019257423704253645 -9.39558315181151e-5 0.0
0.0013929206361380378 -2.0728471683245927e-5 0.0
0.0014027855934353516 -7.611832533004381e-6 0.0
0.0008048858120724473 -0.00029605738123859203 0.0
0.0008062203834951005 -0.0003091368520105598 0.0
0.0007840113649011706 -0.0002987960841355023 0.0
0.00031379961850423125 -0.00014847138542105608 0.0
0.0014557636188577945 6.902069085315254e-6 0.0
0.0014127446983507703 5.893393530000641e-6 0.0
0.0005750573933998294 -0.00015023555000831125 0.0
0.0014407087397708626 -0.00030615655342347575 0.0
0.0014708926550291632 -0.00028977709439476524 0.0
0.0014800906024742503 -0.00026750299481706106 0.0
0.0015014693537961428 -0.0002728138587819504 0.0
0.0005747359428997711 9.456776086741624e-5 0.0
0.0005018421704854195 9.32863174503203e-5 0.0
0.0007741795854006371 -0.00022818866495550254 0.0
0.0014118124811491207 -0.0003212924172359208 0.0
0.0018029225104543366 3.7842924055484834e-5 0.0
0.001491617492290614 -0.00029622663290244586 0.0
0.0015218404407371987 -0.00027831641043379066 0.0
0.001532513911797882 -0.000254995460442642 0.0
0.0015529158525422898 -0.00025963772420516796 0.0
0.0015648252994510845 -0.00023626752655128924 0.0
0.001584590240442057 -0.0002401853475383156 0.0
0.001572105581563495 -0.00026448849201562817 0.0
0.0016032818278763886 -0.000244428087934829 0.0
0.0001893890465681737 -8.77731429434717e-5 0.0
0.00016239454348594985 -7.256967648104141e-5 0.0
0.00015191196445203672 -6.40171799035161e-5 0.0
0.0008719949853897944 -0.00032660989428231644 0.0
0.0008930854008097117 -0.0003233018834842119 0.0
0.00078576121797729 -0.0003119079472180759 0.0
0.0007636466625228495 -0.00030121286709959956 0.0
0.0019478371456440287 -9.32921511581818e-5 0.0
0.001988224465068473 -6.881066781101878e-5 0.0
0.0015355666693394555 3.6161198128852695e-5 0.0
0.0014967835276080625 4.0463161889427084e-5 0.0
0.00042585046179623967 7.201902272955781e-5 0.0
0.0004378819957491745 8.648353098689243e-5 0.0
0.0002172823054684762 -0.0001046341328742383 0.0
0.0007278502365869864 -0.00019080078673693943 0.0
0.0013601895726882518 -7.20572191171261e-5 0.0
0.0019093020889682354 -0.00011854766763157326 0.0
0.0005868752114070703 -0.00010002877724700086 0.0
0.0013500621362946973 -2.287731841502794e-5 0.0
0.0015899327855253818 -0.0002698472820021895 0.0
0.0016208188960117314 -0.0002493252798395083 0.0
0.0016371178071172506 3.982489238647891e-5 0.0
0.0017143986646644634 3.699896304091687e-5 0.0
0.0005800505862704414 0.00011568293855838078 0.0
0.0003190247774856461 -0.00010676591199051529 0.0
0.0002112576529007629 -6.649310100876349e-5 0.0
0.0002088253022602544 -6.091880588267523e-5 0.0
0.00033922871649472473 -0.00016366222682204828 0.0
0.0015128379650941283 -0.00030263319828625933 0.0
0.0012271959012446806 -0.00016100727699372322 0.0
0.0010976534529078131 -0.00029578224365666274 0.0
0.0007017553380232484 -0.00023228267651090445 0.0
0.00016960367470787664 -8.062506452157312e-5 0.0
0.00014313982150190917 -6.534322242388827e-5 0.0
0.0004491298409188 -0.00020247847665203687 0.0
0.0013523059910840567 -0.0002005549382293755 0.0
0.0013598192867632997 -0.00018422500052445615 0.0
0.0008069023390204288 -0.00032284456428365304 0.0
0.0016725015158123046 3.3708104859078814e-5 0.0
0.0017389954343803732 3.103085832282876e-5 0.0
0.0016997230507763258 2.660042273842613e-5 0.0
0.001764394435708237 2.4108509267428413e-5 0.0
0.0018037505355168661 2.8038220229521358e-5 0.0
0.0018287547528756576 2.1420621592772762e-5 0.0
0.0017886961560367193 1.6575899510249363e-5 0.0
0.001851110416330466 1.440553464375706e-5 0.0
0.0018111806424695833 8.794472758512917e-6 0.0
0.0018725066094480503 7.441151734188997e-6 0.0
0.0018332954230969253 8.558481170677682e-7 0.0
0.0018922170500485246 7.285588596834506e-7 0.0
0.0018536541427924753 -6.821625756217417e-6 0.0
0.0019108331968388508 -5.6116226283294925e-6 0.0
0.0017931730501975487 -7.996656079141341e-6 0.0
0.0018727836917703667 -1.4015052840632198e-5 0.0
0.0019268460404211157 -1.1722452040145788e-5 0.0
0.0018703892926260463 2.4397932935829396e-5 0.0
0.00043480378760919443 -0.00017114100851030082 0.0
0.000429808409858336 -0.000199986545511719 0.0
0.00045402836908336287 -0.00021397879095430902 0.0
0.0018908215024700957 -2.0550298370377885e-5 0.0
0.00194241792701039 -1.7016664463324417e-5 0.0
0.0018400195903662863 -2.371774811349332e-5 0.0
0.001121610888487786 -0.0003038656247833083 0.0
0.001095217185598361 -0.0003111141234880851 0.0
0.0011188092454703855 -0.00031963916987295715 0.0
0.001093352034298885 -0.00032675527022741523 0.0
0.0011163941258887358 -0.0003356783845457033 0.0
0.0010920792188184962 -0.0003426956970925071 0.0
0.0010690795736007692 -0.0003335948031704825 0.0
0.001068364197274915 -0.00034931499350452614 0.0
0.0010459549885702137 -0.000339997636841696 0.0
0.0010758910743953346 -1.551253260815949e-5 0.0
0.0011145468069011571 -0.00035209491594484065 0.0
0.0011386932151907355 -0.0003447620517515721 0.0
0.0009604087493749157 -0.0001520331698636794 0.0
0.0009270496059807549 -0.00023055747239362362 0.0
0.0009542302795013636 -0.00022587467094841484 0.0
0.000928862524656713 -0.00021951576270649262 0.0
0.0009565511874692472 -0.00021479013886810264 0.0
0.0009309345332038726 -0.00020887592681710385 0.0
0.0009591037572235679 -0.00020412201078779207 0.0
0.0009848450321636587 -0.00020964800445793342 0.0
0.0009878533603868403 -0.00019893581877906562 0.0
0.001013751993292347 -0.000204075853687298 0.0
0.0010171437352954696 -0.00019330111519977366 0.0
0.001042019487206797 -0.00019805469760844844 0.0
0.000991231603069154 -0.00018830465768364743 0.0
0.0009332802438478258 -0.00019862599948490447 0.0
0.0009050320665217791 -0.0002030238589181978 0.0
0.0010383563890965313 -0.0002094743000409395 0.0
0.0010682278237818567 -0.0002023433746551341 0.0
0.00043561590020177264 -0.0002118105750551648 0.0
0.0010116880451375124 -0.00011312919132831594 0.0
0.0010611279642263453 -5.753231941282076e-5 0.0
0.001106239406604288 -0.00025189727528315603 0.0
0.001997055425996003 -4.158911544969156e-5 0.0
0.002022205380498369 -3.752368615102707e-5 0.0
0.0011383560563839473 -5.9046161855050125e-5 0.0
0.0011125747215382728 -7.904101382984462e-5 0.0
0.0015433195644694068 -0.00023235405665044805 0.0
0.0013354052628573936 -0.00013122610788261367 0.0
0.001970829018570473 -9.156525320484923e-5 0.0
0.00200979342127512 -6.71066710563065e-5 0.0
0.0010892006246379143 -0.0001092262876023924 0.0
0.0007657124711278099 -0.00031441503618724945 0.0
0.0007437256942439213 -0.0003034165110642081 0.0
0.0011727816939782992 -3.6673172211036765e-5 0.0
0.0010453057367216141 -0.0003555939087426774 0.0
0.0010227926721568367 -0.000345398841323222 0.0
0.000741693687669151 -0.0002905380674731289 0.0
0.0007215739593005897 -0.00029243093786544074 0.0
0.0007194556812997673 -0.00027984547600960096 0.0
0.0006991970346473106 -0.00028139837220884077 0.0
0.000701792736000729 -0.00029414985584299614 0.0
0.0006794576841704708 -0.00028279370829935134 0.0
0.000682319300445401 -0.00029565517539458576 0.0
0.0006599778828342167 -0.00028399972623449686 0.0
0.0003217112789742109 -0.00016013840270981283 0.0
0.002034865520969172 -2.9432501828898693e-5 0.0
0.0014636458609283878 1.9065046446758672e-5 0.0
0.0014199392040717162 1.859076620008479e-5 0.0
0.0006486914583494583 -0.00018520739564754682 0.0
0.0005292829107982346 -0.00019070928355216664 0.0
0.0019618508434679012 -5.230650806598488e-6 0.0
0.001933155596852332 5.615714295493312e-6 0.0
0.0008931780277199365 -0.0003373482794585447 0.0
0.0009148615429667577 -0.0003336216205075266 0.0
0.0014329691321187006 -0.0003286711518455423 0.0
0.00029470534816755515 -0.00011983497154912679 0.0
0.0012155836166629675 -0.0001271059914706946 0.0
0.001370570246668447 3.850944294661234e-6 0.0
0.0013782202388457271 1.6627328087862317e-5 0.0
0.0015773169831554469 -0.0002136946828820345 0.0
0.0016369969560620329 -9.695579130613562e-5 0.0
0.0016349250757700892 -0.00022422202498567173 0.0
0.0016530812885082557 -0.00022807881921802308 0.0
0.0016377827981896203 -0.00025518984062809536 0.0
0.0016706487633134065 -0.00023313967793276843 0.0
0.0009504171985764544 -0.00013428710656117066 0.0
0.00034576347619644704 -0.00017528861382800343 0.0
0.0010441626385487006 -0.0001870212456902718 0.0
0.0017497602918914018 9.354785352559083e-6 0.0
0.0008974146679978837 -0.000309959291486827 0.0
0.00045868850226254043 -0.00022578393945194738 0.0
0.000477114156192702 -0.00022780072690035312 0.0
0.00140553762452561 -0.00034328332157718486 0.0
0.0006967146530724844 -0.00026918489212128733 0.0
0.001260007876195007 -0.000204848818191049 0.0
0.001226408516719162 -0.0002152517790825316 0.0
0.001992359145755301 -9.050916592798904e-5 0.0
0.002031861065442828 -6.478338890123381e-5 0.0
0.0020478675741419958 -4.616085636398338e-5 0.0
0.0006531304217073767 0.00011826367675608638 0.0
0.00015036380109498983 -7.314395849703528e-5 0.0
0.00012401835549293188 -5.7526041913441337e-5 0.0
0.00011968332076110678 -5.236457133661245e-5 0.0
0.0014803456886093443 2.9548445290501347e-5 0.0
0.0015177181475280945 2.133911023088914e-5 0.0
0.0014439806364376702 3.633209268227783e-5 0.0
0.001534750898806204 -6.331733470307798e-6 0.0
0.0019080994552062352 -2.5810301722510453e-5 0.0
0.0019589287803224984 -2.099936228681967e-5 0.0
0.000746144922125333 -0.0003167178014462601 0.0
0.0014931600071047407 -5.685129941699254e-5 0.0
0.0003611006817431886 6.421873545762444e-5 0.0
0.00037053012334179077 7.397763163817414e-5 0.0
0.00045530646427180193 9.913932587894633e-5 0.0
0.00038094504767757005 8.037265730716254e-5 0.0
0.0005024065660226283 0.00011692478472380214 0.0
0.001021264640729229 -0.00032964253931501 0.0
0.0006566847665559843 -0.00027146996319337715 0.0
0.0006376998716296628 -0.0002724074045458851 0.0
0.0006410058695848241 -0.00028501144565906656 0.0
0.0006189477834445386 -0.00027316284710009805 0.0
0.001685567612865441 -0.00020674470693470844 0.0
0.0017031808989952603 -0.00021135668938466825 0.0
0.001688393496877836 -0.0002392205456755194 0.0
0.0017204013203855524 -0.00021689851313208837 0.0
0.0013301616895729292 -0.00018125097316137542 0.0
0.0013672884098959472 -0.00016873285813317498 0.0
0.0011368593227499926 -0.0003615456946069695 0.0
0.0011607141155359929 -0.0003539487342297109 0.0
0.0009073035641718705 -0.00019307945962418943 0.0
0.0008789034915256767 -0.00019715626210620258 0.0
0.0008697221869587214 -0.00034126968646271165 0.0
0.0006223882016389937 -0.000285610902684006 0.0
0.0006007462145636373 -0.00027366102842627703 0.0
0.0018873051264116374 -0.00011865211116200219 0.0
0.0018711432054561862 -0.00014475477132648804 0.0
0.001850437282931033 -0.0001439787479818034 0.0
0.0018380781767146045 -0.00016890665290529978 0.0
0.0009148737459421135 -0.0003490463656638197 0.0
0.00017473087867390865 -8.879212994551396e-5 0.0
0.00023876427301629374 -9.29300027700794e-5 0.0
0.0002082325412442319 -7.90812585773143e-5 0.0
0.00017239723403255941 -5.2728480405226586e-5 0.0
0.00016768165869810288 -4.715097844310229e-5 0.0
0.00020655731512753432 -5.460546284796191e-5 0.0
0.00016361738491460306 -4.0998116309536075e-5 0.0
0.0002040295639968575 -4.717469304491705e-5 0.0
0.00015953040588310402 -3.397498967314213e-5 0.0
0.00020203768579752577 -3.852332610624827e-5 0.0
0.0018925497356910817 -0.00014564660038116458 0.0
0.0006147607415688922 -0.0002609909897570067 0.0
0.0015545508270225503 -0.00021096792996261833 0.0
0.001383970627577992 -0.0003345915424999581 0.0
0.0013790404573772136 -0.0003567404953939926 0.0
0.0013578259692551727 -0.0003477658014787179 0.0
0.0010227570095982426 -0.00036130755385236875 0.0
0.0014981652224714682 1.702336621273379e-5 0.0
0.0017057922668148875 -0.0002462732272049497 0.0
0.0020707006308494083 -4.2520060868876494e-5 0.0
0.0020536535947616383 -6.173609069404305e-5 0.0
0.0006596915317494615 0.0001378421225794826 0.0
0.0014582775581082539 2.8262558524725203e-5 0.0
0.0010809648701459833 -0.0002454714604572253 0.0
0.0011092309390841933 -0.0002382775841868308 0.0
0.0010686741217596548 -0.00036569208037821833 0.0
0.0010004103985280903 -0.0003507840497986752 0.0
0.00046752347138558396 -0.00012887811719314402 0.0
0.0019916201098480637 -1.3650998638138806e-5 0.0
0.0020072223469762415 -1.635706884196205e-5 0.0
0.001973572413996784 -2.407605596931682e-5 0.0
0.0020202665816637945 -1.854623306391845e-5 0.0
0.0016341076458047095 -0.00014746089154587944 0.0
0.0012005265773525487 -0.00029603850992761157 0.0
0.0012319687991882346 -0.00020086394540574752 0.0
0.000898476448535678 -0.0002702583522535153 0.0
0.0013175178629846165 -0.00010616543143511768 0.0
0.0013892157254998287 -0.0001873783504808364 0.0
0.0013854458974545563 -0.0002453402778500587 0.0
0.0014191139704126984 -0.00023066679852153812 0.0
0.001466097774487217 7.969024941058644e-6 0.0
0.0015109065532925036 -4.824369351414423e-7 0.0
0.0004813470862552065 -0.00023970898340404503 0.0
0.0004988751897223775 -0.0002411949541247883 0.0
0.0001557506957146704 -2.5992024331538596e-5 0.0
0.00019856119764460385 -2.8462960129216298e-5 0.0
0.00024648397794420975 -4.176931921720565e-5 0.0
0.00024474777912986226 -2.948388910100275e-5 0.0
0.00019660402299409536 -1.7667197442538988e-5 0.0
0.0002452255120849792 -1.622841074698701e-5 0.0
0.00019637195066876429 -6.553814366718557e-6 0.0
0.0002481476491053975 -2.361453320942188e-6 0.0
0.0001975351940530126 4.318711288505744e-6 0.0
0.00013148734005115584 -6.542909419475791e-5 0.0
0.001198828074245352 -0.00021058786099086398 0.0
0.00010556328613980278 -4.976451402021403e-5 0.0
0.0004412143413499903 -0.00022395719447535872 0.0
0.002061051641226879 -2.5218827939656732e-5 0.0
0.0009793550934580194 -0.0002323334632150707 0.0
0.0013315368207668869 5.712000125901966e-7 0.0
0.0013426049932284048 1.499135629073563e-5 0.0
0.0002520931630976673 1.1475160953793694e-5 0.0
0.0003291940540049736 -0.0001724093282137457 0.0
0.0003053514406598974 -0.00015691017585191358 0.0
0.0006447834264810765 -0.0003000133835456051 0.0
0.0014233387811817173 -0.00035189841144365455 0.0
0.0007677492322039034 -0.00032805090947091864 0.0
0.0017375678581468743 -0.00022311695085077852 0.0
0.002085467416372303 -2.9238544697121223e-5 0.0
0.0008769597433171129 -0.0002071215967630111 0.0
0.0008509460125712332 -0.00020083774531777968 0.0
0.0008492482468542776 -0.00021084382589518785 0.0
0.0007257729684200059 0.0001375706466829803 0.0
0.0008247944684379173 -0.00020417625352351474 0.0
0.0001800473918215246 -5.8814645734627597e-5 0.0
0.0011588067778247955 -0.0003712796738323168 0.0
0.0011829445739800011 -0.0003634094465409236 0.0
0.0011852387405866475 -0.0003459428792949864 0.0
0.0012074961787024274 -0.00035514893822183503 0.0
0.0014444955604260407 -0.00023505585902248297 0.0
0.00145425100758204 -0.00021510298816349347 0.0
0.0020714416896282207 -1.992405894194151e-5 0.0
0.0020447867536735075 -2.392828307171254e-5 0.0
0.0013931216171736084 3.06397291821304e-5 0.0
0.001352484577018374 2.9033865545202597e-5 0.0
0.0004185086816400591 -0.00020980900258371656 0.0
0.0006044204019836171 -0.0002860541209147682 0.0
0.000583150732172669 -0.00027396827507105293 0.0
0.0010401459675375565 -0.00014444470892038363 0.0
0.0016750581354867875 -0.0002688082572990833 0.0
0.00020127889425605204 1.4356985832108212e-5 0.0
0.0005789186710625205 -0.0002615424690855833 0.0
0.0012051368845732453 -0.00037316706007689977 0.0
0.0012296150369993366 -0.00036463324158972897 0.0
0.0012036021046563517 -0.00019718680934214104 0.0
0.001171406630623088 -0.000205966572417142 0.0
0.0011758760344963567 -0.00019324205612436648 0.0
0.0011052973930949482 -0.00012337370477363195 0.0
0.0001831443238130712 -7.124160529487647e-5 0.0
0.00011293197541798756 -5.759561067972999e-5 0.0
0.0012105619660669725 -0.00033745610160267883 0.0
0.0012572232794857982 -0.000163921593970442 0.0
0.0010007709913346075 -0.000366839855037472 0.0
0.0004231904828446071 -9.688220428198716e-5 0.0
0.0007355789999871201 -0.00015641790312398394 0.0
0.00035237824650078905 -0.0001881229807687252 0.0
0.0017526997032316794 -0.00019488120095377193 0.0
0.00045821056426807293 -0.00017443416523004086 0.0
0.000430442920983947 -0.00016173201847789043 0.0
0.0004561218699140664 -0.00016538965227625278 0.0
0.0004272256813357997 -0.0001529138378328261 0.0
0.00045383774762078284 -0.00015665271598546462 0.0
0.0004011821875033658 -0.00014877913792553667 0.0
0.001353693311860457 -0.00036923206215084886 0.0
0.0013341173260534268 -0.0003599583642354785 0.0
0.0002900994447032288 5.084247061556355e-5 0.0
0.0010235885260666082 -0.0003775283251437346 0.0
0.0009960795628039339 -0.0002908623413430305 0.0
0.0009711388479895954 -0.0002959644494323422 0.0
0.0005033864638583925 -0.0002534025460563392 0.0
0.00013995401332840576 -4.4464482032166874e-5 0.0
0.00015039701993363838 -5.110095722222539e-5 0.0
0.00191736824068614 -5.421340128313137e-5 0.0
0.001957790809360138 -4.1104442802014394e-5 0.0
0.0002936585028540671 -4.343551916148733e-5 0.0
0.0005205347148244073 -0.00025434877958903916 0.0
0.0005173887077095282 -0.0002431889626597208 0.0
0.000525010293858473 -0.0002667668240229777 0.0
0.0004865854737500176 -0.0002522515690163216 0.0
0.0004106140687510875 8.905774190059011e-5 0.0
0.0007823335548877872 -0.00028618506055212885 0.0
0.0011938042263359868 -0.00022489279968231015 0.0
0.0019271770418657131 -4.560153094168302e-5 0.0
0.0011354339493895127 -0.00037886776182738076 0.0
0.000748296993543788 -0.0003304063991919872 0.0
0.0020914848553350235 -3.9075742065069976e-5 0.0
0.0020741288020350505 -5.90927187150721e-5 0.0
0.0007246050218271204 0.00011564855053568043 0.0
0.0005875264294126429 -0.00028666365130815025 0.0
0.0013368896232512607 -0.00016575720205624632 0.0
0.001377137247813241 -0.00015314355003668705 0.0
0.00023364611412021223 -8.65397440642582e-5 0.0
0.00031305072110164573 -0.00016940290558666986 0.0
0.00028977228267727594 -0.00015391038150853933 0.0
0.00028162279659212227 -0.0001418452675296085 0.0
0.0004244017872221836 -0.0002221980688195472 0.0
8.735657149596052e-5 -4.1875511913782036e-5 0.0
8.168992444517759e-5 -3.656071228986776e-5 0.0
0.0012271334868137864 -0.00038316023911524216 0.0
0.0012513511084608117 -0.0003743953557061398 0.0
0.0012532764732029735 -0.00035468238920671844 0.0
0.0017186749359870857 -0.00018548051023178832 0.0
0.001700343408507575 -0.00018226112508062635 0.0
0.001691771186316774 -0.00027764809550679103 0.0
0.0003974830779555626 -0.00014034301859082598 0.0
0.00037194072258896926 -0.00013614003025670893 0.0
0.0014070033003989956 -0.00015548114968077625 0.0
0.002052076781915946 -1.2201298948744529e-5 0.0
0.0020638294650763183 -1.3572643057935126e-5 0.0
0.002077175917763065 -1.677273808350585e-5 0.0
0.0020290735670145865 -9.225071482725336e-5 0.0
0.00013878153113775106 -7.492980247070738e-5 0.0
0.001339714578442596 -3.414623509876004e-5 0.0
0.0013006740150954795 -3.671387989568366e-5 0.0
0.0012902729337984499 -4.666126196047465e-5 0.0
0.0012533645541898356 -4.9451115783533644e-5 0.0
0.0012450912454187067 -5.8504214544076855e-5 0.0
0.0012605952556898861 -4.0837092696030406e-5 0.0
0.0010840120232842392 -0.00023238232726813552 0.0
0.0008810589680098306 -0.0001876052169053083 0.0
0.000909937763209056 -0.00018349820629883618 0.0
0.00029746970566004935 -0.00016654862116212527 0.0
0.00027430942273551915 -0.00015060756928844996 0.0
0.0018430494730257087 3.0205343415859504e-5 0.0
0.0019124621820644054 2.5811536880122974e-5 0.0
0.0019401978622457833 1.9677416285273506e-5 0.0
0.001982585528986937 2.041682351320461e-5 0.0
0.0019649794311453234 2.522776450126642e-5 0.0
0.0009794565059583161 -0.00035655655654575545 0.0
0.0009788487401417932 -0.00034154879359210013 0.0
0.000979356250559064 -0.0003722408441122036 0.0
0.0012941684400121084 -3.921536039253936e-6 0.0
0.001282698369032213 -1.596647097625572e-5 0.0
0.0002966396245931905 -5.6186246335402353e-5 0.0
0.0001457716187857538 6.60358572841936e-6 0.0
0.0013296064814973245 -0.0003804682622201812 0.0
0.00035319988847951316 5.344000322353352e-5 0.0
0.0013446295432353451 -0.00021743965985772027 0.0
0.001287412254525966 -5.553649598243908e-5 0.0
0.001237336105226774 -6.747310486181549e-5 0.0
0.0012718437443427378 -6.657521458925215e-5 0.0
0.0012295890609476932 -7.647483641678742e-5 0.0
0.0012623557538340346 -7.619328399123937e-5 0.0
0.0012221364226101478 -8.572681701864798e-5 0.0
0.001254111900719928 -8.591976157861792e-5 0.0
0.0012150181028856436 -9.532885598722687e-5 0.0
0.00124769456833245 -9.577661413712773e-5 0.0
0.001195289386213482 -7.716321298673343e-5 0.0
0.001183187424874947 -9.491577602006347e-5 0.0
0.0013739489678578141 -0.00037852465462530046 0.0
0.0021038124864118414 -1.4906603806943163e-5 0.0
0.0007177103541432954 -0.00026784499778813965 0.0
0.0006941053965873675 -0.0002577247305836826 0.0
0.001953087744612881 -0.0001182878786527928 0.0
0.0008276198423891417 -0.0001959235356941346 0.0
0.0012105897126456545 -6.036064012814686e-5 0.0
0.0005288717525778212 0.00012830577447377133 0.0
0.0001266829710356 -3.4086303334620915e-5 0.0
0.000800483129232174 0.00013365612776963733 0.0
0.000790169521661598 0.00010856239012001928 0.0
0.0016060468902048502 3.464920138962834e-5 0.0
0.001974017201319113 -0.00011823023489459654 0.0
0.0019369315273138703 -0.0001476063952923421 0.0
0.0008225193781714174 -0.0002140910511456326 0.0
0.0008006730163417649 -0.00020580396073036612 0.0
0.0003677838018844191 -0.00018124264805939269 0.0
9.464528142743931e-5 -4.9511966962855274e-5 0.0
0.00010753115791896124 -3.525583220822361e-5 0.0
0.00011293646317728123 -3.914682796106782e-5 0.0
6.922293076769649e-5 -3.3784911995468775e-5 0.0
0.0014277431611930517 -0.00021180866856020258 0.0
0.001463996184926924 -0.00019639704900800293 0.0
0.001491075733874314 -0.0001991960702208187 0.0
0.0015008559363546543 -0.00018034714887500203 0.0
0.0011771068508410498 -0.00010390941559155067 0.0
0.000612970656428202 0.00015321595573480375 0.0
0.0007482390104562781 0.0001565282044247685 0.0
0.0011442165867787616 -0.00020137584971214069 0.0
0.0011489482887362848 -0.00018898697385766794 0.0
0.0008840506820010683 -0.00017879168018965086 0.0
0.0007590199023320689 -0.00017968096746397188 0.0
0.0007699286877439559 -0.0003420144655199468 0.0
0.0015604322802948807 -0.0002897735763181884 0.0
0.0015773820348566573 -0.00029637257615954356 0.0
0.0015496517351480663 -0.0003157717455734013 0.0
0.0015661599131892448 -0.0003237734826226973 0.0
0.0015398727275900371 -0.0003423429133819343 0.0
0.0015232403570957522 -0.00033436886595144833 0.0
0.0014804942700886994 -0.0003238917505774141 0.0
0.001335457281702211 -0.0003383009926341225 0.0
0.0014609911152566849 4.1828573697359346e-5 0.0
0.0010715486960543065 -0.0003027861363127566 0.0
0.00029914117027824837 -1.2742998766269133e-5 0.0
0.002054416864910376 -8.506664964070581e-5 0.0
0.0020930031519503234 -5.604208379450563e-5 0.0
0.0015936180996859878 -0.00030407509224703293 0.0
0.0015833945186543553 -0.0003326555397978292 0.0
0.0016097304733817643 -0.00031336084097823415 0.0
0.0007887070101971374 -0.0003394851631253107 0.0
0.0009475845242184523 -0.00028738056058111517 0.0
0.0009473781386463282 -0.00030048743906227373 0.0
0.0009703816733334715 -0.00030974283041673755 0.0
0.0006530353517850519 -0.00022529338696653485 0.0
0.0009239163480719685 -0.00029161635453182444 0.0
0.0011883471270682968 -0.00032919222703255797 0.0
0.0017353257553851973 -0.00016094114013242522 0.0
0.0017696285985048727 -0.000200047616650154 0.0
0.0017542927764459951 -0.00023051282386896227 0.0
0.0017897932197269255 -0.00016990677927619294 0.0
0.00025187719125123855 -6.167798888568436e-5 0.0
0.0007046021197985824 -0.0003073325549287344 0.0
0.0006856999059760894 -0.00030896346259602235 0.0
0.0007073373042499919 -0.0003207435265334645 0.0
0.0006894077728408208 -0.0003224113463407201 0.0
0.0015278388393099973 -0.00018230591104077143 0.0
0.0004471548971408612 -0.0002366555321448691 0.0
0.0004028794709816303 -0.00020819228203081477 0.0
0.002031225229187147 -2.0377401721945597e-5 0.0
0.00011565721486363125 -2.2185012770310425e-5 0.0
0.00011249782125935835 -1.5841897389819423e-5 0.0
0.0013084069004130848 -0.0003681688654980792 0.0
0.0013082301644385974 -0.0003903784817847771 0.0
0.00105540306638589 -0.0002391657154864561 0.0
0.0020101066083203453 1.4574110970069046e-5 0.0
0.00040847181035487645 -0.00022052560594087745 0.0
0.0016444024870384468 -1.6424877600691822e-5 0.0
0.0018639406834769022 -0.00011925307689735165 0.0
0.001918814389898856 2.2933710763618326e-5 0.0
0.0019357733652934285 2.7723723974341657e-5 0.0
0.0014738546670023242 -0.00017872612626729852 0.0
0.0015903259289877113 -0.00019263056740151003 0.0
0.0016127171417519158 -0.0001945526150158916 0.0
0.0014769940036258415 -2.052423609432464e-5 0.0
0.001520252294350243 -2.8274582641350508e-5 0.0
0.0015547014050643702 -5.307081831950392e-6 0.0
0.0012026660977002823 -0.0003915783970023173 0.0
0.0006072800665384947 -0.0002984450797195691 0.0
0.0009017581518954206 -0.00022396682927911782 0.0
0.00129999450583073 -0.0001786671695508087 0.0
0.0011337645054437786 -0.00024386879743125645 0.0
0.001157102577510775 -0.0003891853950084762 0.0
0.0005413078897757945 -0.00026725833397140444 0.0
0.0006733882234974229 -0.0002584825984808535 0.0
0.000289397124930109 -0.00010071040839314649 0.0
0.0020412301529402765 1.4700978224428213e-5 0.0
0.0015208621949413914 -0.00022921271971980344 0.0
0.0002019540420378005 -7.318465996357738e-5 0.0
0.0006381850608438213 0.00016757645699204646 0.0
0.001144974576658359 -0.00031214457343262385 0.0
0.001514255087033946 -0.0003600073544832515 0.0
0.0014967940295538774 -0.0003519979552528836 0.0
0.0013278428915409449 -0.00025276750415346397 0.0
0.0014148576263077358 -0.00014055143144176704 0.0
0.0006218812141060447 -0.0001941527665578072 0.0
0.000947049569778927 -0.0003163369695417803 0.0
0.0012921117675079392 -0.00015415673115950031 0.0
0.0006706038512124561 -0.00024729507820002195 0.0
0.0006495234970047473 -0.00024762386519528015 0.0
0.0005457194682813772 -0.00027983624285879253 0.0
0.0003435589667160831 -5.846211296591748e-5 0.0
0.00034339496274425965 -4.450636989700164e-5 0.0
0.00015066770544907158 1.3260750648743988e-5 0.0
0.0002109591773722714 2.3881004801237635e-5 0.0
0.0016626397624746124 -0.000299838845099075 0.0
0.00026386403170131415 -0.00010002336872536563 0.0
0.00037612692777075433 -0.00014460022008498037 0.0
0.0003468094084411574 -0.00013142491807479072 0.0
0.0017697484376602718 -0.00016796383011639997 0.0
0.0008735320202380007 -0.00028655083499030596 0.0
0.0011124233909106 -0.0002245469957182567 0.0
0.0014068467950064667 3.9950153695227886e-5 0.0
0.0013998804507019214 3.0975755182596254e-5 0.0
0.001365521999997487 3.5217329356738265e-5 0.0
0.0013621790806366578 2.2333805642828157e-5 0.0
0.001395564666710081 1.2861986254797636e-5 0.0
0.0015458257014363175 6.9049222692396755e-6 0.0
0.001588711327868139 4.307851543526967e-6 0.0
0.001601288481940326 1.5704329908328115e-5 0.0
0.001641410611230029 1.2112033709810566e-5 0.0
0.0016293026573422304 6.960052384593378e-7 0.0
0.00010090280429222515 -3.096241290508077e-5 0.0
0.0015389901919274226 -0.00016424387427183056 0.0
0.00029157118717821283 5.503338681753936e-5 0.0
0.00032474578898007613 6.357857728390206e-5 0.0
0.0012487130493349522 -0.0003931437243992391 0.0
7.252234075605373e-5 -1.1801556700286495e-5 0.0
0.0017088721173138678 -8.202994185711983e-5 0.0
0.0017525343199635028 -6.771815886479944e-5 0.0
0.0017221732500994455 -6.67569858221383e-5 0.0
0.0017866585582726857 -6.636867303810389e-5 0.0
0.0017967989060400464 -5.424989715288198e-5 0.0
0.001831562836686072 -5.3170135905831274e-5 0.0
0.0004831853288806816 -0.00016859169553030812 0.0
0.0004823568952627929 -0.0001601621362581813 0.0
0.0004514097911727893 -0.00014816632919371073 0.0
0.0004811772250398354 -0.00015192438966209665 0.0
0.0005121643272456187 -0.00016333656293409586 0.0
0.0005116194755439279 -0.00015505630064240237 0.0
0.0005420872268310802 -0.00016581793012027438 0.0
0.0005919453976007359 -0.00029883343551624414 0.0
0.0005420545399366267 -0.00015725968424326142 0.0
0.0005722705665601646 -0.00016770680639547245 0.0
0.00014890036985390446 -9.098864449508266e-6 0.0
0.000344511280342609 -7.067713121977885e-5 0.0
0.0005710258023432886 -0.00017606197209016607 0.0
0.0004525712029052517 -0.00014115210283560117 0.0
0.0017158545776517213 -0.00015944247401934402 0.0
0.0016816363427671808 -0.00018030730690639154 0.0
0.0009588113712226574 -0.00036237718979638373 0.0
0.0009584642397104046 -0.00037760016026199846 0.0
0.0013295410892173595 3.0047483853399965e-5 0.0
0.000728514285680427 9.118705948037579e-5 0.0
0.000789716607917915 8.139269225076776e-5 0.0
0.0008474982130659837 9.65750294988869e-5 0.0
0.0008473533884269198 6.678438675210284e-5 0.0
0.0007941123212612648 5.2693066567332327e-5 0.0
0.0008509954402444142 3.368619200145654e-5 0.0
0.0008010086907845499 2.3088543534653497e-5 0.0
0.0008576075069930852 2.3769588271343726e-6 0.0
0.000808258652459745 -3.958485674021701e-6 0.0
0.0008721154521482316 -2.4153760867686985e-5 0.0
0.0008137700148786068 -2.6421713645419414e-5 0.0
0.0008654452412806067 -4.225257366474088e-5 0.0
0.0008157487423754188 -4.4391445387811236e-5 0.0
0.0008643465639800355 -5.7167317526109494e-5 0.0
0.000819303916755776 -5.993562204542329e-5 0.0
0.0008640807231563174 -6.983550239941501e-5 0.0
0.0008201201568365337 -7.255103652534143e-5 0.0
0.0008611990762258995 -8.02610515604982e-5 0.0
0.0008198981138816827 -8.317220002523945e-5 0.0
0.0008586226355891917 -8.936124618864399e-5 0.0
0.0008187268096137322 -9.262057893086998e-5 0.0
0.000855371581001952 -9.780720603846631e-5 0.0
0.0008160545184236278 -0.00010128801934666743 0.0
0.0008519873307079655 -0.00010562115878473358 0.0
0.0008132511593754626 -0.00010971669845471273 0.0
0.0007769427739413143 -0.00010422413906279856 0.0
0.000774876242237198 -0.00011305661400429135 0.0
0.0008510026825319702 -0.00011400805765363126 0.0
0.000779532316364296 -7.49085088024951e-5 0.0
0.000890096233346179 -0.00010098898132853508 0.0
0.0009016918771946133 -8.602104500941285e-5 0.0
0.0007543957068241144 1.4010511059599926e-5 0.0
0.0009079885954448038 -6.646464060162938e-5 0.0
0.0007375352388330035 -0.00010672102899136294 0.0
0.0007367648275388731 -0.00011576576994971859 0.0
0.0007729378363041232 -0.00012167011624463629 0.0
0.0007359563433775065 -0.00012450007508121017 0.0
0.0007705286269100067 -4.706878131197665e-5 0.0
0.0009190439785751203 -4.24838001068064e-5 0.0
0.000738957040180958 -9.711242442032168e-5 0.0
0.000909371984583029 1.0228038950216863e-5 0.0
0.0007713321981489339 -0.00013005990769320946 0.0
0.0007350417074058614 -0.0001330143233169247 0.0
0.0006994731213035756 -0.00012674902327001884 0.0
0.0006977176647366138 -9.916656050567694e-5 0.0
0.0006968125792231729 -8.787926424530381e-5 0.0
0.0008080102933260643 -0.00012643855255731377 0.0
0.0008051651598592863 -0.00013465709772068993 0.0
0.000840553868324508 -0.00013063124066770018 0.0
0.0009035796915367604 7.794695555989514e-5 0.0
0.0009105886508346456 0.00010262397929859257 0.0
0.0007003097223997073 -0.00013546794070126817 0.0
0.0006637007358757461 -0.00012852780998008146 0.0
0.000663280961777526 -0.00011976147332684088 0.0
0.0006252808741829802 -0.00012066824932734507 0.0
0.001134398068992942 -0.0003965765207306513 0.0
0.0011132016027200209 -0.00038614277413725426 0.0
0.0019571000166765094 -0.00014819216825349857 0.0
0.0012139981342373638 -0.0003201823759838926 0.0
0.0012366882196124987 -0.00032857108689525406 0.0
0.0007125236986296227 -0.00025584657118917045 0.0
0.0007363428590636795 -0.0002655224242669427 0.0
0.0017562642231107432 3.851217638007034e-5 0.0
0.0012372095662768312 -0.0001868344412971963 0.0
0.0007352403631813747 -0.0001412421512478113 0.0
0.0005591424415935029 -0.00026099789741274287 0.0
0.0005568960485551927 -0.00024944497197107094 0.0
0.0005750387037936811 -0.00024975248407003547 0.0
0.0013839874977630685 -0.00013879685384921093 0.0
0.001300414314473939 -6.740328711324174e-5 0.0
0.0008484924925837337 -0.0002211985584855772 0.0
0.0008224718232087796 -0.00022453625325074718 0.0
0.0012453239205538018 -2.102809420296134e-5 0.0
0.0012357868253873557 -3.0447861102656223e-5 0.0
0.0012683031086441305 -2.6557255916538253e-5 0.0
0.0012227382226832667 -4.017215442931728e-5 0.0
0.0012570364157161592 -9.986606942979878e-6 0.0
0.0012860958540316055 -8.658527786986565e-5 0.0
0.0012804785552038864 -9.6534307473976e-5 0.0
0.0012384479262174156 -0.00010605998053601669 0.0
0.0009131885336713571 -0.0001744889049985115 0.0
0.0009393388035422535 -0.00017895255582545399 0.0
0.000943057623071159 -0.00017007547219138967 0.0
0.0009688463188787721 -0.00017396734464369073 0.0
0.0009726853713242791 -0.00016514265846280448 0.0
0.0009984716133725601 -0.00016866817302372712 0.0
0.0010026399119354716 -0.00015983666747840006 0.0
0.001029649725614138 -0.00016286178748398117 0.0
0.0010247125512199582 -0.00017237997237485046 0.0
0.00105694679132213 -0.00016488000691804148 0.0
0.0011821029163069196 -0.00018124903891325144 0.0
0.0011537672288227721 -0.00017742581890369048 0.0
0.0011219870832727954 -0.00018505196240293484 0.0
0.0011262973595980341 -0.00017401005967761904 0.0
0.00022845969185050245 -8.056055874975389e-5 0.0
0.0002827164262847517 -0.00016373709021151735 0.0
0.00025974194389985717 -0.00014736846889592387 0.0
0.00025152821434038485 -0.00013437496391390132 0.0
0.00023611443245087445 -0.00013042197933005195 0.0
0.0010582487973270814 -0.00022664767695590194 0.0
0.0014457807670331003 -0.0001416841014218109 0.0
0.00143470049078879 -0.0001579686685333477 0.0
0.0005921437817676181 0.00013251425233992876 0.0
0.0011472041345332853 -0.00010332664900322254 0.0
0.0011518127622970333 -9.569086420962202e-5 0.0
0.0012721644134496717 1.5969264175032658e-5 0.0
0.0020657080587893543 -3.127981066320235e-5 0.0
0.0020990135991281553 -2.0495583471406386e-5 0.0
0.0021213656474357847 -1.696352507369573e-5 0.0
7.8420330809589e-5 -2.6360280001489468e-5 0.0
8.186210137713139e-5 -2.8742127588975816e-5 0.0
0.000114990517373789 -4.163778292636767e-5 0.0
8.728789085159036e-5 -3.190122846559702e-5 0.0
0.00011832098109698674 -4.473624054240688e-5 0.0
9.111394854734521e-5 -3.4807829615864905e-5 0.0
5.707365872236904e-5 -2.1007974723692863e-5 0.0
0.0010298253387141007 -0.00023302272412893053 0.0
0.0005127748375216496 -0.00014724884748630734 0.0
0.0003213282328310204 -0.00018255432806799836 0.0
0.0008367297031340078 -0.00013827676195591183 0.0
0.0019272252099150307 -0.0001750901959946317 0.0
0.001905210309502845 -0.00017947570666390755 0.0
0.0016262271826999592 -0.00017359703888722775 0.0
0.0016558929379607919 -0.00017138888322832912 0.0
0.001666881038744772 -0.00015042884065956223 0.0
9.507306311522254e-5 5.613510578864752e-6 0.0
0.0007516842630268322 -0.0003443957991271185 0.0
0.0005301889109019919 -0.000279725369818705 0.0
7.671435385544974e-5 -4.142285049766495e-5 0.0
0.00010411150958939212 -6.11740178895707e-5 0.0
0.0004216516732797579 -0.00013697304855343122 0.0
0.0013655660260772895 1.0305318492748244e-6 0.0
0.0014049696604564025 -1.2031819385456337e-5 0.0
0.0015637007181104187 -0.00019108769662533708 0.0
0.0016327129655376617 -0.0001970883607884479 0.0
0.000710712695552275 -0.00033392913802294416 0.0
0.000790092929549533 -0.0003530417960464359 0.0
0.0008090759893356824 -0.0003508285858165085 0.0
0.0017857716038482752 -0.00020702053592478185 0.0
0.0017706415111101365 -0.00023905547260769694 0.0
0.0017386109631284347 -0.00026793325705613103 0.0
0.001968196082271696 -3.416631471356878e-5 0.0
0.001937209302107792 -3.790326603026857e-5 0.0
0.0018960105771780185 -4.9350196795182316e-5 0.0
0.0019027826026522027 -4.109005351283845e-5 0.0
0.0003633177085187581 -0.000127806775572657 0.0
0.0018399094601830347 -4.260417584241119e-5 0.0
0.001799114680753822 -4.3246077744583204e-5 0.0
0.0012414836864742455 -0.00031177912278025367 0.0
0.00024289759585463308 -0.00014226329253406685 0.0
0.00022208623675097145 -0.0001278369333135565 0.0
0.00021351878644531487 -0.00011544187650670914 0.0
0.00019961338230889024 -0.00011200795485317967 0.0
0.0021286076316404464 -1.2895285074168552e-5 0.0
0.002075523918065026 -1.3979228849044376e-5 0.0
0.0021061261467442485 -8.911472565835437e-6 0.0
0.0016783670548798121 -0.0003087707062825648 0.0
0.0008547366229575699 -0.00018218606368728286 0.0
0.0018005915202198913 -0.00021555434769514624 0.0
0.0017871832475851654 -0.0002470515164079922 0.0
0.0018151709500677763 -0.00022399837146221333 0.0
0.001803908569549359 -0.000258137939818196 0.0
0.0018333630381311135 -0.0002293730565795056 0.0
0.0018449815194474318 -0.0001993982742593984 0.0
0.0018604889661364748 -0.00020655749738670036 0.0
0.0009810554058477113 -0.00038766540079353907 0.0
0.0009614242022495419 -0.00039435294297332886 0.0
0.000935185871781603 -0.0003823372376374246 0.0
0.0007016421904897101 -0.00014420904221366539 0.0
6.625437397760711e-5 -2.5514824331073308e-5 0.0
9.44082109518365e-5 -3.774837287794889e-5 0.0
6.97342873013503e-5 -2.8031225316375647e-5 0.0
0.0006957867247738815 -0.00033800377177253897 0.0
0.0006734660054192077 -0.00032447397893501436 0.0
0.0020208199775108627 -0.0001149181601210121 0.0
0.00016189124936192485 1.967767024024098e-5 0.0
0.0010954766577711617 -0.00018242323995234044 0.0
0.0011009706372645742 -0.00017115000366224223 0.0
0.0019645667686199594 1.3726238420947705e-5 0.0
0.0020327579345397104 9.432544844434886e-6 0.0
0.0018040440494165944 -0.00014620777085788843 0.0
0.000388542641523167 -0.00020635502137822105 0.0
0.0003966160364586319 -0.00022029390416979097 0.0
0.0015210288741058099 -0.0002011590612189997 0.0
0.001636549455364256 -4.797898363423294e-5 0.0
0.0020739323754563332 -8.077181645665499e-5 0.0
0.0021121074217406452 -5.129585667077022e-5 0.0
0.0021290635328392407 -3.223892720940593e-5 0.0
0.001562940253508994 -3.329773519546563e-5 0.0
0.0017516778537908326 -0.00013949319975521777 0.0
0.0009375622748076705 -0.0003411560379230806 0.0
0.001820306039333859 -6.473292701509751e-5 0.0
0.0016906837221257246 -0.00016198052734941584 0.0
0.0006484309334114976 -0.00023615363211123102 0.0
0.00039590113948068524 -0.00019590625970548287 0.0
0.002003132300353604 -2.8680135880824147e-5 0.0
0.0016655280044717022 7.042023082262877e-6 0.0
0.0006747277343435166 -0.00033654627424912895 0.0
0.0003248516231642375 -0.00011505687811260993 0.0
0.0011365599035373661 -0.00011328484926226116 0.0
0.00164533188821766 -0.0002949385981894353 0.0
0.001637021110321004 -0.0003228754981954008 0.0
5.2538278331028293e-5 -2.6297380388395752e-5 0.0
0.0012714757316178555 -0.0003863574780936395 0.0
0.0012651234016778873 -0.0004018286719115005 0.0
0.00080944661973821 -0.00036674361041022697 0.0
0.0008294047047986725 -0.00036274682850876344 0.0
0.0008279144269866364 -0.0003480226713741712 0.0
0.0008486295178367342 -0.0003592765341714065 0.0
0.0008303734711582133 -0.00037502568243053886 0.0
0.0007404200584205766 -8.678861032599032e-5 0.0
0.0006969071528076981 -7.651241846679036e-5 0.0
0.00029691479240636856 -6.658009811700026e-5 0.0
0.0007039766318971793 0.00017881095945311643 0.0
0.0006861312692213083 0.00016455058668764347 0.0
0.0013335559309302439 3.3406101575343173e-5 0.0
0.0015979734282887989 -0.00034241647607396964 0.0
0.0015742954573180292 -0.00036087989969029886 0.0
0.00020607583477316434 -0.0001243951885311841 0.0
0.00018396505162340286 -0.00010749548674450431 0.0
0.0021175380206218445 -8.835100577721977e-6 0.0
0.00035616576022319936 -0.00014098239249392888 0.0
0.0003235168233455188 -0.00012793317155161777 0.0
0.0019934468538823965 2.219892663161121e-5 0.0
0.001990654102706606 -0.00011988031016473977 0.0
0.0019731781865446694 -0.00015235552378877474 0.0
0.0011697432798072527 -0.00011346514951946179 0.0
0.0013263224499986115 -0.00039980994499202885 0.0
0.0013002270222563558 -0.0004113581162197537 0.0
0.0005987312272380307 -0.00017685211252534277 0.0
0.0006021450296718018 -0.00016852525425648145 0.0
0.0008483181268458623 -0.0003447556941984343 0.0
0.001810204415483526 -0.00017414393748800788 0.0
0.0010338672746952554 -0.0001537645907005624 0.0
0.0010093164609962903 -0.00015086836259432974 0.0
6.344760648148094e-5 -3.606382232416062e-5 0.0
0.0007206050735978436 0.0002712189287466803 0.0
0.0009460192451665728 -0.0001611577059832069 0.0
0.0006561420830854465 -9.01175335629218e-5 0.0
0.00065943342499544 -0.0001010653590015347 0.0
0.00039278246720337277 -7.303916630883903e-5 0.0
0.001322159424163432 -8.618957108687995e-5 0.0
0.0008702107912388873 -0.000134142452931707 0.0
0.0008750822908121319 -0.00012663293625132658 0.0
0.0009037029361351609 -0.00012984135771779062 0.0
0.0009079227618560462 -0.0001227251797704413 0.0
0.0009355468995393983 -0.0001248583254382203 0.0
0.0009402324748689297 -0.00011804609641758626 0.0
0.0009121193466030196 -0.00011593048474783177 0.0
0.0009448585733874972 -0.00011132542636828474 0.0
0.0009168196272777269 -0.00010946101579149206 0.0
0.0009501724623306371 -0.00010492695951880311 0.0
0.0009658715224179261 -0.00011993122803439687 0.0
7.625269531644827e-5 -8.396349909812275e-6 0.0
0.0012713414803912986 -0.00010841960372363958 0.0
0.000862740707029715 -0.00017370939254114447 0.0
0.0009034855443104712 4.420613051955582e-5 0.0
0.0009697424883744446 1.2859533607352323e-5 0.0
0.0009661358178144816 -1.338007622054909e-5 0.0
0.0009592379847766232 5.190200206463932e-5 0.0
0.0009174746744340264 -1.6161968303291414e-5 0.0
0.0009707820700389707 -3.1355252504055487e-5 0.0
0.001023677071365573 -3.142515170934217e-5 0.0
0.0010151128459905206 2.7971772811837728e-5 0.0
0.00014600109754426708 -5.466965049422573e-5 0.0
0.00015096934997665772 -5.915131680258975e-5 0.0
0.0021194165853675173 9.403986823075767e-6 0.0
0.0020427706905243627 1.9042848154283624e-5 0.0
0.002039110884088259 2.0859569733213845e-5 0.0
0.001533781202518561 -0.0003711834252011332 0.0
0.0015062776022486944 -0.00038544650967994843 0.0
0.000553024335078843 -0.00023802466989930897 0.0
0.0005719124372416671 -0.00023812291160550076 0.0
0.0005338230920905012 -0.0002371457961776162 0.0
0.0006162334203894256 -9.363488356665963e-5 0.0
0.0010166374164199729 -1.2723135301252591e-5 0.0
0.0009792972442976056 -0.0001061426252291565 0.0
0.0009826843466787239 -9.982448534422977e-5 0.0
0.0009551927464734054 -9.872805223393364e-5 0.0
0.0009867294762886016 -9.423548187543736e-5 0.0
0.0009616457845038004 -9.280850494255502e-5 0.0
0.0005720859839954341 -0.0002874879592228223 0.0
0.0021144432580464515 1.2230395167711636e-5 0.0
0.0009696424736099017 8.290959828475258e-5 0.0
0.0012967289211835932 2.7609772837517763e-5 0.0
0.0012964220526253086 1.8688397937346874e-5 0.0
0.0012576771343244344 9.079252277856488e-6 0.0
0.0006599537791420145 9.72527948385664e-5 0.0
0.0008893100474208389 0.00014691380560339986 0.0
0.0008307143788452691 0.00015683060755282738 0.0
0.0008071810489685027 0.00016911438066406447 0.0
0.0014768660930700262 -7.502481986686966e-5 0.0
0.0017080859171664429 -0.00028741737009628027 0.0
0.0016942886956284073 -0.0003231608879383123 0.0
0.0005491443020184355 -0.0002920121427719346 0.0
0.0008688924989369307 -0.0003559706466660704 0.0
0.0008698580418537136 -0.0003703782890357562 0.0
0.0008890998731997169 -0.0003670027506321084 0.0
0.000892777492845558 -0.0003834531187300358 0.0
0.001515784924296586 4.25015423453744e-5 0.0
0.001477339448627535 3.964058465448414e-5 0.0
0.0015304324761794576 3.94808790121633e-5 0.0
0.0015726798694027865 4.206052634536092e-5 0.0
0.0011332976559064894 -0.00016348560972033384 0.0
0.0011110705853984834 -0.00015996851939826973 0.0
0.0009104475335828478 -0.00037742579380760464 0.0
0.0006319167688188981 -0.0001307280713786161 0.0
4.3092274668640615e-5 -1.9640872314852406e-5 0.0
0.0009121230584925673 -5.421055480406853e-5 0.0
0.0009523486429206621 -6.311099912337823e-5 0.0
0.0009483200806268476 -7.215201128331607e-5 0.0
0.000990514495858493 -6.825429012463277e-5 0.0
0.000984070921653353 -7.500856102296926e-5 0.0
0.0009947079662248513 -6.08562102158998e-5 0.0
0.0009488553582419782 -7.910679062031214e-5 0.0
0.0009790914475391497 -8.105188071322104e-5 0.0
0.0010293797864544877 -6.412616902059003e-5 0.0
0.0014277366960239052 3.8801192818861975e-5 0.0
0.0009468961987815793 -8.561550446614972e-5 0.0
0.0021467620907580486 1.6863163218796963e-6 0.0
0.0008019566412878426 -0.00014264914559239023 0.0
0.0009700212265426131 -0.00032408080894152154 0.0
0.0009950722164755708 -0.0003193164623961051 0.0
0.0009593359077493606 -5.3279964074455165e-5 0.0
0.0010050750244060068 -5.2430100289288096e-5 0.0
0.0011904775552840962 -0.00016977118957329563 0.0
0.0015038456852126355 -0.0003275759647502991 0.0
0.0014776720121018993 -0.00034679434697980734 0.0
0.001471772497729992 -0.00036920242924445824 0.0
0.0014544008197831372 -0.00036424359107237 0.0
0.0014503781638681957 -0.00038399921707124774 0.0
0.0014316367081658712 -0.00038041681229076 0.0
0.0017729211615119967 5.128145791523203e-7 0.0
0.0017354161970664951 -1.0120443624593574e-5 0.0
0.0017531516417867686 -1.900793021199318e-5 0.0
0.0016978563518622951 -2.2720911931450058e-5 0.0
0.0017132332845949379 -3.2077210568209046e-5 0.0
0.0016581905927079005 -3.7191356666091454e-5 0.0
0.0016740237655705882 -4.668369142919989e-5 0.0
0.0016421890169225403 -2.7549512290984864e-5 0.0
0.0016036269927908482 -4.2771001909982346e-5 0.0
0.0017264800155427698 -4.132071173699631e-5 0.0
0.001587266054250184 -3.343732460805126e-5 0.0
0.0016865570464299076 -5.6192877994493475e-5 0.0
0.0016368977849454591 -6.205549025827503e-5 0.0
0.0016468880112003067 -7.19349447031557e-5 0.0
0.0016258086866272922 -1.876813751202057e-5 0.0
0.0017151059690427742 -1.1096367753489069e-6 0.0
0.0017383276361403381 -5.111412404772306e-5 0.0
0.0018122127971984343 -1.760887227773136e-5 0.0
0.001774395214680138 -3.7079769399169154e-5 0.0
0.0011996950003954339 -3.5317184132160956e-5 0.0
0.000855273607007089 0.00014462500866869348 0.0
0.00012637641904852162 -5.035485249438993e-5 0.0
0.00012068516806800737 -6.739079991867655e-5 0.0
0.0001447763427100574 -8.474369623497531e-5 0.0
0.0009089470579000271 -0.00036300331494385125 0.0
0.0012219062569492729 -0.00017432373716484866 0.0
0.0012176663633182796 -5.260639122908813e-5 0.0
0.0011763028407704354 -6.269687312329701e-5 0.0
0.0011877736207952254 -5.545618623760625e-5 0.0
0.001172512947148957 -6.932942717221061e-5 0.0
0.0012034961897121543 -6.833951075549242e-5 0.0
0.0011651660857418637 -7.686513225079857e-5 0.0
0.0011575338827686326 -8.429374254007016e-5 0.0
0.0011319007727838158 -8.400154348436072e-5 0.0
0.00015577060057055578 -8.142071437814624e-5 0.0
0.001360568797107586 -9.881482493198955e-6 0.0
0.001636448113560747 2.8617445356766213e-5 0.0
0.0015718319012854754 2.909836641009964e-5 0.0
8.777229110363356e-5 9.770980413454981e-6 0.0
0.00018908594221549367 2.8982301787043832e-5 0.0
0.000167965280166652 2.471537888299316e-5 0.0
0.0013764877346001516 -3.470342119476126e-5 0.0
0.0001973513882192344 -9.86908057896354e-5 0.0
0.000227041684385123 -0.00011758043054346513 0.0
0.00024440551888697755 -0.00012331631982868846 0.0
0.00024088798751165224 -0.00011433072347111366 0.0
0.00025853856658908825 -0.00011806050047524347 0.0
0.0008947607850663967 -9.38929580316728e-5 0.0
9.271901379492926e-5 1.0110837879634336e-6 0.0
0.00042486431277345184 -0.00012365120932778033 0.0
0.0003518084762372108 -0.00011241364978840588 0.0
0.0010095742405833235 -4.261121090518477e-5 0.0
0.0003232582031201422 9.281646287585028e-5 0.0
0.0014494048111692408 -0.00033735979243713 0.0
0.0013097699924142566 -2.573506799847468e-5 0.0
0.002039332073058617 -0.00011173174824110755 0.0
0.0016217601747998802 -5.215934541414308e-5 0.0
0.0015675848889782752 -5.827468021525097e-5 0.0
0.0014889124219846124 -0.0003768532189091209 0.0
0.0021513933511522337 5.448090959612576e-8 0.0
0.0021044078138612128 -1.702735569852936e-6 0.0
0.0021136329843724332 -3.830402225398236e-6 0.0
0.0020966839556565415 1.0698599763556143e-6 0.0
0.0020607183096384256 -5.449420016996457e-6 0.0
0.002090797218009855 3.988401445707561e-6 0.0
0.0020367865312004092 3.001652378676391e-6 0.0
0.0020476675185521565 -1.4382455503936189e-6 0.0
2.829493063140442e-5 -1.0007949935814233e-5 0.0
0.002168662531261828 -3.6775494387271917e-6 0.0
0.0021349465804980134 -7.607451302099905e-6 0.0
0.002155378608770731 -3.821855596031678e-6 0.0
0.0021379081523103353 -8.26027079608597e-6 0.0
0.0013035682709787192 9.608801322963791e-6 0.0
0.0015585462509232401 -0.00035019450927045763 0.0
2.3005393096631117e-5 -9.093931200000822e-6 0.0
0.0021762653477625316 -4.674534892948927e-6 0.0
0.0007340367501149852 6.564888088799007e-5 0.0
0.001725542741095799 1.7980227805469527e-5 0.0
0.0006010300844509303 -3.8130632544780846e-5 0.0
0.0006539928858613912 -3.4321615485283296e-5 0.0
0.0006534145011813325 -1.1897739554194756e-5 0.0
0.000652786450581007 -5.22223250182739e-5 0.0
0.0006982397969010672 -5.051392677792285e-5 0.0
0.0007119507083393341 -3.3744404354723974e-5 0.0
0.0007089135053240333 -1.0090648627149693e-5 0.0
0.0006562707530952803 1.1241385195065533e-5 0.0
0.00061043113475064 3.609384993491864e-5 0.0
0.0006069069078384592 -5.959658897930416e-5 0.0
0.001761782160812175 -0.0002698019236924563 0.0
0.0021457603662193296 4.721894312630137e-6 0.0
0.0008493763617290041 -0.0003304638322536807 0.0
0.0003086278614439823 -0.0001826119309537208 0.0
0.0009316933539468187 -0.00032702947865771427 0.0
0.0007292445183185466 -0.00033245213576561496 0.0
0.0007313378815905244 -0.00034586654208215955 0.0
0.001015743301725863 -9.457213079470603e-5 0.0
0.0013711353064961667 -5.815085929631465e-5 0.0
0.0018667483032730836 3.340064325305729e-5 0.0
0.0018924305478804524 3.3722959491940564e-5 0.0
0.0018286000410307431 3.67064760235588e-5 0.0
0.0001452274079647361 -5.201636770045095e-5 0.0
0.0002902405296364869 -0.00017672790023747493 0.0
0.0008190561740642115 0.00021098642448538546 0.0
0.000742695748719896 0.00020464783037406304 0.0
0.0016317858893290093 -6.046449536080604e-5 0.0
0.0008596524789996575 0.00012173508200374082 0.0
0.0019307030959106795 -0.0001183511754843388 0.0
0.0009234012796291926 -0.00027877855963197887 0.0
0.0015595198624799998 -8.743286280282405e-5 0.0
0.001586638597440057 -5.887276143896203e-5 0.0
0.0006735238950477401 4.952966471609664e-5 0.0
0.0005344464813072101 -0.000292820888151732 0.0
0.0019110884583379963 -0.00015124894618301368 0.0
0.00033657622998590635 -0.0001851432910885713 0.0
0.00035557852749155765 -0.00019829228909783547 0.0
0.0003465237703348827 -0.00020084397210864868 0.0
0.0005041121658978165 -0.00013013409321236904 0.0
0.0011840210462316799 -8.636446885588958e-5 0.0
0.0013357008482869687 -4.828292469598621e-5 0.0
0.0008111704151186658 -0.0001180125926682267 0.0
0.0008443629143383712 -0.00012275044500196635 0.0
0.002102573804577411 1.126474090681984e-5 0.0
0.001999023423071611 1.438844418641314e-5 0.0
0.00011108808284194301 1.3773759859641537e-5 0.0
2.8467901569423515e-5 -1.0442049922602359e-5 0.0
0.0009719721605906957 -0.00011296967841884821 0.0
3.30265713411146e-5 -9.136197699053602e-6 0.0
7.853079300649071e-5 -2.053671886894567e-5 0.0
0.0009209080212746716 -0.0003151512428719062 0.0
0.0014375463012639088 -6.489502890257439e-5 0.0
0.0009166562670277794 0.00013319094057556808 0.0
0.0012848097418107123 -0.00016595161744709726 0.0
0.0009967886817730154 -8.814901488438712e-5 0.0
0.0017072868195416161 -0.00012803293387231605 0.0
0.002011969876158975 -9.009041224115685e-5 0.0
0.0006257139462083201 -0.00023654141662843439 0.0
0.0006284269160555549 -0.00024814781707370795 0.0
0.0006043692319377775 -0.00023554995805359562 0.0
0.0005795156850113237 -0.00022314492779514992 0.0
2.3675328893030716e-5 -9.756226966285902e-6 0.0
4.345989168394916e-5 -1.8700232489965346e-5 0.0
4.848615654942662e-5 -1.9925481658298024e-5 0.0
0.0005430145886701254 -0.00017429614628039424 0.0
0.000515327587231104 -0.00017311141589695234 0.0
0.002171039959751039 -3.919556031436865e-6 0.0
0.0011128290720264615 -0.0004040090507537459 0.0
0.001091662094098528 -0.00039317362278059524 0.0
0.0010912983579670068 -0.00041070546702901467 0.0
0.0010702254106121662 -0.00039979869001368723 0.0
0.001048293362614034 -0.00040558559500833544 0.0
0.0010466228350556152 -0.0003884358040065509 0.0
0.0010915054644379633 -0.0003758284166761872 0.0
0.0015359533809458981 -5.992391750670835e-5 0.0
0.00024872272843471646 -5.2161169735291534e-5 0.0
0.00029376247696377694 -7.50574694177789e-5 0.0
0.00025680112641679996 -7.068377116778463e-5 0.0
0.0013220066510076954 -0.0001562938993964277 0.0
0.0005485644031425624 0.0001449005126672706 0.0
0.0010492383143509132 -0.00017560799542119874 0.0
3.611068073844856e-5 -1.170428541026567e-5 0.0
0.0006556304911169963 -0.00032392727053851304 0.0
0.0006363104576926575 -0.0003213772735817341 0.0
0.0006391464823980542 -0.00031149169804498526 0.0
0.0007265615154551427 -0.0003188233982841897 0.0
0.0006258111801972169 -0.0002240769749965384 0.0
0.00029127662522883976 -0.00010694749694915054 0.0
0.00017857512583453113 -7.266351995330228e-5 0.0
0.0021581652268934538 -2.0824779873733593e-6 0.0
0.002123240368420672 -4.971564470755584e-6 0.0
0.0004305451151709587 -0.00023513693610695038 0.0
0.0005087091239246261 -0.0002658361257575903 0.0
0.000491937417642663 -0.0002652562626683276 0.0
0.000469653599876421 -0.00025095148448852045 0.0
0.0004741152821029865 -0.0002635621764702381 0.0
0.0013547577098362421 -3.348340192304596e-5 0.0
0.0009777627759197383 0.00010381480178679735 0.0
0.0013500522371275522 -0.00038993425565754097 0.0
0.0013692615347417826 -0.00039959530087731415 0.0
0.001391595639643051 -0.0003884252006025093 0.0
0.0013440379619985877 -0.00041201318538484314 0.0
0.0006729370937513262 -0.00023788803602907478 0.0
0.0011714906655637823 -0.00030438492859143773 0.0
0.0008965517398407033 0.00013048166554911948 0.0
0.0009035235046129466 -7.75264430194796e-5 0.0
0.002177590230285098 -5.532341815058901e-6 0.0
0.0021559390672447323 -1.3174582165019943e-5 0.0
0.002146699932948143 -1.2384642908853025e-5 0.0
0.0004526310227037843 -0.0002495390406917695 0.0
0.000436244186523757 -0.0002476167549235439 0.0
0.0006467392142922666 -7.564205887882416e-5 0.0
0.0005580349937018601 -0.00022363422978911662 0.0
0.002006429771162359 -5.018726698521235e-5 0.0
0.0016914722380012934 -2.6251593859588532e-5 0.0
0.0009587997524428114 -0.0001270826805477799 0.0
0.0009887966431132563 -0.00012145391589255893 0.0
0.0013308635509769065 1.4593400201023487e-5 0.0
0.0015418089508504793 -0.00028424947981506966 0.0
0.0008986041593669777 -0.0002828069896623976 0.0
0.00089959202048849 -0.00029597864098222413 0.0
0.0002313854617144918 3.5366433410301646e-5 0.0
0.0005152428043366541 -0.00022136108506912714 0.0
0.0004936092699734841 -0.00021822251810492662 0.0
0.00046888619575671705 -0.00020480527957398006 0.0
0.0004728006664309004 -0.00021608050397440713 0.0
0.0003931371713265368 -5.9702076244422124e-5 0.0
0.00039349462485420905 -4.422796323092121e-5 0.0
0.0004438098489315298 -8.850413408941072e-5 0.0
0.0013644201728842242 -0.0004196299365741966 0.0
0.0013099656217662088 -0.00030943425331907983 0.0
0.0012796790785550376 -0.00032079274179735605 0.0
0.0013079837755458255 -0.0003324739216976316 0.0
0.0012783267377155813 -0.0003433044921517876 0.0
0.0012982054833967915 -0.00035216131178947594 0.0
0.0013361411763928254 -0.00031738702339001397 0.0
0.0013607409417037428 -0.0003237952610952085 0.0
2.009206504952065e-5 -9.086265499630618e-6 0.0
0.0021813131836694684 -7.623280999518775e-6 0.0
0.0017238267698962443 -0.0002546112502365704 0.0
0.00122404080890096 -0.00040093093997745625 0.0
0.0020132276351819867 1.8453121494721115e-5 0.0
0.001180685940660293 -0.0003812977879996577 0.0
0.001177884127568748 -0.00039898721486957586 0.0
0.0015877876457402833 -0.00016768015439757206 0.0
0.0014213585770119041 -0.0001262738110507359 0.0
0.0013917432711271177 -0.0001245898284474173 0.0
0.0006635983749764795 -0.00029736525006043195 0.0
0.00040422551807534025 -0.00018554061861830796 0.0
0.0015953239912441033 -7.940398486712907e-5 0.0
0.0016520977237338705 -0.0002665940299824486 0.0
0.0007270557478996539 -0.00020036634605694403 0.0
0.0007532392985301424 -0.0001984520070485916 0.0
0.0007512594236386535 -0.00020841032974148793 0.0
0.0007561281209793855 -0.00018895975466103843 0.0
0.0007254479106221975 -0.00021035954456752638 0.0
0.0007787460070435306 -0.0001972779810176576 0.0
0.0007833136944193349 -0.00018832087732342407 0.0
0.0007918305178859753 -0.0001784896205506414 0.0
0.001606908353648163 1.5215627275779309e-5 0.0
0.00020111006408609204 3.142380504541061e-5 0.0
0.0015496141315041786 -4.925029429374888e-5 0.0
0.0016725578708898163 -0.00013297058378643504 0.0
0.0004068932851883703 9.859761125476058e-5 0.0
0.000295392311666912 -2.874007974467019e-5 0.0
0.000443140755396098 -6.0385207456359687e-5 0.0
0.0003583633479455192 -0.00016757060018296238 0.0
0.0007290604766729163 -0.00018149683580788055 0.0
0.0005731735913328381 -0.00015884182209096462 0.0
0.0006115662781175597 -0.00016055195298179215 0.0
0.0006346786456292444 -0.00017051265571627275 0.0
0.0010013977357023398 -0.00038292267469155615 0.0
0.0010249728223038286 -0.00039400630781759354 0.0
0.0010253328543452134 -0.00041254707407062754 0.0
0.0010462944265200614 -0.0003717895368811067 0.0
0.001621047038877238 -0.0002845167650293556 0.0
0.0007692175990217354 -0.0001381517150866421 0.0
0.0015433164498771113 -0.0001446135736230432 0.0
0.0007239755584289708 -0.0003053916036043154 0.0
0.0010914437471102288 -0.00035900294443727245 0.0
0.0007691753960300522 -0.00035644420982001155 0.0
0.001992700084330776 7.356050282505517e-6 0.0
0.0010207737758300794 -0.00018223902443877376 0.0
0.00026004582941248475 -9.354743975741953e-5 0.0
0.0007769211456907042 -0.0002611045419458285 0.0
0.0008011385828591477 -0.00027085846312969054 0.0
0.0007272417885361188 -0.00024192060541296899 0.0
0.0007869347182971773 -0.00032555474646140455 0.0
0.001220767947365268 -0.00023026143360078684 0.0
0.0011888324167090032 -0.00023993896922024272 0.0
0.0012154643780565289 -0.0002458138456878828 0.0
0.0015333763253096108 -4.032832481721884e-5 0.0
0.0009234315251366198 -0.00026608572750115003 0.0
0.0006763781407404432 -0.0002228822619441404 0.0
0.0012074816339764473 -0.00010490908119207473 0.0
0.0011977955949844903 -0.00011519280645601302 0.0
0.0002863410360873215 -0.00013280539541500431 0.0
0.0005679972356544487 -0.0002753066337283802 0.0
0.0013976219341770278 -0.0003657953310092987 0.0
0.0012239524860508466 -4.56455494693841e-5 0.0
0.0010731493965254314 -0.0002877188225825297 0.0
0.001046830657324211 -0.00029405485274849885 0.0
0.0010457710109907376 -0.0003091195110464213 0.0
0.0010208493620143665 -0.0002997928332704965 0.0
0.001020563406028635 -0.0003147749524558962 0.0
0.0010701857267905433 -0.0003180516616706962 0.0
0.0013211519347102118 -1.2726253072249915e-5 0.0
0.0008488282285401347 -0.00023176347305201958 0.0
0.0008242291612583121 -0.0002349477325284251 0.0
0.001166864773982275 -0.00022000427296513096 0.0
0.0007023623290126519 -0.00024274280609735098 0.0
0.0011556044429720405 -0.0004065335656612032 0.0
0.00087343542150119 -0.0002738899890013691 0.0
0.0010221298163828507 -0.00028550797085365496 0.0
0.001466189133474297 -0.0003909755932539616 0.0
0.0009364009393812623 -0.00018852422771405426 0.0
0.002048084467045722 -2.045285816543373e-5 0.0
0.001027534516532765 -0.00024550470396827 0.0
0.00048229364216669933 -0.000177078864172509 0.0
0.0010316563452888046 7.08831180575143e-5 0.0
0.0014613383133052985 -0.00031355911709461974 0.0
0.0019567909775515605 2.8919520361795346e-5 0.0
0.0003044243106586795 4.0564537264817204e-6 0.0
0.00031681136748435074 2.0172617488611705e-5 0.0
0.00035500251501605426 -7.551538730280886e-6 0.0
0.0003760564143168107 1.1683899582789126e-5 0.0
0.0004153984199148032 -4.6516898702410094e-6 0.0
0.0015142621349738025 -6.505026310030162e-5 0.0
0.0008510243647288315 -0.0003754624917637224 0.0
0.0009653003889529958 -0.00018360490898512098 0.0
6.592736172587687e-5 -1.9377664977522978e-5 0.0
0.0008423414129860566 0.00017556641812520516 0.0
0.0007770986527685809 0.00017992453628533125 0.0
0.0014456622748687427 3.434425443477008e-5 0.0
0.0008275475520095836 -0.00031976786329036323 0.0
0.0009394374144899506 -0.00036806677538841614 0.0
0.0008355477031820493 -0.0001466014069211096 0.0
0.0011402528897021425 -0.0002150374283248959 0.0
0.0011115005485427274 -0.00020949174670882234 0.0
0.0011183999448708222 -0.00019621302428887087 0.0
0.0012620789731330275 5.6286503741712503e-8 0.0
0.0007799555214651593 -0.0002734760095129732 0.0
0.0005429225309893653 -0.00014895431334985694 0.0
0.0007980456285837229 -0.0002156283741327335 0.0
0.00012256343278002458 -5.1026924352640934e-5 0.0
0.001113620002474694 -0.00011030866372194836 0.0
0.0004640126167552725 -0.00023808945656281398 0.0
0.0010870867282745677 -0.0002194874740017788 0.0
0.0006685835016065907 -0.0003108015032402793 0.0
0.00148621359301296 -0.00012669927888464108 0.0
0.0009817392988187585 -0.00022077257830194964 0.0
0.0009955410333634164 -0.0003050057190208372 0.0
0.0018754668887835005 -9.79704794154982e-5 0.0
0.00041605884571217994 -0.00023351075841946263 0.0
0.0020600209023857686 -0.00010889589477517917 0.0
0.0008259102462349655 -0.00018183214950827492 0.0
0.0009767270848874549 -0.00024434053303572234 0.0
0.0001951353781900625 -6.734472175231155e-5 0.0
0.0018886554043461492 -5.823383558776814e-5 0.0
0.0011414977155572881 -0.00032836122212876996 0.0
6.767870069079976e-5 -2.1367471852953476e-5 0.0
0.001065176291662609 -0.00014696582935908278 0.0
0.0010613949402264262 -0.00015531766034886663 0.0
0.0020365897707291226 -1.0343378353045318e-5 0.0
0.0011352402633448377 -0.0004142835345089374 0.0
0.00038462840613988293 -0.00018239588596112086 0.0
0.002107850524129444 -2.537639026049329e-5 0.0
0.0010908658614499074 -0.0001924128728876396 0.0
0.001009485301185259 -0.0002153749726492276 0.0
0.0012583877245734862 -0.00029431698765009634 0.0
0.0012309658548262247 -0.0002865441758162476 0.0
0.0011487199664093136 -0.00029608188375506946 0.0
0.0009620293392600245 -0.00019374320678124124 0.0
0.0011848528971970058 -0.00042778397749515626 0.0
0.0012825958390944839 -0.0004297549814808747 0.0
0.0009070001988435279 -0.0003999037866873737 0.0
0.0009749998496731729 -0.0004105699036340675 0.0
0.0014148987442811369 -0.00041867294834621995 0.0
0.001408936234429847 -0.00039913261088185835 0.0
0.0007346923664105146 -0.0003587685898675996 0.0
0.000591301648517057 -0.0003153259585984279 0.0
0.0012331906321842413 -0.00042939859952842164 0.0
0.000779318905369166 -0.000372347406587426 0.0
0.0008783798609394329 -0.00016545830843771607 0.0
0.0018525954376901082 -3.1693400755125424e-5 0.0
0.0014797186150105677 -0.00021932042417235515 0.0
0.0014673418519840465 -0.0002407025656205952 0.0
0.0007503687043852047 -0.00021928872985155082 0.0
0.0012659736856373335 -0.00019081085953826898 0.0
0.0009987096602180532 -0.0003337341188354328 0.0
0.0005379655366973681 -0.00025523529212502353 0.0
0.0004071971034283957 -0.00015822907295071423 0.0
0.0008759149917242017 -0.00021739007791070407 0.0
0.001893961129759112 1.8122845469969107e-5 0.0
0.0007620524578949177 -2.8257863306004108e-5 0.0
0.000994756523559015 -0.00017818775222500945 0.0
0.0011627588182995183 -0.0002349696851247762 0.0
0.00016184320416197381 -9.17196080680036e-5 0.0
0.00016821392071295839 -0.00010302047848251865 0.0
0.0008731982902016034 -0.00029959253080939064 0.0
0.0007395470587023299 -0.00027823653060247343 0.0
0.0010530751513187526 -0.0002521813923683095 0.0
0.0020238895141388214 2.2152595061213067e-5 0.0
0.0011137053724394584 -0.0003687785262467039 0.0
0.002149257988843475 -2.632421522071355e-5 0.0
0.002127578484667724 -4.893172485517886e-5 0.0
0.000592635202111943 -0.00012248696234352002 0.0
0.0009006562432370505 -0.00023492047322707556 0.0
0.0009480100879575284 -0.00027423626029218675 0.0
0.0020818424913080745 9.185461862610099e-6 0.0
0.0010719167338257183 -2.7607159521841735e-5 0.0
0.001388827971617111 -0.0003123924945611171 0.0
0.001434679669487007 -0.000255774919337523 0.0
0.0005804811423591672 -0.00030136821417797694 0.0
0.0013094673924285492 -0.00022978155301651724 0.0
0.000903100327333812 -0.0002133030057138044 0.0
0.0013798753497942736 -0.00020447263380866837 0.0
0.0013709643323269393 -0.0002222873274352883 0.0
0.0014159636580917847 -0.0001909610370086816 0.0
0.0004943173083988786 -0.0002778355032827129 0.0
0.0016885015330950265 8.747093408885315e-6 0.0
0.0011987592012545846 -0.0004110354808845721 0.0
0.0017191849058658534 -0.0003007597754143637 0.0
0.0015765940408091427 -0.00014569204062273722 0.0
0.0010160329674872414 -0.00014230134865974794 0.0
0.00127913454763889 -0.0003656104541405016 0.0
0.0008032050200657415 -0.00028327958602412885 0.0
0.0008467460838658649 -0.00019049093602508153 0.0
0.002010755892738033 -5.798689519335901e-6 0.0
0.00046005671731018415 -0.00013517883522392405 0.0
0.0015270431269200594 -7.420500468962933e-5 0.0
0.001019750379677016 -0.00010699269138731957 0.0
0.0012944675556232192 -0.00019373089368266095 0.0
0.0019204792343190224 -3.095079113446913e-5 0.0
0.0001758590372206627 -6.501038527247263e-5 0.0
0.0015114269296939424 -0.00025050769452167787 0.0
0.0011911310526862928 -4.3004519219803e-5 0.0
0.0011756998558349596 -5.093168927965836e-5 0.0
0.0012318913877885835 -0.0003463159373593009 0.0
0.0011306865630275906 -0.00025832995858269994 0.0
0.0011632571209662886 -0.000337093019311235 0.0
0.0015322640478916002 -0.0003089877092541857 0.0
0.001576949912812146 -8.697528970985388e-6 0.0
0.001074377151449717 -3.704739784977424e-5 0.0
0.0014365603746684299 2.0536262565336445e-5 0.0
0.0018261639272635496 -0.00014503040484600905 0.0
0.0018395334787364096 -0.0001221140132156366 0.0
0.0010371290910222415 -8.105711614489294e-5 0.0
0.0006762472184582357 -0.00027030123327383143 0.0
0.0014453049723739525 -4.023398771634623e-5 0.0
0.0010652030622503893 -5.19424924304187e-5 0.0
0.0013017095246011653 -0.0002470522703142726 0.0
0.0021101876167074806 -3.628131902336555e-5 0.0
0.0003685786203278631 -0.00019057721716451848 0.0
0.0012795022582551172 -0.00011721315298080157 0.0
0.0010530982757146218 -6.664213852977483e-5 0.0
0.0010406601477580993 -7.665663920106405e-5 0.0
0.0003547152648749999 -2.790769369958808e-5 0.0
0.001903032945636503 1.5859637877060483e-5 0.0
0.0010936502088112322 -0.00010261649620691306 0.0
0.0019019729304013803 -9.523907958796908e-5 0.0
0.0006526929612051886 -0.0002591369459180145 0.0
0.0015898961279201015 -0.00037390830894061647 0.0
0.001633004225705575 -0.00036494548096221714 0.0
0.0005968756386665273 -0.00026154899151728165 0.0
0.0013528644898617168 -0.0002587757488028612 0.0
0.0008849318002650313 -0.00039606210917795143 0.0
0.0013284787079599074 -6.989476791931254e-5 0.0
0.00040162367713168095 -0.00023833372370797107 0.0
0.001130058204376324 -6.442883167188663e-5 0.0
0.0011369103020571366 -0.0001217180159047872 0.0
0.0011422265765145283 -7.072568468652335e-5 0.0
0.0011849997225788916 -0.0002557044671286551 0.0
0.0014578550357991966 -0.00026187614852873404 0.0
6.0154336278048946e-5 -3.915963806615699e-5 0.0
0.00010298261618547428 -6.789545892532019e-5 0.0
0.00012286720303377702 -8.094951262319983e-5 0.0
0.001976790899339284 -0.00017428026862569506 0.0
0.00016341273878580804 -0.00010761486906311434 0.0
0.0006095072144232212 -0.00024801180237248797 0.0
0.00026663660837036813 2.4634998937468153e-5 0.0
0.0017403034719317859 -0.0003205589452907045 0.0
0.00034533854659860003 -0.00021016020193776356 0.0
0.0003835308441609575 -0.0002296147213807522 0.0
0.001951266313729425 -0.00019107059908057735 0.0
0.001901639900972914 -0.00022699608200944874 0.0
0.0011182623954400304 -0.00015010406595535977 0.0
0.0008074645869659115 -0.00033707725211539835 0.0
0.0015679511136905174 -2.341301628977968e-5 0.0
0.0017849567226263055 -0.00029511829794637474 0.0
0.0018075165401569978 -0.0002833902226970889 0.0
0.0003083348026109637 -0.00019200702902768155 0.0
0.00022024605651845304 -0.00014134240603081718 0.0
0.0018547041171598363 -0.00025554198473489256 0.0
0.001875890633904737 -0.00021463238325499184 0.0
0.0012455949890962435 -0.0004124295318262433 0.0
0.0002581816111146849 -0.00016392317125689374 0.0
0.0015201376180741936 -0.00039923468820369113 0.0
0.00041249649901410227 -0.00019797508156025643 0.0
0.0017359820589391887 -0.0001897186125785794 0.0
0.0006131124781912313 -0.0003121874042861449 0.0
0.001606650825842854 -0.0002760851452644 0.0
0.0016803706628151353 -1.3630450323049043e-5 0.0
0.0005972264667517262 -0.00019382045292042478 0.0
0.0004133363698911317 -0.00016800710882096298 0.0
0.0007619086455583336 -0.0002886747292495936 0.0
0.0010011680850411056 -0.0002514065028126559 0.0
0.0017722476107019701 -7.966585095679311e-5 0.0
0.0010690611705457907 -0.00038229114354766403 0.0
0.0011197120539745895 -0.00010295380849029155 0.0
0.0011455752542704897 -5.388939149995356e-5 0.0
0.0013974075867135953 -0.00017115913224075848 0.0
0.0016171872099935783 -0.00022055231240706476 0.0
0.0005983344142730938 7.1060585705372805e-6 0.0
0.001368999599694469 3.6810672244384286e-5 0.0
0.0006475574992783925 -0.00019413314311755322 0.0
0.0017694113177216869 -0.0001415074116556128 0.0
0.0004226637380602886 5.738272139430202e-5 0.0
0.00035204535938237975 3.8161646647874823e-5 0.0
0.0009262230279731296 -9.696768970924879e-5 0.0
0.0018735127053023308 -4.217320141451624e-5 0.0
0.0010755019479267345 1.5012463114540225e-6 0.0
0.0010796992660361728 -0.00012266901307655026 0.0
0.001985994311232123 -3.6756256921942114e-5 0.0
0.0005503119687113487 -0.00019205879107706637 0.0
0.0006766913927506853 -0.00014921908354930595 0.0
0.0015101618638892127 -0.00016254062385093518 0.0
0.0016673322842091793 -0.00020345642950027156 0.0
0.0004825577170332739 -0.00018657682649732496 0.0
0.00029751664452066037 -0.0001451248392849938 0.0
0.001597975382843155 -0.00021701161626942733 0.0
0.00070015106777234 -0.00011817310742509067 0.0
0.0016054654738814568 -9.711797015303454e-5 0.0
0.0021574383405548285 -1.5991568268493266e-5 0.0
0.0017653243135097576 -2.7998614408916e-5 0.0
0.0011838699449093556 -2.918763209765073e-5 0.0
0.0012139473875301284 -2.5393436087437485e-5 0.0
0.0012985803220808328 -0.0001417975439317991 0.0
0.0019468049051529195 3.1100360267130983e-7 0.0
0.001910223088936468 1.1943916608767085e-5 0.0
9.927293540605903e-5 -4.388944105034998e-5 0.0
7.529895809520976e-5 -3.190625122413027e-5 0.0
0.0008277724494014275 -0.000333733451688684 0.0
0.0013356426171158343 -0.0002349609596038635 0.0
0.0007662336598991513 -0.00015407660612612635 0.0
0.0007681113023534015 -0.0001461968928936505 0.0
0.0007792085439831622 -9.535546332298825e-5 0.0
0.001045742405206608 -0.00032444762289707377 0.0
0.0012440065398501706 -0.0001281392473540768 0.0
0.0003410099745174368 -8.011187672249642e-5 0.0
0.0014783803738148416 -8.10338166790069e-5 0.0
0.0012104861399615918 -9.260240134326753e-6 0.0
0.0008749024135417724 -0.00022801693325993487 0.0
3.4350759393265245e-5 -6.474570844384863e-6 0.0
0.0010032803109311745 -0.0002389074415623951 0.0
0.0019711818597752794 -4.578391357358407e-5 0.0
0.0016685308357679482 -9.734267406499687e-5 0.0
0.0015862004673392238 -6.765334993953366e-5 0.0
0.0018791749722156179 -6.900931477138969e-5 0.0
0.001356329561170707 -9.488669948178829e-5 0.0
0.0007777938234334523 -6.296379331462466e-5 0.0
0.0002556623533710411 -8.729375939370577e-5 0.0
0.0009202643355558763 -0.00013850034626250614 0.0
0.001142821156802499 -0.00015300934034207566 0.0
0.00031985653834647686 -0.00013317038182377163 0.0
0.000952384287828445 -0.0004074137468350278 0.0
0.0013111407873359303 -9.763228739620575e-5 0.0
0.0006331720040569979 -0.00025993096819894204 0.0
0.0014911090415362016 -5.283416652883448e-5 0.0
0.00180078821257362 -7.802133086204012e-5 0.0
0.0006989193296993297 -0.00010887963005500192 0.0
0.0015767654974111023 2.8632277967014226e-5 0.0
0.0011891366867952053 -0.00012535767710595771 0.0
0.0010057857287995213 -0.00022685563395980483 0.0
0.00038353572610294037 -9.330564117154513e-5 0.0
0.0007045551378539474 -0.0001577108583551154 0.0
0.001006284173894234 5.8390932167581495e-5 0.0
0.0002814027589904435 3.7870284835523205e-5 0.0
0.0015651914421934605 -0.0001650899574644197 0.0
0.00042414132957609846 -0.00014462313752449803 0.0
0.0010336459459709187 -0.00022121205231884826 0.0
0.0017776467499427322 3.3787855026531836e-5 0.0
0.0014822116270547284 -0.0001608334449183078 0.0
0.0007478668940887816 3.9712497513683146e-5 0.0
0.0001336149196724708 -3.946564771225256e-5 0.0
0.0005428415641502286 -0.0001405076942258899 0.0
4.39770912041971e-5 7.508447588703593e-7 0.0
9.260675807895166e-5 -4.594742139686375e-6 0.0
0.0014768395609881704 -0.00014543282439433885 0.0
0.0012607318934831388 -3.4310364532446e-5 0.0
0.0006916857263762557 -0.00034921102520110855 0.0
0.0004949619234866055 -0.00022999675514109768 0.0
0.001761034905302638 -5.5626161309690796e-5 0.0
0.00026497316373408385 -0.00015971928209130266 0.0
0.0014233423066904306 -0.000174568701898233 0.0
0.0011662450034027256 -0.0003207531873742466 0.0
0.001743424256760646 4.0333546466438244e-5 0.0
0.0006239364356503089 -0.0002982267366748254 0.0
0.001874658356786766 -0.00017546791104997264 0.0
0.0010840185888731345 -0.0001159281693481712 0.0
0.0003690783668170951 -0.00021307946510081655 0.0
0.001432050240525265 -0.0003996022553789514 0.0
0.00036554385361060393 -0.00015121376721736966 0.0
0.0020276619415511197 -4.7761591082580206e-5 0.0
0.00026717040214868973 -0.00010639854688818617 0.0
0.001498949468431605 6.910049560379879e-6 0.0
0.0013620032343302686 -8.350748132823725e-5 0.0
0.0011573744473068535 -4.361574308402738e-5 0.0
4.685255769786421e-5 2.613888757712067e-6 0.0
0.0009272431342779523 0.00011558609237827757 0.0
0.0005860748156689712 -0.00011175649282802548 0.0
0.0016511113167785247 -0.0003316125010539901 0.0
0.0016744211327342682 -0.00035307705364592416 0.0
0.000153648271606459 -1.7655698576300003e-5 0.0
0.001224728307919432 -0.000116604019504323 0.0
0.0005140437370762979 -0.00023211754853371303 0.0
0.0008499085920872112 -0.00024255765132434644 0.0
6.373404086730106e-5 -2.8864270636868317e-5 0.0
0.00011912858910954862 -2.8047465589529215e-5 0.0
0.0011623013657121727 -0.00016637383454510193 0.0
0.0010618913979209155 -0.0002146624076596634 0.0
7.61750039351376e-5 -1.6442109565456716e-5 0.0
0.00021945805884187748 -7.331941350843776e-5 0.0
0.0001825346871333349 -0.00011914977223934332 0.0
0.0017521230402532948 -0.00016435096447516237 0.0
0.0013611111887838101 -0.0002402801543647786 0.0
0.0002712217859662795 -0.00013033387288005085 0.0
0.0016573491180740668 -6.140529246415783e-6 0.0
0.0015236970351457143 -2.0203202205102098e-5 0.0
0.00013094184811224922 -8.002080294619599e-5 0.0
0.0008898051432929369 -0.00011347152045781657 0.0
1.7304149921891574e-5 -9.208428078268243e-6 0.0
0.0021807604257259743 -1.3302670312800023e-5 0.0
0.0021060655660092623 -1.2609187182363243e-5 0.0
0.0006327858215804491 -0.00033043893271366223 0.0
0.001659956396649187 2.1315633725365294e-5 0.0
0.0013638365050379342 -0.00030408715396275653 0.0
0.0002929902253865409 -0.00011326187168580174 0.0
0.0013059763857990044 -0.00042919627858156907 0.0
0.0003081436960238293 -8.501768979212829e-5 0.0
0.0018639146494551268 -5.194604553505521e-5 0.0
0.0008242415661888464 -0.0002453807096167632 0.0
9.322015168871566e-5 -3.905105421099171e-5 0.0
0.0010182518813574481 -7.121761694859989e-5 0.0
0.001012217409552419 -7.66705182624606e-5 0.0
0.0019694586061964887 2.7277098076143286e-5 0.0
0.0011593404141781879 -0.0002495721880782173 0.0
0.0001433881798863335 -1.1579577888304067e-6 0.0
0.0018477232134993756 -0.00023743480238453597 0.0
0.0019870993865575386 -2.6307107891705394e-5 0.0
0.0015138183108245676 2.74044101571244e-5 0.0
0.0015522691224015134 1.9781529821056395e-5 0.0
0.0008906171885845658 -0.00035217400167512116 0.0
0.002117232376845247 -7.015226067009552e-5 0.0
0.000921138476015081 -0.00010330702460347867 0.0
0.0002465250106634954 4.005933922987976e-5 0.0
0.00026747709120044234 -0.00013946177864278814 0.0
0.0006677801916200646 7.581647574861053e-5 0.0
0.0018581624054083321 -0.0001710158386130314 0.0
0.0001046591404146452 9.840192935604163e-6 0.0
0.001122435866437744 -9.642662040509611e-5 0.0
0.0016792942199153735 -8.1602759915898e-5 0.0
0.0013272179716169348 -0.00014480612648370652 0.0
0.002141097357951396 -9.079742265970235e-6 0.0
5.625032393953689e-5 -1.9827335526717712e-5 0.0
0.0019988843418687857 -3.070728433281984e-7 0.0
0.0021496880876783696 -9.724278781100347e-6 0.0
0.001002985154667263 -0.00039825920053952616 0.0
0.0011979821016323687 -0.0001582999654454564 0.0
0.0007936171937224886 0.00014835353298270422 0.0
0.0005066464560414715 -0.0001885088127950391 0.0
0.0006686527744439787 -0.0001382822660752667 0.0
0.0008809613231538645 -0.00012009416947322154 0.0
0.00042531053940496127 4.1133237844899565e-5 0.0
0.0007591586048386163 -0.00027560059662129624 0.0
0.000388522113016284 -8.31758052572733e-5 0.0
0.0002735885010981351 5.068679258332209e-5 0.0
0.0009785451394361045 -0.00015670961567169298 0.0
0.0014894629452161597 -0.00024585777505359833 0.0
0.0017865301589801773 -0.00014448267049390118 0.0
0.0007382667173360176 -6.44699739438383e-5 0.0
0.0005156925712533132 0.00010981674913269248 0.0
0.0012285823319644672 4.9291059273365905e-6 0.0
0.0006255743089927992 -0.00011152802355243433 0.0
0.0016965140128465596 -0.000145366732831546 0.0
0.0006701131802636041 0.0001522632196466893 0.0
0.0006073795666429009 0.0001444202407720292 0.0
0.001137410350524706 -0.00022942119882315583 0.0
0.0012709891923071 -1.1435318380353465e-6 0.0
0.0008184993630796386 -0.00038254642580664796 0.0
0.001564567370416332 -0.000387670684938009 0.0
0.0005711863719905302 -0.0001842949058758724 0.0
0.001456990938206503 -0.0004122682467205725 0.0
0.0004653381513131064 -0.00010165144474940264 0.0
0.0017262940993890397 -0.00014169423358676884 0.0
0.0007987687897158469 -0.00023725327512108988 0.0
0.001851804260437559 -7.35192240151834e-5 0.0
0.0005078039957128503 -0.0001801419582362661 0.0
0.0009599558056467111 0.00010029301736761766 0.0
0.0007805973966729683 -8.552499768643283e-5 0.0
0.0009253208807697538 -0.0003038058482135084 0.0
0.0010067130839442418 -0.00012517461148626262 0.0
0.0010067083048936048 -8.179481765784484e-5 0.0
0.0005850022185354517 -0.0002354337087914774 0.0
0.0005920499006312419 -0.0002488450146796179 0.0
0.0003905448094262519 -0.00013210744872630905 0.0
0.0006638367878823401 0.00020115320968832343 0.0
0.0009586731464552369 -0.0003483665561304513 0.0
0.0018808991151819418 3.117021354260683e-5 0.0
0.0016494206851435937 -0.00020039781948452326 0.0
0.0012241876680254475 -1.630196755680519e-5 0.0
0.0005475770551458086 -0.00018336021041816518 0.0
0.0014529697862556794 -0.00012580802308828756 0.0
0.0011931475471667942 -0.00031253837537759913 0.0
0.0007980043446142436 -0.00022613250096226983 0.0
0.0020092504930678337 -3.361839799799604e-5 0.0
0.002125019522765507 -2.3297940587669e-5 0.0
0.000735702853333054 -0.00014894195506622547 0.0
0.0013849993475768564 -0.0004088760365566789 0.0
0.0019012847728870927 -0.00020523232042654786 0.0
9.938521736013598e-5 -2.8323847501843003e-5 0.0
0.0005113511047505001 -0.0001392364418666142 0.0
0.0005969337832518002 -0.00018524182717459634 0.0
0.001944695140520963 -0.00017668386273901 0.0
0.0007556948971368208 -0.00026250626806011027 0.0
0.001410023099602865 -3.7889910771339723e-5 0.0
0.0002276631111356904 -0.00013835556258854877 0.0
0.0012041257917220682 -0.00018656704731737835 0.0
0.0017865882426432089 -0.00012117258318955318 0.0
0.0013942844366749145 -0.00022688859189260555 0.0
0.002046761077001113 -3.339140959937953e-5 0.0
0.0014137197561351648 -0.00037576129727497293 0.0
3.397287892439772e-5 -4.510573180236007e-6 0.0
0.0009333063980195773 -0.00015500248745543344 0.0
4.4705001262209e-5 -1.745697036932515e-5 0.0
0.000702500095106536 2.911985612232997e-5 0.0
0.0004500104064914803 -4.725471642749948e-5 0.0
3.816810888426864e-5 -2.016338347639507e-5 0.0
0.0005535417067501441 -0.0003031991768558022 0.0
0.0005149091482001477 -0.00027788702396513163 0.0
0.0009328836134175687 -9.128011859856121e-5 0.0
0.0009686702058526135 -4.3774718365578135e-5 0.0
0.00038821320666767033 -0.00022298843484943736 0.0
0.0006619057199954266 -0.00011069442902161044 0.0
0.0012470453894742504 -0.00011949163212948802 0.0
0.00038503789471365014 -0.00015447091159091487 0.0
0.0014422758143545367 -1.0466233049892028e-5 0.0
0.0012228939552224242 -0.00030350535095977267 0.0
0.0002808541023372237 -8.196437461148775e-5 0.0
0.0001782892600018559 -9.706262965952682e-5 0.0
0.001100912583830325 -9.060932185911712e-5 0.0
8.623397329644927e-5 -5.17937091922194e-5 0.0
0.0020807881849166767 -7.532706101281494e-6 0.0
0.0007596853753529483 -7.737088289709074e-6 0.0
0.0009876374069747672 -0.00014714212262190174 0.0
0.001827728884460278 -0.000194595860975069 0.0
0.002026727784975726 -0.00013867720922731663 0.0
0.0016897645208086589 -6.669063474721094e-5 0.0
0.0009553236915210241 -0.00033328493950192416 0.0
0.0012547557733247811 -0.00017406647527096547 0.0
0.0017761068086721895 -0.0002778446101677926 0.0
0.001046216193286829 -0.00042007536852031957 0.0
0.0017635218536055349 -0.00012233005281697893 0.0
0.001403384741580649 -0.00020884710532527486 0.0
0.0007311657743306873 -0.00025260641171321436 0.0
0.0013377388113430286 -9.250483805575422e-6 0.0
0.0007711267659594867 -0.00021668238559185767 0.0
0.0006554966913268691 -0.00031320779679344576 0.0
0.000979263814525828 -0.00012947221112535195 0.0
0.0016155736143902127 -0.00034547659119160207 0.0
0.00038636796234517114 -0.00012460666428022374 0.0
0.0003304474380222149 -0.00019533165334262743 0.0
0.0015472931267430292 3.459318719032501e-5 0.0
0.0004834001081430507 -0.00014502330843559725 0.0
0.0012932384407893258 2.4597143780997045e-5 0.0
0.0008138274483748488 0.00029559294830263207 0.0
0.0016686941530807636 1.2368419960656029e-5 0.0
0.0018516861830061217 -6.349832003000866e-5 0.0
0.0010638634748148202 -6.165796903833129e-5 0.0
0.001645946143494534 -8.283014913019215e-5 0.0
0.001256170898755065 -0.0003354604127544411 0.0
0.0013472343766841195 -0.0004298329870297636 0.0
0.0006234728192770001 -0.00018524858715337854 0.0
0.0007387387134937302 0.0001660741451989578 0.0
0.0004217966368457956 -0.00013007058560169757 0.0
0.0004776348093393507 -0.0002737709254077853 0.0
0.0009134477605401142 -0.00016717430726073413 0.0
5.6087132874980015e-5 -1.9053842194141732e-5 0.0
0.00037455111117044366 -0.000205533874406592 0.0
0.0010338924120679622 -8.943464280589214e-5 0.0
0.00013894326389040377 -6.0378114946573666e-5 0.0
0.00011574782995410483 -1.0947048384200621e-5 0.0
0.0010843140101050711 -0.0002092360570567413 0.0
0.0011264210348269738 -9.038563940943665e-5 0.0
0.0019954648607162042 -0.0001430251433894791 0.0
0.0008885685548690964 -0.00010769989160733027 0.0
0.0015018417122091771 -0.00022429165601258618 0.0
0.0011543838147192256 -6.289491286180626e-5 0.0
0.0002941093692661823 4.756631339566757e-5 0.0
0.00037841641461826677 2.7794779863338212e-5 0.0
0.002085585861609023 -2.097959729265238e-5 0.0
0.0013746190737296674 -2.5243609918081903e-5 0.0
0.00031989098184410556 -0.00011958206097169854 0.0
0.0012909761953945535 -7.71265631880682e-5 0.0
0.0010275594172506862 -5.7378839794342734e-5 0.0
0.0011037904435176069 -0.00011707470755727336 0.0
0.00044226252403248387 0.00010336151708430884 0.0
0.001090999855780913 -0.00042562798437156655 0.0
0.001973325494642889 -1.0257826918434773e-5 0.0
0.0010724722791121196 -0.00017908870380415985 0.0
0.0011115158146122795 -7.506473808934096e-5 0.0
0.0013746187719773325 -0.00011922231343372643 0.0
0.0009705241035874356 -8.70205476104382e-5 0.0
0.0010801874937349958 -0.0001676316928436394 0.0
0.0005374958399681651 -0.00024669213120545694 0.0
0.0014383535784676068 -0.00019466624691505898 0.0
0.0008660982251490327 -0.00014639445168991143 0.0
0.0011028084001804782 -8.551657182668478e-5 0.0
0.0016930811467548957 -0.00034816868424980687 0.0
0.000928787844615697 -0.00013117059372271927 0.0
0.0013087688089327408 -5.834365873722389e-5 0.0
0.0011636033499462894 -5.7378184451071426e-5 0.0
0.00018812546536221166 -0.00011625731036477131 0.0
0.0016620462389599871 -0.00018208193108696906 0.0
0.0011413641256028968 -7.660723068368843e-5 0.0
0.0006238338438627282 -0.00030936144171039403 0.0
0.001300760059501321 6.457876464779789e-6 0.0
0.0015006075852285364 -0.00040703333865972483 0.0
0.002118243458628513 1.3122134243867862e-5 0.0
0.00012891098309930483 4.428112304657242e-5 0.0
0.0008902355857925047 -0.0001719673998784579 0.0
0.0011743275880186526 -0.00041413082727089 0.0
0.0007486575846616879 -0.000353846300114113 0.0
0.0008445267497802373 -0.0003887907902665828 0.0
0.0001734917814381847 -6.15414521445088e-5 0.0
0.0015324665381658796 -0.00021132358566610852 0.0
0.0006271926206816696 -0.00017675376674368805 0.0
0.0008965016233863842 -0.00013596739653396972 0.0
0.0007382573514714157 -7.586602957734247e-5 0.0
0.0008723775544560407 -0.0003833734425336216 0.0
0.001551788139742892 1.2989123683610419e-5 0.0
0.002002484169656865 2.1535885782974784e-5 0.0
0.0012552222625384802 -0.0003204260885079926 0.0
0.001066403716232008 -0.00019141887134434547 0.0
0.0006904231349345987 -0.00024828777606190043 0.0
0.0011375344594501745 -0.0004296161254247715 0.0
0.0016073588225433272 -0.00017113282832986732 0.0
0.00015729829360819895 -6.415546143516057e-5 0.0
0.001939726522420852 -3.248852070272645e-5 0.0
0.0009180928055952911 -0.0003906652023295381 0.0
0.0009385713898498014 -0.0003544884639614971 0.0
0.001438422095528843 -0.00036004066585008286 0.0
0.002159588905566261 -2.5014592280253245e-5 0.0
0.0007894889207751007 -0.000364884235445891 0.0
0.0006961210400480393 -6.457602580442e-5 0.0
0.0007095341171519194 -0.00015121303824966668 0.0
0.0013613358253727003 -0.00013459962190821989 0.0
0.0020937874000351983 -8.729370644011328e-6 0.0
0.00019266113263067896 -0.00010221588595907476 0.0
0.0010865493674825524 -0.0001576598461659966 0.0
0.0018853502114578972 -0.000184046650402044 0.0
0.002086953930640125 6.484061418192025e-6 0.0
0.0006045149762934252 -0.00013301545195158976 0.0
0.0009392356322523345 -0.00039555201174083977 0.0
0.0020191657353916094 -2.7847707171755385e-5 0.0
0.00038463283419165525 -0.0001963259049105981 0.0
0.002128726932153368 -5.6028781820664625e-6 0.0
0.0006740486776699826 -0.00034581571200194993 0.0
0.0014483021103668427 -0.00017697968582975357 0.0
0.0004015978751373213 -2.1061225188715128e-5 0.0
0.0013406509235400208 -5.6764330000320046e-5 0.0
0.0020928273727973574 -7.401335822914045e-5 0.0
0.0016414759833040969 -0.00015532080002196236 0.0
0.0005977994260933814 -0.00031008744078096675 0.0
0.0004403580459446714 -0.00025805088322097255 0.0
0.0005356502060703271 -0.00022912041713075678 0.0
0.0017380399865501433 -0.0002987469818473046 0.0
0.0016140423381306402 -8.503293203681336e-5 0.0
0.00034515877374518243 -0.00012596187251794666 0.0
0.0008447281532497979 -0.00016828856641166502 0.0
0.001354723953323863 -0.00015002752264107935 0.0
0.000812307360984583 -0.00018857602637785685 0.0
0.0020444706242314105 1.672258417683833e-5 0.0
0.0014726273865416498 -7.104288536361071e-5 0.0
0.0008645288150956554 -0.00014037680667345256 0.0
0.0003524446062435088 -0.00011875076478106164 0.0
0.0015531777992735631 -0.00018139017345276972 0.0
0.0012859898103652794 -0.000398805138772856 0.0
0.0018254716216060513 -0.0002550459494562356 0.0
0.0007163630014881077 -0.00034572644251013664 0.0
0.001390734019877462 3.6399509225876325e-5 0.0
0.000773857871825994 -0.00020621502880312378 0.0
0.0012211772084442692 -0.00041645558639940883 0.0
0.001810713410539737 -0.00019188324265419107 0.0
0.0016125075751925362 -1.0795295748571858e-5 0.0
0.0020438582887465848 6.071805136710443e-6 0.0
0.0005339734806044162 0.00012214651121713368 0.0
0.0019815184529761833 3.4154538345524325e-6 0.0
0.0006814408908353659 -0.00023197380923575643 0.0
0.0018176338313990927 3.442505961739141e-5 0.0
0.0012895854675902083 -2.4797867793979603e-5 0.0
0.0014892698365907748 -4.666208708185981e-5 0.0
0.000646015440210115 -0.0001660381184255571 0.0
0.0015032193053201152 -8.593087969062515e-5 0.0
0.0009837181946757982 -0.00040061835223316385 0.0
0.0005620354576171925 -0.0002906309483736656 0.0
0.001149211867969245 -9.05625681990548e-5 0.0
0.001604829236761064 2.3313776820024107e-5 0.0
0.000923126615787849 -0.00037137449932268384 0.0
4.1936166155211714e-5 -1.5753701756689552e-5 0.0
0.0021053652604075346 -1.1616014104239432e-5 0.0
0.0018136627098280119 -3.316650661346513e-5 0.0
0.0009301062307183683 -3.229555401040781e-5 0.0
0.002138100204938706 -2.1872077838428553e-5 0.0
0.0006094354671660037 8.19824301767309e-5 0.0
0.0010359067843789841 -4.9210610485676413e-5 0.0
0.002178644640888227 -1.8620533372443727e-5 0.0
1.7528422533636408e-5 -1.1029193214270982e-5 0.0
6.208904354735963e-5 -2.665824036436539e-5 0.0
0.0006247717740675015 -0.00010312809941426162 0.0
0.0012740517127686915 -0.00017828401782996953 0.0
0.001495806415819946 3.5777814570858546e-5 0.0
0.0016191189769057006 -0.00032265743483879833 0.0
0.0021132406237335697 -1.4757428318099697e-5 0.0
0.00017395493511785162 -7.295942778911841e-5 0.0
0.0004479872076663831 -1.8167448496813405e-5 0.0
0.0012923919630445273 -0.0003811262115355216 0.0
0.00187944893627967 -3.445821771738154e-5 0.0
0.000551174285221379 -0.00022988489822394848 0.0
0.00012088189037591644 1.3827635495898985e-5 0.0
0.0013199952150848568 -7.849659838221802e-5 0.0
0.0006593864498809737 -6.610532363574096e-5 0.0
0.0015991637981117677 -1.2308155965006563e-5 0.0
0.0010122159224298431 -9.04177321704311e-5 0.0
0.000804451208191927 -0.00019665244989932918 0.0
0.0019102333216936716 3.125787145884811e-5 0.0
0.0019207877869132554 -0.00019794866651849855 0.0
0.0015561916138073259 -0.0003714696659908444 0.0
0.0004870271600992172 -0.00013884542710479363 0.0
0.001997862153699092 -2.7404651460925004e-5 0.0
0.00034109412066047224 -0.00013962436594207715 0.0
0.0020212000595192293 -8.696217812547795e-6 0.0
0.0017558479633743688 -0.00029455173605117595 0.0
0.0013204030570061558 2.2013275863992183e-5 0.0
0.0014491332681697568 -0.0004004823449673653 0.0
0.0016000374943701506 -3.619317001572967e-5 0.0
0.000985976947501466 -0.0001151721988013674 0.0
0.0005558830737247868 -0.00027776171598457145 0.0
0.0008533270203418434 0.00013255445019444285 0.0
4.530122474370185e-5 -3.7055356795431708e-6 0.0
0.0020830675190564797 -1.4486632803347193e-5 0.0
0.0002443145491063814 -0.00015008578014714805 0.0
0.0015790118093190325 3.8630799813304604e-5 0.0
0.0004041496930493554 -0.00023208653974854127 0.0
0.0014532405573281027 -0.00016307014090541483 0.0
0.0004381852027093354 8.93418088624253e-6 0.0
0.00020131464081584192 -8.202752634520152e-5 0.0
0.0002940460639604644 -0.00018621390266250888 0.0
0.0002620210820603482 -0.00013058101867872307 0.0
0.0007773781177105657 0.0001963771898218655 0.0
0.0016807098905514308 1.5155028980201973e-5 0.0
3.3042427228442503e-5 -1.5716725994005584e-5 0.0
0.0017997431413080012 -2.738141757993005e-5 0.0
0.0016976188153253141 -9.82856613136564e-6 0.0
0.0013089295306423845 -0.00016760670403842052 0.0
0.0010062106822286978 -9.986236909777685e-5 0.0
0.0005735760100324141 -8.726757430250374e-5 0.0
0.0010169542841630883 -0.00011831029196504907 0.0
0.001319148016022408 -0.00035095023667179045 0.0
0.0006508653706568032 -0.0001777400554067066 0.0
0.0005026751375526788 -0.0002761292340503409 0.0
0.0018166049949480743 -0.00012721369565087777 0.0
0.0014274108542252585 3.975218446807027e-6 0.0
0.0002299007488810626 3.802196517854239e-5 0.0
0.0006576936277194338 3.09248862834949e-5 0.0
0.0014222168669435391 -0.00011735200628403557 0.0
0.001321289184637312 -0.000416184599071981 0.0
0.0008404470417196895 -0.00017620297495683738 0.0
0.001669884097674166 -0.0003346048664622786 0.0
0.00015023364796863198 -9.388508598878696e-5 0.0
0.0014608844790186893 -0.00034611792921641763 0.0
0.0007394365771145357 -5.220780849559847e-5 0.0
0.0020154702294426286 -0.00013196466050560663 0.0
0.0007158515240446484 7.509228157366828e-6 0.0
0.001324448421967346 -4.389013125997322e-5 0.0
0.0010939540262654393 -0.00020116830132241236 0.0
0.0010449515019529008 -4.112646118252002e-5 0.0
0.0011950224687200127 -5.022171098197366e-5 0.0
0.0012720094016155736 -0.0004148163273153642 0.0
0.001632281013128878 -0.00034310623441886803 0.0
0.0005302156957815069 -0.00018369152590525108 0.0
0.0012644414474578813 1.9303683767776128e-5 0.0
0.0012304731714601561 -8.151484981344313e-6 0.0
0.0016290622471186206 -0.00029580716403181405 0.0
0.0009936622455600985 -0.00010900434467035411 0.0
0.001031599993019877 -4.820402528142753e-7 0.0
0.000551532710652585 -0.00026584175170072874 0.0
0.0020006508241749927 -0.00012480458548298304 0.0
0.001377931572291711 -0.00042738946332721386 0.0
0.0009248851173027768 -0.00036117511768828147 0.0
0.0021079676775110807 9.435031376230058e-6 0.0
0.0009113216983974055 -0.00032240080923898423 0.0
0.0016624104860134589 -3.9303203865250195e-5 0.0
0.0005708258725059295 -0.0001251926641875235 0.0
0.0014174753473087894 2.67772361555319e-5 0.0
0.0004110478655199233 -3.554471850116825e-5 0.0
0.0009256366476258767 -8.272309837058692e-5 0.0
0.000758128137499867 0.00025001901159421477 0.0
0.002148669989332354 -8.938662745553824e-6 0.0
0.0012635821516776976 -0.000308551141235055 0.0
SCALARS damage float 1
LOOKUP_TABLE damage
0.6154093141793889
0.518575436051565
0.8684472784961726
0.3227096480640312
0.9872604933166411
0.9958181914280239
0.23682619889217787
0.809806505948823
0.8113540603000867
0.8249587709811507
0.8469888932095531
0.8621367578266285
0.8797974939076508
0.8966151338299171
0.9034134505283118
0.9036359519642725
0.8973482159958395
0.889730078923411
0.8791480369077154
0.8670593551282234
0.8556737794918262
0.8499871179368348
0.8390253426477415
0.8291702776273012
0.8223006876906925
0.8144551257494596
0.8029080493086732
0.792245139505681
0.7774975166330126
0.7628382041043194
0.7393360906661846
0.710120972370981
0.4869995823458099
0.625068732529317
0.6416141188522905
0.6678927335133311
0.6854306665181544
0.6968920556367485
0.7089628425056305
0.7160897699451104
0.723763878777414
0.7316843911731771
0.7370818451597181
0.7424751992098352
0.7503193311790967
0.7538575368483444
0.7509482215340788
0.7584095242605157
0.7650797817701649
0.7735553771712669
0.7778442485485753
0.783763634146418
0.7879528423398424
0.7971662535138575
0.7971471418659495
0.8058769439931688
0.8079233213391841
0.8145958328992573
0.8193538218498788
0.827958795419564
0.8280763633840892
0.8362777850293585
0.8410749166470289
0.8484800592382201
0.8539901256467521
0.8569345496131927
0.8535321378319526
0.8512458745601106
0.8553202095401417
0.8467526546073446
0.863293091491666
0.8673666425220206
0.8656631051992251
0.8852774187940908
0.8899874790455877
0.8974929600352102
0.9072797536166212
0.9074080838408498
0.9211839435987003
0.9219319261939086
0.9285925412247011
0.9317738398195643
0.9313731875895507
0.9267731022978883
0.9371973376613553
0.940506032455308
0.9571883448049479
0.9569011835231944
0.970202898463624
0.975149266190906
0.9784927428630257
0.9822193436082743
0.9843143863676478
0.9868476736228882
0.9877668430429939
0.9909691771601243
0.9902739254508284
0.9913455324194513
0.9919758558492576
0.9911757545962376
0.9902059957124746
0.9885906447117278
0.9845307672544501
0.9781992190052223
0.9661410964755931
0.955626104386463
0.9489251222122462
0.9400928640581144
0.9345081993124874
0.9214843839933164
0.9082631737641327
0.8910039727618231
0.8963293055485739
0.8773265961462432
0.8724859626192771
0.8534195598082033
0.839079782131909
0.8263878268865268
0.8065273464083308
0.7922314395749359
0.7827629967728023
0.7667116549916392
0.7452378619938541
0.720071692799368
0.7059500750722618
0.6878925231421177
0.6690698101280533
0.6226974331366827
0.5824649522512646
0.5717786800372622
0.4127752833052552
0.5461151136391538
0.6424664166536294
0.72797842165839
0.7581791493028301
0.7743941421135981
0.7826467768120894
0.7885948687328971
0.7930383843956014
0.7968089862531472
0.8026552633604161
0.8072543624005681
0.8102919176751203
0.8127562346745296
0.8141032767762058
0.8137425835681187
0.8121180655879787
0.8089488307429606
0.8074592612856762
0.8070838386248617
0.8092326123389635
0.8160156895295432
0.8253677068620275
0.8432537390067046
0.8717517987227585
0.9109111202547107
0.9052421021005868
0.9885353868558745
0.9970492960925951
0.9967593182579936
0.9934941677405204
0.9974610632511346
0.9723234331728117
0.9307185362558531
0.8750181573570728
0.8120703965116741
0.7428709902352894
0.686709366789186
0.6204365356657816
0.5457602420869633
0.46628912286635854
0.41916018756926327
0.13674585911816411
0.31036328610920405
0.43639386802213553
0.5373646942141999
0.6261720682151041
0.7177112908665276
0.7890097046219681
0.8604464578848497
0.9254594879323993
0.9633773054842264
0.9960612428179882
0.9929978064743752
0.9960723586324676
0.9850862421553216
0.9092174067160715
0.7374099624601353
0.8307288859378319
0.9833857925601803
0.8629958455578534
0.9876530701669507
0.8930539389311958
0.9600500558990686
0.9315926576772319
0.944220654573307
0.7987023248070872
0.892720700628473
0.7701158103194223
0.859535732749103
0.8105911453367411
0.6731301028761384
0.6949079566795263
0.2613289876014681
0.6054047856866851
0.8302056302988761
0.7492301883743199
0.8264806025761855
0.8048533859659356
0.8040525215008916
0.892738431754908
0.7732389227380344
0.7205835479963144
0.8545263717186289
0.8034717878817704
0.8049657798582207
0.7855856494259591
0.8616685436590741
0.9181050838877964
0.9794975670407767
0.930450390081148
0.9896624255259778
0.9639129834867987
0.8577451565845593
0.8143398574657302
0.7113452542867917
0.693346635064282
0.8126265306247615
0.8884045542360381
0.7549004402011154
0.7661239465473914
0.9507850117526563
0.9331317516589659
0.8460132564390157
0.8313581486161382
0.8435613436792633
0.8114946373814522
0.6170179710651479
0.4641729215106129
0.6437684780497617
0.6303134943927462
0.9885954335168962
0.9460290228309121
0.8537082668586531
0.8429600222041722
0.9716655817135327
0.9245676285770061
0.7877273239723276
0.8739491322802222
0.7586581588143411
0.7345672620708517
0.7987862707735255
0.9216154077004559
0.9756870056089139
0.7002750710935293
0.7253691208007508
0.9926860137883301
0.9953127137434516
0.7731956160375282
0.900699704118423
0.5946498483932088
0.5731659135106456
0.9972405872567189
0.9736930383123761
0.9367898242062667
0.9385791013378797
0.9573199660423167
0.927915613885319
0.9003124375249603
0.8849768491702384
0.8633193416597864
0.8466718107602836
0.8653851431577853
0.8295165528881153
0.8433955418988363
0.8149906108599285
0.8272826429655464
0.8075494667072469
0.7960088656061828
0.552778447639948
0.7371668218237968
0.5921055417120891
0.7522579745158879
0.6562267727742046
0.7570734220089728
0.6977247231629131
0.7675458705563305
0.7214877908192209
0.7724153240792668
0.7435523110519646
0.7821383035888804
0.7549279188557854
0.786582069636356
0.7680961290511248
0.7925110359540316
0.7725444279959369
0.7922441742648614
0.7782202931808242
0.79449342116329
0.7852904511342755
0.7987525247073674
0.7925710082163147
0.8051337816733917
0.7997303984582717
0.8099436356252945
0.8045683490431008
0.8146574394989593
0.806677880912885
0.8155921835211364
0.8129979183436148
0.8196450171840111
0.8195988307724221
0.8241704274222769
0.8224741471955855
0.8275887958182879
0.8278437301164318
0.6623029744183158
0.8327229160243643
0.7593722308186912
0.8069885038028898
0.8324207068831057
0.8372268894027002
0.836492284990101
0.8317146401384786
0.8358288293224571
0.8411709761001067
0.841261421397206
0.8201077409891901
0.8452851218840243
0.8448171683283553
0.8484187775620571
0.8304088084961082
0.8347070223941355
0.8475834754680495
0.8289983015941783
0.8332892868550824
0.8522704845866663
0.8514475199298805
0.8275540138745364
0.8326149345679409
0.8563481304951918
0.8553636430740178
0.8252419687553059
0.8295584469113504
0.8605968741359227
0.8596344676634815
0.8223377660875186
0.8264341968330832
0.8651552428711256
0.8638323851377524
0.8180788389818687
0.8245516013712876
0.8144372978459543
0.8073377472605313
0.8659413489679669
0.8695923480313724
0.8674076488966134
0.8608031417941615
0.8059135892185169
0.8648149647558152
0.856561514055771
0.8601962074855856
0.82193017084353
0.8130059017606605
0.8287439391446182
0.8734397023460851
0.8182462635739113
0.8083128180425749
0.8081452470217866
0.8138734227756796
0.8043730421753486
0.8107026683251265
0.8003500163651204
0.7938628769370943
0.7889928242305647
0.7831742465312866
0.8072353259449717
0.7815464961774321
0.7740308262483884
0.8168573481750779
0.8137233720632554
0.7720046304377827
0.7645472667292585
0.8527764107265539
0.8553177911672725
0.8215810535890967
0.8171064883814325
0.8485798500815568
0.8514257994470639
0.8596651248483914
0.8533593489185246
0.8645262497053522
0.8565849623202504
0.8680282379269432
0.8593653792324533
0.8721637137525311
0.848731632585558
0.8607012574295998
0.8758447466640847
0.825465747572565
0.7633073219490257
0.7560608451275351
0.8846892074122855
0.8898913254457245
0.8801448309282457
0.8998106841446529
0.8213929935462897
0.8955280641094703
0.8857178443484017
0.8295108666243817
0.8258848912184639
0.8182570321985428
0.9019573683836638
0.892769579052903
0.8343520672590065
0.8386010299069021
0.8218505298610455
0.8135058330517442
0.9080536630048334
0.9001164794867296
0.877164757278768
0.9150218430240316
0.8843507564664775
0.8632719656779503
0.7555796655693758
0.7506173706719603
0.7495549302824994
0.7468381344534653
0.7405684414036103
0.7405144120663274
0.7335819833914162
0.8430795517873553
0.8468103898078074
0.8171925001871583
0.8089138504732671
0.9067346477612047
0.7378008491794049
0.7283474972028589
0.8506118956871161
0.8543812829928342
0.836709209663393
0.8899658219618775
0.8082830017885018
0.867604921533304
0.7882081510774617
0.8445331829008563
0.7377764930706989
0.7285137227634596
0.8133611389288857
0.8056933801215976
0.8579337513420247
0.8615781713611339
0.911906215571963
0.7527603860161735
0.7574228868302845
0.7460064375043898
0.8929893935509382
0.7447304846738899
0.7313642251621068
0.8538937453266333
0.8090548536519616
0.8012881891668813
0.8426933199089301
0.8417039444344204
0.8394821813615886
0.8395672882609133
0.8649022839141698
0.8680333093420916
0.8190517128488597
0.7516065966477571
0.7454846352364017
0.9146331394234904
0.9256114498487309
0.7770195598085247
0.7672995923512447
0.8990755701507358
0.8755276680901133
0.8012924649461449
0.8171093912134387
0.8715649119474839
0.8740992458719299
0.8705168156997182
0.8764156226575146
0.8727685653608781
0.8784424813234212
0.8747851125006226
0.8799965326698488
0.876270089213835
0.8812219179965803
0.8847831777130704
0.8862409049039747
0.889765580359526
0.891406240618836
0.8949722929589263
0.8967164530740067
0.8776139566038016
0.8927548346357806
0.8982985283563516
0.9025420090554065
0.9041640773519127
0.7539320182400743
0.7578291006045299
0.8052840447036586
0.7982261878639612
0.8996973283325151
0.9053923996322024
0.9101159999583296
0.9113026745774975
0.7557213278784033
0.7583571012636658
0.8387280556759047
0.8409773740938002
0.8411123409719542
0.9170575019687016
0.9021816069252969
0.8776320996349559
0.7196040861384931
0.8530606521723888
0.916185383095858
0.9171833484824634
0.9125573994943448
0.9187264109791958
0.8461992742970149
0.8453406498573209
0.8445324703069806
0.7956923471637493
0.8021849236155619
0.7948848216593316
0.8469059799029731
0.922923523883839
0.9248981080531818
0.9201684521115185
0.9273163261317048
0.9215663236076743
0.9285719441785352
0.934312027473376
0.9353406483390526
0.8250830485162362
0.7577252514048417
0.7583141928234871
0.8754301145907171
0.918362705970758
0.9061365232246896
0.9402253816541971
0.9422720059979537
0.8185112730043996
0.7996858237812522
0.7917487053678484
0.7322036496387964
0.8007893317193411
0.8809894155871099
0.8424648157079494
0.7624334937728277
0.9186691607839538
0.9070956578732974
0.8815256830089544
0.8245198432094994
0.9221571233473403
0.7584192893294684
0.8040935039245607
0.8530017936536498
0.855579735955988
0.92250483934436
0.7956470170072836
0.7876822703627568
0.759779155034408
0.7595265248942586
0.8014684243744861
0.9471335657894708
0.9478083191086341
0.7838407195174963
0.7803116676064241
0.9456377956662843
0.8783566693314852
0.7831829791044058
0.7763215935607322
0.8690351124032343
0.8836590305417441
0.8555928806179843
0.9066876361259675
0.95273831897118
0.9529991605663126
0.9157002000873337
0.9162001737485608
0.8837302237738642
0.9474312391692994
0.952192517663065
0.7622212829463926
0.7609399007066021
0.9586506308728376
0.9571026518037437
0.7788084244452165
0.7718651634694368
0.8610942393728248
0.8674072830417372
0.7699809970495526
0.76581602143869
0.7669228581456367
0.7613443898431056
0.884185351097291
0.903786526901908
0.8403808504527804
0.8567720056053003
0.8412978831487857
0.8806640191340949
0.9636791209060709
0.9613508376731467
0.8187304184603367
0.9459819932699247
0.8930014894486137
0.7607753111595195
0.7566562511279625
0.7575142917555825
0.7520058807216885
0.751571327275506
0.7476793975646406
0.7493202194435065
0.7458513780036397
0.7499781766858754
0.7465274315480097
0.7522386301386572
0.7415386739650618
0.7447227482324543
0.7640955368295234
0.7668913164275257
0.7342824313652832
0.7388581130994468
0.8190043679719173
0.7758211964970766
0.9096383968233
0.9098211876710512
0.7602643764650955
0.8848132008053716
0.8868919520845236
0.9158080061947491
0.9089790786342378
0.8848147738154457
0.8964166932391399
0.8986670714541757
0.8604448118188761
0.875652923250722
0.8745125848382954
0.875589429816751
0.870271943131206
0.7515488626102601
0.8753487665364235
0.887198730398621
0.7786866146573899
0.9676698436360415
0.9645765387969152
0.9584782438050811
0.9609852757476038
0.8474716686768925
0.8619597866253333
0.8503783008532078
0.9690079240315704
0.821181516044316
0.966227421133801
0.9616892066999057
0.9563490724985719
0.957092273502962
0.952613777738568
0.9528416981692582
0.956480216947084
0.9514517678137966
0.7306871820045987
0.7334445990448388
0.7457400515215512
0.885901550257451
0.8899280917427889
0.8705524824128174
0.8648123698009595
0.8857356593823141
0.8853385430012258
0.8457549633709412
0.8326215462826188
0.8682548783982739
0.8708996061050734
0.7286630261338658
0.8254568807907616
0.8377862593249026
0.885463366733639
0.7365389508356147
0.8631021294100145
0.9546593766804925
0.9488927907516463
0.8018448983782825
0.7954829588200273
0.8530080076976744
0.7600285433524463
0.7705493229820628
0.7756573714554157
0.7580700265179181
0.9662546138619076
0.8758605885871004
0.9150576588877962
0.8379509778737656
0.724152344537793
0.72880474434925
0.786474717656317
0.9145160920187659
0.906896629209872
0.8746731844292425
0.7987239996608483
0.7935177242785503
0.7983524387720025
0.7935798457580728
0.7921206863357562
0.7899360281050216
0.794215511178744
0.7897408801925878
0.7970008514297293
0.7933343351762465
0.8007214242043026
0.7967578549050603
0.8054954487219947
0.8006449723519711
0.810555966187835
0.8083722763103881
0.8052642530096632
0.7900263002723301
0.7767985782588189
0.781929074996314
0.7892595343379366
0.8134070800828285
0.8093172549043905
0.8163104366766116
0.9211398713222513
0.9201590739652168
0.9259653417636975
0.9252273037734015
0.9304536243038066
0.9298027553007228
0.9242705535639939
0.9283504960579486
0.9221170138739765
0.4375921084530801
0.9349280152750585
0.935522456650636
0.8391093249485597
0.8725309539635451
0.8739600433699297
0.8687084835600634
0.8699919921474395
0.8645952735736819
0.865777894374027
0.8709660594258485
0.866815948821971
0.8721904736012563
0.8673116610794808
0.8724439157681015
0.8626541828026573
0.8601840815081478
0.8588453295938544
0.8769533472006935
0.8775688734497259
0.7848381577859503
0.8168147236667942
0.71604577409449
0.9008684216531769
0.8527157014167338
0.8494968257931748
0.8062000551579508
0.8130436894940538
0.9502676303706007
0.8691192180479752
0.8731634055534452
0.8738586037064903
0.8284015464004787
0.8657009318234874
0.859306853186522
0.8127150640540595
0.9250276170042518
0.9185478812542252
0.8579812816939003
0.8538458796844056
0.8515999285309411
0.848419724382343
0.8513390209263393
0.8457643596187095
0.850433868363684
0.8443107395927477
0.7540634719052934
0.8259321231934812
0.879626733117744
0.8927181417970017
0.8101750327196114
0.7949983045254083
0.7987988494407903
0.7916783597898989
0.8893000383707431
0.8926315512885696
0.9725106477090002
0.7528543707724448
0.8539240289631682
0.895351936890966
0.9069403105182653
0.9468030788703425
0.8688352109365223
0.9458233325521104
0.9421056596912313
0.9452687453250888
0.9373975472028268
0.8242366322574949
0.7608861250651493
0.8676337714684891
0.8045172006957003
0.8884801449417555
0.7921786477570576
0.7965733761683649
0.9735971258336992
0.8454840487815632
0.9029561241325621
0.9029915902053609
0.8572299002958378
0.8577762903400294
0.8670703956312684
0.8371047511691577
0.7154055315159373
0.7220251729905578
0.7388355593740531
0.8641653608138566
0.8837574716426561
0.8455631582479607
0.8517312555578836
0.8165513164288585
0.8132080479989087
0.861723163430165
0.8401407315645731
0.8698271762461698
0.8679584961692005
0.8621533391887489
0.849377044829554
0.8613963581572872
0.9146843514823122
0.8400179643751965
0.8374939453445259
0.8423888362772771
0.8355736164919001
0.9372058217567351
0.9320276942634548
0.9328825286182381
0.9251762755059523
0.901293825297961
0.8980943498634223
0.9394545137344411
0.9403003808628763
0.8539685898456537
0.8530154662452513
0.8842600416974513
0.8392655068540331
0.8326382513842834
0.8977531936576002
0.8900836394680396
0.9015871489835174
0.8926181355978289
0.8961255449596105
0.7133794291229548
0.7542769006997345
0.7577973078918583
0.7813921651863832
0.788175423734845
0.7802171636579636
0.796314193057155
0.7874184743478253
0.8051018646829748
0.7972513817988883
0.8773399941542017
0.8305592282654191
0.9431554296798583
0.9694033375881345
0.9747115580829586
0.9702455574093836
0.9214288597514453
0.8627138962053543
0.9259753054416773
0.8542387856764525
0.8358148444640342
0.8308442769734157
0.8628342654081159
0.8954741715975768
0.8961301226530752
0.930864482477763
0.9149878589943325
0.7620234030470647
0.8062685061244526
0.8102465626543877
0.8150628702451019
0.8111991619032706
0.9222714287254516
0.9289876035259441
0.8967222145167335
0.8818511610609238
0.8499263637781691
0.9121146863843482
0.9413003062242153
0.9391817244977749
0.8898735416920944
0.9027902326704845
0.7998450385078434
0.8045321632462061
0.8170770667572975
0.8102795277308372
0.78926682835472
0.8029949944194122
0.825382579236915
0.8193467628378875
0.8414124443362789
0.8368848353076882
0.8560079424490349
0.7081890749806315
0.8972439428158628
0.7168590842847617
0.788103893594494
0.8199555923823307
0.8788153993440397
0.9029273958772249
0.9207860048743592
0.8524887640945085
0.7566827116515092
0.749743738212938
0.8465995644922067
0.9772165841330792
0.8678895752747857
0.9165457987714475
0.835964599100634
0.8568798574017887
0.8508706473490741
0.8543830982310459
0.7954058297937876
0.8484317694272148
0.775228059097328
0.9438973706494649
0.9452278579730006
0.9420424961912927
0.9474311439529839
0.9437418287273347
0.9361743502276876
0.8093290831028518
0.8166538538975189
0.8984259805065187
0.9124099930810863
0.7808820834668248
0.8369368593720361
0.8297717718063417
0.8455388804903909
0.933813851711662
0.8662124709923877
0.8258058206180446
0.9514774032606946
0.9542905555722297
0.8924739820892041
0.8917640714023128
0.8864684953219882
0.8410743661841614
0.7574769174156891
0.6990915709845449
0.9434512770158731
0.8792784001770417
0.9178286052674817
0.7509594097646427
0.8030568907357384
0.7622771584269443
0.9190185399882306
0.7807737602349596
0.7744541191727309
0.7783079469341555
0.7720068370096039
0.7749353450693269
0.7686605469700597
0.9751628701619577
0.970859584174371
0.865442226505005
0.9239112374280388
0.8984436633141936
0.8958936067407385
0.8064323360979802
0.7883664669136622
0.7798744189307828
0.8550095750398535
0.8385715757409794
0.7824273485481197
0.8114092515094969
0.8089510542239362
0.8137258671592597
0.8027447835021545
0.8472121338101801
0.8682055446903426
0.9027201668052617
0.8406582181360479
0.9421378691678125
0.8658975361902612
0.8349834169102942
0.8157505782451514
0.8125051319634784
0.8330003262746568
0.8924261403809012
0.8892706464212878
0.7581153442246719
0.7514400070079612
0.7444382131824807
0.7442590842861606
0.7848392411709829
0.7090001848910946
0.7313264350871324
0.9586976495292485
0.960103233111869
0.9544176537004571
0.9318037236515379
0.9351280345462286
0.9261159716184567
0.7664626448762148
0.7645156826081174
0.8943829956641327
0.8076112211663103
0.8092175296607989
0.8068464065923973
0.8047658597009774
0.69628822081573
0.852383341456422
0.8500174079572617
0.8431945098598422
0.8392457208558003
0.8328507543517668
0.8451930899567908
0.8909026757284164
0.8485204858439105
0.8493404160115092
0.7469370666357973
0.7392250923964778
0.7937462583136915
0.7923484594701141
0.7899113879505233
0.7945577394227354
0.8008430837040043
0.9112065553823695
0.9080593359014794
0.9150486836531198
0.8967121755404525
0.8821300236367512
0.7724334839269057
0.8736749764756464
0.9766776640138042
0.8696561725725329
0.9219336724829661
0.837440962172948
0.830101146018435
0.8341000993606299
0.8306627824357391
0.8339457196107704
0.8327640882097913
0.8353414507839023
0.8352454466636744
0.8382414645767335
0.8269129508800543
0.8319199447254405
0.9791343886636578
0.7983314901726909
0.8493176818787821
0.8428676222283489
0.859273942916547
0.8459267078865141
0.8294708022575061
0.8892527537860228
0.8052074723549777
0.7660361300651242
0.7907477089043099
0.808095184834262
0.8354803354437698
0.8358057719575295
0.852435688692775
0.8457088195576333
0.7656790987494383
0.6866035830973245
0.7972942509904064
0.7885271682878088
0.6999682800922566
0.9321802608693144
0.9279630359584334
0.9321564447495482
0.9224273402356511
0.8358489930386528
0.8915282616306259
0.7869518445526447
0.8862314922137094
0.8810227969294567
0.8452014353037536
0.82311813885326
0.869721110019552
0.9595638720968318
0.9574767182909375
0.9633758302091312
0.9622499431233602
0.9674971765082789
0.9688650709031378
0.9714150622574156
0.964563444513585
0.8317315237618278
0.913856282704186
0.8123615345680506
0.7722959479685273
0.7811566691586632
0.9566436226042029
0.9607984469881174
0.9533478924856952
0.8749796739595692
0.8905244725578636
0.8935359807280308
0.8979478434856966
0.826219024841449
0.8890343923803747
0.9383166320110752
0.9309831937838704
0.9116976158347099
0.9078742801876165
0.9134386137931825
0.7740585835717785
0.8559562057162118
0.8551597305465255
0.860143316742606
0.8614537282838906
0.9280153052047129
0.7913457914315842
0.7777740329136933
0.8139651482261699
0.8277508432094409
0.8395812679916893
0.9698365678550627
0.9764784947088107
0.8900671152777944
0.7938346055018014
0.7797542108251841
0.9479593704376486
0.9085608812111872
0.8763682794233164
0.8483678829766599
0.9180888105839302
0.940258761861346
0.943897696384704
0.8832323841688914
0.9057115366806621
0.9172300056319812
0.9571154718871882
0.8397598357566909
0.8669482458182773
0.8968861330556255
0.9018240178298419
0.9470068541709039
0.8173647242165756
0.8387930701671529
0.7591148402266557
0.7948219863942615
0.9486621252955462
0.7632340430545176
0.9253053629129518
0.9267782537661818
0.973285370409353
0.9739900458295548
0.9360399351868899
0.8840304440063276
0.8098435721759806
0.8947198338723342
0.8784979695618497
0.8353201916993089
0.8313499847696296
0.821533966549108
0.7649925015617856
0.7740908536989853
0.8780207343191446
0.8751966200486385
0.93302875513588
0.7558975982850089
0.7646232311194793
0.7605827994038162
0.9214368275193577
0.882627004043262
0.8910605687464269
0.8539072864119097
0.8620191182692452
0.8607136296742852
0.8570111111645285
0.8725037713656213
0.8504271076100401
0.8403633088368212
0.8323198971983777
0.821881486464584
0.833934262097453
0.8052939196599435
0.9178470276620854
0.8579636775881301
0.8683084363210501
0.9646195448513547
0.8510618180868369
0.8584889638431998
0.8495074151972496
0.8456201010113228
0.8518957766936288
0.8408931346352998
0.8407428123607186
0.7805807109894516
0.7782245828361706
0.771561094930974
0.7748680538331786
0.7813096685564447
0.776796255996785
0.784729349305559
0.8353545930489626
0.7812150492845684
0.7887623080831064
0.8475639410529109
0.7603769436674513
0.7928670669155949
0.7685469988357724
0.9338880983070671
0.9379640261849558
0.912367885043019
0.9178544242568117
0.8665263345588203
0.8105989325946086
0.7895081593026038
0.7643289928888832
0.7547715619291259
0.754790953127299
0.6890783711516368
0.6929349268343886
0.624732716280839
0.6480465962122336
0.6093410679522805
0.6375771250553087
0.6250361324846274
0.6463370977311255
0.6491434166397396
0.6622893995033924
0.6758920417839289
0.6800754761644797
0.6962035677217244
0.7000278891365423
0.716807192477674
0.7191540468859825
0.7356066358529315
0.7365231303791232
0.7522769649305467
0.7524437271936497
0.7361809399979617
0.7512914553625271
0.7699809703723861
0.6881949639762853
0.7541915530578289
0.7202191597253325
0.7035306420521781
0.6687007721942498
0.7373462820110739
0.7511938494435125
0.7651927704990292
0.7642204587101882
0.6663727068583687
0.6075417612050674
0.7223335160304984
0.599464692847386
0.7774441940872878
0.7755198390178639
0.76269539112924
0.7264184712010117
0.7122290200227438
0.779550600657497
0.790778406464667
0.793771957818661
0.7379359008408181
0.6796094105675211
0.7735665840044391
0.7626246461861353
0.7521919499613904
0.7522508571901616
0.944769542706548
0.9396845271776136
0.8092190677364592
0.9394316074810339
0.9458383776503538
0.8478900818233842
0.8539544755688617
0.7985992517780948
0.8909423739495274
0.7858423374085209
0.8218912764026927
0.8192992250678202
0.8212947416276156
0.8798607841741402
0.8346548573878452
0.8583841518983781
0.8566025932391322
0.8650640103763882
0.8551159576365875
0.870615065022454
0.8466204113076475
0.8735359152476105
0.8373002993842521
0.8415617535172149
0.842472186383369
0.8463715311899203
0.852512788115965
0.8480060872398548
0.8533697732942398
0.8489191618854087
0.8539668570561905
0.849676225752834
0.8545397674089115
0.8587694666952543
0.8584349030787337
0.8808197507739353
0.8756993983650971
0.8754174242636744
0.8706991689293198
0.7615934078006302
0.7429761555882225
0.7362378132518065
0.7321766389302504
0.7282261938130392
0.8859359372558048
0.887768636306893
0.8986732241253744
0.8456738798494956
0.8321622947776016
0.8290325809633687
0.8020900500176377
0.8392885212061691
0.8058247442637427
0.796432988684134
0.8048553167932933
0.7959825855843965
0.7806542188262684
0.7881837371222838
0.7718771159872477
0.776999519057451
0.7964333857789044
0.8845245228163217
0.7735190915447027
0.7553110382973982
0.802017742089373
0.811129139954182
0.83114342085782
0.9389907179890441
0.9399951362609326
0.9343386299699904
0.8864823544020635
0.8663446624887441
0.8176071093984779
0.6677336873625745
0.6685785976858554
0.7650996109049316
0.8269344640729185
0.8405184257420634
0.9366535018849266
0.9466357904884958
0.8631410137339885
0.866057608691722
0.8724864230962004
0.9015684160321304
0.8963534213893225
0.9033241856644868
0.8261809001148772
0.8319852925747898
0.8408999745794888
0.830498339032276
0.7627788634814245
0.8306087528746986
0.8311133751722144
0.9428329307102934
0.7309273528610495
0.7220580747268976
0.7228004606657561
0.716831194256919
0.7892476868865651
0.8089262270323516
0.8073998093895053
0.9249707311150679
0.8421604741408144
0.8878977487318299
0.8857521952201906
0.8759807400511942
0.871606438385268
0.8654945810547021
0.8698671210494364
0.8561635837838187
0.9194781205697254
0.921056247368542
0.9110639266849212
0.7838556462175301
0.7807653088053057
0.7644328133889721
0.7686748866306609
0.8627187643811974
0.8575945319404612
0.7610714592571597
0.8835780792687711
0.8712448842850152
0.8666061207106834
0.789121747385767
0.792775089037207
0.9170488785381462
0.7739808067545529
0.7760947611091666
0.9369832527675557
0.9673612095250889
0.7336874117424341
0.739009957093235
0.7797916201775255
0.9279104324873758
0.9293059532366194
0.8974142354115584
0.8529811492168476
0.9359247929573703
0.828429147514373
0.7746332732096097
0.8205935215965204
0.9136064182788426
0.8560294870204254
0.7591848424439467
0.8369671762087062
0.9370826564382468
0.9430897523973893
0.6840672283277195
0.9677815689526572
0.9707310457968268
0.8647281829359533
0.8707471596444945
0.8746432431616225
0.8775640778904421
0.8703326457684105
0.7079617565254552
0.701767544072703
0.7668757516958639
0.8928048636314222
0.857910221314426
0.8970887280604174
0.9527428180861025
0.9604179432672667
0.7171694254027144
0.7086188682134391
0.8039212088805473
0.7623883365407599
0.7576983324448444
0.9327544596086056
0.8121135942514708
0.7852741502590573
0.8403588676102488
0.9797350342471511
0.9796227281953677
0.7973873599266108
0.7933790089191328
0.8805638714092051
0.904300232290086
0.8499244283702151
0.8452847545249274
0.6444019555172497
0.9813265233860751
0.8429582219124746
0.7211278973821543
0.7319705865630327
0.7538211790369542
0.8396007563054488
0.8047649176801407
0.7965890038812539
0.8075771521960059
0.801410567263306
0.8107974292206999
0.804138089214511
0.7942494722207208
0.7947828778454109
0.7822231852364678
0.7869222817803188
0.8148782316968562
0.8592286166292961
0.8472009131175856
0.8388965624914816
0.6786856806617199
0.5290999660747029
0.5309791098858934
0.6656132191767187
0.5835083162469702
0.5676534763099028
0.5582084925005076
0.5222530775176201
0.7667256454343729
0.7595670575550288
0.8071300442381909
0.8050725885728782
0.8133793904707267
0.9720093462435399
0.97869555737481
0.8161019925307517
0.8181275098132286
0.8128706336698754
0.7282964347836647
0.4732782019645238
0.7989579605725091
0.7889368876337982
0.7759591202232538
0.7818212667895421
0.7642494031052735
0.828753769651761
0.8236328461378538
0.6193346036385584
0.9021824524562375
0.920979547572808
0.884260244468799
0.8292247121444323
0.7442424298865862
0.7498035105531131
0.7995757467895401
0.8007487625214057
0.9190736727088269
0.9116203672890442
0.8236565051634903
0.8830140837777783
0.8870999413079712
0.8960380639576088
0.8995757982394124
0.8184740258485533
0.8339315860552248
0.8184256063046393
0.8073195352384875
0.8662551495535233
0.86153876534322
0.9046061535829883
0.7649531752213589
0.7289428086497309
0.636388126577064
0.6646264008657163
0.6919470898535477
0.7015303608358011
0.7223960567516967
0.6762525725686039
0.7205578471891171
0.7435330501307766
0.7172902789120472
0.8606912775887472
0.7387197383322479
0.8060685136013046
0.8004081515110003
0.9014536589665404
0.905866911755239
0.6328619335437224
0.6449225042234581
0.8761608616037078
0.9703204954234725
0.9747657422021558
0.9783186405954077
0.9790500155287623
0.9820133801273632
0.9826128228836793
0.8077417632971852
0.8180367223812446
0.8202100652083317
0.8274364018707726
0.8278599373879686
0.832511042416518
0.8339214401633236
0.8322848805055278
0.8360571115382794
0.8307678666252412
0.8368791127675446
0.8384614961298504
0.8411186980765862
0.8454494713690379
0.8351508784024183
0.8166451191369567
0.8372881771640516
0.8151888287841814
0.828560838511813
0.8364818835666445
0.7092173798672186
0.7594593127599316
0.6838490189703401
0.6897272236996407
0.9020551985442032
0.8824764389557821
0.8359304832259216
0.8253710431238213
0.8293445416947012
0.8219347253868614
0.8266649179932948
0.822480111660158
0.8246599115154035
0.8202815129784315
0.7057355081190637
0.879323239997062
0.8083881392370157
0.8221490947366564
0.8636231409569224
0.861441942244092
0.8822908486727595
0.8487054652567521
0.7229720494361238
0.7251045551521018
0.7326645894565192
0.7355755149655994
0.7416068593052643
0.7383481440922194
0.8800685994976255
0.7601618556683494
0.7593289076136261
0.604186297624755
0.8300057396265665
0.9753783027275348
0.8622337628252535
0.7257832729086814
0.8373189434946204
0.8396043506431531
0.9777713553440742
0.8083264863978643
0.8023536120330387
0.8048295210393156
0.7992216823788872
0.8019390661162598
0.7973539626688239
0.7943626241092675
0.7977847458104975
0.8181993860757173
0.7990900982340636
0.7991545817113787
0.8087589136352654
0.794720112193741
0.911797237936288
0.9655007620339392
0.7933864719495778
0.7759895681008169
0.792452463677947
0.8014451998349934
0.7171549452415735
0.7010402616189644
0.7154672791128145
0.699710759430294
0.6851038001306661
0.6816014203665428
0.6938862839076306
0.7395017822425952
0.7901674036395833
0.7130595580975189
0.8899666069633904
0.8036870256770433
0.8839737631905503
0.7512782669244938
0.8950642028085467
0.8639446713360504
0.8705971714741371
0.7932062925240694
0.8381098557955972
0.8355993118620804
0.8152511317148549
0.8061933553823412
0.7747858379438276
0.7468065476716355
0.9681140599196779
0.9530855758170733
0.9835783573031989
0.7151953898603897
0.8718630097812591
0.886531067736328
0.901606804507777
0.9339507911512361
0.7899355392272019
0.8215717988956278
0.8577559369302918
0.7591349612016888
0.763444737977842
0.7611143449035487
0.7611130839517659
0.8295000012795458
0.839091149480827
0.7661164786862823
0.7824105823384242
0.878223118889657
0.8998265039242663
0.7779658987145811
0.8129497215919566
0.8061919106788364
0.8515521580525759
0.8271037627425029
0.8916517133919883
0.7538388464668766
0.6669224098525267
0.8841520007594734
0.7751276283245746
0.9222977085567419
0.8327550214313606
0.8240730175942168
0.8282488950003757
0.8204733862171907
0.8125546829257861
0.7817336539673826
0.7539973422209831
0.7685922163937894
0.7880239933441946
0.7856807195827075
0.792747866632777
0.9429428050754164
0.9360721238874993
0.9351684441846321
0.9320399288958692
0.9261844673163514
0.9281669296676142
0.9344708271569054
0.9028365744968504
0.7796851149236484
0.7630627179168814
0.7678660725684919
0.8833034722425147
0.9100562738866291
0.8631830062214894
0.8308861105671826
0.8540552880369161
0.8505840721645636
0.8483405358932922
0.8604270738278181
0.8208341391325098
0.7575184275256598
0.7508268362308705
0.8117790078570513
0.80716163952346
0.7874006463470213
0.8097786896050952
0.8059620058086172
0.7981395819549082
0.800471241895949
0.6550841320703275
0.5326179403278808
0.9798319225602213
0.9825431494321542
0.9816142051261377
0.9841254925239111
0.8348524882459767
0.927828966030815
0.6598687204211958
0.6969036293321097
0.7721536715573154
0.7720935532309329
0.7825014900171904
0.7945079795410972
0.7892950082957885
0.7073013152111169
0.8110408470082844
0.881986445297559
0.9837002966643218
0.8199810164652145
0.8224903957493712
0.8280344037060404
0.9609228479930755
0.884710605847186
0.8870262711770701
0.8808037943659875
0.8034014918215475
0.7976770196655611
0.7909730629976683
0.7937378415340051
0.7573957071660149
0.761200453175559
0.7466020141481738
0.9872702109874071
0.9528497166265457
0.9504240457864026
0.9574513330491818
0.9536796777332707
0.9601196016102995
0.9580687628649494
0.9644935747379557
0.7516022658026189
0.7453846229864567
0.9183462963157095
0.9626778228408056
0.8704556218506959
0.9496342343297806
0.9547680314444945
0.9274505783491586
0.8748302536149654
0.8706023034809414
0.8486872263502286
0.7742456545043048
0.8491299517097466
0.9397955805126507
0.8302043900519993
0.8330936002118816
0.8382154427443064
0.8279965674979995
0.8341286554614434
0.8367397432763669
0.8326882889537941
0.827678838506816
0.8894598118619433
0.8375838227261204
0.8379457165806852
0.9179090049197484
0.8994451630133601
0.7958136504954596
0.7470535892771013
0.7633564778170896
0.8197226582865442
0.7843133994847714
0.7887047242764649
0.7989061151423111
0.9223311085146302
0.926733939256137
0.9279831078615157
0.9274104169756295
0.9498572181520896
0.788218534667969
0.9053331481309105
0.8562760187665491
0.9333279327691172
0.859843553921103
0.7894699333382521
0.8630427577333002
0.7586988902456829
0.8620350349133219
0.869001243167309
0.8456582766950679
0.8716374495027863
0.9089264735183296
0.9083001869694549
0.914638819274078
0.8392775630275396
0.883482500825575
0.8288084057989935
0.8394010964075418
0.8444389353320617
0.7461157589987025
0.8275321152982492
0.9780976607484333
0.8420532461521849
0.9088388782142645
0.9071139505967106
0.9121184931103179
0.9049045407259685
0.9097124000070835
0.9190954391676337
0.8833532492442164
0.8627312508591805
0.860374263061684
0.897157119899545
0.8423449236226384
0.9527509773792738
0.8797069043973205
0.9006629076369522
0.9821597638299284
0.855919825273539
0.8116393306644825
0.8886858882680297
0.7839932101650462
0.4487587800099036
0.9699348364925287
0.8261061243743796
0.8320485489574451
0.8487019838596281
0.8078524961522762
0.8241621431628352
0.7945004888557016
0.8409929332468251
0.8805259665193444
0.8577981914954202
0.8241622786643588
0.8756768046695571
0.8617925549641798
0.8592352877741679
0.8806598447675243
0.9110818694249739
0.8113405106810477
0.8913425382528252
0.8860493328910861
0.880510067306354
0.877934932920567
0.8654844975016747
0.7763879538642102
0.8498366121723795
0.7510028177017297
0.8323919019578472
0.7954120561012711
0.8871152492678189
0.8550696846638702
0.8809984488670253
0.8749863833781266
0.9022018145948612
0.9140314733188377
0.7834152215437756
0.6800233032998008
0.835744943286237
0.8825193235070485
0.7683679299325016
0.8550991681076944
0.9311705751936754
0.8164188141648551
0.8496723723474979
0.8539759083749437
0.8042089174073478
0.950666142063622
0.769467997321712
0.8276529606071887
0.8750276790409105
0.8760620198152386
0.9387842656874966
0.9316396904272257
0.9219649075681114
0.861560309110234
0.968044225695901
0.9835611302133961
0.9085665592888961
0.9300016520993543
0.9898410353931243
0.9853696820815993
0.8598945175249892
0.8365886033170972
0.974986039723394
0.8623625489227638
0.8354374344767329
0.8221553546678003
0.9401146280373412
0.9474016829608418
0.8427474502004094
0.8968241906131388
0.9108057435533592
0.8146550902144428
0.7704704932703568
0.8607768915970676
0.7878652827085237
0.6620452686404202
0.8584361390641825
0.9024252019590681
0.7001919805593224
0.7010022207544852
0.8852911053134181
0.8562797935316441
0.8941340109898109
0.8306350470876831
0.9377771385390852
0.7403884096364054
0.6738895279305217
0.7568213264050089
0.8708436799431196
0.8879984751431054
0.7971514483029802
0.5323138042494815
0.9644700934522916
0.9505176454397533
0.8319971099414728
0.9225455382133684
0.8630959379587706
0.9199901132057354
0.9282778949623279
0.9173494545305142
0.8080060207315061
0.8166347461550625
0.9621828039082133
0.9026249035234454
0.9091376843512851
0.8410291994077186
0.9616348277058615
0.8720748557355538
0.8465459416246346
0.7991931216818206
0.7653579002400803
0.8436250206102831
0.8143392556289155
0.9029623595800993
0.8221419819890402
0.765069580369449
0.9549161407098028
0.8296338677027679
0.8237094014658893
0.9494720345209954
0.9066668208522167
0.9366525864172803
0.9650722548586416
0.8435149291656733
0.6160292582507543
0.8722115081905736
0.9103157039864308
0.9153927490017832
0.7791340175582553
0.8425104590062776
0.8434374120582058
0.6955135934295458
0.9291791114727946
0.8115400226884247
0.7681332805039544
0.8539533250613178
0.7501090887166695
0.7701660513500374
0.7857439718769559
0.903837600679409
0.8240189759427594
0.9086658078172475
0.8358162632409185
0.9492856591953331
0.9336647685169848
0.8280656170145851
0.9423232300890368
0.9015160423463298
0.8351129936526408
0.780972005045042
0.8045004374022606
0.8424284814957635
0.8175477063821571
0.9138074223823995
0.9543908287017464
0.6259829275922715
0.6589275059009984
0.6804291131611357
0.731781756986389
0.7025937523299512
0.8258552298678068
0.8628241321097536
0.8849089682911914
0.7626973989118555
0.7774384882151177
0.7571670902383452
0.785056342503317
0.8569584065513545
0.8748535954675585
0.8414770166230254
0.8617863048473774
0.8441616726208331
0.7527236017376007
0.728692719424453
0.816778263958253
0.8302430799338866
0.9694017925665191
0.7409440485300582
0.9752599866439116
0.7773490018677365
0.9262803198466406
0.8416888666417602
0.9518796501971537
0.826363766015558
0.8048080344119811
0.7735143239933315
0.8636025804120508
0.8876514726563596
0.8670938317461172
0.9313822356442667
0.8282379668733314
0.8055383714428269
0.9040543270361884
0.9481412495979726
0.7605295754669702
0.8821214726146591
0.814249612120186
0.9263960460133838
0.8581226425431862
0.8589168582984084
0.758252413155949
0.8331483920042957
0.3113234003952467
0.8370166829085616
0.8325886527676871
0.7983509468032729
0.7866560915812312
0.9129113609600003
0.9409097584329709
0.7874278306998316
0.7474994218986845
0.9486094981859088
0.7519258861925451
0.865172476871009
0.7764684010071162
0.8251738725254738
0.8111940047777249
0.8427023903932956
0.8720181691721558
0.7949602201865539
0.7892831097686991
0.7351062999066745
0.7500393426535942
0.8791726570960784
0.9291339216842672
0.804775439545025
0.7970878150689514
0.720499493673181
0.9173607581883839
0.8581106234407606
0.7581912412098888
0.8454950329147995
0.8146652524092359
0.8648260114861955
0.8730903273357031
0.8836988614795053
0.8530358696947176
0.8724437720061398
0.8420979091524211
0.8774389250944175
0.8462353261954889
0.6747967212790054
0.7613083394746174
0.8223256749019846
0.8612438516141195
0.7563923712264974
0.9231383314191927
0.8439454477565509
0.8329649640195124
0.874992082226932
0.8696065232979402
0.7392556530715475
0.8616164766616383
0.8500736139146282
0.8798627172606115
0.7533700790618012
0.7997044703579964
0.6152136027141216
0.8696127109680994
0.9212394890746514
0.7682661411717816
0.8806115986482793
0.7939562291879904
0.910540306466124
0.7539034349297261
0.7951734420326149
0.7692988829217107
0.8982760533804218
0.8682432059880735
0.8951394079173258
0.8564272335804507
0.8570324325975195
0.8001277478553741
0.8393150127051722
0.7395392505132413
0.908616927005389
0.9323979708174965
0.8100314552920241
0.8414300931649032
0.8694727776813306
0.8316639571303508
0.7689865524042232
0.9858953152681541
0.7646448308170725
0.8747978514870005
0.7530501488336765
0.8624774981078724
0.8408525271027489
0.8060159928160855
0.896253078482833
0.6188604410840959
0.7451956611085117
0.9351747430292592
0.9048760917732636
0.8310799474934137
0.8477660994062416
0.8052418834006966
0.8665446030028461
0.7293947795515038
0.8151357135855475
0.8709758273323667
0.8821907063355958
0.8393756018703793
0.7667300040295048
0.7133940036686258
0.9276656660668045
0.9356518224928994
0.7411767816381246
0.8272217966300277
0.8475578003771518
0.679240632977998
0.7826441481287063
0.6701132905959807
0.6263288007060135
0.7991022427594618
0.8504542108822645
0.809830169875922
0.9588800999993624
0.755199478577309
0.9848757629904122
0.7617047846561266
0.8427517071102693
0.8643642193657992
0.7526887363759437
0.7356885845273647
0.7502546354792292
0.8095731339759451
0.9077542111855729
0.861226774230537
0.8469196288782046
0.8189455031416614
0.8424480257596807
0.8403686590362534
0.8909854919269239
0.5836888073053637
0.771856306253478
0.830631934458607
0.7380014154239647
0.8175100680852821
0.8806262305671939
0.8836692626357722
0.8247509691174887
0.857371558602875
0.8764417747611594
0.789569136599955
0.8059259996006216
0.7937415704700931
0.7776456312379662
0.9248649498909317
0.8709916849915432
0.745660313130638
0.7916346268645459
0.7746119302917028
0.789150145845242
0.8428009646110406
0.8612178755707081
0.7523347556689336
0.8687774408538165
0.8456116305640704
0.9518157311039025
0.9243061954638008
0.6836522981452049
0.8647105596166867
0.819304406857655
0.7435286786382767
0.9322411604145213
0.8248266253634793
0.8574720794669202
0.8963524851999951
0.5734772383719878
0.8725050137153325
0.9578937693718087
0.7964510293146595
0.9879112226362825
0.7488307591133
0.9317554561122071
0.8575935571420794
0.8771296743170226
0.7885260338147914
0.5693091287413623
0.7048718439670956
0.8894842722694606
0.8279085495578471
0.7643973553790169
0.8188140490435765
0.8233899478653652
0.7634891726051021
0.9561085580501472
0.9063359977373789
0.8003691049412391
0.944259176882027
0.842979943420343
0.7939584957156434
0.8768088879748526
0.9340183554432274
0.8534730320712947
0.8315783874071284
0.805560042442441
0.7945973625157274
0.9849505411554828
0.8112368412529991
0.808766563275973
0.7691779270415693
0.8013055161794402
0.7913283766735024
0.85809924402122
0.8025310794624315
0.7247717518145528
0.8877414697212009
0.9235855129736958
0.9343867041375872
0.8480901812365208
0.9812630001772127
0.8841780727994559
0.8370556130183308
0.7848563603441793
0.7450106372164198
0.7510928119334868
0.6517812231486881
0.8262938183862244
0.8143848382353214
0.7473694037149856
0.6025400016837871
0.776225969107998
0.7419982895035924
0.8528981466304967
0.7672852086937063
0.868733316406023
0.9347197202448941
0.7621697123833724
0.7082358781738234
0.8182535594282252
0.6494560970349799
0.8052647768435822
0.6709365160745535
0.8407575583649053
0.8823048632585854
0.6910745447013775
0.8463412256277504
0.9007252063090411
0.8857190147293889
0.8851890947252116
0.9260544910601446
0.9253454571551588
0.9263652543863634
0.8499574296048452
0.7728064062520283
0.8459668996802223
0.8534469587180735
0.8266451762443069
0.9483416866119571
0.7618402766759071
0.7570113137033782
0.8233902392656473
0.7712763377301104
0.8576821954470526
0.9940384230912629
0.9961241146331378
0.8564466370081223
0.7441578849422009
0.8549476566449861
0.950674474486304
0.9897321401796607
0.8061760525314345
0.8127782862553509
0.7623945320876213
0.8048697193964643
0.8427772418571767
0.8101899459986516
0.7698871120981562
0.7928252615775337
0.7406765958658464
0.8493048196676528
0.8828524299026059
0.8225507927675032
0.7536916017769598
0.76656756992888
0.9456642350629569
0.8177959480064225
0.8688279996004491
0.8407212838264194
0.8096447342135747
0.7756746740719487
0.7585767943563084
0.8350925423270943
0.6878309367196501
0.8356255667813567
0.8627620138452927
0.9337944097832509
0.8040174096789056
0.8675496297029933
0.808821980292177
0.8636084444219522
0.7574976488879419
0.8624203095666021
0.8132332170360187
0.923908361018844
0.8182454529019085
0.8150592678325111
0.8971816676713882
0.8165185653810737
0.8370686382654869
0.820544333796093
0.7106719814820571
0.9416335309389999
0.8184419837793075
0.8432778301681865
0.7718268494078059
0.9821231339294629
0.8868647688398912
0.6960469018260553
0.8432169667434889
0.9583905654917846
0.8644961695559202
0.8844141674893989
0.7686539761033852
0.9434439536603654
0.802276984764602
0.8142594977019276
0.6964013475966015
0.8952930697946697
0.8981813706852136
0.8595358956034591
0.9473029345239773
0.8720508710052692
0.8416023173059546
0.9567828235891975
0.9339548809701338
0.7509069153405978
0.8236435790869973
0.9122134224125017
0.904926599778407
0.979599838476943
0.6854199951486438
0.85310468487158
0.6933079599401633
0.795700060562929
0.8732450615136251
0.8076549748426909
0.7159796321195745
0.857651578858543
0.8490115777673483
0.7974366730638993
0.7663175766934879
0.9159622953891882
0.8215183267789855
0.7739283851534383
0.8062671564372793
0.8573829471680534
0.9148419606185233
0.782396691182978
0.8357629089013514
0.7020043814969524
0.9331707555610592
0.8367732747793095
0.7931044282475216
0.8093149784335353
0.8920916094725959
0.8544283593447516
0.7615782367810991
0.8304279048825532
0.8820977387552841
0.8387411994673237
0.7986995080773237
0.8416311547435599
0.8100259764277629
0.7599816488415556
0.9295492035556653
0.9733661045551923
0.8527236512368136
0.8684806133321666
0.8771446987661505
0.8414155992152205
0.9659284663551542
0.892853000494856
0.8374104088499051
0.7928277316386456
0.852261614844998
0.7922483261245633
0.8335975786827731
0.7977360132048524
0.8657534617082013
0.8413580797190796
0.7972253331637696
0.8495861776503998
0.9278869952566128
0.8272449188034287
0.8269384736431475
0.8189689242303745
0.9040868933207292
0.794172367241374
0.8023598509020154
0.823495736708493
0.5965808001446384
0.800395413936663
0.8290631156365896
0.6552075266211306
0.4597233565577866
0.5641911368593906
0.7474874854314234
0.737294574242239
0.8915791733662586
0.8379600503435963
0.9448452769039132
0.801044156158803
0.74625158362119
0.7740760647566567
0.9717523352439746
0.8249651439795934
0.8116434520014478
0.8781096438989023
0.8371708580589112
0.7047544543793017
0.9297232782928057
0.7879334913015974
0.8419980836220365
0.8028554266869148
0.7947648038909783
0.9654686220448451
0.7686041808548323
0.8211566752014826
0.7617183301735723
0.803252608003998
0.886182050266024
0.9279507196390567
0.9853299659563549
0.9391060123714827
0.8146649716183508
0.8243886316433161
0.7081707806079639
0.8863531126847436
0.8070968880083552
0.7315527856257367
0.8098170243468215
0.7803894962816302
0.9075911434273766
0.8078367464917723
0.7498286152232865
0.7505689204366173
0.7407538729740604
0.9082890417306567
0.8127338195422374
0.7167421172175202
0.8218455808200763
0.9952428409485412
0.8892274756940063
0.7970356895116204
0.7278993729208657
0.8232029355647128
0.9646521160270312
0.8068967702211274
0.8108322443556617
0.9235748936801075
0.8765471210901252
0.8798398584085658
0.7704572753524256
0.867398558260586
0.9821069504204527
0.833353741263016
0.9267466419443295
0.6901516197730676
0.9769054959615934
0.6737086025385716
0.7365914029495065
0.7132961301718009
0.8466012467253291
0.8801827392685367
0.623395396228991
0.8328258389194871
0.9765320812503836
0.9454455207593613
0.7930548362609098
0.8970936666042298
0.8367425727502319
0.9431818150890386
0.8098640361550283
0.4184397705402298
0.8219633565740059
0.7901578364506645
0.9892300434370267
0.9042636521632849
0.802903705790639
0.8925459674116155
0.9902882671770332
0.7590759760274264
0.8897303969908297
0.7681494055413812
0.7197159407003816
0.9772880560472845
0.7921081839246347
0.9450590190868144
CELL_DATA 4886
TENSORS stress float
-1.1968570882789154e7 1.565169082387761e6 0.0
1.565169082387761e6 1.7692727018963933e7 0.0
0.0 0.0 0.0

-1.4371215841798864e7 3.104059114600318e6 0.0
3.104059114600318e6 7.335591712637892e6 0.0
0.0 0.0 0.0

-6.907743405391494e6 1.5247270023655295e7 0.0
1.5247270023655295e7 3.5606618619804443e6 0.0
0.0 0.0 0.0

-5.869356425312272e6 1.4552499377124928e7 0.0
1.4552499377124928e7 7.562363590496702e6 0.0
0.0 0.0 0.0

-5.005179449683675e6 1.5651337818399128e7 0.0
1.5651337818399128e7 1.8292487171816204e6 0.0
0.0 0.0 0.0

1.642542973132818e6 4.0952857126374766e6 0.0
4.0952857126374766e6 -4.9187163758919565e6 0.0
0.0 0.0 0.0

1.9193838158361845e7 1.3713475523586418e7 0.0
1.3713475523586418e7 3.7200967995845773e6 0.0
0.0 0.0 0.0

5.821278560753439e6 5.082596757230757e6 0.0
5.082596757230757e6 -1.9074006558182143e7 0.0
0.0 0.0 0.0

-1.2031222280681888e7 3.195491817362384e6 0.0
3.195491817362384e6 1.885487447032246e7 0.0
0.0 0.0 0.0

-2.1849791734024286e6 1.38959254580282e7 0.0
1.38959254580282e7 6.79242226190986e6 0.0
0.0 0.0 0.0

-2.3453777749570822e6 1.332366497393487e7 0.0
1.332366497393487e7 -2.87236788230945e6 0.0
0.0 0.0 0.0

-6.013998994739519e6 1.867065144522323e7 0.0
1.867065144522323e7 3.724526847029919e6 0.0
0.0 0.0 0.0

4.335228870882819e6 8.130040516700861e6 0.0
8.130040516700861e6 -1.8235567020822387e7 0.0
0.0 0.0 0.0

3.2370894763457138e7 1.6179844149954377e7 0.0
1.6179844149954377e7 3.634611505860772e6 0.0
0.0 0.0 0.0

-2.5120479590285863e6 1.3662853565877723e7 0.0
1.3662853565877723e7 -2.9567275031134365e6 0.0
0.0 0.0 0.0

3.446060272634528e6 4.981344917727448e6 0.0
4.981344917727448e6 -9.845192750839585e6 0.0
0.0 0.0 0.0

85877.04049785994 1.1575216448159806e7 0.0
1.1575216448159806e7 -1.1648547308116533e7 0.0
0.0 0.0 0.0

2.1222948403629055e6 1.0385767136568286e7 0.0
1.0385767136568286e7 -1.4294228863654507e7 0.0
0.0 0.0 0.0

-6.439448804981424e6 -1.119172429069867e6 0.0
-1.119172429069867e6 8.863133545094281e6 0.0
0.0 0.0 0.0

-3.674943699552377e6 1.5127190209348802e7 0.0
1.5127190209348802e7 -2.0980232074811617e6 0.0
0.0 0.0 0.0

2.3799140141790546e6 8.676125914407969e6 0.0
8.676125914407969e6 -1.0090366190769367e7 0.0
0.0 0.0 0.0

-5.373916701988232e6 1.8578455614842992e7 0.0
1.8578455614842992e7 3.440393056822034e6 0.0
0.0 0.0 0.0

-3.5269655644938825e6 5.68051535279212e6 0.0
5.68051535279212e6 3.6108972287622374e6 0.0
0.0 0.0 0.0

-5.979515125961141e6 1.4882625959992822e7 0.0
1.4882625959992822e7 1.5816570484233494e6 0.0
0.0 0.0 0.0

2.7538412954582665e6 9.769409256317746e6 0.0
9.769409256317746e6 -1.7239221357906856e7 0.0
0.0 0.0 0.0

1.5709410170908826e6 2.36020319490733e7 0.0
2.36020319490733e7 -9.316740588508714e6 0.0
0.0 0.0 0.0

1.247048466172626e7 1.3603596358916895e7 0.0
1.3603596358916895e7 2.7610045187221887e6 0.0
0.0 0.0 0.0

-1.1629172818192014e7 8.376414245378594e6 0.0
8.376414245378594e6 1.3857396943313561e7 0.0
0.0 0.0 0.0

3.719832667502155e6 5.137718807149629e6 0.0
5.137718807149629e6 -9.590357553663805e6 0.0
0.0 0.0 0.0

-1.0388296639326452e6 3.2345901729036653e6 0.0
3.2345901729036653e6 377655.69321013003 0.0
0.0 0.0 0.0

-4.649492968572827e6 6.159317300136324e6 0.0
6.159317300136324e6 2.911310315287648e6 0.0
0.0 0.0 0.0

1.1936546563470834e6 7.015082643184002e6 0.0
7.015082643184002e6 -5.708033893815379e6 0.0
0.0 0.0 0.0

-1.454189146359218e6 1.1900104569363136e7 0.0
1.1900104569363136e7 4.0203492534585516e6 0.0
0.0 0.0 0.0

-213751.11672533146 1.2972114942061327e7 0.0
1.2972114942061327e7 -909094.6787488563 0.0
0.0 0.0 0.0

-6.11769053386857e6 1.4376579310749916e7 0.0
1.4376579310749916e7 4.354073594997344e6 0.0
0.0 0.0 0.0

-3.3278201129844757e6 5.670934507068904e6 0.0
5.670934507068904e6 1.27094962860319e6 0.0
0.0 0.0 0.0

12286.526052253088 9.011249095710812e6 0.0
9.011249095710812e6 -4.5780892384370295e6 0.0
0.0 0.0 0.0

-5.513734524588901e6 1.4315365640192857e7 0.0
1.4315365640192857e7 4.337376795658848e6 0.0
0.0 0.0 0.0

305421.04875563737 1.1502809436932884e7 0.0
1.1502809436932884e7 -1.6252329810038438e7 0.0
0.0 0.0 0.0

-5.884421211737557e6 1.6832050209714267e7 0.0
1.6832050209714267e7 4.1648011151459157e6 0.0
0.0 0.0 0.0

3.8717208879093817e6 8.300574571485623e6 0.0
8.300574571485623e6 -1.9766422327034753e7 0.0
0.0 0.0 0.0

-8.142261503842518e6 1.6036231986137051e7 0.0
1.6036231986137051e7 3.0855617687744056e6 0.0
0.0 0.0 0.0

-5.803236247560468e6 1.642987391239567e7 0.0
1.642987391239567e7 3.8619634067631704e6 0.0
0.0 0.0 0.0

-8.429546451542033e6 1.7486588440239427e6 0.0
1.7486588440239427e6 1.12420303140042e7 0.0
0.0 0.0 0.0

2.11691766780689e6 8.671249816051617e6 0.0
8.671249816051617e6 -1.101947876487326e7 0.0
0.0 0.0 0.0

-9.866369944994122e6 9.903549097451277e6 0.0
9.903549097451277e6 1.306911767458633e7 0.0
0.0 0.0 0.0

-1.0830557598394803e6 1.3600759394726653e7 0.0
1.3600759394726653e7 -6.177168012033099e6 0.0
0.0 0.0 0.0

-191270.30860705092 8.746529843982438e6 0.0
8.746529843982438e6 -5.0434519009129815e6 0.0
0.0 0.0 0.0

5.338150538414951e6 5.113187984049233e6 0.0
5.113187984049233e6 -1.6408282109336015e7 0.0
0.0 0.0 0.0

884326.1945301682 1.2045591982430413e7 0.0
1.2045591982430413e7 2.9477542765603526e6 0.0
0.0 0.0 0.0

-4.792471266879973e6 1.6332834279062077e7 0.0
1.6332834279062077e7 2.669029951073326e6 0.0
0.0 0.0 0.0

-8.372038991013046e6 810644.1653025311 0.0
810644.1653025311 6.5447219715921385e6 0.0
0.0 0.0 0.0

5.429583137970604e6 5.074338312157079e6 0.0
5.074338312157079e6 -1.6700432450623527e7 0.0
0.0 0.0 0.0

-4.661067643777305e6 1.5283518990121862e7 0.0
1.5283518990121862e7 2.632947902669224e6 0.0
0.0 0.0 0.0

373768.22118144145 1.2636123098832473e7 0.0
1.2636123098832473e7 4.0378456452441653e6 0.0
0.0 0.0 0.0

-5.517626327148951e6 1.5429735665674241e7 0.0
1.5429735665674241e7 4.540964629443002e6 0.0
0.0 0.0 0.0

5.794457786925203e6 5.34147321061893e6 0.0
5.34147321061893e6 -2.0383467539603032e7 0.0
0.0 0.0 0.0

-5.58500776474779e6 1.697900273639768e7 0.0
1.697900273639768e7 4.39313820100935e6 0.0
0.0 0.0 0.0

-2.1765850111444555e6 1.399499126489283e7 0.0
1.399499126489283e7 1.2590936170956042e7 0.0
0.0 0.0 0.0

3.073172799093129e6 8.208094114979165e6 0.0
8.208094114979165e6 -1.2155302728223123e7 0.0
0.0 0.0 0.0

382681.51005667634 1.005342465965836e7 0.0
1.005342465965836e7 -7.556875647950881e6 0.0
0.0 0.0 0.0

9.03993929399965e6 1.309791093853565e7 0.0
1.309791093853565e7 -8.582913604971852e6 0.0
0.0 0.0 0.0

-1.9289941996381949e6 1.2998230390522007e7 0.0
1.2998230390522007e7 -4.293132093758284e6 0.0
0.0 0.0 0.0

-1.6146246119130536e6 4.091997304871302e6 0.0
4.091997304871302e6 508986.1114467599 0.0
0.0 0.0 0.0

642168.2212348739 5.654566929981695e6 0.0
5.654566929981695e6 -3.5382763066450395e6 0.0
0.0 0.0 0.0

4.988378180176978e6 5.666675556542438e6 0.0
5.666675556542438e6 -1.6184193607935907e7 0.0
0.0 0.0 0.0

4.762148430686134e6 7.423171588791252e6 0.0
7.423171588791252e6 -1.8141360907671414e7 0.0
0.0 0.0 0.0

-5.1268118184795845e6 1.4952181837417353e7 0.0
1.4952181837417353e7 2.0493324361923554e6 0.0
0.0 0.0 0.0

-3.660733043914669e6 1.3871489601831e7 0.0
1.3871489601831e7 1.0487227755930714e7 0.0
0.0 0.0 0.0

7.252876550908974e6 1.2787079682193229e7 0.0
1.2787079682193229e7 3.251407124237205e6 0.0
0.0 0.0 0.0

-9.636192707586389e6 2.182398751349993e6 0.0
2.182398751349993e6 1.056784745472505e7 0.0
0.0 0.0 0.0

3.109290925822717e6 9.624517181527182e6 0.0
9.624517181527182e6 -1.6137948735185578e7 0.0
0.0 0.0 0.0

103328.80889487546 1.164022526281217e7 0.0
1.164022526281217e7 -1.5746428698574942e7 0.0
0.0 0.0 0.0

-3.1360976107604178e6 1.3337315705932166e7 0.0
1.3337315705932166e7 2.0327062253851227e7 0.0
0.0 0.0 0.0

-6.535886405040726e6 1.4557754418139515e7 0.0
1.4557754418139515e7 8.036231923504777e6 0.0
0.0 0.0 0.0

-1.002239708073653e7 9.85087703830531e6 0.0
9.85087703830531e6 1.2443368478553437e7 0.0
0.0 0.0 0.0

-7.9976078597408775e6 7.011094004985638e6 0.0
7.011094004985638e6 9.371477039676024e6 0.0
0.0 0.0 0.0

455220.5895987316 1.135878824946208e7 0.0
1.135878824946208e7 -1.1411753627058677e7 0.0
0.0 0.0 0.0

751415.5363324941 1.1634810164733332e7 0.0
1.1634810164733332e7 -7.984932914148886e6 0.0
0.0 0.0 0.0

962144.816385922 1.0066587491040338e7 0.0
1.0066587491040338e7 -8.965894602603946e6 0.0
0.0 0.0 0.0

4.698578166946903e6 1.6337597141338328e7 0.0
1.6337597141338328e7 -7.038946012518322e6 0.0
0.0 0.0 0.0

-7.230671025079195e6 -5.882694575140781e6 0.0
-5.882694575140781e6 1.1222891115398927e7 0.0
0.0 0.0 0.0

1.5893513732647188e6 1.1060192156839546e7 0.0
1.1060192156839546e7 -3.7289366231733626e6 0.0
0.0 0.0 0.0

-6.144748453287459e6 1.947189262878546e7 0.0
1.947189262878546e7 3.0376531543544726e6 0.0
0.0 0.0 0.0

-5.85694745312391e6 1.456601728434187e7 0.0
1.456601728434187e7 7.581310351873225e6 0.0
0.0 0.0 0.0

4.29661279644488e6 5.709460702197454e6 0.0
5.709460702197454e6 -1.1770004681746772e7 0.0
0.0 0.0 0.0

1.102159045605185e6 6.506618386316919e6 0.0
6.506618386316919e6 -6.317352542631628e6 0.0
0.0 0.0 0.0

-928664.3562221192 1.1012092413299963e7 0.0
1.1012092413299963e7 3.559883409767474e6 0.0
0.0 0.0 0.0

-3.345800534233171e6 2.5442437755122066e7 0.0
2.5442437755122066e7 -1.2202137673372345e7 0.0
0.0 0.0 0.0

-1.2914955671296054e7 3.0599140134761175e6 0.0
3.0599140134761175e6 2.28872290200827e7 0.0
0.0 0.0 0.0

1.1980123637245297e6 1.2756925383622613e7 0.0
1.2756925383622613e7 -6.470801034617169e6 0.0
0.0 0.0 0.0

610083.9454417657 1.1770774764574183e7 0.0
1.1770774764574183e7 -9.139793010935817e6 0.0
0.0 0.0 0.0

42222.44689669367 8.130903456247203e6 0.0
8.130903456247203e6 -4.989861366920538e6 0.0
0.0 0.0 0.0

346752.0521754287 5.1056960300449375e6 0.0
5.1056960300449375e6 -4.305350204062834e6 0.0
0.0 0.0 0.0

882773.0944874701 1.3831309695965592e7 0.0
1.3831309695965592e7 -5.135043319324303e6 0.0
0.0 0.0 0.0

145968.4680666756 1.164578523590184e7 0.0
1.164578523590184e7 -1.3926076780990787e7 0.0
0.0 0.0 0.0

5.660689231860505e6 5.037720211003185e6 0.0
5.037720211003185e6 -1.8794580678860858e7 0.0
0.0 0.0 0.0

-6.735183609432405e6 1.4735070702557618e7 0.0
1.4735070702557618e7 7.52432271760219e6 0.0
0.0 0.0 0.0

3.848245638969494e6 7.830635847785351e6 0.0
7.830635847785351e6 -1.5423663443781786e7 0.0
0.0 0.0 0.0

5.919159100141045e6 5.419382246168008e6 0.0
5.419382246168008e6 -2.0953542799467403e7 0.0
0.0 0.0 0.0

-3.817471346103462e6 1.3721967377230512e7 0.0
1.3721967377230512e7 5.8268458198951e6 0.0
0.0 0.0 0.0

-3.834226339547188e6 1.0992614209279556e7 0.0
1.0992614209279556e7 -2.616439190108742e6 0.0
0.0 0.0 0.0

-4.746733185820901e6 4.992889129544566e6 0.0
4.992889129544566e6 5.352863895885851e6 0.0
0.0 0.0 0.0

-5.0245775343244085e6 1.608063077583012e7 0.0
1.608063077583012e7 3.2984817684657695e6 0.0
0.0 0.0 0.0

223575.08042542334 8.231120390569879e6 0.0
8.231120390569879e6 -3.9657996546407673e6 0.0
0.0 0.0 0.0

-3.9009880862046084e6 8.988723813238751e6 0.0
8.988723813238751e6 2.5737669843405467e6 0.0
0.0 0.0 0.0

-7.648868993724573e6 -4.865744757011668e6 0.0
-4.865744757011668e6 1.3684210779099407e7 0.0
0.0 0.0 0.0

1.1328001956650666e6 1.0110462241765438e7 0.0
1.0110462241765438e7 -8.39165858715063e6 0.0
0.0 0.0 0.0

-5.446104034305089e6 1.830961443871059e7 0.0
1.830961443871059e7 3.405735652350563e6 0.0
0.0 0.0 0.0

-2.4722882288877824e6 6.01682445719934e6 0.0
6.01682445719934e6 1.684638331158539e6 0.0
0.0 0.0 0.0

4.262388068930208e6 7.700695918856069e6 0.0
7.700695918856069e6 -1.9616998810832333e7 0.0
0.0 0.0 0.0

-965617.2217222902 8.455210592776151e6 0.0
8.455210592776151e6 -3.3988891762457304e6 0.0
0.0 0.0 0.0

196118.99272506242 1.3393582258721178e7 0.0
1.3393582258721178e7 6.278133136520104e6 0.0
0.0 0.0 0.0

1.4563646005903773e7 1.477038331024034e7 0.0
1.477038331024034e7 2.535267971913954e6 0.0
0.0 0.0 0.0

3.6053798251125896e6 6.381913733341943e6 0.0
6.381913733341943e6 -1.0966551154770888e7 0.0
0.0 0.0 0.0

-692748.9007268948 1.191721242513779e7 0.0
1.191721242513779e7 -1.5610946881143413e7 0.0
0.0 0.0 0.0

3.6298962012187717e6 6.4382428458500365e6 0.0
6.4382428458500365e6 -1.1223742666951902e7 0.0
0.0 0.0 0.0

4.4420393101903675e6 5.690738185691094e6 0.0
5.690738185691094e6 -1.2098700819291692e7 0.0
0.0 0.0 0.0

1.4279935541438332e7 1.0900237243206402e7 0.0
1.0900237243206402e7 -648264.2474501934 0.0
0.0 0.0 0.0

-1.2809178377297815e7 2.086389054196673e7 0.0
2.086389054196673e7 8.337713862541214e6 0.0
0.0 0.0 0.0

622826.4656632841 1.130215852166387e7 0.0
1.130215852166387e7 -1.4903014442438189e7 0.0
0.0 0.0 0.0

-4.2014510267574955e6 1.4567328931409894e7 0.0
1.4567328931409894e7 -312721.8639096004 0.0
0.0 0.0 0.0

5.123219717528109e6 5.383183530322246e6 0.0
5.383183530322246e6 -1.429010508227701e7 0.0
0.0 0.0 0.0

-6.577460201645149e6 1.5405254767803026e7 0.0
1.5405254767803026e7 5.0992508734017e6 0.0
0.0 0.0 0.0

-2.2073373443618575e6 1.9233385231360074e7 0.0
1.9233385231360074e7 -2.332301064072413e6 0.0
0.0 0.0 0.0

-1.2680099479356755e7 3.975693151950179e6 0.0
3.975693151950179e6 1.719866646230245e7 0.0
0.0 0.0 0.0

-5.525353840586631e6 2.4689891336023234e7 0.0
2.4689891336023234e7 -6.127008593689747e6 0.0
0.0 0.0 0.0

-485146.5994560498 1.3282330786948457e7 0.0
1.3282330786948457e7 -1.237320766586219e6 0.0
0.0 0.0 0.0

5.490903076561932e6 5.017676651103326e6 0.0
5.017676651103326e6 -1.7150354699950904e7 0.0
0.0 0.0 0.0

1.0170580857959403e7 1.0703789463991636e7 0.0
1.0703789463991636e7 -3.2423691047260375e6 0.0
0.0 0.0 0.0

-3.9634077211135863e6 1.3467877115246031e7 0.0
1.3467877115246031e7 5.85044206123112e6 0.0
0.0 0.0 0.0

4.551938463094061e6 6.572884663989661e6 0.0
6.572884663989661e6 -1.6341279279671641e7 0.0
0.0 0.0 0.0

-3.234065609743418e6 1.5408385787494373e7 0.0
1.5408385787494373e7 -1.6293474336614315e6 0.0
0.0 0.0 0.0

588260.7121291053 1.2666956985711444e7 0.0
1.2666956985711444e7 -6.647723191881244e6 0.0
0.0 0.0 0.0

-1.7265472806779481e6 1.2299009657200873e7 0.0
1.2299009657200873e7 -4.85378782290492e6 0.0
0.0 0.0 0.0

932152.0923063508 1.1837512276526956e7 0.0
1.1837512276526956e7 -7.657252477340911e6 0.0
0.0 0.0 0.0

724834.0092197941 1.3298265989078265e7 0.0
1.3298265989078265e7 6.4662156750465045e6 0.0
0.0 0.0 0.0

5.119840697403353e6 7.1577689505875725e6 0.0
7.1577689505875725e6 -2.5160359481280584e7 0.0
0.0 0.0 0.0

-5.661415370825464e6 1.5232655511100367e7 0.0
1.5232655511100367e7 6.695122910969377e6 0.0
0.0 0.0 0.0

1.1843436807135567e6 4.930350045348021e6 0.0
4.930350045348021e6 -4.7117528652194105e6 0.0
0.0 0.0 0.0

-1.1582823482146103e7 7.07863716288279e6 0.0
7.07863716288279e6 1.4606424035528671e7 0.0
0.0 0.0 0.0

4.240086981731615e6 5.825615042224416e6 0.0
5.825615042224416e6 -1.1128062265580956e7 0.0
0.0 0.0 0.0

-8.406665876315568e6 -7.330030694718638e6 0.0
-7.330030694718638e6 1.8256947767483823e7 0.0
0.0 0.0 0.0

1.4286591533978484e6 1.0719107106711917e7 0.0
1.0719107106711917e7 -1.031913858513756e7 0.0
0.0 0.0 0.0

1.3536665984049966e6 3.9353871219035597e6 0.0
3.9353871219035597e6 -5.103338880634945e6 0.0
0.0 0.0 0.0

269505.8827456394 1.2672337274282517e7 0.0
1.2672337274282517e7 3.986509467556775e6 0.0
0.0 0.0 0.0

-5.794692122236507e6 1.6799587089730095e7 0.0
1.6799587089730095e7 5.178243263261436e6 0.0
0.0 0.0 0.0

-9.482771074029539e6 -6.1731625835288465e6 0.0
-6.1731625835288465e6 1.6666300751897529e7 0.0
0.0 0.0 0.0

-2.0834064671541597e6 1.334549551945734e7 0.0
1.334549551945734e7 2.450386256863756e6 0.0
0.0 0.0 0.0

1.11490029304653e6 1.4483320718259705e7 0.0
1.4483320718259705e7 -5.469946248659437e6 0.0
0.0 0.0 0.0

-4.888601690628952e6 1.4491461503710803e7 0.0
1.4491461503710803e7 1.6248761930638095e6 0.0
0.0 0.0 0.0

-1.8642549221350374e6 1.4833924366581928e7 0.0
1.4833924366581928e7 -2.072396792768294e6 0.0
0.0 0.0 0.0

-4.575398530450699e6 1.4656666879085584e7 0.0
1.4656666879085584e7 2.5408814387946576e6 0.0
0.0 0.0 0.0

-1.676023561679815e6 1.0890739642285556e7 0.0
1.0890739642285556e7 -1.0519206596338212e7 0.0
0.0 0.0 0.0

4.796577929894239e6 1.5580264142487144e7 0.0
1.5580264142487144e7 -8.980054477028556e6 0.0
0.0 0.0 0.0

523923.1219079392 1.1528159671101384e7 0.0
1.1528159671101384e7 -9.439006757770773e6 0.0
0.0 0.0 0.0

-7.007033887901169e6 1.2729470700968038e7 0.0
1.2729470700968038e7 1.0647164284198195e7 0.0
0.0 0.0 0.0

-3.736210736369643e6 1.3051179629052144e7 0.0
1.3051179629052144e7 8.467001768626064e6 0.0
0.0 0.0 0.0

2.7605737029509624e6 8.3583431761083e6 0.0
8.3583431761083e6 -1.1715470865679253e7 0.0
0.0 0.0 0.0

-3.9361704367371732e6 8.402555445142506e6 0.0
8.402555445142506e6 2.0033974902384519e6 0.0
0.0 0.0 0.0

-6.78538233205419e6 1.8819109275653876e7 0.0
1.8819109275653876e7 5.409426151938499e6 0.0
0.0 0.0 0.0

-7.921203783090854e6 1.2366203416455321e7 0.0
1.2366203416455321e7 8.87342792152628e6 0.0
0.0 0.0 0.0

-5.347366754816729e6 2.0010731531412296e7 0.0
2.0010731531412296e7 2.9395867830070434e6 0.0
0.0 0.0 0.0

1.1911427758242935e6 1.0644304916429304e7 0.0
1.0644304916429304e7 -1.1064126809492113e7 0.0
0.0 0.0 0.0

-8.637186061314616e6 1.5893946454582304e7 0.0
1.5893946454582304e7 -1.152735075062182e6 0.0
0.0 0.0 0.0

5.690371576111131e6 5.706157991035572e6 0.0
5.706157991035572e6 -1.8773504786697738e7 0.0
0.0 0.0 0.0

-1.527315725227823e6 2.0287064325021014e7 0.0
2.0287064325021014e7 -2.6244074694570447e6 0.0
0.0 0.0 0.0

-1.2937730626141075e7 1.6674634566231433e7 0.0
1.6674634566231433e7 1.0323225806854134e7 0.0
0.0 0.0 0.0

-2.704313868882448e6 1.3559701376190893e7 0.0
1.3559701376190893e7 6.334808054047733e6 0.0
0.0 0.0 0.0

-1.9929617674923964e7 1.435378859255324e7 0.0
1.435378859255324e7 1.1623865653422322e7 0.0
0.0 0.0 0.0

5.6600854069137415e6 4.972535442224335e6 0.0
4.972535442224335e6 -1.7434619873373903e7 0.0
0.0 0.0 0.0

-7.5724577319685295e6 1.2246930096115055e7 0.0
1.2246930096115055e7 9.9538155567353e6 0.0
0.0 0.0 0.0

-2.725553832925807e6 6.137920509901152e6 0.0
6.137920509901152e6 912451.3987349027 0.0
0.0 0.0 0.0

4.275903020381393e6 5.527175435811006e6 0.0
5.527175435811006e6 -1.1522473791796582e7 0.0
0.0 0.0 0.0

313258.20073510613 1.2889387703130754e7 0.0
1.2889387703130754e7 -7.292408394595224e6 0.0
0.0 0.0 0.0

-1.148585689635957e7 2.144072967854846e7 0.0
2.144072967854846e7 9.09481858654634e6 0.0
0.0 0.0 0.0

-1.1611739159117466e7 5.052946491635049e6 0.0
5.052946491635049e6 8.988211115666173e6 0.0
0.0 0.0 0.0

-1.6194908643734347e7 1.44108311595534e7 0.0
1.44108311595534e7 6.345713749283724e6 0.0
0.0 0.0 0.0

1.215215498452576e7 1.172549441211407e7 0.0
1.172549441211407e7 3.3524926368207764e6 0.0
0.0 0.0 0.0

517089.6911576204 1.276486925218357e7 0.0
1.276486925218357e7 -3.1735312141186364e7 0.0
0.0 0.0 0.0

682085.6766368463 1.2052079731009146e7 0.0
1.2052079731009146e7 -8.453133902612133e6 0.0
0.0 0.0 0.0

-7.060125616002382e6 1.276216982745855e7 0.0
1.276216982745855e7 1.051481490855405e7 0.0
0.0 0.0 0.0

-2.10362479836112e6 1.4663660939519223e7 0.0
1.4663660939519223e7 -4.492408653415188e6 0.0
0.0 0.0 0.0

-4.635810312034965e6 1.5946959340416122e7 0.0
1.5946959340416122e7 2.329855949862804e6 0.0
0.0 0.0 0.0

-41932.51585733204 1.1884507251118911e7 0.0
1.1884507251118911e7 1.8401526507925699e6 0.0
0.0 0.0 0.0

-5.387061243537838e6 1.9585009270243675e7 0.0
1.9585009270243675e7 3.0683612327386914e6 0.0
0.0 0.0 0.0

-3.568838227408349e6 5.637195947773341e6 0.0
5.637195947773341e6 2.0346891321068075e6 0.0
0.0 0.0 0.0

1.7564639736587726e7 1.5391183594004063e7 0.0
1.5391183594004063e7 641043.7711858535 0.0
0.0 0.0 0.0

-4.127635281674879e6 1.6281969825169826e7 0.0
1.6281969825169826e7 -1.49527254918385e6 0.0
0.0 0.0 0.0

263448.71992582956 1.1770845377025083e7 0.0
1.1770845377025083e7 2.5551638643818065e6 0.0
0.0 0.0 0.0

-5.1085592117901165e6 1.5224843876703003e7 0.0
1.5224843876703003e7 2.585813433577908e6 0.0
0.0 0.0 0.0

-6.193124294239958e6 1.1810884685140017e7 0.0
1.1810884685140017e7 1.0753498276113346e7 0.0
0.0 0.0 0.0

-3.4026845319562135e6 1.526461859530453e7 0.0
1.526461859530453e7 -1.3313590081966906e6 0.0
0.0 0.0 0.0

4.256106047809196e6 7.312903040937871e6 0.0
7.312903040937871e6 -1.499045592932361e7 0.0
0.0 0.0 0.0

-5.790994996661937e6 1.3738629216504939e7 0.0
1.3738629216504939e7 4.198726689519709e6 0.0
0.0 0.0 0.0

-3.162281958014818e6 1.4420812581719223e7 0.0
1.4420812581719223e7 1.6940996361227622e6 0.0
0.0 0.0 0.0

1.310469057156376e6 6.529058932428425e6 0.0
6.529058932428425e6 -7.137347436851381e6 0.0
0.0 0.0 0.0

-5.4639704585819505e6 1.4945521069980081e7 0.0
1.4945521069980081e7 6.887636617449518e6 0.0
0.0 0.0 0.0

-1.2018998814248024e7 761726.8450433183 0.0
761726.8450433183 2.6159792423746146e7 0.0
0.0 0.0 0.0

-232952.6833999859 8.272042369463447e6 0.0
8.272042369463447e6 -3.129065093433153e6 0.0
0.0 0.0 0.0

-7.538404464753553e6 1.4519219450413465e7 0.0
1.4519219450413465e7 3.352956953652359e6 0.0
0.0 0.0 0.0

1.0908646603734976e7 1.5844119500115098e7 0.0
1.5844119500115098e7 4.5341115364355175e6 0.0
0.0 0.0 0.0

2.224090783827427e6 1.0422932511659086e7 0.0
1.0422932511659086e7 -1.3964470154118136e7 0.0
0.0 0.0 0.0

4.809584487000468e6 6.476141634147436e6 0.0
6.476141634147436e6 -1.5440557600480707e7 0.0
0.0 0.0 0.0

3.42372703594766e6 1.2265080465044001e7 0.0
1.2265080465044001e7 -1.5217600002277656e6 0.0
0.0 0.0 0.0

-6.45981359684385e6 5.672093366341524e6 0.0
5.672093366341524e6 1.1940794882405257e7 0.0
0.0 0.0 0.0

-4.518690639501765e6 1.5404313863876507e7 0.0
1.5404313863876507e7 2.2563801596750747e6 0.0
0.0 0.0 0.0

-2.8367622122994857e6 1.3713630916555477e7 0.0
1.3713630916555477e7 -2.5037542042224808e6 0.0
0.0 0.0 0.0

-2.730888886764601e6 1.395506088069037e7 0.0
1.395506088069037e7 -3.56528784018727e6 0.0
0.0 0.0 0.0

-487744.398818608 1.2732924179287726e7 0.0
1.2732924179287726e7 -3.6690067125325995e6 0.0
0.0 0.0 0.0

1.5399829392441995e6 6.998720325358535e6 0.0
6.998720325358535e6 -6.438245357571179e6 0.0
0.0 0.0 0.0

9.271498553535791e6 1.3411772480201364e7 0.0
1.3411772480201364e7 -19072.204665283673 0.0
0.0 0.0 0.0

77287.73213027185 1.204262100355604e7 0.0
1.204262100355604e7 1.6130117811687223e6 0.0
0.0 0.0 0.0

-6.625530424147623e6 1.8592379544374395e7 0.0
1.8592379544374395e7 6.165973753619749e6 0.0
0.0 0.0 0.0

-2.332697161245145e7 1.0110933982745716e7 0.0
1.0110933982745716e7 1.1643147037741754e7 0.0
0.0 0.0 0.0

4.04661689870582e6 5.53687910744739e6 0.0
5.53687910744739e6 -1.0871947783252006e7 0.0
0.0 0.0 0.0

-497819.2362530479 1.2978462578915637e7 0.0
1.2978462578915637e7 1.1365344095926527e6 0.0
0.0 0.0 0.0

-807008.2392002065 1.0486959804862956e7 0.0
1.0486959804862956e7 -1.0017251911995824e7 0.0
0.0 0.0 0.0

724597.4407778895 1.1835402472587395e7 0.0
1.1835402472587395e7 -1.117198659412247e7 0.0
0.0 0.0 0.0

-4.8041845496987775e6 -2.476188710978588e6 0.0
-2.476188710978588e6 6.995793284217396e6 0.0
0.0 0.0 0.0

1.2611065502486033e6 9.808866511489136e6 0.0
9.808866511489136e6 -9.58606155041569e6 0.0
0.0 0.0 0.0

-2.0362406752709127e6 1.2912788037956284e7 0.0
1.2912788037956284e7 -1.7013054246349826e7 0.0
0.0 0.0 0.0

1.5455562363239196e6 9.511508349913286e6 0.0
9.511508349913286e6 -1.0129911783494823e7 0.0
0.0 0.0 0.0

113042.9074774636 1.3295880278423745e7 0.0
1.3295880278423745e7 -6.787907227115028e6 0.0
0.0 0.0 0.0

1.068927561791461e7 1.4039328906363094e7 0.0
1.4039328906363094e7 3.3836341957986155e6 0.0
0.0 0.0 0.0

-1.1873522678805534e7 8.08100783008293e6 0.0
8.08100783008293e6 1.807176423023337e7 0.0
0.0 0.0 0.0

-2.4853015536567033e6 1.518559272821696e7 0.0
1.518559272821696e7 -2.4199349702928313e6 0.0
0.0 0.0 0.0

-388434.01884107525 1.208899621355033e7 0.0
1.208899621355033e7 -1.1875901437761171e6 0.0
0.0 0.0 0.0

-4.550249209737537e6 1.3261091801418701e7 0.0
1.3261091801418701e7 -1.6543928973497835e6 0.0
0.0 0.0 0.0

8.156677556509201e6 1.5579653852795381e7 0.0
1.5579653852795381e7 5.101707218671443e6 0.0
0.0 0.0 0.0

-5.621413286796453e6 1.4987240499722127e7 0.0
1.4987240499722127e7 7.124684796460161e6 0.0
0.0 0.0 0.0

1.8038996464519103e6 1.1790831215964977e7 0.0
1.1790831215964977e7 -4.767672730159058e6 0.0
0.0 0.0 0.0

-4.9025154423517035e6 1.692947174342123e7 0.0
1.692947174342123e7 2.3973782635645326e6 0.0
0.0 0.0 0.0

-6.0182441383851655e6 1.3934958675088333e7 0.0
1.3934958675088333e7 5.064541156027731e6 0.0
0.0 0.0 0.0

-1.0924594947322182e7 -1.4901747803302577e6 0.0
-1.4901747803302577e6 4.333666234548591e7 0.0
0.0 0.0 0.0

-1.3106090551647353e6 1.3337085978303287e7 0.0
1.3337085978303287e7 -7.062974672376716e6 0.0
0.0 0.0 0.0

-5.494691924746041e6 1.6683387004767416e7 0.0
1.6683387004767416e7 4.35120757652235e6 0.0
0.0 0.0 0.0

769879.0037803196 4.532933308336364e6 0.0
4.532933308336364e6 -3.2962439387509217e6 0.0
0.0 0.0 0.0

-1.042361374740705e7 8.63193291636902e6 0.0
8.63193291636902e6 1.3942744315293685e7 0.0
0.0 0.0 0.0

-2.9938242587514073e6 1.0799540575695906e7 0.0
1.0799540575695906e7 113541.90409676149 0.0
0.0 0.0 0.0

4.4884645377680315e6 5.665408521051839e6 0.0
5.665408521051839e6 -1.305161225019446e7 0.0
0.0 0.0 0.0

-6.557042605095839e6 1.909552847938494e7 0.0
1.909552847938494e7 5.983276234692604e6 0.0
0.0 0.0 0.0

1.5145822660784684e6 9.884840304545565e6 0.0
9.884840304545565e6 -8.782674309842238e6 0.0
0.0 0.0 0.0

-7.936957846635085e6 1.1783889812553352e7 0.0
1.1783889812553352e7 1.0508595265263392e7 0.0
0.0 0.0 0.0

5.745562196128312e6 6.770981302259946e6 0.0
6.770981302259946e6 -2.331445498979734e7 0.0
0.0 0.0 0.0

-6.712239542084772e6 1.830665749791774e7 0.0
1.830665749791774e7 5.897905081351528e6 0.0
0.0 0.0 0.0

-2.652652037942486e6 1.15798159400085e7 0.0
1.15798159400085e7 -1.2287501536310628e7 0.0
0.0 0.0 0.0

3.256181524507686e6 4.454336705984831e6 0.0
4.454336705984831e6 -8.354911932884827e6 0.0
0.0 0.0 0.0

85591.1387370911 7.951528949955849e6 0.0
7.951528949955849e6 -3.689704950724017e6 0.0
0.0 0.0 0.0

-1.3279553770233113e7 1.722607190051765e7 0.0
1.722607190051765e7 9.260969050167952e6 0.0
0.0 0.0 0.0

626520.2723129159 1.1924466593376277e7 0.0
1.1924466593376277e7 3.1411337079077857e6 0.0
0.0 0.0 0.0

-1.0747841405545382e7 2.07821792089873e7 0.0
2.07821792089873e7 7.820282635433536e6 0.0
0.0 0.0 0.0

-9.13821168101539e6 2.031996918021386e6 0.0
2.031996918021386e6 1.2281225921778224e7 0.0
0.0 0.0 0.0

5.1038155640132595e6 8.657751859368457e6 0.0
8.657751859368457e6 -2.519963501866746e7 0.0
0.0 0.0 0.0

2.495763381881474e7 1.0355242529177183e7 0.0
1.0355242529177183e7 -8.458195507951172e6 0.0
0.0 0.0 0.0

-4.738064195486306e6 1.5807038900507174e7 0.0
1.5807038900507174e7 2.6283881269680965e6 0.0
0.0 0.0 0.0

-6.489972638575989e6 1.6968325221268535e7 0.0
1.6968325221268535e7 6.465759178475073e6 0.0
0.0 0.0 0.0

-5.460684758945608e6 1.4977152666139765e7 0.0
1.4977152666139765e7 4.390987735863037e6 0.0
0.0 0.0 0.0

-2.1374194522731714e6 1.4866578447266579e7 0.0
1.4866578447266579e7 2.3415810824243616e7 0.0
0.0 0.0 0.0

4.708545910843734e6 5.646832466349836e6 0.0
5.646832466349836e6 -1.4683589052205238e7 0.0
0.0 0.0 0.0

85240.5876830942 9.25395853709318e6 0.0
9.25395853709318e6 -4.745248504087067e6 0.0
0.0 0.0 0.0

-3.8722309678722057e6 1.9363723689970937e7 0.0
1.9363723689970937e7 -1.4418510413525102e6 0.0
0.0 0.0 0.0

3.4621717390877716e6 8.781782749594614e6 0.0
8.781782749594614e6 -1.7006598386078965e7 0.0
0.0 0.0 0.0

-1.5121426140165355e7 6.378028267611068e6 0.0
6.378028267611068e6 9.976553475883996e6 0.0
0.0 0.0 0.0

-3.3896001894738963e6 1.426763386053921e7 0.0
1.426763386053921e7 1.2474284744893403e6 0.0
0.0 0.0 0.0

-593548.5167051358 9.486952763368707e6 0.0
9.486952763368707e6 473902.07624938345 0.0
0.0 0.0 0.0

1.7978717609473905e6 9.613920252298038e6 0.0
9.613920252298038e6 -9.314097164094253e6 0.0
0.0 0.0 0.0

-2.825955775060026e6 1.4535296325174348e7 0.0
1.4535296325174348e7 1.1607090789532967e7 0.0
0.0 0.0 0.0

-841297.8703148175 1.925386904926043e7 0.0
1.925386904926043e7 -3.773862238393909e6 0.0
0.0 0.0 0.0

-2.433674670378056e7 -2.4139863741923147e6 0.0
-2.4139863741923147e6 9.904426581274614e6 0.0
0.0 0.0 0.0

9.32729346961093e6 2.2270824620370034e7 0.0
2.2270824620370034e7 -1.2212162093609672e7 0.0
0.0 0.0 0.0

-2.273164971152247e6 1.98590054183001e7 0.0
1.98590054183001e7 -4.739453994176958e6 0.0
0.0 0.0 0.0

3.876407794411977e6 5.554373587581973e6 0.0
5.554373587581973e6 -1.0225606570316928e7 0.0
0.0 0.0 0.0

-6.026763703090796e6 1.6727333020462602e7 0.0
1.6727333020462602e7 4.440904383156417e6 0.0
0.0 0.0 0.0

1.4529763317716079e7 1.0848786262523564e7 0.0
1.0848786262523564e7 -553161.7407513782 0.0
0.0 0.0 0.0

-1.2717680542856533e7 3.2923865352173205e6 0.0
3.2923865352173205e6 2.7812883023914795e7 0.0
0.0 0.0 0.0

-1.48991042535755e6 1.3392868180426346e7 0.0
1.3392868180426346e7 -6.539640290201653e6 0.0
0.0 0.0 0.0

7.233564032354008e6 1.3053550456024185e7 0.0
1.3053550456024185e7 3.158111482255797e6 0.0
0.0 0.0 0.0

555263.3305560639 1.3115965992739433e7 0.0
1.3115965992739433e7 -7.486942353547154e6 0.0
0.0 0.0 0.0

5.093819767642732e6 5.701429353817673e6 0.0
5.701429353817673e6 -1.5506388465039391e7 0.0
0.0 0.0 0.0

-4.393755786143445e6 1.5686325103315894e7 0.0
1.5686325103315894e7 1.5958934077149453e6 0.0
0.0 0.0 0.0

-342273.2649738048 1.05874806567737e7 0.0
1.05874806567737e7 -9.769630971153045e6 0.0
0.0 0.0 0.0

-4.5075366570961485e6 1.7031279259886164e7 0.0
1.7031279259886164e7 -281425.5167232789 0.0
0.0 0.0 0.0

-1.1558713148444893e7 5.75710478311324e6 0.0
5.75710478311324e6 2.9599407347850334e7 0.0
0.0 0.0 0.0

956823.2894892483 1.1085901976989388e7 0.0
1.1085901976989388e7 -7.409704665106558e6 0.0
0.0 0.0 0.0

2.9541323016594425e6 8.208210683438827e6 0.0
8.208210683438827e6 -1.2616330171860665e7 0.0
0.0 0.0 0.0

-168672.285025812 1.4899976457611758e7 0.0
1.4899976457611758e7 -5.413446681893659e6 0.0
0.0 0.0 0.0

-359270.0869766248 1.0300985923222274e7 0.0
1.0300985923222274e7 -6.9415688415445555e6 0.0
0.0 0.0 0.0

-1.1537320393648831e7 -2.042742083647779e6 0.0
-2.042742083647779e6 2.5893431660416916e7 0.0
0.0 0.0 0.0

-4.874116334118098e6 1.4250685474725043e7 0.0
1.4250685474725043e7 1.13524988135667e7 0.0
0.0 0.0 0.0

3.656901619073483e6 8.684287445659326e6 0.0
8.684287445659326e6 -1.7887901760250915e7 0.0
0.0 0.0 0.0

-3.82672904288004e6 1.685118367449617e7 0.0
1.685118367449617e7 -400797.22104844614 0.0
0.0 0.0 0.0

-3.3958498822484487e6 1.2957246056716256e7 0.0
1.2957246056716256e7 8.619692300831458e6 0.0
0.0 0.0 0.0

3.5207166540370034e6 7.678109873769816e6 0.0
7.678109873769816e6 -1.235435355229126e7 0.0
0.0 0.0 0.0

1.867092693234848e7 1.3942002518738583e7 0.0
1.3942002518738583e7 3.0901175225378866e6 0.0
0.0 0.0 0.0

-3.799351330092058e6 1.6486842418860514e7 0.0
1.6486842418860514e7 -446534.98621032294 0.0
0.0 0.0 0.0

-5.889720255781787e6 -3.6511169568446646e6 0.0
-3.6511169568446646e6 1.0610297346586715e7 0.0
0.0 0.0 0.0

-1.2413115286686128e7 -1.97217829541268e6 0.0
-1.97217829541268e6 2.297247368427881e7 0.0
0.0 0.0 0.0

4.919901469328917e6 5.025378844021139e6 0.0
5.025378844021139e6 -1.3393785444964327e7 0.0
0.0 0.0 0.0

-5.965529349902121e6 1.4613890844068777e7 0.0
1.4613890844068777e7 3.9043617103752e6 0.0
0.0 0.0 0.0

-733829.4723654734 1.253885393057406e7 0.0
1.253885393057406e7 -3.912937276813612e6 0.0
0.0 0.0 0.0

-2.183850827590783e6 1.4391014488429703e7 0.0
1.4391014488429703e7 -5.293282564188082e6 0.0
0.0 0.0 0.0

-5.079630875010151e6 1.3431691276083563e6 0.0
1.3431691276083563e6 7.345293803074214e6 0.0
0.0 0.0 0.0

-2.502978854668524e6 1.4136824789661512e7 0.0
1.4136824789661512e7 -2.7256788005431485e6 0.0
0.0 0.0 0.0

-1.1746049436113434e7 -2.354668543637335e6 0.0
-2.354668543637335e6 2.5027200761508763e7 0.0
0.0 0.0 0.0

3.412899765941676e6 1.14865126583227e7 0.0
1.14865126583227e7 336204.030409068 0.0
0.0 0.0 0.0

3.096983441717617e6 9.658710980907623e6 0.0
9.658710980907623e6 -1.7080620232196145e7 0.0
0.0 0.0 0.0

4.074131361341466e6 8.54333989636714e6 0.0
8.54333989636714e6 -1.7698331451822065e7 0.0
0.0 0.0 0.0

-1.1380379050429508e7 8.351553753735365e6 0.0
8.351553753735365e6 1.472389301732412e7 0.0
0.0 0.0 0.0

-4.359487889653668e6 1.2355850143330617e7 0.0
1.2355850143330617e7 2.5977829696080443e6 0.0
0.0 0.0 0.0

944906.4967296191 4.913906955866665e6 0.0
4.913906955866665e6 -4.007502513776576e6 0.0
0.0 0.0 0.0

867602.1960248007 1.1329475758408014e7 0.0
1.1329475758408014e7 -7.024675378787177e6 0.0
0.0 0.0 0.0

-6.236091543096729e6 1.6361316432438403e7 0.0
1.6361316432438403e7 6.345797958286693e6 0.0
0.0 0.0 0.0

-899291.314602986 1.4824587844470436e7 0.0
1.4824587844470436e7 1.4491850474977223e7 0.0
0.0 0.0 0.0

3.053209356079447e6 1.4492480977339901e7 0.0
1.4492480977339901e7 -5.031915498837236e6 0.0
0.0 0.0 0.0

-1.0047729048016565e7 -2.141310861045147e6 0.0
-2.141310861045147e6 4.193950104192223e7 0.0
0.0 0.0 0.0

-1.1752740968645869e7 4.689897418851466e6 0.0
4.689897418851466e6 2.2649844159851488e7 0.0
0.0 0.0 0.0

-8.564788829522911e6 8.523615103015762e6 0.0
8.523615103015762e6 1.1106150379065214e7 0.0
0.0 0.0 0.0

-1.0413584717111195e6 1.0674627044048106e7 0.0
1.0674627044048106e7 2.602542833731713e6 0.0
0.0 0.0 0.0

-2.5153405659791254e6 4.910277001833127e6 0.0
4.910277001833127e6 1.8658185892437797e6 0.0
0.0 0.0 0.0

-8.311700125787419e6 1.2186954560421955e7 0.0
1.2186954560421955e7 3.769542244095367e6 0.0
0.0 0.0 0.0

4.888103278135858e6 5.959898307724639e6 0.0
5.959898307724639e6 -1.4171264491800731e7 0.0
0.0 0.0 0.0

-1.3449261769459634e6 1.2256483376291862e7 0.0
1.2256483376291862e7 -1.574207881989326e7 0.0
0.0 0.0 0.0

-197930.5729924073 1.2132350453061838e7 0.0
1.2132350453061838e7 820770.4061590469 0.0
0.0 0.0 0.0

1.7049134578225152e6 1.7899340128986247e7 0.0
1.7899340128986247e7 -8.098095051564797e6 0.0
0.0 0.0 0.0

804734.8777038786 1.3384824275755938e7 0.0
1.3384824275755938e7 -6.649274630047754e6 0.0
0.0 0.0 0.0

-8.248014913189037e6 1.5860605194819223e7 0.0
1.5860605194819223e7 355036.44487823267 0.0
0.0 0.0 0.0

-5.0425910289589e6 1.6178727754383538e7 0.0
1.6178727754383538e7 1.955245138799888e6 0.0
0.0 0.0 0.0

-48599.166312492685 5.917550149506928e6 0.0
5.917550149506928e6 -3.9516296324339844e6 0.0
0.0 0.0 0.0

-1.024846741842547e7 2.1263192406407576e7 0.0
2.1263192406407576e7 8.638323237567715e6 0.0
0.0 0.0 0.0

-4.21623564123207e6 1.263381251230891e7 0.0
1.263381251230891e7 2.1608646198666515e6 0.0
0.0 0.0 0.0

-5.241394186703486e6 5.152685443237414e6 0.0
5.152685443237414e6 3.7547462559736976e6 0.0
0.0 0.0 0.0

-4.474192043661841e6 1.2508912425543256e7 0.0
1.2508912425543256e7 1.1363830915460237e6 0.0
0.0 0.0 0.0

-326233.0199827191 4.1231187140311003e6 0.0
4.1231187140311003e6 -2.374349665366296e6 0.0
0.0 0.0 0.0

-757845.3382382661 6.551689764203173e6 0.0
6.551689764203173e6 -4.982495326069956e6 0.0
0.0 0.0 0.0

2.87453161223282e6 9.849330974680096e6 0.0
9.849330974680096e6 -1.5473522594595114e7 0.0
0.0 0.0 0.0

-3.0001911450274447e6 1.505711561874122e7 0.0
1.505711561874122e7 -1.446294213099283e6 0.0
0.0 0.0 0.0

-6.26867240387317e6 1.2772005856643932e7 0.0
1.2772005856643932e7 1.004876554588232e7 0.0
0.0 0.0 0.0

-613153.8889248185 1.2480418352204718e7 0.0
1.2480418352204718e7 -3.2059820086379135e6 0.0
0.0 0.0 0.0

3.005856857175755e6 4.9222665034466e6 0.0
4.9222665034466e6 -8.470956398361325e6 0.0
0.0 0.0 0.0

-3.8449941349115088e6 1.484597721062683e7 0.0
1.484597721062683e7 -862113.2065984587 0.0
0.0 0.0 0.0

-5.110226210758171e6 1.682124159507447e7 0.0
1.682124159507447e7 1.8104754363310032e6 0.0
0.0 0.0 0.0

69422.30190624087 1.4705123865581077e7 0.0
1.4705123865581077e7 -5.143552758087225e6 0.0
0.0 0.0 0.0

-6.313325614943259e6 6.153966637926548e6 0.0
6.153966637926548e6 5.685635812587021e6 0.0
0.0 0.0 0.0

566512.6490205745 1.1418723286903616e7 0.0
1.1418723286903616e7 -1.0894709168842912e7 0.0
0.0 0.0 0.0

-7.686913352085964e6 1.8931126253949612e7 0.0
1.8931126253949612e7 6.674194358942021e6 0.0
0.0 0.0 0.0

-7.087009870678952e6 1.8642063712735612e7 0.0
1.8642063712735612e7 6.2304848405218255e6 0.0
0.0 0.0 0.0

850991.4396868087 1.1123949096621688e7 0.0
1.1123949096621688e7 -1.4288489615424445e7 0.0
0.0 0.0 0.0

-380798.7586696902 1.0572842252300823e7 0.0
1.0572842252300823e7 -8.08096651513444e6 0.0
0.0 0.0 0.0

-392210.90343810315 1.2522136602769414e7 0.0
1.2522136602769414e7 605703.2556481273 0.0
0.0 0.0 0.0

3.573442735332869e6 8.103423522431441e6 0.0
8.103423522431441e6 -1.4862909748434097e7 0.0
0.0 0.0 0.0

-1.2156042347995445e7 4.931591832646945e6 0.0
4.931591832646945e6 1.8453872617390815e7 0.0
0.0 0.0 0.0

3.8228215781891067e6 1.0642983680712761e7 0.0
1.0642983680712761e7 -2.5373707114137836e7 0.0
0.0 0.0 0.0

-3.8812790571996868e6 2.126336221039242e7 0.0
2.126336221039242e7 -4.0602805403402867e6 0.0
0.0 0.0 0.0

923903.0977275772 1.2949231746328404e7 0.0
1.2949231746328404e7 6.608266265141855e6 0.0
0.0 0.0 0.0

-2.5176785361311194e6 1.3974908793258393e7 0.0
1.3974908793258393e7 1.2496241777559774e7 0.0
0.0 0.0 0.0

4.644583565315576e6 1.4140246193837043e7 0.0
1.4140246193837043e7 5.7264239994637985e6 0.0
0.0 0.0 0.0

-619827.856962278 9.982118501311049e6 0.0
9.982118501311049e6 -119203.4850941808 0.0
0.0 0.0 0.0

-3.5132748954889122e6 1.4704117996481908e7 0.0
1.4704117996481908e7 -698278.420014665 0.0
0.0 0.0 0.0

-1.197569599265714e7 1.3964341067522505e7 0.0
1.3964341067522505e7 -57747.9049829673 0.0
0.0 0.0 0.0

27787.72642434697 9.48410411792553e6 0.0
9.48410411792553e6 -1.3750144278974303e6 0.0
0.0 0.0 0.0

-2.169778987290296e6 1.4003889432873584e7 0.0
1.4003889432873584e7 1.7822826565131592e6 0.0
0.0 0.0 0.0

4.646152266044149e6 5.719133371277747e6 0.0
5.719133371277747e6 -1.2450361478213955e7 0.0
0.0 0.0 0.0

-9.026596253745597e6 1.2859405616699904e7 0.0
1.2859405616699904e7 4.902018627448748e6 0.0
0.0 0.0 0.0

-1.4877896529199999e7 2.106248052667725e7 0.0
2.106248052667725e7 1.0272887259442106e7 0.0
0.0 0.0 0.0

-7.698522959161678e6 819615.7575276922 0.0
819615.7575276922 1.0219613156514423e7 0.0
0.0 0.0 0.0

-1.2239325341246498e6 1.8621323543816518e7 0.0
1.8621323543816518e7 -4.640453120384765e6 0.0
0.0 0.0 0.0

-1.0503083643809391e7 6.566535883039382e6 0.0
6.566535883039382e6 4.5173316088538975e7 0.0
0.0 0.0 0.0

-5.789045442418464e6 -3.593583459717425e6 0.0
-3.593583459717425e6 8.107169377612579e6 0.0
0.0 0.0 0.0

-3.6929796511542117e6 1.3760605675370933e7 0.0
1.3760605675370933e7 -1.851795116028152e7 0.0
0.0 0.0 0.0

956716.2815686278 1.2264283484082406e7 0.0
1.2264283484082406e7 -8.108384063887295e6 0.0
0.0 0.0 0.0

-5.244732781257631e6 1.7304249478104346e7 0.0
1.7304249478104346e7 2.7196971259518545e6 0.0
0.0 0.0 0.0

-6.5445411006947085e6 1.0735283335551929e7 0.0
1.0735283335551929e7 1.0176063277130309e6 0.0
0.0 0.0 0.0

61413.67807380459 7.619502200157536e6 0.0
7.619502200157536e6 -3.39865607227489e6 0.0
0.0 0.0 0.0

-4.627153873687886e6 1.5548552232002625e7 0.0
1.5548552232002625e7 958898.1462083168 0.0
0.0 0.0 0.0

-6.396878919891471e6 1.8283532774203308e7 0.0
1.8283532774203308e7 5.645893142787762e6 0.0
0.0 0.0 0.0

-5.118959712412127e6 1.738357968380545e7 0.0
1.738357968380545e7 2.6904118103377186e6 0.0
0.0 0.0 0.0

2.7447722804818917e6 1.017017716067592e7 0.0
1.017017716067592e7 -2.9211310966031052e7 0.0
0.0 0.0 0.0

-2.5244006530228574e6 1.1104086318297474e7 0.0
1.1104086318297474e7 -3.0011258808623757e6 0.0
0.0 0.0 0.0

-1.137970205808796e7 -2.2877088579139956e6 0.0
-2.2877088579139956e6 3.2031252288571473e7 0.0
0.0 0.0 0.0

2.8591086007974176e6 1.68010925647273e7 0.0
1.68010925647273e7 2.695875381519385e7 0.0
0.0 0.0 0.0

-2.9078953370278455e7 -1.8064565061033147e6 0.0
-1.8064565061033147e6 1.0829614043648563e7 0.0
0.0 0.0 0.0

1.1696762342506928e7 1.3755660810874347e7 0.0
1.3755660810874347e7 -7.513754681410091e6 0.0
0.0 0.0 0.0

1.960838395632592e6 1.0916457736681195e7 0.0
1.0916457736681195e7 -1.3606835919053506e7 0.0
0.0 0.0 0.0

1.895846604345406e6 5.562710059259208e6 0.0
5.562710059259208e6 -6.140334621156308e6 0.0
0.0 0.0 0.0

1.6982962307280183e7 1.3202096640961077e7 0.0
1.3202096640961077e7 -1.0665079783772048e7 0.0
0.0 0.0 0.0

1.7273929270244027e6 8.189174948248021e6 0.0
8.189174948248021e6 -4.59122332088288e6 0.0
0.0 0.0 0.0

6.820798035627114e6 1.3815640214648344e7 0.0
1.3815640214648344e7 4.838263579267964e6 0.0
0.0 0.0 0.0

-5.179026239537521e6 1.6047501132237138e7 0.0
1.6047501132237138e7 2.1927300723449485e6 0.0
0.0 0.0 0.0

-6.354253124852864e6 1.6661507429510448e7 0.0
1.6661507429510448e7 6.45495847841383e6 0.0
0.0 0.0 0.0

-547445.6896413234 9.431105148419067e6 0.0
9.431105148419067e6 -5.022510223074821e6 0.0
0.0 0.0 0.0

-6.77675858393691e6 6.856449888040917e6 0.0
6.856449888040917e6 790272.8482855428 0.0
0.0 0.0 0.0

-1.21131596324769e6 1.1008992134963641e7 0.0
1.1008992134963641e7 -1.0406218725374984e7 0.0
0.0 0.0 0.0

-1.775193043322111e6 1.3576085738074744e7 0.0
1.3576085738074744e7 2.4936672502686465e6 0.0
0.0 0.0 0.0

-1.5701626765484533e6 1.1409776656874714e7 0.0
1.1409776656874714e7 5.13324866502482e6 0.0
0.0 0.0 0.0

-1.1053687684050137e7 5.433722072394866e6 0.0
5.433722072394866e6 4.158916264831639e7 0.0
0.0 0.0 0.0

-4.949011489357643e6 1.5106051999166565e7 0.0
1.5106051999166565e7 1.7216711679912629e6 0.0
0.0 0.0 0.0

4.942269239064466e6 5.041072067778127e6 0.0
5.041072067778127e6 -1.3547577516014388e7 0.0
0.0 0.0 0.0

-4.58731977644998e6 1.3889340443441968e7 0.0
1.3889340443441968e7 6.819091955417866e6 0.0
0.0 0.0 0.0

-2.4620472039606404e6 1.1576229925292848e7 0.0
1.1576229925292848e7 5.817482734139648e6 0.0
0.0 0.0 0.0

2.4738809464419656e6 1.5505626265098765e7 0.0
1.5505626265098765e7 -6.276007903358949e6 0.0
0.0 0.0 0.0

-3.560242831207966e6 1.5150778720455272e7 0.0
1.5150778720455272e7 -2.6450495748362485e6 0.0
0.0 0.0 0.0

-7.966184223018594e6 1.9903430124475367e7 0.0
1.9903430124475367e7 6.474720564149023e6 0.0
0.0 0.0 0.0

-484619.0521130427 6.1762385114363935e6 0.0
6.1762385114363935e6 -3.429622759082294e6 0.0
0.0 0.0 0.0

-9.793033648010306e6 1.823825175491844e7 0.0
1.823825175491844e7 8.0737626966273775e6 0.0
0.0 0.0 0.0

-5.545780826372092e6 1.6583887897540249e7 0.0
1.6583887897540249e7 4.6175505349878e6 0.0
0.0 0.0 0.0

-8.840994965683201e6 9.672352877520172e6 0.0
9.672352877520172e6 1.0858176805207692e7 0.0
0.0 0.0 0.0

8.537227052203653e6 1.4131748313391646e7 0.0
1.4131748313391646e7 -7.615826341977902e6 0.0
0.0 0.0 0.0

-449911.28379195975 1.244754360119377e7 0.0
1.244754360119377e7 -6.976619194302358e6 0.0
0.0 0.0 0.0

-5.288692280473273e6 1.5917091422057666e7 0.0
1.5917091422057666e7 2.4910158107365184e6 0.0
0.0 0.0 0.0

-252127.20234142547 8.842000741511377e6 0.0
8.842000741511377e6 -5.329011975850649e6 0.0
0.0 0.0 0.0

-2.328279390670886e6 1.3365354068850718e7 0.0
1.3365354068850718e7 4.4663867031849725e6 0.0
0.0 0.0 0.0

-7.266997217650911e6 4.1345498272211007e6 0.0
4.1345498272211007e6 2.7335278983095237e6 0.0
0.0 0.0 0.0

-7.925132741954794e6 1.1908437502458116e7 0.0
1.1908437502458116e7 5.024585636818998e6 0.0
0.0 0.0 0.0

546859.9616242009 1.2391039337998103e7 0.0
1.2391039337998103e7 -7.853974002193894e6 0.0
0.0 0.0 0.0

-688815.481197777 1.1775274504106253e7 0.0
1.1775274504106253e7 4.96497949775243e6 0.0
0.0 0.0 0.0

137256.73722833348 1.2376473038884912e7 0.0
1.2376473038884912e7 -9.801288101583522e6 0.0
0.0 0.0 0.0

-6.995264139968503e6 1.2650518254333278e7 0.0
1.2650518254333278e7 9.804708289983764e6 0.0
0.0 0.0 0.0

-1.335361309980391e7 7.787228875406192e6 0.0
7.787228875406192e6 7.313169498468251e6 0.0
0.0 0.0 0.0

-1.7819633524872202e6 1.3526937468396196e7 0.0
1.3526937468396196e7 591293.170127003 0.0
0.0 0.0 0.0

-1.0519112931435138e7 2.410023160113583e6 0.0
2.410023160113583e6 1.1764996514015917e7 0.0
0.0 0.0 0.0

-1.5796781204142421e6 1.333216388614572e7 0.0
1.333216388614572e7 5.343324586081339e6 0.0
0.0 0.0 0.0

-1.1988318260727231e6 1.9847571114850175e7 0.0
1.9847571114850175e7 -6.487248423247694e6 0.0
0.0 0.0 0.0

-2.4575228766690355e7 1.2743443032776486e7 0.0
1.2743443032776486e7 9.463020254747337e6 0.0
0.0 0.0 0.0

-4.814922386751338e6 2.257675282466176e7 0.0
2.257675282466176e7 -351435.5802033921 0.0
0.0 0.0 0.0

-6.855236736196358e6 1.4466993485686451e7 0.0
1.4466993485686451e7 1.4371437394537963e6 0.0
0.0 0.0 0.0

-5.289734598795733e6 2.095623298524934e7 0.0
2.095623298524934e7 2.0887583749120545e6 0.0
0.0 0.0 0.0

-9.157799434544194e6 989567.4304444962 0.0
989567.4304444962 9.954568405776542e6 0.0
0.0 0.0 0.0

3.1245608554504355e6 1.514797686074388e7 0.0
1.514797686074388e7 -5.696133755588992e6 0.0
0.0 0.0 0.0

-7.034917191734377e6 1.8898880525684647e7 0.0
1.8898880525684647e7 6.623156501481002e6 0.0
0.0 0.0 0.0

-2.4361980850596023e6 1.3851806377434865e7 0.0
1.3851806377434865e7 57086.809924662 0.0
0.0 0.0 0.0

984729.4618169689 1.1676117647035653e7 0.0
1.1676117647035653e7 -1.1914422976091934e7 0.0
0.0 0.0 0.0

-6.81434343202106e6 1.7574231747297667e7 0.0
1.7574231747297667e7 6.6293442157625435e6 0.0
0.0 0.0 0.0

-5.927817819747049e6 1.0178121272549104e7 0.0
1.0178121272549104e7 4.402652318982833e6 0.0
0.0 0.0 0.0

-5.822003875373073e6 2.0982532789335437e7 0.0
2.0982532789335437e7 169394.32042878354 0.0
0.0 0.0 0.0

-1.118742151702626e7 1.7900637888020363e7 0.0
1.7900637888020363e7 9.082104016617022e6 0.0
0.0 0.0 0.0

1.9578532738453597e6 1.5235855554878706e7 0.0
1.5235855554878706e7 -5.975357517686734e6 0.0
0.0 0.0 0.0

3.4271447765930775e6 6.042133011308604e6 0.0
6.042133011308604e6 -9.384284221015986e6 0.0
0.0 0.0 0.0

-917879.0567628411 1.188670933791098e7 0.0
1.188670933791098e7 -1.441348336941943e7 0.0
0.0 0.0 0.0

3.060104543660334e6 4.776729178466612e6 0.0
4.776729178466612e6 -8.948239036290932e6 0.0
0.0 0.0 0.0

-469494.5840728702 1.3541616720849529e7 0.0
1.3541616720849529e7 6.741105240467714e6 0.0
0.0 0.0 0.0

1.8413619953250496e6 1.3587468246934816e7 0.0
1.3587468246934816e7 -5.292732725107723e6 0.0
0.0 0.0 0.0

-2.588943671382352e6 1.867428754245253e7 0.0
1.867428754245253e7 -3.35232589164836e6 0.0
0.0 0.0 0.0

-1.1521882870710395e7 9.195046038046408e6 0.0
9.195046038046408e6 1.3478187977076586e7 0.0
0.0 0.0 0.0

-209869.43355647475 9.80507196571799e6 0.0
9.80507196571799e6 -4.4592833068257375e6 0.0
0.0 0.0 0.0

-1.5301108306362499e6 4.882815769090206e6 0.0
4.882815769090206e6 5.401493618720003e6 0.0
0.0 0.0 0.0

3.9567371561066452e6 9.276530736271674e6 0.0
9.276530736271674e6 -2.2314556957514293e7 0.0
0.0 0.0 0.0

3493.6768579519266 1.1258211776124515e7 0.0
1.1258211776124515e7 359499.85844549927 0.0
0.0 0.0 0.0

-1.0426877707360465e7 1.6772589469980873e7 0.0
1.6772589469980873e7 7.28862251153934e6 0.0
0.0 0.0 0.0

766087.9723333507 1.1347501231796661e7 0.0
1.1347501231796661e7 -8.522798683626136e6 0.0
0.0 0.0 0.0

7.311075049128399e6 1.2395079935632613e7 0.0
1.2395079935632613e7 -1.133699669403771e6 0.0
0.0 0.0 0.0

-1.0914474466392882e7 1.1049435248974035e6 0.0
1.1049435248974035e6 1.5199465203419387e7 0.0
0.0 0.0 0.0

-1.6782225880907137e7 1.240226565188994e7 0.0
1.240226565188994e7 6.420755360566319e6 0.0
0.0 0.0 0.0

5.21260272181862e6 1.945143716775331e7 0.0
1.945143716775331e7 -1.5092794196892193e7 0.0
0.0 0.0 0.0

-6.321467359507054e6 1.6771821730178585e7 0.0
1.6771821730178585e7 6.74708538785806e6 0.0
0.0 0.0 0.0

-951045.0657546327 8.256359162434924e6 0.0
8.256359162434924e6 -680863.2425454945 0.0
0.0 0.0 0.0

-1.1686934288334256e7 9.515164744508836e6 0.0
9.515164744508836e6 1.528402813725701e7 0.0
0.0 0.0 0.0

-8.143870947836888e6 -4.252177478371071e6 0.0
-4.252177478371071e6 1.1673130663769126e7 0.0
0.0 0.0 0.0

-700956.0693201679 1.2337494273239942e7 0.0
1.2337494273239942e7 -7.720951509187275e6 0.0
0.0 0.0 0.0

-5.090048499732516e6 1.687970088298976e7 0.0
1.687970088298976e7 -839040.206494654 0.0
0.0 0.0 0.0

-1.1205062554447209e6 1.223099238770254e7 0.0
1.223099238770254e7 -4.68562164977329e6 0.0
0.0 0.0 0.0

-1.1534918825328823e7 5.97663250458952e6 0.0
5.97663250458952e6 2.6729287856282e7 0.0
0.0 0.0 0.0

1.9073344679945726e6 1.0477832164812109e7 0.0
1.0477832164812109e7 -1.3423250335683566e7 0.0
0.0 0.0 0.0

-6.09684744847689e6 1.6712842875188638e7 0.0
1.6712842875188638e7 -23892.257742818445 0.0
0.0 0.0 0.0

1.1634394536342383e6 1.148507729165486e7 0.0
1.148507729165486e7 -1.1813897505796654e7 0.0
0.0 0.0 0.0

5.997321059687133e6 1.248329491236396e7 0.0
1.248329491236396e7 3.15047793124796e6 0.0
0.0 0.0 0.0

-1.1960453879187059e7 4.125865396537138e6 0.0
4.125865396537138e6 2.4369862325920116e7 0.0
0.0 0.0 0.0

1.4445206625014786e6 1.1386651494231675e7 0.0
1.1386651494231675e7 -3.371375499791415e6 0.0
0.0 0.0 0.0

-4.374072108713019e6 1.3384177846033804e7 0.0
1.3384177846033804e7 7.194722728099722e6 0.0
0.0 0.0 0.0

-3.7216524503546725e6 1.7375261057962734e7 0.0
1.7375261057962734e7 -495784.95633839327 0.0
0.0 0.0 0.0

3.6348026641299156e6 8.1174538429412525e6 0.0
8.1174538429412525e6 -1.3118349752233157e7 0.0
0.0 0.0 0.0

1.5791695107160872e6 7.298467132838153e6 0.0
7.298467132838153e6 -6.562115184238628e6 0.0
0.0 0.0 0.0

3.5737183260404374e6 9.331068474904709e6 0.0
9.331068474904709e6 -2.0083361551954687e7 0.0
0.0 0.0 0.0

-2.9032600547644547e6 1.4793856183325216e7 0.0
1.4793856183325216e7 -864291.6710995914 0.0
0.0 0.0 0.0

-1.3115054561232504e7 3.4406757349479515e6 0.0
3.4406757349479515e6 2.113141683469508e7 0.0
0.0 0.0 0.0

-2.4501478519401676e6 1.485871461472177e7 0.0
1.485871461472177e7 -1.6473449530723246e6 0.0
0.0 0.0 0.0

-754064.7874768638 1.1750521911552578e7 0.0
1.1750521911552578e7 -4.974686230533426e6 0.0
0.0 0.0 0.0

4.1854642369355187e6 7.875586265529832e6 0.0
7.875586265529832e6 -1.8843623006439e7 0.0
0.0 0.0 0.0

-1.2036683798269104e7 8.217195665550735e6 0.0
8.217195665550735e6 1.703247889782643e7 0.0
0.0 0.0 0.0

204510.46482812928 1.2135394061373467e7 0.0
1.2135394061373467e7 2.3285283228125693e6 0.0
0.0 0.0 0.0

2.556821436872173e6 9.870577086144868e6 0.0
9.870577086144868e6 -1.6530948153645989e7 0.0
0.0 0.0 0.0

4.944470672216786e6 5.18998849952445e6 0.0
5.18998849952445e6 -1.4630227181203665e7 0.0
0.0 0.0 0.0

-6.896088557810932e6 1.3547918111442545e7 0.0
1.3547918111442545e7 8.765135923593141e6 0.0
0.0 0.0 0.0

-4.0172101013364983e6 1.6172421714855053e7 0.0
1.6172421714855053e7 626958.0261414463 0.0
0.0 0.0 0.0

996869.2170786066 9.42970678635844e6 0.0
9.42970678635844e6 -6.796975789226169e6 0.0
0.0 0.0 0.0

-1.0306417968994565e7 -2.362154474121205e6 0.0
-2.362154474121205e6 1.7941426016460277e7 0.0
0.0 0.0 0.0

272192.5056542299 4.024347473676075e6 0.0
4.024347473676075e6 -2.2340979411716913e6 0.0
0.0 0.0 0.0

-8.298003470161233e6 1.1891562924923807e7 0.0
1.1891562924923807e7 9.367567559042798e6 0.0
0.0 0.0 0.0

6.48496377761124e6 1.3876091323044885e7 0.0
1.3876091323044885e7 3.716054523454625e6 0.0
0.0 0.0 0.0

3.8764080327474736e6 1.306385160928692e7 0.0
1.306385160928692e7 4.490594989844611e6 0.0
0.0 0.0 0.0

-5.107151888960046e6 1.5447855930495998e7 0.0
1.5447855930495998e7 -816021.7859953464 0.0
0.0 0.0 0.0

-738222.9451529931 9.709734043517161e6 0.0
9.709734043517161e6 -7.561240539550447e6 0.0
0.0 0.0 0.0

-2.8555499659605073e6 1.5599213288446087e7 0.0
1.5599213288446087e7 -1.8269847726528551e6 0.0
0.0 0.0 0.0

-6.925448404971937e6 1.4152622075884812e7 0.0
1.4152622075884812e7 2.624218907032422e6 0.0
0.0 0.0 0.0

3.241789565004035e6 9.500706316029245e6 0.0
9.500706316029245e6 -1.857397769778238e7 0.0
0.0 0.0 0.0

537091.5166635497 4.538602690530472e6 0.0
4.538602690530472e6 -4.0933809651703318e6 0.0
0.0 0.0 0.0

232295.8068084945 5.91124880113528e6 0.0
5.91124880113528e6 -3.014369959784604e6 0.0
0.0 0.0 0.0

-125306.03665425177 1.179471229436505e7 0.0
1.179471229436505e7 -891048.4521726285 0.0
0.0 0.0 0.0

2.7744923691225806e6 1.384162842142322e7 0.0
1.384162842142322e7 6.870354355740669e6 0.0
0.0 0.0 0.0

-1.2639834960719727e6 9.792016500607317e6 0.0
9.792016500607317e6 1.533470853106855e6 0.0
0.0 0.0 0.0

-7.467467326620681e6 1.26813278797627e7 0.0
1.26813278797627e7 8.507215085407477e6 0.0
0.0 0.0 0.0

-1.7481837716127723e7 2.6558857549000937e6 0.0
2.6558857549000937e6 9.927894373838436e6 0.0
0.0 0.0 0.0

-230980.78335631196 1.2215386724657688e7 0.0
1.2215386724657688e7 1.7475918698526775e6 0.0
0.0 0.0 0.0

2.833999600957124e6 6.101473306756377e6 0.0
6.101473306756377e6 -9.490696008156158e6 0.0
0.0 0.0 0.0

-1.0143696715970548e7 1.735511580672947e7 0.0
1.735511580672947e7 8.414543476994928e6 0.0
0.0 0.0 0.0

-1.0000465328111537e7 -4.622793011135857e6 0.0
-4.622793011135857e6 1.9859789480492648e7 0.0
0.0 0.0 0.0

-667261.3681566213 1.3232354859455662e7 0.0
1.3232354859455662e7 -3.622661718136753e6 0.0
0.0 0.0 0.0

-3.104985304249128e6 1.4062138561400604e7 0.0
1.4062138561400604e7 1.009566932557749e7 0.0
0.0 0.0 0.0

-4.75017194426344e6 1.5841550566017969e7 0.0
1.5841550566017969e7 981640.7359069495 0.0
0.0 0.0 0.0

546648.6780578736 1.1301468963550845e7 0.0
1.1301468963550845e7 -1.3343143579114093e7 0.0
0.0 0.0 0.0

4.259829581216233e6 1.4035856566539567e7 0.0
1.4035856566539567e7 5.331943979043986e6 0.0
0.0 0.0 0.0

240191.56845649006 1.167546353217135e7 0.0
1.167546353217135e7 -1.1259454772431824e7 0.0
0.0 0.0 0.0

-560452.8133024141 1.264961345006758e7 0.0
1.264961345006758e7 2.6111204460376846e6 0.0
0.0 0.0 0.0

-3.4621425304795075e6 1.2897914395712685e7 0.0
1.2897914395712685e7 7.914786036114767e6 0.0
0.0 0.0 0.0

-4.655719368120156e6 1.3591315800898949e7 0.0
1.3591315800898949e7 7.001059220916975e6 0.0
0.0 0.0 0.0

-2.719840472201732e6 1.3578673541471861e7 0.0
1.3578673541471861e7 3.6905422493374543e6 0.0
0.0 0.0 0.0

4.434743336380428e6 6.23288944400654e6 0.0
6.23288944400654e6 -1.4583368837193409e7 0.0
0.0 0.0 0.0

-5.44407611697466e6 1.8197235095368624e7 0.0
1.8197235095368624e7 2.764316851442583e6 0.0
0.0 0.0 0.0

-2.7727205596798225e6 1.1623081996502772e7 0.0
1.1623081996502772e7 -1.5373523091733214e6 0.0
0.0 0.0 0.0

8.846425521275626e6 1.1208097310618496e7 0.0
1.1208097310618496e7 1.2397036832474915e6 0.0
0.0 0.0 0.0

-7.5883650384005755e6 1.703220098446367e7 0.0
1.703220098446367e7 6.617149683830615e6 0.0
0.0 0.0 0.0

5.111619947223006e6 5.750829458803804e6 0.0
5.750829458803804e6 -1.6214918734588858e7 0.0
0.0 0.0 0.0

-4.202086716379567e6 1.1411242896553531e7 0.0
1.1411242896553531e7 2.62305514284312e6 0.0
0.0 0.0 0.0

4.714836767753958e6 1.167797288669802e7 0.0
1.167797288669802e7 990455.4240631675 0.0
0.0 0.0 0.0

1.2921961803076513e7 9.904722412524214e6 0.0
9.904722412524214e6 -2.6284344457131578e6 0.0
0.0 0.0 0.0

-7.553618596703744e6 1.874679629259734e7 0.0
1.874679629259734e7 7.115517646703124e6 0.0
0.0 0.0 0.0

527013.7472802731 1.2701989747202493e7 0.0
1.2701989747202493e7 -9.344951933073808e6 0.0
0.0 0.0 0.0

-5.005340990107097e6 5.868889764812328e6 0.0
5.868889764812328e6 6.0477155245138295e6 0.0
0.0 0.0 0.0

-1.0113790283752367e7 -5.0711283383300025e6 0.0
-5.0711283383300025e6 1.7359394869141534e7 0.0
0.0 0.0 0.0

-38986.583236346196 1.2006022762628356e7 0.0
1.2006022762628356e7 678825.0216464906 0.0
0.0 0.0 0.0

637349.0083797313 1.2359591607714605e7 0.0
1.2359591607714605e7 8.913524205843935e6 0.0
0.0 0.0 0.0

-1.0302032180355124e7 -740480.9925665648 0.0
-740480.9925665648 1.4249228700739842e7 0.0
0.0 0.0 0.0

-1.4489678785023713e6 8.626464496409344e6 0.0
8.626464496409344e6 -2.7632229036415215e6 0.0
0.0 0.0 0.0

-2.19451701982581e6 1.3051443598813899e7 0.0
1.3051443598813899e7 -3.2044510648012664e6 0.0
0.0 0.0 0.0

-29687.936967479065 1.1290812764710423e7 0.0
1.1290812764710423e7 -1.251624668655647e7 0.0
0.0 0.0 0.0

-5.433448045122423e6 1.7728932831343126e7 0.0
1.7728932831343126e7 3.0897419934746455e6 0.0
0.0 0.0 0.0

-4.228750237025248e6 1.7928111269701205e7 0.0
1.7928111269701205e7 -1.1447259606146517e6 0.0
0.0 0.0 0.0

-7.275493135872802e6 2.2355868337368965e7 0.0
2.2355868337368965e7 224016.19534865534 0.0
0.0 0.0 0.0

-1.495348037621254e7 1.9370280209921163e7 0.0
1.9370280209921163e7 1.0310178518672943e7 0.0
0.0 0.0 0.0

1.4276013020489276e6 1.3305512976197759e7 0.0
1.3305512976197759e7 6.04787535274562e6 0.0
0.0 0.0 0.0

357714.6649309546 1.3159672320539348e7 0.0
1.3159672320539348e7 -2.728785072838244e7 0.0
0.0 0.0 0.0

-6.647492052143615e6 955263.72338094 0.0
955263.72338094 6.997917532535758e6 0.0
0.0 0.0 0.0

-2.9599296834898805e6 1.1446758208327828e7 0.0
1.1446758208327828e7 -1.219553060714491e7 0.0
0.0 0.0 0.0

-1.2989172954831468e6 9.304432724747503e6 0.0
9.304432724747503e6 -7.684266269406358e6 0.0
0.0 0.0 0.0

535020.7796390061 1.3780936064286942e7 0.0
1.3780936064286942e7 6.5910598179405695e6 0.0
0.0 0.0 0.0

-2.3435985082988855e6 1.2226524096343175e7 0.0
1.2226524096343175e7 -1.4635271228628391e7 0.0
0.0 0.0 0.0

-1.764119568319816e6 1.1143249513971897e7 0.0
1.1143249513971897e7 -1.1535471013139771e7 0.0
0.0 0.0 0.0

2.623631832125589e6 1.4536970151026743e7 0.0
1.4536970151026743e7 6.19173903970071e6 0.0
0.0 0.0 0.0

-3.3367781408353345e6 1.2559300703602504e7 0.0
1.2559300703602504e7 -694312.4038978636 0.0
0.0 0.0 0.0

4.0941705829204684e6 7.810315396418472e6 0.0
7.810315396418472e6 -1.4452795175602727e7 0.0
0.0 0.0 0.0

-166321.9187963373 1.2021244201457813e7 0.0
1.2021244201457813e7 -283536.7468636067 0.0
0.0 0.0 0.0

-5.9984466315962495e6 1.5780837347961228e7 0.0
1.5780837347961228e7 619324.7295421192 0.0
0.0 0.0 0.0

23967.695818986045 1.248997320945554e7 0.0
1.248997320945554e7 3.5923823138953745e6 0.0
0.0 0.0 0.0

3.299947519282235e6 4.903883118616308e6 0.0
4.903883118616308e6 -8.894333608547341e6 0.0
0.0 0.0 0.0

-5.4001997785178805e6 1.5795167257306367e7 0.0
1.5795167257306367e7 2.8015374101931714e6 0.0
0.0 0.0 0.0

-6.484095951358531e6 1.7855983361080512e7 0.0
1.7855983361080512e7 5.435638637162525e6 0.0
0.0 0.0 0.0

-1.2157922748617496e7 7.865831726686783e6 0.0
7.865831726686783e6 1.5915023506639093e7 0.0
0.0 0.0 0.0

-742965.5863177734 1.0169243309954254e7 0.0
1.0169243309954254e7 2.972726444597061e6 0.0
0.0 0.0 0.0

-1.7587459226797447e6 1.3528712043749725e7 0.0
1.3528712043749725e7 8.797679194139823e6 0.0
0.0 0.0 0.0

-7.897316761704607e6 1.954690529397656e7 0.0
1.954690529397656e7 7.020343384491658e6 0.0
0.0 0.0 0.0

-7.297274033549346e6 1.26744827912935e7 0.0
1.26744827912935e7 9.272453823283952e6 0.0
0.0 0.0 0.0

-6.624886143317286e6 -982560.9363986251 0.0
-982560.9363986251 8.081218780445448e6 0.0
0.0 0.0 0.0

-6.320063673065504e6 1.790463526514275e7 0.0
1.790463526514275e7 6.060321693903562e6 0.0
0.0 0.0 0.0

-4.1274116752172997e6 1.5415835890682852e7 0.0
1.5415835890682852e7 859276.8185918336 0.0
0.0 0.0 0.0

-4.7031150259074485e6 1.22689901667736e7 0.0
1.22689901667736e7 1.4384639512013015e6 0.0
0.0 0.0 0.0

-5.394326160146449e6 1.7948741581371516e7 0.0
1.7948741581371516e7 2.763939191436616e6 0.0
0.0 0.0 0.0

-5.17543066380064e6 1.764531965110886e7 0.0
1.764531965110886e7 2.6895132868638537e6 0.0
0.0 0.0 0.0

-866874.0647544259 1.2729771434086401e7 0.0
1.2729771434086401e7 -4.202753022106395e6 0.0
0.0 0.0 0.0

1.0774592713385622e6 1.129189989377958e7 0.0
1.129189989377958e7 3.5915315584556665e6 0.0
0.0 0.0 0.0

3.486769403777553e6 7.72776337847469e6 0.0
7.72776337847469e6 -1.3763093680458803e7 0.0
0.0 0.0 0.0

-3.3542036198214563e6 1.266012433560382e7 0.0
1.266012433560382e7 -1.5286945593845489e7 0.0
0.0 0.0 0.0

-2.0373816841552001e6 1.41080763987986e7 0.0
1.41080763987986e7 982268.8283226748 0.0
0.0 0.0 0.0

-1.861840498470592e7 2.0057815929862544e7 0.0
2.0057815929862544e7 103506.1471996149 0.0
0.0 0.0 0.0

-2.428955231057207e6 1.128213504024396e7 0.0
1.128213504024396e7 -1.141006124783575e7 0.0
0.0 0.0 0.0

-1.8308635151316088e7 1.8326210805280413e7 0.0
1.8326210805280413e7 1.4532817517415127e6 0.0
0.0 0.0 0.0

-4.8064123124639755e6 1.4372014200250559e7 0.0
1.4372014200250559e7 5.788900418197267e6 0.0
0.0 0.0 0.0

-9.982367719191715e6 -6.551654994338888e6 0.0
-6.551654994338888e6 2.2054243442222543e7 0.0
0.0 0.0 0.0

-4.455534438809554e6 1.728405467929178e7 0.0
1.728405467929178e7 -285733.624358166 0.0
0.0 0.0 0.0

-5.802936642682832e6 1.692815271220952e7 0.0
1.692815271220952e7 -1.3542558497288283e6 0.0
0.0 0.0 0.0

306616.6649415055 1.2944618590187313e7 0.0
1.2944618590187313e7 -8.854956929074172e6 0.0
0.0 0.0 0.0

-9.823788631570805e6 1.7721865136673026e7 0.0
1.7721865136673026e7 7.789427458169354e6 0.0
0.0 0.0 0.0

-7.337855800438758e6 3.164752424650074e6 0.0
3.164752424650074e6 9.73900971760243e6 0.0
0.0 0.0 0.0

4.0235327527283626e6 8.286349249789539e6 0.0
8.286349249789539e6 -1.648548879344619e7 0.0
0.0 0.0 0.0

-1.1409392405516803e7 1.7034121620461605e7 0.0
1.7034121620461605e7 8.025915157939741e6 0.0
0.0 0.0 0.0

-204006.50371561645 1.2424373061033448e7 0.0
1.2424373061033448e7 471338.5637154361 0.0
0.0 0.0 0.0

-6.020548267530087e6 5.23480597763045e6 0.0
5.23480597763045e6 5.207162542321935e6 0.0
0.0 0.0 0.0

-1.2393348350207722e6 1.1864121246981723e7 0.0
1.1864121246981723e7 -5.099455159713379e6 0.0
0.0 0.0 0.0

-3.3910952182057677e6 1.6503638476142459e7 0.0
1.6503638476142459e7 -1.148894314385852e6 0.0
0.0 0.0 0.0

-1.6689627438416936e7 2.4419315274439184e6 0.0
2.4419315274439184e6 1.0006741145485617e7 0.0
0.0 0.0 0.0

-6.821395721267033e6 1.7354483754355155e7 0.0
1.7354483754355155e7 6.730237768263066e6 0.0
0.0 0.0 0.0

733980.7426872049 1.241050793430997e7 0.0
1.241050793430997e7 -1.0113014036602331e7 0.0
0.0 0.0 0.0

3.0751564794181455e6 7.741199942889263e6 0.0
7.741199942889263e6 -1.236787763396167e7 0.0
0.0 0.0 0.0

757334.5448613735 4.968037039379535e6 0.0
4.968037039379535e6 -4.650000018162614e6 0.0
0.0 0.0 0.0

988477.0375989117 1.159564345982051e7 0.0
1.159564345982051e7 -9.9759667752549e6 0.0
0.0 0.0 0.0

-7.598067813968377e6 1.5217468539600741e7 0.0
1.5217468539600741e7 734493.6742389156 0.0
0.0 0.0 0.0

-5.227611514559156e6 2.2112431512559004e7 0.0
2.2112431512559004e7 874844.5990182236 0.0
0.0 0.0 0.0

-4.122729298656767e6 1.3893173538793242e7 0.0
1.3893173538793242e7 1.0462904654193167e7 0.0
0.0 0.0 0.0

-743266.6084406641 1.069581094962703e7 0.0
1.069581094962703e7 3.7829434418227794e6 0.0
0.0 0.0 0.0

1.498751336190554e6 1.2182782247298257e7 0.0
1.2182782247298257e7 5.318481768623179e6 0.0
0.0 0.0 0.0

-1.5022731873380695e6 1.2260538778463932e7 0.0
1.2260538778463932e7 -5.007577323762251e6 0.0
0.0 0.0 0.0

-1.2377090757132776e7 7.837608429556591e6 0.0
7.837608429556591e6 1.6230278268275887e7 0.0
0.0 0.0 0.0

-203148.58202534867 1.0455890603750626e7 0.0
1.0455890603750626e7 -8.525865836305037e6 0.0
0.0 0.0 0.0

-1.8647112469724346e7 1.5060677754154313e7 0.0
1.5060677754154313e7 1.1456814586577298e7 0.0
0.0 0.0 0.0

-1.0743752109654903e7 -892468.8171833252 0.0
-892468.8171833252 1.748988304676892e7 0.0
0.0 0.0 0.0

-1.0419475422476044e7 -6.234675436967301e6 0.0
-6.234675436967301e6 2.3361007344824664e7 0.0
0.0 0.0 0.0

748569.9696582919 9.323233286032235e6 0.0
9.323233286032235e6 -7.683644183812597e6 0.0
0.0 0.0 0.0

-1.586490450493835e6 1.192108122557043e6 0.0
1.192108122557043e6 773874.8910248631 0.0
0.0 0.0 0.0

4.064972839924274e6 8.437389382100893e6 0.0
8.437389382100893e6 -1.95977832798927e7 0.0
0.0 0.0 0.0

-1.2668645057501983e7 6.26671837308494e6 0.0
6.26671837308494e6 1.9513459432076573e7 0.0
0.0 0.0 0.0

2.9351950267429333e6 9.470135224337775e6 0.0
9.470135224337775e6 -1.6435722533188788e7 0.0
0.0 0.0 0.0

-7.747418050751944e6 -1.5791160344891252e6 0.0
-1.5791160344891252e6 1.1272205725457389e7 0.0
0.0 0.0 0.0

-6.121252129001767e6 1.651242082521653e7 0.0
1.651242082521653e7 4.7233395303401165e6 0.0
0.0 0.0 0.0

-3.2822382136347927e6 1.6851539088669688e7 0.0
1.6851539088669688e7 -1.2861625486365682e6 0.0
0.0 0.0 0.0

-6.78125110029675e6 1.8593204297320887e7 0.0
1.8593204297320887e7 5.642058789636099e6 0.0
0.0 0.0 0.0

-6.946695385381703e6 2.1590375565518737e7 0.0
2.1590375565518737e7 1.966957786895997e6 0.0
0.0 0.0 0.0

-6.273485665246296e6 1.9824309029677797e7 0.0
1.9824309029677797e7 2.6776568659321526e6 0.0
0.0 0.0 0.0

-9.577608591319762e6 -4.761800921276477e6 0.0
-4.761800921276477e6 1.6934833026644345e7 0.0
0.0 0.0 0.0

4.999948126831683e6 5.909568885030318e6 0.0
5.909568885030318e6 -1.71140682835575e7 0.0
0.0 0.0 0.0

738880.095575843 1.2883574525533505e7 0.0
1.2883574525533505e7 -7.9154066711072065e6 0.0
0.0 0.0 0.0

-2.180565525955816e6 1.3867049071029697e7 0.0
1.3867049071029697e7 -3.5202846466490803e6 0.0
0.0 0.0 0.0

2.29283858510561e6 8.914730421014028e6 0.0
8.914730421014028e6 -1.0287209968510797e7 0.0
0.0 0.0 0.0

-2.0877557899575843e6 1.0218228464216083e7 0.0
1.0218228464216083e7 -9.647309845802039e6 0.0
0.0 0.0 0.0

-11052.32066521536 1.1504255658070955e7 0.0
1.1504255658070955e7 -36841.02539106422 0.0
0.0 0.0 0.0

-6.573307838681259e6 1.5205428134686196e7 0.0
1.5205428134686196e7 6.555311746809665e6 0.0
0.0 0.0 0.0

-7.7885262849332355e6 1.749592248960659e7 0.0
1.749592248960659e7 6.868373916237818e6 0.0
0.0 0.0 0.0

-816457.9160621804 9.687641912106562e6 0.0
9.687641912106562e6 -5.920332283346472e6 0.0
0.0 0.0 0.0

-661092.4358973973 8.872326999790972e6 0.0
8.872326999790972e6 -2.8558277124034455e6 0.0
0.0 0.0 0.0

4.82841148375354e6 5.438634714798619e6 0.0
5.438634714798619e6 -1.4286828284707794e7 0.0
0.0 0.0 0.0

1.2147799623942354e6 1.2369915637963941e7 0.0
1.2369915637963941e7 -5.757675342059197e6 0.0
0.0 0.0 0.0

3.2246986918116696e6 7.992364292865306e6 0.0
7.992364292865306e6 -1.3188750613060795e7 0.0
0.0 0.0 0.0

-937766.3871724833 6.428445568080791e6 0.0
6.428445568080791e6 -2.8156638329693354e6 0.0
0.0 0.0 0.0

-504620.28697826085 8.241650160572459e6 0.0
8.241650160572459e6 -4.1169195597882136e6 0.0
0.0 0.0 0.0

284075.5154523952 4.258346607180497e6 0.0
4.258346607180497e6 -3.4178372708524773e6 0.0
0.0 0.0 0.0

-5.292118391980754e6 1.5178135245275589e7 0.0
1.5178135245275589e7 3.960931337203673e6 0.0
0.0 0.0 0.0

1.054573631852185e6 1.1872937687487254e7 0.0
1.1872937687487254e7 -1.1142388853586413e7 0.0
0.0 0.0 0.0

4.0346356949342676e6 8.47132171399189e6 0.0
8.47132171399189e6 -2.1917676234987173e7 0.0
0.0 0.0 0.0

-2.157234074357451e6 1.4508569546213578e7 0.0
1.4508569546213578e7 -1.4982004232868617e6 0.0
0.0 0.0 0.0

-1.2234959320836913e7 1.855173555237488e7 0.0
1.855173555237488e7 -492153.6066158181 0.0
0.0 0.0 0.0

-1.3424710951767001e7 1.58516037161007e7 0.0
1.58516037161007e7 7.997512841536279e6 0.0
0.0 0.0 0.0

-4.489374334001413e6 1.6657973930903122e7 0.0
1.6657973930903122e7 -1.393660284643134e6 0.0
0.0 0.0 0.0

158784.21442199964 1.1424875632382475e7 0.0
1.1424875632382475e7 -1.4857873310462775e7 0.0
0.0 0.0 0.0

-3.3710886284247767e6 1.1119382767911471e7 0.0
1.1119382767911471e7 -1.1236962437803578e7 0.0
0.0 0.0 0.0

-8.281056633194556e6 1.7676515409034885e7 0.0
1.7676515409034885e7 -734667.4153450683 0.0
0.0 0.0 0.0

-4.1480829277935647e6 1.2242567121611806e7 0.0
1.2242567121611806e7 -1.3826943630254768e7 0.0
0.0 0.0 0.0

-8.76199509735322e6 1.1481618351091301e7 0.0
1.1481618351091301e7 1.0766425278960528e7 0.0
0.0 0.0 0.0

-5.559803014325678e6 1.815455126246082e6 0.0
1.815455126246082e6 5.634539054674345e6 0.0
0.0 0.0 0.0

-4.0074558237467557e6 1.5231217569993036e7 0.0
1.5231217569993036e7 -112781.18948113197 0.0
0.0 0.0 0.0

-7.134170903608286e6 1.373301405223475e7 0.0
1.373301405223475e7 7.957269692596214e6 0.0
0.0 0.0 0.0

-7.226943142186812e6 -1.090190230175961e6 0.0
-1.090190230175961e6 8.902502729207225e6 0.0
0.0 0.0 0.0

2.336863911708682e6 1.0277319340525754e7 0.0
1.0277319340525754e7 -1.312439668278849e7 0.0
0.0 0.0 0.0

-5.13254102540084e6 1.5485579724390998e7 0.0
1.5485579724390998e7 2.0880261186407155e6 0.0
0.0 0.0 0.0

-241596.72126600367 1.1995757894564636e7 0.0
1.1995757894564636e7 -1.9053927437040778e6 0.0
0.0 0.0 0.0

-6.416599868498696e6 1.658588295110671e7 0.0
1.658588295110671e7 6.098067444656977e6 0.0
0.0 0.0 0.0

-8.909441215239022e6 1.82680063654061e7 0.0
1.82680063654061e7 377939.9127221266 0.0
0.0 0.0 0.0

-3.6161277869482115e6 1.1501658639855502e7 0.0
1.1501658639855502e7 -1.2053759877522048e7 0.0
0.0 0.0 0.0

-2.577852037510807e6 1.412546413271097e7 0.0
1.412546413271097e7 9.439621834269026e6 0.0
0.0 0.0 0.0

-1.353343216860828e7 1.4575922740812423e7 0.0
1.4575922740812423e7 8.381790507034734e6 0.0
0.0 0.0 0.0

-4.0221946835397677e6 5.7296923178005675e6 0.0
5.7296923178005675e6 4.717423092444243e6 0.0
0.0 0.0 0.0

-1.3320677638082065e7 4.721647457400058e6 0.0
4.721647457400058e6 2.5125478906709246e7 0.0
0.0 0.0 0.0

-1.0385317067348636e6 1.3142062118027177e7 0.0
1.3142062118027177e7 -3.760365094848313e6 0.0
0.0 0.0 0.0

-5.806196758662315e6 1.9862863212618336e7 0.0
1.9862863212618336e7 1.4669257861883193e6 0.0
0.0 0.0 0.0

1.4447850616161514e6 1.2454100848937925e7 0.0
1.2454100848937925e7 4.815950202739983e6 0.0
0.0 0.0 0.0

6.165345182526303e6 1.3409930888316e7 0.0
1.3409930888316e7 3.029823167759532e6 0.0
0.0 0.0 0.0

-6.440422082641871e6 1.750040510686741e7 0.0
1.750040510686741e7 -652963.2317456072 0.0
0.0 0.0 0.0

-4.4979373441054365e6 1.8775899896756474e7 0.0
1.8775899896756474e7 -519518.3631015131 0.0
0.0 0.0 0.0

2.4388433094717e6 1.2015761786895553e7 0.0
1.2015761786895553e7 1.0215019602452682e7 0.0
0.0 0.0 0.0

5.4149029729706915e6 6.861884672602252e6 0.0
6.861884672602252e6 -2.084402904289918e7 0.0
0.0 0.0 0.0

-6.637054220895726e6 1.6986038661250167e7 0.0
1.6986038661250167e7 6.670308755541312e6 0.0
0.0 0.0 0.0

-206709.45613934466 1.129221588682166e7 0.0
1.129221588682166e7 -1.50322593376767e6 0.0
0.0 0.0 0.0

-4.509357289333329e6 1.2766617516705738e7 0.0
1.2766617516705738e7 -1.5031191778088983e7 0.0
0.0 0.0 0.0

-1.8594565444400364e6 1.4466295537139002e7 0.0
1.4466295537139002e7 -786556.4169080941 0.0
0.0 0.0 0.0

5.781941729606986e6 5.030073903702687e6 0.0
5.030073903702687e6 -1.8108614067418624e7 0.0
0.0 0.0 0.0

-2.216120969625082e6 1.3193352267823186e7 0.0
1.3193352267823186e7 -3.6812056867679446e6 0.0
0.0 0.0 0.0

-585328.545273986 1.460526352950571e7 0.0
1.460526352950571e7 -5.402904526793352e6 0.0
0.0 0.0 0.0

7.122849109207919e6 1.3117376259666841e7 0.0
1.3117376259666841e7 -7.273350243457355e6 0.0
0.0 0.0 0.0

-9.244856240496377e6 9.913304355854303e6 0.0
9.913304355854303e6 1.1224429380743764e7 0.0
0.0 0.0 0.0

-2.6349262015419286e6 8.820739959633691e6 0.0
8.820739959633691e6 2.704956533156217e6 0.0
0.0 0.0 0.0

-3.479503658987713e6 1.5967330009406844e7 0.0
1.5967330009406844e7 -315552.1505070182 0.0
0.0 0.0 0.0

-4.253098911194671e6 1.537126007685842e7 0.0
1.537126007685842e7 417426.3798373437 0.0
0.0 0.0 0.0

-1.1155146195453081e7 -3.132994595313268e6 0.0
-3.132994595313268e6 2.5484852371681985e7 0.0
0.0 0.0 0.0

-974494.1687714204 1.1870984697963756e7 0.0
1.1870984697963756e7 -4.1921926947027114e6 0.0
0.0 0.0 0.0

-8.249138034715157e6 1.739729000929695e7 0.0
1.739729000929695e7 7.3545399879629295e6 0.0
0.0 0.0 0.0

1.2653254549033241e6 6.851849123485225e6 0.0
6.851849123485225e6 -7.235379303251149e6 0.0
0.0 0.0 0.0

-1.969448216460192e6 1.3498788331895214e7 0.0
1.3498788331895214e7 1.0797863445992818e7 0.0
0.0 0.0 0.0

-2.1520418775401592e7 1.5038466012105577e7 0.0
1.5038466012105577e7 9.277516497047804e6 0.0
0.0 0.0 0.0

71163.85461978015 1.1371355970773961e7 0.0
1.1371355970773961e7 1.1687172704861213e6 0.0
0.0 0.0 0.0

3.102794966101667e6 6.474014146048218e6 0.0
6.474014146048218e6 -8.906819822408289e6 0.0
0.0 0.0 0.0

-4.781575519690198e6 1.3593736760258136e7 0.0
1.3593736760258136e7 1.265266799225206e7 0.0
0.0 0.0 0.0

-3.011383857631703e6 1.5416879053968439e7 0.0
1.5416879053968439e7 -2.211649397373237e6 0.0
0.0 0.0 0.0

2.7387458398092254e6 1.8673248460539367e7 0.0
1.8673248460539367e7 -6.43387495284817e6 0.0
0.0 0.0 0.0

-2.2287063040920654e6 9.3993494860796e6 0.0
9.3993494860796e6 -7.42902132338902e6 0.0
0.0 0.0 0.0

-4.041288161884675e6 1.040037783478638e7 0.0
1.040037783478638e7 2.5900465088007525e6 0.0
0.0 0.0 0.0

899161.4874431519 6.875941100253919e6 0.0
6.875941100253919e6 -6.560544172336348e6 0.0
0.0 0.0 0.0

-617121.7343134279 1.157308068121246e7 0.0
1.157308068121246e7 -1.2194846800138595e7 0.0
0.0 0.0 0.0

-1.820867167571891e6 1.339936352772736e7 0.0
1.339936352772736e7 -4.0518388390942975e6 0.0
0.0 0.0 0.0

2.3510408009220185e6 1.4102390311339233e7 0.0
1.4102390311339233e7 6.205675551414446e6 0.0
0.0 0.0 0.0

-5.016627574827012e6 1.512728193084993e7 0.0
1.512728193084993e7 772040.650171015 0.0
0.0 0.0 0.0

-392497.5980492763 1.4640574014576448e7 0.0
1.4640574014576448e7 -5.788523066710362e6 0.0
0.0 0.0 0.0

-4.871694076392676e6 -97571.10041790911 0.0
-97571.10041790911 1.010561647696207e7 0.0
0.0 0.0 0.0

-1.505940975841252e6 3.1017209335117186e6 0.0
3.1017209335117186e6 3.6596210152663086e6 0.0
0.0 0.0 0.0

2.3677531043211124e6 1.410812937267282e7 0.0
1.410812937267282e7 -4.7707821651635775e6 0.0
0.0 0.0 0.0

-69567.38705432735 1.1762056588405233e7 0.0
1.1762056588405233e7 1.0070853192037552e6 0.0
0.0 0.0 0.0

1.6703722680600941e7 9.967296343089506e6 0.0
9.967296343089506e6 -1.1979685820505954e6 0.0
0.0 0.0 0.0

-7.522005610561686e6 -2.555897338261027e6 0.0
-2.555897338261027e6 9.507415091403637e6 0.0
0.0 0.0 0.0

-5.865474431234101e6 1.6033751979854753e7 0.0
1.6033751979854753e7 -889557.2365444166 0.0
0.0 0.0 0.0

-9.766897321425691e6 1.3097715556035673e7 0.0
1.3097715556035673e7 6.146998382007865e6 0.0
0.0 0.0 0.0

-1.5015686794347348e7 1.5910431716807174e7 0.0
1.5910431716807174e7 1.2884313022040436e6 0.0
0.0 0.0 0.0

1.5139325300502239e7 5.944509881661412e6 0.0
5.944509881661412e6 -3.6513471256363196e6 0.0
0.0 0.0 0.0

-1.233232365630026e7 3.77609250289524e6 0.0
3.77609250289524e6 3.0687596184647653e7 0.0
0.0 0.0 0.0

-691587.2967562906 8.436595639342623e6 0.0
8.436595639342623e6 -2.4877574425345142e6 0.0
0.0 0.0 0.0

-6.657088000940397e6 1.6647621679996908e7 0.0
1.6647621679996908e7 1.0967998412310928e6 0.0
0.0 0.0 0.0

-6.313968873568984e6 1.678059068727289e7 0.0
1.678059068727289e7 6.66990368240417e6 0.0
0.0 0.0 0.0

-2.0546857906826437e6 1.3227638402962042e7 0.0
1.3227638402962042e7 -4.733821592538739e6 0.0
0.0 0.0 0.0

980323.0314778388 9.80912516993456e6 0.0
9.80912516993456e6 -7.969974586813554e6 0.0
0.0 0.0 0.0

-244008.0858296937 1.1812705661960088e7 0.0
1.1812705661960088e7 -3.329068840721171e6 0.0
0.0 0.0 0.0

-2.403357993767771e6 1.1026541971829096e7 0.0
1.1026541971829096e7 -1.13215234636201e7 0.0
0.0 0.0 0.0

-1.523222797208855e6 1.347452788147032e7 0.0
1.347452788147032e7 -2.1586842107572246e7 0.0
0.0 0.0 0.0

3.6200480303527033e6 5.00978243264955e6 0.0
5.00978243264955e6 -783293.8338406803 0.0
0.0 0.0 0.0

-3.254928595209602e6 1.9640263195493434e7 0.0
1.9640263195493434e7 -2.971985957018062e6 0.0
0.0 0.0 0.0

-2.8760074610513085e6 1.0352082979870092e7 0.0
1.0352082979870092e7 -9.586692167759849e6 0.0
0.0 0.0 0.0

3.8823643962728316e6 1.2341663713543475e7 0.0
1.2341663713543475e7 3.976743042180674e6 0.0
0.0 0.0 0.0

1.1588873256962323e6 1.0788782466108056e7 0.0
1.0788782466108056e7 -6.126896623739468e6 0.0
0.0 0.0 0.0

-3.6754710165638537e6 1.5080118127469726e7 0.0
1.5080118127469726e7 57621.80773136858 0.0
0.0 0.0 0.0

-1.0007859617427338e6 1.0783420650209043e7 0.0
1.0783420650209043e7 -9.472759050593996e6 0.0
0.0 0.0 0.0

-1.521311804130466e7 6.47562524223977e6 0.0
6.47562524223977e6 7.142724051556372e6 0.0
0.0 0.0 0.0

-1.5138250314894547e6 3.045207770617882e6 0.0
3.045207770617882e6 397082.7834103203 0.0
0.0 0.0 0.0

-8.195920770774986e6 1.1252530302887129e7 0.0
1.1252530302887129e7 1.1143937023618905e7 0.0
0.0 0.0 0.0

-709544.8078379369 8.928324234190814e6 0.0
8.928324234190814e6 -588281.8430650502 0.0
0.0 0.0 0.0

-3.5301932209932352e6 1.0922701658306124e7 0.0
1.0922701658306124e7 -4.588762984958916e6 0.0
0.0 0.0 0.0

-1.3631593205441665e6 1.2037660563219106e7 0.0
1.2037660563219106e7 -3.4127402762781475e6 0.0
0.0 0.0 0.0

-1.3617241688379433e6 9.0402317037998e6 0.0
9.0402317037998e6 -3.086630984440405e6 0.0
0.0 0.0 0.0

7.552257064487658e6 1.3659001432747316e7 0.0
1.3659001432747316e7 -6.388856527961512e6 0.0
0.0 0.0 0.0

-1.0157076813717198e7 1.8312566900312778e7 0.0
1.8312566900312778e7 8.490790740343606e6 0.0
0.0 0.0 0.0

-328530.842795382 1.5335180095895495e7 0.0
1.5335180095895495e7 -5.026465140800298e6 0.0
0.0 0.0 0.0

-1.4829398330059212e6 1.4094614253531171e7 0.0
1.4094614253531171e7 -1.2719268243592223e6 0.0
0.0 0.0 0.0

-6.585145167059234e6 1.8858782223870948e7 0.0
1.8858782223870948e7 6.06208315829723e6 0.0
0.0 0.0 0.0

-7.966267102297921e6 1.2364582002160825e7 0.0
1.2364582002160825e7 9.424327080001328e6 0.0
0.0 0.0 0.0

1.2431822447458105e6 6.5352489375271965e6 0.0
6.5352489375271965e6 -5.753674107833749e6 0.0
0.0 0.0 0.0

-185188.9604291179 6.179673795638928e6 0.0
6.179673795638928e6 -2.4313612487425604e6 0.0
0.0 0.0 0.0

-3.0645190773309385e6 1.2169266921765765e7 0.0
1.2169266921765765e7 -1.4103122014756287e7 0.0
0.0 0.0 0.0

-2.6311094709202168e6 1.363526398629612e7 0.0
1.363526398629612e7 1.7534674853461457e6 0.0
0.0 0.0 0.0

1.638495745520066e6 5.459108809578461e6 0.0
5.459108809578461e6 -6.290268834932231e6 0.0
0.0 0.0 0.0

-2.825065210940315e7 2.026491155329192e7 0.0
2.026491155329192e7 7.324746054867089e6 0.0
0.0 0.0 0.0

4.293170498091923e6 8.362243090512611e6 0.0
8.362243090512611e6 -2.4639855268430743e7 0.0
0.0 0.0 0.0

-226559.91026045592 7.6473626335042035e6 0.0
7.6473626335042035e6 -4.353632487332749e6 0.0
0.0 0.0 0.0

-2.2567872041185154e6 1.2481865654959172e7 0.0
1.2481865654959172e7 -1.537895767699318e7 0.0
0.0 0.0 0.0

5.1015974935095655e6 5.737803016105517e6 0.0
5.737803016105517e6 -1.6657546669612816e7 0.0
0.0 0.0 0.0

3.6520404584015883e6 2.017832148719754e7 0.0
2.017832148719754e7 -9.271912591847531e6 0.0
0.0 0.0 0.0

3.446451362626207e6 8.039606830150381e6 0.0
8.039606830150381e6 -1.2465357512907e7 0.0
0.0 0.0 0.0

-1.2451074937756667e7 7.7970470121243205e6 0.0
7.7970470121243205e6 2.244348711966156e7 0.0
0.0 0.0 0.0

-9.251349268308047e6 1.0141022502595043e7 0.0
1.0141022502595043e7 1.139448325350697e7 0.0
0.0 0.0 0.0

-5.116125009848325e6 1.4833433671230374e7 0.0
1.4833433671230374e7 6.182965422715994e6 0.0
0.0 0.0 0.0

-6.345062183877616e6 1.3169473785417624e7 0.0
1.3169473785417624e7 2.8923206657885164e6 0.0
0.0 0.0 0.0

-8.606866958591904e6 1.1027594436230198e7 0.0
1.1027594436230198e7 1.2136443727957686e7 0.0
0.0 0.0 0.0

-5.5821497313839e6 1.5043617846018845e7 0.0
1.5043617846018845e7 3.120052941073281e6 0.0
0.0 0.0 0.0

2.699088013680624e6 1.2755349730821738e7 0.0
1.2755349730821738e7 8.996960118206041e6 0.0
0.0 0.0 0.0

-2.8146735256253514e6 2.5847105771690067e6 0.0
2.5847105771690067e6 1.6235579405753606e6 0.0
0.0 0.0 0.0

-668890.0071353526 1.3283690787597246e7 0.0
1.3283690787597246e7 -7.002517516553179e6 0.0
0.0 0.0 0.0

2.7471990573128574e6 1.0543689374203123e7 0.0
1.0543689374203123e7 -2.6911119078659095e7 0.0
0.0 0.0 0.0

-1.0518480388633875e7 1.898886250121491e7 0.0
1.898886250121491e7 9.146635332390148e6 0.0
0.0 0.0 0.0

-3.616205156429568e6 1.6583778261515431e7 0.0
1.6583778261515431e7 -2.4120284357910524e6 0.0
0.0 0.0 0.0

1.6751991514426386e6 1.1477574759231899e7 0.0
1.1477574759231899e7 -1.1344874579704455e6 0.0
0.0 0.0 0.0

-9.010538580616929e6 9.98472541036026e6 0.0
9.98472541036026e6 1.2616574170499034e7 0.0
0.0 0.0 0.0

-1.4756305866666256e7 1.7370523385377496e7 0.0
1.7370523385377496e7 1.1080875168530274e7 0.0
0.0 0.0 0.0

-1.7159266314614653e6 1.4562758781070508e7 0.0
1.4562758781070508e7 -5.055289387366797e6 0.0
0.0 0.0 0.0

-214881.85762562882 1.1478770162268693e7 0.0
1.1478770162268693e7 -1.3780305319295235e7 0.0
0.0 0.0 0.0

-1.4228134715538906e7 1.9445886101541378e7 0.0
1.9445886101541378e7 1.0329109082568679e7 0.0
0.0 0.0 0.0

9.20514522151865e6 1.784863775816138e7 0.0
1.784863775816138e7 -1.314433239052662e7 0.0
0.0 0.0 0.0

1.1833140513624202e6 1.0732945686112536e7 0.0
1.0732945686112536e7 91447.02692457242 0.0
0.0 0.0 0.0

2.274488776996267e6 8.80638069853095e6 0.0
8.80638069853095e6 -1.116653191217912e7 0.0
0.0 0.0 0.0

-3.6164283112923615e6 1.3186148048665766e7 0.0
1.3186148048665766e7 -1.663929925552848e7 0.0
0.0 0.0 0.0

850396.4291324394 1.9018041201695554e7 0.0
1.9018041201695554e7 -5.192046546690007e6 0.0
0.0 0.0 0.0

883920.599672792 1.1854227838126807e7 0.0
1.1854227838126807e7 -9.049709462861001e6 0.0
0.0 0.0 0.0

-5.150741580561931e6 1.7306546893997822e7 0.0
1.7306546893997822e7 1.577499406510329e6 0.0
0.0 0.0 0.0

2.9971512679306976e6 9.857833550742945e6 0.0
9.857833550742945e6 -2.3136153766280867e7 0.0
0.0 0.0 0.0

-386681.71315566683 1.2700248281322422e7 0.0
1.2700248281322422e7 1.3984082255292018e6 0.0
0.0 0.0 0.0

-1.4064988761062656e7 1.5332487476023335e7 0.0
1.5332487476023335e7 1.0471885827853309e7 0.0
0.0 0.0 0.0

-5.144301846552194e6 1.5385556963042296e7 0.0
1.5385556963042296e7 3.6137331230638544e6 0.0
0.0 0.0 0.0

7.387858473360048e6 1.1140835487888502e7 0.0
1.1140835487888502e7 -148574.94764026953 0.0
0.0 0.0 0.0

-7.326757838814558e6 1.9213226246978845e7 0.0
1.9213226246978845e7 5.726754897263531e6 0.0
0.0 0.0 0.0

-1.2865227547747793e6 1.1669304625190424e7 0.0
1.1669304625190424e7 3.213653805393275e6 0.0
0.0 0.0 0.0

689727.5645653268 4.1396309114663918e6 0.0
4.1396309114663918e6 -3.9534722311108923e6 0.0
0.0 0.0 0.0

-2.73287923382517e6 2.0027845586009316e7 0.0
2.0027845586009316e7 -1.3695867659632983e6 0.0
0.0 0.0 0.0

933467.2847931902 1.2162453166713279e7 0.0
1.2162453166713279e7 -1.0656591329879012e7 0.0
0.0 0.0 0.0

5.906650885873511e6 5.314014409530212e6 0.0
5.314014409530212e6 -1.982916454531963e7 0.0
0.0 0.0 0.0

114458.91162787378 8.197514651424427e6 0.0
8.197514651424427e6 -4.695436858061837e6 0.0
0.0 0.0 0.0

1.6458105082359957e6 5.919333143316148e6 0.0
5.919333143316148e6 -6.285352530843021e6 0.0
0.0 0.0 0.0

828877.2939727642 1.0262386941727089e7 0.0
1.0262386941727089e7 -7.950254215907408e6 0.0
0.0 0.0 0.0

-1.142287066677468e7 1.5300848614379898e7 0.0
1.5300848614379898e7 8.863293793372868e6 0.0
0.0 0.0 0.0

-1.390565954393293e6 1.3874544472952625e7 0.0
1.3874544472952625e7 588721.3996803877 0.0
0.0 0.0 0.0

-132724.69868351403 1.5324993399251917e7 0.0
1.5324993399251917e7 -5.0263387314132415e6 0.0
0.0 0.0 0.0

5.245993925065257e6 6.240456088117798e6 0.0
6.240456088117798e6 -1.6531291397573719e7 0.0
0.0 0.0 0.0

-1.815655223006948e6 1.3121540496824132e7 0.0
1.3121540496824132e7 -3.903965402207231e6 0.0
0.0 0.0 0.0

-651148.3647626734 1.1558670552146582e7 0.0
1.1558670552146582e7 -6.686114497326713e6 0.0
0.0 0.0 0.0

-4.743519111378477e6 1.6225176896449732e7 0.0
1.6225176896449732e7 6438.409043156076 0.0
0.0 0.0 0.0

1.2729985985360814e6 1.7991451081786025e7 0.0
1.7991451081786025e7 -5.767103917655384e6 0.0
0.0 0.0 0.0

-5.878822243040038e6 1.5624776027243005e7 0.0
1.5624776027243005e7 6.843605582389168e6 0.0
0.0 0.0 0.0

-2.4440607149102725e6 1.1848279847890636e7 0.0
1.1848279847890636e7 5.206358921564746e6 0.0
0.0 0.0 0.0

-5.223818748436995e6 1.345482981263322e7 0.0
1.345482981263322e7 4.010130562927077e7 0.0
0.0 0.0 0.0

-9.13225655805042e6 2.086626046218867e7 0.0
2.086626046218867e7 7.720396477795351e6 0.0
0.0 0.0 0.0

973964.5973989381 1.2905432390499428e7 0.0
1.2905432390499428e7 -7.153115048817497e6 0.0
0.0 0.0 0.0

3.745941709954299e6 8.472889909548648e6 0.0
8.472889909548648e6 -1.4210497204057604e7 0.0
0.0 0.0 0.0

4.0320830478651095e6 8.096611253940396e6 0.0
8.096611253940396e6 -1.4795580877876379e7 0.0
0.0 0.0 0.0

4.804033634263905e6 5.485950655005689e6 0.0
5.485950655005689e6 -1.2746850977057047e7 0.0
0.0 0.0 0.0

-6.374490646709329e6 1.5162711733211817e7 0.0
1.5162711733211817e7 7.314443627954578e6 0.0
0.0 0.0 0.0

4.539126887997714e6 5.619362271093976e6 0.0
5.619362271093976e6 -1.2740793541731495e7 0.0
0.0 0.0 0.0

-1.0723779204869214e7 -2.3589166990393074e6 0.0
-2.3589166990393074e6 1.618886905219907e7 0.0
0.0 0.0 0.0

-5.317941404082232e6 1.397258213191537e7 0.0
1.397258213191537e7 7.68450006151364e6 0.0
0.0 0.0 0.0

-638967.9361852909 7.838050221893146e6 0.0
7.838050221893146e6 -3.702084262653136e6 0.0
0.0 0.0 0.0

-4.1633756645954098e6 1.6729660424658619e7 0.0
1.6729660424658619e7 -1.4619828449231843e6 0.0
0.0 0.0 0.0

-3.5298605892255837e6 1.84366236524827e7 0.0
1.84366236524827e7 -226240.12815029698 0.0
0.0 0.0 0.0

-91864.20074178503 1.1229407430177389e7 0.0
1.1229407430177389e7 -542434.1300405129 0.0
0.0 0.0 0.0

3.0223877238766346e6 9.68361753049592e6 0.0
9.68361753049592e6 -2.0619051011868093e7 0.0
0.0 0.0 0.0

5.68793865678525e6 5.479439789605615e6 0.0
5.479439789605615e6 -1.7544777278053977e7 0.0
0.0 0.0 0.0

-2.6666997692201603e7 2.2270953823812116e7 0.0
2.2270953823812116e7 1.501015910305908e6 0.0
0.0 0.0 0.0

5.1045142664608555e6 1.5043737406626353e7 0.0
1.5043737406626353e7 5.827476867939192e6 0.0
0.0 0.0 0.0

-3.819207981588695e6 1.8149973135045458e7 0.0
1.8149973135045458e7 137364.73720623367 0.0
0.0 0.0 0.0

-3.382780146304591e6 1.3211977447836963e7 0.0
1.3211977447836963e7 6.450403969773408e6 0.0
0.0 0.0 0.0

-157565.4760041152 1.2171616970144635e7 0.0
1.2171616970144635e7 -152711.96694976575 0.0
0.0 0.0 0.0

-1.2900509943568693e7 2.040370842732485e6 0.0
2.040370842732485e6 2.066890478426487e7 0.0
0.0 0.0 0.0

-9.065028744254788e6 1.7782751621598534e7 0.0
1.7782751621598534e7 7.816629590833543e6 0.0
0.0 0.0 0.0

-880202.863109635 9.9598137544939e6 0.0
9.9598137544939e6 -4.692324379807267e6 0.0
0.0 0.0 0.0

-9.198381600132104e6 -1.4460336098129821e6 0.0
-1.4460336098129821e6 1.1151188268645098e7 0.0
0.0 0.0 0.0

-8.299616925872952e6 8.439973103391979e6 0.0
8.439973103391979e6 5.361071031203543e7 0.0
0.0 0.0 0.0

-303315.92687152326 1.358265493000102e7 0.0
1.358265493000102e7 -7.390138579109869e6 0.0
0.0 0.0 0.0

2.2547499714461635e6 5.181784020161762e6 0.0
5.181784020161762e6 -6.65224366835118e6 0.0
0.0 0.0 0.0

-1.2617976720392067e7 4.1945272268454805e6 0.0
4.1945272268454805e6 3.222218164236684e7 0.0
0.0 0.0 0.0

5.239233249751624e6 5.289041558457198e6 0.0
5.289041558457198e6 -1.5003531565493243e7 0.0
0.0 0.0 0.0

-4.348100584502675e6 1.3544746422886431e7 0.0
1.3544746422886431e7 247101.16156320786 0.0
0.0 0.0 0.0

-9.743166322194742e6 1.674695997730055e7 0.0
1.674695997730055e7 2.1423267437484344e6 0.0
0.0 0.0 0.0

-57007.626317203045 1.2648027455640929e7 0.0
1.2648027455640929e7 -9.264479615506297e6 0.0
0.0 0.0 0.0

-3.045458112154673e6 4.1436103654017057e6 0.0
4.1436103654017057e6 3.468847615656607e6 0.0
0.0 0.0 0.0

-1.9932141802753143e6 1.4332308137870166e7 0.0
1.4332308137870166e7 130871.77002831374 0.0
0.0 0.0 0.0

3.347831159477445e6 1.7151912287813574e7 0.0
1.7151912287813574e7 -6.909610901867482e6 0.0
0.0 0.0 0.0

-1.037814153727224e6 1.884329617251569e6 0.0
1.884329617251569e6 1.1114133931144895e6 0.0
0.0 0.0 0.0

3.917678391366781e6 1.1832299184313422e7 0.0
1.1832299184313422e7 382534.3839074257 0.0
0.0 0.0 0.0

-1.9323392893330888e6 2.1994421485298023e7 0.0
2.1994421485298023e7 -8.064023986012095e6 0.0
0.0 0.0 0.0

4.9529543165084515e6 5.420054711157984e6 0.0
5.420054711157984e6 -1.3826885260608364e7 0.0
0.0 0.0 0.0

-4.559400749698031e6 1.1300592240233462e7 0.0
1.1300592240233462e7 1.4402047709675508e6 0.0
0.0 0.0 0.0

2.6556978832102865e6 1.432865117634163e7 0.0
1.432865117634163e7 1.281409113787873e7 0.0
0.0 0.0 0.0

2.4479387771421053e7 5.859537352993551e6 0.0
5.859537352993551e6 -3.7599806130995434e6 0.0
0.0 0.0 0.0

-1.4592029078082021e7 1.750063039614576e7 0.0
1.750063039614576e7 4.20658952941688e6 0.0
0.0 0.0 0.0

-5.759326573969648e6 1.4828865706812575e7 0.0
1.4828865706812575e7 3.479525456535201e6 0.0
0.0 0.0 0.0

2.89064041613047e6 9.591379584644273e6 0.0
9.591379584644273e6 -1.869102992222087e7 0.0
0.0 0.0 0.0

-9.835436377402911e6 1.6555054499073617e7 0.0
1.6555054499073617e7 7.6295341867561145e6 0.0
0.0 0.0 0.0

2.5014834002791243e6 1.1799809373994946e7 0.0
1.1799809373994946e7 2.547847831148076e6 0.0
0.0 0.0 0.0

-1.025293310712127e7 4.369457091946552e6 0.0
4.369457091946552e6 4.113306669166365e7 0.0
0.0 0.0 0.0

-4.707552551031655e6 1.4677896192655409e7 0.0
1.4677896192655409e7 5.689930079153968e6 0.0
0.0 0.0 0.0

-159768.2030004349 1.2481321199690375e7 0.0
1.2481321199690375e7 3.5419980505674025e6 0.0
0.0 0.0 0.0

-1.592118447589433e6 1.2321689756318668e7 0.0
1.2321689756318668e7 -4.641990906570955e6 0.0
0.0 0.0 0.0

2.8742904621764068e6 1.3234107341280583e7 0.0
1.3234107341280583e7 -4.725901502039919e6 0.0
0.0 0.0 0.0

1.0998820385397687e6 1.3147984582456991e7 0.0
1.3147984582456991e7 -6.129178385426726e6 0.0
0.0 0.0 0.0

-1.773979260610182e6 9.61617065690389e6 0.0
9.61617065690389e6 -2.6745156632216726e6 0.0
0.0 0.0 0.0

-2.653956914738096e6 1.3741517746062726e7 0.0
1.3741517746062726e7 6.680853554918552e6 0.0
0.0 0.0 0.0

-188113.5075810851 1.2482362608535837e7 0.0
1.2482362608535837e7 -504605.5197990179 0.0
0.0 0.0 0.0

-201237.93561511987 1.2149647594313538e7 0.0
1.2149647594313538e7 -2.5278942095535803e6 0.0
0.0 0.0 0.0

-423696.762626403 1.1370317515360482e7 0.0
1.1370317515360482e7 -1.2714901729021233e7 0.0
0.0 0.0 0.0

-5.879931678308807e6 1.6610434748392835e7 0.0
1.6610434748392835e7 5.465848566954469e6 0.0
0.0 0.0 0.0

-7.023806637634441e6 1.536701879704433e7 0.0
1.536701879704433e7 -776449.3359000375 0.0
0.0 0.0 0.0

-8.78042290874821e6 1.8312192684698753e7 0.0
1.8312192684698753e7 7.687357148713745e6 0.0
0.0 0.0 0.0

-2.7028869536823723e6 1.3230481055988839e7 0.0
1.3230481055988839e7 4.397491893384272e6 0.0
0.0 0.0 0.0

4.604741543571959e6 6.550180744721072e6 0.0
6.550180744721072e6 -1.404292779418988e7 0.0
0.0 0.0 0.0

-826297.7535745851 1.3382441922355564e7 0.0
1.3382441922355564e7 -7.704927315020847e6 0.0
0.0 0.0 0.0

232452.8180857543 1.8344945673598688e7 0.0
1.8344945673598688e7 -6.3123241047619665e6 0.0
0.0 0.0 0.0

-1.0124988931488307e7 -2.8559344224462616e6 0.0
-2.8559344224462616e6 1.3506745663797872e7 0.0
0.0 0.0 0.0

-3.0911780753249708e6 1.4217121225452814e7 0.0
1.4217121225452814e7 3.22303979153343e6 0.0
0.0 0.0 0.0

1.0764175646884467e6 1.1328046803846074e7 0.0
1.1328046803846074e7 -1.2948744719058906e6 0.0
0.0 0.0 0.0

2.362138999731619e6 1.4287606809476912e7 0.0
1.4287606809476912e7 -5.285886964643777e6 0.0
0.0 0.0 0.0

-1.1048565076999996e7 2.0975328207445727e6 0.0
2.0975328207445727e6 1.5080100087837104e7 0.0
0.0 0.0 0.0

376823.9446048462 1.273913946830502e7 0.0
1.273913946830502e7 4.595901287922674e6 0.0
0.0 0.0 0.0

-6.387414153021205e6 1.305022965243525e7 0.0
1.305022965243525e7 848001.5165397641 0.0
0.0 0.0 0.0

1.5556935546120936e6 1.1342515997985315e7 0.0
1.1342515997985315e7 -1.2766745260011995e7 0.0
0.0 0.0 0.0

-3.853195042021679e6 2.085925526051859e7 0.0
2.085925526051859e7 -89052.2875511325 0.0
0.0 0.0 0.0

-9.177530421434002e6 1.8763370634060066e7 0.0
1.8763370634060066e7 7.842145007998906e6 0.0
0.0 0.0 0.0

-9.269773730094645e6 3.210233109188621e6 0.0
3.210233109188621e6 1.2905790531149153e7 0.0
0.0 0.0 0.0

-2.3445723398407064e6 1.4931172889230253e7 0.0
1.4931172889230253e7 -1.4999199145595853e6 0.0
0.0 0.0 0.0

-8.501797592153408e6 1.9147567939696148e7 0.0
1.9147567939696148e7 7.3048744399245735e6 0.0
0.0 0.0 0.0

-8.282044697947187e6 1.8697351010114346e7 0.0
1.8697351010114346e7 7.253004094655029e6 0.0
0.0 0.0 0.0

-58434.32505306869 1.2042454520989258e7 0.0
1.2042454520989258e7 2.5403099302212824e6 0.0
0.0 0.0 0.0

2.0499980004430036e6 9.583388381372476e6 0.0
9.583388381372476e6 -1.0125628508061647e7 0.0
0.0 0.0 0.0

1.602390554374108e7 1.5812967336762305e7 0.0
1.5812967336762305e7 3.492937480128621e6 0.0
0.0 0.0 0.0

-2.326326069103835e7 -2.517954762835256e6 0.0
-2.517954762835256e6 9.990105392864075e6 0.0
0.0 0.0 0.0

-1.149455700775477e7 1.589948906056549e7 0.0
1.589948906056549e7 6.5937373762703175e6 0.0
0.0 0.0 0.0

4.91122174838202e6 5.311490897412427e6 0.0
5.311490897412427e6 -1.5000514254590955e7 0.0
0.0 0.0 0.0

-1.7363203441326427e6 1.2951405844768343e7 0.0
1.2951405844768343e7 -5.4886658190225195e6 0.0
0.0 0.0 0.0

-9.234052235839974e6 1.7055895226209596e7 0.0
1.7055895226209596e7 7.6897829667881075e6 0.0
0.0 0.0 0.0

-1.1824359616137994e7 -303512.1753065819 0.0
-303512.1753065819 1.6446984022556964e7 0.0
0.0 0.0 0.0

3.0200715160185825e6 8.337700141972898e6 0.0
8.337700141972898e6 -1.3461908553926086e7 0.0
0.0 0.0 0.0

-1.6821768405601373e6 1.087164026559527e7 0.0
1.087164026559527e7 -1.0639790669503754e7 0.0
0.0 0.0 0.0

2.437014581245319e6 1.2619812670020659e7 0.0
1.2619812670020659e7 2.0560099911323688e6 0.0
0.0 0.0 0.0

-2.025035330133853e7 1.844565353248168e7 0.0
1.844565353248168e7 5.808656039147717e6 0.0
0.0 0.0 0.0

-2.0646474952976117e6 8.382246857956372e6 0.0
8.382246857956372e6 -1.6955644546458523e6 0.0
0.0 0.0 0.0

-7.641561439142809e6 1.6944828067471538e7 0.0
1.6944828067471538e7 6.746071099094659e6 0.0
0.0 0.0 0.0

-5.721592264688267e6 1.7014799833916336e7 0.0
1.7014799833916336e7 4.964136957042321e6 0.0
0.0 0.0 0.0

-9.232207766255923e6 1.574846785444311e6 0.0
1.574846785444311e6 1.5812673734899065e7 0.0
0.0 0.0 0.0

-1.8640653238217602e6 2.5773622898126007e6 0.0
2.5773622898126007e6 1.1977059843660146e6 0.0
0.0 0.0 0.0

1.4507373632907672e6 9.80657703380476e6 0.0
9.80657703380476e6 -1.047556574146705e7 0.0
0.0 0.0 0.0

-1.0618982250476077e7 -577658.1363659208 0.0
-577658.1363659208 1.6411979749281792e7 0.0
0.0 0.0 0.0

442160.36810031347 1.1652995803809537e7 0.0
1.1652995803809537e7 -1.0033834969017308e7 0.0
0.0 0.0 0.0

3.1078474154987717e6 1.2365496340495154e7 0.0
1.2365496340495154e7 -3.4499861453090785e6 0.0
0.0 0.0 0.0

857702.6244467949 7.178690615777351e6 0.0
7.178690615777351e6 -6.678457365784867e6 0.0
0.0 0.0 0.0

-9.648528390835447e6 1.5745205044160705e7 0.0
1.5745205044160705e7 6.870642149247488e6 0.0
0.0 0.0 0.0

-4.985023922771386e6 1.6556668959968584e7 0.0
1.6556668959968584e7 988964.0966714739 0.0
0.0 0.0 0.0

-273478.5597089747 8.548753852821093e6 0.0
8.548753852821093e6 -911594.8110112421 0.0
0.0 0.0 0.0

-613383.249829155 1.1645573233296398e7 0.0
1.1645573233296398e7 -2.0446109986791639e6 0.0
0.0 0.0 0.0

1.7330746825129343e6 9.914974133473229e6 0.0
9.914974133473229e6 -9.56406250577136e6 0.0
0.0 0.0 0.0

-1.8105331898999626e6 1.0971743867171332e7 0.0
1.0971743867171332e7 -1.0631391555750165e7 0.0
0.0 0.0 0.0

-7.947968682098179e6 69451.87095939757 0.0
69451.87095939757 9.123360739667276e6 0.0
0.0 0.0 0.0

-2.7354927279261486e6 8.850216966744266e6 0.0
8.850216966744266e6 779787.5389509408 0.0
0.0 0.0 0.0

-1.374483966411309e6 1.445558082395079e7 0.0
1.445558082395079e7 -5.664966017555471e6 0.0
0.0 0.0 0.0

3.0962890585403233e6 6.773899400723417e6 0.0
6.773899400723417e6 -1.0721929968709016e7 0.0
0.0 0.0 0.0

-1.9023023118741687e7 1.2193354438181682e7 0.0
1.2193354438181682e7 3.790504515811993e6 0.0
0.0 0.0 0.0

2.4923751288768807e6 1.3044583489265034e7 0.0
1.3044583489265034e7 -4.61402892562527e6 0.0
0.0 0.0 0.0

8.058930021127028e6 1.14412258503568e7 0.0
1.14412258503568e7 -3.589189283869672e6 0.0
0.0 0.0 0.0

-1.2314957298022244e7 1.999271497956733e7 0.0
1.999271497956733e7 9.51679486117427e6 0.0
0.0 0.0 0.0

-4.438063101416692e6 3.073466571021072e6 0.0
3.073466571021072e6 5.637766910497056e6 0.0
0.0 0.0 0.0

-1.004199357051624e6 1.1851545124726897e7 0.0
1.1851545124726897e7 -5.99206694440638e6 0.0
0.0 0.0 0.0

-3.289036786702749e6 1.4578600750462797e7 0.0
1.4578600750462797e7 -1.2195128203633686e6 0.0
0.0 0.0 0.0

-1.5031580039862677e7 1.6058720465553619e7 0.0
1.6058720465553619e7 9.374288458214205e6 0.0
0.0 0.0 0.0

-1.640258266552819e6 1.2011067162281485e7 0.0
1.2011067162281485e7 -1.4551481772798052e7 0.0
0.0 0.0 0.0

-212424.06949472323 1.238741577184716e7 0.0
1.238741577184716e7 1.5644745212032965e6 0.0
0.0 0.0 0.0

-510709.92102861404 1.1161165169399273e7 0.0
1.1161165169399273e7 -1.170675966454923e7 0.0
0.0 0.0 0.0

-1.4041149137558218e7 1.804541247007898e7 0.0
1.804541247007898e7 1.0027871459247913e7 0.0
0.0 0.0 0.0

-3.6752896621673084e6 1.553517729183534e7 0.0
1.553517729183534e7 -2.4113019665019065e6 0.0
0.0 0.0 0.0

-2.803303638736782e6 1.4532609898213722e7 0.0
1.4532609898213722e7 37007.73435425677 0.0
0.0 0.0 0.0

3.552018419020436e6 8.86391912124397e6 0.0
8.86391912124397e6 -1.4478562395659111e7 0.0
0.0 0.0 0.0

-1.180654026526301e7 1.5914593588632192e6 0.0
1.5914593588632192e6 1.916120005609469e7 0.0
0.0 0.0 0.0

-1.7122928377363086e6 1.1698800990163108e7 0.0
1.1698800990163108e7 -3.9614296271606884e6 0.0
0.0 0.0 0.0

2.422763991018106e6 1.3480619980452718e7 0.0
1.3480619980452718e7 -4.408654373407664e6 0.0
0.0 0.0 0.0

-1.25560934936949e6 1.1730676058469811e7 0.0
1.1730676058469811e7 -1.3278849346693007e7 0.0
0.0 0.0 0.0

-8.653261165632775e6 1.680723190909752e7 0.0
1.680723190909752e7 6.500111370235113e6 0.0
0.0 0.0 0.0

1.800864428800941e6 2.0715957086418875e7 0.0
2.0715957086418875e7 -1.0086989180465756e7 0.0
0.0 0.0 0.0

-1.9492256560405495e6 1.4636543913908467e7 0.0
1.4636543913908467e7 -1.2070368790926593e6 0.0
0.0 0.0 0.0

-9.253717391374733e6 1.7343259225609653e7 0.0
1.7343259225609653e7 7.1992746252579745e6 0.0
0.0 0.0 0.0

-8.55147790217511e6 1.1434816468552493e7 0.0
1.1434816468552493e7 9.874752037167687e6 0.0
0.0 0.0 0.0

1.1679419235807825e6 1.2865144316932345e7 0.0
1.2865144316932345e7 -5.599311797916208e6 0.0
0.0 0.0 0.0

-6.09027680684026e6 1.6773631824113702e7 0.0
1.6773631824113702e7 5.861894318715511e6 0.0
0.0 0.0 0.0

-789083.0622204561 1.1628584517403025e7 0.0
1.1628584517403025e7 -1.3984392739942977e7 0.0
0.0 0.0 0.0

4.318350662798009e6 6.087348042406967e6 0.0
6.087348042406967e6 -1.3511697738074241e7 0.0
0.0 0.0 0.0

-1.298282989031122e6 1.1553632744577613e7 0.0
1.1553632744577613e7 -1.2310528903185572e7 0.0
0.0 0.0 0.0

-6.684227116200788e6 1.7976043169999167e7 0.0
1.7976043169999167e7 5.954255802015987e6 0.0
0.0 0.0 0.0

-1.396961547257494e6 1.216494910876741e7 0.0
1.216494910876741e7 -4.656538374052443e6 0.0
0.0 0.0 0.0

749465.9637510303 1.0412088662813626e7 0.0
1.0412088662813626e7 2.4982199864777154e6 0.0
0.0 0.0 0.0

-1.2179774453145904e7 9.09152062125304e6 0.0
9.09152062125304e6 1.4210235279816745e7 0.0
0.0 0.0 0.0

-1.0990592756395503e6 9.4664308446993e6 0.0
9.4664308446993e6 -2.471263566607792e6 0.0
0.0 0.0 0.0

2.720658359447334e6 1.2267262749888854e7 0.0
1.2267262749888854e7 1.3347026970159149e7 0.0
0.0 0.0 0.0

-1.1064262809776433e7 -2.8586844789577015e6 0.0
-2.8586844789577015e6 1.757007602953882e7 0.0
0.0 0.0 0.0

5.149742027970737e6 5.639139931688523e6 0.0
5.639139931688523e6 -1.748385522837224e7 0.0
0.0 0.0 0.0

-54712.01637532376 1.1698528142908586e7 0.0
1.1698528142908586e7 -1.2927293464682639e7 0.0
0.0 0.0 0.0

-8.490461751389436e6 1.754084929667077e7 0.0
1.754084929667077e7 7.083697562520811e6 0.0
0.0 0.0 0.0

1.0306784339903895e7 1.0538839528930772e7 0.0
1.0538839528930772e7 -303693.8815313801 0.0
0.0 0.0 0.0

-1.125125758273624e7 1.0701185703615125e6 0.0
1.0701185703615125e6 1.390487415216026e7 0.0
0.0 0.0 0.0

-1.289326550990054e7 1.897472641824892e7 0.0
1.897472641824892e7 1.6063229345920393e6 0.0
0.0 0.0 0.0

-3.5449526621527597e6 1.3833355425971944e7 0.0
1.3833355425971944e7 3.209020227021971e6 0.0
0.0 0.0 0.0

-1.6335699609880954e7 1.6924126499920674e7 0.0
1.6924126499920674e7 1.0417639176004108e7 0.0
0.0 0.0 0.0

5.17177863988241e6 5.8848231030465625e6 0.0
5.8848231030465625e6 -1.8154164880514942e7 0.0
0.0 0.0 0.0

-2.981917472044712e6 1.7974330049927685e7 0.0
1.7974330049927685e7 -1.105015067177566e6 0.0
0.0 0.0 0.0

-1.2058438587405855e7 7.857703380622513e6 0.0
7.857703380622513e6 2.8006381912504446e7 0.0
0.0 0.0 0.0

-6.204414466613109e6 1.647177069278804e7 0.0
1.647177069278804e7 6.657391395322379e6 0.0
0.0 0.0 0.0

-911514.1219543478 1.1794408293405695e7 0.0
1.1794408293405695e7 -3.528818919078119e6 0.0
0.0 0.0 0.0

-847222.3205194046 4.916323571180241e6 0.0
4.916323571180241e6 -315779.4918807335 0.0
0.0 0.0 0.0

-598642.7766866544 1.2700734114161821e7 0.0
1.2700734114161821e7 3.907912679472121e6 0.0
0.0 0.0 0.0

-4.0158716801416976e6 1.4439925448853005e7 0.0
1.4439925448853005e7 4.565511506536287e6 0.0
0.0 0.0 0.0

1.1579734041768445e6 7.645355412433159e6 0.0
7.645355412433159e6 -5.958488341101473e6 0.0
0.0 0.0 0.0

-1.6402851109991863e6 1.3671103146761412e7 0.0
1.3671103146761412e7 -215907.5097844762 0.0
0.0 0.0 0.0

2.1468675608809823e6 1.3139274514676066e7 0.0
1.3139274514676066e7 -4.480692406171068e6 0.0
0.0 0.0 0.0

-1.533421039007345e6 9.228561659377273e6 0.0
9.228561659377273e6 -1.4280930610211855e6 0.0
0.0 0.0 0.0

264630.81848667376 1.1328355086601421e7 0.0
1.1328355086601421e7 -1.3602469095527764e7 0.0
0.0 0.0 0.0

-4.953297716829318e6 1.0611614536583459e7 0.0
1.0611614536583459e7 2.290019826630152e6 0.0
0.0 0.0 0.0

-8.463719493145846e6 1.1194247872223908e7 0.0
1.1194247872223908e7 1.2038262282142837e7 0.0
0.0 0.0 0.0

-7.735632791857143e6 -160570.49415417147 0.0
-160570.49415417147 1.0003974060146526e7 0.0
0.0 0.0 0.0

-5.517241869788119e6 1.4374280957386352e7 0.0
1.4374280957386352e7 1.0779780117118852e6 0.0
0.0 0.0 0.0

-6.737534671660286e6 1.70365682819117e7 0.0
1.70365682819117e7 6.588629249807722e6 0.0
0.0 0.0 0.0

-408119.45296700543 1.8307363222855162e7 0.0
1.8307363222855162e7 -4.1468106245765244e6 0.0
0.0 0.0 0.0

-1.1508722639801249e7 458724.3056837284 0.0
458724.3056837284 1.4925569480238006e7 0.0
0.0 0.0 0.0

-346427.6592757702 1.1638189668893592e7 0.0
1.1638189668893592e7 -1.407486927124149e7 0.0
0.0 0.0 0.0

-6.32754613626831e6 1.7049522044820182e7 0.0
1.7049522044820182e7 6.582792904645933e6 0.0
0.0 0.0 0.0

1.1544666473538564e6 1.1674026327002589e7 0.0
1.1674026327002589e7 -6.515141124087061e6 0.0
0.0 0.0 0.0

-1.2986900313505535e6 1.0219893076210085e7 0.0
1.0219893076210085e7 -4.0654953279792797e6 0.0
0.0 0.0 0.0

-2.6817296414574524e6 3.2268214356202483e6 0.0
3.2268214356202483e6 2.417949512288655e6 0.0
0.0 0.0 0.0

-8.845278085702673e6 1.793132425738671e7 0.0
1.793132425738671e7 7.572039429272315e6 0.0
0.0 0.0 0.0

-3.8678903640252e6 1.4051841730646022e7 0.0
1.4051841730646022e7 1.062031516841221e6 0.0
0.0 0.0 0.0

-467701.4684508592 1.2413829582899343e7 0.0
1.2413829582899343e7 6.014768744000926e6 0.0
0.0 0.0 0.0

557353.7113939122 4.266465809156837e6 0.0
4.266465809156837e6 -2.506838279600854e6 0.0
0.0 0.0 0.0

1.62928229137145e6 1.1288899981253056e7 0.0
1.1288899981253056e7 381902.51353121456 0.0
0.0 0.0 0.0

4.229016877271861e6 8.390774853216484e6 0.0
8.390774853216484e6 -2.3048869139091987e7 0.0
0.0 0.0 0.0

-4.839115801551849e6 2.0244915080127914e7 0.0
2.0244915080127914e7 -954772.7055929315 0.0
0.0 0.0 0.0

-5.306287626786153e6 1.5094712913506491e7 0.0
1.5094712913506491e7 6.033689844708502e6 0.0
0.0 0.0 0.0

-3.758428004049605e6 6.927676991060488e6 0.0
6.927676991060488e6 1.5837759774705153e6 0.0
0.0 0.0 0.0

-539432.6465725682 1.3446237043550944e7 0.0
1.3446237043550944e7 -1.8855942073382146e6 0.0
0.0 0.0 0.0

3.642843489733953e6 9.37860322015107e6 0.0
9.37860322015107e6 -2.12164095675841e7 0.0
0.0 0.0 0.0

881136.8009730731 1.161395895121693e7 0.0
1.161395895121693e7 -1.1951526887784798e7 0.0
0.0 0.0 0.0

-1.0963381240004823e7 1.93851680148931e7 0.0
1.93851680148931e7 8.390000348014804e6 0.0
0.0 0.0 0.0

-1.20645406324796e6 1.2061223552550713e7 0.0
1.2061223552550713e7 -4.021513772214132e6 0.0
0.0 0.0 0.0

-2.786837604954196e6 1.490264695685764e7 0.0
1.490264695685764e7 -2.672579584733462e6 0.0
0.0 0.0 0.0

-5.66435790324473e6 1.4738965542320158e7 0.0
1.4738965542320158e7 4.832491375655778e6 0.0
0.0 0.0 0.0

-370142.37833072594 1.1918347698172322e7 0.0
1.1918347698172322e7 -6.114157484626453e6 0.0
0.0 0.0 0.0

2.1166512537547406e6 1.2419183480344525e7 0.0
1.2419183480344525e7 1.3036268675064333e6 0.0
0.0 0.0 0.0

-5.498760045639283e6 1.467171671027405e7 0.0
1.467171671027405e7 728450.4019264271 0.0
0.0 0.0 0.0

-1.5633535036504e6 1.3761532187005356e7 0.0
1.3761532187005356e7 1.4898121169249718e6 0.0
0.0 0.0 0.0

-1.2034825738057913e7 4.736320073315451e6 0.0
4.736320073315451e6 3.3056663136207655e7 0.0
0.0 0.0 0.0

-624340.7437887853 1.007015837523598e7 0.0
1.007015837523598e7 -3.8455129909990034e6 0.0
0.0 0.0 0.0

-2.22447157354206e6 1.0646047248480683e7 0.0
1.0646047248480683e7 -1.0481444997340873e7 0.0
0.0 0.0 0.0

-402576.47171198484 1.3076618965459084e7 0.0
1.3076618965459084e7 -8.433857525552116e6 0.0
0.0 0.0 0.0

-3.7995126359490417e6 1.2426883710743932e7 0.0
1.2426883710743932e7 -2.78435137487005e6 0.0
0.0 0.0 0.0

-4.215340607899024e6 1.4151587958664969e7 0.0
1.4151587958664969e7 4.599953833584597e6 0.0
0.0 0.0 0.0

-313234.42700362013 1.153714961918106e7 0.0
1.153714961918106e7 -1.0441147157340556e6 0.0
0.0 0.0 0.0

-5.883851572328492e6 1.7211715148983583e7 0.0
1.7211715148983583e7 5.464576924548296e6 0.0
0.0 0.0 0.0

-1.3012806852573473e6 1.4066013328178782e7 0.0
1.4066013328178782e7 -219957.55427909683 0.0
0.0 0.0 0.0

-1.2018704616108919e7 -1.86105923822614e6 0.0
-1.86105923822614e6 3.2690222722431652e7 0.0
0.0 0.0 0.0

-1.067228319326254e7 3.790784584944032e6 0.0
3.790784584944032e6 1.1980023836838702e7 0.0
0.0 0.0 0.0

1.1439044871207443e6 1.199948588295825e7 0.0
1.199948588295825e7 -6.134420369721405e6 0.0
0.0 0.0 0.0

-1.4819852094740536e7 1.4031700659669125e7 0.0
1.4031700659669125e7 6.878402060239389e6 0.0
0.0 0.0 0.0

-5.081984132409623e6 2.3396108571842536e6 0.0
2.3396108571842536e6 4.550496179134324e6 0.0
0.0 0.0 0.0

-1.3004948728360053e7 2.2381481728907833e6 0.0
2.2381481728907833e6 2.503161188372434e7 0.0
0.0 0.0 0.0

-887460.3239607093 -1.414215030531204e6 0.0
-1.414215030531204e6 -84831.18654954515 0.0
0.0 0.0 0.0

-2.938937801686867e6 2.1634310070624948e6 0.0
2.1634310070624948e6 932259.2356088578 0.0
0.0 0.0 0.0

1.9255911952597606e6 8.926362303933362e6 0.0
8.926362303933362e6 -1.0510375628184862e7 0.0
0.0 0.0 0.0

-4.534386434232209e6 1.4195909620613307e7 0.0
1.4195909620613307e7 927723.0370605979 0.0
0.0 0.0 0.0

-5.062137499053901e6 1.2039085718450762e7 0.0
1.2039085718450762e7 -1.2429906481522066e6 0.0
0.0 0.0 0.0

-5.022369118437914e6 1.4089231337909147e7 0.0
1.4089231337909147e7 6.452480833126162e6 0.0
0.0 0.0 0.0

-129467.79332870757 1.1182715265846018e7 0.0
1.1182715265846018e7 -1.1456886427277213e7 0.0
0.0 0.0 0.0

-1.87812565103548e6 1.146262337507115e7 0.0
1.146262337507115e7 5.6770321706255805e6 0.0
0.0 0.0 0.0

-3.0442276519851135e6 1.1760274553957008e7 0.0
1.1760274553957008e7 -1.3065432812585153e7 0.0
0.0 0.0 0.0

-2.5111324170122165e6 1.3755474599483287e7 0.0
1.3755474599483287e7 887881.8166838083 0.0
0.0 0.0 0.0

3.119802309767617e6 1.0052431462216947e7 0.0
1.0052431462216947e7 -2.4559698068731684e7 0.0
0.0 0.0 0.0

3.416743991787562e6 9.420270222504163e6 0.0
9.420270222504163e6 -1.922318928609477e7 0.0
0.0 0.0 0.0

-1.8283272209624397e6 1.4573089839438986e7 0.0
1.4573089839438986e7 -2.292038864477039e6 0.0
0.0 0.0 0.0

-7.214969516830593e6 1.7196869993331954e7 0.0
1.7196869993331954e7 2.708898004791868e6 0.0
0.0 0.0 0.0

-8.060804109619008e6 1.6599266416086327e7 0.0
1.6599266416086327e7 6.824257438811793e6 0.0
0.0 0.0 0.0

-3.5451175639437297e6 9.026047163982775e6 0.0
9.026047163982775e6 587183.5141827834 0.0
0.0 0.0 0.0

-2.7682118534113145e6 3.3838396675888626e6 0.0
3.3838396675888626e6 3.646721221439196e6 0.0
0.0 0.0 0.0

1.3499692191914192e6 1.1063412372730317e7 0.0
1.1063412372730317e7 -5.740318594164095e6 0.0
0.0 0.0 0.0

3.3356004337961893e6 1.3556526433609983e7 0.0
1.3556526433609983e7 -5.062200875984975e6 0.0
0.0 0.0 0.0

-1.0792891719087813e7 8.50740670659176e6 0.0
8.50740670659176e6 2.894775352333337e7 0.0
0.0 0.0 0.0

-1.9562903743499778e6 1.350448215343235e7 0.0
1.350448215343235e7 3.389105561062064e6 0.0
0.0 0.0 0.0

-7.061906004933111e6 1.7041444334251307e7 0.0
1.7041444334251307e7 6.625004769249469e6 0.0
0.0 0.0 0.0

-1.399587168095452e6 1.0185288081292547e7 0.0
1.0185288081292547e7 -8.504347090366265e6 0.0
0.0 0.0 0.0

-1.283091259765064e7 5.305816708720604e6 0.0
5.305816708720604e6 2.3030910990265206e7 0.0
0.0 0.0 0.0

-1.965868671874181e6 1.336005559185112e7 0.0
1.336005559185112e7 1.5706132841663058e6 0.0
0.0 0.0 0.0

-947000.5445869307 1.3060825638032403e7 0.0
1.3060825638032403e7 -7.789449498239948e6 0.0
0.0 0.0 0.0

1.3234842417305661e6 1.1133127109777391e7 0.0
1.1133127109777391e7 -1.3389794027738733e7 0.0
0.0 0.0 0.0

3.620918606019793e6 8.783268846024156e6 0.0
8.783268846024156e6 -1.9081188112342283e7 0.0
0.0 0.0 0.0

3.2538956968739983e6 9.000848952203067e6 0.0
9.000848952203067e6 -1.6276932312370963e7 0.0
0.0 0.0 0.0

-2.3348084234592672e6 1.3209431796531476e7 0.0
1.3209431796531476e7 -1.8294559005445432e7 0.0
0.0 0.0 0.0

-5.980496214595657e6 1.699087988481563e7 0.0
1.699087988481563e7 5.664022181139069e6 0.0
0.0 0.0 0.0

-3.174024692377786e6 1.5083294269919466e7 0.0
1.5083294269919466e7 -1.0784213328652342e6 0.0
0.0 0.0 0.0

719816.5089588827 1.2017237583534744e7 0.0
1.2017237583534744e7 -8.639651701866047e6 0.0
0.0 0.0 0.0

6.311336025865659e6 1.3724838496908072e7 0.0
1.3724838496908072e7 -5.697457064856463e6 0.0
0.0 0.0 0.0

-1.1667021999550596e7 345095.96091351367 0.0
345095.96091351367 2.859842215736046e7 0.0
0.0 0.0 0.0

3.0328942292192914e6 9.74757678166053e6 0.0
9.74757678166053e6 -2.175536713179078e7 0.0
0.0 0.0 0.0

3.6049275185251487e6 9.122574340433482e6 0.0
9.122574340433482e6 -1.6019405660708249e7 0.0
0.0 0.0 0.0

-1.1022961668913526e7 4.83243742771066e6 0.0
4.83243742771066e6 3.718215830111609e7 0.0
0.0 0.0 0.0

5.14138948972118e6 1.285751748606148e7 0.0
1.285751748606148e7 2.5457458472885694e6 0.0
0.0 0.0 0.0

-1.1701223808746956e7 3.5430744557550787e6 0.0
3.5430744557550787e6 2.6629769613624215e7 0.0
0.0 0.0 0.0

-591892.5291566666 3.74340632745315e6 0.0
3.74340632745315e6 -1.3582156138035092e6 0.0
0.0 0.0 0.0

-6.260595978277894e6 1.746643958788496e7 0.0
1.746643958788496e7 5.117998560573549e6 0.0
0.0 0.0 0.0

2.7075746177231884e6 8.63850090855847e6 0.0
8.63850090855847e6 -1.2889646739265425e7 0.0
0.0 0.0 0.0

-8.200600559784431e6 1.8437911253673367e7 0.0
1.8437911253673367e7 7.521971002744513e6 0.0
0.0 0.0 0.0

-1.158638120504279e7 7.251650573262381e6 0.0
7.251650573262381e6 2.081476437538215e7 0.0
0.0 0.0 0.0

-8.789687555632148e6 3.4145750681144497e6 0.0
3.4145750681144497e6 9.814410559374914e6 0.0
0.0 0.0 0.0

-2.38710783454512e6 1.8189963238181777e7 0.0
1.8189963238181777e7 -1.836585093003274e6 0.0
0.0 0.0 0.0

-4.747021391874218e6 1.4477654494704345e7 0.0
1.4477654494704345e7 6.368958722029333e6 0.0
0.0 0.0 0.0

-3.048987783804e6 1.5751113125628402e7 0.0
1.5751113125628402e7 -2.0752973064336418e6 0.0
0.0 0.0 0.0

-5.712957609227305e6 1.555587658211962e7 0.0
1.555587658211962e7 5.407450867940649e6 0.0
0.0 0.0 0.0

-4721.292813663837 1.1653050557449844e7 0.0
1.1653050557449844e7 -1.214445236931834e7 0.0
0.0 0.0 0.0

304689.34545229794 1.42918574811542e7 0.0
1.42918574811542e7 -5.454787988901816e6 0.0
0.0 0.0 0.0

-657773.4853509357 1.338154009936141e7 0.0
1.338154009936141e7 1.3368311918514777e7 0.0
0.0 0.0 0.0

-4.856214384517442e6 -10448.56254897439 0.0
-10448.56254897439 9.431195760973651e6 0.0
0.0 0.0 0.0

-3.80499199254191e6 4.567154806387174e6 0.0
4.567154806387174e6 -996640.6976453944 0.0
0.0 0.0 0.0

-1.3868087719624417e6 1.213894415527731e7 0.0
1.213894415527731e7 -4.622695726215233e6 0.0
0.0 0.0 0.0

1.2903318094234273e6 1.2404133909280965e7 0.0
1.2404133909280965e7 4.301106301069672e6 0.0
0.0 0.0 0.0

-4.574334049095943e6 2.072958992591532e7 0.0
2.072958992591532e7 -2.462935677287408e6 0.0
0.0 0.0 0.0

3.460366291968723e6 5.726677216087797e6 0.0
5.726677216087797e6 -9.362705701481089e6 0.0
0.0 0.0 0.0

-7.650797308451273e6 1.9211362554868553e7 0.0
1.9211362554868553e7 7.167647964984799e6 0.0
0.0 0.0 0.0

-2.470043710826623e7 5.07174977469998e6 0.0
5.07174977469998e6 1.1484907250842864e7 0.0
0.0 0.0 0.0

-463703.7827607598 1.3214246782966407e7 0.0
1.3214246782966407e7 -8.058696750349053e6 0.0
0.0 0.0 0.0

-1.2005414846344233e7 8.706494636903903e6 0.0
8.706494636903903e6 1.7515450929993436e7 0.0
0.0 0.0 0.0

1.2454978706739969e6 1.1841043230608093e7 0.0
1.1841043230608093e7 -6.264333737327144e6 0.0
0.0 0.0 0.0

-4.721739884752298e6 1.4616351875590445e7 0.0
1.4616351875590445e7 5.179461804474186e6 0.0
0.0 0.0 0.0

-4.1231352780073555e6 1.3938917151541142e7 0.0
1.3938917151541142e7 234892.7196400771 0.0
0.0 0.0 0.0

1.1710558723170273e6 1.2401105918780565e7 0.0
1.2401105918780565e7 -6.842533335593397e6 0.0
0.0 0.0 0.0

5.35998849664883e6 5.545439517523567e6 0.0
5.545439517523567e6 -1.8612988404397205e7 0.0
0.0 0.0 0.0

-956537.1952009853 8.405227867881712e6 0.0
8.405227867881712e6 -3.1884576528474083e6 0.0
0.0 0.0 0.0

2.7548151390087465e6 1.4687785224929621e7 0.0
1.4687785224929621e7 -5.277908539887324e6 0.0
0.0 0.0 0.0

538539.1438466399 1.2105560326399663e7 0.0
1.2105560326399663e7 -9.277478217155932e6 0.0
0.0 0.0 0.0

-315799.1625128065 1.2133480171049615e7 0.0
1.2133480171049615e7 5.030318849089075e6 0.0
0.0 0.0 0.0

2.9517114889435396e6 9.670374544583766e6 0.0
9.670374544583766e6 -1.961121530938761e7 0.0
0.0 0.0 0.0

-2.7317108685497055e6 1.395757859610993e7 0.0
1.395757859610993e7 -3.161642670121779e6 0.0
0.0 0.0 0.0

-2.883612936846131e6 1.3829687375479972e7 0.0
1.3829687375479972e7 9.56735082485941e6 0.0
0.0 0.0 0.0

3.923211779946274e6 1.7576175030903183e7 0.0
1.7576175030903183e7 -8.406255837126046e6 0.0
0.0 0.0 0.0

3.2567286764540123e6 9.375012254524354e6 0.0
9.375012254524354e6 -1.7507795223644037e7 0.0
0.0 0.0 0.0

-2.0765319195236206e7 3.73239033732918e6 0.0
3.73239033732918e6 1.0737120628120754e7 0.0
0.0 0.0 0.0

-1.6066828491930696e6 1.3101700275767934e7 0.0
1.3101700275767934e7 4.551764546046212e6 0.0
0.0 0.0 0.0

-8.380497733099115e6 1.8912413069844425e7 0.0
1.8912413069844425e7 7.671838996113796e6 0.0
0.0 0.0 0.0

-1.4668855055853068e6 1.3133534397852367e7 0.0
1.3133534397852367e7 -4.64219398629431e6 0.0
0.0 0.0 0.0

-6.641642304795815e6 1.7288002317230195e7 0.0
1.7288002317230195e7 6.558148757703416e6 0.0
0.0 0.0 0.0

-1.2211833810942715e7 7.818200303696153e6 0.0
7.818200303696153e6 3.094931899061855e7 0.0
0.0 0.0 0.0

1.0656926762964334e6 1.0513097274698768e7 0.0
1.0513097274698768e7 -8.425892326747831e6 0.0
0.0 0.0 0.0

-3.9789434188268897e6 1.8348592370348148e7 0.0
1.8348592370348148e7 -1.6906192681915234e6 0.0
0.0 0.0 0.0

-1.2825202118305152e6 8.185314359589437e6 0.0
8.185314359589437e6 -1.4120990470485413e6 0.0
0.0 0.0 0.0

-2.0677093386516903e7 3.7861008589155003e6 0.0
3.7861008589155003e6 1.04734146729898e7 0.0
0.0 0.0 0.0

-2.6688011155748083e6 1.0010627814293373e7 0.0
1.0010627814293373e7 -1.2716595311136022e6 0.0
0.0 0.0 0.0

-1.1106910904802304e7 -1.1075528568867976e6 0.0
-1.1075528568867976e6 1.423576136373939e7 0.0
0.0 0.0 0.0

-1.100178549494923e7 9.532140827380735e6 0.0
9.532140827380735e6 1.8659057469840236e7 0.0
0.0 0.0 0.0

-7.014396548813567e6 1.825805594621684e7 0.0
1.825805594621684e7 6.29376802739795e6 0.0
0.0 0.0 0.0

-8.63406264960813e6 1.9409286581349343e7 0.0
1.9409286581349343e7 7.779110684454125e6 0.0
0.0 0.0 0.0

-1.158691943569498e7 6.3582717959569795e6 0.0
6.3582717959569795e6 2.435836569790643e7 0.0
0.0 0.0 0.0

993431.1164062009 9.627892966458822e6 0.0
9.627892966458822e6 -7.07815927397053e6 0.0
0.0 0.0 0.0

2.7583187677006247e6 1.2521703987200512e7 0.0
1.2521703987200512e7 -3.2443149864467736e6 0.0
0.0 0.0 0.0

-920983.3878496359 8.76500796846725e6 0.0
8.76500796846725e6 -6.413967747509057e6 0.0
0.0 0.0 0.0

-503848.7851361537 6.360132840969504e6 0.0
6.360132840969504e6 342128.3816899179 0.0
0.0 0.0 0.0

-6.619297764371296e6 1.8235652956468668e7 0.0
1.8235652956468668e7 6.29558724154901e6 0.0
0.0 0.0 0.0

-1.1217574504165236e7 1.0009162525031554e7 0.0
1.0009162525031554e7 1.304765402880435e7 0.0
0.0 0.0 0.0

2.8254704031405617e6 9.68822756546432e6 0.0
9.68822756546432e6 -1.7979819425260484e7 0.0
0.0 0.0 0.0

-1.228512862765646e7 1.4833915222616863e7 0.0
1.4833915222616863e7 5.466119869862179e6 0.0
0.0 0.0 0.0

-3.4159977212292673e6 1.612443105045605e7 0.0
1.612443105045605e7 -1.2652022077904863e6 0.0
0.0 0.0 0.0

5.265640032919471e6 6.444343485785168e6 0.0
6.444343485785168e6 -2.170521692352241e7 0.0
0.0 0.0 0.0

-4.331024033618316e6 1.3152101854472687e7 0.0
1.3152101854472687e7 7.462205230804197e6 0.0
0.0 0.0 0.0

-4.405870461644353e6 1.41535310013289e7 0.0
1.41535310013289e7 2.1169905435080463e6 0.0
0.0 0.0 0.0

-35134.60561094247 1.3267979994005116e7 0.0
1.3267979994005116e7 -8.103937612136773e6 0.0
0.0 0.0 0.0

-9.119163683264304e6 1.8419548683634672e7 0.0
1.8419548683634672e7 7.927815611160964e6 0.0
0.0 0.0 0.0

-3.763422185499316e6 1.425222265191829e7 0.0
1.425222265191829e7 750660.7103706743 0.0
0.0 0.0 0.0

-7.554156975021426e6 1.8501748567097824e7 0.0
1.8501748567097824e7 6.728098221261164e6 0.0
0.0 0.0 0.0

-638840.4505314524 6.448938886368735e6 0.0
6.448938886368735e6 -1.818417168197108e6 0.0
0.0 0.0 0.0

858994.4546490852 1.286937850372371e7 0.0
1.286937850372371e7 4.428557331675604e6 0.0
0.0 0.0 0.0

666634.5575634106 1.1834770401554462e7 0.0
1.1834770401554462e7 -1.1137585948797256e7 0.0
0.0 0.0 0.0

-1.9307851157956645e6 9.840296185230197e6 0.0
9.840296185230197e6 -1.0413621028792915e6 0.0
0.0 0.0 0.0

108621.20150500815 1.2583279313657444e7 0.0
1.2583279313657444e7 -9.339519969937593e6 0.0
0.0 0.0 0.0

2.727085905713729e6 6.992376173259278e6 0.0
6.992376173259278e6 -1.015707772248598e7 0.0
0.0 0.0 0.0

179012.10644585174 1.429723221695035e7 0.0
1.429723221695035e7 7.502364379339973e6 0.0
0.0 0.0 0.0

-8.893889046266723e6 -5.20730750127217e6 0.0
-5.20730750127217e6 1.7898805288541317e7 0.0
0.0 0.0 0.0

1.130650639769726e6 1.3076474912740897e7 0.0
1.3076474912740897e7 5.143690450009963e6 0.0
0.0 0.0 0.0

-6.302117781707036e6 1.7289932524808567e7 0.0
1.7289932524808567e7 5.377479916519295e6 0.0
0.0 0.0 0.0

1.1734300843429351e6 1.1708073341354454e7 0.0
1.1708073341354454e7 -1.2084554997773614e7 0.0
0.0 0.0 0.0

-3.391303450078969e6 1.7675234745545834e7 0.0
1.7675234745545834e7 -744955.7385120397 0.0
0.0 0.0 0.0

-263677.56045033544 1.3147893423128892e7 0.0
1.3147893423128892e7 -1.6431495357609403e6 0.0
0.0 0.0 0.0

3.3055185282361005e6 8.406217827382432e6 0.0
8.406217827382432e6 -1.2524542319940055e7 0.0
0.0 0.0 0.0

-3.7338441690904e6 1.5892241169452753e7 0.0
1.5892241169452753e7 -2.300978145860262e6 0.0
0.0 0.0 0.0

518534.21207674034 1.2045541361202301e7 0.0
1.2045541361202301e7 -1.0575138371367132e7 0.0
0.0 0.0 0.0

-3.0057261219489193e6 5.476006205239566e6 0.0
5.476006205239566e6 2.2068618457444767e6 0.0
0.0 0.0 0.0

-3.244980460514481e6 1.445917588228106e7 0.0
1.445917588228106e7 6.537475929385455e6 0.0
0.0 0.0 0.0

-4.733224211368952e6 1.48555812635557e7 0.0
1.48555812635557e7 5.10175351979197e6 0.0
0.0 0.0 0.0

-6.4597365822852645e6 1.765125628736987e7 0.0
1.765125628736987e7 5.6463108023885805e6 0.0
0.0 0.0 0.0

-2.0260513884279842e6 1.3028543496596983e7 0.0
1.3028543496596983e7 3.236877733886991e6 0.0
0.0 0.0 0.0

-779925.5160754774 5.358070059432393e6 0.0
5.358070059432393e6 -507831.4005326484 0.0
0.0 0.0 0.0

-1.2735810986827347e7 4.369479286685187e6 0.0
4.369479286685187e6 1.957878704612141e7 0.0
0.0 0.0 0.0

-170097.8355249171 1.287074658891515e7 0.0
1.287074658891515e7 -8.717486920117045e6 0.0
0.0 0.0 0.0

2.3662438499528626e6 1.153210556747453e7 0.0
1.153210556747453e7 -2.3182413323256902e7 0.0
0.0 0.0 0.0

-893352.0006663172 5.820457752413829e6 0.0
5.820457752413829e6 -760127.2955674207 0.0
0.0 0.0 0.0

-8.085308282340018e6 580093.8335301803 0.0
580093.8335301803 8.940134819286112e6 0.0
0.0 0.0 0.0

-5.476065238608953e6 1.0899084873774786e7 0.0
1.0899084873774786e7 3.2200419653827026e6 0.0
0.0 0.0 0.0

-3.742146009927556e6 1.6159986596509848e7 0.0
1.6159986596509848e7 -618454.9317575644 0.0
0.0 0.0 0.0

258092.24707921315 1.1553121477251636e7 0.0
1.1553121477251636e7 -1.6576611581213389e7 0.0
0.0 0.0 0.0

3.002950675573014e6 6.819405898543998e6 0.0
6.819405898543998e6 -9.146709285910683e6 0.0
0.0 0.0 0.0

-5.852224861288819e6 1.738487675205133e7 0.0
1.738487675205133e7 5.227117836627902e6 0.0
0.0 0.0 0.0

-3.0381652589366683e6 1.6084497887183547e7 0.0
1.6084497887183547e7 -2.0147604895151458e6 0.0
0.0 0.0 0.0

-1.3450125879204191e7 2.1285506291860092e7 0.0
2.1285506291860092e7 8.488244836176623e6 0.0
0.0 0.0 0.0

-6.060220975077691e6 1.7558208173779078e7 0.0
1.7558208173779078e7 5.77253078514454e6 0.0
0.0 0.0 0.0

-1.4809227853995632e7 1.7423367813165326e7 0.0
1.7423367813165326e7 5.656398735073975e6 0.0
0.0 0.0 0.0

-1.2970454154605523e6 1.4227007779712373e7 0.0
1.4227007779712373e7 -820623.3573862775 0.0
0.0 0.0 0.0

1.849711017831237e6 1.1388173526225386e7 0.0
1.1388173526225386e7 -2.174863930103315e7 0.0
0.0 0.0 0.0

-2.293243849805568e6 9.412316036156422e6 0.0
9.412316036156422e6 -1.6827287115727277e6 0.0
0.0 0.0 0.0

-1.203494484869364e7 -3.2578319593704185e6 0.0
-3.2578319593704185e6 2.2554550296350315e7 0.0
0.0 0.0 0.0

-1.2790719093368787e7 1.0441852385588583e6 0.0
1.0441852385588583e6 2.7604903478182063e7 0.0
0.0 0.0 0.0

4.66720725626036e6 6.695098389908505e6 0.0
6.695098389908505e6 -1.7180497814715154e7 0.0
0.0 0.0 0.0

-5.590361634570012e6 1.558747757837962e7 0.0
1.558747757837962e7 6.234042424022118e6 0.0
0.0 0.0 0.0

-1.101271106101586e7 8.614803606087795e6 0.0
8.614803606087795e6 2.6319642835973255e7 0.0
0.0 0.0 0.0

336078.11242625443 1.231084907912577e7 0.0
1.231084907912577e7 -9.963102494302075e6 0.0
0.0 0.0 0.0

-1.0173489189102134e7 1.0678765304951364e7 0.0
1.0678765304951364e7 2.287819794512627e7 0.0
0.0 0.0 0.0

-4.063428411468078e6 1.5899999099603537e7 0.0
1.5899999099603537e7 -1.6136511389325093e6 0.0
0.0 0.0 0.0

-5.198941473390223e6 1.8856714411413293e7 0.0
1.8856714411413293e7 796427.6928432083 0.0
0.0 0.0 0.0

-179868.71797426662 1.3044048056938719e7 0.0
1.3044048056938719e7 -2.2773761403140896e6 0.0
0.0 0.0 0.0

-7.223611967975901e6 2.102674915810692e6 0.0
2.102674915810692e6 9.094108668733727e6 0.0
0.0 0.0 0.0

-1.8741620005226505e6 1.298569803321958e7 0.0
1.298569803321958e7 4.043715955425741e6 0.0
0.0 0.0 0.0

-4.597636517708157e6 1.0713381747280756e7 0.0
1.0713381747280756e7 3.4575627862445936e6 0.0
0.0 0.0 0.0

4.784808757542582e6 5.868820982103899e6 0.0
5.868820982103899e6 -1.5733030801785404e7 0.0
0.0 0.0 0.0

1.1269913396231828e6 1.3944201599071413e7 0.0
1.3944201599071413e7 -5.605535084913779e6 0.0
0.0 0.0 0.0

-1.169368839454548e7 8.993944527734011e6 0.0
8.993944527734011e6 8.774214263967123e6 0.0
0.0 0.0 0.0

-9.471607169837933e6 1.421430171008544e7 0.0
1.421430171008544e7 -94050.97802225593 0.0
0.0 0.0 0.0

-6.0208976042867275e6 1.7511099949544936e7 0.0
1.7511099949544936e7 4.324117070626296e6 0.0
0.0 0.0 0.0

347753.14582385216 9.361529917604353e6 0.0
9.361529917604353e6 -6.802316908695663e6 0.0
0.0 0.0 0.0

-2.250854490060281e6 1.4020677667723957e7 0.0
1.4020677667723957e7 -435926.9742201347 0.0
0.0 0.0 0.0

-5.202719715635775e6 1.8683568810136385e7 0.0
1.8683568810136385e7 2.8655543555465424e6 0.0
0.0 0.0 0.0

-5.0247256497382615e6 1.2975481481241368e7 0.0
1.2975481481241368e7 8.523404164995959e6 0.0
0.0 0.0 0.0

-2.4077765592724336e6 1.3146736662282126e7 0.0
1.3146736662282126e7 3.464804720443908e6 0.0
0.0 0.0 0.0

1.0056462383216307e6 9.1567613517641e6 0.0
9.1567613517641e6 -6.489928922975843e6 0.0
0.0 0.0 0.0

-6.8218248092288375e6 1.946395269294858e7 0.0
1.946395269294858e7 6.060878638222143e6 0.0
0.0 0.0 0.0

-1.067502527674905e7 -3.2886613748032763e6 0.0
-3.2886613748032763e6 1.5244983450795133e7 0.0
0.0 0.0 0.0

4.509272413165716e6 6.357530767205931e6 0.0
6.357530767205931e6 -1.3082277917786596e7 0.0
0.0 0.0 0.0

-4.838727093400519e6 1.7051557179884125e7 0.0
1.7051557179884125e7 2.2244080079233674e6 0.0
0.0 0.0 0.0

888594.8562800502 1.1948658541854901e7 0.0
1.1948658541854901e7 -1.1317493937398631e7 0.0
0.0 0.0 0.0

-258411.80790137104 3.9176207147734333e6 0.0
3.9176207147734333e6 -1.3606763737447166e6 0.0
0.0 0.0 0.0

862670.3160825763 7.502146406735202e6 0.0
7.502146406735202e6 -6.864963400750864e6 0.0
0.0 0.0 0.0

-6.384692720375625e6 1.6254249931990469e7 0.0
1.6254249931990469e7 3.6464670262349094e6 0.0
0.0 0.0 0.0

2.909574271101117e6 9.01937466225161e6 0.0
9.01937466225161e6 -1.2239858887980329e7 0.0
0.0 0.0 0.0

606141.860377219 1.3992351941071302e7 0.0
1.3992351941071302e7 6.765351584202437e6 0.0
0.0 0.0 0.0

-1.3764023793922453e6 6.67631707051961e6 0.0
6.67631707051961e6 -2.161537281040066e6 0.0
0.0 0.0 0.0

-1.1170038900842713e6 5.254589972224395e6 0.0
5.254589972224395e6 -1.5738677151789e6 0.0
0.0 0.0 0.0

-1.544524001827871e6 1.8278541435547616e7 0.0
1.8278541435547616e7 -2.7516252297471613e6 0.0
0.0 0.0 0.0

-9.859201604559537e6 -2.1145915609695893e6 0.0
-2.1145915609695893e6 1.5373607416165574e7 0.0
0.0 0.0 0.0

377043.9708260014 1.1112962517874185e7 0.0
1.1112962517874185e7 -7.119998197326021e6 0.0
0.0 0.0 0.0

990622.9355025555 1.0426600361711245e7 0.0
1.0426600361711245e7 -642312.0413240979 0.0
0.0 0.0 0.0

2.905777183824628e6 1.5987107743915511e7 0.0
1.5987107743915511e7 -6.34909202305527e6 0.0
0.0 0.0 0.0

681117.6981985229 1.1836117920585968e7 0.0
1.1836117920585968e7 -9.222527377872288e6 0.0
0.0 0.0 0.0

1.8792246688279572e6 1.3611760106289519e7 0.0
1.3611760106289519e7 7.746414284245339e6 0.0
0.0 0.0 0.0

-7.125579346793587e6 1.7053768188902494e7 0.0
1.7053768188902494e7 6.609961653453041e6 0.0
0.0 0.0 0.0

-1.0117275924147928e7 -3.26309453890903e6 0.0
-3.26309453890903e6 2.066143749146008e7 0.0
0.0 0.0 0.0

-4.640158721045662e6 1.71434908293074e7 0.0
1.71434908293074e7 1.8217371783865353e6 0.0
0.0 0.0 0.0

-3.0818679035806214e6 1.3689128087215735e7 0.0
1.3689128087215735e7 7.006528923941714e6 0.0
0.0 0.0 0.0

1.9797608975497722e6 8.611612537749536e6 0.0
8.611612537749536e6 -1.02444814586211e7 0.0
0.0 0.0 0.0

5.478827600203289e6 5.839211400031132e6 0.0
5.839211400031132e6 -1.70925364876056e7 0.0
0.0 0.0 0.0

-4.021001368773606e6 1.4113868679903876e7 0.0
1.4113868679903876e7 -72365.87238085456 0.0
0.0 0.0 0.0

-4.277930870215749e6 7.560715985332793e6 0.0
7.560715985332793e6 3.6057951841340344e6 0.0
0.0 0.0 0.0

-1.1550323174725592e7 9.392188812775137e6 0.0
9.392188812775137e6 1.599678753963276e7 0.0
0.0 0.0 0.0

1.2278083984959852e6 1.1529342196707e7 0.0
1.1529342196707e7 -1.2650320024828544e7 0.0
0.0 0.0 0.0

1.9506001669758158e6 1.0967590224214653e7 0.0
1.0967590224214653e7 -2.078275347387271e7 0.0
0.0 0.0 0.0

-4.715054013902107e6 1.75314464880411e7 0.0
1.75314464880411e7 1.9391512148256027e6 0.0
0.0 0.0 0.0

-1.6609804560981272e6 1.3106770508499026e7 0.0
1.3106770508499026e7 2.274547243432251e6 0.0
0.0 0.0 0.0

-2.4084584534931034e7 4.979940610095262e6 0.0
4.979940610095262e6 1.109661865740437e7 0.0
0.0 0.0 0.0

2.1649167513930155e6 1.3977581189629229e7 0.0
1.3977581189629229e7 9.44919297725165e6 0.0
0.0 0.0 0.0

-2.121067922470223e7 1.3554665474730916e7 0.0
1.3554665474730916e7 9.81895244006578e6 0.0
0.0 0.0 0.0

3.139785958974083e6 8.734729084146513e6 0.0
8.734729084146513e6 -1.4611061787921872e7 0.0
0.0 0.0 0.0

4.455595343398277e6 4.837484944221188e6 0.0
4.837484944221188e6 -565726.7364187269 0.0
0.0 0.0 0.0

-6.530138476002652e6 -3.2997803216834143e6 0.0
-3.2997803216834143e6 4.911910262809334e6 0.0
0.0 0.0 0.0

-3.2300766591315717e6 7.281933819880804e6 0.0
7.281933819880804e6 2.3543613851302005e6 0.0
0.0 0.0 0.0

-1.0726944625117851e7 -1.6040026847403857e6 0.0
-1.6040026847403857e6 1.9490086075282786e7 0.0
0.0 0.0 0.0

-1.1338627758184353e7 -992185.1333810213 0.0
-992185.1333810213 1.550154658311649e7 0.0
0.0 0.0 0.0

549020.2130955686 1.2655586191404916e7 0.0
1.2655586191404916e7 -9.483579420958744e6 0.0
0.0 0.0 0.0

-1.820639547609471e6 8.948699144073151e6 0.0
8.948699144073151e6 -6.068798741903497e6 0.0
0.0 0.0 0.0

255336.1156615198 1.155070109435364e7 0.0
1.155070109435364e7 851120.4598782392 0.0
0.0 0.0 0.0

1.4075006568924242e6 1.0487708990072606e7 0.0
1.0487708990072606e7 -2.5225939196187686e6 0.0
0.0 0.0 0.0

-4.772810849439878e6 1.7895148528607693e7 0.0
1.7895148528607693e7 2.0905285757138692e6 0.0
0.0 0.0 0.0

-5.829931735845512e6 6.000248657214472e6 0.0
6.000248657214472e6 7.361171575729567e6 0.0
0.0 0.0 0.0

-251738.61952300929 1.2198550552269645e7 0.0
1.2198550552269645e7 -8.671613909354854e6 0.0
0.0 0.0 0.0

-5.899025594408682e6 1.5282787029754011e7 0.0
1.5282787029754011e7 3.837751838406065e6 0.0
0.0 0.0 0.0

3.9614657087511765e6 7.826342024226238e6 0.0
7.826342024226238e6 -1.646869479938035e7 0.0
0.0 0.0 0.0

-1.0300639430479385e7 -1.7289642930902087e6 0.0
-1.7289642930902087e6 1.6913510634116046e7 0.0
0.0 0.0 0.0

-4.2906835727262255e6 1.682974358348524e7 0.0
1.682974358348524e7 992043.7840214062 0.0
0.0 0.0 0.0

-1.4393547177532967e6 1.3138070735274987e7 0.0
1.3138070735274987e7 1.338318299687294e6 0.0
0.0 0.0 0.0

-1.21711220531069e6 1.3307173033876052e7 0.0
1.3307173033876052e7 475922.6102595039 0.0
0.0 0.0 0.0

-4.048947953980985e6 1.5815155161919257e7 0.0
1.5815155161919257e7 -1.5326953973894557e6 0.0
0.0 0.0 0.0

1.09315704520453e6 1.2197903702123199e7 0.0
1.2197903702123199e7 4.42127239473848e6 0.0
0.0 0.0 0.0

-2.416245390853789e6 1.5119361380162206e7 0.0
1.5119361380162206e7 -1.5074128213475747e6 0.0
0.0 0.0 0.0

-1.2057141669407383e7 8.428525756027417e6 0.0
8.428525756027417e6 1.906509770312588e7 0.0
0.0 0.0 0.0

-1.1648613399614047e7 -3.635941504726742e6 0.0
-3.635941504726742e6 2.0126258197284944e7 0.0
0.0 0.0 0.0

2.483779261412068e6 8.383506530758271e6 0.0
8.383506530758271e6 -9.878950275438303e6 0.0
0.0 0.0 0.0

4.888834675385038e6 6.3075170821330715e6 0.0
6.3075170821330715e6 -1.7700877153324794e7 0.0
0.0 0.0 0.0

23862.007452348247 1.2381017250167117e7 0.0
1.2381017250167117e7 -7.878189383542997e6 0.0
0.0 0.0 0.0

1.0223433675844426e6 1.288236814194116e7 0.0
1.288236814194116e7 3.6024834047054774e6 0.0
0.0 0.0 0.0

2.866512024138339e6 6.479271387472397e6 0.0
6.479271387472397e6 -9.69603268728578e6 0.0
0.0 0.0 0.0

-1.81225391078455e6 1.179298170205688e7 0.0
1.179298170205688e7 -1.3303770178393431e7 0.0
0.0 0.0 0.0

2.0727448357506683e6 1.0673916428367084e7 0.0
1.0673916428367084e7 -1.9778319693330266e7 0.0
0.0 0.0 0.0

-4.393759596178936e6 1.0301964368104622e7 0.0
1.0301964368104622e7 1.4297118341704698e6 0.0
0.0 0.0 0.0

-5.921381833448272e6 1.575393820816996e7 0.0
1.575393820816996e7 6.114933899307685e6 0.0
0.0 0.0 0.0

-3.5023712116905386e6 1.5681890874208173e7 0.0
1.5681890874208173e7 -874242.4398166185 0.0
0.0 0.0 0.0

-1.1354747225658435e7 -1.9729603468244239e6 0.0
-1.9729603468244239e6 2.7697778889083736e7 0.0
0.0 0.0 0.0

2.241625517029403e6 1.04886556075842e7 0.0
1.04886556075842e7 -1.8922002206446566e7 0.0
0.0 0.0 0.0

-1.211904627916153e7 8.043036135972732e6 0.0
8.043036135972732e6 2.0613304407072466e7 0.0
0.0 0.0 0.0

-1.05192725997321e6 1.346554765910221e7 0.0
1.346554765910221e7 -313953.71669672854 0.0
0.0 0.0 0.0

-5.248730674678203e6 1.76708085926314e7 0.0
1.76708085926314e7 1.7395372162150997e6 0.0
0.0 0.0 0.0

-9.595245193526566e6 1.6233568284178974e7 0.0
1.6233568284178974e7 6.274572755342948e6 0.0
0.0 0.0 0.0

-1.1858041473631345e7 8.305392584274101e6 0.0
8.305392584274101e6 1.6273601820585236e7 0.0
0.0 0.0 0.0

-1.5536213348666134e6 9.812143268782064e6 0.0
9.812143268782064e6 -8.733305817539075e6 0.0
0.0 0.0 0.0

524723.6294884027 1.2319185626409627e7 0.0
1.2319185626409627e7 2.902955474753755e6 0.0
0.0 0.0 0.0

4.39620532439113e6 6.984542494751872e6 0.0
6.984542494751872e6 -1.6691091677277116e7 0.0
0.0 0.0 0.0

1.2949362731346842e6 7.155096448120799e6 0.0
7.155096448120799e6 -7.435232322005399e6 0.0
0.0 0.0 0.0

-1.187426625724189e7 5.510711992909045e6 0.0
5.510711992909045e6 2.0983625736201063e7 0.0
0.0 0.0 0.0

-4.364832004949095e6 1.3958352856732227e7 0.0
1.3958352856732227e7 5.35395696966044e6 0.0
0.0 0.0 0.0

-1.6493265653658606e7 1.3218522140563361e7 0.0
1.3218522140563361e7 6.178487019675621e6 0.0
0.0 0.0 0.0

1.571398082344409e6 1.090859087184914e7 0.0
1.090859087184914e7 -1.355996733112203e7 0.0
0.0 0.0 0.0

3.5053425902407207e6 8.54610496789809e6 0.0
8.54610496789809e6 -1.6133095510314438e7 0.0
0.0 0.0 0.0

2.3549096388657372e6 1.0375045397119308e7 0.0
1.0375045397119308e7 -1.8116502287377074e7 0.0
0.0 0.0 0.0

2.4192198359684483e6 5.10608672545539e6 0.0
5.10608672545539e6 -7.202117331364456e6 0.0
0.0 0.0 0.0

-1.4038645338088763e6 1.3288056707367556e7 0.0
1.3288056707367556e7 -4.9539758533994965e6 0.0
0.0 0.0 0.0

-448547.5554170115 1.435418060878655e7 0.0
1.435418060878655e7 -6.15583212335411e6 0.0
0.0 0.0 0.0

-1.6232896953282604e7 1.859245817021928e7 0.0
1.859245817021928e7 1.1581474611815993e7 0.0
0.0 0.0 0.0

1.4364384496650216e6 5.067537187023121e6 0.0
5.067537187023121e6 -5.072528038386449e6 0.0
0.0 0.0 0.0

834699.3158781533 1.2165533870483423e7 0.0
1.2165533870483423e7 -1.0708484377750557e7 0.0
0.0 0.0 0.0

-1.0114153789080568e7 1.0348022283380836e7 0.0
1.0348022283380836e7 1.3583982414822381e7 0.0
0.0 0.0 0.0

-9.31880288457114e6 -24244.651821682288 0.0
-24244.651821682288 1.2887183420404688e7 0.0
0.0 0.0 0.0

4.571079382260832e6 6.172284545147728e6 0.0
6.172284545147728e6 -1.5257821896607794e7 0.0
0.0 0.0 0.0

-1.014990747310113e7 1.329500568911742e6 0.0
1.329500568911742e6 1.367346374776803e7 0.0
0.0 0.0 0.0

-1.0902360229328573e7 401587.1089501654 0.0
401587.1089501654 1.7083429186740033e7 0.0
0.0 0.0 0.0

-4.0498360267497106e6 6.693973098864231e6 0.0
6.693973098864231e6 3.944376049555825e6 0.0
0.0 0.0 0.0

-5.24183352890305e6 1.4818771475406036e7 0.0
1.4818771475406036e7 6.572696799667789e6 0.0
0.0 0.0 0.0

-1.153850482091139e6 8.617726497711508e6 0.0
8.617726497711508e6 -1.7799756894388993e6 0.0
0.0 0.0 0.0

1.0162806550204374e7 5.79096048218805e6 0.0
5.79096048218805e6 -2.8118295123296753e6 0.0
0.0 0.0 0.0

-1.8583956085996293e7 -3.189705405529591e6 0.0
-3.189705405529591e6 8.776189587719547e6 0.0
0.0 0.0 0.0

2.4203378346605916e6 6.987142484746857e6 0.0
6.987142484746857e6 -7.879745868835205e6 0.0
0.0 0.0 0.0

4.0926520568496417e6 8.242017125036483e6 0.0
8.242017125036483e6 -1.567100579009738e7 0.0
0.0 0.0 0.0

4.548517146638368e6 7.422069176276203e6 0.0
7.422069176276203e6 -1.5857286636224652e7 0.0
0.0 0.0 0.0

1.167762960340192e6 1.5507439793317355e6 0.0
1.5507439793317355e6 427589.322408392 0.0
0.0 0.0 0.0

-419930.9083703314 -705647.1589110453 0.0
-705647.1589110453 643788.3192749524 0.0
0.0 0.0 0.0

-538284.6799625806 1.1636899838373017e7 0.0
1.1636899838373017e7 -1.3112428879084302e7 0.0
0.0 0.0 0.0

4.751896685343891e6 6.3012314191596e6 0.0
6.3012314191596e6 -1.6841484485145755e7 0.0
0.0 0.0 0.0

-1.1713131610828176e7 1.606479016992793e7 0.0
1.606479016992793e7 937969.4185216557 0.0
0.0 0.0 0.0

-7.700929816237368e6 1.2859118238526555e7 0.0
1.2859118238526555e7 8.8453082060857e6 0.0
0.0 0.0 0.0

-4.0306074184174375e6 1.647837156696749e7 0.0
1.647837156696749e7 174209.0526314585 0.0
0.0 0.0 0.0

753832.5398499803 1.2100921674672477e7 0.0
1.2100921674672477e7 3.741872181295865e6 0.0
0.0 0.0 0.0

3.489095264850521e6 8.730896178353777e6 0.0
8.730896178353777e6 2.3034347770040003e6 0.0
0.0 0.0 0.0

-7.957457651489701e6 1.7173371702461414e7 0.0
1.7173371702461414e7 1.804723017542251e6 0.0
0.0 0.0 0.0

-1.1689000748743594e7 697504.8397238016 0.0
697504.8397238016 2.3540627873366788e7 0.0
0.0 0.0 0.0

-5.43706882085132e6 1.5294427434758892e7 0.0
1.5294427434758892e7 5.672860643798736e6 0.0
0.0 0.0 0.0

-64629.85550053185 1.432551847015369e7 0.0
1.432551847015369e7 -6.071042223881263e6 0.0
0.0 0.0 0.0

-9.305388547002438e6 1.0755214986060316e7 0.0
1.0755214986060316e7 1.2900409974393932e7 0.0
0.0 0.0 0.0

-7.115451901540787e6 -1.1676746582512418e6 0.0
-1.1676746582512418e6 9.371316007563625e6 0.0
0.0 0.0 0.0

-5.103270206276028e6 1.690929395595024e7 0.0
1.690929395595024e7 1.4481116897342366e6 0.0
0.0 0.0 0.0

3.4305167504855767e6 8.436818994112233e6 0.0
8.436818994112233e6 -1.5280041150505144e7 0.0
0.0 0.0 0.0

-2.895748090246716e6 1.6400554568363067e7 0.0
1.6400554568363067e7 -2.1271074933186783e6 0.0
0.0 0.0 0.0

4.960441867290495e6 6.6769769777352875e6 0.0
6.6769769777352875e6 -1.6201615366365757e7 0.0
0.0 0.0 0.0

279598.49930848414 1.295875911375279e7 0.0
1.295875911375279e7 5.259678679675285e6 0.0
0.0 0.0 0.0

-2.3345205089693014e6 1.349906233374502e7 0.0
1.349906233374502e7 -3.909055841903379e6 0.0
0.0 0.0 0.0

-3.7638247117093764e6 3.3819884881669376e6 0.0
3.3819884881669376e6 2.242983187794571e6 0.0
0.0 0.0 0.0

-192938.81184650003 9.33411581286772e6 0.0
9.33411581286772e6 -6.284854835791914e6 0.0
0.0 0.0 0.0

5.2656819292623075e6 5.885359783058025e6 0.0
5.885359783058025e6 -1.6203669670171728e7 0.0
0.0 0.0 0.0

1.126596959131624e6 1.700397622307491e7 0.0
1.700397622307491e7 -5.68585121730293e6 0.0
0.0 0.0 0.0

2.5164409502208983e6 6.659644789531068e6 0.0
6.659644789531068e6 -9.1957254706664e6 0.0
0.0 0.0 0.0

-7.510571161517242e6 3.6065368021145263e6 0.0
3.6065368021145263e6 8.081779390846908e6 0.0
0.0 0.0 0.0

-6.187207255340114e6 1.6913844110870186e7 0.0
1.6913844110870186e7 5.025048673841732e6 0.0
0.0 0.0 0.0

2.289683793819433e6 1.0255471527794553e7 0.0
1.0255471527794553e7 -1.7281322333592717e7 0.0
0.0 0.0 0.0

-2.5665040033106003e6 9.856846609518364e6 0.0
9.856846609518364e6 -8.55501345214296e6 0.0
0.0 0.0 0.0

710924.2842181253 1.184654874108454e7 0.0
1.184654874108454e7 2.369747717843141e6 0.0
0.0 0.0 0.0

-1.6239886377414837e6 8.796512938971896e6 0.0
8.796512938971896e6 -1.0493765887357753e6 0.0
0.0 0.0 0.0

-4.7133162146258475e6 9.51401341732057e6 0.0
9.51401341732057e6 2.223891148257657e6 0.0
0.0 0.0 0.0

-1.15914930073856e6 1.343550056362608e7 0.0
1.343550056362608e7 5.409673585865889e6 0.0
0.0 0.0 0.0

-7.023370744511779e6 450867.13731921057 0.0
450867.13731921057 9.156952453646282e6 0.0
0.0 0.0 0.0

496498.6658029491 1.1550560192932634e7 0.0
1.1550560192932634e7 804121.3160356146 0.0
0.0 0.0 0.0

-6.822499362997893e6 1.4391621395139754e7 0.0
1.4391621395139754e7 7.740301736312211e6 0.0
0.0 0.0 0.0

2.121940375485922e6 6.617985179310087e6 0.0
6.617985179310087e6 -8.460809038247203e6 0.0
0.0 0.0 0.0

-1.0430093506936261e7 342713.77359377965 0.0
342713.77359377965 1.2367452698408496e7 0.0
0.0 0.0 0.0

-1.7372383155242237e6 1.4631392869863678e7 0.0
1.4631392869863678e7 -1.8305517073993636e6 0.0
0.0 0.0 0.0

-9.635699229411205e6 1.100619961257964e7 0.0
1.100619961257964e7 1.1792310966203284e7 0.0
0.0 0.0 0.0

-2.197833035689059e6 1.3390012963563658e7 0.0
1.3390012963563658e7 5.263411692192447e6 0.0
0.0 0.0 0.0

-1.0650996034714865e7 2.6732706000388158e6 0.0
2.6732706000388158e6 1.4243832298685938e7 0.0
0.0 0.0 0.0

-1.0614975993988528e6 1.4219291272416418e7 0.0
1.4219291272416418e7 -6.227135573111854e6 0.0
0.0 0.0 0.0

-6.486269394254522e6 1.693031128173096e7 0.0
1.693031128173096e7 6.533837327783174e6 0.0
0.0 0.0 0.0

-1.1818605510875616e7 3.9523319219302875e6 0.0
3.9523319219302875e6 2.0666510048549064e7 0.0
0.0 0.0 0.0

-5.115940532095648e6 7.796290685867355e6 0.0
7.796290685867355e6 3.2994117317497805e6 0.0
0.0 0.0 0.0

-1.1579274268630646e7 -2.1932771250451603e6 0.0
-2.1932771250451603e6 1.8634415451914225e7 0.0
0.0 0.0 0.0

110479.59780435497 1.1933579471049415e7 0.0
1.1933579471049415e7 -9.378008238304833e6 0.0
0.0 0.0 0.0

-5.750447256162532e6 1.55106801084651e7 0.0
1.55106801084651e7 6.359613129257137e6 0.0
0.0 0.0 0.0

-964316.611041525 1.3667373055531086e7 0.0
1.3667373055531086e7 -956619.0000194332 0.0
0.0 0.0 0.0

2.9645887210885044e6 7.3139073798044175e6 0.0
7.3139073798044175e6 -9.60506721486482e6 0.0
0.0 0.0 0.0

-7.968834059983067e6 -2.8101051014104728e6 0.0
-2.8101051014104728e6 1.3453849011344038e7 0.0
0.0 0.0 0.0

-1.0606537488593701e7 1.0798170121792218e7 0.0
1.0798170121792218e7 2.080291482669164e7 0.0
0.0 0.0 0.0

-1.166190846622682e7 6.84128071645484e6 0.0
6.84128071645484e6 2.2388880964433998e7 0.0
0.0 0.0 0.0

-2.6356171349181337e6 1.1051997804950278e7 0.0
1.1051997804950278e7 4.936912626109367e6 0.0
0.0 0.0 0.0

-1.1137788647749737e7 1.7488417027431615e6 0.0
1.7488417027431615e6 1.2999812860978737e7 0.0
0.0 0.0 0.0

-3.76843521959115e6 9.367646186253786e6 0.0
9.367646186253786e6 2.315847976691999e6 0.0
0.0 0.0 0.0

-2.0605958869405054e6 1.275953469272293e7 0.0
1.275953469272293e7 -2.378803113505522e6 0.0
0.0 0.0 0.0

109973.06265746336 1.0811335551287003e7 0.0
1.0811335551287003e7 -7.598620592613667e6 0.0
0.0 0.0 0.0

-5.32950914040058e6 1.454042690872617e7 0.0
1.454042690872617e7 7.159671876628105e6 0.0
0.0 0.0 0.0

-6.97077758917344e6 1.8491348025104914e7 0.0
1.8491348025104914e7 6.653938850280684e6 0.0
0.0 0.0 0.0

-1.2605853659210008e7 6.0492903886299e6 0.0
6.0492903886299e6 1.65581819787082e7 0.0
0.0 0.0 0.0

1.7585925479438144e6 1.2184751350396315e7 0.0
1.2184751350396315e7 6.413274805515896e6 0.0
0.0 0.0 0.0

1.098557309551842e6 1.2099169859926479e7 0.0
1.2099169859926479e7 -7.2642466584610175e6 0.0
0.0 0.0 0.0

2.9763462081106156e6 8.715599465264706e6 0.0
8.715599465264706e6 -1.200444184055965e7 0.0
0.0 0.0 0.0

5.394612635647378e6 5.106697735227448e6 0.0
5.106697735227448e6 -1.7046599411112398e7 0.0
0.0 0.0 0.0

-9.299883405946195e6 -5.112475700567204e6 0.0
-5.112475700567204e6 1.6071546448921043e7 0.0
0.0 0.0 0.0

-5.273956053791458e6 1.4480251947162727e7 0.0
1.4480251947162727e7 6.733562484592451e6 0.0
0.0 0.0 0.0

-8.250470762799098e6 1.0173894867247866e7 0.0
1.0173894867247866e7 1.3890340490495263e7 0.0
0.0 0.0 0.0

-8.45385234625746e6 1.23155198884233e7 0.0
1.23155198884233e7 3.3081273916176192e7 0.0
0.0 0.0 0.0

91966.53688482614 1.0339226811670909e7 0.0
1.0339226811670909e7 -7.077007627325528e6 0.0
0.0 0.0 0.0

1.2425155517381167e6 1.2352477875587989e7 0.0
1.2352477875587989e7 4.141718787470025e6 0.0
0.0 0.0 0.0

-8.111954678056257e6 -1.4048314253148355e6 0.0
-1.4048314253148355e6 1.0093182523870317e7 0.0
0.0 0.0 0.0

-1.4982884939793542e7 -2.9122503942186437e6 0.0
-2.9122503942186437e6 6.537333554413463e6 0.0
0.0 0.0 0.0

3.3616558902442288e6 8.061345944472967e6 0.0
8.061345944472967e6 -1.4029579107216513e7 0.0
0.0 0.0 0.0

-8.769192576952409e6 1.454469819501237e6 0.0
1.454469819501237e6 9.570996816391516e6 0.0
0.0 0.0 0.0

3.252735331656982e6 8.813729013779407e6 0.0
8.813729013779407e6 -1.5485877894385297e7 0.0
0.0 0.0 0.0

-1.1103457628572177e7 1.0222422806528471e7 0.0
1.0222422806528471e7 1.6279039036241066e7 0.0
0.0 0.0 0.0

4.561926674793786e6 5.678575774471116e6 0.0
5.678575774471116e6 -1.2225480269301834e7 0.0
0.0 0.0 0.0

-599998.5623589058 1.762035814784906e7 0.0
1.762035814784906e7 -4.677748490169462e6 0.0
0.0 0.0 0.0

-1.500517887548588e6 9.656620731429845e6 0.0
9.656620731429845e6 -1.7699474583893828e6 0.0
0.0 0.0 0.0

1.0845732095900169e6 5.903070976458896e6 0.0
5.903070976458896e6 -4.326063149315412e6 0.0
0.0 0.0 0.0

1.404604503678195e7 5.864240601290316e6 0.0
5.864240601290316e6 -3.480925703624144e6 0.0
0.0 0.0 0.0

-1.0310713815991793e7 1.1136727711979015e7 0.0
1.1136727711979015e7 1.4784056731605096e7 0.0
0.0 0.0 0.0

-156734.54216202535 7.961868945400248e6 0.0
7.961868945400248e6 -4.706805947424138e6 0.0
0.0 0.0 0.0

-1.1836422128663061e7 -677018.5902350297 0.0
-677018.5902350297 1.7584387712335527e7 0.0
0.0 0.0 0.0

1.809962345914281e6 5.494357889409866e6 0.0
5.494357889409866e6 -6.920991334755474e6 0.0
0.0 0.0 0.0

-1.5440583549637133e6 1.4325604803513905e7 0.0
1.4325604803513905e7 -1.6727362689091011e6 0.0
0.0 0.0 0.0

-7.127702248869479e6 1.3137584430566313e7 0.0
1.3137584430566313e7 9.298239236308584e6 0.0
0.0 0.0 0.0

-6.599417939895622e6 4.204131932049593e6 0.0
4.204131932049593e6 8.926755631111518e6 0.0
0.0 0.0 0.0

3.7545225517481156e6 7.430549079161889e6 0.0
7.430549079161889e6 -1.4286192726012236e7 0.0
0.0 0.0 0.0

-623708.6434695385 1.1771092979919923e7 0.0
1.1771092979919923e7 -1.515281612063682e7 0.0
0.0 0.0 0.0

-1.6137118967520962e6 6.068651746573242e6 0.0
6.068651746573242e6 -1.1402699349836651e6 0.0
0.0 0.0 0.0

4.1117231323888763e6 5.761155784195533e6 0.0
5.761155784195533e6 -1.1486515870851582e7 0.0
0.0 0.0 0.0

-1.043695914174535e6 1.204166627495027e7 0.0
1.204166627495027e7 -6.26410214443798e6 0.0
0.0 0.0 0.0

6.191904675740538e6 1.2316124655552503e7 0.0
1.2316124655552503e7 -2.1616783221465093e6 0.0
0.0 0.0 0.0

5.376938146853454e6 6.272181005116819e6 0.0
6.272181005116819e6 -1.742912048325718e7 0.0
0.0 0.0 0.0

-3.8279186709490633e6 -1.034772051291238e6 0.0
-1.034772051291238e6 332543.107889164 0.0
0.0 0.0 0.0

-7.988283479493271e6 1.1514878545987222e7 0.0
1.1514878545987222e7 1.1124371309341576e7 0.0
0.0 0.0 0.0

-556692.0717381971 6.89490185622586e6 0.0
6.89490185622586e6 -2.1002548468461027e6 0.0
0.0 0.0 0.0

-8.37601017442257e6 2.8818645603429056e6 0.0
2.8818645603429056e6 1.1639811271203993e7 0.0
0.0 0.0 0.0

5.458034740065046e6 6.5279615266999025e6 0.0
6.5279615266999025e6 -1.9552701011805445e7 0.0
0.0 0.0 0.0

2.1231507423653346e6 1.257685944314124e7 0.0
1.257685944314124e7 7.077169171140606e6 0.0
0.0 0.0 0.0

-968722.1312618805 1.400494547388987e7 0.0
1.400494547388987e7 7.929384812475106e6 0.0
0.0 0.0 0.0

-1.0752197845393475e6 1.1336409428953022e7 0.0
1.1336409428953022e7 -1.1394989289263153e7 0.0
0.0 0.0 0.0

-24281.284349067602 9.663282918797662e6 0.0
9.663282918797662e6 -6.21858426284373e6 0.0
0.0 0.0 0.0

-6.675988518398039e6 1.3705499687727766e7 0.0
1.3705499687727766e7 8.788196202172004e6 0.0
0.0 0.0 0.0

3.592353081223382e6 1.2590113782086274e7 0.0
1.2590113782086274e7 -3.519629696608939e6 0.0
0.0 0.0 0.0

2.943333874291335e6 8.66799941805165e6 0.0
8.66799941805165e6 -1.3729953118094902e7 0.0
0.0 0.0 0.0

-5.404885283834132e6 1.8051956510781202e7 0.0
1.8051956510781202e7 1.8533818644497846e6 0.0
0.0 0.0 0.0

-751193.7755047614 9.497374454063956e6 0.0
9.497374454063956e6 524536.4839556576 0.0
0.0 0.0 0.0

-3.811996878755532e7 -4656.301245884325 0.0
-4656.301245884325 1.0099044443997208e7 0.0
0.0 0.0 0.0

2.4545769320496164e7 6.071297943071711e6 0.0
6.071297943071711e6 -4.159433308860576e6 0.0
0.0 0.0 0.0

-394732.7511513778 1.171060233785005e7 0.0
1.171060233785005e7 3.842184578869844e6 0.0
0.0 0.0 0.0

-7.381890186615901e6 2.7761681533680824e6 0.0
2.7761681533680824e6 1.9593781620226637e7 0.0
0.0 0.0 0.0

-1.5981016975618459e6 1.3298588979893431e7 0.0
1.3298588979893431e7 4.97709052328319e6 0.0
0.0 0.0 0.0

-3.3509060276406687e6 1.584907099833492e7 0.0
1.584907099833492e7 -3.0740735164914983e6 0.0
0.0 0.0 0.0

1.4058315569039043e6 1.3228028958829178e7 0.0
1.3228028958829178e7 4.686105978099867e6 0.0
0.0 0.0 0.0

-5.802000722524955e6 4.22247425977372e6 0.0
4.22247425977372e6 7.677792257485563e6 0.0
0.0 0.0 0.0

-6.328364637165886e6 1.3216798315082764e7 0.0
1.3216798315082764e7 6.435531606407113e6 0.0
0.0 0.0 0.0

-2.6671235278367277e7 1.9890366097475357e7 0.0
1.9890366097475357e7 4.764085877532154e6 0.0
0.0 0.0 0.0

4.39750430737692e6 5.859275566574052e6 0.0
5.859275566574052e6 -1.3307921321197338e7 0.0
0.0 0.0 0.0

-970835.6364981573 1.3876946213219903e7 0.0
1.3876946213219903e7 -1.4413258341532394e6 0.0
0.0 0.0 0.0

1.9897081275002337e6 1.2114137548218977e7 0.0
1.2114137548218977e7 7.900787150281919e6 0.0
0.0 0.0 0.0

-3.111788665356518e6 1.0671958522390844e7 0.0
1.0671958522390844e7 -1.0372628944366371e7 0.0
0.0 0.0 0.0

1.0708804748775281e6 1.2185995589063808e7 0.0
1.2185995589063808e7 3.569601777699846e6 0.0
0.0 0.0 0.0

2.388762555802907e6 1.0321361355056355e7 0.0
1.0321361355056355e7 -1.6701619159043135e7 0.0
0.0 0.0 0.0

-8.604367774334118e6 -232400.7734304512 0.0
-232400.7734304512 1.1487126689991798e7 0.0
0.0 0.0 0.0

-1.0917108874417199e7 1.6525323768696554e7 0.0
1.6525323768696554e7 8.85988409475717e6 0.0
0.0 0.0 0.0

2.505618249805701e6 6.98014255186072e6 0.0
6.98014255186072e6 -9.39756276930013e6 0.0
0.0 0.0 0.0

-1.011660380890274e7 1.1377349658426527e7 0.0
1.1377349658426527e7 1.394983935587595e7 0.0
0.0 0.0 0.0

-5.722939391612953e6 3.4398480120269647e6 0.0
3.4398480120269647e6 5.152178705623968e6 0.0
0.0 0.0 0.0

-6.902543413593696e6 1.819630247690167e7 0.0
1.819630247690167e7 6.6797639747293545e6 0.0
0.0 0.0 0.0

-1.21009016615194e7 1.879634574941315e7 0.0
1.879634574941315e7 9.272722684701297e6 0.0
0.0 0.0 0.0

-1.834472201956438e6 -2.205927975252545e6 0.0
-2.205927975252545e6 2.3601736082331017e6 0.0
0.0 0.0 0.0

-942443.9506580515 9.94583934390761e6 0.0
9.94583934390761e6 -7.354448071464678e6 0.0
0.0 0.0 0.0

-2.6646695880671507e6 1.5374901353073398e7 0.0
1.5374901353073398e7 -2.892188694955706e6 0.0
0.0 0.0 0.0

-1.5233557863604927e6 5.155728061991914e6 0.0
5.155728061991914e6 -689724.9891348442 0.0
0.0 0.0 0.0

-1.8937353864091083e6 1.788900211647226e7 0.0
1.788900211647226e7 -3.7690975194007033e6 0.0
0.0 0.0 0.0

-6.557810954324815e6 3.5922829574845447e6 0.0
3.5922829574845447e6 6.7588923337932285e6 0.0
0.0 0.0 0.0

4.643258111008655e6 5.900995460271794e6 0.0
5.900995460271794e6 -1.4994918104857871e7 0.0
0.0 0.0 0.0

4.280391416096943e6 6.288722396876619e6 0.0
6.288722396876619e6 -1.3869218403856263e7 0.0
0.0 0.0 0.0

764331.7433403409 9.584067230220504e6 0.0
9.584067230220504e6 -7.918629046177925e6 0.0
0.0 0.0 0.0

-1.2921733774442102e6 1.416718451462636e7 0.0
1.416718451462636e7 -6.201940995079521e6 0.0
0.0 0.0 0.0

5.644349092330206e6 6.22937948502806e6 0.0
6.22937948502806e6 -2.0305066115031447e7 0.0
0.0 0.0 0.0

-4.215159639488482e6 1.5190635250750935e7 0.0
1.5190635250750935e7 -1.4110167880470415e6 0.0
0.0 0.0 0.0

1.141101767977532e6 1.0922906269596659e7 0.0
1.0922906269596659e7 -1.1208887546954185e7 0.0
0.0 0.0 0.0

-1.0773495725385021e7 9.68079390975954e6 0.0
9.68079390975954e6 1.2806117663525574e7 0.0
0.0 0.0 0.0

-2.881300795929521e6 1.5413270152911061e7 0.0
1.5413270152911061e7 -1.0577457652745857e6 0.0
0.0 0.0 0.0

3.537994714413883e6 8.44426690514073e6 0.0
8.44426690514073e6 -1.3379812824726716e7 0.0
0.0 0.0 0.0

-2.0657212644147348e7 1.0188488052569963e7 0.0
1.0188488052569963e7 1.0709644896589942e7 0.0
0.0 0.0 0.0

4.841070905563084e6 5.556763664944893e6 0.0
5.556763664944893e6 -1.543109285361185e7 0.0
0.0 0.0 0.0

4.67702269448257e6 6.283871074029136e6 0.0
6.283871074029136e6 -1.3762277622737177e7 0.0
0.0 0.0 0.0

-771357.9764647197 1.304612512671114e7 0.0
1.304612512671114e7 -6.862614572320097e6 0.0
0.0 0.0 0.0

-1.0021183248484679e7 -2.2890999583218885e6 0.0
-2.2890999583218885e6 3.4145970361571526e6 0.0
0.0 0.0 0.0

1.2129833006366957e6 7.962856736874599e6 0.0
7.962856736874599e6 -6.14834718387162e6 0.0
0.0 0.0 0.0

-7.084408725526692e6 1.104006646628515e7 0.0
1.104006646628515e7 1.621465448035451e7 0.0
0.0 0.0 0.0

-6.296844477296991e6 1.7633012795553617e7 0.0
1.7633012795553617e7 6.194666358012158e6 0.0
0.0 0.0 0.0

-7.449293965399338e6 1.83598241067112e7 0.0
1.83598241067112e7 7.086309122949046e6 0.0
0.0 0.0 0.0

-7.032342361354976e6 4.548904720846903e6 0.0
4.548904720846903e6 7.222526090999928e6 0.0
0.0 0.0 0.0

-1.0377864984757824e7 8.902516921260338e6 0.0
8.902516921260338e6 3.2385533606893267e7 0.0
0.0 0.0 0.0

-6.008723183403453e6 1.7754942116094906e7 0.0
1.7754942116094906e7 5.604211656705521e6 0.0
0.0 0.0 0.0

-1.561954567741429e6 1.388291758641989e7 0.0
1.388291758641989e7 -807759.4906034172 0.0
0.0 0.0 0.0

1.1606693466301763e6 1.1324317633713242e7 0.0
1.1324317633713242e7 -5.346561593867806e6 0.0
0.0 0.0 0.0

9.016536805299994e6 1.309806190526822e7 0.0
1.309806190526822e7 4.333038959806563e6 0.0
0.0 0.0 0.0

-6.24686261648752e6 5.160030628667918e6 0.0
5.160030628667918e6 8.129347770773485e6 0.0
0.0 0.0 0.0

5.098531658258992e6 5.605414917389715e6 0.0
5.605414917389715e6 -1.4554290393503185e7 0.0
0.0 0.0 0.0

-772362.8979483647 1.2393059984239763e7 0.0
1.2393059984239763e7 -5.706835719910958e6 0.0
0.0 0.0 0.0

-2.372799479063522e6 1.002331245780952e7 0.0
1.002331245780952e7 -285656.3127667864 0.0
0.0 0.0 0.0

-1.1309047744182032e7 7.436995388576005e6 0.0
7.436995388576005e6 6.729951445663765e6 0.0
0.0 0.0 0.0

-9.31833131597811e6 -2.386162481057776e6 0.0
-2.386162481057776e6 1.6082648640382215e7 0.0
0.0 0.0 0.0

-3.986959797478002e7 2.75778653942107e7 0.0
2.75778653942107e7 -1.0882587031520922e6 0.0
0.0 0.0 0.0

-3.8397146526719886e6 1.1825393448410917e7 0.0
1.1825393448410917e7 -1.2799048930369841e7 0.0
0.0 0.0 0.0

1.7575284291901537e6 1.2500156950357715e7 0.0
1.2500156950357715e7 5.858428513777551e6 0.0
0.0 0.0 0.0

1.72891596855002e6 1.041242493382598e7 0.0
1.041242493382598e7 -1.2554516579012593e7 0.0
0.0 0.0 0.0

-9.65538355142035e6 1.4585983124055373e7 0.0
1.4585983124055373e7 6.326953902943252e6 0.0
0.0 0.0 0.0

2.6900693240201375e6 7.312749647959463e6 0.0
7.312749647959463e6 -8.8516820400091e6 0.0
0.0 0.0 0.0

3.922370503006041e6 7.812079324714035e6 0.0
7.812079324714035e6 -1.3639462134608721e7 0.0
0.0 0.0 0.0

-7.40499946477203e6 1.2653673743403904e7 0.0
1.2653673743403904e7 9.871969972946519e6 0.0
0.0 0.0 0.0

2.63854407387146e6 8.954307544722881e6 0.0
8.954307544722881e6 -1.3137300513227709e7 0.0
0.0 0.0 0.0

-6.5413118680455275e6 1.7940613592168204e7 0.0
1.7940613592168204e7 6.439908252217878e6 0.0
0.0 0.0 0.0

-1.2104440859966382e7 1.0933262950353494e6 0.0
1.0933262950353494e6 1.5833192341122482e7 0.0
0.0 0.0 0.0

-6.95613916651472e6 -13024.730666862852 0.0
-13024.730666862852 9.153633258380022e6 0.0
0.0 0.0 0.0

3.854735711051288e6 7.119875989544366e6 0.0
7.119875989544366e6 -1.3982759056009382e7 0.0
0.0 0.0 0.0

-3.7975252833833518e6 1.5276669240417322e7 0.0
1.5276669240417322e7 -1.2345760451676494e6 0.0
0.0 0.0 0.0

-5.13174464356098e6 1.9791380415087756e7 0.0
1.9791380415087756e7 85650.58972697612 0.0
0.0 0.0 0.0

-8.709700211860346e6 1.0509894774017658e7 0.0
1.0509894774017658e7 1.1980737441902654e7 0.0
0.0 0.0 0.0

4.358001062137519e6 6.494564047932911e6 0.0
6.494564047932911e6 -1.4885313590673685e7 0.0
0.0 0.0 0.0

5.285773665037647e6 6.451224608487224e6 0.0
6.451224608487224e6 -1.8400698290062215e7 0.0
0.0 0.0 0.0

-1.2538012181767879e7 7.376780997903812e6 0.0
7.376780997903812e6 2.4811524558534507e7 0.0
0.0 0.0 0.0

-1.1362089286282819e7 1.5584503909217347e6 0.0
1.5584503909217347e6 1.6471699299920242e7 0.0
0.0 0.0 0.0

-2.753547385427234e6 1.7831529979428302e7 0.0
1.7831529979428302e7 -2.986803487996632e6 0.0
0.0 0.0 0.0

-3.4172458168789647e6 1.4000610329799376e7 0.0
1.4000610329799376e7 71076.61457384238 0.0
0.0 0.0 0.0

-1.1114093267053507e7 -251311.89345643148 0.0
-251311.89345643148 1.8841733904160142e7 0.0
0.0 0.0 0.0

3.2888864728583135e6 5.659815374086564e6 0.0
5.659815374086564e6 -9.93035823475231e6 0.0
0.0 0.0 0.0

-4.8600806619473295e6 1.3837617557957746e7 0.0
1.3837617557957746e7 1.4772296612388117e6 0.0
0.0 0.0 0.0

-6.404840609395644e6 1.4656909057886485e7 0.0
1.4656909057886485e7 -854443.716557668 0.0
0.0 0.0 0.0

-4.450536464706542e6 6.888022183198887e6 0.0
6.888022183198887e6 2.6800036028454253e6 0.0
0.0 0.0 0.0

4.804805030631383e6 6.214123590803302e6 0.0
6.214123590803302e6 -1.4461354298888937e7 0.0
0.0 0.0 0.0

2.3547617192790527e6 8.897310260231683e6 0.0
8.897310260231683e6 -1.224235714631392e7 0.0
0.0 0.0 0.0

-3.944104842768116e6 2.3495452373147467e6 0.0
2.3495452373147467e6 2.718892951641474e6 0.0
0.0 0.0 0.0

-1.0158806847600304e7 3.567733096608652e6 0.0
3.567733096608652e6 1.3828754130219135e7 0.0
0.0 0.0 0.0

2.3045151735623395e6 1.0365715826682411e7 0.0
1.0365715826682411e7 -1.5917706618905153e7 0.0
0.0 0.0 0.0

4.714695446024304e6 6.054697021574668e6 0.0
6.054697021574668e6 -1.3516328103606688e7 0.0
0.0 0.0 0.0

-3.680031985107463e6 1.3857436330438158e7 0.0
1.3857436330438158e7 -765305.9549562375 0.0
0.0 0.0 0.0

4.3069349713631235e6 7.169077991045358e6 0.0
7.169077991045358e6 -1.3875866277881548e7 0.0
0.0 0.0 0.0

-3.3549875909617417e6 3.08143297755298e6 0.0
3.08143297755298e6 3.7443455652600806e6 0.0
0.0 0.0 0.0

-4.908940112923071e6 1.333472166538874e7 0.0
1.333472166538874e7 -1.6363134860034443e7 0.0
0.0 0.0 0.0

3.5793118622804554e6 1.3037301494817024e7 0.0
1.3037301494817024e7 1.1931041538187908e7 0.0
0.0 0.0 0.0

806340.1393999878 1.1007166902712313e7 0.0
1.1007166902712313e7 -1.785749780420725e6 0.0
0.0 0.0 0.0

-1.2873657453443762e7 -3.6241640318688317e6 0.0
-3.6241640318688317e6 7.631461781894535e6 0.0
0.0 0.0 0.0

-2.644785151987927e6 2.1989078278522855e6 0.0
2.1989078278522855e6 2.842842202942898e6 0.0
0.0 0.0 0.0

2.0144892690999298e6 1.3845612693617197e7 0.0
1.3845612693617197e7 6.714961802443414e6 0.0
0.0 0.0 0.0

-1.1834365342999112e6 1.0518315140189843e7 0.0
1.0518315140189843e7 -3.9447879931277647e6 0.0
0.0 0.0 0.0

-9.985754352797182e6 9.399700677718783e6 0.0
9.399700677718783e6 3.6157188254403874e7 0.0
0.0 0.0 0.0

4.11945703183294e6 6.822410943191213e6 0.0
6.822410943191213e6 -1.4461130910500113e7 0.0
0.0 0.0 0.0

-2.9454862207734915e6 1.512215435195929e7 0.0
1.512215435195929e7 -3.9223937858196152e6 0.0
0.0 0.0 0.0

-1.5416359970739735e6 1.1944893305517942e7 0.0
1.1944893305517942e7 -1.424312886515428e7 0.0
0.0 0.0 0.0

-6.323744705880789e6 1.705396585564564e7 0.0
1.705396585564564e7 5.595545102196079e6 0.0
0.0 0.0 0.0

-4.200966885325588e6 1.4270457014339553e7 0.0
1.4270457014339553e7 3.8963255129811545e6 0.0
0.0 0.0 0.0

-4.956104654823024e6 1.693668904433986e7 0.0
1.693668904433986e7 840129.1302993842 0.0
0.0 0.0 0.0

-3.3736058423652276e6 1.3135201491876546e7 0.0
1.3135201491876546e7 -1.668253434808892e7 0.0
0.0 0.0 0.0

-3.373600616421822e6 1.7663824960449237e7 0.0
1.7663824960449237e7 -2.3458304664922073e6 0.0
0.0 0.0 0.0

-1.1620994099623581e7 9.927781782582166e6 0.0
9.927781782582166e6 1.464473872347559e7 0.0
0.0 0.0 0.0

2.1668580101533807e6 7.504936079839667e6 0.0
7.504936079839667e6 -9.152833849339712e6 0.0
0.0 0.0 0.0

4.191105519063345e6 6.540320960263766e6 0.0
6.540320960263766e6 -1.4161156578623911e7 0.0
0.0 0.0 0.0

-2.1565281057296847e6 1.4660726541884188e7 0.0
1.4660726541884188e7 -5.2144662657959135e6 0.0
0.0 0.0 0.0

-1.6832644951091418e6 1.0491600490701059e7 0.0
1.0491600490701059e7 -3.4259131444911016e6 0.0
0.0 0.0 0.0

3.7331463303420013e6 8.075239773296952e6 0.0
8.075239773296952e6 -1.5858018238113442e7 0.0
0.0 0.0 0.0

-6.197456015770455e6 1.6422373027037121e7 0.0
1.6422373027037121e7 5.656540944552679e6 0.0
0.0 0.0 0.0

-2.6073556265899744e6 1.1329177603757782e7 0.0
1.1329177603757782e7 -556416.4412222749 0.0
0.0 0.0 0.0

336768.82352468604 1.070479398180505e7 0.0
1.070479398180505e7 -6.52585581990782e6 0.0
0.0 0.0 0.0

3.247183285852559e6 9.446205665086834e6 0.0
9.446205665086834e6 -1.5394119323452516e7 0.0
0.0 0.0 0.0

-4.009929545689058e6 1.7042997097671688e7 0.0
1.7042997097671688e7 -1.585903831316859e6 0.0
0.0 0.0 0.0

-383496.5373597627 1.1708050156148763e7 0.0
1.1708050156148763e7 -5.829265860423077e6 0.0
0.0 0.0 0.0

-6953.401406988967 9.003627200308241e6 0.0
9.003627200308241e6 -4.740029619361852e6 0.0
0.0 0.0 0.0

1.1035756573794857e7 5.9003975075157415e6 0.0
5.9003975075157415e6 -3.0757709036213695e6 0.0
0.0 0.0 0.0

-4.736272839561817e6 1.1748655878111096e7 0.0
1.1748655878111096e7 3.4614310586972926e6 0.0
0.0 0.0 0.0

-3.454321453537643e6 6.830138991618032e6 0.0
6.830138991618032e6 2.56523027591148e6 0.0
0.0 0.0 0.0

-8.65803421238627e6 -1.285951014801806e6 0.0
-1.285951014801806e6 1.2911449119326122e7 0.0
0.0 0.0 0.0

4.7733322110066805e6 5.660981615491428e6 0.0
5.660981615491428e6 -1.2990230387162961e7 0.0
0.0 0.0 0.0

3.5230119009496635e6 6.522721372199279e6 0.0
6.522721372199279e6 -1.0410034730790298e7 0.0
0.0 0.0 0.0

4.52343570487407e6 6.144941029454141e6 0.0
6.144941029454141e6 -1.2813874038834924e7 0.0
0.0 0.0 0.0

-581879.4401501939 1.1417567751306599e7 0.0
1.1417567751306599e7 -1.1244272190051597e7 0.0
0.0 0.0 0.0

-3.7524882405794137e6 1.73768339865965e7 0.0
1.73768339865965e7 -1.89096680366327e6 0.0
0.0 0.0 0.0

-1.1513349284487942e7 1.0040974256841956e7 0.0
1.0040974256841956e7 1.3736991371682953e7 0.0
0.0 0.0 0.0

-5.60163776182295e6 1.1939922637269275e7 0.0
1.1939922637269275e7 3.2075371998942546e6 0.0
0.0 0.0 0.0

4.1187862344588293e6 6.374906247902239e6 0.0
6.374906247902239e6 -1.3185665249018416e7 0.0
0.0 0.0 0.0

-4.976502889448033e6 3.1888938651429834e6 0.0
3.1888938651429834e6 3.754119050306135e6 0.0
0.0 0.0 0.0

-1.0488862906766454e7 1.0408253984893424e7 0.0
1.0408253984893424e7 1.2349692623101525e7 0.0
0.0 0.0 0.0

-312516.85671944125 1.2963134913750753e7 0.0
1.2963134913750753e7 -7.718644047963073e6 0.0
0.0 0.0 0.0

1.4362115053683799e6 1.212983454601322e7 0.0
1.212983454601322e7 -5.934457898151835e6 0.0
0.0 0.0 0.0

-6.163321651597029e6 1.705139642863027e7 0.0
1.705139642863027e7 6.146361958447857e6 0.0
0.0 0.0 0.0

1.6931133935811701e6 1.0787190883012436e7 0.0
1.0787190883012436e7 -1.1019630667839281e7 0.0
0.0 0.0 0.0

4.432557439970299e6 6.608239656351749e6 0.0
6.608239656351749e6 -1.3345472856581606e7 0.0
0.0 0.0 0.0

4.065147027376663e6 6.587777809348351e6 0.0
6.587777809348351e6 -1.3445660617589362e7 0.0
0.0 0.0 0.0

1.7412138830485977e6 6.876148109070425e6 0.0
6.876148109070425e6 -7.927034727597931e6 0.0
0.0 0.0 0.0

3.9547089115835866e6 6.840102553341064e6 0.0
6.840102553341064e6 -1.3714173375787845e7 0.0
0.0 0.0 0.0

4.1837237988794567e6 6.319326788407388e6 0.0
6.319326788407388e6 -1.1714752314914769e7 0.0
0.0 0.0 0.0

-9.388603302768208e6 1.8952658668218955e7 0.0
1.8952658668218955e7 8.306630190753523e6 0.0
0.0 0.0 0.0

-3.31111028118712e6 1.857439893576403e7 0.0
1.857439893576403e7 -2.448935031294828e6 0.0
0.0 0.0 0.0

-4.856820584395117e6 1.474805016470598e7 0.0
1.474805016470598e7 4.6363903340159e6 0.0
0.0 0.0 0.0

3.6357715627249936e6 6.486661059224312e6 0.0
6.486661059224312e6 -1.1973986672043778e7 0.0
0.0 0.0 0.0

-2.4039977278464786e6 1.2424324384187842e7 0.0
1.2424324384187842e7 -2.911338788384048e6 0.0
0.0 0.0 0.0

-506191.886731312 8.86006433517529e6 0.0
8.86006433517529e6 -1.9237682076334828e6 0.0
0.0 0.0 0.0

-6.237730392186469e6 1.4855556541086577e7 0.0
1.4855556541086577e7 -2.0792441415326726e7 0.0
0.0 0.0 0.0

7.3588474333569985e6 1.5887236765690072e7 0.0
1.5887236765690072e7 2.4529507988895684e7 0.0
0.0 0.0 0.0

3.9070459021920487e6 1.300505680162266e7 0.0
1.300505680162266e7 -3.888299055795757e6 0.0
0.0 0.0 0.0

5.820895644234084e6 1.3227371871401764e7 0.0
1.3227371871401764e7 -6.480844829770056e6 0.0
0.0 0.0 0.0

4.950497513862429e6 7.119971570361473e6 0.0
7.119971570361473e6 -2.2428323123213705e7 0.0
0.0 0.0 0.0

370617.5392787894 1.2108841327532005e7 0.0
1.2108841327532005e7 -8.5664778705751e6 0.0
0.0 0.0 0.0

-1.860553578598895e6 1.3310653093988828e7 0.0
1.3310653093988828e7 4.350499127344123e6 0.0
0.0 0.0 0.0

-1.2142331859314725e7 647555.3037397772 0.0
647555.3037397772 1.698852047870666e7 0.0
0.0 0.0 0.0

-1.103572212924572e7 9.916077423244135e6 0.0
9.916077423244135e6 1.7344849743883476e7 0.0
0.0 0.0 0.0

-2.32917055245272e6 1.3903137124585263e7 0.0
1.3903137124585263e7 2.6611700319208447e6 0.0
0.0 0.0 0.0

-1.044158885100961e6 1.0345487210144302e7 0.0
1.0345487210144302e7 -3.2164384103328134e6 0.0
0.0 0.0 0.0

-7.184149851618128e6 1.7643495685613472e7 0.0
1.7643495685613472e7 424897.17152451584 0.0
0.0 0.0 0.0

-6.613276583432106e6 1.4154681688853398e7 0.0
1.4154681688853398e7 8.393534364504753e6 0.0
0.0 0.0 0.0

-4.931017721714276e6 8.64832336977699e6 0.0
8.64832336977699e6 3.095102846681565e6 0.0
0.0 0.0 0.0

-5.692955941758092e6 1.3827399143237835e7 0.0
1.3827399143237835e7 4.016648141426648e6 0.0
0.0 0.0 0.0

5.076896741872867e6 6.7064381099070795e6 0.0
6.7064381099070795e6 -1.6940220642985187e7 0.0
0.0 0.0 0.0

3.316937385615541e6 6.849252096196359e6 0.0
6.849252096196359e6 -9.929840177540425e6 0.0
0.0 0.0 0.0

-1.3005679638430479e6 1.3158955456416335e7 0.0
1.3158955456416335e7 -6.417265825980872e6 0.0
0.0 0.0 0.0

2.0620021582090133e6 9.225003522490934e6 0.0
9.225003522490934e6 -1.1688113080121223e7 0.0
0.0 0.0 0.0

-1.1719362503482578e7 3.0907056405176357e6 0.0
3.0907056405176357e6 2.1957038087602627e7 0.0
0.0 0.0 0.0

-1.1158184114469453e6 4.836560705946733e6 0.0
4.836560705946733e6 -1.1644521233200417e6 0.0
0.0 0.0 0.0

-1.153542776457173e7 2.745320868723729e6 0.0
2.745320868723729e6 2.958233424270249e7 0.0
0.0 0.0 0.0

-1.3967235212139287e6 1.2502618617497511e7 0.0
1.2502618617497511e7 -5.859046871482046e6 0.0
0.0 0.0 0.0

-5.226579984652689e6 1.5111337531053597e7 0.0
1.5111337531053597e7 5.774442181414779e6 0.0
0.0 0.0 0.0

-4.743293909760959e6 7.680032010412242e6 0.0
7.680032010412242e6 4.595527159436944e6 0.0
0.0 0.0 0.0

-3.199855867164911e6 1.6140290018192511e7 0.0
1.6140290018192511e7 -3.136395015920709e6 0.0
0.0 0.0 0.0

-3.3096062296726974e6 6.123257245647332e6 0.0
6.123257245647332e6 1.6368538984997093e6 0.0
0.0 0.0 0.0

-7.1151181692884145e6 1.355090389893119e7 0.0
1.355090389893119e7 8.546276318794968e6 0.0
0.0 0.0 0.0

6.219019204810821e6 1.5954371777551867e7 0.0
1.5954371777551867e7 -1.0798177632379904e7 0.0
0.0 0.0 0.0

-9.00884428788707e6 1.121861999793007e7 0.0
1.121861999793007e7 1.0652494476259708e7 0.0
0.0 0.0 0.0

-303397.7668664951 5.0217241273895465e6 0.0
5.0217241273895465e6 -1.2257702532149737e6 0.0
0.0 0.0 0.0

-1.8968682465720467e7 -3.1303640761327827e6 0.0
-3.1303640761327827e6 8.701738704733064e6 0.0
0.0 0.0 0.0

4.55047052992703e6 5.842123766454877e6 0.0
5.842123766454877e6 -1.3879203792435136e7 0.0
0.0 0.0 0.0

-7.70896687436721e6 1.7629737333185934e7 0.0
1.7629737333185934e7 7.329571604536101e6 0.0
0.0 0.0 0.0

-2.9786365985029996e6 3.5149053585609584e6 0.0
3.5149053585609584e6 1.2473007132086155e6 0.0
0.0 0.0 0.0

-1.925337618373349e6 8.809473813409261e6 0.0
8.809473813409261e6 -2.0576639925469398e6 0.0
0.0 0.0 0.0

-9.318536214289125e6 -927024.436243686 0.0
-927024.436243686 1.2290708288887452e7 0.0
0.0 0.0 0.0

-168683.29346767347 1.2997979612714866e7 0.0
1.2997979612714866e7 -8.32865859081742e6 0.0
0.0 0.0 0.0

-8.962966831284162e6 -2.1609457348341113e6 0.0
-2.1609457348341113e6 1.2233390141887348e7 0.0
0.0 0.0 0.0

110137.59139425261 1.0956145851409107e7 0.0
1.0956145851409107e7 -8.052340723819716e6 0.0
0.0 0.0 0.0

-1.1049234501489274e7 1.0567309453910401e7 0.0
1.0567309453910401e7 1.3113136707075715e7 0.0
0.0 0.0 0.0

-5.107192145835108e6 6.959632493662771e6 0.0
6.959632493662771e6 3.5464029815311097e6 0.0
0.0 0.0 0.0

-1.0519761905797567e7 1.0909369760691268e7 0.0
1.0909369760691268e7 1.5889783945035685e7 0.0
0.0 0.0 0.0

-7.976587949141277e6 8.49480212391962e6 0.0
8.49480212391962e6 8.823663550271824e6 0.0
0.0 0.0 0.0

-5.052119264946544e6 1.4312598767709058e7 0.0
1.4312598767709058e7 1.8884090028704181e6 0.0
0.0 0.0 0.0

4.80870662219258e6 7.071549182038373e6 0.0
7.071549182038373e6 -1.6468383160443926e7 0.0
0.0 0.0 0.0

-1.0016530420185298e7 1.1580460765351838e7 0.0
1.1580460765351838e7 1.3360399983447611e7 0.0
0.0 0.0 0.0

3.898960224131098e6 1.2256675445611753e7 0.0
1.2256675445611753e7 364922.2901088868 0.0
0.0 0.0 0.0

-1.2734070463979974e7 1.9961171975918778e6 0.0
1.9961171975918778e6 9.567479640706819e6 0.0
0.0 0.0 0.0

3.555518441512104e6 9.003413125266984e6 0.0
9.003413125266984e6 -1.5251713866282249e7 0.0
0.0 0.0 0.0

-4.609021188409613e6 8.444842478277257e6 0.0
8.444842478277257e6 4.175180304620409e6 0.0
0.0 0.0 0.0

2.4127924386576465e6 7.553707894405974e6 0.0
7.553707894405974e6 -8.3384215786916185e6 0.0
0.0 0.0 0.0

-2.069138174929407e6 3.463998029845356e6 0.0
3.463998029845356e6 1.1903766992385811e6 0.0
0.0 0.0 0.0

-7.278452902308296e6 -228479.24140612842 0.0
-228479.24140612842 8.139394931046518e6 0.0
0.0 0.0 0.0

1.1247722817834094e6 1.0100735514901204e7 0.0
1.0100735514901204e7 -9.824373155310748e6 0.0
0.0 0.0 0.0

-4.893922891184667e6 4.1488901889384803e6 0.0
4.1488901889384803e6 6.186182409371452e6 0.0
0.0 0.0 0.0

-5.390732887531483e6 1.5300937848139035e7 0.0
1.5300937848139035e7 5.467584439217222e6 0.0
0.0 0.0 0.0

-4.492611969528094e6 1.1640674537762195e7 0.0
1.1640674537762195e7 7.382575107281709e6 0.0
0.0 0.0 0.0

363259.37495897827 6.379212344928233e6 0.0
6.379212344928233e6 -3.2844545456878426e6 0.0
0.0 0.0 0.0

-1.1435491390066615e6 1.2835202686821155e7 0.0
1.2835202686821155e7 -5.332930678031403e6 0.0
0.0 0.0 0.0

3.0475443315396425e6 6.952513841894288e6 0.0
6.952513841894288e6 -1.0951367440393427e7 0.0
0.0 0.0 0.0

-4.59810185711682e6 1.6593364820388617e7 0.0
1.6593364820388617e7 34295.9143125792 0.0
0.0 0.0 0.0

1.003859465128433e6 1.2134662759348562e7 0.0
1.2134662759348562e7 -2.4005748162192557e7 0.0
0.0 0.0 0.0

2.8827710348787494e6 5.787507547805286e6 0.0
5.787507547805286e6 -9.26372951066307e6 0.0
0.0 0.0 0.0

3.7712300151054747e6 6.238865156162412e6 0.0
6.238865156162412e6 -1.1770820006271556e7 0.0
0.0 0.0 0.0

-180974.5552755189 1.1491993787686065e7 0.0
1.1491993787686065e7 -1.0824361339724932e7 0.0
0.0 0.0 0.0

-68788.9662454318 6.6578322760452805e6 0.0
6.6578322760452805e6 -2.712710058767288e6 0.0
0.0 0.0 0.0

-4.0068267535221595e6 1.3711933622955093e7 0.0
1.3711933622955093e7 -1.8916994289087463e7 0.0
0.0 0.0 0.0

1.6013094325256175e6 6.682933828821137e6 0.0
6.682933828821137e6 -6.284360585089133e6 0.0
0.0 0.0 0.0

2.7344666251672744e6 7.008917672407468e6 0.0
7.008917672407468e6 -8.637900758835398e6 0.0
0.0 0.0 0.0

-506564.37099378323 1.302850077688043e7 0.0
1.302850077688043e7 -1.9264474753309137e6 0.0
0.0 0.0 0.0

-1.2441563480371151e7 6.8851364307828145e6 0.0
6.8851364307828145e6 1.8172213278107867e7 0.0
0.0 0.0 0.0

-6.038216899076488e6 1.73265374534109e7 0.0
1.73265374534109e7 4.642876786032528e6 0.0
0.0 0.0 0.0

-7.989709366321888e6 1.5139209404567021e6 0.0
1.5139209404567021e6 5.018669846450312e6 0.0
0.0 0.0 0.0

1.7702307955229934e6 9.47464374927309e6 0.0
9.47464374927309e6 -1.1048522261499157e7 0.0
0.0 0.0 0.0

-1.7658805158707756e6 1.3581943260053221e7 0.0
1.3581943260053221e7 5.791828634318207e6 0.0
0.0 0.0 0.0

-4.3430376397766825e6 1.6274721954058317e7 0.0
1.6274721954058317e7 -778118.624838727 0.0
0.0 0.0 0.0

-467130.27689255634 9.706192472253297e6 0.0
9.706192472253297e6 -5.300414719877342e6 0.0
0.0 0.0 0.0

-3.7444637273265556e6 1.6265014043785881e7 0.0
1.6265014043785881e7 -2.2953611076347684e6 0.0
0.0 0.0 0.0

306584.8528087132 1.002868052635582e7 0.0
1.002868052635582e7 -5.651157476165563e6 0.0
0.0 0.0 0.0

-3.1659601429841686e6 1.8200664495944914e6 0.0
1.8200664495944914e6 2.2870321491277665e6 0.0
0.0 0.0 0.0

-1.4011154547722756e6 1.2693004112458423e7 0.0
1.2693004112458423e7 -6.157801324114273e6 0.0
0.0 0.0 0.0

-3.5739659188749082e6 2.4065411219117515e7 0.0
2.4065411219117515e7 -5.232172564620998e6 0.0
0.0 0.0 0.0

594230.0258446464 1.4624895225294076e7 0.0
1.4624895225294076e7 -5.303231734107286e6 0.0
0.0 0.0 0.0

10923.45216993289 1.255867577577667e7 0.0
1.255867577577667e7 -8.152380018678467e6 0.0
0.0 0.0 0.0

-3.127472943398915e6 9.485595511577064e6 0.0
9.485595511577064e6 1.249457263173891e6 0.0
0.0 0.0 0.0

-3.2952491791663636e6 1.147295642775332e7 0.0
1.147295642775332e7 -756952.8183431159 0.0
0.0 0.0 0.0

4.835262360579744e6 5.458846558845212e6 0.0
5.458846558845212e6 -1.3402319900400897e7 0.0
0.0 0.0 0.0

2.7745901864613933e6 4.915100277707445e6 0.0
4.915100277707445e6 -8.017727343421055e6 0.0
0.0 0.0 0.0

-1.3262880667258715e6 7.122844158369639e6 0.0
7.122844158369639e6 -2.4452401215874734e6 0.0
0.0 0.0 0.0

-3.516096988086624e6 1.4318478693550486e7 0.0
1.4318478693550486e7 -302597.1902395431 0.0
0.0 0.0 0.0

3.1433997089705393e6 6.279071244500644e6 0.0
6.279071244500644e6 -1.0273971342775658e7 0.0
0.0 0.0 0.0

-298286.0705406917 1.1052975355223263e7 0.0
1.1052975355223263e7 -7.022905845631302e6 0.0
0.0 0.0 0.0

-1.5299829296492084e6 1.331801725381971e7 0.0
1.331801725381971e7 3.238893825176928e6 0.0
0.0 0.0 0.0

2.629043605827547e6 8.99778468926636e6 0.0
8.99778468926636e6 -1.1330117473835986e7 0.0
0.0 0.0 0.0

-4.1396732763354173e6 3.884625028625883e6 0.0
3.884625028625883e6 4.779605716448581e6 0.0
0.0 0.0 0.0

-1.6713671337015089e7 1.4034257540885027e7 0.0
1.4034257540885027e7 8.276150540425478e6 0.0
0.0 0.0 0.0

3.218843922396495e6 8.738224501973823e6 0.0
8.738224501973823e6 -1.2798344774606418e7 0.0
0.0 0.0 0.0

-3.0338651376077157e7 -1.2434434189197018e6 0.0
-1.2434434189197018e6 9.91847337427355e6 0.0
0.0 0.0 0.0

2.773856481677947e6 6.749166167024489e6 0.0
6.749166167024489e6 -9.900458313795108e6 0.0
0.0 0.0 0.0

-5.845192762212509e6 1.2753013909875017e7 0.0
1.2753013909875017e7 9.267982577916618e6 0.0
0.0 0.0 0.0

2.242921724761744e6 1.0423441759831913e7 0.0
1.0423441759831913e7 -1.5378764583379474e7 0.0
0.0 0.0 0.0

1.9968647446251437e6 1.0875288016944496e7 0.0
1.0875288016944496e7 -1.2650638009419393e7 0.0
0.0 0.0 0.0

-1.2542363764074992e6 5.194393820529371e6 0.0
5.194393820529371e6 200750.0883618382 0.0
0.0 0.0 0.0

-1.1560000483084373e7 3.166847508390316e6 0.0
3.166847508390316e6 1.3383637698979441e7 0.0
0.0 0.0 0.0

-2.1692957997018658e6 1.0171158017112607e7 0.0
1.0171158017112607e7 -2.257780981984788e6 0.0
0.0 0.0 0.0

-3.246139710799119e6 9.112218620017344e6 0.0
9.112218620017344e6 1.535031990441523e6 0.0
0.0 0.0 0.0

-1.2210382922911197e7 2.2077716373248133e6 0.0
2.2077716373248133e6 1.5214593386472203e7 0.0
0.0 0.0 0.0

-1.5088011840997525e6 1.0030835162381107e7 0.0
1.0030835162381107e7 -2.0698562127991829e6 0.0
0.0 0.0 0.0

-1.0388158674618922e6 1.2231030159041313e7 0.0
1.2231030159041313e7 -6.565381854450394e6 0.0
0.0 0.0 0.0

-1.1350543477421715e6 1.2671666934764115e7 0.0
1.2671666934764115e7 -5.031986785683103e6 0.0
0.0 0.0 0.0

-1.6752823540362245e6 1.3103585059946388e7 0.0
1.3103585059946388e7 -5.819175733531811e6 0.0
0.0 0.0 0.0

489322.9883152698 1.0663315461585939e7 0.0
1.0663315461585939e7 -8.632572587776238e6 0.0
0.0 0.0 0.0

1.7608035719591016e6 7.186044517945257e6 0.0
7.186044517945257e6 -8.178404024982347e6 0.0
0.0 0.0 0.0

876089.6820943197 1.1067239576095337e7 0.0
1.1067239576095337e7 -5.730362364355066e6 0.0
0.0 0.0 0.0

-1.400092800227371e6 1.2335250854340125e7 0.0
1.2335250854340125e7 -5.580009515984333e6 0.0
0.0 0.0 0.0

-133562.80701548792 1.0073477208764357e7 0.0
1.0073477208764357e7 -4.74286219271269e6 0.0
0.0 0.0 0.0

-3.1169024767040387e6 3.965535567442029e6 0.0
3.965535567442029e6 3.1145228760001794e6 0.0
0.0 0.0 0.0

807170.2931237891 1.0401205816384912e7 0.0
1.0401205816384912e7 -9.252628572979568e6 0.0
0.0 0.0 0.0

-5.451257557514308e6 1.406316137457763e7 0.0
1.406316137457763e7 -1.8170858184852563e7 0.0
0.0 0.0 0.0

-1.2225010526432137e6 5.658329226918829e6 0.0
5.658329226918829e6 14290.798640327237 0.0
0.0 0.0 0.0

2.4555089339950443e6 7.249815107304573e6 0.0
7.249815107304573e6 -9.6297101773934e6 0.0
0.0 0.0 0.0

492452.63176431763 6.193643183847285e6 0.0
6.193643183847285e6 -4.793321075581908e6 0.0
0.0 0.0 0.0

1.471731233447723e6 1.155139228386921e7 0.0
1.155139228386921e7 -2.199373488604856e7 0.0
0.0 0.0 0.0

-4.367828414659996e6 9.565814984245662e6 0.0
9.565814984245662e6 3.365860505925333e6 0.0
0.0 0.0 0.0

3.3134896568030226e6 6.623110923575485e6 0.0
6.623110923575485e6 -9.70802652239323e6 0.0
0.0 0.0 0.0

-9.874784217038257e6 3.4002474778215797e6 0.0
3.4002474778215797e6 1.0853674059330558e7 0.0
0.0 0.0 0.0

-1.0810798875299336e7 -3.31768799454676e6 0.0
-3.31768799454676e6 2.2879349381309487e7 0.0
0.0 0.0 0.0

-3500.7575210841605 1.2802275069613246e7 0.0
1.2802275069613246e7 -1.6667988848470773e6 0.0
0.0 0.0 0.0

-66470.34896909934 1.1733217098480467e7 0.0
1.1733217098480467e7 95157.666660713 0.0
0.0 0.0 0.0

-5.8262540438814005e6 1.5475240021884874e7 0.0
1.5475240021884874e7 5.32443704427367e6 0.0
0.0 0.0 0.0

-5.163924600686942e6 1.2558609526034199e7 0.0
1.2558609526034199e7 2.305378523521579e6 0.0
0.0 0.0 0.0

5.023605404279259e6 5.909521980728327e6 0.0
5.909521980728327e6 -1.4851535040582974e7 0.0
0.0 0.0 0.0

5.056466330746631e6 6.168911992779945e6 0.0
6.168911992779945e6 -1.5114004064337306e7 0.0
0.0 0.0 0.0

-1.0565214283658411e7 6.566755393077333e6 0.0
6.566755393077333e6 1.4478049428686304e7 0.0
0.0 0.0 0.0

-639844.0932050424 1.1767751336187093e7 0.0
1.1767751336187093e7 -6.978618649552268e6 0.0
0.0 0.0 0.0

3.289601441736142e6 1.2652792211337578e7 0.0
1.2652792211337578e7 -3.4756017656436125e6 0.0
0.0 0.0 0.0

-1.276601897887044e7 -809973.2794822345 0.0
-809973.2794822345 2.710303728942536e7 0.0
0.0 0.0 0.0

-4.922264821913016e6 1.1388687886725942e7 0.0
1.1388687886725942e7 3.9391533716347823e6 0.0
0.0 0.0 0.0

-1.3207626557843885e6 1.1428078858274603e7 0.0
1.1428078858274603e7 -4.597997358919903e6 0.0
0.0 0.0 0.0

-9.988709945595892e6 1.1135103225491714e7 0.0
1.1135103225491714e7 2.568320293523492e7 0.0
0.0 0.0 0.0

634722.5371371217 5.108464726842441e6 0.0
5.108464726842441e6 -3.3410771057308046e6 0.0
0.0 0.0 0.0

-3.069880090652774e6 1.4237823905849472e7 0.0
1.4237823905849472e7 -2.5215115231763674e6 0.0
0.0 0.0 0.0

-3.418702863474208e6 1.3607704309012026e7 0.0
1.3607704309012026e7 8.591098177957943e6 0.0
0.0 0.0 0.0

2.963337470934721e6 7.079294994083493e6 0.0
7.079294994083493e6 -9.363763808342157e6 0.0
0.0 0.0 0.0

-1.8244140432157165e6 9.226355261904428e6 0.0
9.226355261904428e6 -2.398372615352825e6 0.0
0.0 0.0 0.0

-1.1057201526239404e7 9.270687763056634e6 0.0
9.270687763056634e6 2.020362991830951e7 0.0
0.0 0.0 0.0

4.263285280278639e6 7.821273393879653e6 0.0
7.821273393879653e6 -1.5461612539892696e7 0.0
0.0 0.0 0.0

368539.9541548332 1.23066493378853e7 0.0
1.23066493378853e7 -8.833337603369558e6 0.0
0.0 0.0 0.0

-9.164342121829338e6 -3.9005369504188807e6 0.0
-3.9005369504188807e6 1.6212994961371263e7 0.0
0.0 0.0 0.0

3.832265373642496e6 8.528717455113882e6 0.0
8.528717455113882e6 -1.504465946375275e7 0.0
0.0 0.0 0.0

524619.5655648045 7.712328710677664e6 0.0
7.712328710677664e6 -4.557417615483035e6 0.0
0.0 0.0 0.0

4.0264300417102287e6 7.491171050787678e6 0.0
7.491171050787678e6 -1.338618023335317e7 0.0
0.0 0.0 0.0

79210.03592778975 1.0131737982728375e7 0.0
1.0131737982728375e7 -6.795555825779825e6 0.0
0.0 0.0 0.0

-262268.36500639934 1.1275170257393813e7 0.0
1.1275170257393813e7 -7.3631194001937015e6 0.0
0.0 0.0 0.0

-1.1855053363812037e7 1.4709760291606816e6 0.0
1.4709760291606816e6 1.4777914170786388e7 0.0
0.0 0.0 0.0

1.5321195150432598e6 1.1362232792022258e7 0.0
1.1362232792022258e7 329040.7664776995 0.0
0.0 0.0 0.0

-2.6214743959183656e6 3.9951577073323294e6 0.0
3.9951577073323294e6 1.990691814337255e6 0.0
0.0 0.0 0.0

1.4016913124896348e6 1.1065350635030264e7 0.0
1.1065350635030264e7 -1.0468595983805455e7 0.0
0.0 0.0 0.0

-466789.2577415138 5.484452341495768e6 0.0
5.484452341495768e6 -1.430918129673336e6 0.0
0.0 0.0 0.0

1.0306209208934109e6 5.427302326318916e6 0.0
5.427302326318916e6 -5.395001868336773e6 0.0
0.0 0.0 0.0

-277349.57067673677 1.0856779568027813e7 0.0
1.0856779568027813e7 -6.751262884814726e6 0.0
0.0 0.0 0.0

3.642108782601703e6 6.12655829532216e6 0.0
6.12655829532216e6 -1.0033261858119924e7 0.0
0.0 0.0 0.0

-9.79904788512887e6 14415.24035369047 0.0
14415.24035369047 1.122583695303487e7 0.0
0.0 0.0 0.0

5.7470042740685195e6 5.24148434775294e6 0.0
5.24148434775294e6 -1.9874437505528335e7 0.0
0.0 0.0 0.0

-877142.4155102863 1.175486156356432e7 0.0
1.175486156356432e7 -2.9238078037170297e6 0.0
0.0 0.0 0.0

-7.615611992853036e6 5.423639144557484e6 0.0
5.423639144557484e6 7.829102155075565e6 0.0
0.0 0.0 0.0

-5.776602664865436e6 1.4691535794693638e7 0.0
1.4691535794693638e7 3.709775319309025e6 0.0
0.0 0.0 0.0

-271199.04104621336 1.187769424038869e7 0.0
1.187769424038869e7 3.7747524668388194e6 0.0
0.0 0.0 0.0

-1.056127970361589e7 1.0990956647875084e7 0.0
1.0990956647875084e7 1.259214939005758e7 0.0
0.0 0.0 0.0

-7.667896366737972e6 1.2137778573443769e7 0.0
1.2137778573443769e7 1.0412451105201617e7 0.0
0.0 0.0 0.0

-7.874295486136047e6 -6.727422039482229e6 0.0
-6.727422039482229e6 1.3747240897128712e7 0.0
0.0 0.0 0.0

-2.1140841121188067e6 8.991784191431202e6 0.0
8.991784191431202e6 -312130.0269979771 0.0
0.0 0.0 0.0

483529.7787052097 1.3660337427273948e7 0.0
1.3660337427273948e7 6.938790235807773e6 0.0
0.0 0.0 0.0

-4.05472312904073e6 1.4324894090179617e7 0.0
1.4324894090179617e7 5.299287277729597e6 0.0
0.0 0.0 0.0

-1.1099444286333542e7 2.753638067436464e6 0.0
2.753638067436464e6 1.2666941700087018e7 0.0
0.0 0.0 0.0

1.5000187051763553e6 1.0373644681915142e7 0.0
1.0373644681915142e7 -1.1706930932846542e7 0.0
0.0 0.0 0.0

2.539366022983339e6 6.389491795660359e6 0.0
6.389491795660359e6 -8.961692451190015e6 0.0
0.0 0.0 0.0

-13157.713328809012 1.1635279943441715e7 0.0
1.1635279943441715e7 -6.785202711433286e6 0.0
0.0 0.0 0.0

-1.7674637608809057e6 8.38761777249561e6 0.0
8.38761777249561e6 -702938.2414437046 0.0
0.0 0.0 0.0

2.785109592175043e6 5.432336344364946e6 0.0
5.432336344364946e6 -7.853513268529942e6 0.0
0.0 0.0 0.0

-3.314879964430566e6 1.4496173232903909e7 0.0
1.4496173232903909e7 -1.7340205312130067e6 0.0
0.0 0.0 0.0

-1.0642025787879828e7 -2.0683448687405044e6 0.0
-2.0683448687405044e6 2.1784219119167138e7 0.0
0.0 0.0 0.0

-9.938595962464657e6 -3.024899562376887e6 0.0
-3.024899562376887e6 1.7523397064833216e7 0.0
0.0 0.0 0.0

-1.2720636651969291e7 5.153808035185365e6 0.0
5.153808035185365e6 1.839221958652929e7 0.0
0.0 0.0 0.0

-2.4443330660066926e6 1.3667339589977324e7 0.0
1.3667339589977324e7 -4.329787837121904e6 0.0
0.0 0.0 0.0

-382008.3956286318 6.677134756039098e6 0.0
6.677134756039098e6 -3.7545969467350375e6 0.0
0.0 0.0 0.0

3.202330908712119e6 1.3213294574715415e7 0.0
1.3213294574715415e7 4.272761479860799e6 0.0
0.0 0.0 0.0

2.9518212805835865e6 1.5450315925142268e7 0.0
1.5450315925142268e7 1.7363391445220083e7 0.0
0.0 0.0 0.0

3.08569084875428e6 6.182913418832233e6 0.0
6.182913418832233e6 -8.637662129739452e6 0.0
0.0 0.0 0.0

-5.244293765348874e6 3.303692761235836e6 0.0
3.303692761235836e6 7.024592749953642e6 0.0
0.0 0.0 0.0

-2.466490054995133e6 9.604775812544545e6 0.0
9.604775812544545e6 85546.4733946384 0.0
0.0 0.0 0.0

-7.373957141779324e6 1.336653992801866e7 0.0
1.336653992801866e7 8.505539640218128e6 0.0
0.0 0.0 0.0

5.024330102306281e6 6.33941499668876e6 0.0
6.33941499668876e6 -1.5938006974728819e7 0.0
0.0 0.0 0.0

4.533466941091598e6 6.8142375497661345e6 0.0
6.8142375497661345e6 -1.4333895363547754e7 0.0
0.0 0.0 0.0

-1.2095092930443864e6 5.714441820019151e6 0.0
5.714441820019151e6 -1.7746379628484454e6 0.0
0.0 0.0 0.0

-5.238647620245755e6 1.2052664697179552e7 0.0
1.2052664697179552e7 4.383652627330776e6 0.0
0.0 0.0 0.0

-9.494865999419542e6 1.1486432203874107e7 0.0
1.1486432203874107e7 2.384219936142868e7 0.0
0.0 0.0 0.0

-366881.9708808779 1.2121413681120094e7 0.0
1.2121413681120094e7 -6.41223664706241e6 0.0
0.0 0.0 0.0

-1.0186133434827251e6 6.256754869498396e6 0.0
6.256754869498396e6 -979592.1981391474 0.0
0.0 0.0 0.0

4.768262834159202e6 6.475915774285474e6 0.0
6.475915774285474e6 -1.4730199330448002e7 0.0
0.0 0.0 0.0

-6.802170481090683e6 1.34815532983572e7 0.0
1.34815532983572e7 6.008518559763366e6 0.0
0.0 0.0 0.0

2.702612403778198e6 7.214022718630974e6 0.0
7.214022718630974e6 -1.0487701374235054e7 0.0
0.0 0.0 0.0

-3.777358684255743e6 3.373341230892796e6 0.0
3.373341230892796e6 -397068.0584682799 0.0
0.0 0.0 0.0

78921.96591501962 1.0538713941301083e7 0.0
1.0538713941301083e7 -7.395248171033016e6 0.0
0.0 0.0 0.0

-231165.05121058878 4.5085622761673555e6 0.0
4.5085622761673555e6 -2.8871655252018804e6 0.0
0.0 0.0 0.0

-1.4124419551956595e6 7.781907819878139e6 0.0
7.781907819878139e6 -1.0898813017877962e6 0.0
0.0 0.0 0.0

-1.0304709943227198e6 7.138659692567549e6 0.0
7.138659692567549e6 -1.4603744927552806e6 0.0
0.0 0.0 0.0

-257713.11042111833 1.0620552478689414e7 0.0
1.0620552478689414e7 -6.490992271549347e6 0.0
0.0 0.0 0.0

-2.216490168006091e6 9.82007537006782e6 0.0
9.82007537006782e6 -1.9913167175731985e6 0.0
0.0 0.0 0.0

-1.2017381409620874e7 2.529638256186497e6 0.0
2.529638256186497e6 1.437244338190258e7 0.0
0.0 0.0 0.0

-1.100712063602342e7 8.748134384941937e6 0.0
8.748134384941937e6 2.3696491608651787e7 0.0
0.0 0.0 0.0

-1.2729353877270617e7 5.745882291778074e6 0.0
5.745882291778074e6 2.1076306862842247e7 0.0
0.0 0.0 0.0

-1.1080470528656581e7 9.005652036066929e6 0.0
9.005652036066929e6 2.1854584114960022e7 0.0
0.0 0.0 0.0

-1.229865355926119e7 3.353465261685692e6 0.0
3.353465261685692e6 3.530112815151355e7 0.0
0.0 0.0 0.0

-1.273106582677262e6 1.336361033653039e7 0.0
1.336361033653039e7 2.2657713606827855e6 0.0
0.0 0.0 0.0

-1.268802109002257e7 190433.79886495761 0.0
190433.79886495761 2.505260991174555e7 0.0
0.0 0.0 0.0

-3.3061091469233753e6 1.3591555790864082e7 0.0
1.3591555790864082e7 -1.4888814851512508e6 0.0
0.0 0.0 0.0

732407.3510701708 1.1588939248176906e7 0.0
1.1588939248176906e7 -8.159939462532951e6 0.0
0.0 0.0 0.0

-2.7734489589547604e7 1.8831337850198407e7 0.0
1.8831337850198407e7 -514061.35293367505 0.0
0.0 0.0 0.0

2.756379660815909e6 6.73544594886314e6 0.0
6.73544594886314e6 -8.414052978053683e6 0.0
0.0 0.0 0.0

2.33174841081854e6 9.316837478269024e6 0.0
9.316837478269024e6 -1.084069133663019e7 0.0
0.0 0.0 0.0

-3.235117752174725e6 1.452060863925822e7 0.0
1.452060863925822e7 -1.2968570544848538e6 0.0
0.0 0.0 0.0

-4.722583738992427e6 1.378489147157944e7 0.0
1.378489147157944e7 2.9255873676028014e6 0.0
0.0 0.0 0.0

4.1073418289303007e6 7.185970718945227e6 0.0
7.185970718945227e6 -1.3153667287435165e7 0.0
0.0 0.0 0.0

4.552951562804092e6 1.4938197529115558e7 0.0
1.4938197529115558e7 -7.491986692611423e6 0.0
0.0 0.0 0.0

-2.1538429095261437e6 7.960556310258575e6 0.0
7.960556310258575e6 -1.3404783938642156e6 0.0
0.0 0.0 0.0

5.036852326172435e6 6.683244141220193e6 0.0
6.683244141220193e6 -2.1005738961167444e7 0.0
0.0 0.0 0.0

-1.7660345621003062e6 7.3409429215272935e6 0.0
7.3409429215272935e6 -1.7534701315148475e6 0.0
0.0 0.0 0.0

2.1752937923683506e6 6.9096291462132465e6 0.0
6.9096291462132465e6 -8.681747304499347e6 0.0
0.0 0.0 0.0

-9.784074128624883e6 1.1145458358692946e7 0.0
1.1145458358692946e7 1.19932498664039e7 0.0
0.0 0.0 0.0

-1.635246991018864e7 1.3502642090572923e7 0.0
1.3502642090572923e7 5.663625831904101e6 0.0
0.0 0.0 0.0

-8.437770687861467e6 -2.539559668872798e6 0.0
-2.539559668872798e6 1.1531746165450444e7 0.0
0.0 0.0 0.0

-734745.2604974951 1.2580875284466583e7 0.0
1.2580875284466583e7 -6.009210354827188e6 0.0
0.0 0.0 0.0

-1.003100603205798e7 1.4859730141814234e7 0.0
1.4859730141814234e7 6.448202666183235e6 0.0
0.0 0.0 0.0

3.076286346879643e6 5.815084673451169e6 0.0
5.815084673451169e6 -8.60365673210854e6 0.0
0.0 0.0 0.0

-7.62212944622825e6 4.0876837299238807e6 0.0
4.0876837299238807e6 1.078525983130844e7 0.0
0.0 0.0 0.0

-32310.698975477135 1.1220961152830755e7 0.0
1.1220961152830755e7 -6.181188177882904e6 0.0
0.0 0.0 0.0

-939279.1434525244 1.0590247135034617e7 0.0
1.0590247135034617e7 -3.490377969693424e6 0.0
0.0 0.0 0.0

-2.5375101754334643e6 8.565779010233533e6 0.0
8.565779010233533e6 -949546.3250198436 0.0
0.0 0.0 0.0

-1.2531059721734794e7 3.711454464096022e6 0.0
3.711454464096022e6 1.8334639194514982e7 0.0
0.0 0.0 0.0

4.951919631773063e6 5.707413419351331e6 0.0
5.707413419351331e6 -1.3884653380546361e7 0.0
0.0 0.0 0.0

3.2726893305130354e6 6.086889594399045e6 0.0
6.086889594399045e6 -9.923998480758186e6 0.0
0.0 0.0 0.0

-6.657174385456508e6 1.3222380200742316e7 0.0
1.3222380200742316e7 5.339667480573517e6 0.0
0.0 0.0 0.0

-1.8254753818550832e6 4.982565933530871e6 0.0
4.982565933530871e6 -27734.584947862662 0.0
0.0 0.0 0.0

40798.09209388215 9.896902276325593e6 0.0
9.896902276325593e6 -6.525219494903533e6 0.0
0.0 0.0 0.0

3.797719305981541e6 6.768431577642225e6 0.0
6.768431577642225e6 -1.14820197710579e7 0.0
0.0 0.0 0.0

-1.1193051987293452e7 -798914.696005675 0.0
-798914.696005675 2.0088678852595016e7 0.0
0.0 0.0 0.0

-1.0633632030075863e6 1.3501824381687144e7 0.0
1.3501824381687144e7 1.3050181845127991e6 0.0
0.0 0.0 0.0

-8.963695147793863e6 -162090.84547657272 0.0
-162090.84547657272 1.020326966219263e7 0.0
0.0 0.0 0.0

3.2992377543222187e6 9.245053498283133e6 0.0
9.245053498283133e6 -1.4681198759045321e7 0.0
0.0 0.0 0.0

472742.9129235097 1.2081889828240061e7 0.0
1.2081889828240061e7 -1.0594913205012543e7 0.0
0.0 0.0 0.0

-7.154545937178798e6 6.27322846040112e6 0.0
6.27322846040112e6 7.043083505983405e6 0.0
0.0 0.0 0.0

1.8559783501258274e6 1.0813714469751032e7 0.0
1.0813714469751032e7 -1.1868228401684372e7 0.0
0.0 0.0 0.0

716482.1271330724 1.0800238727846898e7 0.0
1.0800238727846898e7 -7.802562416399153e6 0.0
0.0 0.0 0.0

883883.5128005617 4.1533661329234545e6 0.0
4.1533661329234545e6 -3.306851319258492e6 0.0
0.0 0.0 0.0

-7.4303821110840365e6 680944.21664861 0.0
680944.21664861 7.861954099952806e6 0.0
0.0 0.0 0.0

201378.83206131821 8.849088939512882e6 0.0
8.849088939512882e6 -6.21792901456107e6 0.0
0.0 0.0 0.0

512923.2384238527 8.217039501287891e6 0.0
8.217039501287891e6 -6.54512444831858e6 0.0
0.0 0.0 0.0

15772.528089653235 1.140400545106179e7 0.0
1.140400545106179e7 -6.471747043593583e6 0.0
0.0 0.0 0.0

-996506.0657180607 1.3608952676652666e7 0.0
1.3608952676652666e7 413421.49178388156 0.0
0.0 0.0 0.0

1.365847394499775e6 7.5045089161954e6 0.0
7.5045089161954e6 -7.654167081640005e6 0.0
0.0 0.0 0.0

2.0432486920047412e6 1.0574371426926581e7 0.0
1.0574371426926581e7 -1.90509390551109e7 0.0
0.0 0.0 0.0

-1.776106354633551e6 5.396478865937982e6 0.0
5.396478865937982e6 -117339.60503447382 0.0
0.0 0.0 0.0

-3.365511758988809e6 1.270094447356477e7 0.0
1.270094447356477e7 -1.5158916198115615e7 0.0
0.0 0.0 0.0

-6.3603092742406845e7 6.21510816953328e6 0.0
6.21510816953328e6 8.163722524344701e6 0.0
0.0 0.0 0.0

4.438302468707096e7 8.913751487665048e6 0.0
8.913751487665048e6 -1.2508253714604247e6 0.0
0.0 0.0 0.0

1.6565051522974381e6 1.1056056843455387e7 0.0
1.1056056843455387e7 -2.092346204802403e7 0.0
0.0 0.0 0.0

-7.476032958570847e6 9.17141701876273e6 0.0
9.17141701876273e6 9.762845369154625e6 0.0
0.0 0.0 0.0

-4.0449128379935087e6 1.2226142833323624e7 0.0
1.2226142833323624e7 349912.0355611814 0.0
0.0 0.0 0.0

-104565.47947241156 9.418310564720528e6 0.0
9.418310564720528e6 -5.915065438866766e6 0.0
0.0 0.0 0.0

364023.47593139997 5.704748352793802e6 0.0
5.704748352793802e6 -4.457497072531113e6 0.0
0.0 0.0 0.0

781700.1874177735 6.145761097547835e6 0.0
6.145761097547835e6 -3.8219851530783777e6 0.0
0.0 0.0 0.0

-2.91814327993718e6 9.178362829233514e6 0.0
9.178362829233514e6 -569416.3167413359 0.0
0.0 0.0 0.0

1.878403327007492e6 1.0790264917960478e7 0.0
1.0790264917960478e7 -1.9946952175616782e7 0.0
0.0 0.0 0.0

878999.4110605738 8.632757018141085e6 0.0
8.632757018141085e6 -5.886127639655618e6 0.0
0.0 0.0 0.0

-1.0866997242448151e7 -1.5305374277906923e6 0.0
-1.5305374277906923e6 1.4718979564805567e7 0.0
0.0 0.0 0.0

3.1976354125980616e7 1.0075806675099328e7 0.0
1.0075806675099328e7 -2.5901627874592934e6 0.0
0.0 0.0 0.0

547020.6503555765 9.225308155974353e6 0.0
9.225308155974353e6 -5.622511915671673e6 0.0
0.0 0.0 0.0

4.277359703319504e6 6.639488548153846e6 0.0
6.639488548153846e6 -1.2740535873989822e7 0.0
0.0 0.0 0.0

4.195408124417801e6 6.906330518441842e6 0.0
6.906330518441842e6 -1.291605762999244e7 0.0
0.0 0.0 0.0

-9.093400054983098e6 1.1503270013239512e7 0.0
1.1503270013239512e7 1.1345541439818613e7 0.0
0.0 0.0 0.0

1.4017800565645243e6 1.0190827093191143e7 0.0
1.0190827093191143e7 -8.929551795219535e6 0.0
0.0 0.0 0.0

-1.6718493979277005e6 1.407113129537683e7 0.0
1.407113129537683e7 -3.5020522588156266e6 0.0
0.0 0.0 0.0

1.8667840898546213e6 1.4018471580944655e7 0.0
1.4018471580944655e7 -5.256162682308049e6 0.0
0.0 0.0 0.0

-1.0807173280062806e6 9.045718832902918e6 0.0
9.045718832902918e6 -2.1499887271593413e6 0.0
0.0 0.0 0.0

1.3891908293208487e6 5.709280868464813e6 0.0
5.709280868464813e6 -4.900253925110419e6 0.0
0.0 0.0 0.0

-855304.1124560402 6.90641522257961e6 0.0
6.90641522257961e6 -3.0949210566301737e6 0.0
0.0 0.0 0.0

-1.3153412830450428e6 6.150802816565001e6 0.0
6.150802816565001e6 -177756.041778857 0.0
0.0 0.0 0.0

-1.0673603704175442e6 1.1399359023451563e7 0.0
1.1399359023451563e7 -1.2741752831401035e7 0.0
0.0 0.0 0.0

3.110538573497326e6 9.06443855831323e6 0.0
9.06443855831323e6 -1.3055335643367298e7 0.0
0.0 0.0 0.0

2.4465646276730266e6 5.988947914063456e6 0.0
5.988947914063456e6 -8.872784767696833e6 0.0
0.0 0.0 0.0

2.0319439755826062e6 7.276471950406009e6 0.0
7.276471950406009e6 -7.306093525660586e6 0.0
0.0 0.0 0.0

-1.89715314171511e6 1.0236038546085266e7 0.0
1.0236038546085266e7 -1.364788841683726e6 0.0
0.0 0.0 0.0

2.1699683918663254e6 7.189483945895636e6 0.0
7.189483945895636e6 -8.919011642114777e6 0.0
0.0 0.0 0.0

65958.03601703304 6.431534960531186e6 0.0
6.431534960531186e6 -4.273468195059148e6 0.0
0.0 0.0 0.0

3.9688614819935886e6 5.960871437974432e6 0.0
5.960871437974432e6 -1.0590747959914602e7 0.0
0.0 0.0 0.0

337582.21382943913 1.0468868225119593e7 0.0
1.0468868225119593e7 -6.266351382570326e6 0.0
0.0 0.0 0.0

-1.9345989047575952e6 5.880676068719445e6 0.0
5.880676068719445e6 -316403.8824065568 0.0
0.0 0.0 0.0

-3.1257463608949333e6 1.427210882040548e7 0.0
1.427210882040548e7 -2.9362063403662397e6 0.0
0.0 0.0 0.0

4.97856974201755e6 6.346123222581834e6 0.0
6.346123222581834e6 -1.873256920280329e7 0.0
0.0 0.0 0.0

-23185.26709103724 1.0986914163505932e7 0.0
1.0986914163505932e7 -5.933913381661165e6 0.0
0.0 0.0 0.0

3.195018256155995e6 7.3050768032298265e6 0.0
7.3050768032298265e6 -1.0385178396421056e7 0.0
0.0 0.0 0.0

-9923.46478479018 5.115627213025621e6 0.0
5.115627213025621e6 -1.962843309605606e6 0.0
0.0 0.0 0.0

3.5169592941857413e6 7.041231587351223e6 0.0
7.041231587351223e6 -1.0974947894096777e7 0.0
0.0 0.0 0.0

-4.835616820054711e6 1.2665590593442652e7 0.0
1.2665590593442652e7 3.382519092568233e6 0.0
0.0 0.0 0.0

-3.3653015238027936e6 1.5507737192883234e7 0.0
1.5507737192883234e7 -3.1153799286525804e6 0.0
0.0 0.0 0.0

713707.50633679 1.2125544474887418e7 0.0
1.2125544474887418e7 -1.0657621670817073e7 0.0
0.0 0.0 0.0

813890.0023853357 5.919018586484544e6 0.0
5.919018586484544e6 -5.226604358962221e6 0.0
0.0 0.0 0.0

-3.3531777809643773e6 1.5769771609829696e7 0.0
1.5769771609829696e7 -1.3910742118671509e6 0.0
0.0 0.0 0.0

-1.7879341091440334e6 1.3561600121154035e7 0.0
1.3561600121154035e7 -4.232860550630144e6 0.0
0.0 0.0 0.0

-6.3024012984198285e6 4.415070035033062e6 0.0
4.415070035033062e6 5.902362793704096e6 0.0
0.0 0.0 0.0

-4.261400454356434e6 1.4151361039756225e7 0.0
1.4151361039756225e7 6.127506748588212e6 0.0
0.0 0.0 0.0

-609951.3919984087 4.936224102598047e6 0.0
4.936224102598047e6 -2.2123567010157807e6 0.0
0.0 0.0 0.0

-945944.4775414406 7.568467682554273e6 0.0
7.568467682554273e6 -1.7713328982459994e6 0.0
0.0 0.0 0.0

-1.1957789640188033e7 2.350543457527299e6 0.0
2.350543457527299e6 2.3631485310150072e7 0.0
0.0 0.0 0.0

-3.647509874889152e6 8.635933164736215e6 0.0
8.635933164736215e6 884873.4988829799 0.0
0.0 0.0 0.0

1.7910981484560147e6 1.1057597463224586e7 0.0
1.1057597463224586e7 -1.436683666868701e6 0.0
0.0 0.0 0.0

247093.3877605314 9.793649426554928e6 0.0
9.793649426554928e6 -5.327189008780627e6 0.0
0.0 0.0 0.0

-288115.342176422 1.0417809306896184e7 0.0
1.0417809306896184e7 -6.1846882206324935e6 0.0
0.0 0.0 0.0

1.9786588480790677e6 1.0433228230252786e7 0.0
1.0433228230252786e7 -1.8227025688108288e7 0.0
0.0 0.0 0.0

4.894659190063498e6 6.588323433390627e6 0.0
6.588323433390627e6 -1.9674585934392083e7 0.0
0.0 0.0 0.0

-1.1287588353312235e7 4.160953558195693e6 0.0
4.160953558195693e6 1.2812128469871495e7 0.0
0.0 0.0 0.0

-5.944736830460789e6 1.4989744597822342e7 0.0
1.4989744597822342e7 5.421481296186049e6 0.0
0.0 0.0 0.0

-1.1502375362902287e7 -1.7896605628013434e6 0.0
-1.7896605628013434e6 1.698826325288718e7 0.0
0.0 0.0 0.0

-1.1578033062671004e6 1.2998888911262749e7 0.0
1.2998888911262749e7 -5.6618463359904075e6 0.0
0.0 0.0 0.0

-988755.7556692872 1.293940018939098e7 0.0
1.293940018939098e7 -7.469425122927755e6 0.0
0.0 0.0 0.0

6.7938380151285315e6 5.126197358647348e6 0.0
5.126197358647348e6 -1.1280189835786824e6 0.0
0.0 0.0 0.0

1.1436538605469607e6 7.339322470729509e6 0.0
7.339322470729509e6 -5.881260059194981e6 0.0
0.0 0.0 0.0

-5.777587493218316e6 7.829404039887413e6 0.0
7.829404039887413e6 4.431612303224202e6 0.0
0.0 0.0 0.0

203819.179529747 1.1644192867991015e7 0.0
1.1644192867991015e7 -1.046493848411281e7 0.0
0.0 0.0 0.0

329346.3544709224 1.0268024434890319e7 0.0
1.0268024434890319e7 -5.965862739141272e6 0.0
0.0 0.0 0.0

338190.02190254675 1.0917472590288129e7 0.0
1.0917472590288129e7 -6.827946783002721e6 0.0
0.0 0.0 0.0

-1.2023957261396132e7 6.47673139418078e6 0.0
6.47673139418078e6 1.8438654011522125e7 0.0
0.0 0.0 0.0

-8.911412857989566e6 4.60801348541407e6 0.0
4.60801348541407e6 9.961188523525573e6 0.0
0.0 0.0 0.0

-333092.4558628318 1.0194501388328487e7 0.0
1.0194501388328487e7 -5.898109720219053e6 0.0
0.0 0.0 0.0

-1.6170021739646082e6 1.1883966999004833e7 0.0
1.1883966999004833e7 -4.284291864023976e6 0.0
0.0 0.0 0.0

-4.262000604101947e6 1.178483146712281e7 0.0
1.178483146712281e7 1.8424648900915547e6 0.0
0.0 0.0 0.0

-4.482994259473086e6 1.495455964917821e7 0.0
1.495455964917821e7 713684.5050042602 0.0
0.0 0.0 0.0

3.268906211748992e6 9.155902314767014e6 0.0
9.155902314767014e6 -1.3879823070775468e7 0.0
0.0 0.0 0.0

-5.792157691451115e6 1.760872933962357e7 0.0
1.760872933962357e7 5.046689850791698e6 0.0
0.0 0.0 0.0

-5.6647224274048135e6 8.591793517129142e6 0.0
8.591793517129142e6 4.042127374981016e6 0.0
0.0 0.0 0.0

-3.2056920719492845e6 1.5979331669077652e7 0.0
1.5979331669077652e7 -1.8975585387622693e6 0.0
0.0 0.0 0.0

-361817.89807571843 1.1977847333542895e7 0.0
1.1977847333542895e7 -1.9445806110090134e6 0.0
0.0 0.0 0.0

702955.5964864749 1.2329222842167621e7 0.0
1.2329222842167621e7 -1.0117396690498501e7 0.0
0.0 0.0 0.0

-1.026702780849386e6 1.26943632218183e7 0.0
1.26943632218183e7 -4.2612441541967895e6 0.0
0.0 0.0 0.0

-6.63473576388743e6 1.4732881709258094e7 0.0
1.4732881709258094e7 6.503257140316419e6 0.0
0.0 0.0 0.0

-767832.7909227549 1.2195194605774237e7 0.0
1.2195194605774237e7 -5.424053707309653e6 0.0
0.0 0.0 0.0

-396430.8947447378 9.971203899306204e6 0.0
9.971203899306204e6 -5.594665006766468e6 0.0
0.0 0.0 0.0

1.0490948150580935e6 1.1893779506351527e7 0.0
1.1893779506351527e7 -1.1302673640329832e7 0.0
0.0 0.0 0.0

-481749.8448860715 8.609292868860107e6 0.0
8.609292868860107e6 -4.518546043653709e6 0.0
0.0 0.0 0.0

-4.984037595603382e6 1.3706279493180951e7 0.0
1.3706279493180951e7 2.059250619456923e6 0.0
0.0 0.0 0.0

-4.1368511584536657e6 1.470969296387582e7 0.0
1.470969296387582e7 -59459.79938675021 0.0
0.0 0.0 0.0

413178.53637521435 4.818976608182594e6 0.0
4.818976608182594e6 -2.6253858131220206e6 0.0
0.0 0.0 0.0

502880.81447466183 7.869146440915675e6 0.0
7.869146440915675e6 -6.305429971373624e6 0.0
0.0 0.0 0.0

-4.408833474135701e6 1.5555432330897473e7 0.0
1.5555432330897473e7 1.929761772768865e6 0.0
0.0 0.0 0.0

-5.379515299584358e6 1.225335244727262e7 0.0
1.225335244727262e7 2.7215774715846684e6 0.0
0.0 0.0 0.0

-4.794138966277461e7 2.1500753164723846e6 0.0
2.1500753164723846e6 9.024773051585771e6 0.0
0.0 0.0 0.0

1.7276651469918867e6 1.1078238026387764e7 0.0
1.1078238026387764e7 -1.2031438787277382e7 0.0
0.0 0.0 0.0

-5.79707781860332e6 1.158335079481371e7 0.0
1.158335079481371e7 3.6799940915668546e6 0.0
0.0 0.0 0.0

-3.0370193894348075e6 1.3748498834684154e7 0.0
1.3748498834684154e7 -643721.5975323359 0.0
0.0 0.0 0.0

-6.063254466880386e6 1.2260416315873649e7 0.0
1.2260416315873649e7 4.088936840898637e6 0.0
0.0 0.0 0.0

-868284.3156943182 1.3795850760586984e7 0.0
1.3795850760586984e7 -399540.1053209425 0.0
0.0 0.0 0.0

-1.490162895125603e6 1.2933314279032648e7 0.0
1.2933314279032648e7 -4.483452209232609e6 0.0
0.0 0.0 0.0

-5.424481036108983e6 9.261300086261587e6 0.0
9.261300086261587e6 3.551557516441141e6 0.0
0.0 0.0 0.0

-1.0037662487518156e7 2.2985771810715706e6 0.0
2.2985771810715706e6 1.3401120108884517e7 0.0
0.0 0.0 0.0

-370533.22693846957 8.97468172871261e6 0.0
8.97468172871261e6 -3.7721699373617023e6 0.0
0.0 0.0 0.0

2.399813605718234e6 5.707966025103688e6 0.0
5.707966025103688e6 -7.260577479644656e6 0.0
0.0 0.0 0.0

-1.6057762410976603e6 1.073911437167652e7 0.0
1.073911437167652e7 -3.7050929248024924e6 0.0
0.0 0.0 0.0

-2.0610438272313287e6 1.3398491135305587e7 0.0
1.3398491135305587e7 -5.080801746556191e6 0.0
0.0 0.0 0.0

-5.098116620858334e6 1.1632648971048042e7 0.0
1.1632648971048042e7 2.2867505950984005e6 0.0
0.0 0.0 0.0

-1.7753073734176797e6 9.931292438905606e6 0.0
9.931292438905606e6 -2.929562822498977e6 0.0
0.0 0.0 0.0

-1.2131462428781306e6 4.718313943597457e6 0.0
4.718313943597457e6 399739.0420317464 0.0
0.0 0.0 0.0

2.174370388723527e6 5.552758479354625e6 0.0
5.552758479354625e6 -8.005120679538568e6 0.0
0.0 0.0 0.0

-1.1443152307353752e7 1.161481722517969e6 0.0
1.161481722517969e6 1.807486563974176e7 0.0
0.0 0.0 0.0

-5.585525476938477e6 2.5559978541292585e6 0.0
2.5559978541292585e6 5.980775161993422e6 0.0
0.0 0.0 0.0

-5.65495353433493e6 1.3276402857238786e7 0.0
1.3276402857238786e7 9.330611803477682e6 0.0
0.0 0.0 0.0

-1.920647460908316e6 1.232944883345547e7 0.0
1.232944883345547e7 -3.9228758943666434e6 0.0
0.0 0.0 0.0

494052.0694236432 7.521765382380688e6 0.0
7.521765382380688e6 -6.135401431479104e6 0.0
0.0 0.0 0.0

-1.1411107338281687e7 877788.6083186935 0.0
877788.6083186935 1.9282020063467026e7 0.0
0.0 0.0 0.0

-2.9386987922440986e6 1.3930703453186732e7 0.0
1.3930703453186732e7 -960244.3946823509 0.0
0.0 0.0 0.0

-2.41640453407081e6 8.990234431878543e6 0.0
8.990234431878543e6 -1.3251372720772517e6 0.0
0.0 0.0 0.0

-460335.7414559698 7.35032139480712e6 0.0
7.35032139480712e6 -2.417383105385669e6 0.0
0.0 0.0 0.0

-965054.849830085 9.130170748678239e6 0.0
9.130170748678239e6 -3.9918666100061475e6 0.0
0.0 0.0 0.0

482376.2688629227 1.1544800205645386e7 0.0
1.1544800205645386e7 -1.339697030635704e7 0.0
0.0 0.0 0.0

-5.022438194072914e6 1.238202438109952e7 0.0
1.238202438109952e7 3.881055347718331e6 0.0
0.0 0.0 0.0

-334355.63440637896 1.2843091320085036e7 0.0
1.2843091320085036e7 -7.423886679218741e6 0.0
0.0 0.0 0.0

-8.4935579391145e6 1.2332440839553611e7 0.0
1.2332440839553611e7 2.928517843590733e7 0.0
0.0 0.0 0.0

-1.6138140391048975e6 1.2908018833684705e7 0.0
1.2908018833684705e7 6.269346214817902e6 0.0
0.0 0.0 0.0

-6.716735737233337e6 7.036636198903949e6 0.0
7.036636198903949e6 6.273717356929463e6 0.0
0.0 0.0 0.0

2.5707656220189007e6 9.320205673904851e6 0.0
9.320205673904851e6 -1.1558447046357777e7 0.0
0.0 0.0 0.0

-1.4801791072521508e6 1.0322080343460225e7 0.0
1.0322080343460225e7 -2.3297352356361616e6 0.0
0.0 0.0 0.0

-1.817200078182203e6 1.4323577329346903e7 0.0
1.4323577329346903e7 -5.778459657028793e6 0.0
0.0 0.0 0.0

-5.621900492546333e6 1.5415501026248727e7 0.0
1.5415501026248727e7 4.667788372246715e6 0.0
0.0 0.0 0.0

-3.852279528925008e6 1.443539773343754e7 0.0
1.443539773343754e7 -645168.571166723 0.0
0.0 0.0 0.0

601233.7019324908 1.257512280520542e7 0.0
1.257512280520542e7 -9.53998937044172e6 0.0
0.0 0.0 0.0

-1.1075431130522857e6 9.789047457878336e6 0.0
9.789047457878336e6 -2.735977015802967e6 0.0
0.0 0.0 0.0

-5.831337090514883e6 1.2583156846733022e7 0.0
1.2583156846733022e7 3.5951104650988267e6 0.0
0.0 0.0 0.0

-5.470541824443221e6 4.270506356428336e6 0.0
4.270506356428336e6 4.224010168378335e6 0.0
0.0 0.0 0.0

2.538764381107263e6 5.592351462669041e6 0.0
5.592351462669041e6 -8.725185076746527e6 0.0
0.0 0.0 0.0

-1.3488023378805178e6 1.0858502703973208e7 0.0
1.0858502703973208e7 -2.858910771112836e6 0.0
0.0 0.0 0.0

2.659022296841288e6 7.59158735963252e6 0.0
7.59158735963252e6 -9.077615747772455e6 0.0
0.0 0.0 0.0

-3.7275302033731323e6 1.2330612237162143e7 0.0
1.2330612237162143e7 1.3951107533914607e6 0.0
0.0 0.0 0.0

47980.15297004802 7.141628038714021e6 0.0
7.141628038714021e6 -3.059566439051919e6 0.0
0.0 0.0 0.0

-4.882957641452996e6 1.6536159237745807e7 0.0
1.6536159237745807e7 1.1255726498255627e6 0.0
0.0 0.0 0.0

-3.3914263693465024e7 -839971.2554904049 0.0
-839971.2554904049 1.1142299745836085e7 0.0
0.0 0.0 0.0

431122.85792907164 6.876204228766721e6 0.0
6.876204228766721e6 -3.602030405470538e6 0.0
0.0 0.0 0.0

580920.9730606256 1.1381364701792968e7 0.0
1.1381364701792968e7 -1.4946452458863027e7 0.0
0.0 0.0 0.0

134836.80275316816 1.3534650382653791e7 0.0
1.3534650382653791e7 -7.010467956003351e6 0.0
0.0 0.0 0.0

603567.8465339649 9.471169578237882e6 0.0
9.471169578237882e6 -5.9234204634483205e6 0.0
0.0 0.0 0.0

669398.0645032898 1.2038931624910101e7 0.0
1.2038931624910101e7 -9.480397240229884e6 0.0
0.0 0.0 0.0

783641.7712470018 6.6379492508626515e6 0.0
6.6379492508626515e6 -4.1121921729815947e6 0.0
0.0 0.0 0.0

3.273480666302726e6 7.032353740695755e6 0.0
7.032353740695755e6 -1.0206345876738943e7 0.0
0.0 0.0 0.0

-4.79046845838412e6 1.5220255890265323e7 0.0
1.5220255890265323e7 1.4003494091025242e6 0.0
0.0 0.0 0.0

714343.2795196676 5.523285340472403e6 0.0
5.523285340472403e6 -4.8689396031723395e6 0.0
0.0 0.0 0.0

903448.4157020687 7.830964500341276e6 0.0
7.830964500341276e6 -7.118748950274016e6 0.0
0.0 0.0 0.0

-5.207515438386596e6 1.7191341409595575e7 0.0
1.7191341409595575e7 2.00522004245568e6 0.0
0.0 0.0 0.0

2.1065232477973434e6 1.172913676544581e7 0.0
1.172913676544581e7 -2.5931430585402567e6 0.0
0.0 0.0 0.0

-2.311380685708671e6 1.5003693468085984e7 0.0
1.5003693468085984e7 -3.7155140902533405e6 0.0
0.0 0.0 0.0

5.252629975995516e6 7.739944477898364e6 0.0
7.739944477898364e6 -2.2161013809208762e7 0.0
0.0 0.0 0.0

-1.119459248490668e7 9.159391330098972e6 0.0
9.159391330098972e6 1.4562530375880964e7 0.0
0.0 0.0 0.0

-4.465672816138345e6 1.48202826298883e7 0.0
1.48202826298883e7 2.2365568811208224e6 0.0
0.0 0.0 0.0

2.416275705658367e6 7.271460359934402e6 0.0
7.271460359934402e6 -8.104929274807041e6 0.0
0.0 0.0 0.0

1.0088846590612286e6 6.331035854793805e6 0.0
6.331035854793805e6 -4.583148974145546e6 0.0
0.0 0.0 0.0

574325.4935029291 7.19696539147127e6 0.0
7.19696539147127e6 -5.952522532336112e6 0.0
0.0 0.0 0.0

-6.125548083479118e6 1.731845934042588e7 0.0
1.731845934042588e7 5.9579442747670915e6 0.0
0.0 0.0 0.0

-3.4741087593801464e6 2.1808822303683506e6 0.0
2.1808822303683506e6 4.462735417126617e6 0.0
0.0 0.0 0.0

-1.1130722046954388e7 7.204723195104867e6 0.0
7.204723195104867e6 1.3199291785716575e7 0.0
0.0 0.0 0.0

-3.6067275195217356e6 1.4592732378816083e7 0.0
1.4592732378816083e7 111290.70828458387 0.0
0.0 0.0 0.0

675512.6795978551 1.0421147028499525e7 0.0
1.0421147028499525e7 -7.220069088904759e6 0.0
0.0 0.0 0.0

-5.110914663036387e6 1.3234907580552567e7 0.0
1.3234907580552567e7 8.041290448550034e6 0.0
0.0 0.0 0.0

-2.1397070641046567e6 1.0465225465771653e7 0.0
1.0465225465771653e7 -2.5260564593556253e6 0.0
0.0 0.0 0.0

-4508.135410986142 1.0769480110323109e7 0.0
1.0769480110323109e7 -5.661813354727529e6 0.0
0.0 0.0 0.0

1.4395010923583265e6 1.1021817349463465e7 0.0
1.1021817349463465e7 -1.3963058249398844e7 0.0
0.0 0.0 0.0

-2.6674220109350453e6 1.5694516291584563e7 0.0
1.5694516291584563e7 -2.835218931666576e6 0.0
0.0 0.0 0.0

2.1167808845122512e6 1.0450682376629766e7 0.0
1.0450682376629766e7 -1.7547488444491792e7 0.0
0.0 0.0 0.0

-4.64139414483163e6 4.1523410906225485e6 0.0
4.1523410906225485e6 3.0202403580021774e6 0.0
0.0 0.0 0.0

234919.5359406527 1.604078723776747e7 0.0
1.604078723776747e7 1.4133358204862764e7 0.0
0.0 0.0 0.0

-6.342631620495564e6 1.6817347591257527e7 0.0
1.6817347591257527e7 5.849284280668614e6 0.0
0.0 0.0 0.0

-2.0880455879247014e6 1.0737482690137506e7 0.0
1.0737482690137506e7 -2.7885808789417883e6 0.0
0.0 0.0 0.0

125299.48504789243 1.4173271099610828e7 0.0
1.4173271099610828e7 -5.592910842958564e6 0.0
0.0 0.0 0.0

-3.2346157295916914e6 1.4368016948188625e7 0.0
1.4368016948188625e7 -574263.7755469498 0.0
0.0 0.0 0.0

-1.7162396152370567e6 6.477160433213647e6 0.0
6.477160433213647e6 -1.3102840740238316e6 0.0
0.0 0.0 0.0

440464.79919467075 1.2820848673485812e7 0.0
1.2820848673485812e7 -8.961387698411545e6 0.0
0.0 0.0 0.0

1.6645554121682667e6 1.0203911895872876e7 0.0
1.0203911895872876e7 -9.839094302730734e6 0.0
0.0 0.0 0.0

1.322041555477336e6 1.0476002333386736e7 0.0
1.0476002333386736e7 -9.20901106044237e6 0.0
0.0 0.0 0.0

-783972.8234489275 1.0231112585444074e7 0.0
1.0231112585444074e7 -4.976908721023528e6 0.0
0.0 0.0 0.0

2.939828792880901e6 1.6187740990571892e7 0.0
1.6187740990571892e7 -6.708927092942932e6 0.0
0.0 0.0 0.0

1.2860982588827075e6 8.268805002456431e6 0.0
8.268805002456431e6 -6.433748674755146e6 0.0
0.0 0.0 0.0

2.546587845411896e6 5.309140031024385e6 0.0
5.309140031024385e6 -8.587794330476714e6 0.0
0.0 0.0 0.0

1.966376197766989e6 9.8868810276635e6 0.0
9.8868810276635e6 -1.0395643836581677e7 0.0
0.0 0.0 0.0

4.730724823329084e6 6.734453241225461e6 0.0
6.734453241225461e6 -1.8093642378361493e7 0.0
0.0 0.0 0.0

-2.0500170674444959e6 6.373667988437256e6 0.0
6.373667988437256e6 -506657.8140928521 0.0
0.0 0.0 0.0

-5.16223266529509e6 1.3355145451484874e7 0.0
1.3355145451484874e7 2.3050712656154395e6 0.0
0.0 0.0 0.0

4.127445436253323e6 6.009843902004495e6 0.0
6.009843902004495e6 -1.1919486261528298e7 0.0
0.0 0.0 0.0

1.8117054790069438e6 5.876931619742366e6 0.0
5.876931619742366e6 -7.523141630112884e6 0.0
0.0 0.0 0.0

-528198.5594333444 1.0331537324800814e7 0.0
1.0331537324800814e7 -4.133686018444109e6 0.0
0.0 0.0 0.0

-1.1622404415255684e7 7.681574345099625e6 0.0
7.681574345099625e6 1.9314747172711328e7 0.0
0.0 0.0 0.0

-6.866987247764613e6 1.3980209151276e7 0.0
1.3980209151276e7 8.084246875665143e6 0.0
0.0 0.0 0.0

-1.7974299950332139e6 6.9176902975921715e6 0.0
6.9176902975921715e6 -1.4944869339595353e6 0.0
0.0 0.0 0.0

-8.171425034744558e6 1.2084637596770132e7 0.0
1.2084637596770132e7 1.0012955912216058e7 0.0
0.0 0.0 0.0

3.3708449223629264e6 6.361050573665848e6 0.0
6.361050573665848e6 -9.509260930922344e6 0.0
0.0 0.0 0.0

2.213629981925216e6 9.60870568866875e6 0.0
9.60870568866875e6 -1.1071521356798971e7 0.0
0.0 0.0 0.0

-1.4612686843725434e7 3.1249426571134806e7 0.0
3.1249426571134806e7 7.165914499354071e6 0.0
0.0 0.0 0.0

-3.1312264265281116e6 8.39107176104631e6 0.0
8.39107176104631e6 116611.18218290398 0.0
0.0 0.0 0.0

-3.440494091637764e6 4.178649791956067e6 0.0
4.178649791956067e6 1.844409448540941e6 0.0
0.0 0.0 0.0

-667690.4974805117 1.248878361441371e7 0.0
1.248878361441371e7 -7.97919178475537e6 0.0
0.0 0.0 0.0

1.0251860366535741e6 1.0762260283975026e7 0.0
1.0762260283975026e7 -8.673501118982177e6 0.0
0.0 0.0 0.0

247655.98835914413 823627.0715899224 0.0
823627.0715899224 911437.5966652664 0.0
0.0 0.0 0.0

441253.91409737174 -479323.0071014121 0.0
-479323.0071014121 3.4962009923170204e6 0.0
0.0 0.0 0.0

-6.434460245581571e6 1.740413872241074e7 0.0
1.740413872241074e7 5.832709646883544e6 0.0
0.0 0.0 0.0

-5.292941009019842e6 1.1276676462748697e7 0.0
1.1276676462748697e7 2.73718952657059e6 0.0
0.0 0.0 0.0

-6.095598694230031e6 1.7120639771702703e7 0.0
1.7120639771702703e7 4.795820601984023e6 0.0
0.0 0.0 0.0

2.8969798815845316e6 7.592794646558933e6 0.0
7.592794646558933e6 -9.862386525989396e6 0.0
0.0 0.0 0.0

-5.589375063809647e6 1.2843886526022693e7 0.0
1.2843886526022693e7 3.132244490334907e6 0.0
0.0 0.0 0.0

-1.0037533317995984e7 298970.5667453674 0.0
298970.5667453674 1.3757710273560299e7 0.0
0.0 0.0 0.0

-4.022021805765752e7 409384.64303453034 0.0
409384.64303453034 1.134757040738467e7 0.0
0.0 0.0 0.0

-5.438484855376839e6 1.3927546240918932e7 0.0
1.3927546240918932e7 2.7389947085148348e6 0.0
0.0 0.0 0.0

-7.640700412545e6 1.2622480839286583e7 0.0
1.2622480839286583e7 9.471841461773602e6 0.0
0.0 0.0 0.0

-3.8614559407187756e6 1.55120714279453e7 0.0
1.55120714279453e7 -1.8200574621548261e6 0.0
0.0 0.0 0.0

1.8673894506189753e6 5.687124416333686e6 0.0
5.687124416333686e6 -7.158728974232467e6 0.0
0.0 0.0 0.0

-4.0654467956803213e6 9.291319140917398e6 0.0
9.291319140917398e6 1.3638274951991555e6 0.0
0.0 0.0 0.0

-4.273378681744695e6 1.5704735156300217e7 0.0
1.5704735156300217e7 -1.2528047913163006e6 0.0
0.0 0.0 0.0

-2.0563990330174854e6 1.5147979098927345e7 0.0
1.5147979098927345e7 -2.004441642182743e6 0.0
0.0 0.0 0.0

2.7760950746734627e6 6.430328430305898e6 0.0
6.430328430305898e6 -8.180486562722783e6 0.0
0.0 0.0 0.0

-7.402099814493164e6 1.3115560261822354e7 0.0
1.3115560261822354e7 8.99726345728879e6 0.0
0.0 0.0 0.0

-1.01387278308452e6 1.1752338416325234e7 0.0
1.1752338416325234e7 -4.075652922251178e6 0.0
0.0 0.0 0.0

5.192109127215034e6 5.94153441142843e6 0.0
5.94153441142843e6 -1.916055346781366e7 0.0
0.0 0.0 0.0

-1.1413179572981516e7 -4.293450716647396e6 0.0
-4.293450716647396e6 2.144553097250518e7 0.0
0.0 0.0 0.0

2.06999797698511e6 7.58771441363189e6 0.0
7.58771441363189e6 -7.5434417407179745e6 0.0
0.0 0.0 0.0

4.373503689967459e6 6.881490670674011e6 0.0
6.881490670674011e6 -1.3606090451445794e7 0.0
0.0 0.0 0.0

1.0944240678420397e6 1.1595049925178993e7 0.0
1.1595049925178993e7 -6.616496193402311e6 0.0
0.0 0.0 0.0

3.191717494634115e6 9.271031880443929e6 0.0
9.271031880443929e6 -1.7350854090116635e7 0.0
0.0 0.0 0.0

-5.508129653301176e6 1.850608777271444e7 0.0
1.850608777271444e7 1.8657349650682271e6 0.0
0.0 0.0 0.0

-9.53127836497337e6 1.1655685536308514e7 0.0
1.1655685536308514e7 1.6895734289179403e7 0.0
0.0 0.0 0.0

-1.1240567823799782e7 -4.505708398133023e6 0.0
-4.505708398133023e6 1.9044584337455757e7 0.0
0.0 0.0 0.0

-1.3332103430888015e6 1.2211547059176756e7 0.0
1.2211547059176756e7 -3.7524820689035594e6 0.0
0.0 0.0 0.0

4.268024510942812e6 7.3098530195392165e6 0.0
7.3098530195392165e6 -1.609283837641776e7 0.0
0.0 0.0 0.0

-2.927609739259694e6 1.1856877617562283e7 0.0
1.1856877617562283e7 -155184.39001924475 0.0
0.0 0.0 0.0

-4.916291817566249e6 1.2817903038813634e7 0.0
1.2817903038813634e7 1.8976655903128723e6 0.0
0.0 0.0 0.0

-6.2327880363546815e6 3.2053998598032356e6 0.0
3.2053998598032356e6 8.559759082990058e6 0.0
0.0 0.0 0.0

-2.5441651852634246e6 1.5978260842262011e7 0.0
1.5978260842262011e7 -2.8934000734800817e6 0.0
0.0 0.0 0.0

1.4204895577714492e6 1.1544521744891582e7 0.0
1.1544521744891582e7 -5.023407057753589e6 0.0
0.0 0.0 0.0

-3.8621649694479173e6 1.4884077774111934e7 0.0
1.4884077774111934e7 793803.4874238567 0.0
0.0 0.0 0.0

5.59439613066002e6 5.042125356219852e6 0.0
5.042125356219852e6 -1.803691390855127e7 0.0
0.0 0.0 0.0

-5.379208609346533e6 1.3131100816113964e7 0.0
1.3131100816113964e7 2.6644049369811136e6 0.0
0.0 0.0 0.0

632533.1729844478 9.706102738014694e6 0.0
9.706102738014694e6 -6.233543853781698e6 0.0
0.0 0.0 0.0

-1.7046262937296834e6 7.766477979686542e6 0.0
7.766477979686542e6 -2.0623212996021563e6 0.0
0.0 0.0 0.0

-722196.2695122844 9.539034444560634e6 0.0
9.539034444560634e6 -3.3775576331420876e6 0.0
0.0 0.0 0.0

-1.5048877281688144e6 5.622738273195247e6 0.0
5.622738273195247e6 -919197.7714108266 0.0
0.0 0.0 0.0

1.471187679254248e6 1.1331388584336808e7 0.0
1.1331388584336808e7 -5.296845539862024e6 0.0
0.0 0.0 0.0

-1.157563369470198e7 2.3406691500104894e6 0.0
2.3406691500104894e6 1.7286392856906414e7 0.0
0.0 0.0 0.0

-30846.662389808567 1.0557546469916107e7 0.0
1.0557546469916107e7 -5.349675368171147e6 0.0
0.0 0.0 0.0

-773325.5819235204 5.413607741510347e6 0.0
5.413607741510347e6 -2.432909662298974e6 0.0
0.0 0.0 0.0

-6.605301657202548e6 1.771193055985665e7 0.0
1.771193055985665e7 6.085559211075997e6 0.0
0.0 0.0 0.0

-2.8304385695783254e6 1.4387164263027245e7 0.0
1.4387164263027245e7 -1.8294039975747387e6 0.0
0.0 0.0 0.0

1.2906471042464776e6 1.1318214906579923e7 0.0
1.1318214906579923e7 -1.0584615458181586e7 0.0
0.0 0.0 0.0

1.6831352760351044e6 7.915506355429039e6 0.0
7.915506355429039e6 -7.002318379170842e6 0.0
0.0 0.0 0.0

-4.9034681876597535e6 1.4274366883302867e7 0.0
1.4274366883302867e7 3.2615329154566424e6 0.0
0.0 0.0 0.0

-8.232984710108533e6 1.1960139727601245e7 0.0
1.1960139727601245e7 1.0441809534645569e7 0.0
0.0 0.0 0.0

-5.200917794121629e6 1.319753886137504e7 0.0
1.319753886137504e7 1.038532805170892e7 0.0
0.0 0.0 0.0

4.197888043265746e6 7.445303775317554e6 0.0
7.445303775317554e6 -1.702727161516127e7 0.0
0.0 0.0 0.0

-5.258563791049566e6 1.2983044588746455e7 0.0
1.2983044588746455e7 4.212168948358884e6 0.0
0.0 0.0 0.0

-4.865097835501791e6 1.3521806701719526e7 0.0
1.3521806701719526e7 3.2526962264703447e6 0.0
0.0 0.0 0.0

-5.5898159166511465e6 6.082964766983118e6 0.0
6.082964766983118e6 4.1491172782146735e6 0.0
0.0 0.0 0.0

-5.5308628937725965e6 1.892617695411773e7 0.0
1.892617695411773e7 1.8340924949417713e6 0.0
0.0 0.0 0.0

169234.92199948174 9.530723606935836e6 0.0
9.530723606935836e6 -5.032073735172522e6 0.0
0.0 0.0 0.0

-8.323137989435303e6 9.57064014386948e6 0.0
9.57064014386948e6 9.103050320497205e6 0.0
0.0 0.0 0.0

1.6452590344464565e6 7.58912919676375e6 0.0
7.58912919676375e6 -6.755047920312201e6 0.0
0.0 0.0 0.0

-1.0822436938541075e6 6.708968838810227e6 0.0
6.708968838810227e6 -1.1849760790879184e6 0.0
0.0 0.0 0.0

-4.740098606961113e6 1.445381044508418e7 0.0
1.445381044508418e7 2.8702451391829075e6 0.0
0.0 0.0 0.0

-4.96098935538142e6 1.4925195842641283e7 0.0
1.4925195842641283e7 3.193000891182391e6 0.0
0.0 0.0 0.0

-64584.75881797774 1.0330290414073031e7 0.0
1.0330290414073031e7 -5.0363703814812545e6 0.0
0.0 0.0 0.0

1.535616238365833e6 1.2413546504354721e7 0.0
1.2413546504354721e7 -5.672561554643255e6 0.0
0.0 0.0 0.0

1.2241966174890778e6 1.7006462488337222e7 0.0
1.7006462488337222e7 -5.698229392188507e6 0.0
0.0 0.0 0.0

-4.021402907352866e6 1.4567423817147836e7 0.0
1.4567423817147836e7 3.8815323028968796e6 0.0
0.0 0.0 0.0

-2.206166786744005e6 1.2133399302764881e7 0.0
1.2133399302764881e7 -1.4222030799968343e7 0.0
0.0 0.0 0.0

809483.9887006371 8.3301833579878835e6 0.0
8.3301833579878835e6 -5.587689694613555e6 0.0
0.0 0.0 0.0

-9.404169562862866e6 1.0339735291060979e6 0.0
1.0339735291060979e6 1.26444131884208e7 0.0
0.0 0.0 0.0

-875802.3869334344 1.3972173163960317e7 0.0
1.3972173163960317e7 -1.0458780602810718e6 0.0
0.0 0.0 0.0

-2.3728608040154115e6 1.409334385509238e7 0.0
1.409334385509238e7 -383506.7405156775 0.0
0.0 0.0 0.0

-5.065341526523243e6 1.3217432894484878e7 0.0
1.3217432894484878e7 3.697287579591582e6 0.0
0.0 0.0 0.0

-9.048952309423508e6 -1.1557838785181984e6 0.0
-1.1557838785181984e6 1.3426325014299003e7 0.0
0.0 0.0 0.0

-6.892121476133518e6 1.7996116033585407e7 0.0
1.7996116033585407e7 6.381195320352756e6 0.0
0.0 0.0 0.0

-5.194875215650898e6 1.4139735644212564e7 0.0
1.4139735644212564e7 2.314333720484442e6 0.0
0.0 0.0 0.0

1.6966018590374854e6 1.078045766137947e7 0.0
1.078045766137947e7 -2.065666351261313e6 0.0
0.0 0.0 0.0

498189.4713802969 1.167611281208619e7 0.0
1.167611281208619e7 1.6606317311125947e6 0.0
0.0 0.0 0.0

-5.471758795319123e6 1.269979887559201e7 0.0
1.269979887559201e7 4.765785090021468e6 0.0
0.0 0.0 0.0

-7.096825522095628e6 1.1164559065547334e7 0.0
1.1164559065547334e7 6.5630457035914175e6 0.0
0.0 0.0 0.0

2.717982563037595e6 6.096401643156807e6 0.0
6.096401643156807e6 -8.01155349499741e6 0.0
0.0 0.0 0.0

-3.810967178435875e6 1.504591903713371e7 0.0
1.504591903713371e7 461045.8293220333 0.0
0.0 0.0 0.0

-7.140639865099363e6 8.134521273030002e6 0.0
8.134521273030002e6 9.405765406577796e6 0.0
0.0 0.0 0.0

3.7859452173807817e6 5.882674941930259e6 0.0
5.882674941930259e6 -1.114569098868586e7 0.0
0.0 0.0 0.0

-3.5875060082298783e6 1.4033474151833415e7 0.0
1.4033474151833415e7 -1.0900981041534338e6 0.0
0.0 0.0 0.0

-4.601799010403143e6 1.2939661594629513e7 0.0
1.2939661594629513e7 2.936464688765471e6 0.0
0.0 0.0 0.0

-340662.58398110326 5.099423673326786e6 0.0
5.099423673326786e6 -3.0639578347003157e6 0.0
0.0 0.0 0.0

1.472802936596043e6 8.389101909507347e6 0.0
8.389101909507347e6 -8.436709037894657e6 0.0
0.0 0.0 0.0

-1.1124582902630717e7 2.793476010398245e7 0.0
2.793476010398245e7 5.856162862676132e6 0.0
0.0 0.0 0.0

5.515320427008687e6 7.657079563323834e6 0.0
7.657079563323834e6 -2.5723189459388502e7 0.0
0.0 0.0 0.0

3.969646935002056e6 6.277638378424954e6 0.0
6.277638378424954e6 -1.2438620083803644e7 0.0
0.0 0.0 0.0

1.8887161025132802e6 9.26538264700091e6 0.0
9.26538264700091e6 -9.10334270274052e6 0.0
0.0 0.0 0.0

-3.029933927294175e6 1.4313816352545165e7 0.0
1.4313816352545165e7 2.3945528651475557e6 0.0
0.0 0.0 0.0

1.625802010642563e6 1.0702519315468786e7 0.0
1.0702519315468786e7 -1.270577265150916e7 0.0
0.0 0.0 0.0

780307.2233825822 8.016223864566153e6 0.0
8.016223864566153e6 -5.4215447474915e6 0.0
0.0 0.0 0.0

-1.2415262099944726e6 7.578051014561237e6 0.0
7.578051014561237e6 -2.759133385890101e6 0.0
0.0 0.0 0.0

-390170.559536109 1.3194987523972142e7 0.0
1.3194987523972142e7 4.654130410241213e6 0.0
0.0 0.0 0.0

-9.510690975675207e6 1.1801191791064318e7 0.0
1.1801191791064318e7 1.569269611619156e7 0.0
0.0 0.0 0.0

1.417475826400356e6 1.072868256193839e7 0.0
1.072868256193839e7 6.770996613238482e6 0.0
0.0 0.0 0.0

-7.85003891953475e6 1.9338890090637967e7 0.0
1.9338890090637967e7 6.576458736424286e6 0.0
0.0 0.0 0.0

-1.196839121607561e6 1.0481015791533496e7 0.0
1.0481015791533496e7 -4.350679072131256e6 0.0
0.0 0.0 0.0

-1.4352028546421204e7 1.2945840454123747e7 0.0
1.2945840454123747e7 4.191765132331511e6 0.0
0.0 0.0 0.0

-691748.8607837169 1.1308823225293426e7 0.0
1.1308823225293426e7 -4.411375714239797e6 0.0
0.0 0.0 0.0

-4.536031103570995e6 1.3205991797346681e7 0.0
1.3205991797346681e7 2.480980781078975e6 0.0
0.0 0.0 0.0

-302592.96336469916 9.541517581887268e6 0.0
9.541517581887268e6 -4.1906083640208123e6 0.0
0.0 0.0 0.0

1.0739389536940819e6 1.1324683354160722e7 0.0
1.1324683354160722e7 -1.311418325180525e7 0.0
0.0 0.0 0.0

3.4651034322168855e6 6.053817554235103e6 0.0
6.053817554235103e6 -1.0713078436569128e7 0.0
0.0 0.0 0.0

3.80479070978396e6 8.701190100051934e6 0.0
8.701190100051934e6 -1.5851964751190921e7 0.0
0.0 0.0 0.0

-3.377814930964238e6 1.340417958040875e7 0.0
1.340417958040875e7 6.278584809123587e6 0.0
0.0 0.0 0.0

3.7550511856386354e6 6.980958479824401e6 0.0
6.980958479824401e6 -1.1703244521675482e7 0.0
0.0 0.0 0.0

-3.489763785115944e6 1.4170343633519256e7 0.0
1.4170343633519256e7 -1.3548572844195487e6 0.0
0.0 0.0 0.0

-1.7233412453568168e6 1.279339088800018e7 0.0
1.279339088800018e7 -5.172586617807093e6 0.0
0.0 0.0 0.0

-1.3679552202424055e6 9.378707099036666e6 0.0
9.378707099036666e6 -3.3590664220737014e6 0.0
0.0 0.0 0.0

-3.283344356220347e6 9.792891118793659e6 0.0
9.792891118793659e6 -175710.06819550938 0.0
0.0 0.0 0.0

-8.46632957919522e6 9.988660560288796e6 0.0
9.988660560288796e6 9.662421625677045e6 0.0
0.0 0.0 0.0

2.382479539827144e6 7.864033864824927e6 0.0
7.864033864824927e6 -8.572046310874967e6 0.0
0.0 0.0 0.0

-9.623319270586178e6 2.0527399424616598e7 0.0
2.0527399424616598e7 7.21711485189141e6 0.0
0.0 0.0 0.0

-7.315833346711876e6 1.8158263371372342e7 0.0
1.8158263371372342e7 6.793236203720083e6 0.0
0.0 0.0 0.0

-8.911126377982486e6 1.0861629165313028e7 0.0
1.0861629165313028e7 1.052424202360033e7 0.0
0.0 0.0 0.0

-1.386905617302518e6 8.584582816658e6 0.0
8.584582816658e6 -4.623018702030424e6 0.0
0.0 0.0 0.0

706078.770319704 1.1032224451499749e7 0.0
1.1032224451499749e7 -8.040109535863425e6 0.0
0.0 0.0 0.0

3.5457292631849647e6 6.834599686590282e6 0.0
6.834599686590282e6 -1.0840165705496771e7 0.0
0.0 0.0 0.0

-5.492878269738665e6 1.525058922159605e7 0.0
1.525058922159605e7 6.500347647652833e6 0.0
0.0 0.0 0.0

-8.135416656008204e6 4.466515468016206e6 0.0
4.466515468016206e6 8.706122147161758e6 0.0
0.0 0.0 0.0

-2.9976933340860414e6 1.7136839703892384e7 0.0
1.7136839703892384e7 -1.5158890962537446e6 0.0
0.0 0.0 0.0

-1.2111024478677927e7 -2.564555502658334e6 0.0
-2.564555502658334e6 2.941005165080019e7 0.0
0.0 0.0 0.0

-2.320137321769207e6 1.2619629260489639e7 0.0
1.2619629260489639e7 -3.23529933576945e6 0.0
0.0 0.0 0.0

-4.990037250510516e6 -2.992422127269643e6 0.0
-2.992422127269643e6 8.582563670273695e6 0.0
0.0 0.0 0.0

-1.6125123520369881e6 5.386708398198127e6 0.0
5.386708398198127e6 440831.07244845014 0.0
0.0 0.0 0.0

2.766257590356306e6 5.657314271019322e6 0.0
5.657314271019322e6 -8.001872732346986e6 0.0
0.0 0.0 0.0

-1.2336966072875354e7 7.384571518326624e6 0.0
7.384571518326624e6 1.699146852846731e7 0.0
0.0 0.0 0.0

3.4278469428990046e6 8.791120917714223e6 0.0
8.791120917714223e6 -1.3636866426279707e7 0.0
0.0 0.0 0.0

-3.321348738869855e6 1.4193121310733445e7 0.0
1.4193121310733445e7 -240589.51801927283 0.0
0.0 0.0 0.0

-5.145246778776731e6 1.406049453848118e7 0.0
1.406049453848118e7 3.6850733358325707e6 0.0
0.0 0.0 0.0

-1.8245640918473357e6 1.0851408926436406e7 0.0
1.0851408926436406e7 -1.9342668476167764e6 0.0
0.0 0.0 0.0

-5.860654001501145e6 1.4513574229836209e7 0.0
1.4513574229836209e7 5.208279864086259e6 0.0
0.0 0.0 0.0

1.1562861982703602e6 5.579514298042402e6 0.0
5.579514298042402e6 -5.753359398379469e6 0.0
0.0 0.0 0.0

-2.987369746395948e6 1.2243778523816917e7 0.0
1.2243778523816917e7 -1.623753964959671e6 0.0
0.0 0.0 0.0

-151995.88363544387 1.746249018900781e7 0.0
1.746249018900781e7 -4.432542298968924e6 0.0
0.0 0.0 0.0

739556.2830903993 7.616376973665644e6 0.0
7.616376973665644e6 -5.350310894704998e6 0.0
0.0 0.0 0.0

-448662.8374488576 1.0585831869609041e7 0.0
1.0585831869609041e7 -4.427790958918763e6 0.0
0.0 0.0 0.0

-1.5788209035019309e6 1.470457020292654e7 0.0
1.470457020292654e7 -1.7849224683563407e6 0.0
0.0 0.0 0.0

-1.8722805560961063e6 1.056555633245984e7 0.0
1.056555633245984e7 -1.659104579435286e6 0.0
0.0 0.0 0.0

3.446339705293561e6 1.4054179339201732e7 0.0
1.4054179339201732e7 -5.821174294030832e6 0.0
0.0 0.0 0.0

92110.49106141948 4.783342175692485e6 0.0
4.783342175692485e6 -3.688379565717369e6 0.0
0.0 0.0 0.0

4.489848523637461e6 5.966360783717481e6 0.0
5.966360783717481e6 -1.4281327957129197e7 0.0
0.0 0.0 0.0

134991.59689240507 4.583639693217378e6 0.0
4.583639693217378e6 -1.650122859956983e6 0.0
0.0 0.0 0.0

-752280.4005164505 7.374911025066846e6 0.0
7.374911025066846e6 -3.399798767534258e6 0.0
0.0 0.0 0.0

-2.0022899205497107e6 1.1002280805255758e7 0.0
1.1002280805255758e7 -3.060125515443557e6 0.0
0.0 0.0 0.0

-1.7060425545453522e6 5.818431284932963e6 0.0
5.818431284932963e6 482924.5703086633 0.0
0.0 0.0 0.0

2.0955090713466317e6 6.043460253974536e6 0.0
6.043460253974536e6 -6.640123188746582e6 0.0
0.0 0.0 0.0

269859.5171666858 1.3114701037390782e7 0.0
1.3114701037390782e7 -8.33212957293552e6 0.0
0.0 0.0 0.0

-255402.47125782794 7.172063531927049e6 0.0
7.172063531927049e6 -4.078019810962196e6 0.0
0.0 0.0 0.0

-1.0436448760995358e7 2.5913471263316967e7 0.0
2.5913471263316967e7 5.472481440426788e6 0.0
0.0 0.0 0.0

1.6211105142973987e6 1.2748600453579511e7 0.0
1.2748600453579511e7 4.878888796981583e6 0.0
0.0 0.0 0.0

154647.45709193032 6.898639834063376e6 0.0
6.898639834063376e6 -4.52804533323923e6 0.0
0.0 0.0 0.0

-4.498724222348454e6 9.091568845322676e6 0.0
9.091568845322676e6 3.7541888683854034e6 0.0
0.0 0.0 0.0

1.6740595203518132e6 4.962456889805018e6 0.0
4.962456889805018e6 -6.025601090634141e6 0.0
0.0 0.0 0.0

-1.1474690445861727e7 2.662495445416494e6 0.0
2.662495445416494e6 1.613522700909625e7 0.0
0.0 0.0 0.0

509674.48694834043 6.596511326237099e6 0.0
6.596511326237099e6 -5.014583174696041e6 0.0
0.0 0.0 0.0

-1.087331119301679e7 1.999987887445269e7 0.0
1.999987887445269e7 8.529141710132841e6 0.0
0.0 0.0 0.0

-2.5975769706172077e6 1.7382495747530848e7 0.0
1.7382495747530848e7 -1.9063149885037162e6 0.0
0.0 0.0 0.0

3.8582150798166627e6 6.563386446249294e6 0.0
6.563386446249294e6 -1.1259797758123705e7 0.0
0.0 0.0 0.0

-1.9913473680099417e6 1.3037665645537151e7 0.0
1.3037665645537151e7 -4.420335050427297e6 0.0
0.0 0.0 0.0

4.034250781139481e6 7.11146303809633e6 0.0
7.11146303809633e6 -1.4795962047591588e7 0.0
0.0 0.0 0.0

-2.4078676824859194e6 1.1254888057514483e7 0.0
1.1254888057514483e7 -2.4042385767804673e6 0.0
0.0 0.0 0.0

-2.7368573797911727e6 1.1676704553510608e7 0.0
1.1676704553510608e7 5.669697628734568e6 0.0
0.0 0.0 0.0

-1.1608890788199138e6 1.761439077894519e7 0.0
1.761439077894519e7 -3.338637421562914e6 0.0
0.0 0.0 0.0

866957.7376955629 7.40555399158497e6 0.0
7.40555399158497e6 -5.061580691328523e6 0.0
0.0 0.0 0.0

1.990938820683931e6 6.945818070256356e6 0.0
6.945818070256356e6 -7.12527509871541e6 0.0
0.0 0.0 0.0

-186417.67508493026 8.645942593395932e6 0.0
8.645942593395932e6 -3.541177353867376e6 0.0
0.0 0.0 0.0

-8.016922337844498e6 1.826563878092e7 0.0
1.826563878092e7 7.168208993117707e6 0.0
0.0 0.0 0.0

-2.775961540873608e6 9.597636549914218e6 0.0
9.597636549914218e6 -946503.7097450474 0.0
0.0 0.0 0.0

-3.566869277642155e6 1.97457456742789e7 0.0
1.97457456742789e7 -173725.06037989305 0.0
0.0 0.0 0.0

-1.7409553099970082e6 1.1112371902142048e7 0.0
1.1112371902142048e7 -2.2124236888990374e6 0.0
0.0 0.0 0.0

459965.4853801781 1.349558866408341e7 0.0
1.349558866408341e7 5.625589381643256e6 0.0
0.0 0.0 0.0

-1.3798020047288174e6 1.4435432451425973e7 0.0
1.4435432451425973e7 -1.3756549810030784e6 0.0
0.0 0.0 0.0

-4.217574178728504e6 1.5127263998500872e7 0.0
1.5127263998500872e7 1.5359515076199989e6 0.0
0.0 0.0 0.0

563290.3814729941 1.2379377481983667e7 0.0
1.2379377481983667e7 -8.802410753325019e6 0.0
0.0 0.0 0.0

2.0255455627794592e6 1.0404730950733766e7 0.0
1.0404730950733766e7 -1.6839167947710887e7 0.0
0.0 0.0 0.0

-1.088815181617586e7 1.046260011870761e7 0.0
1.046260011870761e7 1.5515579906891428e7 0.0
0.0 0.0 0.0

594761.4879557211 8.51563042370036e6 0.0
8.51563042370036e6 -6.8186489686630815e6 0.0
0.0 0.0 0.0

-1.1214775919349838e7 2.9767970953716985e6 0.0
2.9767970953716985e6 1.4779566533253536e7 0.0
0.0 0.0 0.0

2.801606166083697e6 9.352223886923287e6 0.0
9.352223886923287e6 -1.2475493723031033e7 0.0
0.0 0.0 0.0

-936376.9134364802 8.800796675995253e6 0.0
8.800796675995253e6 -3.761527371347971e6 0.0
0.0 0.0 0.0

2.808125853214765e6 4.962174728950608e6 0.0
4.962174728950608e6 -8.179549544008757e6 0.0
0.0 0.0 0.0

-3.7079648866500137e6 1.1676613191737363e7 0.0
1.1676613191737363e7 -30763.741919760592 0.0
0.0 0.0 0.0

-5.406979887107285e6 1.459129896026823e7 0.0
1.459129896026823e7 2.6670060897900504e6 0.0
0.0 0.0 0.0

-5.021165757852084e6 1.733140633423199e7 0.0
1.733140633423199e7 974165.8347998161 0.0
0.0 0.0 0.0

-2.6978860729687787e6 1.1751893465123616e7 0.0
1.1751893465123616e7 -2.0095668666649372e6 0.0
0.0 0.0 0.0

2.0822280238066013e6 5.768935614288113e6 0.0
5.768935614288113e6 -6.38862026835141e6 0.0
0.0 0.0 0.0

-1.9825934952474814e6 1.7558280010294147e7 0.0
1.7558280010294147e7 -2.561051925852025e6 0.0
0.0 0.0 0.0

-7.086605415541612e6 5.182885758045913e6 0.0
5.182885758045913e6 9.756187278439477e6 0.0
0.0 0.0 0.0

4.475243436655403e6 7.133718088135907e6 0.0
7.133718088135907e6 -1.7558575069214325e7 0.0
0.0 0.0 0.0

-2.4218628490565494e6 1.2795173849652817e7 0.0
1.2795173849652817e7 6.984297882704638e6 0.0
0.0 0.0 0.0

-6.17839868047164e6 1.631985613427727e7 0.0
1.631985613427727e7 5.014201133009725e6 0.0
0.0 0.0 0.0

-1.2244836085930085e6 1.2115254645586044e7 0.0
1.2115254645586044e7 -4.789629464720267e6 0.0
0.0 0.0 0.0

-9.52186569336077e6 1.1979829494730351e7 0.0
1.1979829494730351e7 1.4763906024785059e7 0.0
0.0 0.0 0.0

-1.139894722003096e6 1.1501808465131445e7 0.0
1.1501808465131445e7 -3.7996486654517623e6 0.0
0.0 0.0 0.0

-187814.86666418402 9.137092166668002e6 0.0
9.137092166668002e6 -5.615538212838799e6 0.0
0.0 0.0 0.0

-1.0815621089200862e6 1.3174610035339229e7 0.0
1.3174610035339229e7 4.613462344726983e6 0.0
0.0 0.0 0.0

-9.642498466170946e6 2.4504841506383516e7 0.0
2.4504841506383516e7 5.463560972646862e6 0.0
0.0 0.0 0.0

-1.2255737301402327e6 1.4652255939357795e7 0.0
1.4652255939357795e7 -2.5497392717770324e6 0.0
0.0 0.0 0.0

2.2803187024274077e7 1.2345032303238487e7 0.0
1.2345032303238487e7 -470802.91532367 0.0
0.0 0.0 0.0

-1.3679270309792822e6 9.681150180840952e6 0.0
9.681150180840952e6 -3.57599251361446e6 0.0
0.0 0.0 0.0

-3.6342360371129806e6 1.2007094628162052e7 0.0
1.2007094628162052e7 -364897.7791355165 0.0
0.0 0.0 0.0

749215.3275959357 1.02101329293924e7 0.0
1.02101329293924e7 -8.06013606886285e6 0.0
0.0 0.0 0.0

-5.111200736438382e6 1.7706869932663042e7 0.0
1.7706869932663042e7 1.0396392428036008e6 0.0
0.0 0.0 0.0

4.509248872944775e6 6.45328343762468e6 0.0
6.45328343762468e6 -1.559568869825802e7 0.0
0.0 0.0 0.0

534410.0548953079 6.868188582130565e6 0.0
6.868188582130565e6 -5.322463310470269e6 0.0
0.0 0.0 0.0

1.7405718367190654e6 8.651614674568066e6 0.0
8.651614674568066e6 -9.39869055035615e6 0.0
0.0 0.0 0.0

-6.4277278436374515e6 1.4091566754115857e7 0.0
1.4091566754115857e7 8.05776764531472e6 0.0
0.0 0.0 0.0

-3.276984543381457e6 1.2730760643486023e7 0.0
1.2730760643486023e7 -1.239160928253263e6 0.0
0.0 0.0 0.0

-981125.7543118097 1.0081553032638965e7 0.0
1.0081553032638965e7 1.5000964485020195e6 0.0
0.0 0.0 0.0

-705534.4417242443 9.231823378237955e6 0.0
9.231823378237955e6 -3.1528287454974176e6 0.0
0.0 0.0 0.0

-2.3411144368930813e6 1.2113694557350762e7 0.0
1.2113694557350762e7 -1.450868585570089e6 0.0
0.0 0.0 0.0

1.5830724194041924e6 1.1648340781096853e7 0.0
1.1648340781096853e7 -4.974731858741521e6 0.0
0.0 0.0 0.0

-8.713461928957928e6 2.353243783245444e7 0.0
2.353243783245444e7 5.75713099473491e6 0.0
0.0 0.0 0.0

-2.6216060022682324e6 1.2600363680899663e7 0.0
1.2600363680899663e7 -1.0678235338836424e6 0.0
0.0 0.0 0.0

-565054.0167060908 5.958085709682625e6 0.0
5.958085709682625e6 -1.6101302058872224e6 0.0
0.0 0.0 0.0

1.0869948028250517e7 1.01671756592569e7 0.0
1.01671756592569e7 225369.26220191736 0.0
0.0 0.0 0.0

3.9472386054932484e6 8.591162994688576e6 0.0
8.591162994688576e6 -2.0786713485636793e7 0.0
0.0 0.0 0.0

-4.8201004218669385e6 1.5138942149460621e7 0.0
1.5138942149460621e7 2.950764594996148e6 0.0
0.0 0.0 0.0

-1.431351404494348e6 6.583304319587868e6 0.0
6.583304319587868e6 -396281.5825866857 0.0
0.0 0.0 0.0

-954843.5770926155 9.465673527307544e6 0.0
9.465673527307544e6 -4.144789969892076e6 0.0
0.0 0.0 0.0

120249.60951334937 8.559245730305891e6 0.0
8.559245730305891e6 -5.939051188654774e6 0.0
0.0 0.0 0.0

-8.117746018389964e6 2.265383905322722e7 0.0
2.265383905322722e7 5.343433846397716e6 0.0
0.0 0.0 0.0

3.2645525075732265e6 8.394270974989751e6 0.0
8.394270974989751e6 -1.4309979461698478e7 0.0
0.0 0.0 0.0

-9.899763681793239e6 1.0613642342465138e6 0.0
1.0613642342465138e6 1.0973224054381067e7 0.0
0.0 0.0 0.0

-3.5008739236374507e6 1.44916432151685e7 0.0
1.44916432151685e7 -1.5032789986353582e6 0.0
0.0 0.0 0.0

-1.7717374312149307e6 6.391974092224439e6 0.0
6.391974092224439e6 419892.6610612625 0.0
0.0 0.0 0.0

-2.0131424127050876e6 1.2165469491821833e7 0.0
1.2165469491821833e7 -3.6138098888609707e6 0.0
0.0 0.0 0.0

-3.7687074081553337e6 1.272915691430075e7 0.0
1.272915691430075e7 -236319.10941728414 0.0
0.0 0.0 0.0

874206.7057504049 1.115692467519138e7 0.0
1.115692467519138e7 -1.0470791260591026e7 0.0
0.0 0.0 0.0

-7.809760357791098e6 2.1929675917326175e7 0.0
2.1929675917326175e7 5.412039994358817e6 0.0
0.0 0.0 0.0

-6.400543580134048e6 1.4546765174692733e7 0.0
1.4546765174692733e7 7.7598018894067295e6 0.0
0.0 0.0 0.0

-2.8890303229267956e6 1.3078632409469044e7 0.0
1.3078632409469044e7 -701323.3556795327 0.0
0.0 0.0 0.0

4.267294035255541e6 6.790009241260709e6 0.0
6.790009241260709e6 -1.5228783038461277e7 0.0
0.0 0.0 0.0

-1.4846372075766958e6 7.368492776763956e6 0.0
7.368492776763956e6 -820517.2095361153 0.0
0.0 0.0 0.0

-7.288330770636434e6 2.1327454644594412e7 0.0
2.1327454644594412e7 5.48962759949832e6 0.0
0.0 0.0 0.0

4.785094644473799e6 7.974208179357201e6 0.0
7.974208179357201e6 -2.1129507717067964e7 0.0
0.0 0.0 0.0

-6.6913067391175255e6 2.0797813215444785e7 0.0
2.0797813215444785e7 5.302903967785569e6 0.0
0.0 0.0 0.0

-6.404543248454242e6 2.028698032020779e7 0.0
2.028698032020779e7 5.011808636562338e6 0.0
0.0 0.0 0.0

-5.321671038075656e6 1.6411474196953502e7 0.0
1.6411474196953502e7 2.5777103782365043e6 0.0
0.0 0.0 0.0

-5.450256670874733e6 1.6769224246272404e7 0.0
1.6769224246272404e7 2.90719805096558e6 0.0
0.0 0.0 0.0

-5.574530317759866e6 1.7139434396823615e7 0.0
1.7139434396823615e7 3.197979654919061e6 0.0
0.0 0.0 0.0

-5.670750935688915e6 1.7482277860638298e7 0.0
1.7482277860638298e7 3.4499007063328605e6 0.0
0.0 0.0 0.0

-5.818086088573342e6 1.7791781806818176e7 0.0
1.7791781806818176e7 3.742258896267303e6 0.0
0.0 0.0 0.0

-5.944612708513761e6 1.814454344017112e7 0.0
1.814454344017112e7 3.916113978698029e6 0.0
0.0 0.0 0.0

-4.189041436065941e6 8.905440428845495e6 0.0
8.905440428845495e6 1.6547824954136938e6 0.0
0.0 0.0 0.0

-6.143711609099202e6 1.8477076853564426e7 0.0
1.8477076853564426e7 4.237431180816261e6 0.0
0.0 0.0 0.0

-6.444549915352503e6 1.8859407476992328e7 0.0
1.8859407476992328e7 4.402937643296518e6 0.0
0.0 0.0 0.0

-7.936619079193059e6 9.429269817729425e6 0.0
9.429269817729425e6 1.05670847730519e7 0.0
0.0 0.0 0.0

-6.281291160903716e6 1.9865924002080563e7 0.0
1.9865924002080563e7 4.9921729040371105e6 0.0
0.0 0.0 0.0

-6.706747137029327e6 1.9209873583702836e7 0.0
1.9209873583702836e7 4.4977887452317085e6 0.0
0.0 0.0 0.0

-6.8641964106998285e6 1.964421244917946e7 0.0
1.964421244917946e7 4.644461509537694e6 0.0
0.0 0.0 0.0

-6.088372805304532e6 1.9463617734174322e7 0.0
1.9463617734174322e7 4.89482598171103e6 0.0
0.0 0.0 0.0

-1.4287069909414796e6 1.0594519432246268e7 0.0
1.0594519432246268e7 -2.589793424625865e6 0.0
0.0 0.0 0.0

-7.15868256247418e6 2.0080839218709726e7 0.0
2.0080839218709726e7 4.688934211869901e6 0.0
0.0 0.0 0.0

-6.086073613441726e6 1.906143458430114e7 0.0
1.906143458430114e7 4.692668210179719e6 0.0
0.0 0.0 0.0

-5.777560150997068e6 1.8720330197585803e7 0.0
1.8720330197585803e7 4.547604425982928e6 0.0
0.0 0.0 0.0

-5.60541476781127e6 1.8420380954178154e7 0.0
1.8420380954178154e7 4.325613861313075e6 0.0
0.0 0.0 0.0

-5.515272731499892e6 1.8022010794318646e7 0.0
1.8022010794318646e7 4.1017049944523606e6 0.0
0.0 0.0 0.0

-5.356774675449101e6 1.7719438241082285e7 0.0
1.7719438241082285e7 3.83511700405688e6 0.0
0.0 0.0 0.0

-5.263119133732641e6 1.7377360355876926e7 0.0
1.7377360355876926e7 3.597232259218312e6 0.0
0.0 0.0 0.0

-5.119608231390523e6 1.7036022323744603e7 0.0
1.7036022323744603e7 3.3372573218065877e6 0.0
0.0 0.0 0.0

-4.953818507168301e6 1.6683931096775377e7 0.0
1.6683931096775377e7 3.0213314667437873e6 0.0
0.0 0.0 0.0

-3.9215815293363906e6 1.4291383155269941e7 0.0
1.4291383155269941e7 -356415.61265806237 0.0
0.0 0.0 0.0

-1.0545200085677352e7 1.0753800361651383e7 0.0
1.0753800361651383e7 1.470751328905528e7 0.0
0.0 0.0 0.0

-7.660376858108332e6 2.0469282109005347e7 0.0
2.0469282109005347e7 4.788736535096215e6 0.0
0.0 0.0 0.0

2.9429985410758294e6 7.20046942389186e6 0.0
7.20046942389186e6 -1.1222193271153329e7 0.0
0.0 0.0 0.0

-4.520802595346505e6 1.4011775226693941e7 0.0
1.4011775226693941e7 2.5309148768084887e6 0.0
0.0 0.0 0.0

-8.404156755813567e6 2.1031901392447677e7 0.0
2.1031901392447677e7 5.02698832839199e6 0.0
0.0 0.0 0.0

-6.638208545825478e6 6.111274166876852e6 0.0
6.111274166876852e6 8.85184169330512e6 0.0
0.0 0.0 0.0

-9.268110996984668e6 2.168258157755911e7 0.0
2.168258157755911e7 5.041377222081803e6 0.0
0.0 0.0 0.0

-8.410766015316177e6 4.16717314050397e6 0.0
4.16717314050397e6 1.1971357310072498e7 0.0
0.0 0.0 0.0

-1.012814609132531e7 2.2344836418308273e7 0.0
2.2344836418308273e7 4.883354926380819e6 0.0
0.0 0.0 0.0

-600172.4462197558 1.2640237093123572e7 0.0
1.2640237093123572e7 -8.202770201011317e6 0.0
0.0 0.0 0.0

2.2443729598883856e6 8.440665261498984e6 0.0
8.440665261498984e6 -9.066108703083161e6 0.0
0.0 0.0 0.0

2.0467908760451926e6 1.0440100119513806e7 0.0
1.0440100119513806e7 -1.603000912650883e7 0.0
0.0 0.0 0.0

-3.0071405096230814e6 1.2862298625060147e7 0.0
1.2862298625060147e7 -384046.77025635156 0.0
0.0 0.0 0.0

-1.098617243919205e6 1.0733208306314321e7 0.0
1.0733208306314321e7 -4.638818608529314e6 0.0
0.0 0.0 0.0

-3.2100214513114057e6 1.3755830702545457e7 0.0
1.3755830702545457e7 -1.8206930211256198e6 0.0
0.0 0.0 0.0

-553552.3456174596 1.2789961355425784e7 0.0
1.2789961355425784e7 -8.42882963795174e6 0.0
0.0 0.0 0.0

4.854197849913623e6 5.117520866550073e6 0.0
5.117520866550073e6 -1.3014667365157383e7 0.0
0.0 0.0 0.0

-2.2434290842328947e6 8.595855402449457e6 0.0
8.595855402449457e6 25182.930444372236 0.0
0.0 0.0 0.0

-1.1134985923055138e7 2.3012451434252497e7 0.0
2.3012451434252497e7 4.943486612381516e6 0.0
0.0 0.0 0.0

1.7595376809900575e6 8.779144258299375e6 0.0
8.779144258299375e6 -7.817030664872922e6 0.0
0.0 0.0 0.0

-1.081877949926671e7 4.0086074928202606e6 0.0
4.0086074928202606e6 1.45274280670107e7 0.0
0.0 0.0 0.0

-2.0398883663547605e6 1.1620315398950526e7 0.0
1.1620315398950526e7 -1.8413484727264687e6 0.0
0.0 0.0 0.0

-5.485301883321997e6 1.793711060015249e7 0.0
1.793711060015249e7 3.0567569329945087e6 0.0
0.0 0.0 0.0

3.281791805718365e6 6.943404132137316e6 0.0
6.943404132137316e6 -1.1755707656747127e7 0.0
0.0 0.0 0.0

-1.210192158124541e7 1.98370249583456e7 0.0
1.98370249583456e7 9.160633302134573e6 0.0
0.0 0.0 0.0

-5.316978297559036e6 9.746929792546155e6 0.0
9.746929792546155e6 3.1444031076812274e6 0.0
0.0 0.0 0.0

-1.0381302214313362e7 1.5461499284661958e7 0.0
1.5461499284661958e7 5.417680247011098e6 0.0
0.0 0.0 0.0

-523298.6466432747 1.2782660724586999e7 0.0
1.2782660724586999e7 3.46405851635806e6 0.0
0.0 0.0 0.0

-1.2875732720653795e7 2.417261184239598e7 0.0
2.417261184239598e7 4.943710633337839e6 0.0
0.0 0.0 0.0

2.837130216917715e6 9.008827372985747e6 0.0
9.008827372985747e6 -1.3977620098718211e7 0.0
0.0 0.0 0.0

-3.972153562498616e6 9.66996187735422e6 0.0
9.66996187735422e6 1.0020847630676012e6 0.0
0.0 0.0 0.0

129937.85307662375 8.878887033136785e6 0.0
8.878887033136785e6 433126.37068707135 0.0
0.0 0.0 0.0

2.403825263283584e6 7.517322587144183e6 0.0
7.517322587144183e6 -9.923607385726176e6 0.0
0.0 0.0 0.0

145778.63813704427 1.1117295956065869e7 0.0
1.1117295956065869e7 303397.4728685693 0.0
0.0 0.0 0.0

2.6479571342300936e6 7.5007409169167895e6 0.0
7.5007409169167895e6 -1.0691337878283165e7 0.0
0.0 0.0 0.0

-461585.5280720037 1.140901224450604e7 0.0
1.140901224450604e7 -2.460961330697533e6 0.0
0.0 0.0 0.0

-3.405861133941931e6 1.3096131516523134e7 0.0
1.3096131516523134e7 323985.77187640546 0.0
0.0 0.0 0.0

-3.549263444823966e6 1.3197596499774301e7 0.0
1.3197596499774301e7 -855646.1783598686 0.0
0.0 0.0 0.0

1.7997485126886377e6 7.481834830221866e6 0.0
7.481834830221866e6 -8.432557692118779e6 0.0
0.0 0.0 0.0

7.0169740305503905e6 1.452932192907765e7 0.0
1.452932192907765e7 5.765940712855086e6 0.0
0.0 0.0 0.0

1.3774687003979264e6 9.336429643991604e6 0.0
9.336429643991604e6 -7.531678633458847e6 0.0
0.0 0.0 0.0

-833984.4694455239 1.0846899908528022e7 0.0
1.0846899908528022e7 -3.787830378907851e6 0.0
0.0 0.0 0.0

-4.261986351554186e6 1.4392681740022898e7 0.0
1.4392681740022898e7 3.2752432104878435e6 0.0
0.0 0.0 0.0

395266.9220876063 8.683409218988204e6 0.0
8.683409218988204e6 -5.107690198914483e6 0.0
0.0 0.0 0.0

-6.401325582253573e6 1.4907813716368224e7 0.0
1.4907813716368224e7 7.410478601230663e6 0.0
0.0 0.0 0.0

-567422.2625153365 1.331798015209704e7 0.0
1.331798015209704e7 5.849321029898738e6 0.0
0.0 0.0 0.0

-5.380685891187834e6 7.689027569992456e6 0.0
7.689027569992456e6 5.848591750152895e6 0.0
0.0 0.0 0.0

-1.5172264239152439e7 2.5287938237044852e7 0.0
2.5287938237044852e7 4.501759096468226e6 0.0
0.0 0.0 0.0

-6.719494347587584e6 1.3290929090188667e7 0.0
1.3290929090188667e7 1.7109126476532247e7 0.0
0.0 0.0 0.0

-2.5989641965906005e6 1.0390135838770332e7 0.0
1.0390135838770332e7 -1.571552150225291e6 0.0
0.0 0.0 0.0

4.259055380007674e6 1.1782740704726398e7 0.0
1.1782740704726398e7 -1.740199442184856e6 0.0
0.0 0.0 0.0

3.850624630079084e6 6.799308057434837e6 0.0
6.799308057434837e6 -1.2991202268523036e7 0.0
0.0 0.0 0.0

3.017165979920713e6 9.24804789380507e6 0.0
9.24804789380507e6 -1.5625205739962682e7 0.0
0.0 0.0 0.0

-6.817709556954254e6 1.169338387532928e7 0.0
1.169338387532928e7 5.997713600431186e6 0.0
0.0 0.0 0.0

-7.806750460372023e6 1.7168611961157124e7 0.0
1.7168611961157124e7 3.7526605199105428e6 0.0
0.0 0.0 0.0

-3.016844200113229e6 1.1534444181459384e7 0.0
1.1534444181459384e7 163508.79260799196 0.0
0.0 0.0 0.0

-596532.0341283113 1.1114361151037063e7 0.0
1.1114361151037063e7 -6.099095054820056e6 0.0
0.0 0.0 0.0

-1.2813546515121048e7 1.8212767804795858e7 0.0
1.8212767804795858e7 1.029847049272935e7 0.0
0.0 0.0 0.0

1.6826458865503138e6 8.920860533776684e6 0.0
8.920860533776684e6 -9.666408279092118e6 0.0
0.0 0.0 0.0

-3.348934411624443e6 1.206722078095357e7 0.0
1.206722078095357e7 575712.3503084313 0.0
0.0 0.0 0.0

-1.5162118103302768e6 6.975256351210568e6 0.0
6.975256351210568e6 -572838.0753001126 0.0
0.0 0.0 0.0

-5.427758677569551e6 1.1667561232275724e7 0.0
1.1667561232275724e7 4.886494205092724e6 0.0
0.0 0.0 0.0

-2.0539027500321653e7 3.368663510838207e7 0.0
3.368663510838207e7 -70374.26879392099 0.0
0.0 0.0 0.0

-5.290266142067976e6 8.459712155885335e6 0.0
8.459712155885335e6 5.358591819410416e6 0.0
0.0 0.0 0.0

-867077.0394311491 5.935630110689635e6 0.0
5.935630110689635e6 -2.614368561322438e6 0.0
0.0 0.0 0.0

-3.53170947343844e6 1.3808290394697573e7 0.0
1.3808290394697573e7 400195.4188231295 0.0
0.0 0.0 0.0

-5.48627233434759e6 1.3633371401675047e7 0.0
1.3633371401675047e7 3.123471688676841e6 0.0
0.0 0.0 0.0

-1.6518224245466834e6 1.2669437905414796e7 0.0
1.2669437905414796e7 -3.3836168100278317e6 0.0
0.0 0.0 0.0

-3.9311012378868074e6 1.3459298227277929e7 0.0
1.3459298227277929e7 -137959.44227029406 0.0
0.0 0.0 0.0

-1.9174545696173087e6 4.682502644911514e6 0.0
4.682502644911514e6 489798.5281721562 0.0
0.0 0.0 0.0

1.2669764838556873e6 1.0485238493543021e7 0.0
1.0485238493543021e7 -4.673342269181659e6 0.0
0.0 0.0 0.0

-5.7871112071686275e6 1.418427042150265e7 0.0
1.418427042150265e7 3.534523247927107e6 0.0
0.0 0.0 0.0

997425.0319485101 8.157200444649349e6 0.0
8.157200444649349e6 -7.379077310784678e6 0.0
0.0 0.0 0.0

1.44286743369933e6 1.075091540943612e7 0.0
1.075091540943612e7 -4.227581714946412e6 0.0
0.0 0.0 0.0

-1.0404713281103237e7 1.4568900030974153e7 0.0
1.4568900030974153e7 3.519791050299817e6 0.0
0.0 0.0 0.0

-5.050279410913235e6 9.144263058488779e6 0.0
9.144263058488779e6 4.856150231551966e6 0.0
0.0 0.0 0.0

-237516.7914568591 1.2379845261962982e7 0.0
1.2379845261962982e7 -8.901657965748925e6 0.0
0.0 0.0 0.0

-6.280021034262244e6 1.4663625900801701e7 0.0
1.4663625900801701e7 4.975573126837682e6 0.0
0.0 0.0 0.0

3.5158406582390005e6 4.329849157253626e6 0.0
4.329849157253626e6 -9.42196145011869e6 0.0
0.0 0.0 0.0

52290.647779638064 2.756843349092343e6 0.0
2.756843349092343e6 -2.384427736328463e6 0.0
0.0 0.0 0.0

622719.7408313158 3.048450237060194e6 0.0
3.048450237060194e6 -3.008266456008747e6 0.0
0.0 0.0 0.0

-3.617675161527477e6 -3.505104279729217e6 0.0
-3.505104279729217e6 5.128259109229876e6 0.0
0.0 0.0 0.0

759249.2969614863 3.228725737359716e6 0.0
3.228725737359716e6 -3.4972441362252096e6 0.0
0.0 0.0 0.0

-5.019769573656283e6 -1.4115476621631891e6 0.0
-1.4115476621631891e6 5.223388441438907e6 0.0
0.0 0.0 0.0

3.157441753394461e6 4.453078642680391e6 0.0
4.453078642680391e6 -8.142389652506134e6 0.0
0.0 0.0 0.0

-615538.3480723539 2.0274074876600658e6 0.0
2.0274074876600658e6 -325176.9242785368 0.0
0.0 0.0 0.0

-1.5286504271949064e6 1.0587686876743052e6 0.0
1.0587686876743052e6 1.7968862816082316e6 0.0
0.0 0.0 0.0

1.1791027396536665e6 3.532683934259121e6 0.0
3.532683934259121e6 -4.412818259018462e6 0.0
0.0 0.0 0.0

-4.377014679534265e6 -469840.4412411106 0.0
-469840.4412411106 3.956342139738106e6 0.0
0.0 0.0 0.0

2.4724473589983135e6 4.50882959329052e6 0.0
4.50882959329052e6 -6.97338726830821e6 0.0
0.0 0.0 0.0

1.5850895633187336e6 4.143149041026571e6 0.0
4.143149041026571e6 -5.569319641536899e6 0.0
0.0 0.0 0.0

-51462.28795531788 2.466534446789555e6 0.0
2.466534446789555e6 -1.9257520251478888e6 0.0
0.0 0.0 0.0

4.646129723698251e6 5.329368639726714e6 0.0
5.329368639726714e6 -1.2210640030126523e7 0.0
0.0 0.0 0.0

4.832123968930961e6 5.145160483369351e6 0.0
5.145160483369351e6 -1.2816581437821798e7 0.0
0.0 0.0 0.0

4.577587981353977e6 5.454346964185303e6 0.0
5.454346964185303e6 -1.1892435404675182e7 0.0
0.0 0.0 0.0

4.424396059561589e6 5.030700518189281e6 0.0
5.030700518189281e6 -1.143903078168603e7 0.0
0.0 0.0 0.0

-618621.3588654795 2.258319376481899e6 0.0
2.258319376481899e6 -924156.4506363086 0.0
0.0 0.0 0.0

-4.986638397033856e6 -1.0141127567470178e6 0.0
-1.0141127567470178e6 4.492669638288291e6 0.0
0.0 0.0 0.0

4.748552804278591e6 5.262235848800627e6 0.0
5.262235848800627e6 -1.252003737584764e7 0.0
0.0 0.0 0.0

3.8423336284781327e6 4.560059425593526e6 0.0
4.560059425593526e6 -1.0352791469737208e7 0.0
0.0 0.0 0.0

4.05741454245608e6 4.72967610454447e6 0.0
4.72967610454447e6 -1.0873914415773312e7 0.0
0.0 0.0 0.0

3.870111644556444e6 4.502864056436622e6 0.0
4.502864056436622e6 -1.0051798147436107e7 0.0
0.0 0.0 0.0

331693.0891799838 1.1325859499748146e7 0.0
1.1325859499748146e7 -7.4580595090439925e6 0.0
0.0 0.0 0.0

-6.219769147077985e6 6.934754992043083e6 0.0
6.934754992043083e6 8.003095642140115e6 0.0
0.0 0.0 0.0

-1.14426364940099e7 2.0895521052778189e6 0.0
2.0895521052778189e6 1.3674825607780878e7 0.0
0.0 0.0 0.0

-6.332772038235896e6 1.5328433649092512e7 0.0
1.5328433649092512e7 7.161342776346697e6 0.0
0.0 0.0 0.0

997151.9890974527 1.1455694674592748e7 0.0
1.1455694674592748e7 -1.251516175275388e7 0.0
0.0 0.0 0.0

-4.892315972117122e6 1.1946913115389649e7 0.0
1.1946913115389649e7 1.8678643132882167e6 0.0
0.0 0.0 0.0

-1.8252512567689203e7 2.6912132301017825e7 0.0
2.6912132301017825e7 4.285806975591326e6 0.0
0.0 0.0 0.0

-2.9590249687795998e6 1.0940307017446335e7 0.0
1.0940307017446335e7 -1.1632405473623401e6 0.0
0.0 0.0 0.0

-2.1913976629872387e6 1.2586346936047226e7 0.0
1.2586346936047226e7 -2.847461357480283e6 0.0
0.0 0.0 0.0

1.1230191675411793e6 1.3052750554734558e7 0.0
1.3052750554734558e7 4.388059092099997e6 0.0
0.0 0.0 0.0

-2.860313641505481e6 1.3451535831057003e7 0.0
1.3451535831057003e7 2.8995446718626954e6 0.0
0.0 0.0 0.0

-5.695864206759216e6 1.233838561314931e7 0.0
1.233838561314931e7 5.294747316420219e6 0.0
0.0 0.0 0.0

5982.169844453223 1.3427273591459967e7 0.0
1.3427273591459967e7 -7.722463427501517e6 0.0
0.0 0.0 0.0

-5.612516891401306e6 1.1238196114003194e7 0.0
1.1238196114003194e7 5.398263311394494e6 0.0
0.0 0.0 0.0

-4.253337753212836e6 1.3737634930525267e7 0.0
1.3737634930525267e7 514282.40809452813 0.0
0.0 0.0 0.0

-3.154350259842864e6 1.2945048487680467e7 0.0
1.2945048487680467e7 -1.5536473154457563e6 0.0
0.0 0.0 0.0

-4.849707374330431e6 9.021083834747719e6 0.0
9.021083834747719e6 2.6081382173568783e6 0.0
0.0 0.0 0.0

-706223.1423291431 1.048098850150442e7 0.0
1.048098850150442e7 -5.257917265016931e6 0.0
0.0 0.0 0.0

-3.1010410548681132e6 1.1199124136933636e7 0.0
1.1199124136933636e7 511749.0007550004 0.0
0.0 0.0 0.0

1.4087108116938919e6 7.82019789947298e6 0.0
7.82019789947298e6 -7.906013154732036e6 0.0
0.0 0.0 0.0

196102.34919905913 2.631615223570273e6 0.0
2.631615223570273e6 -1.1758616176313222e6 0.0
0.0 0.0 0.0

452276.8488473535 3.009014143664069e6 0.0
3.009014143664069e6 -1.8004050969420113e6 0.0
0.0 0.0 0.0

-4.249837808410418e6 -528709.7533358713 0.0
-528709.7533358713 6.213559488541415e6 0.0
0.0 0.0 0.0

-190011.1856018916 2.5174594341968405e6 0.0
2.5174594341968405e6 -478253.092908442 0.0
0.0 0.0 0.0

-450250.54314927687 2.1269607606230327e6 0.0
2.1269607606230327e6 -159203.22270014862 0.0
0.0 0.0 0.0

4.62125394417692e6 5.3145393379003145e6 0.0
5.3145393379003145e6 -1.2327911397633981e7 0.0
0.0 0.0 0.0

4.678011211624238e6 5.212946393604008e6 0.0
5.212946393604008e6 -1.2557796357967217e7 0.0
0.0 0.0 0.0

-4.847179813420238e6 -1.1654100964946437e6 0.0
-1.1654100964946437e6 7.326214186919e6 0.0
0.0 0.0 0.0

4.39535149150575e6 4.956643438572459e6 0.0
4.956643438572459e6 -1.0535780195505718e7 0.0
0.0 0.0 0.0

3.9022802268197853e6 4.540225750599497e6 0.0
4.540225750599497e6 -9.279317653979234e6 0.0
0.0 0.0 0.0

4.114228182682764e6 4.7176401224612165e6 0.0
4.7176401224612165e6 -1.0063933804617787e7 0.0
0.0 0.0 0.0

3.918022320366309e6 4.563834486574288e6 0.0
4.563834486574288e6 -9.685734814373331e6 0.0
0.0 0.0 0.0

-3.151210013999424e6 1.0204605548195522e7 0.0
1.0204605548195522e7 -534437.1803970984 0.0
0.0 0.0 0.0

-1.0183326435874768e7 1.1079995570085749e7 0.0
1.1079995570085749e7 1.3827837309709981e7 0.0
0.0 0.0 0.0

-6.296038965843431e6 1.089421066999074e7 0.0
1.089421066999074e7 6.965644191926797e6 0.0
0.0 0.0 0.0

3.938407421540392e6 6.324905130268806e6 0.0
6.324905130268806e6 -1.1304038172567941e7 0.0
0.0 0.0 0.0

-3.9276790641158503e6 1.5178568563607125e7 0.0
1.5178568563607125e7 -669391.4560893725 0.0
0.0 0.0 0.0

-4.382317207098061e6 1.364323514645961e7 0.0
1.364323514645961e7 8.207550500533714e6 0.0
0.0 0.0 0.0

-9.61430837396132e6 7.243647024513687e6 0.0
7.243647024513687e6 1.1110769711898059e7 0.0
0.0 0.0 0.0

2.1301879040299198e6 7.801383345285324e6 0.0
7.801383345285324e6 -9.408371227926733e6 0.0
0.0 0.0 0.0

1.6499157276759674e6 9.16849255942871e6 0.0
9.16849255942871e6 -9.893827874920491e6 0.0
0.0 0.0 0.0

-2.887135021847135e6 1.2475631736481007e7 0.0
1.2475631736481007e7 -1.922781484775656e6 0.0
0.0 0.0 0.0

-5.717377489085384e6 1.3490062539059084e7 0.0
1.3490062539059084e7 9.641247634099402e6 0.0
0.0 0.0 0.0

-1.8712441105033709e6 7.988205790029153e6 0.0
7.988205790029153e6 -403298.32786416117 0.0
0.0 0.0 0.0

-1.9785272284476822e6 1.2958553510012142e7 0.0
1.2958553510012142e7 -2.7006314386431854e6 0.0
0.0 0.0 0.0

-4.332018742269628e6 1.4988123189757507e7 0.0
1.4988123189757507e7 1.931833697741971e6 0.0
0.0 0.0 0.0

959727.4197250931 9.840282885523975e6 0.0
9.840282885523975e6 -7.349325727259931e6 0.0
0.0 0.0 0.0

-3.277099156729821e6 1.3340709179943308e7 0.0
1.3340709179943308e7 14469.858415561961 0.0
0.0 0.0 0.0

480772.1743397587 2.363556054657081e6 0.0
2.363556054657081e6 2.8704782208674904e6 0.0
0.0 0.0 0.0

-5.658967617304916e6 1.336546257083736e7 0.0
1.336546257083736e7 9.337812133501703e6 0.0
0.0 0.0 0.0

3.774712782162918e6 8.628031104045095e6 0.0
8.628031104045095e6 -1.742204791139219e7 0.0
0.0 0.0 0.0

2.9829562643280756e6 9.099554641759997e6 0.0
9.099554641759997e6 -1.4842639298314039e7 0.0
0.0 0.0 0.0

-1.6590952518181033e6 1.2507384660618205e7 0.0
1.2507384660618205e7 -3.0658771068951655e6 0.0
0.0 0.0 0.0

-6.630114611183453e6 1.5022599238945475e7 0.0
1.5022599238945475e7 3.9100414652805813e6 0.0
0.0 0.0 0.0

2.408732057453096e6 5.961570030888651e6 0.0
5.961570030888651e6 -7.365215547560097e6 0.0
0.0 0.0 0.0

-2.6762565270905504e6 1.0993010032444833e7 0.0
1.0993010032444833e7 -232185.08194772876 0.0
0.0 0.0 0.0

-3.676590271818162e6 1.298812029589988e7 0.0
1.298812029589988e7 -527762.0174466809 0.0
0.0 0.0 0.0

-3.146476091568751e6 1.3550644338930562e7 0.0
1.3550644338930562e7 -310774.11556238704 0.0
0.0 0.0 0.0

1.2063130701391716e6 1.140140314817791e7 0.0
1.140140314817791e7 -1.3252392147076823e7 0.0
0.0 0.0 0.0

2.274998095985667e6 9.209208331662292e6 0.0
9.209208331662292e6 -1.2533937337137148e7 0.0
0.0 0.0 0.0

-2.6212662923795003e6 8.156390334077508e6 0.0
8.156390334077508e6 -620375.3681049759 0.0
0.0 0.0 0.0

-6.426927000116764e6 1.145070173275269e7 0.0
1.145070173275269e7 5.095637083317367e6 0.0
0.0 0.0 0.0

1.7917173682027562e6 1.0789555788230006e7 0.0
1.0789555788230006e7 -1.3545851960204313e7 0.0
0.0 0.0 0.0

-2.889745181303168e6 1.4105970437012233e7 0.0
1.4105970437012233e7 -1.2780854499676137e6 0.0
0.0 0.0 0.0

2.00715692630867e6 4.271859632753471e6 0.0
4.271859632753471e6 -6.309416132285964e6 0.0
0.0 0.0 0.0

-4.322018646500318e6 1.9449027522390258e7 0.0
1.9449027522390258e7 626941.3318019733 0.0
0.0 0.0 0.0

2.0025100908518066e6 6.333262729623773e6 0.0
6.333262729623773e6 -6.855647539398219e6 0.0
0.0 0.0 0.0

-1.0839404073970427e6 1.0065066735587949e7 0.0
1.0065066735587949e7 -2.977781804212752e6 0.0
0.0 0.0 0.0

-7.242201264811773e6 1.354613916000453e7 0.0
1.354613916000453e7 7.6101891816164665e6 0.0
0.0 0.0 0.0

-1.9926192782038006e6 9.40794714230563e6 0.0
9.40794714230563e6 -678931.3888592741 0.0
0.0 0.0 0.0

-2.536723196955316e6 1.0707966607408654e7 0.0
1.0707966607408654e7 -1.8532062109194826e6 0.0
0.0 0.0 0.0

-4.0676034541354654e6 1.322268832894062e7 0.0
1.322268832894062e7 183811.77744854847 0.0
0.0 0.0 0.0

-2.206973713297057e6 7.5427002002733685e6 0.0
7.5427002002733685e6 -1.0570521756427765e6 0.0
0.0 0.0 0.0

-1.334374485065953e6 4.231279236312364e6 0.0
4.231279236312364e6 454210.00520686485 0.0
0.0 0.0 0.0

-5.108304833898593e6 1.0977891049509773e7 0.0
1.0977891049509773e7 4.426719767073011e6 0.0
0.0 0.0 0.0

-4.5456200762474425e6 1.2053466002320783e7 0.0
1.2053466002320783e7 3.012392747938806e6 0.0
0.0 0.0 0.0

737524.0051971928 6.208829907433975e6 0.0
6.208829907433975e6 -5.429140069355892e6 0.0
0.0 0.0 0.0

-4.947904672951795e6 9.80676155434178e6 0.0
9.80676155434178e6 4.359605656451298e6 0.0
0.0 0.0 0.0

-3.79959845255855e6 1.3668797178516507e7 0.0
1.3668797178516507e7 -455735.1283574322 0.0
0.0 0.0 0.0

3.7472993483730527e6 7.801582647530638e6 0.0
7.801582647530638e6 -1.2906060026521754e7 0.0
0.0 0.0 0.0

-4.954169548163926e6 1.5118616274185425e7 0.0
1.5118616274185425e7 3.3592808353113225e6 0.0
0.0 0.0 0.0

-2.6037671335575595e6 1.1990412014463129e7 0.0
1.1990412014463129e7 -2.2952195697640614e6 0.0
0.0 0.0 0.0

1.8344630761090033e6 4.301369370024174e6 0.0
4.301369370024174e6 -5.166202175132573e6 0.0
0.0 0.0 0.0

-6.410244990432018e6 1.6316014684890583e7 0.0
1.6316014684890583e7 6.384402161633801e6 0.0
0.0 0.0 0.0

-6.706775195445225e6 5.365146086283391e6 0.0
5.365146086283391e6 6.503732150810722e6 0.0
0.0 0.0 0.0

-2.800594963803231e6 1.1511996706058137e7 0.0
1.1511996706058137e7 -1.7380253426572816e6 0.0
0.0 0.0 0.0

-3.6727075979782213e6 1.4433095662399469e7 0.0
1.4433095662399469e7 431459.7874028424 0.0
0.0 0.0 0.0

-4.763843188755589e6 1.466663682738021e7 0.0
1.466663682738021e7 1.368526302133174e6 0.0
0.0 0.0 0.0

-3.417631191390285e6 1.3407188027363311e7 0.0
1.3407188027363311e7 -1.1766925805978556e6 0.0
0.0 0.0 0.0

-3.799726148546382e6 1.333155453775343e7 0.0
1.333155453775343e7 1.0474299023671851e6 0.0
0.0 0.0 0.0

2.617105216146971e6 4.514342236498822e6 0.0
4.514342236498822e6 -7.214426684198588e6 0.0
0.0 0.0 0.0

-4.632821606535675e6 1.6237410787617872e7 0.0
1.6237410787617872e7 357975.6369503867 0.0
0.0 0.0 0.0

-3.782946733499981e6 1.44722442455671e7 0.0
1.44722442455671e7 -2.1743132361066636e7 0.0
0.0 0.0 0.0

3.9454630943190455e6 1.3853214249697946e7 0.0
1.3853214249697946e7 2.8351379814137563e7 0.0
0.0 0.0 0.0

777638.3209980633 1.06539915758509e7 0.0
1.06539915758509e7 -9.484450357866932e6 0.0
0.0 0.0 0.0

-2.3707440412219856e6 1.3204205823346514e7 0.0
1.3204205823346514e7 -2.0327651550378082e6 0.0
0.0 0.0 0.0

-346024.99749408243 1.089109447123723e7 0.0
1.089109447123723e7 -1.0698197827520957e7 0.0
0.0 0.0 0.0

-2.3017648973737448e6 1.1501517922430336e7 0.0
1.1501517922430336e7 -2.682800139129992e6 0.0
0.0 0.0 0.0

-862350.1778596179 1.3627195773561554e7 0.0
1.3627195773561554e7 -6.600224786255106e6 0.0
0.0 0.0 0.0

-1.5113659782586154e6 1.0990052822776785e7 0.0
1.0990052822776785e7 -3.9873957366872635e6 0.0
0.0 0.0 0.0

-4.13888199615716e6 1.2997310537830494e7 0.0
1.2997310537830494e7 484928.8030546715 0.0
0.0 0.0 0.0

4.528056059970302e6 8.1880611368844025e6 0.0
8.1880611368844025e6 -2.017922097039613e7 0.0
0.0 0.0 0.0

-5.382193740226003e6 1.4469520843631105e7 0.0
1.4469520843631105e7 2.374069425752434e6 0.0
0.0 0.0 0.0

-5.922023396560367e6 1.3130139153351987e7 0.0
1.3130139153351987e7 3.9937676513849595e6 0.0
0.0 0.0 0.0

-1.2517444907459659e6 1.110145405883194e7 0.0
1.110145405883194e7 -3.1497362233090443e6 0.0
0.0 0.0 0.0

1.9683061946103545e6 9.526714582933042e6 0.0
9.526714582933042e6 -1.1880043314662373e7 0.0
0.0 0.0 0.0

4.78645581055405e6 1.368845295158751e7 0.0
1.368845295158751e7 1.5954850417354794e7 0.0
0.0 0.0 0.0

-2.197738896327965e6 1.3557978671817375e7 0.0
1.3557978671817375e7 -3.5073074611339974e6 0.0
0.0 0.0 0.0

-2.3936368377057474e7 2.9355837777482208e7 0.0
2.9355837777482208e7 4.2598637982626e6 0.0
0.0 0.0 0.0

1.0612989076574864e6 1.035741490632214e7 0.0
1.035741490632214e7 -1.0067880861171547e7 0.0
0.0 0.0 0.0

-2.776716031362281e6 1.32887326266028e7 0.0
1.32887326266028e7 -1.0215772493492368e6 0.0
0.0 0.0 0.0

2.5128643551560133e6 4.543441935313679e6 0.0
4.543441935313679e6 -6.682986757518085e6 0.0
0.0 0.0 0.0

3.4595562670223517e6 7.297353434736331e6 0.0
7.297353434736331e6 -1.2730190213626664e7 0.0
0.0 0.0 0.0

-4.087604785792415e6 1.4546097775948158e7 0.0
1.4546097775948158e7 1.5405214426636347e6 0.0
0.0 0.0 0.0

-1.3065380109959906e6 1.2120321800081654e7 0.0
1.2120321800081654e7 -1.5718869654957935e7 0.0
0.0 0.0 0.0

-1.646873336506317e6 1.1366270212674184e7 0.0
1.1366270212674184e7 -2.4992504254952865e6 0.0
0.0 0.0 0.0

946877.0125523857 8.907258907292312e6 0.0
8.907258907292312e6 -6.192838838759993e6 0.0
0.0 0.0 0.0

-2.962680224333422e6 9.843916291305682e6 0.0
9.843916291305682e6 879735.4367405428 0.0
0.0 0.0 0.0

1.4025678298638402e6 1.0082775999863392e7 0.0
1.0082775999863392e7 -1.0700812076942068e7 0.0
0.0 0.0 0.0

-3.4498607295250865e6 9.398885961371813e6 0.0
9.398885961371813e6 210001.05314261746 0.0
0.0 0.0 0.0

122524.52234051842 1.2114291470296184e7 0.0
1.2114291470296184e7 -9.569167709839819e6 0.0
0.0 0.0 0.0

-1.3906756005046168e7 1.798391848224545e7 0.0
1.798391848224545e7 4.279455949938279e6 0.0
0.0 0.0 0.0

-957926.9197078987 1.8320205237058206e6 0.0
1.8320205237058206e6 445238.4429284602 0.0
0.0 0.0 0.0

-3.653371078473515e6 9.753764256717905e6 0.0
9.753764256717905e6 2.0446474904734404e6 0.0
0.0 0.0 0.0

-3.6574091245473414e6 1.3575397955287492e7 0.0
1.3575397955287492e7 744774.2043538608 0.0
0.0 0.0 0.0

-1.0556451837096604e7 -4.181659387051107e6 0.0
-4.181659387051107e6 2.43036156517391e7 0.0
0.0 0.0 0.0

-1.4230957673565613e6 1.318477416107374e7 0.0
1.318477416107374e7 4.0569369154232163e6 0.0
0.0 0.0 0.0

-1.9097295579321207e6 1.1242909518404283e7 0.0
1.1242909518404283e7 -3.34492948760575e6 0.0
0.0 0.0 0.0

-1.399772843881229e6 1.3425789847435588e7 0.0
1.3425789847435588e7 -5.376980306964161e6 0.0
0.0 0.0 0.0

-1.5535131743139576e6 1.2073194631138928e7 0.0
1.2073194631138928e7 -4.490082172415955e6 0.0
0.0 0.0 0.0

-964545.7228199937 9.689990328082185e6 0.0
9.689990328082185e6 -4.420391358767749e6 0.0
0.0 0.0 0.0

-2.684470218294926e6 1.2876362634461194e7 0.0
1.2876362634461194e7 -2.546519494577412e6 0.0
0.0 0.0 0.0

-6.441353249909852e6 1.1645175203301417e7 0.0
1.1645175203301417e7 7.283922814104517e6 0.0
0.0 0.0 0.0

-3.4179310538686393e6 1.1752972369590718e7 0.0
1.1752972369590718e7 920918.3280958943 0.0
0.0 0.0 0.0

-2.880901038094568e6 1.1239428262709843e7 0.0
1.1239428262709843e7 -1.460422201492108e6 0.0
0.0 0.0 0.0

4.396129442055025e6 7.265230369708174e6 0.0
7.265230369708174e6 -1.5506359710787434e7 0.0
0.0 0.0 0.0

-6.357229905529659e6 1.6692419116787657e7 0.0
1.6692419116787657e7 6.561382532788416e6 0.0
0.0 0.0 0.0

-450079.7260377433 4.686091776738192e6 0.0
4.686091776738192e6 -1.0191403683782617e6 0.0
0.0 0.0 0.0

-6.048428477365242e6 1.1449277152685598e7 0.0
1.1449277152685598e7 6.366525467724334e6 0.0
0.0 0.0 0.0

470022.9307334495 8.961645703752123e6 0.0
8.961645703752123e6 -5.348618875348888e6 0.0
0.0 0.0 0.0

4.0721599251983245e6 5.573366850448159e6 0.0
5.573366850448159e6 -1.0941826290697869e7 0.0
0.0 0.0 0.0

1.681244795840674e6 9.774962731797915e6 0.0
9.774962731797915e6 -1.1328015228422098e7 0.0
0.0 0.0 0.0

-1.3172813784934096e6 6.190825793059002e6 0.0
6.190825793059002e6 -1.9571914986382676e6 0.0
0.0 0.0 0.0

-1.2480924990951743e7 6.421649281814655e6 0.0
6.421649281814655e6 1.4659219577489693e7 0.0
0.0 0.0 0.0

-2.5024531756581534e6 1.2220949972702151e7 0.0
1.2220949972702151e7 -2.59933698375661e6 0.0
0.0 0.0 0.0

-601886.2684352521 1.9876616901615663e6 0.0
1.9876616901615663e6 307919.84045304824 0.0
0.0 0.0 0.0

-3.040150890198667e6 8.771986912685087e6 0.0
8.771986912685087e6 -203411.8381964604 0.0
0.0 0.0 0.0

-1.7242847439466864e6 1.3712614219396222e7 0.0
1.3712614219396222e7 -4.592391886896352e6 0.0
0.0 0.0 0.0

455652.76939130295 1.1854929893095044e7 0.0
1.1854929893095044e7 -1.0864008709704015e7 0.0
0.0 0.0 0.0

1.0878757168522798e6 9.00044445608511e6 0.0
9.00044445608511e6 -8.149633269242192e6 0.0
0.0 0.0 0.0

236147.77713622246 7.488448112737293e6 0.0
7.488448112737293e6 -5.06245381031741e6 0.0
0.0 0.0 0.0

-1.9457025754625003e6 1.1862555004387971e7 0.0
1.1862555004387971e7 -2.1241100580800106e6 0.0
0.0 0.0 0.0

-7.256452085337272e6 1.301482596519397e7 0.0
1.301482596519397e7 1.1114843761224408e7 0.0
0.0 0.0 0.0

-4.629344501407391e6 1.4793747614668747e7 0.0
1.4793747614668747e7 1.0329575952729732e6 0.0
0.0 0.0 0.0

-8.28082079109011e6 1.184955742458026e7 0.0
1.184955742458026e7 9.95853150963148e6 0.0
0.0 0.0 0.0

-6.488281220905187e6 1.3500082031460473e7 0.0
1.3500082031460473e7 7.053403190102877e6 0.0
0.0 0.0 0.0

252679.25431928458 8.197713256208887e6 0.0
8.197713256208887e6 -5.690029602954309e6 0.0
0.0 0.0 0.0

-2.6083098810845655e6 9.212819360565135e6 0.0
9.212819360565135e6 456206.4954168602 0.0
0.0 0.0 0.0

-2.422402682042747e6 1.3087259709553743e7 0.0
1.3087259709553743e7 4.332394686818405e6 0.0
0.0 0.0 0.0

-1.332264999555208e6 9.974678555670587e6 0.0
9.974678555670587e6 -3.7971737073961855e6 0.0
0.0 0.0 0.0

1.51085726343947e6 1.0934242396080675e7 0.0
1.0934242396080675e7 -1.2749789831428505e7 0.0
0.0 0.0 0.0

-2.2384675152135347e6 1.2345018141030623e7 0.0
1.2345018141030623e7 -1.745187985356026e6 0.0
0.0 0.0 0.0

442347.8024114361 1.0914932951325724e7 0.0
1.0914932951325724e7 -8.902663722841168e6 0.0
0.0 0.0 0.0

-2.843610724529228e6 1.0228587879235089e7 0.0
1.0228587879235089e7 487489.5581021684 0.0
0.0 0.0 0.0

-2.305167566148361e6 1.152274984762231e7 0.0
1.152274984762231e7 -1.2234119461605892e7 0.0
0.0 0.0 0.0

-2.514545941188969e6 1.2821011559491277e7 0.0
1.2821011559491277e7 -1.386817432591232e6 0.0
0.0 0.0 0.0

2.684022476984077e6 1.2126798419434557e7 0.0
1.2126798419434557e7 -3.540278116452178e6 0.0
0.0 0.0 0.0

-1.1136329917864595e7 -1.9161881765747934e6 0.0
-1.9161881765747934e6 2.397196206187024e7 0.0
0.0 0.0 0.0

-1.0205206029635383e7 1.9872030139061656e7 0.0
1.9872030139061656e7 8.536313270307537e6 0.0
0.0 0.0 0.0

-3.686607875776387e6 1.3760356289288484e7 0.0
1.3760356289288484e7 4.055692186895495e6 0.0
0.0 0.0 0.0

-1.1985250579023186e7 7.870868153784387e6 0.0
7.870868153784387e6 1.522347223639321e7 0.0
0.0 0.0 0.0

-6.42984438911891e6 1.5243510621189548e7 0.0
1.5243510621189548e7 6.897760449395895e6 0.0
0.0 0.0 0.0

-2.317461929531858e6 1.0428030625658618e7 0.0
1.0428030625658618e7 -640482.2874277069 0.0
0.0 0.0 0.0

-1.1581385446718733e6 1.1341824731680032e7 0.0
1.1341824731680032e7 -3.435230136443248e6 0.0
0.0 0.0 0.0

-1.836554565710093e6 1.2091596985034721e7 0.0
1.2091596985034721e7 -2.416398786047044e6 0.0
0.0 0.0 0.0

-358657.1991010684 7.806308852054968e6 0.0
7.806308852054968e6 -2.77442569388137e6 0.0
0.0 0.0 0.0

-2.0838457176150326e6 1.3993502744427556e7 0.0
1.3993502744427556e7 -3.8484934039395633e6 0.0
0.0 0.0 0.0

3.080612714005646e6 6.5274387607615255e6 0.0
6.5274387607615255e6 -1.0497841421280408e7 0.0
0.0 0.0 0.0

1.4620059219374568e6 5.98694123596793e6 0.0
5.98694123596793e6 -6.72966754371332e6 0.0
0.0 0.0 0.0

-6.881243066583265e6 1.324191749496219e7 0.0
1.324191749496219e7 8.170980401301834e6 0.0
0.0 0.0 0.0

-4.246275262848025e6 1.4550349356821375e7 0.0
1.4550349356821375e7 276336.906289248 0.0
0.0 0.0 0.0

1.8861315953646356e6 1.2743616688861458e7 0.0
1.2743616688861458e7 -4.548626625740908e6 0.0
0.0 0.0 0.0

-8.517717887171e6 1.5819512014100771e7 0.0
1.5819512014100771e7 5.225000543944301e6 0.0
0.0 0.0 0.0

2.125361877244678e6 5.843439694038958e6 0.0
5.843439694038958e6 -8.272809273499144e6 0.0
0.0 0.0 0.0

-1.7420709816593872e6 1.0210456769079236e7 0.0
1.0210456769079236e7 -3.1802474478610964e6 0.0
0.0 0.0 0.0

1.6557752888605975e7 1.106198835260663e7 0.0
1.106198835260663e7 -741429.8509486169 0.0
0.0 0.0 0.0

291819.8958582671 7.705530928119122e6 0.0
7.705530928119122e6 -5.46569327644883e6 0.0
0.0 0.0 0.0

3.5794299587304937e6 6.729727007490323e6 0.0
6.729727007490323e6 -1.2215725567059949e7 0.0
0.0 0.0 0.0

-9.450498711063193e6 1.1270996281044899e7 0.0
1.1270996281044899e7 1.3053126947777173e7 0.0
0.0 0.0 0.0

448113.2463082508 1.1557132710887365e7 0.0
1.1557132710887365e7 -9.732706019226827e6 0.0
0.0 0.0 0.0

-4.611962125307072e6 6.719808916120501e6 0.0
6.719808916120501e6 5.185584078438178e6 0.0
0.0 0.0 0.0

-1.1852298233678736e7 1.8757911072101563e7 0.0
1.8757911072101563e7 9.117253479757588e6 0.0
0.0 0.0 0.0

-8.782767352891002e6 1.1423032616009241e7 0.0
1.1423032616009241e7 1.2439208829650022e7 0.0
0.0 0.0 0.0

-6.32435392189833e6 1.5683906424227519e7 0.0
1.5683906424227519e7 6.898266995160224e6 0.0
0.0 0.0 0.0

-1.0345679354595616e7 1.734139387729347e7 0.0
1.734139387729347e7 5.175972312177527e6 0.0
0.0 0.0 0.0

-3.390078290763739e6 1.1146371868935823e7 0.0
1.1146371868935823e7 -440642.2854322952 0.0
0.0 0.0 0.0

1.851081137124547e7 5.960742331300896e6 0.0
5.960742331300896e6 -3.8590502177648162e6 0.0
0.0 0.0 0.0

-1.3975481091257362e6 1.2429166899238452e7 0.0
1.2429166899238452e7 -4.058401454917117e6 0.0
0.0 0.0 0.0

-1.0287486064253091e6 8.163066759226029e6 0.0
8.163066759226029e6 -2.050466234640812e6 0.0
0.0 0.0 0.0

-2.4731194791176915e6 1.4255443314078165e7 0.0
1.4255443314078165e7 -3.0783589401556896e6 0.0
0.0 0.0 0.0

-4.702076379786126e6 1.4540493291615874e7 0.0
1.4540493291615874e7 -701153.4988589264 0.0
0.0 0.0 0.0

469368.0741990376 7.317660327874851e6 0.0
7.317660327874851e6 -3.8262176694458025e6 0.0
0.0 0.0 0.0

-5.374912316019444e6 1.3795045648145359e7 0.0
1.3795045648145359e7 7.231020624732701e6 0.0
0.0 0.0 0.0

62563.16198923346 1.1009654636628255e7 0.0
1.1009654636628255e7 -1.060816529247618e7 0.0
0.0 0.0 0.0

-1.083225929844914e7 634787.130151681 0.0
634787.130151681 1.3220879675335344e7 0.0
0.0 0.0 0.0

-4.386978262277082e6 1.4365303237005373e7 0.0
1.4365303237005373e7 596417.3867016872 0.0
0.0 0.0 0.0

-2.262543225398972e6 1.0789501975582726e7 0.0
1.0789501975582726e7 -954665.4786763068 0.0
0.0 0.0 0.0

-3.976773459761138e6 1.4706668030255258e7 0.0
1.4706668030255258e7 1.1326264692963674e6 0.0
0.0 0.0 0.0

-408700.7515035318 1.1469198355989248e7 0.0
1.1469198355989248e7 -5.58449404265751e6 0.0
0.0 0.0 0.0

-1.8484662002546329e6 6.855184299028951e6 0.0
6.855184299028951e6 197737.4828319291 0.0
0.0 0.0 0.0

-6.358485226570349e6 1.5117955542624848e7 0.0
1.5117955542624848e7 5.22931316318677e6 0.0
0.0 0.0 0.0

-6.919923014381061e6 1.3317111021480873e7 0.0
1.3317111021480873e7 9.30985555557314e6 0.0
0.0 0.0 0.0

-6.436082034092825e6 1.282607483439366e7 0.0
1.282607483439366e7 6.947328767916463e6 0.0
0.0 0.0 0.0

-720008.6394185493 9.83093966021469e6 0.0
9.83093966021469e6 -3.5909632183407033e6 0.0
0.0 0.0 0.0

2.529174525739854e6 9.273567996997138e6 0.0
9.273567996997138e6 -1.3382691559511162e7 0.0
0.0 0.0 0.0

-4.1616261243608813e6 1.1920222265505945e7 0.0
1.1920222265505945e7 691708.333023292 0.0
0.0 0.0 0.0

-993686.8943493483 1.2392061473929804e7 0.0
1.2392061473929804e7 -6.833302933188405e6 0.0
0.0 0.0 0.0

-648054.4251991084 1.1357220896390822e7 0.0
1.1357220896390822e7 -6.362347315905935e6 0.0
0.0 0.0 0.0

-3.7019639683637484e6 1.4839609205916246e7 0.0
1.4839609205916246e7 -1.40068359712506e6 0.0
0.0 0.0 0.0

-1.8765495036668803e6 1.254321223566735e7 0.0
1.254321223566735e7 -4.0737041679410296e6 0.0
0.0 0.0 0.0

1.844038176628312e6 9.259989995224947e6 0.0
9.259989995224947e6 -1.0763776964366606e7 0.0
0.0 0.0 0.0

1.3828955769510712e6 6.0203225930743255e6 0.0
6.0203225930743255e6 -5.143950307419312e6 0.0
0.0 0.0 0.0

-139845.54561439448 5.666653129642574e6 0.0
5.666653129642574e6 -2.1941604866566216e6 0.0
0.0 0.0 0.0

-5.82794792144107e6 1.89603654733834e7 0.0
1.89603654733834e7 3.8408797909620986e6 0.0
0.0 0.0 0.0

-3.84753970969689e6 1.135625763342617e7 0.0
1.135625763342617e7 299235.41023423476 0.0
0.0 0.0 0.0

-2.6263973343121293e6 1.3074376751577388e7 0.0
1.3074376751577388e7 -2.8562442592216255e6 0.0
0.0 0.0 0.0

3.0356784626496006e6 4.986019704023028e6 0.0
4.986019704023028e6 -8.233914704143943e6 0.0
0.0 0.0 0.0

-1.2338258612846948e7 164995.36350357236 0.0
164995.36350357236 2.3520846872495733e7 0.0
0.0 0.0 0.0

1.8229290982137504e6 7.771723170030035e6 0.0
7.771723170030035e6 -8.680202881402658e6 0.0
0.0 0.0 0.0

-1.4979118202523496e6 1.6068724081591219e7 0.0
1.6068724081591219e7 -4.437391717488728e6 0.0
0.0 0.0 0.0

-3.6079119293826935e6 1.582016129580376e7 0.0
1.582016129580376e7 -883348.9387128376 0.0
0.0 0.0 0.0

-6.261268962257255e6 1.5321887689704826e7 0.0
1.5321887689704826e7 4.859972704139496e6 0.0
0.0 0.0 0.0

4.737630423526987e6 5.518308313890339e6 0.0
5.518308313890339e6 -1.3562905750433788e7 0.0
0.0 0.0 0.0

-2.6866303126437333e6 1.3481972528351936e7 0.0
1.3481972528351936e7 -1.3513010206598507e6 0.0
0.0 0.0 0.0

-2.950275107782777e6 1.4204358328656308e7 0.0
1.4204358328656308e7 -1.6315096995115222e6 0.0
0.0 0.0 0.0

3.6749187992429705e6 7.094383599747543e6 0.0
7.094383599747543e6 -1.3210231920498643e7 0.0
0.0 0.0 0.0

-4.511886729203245e6 1.5704847525886675e7 0.0
1.5704847525886675e7 691598.6229010473 0.0
0.0 0.0 0.0

-102738.22067485214 1.3724447265755862e7 0.0
1.3724447265755862e7 -6.248211065128359e6 0.0
0.0 0.0 0.0

-3.042762321705481e6 1.3143263547697335e7 0.0
1.3143263547697335e7 -1.8763836047591702e6 0.0
0.0 0.0 0.0

1.611461631446912e6 1.1177167925956246e7 0.0
1.1177167925956246e7 -1.3452261424147457e7 0.0
0.0 0.0 0.0

1.7186961082505002e6 6.193277586609504e6 0.0
6.193277586609504e6 -7.723024111014392e6 0.0
0.0 0.0 0.0

673311.4199824869 8.790732867288796e6 0.0
8.790732867288796e6 -7.107569881175699e6 0.0
0.0 0.0 0.0

-2.5087206988206534e6 1.3665319716233132e7 0.0
1.3665319716233132e7 -2.958619729332471e6 0.0
0.0 0.0 0.0

-580760.5566734604 1.381844478909779e7 0.0
1.381844478909779e7 -6.668061379213747e6 0.0
0.0 0.0 0.0

-2.2291772656737803e6 1.2763597536919953e7 0.0
1.2763597536919953e7 -3.4860462463514786e6 0.0
0.0 0.0 0.0

2.361194898977555e6 6.700093494049683e6 0.0
6.700093494049683e6 -7.683509716948885e6 0.0
0.0 0.0 0.0

4.412733408906339e6 6.06615218378342e6 0.0
6.06615218378342e6 -1.2122439050720382e7 0.0
0.0 0.0 0.0

-279133.1190529419 1.1454863822438678e7 0.0
1.1454863822438678e7 -7.643634421855029e6 0.0
0.0 0.0 0.0

280907.1783156041 9.109131353975305e6 0.0
9.109131353975305e6 -6.499791672706431e6 0.0
0.0 0.0 0.0

-3.037528893236889e6 1.0587104815485153e7 0.0
1.0587104815485153e7 -853464.7405462575 0.0
0.0 0.0 0.0

-7.880858460931301e6 1.6275885430282202e7 0.0
1.6275885430282202e7 5.874951915495215e6 0.0
0.0 0.0 0.0

-8.72619995957102e6 1.0407381800541706e7 0.0
1.0407381800541706e7 4.22654638310588e7 0.0
0.0 0.0 0.0

-1.0589786397086073e7 1.3966538677610136e6 0.0
1.3966538677610136e6 1.2134269435885966e7 0.0
0.0 0.0 0.0

-3.300447599766177e6 1.5164492756488193e7 0.0
1.5164492756488193e7 -3.2123620512608476e6 0.0
0.0 0.0 0.0

-3.50014567893259e6 1.0791670264230715e7 0.0
1.0791670264230715e7 -114905.02830854896 0.0
0.0 0.0 0.0

-1.168462655724033e7 2.1331282137254765e6 0.0
2.1331282137254765e6 1.86602353807948e7 0.0
0.0 0.0 0.0

4.015146864845033e6 6.072801163766867e6 0.0
6.072801163766867e6 -1.1259916839829907e7 0.0
0.0 0.0 0.0

-3.528430463965377e6 1.1438003990225717e7 0.0
1.1438003990225717e7 1.3504402952183208e6 0.0
0.0 0.0 0.0

734085.1097507039 1.141776405078419e7 0.0
1.141776405078419e7 -1.072734169452118e7 0.0
0.0 0.0 0.0

-2.783727361629596e6 1.4587948367207281e7 0.0
1.4587948367207281e7 -2.364952582982014e6 0.0
0.0 0.0 0.0

-2.605515384725941e6 1.3647563496937657e7 0.0
1.3647563496937657e7 -1.678651989880003e6 0.0
0.0 0.0 0.0

-4.555898341787214e6 9.921933891962769e6 0.0
9.921933891962769e6 1.845944223446411e6 0.0
0.0 0.0 0.0

-2.142778032189777e6 1.136648463223455e7 0.0
1.136648463223455e7 -1.545371277438084e6 0.0
0.0 0.0 0.0

-3.043140742252494e6 7.222788500584641e6 0.0
7.222788500584641e6 703666.2996389384 0.0
0.0 0.0 0.0

-2.779062152088432e7 1.338102530702378e7 0.0
1.338102530702378e7 1.1237073120983789e7 0.0
0.0 0.0 0.0

-1.628314055985495e6 1.1960439296698356e7 0.0
1.1960439296698356e7 5.888941860146418e6 0.0
0.0 0.0 0.0

-6.689448394688032e6 1.427264446183039e7 0.0
1.427264446183039e7 7.64386579324664e6 0.0
0.0 0.0 0.0

-4.848713444596206e6 1.5683101362372665e7 0.0
1.5683101362372665e7 3.00155332976381e6 0.0
0.0 0.0 0.0

2.32681691855193e6 7.792282420169838e6 0.0
7.792282420169838e6 -1.017391977778803e7 0.0
0.0 0.0 0.0

3.2694547413311703e6 7.189608389818084e6 0.0
7.189608389818084e6 -1.202112153005246e7 0.0
0.0 0.0 0.0

3.837572395251518e6 8.132918270794043e6 0.0
8.132918270794043e6 -1.3906858685874932e7 0.0
0.0 0.0 0.0

-3.818347527175505e6 1.003829512065642e7 0.0
1.003829512065642e7 612818.4423612398 0.0
0.0 0.0 0.0

-1.1689126237398338e7 5.908884919291938e6 0.0
5.908884919291938e6 1.3551493560885234e7 0.0
0.0 0.0 0.0

-2.882270997505677e6 7.740874274581086e6 0.0
7.740874274581086e6 1.452540300296501e6 0.0
0.0 0.0 0.0

1.0040361869499718e6 1.3265821213105764e7 0.0
1.3265821213105764e7 -5.247735631330096e6 0.0
0.0 0.0 0.0

375079.19726225967 1.113175866259262e7 0.0
1.113175866259262e7 -1.0292570495963426e7 0.0
0.0 0.0 0.0

-6.559584693571214e6 1.5501523241991097e7 0.0
1.5501523241991097e7 6.276639267878393e6 0.0
0.0 0.0 0.0

-3.973943105490557e6 1.9049338039176643e7 0.0
1.9049338039176643e7 -384246.3481070455 0.0
0.0 0.0 0.0

-7.228174469671363e6 1.6540903211377868e7 0.0
1.6540903211377868e7 6.219483624986411e6 0.0
0.0 0.0 0.0

-7.386570173680361e6 1.234380168697775e7 0.0
1.234380168697775e7 1.0419598228431767e7 0.0
0.0 0.0 0.0

4.763654932870162e6 7.060111480277338e6 0.0
7.060111480277338e6 -2.024153406201706e7 0.0
0.0 0.0 0.0

-374496.1010636373 1.1020716328972774e7 0.0
1.1020716328972774e7 -5.038578246013277e6 0.0
0.0 0.0 0.0

2.8813199125880674e6 4.621758846791552e6 0.0
4.621758846791552e6 -7.457042429191872e6 0.0
0.0 0.0 0.0

4.21479454596985e6 7.477920604756497e6 0.0
7.477920604756497e6 -1.415018473224207e7 0.0
0.0 0.0 0.0

-6.130999303582971e6 1.5535172300780496e7 0.0
1.5535172300780496e7 4.490311192662403e6 0.0
0.0 0.0 0.0

-8.539406884958649e6 6.689706509715608e6 0.0
6.689706509715608e6 1.2024971600374196e7 0.0
0.0 0.0 0.0

-7.843684809787251e6 1.1799726210554803e7 0.0
1.1799726210554803e7 1.1260765604456887e7 0.0
0.0 0.0 0.0

-6.508698700104859e6 1.4703546820639975e7 0.0
1.4703546820639975e7 7.522848154759005e6 0.0
0.0 0.0 0.0

2.0880723134503309e6 7.870335389225773e6 0.0
7.870335389225773e6 -7.811277696479008e6 0.0
0.0 0.0 0.0

-2.531751089428667e6 1.5483415325607534e7 0.0
1.5483415325607534e7 -1.216426105127296e6 0.0
0.0 0.0 0.0

-5.717968214018863e6 1.8837611859342553e7 0.0
1.8837611859342553e7 2.6241927810883657e6 0.0
0.0 0.0 0.0

-6.334333612134527e6 1.635655754064782e7 0.0
1.635655754064782e7 5.80135866719618e6 0.0
0.0 0.0 0.0

-7.899456190486459e6 1.1695529599808453e7 0.0
1.1695529599808453e7 1.167637658440795e7 0.0
0.0 0.0 0.0

-1.9472259302839953e7 3.357370195397133e7 0.0
3.357370195397133e7 -9.426326727385633e6 0.0
0.0 0.0 0.0

-3.7588215604798943e6 1.4276826943969829e7 0.0
1.4276826943969829e7 -1.4672454150842694e6 0.0
0.0 0.0 0.0

-5.990147241597161e6 1.1177717602244554e7 0.0
1.1177717602244554e7 4.1560222501850007e6 0.0
0.0 0.0 0.0

-2.0613710620595533e6 4.681741226579282e6 0.0
4.681741226579282e6 713963.8580451171 0.0
0.0 0.0 0.0

-1.545543376815063e6 1.1605012761759466e7 0.0
1.1605012761759466e7 -2.7842198517928207e6 0.0
0.0 0.0 0.0

-3.1615579498525322e6 1.5059638911219211e7 0.0
1.5059638911219211e7 -1.1218289813859586e6 0.0
0.0 0.0 0.0

-9.514815613270229e6 1.924930137916244e7 0.0
1.924930137916244e7 7.995890480360299e6 0.0
0.0 0.0 0.0

-2.001359639398372e6 1.30944453647413e7 0.0
1.30944453647413e7 -2.9469727282493855e6 0.0
0.0 0.0 0.0

-3.1599862592766434e6 1.387928152764017e7 0.0
1.387928152764017e7 -2.0909381026471665e6 0.0
0.0 0.0 0.0

-5.372074950428473e6 2.200787379688838e6 0.0
2.200787379688838e6 7.513652171762718e6 0.0
0.0 0.0 0.0

3.591513740263995e6 6.334166064820882e6 0.0
6.334166064820882e6 -1.0195015724324705e7 0.0
0.0 0.0 0.0

-5.105657196621923e6 1.8327501950014677e7 0.0
1.8327501950014677e7 2.881898134319856e6 0.0
0.0 0.0 0.0

-7.171900404145256e6 1.287320751369618e7 0.0
1.287320751369618e7 9.855115920935411e6 0.0
0.0 0.0 0.0

-5.193507001140879e6 1.5093689941800717e7 0.0
1.5093689941800717e7 285355.0883568076 0.0
0.0 0.0 0.0

-6015.226941565983 5.381122551817601e6 0.0
5.381122551817601e6 -3.7725986564580696e6 0.0
0.0 0.0 0.0

-4.218235313248237e6 1.6244748794471733e7 0.0
1.6244748794471733e7 -1.5671808444256983e6 0.0
0.0 0.0 0.0

-2.949570477978071e6 1.331859657208074e7 0.0
1.331859657208074e7 -2.191189950352602e6 0.0
0.0 0.0 0.0

81543.5421732436 1.1189126055457128e7 0.0
1.1189126055457128e7 -8.273963749003779e6 0.0
0.0 0.0 0.0

-2.1432001973564886e6 1.256215604860501e7 0.0
1.256215604860501e7 -2.0577715289947684e6 0.0
0.0 0.0 0.0

1.8282115886216662e6 8.086939727416906e6 0.0
8.086939727416906e6 -8.924223664314056e6 0.0
0.0 0.0 0.0

-3.479883215392858e6 1.2856520814844035e7 0.0
1.2856520814844035e7 657180.4101938568 0.0
0.0 0.0 0.0

-2.252635221604833e6 5.4716370716077555e6 0.0
5.4716370716077555e6 525467.8607102422 0.0
0.0 0.0 0.0

-6.041243601513054e6 7.739261869366265e6 0.0
7.739261869366265e6 7.2663167010813095e6 0.0
0.0 0.0 0.0

-4.21418204027857e6 1.0020626364978587e7 0.0
1.0020626364978587e7 2.96726410606319e6 0.0
0.0 0.0 0.0

-1.899435987631941e6 1.056934420780268e7 0.0
1.056934420780268e7 -9.532390436803583e6 0.0
0.0 0.0 0.0

-3.4900639337308137e6 1.0110544731673103e7 0.0
1.0110544731673103e7 1.6955995419225213e6 0.0
0.0 0.0 0.0

-2.1419486255646303e7 1.713813876624523e7 0.0
1.713813876624523e7 8.209313638912298e6 0.0
0.0 0.0 0.0

-4.024893294950086e6 1.1020435405071378e7 0.0
1.1020435405071378e7 652318.169888116 0.0
0.0 0.0 0.0

-568144.4400508432 1.3588176244454736e7 0.0
1.3588176244454736e7 -1.6092573359182219e6 0.0
0.0 0.0 0.0

-3.051538270935606e7 1.1776912311963655e7 0.0
1.1776912311963655e7 9.105120815145073e6 0.0
0.0 0.0 0.0

474075.7544788688 1.3581673087724268e7 0.0
1.3581673087724268e7 -5.854706495506057e6 0.0
0.0 0.0 0.0

-2.745195770846141e6 1.062328052775414e7 0.0
1.062328052775414e7 113828.92512571055 0.0
0.0 0.0 0.0

1.3359194129097946e6 8.554857626357645e6 0.0
8.554857626357645e6 -6.7391951564797545e6 0.0
0.0 0.0 0.0

-5.144347739812182e6 1.5959297747533243e7 0.0
1.5959297747533243e7 3.636286093590248e6 0.0
0.0 0.0 0.0

1.4749797075511487e6 8.94045757669103e6 0.0
8.94045757669103e6 -8.928643105220586e6 0.0
0.0 0.0 0.0

1.361016506670407e6 9.481942569859989e6 0.0
9.481942569859989e6 -9.447601647196176e6 0.0
0.0 0.0 0.0

-2.1130629540075697e6 6.764755785550511e6 0.0
6.764755785550511e6 -653847.6700270942 0.0
0.0 0.0 0.0

-6.778002473991096e6 1.2837622395990433e7 0.0
1.2837622395990433e7 5.80321278157161e6 0.0
0.0 0.0 0.0

3.902352746442157e6 7.125391728952681e6 0.0
7.125391728952681e6 -1.2459843977643734e7 0.0
0.0 0.0 0.0

-4.27557638642417e6 4.849386898426837e6 0.0
4.849386898426837e6 4.1942507435740693e6 0.0
0.0 0.0 0.0

1.429273409782743e6 9.199393149952963e6 0.0
9.199393149952963e6 -9.191887507318405e6 0.0
0.0 0.0 0.0

-4.891451218136484e7 3.452192388297209e6 0.0
3.452192388297209e6 1.1702492355658293e7 0.0
0.0 0.0 0.0

4.713520248198129e6 6.933027259137821e6 0.0
6.933027259137821e6 -1.91308414390335e7 0.0
0.0 0.0 0.0

-6.244361760456324e6 1.1876150893899612e7 0.0
1.1876150893899612e7 4.589107809295606e6 0.0
0.0 0.0 0.0

-6.28316926950717e6 1.2937042758155914e7 0.0
1.2937042758155914e7 4.410176718000859e6 0.0
0.0 0.0 0.0

-6.257592724785794e6 1.6386863337780584e7 0.0
1.6386863337780584e7 6.817048444823505e6 0.0
0.0 0.0 0.0

-2.208366669328412e6 1.1740084373254845e7 0.0
1.1740084373254845e7 -2.9731118872337323e6 0.0
0.0 0.0 0.0

-6.1002317903483035e6 1.349304429285588e7 0.0
1.349304429285588e7 8.477672611148033e6 0.0
0.0 0.0 0.0

510637.9059217833 1.0089884853363808e7 0.0
1.0089884853363808e7 -7.698103948317881e6 0.0
0.0 0.0 0.0

2.7971161046404345e6 8.041293395027388e6 0.0
8.041293395027388e6 -1.1926865434742894e7 0.0
0.0 0.0 0.0

-5.297101748747686e6 1.5779680700705957e7 0.0
1.5779680700705957e7 3.9454769067896814e6 0.0
0.0 0.0 0.0

-4.442806146581319e6 1.6662954573586594e7 0.0
1.6662954573586594e7 -688074.6293294211 0.0
0.0 0.0 0.0

4.345912524930275e6 7.865495182784296e6 0.0
7.865495182784296e6 -1.619391174068221e7 0.0
0.0 0.0 0.0

-3.3400448443509024e6 8.739507315057347e6 0.0
8.739507315057347e6 1.840927857719291e6 0.0
0.0 0.0 0.0

-6.770617245296946e6 1.6605553151339835e7 0.0
1.6605553151339835e7 6.413303943558598e6 0.0
0.0 0.0 0.0

-3.547317710406749e7 3.483612803601831e7 0.0
3.483612803601831e7 2.372495915137427e6 0.0
0.0 0.0 0.0

-1.173765888843e7 3.3915694899021084e6 0.0
3.3915694899021084e6 1.6616186189464878e7 0.0
0.0 0.0 0.0

-796985.2278611602 1.0034324124200126e7 0.0
1.0034324124200126e7 -8.673897014897192e6 0.0
0.0 0.0 0.0

281414.259989353 5.3694421704658e6 0.0
5.3694421704658e6 -2.8152998153148503e6 0.0
0.0 0.0 0.0

-3.5428998790805526e6 -7.24525742644255e6 0.0
-7.24525742644255e6 7.085157864421708e6 0.0
0.0 0.0 0.0

5.101303745367716e6 4.962694486995104e6 0.0
4.962694486995104e6 -1.3747798276785567e7 0.0
0.0 0.0 0.0

-3.5125067525013112e6 1.4634895006044751e7 0.0
1.4634895006044751e7 1.4748920741568217e6 0.0
0.0 0.0 0.0

656209.250702173 1.1762338520606158e7 0.0
1.1762338520606158e7 -1.0859743101663487e7 0.0
0.0 0.0 0.0

-1.1804614087712768e7 9.10813149076198e6 0.0
9.10813149076198e6 1.623306987412611e7 0.0
0.0 0.0 0.0

-2.8828926244914955e6 1.4833333528582042e7 0.0
1.4833333528582042e7 -3.9513640190412453e6 0.0
0.0 0.0 0.0

1.4977535064333887e6 8.681232095708404e6 0.0
8.681232095708404e6 -8.670129081555713e6 0.0
0.0 0.0 0.0

-9.607161931737795e6 1.1199571983108511e7 0.0
1.1199571983108511e7 2.139157413935071e7 0.0
0.0 0.0 0.0

-2.5322616098734564e6 1.1609967329920556e7 0.0
1.1609967329920556e7 -862507.0259112183 0.0
0.0 0.0 0.0

-7.39356148370036e6 1.2986712808350826e7 0.0
1.2986712808350826e7 1.2664923027842283e7 0.0
0.0 0.0 0.0

600529.816581009 1.1952159870884411e7 0.0
1.1952159870884411e7 -1.0355969487979574e7 0.0
0.0 0.0 0.0

3.2431172653755195e7 6.841957122964837e6 0.0
6.841957122964837e6 -2.947911897341959e6 0.0
0.0 0.0 0.0

-3.1322683363265693e6 1.4887234648270184e7 0.0
1.4887234648270184e7 -1.6871937906377283e6 0.0
0.0 0.0 0.0

-4.797109876893285e6 1.8280219815492924e7 0.0
1.8280219815492924e7 2.2115303691175673e6 0.0
0.0 0.0 0.0

1.1683006178384908e6 9.222059954359088e6 0.0
9.222059954359088e6 -8.389557647427905e6 0.0
0.0 0.0 0.0

1.9803949701708406e6 8.728087254807793e6 0.0
8.728087254807793e6 -8.593064666293766e6 0.0
0.0 0.0 0.0

-1.8118175544713945e6 1.1481392854832282e7 0.0
1.1481392854832282e7 -3.644669347478639e6 0.0
0.0 0.0 0.0

-9.328116024714313e6 4.56580783542747e6 0.0
4.56580783542747e6 1.309257271226919e7 0.0
0.0 0.0 0.0

708931.4414703166 1.133938907027603e7 0.0
1.133938907027603e7 -1.3075731963231549e7 0.0
0.0 0.0 0.0

2.7033624092627037e6 4.567113637548482e6 0.0
4.567113637548482e6 -7.125492179103369e6 0.0
0.0 0.0 0.0

475108.87511605443 1.0578186174363656e7 0.0
1.0578186174363656e7 -8.257183507096415e6 0.0
0.0 0.0 0.0

-1.618837146012665e7 1.5620066574036391e7 0.0
1.5620066574036391e7 1.1974156979193322e7 0.0
0.0 0.0 0.0

-1.5832537352114762e6 8.204257184092169e6 0.0
8.204257184092169e6 -2.419776648899849e6 0.0
0.0 0.0 0.0

-8.819034368985826e6 1.1596563112166606e7 0.0
1.1596563112166606e7 2.6362652825606234e7 0.0
0.0 0.0 0.0

-4.718261781104117e6 1.365568247236158e7 0.0
1.365568247236158e7 6.335305580364103e6 0.0
0.0 0.0 0.0

2.7203199358833707e6 1.2209021480310723e7 0.0
1.2209021480310723e7 -1.3827418730851915e6 0.0
0.0 0.0 0.0

-6.429129483629321e6 1.6548188035908267e7 0.0
1.6548188035908267e7 6.613768957945696e6 0.0
0.0 0.0 0.0

-3.3702367007324267e6 1.5193813256597098e7 0.0
1.5193813256597098e7 -890591.5752911188 0.0
0.0 0.0 0.0

-6.431332683469748e6 1.6201584697239084e7 0.0
1.6201584697239084e7 6.062058880086876e6 0.0
0.0 0.0 0.0

-7.836627037699417e6 5.260488287689115e6 0.0
5.260488287689115e6 1.0912941168195942e7 0.0
0.0 0.0 0.0

-7.032201476914698e6 8.909314590074396e6 0.0
8.909314590074396e6 8.870116390203092e6 0.0
0.0 0.0 0.0

-2.4332352068638513e6 5.962851140773227e6 0.0
5.962851140773227e6 311651.6554540108 0.0
0.0 0.0 0.0

5.102927079888371e6 9.529236141451152e6 0.0
9.529236141451152e6 1.5318064519992184e6 0.0
0.0 0.0 0.0

482076.79298296804 1.217620019371323e7 0.0
1.217620019371323e7 -9.84870062207063e6 0.0
0.0 0.0 0.0

-3.417104356801484e6 1.5075039129986588e7 0.0
1.5075039129986588e7 -479921.51214198326 0.0
0.0 0.0 0.0

-5.95455939870456e6 1.570596376544239e7 0.0
1.570596376544239e7 4.1287190116510824e6 0.0
0.0 0.0 0.0

-5.491081472203979e6 92659.03537162844 0.0
92659.03537162844 5.888034192440182e6 0.0
0.0 0.0 0.0

-6.260312266340034e6 1.6725206612663396e7 0.0
1.6725206612663396e7 5.301203631712995e6 0.0
0.0 0.0 0.0

-3.192628759999423e6 1.0836837897618322e7 0.0
1.0836837897618322e7 899285.3504913754 0.0
0.0 0.0 0.0

-6.410666296269043e6 1.714526225881585e7 0.0
1.714526225881585e7 5.999478090424164e6 0.0
0.0 0.0 0.0

3.0612682055283654e6 1.1597018740045933e7 0.0
1.1597018740045933e7 -2.042408308892715e6 0.0
0.0 0.0 0.0

-4.486222529242851e6 1.717315470769694e7 0.0
1.717315470769694e7 1.211850784359428e6 0.0
0.0 0.0 0.0

4.0669273370169858e6 6.064883741236776e6 0.0
6.064883741236776e6 -1.2142442113992866e7 0.0
0.0 0.0 0.0

-1.1485297014739305e7 3.5182418792459634e6 0.0
3.5182418792459634e6 1.5601991163407296e7 0.0
0.0 0.0 0.0

1.008002959380941e6 1.2576941716710208e7 0.0
1.2576941716710208e7 -7.559412904882989e6 0.0
0.0 0.0 0.0

321371.453879599 1.2441675149358999e7 0.0
1.2441675149358999e7 -9.29054598504602e6 0.0
0.0 0.0 0.0

-2.2177745611340953e6 1.10912700456472e7 0.0
1.10912700456472e7 -1.2561723173249087e6 0.0
0.0 0.0 0.0

-3.455442843700112e6 1.3951769845869238e7 0.0
1.3951769845869238e7 2.3074005038161837e6 0.0
0.0 0.0 0.0

-2.2865060731167947e6 1.531708338994826e7 0.0
1.531708338994826e7 -3.6311600423574625e6 0.0
0.0 0.0 0.0

1.0528319389232998e6 1.1378002271187842e7 0.0
1.1378002271187842e7 -6.927026982674443e6 0.0
0.0 0.0 0.0

-7.323586538864262e6 7.284825007655437e6 0.0
7.284825007655437e6 7.488712453034485e6 0.0
0.0 0.0 0.0

2.8490160383038507e6 7.840946761148189e6 0.0
7.840946761148189e6 -1.012045666194755e7 0.0
0.0 0.0 0.0

825076.082149324 1.1954176096716587e7 0.0
1.1954176096716587e7 -9.813786188254783e6 0.0
0.0 0.0 0.0

-2.650121063123132e6 1.2485444651422717e7 0.0
1.2485444651422717e7 7.168349760148884e6 0.0
0.0 0.0 0.0

-2.7775391933713923e6 1.2687124142709075e7 0.0
1.2687124142709075e7 -2.23510531501909e6 0.0
0.0 0.0 0.0

4.733329535120894e6 6.997050378146872e6 0.0
6.997050378146872e6 -1.5564405007396678e7 0.0
0.0 0.0 0.0

5.6712100444184e6 6.125854227278443e6 0.0
6.125854227278443e6 -1.90796808774926e7 0.0
0.0 0.0 0.0

-5.099008729803996e6 1.0209485534991158e7 0.0
1.0209485534991158e7 2.728835470669166e6 0.0
0.0 0.0 0.0

-5.778824292638421e6 1.5882527005596261e7 0.0
1.5882527005596261e7 3.8016511964241182e6 0.0
0.0 0.0 0.0

-8.727141250057768e6 766540.9031506964 0.0
766540.9031506964 1.1388387090542737e7 0.0
0.0 0.0 0.0

-6.105841720567851e6 9.358096091580514e6 0.0
9.358096091580514e6 4.595217758445291e6 0.0
0.0 0.0 0.0

-6.467032794562085e6 1.25541131658363e7 0.0
1.25541131658363e7 4.976008321937347e6 0.0
0.0 0.0 0.0

2.5806865827133306e6 7.88633498100369e6 0.0
7.88633498100369e6 -9.319792286046037e6 0.0
0.0 0.0 0.0

5.1241466733889785e6 4.855855421131922e6 0.0
4.855855421131922e6 -1.4047349991377011e7 0.0
0.0 0.0 0.0

-5.872625719607014e6 1.19318910470161e7 0.0
1.19318910470161e7 5.815249872984915e6 0.0
0.0 0.0 0.0

-7.458104793237504e6 1.3067280672998084e7 0.0
1.3067280672998084e7 3.385202793905093e7 0.0
0.0 0.0 0.0

-5.6294422908678185e6 1.3290032267596383e7 0.0
1.3290032267596383e7 4.94847857310107e6 0.0
0.0 0.0 0.0

-3.701636480387546e6 1.5421542942263702e7 0.0
1.5421542942263702e7 -270119.06133095664 0.0
0.0 0.0 0.0

1.1610304760189727e6 9.677082304336293e6 0.0
9.677082304336293e6 -8.778488161053626e6 0.0
0.0 0.0 0.0

-4.708562393407796e6 1.6449069998502964e7 0.0
1.6449069998502964e7 2.3763815746356277e6 0.0
0.0 0.0 0.0

-5.443562632335609e6 1.5595607563647153e7 0.0
1.5595607563647153e7 4.277542077041173e6 0.0
0.0 0.0 0.0

387863.9830453438 1.2917271604467925e7 0.0
1.2917271604467925e7 9.884849842573686e6 0.0
0.0 0.0 0.0

2.7654978499219473e6 4.553429274732904e6 0.0
4.553429274732904e6 -7.53668797171267e6 0.0
0.0 0.0 0.0

-47106.05831480585 1.4118831110441681e7 0.0
1.4118831110441681e7 -5.796115952587862e6 0.0
0.0 0.0 0.0

3.628981973739898e6 5.153227862588502e6 0.0
5.153227862588502e6 -1.0316956247027747e7 0.0
0.0 0.0 0.0

-5.443358391023859e6 6.806546013488121e6 0.0
6.806546013488121e6 6.530264769605702e6 0.0
0.0 0.0 0.0

-6.197864872107606e6 1.4879141861668473e7 0.0
1.4879141861668473e7 4.629184472973129e6 0.0
0.0 0.0 0.0

-2.42462469894084e6 1.302276852034307e7 0.0
1.302276852034307e7 -1.7100169466977608e6 0.0
0.0 0.0 0.0

2.0885773002093853e6 8.153499535933244e6 0.0
8.153499535933244e6 -8.066061334141012e6 0.0
0.0 0.0 0.0

761527.3028267175 1.1919679192124775e7 0.0
1.1919679192124775e7 -7.538724163104924e6 0.0
0.0 0.0 0.0

-3.980550852468852e6 1.5713400732770149e7 0.0
1.5713400732770149e7 386798.4899040323 0.0
0.0 0.0 0.0

-1.039860135710032e7 570774.2245903723 0.0
570774.2245903723 1.4853866312834691e7 0.0
0.0 0.0 0.0

-7.621740899719772e6 1.0136915708708178e7 0.0
1.0136915708708178e7 9.918912082598252e6 0.0
0.0 0.0 0.0

-5.534470893237073e6 5.083693528813048e6 0.0
5.083693528813048e6 6.833718438005665e6 0.0
0.0 0.0 0.0

-3.652590317776354e6 1.0412707533702007e7 0.0
1.0412707533702007e7 232207.78018960496 0.0
0.0 0.0 0.0

-6.187020648337655e6 1.6016226811785605e7 0.0
1.6016226811785605e7 6.35536805458671e6 0.0
0.0 0.0 0.0

-3.3778907168282927e6 1.250042626132037e7 0.0
1.250042626132037e7 -942334.3796572988 0.0
0.0 0.0 0.0

-5.466761805822143e6 1.6307499514866695e7 0.0
1.6307499514866695e7 2.8787962683369718e6 0.0
0.0 0.0 0.0

-2.572968277116275e6 6.994692861277049e6 0.0
6.994692861277049e6 31552.96705921914 0.0
0.0 0.0 0.0

-6.515104112956734e6 8.668725101315899e6 0.0
8.668725101315899e6 7.8614839392698435e6 0.0
0.0 0.0 0.0

-5.671678587475188e6 1.6043189609799389e7 0.0
1.6043189609799389e7 3.5052789503731327e6 0.0
0.0 0.0 0.0

-1.538042422892928e6 1.482056869265232e7 0.0
1.482056869265232e7 -5.043911535681069e6 0.0
0.0 0.0 0.0

316743.6631981516 1.385277436703665e7 0.0
1.385277436703665e7 8.081381017731308e6 0.0
0.0 0.0 0.0

-3.32572489039171e6 1.0477459088019991e7 0.0
1.0477459088019991e7 1.313151325325278e6 0.0
0.0 0.0 0.0

-1.2355889207541817e6 1.64430462946458e7 0.0
1.64430462946458e7 -3.653856709503123e6 0.0
0.0 0.0 0.0

-4.410667986862812e6 1.106832554640003e7 0.0
1.106832554640003e7 3.026548243588196e6 0.0
0.0 0.0 0.0

-7.281553629588048e6 9.837557572003512e6 0.0
9.837557572003512e6 9.126642090229584e6 0.0
0.0 0.0 0.0

-2.4030652237524325e6 7.501179067830477e6 0.0
7.501179067830477e6 775859.9311825817 0.0
0.0 0.0 0.0

-5.571414135871118e6 1.6174698291037515e7 0.0
1.6174698291037515e7 3.173383010897181e6 0.0
0.0 0.0 0.0

4.1563343587895585e6 6.549534513994087e6 0.0
6.549534513994087e6 -1.1933577455074953e7 0.0
0.0 0.0 0.0

3.504514849655028e6 7.255857911053811e6 0.0
7.255857911053811e6 -1.1228770447318165e7 0.0
0.0 0.0 0.0

-6.187491007040349e6 1.6147951522172894e7 0.0
1.6147951522172894e7 6.952474042634042e6 0.0
0.0 0.0 0.0

-25110.537987800082 8.825478496271484e6 0.0
8.825478496271484e6 -4.572127758416204e6 0.0
0.0 0.0 0.0

2.0481426654592087e6 8.460154306929445e6 0.0
8.460154306929445e6 -8.3208593043730315e6 0.0
0.0 0.0 0.0

-5.540265371104672e6 1.7555991472897533e7 0.0
1.7555991472897533e7 3.1693622869120925e6 0.0
0.0 0.0 0.0

-4.4431059472502805e6 1.6218120443448218e7 0.0
1.6218120443448218e7 1.7344609139369223e6 0.0
0.0 0.0 0.0

-2.847191988820326e6 1.3465786080690222e7 0.0
1.3465786080690222e7 -2.443837039960443e6 0.0
0.0 0.0 0.0

870233.9999954123 1.1666863421188548e7 0.0
1.1666863421188548e7 -1.2432919250087079e7 0.0
0.0 0.0 0.0

-6.226090363183655e6 1.772300634539837e7 0.0
1.772300634539837e7 4.878032091977585e6 0.0
0.0 0.0 0.0

-7.832243826870171e6 1.0434061081630008e7 0.0
1.0434061081630008e7 1.0367668891540606e7 0.0
0.0 0.0 0.0

2.0970073151664375e6 6.28838822299501e6 0.0
6.28838822299501e6 -8.301781241556158e6 0.0
0.0 0.0 0.0

-5.613619089052277e6 1.9049597845369644e7 0.0
1.9049597845369644e7 3.5557718985061366e6 0.0
0.0 0.0 0.0

-3.50145649152775e6 1.3995240659267172e7 0.0
1.3995240659267172e7 4.970708821486477e6 0.0
0.0 0.0 0.0

-4.215834927942367e6 1.5971634676259704e7 0.0
1.5971634676259704e7 1.11658789185966e6 0.0
0.0 0.0 0.0

122484.2012840826 1.271069732345013e7 0.0
1.271069732345013e7 -8.749228908607513e6 0.0
0.0 0.0 0.0

-5.077101156384094e6 1.657750356211454e7 0.0
1.657750356211454e7 3.317660042413204e6 0.0
0.0 0.0 0.0

-6.310058958066843e6 1.4220869378156155e7 0.0
1.4220869378156155e7 8.2418874249025285e6 0.0
0.0 0.0 0.0

-5.19344675635087e6 1.6533022897972712e7 0.0
1.6533022897972712e7 2.300451148556251e6 0.0
0.0 0.0 0.0

-4.240056223606949e6 2.0373700530029897e7 0.0
2.0373700530029897e7 991471.2658789249 0.0
0.0 0.0 0.0

-9.853029838620929e6 7.399474903131324e6 0.0
7.399474903131324e6 1.3670196527126085e7 0.0
0.0 0.0 0.0

1.7207982862511985e6 9.037340299035378e6 0.0
9.037340299035378e6 -8.100569068087058e6 0.0
0.0 0.0 0.0

-1.0152637117986854e7 4.925463451917909e6 0.0
4.925463451917909e6 1.390812151741727e7 0.0
0.0 0.0 0.0

-6.493416718607213e6 7.849848849053891e6 0.0
7.849848849053891e6 5.677672503673682e6 0.0
0.0 0.0 0.0

-342564.85919303703 -1.207511931823903e6 0.0
-1.207511931823903e6 965736.8734116373 0.0
0.0 0.0 0.0

305466.1014167849 -820077.2340663987 0.0
-820077.2340663987 559724.536035407 0.0
0.0 0.0 0.0

-1.0378067390234422e7 7.8052003568210285e6 0.0
7.8052003568210285e6 1.4007633640619269e7 0.0
0.0 0.0 0.0

2.6922295155545445e6 1.2816914645051315e7 0.0
1.2816914645051315e7 3.0523415341576645e6 0.0
0.0 0.0 0.0

-4.482372678699296e6 1.681505942099732e7 0.0
1.681505942099732e7 1.5107535990375795e6 0.0
0.0 0.0 0.0

-2.651923033812674e6 1.3825193825247012e7 0.0
1.3825193825247012e7 -2.037623591843147e6 0.0
0.0 0.0 0.0

1.6627646596264667e6 9.27967785221689e6 0.0
9.27967785221689e6 -8.403049865880411e6 0.0
0.0 0.0 0.0

395288.7338103228 1.3060311600993238e7 0.0
1.3060311600993238e7 7.83330355402654e6 0.0
0.0 0.0 0.0

-6.199476837606514e6 1.8013981847084086e7 0.0
1.8013981847084086e7 5.736899586373966e6 0.0
0.0 0.0 0.0

-5.721893562089598e6 1.783903080828287e7 0.0
1.783903080828287e7 3.395601454164757e6 0.0
0.0 0.0 0.0

-5.761621486519924e6 1.823627821985247e7 0.0
1.823627821985247e7 3.450205017138896e6 0.0
0.0 0.0 0.0

-7.14300360481523e6 1.1943700140787862e7 0.0
1.1943700140787862e7 6.804245960711284e6 0.0
0.0 0.0 0.0

-5.6771786094949795e6 1.0463678799163464e7 0.0
1.0463678799163464e7 3.658393842973535e6 0.0
0.0 0.0 0.0

-3.632764412441711e6 7.871223008396311e6 0.0
7.871223008396311e6 1.3150527140081974e6 0.0
0.0 0.0 0.0

-6.398985545100905e6 1.4604374098862924e7 0.0
1.4604374098862924e7 6.743316410142029e6 0.0
0.0 0.0 0.0

-4.73848749415119e6 1.026454954020442e7 0.0
1.026454954020442e7 3.917986359464094e6 0.0
0.0 0.0 0.0

-1.1843369532104863e7 6.969167835685752e6 0.0
6.969167835685752e6 1.5476421473779785e7 0.0
0.0 0.0 0.0

1.6101576187145244e6 9.55619853321982e6 0.0
9.55619853321982e6 -8.646436860812668e6 0.0
0.0 0.0 0.0

-7.007475346156616e6 1.3121850002119057e7 0.0
1.3121850002119057e7 6.462813736274238e6 0.0
0.0 0.0 0.0

-1.177549187345686e7 5.757635455416716e6 0.0
5.757635455416716e6 1.5962317057653494e7 0.0
0.0 0.0 0.0

-2.6779936404421367e6 1.2781273114437718e7 0.0
1.2781273114437718e7 5.5622866194256e6 0.0
0.0 0.0 0.0

-4.759568906872954e6 1.096988124941088e7 0.0
1.096988124941088e7 1.8724319741528914e6 0.0
0.0 0.0 0.0

-5.2231230081212185e6 1.6918399190840486e7 0.0
1.6918399190840486e7 3.6304044803083353e6 0.0
0.0 0.0 0.0

-4.905260792700001e6 1.6218076962143457e7 0.0
1.6218076962143457e7 2.99035366978385e6 0.0
0.0 0.0 0.0

-6.245671801097173e6 1.4631368150804972e7 0.0
1.4631368150804972e7 7.895563404365839e6 0.0
0.0 0.0 0.0

677966.4451105781 1.1941565407351417e7 0.0
1.1941565407351417e7 -1.1159780112366386e7 0.0
0.0 0.0 0.0

-6.419500930122744e6 1.4452589371588994e7 0.0
1.4452589371588994e7 5.428728364811875e6 0.0
0.0 0.0 0.0

-7.623486737131957e6 1.107935352185286e7 0.0
1.107935352185286e7 9.807068715737026e6 0.0
0.0 0.0 0.0

-2.3864051304914183e6 1.3400916308591602e7 0.0
1.3400916308591602e7 -2.3465170997483386e6 0.0
0.0 0.0 0.0

-4.675903054913398e6 1.8686547984053496e7 0.0
1.8686547984053496e7 2.1463332089951327e6 0.0
0.0 0.0 0.0

-6.220929543624128e6 1.5042571864801206e7 0.0
1.5042571864801206e7 7.622056929450968e6 0.0
0.0 0.0 0.0

-2.5238885410628794e6 1.3209276678112581e7 0.0
1.3209276678112581e7 -3.1328705993697997e6 0.0
0.0 0.0 0.0

3.3596773066167296e6 7.524749735391296e6 0.0
7.524749735391296e6 -1.1491935025368989e7 0.0
0.0 0.0 0.0

-6.2584684535056e6 1.2151322661614882e7 0.0
1.2151322661614882e7 6.687523928500207e6 0.0
0.0 0.0 0.0

-2.261448175354298e6 1.620584515709302e7 0.0
1.620584515709302e7 -3.0558700378967933e6 0.0
0.0 0.0 0.0

2.27497818716833e6 4.593053765100396e6 0.0
4.593053765100396e6 -6.19317999558635e6 0.0
0.0 0.0 0.0

3.6409388287007622e6 7.76210244161999e6 0.0
7.76210244161999e6 -1.4593773243028792e7 0.0
0.0 0.0 0.0

-1.463425015344787e6 1.2700520233285774e7 0.0
1.2700520233285774e7 -4.302141932288298e6 0.0
0.0 0.0 0.0

1.4997466398545543e6 1.3504491639360452e7 0.0
1.3504491639360452e7 5.245067560053333e6 0.0
0.0 0.0 0.0

2.858143311347931e6 7.706436571592931e6 0.0
7.706436571592931e6 -1.1776439835894784e7 0.0
0.0 0.0 0.0

2.5274083535484797e6 8.2512480944967875e6 0.0
8.2512480944967875e6 -1.1489085028356904e7 0.0
0.0 0.0 0.0

175743.42885183246 1.0579588857977351e7 0.0
1.0579588857977351e7 1.4574525009767734e6 0.0
0.0 0.0 0.0

-1.0740551517892046e7 1.6493257192702668e6 0.0
1.6493257192702668e6 1.448249428746886e7 0.0
0.0 0.0 0.0

-4.4630437012565695e6 7.902167200821233e6 0.0
7.902167200821233e6 2.6767978068883717e6 0.0
0.0 0.0 0.0

-2.315242411294035e6 1.2880142900121175e7 0.0
1.2880142900121175e7 -1.6647956827923642e7 0.0
0.0 0.0 0.0

-6.416213840187686e6 1.0159035965301085e7 0.0
1.0159035965301085e7 5.159847394380134e6 0.0
0.0 0.0 0.0

-8.307475343647838e6 5.634814521834683e6 0.0
5.634814521834683e6 9.056354318939269e6 0.0
0.0 0.0 0.0

-1.6377899696820604e6 1.2286348857069224e7 0.0
1.2286348857069224e7 5.435768570802249e6 0.0
0.0 0.0 0.0

-3.0303306940826187e6 -6.032558982463047e6 0.0
-6.032558982463047e6 5.843592600322442e6 0.0
0.0 0.0 0.0

-6.61635692428007e6 1.2150758526861282e7 0.0
1.2150758526861282e7 5.489619935789612e6 0.0
0.0 0.0 0.0

-6.245296170283763e6 1.613442485430336e7 0.0
1.613442485430336e7 6.668614448609843e6 0.0
0.0 0.0 0.0

-628308.1731388941 1.1937941699933302e7 0.0
1.1937941699933302e7 -7.270058355833226e6 0.0
0.0 0.0 0.0

-1.0145311277091984e6 3.6012778066546614e6 0.0
3.6012778066546614e6 -334143.4358273478 0.0
0.0 0.0 0.0

-3.1599179126797672e6 7.66804367979743e6 0.0
7.66804367979743e6 553369.8686936572 0.0
0.0 0.0 0.0

4.562590897637926e6 7.513790243887212e6 0.0
7.513790243887212e6 -2.166452007324057e7 0.0
0.0 0.0 0.0

-4.040068426535682e6 1.8965809985355023e7 0.0
1.8965809985355023e7 1.0210890424394754e6 0.0
0.0 0.0 0.0

-1.186281864188948e7 6.033555208007947e6 0.0
6.033555208007947e6 1.9657856756497897e7 0.0
0.0 0.0 0.0

-2.7548553345220983e6 1.2034957415964793e7 0.0
1.2034957415964793e7 -4.631771745939215e6 0.0
0.0 0.0 0.0

-9.895300913604967e6 4.754053316723075e6 0.0
4.754053316723075e6 1.1047926526508015e7 0.0
0.0 0.0 0.0

-7.536223076378493e6 1.6209183167631637e7 0.0
1.6209183167631637e7 5.052904561877888e6 0.0
0.0 0.0 0.0

-632226.9671064657 1.323248951452571e7 0.0
1.323248951452571e7 -2.484486767824797e6 0.0
0.0 0.0 0.0

-881544.886156586 1.2909649988703536e7 0.0
1.2909649988703536e7 4.092130759102366e6 0.0
0.0 0.0 0.0

3.925199465537683e6 7.451604529506647e6 0.0
7.451604529506647e6 -1.5127273845885696e7 0.0
0.0 0.0 0.0

-4.474835775322766e6 9.961259922187744e6 0.0
9.961259922187744e6 -1.5313761090890272e6 0.0
0.0 0.0 0.0

-5.5484053175252685e6 2.1443258660057712e7 0.0
2.1443258660057712e7 -979559.3154794397 0.0
0.0 0.0 0.0

-6.573784652440524e6 1.2364381553948443e7 0.0
1.2364381553948443e7 7.437353636453706e6 0.0
0.0 0.0 0.0

-5.109248074430306e6 -8.753933548841562e6 0.0
-8.753933548841562e6 1.045337285827887e7 0.0
0.0 0.0 0.0

-3.373795494436452e6 1.3037395742620362e7 0.0
1.3037395742620362e7 5.799034324905168e6 0.0
0.0 0.0 0.0

-5.508823277425483e6 1.6586403863872556e7 0.0
1.6586403863872556e7 2.3089020070315925e6 0.0
0.0 0.0 0.0

-2.2198194577420955e6 7.155133854619304e6 0.0
7.155133854619304e6 -822610.7088478529 0.0
0.0 0.0 0.0

-3.141803895201373e6 1.4001725497283773e7 0.0
1.4001725497283773e7 1.1988181473312411e7 0.0
0.0 0.0 0.0

-7.892166124691118e6 9.279208679393869e6 0.0
9.279208679393869e6 8.275219123702491e6 0.0
0.0 0.0 0.0

-7.07211044527065e6 8.010394844261387e6 0.0
8.010394844261387e6 6.890250775635243e6 0.0
0.0 0.0 0.0

-1.1953366863368373e7 4.396702159978592e6 0.0
4.396702159978592e6 1.942231719825335e7 0.0
0.0 0.0 0.0

-4.343792425652651e6 1.3247563638566528e7 0.0
1.3247563638566528e7 7.722430424486848e6 0.0
0.0 0.0 0.0

-8.050255503489103e6 1.7857820268158313e7 0.0
1.7857820268158313e7 6.974504167487126e6 0.0
0.0 0.0 0.0

-6.438906945882727e6 1.937103944578224e7 0.0
1.937103944578224e7 3.7345818233438716e6 0.0
0.0 0.0 0.0

-6.931179651736499e6 1.3722880607228296e7 0.0
1.3722880607228296e7 6.682891275262818e6 0.0
0.0 0.0 0.0

2.173374383281076e6 4.384682702282164e6 0.0
4.384682702282164e6 -5.884996839107781e6 0.0
0.0 0.0 0.0

2.2270478954159487e6 8.710243140660431e6 0.0
8.710243140660431e6 -9.33845169538628e6 0.0
0.0 0.0 0.0

1.7395679611413078e6 8.49353752342098e6 0.0
8.49353752342098e6 -7.551353336357419e6 0.0
0.0 0.0 0.0

-6.176379130364578e6 1.072784282596524e7 0.0
1.072784282596524e7 4.6517011047246475e6 0.0
0.0 0.0 0.0

-1.1022157818199433e7 2.4729599970467713e7 0.0
2.4729599970467713e7 818162.0974296448 0.0
0.0 0.0 0.0

-2.618095025431834e6 6.587044370763413e6 0.0
6.587044370763413e6 165656.1915588146 0.0
0.0 0.0 0.0

-4.506773065988488e6 1.753619014181404e7 0.0
1.753619014181404e7 1.295040277655573e6 0.0
0.0 0.0 0.0

-2.612009708808259e6 1.6664740767066278e7 0.0
1.6664740767066278e7 -2.3284544043616178e6 0.0
0.0 0.0 0.0

-1.933612576290539e6 7.59711882152935e6 0.0
7.59711882152935e6 -164972.32212928688 0.0
0.0 0.0 0.0

-591084.8176835978 9.443009374721207e6 0.0
9.443009374721207e6 -1.1972027690479355e6 0.0
0.0 0.0 0.0

3.6346809273091923e6 1.406621883122859e7 0.0
1.406621883122859e7 7.002420709872989e6 0.0
0.0 0.0 0.0

1.0896408199397183e6 1.4355427136101944e7 0.0
1.4355427136101944e7 9.64898944324574e6 0.0
0.0 0.0 0.0

-1.3775053188674613e6 1.2884116868458819e7 0.0
1.2884116868458819e7 3.7574644586446215e6 0.0
0.0 0.0 0.0

-7.460140108220217e6 8.99236443559295e6 0.0
8.99236443559295e6 7.3633686607789835e6 0.0
0.0 0.0 0.0

-9.905265472492002e6 2.3381970177576967e7 0.0
2.3381970177576967e7 1.8067535915584625e6 0.0
0.0 0.0 0.0

-1.146553807967238e7 1.674293657061888e7 0.0
1.674293657061888e7 6.089840384141598e6 0.0
0.0 0.0 0.0

-7.538407301707437e6 8.2462936213355595e6 0.0
8.2462936213355595e6 7.938191294654523e6 0.0
0.0 0.0 0.0

2.7345634233966535e6 9.663354919282831e6 0.0
9.663354919282831e6 -1.5718579105477534e7 0.0
0.0 0.0 0.0

5.514950548163522e6 4.623711447509452e6 0.0
4.623711447509452e6 -1.571190821934436e7 0.0
0.0 0.0 0.0

316881.2655152017 1.1529293201264288e7 0.0
1.1529293201264288e7 -7.7270778890856905e6 0.0
0.0 0.0 0.0

1.9194421329315943e6 8.992027304792508e6 0.0
8.992027304792508e6 -8.86408872974983e6 0.0
0.0 0.0 0.0

-380714.0017439681 1.2267300837686526e7 0.0
1.2267300837686526e7 -6.698310373888486e6 0.0
0.0 0.0 0.0

-1.2407413379854152e7 2.6327935282157943e7 0.0
2.6327935282157943e7 -1.1794118827048084e6 0.0
0.0 0.0 0.0

-5.290219706002092e6 1.453253411992243e7 0.0
1.453253411992243e7 3.965012285958804e6 0.0
0.0 0.0 0.0

-2.1147264376417864e6 1.4045388491849022e7 0.0
1.4045388491849022e7 -5.511397534330819e6 0.0
0.0 0.0 0.0

-1.9948897110466002e6 1.3507181885502994e7 0.0
1.3507181885502994e7 -5.441971662100142e6 0.0
0.0 0.0 0.0

2.3054520368418796e6 8.165283977803727e6 0.0
8.165283977803727e6 -8.814439276387013e6 0.0
0.0 0.0 0.0

-6.9074631441124175e6 1.4512387645125045e7 0.0
1.4512387645125045e7 7.2137678497410035e6 0.0
0.0 0.0 0.0

-2.4358134782937015e6 1.3615012281699102e7 0.0
1.3615012281699102e7 6.175251443897835e6 0.0
0.0 0.0 0.0

-4.87107670929544e6 1.498739540880881e7 0.0
1.498739540880881e7 4.596268755498795e6 0.0
0.0 0.0 0.0

-1.0479869428657219e7 4.361320258126911e6 0.0
4.361320258126911e6 4.120129255002883e7 0.0
0.0 0.0 0.0

-2.882835438557268e6 1.4262911285442333e6 0.0
1.4262911285442333e6 3.7660595372640067e6 0.0
0.0 0.0 0.0

-2.5626738534211293e7 3.8657722127369285e7 0.0
3.8657722127369285e7 -1.7387743714207463e7 0.0
0.0 0.0 0.0

-330142.8254459165 1.3196702131846162e7 0.0
1.3196702131846162e7 5.110143220679073e6 0.0
0.0 0.0 0.0

-8.88580236785751e6 2.2469241356562126e7 0.0
2.2469241356562126e7 2.7775680683588255e6 0.0
0.0 0.0 0.0

-748421.1473359399 1.1942786350669904e7 0.0
1.1942786350669904e7 -5.169635565378927e6 0.0
0.0 0.0 0.0

-788414.0314171575 1.3788941968435531e7 0.0
1.3788941968435531e7 -6.978440025324181e6 0.0
0.0 0.0 0.0

-6.01995682860549e6 1.5397128306195054e7 0.0
1.5397128306195054e7 5.660212373423157e6 0.0
0.0 0.0 0.0

4.48958948656586e6 5.125081268440482e6 0.0
5.125081268440482e6 -1.1670607725710135e7 0.0
0.0 0.0 0.0

3.650291274151583e6 1.1737647836080698e7 0.0
1.1737647836080698e7 -1.8068318210201177e6 0.0
0.0 0.0 0.0

2.1657630090589803e6 8.998469630523818e6 0.0
8.998469630523818e6 -9.653010835183155e6 0.0
0.0 0.0 0.0

-803596.806798574 1.5478618441630164e7 0.0
1.5478618441630164e7 -4.736930899702408e6 0.0
0.0 0.0 0.0

4.430101171254722e6 7.11822201078504e6 0.0
7.11822201078504e6 -1.4616678148188785e7 0.0
0.0 0.0 0.0

-5.899295131963657e6 1.3004006324648557e7 0.0
1.3004006324648557e7 5.675063619126657e6 0.0
0.0 0.0 0.0

2.3407762066430645e6 6.351568639930274e6 0.0
6.351568639930274e6 -7.504749595137803e6 0.0
0.0 0.0 0.0

-799012.5772004443 7.991754814454123e6 0.0
7.991754814454123e6 -2.1065821213439666e6 0.0
0.0 0.0 0.0

-6.420413659266673e6 1.4499449897220321e7 0.0
1.4499449897220321e7 -502793.2342777208 0.0
0.0 0.0 0.0

3.0186696073899567e6 8.059420948985836e6 0.0
8.059420948985836e6 -1.1186989010734865e7 0.0
0.0 0.0 0.0

-2.4837533056720775e6 1.0992409118325021e7 0.0
1.0992409118325021e7 -2.1241112693970483e6 0.0
0.0 0.0 0.0

-2.7390831847534208e6 1.4083681782685133e7 0.0
1.4083681782685133e7 -3.9353698482048186e6 0.0
0.0 0.0 0.0

-5.55253114239629e6 1.3650440363193894e7 0.0
1.3650440363193894e7 9.838458164435778e6 0.0
0.0 0.0 0.0

1.1184529112042347e6 1.1106187573907612e7 0.0
1.1106187573907612e7 -3.698583094695849e6 0.0
0.0 0.0 0.0

-5.857722709484882e6 9.988906247505896e6 0.0
9.988906247505896e6 4.1324056090473533e6 0.0
0.0 0.0 0.0

-1.2392520864025522e7 2.0254929512337022e6 0.0
2.0254929512337022e6 1.629662853662783e7 0.0
0.0 0.0 0.0

-5.24588140924543e6 1.3763679005935447e7 0.0
1.3763679005935447e7 1.0011171303502433e7 0.0
0.0 0.0 0.0

-8.018438118766787e6 1.0201291370262198e7 0.0
1.0201291370262198e7 8.533701196976155e6 0.0
0.0 0.0 0.0

-9.992366848107787e6 -913040.7970042186 0.0
-913040.7970042186 1.3162159800259247e7 0.0
0.0 0.0 0.0

-6.804604623768517e6 1.1873551980624922e7 0.0
1.1873551980624922e7 8.005565223251162e6 0.0
0.0 0.0 0.0

-6.677332778871672e6 1.3742326136620795e7 0.0
1.3742326136620795e7 8.459821130661894e6 0.0
0.0 0.0 0.0

-2.1878725828019916e6 5.988838087436296e6 0.0
5.988838087436296e6 1.126474112277084e6 0.0
0.0 0.0 0.0

-2.3569686913788524e6 1.3811279792594133e7 0.0
1.3811279792594133e7 -4.716026283563114e6 0.0
0.0 0.0 0.0

-6.038575338849849e6 1.5092071319628024e7 0.0
1.5092071319628024e7 4.238087405657614e6 0.0
0.0 0.0 0.0

-8.189852645788279e6 1.0620026534083804e7 0.0
1.0620026534083804e7 9.080307609081613e6 0.0
0.0 0.0 0.0

-1.2083603081180954e7 -2.235540670001829e6 0.0
-2.235540670001829e6 2.0943125769684494e7 0.0
0.0 0.0 0.0

-3.166658186932463e6 1.3460286900680024e7 0.0
1.3460286900680024e7 4.738671070787083e6 0.0
0.0 0.0 0.0

-6.633804695284903e6 7.928979129500763e6 0.0
7.928979129500763e6 8.420328684010042e6 0.0
0.0 0.0 0.0

2.814000009167143e6 9.457815731141463e6 0.0
9.457815731141463e6 -1.5010249403390152e7 0.0
0.0 0.0 0.0

-7.121346015965654e6 1.3328020493988669e7 0.0
1.3328020493988669e7 1.310963430740711e7 0.0
0.0 0.0 0.0

-9.082023839684635e6 8.280265661710711e6 0.0
8.280265661710711e6 1.246908665402858e7 0.0
0.0 0.0 0.0

1.7218863337473734e6 8.212281998172772e6 0.0
8.212281998172772e6 -7.28114008521448e6 0.0
0.0 0.0 0.0

4.588636309301259e6 5.571820757376547e6 0.0
5.571820757376547e6 -1.3588702638659406e7 0.0
0.0 0.0 0.0

-2.343007066814956e6 1.3812951077617634e7 0.0
1.3812951077617634e7 7.891201072349272e6 0.0
0.0 0.0 0.0

-4.5274694389866e6 1.4019321524267543e7 0.0
1.4019321524267543e7 1.0252647749150712e7 0.0
0.0 0.0 0.0

-1.0786412623023877e6 1.1559824491808288e7 0.0
1.1559824491808288e7 -3.744691452311748e6 0.0
0.0 0.0 0.0

-6.216492788365681e6 1.546566236874295e7 0.0
1.546566236874295e7 7.363773893079791e6 0.0
0.0 0.0 0.0

-7.227202297824057e6 2.0672215685635507e7 0.0
2.0672215685635507e7 3.5419605357999816e6 0.0
0.0 0.0 0.0

-142624.8489717478 1.3029471650937796e7 0.0
1.3029471650937796e7 -8.16165104583601e6 0.0
0.0 0.0 0.0

-4.0913698057643212e6 1.637755176504242e6 0.0
1.637755176504242e6 5.518767029457893e6 0.0
0.0 0.0 0.0

2.138894517464456e6 1.043718994568067e7 0.0
1.043718994568067e7 -1.3304511083265685e7 0.0
0.0 0.0 0.0

-6.761154263461294e6 1.3833361495633995e7 0.0
1.3833361495633995e7 8.074154539193881e6 0.0
0.0 0.0 0.0

-9.100785277411718e6 7.127803592464207e6 0.0
7.127803592464207e6 1.2940833661059342e7 0.0
0.0 0.0 0.0

186757.85701985745 1.1549944478935687e7 0.0
1.1549944478935687e7 1.9060304685677423e6 0.0
0.0 0.0 0.0

3.7541460258825542e6 8.2713896993083125e6 0.0
8.2713896993083125e6 -1.6800693994679235e7 0.0
0.0 0.0 0.0

2.7045718194854744e6 9.34533939175096e6 0.0
9.34533939175096e6 -1.4176586346560018e7 0.0
0.0 0.0 0.0

-5.461026739651736e6 2.229071111432761e7 0.0
2.229071111432761e7 -2.310264593428068e6 0.0
0.0 0.0 0.0

-5.099376264404284e6 1.47468700786131e7 0.0
1.47468700786131e7 3.5827882337637166e6 0.0
0.0 0.0 0.0

-5.884644508189861e6 1.561011873341016e7 0.0
1.561011873341016e7 5.307229037874397e6 0.0
0.0 0.0 0.0

-4.696164366140623e6 1.5385547057414297e7 0.0
1.5385547057414297e7 1.102197246610306e6 0.0
0.0 0.0 0.0

3.882934789861896e6 5.448714046647041e6 0.0
5.448714046647041e6 -9.622235396824572e6 0.0
0.0 0.0 0.0

388457.5610530074 9.652484827663912e6 0.0
9.652484827663912e6 -5.94341496216923e6 0.0
0.0 0.0 0.0

-6.660908556891207e6 1.3678493369366469e7 0.0
1.3678493369366469e7 7.635533931272704e6 0.0
0.0 0.0 0.0

-1.7028396735861471e6 1.4283738413745765e7 0.0
1.4283738413745765e7 -5.127467134193759e6 0.0
0.0 0.0 0.0

-6.801510668025851e6 2.0182363462033037e7 0.0
2.0182363462033037e7 3.707417231185411e6 0.0
0.0 0.0 0.0

-2.306533242406033e6 7.06121923204022e6 0.0
7.06121923204022e6 894829.4896290995 0.0
0.0 0.0 0.0

-1.1973351124655671e7 3.4033526492656716e6 0.0
3.4033526492656716e6 1.4024679303218927e7 0.0
0.0 0.0 0.0

-6.632964949728129e6 1.977396665482927e7 0.0
1.977396665482927e7 3.8390810774387773e6 0.0
0.0 0.0 0.0

-3.0599501870866646e6 1.4377966574219614e7 0.0
1.4377966574219614e7 -3.2397450628283266e6 0.0
0.0 0.0 0.0

1.7977869373941715e6 8.378419635662414e6 0.0
8.378419635662414e6 -9.151676237103065e6 0.0
0.0 0.0 0.0

-5.795851167534571e6 1.0710660665990578e7 0.0
1.0710660665990578e7 5.959581723037889e6 0.0
0.0 0.0 0.0

4.006261494477111e6 7.920421688604309e6 0.0
7.920421688604309e6 -1.7309416641765364e7 0.0
0.0 0.0 0.0

-5.470966624451843e6 1.7587999603882436e7 0.0
1.7587999603882436e7 4.097611985489359e6 0.0
0.0 0.0 0.0

-3.212109208285319e6 1.4104000903101604e7 0.0
1.4104000903101604e7 4.055250633257646e6 0.0
0.0 0.0 0.0

2.411696956392793e6 1.0084194315152925e7 0.0
1.0084194315152925e7 -1.582278523489666e7 0.0
0.0 0.0 0.0

-6.395220321515987e6 1.5955723368470946e7 0.0
1.5955723368470946e7 5.645206636736325e6 0.0
0.0 0.0 0.0

-1.2265459877024908e7 3.3126543507822654e6 0.0
3.3126543507822654e6 1.4858142426859003e7 0.0
0.0 0.0 0.0

1.451370967567436e6 8.098327076257557e6 0.0
8.098327076257557e6 -8.166737811506921e6 0.0
0.0 0.0 0.0

-2.174880380169105e6 1.170027726266237e7 0.0
1.170027726266237e7 5.004863452989738e6 0.0
0.0 0.0 0.0

-6.024528999863695e6 1.4715033277924033e7 0.0
1.4715033277924033e7 5.819714724354248e6 0.0
0.0 0.0 0.0

1.9692920763525115e6 1.0537957366753882e7 0.0
1.0537957366753882e7 -1.5558642668730298e7 0.0
0.0 0.0 0.0

-1.4122277371629935e7 2.851754471025934e7 0.0
2.851754471025934e7 -4.241692794055472e6 0.0
0.0 0.0 0.0

-8.990795000012089e6 9.745996068852505e6 0.0
9.745996068852505e6 1.104250492361711e7 0.0
0.0 0.0 0.0

-2.1545058770985752e6 1.3384131526379421e7 0.0
1.3384131526379421e7 -1.8507108779973082e7 0.0
0.0 0.0 0.0

-1.9422514175964324e6 7.251663818758727e6 0.0
7.251663818758727e6 65552.96695147012 0.0
0.0 0.0 0.0

-6.912309914649626e6 1.240321830089743e7 0.0
1.240321830089743e7 6.290983646070288e6 0.0
0.0 0.0 0.0

-9.29998718938861e6 1.203051305543342e7 0.0
1.203051305543342e7 1.4015570286540926e7 0.0
0.0 0.0 0.0

-5.470247982468002e6 9.938390930795848e6 0.0
9.938390930795848e6 5.456309649591662e6 0.0
0.0 0.0 0.0

-9.296011662199667e6 1.2031622624196144e7 0.0
1.2031622624196144e7 2.883047737822997e7 0.0
0.0 0.0 0.0

-6.1033280599197075e6 1.2595827522077765e7 0.0
1.2595827522077765e7 6.180809447438149e6 0.0
0.0 0.0 0.0

906609.7312336746 1.180180158762281e7 0.0
1.180180158762281e7 -1.191556857285731e7 0.0
0.0 0.0 0.0

-302794.8039580621 1.3380630978668755e7 0.0
1.3380630978668755e7 -7.661729211952245e6 0.0
0.0 0.0 0.0

6.414196968015103e7 1.2993647332919244e7 0.0
1.2993647332919244e7 2.447839292124722e6 0.0
0.0 0.0 0.0

-5.25544547485977e6 -8.625676698113428e6 0.0
-8.625676698113428e6 1.1580500286850264e7 0.0
0.0 0.0 0.0

5.285022447396326e6 4.754199863630896e6 0.0
4.754199863630896e6 -1.4725807383194797e7 0.0
0.0 0.0 0.0

-1.4181666629948812e6 4.754300786214821e6 0.0
4.754300786214821e6 -332895.45613079506 0.0
0.0 0.0 0.0

-4.371357488100082e6 1.5087157345658436e7 0.0
1.5087157345658436e7 460662.86135926936 0.0
0.0 0.0 0.0

-8.980838270365924e6 -8.885696613435348e6 0.0
-8.885696613435348e6 2.2832758226469774e7 0.0
0.0 0.0 0.0

-1.7571675756120407e6 1.1739477575186547e7 0.0
1.1739477575186547e7 -1.3202912387836507e7 0.0
0.0 0.0 0.0

-9.216701435828576e6 5.884663065813197e6 0.0
5.884663065813197e6 1.3034624938238712e7 0.0
0.0 0.0 0.0

-8.47488072628141e6 1.092029943230267e7 0.0
1.092029943230267e7 9.540072014062747e6 0.0
0.0 0.0 0.0

5.553311185774468e6 4.58166875972034e6 0.0
4.58166875972034e6 -1.605997067713954e7 0.0
0.0 0.0 0.0

-22165.369279135484 1.1806833615391081e7 0.0
1.1806833615391081e7 -7.0805914371739e6 0.0
0.0 0.0 0.0

-7.83521188790771e6 2.125779396001881e7 0.0
2.125779396001881e7 3.6829191262849662e6 0.0
0.0 0.0 0.0

1.0596197224772964e6 8.450155399749815e6 0.0
8.450155399749815e6 -7.6529899045831505e6 0.0
0.0 0.0 0.0

-997390.415346761 1.4167967316051736e7 0.0
1.4167967316051736e7 -1.5381473140493748e6 0.0
0.0 0.0 0.0

-6.76466125892619e6 5.464620134150032e6 0.0
5.464620134150032e6 6.260608779666085e7 0.0
0.0 0.0 0.0

4.354817066680746e6 7.942683602252832e6 0.0
7.942683602252832e6 -3.47933725295719e7 0.0
0.0 0.0 0.0

1.8278667025344819e6 1.3193780601432042e7 0.0
1.3193780601432042e7 -2.7245505253046725e7 0.0
0.0 0.0 0.0

957338.2898620856 1.0985798453059059e7 0.0
1.0985798453059059e7 -8.944974699195681e6 0.0
0.0 0.0 0.0

5.11201436507583e6 6.786261006177003e6 0.0
6.786261006177003e6 -1.786932062766861e7 0.0
0.0 0.0 0.0

-1.1317809341971092e7 1.4323556455411343e7 0.0
1.4323556455411343e7 6.405078206881372e6 0.0
0.0 0.0 0.0

-1.8819746801317518e6 1.4056009154050685e7 0.0
1.4056009154050685e7 -5.967293461414232e6 0.0
0.0 0.0 0.0

-5.595924445048184e6 -9.321759768761361e6 0.0
-9.321759768761361e6 1.2704577162341062e7 0.0
0.0 0.0 0.0

-3.7585618535073665e6 7.742399602972258e6 0.0
7.742399602972258e6 2.0496999798569435e6 0.0
0.0 0.0 0.0

-5.712098732636605e6 1.5809251344010416e7 0.0
1.5809251344010416e7 4.91813453389856e6 0.0
0.0 0.0 0.0

-7.030693871543597e6 1.3958427428453486e7 0.0
1.3958427428453486e7 7.143332554415159e6 0.0
0.0 0.0 0.0

-6.3716945333437435e6 8.64192054762898e6 0.0
8.64192054762898e6 5.159365055312636e6 0.0
0.0 0.0 0.0

-2.318758971192984e6 6.472995184596444e6 0.0
6.472995184596444e6 1.194141167257825e6 0.0
0.0 0.0 0.0

2.9145686619629115e6 1.1417280453507701e7 0.0
1.1417280453507701e7 -68055.04253686417 0.0
0.0 0.0 0.0

-3.4214399757148526e6 1.469818551614887e7 0.0
1.469818551614887e7 -2.5215561325113475e6 0.0
0.0 0.0 0.0

-450326.3112779466 5.633689741660635e6 0.0
5.633689741660635e6 -3.227814083704867e6 0.0
0.0 0.0 0.0

-4.391870117618951e6 1.6355533706343124e7 0.0
1.6355533706343124e7 1.4268878093367536e6 0.0
0.0 0.0 0.0

-1.0797698754774429e7 8.169705026708666e6 0.0
8.169705026708666e6 1.2275403887775287e7 0.0
0.0 0.0 0.0

-5.292955872441987e6 1.0521972826597838e7 0.0
1.0521972826597838e7 4.923211969677448e6 0.0
0.0 0.0 0.0

-5.87017808804302e6 -9.38973925355461e6 0.0
-9.38973925355461e6 1.4141623801327925e7 0.0
0.0 0.0 0.0

5.403891430817466e6 4.676133743520297e6 0.0
4.676133743520297e6 -1.5375397360477848e7 0.0
0.0 0.0 0.0

5.211100768190814e6 7.001059360538097e6 0.0
7.001059360538097e6 -1.8756406075835563e7 0.0
0.0 0.0 0.0

-1.064769409413659e7 5.20762670690258e6 0.0
5.20762670690258e6 1.2019158128505938e7 0.0
0.0 0.0 0.0

5.514841546453392e6 6.388537715947885e6 0.0
6.388537715947885e6 -2.9968013349134248e7 0.0
0.0 0.0 0.0

-1.033558391832098e7 -4.987087758254423e6 0.0
-4.987087758254423e6 3.388502296344521e7 0.0
0.0 0.0 0.0

2.0589088460799004e6 8.093705041406616e6 0.0
8.093705041406616e6 -9.646016918316634e6 0.0
0.0 0.0 0.0

3.175298073184017e6 7.536045220793717e6 0.0
7.536045220793717e6 -1.0662550729223803e7 0.0
0.0 0.0 0.0

-4.68554462194571e6 1.994397625766682e7 0.0
1.994397625766682e7 1.526037873284241e6 0.0
0.0 0.0 0.0

-7.320507237494706e6 1.7833743261576504e7 0.0
1.7833743261576504e7 7.194890410806989e6 0.0
0.0 0.0 0.0

-6.208303855043167e6 1.4453586710154159e7 0.0
1.4453586710154159e7 6.144298098924386e6 0.0
0.0 0.0 0.0

-3.900286315709096e6 1.5793254852702266e7 0.0
1.5793254852702266e7 61782.17454176722 0.0
0.0 0.0 0.0

-6.862061543806918e6 2.007071353751817e7 0.0
2.007071353751817e7 5.691101591964519e6 0.0
0.0 0.0 0.0

-6.279065790816767e6 1.5323713363261936e7 0.0
1.5323713363261936e7 6.576323059215268e6 0.0
0.0 0.0 0.0

-1.5821777096498439e6 1.294739479916578e7 0.0
1.294739479916578e7 3.1318073005402936e6 0.0
0.0 0.0 0.0

6.210450503164301e6 4.899580654386467e6 0.0
4.899580654386467e6 -2.4822193754768793e7 0.0
0.0 0.0 0.0

5.806924047141983e6 4.397989132678009e6 0.0
4.397989132678009e6 -1.756378299491939e7 0.0
0.0 0.0 0.0

6.287962127361413e6 4.516643589488025e6 0.0
4.516643589488025e6 -2.1591923622135025e7 0.0
0.0 0.0 0.0

-5.543870247309552e6 1.5644735795348883e7 0.0
1.5644735795348883e7 3.1547595154243396e6 0.0
0.0 0.0 0.0

-2.6870741030193474e6 7.4100514157005185e6 0.0
7.4100514157005185e6 -133042.71894187096 0.0
0.0 0.0 0.0

-8.947391970449025e6 -8.375984190386375e6 0.0
-8.375984190386375e6 2.358093063989922e7 0.0
0.0 0.0 0.0

-9.008959597685535e6 5.749237631479803e6 0.0
5.749237631479803e6 1.0130750962300131e7 0.0
0.0 0.0 0.0

4.358954124166883e6 5.764255135192336e6 0.0
5.764255135192336e6 -1.174402839005435e7 0.0
0.0 0.0 0.0

-8.362583694298841e6 1.6119627226502642e7 0.0
1.6119627226502642e7 6.433148614873134e6 0.0
0.0 0.0 0.0

-1.98040035144443e6 1.1599705696400573e7 0.0
1.1599705696400573e7 -1.23910681883168e7 0.0
0.0 0.0 0.0

-2.556840775484966e6 -6.610410567308625e6 0.0
-6.610410567308625e6 8.693684047058407e6 0.0
0.0 0.0 0.0

-6.531710244788416e6 2.3859787376521025e6 0.0
2.3859787376521025e6 7.470353194138978e6 0.0
0.0 0.0 0.0

-1.2641268577972218e7 3.028918731418271e6 0.0
3.028918731418271e6 1.678432231485368e7 0.0
0.0 0.0 0.0

-6.017643305424749e6 1.3191062748801485e7 0.0
1.3191062748801485e7 8.879158786557747e6 0.0
0.0 0.0 0.0

2.2066465166621907e6 9.540510028356377e6 0.0
9.540510028356377e6 -1.27664919182037e7 0.0
0.0 0.0 0.0

6.501689517044021e6 4.699603329697385e6 0.0
4.699603329697385e6 -2.369697547134343e7 0.0
0.0 0.0 0.0

5.019071666119033e6 4.9104000594124105e6 0.0
4.9104000594124105e6 -1.3845486172831196e7 0.0
0.0 0.0 0.0

-3.294630857173361e6 2.166352176916529e7 0.0
2.166352176916529e7 -5.600270970207802e6 0.0
0.0 0.0 0.0

-1.0471644607215231e7 -5.5120240632398e6 0.0
-5.5120240632398e6 3.230984486797667e7 0.0
0.0 0.0 0.0

4.605859650833424e6 7.528705527294107e6 0.0
7.528705527294107e6 -1.674235244349023e7 0.0
0.0 0.0 0.0

-1.0262841539731424e7 -956384.6853970755 0.0
-956384.6853970755 4.599225245629594e7 0.0
0.0 0.0 0.0

6.226018149762493e6 5.34219752618498e6 0.0
5.34219752618498e6 -2.6843743174357813e7 0.0
0.0 0.0 0.0

-6.237038248840963e6 1.6182511936336873e7 0.0
1.6182511936336873e7 6.904947832262103e6 0.0
0.0 0.0 0.0

-563368.9813756747 8.911911559625393e6 0.0
8.911911559625393e6 -4.401889018224235e6 0.0
0.0 0.0 0.0

-1.3384236551727806e6 1.2141036653242707e7 0.0
1.2141036653242707e7 -5.358230081553786e6 0.0
0.0 0.0 0.0

426205.5119614247 1.1852455845233751e7 0.0
1.1852455845233751e7 -1.0218106808500627e7 0.0
0.0 0.0 0.0

-1.0288731681025531e7 -4.361306049533591e6 0.0
-4.361306049533591e6 3.6025329233082384e7 0.0
0.0 0.0 0.0

6.300909223610237e6 4.639597643972664e6 0.0
4.639597643972664e6 -2.2481870863055333e7 0.0
0.0 0.0 0.0

-1.075564011486557e7 8.619922778790986e6 0.0
8.619922778790986e6 1.2830581249685176e7 0.0
0.0 0.0 0.0

-1.027987986162089e7 7.818199279365025e6 0.0
7.818199279365025e6 1.1760716268702514e7 0.0
0.0 0.0 0.0

-1.247264746436536e7 4.060831209155499e6 0.0
4.060831209155499e6 1.5245127226246033e7 0.0
0.0 0.0 0.0

-5.685322216820484e6 9.252041608553065e6 0.0
9.252041608553065e6 6.066455098595827e6 0.0
0.0 0.0 0.0

-2.364672091902433e6 1.4244083825608576e7 0.0
1.4244083825608576e7 1.236682043666058e7 0.0
0.0 0.0 0.0

-2.9801230526152058e6 1.5017090341587156e7 0.0
1.5017090341587156e7 -2.0174062231641053e6 0.0
0.0 0.0 0.0

-5.739524434247633e6 1.6544025403470272e7 0.0
1.6544025403470272e7 3.508901911796434e6 0.0
0.0 0.0 0.0

-4.0009793763972437e6 1.5663055002272395e7 0.0
1.5663055002272395e7 -1.0556401200333897e6 0.0
0.0 0.0 0.0

2.5475953894971805e6 8.152414548909775e6 0.0
8.152414548909775e6 -9.573781212554835e6 0.0
0.0 0.0 0.0

-6.2923223176475e6 1.735966137247686e7 0.0
1.735966137247686e7 6.310889243129763e6 0.0
0.0 0.0 0.0

-703932.5929605048 1.366554569730256e7 0.0
1.366554569730256e7 -2.3816594825644884e6 0.0
0.0 0.0 0.0

1.5932110046946714e6 1.0450794653452555e7 0.0
1.0450794653452555e7 -1.0094587213312637e7 0.0
0.0 0.0 0.0

-1.1947200527925042e7 7.36116388790625e6 0.0
7.36116388790625e6 1.6300839888038352e7 0.0
0.0 0.0 0.0

-1.1223930407195069e7 5.508520961892838e6 0.0
5.508520961892838e6 1.28985449996241e7 0.0
0.0 0.0 0.0

2.5912106676706276e6 7.758307285946291e6 0.0
7.758307285946291e6 -1.101058075601895e7 0.0
0.0 0.0 0.0

-7.422053755973349e6 -9.884856977347594e6 0.0
-9.884856977347594e6 1.8285209207824238e7 0.0
0.0 0.0 0.0

5.597221707693513e6 4.544486700898356e6 0.0
4.544486700898356e6 -1.6405224236339256e7 0.0
0.0 0.0 0.0

-4.162820230467682e6 1.3679016926741006e7 0.0
1.3679016926741006e7 8.092077176347915e6 0.0
0.0 0.0 0.0

-1.0347151776156077e7 -6.118583412743364e6 0.0
-6.118583412743364e6 3.0651454071084507e7 0.0
0.0 0.0 0.0

6.150887756555926e6 4.5240314345974205e6 0.0
4.5240314345974205e6 -2.0271603485652916e7 0.0
0.0 0.0 0.0

5.631193785458796e6 4.519495562497659e6 0.0
4.519495562497659e6 -1.676542217014515e7 0.0
0.0 0.0 0.0

-7.922894538854485e6 -9.810007838503271e6 0.0
-9.810007838503271e6 1.9692443543053873e7 0.0
0.0 0.0 0.0

-9.558036614145918e6 1.1485249838647947e7 0.0
1.1485249838647947e7 1.849520222518991e7 0.0
0.0 0.0 0.0

6.166890274231949e6 4.48123236415038e6 0.0
4.48123236415038e6 -1.9830487705750026e7 0.0
0.0 0.0 0.0

-1.0080210525420656e7 -6.735063766567782e6 0.0
-6.735063766567782e6 2.880272750133788e7 0.0
0.0 0.0 0.0

-6.362075954924952e6 1.2863263927523343e7 0.0
1.2863263927523343e7 9.258533005535038e6 0.0
0.0 0.0 0.0

-8.328865289257068e6 -5.301226071741212e6 0.0
-5.301226071741212e6 1.609697070416652e7 0.0
0.0 0.0 0.0

-8.623614391717453e6 -9.32931201235058e6 0.0
-9.32931201235058e6 2.1715967114023566e7 0.0
0.0 0.0 0.0

5.8152901295659365e6 4.473222264545574e6 0.0
4.473222264545574e6 -1.7247068370457176e7 0.0
0.0 0.0 0.0

6.094398182362132e6 4.5099243381388625e6 0.0
4.5099243381388625e6 -1.9308379076346178e7 0.0
0.0 0.0 0.0

-9.897114449603768e6 -7.183140801775269e6 0.0
-7.183140801775269e6 2.728493938676715e7 0.0
0.0 0.0 0.0

-1.5514257805278647e8 3.981440124236098e7 0.0
3.981440124236098e7 -1.1135918585737526e7 0.0
0.0 0.0 0.0

1.0480441150722553e8 1.777761724363648e7 0.0
1.777761724363648e7 512841.5708945021 0.0
0.0 0.0 0.0

-6.955992192476202e6 8.768812804854615e6 0.0
8.768812804854615e6 6.311232010181941e6 0.0
0.0 0.0 0.0

5.948382838853255e6 4.507310295829778e6 0.0
4.507310295829778e6 -1.880693344728749e7 0.0
0.0 0.0 0.0

-9.771171106859768e6 -7.429514638516133e6 0.0
-7.429514638516133e6 2.619430732911922e7 0.0
0.0 0.0 0.0

1.159683418123727e6 1.0229014352885379e7 0.0
1.0229014352885379e7 -3.038510673804318e6 0.0
0.0 0.0 0.0

-1.045107921556092e7 6.500919396632239e6 0.0
6.500919396632239e6 1.1997718229346532e7 0.0
0.0 0.0 0.0

-5.538452253292859e6 1.5996936417357609e7 0.0
1.5996936417357609e7 4.578699613088624e6 0.0
0.0 0.0 0.0

-3.760980043990038e6 1.3997937531472562e7 0.0
1.3997937531472562e7 8.55171963892928e6 0.0
0.0 0.0 0.0

-9.482802275482787e6 -7.755973277321464e6 0.0
-7.755973277321464e6 2.504829031351242e7 0.0
0.0 0.0 0.0

5.9849416477278145e6 4.474920074071089e6 0.0
4.474920074071089e6 -1.8518190207680594e7 0.0
0.0 0.0 0.0

-3.683375967454298e6 1.4970171951904872e7 0.0
1.4970171951904872e7 -1.749329819418441e6 0.0
0.0 0.0 0.0

-963263.684444881 1.2975790382617675e7 0.0
1.2975790382617675e7 -2.0374961953739237e7 0.0
0.0 0.0 0.0

-4.951456267345707e6 1.6302078877895758e7 0.0
1.6302078877895758e7 1.664160207910083e6 0.0
0.0 0.0 0.0

680351.9031082285 1.1269452038045432e7 0.0
1.1269452038045432e7 -8.333936018863324e6 0.0
0.0 0.0 0.0

1.3240075820566416e6 1.0922081954490451e7 0.0
1.0922081954490451e7 -1.2034469202122007e7 0.0
0.0 0.0 0.0

-1.0425526700620209e6 1.2935993452489987e7 0.0
1.2935993452489987e7 1.3155767702048256e6 0.0
0.0 0.0 0.0

-2.9515768238470913e6 1.543456583034305e7 0.0
1.543456583034305e7 -3.8128744118771246e6 0.0
0.0 0.0 0.0

-1.8647586258987235e6 1.416063029903476e7 0.0
1.416063029903476e7 -4.738058723381137e6 0.0
0.0 0.0 0.0

-240581.39727434516 1.1919461666834135e7 0.0
1.1919461666834135e7 -1.6807950422280077e7 0.0
0.0 0.0 0.0

-5.216784001470219e6 1.6457860212962462e7 0.0
1.6457860212962462e7 3.6566204197141933e6 0.0
0.0 0.0 0.0

-6.696500114717713e6 1.4245789611502187e7 0.0
1.4245789611502187e7 6.536741300431991e6 0.0
0.0 0.0 0.0

-3.732527771512068e6 1.605015259083429e7 0.0
1.605015259083429e7 -1.70703367071572e6 0.0
0.0 0.0 0.0

1.2285717601483339e6 1.1156766333846353e7 0.0
1.1156766333846353e7 -1.215651882245779e7 0.0
0.0 0.0 0.0

-7.790897553390298e6 6.523591967757263e6 0.0
6.523591967757263e6 8.221855877390919e6 0.0
0.0 0.0 0.0

-184874.72697024432 1.2410136987502363e7 0.0
1.2410136987502363e7 2.4705274103304325e6 0.0
0.0 0.0 0.0

-7.860585124298251e6 7.514403352186518e6 0.0
7.514403352186518e6 8.527943589022566e6 0.0
0.0 0.0 0.0

-2.435283046120144e6 1.1868221892250648e7 0.0
1.1868221892250648e7 -1.1742895731921403e6 0.0
0.0 0.0 0.0

-5.298187281408813e6 1.6335528583867181e7 0.0
1.6335528583867181e7 4.0034773381392234e6 0.0
0.0 0.0 0.0

1.0728635497354865e6 1.122745070688658e7 0.0
1.122745070688658e7 -1.4188141726164965e7 0.0
0.0 0.0 0.0

-5.509616933652686e6 1.3127542433287587e7 0.0
1.3127542433287587e7 8.580556638630329e6 0.0
0.0 0.0 0.0

-7.253675383438818e6 2.0479308091516037e7 0.0
2.0479308091516037e7 6.144893131691957e6 0.0
0.0 0.0 0.0

-3.0798507681970457e6 1.2007083076345658e7 0.0
1.2007083076345658e7 -1.3482257999461086e6 0.0
0.0 0.0 0.0

-4.231168673120838e6 1.5507608151132759e7 0.0
1.5507608151132759e7 -377345.0282395887 0.0
0.0 0.0 0.0

2.244713186200872e6 1.3297713039928438e7 0.0
1.3297713039928438e7 5.565580518401412e6 0.0
0.0 0.0 0.0

-5.429265437058102e6 1.6175847820824178e7 0.0
1.6175847820824178e7 4.26422409752618e6 0.0
0.0 0.0 0.0

-9.586384921301242e6 5.789481538207446e6 0.0
5.789481538207446e6 4.786691773370273e6 0.0
0.0 0.0 0.0

-5.553732552653545e6 1.7456848938826315e7 0.0
1.7456848938826315e7 4.343496012476435e6 0.0
0.0 0.0 0.0

4.554458741906747e6 5.363555569204238e6 0.0
5.363555569204238e6 -1.2015593667539567e7 0.0
0.0 0.0 0.0

4.547045120261443e6 5.453701232981752e6 0.0
5.453701232981752e6 -1.1767177321126897e7 0.0
0.0 0.0 0.0

-3.914709607402423e6 1.5272094630838089e7 0.0
1.5272094630838089e7 -916852.3983084583 0.0
0.0 0.0 0.0

-3.854746967762879e6 1.4268870846351666e7 0.0
1.4268870846351666e7 1.0634018229307465e7 0.0
0.0 0.0 0.0

-5.610312634524782e6 1.7888053448014934e7 0.0
1.7888053448014934e7 4.42126150971492e6 0.0
0.0 0.0 0.0

-1.219211043861612e7 4.130444848213179e6 0.0
4.130444848213179e6 1.4431369695034526e7 0.0
0.0 0.0 0.0

-6.413816465762958e6 1.9317885498161305e7 0.0
1.9317885498161305e7 5.452893469822122e6 0.0
0.0 0.0 0.0

-3.9110488835612643e6 1.3577317313688472e7 0.0
1.3577317313688472e7 5.085060436227415e6 0.0
0.0 0.0 0.0

-1.140821333105207e6 9.157128331523364e6 0.0
9.157128331523364e6 886190.0591827051 0.0
0.0 0.0 0.0

2.9648035882742517e6 9.408370643582495e6 0.0
9.408370643582495e6 -1.3288770195714314e7 0.0
0.0 0.0 0.0

-6.178709505454032e6 1.5938761415194713e7 0.0
1.5938761415194713e7 4.721089166791523e6 0.0
0.0 0.0 0.0

-5.797776951256507e6 -760908.388164125 0.0
-760908.388164125 6.9325496940890085e6 0.0
0.0 0.0 0.0

-1.0486704096899463e7 1.0602824301937118e7 0.0
1.0602824301937118e7 1.8994351630256023e7 0.0
0.0 0.0 0.0

323212.2486274829 1.1829822614379251e7 0.0
1.1829822614379251e7 -1.894946190604126e7 0.0
0.0 0.0 0.0

-1.1921036629914246e7 4.9820962649373235e6 0.0
4.9820962649373235e6 1.6413921403395358e7 0.0
0.0 0.0 0.0

-147076.57412836212 1.5862919720232349e7 0.0
1.5862919720232349e7 -4.531595242878728e6 0.0
0.0 0.0 0.0

2.47941093142096e6 9.619892151882943e6 0.0
9.619892151882943e6 -1.186481975216746e7 0.0
0.0 0.0 0.0

-3.206882595630598e6 1.1766292133423615e7 0.0
1.1766292133423615e7 -1.0729825961700906e6 0.0
0.0 0.0 0.0

-4.68635763064937e6 1.6063968195122287e7 0.0
1.6063968195122287e7 1.0023336764577965e6 0.0
0.0 0.0 0.0

1.0381749711954007e6 1.0227979119342608e7 0.0
1.0227979119342608e7 -5.134009381109353e6 0.0
0.0 0.0 0.0

-8.497756625351503e6 5.439587737972317e6 0.0
5.439587737972317e6 1.2073081653817406e7 0.0
0.0 0.0 0.0

-1.2024026552204981e7 6.437070224307835e6 0.0
6.437070224307835e6 1.6221548713778287e7 0.0
0.0 0.0 0.0

-4.464727654712391e6 1.5772754793768253e7 0.0
1.5772754793768253e7 316998.27696187026 0.0
0.0 0.0 0.0

-5.941285656749725e6 8.512453193403594e6 0.0
8.512453193403594e6 6.6697178275245875e6 0.0
0.0 0.0 0.0

5.37713478579848e6 5.615015828033408e6 0.0
5.615015828033408e6 -1.6637386919654787e7 0.0
0.0 0.0 0.0

-6.911342236155355e6 1.0345577645382227e7 0.0
1.0345577645382227e7 6.20366003964573e6 0.0
0.0 0.0 0.0

771169.7359350785 1.0853069165248303e7 0.0
1.0853069165248303e7 -7.792066741236307e6 0.0
0.0 0.0 0.0

778653.7595041827 1.0151261588904478e7 0.0
1.0151261588904478e7 -1.2468240957945571e6 0.0
0.0 0.0 0.0

-1.6700114023539e6 1.3508068835870279e7 0.0
1.3508068835870279e7 -3.9557413558916785e6 0.0
0.0 0.0 0.0

-2.1035738071011016e6 1.1958036426301291e7 0.0
1.1958036426301291e7 -3.2900898900669524e6 0.0
0.0 0.0 0.0

1.0391456845820881e6 1.1171335381383212e7 0.0
1.1171335381383212e7 -1.1378518591229264e7 0.0
0.0 0.0 0.0

3.5694283510019174e6 7.40041416259947e6 0.0
7.40041416259947e6 -1.3493193466323625e7 0.0
0.0 0.0 0.0

914357.4500594311 1.054218703021112e7 0.0
1.054218703021112e7 -6.560791431586502e6 0.0
0.0 0.0 0.0

2.0007771916922522e6 8.367119270896621e6 0.0
8.367119270896621e6 -9.910996072378987e6 0.0
0.0 0.0 0.0

3.871620234946116e6 5.577113278983181e6 0.0
5.577113278983181e6 -1.0502459934707444e7 0.0
0.0 0.0 0.0

-5.916618658092437e6 1.6289373851533458e7 0.0
1.6289373851533458e7 4.1157380914258575e6 0.0
0.0 0.0 0.0

-623216.8021576809 9.145204777328007e6 0.0
9.145204777328007e6 -4.815608886630094e6 0.0
0.0 0.0 0.0

-5.286098535254136e6 1.3283539053405095e7 0.0
1.3283539053405095e7 8.143772485107957e6 0.0
0.0 0.0 0.0

-594583.6537862208 1.3697903504837733e6 0.0
1.3697903504837733e6 632493.4164659483 0.0
0.0 0.0 0.0

1.9411578607470796e6 1.159611967009149e7 0.0
1.159611967009149e7 -1.5559572315705563e6 0.0
0.0 0.0 0.0

-2.6762698262424394e6 1.3196282085580328e7 0.0
1.3196282085580328e7 -1.7627187271621567e6 0.0
0.0 0.0 0.0

2.9204960105876722e6 7.445016930624391e6 0.0
7.445016930624391e6 -1.1523048742578717e7 0.0
0.0 0.0 0.0

-5.7655750721840374e7 9.007429995878559e6 0.0
9.007429995878559e6 1.2698541676222295e7 0.0
0.0 0.0 0.0

-7.314464530004362e6 1.2179277467361301e7 0.0
1.2179277467361301e7 1.0795215314202406e7 0.0
0.0 0.0 0.0

-401327.905852759 1.2631935142208187e7 0.0
1.2631935142208187e7 -7.220316300552511e6 0.0
0.0 0.0 0.0

-1.4182864019417681e6 1.1222827639657497e7 0.0
1.1222827639657497e7 -4.287948221352294e6 0.0
0.0 0.0 0.0

2.264147590016024e6 1.0253126408840258e7 0.0
1.0253126408840258e7 -1.2305015584688293e7 0.0
0.0 0.0 0.0

-1.136841649241838e6 1.2806889567193633e7 0.0
1.2806889567193633e7 2.9884743754240507e6 0.0
0.0 0.0 0.0

3.0106952190670036e6 9.694406937969595e6 0.0
9.694406937969595e6 -1.4781141588986162e7 0.0
0.0 0.0 0.0

-974998.102306077 1.2991734797113903e7 0.0
1.2991734797113903e7 3.7934199803061066e6 0.0
0.0 0.0 0.0

-286518.29924784927 1.1653878960165558e7 0.0
1.1653878960165558e7 -7.911663444882929e6 0.0
0.0 0.0 0.0

3.6654499975648755e6 7.440090212165463e6 0.0
7.440090212165463e6 -1.2200497704265188e7 0.0
0.0 0.0 0.0

5.680686690439692e6 4.891940328996382e6 0.0
4.891940328996382e6 -1.8393452124211222e7 0.0
0.0 0.0 0.0

-3.341125635796897e6 1.68591330394566e7 0.0
1.68591330394566e7 -2.6189423623420577e6 0.0
0.0 0.0 0.0

3.08252600151652e6 9.528914618442798e6 0.0
9.528914618442798e6 -1.4077947790098635e7 0.0
0.0 0.0 0.0

-6.278926300839448e6 1.7067788456371922e7 0.0
1.7067788456371922e7 6.434938155489882e6 0.0
0.0 0.0 0.0

-3.782362210468721e6 1.4154399952341741e7 0.0
1.4154399952341741e7 1.0663784239290669e6 0.0
0.0 0.0 0.0

1.9555500328687713e6 6.674632280307454e6 0.0
6.674632280307454e6 -6.990700095353244e6 0.0
0.0 0.0 0.0

-7.970722710254718e6 2.0917143087684967e7 0.0
2.0917143087684967e7 6.5032932731586015e6 0.0
0.0 0.0 0.0

3.110742329609268e6 7.80897945605096e6 0.0
7.80897945605096e6 -1.0924923396680392e7 0.0
0.0 0.0 0.0

-6.653381746495031e6 1.3259903657942252e7 0.0
1.3259903657942252e7 1.7086293257185727e7 0.0
0.0 0.0 0.0

-644877.2707156858 1.315622980094064e7 0.0
1.315622980094064e7 -282103.02654894174 0.0
0.0 0.0 0.0

-7.236683516772327e6 1.749113735968688e7 0.0
1.749113735968688e7 6.930480079652088e6 0.0
0.0 0.0 0.0

-6.875476903944442e6 7.138547119282988e6 0.0
7.138547119282988e6 9.11029879789567e6 0.0
0.0 0.0 0.0

1.833658444917243e6 1.0119007892627796e7 0.0
1.0119007892627796e7 -1.2350654501423525e7 0.0
0.0 0.0 0.0

-1.0908654405867956e6 8.013468716721776e6 0.0
8.013468716721776e6 -3.077679447317735e6 0.0
0.0 0.0 0.0

-1.7457432655780935e6 1.2305095447631817e7 0.0
1.2305095447631817e7 -2.7400530944493744e6 0.0
0.0 0.0 0.0

5.002512033391918e6 1.195486490989599e7 0.0
1.195486490989599e7 -2.5647920216613514e6 0.0
0.0 0.0 0.0

72071.17811292317 1.2715460921593716e7 0.0
1.2715460921593716e7 -8.395141113109672e6 0.0
0.0 0.0 0.0

863207.810788671 7.219149130324091e6 0.0
7.219149130324091e6 -4.674404616726183e6 0.0
0.0 0.0 0.0

1.4159984035231355e6 1.0642467411709173e7 0.0
1.0642467411709173e7 -1.1882854052708033e7 0.0
0.0 0.0 0.0

-6.5789775542704435e6 -4.402495521953903e6 0.0
-4.402495521953903e6 1.1441256946459958e7 0.0
0.0 0.0 0.0

-6.345988206426617e6 1.3834339192018583e7 0.0
1.3834339192018583e7 8.605622292660091e6 0.0
0.0 0.0 0.0

-1.0978340636071172e7 6.752618740430245e6 0.0
6.752618740430245e6 1.2753602982087292e7 0.0
0.0 0.0 0.0

-1.1409815303419255e7 1.5978532121406041e7 0.0
1.5978532121406041e7 5.441584138881615e6 0.0
0.0 0.0 0.0

-211038.5618669698 1.1843904380203497e7 0.0
1.1843904380203497e7 -1.6763981795370292e7 0.0
0.0 0.0 0.0

-6.2729323763510855e6 1.574559620339338e7 0.0
1.574559620339338e7 6.669998415375378e6 0.0
0.0 0.0 0.0

-6.291041958772829e6 1.6374616276564058e7 0.0
1.6374616276564058e7 6.628726047106868e6 0.0
0.0 0.0 0.0

-1.617633833614939e6 1.4512914732776616e7 0.0
1.4512914732776616e7 -5.760735530383839e6 0.0
0.0 0.0 0.0

1.0847119090582533e6 1.1198583395714974e7 0.0
1.1198583395714974e7 -1.7627949294213988e7 0.0
0.0 0.0 0.0

-4.814797949872995e6 1.2997572247306466e7 0.0
1.2997572247306466e7 7.793229118313564e6 0.0
0.0 0.0 0.0

-1.2249884318656433e7 122958.38963274827 0.0
122958.38963274827 2.2547479662780657e7 0.0
0.0 0.0 0.0

2.064674372446294e6 4.469868899526582e6 0.0
4.469868899526582e6 -6.346841583419582e6 0.0
0.0 0.0 0.0

784733.9148435988 1.166522100424041e7 0.0
1.166522100424041e7 -1.1697513967636926e7 0.0
0.0 0.0 0.0

-2.5282289862828464e6 1.505573160995951e7 0.0
1.505573160995951e7 -4.542088867287366e6 0.0
0.0 0.0 0.0

-2.7241243632736104e6 1.236362416585296e7 0.0
1.236362416585296e7 -773629.5335198285 0.0
0.0 0.0 0.0

-648992.6053506345 1.0686446229156258e7 0.0
1.0686446229156258e7 -5.536370451599142e6 0.0
0.0 0.0 0.0

-2.3829414813226433e6 1.1953598808462769e7 0.0
1.1953598808462769e7 -1.351405281120663e7 0.0
0.0 0.0 0.0

-1.2537477454451062e7 5.594426638172898e6 0.0
5.594426638172898e6 1.5140972455595102e7 0.0
0.0 0.0 0.0

-5.310000068632795e6 1.775257691439748e7 0.0
1.775257691439748e7 3.499188328780841e6 0.0
0.0 0.0 0.0

-1.668514157347851e7 1.3972722027482724e7 0.0
1.3972722027482724e7 9.103418765082687e6 0.0
0.0 0.0 0.0

2.0900756542631113e6 1.169742189089295e7 0.0
1.169742189089295e7 -1.4853843828862943e6 0.0
0.0 0.0 0.0

1.6928647201963514e6 6.536356163509237e6 0.0
6.536356163509237e6 -7.781047356531921e6 0.0
0.0 0.0 0.0

-2.8218007916493826e6 1.211315882580877e7 0.0
1.211315882580877e7 -512368.886376266 0.0
0.0 0.0 0.0

-1.2021316721926127e7 4.074447304014686e6 0.0
4.074447304014686e6 1.8028804025912438e7 0.0
0.0 0.0 0.0

-6.844674426678762e6 1.7837666167690035e7 0.0
1.7837666167690035e7 6.633358755169811e6 0.0
0.0 0.0 0.0

-5.50252811393391e6 1.2924353848399328e7 0.0
1.2924353848399328e7 8.597977382369256e6 0.0
0.0 0.0 0.0

-5.558731951778746e6 1.6656211941425657e7 0.0
1.6656211941425657e7 3.2162472529970333e6 0.0
0.0 0.0 0.0

66545.96903021773 1.1405438196355792e7 0.0
1.1405438196355792e7 -8.538299534021145e6 0.0
0.0 0.0 0.0

-1.260028187791877e7 5.708660023205662e6 0.0
5.708660023205662e6 1.721738304288432e7 0.0
0.0 0.0 0.0

384795.2943051127 1.2039478742033675e7 0.0
1.2039478742033675e7 -1.0360373685117096e7 0.0
0.0 0.0 0.0

-2.147669185886685e6 1.4298882248642676e7 0.0
1.4298882248642676e7 -1.1273260151970824e6 0.0
0.0 0.0 0.0

-5.459388702294506e6 1.799330772421877e7 0.0
1.799330772421877e7 3.6798984791429923e6 0.0
0.0 0.0 0.0

3.485919269902765e6 5.923271720129629e6 0.0
5.923271720129629e6 -1.049958074108519e7 0.0
0.0 0.0 0.0

199343.90311191045 1.389441016659206e7 0.0
1.389441016659206e7 -6.54164352444409e6 0.0
0.0 0.0 0.0

-6.173773505142648e6 1.5599719315183092e7 0.0
1.5599719315183092e7 6.2092277929592375e6 0.0
0.0 0.0 0.0

-7.308318109711671e6 6.299249261033696e6 0.0
6.299249261033696e6 1.0020830754127443e7 0.0
0.0 0.0 0.0

-2.234831404485439e6 1.53584731359899e7 0.0
1.53584731359899e7 -2.276193824504566e6 0.0
0.0 0.0 0.0

-1.2496571763099676e7 7.223064870207875e6 0.0
7.223064870207875e6 1.4533483091935355e7 0.0
0.0 0.0 0.0

-1.6887109643978782e6 3.9665957632237724e6 0.0
3.9665957632237724e6 4.553281365400312e6 0.0
0.0 0.0 0.0

-6.123860616628155e6 1.5178238146034315e7 0.0
1.5178238146034315e7 5.99881650383613e6 0.0
0.0 0.0 0.0

-1.1824971391765598e7 4.5652252782883225e6 0.0
4.5652252782883225e6 1.3553371627780944e7 0.0
0.0 0.0 0.0

-7.099736192494245e6 1.2641694441028988e7 0.0
1.2641694441028988e7 6.979190055143191e6 0.0
0.0 0.0 0.0

-1.2707617577407626e6 1.3934695592210336e7 0.0
1.3934695592210336e7 8.698489539796352e6 0.0
0.0 0.0 0.0

1.4363363967175512e6 1.0919353679372916e7 0.0
1.0919353679372916e7 -1.6394896902690222e7 0.0
0.0 0.0 0.0

-698339.5927343923 1.6740715471806931e6 0.0
1.6740715471806931e6 616090.8049769248 0.0
0.0 0.0 0.0

-1.3864357611465617e6 1.7158240484210294e7 0.0
1.7158240484210294e7 -4.083013821812635e6 0.0
0.0 0.0 0.0

-1.1679381936088076e7 4.2572410040133195e6 0.0
4.2572410040133195e6 1.6079872767060187e7 0.0
0.0 0.0 0.0

406701.468111611 9.605973277522082e6 0.0
9.605973277522082e6 -7.043474517222183e6 0.0
0.0 0.0 0.0

-3.9870405716228085e6 1.3146780021317773e7 0.0
1.3146780021317773e7 6.373318494203402e6 0.0
0.0 0.0 0.0

-1.4518188129851045e6 1.1826917006986175e7 0.0
1.1826917006986175e7 -3.092188526469326e6 0.0
0.0 0.0 0.0

-6.86188133189203e6 1.334941293299693e7 0.0
1.334941293299693e7 8.878767015611699e6 0.0
0.0 0.0 0.0

145603.27499397355 8.329692042512333e6 0.0
8.329692042512333e6 -4.710216360161237e6 0.0
0.0 0.0 0.0

-5.082857369015174e6 1.4846684237924982e7 0.0
1.4846684237924982e7 4.200021995372535e6 0.0
0.0 0.0 0.0

-7.16407991840745e6 1.283513902584903e7 0.0
1.283513902584903e7 7.557117591218602e6 0.0
0.0 0.0 0.0

-157713.69614270213 1.3877782376383876e7 0.0
1.3877782376383876e7 -6.7925514629489165e6 0.0
0.0 0.0 0.0

-6.406545217997156e6 1.5537539900476318e7 0.0
1.5537539900476318e7 5.440401778676717e6 0.0
0.0 0.0 0.0

-5.697673460392244e6 1.8241991288483627e7 0.0
1.8241991288483627e7 4.7147803056785315e6 0.0
0.0 0.0 0.0

1.4968724414383546e6 1.0911918409410354e7 0.0
1.0911918409410354e7 -1.4891347018505946e7 0.0
0.0 0.0 0.0

1.4917978860706335e6 4.0120144778158003e6 0.0
4.0120144778158003e6 -4.1935040482362485e6 0.0
0.0 0.0 0.0

-1.1471388998721933e6 4.525577941363651e6 0.0
4.525577941363651e6 -927398.9128487264 0.0
0.0 0.0 0.0

6.0517539390837895e6 5.67568888063285e6 0.0
5.67568888063285e6 -2.2430839002447467e7 0.0
0.0 0.0 0.0

-2.835660441612469e6 1.4470328602251045e7 0.0
1.4470328602251045e7 -2.0287239479678958e6 0.0
0.0 0.0 0.0

-6.166547141089991e6 1.2818961148027997e7 0.0
1.2818961148027997e7 9.346167758288745e6 0.0
0.0 0.0 0.0

-9.775847196503283e6 6.059090251702645e6 0.0
6.059090251702645e6 1.1043658603000289e7 0.0
0.0 0.0 0.0

-8.727097822353035e6 2.141000222012888e7 0.0
2.141000222012888e7 6.901377213600984e6 0.0
0.0 0.0 0.0

-1.2362740043456499e7 3.098316762077962e6 0.0
3.098316762077962e6 1.5699733298056398e7 0.0
0.0 0.0 0.0

5.049072876705771e6 3.389536982836171e7 0.0
3.389536982836171e7 -9.020300243700948e6 0.0
0.0 0.0 0.0

-1.8596562873464287e6 1.3674059012298364e7 0.0
1.3674059012298364e7 -5.764620438652834e6 0.0
0.0 0.0 0.0

1.270195256383163e6 1.0717831381505003e7 0.0
1.0717831381505003e7 -9.48708353552658e6 0.0
0.0 0.0 0.0

-5.374587320379725e6 1.3526846595872814e7 0.0
1.3526846595872814e7 7.68928366952396e6 0.0
0.0 0.0 0.0

-1.2759557991676424e7 4.923143254933983e6 0.0
4.923143254933983e6 1.6405013303810317e7 0.0
0.0 0.0 0.0

-2.365389637671612e6 1.4366340017000847e7 0.0
1.4366340017000847e7 -3.499743383859077e6 0.0
0.0 0.0 0.0

99429.6025848057 1.0280425141789539e7 0.0
1.0280425141789539e7 600958.4164382339 0.0
0.0 0.0 0.0

5.099913723772216e6 5.079806732537791e6 0.0
5.079806732537791e6 -1.5358530982948126e7 0.0
0.0 0.0 0.0

-2.753841372129919e6 6.679966093106108e6 0.0
6.679966093106108e6 1.9465331342286414e6 0.0
0.0 0.0 0.0

-1.0297785582415821e7 2.2692800677692853e7 0.0
2.2692800677692853e7 7.805396184338045e6 0.0
0.0 0.0 0.0

-7.287548729164388e6 1.24795361357325e7 0.0
1.24795361357325e7 9.958816329609187e6 0.0
0.0 0.0 0.0

576455.1709015067 1.1592186432690054e7 0.0
1.1592186432690054e7 -1.044646016007203e7 0.0
0.0 0.0 0.0

2.107719234842545e6 1.1618139542016445e7 0.0
1.1618139542016445e7 1.9214421915229328e6 0.0
0.0 0.0 0.0

-2.4587597946028607e6 4.964476279800117e6 0.0
4.964476279800117e6 856666.8032307157 0.0
0.0 0.0 0.0

-2.6635692446378334e6 7.75854309919496e6 0.0
7.75854309919496e6 -365427.8002105452 0.0
0.0 0.0 0.0

610552.1897955588 1.1097091765765619e7 0.0
1.1097091765765619e7 -8.878965594912544e6 0.0
0.0 0.0 0.0

-371430.7862835713 1.1263871233879916e7 0.0
1.1263871233879916e7 -5.341312061914536e6 0.0
0.0 0.0 0.0

-8.180686275098827e6 1.1556153814611394e7 0.0
1.1556153814611394e7 9.009329501022395e6 0.0
0.0 0.0 0.0

817507.5470240754 1.1526185132347269e7 0.0
1.1526185132347269e7 -1.2212915724948289e7 0.0
0.0 0.0 0.0

2.67666097792821e6 9.677268523629315e6 0.0
9.677268523629315e6 -1.2703381462803593e7 0.0
0.0 0.0 0.0

-6.277502715043675e6 1.5851553060618754e7 0.0
1.5851553060618754e7 6.9175298298663935e6 0.0
0.0 0.0 0.0

934668.5484712063 1.1795753917496182e7 0.0
1.1795753917496182e7 -1.0159053718038095e7 0.0
0.0 0.0 0.0

-9.99966539763688e6 6.148624767012187e6 0.0
6.148624767012187e6 1.3835442378027147e7 0.0
0.0 0.0 0.0

3.159497200805542e6 5.446705264136517e6 0.0
5.446705264136517e6 -8.644095244045516e6 0.0
0.0 0.0 0.0

-1.8431651143059794e7 1.9393833561613813e7 0.0
1.9393833561613813e7 3.2189220459567765e6 0.0
0.0 0.0 0.0

1.4700969038207582e6 6.239637143680394e6 0.0
6.239637143680394e6 -6.934234628550794e6 0.0
0.0 0.0 0.0

3.517924116148821e6 4.383240822827389e6 0.0
4.383240822827389e6 -8.975565141399689e6 0.0
0.0 0.0 0.0

-6.140326057291025e6 1.6314358474780954e7 0.0
1.6314358474780954e7 6.663684714226218e6 0.0
0.0 0.0 0.0

453331.6170804704 9.480014102118611e6 0.0
9.480014102118611e6 1.5111056883214863e6 0.0
0.0 0.0 0.0

2.1240611132209213e6 1.27416820319653e7 0.0
1.27416820319653e7 -4.545072219707371e6 0.0
0.0 0.0 0.0

-9.818774504093789e6 1.1680898536594244e7 0.0
1.1680898536594244e7 1.2510809174298594e7 0.0
0.0 0.0 0.0

-7.454306788813599e6 1.310157320914028e7 0.0
1.310157320914028e7 1.220360100398265e7 0.0
0.0 0.0 0.0

633211.0280730342 1.217221266478008e7 0.0
1.217221266478008e7 1.847257584467261e7 0.0
0.0 0.0 0.0

-122423.21688588941 1.2542656153196549e7 0.0
1.2542656153196549e7 -2.3670200720674684e6 0.0
0.0 0.0 0.0

-6.543533253834182e6 1.3450518343734574e7 0.0
1.3450518343734574e7 9.03616939654516e6 0.0
0.0 0.0 0.0

-6.670848854320092e6 1.0947607398904376e7 0.0
1.0947607398904376e7 5.630367659040519e6 0.0
0.0 0.0 0.0

507430.94516416406 1.1294830634869514e7 0.0
1.1294830634869514e7 -9.90833565280278e6 0.0
0.0 0.0 0.0

-6.49129412300131e6 1.5767775117308076e7 0.0
1.5767775117308076e7 5.939440651114347e6 0.0
0.0 0.0 0.0

-1.2589997826885613e7 4.820348067508641e6 0.0
4.820348067508641e6 1.5576665416236097e7 0.0
0.0 0.0 0.0

1.389609003665128e6 1.6204275756289428e7 0.0
1.6204275756289428e7 -5.266319585680975e6 0.0
0.0 0.0 0.0

-1.623522484888861e6 1.3812575187334292e7 0.0
1.3812575187334292e7 -4.996148404233261e6 0.0
0.0 0.0 0.0

3.327506044448889e6 6.725452675422914e6 0.0
6.725452675422914e6 -1.1492686842926413e7 0.0
0.0 0.0 0.0

-811434.548951544 1.4965813131836232e7 0.0
1.4965813131836232e7 -5.028398143816706e6 0.0
0.0 0.0 0.0

-4.54334188853535e6 1.6082209404896662e7 0.0
1.6082209404896662e7 2.0176270256828454e6 0.0
0.0 0.0 0.0

-1.3357964483275588e6 9.709687272066686e6 0.0
9.709687272066686e6 -4.452655275307935e6 0.0
0.0 0.0 0.0

4.513754703890451e6 1.5330499694031944e7 0.0
1.5330499694031944e7 1.5045858280428357e7 0.0
0.0 0.0 0.0

-1.0136766198023375e7 -6.585649933145954e6 0.0
-6.585649933145954e6 2.072526765885456e7 0.0
0.0 0.0 0.0

-570162.6151849134 1.1442203704285614e7 0.0
1.1442203704285614e7 2.2298945139517314e6 0.0
0.0 0.0 0.0

-6.998370707727944e6 -6.568286769989764e6 0.0
-6.568286769989764e6 1.2356674695518076e7 0.0
0.0 0.0 0.0

-4.336506553117555e6 1.6437751844203703e7 0.0
1.6437751844203703e7 1.1159970733049042e6 0.0
0.0 0.0 0.0

-2.915012047022395e6 1.637654653512542e7 0.0
1.637654653512542e7 -3.311307967821512e6 0.0
0.0 0.0 0.0

-9.47852833144299e6 2.1989977945246454e7 0.0
2.1989977945246454e7 7.112502432520298e6 0.0
0.0 0.0 0.0

-2.792280400140696e6 1.3257739697351256e7 0.0
1.3257739697351256e7 7.863785911521592e6 0.0
0.0 0.0 0.0

-1.1941896328945432e7 4.171798198960382e6 0.0
4.171798198960382e6 1.697649247921049e7 0.0
0.0 0.0 0.0

-4.600532610653377e6 1.6714354060966114e7 0.0
1.6714354060966114e7 1.8746931732301102e6 0.0
0.0 0.0 0.0

-7.16432829667406e6 1.3350184627229417e7 0.0
1.3350184627229417e7 7.138645239491561e6 0.0
0.0 0.0 0.0

-6.468071599999478e6 1.4886378390394418e7 0.0
1.4886378390394418e7 5.549815878697842e6 0.0
0.0 0.0 0.0

4.549012779196445e6 7.762140352505526e6 0.0
7.762140352505526e6 -1.76620614291274e7 0.0
0.0 0.0 0.0

-6.231177497268157e6 1.5852307510606814e7 0.0
1.5852307510606814e7 7.14006045430061e6 0.0
0.0 0.0 0.0

3.463937792117156e6 1.2231325363296835e7 0.0
1.2231325363296835e7 3.9294655732496297e6 0.0
0.0 0.0 0.0

2.176202880010903e6 9.920203525933653e6 0.0
9.920203525933653e6 -1.1259925436872475e7 0.0
0.0 0.0 0.0

-1.1647733485819962e7 -1.7099593234088842e6 0.0
-1.7099593234088842e6 3.4106099989212975e7 0.0
0.0 0.0 0.0

-5.35605817471419e6 1.726148057263776e7 0.0
1.726148057263776e7 3.90496316708479e6 0.0
0.0 0.0 0.0

538294.3851723727 1.1770475090856085e7 0.0
1.1770475090856085e7 1.8343838092444048e6 0.0
0.0 0.0 0.0

-4.936671247683857e7 4.231061129631678e7 0.0
4.231061129631678e7 -1.329806379369189e7 0.0
0.0 0.0 0.0

3.6890036180397477e6 5.516371978815152e6 0.0
5.516371978815152e6 -1.0262143584151853e7 0.0
0.0 0.0 0.0

-3.113253154337638e6 1.2607984920534369e7 0.0
1.2607984920534369e7 -106852.22893105599 0.0
0.0 0.0 0.0

-8.280693567368796e6 1.5606226072914835e7 0.0
1.5606226072914835e7 5.207572553757219e6 0.0
0.0 0.0 0.0

584394.1873313817 1.2651301273770062e7 0.0
1.2651301273770062e7 -8.95453120682779e6 0.0
0.0 0.0 0.0

-1.718315524906913e6 1.3680061006976802e7 0.0
1.3680061006976802e7 -6.313454333631714e6 0.0
0.0 0.0 0.0

3.988930831060124e6 1.2804478220514577e7 0.0
1.2804478220514577e7 -4.0422069694388662e6 0.0
0.0 0.0 0.0

-7.094392172386818e6 1.9267829839089032e7 0.0
1.9267829839089032e7 6.609876077979715e6 0.0
0.0 0.0 0.0

-2.116673080317766e6 1.424434374732487e7 0.0
1.424434374732487e7 -2.6107830969304927e6 0.0
0.0 0.0 0.0

5.505322323390812e6 5.866291997143783e6 0.0
5.866291997143783e6 -1.8059505577330552e7 0.0
0.0 0.0 0.0

-1.3117339593805958e7 1.732726092607409e7 0.0
1.732726092607409e7 526900.4480358912 0.0
0.0 0.0 0.0

-6.66775010795932e6 1.3063393149505062e7 0.0
1.3063393149505062e7 7.614847176594363e6 0.0
0.0 0.0 0.0

-2.5185768992984975e6 1.5903731282281661e7 0.0
1.5903731282281661e7 -3.933831460468403e6 0.0
0.0 0.0 0.0

-7.065200146035624e6 1.3101226143501632e7 0.0
1.3101226143501632e7 1.5838834851642448e7 0.0
0.0 0.0 0.0

4.0826967249755478e6 1.4360396061550029e7 0.0
1.4360396061550029e7 -6.487636295338642e6 0.0
0.0 0.0 0.0

-5.9386194527629595e6 1.49790540630805e7 0.0
1.49790540630805e7 7.392987049694572e6 0.0
0.0 0.0 0.0

-965475.2656549296 1.1625975369386302e7 0.0
1.1625975369386302e7 -5.781486981127073e6 0.0
0.0 0.0 0.0

-208315.49685310572 8.075389549703566e6 0.0
8.075389549703566e6 3.57265812495441e6 0.0
0.0 0.0 0.0

640896.9720796118 1.3738316193006158e7 0.0
1.3738316193006158e7 -6.235241506004125e6 0.0
0.0 0.0 0.0

-8.656360763416026e6 1.2069990727997206e7 0.0
1.2069990727997206e7 1.1183857638400137e7 0.0
0.0 0.0 0.0

-1.1503799757865101e7 2.054656604372367e6 0.0
2.054656604372367e6 3.6205970146538965e7 0.0
0.0 0.0 0.0

-1.118773114741303e7 -2.7491972797284178e6 0.0
-2.7491972797284178e6 3.8474472182849914e7 0.0
0.0 0.0 0.0

-1.6719992115142134e6 1.2601896250974316e7 0.0
1.2601896250974316e7 -4.907046282309262e6 0.0
0.0 0.0 0.0

341971.0017318269 1.31981208967936e7 0.0
1.31981208967936e7 -7.897714281713493e6 0.0
0.0 0.0 0.0

-1.5290367992545662e6 1.3722320308776297e7 0.0
1.3722320308776297e7 -6.677788945519354e6 0.0
0.0 0.0 0.0

-4.0890553384706676e6 1.48896334416759e7 0.0
1.48896334416759e7 -236182.75440795417 0.0
0.0 0.0 0.0

4.981293120274223e6 1.1937181619829543e7 0.0
1.1937181619829543e7 2.0782000174388834e6 0.0
0.0 0.0 0.0

-7.557477405331246e6 1.2477339466844913e7 0.0
1.2477339466844913e7 9.860362248139463e6 0.0
0.0 0.0 0.0

-1.1922874714833125e6 1.3705118974874062e7 0.0
1.3705118974874062e7 -7.037586987029425e6 0.0
0.0 0.0 0.0

-947601.2688012398 1.1156033983291088e7 0.0
1.1156033983291088e7 -5.247716062297893e6 0.0
0.0 0.0 0.0

-5.688860435475532e6 387985.6554861129 0.0
387985.6554861129 7.595205599501792e6 0.0
0.0 0.0 0.0

2.2570457754014665e6 1.0256359993844116e7 0.0
1.0256359993844116e7 -1.507292932144241e7 0.0
0.0 0.0 0.0

-9.624649727146719e6 -3.5990148321341486e6 0.0
-3.5990148321341486e6 1.4126009174597513e7 0.0
0.0 0.0 0.0

-2.865827504536047e6 -2.99862824894437e6 0.0
-2.99862824894437e6 6.78992628656091e6 0.0
0.0 0.0 0.0

-4.0426845403807512e6 -2.0591600173952028e6 0.0
-2.0591600173952028e6 7.3021825965294065e6 0.0
0.0 0.0 0.0

-2.3849469616923747e6 7.859830855381608e6 0.0
7.859830855381608e6 521957.52184320556 0.0
0.0 0.0 0.0

420721.5922398758 1.1135690626322547e7 0.0
1.1135690626322547e7 -9.174094166245548e6 0.0
0.0 0.0 0.0

2.7019801685288325e6 1.010800567056568e7 0.0
1.010800567056568e7 -1.4840379061447144e7 0.0
0.0 0.0 0.0

-316610.9479348146 1.3434638006343538e7 0.0
1.3434638006343538e7 -2.1810528030366725e6 0.0
0.0 0.0 0.0

-833673.9176153049 1.4244112807599444e7 0.0
1.4244112807599444e7 -6.029078641685807e6 0.0
0.0 0.0 0.0

2.4172187339237044e6 1.2336027539421517e7 0.0
1.2336027539421517e7 -3.216944886883838e6 0.0
0.0 0.0 0.0

-3.7593126585971913e6 1.5363224631529931e7 0.0
1.5363224631529931e7 127345.24182193517 0.0
0.0 0.0 0.0

1.825545519231981e7 1.4554907379176158e7 0.0
1.4554907379176158e7 1.1517466781917484e6 0.0
0.0 0.0 0.0

-1.9644547262804834e6 1.0367445939843938e7 0.0
1.0367445939843938e7 9.612570426057287e6 0.0
0.0 0.0 0.0

1.6354431884369648e6 1.3178131007515715e7 0.0
1.3178131007515715e7 -5.336296159530334e6 0.0
0.0 0.0 0.0

-1.8360958745846867e6 1.6368318220018623e7 0.0
1.6368318220018623e7 -3.3234339984061825e6 0.0
0.0 0.0 0.0

-5.075505185357185e6 1.711908947430477e7 0.0
1.711908947430477e7 3.0288847840124923e6 0.0
0.0 0.0 0.0

621848.1626061168 1.22079207381507e7 0.0
1.22079207381507e7 -9.717562016747184e6 0.0
0.0 0.0 0.0

-7.29508976775241e6 1.5068474072897017e7 0.0
1.5068474072897017e7 3.248395671319686e6 0.0
0.0 0.0 0.0

-6.24739387683096e6 1.6535182480212977e7 0.0
1.6535182480212977e7 6.56718985446808e6 0.0
0.0 0.0 0.0

4.667277689258188e6 5.237545386413331e6 0.0
5.237545386413331e6 -1.1305418960757181e7 0.0
0.0 0.0 0.0

-4.7895010249539055e6 1.5939875390735798e7 0.0
1.5939875390735798e7 1.309036313582345e6 0.0
0.0 0.0 0.0

-1.1972233099982293e7 2.3254004227311272e7 0.0
2.3254004227311272e7 8.148152485848724e6 0.0
0.0 0.0 0.0

-646889.2117642707 8.293358626517852e6 0.0
8.293358626517852e6 -4.991410560920564e6 0.0
0.0 0.0 0.0

2.382082010374426e6 9.951326627099613e6 0.0
9.951326627099613e6 -1.209281596709313e7 0.0
0.0 0.0 0.0

2.7663912628328893e6 9.886182598083712e6 0.0
9.886182598083712e6 -1.4256460353286183e7 0.0
0.0 0.0 0.0

2.1921876211430347e6 1.0572534759301994e7 0.0
1.0572534759301994e7 -1.4796707963894527e7 0.0
0.0 0.0 0.0

-3.153636518947601e6 2.1356003251314834e7 0.0
2.1356003251314834e7 -1.5380527190078872e6 0.0
0.0 0.0 0.0

-848966.9539640769 1.3586724979030194e7 0.0
1.3586724979030194e7 -7.396746395072321e6 0.0
0.0 0.0 0.0

-123642.93705463456 1.4333024658604138e7 0.0
1.4333024658604138e7 9.301573311617153e6 0.0
0.0 0.0 0.0

-1.7577141964310028e7 8.471542058644444e6 0.0
8.471542058644444e6 9.541132237629876e6 0.0
0.0 0.0 0.0

-3.2539976869475633e7 2.0286455305704832e7 0.0
2.0286455305704832e7 5.669690248249827e6 0.0
0.0 0.0 0.0

5.590854015646261e6 6.713042605443717e6 0.0
6.713042605443717e6 -2.178262796955795e7 0.0
0.0 0.0 0.0

1.060994384101207e6 1.3561462731391974e7 0.0
1.3561462731391974e7 -5.913583617177258e6 0.0
0.0 0.0 0.0

-1.7065869798679596e6 1.5526312770707885e7 0.0
1.5526312770707885e7 -4.610528577985066e6 0.0
0.0 0.0 0.0

4.457576661393562e6 5.016041572927707e6 0.0
5.016041572927707e6 -1.0875047691698482e7 0.0
0.0 0.0 0.0

-5.292521407844943e6 1.5202516510328716e7 0.0
1.5202516510328716e7 -196609.47714252933 0.0
0.0 0.0 0.0

-4.530692109085035e6 1.3394505076791395e7 0.0
1.3394505076791395e7 7.870417120935442e6 0.0
0.0 0.0 0.0

-3.179369516700538e6 1.255755814788751e7 0.0
1.255755814788751e7 1.136238488660139e7 0.0
0.0 0.0 0.0

-2.4056991688975673e6 558672.1727887122 0.0
558672.1727887122 3.448172962550831e6 0.0
0.0 0.0 0.0

1.4533226119070966e6 1.1307747031142145e7 0.0
1.1307747031142145e7 -1.1416025790070567e7 0.0
0.0 0.0 0.0

2.2963504906665934e6 8.061926905614874e6 0.0
8.061926905614874e6 -1.046472890430493e7 0.0
0.0 0.0 0.0

838684.3209742007 6.988623339452377e6 0.0
6.988623339452377e6 -4.344879407069763e6 0.0
0.0 0.0 0.0

-2.6922687324757227e6 995023.0811613434 0.0
995023.0811613434 2.108833089226079e6 0.0
0.0 0.0 0.0

-4.61941701604981e6 1.38353848889839e7 0.0
1.38353848889839e7 4.23510054225999e7 0.0
0.0 0.0 0.0

-1.2183992383853812e7 -911492.9388700852 0.0
-911492.9388700852 2.1811339240526065e7 0.0
0.0 0.0 0.0

-4.508501148526942e6 1.7903751705022383e7 0.0
1.7903751705022383e7 1.3477654996740445e6 0.0
0.0 0.0 0.0

-3.189631938505703e6 1.2356006979561852e7 0.0
1.2356006979561852e7 181681.94149458944 0.0
0.0 0.0 0.0

539770.1474975613 1.0640763174490087e7 0.0
1.0640763174490087e7 -8.166940310116359e6 0.0
0.0 0.0 0.0

-1.7986450047712177e6 1.5200438995641189e7 0.0
1.5200438995641189e7 -4.338700867135367e6 0.0
0.0 0.0 0.0

-6.440975309346702e6 1.594366134233823e7 0.0
1.594366134233823e7 6.34844836335215e6 0.0
0.0 0.0 0.0

-6.389114845457395e6 2.3860044383463796e7 0.0
2.3860044383463796e7 2.002210148184868e6 0.0
0.0 0.0 0.0

2.565189738327526e6 5.086619720091916e6 0.0
5.086619720091916e6 -7.351367115190404e6 0.0
0.0 0.0 0.0

-6.473551908455608e6 -72281.61535890315 0.0
-72281.61535890315 6.643081541972971e6 0.0
0.0 0.0 0.0

-446924.7964279352 1.270337928575911e7 0.0
1.270337928575911e7 -412525.71061276644 0.0
0.0 0.0 0.0

-6.926891482062181e6 1.6516436429493712e7 0.0
1.6516436429493712e7 6.244170366525205e6 0.0
0.0 0.0 0.0

-5.731465309007107e6 1.3442078743147947e7 0.0
1.3442078743147947e7 9.608202011764966e6 0.0
0.0 0.0 0.0

-1.078042319142439e7 5.335125242991667e6 0.0
5.335125242991667e6 1.4601329541568436e7 0.0
0.0 0.0 0.0

1.9792818701920584e6 1.0522678360496636e7 0.0
1.0522678360496636e7 -1.1708143902199268e7 0.0
0.0 0.0 0.0

-9.236743585056134e7 1.493675228811533e7 0.0
1.493675228811533e7 3.123406082009837e6 0.0
0.0 0.0 0.0

-1.1445063247473612e7 4.300236179991913e6 0.0
4.300236179991913e6 1.516545120185986e7 0.0
0.0 0.0 0.0

-6.66086586800291e6 1.6634576497959426e7 0.0
1.6634576497959426e7 6.3545827944386415e6 0.0
0.0 0.0 0.0

930865.3943469236 1.1998133626617426e7 0.0
1.1998133626617426e7 -1.0314646045751886e7 0.0
0.0 0.0 0.0

1.471507403237613e6 1.0944297107741382e7 0.0
1.0944297107741382e7 -1.4531537180600781e7 0.0
0.0 0.0 0.0

-6.478108840668075e6 2.2800386928136736e7 0.0
2.2800386928136736e7 2.880780262724024e6 0.0
0.0 0.0 0.0

1.0976963632097337e6 1.1232878091035772e7 0.0
1.1232878091035772e7 -1.3630550541095998e7 0.0
0.0 0.0 0.0

-415366.2518372885 1.3365301514940776e7 0.0
1.3365301514940776e7 -7.571510350553014e6 0.0
0.0 0.0 0.0

-327577.6735097134 1.2777332070574705e7 0.0
1.2777332070574705e7 272378.9340535569 0.0
0.0 0.0 0.0

-5.823142678875096e6 1.959723104671088e7 0.0
1.959723104671088e7 4.088686047649075e6 0.0
0.0 0.0 0.0

-7.17331797423634e6 1.6248194930415448e7 0.0
1.6248194930415448e7 5.891739102612499e6 0.0
0.0 0.0 0.0

1.5730521752910363e6 1.1063364832601186e7 0.0
1.1063364832601186e7 -1.1227279841723183e7 0.0
0.0 0.0 0.0

-1.1806250819892036e6 1.323727905882577e7 0.0
1.323727905882577e7 -6.23039033182062e6 0.0
0.0 0.0 0.0

-5.688753419756706e6 1.5486547207983505e7 0.0
1.5486547207983505e7 3.5190625221278234e6 0.0
0.0 0.0 0.0

-6.440070864178874e6 1.664035610260239e7 0.0
1.664035610260239e7 6.451894935370447e6 0.0
0.0 0.0 0.0

-5.125401540308355e6 -8.371120048988851e6 0.0
-8.371120048988851e6 1.2924249677316358e7 0.0
0.0 0.0 0.0

-7.820850040691255e6 1.1394538900868349e7 0.0
1.1394538900868349e7 1.0257981832131775e7 0.0
0.0 0.0 0.0

793874.4663300365 1.1411413101184936e7 0.0
1.1411413101184936e7 -1.2738431222617112e7 0.0
0.0 0.0 0.0

6.706170707177967e6 1.1930913533447945e7 0.0
1.1930913533447945e7 -3.508427336570425e6 0.0
0.0 0.0 0.0

1.3240549539691927e6 1.1485910350448726e7 0.0
1.1485910350448726e7 -1.1573008787428765e7 0.0
0.0 0.0 0.0

801722.8435643294 1.0836999706016645e7 0.0
1.0836999706016645e7 -4.166707198668104e6 0.0
0.0 0.0 0.0

-1.1765280847509854e7 3.2106909987581642e6 0.0
3.2106909987581642e6 1.767240721789471e7 0.0
0.0 0.0 0.0

-5.079024045250569e6 1.4211092048900736e7 0.0
1.4211092048900736e7 -274312.46113424096 0.0
0.0 0.0 0.0

745237.7392782504 9.995676571236119e6 0.0
9.995676571236119e6 -5.615358218889585e6 0.0
0.0 0.0 0.0

753769.9717583903 1.2665891089443915e7 0.0
1.2665891089443915e7 -8.337283886267325e6 0.0
0.0 0.0 0.0

-1.6739039790916804e7 2.4350418018671665e7 0.0
2.4350418018671665e7 9.79263683107647e6 0.0
0.0 0.0 0.0

-3.0630763956840582e7 6.903578926553458e6 0.0
6.903578926553458e6 1.0487201535668308e7 0.0
0.0 0.0 0.0

-5.093227623733441e6 1.8473180305287015e7 0.0
1.8473180305287015e7 889025.0602288174 0.0
0.0 0.0 0.0

-1.3873081065600429e7 2.3847971372991707e7 0.0
2.3847971372991707e7 9.122445664299943e6 0.0
0.0 0.0 0.0

296380.03225656925 2.9251072940406356e7 0.0
2.9251072940406356e7 -2.6206076117593697e6 0.0
0.0 0.0 0.0

1.739198837869539e6 1.0761148752079654e7 0.0
1.0761148752079654e7 -1.4223196044805005e7 0.0
0.0 0.0 0.0

-2.9137515466414127e6 1.1875613714562785e7 0.0
1.1875613714562785e7 -1.285231482346883e7 0.0
0.0 0.0 0.0

-5.7922101521440055e6 1.5654386918666672e7 0.0
1.5654386918666672e7 6.71924496457541e6 0.0
0.0 0.0 0.0

-1.2414396591600174e7 4.92754384426842e6 0.0
4.92754384426842e6 1.4767212886383787e7 0.0
0.0 0.0 0.0

-6.411156853930699e6 1.462988348863786e7 0.0
1.462988348863786e7 2.593322529744642e6 0.0
0.0 0.0 0.0

-1.5624477362871768e6 1.0507160907046478e7 0.0
1.0507160907046478e7 3.102129197671751e6 0.0
0.0 0.0 0.0

-1.037975771471547e6 1.1966425120285e7 0.0
1.1966425120285e7 -4.434787791657142e6 0.0
0.0 0.0 0.0

-6.398313096539294e6 2.4963731141376518e7 0.0
2.4963731141376518e7 788545.5300238319 0.0
0.0 0.0 0.0

-2.0262856145039895e6 1.4884699600077385e7 0.0
1.4884699600077385e7 -5.153364308997129e6 0.0
0.0 0.0 0.0

1.5424753413832537e6 1.2105388064555468e7 0.0
1.2105388064555468e7 -4.939899093459245e6 0.0
0.0 0.0 0.0

5.495141821510152e6 4.609675693974233e6 0.0
4.609675693974233e6 -1.5870240359727511e7 0.0
0.0 0.0 0.0

-6.369740567728309e6 1.6022835953569606e7 0.0
1.6022835953569606e7 6.63518073713787e6 0.0
0.0 0.0 0.0

-4.02887079569011e6 1.1731284367046438e7 0.0
1.1731284367046438e7 2.16938448819793e6 0.0
0.0 0.0 0.0

1.3429162355729043e6 9.066271523512956e6 0.0
9.066271523512956e6 -7.272134632934146e6 0.0
0.0 0.0 0.0

1.6161651287965216e6 1.096957943060272e7 0.0
1.096957943060272e7 -1.457764360604792e7 0.0
0.0 0.0 0.0

-4.80165876911047e6 1.3403945899466299e7 0.0
1.3403945899466299e7 7.60059841816712e6 0.0
0.0 0.0 0.0

-7.375893156972068e6 1.3142170105687723e7 0.0
1.3142170105687723e7 1.1529709581458164e7 0.0
0.0 0.0 0.0

-813042.6552179764 1.1963495202140411e7 0.0
1.1963495202140411e7 -2.8035974426299687e6 0.0
0.0 0.0 0.0

-967400.1299587415 1.5932111265578516e7 0.0
1.5932111265578516e7 -4.244835356277941e6 0.0
0.0 0.0 0.0

-6.3461922857474275e6 1.5565508663940664e7 0.0
1.5565508663940664e7 7.16258781568571e6 0.0
0.0 0.0 0.0

-1.1416853697538367e7 -2.26168291682158e6 0.0
-2.26168291682158e6 2.973618551065853e7 0.0
0.0 0.0 0.0

-2.3365936470473134e6 8.211523255400369e6 0.0
8.211523255400369e6 308598.69697239297 0.0
0.0 0.0 0.0

-185433.6744594362 1.2573739892170666e7 0.0
1.2573739892170666e7 -3.0411341506408937e6 0.0
0.0 0.0 0.0

-6.245071916048555e6 1.612831142329634e7 0.0
1.612831142329634e7 6.610220897877348e6 0.0
0.0 0.0 0.0

-6.982651317939557e6 1.3474386093946574e7 0.0
1.3474386093946574e7 8.55759626366115e6 0.0
0.0 0.0 0.0

2.1008853204873083e6 9.323335514673986e6 0.0
9.323335514673986e6 -9.850110030716317e6 0.0
0.0 0.0 0.0

-5.3499669025316965e6 1.6786683788015395e7 0.0
1.6786683788015395e7 3.9050125053422563e6 0.0
0.0 0.0 0.0

-5.973068705421761e6 2.0371883196907364e7 0.0
2.0371883196907364e7 3.979867581470438e6 0.0
0.0 0.0 0.0

-5.221616270688949e6 1.3751283129377728e7 0.0
1.3751283129377728e7 3.9443158925210014e6 0.0
0.0 0.0 0.0

1.7788081327875745e6 1.0487366962853596e7 0.0
1.0487366962853596e7 -1.085702847461486e7 0.0
0.0 0.0 0.0

-5.349952022434566e6 1.688180263043858e7 0.0
1.688180263043858e7 2.653732335521673e6 0.0
0.0 0.0 0.0

-2.811484540015306e6 1.5700696974678528e7 0.0
1.5700696974678528e7 -3.8170142644523503e6 0.0
0.0 0.0 0.0

-4.445739164270329e6 1.4060802926352309e7 0.0
1.4060802926352309e7 1.0485473204449665e7 0.0
0.0 0.0 0.0

-5.524436573056322e6 1.3441983291938176e7 0.0
1.3441983291938176e7 4.508079541373815e6 0.0
0.0 0.0 0.0

-6.42775422396558e6 1.688798396227986e7 0.0
1.688798396227986e7 6.167554127756009e6 0.0
0.0 0.0 0.0

-1.0123573854549501e7 -5.533074909110839e6 0.0
-5.533074909110839e6 2.1031691196752243e7 0.0
0.0 0.0 0.0

-5.84862311960835e6 1.993904877146303e7 0.0
1.993904877146303e7 4.0969357242176025e6 0.0
0.0 0.0 0.0

5.406612328641386e6 4.673093170241864e6 0.0
4.673093170241864e6 -1.5537890283194017e7 0.0
0.0 0.0 0.0

-4.444067575173314e6 1.586711988186739e7 0.0
1.586711988186739e7 -16146.09977523447 0.0
0.0 0.0 0.0

-7.681256359808159e6 -7.24934300017344e6 0.0
-7.24934300017344e6 1.6050830088767102e7 0.0
0.0 0.0 0.0

380255.51960605243 9.347910845308471e6 0.0
9.347910845308471e6 -4.485693933378832e6 0.0
0.0 0.0 0.0

-5.857459937912527e6 1.5455701101670599e7 0.0
1.5455701101670599e7 4.0880007665399713e6 0.0
0.0 0.0 0.0

-696666.7007307985 1.3853917341232592e7 0.0
1.3853917341232592e7 -1.738926489931158e6 0.0
0.0 0.0 0.0

-1.0392485257553634e6 1.4116304562092807e7 0.0
1.4116304562092807e7 -1.8088827197502095e6 0.0
0.0 0.0 0.0

617428.9057802749 1.2007277411968645e7 0.0
1.2007277411968645e7 -1.044338657885676e7 0.0
0.0 0.0 0.0

-1.253554353058312e7 6.348037082666702e6 0.0
6.348037082666702e6 1.5165396806863505e7 0.0
0.0 0.0 0.0

-2.4020334732171856e6 1.105932657906759e7 0.0
1.105932657906759e7 4.929553261619642e6 0.0
0.0 0.0 0.0

3.815177102014601e6 7.462730365226878e6 0.0
7.462730365226878e6 -1.2683348706588328e7 0.0
0.0 0.0 0.0

-1.8515435185611858e6 1.4344350766520666e7 0.0
1.4344350766520666e7 8.799833467396628e6 0.0
0.0 0.0 0.0

-1.8120714483151026e6 1.4114332735892719e7 0.0
1.4114332735892719e7 -2.214501782407813e7 0.0
0.0 0.0 0.0

-6.791306395571485e6 1.257334328928732e7 0.0
1.257334328928732e7 8.041837597191544e6 0.0
0.0 0.0 0.0

-5.628612381472321e6 1.70034478912833e7 0.0
1.70034478912833e7 3.5159959213843755e6 0.0
0.0 0.0 0.0

-4.73909853249205e6 1.3211834172662053e7 0.0
1.3211834172662053e7 1.7799333496427718e6 0.0
0.0 0.0 0.0

-1.4170529485003557e6 1.3922517010358583e7 0.0
1.3922517010358583e7 -5.377944210241516e6 0.0
0.0 0.0 0.0

487997.7150789045 1.3135648772559335e7 0.0
1.3135648772559335e7 -6.213418355060516e6 0.0
0.0 0.0 0.0

-6.194943894606875e6 1.6051985856879538e7 0.0
1.6051985856879538e7 6.78308692719452e6 0.0
0.0 0.0 0.0

-5.533906064344609e6 1.3364438976834133e7 0.0
1.3364438976834133e7 8.267391205292171e6 0.0
0.0 0.0 0.0

-7.5326711748494e6 1.3029580050039189e7 0.0
1.3029580050039189e7 1.1366443693711339e7 0.0
0.0 0.0 0.0

-625172.7578203287 1.119715775863948e7 0.0
1.119715775863948e7 -1.0249675102865655e7 0.0
0.0 0.0 0.0

719256.1936045336 1.0877632493349044e7 0.0
1.0877632493349044e7 -9.727870447910322e6 0.0
0.0 0.0 0.0

-4.045997522693803e6 1.3415333139517369e7 0.0
1.3415333139517369e7 6.753121686903825e6 0.0
0.0 0.0 0.0

3.794523503053046e6 8.5436270088506e6 0.0
8.5436270088506e6 -1.6897394433023486e7 0.0
0.0 0.0 0.0

-1.4269171939914427e6 1.3368932624992589e7 0.0
1.3368932624992589e7 -3.7782503497634716e6 0.0
0.0 0.0 0.0

-6.118483499263562e6 2.0935317068597108e7 0.0
2.0935317068597108e7 3.955430341593566e6 0.0
0.0 0.0 0.0

-2.137080031093643e6 1.3748185872950036e7 0.0
1.3748185872950036e7 6.721335412069313e6 0.0
0.0 0.0 0.0

1.0743000155926276e7 1.8127130257443447e7 0.0
1.8127130257443447e7 3.580998054242659e7 0.0
0.0 0.0 0.0

-7.405381569674816e6 1.6235256834513957e7 0.0
1.6235256834513957e7 -2.4684591189115748e7 0.0
0.0 0.0 0.0

-4.367484250894119e6 1.1643016015947865e7 0.0
1.1643016015947865e7 1.0536700557699606e6 0.0
0.0 0.0 0.0

-1.987258211891161e7 1.73657513747503e7 0.0
1.73657513747503e7 1.2668155245853052e7 0.0
0.0 0.0 0.0

-4.059521375973686e6 1.48467284610368e7 0.0
1.48467284610368e7 -344070.51814632805 0.0
0.0 0.0 0.0

-3.245641643749307e6 1.357681844930691e7 0.0
1.357681844930691e7 5.4054346843004385e6 0.0
0.0 0.0 0.0

-3.097195452675451e6 1.4002518262546532e7 0.0
1.4002518262546532e7 8.245804350331996e6 0.0
0.0 0.0 0.0

-381269.3053127257 1.5112955215174137e7 0.0
1.5112955215174137e7 1.7128844500441287e7 0.0
0.0 0.0 0.0

1.0329684084184387e6 1.2049756579804735e7 0.0
1.2049756579804735e7 3.9767115053622355e6 0.0
0.0 0.0 0.0

999361.5028333478 1.3092810912498545e7 0.0
1.3092810912498545e7 6.6815742250300255e6 0.0
0.0 0.0 0.0

-2.0878123044126446e6 1.602120487951901e7 0.0
1.602120487951901e7 -4.1164113201007247e6 0.0
0.0 0.0 0.0

-2.1844004756211815e6 1.323000293390061e7 0.0
1.323000293390061e7 4.879792859519571e6 0.0
0.0 0.0 0.0

-4.022793892264016e6 1.3115173350185676e7 0.0
1.3115173350185676e7 6.939194388407284e6 0.0
0.0 0.0 0.0

-4.731969793833645e6 1.9098774677428253e7 0.0
1.9098774677428253e7 2.117567757722068e6 0.0
0.0 0.0 0.0

-1.9538737243131548e6 1.2290846461603463e7 0.0
1.2290846461603463e7 6.47952601292363e6 0.0
0.0 0.0 0.0

4.790222473432766e6 5.145363466641602e6 0.0
5.145363466641602e6 -1.304496837766061e7 0.0
0.0 0.0 0.0

-8.29743818036419e6 8.758494969172256e6 0.0
8.758494969172256e6 9.714053734248955e6 0.0
0.0 0.0 0.0

-4.7452783388811005e6 -8.903478341886142e6 0.0
-8.903478341886142e6 1.2959472626305234e7 0.0
0.0 0.0 0.0

-6.708354616284064e6 1.2846856077094013e7 0.0
1.2846856077094013e7 9.38000873174976e6 0.0
0.0 0.0 0.0

-4.870598806071794e6 1.74056640611434e7 0.0
1.74056640611434e7 2.463682060454691e6 0.0
0.0 0.0 0.0

1.2348131259249612e6 1.5210089383709965e7 0.0
1.5210089383709965e7 7.626152240320859e6 0.0
0.0 0.0 0.0

-330710.894747993 1.3172698993471006e7 0.0
1.3172698993471006e7 5.129450884653432e6 0.0
0.0 0.0 0.0

-6.191982181056738e6 1.6759498243214985e7 0.0
1.6759498243214985e7 6.388132017779865e6 0.0
0.0 0.0 0.0

3.506974255762278e6 5.100958445036347e6 0.0
5.100958445036347e6 -8.927375705845429e6 0.0
0.0 0.0 0.0

-4.673535625707083e6 1.6156528371514352e7 0.0
1.6156528371514352e7 715890.2237096194 0.0
0.0 0.0 0.0

2.8084314613953596e6 8.391983578389294e6 0.0
8.391983578389294e6 -1.0576021159944842e7 0.0
0.0 0.0 0.0

-6.847767213065346e6 1.60893583206002e7 0.0
1.60893583206002e7 5.945051819177795e6 0.0
0.0 0.0 0.0

-2.928475025348088e6 1.7097252590426378e7 0.0
1.7097252590426378e7 -2.9517180956908204e6 0.0
0.0 0.0 0.0

-4.666947711126454e6 1.4257359921373045e7 0.0
1.4257359921373045e7 883139.4532909419 0.0
0.0 0.0 0.0

6.344213725585892e6 4.511153101018019e6 0.0
4.511153101018019e6 -2.0961193940446656e7 0.0
0.0 0.0 0.0

2.3459887145037777e6 1.212936079703664e7 0.0
1.212936079703664e7 -1.4643368970918073e6 0.0
0.0 0.0 0.0

-4.0699077434004606e6 1.685413072176278e7 0.0
1.685413072176278e7 425313.83763675555 0.0
0.0 0.0 0.0

-2.844161056753412e6 1.50562123386031e7 0.0
1.50562123386031e7 -2.4938283502769205e6 0.0
0.0 0.0 0.0

422006.99216535175 1.1315507981321422e7 0.0
1.1315507981321422e7 -8.549308609683258e6 0.0
0.0 0.0 0.0

4.254745477424688e6 5.910735997880792e6 0.0
5.910735997880792e6 -1.248115347424412e7 0.0
0.0 0.0 0.0

-6.213199190284543e6 1.4240532983108e7 0.0
1.4240532983108e7 4.764687859122081e6 0.0
0.0 0.0 0.0

2.5191526700467337e6 9.888743259790417e6 0.0
9.888743259790417e6 -1.5083164251321288e7 0.0
0.0 0.0 0.0

-7.1163013598746e6 -9.635432624423757e6 0.0
-9.635432624423757e6 1.5983803189005628e7 0.0
0.0 0.0 0.0

-7.531625527763069e6 1.1931608329209002e7 0.0
1.1931608329209002e7 9.650096884014826e6 0.0
0.0 0.0 0.0

-8.952283888470368e6 1.5180576388928493e7 0.0
1.5180576388928493e7 4.310140633618551e6 0.0
0.0 0.0 0.0

6.092017617298119e6 6.734865836394386e6 0.0
6.734865836394386e6 -2.9955461843656793e7 0.0
0.0 0.0 0.0

-1.0523332762248646e7 1.0662692610636402e7 0.0
1.0662692610636402e7 1.738448123215637e7 0.0
0.0 0.0 0.0

-4.0163691527070953e6 1.381966984039494e7 0.0
1.381966984039494e7 8.477036774226997e6 0.0
0.0 0.0 0.0

-7.458453652753142e6 1.2942604316854065e7 0.0
1.2942604316854065e7 1.3310233602707418e7 0.0
0.0 0.0 0.0

-3.6337916183827017e6 1.2531101987893745e7 0.0
1.2531101987893745e7 846942.8676914724 0.0
0.0 0.0 0.0

-7.365450743703352e6 1.2196186863550916e7 0.0
1.2196186863550916e7 7.447257514529826e6 0.0
0.0 0.0 0.0

531401.656166784 1.1078540330953319e7 0.0
1.1078540330953319e7 -7.447680572327341e6 0.0
0.0 0.0 0.0

1.0201796806829157e6 1.0606118918799097e7 0.0
1.0606118918799097e7 -1.0285097736743739e7 0.0
0.0 0.0 0.0

4.226029386259799e6 8.405862867164295e6 0.0
8.405862867164295e6 -1.9607336469401155e7 0.0
0.0 0.0 0.0

-5.545634895298519e6 -9.187346990511088e6 0.0
-9.187346990511088e6 1.4493353347113397e7 0.0
0.0 0.0 0.0

-9.366584183881022e6 -8.648068009105014e6 0.0
-8.648068009105014e6 2.2413988020645678e7 0.0
0.0 0.0 0.0

-4.1913925734502785e6 1.4876398606374975e7 0.0
1.4876398606374975e7 1.8615353028689807e6 0.0
0.0 0.0 0.0

-1.2625061776396725e6 1.3967536441331988e7 0.0
1.3967536441331988e7 -5.853571285129179e6 0.0
0.0 0.0 0.0

-6.406752550160515e6 1.342298876347332e7 0.0
1.342298876347332e7 1.6298243733574029e7 0.0
0.0 0.0 0.0

584373.0413311925 1.0823095682303967e7 0.0
1.0823095682303967e7 -6.130848957668982e6 0.0
0.0 0.0 0.0

-1.0933295945110433e6 1.5472258898886252e7 0.0
1.5472258898886252e7 -4.715262879056132e6 0.0
0.0 0.0 0.0

-6.516806721087288e6 1.5319632383944904e7 0.0
1.5319632383944904e7 5.7783535884829275e6 0.0
0.0 0.0 0.0

-6.047614350061074e6 -331565.58778578957 0.0
-331565.58778578957 7.616209892865537e6 0.0
0.0 0.0 0.0

-4.495945671845153e6 2.651665780192164e7 0.0
2.651665780192164e7 -925979.4816519038 0.0
0.0 0.0 0.0

717631.6310885712 1.2238573955988975e7 0.0
1.2238573955988975e7 -7.096881445432249e6 0.0
0.0 0.0 0.0

-300540.4547862988 1.2404180219400896e7 0.0
1.2404180219400896e7 -1.9720618108533327e7 0.0
0.0 0.0 0.0

5.296700242537882e6 5.127796085662005e6 0.0
5.127796085662005e6 -1.4705005578243509e7 0.0
0.0 0.0 0.0

-234576.56189107674 1.2831317961649671e7 0.0
1.2831317961649671e7 -2.887292600599916e6 0.0
0.0 0.0 0.0

-8.1095253630561875e6 1.0875533805163868e7 0.0
1.0875533805163868e7 1.0820491758045593e7 0.0
0.0 0.0 0.0

-1.7517714809418045e7 8.323241659477936e6 0.0
8.323241659477936e6 1.0363571642923037e7 0.0
0.0 0.0 0.0

-1.6058809127676184e6 1.4763114062079929e7 0.0
1.4763114062079929e7 -1.8809694914711826e6 0.0
0.0 0.0 0.0

473471.0375319321 1.2887742417804005e7 0.0
1.2887742417804005e7 5.376025613511189e6 0.0
0.0 0.0 0.0

86854.58671271894 1.1123063866685688e7 0.0
1.1123063866685688e7 -8.908401427936837e6 0.0
0.0 0.0 0.0

-6.161520133034019e6 607549.2631931126 0.0
607549.2631931126 8.108768728312904e6 0.0
0.0 0.0 0.0

-1.9370836310551623e6 1.2797793216191737e7 0.0
1.2797793216191737e7 -4.204245107845643e6 0.0
0.0 0.0 0.0

-799793.1508320712 1.3088880412277445e7 0.0
1.3088880412277445e7 340002.7202853375 0.0
0.0 0.0 0.0

-2.5846869493409805e6 1.3459019683733528e7 0.0
1.3459019683733528e7 5.410613354945255e6 0.0
0.0 0.0 0.0

-326302.73046505265 1.2051922740693018e7 0.0
1.2051922740693018e7 -8.404007861546796e6 0.0
0.0 0.0 0.0

-5.508428859496988e6 1.3687100878057918e7 0.0
1.3687100878057918e7 9.956245851042138e6 0.0
0.0 0.0 0.0

599039.790462441 9.852868031656716e6 0.0
9.852868031656716e6 -2.002364569402693e6 0.0
0.0 0.0 0.0

-975488.4808360101 1.3949454500680193e7 0.0
1.3949454500680193e7 -6.326774074895115e6 0.0
0.0 0.0 0.0

2.2270442257875428e6 1.2030173196127158e7 0.0
1.2030173196127158e7 -3.8332519377028435e6 0.0
0.0 0.0 0.0

2.413282655292146e6 9.610849789744755e6 0.0
9.610849789744755e6 -1.3605588842943233e7 0.0
0.0 0.0 0.0

-7.079154109344674e6 1.2898204349076692e7 0.0
1.2898204349076692e7 9.306022017767241e6 0.0
0.0 0.0 0.0

-748115.0712985306 1.1089162876776218e7 0.0
1.1089162876776218e7 -4.0895033071429e6 0.0
0.0 0.0 0.0

-2.8350439515277967e7 1.6731262921595616e7 0.0
1.6731262921595616e7 1.046206795199665e7 0.0
0.0 0.0 0.0

-4.577297486164086e6 1.4066642552384108e7 0.0
1.4066642552384108e7 2.1159944322916396e7 0.0
0.0 0.0 0.0

5.543000700893371e6 4.572299690562993e6 0.0
4.572299690562993e6 -1.619376834410682e7 0.0
0.0 0.0 0.0

-9.178217932676384e6 -8.985614545436256e6 0.0
-8.985614545436256e6 2.121242436387236e7 0.0
0.0 0.0 0.0

754410.5901230192 1.1482393816092692e7 0.0
1.1482393816092692e7 -1.823016297727045e7 0.0
0.0 0.0 0.0

1.1745850933841364e6 1.1308550038189774e7 0.0
1.1308550038189774e7 -1.3743855914657488e7 0.0
0.0 0.0 0.0

-656932.5500323699 1.3828377913788987e7 0.0
1.3828377913788987e7 -1.9947838727668028e6 0.0
0.0 0.0 0.0

-9.558386486103188e6 1.818975655403991e7 0.0
1.818975655403991e7 2.1090339130500527e6 0.0
0.0 0.0 0.0

-9.491397092338048e6 1.185417429261424e7 0.0
1.185417429261424e7 1.2164631247978833e7 0.0
0.0 0.0 0.0

-669008.2500511974 1.386889872341312e7 0.0
1.386889872341312e7 -6.779174458933052e6 0.0
0.0 0.0 0.0

-1.0835697994244488e7 -5.30508730883356e6 0.0
-5.30508730883356e6 3.2548807027939722e7 0.0
0.0 0.0 0.0

-9.060349111888994e6 9.525547902458657e6 0.0
9.525547902458657e6 1.2204974496982656e7 0.0
0.0 0.0 0.0

6.628577833246931e6 5.685947070494517e6 0.0
5.685947070494517e6 -2.83989030264657e7 0.0
0.0 0.0 0.0

-5.737928273414468e6 1.7363015140370533e7 0.0
1.7363015140370533e7 3.7645931843164023e6 0.0
0.0 0.0 0.0

6.5030621700790245e6 4.726383443508468e6 0.0
4.726383443508468e6 -2.4904677949870937e7 0.0
0.0 0.0 0.0

-2.2051226037513904e7 2.3766701771552846e7 0.0
2.3766701771552846e7 1.1268369822508648e7 0.0
0.0 0.0 0.0

-1.086660604182046e7 -4.702529763689771e6 0.0
-4.702529763689771e6 3.457901767423607e7 0.0
0.0 0.0 0.0

2.783278170667709e6 9.739578001810154e6 0.0
9.739578001810154e6 -1.3501822758555384e7 0.0
0.0 0.0 0.0

-7.6512513939613085e6 1.5293697625780018e7 0.0
1.5293697625780018e7 4.371484325587569e6 0.0
0.0 0.0 0.0

-2.515126758590693e7 1.2748460189877583e7 0.0
1.2748460189877583e7 3.7224944505058825e6 0.0
0.0 0.0 0.0

6.56366235964296e6 5.145467289533342e6 0.0
5.145467289533342e6 -2.6640352909608483e7 0.0
0.0 0.0 0.0

-5.583306479165598e6 1.4391419324650472e7 0.0
1.4391419324650472e7 3.1114860731310262e6 0.0
0.0 0.0 0.0

-6.734668604299808e6 1.4004238917103868e7 0.0
1.4004238917103868e7 8.42264903739129e6 0.0
0.0 0.0 0.0

3.3800207756590256e6 1.2299251717039686e7 0.0
1.2299251717039686e7 6.31221716330551e6 0.0
0.0 0.0 0.0

1.217358034045523e6 1.1303213169694003e7 0.0
1.1303213169694003e7 -1.2685160994844906e7 0.0
0.0 0.0 0.0

707912.3957860963 1.1561814670811577e7 0.0
1.1561814670811577e7 -1.2957458760377578e7 0.0
0.0 0.0 0.0

-3.3041844479875653e6 1.478146747850199e7 0.0
1.478146747850199e7 -2.938132952142042e6 0.0
0.0 0.0 0.0

-5.895904507187363e6 1.764534818222433e7 0.0
1.764534818222433e7 4.0421875531205833e6 0.0
0.0 0.0 0.0

-1.2041101146368314e7 4.984274638568308e6 0.0
4.984274638568308e6 1.730998065013124e7 0.0
0.0 0.0 0.0

6.4543162116245795e6 4.554453429649893e6 0.0
4.554453429649893e6 -2.253623377154366e7 0.0
0.0 0.0 0.0

-1.0448734797065973e7 1.8750951443505146e7 0.0
1.8750951443505146e7 8.305944861754873e6 0.0
0.0 0.0 0.0

3.9253668061250416e6 6.215688361930377e6 0.0
6.215688361930377e6 -1.0733938349860076e7 0.0
0.0 0.0 0.0

524340.0603184369 1.1840773077499859e7 0.0
1.1840773077499859e7 -1.005631375263856e7 0.0
0.0 0.0 0.0

6.48181083729484e6 4.707517240101348e6 0.0
4.707517240101348e6 -2.3357897562099814e7 0.0
0.0 0.0 0.0

520073.32536902605 1.1701374958185218e7 0.0
1.1701374958185218e7 -1.2131962501822915e7 0.0
0.0 0.0 0.0

-1.2582470402671091e7 2.810295898846216e6 0.0
2.810295898846216e6 1.918019402366961e7 0.0
0.0 0.0 0.0

51464.497270885855 3.9267142478655623e6 0.0
3.9267142478655623e6 -3.076516591273858e6 0.0
0.0 0.0 0.0

-4.204694390936304e6 1.0674841870422445e7 0.0
1.0674841870422445e7 1.0333287447041599e6 0.0
0.0 0.0 0.0

-1.2219261399030322e6 1.4127996590310939e7 0.0
1.4127996590310939e7 7.309167338543273e6 0.0
0.0 0.0 0.0

5.726848745027635e6 4.4285895503558135e6 0.0
4.4285895503558135e6 -1.7560115291092895e7 0.0
0.0 0.0 0.0

-6.039550028681818e6 1.5662751317998555e7 0.0
1.5662751317998555e7 6.929383885311209e6 0.0
0.0 0.0 0.0

-6.925074288503064e6 -6.180936627413309e6 0.0
-6.180936627413309e6 1.4039780795580389e7 0.0
0.0 0.0 0.0

570484.6849383287 1.072383481422666e7 0.0
1.072383481422666e7 -2.344685098674491e6 0.0
0.0 0.0 0.0

2.1195340382840466e6 9.85794881466239e6 0.0
9.85794881466239e6 -1.2986101835262857e7 0.0
0.0 0.0 0.0

-5.860010419781637e6 1.3066410861561332e7 0.0
1.3066410861561332e7 8.761004404385936e6 0.0
0.0 0.0 0.0

-3.353308223676828e6 1.4063026611207284e7 0.0
1.4063026611207284e7 1.1001434735855015e7 0.0
0.0 0.0 0.0

-605642.4052953541 1.269244865278664e7 0.0
1.269244865278664e7 -2.5567728772711502e6 0.0
0.0 0.0 0.0

-2.686737266479636e6 1.4664817888595495e7 0.0
1.4664817888595495e7 -2.790061246641607e6 0.0
0.0 0.0 0.0

-6.332308846805755e6 1.5754976401707117e7 0.0
1.5754976401707117e7 5.082735194859454e6 0.0
0.0 0.0 0.0

-333637.68848086754 1.3320540780764678e7 0.0
1.3320540780764678e7 -2.6959842891264097e6 0.0
0.0 0.0 0.0

7.817630937866721e6 5.784440127442168e6 0.0
5.784440127442168e6 -2.4511851316776355e6 0.0
0.0 0.0 0.0

-1.0929263785031872e7 -5.77014347354824e6 0.0
-5.77014347354824e6 3.0677070681213953e7 0.0
0.0 0.0 0.0

-206244.6529501502 1.2422400941007564e7 0.0
1.2422400941007564e7 6.106641888869528e6 0.0
0.0 0.0 0.0

-9.732840388707878e6 -7.938580571216704e6 0.0
-7.938580571216704e6 2.399472440662618e7 0.0
0.0 0.0 0.0

-569798.8748871218 1.3408916439838555e7 0.0
1.3408916439838555e7 -1.0657715478758242e6 0.0
0.0 0.0 0.0

-1.1966672826664716e7 5.9221531485597e6 0.0
5.9221531485597e6 1.9979955553365592e7 0.0
0.0 0.0 0.0

-3.8612210988296852e6 1.0761436641844533e7 0.0
1.0761436641844533e7 2.164455711040697e6 0.0
0.0 0.0 0.0

1.1716908295956787e6 3.492229214044351e6 0.0
3.492229214044351e6 -3.62546672940732e6 0.0
0.0 0.0 0.0

1.1201496453031902e6 3.650737975410022e6 0.0
3.650737975410022e6 -3.4802299273464666e6 0.0
0.0 0.0 0.0

-640406.622388558 1.3659373771245258e7 0.0
1.3659373771245258e7 -6.989089985791761e6 0.0
0.0 0.0 0.0

-2.9792726544087525e6 1.4481492757013101e7 0.0
1.4481492757013101e7 -838302.9614256583 0.0
0.0 0.0 0.0

-227156.89496342326 1.377830713560629e7 0.0
1.377830713560629e7 -7.094391686989433e6 0.0
0.0 0.0 0.0

-1.2608039804868773e7 3.9542969576088e6 0.0
3.9542969576088e6 1.6082235150448542e7 0.0
0.0 0.0 0.0

315030.7768949806 1.1519291589373976e7 0.0
1.1519291589373976e7 -9.555108951410173e6 0.0
0.0 0.0 0.0

2.5536288212250015e6 9.692827119201768e6 0.0
9.692827119201768e6 -1.4337100686788633e7 0.0
0.0 0.0 0.0

-5.770156780799939e6 1.5347586516981589e7 0.0
1.5347586516981589e7 6.922874195979943e6 0.0
0.0 0.0 0.0

1.906294381905239e6 9.806228567051994e6 0.0
9.806228567051994e6 -1.2151250613156658e7 0.0
0.0 0.0 0.0

-5.6087850460339665e7 2.0698607938269787e7 0.0
2.0698607938269787e7 5.868610716728404e6 0.0
0.0 0.0 0.0

77006.96775491117 1.1783081776008075e7 0.0
1.1783081776008075e7 -9.050270952538205e6 0.0
0.0 0.0 0.0

-7.947997273777323e6 2.021058162577893e7 0.0
2.021058162577893e7 5.723105139392667e6 0.0
0.0 0.0 0.0

-791114.0332689565 1.0135084484813873e7 0.0
1.0135084484813873e7 1.4528753076746296e6 0.0
0.0 0.0 0.0

-7.967353415888909e6 1.2223268310538692e7 0.0
1.2223268310538692e7 1.0632020368113618e7 0.0
0.0 0.0 0.0

-2.7723331613501348e6 1.4369952283566892e7 0.0
1.4369952283566892e7 -2.8508383050873834e6 0.0
0.0 0.0 0.0

-2.5360865942025715e6 2.2123328226518173e7 0.0
2.2123328226518173e7 -3.3175063518119976e6 0.0
0.0 0.0 0.0

-7.770131890238131e6 -9.754967968488922e6 0.0
-9.754967968488922e6 1.8953100669170164e7 0.0
0.0 0.0 0.0

5.586821093834116e6 4.534274045182529e6 0.0
4.534274045182529e6 -1.6584317465228194e7 0.0
0.0 0.0 0.0

-3.1230339467619406e6 1.4802981451548962e7 0.0
1.4802981451548962e7 -1.3883943100589812e6 0.0
0.0 0.0 0.0

-2.4364569760543588e6 1.2881550569570547e6 0.0
1.2881550569570547e6 1.1118876539656622e6 0.0
0.0 0.0 0.0

6.210915248578345e6 4.476447552190706e6 0.0
4.476447552190706e6 -2.030243296950771e7 0.0
0.0 0.0 0.0

-1.0746187342061488e7 -6.385822033037838e6 0.0
-6.385822033037838e6 2.939077178003354e7 0.0
0.0 0.0 0.0

-3.797820539297718e6 -7.397230716135365e6 0.0
-7.397230716135365e6 1.0441985474283373e7 0.0
0.0 0.0 0.0

180085.51218048297 1.0329497748478128e7 0.0
1.0329497748478128e7 -5.06113347259176e6 0.0
0.0 0.0 0.0

-8.693800296159212e6 -9.40001178967656e6 0.0
-9.40001178967656e6 2.042714076756153e7 0.0
0.0 0.0 0.0

5.641409241485786e6 4.544107907445421e6 0.0
4.544107907445421e6 -1.7016855389118057e7 0.0
0.0 0.0 0.0

6.142718938775571e6 4.522120091779679e6 0.0
4.522120091779679e6 -1.960924598759892e7 0.0
0.0 0.0 0.0

-1.0349715493501907e7 -6.925718195304283e6 0.0
-6.925718195304283e6 2.791257270169942e7 0.0
0.0 0.0 0.0

-3.2267549442128288e6 1.301206773534152e7 0.0
1.301206773534152e7 -3.512001883614397e6 0.0
0.0 0.0 0.0

-503921.79628590494 1.3355637172778966e7 0.0
1.3355637172778966e7 -7.330887701194595e6 0.0
0.0 0.0 0.0

-5.946497275998112e6 1.60074128368318e7 0.0
1.60074128368318e7 5.483088130536792e6 0.0
0.0 0.0 0.0

6.0792667922677975e6 4.51954586781603e6 0.0
4.51954586781603e6 -1.9168558742432408e7 0.0
0.0 0.0 0.0

-1.0020261438317966e7 -7.280057712736032e6 0.0
-7.280057712736032e6 2.624541772095526e7 0.0
0.0 0.0 0.0

506744.86704498506 1.057608333740557e7 0.0
1.057608333740557e7 -4.6169237899716385e6 0.0
0.0 0.0 0.0

2.092526540752316e6 1.0218797172365718e7 0.0
1.0218797172365718e7 -1.1518769031418893e7 0.0
0.0 0.0 0.0

-4.0085233319048444e6 1.5632761098766875e7 0.0
1.5632761098766875e7 690003.8190116524 0.0
0.0 0.0 0.0

-3.883159800274593e6 1.2471341875976989e7 0.0
1.2471341875976989e7 33173.040167222964 0.0
0.0 0.0 0.0

-7.518690924530921e6 1.3061819870133298e7 0.0
1.3061819870133298e7 1.1793849178504724e7 0.0
0.0 0.0 0.0

-9.882382176624764e6 -7.521739773649306e6 0.0
-7.521739773649306e6 2.4918330709993728e7 0.0
0.0 0.0 0.0

6.016963397396028e6 4.472034356777095e6 0.0
4.472034356777095e6 -1.858634241839858e7 0.0
0.0 0.0 0.0

-4.351614647712643e6 1.7571358913058806e7 0.0
1.7571358913058806e7 -798450.1447905853 0.0
0.0 0.0 0.0

-5.787645264507621e6 1.3915666052485894e7 0.0
1.3915666052485894e7 1.934767257953426e7 0.0
0.0 0.0 0.0

2.2240426293482017e7 3.644415638330407e7 0.0
3.644415638330407e7 -2.7568659151391357e7 0.0
0.0 0.0 0.0

36872.5795165021 8.237546250177718e6 0.0
8.237546250177718e6 -5.182319078327691e6 0.0
0.0 0.0 0.0

-5.642526210885493e6 1.7280960520919472e7 0.0
1.7280960520919472e7 4.412616624783364e6 0.0
0.0 0.0 0.0

-1.6384471357204823e6 4.42710941224251e6 0.0
4.42710941224251e6 -134718.7677826829 0.0
0.0 0.0 0.0

-5.780336826112019e6 1.6216805905769056e7 0.0
1.6216805905769056e7 5.153325322963132e6 0.0
0.0 0.0 0.0

3.1637820740834875e6 4.415656137296072e6 0.0
4.415656137296072e6 -8.384512190387189e6 0.0
0.0 0.0 0.0

-219680.22141371504 1.6854184567799717e7 0.0
1.6854184567799717e7 -4.638499975303232e6 0.0
0.0 0.0 0.0

-2.1791470522623863e6 1.5570114564573146e7 0.0
1.5570114564573146e7 -3.617404698010162e6 0.0
0.0 0.0 0.0

-7.694558740935333e6 9.93216992292271e6 0.0
9.93216992292271e6 7.692731597199449e6 0.0
0.0 0.0 0.0

-548418.0151218866 1.367843687561802e7 0.0
1.367843687561802e7 -1.1765023632433957e6 0.0
0.0 0.0 0.0

-9.949948735915339e6 -3.333144596703946e6 0.0
-3.333144596703946e6 3.888448956797558e7 0.0
0.0 0.0 0.0

1.148459388687737e6 4.423854425959665e6 0.0
4.423854425959665e6 -4.0233461114365915e6 0.0
0.0 0.0 0.0

-1.1835915864601454e6 -317584.7117506098 0.0
-317584.7117506098 170251.1707485944 0.0
0.0 0.0 0.0

1.524510250413933e6 -1.648830972340248e6 0.0
-1.648830972340248e6 -2.7944090328505537e6 0.0
0.0 0.0 0.0

-1.946648066114988e6 1.5779096633816954e7 0.0
1.5779096633816954e7 -3.7449190812303647e6 0.0
0.0 0.0 0.0

167130.9493069062 1.2129762736658508e7 0.0
1.2129762736658508e7 -1.931122343282655e7 0.0
0.0 0.0 0.0

-1.3444340569973076e6 1.394130064642144e7 0.0
1.394130064642144e7 8.177210846899318e6 0.0
0.0 0.0 0.0

-1.2865529905904885e6 1.285561552544797e7 0.0
1.285561552544797e7 -4.490449531567358e6 0.0
0.0 0.0 0.0

4.654536372205187e6 5.414223053048447e6 0.0
5.414223053048447e6 -1.2062457651489519e7 0.0
0.0 0.0 0.0

-825575.5267724004 9.403460136139577e6 0.0
9.403460136139577e6 -4.352558942917644e6 0.0
0.0 0.0 0.0

508603.20374246826 1.2904511556715295e7 0.0
1.2904511556715295e7 -8.444714786659133e6 0.0
0.0 0.0 0.0

799875.9808170078 1.1196392800302593e7 0.0
1.1196392800302593e7 -1.5605505010600103e7 0.0
0.0 0.0 0.0

-4.1498585926501704e6 1.607351524430972e7 0.0
1.607351524430972e7 768625.1078610038 0.0
0.0 0.0 0.0

-6.575219716743898e6 1.2517014835046602e7 0.0
1.2517014835046602e7 1.0051084921960143e7 0.0
0.0 0.0 0.0

-160498.2936215906 9.76547103684486e6 0.0
9.76547103684486e6 -4.021394515944172e6 0.0
0.0 0.0 0.0

3330.9822758458176 1.0785193385459948e7 0.0
1.0785193385459948e7 -385376.36536833347 0.0
0.0 0.0 0.0

-1.0355211768396855e6 1.1173175663748952e7 0.0
1.1173175663748952e7 -1.1694829234955933e7 0.0
0.0 0.0 0.0

-1.4172056162377343e7 1.607339565936344e7 0.0
1.607339565936344e7 8.41175619924853e6 0.0
0.0 0.0 0.0

-3.982193696135963e6 2.3481849060384843e7 0.0
2.3481849060384843e7 -1.7947329267620193e6 0.0
0.0 0.0 0.0

539608.1538313116 3.3283415370228468e6 0.0
3.3283415370228468e6 -2.567063226144657e6 0.0
0.0 0.0 0.0

852674.9830018019 3.223068872107117e6 0.0
3.223068872107117e6 -2.7812270804888243e6 0.0
0.0 0.0 0.0

-6.284652112798084e6 1.31828384038244e7 0.0
1.31828384038244e7 8.908587491456244e6 0.0
0.0 0.0 0.0

-3.482388337390168e6 1.4253598091437014e7 0.0
1.4253598091437014e7 -1.5450653328812788e6 0.0
0.0 0.0 0.0

-5.689234704657196e6 1.7765804391489696e7 0.0
1.7765804391489696e7 4.71541088319115e6 0.0
0.0 0.0 0.0

-5.671039040197957e6 1.640030843072355e7 0.0
1.640030843072355e7 4.8846396747415615e6 0.0
0.0 0.0 0.0

2.77178678798096e6 1.2080579588908067e7 0.0
1.2080579588908067e7 3.0175150680594733e6 0.0
0.0 0.0 0.0

1.7768655820690885e6 1.2823094537419906e7 0.0
1.2823094537419906e7 -5.5423483251937535e6 0.0
0.0 0.0 0.0

-4.877860441051565e6 1.3285039646271208e7 0.0
1.3285039646271208e7 2.0609964475746546e7 0.0
0.0 0.0 0.0

-2.0656808355638828e7 1.6639162196671208e7 0.0
1.6639162196671208e7 802946.4647439271 0.0
0.0 0.0 0.0

-6.516269675858344e7 2.3426184537234988e7 0.0
2.3426184537234988e7 1.5513843090410154e7 0.0
0.0 0.0 0.0

-6.71478245411255e6 9.513964804370066e6 0.0
9.513964804370066e6 5.716500106238482e6 0.0
0.0 0.0 0.0

-4.073216516539905e6 1.3668281512089347e7 0.0
1.3668281512089347e7 6.476889583845305e6 0.0
0.0 0.0 0.0

3.7575083989917175e6 6.110263478148363e6 0.0
6.110263478148363e6 -1.117751686026982e7 0.0
0.0 0.0 0.0

-8.08771640799171e6 9.868626004582388e6 0.0
9.868626004582388e6 1.0892041112145752e7 0.0
0.0 0.0 0.0

-966820.7259457912 1.5696109853715473e6 0.0
1.5696109853715473e6 977233.9492477858 0.0
0.0 0.0 0.0

-1.0114222489492265e6 1.3067968203715088e7 0.0
1.3067968203715088e7 7.666995185090268e6 0.0
0.0 0.0 0.0

1.2162862658658372e6 1.1159489600854952e7 0.0
1.1159489600854952e7 -1.5839719905265061e7 0.0
0.0 0.0 0.0

4.7387979286430795e6 5.884561853885069e6 0.0
5.884561853885069e6 -1.31876130097716e7 0.0
0.0 0.0 0.0

1.7989662110635142e6 1.1363090022181276e7 0.0
1.1363090022181276e7 1.3621953885863745e6 0.0
0.0 0.0 0.0

-7.890751472946543e6 1.3902688132438683e6 0.0
1.3902688132438683e6 5.323209430790372e7 0.0
0.0 0.0 0.0

-6.409039813946459e6 1.734019748447539e7 0.0
1.734019748447539e7 6.518509198098569e6 0.0
0.0 0.0 0.0

-8.960171689418899e6 1.451202496814365e7 0.0
1.451202496814365e7 2.535446463882235e6 0.0
0.0 0.0 0.0

-2.014670028214187e6 1.4953636836314794e7 0.0
1.4953636836314794e7 -4.376869044807617e6 0.0
0.0 0.0 0.0

-3.2207686972141666e6 -3.5193430477770553e6 0.0
-3.5193430477770553e6 8.204008349386104e6 0.0
0.0 0.0 0.0

-1.2985486908998056e6 9.7970573617638e6 0.0
9.7970573617638e6 1.9582075111958426e6 0.0
0.0 0.0 0.0

-6.154222385610596e6 -9.251501340495745e6 0.0
-9.251501340495745e6 1.5585507521653693e7 0.0
0.0 0.0 0.0

1.715012382024558e6 1.2154632991817895e7 0.0
1.2154632991817895e7 912458.764539646 0.0
0.0 0.0 0.0

-4.1881955574407177e6 1.3667814063955327e7 0.0
1.3667814063955327e7 1.7562371819038894e6 0.0
0.0 0.0 0.0

5.137639754879996e6 5.269610755255451e6 0.0
5.269610755255451e6 -1.4005075645896189e7 0.0
0.0 0.0 0.0

-3.514233206310821e6 1.36827264912001e7 0.0
1.36827264912001e7 -2.3733581352945743e6 0.0
0.0 0.0 0.0

4.600574124970817e6 5.493036639158164e6 0.0
5.493036639158164e6 -1.14284046602622e7 0.0
0.0 0.0 0.0

704903.1834431472 1.1640743035078172e7 0.0
1.1640743035078172e7 -1.0893725306599967e7 0.0
0.0 0.0 0.0

-8.694208081132567e6 1.9653359553738363e7 0.0
1.9653359553738363e7 7.341505105964217e6 0.0
0.0 0.0 0.0

-521112.7035824274 8.134104291867086e6 0.0
8.134104291867086e6 -1.8951269923369705e6 0.0
0.0 0.0 0.0

-2.9706179464850165e6 1.4480232969042102e7 0.0
1.4480232969042102e7 -3.6576722731972826e6 0.0
0.0 0.0 0.0

-7.20612056250811e6 1.898374971173933e7 0.0
1.898374971173933e7 6.035164314383429e6 0.0
0.0 0.0 0.0

-6.094832517554114e6 1.5803767592886485e7 0.0
1.5803767592886485e7 5.876624608837524e6 0.0
0.0 0.0 0.0

-6.01946784107386e6 1.6109034116902273e7 0.0
1.6109034116902273e7 4.41376608262324e6 0.0
0.0 0.0 0.0

-6.300754444243458e6 1.904185566939894e7 0.0
1.904185566939894e7 3.9784625167432036e6 0.0
0.0 0.0 0.0

-1.9651975633938573e6 1.4115295972439855e7 0.0
1.4115295972439855e7 -4.255326764745225e6 0.0
0.0 0.0 0.0

-8.576168292252818e6 2.0629952334910758e7 0.0
2.0629952334910758e7 6.054287981111736e6 0.0
0.0 0.0 0.0

-5.914237187669596e6 6.976565220366388e6 0.0
6.976565220366388e6 4.815051844834019e6 0.0
0.0 0.0 0.0

868210.9912719904 9.738132825872017e6 0.0
9.738132825872017e6 -8.14658408126276e6 0.0
0.0 0.0 0.0

-6.766731285407923e6 120424.13293852702 0.0
120424.13293852702 7.127944528285953e6 0.0
0.0 0.0 0.0

-6.934183390900342e6 1.5787461894995088e7 0.0
1.5787461894995088e7 5.245091880894374e6 0.0
0.0 0.0 0.0

-1.0738560196555408e7 -5.20440663578678e6 0.0
-5.20440663578678e6 2.6001337941723663e7 0.0
0.0 0.0 0.0

-4.763312127511539e6 1.8073348587786168e7 0.0
1.8073348587786168e7 4526.6299341851845 0.0
0.0 0.0 0.0

1.2133345250141802e6 1.1556076442192508e7 0.0
1.1556076442192508e7 -1.0781453917503389e7 0.0
0.0 0.0 0.0

-1.3511535486157848e6 1.1353630341549167e7 0.0
1.1353630341549167e7 3.2847205981818005e6 0.0
0.0 0.0 0.0

-1.0130623916593711e6 1.0956552853900412e7 0.0
1.0956552853900412e7 -4.934732305422618e6 0.0
0.0 0.0 0.0

2.51052854003198e6 1.0321274719189405e7 0.0
1.0321274719189405e7 -1.4238819632132247e7 0.0
0.0 0.0 0.0

3.2642831006584135e6 4.914090352034241e6 0.0
4.914090352034241e6 -9.476446277201116e6 0.0
0.0 0.0 0.0

-1.5418840454601804e6 1.5909063188210087e7 0.0
1.5909063188210087e7 -3.9471969381355788e6 0.0
0.0 0.0 0.0

-698874.0453058926 1.32703481118942e7 0.0
1.32703481118942e7 1.1701458552591586e6 0.0
0.0 0.0 0.0

-3.459140643801692e6 1.2239197536389716e7 0.0
1.2239197536389716e7 -663700.3116901257 0.0
0.0 0.0 0.0

6.359613888912579e6 4.478408223077837e6 0.0
4.478408223077837e6 -2.171088439278127e7 0.0
0.0 0.0 0.0

-6.477161715537712e6 2.0063637815840926e6 0.0
2.0063637815840926e6 8.77941982030509e6 0.0
0.0 0.0 0.0

5.852800902998574e6 5.580357640633259e6 0.0
5.580357640633259e6 -2.173358070526466e7 0.0
0.0 0.0 0.0

-3.076452194823594e6 300468.7292390028 0.0
300468.7292390028 3.1070124614233943e6 0.0
0.0 0.0 0.0

-4.390889843344645e6 1.3491501711441245e7 0.0
1.3491501711441245e7 800958.9639537521 0.0
0.0 0.0 0.0

-583638.7806966847 1.3325649021717574e7 0.0
1.3325649021717574e7 287577.0428927024 0.0
0.0 0.0 0.0

-691332.1204715862 1.099733476194521e7 0.0
1.099733476194521e7 1.6060531723615604e6 0.0
0.0 0.0 0.0

-6.30589051419325e6 9.37963428420792e6 0.0
9.37963428420792e6 7.215134926487675e6 0.0
0.0 0.0 0.0

-3.7717933874269826e6 -7.938400043213901e6 0.0
-7.938400043213901e6 1.0278261589467611e7 0.0
0.0 0.0 0.0

-2.2026707624158515e6 1.6869062070327796e7 0.0
1.6869062070327796e7 -2.602360691642901e6 0.0
0.0 0.0 0.0

-4.1178087817292297e6 1.3779676502988365e7 0.0
1.3779676502988365e7 9.557903611445028e6 0.0
0.0 0.0 0.0

3.171914884486707e6 7.496180087698424e6 0.0
7.496180087698424e6 -1.210970199355184e7 0.0
0.0 0.0 0.0

-6.381368716740316e6 -5.991632334413258e6 0.0
-5.991632334413258e6 1.4033353656938737e7 0.0
0.0 0.0 0.0

-2.5716135376654924e6 1.200236216839891e7 0.0
1.200236216839891e7 6.432449276631507e6 0.0
0.0 0.0 0.0

-9.511667083558265e6 1.1377503415357325e7 0.0
1.1377503415357325e7 1.9995847337502293e7 0.0
0.0 0.0 0.0

-1.453708339391983e6 1.2502112301997919e7 0.0
1.2502112301997919e7 6.926458323636291e6 0.0
0.0 0.0 0.0

557550.9115134971 1.1704108283594916e7 0.0
1.1704108283594916e7 -1.8761162687648438e7 0.0
0.0 0.0 0.0

-7.305582679644953e6 1.2880636884428443e7 0.0
1.2880636884428443e7 1.0923027300145851e7 0.0
0.0 0.0 0.0

-2.44332658815214e6 1.322576278936518e7 0.0
1.322576278936518e7 6.023253959458816e6 0.0
0.0 0.0 0.0

-589498.4665589097 1.398697284242516e7 0.0
1.398697284242516e7 -6.629194152964946e6 0.0
0.0 0.0 0.0

-925259.4286812147 1.4083697440172767e7 0.0
1.4083697440172767e7 -2.1391999106759876e6 0.0
0.0 0.0 0.0

4.2701761171355e6 7.584086492336746e6 0.0
7.584086492336746e6 -1.784496508608093e7 0.0
0.0 0.0 0.0

4.540475107950511e6 7.1952379150516465e6 0.0
7.1952379150516465e6 -1.8533850484717816e7 0.0
0.0 0.0 0.0

-403258.23748245183 1.0821907792236982e7 0.0
1.0821907792236982e7 -4.7280060689897025e6 0.0
0.0 0.0 0.0

-1.128049761939577e7 9.73418812059298e6 0.0
9.73418812059298e6 1.4986772381945465e7 0.0
0.0 0.0 0.0

-1.1159884197138415e6 1.3423157828758763e7 0.0
1.3423157828758763e7 -7.364618639239743e6 0.0
0.0 0.0 0.0

-1.0844110906004546e7 -786814.9925604 0.0
-786814.9925604 3.6602574401884206e7 0.0
0.0 0.0 0.0

809400.0429727151 8.749541538235623e6 0.0
8.749541538235623e6 -1.0286414566802593e7 0.0
0.0 0.0 0.0

-4.240440664595416e6 1.0857953845687883e7 0.0
1.0857953845687883e7 4.02282530438929e7 0.0
0.0 0.0 0.0

6.275649036707247e6 4.557787978772978e6 0.0
4.557787978772978e6 -2.0921165903896436e7 0.0
0.0 0.0 0.0

-2.452203531452054e6 1.4745166733456036e7 0.0
1.4745166733456036e7 -3.7884349386380706e6 0.0
0.0 0.0 0.0

-2.718529549892819e6 1.2466043821029726e7 0.0
1.2466043821029726e7 7.532722353058606e6 0.0
0.0 0.0 0.0

-648106.4199096542 1.215636200044721e7 0.0
1.215636200044721e7 -1.7156426034866713e7 0.0
0.0 0.0 0.0

295788.6353417662 8.277305542506854e6 0.0
8.277305542506854e6 2.7107667086300873e6 0.0
0.0 0.0 0.0

-864461.0417300261 1.3590177751965689e7 0.0
1.3590177751965689e7 -2.924114760296341e6 0.0
0.0 0.0 0.0

-3.4019949372285497e6 1.2458902226213582e7 0.0
1.2458902226213582e7 7.658828910211611e6 0.0
0.0 0.0 0.0

-6.679211483257445e6 1.4085984286848359e7 0.0
1.4085984286848359e7 7.203501642195843e6 0.0
0.0 0.0 0.0

-4.699133186795726e6 1.361688567343945e7 0.0
1.361688567343945e7 7.035451146661561e6 0.0
0.0 0.0 0.0

738418.7845999505 9.051514555165742e6 0.0
9.051514555165742e6 -7.404127056840852e6 0.0
0.0 0.0 0.0

-1.2133181836707678e7 7.9206295395503e6 0.0
7.9206295395503e6 1.4059118898406807e7 0.0
0.0 0.0 0.0

978949.3268420659 1.1328429396910442e7 0.0
1.1328429396910442e7 -1.79968768691826e7 0.0
0.0 0.0 0.0

-1.0051633730204988e6 1.3312725399500316e7 0.0
1.3312725399500316e7 -3.975566174456249e6 0.0
0.0 0.0 0.0

-4.177227222402583e6 1.4556816871952277e7 0.0
1.4556816871952277e7 3.300758008100028e6 0.0
0.0 0.0 0.0

394043.87936875597 8.234150652690101e6 0.0
8.234150652690101e6 -5.222900205864333e6 0.0
0.0 0.0 0.0

-1.081321818611081e7 3.1185967841761676e6 0.0
3.1185967841761676e6 4.973802104392702e7 0.0
0.0 0.0 0.0

-381708.97811134905 1.2602127455927502e7 0.0
1.2602127455927502e7 -1.9872012504378967e7 0.0
0.0 0.0 0.0

-7.272193418649824e6 1.3248234563941479e7 0.0
1.3248234563941479e7 1.2048665112404816e7 0.0
0.0 0.0 0.0

-6.004365126198852e6 1.7982265364544895e7 0.0
1.7982265364544895e7 4.284931090948612e6 0.0
0.0 0.0 0.0

3.7276817761434903e6 1.4646441862996748e7 0.0
1.4646441862996748e7 5.295200097846785e6 0.0
0.0 0.0 0.0

-6.639592102460036e6 1.3464325329181487e7 0.0
1.3464325329181487e7 1.5289445537448986e7 0.0
0.0 0.0 0.0

-6.6881030351668615e6 1.3048520844747685e7 0.0
1.3048520844747685e7 9.538993333121365e6 0.0
0.0 0.0 0.0

466791.94579210784 1.03247607093057e7 0.0
1.03247607093057e7 -7.884794626974221e6 0.0
0.0 0.0 0.0

-1.4591361013870672e6 1.2949262644979095e7 0.0
1.2949262644979095e7 -4.1502737983338954e6 0.0
0.0 0.0 0.0

-7.457568499054206e6 1.1433880447675033e7 0.0
1.1433880447675033e7 7.34539774549225e6 0.0
0.0 0.0 0.0

-7.024756511646016e6 1.0426256242156245e7 0.0
1.0426256242156245e7 8.519841430136824e6 0.0
0.0 0.0 0.0

4.622516025197923e6 5.464910683365219e6 0.0
5.464910683365219e6 -1.33597414461582e7 0.0
0.0 0.0 0.0

-6.097395297031427e6 1.5752508850940304e7 0.0
1.5752508850940304e7 7.064140501087373e6 0.0
0.0 0.0 0.0

-258765.83658196742 8.838002705015806e6 0.0
8.838002705015806e6 -3.3365414823064236e6 0.0
0.0 0.0 0.0

4.397297660502913e6 5.594957389522286e6 0.0
5.594957389522286e6 -1.1203292414541833e7 0.0
0.0 0.0 0.0

-4.839733143072606e6 1.737027868960891e7 0.0
1.737027868960891e7 243383.06376171648 0.0
0.0 0.0 0.0

-3.5056010698011215e6 1.3028744904053343e7 0.0
1.3028744904053343e7 8.848194168416744e6 0.0
0.0 0.0 0.0

-1.0999795027213123e7 -3.2591222944197473e6 0.0
-3.2591222944197473e6 3.106893583036712e7 0.0
0.0 0.0 0.0

280684.7448326254 1.3386698539079892e7 0.0
1.3386698539079892e7 5.246735414175849e6 0.0
0.0 0.0 0.0

834022.1198786002 1.2502849519953104e7 0.0
1.2502849519953104e7 3.142563316123967e6 0.0
0.0 0.0 0.0

395622.52921026386 1.2470987272947658e7 0.0
1.2470987272947658e7 -8.65193025256085e6 0.0
0.0 0.0 0.0

5.293026198309674e6 5.073764243069673e6 0.0
5.073764243069673e6 -1.6283492096686214e7 0.0
0.0 0.0 0.0

-308445.0628664788 1.2295358184688613e7 0.0
1.2295358184688613e7 2.575875727023989e6 0.0
0.0 0.0 0.0

199316.79879410611 1.2782193165057277e7 0.0
1.2782193165057277e7 -8.087856036314485e6 0.0
0.0 0.0 0.0

-1.5834584359946416e6 1.1204466549846146e7 0.0
1.1204466549846146e7 4.0965504923864035e6 0.0
0.0 0.0 0.0

-3.403404660972121e6 5.026987990805209e6 0.0
5.026987990805209e6 2.6463913864636053e6 0.0
0.0 0.0 0.0

-1.4613351498036007e6 651059.8700547775 0.0
651059.8700547775 1.896208602192192e6 0.0
0.0 0.0 0.0

-3.3070242136805765e6 1.4131930084109247e7 0.0
1.4131930084109247e7 1.5286599753080143e6 0.0
0.0 0.0 0.0

2.119903120410554e6 1.0570211357937872e7 0.0
1.0570211357937872e7 -1.248945682876446e7 0.0
0.0 0.0 0.0

-74364.38537437376 1.1327863176916076e7 0.0
1.1327863176916076e7 -9.930063726063892e6 0.0
0.0 0.0 0.0

-1.075784999282113e7 -428440.0285723069 0.0
-428440.0285723069 4.866877753052288e7 0.0
0.0 0.0 0.0

-9.523773734036576e6 2.10687702369136e7 0.0
2.10687702369136e7 6.367106830188919e6 0.0
0.0 0.0 0.0

956999.4507665746 5.459616270923574e6 0.0
5.459616270923574e6 -4.0724556428502747e6 0.0
0.0 0.0 0.0

-677755.5462588863 1.3463443985946631e7 0.0
1.3463443985946631e7 -473051.1492946353 0.0
0.0 0.0 0.0

-2.855130405323243e6 1.2171061648064764e7 0.0
1.2171061648064764e7 6.001253942421385e6 0.0
0.0 0.0 0.0

-1.0441859732385825e7 9.44336943603699e6 0.0
9.44336943603699e6 1.3897111213221736e7 0.0
0.0 0.0 0.0

-6.583371935052626e6 1.5425010060226891e7 0.0
1.5425010060226891e7 3.9596897725946107e6 0.0
0.0 0.0 0.0

-367072.08913310757 1.2528628934342721e7 0.0
1.2528628934342721e7 4.500821442498038e6 0.0
0.0 0.0 0.0

-2.5097424617627827e6 1.2304376158218913e7 0.0
1.2304376158218913e7 5.830091808841594e6 0.0
0.0 0.0 0.0

361792.1459434107 1.252974294889335e7 0.0
1.252974294889335e7 -9.314430614087593e6 0.0
0.0 0.0 0.0

2.201933384789436e6 5.459418146031081e6 0.0
5.459418146031081e6 -7.713833072727507e6 0.0
0.0 0.0 0.0

660201.0978862164 1.2413962664266784e7 0.0
1.2413962664266784e7 -9.455275269822879e6 0.0
0.0 0.0 0.0

-2.239739569690929e6 1.3909203990191909e7 0.0
1.3909203990191909e7 -5.088009561719086e6 0.0
0.0 0.0 0.0

-5.7767509601482935e6 1.5189553815995254e7 0.0
1.5189553815995254e7 5.057108634200407e6 0.0
0.0 0.0 0.0

-1.037907050650117e6 1.4639579076182356e7 0.0
1.4639579076182356e7 -5.660306737387983e6 0.0
0.0 0.0 0.0

-1.0706805084492592e6 1.4233544067069888e7 0.0
1.4233544067069888e7 -6.239933779359126e6 0.0
0.0 0.0 0.0

5.161074569193275e6 5.518504281675007e6 0.0
5.518504281675007e6 -1.5201134433125947e7 0.0
0.0 0.0 0.0

-42591.76642031991 1.1700656368858041e7 0.0
1.1700656368858041e7 2.447478701184913e6 0.0
0.0 0.0 0.0

-2.632657698463062e6 1.417927632241605e7 0.0
1.417927632241605e7 -4.301396984485953e6 0.0
0.0 0.0 0.0

-9.060923060103437e6 6.90274692442856e6 0.0
6.90274692442856e6 1.0182384497622099e7 0.0
0.0 0.0 0.0

-4.4088886411416024e7 1.9597119555307496e7 0.0
1.9597119555307496e7 5.273053705118056e6 0.0
0.0 0.0 0.0

1.688911189212733e7 2.2597962564310845e7 0.0
2.2597962564310845e7 5.6297190840590246e7 0.0
0.0 0.0 0.0

-1.0003649208190523e7 1.854836378997482e7 0.0
1.854836378997482e7 -3.334558466760968e7 0.0
0.0 0.0 0.0

-7.093766726377181e6 1.22670304013011e7 0.0
1.22670304013011e7 1.077868100630764e7 0.0
0.0 0.0 0.0

1.3377818067038208e6 1.0339969955163298e7 0.0
1.0339969955163298e7 -1.0872189998959377e7 0.0
0.0 0.0 0.0

-2.2480323069921676e6 1.3621090233219253e7 0.0
1.3621090233219253e7 -3.114572868005332e6 0.0
0.0 0.0 0.0

-6.932508915717117e6 2.1504472975615717e7 0.0
2.1504472975615717e7 1.9549876993705197e6 0.0
0.0 0.0 0.0

679961.4061391046 1.160512265140998e7 0.0
1.160512265140998e7 -1.1339170919585727e7 0.0
0.0 0.0 0.0

-1.2407517856393266e6 1.4395340974191302e7 0.0
1.4395340974191302e7 -2.0223718467472915e6 0.0
0.0 0.0 0.0

-9.477636166638486e6 8.3325943125813035e6 0.0
8.3325943125813035e6 1.1143499002899827e7 0.0
0.0 0.0 0.0

-4.097522801352693e6 1.5285600651047226e7 0.0
1.5285600651047226e7 1.2186418658678893e6 0.0
0.0 0.0 0.0

904583.4860219937 1.1362239363884268e7 0.0
1.1362239363884268e7 -1.492017344025621e7 0.0
0.0 0.0 0.0

-493539.5445592946 1.3735830040085437e7 0.0
1.3735830040085437e7 -2.4724991078639566e6 0.0
0.0 0.0 0.0

-7.00243968842325e6 1.4149934164245917e7 0.0
1.4149934164245917e7 7.541895304973379e6 0.0
0.0 0.0 0.0

5.234420855825765e6 1.3532071752195057e7 0.0
1.3532071752195057e7 -5.079340489539551e6 0.0
0.0 0.0 0.0

-903680.0609236166 1.059583370746882e7 0.0
1.059583370746882e7 2.5054849732476617e6 0.0
0.0 0.0 0.0

-6.907448546157761e6 1.2569817349982435e7 0.0
1.2569817349982435e7 1.0012960770051168e7 0.0
0.0 0.0 0.0

-9.770899030271921e6 1.4037419198359516e7 0.0
1.4037419198359516e7 1.637951165703182e6 0.0
0.0 0.0 0.0

-1.1014645209795958e6 1.0799442373776704e7 0.0
1.0799442373776704e7 2.454756824252129e6 0.0
0.0 0.0 0.0

-4.832487381518072e6 1.7721083259155367e7 0.0
1.7721083259155367e7 319348.12940741144 0.0
0.0 0.0 0.0

68258.65123263816 1.68199552422923e7 0.0
1.68199552422923e7 -4.598054725173316e6 0.0
0.0 0.0 0.0

1.3372875667585218e6 9.773369172105258e6 0.0
9.773369172105258e6 -8.295405805401284e6 0.0
0.0 0.0 0.0

-9.128509006571341e6 1.215472268135386e7 0.0
1.215472268135386e7 1.320653137464108e7 0.0
0.0 0.0 0.0

205716.77870732313 1.2339030257632086e7 0.0
1.2339030257632086e7 -9.948576284356477e6 0.0
0.0 0.0 0.0

-3.6969335989297074e6 1.1099034366468662e7 0.0
1.1099034366468662e7 1.7362904165594815e6 0.0
0.0 0.0 0.0

-7.972894855311776e6 1.115119455756875e7 0.0
1.115119455756875e7 8.580359161311395e6 0.0
0.0 0.0 0.0

1.7301560571974902e6 6.356408152423247e6 0.0
6.356408152423247e6 -6.164475216275586e6 0.0
0.0 0.0 0.0

-905604.542907956 1.2768979030571297e7 0.0
1.2768979030571297e7 2.2323217975076768e6 0.0
0.0 0.0 0.0

-2.524825606940887e6 1.6563794680689229e7 0.0
1.6563794680689229e7 -3.6095363225001534e6 0.0
0.0 0.0 0.0

3.9633946694420595e6 9.674538989052039e6 0.0
9.674538989052039e6 -2.3964236271933615e7 0.0
0.0 0.0 0.0

-8.494595988838587e6 6.769178212847876e6 0.0
6.769178212847876e6 9.280309044145212e6 0.0
0.0 0.0 0.0

-929669.299066 2.249810568938973e7 0.0
2.249810568938973e7 -5.3013214545033425e6 0.0
0.0 0.0 0.0

4.924160073824102e6 7.16386089725491e6 0.0
7.16386089725491e6 -1.725939695225371e7 0.0
0.0 0.0 0.0

-765283.89885678 1.2680039101716278e7 0.0
1.2680039101716278e7 1.5518343061354076e6 0.0
0.0 0.0 0.0

-2.431908957683322e6 1.5287575939838234e7 0.0
1.5287575939838234e7 -4.472289153164893e6 0.0
0.0 0.0 0.0

3.491770795077555e6 1.701364195800121e7 0.0
1.701364195800121e7 9.143070724249911e7 0.0
0.0 0.0 0.0

-1.1186331953208074e6 1.6084548091492388e7 0.0
1.6084548091492388e7 -5.1945244460810505e7 0.0
0.0 0.0 0.0

1.0109997857089452e7 1.3861201322882337e7 0.0
1.3861201322882337e7 3.139892917713665e6 0.0
0.0 0.0 0.0

1.1835607338838591e6 1.6376324251154575e7 0.0
1.6376324251154575e7 -5.554604493890444e6 0.0
0.0 0.0 0.0

523392.5102978668 7.949415595860226e6 0.0
7.949415595860226e6 -4.892301884901394e6 0.0
0.0 0.0 0.0

1.3739759140545689e6 2.0756238470508542e7 0.0
2.0756238470508542e7 -6.260896843307316e6 0.0
0.0 0.0 0.0

-4.325461261609625e6 1.3399813359898606e7 0.0
1.3399813359898606e7 7.784040235327352e6 0.0
0.0 0.0 0.0

4.513087412184991e6 1.3309119135882959e7 0.0
1.3309119135882959e7 -4.519037153424889e6 0.0
0.0 0.0 0.0

-6.6177970269366875e6 1.5030925861109145e7 0.0
1.5030925861109145e7 6.131496687068973e6 0.0
0.0 0.0 0.0

-6.019959082119939e6 1.0095543613140775e7 0.0
1.0095543613140775e7 6.5516771175882425e6 0.0
0.0 0.0 0.0

972749.483916933 4.456797055273183e6 0.0
4.456797055273183e6 -4.705105982524815e6 0.0
0.0 0.0 0.0

-3.8309216576774726e6 1.3717306666033179e7 0.0
1.3717306666033179e7 1.0142359243781757e7 0.0
0.0 0.0 0.0

-3.886594475206371e6 1.538945523067594e7 0.0
1.538945523067594e7 -1.0344180829147695e6 0.0
0.0 0.0 0.0

-7.661861886208389e6 1.231527408528367e7 0.0
1.231527408528367e7 1.1599086148403013e7 0.0
0.0 0.0 0.0

-6.0628053424630575e6 1.5865003642300593e7 0.0
1.5865003642300593e7 6.618147151546238e6 0.0
0.0 0.0 0.0

-6.2202570983320195e6 1.4871098617433831e7 0.0
1.4871098617433831e7 6.382060206564119e6 0.0
0.0 0.0 0.0

-321234.641721613 9.959884074246153e6 0.0
9.959884074246153e6 -5.526809808400654e6 0.0
0.0 0.0 0.0

-7.207940297746301e6 1.3366741457649449e7 0.0
1.3366741457649449e7 1.2551286881828047e7 0.0
0.0 0.0 0.0

-6.361186910439979e6 1.546285781630731e7 0.0
1.546285781630731e7 6.985810576006812e6 0.0
0.0 0.0 0.0

-2.838055974461472e6 8.470493359640272e6 0.0
8.470493359640272e6 1.0519375416373217e6 0.0
0.0 0.0 0.0

-2.3912032336423077e7 1.718079757447915e7 0.0
1.718079757447915e7 7.531155815335983e6 0.0
0.0 0.0 0.0

-1.1545988464017335e7 -445097.4059688003 0.0
-445097.4059688003 3.103667274349056e7 0.0
0.0 0.0 0.0

-6.49727961169444e6 1.5830531224080414e7 0.0
1.5830531224080414e7 5.978043826544641e6 0.0
0.0 0.0 0.0

-7.891227311070433e6 1.7998044543296374e7 0.0
1.7998044543296374e7 7.33377055490903e6 0.0
0.0 0.0 0.0

1.619690921643421e6 1.1060806758258324e7 0.0
1.1060806758258324e7 -1.4027966065439671e7 0.0
0.0 0.0 0.0

-7.175880382244749e6 1.9721538187175836e7 0.0
1.9721538187175836e7 5.98570891477073e6 0.0
0.0 0.0 0.0

-1.0825483668709029e7 2.1671377106273443e7 0.0
2.1671377106273443e7 6.613880735322672e6 0.0
0.0 0.0 0.0

-1.2285046499708785e7 2.214981266867576e7 0.0
2.214981266867576e7 7.05705069648958e6 0.0
0.0 0.0 0.0

-4.921263388011727e6 1.6430528688856019e7 0.0
1.6430528688856019e7 1.4273276878795517e6 0.0
0.0 0.0 0.0

-1.2056213338124407e7 5.705270665190393e6 0.0
5.705270665190393e6 1.6703297182638807e7 0.0
0.0 0.0 0.0

5.138667226035791e6 4.884116611324101e6 0.0
4.884116611324101e6 -1.4298379153445948e7 0.0
0.0 0.0 0.0

-7.505223915068348e6 1.3025797512962695e7 0.0
1.3025797512962695e7 1.114602543314159e7 0.0
0.0 0.0 0.0

-5.159122284251584e6 1.8086437641087454e7 0.0
1.8086437641087454e7 1.0687220243305997e6 0.0
0.0 0.0 0.0

982149.6189575093 1.1391291381316597e7 0.0
1.1391291381316597e7 -1.1533123979744982e7 0.0
0.0 0.0 0.0

-9.615015039869737e6 -6.872352063267609e6 0.0
-6.872352063267609e6 2.125509391002317e7 0.0
0.0 0.0 0.0

-194770.88108757627 1.3191889945044944e7 0.0
1.3191889945044944e7 -589178.7275832536 0.0
0.0 0.0 0.0

-94178.44562434126 1.3134890309940737e7 0.0
1.3134890309940737e7 -7.617888974618005e6 0.0
0.0 0.0 0.0

571011.370561209 1.2189790742526434e7 0.0
1.2189790742526434e7 -9.141354650533343e6 0.0
0.0 0.0 0.0

-330281.4166705492 1.0321223183947844e7 0.0
1.0321223183947844e7 -8.681848078896146e6 0.0
0.0 0.0 0.0

-3.3914035929511506e6 872055.4149768795 0.0
872055.4149768795 2.984411620922656e6 0.0
0.0 0.0 0.0

935350.3906794749 9.976502396077788e6 0.0
9.976502396077788e6 -3.5502127941408465e6 0.0
0.0 0.0 0.0

511341.6105271118 1.0937465739386894e7 0.0
1.0937465739386894e7 2.0310124350972355e6 0.0
0.0 0.0 0.0

6.535356271295089e6 1.1328218942719541e7 0.0
1.1328218942719541e7 -999156.4580657352 0.0
0.0 0.0 0.0

-1.2722991963738486e7 2.299139654703144e7 0.0
2.299139654703144e7 7.740020081044191e6 0.0
0.0 0.0 0.0

-6.548985246797154e6 1.0232877905127043e7 0.0
1.0232877905127043e7 7.597707073704759e6 0.0
0.0 0.0 0.0

-1.6764525854597017e6 1.3606788254362457e7 0.0
1.3606788254362457e7 -2.1724212019157063e7 0.0
0.0 0.0 0.0

4.706102867123365e6 6.806588187808931e6 0.0
6.806588187808931e6 -1.497606684219408e7 0.0
0.0 0.0 0.0

-1.609781359093213e6 -5.096554313160116e6 0.0
-5.096554313160116e6 7.3355341389079625e6 0.0
0.0 0.0 0.0

-1.2512848659503667e7 1.6644622676042324e7 0.0
1.6644622676042324e7 5.761158557710517e6 0.0
0.0 0.0 0.0

-8.347359535469566e6 1.4438516634207984e7 0.0
1.4438516634207984e7 424555.8556095939 0.0
0.0 0.0 0.0

190778.3053806983 1.059321588110923e7 0.0
1.059321588110923e7 -6.55704521913963e6 0.0
0.0 0.0 0.0

-5.330865970737347e6 1.7616176034852106e7 0.0
1.7616176034852106e7 2.176600005697638e6 0.0
0.0 0.0 0.0

5.04707020884552e6 7.06589123970616e6 0.0
7.06589123970616e6 -2.355733133300481e7 0.0
0.0 0.0 0.0

1.4066253032059753e6 1.4610895612873731e7 0.0
1.4610895612873731e7 -4.98448434875019e6 0.0
0.0 0.0 0.0

-373174.8119390961 1.2907269059885802e7 0.0
1.2907269059885802e7 5.162670179527866e6 0.0
0.0 0.0 0.0

1.8506347452641535e6 1.0179084645031586e7 0.0
1.0179084645031586e7 -1.067072712403843e7 0.0
0.0 0.0 0.0

-4.240633073671722e6 1.432833612984166e7 0.0
1.432833612984166e7 1.8547675718543476e6 0.0
0.0 0.0 0.0

1.3792773052939302e6 9.52041567983888e6 0.0
9.52041567983888e6 -7.839012209216633e6 0.0
0.0 0.0 0.0

1.5793188847275735e6 1.0099507148000669e7 0.0
1.0099507148000669e7 -1.153391281128359e7 0.0
0.0 0.0 0.0

426551.27041655127 1.0910193507069442e7 0.0
1.0910193507069442e7 -9.270335123889355e6 0.0
0.0 0.0 0.0

-7.440218951253231e6 1.7734796772909287e7 0.0
1.7734796772909287e7 6.789451869359012e6 0.0
0.0 0.0 0.0

-4.25379879148824e6 1.5502082321372416e7 0.0
1.5502082321372416e7 -2.474606104193756e7 0.0
0.0 0.0 0.0

-169423.49499782617 2.052781495081238e7 0.0
2.052781495081238e7 -4.0131704449222423e6 0.0
0.0 0.0 0.0

-1.9216271279533524e6 1.665881336714446e7 0.0
1.665881336714446e7 -3.95279792712783e6 0.0
0.0 0.0 0.0

-6.365494258627314e6 1.8525054946326207e7 0.0
1.8525054946326207e7 5.665494884844374e6 0.0
0.0 0.0 0.0

-6.553506803580041e6 1.5166937769014236e7 0.0
1.5166937769014236e7 7.366327657237804e6 0.0
0.0 0.0 0.0

5.322175125024036e6 6.475743724700684e6 0.0
6.475743724700684e6 -2.410930303698834e7 0.0
0.0 0.0 0.0

-5.937046692906078e6 1.4289668800121048e7 0.0
1.4289668800121048e7 7.990667602159344e6 0.0
0.0 0.0 0.0

5.294862125677113e6 6.17129127198831e6 0.0
6.17129127198831e6 -2.033817027864078e7 0.0
0.0 0.0 0.0

-2.0907365818631141e6 1.3270158935438182e7 0.0
1.3270158935438182e7 -3.3742084051986174e6 0.0
0.0 0.0 0.0

-1.7553699551046358e6 1.2882906155804222e7 0.0
1.2882906155804222e7 -3.6606147585391332e6 0.0
0.0 0.0 0.0

636376.8470478181 9.733379667686483e6 0.0
9.733379667686483e6 -4.0678373324549044e6 0.0
0.0 0.0 0.0

-4.671152082005717e6 1.3198077612049988e7 0.0
1.3198077612049988e7 7.284524207944648e6 0.0
0.0 0.0 0.0

-4.895548379012721e6 1.5784135110887611e7 0.0
1.5784135110887611e7 1.5873041580921563e6 0.0
0.0 0.0 0.0

-7.140244812158337e6 1.2958116358625606e7 0.0
1.2958116358625606e7 8.065663276253687e6 0.0
0.0 0.0 0.0

-4.1506834640190895e6 -7.643881630560576e6 0.0
-7.643881630560576e6 8.876291480926316e6 0.0
0.0 0.0 0.0

4.433660679603428e6 6.686031910012831e6 0.0
6.686031910012831e6 -1.5842461612014238e7 0.0
0.0 0.0 0.0

3.324650035846455e6 7.666489036623686e6 0.0
7.666489036623686e6 -1.3006869063670862e7 0.0
0.0 0.0 0.0

-5.836814825296373e6 1.9161434626893945e7 0.0
1.9161434626893945e7 3.232209038510333e6 0.0
0.0 0.0 0.0

-1.2882677417974626e6 1.3876600459848532e7 0.0
1.3876600459848532e7 -3.2678083597836965e6 0.0
0.0 0.0 0.0

2.0969302370442543e6 1.0711432913045e7 0.0
1.0711432913045e7 -1.414355642179754e7 0.0
0.0 0.0 0.0

-5.27245612143309e6 1.333881291935496e7 0.0
1.333881291935496e7 1.125790022233291e7 0.0
0.0 0.0 0.0

-4.5885625875069965e6 2.2577402767108246e6 0.0
2.2577402767108246e6 6.313515522769264e6 0.0
0.0 0.0 0.0

-1.3034393606886957e6 1.3477357674507061e7 0.0
1.3477357674507061e7 6.883966093399215e6 0.0
0.0 0.0 0.0

-1.211697403871008e7 1.7636639357545465e7 0.0
1.7636639357545465e7 9.79408094992048e6 0.0
0.0 0.0 0.0

660148.6678903331 1.1427809170266733e7 0.0
1.1427809170266733e7 2.1582934505664897e6 0.0
0.0 0.0 0.0

-855572.4348113409 1.267536074252805e7 0.0
1.267536074252805e7 3.517877024186148e6 0.0
0.0 0.0 0.0

-6.647591938280749e6 1.75584606484632e7 0.0
1.75584606484632e7 6.5182234054399375e6 0.0
0.0 0.0 0.0

-5.299398299037433e6 1.3588350113682177e7 0.0
1.3588350113682177e7 7.80154409770654e6 0.0
0.0 0.0 0.0

-7.348139413359195e6 1.268522622294822e7 0.0
1.268522622294822e7 1.4277242750602484e7 0.0
0.0 0.0 0.0

-7.050258249702681e6 1.516199273718991e7 0.0
1.516199273718991e7 1.6097073556955014e6 0.0
0.0 0.0 0.0

-7.648914516325929e6 1.4687588823541414e7 0.0
1.4687588823541414e7 2.8589445570837227e6 0.0
0.0 0.0 0.0

-8.932198855719132e6 5.265095321654139e6 0.0
5.265095321654139e6 6.384966683892392e6 0.0
0.0 0.0 0.0

-4.154459049600995e7 2.243269406631635e7 0.0
2.243269406631635e7 9.99938924902577e6 0.0
0.0 0.0 0.0

4.112047826487925e6 1.1564465021034298e7 0.0
1.1564465021034298e7 596754.5229113632 0.0
0.0 0.0 0.0

1.1673425044537233e6 1.1205355250300556e7 0.0
1.1205355250300556e7 -1.4149932815093413e7 0.0
0.0 0.0 0.0

-6.630081335610525e6 1.4567516323056277e7 0.0
1.4567516323056277e7 5.974706312112238e6 0.0
0.0 0.0 0.0

-749669.3889602837 1.3124982340288749e7 0.0
1.3124982340288749e7 -8.08138660531426e6 0.0
0.0 0.0 0.0

1.7706191595885415e7 1.1392860244952288e7 0.0
1.1392860244952288e7 -970053.5590270376 0.0
0.0 0.0 0.0

-788944.6357058354 3.734560524209875e6 0.0
3.734560524209875e6 -571057.4262718386 0.0
0.0 0.0 0.0

3.489864697959133e6 4.366581547531189e6 0.0
4.366581547531189e6 -8.760180641110415e6 0.0
0.0 0.0 0.0

-1.6326901391751792e6 1.3317193631626293e7 0.0
1.3317193631626293e7 -6.06263588472862e6 0.0
0.0 0.0 0.0

329490.1046690565 1.04082966401107e7 0.0
1.04082966401107e7 -2.8748548879120825e6 0.0
0.0 0.0 0.0

-1.1306363934302673e7 -735536.8167373346 0.0
-735536.8167373346 2.2615759755861294e7 0.0
0.0 0.0 0.0

-885119.7970550689 1.6979508143103313e7 0.0
1.6979508143103313e7 -3.805553749401429e6 0.0
0.0 0.0 0.0

-1.5841585245791478e7 2.3392423340923097e7 0.0
2.3392423340923097e7 8.4003765606438e6 0.0
0.0 0.0 0.0

3.8147777085058517e6 1.2282100220254783e7 0.0
1.2282100220254783e7 -385641.01622471656 0.0
0.0 0.0 0.0

-4.031374290467418e6 -2.2521776141072456e6 0.0
-2.2521776141072456e6 4.818179454094549e6 0.0
0.0 0.0 0.0

-1.5887073321038522e7 1.3079399276407488e7 0.0
1.3079399276407488e7 9.273621287171554e6 0.0
0.0 0.0 0.0

-748647.567992255 9.72964864001257e6 0.0
9.72964864001257e6 1.8496446859014088e6 0.0
0.0 0.0 0.0

-1.8729185022115134e7 2.3989929522101685e7 0.0
2.3989929522101685e7 9.258990306939289e6 0.0
0.0 0.0 0.0

-8.475524045084637e6 1.0330738916719245e7 0.0
1.0330738916719245e7 1.1642549605252622e7 0.0
0.0 0.0 0.0

1.565560402777891e6 1.1717546548529988e7 0.0
1.1717546548529988e7 -3.8363325215395372e6 0.0
0.0 0.0 0.0

-1.9224188348947316e6 1.1263464136646196e7 0.0
1.1263464136646196e7 -1.16013187548985e7 0.0
0.0 0.0 0.0

105445.25856330432 1.0864468850812402e7 0.0
1.0864468850812402e7 -7.790918756553291e6 0.0
0.0 0.0 0.0

1.6172033840567134e6 1.4100136074157948e7 0.0
1.4100136074157948e7 -4.901239428640116e6 0.0
0.0 0.0 0.0

1.7119279034493854e6 2.4277674963556632e7 0.0
2.4277674963556632e7 -1.5365974093389727e7 0.0
0.0 0.0 0.0

-4.429343112076211e6 1.012036339960576e6 0.0
1.012036339960576e6 4.943890753158813e6 0.0
0.0 0.0 0.0

-6.695419775229565e6 2.089272968267064e7 0.0
2.089272968267064e7 2.0287683101567784e6 0.0
0.0 0.0 0.0

-4.364410486416591e6 1.8223909516544513e7 0.0
1.8223909516544513e7 1.2748601729223165e6 0.0
0.0 0.0 0.0

-8.884323289911438e6 -5.494761704763217e6 0.0
-5.494761704763217e6 1.4381567803557456e7 0.0
0.0 0.0 0.0

5.171224640872777e6 4.83257336113283e6 0.0
4.83257336113283e6 -1.4356976901715158e7 0.0
0.0 0.0 0.0

-6.231886808281251e6 1.6486079771725267e7 0.0
1.6486079771725267e7 6.83633704787311e6 0.0
0.0 0.0 0.0

-2.5312808170610657e6 1.3266351200976036e7 0.0
1.3266351200976036e7 7.989030159475545e6 0.0
0.0 0.0 0.0

-1.4470554176343034e6 1.8012730325493533e6 0.0
1.8012730325493533e6 3.6393189059418733e6 0.0
0.0 0.0 0.0

-8.334772724709844e6 8.428222061751693e6 0.0
8.428222061751693e6 1.089605280331946e7 0.0
0.0 0.0 0.0

-3.1885091387194805e6 1.3135505074074116e7 0.0
1.3135505074074116e7 8.608843769289562e6 0.0
0.0 0.0 0.0

-935074.7351752887 1.1400215883921934e7 0.0
1.1400215883921934e7 -5.504528158051198e6 0.0
0.0 0.0 0.0

130258.6979097235 1.0756338886803163e7 0.0
1.0756338886803163e7 -9.57498087716091e6 0.0
0.0 0.0 0.0

-4.774307067300738e6 1.696571189042848e7 0.0
1.696571189042848e7 303675.5640072392 0.0
0.0 0.0 0.0

-1.0445292561249903e6 3.6052431151213916e6 0.0
3.6052431151213916e6 308082.2475693826 0.0
0.0 0.0 0.0

-3.832536098443959e6 1.2044506065859273e7 0.0
1.2044506065859273e7 1.7758660102782692e6 0.0
0.0 0.0 0.0

-1.085151470984526e7 1.0073598688431762e7 0.0
1.0073598688431762e7 1.4289071432196096e7 0.0
0.0 0.0 0.0

660958.1538670622 9.96325090976357e6 0.0
9.96325090976357e6 -6.531838938670929e6 0.0
0.0 0.0 0.0

-2.5543012594085718e6 1.4758375441200497e7 0.0
1.4758375441200497e7 -4.656744602418282e6 0.0
0.0 0.0 0.0

-6.860010380754013e6 2.2141860251316722e7 0.0
2.2141860251316722e7 3.3913920909047355e6 0.0
0.0 0.0 0.0

1.871204875794828e6 1.0628859179269535e7 0.0
1.0628859179269535e7 -1.4887954258366974e7 0.0
0.0 0.0 0.0

-3.2704052081319645e7 2.275662702814106e7 0.0
2.275662702814106e7 1.237081150504919e7 0.0
0.0 0.0 0.0

1.5062053610801143e6 3.7189837173493425e6 0.0
3.7189837173493425e6 -4.292980166129508e6 0.0
0.0 0.0 0.0

1.3245250422869925e6 3.840418811936333e6 0.0
3.840418811936333e6 -4.867636622779307e6 0.0
0.0 0.0 0.0

-192112.18109647045 1.4123879541871727e7 0.0
1.4123879541871727e7 7.13228363826954e6 0.0
0.0 0.0 0.0

-2.6945587751652296e6 1.429176688047986e7 0.0
1.429176688047986e7 1.0355140960576909e7 0.0
0.0 0.0 0.0

-957307.0055628718 1.3138708972589582e7 0.0
1.3138708972589582e7 2.138353597979447e6 0.0
0.0 0.0 0.0

-7.409356670441791e6 7.364577929166817e6 0.0
7.364577929166817e6 1.018072397677093e7 0.0
0.0 0.0 0.0

661466.7052573651 4.357810578873909e6 0.0
4.357810578873909e6 -719617.4155769919 0.0
0.0 0.0 0.0

-2.6398756408873573e6 1.3796859208923107e7 0.0
1.3796859208923107e7 3.602450330310731e6 0.0
0.0 0.0 0.0

-5.226291521576794e6 1.7456637031786457e7 0.0
1.7456637031786457e7 3.32494612641601e6 0.0
0.0 0.0 0.0

1.47342168551201e6 1.1025773347942336e7 0.0
1.1025773347942336e7 -1.5208996225783607e7 0.0
0.0 0.0 0.0

-1.4057590030055293e6 1.436887911671043e7 0.0
1.436887911671043e7 8.730909352165796e6 0.0
0.0 0.0 0.0

4.486130992421731e6 1.2451860196586298e7 0.0
1.2451860196586298e7 1.30313805852946e6 0.0
0.0 0.0 0.0

-2.1722005200560153e7 2.3813139298927158e7 0.0
2.3813139298927158e7 1.1333569392255608e7 0.0
0.0 0.0 0.0

-1.6848699636929175e6 1.094419731958376e7 0.0
1.094419731958376e7 4.317179443415569e6 0.0
0.0 0.0 0.0

-3.094804840957243e6 6.735494649662543e6 0.0
6.735494649662543e6 791234.7159301906 0.0
0.0 0.0 0.0

-1.2131331248463226e7 4.882781206230704e6 0.0
4.882781206230704e6 1.4027786797639906e7 0.0
0.0 0.0 0.0

-5.246586898052005e6 1.702346486669224e7 0.0
1.702346486669224e7 2.5798679890053114e6 0.0
0.0 0.0 0.0

-4.836950067444686e6 1.4128752659377068e7 0.0
1.4128752659377068e7 1.1516681481060741e7 0.0
0.0 0.0 0.0

-1.2670209974431349e7 203065.81097729612 0.0
203065.81097729612 3.4753460450625695e7 0.0
0.0 0.0 0.0

-2.7385347022869005e6 1.3192969260749297e7 0.0
1.3192969260749297e7 5.189051217017444e6 0.0
0.0 0.0 0.0

-3.2318506237548674e6 1.2259947315774348e7 0.0
1.2259947315774348e7 -1.3830235910546903e7 0.0
0.0 0.0 0.0

-3.4130236380868084e6 1.3785916083140466e7 0.0
1.3785916083140466e7 9.914937728243615e6 0.0
0.0 0.0 0.0

-8.440567729587156e6 1.1984313509911014e7 0.0
1.1984313509911014e7 1.1892730661655085e7 0.0
0.0 0.0 0.0

-607262.6163474012 1.0898423157354346e7 0.0
1.0898423157354346e7 -5.832617587248693e6 0.0
0.0 0.0 0.0

-5.462802322707541e6 1.404132314254173e7 0.0
1.404132314254173e7 4.054190885409959e7 0.0
0.0 0.0 0.0

-1.0523074566103008e6 1.6558284723908162e7 0.0
1.6558284723908162e7 -4.431515228917805e6 0.0
0.0 0.0 0.0

148559.24974203296 1.2241297527022123e7 0.0
1.2241297527022123e7 -9.701182049357489e6 0.0
0.0 0.0 0.0

-362962.0369321527 9.296016104736518e6 0.0
9.296016104736518e6 -3.8904997506551906e6 0.0
0.0 0.0 0.0

5.531898096521953e6 5.043791644651856e6 0.0
5.043791644651856e6 -1.7032548436394133e7 0.0
0.0 0.0 0.0

-6.515944271690955e6 2.136110674584459e7 0.0
2.136110674584459e7 3.9083363894991027e6 0.0
0.0 0.0 0.0

-1.2282279426055733e7 5.606317416621046e6 0.0
5.606317416621046e6 1.4350413193562638e7 0.0
0.0 0.0 0.0

-767448.9009938529 1.298683678010176e7 0.0
1.298683678010176e7 4.73992532602686e6 0.0
0.0 0.0 0.0

-6.196172767928876e6 1.5754600498976e7 0.0
1.5754600498976e7 5.096154486271348e6 0.0
0.0 0.0 0.0

-4.347096113110444e6 1.3098673508441508e7 0.0
1.3098673508441508e7 1.4565260161029585e6 0.0
0.0 0.0 0.0

-9.64109930628618e6 8.897251429814165e6 0.0
8.897251429814165e6 1.1417983679796174e7 0.0
0.0 0.0 0.0

2.2385240200309153e6 8.336788883070727e6 0.0
8.336788883070727e6 -1.0738706368086763e7 0.0
0.0 0.0 0.0

-1.5320413166357558e7 2.11357999696514e7 0.0
2.11357999696514e7 1.0331789285557192e7 0.0
0.0 0.0 0.0

7.891473827303617e6 9.704081102078747e6 0.0
9.704081102078747e6 154274.7077666712 0.0
0.0 0.0 0.0

-4.582390961557474e6 1.657121850140348e6 0.0
1.657121850140348e6 3.688755630455559e6 0.0
0.0 0.0 0.0

-7.4039518167595845e6 1.7922614152706865e7 0.0
1.7922614152706865e7 6.8460026200416265e6 0.0
0.0 0.0 0.0

-1.9667131100065865e7 9.890162958886614e6 0.0
9.890162958886614e6 1.043299274093102e7 0.0
0.0 0.0 0.0

-1.6846319912180954e6 1.4402190323166378e7 0.0
1.4402190323166378e7 -3.06759551309727e6 0.0
0.0 0.0 0.0

-2.563123421995634e7 1.9156113934019946e7 0.0
1.9156113934019946e7 6.753080739776058e6 0.0
0.0 0.0 0.0

-1.216044582766628e6 1.441727901871731e7 0.0
1.441727901871731e7 -1.9343131903168908e6 0.0
0.0 0.0 0.0

-7.4354811314320415e6 1.1541970557198105e7 0.0
1.1541970557198105e7 9.26512426885105e6 0.0
0.0 0.0 0.0

-8.035965689597123e6 6.377297147474813e6 0.0
6.377297147474813e6 1.106596448541358e7 0.0
0.0 0.0 0.0

-7.242359367656751e6 9.680744186395224e6 0.0
9.680744186395224e6 6.768197386686698e6 0.0
0.0 0.0 0.0

-5.961716883294247e6 1.5251970204921257e7 0.0
1.5251970204921257e7 7.145822866496522e6 0.0
0.0 0.0 0.0

-1.047175371228013e7 -4.39212666963735e6 0.0
-4.39212666963735e6 2.1583180652692996e7 0.0
0.0 0.0 0.0

99832.8101272498 9.600083437794626e6 0.0
9.600083437794626e6 -2.6528918580991393e6 0.0
0.0 0.0 0.0

1.3505725755629735e6 8.81993542992915e6 0.0
8.81993542992915e6 -7.041456906053356e6 0.0
0.0 0.0 0.0

814460.5066307196 1.1327563652043954e7 0.0
1.1327563652043954e7 -9.461068429426022e6 0.0
0.0 0.0 0.0

-4.7428356966240555e6 -2.724731089860014e6 0.0
-2.724731089860014e6 7.570997029719731e6 0.0
0.0 0.0 0.0

-343607.6575272846 9.842211170180788e6 0.0
9.842211170180788e6 -1.6674544718385462e6 0.0
0.0 0.0 0.0

-6.159804268783012e6 1.6034371420108117e7 0.0
1.6034371420108117e7 5.747544770268666e6 0.0
0.0 0.0 0.0

-2.846411043403408e6 1.4264145638625301e7 0.0
1.4264145638625301e7 8.829652700098809e6 0.0
0.0 0.0 0.0

-1.139336998590617e6 1.2923202813399358e7 0.0
1.2923202813399358e7 -6.252743791132103e6 0.0
0.0 0.0 0.0

-507398.782572102 1.28196990695134e7 0.0
1.28196990695134e7 409930.6490631077 0.0
0.0 0.0 0.0

-6.422009817529406e6 2.0282337262525003e7 0.0
2.0282337262525003e7 2.5063131976134675e6 0.0
0.0 0.0 0.0

-282934.1976411636 1.3415149420907166e7 0.0
1.3415149420907166e7 -7.156906856026348e6 0.0
0.0 0.0 0.0

3.425717542320832e7 1.5524339525074588e7 0.0
1.5524339525074588e7 -621397.3143929429 0.0
0.0 0.0 0.0

1.697954380887998e6 1.2470206656167975e7 0.0
1.2470206656167975e7 -4.755948684103439e6 0.0
0.0 0.0 0.0

607759.3585376991 1.1801221097327352e7 0.0
1.1801221097327352e7 -1.1646429321513155e7 0.0
0.0 0.0 0.0

-1.4547058482990912e6 1.4638754164546762e7 0.0
1.4638754164546762e7 -5.656126863283102e6 0.0
0.0 0.0 0.0

-1.802821895503723e7 1.4898333292873101e7 0.0
1.4898333292873101e7 8.595840701399248e6 0.0
0.0 0.0 0.0

-5.95341968686818e6 1.5742120199617032e7 0.0
1.5742120199617032e7 6.143800621073943e6 0.0
0.0 0.0 0.0

5.371639436797122e6 1.2390913747148234e7 0.0
1.2390913747148234e7 -2.716910961309073e6 0.0
0.0 0.0 0.0

1.169929150633107e6 1.1125535389906053e7 0.0
1.1125535389906053e7 -1.7013223712688725e7 0.0
0.0 0.0 0.0

-509135.24574673735 1.3755898237306826e7 0.0
1.3755898237306826e7 8.759533335713217e6 0.0
0.0 0.0 0.0

4.42284058125765e6 6.185278351751002e6 0.0
6.185278351751002e6 -1.230581007714088e7 0.0
0.0 0.0 0.0

-1.2472751754439864e6 1.4982505218776926e7 0.0
1.4982505218776926e7 -4.999966020739273e6 0.0
0.0 0.0 0.0

5.451744697634771e6 5.733753804086745e6 0.0
5.733753804086745e6 -1.9777523406214893e7 0.0
0.0 0.0 0.0

-2.4371640856050113e6 1.4521047456266725e7 0.0
1.4521047456266725e7 -4.532824939516671e6 0.0
0.0 0.0 0.0

-1.6598839880744321e6 1.698069386180142e7 0.0
1.698069386180142e7 -3.1277690174963977e6 0.0
0.0 0.0 0.0

-3.9083949454837423e6 1.3008965406543951e7 0.0
1.3008965406543951e7 1.2698453324199812e6 0.0
0.0 0.0 0.0

-1.0644288091638677e7 1.7874043190350454e7 0.0
1.7874043190350454e7 8.493425166036079e6 0.0
0.0 0.0 0.0

-9.093568343268529e6 1.1963393279058876e7 0.0
1.1963393279058876e7 1.179107828794168e7 0.0
0.0 0.0 0.0

-1.8480589139283646e6 1.0337844552885257e7 0.0
1.0337844552885257e7 3.2611549964769664e6 0.0
0.0 0.0 0.0

-2.466441993901124e7 1.5851758062629448e7 0.0
1.5851758062629448e7 1.288175005803654e7 0.0
0.0 0.0 0.0

3.1443523811031636e6 1.2369258184958043e7 0.0
1.2369258184958043e7 3.7415014289692855e6 0.0
0.0 0.0 0.0

-3.105839501349669e6 7.993233230589431e6 0.0
7.993233230589431e6 375921.1124556677 0.0
0.0 0.0 0.0

-6.65445247539566e6 1.7665807031306375e7 0.0
1.7665807031306375e7 6.421542465528257e6 0.0
0.0 0.0 0.0

-1.5105624482693798e6 1.4756016413036644e7 0.0
1.4756016413036644e7 -2.215520384316327e6 0.0
0.0 0.0 0.0

719657.3501641005 1.0200704542948227e7 0.0
1.0200704542948227e7 -6.8885377888876125e6 0.0
0.0 0.0 0.0

5.305860949196176e6 4.761707931812825e6 0.0
4.761707931812825e6 -1.495193138015975e7 0.0
0.0 0.0 0.0

673333.4464349616 1.0319349851435171e7 0.0
1.0319349851435171e7 -7.001210206859089e6 0.0
0.0 0.0 0.0

1.978430083282278e7 5.94452891797397e6 0.0
5.94452891797397e6 -3.881303338237377e6 0.0
0.0 0.0 0.0

-8.867391284992632e6 1.2074946731775712e7 0.0
1.2074946731775712e7 1.2507663267872639e7 0.0
0.0 0.0 0.0

-7.057597176536037e6 1.7417714567790695e7 0.0
1.7417714567790695e7 6.679498221723875e6 0.0
0.0 0.0 0.0

-6.852915492751068e6 -9.188537349534512e6 0.0
-9.188537349534512e6 1.6935522781206004e7 0.0
0.0 0.0 0.0

-7.224573228391957e6 1.9890407943490457e7 0.0
1.9890407943490457e7 5.417889204802996e6 0.0
0.0 0.0 0.0

-1.5642560930140292e7 1.2918629415825399e7 0.0
1.2918629415825399e7 8.566254080730986e6 0.0
0.0 0.0 0.0

-178061.6577802007 1.2513906881122869e7 0.0
1.2513906881122869e7 -9.085272515072113e6 0.0
0.0 0.0 0.0

-174604.24468586082 1.3782682655951709e7 0.0
1.3782682655951709e7 6.059875198497498e6 0.0
0.0 0.0 0.0

-638778.222564935 1.0527225234048594e7 0.0
1.0527225234048594e7 792620.8218208498 0.0
0.0 0.0 0.0

-6.206227176125735e6 1.4062264561308272e7 0.0
1.4062264561308272e7 6.001596289544674e6 0.0
0.0 0.0 0.0

442195.648023556 9.831266728174279e6 0.0
9.831266728174279e6 -7.396954448193036e6 0.0
0.0 0.0 0.0

2.8078683901760243e6 8.115324736579118e6 0.0
8.115324736579118e6 -1.0389640204793382e7 0.0
0.0 0.0 0.0

183120.9673133134 7.27102567304442e6 0.0
7.27102567304442e6 -4.7766460347440345e6 0.0
0.0 0.0 0.0

-6.5187487612749785e6 1.744595884234301e7 0.0
1.744595884234301e7 6.176815108084231e6 0.0
0.0 0.0 0.0

-1.2336198939528512e6 1.1605054083367327e7 0.0
1.1605054083367327e7 -4.890738453519805e6 0.0
0.0 0.0 0.0

7.363885068885292e6 9.672364829055466e6 0.0
9.672364829055466e6 128774.65431847936 0.0
0.0 0.0 0.0

5.343891826526843e6 4.736954161756726e6 0.0
4.736954161756726e6 -1.5026939585526269e7 0.0
0.0 0.0 0.0

-1.5961427461160873e6 1.3616522993457783e7 0.0
1.3616522993457783e7 6.339277785963127e6 0.0
0.0 0.0 0.0

604473.0153854864 7.170643254903622e6 0.0
7.170643254903622e6 -5.535589739431647e6 0.0
0.0 0.0 0.0

-4.220802433898224e6 1.7144288364717975e7 0.0
1.7144288364717975e7 582085.2330690494 0.0
0.0 0.0 0.0

-1.244872863720587e6 1.3109326596103856e7 0.0
1.3109326596103856e7 3.13346877271813e6 0.0
0.0 0.0 0.0

-1.2090148950175766e7 1.9882982931202154e6 0.0
1.9882982931202154e6 2.018295211100187e7 0.0
0.0 0.0 0.0

-891073.3641962355 4.594623448921887e6 0.0
4.594623448921887e6 -110114.99145438758 0.0
0.0 0.0 0.0

-2.2641273325576778e6 1.720989059113196e7 0.0
1.720989059113196e7 -3.4869092709325254e6 0.0
0.0 0.0 0.0

-3.0533099471154146e7 6.656550647033229e6 0.0
6.656550647033229e6 1.1852169074294025e7 0.0
0.0 0.0 0.0

707998.1659791297 1.1779062879150894e7 0.0
1.1779062879150894e7 -1.1016173700531246e7 0.0
0.0 0.0 0.0

-3.419752395535721e6 9.852966559660198e6 0.0
9.852966559660198e6 5.024955810218366e6 0.0
0.0 0.0 0.0

-7.136267650683998e6 1.1304075851506073e7 0.0
1.1304075851506073e7 8.72148908887774e6 0.0
0.0 0.0 0.0

-3.2719137038035296e7 6.956516034723435e6 0.0
6.956516034723435e6 1.1928357518083416e7 0.0
0.0 0.0 0.0

654068.8197297403 1.1499640864089219e7 0.0
1.1499640864089219e7 -1.1826117081121974e7 0.0
0.0 0.0 0.0

-1.3741895843210723e6 1.4250950096851125e7 0.0
1.4250950096851125e7 -5.664324404520474e6 0.0
0.0 0.0 0.0

1.2459158378660558e6 5.401222070648558e6 0.0
5.401222070648558e6 -4.680464256698924e6 0.0
0.0 0.0 0.0

-3.1793444730809345e6 1.5410656261103775e7 0.0
1.5410656261103775e7 -1.4117082556134623e6 0.0
0.0 0.0 0.0

-3.5139659853714653e6 1.9009722505151547e7 0.0
1.9009722505151547e7 -1.18090987548204e6 0.0
0.0 0.0 0.0

-6.229752911823756e6 1.8341709882243842e7 0.0
1.8341709882243842e7 4.586214439057857e6 0.0
0.0 0.0 0.0

-5.816093605596775e6 1.3389277279723756e7 0.0
1.3389277279723756e7 3.450979785480231e6 0.0
0.0 0.0 0.0

-1.173041827247947e7 7.889154098516839e6 0.0
7.889154098516839e6 1.539763259047026e7 0.0
0.0 0.0 0.0

-4.862473030944049e6 1.428678707287653e7 0.0
1.428678707287653e7 7.110943963247748e6 0.0
0.0 0.0 0.0

-7.034435309491849e6 1.944368928279677e7 0.0
1.944368928279677e7 5.23955807383294e6 0.0
0.0 0.0 0.0

1.099697175907067e6 8.71932820131126e6 0.0
8.71932820131126e6 -7.90155675304909e6 0.0
0.0 0.0 0.0

-6.831824700229718e6 1.9079023379114855e7 0.0
1.9079023379114855e7 5.037043810710629e6 0.0
0.0 0.0 0.0

-3.5901130539857317e6 1.4392735403105313e7 0.0
1.4392735403105313e7 1.0806662376294544e7 0.0
0.0 0.0 0.0

-1.144571943142157e7 5.535089147103717e6 0.0
5.535089147103717e6 1.4955031898151949e7 0.0
0.0 0.0 0.0

5.034325664042746e6 5.225287005391335e6 0.0
5.225287005391335e6 -1.5676144871277874e7 0.0
0.0 0.0 0.0

-7.259673959302947e6 1.5760646976725344e7 0.0
1.5760646976725344e7 5.287675538047608e6 0.0
0.0 0.0 0.0

-4.287807606678642e6 1.544039308543664e7 0.0
1.544039308543664e7 -28631.93158901902 0.0
0.0 0.0 0.0

-3.706777869227436e6 1.5497438711906746e7 0.0
1.5497438711906746e7 -594620.5508101517 0.0
0.0 0.0 0.0

-3.6824433792728625e7 2.895509929108915e7 0.0
2.895509929108915e7 -8.438048436088858e6 0.0
0.0 0.0 0.0

145455.2395163984 1.2806190830617106e7 0.0
1.2806190830617106e7 -8.613835801554047e6 0.0
0.0 0.0 0.0

-4.898012040248124e6 1.680917826737279e7 0.0
1.680917826737279e7 2.7147199474216634e6 0.0
0.0 0.0 0.0

-7.867951447626016e6 1.1974261176619792e7 0.0
1.1974261176619792e7 8.526032319340989e6 0.0
0.0 0.0 0.0

-2.1012873894542407e7 1.138373095600405e7 0.0
1.138373095600405e7 1.1565398130998015e7 0.0
0.0 0.0 0.0

-24441.487568062963 1.2735147552181773e7 0.0
1.2735147552181773e7 -1.0474246974831712e6 0.0
0.0 0.0 0.0

-5.826902842663311e6 1.3688787950281104e7 0.0
1.3688787950281104e7 1.2492123381948126e7 0.0
0.0 0.0 0.0

5.831318870064913e6 4.449083621190954e6 0.0
4.449083621190954e6 -1.7959894131975643e7 0.0
0.0 0.0 0.0

-1.728129932397635e7 1.853122124282112e7 0.0
1.853122124282112e7 1.1730225264876217e7 0.0
0.0 0.0 0.0

-8.619536018483896e6 -6.691274021427786e6 0.0
-6.691274021427786e6 1.890646225409589e7 0.0
0.0 0.0 0.0

-1.0941214855766775e7 -5.15709347954571e6 0.0
-5.15709347954571e6 2.4251011229700007e7 0.0
0.0 0.0 0.0

-710510.7238476723 3.8864462802957916e6 0.0
3.8864462802957916e6 -318858.06219382427 0.0
0.0 0.0 0.0

-1.1996430107384872e7 6.576249110223493e6 0.0
6.576249110223493e6 1.6761320179459184e7 0.0
0.0 0.0 0.0

-6.6179123710870305e6 1.12007241977499e7 0.0
1.12007241977499e7 9.268879245652549e6 0.0
0.0 0.0 0.0

1.196437150313809e6 1.1348158938882554e7 0.0
1.1348158938882554e7 -1.2315469547584783e7 0.0
0.0 0.0 0.0

-2.6661228593314186e7 2.3173159906143278e7 0.0
2.3173159906143278e7 1.2763813177076492e7 0.0
0.0 0.0 0.0

-1.1478169704811014e7 6.268435372030473e6 0.0
6.268435372030473e6 1.5334251698442578e7 0.0
0.0 0.0 0.0

1.2394531184682334e6 1.1024405300451998e7 0.0
1.1024405300451998e7 -1.7341026904996768e7 0.0
0.0 0.0 0.0

-1.4581394278689027e7 1.147056698283801e7 0.0
1.147056698283801e7 9.082195186364066e6 0.0
0.0 0.0 0.0

-1.0136373789904417e7 -5.610548000812873e6 0.0
-5.610548000812873e6 2.5017572682340045e7 0.0
0.0 0.0 0.0

-641955.4767530584 1.2122325469774023e7 0.0
1.2122325469774023e7 -7.490958049139968e6 0.0
0.0 0.0 0.0

-1.3642792115516737e6 1.2594059080535835e7 0.0
1.2594059080535835e7 -1.7788387848497123e7 0.0
0.0 0.0 0.0

-837297.5576481153 1.4107136006299153e7 0.0
1.4107136006299153e7 -2.245138090371579e6 0.0
0.0 0.0 0.0

-1.283767603219838e7 9.554037867211029e6 0.0
9.554037867211029e6 8.298256657388346e6 0.0
0.0 0.0 0.0

1.6326350138618428e7 1.5694840757287232e7 0.0
1.5694840757287232e7 2.3339424167324123e6 0.0
0.0 0.0 0.0

-585745.7629738826 7.97568851653163e6 0.0
7.97568851653163e6 -3.4340378106189608e6 0.0
0.0 0.0 0.0

643245.7252094545 1.1493116794357112e7 0.0
1.1493116794357112e7 -8.613905208874183e6 0.0
0.0 0.0 0.0

310505.792135295 1.0458882154805316e7 0.0
1.0458882154805316e7 -8.629013497275477e6 0.0
0.0 0.0 0.0

6.0243256341571e6 4.498296848031147e6 0.0
4.498296848031147e6 -1.8068262177167986e7 0.0
0.0 0.0 0.0

-4.1148753458502986e6 1.650201474646737e7 0.0
1.650201474646737e7 779081.8194263317 0.0
0.0 0.0 0.0

294437.6688892348 1.1376695038592476e7 0.0
1.1376695038592476e7 -1.228836830151793e7 0.0
0.0 0.0 0.0

146871.5832453901 1.352065755274971e7 0.0
1.352065755274971e7 -7.32553609119195e6 0.0
0.0 0.0 0.0

-115032.41534083887 1.0452738734258398e7 0.0
1.0452738734258398e7 -1.0067991358328426e6 0.0
0.0 0.0 0.0

-2.8280400493399715e6 8.099051162961681e6 0.0
8.099051162961681e6 1.2337993984538727e6 0.0
0.0 0.0 0.0

-6.565797896298959e6 1.371982934217664e7 0.0
1.371982934217664e7 5.474100348164873e6 0.0
0.0 0.0 0.0

-5.114789844043778e6 1.3961973137534332e7 0.0
1.3961973137534332e7 1.0149206976097029e7 0.0
0.0 0.0 0.0

4.859439338950847e6 5.116799734593374e6 0.0
5.116799734593374e6 -1.3067269959065482e7 0.0
0.0 0.0 0.0

-1.0122220824790921e7 4.503761246966523e6 0.0
4.503761246966523e6 3.815433553143203e6 0.0
0.0 0.0 0.0

-3.214244436740446e6 1.3710696331335435e7 0.0
1.3710696331335435e7 9.568071760408677e6 0.0
0.0 0.0 0.0

548138.4978453033 1.1802216476460999e7 0.0
1.1802216476460999e7 -1.0001872113289524e7 0.0
0.0 0.0 0.0

2.9487413214782983e7 7.153867469432885e6 0.0
7.153867469432885e6 -3.1966708683624063e6 0.0
0.0 0.0 0.0

1.1372737131379955e6 1.1764170677172927e7 0.0
1.1764170677172927e7 -1.0957085409149256e7 0.0
0.0 0.0 0.0

-4.349037412918634e6 1.5927372752778811e7 0.0
1.5927372752778811e7 -387513.99661687156 0.0
0.0 0.0 0.0

-4.699391460777644e6 1.3999838938759724e7 0.0
1.3999838938759724e7 1.2170030102416812e6 0.0
0.0 0.0 0.0

-3.2593780194752924e6 1.4004708374761712e7 0.0
1.4004708374761712e7 2.63274404320471e7 0.0
0.0 0.0 0.0

-1.2075026382137984e7 5.817974712044626e6 0.0
5.817974712044626e6 1.7520243767747067e7 0.0
0.0 0.0 0.0

-7.189868707184211e6 -9.664613462135565e6 0.0
-9.664613462135565e6 1.739427823682954e7 0.0
0.0 0.0 0.0

-1.2687819665342305e7 462801.01987858367 0.0
462801.01987858367 2.031022225092756e7 0.0
0.0 0.0 0.0

-6.107472756671775e6 1.7857264410373e7 0.0
1.7857264410373e7 4.584525489464775e6 0.0
0.0 0.0 0.0

2.3368866978301336e6 8.859435287287e6 0.0
8.859435287287e6 -1.1251537579428501e7 0.0
0.0 0.0 0.0

-6.40084538345159e6 1.4853141804287497e7 0.0
1.4853141804287497e7 7.475956383871255e6 0.0
0.0 0.0 0.0

-217382.5426206747 1.305901287993832e7 0.0
1.305901287993832e7 -8.002870412219424e6 0.0
0.0 0.0 0.0

-7.413889201482572e6 1.0552447476027329e7 0.0
1.0552447476027329e7 7.108471521354999e6 0.0
0.0 0.0 0.0

-5.9157591424173005e6 1.607821031977972e7 0.0
1.607821031977972e7 6.551476557831105e6 0.0
0.0 0.0 0.0

10379.284492757171 1.6235671157620525e7 0.0
1.6235671157620525e7 -4.851464535358311e6 0.0
0.0 0.0 0.0

-6.040357504019931e6 1.388026338514826e7 0.0
1.388026338514826e7 8.204396334650604e6 0.0
0.0 0.0 0.0

-6.667930997443785e6 1.4388874412694555e7 0.0
1.4388874412694555e7 8.002795286992168e6 0.0
0.0 0.0 0.0

-467356.2793550077 1.0913335037633963e7 0.0
1.0913335037633963e7 -9.307978545038963e6 0.0
0.0 0.0 0.0

-1.1986145876114044e7 6.096389298501727e6 0.0
6.096389298501727e6 1.3757221976592567e7 0.0
0.0 0.0 0.0

-5.923404290888907e6 1.79350100007506e7 0.0
1.79350100007506e7 5.233478849955689e6 0.0
0.0 0.0 0.0

4.260983538164887e6 5.997551384159858e6 0.0
5.997551384159858e6 -1.2843304291797528e7 0.0
0.0 0.0 0.0

-1.1998402975717494e7 -1.513396268444869e6 0.0
-1.513396268444869e6 3.410308148935672e7 0.0
0.0 0.0 0.0

-581532.9477488629 1.3684774040387193e7 0.0
1.3684774040387193e7 -2.974961995623048e6 0.0
0.0 0.0 0.0

-6.2797953180701565e6 1.8186172603572622e7 0.0
1.8186172603572622e7 4.882479487761805e6 0.0
0.0 0.0 0.0

2.5340684166046893e6 1.000613833223928e7 0.0
1.000613833223928e7 -1.2914140382031767e7 0.0
0.0 0.0 0.0

-4.822945292118138e6 1.6584104815458104e7 0.0
1.6584104815458104e7 595276.6067049201 0.0
0.0 0.0 0.0

2.5536233563625696e6 8.032390933753415e6 0.0
8.032390933753415e6 -1.1278035192415748e7 0.0
0.0 0.0 0.0

-1.1648859439528434e7 4.992585749631895e6 0.0
4.992585749631895e6 1.5588703081377108e7 0.0
0.0 0.0 0.0

-3.45320659322862e7 2.342098870957077e7 0.0
2.342098870957077e7 1.133261927763239e7 0.0
0.0 0.0 0.0

-6.016321601913069e6 1.473108119059938e7 0.0
1.473108119059938e7 1.7108123617438348e6 0.0
0.0 0.0 0.0

-5.955552808096815e6 1.4969111727275494e7 0.0
1.4969111727275494e7 7.376854302768159e6 0.0
0.0 0.0 0.0

-1.173889472223986e6 856214.9493347073 0.0
856214.9493347073 1.582975906505419e6 0.0
0.0 0.0 0.0

-7.178863628112681e6 1.415037055618833e7 0.0
1.415037055618833e7 812178.2169733862 0.0
0.0 0.0 0.0

-6.19698815565738e6 1.6198263095504403e7 0.0
1.6198263095504403e7 6.164119367704675e6 0.0
0.0 0.0 0.0

5.3099431707827635e6 5.076050482414948e6 0.0
5.076050482414948e6 -1.5960977508453531e7 0.0
0.0 0.0 0.0

-6.829142858057449e6 9.576656493132414e6 0.0
9.576656493132414e6 8.258083548651503e6 0.0
0.0 0.0 0.0

-8.12054259205353e6 7.4458029971952e6 0.0
7.4458029971952e6 1.1019794289395845e7 0.0
0.0 0.0 0.0

-5.273811393690273e6 2.045496249566004e7 0.0
2.045496249566004e7 2.700881119474639e6 0.0
0.0 0.0 0.0

-6.573552786761118e6 1.7097720940195734e6 0.0
1.7097720940195734e6 6.740874948364328e6 0.0
0.0 0.0 0.0

-1.2150205083893642e7 6.898778247008343e6 0.0
6.898778247008343e6 1.4407440531785036e7 0.0
0.0 0.0 0.0

-5.921721912617039e6 1.8575096639460698e7 0.0
1.8575096639460698e7 4.996642227713859e6 0.0
0.0 0.0 0.0

-1.1029261292203095e7 -4.943910665019397e6 0.0
-4.943910665019397e6 2.6765870248988833e7 0.0
0.0 0.0 0.0

-2.0944362550747131e6 1.452829456098968e6 0.0
1.452829456098968e6 2.8595807785307053e6 0.0
0.0 0.0 0.0

3.732480656006771e6 6.9364754351449665e6 0.0
6.9364754351449665e6 -1.2354469409308953e7 0.0
0.0 0.0 0.0

-6.430012767860703e6 1.4090490665560521e7 0.0
1.4090490665560521e7 6.152960481104389e6 0.0
0.0 0.0 0.0

-1.2320716739927165e7 7.165663210441575e6 0.0
7.165663210441575e6 1.5239022497046135e7 0.0
0.0 0.0 0.0

-964065.3771383264 1.2687411818354966e7 0.0
1.2687411818354966e7 -7.234446503772345e6 0.0
0.0 0.0 0.0

-38897.38707711734 1.221485878278611e7 0.0
1.221485878278611e7 -7.568526744911187e6 0.0
0.0 0.0 0.0

2.516692158329076e6 8.75726058923735e6 0.0
8.75726058923735e6 -1.1965820781800488e7 0.0
0.0 0.0 0.0

980805.6739113443 1.1570639641853983e7 0.0
1.1570639641853983e7 -1.1715733310971081e7 0.0
0.0 0.0 0.0

-1.1470418333948366e6 1.041717982814099e7 0.0
1.041717982814099e7 2.907638437830501e6 0.0
0.0 0.0 0.0

-1.2445005837495632e7 8.117568515218135e6 0.0
8.117568515218135e6 1.4436022475361302e7 0.0
0.0 0.0 0.0

-4.517463329320401e6 1.6217434382405372e7 0.0
1.6217434382405372e7 -230370.21770388912 0.0
0.0 0.0 0.0

-6.539832495577857e6 1.7393648915984277e7 0.0
1.7393648915984277e7 6.436475929387125e6 0.0
0.0 0.0 0.0

-5.798172210182514e6 1.8105324212419294e7 0.0
1.8105324212419294e7 4.997470489396632e6 0.0
0.0 0.0 0.0

3.8977777462051446e6 1.8305090389310863e7 0.0
1.8305090389310863e7 3.562343942899842e7 0.0
0.0 0.0 0.0

-5.92803861982768e6 1.4259839862503568e7 0.0
1.4259839862503568e7 5.732083377655593e6 0.0
0.0 0.0 0.0

316029.8356458731 1.1755371748455165e7 0.0
1.1755371748455165e7 -7.974888756588596e6 0.0
0.0 0.0 0.0

668214.706959418 1.183814257155564e7 0.0
1.183814257155564e7 -1.131361534602774e7 0.0
0.0 0.0 0.0

669804.9988646572 1.1684311787423022e7 0.0
1.1684311787423022e7 -8.893258365043957e6 0.0
0.0 0.0 0.0

-4.989725037571005e6 1.780767104560399e7 0.0
1.780767104560399e7 2.507512982527758e6 0.0
0.0 0.0 0.0

-6.270554139198989e6 1.3376142074620137e7 0.0
1.3376142074620137e7 4.869084183979202e6 0.0
0.0 0.0 0.0

-3351.4755101952906 9.883074743460558e6 0.0
9.883074743460558e6 -227719.92065327475 0.0
0.0 0.0 0.0

649713.1899933419 1.197058987436837e7 0.0
1.197058987436837e7 -9.718218093605155e6 0.0
0.0 0.0 0.0

-3.5745336781674274e6 8.212733524889163e6 0.0
8.212733524889163e6 1.135946002462509e6 0.0
0.0 0.0 0.0

-7.471113405804121e6 2.3269683587469388e7 0.0
2.3269683587469388e7 -1.3462771673019184e6 0.0
0.0 0.0 0.0

5.848484036144723e6 5.455895550226637e6 0.0
5.455895550226637e6 -2.094597448975214e7 0.0
0.0 0.0 0.0

3.480740046484447e7 1.5893533914940167e7 0.0
1.5893533914940167e7 2.1092857557522655e6 0.0
0.0 0.0 0.0

1.1165084070224237e7 2.0531637813590318e7 0.0
2.0531637813590318e7 -2.2705427667483594e7 0.0
0.0 0.0 0.0

-3.3391809987717588e6 1.3360362443875981e7 0.0
1.3360362443875981e7 6.548992021831522e6 0.0
0.0 0.0 0.0

-1.2715927554138605e6 1.0982893984121254e7 0.0
1.0982893984121254e7 4.393799855631409e6 0.0
0.0 0.0 0.0

-1.1963089956104629e7 1.4311274036235768e7 0.0
1.4311274036235768e7 4.246475165641759e6 0.0
0.0 0.0 0.0

-3.524974863614173e7 1.5883134521167498e7 0.0
1.5883134521167498e7 8.340914300787836e6 0.0
0.0 0.0 0.0

-4.342596959672188e6 8.44223252057364e6 0.0
8.44223252057364e6 3.417423179242638e6 0.0
0.0 0.0 0.0

-4.270937339870337e6 1.5825662415020565e7 0.0
1.5825662415020565e7 1.4058465833142742e6 0.0
0.0 0.0 0.0

879004.2659886465 1.1194767804148478e7 0.0
1.1194767804148478e7 -9.196857134178344e6 0.0
0.0 0.0 0.0

5.074199910579367e6 7.230379028763817e6 0.0
7.230379028763817e6 -1.985709260399308e7 0.0
0.0 0.0 0.0

388531.5952807064 1.1355203413798977e7 0.0
1.1355203413798977e7 -9.448007054323887e6 0.0
0.0 0.0 0.0

1.3786631415838022e6 1.081925293486286e7 0.0
1.081925293486286e7 -1.6268114078058474e7 0.0
0.0 0.0 0.0

-8.415655027520033e6 7.824666003055081e6 0.0
7.824666003055081e6 9.422627634713054e6 0.0
0.0 0.0 0.0

-3.645824891164687e6 1.3878177460701937e7 0.0
1.3878177460701937e7 8.230538354958443e6 0.0
0.0 0.0 0.0

-1.5332447339535542e6 9.626742490666447e6 0.0
9.626742490666447e6 2.097767448803639e6 0.0
0.0 0.0 0.0

-2.880543924243832e6 1.0403428027018517e6 0.0
1.0403428027018517e6 2.1512898702279846e6 0.0
0.0 0.0 0.0

-1.225359053433847e7 -966987.4263013289 0.0
-966987.4263013289 1.9559890623642772e7 0.0
0.0 0.0 0.0

-6.140807826700123e6 1.6138298487516563e7 0.0
1.6138298487516563e7 5.99026290146937e6 0.0
0.0 0.0 0.0

-5.00004769571732e6 1.4049113698089823e7 0.0
1.4049113698089823e7 1.0272464584565064e7 0.0
0.0 0.0 0.0

-6.7054834574261485e6 1.1073847719008436e7 0.0
1.1073847719008436e7 7.950914451818646e6 0.0
0.0 0.0 0.0

-750892.0263765634 4.554223697505194e6 0.0
4.554223697505194e6 -1.9036539855407875e6 0.0
0.0 0.0 0.0

-1.2171997375952883e7 8.242955672657914e6 0.0
8.242955672657914e6 3.465038861196216e7 0.0
0.0 0.0 0.0

-3.9905217349867383e6 1.278742486479427e7 0.0
1.278742486479427e7 1.6911523346671907e6 0.0
0.0 0.0 0.0

-4.199882706052717e6 1.588863027620922e7 0.0
1.588863027620922e7 -1.0550585732009974e6 0.0
0.0 0.0 0.0

-5.034548174719058e6 1.3942327565688742e7 0.0
1.3942327565688742e7 1.0279619382016495e7 0.0
0.0 0.0 0.0

-3.3109254888075395e6 8.325406174756087e6 0.0
8.325406174756087e6 1.9143225402445134e6 0.0
0.0 0.0 0.0

-605827.2165227707 1.6369018405934865e7 0.0
1.6369018405934865e7 -4.127402088070228e6 0.0
0.0 0.0 0.0

-1.0881021104960103e7 797495.3225682484 0.0
797495.3225682484 4.0446046071095966e7 0.0
0.0 0.0 0.0

1.0026243207641675e6 1.4991035160077045e7 0.0
1.4991035160077045e7 -5.016516883324263e6 0.0
0.0 0.0 0.0

-6.09234980520878e6 1.82310189402461e7 0.0
1.82310189402461e7 5.509462389935905e6 0.0
0.0 0.0 0.0

-916862.9393936885 1.0851167480281757e7 0.0
1.0851167480281757e7 -1.0944307415641502e7 0.0
0.0 0.0 0.0

-6.003622966079941e6 1.348065881991483e7 0.0
1.348065881991483e7 8.440573592326287e6 0.0
0.0 0.0 0.0

-1.2617961820105288e7 5.654549374382226e6 0.0
5.654549374382226e6 1.5799730030555071e7 0.0
0.0 0.0 0.0

-4.0132319482901236e6 1.781740121589294e7 0.0
1.781740121589294e7 404420.1070369261 0.0
0.0 0.0 0.0

2.390006040688286e6 5.594227294961356e6 0.0
5.594227294961356e6 -7.04918314908418e6 0.0
0.0 0.0 0.0

-8.445437522941435e6 2.186387546659749e7 0.0
2.186387546659749e7 3.3009610050912183e6 0.0
0.0 0.0 0.0

546471.2461998602 1.2157107443968339e7 0.0
1.2157107443968339e7 2.575895311660551e6 0.0
0.0 0.0 0.0

-3.5820747505691727e6 1.475623264003222e7 0.0
1.475623264003222e7 -177012.06054059567 0.0
0.0 0.0 0.0

4.754658131870628e6 6.158283849436441e6 0.0
6.158283849436441e6 -1.6161212209652983e7 0.0
0.0 0.0 0.0

-851876.0875481399 1.4120136361019775e7 0.0
1.4120136361019775e7 -2.8302853371381257e6 0.0
0.0 0.0 0.0

-3.348618354528046e6 1.421947972254722e7 0.0
1.421947972254722e7 1.04519546506172e7 0.0
0.0 0.0 0.0

-5.415453983465592e6 1.7109103089519087e7 0.0
1.7109103089519087e7 4.202161242861373e6 0.0
0.0 0.0 0.0

-1.2232957246102784e6 1.4374129003211182e7 0.0
1.4374129003211182e7 8.621016417671928e6 0.0
0.0 0.0 0.0

-41950.22376448405 4.1851164458954264e6 0.0
4.1851164458954264e6 -1.3505924773257938e6 0.0
0.0 0.0 0.0

-6.949790135025064e6 1.3285431967370026e7 0.0
1.3285431967370026e7 1.380147853721059e7 0.0
0.0 0.0 0.0

-4.449785263744843e6 1.4888774899647746e7 0.0
1.4888774899647746e7 3.0075685657965397e6 0.0
0.0 0.0 0.0

506566.88466128963 1.5625832430864537e7 0.0
1.5625832430864537e7 -4.897983820423809e6 0.0
0.0 0.0 0.0

-1.8037355261804939e6 1.5032087918200156e7 0.0
1.5032087918200156e7 -5.056633547034199e6 0.0
0.0 0.0 0.0

-2.994039278502862e6 1.886097884697031e7 0.0
1.886097884697031e7 -1.3821201612366405e6 0.0
0.0 0.0 0.0

-1.1399373132823845e6 8.859057092053743e6 0.0
8.859057092053743e6 531701.6587875319 0.0
0.0 0.0 0.0

-6.05370236628077e6 1.5386220919547591e7 0.0
1.5386220919547591e7 7.231276595384359e6 0.0
0.0 0.0 0.0

-5.385855615437301e6 1.9283613329326775e7 0.0
1.9283613329326775e7 546326.6895740901 0.0
0.0 0.0 0.0

-1.1540984440686312e6 1.254429394015983e7 0.0
1.254429394015983e7 -1.706478586934535e7 0.0
0.0 0.0 0.0

-3.517518380742449e6 7.226951622744414e6 0.0
7.226951622744414e6 1.2966188852423413e6 0.0
0.0 0.0 0.0

-1.9262051276059414e6 1.034472184405386e7 0.0
1.034472184405386e7 3.4133308033618573e6 0.0
0.0 0.0 0.0

-4.678420835987991e6 1.8495069423924457e7 0.0
1.8495069423924457e7 -409707.99594554096 0.0
0.0 0.0 0.0

664227.848194106 1.2184186630882856e7 0.0
1.2184186630882856e7 -9.986081504735805e6 0.0
0.0 0.0 0.0

4.55189142340516e6 5.659455080028287e6 0.0
5.659455080028287e6 -1.2370046936073989e7 0.0
0.0 0.0 0.0

-1.1107105025495002e7 -4.0752385549840117e6 0.0
-4.0752385549840117e6 3.661924546780059e7 0.0
0.0 0.0 0.0

2.622797101689414e6 1.0085921521353338e7 0.0
1.0085921521353338e7 -1.3658361669402381e7 0.0
0.0 0.0 0.0

-2.5636789686407917e6 1.15832661959051e7 0.0
1.15832661959051e7 6.124764152766829e6 0.0
0.0 0.0 0.0

-7.597992297154285e6 8.419477608355137e6 0.0
8.419477608355137e6 1.0287880773099298e7 0.0
0.0 0.0 0.0

133933.02971640858 1.572844948689793e7 0.0
1.572844948689793e7 -5.036959527872954e6 0.0
0.0 0.0 0.0

3.400832198959585e6 6.318120465074963e6 0.0
6.318120465074963e6 -1.0846573973386675e7 0.0
0.0 0.0 0.0

1.9549998172036635e6 1.2535300862665476e7 0.0
1.2535300862665476e7 -4.651057030117342e6 0.0
0.0 0.0 0.0

-2.250174472127423e6 1.390407774268092e7 0.0
1.390407774268092e7 8.75728255782649e6 0.0
0.0 0.0 0.0

-4.932987889915674e6 2.3177750343076028e7 0.0
2.3177750343076028e7 -4.770953872195745e6 0.0
0.0 0.0 0.0

-659635.1419325385 1.4672473614706442e7 0.0
1.4672473614706442e7 -5.579423017019026e6 0.0
0.0 0.0 0.0

-6.033993761366464e6 1.3296673633593198e7 0.0
1.3296673633593198e7 1.8795960328982256e7 0.0
0.0 0.0 0.0

5.230918613729663e6 4.855584309398332e6 0.0
4.855584309398332e6 -1.438216225912955e7 0.0
0.0 0.0 0.0

-5.628335720933459e6 1.851256351380457e7 0.0
1.851256351380457e7 2.5963611901285057e6 0.0
0.0 0.0 0.0

2.318995602361128e6 1.1248093131664567e7 0.0
1.1248093131664567e7 -240783.9050352968 0.0
0.0 0.0 0.0

-3.805356117754977e7 8.967076474611714e6 0.0
8.967076474611714e6 9.827075997955117e6 0.0
0.0 0.0 0.0

-6.193619684310444e6 1.6256391793703131e7 0.0
1.6256391793703131e7 6.400877229454221e6 0.0
0.0 0.0 0.0

-2.8549106020468753e6 7.09758765422107e6 0.0
7.09758765422107e6 1.4735419718597846e6 0.0
0.0 0.0 0.0

1.3988621626963746e6 1.1460803532878686e7 0.0
1.1460803532878686e7 -1.239844464865196e7 0.0
0.0 0.0 0.0

-3.2919262284234543e6 1.3218628479276704e7 0.0
1.3218628479276704e7 5.716730400288189e6 0.0
0.0 0.0 0.0

612945.8201003028 1.1390844040916396e7 0.0
1.1390844040916396e7 -1.4826641307498422e7 0.0
0.0 0.0 0.0

5.885831560659561e6 4.856872762558735e6 0.0
4.856872762558735e6 -1.768537062875537e7 0.0
0.0 0.0 0.0

2.0286799389912624e7 1.1932591319259271e7 0.0
1.1932591319259271e7 -399547.94004528504 0.0
0.0 0.0 0.0

-6.847392928195272e7 3.0519838967316978e7 0.0
3.0519838967316978e7 -1.3758498853283115e6 0.0
0.0 0.0 0.0

770311.2434159582 1.4133955458923858e7 0.0
1.4133955458923858e7 6.691429441135644e6 0.0
0.0 0.0 0.0

-3.137764666788974e6 1.483599627165642e7 0.0
1.483599627165642e7 -3.4512600892968313e6 0.0
0.0 0.0 0.0

-5.455148685404071e6 1.4150621094503485e7 0.0
1.4150621094503485e7 7.222556922016261e6 0.0
0.0 0.0 0.0

4.416422939802924e6 5.688119381838903e6 0.0
5.688119381838903e6 -1.2202990386778943e7 0.0
0.0 0.0 0.0

-4.955475045822635e6 1.5018352558042461e7 0.0
1.5018352558042461e7 4.1696078340756055e6 0.0
0.0 0.0 0.0

-5.238959187436614e6 1.896968745511456e7 0.0
1.896968745511456e7 2.832380990583807e6 0.0
0.0 0.0 0.0

218959.2262478252 1.1620375471081039e7 0.0
1.1620375471081039e7 -1.2617402245083973e7 0.0
0.0 0.0 0.0

-3.7913774302515574e6 1.454543990462757e7 0.0
1.454543990462757e7 -988366.4266369971 0.0
0.0 0.0 0.0

1.7342989562781665e6 5.607897959561163e6 0.0
5.607897959561163e6 -5.759100781356763e6 0.0
0.0 0.0 0.0

-1.351415197193982e6 1.3589446299292943e7 0.0
1.3589446299292943e7 9.212184750888366e6 0.0
0.0 0.0 0.0

-4.064758490182796e6 1.4683621512166295e7 0.0
1.4683621512166295e7 -78648.5864215612 0.0
0.0 0.0 0.0

-751202.8368414971 1.2710250176308466e7 0.0
1.2710250176308466e7 -6.263416776419007e6 0.0
0.0 0.0 0.0

-5.233598698084538e6 1.4811262701901488e7 0.0
1.4811262701901488e7 2.383348150053939e6 0.0
0.0 0.0 0.0

2.019900377552759e6 1.0174204179935126e7 0.0
1.0174204179935126e7 -1.3178136343622288e7 0.0
0.0 0.0 0.0

-1.1013504348333018e7 -4.859049956721472e6 0.0
-4.859049956721472e6 2.7483452541881435e7 0.0
0.0 0.0 0.0

56653.237814597785 1.1604619176644046e7 0.0
1.1604619176644046e7 -8.778299046734927e6 0.0
0.0 0.0 0.0

2.2114877443705807e6 1.1452203010980142e7 0.0
1.1452203010980142e7 -2.9020848244245304e6 0.0
0.0 0.0 0.0

-4.242345041010257e6 1.446055670607153e7 0.0
1.446055670607153e7 -2.031689957705925e7 0.0
0.0 0.0 0.0

4.0686232018925585e6 6.653091480065871e6 0.0
6.653091480065871e6 -1.2115651349414561e7 0.0
0.0 0.0 0.0

406805.85068407794 1.2461072629695196e7 0.0
1.2461072629695196e7 -9.071364201489083e6 0.0
0.0 0.0 0.0

-6.017252565683198e6 1.5980720639777526e7 0.0
1.5980720639777526e7 6.756534114548773e6 0.0
0.0 0.0 0.0

-5.137404402498058e6 1.6663066063852932e7 0.0
1.6663066063852932e7 2.0404789024605367e6 0.0
0.0 0.0 0.0

-6.40874730096609e6 1.4592089811266433e7 0.0
1.4592089811266433e7 7.247015015121557e6 0.0
0.0 0.0 0.0

771305.9294105227 1.1707441705303049e7 0.0
1.1707441705303049e7 3.1435545955090546e6 0.0
0.0 0.0 0.0

-4.679458772527906e7 1.3742643666458221e7 0.0
1.3742643666458221e7 8.45002294384796e6 0.0
0.0 0.0 0.0

1.0913234464264615e6 3.5705949860472917e6 0.0
3.5705949860472917e6 -3.9544874073593603e6 0.0
0.0 0.0 0.0

37655.421793742105 9.258886816213384e6 0.0
9.258886816213384e6 -2.920727637913806e6 0.0
0.0 0.0 0.0

4.542290938300208e6 1.222486236396514e7 0.0
1.222486236396514e7 -2.6845654216399025e6 0.0
0.0 0.0 0.0

-6.554521639105756e6 1.9689366899728365e7 0.0
1.9689366899728365e7 5.667736126680026e6 0.0
0.0 0.0 0.0

1.383889941937496e6 1.100822020876419e7 0.0
1.100822020876419e7 -1.6859659381960608e7 0.0
0.0 0.0 0.0

-1.0231295385940758e6 1.397378730809637e7 0.0
1.397378730809637e7 -2.6559205647252514e6 0.0
0.0 0.0 0.0

-1.2845169601829762e6 1.5470622096812598e7 0.0
1.5470622096812598e7 -4.520096041727481e6 0.0
0.0 0.0 0.0

653874.684887948 1.0699523341165774e7 0.0
1.0699523341165774e7 -7.42940548531367e6 0.0
0.0 0.0 0.0

-794373.2891773051 1.5104162862582253e7 0.0
1.5104162862582253e7 -5.149373688149267e6 0.0
0.0 0.0 0.0

-861445.5101964142 1.295420039629109e7 0.0
1.295420039629109e7 2.077571566433682e6 0.0
0.0 0.0 0.0

-4.681991339724164e6 1.6572712158089798e7 0.0
1.6572712158089798e7 2.0888873631622903e6 0.0
0.0 0.0 0.0

3.266995266045741e6 7.89374446539745e6 0.0
7.89374446539745e6 -1.1695787936205218e7 0.0
0.0 0.0 0.0

5.305298194117549e6 5.073012869070329e6 0.0
5.073012869070329e6 -1.594190530617055e7 0.0
0.0 0.0 0.0

-1.5286681097507642e6 573435.9764611025 0.0
573435.9764611025 -802393.0810593064 0.0
0.0 0.0 0.0

-3.5551878323313245e6 -16371.396187527029 0.0
-16371.396187527029 327152.7203247624 0.0
0.0 0.0 0.0

-2.9684453881795593e6 1.2575365139343726e7 0.0
1.2575365139343726e7 8.191263080309162e6 0.0
0.0 0.0 0.0

-698630.8766548588 1.2571573164387962e7 0.0
1.2571573164387962e7 2.624934579550236e6 0.0
0.0 0.0 0.0

-1.3146905478894047e6 1.2928186855314266e7 0.0
1.2928186855314266e7 2.206572790676973e6 0.0
0.0 0.0 0.0

2.9669462314583184e6 5.407203716277495e6 0.0
5.407203716277495e6 -9.282773576038977e6 0.0
0.0 0.0 0.0

540025.9005906051 1.414675221807162e7 0.0
1.414675221807162e7 -5.948003718935184e6 0.0
0.0 0.0 0.0

1.9068883276229692e6 5.079937880291706e6 0.0
5.079937880291706e6 -6.092683436069366e6 0.0
0.0 0.0 0.0

-985462.2648881543 1.505352401498433e7 0.0
1.505352401498433e7 -5.002573400370263e6 0.0
0.0 0.0 0.0

-1.1589709138385683e7 8.817748656973993e6 0.0
8.817748656973993e6 1.529647169721819e7 0.0
0.0 0.0 0.0

-3.831713427289721e6 1.6140373801207626e7 0.0
1.6140373801207626e7 -50967.333678497 0.0
0.0 0.0 0.0

-4.1904061066162535e6 1.862356800996238e7 0.0
1.862356800996238e7 1.151256576211449e6 0.0
0.0 0.0 0.0

3.6150187177070584e6 6.870538932820813e6 0.0
6.870538932820813e6 -1.2451809313062338e7 0.0
0.0 0.0 0.0

3.9278411153822355e6 6.4340049568624515e6 0.0
6.4340049568624515e6 -1.269387817533337e7 0.0
0.0 0.0 0.0

5.219661689794362e6 1.3194030566751814e7 0.0
1.3194030566751814e7 -5.498485917224959e6 0.0
0.0 0.0 0.0

-3.453608236215233e6 1.4157619955532908e7 0.0
1.4157619955532908e7 8.589523737979122e6 0.0
0.0 0.0 0.0

-326901.4713291656 1.1878676768196594e7 0.0
1.1878676768196594e7 -8.139738337462569e6 0.0
0.0 0.0 0.0

-6.428892776305274e6 -9.327096672629783e6 0.0
-9.327096672629783e6 1.694005008233769e7 0.0
0.0 0.0 0.0

-6.19399197489325e6 1.8916245860692613e7 0.0
1.8916245860692613e7 5.223809582475269e6 0.0
0.0 0.0 0.0

-1.120841995701635e7 6.849386525245314e6 0.0
6.849386525245314e6 1.4505854606611757e7 0.0
0.0 0.0 0.0

-1.6274396095819077e6 2.25496226513951e6 0.0
2.25496226513951e6 289618.3157187464 0.0
0.0 0.0 0.0

-713071.3539498392 1.1495602036514878e7 0.0
1.1495602036514878e7 -4.755660468380863e6 0.0
0.0 0.0 0.0

5.275209895314511e6 5.1097197776097795e6 0.0
5.1097197776097795e6 -1.5483029738523923e7 0.0
0.0 0.0 0.0

-6.506938241583045e6 1.7631984088816367e7 0.0
1.7631984088816367e7 6.448877086336674e6 0.0
0.0 0.0 0.0

-3.1751558985948414e6 1.4494289163886024e7 0.0
1.4494289163886024e7 -843210.229959013 0.0
0.0 0.0 0.0

2.304554492867931e6 9.940321414269881e6 0.0
9.940321414269881e6 -1.3803822795641353e7 0.0
0.0 0.0 0.0

5.87073276960422e6 1.1387242337042583e7 0.0
1.1387242337042583e7 -1.132869092996813e6 0.0
0.0 0.0 0.0

-6.535300727616814e6 1.7264607782775637e7 0.0
1.7264607782775637e7 6.559034887415033e6 0.0
0.0 0.0 0.0

-8.753938321358718e6 -7.541825878046037e6 0.0
-7.541825878046037e6 1.6261570099997275e7 0.0
0.0 0.0 0.0

-3.148970355843351e6 -4.1088103454628033e6 0.0
-4.1088103454628033e6 4.834364277171725e6 0.0
0.0 0.0 0.0

2.7514138922021315e6 1.1633905571137583e7 0.0
1.1633905571137583e7 -2.834902975939886e6 0.0
0.0 0.0 0.0

-2.5619584731127312e6 1.472594969130902e7 0.0
1.472594969130902e7 -3.267212217770612e6 0.0
0.0 0.0 0.0

-2.645793483130918e6 1.5082126027745193e7 0.0
1.5082126027745193e7 -3.051909579940422e6 0.0
0.0 0.0 0.0

-1.1339552478479091e7 1.983250018373265e6 0.0
1.983250018373265e6 3.1493447576995604e7 0.0
0.0 0.0 0.0

3.147435654890797e6 4.460928422245267e6 0.0
4.460928422245267e6 -7.976905469074726e6 0.0
0.0 0.0 0.0

-2.6313806012300905e6 1.4683528305329615e7 0.0
1.4683528305329615e7 -428086.1261075368 0.0
0.0 0.0 0.0

-4.62911851736673e6 1.4905591865035834e7 0.0
1.4905591865035834e7 -1.2418084822520288e6 0.0
0.0 0.0 0.0

-1.942061949276915e7 1.5464471496478334e7 0.0
1.5464471496478334e7 7.953079022530579e6 0.0
0.0 0.0 0.0

-5.859296819604364e6 1.9120927989083286e7 0.0
1.9120927989083286e7 4.1299491249624267e6 0.0
0.0 0.0 0.0

-230923.30678770546 1.2213494338432468e7 0.0
1.2213494338432468e7 -1.0423406071164974e6 0.0
0.0 0.0 0.0

-9.119329170335894e6 -7.13511910196573e6 0.0
-7.13511910196573e6 1.7827995015637457e7 0.0
0.0 0.0 0.0

4.529183170228366e6 1.2967636042403188e7 0.0
1.2967636042403188e7 -4.855798224103804e6 0.0
0.0 0.0 0.0

-1.1513730966544352e6 1.2457512946436433e7 0.0
1.2457512946436433e7 -4.812036260946377e6 0.0
0.0 0.0 0.0

-6.94377114071697e6 -2.676806491400973e6 0.0
-2.676806491400973e6 1.1388686623883206e7 0.0
0.0 0.0 0.0

-6.739676284485071e6 1.4826941246815233e7 0.0
1.4826941246815233e7 6.722650940916786e6 0.0
0.0 0.0 0.0

-6.454051332075758e6 1.5668512570398249e7 0.0
1.5668512570398249e7 6.635172912221184e6 0.0
0.0 0.0 0.0

-197150.5653288589 3.9218642303330097e6 0.0
3.9218642303330097e6 -2.108215534378737e6 0.0
0.0 0.0 0.0

4.21203363575938e6 6.146107246308731e6 0.0
6.146107246308731e6 -1.3059669705010787e7 0.0
0.0 0.0 0.0

4.238965792983036e6 7.83144166127035e6 0.0
7.83144166127035e6 -2.0683223487391263e7 0.0
0.0 0.0 0.0

-2.414792289417198e6 1.2976559495109469e7 0.0
1.2976559495109469e7 8.56084402534695e6 0.0
0.0 0.0 0.0

2.460536382416574e6 5.143224120908719e6 0.0
5.143224120908719e6 -7.334413809313814e6 0.0
0.0 0.0 0.0

3.1787272114636973e6 1.8120952264943723e7 0.0
1.8120952264943723e7 -9.165578754661154e6 0.0
0.0 0.0 0.0

4.611230878038359e6 5.879235781900848e6 0.0
5.879235781900848e6 -1.2598843454344807e7 0.0
0.0 0.0 0.0

3.6630765197853753e6 5.980925374016444e6 0.0
5.980925374016444e6 -9.764044480003756e6 0.0
0.0 0.0 0.0

3.954377542715459e6 6.059939737990514e6 0.0
6.059939737990514e6 -1.1508816907606922e7 0.0
0.0 0.0 0.0

-146045.30606830324 1.2706004327566098e7 0.0
1.2706004327566098e7 -322246.2424882466 0.0
0.0 0.0 0.0

-498920.6616944915 1.2433177668470342e7 0.0
1.2433177668470342e7 1.7680137904417962e6 0.0
0.0 0.0 0.0

1.7940410346401706e6 1.1019884001048077e7 0.0
1.1019884001048077e7 -1.285816057183138e7 0.0
0.0 0.0 0.0

683243.1903667878 1.942570832998694e7 0.0
1.942570832998694e7 -7.579492414998036e6 0.0
0.0 0.0 0.0

-6.432988285530312e6 -4.032821314462054e6 0.0
-4.032821314462054e6 9.446595903448375e6 0.0
0.0 0.0 0.0

-6.485507476783728e6 1.5143543745844604e7 0.0
1.5143543745844604e7 7.578814221976716e6 0.0
0.0 0.0 0.0

-6.4641307373690875e6 1.8690809709075056e7 0.0
1.8690809709075056e7 4.832421575307594e6 0.0
0.0 0.0 0.0

-4.0324828188106525e6 1.6163051347946621e7 0.0
1.6163051347946621e7 437229.8197893726 0.0
0.0 0.0 0.0

-3.307131248126562e6 635693.6330662139 0.0
635693.6330662139 4.0949138071222026e6 0.0
0.0 0.0 0.0

-1.7821859587160833e6 3.0151843623459446e6 0.0
3.0151843623459446e6 547678.0606917194 0.0
0.0 0.0 0.0

-1.9556068418218237e6 1.4130697157050723e7 0.0
1.4130697157050723e7 7.423690425345555e6 0.0
0.0 0.0 0.0

787524.0492061537 3.319763129142035e6 0.0
3.319763129142035e6 -3.223355940199781e6 0.0
0.0 0.0 0.0

-737526.4933187481 1.5986247432851069e7 0.0
1.5986247432851069e7 -4.689932266392011e6 0.0
0.0 0.0 0.0

-2.4648810834215414e6 1.4259165407742029e7 0.0
1.4259165407742029e7 -4.595986180831384e6 0.0
0.0 0.0 0.0

713554.5836402322 1.2378836783538299e7 0.0
1.2378836783538299e7 -9.855045750495257e6 0.0
0.0 0.0 0.0

-3.9826892677121614e6 1.3821023789518163e7 0.0
1.3821023789518163e7 1.430920031957767e6 0.0
0.0 0.0 0.0

-6.958160083130523e6 1.4308046822826868e7 0.0
1.4308046822826868e7 6.746248289706865e6 0.0
0.0 0.0 0.0

-8.57429021882639e6 7.774046506704659e6 0.0
7.774046506704659e6 1.1937363239548761e7 0.0
0.0 0.0 0.0

-1.7872678731602386e7 2.076327082034161e7 0.0
2.076327082034161e7 1.1220643023042036e7 0.0
0.0 0.0 0.0

2.6214557971471474e6 5.09459361627395e6 0.0
5.09459361627395e6 -7.547052465618678e6 0.0
0.0 0.0 0.0

-70929.6704544574 1.1997513096016916e7 0.0
1.1997513096016916e7 -7.365381627727083e6 0.0
0.0 0.0 0.0

5.996429017188947e6 5.503544649180475e6 0.0
5.503544649180475e6 -2.1145309434549972e7 0.0
0.0 0.0 0.0

-2.1367884817372477e6 1.5451155444898998e7 0.0
1.5451155444898998e7 -4.508291042449437e6 0.0
0.0 0.0 0.0

-4.329234934382019e6 8.1141324163539605e6 0.0
8.1141324163539605e6 2.231426220769314e6 0.0
0.0 0.0 0.0

-2.249034299112607e6 1.182258605820383e7 0.0
1.182258605820383e7 -1.3114593008068789e7 0.0
0.0 0.0 0.0

9.85453119926166e6 1.3949671517306516e7 0.0
1.3949671517306516e7 2.808055224628285e6 0.0
0.0 0.0 0.0

-2.0482256684865602e6 4.500340889003754e6 0.0
4.500340889003754e6 1.1968356959371425e6 0.0
0.0 0.0 0.0

-1.43805690978128e6 1.4328184649802025e7 0.0
1.4328184649802025e7 8.593854447545713e6 0.0
0.0 0.0 0.0

-392907.0289213443 1.2055494560529217e7 0.0
1.2055494560529217e7 1.0407189924972156e7 0.0
0.0 0.0 0.0

-3.3511532020822004e6 9.873776481398296e6 0.0
9.873776481398296e6 -4.872176591816391e6 0.0
0.0 0.0 0.0

-5.822654299139289e6 2.035208191081446e7 0.0
2.035208191081446e7 905621.7079653349 0.0
0.0 0.0 0.0

-3.4354647261690125e6 1.4569756336291306e7 0.0
1.4569756336291306e7 -2.1784095131387166e6 0.0
0.0 0.0 0.0

-7.407165440238766e6 1.0704381705171745e7 0.0
1.0704381705171745e7 9.29866997677934e6 0.0
0.0 0.0 0.0

4.562332643368533e6 8.2616047772595305e6 0.0
8.2616047772595305e6 -2.7224876871750638e7 0.0
0.0 0.0 0.0

-1.751560749284407e6 4.0943946194615993e6 0.0
4.0943946194615993e6 702313.6662738668 0.0
0.0 0.0 0.0

-563889.0924595271 1.2976215732303562e7 0.0
1.2976215732303562e7 -3.3545536330843074e6 0.0
0.0 0.0 0.0

1.274354946260659e6 1.2383950720069336e7 0.0
1.2383950720069336e7 4.760496393186506e6 0.0
0.0 0.0 0.0

-5.810133448100133e6 8.194172792466654e6 0.0
8.194172792466654e6 6.85880681268712e6 0.0
0.0 0.0 0.0

-5.939742586409888e6 1.4150098366604025e7 0.0
1.4150098366604025e7 7.8346221979769785e6 0.0
0.0 0.0 0.0

-5.983418046698466e6 1.6384910740330936e7 0.0
1.6384910740330936e7 5.624122297529079e6 0.0
0.0 0.0 0.0

-1.794875958374074e7 2.0839116729461893e7 0.0
2.0839116729461893e7 1.1377294660624648e7 0.0
0.0 0.0 0.0

1.0798165878806505e6 6.540538345122978e6 0.0
6.540538345122978e6 -4.855642652898883e6 0.0
0.0 0.0 0.0

-6.356329020300147e6 1.614411134259185e7 0.0
1.614411134259185e7 5.270065654592773e6 0.0
0.0 0.0 0.0

-2.8000806719967797e6 1.4064702361246683e7 0.0
1.4064702361246683e7 -2.4279535520857666e6 0.0
0.0 0.0 0.0

1.3250875360668947e6 1.4074474248126367e7 0.0
1.4074474248126367e7 8.645525055310186e6 0.0
0.0 0.0 0.0

-4.1735554873138815e6 1.5615312134952173e7 0.0
1.5615312134952173e7 -723756.9837578161 0.0
0.0 0.0 0.0

2.025146761185714e6 5.065247361210985e6 0.0
5.065247361210985e6 -6.811431192177197e6 0.0
0.0 0.0 0.0

-1.3265293945813212e6 1.2825604625262013e7 0.0
1.2825604625262013e7 -6.417887514875511e6 0.0
0.0 0.0 0.0

-6.11081561064427e6 1.2760093672310575e6 0.0
1.2760093672310575e6 8.8130103467806e6 0.0
0.0 0.0 0.0

4.336697884811256e6 6.368873825624624e6 0.0
6.368873825624624e6 -1.245906734790201e7 0.0
0.0 0.0 0.0

6.094924132490624e6 5.971795861144096e6 0.0
5.971795861144096e6 -2.2566699161889397e7 0.0
0.0 0.0 0.0

-2.832252428433506e6 1.2774459037630532e7 0.0
1.2774459037630532e7 7.303662882937938e6 0.0
0.0 0.0 0.0

161894.95814237976 1.2835500372404905e7 0.0
1.2835500372404905e7 -8.885387814796407e6 0.0
0.0 0.0 0.0

-7.770460441597659e6 1.0789011872313859e7 0.0
1.0789011872313859e7 7.930642515517505e6 0.0
0.0 0.0 0.0

4.565882356558904e6 5.388497443959088e6 0.0
5.388497443959088e6 -1.1955608048166784e7 0.0
0.0 0.0 0.0

1.2481232273189183e6 1.0970349197766408e7 0.0
1.0970349197766408e7 -9.707161674918594e6 0.0
0.0 0.0 0.0

456095.3227114766 1.207902488281787e7 0.0
1.207902488281787e7 -1.0487905766926272e7 0.0
0.0 0.0 0.0

-7.7810902633283e6 1.1699554922212645e7 0.0
1.1699554922212645e7 7.998054164512517e6 0.0
0.0 0.0 0.0

-5.046706688263206e6 3.6311686938444837e6 0.0
3.6311686938444837e6 4.0677537072064113e6 0.0
0.0 0.0 0.0

-6.54865633703266e6 -26088.846129631067 0.0
-26088.846129631067 7.713248402392867e6 0.0
0.0 0.0 0.0

-88117.63517961232 1.2612015109501509e7 0.0
1.2612015109501509e7 -9.14499512263121e6 0.0
0.0 0.0 0.0

-3.4306722962676287e6 7.675206834855589e6 0.0
7.675206834855589e6 2.1700919836125425e6 0.0
0.0 0.0 0.0

920162.4395478419 1.37492147496247e7 0.0
1.37492147496247e7 8.946982107077409e6 0.0
0.0 0.0 0.0

-2.808757076018709e6 1.4542913010971513e7 0.0
1.4542913010971513e7 -4.1366368315059463e6 0.0
0.0 0.0 0.0

2.077910990267816e6 5.112323517292308e6 0.0
5.112323517292308e6 -6.296075054959684e6 0.0
0.0 0.0 0.0

-1.1014322150868958e7 329559.5663683022 0.0
329559.5663683022 2.1060539168108247e7 0.0
0.0 0.0 0.0

-5.771643493400535e6 1.7225795504055776e7 0.0
1.7225795504055776e7 4.031659769252189e6 0.0
0.0 0.0 0.0

-8.216419961602114e6 1.784468323364397e7 0.0
1.784468323364397e7 7.483162361535238e6 0.0
0.0 0.0 0.0

-2.9496395937284757e6 4.630240930385009e6 0.0
4.630240930385009e6 1.2299109843122705e6 0.0
0.0 0.0 0.0

-8.819575512025014e6 -2.710426018348855e6 0.0
-2.710426018348855e6 1.3877306382245537e7 0.0
0.0 0.0 0.0

2.127311748968645e6 1.0262359928087266e7 0.0
1.0262359928087266e7 -1.3926156381878473e7 0.0
0.0 0.0 0.0

-7.268704471211432e6 1.2229104561168035e7 0.0
1.2229104561168035e7 8.926581418043878e6 0.0
0.0 0.0 0.0

-1.1686764968522668e7 1.5046394870416408e6 0.0
1.5046394870416408e6 2.16014802584479e7 0.0
0.0 0.0 0.0

-3.67336532239472e7 1.0468586144963283e7 0.0
1.0468586144963283e7 1.215707961578621e7 0.0
0.0 0.0 0.0

1.160545827266729e6 9.441059694285695e6 0.0
9.441059694285695e6 -8.651970959585e6 0.0
0.0 0.0 0.0

-122330.58639618711 1.251739699785995e7 0.0
1.251739699785995e7 -1.198914159866379e6 0.0
0.0 0.0 0.0

5.379049644923429e6 4.747018905334954e6 0.0
4.747018905334954e6 -1.5051589681103887e7 0.0
0.0 0.0 0.0

-6.330594453229848e6 1.3380162085924169e7 0.0
1.3380162085924169e7 1.1882885059140084e7 0.0
0.0 0.0 0.0

-1.2408736511106297e7 1.4003007441987342e6 0.0
1.4003007441987342e6 1.91843132409748e7 0.0
0.0 0.0 0.0

1.2198406026909638e6 6.021910753091684e6 0.0
6.021910753091684e6 -5.823613532707307e6 0.0
0.0 0.0 0.0

-2.686199712278974e6 1.413201442402384e7 0.0
1.413201442402384e7 -2.349433442362178e6 0.0
0.0 0.0 0.0

-5.271620774105776e6 1.538451881822052e7 0.0
1.538451881822052e7 2.484331459774662e6 0.0
0.0 0.0 0.0

-6.311986921979553e6 1.3721350177800009e7 0.0
1.3721350177800009e7 6.4021455160583565e6 0.0
0.0 0.0 0.0

-7.027565708936578e6 1.7815098724589817e7 0.0
1.7815098724589817e7 6.782703762815004e6 0.0
0.0 0.0 0.0

-4.1946549279228e6 1.2645382950643916e7 0.0
1.2645382950643916e7 677539.7712192407 0.0
0.0 0.0 0.0

-1.0682915195167763e7 -5.88409787679835e6 0.0
-5.88409787679835e6 2.3278536208085977e7 0.0
0.0 0.0 0.0

-1.0736727961994582e6 1.3626181981229119e7 0.0
1.3626181981229119e7 5.847837139365381e6 0.0
0.0 0.0 0.0

336185.54219672503 1.1938645073367784e7 0.0
1.1938645073367784e7 -8.257843989009938e6 0.0
0.0 0.0 0.0

-1.0697660549988035e7 1.5514213212641845e7 0.0
1.5514213212641845e7 6.927469191088754e6 0.0
0.0 0.0 0.0

-779946.9653895844 3.7678720560104763e6 0.0
3.7678720560104763e6 -833581.5923797335 0.0
0.0 0.0 0.0

-6.02235023975045e6 1.8439007845356476e7 0.0
1.8439007845356476e7 5.283897339950852e6 0.0
0.0 0.0 0.0

-211477.3447386822 1.2326111356159043e7 0.0
1.2326111356159043e7 -1.7857722158121744e6 0.0
0.0 0.0 0.0

-1.1704085538462795e7 9.603145356807508e6 0.0
9.603145356807508e6 1.3636296528109927e7 0.0
0.0 0.0 0.0

2.7327675876062554e6 8.81079513648709e6 0.0
8.81079513648709e6 -1.1262946718785953e7 0.0
0.0 0.0 0.0

-9.354099691264637e6 8.6765114509555e6 0.0
8.6765114509555e6 1.3067677620099597e7 0.0
0.0 0.0 0.0

1.9175302132235952e6 5.128858842972645e6 0.0
5.128858842972645e6 -6.072924503987059e6 0.0
0.0 0.0 0.0

4.031641295962017e6 6.852082798709828e6 0.0
6.852082798709828e6 -1.2405579201625008e7 0.0
0.0 0.0 0.0

-765422.681659922 1.4107435910242911e7 0.0
1.4107435910242911e7 -2.597803746908642e6 0.0
0.0 0.0 0.0

-4.531539966476854e6 1.3589810255793164e7 0.0
1.3589810255793164e7 2.238506843942996e6 0.0
0.0 0.0 0.0

-5.005616683796832e6 1.5546001928143505e7 0.0
1.5546001928143505e7 3.2974603711000066e6 0.0
0.0 0.0 0.0

-1.3925146180592373e6 1.5087376242807908e7 0.0
1.5087376242807908e7 -5.07175325298856e6 0.0
0.0 0.0 0.0

4.207895010828257e6 6.12368546830175e6 0.0
6.12368546830175e6 -1.1625097798964132e7 0.0
0.0 0.0 0.0

1.2973648978264318e6 4.982891691352763e6 0.0
4.982891691352763e6 -5.235778705871743e6 0.0
0.0 0.0 0.0

3.82875541502857e6 6.628522314539218e6 0.0
6.628522314539218e6 -1.291828557311051e7 0.0
0.0 0.0 0.0

1.6722361352666295e6 6.008199852216962e6 0.0
6.008199852216962e6 -6.030288031764629e6 0.0
0.0 0.0 0.0

4.524576564072894e6 1.3823423214718208e7 0.0
1.3823423214718208e7 6.9966820422544135e6 0.0
0.0 0.0 0.0

-7.630824995028835e6 2.0119573370543152e7 0.0
2.0119573370543152e7 6.839142116833575e6 0.0
0.0 0.0 0.0

-7.550616546807293e6 -6.620673870716889e6 0.0
-6.620673870716889e6 1.5797822140084233e7 0.0
0.0 0.0 0.0

4.785439439803056e6 7.5687212491342155e6 0.0
7.5687212491342155e6 -1.90110225014506e7 0.0
0.0 0.0 0.0

-1.6316099001177482e6 1.5360249973234288e7 0.0
1.5360249973234288e7 -4.368379235266364e6 0.0
0.0 0.0 0.0

-833914.4467612325 1.3815693272263668e7 0.0
1.3815693272263668e7 -3.423825204967619e6 0.0
0.0 0.0 0.0

4.16613804855063e6 7.133412613788668e6 0.0
7.133412613788668e6 -1.550225794796456e7 0.0
0.0 0.0 0.0

-9.507480763234206e6 1.9531292682447035e7 0.0
1.9531292682447035e7 8.65538312489433e6 0.0
0.0 0.0 0.0

-2.7831426873549577e6 1.411967143994758e7 0.0
1.411967143994758e7 9.816985510298906e6 0.0
0.0 0.0 0.0

-2.690438090695428e7 1.7326559243352413e7 0.0
1.7326559243352413e7 1.2794056945780681e7 0.0
0.0 0.0 0.0

-5.421647534922949e6 1.3039845532806443e7 0.0
1.3039845532806443e7 8.94099143171759e6 0.0
0.0 0.0 0.0

2.7941648319108286e6 8.319369740194311e6 0.0
8.319369740194311e6 -1.1476118808768313e7 0.0
0.0 0.0 0.0

2.9211418417445164e7 1.4017813113350805e7 0.0
1.4017813113350805e7 1.3409455713345231e6 0.0
0.0 0.0 0.0

-4.608719366356151e6 1.3795730147219583e7 0.0
1.3795730147219583e7 1.1760598498453187e7 0.0
0.0 0.0 0.0

-7.483469703962555e6 1.2105284077439292e6 0.0
1.2105284077439292e6 1.0039096741062198e7 0.0
0.0 0.0 0.0

-590031.8509414196 1.2664121620149285e7 0.0
1.2664121620149285e7 1.941219349096435e6 0.0
0.0 0.0 0.0

521448.62615092564 1.142189885561895e7 0.0
1.142189885561895e7 -1.2312282884747155e7 0.0
0.0 0.0 0.0

1.4904987235545327e6 1.5245862549959077e7 0.0
1.5245862549959077e7 -5.250247949980106e6 0.0
0.0 0.0 0.0

-6.104637135322303e6 1.3838874791880084e7 0.0
1.3838874791880084e7 5.300931248273785e6 0.0
0.0 0.0 0.0

-1.1873386965488665e7 -76932.30588236394 0.0
-76932.30588236394 1.8397352167656824e7 0.0
0.0 0.0 0.0

-9.665694207624836e6 1.996503084637486e7 0.0
1.996503084637486e7 7.849151217680873e6 0.0
0.0 0.0 0.0

-4.636980317625614e6 1.4654503563649274e7 0.0
1.4654503563649274e7 2.808263401096462e6 0.0
0.0 0.0 0.0

-5.420072328802507e6 1.5244529641190408e7 0.0
1.5244529641190408e7 2.7963451743150675e6 0.0
0.0 0.0 0.0

-4.302445537955386e6 1.7572225356358595e7 0.0
1.7572225356358595e7 555208.0064998183 0.0
0.0 0.0 0.0

-5.705331485161987e6 1.6869456112280708e7 0.0
1.6869456112280708e7 3.7721241855007643e6 0.0
0.0 0.0 0.0

-320398.2585331233 1.2764470304059563e7 0.0
1.2764470304059563e7 -1.130339745379691e6 0.0
0.0 0.0 0.0

-3.3455376233943654e6 1.3606801220438227e7 0.0
1.3606801220438227e7 6.799784208819317e6 0.0
0.0 0.0 0.0

1.6385748696460337e6 1.1574451029621009e7 0.0
1.1574451029621009e7 -2.693516268708427e6 0.0
0.0 0.0 0.0

-1.614826701235544e6 1.2447932988180757e7 0.0
1.2447932988180757e7 -1.590926097868057e7 0.0
0.0 0.0 0.0

-373445.71430864686 1.2882731035353096e7 0.0
1.2882731035353096e7 -308292.9464707017 0.0
0.0 0.0 0.0

-4.659454843522819e6 1.342144011866531e7 0.0
1.342144011866531e7 1.3749042948446446e6 0.0
0.0 0.0 0.0

-4.0795751423828155e6 9.191425006004376e6 0.0
9.191425006004376e6 1.251625949657259e7 0.0
0.0 0.0 0.0

-1.3285581379186378e6 1.3617120424358675e7 0.0
1.3617120424358675e7 -5.669308097803527e6 0.0
0.0 0.0 0.0

1.0063123738281894e6 1.08173889469839e7 0.0
1.08173889469839e7 -1.0368148576386668e7 0.0
0.0 0.0 0.0

4.382403336397643e6 5.953816428748639e6 0.0
5.953816428748639e6 -1.1969875218479164e7 0.0
0.0 0.0 0.0

-4.734824131330371e6 1.3904774066936763e7 0.0
1.3904774066936763e7 1.1214250895838035e7 0.0
0.0 0.0 0.0

-2.623493241661419e6 1.3633563544064585e7 0.0
1.3633563544064585e7 4.508240686877611e6 0.0
0.0 0.0 0.0

-9.911999467495844e6 8.890329667256813e6 0.0
8.890329667256813e6 1.3234610765004318e7 0.0
0.0 0.0 0.0

-5.964694999634877e6 1.3507144651467562e7 0.0
1.3507144651467562e7 5.793703738874417e6 0.0
0.0 0.0 0.0

-1.4429250427658488e6 1.4246226977697598e7 0.0
1.4246226977697598e7 -2.725061372647138e6 0.0
0.0 0.0 0.0

-1.0057509102944791e7 9.334808770979939e6 0.0
9.334808770979939e6 1.1714960759548455e7 0.0
0.0 0.0 0.0

-1.1993938801917158e7 8.733184493128125e6 0.0
8.733184493128125e6 1.3958639928033348e7 0.0
0.0 0.0 0.0

-8.97352782596678e6 7.877957434929166e6 0.0
7.877957434929166e6 1.0270133918823015e7 0.0
0.0 0.0 0.0

-6.017113807567457e6 -503151.2475087632 0.0
-503151.2475087632 6.6103102303475365e6 0.0
0.0 0.0 0.0

-6.375187017357519e6 1.5026827776465543e7 0.0
1.5026827776465543e7 6.948143860807655e6 0.0
0.0 0.0 0.0

615604.0926853111 1.142227663701671e7 0.0
1.142227663701671e7 -1.572076963244495e7 0.0
0.0 0.0 0.0

1.3737840251195272e6 1.1035407310886525e7 0.0
1.1035407310886525e7 -1.2909310938494595e7 0.0
0.0 0.0 0.0

-1.7451530909462765e7 1.780674345768342e7 0.0
1.780674345768342e7 5.265640235038531e6 0.0
0.0 0.0 0.0

-1.128403699144259e7 -708173.6159396389 0.0
-708173.6159396389 2.4725846117108684e7 0.0
0.0 0.0 0.0

1.637553507477364e6 1.1268704891262788e7 0.0
1.1268704891262788e7 -1.2156157176247505e7 0.0
0.0 0.0 0.0

-5.476234382960098e6 1.724607914600386e7 0.0
1.724607914600386e7 2.8913032140895785e6 0.0
0.0 0.0 0.0

-571801.7340906025 1.2933828556390826e7 0.0
1.2933828556390826e7 4.1488077149039255e6 0.0
0.0 0.0 0.0

-2.8676386184982797e6 277780.3871579893 0.0
277780.3871579893 4.067682048505202e6 0.0
0.0 0.0 0.0

-489118.87800577836 1.2555584718924152e7 0.0
1.2555584718924152e7 -1.9067882291082563e6 0.0
0.0 0.0 0.0

-2.2223922812044565e6 1.2990303632667203e7 0.0
1.2990303632667203e7 -3.623518428144389e6 0.0
0.0 0.0 0.0

-4.693755682929799e6 5.174926300067516e6 0.0
5.174926300067516e6 2.9795009001447083e6 0.0
0.0 0.0 0.0

5.880821528142465e6 4.449079822758098e6 0.0
4.449079822758098e6 -1.806833732949796e7 0.0
0.0 0.0 0.0

388325.2638195744 7.77123746881828e6 0.0
7.77123746881828e6 -5.600481469652291e6 0.0
0.0 0.0 0.0

-1.0537582020382749e7 -2.0221268910014734e6 0.0
-2.0221268910014734e6 1.2952065608890714e7 0.0
0.0 0.0 0.0

-1.5050530409477002e6 1.4018852690630032e7 0.0
1.4018852690630032e7 -6.380101334086457e6 0.0
0.0 0.0 0.0

362103.01438078773 1.3591856704322362e7 0.0
1.3591856704322362e7 7.141828518808317e6 0.0
0.0 0.0 0.0

475168.33401845675 7.581628462451378e6 0.0
7.581628462451378e6 -4.1639518055823273e6 0.0
0.0 0.0 0.0

-2.8931349846919333e6 1.3458702225590097e7 0.0
1.3458702225590097e7 1.0077525398921015e7 0.0
0.0 0.0 0.0

-8.296620629784582e6 2.048749694430914e7 0.0
2.048749694430914e7 7.092317865061102e6 0.0
0.0 0.0 0.0

-7.903649236871157e6 1.6502702149450465e6 0.0
1.6502702149450465e6 8.203227173352922e6 0.0
0.0 0.0 0.0

-3.0766963551642345e6 1.3743440081534604e7 0.0
1.3743440081534604e7 6.792570722016338e6 0.0
0.0 0.0 0.0

2.378389668028823e6 8.502605233508985e6 0.0
8.502605233508985e6 -1.1761696657518975e7 0.0
0.0 0.0 0.0

-9.665808600989565e6 1.5059682245519252e7 0.0
1.5059682245519252e7 5.422394613989091e6 0.0
0.0 0.0 0.0

-1.3569862190267078e6 3.431255021898484e6 0.0
3.431255021898484e6 -12613.559161936399 0.0
0.0 0.0 0.0

-3.538970405252055e6 1.485960747089111e7 0.0
1.485960747089111e7 -1.3827090227499546e6 0.0
0.0 0.0 0.0

9.989689524448197e6 1.4254228633003658e7 0.0
1.4254228633003658e7 3.122740796090265e6 0.0
0.0 0.0 0.0

-3.1112569076772043e6 1.4162967199003568e7 0.0
1.4162967199003568e7 -2.162385413007491e6 0.0
0.0 0.0 0.0

2.640464462190231e6 8.573592894158049e6 0.0
8.573592894158049e6 -1.0910498083188469e7 0.0
0.0 0.0 0.0

-6.079327178398141e6 1.52974379826486e7 0.0
1.52974379826486e7 7.133795718588609e6 0.0
0.0 0.0 0.0

-1.1267468044670945e7 -4.518791203543751e6 0.0
-4.518791203543751e6 2.853064915467331e7 0.0
0.0 0.0 0.0

-2.659460999265683e6 1.3593698675375327e7 0.0
1.3593698675375327e7 -3.1967447677595452e6 0.0
0.0 0.0 0.0

-6.263198573172359e6 1.8750258806175143e7 0.0
1.8750258806175143e7 5.551501249094557e6 0.0
0.0 0.0 0.0

1.6111040927775707e6 1.0711848771041868e7 0.0
1.0711848771041868e7 -1.5597080795753442e7 0.0
0.0 0.0 0.0

742155.2062814254 1.2406328731274368e7 0.0
1.2406328731274368e7 -1.001204672215053e7 0.0
0.0 0.0 0.0

907552.8810444507 1.2120299574008208e7 0.0
1.2120299574008208e7 -1.049449487145914e7 0.0
0.0 0.0 0.0

-1.2231558090311754e7 6.53926677250738e6 0.0
6.53926677250738e6 1.7386650717764765e7 0.0
0.0 0.0 0.0

-6.426728045528266e6 1.4178822732416956e7 0.0
1.4178822732416956e7 5.816621429025436e6 0.0
0.0 0.0 0.0

-1.122344699309799e7 8.26845518243112e6 0.0
8.26845518243112e6 5.649611098861686e7 0.0
0.0 0.0 0.0

7.789401238807673e6 1.0240670332176007e7 0.0
1.0240670332176007e7 -3.407640020067088e7 0.0
0.0 0.0 0.0

-9.948791430821557e6 1.7350591836206205e7 0.0
1.7350591836206205e7 3.248826789719427e6 0.0
0.0 0.0 0.0

-3.286642668877295e6 1.3202924856565816e7 0.0
1.3202924856565816e7 4.980891330812101e6 0.0
0.0 0.0 0.0

-9.733499358725041e6 1.5273736337058276e7 0.0
1.5273736337058276e7 2.1399299696300393e6 0.0
0.0 0.0 0.0

-1.0316768508773053e6 2.615438292282958e6 0.0
2.615438292282958e6 1.0299459776855072e6 0.0
0.0 0.0 0.0

-8.85176436476757e6 1.0438097270942003e7 0.0
1.0438097270942003e7 1.0120456781240486e7 0.0
0.0 0.0 0.0

-3.9006974388880422e6 1.5184619705132913e7 0.0
1.5184619705132913e7 -939769.0124437925 0.0
0.0 0.0 0.0

-9.607202700154338e6 -1.073070033126673e6 0.0
-1.073070033126673e6 1.468366607525571e7 0.0
0.0 0.0 0.0

1.0404200211573081e7 1.3708979166078309e7 0.0
1.3708979166078309e7 3.078519744485439e6 0.0
0.0 0.0 0.0

-3.7282164900254686e6 1.4081838305081924e7 0.0
1.4081838305081924e7 8.466726523065692e6 0.0
0.0 0.0 0.0

-7.021854450594015e6 1.2071338881988827e7 0.0
1.2071338881988827e7 8.61606623027679e6 0.0
0.0 0.0 0.0

-1.9668253038541827e7 1.7607286182702947e7 0.0
1.7607286182702947e7 1.3352102453543857e7 0.0
0.0 0.0 0.0

1.509766553400708e6 1.1935309640234936e7 0.0
1.1935309640234936e7 450811.7414164548 0.0
0.0 0.0 0.0

2.230395095567465e6 1.1306700943017326e7 0.0
1.1306700943017326e7 -3.512120275665302e6 0.0
0.0 0.0 0.0

-6.111244324860468e6 1.5996360003328921e7 0.0
1.5996360003328921e7 6.8090361267704535e6 0.0
0.0 0.0 0.0

-2.9129475672454415e6 1.4416917737582777e7 0.0
1.4416917737582777e7 -79711.94484042644 0.0
0.0 0.0 0.0

144214.43118558777 1.0117570643561406e7 0.0
1.0117570643561406e7 -3.4862665218371917e6 0.0
0.0 0.0 0.0

2.162407120451607e6 1.211298385412089e7 0.0
1.211298385412089e7 -4.78157862326988e6 0.0
0.0 0.0 0.0

-3.1809164279294554e6 1.242563294718114e7 0.0
1.242563294718114e7 7.167619524266859e6 0.0
0.0 0.0 0.0

-4.887337144723056e6 1.950824875191631e7 0.0
1.950824875191631e7 2.021532287442802e6 0.0
0.0 0.0 0.0

-6.496380735521484e6 1.4878762179179631e7 0.0
1.4878762179179631e7 7.170872567885741e6 0.0
0.0 0.0 0.0

-8.894978680367135e6 2.0255135745535478e7 0.0
2.0255135745535478e7 6.731665191757841e6 0.0
0.0 0.0 0.0

-758416.6541569307 1.2324779198593974e7 0.0
1.2324779198593974e7 -1.7358632326659113e7 0.0
0.0 0.0 0.0

-2.975844629859819e6 1.4908923642076137e7 0.0
1.4908923642076137e7 -2.8313577620658997e7 0.0
0.0 0.0 0.0

3.104957957260998e6 1.448754734208778e7 0.0
1.448754734208778e7 4.535301039191434e7 0.0
0.0 0.0 0.0

566479.5216233747 1.3772185144162323e7 0.0
1.3772185144162323e7 7.1468438610262815e6 0.0
0.0 0.0 0.0

3.6921734379511327e6 8.401984888959412e6 0.0
8.401984888959412e6 -1.7532059903037384e7 0.0
0.0 0.0 0.0

-5.834852885095202e6 1.93414299888237e7 0.0
1.93414299888237e7 1.8032484111296097e6 0.0
0.0 0.0 0.0

-2.221573573399521e6 1.4420235251608156e7 0.0
1.4420235251608156e7 -3.9495227437593136e6 0.0
0.0 0.0 0.0

-488931.55101280543 1.3087938336336866e7 0.0
1.3087938336336866e7 -3.1574191750745648e6 0.0
0.0 0.0 0.0

-1.0127210771507196e6 1.4153512442647899e7 0.0
1.4153512442647899e7 -6.169585344105024e6 0.0
0.0 0.0 0.0

-2.2435772473154426e7 1.8230581921626292e7 0.0
1.8230581921626292e7 1.4324256767976614e7 0.0
0.0 0.0 0.0

-6.512879298213244e6 1.852476911079468e7 0.0
1.852476911079468e7 5.173519138435466e6 0.0
0.0 0.0 0.0

-6.493250744068291e6 1.6192117406299902e7 0.0
1.6192117406299902e7 6.325613075020391e6 0.0
0.0 0.0 0.0

5.793643851142523e6 5.119588870757655e6 0.0
5.119588870757655e6 -1.9256432640190523e7 0.0
0.0 0.0 0.0

1.2015423023240203e6 1.5762897934380557e7 0.0
1.5762897934380557e7 -5.387491312627418e6 0.0
0.0 0.0 0.0

1.465920601966341e6 1.0967617315085549e7 0.0
1.0967617315085549e7 -1.5087180461338807e7 0.0
0.0 0.0 0.0

262085.69534782274 1.6147494637993567e7 0.0
1.6147494637993567e7 -4.717064822065271e6 0.0
0.0 0.0 0.0

484699.88780916727 9.59699252492253e6 0.0
9.59699252492253e6 -2.770307367043714e6 0.0
0.0 0.0 0.0

-2.9768179681179747e6 1.4183360627291927e7 0.0
1.4183360627291927e7 7.289638087036148e6 0.0
0.0 0.0 0.0

-6.469360163131859e6 1.7166801106055506e7 0.0
1.7166801106055506e7 6.279587658466168e6 0.0
0.0 0.0 0.0

-6.608768837816842e6 -4.093051876652431e6 0.0
-4.093051876652431e6 1.0436669174627304e7 0.0
0.0 0.0 0.0

5.837334318454523e6 1.2076208314664016e7 0.0
1.2076208314664016e7 -3.3377452274504546e6 0.0
0.0 0.0 0.0

-4.005828572533993e7 1.559616592377879e7 0.0
1.559616592377879e7 1.139268055694457e7 0.0
0.0 0.0 0.0

-1.2691447794714227e7 6.631965722050136e6 0.0
6.631965722050136e6 1.5772414693878397e7 0.0
0.0 0.0 0.0

-4.417383771044374e6 1.4402372219970288e7 0.0
1.4402372219970288e7 2.8172890319448067e6 0.0
0.0 0.0 0.0

2.151096650839952e6 1.2217009485468246e7 0.0
1.2217009485468246e7 -3.494889536286518e6 0.0
0.0 0.0 0.0

4.993160719725559e6 5.385027469352292e6 0.0
5.385027469352292e6 -1.3960545411251828e7 0.0
0.0 0.0 0.0

-3.3170876710945684e6 1.344789742219388e7 0.0
1.344789742219388e7 3.9361565227602143e6 0.0
0.0 0.0 0.0

-1.0267522319512632e7 -6.123427512594609e6 0.0
-6.123427512594609e6 2.370602644410426e7 0.0
0.0 0.0 0.0

-4.1627451764008095e6 1.6624634526323482e7 0.0
1.6624634526323482e7 -3.4097800901871175e7 0.0
0.0 0.0 0.0

4.1198781083183046e6 1.9223469725312434e7 0.0
1.9223469725312434e7 5.323951891688277e7 0.0
0.0 0.0 0.0

2.4243905880046776e6 9.963555472249713e6 0.0
9.963555472249713e6 -1.4367315926075228e7 0.0
0.0 0.0 0.0

1.1466687389518095e6 4.985676516124189e6 0.0
4.985676516124189e6 -5.067535708918128e6 0.0
0.0 0.0 0.0

-90877.18793055788 1.333221608002191e7 0.0
1.333221608002191e7 5.905259547879125e6 0.0
0.0 0.0 0.0

-1.1885822797184056e7 -3.7151056579762464e6 0.0
-3.7151056579762464e6 2.8474468351213105e7 0.0
0.0 0.0 0.0

997059.5872021676 6.721647809868045e6 0.0
6.721647809868045e6 -5.215329503776067e6 0.0
0.0 0.0 0.0

-4.543517254962452e6 1.9109534726378754e7 0.0
1.9109534726378754e7 -191048.56033391063 0.0
0.0 0.0 0.0

-1.0046481032447875e6 1.2586677765351182e7 0.0
1.2586677765351182e7 -7.0233521761228405e6 0.0
0.0 0.0 0.0

-124342.06350364932 1.3374145052919086e7 0.0
1.3374145052919086e7 5.324456758067124e6 0.0
0.0 0.0 0.0

-2.5570932829742534e6 1.4615397664419029e7 0.0
1.4615397664419029e7 184356.44989785075 0.0
0.0 0.0 0.0

-1.1223689341025213e7 1.4761390090119815e7 0.0
1.4761390090119815e7 1.3721129102491592e6 0.0
0.0 0.0 0.0

-6.452777286646611e6 1.8315402040768784e7 0.0
1.8315402040768784e7 5.405842760278517e6 0.0
0.0 0.0 0.0

-910988.725247429 1.2967564049264906e7 0.0
1.2967564049264906e7 2.977693949318974e6 0.0
0.0 0.0 0.0

-3.322686588870005e6 1.34289378305643e7 0.0
1.34289378305643e7 5.868654679677102e6 0.0
0.0 0.0 0.0

983743.2456928627 1.1189506645235237e7 0.0
1.1189506645235237e7 -1.0061183236383578e7 0.0
0.0 0.0 0.0

-1.1169953633399876e6 1.3913479969532013e7 0.0
1.3913479969532013e7 -6.804178117174119e6 0.0
0.0 0.0 0.0

-1.2188969123658853e7 -2.4171507935784957e6 0.0
-2.4171507935784957e6 2.6897647661961466e7 0.0
0.0 0.0 0.0

-2.110046371260458e7 2.0056979574852724e7 0.0
2.0056979574852724e7 1.2335921979879351e7 0.0
0.0 0.0 0.0

-1.168297511901367e7 1.7846268030066937e7 0.0
1.7846268030066937e7 9.178214117739841e6 0.0
0.0 0.0 0.0

-1.8407169739495646e7 1.416726310737639e7 0.0
1.416726310737639e7 9.639670579122435e6 0.0
0.0 0.0 0.0

-466379.8933455239 1.305525738101667e7 0.0
1.305525738101667e7 263865.3586777059 0.0
0.0 0.0 0.0

-3.3905039212163594e6 1.473539379913589e7 0.0
1.473539379913589e7 114890.06781420298 0.0
0.0 0.0 0.0

-1.1245688563772764e7 1.5888584995304294e7 0.0
1.5888584995304294e7 6.769155508793831e6 0.0
0.0 0.0 0.0

1.4747137405201187e6 6.372672518793807e6 0.0
6.372672518793807e6 -5.317798177001266e6 0.0
0.0 0.0 0.0

-981322.2553982444 1.3814538933577066e7 0.0
1.3814538933577066e7 5.9468562004276225e6 0.0
0.0 0.0 0.0

4.399499479796682e6 7.917333782470226e6 0.0
7.917333782470226e6 -1.7022231509250555e7 0.0
0.0 0.0 0.0

-1.1737240283165462e7 7.477856116705697e6 0.0
7.477856116705697e6 1.679679115042064e7 0.0
0.0 0.0 0.0

-1.0956145580963045e7 -4.256570374461962e6 0.0
-4.256570374461962e6 2.9566235990114648e7 0.0
0.0 0.0 0.0

5.945407281296081e6 5.187770924483418e6 0.0
5.187770924483418e6 -1.9196407568468302e7 0.0
0.0 0.0 0.0

-2.104409578675053e7 1.5503669978314992e7 0.0
1.5503669978314992e7 8.785156444161521e6 0.0
0.0 0.0 0.0

-9.728236415301528e6 -7.202611951567234e6 0.0
-7.202611951567234e6 2.0334261147409126e7 0.0
0.0 0.0 0.0

-7.842712930202378e6 -7.124966129985487e6 0.0
-7.124966129985487e6 1.4462219440029323e7 0.0
0.0 0.0 0.0

1.1338664034447074e6 6.143627041293208e6 0.0
6.143627041293208e6 -6.186689286232221e6 0.0
0.0 0.0 0.0

-8.160855542599665e6 -4.098495525089633e6 0.0
-4.098495525089633e6 1.4858740681759875e7 0.0
0.0 0.0 0.0

-7.352924102303236e6 2.422711354881838e7 0.0
2.422711354881838e7 -2.613017609820288e6 0.0
0.0 0.0 0.0

-6.919147520904328e6 1.2797720820926607e7 0.0
1.2797720820926607e7 8.451351264455771e6 0.0
0.0 0.0 0.0

5.800785937046437e6 5.828499888379111e6 0.0
5.828499888379111e6 -2.275393576083574e7 0.0
0.0 0.0 0.0

4.938541881144433e6 5.554191380307664e6 0.0
5.554191380307664e6 -1.5964852961889839e7 0.0
0.0 0.0 0.0

-6.470070860207348e6 1.3927772155967955e7 0.0
1.3927772155967955e7 5.265247089628596e6 0.0
0.0 0.0 0.0

-8.739232013112944e6 1.9863137028932575e7 0.0
1.9863137028932575e7 7.625277288927176e6 0.0
0.0 0.0 0.0

432023.99834981875 8.136841310548904e6 0.0
8.136841310548904e6 2.9609014729936095e6 0.0
0.0 0.0 0.0

-1.165450335806299e6 1.4082278492493551e7 0.0
1.4082278492493551e7 9.678136941207586e6 0.0
0.0 0.0 0.0

1.1339098550169556e6 1.5353373721351743e7 0.0
1.5353373721351743e7 -5.343029590428501e6 0.0
0.0 0.0 0.0

-1.0008664189030655e7 -7.025642969249403e6 0.0
-7.025642969249403e6 1.9933217126818914e7 0.0
0.0 0.0 0.0

-1.3899877512492744e7 1.1088424448038524e7 0.0
1.1088424448038524e7 8.125535407569545e6 0.0
0.0 0.0 0.0

-6.343015518972638e6 1.799321490090877e7 0.0
1.799321490090877e7 5.123474835652347e6 0.0
0.0 0.0 0.0

-5.225338837862526e6 1.3803726320716176e7 0.0
1.3803726320716176e7 2.076808030233956e7 0.0
0.0 0.0 0.0

1.5514445973694692e6 1.5518176672904225e7 0.0
1.5518176672904225e7 -4.959373425727252e6 0.0
0.0 0.0 0.0

-1.188023476704476e6 1.4407064552673437e7 0.0
1.4407064552673437e7 -2.36903091223312e6 0.0
0.0 0.0 0.0

-5.921293430476839e6 1.3827860814203547e7 0.0
1.3827860814203547e7 8.086589088179614e6 0.0
0.0 0.0 0.0

-1.335770401712597e6 1.3813374955360962e7 0.0
1.3813374955360962e7 -3.1725936077344497e6 0.0
0.0 0.0 0.0

-3.869282197630052e7 2.1131332174467638e7 0.0
2.1131332174467638e7 5.338869380075242e6 0.0
0.0 0.0 0.0

-7.59036476375447e6 1.2468247330495548e7 0.0
1.2468247330495548e7 7.92544913250151e6 0.0
0.0 0.0 0.0

-1.2109234344501626e6 1.4392849232127493e7 0.0
1.4392849232127493e7 -2.400216691122922e6 0.0
0.0 0.0 0.0

-5.414892164115345e6 1.4280355247438366e7 0.0
1.4280355247438366e7 7.65436760188952e6 0.0
0.0 0.0 0.0

431230.6418273656 1.5067121633926908e7 0.0
1.5067121633926908e7 -5.061327468231942e6 0.0
0.0 0.0 0.0

4.75263401690026e6 5.428580340452873e6 0.0
5.428580340452873e6 -1.3662431021658607e7 0.0
0.0 0.0 0.0

-1.1330407596710194e6 1.474793760919753e7 0.0
1.474793760919753e7 -5.523977116868643e6 0.0
0.0 0.0 0.0

-2.2005211063613802e7 1.9467027938082445e7 0.0
1.9467027938082445e7 1.129278970698943e7 0.0
0.0 0.0 0.0

-7.016357914352942e6 1.768999332013283e7 0.0
1.768999332013283e7 6.874569314214358e6 0.0
0.0 0.0 0.0

-5.707865181936299e6 -711883.7709964832 0.0
-711883.7709964832 7.167215288728353e6 0.0
0.0 0.0 0.0

-410969.9786837846 1.2840692331550669e7 0.0
1.2840692331550669e7 -8.629552916724622e6 0.0
0.0 0.0 0.0

4.7269001203303095e6 1.2438087853072906e7 0.0
1.2438087853072906e7 -2.7709923634449015e6 0.0
0.0 0.0 0.0

-3.521430903253547e7 1.632862523800775e7 0.0
1.632862523800775e7 1.1043727405875618e7 0.0
0.0 0.0 0.0

-202343.8278078509 1.2419599187253524e7 0.0
1.2419599187253524e7 3.198903442258663e6 0.0
0.0 0.0 0.0

4.1274827793326983e6 7.930508743123059e6 0.0
7.930508743123059e6 -1.7927785642899152e7 0.0
0.0 0.0 0.0

662777.8213670412 1.1123375322767159e7 0.0
1.1123375322767159e7 -9.927525433925336e6 0.0
0.0 0.0 0.0

-3.0044389420502493e6 1.3666366583490744e7 0.0
1.3666366583490744e7 4.7135968139963765e6 0.0
0.0 0.0 0.0

-9.753006656622432e6 1.9878946801345874e7 0.0
1.9878946801345874e7 7.72872757316768e6 0.0
0.0 0.0 0.0

-3.8455510303890505e6 1.5868135284462329e7 0.0
1.5868135284462329e7 -270799.2773844409 0.0
0.0 0.0 0.0

5.266524405413784e6 5.115378480545029e6 0.0
5.115378480545029e6 -1.5626444498100314e7 0.0
0.0 0.0 0.0

-2.0744243193795532e6 1.3958064781019961e7 0.0
1.3958064781019961e7 1.410651631816136e7 0.0
0.0 0.0 0.0

-295348.18415214564 9.250282763407707e6 0.0
9.250282763407707e6 -2.932428958034051e6 0.0
0.0 0.0 0.0

-2.6552992407733805e7 1.766833383775678e7 0.0
1.766833383775678e7 1.2273822323577888e7 0.0
0.0 0.0 0.0

-9.12987444823343e6 -3.671821223436305e6 0.0
-3.671821223436305e6 1.2143448543622464e7 0.0
0.0 0.0 0.0

-8.502075780286439e6 -3.550447844418468e6 0.0
-3.550447844418468e6 1.4443748691762865e7 0.0
0.0 0.0 0.0

4.423477378218649e6 1.190548936581542e7 0.0
1.190548936581542e7 -174949.29519924102 0.0
0.0 0.0 0.0

-9.130029656669114e6 -6.926639698109701e6 0.0
-6.926639698109701e6 2.037204926109493e7 0.0
0.0 0.0 0.0

-103905.1772471983 1.2503615207672846e7 0.0
1.2503615207672846e7 3.1834054535510605e6 0.0
0.0 0.0 0.0

1.0832125447419088e6 1.385922071219119e7 0.0
1.385922071219119e7 7.472255947648911e6 0.0
0.0 0.0 0.0

-6.067107255785575e6 1.9133723705078073e7 0.0
1.9133723705078073e7 3.390180513986321e6 0.0
0.0 0.0 0.0

-1.2807927152918344e7 1.1736423263098085e6 0.0
1.1736423263098085e6 3.010943392670309e7 0.0
0.0 0.0 0.0

1.2370076979783457e6 1.1050313149728516e7 0.0
1.1050313149728516e7 -1.4974418762818625e7 0.0
0.0 0.0 0.0

852614.4018840019 6.565123023247748e6 0.0
6.565123023247748e6 -5.616450731625874e6 0.0
0.0 0.0 0.0

-2.84325482216765e6 1.3458129878892742e7 0.0
1.3458129878892742e7 3.674813794979709e6 0.0
0.0 0.0 0.0

-1.2236029168479238e6 1.4391024324066348e7 0.0
1.4391024324066348e7 8.402721544025186e6 0.0
0.0 0.0 0.0

-1.0808234698198766e7 -5.099901447776196e6 0.0
-5.099901447776196e6 1.8943270782417603e7 0.0
0.0 0.0 0.0

-8.355120604817426e6 4.218195285396854e6 0.0
4.218195285396854e6 7.722963492720945e6 0.0
0.0 0.0 0.0

-4.320828361406896e6 1.3119217907067794e7 0.0
1.3119217907067794e7 1.4904071220396787e6 0.0
0.0 0.0 0.0

-3.483955572007265e6 6.192171242830859e6 0.0
6.192171242830859e6 1.0576067247809816e7 0.0
0.0 0.0 0.0

2.0410678877633875e6 1.177865434692515e7 0.0
1.177865434692515e7 -4.0935990885584746e6 0.0
0.0 0.0 0.0

-8.830660549627667e6 -4.3781613380119875e6 0.0
-4.3781613380119875e6 1.2644281513627956e7 0.0
0.0 0.0 0.0

-1.2151321441383954e7 1.234735491686849e6 0.0
1.234735491686849e6 3.269415156653159e7 0.0
0.0 0.0 0.0

1.927310741912839e6 1.2000298871986412e7 0.0
1.2000298871986412e7 -3.710044890785796e6 0.0
0.0 0.0 0.0

-720176.3146892858 1.284954763562629e7 0.0
1.284954763562629e7 -6.703049124810634e6 0.0
0.0 0.0 0.0

-1.2156742957308857e7 1.180201754602272e6 0.0
1.180201754602272e6 3.2535073731023755e7 0.0
0.0 0.0 0.0

1.3132477655504341e6 1.4815916969469626e7 0.0
1.4815916969469626e7 -5.365729324907451e6 0.0
0.0 0.0 0.0

-1.271382935182488e6 1.3368716446110617e7 0.0
1.3368716446110617e7 5.4096878169897245e6 0.0
0.0 0.0 0.0

-3.7229073757557357e6 7.737765496757243e6 0.0
7.737765496757243e6 2.2712774633761304e6 0.0
0.0 0.0 0.0

-4.929246772625549e6 2.3428884689597236e6 0.0
2.3428884689597236e6 6.623874035464849e6 0.0
0.0 0.0 0.0

-5.611086253077027e6 1.6645938592557786e6 0.0
1.6645938592557786e6 2.4131935285859285e6 0.0
0.0 0.0 0.0

