# vtk DataFile Version 2.0
phase field modeling fracture
ASCII
DATASET UNSTRUCTURED_GRID
POINTS 2538 float
0.0 0.0 0.0
10.0 0.0 0.0
0.0 10.0 0.0
10.0 10.0 0.0
0.0 4.9995 0.0
0.0 5.0005 0.0
5.0 5.0 0.0
0.9416964895726688 0.0 0.0
1.803581725054446 0.0 0.0
2.592419885431098 0.0 0.0
3.314401822861676 0.0 0.0
3.975193910351406 0.0 0.0
4.579982132660152 0.0 0.0
5.133512780936812 0.0 0.0
5.640130319506143 0.0 0.0
6.103810708661955 0.0 0.0
6.528192895506818 0.0 0.0
6.916607540127679 0.0 0.0
7.272102969376355 0.0 0.0
7.597469242948583 0.0 0.0
7.895259826292669 0.0 0.0
8.167811885738017 0.0 0.0
8.417264413845215 0.0 0.0
8.645575169389538 0.0 0.0
8.854535961159101 0.0 0.0
9.045786767735546 0.0 0.0
9.220828555767493 0.0 0.0
9.38103509633881 0.0 0.0
9.527663687265145 0.0 0.0
9.661865124984566 0.0 0.0
9.784692609918062 0.0 0.0
9.897110148790482 0.0 0.0
10.0 0.09999999999992584 0.0
10.0 0.199999999999856 0.0
10.0 0.2999999999997771 0.0
10.0 0.3999999999996677 0.0
10.0 0.4999999999995511 0.0
10.0 0.5999999999994683 0.0
10.0 0.6999999999993983 0.0
10.0 0.7999999999993286 0.0
10.0 0.8999999999992587 0.0
10.0 0.9999999999991888 0.0
10.0 1.099999999999119 0.0
10.0 1.199999999999033 0.0
10.0 1.299999999998852 0.0
10.0 1.399999999998576 0.0
10.0 1.499999999998284 0.0
10.0 1.599999999997992 0.0
10.0 1.6999999999977 0.0
10.0 1.799999999997408 0.0
10.0 1.899999999997116 0.0
10.0 1.999999999996825 0.0
10.0 2.099999999996533 0.0
10.0 2.199999999996241 0.0
10.0 2.299999999995949 0.0
10.0 2.399999999995657 0.0
10.0 2.499999999995365 0.0
10.0 2.599999999995073 0.0
10.0 2.699999999994782 0.0
10.0 2.79999999999449 0.0
10.0 2.899999999994198 0.0
10.0 2.999999999993906 0.0
10.0 3.099999999993614 0.0
10.0 3.199999999993322 0.0
10.0 3.299999999993029 0.0
10.0 3.399999999992738 0.0
10.0 3.499999999992446 0.0
10.0 3.599999999992154 0.0
10.0 3.699999999991863 0.0
10.0 3.799999999991571 0.0
10.0 3.899999999991278 0.0
10.0 3.999999999991022 0.0
10.0 4.099999999991035 0.0
10.0 4.199999999991187 0.0
10.0 4.299999999991338 0.0
10.0 4.399999999991491 0.0
10.0 4.499999999991642 0.0
10.0 4.599999999991795 0.0
10.0 4.699999999991947 0.0
10.0 4.799999999992099 0.0
10.0 4.89999999999225 0.0
10.0 4.999999999992403 0.0
10.0 5.099999999992555 0.0
10.0 5.199999999992706 0.0
10.0 5.299999999992858 0.0
10.0 5.39999999999301 0.0
10.0 5.499999999993161 0.0
10.0 5.599999999993313 0.0
10.0 5.699999999993466 0.0
10.0 5.799999999993618 0.0
10.0 5.899999999993771 0.0
10.0 5.999999999993922 0.0
10.0 6.099999999994074 0.0
10.0 6.199999999994227 0.0
10.0 6.299999999994378 0.0
10.0 6.39999999999453 0.0
10.0 6.499999999994682 0.0
10.0 6.599999999994833 0.0
10.0 6.699999999994986 0.0
10.0 6.799999999995138 0.0
10.0 6.899999999995289 0.0
10.0 6.999999999995442 0.0
10.0 7.099999999995594 0.0
10.0 7.199999999995747 0.0
10.0 7.299999999995897 0.0
10.0 7.39999999999605 0.0
10.0 7.499999999996202 0.0
10.0 7.599999999996353 0.0
10.0 7.699999999996505 0.0
10.0 7.799999999996658 0.0
10.0 7.899999999996808 0.0
10.0 7.999999999996962 0.0
10.0 8.099999999997113 0.0
10.0 8.199999999997265 0.0
10.0 8.299999999997418 0.0
10.0 8.399999999997569 0.0
10.0 8.499999999997721 0.0
10.0 8.599999999997873 0.0
10.0 8.699999999998024 0.0
10.0 8.799999999998176 0.0
10.0 8.899999999998329 0.0
10.0 8.99999999999848 0.0
10.0 9.099999999998634 0.0
10.0 9.199999999998786 0.0
10.0 9.299999999998937 0.0
10.0 9.399999999999089 0.0
10.0 9.499999999999241 0.0
10.0 9.599999999999392 0.0
10.0 9.699999999999545 0.0
10.0 9.799999999999697 0.0
10.0 9.899999999999848 0.0
9.897110148790565 10.0 0.0
9.784692609918244 10.0 0.0
9.66186512498486 10.0 0.0
9.527663687265571 10.0 0.0
9.381035096339392 10.0 0.0
9.220828555768257 10.0 0.0
9.045786767736512 10.0 0.0
8.854535961160305 10.0 0.0
8.645575169391027 10.0 0.0
8.417264413847017 10.0 0.0
8.167811885740178 10.0 0.0
7.895259826295246 10.0 0.0
7.597469242951631 10.0 0.0
7.272102969379938 10.0 0.0
6.916607540131873 10.0 0.0
6.528192895511704 10.0 0.0
6.103810708667616 10.0 0.0
5.640130319512691 10.0 0.0
5.13351278094435 10.0 0.0
4.579982132668816 10.0 0.0
3.975193910361222 10.0 0.0
3.314401822869852 10.0 0.0
2.592419885437257 10.0 0.0
1.803581725058137 10.0 0.0
0.9416964895740705 10.0 0.0
0.0 9.00010000000243 0.0
0.0 8.000200000005481 0.0
0.0 7.000300000005135 0.0
0.0 6.000400000002569 0.0
0.901790731451151 5.000409820926855 0.0
1.657200899774397 5.000334279910023 0.0
2.289991063707192 5.000271000893629 0.0
2.820065163538221 5.000217993483646 0.0
3.264096435579811 5.000173590356442 0.0
3.636051481595835 5.00013639485184 0.0
3.947629914072366 5.000105237008593 0.0
4.208632181002628 5.0000791367819 0.0
4.427267949625672 5.000057273205037 0.0
4.610414277633563 5.000038958572237 0.0
4.763831845154243 5.000023616815485 0.0
4.892346298799659 5.00001076537012 0.0
4.892346298799748 4.99998923462988 0.0
4.763831845154455 4.999976383184515 0.0
4.610414277633943 4.999961041427763 0.0
4.427267949626277 4.999942726794963 0.0
4.208632181003523 4.9999208632181 0.0
3.94762991407365 4.999894762991407 0.0
3.636051481597624 4.99986360514816 0.0
3.264096435582253 4.999826409643559 0.0
2.820065163541503 4.999782006516354 0.0
2.289991063711534 4.999728999106371 0.0
1.657200899778495 4.999665720089978 0.0
0.9017907314530094 4.999590179073145 0.0
0.0 3.999600000002013 0.0
0.0 2.999700000005187 0.0
0.0 1.99980000000512 0.0
0.0 0.9999000000025537 0.0
9.897889398521345 2.93573355845387 0.0
9.906568249974548 7.060009441434234 0.0
9.913122631074113 3.64016132281653 0.0
9.922462129543863 6.354535290629151 0.0
9.917693659967533 4.354211663134567 0.0
9.909873057440208 5.637584487339942 0.0
9.914183254994697 4.950672966925282 0.0
9.913885043715895 7.666887930262611 0.0
9.91009668007573 2.351889069770817 0.0
9.905135696074536 8.138152454502785 0.0
9.913397459621809 1.849999999997262 0.0
7.099302372137626 0.297750452375005 0.0
7.095143729410097 9.700359990366296 0.0
4.942912558701401 5.095838627899509 0.0
4.315009232304429 5.165022115481685 0.0
4.946182472483878 4.906763777264103 0.0
4.317967462990024 4.825955043772673 0.0
9.916390871492647 8.64999999999792 0.0
9.921504649680616 1.368376469890358 0.0
8.292538149791614 0.206877570318844 0.0
8.292538149793597 9.793122429681448 0.0
5.884594439766573 9.587645267048616 0.0
5.794826292691579 0.3794853783929359 0.0
9.913397459621425 9.049999999998557 0.0
9.908526577714177 0.9568239351922434 0.0
3.456851160380649 5.315740054130451 0.0
3.457889657868442 4.707121019609468 0.0
8.945214200703926 0.1503383337970344 0.0
8.950161364448409 9.8413906539257 0.0
9.913862335499305 4.055887885208452 0.0
9.916697353372683 4.650158482607802 0.0
9.919076340414442 6.049999999994006 0.0
9.906994308667635 5.25749687748192 0.0
9.917490342358025 6.655979201891897 0.0
9.915757520293784 7.343848891656911 0.0
9.910049507471042 3.363474386285078 0.0
9.914471988502868 2.647400064832979 0.0
9.91474124160965 9.337490423485129 0.0
9.916971008170838 0.6499999999994355 0.0
4.307157269264427 9.509674045029644 0.0
4.331527375865619 0.4401616696422582 0.0
9.45434939180249 9.878397030523757 0.0
9.457696120412969 0.1270877537061785 0.0
2.555070293622606 5.422044496190925 0.0
2.566232917480916 4.608001224030952 0.0
3.026511860837692 9.332320638257093 0.0
2.945561971800619 0.5895662714727601 0.0
7.7395404387124 0.2511088946967771 0.0
7.736379255744154 9.745848826372828 0.0
4.687135269408529 5.122111433928926 0.0
4.688420821504113 4.871895064967488 0.0
9.910554884115975 0.3448356354522978 0.0
9.911230082250466 9.65764729394159 0.0
9.921953841410854 6.851023993342036 0.0
9.912065178606017 5.448170483544033 0.0
9.911660025326261 3.861846960030188 0.0
9.914847467973438 3.14501593945607 0.0
9.913397459621425 5.849999999993703 0.0
9.913397459621425 7.849999999996735 0.0
9.906916878988277 2.15455769998631 0.0
9.913397459621425 8.349999999997479 0.0
9.909472363117661 1.640528221515488 0.0
9.913987325695956 1.152857110636247 0.0
9.913397459621425 8.849999999998241 0.0
0.9100099990995943 2.614215977520411 0.0
0.8395284981715456 7.451196254860987 0.0
9.723278867451556 9.898135916635193 0.0
9.723316350887044 0.09841820909386662 0.0
1.385819164827588 4.454539963646463 0.0
1.338343629665047 5.523111536005823 0.0
1.377179700550677 0.6809168304959698 0.0
1.418060461092743 9.285896715136046 0.0
9.91268220142518 0.1457914080939694 0.0
9.906737126737994 9.845745933882352 0.0
0.7108351382691361 6.537941170074089 0.0
1.527735020267026 6.915620208855231 0.0
1.630993885659103 7.838271825205868 0.0
2.232760943566823 7.370850737296832 0.0
2.243414218068206 6.688299277952821 0.0
2.779655053105118 7.021588754814074 0.0
2.80227799359795 7.632420170547022 0.0
3.282022065908813 7.305859666021318 0.0
3.327597298795347 7.857554136825748 0.0
3.743210251018715 7.549183328204379 0.0
3.716353232200752 7.062036086888612 0.0
4.111978858674101 7.27497101169417 0.0
4.104192177581432 6.879858986267289 0.0
4.436230765617037 7.045693351607117 0.0
4.430360014817357 6.703971783962796 0.0
4.732390145036301 6.849841042423394 0.0
5.056161327708878 5.095276573498806 0.0
5.111586796021131 4.999081142133581 0.0
5.169267363407189 5.09444870412406 0.0
5.223795108752053 4.996986220359468 0.0
5.281480803887719 5.092780870372803 0.0
5.335670761900611 4.994887492556936 0.0
5.393485214772442 5.090486192743301 0.0
5.447323082877892 4.992601527033996 0.0
5.505243219343024 5.087953380710069 0.0
5.558739102026105 4.990287787962959 0.0
5.616491581184779 5.085335255235766 0.0
5.669852346908056 4.9879269227514 0.0
5.727502713908907 5.082679981817038 0.0
5.780766004135139 4.988313988715834 0.0
5.838244881129535 5.080480568766611 0.0
5.891357695677371 4.986433849408193 0.0
5.948696036767613 5.077969900389505 0.0
6.001601341641615 4.981313698556656 0.0
6.058851024265095 5.074871552128682 0.0
6.111614020704875 4.978360695880202 0.0
6.168801161530775 5.072044953270978 0.0
6.221368818778567 4.975825765213497 0.0
6.278268309066882 5.066182320461055 0.0
6.330814273567539 4.972837984645718 0.0
6.387565032421376 5.062889771971895 0.0
6.437476667631405 4.971693683589553 0.0
6.496181111585419 5.060210690175857 0.0
6.539454812256072 4.964658165361536 0.0
6.604198202576491 5.056387520850258 0.0
6.648506025747331 4.939374587506267 0.0
6.714026758992516 5.05873885840664 0.0
6.764418045981209 4.959246676066148 0.0
6.8219334571197 5.055299567406268 0.0
6.873708540948134 4.960426349093742 0.0
6.930181428849307 5.053461390218819 0.0
6.981893615341967 4.96435459462232 0.0
7.037791764774784 5.051219747103022 0.0
7.090993561518408 4.96392420322464 0.0
5.504417457283294 4.900897920552702 0.0
7.145434864123609 5.048960634292441 0.0
6.054532384032612 4.883956083938546 0.0
6.738027949040956 4.850032323068674 0.0
7.198432914526514 4.956325226333323 0.0
7.252637187936749 5.046012229327236 0.0
7.30926729605109 4.948903216650376 0.0
7.248106275544042 4.860306312845646 0.0
7.363100274863074 4.849952416808486 0.0
7.365733472701664 5.039519554615095 0.0
7.308483293090149 5.137557220352172 0.0
6.768399513646964 5.145609705119954 0.0
7.422800035311104 5.132251445551834 0.0
7.358273518796229 5.235980394389298 0.0
7.480824155801127 5.227946127939927 0.0
7.302193400058628 4.761917474298247 0.0
7.413570879789824 4.754555110721153 0.0
7.414392998903179 5.334729114426734 0.0
7.352769630272076 4.660405502266205 0.0
7.467556835255426 4.658352623795039 0.0
7.536246869015014 5.328986926716081 0.0
7.478865844607288 5.432598185493195 0.0
7.406396991826072 4.556956233957538 0.0
7.523581002009154 4.552005631348623 0.0
7.597792398573263 5.429506106314967 0.0
7.540511043402902 5.53619421580439 0.0
7.46214474876342 4.452580994318881 0.0
7.5852185078634 4.446021810672608 0.0
7.663329342323453 5.533453399066901 0.0
7.603478967594521 5.643227430483237 0.0
7.513450346818673 4.347641323140766 0.0
7.640744971722214 4.333388343316237 0.0
7.727671715775243 5.642390483050116 0.0
7.667774597993788 5.753188858425915 0.0
7.570065256728661 4.230515669344811 0.0
7.702881065467917 4.218307808529532 0.0
7.638288257073729 4.107994211855027 0.0
7.493362356301017 4.120843902105771 0.0
7.779018500630071 5.521233457321821 0.0
7.794641287388929 5.752364621610818 0.0
7.73369774483611 5.865894287356292 0.0
7.600834531784728 5.867752110500446 0.0
6.233038857278689 5.15645045634683 0.0
7.669727996028819 5.985665563643058 0.0
7.528582452554481 5.987393423295551 0.0
7.598722674572824 6.11001923494443 0.0
7.778305000222867 4.104318908265786 0.0
7.704329019832056 3.987744174608892 0.0
7.838453459801382 4.213322728668484 0.0
7.864495721576461 5.862306066517277 0.0
7.846552353360407 3.98481756181946 0.0
7.769730409703277 3.86544808681145 0.0
5.785249360396857 5.177248808588045 0.0
7.908837087876153 3.861484036275285 0.0
7.834824606222196 3.740586825753288 0.0
7.97685993406276 3.736209527152902 0.0
7.89665098770825 3.615501862931453 0.0
7.753228010315262 3.617800245018972 0.0
7.826063013090472 3.483173292579822 0.0
7.66789744383048 3.48859328808356 0.0
8.042515855796823 3.595394268381807 0.0
7.75200750488492 3.341279823834038 0.0
7.582870318332553 3.346584916806707 0.0
8.120807847415062 3.732493963388337 0.0
8.189783970303546 3.61159165475499 0.0
7.657801000286734 3.200439907646711 0.0
7.486781956172036 3.201402473247712 0.0
7.452595103886905 6.11418616185016 0.0
7.527098033550077 6.243191052852112 0.0
8.260502906807751 3.728437634721859 0.0
8.327629317451398 3.608173631356984 0.0
7.372763970891452 6.247552889754036 0.0
7.456170570815929 6.384992468962936 0.0
7.621837793616884 6.376077080857113 0.0
7.548039512904141 6.520750676893614 0.0
7.717475944451644 6.514856553988943 0.0
7.636658166268699 6.661648164052906 0.0
7.807468267259438 6.664076174524672 0.0
7.718022764310774 6.817938967122142 0.0
7.887785766941087 6.807440365887151 0.0
7.545993589083432 6.815070675854734 0.0
7.809874785067209 6.967537287475282 0.0
7.975643812145337 6.948729406725126 0.0
8.396477808021062 3.725446935061211 0.0
7.565651643157136 3.044354774611752 0.0
7.384328725505071 3.043048915147076 0.0
8.056405351948353 6.802790889114673 0.0
8.14128318237188 6.940027831915737 0.0
8.064621760266059 7.086348792208953 0.0
8.225003598857908 6.805225152373254 0.0
8.463085452993242 3.606998510553562 0.0
8.230426869720718 7.079551841000411 0.0
8.155262284174286 7.224761758176069 0.0
8.530696760758996 3.721683301125054 0.0
8.596669886994064 3.604516769862316 0.0
8.528531058025589 3.490411531312337 0.0
8.320451770844851 7.218191678954744 0.0
8.245273958732774 7.363444652121271 0.0
8.66324687389452 3.717094013035765 0.0
8.600103125209296 3.831913857228569 0.0
8.662131102573216 3.488322280861316 0.0
8.594166125380536 3.374071873435548 0.0
8.411074336066186 7.353871649576861 0.0
8.339644223432472 7.505172120620427 0.0
8.165883718619623 7.513159193685373 0.0
8.483453820080417 7.2082285366806 0.0
8.261200365730348 7.657400951288149 0.0
8.081570576666843 7.670933304838066 0.0
7.471613195794025 2.872548423100142 0.0
7.268733678357991 2.881209199257603 0.0
7.184255506995786 3.084448584600423 0.0
7.065899603697895 2.883902449336828 0.0
6.960163891183182 3.081014635802978 0.0
6.847612128388715 2.885646860602812 0.0
6.739800729737967 3.078895733381448 0.0
8.729373804596847 3.827689165637365 0.0
8.668550856907444 3.938702277545298 0.0
8.72770789162863 3.371798381178293 0.0
8.659764090070603 3.257493349874974 0.0
8.436453928793245 7.648724489148887 0.0
6.619080287792762 2.90880017416788 0.0
6.511740956842646 3.09340654756684 0.0
8.793527829963288 3.935174834810256 0.0
8.736430500996828 4.042719556852617 0.0
7.631260330584174 4.565300771328012 0.0
8.359058396840432 7.801678182761817 0.0
5.339436215072359 5.184870243702279 0.0
4.994031736761993 5.193306795607908 0.0
6.383387675268097 4.87760645722207 0.0
7.29117392392962 6.382172868329505 0.0
6.378196825372041 2.907113079755629 0.0
6.269817199014261 3.12412150658573 0.0
8.793149127377946 3.255386294257182 0.0
8.725774239201558 3.141596687892195 0.0
8.857434600673502 4.041295940541356 0.0
8.802868937128341 4.1471119953668 0.0
8.532045262478793 7.7905977476835 0.0
7.364542641624493 2.699128473342751 0.0
7.571677611088925 2.695732556686516 0.0
6.723058333614999 2.672341359410618 0.0
8.456744924757372 7.94483904450548 0.0
6.140831279784704 2.921247401137864 0.0
6.02419219050745 3.14358702955763 0.0
8.916255604212301 3.934279868822481 0.0
8.859287250884009 3.140226640574265 0.0
8.791092798057303 3.025929352146465 0.0
7.210445465986021 6.245773134960393 0.0
7.120884161792869 6.385155584680196 0.0
7.036931702064287 6.240721609143972 0.0
6.943722280007011 6.3869279517155 0.0
8.920094519678617 4.144837222494242 0.0
8.864374107136287 4.250930406527029 0.0
7.347569838739255 4.463467417508182 0.0
5.90383431757064 2.935113219563906 0.0
5.783476009580765 3.156456199832474 0.0
8.626013191558314 7.935092223505354 0.0
8.687240186957197 7.796697889991163 0.0
5.642059327424706 2.903018174330269 0.0
5.52647853955939 3.162549070310043 0.0
8.555300051897738 8.086169516016518 0.0
8.405624441178524 8.083972416481254 0.0
5.374124307190728 2.945480555950917 0.0
8.935805220807357 3.249260758206028 0.0
8.981625171409894 4.247375537584228 0.0
8.924725364486765 4.352101286657735 0.0
8.807208588134106 4.356163101450244 0.0
8.868277832430604 4.45657124153171 0.0
8.75099635287701 4.460644845248524 0.0
8.812385950597063 4.560891222623518 0.0
8.693833206943118 4.564602972998703 0.0
8.756474732548273 4.665720853686476 0.0
8.63721608225855 4.669394550615355 0.0
8.700108119351134 4.770682016274914 0.0
8.81920502916846 4.767536120893284 0.0
8.76355311338807 4.871451945248518 0.0
8.881442328033694 4.868382238751069 0.0
8.826433523510634 4.97132552240372 0.0
8.943387824985514 4.967694248194483 0.0
8.888718468126953 5.071044784833541 0.0
8.580377663835254 4.774669738817985 0.0
8.770572242937233 5.073880380431421 0.0
8.832915096600454 5.174518948293615 0.0
8.952224483821848 5.170970838320107 0.0
8.897282771771884 5.275476392171722 0.0
7.463928467290875 2.513944501591933 0.0
7.675935950092034 2.509420347143072 0.0
8.924252417741767 3.024418701372628 0.0
8.857265893102921 2.911213535286156 0.0
8.776981063213334 5.27944309004916 0.0
8.840710910770163 5.380165700477552 0.0
8.960876896785969 5.375521424256389 0.0
8.904555918255223 5.482125846038813 0.0
7.567193097677677 2.32750151280277 0.0
7.780880844888839 2.323064027160363 0.0
6.851602118390116 6.234522818184622 0.0
6.758680682687229 6.389359516748128 0.0
6.66345977321418 6.231254850996584 0.0
8.715764716958308 8.079994249772627 0.0
8.65189989696114 8.227534663647639 0.0
9.042229096541828 4.348551764001607 0.0
6.436774206993324 3.316782326998922 0.0
7.590527613340588 5.22651784724799 0.0
9.024366884701616 5.476726561488805 0.0
8.968734351641839 5.583879050892151 0.0
8.845941080047659 5.586406316932274 0.0
8.909881305857882 5.690482454668167 0.0
7.348726871578975 5.44047403999932 0.0
6.567070253986433 6.398115757512583 0.0
6.697077150072261 6.553426749743366 0.0
5.252377383990728 3.187782967482479 0.0
8.988440431820699 2.908621158637298 0.0
8.922541972760119 2.796420836075996 0.0
6.466806010659505 6.229115583261771 0.0
9.033851153821296 5.686506775615425 0.0
8.978340519963718 5.795772485582058 0.0
8.85111463793018 5.798672910287243 0.0
8.922171984280597 5.907237880910408 0.0
8.795190680908043 5.911854068712683 0.0
8.864373398892472 6.019728357749566 0.0
8.991346995940626 6.014539153309398 0.0
8.93374019140187 6.12698887312768 0.0
5.095192648098848 2.952353430985476 0.0
7.672651464908932 2.141715359830917 0.0
7.886266921042761 2.136211284120189 0.0
9.098474286589756 4.245971410451114 0.0
8.813172564986438 8.216887361735234 0.0
8.74802978243154 8.366104673219047 0.0
9.059985162956899 6.120982589539211 0.0
9.00342813739303 6.233245043891739 0.0
4.961413514304496 3.214209167276753 0.0
9.05248113004685 2.794651022570942 0.0
8.986028039118027 2.681341972594222 0.0
5.671890458441996 3.377122473800023 0.0
4.755829262593116 7.184480462344647 0.0
9.158258644940048 4.34465968221255 0.0
4.799687186662534 2.961354824469195 0.0
6.030554747591715 2.726787502996874 0.0
8.938327180212585 8.34758372042188 0.0
8.847392320655468 8.503370672816716 0.0
8.67342124373679 8.518117686968314 0.0
5.234423106934083 2.694925204361751 0.0
8.964923046453565 8.185313058214797 0.0
7.456650986668838 2.134076476407834 0.0
9.111732084821366 2.897226832609386 0.0
6.368055837513985 6.402805870976705 0.0
6.265629899005033 6.226581076317183 0.0
8.736327196352686 6.026404178766982 0.0
9.117473097358854 2.67987006607594 0.0
9.052137415465204 2.565428515518978 0.0
7.781001557847192 1.955874236406257 0.0
7.992134447300669 1.949184538864554 0.0
8.593074792993455 3.143159483125708 0.0
9.1291360203536 6.226877897052981 0.0
9.072154326613617 6.338696745620542 0.0
8.916532550320525 2.566986282201109 0.0
8.984021113721658 2.449252898983242 0.0
9.178032243215632 6.120533546076094 0.0
9.213703592343162 4.244823670856978 0.0
9.11972142641474 2.449071238668887 0.0
9.052853896812186 2.33190758581705 0.0
8.635035926402708 4.462329956179506 0.0
8.773614475966344 8.657865377672689 0.0
8.596400917257634 8.67759750279447 0.0
8.942023339420883 8.644678093589654 0.0
9.19471670675691 6.33096438039349 0.0
9.138460613363325 6.443043552768813 0.0
8.66620319432524 5.916297234509582 0.0
8.606669825267202 6.032658196729024 0.0
9.27222540210304 4.341341907533128 0.0
9.013782808177437 6.451040569407859 0.0
9.08360982569773 6.55729980456602 0.0
7.885622149776354 1.768093045890686 0.0
8.095672144455353 1.768790621151345 0.0
9.208772072925791 6.549717411809656 0.0
9.154272208194383 6.662613503537815 0.0
9.187669783927937 2.334640996932141 0.0
9.122379015831417 2.215832190697178 0.0
6.164077036161143 6.404611236428829 0.0
6.062367614988677 6.224307160647549 0.0
8.987075041759633 2.211477580983978 0.0
9.056972755801603 2.093573581203428 0.0
9.194557288902232 2.096029761809264 0.0
9.131223008370409 1.972713028695079 0.0
8.87381302587057 8.795793668920256 0.0
9.039169086943392 8.781606667490083 0.0
4.662813350519927 3.228118291851354 0.0
4.474181267994617 2.945703616023359 0.0
6.562627723301209 6.075544382232434 0.0
9.326886053211574 4.243083624343211 0.0
9.280374192897945 6.656072830232892 0.0
9.224718905178564 6.766740750539347 0.0
4.703284910421452 6.528907865005451 0.0
8.955136474970331 6.565989985649191 0.0
8.998148826814893 4.865480736169776 0.0
8.99429836796776 1.965972383552685 0.0
9.065669391141741 1.847195105148808 0.0
9.207236162050343 1.853010386995843 0.0
9.143218073349985 1.725630086781897 0.0
8.998867447699345 1.719378449325465 0.0
9.082595782768397 1.592017827427701 0.0
8.92804562738841 1.585238202229766 0.0
9.01637794607019 1.453847302675876 0.0
8.854253119154375 1.446306868730686 0.0
8.941620273019874 1.320083886766936 0.0
8.775393064215876 1.308487027359826 0.0
9.102170347200483 1.324733726345249 0.0
9.013857060361985 1.178821526410403 0.0
7.991031819452564 1.587689878441685 0.0
7.767218744640202 1.595993197647291 0.0
9.191539171305216 1.194087248761656 0.0
9.123965901037613 1.057102462689568 0.0
4.853921953226772 3.470213116851758 0.0
7.496563223334782 3.470157221608763 0.0
8.536691379028115 5.921845852206257 0.0
8.475496498707471 6.037633662010236 0.0
7.978668526342969 2.307231488316941 0.0
9.384721922092124 4.337357165846226 0.0
9.331039180200886 4.435926256444196 0.0
8.546261775564837 6.150267290476958 0.0
8.411727261785726 6.155319300628062 0.0
8.972203609044218 8.930944433074036 0.0
9.133480321468399 8.90955269607895 0.0
9.197778815538276 8.768743880012563 0.0
6.162231825784922 6.05277753404107 0.0
5.962111081146334 6.046949845237622 0.0
9.268727788642101 4.146883230687689 0.0
9.380694211527906 4.144811697563401 0.0
9.323823335199954 4.049557759546529 0.0
9.283324894520613 1.736313094621396 0.0
5.858151623803662 6.22041808248046 0.0
5.759668475561988 6.038806123495502 0.0
7.836860473863919 3.191674397465999 0.0
9.348591928839294 6.75855034547469 0.0
9.293979592221298 6.870213350675044 0.0
9.170543172728557 6.879819332293818 0.0
9.240028263813034 6.983394994050525 0.0
4.347372565145963 3.312731475520695 0.0
4.114183445909965 2.96879678229065 0.0
8.616264880152233 4.042035981070631 0.0
9.403174760076901 6.650407069150438 0.0
4.173860112179449 7.723461240865885 0.0
9.365302975518428 6.973476802087294 0.0
9.312420275675276 7.088420778208979 0.0
9.184876614539778 7.0978133687822 0.0
9.25921281729617 7.204979813006656 0.0
9.12816413817609 7.21569648263899 0.0
9.203944409919862 7.322703303071253 0.0
9.334311975087337 7.311477957762272 0.0
9.280415785210538 7.428795599957155 0.0
9.274060219641907 1.066603180421249 0.0
9.211820491509728 0.9316562593680151 0.0
9.050684011148748 0.9017681241401576 0.0
9.441953732403995 4.432092590771756 0.0
9.394725873909666 4.526051349391942 0.0
9.43453556160865 4.048003950509361 0.0
9.378043599351757 3.952631412328806 0.0
9.289691247910705 8.890746792319852 0.0
9.228148443138926 9.030109127390128 0.0
4.440757888677695 6.389562448928118 0.0
4.689874463978985 6.239329075084555 0.0
4.291519540095677 2.622920583112654 0.0
3.886073352912894 2.632778677714434 0.0
9.344015622314338 1.202401041544343 0.0
8.193292196814806 3.849649660906171 0.0
6.960946604527747 6.07044529864598 0.0
9.347708267319902 8.756364147482309 0.0
6.826423138602714 3.261415861395883 0.0
6.06309517882478 5.884563187328262 0.0
9.4085057714426 7.414123963607981 0.0
9.356416821537886 7.532359471354527 0.0
5.042074134251055 6.938947182785697 0.0
5.063988238156824 7.311205832605263 0.0
3.946666851334923 3.30681624613374 0.0
8.189857914071878 1.939951128540477 0.0
7.880690277686857 1.38928908049477 0.0
7.63766396748483 1.399736360041063 0.0
9.345004233592562 1.857695941115052 0.0
9.440465164139875 7.085860901905448 0.0
7.918332480761888 5.744468010879592 0.0
9.08007135068879 5.372457017512481 0.0
8.78639561093144 3.718391405525285 0.0
9.356843485085705 0.9414458825132457 0.0
9.29705128845331 0.8103081541678832 0.0
9.251825423225316 2.451701826351773 0.0
8.483895366325516 6.270717564685176 0.0
8.346386886249478 6.275973306650227 0.0
9.493299170161215 4.138582531223591 0.0
5.321115649032961 7.117073603021904 0.0
5.354076009109965 7.436189411362466 0.0
5.597984079819928 7.254284331170681 0.0
5.644042313435943 7.564172740776336 0.0
5.383963016128051 7.753854027984002 0.0
5.681168258142109 7.880444993178456 0.0
5.935548099874979 7.687258900444162 0.0
5.979508404301389 7.994332725561488 0.0
6.21936843555201 7.802335560754011 0.0
6.267092590637372 8.104873033518185 0.0
6.498845418385807 7.917606504106031 0.0
6.544600005636809 8.209910620392591 0.0
6.77336078689533 8.027284686082275 0.0
6.814840179123049 8.311778392637773 0.0
6.721304148677048 7.737863326704131 0.0
7.031320924898797 8.1335673274533 0.0
7.077388928622946 8.403901803728003 0.0
5.417471987089176 8.090112295667405 0.0
8.845427688507666 2.446352368201366 0.0
9.318512319918124 2.339233739859646 0.0
9.380241452597096 2.451895615249572 0.0
7.283805558009199 8.237518806365102 0.0
7.329200330160381 8.497045124353782 0.0
7.233272584416691 7.991590926766813 0.0
9.142592248414191 5.471315142785471 0.0
9.196303265878848 5.36738298742727 0.0
9.25795832955665 5.465260877691205 0.0
9.310581303233182 5.36341558704714 0.0
9.371094700882272 5.459458038195667 0.0
9.422767107822985 5.360687090455724 0.0
9.36402660964156 5.264821436196721 0.0
9.474220736978928 5.262802348886269 0.0
9.41680330511366 5.169477108906666 0.0
5.168675939028436 4.895496152382537 0.0
9.482591449057548 5.454699312257291 0.0
9.431567605310825 5.552723344040521 0.0
7.531449703396948 4.741663470323411 0.0
8.517293123442691 4.672601123164268 0.0
8.459978676626639 4.778466809901586 0.0
8.396595115309985 4.67568709170855 0.0
8.338966609235166 4.782101664607259 0.0
8.275355646032752 4.678829956447008 0.0
8.217675280223542 4.785699596769931 0.0
8.28149024865807 4.888803783902183 0.0
8.16019781596952 4.892696417098926 0.0
8.22433278506531 4.995725219088695 0.0
8.102825704443651 4.999629142625341 0.0
8.166887930010795 5.098242831115916 0.0
8.034904900788316 4.896825406879729 0.0
8.15353539905931 4.682103688185489 0.0
8.211891449058882 4.574219757233394 0.0
8.290305306104333 5.094007100958221 0.0
8.225684228618732 5.201525567655179 0.0
9.444618942559746 2.343141375196729 0.0
6.929446520625337 4.868116916840016 0.0
5.737810725167649 4.893891407574175 0.0
8.720389971487277 5.38508368411851 0.0
8.805734920311323 8.951818172412821 0.0
8.905272694453211 9.083303226359831 0.0
6.006155038818204 5.171375272745409 0.0
6.431496448228514 5.152985998213245 0.0
9.052675024457304 7.106590131831544 0.0
7.740007013494393 6.09727525827826 0.0
9.375852260355511 9.013078430361404 0.0
9.32035844773103 9.14584923943073 0.0
6.989707597683965 5.146377438798643 0.0
9.488190206836386 3.951168069367155 0.0
9.432429152094464 3.855725756072153 0.0
5.568386402814275 5.185723849666124 0.0
9.525561551078322 5.166162126187324 0.0
9.465026391994275 5.072601962964018 0.0
9.320357339516937 3.857795423728873 0.0
9.375955927831914 3.759314274140895 0.0
9.261783786753899 3.761412578759438 0.0
9.31820665563318 3.661845422072752 0.0
9.431798673168924 3.660830894813109 0.0
9.374584413615914 3.563138564686839 0.0
9.48759661134647 3.562294297118573 0.0
9.431339678707085 3.464016717943268 0.0
9.417896212887529 1.746970678437863 0.0
8.731705369070733 9.110902182838881 0.0
5.652297951447118 6.21188565774667 0.0
5.569122518069258 6.024400786163834 0.0
8.257007204149394 3.505875091031567 0.0
8.717428603143034 2.925525757227976 0.0
6.882852832747376 8.57686572931064 0.0
6.337330066435714 8.416819098143066 0.0
9.50188906539997 4.521022403818629 0.0
9.453500859905136 4.617181635748691 0.0
9.46806769570129 6.749352117850711 0.0
8.836822104875719 1.72282859852854 0.0
7.481071063421426 5.64593758994851 0.0
5.668814988976305 5.86611128457842 0.0
5.487644760735084 5.847591822776978 0.0
8.993992818065195 7.228173913870249 0.0
7.98322414937693 7.229980191466666 0.0
9.22810751684646 7.54864871395298 0.0
9.304103360459063 7.654622011545798 0.0
9.432787371848761 7.633691049023619 0.0
9.382619818023882 7.759136995934441 0.0
7.239096822516492 4.679179578301165 0.0
9.47692479956498 1.861231395362419 0.0
8.041243110813022 5.095895152648969 0.0
6.190208781188077 7.509864122823853 0.0
9.283062812782122 4.549418667685757 0.0
9.503847665760087 2.450295046295932 0.0
9.443345385250678 2.557904120404248 0.0
9.52009568463353 6.644015937008899 0.0
9.203119005973903 3.662458522935253 0.0
8.406198651282708 5.92630414760378 0.0
8.467263597743843 5.811987729136874 0.0
9.461423029059445 9.128120577356565 0.0
9.408445330070542 9.26024300250086 0.0
9.266505293379728 9.277952925446408 0.0
4.14874709022218 3.631681332690154 0.0
9.437448107949258 0.8198473430736303 0.0
9.376993771693973 0.6910550697058979 0.0
9.22882356848217 0.6931820370818127 0.0
4.451823867195988 6.103664366188579 0.0
4.200031743909027 6.232039028149317 0.0
4.687154754667774 5.975132870483986 0.0
6.268889397098538 6.592235545990395 0.0
7.509366161722768 8.340075462391164 0.0
7.564775703413765 8.59800936579159 0.0
9.542148732924264 3.854614593058991 0.0
7.036231103929761 6.550562550831048 0.0
4.089373665437328 2.268193930262139 0.0
3.642558884866483 2.250386188148396 0.0
3.442182385618804 2.651948803899947 0.0
3.146832503011753 2.222630466765926 0.0
2.948870467975985 2.805088883766417 0.0
9.352005315330274 5.067356449300542 0.0
9.31729677031493 3.462944187594675 0.0
9.37428383619102 3.365546369736205 0.0
9.4883538239391 3.365384871181599 0.0
9.432147665178338 3.267287636377487 0.0
9.25034519267688 7.775848812012313 0.0
9.332091350002502 7.881724023243533 0.0
9.462101000264603 7.86490055671988 0.0
9.413353271651825 7.98561007219363 0.0
8.273592814723814 6.158623919352561 0.0
8.207135014732339 6.280394934566054 0.0
9.541483811580331 5.548224291759592 0.0
9.491365919893726 5.644847811894615 0.0
8.088095771120983 4.577581369371366 0.0
8.14760102783746 4.468303741922308 0.0
9.556217963323956 4.414867468889523 0.0
9.543667331547693 3.266908751519594 0.0
9.489307652535885 3.169908976697059 0.0
9.26285575842982 8.635341362685686 0.0
9.403220742003983 8.621447866627538 0.0
9.326013417886902 8.506778946171965 0.0
9.455477927154853 8.503896705359047 0.0
9.566646674069602 4.611465258087684 0.0
9.499341049870914 0.9352184973273918 0.0
8.683891958597638 1.444705608998412 0.0
8.599973456173778 1.287265568270043 0.0
7.760988189317371 1.175381292562583 0.0
7.50927661322749 1.171223823957793 0.0
7.380927152434357 1.411062577009695 0.0
7.242417847270241 1.170759311509981 0.0
7.107236746116019 1.421234419770886 0.0
6.960799033544566 1.169618322344823 0.0
6.817786081200392 1.434174581170586 0.0
9.48095050141868 8.738557748483624 0.0
9.319762046171894 3.263060331456388 0.0
8.920653400180534 7.117307656029475 0.0
9.452431221190624 6.544166520883111 0.0
9.571407933653493 6.540336592280795 0.0
9.507586285214174 6.443281357841339 0.0
9.575252974749443 5.070210512157044 0.0
5.755172844377253 6.370710487467459 0.0
9.541351959064952 7.969072511059531 0.0
9.354607289792183 9.3921968735401 0.0
9.495213435762107 9.37218405175897 0.0
3.77688136092967 3.643094492921176 0.0
5.460967180339239 6.159077196937325 0.0
8.656589552918996 5.283032675040985 0.0
8.599307076390474 5.387421722684671 0.0
9.584017606465821 5.263931993965828 0.0
9.51536593891754 4.977534386249715 0.0
7.788544970111893 2.70578432810479 0.0
7.381746833264364 8.755477463411431 0.0
7.615969996822885 8.852710176548548 0.0
7.783643411970649 8.691528137204457 0.0
7.845017394185501 8.938777577473743 0.0
8.570520580943368 7.342304222498308 0.0
9.103648004226827 5.781084627507008 0.0
8.338082930126799 5.815990105349368 0.0
8.930848895071895 4.561111316304916 0.0
7.381089602119859 5.983657236035151 0.0
8.42066837692862 6.393608568217351 0.0
8.888256157021065 6.459558428285236 0.0
8.826495664731354 6.575679897210801 0.0
4.22522220414496 5.921354747981145 0.0
3.943296448343383 6.075578573904587 0.0
9.563175937841836 2.554860696349795 0.0
9.505342423182917 2.656889632284623 0.0
6.660863480070611 1.168750929063519 0.0
6.518316961679488 1.436478598119306 0.0
6.683474168246802 1.694104067636375 0.0
6.376799057174731 1.707382100972048 0.0
6.205091481342603 1.443621641108414 0.0
6.058670988071357 1.728841803855816 0.0
5.877457486049096 1.454297236926778 0.0
5.724979192982589 1.756666409586195 0.0
5.529885788012015 1.462283739157555 0.0
9.514953777019835 0.7018468683209754 0.0
8.398665270372675 5.702731562702358 0.0
9.456442249775696 0.5772068858285652 0.0
9.565795671866349 2.345573662774494 0.0
8.830758563027459 9.247271599108435 0.0
8.523580738257648 4.88015211128435 0.0
5.580123316488715 5.701889892660689 0.0
5.398591029446707 5.685938459654249 0.0
5.367686360823392 1.778740548277203 0.0
9.546603444041448 1.754984055696778 0.0
9.489649223089446 1.641312329051244 0.0
9.617973952467912 3.363804764345866 0.0
9.584322830999731 6.729956156156573 0.0
9.597221861144487 3.948534024289882 0.0
9.49401963819799 8.089507968561776 0.0
9.207321074262563 9.416906871900888 0.0
8.27185428346661 4.464932191097996 0.0
8.207416067213774 4.35878753684812 0.0
8.332747746635944 4.354903699457511 0.0
3.990181919126853 3.930792395858886 0.0
8.267392138262498 4.254008221702929 0.0
7.997788712685495 1.196805377512679 0.0
9.600316638269724 5.639973985281733 0.0
9.550939606739425 5.737313319038155 0.0
9.44084303195315 5.74233753256161 0.0
9.50112296154558 5.834555019909565 0.0
8.897429225733994 6.685415510921676 0.0
8.762930941408914 6.695907295903629 0.0
8.654628175336732 9.278157371342388 0.0
8.544676900803436 9.133790942553834 0.0
5.294904777716057 5.855935872688884 0.0
5.216749389964556 5.66865685845661 0.0
9.508453581298625 2.239460033375932 0.0
9.599691370793206 3.169496930704394 0.0
9.546615051106684 3.073514534194011 0.0
7.484714626923596 5.028675123117963 0.0
9.588496050271255 7.850836295555126 0.0
5.153197381012662 1.471340286561097 0.0
9.433168304679345 3.071871997104804 0.0
9.610464706874994 5.829217654498672 0.0
9.561407772947403 5.926179534044419 0.0
8.273381980676042 5.705233340662362 0.0
8.330794188929296 5.594351887246082 0.0
8.207319603076424 5.596747949305344 0.0
7.251338559467102 5.233758892662348 0.0
8.708518799790543 1.130513882092466 0.0
9.590155250193266 0.5878623138195824 0.0
9.389919385420015 5.841079912164009 0.0
7.991397852194216 5.859910582924319 0.0
9.624951589233206 4.975554514425905 0.0
7.240016788025947 2.531866266726309 0.0
7.635666783493215 3.873554782053258 0.0
9.608476620993713 1.863530872936442 0.0
9.365330459496413 8.10677840682376 0.0
8.775076110585598 2.572737931759856 0.0
8.699389445914996 2.444602334375113 0.0
8.625078713232146 2.580891022578613 0.0
8.54447196848446 2.447624719286678 0.0
8.468898498943965 2.586757328881282 0.0
8.62282309213608 2.307826916202421 0.0
9.622102662978762 6.439307895185218 0.0
9.561995355724862 6.35103962032292 0.0
3.898245450818314 1.856155797593496 0.0
9.681759177700954 5.07069253017652 0.0
9.059254996454502 4.963357716933865 0.0
9.113144532326562 4.861710138088372 0.0
9.62140874877204 2.656009146517733 0.0
7.884510615470827 0.9666888912541309 0.0
8.14902661050739 1.005010215149227 0.0
8.491263206618079 8.527197931363634 0.0
8.408859203395778 8.697060715788105 0.0
6.54422152733529 1.954566069381189 0.0
9.563546573097593 2.755667904356369 0.0
9.453065492925557 2.761122255953964 0.0
9.676889098520615 2.755084315170127 0.0
9.678287124781653 2.556838324720633 0.0
2.60254317790297 2.278874965850319 0.0
9.211706272534968 4.050470567310489 0.0
8.526711683538949 5.698821878547752 0.0
8.296604023060945 8.533761944401608 0.0
9.649704314258118 5.543946557831669 0.0
9.651176136337964 3.85122804518279 0.0
9.44590154800397 9.498503704959054 0.0
9.580491248736612 9.476376347552954 0.0
4.3239388803087 3.921156392977062 0.0
9.65737873521736 3.075324100817917 0.0
8.128000846282253 6.160273991836929 0.0
8.06242981852327 6.292371360998262 0.0
8.500465019503922 1.442700595221201 0.0
9.615253212967009 1.649819368149096 0.0
9.561768620580791 1.538553925606111 0.0
9.435477757657937 1.527391516499924 0.0
9.627993450010088 2.242685831452484 0.0
9.5338252733548 0.4673994795805215 0.0
9.398055066504014 0.4589059948533885 0.0
9.669486082509058 5.920177035588319 0.0
9.621072177439727 6.016493814615133 0.0
9.506185962103057 6.018397021409126 0.0
9.196884440497488 7.898824858961557 0.0
9.112591143666748 7.789491461180181 0.0
9.664357762385308 7.950712034233033 0.0
8.46233617997115 2.308903464128035 0.0
8.547917980328803 2.169381684694277 0.0
8.139931430059324 6.410762600521521 0.0
7.672499127532963 9.099143622036436 0.0
7.91372855627271 9.178704612763656 0.0
8.463425076318451 9.290653726808348 0.0
9.643938029094286 9.335632419679458 0.0
9.647017668702574 0.7068996148634754 0.0
6.241662276606473 5.884018212993202 0.0
6.157742245066693 5.73500474100449 0.0
6.318815619949124 5.730068085823802 0.0
6.247706374231452 5.593094310939028 0.0
6.406948541886973 5.593272398468375 0.0
6.092564106310554 5.587409338401505 0.0
8.535507922245372 5.286142900439676 0.0
8.022959839404006 4.471630490587016 0.0
7.963561162854596 4.581393556789843 0.0
9.683487139413305 1.546750704925431 0.0
9.630761777960082 1.435922217091829 0.0
5.121714348989337 7.950140247572198 0.0
5.136464096196084 8.310254432483559 0.0
5.47349124035624 8.455234262268478 0.0
5.176273618280354 8.687190323573228 0.0
4.796664658962938 8.592678692862421 0.0
9.568705729418735 4.887269869750176 0.0
9.462711651199594 4.88832222094458 0.0
9.674903475028225 4.882285174433025 0.0
5.4996067353406 5.546583260717527 0.0
5.663632234555963 5.557613452957074 0.0
6.829408195405585 1.947174574944512 0.0
5.336529198289861 1.127585641139875 0.0
9.672387559812332 6.34138351957329 0.0
4.463988917379896 2.271060678869338 0.0
8.618048281355405 6.263841736419089 0.0
6.480949808711781 5.74815588680617 0.0
6.562207427719153 5.592185077216444 0.0
6.643040463857446 5.721233693378952 0.0
6.712825900331884 5.588664360236 0.0
6.79240375630333 5.711383948285569 0.0
6.86115931532141 5.584697050428064 0.0
6.939210100691576 5.704407337029545 0.0
7.007668476576536 5.580801046893123 0.0
7.084627386867475 5.702817970154801 0.0
6.633257976075473 5.460881327825488 0.0
6.931430743764456 5.461960451448691 0.0
9.682652370938209 6.533133024505995 0.0
8.761108695241376 9.450742747770144 0.0
9.146031326900015 3.764292700000154 0.0
9.089378801805193 3.661317181076136 0.0
9.514354521818781 8.994988681611192 0.0
8.157650730500988 4.262987189670279 0.0
6.329633198899328 5.4647789391701 0.0
2.340685767996258 2.811285337457589 0.0
7.379572471323651 0.9290892725587991 0.0
4.171878172186605 4.222320767259098 0.0
4.4876601621649 4.16473354200826 0.0
5.336389369563535 6.806464508860387 0.0
9.595468321212476 9.108133206829102 0.0
9.645038675267227 8.982113951305912 0.0
8.393140678816192 4.246338342095281 0.0
8.309440721624494 4.155300532283633 0.0
9.418269339704423 1.9925512363779 0.0
9.662781807969623 0.477809346089035 0.0
8.011297869803792 0.7518828483803571 0.0
8.250149975885678 0.7646904662196189 0.0
9.608674873602773 0.3618049194050078 0.0
8.692696069692623 6.582927327365709 0.0
8.628225948401226 6.705702462696891 0.0
8.701883181418305 6.822086652299242 0.0
8.559276855155542 6.829564723911442 0.0
7.069268463354993 5.459534423493629 0.0
2.654575201159115 3.323490466195074 0.0
3.610801136544596 4.044075244426243 0.0
8.263757217166944 5.48730323490738 0.0
8.138838162809126 5.491254533497952 0.0
7.90196833683664 4.477386962763833 0.0
7.987943097943191 3.978756490171551 0.0
9.704623491880403 3.945605151832784 0.0
9.461009573830147 7.301728818091931 0.0
9.532468631193666 7.399916015174975 0.0
9.582688928417856 7.292330983701011 0.0
9.652579613269625 7.387768793572397 0.0
9.699264016151023 7.282867433965265 0.0
9.633305589700536 7.188543855060478 0.0
9.505576100168666 6.961225778216469 0.0
9.43876966151099 6.342441564206569 0.0
4.908483672172518 6.098703904450545 0.0
9.135448256237908 5.269827196966999 0.0
5.905650502271389 2.025036080946255 0.0
9.709890722072377 9.452748507541063 0.0
9.663337613522643 9.572126259365891 0.0
9.603900123387826 7.495180532331903 0.0
9.720147629525837 7.483400774981126 0.0
9.674588415444239 7.588303295299578 0.0
9.653186673863587 4.039274180923234 0.0
9.053164539680804 4.764545162185531 0.0
9.164908495749003 4.763017269285045 0.0
9.226019227262443 4.858029410614327 0.0
8.809947621994619 3.4964384919072 0.0
9.10538997155458 4.665865142902959 0.0
9.331074106432244 5.748993480915537 0.0
9.055854333858068 7.918554535314415 0.0
9.446431573964945 8.209836764658437 0.0
9.573844810886287 8.191100251691205 0.0
9.309704769895653 8.244395007943949 0.0
7.240329561730736 1.676197957122907 0.0
9.543389817573933 3.660019800390455 0.0
9.598599341122098 3.563130123982772 0.0
9.652615161407017 3.658119804270645 0.0
9.706336063693934 3.564815526226687 0.0
8.632284427755456 6.946688912416058 0.0
9.682863230715835 2.349655023034811 0.0
9.571538455120994 2.142369886250143 0.0
8.090821900439733 9.017409120951333 0.0
6.812258669899192 0.9007667548831626 0.0
6.50135254578461 0.8974046495177885 0.0
9.598335906230732 6.246437748035812 0.0
9.719677442549804 6.253968775436637 0.0
8.593026822691716 5.180101360605356 0.0
5.537586126848265 8.836083861509138 0.0
9.688689404995035 2.143487155934306 0.0
2.821389253975936 6.507820864074362 0.0
9.176571289960709 8.507736431357309 0.0
2.918303740542162 8.256728920338826 0.0
3.428955230180972 8.401446814887457 0.0
8.490587404589881 6.715350139132777 0.0
8.86049054904785 7.243279881821806 0.0
8.93696309213556 7.356650230611625 0.0
3.951931175165697 5.78308550088855 0.0
3.65055612573298 5.91672400098539 0.0
3.668142216548471 6.247526235973777 0.0
9.717269848920886 5.821831227352286 0.0
9.708364917734201 3.164198601626433 0.0
8.45581975650687 4.569560863828342 0.0
8.204448312099833 6.040774355519757 0.0
8.65969449127868 5.485991799508151 0.0
9.707534571012967 5.634423933296901 0.0
9.62102991883279 2.849662850313935 0.0
9.144093558002634 3.560383427867003 0.0
8.29763273805118 1.77155302934031 0.0
5.280452715709455 9.01633391004168 0.0
8.984558945859158 6.99932633710603 0.0
8.4157550875812 1.275784953143711 0.0
2.068078118650995 3.355462780535101 0.0
9.205703884756806 5.568274778556933 0.0
9.745857863753141 7.178456670302003 0.0
9.681628895748586 7.081494416756802 0.0
8.875818787971069 6.240744812097083 0.0
7.993733797566922 6.414830952863579 0.0
8.462810157069566 3.377071044664789 0.0
9.29428363519789 4.759591981903337 0.0
7.933956818298286 5.97437536746848 0.0
9.028281726378319 3.558713145763133 0.0
9.083461773461467 3.455531762175701 0.0
9.73231939683535 2.849247643393067 0.0
6.70072305037728 2.192432536215492 0.0
6.423245125077639 2.212870246546939 0.0
4.931537051605536 1.135086496804522 0.0
4.746426561586179 1.500381091957315 0.0
9.707706579932626 7.836419656220658 0.0
8.590593344701457 1.595639668013959 0.0
8.708946574109854 2.1688179918246 0.0
8.634728854549891 2.028564483452208 0.0
9.230357659411311 8.129337203173913 0.0
9.102841374461482 4.452881308250647 0.0
8.472081531214734 5.388993924853032 0.0
4.925996806199801 5.844046944846857 0.0
4.702806345752284 5.745688656289065 0.0
4.884357002239844 5.633237011762874 0.0
4.709628434300812 5.536404116679045 0.0
4.530800966746534 5.627044171217377 0.0
6.040296145349247 6.603808099703576 0.0
6.162203578696918 6.795213950202512 0.0
5.923135943221574 6.824060069869489 0.0
6.046693245732212 7.010423490915212 0.0
6.297337598588478 6.979895528204233 0.0
7.760448385794147 0.7294020304851334 0.0
8.492228348169641 6.958778476405878 0.0
2.89219822877093 1.704113597264478 0.0
2.26178643438086 1.7814602252425 0.0
9.726968895980871 6.009547057102511 0.0
6.63195110828313 0.6072886418835157 0.0
7.984023036954866 7.515675826210831 0.0
7.893857204140559 7.681876703427663 0.0
7.778465117872411 7.537836322197895 0.0
7.998204230811618 7.844922503023499 0.0
7.798554315988981 7.858161805718108 0.0
7.917846202023782 8.03040048103727 0.0
8.547520504556728 2.721261126162116 0.0
8.39253850806587 2.732073315877738 0.0
8.306047241032278 2.59069854402512 0.0
8.233011054235162 2.739783364361515 0.0
8.318836035587811 2.879838477099622 0.0
8.159530874574331 2.888511553151382 0.0
8.245490421394788 3.024568439743106 0.0
9.759103003747676 3.077839427881478 0.0
8.083610090773394 3.033523757291178 0.0
8.174562583800352 3.166768504406541 0.0
6.046769434852523 1.155662270344939 0.0
6.968371001421964 2.176347877216873 0.0
8.324858098380334 3.152966249334499 0.0
8.145556596142626 2.609897633546475 0.0
8.970652052821418 7.804556541250797 0.0
9.033737629244714 7.681328986528639 0.0
9.62347010002576 4.796939565664328 0.0
9.72520380348743 4.790261082613535 0.0
4.882631186210167 5.455006233451049 0.0
4.618356368594037 3.933076284395493 0.0
4.748083507220199 4.151025177732873 0.0
4.641724290430313 4.358202249373887 0.0
4.87055838101999 4.337900676660481 0.0
4.974114446887331 4.149149057174687 0.0
5.081577844806959 4.3240148266423 0.0
5.179521650033781 4.148725180298481 0.0
5.276261408871418 4.316673822529601 0.0
5.369189110897883 4.148362797753505 0.0
5.463892033849439 4.338819369807593 0.0
5.550828466075906 4.146274465971151 0.0
5.646554822352869 4.303571429647391 0.0
5.728109623160046 4.138582010823754 0.0
5.821689108984419 4.291959598724587 0.0
5.906082534948073 4.141649907302701 0.0
5.99655838673762 4.288752711512514 0.0
6.077312859438928 4.141011188943332 0.0
6.164215275138099 4.281164574562373 0.0
6.241782344986693 4.140701084167517 0.0
6.324316420613108 4.277393447415522 0.0
6.40284165425941 4.140026953305852 0.0
6.483655157361099 4.273418937894759 0.0
6.561170698911611 4.136221843106807 0.0
6.63512300179586 4.269917278694155 0.0
6.720306110251473 4.133393659385058 0.0
6.63777078218551 3.99617001426095 0.0
6.802492763973074 3.994355399489989 0.0
6.798834760478153 4.276914787769972 0.0
6.15377608509923 4.000134206628027 0.0
6.548727135071258 4.400510710520637 0.0
6.251479300130713 4.421887359316258 0.0
5.275876048175579 3.979624500657822 0.0
5.910905077162284 4.431174408784691 0.0
6.717070288412452 3.851239795555301 0.0
6.883499045994213 3.852555480300214 0.0
6.96664848901999 3.994033961856844 0.0
7.048208567116626 3.854750001965969 0.0
5.810004974283072 3.982497501655442 0.0
5.586615391658107 4.471070246359201 0.0
6.547331954052155 3.853872077215347 0.0
5.179081233207816 4.485638492900557 0.0
7.126615227065496 3.995337770596979 0.0
7.209459742762513 3.856893463870469 0.0
7.130226097876905 3.713620439679428 0.0
6.63075064074106 3.699684148676045 0.0
6.446985573861992 3.697358756862005 0.0
7.043151422977365 4.131713936060725 0.0
7.198322215260019 4.129850614748363 0.0
7.119378405252723 4.26005098890218 0.0
4.797146270976422 4.525762781577414 0.0
4.608329098388589 4.573584257851931 0.0
7.294442092743627 3.720853338661503 0.0
7.215753312764997 3.571378507508807 0.0
7.049631633956289 3.568047985538775 0.0
7.133765707749521 3.414282375958479 0.0
9.755079417839903 5.539705890434435 0.0
9.698955703441971 5.450920012703194 0.0
9.717604099406742 9.09084770432896 0.0
9.276716006673976 5.847248422342224 0.0
9.339081208926798 5.941174203394446 0.0
9.031261921742963 3.750271483819014 0.0
9.08721978689863 3.853416037308712 0.0
4.801461566647803 7.510704110489921 0.0
8.206553504932042 5.818005960412773 0.0
7.362361315389098 3.863102442315545 0.0
9.492826845316191 2.963845037486267 0.0
9.376710375304633 2.97229517374228 0.0
9.3192743723601 3.070687802230453 0.0
7.915389082113898 6.293241865913004 0.0
6.735006382384437 5.832450056405368 0.0
8.456481836836168 4.35369289249905 0.0
8.517718268476031 4.246675068616396 0.0
5.583512022030555 5.411069060406398 0.0
5.73625200174779 5.422617752052123 0.0
5.81006929286229 5.548584937688919 0.0
5.903438861894402 5.420604003204523 0.0
5.43801870974416 5.402925156167655 0.0
7.022641548594327 5.825217331839047 0.0
7.165095795605366 5.826005223633447 0.0
7.223078558430726 5.690146755650336 0.0
7.841396000338385 4.586693006493787 0.0
7.904793170875705 4.690826189066096 0.0
7.785999820520073 4.696719777099973 0.0
7.846448506395101 4.798518978096564 0.0
7.728149182067156 4.803800941124008 0.0
7.788983823826226 4.904802634695232 0.0
7.672018889153144 4.910077510508749 0.0
7.731996012352178 5.014717724244488 0.0
7.852072803124419 5.00743796185411 0.0
7.779278698005006 5.118909346425974 0.0
8.088113864063853 5.605434545811022 0.0
8.016457362785575 5.494849890158723 0.0
8.072290383394757 5.385594956317259 0.0
7.95068657972964 5.38825563681957 0.0
8.309366678475389 1.438342408757099 0.0
9.748160780780179 1.447794693754379 0.0
9.696454228162398 1.337889922375316 0.0
9.568813761940916 1.329560834053294 0.0
9.638326779791626 1.226729570935787 0.0
8.472132467407484 5.182856496818138 0.0
8.066211547412054 6.53691730655352 0.0
8.217035586462373 6.522976700918602 0.0
3.544839338670893 3.324491119989469 0.0
6.999740002965287 5.347729916247808 0.0
6.874544698914502 5.347027470386579 0.0
4.880451234715014 5.193043717957879 0.0
9.104510033763066 9.313204713465637 0.0
9.0466357104558 9.45359399494339 0.0
9.146803165140184 9.569652364413551 0.0
8.134107047896672 0.5527712356100052 0.0
8.369770412730738 0.5571215815175228 0.0
8.47386979744655 0.7564607169846485 0.0
8.585193608569258 0.5749174254532757 0.0
8.683868132726584 0.75505070091701 0.0
8.787381435061018 0.5813987798627239 0.0
8.697570280442534 0.3771156480326233 0.0
8.530048434259976 5.077280516000916 0.0
7.995091351438729 2.90367515012593 0.0
9.731083608815164 1.662638626153251 0.0
7.260488865351954 4.255073962371814 0.0
9.760728358076392 8.990038509880067 0.0
9.716710396257366 8.884160310398862 0.0
8.794627466210242 7.369659405098349 0.0
8.868068657550866 7.515048014893154 0.0
8.702594597629135 7.510501129643432 0.0
5.132320689147051 0.7610757801158905 0.0
9.755852887652699 3.853180024615871 0.0
9.787424819067885 2.757921105725315 0.0
9.731193479931608 0.3736343090103709 0.0
9.796526908308536 0.489684029254899 0.0
8.226019692057042 2.453349105940535 0.0
4.560989821496479 5.428206018250252 0.0
4.348810639659689 5.517048281386008 0.0
8.785190163106925 7.119142251269924 0.0
9.015515413043023 7.464769766852701 0.0
9.754861440190705 3.659036930324926 0.0
9.7543610723378 4.033687839160082 0.0
9.707881226943384 4.127219992296752 0.0
9.52841017383273 8.309020665649431 0.0
9.65186044414544 8.289498614805698 0.0
9.714051275521857 8.173576484362068 0.0
8.209758892476394 8.715513071423135 0.0
8.097084883671858 8.548851201381087 0.0
8.177989947800599 8.367872862579052 0.0
7.974142434808908 8.36779470623567 0.0
8.409012054919861 2.142624252464372 0.0
7.707002321497132 8.039129945341395 0.0
7.574653123518228 7.83895791570255 0.0
9.229858094382692 5.951357214361815 0.0
9.75307989876696 1.229893222503321 0.0
9.715811155868643 1.128779429890018 0.0
9.597960915003707 1.117058287635912 0.0
9.672063923518955 1.020806103150243 0.0
8.99090422125785 9.593878510105375 0.0
8.133165456134304 9.257620998029804 0.0
7.976779931497633 9.420725324095141 0.0
9.77231778617502 7.927819487779705 0.0
7.957213679655531 4.364530256281665 0.0
9.609903116082736 8.403725680286847 0.0
9.724891358972584 8.388392708395173 0.0
9.687487059868507 8.495935345161797 0.0
9.810055520269009 8.494090598382963 0.0
9.755967487162335 8.599790818513082 0.0
9.645698986824481 8.606121319182705 0.0
9.721376049217765 8.699989876681524 0.0
9.773009257015609 4.884557953188837 0.0
9.830105798750992 4.796546393900876 0.0
9.775335108731761 4.686093304257503 0.0
7.455611517737074 3.730099283949135 0.0
8.906943567829634 0.4197477661467797 0.0
8.980613334153533 0.5814185917581446 0.0
9.081059111759728 0.4263421860552371 0.0
9.821654809259165 3.576985724143072 0.0
9.761309244784803 3.4792267780002 0.0
9.763329553045937 9.353068233045157 0.0
4.463051839136694 1.164440352584939 0.0
8.0213168204867 5.283436382300235 0.0
7.89385412333227 5.290429544753158 0.0
5.806940001023414 8.583716119232427 0.0
5.88977793877374 8.96065112858812 0.0
9.177759062826041 8.25539130897928 0.0
9.626582559276994 2.05283181283147 0.0
9.747673294325121 2.064954301745188 0.0
8.775905508647185 6.951821187702613 0.0
2.3581644273991 6.029034686663493 0.0
9.777798009058461 9.548066962498762 0.0
9.737129197219856 9.662299853506903 0.0
9.615080366030512 9.683349544763068 0.0
3.315839678697904 6.042943273456425 0.0
8.915083018115329 7.937748428923896 0.0
9.489832173860055 4.712364754630572 0.0
8.118313727862493 8.013944064029838 0.0
8.902248750797776 7.67372145952523 0.0
8.954075939212636 3.463080912810881 0.0
9.45247551997678 2.133243108303608 0.0
8.311151553157742 8.899233004613622 0.0
3.28672004268868 6.826745674539142 0.0
9.86008383798735 3.468233656255824 0.0
8.389990589860254 1.947086063498656 0.0
7.144231739553659 5.329544660076687 0.0
9.654500729007207 7.743301971143119 0.0
9.761920842881946 7.740144345898896 0.0
9.692820773976567 0.2651585113981998 0.0
9.690951720399688 6.100517071814821 0.0
9.775704281989471 6.077882312279847 0.0
9.823117117198079 4.115168542267924 0.0
9.764391943581737 4.214465954230587 0.0
9.659455011849253 4.218716850797838 0.0
9.713462125022623 4.30742830316693 0.0
9.849638067150842 4.208845651573708 0.0
6.376241713254513 3.858766051594979 0.0
6.274931849158213 3.701528298009006 0.0
7.097780104117746 1.926449727602711 0.0
2.457742027508782 3.810157622192786 0.0
2.963634206580268 3.740748099915693 0.0
5.065585416063965 5.544355730437482 0.0
9.783560252464587 7.566507987677117 0.0
9.825819294611026 7.470942204664841 0.0
9.799976114123012 1.01659516618323 0.0
9.745559590633832 0.9150866860898854 0.0
8.20473400632469 9.495828670767946 0.0
8.784586030320169 2.054461500762216 0.0
8.758471587067168 1.888286802854785 0.0
0.9188935087347281 8.510730800272478 0.0
9.674192026048217 9.20389587377276 0.0
9.796314981283475 9.185916994648775 0.0
7.206882433199502 5.452024361489832 0.0
9.773927048949279 6.334665846819535 0.0
9.830288393591173 6.225300227041885 0.0
8.25177349297509 3.282767705830209 0.0
8.099233469407428 3.304040153764131 0.0
9.607860512870598 4.315652630490023 0.0
9.403674738018715 8.367349042046314 0.0
7.611756786273919 5.018691202305147 0.0
7.549513964643336 4.923310232561835 0.0
9.80986724662116 0.2915868356190958 0.0
0.7757562810577034 3.504187313079081 0.0
7.659562100664981 4.698467529240196 0.0
6.539424975891206 3.541729955691742 0.0
6.717348880400739 3.55221857686142 0.0
6.836337579501807 2.417476958454302 0.0
7.096480496160066 5.959124656438389 0.0
7.189742782777612 4.377051328076039 0.0
7.051723187622053 4.38470822973091 0.0
7.125489805519186 4.497018383456762 0.0
6.994915621927777 4.501504591168814 0.0
7.056755276274058 4.607929817497045 0.0
6.932937068803914 4.613249390039674 0.0
6.86629288290367 4.50541343988659 0.0
6.80427099775847 4.617607827251794 0.0
6.739195362053689 4.511124964201849 0.0
6.677260697693361 4.624288827143181 0.0
6.996760608675822 4.711715831373894 0.0
6.316045249462968 0.6456945497683586 0.0
7.321834163850416 5.816449323512759 0.0
7.833101485370825 4.390058096386987 0.0
4.996572652976738 4.498711166259074 0.0
5.112334577457371 4.663858846723513 0.0
5.271923064784868 4.629759173373871 0.0
4.93773508827367 4.668006487116195 0.0
5.348137647919096 4.485934621930562 0.0
5.413454827497575 4.62999925573761 0.0
5.356581113747675 4.770594395332836 0.0
5.013422223730484 4.793321773780133 0.0
8.58674425943957 0.9312335381466886 0.0
8.776450596582496 0.9362399987293505 0.0
4.783496233934828 9.486061758876032 0.0
4.544176394620909 9.034071856445296 0.0
4.082330493623582 9.015765881393772 0.0
9.820867469965414 7.285959215547852 0.0
9.852697883440127 7.166089674802766 0.0
9.260999083164238 2.971390964911171 0.0
9.197701900169713 3.073162109379564 0.0
9.31960210441945 2.867465579641856 0.0
6.660951583415121 3.383363199709994 0.0
5.210469976037585 4.761678854423166 0.0
6.740780285297665 4.733615686805694 0.0
6.611362405615225 4.731958642073806 0.0
6.549091884465382 4.629620704100811 0.0
6.491761716522486 4.733409494449344 0.0
6.425259228542098 4.640546096196947 0.0
9.715556659367534 2.986725573570596 0.0
3.710524324925069 9.463213827486557 0.0
4.768537031214573 4.727001037865238 0.0
5.039413681704655 5.378508462165627 0.0
5.188746429211535 5.440476671296013 0.0
5.172214816037712 5.298914527247826 0.0
4.469063601436893 3.667917323494335 0.0
3.799121596584382 4.741629285988305 0.0
3.661085664896249 4.442847704416992 0.0
3.316563386321876 4.380147387454913 0.0
3.802087298647255 5.26743535640985 0.0
9.738116341343215 8.047178982429934 0.0
9.85106076399546 8.021725551312715 0.0
9.837581050304836 2.844176011307251 0.0
9.664579962075123 4.402853107737106 0.0
9.76433159763034 4.39807801415352 0.0
9.718924973226878 4.487825491046641 0.0
9.826405563645343 4.494594135148365 0.0
4.931068003413168 6.359330991212394 0.0
5.130175746947236 6.201075257041828 0.0
5.143884286052002 6.445382329515047 0.0
4.953395875296406 6.628748468717369 0.0
7.833019185167153 5.400347121613631 0.0
7.766636138801143 5.313240048256084 0.0
9.767038723422333 4.578090619166644 0.0
7.315369355237483 3.441501197259575 0.0
9.556068971301514 0.2347811136726856 0.0
5.733871280791703 4.444861510772459 0.0
5.828809543126846 4.569791247698539 0.0
5.986701526182213 4.562881783985375 0.0
5.912543327921148 4.692966271273211 0.0
6.052130330528581 4.682477327897978 0.0
5.773525984744635 4.697697018456535 0.0
6.121646311546238 4.572302645403103 0.0
6.182349700936326 4.67713231096357 0.0
5.846371383601797 4.808939734754761 0.0
5.117807918383606 5.974361363083184 0.0
6.256132501905665 4.575863546153224 0.0
6.324770064521816 9.645040261272253 0.0
7.345522892050965 4.12581088034536 0.0
9.338523512844539 4.854480276600515 0.0
9.286984287289403 4.959628690044808 0.0
5.676298026114105 4.589279806918992 0.0
5.631257891894775 4.722749088404111 0.0
7.970415275563177 5.621040275419208 0.0
9.565118337557308 7.081391220827488 0.0
9.626201005045262 6.980441083020495 0.0
9.733729506193331 6.979928568877979 0.0
9.684556253529976 6.887102896543928 0.0
9.780785815410074 6.890287441101827 0.0
9.740054813822885 6.794211367612523 0.0
6.462628988057306 7.629921412015864 0.0
6.692564520952154 7.473594130811262 0.0
6.927983108788191 7.570982428592125 0.0
6.899878641134941 7.329306734748538 0.0
7.117542472438434 7.416951094809493 0.0
7.089537168123128 7.186691566729968 0.0
7.296585396514727 7.275888419524222 0.0
6.879678873774065 7.097443005287856 0.0
7.063454637059129 6.967740076426161 0.0
7.329105042924355 7.496317641003757 0.0
6.867084781778411 6.878842928865059 0.0
7.494278796275744 7.351949197351029 0.0
7.462564159480594 7.150140034494138 0.0
7.644835001206406 7.21506678718646 0.0
6.682478929414216 7.008358327294905 0.0
6.449199855715812 7.365660640952548 0.0
7.548139855358765 7.57299228324251 0.0
7.008502809092701 7.844601794812628 0.0
7.371739019901781 7.707688433423657 0.0
5.665345294602155 5.290628720253272 0.0
3.987583013016546 4.486920698115711 0.0
8.893480480320447 0.7785000884179994 0.0
9.715485963651112 0.5955299613117169 0.0
9.761785841543585 0.7048670948649375 0.0
9.670304314877074 4.578896619304786 0.0
8.058509626083154 5.744161686650483 0.0
6.181795443628869 5.462040811515966 0.0
6.256771804808641 5.338464817889848 0.0
6.124070400983443 5.352376180901929 0.0
6.399679261813415 5.349186390888865 0.0
6.477776305607503 5.46505688468465 0.0
6.541624525938461 5.346017118512589 0.0
6.673064575428321 5.339051516933525 0.0
6.599301548842115 5.241958624987057 0.0
9.573774011620444 0.815274945835158 0.0
5.86493292693426 5.877588788523632 0.0
5.552663040119136 6.957487930464628 0.0
5.535080960199246 6.663033131707637 0.0
3.708603689392072 0.5979254716153909 0.0
3.31896983256719 1.188583855309964 0.0
3.895664898001925 1.128137111173669 0.0
6.363360407965353 6.032416442205533 0.0
9.445959758065749 1.070139246426051 0.0
9.50632172780449 1.214052376665338 0.0
9.441030033980638 1.325047485624912 0.0
9.295799464644857 1.341410624832976 0.0
9.184164107767781 1.461677744200096 0.0
6.407191016756832 4.407273313799791 0.0
5.544591888593027 0.7652641669375747 0.0
7.883090151006535 2.497506182548758 0.0
8.073420508370992 2.120510489750234 0.0
5.494822040671399 4.732314720081375 0.0
0.8986976806403217 1.464611451578306 0.0
9.536325549598013 6.83286654168725 0.0
5.972289519322897 5.727532110854501 0.0
9.82203607053145 9.443411729566549 0.0
7.263199949874008 7.064207941227515 0.0
7.233659553805083 6.853135694774254 0.0
9.793310082768443 7.072747972018893 0.0
6.734168931095253 9.67499220075154 0.0
6.941134861034159 9.382328333169653 0.0
7.285822522704258 9.443989747444657 0.0
6.576263515512108 9.333035011158342 0.0
7.160560566479093 9.127732577621245 0.0
6.218711947378506 9.298064908857533 0.0
6.432383355119106 8.980985203293491 0.0
6.795390278360442 9.046043538032663 0.0
8.54677014121837 0.1957422484480979 0.0
8.528696320820908 9.804850950580938 0.0
8.42644965647489 9.604735484095604 0.0
8.010239224104339 9.715048083583248 0.0
8.644359648763341 9.628432815860457 0.0
5.344212921686536 5.526744195650314 0.0
9.760936589662048 7.38409687515441 0.0
9.128187788393989 0.1445485608215519 0.0
9.133307661752394 9.854833215426817 0.0
4.867351616228264 3.944459575003425 0.0
5.905323253270366 7.385600364255367 0.0
5.909045412185362 3.361969954191194 0.0
5.80580919758911 3.569999290452344 0.0
5.578230704221431 3.587842862412673 0.0
6.013352753603037 3.550699073477782 0.0
5.936624955014758 3.721630401607248 0.0
5.735413275357409 3.78528948606432 0.0
5.512538847486775 3.794760621907932 0.0
5.360571639388366 3.618649018042938 0.0
5.134141179590394 3.459385929220745 0.0
6.167399567008798 3.367365990358096 0.0
9.766756262206602 8.291756450136036 0.0
5.486063578307141 9.64505925252771 0.0
9.497624614180321 4.328873442170357 0.0
9.811387324954623 1.570516917365688 0.0
9.389210081887331 4.69150887571586 0.0
9.704395728912932 3.754226393630331 0.0
9.808172776193384 3.748784464356272 0.0
6.549660911932182 4.839747932361234 0.0
6.757415124099031 6.077939876843736 0.0
3.805578542126494 8.040840085419626 0.0
4.232580149691158 8.198659880701744 0.0
4.559765382564095 7.87091698350757 0.0
8.3829075948167 0.9495097054886067 0.0
9.8571301061408 1.456307792614791 0.0
2.005900212453279 4.535525273813588 0.0
1.85904408608185 3.956445706785572 0.0
1.979307922430775 5.474327285927505 0.0
4.387923194305381 4.427191306527721 0.0
9.429258370703248 8.873693567695483 0.0
8.99196583083892 4.664567567015693 0.0
3.050357122593155 5.368999067452741 0.0
2.861107385476722 5.785089447130829 0.0
5.005058958272409 3.711196438448062 0.0
9.8972295764837 2.755337284632969 0.0
9.581048890980513 8.853909321617065 0.0
9.668838904423916 1.762418716497425 0.0
9.716576458425756 1.852218615166234 0.0
9.799043132681442 1.780583141193779 0.0
7.661868217848455 2.880323287492419 0.0
6.780136552904057 5.443858690999834 0.0
6.489544866845868 5.913957888434588 0.0
6.880149522020364 4.134257616716107 0.0
6.970134365280068 4.264072319341612 0.0
2.225481516813409 9.348422240784 0.0
1.843418032490818 8.641605249943353 0.0
2.198000805242772 0.6459947140825729 0.0
8.740020306282506 0.1903932731609072 0.0
6.86957996016679 4.720776242956433 0.0
7.430920333506809 0.2702852342693345 0.0
7.302066064947383 0.6134316505458445 0.0
9.305398039877746 4.64854361125207 0.0
4.078151380865065 5.203425462519088 0.0
4.080704120371218 4.778853303303787 0.0
8.052525541571825 5.965483159581719 0.0
6.367194027835946 4.754896037842673 0.0
8.604191121620719 7.648182513679963 0.0
9.546446695207845 9.234701521982952 0.0
9.018652854946867 3.351011585453845 0.0
9.143853648154607 3.350173119015413 0.0
9.067079866763024 3.245174561579149 0.0
8.991492136849105 3.135578770028028 0.0
9.29603967712795 0.1426516429033488 0.0
9.392428271030795 0.2506306237151588 0.0
9.223973843394301 0.2912279164401488 0.0
8.39375191941536 3.018777714002827 0.0
8.4836475746111 2.88135207267795 0.0
8.741089053946197 9.821127577434911 0.0
9.803966507713174 5.448064463539533 0.0
9.748132240148552 5.359371181503531 0.0
9.850258990973547 5.355211921626304 0.0
9.7965346514158 5.266762244994661 0.0
9.84142096963129 5.171050273734619 0.0
9.738843612428232 5.167483913244169 0.0
9.64168976006725 5.359875132194057 0.0
3.335917453809221 5.671837672982919 0.0
6.962669142802881 1.683222554707996 0.0
7.365210844496719 1.887492842536114 0.0
7.517378971174123 1.677983072937792 0.0
8.00383870208024 6.089394601875145 0.0
1.725435941000569 2.759295503019395 0.0
7.907977929549089 5.102827208603365 0.0
8.052861051278896 0.2683271125209605 0.0
9.80169732768395 3.385443381464333 0.0
9.831597648680848 3.28491948963525 0.0
9.736335895866404 3.316207814499244 0.0
9.597256128490281 3.756160701977744 0.0
8.865819925321706 3.366235906378775 0.0
8.489614436807788 1.757152185195495 0.0
8.88089641144391 1.078983279100314 0.0
7.430923851187758 9.724389499796425 0.0
7.584252919312249 9.509430586267927 0.0
9.744026095940516 2.247117754488748 0.0
9.729961521243718 2.659836747108116 0.0
9.790866569780063 2.558993767350471 0.0
9.736606445116795 2.455104424879619 0.0
9.846806182714698 2.452157456754448 0.0
4.518102112052724 5.141350889745285 0.0
4.519880229178207 4.85678334497067 0.0
9.7302407894617 6.434012603549242 0.0
9.787537474544765 6.523591663056312 0.0
9.744262337067932 6.617499601377625 0.0
9.8406238811518 6.41591236129004 0.0
8.914967252734657 3.579360039684312 0.0
9.154797282599406 5.670753066089419 0.0
4.228839454580575 4.612979739018002 0.0
6.095037541675208 4.42126627187728 0.0
9.304166983880842 9.864854494751789 0.0
9.406445527105628 9.759007358529582 0.0
9.256225114941945 9.700832989525724 0.0
9.796206564635622 2.351215649506205 0.0
9.849373673349081 2.25090453834006 0.0
6.332048155295931 3.511675163099286 0.0
9.069679774213784 3.022879178706259 0.0
9.070599961450037 9.055284879641471 0.0
1.808685691036764 6.331557276533421 0.0
7.120156826652838 4.698481230214924 0.0
7.052894345811342 4.799848851879358 0.0
4.739957520484086 5.369107149361242 0.0
9.389197839958292 7.197139943834638 0.0
9.046688232613976 4.560364044038737 0.0
9.162685461967492 4.562194096410666 0.0
4.227377821420887 1.564128177298305 0.0
9.201090975245227 2.794301402811909 0.0
9.251941624303948 2.677556975242327 0.0
9.186758273070138 2.563916005021366 0.0
9.317609833868786 2.560335260954038 0.0
6.57599191748324 2.437689779955877 0.0
6.305556560534859 2.459112595979303 0.0
6.981058048792093 2.642476994448363 0.0
9.886113463139504 6.510498309609482 0.0
9.250462794607717 6.221362629571698 0.0
9.305373999084068 6.108271307139882 0.0
9.390477915810829 6.228015172491477 0.0
9.44452571968143 6.114582165110393 0.0
9.502105740270528 6.197677857389309 0.0
9.31559697209813 6.331647407124485 0.0
9.370938253597153 6.437386206819511 0.0
9.594764406124872 0.1099001288712305 0.0
9.602872681151728 9.894988341116305 0.0
9.622661196143387 8.076680696281343 0.0
9.769069277144705 5.9102532189237 0.0
2.615076109785583 8.807551523115547 0.0
9.658920005405456 5.730890135691177 0.0
9.76063135061807 5.720703211793342 0.0
8.63963723169499 7.177334225227945 0.0
7.841904391869763 6.41346852896409 0.0
7.764520718520185 6.297267738834625 0.0
9.546492996136271 3.465225175657335 0.0
9.25600964352143 2.219157062786616 0.0
7.625057159226293 7.012987957636062 0.0
9.529121062829038 7.730283486008674 0.0
8.329887090625894 3.845190321147069 0.0
8.265841850823831 3.95687001944245 0.0
8.402006523775544 3.947660780406651 0.0
8.128436391670505 3.968543393650448 0.0
8.46705122470662 3.835767362024195 0.0
8.218867047074696 4.063481375518748 0.0
8.089763413611255 4.08062363292928 0.0
7.939578083855268 4.111915744184436 0.0
3.74991304509639 6.615676756107112 0.0
2.627714335615619 1.170993030860914 0.0
7.046129971268607 6.759930788612616 0.0
8.534603732661887 7.486325780553722 0.0
1.569381386467569 2.042794535871475 0.0
6.228703743210918 1.986421863690014 0.0
6.467030855792859 2.67190498312861 0.0
9.272246093269825 1.975478263632296 0.0
8.05269609263041 3.854522845257449 0.0
8.008595521536957 3.177870309354594 0.0
7.929796740504207 3.350600835935766 0.0
8.048703574664067 3.449582532910417 0.0
9.72947480375618 4.973926800124758 0.0
9.784850360535604 5.072865219810449 0.0
9.896036387646596 5.069261557893528 0.0
9.633140953203334 5.168645132864771 0.0
9.558102991128836 7.602453108835212 0.0
7.278758746505716 3.994295887299482 0.0
8.306681733482405 6.936428510427854 0.0
9.487163072013963 3.757777670075558 0.0
9.532950522284125 5.359403698944497 0.0
9.816036650072329 3.927268437107025 0.0
6.173882586235392 8.734645960664665 0.0
7.972518459433741 5.003005338485466 0.0
8.398453459336153 1.601072016988848 0.0
8.97460527296194 4.040886705742754 0.0
9.037941657530773 4.143578781749325 0.0
8.849604200183613 3.828506169652706 0.0
9.545296177100065 4.042698359132156 0.0
8.595941796785514 5.806754902023664 0.0
8.65588412428292 5.694192853853139 0.0
8.723710665131787 5.801528918332044 0.0
6.861288985046249 6.673713222735126 0.0
8.87477249219366 4.664500928777609 0.0
8.72385765226959 3.608276264790996 0.0
7.145228858696953 5.573648565429618 0.0
7.282945121585866 5.558559688509987 0.0
9.224761401603633 1.602363370249125 0.0
9.609115686587552 2.986868833620756 0.0
9.633989947851914 6.628120633848649 0.0
6.046214325132457 5.45615093027661 0.0
9.017014346798927 5.271996636983457 0.0
9.070824864071271 5.168510834798647 0.0
9.189021391555556 5.166867900487267 0.0
9.123328759137758 5.064718588163964 0.0
9.240587446378079 5.06459430516883 0.0
9.250848280531756 5.267364371053135 0.0
5.773050603406019 5.7192906317521 0.0
8.576466432793914 4.3559007860436 0.0
8.634627802680399 4.253467736542067 0.0
8.461790117175607 5.591735227444779 0.0
8.907610717370224 3.713397213891439 0.0
9.80665594564509 5.628066492225966 0.0
8.985935132601089 4.455263493464225 0.0
9.00640209566022 5.067597672073404 0.0
9.833659276096986 6.976519563917422 0.0
8.0283368553477 4.687271895436317 0.0
8.326580191759327 9.127498457128247 0.0
8.650637373791266 5.07513089931925 0.0
8.701067313435203 2.700069743477523 0.0
4.825307249916392 4.884175191874744 0.0
9.418335984190309 6.858444798015129 0.0
3.91434687300816 8.542956908935874 0.0
5.569239724399552 2.064135034637056 0.0
5.234271567762738 2.128974435011933 0.0
5.757920427527626 2.312422707096966 0.0
5.43365689737979 2.427455772745759 0.0
5.673210219624612 2.602111218343444 0.0
7.214258468265766 6.652783071431555 0.0
9.823626269633962 4.30685540664529 0.0
7.96996639420014 4.794005510174826 0.0
7.616003332725032 0.502676560965646 0.0
3.050634530589821 4.659174799474146 0.0
2.870894249800723 4.246924313393336 0.0
5.285393339952368 6.079037173753393 0.0
9.439954241218905 4.23581687956071 0.0
9.67709722097145 4.710772408106511 0.0
7.40767785509217 4.259947873553335 0.0
8.396202587439676 5.486075637998701 0.0
8.323689688705493 5.372061002264632 0.0
8.191312386254125 5.384662546230823 0.0
5.304380054816289 5.369675374029755 0.0
9.093848379546637 4.047647920840374 0.0
7.916313220758624 3.045043876114836 0.0
8.435854831444637 4.144861908356168 0.0
9.060262453079693 0.7340576053322918 0.0
7.053195520344596 5.238809779682351 0.0
9.621762679347093 2.45205452967588 0.0
8.410730269104743 5.287995309529392 0.0
9.655094569234972 3.472720279371932 0.0
7.982140513923982 6.667914768024983 0.0
8.402690325256646 4.883576657130221 0.0
9.17488654147479 4.962006474835693 0.0
9.013188196102961 8.49700148123058 0.0
9.795977244531603 2.156818021002043 0.0
9.893813711206834 9.545820400859157 0.0
7.965349232662289 4.250048884270795 0.0
8.644264557989125 4.874751532150782 0.0
8.215430976121077 1.26077208565765 0.0
8.379717637669398 8.37324652769609 0.0
9.320026533461409 5.559861899725609 0.0
7.885778178744864 0.4977439426642278 0.0
7.547066983926719 5.125166613071239 0.0
7.657542898944819 5.122996245335209 0.0
7.423918840193691 9.000935553397358 0.0
9.854133000712425 5.541931969512857 0.0
9.328508174398952 2.101486405523264 0.0
9.300749600926641 9.530012105354274 0.0
8.130307182491519 5.277079344947874 0.0
8.346752967392757 4.987627363826086 0.0
9.118404185029991 6.007087846617186 0.0
9.048232213728614 5.89431792713258 0.0
9.088340967655858 5.576242562571367 0.0
8.094762487139027 4.789727191449318 0.0
9.915265904493378 5.749591413470928 0.0
9.92169805280126 6.154216704502091 0.0
9.918022441582268 4.549125436287157 0.0
9.919332362905616 4.849536560132457 0.0
9.914800786693318 6.750595509794719 0.0
9.811792900437824 6.703950687575952 0.0
9.900643083988882 3.749855087409844 0.0
9.912423171222734 3.043228996968949 0.0
9.91892875832665 5.949999999993851 0.0
9.913300070218703 3.960831593817277 0.0
7.709347001661226 4.444236534782706 0.0
7.479443107717332 8.071637285053104 0.0
8.839057072155848 6.807845119358974 0.0
8.972330068019902 6.78765448182788 0.0
8.542093772125282 3.941452413628317 0.0
8.279144752968262 5.930387616620717 0.0
9.393455876855919 4.973162505621418 0.0
9.507123333872533 2.855087674515822 0.0
8.77504684283825 2.317347145885344 0.0
8.394133129040345 4.464046960801843 0.0
5.725509852450801 8.210843960481027 0.0
5.62632390239664 3.967637659758752 0.0
7.910815814627989 4.900765971697654 0.0
8.595808444085467 5.590040244353608 0.0
9.705160502006024 0.8106158419444889 0.0
9.82021247904746 0.808810893177099 0.0
9.218352146075844 4.447736986422823 0.0
9.20781892622228 3.858281726888132 0.0
8.713609974387523 5.178241668554946 0.0
3.55755059259364 8.921522400238844 0.0
9.59122926011489 5.452844834281716 0.0
9.70565100407009 9.77887811062354 0.0
9.826938454219809 9.74303055702321 0.0
7.238962096855633 3.278078153406256 0.0
8.575609105166194 4.567807831727537 0.0
8.936449841121737 4.765835458965493 0.0
5.59323463391086 9.248527978398117 0.0
5.280809113285124 4.886132326418428 0.0
9.328132730893216 6.544753806716806 0.0
9.026944889277736 6.67247283515637 0.0
9.81946239021469 3.007926663525007 0.0
8.677633568960493 6.144049349297466 0.0
8.33427489656924 4.571212803519522 0.0
8.55734024448315 6.382535186588269 0.0
8.692399379422756 6.372347713955898 0.0
8.495817478252626 6.503308565233578 0.0
9.905494734661673 2.544078755559835 0.0
6.177101405266569 7.228490244483556 0.0
9.825373011845263 5.807482724503027 0.0
9.808678508609606 8.118683092442964 0.0
8.397717712407108 7.08010313863416 0.0
7.428555529689225 4.935946611338556 0.0
9.575504958128711 6.125633853639113 0.0
9.154066996197898 4.146562596982661 0.0
8.074381802159323 4.337569667261167 0.0
7.018337246891919 8.843475095716133 0.0
7.970627172560641 2.658650028065857 0.0
7.382546388883145 6.723381543491632 0.0
6.822972334933889 4.884555620881615 0.0
8.343732976791593 6.041576709398377 0.0
7.743680217306919 8.423336160305476 0.0
8.505717922983454 1.115022897794028 0.0
9.113973198216474 6.992972408167606 0.0
5.818882632841168 5.300437503812764 0.0
5.951991891717714 5.279516346785062 0.0
9.450183479138845 5.92934813870612 0.0
8.783346541536119 5.48419035750989 0.0
9.38074895894124 5.65076274999803 0.0
9.513658728876734 7.193620441323493 0.0
6.396040948797887 6.776064256962667 0.0
5.389661780244388 4.89715084345563 0.0
4.473247649068957 5.85935163892416 0.0
9.249586607512612 8.37680799459232 0.0
9.103796366487646 8.379197231055114 0.0
6.274057301184156 4.87985402946409 0.0
9.259628836118232 3.561431822636308 0.0
4.037922477011971 5.489409780163391 0.0
5.62712958624254 4.893925433488392 0.0
8.806426003347967 6.133410188141932 0.0
9.53304466499349 9.59279975429444 0.0
9.542890959420024 1.966631379116419 0.0
7.459736176874619 5.863847835420528 0.0
5.937613117200432 4.89232797168023 0.0
6.171611131472617 4.879541833448487 0.0
6.100695199816815 2.291172318314745 0.0
2.315194906726768 8.081958163666464 0.0
6.878489987598286 5.148099521847569 0.0
9.105264414399338 8.639184652727645 0.0
9.20047261316883 3.457820810661327 0.0
9.895329010385955 7.55944047105717 0.0
9.912742873006831 7.76210330502246 0.0
9.37761459375249 3.168397068877758 0.0
8.946121261512507 6.345629828835438 0.0
9.918632496443566 4.449809517365367 0.0
6.848211525651934 5.945010613369067 0.0
9.915721525903255 2.047407395915179 0.0
6.117255841708726 5.163321965161054 0.0
7.276595248786602 5.347247322210079 0.0
6.32682869954104 5.23674259421017 0.0
8.785886448438022 5.692775375342819 0.0
9.099994401883361 6.776698531382792 0.0
9.913397459621638 0.2499999999998165 0.0
9.910352525643928 0.4481571029410266 0.0
9.907850422008579 0.5479735220323012 0.0
9.911983631350465 9.24778487019403 0.0
9.917634740384067 0.7514684821956668 0.0
9.195214232985496 3.254172408378337 0.0
5.000896927376288 1.846006038077654 0.0
9.917172478547403 8.250155740683276 0.0
9.908120476950126 1.742986232208194 0.0
9.914524635720774 1.949567899316728 0.0
9.907358878377153 9.145625165175748 0.0
9.917695944922635 8.949999999998397 0.0
7.648387553139914 5.325741673607362 0.0
9.605343588986079 4.130627398479715 0.0
6.648113233057817 6.774798386229164 0.0
9.910347203087213 8.446729917003672 0.0
9.913623694530468 8.548470085896316 0.0
9.9201245863254 1.536225488581779 0.0
9.906538426683255 1.059019360781604 0.0
9.912867352010919 8.74999999999809 0.0
9.799662981388353 8.79550485462418 0.0
9.831828680383174 5.99966894118311 0.0
9.91414179906643 1.263025320602998 0.0
9.920690092699912 7.240982963665807 0.0
9.385889285950551 2.235126904097426 0.0
9.28133998925606 8.00415195851526 0.0
9.817074723108401 3.172398890123306 0.0
9.482030285089927 7.512954023388035 0.0
6.682432918504054 7.233889573028878 0.0
8.528699633246763 3.260502457553277 0.0
8.91699963742029 2.327016692708648 0.0
9.267676068834481 3.954520684561369 0.0
8.70811637467455 4.974101624783084 0.0
8.18184214270768 7.816666208279135 0.0
9.690393137288163 5.264344933127836 0.0
6.937111790104696 5.245184991960528 0.0
5.895846026722989 5.174232967273284 0.0
8.281683356622615 6.400073017261236 0.0
9.150883172924027 7.444273543454419 0.0
5.430406600793122 3.390815886517273 0.0
5.049583827974758 5.697634876048387 0.0
8.3966710383105 3.495813899905868 0.0
9.007538428392454 8.046563579784266 0.0
4.645155158868719 2.637132843684674 0.0
4.887444326771336 2.30020425915506 0.0
6.483736782775559 4.522536327482678 0.0
7.843169154548308 8.2116075844056 0.0
5.06295551628385 4.901632590583318 0.0
7.201400991012747 5.138239336380897 0.0
8.519791031104612 8.848807089071627 0.0
8.658623737989732 3.031313729049854 0.0
7.585566208322493 3.629882964874684 0.0
8.411818469596405 6.834326722716643 0.0
9.172363528634236 7.669230647622864 0.0
8.85455683341768 2.682483055215344 0.0
9.359398739738925 1.631421337140716 0.0
9.071793864444992 7.337030604117359 0.0
6.968394563521436 3.712808894519514 0.0
7.899236117684646 7.094583340182754 0.0
9.54362864504834 9.781852543872333 0.0
7.151298729743687 7.644795130415299 0.0
5.452218361466201 5.186873761308322 0.0
5.517642289161902 5.293540933999446 0.0
7.802500357665464 5.978295671754199 0.0
6.594850839687122 8.491429270558893 0.0
6.029132431949566 8.294997405201931 0.0
9.31286590869111 0.5672913838331921 0.0
9.25238720319541 0.4415953739444106 0.0
9.550589523211062 4.228044955453704 0.0
8.748611832783206 6.250900951984038 0.0
7.566980108995873 3.995148257893202 0.0
7.426142759241261 3.996743578498081 0.0
6.478912513785404 4.000296412419969 0.0
9.30435638148753 5.168210982711592 0.0
7.542154188520517 5.752525075248498 0.0
7.219033852073297 2.139582470800704 0.0
7.370913620388047 6.545121498197235 0.0
5.226731036024996 5.187572666585561 0.0
8.515591031124366 4.462223215179979 0.0
6.762864307079274 0.3078036604979366 0.0
8.587432696997471 4.977010533175154 0.0
8.703948448756302 8.815629076400704 0.0
8.081003990931544 7.370949680119862 0.0
7.424404567669909 6.949730915714445 0.0
8.578903262311433 8.377992954045473 0.0
7.301258690263783 6.106184350645308 0.0
5.991600556904204 3.99820087171043 0.0
8.203048538477193 1.601044215405025 0.0
7.289972483120081 4.572350254111052 0.0
7.714697186439165 5.420586967696794 0.0
8.918853780709807 1.841796898567452 0.0
9.919941345877513 4.749808449067644 0.0
7.245589454939737 5.94251251443003 0.0
9.258480524497795 3.358952871140391 0.0
3.705877615124628 5.574038727593425 0.0
8.287096858129765 7.962370605242409 0.0
6.799629860952143 3.705385600481528 0.0
4.146753450763018 6.544154457143895 0.0
7.413973555029582 5.545687501585183 0.0
8.466524978378082 4.980481756569235 0.0
7.336312153537934 2.337983522449311 0.0
7.695505222753409 3.747498713679684 0.0
4.898236813123799 4.795853653580084 0.0
4.59779105899602 1.896916774247134 0.0
8.560170375862322 7.072369101894893 0.0
8.386150468360862 2.449771437140704 0.0
8.41200018115259 5.084601315536367 0.0
5.102189912301071 7.621598618277815 0.0
8.336320418935243 6.71651223072348 0.0
5.081745734883095 3.977838926197614 0.0
7.63590698378166 0.9500570055008507 0.0
7.743369677149255 3.051233984704873 0.0
5.357527459690566 0.3809996753407537 0.0
5.967373112873382 0.7731113464301924 0.0
8.169449265206127 6.666271947462212 0.0
5.95122726745053 5.55758205410881 0.0
9.922289489207834 3.53923011719877 0.0
9.39154684476555 2.659037023454942 0.0
7.701415639167884 7.690060291860976 0.0
9.819179654793023 1.329863870021845 0.0
8.358229579054417 6.506108206863729 0.0
9.269720555169467 5.657096143475924 0.0
4.473187658045934 7.435037860084884 0.0
9.65807158077373 3.255496360750368 0.0
9.605155446454205 8.713645566904637 0.0
7.097383547728313 5.141197376985936 0.0
9.812212483832656 1.89920712759492 0.0
9.83875570675407 6.81603549325055 0.0
8.926246869879279 2.079976511571457 0.0
9.166785856141402 9.169070814302419 0.0
8.763479010228052 1.587152667342957 0.0
5.957377924852992 6.404530806530254 0.0
7.14506854375872 6.10342416684208 0.0
5.672595070581394 5.164323323112049 0.0
4.899782787268781 0.3801727265981219 0.0
4.447133848117348 4.673614099606824 0.0
7.044865074789195 3.253639989243549 0.0
9.818461337102992 7.819456450952447 0.0
9.925334577033155 7.954012377173311 0.0
6.352907898232792 1.173665225954276 0.0
7.351721385581032 5.660361289755705 0.0
9.337367583861807 2.76534436379692 0.0
8.693118347802024 4.360254099729149 0.0
9.476812970101324 0.3524826622168163 0.0
7.109868985890334 0.9024224571333925 0.0
7.899106846231403 5.511805431542581 0.0
8.352799544476607 5.187887629361129 0.0
6.957483547582747 0.6176251309213842 0.0
8.099559500483094 1.412323841044818 0.0
9.913030944540278 0.8542404645334569 0.0
9.143075088381442 8.022165366829135 0.0
8.819861450593166 6.356592599428041 0.0
9.319444417409162 1.49938505915629 0.0
6.490262520326714 7.118204362551877 0.0
6.490874470087819 6.582907761235813 0.0
9.82506653058937 0.6146757679104559 0.0
6.803129818897624 4.419048038171804 0.0
9.840901379354312 0.08198751964190581 0.0
9.839740374244226 9.918356239418472 0.0
8.551927134544655 9.449788917425456 0.0
9.92097857388158 3.249999999993177 0.0
5.797087413057367 7.077351493358238 0.0
9.255412859987286 6.433984412022419 0.0
8.668174522249984 1.740767926084485 0.0
9.920991430240607 6.25262219124529 0.0
7.57275248448898 1.94367954756322 0.0
8.052865444445507 8.19900054463639 0.0
8.748697149245206 4.25201068974208 0.0
9.158270227735827 0.5542256343091421 0.0
5.997487767477439 4.787924707603557 0.0
6.119759900601896 4.78043793682227 0.0
4.353034750397793 8.619182743639561 0.0
8.721093521611476 5.588932824583312 0.0
5.717101151444983 1.123034066822819 0.0
9.825602081347064 8.68753399402474 0.0
8.005502510832988 8.7824052910506 0.0
5.548184234622668 6.408009287230429 0.0
5.77830300433981 6.598697187164234 0.0
9.613093825495433 4.50282172481406 0.0
9.928981132641653 9.74928475696928 0.0
6.613628176297015 4.515513362596662 0.0
1.822126723816303 1.297795131355289 0.0
9.514164594137375 1.43081427463862 0.0
4.735494753432723 3.698541604583975 0.0
9.52844959749262 8.615213629960298 0.0
4.660704511759056 0.7947595073298008 0.0
6.82340845160293 5.239926830264399 0.0
7.885938077030673 7.380147032865134 0.0
7.884599891021201 6.09005968568029 0.0
8.846834820720167 9.653276456345532 0.0
8.457777199486827 0.3851010632068662 0.0
6.66485224572131 8.771510767670392 0.0
9.091499342133352 9.708315832477556 0.0
9.824286725109655 4.976315293637262 0.0
7.848197684391786 5.632217046637356 0.0
3.88430598115417 4.225391362015386 0.0
8.776890759183289 2.809688928468134 0.0
7.393884285023409 3.59397875231041 0.0
6.927568893329758 4.396788356869783 0.0
4.96854327720728 2.662368428358774 0.0
9.1480130720193 3.951479613991279 0.0
7.071049729490975 2.38092990636632 0.0
3.40193058782919 1.686321186206593 0.0
7.612042194200681 4.815904436723407 0.0
9.043395868401339 6.888481825015849 0.0
9.098933057562759 8.152197681006806 0.0
6.058682303253315 3.857501492181965 0.0
3.707092669281355 2.986685502034343 0.0
5.113272509841263 5.189455016444592 0.0
6.960565857079232 3.416349532571279 0.0
8.755151527375476 7.649255597361291 0.0
3.393680865444538 3.679982303262531 0.0
3.117424600120088 3.35605258976247 0.0
8.530814041264104 5.488376426140491 0.0
4.820719767306654 5.106646490188182 0.0
9.918899263509473 4.144927088739744 0.0
9.918194630017027 7.447268230913605 0.0
8.461970084137805 3.144844565847669 0.0
9.924415919486059 6.949999999995354 0.0
7.184050152099684 2.72771667662237 0.0
8.834356715215904 7.801565642745232 0.0
8.689015446783005 4.145232831954543 0.0
8.490778532265319 8.234414357968106 0.0
8.63666290918932 2.83060276219705 0.0
4.61028976098935 4.741894230894578 0.0
6.314735925012879 4.003132559161639 0.0
9.20786580425652 4.67001723737971 0.0
7.141401229301469 4.873205425098625 0.0
6.235177809922153 4.774126344778935 0.0
9.12491895896937 3.145675090615719 0.0
9.255747684068178 3.162525801823036 0.0
8.312852272796098 2.290855459722148 0.0
1.449266720542303 3.363629101350872 0.0
9.525687840398492 4.800807314407045 0.0
4.829905263804087 8.14474456977717 0.0
9.09338914689732 7.563794106183232 0.0
5.389401689694107 5.283808684471545 0.0
8.530979415204587 3.029374286908943 0.0
7.901489077080633 6.535344047486632 0.0
9.218572924671975 5.760893551533255 0.0
8.562382833959296 4.143913974026883 0.0
8.62959127904665 8.974877485888243 0.0
9.408442441596518 9.62276529745719 0.0
7.5034765601713 3.869833107932387 0.0
9.842813436634783 6.600620949014236 0.0
9.826116984327193 8.911617279149695 0.0
7.529907780698261 0.7369111006685982 0.0
7.832164962480427 2.905293639437395 0.0
8.39517908433056 3.267417602291069 0.0
9.823014010107707 9.085319632577246 0.0
9.022314123618541 3.944559746338292 0.0
4.243701230676532 5.332574856090426 0.0
9.816740542566388 1.127839952679595 0.0
8.166775715766304 5.693916696568397 0.0
8.865374421689054 8.068986769641638 0.0
8.761145809863661 6.470583506581853 0.0
8.998345275919851 9.209303502026401 0.0
9.698477487436316 6.706902829754045 0.0
6.439032098063426 0.3109134377713525 0.0
7.562681994382136 4.643158005207056 0.0
9.03999088074715 0.2799354672273258 0.0
5.180741540467516 3.805018725608906 0.0
6.243990330956698 2.718077286244967 0.0
9.79416634023361 0.1815240178579244 0.0
9.926540005061975 2.847049370876555 0.0
9.826476210374608 2.670192168078066 0.0
6.365816673179121 4.536333049275508 0.0
5.546353765219417 4.618331215552614 0.0
9.820703096450293 2.000649418331399 0.0
6.884388790679166 3.561583980715254 0.0
7.431303395649604 5.747824222777201 0.0
8.849816832721245 2.19318290395604 0.0
4.185147517585975 5.697469360586313 0.0
9.165905238119013 5.873664931582344 0.0
7.70479478158537 1.788324620089049 0.0
9.627376046933474 0.9196091445437269 0.0
6.657687963328663 5.144792385996769 0.0
9.83245016645186 0.3925568446109945 0.0
7.483092985762584 9.253837199159435 0.0
5.445348362202234 3.977855663863651 0.0
7.476680532833337 4.837183287808616 0.0
9.572749890969304 8.505160319814301 0.0
9.915853314998252 9.437014513917465 0.0
7.679469018350979 7.390484878021194 0.0
9.418139053434402 4.790576000488359 0.0
8.096967733471567 5.865447162201908 0.0
9.829153508938724 8.378494945652118 0.0
9.926595955569645 5.157718300415699 0.0
8.774484245600224 7.939747459426853 0.0
8.629764448155779 6.481031318922794 0.0
8.961169458302376 3.839036702328818 0.0
4.617199205561317 5.256318959792646 0.0
8.480815774219478 4.031210317621497 0.0
9.708341592512763 3.401018043990571 0.0
7.183974816647467 4.77882314543966 0.0
9.821437962294304 7.659391965474772 0.0
8.150320284869602 2.286501016204562 0.0
9.828114434347311 1.684891358832554 0.0
5.349187766238684 6.538177907133678 0.0
8.076053471314525 2.76180604769483 0.0
4.907713691134565 5.29818629967416 0.0
0.6874399366049438 4.328593906714074 0.0
0.6980011780697519 5.702671170050627 0.0
8.263861466707834 8.182284285231713 0.0
5.838783785156478 4.913981390426639 0.0
7.807619472656604 7.235706382002089 0.0
9.388504256318683 6.022122644748753 0.0
9.929839894767033 6.436189192303577 0.0
8.3205848711706 3.39107920408397 0.0
3.240770542267401 4.019899919523968 0.0
8.059047070496568 2.468855909103855 0.0
9.932479519490421 2.449625056415224 0.0
7.737639000139152 4.580708137963557 0.0
8.26141077223695 0.3940397126348397 0.0
9.69568953371801 1.959951226402445 0.0
6.469120930453264 4.892267070266994 0.0
9.167223997255698 0.8102256463122337 0.0
6.236889648241256 0.9291076084031108 0.0
8.306379082772498 5.268830342852036 0.0
6.716089118890225 5.239344620507032 0.0
9.82511981852641 9.282822358664017 0.0
6.68375719572285 4.404998642130821 0.0
8.913754712375674 6.908138360584365 0.0
6.173250048857013 5.251634416326969 0.0
4.235907497612446 1.924052997345291 0.0
5.151007663981651 2.438629730660893 0.0
8.924254300637541 9.3764975797567 0.0
4.438612423541503 5.287968640901957 0.0
8.571203234299599 1.897009944569934 0.0
6.878800676380218 5.821332862798138 0.0
5.710626178601224 4.792560699857408 0.0
7.149510071621283 5.216310009157644 0.0
2.099966541549645 2.334742113488256 0.0
9.93396330620579 5.350566393301629 0.0
7.143046479323961 8.646955109387985 0.0
7.965747313080266 5.193641450105844 0.0
6.3314394693073 5.135050228240639 0.0
7.665821333021348 6.222698255001823 0.0
6.305321657053551 4.659816230868476 0.0
7.833020917089713 5.208837056143474 0.0
9.41455902676429 2.869725681199307 0.0
8.567151507735133 6.598605357295113 0.0
7.405527786978573 4.377085529441429 0.0
6.552969697053132 5.137148974085434 0.0
9.93630620742063 8.042778076596578 0.0
7.166743296019233 4.593171678848165 0.0
6.595561806063966 5.839366735225723 0.0
6.066152182102007 5.262519562574559 0.0
9.834694151277489 0.9093455747994099 0.0
8.98259191950674 7.579732466796592 0.0
6.465071238839505 5.25485771955322 0.0
9.759759896588413 3.236659507608532 0.0
4.775529448101694 5.224235675150505 0.0
9.935991245222917 7.153416415978829 0.0
0.6530736820718381 9.352299998916202 0.0
0.6449439415299687 0.6468300344151556 0.0
7.804690364869245 4.495816547678174 0.0
9.84503784553893 5.70620404704573 0.0
9.83525329400959 3.826992990746767 0.0
9.922964894244684 4.265000406933376 0.0
8.333767638401964 1.121219971446645 0.0
8.876012546033895 7.019147158538482 0.0
8.172413577824324 3.413096916572049 0.0
7.232233017296214 4.478957103028363 0.0
6.214597295185415 3.852860083673202 0.0
9.85013791746415 4.400709747289421 0.0
3.941627380932058 6.342995010255737 0.0
3.097271569675528 8.77391871286929 0.0
9.292917152323044 6.010976049411984 0.0
8.104342196673183 5.184165973282902 0.0
8.994300084006271 3.652611812846807 0.0
9.937157897030163 5.549999999993244 0.0
8.721368888525245 7.274540720770752 0.0
8.920003648712827 0.9516585309368178 0.0
7.910527456030004 8.536826514867816 0.0
9.846441288756814 4.60515911863952 0.0
9.584942233925151 4.712073182517884 0.0
9.642357858573972 6.805672051759494 0.0
9.797024725252207 9.838837222258014 0.0
9.842451438022124 4.018973836958878 0.0
6.112723137676118 3.704473949316424 0.0
7.574641969193845 3.765362276156904 0.0
7.826594968121701 6.200366572362263 0.0
7.762805366733504 9.34009502796868 0.0
9.56854033867856 1.012566255816665 0.0
7.71256563655353 5.219373702836014 0.0
9.68039392238282 8.786964504862018 0.0
5.910362452777086 9.277662068919813 0.0
7.418090653922814 3.326443419100716 0.0
9.857704179097952 4.697553149694669 0.0
8.452469674653342 8.996585816905599 0.0
9.522351366699843 2.057525484575908 0.0
7.802315574700843 9.548878971475935 0.0
9.938875656926385 3.449999999992592 0.0
8.425189037911712 6.608575180629274 0.0
5.925965231566842 2.523669697740033 0.0
6.654918072256329 5.95749128982984 0.0
9.826748589235729 9.631118448471485 0.0
8.6684585637523 7.39633999085442 0.0
9.844673843931567 3.090088625379724 0.0
9.93613850661301 2.250382721159617 0.0
9.218291993658738 2.892108990205171 0.0
9.83502846611296 8.212781989607324 0.0
7.754136409732265 7.104288507262783 0.0
8.510570542791681 2.036933285735889 0.0
7.757745059307245 4.315798612475442 0.0
7.989231770559189 6.201656630465583 0.0
8.068934521422738 4.198631572122605 0.0
4.957478134450373 9.038766150325067 0.0
7.208661142641733 6.501402463831379 0.0
7.299506095906239 4.363561999234681 0.0
8.250303873550486 2.105322217421675 0.0
8.678637541413377 7.053471135702286 0.0
9.761528395137384 6.163503990672834 0.0
9.84494857233395 8.59999999999775 0.0
9.83825138794677 3.672838954969637 0.0
5.121008544047756 5.808127183024784 0.0
8.343911550360986 4.043535893276861 0.0
9.85324441775315 5.899999999993774 0.0
9.51114465213134 8.41035540646284 0.0
6.505812179224195 6.93390566262983 0.0
6.15572847138365 9.023097246950844 0.0
3.352081892333425 3.024853379890529 0.0
6.433163283162099 8.675072413910678 0.0
8.825744236698243 3.624446391299867 0.0
4.883007294861279 7.819620905924936 0.0
5.876659170760434 5.638247433601083 0.0
6.859400040348503 6.510797998354633 0.0
7.946400945409184 3.500317276373196 0.0
7.496830255505493 6.653194511698024 0.0
9.852183479755313 4.891525833556942 0.0
9.77998778436291 2.922486526124376 0.0
6.774672660492365 5.324728659740495 0.0
5.717254072187427 6.824125962512845 0.0
9.713440940838062 4.63793103997539 0.0
8.859858662536796 0.2721395536350836 0.0
8.37556017530946 9.436653414116012 0.0
7.395237381047616 7.885576562773319 0.0
5.4709157802033 4.511152089197594 0.0
9.489749416979361 9.691840729914848 0.0
4.599216022837964 3.46438688931078 0.0
5.572287492757569 4.807021644849729 0.0
9.926499336309957 9.92730688390086 0.0
9.926499336310107 0.07269311609890093 0.0
9.338127766332573 0.3585313952168247 0.0
6.810761948165162 3.414693294319008 0.0
8.166274345037138 5.943611545564389 0.0
5.2892644736731 6.301081312912763 0.0
9.731911074791544 7.649313380659622 0.0
8.90251102352767 9.50983415326544 0.0
8.997881406541017 1.033666784655452 0.0
5.835124768755703 2.738139962594905 0.0
9.665357480775825 6.185331297099201 0.0
7.656532192558493 8.217157287499347 0.0
9.170463887605525 2.975444721032631 0.0
4.208158615905443 0.8648302238584886 0.0
6.97015686031129 5.933674629077266 0.0
6.181941366523793 3.565885175921835 0.0
3.30313590337911 6.393402837735046 0.0
6.447482061767014 4.816169316820496 0.0
8.185341428749446 4.169172087371246 0.0
4.552595724340015 8.298301336212145 0.0
9.84850676569699 8.999999999998423 0.0
9.846941514449377 7.393642828194986 0.0
7.924592433490734 2.788309934035703 0.0
8.154308714226714 8.853640122009672 0.0
8.876629743004642 1.96110242719995 0.0
7.228849192966834 8.90811350348676 0.0
9.852301635085423 8.296637825215246 0.0
5.219795195341889 5.547413133147649 0.0
9.861497117995457 6.901363010201344 0.0
2.953911258021604 6.136007283255669 0.0
6.93158841067062 4.77708273647784 0.0
9.67540418457871 2.912802891506324 0.0
4.194055958522277 4.437353127730132 0.0
6.133959559341536 0.406856611599261 0.0
8.29952795189331 9.309744645643846 0.0
9.843692337952948 1.209647690818311 0.0
5.164986286280336 6.671544079402435 0.0
9.838533350075606 2.081705440779448 0.0
8.301244777513975 6.604088853319459 0.0
5.471494771710784 2.714598185146428 0.0
8.86534684892311 1.208599471795828 0.0
9.940610684232212 1.451558535868664 0.0
9.40896208432968 1.428353940655538 0.0
2.329177605337097 4.238803555614174 0.0
5.980761651517799 7.182207186682233 0.0
9.66541573964336 0.1719254072074424 0.0
7.220979380229172 7.806128737674462 0.0
1.251721227904697 6.151932667911503 0.0
8.104967286191181 6.057912607875576 0.0
6.650768762224724 4.817922869198292 0.0
6.634976350437587 3.213339182992986 0.0
7.034320437500567 4.898219100342838 0.0
9.502772020064167 6.283064492634301 0.0
8.13187938667684 3.518506862055515 0.0
9.855471943454193 2.599999999994991 0.0
9.056747742708522 8.263936599935574 0.0
4.352645795441222 5.724453640019 0.0
3.744263984699181 1.488951698361357 0.0
5.175860134287045 3.6375726667098 0.0
7.736434712114619 6.400417475661193 0.0
9.857658576695343 6.316607183405179 0.0
7.876525261950537 4.304285002335559 0.0
9.856114384785611 7.914602773442983 0.0
9.848334119947063 0.7059644476295188 0.0
9.59694321995579 6.895814046141667 0.0
5.906465212962551 3.869023950643881 0.0
9.840676994268005 9.364956386459765 0.0
5.355015287544095 3.83518170601625 0.0
6.374090407153147 5.855743754257685 0.0
8.227401290513832 5.297819733684674 0.0
5.451235131977493 4.825706629991923 0.0
6.022070213762754 5.355923882747634 0.0
9.845674433677614 6.108401449483281 0.0
9.835067400944396 7.739582406783081 0.0
8.602026805792988 2.941372356914139 0.0
5.059869081004962 5.269480960018243 0.0
5.284714507903736 5.26496663762182 0.0
9.627110479149561 7.660076105040499 0.0
6.820001127809743 4.792514421153957 0.0
5.120512795059439 4.806607659110254 0.0
9.56933817216883 2.911464407429096 0.0
9.74091654291531 9.267545397628387 0.0
9.93006767325302 6.576784040838644 0.0
9.642486276936268 4.650227701598451 0.0
5.185183328569137 9.410919109238325 0.0
9.37052946854105 4.605636695802024 0.0
1.677077220416309 5.871167715901136 0.0
7.345783833404538 3.184020711886284 0.0
5.419239942654976 5.982692039856376 0.0
6.133318300188262 2.551919945731369 0.0
6.187291396343277 4.499077117404439 0.0
1.231465237822878 3.921479198315213 0.0
8.969849937139944 9.699215363213542 0.0
9.218303154263054 6.037447959776716 0.0
CELLS 4886 19544
3 1113 1356 1450
3 1402 231 1659
3 272 269 1414
3 396 394 1777
3 1451 945 1452
3 194 81 1801
3 1847 1501 2104
3 2024 2121 2479
3 1115 1113 1450
3 1124 1413 1844
3 1061 1955 2409
3 307 305 1645
3 1592 1369 1593
3 238 1501 1847
3 1955 1883 2409
3 1808 243 1910
3 1885 978 2362
3 1440 793 2092
3 189 1488 1608
3 353 350 1864
3 2007 2231 2232
3 307 1645 2493
3 1096 1760 2496
3 2178 874 2179
3 621 625 1595
3 1493 1480 1938
3 1655 1268 2137
3 1341 1410 2212
3 243 1808 2360
3 1902 1446 2516
3 1760 1096 1763
3 856 790 2180
3 2008 2046 2105
3 789 1809 2067
3 694 1543 1575
3 1127 1762 1953
3 1748 807 2228
3 1543 1308 1575
3 820 1872 2170
3 1417 954 1998
3 1369 1592 2386
3 272 1414 1787
3 329 333 1998
3 1544 1095 1545
3 2231 1490 2232
3 1342 1683 1790
3 374 377 1797
3 807 1678 2228
3 1665 198 2128
3 141 142 1620
3 325 322 1952
3 231 1402 1654
3 198 1665 2010
3 1890 1307 2387
3 208 1438 1619
3 2016 1970 2156
3 1436 212 2020
3 954 1417 2333
3 1736 1894 2244
3 1491 1750 2143
3 1677 1064 2146
3 1474 1258 1475
3 1500 233 1930
3 1446 2415 2516
3 1700 973 1800
3 2128 2270 2316
3 1316 1315 1593
3 1307 2341 2387
3 2258 1324 2328
3 1083 1507 1508
3 693 1095 1544
3 621 1595 1596
3 667 1571 1872
3 1932 1766 2061
3 393 391 2240
3 1342 1790 2400
3 252 1707 2234
3 931 978 1885
3 1430 1116 1704
3 1411 1109 1714
3 1478 1227 2440
3 1990 195 2297
3 1792 1167 1985
3 1682 444 1975
3 394 397 1777
3 1711 2028 2162
3 1574 856 2180
3 2008 1851 2046
3 736 1493 1938
3 1069 1060 1662
3 1458 455 1754
3 862 691 1705
3 1161 1642 2286
3 1699 1700 1800
3 447 516 1637
3 955 1482 1483
3 2024 206 2121
3 391 1773 2240
3 1072 1412 1893
3 212 1436 2350
3 1566 1365 1568
3 259 1441 1672
3 872 870 1764
3 330 328 1889
3 1539 1161 2286
3 1897 1898 2275
3 1434 1990 2297
3 1109 1411 1730
3 319 307 2493
3 1762 1761 1953
3 1369 1316 1593
3 1540 834 1832
3 1505 652 2442
3 1732 1655 2137
3 921 1712 2295
3 1872 1388 2170
3 1712 921 2125
3 2028 244 2162
3 1506 1570 1680
3 1569 368 1964
3 1571 667 2375
3 1587 2178 2179
3 196 1723 1737
3 524 2016 2156
3 1528 1250 1733
3 1115 1450 1973
3 1938 1480 1971
3 1809 1396 2067
3 1641 249 2299
3 1223 1258 1474
3 1365 1566 2120
3 1981 962 2316
3 1538 353 1864
3 455 1458 1756
3 152 233 1500
3 1116 1430 1703
3 817 652 1505
3 1347 2003 2004
3 1607 1958 2085
3 194 1801 2195
3 1410 1341 2351
3 223 1415 1710
3 197 1511 2346
3 2198 787 2225
3 81 82 1801
3 1438 208 1620
3 1444 522 1823
3 1511 197 1950
3 726 718 1567
3 1637 516 1739
3 1708 2337 2341
3 1280 1649 2124
3 2337 1395 2341
3 1327 1709 2315
3 1225 1227 1478
3 691 624 1705
3 476 2224 2305
3 830 832 2204
3 1750 1491 2403
3 1366 1897 2275
3 2345 1583 2352
3 2054 405 2110
3 1984 2172 2230
3 1846 2198 2225
3 1177 2042 2418
3 2121 1367 2479
3 1527 1531 1541
3 916 1039 1834
3 1413 1124 2467
3 1622 1503 1868
3 249 1641 2019
3 1805 405 2054
3 1761 1007 1953
3 1415 223 2395
3 960 1756 2203
3 368 1569 2135
3 1402 1659 2473
3 941 1433 2471
3 1267 1477 1501
3 260 2002 2265
3 1704 558 2077
3 2224 1886 2305
3 2053 1386 2199
3 1452 945 1952
3 1717 1611 1718
3 1682 1975 2230
3 1760 1762 2496
3 1481 203 2104
3 1264 1266 1670
3 142 236 1620
3 2133 1182 2179
3 1791 1602 2183
3 350 346 1864
3 1412 1072 2393
3 1281 1575 2255
3 1565 1948 2155
3 849 1449 1513
3 1958 396 2085
3 1339 1069 1662
3 834 1540 1917
3 269 267 1414
3 1268 1267 1501
3 1440 2092 2468
3 1399 1981 2316
3 1635 1636 2041
3 1454 252 2234
3 1451 1305 1890
3 1375 1883 1955
3 362 366 1786
3 1484 2410 2528
3 1449 849 1640
3 1267 1474 1477
3 200 1611 1717
3 1054 1581 1582
3 1350 1977 2253
3 190 1390 2118
3 788 1956 2193
3 1709 1327 1888
3 2233 2298 2413
3 1488 189 2355
3 478 1685 1714
3 230 1525 1690
3 1687 478 1688
3 427 429 1756
3 1570 1065 2476
3 1880 1133 1988
3 1649 656 2124
3 1537 209 1614
3 1134 1769 1986
3 1220 1268 1655
3 396 1777 2085
3 1167 1755 1985
3 2229 1744 2296
3 1575 1281 2287
3 127 240 1882
3 377 647 1797
3 954 329 1998
3 220 1697 1698
3 1342 1341 2212
3 1441 264 1672
3 1512 188 2433
3 763 2345 2352
3 1685 1411 1714
3 1805 1188 1951
3 1347 2004 2157
3 1054 1582 1667
3 1333 1617 1674
3 2217 73 2361
3 1539 1036 1917
3 1039 1292 1834
3 208 141 1620
3 1965 1964 2038
3 693 1544 1969
3 1453 239 2279
3 203 1481 2049
3 945 1451 1889
3 680 1459 2134
3 354 2147 2196
3 1405 1932 2061
3 1723 1722 1737
3 1748 1175 1927
3 1532 1528 1733
3 2057 1824 2154
3 1406 1659 1702
3 1948 1186 2155
3 210 1598 2114
3 1685 478 1687
3 1324 1325 2328
3 1526 1250 1527
3 165 166 1509
3 1493 736 2523
3 1526 1527 1541
3 1390 190 2417
3 522 1444 1998
3 1680 1570 1732
3 1017 1442 2525
3 374 1797 2430
3 1507 1083 2197
3 1756 960 2221
3 2270 1400 2316
3 2205 1452 2282
3 1074 1187 1888
3 2158 1245 2200
3 1442 1017 1684
3 864 1116 1703
3 1750 1751 2143
3 1456 516 1492
3 1677 2146 2149
3 2022 1339 2388
3 1602 258 2183
3 678 1594 1595
3 1245 1670 2200
3 972 830 2204
3 2143 983 2342
3 1268 1501 2226
3 1266 1461 1670
3 1487 222 2465
3 1382 2022 2388
3 58 59 1661
3 2147 1543 2196
3 1484 1485 2410
3 628 2053 2199
3 1906 1549 2259
3 364 362 1786
3 1339 2022 2247
3 1636 525 2041
3 625 678 1595
3 678 1593 1594
3 2212 1410 2222
3 1837 1865 2215
3 1699 1800 1801
3 866 864 1703
3 893 1472 1982
3 1735 1736 2244
3 1633 1255 1922
3 126 127 1882
3 681 867 1656
3 1351 1401 2363
3 11 228 1588
3 1127 1953 2454
3 265 266 267
3 1722 1122 1737
3 1389 1691 2069
3 1613 1610 1616
3 1227 1256 2440
3 429 455 1756
3 1535 1177 2418
3 322 324 1952
3 973 1700 1802
3 1964 368 2038
3 1176 1865 1866
3 1096 872 1764
3 1176 1866 1875
3 193 1839 1892
3 156 157 1441
3 615 617 1596
3 686 1520 2480
3 1409 2097 2305
3 2410 1151 2528
3 1427 2217 2361
3 440 1911 2314
3 1744 1743 2296
3 516 1456 1739
3 1939 589 2164
3 690 931 2150
3 1062 1579 1580
3 1054 1580 1581
3 955 1483 1716
3 1064 1677 2248
3 1956 1616 2193
3 1776 1893 2026
3 1398 1115 1973
3 2002 1453 2265
3 1541 1531 1542
3 216 2191 2536
3 1736 1326 1894
3 1065 994 1066
3 1598 2115 2175
3 2314 1911 2358
3 1433 941 2042
3 2115 1209 2175
3 717 1550 1551
3 188 1941 2433
3 267 1132 1414
3 771 1569 2064
3 1157 1545 1546
3 1231 1250 1526
3 1933 240 2181
3 222 1487 2025
3 1525 230 1765
3 1430 1704 2077
3 757 1744 2495
3 264 263 265
3 883 773 1917
3 739 2205 2282
3 1667 1582 2434
3 1744 757 2474
3 239 1453 2002
3 1441 259 2356
3 2005 1443 2012
3 254 1766 1932
3 1509 166 1679
3 1477 1475 1481
3 793 1440 2165
3 1385 1523 2377
3 1481 1475 2523
3 156 1441 2356
3 1066 1220 1655
3 945 325 1952
3 2094 2087 2134
3 1747 1175 1748
3 253 262 263
3 1327 1074 1888
3 718 715 1567
3 2046 1043 2105
3 240 1933 2399
3 1305 1307 1890
3 224 58 1661
3 1195 1566 2285
3 1590 1393 1749
3 1255 1230 1922
3 353 1538 2073
3 358 1999 2325
3 882 1802 2036
3 1024 1020 1604
3 333 522 1998
3 1401 1351 2414
3 1475 1258 1476
3 2310 786 2364
3 328 945 1889
3 807 1748 1927
3 825 724 1912
3 1742 263 2491
3 267 266 1132
3 2077 2102 2203
3 1431 1432 1860
3 1212 1957 2312
3 2097 476 2305
3 1132 1402 2473
3 717 713 1550
3 1746 693 1969
3 1372 1124 1844
3 1256 1541 2269
3 1977 1350 2274
3 2332 1978 2443
3 874 2133 2179
3 1983 1534 2171
3 1157 1544 1545
3 1230 1228 1922
3 1580 1579 1581
3 1565 806 1948
3 1416 1363 2413
3 1287 1995 2398
3 265 263 266
3 1534 1529 2171
3 1604 1834 2428
3 1255 1633 2509
3 1344 1643 1644
3 1332 1388 1571
3 1423 217 2217
3 2191 1057 2451
3 458 447 1637
3 1250 1233 1733
3 472 2212 2222
3 1175 1747 1840
3 1652 256 1653
3 1073 1347 1572
3 200 145 1609
3 683 640 1585
3 1116 862 1705
3 1221 1223 1474
3 1778 801 1803
3 1503 1622 2471
3 1475 1493 2523
3 464 680 2134
3 14 210 2114
3 579 1880 1988
3 1434 1435 1990
3 1447 2310 2364
3 275 274 276
3 2294 1871 2419
3 814 1068 1684
3 1172 1439 2273
3 273 272 274
3 1363 1416 2406
3 1220 1219 1221
3 1060 1656 1662
3 1099 1792 1985
3 2048 1198 2168
3 1241 1245 2323
3 699 723 1753
3 1640 1862 2070
3 910 1018 1584
3 1586 1067 1587
3 1656 867 1662
3 1067 686 2480
3 654 2242 2294
3 1593 1315 1594
3 1880 553 1974
3 236 1717 1718
3 617 621 1596
3 1723 196 2313
3 402 1877 2116
3 273 274 275
3 2202 1869 2252
3 1510 1358 1767
3 193 1892 2373
3 1188 1805 2054
3 1220 1221 1267
3 1066 1218 1219
3 1517 1097 1518
3 1677 1676 1858
3 686 277 1520
3 268 267 269
3 697 857 1592
3 220 1698 1699
3 1802 1700 2036
3 1612 1537 1614
3 929 817 994
3 228 12 2136
3 2110 2116 2482
3 1659 1658 1702
3 1611 1613 2280
3 1344 991 1643
3 683 1585 1604
3 1638 1358 2404
3 1485 1034 2410
3 2214 833 2424
3 271 272 273
3 1482 955 1962
3 1066 1219 1220
3 931 1885 2150
3 1613 1891 2280
3 1189 1589 2204
3 1566 1195 2120
3 726 1567 2490
3 1122 1722 1874
3 1494 319 2493
3 1671 259 1672
3 1267 1221 1474
3 603 528 1591
3 1664 2128 2316
3 1817 1924 2174
3 1626 1660 2111
3 1474 1475 1477
3 1023 1062 1580
3 1957 1599 2312
3 1764 1939 2164
3 1358 1950 2404
3 200 1609 1610
3 1431 1082 1432
3 1778 1803 2521
3 1830 1832 2075
3 1930 233 2369
3 1329 1482 1650
3 757 1959 2522
3 1239 1247 1597
3 758 1978 2332
3 1569 1290 2064
3 216 1694 2191
3 1453 1420 2265
3 1549 1906 2129
3 24 215 1674
3 19 235 1676
3 1621 1057 2191
3 1691 1389 2262
3 1617 1333 2192
3 929 994 1065
3 1769 1672 1986
3 1893 1412 2026
3 1609 1537 1612
3 271 269 272
3 1373 1438 1620
3 217 1423 2381
3 517 330 1889
3 1322 1055 1667
3 1974 553 2499
3 228 2136 2187
3 1589 1189 1788
3 1999 1577 2325
3 2110 405 2116
3 189 1608 1842
3 1055 1050 1667
3 739 1455 2205
3 1865 1176 2215
3 319 1494 2522
3 2474 757 2522
3 1484 227 1485
3 10 11 1588
3 723 809 1753
3 27 230 1689
3 1550 806 1565
3 1179 1180 1217
3 207 1617 2192
3 1433 1217 1502
3 1562 1556 1606
3 1379 2017 2018
3 1245 2158 2323
3 675 1097 1517
3 884 501 1599
3 1020 683 1604
3 1603 1095 1848
3 1001 2057 2154
3 1604 1585 1834
3 1610 1612 1616
3 1764 870 1939
3 2242 1871 2294
3 1669 1264 1670
3 1658 213 1702
3 1995 1646 2398
3 631 539 1600
3 1491 2143 2342
3 1801 1800 2195
3 1200 1199 1693
3 1535 940 1861
3 1534 758 2332
3 914 2258 2328
3 1588 228 2457
3 216 138 1694
3 151 152 1500
3 1133 1880 1974
3 1677 1858 2248
3 1294 1622 1868
3 875 1010 1767
3 1379 2018 2416
3 1279 2202 2252
3 182 256 1652
3 1592 857 2386
3 672 681 1656
3 615 1596 1824
3 1093 1487 1623
3 1823 522 2100
3 1245 1242 1669
3 1582 1581 1583
3 758 1534 2306
3 1975 1984 2230
3 1358 1510 1950
3 1663 1336 1665
3 2102 960 2203
3 366 1087 1786
3 1740 1490 2231
3 21 207 1709
3 145 146 1609
3 2339 765 2384
3 603 1591 1668
3 2081 199 2149
3 1540 1832 1879
3 1721 1723 1947
3 1754 455 1793
3 1751 1753 2119
3 882 1701 1807
3 1540 1539 1917
3 242 1695 1697
3 1521 354 2091
3 1363 2233 2413
3 1584 1018 1925
3 703 1067 1586
3 1177 1178 1179
3 795 916 1834
3 277 276 607
3 1571 1388 1872
3 22 23 1617
3 1097 823 1177
3 25 26 1624
3 419 418 1790
3 1728 1906 2259
3 440 1455 2261
3 1877 1318 2116
3 1488 1156 1608
3 1439 2130 2273
3 1889 1451 1890
3 1614 209 2389
3 1472 893 2094
3 675 821 823
3 23 24 1674
3 1788 1190 2183
3 917 941 1622
3 1763 1096 1764
3 1068 1442 1684
3 1034 1485 2173
3 2172 1533 2230
3 138 139 1694
3 1065 1570 2197
3 607 674 675
3 1536 1248 2268
3 229 135 1734
3 1437 1925 1926
3 680 510 1646
3 147 209 1537
3 26 27 1689
3 1627 705 2163
3 206 1651 2121
3 2409 1785 2462
3 1492 682 2447
3 1223 1225 1258
3 889 1772 2374
3 253 263 264
3 275 276 277
3 1455 739 2261
3 2022 1382 2176
3 150 227 1484
3 639 1019 1591
3 1449 1640 2070
3 1082 833 2214
3 1503 1502 1504
3 144 200 1717
3 1643 991 1713
3 1190 1791 2183
3 1538 1804 2073
3 1256 2269 2440
3 18 19 1676
3 521 531 2000
3 790 849 2180
3 1075 1329 1650
3 1087 1782 1785
3 1066 994 1218
3 270 269 271
3 682 1492 2494
3 185 252 1454
3 253 158 262
3 1629 1632 1633
3 200 1610 1611
3 1477 1481 2104
3 1623 1487 2465
3 1518 1097 1535
3 1414 1132 2460
3 1179 1217 1433
3 177 1506 1680
3 1392 1017 2525
3 1832 834 2075
3 675 823 1097
3 1459 2094 2134
3 1782 1087 1795
3 1838 1730 2372
3 1639 149 2528
3 1617 23 1674
3 2265 1420 2489
3 180 232 1859
3 1527 1250 1528
3 20 21 1709
3 1083 1508 2311
3 903 866 1703
3 1455 440 2314
3 1187 1858 1888
3 1659 1406 2473
3 1446 1902 2166
3 421 1951 2106
3 1598 210 2115
3 154 259 1671
3 1288 1835 2080
3 1832 1831 1879
3 1258 1225 1478
3 1024 1604 2117
3 1263 1429 1739
3 706 705 1627
3 1583 1581 2352
3 407 1805 1951
3 856 1574 2527
3 1701 882 2036
3 1624 26 1689
3 717 1551 1552
3 1385 2377 2391
3 2302 1745 2354
3 1572 1347 2157
3 1036 883 1917
3 1689 1690 1691
3 1664 1665 2128
3 1476 1479 1480
3 1751 2119 2143
3 815 814 1684
3 1790 889 2400
3 1606 1607 2085
3 265 267 268
3 418 889 1790
3 1522 1521 2091
3 135 136 1734
3 1726 1445 1729
3 647 1796 1797
3 1346 1453 2279
3 1293 1827 2117
3 1242 1244 1669
3 1853 1852 1854
3 889 2374 2400
3 1039 1038 1290
3 1524 628 2199
3 1331 1332 1571
3 1291 1290 1569
3 1475 1476 1493
3 1850 1852 1853
3 1490 1740 2456
3 1689 230 1690
3 1256 1526 1541
3 1704 1705 2167
3 1465 1470 1675
3 956 1073 1572
3 1613 1616 1956
3 916 917 1038
3 2014 1522 2091
3 1221 1222 1223
3 1999 763 2352
3 234 10 1588
3 1697 220 2335
3 1527 1528 1529
3 2298 1600 2413
3 1436 2020 2254
3 1642 1161 1678
3 1523 1385 2436
3 1730 1838 2426
3 795 796 916
3 713 711 1550
3 1456 1263 1739
3 999 1336 1663
3 1785 1784 2462
3 409 415 1783
3 607 675 1517
3 1229 1231 1526
3 1958 1855 2078
3 1589 1588 1590
3 1933 261 2380
3 762 1965 2038
3 1756 1458 2203
3 1776 597 1893
3 1794 1072 1893
3 188 1512 2266
3 1774 2339 2384
3 188 1908 1941
3 1010 1510 1767
3 2189 2285 2307
3 773 834 1917
3 1245 1669 1670
3 1248 1597 2268
3 146 1537 1609
3 818 910 1584
3 1641 1313 1651
3 1217 1745 2302
3 1065 1066 1655
3 1597 1247 2047
3 1360 2177 2376
3 1612 1615 1616
3 2126 867 2186
3 1019 683 1020
3 1747 892 1840
3 1092 1093 1623
3 261 1933 2181
3 400 424 1666
3 1516 1903 2377
3 1100 1392 1605
3 247 1738 1881
3 268 1134 1986
3 1177 823 1178
3 884 1599 1957
3 263 262 2491
3 806 1627 1948
3 1227 1229 1256
3 191 1729 2504
3 1636 1635 2502
3 1480 1479 1601
3 1721 1947 2498
3 1924 1146 2174
3 229 1734 1735
3 175 204 1725
3 1179 1178 1180
3 354 1521 2147
3 665 697 1592
3 640 646 1585
3 627 545 1636
3 1882 240 2399
3 1556 1555 1606
3 1373 1620 2394
3 1871 1071 2419
3 548 1628 1629
3 455 436 1793
3 974 1831 1841
3 1844 1413 2392
3 1612 1614 1615
3 209 1639 1937
3 1329 1330 1331
3 1823 2100 2142
3 1097 1177 1535
3 1021 1020 1022
3 825 1912 2455
3 913 1122 1874
3 400 1666 2113
3 1256 1229 1526
3 1419 1418 2450
3 1552 1551 1553
3 1850 1099 1852
3 1629 1631 1632
3 801 685 2029
3 1618 1619 1621
3 265 268 1986
3 1715 2165 2330
3 1531 1529 1534
3 1022 1024 1576
3 658 693 1746
3 703 686 1067
3 1062 1576 1577
3 1023 1022 1062
3 236 1718 2394
3 1688 502 1740
3 1501 1477 2104
3 213 165 1509
3 646 795 1585
3 196 1737 1738
3 379 679 1795
3 639 640 683
3 924 875 1767
3 1752 699 1753
3 207 2192 2315
3 627 1636 1660
3 1217 1180 1745
3 730 728 1833
3 528 561 1591
3 1444 1417 1998
3 252 186 1602
3 1729 1445 2504
3 460 502 1688
3 1418 946 1778
3 1203 1200 1693
3 548 470 1628
3 849 668 1640
3 646 785 795
3 607 276 674
3 14 15 210
3 147 148 209
3 478 460 1688
3 1709 207 2315
3 1157 1546 1608
3 1155 1731 1899
3 1524 1934 2390
3 1775 921 1876
3 1433 1502 1503
3 470 458 1628
3 1223 1224 1225
3 1291 1569 1964
3 871 1056 1826
3 1781 1783 1915
3 1587 1067 2300
3 916 1038 1039
3 1388 1387 1389
3 1611 1610 1613
3 1075 1328 1329
3 1039 1290 1291
3 1538 1265 1804
3 1184 1185 2163
3 597 598 1794
3 1450 1356 2421
3 1835 576 2080
3 1629 1628 1631
3 1331 1330 1332
3 561 639 1591
3 1476 1480 1493
3 705 703 1586
3 639 683 1019
3 1951 1188 2106
3 436 446 1793
3 1472 1297 2142
3 1332 1387 1388
3 1345 984 1720
3 1329 1328 1330
3 1050 1048 1667
3 150 151 227
3 11 12 228
3 557 541 2256
3 1831 974 1879
3 134 229 1766
3 1357 1358 1638
3 1336 1641 2299
3 1650 1482 1962
3 1591 1019 2512
3 1506 1507 1570
3 1803 801 2029
3 1178 823 1972
3 1552 1553 1554
3 1290 1038 1294
3 1028 1313 1641
3 1237 1239 1597
3 993 1017 1100
3 893 2087 2094
3 149 1484 2528
3 1768 1142 1949
3 9 234 1673
3 1554 1553 1555
3 668 632 1640
3 711 806 1550
3 1628 458 1637
3 1098 1829 1830
3 1482 1331 1483
3 531 1818 2000
3 435 419 1790
3 1156 1157 1608
3 1182 1184 2179
3 510 512 1646
3 1231 1233 1250
3 946 841 1778
3 1483 1331 1571
3 1459 680 2458
3 1166 1040 1210
3 892 1657 1820
3 1042 1445 1726
3 1019 1020 1021
3 749 805 1810
3 234 1588 1589
3 1695 242 1892
3 556 1853 2483
3 1018 1572 1573
3 1529 1528 1530
3 1606 1558 1607
3 1761 1759 2308
3 1396 1032 1921
3 1018 956 1572
3 689 1150 1416
3 1827 1293 2515
3 149 150 1484
3 1647 656 1648
3 1543 694 2196
3 399 409 1783
3 545 525 1636
3 268 269 270
3 715 713 717
3 1100 1017 1392
3 1657 892 1747
3 207 22 1617
3 1666 884 2249
3 1671 1672 1769
3 1554 1555 1556
3 146 147 1537
3 1081 1444 1822
3 711 709 806
3 1443 2005 2322
3 660 658 1746
3 1166 1458 1754
3 916 796 917
3 1056 1728 1826
3 1068 1069 1275
3 184 185 1454
3 158 159 262
3 2007 1687 2231
3 805 1708 1810
3 1672 264 1986
3 1561 1562 1563
3 978 1075 1650
3 1590 1588 2457
3 215 25 1624
3 1551 1550 1565
3 1073 1346 1347
3 857 818 1584
3 1648 656 1649
3 675 674 821
3 561 594 639
3 1731 529 1899
3 2303 1454 2535
3 981 903 1040
3 1630 1629 1633
3 993 877 1017
3 724 718 726
3 512 603 1646
3 1676 235 1858
3 814 1060 1068
3 715 717 1567
3 1796 647 1870
3 1715 1171 2165
3 678 1592 1593
3 644 613 1824
3 1690 1525 2145
3 1297 1822 1823
3 271 656 1647
3 1704 1116 1705
3 1225 1226 1227
3 1275 1069 1338
3 910 956 1018
3 1824 1596 2154
3 1403 1100 1605
3 1221 1219 1222
3 1068 1060 1069
3 1901 245 1949
3 1081 1055 1321
3 1751 563 1752
3 1021 1022 1023
3 672 638 681
3 1095 657 1848
3 1235 1237 1248
3 1561 1556 1562
3 1265 1259 1804
3 524 1819 2016
3 978 1650 2362
3 1492 516 2494
3 229 1735 2061
3 185 186 252
3 157 158 253
3 152 153 233
3 9 10 234
3 1527 1529 1531
3 1808 1344 2360
3 1062 1577 1579
3 1509 1679 1977
3 424 454 1666
3 637 638 672
3 981 1040 1166
3 1555 1558 1606
3 751 749 1810
3 1166 1210 1458
3 1651 1313 2121
3 15 16 2260
3 1633 1632 2509
3 2167 1705 2276
3 551 602 2045
3 697 818 857
3 364 1786 1883
3 832 1189 2204
3 1476 1478 1479
3 678 665 1592
3 213 1509 2096
3 1015 888 1124
3 1062 1022 1576
3 679 1782 1795
3 680 1646 1995
3 1101 1100 1403
3 1109 433 1714
3 1248 1237 1597
3 733 730 1833
3 1702 213 2096
3 499 498 1828
3 1418 1778 2521
3 637 600 638
3 1048 1046 1054
3 1577 1576 1578
3 814 766 1060
3 1279 2252 2292
3 474 470 548
3 199 18 1676
3 157 253 1441
3 1048 1054 1667
3 471 472 2290
3 625 665 678
3 795 785 796
3 1264 1265 1266
3 1437 1926 2350
3 1362 2048 2168
3 1394 2337 2371
3 454 884 1666
3 1022 1020 1024
3 751 1810 1923
3 1046 1023 1580
3 1807 1701 1931
3 1618 208 1619
3 566 588 689
3 1828 498 1829
3 501 509 1599
3 1118 780 1775
3 878 817 929
3 1510 1511 1950
3 1618 1621 1694
3 1052 1081 1822
3 1416 1150 1715
3 1239 1241 1247
3 1396 1921 2067
3 1751 1752 1753
3 1264 1259 1265
3 539 566 1600
3 1762 1127 2496
3 1673 1788 2183
3 1555 1557 1558
3 1052 1050 1055
3 725 724 825
3 1142 1770 1771
3 681 853 867
3 454 501 884
3 1346 1420 1453
3 932 1147 1770
3 1546 1545 1547
3 533 582 1818
3 1266 1337 1460
3 1872 820 2318
3 1117 1119 1713
3 1081 1321 1417
3 1253 1259 1264
3 1569 771 2135
3 1052 1055 1081
3 1181 1178 1972
3 709 706 1627
3 1073 1076 1346
3 1098 1828 1829
3 1382 1380 2176
3 1442 1275 1443
3 919 999 1663
3 1789 828 1855
3 877 815 1684
3 509 539 631
3 992 877 993
3 1266 1265 1337
3 2268 1498 2340
3 1130 1032 1396
3 1095 1603 2508
3 886 826 887
3 531 533 1818
3 1131 1400 1881
3 447 437 516
3 2460 1132 2473
3 940 1535 2418
3 768 1873 2037
3 1813 1869 1954
3 1627 2163 2488
3 1497 1495 1645
3 1198 1409 2168
3 724 726 1912
3 1869 987 1954
3 763 1999 2338
3 1010 1170 1374
3 984 976 1720
3 1470 1743 1744
3 689 588 1150
3 1901 1949 2359
3 1640 632 1862
3 274 272 1787
3 563 564 1752
3 994 817 1505
3 737 1807 1931
3 1770 1147 1771
3 1233 1235 1733
3 2450 1418 2521
3 414 410 1821
3 908 1099 1850
3 1227 1228 1229
3 1692 1203 1693
3 1625 216 2194
3 512 528 603
3 1377 1357 1638
3 1465 1464 1470
3 1360 1359 2177
3 1686 2007 2095
3 1336 1028 1641
3 1857 751 1923
3 1758 572 1759
3 553 541 557
3 1171 1715 1811
3 956 1003 1073
3 1467 1465 1675
3 719 718 724
3 1509 1977 2096
3 1734 1625 1736
3 1503 1504 1868
3 592 597 1776
3 180 181 232
3 162 163 231
3 2308 1759 2370
3 1357 1114 1358
3 875 946 1010
3 509 631 1599
3 17 18 199
3 144 145 200
3 1099 906 1792
3 1469 1467 1494
3 605 589 1939
3 1208 1205 1211
3 354 344 2091
3 692 782 804
3 1010 946 1170
3 1463 1462 1464
3 716 715 718
3 714 713 715
3 271 273 656
3 139 1618 1694
3 549 277 686
3 673 672 766
3 1378 1377 1379
3 2007 868 2095
3 999 1028 1336
3 1208 1211 1447
3 601 545 627
3 1119 1643 1713
3 1332 1333 1387
3 910 912 956
3 520 521 2000
3 828 1789 1819
3 277 607 1520
3 1338 1339 2247
3 818 819 910
3 767 766 814
3 712 711 713
3 1494 1467 1675
3 639 594 640
3 2044 557 2256
3 235 20 1709
3 1620 236 2394
3 804 919 962
3 1862 702 2070
3 681 852 853
3 1559 1556 1561
3 1622 941 2471
3 2165 1440 2330
3 612 644 692
3 697 698 818
3 1903 1516 1994
3 371 379 1795
3 428 426 2138
3 1290 1294 2064
3 1384 1904 2432
3 566 689 1600
3 471 452 472
3 1092 1091 1093
3 1002 1131 1719
3 1090 1089 1091
3 875 841 946
3 1758 1760 1763
3 1562 1606 2085
3 1833 1830 2075
3 178 179 214
3 164 165 213
3 769 923 1815
3 692 644 782
3 804 782 919
3 182 183 256
3 160 161 257
3 1329 1331 1482
3 962 1663 1664
3 1177 1179 2042
3 403 405 1805
3 1461 1460 1462
3 140 208 1618
3 1859 232 1860
3 274 1787 2099
3 1381 2126 2186
3 1558 1560 1789
3 430 428 682
3 452 435 1683
3 1487 1156 1488
3 1470 1464 1743
3 597 1794 1893
3 1244 1253 1669
3 962 919 1663
3 258 8 1673
3 1087 1785 1786
3 970 1042 1726
3 199 1677 2149
3 1664 1663 1665
3 1229 1230 1231
3 991 827 1713
3 792 1603 1848
3 1822 1444 1823
3 665 666 697
3 19 20 235
3 142 143 236
3 728 1098 1833
3 532 530 1898
3 1015 1124 1372
3 1546 1547 1548
3 1851 1850 1853
3 1877 393 2240
3 923 1105 1815
3 1090 1091 1092
3 687 686 703
3 1683 435 1790
3 887 826 1961
3 684 663 1089
3 426 1934 2138
3 464 510 680
3 853 854 855
3 568 572 1758
3 1376 1357 1377
3 1205 1203 1692
3 1607 1789 1855
3 710 709 711
3 780 781 1775
3 1434 1103 1435
3 876 815 877
3 766 672 1656
3 1393 1590 2457
3 684 1089 1090
3 530 890 1898
3 926 1920 1943
3 696 414 1821
3 1563 1562 1777
3 1054 1046 1580
3 1398 1973 1974
3 137 216 1625
3 1210 1040 1430
3 1750 563 1751
3 2010 1665 2299
3 1510 1374 1511
3 1777 1562 2085
3 1707 252 1791
3 1932 1404 1933
3 459 438 1814
3 139 140 1618
3 1093 1156 1487
3 231 163 1658
3 699 722 723
3 1545 1095 2508
3 598 612 1794
3 579 554 1880
3 1941 1908 2401
3 1231 1232 1233
3 1831 1829 1841
3 1037 1383 1799
3 177 178 1506
3 636 600 637
3 1036 1539 2286
3 1356 1114 1357
3 1523 1516 2377
3 704 703 705
3 403 402 405
3 648 792 1848
3 723 756 808
3 1388 1389 2170
3 933 932 1770
3 223 1710 1711
3 1779 399 1783
3 1223 1222 1224
3 1028 1029 1313
3 257 161 1654
3 418 412 421
3 734 882 1807
3 693 657 1095
3 1368 1370 1436
3 136 137 1625
3 688 652 817
3 1075 1327 1328
3 540 479 1813
3 398 395 402
3 548 1629 1630
3 574 591 699
3 1469 1494 1495
3 1041 1598 2175
3 167 168 202
3 175 176 204
3 2045 2046 2201
3 186 187 1602
3 886 887 888
3 1253 1254 1259
3 8 9 1673
3 792 655 810
3 843 1145 1960
3 1180 1349 1745
3 1165 1345 1512
3 708 706 709
3 136 1625 1734
3 21 22 207
3 140 141 208
3 625 626 665
3 1093 1094 1156
3 1585 795 1834
3 1117 1713 1806
3 599 579 600
3 810 871 1826
3 1047 1046 1048
3 1292 1291 1293
3 161 162 1654
3 199 1676 1677
3 1260 1282 1804
3 1005 1142 1768
3 1233 1234 1235
3 792 810 922
3 1122 1719 1737
3 976 985 1720
3 1278 1279 2292
3 2390 1934 2531
3 1436 1437 2350
3 270 271 1647
3 1199 966 1846
3 1683 1342 2212
3 656 273 2124
3 699 591 722
3 1977 1139 2096
3 1738 1719 1881
3 1722 985 1874
3 1797 1448 1798
3 162 231 1654
3 632 604 1862
3 252 1602 1791
3 1051 1050 1052
3 1045 1023 1046
3 648 655 792
3 993 1100 1101
3 1321 1055 1322
3 806 709 1627
3 904 903 981
3 1220 1267 1268
3 648 605 655
3 1737 1719 1738
3 385 399 1779
3 506 499 1828
3 1132 266 1402
3 1170 1418 1419
3 1323 2302 2354
3 24 25 215
3 137 138 216
3 721 965 1919
3 1787 1414 2460
3 778 1117 1806
3 723 722 756
3 407 403 1805
3 564 574 1752
3 1049 1048 1050
3 842 841 875
3 1608 1546 1842
3 809 808 899
3 1517 1519 1520
3 1530 1532 1533
3 889 421 1772
3 913 1002 1122
3 1314 1316 1367
3 1017 877 1684
3 841 802 1778
3 1235 1236 1237
3 751 1857 1900
3 1114 924 1767
3 1344 1644 2360
3 1895 1394 2371
3 1518 1535 1861
3 1758 1759 1760
3 1122 1002 1719
3 546 563 1750
3 1056 1726 1727
3 663 660 1746
3 621 622 625
3 1720 985 1721
3 1857 1843 1900
3 808 756 913
3 1056 970 1726
3 27 28 230
3 134 135 229
3 908 906 1099
3 163 164 1658
3 1727 1726 1729
3 7 8 258
3 154 155 259
3 1101 1403 1404
3 808 913 1874
3 1260 1269 1282
3 1389 1387 2262
3 1297 1053 1822
3 1555 1553 1557
3 1463 1464 1465
3 230 28 1765
3 1237 1238 1239
3 554 553 1880
3 775 778 1806
3 985 899 1874
3 1270 1524 2199
3 489 1820 1936
3 692 1072 1794
3 1472 2142 2272
3 1845 496 1929
3 438 431 1814
3 613 615 1824
3 1241 1242 1245
3 1783 415 1915
3 1192 2081 2149
3 178 214 1506
3 1816 988 1817
3 1760 1759 1761
3 1103 1092 1623
3 1512 1345 1661
3 1876 921 2295
3 1165 984 1345
3 978 1074 1075
3 1239 1240 1241
3 542 541 553
3 813 988 1816
3 1148 984 1165
3 871 970 1056
3 472 452 1683
3 1207 1796 1870
3 1167 1166 1754
3 1296 1053 1297
3 966 964 1846
3 976 899 985
3 982 976 984
3 702 1815 2015
3 900 899 976
3 1143 995 1206
3 1576 1024 1827
3 1235 1248 1733
3 1558 1557 1560
3 943 995 1143
3 1920 1144 1943
3 1471 2115 2477
3 29 30 255
3 132 133 254
3 1630 1633 1634
3 1225 1224 1226
3 1925 1573 1926
3 1211 1205 1692
3 725 825 826
3 1113 924 1114
3 600 579 1988
3 717 1552 1567
3 1820 1657 1936
3 674 276 2099
3 395 393 1877
3 572 543 1897
3 1575 1308 2255
3 999 1000 1028
3 1118 1775 1876
3 1797 1798 2430
3 526 546 559
3 867 853 2186
3 1142 1771 1949
3 1068 1275 1442
3 679 385 1779
3 1607 1558 1789
3 580 568 1758
3 1244 1252 1253
3 1760 1761 1762
3 398 402 403
3 1476 1258 1478
3 418 421 889
3 1771 1147 1839
3 164 213 1658
3 1720 1721 2267
3 1668 1591 2512
3 1042 1128 1445
3 1098 1830 1833
3 1102 1092 1103
3 2249 884 2466
3 1104 1103 1434
3 410 416 1821
3 514 513 541
3 580 1758 1763
3 637 673 1741
3 1913 936 1914
3 1394 1395 2337
3 919 920 999
3 577 554 579
3 2111 1660 2263
3 231 1658 1659
3 612 613 644
3 568 543 572
3 770 775 1806
3 1445 1128 1446
3 1546 1548 1842
3 448 460 478
3 810 870 871
3 1789 1560 1819
3 1154 1082 1431
3 873 973 1802
3 379 385 679
3 837 850 921
3 1461 1462 1463
3 1346 1076 1420
3 1088 1344 1808
3 2125 1143 2353
3 931 977 978
3 882 772 1802
3 29 255 1765
3 849 1513 2180
3 1713 827 1806
3 1130 1396 1397
3 681 638 852
3 1417 1321 1873
3 1654 1402 2530
3 502 526 1740
3 1124 888 2177
3 1266 1460 1461
3 515 1175 1840
3 1253 1264 1669
3 479 466 1813
3 1727 1729 1757
3 379 380 385
3 1971 1480 2514
3 1637 1739 2459
3 1207 1205 1208
3 529 519 1899
3 1129 1845 1929
3 224 1661 2267
3 192 1856 2361
3 732 734 1807
3 1184 2163 2435
3 1119 1120 1353
3 415 414 431
3 719 724 725
3 559 546 1750
3 871 872 970
3 1038 917 1622
3 574 699 1752
3 166 167 1679
3 1117 1118 1119
3 1409 1196 2035
3 617 619 621
3 1172 1173 1439
3 1191 1005 1768
3 664 663 684
3 494 493 1841
3 890 529 1731
3 840 802 841
3 493 974 1841
3 385 386 399
3 679 1779 1780
3 371 376 379
3 416 433 1109
3 670 769 1815
3 902 866 903
3 1780 1779 1781
3 480 515 1840
3 970 971 1042
3 433 448 1714
3 28 29 1765
3 1005 949 1142
3 778 780 1117
3 959 1037 1799
3 1073 1003 1076
3 535 532 1898
3 1119 1118 1120
3 658 657 693
3 1378 1379 1380
3 1397 1396 1809
3 1610 1609 1612
3 1819 1560 2016
3 1837 952 1865
3 1719 1131 1881
3 1131 1399 1400
3 1352 1138 2058
3 399 406 409
3 548 1630 2041
3 1275 1338 2251
3 582 1816 1818
3 1835 1836 2144
3 993 1101 1980
3 1699 1698 1700
3 2407 364 2505
3 1189 1190 1788
3 1117 780 1118
3 1830 1829 1831
3 637 672 673
3 692 804 1072
3 1204 1203 1205
3 1374 1170 2139
3 612 692 1794
3 1642 1408 2286
3 723 808 809
3 450 459 1812
3 409 410 414
3 802 801 1778
3 1853 1854 2483
3 1042 1127 1128
3 1199 1846 2225
3 1147 990 1273
3 1383 1384 2432
3 432 431 438
3 1353 1120 1390
3 1093 1091 1094
3 2020 250 2254
3 148 149 1639
3 606 605 648
3 1970 2016 2422
3 2201 2046 2327
3 475 471 513
3 412 407 1951
3 1991 246 2139
3 727 695 728
3 1673 234 1788
3 1554 1556 1559
3 1089 663 1746
3 1846 964 2056
3 923 991 1088
3 409 406 410
3 729 728 730
3 1424 1427 1856
3 1473 1911 2407
3 1376 1377 1378
3 1010 1374 1510
3 853 852 854
3 366 369 1087
3 772 873 1802
3 1219 1218 1626
3 1766 229 2061
3 1088 991 1344
3 922 810 1826
3 518 506 695
3 405 402 2116
3 962 1664 2316
3 913 942 1002
3 932 990 1147
3 629 813 1816
3 876 877 992
3 399 386 406
3 932 845 990
3 1002 1123 1131
3 843 996 1145
3 781 837 1775
3 262 2304 2491
3 431 696 1814
3 1273 1695 1892
3 731 730 732
3 737 732 1807
3 439 438 450
3 1829 498 1841
3 800 685 801
3 767 814 815
3 1060 766 1656
3 673 766 767
3 1403 1605 1882
3 716 718 719
3 1338 1069 1339
3 847 752 1843
3 864 862 1116
3 2302 443 2519
3 923 827 991
3 526 559 1740
3 1911 1473 2358
3 1085 1310 1867
3 809 899 900
3 1227 1226 1228
3 729 730 731
3 1436 1370 1437
3 731 732 737
3 769 827 923
3 456 452 471
3 1433 1503 2471
3 1435 1103 1623
3 385 380 386
3 1141 1787 2460
3 1354 1088 1808
3 657 649 1848
3 415 431 432
3 484 892 1820
3 727 728 729
3 855 854 1450
3 1721 1722 1723
3 1643 1353 1644
3 1145 1916 1960
3 1421 1191 1422
3 466 1812 1813
3 943 944 995
3 1356 1357 1376
3 714 715 716
3 1156 1094 1157
3 598 611 612
3 631 1600 2298
3 590 589 605
3 965 969 1919
3 416 1109 1821
3 242 1697 2335
3 1548 1547 1549
3 550 573 584
3 584 604 632
3 409 414 415
3 712 713 714
3 642 670 702
3 818 698 819
3 1006 1005 1191
3 1624 1689 1691
3 169 170 237
3 173 174 238
3 956 912 1003
3 937 936 1913
3 1317 1025 1875
3 515 540 550
3 973 1799 1800
3 973 959 1799
3 518 695 727
3 910 819 912
3 584 573 604
3 1170 946 1418
3 173 238 1847
3 550 540 573
3 982 984 1148
3 900 976 982
3 441 435 452
3 448 478 1714
3 1849 1648 2173
3 1631 1628 1637
3 1830 1831 1832
3 1383 1216 1384
3 734 772 882
3 949 933 1770
3 1332 1330 1333
3 574 575 591
3 1105 1088 1354
3 702 670 1815
3 498 494 1841
3 827 770 1806
3 873 959 973
3 1390 1391 1415
3 450 438 459
3 950 949 1005
3 351 362 364
3 1313 1029 1314
3 432 438 439
3 837 838 850
3 1273 1274 1695
3 850 851 943
3 911 952 1837
3 1259 1260 1804
3 566 587 588
3 1037 1216 1383
3 1337 1265 1538
3 1087 369 1795
3 810 655 870
3 1559 1561 1566
3 1147 1273 1839
3 732 733 734
3 1662 867 2126
3 890 1731 2241
3 1854 1852 2397
3 515 479 540
3 451 450 466
3 697 666 698
3 1367 1316 1368
3 662 660 663
3 365 355 694
3 1358 1114 1767
3 379 376 380
3 1796 1448 1797
3 179 180 1859
3 790 668 849
3 569 568 580
3 690 860 931
3 466 450 1812
3 431 414 696
3 1973 1133 1974
3 651 649 657
3 467 466 479
3 1288 1289 1835
3 264 265 1986
3 1302 1303 1304
3 592 596 597
3 1873 1321 2037
3 544 543 568
3 275 277 549
3 209 1937 2389
3 539 565 566
3 1485 227 1486
3 2384 2190 2408
3 1781 1779 1783
3 480 479 515
3 689 1416 2413
3 1108 1161 1539
3 1867 1310 1895
3 1300 1301 1302
3 1695 1696 1697
3 633 632 668
3 1304 1451 1452
3 988 911 1837
3 168 169 1724
3 969 1012 1172
3 582 629 1816
3 1843 752 1900
3 629 812 813
3 710 711 712
3 1782 1780 1784
3 536 535 543
3 1089 1746 1969
3 1108 1107 1161
3 1514 1426 1856
3 486 484 1820
3 369 371 1795
3 1817 988 1924
3 493 609 974
3 1422 1191 2023
3 1426 1424 1856
3 842 875 924
3 922 1826 2259
3 989 1361 1886
3 928 1070 1288
3 669 668 790
3 1113 1114 1356
3 1027 847 1843
3 728 695 1098
3 734 735 772
3 975 1107 1108
3 955 859 1962
3 813 911 988
3 1208 1448 1796
3 1101 1405 1980
3 602 676 2045
3 586 581 589
3 546 547 563
3 493 491 609
3 628 1524 2390
3 348 344 354
3 1298 1299 1300
3 509 538 539
3 974 609 975
3 813 891 911
3 871 870 872
3 1355 1354 1423
3 489 486 1820
3 778 779 780
3 1025 1176 1875
3 772 773 873
3 803 1743 2347
3 167 202 1679
3 873 883 959
3 1483 1571 2375
3 427 1756 2221
3 540 1813 1954
3 1202 1200 1203
3 959 1035 1037
3 837 921 1775
3 1304 1305 1451
3 1799 1383 2195
3 604 642 1862
3 1470 1744 2474
3 1854 2397 2453
3 1282 1269 1386
3 1573 1572 2157
3 472 2222 2290
3 1307 1708 2341
3 769 770 827
3 1037 1215 1216
3 791 790 856
3 1053 1052 1822
3 1056 1727 1728
3 1341 1138 1352
3 1300 1299 1301
3 1814 696 1838
3 1198 1196 1409
3 492 491 493
3 439 450 451
3 1171 858 2132
3 1259 1254 1260
3 665 626 666
3 970 872 971
3 258 1602 2357
3 1296 1297 1472
3 490 489 491
3 516 437 2494
3 1298 1027 1299
3 846 845 932
3 501 508 509
3 460 461 502
3 448 449 460
3 482 480 1840
3 1229 1228 1230
3 604 641 642
3 1424 1423 1427
3 502 503 526
3 1028 1000 1029
3 935 933 949
3 1084 1085 1867
3 2028 1711 2353
3 1513 1426 1514
3 892 482 1840
3 852 638 1988
3 402 395 1877
3 738 737 845
3 413 412 418
3 1119 1353 1643
3 526 527 546
3 280 279 281
3 1731 1155 2123
3 1042 971 1127
3 1208 1447 1448
3 433 434 448
3 262 159 2304
3 184 1454 2303
3 1051 1052 1053
3 1816 1817 1818
3 1081 1417 1444
3 781 836 837
3 911 951 952
3 1090 1092 1102
3 202 168 1724
3 1085 1309 1310
3 408 407 412
3 1337 1538 1864
3 1515 1514 1516
3 530 529 890
3 1517 1518 1519
3 549 686 687
3 923 1088 1105
3 404 403 407
3 1835 1289 1836
3 1314 1367 2121
3 1380 1379 2416
3 670 671 769
3 899 808 1874
3 1040 903 1703
3 1596 1595 2154
3 1496 1495 1497
3 636 637 1741
3 1377 1638 2288
3 1288 1070 1289
3 1072 804 1981
3 1129 1334 1845
3 1865 1084 1866
3 792 922 1603
3 1253 1252 1254
3 981 1167 1792
3 1302 1301 1303
3 1641 1651 2019
3 952 953 1084
3 1813 1812 1869
3 732 730 733
3 975 1106 1107
3 1142 949 1770
3 981 1166 1167
3 840 841 842
3 451 466 467
3 1273 990 1274
3 1049 1050 1051
3 1473 2407 2505
3 968 966 1199
3 642 643 670
3 1310 1309 1311
3 422 419 435
3 1063 833 1082
3 919 782 920
3 911 891 951
3 1084 953 1085
3 1763 1764 2164
3 1498 1497 1682
3 515 550 1175
3 1079 937 1913
3 642 702 1862
3 845 737 1931
3 1394 1311 1395
3 1395 1521 1522
3 467 479 480
3 1755 1754 1793
3 1231 1230 1232
3 1557 1553 2030
3 1624 1691 2262
3 584 632 633
3 1094 1091 1969
3 708 709 710
3 1948 1627 2488
3 952 951 953
3 1102 1103 1104
3 1047 1048 1049
3 1310 1311 1394
3 1852 1099 1985
3 143 144 1717
3 813 812 891
3 1944 1044 1945
3 1105 1354 1355
3 1300 1302 1455
3 1914 936 1940
3 1415 1391 1710
3 1299 1027 1843
3 952 1084 1865
3 1695 1274 1696
3 776 774 1928
3 282 281 283
3 2003 1347 2279
3 1206 995 1499
3 1164 1685 1686
3 1551 1565 2030
3 969 1172 1919
3 633 668 669
3 734 733 735
3 1373 1372 1438
3 599 600 636
3 1431 1860 2487
3 1579 1577 1999
3 484 482 892
3 917 940 941
3 2144 1836 2169
3 1866 1084 1867
3 1110 1747 1748
3 998 1171 1811
3 1390 1120 1391
3 644 1824 2057
3 1362 1961 2048
3 944 1283 1825
3 1086 1027 1298
3 679 1780 1782
3 974 975 1879
3 507 506 518
3 1121 1079 1401
3 775 777 778
3 1965 762 2349
3 1045 1046 1047
3 1772 421 2106
3 16 17 2081
3 416 417 433
3 921 850 2125
3 1607 1855 1958
3 649 648 1848
3 1241 1240 1242
3 2012 1443 2251
3 926 928 1920
3 1487 1488 2025
3 1006 1191 1421
3 1355 1423 1424
3 1133 852 1988
3 591 592 1776
3 1299 1843 1857
3 1085 1308 1309
3 490 491 492
3 958 694 1575
3 1384 1216 1385
3 741 915 1878
3 1233 1232 1234
3 669 790 791
3 481 480 482
3 687 703 704
3 492 493 494
3 1634 1633 1922
3 1697 1696 1698
3 1721 985 1722
3 1839 1273 1892
3 772 735 773
3 488 486 489
3 950 1005 1006
3 1513 1514 1515
3 454 500 501
3 873 773 883
3 284 283 285
3 2185 1505 2442
3 959 883 1035
3 543 535 1897
3 1904 1384 2093
3 800 801 802
3 1037 1035 1215
3 1293 1964 1965
3 1239 1238 1240
3 943 1143 2125
3 1782 1784 1785
3 913 756 942
3 488 490 1884
3 1590 1749 2501
3 1235 1234 1236
3 791 856 1408
3 702 2015 2070
3 1108 1539 1540
3 1021 1023 1045
3 695 506 1828
3 1530 1528 1532
3 488 489 490
3 1621 1619 2161
3 704 705 706
3 1304 1303 1305
3 558 1704 2167
3 625 622 626
3 542 553 554
3 604 573 641
3 664 684 685
3 564 571 574
3 1108 1540 1879
3 1856 1427 2361
3 880 1025 1129
3 1395 1311 1521
3 1466 1465 1467
3 915 495 1884
3 1515 1516 1523
3 1237 1236 1238
3 606 648 649
3 999 920 1000
3 676 829 1043
3 2100 794 2142
3 227 151 1500
3 577 579 599
3 153 154 1671
3 1175 550 1927
3 1014 888 1015
3 286 285 287
3 1649 1280 2427
3 1725 204 2137
3 975 609 1106
3 1129 1317 1334
3 1109 1730 2426
3 1468 1467 1469
3 1131 1123 1399
3 1215 2235 2378
3 1976 1149 1989
3 397 395 398
3 746 743 1878
3 1041 1343 1598
3 975 1108 1879
3 741 495 915
3 1167 1754 1755
3 288 287 289
3 743 741 1878
3 1274 990 1931
3 1506 214 1507
3 857 1584 2277
3 2341 1522 2387
3 846 932 933
3 1107 1106 1110
3 584 633 1927
3 290 289 291
3 722 591 1776
3 1544 1094 1969
3 1135 270 1647
3 935 949 950
3 1920 1288 2080
3 754 1896 2108
3 1693 1199 2225
3 292 291 293
3 394 393 395
3 745 743 746
3 1002 942 1123
3 731 737 738
3 294 293 295
3 1018 1573 1925
3 296 295 297
3 298 297 299
3 321 322 325
3 317 320 321
3 314 315 317
3 312 313 314
3 310 311 312
3 308 309 310
3 1898 890 2275
3 306 307 308
3 304 305 306
3 1401 1079 1913
3 300 299 301
3 302 303 304
3 300 301 302
3 302 301 303
3 491 489 1936
3 298 299 300
3 304 303 305
3 306 305 307
3 308 307 309
3 310 309 311
3 312 311 313
3 314 313 315
3 317 315 320
3 321 320 322
3 1301 1299 1857
3 514 541 542
3 296 297 298
3 850 838 851
3 1310 1394 1895
3 294 295 296
3 590 605 606
3 292 293 294
3 651 657 658
3 290 291 292
3 1207 1208 1796
3 835 1976 1989
3 621 619 622
3 746 1878 1896
3 481 482 483
3 1026 847 1027
3 1335 1207 1870
3 1661 59 2266
3 727 729 1155
3 288 289 290
3 1058 776 1928
3 662 663 664
3 495 488 1884
3 1959 319 2522
3 943 851 944
3 1293 1291 1964
3 534 532 535
3 640 645 646
3 2280 1014 2385
3 286 287 288
3 591 575 592
3 521 519 529
3 13 14 2114
3 780 779 781
3 918 908 1850
3 837 836 838
3 209 148 1639
3 754 748 1896
3 745 746 747
3 769 671 770
3 929 1065 2197
3 1278 1058 1279
3 483 482 484
3 1564 1557 2030
3 633 807 1927
3 392 391 393
3 1057 1621 2161
3 569 580 581
3 284 285 286
3 876 992 1894
3 497 494 498
3 1630 1635 2041
3 982 1148 1918
3 612 611 613
3 700 634 1044
3 822 674 2099
3 880 1129 1929
3 432 439 654
3 1039 1291 1292
3 1164 1686 1989
3 1129 1025 1317
3 738 845 846
3 582 583 629
3 278 6 279
3 544 568 569
3 1701 1274 1931
3 747 749 751
3 1085 953 1308
3 928 930 1070
3 747 748 749
3 1421 1422 2415
3 902 903 904
3 1309 1308 1543
3 642 641 643
3 904 981 1792
3 646 784 785
3 536 543 544
3 1204 1205 1207
3 365 694 958
3 71 72 217
3 88 89 1901
3 87 88 193
3 101 102 189
3 85 86 242
3 99 100 241
3 74 75 192
3 91 92 219
3 94 95 191
3 83 84 220
3 97 98 221
3 77 78 218
3 80 81 194
3 89 90 245
3 62 63 244
3 60 61 188
3 64 65 223
3 67 68 190
3 90 91 1909
3 98 99 1905
3 61 62 1908
3 69 70 243
3 68 69 1907
3 70 71 1910
3 410 411 416
3 586 589 590
3 685 684 2029
3 390 389 391
3 1715 1150 1811
3 1924 1837 2215
3 282 283 284
3 496 497 1929
3 233 1671 1769
3 627 2185 2442
3 1567 1552 2062
3 629 630 812
3 424 453 454
3 583 562 1942
3 749 750 805
3 744 743 745
3 1897 535 1898
3 467 480 481
3 504 759 880
3 670 643 671
3 89 245 1901
3 193 88 1901
3 221 98 1905
3 245 90 1909
3 91 219 1909
3 62 244 1908
3 188 61 1908
3 99 241 1905
3 190 68 1907
3 71 217 1910
3 69 243 1907
3 243 70 1910
3 505 499 506
3 475 513 514
3 1945 1044 2071
3 1712 2125 2353
3 339 343 440
3 989 1360 1361
3 764 869 1152
3 778 777 779
3 1686 1685 1687
3 742 741 743
3 979 989 1886
3 729 731 1887
3 926 927 928
3 1305 1306 1307
3 1838 1278 2292
3 747 746 748
3 181 182 1652
3 1886 1361 2305
3 1595 1594 2486
3 597 596 598
3 928 1288 1920
3 1970 824 2156
3 1425 1424 1426
3 497 504 1929
3 748 746 1896
3 745 747 1900
3 998 858 1171
3 563 547 564
3 1155 729 1887
3 634 583 1942
3 1439 1173 1440
3 1026 1027 1086
3 79 80 1904
3 1533 1532 1536
3 1449 1426 1513
3 1106 609 1936
3 1318 1013 1319
3 1098 695 1828
3 492 494 496
3 750 748 754
3 731 738 1887
3 2415 1422 2516
3 533 562 582
3 988 1837 1924
3 1216 1215 1863
3 534 535 536
3 747 751 1900
3 1753 809 2119
3 1183 824 1970
3 740 495 741
3 80 194 1904
3 893 383 2087
3 655 605 1939
3 1884 2034 2082
3 1301 1857 1923
3 1307 1306 1708
3 752 745 1900
3 750 754 755
3 76 77 1903
3 2090 2347 2365
3 255 30 2159
3 132 254 2160
3 448 434 449
3 753 848 926
3 1075 1074 1327
3 487 488 495
3 377 381 647
3 483 484 485
3 755 754 2148
3 1584 1925 2277
3 1186 1183 1970
3 951 891 1281
3 485 484 486
3 546 527 547
3 133 134 1766
3 1786 1785 2409
3 280 281 282
3 460 449 461
3 744 745 752
3 77 218 1903
3 983 1918 2342
3 1708 1306 1810
3 1389 2069 2170
3 487 486 488
3 641 573 1954
3 507 518 519
3 502 461 503
3 519 518 1899
3 1202 1203 1204
3 821 897 1972
3 92 93 1902
3 521 529 530
3 749 748 750
3 2176 1380 2416
3 885 826 886
3 485 486 487
3 371 372 376
3 1289 1070 1871
3 1110 1657 1747
3 753 926 1943
3 700 1044 1944
3 880 881 1025
3 496 1845 2034
3 1072 1981 2393
3 462 464 2134
3 1949 1771 2359
3 1044 634 1942
3 550 584 1927
3 1390 1415 2118
3 526 503 527
3 990 845 1931
3 1009 1213 1214
3 740 742 1144
3 219 92 1902
3 727 1155 1899
3 369 370 371
3 623 690 2150
3 1279 1058 1928
3 1408 2235 2286
3 487 495 740
3 979 1886 2086
3 1305 1303 1306
3 421 412 1951
3 843 844 996
3 633 669 807
3 518 727 1899
3 826 825 1961
3 1657 1106 1936
3 1172 1012 1173
3 740 741 742
3 433 417 434
3 505 506 507
3 1333 1674 2437
3 742 743 744
3 469 458 470
3 1381 1380 1382
3 1293 1965 2515
3 1554 1559 2062
3 553 557 2499
3 1774 389 2339
3 497 498 499
3 483 485 576
3 740 1144 1935
3 773 735 834
3 366 367 369
3 1120 1118 1876
3 1515 1523 1574
3 1319 1013 2039
3 1303 1301 1923
3 457 447 458
3 561 593 594
3 1355 1424 1425
3 609 491 1936
3 204 1732 2137
3 791 1408 1642
3 995 944 1825
3 456 471 475
3 1692 1693 2239
3 580 1763 2164
3 1292 1293 2117
3 441 452 456
3 388 384 389
3 823 821 1972
3 504 880 1929
3 176 177 1680
3 1070 1071 1871
3 15 2260 2477
3 362 363 366
3 2178 2300 2449
3 1035 883 1036
3 2285 1563 2307
3 978 977 1074
3 1090 1102 2029
3 1810 1306 1923
3 496 494 497
3 1306 1303 1923
3 432 654 1915
3 934 933 935
3 356 355 365
3 398 403 404
3 635 701 843
3 1110 1106 1657
3 574 571 575
3 1025 881 1176
3 386 380 786
3 415 432 1915
3 343 347 1911
3 1070 930 1071
3 1688 1740 2231
3 1385 1216 1863
3 1696 1274 1701
3 1645 305 2317
3 880 759 881
3 926 848 927
3 1427 1423 2217
3 1339 1662 2388
3 770 774 775
3 1263 1257 1428
3 1337 1864 2412
3 349 348 355
3 2267 1721 2498
3 753 752 847
3 1375 1086 1473
3 900 982 983
3 332 335 739
3 429 428 430
3 744 752 753
3 1171 2132 2165
3 1425 1426 1449
3 987 641 1954
3 1883 1786 2409
3 427 426 428
3 928 927 930
3 1815 1105 2015
3 1206 1499 1941
3 410 406 411
3 573 540 1954
3 497 499 504
3 528 560 561
3 1933 1404 2399
3 1091 1089 1969
3 1804 1282 2073
3 504 505 759
3 963 924 1113
3 1711 1710 1712
3 881 759 1146
3 968 1199 1200
3 351 352 362
3 848 847 1026
3 521 530 531
3 1884 490 2034
3 1277 957 1966
3 1349 1350 2329
3 676 1043 2045
3 997 1159 1286
3 517 1889 1890
3 781 835 836
3 944 948 1283
3 722 1776 2026
3 507 519 520
3 2040 1352 2058
3 1276 957 1277
3 446 437 447
3 931 860 977
3 361 359 765
3 1248 1536 2534
3 512 523 528
3 408 412 413
3 1368 1369 1370
3 451 2169 2223
3 192 75 1994
3 942 756 2026
3 345 344 348
3 764 1152 1963
3 413 418 419
3 1286 1773 1774
3 770 671 774
3 275 549 2124
3 1497 1645 2461
3 1982 1472 2272
3 422 435 441
3 281 279 736
3 1134 270 1135
3 582 562 583
3 1421 2415 2454
3 485 487 1935
3 2300 1067 2480
3 1578 1576 1827
3 930 927 1061
3 1026 1086 1375
3 922 2259 2379
3 1391 1120 1876
3 1495 1494 2493
3 404 407 408
3 879 2178 2449
3 1700 1698 2036
3 607 1517 1520
3 753 847 848
3 416 411 417
3 1144 742 1943
3 775 776 777
3 754 2108 2148
3 1006 1421 1953
3 585 581 586
3 531 530 532
3 235 1709 1888
3 520 519 521
3 1180 1181 1349
3 1146 759 1967
3 708 710 1921
3 1350 2253 2329
3 436 430 437
3 504 499 505
3 643 641 987
3 336 330 517
3 811 1059 1149
3 1164 1411 1685
3 846 933 934
3 635 843 1960
3 983 982 1918
3 971 872 1096
3 1149 1163 1164
3 169 237 1724
3 1314 1315 1316
3 629 583 630
3 891 812 1916
3 462 463 464
3 487 740 1935
3 798 2084 2189
3 1814 1838 2292
3 1284 1489 1491
3 340 336 2014
3 1670 1461 2200
3 920 782 2057
3 890 2241 2275
3 510 511 512
3 278 279 280
3 839 802 840
3 1858 235 1888
3 1698 1696 2036
3 104 105 222
3 57 58 224
3 1185 1183 1186
3 588 587 623
3 638 600 1988
3 1282 1386 2245
3 811 776 1058
3 816 815 876
3 2034 1845 2082
3 761 636 1741
3 566 565 587
3 174 175 1725
3 347 350 351
3 1469 1495 1496
3 1059 1058 1278
3 811 1149 1976
3 576 485 1935
3 659 658 660
3 859 1153 1962
3 76 1903 1994
3 1821 1109 2426
3 1294 1038 1622
3 733 1833 2075
3 992 993 1980
3 1566 1561 2285
3 525 474 2041
3 464 465 510
3 343 346 347
3 360 893 1982
3 650 649 651
3 896 608 936
3 950 1006 1007
3 1508 1859 1860
3 539 538 565
3 440 343 1911
3 341 340 344
3 221 1905 1906
3 1297 1823 2142
3 759 505 1967
3 1295 1053 1296
3 473 470 474
3 1463 1465 1466
3 1143 1206 2028
3 799 685 800
3 1210 2077 2203
3 509 508 538
3 492 496 2034
3 1553 1551 2030
3 1260 1261 1269
3 1430 1040 1703
3 586 590 1940
3 838 836 868
3 1705 624 2276
3 1749 972 2501
3 742 744 1943
3 804 962 1981
3 1367 1368 2254
3 531 532 533
3 337 336 340
3 1157 1094 1544
3 536 544 1158
3 812 630 1960
3 781 779 835
3 56 57 1947
3 630 583 634
3 1405 1404 1932
3 1281 891 1916
3 339 342 343
3 1411 1163 1730
3 322 323 324
3 344 340 2091
3 1735 1734 1736
3 75 76 1994
3 430 682 2494
3 1907 243 2360
3 589 581 2164
3 694 355 2196
3 744 753 1943
3 775 774 776
3 1210 1430 2077
3 335 338 339
3 1102 1803 2029
3 1078 937 1079
3 870 655 1939
3 505 507 1967
3 357 360 1982
3 1896 1878 2101
3 326 325 328
3 934 935 957
3 585 608 895
3 333 330 336
3 1270 1272 1524
3 688 817 878
3 507 520 1967
3 1428 1257 2074
3 1818 1817 2000
3 896 937 1077
3 934 957 1111
3 329 328 330
3 1499 995 1825
3 944 851 948
3 387 445 462
3 1678 1161 2228
3 777 776 811
3 313 311 757
3 324 331 332
3 848 1026 1955
3 1312 998 1811
3 1321 1322 2037
3 1080 1079 1121
3 1105 1355 2015
3 1645 2317 2461
3 1559 1568 2062
3 332 334 335
3 501 500 508
3 321 325 326
3 394 395 397
3 322 320 323
3 1529 1530 2171
3 1137 797 1138
3 811 1058 1059
3 661 660 662
3 569 581 585
3 183 4 2303
3 5 160 2304
3 1340 1138 1341
3 1660 1626 2185
3 1743 1464 2347
3 1026 1375 1955
3 1149 1059 1163
3 1736 1625 2194
3 1322 1667 2434
3 311 309 1959
3 309 307 319
3 894 700 1944
3 533 534 562
3 1276 1277 1366
3 2190 1706 2408
3 533 532 534
3 1214 1213 1410
3 1164 1163 1411
3 843 701 844
3 1009 1214 2055
3 234 1589 1788
3 2000 1817 2174
3 317 321 2050
3 328 325 945
3 392 393 394
3 588 623 2089
3 1162 958 1681
3 1078 1080 1136
3 927 848 1955
3 1496 1497 1498
3 390 391 392
3 1061 927 1955
3 1283 948 1284
3 635 634 700
3 1244 1251 1252
3 218 78 2093
3 756 722 2026
3 1071 1784 2419
3 1218 1505 2185
3 1284 948 1285
3 1489 1285 1490
3 918 1850 1851
3 684 1090 2029
3 1759 572 2537
3 1691 1690 2446
3 1979 1158 2071
3 606 649 650
3 2045 1043 2046
3 103 104 2025
3 630 634 635
3 360 383 893
3 406 386 2043
3 1909 219 2023
3 1111 957 1276
3 1925 1437 2277
3 1536 2268 2340
3 854 852 1133
3 233 153 1671
3 651 658 659
3 2099 1787 2368
3 1033 1032 1130
3 1015 1372 1373
3 1412 942 2026
3 253 264 1441
3 1531 1534 2332
3 701 700 894
3 106 107 1990
3 2048 1961 2455
3 276 274 2099
3 738 846 1968
3 1325 925 1326
3 896 936 937
3 585 586 608
3 1450 854 1973
3 1361 1360 1362
3 1045 1668 2512
3 303 301 444
3 996 844 997
3 79 1904 2093
3 1989 1686 2095
3 1928 774 2033
3 1942 562 1979
3 287 285 316
3 935 950 1966
3 1466 1467 1468
3 1242 1243 1244
3 1887 738 1968
3 2115 210 2477
3 878 929 1083
3 1326 1736 2194
3 886 888 1014
3 895 608 896
3 289 287 1978
3 821 822 897
3 936 608 1940
3 613 614 615
3 51 52 1996
3 417 411 1160
3 1149 1164 1989
3 386 786 2043
3 285 283 1971
3 1309 1543 2147
3 375 373 2053
3 371 370 372
3 779 777 1976
3 1286 1159 1773
3 2177 887 2376
3 1560 1557 1564
3 1403 1882 2399
3 1727 1757 2246
3 279 6 2049
3 1619 1438 2438
3 291 289 758
3 1781 1915 2294
3 425 401 426
3 349 355 356
3 66 67 2118
3 474 548 2041
3 1686 1687 2007
3 1262 1456 1457
3 1123 942 1412
3 1916 812 1960
3 1355 1425 2015
3 735 733 2075
3 1861 879 2449
3 1284 1285 1489
3 490 492 2034
3 366 363 367
3 980 578 2051
3 906 904 1792
3 534 536 1979
3 842 924 963
3 2051 578 2083
3 1077 937 1078
3 1102 1104 1803
3 894 1944 1946
3 398 404 2060
3 1007 1006 1953
3 369 367 370
3 348 354 2196
3 1078 1079 1080
3 1378 1380 1381
3 1568 1365 2439
3 608 586 1940
3 598 610 611
3 760 636 761
3 869 1137 1351
3 671 643 2033
3 1661 1345 2267
3 938 914 1057
3 783 761 914
3 576 1835 2144
3 388 389 390
3 297 295 318
3 454 453 500
3 1906 1728 2246
3 1439 1440 2468
3 1159 1013 1318
3 764 797 869
3 236 143 1717
3 782 644 2057
3 592 595 596
3 1542 2332 2443
3 1521 1311 2147
3 345 348 349
3 1304 1452 2205
3 1644 1907 2360
3 2146 1125 2149
3 997 844 1013
3 628 375 2053
3 299 297 1984
3 957 935 1966
3 664 685 799
3 301 299 1975
3 362 352 363
3 777 811 1976
3 1942 1979 2071
3 1001 920 2057
3 312 314 768
3 1552 1554 2062
3 615 616 617
3 357 1982 2076
3 800 802 839
3 774 671 2033
3 1749 1169 2105
3 365 958 1162
3 617 618 619
3 283 281 1938
3 1351 1772 2414
3 1525 1765 2489
3 846 934 1968
3 635 700 701
3 555 554 577
3 536 1158 1979
3 1101 1404 1405
3 630 635 1960
3 1811 1150 2089
3 2113 1666 2249
3 172 173 1847
3 107 108 195
3 54 55 196
3 1191 1768 2023
3 1455 1302 2205
3 115 116 2017
3 1387 1333 2437
3 659 661 764
3 1080 1121 1188
3 50 51 2011
3 411 406 2043
3 295 293 1983
3 643 987 2033
3 707 706 708
3 129 130 261
3 32 33 260
3 2159 260 2265
3 449 434 567
3 1314 1029 1315
3 917 796 940
3 378 375 628
3 108 109 1991
3 2370 1759 2537
3 341 344 345
3 997 1013 1159
3 544 569 1993
3 950 1007 1966
3 477 474 525
3 351 350 352
3 1696 1701 2036
3 334 331 803
3 1137 1138 1340
3 562 534 1979
3 109 110 246
3 52 53 247
3 1368 1316 1369
3 659 660 661
3 33 34 2002
3 123 124 2005
3 835 779 1976
3 851 838 1992
3 1530 1533 2172
3 1668 1045 2348
3 1162 1681 1706
3 342 338 468
3 298 300 358
3 765 359 2065
3 725 826 885
3 35 36 2003
3 46 47 2019
3 38 39 2006
3 336 517 2014
3 934 1111 1968
3 116 117 2018
3 650 651 1963
3 223 1711 2162
3 640 594 645
3 1333 1330 2192
3 104 222 2025
3 1603 922 2379
3 963 1113 1115
3 2084 1193 2189
3 564 570 571
3 36 37 2004
3 57 224 1947
3 1542 1601 2269
3 122 123 2012
3 1000 920 1001
3 127 128 240
3 34 35 239
3 383 387 2087
3 1161 1107 2228
3 1781 2294 2419
3 1201 1200 1202
3 124 125 225
3 37 38 226
3 1340 1341 1342
3 869 797 1137
3 839 840 1008
3 1158 544 1993
3 1326 925 1894
3 352 350 353
3 326 329 954
3 1864 2344 2412
3 836 835 2095
3 1051 1053 1295
3 1031 720 1032
3 503 461 787
3 1407 1112 2044
3 661 662 2058
3 838 868 1992
3 112 113 197
3 49 50 198
3 1359 980 1413
3 121 122 211
3 40 41 212
3 48 49 2010
3 113 114 2009
3 1741 673 2131
3 41 42 2020
3 120 121 2013
3 1409 2035 2097
3 1511 1374 2506
3 114 115 248
3 47 48 249
3 42 43 250
3 119 120 251
3 171 6 201
3 6 172 203
3 585 895 1993
3 43 44 2024
3 118 119 2021
3 905 904 906
3 764 661 797
3 337 340 341
3 1413 980 2051
3 117 118 205
3 44 45 206
3 347 346 350
3 1420 1076 1525
3 324 323 331
3 434 417 2031
3 965 967 969
3 716 719 788
3 1260 1254 1261
3 2053 373 2103
3 2069 2068 2170
3 326 328 329
3 1706 996 2408
3 273 275 2124
3 969 1011 1012
3 590 606 2001
3 1718 1611 2280
3 1914 1940 2001
3 915 1884 2082
3 329 330 333
3 620 859 955
3 2168 1409 2305
3 296 298 1997
3 915 2082 2101
3 339 338 342
3 1218 994 1505
3 333 336 337
3 266 263 1742
3 1873 768 2127
3 244 63 2162
3 64 223 2162
3 343 342 346
3 914 761 2258
3 310 312 1987
3 799 800 2055
3 302 304 763
3 1559 1566 1568
3 1598 1343 2114
3 592 575 595
3 341 345 794
3 189 1842 2220
3 767 815 816
3 1003 912 1004
3 839 1008 1009
3 1263 1428 1429
3 564 547 570
3 1845 1334 2082
3 332 331 334
3 901 866 902
3 651 659 1963
3 1009 1112 1213
3 335 334 338
3 569 585 1993
3 1665 1336 2299
3 1945 2071 2153
3 863 862 864
3 907 906 908
3 1849 1486 1930
3 1935 1144 2080
3 967 966 968
3 809 900 2119
3 865 864 866
3 835 1989 2095
3 190 1907 2417
3 333 337 522
3 1110 1748 2228
3 1193 1194 1195
3 94 191 2166
3 473 1854 2453
3 1769 1134 2369
3 948 851 1992
3 237 170 2216
3 420 419 422
3 1448 1447 2364
3 483 576 2144
3 721 1919 2032
3 885 886 1891
3 613 611 614
3 886 1014 1891
3 1160 411 2043
3 1918 1283 2342
3 1651 206 2485
3 1242 1240 1243
3 598 596 610
3 1295 1296 1459
3 1185 1186 1948
3 1425 1449 2070
3 294 296 762
3 1285 948 1992
3 925 876 1894
3 712 714 789
3 603 1668 2398
3 1940 590 2001
3 721 570 964
3 834 735 2075
3 1144 1920 2080
3 2263 1635 2511
3 1204 1207 1335
3 2235 1408 2378
3 965 964 966
3 1990 1435 2218
3 397 398 2060
3 1138 797 2058
3 1787 1141 2368
3 2068 820 2170
3 360 359 361
3 387 462 2087
3 1524 1272 1934
3 819 698 820
3 1197 1196 1198
3 1662 2126 2388
3 78 79 2093
3 1150 588 2089
3 1269 1261 1270
3 1878 915 2101
3 451 467 2169
3 2262 1387 2437
3 1009 1008 1112
3 757 311 1959
3 897 898 1139
3 1854 473 2483
3 2015 1425 2070
3 2082 1334 2101
3 963 1115 1174
3 1047 1049 1287
3 1194 423 1196
3 321 326 2050
3 417 1160 2031
3 854 1133 1973
3 1201 1212 1348
3 705 1586 2163
3 309 319 1959
3 1353 1390 2417
3 427 428 429
3 357 356 359
3 606 650 2001
3 549 1280 2124
3 1213 1112 1407
3 256 2303 2535
3 356 365 2065
3 662 664 2040
3 701 894 2039
3 1325 1371 2451
3 666 626 667
3 1902 93 2166
3 1236 1234 1246
3 800 839 2055
3 1869 1812 2252
3 1197 1364 1365
3 576 1935 2080
3 404 408 798
3 1678 807 2529
3 1560 1564 2016
3 1319 2039 2122
3 425 426 427
3 349 356 357
3 308 310 327
3 1716 622 2484
3 1801 82 2289
3 1768 1949 2420
3 2006 1926 2507
3 351 364 2407
3 420 423 1193
3 659 764 1963
3 292 294 2038
3 840 842 2027
3 736 279 2049
3 372 373 374
3 461 449 2052
3 2189 1195 2285
3 1174 1115 1398
3 367 363 961
3 909 908 918
3 1738 247 2402
3 1007 1761 2308
3 288 290 2135
3 422 441 2035
3 623 624 690
3 537 525 545
3 1953 1421 2454
3 1887 1968 2123
3 861 691 862
3 654 439 2223
3 1136 1080 2054
3 1312 1811 2089
3 575 571 2032
3 383 361 384
3 968 1200 1201
3 797 661 2058
3 1423 1354 2381
3 1180 1178 1181
3 1513 1515 2180
3 72 73 2217
3 462 445 463
3 12 13 2136
3 457 458 469
3 542 554 555
3 599 636 760
3 254 133 1766
3 1130 1397 1937
3 404 798 2060
3 1044 1942 2071
3 690 691 860
3 357 359 360
3 1008 2027 2152
3 1232 1230 1255
3 372 370 373
3 850 943 2125
3 1457 1456 1492
3 1952 324 2282
3 155 2 2356
3 0 7 2357
3 2017 1379 2288
3 918 1851 2008
3 195 1991 2517
3 2090 803 2347
3 1244 1243 1251
3 290 292 368
3 1432 1082 2214
3 1008 840 2027
3 1743 803 2296
3 1013 844 2039
3 365 1162 2065
3 1594 1315 2184
3 387 384 388
3 1508 1860 2311
3 547 527 2056
3 2005 225 2322
3 314 317 2127
3 1853 556 2327
3 201 6 278
3 1907 1644 2417
3 1896 2101 2108
3 646 645 784
3 538 508 558
3 374 375 377
3 1630 1634 1635
3 1579 1999 2352
3 1647 1648 1849
3 1313 1314 2121
3 1179 1433 2042
3 844 701 2039
3 1252 1251 2098
3 816 876 925
3 1922 1228 2281
3 392 394 396
3 1915 654 2294
3 1652 1653 2487
3 429 430 436
3 456 475 476
3 1605 1392 2510
3 126 1882 2284
3 1784 1780 2419
3 500 453 960
3 377 378 381
3 2178 1587 2300
3 1222 1219 1626
3 413 419 420
3 381 382 400
3 2169 1836 2223
3 1906 1905 2129
3 616 614 793
3 1170 1419 2139
3 101 189 2220
3 241 100 2220
3 1968 1111 2123
3 567 434 2031
3 615 614 616
3 1032 720 1921
3 682 428 2138
3 469 470 473
3 339 440 2261
3 1501 238 2226
3 1154 1431 1653
3 446 447 457
3 1251 1243 1257
3 2229 315 2495
3 1201 1202 1212
3 785 784 879
3 464 463 465
3 66 2118 2395
3 324 332 2282
3 286 288 771
3 17 199 2081
3 571 570 721
3 611 610 2092
3 617 616 618
3 1542 1531 2332
3 400 401 424
3 1325 1326 1371
3 1140 1406 1702
3 1323 443 2302
3 1926 1573 2507
3 436 437 446
3 1262 1457 2098
3 67 190 2118
3 1518 1861 2449
3 989 1359 1360
3 1063 1082 1154
3 1757 96 2526
3 969 967 1011
3 868 836 2095
3 1215 1035 2235
3 96 1757 2309
3 261 2160 2380
3 1381 1382 2126
3 1468 1469 2182
3 1334 1317 2108
3 861 863 1064
3 1270 1261 1271
3 360 361 383
3 287 316 1978
3 1856 192 2367
3 1905 241 2129
3 1615 1809 2425
3 528 523 560
3 979 980 989
3 662 2040 2058
3 721 964 965
3 170 171 2216
3 664 799 2040
3 512 511 523
3 1201 1348 2107
3 620 618 858
3 758 289 1978
3 859 858 998
3 424 425 453
3 1616 1615 2193
3 444 301 1975
3 561 560 593
3 965 966 967
3 1798 376 2430
3 340 2014 2091
3 510 465 511
3 107 195 1990
3 1080 1188 2054
3 1153 998 1312
3 1226 1224 1249
3 1012 1011 1363
3 902 904 905
3 842 963 2027
3 268 270 1134
3 865 901 1125
3 2077 558 2102
3 282 284 442
3 1977 1679 2253
3 1496 1498 2047
3 284 286 2063
3 281 736 1938
3 2132 793 2165
3 1674 215 2437
3 2078 1855 2411
3 839 1009 2055
3 1182 824 1183
3 1168 947 1169
3 1289 1871 2242
3 316 285 1971
3 1270 1271 1272
3 1755 1793 2264
3 51 1996 2011
3 383 384 387
3 1146 1924 2215
3 1279 1928 2202
3 619 618 620
3 1194 1196 1197
3 555 578 979
3 1937 1639 2528
3 1262 1257 1263
3 389 384 2339
3 2251 1338 2464
3 1155 1887 2123
3 1151 1937 2528
3 465 463 828
3 1318 1319 2116
3 1687 1688 2231
3 326 954 2050
3 297 318 1984
3 1308 953 2255
3 1846 2056 2198
3 320 315 2229
3 1254 1252 2059
3 760 761 783
3 951 1281 2255
3 1459 1296 2094
3 2288 1638 2470
3 1975 299 1984
3 52 247 1996
3 468 338 2090
3 2140 1511 2506
3 1125 1126 1192
3 593 824 1182
3 720 708 1921
3 704 706 707
3 623 587 624
3 2044 1112 2152
3 1393 1169 1749
3 900 983 2119
3 783 914 938
3 255 2265 2489
3 2039 894 2122
3 317 2050 2127
3 1866 1867 2513
3 374 373 375
3 429 436 455
3 387 388 445
3 1193 423 1194
3 555 577 578
3 1074 977 1187
3 449 567 2052
3 1197 1198 1364
3 2154 1595 2486
3 1486 1849 2173
3 318 295 1983
3 939 1016 1844
3 131 132 2160
3 30 31 2159
3 881 1146 2215
3 1294 1868 2238
3 1300 1455 2314
3 1365 1364 1912
3 783 938 939
3 2061 1735 2441
3 551 545 601
3 2194 216 2536
3 1251 1257 1262
3 888 887 2177
3 1364 1198 2048
3 1498 1682 2340
3 1589 1590 2501
3 60 188 2266
3 1401 1913 2324
3 195 108 1991
3 420 422 423
3 1675 1470 2474
3 258 1673 2183
3 2161 1619 2438
3 1296 1472 2094
3 1808 1910 2381
3 334 803 2090
3 1490 1285 2232
3 523 511 524
3 1240 1238 2074
3 1184 1183 1185
3 39 40 2151
3 473 474 477
3 1461 1463 2200
3 2072 353 2073
3 861 862 863
3 1206 1941 2401
3 958 1575 2287
3 614 611 2092
3 110 111 2140
3 1136 2054 2110
3 645 594 2133
3 260 33 2002
3 673 767 2131
3 989 980 1359
3 1741 2131 2258
3 1317 1875 2148
3 894 1946 2122
3 863 864 865
3 787 461 2052
3 857 2277 2386
3 109 246 1991
3 2017 116 2018
3 1182 1183 1184
3 377 375 378
3 816 925 1324
3 865 866 901
3 1262 1263 1456
3 359 356 2065
3 2129 241 2472
3 283 1938 1971
3 1458 1210 2203
3 1076 1003 2145
3 196 1738 2402
3 1033 1130 1151
3 1188 1121 2106
3 1140 1702 2096
3 549 687 1280
3 1694 1621 2191
3 861 1064 2112
3 1548 1549 2129
3 1784 1071 2462
3 714 716 2066
3 1961 825 2455
3 1447 1211 2250
3 979 578 980
3 905 907 1209
3 381 378 382
3 457 469 552
3 595 575 2032
3 408 413 2084
3 481 483 2144
3 1745 1349 2293
3 1980 1405 2441
3 198 50 2011
3 248 115 2017
3 912 819 2068
3 620 858 859
3 707 708 720
3 821 674 822
3 514 542 2086
3 400 382 401
3 123 2005 2012
3 1772 1351 2374
3 34 239 2002
3 768 314 2127
3 2003 36 2004
3 280 282 2079
3 124 225 2005
3 596 595 2130
3 593 560 824
3 1504 1502 2519
3 239 35 2003
3 1311 1309 2147
3 1318 1877 2240
3 1860 1432 2311
3 1416 1715 2330
3 859 998 1153
3 352 353 2072
3 312 768 1987
3 2027 1174 2152
3 226 38 2006
3 1827 1024 2117
3 1710 1391 2295
3 690 624 691
3 37 226 2004
3 1153 1312 1885
3 853 855 2186
3 1892 242 2373
3 1967 520 2174
3 939 938 1016
3 47 249 2019
3 388 390 2078
3 1991 2139 2517
3 905 906 907
3 571 721 2032
3 1196 423 2035
3 1324 925 1325
3 1151 1130 1937
3 363 352 2072
3 345 349 2076
3 1031 1032 1033
3 214 179 1859
3 211 122 2012
3 602 601 652
3 117 205 2018
3 710 712 2067
3 1602 187 2357
3 520 2000 2174
3 85 242 2335
3 220 84 2335
3 381 400 2113
3 1586 1587 2435
3 424 401 425
3 963 1174 2027
3 860 691 861
3 610 596 2130
3 1958 2078 2431
3 570 547 2056
3 237 2216 2354
3 1211 1692 2219
3 298 358 1997
3 909 947 1041
3 441 456 2097
3 1135 1647 1849
3 1601 1542 2443
3 197 113 2009
3 49 198 2010
3 1911 347 2407
3 1729 191 2309
3 212 41 2020
3 121 211 2013
3 222 105 2218
3 1125 901 1126
3 114 248 2009
3 249 48 2010
3 42 250 2020
3 251 120 2013
3 233 1769 2369
3 1870 647 2113
3 794 345 2076
3 250 43 2024
3 119 251 2021
3 901 902 2141
3 964 570 2056
3 739 335 2261
3 2108 1317 2148
3 577 599 2083
3 205 118 2021
3 44 206 2024
3 1247 1241 2323
3 1894 992 2244
3 6 203 2049
3 1642 1678 2529
3 1417 1873 2333
3 1422 2023 2516
3 341 794 2100
3 73 74 2361
3 1234 1232 2088
3 1261 1254 2059
3 896 1077 2257
3 1921 710 2067
3 125 126 2284
3 220 1699 2289
3 159 5 2304
3 4 184 2303
3 2059 1252 2098
3 1003 1004 2145
3 2328 1325 2451
3 1486 227 1500
3 63 64 2162
3 2081 1192 2260
3 508 500 2102
3 667 1872 2318
3 338 334 2090
3 423 422 2035
3 1192 1126 1471
3 907 908 909
3 1330 1328 2192
3 1972 897 2500
3 2443 316 2514
3 242 86 2373
3 87 193 2373
3 420 1193 2084
3 1473 1086 2358
3 1987 768 2037
3 522 337 2100
3 627 1660 2185
3 1793 446 2264
3 1405 2061 2441
3 1502 1217 2302
3 171 201 2216
3 1158 1993 2153
3 1197 1365 2120
3 1712 1710 2295
3 1121 1401 2414
3 93 94 2166
3 653 652 688
3 622 1716 2452
3 1345 1720 2267
3 477 537 556
3 128 129 2181
3 2331 1295 2458
3 784 645 874
3 1269 1270 2199
3 189 102 2355
3 1041 1168 1343
3 246 110 2140
3 477 525 537
3 755 1895 2371
3 1947 1723 2313
3 1134 1135 2369
3 223 65 2395
3 968 1201 2107
3 1577 1578 2325
3 210 15 2477
3 961 363 2072
3 1581 1579 2352
3 349 357 2076
3 337 341 2100
3 305 303 2317
3 370 367 2103
3 762 296 1997
3 581 580 2164
3 1278 1838 2372
3 1548 2129 2472
3 594 593 2133
3 2021 251 2022
3 2047 1247 2182
3 967 968 2107
3 1169 947 2008
3 481 2144 2169
3 793 614 2092
3 1910 217 2381
3 1251 1262 2098
3 716 788 2066
3 2101 1334 2108
3 2006 39 2151
3 1603 2379 2508
3 1926 2006 2151
3 96 97 2526
3 750 755 2371
3 789 714 2066
3 909 918 947
3 1993 895 2153
3 106 1990 2218
3 1243 1240 2074
3 832 986 1189
3 1283 1284 2342
3 2297 195 2517
3 1043 829 2326
3 767 816 2131
3 602 653 676
3 1004 912 2068
3 2086 1886 2224
3 1124 2177 2467
3 426 401 2531
3 707 720 1030
3 1000 1001 2184
3 1315 1029 2184
3 467 481 2169
3 541 513 2256
3 647 381 2113
3 225 2284 2510
3 2 156 2356
3 187 0 2357
3 40 212 2151
3 2245 1386 2383
3 676 677 829
3 1004 2068 2069
3 1860 232 2487
3 1031 1033 1034
3 829 830 972
3 996 997 2408
3 1195 1194 2120
3 987 1869 2202
3 1410 1213 2222
3 819 820 2068
3 1485 1486 2173
3 1564 2030 2155
3 807 669 2529
3 129 261 2181
3 1525 1076 2145
3 578 577 2083
3 327 310 1987
3 1083 929 2197
3 2131 1324 2258
3 798 408 2084
3 1838 696 2426
3 1486 1500 1930
3 1946 1944 2291
3 2257 1077 2291
3 1512 1661 2266
3 445 388 2078
3 1192 1471 2260
3 2118 1415 2395
3 1466 1468 2158
3 830 677 831
3 211 2012 2251
3 652 601 2442
3 537 545 551
3 558 508 2102
3 198 2011 2128
3 1718 2280 2385
3 500 960 2102
3 1168 1169 1393
3 1127 971 2496
3 95 96 2309
3 2030 1565 2155
3 1919 1172 2273
3 977 860 2112
3 240 128 2181
3 294 762 2038
3 1800 1799 2195
3 712 789 2067
3 972 1749 2326
3 472 1683 2212
3 874 645 2133
3 551 2045 2201
3 2105 1043 2326
3 1957 1212 2301
3 1514 1856 2367
3 565 538 2167
3 373 370 2103
3 355 348 2196
3 1934 1272 2138
3 1934 426 2531
3 1881 1400 2481
3 2046 1851 2327
3 367 961 2103
3 1963 1152 2206
3 201 278 443
3 3 131 2444
3 31 1 2445
3 2035 441 2097
3 503 787 2198
3 1135 1849 1930
3 1534 1983 2306
3 2089 623 2150
3 687 704 2109
3 869 1351 2363
3 1302 1304 2205
3 955 1716 2484
3 1030 720 1031
3 1159 1318 2240
3 1228 1226 2281
3 947 918 2008
3 413 420 2084
3 785 879 2532
3 1041 947 1168
3 1468 2182 2323
3 1246 1234 2088
3 1730 1163 2372
3 542 555 2086
3 1599 631 2312
3 1146 1967 2174
3 1078 1136 2343
3 1515 1574 2180
3 2336 885 2469
3 1257 1243 2074
3 1347 1346 2279
3 2001 650 2206
3 1480 1601 2514
3 1029 1000 2184
3 1956 788 2336
3 1271 1261 2059
3 130 3 2444
3 1 32 2445
3 1570 1507 2197
3 1232 1255 2088
3 791 1642 2529
3 1601 1479 2269
3 1361 1362 2168
3 1634 1922 2281
3 765 2065 2190
3 2071 1158 2153
3 1699 1801 2289
3 832 831 833
3 1864 346 2344
3 456 476 2097
3 1855 828 2411
3 2065 1162 2190
3 1125 1192 2149
3 599 760 2083
3 361 765 2339
3 1731 2123 2241
3 1349 1181 1350
3 1443 1275 2251
3 1819 524 2429
3 1021 1045 2512
3 858 618 2132
3 1999 358 2338
3 368 292 2038
3 290 368 2135
3 803 331 2296
3 1112 1008 2152
3 56 1947 2313
3 555 979 2086
3 1469 1496 2182
3 1011 967 2107
3 248 2017 2288
3 1809 789 2425
3 960 453 2221
3 538 558 2167
3 1858 1187 2248
3 2246 1757 2526
3 902 905 2141
3 1851 1853 2327
3 1224 1222 2111
3 771 288 2135
3 1945 2153 2257
3 1420 1525 2489
3 1399 1123 2393
3 103 2025 2355
3 897 822 898
3 1861 940 2532
3 865 1125 2146
3 1675 2474 2522
3 1573 2157 2507
3 1632 1631 2382
3 551 601 602
3 527 503 2198
3 1708 805 2337
3 1059 1278 2372
3 2056 527 2198
3 860 861 2112
3 1668 2348 2398
3 255 2159 2265
3 1541 1542 2269
3 1428 2074 2227
3 1582 1583 2321
3 389 1774 2503
3 2004 226 2157
3 1777 397 2405
3 1368 1436 2254
3 1061 2409 2462
3 1071 930 2462
3 1126 901 2141
3 1194 1197 2120
3 1452 1952 2282
3 2116 1319 2482
3 105 106 2218
3 1981 1399 2393
3 2119 983 2143
3 444 1682 2461
3 2173 1648 2463
3 616 793 2132
3 1791 1190 2334
3 1826 1728 2259
3 602 652 653
3 1834 1292 2428
3 556 2201 2327
3 1014 1015 2385
3 1995 1287 2331
3 1193 1195 2189
3 816 1324 2131
3 879 1861 2532
3 593 1182 2133
3 1402 266 1742
3 2216 1323 2354
3 1660 1636 2502
3 620 955 2484
3 1162 1706 2190
3 1870 2113 2249
3 204 1680 1732
3 1909 2023 2420
3 217 72 2217
3 376 372 2430
3 905 1209 2141
3 1378 1381 2283
3 1236 1246 2227
3 286 771 2063
3 1635 2263 2502
3 100 101 2220
3 1139 898 1140
3 2114 1343 2136
3 442 284 2063
3 1772 2106 2414
3 1985 1755 2533
3 2192 1328 2315
3 1064 863 2146
3 1631 1637 2459
3 736 2049 2523
3 221 1906 2246
3 318 1983 2171
3 1496 2047 2182
3 1374 2139 2506
3 196 55 2313
3 2087 462 2134
3 676 653 677
3 2304 257 2491
3 1401 2324 2363
3 829 677 830
3 654 2223 2242
3 1187 977 2112
3 1463 1466 2200
3 2023 219 2516
3 1176 881 2215
3 513 471 2290
3 1812 459 2252
3 1386 1269 2199
3 291 758 2306
3 618 616 2132
3 278 280 2210
3 83 220 2289
3 82 83 2289
3 938 1057 2161
3 1189 986 1190
3 788 719 2336
3 1914 2001 2206
3 232 181 1652
3 1567 2062 2490
3 313 757 2495
3 622 619 2484
3 688 878 1320
3 1222 1626 2111
3 282 442 2079
3 1169 2008 2105
3 1966 1007 2308
3 2040 799 2237
3 1744 2229 2495
3 986 833 1063
3 2284 1605 2510
3 887 1961 2376
3 215 1624 2262
3 830 831 832
3 476 475 2224
3 439 451 2223
3 1932 1933 2380
3 2227 1246 2366
3 1212 1202 2301
3 1107 1110 2228
3 249 2010 2299
3 1983 293 2306
3 2055 1214 2237
3 1438 1372 2478
3 824 560 2156
3 2320 1866 2513
3 1351 1137 2374
3 868 2007 2232
3 2063 771 2064
3 1507 214 1508
3 1728 1727 2246
3 1045 1047 2348
3 1139 1140 2096
3 1648 1649 2463
3 1502 2302 2519
3 704 707 2109
3 2343 1136 2396
3 650 1963 2206
3 2153 895 2257
3 396 1958 2431
3 1379 1377 2288
3 2115 1471 2319
3 2033 987 2202
3 2239 1693 2518
3 2025 1488 2355
3 1209 2115 2319
3 523 524 2156
3 783 939 2243
3 376 1798 2497
3 2066 788 2193
3 1984 318 2172
3 425 427 2221
3 203 172 1847
3 446 457 2264
3 1312 2089 2150
3 2138 1272 2211
3 897 1139 2274
3 828 1819 2429
3 1249 1224 2111
3 666 667 2318
3 1371 1326 2194
3 2433 1499 2475
3 1272 1271 2211
3 1367 2254 2479
3 1386 2053 2383
3 2074 1238 2227
3 755 2148 2320
3 2117 1604 2428
3 475 514 2224
3 228 2187 2457
3 1868 1504 2520
3 1626 1218 2185
3 2123 1111 2241
3 1287 1049 2331
3 1280 687 2109
3 459 1814 2292
3 54 196 2402
3 863 865 2146
3 204 176 1680
3 514 2086 2224
3 1646 603 2398
3 112 197 2346
3 358 300 2338
3 1140 898 1141
3 1204 1335 2301
3 1016 2161 2438
3 909 1041 2175
3 1681 2448 2492
3 2252 459 2292
3 1992 868 2232
3 1035 1036 2235
3 1051 1295 2331
3 1836 1289 2242
3 1508 214 1859
3 247 53 2402
3 1016 938 2161
3 1408 856 2378
3 1466 2158 2200
3 725 885 2336
3 855 1450 2421
3 2023 1768 2420
3 1238 1236 2227
3 1679 202 2253
3 2107 1348 2233
3 1653 1431 2487
3 1946 2291 2343
3 2253 202 2329
3 1885 1312 2150
3 378 628 2390
3 2195 1383 2432
3 1520 1519 2480
3 1532 1733 2534
3 308 327 2278
3 953 951 2255
3 1213 1407 2222
3 1561 1563 2285
3 302 763 2338
3 1928 2033 2202
3 763 304 2345
3 832 833 986
3 1352 2040 2237
3 247 1881 2481
3 560 523 2156
3 335 339 2261
3 346 342 2344
3 201 443 1323
3 2301 1335 2466
3 323 320 2229
3 1136 2110 2396
3 1139 1977 2274
3 1809 1615 2423
3 1707 1791 2334
3 46 2019 2485
3 2064 1294 2238
3 1950 197 2404
3 2021 2022 2176
3 1949 245 2420
3 2044 2152 2207
3 1063 1154 1707
3 1012 1363 2406
3 280 2079 2210
3 2237 1214 2351
3 820 698 2318
3 1140 1141 1406
3 205 2021 2176
3 2043 786 2310
3 2145 1004 2446
3 707 1030 2109
3 1406 2460 2473
3 2137 1268 2226
3 16 2081 2260
3 567 2031 2219
3 2112 1064 2248
3 206 45 2485
3 2347 1462 2365
3 1650 1962 2362
3 453 425 2221
3 1209 907 2175
3 1111 1276 2241
3 2448 1145 2492
3 2051 2083 2243
3 59 60 2266
3 1402 1742 2530
3 831 677 2209
3 624 587 2276
3 238 174 1725
3 1011 2107 2233
3 468 2365 2412
3 2337 805 2371
3 254 1932 2380
3 1174 1398 2207
3 2140 111 2346
3 1381 2186 2283
3 1987 2037 2188
3 1740 559 2456
3 1773 391 2503
3 1335 1870 2249
3 1945 2257 2291
3 828 463 2411
3 1246 2088 2208
3 2060 798 2307
3 1773 1159 2240
3 1187 2112 2248
3 1352 2237 2351
3 2037 1322 2188
3 1941 1499 2433
3 2322 225 2510
3 1031 1034 2236
3 327 2188 2321
3 595 2032 2273
3 1464 1462 2347
3 1285 1992 2232
3 799 2055 2237
3 443 278 2210
3 784 874 2178
3 392 396 2431
3 191 95 2309
3 879 784 2178
3 524 511 2429
3 2128 2011 2270
3 895 896 2257
3 2206 1152 2324
3 318 2171 2172
3 2259 1549 2379
3 1214 1410 2351
3 306 308 2278
3 2022 251 2247
3 1757 1729 2309
3 1283 1918 2524
3 996 1706 2492
3 557 2044 2207
3 1798 1448 2364
3 1447 2250 2310
3 559 1750 2403
3 1363 1011 2233
3 1343 1168 2187
3 1407 2044 2256
3 1462 1460 2365
3 1995 2331 2458
3 327 1987 2188
3 2160 254 2380
3 1681 958 2287
3 2031 1160 2250
3 1600 689 2413
3 2219 1692 2239
3 1494 1675 2522
3 1281 1916 2448
3 907 909 2175
3 565 2167 2276
3 2241 1276 2275
3 1978 316 2443
3 2151 212 2350
3 203 1847 2104
3 2049 1481 2523
3 1961 1362 2376
3 2187 1393 2457
3 940 796 2532
3 2293 1349 2329
3 572 1897 2537
3 332 739 2282
3 2052 567 2239
3 1437 1370 2277
3 567 2219 2239
3 667 626 2452
3 1914 2206 2324
3 2243 939 2392
3 2136 1343 2187
3 257 1654 2530
3 1376 1378 2283
3 2076 1982 2272
3 2083 760 2243
3 1944 1945 2291
3 1771 1839 2359
3 1404 1403 2399
3 1875 1866 2320
3 1460 1337 2412
3 760 783 2243
3 1276 1366 2275
3 1428 2227 2366
3 1882 1605 2284
3 1739 1429 2459
3 2321 2188 2434
3 1328 1327 2315
3 798 2189 2307
3 2152 1174 2207
3 2182 1247 2323
3 1516 1514 2367
3 293 291 2306
3 556 537 2201
3 1298 1300 2314
3 1400 1399 2316
3 1649 2236 2463
3 833 831 2424
3 2127 2050 2333
3 1057 914 2328
3 1839 193 2359
3 761 1741 2258
3 1186 1970 2422
3 1429 2366 2382
3 2211 1271 2271
3 1733 1248 2534
3 13 2114 2136
3 2078 390 2431
3 1533 1536 2340
3 1690 2145 2446
3 1277 2308 2370
3 1168 1393 2187
3 1597 2047 2268
3 587 565 2276
3 1908 244 2401
3 225 125 2284
3 610 2130 2468
3 1749 2105 2326
3 1913 1914 2324
3 2366 2208 2382
3 1391 1876 2295
3 457 552 2264
3 653 688 2209
3 1601 2443 2514
3 682 2138 2211
3 992 1980 2244
3 55 56 2313
3 1645 1495 2493
3 473 477 2483
3 202 1724 2329
3 465 828 2429
3 1277 1966 2308
3 1416 2330 2406
3 1912 1364 2455
3 1716 1483 2375
3 2019 1651 2485
3 1725 2137 2226
3 201 1323 2216
3 878 1083 2213
3 2072 2073 2245
3 1563 1777 2405
3 244 2028 2401
3 2016 1564 2422
3 1682 1497 2461
3 1962 1153 2362
3 1298 2314 2358
3 1384 1385 2391
3 688 1320 2209
3 1587 2179 2435
3 786 380 2497
3 1395 1522 2341
3 2032 1919 2273
3 251 2013 2247
3 2219 2031 2250
3 2397 552 2453
3 1765 255 2489
3 2475 1825 2524
3 1202 1204 2301
3 445 2078 2411
3 323 2229 2296
3 1286 2384 2408
3 537 551 2201
3 1724 237 2293
3 84 85 2335
3 1471 1126 2319
3 1635 1634 2511
3 300 302 2338
3 698 666 2318
3 1030 1031 2236
3 2098 1457 2271
3 696 1821 2426
3 1457 1492 2447
3 1956 2336 2469
3 331 323 2296
3 1284 1491 2342
3 2011 1996 2270
3 256 183 2303
3 160 257 2304
3 2204 1589 2501
3 1891 1014 2280
3 719 725 2336
3 1354 1808 2381
3 437 430 2494
3 2377 218 2391
3 2211 2271 2447
3 1407 2256 2290
3 2365 1460 2412
3 2047 1498 2268
3 1825 1283 2524
3 1499 1825 2475
3 1226 1249 2281
3 2051 2243 2392
3 2250 1160 2310
3 111 112 2346
3 304 306 2345
3 1341 1352 2351
3 2166 191 2504
3 2223 1836 2242
3 1996 247 2481
3 1049 1051 2331
3 1086 1298 2358
3 2130 595 2273
3 1249 2111 2263
3 680 1995 2458
3 1511 2140 2346
3 102 103 2355
3 469 473 2453
3 961 2072 2245
3 2073 1282 2245
3 1442 1443 2525
3 74 192 2361
3 2163 1586 2435
3 1519 1518 2449
3 897 2274 2500
3 303 444 2317
3 1615 1614 2423
3 197 2009 2404
3 1634 2281 2511
3 1780 1781 2419
3 1435 1623 2465
3 1286 1774 2384
3 384 361 2339
3 193 1901 2359
3 1165 2433 2475
3 2277 1370 2386
3 677 653 2209
3 1994 1516 2367
3 1479 1478 2440
3 1165 1512 2433
3 1644 1353 2417
3 1711 1712 2353
3 2193 1615 2425
3 1613 1956 2469
3 1440 1173 2330
3 2269 1479 2440
3 222 2218 2465
3 391 389 2503
3 306 2278 2345
3 468 2090 2365
3 221 2246 2526
3 1445 1446 2504
3 939 1844 2392
3 86 87 2373
3 1429 1428 2366
3 2053 2103 2383
3 1348 1212 2312
3 805 750 2371
3 997 1286 2408
3 1152 869 2363
3 2063 2064 2238
3 192 1994 2367
3 1160 2043 2310
3 1926 2151 2350
3 2059 2098 2271
3 1897 1366 2537
3 215 2262 2437
3 1655 1732 2476
3 2415 1128 2454
3 1320 2213 2214
3 7 258 2357
3 259 155 2356
3 2171 1530 2172
3 347 351 2407
3 1077 1078 2343
3 239 2003 2279
3 1446 1128 2415
3 1034 1033 2410
3 601 627 2442
3 1154 1653 2234
3 397 2060 2405
3 2142 794 2272
3 442 2063 2238
3 1863 1215 2378
3 794 2076 2272
3 1883 1375 2505
3 1320 878 2213
3 342 468 2344
3 1903 218 2377
3 380 376 2497
3 1549 1547 2379
3 1148 1165 2475
3 2157 226 2507
3 829 972 2326
3 884 1957 2466
3 2291 1077 2343
3 65 66 2395
3 787 2052 2518
3 2298 1348 2312
3 1946 2343 2396
3 1653 256 2535
3 1842 1548 2472
3 1957 2301 2466
3 1366 1277 2370
3 2213 1432 2214
3 961 2245 2383
3 218 2093 2391
3 1376 2283 2421
3 1873 2127 2333
3 1019 1021 2512
3 1128 1127 2454
3 1104 1434 2450
3 2130 1439 2468
3 2396 2110 2482
3 2186 855 2283
3 1724 2293 2329
3 1163 1059 2372
3 1614 2389 2423
3 53 54 2402
3 1063 1707 2334
3 2283 855 2421
3 1385 1863 2436
3 364 1883 2505
3 517 1890 2387
3 1145 996 2492
3 1047 1287 2348
3 2148 1875 2320
3 205 2176 2416
3 1372 1844 2478
3 1211 2219 2250
3 1141 898 2368
3 245 1909 2420
3 2278 327 2321
3 2389 1397 2423
3 2256 513 2290
3 559 2403 2456
3 1137 1340 2374
3 2093 1384 2391
3 1918 1148 2524
3 1030 2236 2427
3 1867 1895 2513
3 2014 517 2387
3 2271 1457 2447
3 1143 2028 2353
3 1904 194 2432
3 1148 2475 2524
3 1574 1523 2436
3 2213 1083 2311
3 1997 358 2325
3 2139 246 2506
3 1370 1369 2386
3 1271 2059 2271
3 1034 2173 2463
3 1123 1412 2393
3 1578 1827 2515
3 2209 1320 2424
3 2079 1504 2210
3 1361 2168 2305
3 1491 1489 2403
3 238 1725 2226
3 1190 986 2334
3 1547 1545 2508
3 1891 1613 2469
3 1153 1885 2362
3 2208 1632 2382
3 2287 1281 2448
3 1356 1376 2421
3 1965 2349 2515
3 2155 1186 2422
3 1522 2014 2387
3 2158 1468 2323
3 2050 954 2333
3 1397 1809 2423
3 1362 1360 2376
3 1852 1985 2397
3 2069 1691 2446
3 789 2066 2425
3 1895 755 2513
3 1707 1154 2234
3 372 374 2430
3 2225 787 2518
3 2028 1206 2401
3 986 1063 2334
3 1912 726 2439
3 1340 1342 2400
3 1916 1145 2448
3 2236 1649 2427
3 2374 1340 2400
3 2222 1407 2290
3 2324 1152 2363
3 241 2220 2472
3 765 2190 2384
3 2375 667 2452
3 2330 1173 2406
3 1181 1972 2500
3 2126 1382 2388
3 1173 1012 2406
3 315 313 2495
3 1015 1373 2385
3 97 221 2526
3 1937 1397 2389
3 930 1061 2462
3 971 1096 2496
3 45 46 2485
3 669 791 2529
3 1104 2450 2521
3 382 378 2390
3 2191 1371 2536
3 2235 1036 2286
3 831 2209 2424
3 762 1997 2349
3 2379 1547 2508
3 2177 1359 2467
3 2403 1489 2456
3 796 785 2532
3 219 1902 2516
3 1519 2300 2480
3 1065 1655 2476
3 1375 1473 2505
3 1489 1490 2456
3 390 392 2431
3 2247 2013 2464
3 1135 1930 2369
3 2278 1583 2345
3 626 622 2452
3 631 2298 2312
3 2233 1348 2298
3 1398 1974 2499
3 1706 1681 2492
3 261 130 2444
3 32 260 2445
3 822 2099 2368
3 1365 1912 2439
3 941 940 2418
3 1446 2166 2504
3 2106 1121 2414
3 2300 1519 2449
3 1803 1104 2521
3 1732 1570 2476
3 1413 2051 2392
3 2122 1946 2396
3 2238 1868 2520
3 477 556 2483
3 2397 1985 2533
3 463 445 2411
3 2163 1185 2488
3 1126 2141 2319
3 1755 2264 2533
3 972 2204 2501
3 2230 1533 2340
3 1774 1773 2503
3 1997 2325 2349
3 1004 2069 2446
3 2159 31 2445
3 131 2160 2444
3 1371 2191 2451
3 1001 2154 2486
3 1682 2230 2340
3 2103 961 2383
3 1033 1151 2410
3 382 2390 2531
3 1504 2079 2520
3 1583 2278 2321
3 511 465 2429
3 250 2024 2479
3 2208 2088 2509
3 619 620 2484
3 1246 2208 2366
3 2141 1209 2319
3 1359 1413 2467
3 1295 1459 2458
3 2218 1435 2465
3 2281 1249 2511
3 2293 237 2354
3 2207 1398 2499
3 1564 2155 2422
3 552 469 2453
3 1947 224 2498
3 2062 1568 2490
3 2018 205 2416
3 260 2159 2445
3 2160 261 2444
3 2092 610 2468
3 194 2195 2432
3 1432 2213 2311
3 211 2251 2464
3 2378 856 2527
3 1536 1532 2534
3 2364 786 2497
3 2438 1438 2478
3 1185 1948 2488
3 2042 941 2418
3 1582 2321 2434
3 885 1891 2469
3 1364 2048 2455
3 1693 2225 2518
3 401 382 2531
3 1338 2247 2464
3 442 2238 2520
3 1292 2117 2428
3 2274 1350 2500
3 2066 2193 2425
3 2179 1184 2435
3 898 822 2368
3 2436 1863 2527
3 1844 1016 2478
3 2184 1001 2486
3 557 2207 2499
3 2013 211 2464
3 2254 250 2479
3 1350 1181 2500
3 2009 248 2470
3 246 2140 2506
3 1574 2436 2527
3 2139 1419 2517
3 316 1971 2514
3 1319 2122 2482
3 226 2006 2507
3 1400 2270 2481
3 1681 2287 2448
3 2325 1578 2349
3 232 1652 2487
3 1320 2214 2424
3 1632 2208 2509
3 248 2288 2470
3 1406 1141 2460
3 2188 1322 2434
3 2244 1980 2441
3 2088 1255 2509
3 1280 2109 2427
3 2060 2307 2405
3 2236 1034 2463
3 1745 2293 2354
3 2122 2396 2482
3 2109 1030 2427
3 2307 1563 2405
3 1429 2382 2459
3 224 2267 2498
3 682 2211 2447
3 2079 442 2520
3 2348 1287 2398
3 2220 1842 2472
3 1335 2249 2466
3 1249 2263 2511
3 443 2210 2519
3 2385 1373 2394
3 1594 2184 2486
3 2052 2239 2518
3 1568 2439 2490
3 2349 1578 2515
3 2344 468 2412
3 2270 1996 2481
3 1735 2244 2441
3 2260 1471 2477
3 2210 1504 2519
3 1434 2297 2450
3 2297 1419 2450
3 2263 1660 2502
3 2404 2009 2470
3 1718 2385 2394
3 1371 2194 2536
3 2317 444 2461
3 1443 2322 2525
3 1716 2375 2452
3 1863 2378 2527
3 2439 726 2490
3 1057 2328 2451
3 1638 2404 2470
3 1454 2234 2535
3 755 2320 2513
3 2234 1653 2535
3 2264 552 2533
3 1419 2297 2517
3 1392 2322 2510
3 552 2397 2533
3 1798 2364 2497
3 2322 1392 2525
3 2382 1631 2459
3 1016 2438 2478
3 1366 2370 2537
3 1742 2491 2530
3 2491 257 2530
CELL_TYPES 4886
5
5
5
5
5
5
5
5
5
5
5
5
5
5
5
5
5
5
5
5
5
5
5
5
5
5
5
5
5
5
5
5
5
5
5
5
5
5
5
5
5
5
5
5
5
5
5
5
5
5
5
5
5
5
5
5
5
5
5
5
5
5
5
5
5
5
5
5
5
5
5
5
5
5
5
5
5
5
5
5
5
5
5
5
5
5
5
5
5
5
5
5
5
5
5
5
5
5
5
5
5
5
5
5
5
5
5
5
5
5
5
5
5
5
5
5
5
5
5
5
5
5
5
5
5
5
5
5
5
5
5
5
5
5
5
5
5
5
5
5
5
5
5
5
5
5
5
5
5
5
5
5
5
5
5
5
5
5
5
5
5
5
5
5
5
5
5
5
5
5
5
5
5
5
5
5
5
5
5
5
5
5
5
5
5
5
5
5
5
5
5
5
5
5
5
5
5
5
5
5
5
5
5
5
5
5
5
5
5
5
5
5
5
5
5
5
5
5
5
5
5
5
5
5
5
5
5
5
5
5
5
5
5
5
5
5
5
5
5
5
5
5
5
5
5
5
5
5
5
5
5
5
5
5
5
5
5
5
5
5
5
5
5
5
5
5
5
5
5
5
5
5
5
5
5
5
5
5
5
5
5
5
5
5
5
5
5
5
5
5
5
5
5
5
5
5
5
5
5
5
5
5
5
5
5
5
5
5
5
5
5
5
5
5
5
5
5
5
5
5
5
5
5
5
5
5
5
5
5
5
5
5
5
5
5
5
5
5
5
5
5
5
5
5
5
5
5
5
5
5
5
5
5
5
5
5
5
5
5
5
5
5
5
5
5
5
5
5
5
5
5
5
5
5
5
5
5
5
5
5
5
5
5
5
5
5
5
5
5
5
5
5
5
5
5
5
5
5
5
5
5
5
5
5
5
5
5
5
5
5
5
5
5
5
5
5
5
5
5
5
5
5
5
5
5
5
5
5
5
5
5
5
5
5
5
5
5
5
5
5
5
5
5
5
5
5
5
5
5
5
5
5
5
5
5
5
5
5
5
5
5
5
5
5
5
5
5
5
5
5
5
5
5
5
5
5
5
5
5
5
5
5
5
5
5
5
5
5
5
5
5
5
5
5
5
5
5
5
5
5
5
5
5
5
5
5
5
5
5
5
5
5
5
5
5
5
5
5
5
5
5
5
5
5
5
5
5
5
5
5
5
5
5
5
5
5
5
5
5
5
5
5
5
5
5
5
5
5
5
5
5
5
5
5
5
5
5
5
5
5
5
5
5
5
5
5
5
5
5
5
5
5
5
5
5
5
5
5
5
5
5
5
5
5
5
5
5
5
5
5
5
5
5
5
5
5
5
5
5
5
5
5
5
5
5
5
5
5
5
5
5
5
5
5
5
5
5
5
5
5
5
5
5
5
5
5
5
5
5
5
5
5
5
5
5
5
5
5
5
5
5
5
5
5
5
5
5
5
5
5
5
5
5
5
5
5
5
5
5
5
5
5
5
5
5
5
5
5
5
5
5
5
5
5
5
5
5
5
5
5
5
5
5
5
5
5
5
5
5
5
5
5
5
5
5
5
5
5
5
5
5
5
5
5
5
5
5
5
5
5
5
5
5
5
5
5
5
5
5
5
5
5
5
5
5
5
5
5
5
5
5
5
5
5
5
5
5
5
5
5
5
5
5
5
5
5
5
5
5
5
5
5
5
5
5
5
5
5
5
5
5
5
5
5
5
5
5
5
5
5
5
5
5
5
5
5
5
5
5
5
5
5
5
5
5
5
5
5
5
5
5
5
5
5
5
5
5
5
5
5
5
5
5
5
5
5
5
5
5
5
5
5
5
5
5
5
5
5
5
5
5
5
5
5
5
5
5
5
5
5
5
5
5
5
5
5
5
5
5
5
5
5
5
5
5
5
5
5
5
5
5
5
5
5
5
5
5
5
5
5
5
5
5
5
5
5
5
5
5
5
5
5
5
5
5
5
5
5
5
5
5
5
5
5
5
5
5
5
5
5
5
5
5
5
5
5
5
5
5
5
5
5
5
5
5
5
5
5
5
5
5
5
5
5
5
5
5
5
5
5
5
5
5
5
5
5
5
5
5
5
5
5
5
5
5
5
5
5
5
5
5
5
5
5
5
5
5
5
5
5
5
5
5
5
5
5
5
5
5
5
5
5
5
5
5
5
5
5
5
5
5
5
5
5
5
5
5
5
5
5
5
5
5
5
5
5
5
5
5
5
5
5
5
5
5
5
5
5
5
5
5
5
5
5
5
5
5
5
5
5
5
5
5
5
5
5
5
5
5
5
5
5
5
5
5
5
5
5
5
5
5
5
5
5
5
5
5
5
5
5
5
5
5
5
5
5
5
5
5
5
5
5
5
5
5
5
5
5
5
5
5
5
5
5
5
5
5
5
5
5
5
5
5
5
5
5
5
5
5
5
5
5
5
5
5
5
5
5
5
5
5
5
5
5
5
5
5
5
5
5
5
5
5
5
5
5
5
5
5
5
5
5
5
5
5
5
5
5
5
5
5
5
5
5
5
5
5
5
5
5
5
5
5
5
5
5
5
5
5
5
5
5
5
5
5
5
5
5
5
5
5
5
5
5
5
5
5
5
5
5
5
5
5
5
5
5
5
5
5
5
5
5
5
5
5
5
5
5
5
5
5
5
5
5
5
5
5
5
5
5
5
5
5
5
5
5
5
5
5
5
5
5
5
5
5
5
5
5
5
5
5
5
5
5
5
5
5
5
5
5
5
5
5
5
5
5
5
5
5
5
5
5
5
5
5
5
5
5
5
5
5
5
5
5
5
5
5
5
5
5
5
5
5
5
5
5
5
5
5
5
5
5
5
5
5
5
5
5
5
5
5
5
5
5
5
5
5
5
5
5
5
5
5
5
5
5
5
5
5
5
5
5
5
5
5
5
5
5
5
5
5
5
5
5
5
5
5
5
5
5
5
5
5
5
5
5
5
5
5
5
5
5
5
5
5
5
5
5
5
5
5
5
5
5
5
5
5
5
5
5
5
5
5
5
5
5
5
5
5
5
5
5
5
5
5
5
5
5
5
5
5
5
5
5
5
5
5
5
5
5
5
5
5
5
5
5
5
5
5
5
5
5
5
5
5
5
5
5
5
5
5
5
5
5
5
5
5
5
5
5
5
5
5
5
5
5
5
5
5
5
5
5
5
5
5
5
5
5
5
5
5
5
5
5
5
5
5
5
5
5
5
5
5
5
5
5
5
5
5
5
5
5
5
5
5
5
5
5
5
5
5
5
5
5
5
5
5
5
5
5
5
5
5
5
5
5
5
5
5
5
5
5
5
5
5
5
5
5
5
5
5
5
5
5
5
5
5
5
5
5
5
5
5
5
5
5
5
5
5
5
5
5
5
5
5
5
5
5
5
5
5
5
5
5
5
5
5
5
5
5
5
5
5
5
5
5
5
5
5
5
5
5
5
5
5
5
5
5
5
5
5
5
5
5
5
5
5
5
5
5
5
5
5
5
5
5
5
5
5
5
5
5
5
5
5
5
5
5
5
5
5
5
5
5
5
5
5
5
5
5
5
5
5
5
5
5
5
5
5
5
5
5
5
5
5
5
5
5
5
5
5
5
5
5
5
5
5
5
5
5
5
5
5
5
5
5
5
5
5
5
5
5
5
5
5
5
5
5
5
5
5
5
5
5
5
5
5
5
5
5
5
5
5
5
5
5
5
5
5
5
5
5
5
5
5
5
5
5
5
5
5
5
5
5
5
5
5
5
5
5
5
5
5
5
5
5
5
5
5
5
5
5
5
5
5
5
5
5
5
5
5
5
5
5
5
5
5
5
5
5
5
5
5
5
5
5
5
5
5
5
5
5
5
5
5
5
5
5
5
5
5
5
5
5
5
5
5
5
5
5
5
5
5
5
5
5
5
5
5
5
5
5
5
5
5
5
5
5
5
5
5
5
5
5
5
5
5
5
5
5
5
5
5
5
5
5
5
5
5
5
5
5
5
5
5
5
5
5
5
5
5
5
5
5
5
5
5
5
5
5
5
5
5
5
5
5
5
5
5
5
5
5
5
5
5
5
5
5
5
5
5
5
5
5
5
5
5
5
5
5
5
5
5
5
5
5
5
5
5
5
5
5
5
5
5
5
5
5
5
5
5
5
5
5
5
5
5
5
5
5
5
5
5
5
5
5
5
5
5
5
5
5
5
5
5
5
5
5
5
5
5
5
5
5
5
5
5
5
5
5
5
5
5
5
5
5
5
5
5
5
5
5
5
5
5
5
5
5
5
5
5
5
5
5
5
5
5
5
5
5
5
5
5
5
5
5
5
5
5
5
5
5
5
5
5
5
5
5
5
5
5
5
5
5
5
5
5
5
5
5
5
5
5
5
5
5
5
5
5
5
5
5
5
5
5
5
5
5
5
5
5
5
5
5
5
5
5
5
5
5
5
5
5
5
5
5
5
5
5
5
5
5
5
5
5
5
5
5
5
5
5
5
5
5
5
5
5
5
5
5
5
5
5
5
5
5
5
5
5
5
5
5
5
5
5
5
5
5
5
5
5
5
5
5
5
5
5
5
5
5
5
5
5
5
5
5
5
5
5
5
5
5
5
5
5
5
5
5
5
5
5
5
5
5
5
5
5
5
5
5
5
5
5
5
5
5
5
5
5
5
5
5
5
5
5
5
5
5
5
5
5
5
5
5
5
5
5
5
5
5
5
5
5
5
5
5
5
5
5
5
5
5
5
5
5
5
5
5
5
5
5
5
5
5
5
5
5
5
5
5
5
5
5
5
5
5
5
5
5
5
5
5
5
5
5
5
5
5
5
5
5
5
5
5
5
5
5
5
5
5
5
5
5
5
5
5
5
5
5
5
5
5
5
5
5
5
5
5
5
5
5
5
5
5
5
5
5
5
5
5
5
5
5
5
5
5
5
5
5
5
5
5
5
5
5
5
5
5
5
5
5
5
5
5
5
5
5
5
5
5
5
5
5
5
5
5
5
5
5
5
5
5
5
5
5
5
5
5
5
5
5
5
5
5
5
5
5
5
5
5
5
5
5
5
5
5
5
5
5
5
5
5
5
5
5
5
5
5
5
5
5
5
5
5
5
5
5
5
5
5
5
5
5
5
5
5
5
5
5
5
5
5
5
5
5
5
5
5
5
5
5
5
5
5
5
5
5
5
5
5
5
5
5
5
5
5
5
5
5
5
5
5
5
5
5
5
5
5
5
5
5
5
5
5
5
5
5
5
5
5
5
5
5
5
5
5
5
5
5
5
5
5
5
5
5
5
5
5
5
5
5
5
5
5
5
5
5
5
5
5
5
5
5
5
5
5
5
5
5
5
5
5
5
5
5
5
5
5
5
5
5
5
5
5
5
5
5
5
5
5
5
5
5
5
5
5
5
5
5
5
5
5
5
5
5
5
5
5
5
5
5
5
5
5
5
5
5
5
5
5
5
5
5
5
5
5
5
5
5
5
5
5
5
5
5
5
5
5
5
5
5
5
5
5
5
5
5
5
5
5
5
5
5
5
5
5
5
5
5
5
5
5
5
5
5
5
5
5
5
5
5
5
5
5
5
5
5
5
5
5
5
5
5
5
5
5
5
5
5
5
5
5
5
5
5
5
5
5
5
5
5
5
5
5
5
5
5
5
5
5
5
5
5
5
5
5
5
5
5
5
5
5
5
5
5
5
5
5
5
5
5
5
5
5
5
5
5
5
5
5
5
5
5
5
5
5
5
5
5
5
5
5
5
5
5
5
5
5
5
5
5
5
5
5
5
5
5
5
5
5
5
5
5
5
5
5
5
5
5
5
5
5
5
5
5
5
5
5
5
5
5
5
5
5
5
5
5
5
5
5
5
5
5
5
5
5
5
5
5
5
5
5
5
5
5
5
5
5
5
5
5
5
5
5
5
5
5
5
5
5
5
5
5
5
5
5
5
5
5
5
5
5
5
5
5
5
5
5
5
5
5
5
5
5
5
5
5
5
5
5
5
5
5
5
5
5
5
5
5
5
5
5
5
5
5
5
5
5
5
5
5
5
5
5
5
5
5
5
5
5
5
5
5
5
5
5
5
5
5
5
5
5
5
5
5
5
5
5
5
5
5
5
5
5
5
5
5
5
5
5
5
5
5
5
5
5
5
5
5
5
5
5
5
5
5
5
5
5
5
5
5
5
5
5
5
5
5
5
5
5
5
5
5
5
5
5
5
5
5
5
5
5
5
5
5
5
5
5
5
5
5
5
5
5
5
5
5
5
5
5
5
5
5
5
5
5
5
5
5
5
5
5
5
5
5
5
5
5
5
5
5
5
5
5
5
5
5
5
5
5
5
5
5
5
5
5
5
5
5
5
5
5
5
5
5
5
5
5
5
5
5
5
5
5
5
5
5
5
5
5
5
5
5
5
5
5
5
5
5
5
5
5
5
5
5
5
5
5
5
5
5
5
5
5
5
5
5
5
5
5
5
5
5
5
5
5
5
5
5
5
5
5
5
5
5
5
5
5
5
5
5
5
5
5
5
5
5
5
5
5
5
5
5
5
5
5
5
5
5
5
5
5
5
5
5
5
5
5
5
5
5
5
5
5
5
5
5
5
5
5
5
5
5
5
5
5
5
5
5
5
5
5
5
5
5
5
5
5
5
5
5
5
5
5
5
5
5
5
5
5
5
5
5
5
5
5
5
5
5
5
5
5
5
5
5
5
5
5
5
5
5
5
5
5
5
5
5
5
5
5
5
5
5
5
5
5
5
5
5
5
5
5
5
5
5
5
5
5
5
5
5
5
5
5
5
5
5
5
5
5
5
5
5
5
5
5
5
5
5
5
5
5
5
5
5
5
5
5
5
5
5
5
5
5
5
5
5
5
5
5
5
5
5
5
5
5
5
5
5
5
5
5
5
5
5
5
5
5
5
5
5
5
5
5
5
5
5
5
5
5
5
5
5
5
5
5
5
5
5
5
5
5
5
5
5
5
5
5
5
5
5
5
5
5
5
5
5
5
5
5
5
5
5
5
5
5
5
5
5
5
5
5
5
5
5
5
5
5
5
5
5
5
5
5
5
5
5
5
5
5
5
5
5
5
5
5
5
5
5
5
5
5
5
5
5
5
5
5
5
5
5
5
5
5
5
5
5
5
5
5
5
5
5
5
5
5
5
5
5
5
5
5
5
5
5
5
5
5
5
5
5
5
5
5
5
5
5
5
5
5
5
5
5
5
5
5
5
5
5
5
5
5
5
5
5
5
5
5
5
5
5
5
5
5
5
5
5
5
5
5
5
5
5
5
5
5
5
5
5
5
5
5
5
5
5
5
5
5
5
5
5
5
5
5
5
5
5
5
5
5
5
5
5
5
5
5
5
5
5
5
5
5
5
5
5
5
5
5
5
5
5
5
5
5
5
5
5
5
5
5
5
5
5
5
5
5
5
5
5
5
5
5
5
5
5
5
5
5
5
5
5
5
5
5
5
5
5
5
5
5
5
5
5
5
5
5
5
5
5
5
5
5
5
5
5
5
5
5
5
5
5
5
5
5
5
5
5
5
5
5
5
5
5
5
5
5
5
5
5
5
5
5
5
5
5
5
5
5
5
5
5
5
5
5
5
5
5
5
5
5
5
5
5
5
5
5
5
5
5
5
5
5
5
5
5
5
5
5
5
5
5
5
5
5
5
5
5
5
5
5
5
5
5
5
5
5
5
5
5
5
5
5
5
5
5
5
5
5
5
5
5
5
5
5
5
5
5
5
5
5
5
5
5
5
5
5
5
5
5
5
5
5
5
5
5
5
5
5
5
5
5
5
5
5
5
5
5
5
5
5
5
5
5
5
5
5
5
5
5
5
5
5
5
5
5
5
5
5
5
5
5
5
5
5
5
5
5
5
5
5
5
5
5
5
5
5
5
5
5
5
5
5
5
5
5
5
5
5
5
5
5
5
5
5
5
5
5
5
5
5
5
5
5
5
5
5
5
5
5
5
5
5
5
5
5
5
5
5
5
5
5
5
5
5
5
5
5
5
5
5
5
5
5
5
5
5
5
5
5
5
5
5
5
5
5
5
5
5
5
5
5
5
5
5
5
5
5
5
5
5
5
5
5
5
5
5
5
5
5
5
5
5
5
5
5
5
5
5
5
5
5
5
5
5
5
5
5
5
5
5
5
5
5
5
5
5
5
5
5
5
5
5
5
5
5
5
5
5
5
5
5
5
5
5
5
5
5
5
5
5
5
5
5
5
5
5
5
5
5
5
5
5
5
5
5
5
5
5
5
5
5
5
5
5
5
5
5
5
5
5
5
5
5
5
5
5
5
5
5
5
5
5
5
5
5
5
5
5
5
5
5
5
5
5
5
5
5
5
5
5
5
5
5
5
5
5
5
5
5
5
5
5
5
5
5
5
5
5
5
5
5
5
5
5
5
5
5
5
5
5
5
5
5
5
5
5
5
5
5
5
5
5
5
5
5
5
5
5
5
5
5
5
5
5
5
5
5
5
5
5
5
5
5
5
5
5
5
5
5
5
5
5
5
5
5
5
5
5
5
5
5
5
5
5
5
5
5
5
5
5
5
5
5
5
5
5
5
5
5
5
5
5
5
5
5
5
5
5
5
5
5
5
5
5
5
5
5
5
5
5
5
5
5
5
5
5
5
5
5
5
5
5
5
5
5
5
5
5
5
5
5
5
5
5
5
5
5
5
5
5
5
5
5
5
5
5
5
5
5
5
5
5
5
5
5
5
5
5
5
5
5
5
5
5
5
5
5
5
5
5
5
5
5
5
5
5
5
5
5
5
5
5
5
5
5
5
5
5
5
5
5
5
5
5
5
5
5
5
5
5
5
5
5
5
5
5
5
5
5
5
5
5
5
5
5
5
5
5
5
5
5
5
5
5
5
5
5
5
5
5
5
5
5
5
5
5
5
5
5
5
5
5
5
5
5
5
5
5
5
5
5
5
5
5
5
5
5
5
5
5
5
5
5
5
5
5
5
5
5
5
5
5
5
5
5
5
5
5
5
5
5
5
5
5
5
5
5
5
5
5
5
5
5
5
5
5
5
5
5
5
5
5
5
5
5
5
5
5
5
5
5
5
5
5
5
5
5
5
5
5
5
5
5
5
5
5
5
5
5
5
5
5
5
5
5
5
5
5
5
5
5
5
5
5
5
5
5
5
5
5
5
5
5
5
5
5
5
5
5
5
5
5
5
5
5
5
5
5
5
5
5
5
5
5
5
5
5
5
5
5
5
5
5
5
5
5
5
5
5
5
5
5
5
5
5
5
5
5
5
5
5
5
5
5
5
5
5
5
5
5
5
5
5
5
5
5
5
5
5
5
5
5
5
5
5
5
5
5
5
5
5
5
5
5
5
5
5
5
5
5
5
5
5
5
5
5
5
5
5
5
5
5
5
5
5
5
5
5
5
5
5
5
5
5
5
5
5
5
5
5
5
5
5
5
5
5
5
5
5
5
5
5
5
5
5
5
5
5
5
5
5
5
5
5
5
5
5
5
5
5
5
5
5
5
5
5
5
5
5
5
5
5
5
5
5
5
5
5
5
5
5
5
5
5
5
5
5
5
5
5
5
5
5
5
5
5
5
5
5
5
5
5
5
5
5
5
5
5
5
5
5
5
5
5
5
5
5
5
5
5
5
5
5
5
5
5
5
5
5
5
5
5
5
5
5
5
5
5
5
5
5
5
5
5
5
5
5
5
5
5
5
5
5
5
5
5
5
5
5
5
5
5
5
5
5
5
5
5
5
5
5
5
5
5
5
5
5
5
5
5
5
5
5
5
5
5
5
5
5
5
5
5
5
5
5
5
5
5
5
5
5
5
5
5
5
5
5
5
5
5
5
5
5
5
5
5
5
5
5
5
5
5
5
5
5
5
5
5
5
5
5
5
5
5
5
5
5
5
5
5
5
5
5
5
5
5
5
5
5
5
5
5
5
5
5
5
5
5
5
5
5
5
5
5
5
5
5
5
5
5
5
5
5
5
5
5
5
5
5
5
5
5
5
5
5
5
5
5
5
5
5
5
5
5
5
5
5
5
5
5
5
5
5
5
5
5
5
5
5
5
5
5
5
5
5
5
5
5
5
5
5
5
5
5
5
5
5
5
5
5
5
5
5
5
5
5
5
5
5
5
5
5
5
5
5
5
5
5
5
5
5
5
5
5
5
5
5
5
5
5
5
5
5
5
5
5
5
5
5
5
5
5
5
5
5
5
5
5
5
5
5
5
5
5
5
5
5
5
5
5
5
5
5
5
5
5
5
5
5
5
5
5
5
5
5
5
5
5
5
5
5
5
5
5
5
5
5
5
5
5
5
5
5
5
5
5
5
5
5
5
5
5
5
5
5
5
5
5
5
5
5
5
5
5
5
5
5
5
5
5
5
5
5
5
5
5
5
5
5
5
5
5
5
5
5
5
5
5
5
5
5
5
5
5
5
5
5
5
5
5
5
5
5
5
5
5
5
5
5
5
5
5
5
5
5
5
5
5
5
5
5
5
5
5
5
5
5
5
5
5
5
5
5
5
5
5
5
5
5
5
5
5
5
5
5
5
5
5
5
5
5
5
5
5
5
5
5
5
5
5
5
5
5
5
5
5
5
5
5
5
5
5
5
5
5
5
5
5
5
5
5
5
5
5
5
5
5
5
5
5
5
5
5
5
5
5
5
5
5
5
5
5
5
5
5
5
5
5
5
5
5
5
5
5
5
5
5
5
5
5
5
5
5
5
5
5
5
5
5
5
5
5
5
5
5
5
5
5
5
5
5
5
5
5
5
5
5
5
5
5
5
5
5
5
5
5
5
5
5
5
5
5
5
5
5
5
5
5
5
5
5
5
5
5
5
5
5
5
5
5
5
5
5
5
5
5
5
5
5
5
5
5
5
5
5
5
5
5
5
5
5
5
5
5
5
5
5
5
5
5
5
5
5
5
5
5
5
5
5
5
5
5
5
5
5
5
5
5
5
5
5
5
5
5
5
5
5
5
5
5
5
5
5
5
5
5
POINT_DATA 2538
VECTORS disp float
1.3093491624382505e-11 2.3282868019352618e-11 0.0
9.49278351558373e-12 -2.2238290092599978e-11 0.0
0.0018999999994608662 4.0911799451654855e-12 0.0
0.0018999999758360048 -5.773775640975454e-11 0.0
0.0007882787043187883 0.0003535249330236527 0.0
0.0014359837135426122 4.1431564025482085e-5 0.0
0.0010333256118253834 -1.979344543053178e-5 0.0
-8.02209587570541e-13 -3.4481376471752527e-12 0.0
2.4277229685195437e-12 1.4710466581062092e-12 0.0
1.5552239142672893e-12 -7.167986666928727e-13 0.0
1.4100175888960075e-12 -4.921834229144279e-13 0.0
8.256899908520558e-13 -4.92994652778136e-13 0.0
8.194711915618656e-13 -8.4181458604307e-13 0.0
6.243104417239431e-13 -9.349271636267825e-13 0.0
5.210612908040225e-13 -1.2928067364645835e-12 0.0
3.112526972779624e-13 -1.6425552392004447e-12 0.0
5.080090493092041e-13 -2.1341960742513673e-12 0.0
4.968752091843223e-13 -2.5704915444150643e-12 0.0
6.097993599237298e-13 -3.0022527354708266e-12 0.0
7.253547029488632e-13 -3.414047122719794e-12 0.0
7.471653276823118e-13 -3.62267250419128e-12 0.0
9.586242342666966e-13 -4.029969155998701e-12 0.0
9.528963873898917e-13 -4.127027079986635e-12 0.0
1.0234273185639273e-12 -4.446710287869166e-12 0.0
1.1759230914796155e-12 -4.666183012528348e-12 0.0
1.1604363318610804e-12 -4.85207653930173e-12 0.0
1.252550466319484e-12 -5.129746194478608e-12 0.0
1.3901558771020994e-12 -5.420308243453213e-12 0.0
1.5411267542702457e-12 -5.78495746788012e-12 0.0
1.4655998077656189e-12 -6.227288976308639e-12 0.0
2.3129771092260753e-12 -7.566996960403683e-12 0.0
5.964927041327859e-13 -5.631467715425537e-12 0.0
2.755237555416226e-5 -1.8282352995342604e-5 0.0
4.8395383211385686e-5 -3.164386697246403e-5 0.0
6.882592071258027e-5 -4.344139109988905e-5 0.0
8.807751610803618e-5 -5.429992046733928e-5 0.0
0.00010634479084977176 -6.445485435470634e-5 0.0
0.00012405800865003733 -7.430235757725511e-5 0.0
0.00014156896148116618 -8.365809206552723e-5 0.0
0.00015859666996884003 -9.271243724291214e-5 0.0
0.00017533601601797536 -0.00010158169324133405 0.0
0.00019188817793241693 -0.00011017273079327828 0.0
0.00020819246365528775 -0.00011864292833975608 0.0
0.00022442258836100277 -0.00012692687362255816 0.0
0.0002405110298848686 -0.00013501168412908968 0.0
0.0002565596341973208 -0.00014303248852647705 0.0
0.0002725603006763046 -0.00015089559601233398 0.0
0.0002883645799466926 -0.00015851868201155863 0.0
0.00030415672345381577 -0.00016601065630126506 0.0
0.0003200058110153975 -0.0001732534053595868 0.0
0.0003358326537022954 -0.00018032991185176926 0.0
0.00035168289002506436 -0.0001872570653177102 0.0
0.0003675553845193521 -0.00019404152503123176 0.0
0.00038345865940284704 -0.00020068654891437134 0.0
0.00039949760518561187 -0.00020719983166422762 0.0
0.00041546157276491194 -0.00021358363035966103 0.0
0.0004316182921432423 -0.00021982342512818213 0.0
0.00044771045878448147 -0.00022593403169246518 0.0
0.00046390660397382027 -0.00023194636113575373 0.0
0.0004801528070221359 -0.00023778042360132653 0.0
0.0004965939681058943 -0.00024350271341717794 0.0
0.0005129522266583565 -0.00024916550306128727 0.0
0.0005294936278247181 -0.0002547140735760246 0.0
0.0005460944470403763 -0.0002601202298227432 0.0
0.0005628604984853756 -0.00026546106142876625 0.0
0.0005797298548700026 -0.00027057195130416136 0.0
0.0005968621959372472 -0.0002756918265191966 0.0
0.0006139237136479097 -0.0002805539489370075 0.0
0.0006311207731867773 -0.00028527733751622136 0.0
0.0006484002608642393 -0.0002896269641245243 0.0
0.0006656746062991529 -0.0002937191834425064 0.0
0.0006830209493570581 -0.00029759963426008896 0.0
0.0007003398938078928 -0.0003011341913786025 0.0
0.0007180142383009528 -0.0003045178832545373 0.0
0.0007359736834367508 -0.0003075791389130458 0.0
0.0007541355317861837 -0.0003108090634236495 0.0
0.0007726769920716273 -0.00031360006951012214 0.0
0.0007911867407585197 -0.0003164100438592567 0.0
0.0008096832556533542 -0.0003192353554659939 0.0
0.0008285327774804174 -0.00032149965664803244 0.0
0.0008468815084523619 -0.00032418413001840683 0.0
0.0008661928630194709 -0.00032631156954734654 0.0
0.0008858155853835618 -0.00032870639419438775 0.0
0.0009061803257630123 -0.00033123410965765624 0.0
0.0009264230272709016 -0.0003339153933398614 0.0
0.0009475014135175462 -0.00033636533987882895 0.0
0.0009676841156924457 -0.00033881893038136045 0.0
0.0009887552657286793 -0.0003412989657694445 0.0
0.0010087847916837697 -0.00034357816664354346 0.0
0.0010288094875465826 -0.0003453102062197868 0.0
0.001048601900782017 -0.00034682415689775154 0.0
0.00106833023414429 -0.0003478841862825536 0.0
0.0010873379441046238 -0.0003490016986989519 0.0
0.0011059752657143758 -0.0003499692548694642 0.0
0.0011245075013641228 -0.0003509586439001802 0.0
0.0011427652923601728 -0.0003516435025347854 0.0
0.0011613306026438755 -0.0003522659326591108 0.0
0.0011806241080221864 -0.000352573534773207 0.0
0.0011998061402183132 -0.00035245325450868135 0.0
0.0012184314244002385 -0.00035217809142793714 0.0
0.0012359168347464997 -0.0003511582048177363 0.0
0.00125374053880215 -0.0003500425933144585 0.0
0.001271272164948028 -0.00034858799790702115 0.0
0.0012898040479814915 -0.00034683827071129016 0.0
0.0013075652402637049 -0.00034450684143943875 0.0
0.001325366135646017 -0.00034155228744199947 0.0
0.0013445026187872983 -0.0003377752846695116 0.0
0.0013632251819434905 -0.0003334972037503295 0.0
0.0013825300990418835 -0.000329103886734145 0.0
0.001401076263696808 -0.00032413213863967264 0.0
0.001420032157151399 -0.00031843945838846684 0.0
0.0014383570032438365 -0.000311806953469056 0.0
0.0014579651718562919 -0.00030502335410145646 0.0
0.001476260054587745 -0.00029751156202180933 0.0
0.0014953986661217441 -0.0002901238713344957 0.0
0.001515264375739387 -0.00028193830889959234 0.0
0.001534251484912787 -0.00027345716593223964 0.0
0.0015531821510600826 -0.00026467428354114305 0.0
0.0015726582625768442 -0.00025468250136109776 0.0
0.0015918553568421096 -0.0002436751216484776 0.0
0.0016110990531105153 -0.00023191599314548996 0.0
0.0016310914055917925 -0.00021921633717984687 0.0
0.0016519609923283862 -0.00020522319277604525 0.0
0.0016733767302126391 -0.0001901519197952316 0.0
0.0016953876865012764 -0.00017421371457803248 0.0
0.0017184739964325644 -0.00015716586655848642 0.0
0.0017431610463215963 -0.00013870214599361646 0.0
0.0017691068412774625 -0.0001186972288239359 0.0
0.0017966176388543357 -9.666549278137347e-5 0.0
0.0018271395968189933 -7.143729123223978e-5 0.0
0.0018596472188162506 -4.1822023209571946e-5 0.0
0.001899999998664709 -6.380742523100649e-12 0.0
0.0018999999953195235 -9.258663750190974e-12 0.0
0.0018999999981705374 -2.8993329895929318e-12 0.0
0.0018999999975450972 -2.5740472865520445e-12 0.0
0.0018999999979921515 -1.4189437437127667e-12 0.0
0.0018999999979950053 -7.603460227445228e-13 0.0
0.0018999999979964909 -3.679107114591336e-13 0.0
0.0018999999981225838 -1.0412853304192786e-13 0.0
0.0018999999981191551 1.355509892115056e-13 0.0
0.0018999999982068148 2.6422274834785034e-13 0.0
0.0018999999982678788 3.6489187332952607e-13 0.0
0.0018999999983930474 5.082291752761059e-13 0.0
0.0018999999984123765 6.58658775427699e-13 0.0
0.0018999999984638828 8.60234366211226e-13 0.0
0.0018999999984773259 1.0726637075842382e-12 0.0
0.0018999999984862152 1.323437836785082e-12 0.0
0.0018999999984909701 1.564130437929489e-12 0.0
0.0018999999984214027 1.8708172670581133e-12 0.0
0.0018999999985502725 2.0780187168690045e-12 0.0
0.001899999998450423 2.3145435970721785e-12 0.0
0.0018999999985404494 2.4208395625649136e-12 0.0
0.0018999999985332215 2.361923012071286e-12 0.0
0.0018999999987635411 2.2161542210457717e-12 0.0
0.0018999999992086116 2.4232403689350595e-12 0.0
0.00189999999953379 1.687051233784731e-12 0.0
0.0017782636228857766 4.121516743856956e-5 0.0
0.0016699422307654677 5.860235114999394e-5 0.0
0.001574160131215745 5.671181886993234e-5 0.0
0.0014848359619242777 4.81112251126226e-5 0.0
0.001431842745712334 -2.1437346271610897e-5 0.0
0.0014265597345860628 -5.8965628187629494e-5 0.0
0.0014196348912507374 -9.672134753518644e-5 0.0
0.0014030171515353848 -0.00011926740795111149 0.0
0.0013778547944116393 -0.0001293278299740897 0.0
0.0013470504020828887 -0.00012991451380922178 0.0
0.0013124798769585404 -0.00012432946208440658 0.0
0.0012764577260877227 -0.00011211987326020766 0.0
0.0012385750423023517 -9.715891121549932e-5 0.0
0.001199342624837618 -8.063618594207748e-5 0.0
0.0011562153842884192 -6.27029787063366e-5 0.0
0.0011049494318888112 -4.377707944704997e-5 0.0
0.0009875528507835023 2.2414883181790135e-5 0.0
0.0009540009773284878 4.5409256397757394e-5 0.0
0.0009253278776001848 6.323219487763877e-5 0.0
0.0008994997867066776 7.980450699197646e-5 0.0
0.0008752682667118875 9.588743632182636e-5 0.0
0.0008531017958504108 0.00011210615101676177 0.0
0.0008325179648993868 0.00012931012303123518 0.0
0.0008143631829172901 0.00014645545048759865 0.0
0.000800498788237974 0.00016812190465127964 0.0
0.0007888399888871386 0.00018730449245272772 0.0
0.0007878623873005522 0.00022457661975886439 0.0
0.0007828512794700662 0.00026886922647022563 0.0
0.0007098097136005043 0.0003619557670241964 0.0
0.0006118241419515647 0.0003578629754706994 0.0
0.00047186199315061406 0.0003089288789560074 0.0
0.0002769105947289022 0.0002052726728793591 0.0
0.0004989493173410765 -0.00023615270091835284 0.0
0.0012657741718255131 -0.0003313010007943427 0.0
0.0006185029403940664 -0.000272513414601798 0.0
0.001134383962334239 -0.00033969844669124734 0.0
0.0007442469129268053 -0.00029959061064324926 0.0
0.0009948212349533878 -0.00032949716959711613 0.0
0.0008555923132600845 -0.00031508369652436403 0.0
0.00137930741663336 -0.00030891710953701924 0.0
0.00040430286979227064 -0.00020241761472595835 0.0
0.0014699133720511976 -0.00027459907790824723 0.0
0.0003242066430597442 -0.00016892444461551493 0.0
3.1367560454482865e-5 -8.009344771467004e-6 0.0
0.0018581568280736187 1.2107453024013112e-8 0.0
0.0010965136197314716 -1.648505165123752e-5 0.0
0.00124199224516524 -8.820512619804153e-5 0.0
0.0009567401496152285 1.4445758021149743e-5 0.0
0.000860151648431285 9.732145420168685e-5 0.0
0.0015681220525827866 -0.00023383048454456322 0.0
0.0002476843025953345 -0.00013341845321887403 0.0
2.652898336779104e-5 -8.133480828995492e-6 0.0
0.0018695580576343462 -1.910892959726641e-6 0.0
0.001841626745070993 3.7189259276261007e-6 0.0
3.680031325911138e-5 -2.953841286578667e-6 0.0
0.0016489643414494097 -0.00018484517970606475 0.0
0.000180057207910593 -9.794914462498978e-5 0.0
0.0013439981842193617 -0.00011046351649673369 0.0
0.0007877394066205668 0.00014505853382548598 0.0
2.1367235888231922e-5 -6.82850054828804e-6 0.0
0.0018757955616274828 -2.3945213475204867e-6 0.0
0.0006910382094689396 -0.0002890697330790313 0.0
0.0007990879221243169 -0.0003083541468559702 0.0
0.0010773577977928259 -0.0003369111642881297 0.0
0.0009160863350196621 -0.00032097591996771066 0.0
0.0011916823474713938 -0.0003385561836140583 0.0
0.0013176435170718908 -0.00032447086605599985 0.0
0.0005709370677694456 -0.00025963344013107416 0.0
0.00045225674631263685 -0.0002210341762613188 0.0
0.0017125039171442457 -0.00014111973366641046 0.0
0.000128267876694298 -7.06322195778699e-5 0.0
0.0018286861584860931 7.357490935335124e-6 0.0
5.245450224633821e-5 2.790879845570872e-6 0.0
0.0018806115123801836 -4.341008016395269e-6 0.0
2.0172266163835254e-5 -6.97828092412669e-6 0.0
0.0014088581498365252 -9.608778760517698e-5 0.0
0.0007560007900137773 0.00018060292763793205 0.0
0.0018066689419443279 7.745141378240007e-6 0.0
8.560652437942478e-5 7.808392817087422e-6 0.0
2.955829649904596e-5 -8.670173247223847e-6 0.0
0.001863790376100844 -1.3521807836634695e-6 0.0
0.0011697413592950828 -5.586191498428634e-5 0.0
0.0009104893242957263 6.284455472312773e-5 0.0
7.205108394473049e-5 -3.8528105589677146e-5 0.0
0.0017953833980275072 -7.897348017484619e-5 0.0
0.0012282753405098007 -0.00033809897237901043 0.0
0.0009557292913402856 -0.0003260114693720329 0.0
0.000657099118230687 -0.00028149833560033125 0.0
0.0005342389567516075 -0.00024909245908249014 0.0
0.0010378257920370438 -0.0003335876760307184 0.0
0.0014144559588547077 -0.00029825973267433466 0.0
0.00037248141093971154 -0.0001892758479889037 0.0
0.0015097873288780449 -0.0002597989302625721 0.0
0.00029064283685517936 -0.00015333545924768428 0.0
0.0002124867244472441 -0.00011520241578833295 0.0
0.0016078313419234786 -0.00021087905027701784 0.0
0.0005255426826613886 0.00019346047197790826 0.0
0.0016033627542940616 1.017771847552255e-5 0.0
0.0018801927981470846 -8.608124804223335e-6 0.0
1.7159741795302182e-5 -6.5893407145870555e-6 0.0
0.0007442866081436313 0.00024122871313137883 0.0
0.0014440666731958501 -3.9181773260532404e-5 0.0
0.00011377728583848392 1.7179598628824282e-5 0.0
0.0018171631323680962 7.801544336163921e-6 0.0
3.16024400838288e-5 -1.579231869590339e-5 0.0
0.0018538652076692573 -3.328292702330515e-5 0.0
0.0015225942147794953 4.968518937171025e-7 0.0
0.001531596292420995 -1.8663546125052117e-5 0.0
0.001630744526176259 -1.8785284394585813e-6 0.0
0.0015572752839842705 -1.4521644856867544e-5 0.0
0.0014806849572967368 -3.7171505626447226e-5 0.0
0.00149219420861396 -2.2816179282113352e-5 0.0
0.0015704684625985489 -4.811434127903663e-6 0.0
0.0015083312878341262 -6.000099925676348e-6 0.0
0.0015872583654762578 5.967021717155412e-6 0.0
0.0015294201799493296 8.461531315491995e-6 0.0
0.0014565757796480908 -3.026131500517096e-6 0.0
0.0014761363438022957 1.2215855537895994e-5 0.0
0.00141382690021771 3.747288433045133e-6 0.0
0.0014303103237091148 1.623766829486834e-5 0.0
0.0013747945592634142 1.0539147007452562e-5 0.0
0.001390860628341456 2.0113633323996032e-5 0.0
0.0010754546259857908 -2.3313320741037352e-5 0.0
0.0010206903125782763 -3.460497763483887e-5 0.0
0.0010558646629136325 -3.149396718497954e-5 0.0
0.001009040441512057 -4.247416591859851e-5 0.0
0.0010410128894927687 -3.9763478876784335e-5 0.0
0.0009996056136786816 -4.900536912408272e-5 0.0
0.001028349590707794 -4.57801314466305e-5 0.0
0.0009904920836778896 -5.410267124925761e-5 0.0
0.0010169442887352112 -5.059865620519799e-5 0.0
0.0009817735571012226 -5.838622739064927e-5 0.0
0.001006601331655627 -5.464059599576029e-5 0.0
0.0009735832109215268 -6.195798623857349e-5 0.0
0.0009972318378242172 -5.854546848589435e-5 0.0
0.0009667075559332537 -6.501552140970254e-5 0.0
0.0009886015750457044 -6.16316789979483e-5 0.0
0.0009593791065442534 -6.787802249891814e-5 0.0
0.0009804265581130288 -6.461448776255452e-5 0.0
0.0009515671348710518 -7.073586390837556e-5 0.0
0.000972704241848809 -6.758651169549003e-5 0.0
0.0009448582783382259 -7.325223878488176e-5 0.0
0.0009656219649347206 -7.038164283873243e-5 0.0
0.0009385742267934279 -7.577862444392963e-5 0.0
0.0009581786599381715 -7.318958999716602e-5 0.0
0.0009323280890808456 -7.846220217079723e-5 0.0
0.0009516558876060026 -7.615938878416154e-5 0.0
0.000926911892290264 -8.120925005855175e-5 0.0
0.000945504397299393 -7.92400111902989e-5 0.0
0.0009203602407430507 -8.426627589309824e-5 0.0
0.0009393417212294349 -8.259839737942593e-5 0.0
0.0009093727914185289 -8.838084539870737e-5 0.0
0.0009348493248867403 -8.603041260335444e-5 0.0
0.000909108218655099 -9.114069772284048e-5 0.0
0.000929344151054734 -8.97884059236304e-5 0.0
0.0009048475006893629 -9.482548912489727e-5 0.0
0.0009243726690025639 -9.384459562335934e-5 0.0
0.0009014777184828982 -9.859979656958543e-5 0.0
0.0009195241171454988 -9.807961576867439e-5 0.0
0.0008972121046345686 -0.00010280993275298136 0.0
0.0009562102342071083 -5.964850614136356e-5 0.0
0.0009148376529608055 -0.0001025987369258982 0.0
0.000923490359997675 -7.568054566200265e-5 0.0
0.0008846050631293883 -9.387952243759363e-5 0.0
0.0008915408515573467 -0.00010744849233135203 0.0
0.0009101992321830779 -0.00010742788389567226 0.0
0.0008860137171297273 -0.00011246782210101745 0.0
0.0008679808030646876 -0.00011190501371590881 0.0
0.0008619343356795169 -0.00011705841959914681 0.0
0.0009047324612824368 -0.00011284493041223314 0.0
0.0009293120590257777 -0.00010749228014813706 0.0
0.0009531010109026128 -8.459333672054052e-5 0.0
0.0009239924044921684 -0.00011325401638574728 0.0
0.0009502707186906851 -0.00010710942505154822 0.0
0.0009439856144120593 -0.0001137352459803091 0.0
0.0008441444849337698 -0.00011624339621134657 0.0
0.0008391697820291558 -0.00012107350175632739 0.0
0.0009711778947306107 -0.00010711156870288283 0.0
0.0008201280002748555 -0.00012010957507795094 0.0
0.0008164854476325053 -0.00012493333351089664 0.0
0.0009654118820315533 -0.00011402510429337987 0.0
0.0009916321485532926 -0.00010773001551023424 0.0
0.0007960451108589334 -0.00012375051951322134 0.0
0.0007919929383745371 -0.00012860463071869276 0.0
0.0009865696822078677 -0.00011480778920824562 0.0
0.0010135734635352582 -0.00010816345585410964 0.0
0.0007721364728977139 -0.00012707052749602962 0.0
0.000767898465466814 -0.00013213273865444206 0.0
0.0010083977972265507 -0.00011585632542385331 0.0
0.0010362706975186697 -0.00010867919971073346 0.0
0.000748538370620466 -0.00012990790850913849 0.0
0.0007429304567935633 -0.00013504154857594798 0.0
0.0010314242017615187 -0.0001167829679980627 0.0
0.0010595490398063276 -0.0001092602123724891 0.0
0.000722712159604685 -0.0001325028119219011 0.0
0.0007177857794568856 -0.0001377354650343465 0.0
0.0006959421789664737 -0.0001350501448319869 0.0
0.0007010404956802354 -0.00012976503098598613 0.0
0.0010014692790492334 -0.00012366113329990527 0.0
0.0010545575356593112 -0.00011798003057133266 0.0
0.0010834216250542367 -0.00010996685534111175 0.0
0.0010891379110945596 -0.00010078440684858781 0.0
0.0009830760575480955 -6.78551155177092e-5 0.0
0.001114220285835684 -0.00010115270343343162 0.0
0.0011204622657989553 -9.149510678252453e-5 0.0
0.0011466806916114246 -9.139486879018888e-5 0.0
0.0006930803410392501 -0.00014055337739239253 0.0
0.0006701826811445817 -0.00013705719889289136 0.0
0.0007146151789543535 -0.00014349592616463448 0.0
0.0010775792435993516 -0.000119500694153738 0.0
0.0006678259069972687 -0.0001426425245128723 0.0
0.0006444481989420812 -0.00013859758947725934 0.0
0.0010184810925342 -5.421727813250973e-5 0.0
0.0006423644694423007 -0.0001439213242064884 0.0
0.0006187456104999735 -0.0001395277034446923 0.0
0.0006169752142737145 -0.00014489405622985325 0.0
0.0005935856694272145 -0.0001398320414201583 0.0
0.0005947670386770173 -0.0001347829716028962 0.0
0.0005676845789598686 -0.00013490310657558337 0.0
0.000569256343417653 -0.00012965344666331698 0.0
0.0005891139015729766 -0.00014498597359630002 0.0
0.0005398479643403893 -0.00012935309697230014 0.0
0.0005411218330768015 -0.0001240965003306891 0.0
0.0006156194049077264 -0.0001507243040046293 0.0
0.0005919466060866122 -0.0001513448712508995 0.0
0.0005122054947594241 -0.00012300689101357566 0.0
0.0005121647232759278 -0.00011775918464461365 0.0
0.00115381250302884 -8.157902758187102e-5 0.0
0.0011814201549940004 -8.121007496646627e-5 0.0
0.000614460312946919 -0.0001568350778074249 0.0
0.0005913281164373509 -0.00015732232927051767 0.0
0.001188963181250282 -7.11403207971505e-5 0.0
0.0012182008755008715 -7.073175315117998e-5 0.0
0.0012091020675747105 -8.210577418817989e-5 0.0
0.0012466566037883106 -7.105798166108895e-5 0.0
0.0012381403595659235 -8.292364045209651e-5 0.0
0.0012764042280484736 -7.10581496001158e-5 0.0
0.0012697895946371836 -8.297245470508327e-5 0.0
0.00130997909518458 -6.994784234377744e-5 0.0
0.0013003355798910704 -8.25091888735773e-5 0.0
0.0013160331383427885 -5.8967655900704666e-5 0.0
0.001341211767846745 -6.979238234277162e-5 0.0
0.0013298657232042883 -8.274202216228331e-5 0.0
0.0006138360592292466 -0.00016322726802766904 0.0
0.0004813583122729296 -0.00011603237257706617 0.0
0.000480348805298152 -0.00011041683031000579 0.0
0.0012916850876641978 -9.62001045868264e-5 0.0
0.0013202301748697922 -9.660187727126631e-5 0.0
0.001358244827399985 -8.307564357041217e-5 0.0
0.0012842718721109746 -0.00011075841567608475 0.0
0.0005914530863045768 -0.00016366308326219795 0.0
0.0013488960789308428 -9.716107058936641e-5 0.0
0.001386396245703878 -8.340458484658185e-5 0.0
0.0006134037566626037 -0.00016994504423374204 0.0
0.0005916189266650243 -0.00017036589039123927 0.0
0.0005699228447614843 -0.0001636933582053204 0.0
0.0013770869860490467 -9.78478091643287e-5 0.0
0.0014142224385530896 -8.368006411147509e-5 0.0
0.0006131285031907871 -0.00017704411634003253 0.0
0.00063451781536916 -0.00017633168130216342 0.0
0.0005705086256399268 -0.00017038503053814927 0.0
0.0005488737648270551 -0.00016336098181812345 0.0
0.0014039790323297587 -9.868403972448796e-5 0.0
0.0014418521355605111 -8.393775704188157e-5 0.0
0.0014513181931292576 -7.029770287182264e-5 0.0
0.0013665465013228046 -0.00011395586227768491 0.0
0.0014788861524615946 -7.00612075026985e-5 0.0
0.0014887659227780358 -5.7891404319131884e-5 0.0
0.0004472656315190694 -0.00010809818258699599 0.0
0.00044747175615449466 -0.00010213319243113523 0.0
0.0004877511693398414 -0.0001051945635143146 0.0
0.00044645863069491795 -9.550062579438024e-5 0.0
0.000485857512897759 -9.741837511496423e-5 0.0
0.0004446855015615183 -8.755322448499778e-5 0.0
0.0004837321447301045 -8.872935180318185e-5 0.0
0.0006342093987397752 -0.00018370873731939075 0.0
0.0006549790115641122 -0.00018268509125683177 0.0
0.0005497689250072366 -0.000170061231023436 0.0
0.0005281826746408096 -0.0001626632784247587 0.0
0.0014688749727252972 -8.416236161543807e-5 0.0
0.0004467718452712611 -7.855273557177053e-5 0.0
0.00048436615109717364 -7.897106480393957e-5 0.0
0.0006547488449787312 -0.00019030746365701582 0.0
0.0006749199619759198 -0.00018910775246346859 0.0
0.000792319556700876 -0.00013317360783759386 0.0
0.0015054075340753571 -6.966334680078714e-5 0.0
0.001063464527942026 -3.493599935582524e-5 0.0
0.0011157722890529761 -1.1274230816977093e-5 0.0
0.0009064611874242343 -8.326153549986967e-5 0.0
0.001224317902219835 -6.077942343875206e-5 0.0
0.0004429565375494182 -6.691583205320163e-5 0.0
0.0004878248711958458 -6.71815280189272e-5 0.0
0.0005294202839734126 -0.00016939961371294348 0.0
0.0005079835822491413 -0.00016170637107381183 0.0
0.0006750475534985675 -0.00019700402167203016 0.0
0.0006949755015620715 -0.000195607241515109 0.0
0.0014944098638571793 -8.390520191403193e-5 0.0
0.00041286644455407385 -9.932642440138956e-5 0.0
0.00041419992725506626 -0.0001052775779284793 0.0
0.0004000551921624617 -7.592234356160391e-5 0.0
0.0015306852020866128 -6.881946274292614e-5 0.0
0.00044201293887692096 -5.381606568803442e-5 0.0
0.00048788904455748013 -5.251724260823427e-5 0.0
0.0006552883460083341 -0.00019831543224267553 0.0
0.0005096355586566648 -0.0001685784022607289 0.0
0.0004881621099391084 -0.00016045938187853845 0.0
0.001195346562453847 -6.162054822449711e-5 0.0
0.0012319768027800027 -5.10512561762237e-5 0.0
0.0012014513325200066 -5.231791717787766e-5 0.0
0.0012396453871897353 -4.165870575134994e-5 0.0
0.0006948671504956976 -0.00020365292166491178 0.0
0.0007149096841887127 -0.00020186302351196631 0.0
0.000777323432303484 -0.000122610259017044 0.0
0.00044057899429696405 -3.8853666063695445e-5 0.0
0.0004858503718007815 -3.562803549127262e-5 0.0
0.0015195960698021528 -8.306932973956738e-5 0.0
0.0014869054992663608 -9.809620617594191e-5 0.0
0.0004287313075853981 -1.9659671623569486e-5 0.0
0.00048196236049005063 -1.5409308233470815e-5 0.0
0.0015548001226576692 -6.778355108941757e-5 0.0
0.001561472041268963 -5.8182275775527014e-5 0.0
0.00043337546680964086 -7.374249558417702e-7 0.0
0.000530332651197032 -0.00017710165920222597 0.0
0.0007144949694385616 -0.00021030338188567324 0.0
0.0007343664781211264 -0.00020808377831948289 0.0
0.0007351779840697926 -0.00019959690093108355 0.0
0.0007545716906633675 -0.0002055604624569416 0.0
0.0007556778309690418 -0.0001970572299482879 0.0
0.0007751601627032649 -0.00020274653329659136 0.0
0.0007764971696197596 -0.0001941019335706452 0.0
0.0007962835539623871 -0.00019960900213809757 0.0
0.0007979025816812528 -0.00019087373147239843 0.0
0.0008178768772213933 -0.0001961159026399 0.0
0.0008163351463068716 -0.00020528861023152626 0.0
0.0008378454697130012 -0.00020156308168316672 0.0
0.0008363042737181171 -0.00021110567353685195 0.0
0.0008577507270516845 -0.0002071423252779632 0.0
0.0008560841884099827 -0.00021708535169112812 0.0
0.0008777734363029226 -0.0002128644549941135 0.0
0.000819850610702769 -0.00018730132108848923 0.0
0.0008795889279272578 -0.0002027721422610838 0.0
0.0009000184549907542 -0.0002082132938844587 0.0
0.0008980215981055036 -0.0002189017453164906 0.0
0.0009207010011825126 -0.00021405129082941062 0.0
0.00037887115951968536 -9.583299047146851e-5 0.0
0.0003805337258782889 -0.00010153033292089799 0.0
0.0004900981783161698 -0.000167358727024561 0.0
0.0004689178398613919 -0.0001589816178258479 0.0
0.0009230882168216691 -0.0002032324894740652 0.0
0.0009439111582001458 -0.00020873758817431718 0.0
0.0009413823603932707 -0.00022004935611773406 0.0
0.0009650917116487644 -0.00021446936242146015 0.0
0.00034586291299818297 -9.169423423273883e-5 0.0
0.0003479705254419586 -9.70600267311336e-5 0.0
0.0012078884766719253 -4.30539047822328e-5 0.0
0.0012478701011045218 -3.240112772332296e-5 0.0
0.0012152732461263552 -3.398182500617714e-5 0.0
0.001544037591332427 -8.124209315675957e-5 0.0
0.0015779671605771724 -6.587433909205454e-5 0.0
0.0007338886944708604 -0.00021694593928546784 0.0
0.0005326766757317037 -8.14487639165875e-5 0.0
0.0009399197680407564 -0.00011975241120925438 0.0
0.0009624168494327869 -0.0002262617728190279 0.0
0.000986213003632974 -0.00022044697662692916 0.0
0.0009886009494049725 -0.0002083327391148274 0.0
0.0010101125496724706 -0.00021395936723929757 0.0
0.0009984778406453843 -0.00010020027623266437 0.0
0.0012578696541466845 -2.2838709890776293e-5 0.0
0.0012877459254679647 -2.3386136189915834e-5 0.0
0.00048263813600769574 6.818076688641134e-6 0.0
0.00047089105197266177 -0.00016590236886734276 0.0
0.0004499736877815418 -0.00015722720068277353 0.0
0.0012235585118536001 -2.4708080822230467e-5 0.0
0.0010073981003338884 -0.00022671466986885622 0.0
0.001031630588594008 -0.00022024424247190597 0.0
0.0010345182556307706 -0.0002070480622713671 0.0
0.0010564632460047126 -0.00021321042570722015 0.0
0.0010600992708160231 -0.0001999244173240925 0.0
0.0010816539279876586 -0.00020547956376008888 0.0
0.0010777993691675294 -0.00021937509186782043 0.0
0.0011027742613582672 -0.0002112129846055611 0.0
0.00043204758283460617 1.9050781370191998e-5 0.0
0.00031407949086312054 -8.697840854300291e-5 0.0
0.00031636266402196186 -9.187597269038264e-5 0.0
0.0007147151941758761 -0.0002191410096718584 0.0
0.0015654645598730782 -8.031259142829515e-5 0.0
0.0016000078685525752 -6.371064461615443e-5 0.0
0.001098671104410175 -0.0002256852447098898 0.0
0.0011233538307843338 -0.00021715342189364763 0.0
0.0004851770488910649 2.956644493325465e-5 0.0
0.0004523095931775292 -0.00016426208684743406 0.0
0.0004312323373223487 -0.0001551522683904983 0.0
0.0005332985496094664 -3.219723270066347e-5 0.0
0.0014476690694790152 2.2422973090508663e-5 0.0
0.000733569258488575 -0.0002260676375077593 0.0
0.00043331858385444296 3.804875469882684e-5 0.0
0.00039959939462499484 -4.190535498142946e-5 0.0
0.0015832999130328004 -8.245393497637232e-5 0.0
0.001621519371010852 -6.193124583417704e-5 0.0
0.0016346745199720782 -4.916886201943726e-5 0.0
0.00038224032777675794 9.702078314976421e-6 0.0
0.0015481250381271846 -9.85208472186961e-5 0.0
0.0003094748708049071 -8.125147967738103e-5 0.0
0.00047141775851640026 -0.00017261638568732838 0.0
0.00126726453881229 -1.3375315076383596e-5 0.0
0.0012323442690056398 -1.5350439139401638e-5 0.0
0.0010862445304911333 -0.0001919254247086746 0.0
0.0004339278511871553 -0.00016249639321926638 0.0
0.0004127651355227168 -0.0001529483561363736 0.0
0.00028341191842507494 -8.165529367465118e-5 0.0
0.000285758423874815 -8.600935646044335e-5 0.0
0.000506634960392156 -0.00015542965840405025 0.0
0.0011190148705511479 -0.00023217066175695996 0.0
0.001143525416634132 -0.00022311765689367015 0.0
0.00040995024990723257 -0.00014595339288889087 0.0
0.00039124593523472086 -0.00014331089212096332 0.0
0.001096293557712931 -0.00023950029848683344 0.0
0.0007151908157797185 -0.0002282513006748209 0.0
0.00039459775230361936 -0.00015056038024019927 0.0
0.000372996358138983 -0.00014051222699686938 0.0
0.0007565506264015863 -0.0001889908334761296 0.0
0.0016572206560543693 -4.6283485744093464e-5 0.0
0.0016695388058618318 -3.697432525982629e-5 0.0
0.001644120647218232 -5.928742896871411e-5 0.0
0.0011388915185816255 -0.00023850401259277237 0.0
0.0011634498187294826 -0.00022905073079189383 0.0
0.0010641258932848428 -0.00018694022199167772 0.0
0.0010911897460278664 -0.00017869546097933655 0.0
0.0007335743875030752 -0.00023541108099060679 0.0
0.0011688681697683459 -0.00021310753044734694 0.0
0.0011892219602101107 -0.0002188859367934972 0.0
0.0002533721294262867 -7.55267906100269e-5 0.0
0.00025713396412700555 -7.979975471784418e-5 0.0
0.0011837280916899425 -0.00023567998050786645 0.0
0.0012093553184457971 -0.0002250201066940959 0.0
0.0003771086495199671 -0.0001480820298810195 0.0
0.0003553042288344527 -0.00013759652024355605 0.0
0.0012761358945673905 -4.176826442508719e-6 0.0
0.0012414454343163434 -5.896974653258333e-6 0.0
0.0003509028440493724 -0.00013051087130750902 0.0
0.0003329628781151993 -0.0001270856960504862 0.0
0.0003374139112226941 -0.00013433666442587896 0.0
0.00031498879171689917 -0.00012340591980409892 0.0
0.0016795710581189868 -4.3310508158494704e-5 0.0
0.0016660500809822496 -5.7339037502327254e-5 0.0
0.0004876382135485098 5.088828827158324e-5 0.0
0.00043266023868774987 5.6088058386230315e-5 0.0
0.0011835370259416695 -3.565613385143592e-5 0.0
0.0007157650207495182 -0.00023757744347812043 0.0
0.0012037847036429723 -0.00024259345198645747 0.0
0.0012290536135537505 -0.0002312360538944165 0.0
0.001337857124793335 1.5659011941839723e-5 0.0
0.0011956043969087986 -0.00020217993590231548 0.0
0.0008350845613679704 -0.00022098238469438574 0.0
0.00030987287201298855 -0.00011659922901480457 0.0
0.000292234139462046 -0.00011245971326451187 0.0
0.0002975898645232469 -0.00011964899381118035 0.0
0.00027451914046218304 -0.00010821299233466568 0.0
0.0002691191174762743 -0.0001016363372467316 0.0
0.0002506500301005677 -9.682377655263993e-5 0.0
0.0002449980756337296 -9.060187331424809e-5 0.0
0.00022601546859921256 -8.522195497537808e-5 0.0
0.00022034990723463464 -7.971818267994649e-5 0.0
0.00020221740596676775 -7.427148741091932e-5 0.0
0.00019620419850618676 -6.939554073161878e-5 0.0
0.0002075351409148959 -7.967143520354696e-5 0.0
0.00018131462496106683 -6.71910049834851e-5 0.0
0.00022542915601019722 -6.918899498942572e-5 0.0
0.00022295528701171254 -6.551549577396294e-5 0.0
0.0001890150697376738 -7.388605719270573e-5 0.0
0.0001647955648336738 -6.22672806579222e-5 0.0
0.0005399901054103412 3.967678233322108e-5 0.0
0.0005663036114259964 -0.0001237905125819883 0.0
0.0010687911508420068 -0.00017436395314605026 0.0
0.0010962867094609868 -0.00016583491721331548 0.0
0.0003479355749587935 -0.00010145141022467795 0.0
0.0007336764610484164 -0.00024504009244543886 0.0
0.0007517056543496747 -0.0002426877184744207 0.0
0.0011190169383540303 -0.00016968447748576642 0.0
0.0011247942460834706 -0.0001563544586435225 0.0
0.0017019187697779356 -4.0441837207664226e-5 0.0
0.0016866018205688121 -5.585762530868947e-5 0.0
0.001651385490157191 -7.627994266260132e-5 0.0
0.0011981634958335438 -1.8031363610974647e-5 0.0
0.0012078356565803838 -8.723614266530507e-6 0.0
0.0006975607306440884 -0.00023016214666707964 0.0
0.0006983485396935446 -0.00023945584710806476 0.0
0.00068040010388909 -0.00023186802631525847 0.0
0.0002809215680687142 -0.00011588339262058626 0.0
0.0012501670459338855 3.0712112265307307e-6 0.0
0.0012173780199848504 5.758696393415653e-7 0.0
0.0005108277391799325 -0.00012840617015452417 0.0
0.0012229441716273247 -0.0002492791851773737 0.0
0.0012484395562418432 -0.00023738898360152314 0.0
0.0012556228869739026 -0.00021909551281839237 0.0
0.0012750444821019715 -0.00022458199728653096 0.0
0.0005074753102281859 7.315207955952622e-5 0.0
0.0004430120551649064 7.416030707758526e-5 0.0
0.0006746590578962957 -0.0001816504272344293 0.0
0.0011990242691037492 -0.0002600205728269459 0.0
0.0015476236311563786 1.7969527510847958e-5 0.0
0.001267482332116594 -0.0002439918370111883 0.0
0.0012944279688083624 -0.0002304931572904366 0.0
0.0013029031671393872 -0.00021048365719324042 0.0
0.0013227676321584181 -0.0002156826927435745 0.0
0.0013323859533844724 -0.0001952187011690668 0.0
0.001351805618248731 -0.00019978834756899003 0.0
0.0013416534511523435 -0.00022092952155252708 0.0
0.0013699832749099565 -0.00020432624722049365 0.0
0.00017095716363421613 -6.770391199742556e-5 0.0
0.0001470186941991134 -5.606260968854822e-5 0.0
0.00013795118123935358 -5.010736438254881e-5 0.0
0.0007518532543502478 -0.00025267760145341516 0.0
0.0007692935799231916 -0.00025057464427902 0.0
0.0006815454433963439 -0.00024117877098469543 0.0
0.0006636101177253664 -0.00023332625612990142 0.0
0.0016701964187990595 -7.62755784137439e-5 0.0
0.0017058133234605433 -5.484829942839955e-5 0.0
0.001325976805912271 2.7830826472145474e-6 0.0
0.0012919973348775094 9.501462861896891e-6 0.0
0.00037552088756865324 5.521153323948305e-5 0.0
0.0003871413214560862 6.968453183297265e-5 0.0
0.0001955956801453681 -8.063123956837437e-5 0.0
0.0006382433239274919 -0.00015591176975133573 0.0
0.001164409389145335 -5.527226671172634e-5 0.0
0.0016365240957351495 -9.832177589426649e-5 0.0
0.0005232567071991821 -9.705157808964116e-5 0.0
0.0011655290281129083 -2.1689586392586674e-5 0.0
0.0013586318754358246 -0.00022602044230816002 0.0
0.0013861882904528675 -0.00020882512707321588 0.0
0.001401110732022766 2.3032106889807578e-5 0.0
0.0014662404275129826 2.3354184302804423e-5 0.0
0.0005133772611278299 9.509508034947672e-5 0.0
0.0002876142579971135 -9.004801213490857e-5 0.0
0.00019171198010752564 -5.809742750255425e-5 0.0
0.00018934443072611602 -5.468229024124881e-5 0.0
0.00030301705958372726 -0.0001275587599425746 0.0
0.0012879054027945833 -0.00025093727829656934 0.0
0.0010482411987476044 -0.00012708060509832928 0.0
0.0009394924214487816 -0.00023175389654726103 0.0
0.000614171678994195 -0.00018417448094961694 0.0
0.00015310979783652367 -6.16562226191078e-5 0.0
0.00012959693899533607 -5.0006287416244256e-5 0.0
0.00039859306966307027 -0.00015854657808581633 0.0
0.0011481785151287588 -0.00015970331863158352 0.0
0.00115467244839993 -0.00014599330966163978 0.0
0.0006986074668905628 -0.0002491946069802666 0.0
0.0014295235907899834 2.2200160727274017e-5 0.0
0.001486126743944319 2.1703078306632746e-5 0.0
0.001451751844194983 1.9504302159005436e-5 0.0
0.0015072286382248356 1.8706518423827515e-5 0.0
0.001542067739498091 2.0650072262374782e-5 0.0
0.0015632533036716815 1.7443191866839272e-5 0.0
0.0015278239791456764 1.4778945606803302e-5 0.0
0.0015825319518075207 1.3509465464613075e-5 0.0
0.001547213994624189 1.0203837050826375e-5 0.0
0.0016012700109193044 9.231600918667587e-6 0.0
0.0015665696698908532 5.084308190393174e-6 0.0
0.0016187688691665894 4.78412233795003e-6 0.0
0.0015846172659625044 -2.2217896533206275e-7 0.0
0.0016354801894062113 2.8715888740372684e-7 0.0
0.0015313557525032807 -9.197517464465854e-7 0.0
0.0016017878990085665 -5.559017497114942e-6 0.0
0.0016500402779795744 -4.360456951478502e-6 0.0
0.0016003485497658053 1.8807418501740266e-5 0.0
0.0003875681640305584 -0.00013653384249163558 0.0
0.0003816947639877633 -0.0001562997945981562 0.0
0.0004023407517743641 -0.00016690372090094475 0.0
0.0016181633605721472 -1.0726470181669972e-5 0.0
0.001664337199974117 -8.683986835606568e-6 0.0
0.0015730451201870486 -1.2614352249936769e-5 0.0
0.000960035052430241 -0.0002383568489062037 0.0
0.0009374716908080049 -0.0002436153037790808 0.0
0.0009578168772178665 -0.00025059200864218576 0.0
0.0009359624875623896 -0.0002556772550452879 0.0
0.0009559456904142745 -0.0002629595035382185 0.0
0.00093499341929577 -0.00026785152896381334 0.0
0.0009152136362727738 -0.00026054696348433735 0.0
0.0009146701175738052 -0.00027239599893078025 0.0
0.0008956094843180095 -0.0002650510560485611 0.0
0.0009658991292396201 -3.8364849277086035e-5 0.0
0.0009545868623745326 -0.0002754571838903238 0.0
0.0009753839299104659 -0.00027042564682160835 0.0
0.0008330093301336126 -0.00012654075610401823 0.0
0.0007996831838555878 -0.00018248769081044932 0.0
0.0008220552063506441 -0.00017882575062971547 0.0
0.0008017011831429553 -0.00017443239329746916 0.0
0.0008244914330542655 -0.0001706999276772619 0.0
0.0008039846937596558 -0.00016672380281075087 0.0
0.0008271753749816706 -0.00016293302165304468 0.0
0.0008478079063262361 -0.00016661887299767152 0.0
0.000850875964971712 -0.000158776362714395 0.0
0.0008716797205531168 -0.00016217323838672404 0.0
0.0008750817975988374 -0.00015423179367547415 0.0
0.0008951111703076791 -0.00015735769123692442 0.0
0.0008543388134121021 -0.00015104431892459252 0.0
0.0008065488191522866 -0.00015935827274453623 0.0
0.0007832974902193997 -0.0001628752794334036 0.0
0.00089153257664492 -0.00016587922336816873 0.0
0.0009163854631506546 -0.00016022934544554035 0.0
0.0003862709986108577 -0.00016492474684411148 0.0
0.0008812095825497242 -9.958174770589882e-5 0.0
0.000942179137982655 -6.771094932646217e-5 0.0
0.0009467873792660905 -0.0001978724650225485 0.0
0.0017145469505804086 -3.0695741105440196e-5 0.0
0.0017366644268289875 -2.7477918519785216e-5 0.0
0.0010009329920121351 -6.09735803817604e-5 0.0
0.0009713538394927696 -7.33578227959673e-5 0.0
0.0013117449463953255 -0.00019073651081381445 0.0
0.0011377263162123223 -0.00010192358634058137 0.0
0.001689906702317083 -7.532190287703226e-5 0.0
0.0017245848449717646 -5.385990338044963e-5 0.0
0.0009437712730583497 -9.304863373842074e-5 0.0
0.0006650132467907107 -0.00024272453474877075 0.0
0.0006471250437954602 -0.00023464468429530022 0.0
0.0010394922473170698 -4.569854802733994e-5 0.0
0.0008950833421058914 -0.00027661766529257136 0.0
0.0008762593010963151 -0.0002687295864802332 0.0
0.0006457361407005964 -0.00022548941320676478 0.0
0.0006290037448530634 -0.0002265624485898255 0.0
0.0006275319057873275 -0.0002176385176203559 0.0
0.0006105790477891532 -0.00021844390599792048 0.0
0.0006124275055653508 -0.00022756669079528866 0.0
0.000593947700081009 -0.0002191959508667595 0.0
0.0005959735375326051 -0.00022850770274959262 0.0
0.000577417738260474 -0.00021989529152480864 0.0
0.0002875237824207833 -0.00012429086585408466 0.0
0.0017482462292011816 -2.093983130428153e-5 0.0
0.0012574305105410033 1.0632575381061541e-5 0.0
0.0012242657827860786 8.742438957454876e-6 0.0
0.0005717559611607024 -0.00015179205330747642 0.0
0.00046912011984486917 -0.00015277266703025728 0.0
0.0016813067846941602 8.561790640525129e-8 0.0
0.0016553385715008023 7.716002177994005e-6 0.0
0.000769255729864669 -0.00026071224315795706 0.0
0.0007872768426517453 -0.00025835604425374857 0.0
0.001217431808073675 -0.00026700555188354744 0.0
0.00026521161854296837 -9.592326449041688e-5 0.0
0.0010416628983030004 -0.00010096272474892059 0.0
0.001185998565560563 -2.7739642431096925e-6 0.0
0.0011937679953555873 5.374906804115775e-6 0.0
0.0013428561092723105 -0.0001749392811411884 0.0
0.0013949610833638968 -7.036591332085872e-5 0.0
0.0013984751678999805 -0.0001870418335696781 0.0
0.0014148682147346288 -0.00019065588791991096 0.0
0.0014013708260377019 -0.00021387277967368313 0.0
0.0014303362787592318 -0.00019524214587403888 0.0
0.0008276658342744322 -0.00011534912858656019 0.0
0.00030837516029508987 -0.00013593225091782838 0.0
0.0008975267155466867 -0.00014921220665717295 0.0
0.0014937040120937349 1.0409372239316283e-5 0.0
0.0007730474399099236 -0.0002409420998868041 0.0
0.0004059138009567308 -0.00017556590551449984 0.0
0.0004219366644296248 -0.00017737186511207655 0.0
0.0011947694442432082 -0.0002770857731168849 0.0
0.0006088016088127057 -0.0002098130155620954 0.0
0.0010736251792183638 -0.00016222326630784434 0.0
0.0010463536924148475 -0.0001702232989954986 0.0
0.0017085982310141442 -7.516159342306998e-5 0.0
0.0017440595618332024 -5.2484730652305756e-5 0.0
0.0017588839379638667 -3.557131245001395e-5 0.0
0.0005785017332772855 9.575294620205898e-5 0.0
0.00013569240604058465 -5.5422432030319274e-5 0.0
0.0001122606047587424 -4.35883081794331e-5 0.0
0.00010870641414862861 -4.0192002194924124e-5 0.0
0.0012853044898883228 -7.562891303391569e-6 0.0
0.0013183042349896614 -1.5963226072795043e-5 0.0
0.0012533104245348583 1.534716686359638e-6 0.0
0.0013120217161127498 -3.1507627912295546e-6 0.0
0.0016339763486089118 -1.521422991042467e-5 0.0
0.0016795600527935682 -1.2272565957379386e-5 0.0
0.0006487933379648845 -0.00024417403908241005 0.0
0.0012738961911485838 -4.011846528233871e-5 0.0
0.0003185597500981984 4.991291423108906e-5 0.0
0.00032813016373784505 5.9836972181886387e-5 0.0
0.00040478039574464044 8.267629895448102e-5 0.0
0.0003395390938358031 6.670659464823618e-5 0.0
0.00045053049732072457 0.00010078108389656784 0.0
0.0008750287279286242 -0.0002569577717189056 0.0
0.0005750293872012808 -0.00021085891507062975 0.0
0.0005588572859147416 -0.00021134092588916386 0.0
0.0005612019531374969 -0.00022054999415701637 0.0
0.0005427959579762573 -0.00021177119140984414 0.0
0.0014434525548822138 -0.00017235303937652573 0.0
0.001458757379398925 -0.0001767337820388348 0.0
0.0014458342615670243 -0.00020075687377499245 0.0
0.0014737333642457877 -0.00018196685545247008 0.0
0.0011306874724679565 -0.00014335975821969584 0.0
0.001161375029648131 -0.000132927697762271 0.0
0.0009741400459369172 -0.00028315981035878084 0.0
0.0009945420104928119 -0.00027802146465106446 0.0
0.0007858483337798958 -0.00015582933348858876 0.0
0.0007624494877653652 -0.00015908836807021997 0.0
0.0007497986609356425 -0.00026315939623674676 0.0
0.0005452109844357459 -0.0002209986554972552 0.0
0.0005271301735630123 -0.0002121012976543777 0.0
0.001617934205966305 -9.785833348309457e-5 0.0
0.0016034019393432685 -0.00012109165367349952 0.0
0.0015859856230605186 -0.00011992257995250359 0.0
0.0015748200238352244 -0.00014195663310652252 0.0
0.0007872828454747238 -0.0002695573553520391 0.0
0.00015730086952862128 -6.733205487469485e-5 0.0
0.0002159625207690301 -7.526763510098993e-5 0.0
0.00018888030192057623 -6.450088540969895e-5 0.0
0.00015674753030993854 -4.674112835021062e-5 0.0
0.00015224430266844697 -4.308295901189632e-5 0.0
0.0001870084610834791 -5.058363447213701e-5 0.0
0.00014821705141065147 -3.882129508538489e-5 0.0
0.00018429166864320347 -4.5424654461249115e-5 0.0
0.00014403307594614375 -3.366222716580479e-5 0.0
0.00018191117246544502 -3.904978334453779e-5 0.0
0.0016214121804044208 -0.0001223679750204184 0.0
0.0005396915142074289 -0.00020291455507003936 0.0
0.001321360664732187 -0.0001717012632846159 0.0
0.0011762650462576023 -0.0002692731962591524 0.0
0.001173110886468476 -0.00028631792256595307 0.0
0.0011551713119173186 -0.00027857104116393324 0.0
0.0008762288254359485 -0.0002803402500674766 0.0
0.001284220243135026 1.0613664045707205e-5 0.0
0.00146104633437188 -0.00020713975340429081 0.0
0.0017794069699899725 -3.290663107988983e-5 0.0
0.0017633663835632221 -5.042605306622157e-5 0.0
0.0005865115186910116 0.00011717568032615024 0.0
0.0012541540462187378 1.527644755341777e-5 0.0
0.0009256822662115689 -0.00019286524330175439 0.0
0.0009494072612132585 -0.00018739291839474945 0.0
0.0009150465982914988 -0.00028449495971690213 0.0
0.0008578149579389448 -0.00027231491778904535 0.0
0.00041815451909483337 -0.00011183196758220236 0.0
0.0017087602192406006 -6.81429395286283e-6 0.0
0.0017232151739121511 -9.419829713327416e-6 0.0
0.0016931191995112492 -1.5301276047455193e-5 0.0
0.0017353313221441869 -1.1704508480898783e-5 0.0
0.0013929255955339517 -0.00011494807490647685 0.0
0.0010266408819566409 -0.0002337430357630632 0.0
0.0010509266111911172 -0.00015879879106603552 0.0
0.0007748440172439499 -0.00021182577226833447 0.0
0.0011257467994390071 -8.229201058791099e-5 0.0
0.0011786788236496904 -0.00014888210712560125 0.0
0.001174994740205046 -0.00019762494193526983 0.0
0.001202797637669331 -0.00018610679153670362 0.0
0.001282068963860074 -3.164399938106657e-5 0.0
0.0013201883571277678 -3.7410122819246624e-5 0.0
0.0004251295310613905 -0.00018616007598855588 0.0
0.00044033166259019145 -0.00018750971042833867 0.0
0.00013999716828524145 -2.749396537441533e-5 0.0
0.0001780874976300515 -3.1122738152431314e-5 0.0
0.0002214159747583546 -4.333676068766935e-5 0.0
0.00021906850281570655 -3.355259434727355e-5 0.0
0.0001755257817114227 -2.2225145457793242e-5 0.0
0.00021860345442085023 -2.248808363218101e-5 0.0
0.00017445341408227759 -1.2601961597397776e-5 0.0
0.0002202377932888735 -1.0410880284555112e-5 0.0
0.00017461004058070382 -2.7829882742882206e-6 0.0
0.00011856972194028346 -4.910074263887992e-5 0.0
0.0010238263474751594 -0.00016629142551006658 0.0
9.550499176269875e-5 -3.729887968179556e-5 0.0
0.00039071160682933376 -0.00017382681397674123 0.0
0.0017716442221815463 -1.7589921065383852e-5 0.0
0.0008422917324127348 -0.00018338666719385497 0.0
0.0011581288522990545 -7.4917506608011815e-6 0.0
0.001169173364080823 1.812564836865849e-6 0.0
0.00022279237216319878 2.117648558745053e-6 0.0
0.00029375257936464175 -0.00013320001305952716 0.0
0.00027302115993518296 -0.0001212650600862091 0.0
0.0005638026545032104 -0.0002317409400558532 0.0
0.0012105174689793843 -0.00028498160535727664 0.0
0.0006663409143512465 -0.0002524781866332302 0.0
0.0014885896684753391 -0.00018776198472624612 0.0
0.0017931851283704695 -2.120582597762365e-5 0.0
0.0007601857392366632 -0.00016612487711549625 0.0
0.0007393853345821213 -0.00016200664792675106 0.0
0.0007373388644480838 -0.00016904276942363402 0.0
0.0006465014646675497 0.0001156451008229863 0.0
0.000717741993512469 -0.00016459592035450774 0.0
0.00016378217684496712 -5.080354970433814e-5 0.0
0.000993349050262667 -0.00029113542604415876 0.0
0.0010137149135125206 -0.00028589348719377974 0.0
0.0010151848587859646 -0.000272497115956739 0.0
0.0010341247648103036 -0.0002802382300247401 0.0
0.0012241816844434043 -0.00019037985225654814 0.0
0.001232487376964708 -0.0001734381652282211 0.0
0.0017813607162315843 -1.3488829201036983e-5 0.0
0.0017574501430038792 -1.669050625646665e-5 0.0
0.0012067227003393591 1.307744310212458e-5 0.0
0.0011790221080490463 8.9007249978887e-6 0.0
0.0003713342427251672 -0.00016301461418886872 0.0
0.0005297096746505421 -0.00022138975816238455 0.0
0.0005119312840184488 -0.000212341810968661 0.0
0.0008983072991438205 -0.0001188524090641627 0.0
0.0014342331237088412 -0.0002257566699028042 0.0
0.0001771818684724611 6.533945318090509e-6 0.0
0.0005088595730904314 -0.00020307246925733535 0.0
0.001032681734756622 -0.0002940347036135954 0.0
0.0010526735965432923 -0.0002882174733304337 0.0
0.0010278527630691293 -0.0001557385197907347 0.0
0.0010013651625986387 -0.00016254559529304278 0.0
0.0010052714728517559 -0.0001526383313809931 0.0
0.0009538422242325328 -0.00010184836107078791 0.0
0.0001663644724522161 -5.754718679751224e-5 0.0
0.0001017108954995937 -4.2796163202899926e-5 0.0
0.0010361640925968631 -0.00026655222525452844 0.0
0.0010723814858329386 -0.0001291694127993189 0.0
0.0008581014756035371 -0.00028387549646951177 0.0
0.0003795603553995896 -8.986377144740696e-5 0.0
0.000647599855924053 -0.00013371557862143805 0.0
0.00031381203407938483 -0.00014525449141351932 0.0
0.0015017939605908373 -0.0001632696522058823 0.0
0.00040798785824781777 -0.00013963565404437675 0.0
0.0003841954697642744 -0.00013023534198586468 0.0
0.00040659369031314076 -0.00013370116240295338 0.0
0.00038179453612536564 -0.00012450358771689364 0.0
0.00040501043543007625 -0.00012810353132218248 0.0
0.00035898223125542387 -0.00012059036903849087 0.0
0.0011525599929629862 -0.000294974429863046 0.0
0.0011362331008510757 -0.0002872886767110921 0.0
0.00025598060770684464 3.948905228871733e-5 0.0
0.0008769193475089102 -0.0002918889595075743 0.0
0.0008545685046505824 -0.00022736119969692505 0.0
0.000833992230851329 -0.00023111692303067708 0.0
0.000443750744296154 -0.0001965716251669927 0.0
0.0001276228180709806 -3.889814292981825e-5 0.0
0.00013716983030230125 -4.3488256568890944e-5 0.0
0.0016448263587829236 -4.0352109715683474e-5 0.0
0.0016801352722754762 -3.0009028498900922e-5 0.0
0.0002632259002350645 -4.6338046699072685e-5 0.0
0.000458591509243367 -0.00019747208877105162 0.0
0.00045636681534500846 -0.00018916307491301696 0.0
0.00046197734432502983 -0.00020674120477911996 0.0
0.00042923281074915275 -0.0001954219979011036 0.0
0.00036958432705751486 7.636889198445075e-5 0.0
0.0006793229476894293 -0.00022292672773773726 0.0
0.0010197072419924505 -0.00017752312315372557 0.0
0.001653018990195351 -3.310886410816075e-5 0.0
0.000973281058085988 -0.0002960397111409634 0.0
0.0006501589848270767 -0.00025405670255093687 0.0
0.0017981821578266718 -3.0336916180276327e-5 0.0
0.0017816262577323055 -4.8745817287492045e-5 0.0
0.0006433714003884286 9.156101174576415e-5 0.0
0.0005150880905201112 -0.00022193440356676716 0.0
0.0011367405868769828 -0.00013044776048021234 0.0
0.0011702520865240233 -0.00011971716501593324 0.0
0.00021162483271611621 -7.118750777857264e-5 0.0
0.0002794776349486693 -0.0001303569929134635 0.0
0.0002591670056503207 -0.0001184173241521733 0.0
0.00025228735841859815 -0.00010963745136448718 0.0
0.0003760756931490967 -0.00017208069535373923 0.0
7.895000861989472e-5 -3.103074100291287e-5 0.0
7.419947197653728e-5 -2.7426959675224275e-5 0.0
0.0010511997512417397 -0.00030236761415460136 0.0
0.0010706135404507046 -0.00029639005757410526 0.0
0.0010715875578874048 -0.00028116703825773414 0.0
0.0014723270542837783 -0.00015405951423040366 0.0
0.0014563758152652101 -0.00015078349549147997 0.0
0.0014489947544618176 -0.00023343584277242115 0.0
0.0003561075648940265 -0.00011515965458719197 0.0
0.0003336332116385749 -0.00011110255611699876 0.0
0.0011947170257446138 -0.00012157521742206783 0.0
0.0017640466120655237 -6.895827517631168e-6 0.0
0.0017749463569455427 -8.435862924812984e-6 0.0
0.0017868589627435063 -1.1210589087196721e-5 0.0
0.001740389658222639 -7.838855177033897e-5 0.0
0.00012469634718735023 -5.592625486843887e-5 0.0
0.0011552632481978719 -2.9666945538518207e-5 0.0
0.0011257564730791387 -3.364377297999436e-5 0.0
0.0011152827507261132 -4.083512908790311e-5 0.0
0.0010871879326383926 -4.498061181874454e-5 0.0
0.001078171513396948 -5.1290774611644154e-5 0.0
0.001095406965342791 -3.9008464645202024e-5 0.0
0.0009284605862491643 -0.00018287001669888914 0.0
0.0007649396112941081 -0.00015242368768723048 0.0
0.0007887569345681549 -0.00014912056998022248 0.0
0.0002656460433707279 -0.00012766943695849756 0.0
0.0002453929712725811 -0.00011537010136946664 0.0
0.0015771126880886035 2.1375978252582365e-5 0.0
0.001638206095681188 1.9149968831375882e-5 0.0
0.0016622761721541107 1.5889470644134725e-5 0.0
0.0017007773086346663 1.5842441964303657e-5 0.0
0.0016857651838663047 1.8025769155038523e-5 0.0
0.0008406632200025329 -0.0002761218112369818 0.0
0.0008401338266446073 -0.0002652018642096603 0.0
0.0008405796050996062 -0.0002872915096586619 0.0
0.0011324573156580968 -1.3452487320302019e-5 0.0
0.0011205447035528302 -2.1776655814458284e-5 0.0
0.00026658629582946013 -5.618961622571485e-5 0.0
0.00012813086390740946 1.084655055914003e-6 0.0
0.0011331226560525004 -0.00030298342331530457 0.0
0.00031119254406414916 3.9291069095597286e-5 0.0
0.001141769553365739 -0.00017369245249243513 0.0
0.0011107918839947308 -4.682501180213828e-5 0.0
0.0010697219963479263 -5.749726094271687e-5 0.0
0.001096223609482181 -5.499658020820631e-5 0.0
0.0010614087758797108 -6.384913312597966e-5 0.0
0.0010867505268709532 -6.204434238955496e-5 0.0
0.0010534575718964608 -7.054533681960564e-5 0.0
0.0010783703335962408 -6.926261898975847e-5 0.0
0.0010459218053685106 -7.758105576641598e-5 0.0
0.0010715775392801093 -7.660984091600583e-5 0.0
0.0010349471697464144 -6.626915630001637e-5 0.0
0.0010210464168014144 -7.873961782592008e-5 0.0
0.0011698914578989151 -0.00030285578297976635 0.0
0.0018107050476419881 -9.620584559048705e-6 0.0
0.000626366514360274 -0.00020920274354133117 0.0
0.0006069145427636861 -0.00020178306761642602 0.0
0.0016738053677689921 -9.94251538884577e-5 0.0
0.0007206418216171558 -0.0001588734930607687 0.0
0.001051997085494031 -5.481710354326514e-5 0.0
0.000479749485332936 0.00011660913239940713 0.0
0.00011511133958956064 -3.176425618758586e-5 0.0
0.000715736610592402 0.00011074329701653527 0.0
0.0007034992950815146 8.332827460967105e-5 0.0
0.0013738128583602653 2.1633843585405206e-5 0.0
0.0016918766131542012 -0.00010036698723971312 0.0
0.001659216057586502 -0.00012604605375609256 0.0
0.0007152552459915245 -0.0001715409828841371 0.0
0.0006978082079291691 -0.0001659001861348569 0.0
0.0003276905778468846 -0.00014102976654634862 0.0
8.507796417341821e-5 -3.640088177490902e-5 0.0
9.840904777070051e-5 -3.0422579697635673e-5 0.0
0.00010336896072734333 -3.298272904421004e-5 0.0
6.244533732050852e-5 -2.4729209478578706e-5 0.0
0.0012101290425365343 -0.00017019294397752855 0.0
0.0012410650514666855 -0.00015725809001918635 0.0
0.001264363030209696 -0.00015999850325519298 0.0
0.001273207784076777 -0.0001433570414567761 0.0
0.0010144311218492988 -8.523952747712276e-5 0.0
0.0005529208036243862 0.00013818445119635235 0.0
0.0006708244098787953 0.00013700466797905708 0.0
0.000979052346124932 -0.0001589974090936054 0.0
0.0009833020907500229 -0.0001494351332813429 0.0
0.000768144983571043 -0.00014636437628578498 0.0
0.0006651488240367854 -0.00014848692029045027 0.0
0.0006676907897753764 -0.00026253703195132366 0.0
0.0013321243754883438 -0.0002424273903791528 0.0
0.0013477974462999317 -0.0002481175797788995 0.0
0.0013232005822133817 -0.00026370868239027973 0.0
0.001338116585142578 -0.00027030728049944904 0.0
0.0013150864463124267 -0.00028482184810601076 0.0
0.0013000752804961015 -0.0002780925750663943 0.0
0.001259455593524928 -0.00026642206339376066 0.0
0.0011366034715174704 -0.00027049257870481394 0.0
0.0012613684925225372 1.4636774342400972e-5 0.0
0.0009173056893434423 -0.00023690920105924742 0.0
0.00026621029342018557 -2.104670732191843e-5 0.0
0.0017629077874137574 -7.279391163482971e-5 0.0
0.0017985816559887512 -4.670686034715404e-5 0.0
0.001362302601747942 -0.0002545009758372209 0.0
0.0013534241349584758 -0.0002776388713008032 0.0
0.001376728290949876 -0.00026222672656631103 0.0
0.0006832944199120398 -0.00026082594305297676 0.0
0.0008147421924576949 -0.0002245780082511755 0.0
0.0008143764373579532 -0.00023437617681452286 0.0
0.0008332328947844854 -0.00024146882978300167 0.0
0.000573428690383121 -0.00017872063719523684 0.0
0.000795184856812303 -0.00022765601059831676 0.0
0.001017355710936335 -0.0002595235629307449 0.0
0.001486949593046445 -0.00013215986028553467 0.0
0.001516281813705724 -0.00016820999153777515 0.0
0.001502883269732781 -0.0001945666518987896 0.0
0.0015339504898290788 -0.00014183629254700791 0.0
0.00022737828440050668 -5.8018007870557775e-5 0.0
0.0006143941326197276 -0.00023711241021180738 0.0
0.0005983448559171182 -0.0002382847197342814 0.0
0.000616199920961963 -0.0002469662454824024 0.0
0.0006008787021060089 -0.00024834854702279085 0.0
0.001296844720840501 -0.00014528878481863197 0.0
0.00039548207847132856 -0.00018313352903612582 0.0
0.0003576617071396167 -0.00016137557748005068 0.0
0.0017454571465741501 -1.3676307999911151e-5 0.0
0.00010422625250423509 -2.2746915074226963e-5 0.0
0.00010075036443046498 -1.770144185924604e-5 0.0
0.0011157449750933781 -0.00029303427444870894 0.0
0.00111616177544015 -0.0003101280959930961 0.0
0.0009045584536669502 -0.0001880914040651759 0.0
0.0017251260235068584 1.2310090016781324e-5 0.0
0.0003621883887459282 -0.0001703669633702302 0.0
0.0014355019418875773 -4.213838282968376e-5 0.0
0.0015981196181587777 -9.771951135139159e-5 0.0
0.0016548524706073023 5.7183551646902655e-6 0.0
0.0016663779105497976 1.1790176686959853e-5 0.0
0.0012499579717974545 -0.00014179443299798867 0.0
0.001354018743215444 -0.0001559095166772101 0.0
0.0013754059945705799 -0.0001585900266588073 0.0
0.0012982051460008982 -5.747152247999245e-5 0.0
0.0013349224840869215 -6.127377687266877e-5 0.0
0.0013565388335439162 -3.912835451721835e-5 0.0
0.0010312198793351328 -0.0003078614376351064 0.0
0.0005315548708209075 -0.00023080382840188923 0.0
0.00077940178623958 -0.000177919545858115 0.0
0.0011064154717980122 -0.00014111717518869313 0.0
0.0009699147943319491 -0.00019182682290233436 0.0
0.0009923935916579993 -0.00030435168272522294 0.0
0.0004760483101118648 -0.0002072698013133628 0.0
0.0005895055232075767 -0.00020196689531066137 0.0
0.00026132844602018857 -8.42184020499068e-5 0.0
0.0017535852246601195 1.1864036094751821e-5 0.0
0.0012909593030807514 -0.00018722344125526484 0.0
0.00018340428837777256 -6.068412558334374e-5 0.0
0.0005799868312883218 0.000157012073484223 0.0
0.0009801568041510897 -0.0002452221387243398 0.0
0.0012930486034764797 -0.00029819325503804617 0.0
0.0012771748835665945 -0.000291092219793424 0.0
0.0011284364613778817 -0.000202333645066883 0.0
0.0012021345796362434 -0.00010881641715234952 0.0
0.0005484293288647134 -0.0001572704899988761 0.0
0.0008139565899056549 -0.0002461581249801171 0.0
0.001101108635668517 -0.00012106511815717551 0.0
0.0005874880339929361 -0.00019416862604496656 0.0
0.0005696975768392426 -0.00019402471957331467 0.0
0.00047935118615188176 -0.0002166554159767756 0.0
0.00030811857400360796 -5.965846356816819e-5 0.0
0.000307244749523712 -4.879764269418659e-5 0.0
0.00013206575191401153 7.3409377879571085e-6 0.0
0.00018529214294067962 1.5433991032808534e-5 0.0
0.0014234784464095722 -0.0002514884709520914 0.0
0.00023837249436715397 -8.161083428187134e-5 0.0
0.0003369438627216816 -0.0001165979438208699 0.0
0.00031146783748796624 -0.00010664936034883516 0.0
0.0015167080249493445 -0.00013955613915780774 0.0
0.0007539386026149567 -0.00022376332361180197 0.0
0.000952262396065277 -0.00017685339270689224 0.0
0.0012217113192064526 1.0464503498759072e-5 0.0
0.0012226826651507102 -6.350760023558621e-6 0.0
0.0011944611250694465 2.222591809387332e-6 0.0
0.001198053250938847 -1.6922911692571272e-5 0.0
0.0012262600101052065 -2.8133525509578134e-5 0.0
0.0013218579590912021 5.802211825462314e-6 0.0
0.0013569371660830918 5.153500718036505e-6 0.0
0.0013679579976469136 1.2427029497813637e-5 0.0
0.0014013230082023198 1.097242723077965e-5 0.0
0.0013906537384160177 3.5667620392014036e-6 0.0
9.223295556286396e-5 -2.746588620109815e-5 0.0
0.001306978562717354 -0.00012921196765810724 0.0
0.000261226476385903 4.4599561873956824e-5 0.0
0.0002947261286363059 5.425354210504636e-5 0.0
0.001069071936244057 -0.0003106135165617765 0.0
6.498973713721676e-5 -1.2709052496970207e-5 0.0
0.0014587007368749275 -5.831790027729044e-5 0.0
0.0014972139047771818 -4.695604556996638e-5 0.0
0.0014700978189025578 -4.5785091594777894e-5 0.0
0.001527792565700411 -4.650837705993298e-5 0.0
0.001536103644195761 -3.6522993048347614e-5 0.0
0.001567257635972049 -3.6412845056354696e-5 0.0
0.00043011247294978927 -0.0001368574794877954 0.0
0.00042979390519756695 -0.00013153184690324127 0.0
0.0004032765521463697 -0.00012276440866193242 0.0
0.0004291538603579426 -0.00012638626051094594 0.0
0.00045559662185665765 -0.0001346492858860664 0.0
0.00045553418656315046 -0.00012949784528356603 0.0
0.0004814208857173694 -0.0001371928081019292 0.0
0.0005183277894474745 -0.00023115499885235967 0.0
0.0004818500331153753 -0.00013185846380149 0.0
0.0005073890292119646 -0.0001392031301470022 0.0
0.00013239194560305792 -1.3362668367195141e-5 0.0
0.0003095199597468612 -6.866237076776405e-5 0.0
0.0005058600209221235 -0.00014449033203289913 0.0
0.00040460408094809353 -0.00011855974064779678 0.0
0.0014698476115195158 -0.00013022895957069618 0.0
0.001439597262849201 -0.0001484945218605114 0.0
0.0008236914439326487 -0.00027992986490268387 0.0
0.0008233254127582738 -0.00029076739770326663 0.0
0.0011706423998940662 -4.44709380278742e-6 0.0
0.0006461978990164912 6.628755596692831e-5 0.0
0.0007023064167016905 5.544139106077091e-5 0.0
0.0007564969547182908 7.026183320653568e-5 0.0
0.0007556144565986505 4.007662190835999e-5 0.0
0.0007064283093126056 2.7140554713373957e-5 0.0
0.0007589528749826674 8.020401321712686e-6 0.0
0.0007131246462853272 -1.074319101535643e-6 0.0
0.0007650916653713469 -2.1108124949739352e-5 0.0
0.0007200771817215645 -2.5900282324535098e-5 0.0
0.000778060895208284 -4.461976114417262e-5 0.0
0.0007251090459584701 -4.554119975490825e-5 0.0
0.0007713711107786366 -5.9309684558201436e-5 0.0
0.000726625707502391 -6.0296125009724706e-5 0.0
0.0007695306055733797 -7.075653575312728e-5 0.0
0.0007292302476579228 -7.23692111784373e-5 0.0
0.0007681777227131444 -7.9807304334383e-5 0.0
0.0007291578838878333 -8.149057404841138e-5 0.0
0.0007644257958172123 -8.670464167883745e-5 0.0
0.0007280448321411201 -8.865900133948208e-5 0.0
0.0007609039189362158 -9.239276561053029e-5 0.0
0.000726004382721704 -9.468041369936168e-5 0.0
0.0007567536409872659 -9.741358879338804e-5 0.0
0.0007225994643985646 -9.997354879759893e-5 0.0
0.0007525412613326146 -0.000101976967670392 0.0
0.0007190401055777348 -0.00010501959215377777 0.0
0.0006885986977391977 -0.00010198833960066344 0.0
0.000685837097852004 -0.00010734778070920331 0.0
0.0007502378084125147 -0.00010681077878362975 0.0
0.000693209895524432 -8.276618331798052e-5 0.0
0.0007855347820152227 -9.8423746428206e-5 0.0
0.0007985161911983427 -8.97566703895696e-5 0.0
0.0006708882311641052 -8.523694958482996e-6 0.0
0.0008072939834745098 -7.743014873024177e-5 0.0
0.0006543057833716254 -0.00010350452389226722 0.0
0.0006528223886435804 -0.00010908440306354736 0.0
0.0006831427396770095 -0.00011248339307620613 0.0
0.0006512498321859039 -0.00011436850413085861 0.0
0.0006860767876753497 -6.167242428168346e-5 0.0
0.0008197262421509104 -6.0028614054573745e-5 0.0
0.0006562820790903428 -9.740186189499068e-5 0.0
0.0008129304493939984 -1.4695004247370848e-5 0.0
0.0006807389214957831 -0.00011747536011797035 0.0
0.0006495767237433801 -0.00011949236065583365 0.0
0.0006197362235855321 -0.0001157008828400954 0.0
0.000620192507366924 -9.835170508301107e-5 0.0
0.0006199063383513975 -9.076169280810043e-5 0.0
0.0007121569917140493 -0.00011484089513596346 0.0
0.000708606051935216 -0.00011975154377793455 0.0
0.0007386826255279596 -0.00011665124721214255 0.0
0.0008085700667587806 5.062371344243685e-5 0.0
0.0008173097483158585 7.666282727924541e-5 0.0
0.0006196812648026402 -0.00012097776491751181 0.0
0.000588783797565738 -0.00011653171642224511 0.0
0.0005890224192041766 -0.00011113462452485052 0.0
0.0005560194581439732 -0.00011116331244754534 0.0
0.0009728459922462834 -0.00030872308223147104 0.0
0.0009540024882355064 -0.00030054504843227164 0.0
0.0016764280505272122 -0.00012776424454794487 0.0
0.0010385021646173627 -0.00025309018766100347 0.0
0.00105736163756933 -0.0002602833604084006 0.0
0.0006223683793566924 -0.00020073086813195644 0.0
0.0006419151844186142 -0.00020781677099411565 0.0
0.0015034162872548588 2.3219255126277257e-5 0.0
0.0010553879918652528 -0.00014758427786623423 0.0
0.000648884690199175 -0.0001244594297715405 0.0
0.0004917803246294314 -0.00020262219246718717 0.0
0.0004903819209729125 -0.00019406031475929303 0.0
0.0005060410212376523 -0.0001944285241311919 0.0
0.0011768224272495922 -0.00010762562073450544 0.0
0.0011180616776331827 -5.421792624139939e-5 0.0
0.0007361170732713943 -0.00017638637099484306 0.0
0.0007146311678887126 -0.00017893019945811322 0.0
0.0010945551134378083 -2.8502694280265365e-5 0.0
0.0010837529117123117 -3.5127117750838605e-5 0.0
0.001106752524307832 -2.9745174173709364e-5 0.0
0.001069995039248618 -4.213705735698125e-5 0.0
0.0011067995962703683 -2.090890025957789e-5 0.0
0.0011034036291202392 -6.85101337065049e-5 0.0
0.0010974131041979042 -7.602855400811065e-5 0.0
0.001062642385017928 -8.447743568978222e-5 0.0
0.000792225941414622 -0.00014286638128593795 0.0
0.0008130091644357469 -0.00014540904298018735 0.0
0.0008168722121342922 -0.00013918503850782077 0.0
0.0008373662645790626 -0.0001413075631134518 0.0
0.0008413507732411351 -0.00013509838792630848 0.0
0.0008618576160221675 -0.0001369282171194031 0.0
0.0008661439240458896 -0.00013064069981496315 0.0
0.000887685864070053 -0.0001320607519401841 0.0
0.0008827925707454998 -0.00013896785339244066 0.0
0.0009096401208126646 -0.00013284503283971882 0.0
0.0010107178052957946 -0.00014324945422951595 0.0
0.0009877326065250854 -0.00014052955763312365 0.0
0.0009613498998951547 -0.0001466675671309004 0.0
0.0009654665430980814 -0.0001382691180671534 0.0
0.00020713011219014707 -6.743705790064412e-5 0.0
0.00025251628427223747 -0.0001250671067181795 0.0
0.00023237063450463392 -0.00011243780527518229 0.0
0.0002254292213815512 -0.00010288306481296279 0.0
0.0002115988452510849 -9.938971386956067e-5 0.0
0.0009072606364385746 -0.00017861280815839023 0.0
0.001227857541896745 -0.00010954021262464254 0.0
0.001217640376307018 -0.00012360325636614198 0.0
0.0005267200114394305 0.00011347246330236342 0.0
0.0009909476439641993 -8.620720430093813e-5 0.0
0.0009963241028627442 -8.088350076584693e-5 0.0
0.0011322711841968295 -1.932055907630329e-5 0.0
0.0017753468024473476 -2.264387397412117e-5 0.0
0.0018059036473595746 -1.3952552071528786e-5 0.0
0.0018263771273753836 -1.1285437649485992e-5 0.0
7.19915410598503e-5 -2.246615240416091e-5 0.0
7.518519975170019e-5 -2.3888056853537376e-5 0.0
0.00010521373664372998 -3.4296871717872824e-5 0.0
8.010797049084848e-5 -2.5947238881457432e-5 0.0
0.00010814625303789575 -3.612032987177872e-5 0.0
8.349214378057084e-5 -2.778833329967729e-5 0.0
5.2589393023499305e-5 -1.6871118663009948e-5 0.0
0.0008836256953534804 -0.00018356936882157855 0.0
0.0004569240564404679 -0.00012476281100774644 0.0
0.0002864476776739096 -0.00014003823675267017 0.0
0.0007343235837276121 -0.000121285358239952 0.0
0.0016502414670784252 -0.00015154752279483935 0.0
0.0016313402337363387 -0.00015422377185449746 0.0
0.0013868160978839064 -0.00013939841595607253 0.0
0.0014148406431490333 -0.00013875794934585766 0.0
0.0014236029697541801 -0.00011897467499383119 0.0
8.304785248892465e-5 1.991984619482702e-6 0.0
0.0006524128456856404 -0.0002643369510886039 0.0
0.0004659959758991319 -0.0002163218473390039 0.0
6.876243602548975e-5 -3.0125695245025783e-5 0.0
9.30939671690364e-5 -4.490693599516299e-5 0.0
0.0003775856986411655 -0.00011448261498170066 0.0
0.0012065623526919989 -4.017615608960147e-5 0.0
0.0012395738728250292 -5.2703890839817177e-5 0.0
0.0013292095443886603 -0.0001537885442251946 0.0
0.001394830901973256 -0.00016204845736058745 0.0
0.0006184418978040193 -0.00025687511326076854 0.0
0.0006840172315818994 -0.0002706300627108451 0.0
0.0006997288397929175 -0.0002691366630305086 0.0
0.0015298608841076667 -0.00017471443972927878 0.0
0.0015164922556862275 -0.00020213970797781022 0.0
0.0014891790853016592 -0.00022613833288356796 0.0
0.0016891359304584553 -2.4217139659649265e-5 0.0
0.0016613599797922665 -2.651056552747965e-5 0.0
0.0016252029041637491 -3.5280466895172685e-5 0.0
0.0016305023005493762 -2.813833462667726e-5 0.0
0.0003263351708225292 -0.0001055039453105606 0.0
0.0015739555564420371 -2.771551780201821e-5 0.0
0.001537560095396652 -2.756120356585748e-5 0.0
0.0010607423057508254 -0.0002471717901976487 0.0
0.0002173019834210734 -0.00010814213518442604 0.0
0.0001989245719782218 -9.698799025908918e-5 0.0
0.0001916211925029388 -8.780230285898385e-5 0.0
0.00017904026358968086 -8.475734415890645e-5 0.0
0.0018332999447438986 -8.220446453864859e-6 0.0
0.0017855971196664763 -9.039485886755544e-6 0.0
0.0018135496436905336 -5.336432236065312e-6 0.0
0.0014374209759284743 -0.0002589864124285333 0.0
0.0007439697745609933 -0.00014913800719254766 0.0
0.0015419680680654434 -0.0001823657123367074 0.0
0.0015299965724010866 -0.0002090718437740693 0.0
0.001554005962814922 -0.0001899105674816418 0.0
0.001544261918912176 -0.0002194798305874936 0.0
0.0015695049784699606 -0.0001956195758251559 0.0
0.0015796758324417963 -0.00016910366561079512 0.0
0.0015929920209951827 -0.00017648067718973177 0.0
0.0008418757418997777 -0.00029811192213426217 0.0
0.0008255530423314388 -0.0003025702702987148 0.0
0.0008040760831788641 -0.00029378064809275486 0.0
0.0006200276550222623 -0.0001262969714567235 0.0
6.086479162268581e-5 -2.0080307963448113e-5 0.0
8.63105798034462e-5 -2.9580320910531938e-5 0.0
6.387637906203619e-5 -2.168492388108858e-5 0.0
0.000605484513086378 -0.00026024845862100275 0.0
0.0005871535528272152 -0.00025013842307191144 0.0
0.0017321812771616727 -9.985403167662608e-5 0.0
0.0001420654875551663 1.3294552662138735e-5 0.0
0.0009397549883884034 -0.00014502403666426657 0.0
0.0009449722960065685 -0.00013653636401343304 0.0
0.0016837592661905492 1.2339769810742624e-5 0.0
0.0017454203685858141 8.980934510291488e-6 0.0
0.0015465428566900621 -0.00012066949224453416 0.0
0.0003451229753827944 -0.00015957031124112908 0.0
0.0003518160106310756 -0.0001697661973678021 0.0
0.001290687211247142 -0.00016214477354738283 0.0
0.0014372609018422902 -6.662449983810547e-5 0.0
0.001780233216774013 -6.982628168596277e-5 0.0
0.0018161536490439712 -4.316449162557072e-5 0.0
0.001832829269130402 -2.5288413052394723e-5 0.0
0.0013710735079023881 -6.264188039446993e-5 0.0
0.0015012469284975466 -0.00011280365751571094 0.0
0.0008060794422879274 -0.0002642202972269682 0.0
0.0015581258651294842 -4.6091778546956155e-5 0.0
0.001446996019605272 -0.00013155427363357967 0.0
0.0005691390888037596 -0.00018609089774240638 0.0
0.00035197047294081125 -0.00015238588067511516 0.0
0.0017202466759898593 -2.02677710035127e-5 0.0
0.0014442943163267862 -2.2125766680392382e-5 0.0
0.0005875962984963471 -0.00025941578452150373 0.0
0.0002925660846581417 -9.52969804312636e-5 0.0
0.0009805370506278336 -9.352592584890938e-5 0.0
0.001408087186043181 -0.0002472718700376658 0.0
0.0014008796288278098 -0.000270099695172046 0.0
4.7265623925965217e-5 -1.8936915142495485e-5 0.0
0.0010869314494444176 -0.00030612857719095624 0.0
0.0010823727294970644 -0.0003176183464890887 0.0
0.0006996714098794059 -0.0002808416194046011 0.0
0.0007162807222072303 -0.0002780269583632077 0.0
0.0007152718259557209 -0.0002673557201499445 0.0
0.0007321974955365108 -0.0002757903026776337 0.0
0.0007168532213319743 -0.0002870320958161398 0.0
0.0006582002196563338 -9.058065034354568e-5 0.0
0.0006202843277922666 -8.274717068454534e-5 0.0
0.0002673660113703335 -6.367128423182634e-5 0.0
0.0006373109014282081 0.00016501038891927235 0.0
0.0006173130279736404 0.00014764492632318583 0.0
0.0011685926775084191 7.061877557402372e-6 0.0
0.0013664241993056033 -0.00028549167643082647 0.0
0.0013455629854864928 -0.0002998520251144972 0.0
0.0001844444820892519 -9.388139634754878e-5 0.0
0.0001648692381099539 -8.090100647417659e-5 0.0
0.001823933997900424 -5.449139636808619e-6 0.0
0.0003193239740669329 -0.00011315290743270063 0.0
0.0002907636065899289 -0.00010293977560275932 0.0
0.0017244768733195085 1.2914302046314135e-5 0.0
0.0017060354839054672 -0.00010272652998404582 0.0
0.001689956245855097 -0.00013290762244305896 0.0
0.0010069029437236546 -9.231248781314184e-5 0.0
0.001130980622310282 -0.0003177525839199928 0.0
0.001110323432724336 -0.0003258502165773906 0.0
0.0005296258785901459 -0.00014561327766973427 0.0
0.000533050688584772 -0.00014035555527010455 0.0
0.0007320993461339179 -0.0002653235598768449 0.0
0.0015511654174482504 -0.00014610551651368393 0.0
0.0008920788094159105 -0.00012553453707170363 0.0
0.0008726002347187709 -0.00012425930747420654 0.0
5.66406994376255e-5 -2.591646641042534e-5 0.0
0.000657027193146428 0.0002600266905445066 0.0
0.000820248668182808 -0.00013306510685145686 0.0
0.0005841648171580115 -9.163578867351285e-5 0.0
0.0005866709446864735 -9.908927993263595e-5 0.0
0.000352182579510337 -7.220739309938611e-5 0.0
0.0011320580749746435 -6.697481312931003e-5 0.0
0.0007625651796813043 -0.00011795968588844278 0.0
0.0007678716280635604 -0.00011337355621651019 0.0
0.0007906862650730616 -0.0001143449744006075 0.0
0.0007954926781704125 -0.00010998958616955713 0.0
0.0008174942633927628 -0.00011018468181708895 0.0
0.0008227411358274506 -0.00010592232832984139 0.0
0.0008003717791393319 -0.00010587041905351135 0.0
0.0008280709533141475 -0.00010187914641668244 0.0
0.0008057124458258906 -0.00010208062185702301 0.0
0.0008340420850251008 -9.81328005893517e-5 0.0
0.0008430007238344132 -0.00010589466548936737 0.0
6.77778417063915e-5 -1.020405040911646e-5 0.0
0.001088489404253241 -8.52270719690988e-5 0.0
0.0007513095877752397 -0.0001433436757154172 0.0
0.0008077904431367376 1.7308974811770046e-5 0.0
0.0008692292285091606 -1.2983817760229159e-5 0.0
0.0008648832041102667 -3.6380565330274687e-5 0.0
0.0008603070782955362 2.408458206372751e-5 0.0
0.000819809672932823 -3.833873649990395e-5 0.0
0.0008677365871865329 -5.134220018407374e-5 0.0
0.0009161978044614787 -5.1252080298566844e-5 0.0
0.0009123073996861684 6.632605529040325e-7 0.0
0.00013313638252035576 -4.460500733207314e-5 0.0
0.00013744990084058007 -4.7433404548149894e-5 0.0
0.0018253529225309689 7.182460312589717e-6 0.0
0.0017559974660281972 1.3465450884334349e-5 0.0
0.0017538649903236698 1.3301532899976303e-5 0.0
0.0013102757771689113 -0.0003075278778378242 0.0
0.0012868270641548402 -0.0003180920252164892 0.0
0.0004875625985491922 -0.00018574192302406756 0.0
0.0005038401699850605 -0.00018608618513333717 0.0
0.00047094647304772716 -0.00018490752434365454 0.0
0.0005490693088365128 -9.332444190947232e-5 0.0
0.0009118119562107795 -3.606945049883075e-5 0.0
0.0008571899443920439 -9.729103079482076e-5 0.0
0.0008617360742346259 -9.368393923132317e-5 0.0
0.0008398870451589355 -9.463655122618733e-5 0.0
0.0008668013968357571 -9.061577197821558e-5 0.0
0.0008469130488922956 -9.128298853439868e-5 0.0
0.0005017233969584952 -0.00022256912999629716 0.0
0.0018225812633548282 7.764991506339394e-6 0.0
0.000872268703372597 5.5611584548172765e-5 0.0
0.0011445620658604866 6.119159186250573e-8 0.0
0.0011408737470019598 -1.3833956410924561e-6 0.0
0.0011145178111884248 -1.0639735227704487e-5 0.0
0.0005840698593350897 7.376401471850435e-5 0.0
0.0008086358868628052 0.0001292884969818691 0.0
0.0007509502705199174 0.0001386588147359668 0.0
0.0007312537796053934 0.00015252065730972015 0.0
0.001309083441194375 -0.00010646674570475118 0.0
0.0014632055179835371 -0.0002417993223697495 0.0
0.001451303608172734 -0.0002708345204023868 0.0
0.00048188949679929554 -0.00022562749139337122 0.0
0.0007490134238091382 -0.0002737550445915592 0.0
0.0007497642027573206 -0.0002841670095729852 0.0
0.000765792146396012 -0.00028211347011246313 0.0
0.0007687303660282105 -0.0002938596789847179 0.0
0.0013032598644682318 1.860109458035233e-5 0.0
0.0012712306703633678 1.8996090018973096e-5 0.0
0.001313043756191611 2.0883809815575807e-5 0.0
0.0013486211746448933 2.1143174498849602e-5 0.0
0.0009718603340535416 -0.00013024614309914073 0.0
0.0009540558316937408 -0.00012805756677107343 0.0
0.000783489047860812 -0.000289929025252318 0.0
0.0005611877568848823 -0.00011749149379166422 0.0
3.910181596941197e-5 -1.4362483281083278e-5 0.0
0.000812455002058863 -6.883987876163321e-5 0.0
0.0008468635897051821 -7.485310815822279e-5 0.0
0.0008415132303515944 -8.056536862360736e-5 0.0
0.000878755263351071 -7.7154759713577e-5 0.0
0.0008712168845009344 -8.102976231672174e-5 0.0
0.000884404790805544 -7.261855065101529e-5 0.0
0.0008402997737908381 -8.452849422199092e-5 0.0
0.0008650709526005817 -8.432485556292548e-5 0.0
0.0009130404534975462 -7.321505628461375e-5 0.0
0.0012338480949107206 1.6234771937750572e-5 0.0
0.0008368246394267147 -8.816771107556435e-5 0.0
0.00185022696258868 2.1722242819004083e-6 0.0
0.0007048414973184989 -0.00012460518073982238 0.0
0.0008328782414700804 -0.00025218726020869635 0.0
0.0008534825237753742 -0.00024890757207893336 0.0
0.0008547029546541379 -6.810085720859206e-5 0.0
0.0008955298022017678 -6.688184028395797e-5 0.0
0.0010180216313429487 -0.00013428365096326595 0.0
0.0012817350275895467 -0.0002714485223612105 0.0
0.001259153084319742 -0.00028533327512384994 0.0
0.0012558556956147812 -0.00030345452489143846 0.0
0.001239228321423811 -0.0002976740140133676 0.0
0.0012376611897296043 -0.00031373450807086395 0.0
0.0012200474728763185 -0.0003086164458269197 0.0
0.0015136627355725437 4.837224853999611e-6 0.0
0.0014810279230725136 -2.5326089435430803e-6 0.0
0.0014964681989426325 -8.80098610693496e-6 0.0
0.0014484890931328032 -1.1731970134582365e-5 0.0
0.001461790399278714 -1.8560190121433708e-5 0.0
0.0014141474265801438 -2.271306716380511e-5 0.0
0.0014277060167836829 -2.9789278471268318e-5 0.0
0.001400645802813477 -1.5779249559920217e-5 0.0
0.0013673742912892926 -2.7489423592955245e-5 0.0
0.0014734286084535574 -2.556947147037955e-5 0.0
0.0013539377776355863 -2.0863037780118518e-5 0.0
0.001438602021273102 -3.71702026288084e-5 0.0
0.0013953170122561992 -4.1949528838735696e-5 0.0
0.0014038517547376955 -4.978227267276164e-5 0.0
0.0013869859209080639 -9.730143079476064e-6 0.0
0.0014635818045955634 3.4759827604135837e-6 0.0
0.0014840043480194036 -3.3282735161392975e-5 0.0
0.0015482263127684583 -7.84362643060091e-6 0.0
0.0015154410059560737 -2.2447058198607792e-5 0.0
0.0010577339080458008 -4.179367463189919e-5 0.0
0.0007714006916061335 0.0001243475799719748 0.0
0.00011524226672567148 -3.98987615631873e-5 0.0
0.00010825156898389765 -4.9882431639163324e-5 0.0
0.000129718384444987 -6.31366573956097e-5 0.0
0.000782351496702761 -0.00027956898763037647 0.0
0.0010433327716714614 -0.0001376250874245229 0.0
0.0010602253290257567 -4.958726672525165e-5 0.0
0.0010259991273661399 -5.8954663203070645e-5 0.0
0.001037774126769205 -5.394369443525046e-5 0.0
0.0010203642333842526 -6.303321679908065e-5 0.0
0.0010439187459855745 -6.01892793380345e-5 0.0
0.0010120859054772906 -6.803875669443336e-5 0.0
0.0010038674059768193 -7.314347242879998e-5 0.0
0.000984228689960123 -7.466376840957379e-5 0.0
0.00014013356996223943 -6.12483854045747e-5 0.0
0.0011761202822142434 -1.2445567109543842e-5 0.0
0.0013983445005548876 1.971115249222294e-5 0.0
0.0013447154637094858 1.8808478961930857e-5 0.0
7.789695309940898e-5 6.471736018136091e-6 0.0
0.00016897081159583825 2.1898963016319235e-5 0.0
0.00014856398778130369 1.83649592545424e-5 0.0
0.0011831489306000657 -2.826467499165969e-5 0.0
0.00017762574360315824 -7.536898986326557e-5 0.0
0.00020388379984932124 -8.99507036283169e-5 0.0
0.00021942593148913445 -9.488902611827285e-5 0.0
0.0002166400878664439 -8.862782069166695e-5 0.0
0.00023250422556167057 -9.230644051909313e-5 0.0
0.000790974906639743 -9.43528949054526e-5 0.0
8.129495379492074e-5 -2.3410736785577813e-6 0.0
0.0003808412832939835 -0.00010665503548555953 0.0
0.00031661128102112353 -9.567554190451781e-5 0.0
0.0009015463592513853 -5.984805181709193e-5 0.0
0.00030821457585019475 9.049209456637685e-5 0.0
0.0012323728060369002 -0.0002751237705245779 0.0
0.001135537099219376 -2.6037437623609248e-5 0.0
0.0017484142624389226 -9.797901240372967e-5 0.0
0.001382527716586968 -3.437802438284722e-5 0.0
0.0013361009266319604 -3.9756091573342445e-5 0.0
0.0012715496959489218 -0.00031065809271476485 0.0
0.0018546484611976178 9.622745080390206e-7 0.0
0.0018113213166485898 5.656910580689539e-7 0.0
0.001820091353196983 -1.2214513915579409e-6 0.0
0.0018039915877431482 2.6490785832312727e-6 0.0
0.0017714013488126534 -1.4745407535260858e-6 0.0
0.0017984907206773243 4.685270416276638e-6 0.0
0.0017490149814249536 4.874110152208449e-6 0.0
0.0017591474054266243 1.6903090928185052e-6 0.0
2.6188796322093174e-5 -8.131121567441745e-6 0.0
0.0018707669165979272 -2.041142082743827e-6 0.0
0.001839768568377632 -4.585388487382858e-6 0.0
0.0018587274049837081 -2.091396148032071e-6 0.0
0.001842282953394625 -4.919856359467919e-6 0.0
0.0011425477462710695 -4.648191860141203e-6 0.0
0.0013317428766417942 -0.00029135769014322903 0.0
2.1232895040258437e-5 -6.970578746073787e-6 0.0
0.0018776667481859017 -2.705975928281491e-6 0.0
0.0006513215270626621 4.083665393768452e-5 0.0
0.0014731798223167926 1.5276715728758542e-5 0.0
0.000535000621443448 -5.066241323016734e-5 0.0
0.0005819801804708605 -4.876325970046396e-5 0.0
0.0005808125935152986 -2.9530724524695014e-5 0.0
0.0005812739368166106 -6.331415221726445e-5 0.0
0.0006216462385359254 -6.295331723785047e-5 0.0
0.0006336941070023077 -4.962640269651265e-5 0.0
0.0006304891198023379 -2.9210951019718335e-5 0.0
0.0005825997069862993 -8.863824006544478e-6 0.0
0.0005406085795649383 1.5201951153573862e-5 0.0
0.0005407704058091634 -6.809542665645912e-5 0.0
0.001508411569372412 -0.0002276817943228449 0.0
0.001849358193358979 4.092659616847427e-6 0.0
0.0007332020284392002 -0.0002551375943540444 0.0
0.0002751296853967989 -0.00013960601815396265 0.0
0.0008012206826554766 -0.0002538092018140182 0.0
0.0006341574147323872 -0.00025558635668721685 0.0
0.0006352410250033947 -0.0002656891632962286 0.0
0.0008898717387439782 -8.896380979243495e-5 0.0
0.0011751837028669235 -4.48301181373874e-5 0.0
0.0016048167834573003 1.4660461729382025e-5 0.0
0.0016241107765918679 1.9438263677403055e-5 0.0
0.0015669172268027768 2.2069050881844895e-5 0.0
0.00013250706293855654 -4.325872029540811e-5 0.0
0.0002588618114375795 -0.00013470026935370324 0.0
0.000747447361728504 0.00019880906267179303 0.0
0.0006756430224203384 0.00019487030615010644 0.0
0.0014337088887448077 -7.252561651020045e-5 0.0
0.000770425257517262 9.75139593143034e-5 0.0
0.0016546419087283552 -9.867785363233884e-5 0.0
0.0007950412102914111 -0.00021812373685833452 0.0
0.0013773387753651589 -0.00010758365165240545 0.0
0.001397292112037668 -8.11105860128847e-5 0.0
0.0005968667457740725 2.651885326942365e-5 0.0
0.000469290447709528 -0.00022583444637737382 0.0
0.0016369201929736163 -0.00012808562037530625 0.0
0.0002999076418255742 -0.00014247875979601506 0.0
0.00031633244747668115 -0.000152563613963725 0.0
0.0003082530348340695 -0.0001540460436300372 0.0
0.0004501153726991325 -0.00011402840259591272 0.0
0.0010237314242446606 -7.292064530870781e-5 0.0
0.0011491423130158343 -3.9442517311827536e-5 0.0
0.0007160621219761643 -0.0001098881504985799 0.0
0.0007431498204008706 -0.00011194841931131543 0.0
0.0018156854161483023 5.5283522949943526e-6 0.0
0.00172695853218595 3.9586467989438635e-6 0.0
0.00010123532891111083 9.587549294890406e-6 0.0
2.6332258886107794e-5 -8.326717831229929e-6 0.0
0.0008495350883544976 -0.00010151740266096888 0.0
3.0165233029113147e-5 -8.445461399416698e-6 0.0
7.141969903214166e-5 -1.9365232091603963e-5 0.0
0.000792393876926486 -0.00024498620887280316 0.0
0.0012762131674593294 -0.00010052491955757122 0.0
0.0008326539743625823 0.00011345602757657296 0.0
0.0010946209680888356 -0.00013069702371928948 0.0
0.0008770231976478321 -8.69314558128408e-5 0.0
0.0014598001392641556 -9.940660470572113e-5 0.0
0.0017256536150175303 -7.560218519208383e-5 0.0
0.0005498767682243029 -0.00018593776110383074 0.0
0.0005517959126113085 -0.00019402684801238167 0.0
0.0005317471801308492 -0.00018485112677601342 0.0
0.0005109762120032202 -0.0001758269988574333 0.0
2.1771860402703886e-5 -7.348131883620281e-6 0.0
3.9676950859201405e-5 -1.395812514428943e-5 0.0
4.444016231434785e-5 -1.5157950537345734e-5 0.0
0.000481791289014922 -0.00014259177254447023 0.0
0.00045787206456023445 -0.0001409358622006685 0.0
0.0018728900683528632 -2.1513308541733956e-6 0.0
0.0009541513680809703 -0.000312872826753951 0.0
0.0009352997683252254 -0.0003046271825013853 0.0
0.0009355074379124364 -0.0003163779363539049 0.0
0.0009166529543974752 -0.00030832262876693525 0.0
0.0008977736101886602 -0.0003114447992736165 0.0
0.0008962751820160825 -0.00029995998586771774 0.0
0.0009348822067620183 -0.0002924306971581911 0.0
0.00135450705395426 -8.694270133299389e-5 0.0
0.00022405028482096802 -5.119379225981877e-5 0.0
0.00026495301539063176 -6.923400579618778e-5 0.0
0.00023215503242479706 -6.417421625024811e-5 0.0
0.0011251624365072462 -0.00012264457481098016 0.0
0.0005017181375024985 0.00013847495165564145 0.0
0.0009024713695016428 -0.00014078832997102097 0.0
3.330350208286626e-5 -1.0013371878011336e-5 0.0
0.000571925879787115 -0.000249912314381485 0.0
0.0005554438490215368 -0.0002481798568083506 0.0
0.0005584188347360262 -0.0002405405057592962 0.0
0.0006324352131497792 -0.0002455619757459147 0.0
0.0005504099542740377 -0.0001774118447105435 0.0
0.0002627882233857011 -8.79368329780906e-5 0.0
0.00016205726128824236 -5.783571620639127e-5 0.0
0.0018612284556353924 -7.648384882055337e-7 0.0
0.0018291362811737623 -2.361571098015684e-6 0.0
0.0003810597711529491 -0.00018152345354295846 0.0
0.0004479303959275525 -0.0002057873318716663 0.0
0.00043348191346521264 -0.0002049613681602893 0.0
0.00041460839708363096 -0.00019405543935337898 0.0
0.00041814375942350596 -0.0002032042166030615 0.0
0.0012061933184282436 -7.335161164216181e-5 0.0
0.0008865642593668277 7.998278915736967e-5 0.0
0.0011502663748532197 -0.0003107759592420522 0.0
0.0011669003419992462 -0.00031879483000450595 0.0
0.0011855607241102182 -0.00031139559710425965 0.0
0.0011459452921325636 -0.00032741654089318595 0.0
0.0005897533294105081 -0.00018768357429988945 0.0
0.0010025214239579522 -0.0002396715779385225 0.0
0.0008095131522102635 0.00010868912366046601 0.0
0.0008016390139802429 -8.463117605574675e-5 0.0
0.0018789023165522415 -3.4044588403946783e-6 0.0
0.0018585099050331827 -9.002865897704853e-6 0.0
0.0018498862993167004 -7.97508143442912e-6 0.0
0.00039989104238757 -0.00019252430794346203 0.0
0.0003857029737645685 -0.0001906225919439982 0.0
0.0005760911641207145 -8.115804606810836e-5 0.0
0.0004925068253761805 -0.00017570441297552766 0.0
0.001722368030752052 -3.83058098809396e-5 0.0
0.0014808384996166243 -4.375036106320515e-5 0.0
0.0008357836743850289 -0.00011054840968732489 0.0
0.0008610137421409652 -0.00010574617469105162 0.0
0.001177000260338921 -2.4940860346630806e-5 0.0
0.0013140537137540053 -0.00023687501234764295 0.0
0.0007745898817594856 -0.00022107728044845404 0.0
0.0007750918461724783 -0.0002307620815226446 0.0
0.000203479936112336 2.6230255575319755e-5 0.0
0.00045554446136879587 -0.00017328979969392634 0.0
0.00043681772876165014 -0.00017067796240210836 0.0
0.00041584071799007376 -0.0001606434224831345 0.0
0.00041870994560207653 -0.00016877892671045142 0.0
0.00035196143015373303 -6.226460599900052e-5 0.0
0.0003515563016898166 -5.007471479486501e-5 0.0
0.00039756269810816596 -8.50003153680839e-5 0.0
0.0011636800203741846 -0.0003339751773630917 0.0
0.0011154433548349733 -0.00024717025481961165 0.0
0.0010916705841172052 -0.0002553068026919546 0.0
0.001114508051271038 -0.00026522203674619784 0.0
0.0010912267723549027 -0.00027297682716600087 0.0
0.0011072185176111602 -0.0002803366622298278 0.0
0.0011365687226376966 -0.0002541581116443519 0.0
0.0011566967254695068 -0.00025994404575891566 0.0
1.8281960567724364e-5 -6.570724066594069e-6 0.0
0.0018824680480961009 -5.225661444197393e-6 0.0
0.0014766984249696817 -0.0002146454917833209 0.0
0.0010492715702594192 -0.00031550004554066154 0.0
0.0017369107140576907 7.406621919263933e-6 0.0
0.0010123103092481958 -0.00029937886365421335 0.0
0.0010105633095236761 -0.0003123204487071584 0.0
0.0013508192551606206 -0.00013277224081634806 0.0
0.001208539485912338 -9.672622085760358e-5 0.0
0.0011842581129974646 -9.568718173075996e-5 0.0
0.0005800151067817732 -0.0002297159218695358 0.0
0.00035978776334131185 -0.00014532772241533442 0.0
0.0013588724427993732 -5.603224513157057e-5 0.0
0.0014140354169274974 -0.00022366863358933817 0.0
0.0006369578533708862 -0.00016235647090295804 0.0
0.0006589636842663718 -0.00016105071406246767 0.0
0.0006566958463524688 -0.00016786773170701611 0.0
0.000662023646040552 -0.00015464923816233133 0.0
0.0006350333326590147 -0.00016917677980257358 0.0
0.000680254325399433 -0.00016017700793850262 0.0
0.0006846897261358002 -0.00015408843910554826 0.0
0.0006925508732129586 -0.00014746229575226226 0.0
0.0013924952432501478 -1.810682604981227e-5 0.0
0.00018283687495294158 2.415565870071075e-5 0.0
0.0013214651741578509 -3.3226852016907334e-5 0.0
0.0014278087412612178 -0.00010260133415577208 0.0
0.0003755216040083829 9.371080920949293e-5 0.0
0.00026388745383851644 -3.452089041769554e-5 0.0
0.000396144188544115 -6.430313343145267e-5 0.0
0.0003199004510234535 -0.00013108769981598159 0.0
0.0006399289757325628 -0.00014976276275723645 0.0
0.0005086836992421045 -0.0001336609643170064 0.0
0.0005416488410916946 -0.00013553327830172695 0.0
0.0005607723227458887 -0.00014215212821948282 0.0
0.0008585562049297508 -0.0002951764459138539 0.0
0.0008779786126502892 -0.00030318215651941834 0.0
0.0008782030923820359 -0.0003154876046977685 0.0
0.0008959730439509285 -0.0002883627883954457 0.0
0.001386629630013535 -0.00023844851927296078 0.0
0.0006779631696842311 -0.00012234206125297223 0.0
0.0013113357109830735 -0.00011162083496054221 0.0
0.000630679461763856 -0.0002358476885003858 0.0
0.0009346164762095564 -0.00028009838954019193 0.0
0.0006664880399782804 -0.00027322500647836796 0.0
0.0017089156182194846 8.220304235724056e-6 0.0
0.0008788009594125302 -0.00014613956086028082 0.0
0.00023519778464919642 -7.760485532557385e-5 0.0
0.0006755951191258504 -0.00020505837250447975 0.0
0.0006951944884849724 -0.00021216340385267555 0.0
0.0006350925240624196 -0.00019113199081514424 0.0
0.0006822028771414092 -0.00025088501823603926 0.0
0.001041855223391093 -0.00018210109660333256 0.0
0.0010157393545544892 -0.00018931364400816424 0.0
0.0010377505681258864 -0.000194366465961535 0.0
0.0013085095497584213 -2.6972782330587904e-5 0.0
0.0007954080558766691 -0.00020869719784658122 0.0
0.00059322265773805 -0.00017741596985546926 0.0
0.0010382695206857205 -8.473163122104466e-5 0.0
0.0010289665081185035 -9.255763699879464e-5 0.0
0.00025693849425198327 -0.00010379543817339831 0.0
0.0004987538820955038 -0.00021338455401826416 0.0
0.001189288984707585 -0.0002942751277148742 0.0
0.0010677922430527 -4.494654156884512e-5 0.0
0.0009187141007960252 -0.00022529465706269393 0.0
0.0008965532567406463 -0.00023000699704358422 0.0
0.000895553652470131 -0.0002415668475726202 0.0
0.0008748905092780383 -0.00023426484688517693 0.0
0.0008745276560578641 -0.0002456924930259666 0.0
0.0009161325479072416 -0.0002486641944548366 0.0
0.001147190808312443 -1.6661150918383488e-5 0.0
0.0007358391996643575 -0.00018394583861112393 0.0
0.0007155493874955711 -0.0001863549345418148 0.0
0.0009974983428080984 -0.0001734824147765022 0.0
0.0006142986364764887 -0.00019143686564995237 0.0
0.0009918179049427747 -0.0003166806634458349 0.0
0.0007542388385877127 -0.00021451204825537773 0.0
0.0008761217183636402 -0.00022336479113249798 0.0
0.0012525019634453331 -0.00032074783447554896 0.0
0.0008098218322671504 -0.0001521628443895567 0.0
0.0017606592757253713 -1.4053675379023941e-5 0.0
0.0008813712104820044 -0.0001929778267755319 0.0
0.00042893429737277545 -0.00014227200160013285 0.0
0.0009315571502304053 4.3391494485262116e-5 0.0
0.0012413149903874583 -0.0002564519425878368 0.0
0.0016818113539131855 1.6202302594318043e-5 0.0
0.00026982935574766285 -6.2604864477642856e-6 0.0
0.0002798671285759709 8.216407480647918e-6 0.0
0.00031543397472249044 -1.806232643035238e-5 0.0
0.00033304745161489945 -1.3158658520907856e-6 0.0
0.0003688991344348076 -1.7085597055605964e-5 0.0
0.0012907891650197924 -4.588694950512531e-5 0.0
0.0007340097643334229 -0.0002875513840710416 0.0
0.0008336546624716455 -0.00014816581453841438 0.0
6.028505705419934e-5 -1.7487543014873854e-5 0.0
0.000768240488010439 0.00016109214217878672 0.0
0.0007051916722218653 0.0001646722270050717 0.0
0.0012456106382664257 1.6878283415480924e-5 0.0
0.0007155380281730947 -0.00024725220814465586 0.0
0.0008076580007567314 -0.00028369676063168156 0.0
0.0007321759431286542 -0.00012640085225679173 0.0
0.0009755153519924143 -0.0001695418724849724 0.0
0.0009518280929066774 -0.0001653252289863561 0.0
0.0009579282485981085 -0.0001551661830663503 0.0
0.001113976063940858 -1.4838672478305149e-5 0.0
0.0006777110666170588 -0.00021388911089663263 0.0
0.00048306017026268806 -0.00012676198116256634 0.0
0.000695043744984919 -0.00017276016769974905 0.0
0.00011158710320662311 -3.979274379158056e-5 0.0
0.0009629116807568011 -9.253981802603145e-5 0.0
0.00041010369721561406 -0.00018461964421245193 0.0
0.0009313280418352318 -0.00017305768434046294 0.0
0.0005836779699216918 -0.000239740605745157 0.0
0.001262916068633243 -9.638633552989958e-5 0.0
0.0008447246595780241 -0.00017481898014142365 0.0
0.0008539656144773762 -0.00023808653924982365 0.0
0.001608501069802738 -7.833906174465614e-5 0.0
0.0003684624225019743 -0.00017986949450547708 0.0
0.0017666308774417663 -9.690122799235519e-5 0.0
0.0007203883220917387 -0.00014930424845394373 0.0
0.0008397145890593148 -0.00019232984216108157 0.0
0.000177358285400272 -5.692423331577156e-5 0.0
0.001619487717529964 -4.29978644327252e-5 0.0
0.0009774795869330682 -0.00025780770885535173 0.0
6.208390306065963e-5 -1.8667339802900928e-5 0.0
0.0009181838395866002 -0.00011982122807696125 0.0
0.000914181598745845 -0.00012587086550570035 0.0
0.0017496552853993198 -4.962764579035753e-6 0.0
0.0009743924186569032 -0.00032096274745306244 0.0
0.00034257648707410716 -0.00014246417283767237 0.0
0.001813628735718676 -1.831686742686989e-5 0.0
0.0009354500017054887 -0.00015255702078050676 0.0
0.0008676298592993377 -0.00017055853619842102 0.0
0.0010738868962213433 -0.00023381916347127896 0.0
0.001051444171253559 -0.00022697319951176014 0.0
0.0009830598396385274 -0.00023272381697422555 0.0
0.0008302328326428465 -0.00015543604610999812 0.0
0.0010177528334274586 -0.0003322613127200901 0.0
0.001097130508406664 -0.0003383129355711009 0.0
0.0007804201430143392 -0.0003055726196295644 0.0
0.0008364001984320698 -0.00031377554542245776 0.0
0.0012096658516105021 -0.0003376222864660026 0.0
0.0012017280559149033 -0.0003211782481150856 0.0
0.0006373505283049241 -0.0002756676236460381 0.0
0.0005171861585358374 -0.00024340575654374926 0.0
0.0010580089170180657 -0.0003356898793511105 0.0
0.0006743522468585819 -0.0002855209468996292 0.0
0.0007649183273017771 -0.00013754889479820982 0.0
0.0015846118936268816 -1.903021379673494e-5 0.0
0.0012543629864297894 -0.0001775433692196968 0.0
0.0012438335435947076 -0.0001957967297417239 0.0
0.0006553553007022209 -0.0001754066999233179 0.0
0.0010786197969597214 -0.0001509145004930572 0.0
0.0008564248874927664 -0.00025974090730215675 0.0
0.0004736767287769818 -0.00019824001610573515 0.0
0.0003638332912258325 -0.0001268931719363871 0.0
0.0007587117862690285 -0.00017343731137662584 0.0
0.0016207176388760055 1.541305597015839e-5 0.0
0.0006785375349633992 -4.605458961451499e-5 0.0
0.0008579906417585575 -0.00014373978078031463 0.0
0.0009940939188914936 -0.00018512858203004494 0.0
0.0001451928157269217 -6.875718838902028e-5 0.0
0.00015054572536559065 -7.711168199525958e-5 0.0
0.000753338163747294 -0.0002332352905960806 0.0
0.0006442429416088366 -0.00021679870033767542 0.0
0.0009023381526377927 -0.0001979842373929685 0.0
0.0017421220593772779 1.2106314252125345e-5 0.0
0.0009541244138417861 -0.0002879275398526375 0.0
0.001851805073727778 -2.0756017066581424e-5 0.0
0.0018304034138320504 -4.1912470598743e-5 0.0
0.000527552825976541 -0.0001116823563752919 0.0
0.0007779694290512235 -0.00018587381726836182 0.0
0.000815357832435903 -0.00021474271436753813 0.0
0.00179035697129043 8.048680488985393e-6 0.0
0.0009604284211009954 -4.763518875291263e-5 0.0
0.0011794247069024104 -0.0002519891782409919 0.0
0.0012161304081071988 -0.00020763368293304116 0.0
0.0005083834574706512 -0.0002329982782459869 0.0
0.0011134626076305428 -0.00018323911769140317 0.0
0.0007810834433074147 -0.00017023065765405825 0.0
0.0011706040968524976 -0.00016332623838227528 0.0
0.0011631236686505844 -0.000178166683998088 0.0
0.0012007399756536392 -0.0001521506032964478 0.0
0.0004352097935153575 -0.000213969158534334 0.0
0.0014410352239026915 9.588580191868941e-6 0.0
0.0010286767994397929 -0.00032172341588621343 0.0
0.0014725866849254479 -0.0002528823846856569 0.0
0.0013407266344067914 -0.00011262557199667851 0.0
0.0008791780126588336 -0.00011820133263680515 0.0
0.0010924505533274902 -0.0002903306010045699 0.0
0.0006965185989438131 -0.00022105861498176424 0.0
0.0007367382259234817 -0.00015489643382749174 0.0
0.0017256909241692127 -9.506029359118572e-7 0.0
0.00041140129167646953 -0.00011530499350868833 0.0
0.0013008765162505706 -5.277421309557187e-5 0.0
0.0008892275837639364 -9.549702243692142e-5 0.0
0.001101569571613408 -0.00015347148227913543 0.0
0.0016455483499523108 -1.9810820435597574e-5 0.0
0.00016000312236670082 -5.346441019974715e-5 0.0
0.0012831032814716592 -0.00020563278162549675 0.0
0.0010473272355999278 -4.696106280956315e-5 0.0
0.0010321410506500144 -5.2869216097114105e-5 0.0
0.001053990935791305 -0.00027404265393815623 0.0
0.0009673585139343584 -0.0002030278901546001 0.0
0.0009963071335701626 -0.0002650787859533362 0.0
0.0013068865523142058 -0.0002575971386792593 0.0
0.0013465704566701026 -3.731301644538949e-6 0.0
0.0009605826472484755 -5.430431698001345e-5 0.0
0.0012543728151688356 -1.9129756798298155e-5 0.0
0.0015653939419716626 -0.00012023957822040924 0.0
0.0015772872992541138 -9.958431654160147e-5 0.0
0.0009120550602624109 -8.066301682697731e-5 0.0
0.0005915885469050372 -0.00021028698073732275 0.0
0.0012769347053222767 -7.698620883129866e-5 0.0
0.0009478352055139348 -6.426580213116582e-5 0.0
0.0011074318926600315 -0.00019711121753424756 0.0
0.0018152639306916706 -2.8351177492523368e-5 0.0
0.00032805602327831576 -0.00014763065811566238 0.0
0.0010939812753005 -9.17925538590623e-5 0.0
0.0009314454464558174 -7.297288839590405e-5 0.0
0.0009167639907491911 -7.835000861202142e-5 0.0
0.00031633692665493054 -3.557311374141633e-5 0.0
0.0016445591469059213 1.3551096298058503e-7 0.0
0.0009488781633101161 -8.85754735294489e-5 0.0
0.0016311270533558415 -7.670114745196414e-5 0.0
0.0005720259168553236 -0.00020209307152845688 0.0
0.0013594333581987699 -0.0003100226202089387 0.0
0.0013976301140956751 -0.0003035584205531596 0.0
0.0005243320084375247 -0.00020316397365616364 0.0
0.0011486501714197352 -0.0002078210291431033 0.0
0.0007620393114299701 -0.00030259813546435626 0.0
0.0011396202063899369 -5.484594832809994e-5 0.0
0.00035572637720086175 -0.00018285060201906928 0.0
0.0009917603288454025 -6.448980576910132e-5 0.0
0.0009793795735689363 -9.944230291140944e-5 0.0
0.000997349310871913 -6.636477152148941e-5 0.0
0.001012798616259765 -0.00020166824091544678 0.0
0.0012360607996572772 -0.00021351983696535346 0.0
5.3318206354090127e-5 -2.8045094984456725e-5 0.0
9.169920603297159e-5 -4.976974801062227e-5 0.0
0.00010954055592349154 -5.9784312658579334e-5 0.0
0.001692259883373212 -0.0001550437869869116 0.0
0.00014592504411184271 -8.029577141732397e-5 0.0
0.000535683373054719 -0.00019362056083681845 0.0
0.00023495043463669222 1.4083749059969307e-5 0.0
0.0014898233626366197 -0.00026915793928294256 0.0
0.0003069478426057132 -0.00016075063774747365 0.0
0.00034009636235634254 -0.00017601072776078725 0.0
0.0016702280214049721 -0.00016926620224179205 0.0
0.0016275531368198668 -0.00019969806087184679 0.0
0.0009607903593292944 -0.00012061950744160113 0.0
0.0006987517450391064 -0.0002593047006183133 0.0
0.0013382835840755798 -1.4080661668413765e-5 0.0
0.001528842892323849 -0.0002509522558513152 0.0
0.0015480473200245612 -0.00024295782906512246 0.0
0.0002746052941602134 -0.00014637984223093208 0.0
0.00019675998116433808 -0.00010662358231055272 0.0
0.0015882813820447307 -0.00022220167716384417 0.0
0.0016061334095879443 -0.00018521682940852166 0.0
0.001067265490560442 -0.0003246884260629146 0.0
0.00023039916311621728 -0.00012430199750090647 0.0
0.0012988195862934098 -0.00032904237619741993 0.0
0.00036652189017910255 -0.00015438870874638787 0.0
0.0014873128032633091 -0.00015827064447565596 0.0
0.0005359305891788358 -0.00024127719382149916 0.0
0.001373727936811848 -0.0002313228323795797 0.0
0.0014335663576452295 -5.395797570256708e-6 0.0
0.0005274004128765209 -0.00015658410985692423 0.0
0.0003687652807229423 -0.00013357717517922297 0.0
0.0006624605318490829 -0.00022444427294922065 0.0
0.0008595329202159055 -0.00019751615990686646 0.0
0.0015157731017130327 -5.7599415738637386e-5 0.0
0.0009154959936837012 -0.0002963633462983834 0.0
0.0009693635871274668 -8.736089001758074e-5 0.0
0.0010092953406574175 -5.758349295212618e-5 0.0
0.0011859954714883568 -0.0001349934608463979 0.0
0.0013817502375465538 -0.0001831803183532012 0.0
0.0005309159024009753 -1.126813658257431e-5 0.0
0.0011931166050228802 1.0554278293116813e-5 0.0
0.0005702618114515903 -0.00015763625062619146 0.0
0.0015166185934584553 -0.00011518598045047835 0.0
0.00037261995389721705 4.0697765051265815e-5 0.0
0.0003104289813947013 2.4252188459292637e-5 0.0
0.0008165962701734738 -9.501125276363191e-5 0.0
0.0016041253838143562 -2.8164977728591093e-5 0.0
0.0009674289662810606 -2.4321448678780042e-5 0.0
0.0009334794889629354 -0.00010241906769164509 0.0
0.0017050358616965207 -2.6756477119900892e-5 0.0
0.00048721295192242044 -0.00015426980553881876 0.0
0.0005982819503059346 -0.00012927060692226387 0.0
0.0012817740693351687 -0.0001276206868034987 0.0
0.0014273335197530531 -0.00016915477827347217 0.0
0.00042871233480322094 -0.00014852662737961937 0.0
0.0002664475655600443 -0.00011272466671267347 0.0
0.0013629411835357136 -0.00017898502987791177 0.0
0.0006210347870837758 -0.00011045243194823028 0.0
0.0013672108171000632 -7.052734101630884e-5 0.0
0.0018598283460670678 -1.1504246304068833e-5 0.0
0.0015072519149974572 -1.5475980597862787e-5 0.0
0.0010514574969008265 -4.053009448676163e-5 0.0
0.001072488102697023 -3.461432353535098e-5 0.0
0.0011071233751548818 -0.00011099275645012915 0.0
0.0016676152240073033 4.104117627516251e-6 0.0
0.001634909506699749 1.1758925459905126e-5 0.0
9.019908517698007e-5 -3.3323560052742686e-5 0.0
6.869544796114141e-5 -2.430212241086277e-5 0.0
0.0007154389788372388 -0.0002571869045554867 0.0
0.0011345218838221824 -0.00018798949432330511 0.0
0.0006736171166621915 -0.0001320492802935008 0.0
0.0006760727960353982 -0.00012721148816598646 0.0
0.0006914452503589736 -9.645513737441215e-5 0.0
0.0008954588494361126 -0.00025329066742834846 0.0
0.0010643426336814762 -0.00010109075030379159 0.0
0.00030680112092488853 -7.502775582353401e-5 0.0
0.0012595779783267775 -5.898556102535401e-5 0.0
0.0010782758366459316 -2.6677177702355193e-5 0.0
0.0007573125915491728 -0.0001810682339543191 0.0
3.079464572549441e-5 -6.7502123136247235e-6 0.0
0.0008616390765968678 -0.0001881311069646485 0.0
0.0016918974301987938 -3.4030582225307345e-5 0.0
0.001422979647112782 -7.08534845884892e-5 0.0
0.0013514950414056127 -4.681621425544901e-5 0.0
0.0016117701580963188 -5.2205147071869764e-5 0.0
0.0011583116477516676 -7.256830219243057e-5 0.0
0.0006921811215544025 -7.409197674937934e-5 0.0
0.0002314197568436573 -7.373836800507599e-5 0.0
0.0008025912532145305 -0.00011905537827507158 0.0
0.0009804262712954956 -0.00012220972857188768 0.0
0.00028717820753111086 -0.00010603172160641243 0.0
0.0008180458301076221 -0.00031120937467795046 0.0
0.0011216848519568707 -7.591081370679133e-5 0.0
0.000555437118069058 -0.0002023739877583653 0.0
0.0013162216469104213 -8.487411898644976e-5 0.0
0.0015416937275115564 -5.716257122840558e-5 0.0
0.0006206529705898942 -0.00010463120738992314 0.0
0.0013627349607611876 -5.424036599076486e-6 0.0
0.0010206658691052763 -0.0001003582627910471 0.0
0.0008641208687079908 -0.0001791178154493829 0.0
0.0003446027262692524 -8.577707924310374e-5 0.0
0.0006212403402570828 -0.00013461835044711466 0.0
0.0009053434795737449 3.0223601293733214e-5 0.0
0.0002476249384507955 2.653759785813154e-5 0.0
0.0013302937490413719 -0.00013012861427642782 0.0
0.0003794596968123521 -0.00011923796176654365 0.0
0.0008871812486185791 -0.00017468852114547323 0.0
0.0015203851153063593 2.2739390198980637e-5 0.0
0.0012577512270960443 -0.00012610666345636663 0.0
0.0006643922681575823 1.5585473868479355e-5 0.0
0.00012167850504612518 -3.554721467227821e-5 0.0
0.00048342864917605026 -0.00012160972690436177 0.0
3.8231503373556346e-5 -8.50334865114383e-7 0.0
8.18305180506755e-5 -7.4908170951065646e-6 0.0
0.0012538891620122255 -0.00011256122875982638 0.0
0.0010979960502045302 -3.5079167925295665e-5 0.0
0.0006014065285058576 -0.00026903604947393775 0.0
0.00043743590505142716 -0.00017923125215989327 0.0
0.0015042614693047257 -3.710823286867262e-5 0.0
0.0002366671545430545 -0.000121529005958726 0.0
0.001207453541437486 -0.0001380169915069573 0.0
0.0009984641042225474 -0.00025239873415164673 0.0
0.0014947612501672446 2.0338856799111708e-5 0.0
0.0005459404949262064 -0.00023050692631725405 0.0
0.0016054666664890391 -0.00014859974496022593 0.0
0.0009382096063357451 -9.767696892895751e-5 0.0
0.0003278331569870856 -0.00016362406934843234 0.0
0.0012227543719679965 -0.00032445303429656547 0.0
0.0003271502644391597 -0.00012029230616466051 0.0
0.0017410001004990196 -3.6559000866036186e-5 0.0
0.00024102762638623888 -8.56316147743004e-5 0.0
0.001284101286109304 4.546288221720208e-6 0.0
0.0011642946710496427 -6.373466895277815e-5 0.0
0.0010244629151712837 -5.121908599898796e-5 0.0
4.087259916274247e-5 8.995183624772533e-7 0.0
0.000836532359308444 9.180275070827824e-5 0.0
0.0005222537225473734 -0.00010475660218198034 0.0
0.0014135125695272275 -0.0002773237670941035 0.0
0.0014339448090136997 -0.000294417587650071 0.0
0.00013739810698770212 -2.0747533855535922e-5 0.0
0.0010502501792848944 -9.275520340714569e-5 0.0
0.00045398629755288606 -0.00018102568633513117 0.0
0.0007362156450590567 -0.00019172806357273627 0.0
5.785582970853007e-5 -2.1401451294483243e-5 0.0
0.00010788817694319766 -2.718325019830167e-5 0.0
0.0009952814357197751 -0.000131985150892608 0.0
0.0009106663638739068 -0.00016955879847706373 0.0
6.880575694852871e-5 -1.6423664058119974e-5 0.0
0.00019912956893150668 -6.263247136260381e-5 0.0
0.00016306395872754006 -8.92719726754793e-5 0.0
0.0015014462653770353 -0.00013574468761306662 0.0
0.001155121644581385 -0.00019289430876052484 0.0
0.0002433940990457975 -0.00010121026917063529 0.0
0.0014140870075853083 -4.851927990113387e-7 0.0
0.0013020585129090022 -1.2942801938092964e-5 0.0
0.00011709608259637076 -5.927611543131047e-5 0.0
0.0007825857707651726 -0.00010528991617085206 0.0
1.5458883386670173e-5 -6.32749373164239e-6 0.0
0.0018817935236250145 -1.0673884300026841e-5 0.0
0.001813079524239656 -8.047815325079707e-6 0.0
0.0005519999047253993 -0.00025509971413227844 0.0
0.0014174593022357267 1.645449917079942e-5 0.0
0.0011585937085203237 -0.0002445080903643663 0.0
0.00026403280593805076 -9.17965569654402e-5 0.0
0.001115422655741824 -0.00033890422690732605 0.0
0.00027795222417748933 -7.644037532417557e-5 0.0
0.0015964069052707892 -3.637649946410651e-5 0.0
0.00071508937640536 -0.00019385209069929947 0.0
8.50247713347012e-5 -3.00757930664126e-5 0.0
0.0009010233551139842 -7.742023642413992e-5 0.0
0.0008939001086187313 -8.036427133346459e-5 0.0
0.0016911385768065854 1.7629170124469938e-5 0.0
0.0009913397917636986 -0.00019650390188707107 0.0
0.00012670376534352075 -6.0682688796802e-6 0.0
0.001582053121629956 -0.00020421435675561006 0.0
0.0017056376341405201 -1.773037684152448e-5 0.0
0.001297476798635794 1.6697158275978308e-5 0.0
0.0013278753313129377 1.3747882383779561e-5 0.0
0.000767083124349839 -0.0002714009997932902 0.0
0.001819974227222313 -6.293013252832223e-5 0.0
0.0008107967330025618 -9.861134194228488e-5 0.0
0.00022934809850388022 3.3639111599177186e-5 0.0
0.0002396368321510509 -0.00010725339074360042 0.0
0.0005911610765187351 5.2174618697283705e-5 0.0
0.0015916374111733258 -0.0001441908723960438 0.0
9.150751909746222e-5 5.805986339179479e-6 0.0
0.0009731386663191067 -8.301435380929318e-5 0.0
0.001432365459971081 -5.7699686631100946e-5 0.0
0.001130075295814242 -0.00011314189238176587 0.0
0.0018450288266105821 -5.443431033744824e-6 0.0
5.186211815577873e-5 -1.6295681920941097e-5 0.0
0.0017146461382299134 3.136848968503945e-6 0.0
0.0018528175100188786 -5.9962334787143605e-6 0.0
0.0008596775292740209 -0.0003056154240346694 0.0
0.0010247553405199196 -0.00012529155909304988 0.0
0.0007120613419959739 0.00012773039121281 0.0
0.0004496097012150107 -0.00015060187395478887 0.0
0.0005922895342304876 -0.00012252147477787305 0.0
0.000773943995993139 -0.00010942959143855151 0.0
0.0003754695521006516 2.4857381955040922e-5 0.0
0.0006605142097544942 -0.00021518573893220853 0.0
0.0003487477667536426 -7.921255307833446e-5 0.0
0.00024289657960343457 4.046130609961484e-5 0.0
0.0008470461612303298 -0.00012915749925445036 0.0
0.0012632859312079374 -0.00020086793588418918 0.0
0.001531414507561117 -0.00011851055110923286 0.0
0.0006571248975030421 -7.456130085203765e-5 0.0
0.000456910979855933 9.12628257348046e-5 0.0
0.0010948884814003987 -1.6617780515008687e-5 0.0
0.0005567055468979779 -0.00010539719275749948 0.0
0.0014511616627298975 -0.00011568286596784609 0.0
0.0005989095927593906 0.00013342183644308138 0.0
0.0005439638659703248 0.000126589117982338 0.0
0.0009730079825128804 -0.0001806536575966444 0.0
0.0011350097162373058 -3.871300411406741e-5 0.0
0.0007066939557598028 -0.00029277223102132756 0.0
0.001337082492747123 -0.00032045525094929935 0.0
0.000505561788823525 -0.00014978008874107915 0.0
0.0012458515052696866 -0.00033679245010997776 0.0
0.0004166106013949754 -9.463830832077359e-5 0.0
0.0014785926792207733 -0.00011382255791083977 0.0
0.0006945316611578665 -0.00018806379622101735 0.0
0.0015876745976797612 -5.5286706695515765e-5 0.0
0.00045100596558045797 -0.00014518398589796354 0.0
0.0008660677289022029 7.490451360118446e-5 0.0
0.000693478556116198 -9.005050621501378e-5 0.0
0.0007961447664110585 -0.0002366808680769453 0.0
0.0008745768398090804 -0.00010726700864890306 0.0
0.0008874012816351833 -8.312130636480258e-5 0.0
0.000515192456347264 -0.0001844033627401701 0.0
0.0005207092463738562 -0.00019397180763124495 0.0
0.00035031725759724193 -0.00010979241143637094 0.0
0.0006060176931662493 0.00019528914652839458 0.0
0.0008235631895503884 -0.0002698370417492203 0.0
0.001611292093677334 2.1166089126287165e-5 0.0
0.0014108398338867618 -0.00016589591908953486 0.0
0.001083699895863118 -2.865845809157274e-5 0.0
0.00048527555286391217 -0.0001485180049165151 0.0
0.0012349164283422481 -9.597084366861337e-5 0.0
0.0010209389130150337 -0.00024656296795996584 0.0
0.000694438884772028 -0.00018016196998279867 0.0
0.0017255842891637009 -2.4316489023948284e-5 0.0
0.0018293994212274926 -1.690546230938778e-5 0.0
0.0006484597483706353 -0.00012909781464412495 0.0
0.0011812860371410308 -0.0003267851735365002 0.0
0.0016275964543188532 -0.00017847034955137262 0.0
9.062191391307224e-5 -2.588074133782739e-5 0.0
0.0004560661554091296 -0.00011981085362804007 0.0
0.0005276050508863422 -0.00015098390976424586 0.0
0.001664987762386954 -0.00015438889217809972 0.0
0.0006580246516151827 -0.0002058960632295282 0.0
0.001249156594335311 -7.652319889792111e-5 0.0
0.0002036057410415603 -0.00010474861707328523 0.0
0.0010285046857552477 -0.00014737098383354067 0.0
0.0015316806911783818 -9.686152147969038e-5 0.0
0.0011822097285079914 -0.00018243645197082672 0.0
0.0017584645248448633 -2.4226429139544458e-5 0.0
0.0012038259823664555 -0.0003031912440399767 0.0
3.0161629181829004e-5 -5.172884183972278e-6 0.0
0.0008107222597347854 -0.0001292867304234619 0.0
4.113480961361585e-5 -1.3528455488349908e-5 0.0
0.0006236005164402579 6.585552284985777e-6 0.0
0.0004016341228271258 -5.4175003356067034e-5 0.0
3.414247931523259e-5 -1.4223144936434205e-5 0.0
0.0004853516816862071 -0.00023372995421328286 0.0
0.00045291183163038 -0.00021462673640393714 0.0
0.000823621209488039 -9.179003697371421e-5 0.0
0.0008644229003250067 -6.10746314469224e-5 0.0
0.0003443825807082313 -0.00017139073880090863 0.0
0.0005883707740400958 -0.00010539791517784306 0.0
0.0010677284665347652 -9.43455395666246e-5 0.0
0.00034435831872498625 -0.000123381954484904 0.0
0.001268206290151447 -4.982899770066309e-5 0.0
0.001045348657862601 -0.00024016714867719396 0.0
0.0002537660498546242 -7.274256553280315e-5 0.0
0.00016013447667642704 -7.324934209129029e-5 0.0
0.0009580295691899363 -8.075878775235438e-5 0.0
7.693595503644645e-5 -3.768294288676074e-5 0.0
0.0017901018456105847 -3.5527144366477254e-6 0.0
0.000676132047214313 -2.8259276755912954e-5 0.0
0.0008556245062995714 -0.00012241666220846978 0.0
0.0015653240466141523 -0.00016451383936538563 0.0
0.0017362735400918432 -0.00012397978452465382 0.0
0.0014414828152274218 -4.556127754613581e-5 0.0
0.0008207667267330919 -0.0002587619527016146 0.0
0.0010699843275803003 -0.00013734700810212345 0.0
0.0015205344835377938 -0.00023483019404066076 0.0
0.0008963022886951115 -0.00032101503714416135 0.0
0.0015113420921978185 -9.702676163420361e-5 0.0
0.001189898657808198 -0.00016732988158804402 0.0
0.0006379985146419121 -0.000198665672174775 0.0
0.0011877253387428753 -4.974989498014323e-5 0.0
0.0006727322731895352 -0.000173581923386569 0.0
0.000572351589981671 -0.0002417142491982812 0.0
0.0008517488506005242 -0.00011117175522209189 0.0
0.0013819961645508833 -0.0002879996713513999 0.0
0.00034688570403046425 -0.00010508054153098991 0.0
0.0002941612465604374 -0.00014952343255482476 0.0
0.0013254425665364493 2.0416350157106858e-5 0.0
0.00043141109704729954 -0.00012227799539509484 0.0
0.001145859373171774 -9.642837593166653e-6 0.0
0.0007397029708201652 0.0002833181729733697 0.0
0.0014629969449033004 -2.570497855229648e-6 0.0
0.0015865510438300414 -4.62084822539015e-5 0.0
0.0009424906937976804 -6.960753694664393e-5 0.0
0.0014029493898325145 -5.863040855586983e-5 0.0
0.0010733273863581501 -0.0002662221766565739 0.0
0.0011493778230895842 -0.00034098554301658783 0.0
0.0005502886411851058 -0.00015146709710403894 0.0
0.0006651193636099636 0.0001485604351089826 0.0
0.00037795880297477745 -0.0001103490841019466 0.0
0.0004209179296778326 -0.0002105486916831656 0.0
0.0007932028991194205 -0.00013790580863695993 0.0
5.16696303111889e-5 -1.597739842949241e-5 0.0
0.00033285657435171487 -0.0001584428839659001 0.0
0.0009061166615383798 -8.504527921119301e-5 0.0
0.00012611749916516507 -4.670010416339937e-5 0.0
0.00010312715057444445 -1.3788264251715403e-5 0.0
0.0009293660792938167 -0.00016529036207982986 0.0
0.00097795411088822 -7.892977398653407e-5 0.0
0.001709334860048386 -0.00012552014910069203 0.0
0.000782838940214995 -0.00010219999707589237 0.0
0.0012738380493266587 -0.0001823933705208775 0.0
0.0010102262357690392 -6.119177752862149e-5 0.0
0.00025904373589094793 3.584885691240396e-5 0.0
0.0003343537498245576 1.3618578552993261e-5 0.0
0.0017937591433766279 -1.4229188997415656e-5 0.0
0.0012192122113977575 -6.54292347977611e-5 0.0
0.0002879258223965893 -9.758966048097547e-5 0.0
0.001108868678463082 -6.148980073236524e-5 0.0
0.000913792068455657 -6.935882943960155e-5 0.0
0.0009537579200113433 -9.755076326820703e-5 0.0
0.0004025256734390611 9.458592903424789e-5 0.0
0.0009359400039347566 -0.00032641976537984283 0.0
0.00169191839128725 -3.8304384060965766e-6 0.0
0.0009211619883540728 -0.00014291200199675744 0.0
0.0009723559585790181 -7.137350223135157e-5 0.0
0.001170662693123457 -9.152709587759222e-5 0.0
0.0008560357386606348 -8.787121420027535e-5 0.0
0.0009283003705336486 -0.0001343370567929287 0.0
0.0004736771107756028 -0.00019192336673926882 0.0
0.0012193727040936766 -0.00015552268052328652 0.0
0.0007572965845730307 -0.0001255399120387983 0.0
0.0009612728169495779 -7.76573325220765e-5 0.0
0.0014498209393473372 -0.00029042588987881557 0.0
0.000810788229720248 -0.0001142418438458072 0.0
0.0011263695518537802 -4.756279944606639e-5 0.0
0.0010199365908494695 -5.749428215093779e-5 0.0
0.00016831812555406878 -8.735142313022745e-5 0.0
0.0014214803455394214 -0.00014932199796267507 0.0
0.0009941351220778584 -6.962804615977399e-5 0.0
0.0005452971351980159 -0.00023905338519133475 0.0
0.0011562980477886763 -3.232594892312126e-5 0.0
0.0012823506867820217 -0.0003345191342008372 0.0
0.0018315808153034371 9.091781258387026e-6 0.0
0.0001238680762722952 4.0382578328985376e-5 0.0
0.0007738501495471123 -0.00014164166373985455 0.0
0.001008171723294918 -0.00032267391382793405 0.0
0.0006493677856778712 -0.0002715364676402136 0.0
0.0007283242092184405 -0.00029723258994401484 0.0
0.0001579394125167721 -5.143083963874606e-5 0.0
0.0013011281426740543 -0.00017148515379586437 0.0
0.0005539844874486858 -0.00014604553954600583 0.0
0.000783745479683256 -0.00011828587200601637 0.0
0.0006567979171810578 -8.291469066287941e-5 0.0
0.0007516912487871568 -0.0002934420487234866 0.0
0.0013486819453234768 -2.2748882796891903e-5 0.0
0.001725591599012812 9.333554921909005e-6 0.0
0.0010721087652239998 -0.00025436548294160895 0.0
0.0009154425602487142 -0.0001521170294681032 0.0
0.0006041075237762084 -0.00019516767032840752 0.0
0.0009771242528098933 -0.00033123979879619183 0.0
0.0013689886085700492 -0.0001364404229859686 0.0
0.0001429459939087062 -5.0824039777437346e-5 0.0
0.0016631360761475728 -2.1729690973423743e-5 0.0
0.0007897285816461946 -0.0002993695957631464 0.0
0.0008069507297118018 -0.00027390881824588496 0.0
0.0012242765233414646 -0.00029265910011432077 0.0
0.0018614186295971243 -2.038218332878237e-5 0.0
0.0006831467621982468 -0.0002795403053935461 0.0
0.0006197637719039257 -7.385678721910096e-5 0.0
0.0006260534537358628 -0.00013054899926566468 0.0
0.0011585802138663031 -0.00010436010173699346 0.0
0.0018022199171322563 -4.891991213234968e-6 0.0
0.00017312528563774462 -7.755652627357012e-5 0.0
0.0009343439751395401 -0.00012692043100528627 0.0
0.001614507608335169 -0.00015714259634781703 0.0
0.0017950299762328722 6.301759967803561e-6 0.0
0.0005373156170400917 -0.00011848534253594603 0.0
0.0008072652858802746 -0.0003029535590182478 0.0
0.0017346061083112292 -1.9761474762695943e-5 0.0
0.0003420069414868994 -0.0001523128967136847 0.0
0.0018342569741378917 -3.0131102790966923e-6 0.0
0.000586515609508735 -0.0002666700523374254 0.0
0.0012283379128950043 -0.00014018397443720125 0.0
0.0003574884158809692 -3.0999770112575956e-5 0.0
0.001151436395231798 -4.5049923622622816e-5 0.0
0.0017974667099430286 -6.449128369846393e-5 0.0
0.0014001464439422043 -0.00012259885330447221 0.0
0.0005228911437768112 -0.0002396366436269186 0.0
0.0003890092147597695 -0.00019818329299109208 0.0
0.0004729115137738777 -0.00017913569516524 0.0
0.001487977010400974 -0.0002512953181308662 0.0
0.0013749841350915472 -6.050133565667314e-5 0.0
0.00031023998062251404 -0.00010321000202569951 0.0
0.0007371146513241397 -0.00014004271736563117 0.0
0.001152150654602342 -0.00011724956687874992 0.0
0.0007086298628930822 -0.00015400978488917333 0.0
0.001756834564799665 1.276501048870608e-5 0.0
0.0012556853530735924 -5.1379701146476406e-5 0.0
0.0007569232711209643 -0.00012191105648896962 0.0
0.0003170127584489312 -9.943927992296826e-5 0.0
0.0013195074048989563 -0.0001447432664576268 0.0
0.00109876684543602 -0.000316009500725648 0.0
0.0015630170039690006 -0.00021853835180268757 0.0
0.0006225758005884037 -0.00026586049640827156 0.0
0.0012073657825808003 1.3148307965945965e-5 0.0
0.0006756138344491371 -0.0001663116882568179 0.0
0.0010475565726484652 -0.00032639136319336854 0.0
0.0015510940364797305 -0.0001618581876161911 0.0
0.0013761134414968393 -4.404134376302456e-6 0.0
0.001755512284618562 6.72778867763766e-6 0.0
0.00047573140320498515 0.00010442153525652767 0.0
0.0016988604561192083 5.812853580195086e-6 0.0
0.0005971218788237287 -0.00018371593769650607 0.0
0.0015559167330961442 2.2465612272730765e-5 0.0
0.0011214518026999051 -2.6692136647144224e-5 0.0
0.0012716555453537723 -3.275602413991163e-5 0.0
0.000570765227789562 -0.00013944065531069525 0.0
0.0012800131573094612 -6.242658615669224e-5 0.0
0.0008438477499778479 -0.0003069397785104396 0.0
0.0004929745774664753 -0.00022483413098729594 0.0
0.0009956290068343237 -7.766118581738513e-5 0.0
0.001371455549016838 1.6620779376547773e-5 0.0
0.0007941121348875653 -0.00028578276922665107 0.0
3.867345460122507e-5 -1.2420059000413631e-5 0.0
0.0018126445942335393 -7.4619806405244345e-6 0.0
0.001550044869010357 -1.9738576057406322e-5 0.0
0.0008304803115376442 -5.190190634630292e-5 0.0
0.0018416066889578948 -1.6053657759016203e-5 0.0
0.0005385905281948817 5.96395970284618e-5 0.0
0.0009234818313256754 -6.385248371415682e-5 0.0
0.0018795084255695971 -1.6131800131781752e-5 0.0
1.5505521626757943e-5 -7.438187471204746e-6 0.0
5.662659599650377e-5 -2.0066586334465708e-5 0.0
0.0005562854477345249 -9.986971941542e-5 0.0
0.0010854537402484883 -0.00014074004221125276 0.0
0.0012844987264154272 1.929204251530969e-5 0.0
0.0013850426125680668 -0.0002697976643776444 0.0
0.0018192174689160357 -9.514515326498988e-6 0.0
0.00015773672132478656 -5.746505417268936e-5 0.0
0.0003984664896368411 -2.9710013315832966e-5 0.0
0.0011033756812015376 -0.00030264576886061665 0.0
0.0016088570394782007 -2.1782990175233638e-5 0.0
0.00048632281358870034 -0.00017994370962011932 0.0
0.00010620259831008515 9.123385631231003e-6 0.0
0.0011315138517561734 -6.139417357397721e-5 0.0
0.0005872343314109562 -7.426340527111566e-5 0.0
0.0013949650977183562 -4.264110697432275e-5 0.0
0.0008885209635437566 -8.706365302909254e-5 0.0
0.000701546741871568 -0.00015958775788014416 0.0
0.0016381880237473412 2.0310394780438253e-5 0.0
0.001644224679472003 -0.00017308965805221124 0.0
0.0013298159028509295 -0.00030792700691234287 0.0
0.00043483613731728734 -0.00011868918369691604 0.0
0.0017154718521857101 -1.9070695960493986e-5 0.0
0.00030589892232224606 -0.00011144749449425845 0.0
0.001735417323494235 -3.3585030930114208e-6 0.0
0.0015031872676244992 -0.0002480781774428844 0.0
0.0011566228043401658 2.6610441557189834e-6 0.0
0.0012382792265538153 -0.00032704352418034866 0.0
0.0014026652527149696 -6.176250898996573e-5 0.0
0.0008602070468946312 -0.00010210051668081001 0.0
0.0004881863750973806 -0.0002152044188424873 0.0
0.0007668605427414486 0.00011035994460700703 0.0
3.989078227408848e-5 -5.060967043101413e-6 0.0
0.0017923904767531344 -9.594419144530388e-6 0.0
0.00021830839677795122 -0.0001138200497304863 0.0
0.0013523904578997712 2.196238602782649e-5 0.0
0.00035809655862294783 -0.00017844668645756456 0.0
0.0012330847563203917 -0.00012806124112972622 0.0
0.0003884254039999347 -5.473554417202592e-6 0.0
0.00018236843408819646 -6.54318107731266e-5 0.0
0.00026199946970263704 -0.0001416805237675968 0.0
0.0002350630581440061 -0.00010085602822515972 0.0
0.000708011586070713 0.00018357276906126786 0.0
0.0014347815614661104 1.31821657512917e-5 0.0
2.9842992322787922e-5 -1.1273270715950906e-5 0.0
0.0015375127865990368 -1.514711517722033e-5 0.0
0.0014865394005894922 -2.4634879781379857e-5 0.0
0.0011140564798476935 -0.00013199689769276718 0.0
0.0008805678940192552 -9.231819804617417e-5 0.0
0.0005116623829912955 -8.78752001061357e-5 0.0
0.0008841976617787388 -0.00010245259904439685 0.0
0.0011239074989347346 -0.0002798777520267918 0.0
0.0005740921342263069 -0.00014699114871304287 0.0
0.00044243703834482987 -0.00021302763286891284 0.0
0.0015575992845072006 -0.00010350048898841216 0.0
0.0012528557661746701 -3.669395574996368e-5 0.0
0.00020315614055738842 2.9218743066841507e-5 0.0
0.000583217540314719 9.288767073400739e-6 0.0
0.0012099388266270938 -8.928774398436386e-5 0.0
0.0011273287402199202 -0.00032993150889623537 0.0
0.0007328311498956187 -0.00014536588883073436 0.0
0.0014300665187264566 -0.0002798427004430722 0.0
0.00013433502716266247 -6.99091775440012e-5 0.0
0.00124340461492561 -0.00028320196926293366 0.0
0.0006582990828171331 -6.514260609090727e-5 0.0
0.0017268184904735153 -0.00011623167392297406 0.0
0.0006362566255096007 -1.358866790868818e-5 0.0
0.0011415584193342474 -3.710936711283716e-5 0.0
0.0009376158174800855 -0.00015910040700884142 0.0
0.0009335098952517653 -5.8114302917261065e-5 0.0
0.001045710159679421 -5.045398652690159e-5 0.0
0.0010882827036254527 -0.00032743191259427553 0.0
0.0013968483104134818 -0.0002862996822834682 0.0
0.00047024976965537107 -0.00014822677282900706 0.0
0.0011218895330036619 -6.445192137760041e-6 0.0
0.0010913723783187793 -2.3623992342212418e-5 0.0
0.0013937606175359323 -0.0002478906735838907 0.0
0.0008679124704047623 -9.814567094743798e-5 0.0
0.0009265463727122143 -2.557436158121122e-5 0.0
0.0004849684325077228 -0.00020625124597415406 0.0
0.0017145373801935532 -0.00010811016277599622 0.0
0.0011762175641995426 -0.00034084247220436963 0.0
0.0007956071935038676 -0.0002785121079992132 0.0
0.0018145688149941916 7.600857333706132e-6 0.0
0.0007844199056667214 -0.0002501525421729972 0.0
0.001458212406920514 -5.296656229844444e-5 0.0
0.0005084444367838993 -0.00011292256046895802 0.0
0.0012235460360872793 1.28146061149833e-5 0.0
0.00036661334143980515 -4.350340342904802e-5 0.0
0.0008196166248158787 -8.734953119580752e-5 0.0
0.0006893759739223797 0.00023967738942048744 0.0
0.0018520126020103306 -5.484112383248576e-6 0.0
0.0010784663035469351 -0.00024521649999199044 0.0
SCALARS damage float 1
LOOKUP_TABLE damage
0.6796732288279294
0.6670322609273805
0.9152296129960596
0.3846014796490311
0.9917964101539911
0.9967738741864053
0.33422207282959343
0.8626527345762696
0.8626173531739185
0.8742972486874636
0.8904066495144729
0.9008689699685726
0.9129901731285747
0.9244811340805074
0.9282948689931785
0.9269469996994062
0.9218007016852289
0.9161152523885492
0.9088549860365459
0.9006724147571465
0.8930541803640234
0.8894033931943388
0.8821253017317411
0.875634630378473
0.871060117002989
0.8658809403064286
0.8581844571224283
0.8511032514206442
0.8415171104441276
0.8320642615055168
0.8168369079695431
0.7973126982559513
0.641446180347153
0.7455531503067704
0.7569880825315611
0.7737186294958193
0.7859481092119465
0.7937964381216331
0.8015440297030981
0.8060102928094303
0.8111815094018496
0.8168939265386063
0.8205380636121378
0.8236782181048654
0.8302279217200477
0.8326055441991737
0.8251295166306616
0.8314227996283019
0.8365689694021764
0.8434021494385759
0.8466194839361147
0.8516722931713989
0.8544852159803139
0.8628856510986701
0.861869554204951
0.8690831369349313
0.8703189235155118
0.875699848171665
0.8798657427007781
0.8870941195249623
0.8869826368003375
0.8944206760664952
0.8988156436277975
0.9058930848125352
0.9114995097304331
0.913777898794656
0.9076185474338127
0.9011431964915643
0.9015008775654926
0.8862297448422357
0.9012133339002614
0.9027638786852632
0.8967881165357114
0.9153783720098484
0.9189674166158259
0.9250793990040074
0.9329713360985085
0.9320872931409846
0.9436780549744028
0.9426888808705358
0.946598912671604
0.9475838988914824
0.9464005653980007
0.9415742729284073
0.9508897717730977
0.9545202129880335
0.9698544510354155
0.9713469492563144
0.9818530732716567
0.9844206687085798
0.9859692849448884
0.9879066638227462
0.9888615418697964
0.9899914751157688
0.9898775793914784
0.9920750348952874
0.9912159879364921
0.9927071828446583
0.9949634756832799
0.9960033387090588
0.9956508080805612
0.9946116986541521
0.9928799790708199
0.9899045088001132
0.9867362730338085
0.9836969310458031
0.9829898115113394
0.9819281012245412
0.9790502002673286
0.9736768500128047
0.9667169593154507
0.9555684811045685
0.9608303626164525
0.9522221739949612
0.9465391674727219
0.9258759901603725
0.9090264998119002
0.8950196408141051
0.8758727852216138
0.8627277778373724
0.8545893479145821
0.8393542886142723
0.8168429480598335
0.788655969654002
0.7730144746418568
0.7543471464906691
0.7339218938136842
0.6862197777029445
0.6437777002897266
0.6343804100144977
0.4692154388965039
0.61385015879871
0.7024393321049827
0.7771941937170336
0.803180526451286
0.8181340498978457
0.8262090604722382
0.8323977434489923
0.8372172687076004
0.8413096423220282
0.8466039658596689
0.8505502865779129
0.8526371718655922
0.8539674587926376
0.8542544636588264
0.8532986400933544
0.8516463541940339
0.8490308291815487
0.8480924744588216
0.8503238161842578
0.8534410501461541
0.86225374106024
0.8728843971177712
0.8885836024976962
0.9118751985118403
0.9393591626057831
0.943092855805905
0.9943294386150732
0.996165566211835
0.9974100435326424
0.9948219701257062
0.9981484895537279
0.9835723393780761
0.9604421571608325
0.9247245089493843
0.876148852386699
0.8183454075960545
0.7669155298629757
0.7075436124568749
0.6371207497896534
0.5600785274793005
0.5078978373297038
0.2248532404368129
0.4120350322007575
0.536390975618646
0.6287872694046885
0.7068268798935972
0.7860321809106787
0.842735407195694
0.8982887982246489
0.9476361644730038
0.9726009587418332
0.9951927442857427
0.9934846921374375
0.9966951536798585
0.9880710429255186
0.9260078592338866
0.7670605755865676
0.8893833295712451
0.9921173223716016
0.9098348093760047
0.9892004212965126
0.9214830747538485
0.973236193211851
0.9488917906748097
0.9822214569204267
0.8626862902221994
0.9538688888342177
0.839255293292011
0.8940714325220303
0.8507489499191278
0.7370774282751357
0.7629758178887807
0.3580057609145534
0.6939791846564378
0.8963248426557286
0.8279660157572977
0.8727821728764024
0.8491639024591426
0.846704120893582
0.9183705524105984
0.8434752218033896
0.8081590686167104
0.900871034697146
0.8568163877628433
0.8587914524864432
0.832372733086383
0.8937248469115061
0.9422814954007036
0.9857270147773853
0.9451818378404403
0.9919501850101424
0.9853324109025365
0.9121571788882605
0.8753810375533712
0.777419200963845
0.7897449845098155
0.8612984950099605
0.91905083701271
0.802880242544983
0.833176692083834
0.971258212203221
0.9542554595696566
0.8934038249210776
0.8740776273906731
0.8838744842250195
0.8528720603289068
0.683666824913324
0.5711904945233031
0.7555092604136412
0.6902277104346206
0.9948861766526197
0.960232686509451
0.8914703339254678
0.8999792631947854
0.9808846679092555
0.9734497153193652
0.8537116303017751
0.9421599783449213
0.8309615009980692
0.8172047106200063
0.8680645271204603
0.9423026406696626
0.9862366785677219
0.7577307427527684
0.806264533996754
0.9937962301066963
0.9962842033149221
0.8280158547110825
0.9350086921366502
0.719690636727697
0.6350530961568931
0.9978499893075812
0.9852848288880198
0.964966027176237
0.9672729494889409
0.9736097142825706
0.9619958892852384
0.9426384267620559
0.9330309879181152
0.9156871802468232
0.9042666312376497
0.9207535883103704
0.8913007173800697
0.904689405942934
0.8789436404286682
0.8911355197499484
0.8697603925755264
0.8772144189452326
0.6614153307911389
0.8255872144808857
0.6973587420381904
0.8423186018794326
0.7553882927331768
0.8492854590570864
0.7935665606801706
0.8589925180739375
0.8147274445639354
0.8639250135865959
0.833539577958027
0.8699691160203538
0.8423649205536232
0.8721733701560964
0.8529290019201221
0.8758336112794269
0.8552015881958054
0.8735633569280244
0.8584024760526217
0.8737873435236979
0.8633801981283383
0.8765574784910504
0.8687120444876891
0.8805180577643683
0.8732845884995964
0.8829671502048412
0.8763416214599237
0.8858983273376035
0.8768437388663886
0.8850428058979002
0.8810360276974484
0.8870046023296132
0.8858006414420415
0.88982017393041
0.8870999358078294
0.8915064790865136
0.8905234308969465
0.7530400111773232
0.8946440645060368
0.8394135868502979
0.8746495007133832
0.8933090516667337
0.8972297810428508
0.8956287425245156
0.8917093750160354
0.8941833490464625
0.8993461719038045
0.9001880724382724
0.8883842781939267
0.902302161304919
0.902521911606
0.9043418878893952
0.8896452409181896
0.8923312479374784
0.9042620354133909
0.8872991101720673
0.8901273716638808
0.9068199262802048
0.9068006634164949
0.8848197108307776
0.8886945526229756
0.9094822858034984
0.9092661636363072
0.8817164402910135
0.8850803803374632
0.9121765068177161
0.9120206664224088
0.8782370671007174
0.8812459407708617
0.9151935088923547
0.9146262028720603
0.8734545178314276
0.8787291332049533
0.8694795592568301
0.8634188758070342
0.9151930221272876
0.9180442511955502
0.9167592804362619
0.9126833669499821
0.8832032066836457
0.9150457244022343
0.9095474880174628
0.9114280553711142
0.8756779562820822
0.8675292009684578
0.8821543028055178
0.9203423033339966
0.871852599804362
0.8629523609409697
0.8877360572272667
0.8677022307944405
0.8592957451792355
0.8649000739095863
0.8556817985867372
0.8498920218713772
0.8456422577827476
0.8402824860154334
0.8618507573898447
0.839011610507172
0.8322742263320633
0.8702518134316061
0.8676462097748031
0.8307304389354008
0.8238953175320369
0.9063736433855506
0.9072123227460283
0.8743145413885064
0.8706208932105434
0.9026031149037562
0.9033819479713655
0.9093476398602476
0.9033067457494893
0.9115897953263455
0.9043107320049857
0.9129366332989218
0.9050800532949465
0.9149206473078141
0.8966882724780216
0.9045110708483165
0.9165170901985512
0.8776405906072717
0.8229835059017925
0.8161577659671873
0.9243013039542725
0.9273636726544525
0.918972985908359
0.9352950200657371
0.8743358191586788
0.9309900039802426
0.9225165945531001
0.8811298242343173
0.8781552379119641
0.8718284845407682
0.9352250922977059
0.9272663613052912
0.8851298198896396
0.8886468509208817
0.8749037276901336
0.8679899512391254
0.939396153018839
0.9324613451280617
0.9131238027762699
0.9449961656283121
0.9183071359205047
0.9002800591578507
0.8160900017634392
0.811145919709424
0.809842773357617
0.8069697321316754
0.8010874242774207
0.8006198908920183
0.7942962837502693
0.8922380524431022
0.895387635116422
0.8711655360337255
0.8643565708386469
0.9374887327840622
0.7971770373015554
0.7886900898236762
0.898279718801679
0.9015268082110949
0.8918437582928678
0.9221320866788153
0.8765901657358752
0.9093284790652585
0.8619150180698268
0.8983115747978729
0.7962018501863127
0.7879897379264003
0.8680166094700028
0.8618015543627966
0.9041135932314721
0.9069895225092157
0.9412890076117373
0.8134224796343267
0.8184224228013199
0.8045697370428068
0.9246227328331554
0.8012293818216619
0.7894399120908064
0.9006866903083406
0.8646081906280063
0.8584396325270051
0.898522569115293
0.8966013641730095
0.8966725059493764
0.8950293345457253
0.9092840844370982
0.9116259036522176
0.876849759211892
0.8061299306511545
0.8006266690979837
0.9439490780487478
0.9534513461586053
0.8273195800941879
0.8194545195829458
0.930269461718783
0.9089960489507927
0.848624769688274
0.8709689332223818
0.9139229419979717
0.9156504558867724
0.9133331914003728
0.9170381287337108
0.914782543706162
0.918246508545736
0.9160940178900028
0.919221715864195
0.9171173615809368
0.9200222448498686
0.921959651963651
0.9229540076232116
0.9248812048304256
0.9260665831006454
0.9280857774265894
0.9292498886440343
0.9180609030342014
0.9270263804949999
0.9303437502858434
0.932744060881456
0.933935529929579
0.8150758522851547
0.8195914607355833
0.8617934995986477
0.8563728000835297
0.9314909738179515
0.9350266795200946
0.937636445230168
0.9388114492056765
0.8172349318415913
0.8208243407881866
0.8963528870983731
0.8960455476654391
0.8982005875587362
0.9467392641476454
0.9336463181839586
0.9177681959601395
0.7810440500992852
0.9068689187929055
0.9415489401324048
0.9426358286038931
0.9401714266738572
0.9441682991048864
0.9038371432818669
0.8990548200029437
0.8960813284243978
0.8444148647225418
0.8597477432169734
0.854156859381798
0.9027312923301217
0.9464441886992033
0.9481870555135653
0.9456429291074218
0.9501468665038768
0.9469372816639188
0.9510811267021293
0.9542783432997473
0.9547817218023616
0.869970190693398
0.8198262853908674
0.8214763672186483
0.9162286967650777
0.9483440539795497
0.9377860627193142
0.95734950461307
0.9584618902583992
0.8660194376219154
0.8582849433732318
0.8522588770004216
0.7891579514532915
0.8624403567873077
0.9195095996673356
0.8868356822858195
0.8156309171671876
0.9492901215979899
0.9396591572451423
0.9169523885563672
0.868380216669959
0.9520767225142257
0.8189220870592698
0.8616121601247112
0.9039935298983987
0.9085261819347693
0.9477861453540947
0.8558711639770449
0.849813166245394
0.8222571878923418
0.8233335013940871
0.8581900123341635
0.9608841738826268
0.9612993353177554
0.8462114399565274
0.8441896503445911
0.9604518664167182
0.9176096723740721
0.8470097416640048
0.8418630039978507
0.91243514484033
0.9199044423071827
0.8950801043766591
0.9398000299064154
0.9637116236894242
0.964280294217332
0.943757708309445
0.944452544208599
0.9205678973174924
0.9616574511752309
0.9648126012943247
0.824847964798194
0.8253671027638241
0.9684930020238223
0.9687562254475462
0.8444501414334021
0.8392368205121529
0.90880103463437
0.9160213238864762
0.8371633491770204
0.8347497460652309
0.8363750004737402
0.8323172064678891
0.9212229056422577
0.9376221564341342
0.8867503725549607
0.9004619452070728
0.9003815951815186
0.9178773876229334
0.9728587302159192
0.9727061690693476
0.8815305290123031
0.9618046740213911
0.9266991142221748
0.8310767593486897
0.828698574197373
0.8302455192315822
0.8258131327676683
0.8244536929177297
0.8222735339552834
0.8225028477504163
0.8206282891100143
0.8224136100520469
0.8204601408756127
0.8233866725407518
0.8178853240922019
0.8194359284140611
0.8269353673216197
0.8275121540695959
0.8130902930526941
0.8156514312544707
0.8679596993515726
0.8337041395882461
0.9405653816955701
0.9412042821754628
0.8235390602219502
0.9194490906577096
0.9214339304267839
0.9445743736377045
0.9411299696265928
0.9223125539409553
0.9315850281171015
0.9328621024713133
0.9148208408525699
0.9250093722279504
0.9143108085163643
0.9131941668800102
0.9105545857690631
0.8262140768974878
0.9197373215525747
0.9310234937273303
0.8370401261855861
0.9766978375077825
0.9762663203721695
0.9721561190556646
0.9753617853942567
0.8957519834808659
0.9067413216699739
0.8984527433140266
0.9761451696572696
0.8820768245338612
0.9793221195706836
0.9783031433183331
0.9738229375913757
0.9771166135118217
0.9730376055163478
0.9757872284723291
0.9796861663926709
0.9774252185774955
0.8107834943066955
0.8120312970756106
0.8194039693984453
0.9183473510864893
0.922408403015583
0.9088557475302579
0.9055605642768271
0.9222798745738661
0.9224476125773765
0.9090256803137476
0.8951101106313017
0.90904187334082
0.9129065805273168
0.8095904974462543
0.8777350855434018
0.8970780342369792
0.9222838900992719
0.7974501422959384
0.9189598716848197
0.9806040018388815
0.9768171224197043
0.8606943236640581
0.8547406877189934
0.9029937674792904
0.8250617851149905
0.831043343610253
0.8336254990645067
0.8312814211290338
0.982286301519658
0.9217134378416852
0.9405609595167325
0.8880513830922576
0.8065052034153173
0.8091491388021467
0.8502622664941907
0.9441984029174628
0.9403076717536551
0.9103256209784795
0.8557917467028605
0.8508303361750521
0.8539322853936796
0.8491707550539723
0.8489953405325803
0.8449839407156656
0.8480786371508943
0.8432610131213222
0.8489891827329701
0.8443014709764773
0.8505278049044731
0.8458450717558672
0.852968091244996
0.8478861604267209
0.8585753459141712
0.8541690122892862
0.8505255717107577
0.845513602230134
0.840817475769034
0.8476091235672397
0.8532544655001068
0.8571660260632763
0.8530318449448742
0.8606117123650641
0.9445546682728151
0.9437923505434924
0.9476946203181048
0.947200099878727
0.9507289043500401
0.9502930325722251
0.9467818402707998
0.949299465847059
0.9454640687225752
0.5341392365211141
0.9538502550652749
0.9542755389031424
0.8950358910504356
0.914995604003851
0.9161086689943645
0.9128385243699711
0.9139483257879887
0.9104550205940557
0.911560315775591
0.9148558518429835
0.9126067748730362
0.9159881143960102
0.9133662238048476
0.9164834908228381
0.9104254634807795
0.9077863319156062
0.9063818213261349
0.9188676654090616
0.9196368813722402
0.8505484541845677
0.8819590588683147
0.8012249293868319
0.932634365127414
0.8952236278030637
0.8931750751397816
0.8858341480601908
0.8865931681031851
0.9691561788588743
0.9174701748732088
0.9122110853336605
0.9130660282471279
0.8929396602537201
0.9048074541450563
0.9005318677295836
0.8901748510075403
0.946788470933594
0.9431863271279604
0.9009582535345094
0.8974360299711649
0.8969581818649908
0.8942559330621903
0.8958413562990843
0.8922341783256342
0.8959644659941662
0.8917538666942736
0.8288269214901479
0.8727355894204883
0.9196422680204138
0.9310198357617328
0.8646658895498176
0.8535211118670589
0.8450258202222547
0.8414928197324565
0.9200288562356311
0.9236600399370981
0.9797449673258881
0.8242526019629977
0.9086561015205037
0.9380681783538628
0.9413379416027603
0.9683611228573936
0.9085835589578319
0.973505662242087
0.9713173287284935
0.9747446960881394
0.9685921069324188
0.8841018630957023
0.8338462638263519
0.913922826642451
0.8563856885265125
0.922695814674492
0.8562938197456438
0.8590131476702715
0.9790217774158183
0.8928605693218837
0.9370541618752662
0.9364450337075249
0.8992504618430934
0.8997413909384956
0.9079280942974419
0.8907534231177568
0.8008474734361622
0.804654340869484
0.8151535898218321
0.9204355293002806
0.9357101074083819
0.9036009420510439
0.8995751042331155
0.8591998280363202
0.8559375461665862
0.9018685038368324
0.8931649179669415
0.9088949414299008
0.9085023771369526
0.9076901272129416
0.8951149245366303
0.9089322352362262
0.9409797224588575
0.8882680247907223
0.8866798027250983
0.8910958419336846
0.8858500971292469
0.9666679796339862
0.9632813397319067
0.9659137565122498
0.9589184541324944
0.9370645995910416
0.935336294285662
0.9569500839119954
0.9578177351877799
0.9031717165240993
0.9020936703789819
0.9152757165231988
0.8896371377060376
0.8846094704555627
0.9322671541700374
0.9274163068238057
0.9365416944515256
0.9314086238628542
0.9255671430937918
0.7997274215935858
0.8242881732757598
0.8261135829765598
0.8385455635592807
0.8425205963691637
0.835738918367361
0.8472674692561535
0.8397359269239075
0.852546572672399
0.8458034565177267
0.9184631078041267
0.88149720849835
0.964028603206263
0.9750757738006683
0.9785805156485387
0.9748621716952047
0.9439832064981152
0.9060799005497715
0.9623662245703878
0.8975762123988889
0.8812070349165695
0.8868918951149487
0.9060871441306638
0.9292733172120093
0.9301460379920414
0.9501614552823293
0.9406628026666508
0.823385368534184
0.8499471940692723
0.8532489463103604
0.8579572196307418
0.8547813379993912
0.9504340776798978
0.9504940541690723
0.93317698718658
0.9201726143367587
0.9051699186713176
0.9431776320749633
0.958817783386694
0.9585090194225829
0.9282207740115384
0.9370698723074049
0.8625018074905831
0.8654013607554145
0.8603108049602061
0.8546774164980909
0.8391432413904623
0.8487739100521119
0.865672419851356
0.8609384805402529
0.8780406855997686
0.8748107196477619
0.8898976010078724
0.7965579874538414
0.9329198343916756
0.80158682135926
0.8536976001391058
0.8677452018421669
0.9189897083228551
0.9431624017249681
0.9502873358832375
0.8878684921256056
0.8310559179716095
0.8259298735284464
0.8958167868363615
0.9826276078125511
0.9061480015048219
0.9538792108709018
0.8818885240000952
0.9045987893012437
0.9000703958997326
0.9023919615050643
0.8593644268181859
0.8976802473133715
0.8352180859621336
0.960152767326778
0.961491305720708
0.9593270699793808
0.9630239604072447
0.9614803320569089
0.9575508120148651
0.8580594881602261
0.8639171456698485
0.9317688095121028
0.9406791225999794
0.8480834570969085
0.8892410069373652
0.8836266245152419
0.9016995149344564
0.9689456633549984
0.89906566156759
0.8794362628554042
0.9659608209209241
0.9674182952716778
0.9305514224959772
0.9294687903416176
0.9267940489148245
0.9005761496361319
0.8262840874321645
0.7910079066077327
0.9602686315470218
0.9237969389162006
0.9410535812515722
0.8111771434944798
0.8585078589068451
0.8346538110654905
0.9525445068982417
0.8432705399681374
0.8384015744507761
0.8408373068279745
0.8358343009717774
0.8374880880501294
0.8338824922676035
0.9783871979995915
0.9753694764655039
0.904276664874001
0.9439328659073672
0.93018491687132
0.9283972746852612
0.8678497292973762
0.8443273870564983
0.8393779371226922
0.8933826190399095
0.8800732130621542
0.8332597644317233
0.8710366222947517
0.8679579714971917
0.8739080998695005
0.8655038884204768
0.8955540294691926
0.9104026656998484
0.9356956975786727
0.8804262683535258
0.9583581847543252
0.9051455891760468
0.881594033151032
0.8650029598968473
0.8712326227287923
0.887757139383648
0.931909621127638
0.9297615160892594
0.8258036949327883
0.8271630172032701
0.8219312514975163
0.8217385489270329
0.8514236388697359
0.7965022829483638
0.8101590714345778
0.9709563969674593
0.9712512380089838
0.9664929267322662
0.9617391997328244
0.9641000849784113
0.9655426996405766
0.8314318358959758
0.83070285307577
0.9328599767395753
0.8508163548250692
0.8530753421865108
0.8545194577315947
0.8555312867485122
0.7893209149084942
0.911605315451078
0.9104508554238357
0.9057265736600484
0.9039130640548377
0.8985082502692862
0.907935712901236
0.9268498557292207
0.8990382612632328
0.900154311431489
0.8238711961849715
0.8181376382663955
0.8513559953256779
0.8483241890772758
0.8432847212803151
0.8475411254642107
0.8559060545745723
0.9373600190358855
0.936268578111009
0.9388028263455984
0.9387519702334746
0.9317634362756749
0.8265509181071155
0.9038387366573825
0.9798895061740783
0.906923827529521
0.9480133799668502
0.9008415466838403
0.8959860663905723
0.8981211133546426
0.8959998832150872
0.897613508958132
0.8968437281738614
0.8977158971765228
0.8976596986292533
0.8989218136624915
0.894243540009906
0.8957956136598177
0.9816756514647644
0.8483930481622565
0.8961435654764563
0.891447789195146
0.9023374341672121
0.8959084300488873
0.8979276122442971
0.9306615724281576
0.8547591048264398
0.838151041465962
0.854658765802575
0.864178906632025
0.8829732626033024
0.8855305329387827
0.90065239248232
0.895289058560209
0.8368979914947114
0.7827395281224655
0.851550998967523
0.8459407084654973
0.7901637253276504
0.9549613957295404
0.9531009508735527
0.9558074241233943
0.9497492259498698
0.8978951145729397
0.9341943814889638
0.8503016945668865
0.9257677780965781
0.9232003645933544
0.896880154536171
0.8759759065383431
0.9065865751975132
0.9829780428099513
0.9832947413239516
0.985933732135409
0.9865028251962883
0.9879767141735346
0.9874588436409284
0.9832246875846181
0.9709787829739769
0.8885431395796792
0.9397604419033939
0.8557681316569947
0.8272053265126685
0.8352412444147705
0.9832711227550195
0.9861568507059488
0.9820881402042503
0.9108760478375997
0.9250284386897983
0.9267312995271619
0.9296405275796742
0.8784455406553768
0.9240579196090835
0.9567554910847972
0.9603102645523126
0.9479672213823627
0.9485677628434463
0.9472361090574015
0.8299985442191543
0.8996173048053823
0.900588372786821
0.9038386553033791
0.9071456818028354
0.9537058207495243
0.856589074517005
0.846012236578885
0.8583098925871223
0.8689219106565145
0.8766899335409053
0.975604516099545
0.9809634603922789
0.9259620947833097
0.8443557188073572
0.84740537810988
0.9674638053208598
0.9412798958550447
0.9240367384605083
0.901587477322642
0.9471440626481241
0.9631488186363484
0.9673739837431233
0.9109678092311599
0.9291913180070314
0.9487125058106599
0.9701492591410251
0.8933264950295996
0.9113853025743925
0.9345327642815593
0.9338332031503075
0.9621813083565225
0.8761048574769997
0.8878201528180916
0.8253713552682246
0.8454919976261454
0.966748444900722
0.8288919895030912
0.953203896325623
0.948364911046407
0.9888360112521138
0.9881411717454788
0.9553023972823209
0.9260276132620757
0.8647336062728642
0.9271115873770901
0.9234454685773344
0.8856680230660045
0.8820700900989734
0.8806990655438006
0.81992378776657
0.8257795250871678
0.9086707004273468
0.9080416743081736
0.971142950549596
0.824887487969902
0.8315145648024248
0.8284609021823031
0.9530097092946015
0.9203887244944626
0.9275269152523663
0.9045814997462346
0.9125297865264658
0.9063168352806646
0.9007521122116355
0.9118963667273774
0.8974117912952742
0.888251680651954
0.881666364580231
0.8726671371468135
0.8820153093417332
0.8561605719463286
0.9473856806622548
0.9047943994553531
0.9152074094390787
0.9750968391338114
0.886066170924831
0.897400480414787
0.8887968013029303
0.8868360585038813
0.8893958260615081
0.8804643888267307
0.8793031575341504
0.8419901317616322
0.839503662898724
0.833999026288825
0.8361454610694901
0.8413365932478937
0.8370451544803313
0.8436565610339272
0.891260383352393
0.840187257561825
0.8466205099632992
0.8825616343214451
0.8175941435645518
0.8504094330668754
0.8306658713666473
0.9621383715135319
0.9657446310075033
0.9383870145309762
0.9415437266872099
0.9077254076846238
0.8653415502371374
0.8465739744678463
0.8322322304550172
0.8141256192752597
0.8113158905989674
0.7502793065406013
0.7535492298089066
0.69192387511076
0.7136643413092715
0.681023614862577
0.7058597567035828
0.6974703714849375
0.7159874015175338
0.7216367938836117
0.732169877355824
0.7470101137091109
0.7490028900433519
0.7659054045996008
0.7678132537870833
0.7848397372587979
0.7853641140334527
0.8017317500257463
0.8010172647974739
0.8166365509639048
0.8153454749111034
0.7995080039427794
0.8131733437212694
0.8324652520133109
0.7553949267890081
0.8204272345460344
0.7904301644215042
0.7630609232894344
0.7427379342855588
0.7996682623061014
0.8122195201726123
0.8255844366715438
0.8238862070659818
0.7338914677250478
0.6840246010596595
0.7859428601055201
0.6690676023351012
0.8364407832844551
0.8340013375614581
0.821982941785345
0.7890412190251412
0.7757142252585095
0.8393164211162654
0.8491623047105223
0.8530151873004173
0.8058239791842997
0.7659321397855486
0.831770034549206
0.8216922457121899
0.812205996641935
0.8122799557130126
0.9599140510360373
0.955909157423487
0.8644643717016685
0.9575086914966066
0.9614213776869975
0.8957177212530798
0.8999843220859032
0.8594476755793616
0.9302189716206791
0.8432490003816868
0.8774836362662213
0.8743999529089148
0.8752285575237931
0.9237305994997649
0.8972768026326942
0.905143090749271
0.9036689160127597
0.9189331894675958
0.9162273733027981
0.9257131433794393
0.9117352618196277
0.9207815947525105
0.8980276419643657
0.9005692480184619
0.901527256113259
0.8984228823966297
0.9033331743099747
0.9004443699904795
0.9045807184197361
0.9019641304020045
0.9055564010503719
0.9031784660231378
0.9066544613414653
0.9088838201532676
0.9092752113136086
0.9238889866571828
0.920403604521701
0.9195572807864538
0.9171066064550475
0.8271537645959337
0.8211301478905358
0.8164335798980864
0.8130258914636077
0.8105562194031393
0.9237913402732328
0.9278094527648703
0.9352117510312777
0.8987059628596124
0.8956640063595116
0.8942621400134474
0.8454720587843687
0.8847720273435803
0.8552643800335665
0.8471301850984636
0.8572544041551261
0.8514165292282905
0.8409112015301952
0.8465787934275162
0.8355708673493091
0.8393259927406587
0.8524346540848847
0.9225995197259239
0.8336544906762794
0.8295255663962251
0.8600136220586504
0.8691465903333637
0.8852080595169642
0.9634736936007574
0.9652728033464965
0.9605065746934462
0.9140601361224464
0.9052872312421647
0.8779505572560564
0.7695500964104365
0.7707914592421935
0.8285512736943692
0.8627164669040692
0.8708836215743875
0.9597263913872737
0.9711332018753207
0.9072652291008281
0.9006028970891067
0.9057279732919128
0.9409087592762042
0.9407509196077437
0.94898031833447
0.8692223395358427
0.8722845916836961
0.8796468797936944
0.8707850746065746
0.8285836373815125
0.8712979160296401
0.8729532038572577
0.9594548110302116
0.81307384477296
0.8069078605971529
0.8067306332701687
0.8034070302573368
0.8400087773781181
0.8541542974856677
0.8511851368124119
0.967625648914256
0.8938015041829462
0.9326714296806135
0.9373748085586062
0.9271596803995007
0.9302404408447088
0.9209028142609987
0.919487130422131
0.9104669706766634
0.940878989502846
0.9438237353923897
0.9365183837020916
0.8411329744796942
0.8420973978841074
0.8312032213694788
0.834247365922663
0.9091599568882033
0.9055550630498967
0.8188777468605382
0.9155175109731774
0.9168564244619575
0.9145396821499204
0.8405480847613581
0.8413849805521796
0.9488208778762883
0.843434334671805
0.844618698334488
0.9591792280302078
0.9767813881883081
0.7912723514714312
0.7981431505213521
0.8346959101684671
0.945580227011911
0.9579101582041882
0.9274605905408656
0.8894065958712591
0.9632259711215937
0.8801831597961239
0.8434206040171603
0.8654453066745573
0.953023336237567
0.9060910892357776
0.8258279927348772
0.8983753885596573
0.9726385335189228
0.9779151526771018
0.7792117874113283
0.9761091510356763
0.9789841961482166
0.8965697010022516
0.9020532419621878
0.9067957487874504
0.9081515956910149
0.9009582744167574
0.7728858805523726
0.7661016953705552
0.8235023083209648
0.9300267203127559
0.9067229569094271
0.9265750685290371
0.9833033125153
0.985303914315436
0.8041630420726168
0.7981917411597876
0.8493684522001557
0.8308457950396001
0.827220966152554
0.959475168051521
0.86442484163495
0.8462664404741023
0.9004205097242519
0.982310599842492
0.9841437625728897
0.8538943813840151
0.8501571809672488
0.9121944436397493
0.9405081895476191
0.9040773721454984
0.9006739485075563
0.7531844515213886
0.9873075093741677
0.8972047701031556
0.7833560851220939
0.7937274912858137
0.81159373840118
0.898522594457577
0.8638614490487077
0.8570664154863049
0.8679770739372483
0.8631526037279112
0.8724596869474085
0.8674836955780967
0.8575355848909866
0.8598015318857195
0.8472194635478381
0.8535678327784373
0.8779094569220091
0.8914348935806948
0.9041159786884443
0.8917255391760583
0.7429787020218345
0.6028036251225595
0.6083983527369667
0.736564596329251
0.6577288465029044
0.647977817228523
0.645174899730836
0.600850674113511
0.8318439951452308
0.8277679337764231
0.8543441359029721
0.8579358894057744
0.8668356546163694
0.9881214507024847
0.9900022535714129
0.8712930258195922
0.8722800690396186
0.8694502500837876
0.7901894929227868
0.555773496481527
0.8660391341392052
0.8579564413664608
0.8446172166852038
0.8529948150174511
0.8350041426272035
0.8859035966281206
0.8731713162825643
0.7156322704208256
0.9304996357295164
0.9461582860326843
0.9232025463918713
0.881172608287675
0.8108762789275011
0.8196174817992724
0.8558617343666042
0.8550878772157855
0.9623751332888456
0.9607562170097669
0.8832968832288781
0.9132762418561217
0.9169833785646597
0.9253557663877445
0.9281549018692203
0.877173708501436
0.8862699497206404
0.8742517741354661
0.866571136550485
0.9148216487759592
0.9118298666250317
0.9324202570982779
0.8239058399834726
0.8082490837452277
0.7118167370964621
0.7419900865898756
0.7672739861863126
0.7804145136427953
0.7989967926956709
0.7575337639409299
0.7937384421260589
0.8181291776894978
0.7999666658474593
0.9055720445361439
0.8102946040736129
0.8469544359769124
0.8575204964604585
0.9319348625902939
0.9352754541956156
0.7117049045871622
0.7284197245471178
0.9213505002181959
0.9858394037545724
0.9868999490418568
0.9891036863277135
0.9878775954274311
0.9900482898196292
0.9882071217910898
0.8575203979258853
0.8659752440329185
0.8665993818296287
0.8741384725290458
0.8736050577568415
0.8794726286191817
0.8797100991058135
0.8800820638592799
0.8846992304488549
0.8753349363404409
0.8860708116481779
0.8827133038371852
0.8868002641101635
0.8898303683607188
0.8830313518497761
0.866072730386261
0.8797585156828479
0.8610294104255323
0.8719535353126573
0.9040130836023614
0.7859380002434992
0.8278472125443478
0.7812732337374285
0.7851104150966957
0.9305448347629556
0.9254786524932199
0.9033902850609572
0.896533487725893
0.9000015389742123
0.8930425343567004
0.8948037742044165
0.8923322428072348
0.8930302176068008
0.8902962007432865
0.7950789554870069
0.9294908554965723
0.863327246378846
0.8743451765473376
0.9002397974443082
0.902186676039149
0.9164110167337435
0.9065712742236719
0.8061561194392328
0.8075873428780729
0.8129716995762344
0.8144460035212434
0.8183002993037564
0.8065685554335805
0.9079908126360331
0.8226771611086462
0.8235752599484089
0.6899202543902229
0.8640153108181109
0.9827949004575766
0.9190318084843333
0.7855723656667803
0.8847964909983111
0.8890481497671345
0.9897365780122306
0.8487620411521848
0.8449204771662827
0.8469692881612084
0.842977539262964
0.8451976187558471
0.8425102404941038
0.8403180668889283
0.8421913472448965
0.8674423026240822
0.8446449290275008
0.8459276969247955
0.8516065667694437
0.842650593477342
0.9461092915063894
0.987404600197818
0.8511485880298251
0.8226424879576496
0.8457873957865971
0.8551809400895521
0.776695105531638
0.7621861152704347
0.7742014315560481
0.7621168523017294
0.749263331259406
0.7455338781209406
0.7548326741685547
0.7950370759119161
0.8409544954689251
0.774290975122858
0.9424787081208102
0.8473038376539347
0.9167144965793478
0.8264371842852329
0.9264825854631848
0.9054775325500153
0.9129146230851377
0.8645452346042598
0.8977271692110512
0.8933744148984663
0.8742095304936119
0.8664606470071513
0.836550715638116
0.823895067013205
0.9771920335726878
0.9689163058327954
0.990163023961617
0.7961883270343094
0.9120148161330884
0.9227881022566056
0.9385122692962276
0.9537039691231227
0.8422983640800914
0.8817147917613319
0.9037409830159193
0.8326278429937073
0.8349812163138753
0.8323553431411802
0.8217335068505155
0.8953388921580386
0.9003034076211354
0.8275202139733734
0.8432945345215684
0.9181641903024427
0.9362554922404512
0.8288481837614549
0.8640567248107516
0.8713183791670803
0.8889627908545495
0.8704884062923128
0.9246964646213707
0.8154532063237203
0.7472491796211181
0.9267776423896722
0.848428323166236
0.9505284960869963
0.8787958966383645
0.8764187721670669
0.879427057672136
0.8735390421019347
0.8675005036581528
0.8434396542070238
0.8245068107005634
0.8341020550056545
0.8468768695238749
0.8454611263868766
0.8389536891335295
0.9582597546504297
0.9521238952231689
0.9506922471019392
0.947878135309601
0.9423242817741133
0.9455736345505654
0.9519404168583132
0.9289719072270989
0.832963364243391
0.8220903617677449
0.8268801013155012
0.9263923288271552
0.9386504940118959
0.9117451573815597
0.8755346158861184
0.9046972156640716
0.9039457653153724
0.8993678501467609
0.9021010216495771
0.8740656556255355
0.8253713100343876
0.8225786711247096
0.852293181724909
0.8492950118915317
0.8535004168656306
0.8713261746391551
0.8684919792332786
0.8620032185639734
0.8639201643501605
0.7242553125098857
0.6311031267418318
0.9820191664907543
0.9842043694565138
0.9842231757873027
0.9856573224856793
0.885439618124446
0.9493899113247362
0.7440013099401452
0.7691290384709464
0.8187026411304377
0.8220624148862726
0.8323221523397283
0.8592131136201274
0.8547743692057483
0.770504716057515
0.8665688967402633
0.9201707366320787
0.9867882049768817
0.8813246587129703
0.8851751887091759
0.8705067918785996
0.981106376036884
0.9216904735562997
0.9225931012620454
0.9154081293067791
0.8617922180722436
0.8579942602346482
0.8529263510153079
0.8558054317359558
0.81316181725159
0.8149021640309236
0.8063861015401108
0.9884579862964475
0.9639750726410621
0.9629527205475867
0.9665152174056748
0.9648178323661334
0.968571450044571
0.9666616452206346
0.9710979961345396
0.8236544160235397
0.7955596863147676
0.9580563280110524
0.9740951936327952
0.915919534483125
0.9645425226854
0.9685731635955491
0.9540975435144499
0.9198802176787478
0.9175584323345479
0.8959873952720622
0.8418178398919802
0.8949397736213096
0.9720189566359945
0.8816840318210705
0.8842796070225867
0.8884489311797437
0.8801204448448787
0.8849626985130497
0.8877243245556347
0.8844383040135361
0.8804173279146552
0.9389568583942681
0.8849865054794216
0.8887603756745046
0.9469916221133753
0.9366274816566901
0.8428741779528034
0.8040998132080408
0.8346019904368501
0.8728518241619894
0.8423949207163994
0.8456797529798297
0.8547593166478721
0.9428711436151256
0.9442762595952127
0.9440987496012025
0.9470593439910082
0.9789789192915408
0.8459460130245063
0.9388487580805189
0.8985827356549317
0.952327293868634
0.8960165835571183
0.8390377940127425
0.9111242378114925
0.82571714956869
0.9069696941924129
0.9119447355684405
0.8942685166286112
0.9084780158318593
0.9395683582036505
0.9386139110997634
0.9426191877246936
0.8905445216619341
0.9211599630199878
0.880678560183461
0.8999772548948891
0.9028951225273005
0.8218844465988292
0.8834294921398675
0.9818433181022355
0.907486831886433
0.9366373488603339
0.9355125069516887
0.938792564696405
0.93429075478792
0.9376002300174037
0.9432387965415462
0.932428236557965
0.9081078491449844
0.9063091897841999
0.9321943024840447
0.89158731649983
0.9665752204697305
0.9189553080032641
0.9315769913199808
0.9910296607047552
0.9052076484793106
0.8583389805796848
0.9248144745789969
0.8452176939096702
0.5691942887316044
0.979650419020633
0.8822066343219891
0.871714052339932
0.8862405409519625
0.8519597066556122
0.8663177010029667
0.841500472561518
0.8924083153367468
0.9102178530796969
0.9071834354607904
0.8692670887468349
0.9120179807341449
0.9035556374496595
0.9043435197028864
0.9156223348944534
0.9370702149867919
0.8679942741618917
0.9284261837230905
0.9250557894730684
0.9221229484154924
0.920542991096458
0.9091895691039901
0.835521101025156
0.8984325545921834
0.8226016612522364
0.8957244376108218
0.8595310376471712
0.925032864958156
0.902288346081716
0.9224788435134779
0.917001414416057
0.9326585198120568
0.9458253922171443
0.8502160241362597
0.7430643147107124
0.8877666898564289
0.920941153822606
0.8315307504265136
0.8921608131972777
0.9512012866119426
0.8647950910748176
0.9046367587630235
0.9068920361928148
0.8477741326369738
0.9649434563503574
0.8389525972043907
0.8746189138403629
0.9185474373439547
0.9179654134674057
0.9568023539827605
0.9524881910199277
0.9453715448833573
0.9091727018105272
0.979022390460714
0.9881272625726423
0.9346218142285471
0.9498634718031119
0.994503362451874
0.9889965515204879
0.9021336996320762
0.8944353745403038
0.9827755207844976
0.8981317850071373
0.8894823911198338
0.864426304879673
0.960048358833891
0.9639442922147257
0.8921282421748682
0.9338837352883264
0.9384983181944299
0.872639577401252
0.8359723101776807
0.9071216846582331
0.8413543166396222
0.7280910131438927
0.9081217175505724
0.9348802813101796
0.7920968562754138
0.7934040594039221
0.9213894030288768
0.9008795570625505
0.9280883872617998
0.8831319891880897
0.9553415334591632
0.7991222434004037
0.7375596880807466
0.8164626842307184
0.9137450901494789
0.9236957440589678
0.8445351642472027
0.6248549350625195
0.9721107175654861
0.9649241676263742
0.8897754293390394
0.9480190594920223
0.9090412565292867
0.9472983694042019
0.951695028894929
0.9462502502166192
0.8702857733192488
0.8672905007099433
0.9739249480465776
0.952607355743931
0.9411098427457238
0.8982869568646795
0.9707761744777386
0.9136078951350349
0.8969365965261109
0.8439308587555534
0.8271726818250522
0.8934647352140408
0.8805968932929708
0.9376680232977394
0.8634179521638521
0.8304004778854398
0.9710110389987492
0.901149552272001
0.8975396885129816
0.9638568788886874
0.9363574184296032
0.9552815578826319
0.9847520822567661
0.8913308847429724
0.7075078480690383
0.9204776984968238
0.9435633630556939
0.9470131865688803
0.8553941659656469
0.8901616891881878
0.8763289620717638
0.7830964596452794
0.9515150650290914
0.8614311361302233
0.8392370958086911
0.9082040966650614
0.8325853702052946
0.8480014914227784
0.8344805978722782
0.9426459473722233
0.8902877427338844
0.941321282191632
0.885216603324668
0.9831159401406596
0.9774999420400571
0.8802350102818703
0.9587610077984312
0.9290945911452653
0.8963826707114525
0.8479657750769138
0.8829171260142566
0.9013540127282837
0.891159270689848
0.9415605367713847
0.9681627593156459
0.7439338142373115
0.7658317563504887
0.7809617772473778
0.7989316246389409
0.7959814707033263
0.8777322940382386
0.8976114610375118
0.9525527877212064
0.8334377027085058
0.8456115166444724
0.8251287922400712
0.8557564653493233
0.9094137677034119
0.9092424140999883
0.8904584856283504
0.9281123675326924
0.9108020293908329
0.8273045668055885
0.8135752807491541
0.8833963831236783
0.8908288921841518
0.978576047833038
0.821583797614245
0.989005440075506
0.844811764035207
0.9574905035550949
0.8969406573950622
0.9796427992084972
0.8741837786088191
0.8607266511388867
0.8390722133627959
0.9061844824964232
0.9240071708846084
0.9022556861031976
0.9488721590632453
0.8933466252731804
0.8861003505744547
0.9388845997385813
0.9736530638877161
0.8137198558276602
0.9193832560635165
0.8683305877324481
0.9558565288906076
0.8989799995934983
0.8966115239640327
0.826737581976183
0.8726570898222028
0.3904741035549162
0.8978308153268063
0.8765381983061439
0.8558813604439112
0.8434306697035553
0.9440492185222261
0.9690307021922302
0.8483677559468138
0.8237167336877235
0.9716463568560992
0.8122556053618404
0.9067895904449563
0.8274102914296136
0.8699069824211297
0.8855024330440047
0.9041342370311862
0.9195558406458881
0.8431163402154654
0.8405858013663156
0.8126496000432951
0.8218856651236476
0.9125807767955377
0.9517329078588826
0.860458945776626
0.8537365720741987
0.7853033289141029
0.9423807108696549
0.9111741603046422
0.8173019400074043
0.8972372124487508
0.873935189177901
0.909747563249566
0.9034737521164686
0.9218906829427095
0.8944770061852828
0.9103291806301499
0.8900944448364602
0.9122089572338906
0.9020835576712137
0.7424924805965968
0.8262725017172724
0.8811039121044065
0.9121423087091168
0.8274770513894107
0.9458717183998231
0.9013386616877421
0.8830548833314606
0.9042714828686099
0.9037916302590784
0.8008370793349721
0.9204366239271387
0.906231975020033
0.9198997499599846
0.8138391480193206
0.8552578013520944
0.7107274629554764
0.9046093129678285
0.9496697193636778
0.8319880280641357
0.9205801426074067
0.8524638190087104
0.9429634468145801
0.8087071446448105
0.8483388550323203
0.828810092532198
0.9234978336603743
0.898574751355158
0.9325532624521071
0.9162615672351823
0.9068493554561545
0.8608116193407627
0.8805076495985685
0.8190519006124476
0.9413409253457327
0.9523224488973552
0.8722482114327507
0.8929049069588542
0.9169020084026118
0.8946076237784509
0.8385850815483155
0.9918966501773252
0.8332281510811752
0.9142133449457502
0.8240192813755186
0.908505984259586
0.8984407706918653
0.8869696325549808
0.9234222939471443
0.7134150687422287
0.8057021043254952
0.9748900224035676
0.9618771088400871
0.870310760413537
0.904892096058351
0.8641518839912821
0.9106640592875594
0.8088570131321371
0.8608470017757935
0.9179320773513673
0.9220304527578453
0.8783793547086467
0.8295680158184822
0.8032867471330496
0.9577297846107247
0.9554619632321922
0.818852937938843
0.8758073888730483
0.8974625311102363
0.7781998090361596
0.8455617704861232
0.7694969921721434
0.6908400987038448
0.8478847514632607
0.9066915745887852
0.8630909255518984
0.9676249199472362
0.8248560529010365
0.9878753009127528
0.822585625091146
0.8805491391852549
0.9090930948860141
0.8238479457153391
0.8158096052889608
0.8279059682664055
0.865631740639271
0.9376828524864996
0.8933962951348718
0.9079051490807823
0.861988051822207
0.8904561277578519
0.888779385043581
0.9210184086260724
0.6458318729125848
0.8383953100749616
0.8773315958730228
0.8171882802098732
0.8684015963401595
0.9233609818070013
0.9128948886232476
0.89165191357281
0.8978672442849192
0.9220510050997892
0.8391031237712981
0.8585625240109444
0.8406437133937662
0.8279188663716763
0.9433781421044726
0.9185614647998607
0.8186852001103616
0.851222252567659
0.8325132147630698
0.8510654989314221
0.8845574682387642
0.9054654928517821
0.811672805956278
0.9089979614803959
0.900136010856669
0.9677297058812933
0.9543312347855349
0.7497787925494503
0.910480560545494
0.8774738559966007
0.8043728462401842
0.9593572921682259
0.8818929997580062
0.9081060346548718
0.9309255071326206
0.6336861338664189
0.9029272452528581
0.9837909619945188
0.8537539840311869
0.9939455942960761
0.8095212624381792
0.9594932342390419
0.9040872836099028
0.9107787858511548
0.8483567299144573
0.6703995147280694
0.771030153694408
0.9238248050528955
0.8895329249873757
0.8399423806004725
0.8724002168496843
0.8761364215678296
0.8281572742000136
0.969577416602524
0.9346604872178249
0.8579462122956748
0.9708452963871654
0.8990853017876204
0.8520207170163141
0.9203162189181086
0.9537338062539239
0.9010734968809119
0.8767674084212951
0.8553737649624484
0.8510081136401013
0.9866348922365283
0.8742541304185398
0.857900648214386
0.8292733112490491
0.8574908964492104
0.8548860127597705
0.9037034441446965
0.8417925485864002
0.8089998224798011
0.9282393024899914
0.952827684010705
0.9553919135756689
0.8917091107720558
0.9851782408269959
0.9111361344117455
0.8927130299788203
0.8448470162841911
0.800322232997396
0.8068154763747868
0.7573371760914068
0.8854846607725207
0.8754456591853433
0.817609238113219
0.6828491338731841
0.8442309508211167
0.8029265992182018
0.9079405956265032
0.8344140370715166
0.899068576730439
0.9543110499126622
0.8237415132085323
0.7970260181382369
0.8884409407907529
0.7569129004295294
0.8479908924980308
0.734485484511145
0.8972165717077553
0.9264752151941787
0.7563419135402124
0.8888992762688567
0.9309505879248439
0.9274672145825867
0.9444125182129983
0.9415843811178953
0.9538319816416668
0.9512271970649874
0.8974479793753105
0.8117263482563126
0.8950518664381901
0.9024144138844342
0.8874754257852806
0.9820109019900986
0.8258884207928417
0.8290071207883088
0.8760509759654628
0.832465701504557
0.898857601584135
0.9953718081571017
0.9970780087969141
0.8923229610480217
0.8273230432893253
0.8972903355032321
0.9638311123635754
0.9907311240604693
0.8613921988586409
0.8691195712969936
0.8254217059844138
0.8677653244183775
0.8958768023388746
0.8611389074423865
0.8400125576828439
0.8655236875388388
0.8163248783258067
0.8838732363058079
0.9229838658359059
0.8912649309562775
0.816058070558347
0.8312872454307555
0.9640200631481577
0.8923489945777727
0.905635645459009
0.8811087228386159
0.8592780777504037
0.8152492451913467
0.8265933573406051
0.8971627797845719
0.7728262820659677
0.8974991696836024
0.9097177615337494
0.9485263941537787
0.8483501746326306
0.9145375685958976
0.8850808450068485
0.9131294220449667
0.8297846426105907
0.9119034597524979
0.8703993613094922
0.9505922791123359
0.8749398166177247
0.8867562122683822
0.9569873621326028
0.8767684008517566
0.8994587085836083
0.8950187550373062
0.800148322311945
0.9677893462976398
0.8900949688794574
0.8963776703889371
0.8133215056429802
0.9913783746347873
0.9268037545425301
0.744781433654443
0.8958526845865602
0.9713909530067053
0.9043874885741893
0.9138099099978849
0.8321608019829917
0.9633605939817457
0.8578632582445456
0.8732757230359001
0.7620594426255066
0.9244778998376437
0.9453802817115791
0.9086920413827976
0.9620356187484222
0.9166529176620196
0.8908778314218713
0.9705090864793549
0.9590617298840217
0.8224465035004696
0.8650748509326733
0.938115844500143
0.932984439348766
0.9856403266166973
0.7491224987952606
0.8866072515310031
0.7577849729696956
0.851703249045138
0.9196997935743422
0.8506653718434734
0.8021856961465345
0.9093253113536918
0.9006277092832872
0.8429624716693352
0.8252835059790884
0.9409248723468647
0.8673353882185448
0.8434681427860584
0.8493202831757444
0.9112448400185519
0.9452616815788748
0.8315132356624365
0.8970815695425681
0.7634124105989132
0.9592074372542527
0.8936553409460987
0.8582008952718968
0.8660307043223687
0.9474995595679587
0.8980306378748675
0.8284029677212851
0.8843921979285981
0.9253014048201184
0.8901073489267203
0.8511737286312895
0.8948586614395453
0.8681613907994036
0.8253369720748314
0.955033734970933
0.9800109089277115
0.9142764605854847
0.9128874821405784
0.918273304434309
0.8914681416022638
0.9763039914510195
0.9331741273786975
0.8851003235292544
0.8398292605895449
0.9012440058262742
0.8403922770752829
0.8844018538355352
0.8572810782594583
0.9217976960444212
0.8945177114514341
0.8528139179682694
0.8988298071294918
0.9474090066358575
0.8858524754842613
0.8941262667230154
0.8716095387519104
0.9312802776158116
0.8509089356439445
0.8495612903524783
0.8666499729875812
0.6737228839262702
0.8504948811976053
0.8789546530612815
0.7430360102998925
0.5226282952811713
0.6968845548931772
0.8200691663479395
0.7983190821071646
0.9310797966870203
0.8882375185469437
0.978558885350924
0.8502474630741544
0.8199879233812343
0.8244781324512384
0.9779621695379047
0.866041646372487
0.8675045750210499
0.9095915234431957
0.8976990213413703
0.7676862605127287
0.9565657405061846
0.8604740652624473
0.8924792811198075
0.8614956295193891
0.8604279470402829
0.985685779848516
0.8296175916353206
0.8645946430454805
0.8310801951542898
0.8471625595811177
0.9468548340449141
0.9515658674936279
0.9923002972528936
0.9534365578762183
0.879452147114819
0.8822263504935969
0.7905904739878866
0.9126370280983856
0.8538662039283281
0.8137474945985907
0.8662410993408634
0.8473809026779676
0.9412409972778696
0.8535062376997905
0.8221012492600621
0.8272612614889273
0.818997201271721
0.9377409748107043
0.8647358910585625
0.7998053075243531
0.8661176739629095
0.9967935403678653
0.9300309009701458
0.8668856875051554
0.7887694582760763
0.8864080126192676
0.9713127477206965
0.8616558313415363
0.8725154671294576
0.9532687057599348
0.9108705968710621
0.9184087781153152
0.82231851849854
0.9146253773116746
0.9846202452058798
0.8864604792241442
0.9713879373960167
0.785731012515527
0.9859676355466996
0.740492464354149
0.798367564958128
0.7721247796668319
0.9074205854644223
0.9213602838431868
0.7152104344279748
0.9022352070228856
0.9832591305130307
0.9807972581389247
0.8516764130917913
0.9332454993892796
0.8886921118332209
0.9760599007686991
0.8762922047086599
0.5024572894089655
0.8789772496870566
0.8454755122176415
0.9903162616332668
0.9318293256744972
0.8497005478559259
0.924868802581423
0.9942931521201829
0.8189768667769055
0.926820984757801
0.8204705202119844
0.7917823186565478
0.9838797721441839
0.8405315654546898
0.9604576379477386
CELL_DATA 4886
TENSORS stress float
-1.1029435067532314e7 1.0016773231703803e6 0.0
1.0016773231703803e6 1.4576626435192792e7 0.0
0.0 0.0 0.0

-1.1740671990159009e7 1.438123343867795e6 0.0
1.438123343867795e6 5.780879698489516e6 0.0
0.0 0.0 0.0

-7.516552462391283e6 1.2238930631270349e7 0.0
1.2238930631270349e7 4.527248983449258e6 0.0
0.0 0.0 0.0

-5.907954690700468e6 1.2888475864012219e7 0.0
1.2888475864012219e7 6.347529602632509e6 0.0
0.0 0.0 0.0

-5.58014957182823e6 1.3358303341245458e7 0.0
1.3358303341245458e7 2.3122952379246317e6 0.0
0.0 0.0 0.0

1.39462089714453e6 5.705138757714532e6 0.0
5.705138757714532e6 -3.8881964536807295e6 0.0
0.0 0.0 0.0

1.4315765697102979e7 1.2432897983549386e7 0.0
1.2432897983549386e7 2.5509112452413463e6 0.0
0.0 0.0 0.0

5.249701911464663e6 5.830660606048017e6 0.0
5.830660606048017e6 -1.4789697717299653e7 0.0
0.0 0.0 0.0

-1.1056992206682708e7 2.392140963379423e6 0.0
2.392140963379423e6 1.5573783133473765e7 0.0
0.0 0.0 0.0

-2.267180802496261e6 1.257941936542494e7 0.0
1.257941936542494e7 4.9642550636968305e6 0.0
0.0 0.0 0.0

-2.8567899009006782e6 1.1623357280040089e7 0.0
1.1623357280040089e7 -1.7282516594631341e6 0.0
0.0 0.0 0.0

-7.573536660795571e6 1.6217963968226282e7 0.0
1.6217963968226282e7 4.766151313062301e6 0.0
0.0 0.0 0.0

3.9511221363335885e6 8.245802508320837e6 0.0
8.245802508320837e6 -1.4210879104944646e7 0.0
0.0 0.0 0.0

2.547183844552382e7 1.482567234201172e7 0.0
1.482567234201172e7 2.1807605102600167e6 0.0
0.0 0.0 0.0

-3.1203111360362493e6 1.1934259548603732e7 0.0
1.1934259548603732e7 -1.8386463043312242e6 0.0
0.0 0.0 0.0

2.0213514209686965e6 4.685703421154189e6 0.0
4.685703421154189e6 -7.146752663048853e6 0.0
0.0 0.0 0.0

307716.8163497746 1.0848317146098254e7 0.0
1.0848317146098254e7 -9.796942591152664e6 0.0
0.0 0.0 0.0

1.770239224578638e6 1.001060349259805e7 0.0
1.001060349259805e7 -1.1415958230407035e7 0.0
0.0 0.0 0.0

-4.448502752545394e6 351340.5194134782 0.0
351340.5194134782 5.444682302122679e6 0.0
0.0 0.0 0.0

-4.304600758056102e6 1.3398727945317375e7 0.0
1.3398727945317375e7 -1.0575929250562273e6 0.0
0.0 0.0 0.0

1.5760110973812784e6 8.337714190424903e6 0.0
8.337714190424903e6 -7.724831791580353e6 0.0
0.0 0.0 0.0

-6.903155891168099e6 1.616337430754609e7 0.0
1.616337430754609e7 4.314930257536145e6 0.0
0.0 0.0 0.0

-2.2865120160732656e6 4.833903155919203e6 0.0
4.833903155919203e6 1.5885925406741486e6 0.0
0.0 0.0 0.0

-5.292640264969375e6 1.2922615412883326e7 0.0
1.2922615412883326e7 1.6979694500936442e6 0.0
0.0 0.0 0.0

2.4981451976319114e6 9.551249208863221e6 0.0
9.551249208863221e6 -1.3590450298413958e7 0.0
0.0 0.0 0.0

-928759.8384843115 2.1943975356728304e7 0.0
2.1943975356728304e7 -7.363581895881033e6 0.0
0.0 0.0 0.0

8.997002903703278e6 1.2626234271279449e7 0.0
1.2626234271279449e7 2.593175020926536e6 0.0
0.0 0.0 0.0

-9.444379602152573e6 7.443860947767745e6 0.0
7.443860947767745e6 1.1405170297984377e7 0.0
0.0 0.0 0.0

2.174172290037596e6 4.769616189225799e6 0.0
4.769616189225799e6 -7.040230569242172e6 0.0
0.0 0.0 0.0

237035.356749085 3.747557151605826e6 0.0
3.747557151605826e6 -912410.6883993496 0.0
0.0 0.0 0.0

-3.119253421266756e6 5.144122935666116e6 0.0
5.144122935666116e6 1.1217461493130368e6 0.0
0.0 0.0 0.0

864094.8093900469 6.967009676056447e6 0.0
6.967009676056447e6 -4.928245073765384e6 0.0
0.0 0.0 0.0

-1.3736825304711685e6 1.0346293427167464e7 0.0
1.0346293427167464e7 2.617589303281315e6 0.0
0.0 0.0 0.0

-346000.880061375 1.2077065827870993e7 0.0
1.2077065827870993e7 -961359.6691766744 0.0
0.0 0.0 0.0

-5.828634022403162e6 1.1931420851866791e7 0.0
1.1931420851866791e7 3.5796731519569675e6 0.0
0.0 0.0 0.0

-2.02572196610634e6 4.719035155939175e6 0.0
4.719035155939175e6 -42185.683002004516 0.0
0.0 0.0 0.0

-441606.9973257204 8.246896878564886e6 0.0
8.246896878564886e6 -3.858342130011725e6 0.0
0.0 0.0 0.0

-5.337177595596001e6 1.1958248873209381e7 0.0
1.1958248873209381e7 3.397642098530502e6 0.0
0.0 0.0 0.0

539716.533676682 1.0895386742959678e7 0.0
1.0895386742959678e7 -1.2587991176069636e7 0.0
0.0 0.0 0.0

-6.681322752949464e6 1.4226067950782215e7 0.0
1.4226067950782215e7 4.416388377569668e6 0.0
0.0 0.0 0.0

3.5936187828080403e6 8.386788886079041e6 0.0
8.386788886079041e6 -1.5354565952313209e7 0.0
0.0 0.0 0.0

-8.210971021725191e6 1.268274459496675e7 0.0
1.268274459496675e7 4.668727550108541e6 0.0
0.0 0.0 0.0

-6.437653999898707e6 1.3889710344085338e7 0.0
1.3889710344085338e7 4.079938228417697e6 0.0
0.0 0.0 0.0

-5.079282798919074e6 3.051252456189542e6 0.0
3.051252456189542e6 6.261498949758545e6 0.0
0.0 0.0 0.0

1.3512594211467542e6 8.361628618809115e6 0.0
8.361628618809115e6 -8.485652544618683e6 0.0
0.0 0.0 0.0

-8.196617634595765e6 8.864623072573291e6 0.0
8.864623072573291e6 1.0682408281990204e7 0.0
0.0 0.0 0.0

-1.4568745540571832e6 1.2510189805225154e7 0.0
1.2510189805225154e7 -4.749395045892012e6 0.0
0.0 0.0 0.0

-412538.2808642294 8.039650180375967e6 0.0
8.039650180375967e6 -4.241611337159766e6 0.0
0.0 0.0 0.0

4.577412997192058e6 5.648169467074445e6 0.0
5.648169467074445e6 -1.2844631251269553e7 0.0
0.0 0.0 0.0

483921.12611208926 1.1141581014706533e7 0.0
1.1141581014706533e7 1.6130707265378684e6 0.0
0.0 0.0 0.0

-5.584748972963196e6 1.3960015647596894e7 0.0
1.3960015647596894e7 3.1554058178033996e6 0.0
0.0 0.0 0.0

-6.416035717909517e6 -295186.16542146105 0.0
-295186.16542146105 5.342160583206327e6 0.0
0.0 0.0 0.0

4.67185501721157e6 5.602697188638502e6 0.0
5.602697188638502e6 -1.3023250795636429e7 0.0
0.0 0.0 0.0

-5.118954320665854e6 1.3045771023202138e7 0.0
1.3045771023202138e7 2.745625994909525e6 0.0
0.0 0.0 0.0

-189775.2510409709 1.1734815025258243e7 0.0
1.1734815025258243e7 2.4581195861743335e6 0.0
0.0 0.0 0.0

-5.168400155810907e6 1.33781238216473e7 0.0
1.33781238216473e7 3.9694122061271407e6 0.0
0.0 0.0 0.0

5.308507187685563e6 6.099328323235431e6 0.0
6.099328323235431e6 -1.571482820847591e7 0.0
0.0 0.0 0.0

-6.459027701227611e6 1.4364949388798496e7 0.0
1.4364949388798496e7 4.724458233879477e6 0.0
0.0 0.0 0.0

-3.083803114348822e6 1.3279457929491958e7 0.0
1.3279457929491958e7 9.521274162013516e6 0.0
0.0 0.0 0.0

2.165681594844296e6 7.927395164461169e6 0.0
7.927395164461169e6 -9.29538836764697e6 0.0
0.0 0.0 0.0

577392.5783674838 9.360882721015671e6 0.0
9.360882721015671e6 -7.023379380493075e6 0.0
0.0 0.0 0.0

7.671318844053693e6 1.199670644389106e7 0.0
1.199670644389106e7 -9.222213432101116e6 0.0
0.0 0.0 0.0

-1.758089131910248e6 1.1671208681180198e7 0.0
1.1671208681180198e7 -2.223604454774145e6 0.0
0.0 0.0 0.0

-583851.279103565 3.8100587043668795e6 0.0
3.8100587043668795e6 -1.1241680842007403e6 0.0
0.0 0.0 0.0

94960.41296520713 6.708504483863238e6 0.0
6.708504483863238e6 -3.774636796631033e6 0.0
0.0 0.0 0.0

4.229372731517509e6 6.071412406757786e6 0.0
6.071412406757786e6 -1.2690269730021011e7 0.0
0.0 0.0 0.0

4.300211143458438e6 7.639564972100918e6 0.0
7.639564972100918e6 -1.41680791598632e7 0.0
0.0 0.0 0.0

-5.4221745188530255e6 1.2753609400775531e7 0.0
1.2753609400775531e7 2.213557895664207e6 0.0
0.0 0.0 0.0

-4.240057432546595e6 1.2767194143167755e7 0.0
1.2767194143167755e7 7.990758256156139e6 0.0
0.0 0.0 0.0

5.256688569119957e6 1.2024589129698168e7 0.0
1.2024589129698168e7 3.464657592307456e6 0.0
0.0 0.0 0.0

-6.681539247800643e6 3.317025698287458e6 0.0
3.317025698287458e6 5.79764903260028e6 0.0
0.0 0.0 0.0

2.7687346192315565e6 9.397494502130931e6 0.0
9.397494502130931e6 -1.2785354498454556e7 0.0
0.0 0.0 0.0

342232.4805336604 1.0950913799640387e7 0.0
1.0950913799640387e7 -1.2380555736261934e7 0.0
0.0 0.0 0.0

-4.403075326567144e6 1.2949280993007254e7 0.0
1.2949280993007254e7 1.5595971979968129e7 0.0
0.0 0.0 0.0

-6.692062459772345e6 1.2517190448281294e7 0.0
1.2517190448281294e7 7.090030750528013e6 0.0
0.0 0.0 0.0

-8.345359803007144e6 8.916006809463222e6 0.0
8.916006809463222e6 1.0221983488541275e7 0.0
0.0 0.0 0.0

-8.326259542002787e6 5.340856691474841e6 0.0
5.340856691474841e6 9.191010758537553e6 0.0
0.0 0.0 0.0

624880.2290587123 1.0680726309217433e7 0.0
1.0680726309217433e7 -9.60618399888542e6 0.0
0.0 0.0 0.0

940025.1262488249 1.0951748425753066e7 0.0
1.0951748425753066e7 -7.2290164991628425e6 0.0
0.0 0.0 0.0

379741.1092686476 9.442135037207108e6 0.0
9.442135037207108e6 -6.990839401391594e6 0.0
0.0 0.0 0.0

2.905408014619949e6 1.5424781860536642e7 0.0
1.5424781860536642e7 -6.74290773782463e6 0.0
0.0 0.0 0.0

-6.524904787339448e6 -2.8951569419458383e6 0.0
-2.8951569419458383e6 8.055607515832024e6 0.0
0.0 0.0 0.0

1.8085145533320135e6 1.0144234128755838e7 0.0
1.0144234128755838e7 -4.0618580182882296e6 0.0
0.0 0.0 0.0

-7.96082458071484e6 1.7145587263121504e7 0.0
1.7145587263121504e7 4.202608739081374e6 0.0
0.0 0.0 0.0

-5.764503222169148e6 1.2915345571336532e7 0.0
1.2915345571336532e7 6.394473795802003e6 0.0
0.0 0.0 0.0

2.8904537749335743e6 5.639190605420194e6 0.0
5.639190605420194e6 -8.910481711873347e6 0.0
0.0 0.0 0.0

900560.7275912215 6.605436465162628e6 0.0
6.605436465162628e6 -5.348944187661121e6 0.0
0.0 0.0 0.0

-707780.9976452548 9.562848394921308e6 0.0
9.562848394921308e6 2.2603201423729863e6 0.0
0.0 0.0 0.0

-6.302294862471243e6 2.4077522885814793e7 0.0
2.4077522885814793e7 -1.0715582180792114e7 0.0
0.0 0.0 0.0

-1.2407531937556952e7 2.0156968425447813e6 0.0
2.0156968425447813e6 1.8691965215574306e7 0.0
0.0 0.0 0.0

1.3584085553832008e6 1.186248600395363e7 0.0
1.186248600395363e7 -6.128162072880317e6 0.0
0.0 0.0 0.0

802538.3245191369 1.100388710296019e7 0.0
1.100388710296019e7 -8.121661001881587e6 0.0
0.0 0.0 0.0

-108156.08075656765 7.633723796670914e6 0.0
7.633723796670914e6 -4.407628836803027e6 0.0
0.0 0.0 0.0

382340.3211353675 6.605862432644336e6 0.0
6.605862432644336e6 -3.8946379852299774e6 0.0
0.0 0.0 0.0

820523.7474581487 1.2924639779164737e7 0.0
1.2924639779164737e7 -5.102572572668423e6 0.0
0.0 0.0 0.0

354580.0250226795 1.0918425848392842e7 0.0
1.0918425848392842e7 -1.1243441207990527e7 0.0
0.0 0.0 0.0

5.054188859197465e6 5.761013186822738e6 0.0
5.761013186822738e6 -1.4590094999038517e7 0.0
0.0 0.0 0.0

-6.823626261684904e6 1.247904284623244e7 0.0
1.247904284623244e7 6.595888256624507e6 0.0
0.0 0.0 0.0

3.0919476409151684e6 7.776115082660785e6 0.0
7.776115082660785e6 -1.213763938959076e7 0.0
0.0 0.0 0.0

5.475454726298895e6 6.204411838253792e6 0.0
6.204411838253792e6 -1.6128219927244356e7 0.0
0.0 0.0 0.0

-3.3011828744995873e6 1.2447056589042779e7 0.0
1.2447056589042779e7 4.1458257319508865e6 0.0
0.0 0.0 0.0

-3.4699885574938036e6 9.233032558304178e6 0.0
9.233032558304178e6 -1.1197591245169514e6 0.0
0.0 0.0 0.0

-3.1975052177556125e6 4.711485642456796e6 0.0
4.711485642456796e6 2.487147607369e6 0.0
0.0 0.0 0.0

-5.67768707795703e6 1.3690938538899137e7 0.0
1.3690938538899137e7 3.5191853506418956e6 0.0
0.0 0.0 0.0

67504.36261111428 7.654893809044907e6 0.0
7.654893809044907e6 -3.6236464111164343e6 0.0
0.0 0.0 0.0

-2.8041794804788614e6 7.522166031824564e6 0.0
7.522166031824564e6 792799.914279716 0.0
0.0 0.0 0.0

-7.112394086313434e6 -2.101998982966941e6 0.0
-2.101998982966941e6 1.0052338502231434e7 0.0
0.0 0.0 0.0

476587.10305273253 9.423167597883144e6 0.0
9.423167597883144e6 -6.55784931473167e6 0.0
0.0 0.0 0.0

-6.850133224127034e6 1.5907184583581759e7 0.0
1.5907184583581759e7 4.318409198748382e6 0.0
0.0 0.0 0.0

-1.382736195507755e6 4.980119061066076e6 0.0
4.980119061066076e6 273058.5507786667 0.0
0.0 0.0 0.0

3.907345626556375e6 7.917535976383397e6 0.0
7.917535976383397e6 -1.5276732883122483e7 0.0
0.0 0.0 0.0

-1.0199949202133291e6 7.65577282250415e6 0.0
7.65577282250415e6 -3.0879202563736835e6 0.0
0.0 0.0 0.0

-76633.18433009624 1.1496994467317834e7 0.0
1.1496994467317834e7 5.043370503610237e6 0.0
0.0 0.0 0.0

1.1276196991382834e7 1.381495795840212e7 0.0
1.381495795840212e7 2.3993560169481277e6 0.0
0.0 0.0 0.0

2.296656453123791e6 6.151752950868901e6 0.0
6.151752950868901e6 -8.161691230919005e6 0.0
0.0 0.0 0.0

-310525.99220170453 1.1136913156700902e7 0.0
1.1136913156700902e7 -1.2215052107403448e7 0.0
0.0 0.0 0.0

2.3647888426505197e6 6.2499648290889235e6 0.0
6.2499648290889235e6 -8.43544199530972e6 0.0
0.0 0.0 0.0

3.095236501030294e6 5.618064358034963e6 0.0
5.618064358034963e6 -9.412790658040421e6 0.0
0.0 0.0 0.0

1.1873780024630269e7 1.0546021048278704e7 0.0
1.0546021048278704e7 -483075.27874103794 0.0
0.0 0.0 0.0

-1.3937911811949244e7 1.6851536227297094e7 0.0
1.6851536227297094e7 9.678773608196646e6 0.0
0.0 0.0 0.0

763790.1575618582 1.0700537379623277e7 0.0
1.0700537379623277e7 -1.1851260201093048e7 0.0
0.0 0.0 0.0

-4.0279181828806596e6 1.2715764271037122e7 0.0
1.2715764271037122e7 253465.40640350222 0.0
0.0 0.0 0.0

4.1862310575735318e6 5.799068806220295e6 0.0
5.799068806220295e6 -1.12328070424973e7 0.0
0.0 0.0 0.0

-6.24607461500991e6 1.3369293418344479e7 0.0
1.3369293418344479e7 4.494243016596403e6 0.0
0.0 0.0 0.0

-3.6497053490555566e6 1.7690489666799754e7 0.0
1.7690489666799754e7 -1.3467530824718024e6 0.0
0.0 0.0 0.0

-1.1687680480038181e7 2.982222956401536e6 0.0
2.982222956401536e6 1.436936101993956e7 0.0
0.0 0.0 0.0

-8.243278814790606e6 2.303370212131631e7 0.0
2.303370212131631e7 -4.137597414757053e6 0.0
0.0 0.0 0.0

-504910.21338130755 1.2264117373290118e7 0.0
1.2264117373290118e7 -1.158333244741329e6 0.0
0.0 0.0 0.0

4.789521996592825e6 5.59853932728124e6 0.0
5.59853932728124e6 -1.3355048481224757e7 0.0
0.0 0.0 0.0

8.776256134082923e6 9.700648411061462e6 0.0
9.700648411061462e6 -4.0306408439206644e6 0.0
0.0 0.0 0.0

-3.433917646260035e6 1.2222930388276989e7 0.0
1.2222930388276989e7 4.165473234548835e6 0.0
0.0 0.0 0.0

3.8520326280459864e6 6.834154946297245e6 0.0
6.834154946297245e6 -1.284592723809062e7 0.0
0.0 0.0 0.0

-3.9015146755235256e6 1.3659805749067027e7 0.0
1.3659805749067027e7 -621887.7921946043 0.0
0.0 0.0 0.0

699090.8351118681 1.1894127672529465e7 0.0
1.1894127672529465e7 -6.161093591301614e6 0.0
0.0 0.0 0.0

-1.6695842529169605e6 1.1067199127394231e7 0.0
1.1067199127394231e7 -3.0322625299134124e6 0.0
0.0 0.0 0.0

1.1264151237189518e6 1.1041297118656788e7 0.0
1.1041297118656788e7 -7.087144039261917e6 0.0
0.0 0.0 0.0

128217.51530136238 1.1271340866288567e7 0.0
1.1271340866288567e7 5.290492487631642e6 0.0
0.0 0.0 0.0

4.998788077283683e6 7.694181088348523e6 0.0
7.694181088348523e6 -1.896768880024853e7 0.0
0.0 0.0 0.0

-5.47862123400164e6 1.3440393213758474e7 0.0
1.3440393213758474e7 5.675195754424973e6 0.0
0.0 0.0 0.0

709094.3425118041 6.226884372719522e6 0.0
6.226884372719522e6 -3.8700921897030314e6 0.0
0.0 0.0 0.0

-9.233948922017608e6 6.329866749390172e6 0.0
6.329866749390172e6 1.2092011108194487e7 0.0
0.0 0.0 0.0

2.652779085688938e6 5.56719979464613e6 0.0
5.56719979464613e6 -8.218700466459759e6 0.0
0.0 0.0 0.0

-8.576090319181114e6 -4.684978657059897e6 0.0
-4.684978657059897e6 1.4236935079687791e7 0.0
0.0 0.0 0.0

854644.0288241012 1.0153296618947227e7 0.0
1.0153296618947227e7 -8.097824067648229e6 0.0
0.0 0.0 0.0

1.762768039262578e6 5.858435335353615e6 0.0
5.858435335353615e6 -4.260818882288879e6 0.0
0.0 0.0 0.0

-134841.364157593 1.1683677706151692e7 0.0
1.1683677706151692e7 2.5104453994517894e6 0.0
0.0 0.0 0.0

-6.503681273541326e6 1.4082222830856394e7 0.0
1.4082222830856394e7 5.118234231127065e6 0.0
0.0 0.0 0.0

-9.29019072530926e6 -3.8963309857064183e6 0.0
-3.8963309857064183e6 1.3154332692573532e7 0.0
0.0 0.0 0.0

-1.835691802660133e6 1.2186365661027199e7 0.0
1.2186365661027199e7 1.4700824771301742e6 0.0
0.0 0.0 0.0

1.036536006771544e6 1.3460015622819671e7 0.0
1.3460015622819671e7 -5.282602939751495e6 0.0
0.0 0.0 0.0

-5.10221560850702e6 1.2385706700838514e7 0.0
1.2385706700838514e7 1.771434346629638e6 0.0
0.0 0.0 0.0

-2.5620323696877644e6 1.3556329074843768e7 0.0
1.3556329074843768e7 -301923.2196681467 0.0
0.0 0.0 0.0

-4.864942849417688e6 1.252604538526861e7 0.0
1.252604538526861e7 2.4496160761998584e6 0.0
0.0 0.0 0.0

-1.2226156152373666e6 1.0096056686512645e7 0.0
1.0096056686512645e7 -8.970309434639055e6 0.0
0.0 0.0 0.0

3.792130107775827e6 1.4627856314532733e7 0.0
1.4627856314532733e7 -9.092573768290354e6 0.0
0.0 0.0 0.0

701462.7843843303 1.0880201128303085e7 0.0
1.0880201128303085e7 -8.281049990439799e6 0.0
0.0 0.0 0.0

-5.682562948617935e6 1.1224091525831435e7 0.0
1.1224091525831435e7 7.925951277297419e6 0.0
0.0 0.0 0.0

-4.367276355777605e6 1.1438041875991581e7 0.0
1.1438041875991581e7 6.939195653957538e6 0.0
0.0 0.0 0.0

1.8695932996522351e6 8.074870924334128e6 0.0
8.074870924334128e6 -8.98092074017658e6 0.0
0.0 0.0 0.0

-2.5417679225394516e6 7.102152111309008e6 0.0
7.102152111309008e6 435906.79996614053 0.0
0.0 0.0 0.0

-8.2665163244049195e6 1.6003120346000437e7 0.0
1.6003120346000437e7 6.181297597138315e6 0.0
0.0 0.0 0.0

-7.724236735536713e6 1.061435385548498e7 0.0
1.061435385548498e7 7.67876338871443e6 0.0
0.0 0.0 0.0

-7.231350399034609e6 1.775284529010282e7 0.0
1.775284529010282e7 4.21253454799986e6 0.0
0.0 0.0 0.0

676049.4353526961 1.0147691909873927e7 0.0
1.0147691909873927e7 -8.728698099044984e6 0.0
0.0 0.0 0.0

-8.923164029711893e6 1.3376520631246153e7 0.0
1.3376520631246153e7 -71067.3691091477 0.0
0.0 0.0 0.0

5.102104515393533e6 6.285601737964115e6 0.0
6.285601737964115e6 -1.4584087187336992e7 0.0
0.0 0.0 0.0

-3.3489160984254684e6 1.8665408688660644e7 0.0
1.8665408688660644e7 -1.3572871164583154e6 0.0
0.0 0.0 0.0

-1.2269427329916332e7 1.251783539709907e7 0.0
1.251783539709907e7 9.909876042855505e6 0.0
0.0 0.0 0.0

-2.723178350725297e6 1.2284117683074249e7 0.0
1.2284117683074249e7 4.571836205291438e6 0.0
0.0 0.0 0.0

-1.76763244477586e7 1.0937068953661682e7 0.0
1.0937068953661682e7 1.1037498034313526e7 0.0
0.0 0.0 0.0

4.939857921770434e6 5.559146305410561e6 0.0
5.559146305410561e6 -1.361402226376171e7 0.0
0.0 0.0 0.0

-7.451894633731049e6 1.067861359260989e7 0.0
1.067861359260989e7 8.753664376675759e6 0.0
0.0 0.0 0.0

-1.6305804963871075e6 5.144327564860114e6 0.0
5.144327564860114e6 -448364.36644686124 0.0
0.0 0.0 0.0

2.6024832414257135e6 5.265324577851365e6 0.0
5.265324577851365e6 -8.624386008500999e6 0.0
0.0 0.0 0.0

418655.0402530781 1.2127477572999572e7 0.0
1.2127477572999572e7 -6.577764543424336e6 0.0
0.0 0.0 0.0

-1.3404775405472092e7 1.720920966189642e7 0.0
1.720920966189642e7 1.050219173044612e7 0.0
0.0 0.0 0.0

-1.0366381788144233e7 2.336342018420714e6 0.0
2.336342018420714e6 8.0137776063967645e6 0.0
0.0 0.0 0.0

-1.4511327707328588e7 1.1781658626167063e7 0.0
1.1781658626167063e7 5.790956466084589e6 0.0
0.0 0.0 0.0

9.05522572753035e6 1.0423861757592991e7 0.0
1.0423861757592991e7 2.3579578081225185e6 0.0
0.0 0.0 0.0

1.3489372336275969e6 1.2270310899115749e7 0.0
1.2270310899115749e7 -2.304448313828905e7 0.0
0.0 0.0 0.0

812618.2511266596 1.1368511421634197e7 0.0
1.1368511421634197e7 -7.494338432438191e6 0.0
0.0 0.0 0.0

-5.706760605710082e6 1.1226595843280628e7 0.0
1.1226595843280628e7 7.835673780126192e6 0.0
0.0 0.0 0.0

-2.5070566560346577e6 1.341525936064847e7 0.0
1.341525936064847e7 -3.3245298548236163e6 0.0
0.0 0.0 0.0

-5.340384087897364e6 1.363076430574388e7 0.0
1.363076430574388e7 2.782564559588986e6 0.0
0.0 0.0 0.0

-193580.6879293553 1.1006440942001231e7 0.0
1.1006440942001231e7 755306.0645678113 0.0
0.0 0.0 0.0

-7.194019230244335e6 1.7275815329054695e7 0.0
1.7275815329054695e7 4.270312722564681e6 0.0
0.0 0.0 0.0

-2.2489562702306933e6 4.760685516141201e6 0.0
4.760685516141201e6 608801.4335030033 0.0
0.0 0.0 0.0

1.3334666658674449e7 1.3526311025637485e7 0.0
1.3526311025637485e7 -2.204129620384602e6 0.0
0.0 0.0 0.0

-4.9709990932347225e6 1.458009483166854e7 0.0
1.458009483166854e7 -583819.9225381695 0.0
0.0 0.0 0.0

-74199.37172585988 1.0919145319174288e7 0.0
1.0919145319174288e7 1.287229938285528e6 0.0
0.0 0.0 0.0

-4.650338658214005e6 1.3073349392477954e7 0.0
1.3073349392477954e7 2.420191508506834e6 0.0
0.0 0.0 0.0

-7.500990970109971e6 9.85232942952507e6 0.0
9.85232942952507e6 1.047907109122196e7 0.0
0.0 0.0 0.0

-4.123125940660378e6 1.338568418745079e7 0.0
1.338568418745079e7 -361978.4182276946 0.0
0.0 0.0 0.0

3.5003481356233284e6 7.356061422621459e6 0.0
7.356061422621459e6 -1.1767160443504985e7 0.0
0.0 0.0 0.0

-5.409761582412832e6 1.1365542371642482e7 0.0
1.1365542371642482e7 3.1016326195948184e6 0.0
0.0 0.0 0.0

-2.8973043315939596e6 1.3006567790762292e7 0.0
1.3006567790762292e7 1.397181908004655e6 0.0
0.0 0.0 0.0

888105.9475982641 6.4703543860947285e6 0.0
6.4703543860947285e6 -5.9063746019389015e6 0.0
0.0 0.0 0.0

-5.571403784011323e6 1.3202110004525939e7 0.0
1.3202110004525939e7 5.766035122126453e6 0.0
0.0 0.0 0.0

-1.1447364181194238e7 -154177.78893869216 0.0
-154177.78893869216 2.178809597239212e7 0.0
0.0 0.0 0.0

-424307.85643360636 7.588041791310142e6 0.0
7.588041791310142e6 -3.0115886716998545e6 0.0
0.0 0.0 0.0

-7.281324495249431e6 1.13524203579491e7 0.0
1.13524203579491e7 4.575195062784182e6 0.0
0.0 0.0 0.0

8.078939047861797e6 1.4229589743304156e7 0.0
1.4229589743304156e7 3.49843624069347e6 0.0
0.0 0.0 0.0

1.8279968763359436e6 9.991580158096036e6 0.0
9.991580158096036e6 -1.1088889569425955e7 0.0
0.0 0.0 0.0

4.033386122872616e6 6.690739971910136e6 0.0
6.690739971910136e6 -1.2183200675963875e7 0.0
0.0 0.0 0.0

3.48638866974078e6 1.0756802840303672e7 0.0
1.0756802840303672e7 -2.577792396078854e6 0.0
0.0 0.0 0.0

-6.085043468121123e6 4.432234330768888e6 0.0
4.432234330768888e6 1.0625697256344693e7 0.0
0.0 0.0 0.0

-5.0589204779565e6 1.315982086876976e7 0.0
1.315982086876976e7 2.543633828531404e6 0.0
0.0 0.0 0.0

-3.336768802277093e6 1.1948180478888066e7 0.0
1.1948180478888066e7 -1.415906121030888e6 0.0
0.0 0.0 0.0

-3.2816152546378337e6 1.241924128994935e7 0.0
1.241924128994935e7 -2.344632661822519e6 0.0
0.0 0.0 0.0

-429966.62353893596 1.173443978647392e7 0.0
1.173443978647392e7 -2.7336148415106963e6 0.0
0.0 0.0 0.0

822141.7836665441 6.842678105807509e6 0.0
6.842678105807509e6 -5.360005474072588e6 0.0
0.0 0.0 0.0

7.555915639519872e6 1.1885288390582655e7 0.0
1.1885288390582655e7 -1.5188487479093703e6 0.0
0.0 0.0 0.0

-114909.33516943111 1.11470025632444e7 0.0
1.11470025632444e7 552423.2210010488 0.0
0.0 0.0 0.0

-8.026109709054397e6 1.5564234784230413e7 0.0
1.5564234784230413e7 6.493505697095035e6 0.0
0.0 0.0 0.0

-2.0875287435380626e7 6.737760251013033e6 0.0
6.737760251013033e6 1.1563818019308234e7 0.0
0.0 0.0 0.0

2.346306135474949e6 5.212924970652654e6 0.0
5.212924970652654e6 -8.071862855404853e6 0.0
0.0 0.0 0.0

-502502.35437023395 1.1997031963316044e7 0.0
1.1997031963316044e7 293070.45005506335 0.0
0.0 0.0 0.0

-484478.98118673824 9.774051503965031e6 0.0
9.774051503965031e6 -8.559910632900158e6 0.0
0.0 0.0 0.0

553417.3610351561 1.1247254973473461e7 0.0
1.1247254973473461e7 -9.123590839127341e6 0.0
0.0 0.0 0.0

-3.8672357889702646e6 -592214.2057813648 0.0
-592214.2057813648 4.120924628626249e6 0.0
0.0 0.0 0.0

654486.2341514989 9.284091615188554e6 0.0
9.284091615188554e6 -7.465902471833235e6 0.0
0.0 0.0 0.0

-1.288828787639908e6 1.2004892160619048e7 0.0
1.2004892160619048e7 -1.257064736663392e7 0.0
0.0 0.0 0.0

900869.424753618 9.074134696673227e6 0.0
9.074134696673227e6 -7.879901419082588e6 0.0
0.0 0.0 0.0

116561.25286595919 1.2497217245670289e7 0.0
1.2497217245670289e7 -6.087540433940209e6 0.0
0.0 0.0 0.0

7.859981124676412e6 1.2899399776819998e7 0.0
1.2899399776819998e7 3.3737075316602215e6 0.0
0.0 0.0 0.0

-1.0902411497136926e7 6.499970045197301e6 0.0
6.499970045197301e6 1.5181716977800831e7 0.0
0.0 0.0 0.0

-3.020543669436277e6 1.3711176360600654e7 0.0
1.3711176360600654e7 -503743.83495871985 0.0
0.0 0.0 0.0

-401633.8753853782 1.1261517436202182e7 0.0
1.1261517436202182e7 -1.4054367480958144e6 0.0
0.0 0.0 0.0

-4.483604955057552e6 1.1061423004738785e7 0.0
1.1061423004738785e7 62536.407392882276 0.0
0.0 0.0 0.0

5.917823904256076e6 1.4017076914233653e7 0.0
1.4017076914233653e7 4.504474025333478e6 0.0
0.0 0.0 0.0

-5.410264124282783e6 1.3302780965760669e7 0.0
1.3302780965760669e7 5.968976028973354e6 0.0
0.0 0.0 0.0

2.0044009813243358e6 1.080952633902306e7 0.0
1.080952633902306e7 -5.005544624599833e6 0.0
0.0 0.0 0.0

-5.940686062639532e6 1.453055505231692e7 0.0
1.453055505231692e7 3.1121219451893456e6 0.0
0.0 0.0 0.0

-5.506083306289107e6 1.1468182219613785e7 0.0
1.1468182219613785e7 3.9606262312242487e6 0.0
0.0 0.0 0.0

-1.1982078770966178e7 -2.8057170441742586e6 0.0
-2.8057170441742586e6 3.8182253885875076e7 0.0
0.0 0.0 0.0

-1.676327353038722e6 1.2347761654503707e7 0.0
1.2347761654503707e7 -5.561544648281665e6 0.0
0.0 0.0 0.0

-6.277048107372114e6 1.4128034846614113e7 0.0
1.4128034846614113e7 4.57675523110722e6 0.0
0.0 0.0 0.0

1.3180391242011313e6 6.8869331562391305e6 0.0
6.8869331562391305e6 -3.694944992011821e6 0.0
0.0 0.0 0.0

-8.3745907434086185e6 7.653899597397336e6 0.0
7.653899597397336e6 1.1434514271001492e7 0.0
0.0 0.0 0.0

-2.585052631905957e6 8.658194975586986e6 0.0
8.658194975586986e6 1.2664490668565128e6 0.0
0.0 0.0 0.0

3.375898890004294e6 5.80378563629981e6 0.0
5.80378563629981e6 -1.015853613869004e7 0.0
0.0 0.0 0.0

-8.292264104460759e6 1.6252234046105532e7 0.0
1.6252234046105532e7 6.770093484933183e6 0.0
0.0 0.0 0.0

834585.0485071787 9.29885991460273e6 0.0
9.29885991460273e6 -6.8600711797291655e6 0.0
0.0 0.0 0.0

-7.661679830283372e6 1.0449911667655746e7 0.0
1.0449911667655746e7 9.194496803632978e6 0.0
0.0 0.0 0.0

5.455625452608493e6 7.413192708285862e6 0.0
7.413192708285862e6 -1.7546019492138546e7 0.0
0.0 0.0 0.0

-7.836527002318836e6 1.530349915176594e7 0.0
1.530349915176594e7 6.302523445701946e6 0.0
0.0 0.0 0.0

-2.0264619129721224e6 1.0722185691514943e7 0.0
1.0722185691514943e7 -9.86418923800535e6 0.0
0.0 0.0 0.0

1.7054425142172016e6 4.394362755844039e6 0.0
4.394362755844039e6 -6.088759738504384e6 0.0
0.0 0.0 0.0

-46078.83545909659 7.385836732810953e6 0.0
7.385836732810953e6 -3.478917065199384e6 0.0
0.0 0.0 0.0

-1.3393556051362906e7 1.300260590398938e7 0.0
1.300260590398938e7 9.126923142022457e6 0.0
0.0 0.0 0.0

104735.39007041644 1.1100284872232072e7 0.0
1.1100284872232072e7 1.6808568090534485e6 0.0
0.0 0.0 0.0

-1.2055194368309336e7 1.7068286882336285e7 0.0
1.7068286882336285e7 9.014201708037362e6 0.0
0.0 0.0 0.0

-6.04953517769088e6 3.229284159217549e6 0.0
3.229284159217549e6 7.939964651223932e6 0.0
0.0 0.0 0.0

5.033840035001916e6 8.998668599134251e6 0.0
8.998668599134251e6 -1.8568814639083743e7 0.0
0.0 0.0 0.0

1.944286918806588e7 9.421068445188995e6 0.0
9.421068445188995e6 -9.626403679162242e6 0.0
0.0 0.0 0.0

-5.3657798321646815e6 1.3490812878100784e7 0.0
1.3490812878100784e7 2.9483808539518923e6 0.0
0.0 0.0 0.0

-6.843100648342924e6 1.4213180165166005e7 0.0
1.4213180165166005e7 6.019969254337104e6 0.0
0.0 0.0 0.0

-5.552514715912034e6 1.2574248361107826e7 0.0
1.2574248361107826e7 3.7713272619718984e6 0.0
0.0 0.0 0.0

-3.326229724871585e6 1.4316869509523738e7 0.0
1.4316869509523738e7 1.8971297324613094e7 0.0
0.0 0.0 0.0

3.830189389633494e6 5.988432719039527e6 0.0
5.988432719039527e6 -1.1518491175416883e7 0.0
0.0 0.0 0.0

-497747.0937826822 8.373144043065824e6 0.0
8.373144043065824e6 -3.884879184307293e6 0.0
0.0 0.0 0.0

-5.586522170807236e6 1.776761312145538e7 0.0
1.776761312145538e7 -490611.59750583954 0.0
0.0 0.0 0.0

3.010513520590961e6 8.701202272465719e6 0.0
8.701202272465719e6 -1.3462577846164694e7 0.0
0.0 0.0 0.0

-1.3362948497675888e7 3.3588377552715847e6 0.0
3.3588377552715847e6 9.124127496845108e6 0.0
0.0 0.0 0.0

-3.200065845666248e6 1.2739804759227766e7 0.0
1.2739804759227766e7 1.1287518845278176e6 0.0
0.0 0.0 0.0

-734160.4647678275 8.357971110720598e6 0.0
8.357971110720598e6 -527287.7419165012 0.0
0.0 0.0 0.0

1.0978113025672403e6 9.120323620114295e6 0.0
9.120323620114295e6 -7.233993547667107e6 0.0
0.0 0.0 0.0

-3.3202724116372103e6 1.3545762489144696e7 0.0
1.3545762489144696e7 8.980994867615886e6 0.0
0.0 0.0 0.0

-2.3324750078999586e6 1.7824522672676057e7 0.0
1.7824522672676057e7 -2.8264698292838475e6 0.0
0.0 0.0 0.0

-1.933749040741177e7 -4.244802356371717e6 0.0
-4.244802356371717e6 9.515161137120103e6 0.0
0.0 0.0 0.0

5.728443022300994e6 2.076124924953656e7 0.0
2.076124924953656e7 -1.0980586083570538e7 0.0
0.0 0.0 0.0

-4.117394246812837e6 1.8514497737100057e7 0.0
1.8514497737100057e7 -3.8763132260029763e6 0.0
0.0 0.0 0.0

2.140479689281539e6 5.243311038920308e6 0.0
5.243311038920308e6 -7.383897529156975e6 0.0
0.0 0.0 0.0

-6.66712823563579e6 1.407796874882344e7 0.0
1.407796874882344e7 4.565275201597159e6 0.0
0.0 0.0 0.0

1.1435707201802293e7 1.0524901580042163e7 0.0
1.0524901580042163e7 -554591.0915972176 0.0
0.0 0.0 0.0

-1.2886438056043448e7 2.0901024899697006e6 0.0
2.0901024899697006e6 2.340362783924716e7 0.0
0.0 0.0 0.0

-1.938593787878079e6 1.2321538126201652e7 0.0
1.2321538126201652e7 -5.035282222106332e6 0.0
0.0 0.0 0.0

4.819332850385973e6 1.2193151416290065e7 0.0
1.2193151416290065e7 3.2842806485750824e6 0.0
0.0 0.0 0.0

591366.4802837167 1.2276705141387621e7 0.0
1.2276705141387621e7 -6.598751389227744e6 0.0
0.0 0.0 0.0

4.309402137418795e6 6.093782972719996e6 0.0
6.093782972719996e6 -1.2193303064622803e7 0.0
0.0 0.0 0.0

-5.077508096953438e6 1.341179551892387e7 0.0
1.341179551892387e7 2.1341215454313904e6 0.0
0.0 0.0 0.0

-73353.21353604458 9.910401807190323e6 0.0
9.910401807190323e6 -8.483263763741126e6 0.0
0.0 0.0 0.0

-5.513715859070016e6 1.517450642683604e7 0.0
1.517450642683604e7 674404.3484871562 0.0
0.0 0.0 0.0

-1.1607736691701753e7 4.701198600206443e6 0.0
4.701198600206443e6 2.5309041295026153e7 0.0
0.0 0.0 0.0

1.1479787247816906e6 1.0394071740369754e7 0.0
1.0394071740369754e7 -6.872911416078005e6 0.0
0.0 0.0 0.0

2.0638538618243285e6 7.960443611351327e6 0.0
7.960443611351327e6 -9.761180025677565e6 0.0
0.0 0.0 0.0

-302682.5954295434 1.3881037241741484e7 0.0
1.3881037241741484e7 -4.975252106157465e6 0.0
0.0 0.0 0.0

-154549.76535992697 9.4900187664174e6 0.0
9.4900187664174e6 -6.645821029029133e6 0.0
0.0 0.0 0.0

-1.0663184513089245e7 -3.012839303427659e6 0.0
-3.012839303427659e6 2.104579936528054e7 0.0
0.0 0.0 0.0

-5.879028988830059e6 1.3080468146033673e7 0.0
1.3080468146033673e7 1.081519650652286e7 0.0
0.0 0.0 0.0

3.3153697900728183e6 8.681430269072458e6 0.0
8.681430269072458e6 -1.409073989103131e7 0.0
0.0 0.0 0.0

-4.768339131369462e6 1.4990477039969606e7 0.0
1.4990477039969606e7 487583.30021835584 0.0
0.0 0.0 0.0

-3.8059237709462154e6 1.136221708484115e7 0.0
1.136221708484115e7 7.098227390215612e6 0.0
0.0 0.0 0.0

2.5129005370019227e6 7.436571933354463e6 0.0
7.436571933354463e6 -9.448853807152564e6 0.0
0.0 0.0 0.0

1.3993716962768106e7 1.2781030639499322e7 0.0
1.2781030639499322e7 2.3947602287980965e6 0.0
0.0 0.0 0.0

-4.653868946372926e6 1.4606406597472278e7 0.0
1.4606406597472278e7 469454.96877001063 0.0
0.0 0.0 0.0

-5.466742534412236e6 -1.2306016630511458e6 0.0
-1.2306016630511458e6 7.635748045793176e6 0.0
0.0 0.0 0.0

-1.1586583523386598e7 -2.754215129749062e6 0.0
-2.754215129749062e6 1.808238657640028e7 0.0
0.0 0.0 0.0

3.8657735185718047e6 5.505898049636191e6 0.0
5.505898049636191e6 -1.0508392875600299e7 0.0
0.0 0.0 0.0

-5.799299641688332e6 1.2241878704512037e7 0.0
1.2241878704512037e7 3.353645795726824e6 0.0
0.0 0.0 0.0

-800076.4807839391 1.167292532061063e7 0.0
1.167292532061063e7 -2.8564373987122257e6 0.0
0.0 0.0 0.0

-2.6123968341625724e6 1.3227039761196708e7 0.0
1.3227039761196708e7 -4.063999453331701e6 0.0
0.0 0.0 0.0

-2.09224789720843e6 2.602997992288155e6 0.0
2.602997992288155e6 2.0298861058685342e6 0.0
0.0 0.0 0.0

-3.0678656451231157e6 1.2462688473922312e7 0.0
1.2462688473922312e7 -1.6094332466147188e6 0.0
0.0 0.0 0.0

-1.1196275558697699e7 -3.5537661109720934e6 0.0
-3.5537661109720934e6 1.967718396545718e7 0.0
0.0 0.0 0.0

3.489053523134419e6 1.0007927732656267e7 0.0
1.0007927732656267e7 -738465.2574994524 0.0
0.0 0.0 0.0

2.8133713880732963e6 9.456302548714798e6 0.0
9.456302548714798e6 -1.3459359233968377e7 0.0
0.0 0.0 0.0

3.6971967715993244e6 8.549622783164939e6 0.0
8.549622783164939e6 -1.3910116081490165e7 0.0
0.0 0.0 0.0

-9.088741620559542e6 7.148914355211961e6 0.0
7.148914355211961e6 1.223186451073157e7 0.0
0.0 0.0 0.0

-3.998252499744134e6 1.070648742878545e7 0.0
1.070648742878545e7 1.6196142191759865e6 0.0
0.0 0.0 0.0

525818.6372976587 6.572940538315127e6 0.0
6.572940538315127e6 -3.844958820041436e6 0.0
0.0 0.0 0.0

1.071833179198041e6 1.0512174036470044e7 0.0
1.0512174036470044e7 -6.686058556296775e6 0.0
0.0 0.0 0.0

-6.615468936103348e6 1.3582463718109014e7 0.0
1.3582463718109014e7 5.855394922704335e6 0.0
0.0 0.0 0.0

-1.7411834230041807e6 1.4166074642862555e7 0.0
1.4166074642862555e7 1.0993043421596177e7 0.0
0.0 0.0 0.0

2.4666430383405546e6 1.3490593059994325e7 0.0
1.3490593059994325e7 -5.227067111401524e6 0.0
0.0 0.0 0.0

-1.0780597851498093e7 -3.68272086779372e6 0.0
-3.68272086779372e6 3.677565498386818e7 0.0
0.0 0.0 0.0

-1.1273738473673362e7 3.6863303774853256e6 0.0
3.6863303774853256e6 1.9017486109276935e7 0.0
0.0 0.0 0.0

-7.763479251754176e6 7.794828600117343e6 0.0
7.794828600117343e6 9.122048102642355e6 0.0
0.0 0.0 0.0

-1.335918208686245e6 9.443292005586218e6 0.0
9.443292005586218e6 1.4455223521063286e6 0.0
0.0 0.0 0.0

-1.3742399835004793e6 4.1924882699603387e6 0.0
4.1924882699603387e6 393390.64427674067 0.0
0.0 0.0 0.0

-8.314837273435113e6 9.04244888576697e6 0.0
9.04244888576697e6 4.1613694326027697e6 0.0
0.0 0.0 0.0

3.983395796952898e6 6.207206543818701e6 0.0
6.207206543818701e6 -1.1161369202157475e7 0.0
0.0 0.0 0.0

-807198.3722543041 1.143309600944551e7 0.0
1.143309600944551e7 -1.2025517372471377e7 0.0
0.0 0.0 0.0

-249808.67143609212 1.1302391941131152e7 0.0
1.1302391941131152e7 16283.169102605767 0.0
0.0 0.0 0.0

132065.32196655776 1.6921489707631085e7 0.0
1.6921489707631085e7 -7.729398306944813e6 0.0
0.0 0.0 0.0

898433.7971746246 1.2492208178168144e7 0.0
1.2492208178168144e7 -6.096390668575e6 0.0
0.0 0.0 0.0

-8.507002364743333e6 1.351509034767172e7 0.0
1.351509034767172e7 1.2276916263121548e6 0.0
0.0 0.0 0.0

-5.792752682626608e6 1.3828370445531238e7 0.0
1.3828370445531238e7 2.5652281017337237e6 0.0
0.0 0.0 0.0

-119780.86496247677 6.699490169274061e6 0.0
6.699490169274061e6 -3.747737150735972e6 0.0
0.0 0.0 0.0

-1.2327349890804812e7 1.7409452738734204e7 0.0
1.7409452738734204e7 9.645094145810232e6 0.0
0.0 0.0 0.0

-4.041097735990773e6 1.098388624199849e7 0.0
1.098388624199849e7 1.4672354035020208e6 0.0
0.0 0.0 0.0

-3.449407202109826e6 4.66761929434297e6 0.0
4.66761929434297e6 1.6262007822514332e6 0.0
0.0 0.0 0.0

-4.213473412518333e6 1.091809795623352e7 0.0
1.091809795623352e7 800912.4413670355 0.0
0.0 0.0 0.0

1.0088195034463697e6 6.558135829264226e6 0.0
6.558135829264226e6 -3.2618527269019685e6 0.0
0.0 0.0 0.0

-1.3312393090518143e6 5.25174358133949e6 0.0
5.25174358133949e6 -3.877156313463109e6 0.0
0.0 0.0 0.0

2.525154617202352e6 9.556241119284818e6 0.0
9.556241119284818e6 -1.2280465709843995e7 0.0
0.0 0.0 0.0

-3.479327013747915e6 1.361492190974686e7 0.0
1.361492190974686e7 13878.330250947736 0.0
0.0 0.0 0.0

-5.033955236934694e6 1.139233121248735e7 0.0
1.139233121248735e7 7.352053205877997e6 0.0
0.0 0.0 0.0

-619089.3604628649 1.1624320834650189e7 0.0
1.1624320834650189e7 -2.520424840408543e6 0.0
0.0 0.0 0.0

1.9742705458574533e6 5.068573037416062e6 0.0
5.068573037416062e6 -6.067766331754194e6 0.0
0.0 0.0 0.0

-4.470984334359074e6 1.2802001543469671e7 0.0
1.2802001543469671e7 20968.82371989591 0.0
0.0 0.0 0.0

-6.095936452482212e6 1.4479962648710545e7 0.0
1.4479962648710545e7 2.627372693390696e6 0.0
0.0 0.0 0.0

-213997.97169206664 1.3769213023671515e7 0.0
1.3769213023671515e7 -4.825056023713504e6 0.0
0.0 0.0 0.0

-4.617621695686455e6 5.412240908401579e6 0.0
5.412240908401579e6 2.9299136905615185e6 0.0
0.0 0.0 0.0

716679.6336973286 1.07709469145603e7 0.0
1.07709469145603e7 -9.277020806543704e6 0.0
0.0 0.0 0.0

-8.849943018269535e6 1.569118376716565e7 0.0
1.569118376716565e7 7.154572519586755e6 0.0
0.0 0.0 0.0

-8.257482222066134e6 1.5541704640935536e7 0.0
1.5541704640935536e7 6.647468613588823e6 0.0
0.0 0.0 0.0

911061.0846025925 1.0554013095344216e7 0.0
1.0554013095344216e7 -1.148468978999458e7 0.0
0.0 0.0 0.0

-104693.83255187003 9.796926286948469e6 0.0
9.796926286948469e6 -7.473393276070257e6 0.0
0.0 0.0 0.0

-410419.53943449474 1.1646721334804492e7 0.0
1.1646721334804492e7 -72383.1351675705 0.0
0.0 0.0 0.0

2.7925717685390264e6 7.968569685925393e6 0.0
7.968569685925393e6 -1.1677728734987969e7 0.0
0.0 0.0 0.0

-1.1093519081053477e7 3.7821402804901996e6 0.0
3.7821402804901996e6 1.5435315632742606e7 0.0
0.0 0.0 0.0

3.9547602044877624e6 1.060419338054786e7 0.0
1.060419338054786e7 -1.835560976400419e7 0.0
0.0 0.0 0.0

-5.999468169005863e6 1.9692185821610607e7 0.0
1.9692185821610607e7 -2.7511803343015835e6 0.0
0.0 0.0 0.0

168911.08009198983 1.2192182397504764e7 0.0
1.2192182397504764e7 4.1744278314130367e6 0.0
0.0 0.0 0.0

-3.1958689476723243e6 1.3241388875880456e7 0.0
1.3241388875880456e7 9.468391127584126e6 0.0
0.0 0.0 0.0

2.6687305148328743e6 1.2328856600702781e7 0.0
1.2328856600702781e7 5.175304141970268e6 0.0
0.0 0.0 0.0

-543855.0886354032 8.873550299559455e6 0.0
8.873550299559455e6 -1.0802855796025768e6 0.0
0.0 0.0 0.0

-4.098862862842989e6 1.2677462819199098e7 0.0
1.2677462819199098e7 185865.70969678997 0.0
0.0 0.0 0.0

-1.1203623645248292e7 1.137909050273024e7 0.0
1.137909050273024e7 1.069478527691652e6 0.0
0.0 0.0 0.0

212274.16098893888 8.48041294420657e6 0.0
8.48041294420657e6 -2.132831510054134e6 0.0
0.0 0.0 0.0

-1.9599905981686707e6 1.274778863562327e7 0.0
1.274778863562327e7 1.1977223913287101e6 0.0
0.0 0.0 0.0

3.4893270528555433e6 5.814948522231064e6 0.0
5.814948522231064e6 -9.753980506372966e6 0.0
0.0 0.0 0.0

-9.244140676629934e6 9.407929980600134e6 0.0
9.407929980600134e6 5.013702395228559e6 0.0
0.0 0.0 0.0

-1.5501701661342438e7 1.6494768896235587e7 0.0
1.6494768896235587e7 1.1485041247405156e7 0.0
0.0 0.0 0.0

-4.204636009694489e6 2.0226124411713893e6 0.0
2.0226124411713893e6 5.809538883871984e6 0.0
0.0 0.0 0.0

-2.771071477338185e6 1.7422381676619273e7 0.0
1.7422381676619273e7 -4.040572195794681e6 0.0
0.0 0.0 0.0

-1.204622475075584e7 5.561986524797563e6 0.0
5.561986524797563e6 3.989718339268218e7 0.0
0.0 0.0 0.0

-4.960590462961802e6 -1.416136755265843e6 0.0
-1.416136755265843e6 5.48377085011956e6 0.0
0.0 0.0 0.0

-2.5901184209015733e6 1.2612668193322707e7 0.0
1.2612668193322707e7 -1.3568471722948985e7 0.0
0.0 0.0 0.0

1.1152821564376615e6 1.1479197139417406e7 0.0
1.1479197139417406e7 -7.320941734672717e6 0.0
0.0 0.0 0.0

-6.3924257525570085e6 1.489106756401853e7 0.0
1.489106756401853e7 3.4537011438957923e6 0.0
0.0 0.0 0.0

-6.562845293532336e6 8.085191101453503e6 0.0
8.085191101453503e6 1.8112410489320755e6 0.0
0.0 0.0 0.0

-134931.0214594045 7.213525087585696e6 0.0
7.213525087585696e6 -3.3577663375638924e6 0.0
0.0 0.0 0.0

-5.25824100146557e6 1.330800742598798e7 0.0
1.330800742598798e7 1.6365601378986237e6 0.0
0.0 0.0 0.0

-7.703604827588718e6 1.5344096279645648e7 0.0
1.5344096279645648e7 6.001624591254121e6 0.0
0.0 0.0 0.0

-6.249361816793597e6 1.4981600821037335e7 0.0
1.4981600821037335e7 3.4937411784537747e6 0.0
0.0 0.0 0.0

3.093704714116115e6 1.0246872817094628e7 0.0
1.0246872817094628e7 -2.15738138930457e7 0.0
0.0 0.0 0.0

-2.1066061149405846e6 9.430329795370659e6 0.0
9.430329795370659e6 -1.6755691631559653e6 0.0
0.0 0.0 0.0

-1.1502876188558185e7 -4.026711642307505e6 0.0
-4.026711642307505e6 2.6859254774293777e7 0.0
0.0 0.0 0.0

1.4750195404173061e6 1.6222285951077618e7 0.0
1.6222285951077618e7 2.1727718578680627e7 0.0
0.0 0.0 0.0

-2.4763952204713337e7 -3.5665809787993766e6 0.0
-3.5665809787993766e6 1.0547479644151159e7 0.0
0.0 0.0 0.0

9.394078817652185e6 1.2690790857042944e7 0.0
1.2690790857042944e7 -8.750264155599821e6 0.0
0.0 0.0 0.0

1.6707142733370713e6 1.0430090861697672e7 0.0
1.0430090861697672e7 -1.0870322188791305e7 0.0
0.0 0.0 0.0

1.273091416702467e6 6.148862599912129e6 0.0
6.148862599912129e6 -5.066590516965892e6 0.0
0.0 0.0 0.0

1.3480147938921405e7 1.2383812130392142e7 0.0
1.2383812130392142e7 -1.0894971206469845e7 0.0
0.0 0.0 0.0

1.3111990819857935e6 6.987800027781e6 0.0
6.987800027781e6 -3.037900468867655e6 0.0
0.0 0.0 0.0

4.511990145393794e6 1.2134907547925565e7 0.0
1.2134907547925565e7 4.307819601871534e6 0.0
0.0 0.0 0.0

-5.8593829000142515e6 1.3695361023851838e7 0.0
1.3695361023851838e7 2.7072198620898165e6 0.0
0.0 0.0 0.0

-6.713564668314494e6 1.392160267801914e7 0.0
1.392160267801914e7 5.965609214195104e6 0.0
0.0 0.0 0.0

-935700.332735165 8.431324933361584e6 0.0
8.431324933361584e6 -3.9760146931278105e6 0.0
0.0 0.0 0.0

-6.04135439361661e6 4.816200133436984e6 0.0
4.816200133436984e6 1.1625352151731239e6 0.0
0.0 0.0 0.0

-835511.006466958 1.0208063046631081e7 0.0
1.0208063046631081e7 -8.941786701738102e6 0.0
0.0 0.0 0.0

-1.5774595730317268e6 1.2415796329804577e7 0.0
1.2415796329804577e7 1.4988917615331658e6 0.0
0.0 0.0 0.0

-1.5187668326950115e6 9.8645883868456e6 0.0
9.8645883868456e6 3.7188723674203423e6 0.0
0.0 0.0 0.0

-1.2416496871681737e7 4.5848299569765935e6 0.0
4.5848299569765935e6 3.67057309674908e7 0.0
0.0 0.0 0.0

-5.345116521411239e6 1.2888107642657569e7 0.0
1.2888107642657569e7 2.0352110782600753e6 0.0
0.0 0.0 0.0

3.942468923049245e6 5.556774298596437e6 0.0
5.556774298596437e6 -1.0627758183552517e7 0.0
0.0 0.0 0.0

-4.036955357792113e6 1.2575535232509868e7 0.0
1.2575535232509868e7 5.128647178540279e6 0.0
0.0 0.0 0.0

-2.7863573735681344e6 1.0073447662528602e7 0.0
1.0073447662528602e7 4.386119289292281e6 0.0
0.0 0.0 0.0

1.9586164369762163e6 1.4432303552202573e7 0.0
1.4432303552202573e7 -6.279865645331636e6 0.0
0.0 0.0 0.0

-4.198855962847043e6 1.356262958763985e7 0.0
1.356262958763985e7 -1.5880296856295103e6 0.0
0.0 0.0 0.0

-9.720239459487533e6 1.68474629579779e7 0.0
1.68474629579779e7 7.486996358996268e6 0.0
0.0 0.0 0.0

-357623.92013712716 6.956810666669246e6 0.0
6.956810666669246e6 -3.4858714578047525e6 0.0
0.0 0.0 0.0

-9.999209547680853e6 1.4601076087677328e7 0.0
1.4601076087677328e7 8.089454486609822e6 0.0
0.0 0.0 0.0

-6.248662988721575e6 1.3980086409439942e7 0.0
1.3980086409439942e7 4.652956858736603e6 0.0
0.0 0.0 0.0

-7.8386777090587225e6 8.721907803619932e6 0.0
8.721907803619932e6 8.965822250308791e6 0.0
0.0 0.0 0.0

6.372272591697658e6 1.3473592055053879e7 0.0
1.3473592055053879e7 -7.937550236734072e6 0.0
0.0 0.0 0.0

-977960.157466627 1.141475550123166e7 0.0
1.141475550123166e7 -5.32668361620286e6 0.0
0.0 0.0 0.0

-5.88548776958675e6 1.3560228333659805e7 0.0
1.3560228333659805e7 2.884905016255238e6 0.0
0.0 0.0 0.0

-618543.4788207043 8.072472514144525e6 0.0
8.072472514144525e6 -4.302376741996679e6 0.0
0.0 0.0 0.0

-1.9857241529099199e6 1.213187243918796e7 0.0
1.213187243918796e7 2.866420713759176e6 0.0
0.0 0.0 0.0

-5.77071504583692e6 2.2513406209608964e6 0.0
2.2513406209608964e6 2.847120112156968e6 0.0
0.0 0.0 0.0

-7.361408234185498e6 8.456498624707898e6 0.0
8.456498624707898e6 5.365851457405026e6 0.0
0.0 0.0 0.0

673108.1740296436 1.1671406921135932e7 0.0
1.1671406921135932e7 -7.017400882314332e6 0.0
0.0 0.0 0.0

-1.6919581706466137e6 1.0783310607908837e7 0.0
1.0783310607908837e7 5.103441957314528e6 0.0
0.0 0.0 0.0

-46290.60371464584 1.1688202919549368e7 0.0
1.1688202919549368e7 -8.007816009140734e6 0.0
0.0 0.0 0.0

-5.498507201506177e6 1.1236019469147786e7 0.0
1.1236019469147786e7 7.174338349389764e6 0.0
0.0 0.0 0.0

-1.1819899229365285e7 4.793329033290695e6 0.0
4.793329033290695e6 6.921762318298962e6 0.0
0.0 0.0 0.0

-1.6805428786387795e6 1.2395877062855082e7 0.0
1.2395877062855082e7 268551.03760173486 0.0
0.0 0.0 0.0

-8.025845347589549e6 3.548364664557017e6 0.0
3.548364664557017e6 7.65606024139691e6 0.0
0.0 0.0 0.0

-1.8375074277566508e6 1.216448589587926e7 0.0
1.216448589587926e7 3.7171352511408716e6 0.0
0.0 0.0 0.0

-3.162386505107132e6 1.863195248770061e7 0.0
1.863195248770061e7 -5.610964817166493e6 0.0
0.0 0.0 0.0

-2.201520050039449e7 8.995703217750814e6 0.0
8.995703217750814e6 9.457325441450518e6 0.0
0.0 0.0 0.0

-7.142325947492096e6 2.0503986102497708e7 0.0
2.0503986102497708e7 1.6777831143528325e6 0.0
0.0 0.0 0.0

-6.165596960794625e6 1.246029481503636e7 0.0
1.246029481503636e7 1.566613194224888e6 0.0
0.0 0.0 0.0

-7.405615810551635e6 1.8714140582415435e7 0.0
1.8714140582415435e7 3.5678315642774138e6 0.0
0.0 0.0 0.0

-6.299940689983102e6 2.405613352109415e6 0.0
2.405613352109415e6 5.211117591276782e6 0.0
0.0 0.0 0.0

2.2785673733287165e6 1.4200119243369956e7 0.0
1.4200119243369956e7 -5.89716044730005e6 0.0
0.0 0.0 0.0

-8.506744429370912e6 1.5753351366322482e7 0.0
1.5753351366322482e7 6.967136393604759e6 0.0
0.0 0.0 0.0

-2.32099888652034e6 1.2555554214060426e7 0.0
1.2555554214060426e7 115477.60526036646 0.0
0.0 0.0 0.0

810739.2546581686 1.1103100288476387e7 0.0
1.1103100288476387e7 -9.680082875145368e6 0.0
0.0 0.0 0.0

-7.253584590014022e6 1.4588737318405189e7 0.0
1.4588737318405189e7 6.348428293249583e6 0.0
0.0 0.0 0.0

-5.667913064347938e6 7.404481565018281e6 0.0
7.404481565018281e6 4.888384915248666e6 0.0
0.0 0.0 0.0

-7.873645699772372e6 1.897924330334108e7 0.0
1.897924330334108e7 1.5683809770772737e6 0.0
0.0 0.0 0.0

-1.0968446609282335e7 1.392796257497804e7 0.0
1.392796257497804e7 8.792382857160248e6 0.0
0.0 0.0 0.0

1.560207796954285e6 1.4198585756657008e7 0.0
1.4198585756657008e7 -6.103175560951932e6 0.0
0.0 0.0 0.0

1.8770798703198582e6 5.770835442213032e6 0.0
5.770835442213032e6 -6.797647762041872e6 0.0
0.0 0.0 0.0

-520013.5444855243 1.1074946153460557e7 0.0
1.1074946153460557e7 -1.1446750570094015e7 0.0
0.0 0.0 0.0

1.8631671827354557e6 4.701220538453269e6 0.0
4.701220538453269e6 -6.471913818886494e6 0.0
0.0 0.0 0.0

-1.209409895678781e6 1.2721085891600916e7 0.0
1.2721085891600916e7 4.571337571427526e6 0.0
0.0 0.0 0.0

1.8916962713296441e6 1.2537913330536466e7 0.0
1.2537913330536466e7 -5.410876008481506e6 0.0
0.0 0.0 0.0

-4.0840615727893193e6 1.7327771340177566e7 0.0
1.7327771340177566e7 -2.6366447080206885e6 0.0
0.0 0.0 0.0

-9.419909627645606e6 7.997810006817501e6 0.0
7.997810006817501e6 1.0972104579481667e7 0.0
0.0 0.0 0.0

-790554.9070321476 8.721239430730896e6 0.0
8.721239430730896e6 -3.542813026816571e6 0.0
0.0 0.0 0.0

-875611.5830070958 4.248922037412198e6 0.0
4.248922037412198e6 4.73291361917739e6 0.0
0.0 0.0 0.0

3.8091733715206357e6 9.339576775124516e6 0.0
9.339576775124516e6 -1.6779237398657896e7 0.0
0.0 0.0 0.0

-121745.22475074838 1.0543619049486196e7 0.0
1.0543619049486196e7 -345347.58683929633 0.0
0.0 0.0 0.0

-1.018711210490498e7 1.3386521603523707e7 0.0
1.3386521603523707e7 6.893426214418011e6 0.0
0.0 0.0 0.0

944788.77674091 1.0683815015946154e7 0.0
1.0683815015946154e7 -7.6540818032590905e6 0.0
0.0 0.0 0.0

6.355538429848038e6 1.1033476806154892e7 0.0
1.1033476806154892e7 -2.38028091700056e6 0.0
0.0 0.0 0.0

-9.979999793504685e6 1.665883756305903e6 0.0
1.665883756305903e6 1.2090196838167064e7 0.0
0.0 0.0 0.0

-1.5137521820096996e7 9.367892622363953e6 0.0
9.367892622363953e6 5.929339733446228e6 0.0
0.0 0.0 0.0

2.626249237760323e6 1.87099642743058e7 0.0
1.87099642743058e7 -1.5061940253650015e7 0.0
0.0 0.0 0.0

-6.743283040491453e6 1.410841721135653e7 0.0
1.410841721135653e7 6.206851379899837e6 0.0
0.0 0.0 0.0

-1.0279707472431104e6 7.179958620846087e6 0.0
7.179958620846087e6 -1.471335874130917e6 0.0
0.0 0.0 0.0

-1.0767980715010379e7 7.858881815821295e6 0.0
7.858881815821295e6 1.2546028923987832e7 0.0
0.0 0.0 0.0

-7.411658599113902e6 -1.5308236963321161e6 0.0
-1.5308236963321161e6 8.725282459030997e6 0.0
0.0 0.0 0.0

-1.1718312034500483e6 1.1386405162619447e7 0.0
1.1386405162619447e7 -5.98023210815474e6 0.0
0.0 0.0 0.0

-5.916048827952457e6 1.4811300376052214e7 0.0
1.4811300376052214e7 1.458863124554888e6 0.0
0.0 0.0 0.0

-1.7108299748661928e6 1.0810764940182796e7 0.0
1.0810764940182796e7 -3.3705865934459902e6 0.0
0.0 0.0 0.0

-1.1220134657880519e7 4.873021508136808e6 0.0
4.873021508136808e6 2.2706600296313655e7 0.0
0.0 0.0 0.0

1.4574765706706955e6 1.0074029249308236e7 0.0
1.0074029249308236e7 -1.0685986390545534e7 0.0
0.0 0.0 0.0

-6.493905728865089e6 1.4283559521701857e7 0.0
1.4283559521701857e7 2.2309714272132907e6 0.0
0.0 0.0 0.0

982792.8927158844 1.0923318434449904e7 0.0
1.0923318434449904e7 -9.584352451910194e6 0.0
0.0 0.0 0.0

4.719109395585218e6 1.0801507649381084e7 0.0
1.0801507649381084e7 2.2154998839981086e6 0.0
0.0 0.0 0.0

-1.1524444941304184e7 3.1966526189509826e6 0.0
3.1966526189509826e6 2.032025580766173e7 0.0
0.0 0.0 0.0

1.640550596765012e6 1.0282771744567202e7 0.0
1.0282771744567202e7 -3.9240172684380487e6 0.0
0.0 0.0 0.0

-3.55229095925759e6 1.1978701738105886e7 0.0
1.1978701738105886e7 4.9592740229126755e6 0.0
0.0 0.0 0.0

-4.67930953239643e6 1.561741802825773e7 0.0
1.561741802825773e7 420172.93367868615 0.0
0.0 0.0 0.0

2.743116815283325e6 7.897373644059502e6 0.0
7.897373644059502e6 -1.0143543002691824e7 0.0
0.0 0.0 0.0

782003.556902932 6.975209448352101e6 0.0
6.975209448352101e6 -5.3401728738252e6 0.0
0.0 0.0 0.0

3.370056375093052e6 9.297328788759863e6 0.0
9.297328788759863e6 -1.5372877984556941e7 0.0
0.0 0.0 0.0

-2.906532803573286e6 1.319047017519298e7 0.0
1.319047017519298e7 -121382.24044283351 0.0
0.0 0.0 0.0

-1.2569962110819692e7 2.4570562305487096e6 0.0
2.4570562305487096e6 1.7530431394028418e7 0.0
0.0 0.0 0.0

-2.824151275566239e6 1.3250439488468561e7 0.0
1.3250439488468561e7 -389128.4607002815 0.0
0.0 0.0 0.0

-1.341273132668965e6 1.0401797152293587e7 0.0
1.0401797152293587e7 -3.6443190504921516e6 0.0
0.0 0.0 0.0

3.7995256037190324e6 8.038616284702732e6 0.0
8.038616284702732e6 -1.4787443962866412e7 0.0
0.0 0.0 0.0

-1.0873335710719496e7 6.641941554968412e6 0.0
6.641941554968412e6 1.4300695366408402e7 0.0
0.0 0.0 0.0

-59499.82979587768 1.1195318570850423e7 0.0
1.1195318570850423e7 1.1356523531978035e6 0.0
0.0 0.0 0.0

2.2764854829153046e6 9.595688520176599e6 0.0
9.595688520176599e6 -1.3098807272458222e7 0.0
0.0 0.0 0.0

4.0030619480389664e6 5.68445504432833e6 0.0
5.68445504432833e6 -1.1425964112086846e7 0.0
0.0 0.0 0.0

-6.921142703342094e6 1.1750416824341876e7 0.0
1.1750416824341876e7 7.662361615256937e6 0.0
0.0 0.0 0.0

-5.085623056359555e6 1.4266179290769635e7 0.0
1.4266179290769635e7 2.6538490983861666e6 0.0
0.0 0.0 0.0

323775.4989814537 8.604673161950441e6 0.0
8.604673161950441e6 -5.3619992353266515e6 0.0
0.0 0.0 0.0

-9.384361275772609e6 -1.6404680556316474e6 0.0
-1.6404680556316474e6 1.38188442172181e7 0.0
0.0 0.0 0.0

1.6360295506211272e6 6.465074231719566e6 0.0
6.465074231719566e6 -3.1325015103553305e6 0.0
0.0 0.0 0.0

-7.945126757051124e6 1.0379319913686484e7 0.0
1.0379319913686484e7 8.128538201248366e6 0.0
0.0 0.0 0.0

5.129578931420947e6 1.2227816985363046e7 0.0
1.2227816985363046e7 2.491063623222973e6 0.0
0.0 0.0 0.0

2.8049982299854066e6 1.1222448794678438e7 0.0
1.1222448794678438e7 3.5511929465252017e6 0.0
0.0 0.0 0.0

-5.880160631654469e6 1.358338152472424e7 0.0
1.358338152472424e7 1.0499008484352212e6 0.0
0.0 0.0 0.0

-488035.1433157497 9.014168830432108e6 0.0
9.014168830432108e6 -6.965025935581209e6 0.0
0.0 0.0 0.0

-3.4893955382120796e6 1.403294488101527e7 0.0
1.403294488101527e7 -306890.5484111452 0.0
0.0 0.0 0.0

-7.165314826570983e6 1.1294279321980327e7 0.0
1.1294279321980327e7 3.618502064129167e6 0.0
0.0 0.0 0.0

2.9961571796724293e6 9.3810816759878e6 0.0
9.3810816759878e6 -1.4431616517537132e7 0.0
0.0 0.0 0.0

1.163472523475667e6 6.648532579976904e6 0.0
6.648532579976904e6 -4.0439569305119407e6 0.0
0.0 0.0 0.0

-63235.150136177195 7.004601014374711e6 0.0
7.004601014374711e6 -3.588243565232779e6 0.0
0.0 0.0 0.0

-192352.30370718427 1.1054900953466004e7 0.0
1.1054900953466004e7 -1.1920197716862317e6 0.0
0.0 0.0 0.0

1.2633870186934085e6 1.1883987065757563e7 0.0
1.1883987065757563e7 6.116913666777422e6 0.0
0.0 0.0 0.0

-1.5103158865753885e6 8.589315613241823e6 0.0
8.589315613241823e6 495818.3029624275 0.0
0.0 0.0 0.0

-7.30118944004814e6 1.0678336769236105e7 0.0
1.0678336769236105e7 7.237541032186214e6 0.0
0.0 0.0 0.0

-1.5102286146680355e7 850948.0752185817 0.0
850948.0752185817 8.489111531699933e6 0.0
0.0 0.0 0.0

-314307.57362352195 1.1307737360413043e7 0.0
1.1307737360413043e7 699019.9037117399 0.0
0.0 0.0 0.0

1.527580554780241e6 5.959912207583e6 0.0
5.959912207583e6 -7.087108596189642e6 0.0
0.0 0.0 0.0

-9.81974886894687e6 1.3684443965079961e7 0.0
1.3684443965079961e7 8.213841633340182e6 0.0
0.0 0.0 0.0

-9.960981225162733e6 -3.286118628120729e6 0.0
-3.286118628120729e6 1.5639745846736472e7 0.0
0.0 0.0 0.0

-692678.6473128079 1.2128599553366728e7 0.0
1.2128599553366728e7 -2.453430305428845e6 0.0
0.0 0.0 0.0

-4.405762069135077e6 1.2366587141826127e7 0.0
1.2366587141826127e7 9.258295203951864e6 0.0
0.0 0.0 0.0

-5.572512864867829e6 1.3686184713176552e7 0.0
1.3686184713176552e7 2.7509813829697473e6 0.0
0.0 0.0 0.0

654324.2796001751 1.0683399337957388e7 0.0
1.0683399337957388e7 -1.0847706997514524e7 0.0
0.0 0.0 0.0

3.1977278746310035e6 1.2325175191358645e7 0.0
1.2325175191358645e7 4.363640727445884e6 0.0
0.0 0.0 0.0

431855.5512158158 1.0947341121743448e7 0.0
1.0947341121743448e7 -9.53262407949812e6 0.0
0.0 0.0 0.0

-586570.4737971171 1.1662322875672068e7 0.0
1.1662322875672068e7 1.3832937941394674e6 0.0
0.0 0.0 0.0

-4.1913483820169396e6 1.129586245403071e7 0.0
1.129586245403071e7 6.4272086626328025e6 0.0
0.0 0.0 0.0

-4.11195258844583e6 1.2361859320687385e7 0.0
1.2361859320687385e7 5.165961979938287e6 0.0
0.0 0.0 0.0

-2.378250016487317e6 1.2392027011428976e7 0.0
1.2392027011428976e7 2.4357058134773457e6 0.0
0.0 0.0 0.0

3.541925414723876e6 6.392410706671092e6 0.0
6.392410706671092e6 -1.1446795939228958e7 0.0
0.0 0.0 0.0

-6.912358799065886e6 1.585506186809251e7 0.0
1.585506186809251e7 3.652728720541433e6 0.0
0.0 0.0 0.0

-2.392052816809105e6 9.917610592427826e6 0.0
9.917610592427826e6 63612.060953024426 0.0
0.0 0.0 0.0

7.330635902169617e6 9.822242814491129e6 0.0
9.822242814491129e6 269376.3686035103 0.0
0.0 0.0 0.0

-7.747640879191259e6 1.4184332622507045e7 0.0
1.4184332622507045e7 6.159116319769867e6 0.0
0.0 0.0 0.0

4.373778724748261e6 6.170462053685564e6 0.0
6.170462053685564e6 -1.2747583628483143e7 0.0
0.0 0.0 0.0

-3.6055987643263657e6 9.899786428840898e6 0.0
9.899786428840898e6 1.3437975292653125e6 0.0
0.0 0.0 0.0

4.463357786337919e6 1.0010911673288494e7 0.0
1.0010911673288494e7 -153921.89297470986 0.0
0.0 0.0 0.0

1.071279326414151e7 9.044858309436997e6 0.0
9.044858309436997e6 -3.5949784808524046e6 0.0
0.0 0.0 0.0

-8.830575421804616e6 1.5417323859056033e7 0.0
1.5417323859056033e7 7.214678749201642e6 0.0
0.0 0.0 0.0

366479.9897734765 1.1930080741716538e7 0.0
1.1930080741716538e7 -7.657802565390516e6 0.0
0.0 0.0 0.0

-3.564262200511176e6 5.271978706137535e6 0.0
5.271978706137535e6 3.0464101072606705e6 0.0
0.0 0.0 0.0

-9.768019718316931e6 -3.982713998392458e6 0.0
-3.982713998392458e6 1.3587890478931114e7 0.0
0.0 0.0 0.0

-175179.47442533096 1.1152646191856818e7 0.0
1.1152646191856818e7 -149033.9270154958 0.0
0.0 0.0 0.0

-783469.565293768 1.064066977404212e7 0.0
1.064066977404212e7 8.49719972180499e6 0.0
0.0 0.0 0.0

-9.296375561028179e6 287556.3346954161 0.0
287556.3346954161 1.1437588441357328e7 0.0
0.0 0.0 0.0

-1.4179957943809994e6 7.8807615735845165e6 0.0
7.8807615735845165e6 -2.5951427058578157e6 0.0
0.0 0.0 0.0

-2.380631569540081e6 1.1581859757454557e7 0.0
1.1581859757454557e7 -1.1141772209468335e6 0.0
0.0 0.0 0.0

207268.70237439312 1.0607200691599086e7 0.0
1.0607200691599086e7 -1.0281766777061213e7 0.0
0.0 0.0 0.0

-6.680061307423218e6 1.531540700635035e7 0.0
1.531540700635035e7 3.9692499833413777e6 0.0
0.0 0.0 0.0

-5.4882915003202185e6 1.6293515010257853e7 0.0
1.6293515010257853e7 -323243.53013978014 0.0
0.0 0.0 0.0

-9.588737616095793e6 2.0208375387858942e7 0.0
2.0208375387858942e7 2.0455623792413902e6 0.0
0.0 0.0 0.0

-1.5741635638362905e7 1.4924527693380605e7 0.0
1.4924527693380605e7 1.0952984732662372e7 0.0
0.0 0.0 0.0

719543.6331823992 1.2446121949500669e7 0.0
1.2446121949500669e7 3.7746500849088123e6 0.0
0.0 0.0 0.0

1.0494780113170976e6 1.2506259924119968e7 0.0
1.2506259924119968e7 -1.9882872912044644e7 0.0
0.0 0.0 0.0

-2.6091027490039114e6 2.1940533470232803e6 0.0
2.1940533470232803e6 1.1987524655379364e6 0.0
0.0 0.0 0.0

-2.2415930584107656e6 1.0677949634114647e7 0.0
1.0677949634114647e7 -9.5877548906106e6 0.0
0.0 0.0 0.0

-1.0376368977099615e6 8.616341078887586e6 0.0
8.616341078887586e6 -6.902687154456383e6 0.0
0.0 0.0 0.0

-166196.65939217783 1.2869554123173716e7 0.0
1.2869554123173716e7 4.531894538390271e6 0.0
0.0 0.0 0.0

-1.6853548066853944e6 1.1337866963725133e7 0.0
1.1337866963725133e7 -1.1337423273445113e7 0.0
0.0 0.0 0.0

-1.2783539455308246e6 1.0406725232854987e7 0.0
1.0406725232854987e7 -9.37313364368471e6 0.0
0.0 0.0 0.0

1.279491855242527e6 1.2897859297185117e7 0.0
1.2897859297185117e7 5.916336565652774e6 0.0
0.0 0.0 0.0

-2.8998874683972914e6 1.049090330685098e7 0.0
1.049090330685098e7 924355.4988320103 0.0
0.0 0.0 0.0

3.3136543621942997e6 7.732323692023884e6 0.0
7.732323692023884e6 -1.1334765716938656e7 0.0
0.0 0.0 0.0

-252107.7001771806 1.1190070571239287e7 0.0
1.1190070571239287e7 -814196.6325507509 0.0
0.0 0.0 0.0

-6.023682072366211e6 1.3146021415209921e7 0.0
1.3146021415209921e7 2.6943779460996315e6 0.0
0.0 0.0 0.0

-386618.7044340408 1.152326383638596e7 0.0
1.152326383638596e7 2.18658451477566e6 0.0
0.0 0.0 0.0

1.91206738219376e6 4.706564363661594e6 0.0
4.706564363661594e6 -6.736702427034877e6 0.0
0.0 0.0 0.0

-5.903363185789287e6 1.3426087981682045e7 0.0
1.3426087981682045e7 3.0419334245637907e6 0.0
0.0 0.0 0.0

-7.51681199448904e6 1.4978773492009517e7 0.0
1.4978773492009517e7 5.7573920817207275e6 0.0
0.0 0.0 0.0

-1.0989003053273207e7 6.309600250829158e6 0.0
6.309600250829158e6 1.3240014104243014e7 0.0
0.0 0.0 0.0

-1.0563255362944244e6 8.870886290786888e6 0.0
8.870886290786888e6 1.7946980337339768e6 0.0
0.0 0.0 0.0

-2.6289879817934907e6 1.1900250156747023e7 0.0
1.1900250156747023e7 7.306952490642258e6 0.0
0.0 0.0 0.0

-9.806795977655472e6 1.6261566687284756e7 0.0
1.6261566687284756e7 7.698278245395552e6 0.0
0.0 0.0 0.0

-7.260408424288299e6 1.0871880918070965e7 0.0
1.0871880918070965e7 8.15070601257643e6 0.0
0.0 0.0 0.0

-4.659937644458182e6 491611.29998102045 0.0
491611.29998102045 4.568913338013188e6 0.0
0.0 0.0 0.0

-7.388223127425224e6 1.493541476175483e7 0.0
1.493541476175483e7 6.15835357051638e6 0.0
0.0 0.0 0.0

-4.801717998311328e6 1.319877598434868e7 0.0
1.319877598434868e7 1.4931320927864185e6 0.0
0.0 0.0 0.0

-4.225375927388582e6 1.0712767345028525e7 0.0
1.0712767345028525e7 862795.743710143 0.0
0.0 0.0 0.0

-6.699267053336454e6 1.5581222089736938e7 0.0
1.5581222089736938e7 3.6997122164849746e6 0.0
0.0 0.0 0.0

-6.415822708584136e6 1.5239612821695032e7 0.0
1.5239612821695032e7 3.459672998920701e6 0.0
0.0 0.0 0.0

-750234.0592714739 1.170008936118489e7 0.0
1.170008936118489e7 -2.8961973374347617e6 0.0
0.0 0.0 0.0

713647.1113243491 1.0021438319805276e7 0.0
1.0021438319805276e7 2.378824293936889e6 0.0
0.0 0.0 0.0

2.567589003289812e6 7.55346575561712e6 0.0
7.55346575561712e6 -1.0710864215182103e7 0.0
0.0 0.0 0.0

-2.3887286394180255e6 1.1755535121271806e7 0.0
1.1755535121271806e7 -1.1356534143595193e7 0.0
0.0 0.0 0.0

-1.8880087482844198e6 1.2830878998252122e7 0.0
1.2830878998252122e7 700074.9737742938 0.0
0.0 0.0 0.0

-1.8497509478144612e7 1.7221104090883706e7 0.0
1.7221104090883706e7 1.7621073774542194e6 0.0
0.0 0.0 0.0

-1.8700223830929156e6 1.0451461236211602e7 0.0
1.0451461236211602e7 -9.364730674053175e6 0.0
0.0 0.0 0.0

-1.7212479244067244e7 1.5748752397083795e7 0.0
1.5748752397083795e7 1.8323595744340196e6 0.0
0.0 0.0 0.0

-4.608419648192041e6 1.2874218892937288e7 0.0
1.2874218892937288e7 4.55457905793471e6 0.0
0.0 0.0 0.0

-8.226352491359657e6 -6.288358249360725e6 0.0
-6.288358249360725e6 1.5002989846390516e7 0.0
0.0 0.0 0.0

-5.615988420096085e6 1.5478825344728317e7 0.0
1.5478825344728317e7 619891.2517665445 0.0
0.0 0.0 0.0

-6.819885018439919e6 1.5020373952432524e7 0.0
1.5020373952432524e7 449934.0132270376 0.0
0.0 0.0 0.0

217230.4019959406 1.2136610886428295e7 0.0
1.2136610886428295e7 -7.345427551963316e6 0.0
0.0 0.0 0.0

-1.0129084112341158e7 1.4126087789014261e7 0.0
1.4126087789014261e7 7.487620161170928e6 0.0
0.0 0.0 0.0

-4.887591145789545e6 3.998651399516574e6 0.0
3.998651399516574e6 4.837461434830792e6 0.0
0.0 0.0 0.0

3.5405535333628412e6 8.284152758667181e6 0.0
8.284152758667181e6 -1.3011592507670732e7 0.0
0.0 0.0 0.0

-1.1229340349094521e7 1.3283665819721224e7 0.0
1.3283665819721224e7 7.68589546313906e6 0.0
0.0 0.0 0.0

-264380.8926771912 1.1535700602934726e7 0.0
1.1535700602934726e7 -264047.17671602423 0.0
0.0 0.0 0.0

-4.1449709560588254e6 4.843498247964089e6 0.0
4.843498247964089e6 2.4940073986989427e6 0.0
0.0 0.0 0.0

-1.7818282205180924e6 1.0490965202729125e7 0.0
1.0490965202729125e7 -3.7264171045960323e6 0.0
0.0 0.0 0.0

-4.162443734620874e6 1.4812004210298106e7 0.0
1.4812004210298106e7 -221620.62713006465 0.0
0.0 0.0 0.0

-1.3584593403737579e7 259712.8468814662 0.0
259712.8468814662 9.246505435604105e6 0.0
0.0 0.0 0.0

-7.274021427175032e6 1.448237280738628e7 0.0
1.448237280738628e7 6.339791627656588e6 0.0
0.0 0.0 0.0

695912.7676766543 1.1692943878713716e7 0.0
1.1692943878713716e7 -8.40500343748439e6 0.0
0.0 0.0 0.0

2.0889530655835466e6 7.515171714458914e6 0.0
7.515171714458914e6 -9.5044347716096e6 0.0
0.0 0.0 0.0

481421.54012351553 6.276751457992557e6 0.0
6.276751457992557e6 -3.909931616309384e6 0.0
0.0 0.0 0.0

541872.9475582475 1.0925553583944013e7 0.0
1.0925553583944013e7 -7.898923474684304e6 0.0
0.0 0.0 0.0

-7.177081489095634e6 1.2774991623931658e7 0.0
1.2774991623931658e7 1.197666241824424e6 0.0
0.0 0.0 0.0

-7.307754846769849e6 1.9974118334082443e7 0.0
1.9974118334082443e7 2.7441730835098303e6 0.0
0.0 0.0 0.0

-4.432746606239947e6 1.2842897388365362e7 0.0
1.2842897388365362e7 8.062224608459512e6 0.0
0.0 0.0 0.0

-1.146045967124594e6 9.346683728762563e6 0.0
9.346683728762563e6 2.504778685407993e6 0.0
0.0 0.0 0.0

711304.0034870498 1.1508766371987922e7 0.0
1.1508766371987922e7 2.9335819354951587e6 0.0
0.0 0.0 0.0

-953782.5838710523 1.1094338174816996e7 0.0
1.1094338174816996e7 -3.179275286862374e6 0.0
0.0 0.0 0.0

-1.134266145161537e7 6.269498476935329e6 0.0
6.269498476935329e6 1.3561564675658623e7 0.0
0.0 0.0 0.0

33861.69872466847 9.706164458109241e6 0.0
9.706164458109241e6 -7.718901075783738e6 0.0
0.0 0.0 0.0

-1.7837534453951135e7 1.0998525881610937e7 0.0
1.0998525881610937e7 1.0957435851619903e7 0.0
0.0 0.0 0.0

-9.624365915245023e6 -325257.57369675115 0.0
-325257.57369675115 1.3608585570181653e7 0.0
0.0 0.0 0.0

-8.333529279883707e6 -6.16810926257819e6 0.0
-6.16810926257819e6 1.7711343623979107e7 0.0
0.0 0.0 0.0

128770.7871072935 8.570755998362547e6 0.0
8.570755998362547e6 -6.034398800525407e6 0.0
0.0 0.0 0.0

-1.0084195814710046e6 1.067833763216624e6 0.0
1.067833763216624e6 448173.40969063493 0.0
0.0 0.0 0.0

3.792804289858127e6 8.530961267786598e6 0.0
8.530961267786598e6 -1.5229297143485636e7 0.0
0.0 0.0 0.0

-1.2158920317604987e7 5.033829830943718e6 0.0
5.033829830943718e6 1.635917892033074e7 0.0
0.0 0.0 0.0

2.545882887112069e6 9.25743084003646e6 0.0
9.25743084003646e6 -1.302851793417191e7 0.0
0.0 0.0 0.0

-6.4707555964087155e6 278354.247004784 0.0
278354.247004784 8.0521680015764125e6 0.0
0.0 0.0 0.0

-6.630621644472217e6 1.3811648183963493e7 0.0
1.3811648183963493e7 4.687555668930655e6 0.0
0.0 0.0 0.0

-4.0890125570098213e6 1.5212422669536982e7 0.0
1.5212422669536982e7 -387184.0230826477 0.0
0.0 0.0 0.0

-8.083054728349278e6 1.5658995791376565e7 0.0
1.5658995791376565e7 6.258122997016127e6 0.0
0.0 0.0 0.0

-9.273603701055057e6 1.9335485573890656e7 0.0
1.9335485573890656e7 3.7218287502407567e6 0.0
0.0 0.0 0.0

-8.187066668445097e6 1.7514705080968227e7 0.0
1.7514705080968227e7 3.86170549547463e6 0.0
0.0 0.0 0.0

-8.674866184725616e6 -3.3415475407628175e6 0.0
-3.3415475407628175e6 1.3156706880933363e7 0.0
0.0 0.0 0.0

4.308958812929258e6 6.330066245344634e6 0.0
6.330066245344634e6 -1.3404055944463514e7 0.0
0.0 0.0 0.0

849477.4536583405 1.2077476114953902e7 0.0
1.2077476114953902e7 -7.00260830510519e6 0.0
0.0 0.0 0.0

-2.74785591268601e6 1.2338401042772667e7 0.0
1.2338401042772667e7 -2.3112383240938876e6 0.0
0.0 0.0 0.0

1.5101737658792343e6 8.562911188149525e6 0.0
8.562911188149525e6 -7.893964454668538e6 0.0
0.0 0.0 0.0

-1.6372364165955673e6 9.5299742579014e6 0.0
9.5299742579014e6 -8.120687239351731e6 0.0
0.0 0.0 0.0

-195215.6045172919 1.0733834027965497e7 0.0
1.0733834027965497e7 -650718.6664668352 0.0
0.0 0.0 0.0

-6.69812568892003e6 1.2558261293629015e7 0.0
1.2558261293629015e7 5.765097769706114e6 0.0
0.0 0.0 0.0

-7.810418312433617e6 1.447977236968697e7 0.0
1.447977236968697e7 6.571335013772905e6 0.0
0.0 0.0 0.0

-710311.9509806391 8.829794810557233e6 0.0
8.829794810557233e6 -5.881049633276687e6 0.0
0.0 0.0 0.0

-813887.8962200286 7.97540633346398e6 0.0
7.97540633346398e6 -2.6748040692177014e6 0.0
0.0 0.0 0.0

3.885898386359461e6 5.839103219088863e6 0.0
5.839103219088863e6 -1.1194983237447532e7 0.0
0.0 0.0 0.0

1.319668620206746e6 1.1558559517870424e7 0.0
1.1558559517870424e7 -5.562669229522672e6 0.0
0.0 0.0 0.0

2.3181439639932346e6 7.772920080336379e6 0.0
7.772920080336379e6 -1.0220351028986687e7 0.0
0.0 0.0 0.0

-620222.8035072972 7.112479502249028e6 0.0
7.112479502249028e6 -3.1017155706194253e6 0.0
0.0 0.0 0.0

-595318.149395753 7.515336467868229e6 0.0
7.515336467868229e6 -3.6958054618812944e6 0.0
0.0 0.0 0.0

1.6576457199255761e6 6.649683692537011e6 0.0
6.649683692537011e6 -4.069912202242416e6 0.0
0.0 0.0 0.0

-5.534545132277084e6 1.2825474308482742e7 0.0
1.2825474308482742e7 3.5654553022483964e6 0.0
0.0 0.0 0.0

876725.3808413474 1.1245440520877626e7 0.0
1.1245440520877626e7 -9.059570749904674e6 0.0
0.0 0.0 0.0

3.88159316729582e6 8.635756973450236e6 0.0
8.635756973450236e6 -1.6812868570106328e7 0.0
0.0 0.0 0.0

-2.422721061599256e6 1.2997842171679938e7 0.0
1.2997842171679938e7 -458801.1371523666 0.0
0.0 0.0 0.0

-1.3012563059899952e7 1.5860183092677122e7 0.0
1.5860183092677122e7 1.4009821522683566e6 0.0
0.0 0.0 0.0

-1.2864600326909551e7 1.2146184343535334e7 0.0
1.2146184343535334e7 7.577040047895794e6 0.0
0.0 0.0 0.0

-5.348129660730597e6 1.4908931446760975e7 0.0
1.4908931446760975e7 697447.0541263078 0.0
0.0 0.0 0.0

393544.3283459712 1.079443833764143e7 0.0
1.079443833764143e7 -1.1687834309604926e7 0.0
0.0 0.0 0.0

-2.7388957286340226e6 1.0291711230041344e7 0.0
1.0291711230041344e7 -9.129652634730166e6 0.0
0.0 0.0 0.0

-9.39760250043714e6 1.5429231894912891e7 0.0
1.5429231894912891e7 1.1204427795937895e6 0.0
0.0 0.0 0.0

-3.1795422297972837e6 1.1299313524535993e7 0.0
1.1299313524535993e7 -1.0598474450151494e7 0.0
0.0 0.0 0.0

-7.404790161999885e6 1.0478297359107051e7 0.0
1.0478297359107051e7 8.73214801474924e6 0.0
0.0 0.0 0.0

-2.2382494670397146e6 2.9998291960581606e6 0.0
2.9998291960581606e6 1.4524071709542344e6 0.0
0.0 0.0 0.0

-4.670798414128356e6 1.3076318538310299e7 0.0
1.3076318538310299e7 670882.1946491755 0.0
0.0 0.0 0.0

-7.149570034953617e6 1.1698552286210544e7 0.0
1.1698552286210544e7 6.904702818765417e6 0.0
0.0 0.0 0.0

-5.655971429722641e6 376439.37897589314 0.0
376439.37897589314 5.541461643843302e6 0.0
0.0 0.0 0.0

1.8562635170829375e6 9.863852984954283e6 0.0
9.863852984954283e6 -1.0377076292318432e7 0.0
0.0 0.0 0.0

-5.626279654088955e6 1.3192737256082317e7 0.0
1.3192737256082317e7 2.439141975410713e6 0.0
0.0 0.0 0.0

-295805.85922816704 1.1212344076157149e7 0.0
1.1212344076157149e7 -1.8327410491795908e6 0.0
0.0 0.0 0.0

-6.750473929256067e6 1.3772286302269489e7 0.0
1.3772286302269489e7 5.649177662941011e6 0.0
0.0 0.0 0.0

-1.0282619980865475e7 1.5525057868991457e7 0.0
1.5525057868991457e7 2.8332786210917365e6 0.0
0.0 0.0 0.0

-2.8835789369885307e6 1.0638812195497824e7 0.0
1.0638812195497824e7 -9.61193027648294e6 0.0
0.0 0.0 0.0

-3.9343307797087138e6 1.2287395054159284e7 0.0
1.2287395054159284e7 8.149269921826582e6 0.0
0.0 0.0 0.0

-1.2240550509839628e7 1.136240069798748e7 0.0
1.136240069798748e7 7.469314103208001e6 0.0
0.0 0.0 0.0

-2.762560256228657e6 5.029864154730423e6 0.0
5.029864154730423e6 2.2500895250913575e6 0.0
0.0 0.0 0.0

-1.3379281143753635e7 3.5839583032410927e6 0.0
3.5839583032410927e6 2.100821406416382e7 0.0
0.0 0.0 0.0

-1.2634659115928933e6 1.2142920604758099e7 0.0
1.2142920604758099e7 -2.412588802340292e6 0.0
0.0 0.0 0.0

-7.702788577267562e6 1.7754476145036828e7 0.0
1.7754476145036828e7 2.625895132136113e6 0.0
0.0 0.0 0.0

793000.9037174187 1.1658472375039719e7 0.0
1.1658472375039719e7 2.643336334785563e6 0.0
0.0 0.0 0.0

4.009610100564735e6 1.24580797192766e7 0.0
1.24580797192766e7 3.2725741998752174e6 0.0
0.0 0.0 0.0

-7.459742422383821e6 1.5301595226404106e7 0.0
1.5301595226404106e7 1.656295722449828e6 0.0
0.0 0.0 0.0

-5.938666031554247e6 1.69786600592029e7 0.0
1.69786600592029e7 457520.7508409042 0.0
0.0 0.0 0.0

1.372614426838263e6 1.1443061403937826e7 0.0
1.1443061403937826e7 6.470112981980094e6 0.0
0.0 0.0 0.0

5.031565229971889e6 7.333465373984866e6 0.0
7.333465373984866e6 -1.6016381178764578e7 0.0
0.0 0.0 0.0

-7.006262389213359e6 1.4285181846788626e7 0.0
1.4285181846788626e7 6.156057466081802e6 0.0
0.0 0.0 0.0

-251578.7613148123 1.0648610139913607e7 0.0
1.0648610139913607e7 -1.6121384295945496e6 0.0
0.0 0.0 0.0

-3.3963284831362655e6 1.174019686845997e7 0.0
1.174019686845997e7 -1.1321095516404252e7 0.0
0.0 0.0 0.0

-1.864626363003935e6 1.3046623054723263e7 0.0
1.3046623054723263e7 -321949.24354357854 0.0
0.0 0.0 0.0

5.157380654526355e6 5.7431810405052975e6 0.0
5.7431810405052975e6 -1.407629272068128e7 0.0
0.0 0.0 0.0

-2.724927222607283e6 1.1625424161286823e7 0.0
1.1625424161286823e7 -2.4485748073419933e6 0.0
0.0 0.0 0.0

-807128.5577362067 1.3598628797749028e7 0.0
1.3598628797749028e7 -4.716524052267769e6 0.0
0.0 0.0 0.0

6.2405305742024e6 1.2036109229462205e7 0.0
1.2036109229462205e7 -7.960811218345359e6 0.0
0.0 0.0 0.0

-7.992211667545175e6 8.984173779498812e6 0.0
8.984173779498812e6 9.514766627119876e6 0.0
0.0 0.0 0.0

-2.7875765765056224e6 6.466091859672673e6 0.0
6.466091859672673e6 3.373531882593137e6 0.0
0.0 0.0 0.0

-4.527380435129227e6 1.4364709772168137e7 0.0
1.4364709772168137e7 1.8950406201560167e6 0.0
0.0 0.0 0.0

-4.87265384895617e6 1.3190378460482767e7 0.0
1.3190378460482767e7 1.164898137076571e6 0.0
0.0 0.0 0.0

-1.0112970463879403e7 -3.7422548719604304e6 0.0
-3.7422548719604304e6 2.0033225331855215e7 0.0
0.0 0.0 0.0

-904347.211838791 1.1095805805335846e7 0.0
1.1095805805335846e7 -3.1520184743850757e6 0.0
0.0 0.0 0.0

-8.173358047051684e6 1.4149069743360016e7 0.0
1.4149069743360016e7 6.998325361335324e6 0.0
0.0 0.0 0.0

624283.4344065425 6.645799258159557e6 0.0
6.645799258159557e6 -5.834814406540833e6 0.0
0.0 0.0 0.0

-3.353570125217248e6 1.1568556987117989e7 0.0
1.1568556987117989e7 1.0134847822016217e7 0.0
0.0 0.0 0.0

-1.894024375961165e7 1.230850226126837e7 0.0
1.230850226126837e7 8.29879646342676e6 0.0
0.0 0.0 0.0

-102776.52549333 1.0596411473717649e7 0.0
1.0596411473717649e7 246089.7132946077 0.0
0.0 0.0 0.0

1.8609381105455188e6 6.254409026695701e6 0.0
6.254409026695701e6 -6.625683881835217e6 0.0
0.0 0.0 0.0

-6.110801861149842e6 1.1474363399455125e7 0.0
1.1474363399455125e7 1.2227224942762235e7 0.0
0.0 0.0 0.0

-3.6241912309224172e6 1.3819016924665513e7 0.0
1.3819016924665513e7 -1.1751303834335064e6 0.0
0.0 0.0 0.0

1.0459359461160279e6 1.7453687115856405e7 0.0
1.7453687115856405e7 -5.498073911241103e6 0.0
0.0 0.0 0.0

-2.0602064258409063e6 8.58501378890829e6 0.0
8.58501378890829e6 -6.867354989572785e6 0.0
0.0 0.0 0.0

-3.214691582972283e6 9.003468207793532e6 0.0
9.003468207793532e6 1.0635226931801322e6 0.0
0.0 0.0 0.0

628429.2232886215 6.795837890753552e6 0.0
6.795837890753552e6 -5.517279730847796e6 0.0
0.0 0.0 0.0

-293080.3491937141 1.0777885116097769e7 0.0
1.0777885116097769e7 -1.009954523026146e7 0.0
0.0 0.0 0.0

-2.3856677514402675e6 1.1918744201477338e7 0.0
1.1918744201477338e7 -2.7940137935121953e6 0.0
0.0 0.0 0.0

1.5309065092329353e6 1.2329910295214983e7 0.0
1.2329910295214983e7 5.372963941183693e6 0.0
0.0 0.0 0.0

-5.5203029946076935e6 1.2804090917542899e7 0.0
1.2804090917542899e7 2.3382333154548397e6 0.0
0.0 0.0 0.0

-481323.78037723573 1.3668558755578497e7 0.0
1.3668558755578497e7 -5.287121174565054e6 0.0
0.0 0.0 0.0

-4.21846568377837e6 -1.2768955639892197e6 0.0
-1.2768955639892197e6 8.89215606714356e6 0.0
0.0 0.0 0.0

-1.7100415426608038e6 1.8655296367913217e6 0.0
1.8655296367913217e6 3.4707507300779005e6 0.0
0.0 0.0 0.0

2.063951779389e6 1.3138003419587575e7 0.0
1.3138003419587575e7 -5.106379289847177e6 0.0
0.0 0.0 0.0

-161266.05805675397 1.0954537778218577e7 0.0
1.0954537778218577e7 120253.77680670327 0.0
0.0 0.0 0.0

1.3016106936831944e7 8.93520663157868e6 0.0
8.93520663157868e6 -2.391532393565016e6 0.0
0.0 0.0 0.0

-6.699473376850031e6 -423712.58196505223 0.0
-423712.58196505223 6.815802216750931e6 0.0
0.0 0.0 0.0

-6.385718533871896e6 1.3927895033690108e7 0.0
1.3927895033690108e7 363096.783928961 0.0
0.0 0.0 0.0

-9.518261849136576e6 9.38032546511987e6 0.0
9.38032546511987e6 6.690917005206345e6 0.0
0.0 0.0 0.0

-1.4447549869536614e7 1.378665286621714e7 0.0
1.378665286621714e7 3.0632175567728253e6 0.0
0.0 0.0 0.0

1.2434684842991445e7 6.301470875157998e6 0.0
6.301470875157998e6 -3.6719194493821636e6 0.0
0.0 0.0 0.0

-1.2748133645010594e7 2.434341025972028e6 0.0
2.434341025972028e6 2.6049921390642006e7 0.0
0.0 0.0 0.0

-857476.5708277546 7.807412777568703e6 0.0
7.807412777568703e6 -2.5125330948266652e6 0.0
0.0 0.0 0.0

-8.064830114724137e6 1.4577565591247456e7 0.0
1.4577565591247456e7 3.5237622569643212e6 0.0
0.0 0.0 0.0

-6.755182077512291e6 1.4042273215066457e7 0.0
1.4042273215066457e7 6.191845651183776e6 0.0
0.0 0.0 0.0

-2.5732568334650933e6 1.1856449296223015e7 0.0
1.1856449296223015e7 -3.3895630138731734e6 0.0
0.0 0.0 0.0

396649.77595832665 9.120213214883363e6 0.0
9.120213214883363e6 -6.196843545172227e6 0.0
0.0 0.0 0.0

-289699.9312824239 1.1056649379843341e7 0.0
1.1056649379843341e7 -2.69407727224323e6 0.0
0.0 0.0 0.0

-1.8209670293200435e6 1.0298115309419153e7 0.0
1.0298115309419153e7 -9.075621857895408e6 0.0
0.0 0.0 0.0

-713878.9105216376 1.2604870076888742e7 0.0
1.2604870076888742e7 -1.5645137620763214e7 0.0
0.0 0.0 0.0

2.7227332678972315e6 4.978891396298171e6 0.0
4.978891396298171e6 -420085.70886880334 0.0
0.0 0.0 0.0

-5.019064227291386e6 1.81651401038429e7 0.0
1.81651401038429e7 -2.0878881798821837e6 0.0
0.0 0.0 0.0

-2.4605117808786845e6 9.547330982452346e6 0.0
9.547330982452346e6 -8.201706453494126e6 0.0
0.0 0.0 0.0

1.9371476812045122e6 1.1573649290556949e7 0.0
1.1573649290556949e7 4.142782788507056e6 0.0
0.0 0.0 0.0

1.3566704065548182e6 1.0054309394510465e7 0.0
1.0054309394510465e7 -5.9274430859894175e6 0.0
0.0 0.0 0.0

-4.306599693210759e6 1.2965488982273774e7 0.0
1.2965488982273774e7 827049.2811038133 0.0
0.0 0.0 0.0

-678464.2806978654 9.997692621440092e6 0.0
9.997692621440092e6 -8.353504889072354e6 0.0
0.0 0.0 0.0

-1.3708803948553398e7 3.611579785716751e6 0.0
3.611579785716751e6 6.33269580771632e6 0.0
0.0 0.0 0.0

-413829.50611461786 3.3910331962936283e6 0.0
3.3910331962936283e6 -1.5295440201380032e6 0.0
0.0 0.0 0.0

-7.691865543745142e6 1.015775643624686e7 0.0
1.015775643624686e7 9.65416396587744e6 0.0
0.0 0.0 0.0

-601061.4648205459 7.900935190617542e6 0.0
7.900935190617542e6 -1.4278084297648142e6 0.0
0.0 0.0 0.0

-3.127369493735674e6 9.233716807037355e6 0.0
9.233716807037355e6 -2.9012841611663783e6 0.0
0.0 0.0 0.0

-1.8997222154269349e6 1.0439028642688956e7 0.0
1.0439028642688956e7 -2.352761967138316e6 0.0
0.0 0.0 0.0

-1.405610769382218e6 8.06222342917332e6 0.0
8.06222342917332e6 -2.7653210151668694e6 0.0
0.0 0.0 0.0

6.027088957295384e6 1.2803204815752365e7 0.0
1.2803204815752365e7 -6.68002399494426e6 0.0
0.0 0.0 0.0

-1.0819488540037563e7 1.454473457794496e7 0.0
1.454473457794496e7 8.387967799060998e6 0.0
0.0 0.0 0.0

-724198.9004981063 1.436087246695237e7 0.0
1.436087246695237e7 -4.726954915888896e6 0.0
0.0 0.0 0.0

-1.6259479787884818e6 1.2814040318318343e7 0.0
1.2814040318318343e7 -600966.4167945224 0.0
0.0 0.0 0.0

-8.17482326005853e6 1.5876685660859691e7 0.0
1.5876685660859691e7 6.604418539368626e6 0.0
0.0 0.0 0.0

-7.495649158365561e6 1.102998867735657e7 0.0
1.102998867735657e7 8.088842811709538e6 0.0
0.0 0.0 0.0

991734.1261023036 6.605721744137283e6 0.0
6.605721744137283e6 -4.910553088978813e6 0.0
0.0 0.0 0.0

-280221.2334198577 7.167059999549363e6 0.0
7.167059999549363e6 -3.2207769064968745e6 0.0
0.0 0.0 0.0

-2.220123588525152e6 1.132469035814156e7 0.0
1.132469035814156e7 -1.0671433416349385e7 0.0
0.0 0.0 0.0

-2.4154864553293753e6 1.2416898061477441e7 0.0
1.2416898061477441e7 1.1598869322388698e6 0.0
0.0 0.0 0.0

1.0613103283215654e6 6.1909094032480195e6 0.0
6.1909094032480195e6 -4.81155007914558e6 0.0
0.0 0.0 0.0

-2.531056570285832e7 1.803036604322265e7 0.0
1.803036604322265e7 8.78011218389121e6 0.0
0.0 0.0 0.0

4.2451714994003195e6 8.649866739494612e6 0.0
8.649866739494612e6 -1.8596648632755585e7 0.0
0.0 0.0 0.0

-305789.76080631686 7.165485165357224e6 0.0
7.165485165357224e6 -3.94452185888471e6 0.0
0.0 0.0 0.0

-1.5528756040073298e6 1.1611968568662519e7 0.0
1.1611968568662519e7 -1.1587894894405989e7 0.0
0.0 0.0 0.0

4.366861064206315e6 6.1614236327718105e6 0.0
6.1614236327718105e6 -1.3054125043931702e7 0.0
0.0 0.0 0.0

1.5241141279958612e6 1.8996844392660316e7 0.0
1.8996844392660316e7 -7.96135679902438e6 0.0
0.0 0.0 0.0

2.510303937878405e6 7.790906883298065e6 0.0
7.790906883298065e6 -9.565462287141623e6 0.0
0.0 0.0 0.0

-1.24301851889945e7 6.57800969590661e6 0.0
6.57800969590661e6 1.8838889297906093e7 0.0
0.0 0.0 0.0

-7.733996895991137e6 9.140525419915738e6 0.0
9.140525419915738e6 9.326622203738118e6 0.0
0.0 0.0 0.0

-5.082225504236329e6 1.3142646043667922e7 0.0
1.3142646043667922e7 5.075066326960811e6 0.0
0.0 0.0 0.0

-6.044665613910446e6 1.0235491645868879e7 0.0
1.0235491645868879e7 4.055294714749333e6 0.0
0.0 0.0 0.0

-7.535284454514209e6 1.0116537464202067e7 0.0
1.0116537464202067e7 1.0019655712924555e7 0.0
0.0 0.0 0.0

-5.724264136848653e6 1.2749609009149468e7 0.0
1.2749609009149468e7 2.995488014064879e6 0.0
0.0 0.0 0.0

1.6609486197081155e6 1.2008527599121492e7 0.0
1.2008527599121492e7 5.536495410902969e6 0.0
0.0 0.0 0.0

-1.452918146492091e6 3.1231958871074906e6 0.0
3.1231958871074906e6 411979.88464600226 0.0
0.0 0.0 0.0

-1.0457615312349057e6 1.2271705155708227e7 0.0
1.2271705155708227e7 -5.462172640889405e6 0.0
0.0 0.0 0.0

3.0289090721888924e6 1.044357395568e7 0.0
1.044357395568e7 -1.993067185896709e7 0.0
0.0 0.0 0.0

-1.1746862474624965e7 1.493546920249494e7 0.0
1.493546920249494e7 9.264946829269867e6 0.0
0.0 0.0 0.0

-4.447140316521874e6 1.512424061417616e7 0.0
1.512424061417616e7 -1.5851801800335431e6 0.0
0.0 0.0 0.0

1.8724464150059354e6 1.0147134688018948e7 0.0
1.0147134688018948e7 -2.0558360531511586e6 0.0
0.0 0.0 0.0

-7.71202342843232e6 9.122857782924848e6 0.0
9.122857782924848e6 1.054575872538054e7 0.0
0.0 0.0 0.0

-1.4251360930138096e7 1.303469581764533e7 0.0
1.303469581764533e7 1.1015524903102903e7 0.0
0.0 0.0 0.0

-2.0459880178141054e6 1.3389695731167924e7 0.0
1.3389695731167924e7 -3.8987952741910378e6 0.0
0.0 0.0 0.0

72626.96014794055 1.0780758007437682e7 0.0
1.0780758007437682e7 -1.0989169431041814e7 0.0
0.0 0.0 0.0

-1.454360469886756e7 1.5068528915217472e7 0.0
1.5068528915217472e7 1.1023469498954456e7 0.0
0.0 0.0 0.0

7.077586840538423e6 1.6824541121207222e7 0.0
1.6824541121207222e7 -1.2521738895559963e7 0.0
0.0 0.0 0.0

1.4463742672051543e6 9.479022016858209e6 0.0
9.479022016858209e6 -871515.1311680138 0.0
0.0 0.0 0.0

1.4907186643140009e6 8.481228133108778e6 0.0
8.481228133108778e6 -8.59365915805656e6 0.0
0.0 0.0 0.0

-2.61232776143025e6 1.2116177166706042e7 0.0
1.2116177166706042e7 -1.2434005260607986e7 0.0
0.0 0.0 0.0

-693852.3992905202 1.7712793362001482e7 0.0
1.7712793362001482e7 -4.2417374929723805e6 0.0
0.0 0.0 0.0

999564.0874961531 1.1175852826869883e7 0.0
1.1175852826869883e7 -7.951606466963464e6 0.0
0.0 0.0 0.0

-6.290600095668923e6 1.5047903344066553e7 0.0
1.5047903344066553e7 2.4313338447135515e6 0.0
0.0 0.0 0.0

3.023833087317638e6 9.803427667228973e6 0.0
9.803427667228973e6 -1.7436911280710433e7 0.0
0.0 0.0 0.0

-412763.47454269306 1.1759436202926552e7 0.0
1.1759436202926552e7 437630.830552525 0.0
0.0 0.0 0.0

-1.2867375209336907e7 1.146142903441637e7 0.0
1.146142903441637e7 9.750330687555894e6 0.0
0.0 0.0 0.0

-5.505415060901599e6 1.3048863777801702e7 0.0
1.3048863777801702e7 3.4158943103940184e6 0.0
0.0 0.0 0.0

6.504091849250942e6 9.725332433008062e6 0.0
9.725332433008062e6 -1.1215453917112267e6 0.0
0.0 0.0 0.0

-9.012635030669602e6 1.6311123135179825e7 0.0
1.6311123135179825e7 6.575424601745031e6 0.0
0.0 0.0 0.0

-1.7571718690219005e6 1.0465556195806578e7 0.0
1.0465556195806578e7 1.8859869114798517e6 0.0
0.0 0.0 0.0

2.1388520485398015e6 6.708211252832635e6 0.0
6.708211252832635e6 -4.0289989318861132e6 0.0
0.0 0.0 0.0

-4.435870383215378e6 1.8298209751902003e7 0.0
1.8298209751902003e7 -183336.04618424666 0.0
0.0 0.0 0.0

822209.7799094147 1.1481106365236998e7 0.0
1.1481106365236998e7 -8.755663885058878e6 0.0
0.0 0.0 0.0

5.40034275812838e6 6.067380454279917e6 0.0
6.067380454279917e6 -1.5330388221352628e7 0.0
0.0 0.0 0.0

-115231.65529047768 7.672024802677574e6 0.0
7.672024802677574e6 -4.04659876180589e6 0.0
0.0 0.0 0.0

1.154055017321237e6 6.281742720160822e6 0.0
6.281742720160822e6 -5.128247370737741e6 0.0
0.0 0.0 0.0

184828.50907673943 9.491845616268974e6 0.0
9.491845616268974e6 -6.206729161708378e6 0.0
0.0 0.0 0.0

-1.0311328378269732e7 1.1801801073773205e7 0.0
1.1801801073773205e7 8.130274356622659e6 0.0
0.0 0.0 0.0

-1.308859542958734e6 1.2698952287186496e7 0.0
1.2698952287186496e7 274996.12450320605 0.0
0.0 0.0 0.0

-337944.9651316891 1.4267522449850174e7 0.0
1.4267522449850174e7 -4.593497197153128e6 0.0
0.0 0.0 0.0

4.577521012926115e6 6.588231844056786e6 0.0
6.588231844056786e6 -1.2957091052601885e7 0.0
0.0 0.0 0.0

-2.391036955867168e6 1.157537515124545e7 0.0
1.157537515124545e7 -2.676687995167488e6 0.0
0.0 0.0 0.0

-1.1981073933430833e6 1.046536816561208e7 0.0
1.046536816561208e7 -5.089072201570018e6 0.0
0.0 0.0 0.0

-5.903730786503112e6 1.4436697248756522e7 0.0
1.4436697248756522e7 2.2242668812832213e6 0.0
0.0 0.0 0.0

137749.5041225953 1.6806652113834105e7 0.0
1.6806652113834105e7 -5.157437328745455e6 0.0
0.0 0.0 0.0

-5.8739473342971e6 1.3620664524251575e7 0.0
1.3620664524251575e7 5.95199878483668e6 0.0
0.0 0.0 0.0

-2.9752420390547174e6 1.0532675583171736e7 0.0
1.0532675583171736e7 3.85064251099033e6 0.0
0.0 0.0 0.0

-7.076096660547679e6 1.2861935960369667e7 0.0
1.2861935960369667e7 3.475455139970246e7 0.0
0.0 0.0 0.0

-1.123750865409558e7 1.7287874477671277e7 0.0
1.7287874477671277e7 8.695290020465685e6 0.0
0.0 0.0 0.0

1.0933045671068402e6 1.2054481839220356e7 0.0
1.2054481839220356e7 -6.5184339147080295e6 0.0
0.0 0.0 0.0

3.015958544466285e6 8.278988353344097e6 0.0
8.278988353344097e6 -1.113663145472416e7 0.0
0.0 0.0 0.0

3.325918909058333e6 8.002975489652039e6 0.0
8.002975489652039e6 -1.163864806205406e7 0.0
0.0 0.0 0.0

3.685360808931625e6 5.7630359948649835e6 0.0
5.7630359948649835e6 -1.0125934473036416e7 0.0
0.0 0.0 0.0

-6.473464961074684e6 1.2619858330162458e7 0.0
1.2619858330162458e7 6.481558081571057e6 0.0
0.0 0.0 0.0

3.374450406522861e6 5.71798083141015e6 0.0
5.71798083141015e6 -1.0021456388230197e7 0.0
0.0 0.0 0.0

-9.429519798829213e6 -1.3303953292595535e6 0.0
-1.3303953292595535e6 1.2752510885938346e7 0.0
0.0 0.0 0.0

-4.806907747550804e6 1.2666192903820574e7 0.0
1.2666192903820574e7 6.019550589343313e6 0.0
0.0 0.0 0.0

-681651.3020951012 7.294840341634656e6 0.0
7.294840341634656e6 -3.3968009776070337e6 0.0
0.0 0.0 0.0

-5.068107545556535e6 1.5075369993929302e7 0.0
1.5075369993929302e7 -585218.1667330955 0.0
0.0 0.0 0.0

-4.88814944907292e6 1.6637112528814893e7 0.0
1.6637112528814893e7 677069.9861707047 0.0
0.0 0.0 0.0

-180426.4489398724 1.0560032409468709e7 0.0
1.0560032409468709e7 -978048.2307983461 0.0
0.0 0.0 0.0

2.9106077842277028e6 9.5938382919551e6 0.0
9.5938382919551e6 -1.5823273202730997e7 0.0
0.0 0.0 0.0

5.028604279412179e6 6.020511953772254e6 0.0
6.020511953772254e6 -1.3688088319009297e7 0.0
0.0 0.0 0.0

-2.4633947686494235e7 1.9267699158272304e7 0.0
1.9267699158272304e7 2.8454493340739124e6 0.0
0.0 0.0 0.0

3.3219245679005487e6 1.349779226968829e7 0.0
1.349779226968829e7 5.521820332924433e6 0.0
0.0 0.0 0.0

-5.069639924738828e6 1.6311403488652835e7 0.0
1.6311403488652835e7 1.0745352467865383e6 0.0
0.0 0.0 0.0

-2.888862413776367e6 1.1839144601339882e7 0.0
1.1839144601339882e7 4.506515343975965e6 0.0
0.0 0.0 0.0

-212389.82115912647 1.1380990544047063e7 0.0
1.1380990544047063e7 -654105.5290736041 0.0
0.0 0.0 0.0

-1.2214736941457223e7 1.354350009675775e6 0.0
1.354350009675775e6 1.7055156708059344e7 0.0
0.0 0.0 0.0

-9.068226693076652e6 1.4267619860506704e7 0.0
1.4267619860506704e7 7.631132282402885e6 0.0
0.0 0.0 0.0

-1.2776259893234726e6 8.785257546639467e6 0.0
8.785257546639467e6 -3.6312659903538986e6 0.0
0.0 0.0 0.0

-7.990688247624544e6 295473.37856302725 0.0
295473.37856302725 8.14337781784297e6 0.0
0.0 0.0 0.0

-9.921841188709557e6 7.810240125587604e6 0.0
7.810240125587604e6 4.8269544957602255e7 0.0
0.0 0.0 0.0

-419655.30278035044 1.2664469440405456e7 0.0
1.2664469440405456e7 -6.083176815045617e6 0.0
0.0 0.0 0.0

1.6144232356090285e6 5.915818076664003e6 0.0
5.915818076664003e6 -5.493824753754185e6 0.0
0.0 0.0 0.0

-1.3400974867475454e7 2.9784290959261605e6 0.0
2.9784290959261605e6 2.7606047052656546e7 0.0
0.0 0.0 0.0

4.369080837222565e6 5.7462678572078515e6 0.0
5.7462678572078515e6 -1.1772031202855337e7 0.0
0.0 0.0 0.0

-4.0783937887777896e6 1.108638632628672e7 0.0
1.108638632628672e7 1.9781008699090374e6 0.0
0.0 0.0 0.0

-1.0951336913674882e7 1.4441603087999064e7 0.0
1.4441603087999064e7 4.385418214405941e6 0.0
0.0 0.0 0.0

-191177.8784842589 1.1924856111729804e7 0.0
1.1924856111729804e7 -7.65271007790631e6 0.0
0.0 0.0 0.0

-2.9998373398170047e6 2.580990811154533e6 0.0
2.580990811154533e6 3.013169725447814e6 0.0
0.0 0.0 0.0

-1.9046595603410972e6 1.2992508766919818e7 0.0
1.2992508766919818e7 186599.58729348623 0.0
0.0 0.0 0.0

2.1631489604165466e6 1.6057630268262938e7 0.0
1.6057630268262938e7 -6.455820965062163e6 0.0
0.0 0.0 0.0

-201420.8619461609 2.838486736080726e6 0.0
2.838486736080726e6 -156394.26567963933 0.0
0.0 0.0 0.0

3.8849790737050814e6 1.0384244641536964e7 0.0
1.0384244641536964e7 -822043.4668992776 0.0
0.0 0.0 0.0

-4.428616741523687e6 2.0773856055904288e7 0.0
2.0773856055904288e7 -6.84952438229763e6 0.0
0.0 0.0 0.0

3.9430739227319225e6 5.77453793071979e6 0.0
5.77453793071979e6 -1.0916861792296056e7 0.0
0.0 0.0 0.0

-3.8319079875214575e6 9.950877558251884e6 0.0
9.950877558251884e6 585339.6952559082 0.0
0.0 0.0 0.0

1.6309966951718682e6 1.3631517319579061e7 0.0
1.3631517319579061e7 9.111164675360445e6 0.0
0.0 0.0 0.0

1.9997716235577308e7 6.251743601987163e6 0.0
6.251743601987163e6 -4.339035932883131e6 0.0
0.0 0.0 0.0

-1.501476956746871e7 1.5005180390352188e7 0.0
1.5005180390352188e7 6.121108349605693e6 0.0
0.0 0.0 0.0

-5.750086471572523e6 1.2505920090236766e7 0.0
1.2505920090236766e7 3.14765007628854e6 0.0
0.0 0.0 0.0

2.713805993613094e6 9.460687215197101e6 0.0
9.460687215197101e6 -1.4539819373357005e7 0.0
0.0 0.0 0.0

-9.036939195451276e6 1.3188321424242305e7 0.0
1.3188321424242305e7 7.1842050824918905e6 0.0
0.0 0.0 0.0

2.530247093378341e6 1.010401005283186e7 0.0
1.010401005283186e7 1.3323017785019616e6 0.0
0.0 0.0 0.0

-1.1391160848784572e7 3.1696170859560333e6 0.0
3.1696170859560333e6 3.590903512635583e7 0.0
0.0 0.0 0.0

-4.324420965814238e6 1.3170505970035082e7 0.0
1.3170505970035082e7 4.510892229401444e6 0.0
0.0 0.0 0.0

-441560.3550704201 1.1484960910639126e7 0.0
1.1484960910639126e7 2.1821160924349586e6 0.0
0.0 0.0 0.0

-2.1169914326328393e6 1.0882915247841442e7 0.0
1.0882915247841442e7 -3.3143372208233285e6 0.0
0.0 0.0 0.0

2.894654206683157e6 1.2084325705607329e7 0.0
1.2084325705607329e7 -5.226869714532347e6 0.0
0.0 0.0 0.0

1.2331227838842168e6 1.2215560538163465e7 0.0
1.2215560538163465e7 -5.841452862275883e6 0.0
0.0 0.0 0.0

-1.806473757445735e6 8.502237422906097e6 0.0
8.502237422906097e6 -2.35002580029909e6 0.0
0.0 0.0 0.0

-2.825584705996769e6 1.2505608930429095e7 0.0
1.2505608930429095e7 4.812047510839203e6 0.0
0.0 0.0 0.0

-248684.2762466836 1.1601992832670148e7 0.0
1.1601992832670148e7 -906411.6095382655 0.0
0.0 0.0 0.0

-236253.73703354236 1.1299587529165614e7 0.0
1.1299587529165614e7 -2.199772029508436e6 0.0
0.0 0.0 0.0

-110812.65881763352 1.0648606009275349e7 0.0
1.0648606009275349e7 -1.033910177553318e7 0.0
0.0 0.0 0.0

-6.456532137440341e6 1.3860413267455e7 0.0
1.3860413267455e7 5.24250764731566e6 0.0
0.0 0.0 0.0

-7.766653606651491e6 1.3156916820751648e7 0.0
1.3156916820751648e7 1.19581761787449e6 0.0
0.0 0.0 0.0

-9.238796805734338e6 1.477637004815204e7 0.0
1.477637004815204e7 7.7495141690543555e6 0.0
0.0 0.0 0.0

-2.278827006500947e6 1.1974360391828058e7 0.0
1.1974360391828058e7 2.8276381536189085e6 0.0
0.0 0.0 0.0

3.7003771379784034e6 6.639731321299916e6 0.0
6.639731321299916e6 -1.102716325660194e7 0.0
0.0 0.0 0.0

-1.0553532873670273e6 1.2515237986581406e7 0.0
1.2515237986581406e7 -6.305725664478809e6 0.0
0.0 0.0 0.0

-1.3399452936984336e6 1.7287103988426656e7 0.0
1.7287103988426656e7 -5.892603797975735e6 0.0
0.0 0.0 0.0

-9.121479493233763e6 -1.2251987327903712e6 0.0
-1.2251987327903712e6 1.0512128411132904e7 0.0
0.0 0.0 0.0

-2.7644470713685574e6 1.2869596178943172e7 0.0
1.2869596178943172e7 2.369377258857213e6 0.0
0.0 0.0 0.0

1.2823759341448173e6 1.0063087681617968e7 0.0
1.0063087681617968e7 -2.21229800785031e6 0.0
0.0 0.0 0.0

2.2369548797879005e6 1.3225049266745785e7 0.0
1.3225049266745785e7 -5.4567211970380135e6 0.0
0.0 0.0 0.0

-9.941039202792665e6 2.603985208272396e6 0.0
2.603985208272396e6 1.2275423325414993e7 0.0
0.0 0.0 0.0

-292581.78406289266 1.1898775899559181e7 0.0
1.1898775899559181e7 2.770676665623315e6 0.0
0.0 0.0 0.0

-6.411209037354394e6 1.0370725481515003e7 0.0
1.0370725481515003e7 2.0132805470988117e6 0.0
0.0 0.0 0.0

1.3642659165723766e6 1.0785870068174442e7 0.0
1.0785870068174442e7 -1.0299279342042785e7 0.0
0.0 0.0 0.0

-5.821389580753365e6 1.8902985534937974e7 0.0
1.8902985534937974e7 1.3848747414936372e6 0.0
0.0 0.0 0.0

-9.888392708099382e6 1.5093442854958177e7 0.0
1.5093442854958177e7 8.140398066196192e6 0.0
0.0 0.0 0.0

-6.743146221456937e6 4.221492233867881e6 0.0
4.221492233867881e6 8.637403287740296e6 0.0
0.0 0.0 0.0

-2.5929693652902106e6 1.3441257525848655e7 0.0
1.3441257525848655e7 -452768.50466604397 0.0
0.0 0.0 0.0

-9.668297713947637e6 1.5701772791179515e7 0.0
1.5701772791179515e7 7.846661026643705e6 0.0
0.0 0.0 0.0

-9.118776777967744e6 1.5249847971583074e7 0.0
1.5249847971583074e7 7.528671668331029e6 0.0
0.0 0.0 0.0

-292643.4696318593 1.1117968561999625e7 0.0
1.1117968561999625e7 1.313772808999756e6 0.0
0.0 0.0 0.0

1.3344211946545145e6 9.142015269674225e6 0.0
9.142015269674225e6 -7.840465922154582e6 0.0
0.0 0.0 0.0

1.2134652141814187e7 1.3865694693401419e7 0.0
1.3865694693401419e7 1.500104628975709e6 0.0
0.0 0.0 0.0

-1.9583215585134916e7 -3.9185666090070326e6 0.0
-3.9185666090070326e6 8.943167718811896e6 0.0
0.0 0.0 0.0

-1.0748639334767798e7 1.2520332925575534e7 0.0
1.2520332925575534e7 6.1318417494398225e6 0.0
0.0 0.0 0.0

4.0316184032429736e6 5.767877263122226e6 0.0
5.767877263122226e6 -1.1749835819758449e7 0.0
0.0 0.0 0.0

-2.2510169151259204e6 1.1692162318845643e7 0.0
1.1692162318845643e7 -4.046871096350286e6 0.0
0.0 0.0 0.0

-8.773368956311459e6 1.3723636342764545e7 0.0
1.3723636342764545e7 7.371333309978293e6 0.0
0.0 0.0 0.0

-1.0522903334897224e7 -45403.43610063205 0.0
-45403.43610063205 1.323892399107998e7 0.0
0.0 0.0 0.0

2.1689728281364148e6 8.10808407568646e6 0.0
8.10808407568646e6 -1.0473274152500307e7 0.0
0.0 0.0 0.0

-1.2310817067855306e6 1.0150686018519565e7 0.0
1.0150686018519565e7 -8.869538990346571e6 0.0
0.0 0.0 0.0

2.441829013499385e6 1.0903723344713794e7 0.0
1.0903723344713794e7 767098.1399007563 0.0
0.0 0.0 0.0

-1.944616814029441e7 1.6128062491606109e7 0.0
1.6128062491606109e7 7.503762669912145e6 0.0
0.0 0.0 0.0

-1.7751338347170688e6 8.025244965363344e6 0.0
8.025244965363344e6 -1.9761889677319378e6 0.0
0.0 0.0 0.0

-7.411087875773808e6 1.4067318437620709e7 0.0
1.4067318437620709e7 6.342189533837196e6 0.0
0.0 0.0 0.0

-6.5358835624145735e6 1.4344203803639565e7 0.0
1.4344203803639565e7 5.074771187181504e6 0.0
0.0 0.0 0.0

-9.160831523254596e6 85500.41680530735 0.0
85500.41680530735 1.5536655046455465e7 0.0
0.0 0.0 0.0

-700603.6853756779 3.1948557385376226e6 0.0
3.1948557385376226e6 -132306.80401043035 0.0
0.0 0.0 0.0

826195.577548638 9.353304998150388e6 0.0
9.353304998150388e6 -8.176120298246561e6 0.0
0.0 0.0 0.0

-9.778865567949492e6 360988.94625094254 0.0
360988.94625094254 1.2958860580261353e7 0.0
0.0 0.0 0.0

36279.201227698475 1.0992402276003007e7 0.0
1.0992402276003007e7 -7.977080736470987e6 0.0
0.0 0.0 0.0

3.1269473366856882e6 1.1270582111752337e7 0.0
1.1270582111752337e7 -3.9860213203806337e6 0.0
0.0 0.0 0.0

374513.7048757854 6.937701460841598e6 0.0
6.937701460841598e6 -5.470159221395587e6 0.0
0.0 0.0 0.0

-8.537565367192134e6 1.2528793009727893e7 0.0
1.2528793009727893e7 6.175227668195788e6 0.0
0.0 0.0 0.0

-6.3226624248000365e6 1.4568657124045007e7 0.0
1.4568657124045007e7 3.270632723125776e6 0.0
0.0 0.0 0.0

-513217.9579041664 7.459558212482865e6 0.0
7.459558212482865e6 -1.7107262246903065e6 0.0
0.0 0.0 0.0

-594642.8194831682 1.0889289926241705e7 0.0
1.0889289926241705e7 -1.9821428316324032e6 0.0
0.0 0.0 0.0

1.0523488627234418e6 9.393540330603678e6 0.0
9.393540330603678e6 -7.431748076142239e6 0.0
0.0 0.0 0.0

-1.3791987785439952e6 1.0182091247010512e7 0.0
1.0182091247010512e7 -8.896521117302367e6 0.0
0.0 0.0 0.0

-5.581399195290115e6 1.475100955752519e6 0.0
1.475100955752519e6 4.961624189942515e6 0.0
0.0 0.0 0.0

-2.1700286794001954e6 8.210302234130499e6 0.0
8.210302234130499e6 -389719.39300715365 0.0
0.0 0.0 0.0

-1.6113673741863864e6 1.3377410253754925e7 0.0
1.3377410253754925e7 -4.5554975407444155e6 0.0
0.0 0.0 0.0

1.921457781884282e6 6.597553289604083e6 0.0
6.597553289604083e6 -8.023499875373212e6 0.0
0.0 0.0 0.0

-1.6863486840148658e7 1.00095934931505e7 0.0
1.00095934931505e7 4.301568754071128e6 0.0
0.0 0.0 0.0

2.5899773349263794e6 1.1911663120478665e7 0.0
1.1911663120478665e7 -5.088554503647281e6 0.0
0.0 0.0 0.0

7.156370408073878e6 1.0325090159411151e7 0.0
1.0325090159411151e7 -4.332963656438472e6 0.0
0.0 0.0 0.0

-1.3609161530251533e7 1.5665326889646804e7 0.0
1.5665326889646804e7 1.0122531301190633e7 0.0
0.0 0.0 0.0

-2.606072011418713e6 3.7054003638393846e6 0.0
3.7054003638393846e6 2.1503124332482684e6 0.0
0.0 0.0 0.0

-1.5486649207496191e6 1.0638615888638629e7 0.0
1.0638615888638629e7 -4.485142868040263e6 0.0
0.0 0.0 0.0

-3.4454744102104525e6 1.293492642332871e7 0.0
1.293492642332871e7 -234174.01019144966 0.0
0.0 0.0 0.0

-1.465031708565651e7 1.19248037443277e7 0.0
1.19248037443277e7 9.010398905920427e6 0.0
0.0 0.0 0.0

-1.1256183663047967e6 1.1155655302629864e7 0.0
1.1155655302629864e7 -1.1441725148799976e7 0.0
0.0 0.0 0.0

-293756.61471403274 1.1470544351550885e7 0.0
1.1470544351550885e7 526167.9556848723 0.0
0.0 0.0 0.0

-206438.7010911191 1.045600832673916e7 0.0
1.045600832673916e7 -9.706465839532861e6 0.0
0.0 0.0 0.0

-1.4500379816994987e7 1.3574611093867052e7 0.0
1.3574611093867052e7 1.0172135769556846e7 0.0
0.0 0.0 0.0

-4.358241724502348e6 1.3952715784453845e7 0.0
1.3952715784453845e7 -1.400028283131167e6 0.0
0.0 0.0 0.0

-2.727371914751649e6 1.2921192309538025e7 0.0
1.2921192309538025e7 329044.98968840984 0.0
0.0 0.0 0.0

2.900408885406348e6 8.643067949310025e6 0.0
8.643067949310025e6 -1.1385985644034736e7 0.0
0.0 0.0 0.0

-1.1099368712420434e7 869539.184164227 0.0
869539.184164227 1.5748427761094728e7 0.0
0.0 0.0 0.0

-2.16004699757702e6 1.0145555670568585e7 0.0
1.0145555670568585e7 -2.829257522615411e6 0.0
0.0 0.0 0.0

2.2808576226594076e6 1.2490386203700963e7 0.0
1.2490386203700963e7 -4.696754045889657e6 0.0
0.0 0.0 0.0

-827284.4488303284 1.0898200980629662e7 0.0
1.0898200980629662e7 -1.0729697805212593e7 0.0
0.0 0.0 0.0

-8.506245803770415e6 1.3912611759069655e7 0.0
1.3912611759069655e7 6.067782082672965e6 0.0
0.0 0.0 0.0

-1.1761795698783856e6 1.9870941569888853e7 0.0
1.9870941569888853e7 -9.30780635009967e6 0.0
0.0 0.0 0.0

-2.0582518813986408e6 1.3173445068336757e7 0.0
1.3173445068336757e7 -446561.81759417825 0.0
0.0 0.0 0.0

-9.318372310820673e6 1.4073053891350446e7 0.0
1.4073053891350446e7 6.802436439574062e6 0.0
0.0 0.0 0.0

-8.021464610719731e6 1.0137649420295857e7 0.0
1.0137649420295857e7 8.556248841541056e6 0.0
0.0 0.0 0.0

1.2360274166261558e6 1.2027862366878536e7 0.0
1.2027862366878536e7 -5.484424445159732e6 0.0
0.0 0.0 0.0

-6.631290055325755e6 1.3954024373305572e7 0.0
1.3954024373305572e7 5.525601361758887e6 0.0
0.0 0.0 0.0

-393655.6796599473 1.0883464533307757e7 0.0
1.0883464533307757e7 -1.1025727821738841e7 0.0
0.0 0.0 0.0

3.2671272832045564e6 6.167071452463969e6 0.0
6.167071452463969e6 -1.051748591444792e7 0.0
0.0 0.0 0.0

-863638.9153314931 1.0729132507147977e7 0.0
1.0729132507147977e7 -1.0129880432824764e7 0.0
0.0 0.0 0.0

-7.599061955708111e6 1.4940229995989213e7 0.0
1.4940229995989213e7 6.1576037657587435e6 0.0
0.0 0.0 0.0

-989360.5422977128 1.1187822994363872e7 0.0
1.1187822994363872e7 -3.2978683750882507e6 0.0
0.0 0.0 0.0

418060.2571838718 9.16699909779748e6 0.0
9.16699909779748e6 1.3935341974679772e6 0.0
0.0 0.0 0.0

-1.0881158915529374e7 7.5868769707632335e6 0.0
7.5868769707632335e6 1.174644476305642e7 0.0
0.0 0.0 0.0

-1.2465869030756997e6 8.417599494305173e6 0.0
8.417599494305173e6 -2.255328687054117e6 0.0
0.0 0.0 0.0

1.5260385566332047e6 1.170860440932904e7 0.0
1.170860440932904e7 8.883095244852599e6 0.0
0.0 0.0 0.0

-1.0577065307316428e7 -2.168652993930137e6 0.0
-2.168652993930137e6 1.4195550448773384e7 0.0
0.0 0.0 0.0

4.4596994241439095e6 6.120842319216296e6 0.0
6.120842319216296e6 -1.3647420722300813e7 0.0
0.0 0.0 0.0

196657.44126427313 1.0941467093518717e7 0.0
1.0941467093518717e7 -1.058492120476946e7 0.0
0.0 0.0 0.0

-8.735715611139858e6 1.4309690984741589e7 0.0
1.4309690984741589e7 6.831730265211441e6 0.0
0.0 0.0 0.0

7.791507415495512e6 1.0216593042390818e7 0.0
1.0216593042390818e7 -32605.908340234775 0.0
0.0 0.0 0.0

-1.0079084168424688e7 1.788883878853418e6 0.0
1.788883878853418e6 1.1346257291073205e7 0.0
0.0 0.0 0.0

-1.3762509423857823e7 1.5663999807358027e7 0.0
1.5663999807358027e7 3.7710939559847834e6 0.0
0.0 0.0 0.0

-3.2503325356206275e6 1.2522246856009696e7 0.0
1.2522246856009696e7 2.335065685542603e6 0.0
0.0 0.0 0.0

-1.6184333622497298e7 1.2577490403325714e7 0.0
1.2577490403325714e7 1.036593337410441e7 0.0
0.0 0.0 0.0

4.567509579480626e6 6.35875077380559e6 0.0
6.35875077380559e6 -1.4197684598409902e7 0.0
0.0 0.0 0.0

-4.06006637114303e6 1.6374955591250649e7 0.0
1.6374955591250649e7 -230835.86219761218 0.0
0.0 0.0 0.0

-1.271867228991644e7 6.738794432013352e6 0.0
6.738794432013352e6 2.3827179924989045e7 0.0
0.0 0.0 0.0

-6.627852601527093e6 1.375019082871388e7 0.0
1.375019082871388e7 6.139009883117899e6 0.0
0.0 0.0 0.0

-795716.390540156 1.1050362374066914e7 0.0
1.1050362374066914e7 -2.843768355720213e6 0.0
0.0 0.0 0.0

39169.217692345264 5.584225067850692e6 0.0
5.584225067850692e6 -2.0794109940945958e6 0.0
0.0 0.0 0.0

-1.1659751539091407e6 1.1506295502002452e7 0.0
1.1506295502002452e7 2.457262183182982e6 0.0
0.0 0.0 0.0

-3.6165576506854845e6 1.30098083467882e7 0.0
1.30098083467882e7 3.5102922216579746e6 0.0
0.0 0.0 0.0

470604.19621060695 7.278390023743255e6 0.0
7.278390023743255e6 -4.9457742112833755e6 0.0
0.0 0.0 0.0

-1.6011858232350943e6 1.2511985901394041e7 0.0
1.2511985901394041e7 -200760.260146351 0.0
0.0 0.0 0.0

2.108975959137841e6 1.2162220539052121e7 0.0
1.2162220539052121e7 -4.72534724825598e6 0.0
0.0 0.0 0.0

-1.5975009711171612e6 8.499523441233352e6 0.0
8.499523441233352e6 -1.6178552844836162e6 0.0
0.0 0.0 0.0

450881.6085918038 1.0670778011635972e7 0.0
1.0670778011635972e7 -1.0978529606964163e7 0.0
0.0 0.0 0.0

-3.8198077120429315e6 9.10887028007883e6 0.0
9.10887028007883e6 927260.5370999593 0.0
0.0 0.0 0.0

-7.208487270684272e6 1.017798872645738e7 0.0
1.017798872645738e7 9.665319226126537e6 0.0
0.0 0.0 0.0

-5.161346750651012e6 1.1806996160853482e6 0.0
1.1806996160853482e6 6.592385197228495e6 0.0
0.0 0.0 0.0

-4.974099546971286e6 1.2651333932009622e7 0.0
1.2651333932009622e7 1.2683013847932355e6 0.0
0.0 0.0 0.0

-6.835024944265235e6 1.430789634369424e7 0.0
1.430789634369424e7 6.104332920554601e6 0.0
0.0 0.0 0.0

-1.5624288290870544e6 1.6998783801960073e7 0.0
1.6998783801960073e7 -3.388172562445974e6 0.0
0.0 0.0 0.0

-1.0233268936020073e7 950247.8170343506 0.0
950247.8170343506 1.2116916116219526e7 0.0
0.0 0.0 0.0

-48450.28225978743 1.0882915781774467e7 0.0
1.0882915781774467e7 -1.1305390319163881e7 0.0
0.0 0.0 0.0

-6.8547409435488265e6 1.4238449579512257e7 0.0
1.4238449579512257e7 6.1888029026569165e6 0.0
0.0 0.0 0.0

1.3330845770466616e6 1.092904812169704e7 0.0
1.092904812169704e7 -6.166073242094782e6 0.0
0.0 0.0 0.0

-1.593653512202459e6 8.9778243349298e6 0.0
8.9778243349298e6 -3.1506070428464725e6 0.0
0.0 0.0 0.0

-1.442679553965467e6 3.489418473588797e6 0.0
3.489418473588797e6 857630.3217184413 0.0
0.0 0.0 0.0

-9.377983868799265e6 1.4428311944665302e7 0.0
1.4428311944665302e7 7.376972840089098e6 0.0
0.0 0.0 0.0

-4.196088573296996e6 1.2057279154103259e7 0.0
1.2057279154103259e7 1.2662187295690323e6 0.0
0.0 0.0 0.0

-939139.617198844 1.1111050295154477e7 0.0
1.1111050295154477e7 4.675064606638087e6 0.0
0.0 0.0 0.0

1.763002400378965e6 6.647676066156299e6 0.0
6.647676066156299e6 -3.7187393076033513e6 0.0
0.0 0.0 0.0

1.8381505895049698e6 9.84687873586209e6 0.0
9.84687873586209e6 -670782.3797119177 0.0
0.0 0.0 0.0

4.111886735857459e6 8.614898246142326e6 0.0
8.614898246142326e6 -1.754942535326871e7 0.0
0.0 0.0 0.0

-6.744830824219309e6 1.846111408627695e7 0.0
1.846111408627695e7 148134.33212034497 0.0
0.0 0.0 0.0

-5.014424144997733e6 1.3410013682686152e7 0.0
1.3410013682686152e7 4.996326201162061e6 0.0
0.0 0.0 0.0

-2.4415649087600084e6 5.683359709400137e6 0.0
5.683359709400137e6 66410.94445588405 0.0
0.0 0.0 0.0

-598278.0645075612 1.2391203375069607e7 0.0
1.2391203375069607e7 -1.4716961976723652e6 0.0
0.0 0.0 0.0

3.4832941894433517e6 9.379737884059524e6 0.0
9.379737884059524e6 -1.6115253628907174e7 0.0
0.0 0.0 0.0

807241.8327902881 1.1050582099685797e7 0.0
1.1050582099685797e7 -9.809207974029241e6 0.0
0.0 0.0 0.0

-1.224537451940403e7 1.560341708345483e7 0.0
1.560341708345483e7 9.026040548000261e6 0.0
0.0 0.0 0.0

-921450.4908889398 1.1172709655556772e7 0.0
1.1172709655556772e7 -3.071501756554147e6 0.0
0.0 0.0 0.0

-3.1764815850078184e6 1.3333708173136305e7 0.0
1.3333708173136305e7 -594966.8767800747 0.0
0.0 0.0 0.0

-5.603532645502509e6 1.2269598742719147e7 0.0
1.2269598742719147e7 4.000631244115561e6 0.0
0.0 0.0 0.0

-951363.445958606 1.0778960691038689e7 0.0
1.0778960691038689e7 -4.590420340733477e6 0.0
0.0 0.0 0.0

2.2217146176120406e6 1.075286027702749e7 0.0
1.075286027702749e7 7043.540269156103 0.0
0.0 0.0 0.0

-5.320595061930041e6 1.2093089623929918e7 0.0
1.2093089623929918e7 2.549928519756457e6 0.0
0.0 0.0 0.0

-1.4244855841228722e6 1.2590079513598453e7 0.0
1.2590079513598453e7 841233.4956388752 0.0
0.0 0.0 0.0

-1.248280919753472e7 3.706498901106413e6 0.0
3.706498901106413e6 2.8729290507948294e7 0.0
0.0 0.0 0.0

-1.1041570894763165e6 8.909340430631788e6 0.0
8.909340430631788e6 -3.0599015268706563e6 0.0
0.0 0.0 0.0

-1.6963018936958616e6 9.9327319625089e6 0.0
9.9327319625089e6 -8.584094734225193e6 0.0
0.0 0.0 0.0

-610788.5521198777 1.2261812409333305e7 0.0
1.2261812409333305e7 -6.912716251197615e6 0.0
0.0 0.0 0.0

-3.5206057644133978e6 1.0666839022904726e7 0.0
1.0666839022904726e7 -1.1001922172862813e6 0.0
0.0 0.0 0.0

-3.941548018154771e6 1.274460307121359e7 0.0
1.274460307121359e7 3.5014277406961448e6 0.0
0.0 0.0 0.0

-403492.19758609886 1.0786279783317182e7 0.0
1.0786279783317182e7 -1.3449739844839436e6 0.0
0.0 0.0 0.0

-6.724014282147271e6 1.441184268079997e7 0.0
1.441184268079997e7 5.444418418050427e6 0.0
0.0 0.0 0.0

-1.2808247288276213e6 1.2851178660952773e7 0.0
1.2851178660952773e7 -195747.7643252782 0.0
0.0 0.0 0.0

-1.2310926338421525e7 -3.484478652992154e6 0.0
-3.484478652992154e6 2.7963800829794306e7 0.0
0.0 0.0 0.0

-8.267487185929375e6 4.521486175185765e6 0.0
4.521486175185765e6 8.345877280898496e6 0.0
0.0 0.0 0.0

1.307362589291591e6 1.1226268807882551e7 0.0
1.1226268807882551e7 -5.8646234547170205e6 0.0
0.0 0.0 0.0

-1.3656179865159884e7 1.0708376292597773e7 0.0
1.0708376292597773e7 6.4691352471052725e6 0.0
0.0 0.0 0.0

-2.5203632368665603e6 3.2637275473750536e6 0.0
3.2637275473750536e6 1.5152232559016417e6 0.0
0.0 0.0 0.0

-1.2834690552177131e7 1.1353549084169562e6 0.0
1.1353549084169562e6 2.061864787975409e7 0.0
0.0 0.0 0.0

-929761.9392612185 -2.367984805725376e6 0.0
-2.367984805725376e6 539711.592941108 0.0
0.0 0.0 0.0

-2.6057271298307306e6 1.2188371460023418e6 0.0
1.2188371460023418e6 938572.6415863683 0.0
0.0 0.0 0.0

1.2142852648707572e6 8.581531315063287e6 0.0
8.581531315063287e6 -8.145158263079695e6 0.0
0.0 0.0 0.0

-4.76415044972346e6 1.2156051792470232e7 0.0
1.2156051792470232e7 1.2070250583123856e6 0.0
0.0 0.0 0.0

-4.978725667514678e6 9.747651159692192e6 0.0
9.747651159692192e6 -61146.26698881271 0.0
0.0 0.0 0.0

-4.760207868554598e6 1.2688545270128543e7 0.0
1.2688545270128543e7 5.020035334939747e6 0.0
0.0 0.0 0.0

109733.74427839741 1.0499862106785472e7 0.0
1.0499862106785472e7 -9.588142624061208e6 0.0
0.0 0.0 0.0

-2.269758610327891e6 1.0106022851944635e7 0.0
1.0106022851944635e7 4.385824933541297e6 0.0
0.0 0.0 0.0

-2.249598704004689e6 1.095676162673881e7 0.0
1.095676162673881e7 -1.0061642289924461e7 0.0
0.0 0.0 0.0

-2.347690663726538e6 1.2504605213312946e7 0.0
1.2504605213312946e7 606394.2048465087 0.0
0.0 0.0 0.0

3.2041425989523893e6 1.0010551763724875e7 0.0
1.0010551763724875e7 -1.831529896152068e7 0.0
0.0 0.0 0.0

3.1884971052987054e6 9.341197603749018e6 0.0
9.341197603749018e6 -1.4820088298027813e7 0.0
0.0 0.0 0.0

-2.531299818664309e6 1.3258514738292383e7 0.0
1.3258514738292383e7 -386149.1441953184 0.0
0.0 0.0 0.0

-8.874741609680787e6 1.4631878416766133e7 0.0
1.4631878416766133e7 4.9618419767922945e6 0.0
0.0 0.0 0.0

-7.533094236846874e6 1.367714511774461e7 0.0
1.367714511774461e7 6.416552988631651e6 0.0
0.0 0.0 0.0

-2.6082038841806697e6 8.284821226180636e6 0.0
8.284821226180636e6 -449647.9733984843 0.0
0.0 0.0 0.0

-2.7629714072408048e6 2.617455502687999e6 0.0
2.617455502687999e6 3.4455516280807666e6 0.0
0.0 0.0 0.0

1.5480657516971633e6 1.0294879755333876e7 0.0
1.0294879755333876e7 -5.618183022720164e6 0.0
0.0 0.0 0.0

3.264220046561516e6 1.2399383323807267e7 0.0
1.2399383323807267e7 -5.515696059691871e6 0.0
0.0 0.0 0.0

-1.1054870925681666e7 7.534170344081535e6 0.0
7.534170344081535e6 2.4991421476511374e7 0.0
0.0 0.0 0.0

-1.7074673789353874e6 1.2311329357886009e7 0.0
1.2311329357886009e7 2.0837750276936009e6 0.0
0.0 0.0 0.0

-7.314399680609984e6 1.4295083248887723e7 0.0
1.4295083248887723e7 6.122143133340139e6 0.0
0.0 0.0 0.0

-1.1333643890004565e6 9.383981832533864e6 0.0
9.383981832533864e6 -7.644335900906214e6 0.0
0.0 0.0 0.0

-1.2506322014019284e7 4.160738271651793e6 0.0
4.160738271651793e6 1.9101169324845064e7 0.0
0.0 0.0 0.0

-1.796775463752415e6 1.223791324573739e7 0.0
1.223791324573739e7 906917.8435279164 0.0
0.0 0.0 0.0

-1.2870036885466818e6 1.215289607816948e7 0.0
1.215289607816948e7 -6.197832365292976e6 0.0
0.0 0.0 0.0

1.1743032090108139e6 1.0634483672276625e7 0.0
1.0634483672276625e7 -1.0825263176847557e7 0.0
0.0 0.0 0.0

3.3525791443675486e6 8.795121286601966e6 0.0
8.795121286601966e6 -1.4921706079752538e7 0.0
0.0 0.0 0.0

2.763023258069913e6 8.848881522967571e6 0.0
8.848881522967571e6 -1.2889805615765588e7 0.0
0.0 0.0 0.0

-1.5334934775030543e6 1.2236958527835345e7 0.0
1.2236958527835345e7 -1.3611240405605342e7 0.0
0.0 0.0 0.0

-6.672500062762434e6 1.4174925242085015e7 0.0
1.4174925242085015e7 5.4816463233721815e6 0.0
0.0 0.0 0.0

-3.9031036899480745e6 1.3376373178510567e7 0.0
1.3376373178510567e7 896723.1953894501 0.0
0.0 0.0 0.0

906954.2741271732 1.1255320470207699e7 0.0
1.1255320470207699e7 -7.748294249598309e6 0.0
0.0 0.0 0.0

5.228716897304287e6 1.27782782950331e7 0.0
1.27782782950331e7 -6.0758213305331515e6 0.0
0.0 0.0 0.0

-1.1291058569619875e7 -748189.1062065901 0.0
-748189.1062065901 2.4131898141654428e7 0.0
0.0 0.0 0.0

2.98184432314445e6 9.674566221215807e6 0.0
9.674566221215807e6 -1.6546992390784563e7 0.0
0.0 0.0 0.0

3.175532921000818e6 8.983809939566238e6 0.0
8.983809939566238e6 -1.2678007366550598e7 0.0
0.0 0.0 0.0

-1.177782776147254e7 3.765366854504165e6 0.0
3.765366854504165e6 3.2551741034594633e7 0.0
0.0 0.0 0.0

4.493272845222475e6 1.1278483835109897e7 0.0
1.1278483835109897e7 1.316091383421666e6 0.0
0.0 0.0 0.0

-1.1206153625307243e7 2.5310652563780863e6 0.0
2.5310652563780863e6 2.2363655133091375e7 0.0
0.0 0.0 0.0

579498.7014974632 5.599186197305199e6 0.0
5.599186197305199e6 -2.941701550426576e6 0.0
0.0 0.0 0.0

-7.153004497869381e6 1.4676475669496905e7 0.0
1.4676475669496905e7 5.367933651724527e6 0.0
0.0 0.0 0.0

1.8816714765388272e6 8.371283883059827e6 0.0
8.371283883059827e6 -1.0011347730505522e7 0.0
0.0 0.0 0.0

-9.14799812757526e6 1.4996805413375875e7 0.0
1.4996805413375875e7 7.428814221628241e6 0.0
0.0 0.0 0.0

-1.0998096783937344e7 5.92727298640377e6 0.0
5.92727298640377e6 1.75611587082924e7 0.0
0.0 0.0 0.0

-6.177392304294571e6 4.05993414159464e6 0.0
4.05993414159464e6 5.356761687499281e6 0.0
0.0 0.0 0.0

-3.5067257704619886e6 1.66683862687228e7 0.0
1.66683862687228e7 -984339.276920863 0.0
0.0 0.0 0.0

-4.337080213694156e6 1.3048692534407504e7 0.0
1.3048692534407504e7 4.989140819184095e6 0.0
0.0 0.0 0.0

-3.6759102551670605e6 1.4163151441169262e7 0.0
1.4163151441169262e7 -1.0767760746427914e6 0.0
0.0 0.0 0.0

-5.602439923660381e6 1.3479705377621764e7 0.0
1.3479705377621764e7 4.722693740115255e6 0.0
0.0 0.0 0.0

239882.0108485613 1.0901418418577138e7 0.0
1.0901418418577138e7 -1.0079776605575874e7 0.0
0.0 0.0 0.0

136621.41472903965 1.3326415117626706e7 0.0
1.3326415117626706e7 -4.978092959906235e6 0.0
0.0 0.0 0.0

-1.7212837364217197e6 1.2902834516797077e7 0.0
1.2902834516797077e7 9.420283409862783e6 0.0
0.0 0.0 0.0

-4.579686456782448e6 -1.5348615574063328e6 0.0
-1.5348615574063328e6 8.413892145711284e6 0.0
0.0 0.0 0.0

-3.537645524181415e6 3.0267195008351137e6 0.0
3.0267195008351137e6 -683149.3868151911 0.0
0.0 0.0 0.0

-764841.009735864 1.0752634384254286e7 0.0
1.0752634384254286e7 -2.5494698197792512e6 0.0
0.0 0.0 0.0

873250.6008392116 1.1169426540371586e7 0.0
1.1169426540371586e7 2.9108354702119227e6 0.0
0.0 0.0 0.0

-6.61175032667776e6 1.9042052522347078e7 0.0
1.9042052522347078e7 -1.3001246703193928e6 0.0
0.0 0.0 0.0

1.8050369389316076e6 5.514343926821584e6 0.0
5.514343926821584e6 -6.763295118863379e6 0.0
0.0 0.0 0.0

-9.213293658632819e6 1.5884903859780353e7 0.0
1.5884903859780353e7 7.525011504705099e6 0.0
0.0 0.0 0.0

-2.110187743601088e7 2.097783138289777e6 0.0
2.097783138289777e6 1.1311937873253312e7 0.0
0.0 0.0 0.0

-588837.8065005918 1.2402793889122283e7 0.0
1.2402793889122283e7 -6.743186984918195e6 0.0
0.0 0.0 0.0

-1.1467047582875704e7 7.236012886113124e6 0.0
7.236012886113124e6 1.4622848039111849e7 0.0
0.0 0.0 0.0

1.4463727267879364e6 1.0965495212067483e7 0.0
1.0965495212067483e7 -6.108826057534632e6 0.0
0.0 0.0 0.0

-4.554251088771627e6 1.3023383154909603e7 0.0
1.3023383154909603e7 4.13479573608765e6 0.0
0.0 0.0 0.0

-4.387856571525692e6 1.1928505273171384e7 0.0
1.1928505273171384e7 654668.4013206754 0.0
0.0 0.0 0.0

1.3480992198142465e6 1.1554938835742746e7 0.0
1.1554938835742746e7 -6.445427371748986e6 0.0
0.0 0.0 0.0

4.777739059957484e6 6.12731941116809e6 0.0
6.12731941116809e6 -1.4466290232499648e7 0.0
0.0 0.0 0.0

-1.096990608425504e6 7.462286849694642e6 0.0
7.462286849694642e6 -3.656635670505075e6 0.0
0.0 0.0 0.0

2.4149153151849285e6 1.3611050904592084e7 0.0
1.3611050904592084e7 -5.349980446415657e6 0.0
0.0 0.0 0.0

710944.14253313 1.138081183904301e7 0.0
1.138081183904301e7 -8.139160069400997e6 0.0
0.0 0.0 0.0

-338762.91897815093 1.0330814680240253e7 0.0
1.0330814680240253e7 3.632713978926246e6 0.0
0.0 0.0 0.0

2.79994956763763e6 9.558557437329644e6 0.0
9.558557437329644e6 -1.5157104308388429e7 0.0
0.0 0.0 0.0

-3.3150497254613647e6 1.2288553378265575e7 0.0
1.2288553378265575e7 -2.0082489591411112e6 0.0
0.0 0.0 0.0

-3.608782937140011e6 1.225613534157573e7 0.0
1.225613534157573e7 8.084619447119059e6 0.0
0.0 0.0 0.0

1.5169031505841943e6 1.6780347641455114e7 0.0
1.6780347641455114e7 -8.017979498719623e6 0.0
0.0 0.0 0.0

2.975217159764776e6 9.237798005132373e6 0.0
9.237798005132373e6 -1.370712116416773e7 0.0
0.0 0.0 0.0

-1.7391721627668858e7 1.0441134721327899e6 0.0
1.0441134721327899e6 1.027425520015695e7 0.0
0.0 0.0 0.0

-1.6568046423686142e6 1.1934544652742915e7 0.0
1.1934544652742915e7 3.008250572789224e6 0.0
0.0 0.0 0.0

-9.669194298580177e6 1.53508849342656e7 0.0
1.53508849342656e7 7.787281434309137e6 0.0
0.0 0.0 0.0

-2.0224552988042976e6 1.1769134474960895e7 0.0
1.1769134474960895e7 -3.3054264448581655e6 0.0
0.0 0.0 0.0

-6.987686754448924e6 1.4428159796468481e7 0.0
1.4428159796468481e7 6.172396348727309e6 0.0
0.0 0.0 0.0

-1.3301957289097203e7 6.725622422557565e6 0.0
6.725622422557565e6 2.6456715997858275e7 0.0
0.0 0.0 0.0

423698.3298622207 9.79673334769919e6 0.0
9.79673334769919e6 -6.566687344894756e6 0.0
0.0 0.0 0.0

-5.303997588572926e6 1.680140133511586e7 0.0
1.680140133511586e7 -884921.4175540926 0.0
0.0 0.0 0.0

-1.2564584254879304e6 7.955672699956697e6 0.0
7.955672699956697e6 -1.899829459795333e6 0.0
0.0 0.0 0.0

-1.8181430439840864e7 1.4720683781356607e6 0.0
1.4720683781356607e6 9.47605503996737e6 0.0
0.0 0.0 0.0

-2.4939397873548637e6 9.040915022329263e6 0.0
9.040915022329263e6 -1.3483920118692636e6 0.0
0.0 0.0 0.0

-1.0125855901712498e7 -101297.89513852546 0.0
-101297.89513852546 1.1331479955787499e7 0.0
0.0 0.0 0.0

-1.0275731298422083e7 8.0060718957308605e6 0.0
8.0060718957308605e6 1.5714370362975083e7 0.0
0.0 0.0 0.0

-7.970556230740266e6 1.5142763551467685e7 0.0
1.5142763551467685e7 6.518776793185078e6 0.0
0.0 0.0 0.0

-1.0287422716563793e7 1.588034419254936e7 0.0
1.588034419254936e7 8.21072918990739e6 0.0
0.0 0.0 0.0

-1.1173926744066939e7 5.265475257816832e6 0.0
5.265475257816832e6 2.049853078348636e7 0.0
0.0 0.0 0.0

349976.4785654186 8.812743499216106e6 0.0
8.812743499216106e6 -5.559995665939491e6 0.0
0.0 0.0 0.0

2.881953164993032e6 1.123999943761346e7 0.0
1.123999943761346e7 -4.0413238021735563e6 0.0
0.0 0.0 0.0

-738647.9119358058 8.0565820054481765e6 0.0
8.0565820054481765e6 -6.033498268857606e6 0.0
0.0 0.0 0.0

-520301.9715424833 4.712069318891638e6 0.0
4.712069318891638e6 1.1601210770053333e6 0.0
0.0 0.0 0.0

-7.834516695398282e6 1.5177027960827129e7 0.0
1.5177027960827129e7 6.442496145283876e6 0.0
0.0 0.0 0.0

-9.30010667292068e6 8.664882768756138e6 0.0
8.664882768756138e6 1.0424698505638693e7 0.0
0.0 0.0 0.0

2.6103372940097526e6 9.509850317968182e6 0.0
9.509850317968182e6 -1.411674656560082e7 0.0
0.0 0.0 0.0

-1.12058358129349e7 1.173157593000968e7 0.0
1.173157593000968e7 4.986206063094491e6 0.0
0.0 0.0 0.0

-4.145147361367364e6 1.439451318246471e7 0.0
1.439451318246471e7 -312059.95388568647 0.0
0.0 0.0 0.0

4.932413225889045e6 7.03303490751637e6 0.0
7.03303490751637e6 -1.6637897792667056e7 0.0
0.0 0.0 0.0

-3.505114192644923e6 1.1760716409187064e7 0.0
1.1760716409187064e7 5.23324016767774e6 0.0
0.0 0.0 0.0

-4.604416401352818e6 1.2145662254539466e7 0.0
1.2145662254539466e7 1.992207014558313e6 0.0
0.0 0.0 0.0

-129311.8332679749 1.240655037249497e7 0.0
1.240655037249497e7 -6.717998914579954e6 0.0
0.0 0.0 0.0

-9.94294502504449e6 1.4792809233747637e7 0.0
1.4792809233747637e7 7.861909180060564e6 0.0
0.0 0.0 0.0

-4.1726055784589387e6 1.2204197604942426e7 0.0
1.2204197604942426e7 1.1136258976698373e6 0.0
0.0 0.0 0.0

-8.46245018278801e6 1.5258838871094082e7 0.0
1.5258838871094082e7 6.96202220782166e6 0.0
0.0 0.0 0.0

-523874.24101788015 7.265787665321477e6 0.0
7.265787665321477e6 -2.774774640400469e6 0.0
0.0 0.0 0.0

298681.80714227795 1.1926004140209386e7 0.0
1.1926004140209386e7 2.756413532768181e6 0.0
0.0 0.0 0.0

666717.6866608639 1.1226390782413349e7 0.0
1.1226390782413349e7 -9.28334563491089e6 0.0
0.0 0.0 0.0

-1.9739526887139315e6 8.943752860700836e6 0.0
8.943752860700836e6 -1.229592391970698e6 0.0
0.0 0.0 0.0

36022.13695290731 1.1881282143252507e7 0.0
1.1881282143252507e7 -7.826895661009754e6 0.0
0.0 0.0 0.0

1.7122597788675372e6 6.829698443483467e6 0.0
6.829698443483467e6 -7.647974233449483e6 0.0
0.0 0.0 0.0

-842870.7711134688 1.2538873627125107e7 0.0
1.2538873627125107e7 7.059023513719312e6 0.0
0.0 0.0 0.0

-8.307348436155739e6 -3.5754665721527603e6 0.0
-3.5754665721527603e6 1.3654740801568879e7 0.0
0.0 0.0 0.0

505666.24706593616 1.217605453952103e7 0.0
1.217605453952103e7 3.194315237037504e6 0.0
0.0 0.0 0.0

-7.020972114602794e6 1.4437162119727122e7 0.0
1.4437162119727122e7 5.44288738948681e6 0.0
0.0 0.0 0.0

1.0732038819565559e6 1.108962784315487e7 0.0
1.108962784315487e7 -9.860743462423384e6 0.0
0.0 0.0 0.0

-4.4162644129393995e6 1.5994310665093686e7 0.0
1.5994310665093686e7 153099.76054994878 0.0
0.0 0.0 0.0

-421721.2436494438 1.220915521512321e7 0.0
1.220915521512321e7 -1.3216348397637845e6 0.0
0.0 0.0 0.0

2.4207233351093233e6 8.135611335303253e6 0.0
8.135611335303253e6 -9.638739649061956e6 0.0
0.0 0.0 0.0

-4.45755250694196e6 1.4332867679627145e7 0.0
1.4332867679627145e7 -1.3474475452997817e6 0.0
0.0 0.0 0.0

507227.7290903409 1.1423572222579923e7 0.0
1.1423572222579923e7 -8.847146476804985e6 0.0
0.0 0.0 0.0

-1.877655326506195e6 4.640411016958915e6 0.0
4.640411016958915e6 722611.3214974006 0.0
0.0 0.0 0.0

-4.2940215975470375e6 1.3307431682366671e7 0.0
1.3307431682366671e7 5.335325293851935e6 0.0
0.0 0.0 0.0

-4.349514932022141e6 1.3259542399092494e7 0.0
1.3259542399092494e7 4.1201044519650815e6 0.0
0.0 0.0 0.0

-7.282902500885863e6 1.4714415765343968e7 0.0
1.4714415765343968e7 5.790246839903003e6 0.0
0.0 0.0 0.0

-1.762947100695167e6 1.1881800681690013e7 0.0
1.1881800681690013e7 1.9372738754605367e6 0.0
0.0 0.0 0.0

32728.213625326287 5.953727760596492e6 0.0
5.953727760596492e6 -2.176954177787259e6 0.0
0.0 0.0 0.0

-1.2152594247572439e7 3.3308265900732707e6 0.0
3.3308265900732707e6 1.635702869384247e7 0.0
0.0 0.0 0.0

-267310.11199947447 1.2117338042962752e7 0.0
1.2117338042962752e7 -7.298026548326264e6 0.0
0.0 0.0 0.0

2.5643354201006293e6 1.1160382986194683e7 0.0
1.1160382986194683e7 -1.7065504589664463e7 0.0
0.0 0.0 0.0

-314815.4810739126 6.427308246873627e6 0.0
6.427308246873627e6 -2.265122351706779e6 0.0
0.0 0.0 0.0

-4.759651199996673e6 2.0369630652913754e6 0.0
2.0369630652913754e6 3.958767911442434e6 0.0
0.0 0.0 0.0

-4.2538126264113095e6 9.059288159723075e6 0.0
9.059288159723075e6 1.6273751429177204e6 0.0
0.0 0.0 0.0

-4.545631314316667e6 1.4271657634790301e7 0.0
1.4271657634790301e7 314133.48588411603 0.0
0.0 0.0 0.0

485754.282544733 1.0926007875377111e7 0.0
1.0926007875377111e7 -1.2887817488903973e7 0.0
0.0 0.0 0.0

1.8707100140100676e6 6.600669415287994e6 0.0
6.600669415287994e6 -6.834869376333799e6 0.0
0.0 0.0 0.0

-6.842182757853588e6 1.4644885934799835e7 0.0
1.4644885934799835e7 5.395218680037141e6 0.0
0.0 0.0 0.0

-3.682504623682453e6 1.4528880341460083e7 0.0
1.4528880341460083e7 -1.0611634670979558e6 0.0
0.0 0.0 0.0

-1.5268450421071334e7 1.692939652430264e7 0.0
1.692939652430264e7 9.906882505100142e6 0.0
0.0 0.0 0.0

-7.021638634271959e6 1.468959693921963e7 0.0
1.468959693921963e7 5.804228188519485e6 0.0
0.0 0.0 0.0

-1.562281147194768e7 1.4175216440863913e7 0.0
1.4175216440863913e7 7.292535256466279e6 0.0
0.0 0.0 0.0

-1.3599339519171314e6 1.2955017427405063e7 0.0
1.2955017427405063e7 -470659.28329655854 0.0
0.0 0.0 0.0

2.0027079855359057e6 1.1012937869543692e7 0.0
1.1012937869543692e7 -1.6168349601641316e7 0.0
0.0 0.0 0.0

-2.1316156040283176e6 8.599340149553716e6 0.0
8.599340149553716e6 -1.7414053864286859e6 0.0
0.0 0.0 0.0

-1.0819207958580071e7 -3.618004330282664e6 0.0
-3.618004330282664e6 1.743689087187511e7 0.0
0.0 0.0 0.0

-1.2843720778422784e7 -260162.86708179064 0.0
-260162.86708179064 2.2978651159558397e7 0.0
0.0 0.0 0.0

4.0422276640460175e6 6.980151779809504e6 0.0
6.980151779809504e6 -1.3519600890362514e7 0.0
0.0 0.0 0.0

-5.700213677924937e6 1.3553628862730734e7 0.0
1.3553628862730734e7 5.371829680400311e6 0.0
0.0 0.0 0.0

-1.0952413680935713e7 7.517186471676394e6 0.0
7.517186471676394e6 2.264194432310552e7 0.0
0.0 0.0 0.0

295598.57627590373 1.1651915546730377e7 0.0
1.1651915546730377e7 -8.345380985355971e6 0.0
0.0 0.0 0.0

-1.0804477471800813e7 9.614333717975466e6 0.0
9.614333717975466e6 1.9335559945824105e7 0.0
0.0 0.0 0.0

-4.845041116307826e6 1.4170090318900976e7 0.0
1.4170090318900976e7 -656504.8465772427 0.0
0.0 0.0 0.0

-6.809973217940995e6 1.6856927314792518e7 0.0
1.6856927314792518e7 1.8211033767071282e6 0.0
0.0 0.0 0.0

-338750.2740613362 1.2104840552631548e7 0.0
1.2104840552631548e7 -1.7284895974273803e6 0.0
0.0 0.0 0.0

-4.637800132417886e6 3.137073343982608e6 0.0
3.137073343982608e6 4.353090631719882e6 0.0
0.0 0.0 0.0

-1.7045671749400063e6 1.180809872444217e7 0.0
1.180809872444217e7 2.547706502917031e6 0.0
0.0 0.0 0.0

-3.5951549482258367e6 8.97284239082822e6 0.0
8.97284239082822e6 1.7037183339486865e6 0.0
0.0 0.0 0.0

3.9833613416234143e6 6.218066143050848e6 0.0
6.218066143050848e6 -1.2373296324573185e7 0.0
0.0 0.0 0.0

1.1312015914937125e6 1.2962785856918678e7 0.0
1.2962785856918678e7 -5.394364805028951e6 0.0
0.0 0.0 0.0

-1.1392517228074573e7 5.867097508823209e6 0.0
5.867097508823209e6 8.033091930280223e6 0.0
0.0 0.0 0.0

-9.166454434547527e6 1.1762658990559334e7 0.0
1.1762658990559334e7 942342.6138448981 0.0
0.0 0.0 0.0

-7.0659852228427045e6 1.4894968407678105e7 0.0
1.4894968407678105e7 4.847014495201411e6 0.0
0.0 0.0 0.0

-276316.35442444123 8.475623997048218e6 0.0
8.475623997048218e6 -5.334659879020723e6 0.0
0.0 0.0 0.0

-2.241536657597302e6 1.270094111490059e7 0.0
1.270094111490059e7 -63401.298841999844 0.0
0.0 0.0 0.0

-6.739950517559544e6 1.6395315559413113e7 0.0
1.6395315559413113e7 3.839844686264884e6 0.0
0.0 0.0 0.0

-4.0616742823579675e6 1.1628282384434117e7 0.0
1.1628282384434117e7 6.078001136815374e6 0.0
0.0 0.0 0.0

-2.0628907707248596e6 1.1972859031421185e7 0.0
1.1972859031421185e7 2.1741250195136406e6 0.0
0.0 0.0 0.0

308527.6236084772 8.342121684315059e6 0.0
8.342121684315059e6 -5.143383454192312e6 0.0
0.0 0.0 0.0

-8.625607966145735e6 1.6531723159856834e7 0.0
1.6531723159856834e7 7.005264271523543e6 0.0
0.0 0.0 0.0

-9.418457813979022e6 -1.7215062933156327e6 0.0
-1.7215062933156327e6 1.2004843470339336e7 0.0
0.0 0.0 0.0

3.4719016381792035e6 6.366425555468105e6 0.0
6.366425555468105e6 -1.020137715688536e7 0.0
0.0 0.0 0.0

-5.936100889662446e6 1.4696285994379694e7 0.0
1.4696285994379694e7 3.0315420512790754e6 0.0
0.0 0.0 0.0

881872.3851901889 1.1284300837466642e7 0.0
1.1284300837466642e7 -9.375141216527019e6 0.0
0.0 0.0 0.0

1.218559886381346e6 5.9504686017553145e6 0.0
5.9504686017553145e6 -2.6920740078582354e6 0.0
0.0 0.0 0.0

266261.2564437308 7.101707864031488e6 0.0
7.101707864031488e6 -5.521539349339681e6 0.0
0.0 0.0 0.0

-7.349397034294015e6 1.344482821516833e7 0.0
1.344482821516833e7 5.071987385680592e6 0.0
0.0 0.0 0.0

2.1149094819694883e6 8.696530821838018e6 0.0
8.696530821838018e6 -9.460341537890038e6 0.0
0.0 0.0 0.0

35819.36873219721 1.2102794373690253e7 0.0
1.2102794373690253e7 5.821508233871237e6 0.0
0.0 0.0 0.0

-946236.5233597489 7.246601380073892e6 0.0
7.246601380073892e6 -2.696997407792515e6 0.0
0.0 0.0 0.0

-62363.0750466109 6.135192063324507e6 0.0
6.135192063324507e6 -2.66686559643623e6 0.0
0.0 0.0 0.0

-2.7001144952666205e6 1.6845393893544156e7 0.0
1.6845393893544156e7 -1.9379815110738724e6 0.0
0.0 0.0 0.0

-9.064867008649353e6 -651314.6180857407 0.0
-651314.6180857407 1.2028133763538659e7 0.0
0.0 0.0 0.0

-223811.5313726056 1.0172522009712031e7 0.0
1.0172522009712031e7 -5.4696381528882105e6 0.0
0.0 0.0 0.0

1.2513625898805857e6 9.273361905845888e6 0.0
9.273361905845888e6 -1.487135593629757e6 0.0
0.0 0.0 0.0

1.682086785239553e6 1.5081449915743805e7 0.0
1.5081449915743805e7 -6.402252042511313e6 0.0
0.0 0.0 0.0

241965.57470489293 1.1091065129436297e7 0.0
1.1091065129436297e7 -7.283428963423158e6 0.0
0.0 0.0 0.0

1.0441016817298529e6 1.2833008039404366e7 0.0
1.2833008039404366e7 4.99972116728997e6 0.0
0.0 0.0 0.0

-7.074305786413289e6 1.4240580686693806e7 0.0
1.4240580686693806e7 6.194337211994749e6 0.0
0.0 0.0 0.0

-9.989482327510186e6 -2.5319956622031196e6 0.0
-2.5319956622031196e6 1.6094496961168608e7 0.0
0.0 0.0 0.0

-5.721505453273814e6 1.4878429196081672e7 0.0
1.4878429196081672e7 2.679904770232987e6 0.0
0.0 0.0 0.0

-2.8142475679477616e6 1.2219707674076468e7 0.0
1.2219707674076468e7 4.924711114445896e6 0.0
0.0 0.0 0.0

1.256852595809597e6 8.301106360565859e6 0.0
8.301106360565859e6 -7.921107937010974e6 0.0
0.0 0.0 0.0

4.8241512766048955e6 6.291652725300274e6 0.0
6.291652725300274e6 -1.3363070287472758e7 0.0
0.0 0.0 0.0

-4.370822681733941e6 1.2065785479288522e7 0.0
1.2065785479288522e7 489096.2973449449 0.0
0.0 0.0 0.0

-2.895526157107802e6 6.083098027805967e6 0.0
6.083098027805967e6 1.5813592107229829e6 0.0
0.0 0.0 0.0

-1.0320557123908468e7 7.856568058394256e6 0.0
7.856568058394256e6 1.3333558518155366e7 0.0
0.0 0.0 0.0

1.1491453217212907e6 1.0927220998669779e7 0.0
1.0927220998669779e7 -1.0283602134817002e7 0.0
0.0 0.0 0.0

2.0118667409454817e6 1.0629362572671928e7 0.0
1.0629362572671928e7 -1.5649069052378248e7 0.0
0.0 0.0 0.0

-5.886213891018808e6 1.5285077137169546e7 0.0
1.5285077137169546e7 2.8156241789353285e6 0.0
0.0 0.0 0.0

-1.4781627627710146e6 1.2007633644570533e7 0.0
1.2007633644570533e7 1.2603560330208894e6 0.0
0.0 0.0 0.0

-2.1265703847601414e7 2.329310457791052e6 0.0
2.329310457791052e6 1.0550205027864164e7 0.0
0.0 0.0 0.0

1.2464153574673962e6 1.3232041617254155e7 0.0
1.3232041617254155e7 6.287482516451975e6 0.0
0.0 0.0 0.0

-1.9469998535162352e7 9.836517105568463e6 0.0
9.836517105568463e6 8.900118023360856e6 0.0
0.0 0.0 0.0

2.428687652487664e6 8.51603398220203e6 0.0
8.51603398220203e6 -1.1501385296774657e7 0.0
0.0 0.0 0.0

4.277209645262949e6 4.8574918824626e6 0.0
4.8574918824626e6 -399118.5313291531 0.0
0.0 0.0 0.0

-5.028733539591516e6 -3.721433957120504e6 0.0
-3.721433957120504e6 4.1378399297352745e6 0.0
0.0 0.0 0.0

-1.9711618216797335e6 5.974700334964503e6 0.0
5.974700334964503e6 668709.7147817829 0.0
0.0 0.0 0.0

-9.995280313153226e6 -1.3296438267402851e6 0.0
-1.3296438267402851e6 1.5484215484315753e7 0.0
0.0 0.0 0.0

-9.922694713781646e6 -209851.16046900928 0.0
-209851.16046900928 1.2380287805187752e7 0.0
0.0 0.0 0.0

484640.90093863895 1.1898229587196747e7 0.0
1.1898229587196747e7 -7.877334751279135e6 0.0
0.0 0.0 0.0

-1.7735941528826365e6 8.103729737369753e6 0.0
8.103729737369753e6 -5.911980721377383e6 0.0
0.0 0.0 0.0

-2663.9713647352364 1.0741907949181926e7 0.0
1.0741907949181926e7 -8879.879339537662 0.0
0.0 0.0 0.0

1.6437014480647398e6 9.501054362146312e6 0.0
9.501054362146312e6 -3.0627475992112625e6 0.0
0.0 0.0 0.0

-6.061848390614878e6 1.5671373768908339e7 0.0
1.5671373768908339e7 3.0015642303403467e6 0.0
0.0 0.0 0.0

-4.300637066720436e6 5.500798581783797e6 0.0
5.500798581783797e6 3.9600023240962494e6 0.0
0.0 0.0 0.0

-669822.4473151609 1.1372110296416642e7 0.0
1.1372110296416642e7 -6.84195033446767e6 0.0
0.0 0.0 0.0

-6.011042277400622e6 1.285280676196829e7 0.0
1.285280676196829e7 3.5725761820401135e6 0.0
0.0 0.0 0.0

3.342432008190997e6 7.859852387848172e6 0.0
7.859852387848172e6 -1.3009885270167097e7 0.0
0.0 0.0 0.0

-9.304073540928293e6 -621782.078684194 0.0
-621782.078684194 1.3156890906550774e7 0.0
0.0 0.0 0.0

-5.266817861792051e6 1.4684000568203187e7 0.0
1.4684000568203187e7 1.8609659650263805e6 0.0
0.0 0.0 0.0

-1.3225191503199888e6 1.2083800973481022e7 0.0
1.2083800973481022e7 626034.2134432581 0.0
0.0 0.0 0.0

-1.1733780003695327e6 1.2256304196976004e7 0.0
1.2256304196976004e7 74422.72620910965 0.0
0.0 0.0 0.0

-4.4927392113021845e6 1.3886924930104975e7 0.0
1.3886924930104975e7 724425.3796331368 0.0
0.0 0.0 0.0

402569.8348105776 1.1488158521898402e7 0.0
1.1488158521898402e7 2.3784164425327047e6 0.0
0.0 0.0 0.0

-3.112093986809109e6 1.3729015437616656e7 0.0
1.3729015437616656e7 340223.0124274569 0.0
0.0 0.0 0.0

-1.1685661658733394e7 7.061778296114769e6 0.0
7.061778296114769e6 1.5995379482217057e7 0.0
0.0 0.0 0.0

-1.0573783426438801e7 -3.3220861148481388e6 0.0
-3.3220861148481388e6 1.5780258606622294e7 0.0
0.0 0.0 0.0

1.649741869128332e6 8.0735337631093e6 0.0
8.0735337631093e6 -7.548459847655019e6 0.0
0.0 0.0 0.0

4.279848233758936e6 6.689810185864454e6 0.0
6.689810185864454e6 -1.3886190833405182e7 0.0
0.0 0.0 0.0

-439577.20918071945 1.1469406914556999e7 0.0
1.1469406914556999e7 -6.133942649506162e6 0.0
0.0 0.0 0.0

1.0276551550991478e6 1.1069033618591087e7 0.0
1.1069033618591087e7 2.2483963835920743e6 0.0
0.0 0.0 0.0

1.6679420947380648e6 6.323574584094098e6 0.0
6.323574584094098e6 -7.280474710666439e6 0.0
0.0 0.0 0.0

-1.2765537493266119e6 1.0936864904639091e7 0.0
1.0936864904639091e7 -1.0641924575247018e7 0.0
0.0 0.0 0.0

2.066167672027208e6 1.0364331115291579e7 0.0
1.0364331115291579e7 -1.5043624013479998e7 0.0
0.0 0.0 0.0

-3.4312668441837127e6 9.117485936828962e6 0.0
9.117485936828962e6 322561.6279903671 0.0
0.0 0.0 0.0

-5.737814489516523e6 1.3741525394201783e7 0.0
1.3741525394201783e7 5.337512877477817e6 0.0
0.0 0.0 0.0

-4.406232407226016e6 1.4177678559645833e7 0.0
1.4177678559645833e7 1.145799672562199e6 0.0
0.0 0.0 0.0

-1.0746913530993689e7 -3.024622016640227e6 0.0
-3.024622016640227e6 2.2993980174264405e7 0.0
0.0 0.0 0.0

2.1813785593224075e6 1.0197479277450142e7 0.0
1.0197479277450142e7 -1.4529070368142461e7 0.0
0.0 0.0 0.0

-1.1817113820519656e7 6.749081728758781e6 0.0
6.749081728758781e6 1.7253643152362186e7 0.0
0.0 0.0 0.0

-1.0661871839212622e6 1.240376660980664e7 0.0
1.240376660980664e7 -389159.2977093394 0.0
0.0 0.0 0.0

-6.493375552120584e6 1.542710475120482e7 0.0
1.542710475120482e7 2.6194372107213936e6 0.0
0.0 0.0 0.0

-9.202339723235948e6 1.3284005403843697e7 0.0
1.3284005403843697e7 5.826473185771262e6 0.0
0.0 0.0 0.0

-1.0619220720482241e7 6.837492079397984e6 0.0
6.837492079397984e6 1.3738169665199574e7 0.0
0.0 0.0 0.0

-1.205346425360251e6 9.129946924415942e6 0.0
9.129946924415942e6 -7.553708080101457e6 0.0
0.0 0.0 0.0

144940.126841682 1.1350340205450999e7 0.0
1.1350340205450999e7 1.6081555823594271e6 0.0
0.0 0.0 0.0

3.7517811524872044e6 7.17297647647897e6 0.0
7.17297647647897e6 -1.3148692296579137e7 0.0
0.0 0.0 0.0

582903.2312744881 6.81947594413055e6 0.0
6.81947594413055e6 -5.917542196742394e6 0.0
0.0 0.0 0.0

-1.123384998646618e7 4.337156885147592e6 0.0
4.337156885147592e6 1.7617703878102098e7 0.0
0.0 0.0 0.0

-4.029571864523131e6 1.2607416567667846e7 0.0
1.2607416567667846e7 4.0181369926651316e6 0.0
0.0 0.0 0.0

-1.4884090868349507e7 1.0173695775218228e7 0.0
1.0173695775218228e7 5.574296852721473e6 0.0
0.0 0.0 0.0

1.3203969685897278e6 1.045865513650966e7 0.0
1.045865513650966e7 -1.0892066417178407e7 0.0
0.0 0.0 0.0

2.929546184451608e6 8.44374395784728e6 0.0
8.44374395784728e6 -1.2759271671614248e7 0.0
0.0 0.0 0.0

2.236130987219709e6 1.0078538616358798e7 0.0
1.0078538616358798e7 -1.4034326052648533e7 0.0
0.0 0.0 0.0

1.7990216760828865e6 5.812405794211205e6 0.0
5.812405794211205e6 -5.584907349115394e6 0.0
0.0 0.0 0.0

-1.93890373132199e6 1.1992418706624726e7 0.0
1.1992418706624726e7 -3.5701837385028237e6 0.0
0.0 0.0 0.0

-537096.3190895403 1.3380877223024223e7 0.0
1.3380877223024223e7 -5.296345754717948e6 0.0
0.0 0.0 0.0

-1.5949138042310297e7 1.428050561139763e7 0.0
1.428050561139763e7 1.1992319924275357e7 0.0
0.0 0.0 0.0

543683.4989207883 5.898807367874786e6 0.0
5.898807367874786e6 -3.738163377940261e6 0.0
0.0 0.0 0.0

812113.6633887384 1.1481691296378314e7 0.0
1.1481691296378314e7 -8.899545074278176e6 0.0
0.0 0.0 0.0

-8.0363492686089575e6 9.005928311619045e6 0.0
9.005928311619045e6 1.098145979388379e7 0.0
0.0 0.0 0.0

-7.8559177617622465e6 1.4911784174982891e6 0.0
1.4911784174982891e6 9.628909951820495e6 0.0
0.0 0.0 0.0

3.755347518565599e6 6.430977415471753e6 0.0
6.430977415471753e6 -1.1980916430765629e7 0.0
0.0 0.0 0.0

-8.367006445391712e6 2.449004413051242e6 0.0
2.449004413051242e6 1.0618799919876726e7 0.0
0.0 0.0 0.0

-9.883253391022589e6 797614.2689142103 0.0
797614.2689142103 1.3482869725575885e7 0.0
0.0 0.0 0.0

-2.7014112259457093e6 5.506935073244069e6 0.0
5.506935073244069e6 1.8198983473433887e6 0.0
0.0 0.0 0.0

-4.943125741316482e6 1.3240728784598941e7 0.0
1.3240728784598941e7 5.383642093434753e6 0.0
0.0 0.0 0.0

-1.246827616029657e6 8.092612820369978e6 0.0
8.092612820369978e6 -2.0029568068299694e6 0.0
0.0 0.0 0.0

9.027129674928589e6 5.936320014080628e6 0.0
5.936320014080628e6 -2.4407338720685034e6 0.0
0.0 0.0 0.0

-1.4198131954365756e7 -4.482263286259744e6 0.0
-4.482263286259744e6 7.888349540935586e6 0.0
0.0 0.0 0.0

1.4530118467581882e6 6.713767733966616e6 0.0
6.713767733966616e6 -6.133797608070651e6 0.0
0.0 0.0 0.0

3.50658066807477e6 8.194639593643302e6 0.0
8.194639593643302e6 -1.237638891252213e7 0.0
0.0 0.0 0.0

3.904919069234345e6 7.519639851222455e6 0.0
7.519639851222455e6 -1.2492895676607972e7 0.0
0.0 0.0 0.0

1.366753833632136e6 1.3849826531776353e6 0.0
1.3849826531776353e6 138538.63159732707 0.0
0.0 0.0 0.0

-1.0390435946422399e6 -1.573389033079261e6 0.0
-1.573389033079261e6 1.1969506091861266e6 0.0
0.0 0.0 0.0

-213246.28171811067 1.0850440909126224e7 0.0
1.0850440909126224e7 -1.0692340747043695e7 0.0
0.0 0.0 0.0

4.06985135193769e6 6.641547828024318e6 0.0
6.641547828024318e6 -1.324619425118516e7 0.0
0.0 0.0 0.0

-1.1852676145111129e7 1.3839214953072617e7 0.0
1.3839214953072617e7 2.7574597196317785e6 0.0
0.0 0.0 0.0

-7.437799517632854e6 1.1293426590486785e7 0.0
1.1293426590486785e7 7.626226576508438e6 0.0
0.0 0.0 0.0

-4.924931204789321e6 1.4449202207553497e7 0.0
1.4449202207553497e7 1.0649175823591747e6 0.0
0.0 0.0 0.0

154436.71656914282 1.1343744047131995e7 0.0
1.1343744047131995e7 2.0192755063985689e6 0.0
0.0 0.0 0.0

2.7126181333204648e6 8.2702181257021045e6 0.0
8.2702181257021045e6 2.6748925542119183e6 0.0
0.0 0.0 0.0

-8.581118894516744e6 1.41359763821927e7 0.0
1.41359763821927e7 3.8466859915035726e6 0.0
0.0 0.0 0.0

-1.1375644374443127e7 293483.6377054395 0.0
293483.6377054395 1.9368158870358407e7 0.0
0.0 0.0 0.0

-5.129779597212169e6 1.350763060182037e7 0.0
1.350763060182037e7 4.784168598199333e6 0.0
0.0 0.0 0.0

-110889.32715686993 1.3367128048152883e7 0.0
1.3367128048152883e7 -5.434487806936104e6 0.0
0.0 0.0 0.0

-7.589169081345877e6 9.63751575716211e6 0.0
9.63751575716211e6 1.0305229966143591e7 0.0
0.0 0.0 0.0

-5.43902060398774e6 326061.3216354152 0.0
326061.3216354152 6.348297890743131e6 0.0
0.0 0.0 0.0

-6.154780810165351e6 1.4652320274381148e7 0.0
1.4652320274381148e7 2.318656909743658e6 0.0
0.0 0.0 0.0

2.742708591607474e6 8.285401414359488e6 0.0
8.285401414359488e6 -1.204979821449744e7 0.0
0.0 0.0 0.0

-3.5627535773782646e6 1.4894127679105608e7 0.0
1.4894127679105608e7 -1.2271616470211039e6 0.0
0.0 0.0 0.0

4.275458146034854e6 6.928134812576896e6 0.0
6.928134812576896e6 -1.2761095038198965e7 0.0
0.0 0.0 0.0

-528201.6150693179 1.1802912594242657e7 0.0
1.1802912594242657e7 3.835550704389084e6 0.0
0.0 0.0 0.0

-2.845097433814359e6 1.2005128707420617e7 0.0
1.2005128707420617e7 -2.6559510137060843e6 0.0
0.0 0.0 0.0

-2.1338064825921534e6 3.5889531543436623e6 0.0
3.5889531543436623e6 745088.7314133649 0.0
0.0 0.0 0.0

-3706.59733851254 8.627062468859281e6 0.0
8.627062468859281e6 -6.051722568870295e6 0.0
0.0 0.0 0.0

4.523414214700396e6 6.286151731853789e6 0.0
6.286151731853789e6 -1.2700854130723424e7 0.0
0.0 0.0 0.0

-96910.98344753776 1.5988853459636929e7 0.0
1.5988853459636929e7 -5.473311592420507e6 0.0
0.0 0.0 0.0

1.4974659807574926e6 6.494070279361308e6 0.0
6.494070279361308e6 -7.008127634112192e6 0.0
0.0 0.0 0.0

-5.108988718846279e6 4.0202422984477435e6 0.0
4.0202422984477435e6 3.926625927737871e6 0.0
0.0 0.0 0.0

-6.80392702685144e6 1.4143725649279062e7 0.0
1.4143725649279062e7 5.057799949025423e6 0.0
0.0 0.0 0.0

2.1512359455824923e6 9.94604175070328e6 0.0
9.94604175070328e6 -1.3490004812976234e7 0.0
0.0 0.0 0.0

-2.276540381119806e6 9.054697357206225e6 0.0
9.054697357206225e6 -7.588467985893677e6 0.0
0.0 0.0 0.0

350794.41439606406 1.0959443988014176e7 0.0
1.0959443988014176e7 1.1693147579256457e6 0.0
0.0 0.0 0.0

-1.5863741697674207e6 8.329410486146972e6 0.0
8.329410486146972e6 -1.5021241211793271e6 0.0
0.0 0.0 0.0

-3.373174422975994e6 8.112169374415457e6 0.0
8.112169374415457e6 693775.0763023889 0.0
0.0 0.0 0.0

-1.3192536154706916e6 1.2225302341898033e7 0.0
1.2225302341898033e7 3.829683545336139e6 0.0
0.0 0.0 0.0

-3.21490573923169e6 1.794128332425023e6 0.0
1.794128332425023e6 4.356659817307232e6 0.0
0.0 0.0 0.0

701005.2856006052 1.013467522916495e7 0.0
1.013467522916495e7 -332658.9793588543 0.0
0.0 0.0 0.0

-6.887002878393829e6 1.2351236052750185e7 0.0
1.2351236052750185e7 6.769028852181628e6 0.0
0.0 0.0 0.0

1.184771743299025e6 6.453459067717081e6 0.0
6.453459067717081e6 -6.543270413289073e6 0.0
0.0 0.0 0.0

-9.197512008438304e6 1.6886862235868585e6 0.0
1.6886862235868585e6 9.558529191335706e6 0.0
0.0 0.0 0.0

-2.180730194475106e6 1.3222281782147419e7 0.0
1.3222281782147419e7 -437950.1508915981 0.0
0.0 0.0 0.0

-7.861513071122773e6 9.99339395116183e6 0.0
9.99339395116183e6 9.387421964041162e6 0.0
0.0 0.0 0.0

-1.9190496773016762e6 1.208663096811052e7 0.0
1.208663096811052e7 3.456327619989843e6 0.0
0.0 0.0 0.0

-8.446418895199673e6 3.372148077494194e6 0.0
3.372148077494194e6 1.130608538981787e7 0.0
0.0 0.0 0.0

-1.2777728578981934e6 1.3270444953622412e7 0.0
1.3270444953622412e7 -5.2411204360807575e6 0.0
0.0 0.0 0.0

-6.718441200756809e6 1.424905250828281e7 0.0
1.424905250828281e7 6.035978400128821e6 0.0
0.0 0.0 0.0

-1.116103445538699e7 2.9959920369995837e6 0.0
2.9959920369995837e6 1.72228062261363e7 0.0
0.0 0.0 0.0

-3.614175262901737e6 6.2558617587156845e6 0.0
6.2558617587156845e6 1.3832678390145747e6 0.0
0.0 0.0 0.0

-1.1099842489222905e7 -1.972070471238011e6 0.0
-1.972070471238011e6 1.5134838923616093e7 0.0
0.0 0.0 0.0

-300721.9295750181 1.119035632710614e7 0.0
1.119035632710614e7 -7.441436244052859e6 0.0
0.0 0.0 0.0

-5.580266247691141e6 1.3623091387155455e7 0.0
1.3623091387155455e7 5.463823397003544e6 0.0
0.0 0.0 0.0

-1.0419420034352848e6 1.2570836869378258e7 0.0
1.2570836869378258e7 -700379.9880544574 0.0
0.0 0.0 0.0

1.9744541951126787e6 7.083715765270647e6 0.0
7.083715765270647e6 -7.217584318243402e6 0.0
0.0 0.0 0.0

-7.295082475444946e6 -575980.1061909059 0.0
-575980.1061909059 9.90442998016001e6 0.0
0.0 0.0 0.0

-1.0895136353482738e7 9.624263974810638e6 0.0
9.624263974810638e6 1.7440798782777496e7 0.0
0.0 0.0 0.0

-1.1232624093467938e7 5.670275812264541e6 0.0
5.670275812264541e6 1.88847234629444e7 0.0
0.0 0.0 0.0

-2.941359344321713e6 9.730863253806531e6 0.0
9.730863253806531e6 3.6703426766008125e6 0.0
0.0 0.0 0.0

-9.6502964762877e6 2.7217952833213024e6 0.0
2.7217952833213024e6 1.0355510075309135e7 0.0
0.0 0.0 0.0

-2.803553960270624e6 8.065831617282858e6 0.0
8.065831617282858e6 658216.710330572 0.0
0.0 0.0 0.0

-2.556882184696698e6 1.1001393529445074e7 0.0
1.1001393529445074e7 -1.465908116861576e6 0.0
0.0 0.0 0.0

-460201.4773973911 9.919490926275587e6 0.0
9.919490926275587e6 -5.871009046000832e6 0.0
0.0 0.0 0.0

-4.991963612536302e6 1.3071884946011685e7 0.0
1.3071884946011685e7 5.7830866087476555e6 0.0
0.0 0.0 0.0

-8.228439739736165e6 1.5323437890726196e7 0.0
1.5323437890726196e7 6.7954129183116695e6 0.0
0.0 0.0 0.0

-1.1499021159637023e7 4.715793247603575e6 0.0
4.715793247603575e6 1.385343982035409e7 0.0
0.0 0.0 0.0

885961.9368021876 1.1560466859821437e7 0.0
1.1560466859821437e7 3.639531809953365e6 0.0
0.0 0.0 0.0

1.2841447069438826e6 1.1279430753864016e7 0.0
1.1279430753864016e7 -6.783231885977484e6 0.0
0.0 0.0 0.0

2.123197151032692e6 8.41228205726047e6 0.0
8.41228205726047e6 -9.21165693074336e6 0.0
0.0 0.0 0.0

4.667189876019177e6 5.659580201969441e6 0.0
5.659580201969441e6 -1.3329417184251055e7 0.0
0.0 0.0 0.0

-8.363184049907375e6 -3.190264063286865e6 0.0
-3.190264063286865e6 1.2528424246448247e7 0.0
0.0 0.0 0.0

-5.20449747856224e6 1.2936213883752305e7 0.0
1.2936213883752305e7 5.466360152011724e6 0.0
0.0 0.0 0.0

-8.552313549198233e6 8.318115053410589e6 0.0
8.318115053410589e6 1.3488981105462447e7 0.0
0.0 0.0 0.0

-1.0158420176738765e7 1.1749121454532463e7 0.0
1.1749121454532463e7 2.849332126947898e7 0.0
0.0 0.0 0.0

-492444.9961666502 9.373784279223783e6 0.0
9.373784279223783e6 -5.482674945306577e6 0.0
0.0 0.0 0.0

689630.7918387534 1.1522979897890715e7 0.0
1.1522979897890715e7 2.298769562095722e6 0.0
0.0 0.0 0.0

-6.846453985854937e6 261396.09865277345 0.0
261396.09865277345 6.793634283956055e6 0.0
0.0 0.0 0.0

-1.1792243996546693e7 -3.583954342252521e6 0.0
-3.583954342252521e6 5.118648776264698e6 0.0
0.0 0.0 0.0

2.50055767421822e6 7.877996987825547e6 0.0
7.877996987825547e6 -1.0952332479872845e7 0.0
0.0 0.0 0.0

-5.453500704433601e6 2.7836548235738957e6 0.0
2.7836548235738957e6 4.50564002843609e6 0.0
0.0 0.0 0.0

2.645274081882137e6 8.631880716238007e6 0.0
8.631880716238007e6 -1.2239331716849854e7 0.0
0.0 0.0 0.0

-1.0044974994698126e7 8.570456328222416e6 0.0
8.570456328222416e6 1.3557017860599503e7 0.0
0.0 0.0 0.0

3.4093571588979675e6 5.767881474043201e6 0.0
5.767881474043201e6 -9.490814462068787e6 0.0
0.0 0.0 0.0

-1.8473474475436625e6 1.6493762066841023e7 0.0
1.6493762066841023e7 -4.258515022159386e6 0.0
0.0 0.0 0.0

-1.6092176094102454e6 8.659774564883007e6 0.0
8.659774564883007e6 -1.7249800072097357e6 0.0
0.0 0.0 0.0

570143.7691990447 6.239504519311642e6 0.0
6.239504519311642e6 -3.9584922249411414e6 0.0
0.0 0.0 0.0

1.222311446886379e7 6.075327308192619e6 0.0
6.075327308192619e6 -3.289392434967731e6 0.0
0.0 0.0 0.0

-9.821386043788105e6 9.570742997592881e6 0.0
9.570742997592881e6 1.1999590274522148e7 0.0
0.0 0.0 0.0

-250452.18699124525 7.435606500271826e6 0.0
7.435606500271826e6 -4.207884973357965e6 0.0
0.0 0.0 0.0

-1.106695630961812e7 -694643.55152981 0.0
-694643.55152981 1.4305001565388322e7 0.0
0.0 0.0 0.0

1.2534973091250227e6 6.04834181588631e6 0.0
6.04834181588631e6 -5.654269888876326e6 0.0
0.0 0.0 0.0

-1.803228280277695e6 1.2981208631310236e7 0.0
1.2981208631310236e7 -657322.1148468547 0.0
0.0 0.0 0.0

-7.058557223256466e6 1.1555956207964003e7 0.0
1.1555956207964003e7 8.06885965577832e6 0.0
0.0 0.0 0.0

-4.681230769422585e6 4.541930171770537e6 0.0
4.541930171770537e6 4.628125819024683e6 0.0
0.0 0.0 0.0

2.86061049276974e6 7.329955953282892e6 0.0
7.329955953282892e6 -1.1170058085429505e7 0.0
0.0 0.0 0.0

-222075.99597509252 1.1048932030043725e7 0.0
1.1048932030043725e7 -1.1770891895604583e7 0.0
0.0 0.0 0.0

-773206.4440032048 6.4201119566927515e6 0.0
6.4201119566927515e6 -2.1908652612954434e6 0.0
0.0 0.0 0.0

2.559180677059138e6 5.569313264169552e6 0.0
5.569313264169552e6 -8.580082247551318e6 0.0
0.0 0.0 0.0

-1.5720181670930954e6 1.088250427819294e7 0.0
1.088250427819294e7 -4.709458010114721e6 0.0
0.0 0.0 0.0

5.650415940895078e6 1.0966861295784833e7 0.0
1.0966861295784833e7 -3.2839934909435953e6 0.0
0.0 0.0 0.0

4.777360563255458e6 6.666968903638935e6 0.0
6.666968903638935e6 -1.3627568074525075e7 0.0
0.0 0.0 0.0

-2.714255189935854e6 -2.057756121458234e6 0.0
-2.057756121458234e6 468132.7360108709 0.0
0.0 0.0 0.0

-7.305667476162486e6 1.050902073646779e7 0.0
1.050902073646779e7 9.307025766808432e6 0.0
0.0 0.0 0.0

-556790.4854025207 7.355457024072054e6 0.0
7.355457024072054e6 -2.7311106491912124e6 0.0
0.0 0.0 0.0

-5.774390935724912e6 3.9750628487850823e6 0.0
3.9750628487850823e6 6.797908687505086e6 0.0
0.0 0.0 0.0

4.988386098925775e6 6.982383287702336e6 0.0
6.982383287702336e6 -1.515614480099008e7 0.0
0.0 0.0 0.0

1.2290411910003927e6 1.183426548354977e7 0.0
1.183426548354977e7 4.096803975658821e6 0.0
0.0 0.0 0.0

-1.522013166603914e6 1.2020956138596488e7 0.0
1.2020956138596488e7 6.828028450514503e6 0.0
0.0 0.0 0.0

-683372.1758863833 1.0531445376967337e7 0.0
1.0531445376967337e7 -9.563915094451135e6 0.0
0.0 0.0 0.0

-622884.2787960793 8.637082699093474e6 0.0
8.637082699093474e6 -4.840379599601681e6 0.0
0.0 0.0 0.0

-6.673792207827423e6 1.2075017779082438e7 0.0
1.2075017779082438e7 7.601430731771326e6 0.0
0.0 0.0 0.0

3.4925748222815846e6 1.1496567494411668e7 0.0
1.1496567494411668e7 -4.1137059895027857e6 0.0
0.0 0.0 0.0

2.157704689698236e6 8.421378641626192e6 0.0
8.421378641626192e6 -1.0729271666309822e7 0.0
0.0 0.0 0.0

-6.791298392724456e6 1.5823080860094072e7 0.0
1.5823080860094072e7 2.777061721876723e6 0.0
0.0 0.0 0.0

-576559.8592446363 8.398502809412764e6 0.0
8.398502809412764e6 -442454.03563134314 0.0
0.0 0.0 0.0

-3.143369431529623e7 -2.2124947322696084e6 0.0
-2.2124947322696084e6 1.0739808304441363e7 0.0
0.0 0.0 0.0

2.076339691273083e7 6.383460632955086e6 0.0
6.383460632955086e6 -4.665266699803472e6 0.0
0.0 0.0 0.0

-315536.3499774692 1.0060607332451027e7 0.0
1.0060607332451027e7 2.478228832204469e6 0.0
0.0 0.0 0.0

-7.667200636932181e6 1.0497471930911539e6 0.0
1.0497471930911539e6 1.8433154355651475e7 0.0
0.0 0.0 0.0

-1.49016080718158e6 1.2059894293267606e7 0.0
1.2059894293267606e7 3.3078054641571967e6 0.0
0.0 0.0 0.0

-4.006152227265071e6 1.4458816424780523e7 0.0
1.4458816424780523e7 -2.1451564977256884e6 0.0
0.0 0.0 0.0

978562.0712911201 1.2054793224137822e7 0.0
1.2054793224137822e7 3.2618743083409606e6 0.0
0.0 0.0 0.0

-3.9639279285661834e6 4.462394580495096e6 0.0
4.462394580495096e6 3.6628444289517966e6 0.0
0.0 0.0 0.0

-5.750039921069549e6 1.0634525086027827e7 0.0
1.0634525086027827e7 4.899717400222495e6 0.0
0.0 0.0 0.0

-2.4457029032585554e7 1.6106660425584052e7 0.0
1.6106660425584052e7 6.141672015089218e6 0.0
0.0 0.0 0.0

3.3128475382496584e6 5.971621913240071e6 0.0
5.971621913240071e6 -1.0352590137453059e7 0.0
0.0 0.0 0.0

-1.125824344107902e6 1.271162118129478e7 0.0
1.271162118129478e7 -845481.1157764518 0.0
0.0 0.0 0.0

1.0343017746512112e6 1.1507236969511531e7 0.0
1.1507236969511531e7 4.686051957542728e6 0.0
0.0 0.0 0.0

-2.592224921038965e6 9.864244564718608e6 0.0
9.864244564718608e6 -8.64074972148877e6 0.0
0.0 0.0 0.0

609021.8084807047 1.1319195834833812e7 0.0
1.1319195834833812e7 2.0300728581303717e6 0.0
0.0 0.0 0.0

2.2175943774155583e6 9.98099182129531e6 0.0
9.98099182129531e6 -1.315635953246418e7 0.0
0.0 0.0 0.0

-6.639900491580389e6 1.2897841274143793e6 0.0
1.2897841274143793e6 8.0848062885823995e6 0.0
0.0 0.0 0.0

-1.0121378044024598e7 1.2829299478280907e7 0.0
1.2829299478280907e7 8.403204635695811e6 0.0
0.0 0.0 0.0

1.5627810866862927e6 6.804715528182856e6 0.0
6.804715528182856e6 -7.158283347955554e6 0.0
0.0 0.0 0.0

-9.468213424112657e6 9.75591863233311e6 0.0
9.75591863233311e6 1.1189327210410058e7 0.0
0.0 0.0 0.0

-3.460823919522735e6 3.8496150284374463e6 0.0
3.8496150284374463e6 2.0449256093205702e6 0.0
0.0 0.0 0.0

-7.939913848863175e6 1.5027258361774204e7 0.0
1.5027258361774204e7 6.64452985295191e6 0.0
0.0 0.0 0.0

-1.3073124314846313e7 1.4466544955231685e7 0.0
1.4466544955231685e7 9.442809097342022e6 0.0
0.0 0.0 0.0

-1.6175486128477226e6 -2.8574081132896966e6 0.0
-2.8574081132896966e6 1.9022358058534395e6 0.0
0.0 0.0 0.0

-762925.5781932629 9.123109662444485e6 0.0
9.123109662444485e6 -6.899603017111212e6 0.0
0.0 0.0 0.0

-3.191074184786474e6 1.3918360999346051e7 0.0
1.3918360999346051e7 -1.846692794949696e6 0.0
0.0 0.0 0.0

-365049.8221928178 5.452021327619266e6 0.0
5.452021327619266e6 -1.8354759780987645e6 0.0
0.0 0.0 0.0

-3.099319717732645e6 1.666243025373824e7 0.0
1.666243025373824e7 -3.204729472094673e6 0.0
0.0 0.0 0.0

-4.259689936745855e6 3.949022637945991e6 0.0
3.949022637945991e6 2.9336275319603067e6 0.0
0.0 0.0 0.0

3.7985839507054873e6 6.196883564504093e6 0.0
6.196883564504093e6 -1.1778995819453739e7 0.0
0.0 0.0 0.0

3.2865999124398422e6 6.332632034797664e6 0.0
6.332632034797664e6 -1.0831758606103567e7 0.0
0.0 0.0 0.0

154639.5689834936 8.846714992515834e6 0.0
8.846714992515834e6 -6.202877300914488e6 0.0
0.0 0.0 0.0

-1.5702140555414022e6 1.3158546981546555e7 0.0
1.3158546981546555e7 -5.054798914603487e6 0.0
0.0 0.0 0.0

5.181499077553027e6 6.8033506006608205e6 0.0
6.8033506006608205e6 -1.5667005534659777e7 0.0
0.0 0.0 0.0

-4.384555367186604e6 1.310236130457281e7 0.0
1.310236130457281e7 850184.6531702096 0.0
0.0 0.0 0.0

680430.6195991696 1.0404350339466203e7 0.0
1.0404350339466203e7 -8.882675651879504e6 0.0
0.0 0.0 0.0

-8.653278169465952e6 8.662014339752968e6 0.0
8.662014339752968e6 1.0351465327605417e7 0.0
0.0 0.0 0.0

-3.7816124656122336e6 1.3853534349435544e7 0.0
1.3853534349435544e7 937420.2567326284 0.0
0.0 0.0 0.0

2.7152226167986966e6 8.208195988619864e6 0.0
8.208195988619864e6 -1.039563822063593e7 0.0
0.0 0.0 0.0

-1.848656552913121e7 6.523395673880277e6 0.0
6.523395673880277e6 1.0319162316602746e7 0.0
0.0 0.0 0.0

4.0175803890713984e6 5.965027272933047e6 0.0
5.965027272933047e6 -1.2120757976772899e7 0.0
0.0 0.0 0.0

3.733770940045679e6 6.397375099426379e6 0.0
6.397375099426379e6 -1.0804794273389542e7 0.0
0.0 0.0 0.0

-1.232322442671547e6 1.1990107149893675e7 0.0
1.1990107149893675e7 -5.283507267706639e6 0.0
0.0 0.0 0.0

-7.758336561280646e6 -2.8534320194250518e6 0.0
-2.8534320194250518e6 2.822956459476869e6 0.0
0.0 0.0 0.0

465889.4431966862 7.442904576917375e6 0.0
7.442904576917375e6 -4.991092391266509e6 0.0
0.0 0.0 0.0

-7.926702387041536e6 8.971673652397353e6 0.0
8.971673652397353e6 1.567943036005181e7 0.0
0.0 0.0 0.0

-7.192589910623586e6 1.4661726640343396e7 0.0
1.4661726640343396e7 6.104107807801373e6 0.0
0.0 0.0 0.0

-8.448074299093977e6 1.509114442590179e7 0.0
1.509114442590179e7 7.0201288428256465e6 0.0
0.0 0.0 0.0

-4.979662715631521e6 4.57621524172968e6 0.0
4.57621524172968e6 3.591769868702737e6 0.0
0.0 0.0 0.0

-1.0950069464360006e7 7.990420736486169e6 0.0
7.990420736486169e6 2.8164946821301337e7 0.0
0.0 0.0 0.0

-7.105758726568181e6 1.4943773170038244e7 0.0
1.4943773170038244e7 5.830417893421272e6 0.0
0.0 0.0 0.0

-1.5976251491632059e6 1.2674045135188634e7 0.0
1.2674045135188634e7 -466371.8524994411 0.0
0.0 0.0 0.0

1.3568313294302826e6 1.0411126354325958e7 0.0
1.0411126354325958e7 -5.444400125073951e6 0.0
0.0 0.0 0.0

6.342376818172116e6 1.159312082469498e7 0.0
1.159312082469498e7 3.638209987957201e6 0.0
0.0 0.0 0.0

-4.556920506626178e6 5.063276068714492e6 0.0
5.063276068714492e6 4.30453750541978e6 0.0
0.0 0.0 0.0

4.2206096757710725e6 5.971638731894013e6 0.0
5.971638731894013e6 -1.1439261181838261e7 0.0
0.0 0.0 0.0

-1.3361519114702519e6 1.1190049513986792e7 0.0
1.1190049513986792e7 -4.221713354387867e6 0.0
0.0 0.0 0.0

-2.3015463556188876e6 9.185820468250459e6 0.0
9.185820468250459e6 -742034.5165413868 0.0
0.0 0.0 0.0

-1.0377900182374703e7 4.686834482296004e6 0.0
4.686834482296004e6 6.018931919456705e6 0.0
0.0 0.0 0.0

-8.515362309349313e6 -772757.9139936969 0.0
-772757.9139936969 1.2422234142117383e7 0.0
0.0 0.0 0.0

-3.5220548588019766e7 2.4277050172238957e7 0.0
2.4277050172238957e7 557189.2872140445 0.0
0.0 0.0 0.0

-2.994781724754942e6 1.0932896402534658e7 0.0
1.0932896402534658e7 -9.98260569519902e6 0.0
0.0 0.0 0.0

995404.7083033035 1.1738776779538313e7 0.0
1.1738776779538313e7 3.318016133882797e6 0.0
0.0 0.0 0.0

1.2232769239427038e6 1.000003928069521e7 0.0
1.000003928069521e7 -9.940621410915723e6 0.0
0.0 0.0 0.0

-1.0210760511092559e7 1.094644770781042e7 0.0
1.094644770781042e7 6.638390641260706e6 0.0
0.0 0.0 0.0

1.7557705704528424e6 7.050779265824843e6 0.0
7.050779265824843e6 -6.756372967086441e6 0.0
0.0 0.0 0.0

3.044177107983882e6 7.660485862094626e6 0.0
7.660485862094626e6 -1.0611927321337273e7 0.0
0.0 0.0 0.0

-7.175490993041378e6 1.1298392722194104e7 0.0
1.1298392722194104e7 8.500908217700109e6 0.0
0.0 0.0 0.0

1.8767215824752646e6 8.67296055308719e6 0.0
8.67296055308719e6 -1.0252309271074481e7 0.0
0.0 0.0 0.0

-7.53667900846722e6 1.4858539370569512e7 0.0
1.4858539370569512e7 6.384980174743164e6 0.0
0.0 0.0 0.0

-1.0755562181016032e7 1.1803724355795698e6 0.0
1.1803724355795698e6 1.286096572302609e7 0.0
0.0 0.0 0.0

-3.817583502692111e6 1.1232140577459303e6 0.0
1.1232140577459303e6 5.406255887459802e6 0.0
0.0 0.0 0.0

2.9033380039469963e6 7.03232386395505e6 0.0
7.03232386395505e6 -1.0900415070551714e7 0.0
0.0 0.0 0.0

-4.44375257712861e6 1.3647250801300645e7 0.0
1.3647250801300645e7 435446.2491089504 0.0
0.0 0.0 0.0

-6.981090147390724e6 1.7913076017288495e7 0.0
1.7913076017288495e7 1.1476900058742994e6 0.0
0.0 0.0 0.0

-7.893426857632795e6 9.556924776079273e6 0.0
9.556924776079273e6 1.0186329129493041e7 0.0
0.0 0.0 0.0

3.504491369750238e6 6.627867864280009e6 0.0
6.627867864280009e6 -1.1686132064021647e7 0.0
0.0 0.0 0.0

4.749433668113444e6 6.855692902668791e6 0.0
6.855692902668791e6 -1.4301311226655928e7 0.0
0.0 0.0 0.0

-1.2860978734652951e7 6.243164273685393e6 0.0
6.243164273685393e6 2.103298994120336e7 0.0
0.0 0.0 0.0

-1.039641910670368e7 1.731868198178155e6 0.0
1.731868198178155e6 1.3200753936416503e7 0.0
0.0 0.0 0.0

-3.921064027007979e6 1.6495975578233432e7 0.0
1.6495975578233432e7 -2.332534297952153e6 0.0
0.0 0.0 0.0

-3.8471199804787897e6 1.1991853596609386e7 0.0
1.1991853596609386e7 568175.0037045919 0.0
0.0 0.0 0.0

-1.0035823736564068e7 -166316.24138140064 0.0
-166316.24138140064 1.5021240761521861e7 0.0
0.0 0.0 0.0

1.61984857405827e6 5.42484936031939e6 0.0
5.42484936031939e6 -7.29880505846102e6 0.0
0.0 0.0 0.0

-4.879864756389885e6 1.188173107084373e7 0.0
1.188173107084373e7 1.4051232713293813e6 0.0
0.0 0.0 0.0

-6.6467064150976995e6 1.2526213098729026e7 0.0
1.2526213098729026e7 484495.46256930754 0.0
0.0 0.0 0.0

-2.978272780868334e6 5.610518055279341e6 0.0
5.610518055279341e6 933635.7782466167 0.0
0.0 0.0 0.0

3.934147361674376e6 6.430095564799741e6 0.0
6.430095564799741e6 -1.1382559923109561e7 0.0
0.0 0.0 0.0

1.586783902905223e6 8.602819339586927e6 0.0
8.602819339586927e6 -9.493267653965097e6 0.0
0.0 0.0 0.0

-1.9358560555587371e6 3.185494604736908e6 0.0
3.185494604736908e6 871527.1172005133 0.0
0.0 0.0 0.0

-7.722481004432354e6 4.323768924841921e6 0.0
4.323768924841921e6 1.0287475762855226e7 0.0
0.0 0.0 0.0

2.1052446097687855e6 9.991803795716561e6 0.0
9.991803795716561e6 -1.2602204196060875e7 0.0
0.0 0.0 0.0

3.7348186866338444e6 6.197155553975503e6 0.0
6.197155553975503e6 -1.0617190508579317e7 0.0
0.0 0.0 0.0

-4.05125163463409e6 1.1862752585969975e7 0.0
1.1862752585969975e7 -76190.49647058523 0.0
0.0 0.0 0.0

3.41279669202307e6 7.124302854518352e6 0.0
7.124302854518352e6 -1.0848043051425183e7 0.0
0.0 0.0 0.0

-1.9333500600710348e6 3.592017152021168e6 0.0
3.592017152021168e6 1.4168652163805328e6 0.0
0.0 0.0 0.0

-3.6203805829307437e6 1.2209773162742915e7 0.0
1.2209773162742915e7 -1.2067935962845271e7 0.0
0.0 0.0 0.0

2.353726203264827e6 1.2264683055746257e7 0.0
1.2264683055746257e7 7.845756043475602e6 0.0
0.0 0.0 0.0

1.0002233031960285e6 9.840142391816461e6 0.0
9.840142391816461e6 -2.5907894724130346e6 0.0
0.0 0.0 0.0

-9.433640785589185e6 -4.37641218945609e6 0.0
-4.37641218945609e6 6.3354695997294355e6 0.0
0.0 0.0 0.0

-1.3178440615458672e6 3.1536510131785916e6 0.0
3.1536510131785916e6 855023.1803352104 0.0
0.0 0.0 0.0

1.6635238876132283e6 1.2853404048474113e7 0.0
1.2853404048474113e7 5.545077127030453e6 0.0
0.0 0.0 0.0

-720326.4159437253 8.92317242226686e6 0.0
8.92317242226686e6 -2.401087801620677e6 0.0
0.0 0.0 0.0

-1.087086173055703e7 8.684667548229288e6 0.0
8.684667548229288e6 3.1648813283696037e7 0.0
0.0 0.0 0.0

3.215327806025078e6 6.83608825795281e6 0.0
6.83608825795281e6 -1.133230372460073e7 0.0
0.0 0.0 0.0

-3.4856513394933175e6 1.380358158810061e7 0.0
1.380358158810061e7 -2.874173243778361e6 0.0
0.0 0.0 0.0

-1.0050250411331528e6 1.1147183369984148e7 0.0
1.1147183369984148e7 -1.1040784138112115e7 0.0
0.0 0.0 0.0

-6.905664326004425e6 1.4187153540832998e7 0.0
1.4187153540832998e7 5.496571299252211e6 0.0
0.0 0.0 0.0

-3.9521973039579857e6 1.2803076646133283e7 0.0
1.2803076646133283e7 3.037588343793639e6 0.0
0.0 0.0 0.0

-6.013174420024509e6 1.47736978193647e7 0.0
1.47736978193647e7 1.7414352517483681e6 0.0
0.0 0.0 0.0

-2.3298762343742633e6 1.2164601770354863e7 0.0
1.2164601770354863e7 -1.2143463569824716e7 0.0
0.0 0.0 0.0

-4.4853636031484855e6 1.6237444296112396e7 0.0
1.6237444296112396e7 -1.6213855417629557e6 0.0
0.0 0.0 0.0

-1.0545191208807318e7 8.30902644091144e6 0.0
8.30902644091144e6 1.1969599569671594e7 0.0
0.0 0.0 0.0

1.384488156332891e6 7.249507206045863e6 0.0
7.249507206045863e6 -7.072691942662999e6 0.0
0.0 0.0 0.0

3.2395581270141653e6 6.571630772615784e6 0.0
6.571630772615784e6 -1.1077447943599882e7 0.0
0.0 0.0 0.0

-2.5632243737512054e6 1.3530234902349737e7 0.0
1.3530234902349737e7 -4.122794240941695e6 0.0
0.0 0.0 0.0

-1.8853423729749657e6 9.183768376099722e6 0.0
9.183768376099722e6 -2.663100515677178e6 0.0
0.0 0.0 0.0

3.071098994115467e6 8.014734805608485e6 0.0
8.014734805608485e6 -1.2512466101489177e7 0.0
0.0 0.0 0.0

-6.590726470957364e6 1.3602728509573508e7 0.0
1.3602728509573508e7 5.359568111983482e6 0.0
0.0 0.0 0.0

-2.695815639019688e6 9.955807693317203e6 0.0
9.955807693317203e6 -546311.772731751 0.0
0.0 0.0 0.0

-290264.03744436963 9.683988720297389e6 0.0
9.683988720297389e6 -5.015134393006618e6 0.0
0.0 0.0 0.0

2.8037681864396287e6 9.207007121331811e6 0.0
9.207007121331811e6 -1.2187216564167842e7 0.0
0.0 0.0 0.0

-5.009186282821397e6 1.5444216619135464e7 0.0
1.5444216619135464e7 -750100.7528316675 0.0
0.0 0.0 0.0

-976565.9905786952 1.051880583439423e7 0.0
1.051880583439423e7 -4.362167476960636e6 0.0
0.0 0.0 0.0

136871.04628933617 8.233772556840152e6 0.0
8.233772556840152e6 -4.8677982056096895e6 0.0
0.0 0.0 0.0

8.915426899851918e6 6.140883890370299e6 0.0
6.140883890370299e6 -2.7960433533057477e6 0.0
0.0 0.0 0.0

-3.979856420774551e6 9.933719386000786e6 0.0
9.933719386000786e6 1.9599366587208991e6 0.0
0.0 0.0 0.0

-2.181351031453962e6 5.5446846854277e6 0.0
5.5446846854277e6 884356.5160096114 0.0
0.0 0.0 0.0

-7.5593954561236035e6 357594.1281053955 0.0
357594.1281053955 9.567733148944627e6 0.0
0.0 0.0 0.0

3.704455814328225e6 5.892088699338736e6 0.0
5.892088699338736e6 -1.0235389106103811e7 0.0
0.0 0.0 0.0

2.2255128965378995e6 6.274804231207293e6 0.0
6.274804231207293e6 -7.669258986231216e6 0.0
0.0 0.0 0.0

3.4233955916311713e6 6.180575971375288e6 0.0
6.180575971375288e6 -9.992538274759425e6 0.0
0.0 0.0 0.0

-267315.28560984414 1.060780515158318e7 0.0
1.060780515158318e7 -9.512377329701519e6 0.0
0.0 0.0 0.0

-4.802105701410592e6 1.5863617664955482e7 0.0
1.5863617664955482e7 -1.108894578730831e6 0.0
0.0 0.0 0.0

-1.0280810781223223e7 8.475548433652233e6 0.0
8.475548433652233e6 1.1173771438175313e7 0.0
0.0 0.0 0.0

-4.621603073383828e6 1.0015183979828471e7 0.0
1.0015183979828471e7 1.8865187543754966e6 0.0
0.0 0.0 0.0

2.998655520786374e6 6.317596268033003e6 0.0
6.317596268033003e6 -1.02045284784406e7 0.0
0.0 0.0 0.0

-2.8263208765636357e6 3.6398613319441625e6 0.0
3.6398613319441625e6 1.4439814395390335e6 0.0
0.0 0.0 0.0

-8.43628187238649e6 9.262170916448861e6 0.0
9.262170916448861e6 9.729813359351242e6 0.0
0.0 0.0 0.0

-667433.5316271409 1.2031701384178922e7 0.0
1.2031701384178922e7 -6.0741950343894735e6 0.0
0.0 0.0 0.0

1.6340203537528766e6 1.122353359376817e7 0.0
1.122353359376817e7 -5.853899537591295e6 0.0
0.0 0.0 0.0

-6.80018497342471e6 1.4189298850601172e7 0.0
1.4189298850601172e7 5.855608477531049e6 0.0
0.0 0.0 0.0

1.1633638661833988e6 1.02639355094181e7 0.0
1.02639355094181e7 -8.676164486734932e6 0.0
0.0 0.0 0.0

3.4406566599432263e6 6.594727630635623e6 0.0
6.594727630635623e6 -1.0403076369706504e7 0.0
0.0 0.0 0.0

3.0165441790370946e6 6.514376267615838e6 0.0
6.514376267615838e6 -1.0432329355550759e7 0.0
0.0 0.0 0.0

924399.0449676029 6.624655358452481e6 0.0
6.624655358452481e6 -6.233911204707971e6 0.0
0.0 0.0 0.0

2.9452333929403704e6 6.761411520892843e6 0.0
6.761411520892843e6 -1.0662826740793299e7 0.0
0.0 0.0 0.0

2.8820898272380354e6 6.151509478910028e6 0.0
6.151509478910028e6 -8.832211999181334e6 0.0
0.0 0.0 0.0

-1.0658570677710999e7 1.5147643663318234e7 0.0
1.5147643663318234e7 8.446302326305158e6 0.0
0.0 0.0 0.0

-4.70053493192922e6 1.7115499274877757e7 0.0
1.7115499274877757e7 -1.6851375378333156e6 0.0
0.0 0.0 0.0

-4.681180901177421e6 1.3068080277264029e7 0.0
1.3068080277264029e7 3.7706595119553134e6 0.0
0.0 0.0 0.0

2.3480534286144283e6 6.289308355359643e6 0.0
6.289308355359643e6 -9.043015055889618e6 0.0
0.0 0.0 0.0

-2.7952784067177996e6 1.0710255035940463e7 0.0
1.0710255035940463e7 -1.9292201237384877e6 0.0
0.0 0.0 0.0

-397950.6651899286 7.931581420415965e6 0.0
7.931581420415965e6 -2.5597432281575105e6 0.0
0.0 0.0 0.0

-4.414441444604196e6 1.3411948076771222e7 0.0
1.3411948076771222e7 -1.4714809414628997e7 0.0
0.0 0.0 0.0

5.5718142174782455e6 1.495748261170381e7 0.0
1.495748261170381e7 1.8572729532614097e7 0.0
0.0 0.0 0.0

3.6362516939990167e6 1.1938683905759614e7 0.0
1.1938683905759614e7 -4.491599597175305e6 0.0
0.0 0.0 0.0

5.286600268317681e6 1.2078070540962996e7 0.0
1.2078070540962996e7 -7.182458516279941e6 0.0
0.0 0.0 0.0

4.701423683259666e6 7.58654562449084e6 0.0
7.58654562449084e6 -1.7152113211112533e7 0.0
0.0 0.0 0.0

-78373.36789191002 1.1278465540636405e7 0.0
1.1278465540636405e7 -6.726804518523708e6 0.0
0.0 0.0 0.0

-1.626532516285822e6 1.2092029669678245e7 0.0
1.2092029669678245e7 2.745136007142617e6 0.0
0.0 0.0 0.0

-1.0993698690668598e7 456035.3736703798 0.0
456035.3736703798 1.3833931919446947e7 0.0
0.0 0.0 0.0

-1.0139188580336869e7 8.296375385500179e6 0.0
8.296375385500179e6 1.4521150050263446e7 0.0
0.0 0.0 0.0

-2.0685688287321464e6 1.265014894351404e7 0.0
1.265014894351404e7 1.7582771515764561e6 0.0
0.0 0.0 0.0

-1.4186687803669078e6 9.10883217970648e6 0.0
9.10883217970648e6 -2.5666784210495837e6 0.0
0.0 0.0 0.0

-7.986336006014369e6 1.5032130226940457e7 0.0
1.5032130226940457e7 2.8130517849020534e6 0.0
0.0 0.0 0.0

-6.710534380643732e6 1.2324491615443254e7 0.0
1.2324491615443254e7 7.35301836216945e6 0.0
0.0 0.0 0.0

-3.5005062757065664e6 6.97648180086538e6 0.0
6.97648180086538e6 1.2320859580109932e6 0.0
0.0 0.0 0.0

-5.2329725214641765e6 1.1498098675053498e7 0.0
1.1498098675053498e7 3.165680630766548e6 0.0
0.0 0.0 0.0

4.475904461874222e6 7.009116262835925e6 0.0
7.009116262835925e6 -1.32845911654559e7 0.0
0.0 0.0 0.0

2.1192120057555735e6 6.62829816969871e6 0.0
6.62829816969871e6 -7.335955714010314e6 0.0
0.0 0.0 0.0

-1.7042899268409712e6 1.2093510417266224e7 0.0
1.2093510417266224e7 -4.901627682273457e6 0.0
0.0 0.0 0.0

1.3543130431709792e6 8.89677929507521e6 0.0
8.89677929507521e6 -9.084920195791261e6 0.0
0.0 0.0 0.0

-1.123935465233051e7 2.319108762500834e6 0.0
2.319108762500834e6 1.8220949520260222e7 0.0
0.0 0.0 0.0

74637.8859057409 5.856211475939121e6 0.0
5.856211475939121e6 -2.2868618526491537e6 0.0
0.0 0.0 0.0

-1.134623773518288e7 1.6557944436553377e6 0.0
1.6557944436553377e6 2.521914802486942e7 0.0
0.0 0.0 0.0

-1.9179038747752556e6 1.128578464438881e7 0.0
1.128578464438881e7 -4.352568180804172e6 0.0
0.0 0.0 0.0

-5.182106985428223e6 1.3311065993080482e7 0.0
1.3311065993080482e7 4.811497820485004e6 0.0
0.0 0.0 0.0

-3.3421361492744656e6 6.215391140847395e6 0.0
6.215391140847395e6 2.311843009834458e6 0.0
0.0 0.0 0.0

-3.882386680301344e6 1.4800283588478414e7 0.0
1.4800283588478414e7 -2.291025120639137e6 0.0
0.0 0.0 0.0

-2.1127555481566805e6 5.063836447976049e6 0.0
5.063836447976049e6 250501.9970736053 0.0
0.0 0.0 0.0

-6.93894447992032e6 1.1931403984826041e7 0.0
1.1931403984826041e7 7.375714145387039e6 0.0
0.0 0.0 0.0

4.829314813495727e6 1.499183379782878e7 0.0
1.499183379782878e7 -1.0639415638197757e7 0.0
0.0 0.0 0.0

-7.84967441940978e6 1.0227814060896456e7 0.0
1.0227814060896456e7 8.883445793369265e6 0.0
0.0 0.0 0.0

624735.1633356832 6.2057955351726385e6 0.0
6.2057955351726385e6 -2.8553405197526016e6 0.0
0.0 0.0 0.0

-1.5637506344819676e7 -4.019918176635855e6 0.0
-4.019918176635855e6 7.180021270030403e6 0.0
0.0 0.0 0.0

3.5479057087472337e6 6.049668555545384e6 0.0
6.049668555545384e6 -1.0863653120876433e7 0.0
0.0 0.0 0.0

-8.180239137318253e6 1.4475827868925093e7 0.0
1.4475827868925093e7 7.022769994027574e6 0.0
0.0 0.0 0.0

-1.6742769120786714e6 3.396187533165807e6 0.0
3.396187533165807e6 129485.33622684353 0.0
0.0 0.0 0.0

-1.7749947594296173e6 8.1739323731005415e6 0.0
8.1739323731005415e6 -2.1029282918328266e6 0.0
0.0 0.0 0.0

-8.40191505917789e6 518362.67038717744 0.0
518362.67038717744 9.417773048177846e6 0.0
0.0 0.0 0.0

-340375.92475172575 1.2156213886873636e7 0.0
1.2156213886873636e7 -6.782625148578494e6 0.0
0.0 0.0 0.0

-8.151122105945965e6 -254894.10000048002 0.0
-254894.10000048002 9.425339429050805e6 0.0
0.0 0.0 0.0

-449680.58992115525 1.0089603984859657e7 0.0
1.0089603984859657e7 -6.245839760518835e6 0.0
0.0 0.0 0.0

-9.66522270781026e6 9.008213947784755e6 0.0
9.008213947784755e6 1.0566606102246946e7 0.0
0.0 0.0 0.0

-3.6080085306569277e6 5.692753107261899e6 0.0
5.692753107261899e6 1.5506368858475673e6 0.0
0.0 0.0 0.0

-1.0225649085052628e7 9.446079055002687e6 0.0
9.446079055002687e6 1.3071879443258572e7 0.0
0.0 0.0 0.0

-7.058223164461724e6 7.277418261710567e6 0.0
7.277418261710567e6 6.407688630543407e6 0.0
0.0 0.0 0.0

-5.157912791811584e6 1.2239178633601526e7 0.0
1.2239178633601526e7 1.8740940825913055e6 0.0
0.0 0.0 0.0

4.1935179435838796e6 7.273758931617319e6 0.0
7.273758931617319e6 -1.2970116759727243e7 0.0
0.0 0.0 0.0

-9.216981557494264e6 9.961111262514263e6 0.0
9.961111262514263e6 1.0617179730531633e7 0.0
0.0 0.0 0.0

3.743266547032667e6 1.0716323835066859e7 0.0
1.0716323835066859e7 -855272.5078367952 0.0
0.0 0.0 0.0

-9.838078215665704e6 211312.35787413587 0.0
211312.35787413587 8.205359384063233e6 0.0
0.0 0.0 0.0

3.0184273264962705e6 8.8186758901059e6 0.0
8.8186758901059e6 -1.2043503154110447e7 0.0
0.0 0.0 0.0

-3.257051173931931e6 6.752545845375669e6 0.0
6.752545845375669e6 2.051021536079367e6 0.0
0.0 0.0 0.0

1.5672176982136178e6 7.209205640085563e6 0.0
7.209205640085563e6 -6.458411244710078e6 0.0
0.0 0.0 0.0

-910726.981831414 3.438690118770595e6 0.0
3.438690118770595e6 -90663.45120931065 0.0
0.0 0.0 0.0

-4.360729522544617e6 1.2697041068317231e6 0.0
1.2697041068317231e6 3.5458739446509676e6 0.0
0.0 0.0 0.0

525272.6533762543 9.55715986503165e6 0.0
9.55715986503165e6 -7.663000421519409e6 0.0
0.0 0.0 0.0

-3.2033633317176765e6 4.329305510159937e6 0.0
4.329305510159937e6 2.7264330472201155e6 0.0
0.0 0.0 0.0

-5.342004326911438e6 1.3388204031134464e7 0.0
1.3388204031134464e7 4.627660695433588e6 0.0
0.0 0.0 0.0

-5.405831864424396e6 9.882693043412909e6 0.0
9.882693043412909e6 6.995876562925142e6 0.0
0.0 0.0 0.0

56303.23150866595 6.841735835125688e6 0.0
6.841735835125688e6 -3.5393207248806027e6 0.0
0.0 0.0 0.0

-1.6957353151626107e6 1.1577697789833788e7 0.0
1.1577697789833788e7 -3.8907891240271805e6 0.0
0.0 0.0 0.0

1.9611041019661785e6 6.767348314105627e6 0.0
6.767348314105627e6 -8.259994464076798e6 0.0
0.0 0.0 0.0

-5.556534563252306e6 1.456846217852361e7 0.0
1.456846217852361e7 926311.267650605 0.0
0.0 0.0 0.0

1.4010895054371497e6 1.1615567826576503e7 0.0
1.1615567826576503e7 -1.771182843906455e7 0.0
0.0 0.0 0.0

1.5238036483132113e6 5.636603078718443e6 0.0
5.636603078718443e6 -6.959057476192253e6 0.0
0.0 0.0 0.0

2.434693079088965e6 6.051327820974199e6 0.0
6.051327820974199e6 -8.857217632138066e6 0.0
0.0 0.0 0.0

87428.60381418839 1.0727370429277759e7 0.0
1.0727370429277759e7 -9.276017302570796e6 0.0
0.0 0.0 0.0

-229702.69245399837 7.1700820756763695e6 0.0
7.1700820756763695e6 -3.17048148364808e6 0.0
0.0 0.0 0.0

-2.751044459520075e6 1.265437602975793e7 0.0
1.265437602975793e7 -1.349133865763985e7 0.0
0.0 0.0 0.0

1.1073725489252992e6 6.677640369169088e6 0.0
6.677640369169088e6 -5.354758456141519e6 0.0
0.0 0.0 0.0

1.7286622465509484e6 6.751393329695823e6 0.0
6.751393329695823e6 -6.598191823207885e6 0.0
0.0 0.0 0.0

-544732.5515271361 1.2062283161782667e7 0.0
1.2062283161782667e7 -1.6453120480026389e6 0.0
0.0 0.0 0.0

-1.177235811011308e7 5.509742251064927e6 0.0
5.509742251064927e6 1.5231409183838423e7 0.0
0.0 0.0 0.0

-6.95015322973636e6 1.4651504616766648e7 0.0
1.4651504616766648e7 5.009438906415872e6 0.0
0.0 0.0 0.0

-6.51376812259834e6 447296.13403476943 0.0
447296.13403476943 3.8280788379471703e6 0.0
0.0 0.0 0.0

1.1058912670083633e6 9.094020751358686e6 0.0
9.094020751358686e6 -8.598086397374626e6 0.0
0.0 0.0 0.0

-1.7306497753027533e6 1.2266614638005115e7 0.0
1.2266614638005115e7 4.0433890644889697e6 0.0
0.0 0.0 0.0

-5.207109702781023e6 1.4396407210614206e7 0.0
1.4396407210614206e7 141097.4434327255 0.0
0.0 0.0 0.0

-969453.8046052656 8.606193034252789e6 0.0
8.606193034252789e6 -4.1195494832599764e6 0.0
0.0 0.0 0.0

-4.519245484861275e6 1.4748828006664325e7 0.0
1.4748828006664325e7 -1.4032878340822042e6 0.0
0.0 0.0 0.0

-357096.65893931244 8.930748264281807e6 0.0
8.930748264281807e6 -4.3843464404211e6 0.0
0.0 0.0 0.0

-1.3112799428053442e6 2.892413239364234e6 0.0
2.892413239364234e6 494231.6710820512 0.0
0.0 0.0 0.0

-1.9127540779050482e6 1.1535146175481426e7 0.0
1.1535146175481426e7 -4.605301863250863e6 0.0
0.0 0.0 0.0

-5.924349212166225e6 2.217928287059191e7 0.0
2.217928287059191e7 -2.996288895061916e6 0.0
0.0 0.0 0.0

423926.88121718005 1.3664524812698644e7 0.0
1.3664524812698644e7 -5.271092378753356e6 0.0
0.0 0.0 0.0

-388886.2163114692 1.167287686281039e7 0.0
1.167287686281039e7 -6.40489346095811e6 0.0
0.0 0.0 0.0

-2.527652998263204e6 8.620840239434501e6 0.0
8.620840239434501e6 21067.609820970916 0.0
0.0 0.0 0.0

-3.2249112739991457e6 1.0043767731518127e7 0.0
1.0043767731518127e7 -660097.2127486231 0.0
0.0 0.0 0.0

3.805669568137276e6 5.800590453379048e6 0.0
5.800590453379048e6 -1.0563549781606369e7 0.0
0.0 0.0 0.0

1.8730709315917795e6 5.246617390891632e6 0.0
5.246617390891632e6 -6.040510473378413e6 0.0
0.0 0.0 0.0

-1.0177916398541937e6 7.3695469253072515e6 0.0
7.3695469253072515e6 -2.7200647630241676e6 0.0
0.0 0.0 0.0

-3.340418396225561e6 1.2818472079093643e7 0.0
1.2818472079093643e7 150801.59694948816 0.0
0.0 0.0 0.0

1.784067986393277e6 6.105943397158542e6 0.0
6.105943397158542e6 -7.619259676524163e6 0.0
0.0 0.0 0.0

-861934.7979050005 1.0034956111456478e7 0.0
1.0034956111456478e7 -5.386407702627702e6 0.0
0.0 0.0 0.0

-1.3562221009619003e6 1.2164257098055657e7 0.0
1.2164257098055657e7 1.918218296572853e6 0.0
0.0 0.0 0.0

1.821518073759152e6 8.662874098438088e6 0.0
8.662874098438088e6 -8.712031773187606e6 0.0
0.0 0.0 0.0

-2.5952144490301255e6 4.0479127473613443e6 0.0
4.0479127473613443e6 2.0318933304981354e6 0.0
0.0 0.0 0.0

-1.5696926205677388e7 1.026243727099345e7 0.0
1.026243727099345e7 7.825035918574277e6 0.0
0.0 0.0 0.0

2.4032398187618945e6 8.453006433403501e6 0.0
8.453006433403501e6 -9.904369971204776e6 0.0
0.0 0.0 0.0

-2.459575726637023e7 -3.3061306272137016e6 0.0
-3.3061306272137016e6 1.0029930304173803e7 0.0
0.0 0.0 0.0

1.691930343104727e6 6.6086059866624195e6 0.0
6.6086059866624195e6 -7.43254686271048e6 0.0
0.0 0.0 0.0

-4.798984339079818e6 1.1507743839006692e7 0.0
1.1507743839006692e7 6.7423281811731905e6 0.0
0.0 0.0 0.0

2.0215546925938409e6 1.0018883750057751e7 0.0
1.0018883750057751e7 -1.2214467574885115e7 0.0
0.0 0.0 0.0

1.6071642873559827e6 1.0393626892023368e7 0.0
1.0393626892023368e7 -1.0077019105657712e7 0.0
0.0 0.0 0.0

-344412.85880325607 5.158935552402006e6 0.0
5.158935552402006e6 -1.5027492662322482e6 0.0
0.0 0.0 0.0

-9.707785840113873e6 3.865775424386491e6 0.0
3.865775424386491e6 1.0538733668012872e7 0.0
0.0 0.0 0.0

-2.1866676977809495e6 8.939115547011605e6 0.0
8.939115547011605e6 -1.9473783442186364e6 0.0
0.0 0.0 0.0

-2.4853976913964e6 8.169113034522291e6 0.0
8.169113034522291e6 120484.74794616026 0.0
0.0 0.0 0.0

-1.0901153420062676e7 2.0826678774132016e6 0.0
2.0826678774132016e6 1.2536397527982272e7 0.0
0.0 0.0 0.0

-1.642405642567126e6 8.851135423761439e6 0.0
8.851135423761439e6 -1.844012676197465e6 0.0
0.0 0.0 0.0

-1.5612956154832311e6 1.1125948235413516e7 0.0
1.1125948235413516e7 -4.9610567430993095e6 0.0
0.0 0.0 0.0

-1.6994118864353164e6 1.1354725419530813e7 0.0
1.1354725419530813e7 -3.6414739860459417e6 0.0
0.0 0.0 0.0

-2.1759046060150457e6 1.1911042380506521e7 0.0
1.1911042380506521e7 -4.3435421449365085e6 0.0
0.0 0.0 0.0

-79414.54725149507 9.914043775159568e6 0.0
9.914043775159568e6 -6.71983811815342e6 0.0
0.0 0.0 0.0

978894.6112378142 6.886202348598898e6 0.0
6.886202348598898e6 -6.402582507408207e6 0.0
0.0 0.0 0.0

1.07819173639923e6 1.0193074840161974e7 0.0
1.0193074840161974e7 -5.734769233990596e6 0.0
0.0 0.0 0.0

-1.9284211436905023e6 1.1061261548359653e7 0.0
1.1061261548359653e7 -4.1195976018072455e6 0.0
0.0 0.0 0.0

-759132.6101906076 8.897616129842555e6 0.0
8.897616129842555e6 -3.678445208304546e6 0.0
0.0 0.0 0.0

-1.8822760248509762e6 3.9469807110785833e6 0.0
3.9469807110785833e6 1.274078103318606e6 0.0
0.0 0.0 0.0

225029.24811568484 9.755997938026015e6 0.0
9.755997938026015e6 -7.217897690017902e6 0.0
0.0 0.0 0.0

-3.9420715505654356e6 1.2796204426621037e7 0.0
1.2796204426621037e7 -1.3140238126692848e7 0.0
0.0 0.0 0.0

-397625.28972109 5.644664085485882e6 0.0
5.644664085485882e6 -1.5758072709995771e6 0.0
0.0 0.0 0.0

1.5824097806247887e6 7.066810467065037e6 0.0
7.066810467065037e6 -7.335344922318459e6 0.0
0.0 0.0 0.0

197730.19704231224 6.410731395499749e6 0.0
6.410731395499749e6 -4.232400090033199e6 0.0
0.0 0.0 0.0

1.6929641599249542e6 1.1143905915075118e7 0.0
1.1143905915075118e7 -1.6365585197313014e7 0.0
0.0 0.0 0.0

-3.206974300428791e6 7.897174155292916e6 0.0
7.897174155292916e6 1.4639667263904992e6 0.0
0.0 0.0 0.0

2.0169549471062315e6 6.41187936616686e6 0.0
6.41187936616686e6 -7.118850890066159e6 0.0
0.0 0.0 0.0

-7.333181408946056e6 4.1669560968974917e6 0.0
4.1669560968974917e6 6.677693452725165e6 0.0
0.0 0.0 0.0

-1.0015269864692597e7 -3.078510718297756e6 0.0
-3.078510718297756e6 1.761145474143194e7 0.0
0.0 0.0 0.0

-159957.84222373366 1.1920441239745611e7 0.0
1.1920441239745611e7 -1.464800132743986e6 0.0
0.0 0.0 0.0

-143791.2489974125 1.0978602956095738e7 0.0
1.0978602956095738e7 -532916.6504318955 0.0
0.0 0.0 0.0

-5.466754367743526e6 1.3591314422792077e7 0.0
1.3591314422792077e7 4.575402026061127e6 0.0
0.0 0.0 0.0

-4.559592875069075e6 1.080020869645853e7 0.0
1.080020869645853e7 1.5027390342331394e6 0.0
0.0 0.0 0.0

4.176738115756197e6 6.235424903486261e6 0.0
6.235424903486261e6 -1.1677175188141925e7 0.0
0.0 0.0 0.0

4.248349713013551e6 6.45011615267441e6 0.0
6.45011615267441e6 -1.191208561101892e7 0.0
0.0 0.0 0.0

-8.53335013482891e6 6.324419135082003e6 0.0
6.324419135082003e6 1.153232584631915e7 0.0
0.0 0.0 0.0

-1.174969718099047e6 1.0723647355631616e7 0.0
1.0723647355631616e7 -5.3240793164694235e6 0.0
0.0 0.0 0.0

3.3577036373470672e6 1.1356868330502838e7 0.0
1.1356868330502838e7 -4.300004891320289e6 0.0
0.0 0.0 0.0

-1.2712968187449615e7 -2.1146074042800935e6 0.0
-2.1146074042800935e6 2.2347813160064306e7 0.0
0.0 0.0 0.0

-3.9814521885453956e6 9.45268425673888e6 0.0
9.45268425673888e6 2.1960480886390563e6 0.0
0.0 0.0 0.0

-1.8236160276934672e6 9.967273573033232e6 0.0
9.967273573033232e6 -3.359678035582524e6 0.0
0.0 0.0 0.0

-1.101188839334188e7 1.0170010025949271e7 0.0
1.0170010025949271e7 2.187729467445038e7 0.0
0.0 0.0 0.0

385748.358564212 6.888128173254161e6 0.0
6.888128173254161e6 -3.797840059616973e6 0.0
0.0 0.0 0.0

-3.630943578001445e6 1.2459458685418127e7 0.0
1.2459458685418127e7 -1.4353126697267615e6 0.0
0.0 0.0 0.0

-4.415893059335604e6 1.1804049689913983e7 0.0
1.1804049689913983e7 7.336978148062883e6 0.0
0.0 0.0 0.0

1.9014105594333e6 6.866503591252035e6 0.0
6.866503591252035e6 -7.014960885488902e6 0.0
0.0 0.0 0.0

-1.7908968647552417e6 8.304760204728204e6 0.0
8.304760204728204e6 -2.239408684777998e6 0.0
0.0 0.0 0.0

-1.0548442411058737e7 7.880116411052979e6 0.0
7.880116411052979e6 1.712016622717921e7 0.0
0.0 0.0 0.0

3.5885955150175197e6 7.813775188896458e6 0.0
7.813775188896458e6 -1.2198276114460781e7 0.0
0.0 0.0 0.0

-18600.610761560965 1.1496861544780357e7 0.0
1.1496861544780357e7 -6.990668242759338e6 0.0
0.0 0.0 0.0

-8.281186449933118e6 -2.059847596289931e6 0.0
-2.059847596289931e6 1.246917837766924e7 0.0
0.0 0.0 0.0

3.2052193902472835e6 8.384177773480467e6 0.0
8.384177773480467e6 -1.1854749856584556e7 0.0
0.0 0.0 0.0

341257.8530361026 7.376905811698662e6 0.0
7.376905811698662e6 -4.108489184823541e6 0.0
0.0 0.0 0.0

3.0949810783421304e6 7.350063228896162e6 0.0
7.350063228896162e6 -1.0390683013839567e7 0.0
0.0 0.0 0.0

-515376.1361833606 9.133599375753451e6 0.0
9.133599375753451e6 -5.270142389169779e6 0.0
0.0 0.0 0.0

-808866.9871391394 1.030300782842444e7 0.0
1.030300782842444e7 -5.661280906752302e6 0.0
0.0 0.0 0.0

-1.0620355251739481e7 1.8049926113618435e6 0.0
1.8049926113618435e6 1.2210077034397405e7 0.0
0.0 0.0 0.0

1.7768719853583337e6 1.0030152774234634e7 0.0
1.0030152774234634e7 -751313.3161701496 0.0
0.0 0.0 0.0

-1.4779567756490596e6 3.7167132419206817e6 0.0
3.7167132419206817e6 625294.4780791275 0.0
0.0 0.0 0.0

884679.7423108192 1.0479859620884927e7 0.0
1.0479859620884927e7 -8.256282297874022e6 0.0
0.0 0.0 0.0

-23179.598992999527 6.735880815379869e6 0.0
6.735880815379869e6 -2.9190689653698048e6 0.0
0.0 0.0 0.0

432893.858404072 6.23348509684319e6 0.0
6.23348509684319e6 -3.9714623080841107e6 0.0
0.0 0.0 0.0

-852647.3589638788 9.793957283879163e6 0.0
9.793957283879163e6 -5.170793361961398e6 0.0
0.0 0.0 0.0

2.1062860253528534e6 5.872475348085661e6 0.0
5.872475348085661e6 -7.267442065280291e6 0.0
0.0 0.0 0.0

-8.338380052698352e6 1.5223873614338562e6 0.0
1.5223873614338562e6 7.965381374276303e6 0.0
0.0 0.0 0.0

5.23728059720706e6 5.99682761783414e6 0.0
5.99682761783414e6 -1.5352159081018312e7 0.0
0.0 0.0 0.0

-760255.2912922902 1.0975137360052291e7 0.0
1.0975137360052291e7 -2.534184134725693e6 0.0
0.0 0.0 0.0

-5.776914301646894e6 5.144519075728943e6 0.0
5.144519075728943e6 4.343764003328742e6 0.0
0.0 0.0 0.0

-5.398263421414907e6 1.2951173697511462e7 0.0
1.2951173697511462e7 3.2217263093231963e6 0.0
0.0 0.0 0.0

-83534.97158474766 1.0290090307036519e7 0.0
1.0290090307036519e7 2.401432144111614e6 0.0
0.0 0.0 0.0

-8.846642756957114e6 9.529210067206193e6 0.0
9.529210067206193e6 9.957434778010553e6 0.0
0.0 0.0 0.0

-7.264366339650432e6 1.0994647998611113e7 0.0
1.0994647998611113e7 8.85880155342507e6 0.0
0.0 0.0 0.0

-7.286191211834591e6 -3.7449806323622083e6 0.0
-3.7449806323622083e6 1.022897697864159e7 0.0
0.0 0.0 0.0

-1.9227179182602803e6 8.520821398706906e6 0.0
8.520821398706906e6 -1.0153083158138571e6 0.0
0.0 0.0 0.0

-54810.390361370984 1.247962811929197e7 0.0
1.247962811929197e7 5.577327576817673e6 0.0
0.0 0.0 0.0

-3.6281228171158554e6 1.294708914368382e7 0.0
1.294708914368382e7 3.999422261173719e6 0.0
0.0 0.0 0.0

-8.95368235362291e6 3.701016680998114e6 0.0
3.701016680998114e6 9.360494093275845e6 0.0
0.0 0.0 0.0

962018.1896615364 9.933905407320144e6 0.0
9.933905407320144e6 -9.222675031650553e6 0.0
0.0 0.0 0.0

1.4261762483023196e6 6.252578372988384e6 0.0
6.252578372988384e6 -6.823481700786859e6 0.0
0.0 0.0 0.0

-600266.7387243875 1.0612529956076406e7 0.0
1.0612529956076406e7 -5.164444984822827e6 0.0
0.0 0.0 0.0

-1.5975303145115622e6 8.141802828495161e6 0.0
8.141802828495161e6 -1.4172156650718807e6 0.0
0.0 0.0 0.0

1.8469507230565255e6 5.546708841987814e6 0.0
5.546708841987814e6 -6.231524473756202e6 0.0
0.0 0.0 0.0

-3.8593620693922695e6 1.259406970446441e7 0.0
1.259406970446441e7 -733392.8519187736 0.0
0.0 0.0 0.0

-1.0399346296741605e7 -1.7301320981040907e6 0.0
-1.7301320981040907e6 1.7306486241803475e7 0.0
0.0 0.0 0.0

-9.019050336345594e6 -1.705774642036763e6 0.0
-1.705774642036763e6 1.3515791793369263e7 0.0
0.0 0.0 0.0

-1.1976156915197821e7 3.9709243027523e6 0.0
3.9709243027523e6 1.5392105246161627e7 0.0
0.0 0.0 0.0

-2.973381345291931e6 1.2264850228214834e7 0.0
1.2264850228214834e7 -3.039712046201635e6 0.0
0.0 0.0 0.0

-344953.69325831556 6.895383307098519e6 0.0
6.895383307098519e6 -3.6103198413092555e6 0.0
0.0 0.0 0.0

2.7406095386623065e6 1.148574651688323e7 0.0
1.148574651688323e7 3.099174369889585e6 0.0
0.0 0.0 0.0

1.8045495575996935e6 1.4821589919965506e7 0.0
1.4821589919965506e7 1.2992740593698816e7 0.0
0.0 0.0 0.0

1.7317255589440307e6 5.989072790454667e6 0.0
5.989072790454667e6 -6.401188435184086e6 0.0
0.0 0.0 0.0

-3.238086906957212e6 3.863162506943582e6 0.0
3.863162506943582e6 2.8167698478836333e6 0.0
0.0 0.0 0.0

-2.2595917105181618e6 8.933759221010743e6 0.0
8.933759221010743e6 -634875.563257128 0.0
0.0 0.0 0.0

-7.267787726796853e6 1.158202371725342e7 0.0
1.158202371725342e7 7.3742474570166785e6 0.0
0.0 0.0 0.0

4.276174260858924e6 6.640565045911133e6 0.0
6.640565045911133e6 -1.2533815430629162e7 0.0
0.0 0.0 0.0

3.671939020970335e6 6.8759433721922655e6 0.0
6.8759433721922655e6 -1.126051548956845e7 0.0
0.0 0.0 0.0

-404388.25929034955 6.620645994615288e6 0.0
6.620645994615288e6 -2.653664434259302e6 0.0
0.0 0.0 0.0

-4.384052439040235e6 9.936530112883063e6 0.0
9.936530112883063e6 2.7102226143952287e6 0.0
0.0 0.0 0.0

-9.71201453347097e6 1.0516512660675073e7 0.0
1.0516512660675073e7 2.0464096756368626e7 0.0
0.0 0.0 0.0

-934488.8476581988 1.1031387093709739e7 0.0
1.1031387093709739e7 -4.83129438770954e6 0.0
0.0 0.0 0.0

-609851.2767997636 6.90208773994899e6 0.0
6.90208773994899e6 -2.2528016166492295e6 0.0
0.0 0.0 0.0

3.940448236481362e6 6.657412653184616e6 0.0
6.657412653184616e6 -1.1590626027568627e7 0.0
0.0 0.0 0.0

-6.405814554064775e6 1.0808815126468297e7 0.0
1.0808815126468297e7 4.63557569074154e6 0.0
0.0 0.0 0.0

1.7547141678420636e6 7.041346593103174e6 0.0
7.041346593103174e6 -7.95415078704523e6 0.0
0.0 0.0 0.0

-3.1354384245076356e6 2.17095461025084e6 0.0
2.17095461025084e6 -72905.15892482968 0.0
0.0 0.0 0.0

-500549.13913604897 9.611519539588014e6 0.0
9.611519539588014e6 -5.720451496123608e6 0.0
0.0 0.0 0.0

1.050463973813613e6 6.669439223163228e6 0.0
6.669439223163228e6 -3.763016558701321e6 0.0
0.0 0.0 0.0

-1.2581456847772796e6 7.8145551973276995e6 0.0
7.8145551973276995e6 -1.8447262166294395e6 0.0
0.0 0.0 0.0

-882421.8845515491 7.5210753329672115e6 0.0
7.5210753329672115e6 -2.2839497793395277e6 0.0
0.0 0.0 0.0

-837309.4235169311 9.520631434311897e6 0.0
9.520631434311897e6 -4.978757169648643e6 0.0
0.0 0.0 0.0

-2.1678303709957427e6 8.75857076681002e6 0.0
8.75857076681002e6 -1.8433591226182147e6 0.0
0.0 0.0 0.0

-1.0703038672855215e7 2.765650155852358e6 0.0
2.765650155852358e6 1.213974323174623e7 0.0
0.0 0.0 0.0

-1.0709152582805581e7 7.575593208474645e6 0.0
7.575593208474645e6 2.0183353779766012e7 0.0
0.0 0.0 0.0

-1.224883553215212e7 4.560344444795343e6 0.0
4.560344444795343e6 1.7565214773794927e7 0.0
0.0 0.0 0.0

-1.0728803268325761e7 7.774833613500533e6 0.0
7.774833613500533e6 1.8573904941813227e7 0.0
0.0 0.0 0.0

-1.3351289471814586e7 2.040691936378948e6 0.0
2.040691936378948e6 3.0347210005049165e7 0.0
0.0 0.0 0.0

-1.1541772917822287e6 1.2254546732308134e7 0.0
1.2254546732308134e7 1.2385536897225264e6 0.0
0.0 0.0 0.0

-1.2380560498100765e7 -901968.9077539754 0.0
-901968.9077539754 2.0354973717385203e7 0.0
0.0 0.0 0.0

-3.7066614361653905e6 1.1663935340830727e7 0.0
1.1663935340830727e7 -679227.8287268428 0.0
0.0 0.0 0.0

935959.964757035 1.080002400597608e7 0.0
1.080002400597608e7 -7.479278788101839e6 0.0
0.0 0.0 0.0

-2.434199089737463e7 1.6497592033009287e7 0.0
1.6497592033009287e7 475329.6171050053 0.0
0.0 0.0 0.0

1.6727215946280775e6 6.504702690909791e6 0.0
6.504702690909791e6 -6.42509853264135e6 0.0
0.0 0.0 0.0

1.5745942412718046e6 8.933123632081766e6 0.0
8.933123632081766e6 -8.361031913128513e6 0.0
0.0 0.0 0.0

-3.8865736580254403e6 1.2536895750722885e7 0.0
1.2536895750722885e7 -369433.1493556467 0.0
0.0 0.0 0.0

-4.699169267631955e6 1.180796117412036e7 0.0
1.180796117412036e7 2.327633106487002e6 0.0
0.0 0.0 0.0

3.119505894382857e6 7.057513171411231e6 0.0
7.057513171411231e6 -1.0183998983100265e7 0.0
0.0 0.0 0.0

3.9000699826425724e6 1.387526157631219e7 0.0
1.387526157631219e7 -7.683357949856111e6 0.0
0.0 0.0 0.0

-1.6928802101249972e6 7.845181444008737e6 0.0
7.845181444008737e6 -1.8538164075443486e6 0.0
0.0 0.0 0.0

4.688058632111179e6 7.154817425631073e6 0.0
7.154817425631073e6 -1.6209915057775449e7 0.0
0.0 0.0 0.0

-1.318849493926391e6 7.535798634084532e6 0.0
7.535798634084532e6 -2.2595478103605383e6 0.0
0.0 0.0 0.0

1.2790669523251248e6 6.68248802411375e6 0.0
6.68248802411375e6 -6.708080483725021e6 0.0
0.0 0.0 0.0

-7.905210009093286e6 9.865762923481261e6 0.0
9.865762923481261e6 9.297897088894218e6 0.0
0.0 0.0 0.0

-1.4746106996753013e7 1.0872131315760927e7 0.0
1.0872131315760927e7 4.850937586193876e6 0.0
0.0 0.0 0.0

-7.647040710571344e6 -496795.64760863193 0.0
-496795.64760863193 8.594525347818926e6 0.0
0.0 0.0 0.0

-1.284390579362411e6 1.1433450166739184e7 0.0
1.1433450166739184e7 -4.472323661215379e6 0.0
0.0 0.0 0.0

-1.0043286284199143e7 1.084464437161695e7 0.0
1.084464437161695e7 7.083338708068902e6 0.0
0.0 0.0 0.0

1.6886594248366165e6 5.658479355908864e6 0.0
5.658479355908864e6 -6.394206293165945e6 0.0
0.0 0.0 0.0

-5.623376757130108e6 4.666975458474269e6 0.0
4.666975458474269e6 6.185713744082298e6 0.0
0.0 0.0 0.0

-645645.8293052345 1.010548082692899e7 0.0
1.010548082692899e7 -4.683146838852452e6 0.0
0.0 0.0 0.0

-1.411976632785445e6 9.27932599223867e6 0.0
9.27932599223867e6 -2.683118128672331e6 0.0
0.0 0.0 0.0

-2.0553495103416857e6 8.204087268202016e6 0.0
8.204087268202016e6 -1.482704577064164e6 0.0
0.0 0.0 0.0

-1.1747428353291797e7 2.7792386576978e6 0.0
2.7792386576978e6 1.5307106895165311e7 0.0
0.0 0.0 0.0

4.0001278671546574e6 5.999774338353842e6 0.0
5.999774338353842e6 -1.095343271590199e7 0.0
0.0 0.0 0.0

1.735577224341122e6 5.854444140517081e6 0.0
5.854444140517081e6 -7.311642955172497e6 0.0
0.0 0.0 0.0

-6.047105151997316e6 1.0654663592874525e7 0.0
1.0654663592874525e7 3.9104057986389287e6 0.0
0.0 0.0 0.0

-655917.4339222191 4.5267571160487635e6 0.0
4.5267571160487635e6 -1.1748868172519694e6 0.0
0.0 0.0 0.0

-563008.7908454759 8.879018577050887e6 0.0
8.879018577050887e6 -5.066168432625376e6 0.0
0.0 0.0 0.0

2.564129336916883e6 6.551597714656688e6 0.0
6.551597714656688e6 -8.59060055448631e6 0.0
0.0 0.0 0.0

-1.063294511522952e7 -941654.2593997582 0.0
-941654.2593997582 1.6240744291214315e7 0.0
0.0 0.0 0.0

-997546.8598843145 1.2409110368791513e7 0.0
1.2409110368791513e7 593088.6719169815 0.0
0.0 0.0 0.0

-7.103305343849035e6 1.4458346526696538e6 0.0
1.4458346526696538e6 6.376910212633528e6 0.0
0.0 0.0 0.0

2.735429638305969e6 8.987155305167962e6 0.0
8.987155305167962e6 -1.1582621607355777e7 0.0
0.0 0.0 0.0

385280.6188385356 1.1454118523958977e7 0.0
1.1454118523958977e7 -8.760788498076221e6 0.0
0.0 0.0 0.0

-5.468165752990315e6 5.61854582778635e6 0.0
5.61854582778635e6 3.9285350661744294e6 0.0
0.0 0.0 0.0

1.397849860297707e6 1.0323441527174646e7 0.0
1.0323441527174646e7 -9.391853389172776e6 0.0
0.0 0.0 0.0

108336.5102258122 9.975506754050588e6 0.0
9.975506754050588e6 -6.058675020271756e6 0.0
0.0 0.0 0.0

2.1366207321436713e6 6.556587046187145e6 0.0
6.556587046187145e6 -3.9628200232409714e6 0.0
0.0 0.0 0.0

-3.8132756196715664e6 1.9582604611239105e6 0.0
1.9582604611239105e6 2.4026901976795206e6 0.0
0.0 0.0 0.0

-378280.9160803247 8.034835012337165e6 0.0
8.034835012337165e6 -4.922863195356959e6 0.0
0.0 0.0 0.0

-76884.00793014979 7.606998833847174e6 0.0
7.606998833847174e6 -5.239422483512444e6 0.0
0.0 0.0 0.0

-582829.9674150419 1.0335330913203027e7 0.0
1.0335330913203027e7 -4.914811427674606e6 0.0
0.0 0.0 0.0

-955703.7117663295 1.2516181313958181e7 0.0
1.2516181313958181e7 28287.67775348667 0.0
0.0 0.0 0.0

637229.6291177266 7.091182154895435e6 0.0
7.091182154895435e6 -6.061893525876257e6 0.0
0.0 0.0 0.0

2.0253223373666955e6 1.0267562733704196e7 0.0
1.0267562733704196e7 -1.4633968506916635e7 0.0
0.0 0.0 0.0

-675214.8297701441 5.091037808076818e6 0.0
5.091037808076818e6 -1.3301688689827977e6 0.0
0.0 0.0 0.0

-2.4665849756163643e6 1.1701389646308241e7 0.0
1.1701389646308241e7 -1.1530200633209396e7 0.0
0.0 0.0 0.0

-5.324713796862172e7 3.930265966330569e6 0.0
3.930265966330569e6 9.920716465289332e6 0.0
0.0 0.0 0.0

3.660515796737099e7 8.732848454702139e6 0.0
8.732848454702139e6 -2.564697005383702e6 0.0
0.0 0.0 0.0

1.7857019220850393e6 1.069970258945985e7 0.0
1.069970258945985e7 -1.5760279037690789e7 0.0
0.0 0.0 0.0

-6.639346948199725e6 7.933017709147348e6 0.0
7.933017709147348e6 7.312541565202314e6 0.0
0.0 0.0 0.0

-3.881805923071921e6 1.0679959894044675e7 0.0
1.0679959894044675e7 229613.0283799707 0.0
0.0 0.0 0.0

-670632.8379731259 8.42456090690112e6 0.0
8.42456090690112e6 -4.623835878997674e6 0.0
0.0 0.0 0.0

57081.570384168765 6.438779112691499e6 0.0
6.438779112691499e6 -3.9504093383845105e6 0.0
0.0 0.0 0.0

333027.25562253594 6.536683751783519e6 0.0
6.536683751783519e6 -3.7980906406348576e6 0.0
0.0 0.0 0.0

-2.405577658915227e6 8.610570550913613e6 0.0
8.610570550913613e6 -1.1281543292860473e6 0.0
0.0 0.0 0.0

1.9341041741773589e6 1.0463670244721154e7 0.0
1.0463670244721154e7 -1.5184716144286713e7 0.0
0.0 0.0 0.0

160178.42544112494 7.9148093036453575e6 0.0
7.9148093036453575e6 -4.7511256361066215e6 0.0
0.0 0.0 0.0

-9.623248239014734e6 -323198.3876699303 0.0
-323198.3876699303 1.1714375404931862e7 0.0
0.0 0.0 0.0

2.498899578671756e7 9.680814726777654e6 0.0
9.680814726777654e6 -3.5794276856648345e6 0.0
0.0 0.0 0.0

-143533.2808837006 8.317873466981776e6 0.0
8.317873466981776e6 -4.474682321215973e6 0.0
0.0 0.0 0.0

3.1903441399867707e6 6.528322260320428e6 0.0
6.528322260320428e6 -9.853571937974483e6 0.0
0.0 0.0 0.0

3.151863315366506e6 6.789547497650881e6 0.0
6.789547497650881e6 -9.975790254481869e6 0.0
0.0 0.0 0.0

-7.344829481388407e6 1.0368403143159328e7 0.0
1.0368403143159328e7 8.779411172207102e6 0.0
0.0 0.0 0.0

739758.8784985868 9.581503783041617e6 0.0
9.581503783041617e6 -6.953138388139042e6 0.0
0.0 0.0 0.0

-1.851292701598215e6 1.2733898398993501e7 0.0
1.2733898398993501e7 -1.6569500276563896e6 0.0
0.0 0.0 0.0

1.8430307717914463e6 1.2977787045304382e7 0.0
1.2977787045304382e7 -5.4651622373811165e6 0.0
0.0 0.0 0.0

-1.2129547227422425e6 8.205277008497981e6 0.0
8.205277008497981e6 -2.124446076596622e6 0.0
0.0 0.0 0.0

724083.5793803672 6.196718865026712e6 0.0
6.196718865026712e6 -4.082717559840629e6 0.0
0.0 0.0 0.0

-680558.4561615878 7.180398516635717e6 0.0
7.180398516635717e6 -3.1594180179698393e6 0.0
0.0 0.0 0.0

-643458.8839318649 6.269537804805616e6 0.0
6.269537804805616e6 -1.675123313109803e6 0.0
0.0 0.0 0.0

-656053.2126008174 1.065187114011371e7 0.0
1.065187114011371e7 -1.0225812262468988e7 0.0
0.0 0.0 0.0

2.3680650766655277e6 8.759078109273966e6 0.0
8.759078109273966e6 -1.0158606468334021e7 0.0
0.0 0.0 0.0

1.32783157533126e6 5.9187823617452225e6 0.0
5.9187823617452225e6 -6.8092683768959325e6 0.0
0.0 0.0 0.0

1.1650311883051065e6 6.911713119180696e6 0.0
6.911713119180696e6 -5.78844783395003e6 0.0
0.0 0.0 0.0

-1.987957607669874e6 9.104094600848552e6 0.0
9.104094600848552e6 -1.3252840302881706e6 0.0
0.0 0.0 0.0

1.3328349461449226e6 6.9369620958442865e6 0.0
6.9369620958442865e6 -6.891664691894598e6 0.0
0.0 0.0 0.0

-56642.72306717117 6.623526195376473e6 0.0
6.623526195376473e6 -3.9243900469393404e6 0.0
0.0 0.0 0.0

2.4101786989337923e6 5.708613595460734e6 0.0
5.708613595460734e6 -7.7806068140772795e6 0.0
0.0 0.0 0.0

-295835.56168675655 9.414154504616689e6 0.0
9.414154504616689e6 -4.829756274301771e6 0.0
0.0 0.0 0.0

-917951.3933699011 5.674083953821075e6 0.0
5.674083953821075e6 -1.5605308655042574e6 0.0
0.0 0.0 0.0

-3.7022498974609687e6 1.2589383700658068e7 0.0
1.2589383700658068e7 -1.8063425036696817e6 0.0
0.0 0.0 0.0

4.459098367694694e6 6.766316942048924e6 0.0
6.766316942048924e6 -1.4632367231523719e7 0.0
0.0 0.0 0.0

-650498.6533016003 9.832504625726972e6 0.0
9.832504625726972e6 -4.504786066538357e6 0.0
0.0 0.0 0.0

2.1208034405575455e6 7.076628950870508e6 0.0
7.076628950870508e6 -7.763832802406119e6 0.0
0.0 0.0 0.0

392959.91529249586 6.914915459038528e6 0.0
6.914915459038528e6 -3.4018455678935703e6 0.0
0.0 0.0 0.0

2.3453553173677134e6 6.817675266017022e6 0.0
6.817675266017022e6 -8.191523775336593e6 0.0
0.0 0.0 0.0

-4.354812606245835e6 1.0753999366549814e7 0.0
1.0753999366549814e7 2.1941775022928417e6 0.0
0.0 0.0 0.0

-3.988772782569781e6 1.4079481231931265e7 0.0
1.4079481231931265e7 -2.114832969003751e6 0.0
0.0 0.0 0.0

779353.7151938886 1.1418872896175949e7 0.0
1.1418872896175949e7 -8.968286418690313e6 0.0
0.0 0.0 0.0

458704.1503499488 6.346525572265018e6 0.0
6.346525572265018e6 -4.309037528462574e6 0.0
0.0 0.0 0.0

-4.055060016130671e6 1.4021314205252439e7 0.0
1.4021314205252439e7 -403464.865392911 0.0
0.0 0.0 0.0

-2.339211661484549e6 1.2158254530286765e7 0.0
1.2158254530286765e7 -2.9370550490809055e6 0.0
0.0 0.0 0.0

-4.251518102261711e6 4.432107331560833e6 0.0
4.432107331560833e6 2.7099271704475414e6 0.0
0.0 0.0 0.0

-3.788692086279042e6 1.2804840167933162e7 0.0
1.2804840167933162e7 4.584952904835413e6 0.0
0.0 0.0 0.0

577626.7876043459 6.520605945352198e6 0.0
6.520605945352198e6 -3.191779180548333e6 0.0
0.0 0.0 0.0

-922501.5661357543 7.639272868283447e6 0.0
7.639272868283447e6 -2.315648540534792e6 0.0
0.0 0.0 0.0

-1.1476068536185652e7 1.6187602606539493e6 0.0
1.6187602606539493e6 1.9333576936933093e7 0.0
0.0 0.0 0.0

-2.5366384370288216e6 7.829859476280105e6 0.0
7.829859476280105e6 -321277.1661869643 0.0
0.0 0.0 0.0

2.0097657053410723e6 9.928383682871692e6 0.0
9.928383682871692e6 -2.196299100720433e6 0.0
0.0 0.0 0.0

-418278.1073743382 8.716640624589926e6 0.0
8.716640624589926e6 -4.1663496022524983e6 0.0
0.0 0.0 0.0

-871902.6721424185 9.283019575134452e6 0.0
9.283019575134452e6 -4.744868572866706e6 0.0
0.0 0.0 0.0

1.932491894815648e6 1.0125095465003574e7 0.0
1.0125095465003574e7 -1.4123017345974717e7 0.0
0.0 0.0 0.0

4.447032078444465e6 7.009771691707758e6 0.0
7.009771691707758e6 -1.5274738378325552e7 0.0
0.0 0.0 0.0

-8.92567124864687e6 4.774742710814448e6 0.0
4.774742710814448e6 9.594629824031321e6 0.0
0.0 0.0 0.0

-5.876381939729214e6 1.2374034435573742e7 0.0
1.2374034435573742e7 4.563729672902483e6 0.0
0.0 0.0 0.0

-1.0520613248334453e7 -1.3081353747423438e6 0.0
-1.3081353747423438e6 1.3620993809109487e7 0.0
0.0 0.0 0.0

-1.685594727430882e6 1.1800412525780873e7 0.0
1.1800412525780873e7 -4.17566102061991e6 0.0
0.0 0.0 0.0

-1.3690337524133015e6 1.1983676068509635e7 0.0
1.1983676068509635e7 -5.85823813587713e6 0.0
0.0 0.0 0.0

6.042845951675676e6 5.157179094876974e6 0.0
5.157179094876974e6 -665401.0052158954 0.0
0.0 0.0 0.0

590833.7993521201 7.154187740771848e6 0.0
7.154187740771848e6 -5.00133016632403e6 0.0
0.0 0.0 0.0

-4.287967020770286e6 6.3185789459158955e6 0.0
6.3185789459158955e6 2.224074897362893e6 0.0
0.0 0.0 0.0

433332.15217036614 1.0896234633945249e7 0.0
1.0896234633945249e7 -9.031757551585954e6 0.0
0.0 0.0 0.0

-316443.9251796454 9.182486893699711e6 0.0
9.182486893699711e6 -4.608490344264925e6 0.0
0.0 0.0 0.0

-271994.4996043246 9.93045712779049e6 0.0
9.93045712779049e6 -5.242439526564094e6 0.0
0.0 0.0 0.0

-1.0998199980719764e7 5.092506167404409e6 0.0
5.092506167404409e6 1.5470652171719395e7 0.0
0.0 0.0 0.0

-6.843917019405701e6 4.821166202343626e6 0.0
4.821166202343626e6 6.11476992635789e6 0.0
0.0 0.0 0.0

-913481.2137605085 9.03486179947526e6 0.0
9.03486179947526e6 -4.52897453952406e6 0.0
0.0 0.0 0.0

-2.1084967480957303e6 1.0352773231600273e7 0.0
1.0352773231600273e7 -3.0631641886538225e6 0.0
0.0 0.0 0.0

-3.9990799069945235e6 9.307795204714509e6 0.0
9.307795204714509e6 3.0289672301082304e6 0.0
0.0 0.0 0.0

-4.966499562998599e6 1.2771132168149918e7 0.0
1.2771132168149918e7 1.286798960494653e6 0.0
0.0 0.0 0.0

2.6085958855050043e6 8.8742907350773e6 0.0
8.8742907350773e6 -1.088433450682925e7 0.0
0.0 0.0 0.0

-6.904845057471111e6 1.4917554250441257e7 0.0
1.4917554250441257e7 5.378253191367669e6 0.0
0.0 0.0 0.0

-4.202936610609696e6 6.856908811277698e6 0.0
6.856908811277698e6 1.9849629545062738e6 0.0
0.0 0.0 0.0

-4.021500841681411e6 1.4463974390732178e7 0.0
1.4463974390732178e7 -62574.84396134084 0.0
0.0 0.0 0.0

-373268.89444748533 1.1206885732243609e7 0.0
1.1206885732243609e7 -1.856674009583206e6 0.0
0.0 0.0 0.0

757828.2557460903 1.1616847954426743e7 0.0
1.1616847954426743e7 -8.538104073286902e6 0.0
0.0 0.0 0.0

-1.129400091925278e6 1.1767559917307515e7 0.0
1.1767559917307515e7 -2.8228930009288345e6 0.0
0.0 0.0 0.0

-6.610206202337236e6 1.20835627641203e7 0.0
1.20835627641203e7 5.572840306139592e6 0.0
0.0 0.0 0.0

-1.348934327910668e6 1.0938627433915187e7 0.0
1.0938627433915187e7 -3.9889787344076447e6 0.0
0.0 0.0 0.0

-953934.9359644025 8.818491059457483e6 0.0
8.818491059457483e6 -4.308810935511527e6 0.0
0.0 0.0 0.0

945104.7621268132 1.1264182135886697e7 0.0
1.1264182135886697e7 -9.281607652509995e6 0.0
0.0 0.0 0.0

-562690.0640843774 7.854000032689076e6 0.0
7.854000032689076e6 -3.9375449813393867e6 0.0
0.0 0.0 0.0

-4.866322020060204e6 1.1766664636484062e7 0.0
1.1766664636484062e7 1.7731578850358506e6 0.0
0.0 0.0 0.0

-4.624178657724558e6 1.2581858570489433e7 0.0
1.2581858570489433e7 622819.3080695791 0.0
0.0 0.0 0.0

970556.6007990586 6.931622863179787e6 0.0
6.931622863179787e6 -3.713190358205692e6 0.0
0.0 0.0 0.0

21618.68533069105 7.400114117535021e6 0.0
7.400114117535021e6 -5.127721896555052e6 0.0
0.0 0.0 0.0

-5.021068060573212e6 1.3299141964809101e7 0.0
1.3299141964809101e7 2.346710547750414e6 0.0
0.0 0.0 0.0

-4.575310530938429e6 1.0424445893736394e7 0.0
1.0424445893736394e7 1.6602429098353093e6 0.0
0.0 0.0 0.0

-3.979681385149157e7 -94993.33748721387 0.0
-94993.33748721387 1.0159056860522507e7 0.0
0.0 0.0 0.0

1.3557258458476616e6 1.056518789564563e7 0.0
1.056518789564563e7 -9.587760376040408e6 0.0
0.0 0.0 0.0

-4.680014865412997e6 9.538910119270986e6 0.0
9.538910119270986e6 2.1207870188656817e6 0.0
0.0 0.0 0.0

-3.4943249814864313e6 1.1790362993912077e7 0.0
1.1790362993912077e7 -13249.475232355762 0.0
0.0 0.0 0.0

-5.106145765498355e6 1.0039128815371979e7 0.0
1.0039128815371979e7 2.6002319166609407e6 0.0
0.0 0.0 0.0

-884816.7468469484 1.2672804910482513e7 0.0
1.2672804910482513e7 -450059.44035366655 0.0
0.0 0.0 0.0

-2.0557089134186204e6 1.1507606983043898e7 0.0
1.1507606983043898e7 -3.1790962026076633e6 0.0
0.0 0.0 0.0

-4.0047836869732062e6 7.43230741139264e6 0.0
7.43230741139264e6 1.6393067464300764e6 0.0
0.0 0.0 0.0

-7.401564843751167e6 3.3443448164029378e6 0.0
3.3443448164029378e6 9.792190197372291e6 0.0
0.0 0.0 0.0

-608007.6224939905 8.131259534136199e6 0.0
8.131259534136199e6 -3.343767053288353e6 0.0
0.0 0.0 0.0

1.6893769852566156e6 5.930002414713072e6 0.0
5.930002414713072e6 -5.973802743107388e6 0.0
0.0 0.0 0.0

-1.908589533102227e6 9.362166864626989e6 0.0
9.362166864626989e6 -2.7937762795765623e6 0.0
0.0 0.0 0.0

-2.5748687156958478e6 1.2106298812642023e7 0.0
1.2106298812642023e7 -3.7062415267999033e6 0.0
0.0 0.0 0.0

-4.205383906809928e6 1.0010391459965605e7 0.0
1.0010391459965605e7 1.1813222430943588e6 0.0
0.0 0.0 0.0

-1.8409092579675252e6 8.727370082353525e6 0.0
8.727370082353525e6 -2.4681825529244086e6 0.0
0.0 0.0 0.0

-190572.82491870498 4.544236377650782e6 0.0
4.544236377650782e6 -1.3276986662060954e6 0.0
0.0 0.0 0.0

1.545578892735572e6 5.6773650759769e6 0.0
5.6773650759769e6 -6.441781639347314e6 0.0
0.0 0.0 0.0

-1.0300757231761023e7 1.123689002721239e6 0.0
1.123689002721239e6 1.452547960388318e7 0.0
0.0 0.0 0.0

-3.0429532591044735e6 3.3091729775585765e6 0.0
3.3091729775585765e6 2.0733448983828959e6 0.0
0.0 0.0 0.0

-4.629809012708772e6 1.171003815298956e7 0.0
1.171003815298956e7 6.857093747901566e6 0.0
0.0 0.0 0.0

-2.40541249390052e6 1.0735015235012667e7 0.0
1.0735015235012667e7 -2.7333953057029336e6 0.0
0.0 0.0 0.0

181630.35429471405 7.239218569940122e6 0.0
7.239218569940122e6 -5.100770962228051e6 0.0
0.0 0.0 0.0

-1.0465661523667958e7 502135.33446877287 0.0
502135.33446877287 1.5655162702227548e7 0.0
0.0 0.0 0.0

-3.4514663775127158e6 1.196759888452485e7 0.0
1.196759888452485e7 -206159.60276716622 0.0
0.0 0.0 0.0

-2.1152223209249573e6 8.424966676541096e6 0.0
8.424966676541096e6 -1.6242253877378283e6 0.0
0.0 0.0 0.0

-559558.140179581 7.434785545654039e6 0.0
7.434785545654039e6 -2.773189429873453e6 0.0
0.0 0.0 0.0

-1.0664683165846372e6 8.185609612700193e6 0.0
8.185609612700193e6 -3.388025873275432e6 0.0
0.0 0.0 0.0

606367.96030025 1.0857810486053063e7 0.0
1.0857810486053063e7 -1.0892695511325669e7 0.0
0.0 0.0 0.0

-4.344701198915386e6 1.0383358446587542e7 0.0
1.0383358446587542e7 2.442027829064071e6 0.0
0.0 0.0 0.0

-755651.9484148021 1.1874755183158353e7 0.0
1.1874755183158353e7 -5.774341618857649e6 0.0
0.0 0.0 0.0

-9.381095889969857e6 1.1734002360936055e7 0.0
1.1734002360936055e7 2.5418708513794493e7 0.0
0.0 0.0 0.0

-1.6946335274363512e6 1.1060181489693986e7 0.0
1.1060181489693986e7 4.800511008350982e6 0.0
0.0 0.0 0.0

-5.175599255443448e6 5.997789024912754e6 0.0
5.997789024912754e6 3.504436574175381e6 0.0
0.0 0.0 0.0

1.812422546714149e6 8.957818685258817e6 0.0
8.957818685258817e6 -8.920170265902732e6 0.0
0.0 0.0 0.0

-1.6722486399159385e6 9.056684993375665e6 0.0
9.056684993375665e6 -1.9638470345445448e6 0.0
0.0 0.0 0.0

-2.17597795878014e6 1.3249036630115239e7 0.0
1.3249036630115239e7 -4.578288437028793e6 0.0
0.0 0.0 0.0

-5.825602206760681e6 1.2916052838040402e7 0.0
1.2916052838040402e7 4.15230328210724e6 0.0
0.0 0.0 0.0

-4.346358534263398e6 1.2378130234940674e7 0.0
1.2378130234940674e7 148277.23424912686 0.0
0.0 0.0 0.0

634346.5511071142 1.1829257774141485e7 0.0
1.1829257774141485e7 -8.064667084476741e6 0.0
0.0 0.0 0.0

-1.2958899871960203e6 8.648294564412847e6 0.0
8.648294564412847e6 -2.3782343766334336e6 0.0
0.0 0.0 0.0

-4.990649991428811e6 1.0477806483416429e7 0.0
1.0477806483416429e7 2.336187827303389e6 0.0
0.0 0.0 0.0

-3.496266209525331e6 4.251640354812966e6 0.0
4.251640354812966e6 1.768753115978164e6 0.0
0.0 0.0 0.0

1.5570439637716464e6 5.503649029781526e6 0.0
5.503649029781526e6 -6.813122979461828e6 0.0
0.0 0.0 0.0

-1.7263870819935566e6 9.485936540098727e6 0.0
9.485936540098727e6 -2.197304441323026e6 0.0
0.0 0.0 0.0

1.7747248035675278e6 7.324018632498581e6 0.0
7.324018632498581e6 -6.920749177482265e6 0.0
0.0 0.0 0.0

-3.669616547025867e6 1.0828247361164523e7 0.0
1.0828247361164523e7 918291.0738358381 0.0
0.0 0.0 0.0

-164375.6034544974 7.146782637260029e6 0.0
7.146782637260029e6 -3.2359493992550243e6 0.0
0.0 0.0 0.0

-5.817382797558598e6 1.4294516302092457e7 0.0
1.4294516302092457e7 1.9644450776377907e6 0.0
0.0 0.0 0.0

-2.883631275121873e7 -2.8032977663651905e6 0.0
-2.8032977663651905e6 1.1527655222951006e7 0.0
0.0 0.0 0.0

146969.55942074396 6.83884618092327e6 0.0
6.83884618092327e6 -3.5985525464906227e6 0.0
0.0 0.0 0.0

728296.5226675058 1.0736914721895715e7 0.0
1.0736914721895715e7 -1.187573506410226e7 0.0
0.0 0.0 0.0

192770.5564979317 1.2664039062775938e7 0.0
1.2664039062775938e7 -6.2318594109175075e6 0.0
0.0 0.0 0.0

-79109.83545837831 8.518288310605185e6 0.0
8.518288310605185e6 -4.666463654818848e6 0.0
0.0 0.0 0.0

291857.482334143 1.1299001895593995e7 0.0
1.1299001895593995e7 -7.533258222746777e6 0.0
0.0 0.0 0.0

477755.71444158466 6.626759931021649e6 0.0
6.626759931021649e6 -3.8992297547778767e6 0.0
0.0 0.0 0.0

2.1609208016315172e6 6.820286309985265e6 0.0
6.820286309985265e6 -7.599234043755208e6 0.0
0.0 0.0 0.0

-5.27806479211562e6 1.2991033337216325e7 0.0
1.2991033337216325e7 1.8592419260052592e6 0.0
0.0 0.0 0.0

192925.33903459343 6.191648277964138e6 0.0
6.191648277964138e6 -4.0492151603094577e6 0.0
0.0 0.0 0.0

241831.88945196755 7.318371107167079e6 0.0
7.318371107167079e6 -5.67710606343292e6 0.0
0.0 0.0 0.0

-6.355241195076739e6 1.483299146592333e7 0.0
1.483299146592333e7 2.824216766077854e6 0.0
0.0 0.0 0.0

2.267362444637021e6 1.0518060701317996e7 0.0
1.0518060701317996e7 -3.3041677984168585e6 0.0
0.0 0.0 0.0

-2.766671622173647e6 1.3656523249799503e7 0.0
1.3656523249799503e7 -2.622624128357101e6 0.0
0.0 0.0 0.0

4.967995112963133e6 8.108668796092735e6 0.0
8.108668796092735e6 -1.6851190471544906e7 0.0
0.0 0.0 0.0

-9.052091100543834e6 7.704953522670748e6 0.0
7.704953522670748e6 1.211796563690671e7 0.0
0.0 0.0 0.0

-4.8436126575296065e6 1.266911966098839e7 0.0
1.266911966098839e7 2.323562729215616e6 0.0
0.0 0.0 0.0

1.5138487545486246e6 6.945948793770768e6 0.0
6.945948793770768e6 -6.288886583379174e6 0.0
0.0 0.0 0.0

586660.2169647636 6.5010406193535365e6 0.0
6.5010406193535365e6 -4.067654358613566e6 0.0
0.0 0.0 0.0

434600.49194306927 7.078009352709584e6 0.0
7.078009352709584e6 -5.064501825465438e6 0.0
0.0 0.0 0.0

-6.910129225502736e6 1.443301826312231e7 0.0
1.443301826312231e7 5.817305482472165e6 0.0
0.0 0.0 0.0

-1.7922336150014778e6 3.273254896886268e6 0.0
3.273254896886268e6 1.2914737014876003e6 0.0
0.0 0.0 0.0

-8.73886934885312e6 6.743977444245228e6 0.0
6.743977444245228e6 1.0646309574336816e7 0.0
0.0 0.0 0.0

-4.1529995885603474e6 1.2493509525714794e7 0.0
1.2493509525714794e7 747638.7963089063 0.0
0.0 0.0 0.0

50983.65009246231 9.534024641616015e6 0.0
9.534024641616015e6 -5.610163635856387e6 0.0
0.0 0.0 0.0

-4.1092441377272694e6 1.1902217357557632e7 0.0
1.1902217357557632e7 5.716750288367285e6 0.0
0.0 0.0 0.0

-2.203536951113228e6 9.14381398558088e6 0.0
9.14381398558088e6 -2.0702505954841648e6 0.0
0.0 0.0 0.0

-633509.6661166697 9.57881626094866e6 0.0
9.57881626094866e6 -4.305074758106942e6 0.0
0.0 0.0 0.0

1.2977809654028337e6 1.0523054226733025e7 0.0
1.0523054226733025e7 -1.1244147666966105e7 0.0
0.0 0.0 0.0

-3.2055852906029588e6 1.4264246769530835e7 0.0
1.4264246769530835e7 -1.843732540987401e6 0.0
0.0 0.0 0.0

2.0273072173347156e6 1.011825286391954e7 0.0
1.011825286391954e7 -1.3722144634904575e7 0.0
0.0 0.0 0.0

-2.8436693918495905e6 4.0756381691186633e6 0.0
4.0756381691186633e6 1.19230251322067e6 0.0
0.0 0.0 0.0

-656144.7444304107 1.5232219387282085e7 0.0
1.5232219387282085e7 1.423310242855599e7 0.0
0.0 0.0 0.0

-6.811886377015805e6 1.3958521677956287e7 0.0
1.3958521677956287e7 5.583265835880644e6 0.0
0.0 0.0 0.0

-2.213926563194913e6 9.360090993273804e6 0.0
9.360090993273804e6 -2.1851384616268757e6 0.0
0.0 0.0 0.0

68922.8371496643 1.328730090420447e7 0.0
1.328730090420447e7 -5.307292973260743e6 0.0
0.0 0.0 0.0

-3.792835983584175e6 1.233703601552338e7 0.0
1.233703601552338e7 177465.79812704958 0.0
0.0 0.0 0.0

-963030.8754790868 6.88928004245451e6 0.0
6.88928004245451e6 -2.1836529507454797e6 0.0
0.0 0.0 0.0

456560.55211373884 1.2039403281335723e7 0.0
1.2039403281335723e7 -7.578998322377571e6 0.0
0.0 0.0 0.0

1.011746069184518e6 9.671487590691572e6 0.0
9.671487590691572e6 -7.666671456704173e6 0.0
0.0 0.0 0.0

691682.7464604732 9.855361011205457e6 0.0
9.855361011205457e6 -7.174330186372569e6 0.0
0.0 0.0 0.0

-1.2748835123285097e6 8.982016416403804e6 0.0
8.982016416403804e6 -3.794009190924451e6 0.0
0.0 0.0 0.0

2.1953160315006142e6 1.5129186112493316e7 0.0
1.5129186112493316e7 -6.527849134056797e6 0.0
0.0 0.0 0.0

536162.3264304276 7.648971129653045e6 0.0
7.648971129653045e6 -5.159882062675525e6 0.0
0.0 0.0 0.0

1.7164431354249148e6 5.40074172368293e6 0.0
5.40074172368293e6 -6.587738767988401e6 0.0
0.0 0.0 0.0

1.283067291851228e6 9.426190642203758e6 0.0
9.426190642203758e6 -8.072167249204673e6 0.0
0.0 0.0 0.0

4.195767636544092e6 7.063215202074237e6 0.0
7.063215202074237e6 -1.4199364525767768e7 0.0
0.0 0.0 0.0

-1.1039028845542376e6 6.2949671932016015e6 0.0
6.2949671932016015e6 -1.6611683121793503e6 0.0
0.0 0.0 0.0

-4.836995191437123e6 1.1443705088994538e7 0.0
1.1443705088994538e7 1.8162778453471505e6 0.0
0.0 0.0 0.0

2.7093468019642006e6 5.841740264413622e6 0.0
5.841740264413622e6 -9.030367435410041e6 0.0
0.0 0.0 0.0

1.4239319525827435e6 6.049842914916609e6 0.0
6.049842914916609e6 -6.1625257802761495e6 0.0
0.0 0.0 0.0

-1.089873169082197e6 9.082993244269883e6 0.0
9.082993244269883e6 -3.186807858409378e6 0.0
0.0 0.0 0.0

-1.0836981826986142e7 6.1973753586061625e6 0.0
6.1973753586061625e6 1.623309463627451e7 0.0
0.0 0.0 0.0

-6.839914026550451e6 1.2153260131765276e7 0.0
1.2153260131765276e7 7.027665724199642e6 0.0
0.0 0.0 0.0

-1.1957895257673366e6 7.271855699341346e6 0.0
7.271855699341346e6 -2.192775538781699e6 0.0
0.0 0.0 0.0

-7.206487371107187e6 1.1007560003330577e7 0.0
1.1007560003330577e7 8.290775376639152e6 0.0
0.0 0.0 0.0

1.9892985375014935e6 6.100908642934667e6 0.0
6.100908642934667e6 -6.935382334924562e6 0.0
0.0 0.0 0.0

1.495711968703847e6 9.209208877994835e6 0.0
9.209208877994835e6 -8.583172090033546e6 0.0
0.0 0.0 0.0

-1.6174779286306858e7 2.7543070566020638e7 0.0
2.7543070566020638e7 9.98752485122979e6 0.0
0.0 0.0 0.0

-2.2481459963509315e6 7.879904281534534e6 0.0
7.879904281534534e6 -855056.4449803983 0.0
0.0 0.0 0.0

-2.1268540833065324e6 3.864416116379258e6 0.0
3.864416116379258e6 503630.4729122118 0.0
0.0 0.0 0.0

-1.0888222781354152e6 1.1576822452414753e7 0.0
1.1576822452414753e7 -6.241224359405008e6 0.0
0.0 0.0 0.0

403054.49844414834 1.0044702721116258e7 0.0
1.0044702721116258e7 -6.754883742417848e6 0.0
0.0 0.0 0.0

127255.49125987344 60239.324415364084 0.0
60239.324415364084 989529.1971567705 0.0
0.0 0.0 0.0

60617.864262159565 -1.680704401717191e6 0.0
-1.680704401717191e6 3.061733587386916e6 0.0
0.0 0.0 0.0

-7.086576556166584e6 1.4460946534897596e7 0.0
1.4460946534897596e7 5.784897393431022e6 0.0
0.0 0.0 0.0

-4.212462981835571e6 9.556587783020547e6 0.0
9.556587783020547e6 1.3850439803105511e6 0.0
0.0 0.0 0.0

-6.862883995928269e6 1.4397600249174677e7 0.0
1.4397600249174677e7 4.984099370469525e6 0.0
0.0 0.0 0.0

1.9309559793036361e6 7.3572875906253625e6 0.0
7.3572875906253625e6 -7.433099212852218e6 0.0
0.0 0.0 0.0

-4.893505976193874e6 1.0822285287713533e7 0.0
1.0822285287713533e7 2.124440177965341e6 0.0
0.0 0.0 0.0

-8.936656982978424e6 1.5141848276439775e6 0.0
1.5141848276439775e6 1.0614321736960594e7 0.0
0.0 0.0 0.0

-3.405023779107234e7 -1.6520775115819122e6 0.0
-1.6520775115819122e6 1.2386884497486347e7 0.0
0.0 0.0 0.0

-5.223601170634352e6 1.1859488767945468e7 0.0
1.1859488767945468e7 2.2894111971972333e6 0.0
0.0 0.0 0.0

-7.010415297771663e6 1.1420559879645916e7 0.0
1.1420559879645916e7 8.00024208288442e6 0.0
0.0 0.0 0.0

-4.580983522069493e6 1.3767380391965922e7 0.0
1.3767380391965922e7 -822353.233959688 0.0
0.0 0.0 0.0

1.3561660321531943e6 6.090002417835491e6 0.0
6.090002417835491e6 -5.875192373657149e6 0.0
0.0 0.0 0.0

-2.915966216162341e6 8.241693175472494e6 0.0
8.241693175472494e6 79918.44779639516 0.0
0.0 0.0 0.0

-4.743387202557689e6 1.3866297159058375e7 0.0
1.3866297159058375e7 35058.183183837216 0.0
0.0 0.0 0.0

-2.5849974713239726e6 1.3722708058142299e7 0.0
1.3722708058142299e7 -634627.4239539575 0.0
0.0 0.0 0.0

1.5981065680258935e6 6.272872985379039e6 0.0
6.272872985379039e6 -6.253893022123642e6 0.0
0.0 0.0 0.0

-7.042139896697481e6 1.1720967839911599e7 0.0
1.1720967839911599e7 7.684531940936701e6 0.0
0.0 0.0 0.0

-1.5780554573625769e6 1.0251303957250245e7 0.0
1.0251303957250245e7 -2.901561542793657e6 0.0
0.0 0.0 0.0

4.676652887373912e6 6.468439817512847e6 0.0
6.468439817512847e6 -1.4878679167322973e7 0.0
0.0 0.0 0.0

-9.943048863388896e6 -4.348097109540533e6 0.0
-4.348097109540533e6 1.5781323177879363e7 0.0
0.0 0.0 0.0

1.2426967198188757e6 7.181248890720534e6 0.0
7.181248890720534e6 -5.936454025269799e6 0.0
0.0 0.0 0.0

3.4280566613988685e6 6.853118334580823e6 0.0
6.853118334580823e6 -1.0620524292675471e7 0.0
0.0 0.0 0.0

1.2948618886469137e6 1.0752716356912298e7 0.0
1.0752716356912298e7 -6.3715340209758645e6 0.0
0.0 0.0 0.0

2.833333671481544e6 9.126214209160276e6 0.0
9.126214209160276e6 -1.3717207676116383e7 0.0
0.0 0.0 0.0

-7.043966057556472e6 1.6320196828533396e7 0.0
1.6320196828533396e7 2.833908362048987e6 0.0
0.0 0.0 0.0

-9.012822751171011e6 1.018558085410763e7 0.0
1.018558085410763e7 1.4096780009500168e7 0.0
0.0 0.0 0.0

-1.0058537245590478e7 -3.5879230575045045e6 0.0
-3.5879230575045045e6 1.482594475628613e7 0.0
0.0 0.0 0.0

-1.8878911331472946e6 1.0639274288240278e7 0.0
1.0639274288240278e7 -2.5972048665227913e6 0.0
0.0 0.0 0.0

3.5815103164742e6 7.407849745985571e6 0.0
7.407849745985571e6 -1.2700453185400475e7 0.0
0.0 0.0 0.0

-3.0271595552638257e6 1.0366130025597561e7 0.0
1.0366130025597561e7 -154670.2471133871 0.0
0.0 0.0 0.0

-4.519397392575409e6 1.1071986955741944e7 0.0
1.1071986955741944e7 1.358313737207881e6 0.0
0.0 0.0 0.0

-4.037578688683611e6 3.83611334325437e6 0.0
3.83611334325437e6 3.92286222653969e6 0.0
0.0 0.0 0.0

-3.0909826805697763e6 1.4588129649391523e7 0.0
1.4588129649391523e7 -1.9694572448436865e6 0.0
0.0 0.0 0.0

1.6125087711208127e6 1.0578539781099427e7 0.0
1.0578539781099427e7 -5.197544755444587e6 0.0
0.0 0.0 0.0

-4.401890763386022e6 1.273637702460208e7 0.0
1.273637702460208e7 1.3080972523245492e6 0.0
0.0 0.0 0.0

4.962099378393304e6 5.693472768839459e6 0.0
5.693472768839459e6 -1.405561963552149e7 0.0
0.0 0.0 0.0

-4.877296505093927e6 1.1199857182981044e7 0.0
1.1199857182981044e7 1.9160183385229306e6 0.0
0.0 0.0 0.0

-29761.35737178917 8.75046141372121e6 0.0
8.75046141372121e6 -4.881852911851733e6 0.0
0.0 0.0 0.0

-1.4142194742508293e6 7.674021905073623e6 0.0
7.674021905073623e6 -2.336226805314613e6 0.0
0.0 0.0 0.0

-984033.7481131353 8.507676257889576e6 0.0
8.507676257889576e6 -2.907082801064268e6 0.0
0.0 0.0 0.0

-498904.8451565763 5.951727707967236e6 0.0
5.951727707967236e6 -2.1054091446726182e6 0.0
0.0 0.0 0.0

1.6719547894233041e6 1.0520386241821477e7 0.0
1.0520386241821477e7 -5.2682148496083e6 0.0
0.0 0.0 0.0

-1.0477364611005593e7 2.1384604509098586e6 0.0
2.1384604509098586e6 1.3958750327042513e7 0.0
0.0 0.0 0.0

-668604.4780030408 9.335311580379225e6 0.0
9.335311580379225e6 -4.0752383004011926e6 0.0
0.0 0.0 0.0

-84661.79862306907 6.809422589220276e6 0.0
6.809422589220276e6 -3.150810816442373e6 0.0
0.0 0.0 0.0

-7.325025421086298e6 1.467361108867519e7 0.0
1.467361108867519e7 6.100006020768525e6 0.0
0.0 0.0 0.0

-3.4468561767666154e6 1.250980934763454e7 0.0
1.250980934763454e7 -847299.913319788 0.0
0.0 0.0 0.0

840308.9905577404 1.0719710231325487e7 0.0
1.0719710231325487e7 -8.384894860882659e6 0.0
0.0 0.0 0.0

905651.1133667498 7.4021356697753295e6 0.0
7.4021356697753295e6 -5.569007638787407e6 0.0
0.0 0.0 0.0

-4.957282272113602e6 1.2162422990670592e7 0.0
1.2162422990670592e7 2.7373566062527876e6 0.0
0.0 0.0 0.0

-6.8047099932296965e6 1.0884922491179265e7 0.0
1.0884922491179265e7 8.157558482485246e6 0.0
0.0 0.0 0.0

-6.370367920845633e6 1.12146914757925e7 0.0
1.12146914757925e7 9.631043181078067e6 0.0
0.0 0.0 0.0

3.617510849200216e6 7.5786144902703045e6 0.0
7.5786144902703045e6 -1.3430096581981167e7 0.0
0.0 0.0 0.0

-4.6720265876908405e6 1.0821404048432333e7 0.0
1.0821404048432333e7 2.8637516924601924e6 0.0
0.0 0.0 0.0

-4.659178289356962e6 1.1519585775578983e7 0.0
1.1519585775578983e7 2.389934619781132e6 0.0
0.0 0.0 0.0

-3.897905923657302e6 5.230299958890023e6 0.0
5.230299958890023e6 1.920663469457437e6 0.0
0.0 0.0 0.0

-7.160917887054892e6 1.6746390089822665e7 0.0
1.6746390089822665e7 2.9011622898333417e6 0.0
0.0 0.0 0.0

-476025.88562645996 8.523950523365077e6 0.0
8.523950523365077e6 -4.001926368841693e6 0.0
0.0 0.0 0.0

-7.701982438524247e6 8.140201584889036e6 0.0
8.140201584889036e6 7.087681051388015e6 0.0
0.0 0.0 0.0

836391.1671503491 7.139899105350691e6 0.0
7.139899105350691e6 -5.4153928674699515e6 0.0
0.0 0.0 0.0

-806948.0051405889 7.272240761788251e6 0.0
7.272240761788251e6 -2.236088399738653e6 0.0
0.0 0.0 0.0

-4.929958694264428e6 1.2353562702225963e7 0.0
1.2353562702225963e7 2.5860093988938676e6 0.0
0.0 0.0 0.0

-5.230829682699464e6 1.2699942256025571e7 0.0
1.2699942256025571e7 2.9468872141518174e6 0.0
0.0 0.0 0.0

-705947.8173841115 9.110347670653692e6 0.0
9.110347670653692e6 -3.8551573761463403e6 0.0
0.0 0.0 0.0

1.720435172653665e6 1.1466742688607719e7 0.0
1.1466742688607719e7 -5.645620583011739e6 0.0
0.0 0.0 0.0

392914.28067593765 1.5870293660106942e7 0.0
1.5870293660106942e7 -5.3014337118017515e6 0.0
0.0 0.0 0.0

-3.6378084952027285e6 1.3082017410272248e7 0.0
1.3082017410272248e7 3.0664016592513514e6 0.0
0.0 0.0 0.0

-1.5467945292690706e6 1.1303432135732861e7 0.0
1.1303432135732861e7 -1.0888760896740383e7 0.0
0.0 0.0 0.0

125699.17129383818 7.738108927873254e6 0.0
7.738108927873254e6 -4.601981973960062e6 0.0
0.0 0.0 0.0

-6.948108571032946e6 2.3275490262685767e6 0.0
2.3275490262685767e6 9.157830341740672e6 0.0
0.0 0.0 0.0

-944892.6151868246 1.2799555560944106e7 0.0
1.2799555560944106e7 -758745.0025928784 0.0
0.0 0.0 0.0

-2.3442444374528513e6 1.2723803018086595e7 0.0
1.2723803018086595e7 -57807.01550244365 0.0
0.0 0.0 0.0

-4.672747938394163e6 1.1147033237930516e7 0.0
1.1147033237930516e7 2.607521751705051e6 0.0
0.0 0.0 0.0

-8.212316108270122e6 388521.0901040968 0.0
388521.0901040968 1.0188223662990466e7 0.0
0.0 0.0 0.0

-7.6327633152716225e6 1.4857921229648251e7 0.0
1.4857921229648251e7 6.399421354947844e6 0.0
0.0 0.0 0.0

-5.156028892942603e6 1.2088150906173084e7 0.0
1.2088150906173084e7 2.0880107215452446e6 0.0
0.0 0.0 0.0

1.927375204339729e6 9.70885662073066e6 0.0
9.70885662073066e6 -2.701448947467259e6 0.0
0.0 0.0 0.0

182971.80954698267 1.0821163758818205e7 0.0
1.0821163758818205e7 609906.1373586478 0.0
0.0 0.0 0.0

-4.734645796279069e6 1.0432815544375677e7 0.0
1.0432815544375677e7 3.2041475250990586e6 0.0
0.0 0.0 0.0

-6.337097638494523e6 8.905988149888193e6 0.0
8.905988149888193e6 4.575797523932025e6 0.0
0.0 0.0 0.0

1.5282562929901686e6 5.972294172660445e6 0.0
5.972294172660445e6 -6.160814220049102e6 0.0
0.0 0.0 0.0

-4.415445557281838e6 1.2888239412346879e7 0.0
1.2888239412346879e7 1.0963360180452003e6 0.0
0.0 0.0 0.0

-6.0559917096036e6 7.113402771651065e6 0.0
7.113402771651065e6 6.497288811723437e6 0.0
0.0 0.0 0.0

2.2381478961801426e6 5.664425593940674e6 0.0
5.664425593940674e6 -8.332058793321386e6 0.0
0.0 0.0 0.0

-4.030594772065157e6 1.20376358520537e7 0.0
1.20376358520537e7 -283190.12311149715 0.0
0.0 0.0 0.0

-4.317820943815178e6 1.1107754667618245e7 0.0
1.1107754667618245e7 2.0275363802608806e6 0.0
0.0 0.0 0.0

319363.58119487343 6.937570935937812e6 0.0
6.937570935937812e6 -3.6530707508326583e6 0.0
0.0 0.0 0.0

816999.9207496177 7.920309347459176e6 0.0
7.920309347459176e6 -6.64175162330889e6 0.0
0.0 0.0 0.0

-1.2830119838372966e7 2.4849727470551744e7 0.0
2.4849727470551744e7 8.699536050944366e6 0.0
0.0 0.0 0.0

5.433373226482969e6 8.178211080728486e6 0.0
8.178211080728486e6 -1.9218723654268727e7 0.0
0.0 0.0 0.0

2.6841094611129207e6 6.126536839718907e6 0.0
6.126536839718907e6 -9.498735557822406e6 0.0
0.0 0.0 0.0

1.183065243368039e6 8.809916086595051e6 0.0
8.809916086595051e6 -7.076369134652938e6 0.0
0.0 0.0 0.0

-2.739380231891905e6 1.2933452030069586e7 0.0
1.2933452030069586e7 1.825453817111445e6 0.0
0.0 0.0 0.0

1.1934913767409595e6 1.0269357318122413e7 0.0
1.0269357318122413e7 -1.0110939248012554e7 0.0
0.0 0.0 0.0

196658.65579699236 7.592761566787773e6 0.0
7.592761566787773e6 -4.600071872367498e6 0.0
0.0 0.0 0.0

-1.0766759788437244e6 7.477442520274955e6 0.0
7.477442520274955e6 -2.8043598536161482e6 0.0
0.0 0.0 0.0

-708164.8835990261 1.2105343505076848e7 0.0
1.2105343505076848e7 3.1661671048487523e6 0.0
0.0 0.0 0.0

-8.829905352204798e6 1.0271147872073825e7 0.0
1.0271147872073825e7 1.2972977764215624e7 0.0
0.0 0.0 0.0

475647.7661948574 9.789754904436843e6 0.0
9.789754904436843e6 6.681306343080988e6 0.0
0.0 0.0 0.0

-9.321352738986539e6 1.6127203602230422e7 0.0
1.6127203602230422e7 7.319106005669831e6 0.0
0.0 0.0 0.0

-1.594462696288942e6 9.162947403504748e6 0.0
9.162947403504748e6 -3.293285314246282e6 0.0
0.0 0.0 0.0

-1.2964116449675743e7 1.0366047412521426e7 0.0
1.0366047412521426e7 4.1431781466861144e6 0.0
0.0 0.0 0.0

-1.2780541028181806e6 9.882443255269615e6 0.0
9.882443255269615e6 -3.226929512384262e6 0.0
0.0 0.0 0.0

-4.415047140703206e6 1.1391157776055459e7 0.0
1.1391157776055459e7 1.8313426474565922e6 0.0
0.0 0.0 0.0

-781109.0073487232 8.559393350320796e6 0.0
8.559393350320796e6 -3.4427953889856366e6 0.0
0.0 0.0 0.0

1.0176689154667915e6 1.0772642126051271e7 0.0
1.0772642126051271e7 -1.0684944390463091e7 0.0
0.0 0.0 0.0

1.9360158410077272e6 5.807584768354633e6 0.0
5.807584768354633e6 -7.9165634599326225e6 0.0
0.0 0.0 0.0

3.3031042119017774e6 8.60611525459399e6 0.0
8.60611525459399e6 -1.2534692639698561e7 0.0
0.0 0.0 0.0

-2.823794217940045e6 1.2000485146899141e7 0.0
1.2000485146899141e7 4.22256485078049e6 0.0
0.0 0.0 0.0

2.584631859871832e6 6.758558825238625e6 0.0
6.758558825238625e6 -8.80165615118176e6 0.0
0.0 0.0 0.0

-3.997089071217577e6 1.219827626888356e7 0.0
1.219827626888356e7 -454791.975503986 0.0
0.0 0.0 0.0

-2.239083420546498e6 1.1468340848011395e7 0.0
1.1468340848011395e7 -3.774432832444776e6 0.0
0.0 0.0 0.0

-1.4410710021847344e6 8.308451498728201e6 0.0
8.308451498728201e6 -2.892818504792359e6 0.0
0.0 0.0 0.0

-2.7467191719841645e6 9.02594195484143e6 0.0
9.02594195484143e6 -753687.8050865235 0.0
0.0 0.0 0.0

-7.851955693634704e6 8.684534504689362e6 0.0
8.684534504689362e6 7.938444043756723e6 0.0
0.0 0.0 0.0

1.584613815732094e6 7.5243692927915305e6 0.0
7.5243692927915305e6 -6.628978774127437e6 0.0
0.0 0.0 0.0

-1.129140578687549e7 1.7096907985496182e7 0.0
1.7096907985496182e7 8.42350603100879e6 0.0
0.0 0.0 0.0

-8.058621143343244e6 1.4942606328925395e7 0.0
1.4942606328925395e7 6.813208997198664e6 0.0
0.0 0.0 0.0

-8.068505489293078e6 9.789609374198435e6 0.0
9.789609374198435e6 9.064348778885353e6 0.0
0.0 0.0 0.0

-1.4459502751793023e6 7.695876108077878e6 0.0
7.695876108077878e6 -4.819834231487787e6 0.0
0.0 0.0 0.0

95155.61047921819 1.0216215013731303e7 0.0
1.0216215013731303e7 -6.234500109292495e6 0.0
0.0 0.0 0.0

2.3230048613335746e6 6.63203727080884e6 0.0
6.63203727080884e6 -8.059002315037921e6 0.0
0.0 0.0 0.0

-5.627824976000952e6 1.335747335873552e7 0.0
1.335747335873552e7 5.517026105856478e6 0.0
0.0 0.0 0.0

-6.044801579114542e6 4.604522878047016e6 0.0
4.604522878047016e6 4.794426527483039e6 0.0
0.0 0.0 0.0

-3.8348924223507303e6 1.5566347143984709e7 0.0
1.5566347143984709e7 -644514.0544562856 0.0
0.0 0.0 0.0

-1.2065499597252263e7 -4.1618919116354813e6 0.0
-4.1618919116354813e6 2.4406685593813214e7 0.0
0.0 0.0 0.0

-2.7635523678323934e6 1.091794760355553e7 0.0
1.091794760355553e7 -2.1496818016391713e6 0.0
0.0 0.0 0.0

-4.33330268379102e6 -932800.622854768 0.0
-932800.622854768 5.719616909192718e6 0.0
0.0 0.0 0.0

-641279.8245505884 4.697312493608268e6 0.0
4.697312493608268e6 -988452.7539872517 0.0
0.0 0.0 0.0

1.75162374519729e6 5.6054767769357795e6 0.0
5.6054767769357795e6 -6.2379769219571445e6 0.0
0.0 0.0 0.0

-1.1463911010421148e7 5.87298834922129e6 0.0
5.87298834922129e6 1.4208251699671602e7 0.0
0.0 0.0 0.0

2.6843911671727034e6 8.534228977300907e6 0.0
8.534228977300907e6 -1.064350476575268e7 0.0
0.0 0.0 0.0

-3.8204492014824254e6 1.2160060198329937e7 0.0
1.2160060198329937e7 388449.4124206896 0.0
0.0 0.0 0.0

-5.031497779519119e6 1.1913078903239125e7 0.0
1.1913078903239125e7 2.917753003403138e6 0.0
0.0 0.0 0.0

-2.0225627784782704e6 9.470541417794349e6 0.0
9.470541417794349e6 -1.5709261653264991e6 0.0
0.0 0.0 0.0

-5.641482357532878e6 1.198425456365355e7 0.0
1.198425456365355e7 4.202520439811097e6 0.0
0.0 0.0 0.0

554801.5030779657 6.038548305650359e6 0.0
6.038548305650359e6 -4.736338536665833e6 0.0
0.0 0.0 0.0

-3.1626240588089204e6 1.0540699346666569e7 0.0
1.0540699346666569e7 -1.051876345936371e6 0.0
0.0 0.0 0.0

-1.047072337009648e6 1.6237010587247666e7 0.0
1.6237010587247666e7 -3.8660475409582932e6 0.0
0.0 0.0 0.0

340215.55006387713 7.388442957872304e6 0.0
7.388442957872304e6 -4.629735973333942e6 0.0
0.0 0.0 0.0

-1.0483528299487557e6 9.272566771348877e6 0.0
9.272566771348877e6 -3.344651770547874e6 0.0
0.0 0.0 0.0

-1.8768704146615604e6 1.3305469430619089e7 0.0
1.3305469430619089e7 -766055.725137553 0.0
0.0 0.0 0.0

-2.004959823148883e6 9.273472175220877e6 0.0
9.273472175220877e6 -1.4413869908917279e6 0.0
0.0 0.0 0.0

3.2174403637906155e6 1.2925261234498179e7 0.0
1.2925261234498179e7 -6.260881192921153e6 0.0
0.0 0.0 0.0

935026.94745354 6.99328007947925e6 0.0
6.99328007947925e6 -3.8541053863209262e6 0.0
0.0 0.0 0.0

3.5628224340608297e6 6.156326551089938e6 0.0
6.156326551089938e6 -1.119793273484275e7 0.0
0.0 0.0 0.0

1.2041864391799518e6 6.551720863567095e6 0.0
6.551720863567095e6 -3.2727886961714737e6 0.0
0.0 0.0 0.0

-723062.028098369 7.196982597895188e6 0.0
7.196982597895188e6 -3.256729304435837e6 0.0
0.0 0.0 0.0

-2.2150018865041207e6 9.569214542927098e6 0.0
9.569214542927098e6 -2.303959252570503e6 0.0
0.0 0.0 0.0

-806448.3264894545 5.319990634234255e6 0.0
5.319990634234255e6 -1.0131329288769619e6 0.0
0.0 0.0 0.0

1.5985290204498023e6 6.236718442239068e6 0.0
6.236718442239068e6 -5.654585186217e6 0.0
0.0 0.0 0.0

256427.83693677932 1.2283885205458783e7 0.0
1.2283885205458783e7 -7.038183557999739e6 0.0
0.0 0.0 0.0

-330384.1054613809 6.952975692568912e6 0.0
6.952975692568912e6 -3.7536036175991506e6 0.0
0.0 0.0 0.0

-1.23881967474627e7 2.31802080903691e7 0.0
2.31802080903691e7 8.402813646261591e6 0.0
0.0 0.0 0.0

1.2704023768264714e6 1.0853307436911903e7 0.0
1.0853307436911903e7 3.6562588183882358e6 0.0
0.0 0.0 0.0

-376.49496447341517 6.751296068259204e6 0.0
6.751296068259204e6 -4.07646938785798e6 0.0
0.0 0.0 0.0

-3.194897283365869e6 7.321656220273003e6 0.0
7.321656220273003e6 1.744100954960804e6 0.0
0.0 0.0 0.0

945674.2798574737 5.708970283046451e6 0.0
5.708970283046451e6 -4.996853476515685e6 0.0
0.0 0.0 0.0

-1.04423177416952e7 2.6897729430298563e6 0.0
2.6897729430298563e6 1.3202608572820961e7 0.0
0.0 0.0 0.0

350372.8267750463 6.667335953399312e6 0.0
6.667335953399312e6 -4.34332624065464e6 0.0
0.0 0.0 0.0

-1.2472569352907775e7 1.598861539314753e7 0.0
1.598861539314753e7 9.11200599334079e6 0.0
0.0 0.0 0.0

-3.473839850553376e6 1.5893441773259563e7 0.0
1.5893441773259563e7 -1.0886739612119189e6 0.0
0.0 0.0 0.0

2.556781786246449e6 6.359498873575848e6 0.0
6.359498873575848e6 -8.372092312882327e6 0.0
0.0 0.0 0.0

-2.5069508564076144e6 1.1599158925304431e7 0.0
1.1599158925304431e7 -3.114098869490065e6 0.0
0.0 0.0 0.0

3.1822277991474024e6 7.106973774044818e6 0.0
7.106973774044818e6 -1.1620565171546811e7 0.0
0.0 0.0 0.0

-2.5456663821551506e6 9.762873234722277e6 0.0
9.762873234722277e6 -1.8100298475898704e6 0.0
0.0 0.0 0.0

-3.01788936495386e6 1.016092787921439e7 0.0
1.016092787921439e7 4.254836405011652e6 0.0
0.0 0.0 0.0

-2.0517378701967672e6 1.6302393497359652e7 0.0
1.6302393497359652e7 -2.6486468266016124e6 0.0
0.0 0.0 0.0

622404.4430395961 7.200338293500125e6 0.0
7.200338293500125e6 -4.487622609857696e6 0.0
0.0 0.0 0.0

1.0888835542249272e6 6.676451960104622e6 0.0
6.676451960104622e6 -5.709519274775449e6 0.0
0.0 0.0 0.0

-362240.39731859043 7.822637142557741e6 0.0
7.822637142557741e6 -3.2587523985014646e6 0.0
0.0 0.0 0.0

-8.647570603460034e6 1.492521251906271e7 0.0
1.492521251906271e7 7.226051546401972e6 0.0
0.0 0.0 0.0

-2.4519625163630997e6 8.852030826877674e6 0.0
8.852030826877674e6 -1.2591496203540058e6 0.0
0.0 0.0 0.0

-5.181699902488797e6 1.793017353892195e7 0.0
1.793017353892195e7 979055.3404840282 0.0
0.0 0.0 0.0

-2.0278495362643308e6 9.67478157176602e6 0.0
9.67478157176602e6 -1.7030180972236244e6 0.0
0.0 0.0 0.0

-174117.594732519 1.2557636159038888e7 0.0
1.2557636159038888e7 3.826753345284216e6 0.0
0.0 0.0 0.0

-1.5414168478517758e6 1.3090080936542913e7 0.0
1.3090080936542913e7 -684700.7946193472 0.0
0.0 0.0 0.0

-4.753987368142232e6 1.293515975759348e7 0.0
1.293515975759348e7 1.935025356378243e6 0.0
0.0 0.0 0.0

731842.5355482581 1.1611880020051785e7 0.0
1.1611880020051785e7 -7.752769299004504e6 0.0
0.0 0.0 0.0

1.9000337538012126e6 1.0043604316402318e7 0.0
1.0043604316402318e7 -1.3262398891321631e7 0.0
0.0 0.0 0.0

-9.704986817004954e6 8.841415408882722e6 0.0
8.841415408882722e6 1.2831464416080672e7 0.0
0.0 0.0 0.0

-43032.94485460431 7.818236647559302e6 0.0
7.818236647559302e6 -5.416105426432209e6 0.0
0.0 0.0 0.0

-9.41571890921485e6 3.3468142712761653e6 0.0
3.3468142712761653e6 1.209153607375572e7 0.0
0.0 0.0 0.0

2.077093145114828e6 9.009378876245007e6 0.0
9.009378876245007e6 -9.695383574468575e6 0.0
0.0 0.0 0.0

-1.0133585027517716e6 7.884991005422625e6 0.0
7.884991005422625e6 -3.323968466322035e6 0.0
0.0 0.0 0.0

1.7746224058738472e6 5.211227427159361e6 0.0
5.211227427159361e6 -6.484979842039863e6 0.0
0.0 0.0 0.0

-3.5254034390126653e6 1.0271775519712148e7 0.0
1.0271775519712148e7 -152469.43041728088 0.0
0.0 0.0 0.0

-5.442208443855347e6 1.2417235088958727e7 0.0
1.2417235088958727e7 2.5003761687398804e6 0.0
0.0 0.0 0.0

-6.181612894838082e6 1.5189628903888289e7 0.0
1.5189628903888289e7 1.855649247086307e6 0.0
0.0 0.0 0.0

-2.853575424338466e6 1.0152779181152543e7 0.0
1.0152779181152543e7 -1.4277326078864927e6 0.0
0.0 0.0 0.0

1.476162669852846e6 6.18047332607024e6 0.0
6.18047332607024e6 -5.420287863510051e6 0.0
0.0 0.0 0.0

-2.8686187282409985e6 1.615424646354131e7 0.0
1.615424646354131e7 -1.8064853787753726e6 0.0
0.0 0.0 0.0

-5.371573878456392e6 5.213600860608103e6 0.0
5.213600860608103e6 5.672909509933973e6 0.0
0.0 0.0 0.0

3.9270236269758036e6 7.371929095236316e6 0.0
7.371929095236316e6 -1.3812464379844697e7 0.0
0.0 0.0 0.0

-2.5531887002083426e6 1.1072610198879614e7 0.0
1.1072610198879614e7 5.480305309690772e6 0.0
0.0 0.0 0.0

-6.56521187677539e6 1.3582850105685528e7 0.0
1.3582850105685528e7 4.81211581091159e6 0.0
0.0 0.0 0.0

-1.197047563692641e6 1.1169205555729665e7 0.0
1.1169205555729665e7 -3.2977309974626414e6 0.0
0.0 0.0 0.0

-8.693066371239435e6 1.040966005361228e7 0.0
1.040966005361228e7 1.208596642745679e7 0.0
0.0 0.0 0.0

-559421.6007145088 9.953895809489466e6 0.0
9.953895809489466e6 -1.8647382929082713e6 0.0
0.0 0.0 0.0

-680358.7790950683 8.226416422465486e6 0.0
8.226416422465486e6 -4.440261428704621e6 0.0
0.0 0.0 0.0

-1.1254074449400522e6 1.200256969990291e7 0.0
1.200256969990291e7 3.0750799458356905e6 0.0
0.0 0.0 0.0

-1.1820206325430255e7 2.1822149350705747e7 0.0
2.1822149350705747e7 8.324606080665292e6 0.0
0.0 0.0 0.0

-1.6645558905097097e6 1.3272711281290513e7 0.0
1.3272711281290513e7 -1.0298408073488344e6 0.0
0.0 0.0 0.0

1.871272159500634e7 1.1888081293713043e7 0.0
1.1888081293713043e7 -864165.1932062153 0.0
0.0 0.0 0.0

-1.4801870497814785e6 8.568445555473989e6 0.0
8.568445555473989e6 -2.9717961227005306e6 0.0
0.0 0.0 0.0

-3.576242908763834e6 1.0459310507593384e7 0.0
1.0459310507593384e7 -275375.8224535283 0.0
0.0 0.0 0.0

182960.15633669146 9.492294272381937e6 0.0
9.492294272381937e6 -6.258570248047576e6 0.0
0.0 0.0 0.0

-6.386440744494332e6 1.5599098968303658e7 0.0
1.5599098968303658e7 1.943679671802614e6 0.0
0.0 0.0 0.0

3.7364989834358534e6 6.6711847745524235e6 0.0
6.6711847745524235e6 -1.226950582293575e7 0.0
0.0 0.0 0.0

407545.90755947935 6.8493573060745625e6 0.0
6.8493573060745625e6 -4.61044913837639e6 0.0
0.0 0.0 0.0

1.0882166825151765e6 8.290559434137243e6 0.0
8.290559434137243e6 -7.306617450111939e6 0.0
0.0 0.0 0.0

-6.292923495725111e6 1.244942749984213e7 0.0
1.244942749984213e7 6.879320481916686e6 0.0
0.0 0.0 0.0

-3.4818137018353525e6 1.0931496125504075e7 0.0
1.0931496125504075e7 -675448.6875791729 0.0
0.0 0.0 0.0

-991845.2950553276 8.888017330384651e6 0.0
8.888017330384651e6 382372.66309260885 0.0
0.0 0.0 0.0

-892691.9939941197 8.242801267947076e6 0.0
8.242801267947076e6 -2.8231169334718697e6 0.0
0.0 0.0 0.0

-2.646931270508992e6 1.0459375785712166e7 0.0
1.0459375785712166e7 -955337.4933926538 0.0
0.0 0.0 0.0

1.7667274910380724e6 1.0807727566302441e7 0.0
1.0807727566302441e7 -5.026207367721958e6 0.0
0.0 0.0 0.0

-1.095300666397534e7 2.0861068812157184e7 0.0
2.0861068812157184e7 8.3518501285925135e6 0.0
0.0 0.0 0.0

-2.9488092196089695e6 1.084660373403911e7 0.0
1.084660373403911e7 -575281.7708999697 0.0
0.0 0.0 0.0

-333441.77574463224 7.018545271657715e6 0.0
7.018545271657715e6 -2.841869753405479e6 0.0
0.0 0.0 0.0

8.924739103675226e6 9.823114571166039e6 0.0
9.823114571166039e6 577174.0318001392 0.0
0.0 0.0 0.0

3.747366807650837e6 8.693269885671575e6 0.0
8.693269885671575e6 -1.6055830030778088e7 0.0
0.0 0.0 0.0

-5.188603136610235e6 1.2908739797786042e7 0.0
1.2908739797786042e7 2.8899896830692003e6 0.0
0.0 0.0 0.0

-843682.4328262154 6.746487019081496e6 0.0
6.746487019081496e6 -1.7276615706268267e6 0.0
0.0 0.0 0.0

-1.1351459174604826e6 8.461191592529306e6 0.0
8.461191592529306e6 -3.4055639606387303e6 0.0
0.0 0.0 0.0

-377131.1448542902 7.854054980182513e6 0.0
7.854054980182513e6 -4.76474202193234e6 0.0
0.0 0.0 0.0

-1.0357347626747867e7 2.001220297308853e7 0.0
2.001220297308853e7 7.472711531997057e6 0.0
0.0 0.0 0.0

2.4719125577932284e6 8.1957428242831575e6 0.0
8.1957428242831575e6 -1.1213519401983634e7 0.0
0.0 0.0 0.0

-7.611039880259531e6 2.505905720824597e6 0.0
2.505905720824597e6 6.869937128744795e6 0.0
0.0 0.0 0.0

-3.9887012153561013e6 1.2650601748684386e7 0.0
1.2650601748684386e7 379416.8166300708 0.0
0.0 0.0 0.0

-965807.9331323529 6.014429848317697e6 0.0
6.014429848317697e6 -1.0778662561187292e6 0.0
0.0 0.0 0.0

-2.455469764317529e6 1.0536489353226034e7 0.0
1.0536489353226034e7 -2.5063102741580955e6 0.0
0.0 0.0 0.0

-3.8311544057679395e6 1.0967546195576295e7 0.0
1.0967546195576295e7 13513.371919366531 0.0
0.0 0.0 0.0

423549.24039192824 1.0575042886232372e7 0.0
1.0575042886232372e7 -8.298256246407965e6 0.0
0.0 0.0 0.0

-1.00843774321264e7 1.930418485973933e7 0.0
1.930418485973933e7 7.435070413469981e6 0.0
0.0 0.0 0.0

-6.420135048309924e6 1.2720554279252555e7 0.0
1.2720554279252555e7 6.711698765110606e6 0.0
0.0 0.0 0.0

-3.242990618152842e6 1.123327562026224e7 0.0
1.123327562026224e7 -209927.15157172165 0.0
0.0 0.0 0.0

3.459352968573875e6 6.895193140301246e6 0.0
6.895193140301246e6 -1.1966191800204463e7 0.0
0.0 0.0 0.0

-1.1770808406246873e6 7.546101168284321e6 0.0
7.546101168284321e6 -1.7881926607399916e6 0.0
0.0 0.0 0.0

-9.528178375490572e6 1.869133936695284e7 0.0
1.869133936695284e7 7.226389433833171e6 0.0
0.0 0.0 0.0

4.506969035268609e6 8.231611125361707e6 0.0
8.231611125361707e6 -1.6172339828176942e7 0.0
0.0 0.0 0.0

-8.783327311935356e6 1.8259459128217585e7 0.0
1.8259459128217585e7 6.742724807899083e6 0.0
0.0 0.0 0.0

-8.393480747814551e6 1.7770542433349926e7 0.0
1.7770542433349926e7 6.296128518761696e6 0.0
0.0 0.0 0.0

-6.105299425331224e6 1.4003325872487025e7 0.0
1.4003325872487025e7 3.128008139168571e6 0.0
0.0 0.0 0.0

-6.336369112125367e6 1.4311952808411987e7 0.0
1.4311952808411987e7 3.5002954732028553e6 0.0
0.0 0.0 0.0

-6.588115718503341e6 1.4665502395388888e7 0.0
1.4665502395388888e7 3.817959090061448e6 0.0
0.0 0.0 0.0

-6.795669505571445e6 1.4992533830584634e7 0.0
1.4992533830584634e7 4.1411779329514094e6 0.0
0.0 0.0 0.0

-7.043093483620638e6 1.5262265911680289e7 0.0
1.5262265911680289e7 4.476863122902266e6 0.0
0.0 0.0 0.0

-7.294505272499267e6 1.561326960645871e7 0.0
1.561326960645871e7 4.6672551118168635e6 0.0
0.0 0.0 0.0

-2.8566130719849947e6 7.747335448072553e6 0.0
7.747335448072553e6 218122.29709428246 0.0
0.0 0.0 0.0

-7.654777127457395e6 1.5895834000734303e7 0.0
1.5895834000734303e7 5.160031636933648e6 0.0
0.0 0.0 0.0

-8.08175142175041e6 1.6266699351763623e7 0.0
1.6266699351763623e7 5.405290510181278e6 0.0
0.0 0.0 0.0

-7.242275601693267e6 8.34292658140481e6 0.0
8.34292658140481e6 8.482799441464875e6 0.0
0.0 0.0 0.0

-8.193104343138938e6 1.7330429809530143e7 0.0
1.7330429809530143e7 6.211860225813689e6 0.0
0.0 0.0 0.0

-8.46313976319597e6 1.6634891170016466e7 0.0
1.6634891170016466e7 5.540296775112268e6 0.0
0.0 0.0 0.0

-8.71477956225273e6 1.7048521018078715e7 0.0
1.7048521018078715e7 5.765645462244539e6 0.0
0.0 0.0 0.0

-7.844866589996645e6 1.6897332649272602e7 0.0
1.6897332649272602e7 5.950932028415848e6 0.0
0.0 0.0 0.0

-1.7075433282574634e6 9.27755654646374e6 0.0
9.27755654646374e6 -2.0818570849357883e6 0.0
0.0 0.0 0.0

-9.128168605780259e6 1.7536974784174006e7 0.0
1.7536974784174006e7 5.930496583902644e6 0.0
0.0 0.0 0.0

-7.800500497388324e6 1.649230324596596e7 0.0
1.649230324596596e7 5.71679325731509e6 0.0
0.0 0.0 0.0

-7.429185001559542e6 1.6164627756531054e7 0.0
1.6164627756531054e7 5.47347617931349e6 0.0
0.0 0.0 0.0

-7.046857241719328e6 1.5921577345832404e7 0.0
1.5921577345832404e7 5.118766964844485e6 0.0
0.0 0.0 0.0

-6.85289134316936e6 1.5496411351724844e7 0.0
1.5496411351724844e7 4.8421419355953345e6 0.0
0.0 0.0 0.0

-6.574055933024332e6 1.5220537312488388e7 0.0
1.5220537312488388e7 4.5148049676059615e6 0.0
0.0 0.0 0.0

-6.36457756125627e6 1.4911812923730131e7 0.0
1.4911812923730131e7 4.239226705087913e6 0.0
0.0 0.0 0.0

-6.116154044068307e6 1.4575870463435017e7 0.0
1.4575870463435017e7 3.928948513421764e6 0.0
0.0 0.0 0.0

-5.8420617681794055e6 1.4261766073136004e7 0.0
1.4261766073136004e7 3.552631166671613e6 0.0
0.0 0.0 0.0

-4.346143426710048e6 1.2223500051233502e7 0.0
1.2223500051233502e7 329205.78249231423 0.0
0.0 0.0 0.0

-9.185239200598884e6 9.145972152715899e6 0.0
9.145972152715899e6 1.210803226549419e7 0.0
0.0 0.0 0.0

-9.708734578833643e6 1.7897616833241627e7 0.0
1.7897616833241627e7 6.176597283496472e6 0.0
0.0 0.0 0.0

1.9045571462226547e6 7.002816796769586e6 0.0
7.002816796769586e6 -8.482505558638183e6 0.0
0.0 0.0 0.0

-4.623637481635264e6 1.2037390741415184e7 0.0
1.2037390741415184e7 2.188540911224736e6 0.0
0.0 0.0 0.0

-1.0521739901902586e7 1.8360138880375333e7 0.0
1.8360138880375333e7 6.708063801727079e6 0.0
0.0 0.0 0.0

-5.09323236290715e6 5.693098895666086e6 0.0
5.693098895666086e6 5.154787608557064e6 0.0
0.0 0.0 0.0

-1.1488562806038044e7 1.896867326452881e7 0.0
1.896867326452881e7 6.91970924604478e6 0.0
0.0 0.0 0.0

-6.377030961632102e6 4.870595703234771e6 0.0
4.870595703234771e6 7.666638457938699e6 0.0
0.0 0.0 0.0

-1.2370943715060176e7 1.9680102046583273e7 0.0
1.9680102046583273e7 6.975218825820825e6 0.0
0.0 0.0 0.0

-983220.9326161994 1.1763954010393525e7 0.0
1.1763954010393525e7 -6.478149442183944e6 0.0
0.0 0.0 0.0

1.477932068789633e6 8.092120186743044e6 0.0
8.092120186743044e6 -6.991334337782014e6 0.0
0.0 0.0 0.0

1.8711378893401911e6 1.0060723162828485e7 0.0
1.0060723162828485e7 -1.270660492178469e7 0.0
0.0 0.0 0.0

-3.2789520034235097e6 1.1069512739777088e7 0.0
1.1069512739777088e7 -47313.2452785254 0.0
0.0 0.0 0.0

-1.5737093596001593e6 9.365186151656883e6 0.0
9.365186151656883e6 -3.4680799523350587e6 0.0
0.0 0.0 0.0

-3.672075992367164e6 1.1842325427135248e7 0.0
1.1842325427135248e7 -910282.6435537083 0.0
0.0 0.0 0.0

-877151.8900843475 1.1951748136818884e7 0.0
1.1951748136818884e7 -6.734990954007028e6 0.0
0.0 0.0 0.0

3.8042570814252724e6 5.5850621309128525e6 0.0
5.5850621309128525e6 -1.0225682682572857e7 0.0
0.0 0.0 0.0

-1.88476886757199e6 8.202235348411721e6 0.0
8.202235348411721e6 -908458.3215889756 0.0
0.0 0.0 0.0

-1.3259056692568917e7 2.021502172745308e7 0.0
2.021502172745308e7 7.340883660452922e6 0.0
0.0 0.0 0.0

1.06562550123177e6 8.22619599597706e6 0.0
8.22619599597706e6 -6.156046430619057e6 0.0
0.0 0.0 0.0

-8.460700203251878e6 4.46303574511102e6 0.0
4.46303574511102e6 1.1418777730064802e7 0.0
0.0 0.0 0.0

-2.334760672272427e6 1.0071024186557788e7 0.0
1.0071024186557788e7 -1.3366783475032283e6 0.0
0.0 0.0 0.0

-6.878060340261264e6 1.5518073303188995e7 0.0
1.5518073303188995e7 3.8930227260527113e6 0.0
0.0 0.0 0.0

2.1361114017856275e6 6.740266147433757e6 0.0
6.740266147433757e6 -8.886528567809835e6 0.0
0.0 0.0 0.0

-1.288505954842261e7 1.5644006436367486e7 0.0
1.5644006436367486e7 9.94699401733976e6 0.0
0.0 0.0 0.0

-3.9189271439990397e6 7.991710767246335e6 0.0
7.991710767246335e6 1.3769712338558033e6 0.0
0.0 0.0 0.0

-9.617255655098565e6 1.2551958871640744e7 0.0
1.2551958871640744e7 5.017207584457986e6 0.0
0.0 0.0 0.0

-621085.8759581811 1.1727571406604161e7 0.0
1.1727571406604161e7 2.100108664016207e6 0.0
0.0 0.0 0.0

-1.481648913065819e7 2.1409282911141507e7 0.0
2.1409282911141507e7 7.678552670363044e6 0.0
0.0 0.0 0.0

2.1252998574671615e6 8.743786689515771e6 0.0
8.743786689515771e6 -1.0971524964153923e7 0.0
0.0 0.0 0.0

-3.0182767975788554e6 8.705223046630722e6 0.0
8.705223046630722e6 -80015.78398403036 0.0
0.0 0.0 0.0

-147154.92867677534 7.718864345602109e6 0.0
7.718864345602109e6 -490516.29305526434 0.0
0.0 0.0 0.0

1.574814645203291e6 7.314732427896229e6 0.0
7.314732427896229e6 -7.586627853801985e6 0.0
0.0 0.0 0.0

348518.2737344245 9.801899810087046e6 0.0
9.801899810087046e6 -775517.7425623238 0.0
0.0 0.0 0.0

1.7238632122640451e6 7.301355133730872e6 0.0
7.301355133730872e6 -8.122726330143541e6 0.0
0.0 0.0 0.0

-451402.60364322405 1.075069982371341e7 0.0
1.075069982371341e7 -2.229187927046597e6 0.0
0.0 0.0 0.0

-3.627618162670876e6 1.1284711545900619e7 0.0
1.1284711545900619e7 495551.86226957245 0.0
0.0 0.0 0.0

-3.790939157280226e6 1.1311023202933058e7 0.0
1.1311023202933058e7 -299850.74152669334 0.0
0.0 0.0 0.0

1.0439299410163919e6 7.139347192208833e6 0.0
7.139347192208833e6 -6.5945374777899e6 0.0
0.0 0.0 0.0

4.6540264893702315e6 1.3011456891633272e7 0.0
1.3011456891633272e7 5.370143206137106e6 0.0
0.0 0.0 0.0

727007.2825830602 8.665562631516878e6 0.0
8.665562631516878e6 -5.919043878995778e6 0.0
0.0 0.0 0.0

-1.3745548471714486e6 9.463794647249997e6 0.0
9.463794647249997e6 -2.831595828647513e6 0.0
0.0 0.0 0.0

-4.0149308214252163e6 1.2859875372868624e7 0.0
1.2859875372868624e7 2.637591343153146e6 0.0
0.0 0.0 0.0

-184324.86494741146 8.02089569570001e6 0.0
8.02089569570001e6 -4.257135682534709e6 0.0
0.0 0.0 0.0

-6.477112851449388e6 1.2856817572937861e7 0.0
1.2856817572937861e7 6.476889679314723e6 0.0
0.0 0.0 0.0

-1.2505904917791388e6 1.2471549261844084e7 0.0
1.2471549261844084e7 3.914888501605677e6 0.0
0.0 0.0 0.0

-3.9911881392772635e6 6.348784454978443e6 0.0
6.348784454978443e6 3.2087045912002046e6 0.0
0.0 0.0 0.0

-1.6668309720937131e7 2.2545390965844385e7 0.0
2.2545390965844385e7 7.416229245695683e6 0.0
0.0 0.0 0.0

-7.315840523558198e6 1.2347376249877967e7 0.0
1.2347376249877967e7 1.386846005888224e7 0.0
0.0 0.0 0.0

-2.535742115039993e6 9.201889190650778e6 0.0
9.201889190650778e6 -1.4443964912708658e6 0.0
0.0 0.0 0.0

4.211482733105973e6 1.052390082729353e7 0.0
1.052390082729353e7 -2.6150498229931938e6 0.0
0.0 0.0 0.0

2.7631544560169554e6 6.633702032147105e6 0.0
6.633702032147105e6 -1.00066987348402e7 0.0
0.0 0.0 0.0

2.4943797502882555e6 9.033246406157868e6 0.0
9.033246406157868e6 -1.2373755490836797e7 0.0
0.0 0.0 0.0

-6.028770489594138e6 9.272082728086941e6 0.0
9.272082728086941e6 4.1233643487987015e6 0.0
0.0 0.0 0.0

-9.323579861855695e6 1.4085980423853833e7 0.0
1.4085980423853833e7 5.669249612744736e6 0.0
0.0 0.0 0.0

-3.039800550331102e6 1.0197958642998766e7 0.0
1.0197958642998766e7 -63241.67964500794 0.0
0.0 0.0 0.0

-1.1677824387544498e6 9.92790864493999e6 0.0
9.92790864493999e6 -4.615726528915888e6 0.0
0.0 0.0 0.0

-1.2842379439808378e7 1.3808424704155093e7 0.0
1.3808424704155093e7 1.0549528132536553e7 0.0
0.0 0.0 0.0

1.0265673728949353e6 8.547482727722019e6 0.0
8.547482727722019e6 -7.5052889066357585e6 0.0
0.0 0.0 0.0

-3.3827724344353448e6 1.0592301594316501e7 0.0
1.0592301594316501e7 344230.8805797291 0.0
0.0 0.0 0.0

-1.066140082775295e6 7.199193069514903e6 0.0
7.199193069514903e6 -1.732480936018206e6 0.0
0.0 0.0 0.0

-4.427888419321462e6 9.444400764867283e6 0.0
9.444400764867283e6 3.001224024209841e6 0.0
0.0 0.0 0.0

-2.1259983494683545e7 2.8774338406059824e7 0.0
2.8774338406059824e7 1.8416997747206753e6 0.0
0.0 0.0 0.0

-3.9228338305645306e6 6.810312566964287e6 0.0
6.810312566964287e6 2.9465980757620046e6 0.0
0.0 0.0 0.0

-438103.18182853074 6.998530952294998e6 0.0
6.998530952294998e6 -3.187976731672944e6 0.0
0.0 0.0 0.0

-3.8843732256586794e6 1.1842101477519117e7 0.0
1.1842101477519117e7 746372.4733491305 0.0
0.0 0.0 0.0

-5.095981254225701e6 1.1526872655666161e7 0.0
1.1526872655666161e7 2.436558075749776e6 0.0
0.0 0.0 0.0

-2.2027089731151895e6 1.1034880659263773e7 0.0
1.1034880659263773e7 -2.2574183374499558e6 0.0
0.0 0.0 0.0

-4.1363859175452534e6 1.1533467457090667e7 0.0
1.1533467457090667e7 271795.571214281 0.0
0.0 0.0 0.0

-862085.0797079662 4.1863346531920834e6 0.0
4.1863346531920834e6 -1.0234662856104722e6 0.0
0.0 0.0 0.0

1.4646789974527017e6 9.67904457305588e6 0.0
9.67904457305588e6 -4.806418295478206e6 0.0
0.0 0.0 0.0

-5.478077290800935e6 1.1944900083855115e7 0.0
1.1944900083855115e7 2.9176657973840516e6 0.0
0.0 0.0 0.0

324290.2097480132 7.589108098557369e6 0.0
7.589108098557369e6 -5.857246868837016e6 0.0
0.0 0.0 0.0

1.652406085874972e6 9.89174829395439e6 0.0
9.89174829395439e6 -4.438204437811691e6 0.0
0.0 0.0 0.0

-9.27641353623899e6 1.1883825942494845e7 0.0
1.1883825942494845e7 3.23808235749388e6 0.0
0.0 0.0 0.0

-3.730586132522849e6 7.287884010824263e6 0.0
7.287884010824263e6 2.619624442573659e6 0.0
0.0 0.0 0.0

-604558.8902000859 1.1584161365436483e7 0.0
1.1584161365436483e7 -7.087572277986895e6 0.0
0.0 0.0 0.0

-6.075338170070067e6 1.2048538873288285e7 0.0
1.2048538873288285e7 4.1318848764699716e6 0.0
0.0 0.0 0.0

1.9099408680451154e6 3.940779328514102e6 0.0
3.940779328514102e6 -6.496131976608737e6 0.0
0.0 0.0 0.0

1.3544622512728395e6 4.350213323526832e6 0.0
4.350213323526832e6 -3.0577404771055616e6 0.0
0.0 0.0 0.0

2.0624711715364829e6 4.603402082650821e6 0.0
4.603402082650821e6 -3.9396603967442373e6 0.0
0.0 0.0 0.0

-2.5999725057838853e6 -1.2255698983267779e6 0.0
-1.2255698983267779e6 2.1291990631317645e6 0.0
0.0 0.0 0.0

2.1168507982366644e6 5.433960233489777e6 0.0
5.433960233489777e6 -4.272125765581529e6 0.0
0.0 0.0 0.0

-1.9243805016028946e6 86693.19007221957 0.0
86693.19007221957 1.4624590699167708e6 0.0
0.0 0.0 0.0

2.0696755593375182e6 4.868144087197121e6 0.0
4.868144087197121e6 -5.838946353399984e6 0.0
0.0 0.0 0.0

556736.2101043072 3.6596279281450515e6 0.0
3.6596279281450515e6 -2.0680039697658955e6 0.0
0.0 0.0 0.0

-223439.98906769446 2.5030106232161694e6 0.0
2.5030106232161694e6 -1.4367492659266004e6 0.0
0.0 0.0 0.0

2.327136570386686e6 5.811902721915712e6 0.0
5.811902721915712e6 -4.664426393297593e6 0.0
0.0 0.0 0.0

-773850.3179816399 1.7499209000649466e6 0.0
1.7499209000649466e6 8405.433656162815 0.0
0.0 0.0 0.0

1.768533546603663e6 5.480531390518908e6 0.0
5.480531390518908e6 -5.120063149498087e6 0.0
0.0 0.0 0.0

1.349980391318924e6 5.731269563418534e6 0.0
5.731269563418534e6 -3.8498849404823515e6 0.0
0.0 0.0 0.0

1.2348093553265843e6 4.1402472949700914e6 0.0
4.1402472949700914e6 -2.6574585493169953e6 0.0
0.0 0.0 0.0

3.475707587890627e6 5.493103184093558e6 0.0
5.493103184093558e6 -9.769600217097137e6 0.0
0.0 0.0 0.0

3.778161534557958e6 5.521906447516557e6 0.0
5.521906447516557e6 -1.0192130827881023e7 0.0
0.0 0.0 0.0

3.05899642078856e6 5.218547449948564e6 0.0
5.218547449948564e6 -9.304080824586213e6 0.0
0.0 0.0 0.0

2.773324670575923e6 4.429624149991711e6 0.0
4.429624149991711e6 -8.614779757276991e6 0.0
0.0 0.0 0.0

540392.2990780624 4.108174574711387e6 0.0
4.108174574711387e6 -1.9579410798722685e6 0.0
0.0 0.0 0.0

-943678.1007336043 1.0625303236052003e6 0.0
1.0625303236052003e6 267222.73126708984 0.0
0.0 0.0 0.0

3.6613912379910504e6 5.558281504808137e6 0.0
5.558281504808137e6 -9.998723658115076e6 0.0
0.0 0.0 0.0

2.239799667655292e6 4.006036058899264e6 0.0
4.006036058899264e6 -7.512498735677625e6 0.0
0.0 0.0 0.0

2.4076858865036243e6 4.1730996439432474e6 0.0
4.1730996439432474e6 -7.976947450677255e6 0.0
0.0 0.0 0.0

2.1930178680851953e6 3.975241111514847e6 0.0
3.975241111514847e6 -7.102996274766876e6 0.0
0.0 0.0 0.0

-263921.37417919096 1.0404444451029448e7 0.0
1.0404444451029448e7 -5.7397062235153485e6 0.0
0.0 0.0 0.0

-4.8105293096941365e6 6.12930919745118e6 0.0
6.12930919745118e6 4.665143718671416e6 0.0
0.0 0.0 0.0

-1.019553719537751e7 2.701335966711067e6 0.0
2.701335966711067e6 1.12187707797988e7 0.0
0.0 0.0 0.0

-6.497697286166802e6 1.3044437795893904e7 0.0
1.3044437795893904e7 6.325740677196229e6 0.0
0.0 0.0 0.0

926103.1523872172 1.090645406885848e7 0.0
1.090645406885848e7 -1.0238250687753001e7 0.0
0.0 0.0 0.0

-4.211630451737725e6 1.03922851073741e7 0.0
1.03922851073741e7 1.0257578660954353e6 0.0
0.0 0.0 0.0

-1.8894154142625228e7 2.401182522366544e7 0.0
2.401182522366544e7 7.414430106768148e6 0.0
0.0 0.0 0.0

-2.888175171481132e6 9.63061116501255e6 0.0
9.63061116501255e6 -1.0535412303396598e6 0.0
0.0 0.0 0.0

-1.956296043588439e6 1.0945712132060304e7 0.0
1.0945712132060304e7 -887090.5940940692 0.0
0.0 0.0 0.0

997824.1786257621 1.1200441546937773e7 0.0
1.1200441546937773e7 3.083306710469615e6 0.0
0.0 0.0 0.0

-2.567527433768086e6 1.2262236306235459e7 0.0
1.2262236306235459e7 1.9536741003409121e6 0.0
0.0 0.0 0.0

-4.831066276056047e6 9.97755340580918e6 0.0
9.97755340580918e6 3.5387263159320466e6 0.0
0.0 0.0 0.0

-35458.61599010229 1.2551639076919174e7 0.0
1.2551639076919174e7 -6.513305638733555e6 0.0
0.0 0.0 0.0

-4.527146018952683e6 8.973827820743438e6 0.0
8.973827820743438e6 3.3404669652400296e6 0.0
0.0 0.0 0.0

-4.426323789317661e6 1.1786258950448431e7 0.0
1.1786258950448431e7 781025.6515203118 0.0
0.0 0.0 0.0

-3.4437482868974125e6 1.1106563121507267e7 0.0
1.1106563121507267e7 -848239.1788498582 0.0
0.0 0.0 0.0

-3.416472294545505e6 7.490702004373656e6 0.0
7.490702004373656e6 910807.4844079548 0.0
0.0 0.0 0.0

-1.2447694347499982e6 9.201946798507998e6 0.0
9.201946798507998e6 -3.980516897550824e6 0.0
0.0 0.0 0.0

-3.0097193450464965e6 1.002123045138482e7 0.0
1.002123045138482e7 33675.940553678665 0.0
0.0 0.0 0.0

703636.6770897079 7.375114838997856e6 0.0
7.375114838997856e6 -6.239502885405135e6 0.0
0.0 0.0 0.0

1.46404233023517e6 4.275837981743189e6 0.0
4.275837981743189e6 -2.7406499508510265e6 0.0
0.0 0.0 0.0

1.819176541103224e6 4.62573545018655e6 0.0
4.62573545018655e6 -3.003801577394977e6 0.0
0.0 0.0 0.0

-307862.43687357183 1.4526453614419813e6 0.0
1.4526453614419813e6 908973.9977241585 0.0
0.0 0.0 0.0

938563.9728800989 4.31025689702331e6 0.0
4.31025689702331e6 -2.314930204157403e6 0.0
0.0 0.0 0.0

963922.5206386076 3.8818705298931464e6 0.0
3.8818705298931464e6 -2.1111808908555238e6 0.0
0.0 0.0 0.0

3.592306116215478e6 5.568983231383463e6 0.0
5.568983231383463e6 -9.646539718715549e6 0.0
0.0 0.0 0.0

3.672024603442089e6 5.560819400750183e6 0.0
5.560819400750183e6 -9.881610006543282e6 0.0
0.0 0.0 0.0

-536589.6154942152 792822.8835540256 0.0
792822.8835540256 1.3873575146934602e6 0.0
0.0 0.0 0.0

2.700830025857433e6 4.367734040976152e6 0.0
4.367734040976152e6 -7.622785434602723e6 0.0
0.0 0.0 0.0

2.1441153395344145e6 4.0490073345670747e6 0.0
4.0490073345670747e6 -6.6782216793039795e6 0.0
0.0 0.0 0.0

2.4842408566549607e6 4.1424803395705502e6 0.0
4.1424803395705502e6 -7.302830786064657e6 0.0
0.0 0.0 0.0

2.278066120956674e6 4.0214920025969357e6 0.0
4.0214920025969357e6 -7.041186752928239e6 0.0
0.0 0.0 0.0

-2.8078687787476205e6 9.283145055882657e6 0.0
9.283145055882657e6 -865116.2402293052 0.0
0.0 0.0 0.0

-8.462891166866377e6 9.470962346268583e6 0.0
9.470962346268583e6 1.1261905180409575e7 0.0
0.0 0.0 0.0

-5.323094502608113e6 8.733694534174047e6 0.0
8.733694534174047e6 4.732986919194337e6 0.0
0.0 0.0 0.0

2.60270684802074e6 6.149345686593497e6 0.0
6.149345686593497e6 -8.409033412107836e6 0.0
0.0 0.0 0.0

-4.604087866026035e6 1.3102502527448485e7 0.0
1.3102502527448485e7 225804.07398556313 0.0
0.0 0.0 0.0

-3.774587153750012e6 1.207690281927342e7 0.0
1.207690281927342e7 5.838116872484502e6 0.0
0.0 0.0 0.0

-8.247471746061959e6 6.817125045748369e6 0.0
6.817125045748369e6 8.71097662749667e6 0.0
0.0 0.0 0.0

1.3921502078245236e6 7.541775617159639e6 0.0
7.541775617159639e6 -7.272027098150004e6 0.0
0.0 0.0 0.0

997961.8674956127 8.76789094189665e6 0.0
8.76789094189665e6 -7.691024817799725e6 0.0
0.0 0.0 0.0

-3.1470281504855887e6 1.0725774572664378e7 0.0
1.0725774572664378e7 -1.2062759124728185e6 0.0
0.0 0.0 0.0

-4.9972919791903235e6 1.1897951884078799e7 0.0
1.1897951884078799e7 7.119457455383785e6 0.0
0.0 0.0 0.0

-1.540342900242169e6 7.849177300984868e6 0.0
7.849177300984868e6 -1.343057326367184e6 0.0
0.0 0.0 0.0

-2.5176689720837055e6 1.1214652190696923e7 0.0
1.1214652190696923e7 -1.68124905475508e6 0.0
0.0 0.0 0.0

-4.792085400449647e6 1.2818475559487399e7 0.0
1.2818475559487399e7 2.178223702613217e6 0.0
0.0 0.0 0.0

342623.1098048843 9.060094685223041e6 0.0
9.060094685223041e6 -5.738805212708285e6 0.0
0.0 0.0 0.0

-3.5835158985973103e6 1.145964841677579e7 0.0
1.145964841677579e7 352246.7941659016 0.0
0.0 0.0 0.0

1.0803194959084305e6 2.255896204559201e6 0.0
2.255896204559201e6 2.5770093079087194e6 0.0
0.0 0.0 0.0

-4.673061987472765e6 1.1803176654155247e7 0.0
1.1803176654155247e7 6.734159453612363e6 0.0
0.0 0.0 0.0

3.391997529189948e6 8.584934770367496e6 0.0
8.584934770367496e6 -1.3726655204724442e7 0.0
0.0 0.0 0.0

2.3585770226660427e6 8.85930270240239e6 0.0
8.85930270240239e6 -1.1720858630218811e7 0.0
0.0 0.0 0.0

-2.1908517659263564e6 1.0835305705458181e7 0.0
1.0835305705458181e7 -2.0264932385821762e6 0.0
0.0 0.0 0.0

-6.146452836720442e6 1.3061924528101154e7 0.0
1.3061924528101154e7 3.472163397894617e6 0.0
0.0 0.0 0.0

1.5856075765884016e6 5.960542474785678e6 0.0
5.960542474785678e6 -5.998509920250154e6 0.0
0.0 0.0 0.0

-2.6939238087416273e6 9.797465124706035e6 0.0
9.797465124706035e6 -449387.2042445415 0.0
0.0 0.0 0.0

-3.833221237674662e6 1.1150819654905282e7 0.0
1.1150819654905282e7 -121128.55784076941 0.0
0.0 0.0 0.0

-3.5329084401465952e6 1.162177013530107e7 0.0
1.162177013530107e7 178529.40984742227 0.0
0.0 0.0 0.0

1.1553215730425012e6 1.0796939214761902e7 0.0
1.0796939214761902e7 -1.0733768034591384e7 0.0
0.0 0.0 0.0

1.5543299240361871e6 8.897553182142653e6 0.0
8.897553182142653e6 -9.774955257988427e6 0.0
0.0 0.0 0.0

-1.9574508745504015e6 7.8892720218976345e6 0.0
7.8892720218976345e6 -1.359104548796778e6 0.0
0.0 0.0 0.0

-5.404777096718082e6 9.093374429127742e6 0.0
9.093374429127742e6 3.2207825935679246e6 0.0
0.0 0.0 0.0

1.4302970786935524e6 1.0346662547544325e7 0.0
1.0346662547544325e7 -1.0804000989803948e7 0.0
0.0 0.0 0.0

-3.4450033285222705e6 1.2159470835689582e7 0.0
1.2159470835689582e7 -419300.2167930084 0.0
0.0 0.0 0.0

1.5591279977484776e6 5.480780271075797e6 0.0
5.480780271075797e6 -4.901208341420845e6 0.0
0.0 0.0 0.0

-5.984752379765945e6 1.7510858615725756e7 0.0
1.7510858615725756e7 1.7818639894118463e6 0.0
0.0 0.0 0.0

1.3323678254262374e6 6.348951970438947e6 0.0
6.348951970438947e6 -5.733846029789017e6 0.0
0.0 0.0 0.0

-1.3574261237395622e6 8.88345989751503e6 0.0
8.88345989751503e6 -2.481299892142889e6 0.0
0.0 0.0 0.0

-7.245784444643619e6 1.127740667448833e7 0.0
1.127740667448833e7 6.475879613261261e6 0.0
0.0 0.0 0.0

-1.939382759413054e6 8.74939146264699e6 0.0
8.74939146264699e6 -1.1238241883698385e6 0.0
0.0 0.0 0.0

-2.5454850626781224e6 9.366457211269014e6 0.0
9.366457211269014e6 -1.5572332626900005e6 0.0
0.0 0.0 0.0

-4.1829942217367147e6 1.1363010251859868e7 0.0
1.1363010251859868e7 434244.86728833546 0.0
0.0 0.0 0.0

-1.5743743344404995e6 7.559677590947424e6 0.0
7.559677590947424e6 -1.7596373300501667e6 0.0
0.0 0.0 0.0

-77865.91034047664 4.089768047800261e6 0.0
4.089768047800261e6 -849838.0805446627 0.0
0.0 0.0 0.0

-4.0103757985392674e6 8.92290331289512e6 0.0
8.92290331289512e6 2.482640948829209e6 0.0
0.0 0.0 0.0

-3.990208646191801e6 1.0337296849231113e7 0.0
1.0337296849231113e7 1.7702193778939287e6 0.0
0.0 0.0 0.0

422142.9074730468 6.430082765458326e6 0.0
6.430082765458326e6 -4.58235949667778e6 0.0
0.0 0.0 0.0

-3.664400216770698e6 7.86282731338197e6 0.0
7.86282731338197e6 2.2756219296575086e6 0.0
0.0 0.0 0.0

-4.0897886461378597e6 1.1698198781823957e7 0.0
1.1698198781823957e7 100639.57823346229 0.0
0.0 0.0 0.0

2.799003977704464e6 7.590814254402912e6 0.0
7.590814254402912e6 -9.944871514240194e6 0.0
0.0 0.0 0.0

-4.577022967797589e6 1.3129375800379341e7 0.0
1.3129375800379341e7 3.0035741118639493e6 0.0
0.0 0.0 0.0

-2.8402331468250607e6 1.0338563326411987e7 0.0
1.0338563326411987e7 -1.5684967030696687e6 0.0
0.0 0.0 0.0

1.1436598917268943e6 5.62401705079008e6 0.0
5.62401705079008e6 -3.437257326320568e6 0.0
0.0 0.0 0.0

-6.716369980564019e6 1.3583570514830394e7 0.0
1.3583570514830394e7 5.828193822846841e6 0.0
0.0 0.0 0.0

-4.84613914281534e6 5.0365663008368155e6 0.0
5.0365663008368155e6 3.3449624181989245e6 0.0
0.0 0.0 0.0

-2.8807664365486423e6 9.974103626647728e6 0.0
9.974103626647728e6 -1.3020080761032454e6 0.0
0.0 0.0 0.0

-4.152485987576965e6 1.234934331329957e7 0.0
1.234934331329957e7 937325.4872214717 0.0
0.0 0.0 0.0

-5.077844226988509e6 1.2531523760090906e7 0.0
1.2531523760090906e7 1.660974521921514e6 0.0
0.0 0.0 0.0

-3.74245220134628e6 1.1488607631469248e7 0.0
1.1488607631469248e7 -484280.4540547879 0.0
0.0 0.0 0.0

-3.982785953478352e6 1.15049913721204e7 0.0
1.15049913721204e7 1.0616018045590958e6 0.0
0.0 0.0 0.0

1.7661744585884681e6 5.410465718334753e6 0.0
5.410465718334753e6 -5.090096360689523e6 0.0
0.0 0.0 0.0

-5.502105168900528e6 1.4100861718142617e7 0.0
1.4100861718142617e7 1.230425208500837e6 0.0
0.0 0.0 0.0

-2.3523647559607765e6 1.3331416224464895e7 0.0
1.3331416224464895e7 -1.5070190363117592e7 0.0
0.0 0.0 0.0

2.097407334109064e6 1.3209740757325407e7 0.0
1.3209740757325407e7 2.189526976789663e7 0.0
0.0 0.0 0.0

205212.01145024505 1.0008251162895689e7 0.0
1.0008251162895689e7 -7.40986371930388e6 0.0
0.0 0.0 0.0

-2.873912756113331e6 1.1373700546452863e7 0.0
1.1373700546452863e7 -1.1336204439968867e6 0.0
0.0 0.0 0.0

-68061.14722658321 1.0194302074789926e7 0.0
1.0194302074789926e7 -9.036370777119061e6 0.0
0.0 0.0 0.0

-2.5256932194274645e6 9.95534208098806e6 0.0
9.95534208098806e6 -1.941753995084703e6 0.0
0.0 0.0 0.0

-1.1818572911361307e6 1.2591997369866781e7 0.0
1.2591997369866781e7 -5.174779040022864e6 0.0
0.0 0.0 0.0

-1.90260425686544e6 9.551952030892026e6 0.0
9.551952030892026e6 -2.945119369580036e6 0.0
0.0 0.0 0.0

-4.1490377851769496e6 1.121166355487306e7 0.0
1.121166355487306e7 558936.4065077328 0.0
0.0 0.0 0.0

4.231828405114799e6 8.362128336362576e6 0.0
8.362128336362576e6 -1.5556497902008537e7 0.0
0.0 0.0 0.0

-4.897522451790903e6 1.279525998612565e7 0.0
1.279525998612565e7 2.155570561816809e6 0.0
0.0 0.0 0.0

-5.243855757856419e6 1.0861053080231212e7 0.0
1.0861053080231212e7 2.8229448441391024e6 0.0
0.0 0.0 0.0

-1.7114963662926e6 9.661832186844626e6 0.0
9.661832186844626e6 -2.336105713530395e6 0.0
0.0 0.0 0.0

1.2900556296904236e6 9.175758733567549e6 0.0
9.175758733567549e6 -9.265128225253114e6 0.0
0.0 0.0 0.0

3.281055034253957e6 1.2842493088849487e7 0.0
1.2842493088849487e7 1.0936847007206846e7 0.0
0.0 0.0 0.0

-2.786005352128482e6 1.1950984743105588e7 0.0
1.1950984743105588e7 -2.314337566248318e6 0.0
0.0 0.0 0.0

-2.300071424990676e7 2.5936075483861122e7 0.0
2.5936075483861122e7 7.505699909674886e6 0.0
0.0 0.0 0.0

481369.2576182061 9.808526957176184e6 0.0
9.808526957176184e6 -7.871432580121211e6 0.0
0.0 0.0 0.0

-3.2037214543331903e6 1.1406229276445648e7 0.0
1.1406229276445648e7 -385165.27215061465 0.0
0.0 0.0 0.0

1.720159873474991e6 5.446217022150948e6 0.0
5.446217022150948e6 -5.289641651507407e6 0.0
0.0 0.0 0.0

2.402417795645113e6 7.100307849472811e6 0.0
7.100307849472811e6 -9.791000551321952e6 0.0
0.0 0.0 0.0

-4.475890266186473e6 1.2460265474907009e7 0.0
1.2460265474907009e7 1.7528502254924185e6 0.0
0.0 0.0 0.0

-815796.0592816332 1.1296076640208218e7 0.0
1.1296076640208218e7 -1.216347529238475e7 0.0
0.0 0.0 0.0

-2.0235870999303127e6 9.872160218971414e6 0.0
9.872160218971414e6 -1.8384734306233625e6 0.0
0.0 0.0 0.0

231931.26230462198 8.115293377535601e6 0.0
8.115293377535601e6 -4.941554072221729e6 0.0
0.0 0.0 0.0

-2.558365894433662e6 9.019224473967526e6 0.0
9.019224473967526e6 -119308.0135244733 0.0
0.0 0.0 0.0

799003.2848664587 9.61556282860618e6 0.0
9.61556282860618e6 -8.370590130241225e6 0.0
0.0 0.0 0.0

-2.703089198472622e6 8.688903483848218e6 0.0
8.688903483848218e6 -609231.0648001075 0.0
0.0 0.0 0.0

-230511.49438899755 1.1390253311089128e7 0.0
1.1390253311089128e7 -7.652648122912857e6 0.0
0.0 0.0 0.0

-1.4490354758741083e7 1.4086159535445176e7 0.0
1.4086159535445176e7 6.238739015863538e6 0.0
0.0 0.0 0.0

237717.93654860137 3.320524092714972e6 0.0
3.320524092714972e6 -1.8637969600569322e6 0.0
0.0 0.0 0.0

-2.837453383833916e6 8.575139708304068e6 0.0
8.575139708304068e6 560895.1983132982 0.0
0.0 0.0 0.0

-3.9279693964445125e6 1.1673434583903823e7 0.0
1.1673434583903823e7 929591.3463239502 0.0
0.0 0.0 0.0

-9.096745121157993e6 -4.3514214846499935e6 0.0
-4.3514214846499935e6 1.860231521132626e7 0.0
0.0 0.0 0.0

-1.2964663201472005e6 1.201981234599836e7 0.0
1.201981234599836e7 2.5429515051437905e6 0.0
0.0 0.0 0.0

-2.2157371628023726e6 9.749516255366916e6 0.0
9.749516255366916e6 -2.4479767034887206e6 0.0
0.0 0.0 0.0

-1.9092332644119754e6 1.2192882786958696e7 0.0
1.2192882786958696e7 -3.954473994980866e6 0.0
0.0 0.0 0.0

-2.0709734351257863e6 1.0581732342402024e7 0.0
1.0581732342402024e7 -3.208840714864257e6 0.0
0.0 0.0 0.0

-1.2487225045525222e6 8.606997132106395e6 0.0
8.606997132106395e6 -3.5137690912935883e6 0.0
0.0 0.0 0.0

-3.0894484261322566e6 1.108637208045585e7 0.0
1.108637208045585e7 -1.5839531076872903e6 0.0
0.0 0.0 0.0

-5.669947500619043e6 9.376333026035743e6 0.0
9.376333026035743e6 5.282339071980929e6 0.0
0.0 0.0 0.0

-3.337278118283644e6 1.0414531211360045e7 0.0
1.0414531211360045e7 444022.3888803413 0.0
0.0 0.0 0.0

-2.8893796502060634e6 9.789471818535661e6 0.0
9.789471818535661e6 -1.1767017181953057e6 0.0
0.0 0.0 0.0

3.6463059239472346e6 7.3021572370080985e6 0.0
7.3021572370080985e6 -1.2228732144321553e7 0.0
0.0 0.0 0.0

-6.614038429945242e6 1.405346679554077e7 0.0
1.405346679554077e7 6.017728209394963e6 0.0
0.0 0.0 0.0

480827.45487138093 6.04075572361352e6 0.0
6.04075572361352e6 -2.8416935364348525e6 0.0
0.0 0.0 0.0

-5.0830719422299955e6 9.12752285395531e6 0.0
9.12752285395531e6 4.286361782269254e6 0.0
0.0 0.0 0.0

-193178.00906326598 8.150339083238621e6 0.0
8.150339083238621e6 -4.333487315820756e6 0.0
0.0 0.0 0.0

2.441110835213446e6 5.3183557740040235e6 0.0
5.3183557740040235e6 -8.147480153211296e6 0.0
0.0 0.0 0.0

1.0488463213550565e6 9.376233881434027e6 0.0
9.376233881434027e6 -8.845262350963635e6 0.0
0.0 0.0 0.0

-733382.7618074849 6.964614093330335e6 0.0
6.964614093330335e6 -2.688067165632464e6 0.0
0.0 0.0 0.0

-1.083728045146256e7 5.516175016407364e6 0.0
5.516175016407364e6 1.2418342139964277e7 0.0
0.0 0.0 0.0

-2.823328807271994e6 1.052649359590742e7 0.0
1.052649359590742e7 -1.7368718378313803e6 0.0
0.0 0.0 0.0

713165.9305276356 3.5574772185031483e6 0.0
3.5574772185031483e6 -1.7550582323998958e6 0.0
0.0 0.0 0.0

-2.3348698779449575e6 8.274920719209095e6 0.0
8.274920719209095e6 -985605.5253005672 0.0
0.0 0.0 0.0

-2.2449643635501335e6 1.2388725958177716e7 0.0
1.2388725958177716e7 -3.2669600587350107e6 0.0
0.0 0.0 0.0

628065.2716756389 1.1133166155902155e7 0.0
1.1133166155902155e7 -9.239654114734288e6 0.0
0.0 0.0 0.0

467556.4009732511 8.399025801156264e6 0.0
8.399025801156264e6 -6.404636745399124e6 0.0
0.0 0.0 0.0

152699.49177349894 7.217399353954487e6 0.0
7.217399353954487e6 -4.480564514049494e6 0.0
0.0 0.0 0.0

-2.323553693810665e6 1.0259244263891941e7 0.0
1.0259244263891941e7 -1.472387172587409e6 0.0
0.0 0.0 0.0

-6.142146261358278e6 1.1430235167931909e7 0.0
1.1430235167931909e7 8.470971356485685e6 0.0
0.0 0.0 0.0

-5.030024576630918e6 1.2629091360683821e7 0.0
1.2629091360683821e7 1.4768821369322278e6 0.0
0.0 0.0 0.0

-7.521799092321813e6 1.0740357599510234e7 0.0
1.0740357599510234e7 8.454228047238965e6 0.0
0.0 0.0 0.0

-6.090261896667479e6 1.0960458749730973e7 0.0
1.0960458749730973e7 5.6729264596294165e6 0.0
0.0 0.0 0.0

-142660.17535014893 7.661537843090863e6 0.0
7.661537843090863e6 -4.669136054728709e6 0.0
0.0 0.0 0.0

-2.2207723807308143e6 8.60133061598495e6 0.0
8.60133061598495e6 -504503.1829145184 0.0
0.0 0.0 0.0

-2.0761015366142413e6 1.1863033910398655e7 0.0
1.1863033910398655e7 2.75910728199531e6 0.0
0.0 0.0 0.0

-1.525658993860919e6 8.80971095904809e6 0.0
8.80971095904809e6 -3.03521525063897e6 0.0
0.0 0.0 0.0

1.1699288323799996e6 1.0472003540372174e7 0.0
1.0472003540372174e7 -1.0204279602847766e7 0.0
0.0 0.0 0.0

-2.625074144404248e6 1.0640986629682396e7 0.0
1.0640986629682396e7 -1.100135220707367e6 0.0
0.0 0.0 0.0

-119890.75301030604 1.0173056206233783e7 0.0
1.0173056206233783e7 -6.945578055624353e6 0.0
0.0 0.0 0.0

-2.6172861802526196e6 9.358426932634987e6 0.0
9.358426932634987e6 -252290.42816774943 0.0
0.0 0.0 0.0

-1.7122002852418977e6 1.072792703307872e7 0.0
1.072792703307872e7 -9.781477164126543e6 0.0
0.0 0.0 0.0

-2.917942642211193e6 1.1023410383887157e7 0.0
1.1023410383887157e7 -745080.06677895 0.0
0.0 0.0 0.0

2.791068770857487e6 1.1072061930682711e7 0.0
1.1072061930682711e7 -4.019621813878825e6 0.0
0.0 0.0 0.0

-1.0399999397050764e7 -2.114204901466696e6 0.0
-2.114204901466696e6 1.8915349331997376e7 0.0
0.0 0.0 0.0

-1.159092941413595e7 1.602336423202067e7 0.0
1.602336423202067e7 9.310220769739581e6 0.0
0.0 0.0 0.0

-3.3296844013284915e6 1.2475688283860901e7 0.0
1.2475688283860901e7 2.9071988233584603e6 0.0
0.0 0.0 0.0

-1.0675147844126485e7 6.386040970109885e6 0.0
6.386040970109885e6 1.2604185217858832e7 0.0
0.0 0.0 0.0

-6.647545457697197e6 1.2743669463490542e7 0.0
1.2743669463490542e7 6.116217511248292e6 0.0
0.0 0.0 0.0

-2.341758552022518e6 9.378277339779938e6 0.0
9.378277339779938e6 -841640.7840465422 0.0
0.0 0.0 0.0

-1.6755876076302896e6 9.846322711179413e6 0.0
9.846322711179413e6 -2.482877220051929e6 0.0
0.0 0.0 0.0

-2.286050279469393e6 1.0440581355438998e7 0.0
1.0440581355438998e7 -1.621318678127422e6 0.0
0.0 0.0 0.0

-546733.3404971466 7.461850031283715e6 0.0
7.461850031283715e6 -2.8764515835451824e6 0.0
0.0 0.0 0.0

-2.6277084890319747e6 1.2557922967750283e7 0.0
1.2557922967750283e7 -2.606187249621178e6 0.0
0.0 0.0 0.0

1.806683212037447e6 6.342605029106068e6 0.0
6.342605029106068e6 -7.829677206986193e6 0.0
0.0 0.0 0.0

994165.5652237646 6.277302556605683e6 0.0
6.277302556605683e6 -5.575352804057235e6 0.0
0.0 0.0 0.0

-6.692977524336621e6 1.1009200841232993e7 0.0
1.1009200841232993e7 6.923239433990151e6 0.0
0.0 0.0 0.0

-4.657629403288023e6 1.2432604632871935e7 0.0
1.2432604632871935e7 837869.0340047788 0.0
0.0 0.0 0.0

1.937027134124138e6 1.1794771784158401e7 0.0
1.1794771784158401e7 -4.735511716849404e6 0.0
0.0 0.0 0.0

-8.00549401693785e6 1.3240645181086473e7 0.0
1.3240645181086473e7 4.798950563612797e6 0.0
0.0 0.0 0.0

1.389907427977827e6 5.82171291631573e6 0.0
5.82171291631573e6 -6.605100549471828e6 0.0
0.0 0.0 0.0

-1.8603001499975328e6 8.958651610821273e6 0.0
8.958651610821273e6 -2.5706965492182635e6 0.0
0.0 0.0 0.0

1.2790070338110987e7 1.0744198244479824e7 0.0
1.0744198244479824e7 -916051.4409056911 0.0
0.0 0.0 0.0

168944.6567781535 7.385263509073979e6 0.0
7.385263509073979e6 -4.752703358284009e6 0.0
0.0 0.0 0.0

2.3644281426500524e6 6.526269969601516e6 0.0
6.526269969601516e6 -9.260399935361942e6 0.0
0.0 0.0 0.0

-7.580555043673498e6 9.80246569092919e6 0.0
9.80246569092919e6 1.042302730864068e7 0.0
0.0 0.0 0.0

-29157.757743958384 1.0866935585086133e7 0.0
1.0866935585086133e7 -7.680977287656619e6 0.0
0.0 0.0 0.0

-3.2837136182712787e6 5.664698040424784e6 0.0
5.664698040424784e6 2.63035061149114e6 0.0
0.0 0.0 0.0

-1.250887876899589e7 1.4553627516623948e7 0.0
1.4553627516623948e7 9.483428691482186e6 0.0
0.0 0.0 0.0

-7.084558678366751e6 1.0170666430514589e7 0.0
1.0170666430514589e7 9.769219348770916e6 0.0
0.0 0.0 0.0

-6.571958960927421e6 1.321978680240182e7 0.0
1.321978680240182e7 6.157933809204735e6 0.0
0.0 0.0 0.0

-1.190740340199459e7 1.4478205697251894e7 0.0
1.4478205697251894e7 7.085099330304273e6 0.0
0.0 0.0 0.0

-3.196240587239584e6 9.882460271689272e6 0.0
9.882460271689272e6 -553777.6468318971 0.0
0.0 0.0 0.0

1.5793298035680525e7 6.26860790101723e6 0.0
6.26860790101723e6 -3.9649443576306263e6 0.0
0.0 0.0 0.0

-1.974060933883608e6 1.0893682076450408e7 0.0
1.0893682076450408e7 -2.8357033624416795e6 0.0
0.0 0.0 0.0

-1.0266260497269431e6 7.226257379431428e6 0.0
7.226257379431428e6 -2.7338545752124926e6 0.0
0.0 0.0 0.0

-3.0481246476509734e6 1.268416596896018e7 0.0
1.268416596896018e7 -1.9153601165319118e6 0.0
0.0 0.0 0.0

-4.6649255735286595e6 1.2714793548268436e7 0.0
1.2714793548268436e7 225066.3418735948 0.0
0.0 0.0 0.0

280687.250885098 6.991977043140165e6 0.0
6.991977043140165e6 -3.6788581705276915e6 0.0
0.0 0.0 0.0

-5.027959118912505e6 1.2482536096759524e7 0.0
1.2482536096759524e7 5.629117877607257e6 0.0
0.0 0.0 0.0

299599.89240263915 1.03224947193192e7 0.0
1.03224947193192e7 -9.06695614138847e6 0.0
0.0 0.0 0.0

-9.6808043867007e6 1.5669543621755457e6 0.0
1.5669543621755457e6 1.0725305957619011e7 0.0
0.0 0.0 0.0

-4.710903790690957e6 1.227646814565929e7 0.0
1.227646814565929e7 1.0251267826702362e6 0.0
0.0 0.0 0.0

-2.3473450763678383e6 9.535023774024434e6 0.0
9.535023774024434e6 -930740.7493253135 0.0
0.0 0.0 0.0

-4.444346149182366e6 1.2583460752447585e7 0.0
1.2583460752447585e7 1.5077114679108118e6 0.0
0.0 0.0 0.0

-1.014860883312549e6 1.0236277537035227e7 0.0
1.0236277537035227e7 -4.169007141612979e6 0.0
0.0 0.0 0.0

-1.131260216374206e6 6.618070248171364e6 0.0
6.618070248171364e6 -1.1951386008227658e6 0.0
0.0 0.0 0.0

-6.302966160906378e6 1.2437897904970085e7 0.0
1.2437897904970085e7 4.494025532857155e6 0.0
0.0 0.0 0.0

-6.767072134708472e6 1.1905119562009152e7 0.0
1.1905119562009152e7 7.965540523091579e6 0.0
0.0 0.0 0.0

-5.847153143522695e6 1.032708234532545e7 0.0
1.032708234532545e7 5.323465466077966e6 0.0
0.0 0.0 0.0

-1.0893758696590585e6 8.751772328535078e6 0.0
8.751772328535078e6 -2.96804240468618e6 0.0
0.0 0.0 0.0

1.8371167390198312e6 8.972758821041945e6 0.0
8.972758821041945e6 -1.049488440961542e7 0.0
0.0 0.0 0.0

-3.84428796733531e6 1.0500218732585555e7 0.0
1.0500218732585555e7 340437.42028829805 0.0
0.0 0.0 0.0

-1.5082402380920956e6 1.1322897846695203e7 0.0
1.1322897846695203e7 -5.196077262152442e6 0.0
0.0 0.0 0.0

-1.2116384619016068e6 1.0216221284872828e7 0.0
1.0216221284872828e7 -4.822088751864254e6 0.0
0.0 0.0 0.0

-4.322029225163964e6 1.2905119946491862e7 0.0
1.2905119946491862e7 -427473.73414411524 0.0
0.0 0.0 0.0

-2.3810296968721068e6 1.0985401320417216e7 0.0
1.0985401320417216e7 -2.83212881461984e6 0.0
0.0 0.0 0.0

1.1473219415131826e6 8.887956980811208e6 0.0
8.887956980811208e6 -8.336427092123733e6 0.0
0.0 0.0 0.0

954875.2989913849 6.288207128138118e6 0.0
6.288207128138118e6 -4.371217756506059e6 0.0
0.0 0.0 0.0

-43594.90324065066 7.097106463031512e6 0.0
7.097106463031512e6 -3.4136978037362364e6 0.0
0.0 0.0 0.0

-7.532496031322091e6 1.6532627881805733e7 0.0
1.6532627881805733e7 4.845194844712645e6 0.0
0.0 0.0 0.0

-3.502970119848644e6 1.0096622486534711e7 0.0
1.0096622486534711e7 -54384.42980886111 0.0
0.0 0.0 0.0

-3.0761871976775522e6 1.1301519245812165e7 0.0
1.1301519245812165e7 -1.7923618138003156e6 0.0
0.0 0.0 0.0

1.707786092201165e6 4.944930844531911e6 0.0
4.944930844531911e6 -6.24590619281829e6 0.0
0.0 0.0 0.0

-1.1782352191666164e7 -907719.3881855512 0.0
-907719.3881855512 1.872398979784689e7 0.0
0.0 0.0 0.0

1.102379986092518e6 7.416652070894015e6 0.0
7.416652070894015e6 -6.788257459756765e6 0.0
0.0 0.0 0.0

-2.076728691273047e6 1.4995631933268651e7 0.0
1.4995631933268651e7 -3.9350897139302855e6 0.0
0.0 0.0 0.0

-4.330576991760511e6 1.3935107808993012e7 0.0
1.3935107808993012e7 63432.86886386294 0.0
0.0 0.0 0.0

-6.279956379341007e6 1.2681271477303341e7 0.0
1.2681271477303341e7 4.28560398531517e6 0.0
0.0 0.0 0.0

3.758683688379088e6 5.856426405429926e6 0.0
5.856426405429926e6 -1.0654711367315646e7 0.0
0.0 0.0 0.0

-3.16939150277137e6 1.1581287018332636e7 0.0
1.1581287018332636e7 -582766.2537120109 0.0
0.0 0.0 0.0

-3.558727806032058e6 1.228550993041727e7 0.0
1.228550993041727e7 -684473.8323344172 0.0
0.0 0.0 0.0

2.6269773531750347e6 6.93704406052659e6 0.0
6.93704406052659e6 -1.0200374850066425e7 0.0
0.0 0.0 0.0

-5.208628207770139e6 1.3479416544072272e7 0.0
1.3479416544072272e7 1.4406705662975945e6 0.0
0.0 0.0 0.0

-158091.15131105483 1.2858901953586293e7 0.0
1.2858901953586293e7 -5.634237109545763e6 0.0
0.0 0.0 0.0

-3.409592276818259e6 1.1283253373032577e7 0.0
1.1283253373032577e7 -1.0441976458742846e6 0.0
0.0 0.0 0.0

1.4374186468444797e6 1.0636209737666402e7 0.0
1.0636209737666402e7 -1.082379045266509e7 0.0
0.0 0.0 0.0

1.126225449462568e6 6.14764464463263e6 0.0
6.14764464463263e6 -6.295211018345919e6 0.0
0.0 0.0 0.0

29284.29057068564 8.059704753112269e6 0.0
8.059704753112269e6 -5.618407236489672e6 0.0
0.0 0.0 0.0

-3.005152089109884e6 1.2014917897107575e7 0.0
1.2014917897107575e7 -1.7910646792640216e6 0.0
0.0 0.0 0.0

-679178.9583812233 1.2959749288597634e7 0.0
1.2959749288597634e7 -5.826264626653471e6 0.0
0.0 0.0 0.0

-2.719522363223614e6 1.110783854628968e7 0.0
1.110783854628968e7 -2.3272811773245996e6 0.0
0.0 0.0 0.0

1.3424360049430598e6 6.484076944178436e6 0.0
6.484076944178436e6 -6.024561795470167e6 0.0
0.0 0.0 0.0

3.174294728985193e6 6.0056399543811865e6 0.0
6.0056399543811865e6 -9.299785246416174e6 0.0
0.0 0.0 0.0

-821694.4788642633 1.050930795830118e7 0.0
1.050930795830118e7 -5.886672170932843e6 0.0
0.0 0.0 0.0

-337349.304185973 8.237134193029433e6 0.0
8.237134193029433e6 -5.113958162213409e6 0.0
0.0 0.0 0.0

-2.8489708504198664e6 9.468519534378782e6 0.0
9.468519534378782e6 -950491.0918956487 0.0
0.0 0.0 0.0

-7.681618158298837e6 1.370689283204002e7 0.0
1.370689283204002e7 5.400613073935763e6 0.0
0.0 0.0 0.0

-9.986991972376227e6 9.754900490139892e6 0.0
9.754900490139892e6 3.741177065848226e7 0.0
0.0 0.0 0.0

-8.852737996019673e6 2.6915589560609683e6 0.0
2.6915589560609683e6 8.80415251943897e6 0.0
0.0 0.0 0.0

-3.9106129789500725e6 1.3713735849847967e7 0.0
1.3713735849847967e7 -2.1458363348528626e6 0.0
0.0 0.0 0.0

-3.1515761036528363e6 9.69731506702804e6 0.0
9.69731506702804e6 -461996.63725503057 0.0
0.0 0.0 0.0

-1.0573340101332963e7 1.7094206703761828e6 0.0
1.7094206703761828e6 1.5249517334888754e7 0.0
0.0 0.0 0.0

2.508010353348099e6 5.86688996474253e6 0.0
5.86688996474253e6 -8.354793542470391e6 0.0
0.0 0.0 0.0

-3.303267128872807e6 1.0178728618244909e7 0.0
1.0178728618244909e7 598288.606535929 0.0
0.0 0.0 0.0

332863.491449364 1.082931441094629e7 0.0
1.082931441094629e7 -8.546928901035594e6 0.0
0.0 0.0 0.0

-3.3853643402398485e6 1.2881897106394622e7 0.0
1.2881897106394622e7 -1.2772983684821469e6 0.0
0.0 0.0 0.0

-3.133729354588897e6 1.1753059990874011e7 0.0
1.1753059990874011e7 -796682.0149796758 0.0
0.0 0.0 0.0

-3.4030518773731897e6 8.644446546033416e6 0.0
8.644446546033416e6 506228.364829442 0.0
0.0 0.0 0.0

-2.351176405483328e6 9.87850655902325e6 0.0
9.87850655902325e6 -1.1880125373615592e6 0.0
0.0 0.0 0.0

-1.830368511868416e6 6.439654981486826e6 0.0
6.439654981486826e6 -606380.9643341672 0.0
0.0 0.0 0.0

-2.491542723963374e7 1.0141280493675597e7 0.0
1.0141280493675597e7 1.1355197373500144e7 0.0
0.0 0.0 0.0

-1.7268264808869187e6 1.02551224642141e7 0.0
1.02551224642141e7 4.4107489494747715e6 0.0
0.0 0.0 0.0

-6.676448631080852e6 1.185315461484787e7 0.0
1.185315461484787e7 6.602669045430226e6 0.0
0.0 0.0 0.0

-5.397572960660919e6 1.3368125651437419e7 0.0
1.3368125651437419e7 3.1724908203788544e6 0.0
0.0 0.0 0.0

1.5207226633329391e6 7.574623810822551e6 0.0
7.574623810822551e6 -7.7808867478259215e6 0.0
0.0 0.0 0.0

2.180330473570864e6 6.975650191961912e6 0.0
6.975650191961912e6 -9.125925810951581e6 0.0
0.0 0.0 0.0

3.028492851999556e6 7.96551717408144e6 0.0
7.96551717408144e6 -1.085677175730769e7 0.0
0.0 0.0 0.0

-3.065951237963472e6 9.110560631623197e6 0.0
9.110560631623197e6 -233008.87533811736 0.0
0.0 0.0 0.0

-9.346088690624826e6 5.855407251621705e6 0.0
5.855407251621705e6 1.0870471391440388e7 0.0
0.0 0.0 0.0

-1.9088462473954316e6 6.7862263625908755e6 0.0
6.7862263625908755e6 -113903.14720850292 0.0
0.0 0.0 0.0

1.0054717790165306e6 1.2379612194681596e7 0.0
1.2379612194681596e7 -5.156999435599435e6 0.0
0.0 0.0 0.0

575782.6781032011 1.0469073230183499e7 0.0
1.0469073230183499e7 -8.88913452166542e6 0.0
0.0 0.0 0.0

-6.733133112653548e6 1.276520472932002e7 0.0
1.276520472932002e7 5.553530015071017e6 0.0
0.0 0.0 0.0

-5.53574445595357e6 1.7341867063504707e7 0.0
1.7341867063504707e7 549516.2996715647 0.0
0.0 0.0 0.0

-7.217590524403395e6 1.3993529684969634e7 0.0
1.3993529684969634e7 5.693248993063674e6 0.0
0.0 0.0 0.0

-6.844409019742405e6 1.1226346616700884e7 0.0
1.1226346616700884e7 8.623565664154109e6 0.0
0.0 0.0 0.0

4.384881922065789e6 7.403965762073588e6 0.0
7.403965762073588e6 -1.5709484996484429e7 0.0
0.0 0.0 0.0

-983182.5998226104 9.703980763159616e6 0.0
9.703980763159616e6 -3.762185166298001e6 0.0
0.0 0.0 0.0

1.6723558494856672e6 5.1154736330376845e6 0.0
5.1154736330376845e6 -5.555707263542907e6 0.0
0.0 0.0 0.0

3.365105332803971e6 7.416326328686852e6 0.0
7.416326328686852e6 -1.1078137182014955e7 0.0
0.0 0.0 0.0

-6.258467344562646e6 1.2957164450686347e7 0.0
1.2957164450686347e7 4.1054089383111205e6 0.0
0.0 0.0 0.0

-7.228581491776284e6 6.599667543450232e6 0.0
6.599667543450232e6 8.999733649388274e6 0.0
0.0 0.0 0.0

-6.9829962575153615e6 1.0777055938746298e7 0.0
1.0777055938746298e7 9.160003387024151e6 0.0
0.0 0.0 0.0

-6.604214203575517e6 1.2275112502833331e7 0.0
1.2275112502833331e7 6.617077413123231e6 0.0
0.0 0.0 0.0

1.301860993690528e6 7.433194845989568e6 0.0
7.433194845989568e6 -6.12528279928535e6 0.0
0.0 0.0 0.0

-3.4297278683974226e6 1.4053158246528242e7 0.0
1.4053158246528242e7 785164.9365655547 0.0
0.0 0.0 0.0

-7.326120820393747e6 1.6502065274701346e7 0.0
1.6502065274701346e7 3.6716939343156023e6 0.0
0.0 0.0 0.0

-6.68295189324297e6 1.355220033567981e7 0.0
1.355220033567981e7 5.34876928936604e6 0.0
0.0 0.0 0.0

-6.554363895815039e6 1.0586254975803887e7 0.0
1.0586254975803887e7 9.127505685265502e6 0.0
0.0 0.0 0.0

-2.1019412162094258e7 3.1266016543891802e7 0.0
3.1266016543891802e7 -6.781441731620052e6 0.0
0.0 0.0 0.0

-3.737723116054018e6 1.2191495487526614e7 0.0
1.2191495487526614e7 671486.3789719662 0.0
0.0 0.0 0.0

-4.805847703153903e6 9.026715178053983e6 0.0
9.026715178053983e6 2.3825721161854155e6 0.0
0.0 0.0 0.0

-986043.7656581271 4.111228398889563e6 0.0
4.111228398889563e6 -482432.9300847769 0.0
0.0 0.0 0.0

-1.9973292897779634e6 1.0053069332745725e7 0.0
1.0053069332745725e7 -1.9787016385170543e6 0.0
0.0 0.0 0.0

-3.304882392362471e6 1.3401879086591221e7 0.0
1.3401879086591221e7 -134331.62186949328 0.0
0.0 0.0 0.0

-1.0657326192784775e7 1.5598971160329185e7 0.0
1.5598971160329185e7 8.621472818211462e6 0.0
0.0 0.0 0.0

-2.551203052484098e6 1.1404348953059806e7 0.0
1.1404348953059806e7 -1.8430567496206886e6 0.0
0.0 0.0 0.0

-3.6639044151086947e6 1.1997246670402555e7 0.0
1.1997246670402555e7 -1.0866189487869716e6 0.0
0.0 0.0 0.0

-2.980264297034219e6 3.107757440221978e6 0.0
3.107757440221978e6 2.720209583697488e6 0.0
0.0 0.0 0.0

2.180042173445961e6 6.0839691599951545e6 0.0
6.0839691599951545e6 -7.421162084613899e6 0.0
0.0 0.0 0.0

-6.484933614930776e6 1.6024305218625512e7 0.0
1.6024305218625512e7 3.821127134172925e6 0.0
0.0 0.0 0.0

-6.864087325439732e6 1.1630951072561037e7 0.0
1.1630951072561037e7 8.313244064031271e6 0.0
0.0 0.0 0.0

-4.877823845506612e6 1.29592514430976e7 0.0
1.29592514430976e7 692267.7423467534 0.0
0.0 0.0 0.0

133110.89865263435 6.8732917935095485e6 0.0
6.8732917935095485e6 -3.7623044309322797e6 0.0
0.0 0.0 0.0

-4.975020281242826e6 1.4555518106773125e7 0.0
1.4555518106773125e7 83281.16257190472 0.0
0.0 0.0 0.0

-3.3777724182519694e6 1.1461522105015408e7 0.0
1.1461522105015408e7 -1.2506719175588854e6 0.0
0.0 0.0 0.0

-470176.7682126353 1.034274329606985e7 0.0
1.034274329606985e7 -6.4193654313112255e6 0.0
0.0 0.0 0.0

-2.593983868206081e6 1.0819542668193487e7 0.0
1.0819542668193487e7 -1.2707430921018424e6 0.0
0.0 0.0 0.0

1.1458645516626635e6 7.73886527610623e6 0.0
7.73886527610623e6 -6.973266579568651e6 0.0
0.0 0.0 0.0

-3.6173267484397953e6 1.1134385157328824e7 0.0
1.1134385157328824e7 625423.1057872812 0.0
0.0 0.0 0.0

-1.1507118545819626e6 4.683896664251646e6 0.0
4.683896664251646e6 -700072.7579643917 0.0
0.0 0.0 0.0

-4.698065502390085e6 6.550339727875837e6 0.0
6.550339727875837e6 4.281015224745734e6 0.0
0.0 0.0 0.0

-3.1943589153325404e6 8.486909330850458e6 0.0
8.486909330850458e6 1.2341500303475244e6 0.0
0.0 0.0 0.0

-1.520223580161671e6 9.75879085363577e6 0.0
9.75879085363577e6 -8.310467394427346e6 0.0
0.0 0.0 0.0

-2.8710919093152415e6 9.029681917233292e6 0.0
9.029681917233292e6 431804.9465397764 0.0
0.0 0.0 0.0

-2.0594886390651733e7 1.4042419230216814e7 0.0
1.4042419230216814e7 9.006678073206812e6 0.0
0.0 0.0 0.0

-3.4824663238551198e6 9.859127278542155e6 0.0
9.859127278542155e6 50037.49302482349 0.0
0.0 0.0 0.0

-714911.1352521164 1.2519220061148088e7 0.0
1.2519220061148088e7 -1.1367087712813811e6 0.0
0.0 0.0 0.0

-2.654171331880276e7 8.3059603575771e6 0.0
8.3059603575771e6 9.144708133702235e6 0.0
0.0 0.0 0.0

464167.377290861 1.2708379967219943e7 0.0
1.2708379967219943e7 -5.498379721940156e6 0.0
0.0 0.0 0.0

-2.6595211563983145e6 9.611653096034966e6 0.0
9.611653096034966e6 -357953.299807671 0.0
0.0 0.0 0.0

608838.3059086208 7.894369634895585e6 0.0
7.894369634895585e6 -5.366600635727634e6 0.0
0.0 0.0 0.0

-5.703479545128234e6 1.3556888619543638e7 0.0
1.3556888619543638e7 3.6937877157909065e6 0.0
0.0 0.0 0.0

858060.1294647702 8.481258393746724e6 0.0
8.481258393746724e6 -6.993034444872752e6 0.0
0.0 0.0 0.0

758447.9552372824 8.992088852171414e6 0.0
8.992088852171414e6 -7.367805815943063e6 0.0
0.0 0.0 0.0

-1.261997790183483e6 6.7545260301426295e6 0.0
6.7545260301426295e6 -1.6880481395535409e6 0.0
0.0 0.0 0.0

-6.177884139651036e6 1.023900086727156e7 0.0
1.023900086727156e7 4.237408514459946e6 0.0
0.0 0.0 0.0

2.8276742171785655e6 6.930457530701703e6 0.0
6.930457530701703e6 -9.523557607102633e6 0.0
0.0 0.0 0.0

-2.764949339844821e6 4.480216560917284e6 0.0
4.480216560917284e6 1.880869658801394e6 0.0
0.0 0.0 0.0

809630.2880028477 8.734163955270125e6 0.0
8.734163955270125e6 -7.180839283702765e6 0.0
0.0 0.0 0.0

-4.140605908520224e7 1.4079338830808536e6 0.0
1.4079338830808536e6 1.332037359860018e7 0.0
0.0 0.0 0.0

4.25912968312375e6 7.2655140764103355e6 0.0
7.2655140764103355e6 -1.4922473325061321e7 0.0
0.0 0.0 0.0

-5.2247717217457965e6 9.551518844112443e6 0.0
9.551518844112443e6 2.89087344860914e6 0.0
0.0 0.0 0.0

-5.500265113461202e6 1.0562028275502883e7 0.0
1.0562028275502883e7 3.0401728281011265e6 0.0
0.0 0.0 0.0

-6.56300502220444e6 1.392230543197006e7 0.0
1.392230543197006e7 6.155090594429586e6 0.0
0.0 0.0 0.0

-2.518360749249484e6 1.0141546248740453e7 0.0
1.0141546248740453e7 -2.095815787566985e6 0.0
0.0 0.0 0.0

-5.480225224499943e6 1.2255727697928503e7 0.0
1.2255727697928503e7 6.744425260576054e6 0.0
0.0 0.0 0.0

-87597.19369773939 9.251794871436384e6 0.0
9.251794871436384e6 -6.017347039512624e6 0.0
0.0 0.0 0.0

1.8699377660623328e6 7.796267366884059e6 0.0
7.796267366884059e6 -9.109763514254777e6 0.0
0.0 0.0 0.0

-5.756263814868886e6 1.3354768155186636e7 0.0
1.3354768155186636e7 3.818529620244455e6 0.0
0.0 0.0 0.0

-5.375719500235235e6 1.4802224902653048e7 0.0
1.4802224902653048e7 202055.09151830035 0.0
0.0 0.0 0.0

3.782073588077385e6 7.910436365633417e6 0.0
7.910436365633417e6 -1.2780915908885496e7 0.0
0.0 0.0 0.0

-2.4423737313786177e6 7.683986382066619e6 0.0
7.683986382066619e6 273318.5415167303 0.0
0.0 0.0 0.0

-6.911989018710821e6 1.4102856887503438e7 0.0
1.4102856887503438e7 5.8166538897857545e6 0.0
0.0 0.0 0.0

-3.229448860796937e7 3.0748209225184366e7 0.0
3.0748209225184366e7 5.517635755227629e6 0.0
0.0 0.0 0.0

-1.0658569026354253e7 3.0029399246945125e6 0.0
3.0029399246945125e6 1.360885751186021e7 0.0
0.0 0.0 0.0

-500754.2625937115 9.34556133089992e6 0.0
9.34556133089992e6 -7.657082751734527e6 0.0
0.0 0.0 0.0

134439.84743257286 7.105064581617269e6 0.0
7.105064581617269e6 -3.7120414617007924e6 0.0
0.0 0.0 0.0

-3.981402405965158e6 -3.4191780817204416e6 0.0
-3.4191780817204416e6 4.714687273087765e6 0.0
0.0 0.0 0.0

4.080735038842596e6 5.488563901516834e6 0.0
5.488563901516834e6 -1.0800438374966335e7 0.0
0.0 0.0 0.0

-3.3140662478650897e6 1.2933513580173142e7 0.0
1.2933513580173142e7 1.3981358839947444e6 0.0
0.0 0.0 0.0

721587.6560177589 1.114224453960964e7 0.0
1.114224453960964e7 -9.16880859259983e6 0.0
0.0 0.0 0.0

-1.1056257649577877e7 7.506133874998632e6 0.0
7.506133874998632e6 1.3418801829678643e7 0.0
0.0 0.0 0.0

-3.43003574790601e6 1.3496764443192568e7 0.0
1.3496764443192568e7 -2.8151679622731013e6 0.0
0.0 0.0 0.0

869509.5746959136 8.22244629075579e6 0.0
8.22244629075579e6 -6.810186104800954e6 0.0
0.0 0.0 0.0

-9.515628641745105e6 1.0100150260764766e7 0.0
1.0100150260764766e7 1.8166053419628628e7 0.0
0.0 0.0 0.0

-2.6826055150610376e6 1.0103640393087272e7 0.0
1.0103640393087272e7 -667417.7754316295 0.0
0.0 0.0 0.0

-7.3445745916287955e6 1.15515649326813e7 0.0
1.15515649326813e7 9.965990324228704e6 0.0
0.0 0.0 0.0

658832.8846766064 1.1315743201153586e7 0.0
1.1315743201153586e7 -8.7861355010407e6 0.0
0.0 0.0 0.0

2.7048904659460705e7 7.007393393272331e6 0.0
7.007393393272331e6 -3.8411091514497492e6 0.0
0.0 0.0 0.0

-3.7851176155855134e6 1.30493911512519e7 0.0
1.30493911512519e7 -685884.3649684777 0.0
0.0 0.0 0.0

-6.205534953723118e6 1.6081876310532605e7 0.0
1.6081876310532605e7 3.1917972943602423e6 0.0
0.0 0.0 0.0

548052.53368406 8.63579083490967e6 0.0
8.63579083490967e6 -6.577152242805196e6 0.0
0.0 0.0 0.0

1.269681520320403e6 8.297129837574244e6 0.0
8.297129837574244e6 -6.701066673449597e6 0.0
0.0 0.0 0.0

-2.19762575445695e6 9.94041353011388e6 0.0
9.94041353011388e6 -2.6213162082647225e6 0.0
0.0 0.0 0.0

-7.257062487263201e6 5.195922281018422e6 0.0
5.195922281018422e6 9.298465520055637e6 0.0
0.0 0.0 0.0

786410.2368553407 1.0724348238980938e7 0.0
1.0724348238980938e7 -1.0683956937781096e7 0.0
0.0 0.0 0.0

1.607411622913253e6 5.29828281365711e6 0.0
5.29828281365711e6 -5.650594771905087e6 0.0
0.0 0.0 0.0

-117248.44530734746 9.786207550258607e6 0.0
9.786207550258607e6 -6.439188048171115e6 0.0
0.0 0.0 0.0

-1.5084657541525852e7 1.1649659567210536e7 0.0
1.1649659567210536e7 1.1595740344183743e7 0.0
0.0 0.0 0.0

-1.4314471430562888e6 7.80054395836898e6 0.0
7.80054395836898e6 -2.4537613744255668e6 0.0
0.0 0.0 0.0

-9.346838208828414e6 1.0785450310089499e7 0.0
1.0785450310089499e7 2.2798273267779097e7 0.0
0.0 0.0 0.0

-4.305559529473639e6 1.2368657123621723e7 0.0
1.2368657123621723e7 4.73967472810831e6 0.0
0.0 0.0 0.0

2.8537153123419425e6 1.0723024735639527e7 0.0
1.0723024735639527e7 -2.470332647995899e6 0.0
0.0 0.0 0.0

-6.705318732797159e6 1.4059093034596479e7 0.0
1.4059093034596479e7 6.024597885113899e6 0.0
0.0 0.0 0.0

-4.059417288392321e6 1.3231881139259612e7 0.0
1.3231881139259612e7 40429.95088275662 0.0
0.0 0.0 0.0

-6.711239015848994e6 1.3408494866246682e7 0.0
1.3408494866246682e7 5.528795621128864e6 0.0
0.0 0.0 0.0

-6.196614933201256e6 5.426537582489089e6 0.0
5.426537582489089e6 6.97048675568635e6 0.0
0.0 0.0 0.0

-6.012920912918119e6 7.565103110829012e6 0.0
7.565103110829012e6 6.172922217915255e6 0.0
0.0 0.0 0.0

-1.3203828924916943e6 5.344258987853274e6 0.0
5.344258987853274e6 -980415.8567386623 0.0
0.0 0.0 0.0

3.467830762715599e6 9.090264285724107e6 0.0
9.090264285724107e6 1.777095670826926e6 0.0
0.0 0.0 0.0

521478.4071117216 1.1525982323815417e7 0.0
1.1525982323815417e7 -8.373779602908708e6 0.0
0.0 0.0 0.0

-4.0716738072773805e6 1.302366937763271e7 0.0
1.302366937763271e7 392781.14856744115 0.0
0.0 0.0 0.0

-6.205763181915637e6 1.3176145382469276e7 0.0
1.3176145382469276e7 3.937442196760986e6 0.0
0.0 0.0 0.0

-1.607460992455708e6 2.1378656890693866e6 0.0
2.1378656890693866e6 570705.3984704771 0.0
0.0 0.0 0.0

-6.739912842328118e6 1.392580882080357e7 0.0
1.392580882080357e7 5.160773737577068e6 0.0
0.0 0.0 0.0

-2.9599287794820587e6 9.771166504398175e6 0.0
9.771166504398175e6 153775.6241109306 0.0
0.0 0.0 0.0

-6.938024341463445e6 1.4235389477640605e7 0.0
1.4235389477640605e7 5.785865477260618e6 0.0
0.0 0.0 0.0

3.1971325262767524e6 1.0383300108943107e7 0.0
1.0383300108943107e7 -2.812576262236948e6 0.0
0.0 0.0 0.0

-5.573595895919783e6 1.5013588881649058e7 0.0
1.5013588881649058e7 2.118853525050482e6 0.0
0.0 0.0 0.0

2.722565672675018e6 5.904702673517014e6 0.0
5.904702673517014e6 -9.244735817987727e6 0.0
0.0 0.0 0.0

-1.0037462054037832e7 3.473085970851529e6 0.0
3.473085970851529e6 1.3054833319309643e7 0.0
0.0 0.0 0.0

1.15253373087963e6 1.1767004122340856e7 0.0
1.1767004122340856e7 -6.886672591738802e6 0.0
0.0 0.0 0.0

339085.8859446822 1.1756764473351028e7 0.0
1.1756764473351028e7 -7.9201526792475525e6 0.0
0.0 0.0 0.0

-2.354798971329178e6 9.691382867481714e6 0.0
9.691382867481714e6 -1.0514178220401402e6 0.0
0.0 0.0 0.0

-3.2031519738126956e6 1.2596636622799616e7 0.0
1.2596636622799616e7 1.7241106049766066e6 0.0
0.0 0.0 0.0

-2.729338087925333e6 1.399426050312189e7 0.0
1.399426050312189e7 -2.600704875878178e6 0.0
0.0 0.0 0.0

1.2463019624047014e6 1.0668062278982095e7 0.0
1.0668062278982095e7 -6.494228374328364e6 0.0
0.0 0.0 0.0

-5.932364880212422e6 6.275362982777679e6 0.0
6.275362982777679e6 4.565376086606299e6 0.0
0.0 0.0 0.0

1.906335454392775e6 7.58251202484872e6 0.0
7.58251202484872e6 -7.651783882400567e6 0.0
0.0 0.0 0.0

972459.4451705315 1.1239015194213402e7 0.0
1.1239015194213402e7 -8.509406193955181e6 0.0
0.0 0.0 0.0

-2.949859856152969e6 1.094797202921361e7 0.0
1.094797202921361e7 5.654322205800518e6 0.0
0.0 0.0 0.0

-3.11796870786987e6 1.0905106685906993e7 0.0
1.0905106685906993e7 -1.3865574945335053e6 0.0
0.0 0.0 0.0

4.0160248776209755e6 7.150199128606103e6 0.0
7.150199128606103e6 -1.227051677437728e7 0.0
0.0 0.0 0.0

5.142979208629019e6 6.649207102436193e6 0.0
6.649207102436193e6 -1.4795432110696506e7 0.0
0.0 0.0 0.0

-3.8147494879352776e6 8.579356640082728e6 0.0
8.579356640082728e6 1.1450265615591144e6 0.0
0.0 0.0 0.0

-6.165512890164377e6 1.3389340048180887e7 0.0
1.3389340048180887e7 3.791048955558966e6 0.0
0.0 0.0 0.0

-5.652777553091813e6 2.118224531514713e6 0.0
2.118224531514713e6 7.366127105449334e6 0.0
0.0 0.0 0.0

-4.733798648923349e6 7.435057479184019e6 0.0
7.435057479184019e6 2.4813793216636563e6 0.0
0.0 0.0 0.0

-5.655710087235521e6 1.0097214883061642e7 0.0
1.0097214883061642e7 3.4011994594476167e6 0.0
0.0 0.0 0.0

1.722594072526738e6 7.609208477401041e6 0.0
7.609208477401041e6 -7.104981750455021e6 0.0
0.0 0.0 0.0

4.1145958903363138e6 5.4211052395661045e6 0.0
5.4211052395661045e6 -1.0986834361497317e7 0.0
0.0 0.0 0.0

-4.93213868465529e6 9.532888497055573e6 0.0
9.532888497055573e6 3.876748248707341e6 0.0
0.0 0.0 0.0

-8.779405373385996e6 1.2554494157293968e7 0.0
1.2554494157293968e7 2.9391537621834584e7 0.0
0.0 0.0 0.0

-5.031232118197636e6 1.0885731911705263e7 0.0
1.0885731911705263e7 3.528915096133314e6 0.0
0.0 0.0 0.0

-4.424656898837543e6 1.333304946053061e7 0.0
1.333304946053061e7 606146.0785018096 0.0
0.0 0.0 0.0

568345.0188053148 9.082148257812811e6 0.0
9.082148257812811e6 -6.848786105571448e6 0.0
0.0 0.0 0.0

-5.561787937041499e6 1.4082409169994224e7 0.0
1.4082409169994224e7 2.960601001014649e6 0.0
0.0 0.0 0.0

-5.783279827114333e6 1.3140146451026412e7 0.0
1.3140146451026412e7 3.957670295121866e6 0.0
0.0 0.0 0.0

-530775.2256171387 1.23599076409589e7 0.0
1.23599076409589e7 6.576342523578546e6 0.0
0.0 0.0 0.0

1.7566227761867552e6 5.185975780872067e6 0.0
5.185975780872067e6 -5.055025340087165e6 0.0
0.0 0.0 0.0

-168001.49128722865 1.3215456604430228e7 0.0
1.3215456604430228e7 -5.238351649922337e6 0.0
0.0 0.0 0.0

2.0653168371368703e6 4.812543920015336e6 0.0
4.812543920015336e6 -7.596688582614025e6 0.0
0.0 0.0 0.0

-4.03700505362664e6 5.89022383281818e6 0.0
5.89022383281818e6 3.540378405868151e6 0.0
0.0 0.0 0.0

-6.065421214088425e6 1.2319348836412964e7 0.0
1.2319348836412964e7 3.9563749581950735e6 0.0
0.0 0.0 0.0

-2.886744745801532e6 1.119660416363136e7 0.0
1.119660416363136e7 -930554.4860170024 0.0
0.0 0.0 0.0

1.34240424593917e6 7.712384139735926e6 0.0
7.712384139735926e6 -6.313239624872274e6 0.0
0.0 0.0 0.0

941388.1346921441 1.121689238726616e7 0.0
1.121689238726616e7 -6.886666366051244e6 0.0
0.0 0.0 0.0

-4.72940966060246e6 1.354186217152167e7 0.0
1.354186217152167e7 1.178997605068563e6 0.0
0.0 0.0 0.0

-9.408472637362396e6 1.508507009273732e6 0.0
1.508507009273732e6 1.177562564682633e7 0.0
0.0 0.0 0.0

-7.013398961311353e6 8.72573015821463e6 0.0
8.72573015821463e6 7.928682366188782e6 0.0
0.0 0.0 0.0

-3.881279834621688e6 4.918234694836037e6 0.0
4.918234694836037e6 3.369976770359068e6 0.0
0.0 0.0 0.0

-3.108780390249452e6 9.444830544743167e6 0.0
9.444830544743167e6 -360414.07465280616 0.0
0.0 0.0 0.0

-6.446906191493293e6 1.3256413354970062e7 0.0
1.3256413354970062e7 5.768706553538671e6 0.0
0.0 0.0 0.0

-3.4980696227410627e6 1.0757693159410272e7 0.0
1.0757693159410272e7 -527173.1788815053 0.0
0.0 0.0 0.0

-6.1780553566174805e6 1.3889858201593025e7 0.0
1.3889858201593025e7 3.3198722991054785e6 0.0
0.0 0.0 0.0

-1.5528610030500665e6 6.620938079818602e6 0.0
6.620938079818602e6 -1.1391748751618646e6 0.0
0.0 0.0 0.0

-5.32341438235843e6 7.235098666990377e6 0.0
7.235098666990377e6 5.0608099012837615e6 0.0
0.0 0.0 0.0

-6.181026835503404e6 1.3582720610444676e7 0.0
1.3582720610444676e7 3.6537501403198685e6 0.0
0.0 0.0 0.0

-1.811167257383212e6 1.3684698829224808e7 0.0
1.3684698829224808e7 -4.012023250983628e6 0.0
0.0 0.0 0.0

-868853.5523298532 1.1799200816044353e7 0.0
1.1799200816044353e7 7.169534247501754e6 0.0
0.0 0.0 0.0

-2.912468497499072e6 9.439487587384105e6 0.0
9.439487587384105e6 295324.77524610923 0.0
0.0 0.0 0.0

-1.7800961430450934e6 1.522058226145688e7 0.0
1.522058226145688e7 -2.999772995912383e6 0.0
0.0 0.0 0.0

-3.599675288879663e6 9.459091435127554e6 0.0
9.459091435127554e6 1.497890105244248e6 0.0
0.0 0.0 0.0

-6.4870898523797e6 8.294969941760759e6 0.0
8.294969941760759e6 6.802254386266265e6 0.0
0.0 0.0 0.0

-1.6148206398991311e6 6.965997891848716e6 0.0
6.965997891848716e6 -638664.1187257167 0.0
0.0 0.0 0.0

-6.185461225363046e6 1.3733191343310535e7 0.0
1.3733191343310535e7 3.4829287021846403e6 0.0
0.0 0.0 0.0

2.9151622703203657e6 6.381524273837999e6 0.0
6.381524273837999e6 -9.033534644197656e6 0.0
0.0 0.0 0.0

2.390259371649991e6 7.018687894606155e6 0.0
7.018687894606155e6 -8.420313393797547e6 0.0
0.0 0.0 0.0

-6.501920148848385e6 1.3701163570257008e7 0.0
1.3701163570257008e7 6.278421230615236e6 0.0
0.0 0.0 0.0

-321264.5438468134 8.08953965361098e6 0.0
8.08953965361098e6 -3.997549959457113e6 0.0
0.0 0.0 0.0

1.328981480881265e6 8.029358393533626e6 0.0
8.029358393533626e6 -6.503914415313257e6 0.0
0.0 0.0 0.0

-6.733374732542759e6 1.5092660659136709e7 0.0
1.5092660659136709e7 3.9411898759520617e6 0.0
0.0 0.0 0.0

-5.271815190382191e6 1.3902634520179652e7 0.0
1.3902634520179652e7 2.386092168994518e6 0.0
0.0 0.0 0.0

-3.3270565997467204e6 1.1636117314821951e7 0.0
1.1636117314821951e7 -1.4153866217866256e6 0.0
0.0 0.0 0.0

904767.0013500978 1.1014698431886407e7 0.0
1.1014698431886407e7 -1.0207116270553675e7 0.0
0.0 0.0 0.0

-7.268692535971165e6 1.4984080067789542e7 0.0
1.4984080067789542e7 5.28921353339876e6 0.0
0.0 0.0 0.0

-7.356335688397429e6 9.155465802454308e6 0.0
9.155465802454308e6 8.686430628300436e6 0.0
0.0 0.0 0.0

1.136807700656807e6 6.173712992328248e6 0.0
6.173712992328248e6 -6.4908270433931835e6 0.0
0.0 0.0 0.0

-7.19613187530754e6 1.6691315797275249e7 0.0
1.6691315797275249e7 4.650241923523426e6 0.0
0.0 0.0 0.0

-3.0815536139910286e6 1.2686255050842676e7 0.0
1.2686255050842676e7 3.563976528723444e6 0.0
0.0 0.0 0.0

-5.007207146716969e6 1.372887648539419e7 0.0
1.372887648539419e7 1.8392994674118562e6 0.0
0.0 0.0 0.0

110136.60623326898 1.1990835328556743e7 0.0
1.1990835328556743e7 -7.472215628469953e6 0.0
0.0 0.0 0.0

-5.90246135054278e6 1.414540456948448e7 0.0
1.414540456948448e7 3.739494450571143e6 0.0
0.0 0.0 0.0

-6.342316156685887e6 1.257823610941514e7 0.0
1.257823610941514e7 7.051406448783204e6 0.0
0.0 0.0 0.0

-6.042716774868913e6 1.4135202258244395e7 0.0
1.4135202258244395e7 2.949112611444899e6 0.0
0.0 0.0 0.0

-6.131267099024051e6 1.8368578778011806e7 0.0
1.8368578778011806e7 2.2904664155938784e6 0.0
0.0 0.0 0.0

-8.273150408410749e6 7.134828486090482e6 0.0
7.134828486090482e6 1.0991032242140159e7 0.0
0.0 0.0 0.0

1.0457228077061009e6 8.500415823786039e6 0.0
8.500415823786039e6 -6.365634434191558e6 0.0
0.0 0.0 0.0

-7.933834479829425e6 5.366868319797446e6 0.0
5.366868319797446e6 1.0453108124595338e7 0.0
0.0 0.0 0.0

-5.045347167057284e6 6.432984370034195e6 0.0
6.432984370034195e6 3.1749065134597355e6 0.0
0.0 0.0 0.0

-766713.3309826286 -2.1266448679305534e6 0.0
-2.1266448679305534e6 1.4610355622923672e6 0.0
0.0 0.0 0.0

-570783.8145256063 -2.0525823738583557e6 0.0
-2.0525823738583557e6 1.1558110444309986e6 0.0
0.0 0.0 0.0

-8.569519365727749e6 7.265983008507415e6 0.0
7.265983008507415e6 1.1292039216445329e7 0.0
0.0 0.0 0.0

2.51599835374655e6 1.1069141351938887e7 0.0
1.1069141351938887e7 1.7655358087457437e6 0.0
0.0 0.0 0.0

-5.489952191468931e6 1.457259985114654e7 0.0
1.457259985114654e7 2.3405220427874047e6 0.0
0.0 0.0 0.0

-3.2389524642851786e6 1.19624507982073e7 0.0
1.19624507982073e7 -1.0608198592919873e6 0.0
0.0 0.0 0.0

987598.4955700352 8.744027151463985e6 0.0
8.744027151463985e6 -6.586003674275955e6 0.0
0.0 0.0 0.0

-504443.9515491864 1.2429955827473491e7 0.0
1.2429955827473491e7 4.959282414705286e6 0.0
0.0 0.0 0.0

-7.4006023326135e6 1.5110788907563677e7 0.0
1.5110788907563677e7 6.1197841514911745e6 0.0
0.0 0.0 0.0

-7.037230498237904e6 1.5351925880429335e7 0.0
1.5351925880429335e7 4.213939363529769e6 0.0
0.0 0.0 0.0

-7.221703899688781e6 1.5792752171319403e7 0.0
1.5792752171319403e7 4.266137292506307e6 0.0
0.0 0.0 0.0

-6.620615663025413e6 9.571494393423654e6 0.0
9.571494393423654e6 5.043016173848672e6 0.0
0.0 0.0 0.0

-4.363256874602497e6 8.505360793059822e6 0.0
8.505360793059822e6 1.8630134940090182e6 0.0
0.0 0.0 0.0

-2.3376695896904864e6 6.820761178512511e6 0.0
6.820761178512511e6 -112991.76186718012 0.0
0.0 0.0 0.0

-6.280289593834532e6 1.1979181921962373e7 0.0
1.1979181921962373e7 5.658958744406938e6 0.0
0.0 0.0 0.0

-3.5843186718782485e6 8.394668864192775e6 0.0
8.394668864192775e6 1.9746675593481197e6 0.0
0.0 0.0 0.0

-9.774405144887961e6 5.922058566417826e6 0.0
5.922058566417826e6 1.3048433934725605e7 0.0
0.0 0.0 0.0

934711.21351864 8.998244074304165e6 0.0
8.998244074304165e6 -6.777273061932491e6 0.0
0.0 0.0 0.0

-6.6631779130236e6 1.0539131775963586e7 0.0
1.0539131775963586e7 5.015059315864485e6 0.0
0.0 0.0 0.0

-1.0059230956396822e7 4.9710422834187355e6 0.0
4.9710422834187355e6 1.3433361707854846e7 0.0
0.0 0.0 0.0

-3.5582904635999324e6 1.1553224312593756e7 0.0
1.1553224312593756e7 4.126478702088503e6 0.0
0.0 0.0 0.0

-3.81977601747302e6 9.564623470356371e6 0.0
9.564623470356371e6 753979.9272987682 0.0
0.0 0.0 0.0

-6.146725289445156e6 1.443849971688956e7 0.0
1.443849971688956e7 4.103655583896316e6 0.0
0.0 0.0 0.0

-5.634147322287461e6 1.3841629766117673e7 0.0
1.3841629766117673e7 3.3586322165874313e6 0.0
0.0 0.0 0.0

-6.366608563919123e6 1.2797044600615557e7 0.0
1.2797044600615557e7 6.838094592460679e6 0.0
0.0 0.0 0.0

768790.9022013908 1.1253730920186402e7 0.0
1.1253730920186402e7 -9.356710507002681e6 0.0
0.0 0.0 0.0

-6.139614988011211e6 1.1796769035787623e7 0.0
1.1796769035787623e7 4.40027279221569e6 0.0
0.0 0.0 0.0

-7.207408191797233e6 9.529890719290633e6 0.0
9.529890719290633e6 8.179153074313641e6 0.0
0.0 0.0 0.0

-2.922217521401271e6 1.1588353888684874e7 0.0
1.1588353888684874e7 -1.344719559070211e6 0.0
0.0 0.0 0.0

-6.174466970391962e6 1.6521671124669936e7 0.0
1.6521671124669936e7 3.147517358363022e6 0.0
0.0 0.0 0.0

-6.388624452822255e6 1.3001097181263369e7 0.0
1.3001097181263369e7 6.703776188243563e6 0.0
0.0 0.0 0.0

-3.06474859476882e6 1.1497600363675376e7 0.0
1.1497600363675376e7 -1.996946288305839e6 0.0
0.0 0.0 0.0

2.3085961100877873e6 7.270184857736549e6 0.0
7.270184857736549e6 -8.661125869646603e6 0.0
0.0 0.0 0.0

-5.4650876433359925e6 9.719679387663161e6 0.0
9.719679387663161e6 4.798188287353619e6 0.0
0.0 0.0 0.0

-2.8061197361136074e6 1.4864428877385378e7 0.0
1.4864428877385378e7 -2.2168485219489913e6 0.0
0.0 0.0 0.0

1.354657780477522e6 5.697528523093233e6 0.0
5.697528523093233e6 -4.570602607621489e6 0.0
0.0 0.0 0.0

2.7979981344797653e6 7.646926516833482e6 0.0
7.646926516833482e6 -1.143857467683183e7 0.0
0.0 0.0 0.0

-2.050409705846303e6 1.121826352464275e7 0.0
1.121826352464275e7 -3.0234798935423023e6 0.0
0.0 0.0 0.0

1.1542958654047074e6 1.1640122287046535e7 0.0
1.1640122287046535e7 4.0729211197468364e6 0.0
0.0 0.0 0.0

1.8959355120353242e6 7.473052326566986e6 0.0
7.473052326566986e6 -8.982297791462414e6 0.0
0.0 0.0 0.0

1.6783863936331775e6 7.986725932336636e6 0.0
7.986725932336636e6 -8.826895811585698e6 0.0
0.0 0.0 0.0

442045.9716688513 9.276200964742962e6 0.0
9.276200964742962e6 337751.63573873474 0.0
0.0 0.0 0.0

-9.357079620371908e6 2.364811696590842e6 0.0
2.364811696590842e6 1.1744469078632463e7 0.0
0.0 0.0 0.0

-3.0089271234384608e6 6.412128731401451e6 0.0
6.412128731401451e6 909035.3074270946 0.0
0.0 0.0 0.0

-1.5824258657233273e6 1.1934766453821683e7 0.0
1.1934766453821683e7 -1.2543995069362562e7 0.0
0.0 0.0 0.0

-5.212463757731582e6 8.0442872405160805e6 0.0
8.0442872405160805e6 3.047495589297396e6 0.0
0.0 0.0 0.0

-6.620752384952929e6 5.372270963110671e6 0.0
5.372270963110671e6 5.567542593863366e6 0.0
0.0 0.0 0.0

-1.5759235220375524e6 1.0584716697375143e7 0.0
1.0584716697375143e7 3.961993038624644e6 0.0
0.0 0.0 0.0

-3.2748399853602825e6 -2.6711383635685625e6 0.0
-2.6711383635685625e6 3.680406548089751e6 0.0
0.0 0.0 0.0

-5.784972610114602e6 9.650841710405905e6 0.0
9.650841710405905e6 3.749831529357968e6 0.0
0.0 0.0 0.0

-6.548557706813548e6 1.3425347035084298e7 0.0
1.3425347035084298e7 6.075832020430511e6 0.0
0.0 0.0 0.0

-1.1582171723518833e6 1.0925205660580082e7 0.0
1.0925205660580082e7 -5.569240421765999e6 0.0
0.0 0.0 0.0

99736.77577826648 4.640176826382728e6 0.0
4.640176826382728e6 -2.3733446264647236e6 0.0
0.0 0.0 0.0

-2.0441335726994092e6 7.014750277294384e6 0.0
7.014750277294384e6 -677962.5882473107 0.0
0.0 0.0 0.0

4.311719567442809e6 7.857517084514699e6 0.0
7.857517084514699e6 -1.6681419766635684e7 0.0
0.0 0.0 0.0

-5.632651717029558e6 1.699639597977957e7 0.0
1.699639597977957e7 2.0886469217685084e6 0.0
0.0 0.0 0.0

-1.1026498827937953e7 4.718306902178594e6 0.0
4.718306902178594e6 1.6481288220430477e7 0.0
0.0 0.0 0.0

-2.535672285974815e6 1.0522152872278627e7 0.0
1.0522152872278627e7 -2.746827307179494e6 0.0
0.0 0.0 0.0

-7.802200721693589e6 5.075675676196968e6 0.0
5.075675676196968e6 7.529053627007104e6 0.0
0.0 0.0 0.0

-8.603750281988852e6 1.2594144891863383e7 0.0
1.2594144891863383e7 6.463659237090594e6 0.0
0.0 0.0 0.0

-694714.8703065955 1.2214874350122327e7 0.0
1.2214874350122327e7 -1.8745853525608703e6 0.0
0.0 0.0 0.0

-1.1564694151153208e6 1.1840323876059793e7 0.0
1.1840323876059793e7 2.637275241210227e6 0.0
0.0 0.0 0.0

3.118781739103386e6 7.428437796633042e6 0.0
7.428437796633042e6 -1.1898615371652901e7 0.0
0.0 0.0 0.0

-4.60624342421517e6 7.603254077354448e6 0.0
7.603254077354448e6 -608784.2950154623 0.0
0.0 0.0 0.0

-7.78541952573674e6 1.9484182799149316e7 0.0
1.9484182799149316e7 539588.2437348156 0.0
0.0 0.0 0.0

-5.988535721991119e6 1.0008745320304591e7 0.0
1.0008745320304591e7 5.7026106848948e6 0.0
0.0 0.0 0.0

-5.162354404535629e6 -4.124764136492511e6 0.0
-4.124764136492511e6 7.007455517007641e6 0.0
0.0 0.0 0.0

-2.79018468204933e6 1.1757175872774003e7 0.0
1.1757175872774003e7 3.9070755241350494e6 0.0
0.0 0.0 0.0

-6.74955546284933e6 1.4249320057664031e7 0.0
1.4249320057664031e7 4.406777729986187e6 0.0
0.0 0.0 0.0

-1.441857771813796e6 7.204039702528762e6 0.0
7.204039702528762e6 -1.6896600200280645e6 0.0
0.0 0.0 0.0

-3.725842606940705e6 1.3162311908855103e7 0.0
1.3162311908855103e7 9.230946753520682e6 0.0
0.0 0.0 0.0

-7.073481216622121e6 7.746808380302782e6 0.0
7.746808380302782e6 5.966658309897397e6 0.0
0.0 0.0 0.0

-5.76594635248226e6 6.6638908813927295e6 0.0
6.6638908813927295e6 4.21986376199626e6 0.0
0.0 0.0 0.0

-1.1087675971169595e7 3.342193348655991e6 0.0
3.342193348655991e6 1.6198581433638092e7 0.0
0.0 0.0 0.0

-3.567485379170777e6 1.1775660567920068e7 0.0
1.1775660567920068e7 5.487713248316225e6 0.0
0.0 0.0 0.0

-8.410465706793223e6 1.4631536919124303e7 0.0
1.4631536919124303e7 6.836208725269559e6 0.0
0.0 0.0 0.0

-8.182822582408234e6 1.689810678703271e7 0.0
1.689810678703271e7 4.823946603509992e6 0.0
0.0 0.0 0.0

-6.778396928099629e6 1.1123701705521248e7 0.0
1.1123701705521248e7 5.457475076417091e6 0.0
0.0 0.0 0.0

1.6753906565915097e6 5.551190948618969e6 0.0
5.551190948618969e6 -4.78046837194726e6 0.0
0.0 0.0 0.0

1.461581353932314e6 8.346994109840341e6 0.0
8.346994109840341e6 -7.19522370949238e6 0.0
0.0 0.0 0.0

1.0219746620899995e6 7.938298769326188e6 0.0
7.938298769326188e6 -5.959137539014844e6 0.0
0.0 0.0 0.0

-4.970522933348084e6 8.535341294454455e6 0.0
8.535341294454455e6 2.7013024696423905e6 0.0
0.0 0.0 0.0

-1.3254233650526907e7 2.243803742996914e7 0.0
2.243803742996914e7 3.427247247837617e6 0.0
0.0 0.0 0.0

-1.5202818683746033e6 6.064200425630088e6 0.0
6.064200425630088e6 -1.0910245595463384e6 0.0
0.0 0.0 0.0

-5.679182862916835e6 1.5416604260609364e7 0.0
1.5416604260609364e7 2.211712605993257e6 0.0
0.0 0.0 0.0

-3.291929490524221e6 1.521778358642614e7 0.0
1.521778358642614e7 -1.4883426516655486e6 0.0
0.0 0.0 0.0

-1.4456771305680927e6 7.482382582372595e6 0.0
7.482382582372595e6 -1.2817770035510934e6 0.0
0.0 0.0 0.0

-629054.3906862881 8.382793020750738e6 0.0
8.382793020750738e6 -2.013787611449243e6 0.0
0.0 0.0 0.0

1.6334225112893456e6 1.2480212407304978e7 0.0
1.2480212407304978e7 6.454057506701598e6 0.0
0.0 0.0 0.0

195466.4801498335 1.3576975380157704e7 0.0
1.3576975380157704e7 6.8523209986718455e6 0.0
0.0 0.0 0.0

-1.3475441845381153e6 1.1762491790106464e7 0.0
1.1762491790106464e7 2.3381647978419443e6 0.0
0.0 0.0 0.0

-6.424676003236046e6 7.389493256252556e6 0.0
7.389493256252556e6 4.893179250779737e6 0.0
0.0 0.0 0.0

-1.2221248379863346e7 2.101158071841606e7 0.0
2.101158071841606e7 4.0908222820780706e6 0.0
0.0 0.0 0.0

-1.275659013056063e7 1.3247558799519029e7 0.0
1.3247558799519029e7 7.2669809057870945e6 0.0
0.0 0.0 0.0

-6.447931563439002e6 6.9435250909724785e6 0.0
6.9435250909724785e6 5.302077201892666e6 0.0
0.0 0.0 0.0

2.3094292305121236e6 9.400317904495582e6 0.0
9.400317904495582e6 -1.2479869607009003e7 0.0
0.0 0.0 0.0

4.605082396744993e6 5.252091352398563e6 0.0
5.252091352398563e6 -1.2187394708071683e7 0.0
0.0 0.0 0.0

-264981.1753268705 1.0629623479181908e7 0.0
1.0629623479181908e7 -5.958284802001044e6 0.0
0.0 0.0 0.0

1.209468831118924e6 8.55332463084506e6 0.0
8.55332463084506e6 -6.893917013611998e6 0.0
0.0 0.0 0.0

-935294.6761376831 1.120947243911768e7 0.0
1.120947243911768e7 -5.076577253734179e6 0.0
0.0 0.0 0.0

-1.4393672274780812e7 2.4090377039860718e7 0.0
2.4090377039860718e7 1.547656025216626e6 0.0
0.0 0.0 0.0

-5.282360224412584e6 1.2253379789420996e7 0.0
1.2253379789420996e7 3.2564947533520423e6 0.0
0.0 0.0 0.0

-2.545156354244101e6 1.2890116256776351e7 0.0
1.2890116256776351e7 -4.197498928478695e6 0.0
0.0 0.0 0.0

-2.485788698130435e6 1.2285222095963648e7 0.0
1.2285222095963648e7 -4.0442949656383134e6 0.0
0.0 0.0 0.0

1.531403030086387e6 7.826061810658995e6 0.0
7.826061810658995e6 -6.808103831638584e6 0.0
0.0 0.0 0.0

-6.985082805043336e6 1.2055626673995614e7 0.0
1.2055626673995614e7 6.255816190973816e6 0.0
0.0 0.0 0.0

-2.170165145221401e6 1.2213720617563318e7 0.0
1.2213720617563318e7 4.225370835988443e6 0.0
0.0 0.0 0.0

-4.45625667084272e6 1.3307671141930887e7 0.0
1.3307671141930887e7 3.8015320541048385e6 0.0
0.0 0.0 0.0

-1.1449820167984588e7 3.382864826852717e6 0.0
3.382864826852717e6 3.646712880447709e7 0.0
0.0 0.0 0.0

-1.1697601386866395e6 2.9794335941359317e6 0.0
2.9794335941359317e6 886354.1647978527 0.0
0.0 0.0 0.0

-2.6379138910587233e7 3.596471020754779e7 0.0
3.596471020754779e7 -1.573892176248784e7 0.0
0.0 0.0 0.0

-792054.9516279018 1.222045685772608e7 0.0
1.222045685772608e7 3.5060831874805572e6 0.0
0.0 0.0 0.0

-1.113227269273248e7 2.0055510012974285e7 0.0
2.0055510012974285e7 4.890842420582004e6 0.0
0.0 0.0 0.0

-1.3400298632330692e6 1.0641186481979966e7 0.0
1.0641186481979966e7 -3.786515938476066e6 0.0
0.0 0.0 0.0

-904760.6055341689 1.2926384721766423e7 0.0
1.2926384721766423e7 -5.941574125248132e6 0.0
0.0 0.0 0.0

-6.084253541110589e6 1.2725051400946556e7 0.0
1.2725051400946556e7 4.935564884289049e6 0.0
0.0 0.0 0.0

2.8717649936220646e6 4.647821120418405e6 0.0
4.647821120418405e6 -8.862715337551966e6 0.0
0.0 0.0 0.0

3.721135029230034e6 1.0478558350481397e7 0.0
1.0478558350481397e7 -2.6403045526239863e6 0.0
0.0 0.0 0.0

1.4147965134626068e6 8.609653172700988e6 0.0
8.609653172700988e6 -7.449222334166268e6 0.0
0.0 0.0 0.0

-1.1034821020482646e6 1.4379378932714393e7 0.0
1.4379378932714393e7 -4.119654662948362e6 0.0
0.0 0.0 0.0

3.605736029341101e6 7.156764407244549e6 0.0
7.156764407244549e6 -1.1480697856996607e7 0.0
0.0 0.0 0.0

-5.192143280943834e6 1.0533469410479307e7 0.0
1.0533469410479307e7 4.078457231656399e6 0.0
0.0 0.0 0.0

1.2950235068343342e6 6.238838298818039e6 0.0
6.238838298818039e6 -5.980493322213638e6 0.0
0.0 0.0 0.0

-911066.9362875498 7.739280640682397e6 0.0
7.739280640682397e6 -2.3905450501273787e6 0.0
0.0 0.0 0.0

-6.174777508129734e6 1.2422524601385482e7 0.0
1.2422524601385482e7 371176.7176584699 0.0
0.0 0.0 0.0

2.0586053047001185e6 7.773168991906688e6 0.0
7.773168991906688e6 -8.482319848656587e6 0.0
0.0 0.0 0.0

-2.550963737265922e6 9.560186302760616e6 0.0
9.560186302760616e6 -1.6796667098258398e6 0.0
0.0 0.0 0.0

-3.2806391170570916e6 1.2643252407006169e7 0.0
1.2643252407006169e7 -2.684098446821298e6 0.0
0.0 0.0 0.0

-5.085957158288596e6 1.2189291917464616e7 0.0
1.2189291917464616e7 7.505947582765676e6 0.0
0.0 0.0 0.0

1.3033293808861545e6 1.008252100478447e7 0.0
1.008252100478447e7 -4.157644835288792e6 0.0
0.0 0.0 0.0

-4.511888252860409e6 7.978715099037975e6 0.0
7.978715099037975e6 2.167386764036621e6 0.0
0.0 0.0 0.0

-1.1110459209447104e7 1.730867413522821e6 0.0
1.730867413522821e6 1.332852348421092e7 0.0
0.0 0.0 0.0

-5.113007615331576e6 1.2270762977816131e7 0.0
1.2270762977816131e7 7.6039169273821e6 0.0
0.0 0.0 0.0

-7.465464725285403e6 8.484059768407146e6 0.0
8.484059768407146e6 6.552227798596521e6 0.0
0.0 0.0 0.0

-8.971915837933028e6 368011.1980628325 0.0
368011.1980628325 1.049082251550046e7 0.0
0.0 0.0 0.0

-6.247989793814832e6 9.727672831830287e6 0.0
9.727672831830287e6 6.198268601425561e6 0.0
0.0 0.0 0.0

-6.378352074109107e6 1.2316731520433633e7 0.0
1.2316731520433633e7 7.121931856434375e6 0.0
0.0 0.0 0.0

-1.12962889407871e6 5.031520717894043e6 0.0
5.031520717894043e6 -299097.79078018817 0.0
0.0 0.0 0.0

-2.8699294815343735e6 1.2491838446893802e7 0.0
1.2491838446893802e7 -3.3992196071162373e6 0.0
0.0 0.0 0.0

-6.01893324989125e6 1.2603740103938224e7 0.0
1.2603740103938224e7 3.7639694403246916e6 0.0
0.0 0.0 0.0

-7.749965941089982e6 9.046270278143683e6 0.0
9.046270278143683e6 7.413369122627003e6 0.0
0.0 0.0 0.0

-1.1137276725026885e7 -2.487876707506807e6 0.0
-2.487876707506807e6 1.6620901954988267e7 0.0
0.0 0.0 0.0

-2.708214334265645e6 1.2202227279117687e7 0.0
1.2202227279117687e7 3.245306109882976e6 0.0
0.0 0.0 0.0

-5.40152288095207e6 6.824559434247551e6 0.0
6.824559434247551e6 5.356081520691158e6 0.0
0.0 0.0 0.0

2.2704080330669954e6 9.186546494168898e6 0.0
9.186546494168898e6 -1.189129799660685e7 0.0
0.0 0.0 0.0

-6.850503636583045e6 1.1954661694726173e7 0.0
1.1954661694726173e7 1.0510813879859367e7 0.0
0.0 0.0 0.0

-7.912320074410301e6 7.822982231370968e6 0.0
7.822982231370968e6 1.0148498159206111e7 0.0
0.0 0.0 0.0

973981.3759228617 7.675961164863802e6 0.0
7.675961164863802e6 -5.760466012267361e6 0.0
0.0 0.0 0.0

3.586338743713725e6 5.862304067510127e6 0.0
5.862304067510127e6 -1.0623689807750927e7 0.0
0.0 0.0 0.0

-2.8393998802564973e6 1.2821321157796737e7 0.0
1.2821321157796737e7 5.785911529636769e6 0.0
0.0 0.0 0.0

-4.702484078278592e6 1.284584166883503e7 0.0
1.284584166883503e7 7.899193317609629e6 0.0
0.0 0.0 0.0

-1.6250239453693442e6 1.0043399537593625e7 0.0
1.0043399537593625e7 -2.67015862346244e6 0.0
0.0 0.0 0.0

-6.451880534135216e6 1.3210243537731525e7 0.0
1.3210243537731525e7 6.56624002332947e6 0.0
0.0 0.0 0.0

-9.308510448659213e6 1.8244957411144946e7 0.0
1.8244957411144946e7 4.991660794690542e6 0.0
0.0 0.0 0.0

-185769.96260961937 1.2261014525275303e7 0.0
1.2261014525275303e7 -6.973421203017385e6 0.0
0.0 0.0 0.0

-1.6863087860814964e6 3.0771603926490494e6 0.0
3.0771603926490494e6 1.0505936131899082e6 0.0
0.0 0.0 0.0

1.736200162608672e6 1.0017184629335392e7 0.0
1.0017184629335392e7 -1.0583529443684148e7 0.0
0.0 0.0 0.0

-6.726053153903061e6 1.1606650900200602e7 0.0
1.1606650900200602e7 7.009189824839806e6 0.0
0.0 0.0 0.0

-7.768126387740469e6 6.972734074911955e6 0.0
6.972734074911955e6 1.0229513345665386e7 0.0
0.0 0.0 0.0

-72210.62424738525 1.0723641039090576e7 0.0
1.0723641039090576e7 800646.7885291636 0.0
0.0 0.0 0.0

3.2226152172810165e6 8.255142141260948e6 0.0
8.255142141260948e6 -1.329891954591813e7 0.0
0.0 0.0 0.0

2.0711788431066256e6 9.05860248361567e6 0.0
9.05860248361567e6 -1.117289291239554e7 0.0
0.0 0.0 0.0

-7.8117037113122055e6 2.0468503462537132e7 0.0
2.0468503462537132e7 -596867.4904424846 0.0
0.0 0.0 0.0

-5.240419572022064e6 1.2511907757420419e7 0.0
1.2511907757420419e7 3.107946475525664e6 0.0
0.0 0.0 0.0

-6.07200739525003e6 1.2966301045874199e7 0.0
1.2966301045874199e7 4.726494029653836e6 0.0
0.0 0.0 0.0

-5.257915358322791e6 1.3139692775751313e7 0.0
1.3139692775751313e7 1.6834563419517598e6 0.0
0.0 0.0 0.0

2.0965902242401778e6 5.073108364638913e6 0.0
5.073108364638913e6 -6.881259084483892e6 0.0
0.0 0.0 0.0

573097.5423888674 8.94577243372363e6 0.0
8.94577243372363e6 -5.8066319583561e6 0.0
0.0 0.0 0.0

-6.467724373608618e6 1.1252759856203923e7 0.0
1.1252759856203923e7 6.420335040949737e6 0.0
0.0 0.0 0.0

-2.0765221464602826e6 1.3099038571545653e7 0.0
1.3099038571545653e7 -3.8657087763200486e6 0.0
0.0 0.0 0.0

-8.783745579467982e6 1.776540593947419e7 0.0
1.776540593947419e7 4.994167032221163e6 0.0
0.0 0.0 0.0

-1.4240013434163765e6 6.392524987303859e6 0.0
6.392524987303859e6 -587604.261826526 0.0
0.0 0.0 0.0

-1.0364257097534707e7 3.6211693016070477e6 0.0
3.6211693016070477e6 1.173705800762337e7 0.0
0.0 0.0 0.0

-8.545114594018089e6 1.7325853184757546e7 0.0
1.7325853184757546e7 5.036919109525654e6 0.0
0.0 0.0 0.0

-3.631421890749651e6 1.2809661961306393e7 0.0
1.2809661961306393e7 -2.0827376357142222e6 0.0
0.0 0.0 0.0

1.140724259692946e6 8.027848619106737e6 0.0
8.027848619106737e6 -7.131422799197439e6 0.0
0.0 0.0 0.0

-4.670548451988369e6 8.518120057579223e6 0.0
8.518120057579223e6 3.7350127599633494e6 0.0
0.0 0.0 0.0

3.5071965075924816e6 7.995232640901792e6 0.0
7.995232640901792e6 -1.3656613345815014e7 0.0
0.0 0.0 0.0

-6.6310226077918755e6 1.506542025150267e7 0.0
1.506542025150267e7 4.677546664557805e6 0.0
0.0 0.0 0.0

-2.8360049824755387e6 1.2780488092077669e7 0.0
1.2780488092077669e7 2.9271881622875887e6 0.0
0.0 0.0 0.0

2.0984351518024597e6 9.758224360244878e6 0.0
9.758224360244878e6 -1.2582998823325682e7 0.0
0.0 0.0 0.0

-6.631194417610921e6 1.317535645781614e7 0.0
1.317535645781614e7 5.133493975199526e6 0.0
0.0 0.0 0.0

-1.0965031946066033e7 3.084562534931049e6 0.0
3.084562534931049e6 1.2440676595783606e7 0.0
0.0 0.0 0.0

769360.4884411809 7.631747934334655e6 0.0
7.631747934334655e6 -6.436576770815816e6 0.0
0.0 0.0 0.0

-2.228618801303463e6 1.0216301946155969e7 0.0
1.0216301946155969e7 3.567405200611757e6 0.0
0.0 0.0 0.0

-5.869015594397148e6 1.208069950479535e7 0.0
1.208069950479535e7 4.815103378642113e6 0.0
0.0 0.0 0.0

1.7608197337059453e6 1.012794859445572e7 0.0
1.012794859445572e7 -1.2385781980428386e7 0.0
0.0 0.0 0.0

-1.5789087886184886e7 2.6225621235119082e7 0.0
2.6225621235119082e7 -1.3981903337485949e6 0.0
0.0 0.0 0.0

-8.056930476587562e6 8.826236133270495e6 0.0
8.826236133270495e6 9.293916160966184e6 0.0
0.0 0.0 0.0

-1.318784243739332e6 1.2435454587517532e7 0.0
1.2435454587517532e7 -1.3448446992052792e7 0.0
0.0 0.0 0.0

-1.3168698050059173e6 7.080824598290311e6 0.0
7.080824598290311e6 -1.2117346556739102e6 0.0
0.0 0.0 0.0

-6.328037182340303e6 9.868848201242631e6 0.0
9.868848201242631e6 4.612467622686269e6 0.0
0.0 0.0 0.0

-8.280962014114635e6 1.0437924001575466e7 0.0
1.0437924001575466e7 1.1324967854597982e7 0.0
0.0 0.0 0.0

-4.220076224249947e6 7.905791305211985e6 0.0
7.905791305211985e6 3.1798124601033046e6 0.0
0.0 0.0 0.0

-1.0646678582585998e7 1.1256383100546565e7 0.0
1.1256383100546565e7 2.4697771020576287e7 0.0
0.0 0.0 0.0

-5.34608830553846e6 1.0093651201520406e7 0.0
1.0093651201520406e7 4.437010994626958e6 0.0
0.0 0.0 0.0

915077.4681486953 1.1147422519170968e7 0.0
1.1147422519170968e7 -9.823689092985552e6 0.0
0.0 0.0 0.0

-493063.4072102944 1.2472232488555634e7 0.0
1.2472232488555634e7 -6.20469092720436e6 0.0
0.0 0.0 0.0

5.225809217483335e7 1.1805840387069244e7 0.0
1.1805840387069244e7 165994.7767604813 0.0
0.0 0.0 0.0

-5.1926100037011765e6 -4.481553752458541e6 0.0
-4.481553752458541e6 7.228851031239657e6 0.0
0.0 0.0 0.0

4.294028079957803e6 5.353978844324113e6 0.0
5.353978844324113e6 -1.147938896689689e7 0.0
0.0 0.0 0.0

-172072.64033627912 5.009112811553197e6 0.0
5.009112811553197e6 -1.6554276022374039e6 0.0
0.0 0.0 0.0

-4.932204742533714e6 1.2901008080979653e7 0.0
1.2901008080979653e7 1.144977336192114e6 0.0
0.0 0.0 0.0

-5.944254556415544e6 -8.58040719827435e6 0.0
-8.58040719827435e6 1.5179009567802243e7 0.0
0.0 0.0 0.0

-1.2196872100648019e6 1.0939039623334752e7 0.0
1.0939039623334752e7 -1.0420254499554327e7 0.0
0.0 0.0 0.0

-7.4892317762991395e6 6.130530333965035e6 0.0
6.130530333965035e6 9.6597288302789e6 0.0
0.0 0.0 0.0

-8.012370347887735e6 9.540549998410586e6 0.0
9.540549998410586e6 8.045744655761132e6 0.0
0.0 0.0 0.0

4.671013987214785e6 5.215374708083959e6 0.0
5.215374708083959e6 -1.2453002735757755e7 0.0
0.0 0.0 0.0

-598931.7718794749 1.0810376292795887e7 0.0
1.0810376292795887e7 -5.405105149437556e6 0.0
0.0 0.0 0.0

-1.0043682547631782e7 1.87821350061149e7 0.0
1.87821350061149e7 5.4599063624119675e6 0.0
0.0 0.0 0.0

403475.0736031488 7.862358404367856e6 0.0
7.862358404367856e6 -6.049023193838093e6 0.0
0.0 0.0 0.0

-1.1536460976683032e6 1.2929891594086887e7 0.0
1.2929891594086887e7 -920370.7886262725 0.0
0.0 0.0 0.0

-8.409835377650026e6 4.710390372001414e6 0.0
4.710390372001414e6 5.67075854320226e7 0.0
0.0 0.0 0.0

5.019301201481618e6 8.449414673381858e6 0.0
8.449414673381858e6 -2.5217237593816582e7 0.0
0.0 0.0 0.0

2.432012012968273e6 1.258875556234027e7 0.0
1.258875556234027e7 -1.919981873969059e7 0.0
0.0 0.0 0.0

366516.6727035539 1.0274792748852594e7 0.0
1.0274792748852594e7 -6.976959279182172e6 0.0
0.0 0.0 0.0

4.567782199791704e6 7.102848055990266e6 0.0
7.102848055990266e6 -1.3973469655620914e7 0.0
0.0 0.0 0.0

-1.0177291239539934e7 1.1281883910390332e7 0.0
1.1281883910390332e7 5.552076007661892e6 0.0
0.0 0.0 0.0

-2.2733020243297718e6 1.2973649211568043e7 0.0
1.2973649211568043e7 -4.667230719226204e6 0.0
0.0 0.0 0.0

-5.744730486212295e6 -5.531834535562876e6 0.0
-5.531834535562876e6 8.220077043065249e6 0.0
0.0 0.0 0.0

-2.5368145631899806e6 6.321709388392883e6 0.0
6.321709388392883e6 391409.50716215966 0.0
0.0 0.0 0.0

-6.030585883494434e6 1.3219197566524249e7 0.0
1.3219197566524249e7 4.513909698710315e6 0.0
0.0 0.0 0.0

-7.027026792185051e6 1.149449030655335e7 0.0
1.149449030655335e7 6.030701889499063e6 0.0
0.0 0.0 0.0

-4.959925311030587e6 6.929033206347864e6 0.0
6.929033206347864e6 2.864322910538673e6 0.0
0.0 0.0 0.0

-1.3324938997399008e6 5.69278940553051e6 0.0
5.69278940553051e6 -371569.47380962863 0.0
0.0 0.0 0.0

3.083858223823135e6 9.989031588305099e6 0.0
9.989031588305099e6 -1.0802473000335027e6 0.0
0.0 0.0 0.0

-4.0195685619818023e6 1.3000106098434316e7 0.0
1.3000106098434316e7 -1.4475972478260861e6 0.0
0.0 0.0 0.0

-64203.299751402345 6.981838850677143e6 0.0
6.981838850677143e6 -3.477667088950855e6 0.0
0.0 0.0 0.0

-5.28567940700841e6 1.4078561501070566e7 0.0
1.4078561501070566e7 2.1672883072170056e6 0.0
0.0 0.0 0.0

-8.845703611763587e6 7.660643918047967e6 0.0
7.660643918047967e6 1.0025858262186473e7 0.0
0.0 0.0 0.0

-4.0939704462870555e6 8.413214506269567e6 0.0
8.413214506269567e6 2.810120162707596e6 0.0
0.0 0.0 0.0

-6.148454808945996e6 -5.871013205606755e6 0.0
-5.871013205606755e6 9.54082405970122e6 0.0
0.0 0.0 0.0

4.473883651028157e6 5.298998686694074e6 0.0
5.298998686694074e6 -1.1947882671021467e7 0.0
0.0 0.0 0.0

4.736964050194953e6 7.339004073151066e6 0.0
7.339004073151066e6 -1.4557366886720601e7 0.0
0.0 0.0 0.0

-8.3808047569580935e6 5.543149708173156e6 0.0
5.543149708173156e6 8.804511613085374e6 0.0
0.0 0.0 0.0

5.652599020994026e6 7.279792168003195e6 0.0
7.279792168003195e6 -2.1899268548570465e7 0.0
0.0 0.0 0.0

-1.037963132819637e7 -7.09556627680701e6 0.0
-7.09556627680701e6 2.8762521035816457e7 0.0
0.0 0.0 0.0

1.3410051365749347e6 7.821654146531416e6 0.0
7.821654146531416e6 -7.443755718595596e6 0.0
0.0 0.0 0.0

2.1370763826169237e6 7.2895847722548405e6 0.0
7.2895847722548405e6 -8.005949999838042e6 0.0
0.0 0.0 0.0

-6.500082651695188e6 1.7886430213601332e7 0.0
1.7886430213601332e7 2.7688209919023383e6 0.0
0.0 0.0 0.0

-7.954862265088237e6 1.4633287414603591e7 0.0
1.4633287414603591e7 6.971538575673468e6 0.0
0.0 0.0 0.0

-5.958316060910721e6 1.1779260327038994e7 0.0
1.1779260327038994e7 5.02670740447301e6 0.0
0.0 0.0 0.0

-4.677319289912213e6 1.3693213597863672e7 0.0
1.3693213597863672e7 917821.2890681175 0.0
0.0 0.0 0.0

-8.887094315701686e6 1.73312444266122e7 0.0
1.73312444266122e7 6.837548601037288e6 0.0
0.0 0.0 0.0

-6.335301464991006e6 1.2618298070238393e7 0.0
1.2618298070238393e7 5.7829392030162e6 0.0
0.0 0.0 0.0

-1.4329823260807751e6 1.183278064152713e7 0.0
1.183278064152713e7 1.8337891314015095e6 0.0
0.0 0.0 0.0

5.992232827504335e6 5.9683830102656055e6 0.0
5.9683830102656055e6 -1.8512197926504545e7 0.0
0.0 0.0 0.0

5.099954548960312e6 5.148864164076927e6 0.0
5.148864164076927e6 -1.3716185633806618e7 0.0
0.0 0.0 0.0

5.791756915976196e6 5.605856388686426e6 0.0
5.605856388686426e6 -1.637116327999024e7 0.0
0.0 0.0 0.0

-5.934857850672931e6 1.3261785854598064e7 0.0
1.3261785854598064e7 3.2450854164541215e6 0.0
0.0 0.0 0.0

-1.7567761969874343e6 7.10362507090198e6 0.0
7.10362507090198e6 -1.1904142193154679e6 0.0
0.0 0.0 0.0

-5.964767079496149e6 -8.808199242259448e6 0.0
-8.808199242259448e6 1.5776334658336421e7 0.0
0.0 0.0 0.0

-7.386381027321588e6 5.56631640685316e6 0.0
5.56631640685316e6 6.895022505039689e6 0.0
0.0 0.0 0.0

2.842039513967295e6 5.606724369684908e6 0.0
5.606724369684908e6 -9.00018300005963e6 0.0
0.0 0.0 0.0

-7.573417297151336e6 1.3174621755100608e7 0.0
1.3174621755100608e7 5.969076197955586e6 0.0
0.0 0.0 0.0

-1.4580505411384534e6 1.0735206028434033e7 0.0
1.0735206028434033e7 -1.006929963745958e7 0.0
0.0 0.0 0.0

-3.2622633303686744e6 -2.9542474543633475e6 0.0
-2.9542474543633475e6 5.797818446151814e6 0.0
0.0 0.0 0.0

-4.0669667889604485e6 3.141149881626849e6 0.0
3.141149881626849e6 3.0186957680583396e6 0.0
0.0 0.0 0.0

-1.1464054383430894e7 2.3908422128074584e6 0.0
2.3908422128074584e6 1.3886442348129582e7 0.0
0.0 0.0 0.0

-5.458125791639425e6 1.2012400171767464e7 0.0
1.2012400171767464e7 6.918764513719073e6 0.0
0.0 0.0 0.0

1.5439706190435407e6 9.208948576938417e6 0.0
9.208948576938417e6 -1.0008578891169976e7 0.0
0.0 0.0 0.0

6.1523468904249e6 5.783172381578127e6 0.0
5.783172381578127e6 -1.7849302377984878e7 0.0
0.0 0.0 0.0

4.038959766825388e6 5.461819073874171e6 0.0
5.461819073874171e6 -1.0886048390916891e7 0.0
0.0 0.0 0.0

-5.680600098736864e6 2.0253950751040187e7 0.0
2.0253950751040187e7 -4.295590534569482e6 0.0
0.0 0.0 0.0

-1.0218812851860067e7 -7.673048426713302e6 0.0
-7.673048426713302e6 2.7076902106023017e7 0.0
0.0 0.0 0.0

4.0574412905679345e6 7.67636565131904e6 0.0
7.67636565131904e6 -1.3190082123476643e7 0.0
0.0 0.0 0.0

-1.1265226550023556e7 -2.2545203607808845e6 0.0
-2.2545203607808845e6 4.0683904119971424e7 0.0
0.0 0.0 0.0

6.124904348141776e6 6.396561721834607e6 0.0
6.396561721834607e6 -1.9879587430477776e7 0.0
0.0 0.0 0.0

-6.577766074567222e6 1.35771332463772e7 0.0
1.35771332463772e7 6.291184105967691e6 0.0
0.0 0.0 0.0

-720887.2474351677 8.109047483113062e6 0.0
8.109047483113062e6 -3.7157257630161056e6 0.0
0.0 0.0 0.0

-1.875453672856491e6 1.081473641254721e7 0.0
1.081473641254721e7 -3.9363836214805827e6 0.0
0.0 0.0 0.0

83829.0557456594 1.1196689533589322e7 0.0
1.1196689533589322e7 -8.188446740649927e6 0.0
0.0 0.0 0.0

-1.0570639603340434e7 -6.333271543263128e6 0.0
-6.333271543263128e6 3.0924504157895356e7 0.0
0.0 0.0 0.0

5.863744898751845e6 5.735867042862321e6 0.0
5.735867042862321e6 -1.69523455069307e7 0.0
0.0 0.0 0.0

-8.64980240278294e6 7.7871952979490375e6 0.0
7.7871952979490375e6 1.05468591439829e7 0.0
0.0 0.0 0.0

-8.618449265886135e6 7.396406563208972e6 0.0
7.396406563208972e6 9.525391839857776e6 0.0
0.0 0.0 0.0

-1.1142159911040138e7 3.441687661556298e6 0.0
3.441687661556298e6 1.2710665502397422e7 0.0
0.0 0.0 0.0

-4.407844953979356e6 7.416373060228615e6 0.0
7.416373060228615e6 3.589035769311865e6 0.0
0.0 0.0 0.0

-3.1330880439615813e6 1.3324082257281702e7 0.0
1.3324082257281702e7 9.494793866951542e6 0.0
0.0 0.0 0.0

-3.620730948914367e6 1.3293169011846077e7 0.0
1.3293169011846077e7 -984225.803000682 0.0
0.0 0.0 0.0

-6.483318663191598e6 1.4036794129320785e7 0.0
1.4036794129320785e7 3.871834292151449e6 0.0
0.0 0.0 0.0

-4.783739104981393e6 1.376421035890265e7 0.0
1.376421035890265e7 -93948.04064664664 0.0
0.0 0.0 0.0

1.6958980362953376e6 7.861776444933154e6 0.0
7.861776444933154e6 -7.3023234028202165e6 0.0
0.0 0.0 0.0

-7.004549867564728e6 1.4430671476806287e7 0.0
1.4430671476806287e7 6.061287722894318e6 0.0
0.0 0.0 0.0

-822209.6050580002 1.255262797102715e7 0.0
1.255262797102715e7 -1.6401139194323432e6 0.0
0.0 0.0 0.0

975103.7782623735 9.908197082044672e6 0.0
9.908197082044672e6 -7.889435098948764e6 0.0
0.0 0.0 0.0

-1.0601030272038266e7 6.0025026545965085e6 0.0
6.0025026545965085e6 1.3835478735411681e7 0.0
0.0 0.0 0.0

-8.97164114110623e6 5.651031057316788e6 0.0
5.651031057316788e6 1.008340274063097e7 0.0
0.0 0.0 0.0

1.6891027674272084e6 7.536813374676733e6 0.0
7.536813374676733e6 -8.393983112974105e6 0.0
0.0 0.0 0.0

-6.557546199528252e6 -8.2733802657909915e6 0.0
-8.2733802657909915e6 1.305632029942032e7 0.0
0.0 0.0 0.0

4.755993219352648e6 5.186589582253651e6 0.0
5.186589582253651e6 -1.2726215018596862e7 0.0
0.0 0.0 0.0

-3.815244866030601e6 1.2234887430511544e7 0.0
1.2234887430511544e7 6.00023169855206e6 0.0
0.0 0.0 0.0

-9.650294100695617e6 -8.261432011345926e6 0.0
-8.261432011345926e6 2.509120057737505e7 0.0
0.0 0.0 0.0

5.590630195592707e6 5.572459083726942e6 0.0
5.572459083726942e6 -1.5504886045221334e7 0.0
0.0 0.0 0.0

4.844914670108952e6 5.181252053288516e6 0.0
5.181252053288516e6 -1.303202371564974e7 0.0
0.0 0.0 0.0

-5.647863540170444e6 -8.16918563630862e6 0.0
-8.16918563630862e6 1.3081022312570453e7 0.0
0.0 0.0 0.0

-9.23160353112634e6 1.0166984869480995e7 0.0
1.0166984869480995e7 1.5574620008180298e7 0.0
0.0 0.0 0.0

5.58722428873233e6 5.506201257642986e6 0.0
5.506201257642986e6 -1.5264227806343606e7 0.0
0.0 0.0 0.0

-8.871441211087108e6 -8.798134116189307e6 0.0
-8.798134116189307e6 2.273787956793151e7 0.0
0.0 0.0 0.0

-5.020130946199793e6 1.1566318253507996e7 0.0
1.1566318253507996e7 6.748140265746471e6 0.0
0.0 0.0 0.0

-7.703856793196209e6 -3.2177065322885406e6 0.0
-3.2177065322885406e6 1.2267397399643552e7 0.0
0.0 0.0 0.0

-5.910890341517713e6 -8.018907299327809e6 0.0
-8.018907299327809e6 1.4597857767286235e7 0.0
0.0 0.0 0.0

5.067545571203996e6 5.163461542144883e6 0.0
5.163461542144883e6 -1.3463684908102835e7 0.0
0.0 0.0 0.0

5.48588028981428e6 5.491853986626903e6 0.0
5.491853986626903e6 -1.492212647867494e7 0.0
0.0 0.0 0.0

-8.372278687734868e6 -9.105237687894376e6 0.0
-9.105237687894376e6 2.1006573399561197e7 0.0
0.0 0.0 0.0

-1.3519121415883112e8 3.737154501008766e7 0.0
3.737154501008766e7 -7.11035719706431e6 0.0
0.0 0.0 0.0

8.41427820294772e7 1.4150875578636069e7 0.0
1.4150875578636069e7 -2.942461920631923e6 0.0
0.0 0.0 0.0

-5.704507128479359e6 7.104870248812813e6 0.0
7.104870248812813e6 3.8502618654211597e6 0.0
0.0 0.0 0.0

5.326378082570068e6 5.458815116795894e6 0.0
5.458815116795894e6 -1.4571707588325823e7 0.0
0.0 0.0 0.0

-7.938548975051851e6 -9.04915401732449e6 0.0
-9.04915401732449e6 1.9633194732675035e7 0.0
0.0 0.0 0.0

1.36984897569911e6 9.318162779579634e6 0.0
9.318162779579634e6 -3.4790637167321737e6 0.0
0.0 0.0 0.0

-8.547621686229102e6 6.37505423798887e6 0.0
6.37505423798887e6 9.366947645126464e6 0.0
0.0 0.0 0.0

-5.993496059589291e6 1.3446163335593205e7 0.0
1.3446163335593205e7 4.352783740494581e6 0.0
0.0 0.0 0.0

-3.734531629736254e6 1.2516910195403231e7 0.0
1.2516910195403231e7 6.38707611905735e6 0.0
0.0 0.0 0.0

-7.085911068288658e6 -8.799279154032428e6 0.0
-8.799279154032428e6 1.785779103957467e7 0.0
0.0 0.0 0.0

5.351780093038209e6 5.409271269364133e6 0.0
5.409271269364133e6 -1.4436074766902115e7 0.0
0.0 0.0 0.0

-4.31419751939013e6 1.3122302343410216e7 0.0
1.3122302343410216e7 -731570.5377686903 0.0
0.0 0.0 0.0

-351495.9673158163 1.2176130662916249e7 0.0
1.2176130662916249e7 -1.503030098787555e7 0.0
0.0 0.0 0.0

-5.76441069518997e6 1.396159172033509e7 0.0
1.396159172033509e7 2.3650179314703196e6 0.0
0.0 0.0 0.0

93104.4764308501 1.0467871159490414e7 0.0
1.0467871159490414e7 -6.47290597352322e6 0.0
0.0 0.0 0.0

902893.5761476713 1.0446684566837572e7 0.0
1.0446684566837572e7 -9.582538068011355e6 0.0
0.0 0.0 0.0

-982261.0487697138 1.1936929199103663e7 0.0
1.1936929199103663e7 536430.9705056404 0.0
0.0 0.0 0.0

-3.5007958576652748e6 1.4149507688797545e7 0.0
1.4149507688797545e7 -2.8415216076360615e6 0.0
0.0 0.0 0.0

-2.3304697197526675e6 1.2874271356946854e7 0.0
1.2874271356946854e7 -3.4603339219751335e6 0.0
0.0 0.0 0.0

117343.14781974629 1.1228138581944501e7 0.0
1.1228138581944501e7 -1.2820322332757551e7 0.0
0.0 0.0 0.0

-5.977216104633453e6 1.3999316396569049e7 0.0
1.3999316396569049e7 3.9493950883547645e6 0.0
0.0 0.0 0.0

-6.55140717213067e6 1.1618272906599928e7 0.0
1.1618272906599928e7 5.45910358293559e6 0.0
0.0 0.0 0.0

-4.422056718302321e6 1.4330734063120816e7 0.0
1.4330734063120816e7 426934.76286669774 0.0
0.0 0.0 0.0

892048.7065644329 1.0661907375843382e7 0.0
1.0661907375843382e7 -9.740611599424452e6 0.0
0.0 0.0 0.0

-6.2882851001864225e6 5.865895808129662e6 0.0
5.865895808129662e6 5.020929002517106e6 0.0
0.0 0.0 0.0

-319872.90413439285 1.14459139491256e7 0.0
1.14459139491256e7 1.2558300821703502e6 0.0
0.0 0.0 0.0

-6.680853187067311e6 6.546499924683083e6 0.0
6.546499924683083e6 5.697481156484287e6 0.0
0.0 0.0 0.0

-2.658978074277469e6 1.0276086816528093e7 0.0
1.0276086816528093e7 -823252.0819281125 0.0
0.0 0.0 0.0

-5.973978412849677e6 1.385306896776803e7 0.0
1.385306896776803e7 4.128093857650553e6 0.0
0.0 0.0 0.0

1.0685029061208447e6 1.0647658489206018e7 0.0
1.0647658489206018e7 -1.1431526562336208e7 0.0
0.0 0.0 0.0

-4.41305242647139e6 1.1705087137778405e7 0.0
1.1705087137778405e7 6.087519757414609e6 0.0
0.0 0.0 0.0

-9.365375902344674e6 1.7658319518641103e7 0.0
1.7658319518641103e7 7.37685955660332e6 0.0
0.0 0.0 0.0

-3.1801474183546226e6 1.0367407642297497e7 0.0
1.0367407642297497e7 -922585.314208958 0.0
0.0 0.0 0.0

-4.946161719526341e6 1.3419399083522463e7 0.0
1.3419399083522463e7 497662.27587417397 0.0
0.0 0.0 0.0

1.3842739367905573e6 1.1350971980041074e7 0.0
1.1350971980041074e7 4.536366440027021e6 0.0
0.0 0.0 0.0

-6.00125869753148e6 1.3663100593627207e7 0.0
1.3663100593627207e7 4.223971383207168e6 0.0
0.0 0.0 0.0

-8.918681908726942e6 3.6743122045100927e6 0.0
3.6743122045100927e6 4.527446196220695e6 0.0
0.0 0.0 0.0

-6.633846962318807e6 1.4880098498380292e7 0.0
1.4880098498380292e7 4.791479362873526e6 0.0
0.0 0.0 0.0

3.446266109693188e6 5.474815568838195e6 0.0
5.474815568838195e6 -9.286799058615545e6 0.0
0.0 0.0 0.0

3.328820951215258e6 5.385757700492771e6 0.0
5.385757700492771e6 -8.91375668487553e6 0.0
0.0 0.0 0.0

-4.597036461002082e6 1.3296231641325425e7 0.0
1.3296231641325425e7 43717.91449056333 0.0
0.0 0.0 0.0

-4.316848634667589e6 1.3004732947911851e7 0.0
1.3004732947911851e7 8.137761927235588e6 0.0
0.0 0.0 0.0

-6.869607477618409e6 1.5321169175041527e7 0.0
1.5321169175041527e7 5.046978977327565e6 0.0
0.0 0.0 0.0

-1.0705962973527592e7 3.9586141517016697e6 0.0
3.9586141517016697e6 1.215377900842858e7 0.0
0.0 0.0 0.0

-8.201357144485895e6 1.6619537702309128e7 0.0
1.6619537702309128e7 6.417807897250272e6 0.0
0.0 0.0 0.0

-3.483773013827371e6 1.2302229896996163e7 0.0
1.2302229896996163e7 3.6622669572420074e6 0.0
0.0 0.0 0.0

-1.1086089510920658e6 8.013960685677718e6 0.0
8.013960685677718e6 -83946.2026745223 0.0
0.0 0.0 0.0

2.302512170091697e6 9.082112063648466e6 0.0
9.082112063648466e6 -1.039277046648806e7 0.0
0.0 0.0 0.0

-6.438291870395964e6 1.3275355523561737e7 0.0
1.3275355523561737e7 4.43903191352771e6 0.0
0.0 0.0 0.0

-3.227451098912756e6 566085.0637106706 0.0
566085.0637106706 3.490423501731123e6 0.0
0.0 0.0 0.0

-1.0440141564114546e7 9.334467093114719e6 0.0
9.334467093114719e6 1.5804138004762117e7 0.0
0.0 0.0 0.0

593935.8854060099 1.1231709502939276e7 0.0
1.1231709502939276e7 -1.4339493988997653e7 0.0
0.0 0.0 0.0

-1.0646100813117031e7 4.1933602664495436e6 0.0
4.1933602664495436e6 1.3669713145207353e7 0.0
0.0 0.0 0.0

-496670.4252272432 1.475151361313274e7 0.0
1.475151361313274e7 -4.0493792622777713e6 0.0
0.0 0.0 0.0

1.7827171617494598e6 9.241782494075088e6 0.0
9.241782494075088e6 -9.215708723462546e6 0.0
0.0 0.0 0.0

-3.227170146233391e6 1.0209136678278277e7 0.0
1.0209136678278277e7 -797735.6112369869 0.0
0.0 0.0 0.0

-5.473080152075588e6 1.3799458977218913e7 0.0
1.3799458977218913e7 1.7661673712830236e6 0.0
0.0 0.0 0.0

1.2288797780830942e6 9.461545064435119e6 0.0
9.461545064435119e6 -5.183598634197911e6 0.0
0.0 0.0 0.0

-6.89062240900502e6 5.725213547336125e6 0.0
5.725213547336125e6 8.470372606180515e6 0.0
0.0 0.0 0.0

-1.0507409147980504e7 5.298716817904414e6 0.0
5.298716817904414e6 1.3764788019005306e7 0.0
0.0 0.0 0.0

-5.223466009375706e6 1.3583998009463236e7 0.0
1.3583998009463236e7 1.1402160882305952e6 0.0
0.0 0.0 0.0

-4.624558051216086e6 6.967335711793952e6 0.0
6.967335711793952e6 3.974132727863303e6 0.0
0.0 0.0 0.0

4.65077075593259e6 6.076466008909904e6 0.0
6.076466008909904e6 -1.2994256044826733e7 0.0
0.0 0.0 0.0

-5.932613746491106e6 8.232797000432675e6 0.0
8.232797000432675e6 4.032924817229075e6 0.0
0.0 0.0 0.0

968508.4448348149 1.016956673809133e7 0.0
1.016956673809133e7 -7.166316902551171e6 0.0
0.0 0.0 0.0

1.0156136337891815e6 9.102802282640522e6 0.0
9.102802282640522e6 -1.9928901047222721e6 0.0
0.0 0.0 0.0

-1.6608082769034544e6 1.2146051462395348e7 0.0
1.2146051462395348e7 -1.9817743576051975e6 0.0
0.0 0.0 0.0

-2.490233289213091e6 1.0327262167480646e7 0.0
1.0327262167480646e7 -2.287988570077643e6 0.0
0.0 0.0 0.0

628706.463564042 1.0644505148945667e7 0.0
1.0644505148945667e7 -9.068672247378506e6 0.0
0.0 0.0 0.0

2.5843660093116015e6 7.238751203952297e6 0.0
7.238751203952297e6 -1.0462529761128558e7 0.0
0.0 0.0 0.0

1.113491422064839e6 9.828866128378386e6 0.0
9.828866128378386e6 -6.279826051496218e6 0.0
0.0 0.0 0.0

1.2847506908891774e6 8.0777316865565255e6 0.0
8.0777316865565255e6 -7.644557323686655e6 0.0
0.0 0.0 0.0

2.066037945819934e6 5.198363634243171e6 0.0
5.198363634243171e6 -7.559063800863596e6 0.0
0.0 0.0 0.0

-6.428494889971754e6 1.371531616335359e7 0.0
1.371531616335359e7 4.1869559768250803e6 0.0
0.0 0.0 0.0

-881194.5615925931 8.254383290227856e6 0.0
8.254383290227856e6 -3.92468636415626e6 0.0
0.0 0.0 0.0

-4.640024677032074e6 1.209569901053658e7 0.0
1.209569901053658e7 6.103460263585364e6 0.0
0.0 0.0 0.0

385827.3051596952 2.8319285331153944e6 0.0
2.8319285331153944e6 -1.0122870601986452e6 0.0
0.0 0.0 0.0

2.1377452702335445e6 1.0400167627147831e7 0.0
1.0400167627147831e7 -2.4178263251788463e6 0.0
0.0 0.0 0.0

-2.6292684541335036e6 1.1220162373258872e7 0.0
1.1220162373258872e7 306240.8824201273 0.0
0.0 0.0 0.0

1.9152559314448866e6 7.228987731657831e6 0.0
7.228987731657831e6 -8.752875962454297e6 0.0
0.0 0.0 0.0

-4.8865390650377356e7 6.828815641092716e6 0.0
6.828815641092716e6 1.4820418484856568e7 0.0
0.0 0.0 0.0

-6.321953732864127e6 1.1101182984644804e7 0.0
1.1101182984644804e7 8.49045781230721e6 0.0
0.0 0.0 0.0

-883632.7903666615 1.162558184675442e7 0.0
1.162558184675442e7 -5.577130663784877e6 0.0
0.0 0.0 0.0

-1.875167083716495e6 9.754479729508227e6 0.0
9.754479729508227e6 -3.1369935384806315e6 0.0
0.0 0.0 0.0

1.7116463273118841e6 9.82937763801834e6 0.0
9.82937763801834e6 -9.673543134903055e6 0.0
0.0 0.0 0.0

-1.091614227625988e6 1.1741140853133451e7 0.0
1.1741140853133451e7 1.7086152140554995e6 0.0
0.0 0.0 0.0

2.5447877282685055e6 9.397382333095795e6 0.0
9.397382333095795e6 -1.1691958438983532e7 0.0
0.0 0.0 0.0

-956596.5738386196 1.18920716524822e7 0.0
1.18920716524822e7 2.357906396997164e6 0.0
0.0 0.0 0.0

-818136.4457858908 1.0734945368660148e7 0.0
1.0734945368660148e7 -6.11259420913344e6 0.0
0.0 0.0 0.0

2.590185532324389e6 7.215020418709177e6 0.0
7.215020418709177e6 -9.284827076753406e6 0.0
0.0 0.0 0.0

5.063538410235262e6 5.633724276793284e6 0.0
5.633724276793284e6 -1.4298171498922095e7 0.0
0.0 0.0 0.0

-4.203351978850734e6 1.5464624999033585e7 0.0
1.5464624999033585e7 -1.8582062021985715e6 0.0
0.0 0.0 0.0

2.5057389268249166e6 9.21806139910907e6 0.0
9.21806139910907e6 -1.1087492807076795e7 0.0
0.0 0.0 0.0

-6.8484351583839515e6 1.4222941214539966e7 0.0
1.4222941214539966e7 6.083927045052692e6 0.0
0.0 0.0 0.0

-3.4804853500378416e6 1.2708716296646692e7 0.0
1.2708716296646692e7 1.0667810998997889e6 0.0
0.0 0.0 0.0

1.0853829741309066e6 6.541922815713133e6 0.0
6.541922815713133e6 -5.69965120662975e6 0.0
0.0 0.0 0.0

-1.0209275609617356e7 1.790431536411911e7 0.0
1.790431536411911e7 7.863526903964171e6 0.0
0.0 0.0 0.0

2.117456287498527e6 7.54351554543388e6 0.0
7.54351554543388e6 -8.23730122951806e6 0.0
0.0 0.0 0.0

-6.924669973687619e6 1.2354350266374342e7 0.0
1.2354350266374342e7 1.3936263574484894e7 0.0
0.0 0.0 0.0

-702150.3738976512 1.2188027350935334e7 0.0
1.2188027350935334e7 -483938.5390673777 0.0
0.0 0.0 0.0

-7.61683404015003e6 1.4539213725494945e7 0.0
1.4539213725494945e7 6.516549340886768e6 0.0
0.0 0.0 0.0

-5.552355574484162e6 6.391223109534943e6 0.0
6.391223109534943e6 5.776243877327364e6 0.0
0.0 0.0 0.0

1.2640197023888594e6 9.730136077318478e6 0.0
9.730136077318478e6 -9.730256428180054e6 0.0
0.0 0.0 0.0

-1.0617726265776795e6 7.514452042623551e6 0.0
7.514452042623551e6 -2.9150397199056474e6 0.0
0.0 0.0 0.0

-2.2441161003026795e6 1.0626505303078316e7 0.0
1.0626505303078316e7 -1.813038818080552e6 0.0
0.0 0.0 0.0

4.878519749391877e6 1.0543867370004157e7 0.0
1.0543867370004157e7 -3.4727157114724596e6 0.0
0.0 0.0 0.0

-259588.9236341014 1.1861264826780183e7 0.0
1.1861264826780183e7 -6.666841534222305e6 0.0
0.0 0.0 0.0

681360.0678262408 7.061205157294244e6 0.0
7.061205157294244e6 -4.231958419385742e6 0.0
0.0 0.0 0.0

934711.7323030243 1.0183781530096428e7 0.0
1.0183781530096428e7 -9.407102544528835e6 0.0
0.0 0.0 0.0

-6.139988892528662e6 -1.5146391064415162e6 0.0
-1.5146391064415162e6 8.190197348408172e6 0.0
0.0 0.0 0.0

-6.203387526414402e6 1.2396151576353887e7 0.0
1.2396151576353887e7 7.244685209207118e6 0.0
0.0 0.0 0.0

-8.822292609414902e6 6.543407081801307e6 0.0
6.543407081801307e6 1.0205485408100415e7 0.0
0.0 0.0 0.0

-1.1837255850732058e7 1.2008601748443425e7 0.0
1.2008601748443425e7 5.944621607129381e6 0.0
0.0 0.0 0.0

97822.45873816963 1.1137606543363063e7 0.0
1.1137606543363063e7 -1.2954764770936161e7 0.0
0.0 0.0 0.0

-6.464628529467047e6 1.303875966913296e7 0.0
1.303875966913296e7 5.995926581899926e6 0.0
0.0 0.0 0.0

-6.580181943495056e6 1.3764963081351558e7 0.0
1.3764963081351558e7 6.023518478002371e6 0.0
0.0 0.0 0.0

-1.9296834869308784e6 1.3482552366877288e7 0.0
1.3482552366877288e7 -4.7200101500059515e6 0.0
0.0 0.0 0.0

1.1803427878521997e6 1.0699900312139679e7 0.0
1.0699900312139679e7 -1.3617120845716307e7 0.0
0.0 0.0 0.0

-4.002974421076562e6 1.1747860470484113e7 0.0
1.1747860470484113e7 5.545146034323374e6 0.0
0.0 0.0 0.0

-1.1358869687417153e7 -735877.8645188634 0.0
-735877.8645188634 1.8303977973404154e7 0.0
0.0 0.0 0.0

1.3238900979214876e6 5.704355579236867e6 0.0
5.704355579236867e6 -4.131435334691291e6 0.0
0.0 0.0 0.0

790958.0448990725 1.1072439887468839e7 0.0
1.1072439887468839e7 -9.703491256718593e6 0.0
0.0 0.0 0.0

-2.989653874762411e6 1.3864498031367531e7 0.0
1.3864498031367531e7 -3.523419341806339e6 0.0
0.0 0.0 0.0

-2.9683102898175484e6 1.0669036848578818e7 0.0
1.0669036848578818e7 -434175.15427663695 0.0
0.0 0.0 0.0

-1.2085088535052226e6 9.41827873458271e6 0.0
9.41827873458271e6 -4.1873139536630567e6 0.0
0.0 0.0 0.0

-1.7432455101631337e6 1.1081719782845493e7 0.0
1.1081719782845493e7 -1.0649376650003806e7 0.0
0.0 0.0 0.0

-1.1178230131291427e7 4.607485166196969e6 0.0
4.607485166196969e6 1.2850089727697786e7 0.0
0.0 0.0 0.0

-6.607406919590758e6 1.5286105651597885e7 0.0
1.5286105651597885e7 4.273044607197027e6 0.0
0.0 0.0 0.0

-1.6383054704819545e7 1.0096830128857784e7 0.0
1.0096830128857784e7 9.150506421150595e6 0.0
0.0 0.0 0.0

2.2689982781649507e6 1.0325429705221822e7 0.0
1.0325429705221822e7 -2.399915997622002e6 0.0
0.0 0.0 0.0

903707.4082167982 6.37538563360448e6 0.0
6.37538563360448e6 -6.192288230605056e6 0.0
0.0 0.0 0.0

-2.9901334367259857e6 1.0502271564206826e7 0.0
1.0502271564206826e7 -321266.35847961856 0.0
0.0 0.0 0.0

-1.0847848402855754e7 3.245710609226587e6 0.0
3.245710609226587e6 1.4919686038396508e7 0.0
0.0 0.0 0.0

-7.642293129255436e6 1.4740656375886334e7 0.0
1.4740656375886334e7 6.435235385349984e6 0.0
0.0 0.0 0.0

-4.674492623069278e6 1.1735475561187282e7 0.0
1.1735475561187282e7 6.315390128969176e6 0.0
0.0 0.0 0.0

-6.377106299811046e6 1.4186486891059754e7 0.0
1.4186486891059754e7 3.704693313987582e6 0.0
0.0 0.0 0.0

-473477.8039415213 1.0583607383991966e7 0.0
1.0583607383991966e7 -6.645252934944399e6 0.0
0.0 0.0 0.0

-1.1656933514115652e7 4.415733306296563e6 0.0
4.415733306296563e6 1.4396381129412165e7 0.0
0.0 0.0 0.0

122169.62662039464 1.1394614026807338e7 0.0
1.1394614026807338e7 -8.382953915427748e6 0.0
0.0 0.0 0.0

-2.2900218582750615e6 1.2890043602705358e7 0.0
1.2890043602705358e7 -397831.0044133606 0.0
0.0 0.0 0.0

-6.79048243789516e6 1.552248596821117e7 0.0
1.552248596821117e7 4.5450059677948505e6 0.0
0.0 0.0 0.0

1.8313379701517937e6 5.675136252111747e6 0.0
5.675136252111747e6 -7.664292584619386e6 0.0
0.0 0.0 0.0

208017.78804023494 1.295956320937329e7 0.0
1.295956320937329e7 -5.814654387272384e6 0.0
0.0 0.0 0.0

-6.294155938399686e6 1.287179301683039e7 0.0
1.287179301683039e7 5.502719494048205e6 0.0
0.0 0.0 0.0

-5.856746858081194e6 5.96472934730994e6 0.0
5.96472934730994e6 6.417935502338113e6 0.0
0.0 0.0 0.0

-2.875008990186126e6 1.3942636646331826e7 0.0
1.3942636646331826e7 -611707.5330609737 0.0
0.0 0.0 0.0

-1.1041836672707994e7 6.01187308554371e6 0.0
6.01187308554371e6 1.2265985748188939e7 0.0
0.0 0.0 0.0

-1.3693630409466375e6 3.2722161218900094e6 0.0
3.2722161218900094e6 3.885825395105823e6 0.0
0.0 0.0 0.0

-6.103114691660469e6 1.2487865847032288e7 0.0
1.2487865847032288e7 5.149811666498481e6 0.0
0.0 0.0 0.0

-9.692567735012513e6 4.848409253236139e6 0.0
4.848409253236139e6 1.0883601253170809e7 0.0
0.0 0.0 0.0

-6.744434692573778e6 1.018138407706976e7 0.0
1.018138407706976e7 5.465439109074036e6 0.0
0.0 0.0 0.0

-1.9722845483912495e6 1.3085797658448527e7 0.0
1.3085797658448527e7 6.184194600784857e6 0.0
0.0 0.0 0.0

1.4363726946264328e6 1.0438971465453349e7 0.0
1.0438971465453349e7 -1.2905426594104283e7 0.0
0.0 0.0 0.0

469717.12863875576 3.1671750071385554e6 0.0
3.1671750071385554e6 -1.2687009584919254e6 0.0
0.0 0.0 0.0

-2.3467820301543646e6 1.6011127000705695e7 0.0
1.6011127000705695e7 -3.627378360655897e6 0.0
0.0 0.0 0.0

-1.0376659781471603e7 3.831969311640648e6 0.0
3.831969311640648e6 1.3421062946328297e7 0.0
0.0 0.0 0.0

-212162.3241655482 8.727479054860858e6 0.0
8.727479054860858e6 -5.507265834743491e6 0.0
0.0 0.0 0.0

-3.353148326712561e6 1.1919173982626675e7 0.0
1.1919173982626675e7 4.441607531404007e6 0.0
0.0 0.0 0.0

-1.9564271719075856e6 1.023449519504168e7 0.0
1.023449519504168e7 -2.1498342967317514e6 0.0
0.0 0.0 0.0

-6.3440496100621205e6 1.2077580136191517e7 0.0
1.2077580136191517e7 7.363634693354109e6 0.0
0.0 0.0 0.0

-140079.957644796 7.807262647247133e6 0.0
7.807262647247133e6 -4.034408369720839e6 0.0
0.0 0.0 0.0

-4.8759183721926045e6 1.308219263876778e7 0.0
1.308219263876778e7 3.522657373882876e6 0.0
0.0 0.0 0.0

-6.963581987367654e6 1.0548639706961863e7 0.0
1.0548639706961863e7 6.229476171847707e6 0.0
0.0 0.0 0.0

-214372.93765807617 1.2945580947100755e7 0.0
1.2945580947100755e7 -5.827056220016229e6 0.0
0.0 0.0 0.0

-6.499716407484718e6 1.2801419909688601e7 0.0
1.2801419909688601e7 4.825645063018332e6 0.0
0.0 0.0 0.0

-7.0719324307719655e6 1.566703910845905e7 0.0
1.566703910845905e7 5.39655526454724e6 0.0
0.0 0.0 0.0

1.4225776066206289e6 1.0424187768313447e7 0.0
1.0424187768313447e7 -1.1874240433219422e7 0.0
0.0 0.0 0.0

1.7521835504994446e6 6.052137797958254e6 0.0
6.052137797958254e6 -3.608844555426063e6 0.0
0.0 0.0 0.0

220528.28755730984 5.540593356926552e6 0.0
5.540593356926552e6 -2.147741348667017e6 0.0
0.0 0.0 0.0

5.672217350060582e6 6.486014096413348e6 0.0
6.486014096413348e6 -1.7121431183778547e7 0.0
0.0 0.0 0.0

-3.450124684654749e6 1.2665944584138649e7 0.0
1.2665944584138649e7 -986971.493628262 0.0
0.0 0.0 0.0

-5.376169143090667e6 1.1691966826497238e7 0.0
1.1691966826497238e7 7.138072818018696e6 0.0
0.0 0.0 0.0

-7.975517979086015e6 6.010481107881835e6 0.0
6.010481107881835e6 8.086883390954003e6 0.0
0.0 0.0 0.0

-1.106868579110882e7 1.8220769846864022e7 0.0
1.8220769846864022e7 8.469089547597185e6 0.0
0.0 0.0 0.0

-1.1011356274537072e7 2.6369461038602237e6 0.0
2.6369461038602237e6 1.2920984848433528e7 0.0
0.0 0.0 0.0

1.1710874545991933e6 3.1010917645374935e7 0.0
3.1010917645374935e7 -7.275142501787141e6 0.0
0.0 0.0 0.0

-2.318846161650974e6 1.2533326868265629e7 0.0
1.2533326868265629e7 -4.358109468817948e6 0.0
0.0 0.0 0.0

670445.4438339625 1.0097111695656324e7 0.0
1.0097111695656324e7 -7.406845179260636e6 0.0
0.0 0.0 0.0

-4.899270041682519e6 1.2278980595700307e7 0.0
1.2278980595700307e7 5.878757197454121e6 0.0
0.0 0.0 0.0

-1.1577015431685474e7 3.899162309518306e6 0.0
3.899162309518306e6 1.3702376642120257e7 0.0
0.0 0.0 0.0

-2.9180848349364e6 1.28940192696292e7 0.0
1.28940192696292e7 -2.2971467699582195e6 0.0
0.0 0.0 0.0

342901.32167002803 9.094335557101833e6 0.0
9.094335557101833e6 -410719.2044736748 0.0
0.0 0.0 0.0

4.218297180646249e6 5.6173536108780205e6 0.0
5.6173536108780205e6 -1.1986629951476995e7 0.0
0.0 0.0 0.0

-1.6147737644022673e6 5.528010569227488e6 0.0
5.528010569227488e6 279068.27343806846 0.0
0.0 0.0 0.0

-1.264284235264149e7 1.9056189742952455e7 0.0
1.9056189742952455e7 9.639185294373441e6 0.0
0.0 0.0 0.0

-5.875128117782559e6 1.1323757102691151e7 0.0
1.1323757102691151e7 7.4925852961118985e6 0.0
0.0 0.0 0.0

716029.9361830261 1.0951736467789952e7 0.0
1.0951736467789952e7 -8.951375037650075e6 0.0
0.0 0.0 0.0

2.250904041626323e6 9.994719886751771e6 0.0
9.994719886751771e6 720474.1562400929 0.0
0.0 0.0 0.0

-1.3392863384265394e6 4.244073544996551e6 0.0
4.244073544996551e6 -451153.50547486637 0.0
0.0 0.0 0.0

-1.8465707768922844e6 7.508577001092692e6 0.0
7.508577001092692e6 -1.2666185526766898e6 0.0
0.0 0.0 0.0

798652.6852484792 1.0436633292260468e7 0.0
1.0436633292260468e7 -7.916390529057545e6 0.0
0.0 0.0 0.0

-980524.3368148026 9.988830077826157e6 0.0
9.988830077826157e6 -3.988467747608693e6 0.0
0.0 0.0 0.0

-7.840974301734339e6 9.910667253038006e6 0.0
9.910667253038006e6 7.55512183038087e6 0.0
0.0 0.0 0.0

838466.2448647944 1.0932976161396338e7 0.0
1.0932976161396338e7 -1.0079324279361192e7 0.0
0.0 0.0 0.0

2.0247753794138064e6 9.311054535925625e6 0.0
9.311054535925625e6 -9.92878063329904e6 0.0
0.0 0.0 0.0

-6.53128580454139e6 1.3250950848219246e7 0.0
1.3250950848219246e7 6.23640452356297e6 0.0
0.0 0.0 0.0

562881.954790608 1.1125122114224164e7 0.0
1.1125122114224164e7 -8.100295986439153e6 0.0
0.0 0.0 0.0

-8.164827344024553e6 6.180033404492574e6 0.0
6.180033404492574e6 1.083924155888315e7 0.0
0.0 0.0 0.0

1.9681744805123508e6 5.284228891511812e6 0.0
5.284228891511812e6 -6.416380055159341e6 0.0
0.0 0.0 0.0

-1.839513070159276e7 1.57084655554824e7 0.0
1.57084655554824e7 5.169893999849369e6 0.0
0.0 0.0 0.0

1.1472587721935976e6 6.3549834684383795e6 0.0
6.3549834684383795e6 -5.822662519621441e6 0.0
0.0 0.0 0.0

2.0683726330576874e6 4.222544357529545e6 0.0
4.222544357529545e6 -6.146871961954611e6 0.0
0.0 0.0 0.0

-6.365258394833172e6 1.3856363775005167e7 0.0
1.3856363775005167e7 6.003872863330532e6 0.0
0.0 0.0 0.0

156005.2272640481 8.27004624527701e6 0.0
8.27004624527701e6 520017.6592631101 0.0
0.0 0.0 0.0

2.253534966950912e6 1.1643204133451594e7 0.0
1.1643204133451594e7 -4.952292964346161e6 0.0
0.0 0.0 0.0

-8.803345429083765e6 1.0087946631958487e7 0.0
1.0087946631958487e7 9.808225171920894e6 0.0
0.0 0.0 0.0

-7.244392219659302e6 1.1609122441593887e7 0.0
1.1609122441593887e7 9.528044357230993e6 0.0
0.0 0.0 0.0

-802470.1528040748 1.1567950699806126e7 0.0
1.1567950699806126e7 1.306342929680432e7 0.0
0.0 0.0 0.0

-238372.0404372405 1.167919696683315e7 0.0
1.167919696683315e7 -1.9736227683991035e6 0.0
0.0 0.0 0.0

-6.295838809980059e6 1.2145651689630808e7 0.0
1.2145651689630808e7 7.473499889206181e6 0.0
0.0 0.0 0.0

-5.66891182414496e6 8.664469673669988e6 0.0
8.664469673669988e6 3.6062268639118006e6 0.0
0.0 0.0 0.0

686956.398815596 1.0641647846123755e7 0.0
1.0641647846123755e7 -8.626620509286866e6 0.0
0.0 0.0 0.0

-6.669535480861045e6 1.2991384662749026e7 0.0
1.2991384662749026e7 5.3176215177798085e6 0.0
0.0 0.0 0.0

-1.1240655550431035e7 3.908245756976451e6 0.0
3.908245756976451e6 1.3043619115781834e7 0.0
0.0 0.0 0.0

462555.13012671773 1.520692917572132e7 0.0
1.520692917572132e7 -5.168290344741953e6 0.0
0.0 0.0 0.0

-2.105432006211531e6 1.2553777182724126e7 0.0
1.2553777182724126e7 -3.649017000596229e6 0.0
0.0 0.0 0.0

2.1253296821434307e6 6.535604613480397e6 0.0
6.535604613480397e6 -8.652260815050323e6 0.0
0.0 0.0 0.0

-1.1403957428664623e6 1.3975324428595439e7 0.0
1.3975324428595439e7 -4.452863222197018e6 0.0
0.0 0.0 0.0

-5.309443478037429e6 1.3756427248638295e7 0.0
1.3756427248638295e7 2.5741338282253235e6 0.0
0.0 0.0 0.0

-925517.8834407094 8.125697134232772e6 0.0
8.125697134232772e6 -3.085059663094691e6 0.0
0.0 0.0 0.0

4.116359808122932e6 1.4730781449433751e7 0.0
1.4730781449433751e7 1.3721209197762797e7 0.0
0.0 0.0 0.0

-7.753606394461625e6 -5.94353764969357e6 0.0
-5.94353764969357e6 1.5233508426098105e7 0.0
0.0 0.0 0.0

-417261.28593524167 9.998860666477913e6 0.0
9.998860666477913e6 946906.115256916 0.0
0.0 0.0 0.0

-6.492641803443728e6 -3.5225826371127614e6 0.0
-3.5225826371127614e6 8.737911389480492e6 0.0
0.0 0.0 0.0

-5.265947845429291e6 1.420774548761974e7 0.0
1.420774548761974e7 1.9199780486586022e6 0.0
0.0 0.0 0.0

-3.6176037211436843e6 1.5092703142834492e7 0.0
1.5092703142834492e7 -2.5623764437574595e6 0.0
0.0 0.0 0.0

-1.1863386819186535e7 1.8644951007111154e7 0.0
1.8644951007111154e7 8.847512831280787e6 0.0
0.0 0.0 0.0

-4.1363978768917844e6 1.1524282374354262e7 0.0
1.1524282374354262e7 7.458142038271762e6 0.0
0.0 0.0 0.0

-1.0779489283299893e7 3.491688820262145e6 0.0
3.491688820262145e6 1.3923636548881939e7 0.0
0.0 0.0 0.0

-5.590007392396639e6 1.439844400601278e7 0.0
1.439844400601278e7 2.6285009582363586e6 0.0
0.0 0.0 0.0

-7.032773927711839e6 1.0880154201829627e7 0.0
1.0880154201829627e7 5.8566382180575505e6 0.0
0.0 0.0 0.0

-6.351632335557881e6 1.2180647110172128e7 0.0
1.2180647110172128e7 4.678965046250835e6 0.0
0.0 0.0 0.0

4.0860458797665555e6 7.898587243812244e6 0.0
7.898587243812244e6 -1.3871790249421116e7 0.0
0.0 0.0 0.0

-6.502092889674569e6 1.340311042568566e7 0.0
1.340311042568566e7 6.419453340174059e6 0.0
0.0 0.0 0.0

2.0216684520362094e6 1.1551503259018177e7 0.0
1.1551503259018177e7 4.1769659378070226e6 0.0
0.0 0.0 0.0

1.508622568163068e6 9.497652488948893e6 0.0
9.497652488948893e6 -8.758072472107774e6 0.0
0.0 0.0 0.0

-1.2123115174244419e7 -3.461684210491591e6 0.0
-3.461684210491591e6 2.9090814106608726e7 0.0
0.0 0.0 0.0

-6.393503750620322e6 1.4765080731833529e7 0.0
1.4765080731833529e7 4.449394904248779e6 0.0
0.0 0.0 0.0

724618.7452120666 1.024540587922831e7 0.0
1.024540587922831e7 595633.733301077 0.0
0.0 0.0 0.0

-4.036098853627573e7 3.7682801066330545e7 0.0
3.7682801066330545e7 -1.238805185217022e7 0.0
0.0 0.0 0.0

1.9115092079190281e6 5.196660235389777e6 0.0
5.196660235389777e6 -7.486043688967711e6 0.0
0.0 0.0 0.0

-3.30062255741434e6 1.0895196107716285e7 0.0
1.0895196107716285e7 66224.79938467685 0.0
0.0 0.0 0.0

-7.3454102160104215e6 1.2777741790068112e7 0.0
1.2777741790068112e7 4.68287676128274e6 0.0
0.0 0.0 0.0

676018.6988938474 1.1881491661610924e7 0.0
1.1881491661610924e7 -7.724660196639998e6 0.0
0.0 0.0 0.0

-2.105678488980285e6 1.2607961301396307e7 0.0
1.2607961301396307e7 -4.913381896815592e6 0.0
0.0 0.0 0.0

3.9555075599907693e6 1.1496574859295636e7 0.0
1.1496574859295636e7 -4.802333093055051e6 0.0
0.0 0.0 0.0

-8.788935217813082e6 1.6160866913368387e7 0.0
1.6160866913368387e7 7.1812859211186785e6 0.0
0.0 0.0 0.0

-2.698596536099977e6 1.2844210155949702e7 0.0
1.2844210155949702e7 -668942.414790588 0.0
0.0 0.0 0.0

4.899521628828163e6 6.361031125624447e6 0.0
6.361031125624447e6 -1.4064247801689433e7 0.0
0.0 0.0 0.0

-1.3110848284374453e7 1.4834193447269049e7 0.0
1.4834193447269049e7 1.4571731823100857e6 0.0
0.0 0.0 0.0

-6.3028429194772355e6 1.0660621689020852e7 0.0
1.0660621689020852e7 6.186316148309706e6 0.0
0.0 0.0 0.0

-3.0879417629685486e6 1.4710769091582196e7 0.0
1.4710769091582196e7 -3.166963346474101e6 0.0
0.0 0.0 0.0

-7.401119006087006e6 1.2004800250829699e7 0.0
1.2004800250829699e7 1.2759333396742534e7 0.0
0.0 0.0 0.0

3.6940119459966673e6 1.325116947153421e7 0.0
1.325116947153421e7 -6.817358967452965e6 0.0
0.0 0.0 0.0

-5.913749961838655e6 1.312919144066288e7 0.0
1.312919144066288e7 6.363011822509652e6 0.0
0.0 0.0 0.0

-1.5316612754098258e6 1.036639470627431e7 0.0
1.036639470627431e7 -4.316566581904059e6 0.0
0.0 0.0 0.0

-454542.00361411006 7.116304639215954e6 0.0
7.116304639215954e6 2.906252223695952e6 0.0
0.0 0.0 0.0

681136.8629975717 1.2797157694940928e7 0.0
1.2797157694940928e7 -5.743425955817248e6 0.0
0.0 0.0 0.0

-6.986218559836866e6 1.0683009486378742e7 0.0
1.0683009486378742e7 8.424224855621906e6 0.0
0.0 0.0 0.0

-1.207311408938001e7 837803.922817532 0.0
837803.922817532 3.156138108101186e7 0.0
0.0 0.0 0.0

-1.2015603919522563e7 -4.385856574199037e6 0.0
-4.385856574199037e6 3.3461466144015774e7 0.0
0.0 0.0 0.0

-2.194461678881243e6 1.121918796427525e7 0.0
1.121918796427525e7 -3.545541191803894e6 0.0
0.0 0.0 0.0

382057.29768556636 1.2358174829234663e7 0.0
1.2358174829234663e7 -6.817583943937529e6 0.0
0.0 0.0 0.0

-1.86351406335369e6 1.2718870870261291e7 0.0
1.2718870870261291e7 -5.313569577977924e6 0.0
0.0 0.0 0.0

-3.9056040572058354e6 1.3112815921784624e7 0.0
1.3112815921784624e7 342949.5499010342 0.0
0.0 0.0 0.0

4.374256034214232e6 1.0259168776826024e7 0.0
1.0259168776826024e7 992627.8184004256 0.0
0.0 0.0 0.0

-6.4789026888089115e6 1.1392919361128451e7 0.0
1.1392919361128451e7 7.846873967723098e6 0.0
0.0 0.0 0.0

-1.450072135804333e6 1.2769362973258534e7 0.0
1.2769362973258534e7 -5.731090761582567e6 0.0
0.0 0.0 0.0

-1.487280821995621e6 9.80422939515132e6 0.0
9.80422939515132e6 -3.916034095468087e6 0.0
0.0 0.0 0.0

-1.265706453414062e6 1.9550599196950726e6 0.0
1.9550599196950726e6 1.6818977047948483e6 0.0
0.0 0.0 0.0

1.9230472834427152e6 9.894992209436798e6 0.0
9.894992209436798e6 -1.2010902135509657e7 0.0
0.0 0.0 0.0

-8.524932763323937e6 -1.6497429991838809e6 0.0
-1.6497429991838809e6 1.100342903370793e7 0.0
0.0 0.0 0.0

-1.7828708422697994e6 -714947.7155248637 0.0
-714947.7155248637 3.344258120005224e6 0.0
0.0 0.0 0.0

-1.8569822513412277e6 -36424.94956338483 0.0
-36424.94956338483 2.9705191329390695e6 0.0
0.0 0.0 0.0

-1.7118695749809255e6 7.403813714018785e6 0.0
7.403813714018785e6 -760774.1799277206 0.0
0.0 0.0 0.0

-123280.37790879607 1.0410291703961093e7 0.0
1.0410291703961093e7 -7.183866915726749e6 0.0
0.0 0.0 0.0

2.3355330343464282e6 9.75374121289497e6 0.0
9.75374121289497e6 -1.1789745003724903e7 0.0
0.0 0.0 0.0

-524000.97950203344 1.2405660840526002e7 0.0
1.2405660840526002e7 -1.498041381087298e6 0.0
0.0 0.0 0.0

-1.0037974031944419e6 1.3329217083150825e7 0.0
1.3329217083150825e7 -5.25511463561867e6 0.0
0.0 0.0 0.0

2.594781506597474e6 1.1108019326359097e7 0.0
1.1108019326359097e7 -3.964768164633051e6 0.0
0.0 0.0 0.0

-4.437416478573537e6 1.3212405669164019e7 0.0
1.3212405669164019e7 932342.0685127105 0.0
0.0 0.0 0.0

1.3623967090245925e7 1.3651288967349822e7 0.0
1.3651288967349822e7 396718.60786766605 0.0
0.0 0.0 0.0

-2.7479646961800237e6 8.609733379711235e6 0.0
8.609733379711235e6 9.152832717566332e6 0.0
0.0 0.0 0.0

1.7330891433767702e6 1.2168241528268581e7 0.0
1.2168241528268581e7 -5.413890001763705e6 0.0
0.0 0.0 0.0

-2.379965051354629e6 1.5086083341014737e7 0.0
1.5086083341014737e7 -2.5718803084809985e6 0.0
0.0 0.0 0.0

-6.141595912202182e6 1.4683008524984714e7 0.0
1.4683008524984714e7 3.70760128476655e6 0.0
0.0 0.0 0.0

316105.12718723994 1.147373270330302e7 0.0
1.147373270330302e7 -7.793171528737977e6 0.0
0.0 0.0 0.0

-6.3723908595154295e6 1.2468382418645516e7 0.0
1.2468382418645516e7 2.8399660856885915e6 0.0
0.0 0.0 0.0

-6.401376007346329e6 1.4039619072608558e7 0.0
1.4039619072608558e7 5.950995460475848e6 0.0
0.0 0.0 0.0

3.162128588042006e6 4.836812876871099e6 0.0
4.836812876871099e6 -8.417461789529754e6 0.0
0.0 0.0 0.0

-5.511920104342678e6 1.3641661917908872e7 0.0
1.3641661917908872e7 1.9889367269002935e6 0.0
0.0 0.0 0.0

-1.417344707244026e7 1.9360531920052793e7 0.0
1.9360531920052793e7 1.0244273838485392e7 0.0
0.0 0.0 0.0

-546056.8569276228 7.535477524897893e6 0.0
7.535477524897893e6 -4.995853666978529e6 0.0
0.0 0.0 0.0

1.7523779083958818e6 9.551001179848857e6 0.0
9.551001179848857e6 -9.449642768085549e6 0.0
0.0 0.0 0.0

2.2856052210109825e6 9.53502742973481e6 0.0
9.53502742973481e6 -1.1281775392368225e7 0.0
0.0 0.0 0.0

1.9384255712215104e6 1.0138708551042154e7 0.0
1.0138708551042154e7 -1.1785480976435335e7 0.0
0.0 0.0 0.0

-5.315014528977019e6 1.9479162544694714e7 0.0
1.9479162544694714e7 132235.8992783581 0.0
0.0 0.0 0.0

-1.0217290609937964e6 1.2723390581245106e7 0.0
1.2723390581245106e7 -6.175577827498434e6 0.0
0.0 0.0 0.0

-970517.8034247505 1.347324344053318e7 0.0
1.347324344053318e7 6.753785956171654e6 0.0
0.0 0.0 0.0

-1.6032625221993774e7 5.306548098839112e6 0.0
5.306548098839112e6 8.604560685205618e6 0.0
0.0 0.0 0.0

-2.7150046661492284e7 1.8282526466020156e7 0.0
1.8282526466020156e7 6.598842368212573e6 0.0
0.0 0.0 0.0

5.237860970215061e6 7.270364707598099e6 0.0
7.270364707598099e6 -1.6651098012822226e7 0.0
0.0 0.0 0.0

1.1613978338317478e6 1.2607261973120846e7 0.0
1.2607261973120846e7 -5.698051774168356e6 0.0
0.0 0.0 0.0

-2.1546456780604054e6 1.4449438620007314e7 0.0
1.4449438620007314e7 -3.947750316126288e6 0.0
0.0 0.0 0.0

2.9219772081031594e6 4.506312947506391e6 0.0
4.506312947506391e6 -8.070766325152973e6 0.0
0.0 0.0 0.0

-5.209248338112727e6 1.3121461766362146e7 0.0
1.3121461766362146e7 628883.6618746584 0.0
0.0 0.0 0.0

-3.8400402585220383e6 1.1920756903771764e7 0.0
1.1920756903771764e7 5.720415048324866e6 0.0
0.0 0.0 0.0

-4.215750660985234e6 1.0520144953631232e7 0.0
1.0520144953631232e7 1.0694750786528602e7 0.0
0.0 0.0 0.0

-481534.9904345148 2.368173064486808e6 0.0
2.368173064486808e6 401405.0984734059 0.0
0.0 0.0 0.0

1.0853006127181365e6 1.0747560542267453e7 0.0
1.0747560542267453e7 -9.101330928599048e6 0.0
0.0 0.0 0.0

1.4910325273728408e6 7.817203696858699e6 0.0
7.817203696858699e6 -8.014231860530119e6 0.0
0.0 0.0 0.0

589361.3435460171 6.86707176752546e6 0.0
6.86707176752546e6 -4.0076108464172054e6 0.0
0.0 0.0 0.0

-682515.4308427515 2.311637960233552e6 0.0
2.311637960233552e6 -239818.0355744772 0.0
0.0 0.0 0.0

-6.689261094767135e6 1.3370342935239762e7 0.0
1.3370342935239762e7 3.6340900406655446e7 0.0
0.0 0.0 0.0

-1.1287412896970492e7 -1.4570704977290293e6 0.0
-1.4570704977290293e6 1.7590056831559494e7 0.0
0.0 0.0 0.0

-5.783615016826954e6 1.5823553209609043e7 0.0
1.5823553209609043e7 2.294914948860547e6 0.0
0.0 0.0 0.0

-3.306510001113311e6 1.075231364402704e7 0.0
1.075231364402704e7 183726.75588908745 0.0
0.0 0.0 0.0

740707.3761412497 9.961934874634787e6 0.0
9.961934874634787e6 -7.423117561400726e6 0.0
0.0 0.0 0.0

-2.151484645196795e6 1.3995478769144008e7 0.0
1.3995478769144008e7 -3.3515962247991445e6 0.0
0.0 0.0 0.0

-6.690141955934839e6 1.3213297139627505e7 0.0
1.3213297139627505e7 5.714905261178967e6 0.0
0.0 0.0 0.0

-8.689895152535288e6 2.1609657158549424e7 0.0
2.1609657158549424e7 4.543486429626895e6 0.0
0.0 0.0 0.0

1.53782365802315e6 5.4938449478340335e6 0.0
5.4938449478340335e6 -5.74320479533812e6 0.0
0.0 0.0 0.0

-2.1494950114635937e6 1.4712384329881812e6 0.0
1.4712384329881812e6 785118.6762677992 0.0
0.0 0.0 0.0

-448323.8263434479 1.184242539722161e7 0.0
1.184242539722161e7 -753326.861650304 0.0
0.0 0.0 0.0

-6.641358417509982e6 1.3939004619226981e7 0.0
1.3939004619226981e7 5.753796220711719e6 0.0
0.0 0.0 0.0

-4.966029172115741e6 1.190969800147925e7 0.0
1.190969800147925e7 7.220581810278181e6 0.0
0.0 0.0 0.0

-8.579269644016337e6 5.403916624783332e6 0.0
5.403916624783332e6 1.1681501113334462e7 0.0
0.0 0.0 0.0

1.4395172605227968e6 1.0055011866571743e7 0.0
1.0055011866571743e7 -9.21379419185599e6 0.0
0.0 0.0 0.0

-7.801875598715404e7 1.240250883888879e7 0.0
1.240250883888879e7 5.877855626321234e6 0.0
0.0 0.0 0.0

-9.40153727301934e6 4.2250305763101755e6 0.0
4.2250305763101755e6 1.2575639678070523e7 0.0
0.0 0.0 0.0

-6.576995377550121e6 1.4085737084546361e7 0.0
1.4085737084546361e7 5.823157441020107e6 0.0
0.0 0.0 0.0

647326.0126242633 1.1328283328859758e7 0.0
1.1328283328859758e7 -8.294163823321596e6 0.0
0.0 0.0 0.0

1.3526190098486939e6 1.0443969241015442e7 0.0
1.0443969241015442e7 -1.1649320786398089e7 0.0
0.0 0.0 0.0

-8.660077139324255e6 2.045998027614129e7 0.0
2.045998027614129e7 5.14042783019709e6 0.0
0.0 0.0 0.0

1.063067787320658e6 1.0671009115627047e7 0.0
1.0671009115627047e7 -1.1053326778990157e7 0.0
0.0 0.0 0.0

-487530.83294508676 1.2548053040056067e7 0.0
1.2548053040056067e7 -6.465362560574027e6 0.0
0.0 0.0 0.0

-352808.9848839131 1.1856522156880626e7 0.0
1.1856522156880626e7 -346060.3496050432 0.0
0.0 0.0 0.0

-7.646863228912631e6 1.7167420983369783e7 0.0
1.7167420983369783e7 5.246594548717617e6 0.0
0.0 0.0 0.0

-6.671654481984365e6 1.3655882352534223e7 0.0
1.3655882352534223e7 5.443887574244577e6 0.0
0.0 0.0 0.0

1.1159195938316686e6 1.0519543813874865e7 0.0
1.0519543813874865e7 -8.883965411502317e6 0.0
0.0 0.0 0.0

-1.6733948130638665e6 1.2107349279330634e7 0.0
1.2107349279330634e7 -4.702358671856301e6 0.0
0.0 0.0 0.0

-5.947664437304266e6 1.3084806745477425e7 0.0
1.3084806745477425e7 3.437170841881181e6 0.0
0.0 0.0 0.0

-6.517767634221189e6 1.4143695361167332e7 0.0
1.4143695361167332e7 5.861508987594783e6 0.0
0.0 0.0 0.0

-4.885417097354302e6 -4.0847280715533188e6 0.0
-4.0847280715533188e6 9.04151485181255e6 0.0
0.0 0.0 0.0

-7.471164271472176e6 1.0016282763728274e7 0.0
1.0016282763728274e7 8.762072320307802e6 0.0
0.0 0.0 0.0

839335.834927185 1.081310320036296e7 0.0
1.081310320036296e7 -1.0465479734079747e7 0.0
0.0 0.0 0.0

6.154976831418617e6 1.0769413570504315e7 0.0
1.0769413570504315e7 -4.26616798353621e6 0.0
0.0 0.0 0.0

1.0554897666203915e6 1.091114941299689e7 0.0
1.091114941299689e7 -9.306586256177554e6 0.0
0.0 0.0 0.0

997752.8168948223 9.882093410789948e6 0.0
9.882093410789948e6 -4.519827272178493e6 0.0
0.0 0.0 0.0

-1.0563221449147727e7 2.6872698316071266e6 0.0
2.6872698316071266e6 1.4444878035011876e7 0.0
0.0 0.0 0.0

-5.265393303525611e6 1.1911288378743593e7 0.0
1.1911288378743593e7 1.2569323383280023e6 0.0
0.0 0.0 0.0

936989.9128616948 9.259424643048778e6 0.0
9.259424643048778e6 -5.57575261063617e6 0.0
0.0 0.0 0.0

879850.3765419126 1.1870647422042472e7 0.0
1.1870647422042472e7 -7.370886177515089e6 0.0
0.0 0.0 0.0

-1.7835377088212896e7 1.992100851871852e7 0.0
1.992100851871852e7 1.1675558902838415e7 0.0
0.0 0.0 0.0

-2.665556632245881e7 4.180095548242107e6 0.0
4.180095548242107e6 1.0512559213230232e7 0.0
0.0 0.0 0.0

-6.577764046378688e6 1.6449234295128081e7 0.0
1.6449234295128081e7 1.8274698468168299e6 0.0
0.0 0.0 0.0

-1.5694943372140462e7 1.973089720424798e7 0.0
1.973089720424798e7 1.1219606567163795e7 0.0
0.0 0.0 0.0

-2.516201340032969e6 2.689722220215753e7 0.0
2.689722220215753e7 88792.27333895885 0.0
0.0 0.0 0.0

1.4885250830715727e6 1.032414893936167e7 0.0
1.032414893936167e7 -1.1397785494550973e7 0.0
0.0 0.0 0.0

-2.2145960813488467e6 1.100277290456857e7 0.0
1.100277290456857e7 -1.011533463956828e7 0.0
0.0 0.0 0.0

-6.013037954553029e6 1.3546537329683382e7 0.0
1.3546537329683382e7 5.8761358926284425e6 0.0
0.0 0.0 0.0

-1.0960591860340482e7 4.321601088373358e6 0.0
4.321601088373358e6 1.2475375676815951e7 0.0
0.0 0.0 0.0

-5.809317158136433e6 1.2768301514415005e7 0.0
1.2768301514415005e7 2.4336510883542276e6 0.0
0.0 0.0 0.0

-1.4172829476627298e6 9.202670146228548e6 0.0
9.202670146228548e6 1.8713918805741358e6 0.0
0.0 0.0 0.0

-1.6185038115157727e6 1.0496490622339692e7 0.0
1.0496490622339692e7 -3.182268531730374e6 0.0
0.0 0.0 0.0

-8.802201414138379e6 2.2735204721064776e7 0.0
2.2735204721064776e7 3.530134499889275e6 0.0
0.0 0.0 0.0

-2.394934220278185e6 1.3798870271112714e7 0.0
1.3798870271112714e7 -4.198293156954243e6 0.0
0.0 0.0 0.0

1.7172171496201686e6 1.1232679963162906e7 0.0
1.1232679963162906e7 -5.086314365879848e6 0.0
0.0 0.0 0.0

4.606355561013257e6 5.25074743119454e6 0.0
5.25074743119454e6 -1.2377317033431755e7 0.0
0.0 0.0 0.0

-6.631119906609321e6 1.3401653744959299e7 0.0
1.3401653744959299e7 5.988676188680934e6 0.0
0.0 0.0 0.0

-3.6362567819483993e6 1.0281737528740976e7 0.0
1.0281737528740976e7 1.1638967151392715e6 0.0
0.0 0.0 0.0

666665.7955806432 8.382854383580331e6 0.0
8.382854383580331e6 -5.743329204190515e6 0.0
0.0 0.0 0.0

1.491945197567759e6 1.044711705750918e7 0.0
1.044711705750918e7 -1.165874865592323e7 0.0
0.0 0.0 0.0

-3.9563389319635723e6 1.21280321385425e7 0.0
1.21280321385425e7 5.480963697542645e6 0.0
0.0 0.0 0.0

-6.509862701421313e6 1.1595092664864024e7 0.0
1.1595092664864024e7 8.926760873798957e6 0.0
0.0 0.0 0.0

-744806.5529875976 1.1195213793858835e7 0.0
1.1195213793858835e7 -2.3927630194734926e6 0.0
0.0 0.0 0.0

-1.3665136752987683e6 1.47852387125189e7 0.0
1.47852387125189e7 -3.6250091751781013e6 0.0
0.0 0.0 0.0

-6.539551579255652e6 1.3099741246039964e7 0.0
1.3099741246039964e7 6.412527296365606e6 0.0
0.0 0.0 0.0

-1.1139912380164135e7 -3.527563624785429e6 0.0
-3.527563624785429e6 2.4872709390737925e7 0.0
0.0 0.0 0.0

-1.8129656746772826e6 7.813138902549262e6 0.0
7.813138902549262e6 -819982.4483407729 0.0
0.0 0.0 0.0

-240892.05953055364 1.1660644508283656e7 0.0
1.1660644508283656e7 -2.404177237885103e6 0.0
0.0 0.0 0.0

-6.420001250929669e6 1.3834156712890688e7 0.0
1.3834156712890688e7 5.906712664154869e6 0.0
0.0 0.0 0.0

-6.922969702666707e6 1.145550661533471e7 0.0
1.145550661533471e7 7.433781336315243e6 0.0
0.0 0.0 0.0

1.357932489278085e6 8.901660591393413e6 0.0
8.901660591393413e6 -7.612799743042605e6 0.0
0.0 0.0 0.0

-6.207254786476059e6 1.4274486883739606e7 0.0
1.4274486883739606e7 4.266075865096979e6 0.0
0.0 0.0 0.0

-7.964617304371543e6 1.7993741040521882e7 0.0
1.7993741040521882e7 5.336227181378426e6 0.0
0.0 0.0 0.0

-4.9554251369788125e6 1.1521572164593395e7 0.0
1.1521572164593395e7 2.91616891247617e6 0.0
0.0 0.0 0.0

1.1859941423207861e6 9.989458892107517e6 0.0
9.989458892107517e6 -8.502687058758125e6 0.0
0.0 0.0 0.0

-6.313128617541295e6 1.4451096712724894e7 0.0
1.4451096712724894e7 3.3400149519721307e6 0.0
0.0 0.0 0.0

-3.3766466259086793e6 1.4456391807864228e7 0.0
1.4456391807864228e7 -2.9374043575474853e6 0.0
0.0 0.0 0.0

-4.724415708686013e6 1.2698381619471088e7 0.0
1.2698381619471088e7 8.04188107716378e6 0.0
0.0 0.0 0.0

-5.023777947505743e6 1.1172294888808014e7 0.0
1.1172294888808014e7 3.3463718842636254e6 0.0
0.0 0.0 0.0

-6.863735316319108e6 1.4040456657692514e7 0.0
1.4040456657692514e7 5.817619822483888e6 0.0
0.0 0.0 0.0

-9.697918510936398e6 -4.013088382539628e6 0.0
-4.013088382539628e6 1.567445749874693e7 0.0
0.0 0.0 0.0

-7.7359224877264295e6 1.7536433531695005e7 0.0
1.7536433531695005e7 5.366135681023132e6 0.0
0.0 0.0 0.0

4.497647149147066e6 5.307655088218514e6 0.0
5.307655088218514e6 -1.2134467836031564e7 0.0
0.0 0.0 0.0

-5.233631045633607e6 1.375521018215778e7 0.0
1.375521018215778e7 863291.8140500207 0.0
0.0 0.0 0.0

-7.404434931566403e6 -4.310521441564764e6 0.0
-4.310521441564764e6 1.2222485622543052e7 0.0
0.0 0.0 0.0

545222.0534294767 8.593071228938853e6 0.0
8.593071228938853e6 -4.7153973791479645e6 0.0
0.0 0.0 0.0

-5.373821204780493e6 1.3197016079045596e7 0.0
1.3197016079045596e7 3.7069672261018804e6 0.0
0.0 0.0 0.0

-798443.441352945 1.270186343887186e7 0.0
1.270186343887186e7 -1.224469018008956e6 0.0
0.0 0.0 0.0

-1.2967775967688204e6 1.2871655537831318e7 0.0
1.2871655537831318e7 -877843.8039026123 0.0
0.0 0.0 0.0

760035.8687992119 1.1293555045696968e7 0.0
1.1293555045696968e7 -8.914484048524672e6 0.0
0.0 0.0 0.0

-1.1228057377393201e7 5.092677456083629e6 0.0
5.092677456083629e6 1.2799570174033312e7 0.0
0.0 0.0 0.0

-2.4024104185172278e6 9.633747944743456e6 0.0
9.633747944743456e6 3.6130877110088593e6 0.0
0.0 0.0 0.0

2.8057822881488516e6 7.265295385020803e6 0.0
7.265295385020803e6 -9.728023660778087e6 0.0
0.0 0.0 0.0

-2.463310170361268e6 1.3146425293529764e7 0.0
1.3146425293529764e7 6.619322632952537e6 0.0
0.0 0.0 0.0

-830347.2559073903 1.3128089557726499e7 0.0
1.3128089557726499e7 -1.5695591825234076e7 0.0
0.0 0.0 0.0

-6.409789487242154e6 1.035352473713856e7 0.0
1.035352473713856e7 6.518401916326746e6 0.0
0.0 0.0 0.0

-6.55543532962005e6 1.449386457097201e7 0.0
1.449386457097201e7 4.044432840403976e6 0.0
0.0 0.0 0.0

-4.529167998772967e6 1.1398481989128433e7 0.0
1.1398481989128433e7 1.433926842068532e6 0.0
0.0 0.0 0.0

-1.828005327912254e6 1.274631348813495e7 0.0
1.274631348813495e7 -4.02574525137699e6 0.0
0.0 0.0 0.0

541529.387764245 1.232141760693124e7 0.0
1.232141760693124e7 -5.791265126901091e6 0.0
0.0 0.0 0.0

-6.403931946760284e6 1.3591768906144515e7 0.0
1.3591768906144515e7 6.077273466262765e6 0.0
0.0 0.0 0.0

-4.645390264633395e6 1.215686629956795e7 0.0
1.215686629956795e7 6.1980608209827915e6 0.0
0.0 0.0 0.0

-6.930944981654824e6 1.1464667318856515e7 0.0
1.1464667318856515e7 8.720441905921962e6 0.0
0.0 0.0 0.0

-311364.96862053126 1.039492662273518e7 0.0
1.039492662273518e7 -8.90981580595289e6 0.0
0.0 0.0 0.0

172776.19310423778 1.0238649911005175e7 0.0
1.0238649911005175e7 -7.619342005872571e6 0.0
0.0 0.0 0.0

-3.314985760649006e6 1.208837187018326e7 0.0
1.208837187018326e7 4.684491195041626e6 0.0
0.0 0.0 0.0

3.3875849515535682e6 8.528858925656796e6 0.0
8.528858925656796e6 -1.3328270040585756e7 0.0
0.0 0.0 0.0

-1.7346768823441155e6 1.2228736268056767e7 0.0
1.2228736268056767e7 -2.074502125859734e6 0.0
0.0 0.0 0.0

-8.21655537847063e6 1.8559041011290774e7 0.0
1.8559041011290774e7 5.48412805023759e6 0.0
0.0 0.0 0.0

-2.4949861668583844e6 1.2638913073322657e7 0.0
1.2638913073322657e7 4.901463975921673e6 0.0
0.0 0.0 0.0

8.620041539019585e6 1.7153767776787378e7 0.0
1.7153767776787378e7 2.873345195886912e7 0.0
0.0 0.0 0.0

-5.088545558398512e6 1.450397423624786e7 0.0
1.450397423624786e7 -1.696180834877436e7 0.0
0.0 0.0 0.0

-3.8491431409657905e6 1.0285523146385154e7 0.0
1.0285523146385154e7 452930.02793171466 0.0
0.0 0.0 0.0

-1.8804153146892235e7 1.3205070216115214e7 0.0
1.3205070216115214e7 1.296805782906027e7 0.0
0.0 0.0 0.0

-4.619337517134414e6 1.2742134302758498e7 0.0
1.2742134302758498e7 433816.4687361063 0.0
0.0 0.0 0.0

-2.7141950303116934e6 1.226507388987247e7 0.0
1.226507388987247e7 3.6563669819587874e6 0.0
0.0 0.0 0.0

-3.4373291201802315e6 1.2883619920689892e7 0.0
1.2883619920689892e7 6.191847885343481e6 0.0
0.0 0.0 0.0

-1.3826564128544647e6 1.452757455741262e7 0.0
1.452757455741262e7 1.3237444741883295e7 0.0
0.0 0.0 0.0

1.0561499149186066e6 1.0263107877337543e7 0.0
1.0263107877337543e7 2.671733486621518e6 0.0
0.0 0.0 0.0

97234.75137948757 1.2361168778954616e7 0.0
1.2361168778954616e7 4.215378698988699e6 0.0
0.0 0.0 0.0

-2.6598398856051625e6 1.4886842091805419e7 0.0
1.4886842091805419e7 -3.4786776990701244e6 0.0
0.0 0.0 0.0

-2.0374769880608136e6 1.1972151869707566e7 0.0
1.1972151869707566e7 3.2325717932305336e6 0.0
0.0 0.0 0.0

-3.3066569709121254e6 1.1816953781223435e7 0.0
1.1816953781223435e7 4.810349387604621e6 0.0
0.0 0.0 0.0

-6.382845777556725e6 1.6948977341110423e7 0.0
1.6948977341110423e7 3.226599160945783e6 0.0
0.0 0.0 0.0

-2.591778343904378e6 1.073999997479888e7 0.0
1.073999997479888e7 4.977577436141208e6 0.0
0.0 0.0 0.0

3.820484208648508e6 5.579521124264014e6 0.0
5.579521124264014e6 -1.025777429356802e7 0.0
0.0 0.0 0.0

-7.536080328317827e6 7.655038050589196e6 0.0
7.655038050589196e6 7.616709021118512e6 0.0
0.0 0.0 0.0

-4.491278075821529e6 -4.837194438831813e6 0.0
-4.837194438831813e6 9.29705562330672e6 0.0
0.0 0.0 0.0

-5.585623481222884e6 1.1712510282886852e7 0.0
1.1712510282886852e7 7.165986126742652e6 0.0
0.0 0.0 0.0

-6.034696310877194e6 1.5047130012266714e7 0.0
1.5047130012266714e7 3.2981900815221737e6 0.0
0.0 0.0 0.0

575103.8917953242 1.4199246433828313e7 0.0
1.4199246433828313e7 6.644596180944487e6 0.0
0.0 0.0 0.0

-925661.3934118717 1.227923167654806e7 0.0
1.227923167654806e7 3.4298861423483044e6 0.0
0.0 0.0 0.0

-6.699242248123787e6 1.395360464988509e7 0.0
1.395360464988509e7 5.965663546164384e6 0.0
0.0 0.0 0.0

2.058401876961024e6 4.758344076179413e6 0.0
4.758344076179413e6 -6.589059649801546e6 0.0
0.0 0.0 0.0

-5.515441405924768e6 1.3941799578695541e7 0.0
1.3941799578695541e7 1.547044610909803e6 0.0
0.0 0.0 0.0

1.918409303279553e6 8.092532749290671e6 0.0
8.092532749290671e6 -8.044501691777594e6 0.0
0.0 0.0 0.0

-6.757173857124606e6 1.3779208252618162e7 0.0
1.3779208252618162e7 5.340983251691338e6 0.0
0.0 0.0 0.0

-3.832812823376384e6 1.5782903912168648e7 0.0
1.5782903912168648e7 -2.2642831503442554e6 0.0
0.0 0.0 0.0

-4.230221077405933e6 1.269440707478086e7 0.0
1.269440707478086e7 1.0209445819124244e6 0.0
0.0 0.0 0.0

5.807693716222108e6 5.578342155094544e6 0.0
5.578342155094544e6 -1.5996203881990258e7 0.0
0.0 0.0 0.0

2.518311991991493e6 1.0706291415287258e7 0.0
1.0706291415287258e7 -2.4883058253336665e6 0.0
0.0 0.0 0.0

-5.039104811631464e6 1.4836965324380303e7 0.0
1.4836965324380303e7 1.3271261131340107e6 0.0
0.0 0.0 0.0

-3.4400942080000667e6 1.345978688710364e7 0.0
1.345978688710364e7 -1.4237186691203753e6 0.0
0.0 0.0 0.0

635234.724923736 1.0537019339168815e7 0.0
1.0537019339168815e7 -7.766020607282094e6 0.0
0.0 0.0 0.0

2.974125096415832e6 5.845830373780235e6 0.0
5.845830373780235e6 -9.647004262006832e6 0.0
0.0 0.0 0.0

-5.849966035521158e6 1.1683579054006914e7 0.0
1.1683579054006914e7 3.7068016543415836e6 0.0
0.0 0.0 0.0

2.072566404703721e6 9.582423853570348e6 0.0
9.582423853570348e6 -1.197965832428819e7 0.0
0.0 0.0 0.0

-7.4451118007198125e6 -6.96148957026124e6 0.0
-6.96148957026124e6 1.1031476298582993e7 0.0
0.0 0.0 0.0

-7.28073305209122e6 1.0295517947281461e7 0.0
1.0295517947281461e7 8.228657177669483e6 0.0
0.0 0.0 0.0

-8.1526713243366545e6 1.2688817249641974e7 0.0
1.2688817249641974e7 3.9558248560566367e6 0.0
0.0 0.0 0.0

6.190955156256643e6 7.611234398002859e6 0.0
7.611234398002859e6 -2.150893986519231e7 0.0
0.0 0.0 0.0

-1.0371891617471855e7 9.335414764497725e6 0.0
9.335414764497725e6 1.4433391113624189e7 0.0
0.0 0.0 0.0

-3.7445331985329576e6 1.2279107122262103e7 0.0
1.2279107122262103e7 6.205694592473377e6 0.0
0.0 0.0 0.0

-7.570111930786934e6 1.1638090450628135e7 0.0
1.1638090450628135e7 1.0582360015561309e7 0.0
0.0 0.0 0.0

-3.6798123505522306e6 1.0930596789831068e7 0.0
1.0930596789831068e7 644325.0930457166 0.0
0.0 0.0 0.0

-7.051162206690726e6 9.953588424964981e6 0.0
9.953588424964981e6 5.88819811334881e6 0.0
0.0 0.0 0.0

745244.423972134 1.0272190917176733e7 0.0
1.0272190917176733e7 -7.010659231363033e6 0.0
0.0 0.0 0.0

467537.9589782008 1.005111139784421e7 0.0
1.005111139784421e7 -8.070317595451853e6 0.0
0.0 0.0 0.0

3.927946645835789e6 8.493319437492125e6 0.0
8.493319437492125e6 -1.5203065331182353e7 0.0
0.0 0.0 0.0

-5.51962971353698e6 -5.46620987919513e6 0.0
-5.46620987919513e6 1.0792184622915216e7 0.0
0.0 0.0 0.0

-5.787903915183195e6 -8.696819312311448e6 0.0
-8.696819312311448e6 1.5933949638917457e7 0.0
0.0 0.0 0.0

-3.9163934137493363e6 1.2986506031459244e7 0.0
1.2986506031459244e7 1.794555190180185e6 0.0
0.0 0.0 0.0

-1.612415453071774e6 1.286017087980772e7 0.0
1.286017087980772e7 -4.512604948497293e6 0.0
0.0 0.0 0.0

-6.562023450643179e6 1.2400398279506814e7 0.0
1.2400398279506814e7 1.3327869884418026e7 0.0
0.0 0.0 0.0

789397.9207115448 9.980053291094696e6 0.0
9.980053291094696e6 -6.04967648238276e6 0.0
0.0 0.0 0.0

-1.5321658487996333e6 1.4446026182441587e7 0.0
1.4446026182441587e7 -4.214672517605395e6 0.0
0.0 0.0 0.0

-6.562845380434204e6 1.2570345509763636e7 0.0
1.2570345509763636e7 5.040604925179828e6 0.0
0.0 0.0 0.0

-1.5222774851848648e6 1.1269575392349334e6 0.0
1.1269575392349334e6 2.5513418772560144e6 0.0
0.0 0.0 0.0

-6.845165027015544e6 2.428027851686881e7 0.0
2.428027851686881e7 1.8050141378993695e6 0.0
0.0 0.0 0.0

865473.3859719182 1.1502271204319691e7 0.0
1.1502271204319691e7 -6.527911911364726e6 0.0
0.0 0.0 0.0

101644.33266898431 1.1717129375287512e7 0.0
1.1717129375287512e7 -1.474228625927959e7 0.0
0.0 0.0 0.0

4.356307321548435e6 5.6280778132563485e6 0.0
5.6280778132563485e6 -1.1527104710885268e7 0.0
0.0 0.0 0.0

-359958.0439449929 1.1881693453184742e7 0.0
1.1881693453184742e7 -2.176315126966041e6 0.0
0.0 0.0 0.0

-7.620062778110855e6 9.732094378360238e6 0.0
9.732094378360238e6 9.236800788971161e6 0.0
0.0 0.0 0.0

-1.5640613003739614e7 4.95468495531281e6 0.0
4.95468495531281e6 9.884167302883897e6 0.0
0.0 0.0 0.0

-2.1928020281078652e6 1.3424094283879576e7 0.0
1.3424094283879576e7 -229562.48030762858 0.0
0.0 0.0 0.0

-287631.10518126795 1.2105696348417997e7 0.0
1.2105696348417997e7 3.2524492393420297e6 0.0
0.0 0.0 0.0

327112.1660570558 1.0353580049745195e7 0.0
1.0353580049745195e7 -8.025864699080671e6 0.0
0.0 0.0 0.0

-2.106557487963552e6 1.9550135495389602e6 0.0
1.9550135495389602e6 2.623439293358385e6 0.0
0.0 0.0 0.0

-2.455074864551108e6 1.1297572739659308e7 0.0
1.1297572739659308e7 -2.9260973219214245e6 0.0
0.0 0.0 0.0

-801139.3818730599 1.210214240356498e7 0.0
1.210214240356498e7 -121366.78203749367 0.0
0.0 0.0 0.0

-2.1961353579531796e6 1.2135599207221158e7 0.0
1.2135599207221158e7 3.543810604879824e6 0.0
0.0 0.0 0.0

-798615.8694276544 1.1196565872498408e7 0.0
1.1196565872498408e7 -6.568587781288646e6 0.0
0.0 0.0 0.0

-5.10707317542213e6 1.2120717419541787e7 0.0
1.2120717419541787e7 7.497150620449537e6 0.0
0.0 0.0 0.0

813004.9134026273 8.888249976211503e6 0.0
8.888249976211503e6 -2.6302173069756264e6 0.0
0.0 0.0 0.0

-1.2353099500309369e6 1.2903076773660485e7 0.0
1.2903076773660485e7 -5.021671201585004e6 0.0
0.0 0.0 0.0

2.377576646357159e6 1.1016152925592706e7 0.0
1.1016152925592706e7 -4.212859111185742e6 0.0
0.0 0.0 0.0

1.7913181581621855e6 9.289300745534277e6 0.0
9.289300745534277e6 -1.0716860870729437e7 0.0
0.0 0.0 0.0

-6.304289465200096e6 1.1734624168389473e7 0.0
1.1734624168389473e7 7.566786486533859e6 0.0
0.0 0.0 0.0

-1.3220930048863762e6 9.664374710838586e6 0.0
9.664374710838586e6 -3.0068633857429167e6 0.0
0.0 0.0 0.0

-2.5607363713953383e7 1.3719556567331329e7 0.0
1.3719556567331329e7 1.104757668903257e7 0.0
0.0 0.0 0.0

-5.532449492889637e6 1.348338652388331e7 0.0
1.348338652388331e7 1.729274452423455e7 0.0
0.0 0.0 0.0

4.6909485003824765e6 5.223235323837252e6 0.0
5.223235323837252e6 -1.262028705022034e7 0.0
0.0 0.0 0.0

-5.498642148323655e6 -8.269038412899048e6 0.0
-8.269038412899048e6 1.4731391277618602e7 0.0
0.0 0.0 0.0

927081.6635882165 1.094127574086111e7 0.0
1.094127574086111e7 -1.394936688813549e7 0.0
0.0 0.0 0.0

1.1480706181289619e6 1.070017583666755e7 0.0
1.070017583666755e7 -1.1096036977192352e7 0.0
0.0 0.0 0.0

-886644.4830447342 1.2673477434133464e7 0.0
1.2673477434133464e7 -1.1859650789258047e6 0.0
0.0 0.0 0.0

-1.0601429163640007e7 1.4831219829288289e7 0.0
1.4831219829288289e7 4.466260677095075e6 0.0
0.0 0.0 0.0

-8.282763739787261e6 1.0295918577053273e7 0.0
1.0295918577053273e7 9.49270688609069e6 0.0
0.0 0.0 0.0

-834308.1839153538 1.2881480835930143e7 0.0
1.2881480835930143e7 -5.540874199330159e6 0.0
0.0 0.0 0.0

-1.0784329393250713e7 -7.35209137856884e6 0.0
-7.35209137856884e6 2.7465121162233688e7 0.0
0.0 0.0 0.0

-8.000274270475084e6 8.766264625357613e6 0.0
8.766264625357613e6 1.0123526292373367e7 0.0
0.0 0.0 0.0

6.538162538431196e6 6.724833366523053e6 0.0
6.724833366523053e6 -2.081784567226761e7 0.0
0.0 0.0 0.0

-6.768628244954037e6 1.484310044971638e7 0.0
1.484310044971638e7 4.354575614137741e6 0.0
0.0 0.0 0.0

6.211494667366801e6 5.842065974757834e6 0.0
5.842065974757834e6 -1.8725303528964546e7 0.0
0.0 0.0 0.0

-2.1694717775308214e7 1.9010598991080288e7 0.0
1.9010598991080288e7 1.275469014425601e7 0.0
0.0 0.0 0.0

-1.1141062398162615e7 -6.683651509704208e6 0.0
-6.683651509704208e6 2.9642176481488988e7 0.0
0.0 0.0 0.0

2.211017053665193e6 9.388201076733219e6 0.0
9.388201076733219e6 -1.0613023189772986e7 0.0
0.0 0.0 0.0

-7.129725996933782e6 1.305185019204714e7 0.0
1.305185019204714e7 3.962964905232427e6 0.0
0.0 0.0 0.0

-2.1848383995215125e7 1.0460512396798665e7 0.0
1.0460512396798665e7 3.4862742709450284e6 0.0
0.0 0.0 0.0

6.398749955686351e6 6.24547412267117e6 0.0
6.24547412267117e6 -1.9883624550720572e7 0.0
0.0 0.0 0.0

-5.454407298747465e6 1.2197387703882068e7 0.0
1.2197387703882068e7 2.719330313622231e6 0.0
0.0 0.0 0.0

-6.803495369499426e6 1.1987228137515051e7 0.0
1.1987228137515051e7 7.41012647940214e6 0.0
0.0 0.0 0.0

1.4655901925840965e6 1.134073687531342e7 0.0
1.134073687531342e7 6.221509759865791e6 0.0
0.0 0.0 0.0

1.054252048876672e6 1.0794502806720315e7 0.0
1.0794502806720315e7 -1.0299940810636666e7 0.0
0.0 0.0 0.0

786547.747527163 1.0897575948597355e7 0.0
1.0897575948597355e7 -1.0588703458963513e7 0.0
0.0 0.0 0.0

-3.892327273415083e6 1.3201934356405824e7 0.0
1.3201934356405824e7 -1.839722918669548e6 0.0
0.0 0.0 0.0

-7.047759270135289e6 1.5089202575912222e7 0.0
1.5089202575912222e7 4.684850727178598e6 0.0
0.0 0.0 0.0

-1.0835272106632264e7 4.040673411690953e6 0.0
4.040673411690953e6 1.4310148784316279e7 0.0
0.0 0.0 0.0

5.98894718937444e6 5.671309078151872e6 0.0
5.671309078151872e6 -1.7119984198517937e7 0.0
0.0 0.0 0.0

-1.097155049276458e7 1.491991390325271e7 0.0
1.491991390325271e7 8.606508217857588e6 0.0
0.0 0.0 0.0

2.4767983276214646e6 5.982870472802675e6 0.0
5.982870472802675e6 -7.925544474019577e6 0.0
0.0 0.0 0.0

711096.7200154588 1.1100615830530088e7 0.0
1.1100615830530088e7 -8.717754155837297e6 0.0
0.0 0.0 0.0

6.073138535545194e6 5.828871926183771e6 0.0
5.828871926183771e6 -1.7606735530874252e7 0.0
0.0 0.0 0.0

648473.4019711828 1.1002668868140338e7 0.0
1.1002668868140338e7 -1.0067247666815657e7 0.0
0.0 0.0 0.0

-1.1954816002486113e7 2.0265386642009753e6 0.0
2.0265386642009753e6 1.5945281548492994e7 0.0
0.0 0.0 0.0

1.4037449738763438e6 6.557346481713929e6 0.0
6.557346481713929e6 -3.8494464177102656e6 0.0
0.0 0.0 0.0

-3.450723042220499e6 9.532381488942528e6 0.0
9.532381488942528e6 174161.35757183237 0.0
0.0 0.0 0.0

-1.7912270864456964e6 1.297414241697211e7 0.0
1.297414241697211e7 5.416713277868725e6 0.0
0.0 0.0 0.0

5.046046040438649e6 5.165298073706326e6 0.0
5.165298073706326e6 -1.3688084688327655e7 0.0
0.0 0.0 0.0

-6.231757786872298e6 1.3404548106406394e7 0.0
1.3404548106406394e7 6.129623392467697e6 0.0
0.0 0.0 0.0

-6.336766594114449e6 -3.1956656364270276e6 0.0
-3.1956656364270276e6 1.0582822610931538e7 0.0
0.0 0.0 0.0

758683.9018645491 9.646867714605236e6 0.0
9.646867714605236e6 -3.026862409464039e6 0.0
0.0 0.0 0.0

1.5211043442902463e6 9.503635088000167e6 0.0
9.503635088000167e6 -1.0230184143675368e7 0.0
0.0 0.0 0.0

-4.743742969506703e6 1.184351248433745e7 0.0
1.184351248433745e7 6.4546988216961175e6 0.0
0.0 0.0 0.0

-3.9950775027912064e6 1.3078976414258976e7 0.0
1.3078976414258976e7 8.361324640873339e6 0.0
0.0 0.0 0.0

-598507.4938866381 1.1777049039978983e7 0.0
1.1777049039978983e7 -2.1101798089981945e6 0.0
0.0 0.0 0.0

-3.274419108241079e6 1.3073339603222126e7 0.0
1.3073339603222126e7 -1.6694068983629954e6 0.0
0.0 0.0 0.0

-6.493791877987133e6 1.304049891933602e7 0.0
1.304049891933602e7 4.620489557180274e6 0.0
0.0 0.0 0.0

-533141.2900371923 1.2293697010512233e7 0.0
1.2293697010512233e7 -1.7843499873155486e6 0.0
0.0 0.0 0.0

6.276156447668438e6 5.903337295256123e6 0.0
5.903337295256123e6 -2.0678986729897158e6 0.0
0.0 0.0 0.0

-1.0467318239880472e7 -7.77909854884319e6 0.0
-7.77909854884319e6 2.5429774691374883e7 0.0
0.0 0.0 0.0

-382024.67985337554 1.0513076277110735e7 0.0
1.0513076277110735e7 4.758398628458755e6 0.0
0.0 0.0 0.0

-6.587058773200398e6 -8.518944447918603e6 0.0
-8.518944447918603e6 1.7693784544747986e7 0.0
0.0 0.0 0.0

-660313.5603014249 1.2386959464382123e7 0.0
1.2386959464382123e7 -917134.1568195634 0.0
0.0 0.0 0.0

-1.3471545370901313e7 5.058637014334989e6 0.0
5.058637014334989e6 1.9996586492492218e7 0.0
0.0 0.0 0.0

-3.242607826058118e6 9.463811135958433e6 0.0
9.463811135958433e6 880784.3342865517 0.0
0.0 0.0 0.0

2.713313200788077e6 5.8150438694505e6 0.0
5.8150438694505e6 -4.25582765410541e6 0.0
0.0 0.0 0.0

2.0774468380925846e6 6.093059741658886e6 0.0
6.093059741658886e6 -3.5671701656864416e6 0.0
0.0 0.0 0.0

-865328.0900893505 1.2682076470063992e7 0.0
1.2682076470063992e7 -5.61316404712228e6 0.0
0.0 0.0 0.0

-3.047955408996614e6 1.288379004075815e7 0.0
1.288379004075815e7 -115687.34634887043 0.0
0.0 0.0 0.0

-298380.0566497382 1.2860542760898495e7 0.0
1.2860542760898495e7 -5.947672869461587e6 0.0
0.0 0.0 0.0

-1.1288831451891847e7 3.228049638250259e6 0.0
3.228049638250259e6 1.3340607919137936e7 0.0
0.0 0.0 0.0

539155.5119123342 1.0762066644973375e7 0.0
1.0762066644973375e7 -8.437015982650436e6 0.0
0.0 0.0 0.0

2.0024370973355994e6 9.378841327475192e6 0.0
9.378841327475192e6 -1.134071211952793e7 0.0
0.0 0.0 0.0

-5.952155178998631e6 1.3351731875905586e7 0.0
1.3351731875905586e7 5.974527787872063e6 0.0
0.0 0.0 0.0

1.2764818079052581e6 9.439558744405352e6 0.0
9.439558744405352e6 -9.52768090591982e6 0.0
0.0 0.0 0.0

-4.782977195796934e7 1.7371668273351587e7 0.0
1.7371668273351587e7 7.346740982405644e6 0.0
0.0 0.0 0.0

-393805.2974315847 1.1014220624908213e7 0.0
1.1014220624908213e7 -7.122295533126272e6 0.0
0.0 0.0 0.0

-9.907661890656253e6 1.7412188489903275e7 0.0
1.7412188489903275e7 6.988579512608273e6 0.0
0.0 0.0 0.0

-578501.796159519 8.937523741512606e6 0.0
8.937523741512606e6 365602.07690138556 0.0
0.0 0.0 0.0

-6.325277176391739e6 1.0975558527810814e7 0.0
1.0975558527810814e7 7.963233893824998e6 0.0
0.0 0.0 0.0

-2.950759212792833e6 1.269782308837962e7 0.0
1.269782308837962e7 -650045.9269818156 0.0
0.0 0.0 0.0

-4.826159010299423e6 2.0368079670934822e7 0.0
2.0368079670934822e7 -1.4747822245278577e6 0.0
0.0 0.0 0.0

-6.293697667918688e6 -8.489310693741981e6 0.0
-8.489310693741981e6 1.4142434161836036e7 0.0
0.0 0.0 0.0

4.793459088033432e6 5.2043954613012485e6 0.0
5.2043954613012485e6 -1.2935935606226498e7 0.0
0.0 0.0 0.0

-3.7672812236701804e6 1.2877099583766928e7 0.0
1.2877099583766928e7 -428564.49988037185 0.0
0.0 0.0 0.0

-867529.7854482797 2.4850052473965213e6 0.0
2.4850052473965213e6 -672878.4306775767 0.0
0.0 0.0 0.0

5.651198362159219e6 5.517805149782071e6 0.0
5.517805149782071e6 -1.5641556520930795e7 0.0
0.0 0.0 0.0

-9.763308988512998e6 -8.352668574066901e6 0.0
-8.352668574066901e6 2.4033917132653207e7 0.0
0.0 0.0 0.0

-4.584449365404686e6 -3.3482313947174624e6 0.0
-3.3482313947174624e6 7.48517846841207e6 0.0
0.0 0.0 0.0

365203.51137968455 9.462245545106536e6 0.0
9.462245545106536e6 -5.23418099178116e6 0.0
0.0 0.0 0.0

-5.966537229897981e6 -8.0506983195251655e6 0.0
-8.0506983195251655e6 1.4668668536572408e7 0.0
0.0 0.0 0.0

4.89551648187289e6 5.234510019876086e6 0.0
5.234510019876086e6 -1.3247837314170165e7 0.0
0.0 0.0 0.0

5.572506353880657e6 5.528530226602911e6 0.0
5.528530226602911e6 -1.5156682460285582e7 0.0
0.0 0.0 0.0

-8.892356114105882e6 -8.824471429100843e6 0.0
-8.824471429100843e6 2.2404826852839712e7 0.0
0.0 0.0 0.0

-3.1150712944602943e6 1.1332351402330525e7 0.0
1.1332351402330525e7 -1.4063281031065849e6 0.0
0.0 0.0 0.0

-797737.1052219993 1.2396078697124984e7 0.0
1.2396078697124984e7 -5.81870874451177e6 0.0
0.0 0.0 0.0

-6.263920490718666e6 1.3289809526247114e7 0.0
1.3289809526247114e7 5.0183574982660245e6 0.0
0.0 0.0 0.0

5.483681352041012e6 5.493237135783943e6 0.0
5.493237135783943e6 -1.4848778271711051e7 0.0
0.0 0.0 0.0

-8.11426665578668e6 -8.96085784559894e6 0.0
-8.96085784559894e6 2.054215232101199e7 0.0
0.0 0.0 0.0

697061.4314829756 9.67006800728697e6 0.0
9.67006800728697e6 -4.877705532531212e6 0.0
0.0 0.0 0.0

1.4838599236398358e6 9.776616835806392e6 0.0
9.776616835806392e6 -9.010230478442727e6 0.0
0.0 0.0 0.0

-4.730936894006037e6 1.3428608215814475e7 0.0
1.3428608215814475e7 1.3965397007579529e6 0.0
0.0 0.0 0.0

-3.8513178891547928e6 1.0818563658490187e7 0.0
1.0818563658490187e7 110719.06307402649 0.0
0.0 0.0 0.0

-7.145751093281407e6 1.1532834110958783e7 0.0
1.1532834110958783e7 9.146833924075957e6 0.0
0.0 0.0 0.0

-7.329489410655909e6 -8.696485135043593e6 0.0
-8.696485135043593e6 1.885755733607441e7 0.0
0.0 0.0 0.0

5.386736741297367e6 5.422384756910228e6 0.0
5.422384756910228e6 -1.4430188277404852e7 0.0
0.0 0.0 0.0

-5.53750210727172e6 1.584880510718224e7 0.0
1.584880510718224e7 42679.2930085822 0.0
0.0 0.0 0.0

-6.33670695377649e6 1.3152646908035668e7 0.0
1.3152646908035668e7 1.5888425007893357e7 0.0
0.0 0.0 0.0

1.6064751815933356e7 3.154252563703789e7 0.0
3.154252563703789e7 -2.9432186084573448e7 0.0
0.0 0.0 0.0

-218894.47181502427 7.731120671715012e6 0.0
7.731120671715012e6 -4.496134376034558e6 0.0
0.0 0.0 0.0

-6.634496838311472e6 1.4647086963846758e7 0.0
1.4647086963846758e7 4.706381117899457e6 0.0
0.0 0.0 0.0

-478581.3411200971 4.340219764275134e6 0.0
4.340219764275134e6 -1.7046680042234783e6 0.0
0.0 0.0 0.0

-6.22792708259112e6 1.3537579842512444e7 0.0
1.3537579842512444e7 4.845470866509159e6 0.0
0.0 0.0 0.0

1.8723276038892854e6 4.55332426052894e6 0.0
4.55332426052894e6 -5.560813035850486e6 0.0
0.0 0.0 0.0

-1.185805411419886e6 1.578873294320448e7 0.0
1.578873294320448e7 -4.314017983489857e6 0.0
0.0 0.0 0.0

-2.622244300487438e6 1.427788368267535e7 0.0
1.427788368267535e7 -2.6625678708243747e6 0.0
0.0 0.0 0.0

-6.904389058695717e6 8.1216254766129e6 0.0
8.1216254766129e6 5.480933976169558e6 0.0
0.0 0.0 0.0

-620164.0059555012 1.2580891686313145e7 0.0
1.2580891686313145e7 -989999.4645307402 0.0
0.0 0.0 0.0

-1.0449490690463478e7 -5.099603525294856e6 0.0
-5.099603525294856e6 3.379259392257905e7 0.0
0.0 0.0 0.0

1.6455768215380223e6 6.554439147665442e6 0.0
6.554439147665442e6 -3.980132422154421e6 0.0
0.0 0.0 0.0

-1.8558413129086725e6 -1.6079385733341598e6 0.0
-1.6079385733341598e6 779313.4301344702 0.0
0.0 0.0 0.0

746830.1880312896 -2.4522993720186334e6 0.0
-2.4522993720186334e6 -1.4622863772461012e6 0.0
0.0 0.0 0.0

-2.3744512069626246e6 1.4528449951457433e7 0.0
1.4528449951457433e7 -2.8872382839027448e6 0.0
0.0 0.0 0.0

525973.9658595733 1.1503180741183985e7 0.0
1.1503180741183985e7 -1.441963022738677e7 0.0
0.0 0.0 0.0

-2.0585098219379736e6 1.3051558351430563e7 0.0
1.3051558351430563e7 5.862333853701913e6 0.0
0.0 0.0 0.0

-1.1578263356156033e6 1.1729977769697992e7 0.0
1.1729977769697992e7 -2.7782782461001403e6 0.0
0.0 0.0 0.0

3.3693675650073197e6 5.410257537975417e6 0.0
5.410257537975417e6 -9.670852942565506e6 0.0
0.0 0.0 0.0

-784965.0788189451 8.495063764904436e6 0.0
8.495063764904436e6 -4.659285268924014e6 0.0
0.0 0.0 0.0

581181.922571654 1.2106638205893965e7 0.0
1.2106638205893965e7 -7.292061906734947e6 0.0
0.0 0.0 0.0

917955.682768668 1.065710185538294e7 0.0
1.065710185538294e7 -1.2253221326803045e7 0.0
0.0 0.0 0.0

-4.992327725333242e6 1.387219569094813e7 0.0
1.387219569094813e7 1.5705780228781048e6 0.0
0.0 0.0 0.0

-5.527585405308967e6 1.1376798869339177e7 0.0
1.1376798869339177e7 7.586253681660311e6 0.0
0.0 0.0 0.0

-17090.609681800706 8.891906135187928e6 0.0
8.891906135187928e6 -4.401285108836356e6 0.0
0.0 0.0 0.0

206523.00103458855 9.580851754172469e6 0.0
9.580851754172469e6 -1.3543740169973632e6 0.0
0.0 0.0 0.0

-644573.9401119929 1.0433025528107606e7 0.0
1.0433025528107606e7 -9.601126647856466e6 0.0
0.0 0.0 0.0

-1.4968242596899915e7 1.2202316630121179e7 0.0
1.2202316630121179e7 9.419726086217865e6 0.0
0.0 0.0 0.0

-6.400931359671406e6 2.1494995011305828e7 0.0
2.1494995011305828e7 446069.8530749902 0.0
0.0 0.0 0.0

1.9224772804211362e6 5.50944115955196e6 0.0
5.50944115955196e6 -3.039183443059707e6 0.0
0.0 0.0 0.0

2.6995277904255176e6 5.1665656325868005e6 0.0
5.1665656325868005e6 -3.993479500196705e6 0.0
0.0 0.0 0.0

-5.420982485798867e6 1.2030111154128984e7 0.0
1.2030111154128984e7 6.948028141188489e6 0.0
0.0 0.0 0.0

-4.0186303830762263e6 1.230936705777728e7 0.0
1.230936705777728e7 -562624.0877008423 0.0
0.0 0.0 0.0

-6.883351710099816e6 1.5143331887014845e7 0.0
1.5143331887014845e7 5.226005164477874e6 0.0
0.0 0.0 0.0

-6.254642555609844e6 1.3757284958579494e7 0.0
1.3757284958579494e7 4.750696927742957e6 0.0
0.0 0.0 0.0

2.629766762595375e6 1.0313859368297886e7 0.0
1.0313859368297886e7 1.8377486364144452e6 0.0
0.0 0.0 0.0

1.933417634823949e6 1.1851209752451295e7 0.0
1.1851209752451295e7 -5.551003667792861e6 0.0
0.0 0.0 0.0

-5.898086901902609e6 1.2870250994964024e7 0.0
1.2870250994964024e7 1.6422327166770576e7 0.0
0.0 0.0 0.0

-1.857463916798367e7 1.4713599515193831e7 0.0
1.4713599515193831e7 2.612594129265379e6 0.0
0.0 0.0 0.0

-5.589374671067888e7 2.0968300166176517e7 0.0
2.0968300166176517e7 1.9310644734188035e7 0.0
0.0 0.0 0.0

-5.492320962975757e6 7.582777387883e6 0.0
7.582777387883e6 3.440968132766078e6 0.0
0.0 0.0 0.0

-3.4150529131465433e6 1.2371383312622365e7 0.0
1.2371383312622365e7 4.575131765241206e6 0.0
0.0 0.0 0.0

2.3257583741077827e6 5.914313789709654e6 0.0
5.914313789709654e6 -8.366602412859807e6 0.0
0.0 0.0 0.0

-7.510076043993213e6 8.852455430233754e6 0.0
8.852455430233754e6 9.13470372177982e6 0.0
0.0 0.0 0.0

195187.68020780373 2.97571243074969e6 0.0
2.97571243074969e6 -1.9202217573721735e6 0.0
0.0 0.0 0.0

-1.606568461281065e6 1.1087696671792572e7 0.0
1.1087696671792572e7 6.426505268802633e6 0.0
0.0 0.0 0.0

1.219102300339695e6 1.0602642759942155e7 0.0
1.0602642759942155e7 -1.2553999909627294e7 0.0
0.0 0.0 0.0

3.688452401636164e6 6.064573064384744e6 0.0
6.064573064384744e6 -1.0363739459661527e7 0.0
0.0 0.0 0.0

1.9850967141514348e6 9.823756788532982e6 0.0
9.823756788532982e6 179224.0862721441 0.0
0.0 0.0 0.0

-9.094876647683294e6 405792.93519153714 0.0
405792.93519153714 4.772794010362922e7 0.0
0.0 0.0 0.0

-7.028003032747899e6 1.4443430614618149e7 0.0
1.4443430614618149e7 6.18173514579441e6 0.0
0.0 0.0 0.0

-7.94384213098405e6 1.2236413348760672e7 0.0
1.2236413348760672e7 2.4820699749539597e6 0.0
0.0 0.0 0.0

-2.392300959394645e6 1.372389949027834e7 0.0
1.372389949027834e7 -3.298629512270618e6 0.0
0.0 0.0 0.0

-2.531379263285407e6 -1.0088512784705166e6 0.0
-1.0088512784705166e6 4.749054049258826e6 0.0
0.0 0.0 0.0

-1.21782948922813e6 8.597887487717936e6 0.0
8.597887487717936e6 848431.2668598653 0.0
0.0 0.0 0.0

-5.810388322590295e6 -6.126023917816973e6 0.0
-6.126023917816973e6 1.1897008187757317e7 0.0
0.0 0.0 0.0

1.8762094936238285e6 1.0555932501457661e7 0.0
1.0555932501457661e7 -341073.82653641957 0.0
0.0 0.0 0.0

-4.3157551041045915e6 1.1777422023257026e7 0.0
1.1777422023257026e7 1.6109125010976805e6 0.0
0.0 0.0 0.0

4.132028197565822e6 5.722544557715165e6 0.0
5.722544557715165e6 -1.1004720086858114e7 0.0
0.0 0.0 0.0

-3.7354128311803327e6 1.1844235386237714e7 0.0
1.1844235386237714e7 -482979.8353439411 0.0
0.0 0.0 0.0

3.151190612721283e6 5.239247041644718e6 0.0
5.239247041644718e6 -8.493736381012652e6 0.0
0.0 0.0 0.0

365370.5129944682 1.1049081689312886e7 0.0
1.1049081689312886e7 -8.743859153254092e6 0.0
0.0 0.0 0.0

-1.019486687200862e7 1.6207471348478062e7 0.0
1.6207471348478062e7 8.221413273481286e6 0.0
0.0 0.0 0.0

-529328.5956850329 7.132016400992673e6 0.0
7.132016400992673e6 -2.568967488179277e6 0.0
0.0 0.0 0.0

-3.5223224162996914e6 1.3021249533394827e7 0.0
1.3021249533394827e7 -2.478532303778991e6 0.0
0.0 0.0 0.0

-8.588324679391123e6 1.5933395615067841e7 0.0
1.5933395615067841e7 6.659892998494366e6 0.0
0.0 0.0 0.0

-6.294577145105217e6 1.3079217678853616e7 0.0
1.3079217678853616e7 5.286368203825889e6 0.0
0.0 0.0 0.0

-6.396610842646269e6 1.348659368914791e7 0.0
1.348659368914791e7 4.307193464848556e6 0.0
0.0 0.0 0.0

-7.972267903294465e6 1.6576838994867153e7 0.0
1.6576838994867153e7 5.084475305081276e6 0.0
0.0 0.0 0.0

-2.475110377432282e6 1.2764400598516993e7 0.0
1.2764400598516993e7 -2.984846140393856e6 0.0
0.0 0.0 0.0

-1.0523184004217297e7 1.7680584876671217e7 0.0
1.7680584876671217e7 7.514054571346101e6 0.0
0.0 0.0 0.0

-4.378552853355804e6 5.813694673894809e6 0.0
5.813694673894809e6 2.433166189072589e6 0.0
0.0 0.0 0.0

234307.6254886682 9.027263291129876e6 0.0
9.027263291129876e6 -6.358892476951275e6 0.0
0.0 0.0 0.0

-3.018808529952151e6 1.5308288359078804e6 0.0
1.5308288359078804e6 1.9152677640810143e6 0.0
0.0 0.0 0.0

-6.288659155033293e6 1.3228463568457369e7 0.0
1.3228463568457369e7 4.784142892328894e6 0.0
0.0 0.0 0.0

-9.786782116074959e6 -6.51376874948475e6 0.0
-6.51376874948475e6 2.0006712434573445e7 0.0
0.0 0.0 0.0

-6.093043920052911e6 1.620232627154592e7 0.0
1.620232627154592e7 891162.025407521 0.0
0.0 0.0 0.0

847573.7884455929 1.0946949765504284e7 0.0
1.0946949765504284e7 -8.598874343151644e6 0.0
0.0 0.0 0.0

-1.2569678699411433e6 9.953557643616375e6 0.0
9.953557643616375e6 1.9415431296651214e6 0.0
0.0 0.0 0.0

-1.5301281046885308e6 9.579218964590661e6 0.0
9.579218964590661e6 -3.6764525412807055e6 0.0
0.0 0.0 0.0

2.1329855484601636e6 9.92736064320172e6 0.0
9.92736064320172e6 -1.1316126000366988e7 0.0
0.0 0.0 0.0

1.9410115538534983e6 4.686456168154939e6 0.0
4.686456168154939e6 -6.748949904386196e6 0.0
0.0 0.0 0.0

-1.9538153046592106e6 1.470576816128292e7 0.0
1.470576816128292e7 -3.2007066566354334e6 0.0
0.0 0.0 0.0

-689311.0372679598 1.2234983750297274e7 0.0
1.2234983750297274e7 403584.136741725 0.0
0.0 0.0 0.0

-3.5075669306117855e6 1.0583277215971839e7 0.0
1.0583277215971839e7 -402351.7513027771 0.0
0.0 0.0 0.0

5.857671181e6 5.573668915767765e6 0.0
5.573668915767765e6 -1.6577555241728263e7 0.0
0.0 0.0 0.0

-3.900677305610397e6 3.114823883936743e6 0.0
3.114823883936743e6 3.789603476916807e6 0.0
0.0 0.0 0.0

5.437256604499245e6 6.363934748818194e6 0.0
6.363934748818194e6 -1.6610813602473794e7 0.0
0.0 0.0 0.0

-431068.232560969 2.0159571179210194e6 0.0
2.0159571179210194e6 -744524.6979591504 0.0
0.0 0.0 0.0

-4.455434137804344e6 1.1613545969755176e7 0.0
1.1613545969755176e7 896229.2080529605 0.0
0.0 0.0 0.0

-595945.3390621502 1.2303589358995734e7 0.0
1.2303589358995734e7 -160208.8001243063 0.0
0.0 0.0 0.0

-517197.0228889406 9.688214648955373e6 0.0
9.688214648955373e6 413587.84778314614 0.0
0.0 0.0 0.0

-5.137020118543755e6 7.624955949149512e6 0.0
7.624955949149512e6 4.620528383846516e6 0.0
0.0 0.0 0.0

-4.425330672335332e6 -3.6666251864167177e6 0.0
-3.6666251864167177e6 7.484003967254262e6 0.0
0.0 0.0 0.0

-2.901008694676356e6 1.549044370225876e7 0.0
1.549044370225876e7 -1.8166468820860884e6 0.0
0.0 0.0 0.0

-5.0593027296965085e6 1.2064223415293416e7 0.0
1.2064223415293416e7 8.256762979879746e6 0.0
0.0 0.0 0.0

2.141531538153099e6 7.276625710732796e6 0.0
7.276625710732796e6 -9.231249651968976e6 0.0
0.0 0.0 0.0

-5.839821915104587e6 -2.950560012643057e6 0.0
-2.950560012643057e6 1.0345973799742617e7 0.0
0.0 0.0 0.0

-2.705745349366125e6 1.0419919920461781e7 0.0
1.0419919920461781e7 4.928396756856104e6 0.0
0.0 0.0 0.0

-9.339400665978314e6 1.0192987653875832e7 0.0
1.0192987653875832e7 1.6916864739542898e7 0.0
0.0 0.0 0.0

-1.7098945806491855e6 1.0634464262240214e7 0.0
1.0634464262240214e7 5.493795520516774e6 0.0
0.0 0.0 0.0

815268.8229642706 1.1143829121500222e7 0.0
1.1143829121500222e7 -1.4204363293671431e7 0.0
0.0 0.0 0.0

-6.199331828878688e6 1.130896516577283e7 0.0
1.130896516577283e7 8.254931750196978e6 0.0
0.0 0.0 0.0

-2.359421184900375e6 1.1934421598590944e7 0.0
1.1934421598590944e7 4.259763063614672e6 0.0
0.0 0.0 0.0

-752957.5548253072 1.2997170686588496e7 0.0
1.2997170686588496e7 -5.506979499870741e6 0.0
0.0 0.0 0.0

-1.1181592525641425e6 1.2868542276944894e7 0.0
1.2868542276944894e7 -1.304012719923263e6 0.0
0.0 0.0 0.0

3.7925011583815506e6 7.7519847504113745e6 0.0
7.7519847504113745e6 -1.4035228778700769e7 0.0
0.0 0.0 0.0

4.0794423795412704e6 7.45751607996453e6 0.0
7.45751607996453e6 -1.4550074159742456e7 0.0
0.0 0.0 0.0

-1.0118158443478437e6 9.487300798650792e6 0.0
9.487300798650792e6 -3.537085100095483e6 0.0
0.0 0.0 0.0

-9.764565503320837e6 8.142385869763603e6 0.0
8.142385869763603e6 1.2479496015220143e7 0.0
0.0 0.0 0.0

-1.4133154163299846e6 1.2492407927871767e7 0.0
1.2492407927871767e7 -5.909367549625333e6 0.0
0.0 0.0 0.0

-1.1362040402541835e7 -2.3881993668910544e6 0.0
-2.3881993668910544e6 3.1640933212215528e7 0.0
0.0 0.0 0.0

794748.5558202001 7.291534515148489e6 0.0
7.291534515148489e6 -8.005432488457413e6 0.0
0.0 0.0 0.0

-5.296704825098753e6 1.028144504570445e7 0.0
1.028144504570445e7 3.946962433524202e7 0.0
0.0 0.0 0.0

5.7373725158854835e6 5.624921866676325e6 0.0
5.624921866676325e6 -1.6028987674180795e7 0.0
0.0 0.0 0.0

-2.934646510101092e6 1.3385095611578956e7 0.0
1.3385095611578956e7 -2.618294380148053e6 0.0
0.0 0.0 0.0

-3.0723199298529685e6 1.0741707460017268e7 0.0
1.0741707460017268e7 6.037738827696464e6 0.0
0.0 0.0 0.0

-228548.78815647354 1.1420191159727227e7 0.0
1.1420191159727227e7 -1.3103969856033204e7 0.0
0.0 0.0 0.0

-631700.5646792346 7.654855787697018e6 0.0
7.654855787697018e6 2.7100529197287997e6 0.0
0.0 0.0 0.0

-955454.767868628 1.2502293402997961e7 0.0
1.2502293402997961e7 -1.9642148835696478e6 0.0
0.0 0.0 0.0

-3.7600512401840473e6 1.0861854101288706e7 0.0
1.0861854101288706e7 6.126285431734592e6 0.0
0.0 0.0 0.0

-6.497889601300299e6 1.1528070864989055e7 0.0
1.1528070864989055e7 6.0372454489892945e6 0.0
0.0 0.0 0.0

-3.9865221989556244e6 1.2353962172234984e7 0.0
1.2353962172234984e7 5.160655677401515e6 0.0
0.0 0.0 0.0

104477.79538370948 8.312348323245884e6 0.0
8.312348323245884e6 -5.830926898783026e6 0.0
0.0 0.0 0.0

-1.024419316171638e7 6.817359867739748e6 0.0
6.817359867739748e6 1.170906499270771e7 0.0
0.0 0.0 0.0

1.1404413595982436e6 1.0820597610686941e7 0.0
1.0820597610686941e7 -1.3765234959186275e7 0.0
0.0 0.0 0.0

-1.0384797125963129e6 1.2141226773857873e7 0.0
1.2141226773857873e7 -2.389336631645157e6 0.0
0.0 0.0 0.0

-3.7807598737362074e6 1.3031820619640071e7 0.0
1.3031820619640071e7 2.707933823380423e6 0.0
0.0 0.0 0.0

-28326.48300631158 7.778666773415279e6 0.0
7.778666773415279e6 -4.477484278139294e6 0.0
0.0 0.0 0.0

-1.2470772613321029e7 2.334201289217335e6 0.0
2.334201289217335e6 4.429376100832909e7 0.0
0.0 0.0 0.0

105265.27524724882 1.1877883630300583e7 0.0
1.1877883630300583e7 -1.4629866115660222e7 0.0
0.0 0.0 0.0

-6.632757837125147e6 1.1748788266034303e7 0.0
1.1748788266034303e7 9.467393503946627e6 0.0
0.0 0.0 0.0

-7.261423170248916e6 1.5397296987557936e7 0.0
1.5397296987557936e7 4.94271747198659e6 0.0
0.0 0.0 0.0

2.1110573436032753e6 1.3394864730828915e7 0.0
1.3394864730828915e7 5.29089645763015e6 0.0
0.0 0.0 0.0

-6.688555736876459e6 1.2295229497166436e7 0.0
1.2295229497166436e7 1.2469059789504372e7 0.0
0.0 0.0 0.0

-6.247123671281632e6 1.1857720203981789e7 0.0
1.1857720203981789e7 7.7456015604806375e6 0.0
0.0 0.0 0.0

-104620.11860576877 9.534647073538393e6 0.0
9.534647073538393e6 -6.131752349805245e6 0.0
0.0 0.0 0.0

-1.5963437086078576e6 1.1825169900407307e7 0.0
1.1825169900407307e7 -2.3029222120352e6 0.0
0.0 0.0 0.0

-6.962659558010242e6 9.275089185583025e6 0.0
9.275089185583025e6 5.51684547165038e6 0.0
0.0 0.0 0.0

-6.255515107586868e6 8.61292050888198e6 0.0
8.61292050888198e6 6.304745414528768e6 0.0
0.0 0.0 0.0

3.5904492194237425e6 5.781862662211372e6 0.0
5.781862662211372e6 -1.0438022550661627e7 0.0
0.0 0.0 0.0

-6.341758666365275e6 1.349929900779677e7 0.0
1.349929900779677e7 6.27099305787469e6 0.0
0.0 0.0 0.0

-126072.2999128655 8.0005290980373025e6 0.0
8.0005290980373025e6 -3.7938278796140887e6 0.0
0.0 0.0 0.0

2.713318623445639e6 5.315397702914131e6 0.0
5.315397702914131e6 -8.304127544889864e6 0.0
0.0 0.0 0.0

-6.009093431464234e6 1.538292165880638e7 0.0
1.538292165880638e7 1.1184357575093172e6 0.0
0.0 0.0 0.0

-4.225667483267615e6 1.1339723384817779e7 0.0
1.1339723384817779e7 7.372835223117942e6 0.0
0.0 0.0 0.0

-1.079304217642459e7 -4.900446502040392e6 0.0
-4.900446502040392e6 2.5806441322241813e7 0.0
0.0 0.0 0.0

88154.0890224732 1.144830456803366e7 0.0
1.144830456803366e7 3.915525455873673e6 0.0
0.0 0.0 0.0

909383.5029562877 1.075444416569865e7 0.0
1.075444416569865e7 1.7586020645103913e6 0.0
0.0 0.0 0.0

470530.7949195332 1.1765932541615095e7 0.0
1.1765932541615095e7 -7.528237071409129e6 0.0
0.0 0.0 0.0

4.50154288971871e6 5.584541319668778e6 0.0
5.584541319668778e6 -1.2687721647026945e7 0.0
0.0 0.0 0.0

-452150.25173488824 1.1333154661636818e7 0.0
1.1333154661636818e7 1.35768802165701e6 0.0
0.0 0.0 0.0

242094.85486693913 1.2050450565264696e7 0.0
1.2050450565264696e7 -7.075270848542902e6 0.0
0.0 0.0 0.0

-1.7025591039183969e6 9.817223088262651e6 0.0
9.817223088262651e6 2.7353111187101104e6 0.0
0.0 0.0 0.0

-2.0827460445808284e6 4.399066108662898e6 0.0
4.399066108662898e6 1.0129223865111332e6 0.0
0.0 0.0 0.0

-78013.64477967046 2.348726061152347e6 0.0
2.348726061152347e6 -1.2682643420864064e6 0.0
0.0 0.0 0.0

-3.0996031329569034e6 1.270366222930704e7 0.0
1.270366222930704e7 1.209828995215145e6 0.0
0.0 0.0 0.0

1.656297875461914e6 1.0120989714874506e7 0.0
1.0120989714874506e7 -9.878259133125246e6 0.0
0.0 0.0 0.0

191603.3640952264 1.056220745566763e7 0.0
1.056220745566763e7 -8.707370205249099e6 0.0
0.0 0.0 0.0

-1.2113616106646286e7 -1.4556981924694835e6 0.0
-1.4556981924694835e6 4.3453953715522155e7 0.0
0.0 0.0 0.0

-1.1412705567632332e7 1.790342200093353e7 0.0
1.790342200093353e7 7.971595577278578e6 0.0
0.0 0.0 0.0

243823.0130917367 6.368648916002981e6 0.0
6.368648916002981e6 -3.840502497471331e6 0.0
0.0 0.0 0.0

-674761.128490245 1.242963223676666e7 0.0
1.242963223676666e7 -620627.9749385824 0.0
0.0 0.0 0.0

-3.064405933076572e6 1.0666745789199872e7 0.0
1.0666745789199872e7 4.502394649603657e6 0.0
0.0 0.0 0.0

-8.337846603148718e6 8.234814227238976e6 0.0
8.234814227238976e6 1.137674256416885e7 0.0
0.0 0.0 0.0

-5.8361752899476215e6 1.2959192677344985e7 0.0
1.2959192677344985e7 3.5650053484880417e6 0.0
0.0 0.0 0.0

-284129.009912472 1.0759274757178448e7 0.0
1.0759274757178448e7 3.0671946277712183e6 0.0
0.0 0.0 0.0

-2.562770412692843e6 1.0705803490941426e7 0.0
1.0705803490941426e7 4.34540820119668e6 0.0
0.0 0.0 0.0

107673.25163504621 1.1749110274770085e7 0.0
1.1749110274770085e7 -7.529954075283623e6 0.0
0.0 0.0 0.0

1.5543214816937665e6 5.888029461652836e6 0.0
5.888029461652836e6 -6.036087314566459e6 0.0
0.0 0.0 0.0

761016.3872098043 1.1673844401286103e7 0.0
1.1673844401286103e7 -8.134836127690457e6 0.0
0.0 0.0 0.0

-2.7203178232240495e6 1.2661856871100731e7 0.0
1.2661856871100731e7 -3.7639018397545656e6 0.0
0.0 0.0 0.0

-5.841358941614665e6 1.2622906880599322e7 0.0
1.2622906880599322e7 4.354625039973188e6 0.0
0.0 0.0 0.0

-1.2293676713027093e6 1.359518103357169e7 0.0
1.359518103357169e7 -4.697459160320954e6 0.0
0.0 0.0 0.0

-1.2241277582578983e6 1.3242721076100454e7 0.0
1.3242721076100454e7 -5.208154131846074e6 0.0
0.0 0.0 0.0

4.330026606634493e6 5.928622737919588e6 0.0
5.928622737919588e6 -1.193290833498018e7 0.0
0.0 0.0 0.0

65175.722250717285 1.0168516204966694e7 0.0
1.0168516204966694e7 1.175705847328203e6 0.0
0.0 0.0 0.0

-3.1455527850509225e6 1.2827228992979003e7 0.0
1.2827228992979003e7 -3.028452503428666e6 0.0
0.0 0.0 0.0

-7.710930414015608e6 6.415625904576298e6 0.0
6.415625904576298e6 7.458998479338328e6 0.0
0.0 0.0 0.0

-3.495241376796473e7 1.803669019316596e7 0.0
1.803669019316596e7 6.486979979346119e6 0.0
0.0 0.0 0.0

1.4631787683434097e7 2.1683917891477205e7 0.0
2.1683917891477205e7 4.87727735282346e7 0.0
0.0 0.0 0.0

-6.746551860935175e6 1.6407761187671863e7 0.0
1.6407761187671863e7 -2.2488563845931105e7 0.0
0.0 0.0 0.0

-5.756654415147763e6 1.10430670478655e7 0.0
1.10430670478655e7 8.107041262437858e6 0.0
0.0 0.0 0.0

773009.7853014306 9.853727847061839e6 0.0
9.853727847061839e6 -8.535197743543154e6 0.0
0.0 0.0 0.0

-2.642306733493555e6 1.2160560866511328e7 0.0
1.2160560866511328e7 -1.146110264957199e6 0.0
0.0 0.0 0.0

-9.103954515805861e6 1.92091527779735e7 0.0
1.92091527779735e7 3.748153099271308e6 0.0
0.0 0.0 0.0

763440.4379598354 1.0983636711653002e7 0.0
1.0983636711653002e7 -9.524180332759505e6 0.0
0.0 0.0 0.0

-1.621826426737969e6 1.3091404535742976e7 0.0
1.3091404535742976e7 -756921.7422518325 0.0
0.0 0.0 0.0

-8.250108400364239e6 7.6608122214931995e6 0.0
7.6608122214931995e6 9.040956390588596e6 0.0
0.0 0.0 0.0

-4.711690634868711e6 1.307254966089865e7 0.0
1.307254966089865e7 1.7443600706685171e6 0.0
0.0 0.0 0.0

961058.952731662 1.0731934848531786e7 0.0
1.0731934848531786e7 -1.1910219197605975e7 0.0
0.0 0.0 0.0

-778492.3659035626 1.2603777373149011e7 0.0
1.2603777373149011e7 -1.4217169696973872e6 0.0
0.0 0.0 0.0

-7.067084725680688e6 1.1899354934794405e7 0.0
1.1899354934794405e7 6.523976175917342e6 0.0
0.0 0.0 0.0

4.490474459964646e6 1.2536169311784836e7 0.0
1.2536169311784836e7 -5.58106518205402e6 0.0
0.0 0.0 0.0

-665939.2782315358 9.291440615697863e6 0.0
9.291440615697863e6 1.289059361061371e6 0.0
0.0 0.0 0.0

-6.215523910060314e6 1.147090560177106e7 0.0
1.147090560177106e7 7.969710605092827e6 0.0
0.0 0.0 0.0

-8.79236599613242e6 1.163851724133668e7 0.0
1.163851724133668e7 1.7265012761921552e6 0.0
0.0 0.0 0.0

-1.0630494116153328e6 9.505884880664924e6 0.0
9.505884880664924e6 1.2189880397862662e6 0.0
0.0 0.0 0.0

-6.106277301626439e6 1.5795688866617266e7 0.0
1.5795688866617266e7 1.2238471817732481e6 0.0
0.0 0.0 0.0

-587662.2530826778 1.5669496447438085e7 0.0
1.5669496447438085e7 -4.145792823782657e6 0.0
0.0 0.0 0.0

671361.1891106651 9.107471114501562e6 0.0
9.107471114501562e6 -6.511478682823663e6 0.0
0.0 0.0 0.0

-7.929686687149073e6 1.0565411846104268e7 0.0
1.0565411846104268e7 1.0520640780459939e7 0.0
0.0 0.0 0.0

97865.59261561465 1.1666687489347547e7 0.0
1.1666687489347547e7 -8.224450668517413e6 0.0
0.0 0.0 0.0

-3.2819278081064993e6 9.85376432305594e6 0.0
9.85376432305594e6 719607.4939368116 0.0
0.0 0.0 0.0

-7.619272656074533e6 9.313000274798855e6 0.0
9.313000274798855e6 6.919421464486748e6 0.0
0.0 0.0 0.0

1.3639323400382486e6 6.4954606671393085e6 0.0
6.4954606671393085e6 -5.238162583175989e6 0.0
0.0 0.0 0.0

-877095.0237088267 1.1761276861969205e7 0.0
1.1761276861969205e7 1.1273835453435364e6 0.0
0.0 0.0 0.0

-3.2535337049915753e6 1.534857473041947e7 0.0
1.534857473041947e7 -2.962131166494137e6 0.0
0.0 0.0 0.0

3.913635119509139e6 9.747738236725643e6 0.0
9.747738236725643e6 -1.7903471453730404e7 0.0
0.0 0.0 0.0

-7.169700838573257e6 6.165789519738732e6 0.0
6.165789519738732e6 6.2585525018332135e6 0.0
0.0 0.0 0.0

-3.6220178393456787e6 2.0825790779902253e7 0.0
2.0825790779902253e7 -3.4882362396073216e6 0.0
0.0 0.0 0.0

4.385564778267941e6 7.403715297645502e6 0.0
7.403715297645502e6 -1.3544245832998034e7 0.0
0.0 0.0 0.0

-746692.6124624441 1.1741744541861964e7 0.0
1.1741744541861964e7 647643.754491244 0.0
0.0 0.0 0.0

-2.888433867208235e6 1.4128039151542954e7 0.0
1.4128039151542954e7 -3.556447084593906e6 0.0
0.0 0.0 0.0

1.1353726105370633e6 1.6106182879862292e7 0.0
1.6106182879862292e7 8.39845427265193e7 0.0
0.0 0.0 0.0

1.470782807061009e6 1.5069818111539004e7 0.0
1.5069818111539004e7 -3.612342667201467e7 0.0
0.0 0.0 0.0

7.735518881571231e6 1.3006591765712555e7 0.0
1.3006591765712555e7 3.2448447868730696e6 0.0
0.0 0.0 0.0

554331.9992235396 1.5280251785281453e7 0.0
1.5280251785281453e7 -5.304141749162929e6 0.0
0.0 0.0 0.0

201097.6014393519 7.552596216344403e6 0.0
7.552596216344403e6 -4.2860557343691755e6 0.0
0.0 0.0 0.0

-696536.3889601448 1.939538302345047e7 0.0
1.939538302345047e7 -4.863082698096695e6 0.0
0.0 0.0 0.0

-3.5893982396051683e6 1.190664257813316e7 0.0
1.190664257813316e7 5.415105581601748e6 0.0
0.0 0.0 0.0

4.0623378750416925e6 1.2263842795198584e7 0.0
1.2263842795198584e7 -5.089292933810246e6 0.0
0.0 0.0 0.0

-6.643742685314712e6 1.2294336071510531e7 0.0
1.2294336071510531e7 5.292494846552622e6 0.0
0.0 0.0 0.0

-4.879130777099749e6 8.07947980257939e6 0.0
8.07947980257939e6 4.1556759376195273e6 0.0
0.0 0.0 0.0

1.5953776424202276e6 6.453920614135019e6 0.0
6.453920614135019e6 -4.012520138027401e6 0.0
0.0 0.0 0.0

-4.85938279622266e6 1.2082219537248638e7 0.0
1.2082219537248638e7 8.833529796905814e6 0.0
0.0 0.0 0.0

-4.563910502190423e6 1.3490345254783846e7 0.0
1.3490345254783846e7 -41137.88769347803 0.0
0.0 0.0 0.0

-6.090940439166407e6 1.0924186347103575e7 0.0
1.0924186347103575e7 8.81830222129725e6 0.0
0.0 0.0 0.0

-6.065863303138994e6 1.3765035988571748e7 0.0
1.3765035988571748e7 5.839339944773486e6 0.0
0.0 0.0 0.0

-6.132424402694372e6 1.2177555050665252e7 0.0
1.2177555050665252e7 5.412436761056707e6 0.0
0.0 0.0 0.0

-152536.216823888 9.11379305291452e6 0.0
9.11379305291452e6 -5.592460857206472e6 0.0
0.0 0.0 0.0

-6.781811456529583e6 1.1940408104052436e7 0.0
1.1940408104052436e7 9.980417459398825e6 0.0
0.0 0.0 0.0

-6.51169466410908e6 1.2844555318848299e7 0.0
1.2844555318848299e7 6.246622006636371e6 0.0
0.0 0.0 0.0

-2.119323247585562e6 7.767566231020408e6 0.0
7.767566231020408e6 -284931.7568817544 0.0
0.0 0.0 0.0

-2.1884675090153404e7 1.3130473233633447e7 0.0
1.3130473233633447e7 8.284489332868837e6 0.0
0.0 0.0 0.0

-1.1492853706404163e7 -1.7151002997606408e6 0.0
-1.7151002997606408e6 2.626584494725362e7 0.0
0.0 0.0 0.0

-6.325203088539399e6 1.372466361826699e7 0.0
1.372466361826699e7 5.314032204285668e6 0.0
0.0 0.0 0.0

-8.610316366646308e6 1.4641995542278089e7 0.0
1.4641995542278089e7 7.069440564817377e6 0.0
0.0 0.0 0.0

1.46954499492097e6 1.0526953137883825e7 0.0
1.0526953137883825e7 -1.1252701183882318e7 0.0
0.0 0.0 0.0

-9.145683747490168e6 1.6764585751098307e7 0.0
1.6764585751098307e7 6.877682999365583e6 0.0
0.0 0.0 0.0

-1.263953015542917e7 1.8346317632860463e7 0.0
1.8346317632860463e7 8.3801810247477805e6 0.0
0.0 0.0 0.0

-1.4245044900083654e7 1.863272030647332e7 0.0
1.863272030647332e7 9.06478689657257e6 0.0
0.0 0.0 0.0

-5.800539880496032e6 1.413365970253823e7 0.0
1.413365970253823e7 2.210560057084491e6 0.0
0.0 0.0 0.0

-1.0868226343137931e7 4.615866120528944e6 0.0
4.615866120528944e6 1.3938191839357562e7 0.0
0.0 0.0 0.0

4.157845576065742e6 5.468422409272349e6 0.0
5.468422409272349e6 -1.1192441238408118e7 0.0
0.0 0.0 0.0

-6.652769549596397e6 1.144051466302572e7 0.0
1.144051466302572e7 8.514122407047382e6 0.0
0.0 0.0 0.0

-6.566890522536932e6 1.6016570213670392e7 0.0
1.6016570213670392e7 2.0046008346726075e6 0.0
0.0 0.0 0.0

645076.3590986254 1.085633746605466e7 0.0
1.085633746605466e7 -9.26358775540291e6 0.0
0.0 0.0 0.0

-8.065215670523903e6 -5.635215410634003e6 0.0
-5.635215410634003e6 1.4179747987783741e7 0.0
0.0 0.0 0.0

-250560.92942658084 1.218682618897981e7 0.0
1.218682618897981e7 -798269.3077615785 0.0
0.0 0.0 0.0

-73837.56694725016 1.2360460177462112e7 0.0
1.2360460177462112e7 -6.68384828560254e6 0.0
0.0 0.0 0.0

652214.5914998134 1.1516425729236497e7 0.0
1.1516425729236497e7 -7.916669812288066e6 0.0
0.0 0.0 0.0

-67024.32967167068 9.657196276599195e6 0.0
9.657196276599195e6 -7.785013514918493e6 0.0
0.0 0.0 0.0

-1.0136736801001248e6 2.491208452401272e6 0.0
2.491208452401272e6 242689.82025111548 0.0
0.0 0.0 0.0

1.133069543855072e6 9.128091754777828e6 0.0
9.128091754777828e6 -3.9187778882083115e6 0.0
0.0 0.0 0.0

734402.8899139094 9.529650199132515e6 0.0
9.529650199132515e6 874918.617883282 0.0
0.0 0.0 0.0

6.041154067164524e6 9.908269856376039e6 0.0
9.908269856376039e6 -1.962583626834217e6 0.0
0.0 0.0 0.0

-1.4097815827454325e7 1.909802721246343e7 0.0
1.909802721246343e7 9.898741081952658e6 0.0
0.0 0.0 0.0

-5.572042085656732e6 8.3050270255632615e6 0.0
8.3050270255632615e6 5.2119926324403165e6 0.0
0.0 0.0 0.0

-828299.2940506907 1.268459554788469e7 0.0
1.268459554788469e7 -1.5732779295552606e7 0.0
0.0 0.0 0.0

3.913079016597258e6 6.952499890279684e6 0.0
6.952499890279684e6 -1.17778820615163e7 0.0
0.0 0.0 0.0

-2.292358955545621e6 -2.0171613953708836e6 0.0
-2.0171613953708836e6 4.442662471507855e6 0.0
0.0 0.0 0.0

-1.282614983262855e7 1.237424007030594e7 0.0
1.237424007030594e7 7.062062259153184e6 0.0
0.0 0.0 0.0

-7.858446795686005e6 1.183873290044542e7 0.0
1.183873290044542e7 890547.6980096553 0.0
0.0 0.0 0.0

390547.8408233151 9.767222788872197e6 0.0
9.767222788872197e6 -6.375577400730118e6 0.0
0.0 0.0 0.0

-6.530564229893968e6 1.5267505112017281e7 0.0
1.5267505112017281e7 3.017796423280723e6 0.0
0.0 0.0 0.0

4.848128295686465e6 7.59914540610612e6 0.0
7.59914540610612e6 -1.7914693197105955e7 0.0
0.0 0.0 0.0

1.0609858450285832e6 1.3649251736294545e7 0.0
1.3649251736294545e7 -5.053079216554784e6 0.0
0.0 0.0 0.0

-398862.92148601334 1.1030101522620102e7 0.0
1.1030101522620102e7 3.724632577106563e6 0.0
0.0 0.0 0.0

1.202392280039378e6 9.700201945846252e6 0.0
9.700201945846252e6 -8.31880043281094e6 0.0
0.0 0.0 0.0

-4.542114545075422e6 1.2284774569329575e7 0.0
1.2284774569329575e7 1.8947163704214313e6 0.0
0.0 0.0 0.0

731597.9918593694 8.880699413469287e6 0.0
8.880699413469287e6 -6.126738500176767e6 0.0
0.0 0.0 0.0

986302.6917647664 9.679262957335912e6 0.0
9.679262957335912e6 -9.040744446001992e6 0.0
0.0 0.0 0.0

629137.6026081741 1.024734830582716e7 0.0
1.024734830582716e7 -8.210573958166857e6 0.0
0.0 0.0 0.0

-7.724274332168637e6 1.4691737575339448e7 0.0
1.4691737575339448e7 6.513019350208269e6 0.0
0.0 0.0 0.0

-2.7565695344071668e6 1.4164460319128942e7 0.0
1.4164460319128942e7 -1.7581972157438684e7 0.0
0.0 0.0 0.0

-2.1745458491069386e6 1.9021054991023395e7 0.0
1.9021054991023395e7 -2.6237642251907033e6 0.0
0.0 0.0 0.0

-2.6675000403541857e6 1.5509753686402906e7 0.0
1.5509753686402906e7 -3.4090189095132784e6 0.0
0.0 0.0 0.0

-7.817933511685649e6 1.564978348489047e7 0.0
1.564978348489047e7 6.1912589271979565e6 0.0
0.0 0.0 0.0

-6.666284394146868e6 1.2733184595261434e7 0.0
1.2733184595261434e7 6.503500266068015e6 0.0
0.0 0.0 0.0

5.103921303416094e6 7.168563296730762e6 0.0
7.168563296730762e6 -1.82025618175642e7 0.0
0.0 0.0 0.0

-5.7512987886050735e6 1.2846915097783191e7 0.0
1.2846915097783191e7 6.6312743741495665e6 0.0
0.0 0.0 0.0

4.862174851842077e6 6.717781674944875e6 0.0
6.717781674944875e6 -1.5737226326274777e7 0.0
0.0 0.0 0.0

-2.6831811979272743e6 1.1604389065727612e7 0.0
1.1604389065727612e7 -2.2163903686676095e6 0.0
0.0 0.0 0.0

-2.328125283001909e6 1.1285492677380146e7 0.0
1.1285492677380146e7 -2.4739863815637613e6 0.0
0.0 0.0 0.0

824063.6087442895 8.93106489304037e6 0.0
8.93106489304037e6 -4.351745938714568e6 0.0
0.0 0.0 0.0

-4.0008075597774093e6 1.1979435204605361e7 0.0
1.1979435204605361e7 5.251644211800272e6 0.0
0.0 0.0 0.0

-5.5537632410386065e6 1.3483435176437384e7 0.0
1.3483435176437384e7 2.185292472355892e6 0.0
0.0 0.0 0.0

-7.062623263504863e6 1.0881508761335054e7 0.0
1.0881508761335054e7 6.893819085642358e6 0.0
0.0 0.0 0.0

-4.685317322792802e6 -3.438784280829555e6 0.0
-3.438784280829555e6 6.148410348112924e6 0.0
0.0 0.0 0.0

3.6931667490520496e6 6.861606969011209e6 0.0
6.861606969011209e6 -1.2479748273201158e7 0.0
0.0 0.0 0.0

2.3378041792962067e6 7.463538185369855e6 0.0
7.463538185369855e6 -1.0043443121170467e7 0.0
0.0 0.0 0.0

-7.536801902830299e6 1.681064893574787e7 0.0
1.681064893574787e7 4.438585545123928e6 0.0
0.0 0.0 0.0

-1.7287772844051837e6 1.2740612025084324e7 0.0
1.2740612025084324e7 -1.6346997957967937e6 0.0
0.0 0.0 0.0

1.8219248241447206e6 1.02525519417095e7 0.0
1.02525519417095e7 -1.128464426066422e7 0.0
0.0 0.0 0.0

-6.493035449292342e6 1.134772974325911e7 0.0
1.134772974325911e7 1.0693517259211013e7 0.0
0.0 0.0 0.0

-2.4168626496867174e6 3.2827008100642445e6 0.0
3.2827008100642445e6 1.853900116816883e6 0.0
0.0 0.0 0.0

-1.5586955389600191e6 1.1539344825371537e7 0.0
1.1539344825371537e7 5.494106094162909e6 0.0
0.0 0.0 0.0

-1.2290038894475572e7 1.3539175264319329e7 0.0
1.3539175264319329e7 9.716939974283936e6 0.0
0.0 0.0 0.0

816757.9996157514 9.888207411935981e6 0.0
9.888207411935981e6 926288.4770362977 0.0
0.0 0.0 0.0

-966707.8181743849 1.1618120231422938e7 0.0
1.1618120231422938e7 2.15389248925242e6 0.0
0.0 0.0 0.0

-7.247349044881033e6 1.461892627940557e7 0.0
1.461892627940557e7 6.228728655544267e6 0.0
0.0 0.0 0.0

-4.613074956532851e6 1.2343115827830762e7 0.0
1.2343115827830762e7 5.9561033220014665e6 0.0
0.0 0.0 0.0

-7.556828902864376e6 1.1512877023820134e7 0.0
1.1512877023820134e7 1.1433812076452587e7 0.0
0.0 0.0 0.0

-6.3098181019847775e6 1.2634230128780497e7 0.0
1.2634230128780497e7 1.7197751885112985e6 0.0
0.0 0.0 0.0

-6.913463806953163e6 1.256343887707066e7 0.0
1.256343887707066e7 2.6992170740237343e6 0.0
0.0 0.0 0.0

-7.733177373083679e6 2.98031617815159e6 0.0
2.98031617815159e6 5.959396960352264e6 0.0
0.0 0.0 0.0

-3.5877224994968854e7 2.0246660979284734e7 0.0
2.0246660979284734e7 1.2257481672457403e7 0.0
0.0 0.0 0.0

4.050955757916028e6 9.967367471293094e6 0.0
9.967367471293094e6 -522655.8077005367 0.0
0.0 0.0 0.0

1.1523098908609264e6 1.0616295568823673e7 0.0
1.0616295568823673e7 -1.1385632981000468e7 0.0
0.0 0.0 0.0

-6.489893261722505e6 1.1836062516987225e7 0.0
1.1836062516987225e7 4.967133085964672e6 0.0
0.0 0.0 0.0

-1.0235041203233934e6 1.2264150095960379e7 0.0
1.2264150095960379e7 -6.533102311377933e6 0.0
0.0 0.0 0.0

1.4673649606267992e7 1.106205404320459e7 0.0
1.106205404320459e7 -1.0328427648750618e6 0.0
0.0 0.0 0.0

869738.6132012992 5.114674688764098e6 0.0
5.114674688764098e6 -2.0306060220956886e6 0.0
0.0 0.0 0.0

1.7753567607789915e6 4.036624973687115e6 0.0
4.036624973687115e6 -6.400157388756544e6 0.0
0.0 0.0 0.0

-2.0900534376243823e6 1.2193492663677167e7 0.0
1.2193492663677167e7 -4.59507811932301e6 0.0
0.0 0.0 0.0

520038.8323547351 9.418988683243608e6 0.0
9.418988683243608e6 -3.463834649235469e6 0.0
0.0 0.0 0.0

-1.0982379094681777e7 -841550.9053637516 0.0
-841550.9053637516 1.8342749845689796e7 0.0
0.0 0.0 0.0

-1.561879778423369e6 1.5745006105929898e7 0.0
1.5745006105929898e7 -3.218268715897997e6 0.0
0.0 0.0 0.0

-1.6828890771602295e7 1.9349113828251548e7 0.0
1.9349113828251548e7 1.0621607894358713e7 0.0
0.0 0.0 0.0

3.80825257732805e6 1.0839800517253714e7 0.0
1.0839800517253714e7 -1.505388078753886e6 0.0
0.0 0.0 0.0

-2.2385407058752184e6 -342019.6522727951 0.0
-342019.6522727951 1.5596607947928656e6 0.0
0.0 0.0 0.0

-1.5102627254556146e7 8.931652392311677e6 0.0
8.931652392311677e6 9.444162390199201e6 0.0
0.0 0.0 0.0

-970141.1602716981 8.50313470979941e6 0.0
8.50313470979941e6 750478.9361871134 0.0
0.0 0.0 0.0

-1.8955388030580368e7 1.9755620009499375e7 0.0
1.9755620009499375e7 1.1437137563472508e7 0.0
0.0 0.0 0.0

-7.724738149150059e6 9.409409806138696e6 0.0
9.409409806138696e6 9.854736585068531e6 0.0
0.0 0.0 0.0

1.808533176822158e6 1.0753045168742742e7 0.0
1.0753045168742742e7 -4.26161874565646e6 0.0
0.0 0.0 0.0

-1.426108871769085e6 1.0431760396603795e7 0.0
1.0431760396603795e7 -9.635401553745393e6 0.0
0.0 0.0 0.0

329857.92304391414 1.0057815878456077e7 0.0
1.0057815878456077e7 -7.256459369992526e6 0.0
0.0 0.0 0.0

1.4110599085259591e6 1.3110734355472002e7 0.0
1.3110734355472002e7 -4.874138858387231e6 0.0
0.0 0.0 0.0

-2.2051212928915815e6 2.3072346269790534e7 0.0
2.3072346269790534e7 -1.4606648559101827e7 0.0
0.0 0.0 0.0

-962587.5614918332 2.6285850268014204e6 0.0
2.6285850268014204e6 846842.4984413303 0.0
0.0 0.0 0.0

-8.796257561416438e6 1.8631397098630007e7 0.0
1.8631397098630007e7 3.4755299398998874e6 0.0
0.0 0.0 0.0

-5.694502505351562e6 1.6175637775657222e7 0.0
1.6175637775657222e7 2.2441585294779968e6 0.0
0.0 0.0 0.0

-8.00944226661044e6 -3.2111908724837094e6 0.0
-3.2111908724837094e6 1.1155252683237199e7 0.0
0.0 0.0 0.0

4.1879984525178657e6 5.426146014940071e6 0.0
5.426146014940071e6 -1.1223185884523522e7 0.0
0.0 0.0 0.0

-6.628071555269693e6 1.3875131109389836e7 0.0
1.3875131109389836e7 6.2437316419613045e6 0.0
0.0 0.0 0.0

-2.8868874446940394e6 1.1378128043117905e7 0.0
1.1378128043117905e7 6.522584496228475e6 0.0
0.0 0.0 0.0

-1.3820619163249005e6 1.0228530134224126e6 0.0
1.0228530134224126e6 2.7595101121502537e6 0.0
0.0 0.0 0.0

-7.347440492810255e6 7.632274278833691e6 0.0
7.632274278833691e6 8.627384291491996e6 0.0
0.0 0.0 0.0

-3.5179999057517443e6 1.1422523004798863e7 0.0
1.1422523004798863e7 7.131722205921443e6 0.0
0.0 0.0 0.0

-1.4878668136466283e6 1.0097290058483886e7 0.0
1.0097290058483886e7 -4.1046515848847628e6 0.0
0.0 0.0 0.0

362886.8678303072 1.0074432876303498e7 0.0
1.0074432876303498e7 -8.415656521437421e6 0.0
0.0 0.0 0.0

-5.842959028942948e6 1.4938060425518218e7 0.0
1.4938060425518218e7 1.2384074252369108e6 0.0
0.0 0.0 0.0

462684.0198816104 4.402318515481256e6 0.0
4.402318515481256e6 -1.456905228112604e6 0.0
0.0 0.0 0.0

-3.6320353143867003e6 1.0591375267910594e7 0.0
1.0591375267910594e7 1.0385064006584878e6 0.0
0.0 0.0 0.0

-8.882509963983461e6 8.527703351707766e6 0.0
8.527703351707766e6 1.1783452653379284e7 0.0
0.0 0.0 0.0

22827.554673045874 9.01814228857628e6 0.0
9.01814228857628e6 -5.089363274300063e6 0.0
0.0 0.0 0.0

-3.017393763059023e6 1.3535897038785748e7 0.0
1.3535897038785748e7 -3.5274394138579676e6 0.0
0.0 0.0 0.0

-9.055333627022713e6 1.9783468541799754e7 0.0
1.9783468541799754e7 5.43995116833682e6 0.0
0.0 0.0 0.0

1.6385598714477154e6 1.0204974320362473e7 0.0
1.0204974320362473e7 -1.1891312734415026e7 0.0
0.0 0.0 0.0

-3.002131126547322e7 1.8347451579716884e7 0.0
1.8347451579716884e7 1.3882906229471518e7 0.0
0.0 0.0 0.0

2.4229530817774357e6 5.892694471676209e6 0.0
5.892694471676209e6 -4.116501675036085e6 0.0
0.0 0.0 0.0

2.1283526671100995e6 6.0762022101972625e6 0.0
6.0762022101972625e6 -4.416925126384867e6 0.0
0.0 0.0 0.0

-883996.1620257478 1.3068338783267558e7 0.0
1.3068338783267558e7 5.160532502734031e6 0.0
0.0 0.0 0.0

-3.687713799560747e6 1.2562502753401296e7 0.0
1.2562502753401296e7 9.031837434888972e6 0.0
0.0 0.0 0.0

-890218.7159253292 1.2082695390305232e7 0.0
1.2082695390305232e7 1.0802490712461965e6 0.0
0.0 0.0 0.0

-6.23014828969625e6 6.723933215989006e6 0.0
6.723933215989006e6 7.0989488510113815e6 0.0
0.0 0.0 0.0

539824.2758535423 4.221972222029327e6 0.0
4.221972222029327e6 -902011.5261656404 0.0
0.0 0.0 0.0

-2.3225734113080455e6 1.250943751765701e7 0.0
1.250943751765701e7 2.4351606817328786e6 0.0
0.0 0.0 0.0

-6.36271292114065e6 1.5025297640855512e7 0.0
1.5025297640855512e7 4.0471969393430836e6 0.0
0.0 0.0 0.0

1.4007496760257985e6 1.0495106876101982e7 0.0
1.0495106876101982e7 -1.2099559490161117e7 0.0
0.0 0.0 0.0

-2.4427832954743034e6 1.2419662575391604e7 0.0
1.2419662575391604e7 7.974651586903778e6 0.0
0.0 0.0 0.0

4.1637314957433646e6 1.0888925482904669e7 0.0
1.0888925482904669e7 56300.01656067395 0.0
0.0 0.0 0.0

-2.078720041666404e7 1.9284910099186804e7 0.0
1.9284910099186804e7 1.3178554271366391e7 0.0
0.0 0.0 0.0

-1.5371337071677425e6 9.53198090724681e6 0.0
9.53198090724681e6 2.9862818728816686e6 0.0
0.0 0.0 0.0

-1.8467650253333156e6 5.835905228088309e6 0.0
5.835905228088309e6 -581356.0944387001 0.0
0.0 0.0 0.0

-1.015045097271736e7 4.759652743218597e6 0.0
4.759652743218597e6 1.1566821925373344e7 0.0
0.0 0.0 0.0

-6.275638736362434e6 1.4611894195855958e7 0.0
1.4611894195855958e7 3.3463732117776223e6 0.0
0.0 0.0 0.0

-5.986130720148919e6 1.2217653178472502e7 0.0
1.2217653178472502e7 1.0823645285729341e7 0.0
0.0 0.0 0.0

-1.353761593212714e7 -1.3107847312736448e6 0.0
-1.3107847312736448e6 2.9848387869664937e7 0.0
0.0 0.0 0.0

-2.367794039425997e6 1.1875217423608247e7 0.0
1.1875217423608247e7 3.413288400884495e6 0.0
0.0 0.0 0.0

-2.415930871003845e6 1.1326775004181866e7 0.0
1.1326775004181866e7 -1.0719583368144244e7 0.0
0.0 0.0 0.0

-4.0010860621268963e6 1.2149306708710464e7 0.0
1.2149306708710464e7 8.520343270412454e6 0.0
0.0 0.0 0.0

-6.751855245275107e6 1.0469442113253856e7 0.0
1.0469442113253856e7 9.178757595319722e6 0.0
0.0 0.0 0.0

-1.177306375180114e6 9.671410835469635e6 0.0
9.671410835469635e6 -4.414462782304097e6 0.0
0.0 0.0 0.0

-7.189793456348252e6 1.361151287574312e7 0.0
1.361151287574312e7 3.535767072726547e7 0.0
0.0 0.0 0.0

-1.7973426513202293e6 1.5469797675804075e7 0.0
1.5469797675804075e7 -4.048453776100495e6 0.0
0.0 0.0 0.0

-130754.70004942454 1.1530992928399604e7 0.0
1.1530992928399604e7 -7.829875478020226e6 0.0
0.0 0.0 0.0

-721699.9032415681 8.403789840774357e6 0.0
8.403789840774357e6 -3.3376220115070296e6 0.0
0.0 0.0 0.0

4.788777885729202e6 5.597896427012394e6 0.0
5.597896427012394e6 -1.3267375069254823e7 0.0
0.0 0.0 0.0

-8.74494789018597e6 1.894042305845573e7 0.0
1.894042305845573e7 5.759777291900606e6 0.0
0.0 0.0 0.0

-1.0437928468074752e7 5.123699190577537e6 0.0
5.123699190577537e6 1.2022639701386802e7 0.0
0.0 0.0 0.0

-1.156644545384982e6 1.1940312139014035e7 0.0
1.1940312139014035e7 3.2019925009676646e6 0.0
0.0 0.0 0.0

-5.772962367343997e6 1.3444530552643728e7 0.0
1.3444530552643728e7 4.583679577263389e6 0.0
0.0 0.0 0.0

-4.295330541917569e6 1.1348181696210494e7 0.0
1.1348181696210494e7 1.1239054047633323e6 0.0
0.0 0.0 0.0

-8.1921797381293345e6 8.214286738909503e6 0.0
8.214286738909503e6 9.476161092295345e6 0.0
0.0 0.0 0.0

1.4450816891313558e6 8.062341823842788e6 0.0
8.062341823842788e6 -8.248421844770824e6 0.0
0.0 0.0 0.0

-1.6651273888800252e7 1.6545176852036508e7 0.0
1.6545176852036508e7 1.1454464792267058e7 0.0
0.0 0.0 0.0

5.749263678113345e6 9.347668165263413e6 0.0
9.347668165263413e6 545794.4078808061 0.0
0.0 0.0 0.0

-1.7403369175453053e6 3.0112918397097294e6 0.0
3.0112918397097294e6 961105.0179800477 0.0
0.0 0.0 0.0

-8.170204754305418e6 1.4762552775661943e7 0.0
1.4762552775661943e7 6.692417100646056e6 0.0
0.0 0.0 0.0

-1.8077000642353687e7 6.46744877660814e6 0.0
6.46744877660814e6 9.851445652520634e6 0.0
0.0 0.0 0.0

-2.0015815041480446e6 1.3124132349284418e7 0.0
1.3124132349284418e7 -1.410087615250423e6 0.0
0.0 0.0 0.0

-2.2606209603710137e7 1.6800049725859422e7 0.0
1.6800049725859422e7 6.408916182409894e6 0.0
0.0 0.0 0.0

-1.4924281361380608e6 1.3117900024323864e7 0.0
1.3117900024323864e7 -995354.804328688 0.0
0.0 0.0 0.0

-7.080782383768635e6 9.739188098731497e6 0.0
9.739188098731497e6 7.673353499577142e6 0.0
0.0 0.0 0.0

-6.719154259230904e6 6.169945582628236e6 0.0
6.169945582628236e6 7.779359309726081e6 0.0
0.0 0.0 0.0

-6.232704766127779e6 7.799473155111352e6 0.0
7.799473155111352e6 4.451491596192492e6 0.0
0.0 0.0 0.0

-5.889306302605178e6 1.339554014331527e7 0.0
1.339554014331527e7 6.158715502888886e6 0.0
0.0 0.0 0.0

-9.751607644840965e6 -3.452508752766753e6 0.0
-3.452508752766753e6 1.5763016252136806e7 0.0
0.0 0.0 0.0

203200.6851970146 8.658104248919556e6 0.0
8.658104248919556e6 -3.239934921439128e6 0.0
0.0 0.0 0.0

650526.8567954563 8.145100342950862e6 0.0
8.145100342950862e6 -5.582534005696125e6 0.0
0.0 0.0 0.0

324349.10408812156 1.0656826339568432e7 0.0
1.0656826339568432e7 -7.428649749350801e6 0.0
0.0 0.0 0.0

-3.771014074410181e6 -712919.4231729474 0.0
-712919.4231729474 4.638547935539102e6 0.0
0.0 0.0 0.0

-157757.60290748475 8.855106360238733e6 0.0
8.855106360238733e6 -2.4339840522190635e6 0.0
0.0 0.0 0.0

-5.937121629558351e6 1.3693220643506454e7 0.0
1.3693220643506454e7 5.161889129097749e6 0.0
0.0 0.0 0.0

-3.2726143504147087e6 1.2953230083176311e7 0.0
1.2953230083176311e7 6.68944081095228e6 0.0
0.0 0.0 0.0

-1.59190746764827e6 1.1822233148579359e7 0.0
1.1822233148579359e7 -4.7095212376567e6 0.0
0.0 0.0 0.0

-537314.2017809462 1.1889891448509064e7 0.0
1.1889891448509064e7 -153895.903552043 0.0
0.0 0.0 0.0

-8.422229407927744e6 1.8008652630662564e7 0.0
1.8008652630662564e7 3.7993490555357444e6 0.0
0.0 0.0 0.0

-342973.1860902079 1.259665363150756e7 0.0
1.259665363150756e7 -6.215776042798815e6 0.0
0.0 0.0 0.0

2.593346178004227e7 1.356584892914103e7 0.0
1.356584892914103e7 -1.752532449204374e6 0.0
0.0 0.0 0.0

1.7979527556302713e6 1.1555481000747377e7 0.0
1.1555481000747377e7 -4.875314465767792e6 0.0
0.0 0.0 0.0

713846.8877035547 1.1108308386627574e7 0.0
1.1108308386627574e7 -9.719520244284268e6 0.0
0.0 0.0 0.0

-1.722682929905977e6 1.364957003034857e7 0.0
1.364957003034857e7 -4.780234599608872e6 0.0
0.0 0.0 0.0

-1.7177277180762157e7 1.0648834952501155e7 0.0
1.0648834952501155e7 8.989266992229696e6 0.0
0.0 0.0 0.0

-6.038686555460138e6 1.3608622066357115e7 0.0
1.3608622066357115e7 5.403450450911876e6 0.0
0.0 0.0 0.0

5.061617761858236e6 1.103766893945294e7 0.0
1.103766893945294e7 -3.7959691581711527e6 0.0
0.0 0.0 0.0

1.2470183329832843e6 1.063206128900374e7 0.0
1.063206128900374e7 -1.3260406163215734e7 0.0
0.0 0.0 0.0

-1.3317361082558539e6 1.305832335378574e7 0.0
1.305832335378574e7 6.061526965254606e6 0.0
0.0 0.0 0.0

3.2267679554115627e6 6.107466295322454e6 0.0
6.107466295322454e6 -9.480258659033049e6 0.0
0.0 0.0 0.0

-1.5061838610567064e6 1.3873266688193113e7 0.0
1.3873266688193113e7 -4.081408678806321e6 0.0
0.0 0.0 0.0

4.9517909020002335e6 6.349954623871266e6 0.0
6.349954623871266e6 -1.5325637526884053e7 0.0
0.0 0.0 0.0

-2.9619334361879434e6 1.3233293301341528e7 0.0
1.3233293301341528e7 -3.2944083367320364e6 0.0
0.0 0.0 0.0

-2.3680586925222767e6 1.566993261137375e7 0.0
1.566993261137375e7 -2.433981949048601e6 0.0
0.0 0.0 0.0

-3.984139887605203e6 1.1269210684507016e7 0.0
1.1269210684507016e7 1.07290964053345e6 0.0
0.0 0.0 0.0

-1.0747220299373772e7 1.3902039171544645e7 0.0
1.3902039171544645e7 8.61668354098586e6 0.0
0.0 0.0 0.0

-7.629905889445169e6 1.0457624130992722e7 0.0
1.0457624130992722e7 9.061643093700519e6 0.0
0.0 0.0 0.0

-2.0805100818182554e6 9.030012816117011e6 0.0
9.030012816117011e6 2.0526693317891443e6 0.0
0.0 0.0 0.0

-2.2655068281027336e7 1.196893791976538e7 0.0
1.196893791976538e7 1.3186734609602738e7 0.0
0.0 0.0 0.0

2.704417548333844e6 1.0527003232417531e7 0.0
1.0527003232417531e7 2.595232518016844e6 0.0
0.0 0.0 0.0

-2.1124312320127995e6 7.431509592877295e6 0.0
7.431509592877295e6 -748885.5568434682 0.0
0.0 0.0 0.0

-7.2401554610478245e6 1.4592187591260703e7 0.0
1.4592187591260703e7 6.271431287157614e6 0.0
0.0 0.0 0.0

-1.941876072446619e6 1.3427019790498516e7 0.0
1.3427019790498516e7 -956390.5487991644 0.0
0.0 0.0 0.0

97367.13336912962 9.275045855896166e6 0.0
9.275045855896166e6 -5.364024888729589e6 0.0
0.0 0.0 0.0

4.360382426703252e6 5.389157743057907e6 0.0
5.389157743057907e6 -1.168871059727918e7 0.0
0.0 0.0 0.0

870177.2024986763 9.619990469679384e6 0.0
9.619990469679384e6 -6.617098078634467e6 0.0
0.0 0.0 0.0

1.6286682213740038e7 6.385346904895546e6 0.0
6.385346904895546e6 -4.1793311926134294e6 0.0
0.0 0.0 0.0

-7.398408861320278e6 1.0494582445907325e7 0.0
1.0494582445907325e7 9.823833182982327e6 0.0
0.0 0.0 0.0

-7.271272614134012e6 1.450022525240736e7 0.0
1.450022525240736e7 6.2878416075902e6 0.0
0.0 0.0 0.0

-5.790932427329929e6 -7.480895428408917e6 0.0
-7.480895428408917e6 1.2338353621563785e7 0.0
0.0 0.0 0.0

-9.028867361494746e6 1.7121558222760033e7 0.0
1.7121558222760033e7 6.5346264814601205e6 0.0
0.0 0.0 0.0

-1.5164461624575913e7 8.967295064685974e6 0.0
8.967295064685974e6 8.344820778196823e6 0.0
0.0 0.0 0.0

-476324.6636453441 1.1741014558057826e7 0.0
1.1741014558057826e7 -7.309566425290337e6 0.0
0.0 0.0 0.0

-754100.2371417223 1.2726822032606944e7 0.0
1.2726822032606944e7 4.305912591863312e6 0.0
0.0 0.0 0.0

-501653.6876891204 9.328003111076018e6 0.0
9.328003111076018e6 -289048.7716057149 0.0
0.0 0.0 0.0

-5.8163031292614825e6 1.1444140422476009e7 0.0
1.1444140422476009e7 4.752377629081707e6 0.0
0.0 0.0 0.0

-168985.4831744989 8.964684040070573e6 0.0
8.964684040070573e6 -5.793907911296329e6 0.0
0.0 0.0 0.0

1.8940132851967728e6 7.835958813893505e6 0.0
7.835958813893505e6 -7.875630600075351e6 0.0
0.0 0.0 0.0

115723.8880479252 7.007162050482121e6 0.0
7.007162050482121e6 -4.230207557010196e6 0.0
0.0 0.0 0.0

-7.079114940857288e6 1.4460153458288204e7 0.0
1.4460153458288204e7 6.014907760408312e6 0.0
0.0 0.0 0.0

-1.7680579758473667e6 1.0181815115573928e7 0.0
1.0181815115573928e7 -3.576851846435135e6 0.0
0.0 0.0 0.0

5.974136213330923e6 9.350847325702457e6 0.0
9.350847325702457e6 568972.086237987 0.0
0.0 0.0 0.0

4.403991327397802e6 5.360348711115398e6 0.0
5.360348711115398e6 -1.173746891772396e7 0.0
0.0 0.0 0.0

-2.128548438839893e6 1.2629060538124438e7 0.0
1.2629060538124438e7 4.475815071376751e6 0.0
0.0 0.0 0.0

514427.9622529978 7.059564372752656e6 0.0
7.059564372752656e6 -4.788371039491274e6 0.0
0.0 0.0 0.0

-5.310730457400875e6 1.511893588721274e7 0.0
1.511893588721274e7 1.520973272365054e6 0.0
0.0 0.0 0.0

-1.1285959193281094e6 1.2015192696881156e7 0.0
1.2015192696881156e7 1.8158661538403763e6 0.0
0.0 0.0 0.0

-1.1450310637909269e7 1.3376050843760597e6 0.0
1.3376050843760597e6 1.684174463542938e7 0.0
0.0 0.0 0.0

112381.99721246026 5.217992175127516e6 0.0
5.217992175127516e6 -2.167017101431893e6 0.0
0.0 0.0 0.0

-3.200643116033649e6 1.5974186735001989e7 0.0
1.5974186735001989e7 -2.9067600622069193e6 0.0
0.0 0.0 0.0

-2.5965039327395998e7 3.684097837379016e6 0.0
3.684097837379016e6 1.1943540307976115e7 0.0
0.0 0.0 0.0

452055.0793483434 1.1189327247693643e7 0.0
1.1189327247693643e7 -8.919102940100212e6 0.0
0.0 0.0 0.0

-3.609624927621733e6 8.835415659576159e6 0.0
8.835415659576159e6 5.034575103734306e6 0.0
0.0 0.0 0.0

-6.564403300995957e6 9.364929001338817e6 0.0
9.364929001338817e6 6.824415849041402e6 0.0
0.0 0.0 0.0

-2.8163249925898094e7 4.282456094856678e6 0.0
4.282456094856678e6 1.2367348526172156e7 0.0
0.0 0.0 0.0

755944.1866195905 1.0861108422198433e7 0.0
1.0861108422198433e7 -9.852334666043276e6 0.0
0.0 0.0 0.0

-1.6608849277139674e6 1.3151084032764046e7 0.0
1.3151084032764046e7 -4.424520992054516e6 0.0
0.0 0.0 0.0

460760.71102467226 6.13139916328966e6 0.0
6.13139916328966e6 -3.956259816377638e6 0.0
0.0 0.0 0.0

-3.595642088973255e6 1.3737784789474102e7 0.0
1.3737784789474102e7 -180176.09549866104 0.0
0.0 0.0 0.0

-4.972639888861118e6 1.731063268652438e7 0.0
1.731063268652438e7 -112659.39266024879 0.0
0.0 0.0 0.0

-7.640099004863692e6 1.5703884684973974e7 0.0
1.5703884684973974e7 5.3876842099345215e6 0.0
0.0 0.0 0.0

-5.273947899604566e6 1.1218898737880262e7 0.0
1.1218898737880262e7 2.527404525526884e6 0.0
0.0 0.0 0.0

-9.83385402269942e6 6.534849089290745e6 0.0
6.534849089290745e6 1.30250480154378e7 0.0
0.0 0.0 0.0

-4.396187601547902e6 1.2925906799087176e7 0.0
1.2925906799087176e7 5.565681972965068e6 0.0
0.0 0.0 0.0

-8.905162423480209e6 1.6698812964902882e7 0.0
1.6698812964902882e7 6.262415513954323e6 0.0
0.0 0.0 0.0

459567.65748630324 8.114908382088337e6 0.0
8.114908382088337e6 -6.226978547580288e6 0.0
0.0 0.0 0.0

-8.472749419974703e6 1.6384210861746963e7 0.0
1.6384210861746963e7 5.977514984146293e6 0.0
0.0 0.0 0.0

-4.503037986372067e6 1.2762749665843021e7 0.0
1.2762749665843021e7 9.524582701558078e6 0.0
0.0 0.0 0.0

-9.226500698478404e6 5.201286910622881e6 0.0
5.201286910622881e6 1.2228491461065266e7 0.0
0.0 0.0 0.0

4.212247161457235e6 5.708604722065193e6 0.0
5.708604722065193e6 -1.228880962641843e7 0.0
0.0 0.0 0.0

-6.966201463960918e6 1.3467270997989386e7 0.0
1.3467270997989386e7 4.765686310413459e6 0.0
0.0 0.0 0.0

-4.961173203817091e6 1.328230997509895e7 0.0
1.328230997509895e7 785521.6972013966 0.0
0.0 0.0 0.0

-4.470131914990837e6 1.3500860042211149e7 0.0
1.3500860042211149e7 332260.8091914791 0.0
0.0 0.0 0.0

-3.098869029825337e7 2.653172860387686e7 0.0
2.653172860387686e7 -6.03124783836993e6 0.0
0.0 0.0 0.0

-111220.3010156774 1.197850986094555e7 0.0
1.197850986094555e7 -6.929409861140017e6 0.0
0.0 0.0 0.0

-5.855403189656284e6 1.440343680826581e7 0.0
1.440343680826581e7 3.347991900269132e6 0.0
0.0 0.0 0.0

-7.620203791423757e6 1.0077976931037297e7 0.0
1.0077976931037297e7 7.111098283472366e6 0.0
0.0 0.0 0.0

-1.9510009822533645e7 7.923093528006494e6 0.0
7.923093528006494e6 1.1187819873699918e7 0.0
0.0 0.0 0.0

-127478.82888950218 1.185005014597059e7 0.0
1.185005014597059e7 -1.1682559023038743e6 0.0
0.0 0.0 0.0

-6.837612941589414e6 1.1564068395177314e7 0.0
1.1564068395177314e7 1.206364032948985e7 0.0
0.0 0.0 0.0

5.225488241377116e6 5.2694108290288355e6 0.0
5.2694108290288355e6 -1.3974434605863411e7 0.0
0.0 0.0 0.0

-1.7450553129211873e7 1.4148113075654292e7 0.0
1.4148113075654292e7 1.2104766659226103e7 0.0
0.0 0.0 0.0

-8.561773748381238e6 -4.666199394459669e6 0.0
-4.666199394459669e6 1.4371225697744064e7 0.0
0.0 0.0 0.0

-9.441193846101193e6 -6.031829526008605e6 0.0
-6.031829526008605e6 1.874352181004387e7 0.0
0.0 0.0 0.0

620843.5664769515 5.6122429821084505e6 0.0
5.6122429821084505e6 -2.119324542613673e6 0.0
0.0 0.0 0.0

-1.0801165170915976e7 5.29602392363376e6 0.0
5.29602392363376e6 1.4023692260285668e7 0.0
0.0 0.0 0.0

-7.240632293394091e6 9.187877114084523e6 0.0
9.187877114084523e6 8.657787048721027e6 0.0
0.0 0.0 0.0

941121.9645856153 1.0816786896199007e7 0.0
1.0816786896199007e7 -9.916547475264061e6 0.0
0.0 0.0 0.0

-2.4039036339801464e7 1.8518676200242322e7 0.0
1.8518676200242322e7 1.3859471200583002e7 0.0
0.0 0.0 0.0

-9.293755852082904e6 5.61293681123775e6 0.0
5.61293681123775e6 1.2774882592080241e7 0.0
0.0 0.0 0.0

1.3191122658524914e6 1.0568125269440565e7 0.0
1.0568125269440565e7 -1.3400998728877302e7 0.0
0.0 0.0 0.0

-1.3648475044890292e7 7.572704141877478e6 0.0
7.572704141877478e6 8.988639987129198e6 0.0
0.0 0.0 0.0

-8.623129194935348e6 -6.396759119753711e6 0.0
-6.396759119753711e6 1.868168734027196e7 0.0
0.0 0.0 0.0

-1.1510594890253725e6 1.113908054965097e7 0.0
1.113908054965097e7 -5.762592533729621e6 0.0
0.0 0.0 0.0

-808718.1522962954 1.1767256845720692e7 0.0
1.1767256845720692e7 -1.3416079267416239e7 0.0
0.0 0.0 0.0

-1.176900251267273e6 1.2868542920290804e7 0.0
1.2868542920290804e7 -1.1162048604453553e6 0.0
0.0 0.0 0.0

-1.168324674471535e7 5.99845493547614e6 0.0
5.99845493547614e6 7.998660877018521e6 0.0
0.0 0.0 0.0

1.2592929794584198e7 1.4562042755412005e7 0.0
1.4562042755412005e7 1.9207521016843494e6 0.0
0.0 0.0 0.0

-556255.6582030733 7.138096463350393e6 0.0
7.138096463350393e6 -3.7837369229382314e6 0.0
0.0 0.0 0.0

92178.88626446575 1.0709045211340101e7 0.0
1.0709045211340101e7 -6.715666185128173e6 0.0
0.0 0.0 0.0

526324.6873074663 9.775885629772486e6 0.0
9.775885629772486e6 -7.766918991720316e6 0.0
0.0 0.0 0.0

5.41986673675905e6 5.396271218326637e6 0.0
5.396271218326637e6 -1.4064569488805635e7 0.0
0.0 0.0 0.0

-5.035668385310098e6 1.4359224631769627e7 0.0
1.4359224631769627e7 1.6428535539815987e6 0.0
0.0 0.0 0.0

454495.87149873236 1.0726394156338409e7 0.0
1.0726394156338409e7 -1.0165300042102281e7 0.0
0.0 0.0 0.0

152007.8308214706 1.2648289983115839e7 0.0
1.2648289983115839e7 -6.299677835772837e6 0.0
0.0 0.0 0.0

65579.99035668105 9.341185881955748e6 0.0
9.341185881955748e6 -1.8735691615563126e6 0.0
0.0 0.0 0.0

-1.9988434803946696e6 7.297947120789474e6 0.0
7.297947120789474e6 -229726.41102889332 0.0
0.0 0.0 0.0

-6.175567106273994e6 1.1064056777404359e7 0.0
1.1064056777404359e7 4.1674239614510625e6 0.0
0.0 0.0 0.0

-4.91113609470995e6 1.2574298164240465e7 0.0
1.2574298164240465e7 7.819674361828329e6 0.0
0.0 0.0 0.0

3.8161162290291754e6 5.586405705970286e6 0.0
5.586405705970286e6 -1.0299744763052449e7 0.0
0.0 0.0 0.0

-8.103508700595885e6 2.7388689130996508e6 0.0
2.7388689130996508e6 3.0845523383195023e6 0.0
0.0 0.0 0.0

-3.9033905248323604e6 1.1828356519318143e7 0.0
1.1828356519318143e7 8.26917581561698e6 0.0
0.0 0.0 0.0

677984.2791912355 1.1166083485619262e7 0.0
1.1166083485619262e7 -8.632151909506274e6 0.0
0.0 0.0 0.0

2.3734955010460597e7 7.321311964967484e6 0.0
7.321311964967484e6 -4.05162747607702e6 0.0
0.0 0.0 0.0

868490.0375404833 1.1142624317335676e7 0.0
1.1142624317335676e7 -8.820462728493406e6 0.0
0.0 0.0 0.0

-5.149853404261144e6 1.391255598029773e7 0.0
1.391255598029773e7 528895.3438843193 0.0
0.0 0.0 0.0

-4.823650710650662e6 1.2012695718492512e7 0.0
1.2012695718492512e7 1.3309335045723142e6 0.0
0.0 0.0 0.0

-5.016235505242707e6 1.3607078220831903e7 0.0
1.3607078220831903e7 2.0921947019559234e7 0.0
0.0 0.0 0.0

-1.0860331909313194e7 4.637987787858764e6 0.0
4.637987787858764e6 1.4643298491533179e7 0.0
0.0 0.0 0.0

-6.884481133396491e6 -7.413944549798336e6 0.0
-7.413944549798336e6 1.3901272735086631e7 0.0
0.0 0.0 0.0

-1.2190754785900982e7 -10018.664522325513 0.0
-10018.664522325513 1.6808696796242096e7 0.0
0.0 0.0 0.0

-7.29855893008212e6 1.521293832629923e7 0.0
1.521293832629923e7 5.133421842707466e6 0.0
0.0 0.0 0.0

1.5751445631457437e6 8.552679021859568e6 0.0
8.552679021859568e6 -8.703477906941734e6 0.0
0.0 0.0 0.0

-6.586657288936457e6 1.2574987775923528e7 0.0
1.2574987775923528e7 6.632971656498151e6 0.0
0.0 0.0 0.0

-490945.3988290187 1.2165728636854023e7 0.0
1.2165728636854023e7 -6.397599639582956e6 0.0
0.0 0.0 0.0

-6.656575683957476e6 8.511318920271244e6 0.0
8.511318920271244e6 5.013211655497985e6 0.0
0.0 0.0 0.0

-6.061975936338708e6 1.3772275789005984e7 0.0
1.3772275789005984e7 5.832143288152572e6 0.0
0.0 0.0 0.0

-715990.4038361558 1.519479645691767e7 0.0
1.519479645691767e7 -4.6228058734925315e6 0.0
0.0 0.0 0.0

-5.6037748717491785e6 1.2544932582594031e7 0.0
1.2544932582594031e7 6.679166668647509e6 0.0
0.0 0.0 0.0

-6.752319643108979e6 1.2158233100390311e7 0.0
1.2158233100390311e7 7.039864732764307e6 0.0
0.0 0.0 0.0

-182894.1070859027 1.0134123431829961e7 0.0
1.0134123431829961e7 -8.307601557847681e6 0.0
0.0 0.0 0.0

-9.703346980589474e6 5.66755736885306e6 0.0
5.66755736885306e6 1.1244388553063167e7 0.0
0.0 0.0 0.0

-7.13961641994917e6 1.5196133240256341e7 0.0
1.5196133240256341e7 5.659908129361663e6 0.0
0.0 0.0 0.0

3.043999548044896e6 5.933082236580759e6 0.0
5.933082236580759e6 -9.946772850246781e6 0.0
0.0 0.0 0.0

-1.2590649125439558e7 -3.207055164537197e6 0.0
-3.207055164537197e6 2.925049478314577e7 0.0
0.0 0.0 0.0

-891377.5774096386 1.2571885660260191e7 0.0
1.2571885660260191e7 -1.7093839408565273e6 0.0
0.0 0.0 0.0

-7.571440245484851e6 1.5469621933138529e7 0.0
1.5469621933138529e7 5.541111937938111e6 0.0
0.0 0.0 0.0

1.9647345973554365e6 9.616359990997266e6 0.0
9.616359990997266e6 -1.0150364932448827e7 0.0
0.0 0.0 0.0

-5.787526003549788e6 1.4436383284506112e7 0.0
1.4436383284506112e7 1.4594980557266076e6 0.0
0.0 0.0 0.0

1.6742334178674868e6 7.787702753323968e6 0.0
7.787702753323968e6 -8.633734290623909e6 0.0
0.0 0.0 0.0

-9.769974287588783e6 4.593233841943556e6 0.0
4.593233841943556e6 1.3055116673638973e7 0.0
0.0 0.0 0.0

-2.9961077078110043e7 2.0373386432269208e7 0.0
2.0373386432269208e7 1.0287981404121347e7 0.0
0.0 0.0 0.0

-5.505682257758193e6 1.2450371153711919e7 0.0
1.2450371153711919e7 1.7364174438744818e6 0.0
0.0 0.0 0.0

-6.096071190890105e6 1.3112503447344396e7 0.0
1.3112503447344396e7 6.344394448721301e6 0.0
0.0 0.0 0.0

-30222.074810972044 2.3595018264744603e6 0.0
2.3595018264744603e6 -398366.1114610234 0.0
0.0 0.0 0.0

-6.483362080249798e6 1.2108452420372523e7 0.0
1.2108452420372523e7 1.2014818025848935e6 0.0
0.0 0.0 0.0

-6.172606768213121e6 1.3870185261655904e7 0.0
1.3870185261655904e7 5.530782253044064e6 0.0
0.0 0.0 0.0

4.499537793501876e6 5.594149936213743e6 0.0
5.594149936213743e6 -1.2506866858432913e7 0.0
0.0 0.0 0.0

-5.830038008781226e6 7.931506573905236e6 0.0
7.931506573905236e6 5.723327539749224e6 0.0
0.0 0.0 0.0

-7.004357225095111e6 6.911083450103134e6 0.0
6.911083450103134e6 8.219992800424056e6 0.0
0.0 0.0 0.0

-7.254090541055107e6 1.8228706330649357e7 0.0
1.8228706330649357e7 4.079927891157578e6 0.0
0.0 0.0 0.0

-3.496738676349075e6 2.607015912280931e6 0.0
2.607015912280931e6 1.9142003150799717e6 0.0
0.0 0.0 0.0

-1.0115622386338435e7 6.128016097178487e6 0.0
6.128016097178487e6 1.2003801676723324e7 0.0
0.0 0.0 0.0

-7.462499283405766e6 1.5932850765302109e7 0.0
1.5932850765302109e7 5.808729075143465e6 0.0
0.0 0.0 0.0

-1.006256662507591e7 -6.219443793505033e6 0.0
-6.219443793505033e6 2.1566918407299466e7 0.0
0.0 0.0 0.0

-739824.7734873364 2.8208700916908034e6 0.0
2.8208700916908034e6 632549.4718502599 0.0
0.0 0.0 0.0

2.6494351138015394e6 6.740311434543156e6 0.0
6.740311434543156e6 -9.431079267767018e6 0.0
0.0 0.0 0.0

-6.1718195791997025e6 1.139786229758396e7 0.0
1.139786229758396e7 4.866625474617722e6 0.0
0.0 0.0 0.0

-1.1010398831102349e7 5.767753154278031e6 0.0
5.767753154278031e6 1.2776242608334139e7 0.0
0.0 0.0 0.0

-1.3894575989819919e6 1.1681415120426195e7 0.0
1.1681415120426195e7 -5.601868684090661e6 0.0
0.0 0.0 0.0

-565407.9271262866 1.1271103339221792e7 0.0
1.1271103339221792e7 -5.835030938845211e6 0.0
0.0 0.0 0.0

1.709298913964611e6 8.470592785934994e6 0.0
8.470592785934994e6 -9.207094265841948e6 0.0
0.0 0.0 0.0

720449.6277616089 1.1021701660689166e7 0.0
1.1021701660689166e7 -9.46985724123625e6 0.0
0.0 0.0 0.0

-1.2773275026530172e6 9.1480549888676e6 0.0
9.1480549888676e6 1.6882529953547767e6 0.0
0.0 0.0 0.0

-1.1120696655408926e7 6.710957579552426e6 0.0
6.710957579552426e6 1.2117643281600617e7 0.0
0.0 0.0 0.0

-5.378320614090104e6 1.419060337350033e7 0.0
1.419060337350033e7 664382.4775725685 0.0
0.0 0.0 0.0

-7.025313853536436e6 1.4447299301224193e7 0.0
1.4447299301224193e7 6.170319143398548e6 0.0
0.0 0.0 0.0

-7.084985059841935e6 1.5455508963287203e7 0.0
1.5455508963287203e7 5.543187944579366e6 0.0
0.0 0.0 0.0

2.119136247164976e6 1.7807650869771034e7 0.0
1.7807650869771034e7 2.966651883746586e7 0.0
0.0 0.0 0.0

-5.585032912676752e6 1.1669811791848695e7 0.0
1.1669811791848695e7 4.591032637959894e6 0.0
0.0 0.0 0.0

-241887.18296982395 1.0878906884448536e7 0.0
1.0878906884448536e7 -6.170259882318233e6 0.0
0.0 0.0 0.0

603246.6007259209 1.1246183730460828e7 0.0
1.1246183730460828e7 -9.323048199091319e6 0.0
0.0 0.0 0.0

168603.67021750147 1.0920375623712322e7 0.0
1.0920375623712322e7 -6.973118632083724e6 0.0
0.0 0.0 0.0

-6.278412581995445e6 1.5446515430332119e7 0.0
1.5446515430332119e7 3.340974808262155e6 0.0
0.0 0.0 0.0

-5.669652955361246e6 1.0885231292356735e7 0.0
1.0885231292356735e7 3.6154280314012086e6 0.0
0.0 0.0 0.0

227580.93377336295 8.798964800644193e6 0.0
8.798964800644193e6 -1.1280867211363304e6 0.0
0.0 0.0 0.0

748402.4138006554 1.1307844916909236e7 0.0
1.1307844916909236e7 -8.365219093843332e6 0.0
0.0 0.0 0.0

-2.351948322975074e6 7.313969133339395e6 0.0
7.313969133339395e6 -199522.05681486044 0.0
0.0 0.0 0.0

-9.893555384136952e6 2.119436762788435e7 0.0
2.119436762788435e7 698295.747673545 0.0
0.0 0.0 0.0

5.387554785097071e6 6.245992473991437e6 0.0
6.245992473991437e6 -1.6062373854809128e7 0.0
0.0 0.0 0.0

2.6328715073595732e7 1.3427966227461439e7 0.0
1.3427966227461439e7 -529802.0409512445 0.0
0.0 0.0 0.0

7.976843868513586e6 1.889736575805414e7 0.0
1.889736575805414e7 -2.275993636991924e7 0.0
0.0 0.0 0.0

-2.770815966301983e6 1.1969964845305575e7 0.0
1.1969964845305575e7 4.51679233570829e6 0.0
0.0 0.0 0.0

-1.5323785029022698e6 9.661826876935406e6 0.0
9.661826876935406e6 3.1027039054646655e6 0.0
0.0 0.0 0.0

-1.061087355561671e7 1.1702923526592992e7 0.0
1.1702923526592992e7 3.9395684866482476e6 0.0
0.0 0.0 0.0

-3.069471097095439e7 1.2215722593080105e7 0.0
1.2215722593080105e7 8.711856942022856e6 0.0
0.0 0.0 0.0

-2.934226554660196e6 6.824454142980926e6 0.0
6.824454142980926e6 1.473274804860686e6 0.0
0.0 0.0 0.0

-5.0164508426033445e6 1.3552540808550594e7 0.0
1.3552540808550594e7 2.0332809932878136e6 0.0
0.0 0.0 0.0

328063.0126881553 1.0494374468259117e7 0.0
1.0494374468259117e7 -7.192438287090602e6 0.0
0.0 0.0 0.0

4.684198681585168e6 7.567108586045294e6 0.0
7.567108586045294e6 -1.533749669408996e7 0.0
0.0 0.0 0.0

-124327.66264626756 1.0646635927788164e7 0.0
1.0646635927788164e7 -7.430760778579061e6 0.0
0.0 0.0 0.0

1.3897675015801145e6 1.0359825880066274e7 0.0
1.0359825880066274e7 -1.2805267987637011e7 0.0
0.0 0.0 0.0

-7.366378112602639e6 6.96112185993591e6 0.0
6.96112185993591e6 6.850910837415183e6 0.0
0.0 0.0 0.0

-3.782969017303879e6 1.2632766074541477e7 0.0
1.2632766074541477e7 6.194433121890446e6 0.0
0.0 0.0 0.0

-1.6190548651796584e6 8.387579799843147e6 0.0
8.387579799843147e6 1.0101003496965114e6 0.0
0.0 0.0 0.0

-1.9970241327596789e6 95482.21907260177 0.0
95482.21907260177 1.453441509290182e6 0.0
0.0 0.0 0.0

-1.1697198701830046e7 -1.0360026969472985e6 0.0
-1.0360026969472985e6 1.6050746820779055e7 0.0
0.0 0.0 0.0

-6.4549510815458745e6 1.3367675197249379e7 0.0
1.3367675197249379e7 5.5242092802056335e6 0.0
0.0 0.0 0.0

-5.089458426824088e6 1.2621332401164405e7 0.0
1.2621332401164405e7 7.865128253529672e6 0.0
0.0 0.0 0.0

-5.948309995936703e6 9.013173260699881e6 0.0
9.013173260699881e6 5.82313103812648e6 0.0
0.0 0.0 0.0

543899.7048298767 6.198210602464414e6 0.0
6.198210602464414e6 -2.8705629416245176e6 0.0
0.0 0.0 0.0

-1.367266198776353e7 7.3268374136371715e6 0.0
7.3268374136371715e6 2.9837661119616468e7 0.0
0.0 0.0 0.0

-3.972352772637519e6 1.111661804296261e7 0.0
1.111661804296261e7 1.3142822882996579e6 0.0
0.0 0.0 0.0

-4.976956409695484e6 1.4003617817441983e7 0.0
1.4003617817441983e7 -117976.63267376996 0.0
0.0 0.0 0.0

-5.052358771903429e6 1.2654447909182264e7 0.0
1.2654447909182264e7 7.955763767628012e6 0.0
0.0 0.0 0.0

-2.3515644713669512e6 7.130024780789923e6 0.0
7.130024780789923e6 270892.00454330596 0.0
0.0 0.0 0.0

-1.1281371200277351e6 1.5186942426708585e7 0.0
1.5186942426708585e7 -3.594285781184334e6 0.0
0.0 0.0 0.0

-1.1714252200999023e7 -575724.2019725505 0.0
-575724.2019725505 3.55721055512255e7 0.0
0.0 0.0 0.0

782549.7471583434 1.3936296233108314e7 0.0
1.3936296233108314e7 -4.743863419868625e6 0.0
0.0 0.0 0.0

-7.434686096669092e6 1.5415094647653555e7 0.0
1.5415094647653555e7 5.994435846511797e6 0.0
0.0 0.0 0.0

-547268.3301429711 1.012824728777477e7 0.0
1.012824728777477e7 -9.174345796239408e6 0.0
0.0 0.0 0.0

-5.62483373000247e6 1.2222495492690047e7 0.0
1.2222495492690047e7 6.7001901282107625e6 0.0
0.0 0.0 0.0

-1.1295363041983854e7 4.529011257876754e6 0.0
4.529011257876754e6 1.3227890048445173e7 0.0
0.0 0.0 0.0

-5.156110612378744e6 1.5915389708981324e7 0.0
1.5915389708981324e7 1.3375105184092622e6 0.0
0.0 0.0 0.0

1.6051309614699862e6 6.0462882143536275e6 0.0
6.0462882143536275e6 -5.824038188005727e6 0.0
0.0 0.0 0.0

-1.0748095132275805e7 1.9429806008476336e7 0.0
1.9429806008476336e7 5.202209761565102e6 0.0
0.0 0.0 0.0

704987.5987232365 1.051918089981832e7 0.0
1.051918089981832e7 1.2407170765073013e6 0.0
0.0 0.0 0.0

-4.1691181900993534e6 1.2672162639030011e7 0.0
1.2672162639030011e7 573780.7323906648 0.0
0.0 0.0 0.0

4.0122458604672384e6 6.457930639685584e6 0.0
6.457930639685584e6 -1.2716836625944035e7 0.0
0.0 0.0 0.0

-1.3013724832778445e6 1.2884339352627894e7 0.0
1.2884339352627894e7 -1.2106641155740381e6 0.0
0.0 0.0 0.0

-4.476967294424359e6 1.2412542298502266e7 0.0
1.2412542298502266e7 9.347929415918652e6 0.0
0.0 0.0 0.0

-6.377894831881039e6 1.456007247389841e7 0.0
1.456007247389841e7 4.621328332746975e6 0.0
0.0 0.0 0.0

-1.993351529835815e6 1.3302455500796694e7 0.0
1.3302455500796694e7 6.390037209913411e6 0.0
0.0 0.0 0.0

1.170630778324624e6 6.277011382120185e6 0.0
6.277011382120185e6 -2.9393873620148115e6 0.0
0.0 0.0 0.0

-6.816333557954796e6 1.2016572911210302e7 0.0
1.2016572911210302e7 1.1141142547850408e7 0.0
0.0 0.0 0.0

-4.145942150158937e6 1.3104807284585495e7 0.0
1.3104807284585495e7 2.627751680182092e6 0.0
0.0 0.0 0.0

155677.57922509126 1.4546297768891437e7 0.0
1.4546297768891437e7 -4.578487976470321e6 0.0
0.0 0.0 0.0

-2.1643008460961906e6 1.397330782094634e7 0.0
1.397330782094634e7 -4.218916657201498e6 0.0
0.0 0.0 0.0

-4.351506889084016e6 1.7164253374565654e7 0.0
1.7164253374565654e7 -519977.5107114704 0.0
0.0 0.0 0.0

-1.3082774939169036e6 7.694245305769017e6 0.0
7.694245305769017e6 -389318.21966185176 0.0
0.0 0.0 0.0

-6.186780963874411e6 1.336140956413267e7 0.0
1.336140956413267e7 6.3436405090393135e6 0.0
0.0 0.0 0.0

-7.130898760429769e6 1.7306048992682293e7 0.0
1.7306048992682293e7 1.6350850296220966e6 0.0
0.0 0.0 0.0

-611656.7162226043 1.1754280763873609e7 0.0
1.1754280763873609e7 -1.27504571687873e7 0.0
0.0 0.0 0.0

-2.2575909506101664e6 6.125697640434057e6 0.0
6.125697640434057e6 -167457.29168215895 0.0
0.0 0.0 0.0

-1.9868003250440406e6 9.066016305168735e6 0.0
9.066016305168735e6 2.189742306554959e6 0.0
0.0 0.0 0.0

-6.084862702482114e6 1.6692502705348877e7 0.0
1.6692502705348877e7 481175.02609797916 0.0
0.0 0.0 0.0

786468.2678261893 1.146136424813188e7 0.0
1.146136424813188e7 -8.554997966012051e6 0.0
0.0 0.0 0.0

3.3095885565736317e6 5.69573866144992e6 0.0
5.69573866144992e6 -9.739059704226807e6 0.0
0.0 0.0 0.0

-1.1697269736301454e7 -5.927125301588939e6 0.0
-5.927125301588939e6 3.1643219831627596e7 0.0
0.0 0.0 0.0

2.132290558965974e6 9.704034888133992e6 0.0
9.704034888133992e6 -1.0783794428799035e7 0.0
0.0 0.0 0.0

-2.5838977121194587e6 1.0089596332420595e7 0.0
1.0089596332420595e7 4.681869182053008e6 0.0
0.0 0.0 0.0

-6.614804229151367e6 7.516239717368964e6 0.0
7.516239717368964e6 7.657633430428287e6 0.0
0.0 0.0 0.0

-419008.50430254336 1.4746735086306838e7 0.0
1.4746735086306838e7 -4.880509371054616e6 0.0
0.0 0.0 0.0

1.9958140849250578e6 6.083528584049471e6 0.0
6.083528584049471e6 -8.042571172436202e6 0.0
0.0 0.0 0.0

2.1135325143041126e6 1.1481760260866348e7 0.0
1.1481760260866348e7 -4.9663630559971e6 0.0
0.0 0.0 0.0

-2.844474504902314e6 1.194936744771016e7 0.0
1.194936744771016e7 7.552398145875025e6 0.0
0.0 0.0 0.0

-7.361119931102117e6 2.1474048678697515e7 0.0
2.1474048678697515e7 -2.975385552545015e6 0.0
0.0 0.0 0.0

-832450.0449973497 1.3631912138192995e7 0.0
1.3631912138192995e7 -4.775531806278264e6 0.0
0.0 0.0 0.0

-6.850208406402321e6 1.2536571326963127e7 0.0
1.2536571326963127e7 1.5281628642411847e7 0.0
0.0 0.0 0.0

4.223325404460617e6 5.442968701962829e6 0.0
5.442968701962829e6 -1.1212591915740827e7 0.0
0.0 0.0 0.0

-7.080279469229599e6 1.620432045187934e7 0.0
1.620432045187934e7 3.5350396599422353e6 0.0
0.0 0.0 0.0

2.52947164295835e6 9.892451668094128e6 0.0
9.892451668094128e6 -1.2280765485826675e6 0.0
0.0 0.0 0.0

-3.2331776570282876e7 5.966575057584761e6 0.0
5.966575057584761e6 1.030146560713422e7 0.0
0.0 0.0 0.0

-6.171995721342007e6 1.395899345392057e7 0.0
1.395899345392057e7 5.698379875005316e6 0.0
0.0 0.0 0.0

-1.7893045072426996e6 6.074756856703922e6 0.0
6.074756856703922e6 -114778.96546117897 0.0
0.0 0.0 0.0

1.1902886790964273e6 1.0890764544866864e7 0.0
1.0890764544866864e7 -1.0014844995094473e7 0.0
0.0 0.0 0.0

-2.7652340825252e6 1.1974398426205155e7 0.0
1.1974398426205155e7 3.861074593461475e6 0.0
0.0 0.0 0.0

737735.1639796728 1.0734597449091708e7 0.0
1.0734597449091708e7 -1.1845371254603872e7 0.0
0.0 0.0 0.0

5.200197351451973e6 5.554027378048909e6 0.0
5.554027378048909e6 -1.379839753246143e7 0.0
0.0 0.0 0.0

1.5735325443389598e7 1.150307877816436e7 0.0
1.150307877816436e7 -891495.2849977771 0.0
0.0 0.0 0.0

-5.969880198509611e7 2.8117042031627756e7 0.0
2.8117042031627756e7 691409.1163628101 0.0
0.0 0.0 0.0

-582750.7699474907 1.2757129313092394e7 0.0
1.2757129313092394e7 6.468329438818426e6 0.0
0.0 0.0 0.0

-3.716223831908822e6 1.3382540637727045e7 0.0
1.3382540637727045e7 -2.3369225714994455e6 0.0
0.0 0.0 0.0

-5.270939698292425e6 1.2716265694590917e7 0.0
1.2716265694590917e7 5.7925867269063e6 0.0
0.0 0.0 0.0

3.164442117638451e6 5.696637668137256e6 0.0
5.696637668137256e6 -9.366022795440251e6 0.0
0.0 0.0 0.0

-4.549394819680766e6 1.3241827767715007e7 0.0
1.3241827767715007e7 3.5526701091915164e6 0.0
0.0 0.0 0.0

-6.939614617527522e6 1.6640593392899377e7 0.0
1.6640593392899377e7 3.8883117106057466e6 0.0
0.0 0.0 0.0

401427.0901168892 1.0899449884112388e7 0.0
1.0899449884112388e7 -1.0397184265078517e7 0.0
0.0 0.0 0.0

-4.349520573500081e6 1.2520726829003071e7 0.0
1.2520726829003071e7 -110250.43614056776 0.0
0.0 0.0 0.0

1.0290375180869799e6 6.192836105284049e6 0.0
6.192836105284049e6 -4.923394689674495e6 0.0
0.0 0.0 0.0

-2.4655589558975766e6 1.1619560872356327e7 0.0
1.1619560872356327e7 8.205274040737239e6 0.0
0.0 0.0 0.0

-3.7803318572617755e6 1.3020027222183246e7 0.0
1.3020027222183246e7 397513.63255758723 0.0
0.0 0.0 0.0

-1.2776368320668421e6 1.1604576529099911e7 0.0
1.1604576529099911e7 -4.693474931742224e6 0.0
0.0 0.0 0.0

-5.417208030555052e6 1.262635554516845e7 0.0
1.262635554516845e7 2.38584451280077e6 0.0
0.0 0.0 0.0

1.4925423092260724e6 9.798894659903016e6 0.0
9.798894659903016e6 -1.0432609422540585e7 0.0
0.0 0.0 0.0

-1.0429482325340789e7 -6.37801911476265e6 0.0
-6.37801911476265e6 2.167270629053562e7 0.0
0.0 0.0 0.0

-457190.7454712535 1.0808994903959434e7 0.0
1.0808994903959434e7 -6.862166959693145e6 0.0
0.0 0.0 0.0

2.4269102952173594e6 1.0368062962493574e7 0.0
1.0368062962493574e7 -3.4584128589472966e6 0.0
0.0 0.0 0.0

-2.947812163583654e6 1.3225208059168557e7 0.0
1.3225208059168557e7 -1.4617479366395753e7 0.0
0.0 0.0 0.0

2.878601019762547e6 6.473719210042245e6 0.0
6.473719210042245e6 -9.217891707970103e6 0.0
0.0 0.0 0.0

82668.57070523547 1.1667063983139668e7 0.0
1.1667063983139668e7 -7.250083504133963e6 0.0
0.0 0.0 0.0

-6.108835378024476e6 1.3716676151857415e7 0.0
1.3716676151857415e7 5.988202722051952e6 0.0
0.0 0.0 0.0

-6.054941322055927e6 1.4280167274080332e7 0.0
1.4280167274080332e7 2.787631424730861e6 0.0
0.0 0.0 0.0

-6.401994049789928e6 1.2032641910924215e7 0.0
1.2032641910924215e7 6.263512002943257e6 0.0
0.0 0.0 0.0

880236.9572853593 1.0027029371934181e7 0.0
1.0027029371934181e7 1.8538025486204852e6 0.0
0.0 0.0 0.0

-3.9849209594239265e7 1.0653249668770991e7 0.0
1.0653249668770991e7 9.191400530142074e6 0.0
0.0 0.0 0.0

2.1840801650832947e6 6.039756106387855e6 0.0
6.039756106387855e6 -4.244669028392755e6 0.0
0.0 0.0 0.0

211680.55348018603 8.428689172174063e6 0.0
8.428689172174063e6 -3.408592417668665e6 0.0
0.0 0.0 0.0

4.350240348242999e6 1.1002256977996748e7 0.0
1.1002256977996748e7 -3.6002942817594744e6 0.0
0.0 0.0 0.0

-8.435262210427232e6 1.6956516581923198e7 0.0
1.6956516581923198e7 6.724036172442255e6 0.0
0.0 0.0 0.0

1.3995394891978353e6 1.053052292875391e7 0.0
1.053052292875391e7 -1.3133114763947167e7 0.0
0.0 0.0 0.0

-1.2525518884316613e6 1.280743713878587e7 0.0
1.280743713878587e7 -1.5849098468205838e6 0.0
0.0 0.0 0.0

-1.5932810308068777e6 1.4328269496670121e7 0.0
1.4328269496670121e7 -3.7554537352212714e6 0.0
0.0 0.0 0.0

48025.42019673786 9.84249075819212e6 0.0
9.84249075819212e6 -5.757814680008395e6 0.0
0.0 0.0 0.0

-1.0081203748782726e6 1.4062800209539404e7 0.0
1.4062800209539404e7 -4.505667096434005e6 0.0
0.0 0.0 0.0

-799364.2834275438 1.1925207682592113e7 0.0
1.1925207682592113e7 998092.2697041812 0.0
0.0 0.0 0.0

-5.611817498384497e6 1.4218574713952713e7 0.0
1.4218574713952713e7 2.7685725660020993e6 0.0
0.0 0.0 0.0

2.276895605898207e6 7.631899071749939e6 0.0
7.631899071749939e6 -8.852757201277312e6 0.0
0.0 0.0 0.0

4.475810915299926e6 5.578677588172226e6 0.0
5.578677588172226e6 -1.2426893368715972e7 0.0
0.0 0.0 0.0

-1.3334906240807113e6 475406.15553476673 0.0
475406.15553476673 -884151.7763961273 0.0
0.0 0.0 0.0

-3.359193905623287e6 -1.160356839960141e6 0.0
-1.160356839960141e6 1.2291337278475321e6 0.0
0.0 0.0 0.0

-3.534361107187021e6 1.0985341687420776e7 0.0
1.0985341687420776e7 6.74325355147171e6 0.0
0.0 0.0 0.0

-743909.1745673069 1.1561411352706915e7 0.0
1.1561411352706915e7 1.4064763149905023e6 0.0
0.0 0.0 0.0

-1.1990847985449228e6 1.1878148503293285e7 0.0
1.1878148503293285e7 1.1554388741988952e6 0.0
0.0 0.0 0.0

1.7911308293144098e6 5.2731735605397215e6 0.0
5.2731735605397215e6 -7.04394581602421e6 0.0
0.0 0.0 0.0

540171.6412341362 1.3208784149650022e7 0.0
1.3208784149650022e7 -5.521594071109311e6 0.0
0.0 0.0 0.0

1.1173969526001862e6 5.884561255533439e6 0.0
5.884561255533439e6 -4.6979566528274985e6 0.0
0.0 0.0 0.0

-1.1829700318724301e6 1.396526502878354e7 0.0
1.396526502878354e7 -4.204250860101836e6 0.0
0.0 0.0 0.0

-9.902195067325e6 7.28662328865374e6 0.0
7.28662328865374e6 1.2909368801980348e7 0.0
0.0 0.0 0.0

-4.665388902912451e6 1.4113818385502053e7 0.0
1.4113818385502053e7 847087.7538119992 0.0
0.0 0.0 0.0

-5.622521488101135e6 1.6638454096662058e7 0.0
1.6638454096662058e7 2.146791770364617e6 0.0
0.0 0.0 0.0

2.4633408798608594e6 6.64538844787166e6 0.0
6.64538844787166e6 -9.484634280613312e6 0.0
0.0 0.0 0.0

2.705101153594362e6 6.268383396302264e6 0.0
6.268383396302264e6 -9.73242246763678e6 0.0
0.0 0.0 0.0

4.897117211824465e6 1.1997769424907703e7 0.0
1.1997769424907703e7 -6.202661648360383e6 0.0
0.0 0.0 0.0

-3.66058335250645e6 1.2789352031266078e7 0.0
1.2789352031266078e7 6.446860421008654e6 0.0
0.0 0.0 0.0

-832421.9873860129 1.0988045270744488e7 0.0
1.0988045270744488e7 -6.3142209684403455e6 0.0
0.0 0.0 0.0

-6.141054903712273e6 -7.234111555612697e6 0.0
-7.234111555612697e6 1.1724882264063857e7 0.0
0.0 0.0 0.0

-7.869786436544061e6 1.6244598046386644e7 0.0
1.6244598046386644e7 6.121344582948945e6 0.0
0.0 0.0 0.0

-9.017717351586077e6 6.200438314596833e6 0.0
6.200438314596833e6 1.1804406526302041e7 0.0
0.0 0.0 0.0

-378512.69756350946 2.973391894792857e6 0.0
2.973391894792857e6 -1.246752293563319e6 0.0
0.0 0.0 0.0

-1.3030516156876625e6 1.0100242384056801e7 0.0
1.0100242384056801e7 -3.488131578501561e6 0.0
0.0 0.0 0.0

4.420585782012837e6 5.60040830616172e6 0.0
5.60040830616172e6 -1.2094439701373007e7 0.0
0.0 0.0 0.0

-7.292370968520453e6 1.4615308287897486e7 0.0
1.4615308287897486e7 6.233800361731041e6 0.0
0.0 0.0 0.0

-3.7768797793605234e6 1.2489861227693137e7 0.0
1.2489861227693137e7 6235.548667945201 0.0
0.0 0.0 0.0

1.7568047195111392e6 9.590559245666828e6 0.0
9.590559245666828e6 -1.0914845087473582e7 0.0
0.0 0.0 0.0

5.5907689382571075e6 9.988447034319688e6 0.0
9.988447034319688e6 -2.1153408131843233e6 0.0
0.0 0.0 0.0

-7.02723457739334e6 1.4436710653533898e7 0.0
1.4436710653533898e7 6.172527683940448e6 0.0
0.0 0.0 0.0

-8.966176997937951e6 -4.754724988609854e6 0.0
-4.754724988609854e6 1.2447321652251275e7 0.0
0.0 0.0 0.0

-2.8961028924748176e6 -1.5288708873640662e6 0.0
-1.5288708873640662e6 2.6306235237190286e6 0.0
0.0 0.0 0.0

2.937281986236145e6 1.0477282785717841e7 0.0
1.0477282785717841e7 -3.4738588993298756e6 0.0
0.0 0.0 0.0

-3.101834506000703e6 1.3248990981150363e7 0.0
1.3248990981150363e7 -2.117517351024746e6 0.0
0.0 0.0 0.0

-3.1905126375197223e6 1.3616972749205519e7 0.0
1.3616972749205519e7 -1.9611360924567203e6 0.0
0.0 0.0 0.0

-1.1357410065787284e7 800310.0248824215 0.0
800310.0248824215 2.68256761082113e7 0.0
0.0 0.0 0.0

1.690319669011366e6 4.648272194176712e6 0.0
4.648272194176712e6 -6.1867726602895735e6 0.0
0.0 0.0 0.0

-2.5538169254474873e6 1.310395530429162e7 0.0
1.310395530429162e7 72249.47378579387 0.0
0.0 0.0 0.0

-4.989334548203577e6 1.3034618357048342e7 0.0
1.3034618357048342e7 83428.49250738672 0.0
0.0 0.0 0.0

-1.843596169120341e7 1.1378616421959989e7 0.0
1.1378616421959989e7 8.305786450739635e6 0.0
0.0 0.0 0.0

-7.569519245964037e6 1.6646744222958067e7 0.0
1.6646744222958067e7 5.220249419852637e6 0.0
0.0 0.0 0.0

-310266.456931139 1.1436033225343302e7 0.0
1.1436033225343302e7 -1.2320574508646491e6 0.0
0.0 0.0 0.0

-8.507453509821009e6 -5.193223952156523e6 0.0
-5.193223952156523e6 1.2577469605919737e7 0.0
0.0 0.0 0.0

4.366078675120385e6 1.1719653718145499e7 0.0
1.1719653718145499e7 -5.578043835100591e6 0.0
0.0 0.0 0.0

-1.7283548715757304e6 1.1089881895423992e7 0.0
1.1089881895423992e7 -3.46034923685741e6 0.0
0.0 0.0 0.0

-6.286338277373287e6 -497002.9951246585 0.0
-497002.9951246585 8.17306444464883e6 0.0
0.0 0.0 0.0

-6.83580571724847e6 1.2261540004417973e7 0.0
1.2261540004417973e7 5.846580653925823e6 0.0
0.0 0.0 0.0

-6.70093046899882e6 1.3042503736316582e7 0.0
1.3042503736316582e7 5.915224659521211e6 0.0
0.0 0.0 0.0

1.0218311228669244e6 6.096216620785718e6 0.0
6.096216620785718e6 -3.425529868205522e6 0.0
0.0 0.0 0.0

3.049104152922582e6 6.096448961039458e6 0.0
6.096448961039458e6 -1.0097426485951042e7 0.0
0.0 0.0 0.0

3.9556951787684374e6 8.059001515028451e6 0.0
8.059001515028451e6 -1.6018594379584614e7 0.0
0.0 0.0 0.0

-3.0483046096737827e6 1.1056668723652806e7 0.0
1.1056668723652806e7 7.211134939571592e6 0.0
0.0 0.0 0.0

1.7688872920501549e6 5.808484534883545e6 0.0
5.808484534883545e6 -5.94396711741236e6 0.0
0.0 0.0 0.0

1.5821739210681487e6 1.707823220946096e7 0.0
1.707823220946096e7 -8.38563712913149e6 0.0
0.0 0.0 0.0

3.456047884228315e6 5.944478395487335e6 0.0
5.944478395487335e6 -9.860445491806503e6 0.0
0.0 0.0 0.0

2.0306968753143721e6 5.650822422005704e6 0.0
5.650822422005704e6 -6.977375745013635e6 0.0
0.0 0.0 0.0

2.495374218295073e6 5.912030646482358e6 0.0
5.912030646482358e6 -8.619079440377556e6 0.0
0.0 0.0 0.0

-228146.98593717444 1.1822179155396188e7 0.0
1.1822179155396188e7 -687409.3189859196 0.0
0.0 0.0 0.0

-521598.39674860955 1.1525849995871507e7 0.0
1.1525849995871507e7 760323.6279118326 0.0
0.0 0.0 0.0

1.4977601563662593e6 1.052164048195749e7 0.0
1.052164048195749e7 -1.0322548819678545e7 0.0
0.0 0.0 0.0

-1.5195741230117164e6 1.836470607944706e7 0.0
1.836470607944706e7 -6.867454237384779e6 0.0
0.0 0.0 0.0

-5.948842078056527e6 -1.5263295452777096e6 0.0
-1.5263295452777096e6 6.964904043028868e6 0.0
0.0 0.0 0.0

-6.681799229043737e6 1.2867154680246849e7 0.0
1.2867154680246849e7 6.733715992975136e6 0.0
0.0 0.0 0.0

-7.997563207864236e6 1.6014368756224232e7 0.0
1.6014368756224232e7 5.704393736043669e6 0.0
0.0 0.0 0.0

-4.890302662222867e6 1.4035680351693533e7 0.0
1.4035680351693533e7 1.2919508798173363e6 0.0
0.0 0.0 0.0

-863133.7580279624 2.6397931462455895e6 0.0
2.6397931462455895e6 427414.17272303463 0.0
0.0 0.0 0.0

-779457.7456523298 3.1953214466545247e6 0.0
3.1953214466545247e6 -440075.87164704734 0.0
0.0 0.0 0.0

-2.3232314343795963e6 1.2837222750001587e7 0.0
1.2837222750001587e7 5.525154512402377e6 0.0
0.0 0.0 0.0

2.195930957392166e6 5.413328759986434e6 0.0
5.413328759986434e6 -4.301291488956976e6 0.0
0.0 0.0 0.0

-1.3311304417100076e6 1.4963265561275875e7 0.0
1.4963265561275875e7 -4.344826717079735e6 0.0
0.0 0.0 0.0

-2.9296497326452243e6 1.2978696822966944e7 0.0
1.2978696822966944e7 -3.3383946729033943e6 0.0
0.0 0.0 0.0

499310.5318260081 1.1653572188268594e7 0.0
1.1653572188268594e7 -7.992434348020333e6 0.0
0.0 0.0 0.0

-4.2295254352058545e6 1.1889013489754956e7 0.0
1.1889013489754956e7 1.4543748429749804e6 0.0
0.0 0.0 0.0

-6.946349381046551e6 1.1728912809695598e7 0.0
1.1728912809695598e7 5.70927957264711e6 0.0
0.0 0.0 0.0

-7.492840985143341e6 7.338833757429846e6 0.0
7.338833757429846e6 9.522082238744665e6 0.0
0.0 0.0 0.0

-1.7796913063125905e7 1.6146394183281703e7 0.0
1.6146394183281703e7 1.2269700387400895e7 0.0
0.0 0.0 0.0

1.9074567071119165e6 5.694652786163931e6 0.0
5.694652786163931e6 -5.499986703219686e6 0.0
0.0 0.0 0.0

-629288.3190469551 1.1025988023087768e7 0.0
1.1025988023087768e7 -5.6499887208288945e6 0.0
0.0 0.0 0.0

5.54477564284041e6 6.305427295751251e6 0.0
6.305427295751251e6 -1.6191612860473525e7 0.0
0.0 0.0 0.0

-2.5946627284079576e6 1.4328295346314529e7 0.0
1.4328295346314529e7 -3.7024093048698585e6 0.0
0.0 0.0 0.0

-3.063433643390777e6 6.728423884012475e6 0.0
6.728423884012475e6 502813.5588836847 0.0
0.0 0.0 0.0

-1.610696266290309e6 1.1011784276922008e7 0.0
1.1011784276922008e7 -1.0231416201662784e7 0.0
0.0 0.0 0.0

7.004253414656481e6 1.3129657977103902e7 0.0
1.3129657977103902e7 2.8158384272538777e6 0.0
0.0 0.0 0.0

-997836.411619634 3.9459396148858876e6 0.0
3.9459396148858876e6 -136631.06239576003 0.0
0.0 0.0 0.0

-2.820125600297614e6 1.265667879659303e7 0.0
1.265667879659303e7 8.046944465266643e6 0.0
0.0 0.0 0.0

-1.7919096266758554e6 1.1341148932370374e7 0.0
1.1341148932370374e7 8.840886162196258e6 0.0
0.0 0.0 0.0

-2.891079602594811e6 8.229925779777329e6 0.0
8.229925779777329e6 -3.4254632430019425e6 0.0
0.0 0.0 0.0

-7.813511284640681e6 1.8311490674285945e7 0.0
1.8311490674285945e7 2.149230497647169e6 0.0
0.0 0.0 0.0

-4.0089968167161588e6 1.2761403662786646e7 0.0
1.2761403662786646e7 -1.1309958947969885e6 0.0
0.0 0.0 0.0

-6.812446473212245e6 9.023540960918117e6 0.0
9.023540960918117e6 7.372464970151581e6 0.0
0.0 0.0 0.0

4.62073476262022e6 8.683026646345243e6 0.0
8.683026646345243e6 -2.0404610419561837e7 0.0
0.0 0.0 0.0

-791325.7574577203 3.721362133310184e6 0.0
3.721362133310184e6 -406315.6029589686 0.0
0.0 0.0 0.0

-732799.1406810893 1.2020870989098558e7 0.0
1.2020870989098558e7 -2.355459486590294e6 0.0
0.0 0.0 0.0

1.1674934091532556e6 1.0543549561844626e7 0.0
1.0543549561844626e7 3.5193174664446274e6 0.0
0.0 0.0 0.0

-6.076612243273983e6 6.453497765812715e6 0.0
6.453497765812715e6 6.511102273336625e6 0.0
0.0 0.0 0.0

-5.675729121752498e6 1.2697987799367623e7 0.0
1.2697987799367623e7 6.475820120584329e6 0.0
0.0 0.0 0.0

-6.432796245382736e6 1.360170847945763e7 0.0
1.360170847945763e7 5.251856003026115e6 0.0
0.0 0.0 0.0

-1.8527975341350652e7 1.6110833794920662e7 0.0
1.6110833794920662e7 1.2301473454176482e7 0.0
0.0 0.0 0.0

794995.9655896805 6.616238646258424e6 0.0
6.616238646258424e6 -4.278372604344211e6 0.0
0.0 0.0 0.0

-6.637417671162948e6 1.3362129032163229e7 0.0
1.3362129032163229e7 4.910598786076433e6 0.0
0.0 0.0 0.0

-3.4046153823439893e6 1.2269138050532976e7 0.0
1.2269138050532976e7 -1.3765553104988032e6 0.0
0.0 0.0 0.0

-315973.7214914928 1.221688730226744e7 0.0
1.221688730226744e7 7.848453793633004e6 0.0
0.0 0.0 0.0

-4.907132557539416e6 1.361896165909193e7 0.0
1.361896165909193e7 193189.4832079888 0.0
0.0 0.0 0.0

1.331585853382889e6 5.817817913756996e6 0.0
5.817817913756996e6 -5.393480776590964e6 0.0
0.0 0.0 0.0

-1.8483612598983627e6 1.1709481861332923e7 0.0
1.1709481861332923e7 -4.829278859888994e6 0.0
0.0 0.0 0.0

-3.0727352857838795e6 2.573255866521518e6 0.0
2.573255866521518e6 3.425350993982619e6 0.0
0.0 0.0 0.0

3.172976581207419e6 6.278166066464318e6 0.0
6.278166066464318e6 -9.62215873731447e6 0.0
0.0 0.0 0.0

5.721274526818755e6 6.742180909277978e6 0.0
6.742180909277978e6 -1.7126206666888423e7 0.0
0.0 0.0 0.0

-3.000338629199014e6 1.118151612109699e7 0.0
1.118151612109699e7 5.783054603162441e6 0.0
0.0 0.0 0.0

-39590.88180261245 1.2006767024967615e7 0.0
1.2006767024967615e7 -7.251791425122141e6 0.0
0.0 0.0 0.0

-7.266683982965417e6 8.83054814279618e6 0.0
8.83054814279618e6 6.003115322437262e6 0.0
0.0 0.0 0.0

3.025966110271598e6 5.046704364110644e6 0.0
5.046704364110644e6 -9.331960597012796e6 0.0
0.0 0.0 0.0

685648.1571251908 1.0347745487105116e7 0.0
1.0347745487105116e7 -7.599960582493423e6 0.0
0.0 0.0 0.0

277912.0724014775 1.1442805432386013e7 0.0
1.1442805432386013e7 -8.57564565016345e6 0.0
0.0 0.0 0.0

-7.469439788978741e6 9.665918457817594e6 0.0
9.665918457817594e6 6.403463881528934e6 0.0
0.0 0.0 0.0

-4.58978568537879e6 2.954395856088718e6 0.0
2.954395856088718e6 3.417204528240233e6 0.0
0.0 0.0 0.0

-2.4060781952968333e6 1.1482678959631198e6 0.0
1.1482678959631198e6 3.596735737943896e6 0.0
0.0 0.0 0.0

-313958.7655691849 1.1847632579040457e7 0.0
1.1847632579040457e7 -7.454064156592949e6 0.0
0.0 0.0 0.0

-2.2574681088222666e6 6.448478792290514e6 0.0
6.448478792290514e6 471386.74570219324 0.0
0.0 0.0 0.0

-791752.9079645667 1.2084210917023608e7 0.0
1.2084210917023608e7 8.56191704894284e6 0.0
0.0 0.0 0.0

-3.3456915764076617e6 1.3187031520769408e7 0.0
1.3187031520769408e7 -2.947492027258506e6 0.0
0.0 0.0 0.0

1.3973541909238389e6 6.011413672799884e6 0.0
6.011413672799884e6 -4.584410584365317e6 0.0
0.0 0.0 0.0

-1.0583109987974364e7 45038.56456400177 0.0
45038.56456400177 1.7315927686797105e7 0.0
0.0 0.0 0.0

-6.685000898002664e6 1.4649739294478059e7 0.0
1.4649739294478059e7 4.497406358606338e6 0.0
0.0 0.0 0.0

-8.546953291798728e6 1.4395965181644121e7 0.0
1.4395965181644121e7 7.375285575037917e6 0.0
0.0 0.0 0.0

-1.7067001757511068e6 4.001000091635037e6 0.0
4.001000091635037e6 8696.666735605919 0.0
0.0 0.0 0.0

-8.205523041820522e6 -854407.9382021008 0.0
-854407.9382021008 1.0417708665082272e7 0.0
0.0 0.0 0.0

1.6722452520788624e6 9.87431651855665e6 0.0
9.87431651855665e6 -1.1039835608381571e7 0.0
0.0 0.0 0.0

-7.084283207775872e6 1.0341292485408204e7 0.0
1.0341292485408204e7 7.564452333291671e6 0.0
0.0 0.0 0.0

-1.1243332972377308e7 931527.5170095968 0.0
931527.5170095968 1.7981849191351116e7 0.0
0.0 0.0 0.0

-3.1629046402159434e7 7.7082779844582025e6 0.0
7.7082779844582025e6 1.2998683533083238e7 0.0
0.0 0.0 0.0

547082.5123834726 8.865788985945014e6 0.0
8.865788985945014e6 -6.770051596592296e6 0.0
0.0 0.0 0.0

-220273.59581332188 1.1636512274536457e7 0.0
1.1636512274536457e7 -1.3307297460053368e6 0.0
0.0 0.0 0.0

4.413597376818385e6 5.369656031265362e6 0.0
5.369656031265362e6 -1.1702486286710892e7 0.0
0.0 0.0 0.0

-6.92191349509727e6 1.1300986080446275e7 0.0
1.1300986080446275e7 1.1329024442334287e7 0.0
0.0 0.0 0.0

-1.1840617057724489e7 826391.4323085533 0.0
826391.4323085533 1.5980378973690944e7 0.0
0.0 0.0 0.0

875060.7275457771 6.360145596387236e6 0.0
6.360145596387236e6 -4.900118965680464e6 0.0
0.0 0.0 0.0

-3.2218295769473244e6 1.2375592339527821e7 0.0
1.2375592339527821e7 -1.285087299936409e6 0.0
0.0 0.0 0.0

-5.667593888665453e6 1.3094145547125053e7 0.0
1.3094145547125053e7 2.6818107019395167e6 0.0
0.0 0.0 0.0

-5.903392861424841e6 1.1094552133471442e7 0.0
1.1094552133471442e7 5.1147851652572565e6 0.0
0.0 0.0 0.0

-7.578989462822938e6 1.4648693412809728e7 0.0
1.4648693412809728e7 6.653413737241033e6 0.0
0.0 0.0 0.0

-4.098858619518184e6 1.0973928374456963e7 0.0
1.0973928374456963e7 588094.6225612443 0.0
0.0 0.0 0.0

-8.72593494318901e6 -6.349388938210475e6 0.0
-6.349388938210475e6 1.7531634596218966e7 0.0
0.0 0.0 0.0

-1.370329639698733e6 1.2434854340787353e7 0.0
1.2434854340787353e7 4.1704573367396956e6 0.0
0.0 0.0 0.0

-176171.79418170638 1.1087960919973701e7 0.0
1.1087960919973701e7 -6.427341647509652e6 0.0
0.0 0.0 0.0

-1.0825674234433198e7 1.1292710294177594e7 0.0
1.1292710294177594e7 7.76815890534116e6 0.0
0.0 0.0 0.0

352224.94696506194 5.417966461115145e6 0.0
5.417966461115145e6 -2.648648182238481e6 0.0
0.0 0.0 0.0

-7.474013686133992e6 1.5721177051273406e7 0.0
1.5721177051273406e7 5.942500061546693e6 0.0
0.0 0.0 0.0

-260812.35358867107 1.1524958225942785e7 0.0
1.1524958225942785e7 -1.6829593202641087e6 0.0
0.0 0.0 0.0

-1.0156963803253002e7 8.129407058305214e6 0.0
8.129407058305214e6 1.11580575649774e7 0.0
0.0 0.0 0.0

1.8769416464843499e6 8.4902379003336e6 0.0
8.4902379003336e6 -8.652585392466934e6 0.0
0.0 0.0 0.0

-7.959510440380989e6 8.089716246357949e6 0.0
8.089716246357949e6 1.0686224596589632e7 0.0
0.0 0.0 0.0

1.4560387866478786e6 6.054163817041257e6 0.0
6.054163817041257e6 -4.9291338062220495e6 0.0
0.0 0.0 0.0

2.9177697921941965e6 6.670382025715835e6 0.0
6.670382025715835e6 -9.50299644721585e6 0.0
0.0 0.0 0.0

-1.1612121514231765e6 1.288362244260753e7 0.0
1.288362244260753e7 -1.2191146519711884e6 0.0
0.0 0.0 0.0

-4.535410252970535e6 1.1735137594218502e7 0.0
1.1735137594218502e7 1.8167102594510217e6 0.0
0.0 0.0 0.0

-5.466621636222255e6 1.3220499410333753e7 0.0
1.3220499410333753e7 3.2939161478034244e6 0.0
0.0 0.0 0.0

-1.7371344659597452e6 1.4062274101643141e7 0.0
1.4062274101643141e7 -4.370205111086899e6 0.0
0.0 0.0 0.0

2.854028311525322e6 5.960991014045498e6 0.0
5.960991014045498e6 -8.761307279505765e6 0.0
0.0 0.0 0.0

525890.8950143582 5.897729393520775e6 0.0
5.897729393520775e6 -3.584869512269255e6 0.0
0.0 0.0 0.0

2.670949245697184e6 6.477144840715601e6 0.0
6.477144840715601e6 -9.910023968947556e6 0.0
0.0 0.0 0.0

1.1620103998986334e6 6.319153526040261e6 0.0
6.319153526040261e6 -5.0187749954276085e6 0.0
0.0 0.0 0.0

2.5275522640777375e6 1.2522616887505807e7 0.0
1.2522616887505807e7 6.681728815893326e6 0.0
0.0 0.0 0.0

-9.714231259767842e6 1.7036213488926243e7 0.0
1.7036213488926243e7 7.8359992733911015e6 0.0
0.0 0.0 0.0

-7.001135268760177e6 -3.6983966515130796e6 0.0
-3.6983966515130796e6 1.1832971648651272e7 0.0
0.0 0.0 0.0

4.3855672038528565e6 7.803158722081613e6 0.0
7.803158722081613e6 -1.4737848981689466e7 0.0
0.0 0.0 0.0

-1.9652084536202664e6 1.4184873671585599e7 0.0
1.4184873671585599e7 -3.4800853793350384e6 0.0
0.0 0.0 0.0

-1.0485488454033755e6 1.2613098937381385e7 0.0
1.2613098937381385e7 -1.9347282226280374e6 0.0
0.0 0.0 0.0

3.3910215378600378e6 7.203529705913511e6 0.0
7.203529705913511e6 -1.2177735568054624e7 0.0
0.0 0.0 0.0

-1.1155685916828068e7 1.5772587413684634e7 0.0
1.5772587413684634e7 9.186551248999055e6 0.0
0.0 0.0 0.0

-3.803623293174157e6 1.2263599200557014e7 0.0
1.2263599200557014e7 8.969748820248889e6 0.0
0.0 0.0 0.0

-2.4558206263583988e7 1.2993109161806736e7 0.0
1.2993109161806736e7 1.2922684991920112e7 0.0
0.0 0.0 0.0

-4.338022227189589e6 1.1555942570032941e7 0.0
1.1555942570032941e7 6.447078005237486e6 0.0
0.0 0.0 0.0

1.8973598251404352e6 8.025679688291906e6 0.0
8.025679688291906e6 -8.738491984732227e6 0.0
0.0 0.0 0.0

2.365263757582446e7 1.325415045309383e7 0.0
1.325415045309383e7 404296.3072460368 0.0
0.0 0.0 0.0

-5.724127343705691e6 1.1729219690728294e7 0.0
1.1729219690728294e7 1.1160496822649188e7 0.0
0.0 0.0 0.0

-4.161966254858833e6 2.5944387078407486e6 0.0
2.5944387078407486e6 4.923806349108371e6 0.0
0.0 0.0 0.0

-606869.0441962257 1.16753636574599e7 0.0
1.16753636574599e7 866953.5186682753 0.0
0.0 0.0 0.0

654795.7876158007 1.0771278061007876e7 0.0
1.0771278061007876e7 -1.0198963971491318e7 0.0
0.0 0.0 0.0

1.173420349161298e6 1.4180644349707427e7 0.0
1.4180644349707427e7 -5.130497811879761e6 0.0
0.0 0.0 0.0

-5.668403299510275e6 1.1328443366278471e7 0.0
1.1328443366278471e7 3.996981265457517e6 0.0
0.0 0.0 0.0

-1.131492246337286e7 -415999.6169123526 0.0
-415999.6169123526 1.5115020970851803e7 0.0
0.0 0.0 0.0

-1.1570701332478736e7 1.6232074833234798e7 0.0
1.6232074833234798e7 8.629889369559113e6 0.0
0.0 0.0 0.0

-4.228394763763474e6 1.3059649750596436e7 0.0
1.3059649750596436e7 2.407535193825305e6 0.0
0.0 0.0 0.0

-5.700044111803729e6 1.295149062971003e7 0.0
1.295149062971003e7 2.8369560820625965e6 0.0
0.0 0.0 0.0

-5.407984796401474e6 1.5623773666248186e7 0.0
1.5623773666248186e7 1.4987852203474904e6 0.0
0.0 0.0 0.0

-6.587917730428108e6 1.4322945589715675e7 0.0
1.4322945589715675e7 4.183260063356175e6 0.0
0.0 0.0 0.0

-367319.05441795214 1.18761862070678e7 0.0
1.18761862070678e7 -1.2350605742530003e6 0.0
0.0 0.0 0.0

-2.8932482775467886e6 1.2122049448530767e7 0.0
1.2122049448530767e7 4.651963402072394e6 0.0
0.0 0.0 0.0

1.8420106592789583e6 1.0416994007706812e7 0.0
1.0416994007706812e7 -3.3747718462321097e6 0.0
0.0 0.0 0.0

-1.0278655819163416e6 1.1599012651068585e7 0.0
1.1599012651068585e7 -1.2166866517738454e7 0.0
0.0 0.0 0.0

-443880.51938457566 1.1975427686242264e7 0.0
1.1975427686242264e7 -618247.6907973408 0.0
0.0 0.0 0.0

-4.6135469188950835e6 1.1596450366160966e7 0.0
1.1596450366160966e7 1.2109301720803103e6 0.0
0.0 0.0 0.0

-4.436649603557935e6 7.177715271069958e6 0.0
7.177715271069958e6 1.1897655482165124e7 0.0
0.0 0.0 0.0

-1.7661665798394494e6 1.246057227167322e7 0.0
1.246057227167322e7 -4.238449749735376e6 0.0
0.0 0.0 0.0

489343.1648221165 1.024797722701187e7 0.0
1.024797722701187e7 -8.167551780804418e6 0.0
0.0 0.0 0.0

3.083099657382843e6 5.874515238563483e6 0.0
5.874515238563483e6 -9.221326886917412e6 0.0
0.0 0.0 0.0

-5.862861118630106e6 1.19482447887114e7 0.0
1.19482447887114e7 1.045989930631733e7 0.0
0.0 0.0 0.0

-2.2531104207323934e6 1.2376583724887844e7 0.0
1.2376583724887844e7 2.982991853870616e6 0.0
0.0 0.0 0.0

-8.420669817913376e6 8.003387180721261e6 0.0
8.003387180721261e6 1.0934751762146948e7 0.0
0.0 0.0 0.0

-5.423017135328639e6 1.0951926281987706e7 0.0
1.0951926281987706e7 4.402450926556483e6 0.0
0.0 0.0 0.0

-1.8370883304216047e6 1.3058074512998022e7 0.0
1.3058074512998022e7 -1.3306584362708563e6 0.0
0.0 0.0 0.0

-8.426495641148284e6 8.537865551757239e6 0.0
8.537865551757239e6 9.761099866854522e6 0.0
0.0 0.0 0.0

-1.0294853051451014e7 7.384549227519136e6 0.0
7.384549227519136e6 1.1587630917786896e7 0.0
0.0 0.0 0.0

-7.99081946402006e6 7.130207417515545e6 0.0
7.130207417515545e6 8.044718590266775e6 0.0
0.0 0.0 0.0

-2.645392995737413e6 740207.84657176 0.0
740207.84657176 2.684200875218586e6 0.0
0.0 0.0 0.0

-6.404195725402759e6 1.240056968573023e7 0.0
1.240056968573023e7 6.050737321511246e6 0.0
0.0 0.0 0.0

770627.4553294689 1.079547457180649e7 0.0
1.079547457180649e7 -1.2419808069128823e7 0.0
0.0 0.0 0.0

1.1291030293513895e6 1.0566370222835008e7 0.0
1.0566370222835008e7 -1.0409418466159137e7 0.0
0.0 0.0 0.0

-1.7265906353802864e7 1.3637563561911417e7 0.0
1.3637563561911417e7 6.540281509222326e6 0.0
0.0 0.0 0.0

-1.0581107885187322e7 -1.3819324809437743e6 0.0
-1.3819324809437743e6 1.996755214202275e7 0.0
0.0 0.0 0.0

1.350365691840659e6 1.072801212590471e7 0.0
1.072801212590471e7 -9.75743400399767e6 0.0
0.0 0.0 0.0

-6.562909236167238e6 1.4810072907744193e7 0.0
1.4810072907744193e7 3.581568520092895e6 0.0
0.0 0.0 0.0

-768011.3919974453 1.1839765105256693e7 0.0
1.1839765105256693e7 2.7297081640490475e6 0.0
0.0 0.0 0.0

-239402.046693458 2.0422376041839668e6 0.0
2.0422376041839668e6 351486.3199227547 0.0
0.0 0.0 0.0

-457539.3273651049 1.1669830717584673e7 0.0
1.1669830717584673e7 -1.7657108869669314e6 0.0
0.0 0.0 0.0

-2.726056083756838e6 1.1368263673686966e7 0.0
1.1368263673686966e7 -2.4118336195411626e6 0.0
0.0 0.0 0.0

-2.980869768123864e6 4.524875721101545e6 0.0
4.524875721101545e6 1.177782187193325e6 0.0
0.0 0.0 0.0

5.213947561749085e6 5.3060806473237155e6 0.0
5.3060806473237155e6 -1.416203070324086e7 0.0
0.0 0.0 0.0

118020.5037224195 7.448248215914612e6 0.0
7.448248215914612e6 -4.714880212254031e6 0.0
0.0 0.0 0.0

-9.520671529210638e6 -515094.64542592224 0.0
-515094.64542592224 1.033274864420195e7 0.0
0.0 0.0 0.0

-1.8209134778419056e6 1.3010080137885408e7 0.0
1.3010080137885408e7 -5.140593801127535e6 0.0
0.0 0.0 0.0

-367171.3911021666 1.2810105528259592e7 0.0
1.2810105528259592e7 4.712085512333505e6 0.0
0.0 0.0 0.0

338857.16979947896 7.202442507432062e6 0.0
7.202442507432062e6 -3.8551896043916447e6 0.0
0.0 0.0 0.0

-4.005276385319443e6 1.1582451018138524e7 0.0
1.1582451018138524e7 8.933166437477794e6 0.0
0.0 0.0 0.0

-1.0435285528446395e7 1.717772270587274e7 0.0
1.717772270587274e7 8.133340203379224e6 0.0
0.0 0.0 0.0

-4.64152236944859e6 2.7074706195571097e6 0.0
2.7074706195571097e6 3.174998457787383e6 0.0
0.0 0.0 0.0

-2.7823311718623233e6 1.2282120263678635e7 0.0
1.2282120263678635e7 4.809258304877085e6 0.0
0.0 0.0 0.0

1.5709489533393742e6 8.235661540039895e6 0.0
8.235661540039895e6 -9.06413897484922e6 0.0
0.0 0.0 0.0

-8.503137037169036e6 1.2159963595035395e7 0.0
1.2159963595035395e7 4.69099873005767e6 0.0
0.0 0.0 0.0

-203222.38228751032 4.044247426056195e6 0.0
4.044247426056195e6 -2.0612908825700302e6 0.0
0.0 0.0 0.0

-3.843114373089127e6 1.3163492546949403e7 0.0
1.3163492546949403e7 -112768.14938907698 0.0
0.0 0.0 0.0

7.074890675642767e6 1.2968224725034809e7 0.0
1.2968224725034809e7 3.127289394720074e6 0.0
0.0 0.0 0.0

-3.641882574988794e6 1.2335007761874545e7 0.0
1.2335007761874545e7 -1.1057859177197018e6 0.0
0.0 0.0 0.0

1.7839531204542872e6 8.250115540327516e6 0.0
8.250115540327516e6 -8.355424856741518e6 0.0
0.0 0.0 0.0

-6.151920260679432e6 1.3244631706913738e7 0.0
1.3244631706913738e7 6.226225921977466e6 0.0
0.0 0.0 0.0

-1.0682839826345975e7 -5.94282716518407e6 0.0
-5.94282716518407e6 2.35565357707518e7 0.0
0.0 0.0 0.0

-2.6389160383812543e6 1.1913053160730438e7 0.0
1.1913053160730438e7 -983193.6091608121 0.0
0.0 0.0 0.0

-7.826485970415487e6 1.5978130414013682e7 0.0
1.5978130414013682e7 6.260695166735927e6 0.0
0.0 0.0 0.0

1.559266490824244e6 1.0258949561947986e7 0.0
1.0258949561947986e7 -1.23570058325355e7 0.0
0.0 0.0 0.0

613034.0471727028 1.1683646861207172e7 0.0
1.1683646861207172e7 -8.218825140924128e6 0.0
0.0 0.0 0.0

717308.8758862461 1.144215293104179e7 0.0
1.144215293104179e7 -8.530731356793594e6 0.0
0.0 0.0 0.0

-1.1052311515608707e7 5.131196463569136e6 0.0
5.131196463569136e6 1.4547573671051893e7 0.0
0.0 0.0 0.0

-6.133843538906237e6 1.1488204296320949e7 0.0
1.1488204296320949e7 4.68812860062715e6 0.0
0.0 0.0 0.0

-1.3089354194886062e7 7.655542230472436e6 0.0
7.655542230472436e6 5.0196207887076855e7 0.0
0.0 0.0 0.0

8.09877192205064e6 1.0501834788872749e7 0.0
1.0501834788872749e7 -2.4139391302976232e7 0.0
0.0 0.0 0.0

-1.0662621039417809e7 1.3533930058197433e7 0.0
1.3533930058197433e7 5.056184131690603e6 0.0
0.0 0.0 0.0

-2.8024538944801157e6 1.2022027486516556e7 0.0
1.2022027486516556e7 3.3717974178336244e6 0.0
0.0 0.0 0.0

-9.33995618117725e6 1.241824981679297e7 0.0
1.241824981679297e7 2.2749369800985865e6 0.0
0.0 0.0 0.0

-84375.0387769082 3.292283796799587e6 0.0
3.292283796799587e6 -367625.6226657108 0.0
0.0 0.0 0.0

-8.138770535651259e6 9.295309019464573e6 0.0
9.295309019464573e6 8.530592576634046e6 0.0
0.0 0.0 0.0

-3.986374923817912e6 1.3287495239767445e7 0.0
1.3287495239767445e7 4733.022267943481 0.0
0.0 0.0 0.0

-8.78535141324871e6 101511.56965891049 0.0
101511.56965891049 1.1437053216395278e7 0.0
0.0 0.0 0.0

7.864512296348329e6 1.3010999501776814e7 0.0
1.3010999501776814e7 3.104673041203118e6 0.0
0.0 0.0 0.0

-3.604136241707099e6 1.2726282394577304e7 0.0
1.2726282394577304e7 6.372764500732211e6 0.0
0.0 0.0 0.0

-6.692040050062818e6 1.0062139500377247e7 0.0
1.0062139500377247e7 7.067608097324362e6 0.0
0.0 0.0 0.0

-1.91672198880022e7 1.3251399967427814e7 0.0
1.3251399967427814e7 1.3486998302971086e7 0.0
0.0 0.0 0.0

1.6963887050804296e6 1.040329018294604e7 0.0
1.040329018294604e7 -743858.5863617129 0.0
0.0 0.0 0.0

2.4318307894324223e6 1.0263643632596128e7 0.0
1.0263643632596128e7 -3.923598683682251e6 0.0
0.0 0.0 0.0

-6.357708996904828e6 1.3721150384559698e7 0.0
1.3721150384559698e7 6.049607546714788e6 0.0
0.0 0.0 0.0

-2.717440106240782e6 1.298609060310003e7 0.0
1.298609060310003e7 173298.83669784118 0.0
0.0 0.0 0.0

287090.7230024277 9.18460226294706e6 0.0
9.18460226294706e6 -3.970570780309645e6 0.0
0.0 0.0 0.0

2.345928187517859e6 1.110837623886647e7 0.0
1.110837623886647e7 -5.008755938511353e6 0.0
0.0 0.0 0.0

-3.6505920685465573e6 1.0891420214286737e7 0.0
1.0891420214286737e7 5.627565791333978e6 0.0
0.0 0.0 0.0

-6.658667451354759e6 1.73715450099126e7 0.0
1.73715450099126e7 3.22497904650443e6 0.0
0.0 0.0 0.0

-6.6387762558076875e6 1.2438497244435161e7 0.0
1.2438497244435161e7 6.296488668809639e6 0.0
0.0 0.0 0.0

-1.0663455387057334e7 1.704440968592779e7 0.0
1.704440968592779e7 7.930750216519064e6 0.0
0.0 0.0 0.0

-278369.81115720514 1.1573141189742671e7 0.0
1.1573141189742671e7 -1.3112198312829949e7 0.0
0.0 0.0 0.0

-1.140610214210188e6 1.3926686235373342e7 0.0
1.3926686235373342e7 -1.8941130758867256e7 0.0
0.0 0.0 0.0

743609.0581730362 1.3693450161067061e7 0.0
1.3693450161067061e7 3.794624123937776e7 0.0
0.0 0.0 0.0

-249484.55801368225 1.2891329867015963e7 0.0
1.2891329867015963e7 4.901421570401979e6 0.0
0.0 0.0 0.0

3.265907306324334e6 8.402253212403137e6 0.0
8.402253212403137e6 -1.3821264177271886e7 0.0
0.0 0.0 0.0

-7.60022554730254e6 1.717713942985885e7 0.0
1.717713942985885e7 2.9565633124135146e6 0.0
0.0 0.0 0.0

-2.733012121697067e6 1.3037408365038613e7 0.0
1.3037408365038613e7 -2.717204393869574e6 0.0
0.0 0.0 0.0

-490001.39000674663 1.2042612871806858e7 0.0
1.2042612871806858e7 -2.339635791587203e6 0.0
0.0 0.0 0.0

-1.195132795988786e6 1.3115573636661317e7 0.0
1.3115573636661317e7 -4.976145393557084e6 0.0
0.0 0.0 0.0

-2.09545801834925e7 1.3792952591972833e7 0.0
1.3792952591972833e7 1.4253817058398344e7 0.0
0.0 0.0 0.0

-7.899174093898818e6 1.576778039680033e7 0.0
1.576778039680033e7 5.897117194009053e6 0.0
0.0 0.0 0.0

-6.588129919029679e6 1.3899323903298857e7 0.0
1.3899323903298857e7 5.6546915237833755e6 0.0
0.0 0.0 0.0

5.217719289849909e6 5.863607685134116e6 0.0
5.863607685134116e6 -1.4929916643369975e7 0.0
0.0 0.0 0.0

751750.419367509 1.4672214989082005e7 0.0
1.4672214989082005e7 -5.203519269861936e6 0.0
0.0 0.0 0.0

1.381736780375672e6 1.0460191572634388e7 0.0
1.0460191572634388e7 -1.2023587496391295e7 0.0
0.0 0.0 0.0

-238633.6169186663 1.501745802409853e7 0.0
1.501745802409853e7 -4.347691277786905e6 0.0
0.0 0.0 0.0

680058.4204261387 8.698643235229049e6 0.0
8.698643235229049e6 -3.296185964813412e6 0.0
0.0 0.0 0.0

-2.8976240115290876e6 1.2703864090103082e7 0.0
1.2703864090103082e7 5.254997005566197e6 0.0
0.0 0.0 0.0

-6.936638330365468e6 1.4289303524656326e7 0.0
1.4289303524656326e7 5.979628553603311e6 0.0
0.0 0.0 0.0

-6.272450308745086e6 -1.4588130561532413e6 0.0
-1.4588130561532413e6 7.477285092363246e6 0.0
0.0 0.0 0.0

5.486978801550506e6 1.0879584041471932e7 0.0
1.0879584041471932e7 -4.1346222065278073e6 0.0
0.0 0.0 0.0

-3.4517901040174425e7 1.2887173967163278e7 0.0
1.2887173967163278e7 1.26516455472542e7 0.0
0.0 0.0 0.0

-1.1422938400479682e7 5.33067964731823e6 0.0
5.33067964731823e6 1.3169000240963975e7 0.0
0.0 0.0 0.0

-4.1755927290707296e6 1.2785949472433968e7 0.0
1.2785949472433968e7 2.362863626779328e6 0.0
0.0 0.0 0.0

2.3309044830752215e6 1.1058741631030146e7 0.0
1.1058741631030146e7 -4.1334185459286487e6 0.0
0.0 0.0 0.0

3.994904743622481e6 5.76882058035201e6 0.0
5.76882058035201e6 -1.096847233852064e7 0.0
0.0 0.0 0.0

-2.921927434545527e6 1.2222891493022332e7 0.0
1.2222891493022332e7 2.7039794755604225e6 0.0
0.0 0.0 0.0

-8.559426106133386e6 -6.366868116773316e6 0.0
-6.366868116773316e6 1.695087247427037e7 0.0
0.0 0.0 0.0

-2.370871563997303e6 1.5308588672361683e7 0.0
1.5308588672361683e7 -2.4548291585138638e7 0.0
0.0 0.0 0.0

2.0025797472899966e6 1.8633786511437446e7 0.0
1.8633786511437446e7 4.6862973300039425e7 0.0
0.0 0.0 0.0

1.951941625407041e6 9.62544432611835e6 0.0
9.62544432611835e6 -1.141645031855632e7 0.0
0.0 0.0 0.0

509293.46398363006 6.016554305694674e6 0.0
6.016554305694674e6 -4.0481805984835224e6 0.0
0.0 0.0 0.0

-1.49592659893776e6 1.2219046975030715e7 0.0
1.2219046975030715e7 5.885486207105426e6 0.0
0.0 0.0 0.0

-1.1604233414535016e7 -5.306473832985995e6 0.0
-5.306473832985995e6 2.3352182775165126e7 0.0
0.0 0.0 0.0

802343.7580491086 6.7472499126930935e6 0.0
6.7472499126930935e6 -4.561602312730251e6 0.0
0.0 0.0 0.0

-6.234220420118762e6 1.7373222173946854e7 0.0
1.7373222173946854e7 916873.298157888 0.0
0.0 0.0 0.0

-1.4932777482757196e6 1.1548585862681264e7 0.0
1.1548585862681264e7 -5.384570404802061e6 0.0
0.0 0.0 0.0

-663126.1375159107 1.23090491721446e7 0.0
1.23090491721446e7 3.7532808986422536e6 0.0
0.0 0.0 0.0

-2.4811270056892387e6 1.3096693391658293e7 0.0
1.3096693391658293e7 326523.5255155674 0.0
0.0 0.0 0.0

-1.0474199920772305e7 1.2287811253321845e7 0.0
1.2287811253321845e7 2.229990713395663e6 0.0
0.0 0.0 0.0

-7.673512455111323e6 1.5449434578725247e7 0.0
1.5449434578725247e7 5.970590529417067e6 0.0
0.0 0.0 0.0

-862242.9669999182 1.1916825197553638e7 0.0
1.1916825197553638e7 1.6920300568752384e6 0.0
0.0 0.0 0.0

-2.7559422098774407e6 1.2075223464763332e7 0.0
1.2075223464763332e7 3.9393191448166813e6 0.0
0.0 0.0 0.0

466352.94631855376 1.05411889317325e7 0.0
1.05411889317325e7 -7.926761922627902e6 0.0
0.0 0.0 0.0

-1.34579496736788e6 1.2978125741702134e7 0.0
1.2978125741702134e7 -5.657423396917697e6 0.0
0.0 0.0 0.0

-1.1988860111888504e7 -3.7081895530365645e6 0.0
-3.7081895530365645e6 2.1741756478241324e7 0.0
0.0 0.0 0.0

-2.0254243739004996e7 1.540203234172528e7 0.0
1.540203234172528e7 1.32252258706095e7 0.0
0.0 0.0 0.0

-1.2422810287869409e7 1.3730952142245648e7 0.0
1.3730952142245648e7 9.313227094515255e6 0.0
0.0 0.0 0.0

-1.7467444376184456e7 1.0162291308086285e7 0.0
1.0162291308086285e7 9.953320964887263e6 0.0
0.0 0.0 0.0

-473804.3728642591 1.2086414241543004e7 0.0
1.2086414241543004e7 -268666.15666216635 0.0
0.0 0.0 0.0

-3.243784514977299e6 1.295152534159664e7 0.0
1.295152534159664e7 472545.5748568536 0.0
0.0 0.0 0.0

-1.2188712059448503e7 1.200285526561408e7 0.0
1.200285526561408e7 7.370820089227071e6 0.0
0.0 0.0 0.0

1.061193121405489e6 6.56326589177784e6 0.0
6.56326589177784e6 -4.605083249117057e6 0.0
0.0 0.0 0.0

-1.4688722369562688e6 1.2687930014162244e7 0.0
1.2687930014162244e7 4.241205129120467e6 0.0
0.0 0.0 0.0

3.9129740048070783e6 8.014839712991521e6 0.0
8.014839712991521e6 -1.339467184211178e7 0.0
0.0 0.0 0.0

-1.0515887494198032e7 6.04816594898554e6 0.0
6.04816594898554e6 1.4053948981257502e7 0.0
0.0 0.0 0.0

-1.0576250700776355e7 -5.833892637988742e6 0.0
-5.833892637988742e6 2.4073058340628386e7 0.0
0.0 0.0 0.0

5.390573570044808e6 5.939014992157767e6 0.0
5.939014992157767e6 -1.4874951059459243e7 0.0
0.0 0.0 0.0

-1.9882330981037192e7 1.1960231873932477e7 0.0
1.1960231873932477e7 9.14315818643286e6 0.0
0.0 0.0 0.0

-8.652289131841214e6 -5.188458322537061e6 0.0
-5.188458322537061e6 1.4147927463660963e7 0.0
0.0 0.0 0.0

-7.599247126085263e6 -4.1684374975119494e6 0.0
-4.1684374975119494e6 1.0795430434585106e7 0.0
0.0 0.0 0.0

846537.4274347555 6.411379046198245e6 0.0
6.411379046198245e6 -5.139532745153363e6 0.0
0.0 0.0 0.0

-7.398811548745317e6 -1.8056611785371562e6 0.0
-1.8056611785371562e6 1.1067767306315824e7 0.0
0.0 0.0 0.0

-9.943800460922947e6 2.227966654091159e7 0.0
2.227966654091159e7 -416918.84563808655 0.0
0.0 0.0 0.0

-6.666192732787701e6 1.0720983846232435e7 0.0
1.0720983846232435e7 7.0784752289781235e6 0.0
0.0 0.0 0.0

5.452742784800605e6 6.611416429117984e6 0.0
6.611416429117984e6 -1.7296813523542516e7 0.0
0.0 0.0 0.0

4.15086263255106e6 5.972830301715191e6 0.0
5.972830301715191e6 -1.2519901988893472e7 0.0
0.0 0.0 0.0

-6.022632388529095e6 1.1351577004039088e7 0.0
1.1351577004039088e7 4.1525727462312826e6 0.0
0.0 0.0 0.0

-1.071801568372379e7 1.6347796092537133e7 0.0
1.6347796092537133e7 8.378480399105144e6 0.0
0.0 0.0 0.0

550770.6130994793 7.443562244951357e6 0.0
7.443562244951357e6 2.96108097286983e6 0.0
0.0 0.0 0.0

-2.684454536820012e6 1.2312309701837076e7 0.0
1.2312309701837076e7 8.73126566001718e6 0.0
0.0 0.0 0.0

637498.7736986512 1.438385870845466e7 0.0
1.438385870845466e7 -5.398248025869528e6 0.0
0.0 0.0 0.0

-7.894086537929e6 -5.596787724603301e6 0.0
-5.596787724603301e6 1.4888083119100783e7 0.0
0.0 0.0 0.0

-1.3560087450226828e7 7.5546932254960975e6 0.0
7.5546932254960975e6 7.584582601440944e6 0.0
0.0 0.0 0.0

-7.573233854837781e6 1.5192940227212602e7 0.0
1.5192940227212602e7 5.630635556859313e6 0.0
0.0 0.0 0.0

-5.962346518256249e6 1.3271279452426005e7 0.0
1.3271279452426005e7 1.698734264172823e7 0.0
0.0 0.0 0.0

855729.9488277328 1.4498374254841335e7 0.0
1.4498374254841335e7 -4.877064443132037e6 0.0
0.0 0.0 0.0

-1.667694847167274e6 1.3154227253285363e7 0.0
1.3154227253285363e7 -947523.8130492842 0.0
0.0 0.0 0.0

-5.6980840156913735e6 1.2464820774859294e7 0.0
1.2464820774859294e7 6.537485749274109e6 0.0
0.0 0.0 0.0

-1.5950937665232678e6 1.26959529681631e7 0.0
1.26959529681631e7 -1.892988943423571e6 0.0
0.0 0.0 0.0

-3.379948126013547e7 1.7367217688800514e7 0.0
1.7367217688800514e7 6.276598444544259e6 0.0
0.0 0.0 0.0

-7.39368770633791e6 1.0384083267298205e7 0.0
1.0384083267298205e7 6.5424696606667e6 0.0
0.0 0.0 0.0

-1.5396436665563686e6 1.312591261882863e7 0.0
1.312591261882863e7 -1.2636696815007534e6 0.0
0.0 0.0 0.0

-5.009429458234495e6 1.2887488766838187e7 0.0
1.2887488766838187e7 6.164245280783366e6 0.0
0.0 0.0 0.0

30956.793974584434 1.4094524696320731e7 0.0
1.4094524696320731e7 -4.923460369328334e6 0.0
0.0 0.0 0.0

3.777794690073309e6 5.809162996282986e6 0.0
5.809162996282986e6 -1.0705607368226703e7 0.0
0.0 0.0 0.0

-1.3665561566070197e6 1.3759467169752508e7 0.0
1.3759467169752508e7 -4.836158992260046e6 0.0
0.0 0.0 0.0

-2.1385921440367468e7 1.4761285869026387e7 0.0
1.4761285869026387e7 1.2121179061734978e7 0.0
0.0 0.0 0.0

-7.607328487842743e6 1.467076800364974e7 0.0
1.467076800364974e7 6.5486716023541e6 0.0
0.0 0.0 0.0

-3.079392758854307e6 844441.3669452404 0.0
844441.3669452404 3.1772558778232066e6 0.0
0.0 0.0 0.0

-667273.3796856857 1.202899650226702e7 0.0
1.202899650226702e7 -6.973759945455611e6 0.0
0.0 0.0 0.0

4.540216805746389e6 1.1081354642135061e7 0.0
1.1081354642135061e7 -3.8185544889787463e6 0.0
0.0 0.0 0.0

-3.034140732047934e7 1.413715734879085e7 0.0
1.413715734879085e7 1.0768146253046231e7 0.0
0.0 0.0 0.0

-486373.7845503867 1.142699207415254e7 0.0
1.142699207415254e7 1.8767704110408314e6 0.0
0.0 0.0 0.0

3.697329275932016e6 8.049475414205622e6 0.0
8.049475414205622e6 -1.4107649391201634e7 0.0
0.0 0.0 0.0

147010.35911413096 1.0485742485625181e7 0.0
1.0485742485625181e7 -7.797507636828856e6 0.0
0.0 0.0 0.0

-2.609860118676369e6 1.2419971947861312e7 0.0
1.2419971947861312e7 3.1980643661675695e6 0.0
0.0 0.0 0.0

-1.1270357880770052e7 1.6237686933846885e7 0.0
1.6237686933846885e7 8.662136660645783e6 0.0
0.0 0.0 0.0

-4.60909078890562e6 1.3863508978697238e7 0.0
1.3863508978697238e7 634658.2656201127 0.0
0.0 0.0 0.0

4.429176509510315e6 5.620724836782927e6 0.0
5.620724836782927e6 -1.2244496193265283e7 0.0
0.0 0.0 0.0

-3.0257695117771123e6 1.3452960028041532e7 0.0
1.3452960028041532e7 1.0580741277992329e7 0.0
0.0 0.0 0.0

-274220.18727852346 8.310248715059809e6 0.0
8.310248715059809e6 -3.5109993963618316e6 0.0
0.0 0.0 0.0

-2.3076054567847837e7 1.459957262208025e7 0.0
1.459957262208025e7 1.0475532451009655e7 0.0
0.0 0.0 0.0

-8.3224981559575815e6 -1.5114936088466188e6 0.0
-1.5114936088466188e6 9.223078626011346e6 0.0
0.0 0.0 0.0

-7.875881893845813e6 -1.3853169956847576e6 0.0
-1.3853169956847576e6 1.0900089339456758e7 0.0
0.0 0.0 0.0

4.358966208361285e6 1.0306099828771574e7 0.0
1.0306099828771574e7 -1.3001375764783747e6 0.0
0.0 0.0 0.0

-8.512567886529757e6 -4.936017173114149e6 0.0
-4.936017173114149e6 1.579770194741651e7 0.0
0.0 0.0 0.0

-320177.10739679576 1.1500342790570593e7 0.0
1.1500342790570593e7 1.88467227608789e6 0.0
0.0 0.0 0.0

187910.43355815182 1.3097638395928644e7 0.0
1.3097638395928644e7 5.009422186132353e6 0.0
0.0 0.0 0.0

-7.814432693766804e6 1.673904932528263e7 0.0
1.673904932528263e7 4.475210038611064e6 0.0
0.0 0.0 0.0

-1.31855074821265e7 -183134.55668419166 0.0
-183134.55668419166 2.515277077358516e7 0.0
0.0 0.0 0.0

1.2429320291641327e6 1.052897804657063e7 0.0
1.052897804657063e7 -1.190743131713516e7 0.0
0.0 0.0 0.0

656091.365233015 6.656440924860775e6 0.0
6.656440924860775e6 -4.746589185421374e6 0.0
0.0 0.0 0.0

-2.4501352510275356e6 1.2234829607924681e7 0.0
1.2234829607924681e7 2.44155499865833e6 0.0
0.0 0.0 0.0

-1.8406142602575421e6 1.3446969192710485e7 0.0
1.3446969192710485e7 6.091383215875595e6 0.0
0.0 0.0 0.0

-1.004717898977888e7 -3.6312467265213584e6 0.0
-3.6312467265213584e6 1.4689537653541027e7 0.0
0.0 0.0 0.0

-7.642325870505458e6 3.3786940993604977e6 0.0
3.3786940993604977e6 6.861648973258177e6 0.0
0.0 0.0 0.0

-4.278238861385624e6 1.1330760054264417e7 0.0
1.1330760054264417e7 1.3237445897201607e6 0.0
0.0 0.0 0.0

-3.161898682708552e6 4.897619213967629e6 0.0
4.897619213967629e6 9.170263437222015e6 0.0
0.0 0.0 0.0

2.215342716028842e6 1.0807130817534452e7 0.0
1.0807130817534452e7 -4.385334759760397e6 0.0
0.0 0.0 0.0

-7.9100067697287e6 -2.0536286536056586e6 0.0
-2.0536286536056586e6 9.379991184991024e6 0.0
0.0 0.0 0.0

-1.2697638696113149e7 -247442.59093768496 0.0
-247442.59093768496 2.774854633003524e7 0.0
0.0 0.0 0.0

2.1197827765848255e6 1.0893182357493788e7 0.0
1.0893182357493788e7 -4.233823060792867e6 0.0
0.0 0.0 0.0

-1.2224273375033378e6 1.1759820858488027e7 0.0
1.1759820858488027e7 -5.120456755399918e6 0.0
0.0 0.0 0.0

-1.24602155518397e7 -143574.62359042175 0.0
-143574.62359042175 2.7911425800613604e7 0.0
0.0 0.0 0.0

1.127428295869678e6 1.3777555840199128e7 0.0
1.3777555840199128e7 -5.308452179811692e6 0.0
0.0 0.0 0.0

-1.7147963759465208e6 1.236137178108101e7 0.0
1.236137178108101e7 3.73139961172139e6 0.0
0.0 0.0 0.0

-2.374101414396068e6 6.451839285751473e6 0.0
6.451839285751473e6 601208.0574295813 0.0
0.0 0.0 0.0

-4.148776109902029e6 957056.0465972988 0.0
957056.0465972988 5.327099493231824e6 0.0
0.0 0.0 0.0

-4.309444795322085e6 595060.428039236 0.0
595060.428039236 1.778040161574656e6 0.0
0.0 0.0 0.0

