# vtk DataFile Version 2.0
phase field modeling fracture
ASCII
DATASET UNSTRUCTURED_GRID
POINTS 2538 float
0.0 0.0 0.0
10.0 0.0 0.0
0.0 10.0 0.0
10.0 10.0 0.0
0.0 4.9995 0.0
0.0 5.0005 0.0
5.0 5.0 0.0
0.9416964895726688 0.0 0.0
1.803581725054446 0.0 0.0
2.592419885431098 0.0 0.0
3.314401822861676 0.0 0.0
3.975193910351406 0.0 0.0
4.579982132660152 0.0 0.0
5.133512780936812 0.0 0.0
5.640130319506143 0.0 0.0
6.103810708661955 0.0 0.0
6.528192895506818 0.0 0.0
6.916607540127679 0.0 0.0
7.272102969376355 0.0 0.0
7.597469242948583 0.0 0.0
7.895259826292669 0.0 0.0
8.167811885738017 0.0 0.0
8.417264413845215 0.0 0.0
8.645575169389538 0.0 0.0
8.854535961159101 0.0 0.0
9.045786767735546 0.0 0.0
9.220828555767493 0.0 0.0
9.38103509633881 0.0 0.0
9.527663687265145 0.0 0.0
9.661865124984566 0.0 0.0
9.784692609918062 0.0 0.0
9.897110148790482 0.0 0.0
10.0 0.09999999999992584 0.0
10.0 0.199999999999856 0.0
10.0 0.2999999999997771 0.0
10.0 0.3999999999996677 0.0
10.0 0.4999999999995511 0.0
10.0 0.5999999999994683 0.0
10.0 0.6999999999993983 0.0
10.0 0.7999999999993286 0.0
10.0 0.8999999999992587 0.0
10.0 0.9999999999991888 0.0
10.0 1.099999999999119 0.0
10.0 1.199999999999033 0.0
10.0 1.299999999998852 0.0
10.0 1.399999999998576 0.0
10.0 1.499999999998284 0.0
10.0 1.599999999997992 0.0
10.0 1.6999999999977 0.0
10.0 1.799999999997408 0.0
10.0 1.899999999997116 0.0
10.0 1.999999999996825 0.0
10.0 2.099999999996533 0.0
10.0 2.199999999996241 0.0
10.0 2.299999999995949 0.0
10.0 2.399999999995657 0.0
10.0 2.499999999995365 0.0
10.0 2.599999999995073 0.0
10.0 2.699999999994782 0.0
10.0 2.79999999999449 0.0
10.0 2.899999999994198 0.0
10.0 2.999999999993906 0.0
10.0 3.099999999993614 0.0
10.0 3.199999999993322 0.0
10.0 3.299999999993029 0.0
10.0 3.399999999992738 0.0
10.0 3.499999999992446 0.0
10.0 3.599999999992154 0.0
10.0 3.699999999991863 0.0
10.0 3.799999999991571 0.0
10.0 3.899999999991278 0.0
10.0 3.999999999991022 0.0
10.0 4.099999999991035 0.0
10.0 4.199999999991187 0.0
10.0 4.299999999991338 0.0
10.0 4.399999999991491 0.0
10.0 4.499999999991642 0.0
10.0 4.599999999991795 0.0
10.0 4.699999999991947 0.0
10.0 4.799999999992099 0.0
10.0 4.89999999999225 0.0
10.0 4.999999999992403 0.0
10.0 5.099999999992555 0.0
10.0 5.199999999992706 0.0
10.0 5.299999999992858 0.0
10.0 5.39999999999301 0.0
10.0 5.499999999993161 0.0
10.0 5.599999999993313 0.0
10.0 5.699999999993466 0.0
10.0 5.799999999993618 0.0
10.0 5.899999999993771 0.0
10.0 5.999999999993922 0.0
10.0 6.099999999994074 0.0
10.0 6.199999999994227 0.0
10.0 6.299999999994378 0.0
10.0 6.39999999999453 0.0
10.0 6.499999999994682 0.0
10.0 6.599999999994833 0.0
10.0 6.699999999994986 0.0
10.0 6.799999999995138 0.0
10.0 6.899999999995289 0.0
10.0 6.999999999995442 0.0
10.0 7.099999999995594 0.0
10.0 7.199999999995747 0.0
10.0 7.299999999995897 0.0
10.0 7.39999999999605 0.0
10.0 7.499999999996202 0.0
10.0 7.599999999996353 0.0
10.0 7.699999999996505 0.0
10.0 7.799999999996658 0.0
10.0 7.899999999996808 0.0
10.0 7.999999999996962 0.0
10.0 8.099999999997113 0.0
10.0 8.199999999997265 0.0
10.0 8.299999999997418 0.0
10.0 8.399999999997569 0.0
10.0 8.499999999997721 0.0
10.0 8.599999999997873 0.0
10.0 8.699999999998024 0.0
10.0 8.799999999998176 0.0
10.0 8.899999999998329 0.0
10.0 8.99999999999848 0.0
10.0 9.099999999998634 0.0
10.0 9.199999999998786 0.0
10.0 9.299999999998937 0.0
10.0 9.399999999999089 0.0
10.0 9.499999999999241 0.0
10.0 9.599999999999392 0.0
10.0 9.699999999999545 0.0
10.0 9.799999999999697 0.0
10.0 9.899999999999848 0.0
9.897110148790565 10.0 0.0
9.784692609918244 10.0 0.0
9.66186512498486 10.0 0.0
9.527663687265571 10.0 0.0
9.381035096339392 10.0 0.0
9.220828555768257 10.0 0.0
9.045786767736512 10.0 0.0
8.854535961160305 10.0 0.0
8.645575169391027 10.0 0.0
8.417264413847017 10.0 0.0
8.167811885740178 10.0 0.0
7.895259826295246 10.0 0.0
7.597469242951631 10.0 0.0
7.272102969379938 10.0 0.0
6.916607540131873 10.0 0.0
6.528192895511704 10.0 0.0
6.103810708667616 10.0 0.0
5.640130319512691 10.0 0.0
5.13351278094435 10.0 0.0
4.579982132668816 10.0 0.0
3.975193910361222 10.0 0.0
3.314401822869852 10.0 0.0
2.592419885437257 10.0 0.0
1.803581725058137 10.0 0.0
0.9416964895740705 10.0 0.0
0.0 9.00010000000243 0.0
0.0 8.000200000005481 0.0
0.0 7.000300000005135 0.0
0.0 6.000400000002569 0.0
0.901790731451151 5.000409820926855 0.0
1.657200899774397 5.000334279910023 0.0
2.289991063707192 5.000271000893629 0.0
2.820065163538221 5.000217993483646 0.0
3.264096435579811 5.000173590356442 0.0
3.636051481595835 5.00013639485184 0.0
3.947629914072366 5.000105237008593 0.0
4.208632181002628 5.0000791367819 0.0
4.427267949625672 5.000057273205037 0.0
4.610414277633563 5.000038958572237 0.0
4.763831845154243 5.000023616815485 0.0
4.892346298799659 5.00001076537012 0.0
4.892346298799748 4.99998923462988 0.0
4.763831845154455 4.999976383184515 0.0
4.610414277633943 4.999961041427763 0.0
4.427267949626277 4.999942726794963 0.0
4.208632181003523 4.9999208632181 0.0
3.94762991407365 4.999894762991407 0.0
3.636051481597624 4.99986360514816 0.0
3.264096435582253 4.999826409643559 0.0
2.820065163541503 4.999782006516354 0.0
2.289991063711534 4.999728999106371 0.0
1.657200899778495 4.999665720089978 0.0
0.9017907314530094 4.999590179073145 0.0
0.0 3.999600000002013 0.0
0.0 2.999700000005187 0.0
0.0 1.99980000000512 0.0
0.0 0.9999000000025537 0.0
9.897889398521345 2.93573355845387 0.0
9.906568249974548 7.060009441434234 0.0
9.913122631074113 3.64016132281653 0.0
9.922462129543863 6.354535290629151 0.0
9.917693659967533 4.354211663134567 0.0
9.909873057440208 5.637584487339942 0.0
9.914183254994697 4.950672966925282 0.0
9.913885043715895 7.666887930262611 0.0
9.91009668007573 2.351889069770817 0.0
9.905135696074536 8.138152454502785 0.0
9.913397459621809 1.849999999997262 0.0
7.099302372137626 0.297750452375005 0.0
7.095143729410097 9.700359990366296 0.0
4.942912558701401 5.095838627899509 0.0
4.315009232304429 5.165022115481685 0.0
4.946182472483878 4.906763777264103 0.0
4.317967462990024 4.825955043772673 0.0
9.916390871492647 8.64999999999792 0.0
9.921504649680616 1.368376469890358 0.0
8.292538149791614 0.206877570318844 0.0
8.292538149793597 9.793122429681448 0.0
5.884594439766573 9.587645267048616 0.0
5.794826292691579 0.3794853783929359 0.0
9.913397459621425 9.049999999998557 0.0
9.908526577714177 0.9568239351922434 0.0
3.456851160380649 5.315740054130451 0.0
3.457889657868442 4.707121019609468 0.0
8.945214200703926 0.1503383337970344 0.0
8.950161364448409 9.8413906539257 0.0
9.913862335499305 4.055887885208452 0.0
9.916697353372683 4.650158482607802 0.0
9.919076340414442 6.049999999994006 0.0
9.906994308667635 5.25749687748192 0.0
9.917490342358025 6.655979201891897 0.0
9.915757520293784 7.343848891656911 0.0
9.910049507471042 3.363474386285078 0.0
9.914471988502868 2.647400064832979 0.0
9.91474124160965 9.337490423485129 0.0
9.916971008170838 0.6499999999994355 0.0
4.307157269264427 9.509674045029644 0.0
4.331527375865619 0.4401616696422582 0.0
9.45434939180249 9.878397030523757 0.0
9.457696120412969 0.1270877537061785 0.0
2.555070293622606 5.422044496190925 0.0
2.566232917480916 4.608001224030952 0.0
3.026511860837692 9.332320638257093 0.0
2.945561971800619 0.5895662714727601 0.0
7.7395404387124 0.2511088946967771 0.0
7.736379255744154 9.745848826372828 0.0
4.687135269408529 5.122111433928926 0.0
4.688420821504113 4.871895064967488 0.0
9.910554884115975 0.3448356354522978 0.0
9.911230082250466 9.65764729394159 0.0
9.921953841410854 6.851023993342036 0.0
9.912065178606017 5.448170483544033 0.0
9.911660025326261 3.861846960030188 0.0
9.914847467973438 3.14501593945607 0.0
9.913397459621425 5.849999999993703 0.0
9.913397459621425 7.849999999996735 0.0
9.906916878988277 2.15455769998631 0.0
9.913397459621425 8.349999999997479 0.0
9.909472363117661 1.640528221515488 0.0
9.913987325695956 1.152857110636247 0.0
9.913397459621425 8.849999999998241 0.0
0.9100099990995943 2.614215977520411 0.0
0.8395284981715456 7.451196254860987 0.0
9.723278867451556 9.898135916635193 0.0
9.723316350887044 0.09841820909386662 0.0
1.385819164827588 4.454539963646463 0.0
1.338343629665047 5.523111536005823 0.0
1.377179700550677 0.6809168304959698 0.0
1.418060461092743 9.285896715136046 0.0
9.91268220142518 0.1457914080939694 0.0
9.906737126737994 9.845745933882352 0.0
0.7108351382691361 6.537941170074089 0.0
1.527735020267026 6.915620208855231 0.0
1.630993885659103 7.838271825205868 0.0
2.232760943566823 7.370850737296832 0.0
2.243414218068206 6.688299277952821 0.0
2.779655053105118 7.021588754814074 0.0
2.80227799359795 7.632420170547022 0.0
3.282022065908813 7.305859666021318 0.0
3.327597298795347 7.857554136825748 0.0
3.743210251018715 7.549183328204379 0.0
3.716353232200752 7.062036086888612 0.0
4.111978858674101 7.27497101169417 0.0
4.104192177581432 6.879858986267289 0.0
4.436230765617037 7.045693351607117 0.0
4.430360014817357 6.703971783962796 0.0
4.732390145036301 6.849841042423394 0.0
5.056161327708878 5.095276573498806 0.0
5.111586796021131 4.999081142133581 0.0
5.169267363407189 5.09444870412406 0.0
5.223795108752053 4.996986220359468 0.0
5.281480803887719 5.092780870372803 0.0
5.335670761900611 4.994887492556936 0.0
5.393485214772442 5.090486192743301 0.0
5.447323082877892 4.992601527033996 0.0
5.505243219343024 5.087953380710069 0.0
5.558739102026105 4.990287787962959 0.0
5.616491581184779 5.085335255235766 0.0
5.669852346908056 4.9879269227514 0.0
5.727502713908907 5.082679981817038 0.0
5.780766004135139 4.988313988715834 0.0
5.838244881129535 5.080480568766611 0.0
5.891357695677371 4.986433849408193 0.0
5.948696036767613 5.077969900389505 0.0
6.001601341641615 4.981313698556656 0.0
6.058851024265095 5.074871552128682 0.0
6.111614020704875 4.978360695880202 0.0
6.168801161530775 5.072044953270978 0.0
6.221368818778567 4.975825765213497 0.0
6.278268309066882 5.066182320461055 0.0
6.330814273567539 4.972837984645718 0.0
6.387565032421376 5.062889771971895 0.0
6.437476667631405 4.971693683589553 0.0
6.496181111585419 5.060210690175857 0.0
6.539454812256072 4.964658165361536 0.0
6.604198202576491 5.056387520850258 0.0
6.648506025747331 4.939374587506267 0.0
6.714026758992516 5.05873885840664 0.0
6.764418045981209 4.959246676066148 0.0
6.8219334571197 5.055299567406268 0.0
6.873708540948134 4.960426349093742 0.0
6.930181428849307 5.053461390218819 0.0
6.981893615341967 4.96435459462232 0.0
7.037791764774784 5.051219747103022 0.0
7.090993561518408 4.96392420322464 0.0
5.504417457283294 4.900897920552702 0.0
7.145434864123609 5.048960634292441 0.0
6.054532384032612 4.883956083938546 0.0
6.738027949040956 4.850032323068674 0.0
7.198432914526514 4.956325226333323 0.0
7.252637187936749 5.046012229327236 0.0
7.30926729605109 4.948903216650376 0.0
7.248106275544042 4.860306312845646 0.0
7.363100274863074 4.849952416808486 0.0
7.365733472701664 5.039519554615095 0.0
7.308483293090149 5.137557220352172 0.0
6.768399513646964 5.145609705119954 0.0
7.422800035311104 5.132251445551834 0.0
7.358273518796229 5.235980394389298 0.0
7.480824155801127 5.227946127939927 0.0
7.302193400058628 4.761917474298247 0.0
7.413570879789824 4.754555110721153 0.0
7.414392998903179 5.334729114426734 0.0
7.352769630272076 4.660405502266205 0.0
7.467556835255426 4.658352623795039 0.0
7.536246869015014 5.328986926716081 0.0
7.478865844607288 5.432598185493195 0.0
7.406396991826072 4.556956233957538 0.0
7.523581002009154 4.552005631348623 0.0
7.597792398573263 5.429506106314967 0.0
7.540511043402902 5.53619421580439 0.0
7.46214474876342 4.452580994318881 0.0
7.5852185078634 4.446021810672608 0.0
7.663329342323453 5.533453399066901 0.0
7.603478967594521 5.643227430483237 0.0
7.513450346818673 4.347641323140766 0.0
7.640744971722214 4.333388343316237 0.0
7.727671715775243 5.642390483050116 0.0
7.667774597993788 5.753188858425915 0.0
7.570065256728661 4.230515669344811 0.0
7.702881065467917 4.218307808529532 0.0
7.638288257073729 4.107994211855027 0.0
7.493362356301017 4.120843902105771 0.0
7.779018500630071 5.521233457321821 0.0
7.794641287388929 5.752364621610818 0.0
7.73369774483611 5.865894287356292 0.0
7.600834531784728 5.867752110500446 0.0
6.233038857278689 5.15645045634683 0.0
7.669727996028819 5.985665563643058 0.0
7.528582452554481 5.987393423295551 0.0
7.598722674572824 6.11001923494443 0.0
7.778305000222867 4.104318908265786 0.0
7.704329019832056 3.987744174608892 0.0
7.838453459801382 4.213322728668484 0.0
7.864495721576461 5.862306066517277 0.0
7.846552353360407 3.98481756181946 0.0
7.769730409703277 3.86544808681145 0.0
5.785249360396857 5.177248808588045 0.0
7.908837087876153 3.861484036275285 0.0
7.834824606222196 3.740586825753288 0.0
7.97685993406276 3.736209527152902 0.0
7.89665098770825 3.615501862931453 0.0
7.753228010315262 3.617800245018972 0.0
7.826063013090472 3.483173292579822 0.0
7.66789744383048 3.48859328808356 0.0
8.042515855796823 3.595394268381807 0.0
7.75200750488492 3.341279823834038 0.0
7.582870318332553 3.346584916806707 0.0
8.120807847415062 3.732493963388337 0.0
8.189783970303546 3.61159165475499 0.0
7.657801000286734 3.200439907646711 0.0
7.486781956172036 3.201402473247712 0.0
7.452595103886905 6.11418616185016 0.0
7.527098033550077 6.243191052852112 0.0
8.260502906807751 3.728437634721859 0.0
8.327629317451398 3.608173631356984 0.0
7.372763970891452 6.247552889754036 0.0
7.456170570815929 6.384992468962936 0.0
7.621837793616884 6.376077080857113 0.0
7.548039512904141 6.520750676893614 0.0
7.717475944451644 6.514856553988943 0.0
7.636658166268699 6.661648164052906 0.0
7.807468267259438 6.664076174524672 0.0
7.718022764310774 6.817938967122142 0.0
7.887785766941087 6.807440365887151 0.0
7.545993589083432 6.815070675854734 0.0
7.809874785067209 6.967537287475282 0.0
7.975643812145337 6.948729406725126 0.0
8.396477808021062 3.725446935061211 0.0
7.565651643157136 3.044354774611752 0.0
7.384328725505071 3.043048915147076 0.0
8.056405351948353 6.802790889114673 0.0
8.14128318237188 6.940027831915737 0.0
8.064621760266059 7.086348792208953 0.0
8.225003598857908 6.805225152373254 0.0
8.463085452993242 3.606998510553562 0.0
8.230426869720718 7.079551841000411 0.0
8.155262284174286 7.224761758176069 0.0
8.530696760758996 3.721683301125054 0.0
8.596669886994064 3.604516769862316 0.0
8.528531058025589 3.490411531312337 0.0
8.320451770844851 7.218191678954744 0.0
8.245273958732774 7.363444652121271 0.0
8.66324687389452 3.717094013035765 0.0
8.600103125209296 3.831913857228569 0.0
8.662131102573216 3.488322280861316 0.0
8.594166125380536 3.374071873435548 0.0
8.411074336066186 7.353871649576861 0.0
8.339644223432472 7.505172120620427 0.0
8.165883718619623 7.513159193685373 0.0
8.483453820080417 7.2082285366806 0.0
8.261200365730348 7.657400951288149 0.0
8.081570576666843 7.670933304838066 0.0
7.471613195794025 2.872548423100142 0.0
7.268733678357991 2.881209199257603 0.0
7.184255506995786 3.084448584600423 0.0
7.065899603697895 2.883902449336828 0.0
6.960163891183182 3.081014635802978 0.0
6.847612128388715 2.885646860602812 0.0
6.739800729737967 3.078895733381448 0.0
8.729373804596847 3.827689165637365 0.0
8.668550856907444 3.938702277545298 0.0
8.72770789162863 3.371798381178293 0.0
8.659764090070603 3.257493349874974 0.0
8.436453928793245 7.648724489148887 0.0
6.619080287792762 2.90880017416788 0.0
6.511740956842646 3.09340654756684 0.0
8.793527829963288 3.935174834810256 0.0
8.736430500996828 4.042719556852617 0.0
7.631260330584174 4.565300771328012 0.0
8.359058396840432 7.801678182761817 0.0
5.339436215072359 5.184870243702279 0.0
4.994031736761993 5.193306795607908 0.0
6.383387675268097 4.87760645722207 0.0
7.29117392392962 6.382172868329505 0.0
6.378196825372041 2.907113079755629 0.0
6.269817199014261 3.12412150658573 0.0
8.793149127377946 3.255386294257182 0.0
8.725774239201558 3.141596687892195 0.0
8.857434600673502 4.041295940541356 0.0
8.802868937128341 4.1471119953668 0.0
8.532045262478793 7.7905977476835 0.0
7.364542641624493 2.699128473342751 0.0
7.571677611088925 2.695732556686516 0.0
6.723058333614999 2.672341359410618 0.0
8.456744924757372 7.94483904450548 0.0
6.140831279784704 2.921247401137864 0.0
6.02419219050745 3.14358702955763 0.0
8.916255604212301 3.934279868822481 0.0
8.859287250884009 3.140226640574265 0.0
8.791092798057303 3.025929352146465 0.0
7.210445465986021 6.245773134960393 0.0
7.120884161792869 6.385155584680196 0.0
7.036931702064287 6.240721609143972 0.0
6.943722280007011 6.3869279517155 0.0
8.920094519678617 4.144837222494242 0.0
8.864374107136287 4.250930406527029 0.0
7.347569838739255 4.463467417508182 0.0
5.90383431757064 2.935113219563906 0.0
5.783476009580765 3.156456199832474 0.0
8.626013191558314 7.935092223505354 0.0
8.687240186957197 7.796697889991163 0.0
5.642059327424706 2.903018174330269 0.0
5.52647853955939 3.162549070310043 0.0
8.555300051897738 8.086169516016518 0.0
8.405624441178524 8.083972416481254 0.0
5.374124307190728 2.945480555950917 0.0
8.935805220807357 3.249260758206028 0.0
8.981625171409894 4.247375537584228 0.0
8.924725364486765 4.352101286657735 0.0
8.807208588134106 4.356163101450244 0.0
8.868277832430604 4.45657124153171 0.0
8.75099635287701 4.460644845248524 0.0
8.812385950597063 4.560891222623518 0.0
8.693833206943118 4.564602972998703 0.0
8.756474732548273 4.665720853686476 0.0
8.63721608225855 4.669394550615355 0.0
8.700108119351134 4.770682016274914 0.0
8.81920502916846 4.767536120893284 0.0
8.76355311338807 4.871451945248518 0.0
8.881442328033694 4.868382238751069 0.0
8.826433523510634 4.97132552240372 0.0
8.943387824985514 4.967694248194483 0.0
8.888718468126953 5.071044784833541 0.0
8.580377663835254 4.774669738817985 0.0
8.770572242937233 5.073880380431421 0.0
8.832915096600454 5.174518948293615 0.0
8.952224483821848 5.170970838320107 0.0
8.897282771771884 5.275476392171722 0.0
7.463928467290875 2.513944501591933 0.0
7.675935950092034 2.509420347143072 0.0
8.924252417741767 3.024418701372628 0.0
8.857265893102921 2.911213535286156 0.0
8.776981063213334 5.27944309004916 0.0
8.840710910770163 5.380165700477552 0.0
8.960876896785969 5.375521424256389 0.0
8.904555918255223 5.482125846038813 0.0
7.567193097677677 2.32750151280277 0.0
7.780880844888839 2.323064027160363 0.0
6.851602118390116 6.234522818184622 0.0
6.758680682687229 6.389359516748128 0.0
6.66345977321418 6.231254850996584 0.0
8.715764716958308 8.079994249772627 0.0
8.65189989696114 8.227534663647639 0.0
9.042229096541828 4.348551764001607 0.0
6.436774206993324 3.316782326998922 0.0
7.590527613340588 5.22651784724799 0.0
9.024366884701616 5.476726561488805 0.0
8.968734351641839 5.583879050892151 0.0
8.845941080047659 5.586406316932274 0.0
8.909881305857882 5.690482454668167 0.0
7.348726871578975 5.44047403999932 0.0
6.567070253986433 6.398115757512583 0.0
6.697077150072261 6.553426749743366 0.0
5.252377383990728 3.187782967482479 0.0
8.988440431820699 2.908621158637298 0.0
8.922541972760119 2.796420836075996 0.0
6.466806010659505 6.229115583261771 0.0
9.033851153821296 5.686506775615425 0.0
8.978340519963718 5.795772485582058 0.0
8.85111463793018 5.798672910287243 0.0
8.922171984280597 5.907237880910408 0.0
8.795190680908043 5.911854068712683 0.0
8.864373398892472 6.019728357749566 0.0
8.991346995940626 6.014539153309398 0.0
8.93374019140187 6.12698887312768 0.0
5.095192648098848 2.952353430985476 0.0
7.672651464908932 2.141715359830917 0.0
7.886266921042761 2.136211284120189 0.0
9.098474286589756 4.245971410451114 0.0
8.813172564986438 8.216887361735234 0.0
8.74802978243154 8.366104673219047 0.0
9.059985162956899 6.120982589539211 0.0
9.00342813739303 6.233245043891739 0.0
4.961413514304496 3.214209167276753 0.0
9.05248113004685 2.794651022570942 0.0
8.986028039118027 2.681341972594222 0.0
5.671890458441996 3.377122473800023 0.0
4.755829262593116 7.184480462344647 0.0
9.158258644940048 4.34465968221255 0.0
4.799687186662534 2.961354824469195 0.0
6.030554747591715 2.726787502996874 0.0
8.938327180212585 8.34758372042188 0.0
8.847392320655468 8.503370672816716 0.0
8.67342124373679 8.518117686968314 0.0
5.234423106934083 2.694925204361751 0.0
8.964923046453565 8.185313058214797 0.0
7.456650986668838 2.134076476407834 0.0
9.111732084821366 2.897226832609386 0.0
6.368055837513985 6.402805870976705 0.0
6.265629899005033 6.226581076317183 0.0
8.736327196352686 6.026404178766982 0.0
9.117473097358854 2.67987006607594 0.0
9.052137415465204 2.565428515518978 0.0
7.781001557847192 1.955874236406257 0.0
7.992134447300669 1.949184538864554 0.0
8.593074792993455 3.143159483125708 0.0
9.1291360203536 6.226877897052981 0.0
9.072154326613617 6.338696745620542 0.0
8.916532550320525 2.566986282201109 0.0
8.984021113721658 2.449252898983242 0.0
9.178032243215632 6.120533546076094 0.0
9.213703592343162 4.244823670856978 0.0
9.11972142641474 2.449071238668887 0.0
9.052853896812186 2.33190758581705 0.0
8.635035926402708 4.462329956179506 0.0
8.773614475966344 8.657865377672689 0.0
8.596400917257634 8.67759750279447 0.0
8.942023339420883 8.644678093589654 0.0
9.19471670675691 6.33096438039349 0.0
9.138460613363325 6.443043552768813 0.0
8.66620319432524 5.916297234509582 0.0
8.606669825267202 6.032658196729024 0.0
9.27222540210304 4.341341907533128 0.0
9.013782808177437 6.451040569407859 0.0
9.08360982569773 6.55729980456602 0.0
7.885622149776354 1.768093045890686 0.0
8.095672144455353 1.768790621151345 0.0
9.208772072925791 6.549717411809656 0.0
9.154272208194383 6.662613503537815 0.0
9.187669783927937 2.334640996932141 0.0
9.122379015831417 2.215832190697178 0.0
6.164077036161143 6.404611236428829 0.0
6.062367614988677 6.224307160647549 0.0
8.987075041759633 2.211477580983978 0.0
9.056972755801603 2.093573581203428 0.0
9.194557288902232 2.096029761809264 0.0
9.131223008370409 1.972713028695079 0.0
8.87381302587057 8.795793668920256 0.0
9.039169086943392 8.781606667490083 0.0
4.662813350519927 3.228118291851354 0.0
4.474181267994617 2.945703616023359 0.0
6.562627723301209 6.075544382232434 0.0
9.326886053211574 4.243083624343211 0.0
9.280374192897945 6.656072830232892 0.0
9.224718905178564 6.766740750539347 0.0
4.703284910421452 6.528907865005451 0.0
8.955136474970331 6.565989985649191 0.0
8.998148826814893 4.865480736169776 0.0
8.99429836796776 1.965972383552685 0.0
9.065669391141741 1.847195105148808 0.0
9.207236162050343 1.853010386995843 0.0
9.143218073349985 1.725630086781897 0.0
8.998867447699345 1.719378449325465 0.0
9.082595782768397 1.592017827427701 0.0
8.92804562738841 1.585238202229766 0.0
9.01637794607019 1.453847302675876 0.0
8.854253119154375 1.446306868730686 0.0
8.941620273019874 1.320083886766936 0.0
8.775393064215876 1.308487027359826 0.0
9.102170347200483 1.324733726345249 0.0
9.013857060361985 1.178821526410403 0.0
7.991031819452564 1.587689878441685 0.0
7.767218744640202 1.595993197647291 0.0
9.191539171305216 1.194087248761656 0.0
9.123965901037613 1.057102462689568 0.0
4.853921953226772 3.470213116851758 0.0
7.496563223334782 3.470157221608763 0.0
8.536691379028115 5.921845852206257 0.0
8.475496498707471 6.037633662010236 0.0
7.978668526342969 2.307231488316941 0.0
9.384721922092124 4.337357165846226 0.0
9.331039180200886 4.435926256444196 0.0
8.546261775564837 6.150267290476958 0.0
8.411727261785726 6.155319300628062 0.0
8.972203609044218 8.930944433074036 0.0
9.133480321468399 8.90955269607895 0.0
9.197778815538276 8.768743880012563 0.0
6.162231825784922 6.05277753404107 0.0
5.962111081146334 6.046949845237622 0.0
9.268727788642101 4.146883230687689 0.0
9.380694211527906 4.144811697563401 0.0
9.323823335199954 4.049557759546529 0.0
9.283324894520613 1.736313094621396 0.0
5.858151623803662 6.22041808248046 0.0
5.759668475561988 6.038806123495502 0.0
7.836860473863919 3.191674397465999 0.0
9.348591928839294 6.75855034547469 0.0
9.293979592221298 6.870213350675044 0.0
9.170543172728557 6.879819332293818 0.0
9.240028263813034 6.983394994050525 0.0
4.347372565145963 3.312731475520695 0.0
4.114183445909965 2.96879678229065 0.0
8.616264880152233 4.042035981070631 0.0
9.403174760076901 6.650407069150438 0.0
4.173860112179449 7.723461240865885 0.0
9.365302975518428 6.973476802087294 0.0
9.312420275675276 7.088420778208979 0.0
9.184876614539778 7.0978133687822 0.0
9.25921281729617 7.204979813006656 0.0
9.12816413817609 7.21569648263899 0.0
9.203944409919862 7.322703303071253 0.0
9.334311975087337 7.311477957762272 0.0
9.280415785210538 7.428795599957155 0.0
9.274060219641907 1.066603180421249 0.0
9.211820491509728 0.9316562593680151 0.0
9.050684011148748 0.9017681241401576 0.0
9.441953732403995 4.432092590771756 0.0
9.394725873909666 4.526051349391942 0.0
9.43453556160865 4.048003950509361 0.0
9.378043599351757 3.952631412328806 0.0
9.289691247910705 8.890746792319852 0.0
9.228148443138926 9.030109127390128 0.0
4.440757888677695 6.389562448928118 0.0
4.689874463978985 6.239329075084555 0.0
4.291519540095677 2.622920583112654 0.0
3.886073352912894 2.632778677714434 0.0
9.344015622314338 1.202401041544343 0.0
8.193292196814806 3.849649660906171 0.0
6.960946604527747 6.07044529864598 0.0
9.347708267319902 8.756364147482309 0.0
6.826423138602714 3.261415861395883 0.0
6.06309517882478 5.884563187328262 0.0
9.4085057714426 7.414123963607981 0.0
9.356416821537886 7.532359471354527 0.0
5.042074134251055 6.938947182785697 0.0
5.063988238156824 7.311205832605263 0.0
3.946666851334923 3.30681624613374 0.0
8.189857914071878 1.939951128540477 0.0
7.880690277686857 1.38928908049477 0.0
7.63766396748483 1.399736360041063 0.0
9.345004233592562 1.857695941115052 0.0
9.440465164139875 7.085860901905448 0.0
7.918332480761888 5.744468010879592 0.0
9.08007135068879 5.372457017512481 0.0
8.78639561093144 3.718391405525285 0.0
9.356843485085705 0.9414458825132457 0.0
9.29705128845331 0.8103081541678832 0.0
9.251825423225316 2.451701826351773 0.0
8.483895366325516 6.270717564685176 0.0
8.346386886249478 6.275973306650227 0.0
9.493299170161215 4.138582531223591 0.0
5.321115649032961 7.117073603021904 0.0
5.354076009109965 7.436189411362466 0.0
5.597984079819928 7.254284331170681 0.0
5.644042313435943 7.564172740776336 0.0
5.383963016128051 7.753854027984002 0.0
5.681168258142109 7.880444993178456 0.0
5.935548099874979 7.687258900444162 0.0
5.979508404301389 7.994332725561488 0.0
6.21936843555201 7.802335560754011 0.0
6.267092590637372 8.104873033518185 0.0
6.498845418385807 7.917606504106031 0.0
6.544600005636809 8.209910620392591 0.0
6.77336078689533 8.027284686082275 0.0
6.814840179123049 8.311778392637773 0.0
6.721304148677048 7.737863326704131 0.0
7.031320924898797 8.1335673274533 0.0
7.077388928622946 8.403901803728003 0.0
5.417471987089176 8.090112295667405 0.0
8.845427688507666 2.446352368201366 0.0
9.318512319918124 2.339233739859646 0.0
9.380241452597096 2.451895615249572 0.0
7.283805558009199 8.237518806365102 0.0
7.329200330160381 8.497045124353782 0.0
7.233272584416691 7.991590926766813 0.0
9.142592248414191 5.471315142785471 0.0
9.196303265878848 5.36738298742727 0.0
9.25795832955665 5.465260877691205 0.0
9.310581303233182 5.36341558704714 0.0
9.371094700882272 5.459458038195667 0.0
9.422767107822985 5.360687090455724 0.0
9.36402660964156 5.264821436196721 0.0
9.474220736978928 5.262802348886269 0.0
9.41680330511366 5.169477108906666 0.0
5.168675939028436 4.895496152382537 0.0
9.482591449057548 5.454699312257291 0.0
9.431567605310825 5.552723344040521 0.0
7.531449703396948 4.741663470323411 0.0
8.517293123442691 4.672601123164268 0.0
8.459978676626639 4.778466809901586 0.0
8.396595115309985 4.67568709170855 0.0
8.338966609235166 4.782101664607259 0.0
8.275355646032752 4.678829956447008 0.0
8.217675280223542 4.785699596769931 0.0
8.28149024865807 4.888803783902183 0.0
8.16019781596952 4.892696417098926 0.0
8.22433278506531 4.995725219088695 0.0
8.102825704443651 4.999629142625341 0.0
8.166887930010795 5.098242831115916 0.0
8.034904900788316 4.896825406879729 0.0
8.15353539905931 4.682103688185489 0.0
8.211891449058882 4.574219757233394 0.0
8.290305306104333 5.094007100958221 0.0
8.225684228618732 5.201525567655179 0.0
9.444618942559746 2.343141375196729 0.0
6.929446520625337 4.868116916840016 0.0
5.737810725167649 4.893891407574175 0.0
8.720389971487277 5.38508368411851 0.0
8.805734920311323 8.951818172412821 0.0
8.905272694453211 9.083303226359831 0.0
6.006155038818204 5.171375272745409 0.0
6.431496448228514 5.152985998213245 0.0
9.052675024457304 7.106590131831544 0.0
7.740007013494393 6.09727525827826 0.0
9.375852260355511 9.013078430361404 0.0
9.32035844773103 9.14584923943073 0.0
6.989707597683965 5.146377438798643 0.0
9.488190206836386 3.951168069367155 0.0
9.432429152094464 3.855725756072153 0.0
5.568386402814275 5.185723849666124 0.0
9.525561551078322 5.166162126187324 0.0
9.465026391994275 5.072601962964018 0.0
9.320357339516937 3.857795423728873 0.0
9.375955927831914 3.759314274140895 0.0
9.261783786753899 3.761412578759438 0.0
9.31820665563318 3.661845422072752 0.0
9.431798673168924 3.660830894813109 0.0
9.374584413615914 3.563138564686839 0.0
9.48759661134647 3.562294297118573 0.0
9.431339678707085 3.464016717943268 0.0
9.417896212887529 1.746970678437863 0.0
8.731705369070733 9.110902182838881 0.0
5.652297951447118 6.21188565774667 0.0
5.569122518069258 6.024400786163834 0.0
8.257007204149394 3.505875091031567 0.0
8.717428603143034 2.925525757227976 0.0
6.882852832747376 8.57686572931064 0.0
6.337330066435714 8.416819098143066 0.0
9.50188906539997 4.521022403818629 0.0
9.453500859905136 4.617181635748691 0.0
9.46806769570129 6.749352117850711 0.0
8.836822104875719 1.72282859852854 0.0
7.481071063421426 5.64593758994851 0.0
5.668814988976305 5.86611128457842 0.0
5.487644760735084 5.847591822776978 0.0
8.993992818065195 7.228173913870249 0.0
7.98322414937693 7.229980191466666 0.0
9.22810751684646 7.54864871395298 0.0
9.304103360459063 7.654622011545798 0.0
9.432787371848761 7.633691049023619 0.0
9.382619818023882 7.759136995934441 0.0
7.239096822516492 4.679179578301165 0.0
9.47692479956498 1.861231395362419 0.0
8.041243110813022 5.095895152648969 0.0
6.190208781188077 7.509864122823853 0.0
9.283062812782122 4.549418667685757 0.0
9.503847665760087 2.450295046295932 0.0
9.443345385250678 2.557904120404248 0.0
9.52009568463353 6.644015937008899 0.0
9.203119005973903 3.662458522935253 0.0
8.406198651282708 5.92630414760378 0.0
8.467263597743843 5.811987729136874 0.0
9.461423029059445 9.128120577356565 0.0
9.408445330070542 9.26024300250086 0.0
9.266505293379728 9.277952925446408 0.0
4.14874709022218 3.631681332690154 0.0
9.437448107949258 0.8198473430736303 0.0
9.376993771693973 0.6910550697058979 0.0
9.22882356848217 0.6931820370818127 0.0
4.451823867195988 6.103664366188579 0.0
4.200031743909027 6.232039028149317 0.0
4.687154754667774 5.975132870483986 0.0
6.268889397098538 6.592235545990395 0.0
7.509366161722768 8.340075462391164 0.0
7.564775703413765 8.59800936579159 0.0
9.542148732924264 3.854614593058991 0.0
7.036231103929761 6.550562550831048 0.0
4.089373665437328 2.268193930262139 0.0
3.642558884866483 2.250386188148396 0.0
3.442182385618804 2.651948803899947 0.0
3.146832503011753 2.222630466765926 0.0
2.948870467975985 2.805088883766417 0.0
9.352005315330274 5.067356449300542 0.0
9.31729677031493 3.462944187594675 0.0
9.37428383619102 3.365546369736205 0.0
9.4883538239391 3.365384871181599 0.0
9.432147665178338 3.267287636377487 0.0
9.25034519267688 7.775848812012313 0.0
9.332091350002502 7.881724023243533 0.0
9.462101000264603 7.86490055671988 0.0
9.413353271651825 7.98561007219363 0.0
8.273592814723814 6.158623919352561 0.0
8.207135014732339 6.280394934566054 0.0
9.541483811580331 5.548224291759592 0.0
9.491365919893726 5.644847811894615 0.0
8.088095771120983 4.577581369371366 0.0
8.14760102783746 4.468303741922308 0.0
9.556217963323956 4.414867468889523 0.0
9.543667331547693 3.266908751519594 0.0
9.489307652535885 3.169908976697059 0.0
9.26285575842982 8.635341362685686 0.0
9.403220742003983 8.621447866627538 0.0
9.326013417886902 8.506778946171965 0.0
9.455477927154853 8.503896705359047 0.0
9.566646674069602 4.611465258087684 0.0
9.499341049870914 0.9352184973273918 0.0
8.683891958597638 1.444705608998412 0.0
8.599973456173778 1.287265568270043 0.0
7.760988189317371 1.175381292562583 0.0
7.50927661322749 1.171223823957793 0.0
7.380927152434357 1.411062577009695 0.0
7.242417847270241 1.170759311509981 0.0
7.107236746116019 1.421234419770886 0.0
6.960799033544566 1.169618322344823 0.0
6.817786081200392 1.434174581170586 0.0
9.48095050141868 8.738557748483624 0.0
9.319762046171894 3.263060331456388 0.0
8.920653400180534 7.117307656029475 0.0
9.452431221190624 6.544166520883111 0.0
9.571407933653493 6.540336592280795 0.0
9.507586285214174 6.443281357841339 0.0
9.575252974749443 5.070210512157044 0.0
5.755172844377253 6.370710487467459 0.0
9.541351959064952 7.969072511059531 0.0
9.354607289792183 9.3921968735401 0.0
9.495213435762107 9.37218405175897 0.0
3.77688136092967 3.643094492921176 0.0
5.460967180339239 6.159077196937325 0.0
8.656589552918996 5.283032675040985 0.0
8.599307076390474 5.387421722684671 0.0
9.584017606465821 5.263931993965828 0.0
9.51536593891754 4.977534386249715 0.0
7.788544970111893 2.70578432810479 0.0
7.381746833264364 8.755477463411431 0.0
7.615969996822885 8.852710176548548 0.0
7.783643411970649 8.691528137204457 0.0
7.845017394185501 8.938777577473743 0.0
8.570520580943368 7.342304222498308 0.0
9.103648004226827 5.781084627507008 0.0
8.338082930126799 5.815990105349368 0.0
8.930848895071895 4.561111316304916 0.0
7.381089602119859 5.983657236035151 0.0
8.42066837692862 6.393608568217351 0.0
8.888256157021065 6.459558428285236 0.0
8.826495664731354 6.575679897210801 0.0
4.22522220414496 5.921354747981145 0.0
3.943296448343383 6.075578573904587 0.0
9.563175937841836 2.554860696349795 0.0
9.505342423182917 2.656889632284623 0.0
6.660863480070611 1.168750929063519 0.0
6.518316961679488 1.436478598119306 0.0
6.683474168246802 1.694104067636375 0.0
6.376799057174731 1.707382100972048 0.0
6.205091481342603 1.443621641108414 0.0
6.058670988071357 1.728841803855816 0.0
5.877457486049096 1.454297236926778 0.0
5.724979192982589 1.756666409586195 0.0
5.529885788012015 1.462283739157555 0.0
9.514953777019835 0.7018468683209754 0.0
8.398665270372675 5.702731562702358 0.0
9.456442249775696 0.5772068858285652 0.0
9.565795671866349 2.345573662774494 0.0
8.830758563027459 9.247271599108435 0.0
8.523580738257648 4.88015211128435 0.0
5.580123316488715 5.701889892660689 0.0
5.398591029446707 5.685938459654249 0.0
5.367686360823392 1.778740548277203 0.0
9.546603444041448 1.754984055696778 0.0
9.489649223089446 1.641312329051244 0.0
9.617973952467912 3.363804764345866 0.0
9.584322830999731 6.729956156156573 0.0
9.597221861144487 3.948534024289882 0.0
9.49401963819799 8.089507968561776 0.0
9.207321074262563 9.416906871900888 0.0
8.27185428346661 4.464932191097996 0.0
8.207416067213774 4.35878753684812 0.0
8.332747746635944 4.354903699457511 0.0
3.990181919126853 3.930792395858886 0.0
8.267392138262498 4.254008221702929 0.0
7.997788712685495 1.196805377512679 0.0
9.600316638269724 5.639973985281733 0.0
9.550939606739425 5.737313319038155 0.0
9.44084303195315 5.74233753256161 0.0
9.50112296154558 5.834555019909565 0.0
8.897429225733994 6.685415510921676 0.0
8.762930941408914 6.695907295903629 0.0
8.654628175336732 9.278157371342388 0.0
8.544676900803436 9.133790942553834 0.0
5.294904777716057 5.855935872688884 0.0
5.216749389964556 5.66865685845661 0.0
9.508453581298625 2.239460033375932 0.0
9.599691370793206 3.169496930704394 0.0
9.546615051106684 3.073514534194011 0.0
7.484714626923596 5.028675123117963 0.0
9.588496050271255 7.850836295555126 0.0
5.153197381012662 1.471340286561097 0.0
9.433168304679345 3.071871997104804 0.0
9.610464706874994 5.829217654498672 0.0
9.561407772947403 5.926179534044419 0.0
8.273381980676042 5.705233340662362 0.0
8.330794188929296 5.594351887246082 0.0
8.207319603076424 5.596747949305344 0.0
7.251338559467102 5.233758892662348 0.0
8.708518799790543 1.130513882092466 0.0
9.590155250193266 0.5878623138195824 0.0
9.389919385420015 5.841079912164009 0.0
7.991397852194216 5.859910582924319 0.0
9.624951589233206 4.975554514425905 0.0
7.240016788025947 2.531866266726309 0.0
7.635666783493215 3.873554782053258 0.0
9.608476620993713 1.863530872936442 0.0
9.365330459496413 8.10677840682376 0.0
8.775076110585598 2.572737931759856 0.0
8.699389445914996 2.444602334375113 0.0
8.625078713232146 2.580891022578613 0.0
8.54447196848446 2.447624719286678 0.0
8.468898498943965 2.586757328881282 0.0
8.62282309213608 2.307826916202421 0.0
9.622102662978762 6.439307895185218 0.0
9.561995355724862 6.35103962032292 0.0
3.898245450818314 1.856155797593496 0.0
9.681759177700954 5.07069253017652 0.0
9.059254996454502 4.963357716933865 0.0
9.113144532326562 4.861710138088372 0.0
9.62140874877204 2.656009146517733 0.0
7.884510615470827 0.9666888912541309 0.0
8.14902661050739 1.005010215149227 0.0
8.491263206618079 8.527197931363634 0.0
8.408859203395778 8.697060715788105 0.0
6.54422152733529 1.954566069381189 0.0
9.563546573097593 2.755667904356369 0.0
9.453065492925557 2.761122255953964 0.0
9.676889098520615 2.755084315170127 0.0
9.678287124781653 2.556838324720633 0.0
2.60254317790297 2.278874965850319 0.0
9.211706272534968 4.050470567310489 0.0
8.526711683538949 5.698821878547752 0.0
8.296604023060945 8.533761944401608 0.0
9.649704314258118 5.543946557831669 0.0
9.651176136337964 3.85122804518279 0.0
9.44590154800397 9.498503704959054 0.0
9.580491248736612 9.476376347552954 0.0
4.3239388803087 3.921156392977062 0.0
9.65737873521736 3.075324100817917 0.0
8.128000846282253 6.160273991836929 0.0
8.06242981852327 6.292371360998262 0.0
8.500465019503922 1.442700595221201 0.0
9.615253212967009 1.649819368149096 0.0
9.561768620580791 1.538553925606111 0.0
9.435477757657937 1.527391516499924 0.0
9.627993450010088 2.242685831452484 0.0
9.5338252733548 0.4673994795805215 0.0
9.398055066504014 0.4589059948533885 0.0
9.669486082509058 5.920177035588319 0.0
9.621072177439727 6.016493814615133 0.0
9.506185962103057 6.018397021409126 0.0
9.196884440497488 7.898824858961557 0.0
9.112591143666748 7.789491461180181 0.0
9.664357762385308 7.950712034233033 0.0
8.46233617997115 2.308903464128035 0.0
8.547917980328803 2.169381684694277 0.0
8.139931430059324 6.410762600521521 0.0
7.672499127532963 9.099143622036436 0.0
7.91372855627271 9.178704612763656 0.0
8.463425076318451 9.290653726808348 0.0
9.643938029094286 9.335632419679458 0.0
9.647017668702574 0.7068996148634754 0.0
6.241662276606473 5.884018212993202 0.0
6.157742245066693 5.73500474100449 0.0
6.318815619949124 5.730068085823802 0.0
6.247706374231452 5.593094310939028 0.0
6.406948541886973 5.593272398468375 0.0
6.092564106310554 5.587409338401505 0.0
8.535507922245372 5.286142900439676 0.0
8.022959839404006 4.471630490587016 0.0
7.963561162854596 4.581393556789843 0.0
9.683487139413305 1.546750704925431 0.0
9.630761777960082 1.435922217091829 0.0
5.121714348989337 7.950140247572198 0.0
5.136464096196084 8.310254432483559 0.0
5.47349124035624 8.455234262268478 0.0
5.176273618280354 8.687190323573228 0.0
4.796664658962938 8.592678692862421 0.0
9.568705729418735 4.887269869750176 0.0
9.462711651199594 4.88832222094458 0.0
9.674903475028225 4.882285174433025 0.0
5.4996067353406 5.546583260717527 0.0
5.663632234555963 5.557613452957074 0.0
6.829408195405585 1.947174574944512 0.0
5.336529198289861 1.127585641139875 0.0
9.672387559812332 6.34138351957329 0.0
4.463988917379896 2.271060678869338 0.0
8.618048281355405 6.263841736419089 0.0
6.480949808711781 5.74815588680617 0.0
6.562207427719153 5.592185077216444 0.0
6.643040463857446 5.721233693378952 0.0
6.712825900331884 5.588664360236 0.0
6.79240375630333 5.711383948285569 0.0
6.86115931532141 5.584697050428064 0.0
6.939210100691576 5.704407337029545 0.0
7.007668476576536 5.580801046893123 0.0
7.084627386867475 5.702817970154801 0.0
6.633257976075473 5.460881327825488 0.0
6.931430743764456 5.461960451448691 0.0
9.682652370938209 6.533133024505995 0.0
8.761108695241376 9.450742747770144 0.0
9.146031326900015 3.764292700000154 0.0
9.089378801805193 3.661317181076136 0.0
9.514354521818781 8.994988681611192 0.0
8.157650730500988 4.262987189670279 0.0
6.329633198899328 5.4647789391701 0.0
2.340685767996258 2.811285337457589 0.0
7.379572471323651 0.9290892725587991 0.0
4.171878172186605 4.222320767259098 0.0
4.4876601621649 4.16473354200826 0.0
5.336389369563535 6.806464508860387 0.0
9.595468321212476 9.108133206829102 0.0
9.645038675267227 8.982113951305912 0.0
8.393140678816192 4.246338342095281 0.0
8.309440721624494 4.155300532283633 0.0
9.418269339704423 1.9925512363779 0.0
9.662781807969623 0.477809346089035 0.0
8.011297869803792 0.7518828483803571 0.0
8.250149975885678 0.7646904662196189 0.0
9.608674873602773 0.3618049194050078 0.0
8.692696069692623 6.582927327365709 0.0
8.628225948401226 6.705702462696891 0.0
8.701883181418305 6.822086652299242 0.0
8.559276855155542 6.829564723911442 0.0
7.069268463354993 5.459534423493629 0.0
2.654575201159115 3.323490466195074 0.0
3.610801136544596 4.044075244426243 0.0
8.263757217166944 5.48730323490738 0.0
8.138838162809126 5.491254533497952 0.0
7.90196833683664 4.477386962763833 0.0
7.987943097943191 3.978756490171551 0.0
9.704623491880403 3.945605151832784 0.0
9.461009573830147 7.301728818091931 0.0
9.532468631193666 7.399916015174975 0.0
9.582688928417856 7.292330983701011 0.0
9.652579613269625 7.387768793572397 0.0
9.699264016151023 7.282867433965265 0.0
9.633305589700536 7.188543855060478 0.0
9.505576100168666 6.961225778216469 0.0
9.43876966151099 6.342441564206569 0.0
4.908483672172518 6.098703904450545 0.0
9.135448256237908 5.269827196966999 0.0
5.905650502271389 2.025036080946255 0.0
9.709890722072377 9.452748507541063 0.0
9.663337613522643 9.572126259365891 0.0
9.603900123387826 7.495180532331903 0.0
9.720147629525837 7.483400774981126 0.0
9.674588415444239 7.588303295299578 0.0
9.653186673863587 4.039274180923234 0.0
9.053164539680804 4.764545162185531 0.0
9.164908495749003 4.763017269285045 0.0
9.226019227262443 4.858029410614327 0.0
8.809947621994619 3.4964384919072 0.0
9.10538997155458 4.665865142902959 0.0
9.331074106432244 5.748993480915537 0.0
9.055854333858068 7.918554535314415 0.0
9.446431573964945 8.209836764658437 0.0
9.573844810886287 8.191100251691205 0.0
9.309704769895653 8.244395007943949 0.0
7.240329561730736 1.676197957122907 0.0
9.543389817573933 3.660019800390455 0.0
9.598599341122098 3.563130123982772 0.0
9.652615161407017 3.658119804270645 0.0
9.706336063693934 3.564815526226687 0.0
8.632284427755456 6.946688912416058 0.0
9.682863230715835 2.349655023034811 0.0
9.571538455120994 2.142369886250143 0.0
8.090821900439733 9.017409120951333 0.0
6.812258669899192 0.9007667548831626 0.0
6.50135254578461 0.8974046495177885 0.0
9.598335906230732 6.246437748035812 0.0
9.719677442549804 6.253968775436637 0.0
8.593026822691716 5.180101360605356 0.0
5.537586126848265 8.836083861509138 0.0
9.688689404995035 2.143487155934306 0.0
2.821389253975936 6.507820864074362 0.0
9.176571289960709 8.507736431357309 0.0
2.918303740542162 8.256728920338826 0.0
3.428955230180972 8.401446814887457 0.0
8.490587404589881 6.715350139132777 0.0
8.86049054904785 7.243279881821806 0.0
8.93696309213556 7.356650230611625 0.0
3.951931175165697 5.78308550088855 0.0
3.65055612573298 5.91672400098539 0.0
3.668142216548471 6.247526235973777 0.0
9.717269848920886 5.821831227352286 0.0
9.708364917734201 3.164198601626433 0.0
8.45581975650687 4.569560863828342 0.0
8.204448312099833 6.040774355519757 0.0
8.65969449127868 5.485991799508151 0.0
9.707534571012967 5.634423933296901 0.0
9.62102991883279 2.849662850313935 0.0
9.144093558002634 3.560383427867003 0.0
8.29763273805118 1.77155302934031 0.0
5.280452715709455 9.01633391004168 0.0
8.984558945859158 6.99932633710603 0.0
8.4157550875812 1.275784953143711 0.0
2.068078118650995 3.355462780535101 0.0
9.205703884756806 5.568274778556933 0.0
9.745857863753141 7.178456670302003 0.0
9.681628895748586 7.081494416756802 0.0
8.875818787971069 6.240744812097083 0.0
7.993733797566922 6.414830952863579 0.0
8.462810157069566 3.377071044664789 0.0
9.29428363519789 4.759591981903337 0.0
7.933956818298286 5.97437536746848 0.0
9.028281726378319 3.558713145763133 0.0
9.083461773461467 3.455531762175701 0.0
9.73231939683535 2.849247643393067 0.0
6.70072305037728 2.192432536215492 0.0
6.423245125077639 2.212870246546939 0.0
4.931537051605536 1.135086496804522 0.0
4.746426561586179 1.500381091957315 0.0
9.707706579932626 7.836419656220658 0.0
8.590593344701457 1.595639668013959 0.0
8.708946574109854 2.1688179918246 0.0
8.634728854549891 2.028564483452208 0.0
9.230357659411311 8.129337203173913 0.0
9.102841374461482 4.452881308250647 0.0
8.472081531214734 5.388993924853032 0.0
4.925996806199801 5.844046944846857 0.0
4.702806345752284 5.745688656289065 0.0
4.884357002239844 5.633237011762874 0.0
4.709628434300812 5.536404116679045 0.0
4.530800966746534 5.627044171217377 0.0
6.040296145349247 6.603808099703576 0.0
6.162203578696918 6.795213950202512 0.0
5.923135943221574 6.824060069869489 0.0
6.046693245732212 7.010423490915212 0.0
6.297337598588478 6.979895528204233 0.0
7.760448385794147 0.7294020304851334 0.0
8.492228348169641 6.958778476405878 0.0
2.89219822877093 1.704113597264478 0.0
2.26178643438086 1.7814602252425 0.0
9.726968895980871 6.009547057102511 0.0
6.63195110828313 0.6072886418835157 0.0
7.984023036954866 7.515675826210831 0.0
7.893857204140559 7.681876703427663 0.0
7.778465117872411 7.537836322197895 0.0
7.998204230811618 7.844922503023499 0.0
7.798554315988981 7.858161805718108 0.0
7.917846202023782 8.03040048103727 0.0
8.547520504556728 2.721261126162116 0.0
8.39253850806587 2.732073315877738 0.0
8.306047241032278 2.59069854402512 0.0
8.233011054235162 2.739783364361515 0.0
8.318836035587811 2.879838477099622 0.0
8.159530874574331 2.888511553151382 0.0
8.245490421394788 3.024568439743106 0.0
9.759103003747676 3.077839427881478 0.0
8.083610090773394 3.033523757291178 0.0
8.174562583800352 3.166768504406541 0.0
6.046769434852523 1.155662270344939 0.0
6.968371001421964 2.176347877216873 0.0
8.324858098380334 3.152966249334499 0.0
8.145556596142626 2.609897633546475 0.0
8.970652052821418 7.804556541250797 0.0
9.033737629244714 7.681328986528639 0.0
9.62347010002576 4.796939565664328 0.0
9.72520380348743 4.790261082613535 0.0
4.882631186210167 5.455006233451049 0.0
4.618356368594037 3.933076284395493 0.0
4.748083507220199 4.151025177732873 0.0
4.641724290430313 4.358202249373887 0.0
4.87055838101999 4.337900676660481 0.0
4.974114446887331 4.149149057174687 0.0
5.081577844806959 4.3240148266423 0.0
5.179521650033781 4.148725180298481 0.0
5.276261408871418 4.316673822529601 0.0
5.369189110897883 4.148362797753505 0.0
5.463892033849439 4.338819369807593 0.0
5.550828466075906 4.146274465971151 0.0
5.646554822352869 4.303571429647391 0.0
5.728109623160046 4.138582010823754 0.0
5.821689108984419 4.291959598724587 0.0
5.906082534948073 4.141649907302701 0.0
5.99655838673762 4.288752711512514 0.0
6.077312859438928 4.141011188943332 0.0
6.164215275138099 4.281164574562373 0.0
6.241782344986693 4.140701084167517 0.0
6.324316420613108 4.277393447415522 0.0
6.40284165425941 4.140026953305852 0.0
6.483655157361099 4.273418937894759 0.0
6.561170698911611 4.136221843106807 0.0
6.63512300179586 4.269917278694155 0.0
6.720306110251473 4.133393659385058 0.0
6.63777078218551 3.99617001426095 0.0
6.802492763973074 3.994355399489989 0.0
6.798834760478153 4.276914787769972 0.0
6.15377608509923 4.000134206628027 0.0
6.548727135071258 4.400510710520637 0.0
6.251479300130713 4.421887359316258 0.0
5.275876048175579 3.979624500657822 0.0
5.910905077162284 4.431174408784691 0.0
6.717070288412452 3.851239795555301 0.0
6.883499045994213 3.852555480300214 0.0
6.96664848901999 3.994033961856844 0.0
7.048208567116626 3.854750001965969 0.0
5.810004974283072 3.982497501655442 0.0
5.586615391658107 4.471070246359201 0.0
6.547331954052155 3.853872077215347 0.0
5.179081233207816 4.485638492900557 0.0
7.126615227065496 3.995337770596979 0.0
7.209459742762513 3.856893463870469 0.0
7.130226097876905 3.713620439679428 0.0
6.63075064074106 3.699684148676045 0.0
6.446985573861992 3.697358756862005 0.0
7.043151422977365 4.131713936060725 0.0
7.198322215260019 4.129850614748363 0.0
7.119378405252723 4.26005098890218 0.0
4.797146270976422 4.525762781577414 0.0
4.608329098388589 4.573584257851931 0.0
7.294442092743627 3.720853338661503 0.0
7.215753312764997 3.571378507508807 0.0
7.049631633956289 3.568047985538775 0.0
7.133765707749521 3.414282375958479 0.0
9.755079417839903 5.539705890434435 0.0
9.698955703441971 5.450920012703194 0.0
9.717604099406742 9.09084770432896 0.0
9.276716006673976 5.847248422342224 0.0
9.339081208926798 5.941174203394446 0.0
9.031261921742963 3.750271483819014 0.0
9.08721978689863 3.853416037308712 0.0
4.801461566647803 7.510704110489921 0.0
8.206553504932042 5.818005960412773 0.0
7.362361315389098 3.863102442315545 0.0
9.492826845316191 2.963845037486267 0.0
9.376710375304633 2.97229517374228 0.0
9.3192743723601 3.070687802230453 0.0
7.915389082113898 6.293241865913004 0.0
6.735006382384437 5.832450056405368 0.0
8.456481836836168 4.35369289249905 0.0
8.517718268476031 4.246675068616396 0.0
5.583512022030555 5.411069060406398 0.0
5.73625200174779 5.422617752052123 0.0
5.81006929286229 5.548584937688919 0.0
5.903438861894402 5.420604003204523 0.0
5.43801870974416 5.402925156167655 0.0
7.022641548594327 5.825217331839047 0.0
7.165095795605366 5.826005223633447 0.0
7.223078558430726 5.690146755650336 0.0
7.841396000338385 4.586693006493787 0.0
7.904793170875705 4.690826189066096 0.0
7.785999820520073 4.696719777099973 0.0
7.846448506395101 4.798518978096564 0.0
7.728149182067156 4.803800941124008 0.0
7.788983823826226 4.904802634695232 0.0
7.672018889153144 4.910077510508749 0.0
7.731996012352178 5.014717724244488 0.0
7.852072803124419 5.00743796185411 0.0
7.779278698005006 5.118909346425974 0.0
8.088113864063853 5.605434545811022 0.0
8.016457362785575 5.494849890158723 0.0
8.072290383394757 5.385594956317259 0.0
7.95068657972964 5.38825563681957 0.0
8.309366678475389 1.438342408757099 0.0
9.748160780780179 1.447794693754379 0.0
9.696454228162398 1.337889922375316 0.0
9.568813761940916 1.329560834053294 0.0
9.638326779791626 1.226729570935787 0.0
8.472132467407484 5.182856496818138 0.0
8.066211547412054 6.53691730655352 0.0
8.217035586462373 6.522976700918602 0.0
3.544839338670893 3.324491119989469 0.0
6.999740002965287 5.347729916247808 0.0
6.874544698914502 5.347027470386579 0.0
4.880451234715014 5.193043717957879 0.0
9.104510033763066 9.313204713465637 0.0
9.0466357104558 9.45359399494339 0.0
9.146803165140184 9.569652364413551 0.0
8.134107047896672 0.5527712356100052 0.0
8.369770412730738 0.5571215815175228 0.0
8.47386979744655 0.7564607169846485 0.0
8.585193608569258 0.5749174254532757 0.0
8.683868132726584 0.75505070091701 0.0
8.787381435061018 0.5813987798627239 0.0
8.697570280442534 0.3771156480326233 0.0
8.530048434259976 5.077280516000916 0.0
7.995091351438729 2.90367515012593 0.0
9.731083608815164 1.662638626153251 0.0
7.260488865351954 4.255073962371814 0.0
9.760728358076392 8.990038509880067 0.0
9.716710396257366 8.884160310398862 0.0
8.794627466210242 7.369659405098349 0.0
8.868068657550866 7.515048014893154 0.0
8.702594597629135 7.510501129643432 0.0
5.132320689147051 0.7610757801158905 0.0
9.755852887652699 3.853180024615871 0.0
9.787424819067885 2.757921105725315 0.0
9.731193479931608 0.3736343090103709 0.0
9.796526908308536 0.489684029254899 0.0
8.226019692057042 2.453349105940535 0.0
4.560989821496479 5.428206018250252 0.0
4.348810639659689 5.517048281386008 0.0
8.785190163106925 7.119142251269924 0.0
9.015515413043023 7.464769766852701 0.0
9.754861440190705 3.659036930324926 0.0
9.7543610723378 4.033687839160082 0.0
9.707881226943384 4.127219992296752 0.0
9.52841017383273 8.309020665649431 0.0
9.65186044414544 8.289498614805698 0.0
9.714051275521857 8.173576484362068 0.0
8.209758892476394 8.715513071423135 0.0
8.097084883671858 8.548851201381087 0.0
8.177989947800599 8.367872862579052 0.0
7.974142434808908 8.36779470623567 0.0
8.409012054919861 2.142624252464372 0.0
7.707002321497132 8.039129945341395 0.0
7.574653123518228 7.83895791570255 0.0
9.229858094382692 5.951357214361815 0.0
9.75307989876696 1.229893222503321 0.0
9.715811155868643 1.128779429890018 0.0
9.597960915003707 1.117058287635912 0.0
9.672063923518955 1.020806103150243 0.0
8.99090422125785 9.593878510105375 0.0
8.133165456134304 9.257620998029804 0.0
7.976779931497633 9.420725324095141 0.0
9.77231778617502 7.927819487779705 0.0
7.957213679655531 4.364530256281665 0.0
9.609903116082736 8.403725680286847 0.0
9.724891358972584 8.388392708395173 0.0
9.687487059868507 8.495935345161797 0.0
9.810055520269009 8.494090598382963 0.0
9.755967487162335 8.599790818513082 0.0
9.645698986824481 8.606121319182705 0.0
9.721376049217765 8.699989876681524 0.0
9.773009257015609 4.884557953188837 0.0
9.830105798750992 4.796546393900876 0.0
9.775335108731761 4.686093304257503 0.0
7.455611517737074 3.730099283949135 0.0
8.906943567829634 0.4197477661467797 0.0
8.980613334153533 0.5814185917581446 0.0
9.081059111759728 0.4263421860552371 0.0
9.821654809259165 3.576985724143072 0.0
9.761309244784803 3.4792267780002 0.0
9.763329553045937 9.353068233045157 0.0
4.463051839136694 1.164440352584939 0.0
8.0213168204867 5.283436382300235 0.0
7.89385412333227 5.290429544753158 0.0
5.806940001023414 8.583716119232427 0.0
5.88977793877374 8.96065112858812 0.0
9.177759062826041 8.25539130897928 0.0
9.626582559276994 2.05283181283147 0.0
9.747673294325121 2.064954301745188 0.0
8.775905508647185 6.951821187702613 0.0
2.3581644273991 6.029034686663493 0.0
9.777798009058461 9.548066962498762 0.0
9.737129197219856 9.662299853506903 0.0
9.615080366030512 9.683349544763068 0.0
3.315839678697904 6.042943273456425 0.0
8.915083018115329 7.937748428923896 0.0
9.489832173860055 4.712364754630572 0.0
8.118313727862493 8.013944064029838 0.0
8.902248750797776 7.67372145952523 0.0
8.954075939212636 3.463080912810881 0.0
9.45247551997678 2.133243108303608 0.0
8.311151553157742 8.899233004613622 0.0
3.28672004268868 6.826745674539142 0.0
9.86008383798735 3.468233656255824 0.0
8.389990589860254 1.947086063498656 0.0
7.144231739553659 5.329544660076687 0.0
9.654500729007207 7.743301971143119 0.0
9.761920842881946 7.740144345898896 0.0
9.692820773976567 0.2651585113981998 0.0
9.690951720399688 6.100517071814821 0.0
9.775704281989471 6.077882312279847 0.0
9.823117117198079 4.115168542267924 0.0
9.764391943581737 4.214465954230587 0.0
9.659455011849253 4.218716850797838 0.0
9.713462125022623 4.30742830316693 0.0
9.849638067150842 4.208845651573708 0.0
6.376241713254513 3.858766051594979 0.0
6.274931849158213 3.701528298009006 0.0
7.097780104117746 1.926449727602711 0.0
2.457742027508782 3.810157622192786 0.0
2.963634206580268 3.740748099915693 0.0
5.065585416063965 5.544355730437482 0.0
9.783560252464587 7.566507987677117 0.0
9.825819294611026 7.470942204664841 0.0
9.799976114123012 1.01659516618323 0.0
9.745559590633832 0.9150866860898854 0.0
8.20473400632469 9.495828670767946 0.0
8.784586030320169 2.054461500762216 0.0
8.758471587067168 1.888286802854785 0.0
0.9188935087347281 8.510730800272478 0.0
9.674192026048217 9.20389587377276 0.0
9.796314981283475 9.185916994648775 0.0
7.206882433199502 5.452024361489832 0.0
9.773927048949279 6.334665846819535 0.0
9.830288393591173 6.225300227041885 0.0
8.25177349297509 3.282767705830209 0.0
8.099233469407428 3.304040153764131 0.0
9.607860512870598 4.315652630490023 0.0
9.403674738018715 8.367349042046314 0.0
7.611756786273919 5.018691202305147 0.0
7.549513964643336 4.923310232561835 0.0
9.80986724662116 0.2915868356190958 0.0
0.7757562810577034 3.504187313079081 0.0
7.659562100664981 4.698467529240196 0.0
6.539424975891206 3.541729955691742 0.0
6.717348880400739 3.55221857686142 0.0
6.836337579501807 2.417476958454302 0.0
7.096480496160066 5.959124656438389 0.0
7.189742782777612 4.377051328076039 0.0
7.051723187622053 4.38470822973091 0.0
7.125489805519186 4.497018383456762 0.0
6.994915621927777 4.501504591168814 0.0
7.056755276274058 4.607929817497045 0.0
6.932937068803914 4.613249390039674 0.0
6.86629288290367 4.50541343988659 0.0
6.80427099775847 4.617607827251794 0.0
6.739195362053689 4.511124964201849 0.0
6.677260697693361 4.624288827143181 0.0
6.996760608675822 4.711715831373894 0.0
6.316045249462968 0.6456945497683586 0.0
7.321834163850416 5.816449323512759 0.0
7.833101485370825 4.390058096386987 0.0
4.996572652976738 4.498711166259074 0.0
5.112334577457371 4.663858846723513 0.0
5.271923064784868 4.629759173373871 0.0
4.93773508827367 4.668006487116195 0.0
5.348137647919096 4.485934621930562 0.0
5.413454827497575 4.62999925573761 0.0
5.356581113747675 4.770594395332836 0.0
5.013422223730484 4.793321773780133 0.0
8.58674425943957 0.9312335381466886 0.0
8.776450596582496 0.9362399987293505 0.0
4.783496233934828 9.486061758876032 0.0
4.544176394620909 9.034071856445296 0.0
4.082330493623582 9.015765881393772 0.0
9.820867469965414 7.285959215547852 0.0
9.852697883440127 7.166089674802766 0.0
9.260999083164238 2.971390964911171 0.0
9.197701900169713 3.073162109379564 0.0
9.31960210441945 2.867465579641856 0.0
6.660951583415121 3.383363199709994 0.0
5.210469976037585 4.761678854423166 0.0
6.740780285297665 4.733615686805694 0.0
6.611362405615225 4.731958642073806 0.0
6.549091884465382 4.629620704100811 0.0
6.491761716522486 4.733409494449344 0.0
6.425259228542098 4.640546096196947 0.0
9.715556659367534 2.986725573570596 0.0
3.710524324925069 9.463213827486557 0.0
4.768537031214573 4.727001037865238 0.0
5.039413681704655 5.378508462165627 0.0
5.188746429211535 5.440476671296013 0.0
5.172214816037712 5.298914527247826 0.0
4.469063601436893 3.667917323494335 0.0
3.799121596584382 4.741629285988305 0.0
3.661085664896249 4.442847704416992 0.0
3.316563386321876 4.380147387454913 0.0
3.802087298647255 5.26743535640985 0.0
9.738116341343215 8.047178982429934 0.0
9.85106076399546 8.021725551312715 0.0
9.837581050304836 2.844176011307251 0.0
9.664579962075123 4.402853107737106 0.0
9.76433159763034 4.39807801415352 0.0
9.718924973226878 4.487825491046641 0.0
9.826405563645343 4.494594135148365 0.0
4.931068003413168 6.359330991212394 0.0
5.130175746947236 6.201075257041828 0.0
5.143884286052002 6.445382329515047 0.0
4.953395875296406 6.628748468717369 0.0
7.833019185167153 5.400347121613631 0.0
7.766636138801143 5.313240048256084 0.0
9.767038723422333 4.578090619166644 0.0
7.315369355237483 3.441501197259575 0.0
9.556068971301514 0.2347811136726856 0.0
5.733871280791703 4.444861510772459 0.0
5.828809543126846 4.569791247698539 0.0
5.986701526182213 4.562881783985375 0.0
5.912543327921148 4.692966271273211 0.0
6.052130330528581 4.682477327897978 0.0
5.773525984744635 4.697697018456535 0.0
6.121646311546238 4.572302645403103 0.0
6.182349700936326 4.67713231096357 0.0
5.846371383601797 4.808939734754761 0.0
5.117807918383606 5.974361363083184 0.0
6.256132501905665 4.575863546153224 0.0
6.324770064521816 9.645040261272253 0.0
7.345522892050965 4.12581088034536 0.0
9.338523512844539 4.854480276600515 0.0
9.286984287289403 4.959628690044808 0.0
5.676298026114105 4.589279806918992 0.0
5.631257891894775 4.722749088404111 0.0
7.970415275563177 5.621040275419208 0.0
9.565118337557308 7.081391220827488 0.0
9.626201005045262 6.980441083020495 0.0
9.733729506193331 6.979928568877979 0.0
9.684556253529976 6.887102896543928 0.0
9.780785815410074 6.890287441101827 0.0
9.740054813822885 6.794211367612523 0.0
6.462628988057306 7.629921412015864 0.0
6.692564520952154 7.473594130811262 0.0
6.927983108788191 7.570982428592125 0.0
6.899878641134941 7.329306734748538 0.0
7.117542472438434 7.416951094809493 0.0
7.089537168123128 7.186691566729968 0.0
7.296585396514727 7.275888419524222 0.0
6.879678873774065 7.097443005287856 0.0
7.063454637059129 6.967740076426161 0.0
7.329105042924355 7.496317641003757 0.0
6.867084781778411 6.878842928865059 0.0
7.494278796275744 7.351949197351029 0.0
7.462564159480594 7.150140034494138 0.0
7.644835001206406 7.21506678718646 0.0
6.682478929414216 7.008358327294905 0.0
6.449199855715812 7.365660640952548 0.0
7.548139855358765 7.57299228324251 0.0
7.008502809092701 7.844601794812628 0.0
7.371739019901781 7.707688433423657 0.0
5.665345294602155 5.290628720253272 0.0
3.987583013016546 4.486920698115711 0.0
8.893480480320447 0.7785000884179994 0.0
9.715485963651112 0.5955299613117169 0.0
9.761785841543585 0.7048670948649375 0.0
9.670304314877074 4.578896619304786 0.0
8.058509626083154 5.744161686650483 0.0
6.181795443628869 5.462040811515966 0.0
6.256771804808641 5.338464817889848 0.0
6.124070400983443 5.352376180901929 0.0
6.399679261813415 5.349186390888865 0.0
6.477776305607503 5.46505688468465 0.0
6.541624525938461 5.346017118512589 0.0
6.673064575428321 5.339051516933525 0.0
6.599301548842115 5.241958624987057 0.0
9.573774011620444 0.815274945835158 0.0
5.86493292693426 5.877588788523632 0.0
5.552663040119136 6.957487930464628 0.0
5.535080960199246 6.663033131707637 0.0
3.708603689392072 0.5979254716153909 0.0
3.31896983256719 1.188583855309964 0.0
3.895664898001925 1.128137111173669 0.0
6.363360407965353 6.032416442205533 0.0
9.445959758065749 1.070139246426051 0.0
9.50632172780449 1.214052376665338 0.0
9.441030033980638 1.325047485624912 0.0
9.295799464644857 1.341410624832976 0.0
9.184164107767781 1.461677744200096 0.0
6.407191016756832 4.407273313799791 0.0
5.544591888593027 0.7652641669375747 0.0
7.883090151006535 2.497506182548758 0.0
8.073420508370992 2.120510489750234 0.0
5.494822040671399 4.732314720081375 0.0
0.8986976806403217 1.464611451578306 0.0
9.536325549598013 6.83286654168725 0.0
5.972289519322897 5.727532110854501 0.0
9.82203607053145 9.443411729566549 0.0
7.263199949874008 7.064207941227515 0.0
7.233659553805083 6.853135694774254 0.0
9.793310082768443 7.072747972018893 0.0
6.734168931095253 9.67499220075154 0.0
6.941134861034159 9.382328333169653 0.0
7.285822522704258 9.443989747444657 0.0
6.576263515512108 9.333035011158342 0.0
7.160560566479093 9.127732577621245 0.0
6.218711947378506 9.298064908857533 0.0
6.432383355119106 8.980985203293491 0.0
6.795390278360442 9.046043538032663 0.0
8.54677014121837 0.1957422484480979 0.0
8.528696320820908 9.804850950580938 0.0
8.42644965647489 9.604735484095604 0.0
8.010239224104339 9.715048083583248 0.0
8.644359648763341 9.628432815860457 0.0
5.344212921686536 5.526744195650314 0.0
9.760936589662048 7.38409687515441 0.0
9.128187788393989 0.1445485608215519 0.0
9.133307661752394 9.854833215426817 0.0
4.867351616228264 3.944459575003425 0.0
5.905323253270366 7.385600364255367 0.0
5.909045412185362 3.361969954191194 0.0
5.80580919758911 3.569999290452344 0.0
5.578230704221431 3.587842862412673 0.0
6.013352753603037 3.550699073477782 0.0
5.936624955014758 3.721630401607248 0.0
5.735413275357409 3.78528948606432 0.0
5.512538847486775 3.794760621907932 0.0
5.360571639388366 3.618649018042938 0.0
5.134141179590394 3.459385929220745 0.0
6.167399567008798 3.367365990358096 0.0
9.766756262206602 8.291756450136036 0.0
5.486063578307141 9.64505925252771 0.0
9.497624614180321 4.328873442170357 0.0
9.811387324954623 1.570516917365688 0.0
9.389210081887331 4.69150887571586 0.0
9.704395728912932 3.754226393630331 0.0
9.808172776193384 3.748784464356272 0.0
6.549660911932182 4.839747932361234 0.0
6.757415124099031 6.077939876843736 0.0
3.805578542126494 8.040840085419626 0.0
4.232580149691158 8.198659880701744 0.0
4.559765382564095 7.87091698350757 0.0
8.3829075948167 0.9495097054886067 0.0
9.8571301061408 1.456307792614791 0.0
2.005900212453279 4.535525273813588 0.0
1.85904408608185 3.956445706785572 0.0
1.979307922430775 5.474327285927505 0.0
4.387923194305381 4.427191306527721 0.0
9.429258370703248 8.873693567695483 0.0
8.99196583083892 4.664567567015693 0.0
3.050357122593155 5.368999067452741 0.0
2.861107385476722 5.785089447130829 0.0
5.005058958272409 3.711196438448062 0.0
9.8972295764837 2.755337284632969 0.0
9.581048890980513 8.853909321617065 0.0
9.668838904423916 1.762418716497425 0.0
9.716576458425756 1.852218615166234 0.0
9.799043132681442 1.780583141193779 0.0
7.661868217848455 2.880323287492419 0.0
6.780136552904057 5.443858690999834 0.0
6.489544866845868 5.913957888434588 0.0
6.880149522020364 4.134257616716107 0.0
6.970134365280068 4.264072319341612 0.0
2.225481516813409 9.348422240784 0.0
1.843418032490818 8.641605249943353 0.0
2.198000805242772 0.6459947140825729 0.0
8.740020306282506 0.1903932731609072 0.0
6.86957996016679 4.720776242956433 0.0
7.430920333506809 0.2702852342693345 0.0
7.302066064947383 0.6134316505458445 0.0
9.305398039877746 4.64854361125207 0.0
4.078151380865065 5.203425462519088 0.0
4.080704120371218 4.778853303303787 0.0
8.052525541571825 5.965483159581719 0.0
6.367194027835946 4.754896037842673 0.0
8.604191121620719 7.648182513679963 0.0
9.546446695207845 9.234701521982952 0.0
9.018652854946867 3.351011585453845 0.0
9.143853648154607 3.350173119015413 0.0
9.067079866763024 3.245174561579149 0.0
8.991492136849105 3.135578770028028 0.0
9.29603967712795 0.1426516429033488 0.0
9.392428271030795 0.2506306237151588 0.0
9.223973843394301 0.2912279164401488 0.0
8.39375191941536 3.018777714002827 0.0
8.4836475746111 2.88135207267795 0.0
8.741089053946197 9.821127577434911 0.0
9.803966507713174 5.448064463539533 0.0
9.748132240148552 5.359371181503531 0.0
9.850258990973547 5.355211921626304 0.0
9.7965346514158 5.266762244994661 0.0
9.84142096963129 5.171050273734619 0.0
9.738843612428232 5.167483913244169 0.0
9.64168976006725 5.359875132194057 0.0
3.335917453809221 5.671837672982919 0.0
6.962669142802881 1.683222554707996 0.0
7.365210844496719 1.887492842536114 0.0
7.517378971174123 1.677983072937792 0.0
8.00383870208024 6.089394601875145 0.0
1.725435941000569 2.759295503019395 0.0
7.907977929549089 5.102827208603365 0.0
8.052861051278896 0.2683271125209605 0.0
9.80169732768395 3.385443381464333 0.0
9.831597648680848 3.28491948963525 0.0
9.736335895866404 3.316207814499244 0.0
9.597256128490281 3.756160701977744 0.0
8.865819925321706 3.366235906378775 0.0
8.489614436807788 1.757152185195495 0.0
8.88089641144391 1.078983279100314 0.0
7.430923851187758 9.724389499796425 0.0
7.584252919312249 9.509430586267927 0.0
9.744026095940516 2.247117754488748 0.0
9.729961521243718 2.659836747108116 0.0
9.790866569780063 2.558993767350471 0.0
9.736606445116795 2.455104424879619 0.0
9.846806182714698 2.452157456754448 0.0
4.518102112052724 5.141350889745285 0.0
4.519880229178207 4.85678334497067 0.0
9.7302407894617 6.434012603549242 0.0
9.787537474544765 6.523591663056312 0.0
9.744262337067932 6.617499601377625 0.0
9.8406238811518 6.41591236129004 0.0
8.914967252734657 3.579360039684312 0.0
9.154797282599406 5.670753066089419 0.0
4.228839454580575 4.612979739018002 0.0
6.095037541675208 4.42126627187728 0.0
9.304166983880842 9.864854494751789 0.0
9.406445527105628 9.759007358529582 0.0
9.256225114941945 9.700832989525724 0.0
9.796206564635622 2.351215649506205 0.0
9.849373673349081 2.25090453834006 0.0
6.332048155295931 3.511675163099286 0.0
9.069679774213784 3.022879178706259 0.0
9.070599961450037 9.055284879641471 0.0
1.808685691036764 6.331557276533421 0.0
7.120156826652838 4.698481230214924 0.0
7.052894345811342 4.799848851879358 0.0
4.739957520484086 5.369107149361242 0.0
9.389197839958292 7.197139943834638 0.0
9.046688232613976 4.560364044038737 0.0
9.162685461967492 4.562194096410666 0.0
4.227377821420887 1.564128177298305 0.0
9.201090975245227 2.794301402811909 0.0
9.251941624303948 2.677556975242327 0.0
9.186758273070138 2.563916005021366 0.0
9.317609833868786 2.560335260954038 0.0
6.57599191748324 2.437689779955877 0.0
6.305556560534859 2.459112595979303 0.0
6.981058048792093 2.642476994448363 0.0
9.886113463139504 6.510498309609482 0.0
9.250462794607717 6.221362629571698 0.0
9.305373999084068 6.108271307139882 0.0
9.390477915810829 6.228015172491477 0.0
9.44452571968143 6.114582165110393 0.0
9.502105740270528 6.197677857389309 0.0
9.31559697209813 6.331647407124485 0.0
9.370938253597153 6.437386206819511 0.0
9.594764406124872 0.1099001288712305 0.0
9.602872681151728 9.894988341116305 0.0
9.622661196143387 8.076680696281343 0.0
9.769069277144705 5.9102532189237 0.0
2.615076109785583 8.807551523115547 0.0
9.658920005405456 5.730890135691177 0.0
9.76063135061807 5.720703211793342 0.0
8.63963723169499 7.177334225227945 0.0
7.841904391869763 6.41346852896409 0.0
7.764520718520185 6.297267738834625 0.0
9.546492996136271 3.465225175657335 0.0
9.25600964352143 2.219157062786616 0.0
7.625057159226293 7.012987957636062 0.0
9.529121062829038 7.730283486008674 0.0
8.329887090625894 3.845190321147069 0.0
8.265841850823831 3.95687001944245 0.0
8.402006523775544 3.947660780406651 0.0
8.128436391670505 3.968543393650448 0.0
8.46705122470662 3.835767362024195 0.0
8.218867047074696 4.063481375518748 0.0
8.089763413611255 4.08062363292928 0.0
7.939578083855268 4.111915744184436 0.0
3.74991304509639 6.615676756107112 0.0
2.627714335615619 1.170993030860914 0.0
7.046129971268607 6.759930788612616 0.0
8.534603732661887 7.486325780553722 0.0
1.569381386467569 2.042794535871475 0.0
6.228703743210918 1.986421863690014 0.0
6.467030855792859 2.67190498312861 0.0
9.272246093269825 1.975478263632296 0.0
8.05269609263041 3.854522845257449 0.0
8.008595521536957 3.177870309354594 0.0
7.929796740504207 3.350600835935766 0.0
8.048703574664067 3.449582532910417 0.0
9.72947480375618 4.973926800124758 0.0
9.784850360535604 5.072865219810449 0.0
9.896036387646596 5.069261557893528 0.0
9.633140953203334 5.168645132864771 0.0
9.558102991128836 7.602453108835212 0.0
7.278758746505716 3.994295887299482 0.0
8.306681733482405 6.936428510427854 0.0
9.487163072013963 3.757777670075558 0.0
9.532950522284125 5.359403698944497 0.0
9.816036650072329 3.927268437107025 0.0
6.173882586235392 8.734645960664665 0.0
7.972518459433741 5.003005338485466 0.0
8.398453459336153 1.601072016988848 0.0
8.97460527296194 4.040886705742754 0.0
9.037941657530773 4.143578781749325 0.0
8.849604200183613 3.828506169652706 0.0
9.545296177100065 4.042698359132156 0.0
8.595941796785514 5.806754902023664 0.0
8.65588412428292 5.694192853853139 0.0
8.723710665131787 5.801528918332044 0.0
6.861288985046249 6.673713222735126 0.0
8.87477249219366 4.664500928777609 0.0
8.72385765226959 3.608276264790996 0.0
7.145228858696953 5.573648565429618 0.0
7.282945121585866 5.558559688509987 0.0
9.224761401603633 1.602363370249125 0.0
9.609115686587552 2.986868833620756 0.0
9.633989947851914 6.628120633848649 0.0
6.046214325132457 5.45615093027661 0.0
9.017014346798927 5.271996636983457 0.0
9.070824864071271 5.168510834798647 0.0
9.189021391555556 5.166867900487267 0.0
9.123328759137758 5.064718588163964 0.0
9.240587446378079 5.06459430516883 0.0
9.250848280531756 5.267364371053135 0.0
5.773050603406019 5.7192906317521 0.0
8.576466432793914 4.3559007860436 0.0
8.634627802680399 4.253467736542067 0.0
8.461790117175607 5.591735227444779 0.0
8.907610717370224 3.713397213891439 0.0
9.80665594564509 5.628066492225966 0.0
8.985935132601089 4.455263493464225 0.0
9.00640209566022 5.067597672073404 0.0
9.833659276096986 6.976519563917422 0.0
8.0283368553477 4.687271895436317 0.0
8.326580191759327 9.127498457128247 0.0
8.650637373791266 5.07513089931925 0.0
8.701067313435203 2.700069743477523 0.0
4.825307249916392 4.884175191874744 0.0
9.418335984190309 6.858444798015129 0.0
3.91434687300816 8.542956908935874 0.0
5.569239724399552 2.064135034637056 0.0
5.234271567762738 2.128974435011933 0.0
5.757920427527626 2.312422707096966 0.0
5.43365689737979 2.427455772745759 0.0
5.673210219624612 2.602111218343444 0.0
7.214258468265766 6.652783071431555 0.0
9.823626269633962 4.30685540664529 0.0
7.96996639420014 4.794005510174826 0.0
7.616003332725032 0.502676560965646 0.0
3.050634530589821 4.659174799474146 0.0
2.870894249800723 4.246924313393336 0.0
5.285393339952368 6.079037173753393 0.0
9.439954241218905 4.23581687956071 0.0
9.67709722097145 4.710772408106511 0.0
7.40767785509217 4.259947873553335 0.0
8.396202587439676 5.486075637998701 0.0
8.323689688705493 5.372061002264632 0.0
8.191312386254125 5.384662546230823 0.0
5.304380054816289 5.369675374029755 0.0
9.093848379546637 4.047647920840374 0.0
7.916313220758624 3.045043876114836 0.0
8.435854831444637 4.144861908356168 0.0
9.060262453079693 0.7340576053322918 0.0
7.053195520344596 5.238809779682351 0.0
9.621762679347093 2.45205452967588 0.0
8.410730269104743 5.287995309529392 0.0
9.655094569234972 3.472720279371932 0.0
7.982140513923982 6.667914768024983 0.0
8.402690325256646 4.883576657130221 0.0
9.17488654147479 4.962006474835693 0.0
9.013188196102961 8.49700148123058 0.0
9.795977244531603 2.156818021002043 0.0
9.893813711206834 9.545820400859157 0.0
7.965349232662289 4.250048884270795 0.0
8.644264557989125 4.874751532150782 0.0
8.215430976121077 1.26077208565765 0.0
8.379717637669398 8.37324652769609 0.0
9.320026533461409 5.559861899725609 0.0
7.885778178744864 0.4977439426642278 0.0
7.547066983926719 5.125166613071239 0.0
7.657542898944819 5.122996245335209 0.0
7.423918840193691 9.000935553397358 0.0
9.854133000712425 5.541931969512857 0.0
9.328508174398952 2.101486405523264 0.0
9.300749600926641 9.530012105354274 0.0
8.130307182491519 5.277079344947874 0.0
8.346752967392757 4.987627363826086 0.0
9.118404185029991 6.007087846617186 0.0
9.048232213728614 5.89431792713258 0.0
9.088340967655858 5.576242562571367 0.0
8.094762487139027 4.789727191449318 0.0
9.915265904493378 5.749591413470928 0.0
9.92169805280126 6.154216704502091 0.0
9.918022441582268 4.549125436287157 0.0
9.919332362905616 4.849536560132457 0.0
9.914800786693318 6.750595509794719 0.0
9.811792900437824 6.703950687575952 0.0
9.900643083988882 3.749855087409844 0.0
9.912423171222734 3.043228996968949 0.0
9.91892875832665 5.949999999993851 0.0
9.913300070218703 3.960831593817277 0.0
7.709347001661226 4.444236534782706 0.0
7.479443107717332 8.071637285053104 0.0
8.839057072155848 6.807845119358974 0.0
8.972330068019902 6.78765448182788 0.0
8.542093772125282 3.941452413628317 0.0
8.279144752968262 5.930387616620717 0.0
9.393455876855919 4.973162505621418 0.0
9.507123333872533 2.855087674515822 0.0
8.77504684283825 2.317347145885344 0.0
8.394133129040345 4.464046960801843 0.0
5.725509852450801 8.210843960481027 0.0
5.62632390239664 3.967637659758752 0.0
7.910815814627989 4.900765971697654 0.0
8.595808444085467 5.590040244353608 0.0
9.705160502006024 0.8106158419444889 0.0
9.82021247904746 0.808810893177099 0.0
9.218352146075844 4.447736986422823 0.0
9.20781892622228 3.858281726888132 0.0
8.713609974387523 5.178241668554946 0.0
3.55755059259364 8.921522400238844 0.0
9.59122926011489 5.452844834281716 0.0
9.70565100407009 9.77887811062354 0.0
9.826938454219809 9.74303055702321 0.0
7.238962096855633 3.278078153406256 0.0
8.575609105166194 4.567807831727537 0.0
8.936449841121737 4.765835458965493 0.0
5.59323463391086 9.248527978398117 0.0
5.280809113285124 4.886132326418428 0.0
9.328132730893216 6.544753806716806 0.0
9.026944889277736 6.67247283515637 0.0
9.81946239021469 3.007926663525007 0.0
8.677633568960493 6.144049349297466 0.0
8.33427489656924 4.571212803519522 0.0
8.55734024448315 6.382535186588269 0.0
8.692399379422756 6.372347713955898 0.0
8.495817478252626 6.503308565233578 0.0
9.905494734661673 2.544078755559835 0.0
6.177101405266569 7.228490244483556 0.0
9.825373011845263 5.807482724503027 0.0
9.808678508609606 8.118683092442964 0.0
8.397717712407108 7.08010313863416 0.0
7.428555529689225 4.935946611338556 0.0
9.575504958128711 6.125633853639113 0.0
9.154066996197898 4.146562596982661 0.0
8.074381802159323 4.337569667261167 0.0
7.018337246891919 8.843475095716133 0.0
7.970627172560641 2.658650028065857 0.0
7.382546388883145 6.723381543491632 0.0
6.822972334933889 4.884555620881615 0.0
8.343732976791593 6.041576709398377 0.0
7.743680217306919 8.423336160305476 0.0
8.505717922983454 1.115022897794028 0.0
9.113973198216474 6.992972408167606 0.0
5.818882632841168 5.300437503812764 0.0
5.951991891717714 5.279516346785062 0.0
9.450183479138845 5.92934813870612 0.0
8.783346541536119 5.48419035750989 0.0
9.38074895894124 5.65076274999803 0.0
9.513658728876734 7.193620441323493 0.0
6.396040948797887 6.776064256962667 0.0
5.389661780244388 4.89715084345563 0.0
4.473247649068957 5.85935163892416 0.0
9.249586607512612 8.37680799459232 0.0
9.103796366487646 8.379197231055114 0.0
6.274057301184156 4.87985402946409 0.0
9.259628836118232 3.561431822636308 0.0
4.037922477011971 5.489409780163391 0.0
5.62712958624254 4.893925433488392 0.0
8.806426003347967 6.133410188141932 0.0
9.53304466499349 9.59279975429444 0.0
9.542890959420024 1.966631379116419 0.0
7.459736176874619 5.863847835420528 0.0
5.937613117200432 4.89232797168023 0.0
6.171611131472617 4.879541833448487 0.0
6.100695199816815 2.291172318314745 0.0
2.315194906726768 8.081958163666464 0.0
6.878489987598286 5.148099521847569 0.0
9.105264414399338 8.639184652727645 0.0
9.20047261316883 3.457820810661327 0.0
9.895329010385955 7.55944047105717 0.0
9.912742873006831 7.76210330502246 0.0
9.37761459375249 3.168397068877758 0.0
8.946121261512507 6.345629828835438 0.0
9.918632496443566 4.449809517365367 0.0
6.848211525651934 5.945010613369067 0.0
9.915721525903255 2.047407395915179 0.0
6.117255841708726 5.163321965161054 0.0
7.276595248786602 5.347247322210079 0.0
6.32682869954104 5.23674259421017 0.0
8.785886448438022 5.692775375342819 0.0
9.099994401883361 6.776698531382792 0.0
9.913397459621638 0.2499999999998165 0.0
9.910352525643928 0.4481571029410266 0.0
9.907850422008579 0.5479735220323012 0.0
9.911983631350465 9.24778487019403 0.0
9.917634740384067 0.7514684821956668 0.0
9.195214232985496 3.254172408378337 0.0
5.000896927376288 1.846006038077654 0.0
9.917172478547403 8.250155740683276 0.0
9.908120476950126 1.742986232208194 0.0
9.914524635720774 1.949567899316728 0.0
9.907358878377153 9.145625165175748 0.0
9.917695944922635 8.949999999998397 0.0
7.648387553139914 5.325741673607362 0.0
9.605343588986079 4.130627398479715 0.0
6.648113233057817 6.774798386229164 0.0
9.910347203087213 8.446729917003672 0.0
9.913623694530468 8.548470085896316 0.0
9.9201245863254 1.536225488581779 0.0
9.906538426683255 1.059019360781604 0.0
9.912867352010919 8.74999999999809 0.0
9.799662981388353 8.79550485462418 0.0
9.831828680383174 5.99966894118311 0.0
9.91414179906643 1.263025320602998 0.0
9.920690092699912 7.240982963665807 0.0
9.385889285950551 2.235126904097426 0.0
9.28133998925606 8.00415195851526 0.0
9.817074723108401 3.172398890123306 0.0
9.482030285089927 7.512954023388035 0.0
6.682432918504054 7.233889573028878 0.0
8.528699633246763 3.260502457553277 0.0
8.91699963742029 2.327016692708648 0.0
9.267676068834481 3.954520684561369 0.0
8.70811637467455 4.974101624783084 0.0
8.18184214270768 7.816666208279135 0.0
9.690393137288163 5.264344933127836 0.0
6.937111790104696 5.245184991960528 0.0
5.895846026722989 5.174232967273284 0.0
8.281683356622615 6.400073017261236 0.0
9.150883172924027 7.444273543454419 0.0
5.430406600793122 3.390815886517273 0.0
5.049583827974758 5.697634876048387 0.0
8.3966710383105 3.495813899905868 0.0
9.007538428392454 8.046563579784266 0.0
4.645155158868719 2.637132843684674 0.0
4.887444326771336 2.30020425915506 0.0
6.483736782775559 4.522536327482678 0.0
7.843169154548308 8.2116075844056 0.0
5.06295551628385 4.901632590583318 0.0
7.201400991012747 5.138239336380897 0.0
8.519791031104612 8.848807089071627 0.0
8.658623737989732 3.031313729049854 0.0
7.585566208322493 3.629882964874684 0.0
8.411818469596405 6.834326722716643 0.0
9.172363528634236 7.669230647622864 0.0
8.85455683341768 2.682483055215344 0.0
9.359398739738925 1.631421337140716 0.0
9.071793864444992 7.337030604117359 0.0
6.968394563521436 3.712808894519514 0.0
7.899236117684646 7.094583340182754 0.0
9.54362864504834 9.781852543872333 0.0
7.151298729743687 7.644795130415299 0.0
5.452218361466201 5.186873761308322 0.0
5.517642289161902 5.293540933999446 0.0
7.802500357665464 5.978295671754199 0.0
6.594850839687122 8.491429270558893 0.0
6.029132431949566 8.294997405201931 0.0
9.31286590869111 0.5672913838331921 0.0
9.25238720319541 0.4415953739444106 0.0
9.550589523211062 4.228044955453704 0.0
8.748611832783206 6.250900951984038 0.0
7.566980108995873 3.995148257893202 0.0
7.426142759241261 3.996743578498081 0.0
6.478912513785404 4.000296412419969 0.0
9.30435638148753 5.168210982711592 0.0
7.542154188520517 5.752525075248498 0.0
7.219033852073297 2.139582470800704 0.0
7.370913620388047 6.545121498197235 0.0
5.226731036024996 5.187572666585561 0.0
8.515591031124366 4.462223215179979 0.0
6.762864307079274 0.3078036604979366 0.0
8.587432696997471 4.977010533175154 0.0
8.703948448756302 8.815629076400704 0.0
8.081003990931544 7.370949680119862 0.0
7.424404567669909 6.949730915714445 0.0
8.578903262311433 8.377992954045473 0.0
7.301258690263783 6.106184350645308 0.0
5.991600556904204 3.99820087171043 0.0
8.203048538477193 1.601044215405025 0.0
7.289972483120081 4.572350254111052 0.0
7.714697186439165 5.420586967696794 0.0
8.918853780709807 1.841796898567452 0.0
9.919941345877513 4.749808449067644 0.0
7.245589454939737 5.94251251443003 0.0
9.258480524497795 3.358952871140391 0.0
3.705877615124628 5.574038727593425 0.0
8.287096858129765 7.962370605242409 0.0
6.799629860952143 3.705385600481528 0.0
4.146753450763018 6.544154457143895 0.0
7.413973555029582 5.545687501585183 0.0
8.466524978378082 4.980481756569235 0.0
7.336312153537934 2.337983522449311 0.0
7.695505222753409 3.747498713679684 0.0
4.898236813123799 4.795853653580084 0.0
4.59779105899602 1.896916774247134 0.0
8.560170375862322 7.072369101894893 0.0
8.386150468360862 2.449771437140704 0.0
8.41200018115259 5.084601315536367 0.0
5.102189912301071 7.621598618277815 0.0
8.336320418935243 6.71651223072348 0.0
5.081745734883095 3.977838926197614 0.0
7.63590698378166 0.9500570055008507 0.0
7.743369677149255 3.051233984704873 0.0
5.357527459690566 0.3809996753407537 0.0
5.967373112873382 0.7731113464301924 0.0
8.169449265206127 6.666271947462212 0.0
5.95122726745053 5.55758205410881 0.0
9.922289489207834 3.53923011719877 0.0
9.39154684476555 2.659037023454942 0.0
7.701415639167884 7.690060291860976 0.0
9.819179654793023 1.329863870021845 0.0
8.358229579054417 6.506108206863729 0.0
9.269720555169467 5.657096143475924 0.0
4.473187658045934 7.435037860084884 0.0
9.65807158077373 3.255496360750368 0.0
9.605155446454205 8.713645566904637 0.0
7.097383547728313 5.141197376985936 0.0
9.812212483832656 1.89920712759492 0.0
9.83875570675407 6.81603549325055 0.0
8.926246869879279 2.079976511571457 0.0
9.166785856141402 9.169070814302419 0.0
8.763479010228052 1.587152667342957 0.0
5.957377924852992 6.404530806530254 0.0
7.14506854375872 6.10342416684208 0.0
5.672595070581394 5.164323323112049 0.0
4.899782787268781 0.3801727265981219 0.0
4.447133848117348 4.673614099606824 0.0
7.044865074789195 3.253639989243549 0.0
9.818461337102992 7.819456450952447 0.0
9.925334577033155 7.954012377173311 0.0
6.352907898232792 1.173665225954276 0.0
7.351721385581032 5.660361289755705 0.0
9.337367583861807 2.76534436379692 0.0
8.693118347802024 4.360254099729149 0.0
9.476812970101324 0.3524826622168163 0.0
7.109868985890334 0.9024224571333925 0.0
7.899106846231403 5.511805431542581 0.0
8.352799544476607 5.187887629361129 0.0
6.957483547582747 0.6176251309213842 0.0
8.099559500483094 1.412323841044818 0.0
9.913030944540278 0.8542404645334569 0.0
9.143075088381442 8.022165366829135 0.0
8.819861450593166 6.356592599428041 0.0
9.319444417409162 1.49938505915629 0.0
6.490262520326714 7.118204362551877 0.0
6.490874470087819 6.582907761235813 0.0
9.82506653058937 0.6146757679104559 0.0
6.803129818897624 4.419048038171804 0.0
9.840901379354312 0.08198751964190581 0.0
9.839740374244226 9.918356239418472 0.0
8.551927134544655 9.449788917425456 0.0
9.92097857388158 3.249999999993177 0.0
5.797087413057367 7.077351493358238 0.0
9.255412859987286 6.433984412022419 0.0
8.668174522249984 1.740767926084485 0.0
9.920991430240607 6.25262219124529 0.0
7.57275248448898 1.94367954756322 0.0
8.052865444445507 8.19900054463639 0.0
8.748697149245206 4.25201068974208 0.0
9.158270227735827 0.5542256343091421 0.0
5.997487767477439 4.787924707603557 0.0
6.119759900601896 4.78043793682227 0.0
4.353034750397793 8.619182743639561 0.0
8.721093521611476 5.588932824583312 0.0
5.717101151444983 1.123034066822819 0.0
9.825602081347064 8.68753399402474 0.0
8.005502510832988 8.7824052910506 0.0
5.548184234622668 6.408009287230429 0.0
5.77830300433981 6.598697187164234 0.0
9.613093825495433 4.50282172481406 0.0
9.928981132641653 9.74928475696928 0.0
6.613628176297015 4.515513362596662 0.0
1.822126723816303 1.297795131355289 0.0
9.514164594137375 1.43081427463862 0.0
4.735494753432723 3.698541604583975 0.0
9.52844959749262 8.615213629960298 0.0
4.660704511759056 0.7947595073298008 0.0
6.82340845160293 5.239926830264399 0.0
7.885938077030673 7.380147032865134 0.0
7.884599891021201 6.09005968568029 0.0
8.846834820720167 9.653276456345532 0.0
8.457777199486827 0.3851010632068662 0.0
6.66485224572131 8.771510767670392 0.0
9.091499342133352 9.708315832477556 0.0
9.824286725109655 4.976315293637262 0.0
7.848197684391786 5.632217046637356 0.0
3.88430598115417 4.225391362015386 0.0
8.776890759183289 2.809688928468134 0.0
7.393884285023409 3.59397875231041 0.0
6.927568893329758 4.396788356869783 0.0
4.96854327720728 2.662368428358774 0.0
9.1480130720193 3.951479613991279 0.0
7.071049729490975 2.38092990636632 0.0
3.40193058782919 1.686321186206593 0.0
7.612042194200681 4.815904436723407 0.0
9.043395868401339 6.888481825015849 0.0
9.098933057562759 8.152197681006806 0.0
6.058682303253315 3.857501492181965 0.0
3.707092669281355 2.986685502034343 0.0
5.113272509841263 5.189455016444592 0.0
6.960565857079232 3.416349532571279 0.0
8.755151527375476 7.649255597361291 0.0
3.393680865444538 3.679982303262531 0.0
3.117424600120088 3.35605258976247 0.0
8.530814041264104 5.488376426140491 0.0
4.820719767306654 5.106646490188182 0.0
9.918899263509473 4.144927088739744 0.0
9.918194630017027 7.447268230913605 0.0
8.461970084137805 3.144844565847669 0.0
9.924415919486059 6.949999999995354 0.0
7.184050152099684 2.72771667662237 0.0
8.834356715215904 7.801565642745232 0.0
8.689015446783005 4.145232831954543 0.0
8.490778532265319 8.234414357968106 0.0
8.63666290918932 2.83060276219705 0.0
4.61028976098935 4.741894230894578 0.0
6.314735925012879 4.003132559161639 0.0
9.20786580425652 4.67001723737971 0.0
7.141401229301469 4.873205425098625 0.0
6.235177809922153 4.774126344778935 0.0
9.12491895896937 3.145675090615719 0.0
9.255747684068178 3.162525801823036 0.0
8.312852272796098 2.290855459722148 0.0
1.449266720542303 3.363629101350872 0.0
9.525687840398492 4.800807314407045 0.0
4.829905263804087 8.14474456977717 0.0
9.09338914689732 7.563794106183232 0.0
5.389401689694107 5.283808684471545 0.0
8.530979415204587 3.029374286908943 0.0
7.901489077080633 6.535344047486632 0.0
9.218572924671975 5.760893551533255 0.0
8.562382833959296 4.143913974026883 0.0
8.62959127904665 8.974877485888243 0.0
9.408442441596518 9.62276529745719 0.0
7.5034765601713 3.869833107932387 0.0
9.842813436634783 6.600620949014236 0.0
9.826116984327193 8.911617279149695 0.0
7.529907780698261 0.7369111006685982 0.0
7.832164962480427 2.905293639437395 0.0
8.39517908433056 3.267417602291069 0.0
9.823014010107707 9.085319632577246 0.0
9.022314123618541 3.944559746338292 0.0
4.243701230676532 5.332574856090426 0.0
9.816740542566388 1.127839952679595 0.0
8.166775715766304 5.693916696568397 0.0
8.865374421689054 8.068986769641638 0.0
8.761145809863661 6.470583506581853 0.0
8.998345275919851 9.209303502026401 0.0
9.698477487436316 6.706902829754045 0.0
6.439032098063426 0.3109134377713525 0.0
7.562681994382136 4.643158005207056 0.0
9.03999088074715 0.2799354672273258 0.0
5.180741540467516 3.805018725608906 0.0
6.243990330956698 2.718077286244967 0.0
9.79416634023361 0.1815240178579244 0.0
9.926540005061975 2.847049370876555 0.0
9.826476210374608 2.670192168078066 0.0
6.365816673179121 4.536333049275508 0.0
5.546353765219417 4.618331215552614 0.0
9.820703096450293 2.000649418331399 0.0
6.884388790679166 3.561583980715254 0.0
7.431303395649604 5.747824222777201 0.0
8.849816832721245 2.19318290395604 0.0
4.185147517585975 5.697469360586313 0.0
9.165905238119013 5.873664931582344 0.0
7.70479478158537 1.788324620089049 0.0
9.627376046933474 0.9196091445437269 0.0
6.657687963328663 5.144792385996769 0.0
9.83245016645186 0.3925568446109945 0.0
7.483092985762584 9.253837199159435 0.0
5.445348362202234 3.977855663863651 0.0
7.476680532833337 4.837183287808616 0.0
9.572749890969304 8.505160319814301 0.0
9.915853314998252 9.437014513917465 0.0
7.679469018350979 7.390484878021194 0.0
9.418139053434402 4.790576000488359 0.0
8.096967733471567 5.865447162201908 0.0
9.829153508938724 8.378494945652118 0.0
9.926595955569645 5.157718300415699 0.0
8.774484245600224 7.939747459426853 0.0
8.629764448155779 6.481031318922794 0.0
8.961169458302376 3.839036702328818 0.0
4.617199205561317 5.256318959792646 0.0
8.480815774219478 4.031210317621497 0.0
9.708341592512763 3.401018043990571 0.0
7.183974816647467 4.77882314543966 0.0
9.821437962294304 7.659391965474772 0.0
8.150320284869602 2.286501016204562 0.0
9.828114434347311 1.684891358832554 0.0
5.349187766238684 6.538177907133678 0.0
8.076053471314525 2.76180604769483 0.0
4.907713691134565 5.29818629967416 0.0
0.6874399366049438 4.328593906714074 0.0
0.6980011780697519 5.702671170050627 0.0
8.263861466707834 8.182284285231713 0.0
5.838783785156478 4.913981390426639 0.0
7.807619472656604 7.235706382002089 0.0
9.388504256318683 6.022122644748753 0.0
9.929839894767033 6.436189192303577 0.0
8.3205848711706 3.39107920408397 0.0
3.240770542267401 4.019899919523968 0.0
8.059047070496568 2.468855909103855 0.0
9.932479519490421 2.449625056415224 0.0
7.737639000139152 4.580708137963557 0.0
8.26141077223695 0.3940397126348397 0.0
9.69568953371801 1.959951226402445 0.0
6.469120930453264 4.892267070266994 0.0
9.167223997255698 0.8102256463122337 0.0
6.236889648241256 0.9291076084031108 0.0
8.306379082772498 5.268830342852036 0.0
6.716089118890225 5.239344620507032 0.0
9.82511981852641 9.282822358664017 0.0
6.68375719572285 4.404998642130821 0.0
8.913754712375674 6.908138360584365 0.0
6.173250048857013 5.251634416326969 0.0
4.235907497612446 1.924052997345291 0.0
5.151007663981651 2.438629730660893 0.0
8.924254300637541 9.3764975797567 0.0
4.438612423541503 5.287968640901957 0.0
8.571203234299599 1.897009944569934 0.0
6.878800676380218 5.821332862798138 0.0
5.710626178601224 4.792560699857408 0.0
7.149510071621283 5.216310009157644 0.0
2.099966541549645 2.334742113488256 0.0
9.93396330620579 5.350566393301629 0.0
7.143046479323961 8.646955109387985 0.0
7.965747313080266 5.193641450105844 0.0
6.3314394693073 5.135050228240639 0.0
7.665821333021348 6.222698255001823 0.0
6.305321657053551 4.659816230868476 0.0
7.833020917089713 5.208837056143474 0.0
9.41455902676429 2.869725681199307 0.0
8.567151507735133 6.598605357295113 0.0
7.405527786978573 4.377085529441429 0.0
6.552969697053132 5.137148974085434 0.0
9.93630620742063 8.042778076596578 0.0
7.166743296019233 4.593171678848165 0.0
6.595561806063966 5.839366735225723 0.0
6.066152182102007 5.262519562574559 0.0
9.834694151277489 0.9093455747994099 0.0
8.98259191950674 7.579732466796592 0.0
6.465071238839505 5.25485771955322 0.0
9.759759896588413 3.236659507608532 0.0
4.775529448101694 5.224235675150505 0.0
9.935991245222917 7.153416415978829 0.0
0.6530736820718381 9.352299998916202 0.0
0.6449439415299687 0.6468300344151556 0.0
7.804690364869245 4.495816547678174 0.0
9.84503784553893 5.70620404704573 0.0
9.83525329400959 3.826992990746767 0.0
9.922964894244684 4.265000406933376 0.0
8.333767638401964 1.121219971446645 0.0
8.876012546033895 7.019147158538482 0.0
8.172413577824324 3.413096916572049 0.0
7.232233017296214 4.478957103028363 0.0
6.214597295185415 3.852860083673202 0.0
9.85013791746415 4.400709747289421 0.0
3.941627380932058 6.342995010255737 0.0
3.097271569675528 8.77391871286929 0.0
9.292917152323044 6.010976049411984 0.0
8.104342196673183 5.184165973282902 0.0
8.994300084006271 3.652611812846807 0.0
9.937157897030163 5.549999999993244 0.0
8.721368888525245 7.274540720770752 0.0
8.920003648712827 0.9516585309368178 0.0
7.910527456030004 8.536826514867816 0.0
9.846441288756814 4.60515911863952 0.0
9.584942233925151 4.712073182517884 0.0
9.642357858573972 6.805672051759494 0.0
9.797024725252207 9.838837222258014 0.0
9.842451438022124 4.018973836958878 0.0
6.112723137676118 3.704473949316424 0.0
7.574641969193845 3.765362276156904 0.0
7.826594968121701 6.200366572362263 0.0
7.762805366733504 9.34009502796868 0.0
9.56854033867856 1.012566255816665 0.0
7.71256563655353 5.219373702836014 0.0
9.68039392238282 8.786964504862018 0.0
5.910362452777086 9.277662068919813 0.0
7.418090653922814 3.326443419100716 0.0
9.857704179097952 4.697553149694669 0.0
8.452469674653342 8.996585816905599 0.0
9.522351366699843 2.057525484575908 0.0
7.802315574700843 9.548878971475935 0.0
9.938875656926385 3.449999999992592 0.0
8.425189037911712 6.608575180629274 0.0
5.925965231566842 2.523669697740033 0.0
6.654918072256329 5.95749128982984 0.0
9.826748589235729 9.631118448471485 0.0
8.6684585637523 7.39633999085442 0.0
9.844673843931567 3.090088625379724 0.0
9.93613850661301 2.250382721159617 0.0
9.218291993658738 2.892108990205171 0.0
9.83502846611296 8.212781989607324 0.0
7.754136409732265 7.104288507262783 0.0
8.510570542791681 2.036933285735889 0.0
7.757745059307245 4.315798612475442 0.0
7.989231770559189 6.201656630465583 0.0
8.068934521422738 4.198631572122605 0.0
4.957478134450373 9.038766150325067 0.0
7.208661142641733 6.501402463831379 0.0
7.299506095906239 4.363561999234681 0.0
8.250303873550486 2.105322217421675 0.0
8.678637541413377 7.053471135702286 0.0
9.761528395137384 6.163503990672834 0.0
9.84494857233395 8.59999999999775 0.0
9.83825138794677 3.672838954969637 0.0
5.121008544047756 5.808127183024784 0.0
8.343911550360986 4.043535893276861 0.0
9.85324441775315 5.899999999993774 0.0
9.51114465213134 8.41035540646284 0.0
6.505812179224195 6.93390566262983 0.0
6.15572847138365 9.023097246950844 0.0
3.352081892333425 3.024853379890529 0.0
6.433163283162099 8.675072413910678 0.0
8.825744236698243 3.624446391299867 0.0
4.883007294861279 7.819620905924936 0.0
5.876659170760434 5.638247433601083 0.0
6.859400040348503 6.510797998354633 0.0
7.946400945409184 3.500317276373196 0.0
7.496830255505493 6.653194511698024 0.0
9.852183479755313 4.891525833556942 0.0
9.77998778436291 2.922486526124376 0.0
6.774672660492365 5.324728659740495 0.0
5.717254072187427 6.824125962512845 0.0
9.713440940838062 4.63793103997539 0.0
8.859858662536796 0.2721395536350836 0.0
8.37556017530946 9.436653414116012 0.0
7.395237381047616 7.885576562773319 0.0
5.4709157802033 4.511152089197594 0.0
9.489749416979361 9.691840729914848 0.0
4.599216022837964 3.46438688931078 0.0
5.572287492757569 4.807021644849729 0.0
9.926499336309957 9.92730688390086 0.0
9.926499336310107 0.07269311609890093 0.0
9.338127766332573 0.3585313952168247 0.0
6.810761948165162 3.414693294319008 0.0
8.166274345037138 5.943611545564389 0.0
5.2892644736731 6.301081312912763 0.0
9.731911074791544 7.649313380659622 0.0
8.90251102352767 9.50983415326544 0.0
8.997881406541017 1.033666784655452 0.0
5.835124768755703 2.738139962594905 0.0
9.665357480775825 6.185331297099201 0.0
7.656532192558493 8.217157287499347 0.0
9.170463887605525 2.975444721032631 0.0
4.208158615905443 0.8648302238584886 0.0
6.97015686031129 5.933674629077266 0.0
6.181941366523793 3.565885175921835 0.0
3.30313590337911 6.393402837735046 0.0
6.447482061767014 4.816169316820496 0.0
8.185341428749446 4.169172087371246 0.0
4.552595724340015 8.298301336212145 0.0
9.84850676569699 8.999999999998423 0.0
9.846941514449377 7.393642828194986 0.0
7.924592433490734 2.788309934035703 0.0
8.154308714226714 8.853640122009672 0.0
8.876629743004642 1.96110242719995 0.0
7.228849192966834 8.90811350348676 0.0
9.852301635085423 8.296637825215246 0.0
5.219795195341889 5.547413133147649 0.0
9.861497117995457 6.901363010201344 0.0
2.953911258021604 6.136007283255669 0.0
6.93158841067062 4.77708273647784 0.0
9.67540418457871 2.912802891506324 0.0
4.194055958522277 4.437353127730132 0.0
6.133959559341536 0.406856611599261 0.0
8.29952795189331 9.309744645643846 0.0
9.843692337952948 1.209647690818311 0.0
5.164986286280336 6.671544079402435 0.0
9.838533350075606 2.081705440779448 0.0
8.301244777513975 6.604088853319459 0.0
5.471494771710784 2.714598185146428 0.0
8.86534684892311 1.208599471795828 0.0
9.940610684232212 1.451558535868664 0.0
9.40896208432968 1.428353940655538 0.0
2.329177605337097 4.238803555614174 0.0
5.980761651517799 7.182207186682233 0.0
9.66541573964336 0.1719254072074424 0.0
7.220979380229172 7.806128737674462 0.0
1.251721227904697 6.151932667911503 0.0
8.104967286191181 6.057912607875576 0.0
6.650768762224724 4.817922869198292 0.0
6.634976350437587 3.213339182992986 0.0
7.034320437500567 4.898219100342838 0.0
9.502772020064167 6.283064492634301 0.0
8.13187938667684 3.518506862055515 0.0
9.855471943454193 2.599999999994991 0.0
9.056747742708522 8.263936599935574 0.0
4.352645795441222 5.724453640019 0.0
3.744263984699181 1.488951698361357 0.0
5.175860134287045 3.6375726667098 0.0
7.736434712114619 6.400417475661193 0.0
9.857658576695343 6.316607183405179 0.0
7.876525261950537 4.304285002335559 0.0
9.856114384785611 7.914602773442983 0.0
9.848334119947063 0.7059644476295188 0.0
9.59694321995579 6.895814046141667 0.0
5.906465212962551 3.869023950643881 0.0
9.840676994268005 9.364956386459765 0.0
5.355015287544095 3.83518170601625 0.0
6.374090407153147 5.855743754257685 0.0
8.227401290513832 5.297819733684674 0.0
5.451235131977493 4.825706629991923 0.0
6.022070213762754 5.355923882747634 0.0
9.845674433677614 6.108401449483281 0.0
9.835067400944396 7.739582406783081 0.0
8.602026805792988 2.941372356914139 0.0
5.059869081004962 5.269480960018243 0.0
5.284714507903736 5.26496663762182 0.0
9.627110479149561 7.660076105040499 0.0
6.820001127809743 4.792514421153957 0.0
5.120512795059439 4.806607659110254 0.0
9.56933817216883 2.911464407429096 0.0
9.74091654291531 9.267545397628387 0.0
9.93006767325302 6.576784040838644 0.0
9.642486276936268 4.650227701598451 0.0
5.185183328569137 9.410919109238325 0.0
9.37052946854105 4.605636695802024 0.0
1.677077220416309 5.871167715901136 0.0
7.345783833404538 3.184020711886284 0.0
5.419239942654976 5.982692039856376 0.0
6.133318300188262 2.551919945731369 0.0
6.187291396343277 4.499077117404439 0.0
1.231465237822878 3.921479198315213 0.0
8.969849937139944 9.699215363213542 0.0
9.218303154263054 6.037447959776716 0.0
CELLS 4886 19544
3 1113 1356 1450
3 1402 231 1659
3 272 269 1414
3 396 394 1777
3 1451 945 1452
3 194 81 1801
3 1847 1501 2104
3 2024 2121 2479
3 1115 1113 1450
3 1124 1413 1844
3 1061 1955 2409
3 307 305 1645
3 1592 1369 1593
3 238 1501 1847
3 1955 1883 2409
3 1808 243 1910
3 1885 978 2362
3 1440 793 2092
3 189 1488 1608
3 353 350 1864
3 2007 2231 2232
3 307 1645 2493
3 1096 1760 2496
3 2178 874 2179
3 621 625 1595
3 1493 1480 1938
3 1655 1268 2137
3 1341 1410 2212
3 243 1808 2360
3 1902 1446 2516
3 1760 1096 1763
3 856 790 2180
3 2008 2046 2105
3 789 1809 2067
3 694 1543 1575
3 1127 1762 1953
3 1748 807 2228
3 1543 1308 1575
3 820 1872 2170
3 1417 954 1998
3 1369 1592 2386
3 272 1414 1787
3 329 333 1998
3 1544 1095 1545
3 2231 1490 2232
3 1342 1683 1790
3 374 377 1797
3 807 1678 2228
3 1665 198 2128
3 141 142 1620
3 325 322 1952
3 231 1402 1654
3 198 1665 2010
3 1890 1307 2387
3 208 1438 1619
3 2016 1970 2156
3 1436 212 2020
3 954 1417 2333
3 1736 1894 2244
3 1491 1750 2143
3 1677 1064 2146
3 1474 1258 1475
3 1500 233 1930
3 1446 2415 2516
3 1700 973 1800
3 2128 2270 2316
3 1316 1315 1593
3 1307 2341 2387
3 2258 1324 2328
3 1083 1507 1508
3 693 1095 1544
3 621 1595 1596
3 667 1571 1872
3 1932 1766 2061
3 393 391 2240
3 1342 1790 2400
3 252 1707 2234
3 931 978 1885
3 1430 1116 1704
3 1411 1109 1714
3 1478 1227 2440
3 1990 195 2297
3 1792 1167 1985
3 1682 444 1975
3 394 397 1777
3 1711 2028 2162
3 1574 856 2180
3 2008 1851 2046
3 736 1493 1938
3 1069 1060 1662
3 1458 455 1754
3 862 691 1705
3 1161 1642 2286
3 1699 1700 1800
3 447 516 1637
3 955 1482 1483
3 2024 206 2121
3 391 1773 2240
3 1072 1412 1893
3 212 1436 2350
3 1566 1365 1568
3 259 1441 1672
3 872 870 1764
3 330 328 1889
3 1539 1161 2286
3 1897 1898 2275
3 1434 1990 2297
3 1109 1411 1730
3 319 307 2493
3 1762 1761 1953
3 1369 1316 1593
3 1540 834 1832
3 1505 652 2442
3 1732 1655 2137
3 921 1712 2295
3 1872 1388 2170
3 1712 921 2125
3 2028 244 2162
3 1506 1570 1680
3 1569 368 1964
3 1571 667 2375
3 1587 2178 2179
3 196 1723 1737
3 524 2016 2156
3 1528 1250 1733
3 1115 1450 1973
3 1938 1480 1971
3 1809 1396 2067
3 1641 249 2299
3 1223 1258 1474
3 1365 1566 2120
3 1981 962 2316
3 1538 353 1864
3 455 1458 1756
3 152 233 1500
3 1116 1430 1703
3 817 652 1505
3 1347 2003 2004
3 1607 1958 2085
3 194 1801 2195
3 1410 1341 2351
3 223 1415 1710
3 197 1511 2346
3 2198 787 2225
3 81 82 1801
3 1438 208 1620
3 1444 522 1823
3 1511 197 1950
3 726 718 1567
3 1637 516 1739
3 1708 2337 2341
3 1280 1649 2124
3 2337 1395 2341
3 1327 1709 2315
3 1225 1227 1478
3 691 624 1705
3 476 2224 2305
3 830 832 2204
3 1750 1491 2403
3 1366 1897 2275
3 2345 1583 2352
3 2054 405 2110
3 1984 2172 2230
3 1846 2198 2225
3 1177 2042 2418
3 2121 1367 2479
3 1527 1531 1541
3 916 1039 1834
3 1413 1124 2467
3 1622 1503 1868
3 249 1641 2019
3 1805 405 2054
3 1761 1007 1953
3 1415 223 2395
3 960 1756 2203
3 368 1569 2135
3 1402 1659 2473
3 941 1433 2471
3 1267 1477 1501
3 260 2002 2265
3 1704 558 2077
3 2224 1886 2305
3 2053 1386 2199
3 1452 945 1952
3 1717 1611 1718
3 1682 1975 2230
3 1760 1762 2496
3 1481 203 2104
3 1264 1266 1670
3 142 236 1620
3 2133 1182 2179
3 1791 1602 2183
3 350 346 1864
3 1412 1072 2393
3 1281 1575 2255
3 1565 1948 2155
3 849 1449 1513
3 1958 396 2085
3 1339 1069 1662
3 834 1540 1917
3 269 267 1414
3 1268 1267 1501
3 1440 2092 2468
3 1399 1981 2316
3 1635 1636 2041
3 1454 252 2234
3 1451 1305 1890
3 1375 1883 1955
3 362 366 1786
3 1484 2410 2528
3 1449 849 1640
3 1267 1474 1477
3 200 1611 1717
3 1054 1581 1582
3 1350 1977 2253
3 190 1390 2118
3 788 1956 2193
3 1709 1327 1888
3 2233 2298 2413
3 1488 189 2355
3 478 1685 1714
3 230 1525 1690
3 1687 478 1688
3 427 429 1756
3 1570 1065 2476
3 1880 1133 1988
3 1649 656 2124
3 1537 209 1614
3 1134 1769 1986
3 1220 1268 1655
3 396 1777 2085
3 1167 1755 1985
3 2229 1744 2296
3 1575 1281 2287
3 127 240 1882
3 377 647 1797
3 954 329 1998
3 220 1697 1698
3 1342 1341 2212
3 1441 264 1672
3 1512 188 2433
3 763 2345 2352
3 1685 1411 1714
3 1805 1188 1951
3 1347 2004 2157
3 1054 1582 1667
3 1333 1617 1674
3 2217 73 2361
3 1539 1036 1917
3 1039 1292 1834
3 208 141 1620
3 1965 1964 2038
3 693 1544 1969
3 1453 239 2279
3 203 1481 2049
3 945 1451 1889
3 680 1459 2134
3 354 2147 2196
3 1405 1932 2061
3 1723 1722 1737
3 1748 1175 1927
3 1532 1528 1733
3 2057 1824 2154
3 1406 1659 1702
3 1948 1186 2155
3 210 1598 2114
3 1685 478 1687
3 1324 1325 2328
3 1526 1250 1527
3 165 166 1509
3 1493 736 2523
3 1526 1527 1541
3 1390 190 2417
3 522 1444 1998
3 1680 1570 1732
3 1017 1442 2525
3 374 1797 2430
3 1507 1083 2197
3 1756 960 2221
3 2270 1400 2316
3 2205 1452 2282
3 1074 1187 1888
3 2158 1245 2200
3 1442 1017 1684
3 864 1116 1703
3 1750 1751 2143
3 1456 516 1492
3 1677 2146 2149
3 2022 1339 2388
3 1602 258 2183
3 678 1594 1595
3 1245 1670 2200
3 972 830 2204
3 2143 983 2342
3 1268 1501 2226
3 1266 1461 1670
3 1487 222 2465
3 1382 2022 2388
3 58 59 1661
3 2147 1543 2196
3 1484 1485 2410
3 628 2053 2199
3 1906 1549 2259
3 364 362 1786
3 1339 2022 2247
3 1636 525 2041
3 625 678 1595
3 678 1593 1594
3 2212 1410 2222
3 1837 1865 2215
3 1699 1800 1801
3 866 864 1703
3 893 1472 1982
3 1735 1736 2244
3 1633 1255 1922
3 126 127 1882
3 681 867 1656
3 1351 1401 2363
3 11 228 1588
3 1127 1953 2454
3 265 266 267
3 1722 1122 1737
3 1389 1691 2069
3 1613 1610 1616
3 1227 1256 2440
3 429 455 1756
3 1535 1177 2418
3 322 324 1952
3 973 1700 1802
3 1964 368 2038
3 1176 1865 1866
3 1096 872 1764
3 1176 1866 1875
3 193 1839 1892
3 156 157 1441
3 615 617 1596
3 686 1520 2480
3 1409 2097 2305
3 2410 1151 2528
3 1427 2217 2361
3 440 1911 2314
3 1744 1743 2296
3 516 1456 1739
3 1939 589 2164
3 690 931 2150
3 1062 1579 1580
3 1054 1580 1581
3 955 1483 1716
3 1064 1677 2248
3 1956 1616 2193
3 1776 1893 2026
3 1398 1115 1973
3 2002 1453 2265
3 1541 1531 1542
3 216 2191 2536
3 1736 1326 1894
3 1065 994 1066
3 1598 2115 2175
3 2314 1911 2358
3 1433 941 2042
3 2115 1209 2175
3 717 1550 1551
3 188 1941 2433
3 267 1132 1414
3 771 1569 2064
3 1157 1545 1546
3 1231 1250 1526
3 1933 240 2181
3 222 1487 2025
3 1525 230 1765
3 1430 1704 2077
3 757 1744 2495
3 264 263 265
3 883 773 1917
3 739 2205 2282
3 1667 1582 2434
3 1744 757 2474
3 239 1453 2002
3 1441 259 2356
3 2005 1443 2012
3 254 1766 1932
3 1509 166 1679
3 1477 1475 1481
3 793 1440 2165
3 1385 1523 2377
3 1481 1475 2523
3 156 1441 2356
3 1066 1220 1655
3 945 325 1952
3 2094 2087 2134
3 1747 1175 1748
3 253 262 263
3 1327 1074 1888
3 718 715 1567
3 2046 1043 2105
3 240 1933 2399
3 1305 1307 1890
3 224 58 1661
3 1195 1566 2285
3 1590 1393 1749
3 1255 1230 1922
3 353 1538 2073
3 358 1999 2325
3 882 1802 2036
3 1024 1020 1604
3 333 522 1998
3 1401 1351 2414
3 1475 1258 1476
3 2310 786 2364
3 328 945 1889
3 807 1748 1927
3 825 724 1912
3 1742 263 2491
3 267 266 1132
3 2077 2102 2203
3 1431 1432 1860
3 1212 1957 2312
3 2097 476 2305
3 1132 1402 2473
3 717 713 1550
3 1746 693 1969
3 1372 1124 1844
3 1256 1541 2269
3 1977 1350 2274
3 2332 1978 2443
3 874 2133 2179
3 1983 1534 2171
3 1157 1544 1545
3 1230 1228 1922
3 1580 1579 1581
3 1565 806 1948
3 1416 1363 2413
3 1287 1995 2398
3 265 263 266
3 1534 1529 2171
3 1604 1834 2428
3 1255 1633 2509
3 1344 1643 1644
3 1332 1388 1571
3 1423 217 2217
3 2191 1057 2451
3 458 447 1637
3 1250 1233 1733
3 472 2212 2222
3 1175 1747 1840
3 1652 256 1653
3 1073 1347 1572
3 200 145 1609
3 683 640 1585
3 1116 862 1705
3 1221 1223 1474
3 1778 801 1803
3 1503 1622 2471
3 1475 1493 2523
3 464 680 2134
3 14 210 2114
3 579 1880 1988
3 1434 1435 1990
3 1447 2310 2364
3 275 274 276
3 2294 1871 2419
3 814 1068 1684
3 1172 1439 2273
3 273 272 274
3 1363 1416 2406
3 1220 1219 1221
3 1060 1656 1662
3 1099 1792 1985
3 2048 1198 2168
3 1241 1245 2323
3 699 723 1753
3 1640 1862 2070
3 910 1018 1584
3 1586 1067 1587
3 1656 867 1662
3 1067 686 2480
3 654 2242 2294
3 1593 1315 1594
3 1880 553 1974
3 236 1717 1718
3 617 621 1596
3 1723 196 2313
3 402 1877 2116
3 273 274 275
3 2202 1869 2252
3 1510 1358 1767
3 193 1892 2373
3 1188 1805 2054
3 1220 1221 1267
3 1066 1218 1219
3 1517 1097 1518
3 1677 1676 1858
3 686 277 1520
3 268 267 269
3 697 857 1592
3 220 1698 1699
3 1802 1700 2036
3 1612 1537 1614
3 929 817 994
3 228 12 2136
3 2110 2116 2482
3 1659 1658 1702
3 1611 1613 2280
3 1344 991 1643
3 683 1585 1604
3 1638 1358 2404
3 1485 1034 2410
3 2214 833 2424
3 271 272 273
3 1482 955 1962
3 1066 1219 1220
3 931 1885 2150
3 1613 1891 2280
3 1189 1589 2204
3 1566 1195 2120
3 726 1567 2490
3 1122 1722 1874
3 1494 319 2493
3 1671 259 1672
3 1267 1221 1474
3 603 528 1591
3 1664 2128 2316
3 1817 1924 2174
3 1626 1660 2111
3 1474 1475 1477
3 1023 1062 1580
3 1957 1599 2312
3 1764 1939 2164
3 1358 1950 2404
3 200 1609 1610
3 1431 1082 1432
3 1778 1803 2521
3 1830 1832 2075
3 1930 233 2369
3 1329 1482 1650
3 757 1959 2522
3 1239 1247 1597
3 758 1978 2332
3 1569 1290 2064
3 216 1694 2191
3 1453 1420 2265
3 1549 1906 2129
3 24 215 1674
3 19 235 1676
3 1621 1057 2191
3 1691 1389 2262
3 1617 1333 2192
3 929 994 1065
3 1769 1672 1986
3 1893 1412 2026
3 1609 1537 1612
3 271 269 272
3 1373 1438 1620
3 217 1423 2381
3 517 330 1889
3 1322 1055 1667
3 1974 553 2499
3 228 2136 2187
3 1589 1189 1788
3 1999 1577 2325
3 2110 405 2116
3 189 1608 1842
3 1055 1050 1667
3 739 1455 2205
3 1865 1176 2215
3 319 1494 2522
3 2474 757 2522
3 1484 227 1485
3 10 11 1588
3 723 809 1753
3 27 230 1689
3 1550 806 1565
3 1179 1180 1217
3 207 1617 2192
3 1433 1217 1502
3 1562 1556 1606
3 1379 2017 2018
3 1245 2158 2323
3 675 1097 1517
3 884 501 1599
3 1020 683 1604
3 1603 1095 1848
3 1001 2057 2154
3 1604 1585 1834
3 1610 1612 1616
3 1764 870 1939
3 2242 1871 2294
3 1669 1264 1670
3 1658 213 1702
3 1995 1646 2398
3 631 539 1600
3 1491 2143 2342
3 1801 1800 2195
3 1200 1199 1693
3 1535 940 1861
3 1534 758 2332
3 914 2258 2328
3 1588 228 2457
3 216 138 1694
3 151 152 1500
3 1133 1880 1974
3 1677 1858 2248
3 1294 1622 1868
3 875 1010 1767
3 1379 2018 2416
3 1279 2202 2252
3 182 256 1652
3 1592 857 2386
3 672 681 1656
3 615 1596 1824
3 1093 1487 1623
3 1823 522 2100
3 1245 1242 1669
3 1582 1581 1583
3 758 1534 2306
3 1975 1984 2230
3 1358 1510 1950
3 1663 1336 1665
3 2102 960 2203
3 366 1087 1786
3 1740 1490 2231
3 21 207 1709
3 145 146 1609
3 2339 765 2384
3 603 1591 1668
3 2081 199 2149
3 1540 1832 1879
3 1721 1723 1947
3 1754 455 1793
3 1751 1753 2119
3 882 1701 1807
3 1540 1539 1917
3 242 1695 1697
3 1521 354 2091
3 1363 2233 2413
3 1584 1018 1925
3 703 1067 1586
3 1177 1178 1179
3 795 916 1834
3 277 276 607
3 1571 1388 1872
3 22 23 1617
3 1097 823 1177
3 25 26 1624
3 419 418 1790
3 1728 1906 2259
3 440 1455 2261
3 1877 1318 2116
3 1488 1156 1608
3 1439 2130 2273
3 1889 1451 1890
3 1614 209 2389
3 1472 893 2094
3 675 821 823
3 23 24 1674
3 1788 1190 2183
3 917 941 1622
3 1763 1096 1764
3 1068 1442 1684
3 1034 1485 2173
3 2172 1533 2230
3 138 139 1694
3 1065 1570 2197
3 607 674 675
3 1536 1248 2268
3 229 135 1734
3 1437 1925 1926
3 680 510 1646
3 147 209 1537
3 26 27 1689
3 1627 705 2163
3 206 1651 2121
3 2409 1785 2462
3 1492 682 2447
3 1223 1225 1258
3 889 1772 2374
3 253 263 264
3 275 276 277
3 1455 739 2261
3 2022 1382 2176
3 150 227 1484
3 639 1019 1591
3 1449 1640 2070
3 1082 833 2214
3 1503 1502 1504
3 144 200 1717
3 1643 991 1713
3 1190 1791 2183
3 1538 1804 2073
3 1256 2269 2440
3 18 19 1676
3 521 531 2000
3 790 849 2180
3 1075 1329 1650
3 1087 1782 1785
3 1066 994 1218
3 270 269 271
3 682 1492 2494
3 185 252 1454
3 253 158 262
3 1629 1632 1633
3 200 1610 1611
3 1477 1481 2104
3 1623 1487 2465
3 1518 1097 1535
3 1414 1132 2460
3 1179 1217 1433
3 177 1506 1680
3 1392 1017 2525
3 1832 834 2075
3 675 823 1097
3 1459 2094 2134
3 1782 1087 1795
3 1838 1730 2372
3 1639 149 2528
3 1617 23 1674
3 2265 1420 2489
3 180 232 1859
3 1527 1250 1528
3 20 21 1709
3 1083 1508 2311
3 903 866 1703
3 1455 440 2314
3 1187 1858 1888
3 1659 1406 2473
3 1446 1902 2166
3 421 1951 2106
3 1598 210 2115
3 154 259 1671
3 1288 1835 2080
3 1832 1831 1879
3 1258 1225 1478
3 1024 1604 2117
3 1263 1429 1739
3 706 705 1627
3 1583 1581 2352
3 407 1805 1951
3 856 1574 2527
3 1701 882 2036
3 1624 26 1689
3 717 1551 1552
3 1385 2377 2391
3 2302 1745 2354
3 1572 1347 2157
3 1036 883 1917
3 1689 1690 1691
3 1664 1665 2128
3 1476 1479 1480
3 1751 2119 2143
3 815 814 1684
3 1790 889 2400
3 1606 1607 2085
3 265 267 268
3 418 889 1790
3 1522 1521 2091
3 135 136 1734
3 1726 1445 1729
3 647 1796 1797
3 1346 1453 2279
3 1293 1827 2117
3 1242 1244 1669
3 1853 1852 1854
3 889 2374 2400
3 1039 1038 1290
3 1524 628 2199
3 1331 1332 1571
3 1291 1290 1569
3 1475 1476 1493
3 1850 1852 1853
3 1490 1740 2456
3 1689 230 1690
3 1256 1526 1541
3 1704 1705 2167
3 1465 1470 1675
3 956 1073 1572
3 1613 1616 1956
3 916 917 1038
3 2014 1522 2091
3 1221 1222 1223
3 1999 763 2352
3 234 10 1588
3 1697 220 2335
3 1527 1528 1529
3 2298 1600 2413
3 1436 2020 2254
3 1642 1161 1678
3 1523 1385 2436
3 1730 1838 2426
3 795 796 916
3 713 711 1550
3 1456 1263 1739
3 999 1336 1663
3 1785 1784 2462
3 409 415 1783
3 607 675 1517
3 1229 1231 1526
3 1958 1855 2078
3 1589 1588 1590
3 1933 261 2380
3 762 1965 2038
3 1756 1458 2203
3 1776 597 1893
3 1794 1072 1893
3 188 1512 2266
3 1774 2339 2384
3 188 1908 1941
3 1010 1510 1767
3 2189 2285 2307
3 773 834 1917
3 1245 1669 1670
3 1248 1597 2268
3 146 1537 1609
3 818 910 1584
3 1641 1313 1651
3 1217 1745 2302
3 1065 1066 1655
3 1597 1247 2047
3 1360 2177 2376
3 1612 1615 1616
3 2126 867 2186
3 1019 683 1020
3 1747 892 1840
3 1092 1093 1623
3 261 1933 2181
3 400 424 1666
3 1516 1903 2377
3 1100 1392 1605
3 247 1738 1881
3 268 1134 1986
3 1177 823 1178
3 884 1599 1957
3 263 262 2491
3 806 1627 1948
3 1227 1229 1256
3 191 1729 2504
3 1636 1635 2502
3 1480 1479 1601
3 1721 1947 2498
3 1924 1146 2174
3 229 1734 1735
3 175 204 1725
3 1179 1178 1180
3 354 1521 2147
3 665 697 1592
3 640 646 1585
3 627 545 1636
3 1882 240 2399
3 1556 1555 1606
3 1373 1620 2394
3 1871 1071 2419
3 548 1628 1629
3 455 436 1793
3 974 1831 1841
3 1844 1413 2392
3 1612 1614 1615
3 209 1639 1937
3 1329 1330 1331
3 1823 2100 2142
3 1097 1177 1535
3 1021 1020 1022
3 825 1912 2455
3 913 1122 1874
3 400 1666 2113
3 1256 1229 1526
3 1419 1418 2450
3 1552 1551 1553
3 1850 1099 1852
3 1629 1631 1632
3 801 685 2029
3 1618 1619 1621
3 265 268 1986
3 1715 2165 2330
3 1531 1529 1534
3 1022 1024 1576
3 658 693 1746
3 703 686 1067
3 1062 1576 1577
3 1023 1022 1062
3 236 1718 2394
3 1688 502 1740
3 1501 1477 2104
3 213 165 1509
3 646 795 1585
3 196 1737 1738
3 379 679 1795
3 639 640 683
3 924 875 1767
3 1752 699 1753
3 207 2192 2315
3 627 1636 1660
3 1217 1180 1745
3 730 728 1833
3 528 561 1591
3 1444 1417 1998
3 252 186 1602
3 1729 1445 2504
3 460 502 1688
3 1418 946 1778
3 1203 1200 1693
3 548 470 1628
3 849 668 1640
3 646 785 795
3 607 276 674
3 14 15 210
3 147 148 209
3 478 460 1688
3 1709 207 2315
3 1157 1546 1608
3 1155 1731 1899
3 1524 1934 2390
3 1775 921 1876
3 1433 1502 1503
3 470 458 1628
3 1223 1224 1225
3 1291 1569 1964
3 871 1056 1826
3 1781 1783 1915
3 1587 1067 2300
3 916 1038 1039
3 1388 1387 1389
3 1611 1610 1613
3 1075 1328 1329
3 1039 1290 1291
3 1538 1265 1804
3 1184 1185 2163
3 597 598 1794
3 1450 1356 2421
3 1835 576 2080
3 1629 1628 1631
3 1331 1330 1332
3 561 639 1591
3 1476 1480 1493
3 705 703 1586
3 639 683 1019
3 1951 1188 2106
3 436 446 1793
3 1472 1297 2142
3 1332 1387 1388
3 1345 984 1720
3 1329 1328 1330
3 1050 1048 1667
3 150 151 227
3 11 12 228
3 557 541 2256
3 1831 974 1879
3 134 229 1766
3 1357 1358 1638
3 1336 1641 2299
3 1650 1482 1962
3 1591 1019 2512
3 1506 1507 1570
3 1803 801 2029
3 1178 823 1972
3 1552 1553 1554
3 1290 1038 1294
3 1028 1313 1641
3 1237 1239 1597
3 993 1017 1100
3 893 2087 2094
3 149 1484 2528
3 1768 1142 1949
3 9 234 1673
3 1554 1553 1555
3 668 632 1640
3 711 806 1550
3 1628 458 1637
3 1098 1829 1830
3 1482 1331 1483
3 531 1818 2000
3 435 419 1790
3 1156 1157 1608
3 1182 1184 2179
3 510 512 1646
3 1231 1233 1250
3 946 841 1778
3 1483 1331 1571
3 1459 680 2458
3 1166 1040 1210
3 892 1657 1820
3 1042 1445 1726
3 1019 1020 1021
3 749 805 1810
3 234 1588 1589
3 1695 242 1892
3 556 1853 2483
3 1018 1572 1573
3 1529 1528 1530
3 1606 1558 1607
3 1761 1759 2308
3 1396 1032 1921
3 1018 956 1572
3 689 1150 1416
3 1827 1293 2515
3 149 150 1484
3 1647 656 1648
3 1543 694 2196
3 399 409 1783
3 545 525 1636
3 268 269 270
3 715 713 717
3 1100 1017 1392
3 1657 892 1747
3 207 22 1617
3 1666 884 2249
3 1671 1672 1769
3 1554 1555 1556
3 146 147 1537
3 1081 1444 1822
3 711 709 806
3 1443 2005 2322
3 660 658 1746
3 1166 1458 1754
3 916 796 917
3 1056 1728 1826
3 1068 1069 1275
3 184 185 1454
3 158 159 262
3 2007 1687 2231
3 805 1708 1810
3 1672 264 1986
3 1561 1562 1563
3 978 1075 1650
3 1590 1588 2457
3 215 25 1624
3 1551 1550 1565
3 1073 1346 1347
3 857 818 1584
3 1648 656 1649
3 675 674 821
3 561 594 639
3 1731 529 1899
3 2303 1454 2535
3 981 903 1040
3 1630 1629 1633
3 993 877 1017
3 724 718 726
3 512 603 1646
3 1676 235 1858
3 814 1060 1068
3 715 717 1567
3 1796 647 1870
3 1715 1171 2165
3 678 1592 1593
3 644 613 1824
3 1690 1525 2145
3 1297 1822 1823
3 271 656 1647
3 1704 1116 1705
3 1225 1226 1227
3 1275 1069 1338
3 910 956 1018
3 1824 1596 2154
3 1403 1100 1605
3 1221 1219 1222
3 1068 1060 1069
3 1901 245 1949
3 1081 1055 1321
3 1751 563 1752
3 1021 1022 1023
3 672 638 681
3 1095 657 1848
3 1235 1237 1248
3 1561 1556 1562
3 1265 1259 1804
3 524 1819 2016
3 978 1650 2362
3 1492 516 2494
3 229 1735 2061
3 185 186 252
3 157 158 253
3 152 153 233
3 9 10 234
3 1527 1529 1531
3 1808 1344 2360
3 1062 1577 1579
3 1509 1679 1977
3 424 454 1666
3 637 638 672
3 981 1040 1166
3 1555 1558 1606
3 751 749 1810
3 1166 1210 1458
3 1651 1313 2121
3 15 16 2260
3 1633 1632 2509
3 2167 1705 2276
3 551 602 2045
3 697 818 857
3 364 1786 1883
3 832 1189 2204
3 1476 1478 1479
3 678 665 1592
3 213 1509 2096
3 1015 888 1124
3 1062 1022 1576
3 679 1782 1795
3 680 1646 1995
3 1101 1100 1403
3 1109 433 1714
3 1248 1237 1597
3 733 730 1833
3 1702 213 2096
3 499 498 1828
3 1418 1778 2521
3 637 600 638
3 1048 1046 1054
3 1577 1576 1578
3 814 766 1060
3 1279 2252 2292
3 474 470 548
3 199 18 1676
3 157 253 1441
3 1048 1054 1667
3 471 472 2290
3 625 665 678
3 795 785 796
3 1264 1265 1266
3 1437 1926 2350
3 1362 2048 2168
3 1394 2337 2371
3 454 884 1666
3 1022 1020 1024
3 751 1810 1923
3 1046 1023 1580
3 1807 1701 1931
3 1618 208 1619
3 566 588 689
3 1828 498 1829
3 501 509 1599
3 1118 780 1775
3 878 817 929
3 1510 1511 1950
3 1618 1621 1694
3 1052 1081 1822
3 1416 1150 1715
3 1239 1241 1247
3 1396 1921 2067
3 1751 1752 1753
3 1264 1259 1265
3 539 566 1600
3 1762 1127 2496
3 1673 1788 2183
3 1555 1557 1558
3 1052 1050 1055
3 725 724 825
3 1142 1770 1771
3 681 853 867
3 454 501 884
3 1346 1420 1453
3 932 1147 1770
3 1546 1545 1547
3 533 582 1818
3 1266 1337 1460
3 1872 820 2318
3 1117 1119 1713
3 1081 1321 1417
3 1253 1259 1264
3 1569 771 2135
3 1052 1055 1081
3 1181 1178 1972
3 709 706 1627
3 1073 1076 1346
3 1098 1828 1829
3 1382 1380 2176
3 1442 1275 1443
3 919 999 1663
3 1789 828 1855
3 877 815 1684
3 509 539 631
3 992 877 993
3 1266 1265 1337
3 2268 1498 2340
3 1130 1032 1396
3 1095 1603 2508
3 886 826 887
3 531 533 1818
3 1131 1400 1881
3 447 437 516
3 2460 1132 2473
3 940 1535 2418
3 768 1873 2037
3 1813 1869 1954
3 1627 2163 2488
3 1497 1495 1645
3 1198 1409 2168
3 724 726 1912
3 1869 987 1954
3 763 1999 2338
3 1010 1170 1374
3 984 976 1720
3 1470 1743 1744
3 689 588 1150
3 1901 1949 2359
3 1640 632 1862
3 274 272 1787
3 563 564 1752
3 994 817 1505
3 737 1807 1931
3 1770 1147 1771
3 1233 1235 1733
3 2450 1418 2521
3 414 410 1821
3 908 1099 1850
3 1227 1228 1229
3 1692 1203 1693
3 1625 216 2194
3 512 528 603
3 1377 1357 1638
3 1465 1464 1470
3 1360 1359 2177
3 1686 2007 2095
3 1336 1028 1641
3 1857 751 1923
3 1758 572 1759
3 553 541 557
3 1171 1715 1811
3 956 1003 1073
3 1467 1465 1675
3 719 718 724
3 1509 1977 2096
3 1734 1625 1736
3 1503 1504 1868
3 592 597 1776
3 180 181 232
3 162 163 231
3 2308 1759 2370
3 1357 1114 1358
3 875 946 1010
3 509 631 1599
3 17 18 199
3 144 145 200
3 1099 906 1792
3 1469 1467 1494
3 605 589 1939
3 1208 1205 1211
3 354 344 2091
3 692 782 804
3 1010 946 1170
3 1463 1462 1464
3 716 715 718
3 714 713 715
3 271 273 656
3 139 1618 1694
3 549 277 686
3 673 672 766
3 1378 1377 1379
3 2007 868 2095
3 999 1028 1336
3 1208 1211 1447
3 601 545 627
3 1119 1643 1713
3 1332 1333 1387
3 910 912 956
3 520 521 2000
3 828 1789 1819
3 277 607 1520
3 1338 1339 2247
3 818 819 910
3 767 766 814
3 712 711 713
3 1494 1467 1675
3 639 594 640
3 2044 557 2256
3 235 20 1709
3 1620 236 2394
3 804 919 962
3 1862 702 2070
3 681 852 853
3 1559 1556 1561
3 1622 941 2471
3 2165 1440 2330
3 612 644 692
3 697 698 818
3 1903 1516 1994
3 371 379 1795
3 428 426 2138
3 1290 1294 2064
3 1384 1904 2432
3 566 689 1600
3 471 452 472
3 1092 1091 1093
3 1002 1131 1719
3 1090 1089 1091
3 875 841 946
3 1758 1760 1763
3 1562 1606 2085
3 1833 1830 2075
3 178 179 214
3 164 165 213
3 769 923 1815
3 692 644 782
3 804 782 919
3 182 183 256
3 160 161 257
3 1329 1331 1482
3 962 1663 1664
3 1177 1179 2042
3 403 405 1805
3 1461 1460 1462
3 140 208 1618
3 1859 232 1860
3 274 1787 2099
3 1381 2126 2186
3 1558 1560 1789
3 430 428 682
3 452 435 1683
3 1487 1156 1488
3 1470 1464 1743
3 597 1794 1893
3 1244 1253 1669
3 962 919 1663
3 258 8 1673
3 1087 1785 1786
3 970 1042 1726
3 199 1677 2149
3 1664 1663 1665
3 1229 1230 1231
3 991 827 1713
3 792 1603 1848
3 1822 1444 1823
3 665 666 697
3 19 20 235
3 142 143 236
3 728 1098 1833
3 532 530 1898
3 1015 1124 1372
3 1546 1547 1548
3 1851 1850 1853
3 1877 393 2240
3 923 1105 1815
3 1090 1091 1092
3 687 686 703
3 1683 435 1790
3 887 826 1961
3 684 663 1089
3 426 1934 2138
3 464 510 680
3 853 854 855
3 568 572 1758
3 1376 1357 1377
3 1205 1203 1692
3 1607 1789 1855
3 710 709 711
3 780 781 1775
3 1434 1103 1435
3 876 815 877
3 766 672 1656
3 1393 1590 2457
3 684 1089 1090
3 530 890 1898
3 926 1920 1943
3 696 414 1821
3 1563 1562 1777
3 1054 1046 1580
3 1398 1973 1974
3 137 216 1625
3 1210 1040 1430
3 1750 563 1751
3 2010 1665 2299
3 1510 1374 1511
3 1777 1562 2085
3 1707 252 1791
3 1932 1404 1933
3 459 438 1814
3 139 140 1618
3 1093 1156 1487
3 231 163 1658
3 699 722 723
3 1545 1095 2508
3 598 612 1794
3 579 554 1880
3 1941 1908 2401
3 1231 1232 1233
3 1831 1829 1841
3 1037 1383 1799
3 177 178 1506
3 636 600 637
3 1036 1539 2286
3 1356 1114 1357
3 1523 1516 2377
3 704 703 705
3 403 402 405
3 648 792 1848
3 723 756 808
3 1388 1389 2170
3 933 932 1770
3 223 1710 1711
3 1779 399 1783
3 1223 1222 1224
3 1028 1029 1313
3 257 161 1654
3 418 412 421
3 734 882 1807
3 693 657 1095
3 1368 1370 1436
3 136 137 1625
3 688 652 817
3 1075 1327 1328
3 540 479 1813
3 398 395 402
3 548 1629 1630
3 574 591 699
3 1469 1494 1495
3 1041 1598 2175
3 167 168 202
3 175 176 204
3 2045 2046 2201
3 186 187 1602
3 886 887 888
3 1253 1254 1259
3 8 9 1673
3 792 655 810
3 843 1145 1960
3 1180 1349 1745
3 1165 1345 1512
3 708 706 709
3 136 1625 1734
3 21 22 207
3 140 141 208
3 625 626 665
3 1093 1094 1156
3 1585 795 1834
3 1117 1713 1806
3 599 579 600
3 810 871 1826
3 1047 1046 1048
3 1292 1291 1293
3 161 162 1654
3 199 1676 1677
3 1260 1282 1804
3 1005 1142 1768
3 1233 1234 1235
3 792 810 922
3 1122 1719 1737
3 976 985 1720
3 1278 1279 2292
3 2390 1934 2531
3 1436 1437 2350
3 270 271 1647
3 1199 966 1846
3 1683 1342 2212
3 656 273 2124
3 699 591 722
3 1977 1139 2096
3 1738 1719 1881
3 1722 985 1874
3 1797 1448 1798
3 162 231 1654
3 632 604 1862
3 252 1602 1791
3 1051 1050 1052
3 1045 1023 1046
3 648 655 792
3 993 1100 1101
3 1321 1055 1322
3 806 709 1627
3 904 903 981
3 1220 1267 1268
3 648 605 655
3 1737 1719 1738
3 385 399 1779
3 506 499 1828
3 1132 266 1402
3 1170 1418 1419
3 1323 2302 2354
3 24 25 215
3 137 138 216
3 721 965 1919
3 1787 1414 2460
3 778 1117 1806
3 723 722 756
3 407 403 1805
3 564 574 1752
3 1049 1048 1050
3 842 841 875
3 1608 1546 1842
3 809 808 899
3 1517 1519 1520
3 1530 1532 1533
3 889 421 1772
3 913 1002 1122
3 1314 1316 1367
3 1017 877 1684
3 841 802 1778
3 1235 1236 1237
3 751 1857 1900
3 1114 924 1767
3 1344 1644 2360
3 1895 1394 2371
3 1518 1535 1861
3 1758 1759 1760
3 1122 1002 1719
3 546 563 1750
3 1056 1726 1727
3 663 660 1746
3 621 622 625
3 1720 985 1721
3 1857 1843 1900
3 808 756 913
3 1056 970 1726
3 27 28 230
3 134 135 229
3 908 906 1099
3 163 164 1658
3 1727 1726 1729
3 7 8 258
3 154 155 259
3 1101 1403 1404
3 808 913 1874
3 1260 1269 1282
3 1389 1387 2262
3 1297 1053 1822
3 1555 1553 1557
3 1463 1464 1465
3 230 28 1765
3 1237 1238 1239
3 554 553 1880
3 775 778 1806
3 985 899 1874
3 1270 1524 2199
3 489 1820 1936
3 692 1072 1794
3 1472 2142 2272
3 1845 496 1929
3 438 431 1814
3 613 615 1824
3 1241 1242 1245
3 1783 415 1915
3 1192 2081 2149
3 178 214 1506
3 1816 988 1817
3 1760 1759 1761
3 1103 1092 1623
3 1512 1345 1661
3 1876 921 2295
3 1165 984 1345
3 978 1074 1075
3 1239 1240 1241
3 542 541 553
3 813 988 1816
3 1148 984 1165
3 871 970 1056
3 472 452 1683
3 1207 1796 1870
3 1167 1166 1754
3 1296 1053 1297
3 966 964 1846
3 976 899 985
3 982 976 984
3 702 1815 2015
3 900 899 976
3 1143 995 1206
3 1576 1024 1827
3 1235 1248 1733
3 1558 1557 1560
3 943 995 1143
3 1920 1144 1943
3 1471 2115 2477
3 29 30 255
3 132 133 254
3 1630 1633 1634
3 1225 1224 1226
3 1925 1573 1926
3 1211 1205 1692
3 725 825 826
3 1113 924 1114
3 600 579 1988
3 717 1552 1567
3 1820 1657 1936
3 674 276 2099
3 395 393 1877
3 572 543 1897
3 1575 1308 2255
3 999 1000 1028
3 1118 1775 1876
3 1797 1798 2430
3 526 546 559
3 867 853 2186
3 1142 1771 1949
3 1068 1275 1442
3 679 385 1779
3 1607 1558 1789
3 580 568 1758
3 1244 1252 1253
3 1760 1761 1762
3 398 402 403
3 1476 1258 1478
3 418 421 889
3 1771 1147 1839
3 164 213 1658
3 1720 1721 2267
3 1668 1591 2512
3 1042 1128 1445
3 1098 1830 1833
3 1102 1092 1103
3 2249 884 2466
3 1104 1103 1434
3 410 416 1821
3 514 513 541
3 580 1758 1763
3 637 673 1741
3 1913 936 1914
3 1394 1395 2337
3 919 920 999
3 577 554 579
3 2111 1660 2263
3 231 1658 1659
3 612 613 644
3 568 543 572
3 770 775 1806
3 1445 1128 1446
3 1546 1548 1842
3 448 460 478
3 810 870 871
3 1789 1560 1819
3 1154 1082 1431
3 873 973 1802
3 379 385 679
3 837 850 921
3 1461 1462 1463
3 1346 1076 1420
3 1088 1344 1808
3 2125 1143 2353
3 931 977 978
3 882 772 1802
3 29 255 1765
3 849 1513 2180
3 1713 827 1806
3 1130 1396 1397
3 681 638 852
3 1417 1321 1873
3 1654 1402 2530
3 502 526 1740
3 1124 888 2177
3 1266 1460 1461
3 515 1175 1840
3 1253 1264 1669
3 479 466 1813
3 1727 1729 1757
3 379 380 385
3 1971 1480 2514
3 1637 1739 2459
3 1207 1205 1208
3 529 519 1899
3 1129 1845 1929
3 224 1661 2267
3 192 1856 2361
3 732 734 1807
3 1184 2163 2435
3 1119 1120 1353
3 415 414 431
3 719 724 725
3 559 546 1750
3 871 872 970
3 1038 917 1622
3 574 699 1752
3 166 167 1679
3 1117 1118 1119
3 1409 1196 2035
3 617 619 621
3 1172 1173 1439
3 1191 1005 1768
3 664 663 684
3 494 493 1841
3 890 529 1731
3 840 802 841
3 493 974 1841
3 385 386 399
3 679 1779 1780
3 371 376 379
3 416 433 1109
3 670 769 1815
3 902 866 903
3 1780 1779 1781
3 480 515 1840
3 970 971 1042
3 433 448 1714
3 28 29 1765
3 1005 949 1142
3 778 780 1117
3 959 1037 1799
3 1073 1003 1076
3 535 532 1898
3 1119 1118 1120
3 658 657 693
3 1378 1379 1380
3 1397 1396 1809
3 1610 1609 1612
3 1819 1560 2016
3 1837 952 1865
3 1719 1131 1881
3 1131 1399 1400
3 1352 1138 2058
3 399 406 409
3 548 1630 2041
3 1275 1338 2251
3 582 1816 1818
3 1835 1836 2144
3 993 1101 1980
3 1699 1698 1700
3 2407 364 2505
3 1189 1190 1788
3 1117 780 1118
3 1830 1829 1831
3 637 672 673
3 692 804 1072
3 1204 1203 1205
3 1374 1170 2139
3 612 692 1794
3 1642 1408 2286
3 723 808 809
3 450 459 1812
3 409 410 414
3 802 801 1778
3 1853 1854 2483
3 1042 1127 1128
3 1199 1846 2225
3 1147 990 1273
3 1383 1384 2432
3 432 431 438
3 1353 1120 1390
3 1093 1091 1094
3 2020 250 2254
3 148 149 1639
3 606 605 648
3 1970 2016 2422
3 2201 2046 2327
3 475 471 513
3 412 407 1951
3 1991 246 2139
3 727 695 728
3 1673 234 1788
3 1554 1556 1559
3 1089 663 1746
3 1846 964 2056
3 923 991 1088
3 409 406 410
3 729 728 730
3 1424 1427 1856
3 1473 1911 2407
3 1376 1377 1378
3 1010 1374 1510
3 853 852 854
3 366 369 1087
3 772 873 1802
3 1219 1218 1626
3 1766 229 2061
3 1088 991 1344
3 922 810 1826
3 518 506 695
3 405 402 2116
3 962 1664 2316
3 913 942 1002
3 932 990 1147
3 629 813 1816
3 876 877 992
3 399 386 406
3 932 845 990
3 1002 1123 1131
3 843 996 1145
3 781 837 1775
3 262 2304 2491
3 431 696 1814
3 1273 1695 1892
3 731 730 732
3 737 732 1807
3 439 438 450
3 1829 498 1841
3 800 685 801
3 767 814 815
3 1060 766 1656
3 673 766 767
3 1403 1605 1882
3 716 718 719
3 1338 1069 1339
3 847 752 1843
3 864 862 1116
3 2302 443 2519
3 923 827 991
3 526 559 1740
3 1911 1473 2358
3 1085 1310 1867
3 809 899 900
3 1227 1226 1228
3 729 730 731
3 1436 1370 1437
3 731 732 737
3 769 827 923
3 456 452 471
3 1433 1503 2471
3 1435 1103 1623
3 385 380 386
3 1141 1787 2460
3 1354 1088 1808
3 657 649 1848
3 415 431 432
3 484 892 1820
3 727 728 729
3 855 854 1450
3 1721 1722 1723
3 1643 1353 1644
3 1145 1916 1960
3 1421 1191 1422
3 466 1812 1813
3 943 944 995
3 1356 1357 1376
3 714 715 716
3 1156 1094 1157
3 598 611 612
3 631 1600 2298
3 590 589 605
3 965 969 1919
3 416 1109 1821
3 242 1697 2335
3 1548 1547 1549
3 550 573 584
3 584 604 632
3 409 414 415
3 712 713 714
3 642 670 702
3 818 698 819
3 1006 1005 1191
3 1624 1689 1691
3 169 170 237
3 173 174 238
3 956 912 1003
3 937 936 1913
3 1317 1025 1875
3 515 540 550
3 973 1799 1800
3 973 959 1799
3 518 695 727
3 910 819 912
3 584 573 604
3 1170 946 1418
3 173 238 1847
3 550 540 573
3 982 984 1148
3 900 976 982
3 441 435 452
3 448 478 1714
3 1849 1648 2173
3 1631 1628 1637
3 1830 1831 1832
3 1383 1216 1384
3 734 772 882
3 949 933 1770
3 1332 1330 1333
3 574 575 591
3 1105 1088 1354
3 702 670 1815
3 498 494 1841
3 827 770 1806
3 873 959 973
3 1390 1391 1415
3 450 438 459
3 950 949 1005
3 351 362 364
3 1313 1029 1314
3 432 438 439
3 837 838 850
3 1273 1274 1695
3 850 851 943
3 911 952 1837
3 1259 1260 1804
3 566 587 588
3 1037 1216 1383
3 1337 1265 1538
3 1087 369 1795
3 810 655 870
3 1559 1561 1566
3 1147 1273 1839
3 732 733 734
3 1662 867 2126
3 890 1731 2241
3 1854 1852 2397
3 515 479 540
3 451 450 466
3 697 666 698
3 1367 1316 1368
3 662 660 663
3 365 355 694
3 1358 1114 1767
3 379 376 380
3 1796 1448 1797
3 179 180 1859
3 790 668 849
3 569 568 580
3 690 860 931
3 466 450 1812
3 431 414 696
3 1973 1133 1974
3 651 649 657
3 467 466 479
3 1288 1289 1835
3 264 265 1986
3 1302 1303 1304
3 592 596 597
3 1873 1321 2037
3 544 543 568
3 275 277 549
3 209 1937 2389
3 539 565 566
3 1485 227 1486
3 2384 2190 2408
3 1781 1779 1783
3 480 479 515
3 689 1416 2413
3 1108 1161 1539
3 1867 1310 1895
3 1300 1301 1302
3 1695 1696 1697
3 633 632 668
3 1304 1451 1452
3 988 911 1837
3 168 169 1724
3 969 1012 1172
3 582 629 1816
3 1843 752 1900
3 629 812 813
3 710 711 712
3 1782 1780 1784
3 536 535 543
3 1089 1746 1969
3 1108 1107 1161
3 1514 1426 1856
3 486 484 1820
3 369 371 1795
3 1817 988 1924
3 493 609 974
3 1422 1191 2023
3 1426 1424 1856
3 842 875 924
3 922 1826 2259
3 989 1361 1886
3 928 1070 1288
3 669 668 790
3 1113 1114 1356
3 1027 847 1843
3 728 695 1098
3 734 735 772
3 975 1107 1108
3 955 859 1962
3 813 911 988
3 1208 1448 1796
3 1101 1405 1980
3 602 676 2045
3 586 581 589
3 546 547 563
3 493 491 609
3 628 1524 2390
3 348 344 354
3 1298 1299 1300
3 509 538 539
3 974 609 975
3 813 891 911
3 871 870 872
3 1355 1354 1423
3 489 486 1820
3 778 779 780
3 1025 1176 1875
3 772 773 873
3 803 1743 2347
3 167 202 1679
3 873 883 959
3 1483 1571 2375
3 427 1756 2221
3 540 1813 1954
3 1202 1200 1203
3 959 1035 1037
3 837 921 1775
3 1304 1305 1451
3 1799 1383 2195
3 604 642 1862
3 1470 1744 2474
3 1854 2397 2453
3 1282 1269 1386
3 1573 1572 2157
3 472 2222 2290
3 1307 1708 2341
3 769 770 827
3 1037 1215 1216
3 791 790 856
3 1053 1052 1822
3 1056 1727 1728
3 1341 1138 1352
3 1300 1299 1301
3 1814 696 1838
3 1198 1196 1409
3 492 491 493
3 439 450 451
3 1171 858 2132
3 1259 1254 1260
3 665 626 666
3 970 872 971
3 258 1602 2357
3 1296 1297 1472
3 490 489 491
3 516 437 2494
3 1298 1027 1299
3 846 845 932
3 501 508 509
3 460 461 502
3 448 449 460
3 482 480 1840
3 1229 1228 1230
3 604 641 642
3 1424 1423 1427
3 502 503 526
3 1028 1000 1029
3 935 933 949
3 1084 1085 1867
3 2028 1711 2353
3 1513 1426 1514
3 892 482 1840
3 852 638 1988
3 402 395 1877
3 738 737 845
3 413 412 418
3 1119 1353 1643
3 526 527 546
3 280 279 281
3 1731 1155 2123
3 1042 971 1127
3 1208 1447 1448
3 433 434 448
3 262 159 2304
3 184 1454 2303
3 1051 1052 1053
3 1816 1817 1818
3 1081 1417 1444
3 781 836 837
3 911 951 952
3 1090 1092 1102
3 202 168 1724
3 1085 1309 1310
3 408 407 412
3 1337 1538 1864
3 1515 1514 1516
3 530 529 890
3 1517 1518 1519
3 549 686 687
3 923 1088 1105
3 404 403 407
3 1835 1289 1836
3 1314 1367 2121
3 1380 1379 2416
3 670 671 769
3 899 808 1874
3 1040 903 1703
3 1596 1595 2154
3 1496 1495 1497
3 636 637 1741
3 1377 1638 2288
3 1288 1070 1289
3 1072 804 1981
3 1129 1334 1845
3 1865 1084 1866
3 792 922 1603
3 1253 1252 1254
3 981 1167 1792
3 1302 1301 1303
3 1641 1651 2019
3 952 953 1084
3 1813 1812 1869
3 732 730 733
3 975 1106 1107
3 1142 949 1770
3 981 1166 1167
3 840 841 842
3 451 466 467
3 1273 990 1274
3 1049 1050 1051
3 1473 2407 2505
3 968 966 1199
3 642 643 670
3 1310 1309 1311
3 422 419 435
3 1063 833 1082
3 919 782 920
3 911 891 951
3 1084 953 1085
3 1763 1764 2164
3 1498 1497 1682
3 515 550 1175
3 1079 937 1913
3 642 702 1862
3 845 737 1931
3 1394 1311 1395
3 1395 1521 1522
3 467 479 480
3 1755 1754 1793
3 1231 1230 1232
3 1557 1553 2030
3 1624 1691 2262
3 584 632 633
3 1094 1091 1969
3 708 709 710
3 1948 1627 2488
3 952 951 953
3 1102 1103 1104
3 1047 1048 1049
3 1310 1311 1394
3 1852 1099 1985
3 143 144 1717
3 813 812 891
3 1944 1044 1945
3 1105 1354 1355
3 1300 1302 1455
3 1914 936 1940
3 1415 1391 1710
3 1299 1027 1843
3 952 1084 1865
3 1695 1274 1696
3 776 774 1928
3 282 281 283
3 2003 1347 2279
3 1206 995 1499
3 1164 1685 1686
3 1551 1565 2030
3 969 1172 1919
3 633 668 669
3 734 733 735
3 1373 1372 1438
3 599 600 636
3 1431 1860 2487
3 1579 1577 1999
3 484 482 892
3 917 940 941
3 2144 1836 2169
3 1866 1084 1867
3 1110 1747 1748
3 998 1171 1811
3 1390 1120 1391
3 644 1824 2057
3 1362 1961 2048
3 944 1283 1825
3 1086 1027 1298
3 679 1780 1782
3 974 975 1879
3 507 506 518
3 1121 1079 1401
3 775 777 778
3 1965 762 2349
3 1045 1046 1047
3 1772 421 2106
3 16 17 2081
3 416 417 433
3 921 850 2125
3 1607 1855 1958
3 649 648 1848
3 1241 1240 1242
3 2012 1443 2251
3 926 928 1920
3 1487 1488 2025
3 1006 1191 1421
3 1355 1423 1424
3 1133 852 1988
3 591 592 1776
3 1299 1843 1857
3 1085 1308 1309
3 490 491 492
3 958 694 1575
3 1384 1216 1385
3 741 915 1878
3 1233 1232 1234
3 669 790 791
3 481 480 482
3 687 703 704
3 492 493 494
3 1634 1633 1922
3 1697 1696 1698
3 1721 985 1722
3 1839 1273 1892
3 772 735 773
3 488 486 489
3 950 1005 1006
3 1513 1514 1515
3 454 500 501
3 873 773 883
3 284 283 285
3 2185 1505 2442
3 959 883 1035
3 543 535 1897
3 1904 1384 2093
3 800 801 802
3 1037 1035 1215
3 1293 1964 1965
3 1239 1238 1240
3 943 1143 2125
3 1782 1784 1785
3 913 756 942
3 488 490 1884
3 1590 1749 2501
3 1235 1234 1236
3 791 856 1408
3 702 2015 2070
3 1108 1539 1540
3 1021 1023 1045
3 695 506 1828
3 1530 1528 1532
3 488 489 490
3 1621 1619 2161
3 704 705 706
3 1304 1303 1305
3 558 1704 2167
3 625 622 626
3 542 553 554
3 604 573 641
3 664 684 685
3 564 571 574
3 1108 1540 1879
3 1856 1427 2361
3 880 1025 1129
3 1395 1311 1521
3 1466 1465 1467
3 915 495 1884
3 1515 1516 1523
3 1237 1236 1238
3 606 648 649
3 999 920 1000
3 676 829 1043
3 2100 794 2142
3 227 151 1500
3 577 579 599
3 153 154 1671
3 1175 550 1927
3 1014 888 1015
3 286 285 287
3 1649 1280 2427
3 1725 204 2137
3 975 609 1106
3 1129 1317 1334
3 1109 1730 2426
3 1468 1467 1469
3 1131 1123 1399
3 1215 2235 2378
3 1976 1149 1989
3 397 395 398
3 746 743 1878
3 1041 1343 1598
3 975 1108 1879
3 741 495 915
3 1167 1754 1755
3 288 287 289
3 743 741 1878
3 1274 990 1931
3 1506 214 1507
3 857 1584 2277
3 2341 1522 2387
3 846 932 933
3 1107 1106 1110
3 584 633 1927
3 290 289 291
3 722 591 1776
3 1544 1094 1969
3 1135 270 1647
3 935 949 950
3 1920 1288 2080
3 754 1896 2108
3 1693 1199 2225
3 292 291 293
3 394 393 395
3 745 743 746
3 1002 942 1123
3 731 737 738
3 294 293 295
3 1018 1573 1925
3 296 295 297
3 298 297 299
3 321 322 325
3 317 320 321
3 314 315 317
3 312 313 314
3 310 311 312
3 308 309 310
3 1898 890 2275
3 306 307 308
3 304 305 306
3 1401 1079 1913
3 300 299 301
3 302 303 304
3 300 301 302
3 302 301 303
3 491 489 1936
3 298 299 300
3 304 303 305
3 306 305 307
3 308 307 309
3 310 309 311
3 312 311 313
3 314 313 315
3 317 315 320
3 321 320 322
3 1301 1299 1857
3 514 541 542
3 296 297 298
3 850 838 851
3 1310 1394 1895
3 294 295 296
3 590 605 606
3 292 293 294
3 651 657 658
3 290 291 292
3 1207 1208 1796
3 835 1976 1989
3 621 619 622
3 746 1878 1896
3 481 482 483
3 1026 847 1027
3 1335 1207 1870
3 1661 59 2266
3 727 729 1155
3 288 289 290
3 1058 776 1928
3 662 663 664
3 495 488 1884
3 1959 319 2522
3 943 851 944
3 1293 1291 1964
3 534 532 535
3 640 645 646
3 2280 1014 2385
3 286 287 288
3 591 575 592
3 521 519 529
3 13 14 2114
3 780 779 781
3 918 908 1850
3 837 836 838
3 209 148 1639
3 754 748 1896
3 745 746 747
3 769 671 770
3 929 1065 2197
3 1278 1058 1279
3 483 482 484
3 1564 1557 2030
3 633 807 1927
3 392 391 393
3 1057 1621 2161
3 569 580 581
3 284 285 286
3 876 992 1894
3 497 494 498
3 1630 1635 2041
3 982 1148 1918
3 612 611 613
3 700 634 1044
3 822 674 2099
3 880 1129 1929
3 432 439 654
3 1039 1291 1292
3 1164 1686 1989
3 1129 1025 1317
3 738 845 846
3 582 583 629
3 278 6 279
3 544 568 569
3 1701 1274 1931
3 747 749 751
3 1085 953 1308
3 928 930 1070
3 747 748 749
3 1421 1422 2415
3 902 903 904
3 1309 1308 1543
3 642 641 643
3 904 981 1792
3 646 784 785
3 536 543 544
3 1204 1205 1207
3 365 694 958
3 71 72 217
3 88 89 1901
3 87 88 193
3 101 102 189
3 85 86 242
3 99 100 241
3 74 75 192
3 91 92 219
3 94 95 191
3 83 84 220
3 97 98 221
3 77 78 218
3 80 81 194
3 89 90 245
3 62 63 244
3 60 61 188
3 64 65 223
3 67 68 190
3 90 91 1909
3 98 99 1905
3 61 62 1908
3 69 70 243
3 68 69 1907
3 70 71 1910
3 410 411 416
3 586 589 590
3 685 684 2029
3 390 389 391
3 1715 1150 1811
3 1924 1837 2215
3 282 283 284
3 496 497 1929
3 233 1671 1769
3 627 2185 2442
3 1567 1552 2062
3 629 630 812
3 424 453 454
3 583 562 1942
3 749 750 805
3 744 743 745
3 1897 535 1898
3 467 480 481
3 504 759 880
3 670 643 671
3 89 245 1901
3 193 88 1901
3 221 98 1905
3 245 90 1909
3 91 219 1909
3 62 244 1908
3 188 61 1908
3 99 241 1905
3 190 68 1907
3 71 217 1910
3 69 243 1907
3 243 70 1910
3 505 499 506
3 475 513 514
3 1945 1044 2071
3 1712 2125 2353
3 339 343 440
3 989 1360 1361
3 764 869 1152
3 778 777 779
3 1686 1685 1687
3 742 741 743
3 979 989 1886
3 729 731 1887
3 926 927 928
3 1305 1306 1307
3 1838 1278 2292
3 747 746 748
3 181 182 1652
3 1886 1361 2305
3 1595 1594 2486
3 597 596 598
3 928 1288 1920
3 1970 824 2156
3 1425 1424 1426
3 497 504 1929
3 748 746 1896
3 745 747 1900
3 998 858 1171
3 563 547 564
3 1155 729 1887
3 634 583 1942
3 1439 1173 1440
3 1026 1027 1086
3 79 80 1904
3 1533 1532 1536
3 1449 1426 1513
3 1106 609 1936
3 1318 1013 1319
3 1098 695 1828
3 492 494 496
3 750 748 754
3 731 738 1887
3 2415 1422 2516
3 533 562 582
3 988 1837 1924
3 1216 1215 1863
3 534 535 536
3 747 751 1900
3 1753 809 2119
3 1183 824 1970
3 740 495 741
3 80 194 1904
3 893 383 2087
3 655 605 1939
3 1884 2034 2082
3 1301 1857 1923
3 1307 1306 1708
3 752 745 1900
3 750 754 755
3 76 77 1903
3 2090 2347 2365
3 255 30 2159
3 132 254 2160
3 448 434 449
3 753 848 926
3 1075 1074 1327
3 487 488 495
3 377 381 647
3 483 484 485
3 755 754 2148
3 1584 1925 2277
3 1186 1183 1970
3 951 891 1281
3 485 484 486
3 546 527 547
3 133 134 1766
3 1786 1785 2409
3 280 281 282
3 460 449 461
3 744 745 752
3 77 218 1903
3 983 1918 2342
3 1708 1306 1810
3 1389 2069 2170
3 487 486 488
3 641 573 1954
3 507 518 519
3 502 461 503
3 519 518 1899
3 1202 1203 1204
3 821 897 1972
3 92 93 1902
3 521 529 530
3 749 748 750
3 2176 1380 2416
3 885 826 886
3 485 486 487
3 371 372 376
3 1289 1070 1871
3 1110 1657 1747
3 753 926 1943
3 700 1044 1944
3 880 881 1025
3 496 1845 2034
3 1072 1981 2393
3 462 464 2134
3 1949 1771 2359
3 1044 634 1942
3 550 584 1927
3 1390 1415 2118
3 526 503 527
3 990 845 1931
3 1009 1213 1214
3 740 742 1144
3 219 92 1902
3 727 1155 1899
3 369 370 371
3 623 690 2150
3 1279 1058 1928
3 1408 2235 2286
3 487 495 740
3 979 1886 2086
3 1305 1303 1306
3 421 412 1951
3 843 844 996
3 633 669 807
3 518 727 1899
3 826 825 1961
3 1657 1106 1936
3 1172 1012 1173
3 740 741 742
3 433 417 434
3 505 506 507
3 1333 1674 2437
3 742 743 744
3 469 458 470
3 1381 1380 1382
3 1293 1965 2515
3 1554 1559 2062
3 553 557 2499
3 1774 389 2339
3 497 498 499
3 483 485 576
3 740 1144 1935
3 773 735 834
3 366 367 369
3 1120 1118 1876
3 1515 1523 1574
3 1319 1013 2039
3 1303 1301 1923
3 457 447 458
3 561 593 594
3 1355 1424 1425
3 609 491 1936
3 204 1732 2137
3 791 1408 1642
3 995 944 1825
3 456 471 475
3 1692 1693 2239
3 580 1763 2164
3 1292 1293 2117
3 441 452 456
3 388 384 389
3 823 821 1972
3 504 880 1929
3 176 177 1680
3 1070 1071 1871
3 15 2260 2477
3 362 363 366
3 2178 2300 2449
3 1035 883 1036
3 2285 1563 2307
3 978 977 1074
3 1090 1102 2029
3 1810 1306 1923
3 496 494 497
3 1306 1303 1923
3 432 654 1915
3 934 933 935
3 356 355 365
3 398 403 404
3 635 701 843
3 1110 1106 1657
3 574 571 575
3 1025 881 1176
3 386 380 786
3 415 432 1915
3 343 347 1911
3 1070 930 1071
3 1688 1740 2231
3 1385 1216 1863
3 1696 1274 1701
3 1645 305 2317
3 880 759 881
3 926 848 927
3 1427 1423 2217
3 1339 1662 2388
3 770 774 775
3 1263 1257 1428
3 1337 1864 2412
3 349 348 355
3 2267 1721 2498
3 753 752 847
3 1375 1086 1473
3 900 982 983
3 332 335 739
3 429 428 430
3 744 752 753
3 1171 2132 2165
3 1425 1426 1449
3 987 641 1954
3 1883 1786 2409
3 427 426 428
3 928 927 930
3 1815 1105 2015
3 1206 1499 1941
3 410 406 411
3 573 540 1954
3 497 499 504
3 528 560 561
3 1933 1404 2399
3 1091 1089 1969
3 1804 1282 2073
3 504 505 759
3 963 924 1113
3 1711 1710 1712
3 881 759 1146
3 968 1199 1200
3 351 352 362
3 848 847 1026
3 521 530 531
3 1884 490 2034
3 1277 957 1966
3 1349 1350 2329
3 676 1043 2045
3 997 1159 1286
3 517 1889 1890
3 781 835 836
3 944 948 1283
3 722 1776 2026
3 507 519 520
3 2040 1352 2058
3 1276 957 1277
3 446 437 447
3 931 860 977
3 361 359 765
3 1248 1536 2534
3 512 523 528
3 408 412 413
3 1368 1369 1370
3 451 2169 2223
3 192 75 1994
3 942 756 2026
3 345 344 348
3 764 1152 1963
3 413 418 419
3 1286 1773 1774
3 770 671 774
3 275 549 2124
3 1497 1645 2461
3 1982 1472 2272
3 422 435 441
3 281 279 736
3 1134 270 1135
3 582 562 583
3 1421 2415 2454
3 485 487 1935
3 2300 1067 2480
3 1578 1576 1827
3 930 927 1061
3 1026 1086 1375
3 922 2259 2379
3 1391 1120 1876
3 1495 1494 2493
3 404 407 408
3 879 2178 2449
3 1700 1698 2036
3 607 1517 1520
3 753 847 848
3 416 411 417
3 1144 742 1943
3 775 776 777
3 754 2108 2148
3 1006 1421 1953
3 585 581 586
3 531 530 532
3 235 1709 1888
3 520 519 521
3 1180 1181 1349
3 1146 759 1967
3 708 710 1921
3 1350 2253 2329
3 436 430 437
3 504 499 505
3 643 641 987
3 336 330 517
3 811 1059 1149
3 1164 1411 1685
3 846 933 934
3 635 843 1960
3 983 982 1918
3 971 872 1096
3 1149 1163 1164
3 169 237 1724
3 1314 1315 1316
3 629 583 630
3 891 812 1916
3 462 463 464
3 487 740 1935
3 798 2084 2189
3 1814 1838 2292
3 1284 1489 1491
3 340 336 2014
3 1670 1461 2200
3 920 782 2057
3 890 2241 2275
3 510 511 512
3 278 279 280
3 839 802 840
3 1858 235 1888
3 1698 1696 2036
3 104 105 222
3 57 58 224
3 1185 1183 1186
3 588 587 623
3 638 600 1988
3 1282 1386 2245
3 811 776 1058
3 816 815 876
3 2034 1845 2082
3 761 636 1741
3 566 565 587
3 174 175 1725
3 347 350 351
3 1469 1495 1496
3 1059 1058 1278
3 811 1149 1976
3 576 485 1935
3 659 658 660
3 859 1153 1962
3 76 1903 1994
3 1821 1109 2426
3 1294 1038 1622
3 733 1833 2075
3 992 993 1980
3 1566 1561 2285
3 525 474 2041
3 464 465 510
3 343 346 347
3 360 893 1982
3 650 649 651
3 896 608 936
3 950 1006 1007
3 1508 1859 1860
3 539 538 565
3 440 343 1911
3 341 340 344
3 221 1905 1906
3 1297 1823 2142
3 759 505 1967
3 1295 1053 1296
3 473 470 474
3 1463 1465 1466
3 1143 1206 2028
3 799 685 800
3 1210 2077 2203
3 509 508 538
3 492 496 2034
3 1553 1551 2030
3 1260 1261 1269
3 1430 1040 1703
3 586 590 1940
3 838 836 868
3 1705 624 2276
3 1749 972 2501
3 742 744 1943
3 804 962 1981
3 1367 1368 2254
3 531 532 533
3 337 336 340
3 1157 1094 1544
3 536 544 1158
3 812 630 1960
3 781 779 835
3 56 57 1947
3 630 583 634
3 1405 1404 1932
3 1281 891 1916
3 339 342 343
3 1411 1163 1730
3 322 323 324
3 344 340 2091
3 1735 1734 1736
3 75 76 1994
3 430 682 2494
3 1907 243 2360
3 589 581 2164
3 694 355 2196
3 744 753 1943
3 775 774 776
3 1210 1430 2077
3 335 338 339
3 1102 1803 2029
3 1078 937 1079
3 870 655 1939
3 505 507 1967
3 357 360 1982
3 1896 1878 2101
3 326 325 328
3 934 935 957
3 585 608 895
3 333 330 336
3 1270 1272 1524
3 688 817 878
3 507 520 1967
3 1428 1257 2074
3 1818 1817 2000
3 896 937 1077
3 934 957 1111
3 329 328 330
3 1499 995 1825
3 944 851 948
3 387 445 462
3 1678 1161 2228
3 777 776 811
3 313 311 757
3 324 331 332
3 848 1026 1955
3 1312 998 1811
3 1321 1322 2037
3 1080 1079 1121
3 1105 1355 2015
3 1645 2317 2461
3 1559 1568 2062
3 332 334 335
3 501 500 508
3 321 325 326
3 394 395 397
3 322 320 323
3 1529 1530 2171
3 1137 797 1138
3 811 1058 1059
3 661 660 662
3 569 581 585
3 183 4 2303
3 5 160 2304
3 1340 1138 1341
3 1660 1626 2185
3 1743 1464 2347
3 1026 1375 1955
3 1149 1059 1163
3 1736 1625 2194
3 1322 1667 2434
3 311 309 1959
3 309 307 319
3 894 700 1944
3 533 534 562
3 1276 1277 1366
3 2190 1706 2408
3 533 532 534
3 1214 1213 1410
3 1164 1163 1411
3 843 701 844
3 1009 1214 2055
3 234 1589 1788
3 2000 1817 2174
3 317 321 2050
3 328 325 945
3 392 393 394
3 588 623 2089
3 1162 958 1681
3 1078 1080 1136
3 927 848 1955
3 1496 1497 1498
3 390 391 392
3 1061 927 1955
3 1283 948 1284
3 635 634 700
3 1244 1251 1252
3 218 78 2093
3 756 722 2026
3 1071 1784 2419
3 1218 1505 2185
3 1284 948 1285
3 1489 1285 1490
3 918 1850 1851
3 684 1090 2029
3 1759 572 2537
3 1691 1690 2446
3 1979 1158 2071
3 606 649 650
3 2045 1043 2046
3 103 104 2025
3 630 634 635
3 360 383 893
3 406 386 2043
3 1909 219 2023
3 1111 957 1276
3 1925 1437 2277
3 1536 2268 2340
3 854 852 1133
3 233 153 1671
3 651 658 659
3 2099 1787 2368
3 1033 1032 1130
3 1015 1372 1373
3 1412 942 2026
3 253 264 1441
3 1531 1534 2332
3 701 700 894
3 106 107 1990
3 2048 1961 2455
3 276 274 2099
3 738 846 1968
3 1325 925 1326
3 896 936 937
3 585 586 608
3 1450 854 1973
3 1361 1360 1362
3 1045 1668 2512
3 303 301 444
3 996 844 997
3 79 1904 2093
3 1989 1686 2095
3 1928 774 2033
3 1942 562 1979
3 287 285 316
3 935 950 1966
3 1466 1467 1468
3 1242 1243 1244
3 1887 738 1968
3 2115 210 2477
3 878 929 1083
3 1326 1736 2194
3 886 888 1014
3 895 608 896
3 289 287 1978
3 821 822 897
3 936 608 1940
3 613 614 615
3 51 52 1996
3 417 411 1160
3 1149 1164 1989
3 386 786 2043
3 285 283 1971
3 1309 1543 2147
3 375 373 2053
3 371 370 372
3 779 777 1976
3 1286 1159 1773
3 2177 887 2376
3 1560 1557 1564
3 1403 1882 2399
3 1727 1757 2246
3 279 6 2049
3 1619 1438 2438
3 291 289 758
3 1781 1915 2294
3 425 401 426
3 349 355 356
3 66 67 2118
3 474 548 2041
3 1686 1687 2007
3 1262 1456 1457
3 1123 942 1412
3 1916 812 1960
3 1355 1425 2015
3 735 733 2075
3 1861 879 2449
3 1284 1285 1489
3 490 492 2034
3 366 363 367
3 980 578 2051
3 906 904 1792
3 534 536 1979
3 842 924 963
3 2051 578 2083
3 1077 937 1078
3 1102 1104 1803
3 894 1944 1946
3 398 404 2060
3 1007 1006 1953
3 369 367 370
3 348 354 2196
3 1078 1079 1080
3 1378 1380 1381
3 1568 1365 2439
3 608 586 1940
3 598 610 611
3 760 636 761
3 869 1137 1351
3 671 643 2033
3 1661 1345 2267
3 938 914 1057
3 783 761 914
3 576 1835 2144
3 388 389 390
3 297 295 318
3 454 453 500
3 1906 1728 2246
3 1439 1440 2468
3 1159 1013 1318
3 764 797 869
3 236 143 1717
3 782 644 2057
3 592 595 596
3 1542 2332 2443
3 1521 1311 2147
3 345 348 349
3 1304 1452 2205
3 1644 1907 2360
3 2146 1125 2149
3 997 844 1013
3 628 375 2053
3 299 297 1984
3 957 935 1966
3 664 685 799
3 301 299 1975
3 362 352 363
3 777 811 1976
3 1942 1979 2071
3 1001 920 2057
3 312 314 768
3 1552 1554 2062
3 615 616 617
3 357 1982 2076
3 800 802 839
3 774 671 2033
3 1749 1169 2105
3 365 958 1162
3 617 618 619
3 283 281 1938
3 1351 1772 2414
3 1525 1765 2489
3 846 934 1968
3 635 700 701
3 555 554 577
3 536 1158 1979
3 1101 1404 1405
3 630 635 1960
3 1811 1150 2089
3 2113 1666 2249
3 172 173 1847
3 107 108 195
3 54 55 196
3 1191 1768 2023
3 1455 1302 2205
3 115 116 2017
3 1387 1333 2437
3 659 661 764
3 1080 1121 1188
3 50 51 2011
3 411 406 2043
3 295 293 1983
3 643 987 2033
3 707 706 708
3 129 130 261
3 32 33 260
3 2159 260 2265
3 449 434 567
3 1314 1029 1315
3 917 796 940
3 378 375 628
3 108 109 1991
3 2370 1759 2537
3 341 344 345
3 997 1013 1159
3 544 569 1993
3 950 1007 1966
3 477 474 525
3 351 350 352
3 1696 1701 2036
3 334 331 803
3 1137 1138 1340
3 562 534 1979
3 109 110 246
3 52 53 247
3 1368 1316 1369
3 659 660 661
3 33 34 2002
3 123 124 2005
3 835 779 1976
3 851 838 1992
3 1530 1533 2172
3 1668 1045 2348
3 1162 1681 1706
3 342 338 468
3 298 300 358
3 765 359 2065
3 725 826 885
3 35 36 2003
3 46 47 2019
3 38 39 2006
3 336 517 2014
3 934 1111 1968
3 116 117 2018
3 650 651 1963
3 223 1711 2162
3 640 594 645
3 1333 1330 2192
3 104 222 2025
3 1603 922 2379
3 963 1113 1115
3 2084 1193 2189
3 564 570 571
3 36 37 2004
3 57 224 1947
3 1542 1601 2269
3 122 123 2012
3 1000 920 1001
3 127 128 240
3 34 35 239
3 383 387 2087
3 1161 1107 2228
3 1781 2294 2419
3 1201 1200 1202
3 124 125 225
3 37 38 226
3 1340 1341 1342
3 869 797 1137
3 839 840 1008
3 1158 544 1993
3 1326 925 1894
3 352 350 353
3 326 329 954
3 1864 2344 2412
3 836 835 2095
3 1051 1053 1295
3 1031 720 1032
3 503 461 787
3 1407 1112 2044
3 661 662 2058
3 838 868 1992
3 112 113 197
3 49 50 198
3 1359 980 1413
3 121 122 211
3 40 41 212
3 48 49 2010
3 113 114 2009
3 1741 673 2131
3 41 42 2020
3 120 121 2013
3 1409 2035 2097
3 1511 1374 2506
3 114 115 248
3 47 48 249
3 42 43 250
3 119 120 251
3 171 6 201
3 6 172 203
3 585 895 1993
3 43 44 2024
3 118 119 2021
3 905 904 906
3 764 661 797
3 337 340 341
3 1413 980 2051
3 117 118 205
3 44 45 206
3 347 346 350
3 1420 1076 1525
3 324 323 331
3 434 417 2031
3 965 967 969
3 716 719 788
3 1260 1254 1261
3 2053 373 2103
3 2069 2068 2170
3 326 328 329
3 1706 996 2408
3 273 275 2124
3 969 1011 1012
3 590 606 2001
3 1718 1611 2280
3 1914 1940 2001
3 915 1884 2082
3 329 330 333
3 620 859 955
3 2168 1409 2305
3 296 298 1997
3 915 2082 2101
3 339 338 342
3 1218 994 1505
3 333 336 337
3 266 263 1742
3 1873 768 2127
3 244 63 2162
3 64 223 2162
3 343 342 346
3 914 761 2258
3 310 312 1987
3 799 800 2055
3 302 304 763
3 1559 1566 1568
3 1598 1343 2114
3 592 575 595
3 341 345 794
3 189 1842 2220
3 767 815 816
3 1003 912 1004
3 839 1008 1009
3 1263 1428 1429
3 564 547 570
3 1845 1334 2082
3 332 331 334
3 901 866 902
3 651 659 1963
3 1009 1112 1213
3 335 334 338
3 569 585 1993
3 1665 1336 2299
3 1945 2071 2153
3 863 862 864
3 907 906 908
3 1849 1486 1930
3 1935 1144 2080
3 967 966 968
3 809 900 2119
3 865 864 866
3 835 1989 2095
3 190 1907 2417
3 333 337 522
3 1110 1748 2228
3 1193 1194 1195
3 94 191 2166
3 473 1854 2453
3 1769 1134 2369
3 948 851 1992
3 237 170 2216
3 420 419 422
3 1448 1447 2364
3 483 576 2144
3 721 1919 2032
3 885 886 1891
3 613 611 614
3 886 1014 1891
3 1160 411 2043
3 1918 1283 2342
3 1651 206 2485
3 1242 1240 1243
3 598 596 610
3 1295 1296 1459
3 1185 1186 1948
3 1425 1449 2070
3 294 296 762
3 1285 948 1992
3 925 876 1894
3 712 714 789
3 603 1668 2398
3 1940 590 2001
3 721 570 964
3 834 735 2075
3 1144 1920 2080
3 2263 1635 2511
3 1204 1207 1335
3 2235 1408 2378
3 965 964 966
3 1990 1435 2218
3 397 398 2060
3 1138 797 2058
3 1787 1141 2368
3 2068 820 2170
3 360 359 361
3 387 462 2087
3 1524 1272 1934
3 819 698 820
3 1197 1196 1198
3 1662 2126 2388
3 78 79 2093
3 1150 588 2089
3 1269 1261 1270
3 1878 915 2101
3 451 467 2169
3 2262 1387 2437
3 1009 1008 1112
3 757 311 1959
3 897 898 1139
3 1854 473 2483
3 2015 1425 2070
3 2082 1334 2101
3 963 1115 1174
3 1047 1049 1287
3 1194 423 1196
3 321 326 2050
3 417 1160 2031
3 854 1133 1973
3 1201 1212 1348
3 705 1586 2163
3 309 319 1959
3 1353 1390 2417
3 427 428 429
3 357 356 359
3 606 650 2001
3 549 1280 2124
3 1213 1112 1407
3 256 2303 2535
3 356 365 2065
3 662 664 2040
3 701 894 2039
3 1325 1371 2451
3 666 626 667
3 1902 93 2166
3 1236 1234 1246
3 800 839 2055
3 1869 1812 2252
3 1197 1364 1365
3 576 1935 2080
3 404 408 798
3 1678 807 2529
3 1560 1564 2016
3 1319 2039 2122
3 425 426 427
3 349 356 357
3 308 310 327
3 1716 622 2484
3 1801 82 2289
3 1768 1949 2420
3 2006 1926 2507
3 351 364 2407
3 420 423 1193
3 659 764 1963
3 292 294 2038
3 840 842 2027
3 736 279 2049
3 372 373 374
3 461 449 2052
3 2189 1195 2285
3 1174 1115 1398
3 367 363 961
3 909 908 918
3 1738 247 2402
3 1007 1761 2308
3 288 290 2135
3 422 441 2035
3 623 624 690
3 537 525 545
3 1953 1421 2454
3 1887 1968 2123
3 861 691 862
3 654 439 2223
3 1136 1080 2054
3 1312 1811 2089
3 575 571 2032
3 383 361 384
3 968 1200 1201
3 797 661 2058
3 1423 1354 2381
3 1180 1178 1181
3 1513 1515 2180
3 72 73 2217
3 462 445 463
3 12 13 2136
3 457 458 469
3 542 554 555
3 599 636 760
3 254 133 1766
3 1130 1397 1937
3 404 798 2060
3 1044 1942 2071
3 690 691 860
3 357 359 360
3 1008 2027 2152
3 1232 1230 1255
3 372 370 373
3 850 943 2125
3 1457 1456 1492
3 1952 324 2282
3 155 2 2356
3 0 7 2357
3 2017 1379 2288
3 918 1851 2008
3 195 1991 2517
3 2090 803 2347
3 1244 1243 1251
3 290 292 368
3 1432 1082 2214
3 1008 840 2027
3 1743 803 2296
3 1013 844 2039
3 365 1162 2065
3 1594 1315 2184
3 387 384 388
3 1508 1860 2311
3 547 527 2056
3 2005 225 2322
3 314 317 2127
3 1853 556 2327
3 201 6 278
3 1907 1644 2417
3 1896 2101 2108
3 646 645 784
3 538 508 558
3 374 375 377
3 1630 1634 1635
3 1579 1999 2352
3 1647 1648 1849
3 1313 1314 2121
3 1179 1433 2042
3 844 701 2039
3 1252 1251 2098
3 816 876 925
3 1922 1228 2281
3 392 394 396
3 1915 654 2294
3 1652 1653 2487
3 429 430 436
3 456 475 476
3 1605 1392 2510
3 126 1882 2284
3 1784 1780 2419
3 500 453 960
3 377 378 381
3 2178 1587 2300
3 1222 1219 1626
3 413 419 420
3 381 382 400
3 2169 1836 2223
3 1906 1905 2129
3 616 614 793
3 1170 1419 2139
3 101 189 2220
3 241 100 2220
3 1968 1111 2123
3 567 434 2031
3 615 614 616
3 1032 720 1921
3 682 428 2138
3 469 470 473
3 339 440 2261
3 1501 238 2226
3 1154 1431 1653
3 446 447 457
3 1251 1243 1257
3 2229 315 2495
3 1201 1202 1212
3 785 784 879
3 464 463 465
3 66 2118 2395
3 324 332 2282
3 286 288 771
3 17 199 2081
3 571 570 721
3 611 610 2092
3 617 616 618
3 1542 1531 2332
3 400 401 424
3 1325 1326 1371
3 1140 1406 1702
3 1323 443 2302
3 1926 1573 2507
3 436 437 446
3 1262 1457 2098
3 67 190 2118
3 1518 1861 2449
3 989 1359 1360
3 1063 1082 1154
3 1757 96 2526
3 969 967 1011
3 868 836 2095
3 1215 1035 2235
3 96 1757 2309
3 261 2160 2380
3 1381 1382 2126
3 1468 1469 2182
3 1334 1317 2108
3 861 863 1064
3 1270 1261 1271
3 360 361 383
3 287 316 1978
3 1856 192 2367
3 1905 241 2129
3 1615 1809 2425
3 528 523 560
3 979 980 989
3 662 2040 2058
3 721 964 965
3 170 171 2216
3 664 799 2040
3 512 511 523
3 1201 1348 2107
3 620 618 858
3 758 289 1978
3 859 858 998
3 424 425 453
3 1616 1615 2193
3 444 301 1975
3 561 560 593
3 965 966 967
3 1798 376 2430
3 340 2014 2091
3 510 465 511
3 107 195 1990
3 1080 1188 2054
3 1153 998 1312
3 1226 1224 1249
3 1012 1011 1363
3 902 904 905
3 842 963 2027
3 268 270 1134
3 865 901 1125
3 2077 558 2102
3 282 284 442
3 1977 1679 2253
3 1496 1498 2047
3 284 286 2063
3 281 736 1938
3 2132 793 2165
3 1674 215 2437
3 2078 1855 2411
3 839 1009 2055
3 1182 824 1183
3 1168 947 1169
3 1289 1871 2242
3 316 285 1971
3 1270 1271 1272
3 1755 1793 2264
3 51 1996 2011
3 383 384 387
3 1146 1924 2215
3 1279 1928 2202
3 619 618 620
3 1194 1196 1197
3 555 578 979
3 1937 1639 2528
3 1262 1257 1263
3 389 384 2339
3 2251 1338 2464
3 1155 1887 2123
3 1151 1937 2528
3 465 463 828
3 1318 1319 2116
3 1687 1688 2231
3 326 954 2050
3 297 318 1984
3 1308 953 2255
3 1846 2056 2198
3 320 315 2229
3 1254 1252 2059
3 760 761 783
3 951 1281 2255
3 1459 1296 2094
3 2288 1638 2470
3 1975 299 1984
3 52 247 1996
3 468 338 2090
3 2140 1511 2506
3 1125 1126 1192
3 593 824 1182
3 720 708 1921
3 704 706 707
3 623 587 624
3 2044 1112 2152
3 1393 1169 1749
3 900 983 2119
3 783 914 938
3 255 2265 2489
3 2039 894 2122
3 317 2050 2127
3 1866 1867 2513
3 374 373 375
3 429 436 455
3 387 388 445
3 1193 423 1194
3 555 577 578
3 1074 977 1187
3 449 567 2052
3 1197 1198 1364
3 2154 1595 2486
3 1486 1849 2173
3 318 295 1983
3 939 1016 1844
3 131 132 2160
3 30 31 2159
3 881 1146 2215
3 1294 1868 2238
3 1300 1455 2314
3 1365 1364 1912
3 783 938 939
3 2061 1735 2441
3 551 545 601
3 2194 216 2536
3 1251 1257 1262
3 888 887 2177
3 1364 1198 2048
3 1498 1682 2340
3 1589 1590 2501
3 60 188 2266
3 1401 1913 2324
3 195 108 1991
3 420 422 423
3 1675 1470 2474
3 258 1673 2183
3 2161 1619 2438
3 1296 1472 2094
3 1808 1910 2381
3 334 803 2090
3 1490 1285 2232
3 523 511 524
3 1240 1238 2074
3 1184 1183 1185
3 39 40 2151
3 473 474 477
3 1461 1463 2200
3 2072 353 2073
3 861 862 863
3 1206 1941 2401
3 958 1575 2287
3 614 611 2092
3 110 111 2140
3 1136 2054 2110
3 645 594 2133
3 260 33 2002
3 673 767 2131
3 989 980 1359
3 1741 2131 2258
3 1317 1875 2148
3 894 1946 2122
3 863 864 865
3 787 461 2052
3 857 2277 2386
3 109 246 1991
3 2017 116 2018
3 1182 1183 1184
3 377 375 378
3 816 925 1324
3 865 866 901
3 1262 1263 1456
3 359 356 2065
3 2129 241 2472
3 283 1938 1971
3 1458 1210 2203
3 1076 1003 2145
3 196 1738 2402
3 1033 1130 1151
3 1188 1121 2106
3 1140 1702 2096
3 549 687 1280
3 1694 1621 2191
3 861 1064 2112
3 1548 1549 2129
3 1784 1071 2462
3 714 716 2066
3 1961 825 2455
3 1447 1211 2250
3 979 578 980
3 905 907 1209
3 381 378 382
3 457 469 552
3 595 575 2032
3 408 413 2084
3 481 483 2144
3 1745 1349 2293
3 1980 1405 2441
3 198 50 2011
3 248 115 2017
3 912 819 2068
3 620 858 859
3 707 708 720
3 821 674 822
3 514 542 2086
3 400 382 401
3 123 2005 2012
3 1772 1351 2374
3 34 239 2002
3 768 314 2127
3 2003 36 2004
3 280 282 2079
3 124 225 2005
3 596 595 2130
3 593 560 824
3 1504 1502 2519
3 239 35 2003
3 1311 1309 2147
3 1318 1877 2240
3 1860 1432 2311
3 1416 1715 2330
3 859 998 1153
3 352 353 2072
3 312 768 1987
3 2027 1174 2152
3 226 38 2006
3 1827 1024 2117
3 1710 1391 2295
3 690 624 691
3 37 226 2004
3 1153 1312 1885
3 853 855 2186
3 1892 242 2373
3 1967 520 2174
3 939 938 1016
3 47 249 2019
3 388 390 2078
3 1991 2139 2517
3 905 906 907
3 571 721 2032
3 1196 423 2035
3 1324 925 1325
3 1151 1130 1937
3 363 352 2072
3 345 349 2076
3 1031 1032 1033
3 214 179 1859
3 211 122 2012
3 602 601 652
3 117 205 2018
3 710 712 2067
3 1602 187 2357
3 520 2000 2174
3 85 242 2335
3 220 84 2335
3 381 400 2113
3 1586 1587 2435
3 424 401 425
3 963 1174 2027
3 860 691 861
3 610 596 2130
3 1958 2078 2431
3 570 547 2056
3 237 2216 2354
3 1211 1692 2219
3 298 358 1997
3 909 947 1041
3 441 456 2097
3 1135 1647 1849
3 1601 1542 2443
3 197 113 2009
3 49 198 2010
3 1911 347 2407
3 1729 191 2309
3 212 41 2020
3 121 211 2013
3 222 105 2218
3 1125 901 1126
3 114 248 2009
3 249 48 2010
3 42 250 2020
3 251 120 2013
3 233 1769 2369
3 1870 647 2113
3 794 345 2076
3 250 43 2024
3 119 251 2021
3 901 902 2141
3 964 570 2056
3 739 335 2261
3 2108 1317 2148
3 577 599 2083
3 205 118 2021
3 44 206 2024
3 1247 1241 2323
3 1894 992 2244
3 6 203 2049
3 1642 1678 2529
3 1417 1873 2333
3 1422 2023 2516
3 341 794 2100
3 73 74 2361
3 1234 1232 2088
3 1261 1254 2059
3 896 1077 2257
3 1921 710 2067
3 125 126 2284
3 220 1699 2289
3 159 5 2304
3 4 184 2303
3 2059 1252 2098
3 1003 1004 2145
3 2328 1325 2451
3 1486 227 1500
3 63 64 2162
3 2081 1192 2260
3 508 500 2102
3 667 1872 2318
3 338 334 2090
3 423 422 2035
3 1192 1126 1471
3 907 908 909
3 1330 1328 2192
3 1972 897 2500
3 2443 316 2514
3 242 86 2373
3 87 193 2373
3 420 1193 2084
3 1473 1086 2358
3 1987 768 2037
3 522 337 2100
3 627 1660 2185
3 1793 446 2264
3 1405 2061 2441
3 1502 1217 2302
3 171 201 2216
3 1158 1993 2153
3 1197 1365 2120
3 1712 1710 2295
3 1121 1401 2414
3 93 94 2166
3 653 652 688
3 622 1716 2452
3 1345 1720 2267
3 477 537 556
3 128 129 2181
3 2331 1295 2458
3 784 645 874
3 1269 1270 2199
3 189 102 2355
3 1041 1168 1343
3 246 110 2140
3 477 525 537
3 755 1895 2371
3 1947 1723 2313
3 1134 1135 2369
3 223 65 2395
3 968 1201 2107
3 1577 1578 2325
3 210 15 2477
3 961 363 2072
3 1581 1579 2352
3 349 357 2076
3 337 341 2100
3 305 303 2317
3 370 367 2103
3 762 296 1997
3 581 580 2164
3 1278 1838 2372
3 1548 2129 2472
3 594 593 2133
3 2021 251 2022
3 2047 1247 2182
3 967 968 2107
3 1169 947 2008
3 481 2144 2169
3 793 614 2092
3 1910 217 2381
3 1251 1262 2098
3 716 788 2066
3 2101 1334 2108
3 2006 39 2151
3 1603 2379 2508
3 1926 2006 2151
3 96 97 2526
3 750 755 2371
3 789 714 2066
3 909 918 947
3 1993 895 2153
3 106 1990 2218
3 1243 1240 2074
3 832 986 1189
3 1283 1284 2342
3 2297 195 2517
3 1043 829 2326
3 767 816 2131
3 602 653 676
3 1004 912 2068
3 2086 1886 2224
3 1124 2177 2467
3 426 401 2531
3 707 720 1030
3 1000 1001 2184
3 1315 1029 2184
3 467 481 2169
3 541 513 2256
3 647 381 2113
3 225 2284 2510
3 2 156 2356
3 187 0 2357
3 40 212 2151
3 2245 1386 2383
3 676 677 829
3 1004 2068 2069
3 1860 232 2487
3 1031 1033 1034
3 829 830 972
3 996 997 2408
3 1195 1194 2120
3 987 1869 2202
3 1410 1213 2222
3 819 820 2068
3 1485 1486 2173
3 1564 2030 2155
3 807 669 2529
3 129 261 2181
3 1525 1076 2145
3 578 577 2083
3 327 310 1987
3 1083 929 2197
3 2131 1324 2258
3 798 408 2084
3 1838 696 2426
3 1486 1500 1930
3 1946 1944 2291
3 2257 1077 2291
3 1512 1661 2266
3 445 388 2078
3 1192 1471 2260
3 2118 1415 2395
3 1466 1468 2158
3 830 677 831
3 211 2012 2251
3 652 601 2442
3 537 545 551
3 558 508 2102
3 198 2011 2128
3 1718 2280 2385
3 500 960 2102
3 1168 1169 1393
3 1127 971 2496
3 95 96 2309
3 2030 1565 2155
3 1919 1172 2273
3 977 860 2112
3 240 128 2181
3 294 762 2038
3 1800 1799 2195
3 712 789 2067
3 972 1749 2326
3 472 1683 2212
3 874 645 2133
3 551 2045 2201
3 2105 1043 2326
3 1957 1212 2301
3 1514 1856 2367
3 565 538 2167
3 373 370 2103
3 355 348 2196
3 1934 1272 2138
3 1934 426 2531
3 1881 1400 2481
3 2046 1851 2327
3 367 961 2103
3 1963 1152 2206
3 201 278 443
3 3 131 2444
3 31 1 2445
3 2035 441 2097
3 503 787 2198
3 1135 1849 1930
3 1534 1983 2306
3 2089 623 2150
3 687 704 2109
3 869 1351 2363
3 1302 1304 2205
3 955 1716 2484
3 1030 720 1031
3 1159 1318 2240
3 1228 1226 2281
3 947 918 2008
3 413 420 2084
3 785 879 2532
3 1041 947 1168
3 1468 2182 2323
3 1246 1234 2088
3 1730 1163 2372
3 542 555 2086
3 1599 631 2312
3 1146 1967 2174
3 1078 1136 2343
3 1515 1574 2180
3 2336 885 2469
3 1257 1243 2074
3 1347 1346 2279
3 2001 650 2206
3 1480 1601 2514
3 1029 1000 2184
3 1956 788 2336
3 1271 1261 2059
3 130 3 2444
3 1 32 2445
3 1570 1507 2197
3 1232 1255 2088
3 791 1642 2529
3 1601 1479 2269
3 1361 1362 2168
3 1634 1922 2281
3 765 2065 2190
3 2071 1158 2153
3 1699 1801 2289
3 832 831 833
3 1864 346 2344
3 456 476 2097
3 1855 828 2411
3 2065 1162 2190
3 1125 1192 2149
3 599 760 2083
3 361 765 2339
3 1731 2123 2241
3 1349 1181 1350
3 1443 1275 2251
3 1819 524 2429
3 1021 1045 2512
3 858 618 2132
3 1999 358 2338
3 368 292 2038
3 290 368 2135
3 803 331 2296
3 1112 1008 2152
3 56 1947 2313
3 555 979 2086
3 1469 1496 2182
3 1011 967 2107
3 248 2017 2288
3 1809 789 2425
3 960 453 2221
3 538 558 2167
3 1858 1187 2248
3 2246 1757 2526
3 902 905 2141
3 1851 1853 2327
3 1224 1222 2111
3 771 288 2135
3 1945 2153 2257
3 1420 1525 2489
3 1399 1123 2393
3 103 2025 2355
3 897 822 898
3 1861 940 2532
3 865 1125 2146
3 1675 2474 2522
3 1573 2157 2507
3 1632 1631 2382
3 551 601 602
3 527 503 2198
3 1708 805 2337
3 1059 1278 2372
3 2056 527 2198
3 860 861 2112
3 1668 2348 2398
3 255 2159 2265
3 1541 1542 2269
3 1428 2074 2227
3 1582 1583 2321
3 389 1774 2503
3 2004 226 2157
3 1777 397 2405
3 1368 1436 2254
3 1061 2409 2462
3 1071 930 2462
3 1126 901 2141
3 1194 1197 2120
3 1452 1952 2282
3 2116 1319 2482
3 105 106 2218
3 1981 1399 2393
3 2119 983 2143
3 444 1682 2461
3 2173 1648 2463
3 616 793 2132
3 1791 1190 2334
3 1826 1728 2259
3 602 652 653
3 1834 1292 2428
3 556 2201 2327
3 1014 1015 2385
3 1995 1287 2331
3 1193 1195 2189
3 816 1324 2131
3 879 1861 2532
3 593 1182 2133
3 1402 266 1742
3 2216 1323 2354
3 1660 1636 2502
3 620 955 2484
3 1162 1706 2190
3 1870 2113 2249
3 204 1680 1732
3 1909 2023 2420
3 217 72 2217
3 376 372 2430
3 905 1209 2141
3 1378 1381 2283
3 1236 1246 2227
3 286 771 2063
3 1635 2263 2502
3 100 101 2220
3 1139 898 1140
3 2114 1343 2136
3 442 284 2063
3 1772 2106 2414
3 1985 1755 2533
3 2192 1328 2315
3 1064 863 2146
3 1631 1637 2459
3 736 2049 2523
3 221 1906 2246
3 318 1983 2171
3 1496 2047 2182
3 1374 2139 2506
3 196 55 2313
3 2087 462 2134
3 676 653 677
3 2304 257 2491
3 1401 2324 2363
3 829 677 830
3 654 2223 2242
3 1187 977 2112
3 1463 1466 2200
3 2023 219 2516
3 1176 881 2215
3 513 471 2290
3 1812 459 2252
3 1386 1269 2199
3 291 758 2306
3 618 616 2132
3 278 280 2210
3 83 220 2289
3 82 83 2289
3 938 1057 2161
3 1189 986 1190
3 788 719 2336
3 1914 2001 2206
3 232 181 1652
3 1567 2062 2490
3 313 757 2495
3 622 619 2484
3 688 878 1320
3 1222 1626 2111
3 282 442 2079
3 1169 2008 2105
3 1966 1007 2308
3 2040 799 2237
3 1744 2229 2495
3 986 833 1063
3 2284 1605 2510
3 887 1961 2376
3 215 1624 2262
3 830 831 832
3 476 475 2224
3 439 451 2223
3 1932 1933 2380
3 2227 1246 2366
3 1212 1202 2301
3 1107 1110 2228
3 249 2010 2299
3 1983 293 2306
3 2055 1214 2237
3 1438 1372 2478
3 824 560 2156
3 2320 1866 2513
3 1351 1137 2374
3 868 2007 2232
3 2063 771 2064
3 1507 214 1508
3 1728 1727 2246
3 1045 1047 2348
3 1139 1140 2096
3 1648 1649 2463
3 1502 2302 2519
3 704 707 2109
3 2343 1136 2396
3 650 1963 2206
3 2153 895 2257
3 396 1958 2431
3 1379 1377 2288
3 2115 1471 2319
3 2033 987 2202
3 2239 1693 2518
3 2025 1488 2355
3 1209 2115 2319
3 523 524 2156
3 783 939 2243
3 376 1798 2497
3 2066 788 2193
3 1984 318 2172
3 425 427 2221
3 203 172 1847
3 446 457 2264
3 1312 2089 2150
3 2138 1272 2211
3 897 1139 2274
3 828 1819 2429
3 1249 1224 2111
3 666 667 2318
3 1371 1326 2194
3 2433 1499 2475
3 1272 1271 2211
3 1367 2254 2479
3 1386 2053 2383
3 2074 1238 2227
3 755 2148 2320
3 2117 1604 2428
3 475 514 2224
3 228 2187 2457
3 1868 1504 2520
3 1626 1218 2185
3 2123 1111 2241
3 1287 1049 2331
3 1280 687 2109
3 459 1814 2292
3 54 196 2402
3 863 865 2146
3 204 176 1680
3 514 2086 2224
3 1646 603 2398
3 112 197 2346
3 358 300 2338
3 1140 898 1141
3 1204 1335 2301
3 1016 2161 2438
3 909 1041 2175
3 1681 2448 2492
3 2252 459 2292
3 1992 868 2232
3 1035 1036 2235
3 1051 1295 2331
3 1836 1289 2242
3 1508 214 1859
3 247 53 2402
3 1016 938 2161
3 1408 856 2378
3 1466 2158 2200
3 725 885 2336
3 855 1450 2421
3 2023 1768 2420
3 1238 1236 2227
3 1679 202 2253
3 2107 1348 2233
3 1653 1431 2487
3 1946 2291 2343
3 2253 202 2329
3 1885 1312 2150
3 378 628 2390
3 2195 1383 2432
3 1520 1519 2480
3 1532 1733 2534
3 308 327 2278
3 953 951 2255
3 1213 1407 2222
3 1561 1563 2285
3 302 763 2338
3 1928 2033 2202
3 763 304 2345
3 832 833 986
3 1352 2040 2237
3 247 1881 2481
3 560 523 2156
3 335 339 2261
3 346 342 2344
3 201 443 1323
3 2301 1335 2466
3 323 320 2229
3 1136 2110 2396
3 1139 1977 2274
3 1809 1615 2423
3 1707 1791 2334
3 46 2019 2485
3 2064 1294 2238
3 1950 197 2404
3 2021 2022 2176
3 1949 245 2420
3 2044 2152 2207
3 1063 1154 1707
3 1012 1363 2406
3 280 2079 2210
3 2237 1214 2351
3 820 698 2318
3 1140 1141 1406
3 205 2021 2176
3 2043 786 2310
3 2145 1004 2446
3 707 1030 2109
3 1406 2460 2473
3 2137 1268 2226
3 16 2081 2260
3 567 2031 2219
3 2112 1064 2248
3 206 45 2485
3 2347 1462 2365
3 1650 1962 2362
3 453 425 2221
3 1209 907 2175
3 1111 1276 2241
3 2448 1145 2492
3 2051 2083 2243
3 59 60 2266
3 1402 1742 2530
3 831 677 2209
3 624 587 2276
3 238 174 1725
3 1011 2107 2233
3 468 2365 2412
3 2337 805 2371
3 254 1932 2380
3 1174 1398 2207
3 2140 111 2346
3 1381 2186 2283
3 1987 2037 2188
3 1740 559 2456
3 1773 391 2503
3 1335 1870 2249
3 1945 2257 2291
3 828 463 2411
3 1246 2088 2208
3 2060 798 2307
3 1773 1159 2240
3 1187 2112 2248
3 1352 2237 2351
3 2037 1322 2188
3 1941 1499 2433
3 2322 225 2510
3 1031 1034 2236
3 327 2188 2321
3 595 2032 2273
3 1464 1462 2347
3 1285 1992 2232
3 799 2055 2237
3 443 278 2210
3 784 874 2178
3 392 396 2431
3 191 95 2309
3 879 784 2178
3 524 511 2429
3 2128 2011 2270
3 895 896 2257
3 2206 1152 2324
3 318 2171 2172
3 2259 1549 2379
3 1214 1410 2351
3 306 308 2278
3 2022 251 2247
3 1757 1729 2309
3 1283 1918 2524
3 996 1706 2492
3 557 2044 2207
3 1798 1448 2364
3 1447 2250 2310
3 559 1750 2403
3 1363 1011 2233
3 1343 1168 2187
3 1407 2044 2256
3 1462 1460 2365
3 1995 2331 2458
3 327 1987 2188
3 2160 254 2380
3 1681 958 2287
3 2031 1160 2250
3 1600 689 2413
3 2219 1692 2239
3 1494 1675 2522
3 1281 1916 2448
3 907 909 2175
3 565 2167 2276
3 2241 1276 2275
3 1978 316 2443
3 2151 212 2350
3 203 1847 2104
3 2049 1481 2523
3 1961 1362 2376
3 2187 1393 2457
3 940 796 2532
3 2293 1349 2329
3 572 1897 2537
3 332 739 2282
3 2052 567 2239
3 1437 1370 2277
3 567 2219 2239
3 667 626 2452
3 1914 2206 2324
3 2243 939 2392
3 2136 1343 2187
3 257 1654 2530
3 1376 1378 2283
3 2076 1982 2272
3 2083 760 2243
3 1944 1945 2291
3 1771 1839 2359
3 1404 1403 2399
3 1875 1866 2320
3 1460 1337 2412
3 760 783 2243
3 1276 1366 2275
3 1428 2227 2366
3 1882 1605 2284
3 1739 1429 2459
3 2321 2188 2434
3 1328 1327 2315
3 798 2189 2307
3 2152 1174 2207
3 2182 1247 2323
3 1516 1514 2367
3 293 291 2306
3 556 537 2201
3 1298 1300 2314
3 1400 1399 2316
3 1649 2236 2463
3 833 831 2424
3 2127 2050 2333
3 1057 914 2328
3 1839 193 2359
3 761 1741 2258
3 1186 1970 2422
3 1429 2366 2382
3 2211 1271 2271
3 1733 1248 2534
3 13 2114 2136
3 2078 390 2431
3 1533 1536 2340
3 1690 2145 2446
3 1277 2308 2370
3 1168 1393 2187
3 1597 2047 2268
3 587 565 2276
3 1908 244 2401
3 225 125 2284
3 610 2130 2468
3 1749 2105 2326
3 1913 1914 2324
3 2366 2208 2382
3 1391 1876 2295
3 457 552 2264
3 653 688 2209
3 1601 2443 2514
3 682 2138 2211
3 992 1980 2244
3 55 56 2313
3 1645 1495 2493
3 473 477 2483
3 202 1724 2329
3 465 828 2429
3 1277 1966 2308
3 1416 2330 2406
3 1912 1364 2455
3 1716 1483 2375
3 2019 1651 2485
3 1725 2137 2226
3 201 1323 2216
3 878 1083 2213
3 2072 2073 2245
3 1563 1777 2405
3 244 2028 2401
3 2016 1564 2422
3 1682 1497 2461
3 1962 1153 2362
3 1298 2314 2358
3 1384 1385 2391
3 688 1320 2209
3 1587 2179 2435
3 786 380 2497
3 1395 1522 2341
3 2032 1919 2273
3 251 2013 2247
3 2219 2031 2250
3 2397 552 2453
3 1765 255 2489
3 2475 1825 2524
3 1202 1204 2301
3 445 2078 2411
3 323 2229 2296
3 1286 2384 2408
3 537 551 2201
3 1724 237 2293
3 84 85 2335
3 1471 1126 2319
3 1635 1634 2511
3 300 302 2338
3 698 666 2318
3 1030 1031 2236
3 2098 1457 2271
3 696 1821 2426
3 1457 1492 2447
3 1956 2336 2469
3 331 323 2296
3 1284 1491 2342
3 2011 1996 2270
3 256 183 2303
3 160 257 2304
3 2204 1589 2501
3 1891 1014 2280
3 719 725 2336
3 1354 1808 2381
3 437 430 2494
3 2377 218 2391
3 2211 2271 2447
3 1407 2256 2290
3 2365 1460 2412
3 2047 1498 2268
3 1825 1283 2524
3 1499 1825 2475
3 1226 1249 2281
3 2051 2243 2392
3 2250 1160 2310
3 111 112 2346
3 304 306 2345
3 1341 1352 2351
3 2166 191 2504
3 2223 1836 2242
3 1996 247 2481
3 1049 1051 2331
3 1086 1298 2358
3 2130 595 2273
3 1249 2111 2263
3 680 1995 2458
3 1511 2140 2346
3 102 103 2355
3 469 473 2453
3 961 2072 2245
3 2073 1282 2245
3 1442 1443 2525
3 74 192 2361
3 2163 1586 2435
3 1519 1518 2449
3 897 2274 2500
3 303 444 2317
3 1615 1614 2423
3 197 2009 2404
3 1634 2281 2511
3 1780 1781 2419
3 1435 1623 2465
3 1286 1774 2384
3 384 361 2339
3 193 1901 2359
3 1165 2433 2475
3 2277 1370 2386
3 677 653 2209
3 1994 1516 2367
3 1479 1478 2440
3 1165 1512 2433
3 1644 1353 2417
3 1711 1712 2353
3 2193 1615 2425
3 1613 1956 2469
3 1440 1173 2330
3 2269 1479 2440
3 222 2218 2465
3 391 389 2503
3 306 2278 2345
3 468 2090 2365
3 221 2246 2526
3 1445 1446 2504
3 939 1844 2392
3 86 87 2373
3 1429 1428 2366
3 2053 2103 2383
3 1348 1212 2312
3 805 750 2371
3 997 1286 2408
3 1152 869 2363
3 2063 2064 2238
3 192 1994 2367
3 1160 2043 2310
3 1926 2151 2350
3 2059 2098 2271
3 1897 1366 2537
3 215 2262 2437
3 1655 1732 2476
3 2415 1128 2454
3 1320 2213 2214
3 7 258 2357
3 259 155 2356
3 2171 1530 2172
3 347 351 2407
3 1077 1078 2343
3 239 2003 2279
3 1446 1128 2415
3 1034 1033 2410
3 601 627 2442
3 1154 1653 2234
3 397 2060 2405
3 2142 794 2272
3 442 2063 2238
3 1863 1215 2378
3 794 2076 2272
3 1883 1375 2505
3 1320 878 2213
3 342 468 2344
3 1903 218 2377
3 380 376 2497
3 1549 1547 2379
3 1148 1165 2475
3 2157 226 2507
3 829 972 2326
3 884 1957 2466
3 2291 1077 2343
3 65 66 2395
3 787 2052 2518
3 2298 1348 2312
3 1946 2343 2396
3 1653 256 2535
3 1842 1548 2472
3 1957 2301 2466
3 1366 1277 2370
3 2213 1432 2214
3 961 2245 2383
3 218 2093 2391
3 1376 2283 2421
3 1873 2127 2333
3 1019 1021 2512
3 1128 1127 2454
3 1104 1434 2450
3 2130 1439 2468
3 2396 2110 2482
3 2186 855 2283
3 1724 2293 2329
3 1163 1059 2372
3 1614 2389 2423
3 53 54 2402
3 1063 1707 2334
3 2283 855 2421
3 1385 1863 2436
3 364 1883 2505
3 517 1890 2387
3 1145 996 2492
3 1047 1287 2348
3 2148 1875 2320
3 205 2176 2416
3 1372 1844 2478
3 1211 2219 2250
3 1141 898 2368
3 245 1909 2420
3 2278 327 2321
3 2389 1397 2423
3 2256 513 2290
3 559 2403 2456
3 1137 1340 2374
3 2093 1384 2391
3 1918 1148 2524
3 1030 2236 2427
3 1867 1895 2513
3 2014 517 2387
3 2271 1457 2447
3 1143 2028 2353
3 1904 194 2432
3 1148 2475 2524
3 1574 1523 2436
3 2213 1083 2311
3 1997 358 2325
3 2139 246 2506
3 1370 1369 2386
3 1271 2059 2271
3 1034 2173 2463
3 1123 1412 2393
3 1578 1827 2515
3 2209 1320 2424
3 2079 1504 2210
3 1361 2168 2305
3 1491 1489 2403
3 238 1725 2226
3 1190 986 2334
3 1547 1545 2508
3 1891 1613 2469
3 1153 1885 2362
3 2208 1632 2382
3 2287 1281 2448
3 1356 1376 2421
3 1965 2349 2515
3 2155 1186 2422
3 1522 2014 2387
3 2158 1468 2323
3 2050 954 2333
3 1397 1809 2423
3 1362 1360 2376
3 1852 1985 2397
3 2069 1691 2446
3 789 2066 2425
3 1895 755 2513
3 1707 1154 2234
3 372 374 2430
3 2225 787 2518
3 2028 1206 2401
3 986 1063 2334
3 1912 726 2439
3 1340 1342 2400
3 1916 1145 2448
3 2236 1649 2427
3 2374 1340 2400
3 2222 1407 2290
3 2324 1152 2363
3 241 2220 2472
3 765 2190 2384
3 2375 667 2452
3 2330 1173 2406
3 1181 1972 2500
3 2126 1382 2388
3 1173 1012 2406
3 315 313 2495
3 1015 1373 2385
3 97 221 2526
3 1937 1397 2389
3 930 1061 2462
3 971 1096 2496
3 45 46 2485
3 669 791 2529
3 1104 2450 2521
3 382 378 2390
3 2191 1371 2536
3 2235 1036 2286
3 831 2209 2424
3 762 1997 2349
3 2379 1547 2508
3 2177 1359 2467
3 2403 1489 2456
3 796 785 2532
3 219 1902 2516
3 1519 2300 2480
3 1065 1655 2476
3 1375 1473 2505
3 1489 1490 2456
3 390 392 2431
3 2247 2013 2464
3 1135 1930 2369
3 2278 1583 2345
3 626 622 2452
3 631 2298 2312
3 2233 1348 2298
3 1398 1974 2499
3 1706 1681 2492
3 261 130 2444
3 32 260 2445
3 822 2099 2368
3 1365 1912 2439
3 941 940 2418
3 1446 2166 2504
3 2106 1121 2414
3 2300 1519 2449
3 1803 1104 2521
3 1732 1570 2476
3 1413 2051 2392
3 2122 1946 2396
3 2238 1868 2520
3 477 556 2483
3 2397 1985 2533
3 463 445 2411
3 2163 1185 2488
3 1126 2141 2319
3 1755 2264 2533
3 972 2204 2501
3 2230 1533 2340
3 1774 1773 2503
3 1997 2325 2349
3 1004 2069 2446
3 2159 31 2445
3 131 2160 2444
3 1371 2191 2451
3 1001 2154 2486
3 1682 2230 2340
3 2103 961 2383
3 1033 1151 2410
3 382 2390 2531
3 1504 2079 2520
3 1583 2278 2321
3 511 465 2429
3 250 2024 2479
3 2208 2088 2509
3 619 620 2484
3 1246 2208 2366
3 2141 1209 2319
3 1359 1413 2467
3 1295 1459 2458
3 2218 1435 2465
3 2281 1249 2511
3 2293 237 2354
3 2207 1398 2499
3 1564 2155 2422
3 552 469 2453
3 1947 224 2498
3 2062 1568 2490
3 2018 205 2416
3 260 2159 2445
3 2160 261 2444
3 2092 610 2468
3 194 2195 2432
3 1432 2213 2311
3 211 2251 2464
3 2378 856 2527
3 1536 1532 2534
3 2364 786 2497
3 2438 1438 2478
3 1185 1948 2488
3 2042 941 2418
3 1582 2321 2434
3 885 1891 2469
3 1364 2048 2455
3 1693 2225 2518
3 401 382 2531
3 1338 2247 2464
3 442 2238 2520
3 1292 2117 2428
3 2274 1350 2500
3 2066 2193 2425
3 2179 1184 2435
3 898 822 2368
3 2436 1863 2527
3 1844 1016 2478
3 2184 1001 2486
3 557 2207 2499
3 2013 211 2464
3 2254 250 2479
3 1350 1181 2500
3 2009 248 2470
3 246 2140 2506
3 1574 2436 2527
3 2139 1419 2517
3 316 1971 2514
3 1319 2122 2482
3 226 2006 2507
3 1400 2270 2481
3 1681 2287 2448
3 2325 1578 2349
3 232 1652 2487
3 1320 2214 2424
3 1632 2208 2509
3 248 2288 2470
3 1406 1141 2460
3 2188 1322 2434
3 2244 1980 2441
3 2088 1255 2509
3 1280 2109 2427
3 2060 2307 2405
3 2236 1034 2463
3 1745 2293 2354
3 2122 2396 2482
3 2109 1030 2427
3 2307 1563 2405
3 1429 2382 2459
3 224 2267 2498
3 682 2211 2447
3 2079 442 2520
3 2348 1287 2398
3 2220 1842 2472
3 1335 2249 2466
3 1249 2263 2511
3 443 2210 2519
3 2385 1373 2394
3 1594 2184 2486
3 2052 2239 2518
3 1568 2439 2490
3 2349 1578 2515
3 2344 468 2412
3 2270 1996 2481
3 1735 2244 2441
3 2260 1471 2477
3 2210 1504 2519
3 1434 2297 2450
3 2297 1419 2450
3 2263 1660 2502
3 2404 2009 2470
3 1718 2385 2394
3 1371 2194 2536
3 2317 444 2461
3 1443 2322 2525
3 1716 2375 2452
3 1863 2378 2527
3 2439 726 2490
3 1057 2328 2451
3 1638 2404 2470
3 1454 2234 2535
3 755 2320 2513
3 2234 1653 2535
3 2264 552 2533
3 1419 2297 2517
3 1392 2322 2510
3 552 2397 2533
3 1798 2364 2497
3 2322 1392 2525
3 2382 1631 2459
3 1016 2438 2478
3 1366 2370 2537
3 1742 2491 2530
3 2491 257 2530
CELL_TYPES 4886
5
5
5
5
5
5
5
5
5
5
5
5
5
5
5
5
5
5
5
5
5
5
5
5
5
5
5
5
5
5
5
5
5
5
5
5
5
5
5
5
5
5
5
5
5
5
5
5
5
5
5
5
5
5
5
5
5
5
5
5
5
5
5
5
5
5
5
5
5
5
5
5
5
5
5
5
5
5
5
5
5
5
5
5
5
5
5
5
5
5
5
5
5
5
5
5
5
5
5
5
5
5
5
5
5
5
5
5
5
5
5
5
5
5
5
5
5
5
5
5
5
5
5
5
5
5
5
5
5
5
5
5
5
5
5
5
5
5
5
5
5
5
5
5
5
5
5
5
5
5
5
5
5
5
5
5
5
5
5
5
5
5
5
5
5
5
5
5
5
5
5
5
5
5
5
5
5
5
5
5
5
5
5
5
5
5
5
5
5
5
5
5
5
5
5
5
5
5
5
5
5
5
5
5
5
5
5
5
5
5
5
5
5
5
5
5
5
5
5
5
5
5
5
5
5
5
5
5
5
5
5
5
5
5
5
5
5
5
5
5
5
5
5
5
5
5
5
5
5
5
5
5
5
5
5
5
5
5
5
5
5
5
5
5
5
5
5
5
5
5
5
5
5
5
5
5
5
5
5
5
5
5
5
5
5
5
5
5
5
5
5
5
5
5
5
5
5
5
5
5
5
5
5
5
5
5
5
5
5
5
5
5
5
5
5
5
5
5
5
5
5
5
5
5
5
5
5
5
5
5
5
5
5
5
5
5
5
5
5
5
5
5
5
5
5
5
5
5
5
5
5
5
5
5
5
5
5
5
5
5
5
5
5
5
5
5
5
5
5
5
5
5
5
5
5
5
5
5
5
5
5
5
5
5
5
5
5
5
5
5
5
5
5
5
5
5
5
5
5
5
5
5
5
5
5
5
5
5
5
5
5
5
5
5
5
5
5
5
5
5
5
5
5
5
5
5
5
5
5
5
5
5
5
5
5
5
5
5
5
5
5
5
5
5
5
5
5
5
5
5
5
5
5
5
5
5
5
5
5
5
5
5
5
5
5
5
5
5
5
5
5
5
5
5
5
5
5
5
5
5
5
5
5
5
5
5
5
5
5
5
5
5
5
5
5
5
5
5
5
5
5
5
5
5
5
5
5
5
5
5
5
5
5
5
5
5
5
5
5
5
5
5
5
5
5
5
5
5
5
5
5
5
5
5
5
5
5
5
5
5
5
5
5
5
5
5
5
5
5
5
5
5
5
5
5
5
5
5
5
5
5
5
5
5
5
5
5
5
5
5
5
5
5
5
5
5
5
5
5
5
5
5
5
5
5
5
5
5
5
5
5
5
5
5
5
5
5
5
5
5
5
5
5
5
5
5
5
5
5
5
5
5
5
5
5
5
5
5
5
5
5
5
5
5
5
5
5
5
5
5
5
5
5
5
5
5
5
5
5
5
5
5
5
5
5
5
5
5
5
5
5
5
5
5
5
5
5
5
5
5
5
5
5
5
5
5
5
5
5
5
5
5
5
5
5
5
5
5
5
5
5
5
5
5
5
5
5
5
5
5
5
5
5
5
5
5
5
5
5
5
5
5
5
5
5
5
5
5
5
5
5
5
5
5
5
5
5
5
5
5
5
5
5
5
5
5
5
5
5
5
5
5
5
5
5
5
5
5
5
5
5
5
5
5
5
5
5
5
5
5
5
5
5
5
5
5
5
5
5
5
5
5
5
5
5
5
5
5
5
5
5
5
5
5
5
5
5
5
5
5
5
5
5
5
5
5
5
5
5
5
5
5
5
5
5
5
5
5
5
5
5
5
5
5
5
5
5
5
5
5
5
5
5
5
5
5
5
5
5
5
5
5
5
5
5
5
5
5
5
5
5
5
5
5
5
5
5
5
5
5
5
5
5
5
5
5
5
5
5
5
5
5
5
5
5
5
5
5
5
5
5
5
5
5
5
5
5
5
5
5
5
5
5
5
5
5
5
5
5
5
5
5
5
5
5
5
5
5
5
5
5
5
5
5
5
5
5
5
5
5
5
5
5
5
5
5
5
5
5
5
5
5
5
5
5
5
5
5
5
5
5
5
5
5
5
5
5
5
5
5
5
5
5
5
5
5
5
5
5
5
5
5
5
5
5
5
5
5
5
5
5
5
5
5
5
5
5
5
5
5
5
5
5
5
5
5
5
5
5
5
5
5
5
5
5
5
5
5
5
5
5
5
5
5
5
5
5
5
5
5
5
5
5
5
5
5
5
5
5
5
5
5
5
5
5
5
5
5
5
5
5
5
5
5
5
5
5
5
5
5
5
5
5
5
5
5
5
5
5
5
5
5
5
5
5
5
5
5
5
5
5
5
5
5
5
5
5
5
5
5
5
5
5
5
5
5
5
5
5
5
5
5
5
5
5
5
5
5
5
5
5
5
5
5
5
5
5
5
5
5
5
5
5
5
5
5
5
5
5
5
5
5
5
5
5
5
5
5
5
5
5
5
5
5
5
5
5
5
5
5
5
5
5
5
5
5
5
5
5
5
5
5
5
5
5
5
5
5
5
5
5
5
5
5
5
5
5
5
5
5
5
5
5
5
5
5
5
5
5
5
5
5
5
5
5
5
5
5
5
5
5
5
5
5
5
5
5
5
5
5
5
5
5
5
5
5
5
5
5
5
5
5
5
5
5
5
5
5
5
5
5
5
5
5
5
5
5
5
5
5
5
5
5
5
5
5
5
5
5
5
5
5
5
5
5
5
5
5
5
5
5
5
5
5
5
5
5
5
5
5
5
5
5
5
5
5
5
5
5
5
5
5
5
5
5
5
5
5
5
5
5
5
5
5
5
5
5
5
5
5
5
5
5
5
5
5
5
5
5
5
5
5
5
5
5
5
5
5
5
5
5
5
5
5
5
5
5
5
5
5
5
5
5
5
5
5
5
5
5
5
5
5
5
5
5
5
5
5
5
5
5
5
5
5
5
5
5
5
5
5
5
5
5
5
5
5
5
5
5
5
5
5
5
5
5
5
5
5
5
5
5
5
5
5
5
5
5
5
5
5
5
5
5
5
5
5
5
5
5
5
5
5
5
5
5
5
5
5
5
5
5
5
5
5
5
5
5
5
5
5
5
5
5
5
5
5
5
5
5
5
5
5
5
5
5
5
5
5
5
5
5
5
5
5
5
5
5
5
5
5
5
5
5
5
5
5
5
5
5
5
5
5
5
5
5
5
5
5
5
5
5
5
5
5
5
5
5
5
5
5
5
5
5
5
5
5
5
5
5
5
5
5
5
5
5
5
5
5
5
5
5
5
5
5
5
5
5
5
5
5
5
5
5
5
5
5
5
5
5
5
5
5
5
5
5
5
5
5
5
5
5
5
5
5
5
5
5
5
5
5
5
5
5
5
5
5
5
5
5
5
5
5
5
5
5
5
5
5
5
5
5
5
5
5
5
5
5
5
5
5
5
5
5
5
5
5
5
5
5
5
5
5
5
5
5
5
5
5
5
5
5
5
5
5
5
5
5
5
5
5
5
5
5
5
5
5
5
5
5
5
5
5
5
5
5
5
5
5
5
5
5
5
5
5
5
5
5
5
5
5
5
5
5
5
5
5
5
5
5
5
5
5
5
5
5
5
5
5
5
5
5
5
5
5
5
5
5
5
5
5
5
5
5
5
5
5
5
5
5
5
5
5
5
5
5
5
5
5
5
5
5
5
5
5
5
5
5
5
5
5
5
5
5
5
5
5
5
5
5
5
5
5
5
5
5
5
5
5
5
5
5
5
5
5
5
5
5
5
5
5
5
5
5
5
5
5
5
5
5
5
5
5
5
5
5
5
5
5
5
5
5
5
5
5
5
5
5
5
5
5
5
5
5
5
5
5
5
5
5
5
5
5
5
5
5
5
5
5
5
5
5
5
5
5
5
5
5
5
5
5
5
5
5
5
5
5
5
5
5
5
5
5
5
5
5
5
5
5
5
5
5
5
5
5
5
5
5
5
5
5
5
5
5
5
5
5
5
5
5
5
5
5
5
5
5
5
5
5
5
5
5
5
5
5
5
5
5
5
5
5
5
5
5
5
5
5
5
5
5
5
5
5
5
5
5
5
5
5
5
5
5
5
5
5
5
5
5
5
5
5
5
5
5
5
5
5
5
5
5
5
5
5
5
5
5
5
5
5
5
5
5
5
5
5
5
5
5
5
5
5
5
5
5
5
5
5
5
5
5
5
5
5
5
5
5
5
5
5
5
5
5
5
5
5
5
5
5
5
5
5
5
5
5
5
5
5
5
5
5
5
5
5
5
5
5
5
5
5
5
5
5
5
5
5
5
5
5
5
5
5
5
5
5
5
5
5
5
5
5
5
5
5
5
5
5
5
5
5
5
5
5
5
5
5
5
5
5
5
5
5
5
5
5
5
5
5
5
5
5
5
5
5
5
5
5
5
5
5
5
5
5
5
5
5
5
5
5
5
5
5
5
5
5
5
5
5
5
5
5
5
5
5
5
5
5
5
5
5
5
5
5
5
5
5
5
5
5
5
5
5
5
5
5
5
5
5
5
5
5
5
5
5
5
5
5
5
5
5
5
5
5
5
5
5
5
5
5
5
5
5
5
5
5
5
5
5
5
5
5
5
5
5
5
5
5
5
5
5
5
5
5
5
5
5
5
5
5
5
5
5
5
5
5
5
5
5
5
5
5
5
5
5
5
5
5
5
5
5
5
5
5
5
5
5
5
5
5
5
5
5
5
5
5
5
5
5
5
5
5
5
5
5
5
5
5
5
5
5
5
5
5
5
5
5
5
5
5
5
5
5
5
5
5
5
5
5
5
5
5
5
5
5
5
5
5
5
5
5
5
5
5
5
5
5
5
5
5
5
5
5
5
5
5
5
5
5
5
5
5
5
5
5
5
5
5
5
5
5
5
5
5
5
5
5
5
5
5
5
5
5
5
5
5
5
5
5
5
5
5
5
5
5
5
5
5
5
5
5
5
5
5
5
5
5
5
5
5
5
5
5
5
5
5
5
5
5
5
5
5
5
5
5
5
5
5
5
5
5
5
5
5
5
5
5
5
5
5
5
5
5
5
5
5
5
5
5
5
5
5
5
5
5
5
5
5
5
5
5
5
5
5
5
5
5
5
5
5
5
5
5
5
5
5
5
5
5
5
5
5
5
5
5
5
5
5
5
5
5
5
5
5
5
5
5
5
5
5
5
5
5
5
5
5
5
5
5
5
5
5
5
5
5
5
5
5
5
5
5
5
5
5
5
5
5
5
5
5
5
5
5
5
5
5
5
5
5
5
5
5
5
5
5
5
5
5
5
5
5
5
5
5
5
5
5
5
5
5
5
5
5
5
5
5
5
5
5
5
5
5
5
5
5
5
5
5
5
5
5
5
5
5
5
5
5
5
5
5
5
5
5
5
5
5
5
5
5
5
5
5
5
5
5
5
5
5
5
5
5
5
5
5
5
5
5
5
5
5
5
5
5
5
5
5
5
5
5
5
5
5
5
5
5
5
5
5
5
5
5
5
5
5
5
5
5
5
5
5
5
5
5
5
5
5
5
5
5
5
5
5
5
5
5
5
5
5
5
5
5
5
5
5
5
5
5
5
5
5
5
5
5
5
5
5
5
5
5
5
5
5
5
5
5
5
5
5
5
5
5
5
5
5
5
5
5
5
5
5
5
5
5
5
5
5
5
5
5
5
5
5
5
5
5
5
5
5
5
5
5
5
5
5
5
5
5
5
5
5
5
5
5
5
5
5
5
5
5
5
5
5
5
5
5
5
5
5
5
5
5
5
5
5
5
5
5
5
5
5
5
5
5
5
5
5
5
5
5
5
5
5
5
5
5
5
5
5
5
5
5
5
5
5
5
5
5
5
5
5
5
5
5
5
5
5
5
5
5
5
5
5
5
5
5
5
5
5
5
5
5
5
5
5
5
5
5
5
5
5
5
5
5
5
5
5
5
5
5
5
5
5
5
5
5
5
5
5
5
5
5
5
5
5
5
5
5
5
5
5
5
5
5
5
5
5
5
5
5
5
5
5
5
5
5
5
5
5
5
5
5
5
5
5
5
5
5
5
5
5
5
5
5
5
5
5
5
5
5
5
5
5
5
5
5
5
5
5
5
5
5
5
5
5
5
5
5
5
5
5
5
5
5
5
5
5
5
5
5
5
5
5
5
5
5
5
5
5
5
5
5
5
5
5
5
5
5
5
5
5
5
5
5
5
5
5
5
5
5
5
5
5
5
5
5
5
5
5
5
5
5
5
5
5
5
5
5
5
5
5
5
5
5
5
5
5
5
5
5
5
5
5
5
5
5
5
5
5
5
5
5
5
5
5
5
5
5
5
5
5
5
5
5
5
5
5
5
5
5
5
5
5
5
5
5
5
5
5
5
5
5
5
5
5
5
5
5
5
5
5
5
5
5
5
5
5
5
5
5
5
5
5
5
5
5
5
5
5
5
5
5
5
5
5
5
5
5
5
5
5
5
5
5
5
5
5
5
5
5
5
5
5
5
5
5
5
5
5
5
5
5
5
5
5
5
5
5
5
5
5
5
5
5
5
5
5
5
5
5
5
5
5
5
5
5
5
5
5
5
5
5
5
5
5
5
5
5
5
5
5
5
5
5
5
5
5
5
5
5
5
5
5
5
5
5
5
5
5
5
5
5
5
5
5
5
5
5
5
5
5
5
5
5
5
5
5
5
5
5
5
5
5
5
5
5
5
5
5
5
5
5
5
5
5
5
5
5
5
5
5
5
5
5
5
5
5
5
5
5
5
5
5
5
5
5
5
5
5
5
5
5
5
5
5
5
5
5
5
5
5
5
5
5
5
5
5
5
5
5
5
5
5
5
5
5
5
5
5
5
5
5
5
5
5
5
5
5
5
5
5
5
5
5
5
5
5
5
5
5
5
5
5
5
5
5
5
5
5
5
5
5
5
5
5
5
5
5
5
5
5
5
5
5
5
5
5
5
5
5
5
5
5
5
5
5
5
5
5
5
5
5
5
5
5
5
5
5
5
5
5
5
5
5
5
5
5
5
5
5
5
5
5
5
5
5
5
5
5
5
5
5
5
5
5
5
5
5
5
5
5
5
5
5
5
5
5
5
5
5
5
5
5
5
5
5
5
5
5
5
5
5
5
5
5
5
5
5
5
5
5
5
5
5
5
5
5
5
5
5
5
5
5
5
5
5
5
5
5
5
5
5
5
5
5
5
5
5
5
5
5
5
5
5
5
5
5
5
5
5
5
5
5
5
5
5
5
5
5
5
5
5
5
5
5
5
5
5
5
5
5
5
5
5
5
5
5
5
5
5
5
5
5
5
5
5
5
5
5
5
5
5
5
5
5
5
5
5
5
5
5
5
5
5
5
5
5
5
5
5
5
5
5
5
5
5
5
5
5
5
5
5
5
5
5
5
5
5
5
5
5
5
5
5
5
5
5
5
5
5
5
5
5
5
5
5
5
5
5
5
5
5
5
5
5
5
5
5
5
5
5
5
5
5
5
5
5
5
5
5
5
5
5
5
5
5
5
5
5
5
5
5
5
5
5
5
5
5
5
5
5
5
5
5
5
5
5
5
5
5
5
5
5
5
5
5
5
5
5
5
5
5
5
5
5
5
5
5
5
5
5
5
5
5
5
5
5
5
5
5
5
5
5
5
5
5
5
5
5
5
5
5
5
5
5
5
5
5
5
5
5
5
5
5
5
5
5
5
5
5
5
5
5
5
5
5
5
5
5
5
5
5
5
5
5
5
5
5
5
5
5
5
5
5
5
5
5
5
5
5
5
5
5
5
5
5
5
5
5
5
5
5
5
5
5
5
5
5
5
5
5
5
5
5
5
5
5
5
5
5
5
5
5
5
5
5
5
5
5
5
5
5
5
5
5
5
5
5
5
5
5
5
5
5
5
5
5
5
5
5
5
5
5
5
5
5
5
5
5
5
5
5
5
5
5
5
5
5
5
5
5
5
5
5
5
5
5
5
5
5
5
5
5
5
5
5
5
5
5
5
5
5
5
5
5
5
5
5
5
5
5
5
5
5
5
5
5
5
5
5
5
5
5
5
5
5
5
5
5
5
5
5
5
5
5
5
5
5
5
5
5
5
5
5
5
5
5
5
5
5
5
5
5
5
5
5
5
5
5
5
5
5
5
5
5
5
5
5
5
5
5
5
5
5
5
5
5
5
5
5
5
5
5
5
5
5
5
5
5
5
5
5
5
5
5
5
5
5
5
5
5
5
5
5
5
5
5
5
5
5
5
5
5
5
5
5
5
5
5
5
5
5
5
5
5
5
5
5
5
5
5
5
5
5
5
5
5
5
5
5
5
5
5
5
5
5
5
5
5
5
5
5
5
5
5
5
5
5
5
5
5
5
5
5
5
5
5
5
5
5
5
5
5
5
5
5
5
5
5
5
5
5
5
5
5
5
5
5
5
5
5
5
5
5
5
5
5
5
5
5
5
5
5
5
5
5
5
5
5
5
5
5
5
5
5
5
5
5
5
5
5
5
5
5
5
5
5
5
5
5
5
5
5
5
5
5
5
5
5
5
5
5
5
5
5
5
5
5
5
5
5
5
5
5
5
5
5
5
5
5
5
5
5
5
5
5
5
5
5
5
5
5
5
5
5
5
5
5
5
5
5
5
5
5
5
5
5
5
5
5
5
5
5
5
5
5
5
5
5
5
5
5
5
5
5
5
5
5
5
5
5
5
5
5
5
5
5
5
5
5
5
5
5
5
5
5
5
5
5
5
5
5
5
5
5
5
5
5
5
5
5
5
5
5
5
5
5
5
5
5
5
5
5
5
5
5
5
5
5
5
5
5
5
5
5
5
5
5
5
5
5
5
5
5
5
5
5
5
5
5
5
5
5
5
5
5
5
5
5
5
5
5
5
5
5
5
5
5
5
5
5
5
5
5
5
5
5
5
5
5
5
5
5
5
5
5
5
5
5
5
5
5
5
5
5
5
5
5
5
5
5
5
5
5
5
5
5
5
5
5
5
5
5
5
5
5
5
5
5
5
5
5
5
5
5
5
5
5
5
5
5
5
5
5
5
5
5
5
5
5
5
5
5
5
5
5
5
5
5
5
5
5
5
5
5
5
5
5
5
5
5
5
5
5
5
5
5
5
5
5
5
5
5
5
5
5
5
5
5
5
5
5
5
5
5
5
5
5
5
5
5
5
5
5
5
5
5
5
5
5
5
5
5
5
5
5
5
5
5
5
5
5
5
5
5
5
5
5
5
5
5
5
5
5
5
5
5
5
5
5
5
5
5
5
5
5
5
5
5
5
5
5
5
5
5
5
5
5
5
5
5
5
5
5
5
5
5
5
5
5
5
5
5
5
5
5
5
5
5
5
5
5
5
5
5
5
5
5
5
5
5
5
5
5
5
5
5
5
5
5
5
5
5
5
5
5
5
5
5
5
5
5
5
5
5
5
5
5
5
5
5
5
5
5
5
5
5
5
5
5
5
5
5
5
5
5
5
5
5
5
5
5
5
5
5
5
5
5
5
5
5
5
5
5
5
5
5
5
5
5
5
5
5
5
5
5
5
5
5
5
5
5
5
5
5
5
5
5
5
5
5
5
5
5
5
5
5
5
5
5
5
5
5
5
5
5
5
5
5
5
5
5
5
5
5
5
5
5
5
5
5
5
5
5
5
5
5
5
5
5
5
5
5
5
5
5
5
5
5
5
5
5
5
5
5
5
5
5
5
5
5
5
5
5
5
5
5
5
5
5
5
5
5
5
5
5
5
5
5
5
5
5
5
5
5
5
5
5
5
5
5
5
5
5
5
5
5
5
5
5
5
5
5
5
5
5
5
5
5
5
5
5
5
5
5
5
5
5
5
5
5
5
5
5
5
5
5
5
5
5
5
5
5
5
5
5
5
5
5
5
5
5
5
5
5
5
5
5
5
5
5
5
5
5
5
5
5
5
5
5
5
5
5
5
5
5
5
5
5
5
5
5
5
5
5
5
5
5
5
5
5
5
5
5
5
5
5
5
5
5
5
5
5
5
5
5
5
5
5
5
5
5
5
5
5
5
5
5
5
5
5
5
5
5
5
5
5
5
5
5
5
5
5
5
5
5
5
5
5
5
5
5
5
5
5
5
5
5
5
5
5
5
5
5
5
5
5
5
5
5
5
5
5
5
5
5
5
5
5
5
5
5
5
5
5
5
5
5
5
5
5
5
5
5
5
5
5
5
5
5
5
5
5
5
5
5
5
5
5
5
5
5
5
5
5
5
5
5
5
5
5
5
5
5
5
5
5
5
5
5
5
5
5
5
5
5
5
5
5
5
5
5
5
5
5
5
5
5
5
5
5
5
5
5
5
5
5
5
5
5
5
5
5
5
5
5
5
5
5
5
5
5
5
5
5
5
5
5
5
5
5
5
5
5
5
5
5
5
5
5
5
5
5
5
5
5
5
5
5
5
5
5
5
5
5
5
5
5
5
5
5
5
5
5
5
5
5
5
5
5
5
5
5
5
5
5
5
5
5
5
5
5
5
5
5
5
5
5
5
5
5
5
5
5
5
5
5
5
5
5
5
5
5
5
5
5
5
5
5
5
5
5
5
5
5
5
5
5
5
5
5
5
5
5
5
5
5
5
5
5
5
5
5
5
5
5
5
5
5
5
5
5
5
5
5
5
5
5
5
5
5
5
5
5
5
5
5
5
5
5
5
5
5
5
5
5
5
5
5
5
5
5
5
5
5
5
5
5
5
5
5
5
5
5
5
5
5
5
5
5
5
5
5
5
5
5
5
5
5
5
5
5
5
5
5
5
5
5
5
5
5
5
5
5
5
5
5
5
5
5
5
5
5
5
5
5
5
5
5
5
5
5
5
5
5
5
5
5
5
5
5
5
5
5
5
5
5
5
5
5
5
5
5
5
5
5
5
5
5
5
5
5
5
5
5
5
5
5
5
5
5
5
5
5
5
5
5
5
5
5
5
5
5
5
5
5
5
5
5
5
5
5
5
5
5
5
5
5
5
5
POINT_DATA 2538
VECTORS disp float
1.4442717964826801e-11 3.254901552618013e-11 0.0
2.5346861213018203e-11 -6.637436576525503e-11 0.0
0.0029999999941443035 1.555458317682592e-11 0.0
0.002999999970093874 -8.02405922528462e-11 0.0
0.0010637785191091199 0.0004265762872501738 0.0
0.0021859547363511506 0.0001549016462565519 0.0
0.0014905937632924897 6.465069939112439e-5 0.0
2.2530764353881912e-12 -4.936967967810284e-13 0.0
5.482253176395967e-12 5.311356525420146e-12 0.0
4.518290005978399e-12 2.2738132804650053e-12 0.0
4.095398744084665e-12 2.105914532579123e-12 0.0
3.4161090513925553e-12 1.3527902908730324e-12 0.0
3.04385044387505e-12 6.941757526731036e-13 0.0
2.6575637191930083e-12 1.685753596125702e-13 0.0
2.37965873388757e-12 -4.882670805952357e-13 0.0
1.9335961147841938e-12 -1.2188415078679398e-12 0.0
2.1587363421648375e-12 -1.997347916657147e-12 0.0
2.107274944908471e-12 -2.9218423609480417e-12 0.0
2.2355447305514436e-12 -3.924094269587573e-12 0.0
2.438242640451409e-12 -4.931938912499192e-12 0.0
2.5024910056828467e-12 -5.792489719266057e-12 0.0
2.8153065914826255e-12 -6.864985596685208e-12 0.0
2.878897828409685e-12 -7.635911696973753e-12 0.0
3.1116692781901394e-12 -8.644236828163351e-12 0.0
3.306613067370775e-12 -9.687513906059762e-12 0.0
3.4714250382250103e-12 -1.067585861067735e-11 0.0
3.732277000991833e-12 -1.189347893735547e-11 0.0
4.0769145892891e-12 -1.327212611824699e-11 0.0
4.610532464228251e-12 -1.5055128249038543e-11 0.0
4.706863008356155e-12 -1.6941438750937745e-11 0.0
6.803321642132073e-12 -2.2103388745175608e-11 0.0
3.203344768157934e-12 -1.8897294202559028e-11 0.0
3.9667067594918776e-5 -4.506883922837053e-5 0.0
6.922487783155552e-5 -7.663997779534008e-5 0.0
9.77037566412652e-5 -0.00010400362815045838 0.0
0.00012467938515259682 -0.0001287206519713857 0.0
0.00015057487407222188 -0.00015164768876054616 0.0
0.00017591082649562025 -0.000173475817503282 0.0
0.00020112509693634222 -0.00019422862548062932 0.0
0.00022597900313656668 -0.0002141182552056026 0.0
0.0002507201065675217 -0.00023334969265581044 0.0
0.00027543337897436237 -0.0002518953159911542 0.0
0.00030012275640329546 -0.0002699435359490746 0.0
0.0003250166028347984 -0.0002874681655533205 0.0
0.0003499332753844918 -0.0003044728382874467 0.0
0.00037498791046805156 -0.00032110818085860204 0.0
0.0004003441503551057 -0.00033729555422317006 0.0
0.00042574188182612605 -0.0003530354432823812 0.0
0.00045137362192115046 -0.0003684351695201446 0.0
0.000477245715344256 -0.0003833890517255691 0.0
0.0005033269942286958 -0.00039800060070569794 0.0
0.000529639611548661 -0.00041226076734766047 0.0
0.0005562142587356809 -0.00042616562540940764 0.0
0.0005830018811123444 -0.0004397099930525991 0.0
0.0006101732621633543 -0.0004529445615161365 0.0
0.0006374467950025629 -0.00046580717080204915 0.0
0.0006651620380618744 -0.00047834757658390915 0.0
0.000692955052977653 -0.0004905091480544395 0.0
0.0007210852114081509 -0.0005023604172433261 0.0
0.0007494199117502842 -0.0005138205036541119 0.0
0.0007781412727371919 -0.0005249783141309406 0.0
0.0008069268019932665 -0.0005357896929623236 0.0
0.000836118817263035 -0.0005462826826607615 0.0
0.000865508561080407 -0.0005563912496138722 0.0
0.0008951901362808752 -0.0005661950294765713 0.0
0.00092504038790031 -0.0005756342638505158 0.0
0.000955241487304247 -0.0005847618516833086 0.0
0.0009854968791013325 -0.0005934880763133636 0.0
0.0010160640393736561 -0.0006018621190637765 0.0
0.0010467337430705903 -0.0006097645754138379 0.0
0.0010775979487019235 -0.000617214752226896 0.0
0.001108647818221999 -0.0006243491795277976 0.0
0.0011398076641175614 -0.0006309812794080253 0.0
0.001171257107355827 -0.0006372729104432269 0.0
0.0012029092655155174 -0.0006431143061456405 0.0
0.0012346945353319241 -0.0006486295469021666 0.0
0.0012667013177970075 -0.0006536499713066491 0.0
0.0012987106161156344 -0.0006583172006062617 0.0
0.001330960975083069 -0.000662599611747965 0.0
0.0013632521564501442 -0.0006664520773360289 0.0
0.0013956607625720337 -0.000669984921792214 0.0
0.001428232663133038 -0.0006730824794092921 0.0
0.0014606069491754148 -0.00067567928031111 0.0
0.0014932821662092851 -0.0006779714065552787 0.0
0.0015255130155095132 -0.0006797458106482018 0.0
0.0015581815093309512 -0.0006811478554408644 0.0
0.0015901700542818077 -0.0006820440088700806 0.0
0.0016227623136805553 -0.0006825860085518334 0.0
0.0016544900067534877 -0.0006826677577614858 0.0
0.0016855044164076917 -0.0006818169590606971 0.0
0.0017164776005986423 -0.000680377642400473 0.0
0.0017471831729811433 -0.0006781570258096631 0.0
0.001777333346250203 -0.0006757667203180193 0.0
0.001807148729303684 -0.0006726865574973145 0.0
0.001837194365640798 -0.0006691910089375527 0.0
0.001866716777608826 -0.0006644186699058898 0.0
0.0018966283795516605 -0.0006592075019736198 0.0
0.0019274248611811009 -0.0006536332086105024 0.0
0.0019569946287228816 -0.0006470738571038008 0.0
0.0019867495875095175 -0.0006397953692973162 0.0
0.0020169419711160838 -0.0006315195602962646 0.0
0.0020473870252764766 -0.0006225803630407029 0.0
0.002077299414528674 -0.0006128544212900174 0.0
0.0021078034603927154 -0.0006020540815214857 0.0
0.0021378754348839743 -0.0005905505790151921 0.0
0.002168080952836331 -0.000578533937119089 0.0
0.0021987698483369473 -0.0005656840777086289 0.0
0.002229198388783863 -0.0005523292131620195 0.0
0.0022597648777655027 -0.0005383726920618708 0.0
0.002290242579315016 -0.0005239212857269378 0.0
0.0023209733209050946 -0.0005089468132736524 0.0
0.002351737331958121 -0.0004934026202083007 0.0
0.002382460194278073 -0.0004773676528518268 0.0
0.0024129479324513717 -0.00046083375757566367 0.0
0.0024434503237383176 -0.00044380838123328535 0.0
0.0024740194922372874 -0.0004261953318034044 0.0
0.0025044371148996263 -0.0004080722868758953 0.0
0.00253488408759753 -0.00038948242194476783 0.0
0.0025655298268961045 -0.0003702212380518832 0.0
0.0025960848854960188 -0.0003503310214061197 0.0
0.0026265810382500414 -0.0003298612882153692 0.0
0.0026573323345941355 -0.00030865440479645905 0.0
0.002688353285820235 -0.00028657178692807544 0.0
0.0027194468217170233 -0.0002635911605768198 0.0
0.002750682608971331 -0.00023969997302132986 0.0
0.0027823109303427894 -0.00021462248571172345 0.0
0.002814746482364807 -0.00018803070229592758 0.0
0.0028475800279892955 -0.00015972474935024373 0.0
0.0028811776529564285 -0.00012904058286862289 0.0
0.002916947967613513 -9.471619705566751e-5 0.0
0.002953846055522973 -5.50555394486838e-5 0.0
0.002999999995978497 -1.9665369887774734e-11 0.0
0.0029999999916932355 -2.2061304860007058e-11 0.0
0.0029999999948845074 -1.30099742686295e-11 0.0
0.0029999999948341063 -1.1234170914541961e-11 0.0
0.0029999999953226335 -8.973165857047065e-12 0.0
0.002999999995502436 -7.454948206184021e-12 0.0
0.002999999995576209 -6.36999631757325e-12 0.0
0.0029999999957416985 -5.433256478461577e-12 0.0
0.0029999999957875468 -4.5920253535467565e-12 0.0
0.0029999999959333446 -3.8256410011376775e-12 0.0
0.002999999996085666 -3.225166076928575e-12 0.0
0.0029999999962023374 -2.4658587535823054e-12 0.0
0.002999999996308688 -1.9021839170193927e-12 0.0
0.0029999999964368594 -1.2146483968587317e-12 0.0
0.0029999999965162334 -5.453266490310495e-13 0.0
0.002999999996559121 2.143494682303955e-13 0.0
0.0029999999966229844 9.977704316997889e-13 0.0
0.0029999999963392704 1.9380871925632257e-12 0.0
0.0029999999966437746 2.705558834418071e-12 0.0
0.0029999999961355167 3.723489906066783e-12 0.0
0.00299999999619254 4.404997478179313e-12 0.0
0.0029999999960530392 5.09807935814305e-12 0.0
0.0029999999962009496 5.249504693074879e-12 0.0
0.0029999999964396566 6.530189903628621e-12 0.0
0.0029999999981367644 3.0761589817704845e-12 0.0
0.0027764603251467356 0.00011318949006445582 0.0
0.002588539617964066 0.00016443908509308801 0.0
0.0024195748833092346 0.00017275866643501518 0.0
0.002275627378112349 0.00016417282457269265 0.0
0.002184783518609266 5.823078008621718e-5 0.0
0.002174376280332428 6.5526750969673974e-6 0.0
0.0021425826952920076 -2.286347073515775e-5 0.0
0.0020978192714901658 -2.4923264731330094e-5 0.0
0.0020435412511683507 -1.239106770995726e-5 0.0
0.0019865909891526104 2.831663724312128e-6 0.0
0.0019281800505824241 1.764620404057358e-5 0.0
0.0018692391148365343 3.2410942436157464e-5 0.0
0.0018086429797954577 4.471417347372129e-5 0.0
0.0017459321309598712 5.417883544463418e-5 0.0
0.0016778039824043316 6.0970207703256525e-5 0.0
0.0015977740262211981 6.5515947539245e-5 0.0
0.0014012865459111274 0.0001035335564381051 0.0
0.0013379492624229518 0.0001196256062649382 0.0
0.0012855859129872098 0.00012938754359295422 0.0
0.001239897178848108 0.00013727534876535784 0.0
0.0011984336187323347 0.00014461674070256498 0.0
0.0011609893106340873 0.0001522463624140986 0.0
0.001127310692275097 0.00016124329515278816 0.0
0.0010986664115690237 0.00017250175785081474 0.0
0.0010764995269268965 0.00019014567608163628 0.0
0.0010609510221411354 0.00021389355362530713 0.0
0.0010604915644923324 0.00026104462040820315 0.0
0.0010596807027703282 0.00032520232995540774 0.0
0.0009535498426140452 0.0004404737210105479 0.0
0.000797376081938641 0.0004291974138768649 0.0
0.0005668596721124747 0.0003537186961880158 0.0
0.00030331064125428393 0.00022944210765782648 0.0
0.0007827356955839408 -0.000503642149184614 0.0
0.002071125543980873 -0.000579094371175327 0.0
0.000993744218785164 -0.0005740979308124333 0.0
0.0018562104522423263 -0.000638452320854288 0.0
0.001217437318997374 -0.0006237344496540435 0.0
0.0016348053041308145 -0.0006554140492719514 0.0
0.001410589651565947 -0.0006474277578695721 0.0
0.0022568547053335303 -0.0005096135054447901 0.0
0.0006187241467360662 -0.0004384023054515699 0.0
0.002402849794141517 -0.0004359456930974852 0.0
0.00048447066885896683 -0.00037110347428641495 0.0
4.8522368468689554e-5 -8.862616749401495e-6 0.0
0.002945717179537009 -5.729865736362435e-6 0.0
0.0016071481745593577 8.447798681038231e-5 0.0
0.0018377241042345457 5.747113586834948e-5 0.0
0.0013738351864864462 0.00010250210367549594 0.0
0.0011992351185511666 0.0001527681263976736 0.0
0.0025585348604615817 -0.000350189853908961 0.0
0.00036135436099722634 -0.0002986615896758312 0.0
3.6085585188368545e-5 -1.47209152339198e-5 0.0
0.002960830838629571 -9.854305566922731e-6 0.0
0.0029241693642292252 3.0531451503994524e-6 0.0
6.36772495165946e-5 1.783087046596298e-6 0.0
0.002682051750255429 -0.00026777799892896236 0.0
0.0002577144000799104 -0.0002243093017765319 0.0
0.0020027906406625065 2.2330568072575563e-5 0.0
0.0010829859658026133 0.0001774112099410385 0.0
2.804217024648365e-5 -1.5168197517577146e-5 0.0
0.0029689242866644478 -1.145175777998884e-5 0.0
0.001122852356710133 -0.0006049934932687718 0.0
0.0013127298615250135 -0.0006375128813621205 0.0
0.0017641269365906243 -0.0006504239095775428 0.0
0.0015109457873806725 -0.0006522674254598001 0.0
0.0019475388566450463 -0.0006177070444798722 0.0
0.0021572996312836023 -0.0005518405944998489 0.0
0.0009096089487830905 -0.0005491816178977622 0.0
0.0007012154063276471 -0.0004754531411264331 0.0
0.0027721277789701454 -0.00020152622757817773 0.0
0.00018170183405354616 -0.00016588138085573857 0.0
0.002903467885614474 1.7159159598028826e-5 0.0
8.376840194512145e-5 1.1747432820715777e-5 0.0
0.0029744446861105513 -1.4178849449944077e-5 0.0
2.661184349119312e-5 -1.8062277881118233e-5 0.0
0.0021128673698563045 5.204387067062456e-7 0.0
0.0010251555105331013 0.0002068527231238662 0.0
0.0028634499800112663 3.0498119660704348e-5 0.0
0.00012314364929890602 2.3725205924566475e-5 0.0
4.227216855789367e-5 -1.289508705432883e-5 0.0
0.0029529621657909894 -8.574191078005904e-6 0.0
0.0017220917167113437 7.571533672859413e-5 0.0
0.0012858276499481882 0.00013637842415090089 0.0
0.0001017705999030452 -9.536570275514258e-5 0.0
0.0028781482923793344 -0.0001133694744904115 0.0
0.002006316427804344 -0.0006042288794323098 0.0
0.0015732741218036418 -0.0006557664852371025 0.0
0.0010622085600146235 -0.0005909520061084275 0.0
0.0008448438705403253 -0.0005294203655194418 0.0
0.001702318806370774 -0.0006543195328159605 0.0
0.002313122506695576 -0.0004834073296863729 0.0
0.0005648620965955357 -0.00041197488959177146 0.0
0.0024670008294561405 -0.0004034996479865772 0.0
0.0004298027798506506 -0.00033914060845470186 0.0
0.00030683270101748727 -0.00026063044791392137 0.0
0.0026201951936313207 -0.00030993115648591293 0.0
0.0006639809526297215 0.00022479453386101052 0.0
0.0024828927409107555 9.925191043617041e-5 0.0
0.0029745369411583785 -1.9045678667318136e-5 0.0
2.325459467934448e-5 -1.8551529217509146e-5 0.0
0.0010035386910789903 0.00028192986294491056 0.0
0.002201997869547519 3.730809359264766e-5 0.0
0.00014710168401935937 3.801752876812225e-5 0.0
0.0028610724514195602 3.368596184635415e-5 0.0
4.485335148087835e-5 -4.237654010157872e-5 0.0
0.0029462309723708386 -5.080742864327943e-5 0.0
0.002337130033375367 9.450088780007696e-5 0.0
0.0023682844393725705 8.101986670889425e-5 0.0
0.00255254358285334 7.770437645372269e-5 0.0
0.002439872013754601 8.361659096008601e-5 0.0
0.0022958874537689403 7.425384047967203e-5 0.0
0.0023425096769475267 9.062852873808458e-5 0.0
0.0024832037412735415 8.784826666852095e-5 0.0
0.0023932934226521545 9.741591105053313e-5 0.0
0.002527760688450296 8.589101022820628e-5 0.0
0.002445985425676922 9.344867519306916e-5 0.0
0.0023202441328458263 0.000103710788036583 0.0
0.002369678755763004 9.693469206021724e-5 0.0
0.002262115990639474 0.00010587365397613835 0.0
0.0023030567818943695 9.6258090293746e-5 0.0
0.0022062313325855116 0.0001046750825944541 0.0
0.0022435947569916306 9.15075686281772e-5 0.0
0.001570147523878643 5.238863110138778e-5 0.0
0.0014826277065458793 3.7930296090158886e-5 0.0
0.0015475236585272124 3.1608425036342656e-5 0.0
0.001476420697135447 2.1004449045872488e-5 0.0
0.0015335255987197806 1.565525404238092e-5 0.0
0.001472270992685757 7.565656141109579e-6 0.0
0.0015240069569939154 2.6656002979281614e-6 0.0
0.0014684641349354665 -4.408540927795602e-6 0.0
0.0015167749242707665 -8.888498990522894e-6 0.0
0.0014651072697266663 -1.5412790692074255e-5 0.0
0.0015110454262462463 -1.949899790775433e-5 0.0
0.0014621751685311712 -2.5744970724361034e-5 0.0
0.0015063507193998464 -2.9905472906271752e-5 0.0
0.0014608002369677913 -3.583587100316167e-5 0.0
0.0015024402003919845 -3.998040102091339e-5 0.0
0.0014584189110432198 -4.581673363915322e-5 0.0
0.0014988114696370574 -4.9884895314081525e-5 0.0
0.0014547631105031288 -5.57138421077546e-5 0.0
0.0014952685434851908 -5.9796073071294805e-5 0.0
0.00145224099893907 -6.55471562102339e-5 0.0
0.0014921387166948045 -6.975702731264157e-5 0.0
0.0014499605043192677 -7.54503419398334e-5 0.0
0.0014878923971255438 -7.973984314410427e-5 0.0
0.0014474759154636699 -8.54740142952709e-5 0.0
0.0014848409297465916 -8.983746050512934e-5 0.0
0.0014457951749265044 -9.535847583100034e-5 0.0
0.0014820557024259615 -0.00010006203048024069 0.0
0.0014416412196235765 -0.00010503235384472661 0.0
0.0014788605854211619 -0.00011041621964443289 0.0
0.0014299625425717992 -0.00011572053247503612 0.0
0.0014782443826400699 -0.00012111209472192154 0.0
0.0014367489725617263 -0.00012694583596943297 0.0
0.0014752489150423348 -0.00013194564319615198 0.0
0.001435864809371866 -0.00013800433076753037 0.0
0.001472885903268699 -0.00014309952741217193 0.0
0.0014360865156509517 -0.00014917965367276196 0.0
0.001470372118406009 -0.00015446343683461823 0.0
0.0014344634092990963 -0.00016081734671495127 0.0
0.0014197223068108406 -9.45560358075135e-6 0.0
0.0014678277269122718 -0.00016615763690799973 0.0
0.0014116177314008162 -6.076092095012238e-5 0.0
0.0013925544934759834 -0.0001248637096665078 0.0
0.0014299853943876572 -0.00017263067357153335 0.0
0.0014650075376670595 -0.00017815748810071292 0.0
0.001425540128799874 -0.00018517784126474807 0.0
0.0013912242982885618 -0.0001784727369469593 0.0
0.0013857868174371268 -0.00019159924225824312 0.0
0.0014606793998329232 -0.00019122451344869015 0.0
0.001500699053551791 -0.00018372016242910964 0.0
0.001513120131249053 -0.00012547920899358666 0.0
0.001496603001572066 -0.00019718694052395735 0.0
0.0015391634066392627 -0.00018832838749253437 0.0
0.0015336245552124976 -0.00020309473681227565 0.0
0.0013518765977331769 -0.00018452523010482335 0.0
0.001347892408168983 -0.0001973246028768667 0.0
0.0015775611413547457 -0.00019346735042678084 0.0
0.0013118173689694937 -0.00018983862433167778 0.0
0.0013100701990691377 -0.00020318012005826882 0.0
0.0015727407683931278 -0.00020843108176171545 0.0
0.0016152937487867738 -0.00019948999377414646 0.0
0.0012715068778164447 -0.00019514837635172146 0.0
0.0012688419441979249 -0.0002088255858772702 0.0
0.0016113948129372658 -0.00021437251702587456 0.0
0.0016551947279747172 -0.0002048888511911013 0.0
0.0012314049211587794 -0.00020033494685030057 0.0
0.0012283707378230764 -0.00021475260638991625 0.0
0.0016511194044838738 -0.00022056318291591975 0.0
0.0016961759729652718 -0.0002101596969651305 0.0
0.0011917053162201169 -0.00020465856692923528 0.0
0.0011860897917918285 -0.0002194498740260844 0.0
0.0016925904009178947 -0.00022624042357503386 0.0
0.001737966918213656 -0.0002152480022040905 0.0
0.0011481583592220907 -0.00020887471003404174 0.0
0.0011436164522426377 -0.00022439337112059972 0.0
0.0011034077862725187 -0.0002138541451692766 0.0
0.0011078846653053511 -0.00019747316409353023 0.0
0.0016434451180684176 -0.00023605956209319273 0.0
0.0017340984990678863 -0.0002319898593328007 0.0
0.0017804530897648266 -0.00022020921748062256 0.0
0.0017850877068911655 -0.00020297225422021234 0.0
0.00152745518874762 -7.434205200715676e-5 0.0
0.001829374571294644 -0.0002075585140252745 0.0
0.00183441838277663 -0.00018962881437671137 0.0
0.0018802281394547182 -0.00019358020889462097 0.0
0.001102343344145411 -0.0002305047890225775 0.0
0.0010603958221748555 -0.00021811820343287588 0.0
0.001141853077779367 -0.00024102371394762564 0.0
0.0017751709835297405 -0.00023787505439760778 0.0
0.0010599462332366216 -0.00023511425038733394 0.0
0.0010175172671579654 -0.0002217243101476903 0.0
0.001548931391533019 -3.308382979762297e-5 0.0
0.0010170716823684014 -0.00023826776775791946 0.0
0.0009746835431934135 -0.00022459262318702563 0.0
0.0009744889895523615 -0.00024144515407262303 0.0
0.0009326943026966849 -0.00022647899364605108 0.0
0.0009319940005258246 -0.0002100790958233611 0.0
0.0008874477876613312 -0.00021231532279438728 0.0
0.0008874669072773138 -0.0001950205783371802 0.0
0.000927602841497982 -0.00024297108629564034 0.0
0.0008395896853434319 -0.00019730290931454546 0.0
0.0008392857623437403 -0.0001796070282582588 0.0
0.0009747938566430896 -0.00025923220043038163 0.0
0.0009349799047553948 -0.00026215688867292484 0.0
0.0007925237684059555 -0.00018042815891597017 0.0
0.0007905971341040243 -0.00016310769357653869 0.0
0.001886572683581675 -0.00017537202519288673 0.0
0.0019343079802650424 -0.0001790036277494222 0.0
0.0009751546042483226 -0.0002772285635263595 0.0
0.0009359517705289038 -0.00027996570426440934 0.0
0.0019412327120405825 -0.00016018018136903302 0.0
0.0019913331091301087 -0.00016387131509332923 0.0
0.0019820853869334204 -0.00018456132489775879 0.0
0.0020395866345573744 -0.00016826685232775328 0.0
0.002031083444090464 -0.0001894122537843196 0.0
0.0020887298655845226 -0.00017146885531157876 0.0
0.0020828969192693563 -0.00019236509983527991 0.0
0.002142581404551748 -0.0001721913588175458 0.0
0.002131692226483195 -0.00019365077304358272 0.0
0.0021483213420151904 -0.0001521627496410569 0.0
0.002192162561928695 -0.00017372557256803702 0.0
0.002178061597517674 -0.00019516986701876432 0.0
0.000976110062368988 -0.0002955640455302675 0.0
0.0007412859737561363 -0.00016335124126438304 0.0
0.0007383727682027636 -0.00014564549924906027 0.0
0.0021224256098291406 -0.00021566101087980627 0.0
0.0021667686928477383 -0.00021685123147331147 0.0
0.002221464050101092 -0.00019597949576208507 0.0
0.0021149465475584508 -0.00023806464271150404 0.0
0.0009379299439813579 -0.00029835596606023326 0.0
0.0022100145002037063 -0.000217290473132132 0.0
0.0022635424116819957 -0.00019580906077240956 0.0
0.000977098997292682 -0.000314416240285667 0.0
0.0009397303102904209 -0.00031728983714277817 0.0
0.0009011653778557866 -0.00030057230847495997 0.0
0.002251349434205896 -0.00021680500527254535 0.0
0.002304304347305835 -0.0001944443112385142 0.0
0.000978088771119051 -0.0003338623267951709 0.0
0.0010150624958049441 -0.0003306410027680213 0.0
0.0009034790296500068 -0.00031962083693371374 0.0
0.0008652359519760204 -0.00030233176065943955 0.0
0.0022900585081426592 -0.0002154533289563517 0.0
0.0023442749895898193 -0.00019203561737061227 0.0
0.002357947037600042 -0.00017202342400778658 0.0
0.0022370390818131037 -0.00023887267504643688 0.0
0.0023982282295845966 -0.00016880522457871956 0.0
0.002413095066561272 -0.00014963306394923784 0.0
0.0006860185390136078 -0.0001456447337031144 0.0
0.0006857750173761462 -0.00012727542224707033 0.0
0.0007488898542500189 -0.00012836907009862843 0.0
0.0006837596328651706 -0.0001087779722528386 0.0
0.0007448655701741399 -0.00010688894970293005 0.0
0.0006812004850696189 -8.883485136919632e-5 0.0
0.0007411172552179559 -8.565453618857025e-5 0.0
0.001015965422604875 -0.0003503406616398097 0.0
0.0010520563173910123 -0.00034666628835242953 0.0
0.0008678705452954241 -0.0003215048199532157 0.0
0.0008299517239956078 -0.0003035940599678565 0.0
0.0023834550347558493 -0.00018875052343632259 0.0
0.0006851107678629889 -6.831293431355607e-5 0.0
0.0007422792771866871 -6.392313576284119e-5 0.0
0.001052999957750618 -0.00036646593276666974 0.0
0.0010882476346980743 -0.00036261482365002013 0.0
0.0012732309564716822 -0.00022199199420481073 0.0
0.002437223998373802 -0.00016481799456731627 0.0
0.0015805240674090437 1.3304194272259914e-5 0.0
0.0016492092878090559 7.898640537020521e-5 0.0
0.001406910662648881 -9.078196813229967e-5 0.0
0.001996073974781745 -0.00014461444573876891 0.0
0.0006808438472193564 -4.543931994782547e-5 0.0
0.0007481028970742084 -4.051922691333761e-5 0.0
0.0008329970868618809 -0.0003228858862999762 0.0
0.0007955863627856253 -0.0003044961003219693 0.0
0.0010897149320593276 -0.00038259602229851543 0.0
0.0011246885515960293 -0.00037847592155174423 0.0
0.002421155870107832 -0.0001845620848361547 0.0
0.0006313015373359131 -0.00012721640008358276 0.0
0.0006335162369374185 -0.00014554331888122317 0.0
0.0006138411228885049 -6.984033173546089e-5 0.0
0.0024750074144974567 -0.00016010075147252748 0.0
0.0006813550740061361 -2.263846041259837e-5 0.0
0.0007496837165512326 -1.54275005568271e-5 0.0
0.0010550529123299062 -0.00038694154306957756 0.0
0.000799191515217116 -0.000324058758638954 0.0
0.0007619472208756201 -0.00030488198322838056 0.0
0.0019460646816288874 -0.00014133340631283732 0.0
0.0020032766863902624 -0.00012509363899423657 0.0
0.0019502053523287402 -0.00012200056189562867 0.0
0.002010603933613839 -0.00010544096769306945 0.0
0.0011256617648057233 -0.000398435252558655 0.0
0.0011609611470336503 -0.0003935182287646611 0.0
0.0012360897084537738 -0.0001873806242833211 0.0
0.0006817081879773179 5.315678634186199e-7 0.0
0.0007489130069444542 9.947229193420993e-6 0.0
0.002459200364445123 -0.00017945126423525584 0.0
0.0024105011430614466 -0.00020245735079085198 0.0
0.0006676479029867947 2.6168469352872595e-5 0.0
0.000745973273270054 3.686465729827306e-5 0.0
0.0025116976016282436 -0.00015519465095546967 0.0
0.0025211767205161797 -0.00014116221902801904 0.0
0.0006773357152704871 5.0500214559221675e-5 0.0
0.0008353939055090091 -0.00034444060652757686 0.0
0.00116134494120472 -0.00041408168583533455 0.0
0.0011963899450563558 -0.00040826219085802736 0.0
0.0011966016201139862 -0.0003878468296064083 0.0
0.0012319679578115773 -0.00040206489012735934 0.0
0.0012326234417255465 -0.0003818458697780802 0.0
0.0012681442981310744 -0.00039547731864326714 0.0
0.0012691302761146121 -0.00037516700171295376 0.0
0.0013051637562986628 -0.0003883967217036594 0.0
0.0013065904419462364 -0.00036810898959963696 0.0
0.0013428946565250996 -0.0003807253318914995 0.0
0.0013414121001362458 -0.00040160165260016934 0.0
0.0013789419192159875 -0.00039335447620228415 0.0
0.001377229482508294 -0.00041463089060709906 0.0
0.0014145686467390776 -0.0004057879695913498 0.0
0.0014123968309262347 -0.00042751820698866947 0.0
0.0014500203006771086 -0.00041802321353306466 0.0
0.0013448930233204714 -0.0003605091758582025 0.0
0.0014524078134054452 -0.0003962568422721814 0.0
0.001488353693848995 -0.00040776613809537856 0.0
0.0014853898923670912 -0.0004303888857718225 0.0
0.0015242101975256235 -0.0004195151271314145 0.0
0.0005776665562249648 -0.00012627942245132035 0.0
0.0005799219394268996 -0.00014420505183317478 0.0
0.0007658764836654451 -0.0003244945712143263 0.0
0.0007293458417965311 -0.00030496160522179734 0.0
0.0015278523240238185 -0.0003969367177794323 0.0
0.0015637582844202748 -0.000407765389231669 0.0
0.0015595233258273503 -0.0004309731975228257 0.0
0.0015998399818637514 -0.00041839037634243853 0.0
0.0005254764742284437 -0.0001244937838646877 0.0
0.0005280418292552497 -0.000141747141414504 0.0
0.0019546369830647304 -0.0001018607344222848 0.0
0.0020189421708503514 -8.512600450800943e-5 0.0
0.0019609980116898885 -8.15547634268926e-5 0.0
0.0024972256125405765 -0.00017342846442615454 0.0
0.002547983882256858 -0.0001495283297111044 0.0
0.0011966079125289393 -0.00042950982715097343 0.0
0.0008146393152972248 -6.321938523515476e-5 0.0
0.001530974330862668 -0.00021667331834454448 0.0
0.0015949650796106335 -0.000442214350082415 0.0
0.0016355104917290092 -0.000428840508755727 0.0
0.0016399377746726682 -0.0004048619644299106 0.0
0.0016764955275614909 -0.0004142889704064735 0.0
0.001621374776976192 -0.00018368359113955256 0.0
0.002030731576872507 -6.402610541210313e-5 0.0
0.0020844068061683344 -7.13993494914152e-5 0.0
0.000749499421526809 6.395534268678165e-5 0.0
0.00073321126668991 -0.0003244101150393483 0.0
0.0006973477460996176 -0.00030444772870333385 0.0
0.0019690438492256644 -6.0373481850208754e-5 0.0
0.001671054849787658 -0.00043918414903326497 0.0
0.0017128536790183338 -0.0004242470174947677 0.0
0.0017185178214464065 -0.00039921298504998437 0.0
0.0017558865289841105 -0.00040855400232784993 0.0
0.0017625795519841604 -0.000384102423436984 0.0
0.001799488668703125 -0.00039210555460358887 0.0
0.0017920102558748171 -0.0004171802540299986 0.0
0.0018353261094366336 -0.00039972768283808496 0.0
0.0006774052356763558 7.33490072382539e-5 0.0
0.00047512427932826164 -0.00012179944583851432 0.0
0.00047766475156103626 -0.00013807065172435578 0.0
0.0011627022150340358 -0.00043551989856102966 0.0
0.002531697884004844 -0.00016903901960960155 0.0
0.0025829792320988727 -0.00014375828600348065 0.0
0.0018270420356557562 -0.0004253948043813849 0.0
0.0018696951144286217 -0.0004070255935740812 0.0
0.0007544635367441471 8.959821001591309e-5 0.0
0.0007017208968494079 -0.00032397624414063177 0.0
0.0006657901530017531 -0.00030322766445756773 0.0
0.0008181119243031698 1.9345745466228547e-5 0.0
0.002339239078020851 8.228969359461173e-5 0.0
0.001196940705912062 -0.00045135154472665556 0.0
0.0006794295893287936 9.401571912443912e-5 0.0
0.0006200885732698464 -8.559991488135653e-6 0.0
0.0025614409994942685 -0.00016879945395768781 0.0
0.00261709932629934 -0.00013838557039333473 0.0
0.0026340746364408576 -0.00011967119686446562 0.0
0.0006034951140736936 5.792986548632462e-5 0.0
0.0025083930430717526 -0.00019326442333842368 0.0
0.00046933118798728847 -0.00010514166561609078 0.0
0.0007345117995069253 -0.0003429921195396684 0.0
0.002042173906280158 -4.217469661151319e-5 0.0
0.0019783291846348612 -3.8333020212987575e-5 0.0
0.0018073750046060696 -0.00036801874432532974 0.0
0.0006706433890817557 -0.0003232709864189908 0.0
0.0006347525269612959 -0.0003018646136940228 0.0
0.0004264987863425975 -0.0001180985857007789 0.0
0.0004289054495869429 -0.000133144508959614 0.0
0.0007923861826208375 -0.00028610658002266927 0.0
0.0018605534579101183 -0.0004332002689168517 0.0
0.00190260954744835 -0.0004136380851237847 0.0
0.0006298150389240817 -0.00028232777195832395 0.0
0.0005986011611799684 -0.0002803128633926616 0.0
0.0018209720121171978 -0.0004502908843063238 0.0
0.0011643685045700063 -0.00045757026275029925 0.0
0.0006042696356907648 -0.00030023333938388315 0.0
0.0005681928594137647 -0.0002780503791001862 0.0
0.001232691757454457 -0.00036250197821868524 0.0
0.0026689045981513997 -0.00011312067249350855 0.0
0.002684949423236155 -9.7477342163284e-5 0.0
0.0026525543210436896 -0.0001316375051357494 0.0
0.0018924811854182928 -0.0004400295383563169 0.0
0.001933970062237844 -0.0004193958574622674 0.0
0.0017691719507740044 -0.00036048757363079525 0.0
0.0018149911776772529 -0.0003448334457955869 0.0
0.0011977053025413861 -0.0004737132436258137 0.0
0.0019448703423606889 -0.0003934600939926572 0.0
0.0019759648241119616 -0.0003985388113429487 0.0
0.00037883160133025197 -0.00011276640128653343 0.0
0.00038334846871406955 -0.0001272644498729268 0.0
0.0019642950348661035 -0.0004254023492095606 0.0
0.002005361506169366 -0.00040347251017913927 0.0
0.0005749697666032486 -0.00029843222114153635 0.0
0.0005387848824084571 -0.00027555851035568726 0.0
0.0020537157135065826 -1.960166725628245e-5 0.0
0.0019892759016221133 -1.5406616851717347e-5 0.0
0.0005316671240603173 -0.00025617772421131186 0.0
0.0005020789016956941 -0.00025280470129550553 0.0
0.0005090955086468115 -0.0002725357308722932 0.0
0.0004725153496983054 -0.00024911961738932983 0.0
0.0027030016110110282 -0.00010637137808069752 0.0
0.0026863662045236545 -0.0001254659448382189 0.0
0.0007569682849192267 0.00011152986103638902 0.0
0.000675849917114056 0.0001115777196746306 0.0
0.001902946138648465 -7.716160923639767e-5 0.0
0.0011660626949273258 -0.00048012902468713275 0.0
0.001993177039751229 -0.0004315138345951084 0.0
0.0020333424799763382 -0.00040837171948496193 0.0
0.0021491174596523274 9.9965665526242e-5 0.0
0.001987852096585926 -0.00037286326384574676 0.0
0.0013758157446113 -0.00043650620920387034 0.0
0.000464535739496836 -0.00023039482354089875 0.0
0.00043576814515905704 -0.00022574699428780658 0.0
0.00044398907554688883 -0.0002452738045144783 0.0
0.0004070512585065396 -0.00022101282112153758 0.0
0.00039887101240126325 -0.00020270807476322438 0.0
0.00036920892686777176 -0.00019713686899245242 0.0
0.00036078298391459057 -0.00017935436027532295 0.0
0.0003306003186172243 -0.00017279589898338822 0.0
0.00032223423064727365 -0.00015632252350141295 0.0
0.00029366087108617325 -0.00014944723325433187 0.0
0.0002848549768092068 -0.00013440842685562493 0.0
0.0003014610391965151 -0.0001654733549563863 0.0
0.00026115569102208515 -0.0001385467407690555 0.0
0.0003346437275166935 -0.00010673295923553972 0.0
0.0003326960806538602 -9.385342993486662e-5 0.0
0.0002725984228200421 -0.00015745662979143823 0.0
0.00023567149749425083 -0.0001325975258901636 0.0
0.0008316441573055148 0.00010451916811348 0.0
0.0008795524469869145 -0.00017591757494978233 0.0
0.001776062505463117 -0.00033783419557992353 0.0
0.001822000503491775 -0.0003225339217977983 0.0
0.0005275470203576581 -0.0001575532754514315 0.0
0.0011984974162922784 -0.0004967200577290481 0.0
0.0012303838354465804 -0.000489866247804923 0.0
0.0018613077856020977 -0.00032870061498189204 0.0
0.0018687394736681836 -0.00030647753224195427 0.0
0.0027362745613748523 -9.936562002118622e-5 0.0
0.0027175111144995237 -0.0001198121267963857 0.0
0.00266843690803194 -0.0001492940366289817 0.0
0.001913805140085817 -3.45778782393567e-5 0.0
0.001924140431988147 -1.1847402020168774e-5 0.0
0.0011329861083796047 -0.0004634464568676985 0.0
0.001134931525458324 -0.0004860690321289734 0.0
0.0011023529233147968 -0.000469076416180557 0.0
0.0004168242431725283 -0.00024128726158934144 0.0
0.002000898183181571 8.073980604840469e-6 0.0
0.001935604924744904 1.2203208387541369e-5 0.0
0.000792269533930365 -0.0001987571843155833 0.0
0.0020203403503780324 -0.0004375371906452022 0.0
0.002060524190029163 -0.00041336789079173886 0.0
0.002074253711389338 -0.0003854192525469129 0.0
0.002101200685507655 -0.00038937551085167923 0.0
0.0007808122252407102 0.00013302221803329173 0.0
0.0006839790192779693 0.00012813264174435854 0.0
0.001086330019595876 -0.00034348202326621544 0.0
0.001981521573812482 -0.00046126238180069234 0.0
0.002487699010182641 8.280931055039623e-5 0.0
0.002087029706642761 -0.00041943375335187733 0.0
0.0021280432204317753 -0.0003944036996819679 0.0
0.0021425242903921433 -0.00036514806953082894 0.0
0.0021699079758369425 -0.00036924201695641434 0.0
0.0021853443474513247 -0.0003404638972836587 0.0
0.0022124505912241147 -0.0003437311853841289 0.0
0.002196819225560436 -0.00037437606470360423 0.0
0.0022390648541622885 -0.00034797384340669925 0.0
0.00024481941345951745 -0.00014805548853261824 0.0
0.00020868815898810372 -0.00012295555376466564 0.0
0.00019514630954521378 -0.00010644626104040701 0.0
0.0012310614176185026 -0.0005133058021596523 0.0
0.001261661337853853 -0.0005069909842016141 0.0
0.0011048027308660422 -0.0004918169909714818 0.0
0.0010723419396472128 -0.0004742887542904774 0.0
0.0026976268030641515 -0.00014558078652126484 0.0
0.0027463156278754435 -0.00011485902507139764 0.0
0.0021145777980429176 0.00011046594325848917 0.0
0.0020608644855991775 0.00010613653707829736 0.0
0.0005885016603105332 0.00010528475299330481 0.0
0.0005954374855413202 0.00011862013388980141 0.0
0.0002823528780050786 -0.00017575158490451865 0.0
0.0010155259864308044 -0.0002739629458574031 0.0
0.0018855241119282407 -0.00012048641940802956 0.0
0.0026501797210958604 -0.0001772801551075142 0.0
0.0008021386696987347 -0.00010062047437584656 0.0
0.0018494765705238275 -3.1403439943090093e-5 0.0
0.002222507917358272 -0.0003805836449753104 0.0
0.00226471812089216 -0.00035326396094927326 0.0
0.002265991229652831 7.506072688632234e-5 0.0
0.002373226435090795 6.584250728997118e-5 0.0
0.000777959102692732 0.00014966524292787397 0.0
0.000430915413575534 -0.0001478068682770817 0.0
0.00028354395332780275 -8.646552508657691e-5 0.0
0.00028230708352620974 -7.467996855498085e-5 0.0
0.00045228843407859877 -0.00026608218210265636 0.0
0.002115890240247581 -0.00042642152408868403 0.0
0.001727504300493345 -0.0002491313681035778 0.0
0.0015560747163992689 -0.00045495045441398325 0.0
0.0009811001099486831 -0.0003530407421198083 0.0
0.0002178281577866246 -0.00013824395147252403 0.0
0.00018274398547053498 -0.00011282022439774018 0.0
0.0006109851075982277 -0.00032138612392320406 0.0
0.0019086681139844728 -0.0003118639687689889 0.0
0.0019165320983757833 -0.0002898491639113464 0.0
0.001135812711512717 -0.0005096598648251367 0.0
0.0023153734332898935 5.622484448288783e-5 0.0
0.0024070336187925153 4.915193501947791e-5 0.0
0.0023528611047808445 3.786614948717269e-5 0.0
0.0024415643868115917 3.2086441276597535e-5 0.0
0.002494568000996956 4.223408718505409e-5 0.0
0.0025281558229327834 2.6723843044672522e-5 0.0
0.002474294571645743 1.5043875055502344e-5 0.0
0.0025578476430468235 1.1507665779200815e-5 0.0
0.0025043021975597016 -1.2811814179287184e-6 0.0
0.0025860204037473616 -2.657810248920492e-6 0.0
0.0025336369522113494 -1.676651951739551e-5 0.0
0.0026117721261182192 -1.55297782029774e-5 0.0
0.002560513013780398 -3.093493966692864e-5 0.0
0.0026359361582695496 -2.701772715119366e-5 0.0
0.0024794470658459846 -3.4217410290776886e-5 0.0
0.002585601976768996 -4.328248046619105e-5 0.0
0.002656553704075488 -3.737731195862243e-5 0.0
0.0025831311524220748 3.486508016447365e-5 0.0
0.000592359391729843 -0.00026111729384792413 0.0
0.0005824993686344537 -0.0003199550079045647 0.0
0.0006172233865920074 -0.0003431709469828473 0.0
0.0026091161568785534 -5.384864017743843e-5 0.0
0.0026765687119459634 -4.583096264403151e-5 0.0
0.002541900904389411 -6.08943682181134e-5 0.0
0.001590294917708545 -0.00046672820596583143 0.0
0.001552182279803632 -0.00047931603567773207 0.0
0.001585705352278316 -0.0004916811433210532 0.0
0.0015489883288979218 -0.0005042415966724465 0.0
0.001581564407912302 -0.0005171824820147847 0.0
0.0015465743755106866 -0.0005297089028362127 0.0
0.0015140099997208484 -0.000516346824028713 0.0
0.0015124638899405183 -0.000541584116740763 0.0
0.0014807170098267918 -0.0005277574051551728 0.0
0.0014056293331607744 3.369906575352382e-5 0.0
0.0015781824921997658 -0.0005433712962018327 0.0
0.001612801207040302 -0.0005301702684183451 0.0
0.0013416968067321796 -0.00021128822506813534 0.0
0.00130806306930899 -0.00034844013845737034 0.0
0.0013470243318665803 -0.0003409098611415193 0.0
0.0013096848976320808 -0.0003293509914489845 0.0
0.001349263586826404 -0.0003219278110890797 0.0
0.0013114902887225314 -0.0003108700295895889 0.0
0.0013516317733182968 -0.00030358546173516496 0.0
0.0013895934056483731 -0.00031403397634978256 0.0
0.0013924608391887954 -0.0002958403071023905 0.0
0.0014306397765711252 -0.000305692640649513 0.0
0.0014338682052843475 -0.0002876433979666079 0.0
0.0014705608402430567 -0.0002968568488467456 0.0
0.0013955584766010833 -0.0002777464851078384 0.0
0.0013134858782558162 -0.00029297446098154253 0.0
0.0012732468110377836 -0.00029971554003883585 0.0
0.0014669068054644651 -0.00031569002341249523 0.0
0.0015090321771456673 -0.00030512093272328487 0.0
0.00058996049112843 -0.0003422000601450578 0.0
0.0013979376997032612 -0.0001441734529111624 0.0
0.001416982155576389 -3.198678262932544e-5 0.0
0.0015682310551187256 -0.0003854562592834324 0.0
0.0027519848567388776 -8.406935182591421e-5 0.0
0.0027839339639374266 -7.684916760400806e-5 0.0
0.0015392318295898296 -5.330977872682337e-5 0.0
0.0015221833985003571 -9.272048323038878e-5 0.0
0.002157204306274084 -0.00033803540997344954 0.0
0.0018706566416147815 -0.00021225870700351124 0.0
0.0027274373640588947 -0.0001404756245122556 0.0
0.0027738515009881576 -0.00010982497372615069 0.0
0.0015096815137411936 -0.0001483572676783784 0.0
0.0010751530459290684 -0.000497280046139021 0.0
0.00104285563014418 -0.0004792799526354075 0.0
0.0015630320242921876 -1.1969327771779462e-5 0.0
0.0014793024870279185 -0.000552917470394678 0.0
0.0014474205437738352 -0.0005376240156483872 0.0
0.0010400895497455044 -0.00045664643093448564 0.0
0.0010103085301821474 -0.00046117734983642644 0.0
0.0010074081522488615 -0.0004388505464024648 0.0
0.000977471832640894 -0.0004428638062825845 0.0
0.0009810101726120497 -0.00046551766742027826 0.0
0.0009482832069417879 -0.0004466786256575989 0.0
0.0009521554124649399 -0.00046961786083869495 0.0
0.0009194531897838681 -0.0004502881752134403 0.0
0.00042687678533945565 -0.0002628804053344045 0.0
0.0027984605329170026 -6.463206372721929e-5 0.0
0.0020114657778667893 3.1529504413557875e-5 0.0
0.0019447819231699377 3.5550322810749896e-5 0.0
0.0009010529947341385 -0.00026513847160177266 0.0
0.0007290998183722902 -0.0002864004435134453 0.0
0.0027022688449726186 -2.436215285232094e-5 0.0
0.002665506949581787 -4.413599966846192e-6 0.0
0.001261711689006527 -0.0005303799066327122 0.0
0.00129305137941224 -0.0005233216826671824 0.0
0.0020075823543242396 -0.00046838737419676945 0.0
0.0003931455580314764 -0.00018543576504673832 0.0
0.0017004358203932678 -0.00019478980619643343 0.0
0.0018707817319916088 1.5153752293010591e-5 0.0
0.0018795528348678826 3.835182635015237e-5 0.0
0.0022015584445312835 -0.00031390073548549736 0.0
0.002274545686797571 -0.00017524970539644494 0.0
0.002281998640176535 -0.0003218875434675889 0.0
0.0023083662552750056 -0.0003255728590400872 0.0
0.002289501333033392 -0.00035980942194847046 0.0
0.0023339542483079706 -0.00033076952276891097 0.0
0.001320060607628543 -0.00017715521443661923 0.0
0.0004604668705293972 -0.00028775878849723717 0.0
0.0014717430447164152 -0.00027848983033050513 0.0
0.0024209768557576423 -8.667949645918232e-7 0.0
0.0012679251871280548 -0.000484413850344449 0.0
0.0006230536045605614 -0.0003654613676316097 0.0
0.0006504230594219614 -0.00036625232036016886 0.0
0.0019702806004127825 -0.0004922462031708091 0.0
0.0009740058593003596 -0.0004209991646770586 0.0
0.001782430986556691 -0.00031607898812090375 0.0
0.001736834459793646 -0.0003304642549338467 0.0
0.002755062583368374 -0.00013600872868530918 0.0
0.0028015059309716376 -0.00010382165183167354 0.0
0.002818473347756928 -8.286051718590045e-5 0.0
0.0008717812885954669 0.00015489245388023427 0.0
0.00019193483986150464 -0.00012750789093070273 0.0
0.00015732089190767114 -0.00010127160645458786 0.0
0.00015183635166140754 -9.068738703419421e-5 0.0
0.002028677702911143 0.00011367695465137285 0.0
0.0020784838977835796 0.00011290099322060465 0.0
0.0019776227946765867 0.00011022297097812026 0.0
0.0021185422289921136 -2.4208284635580574e-5 0.0
0.0026316659030816737 -6.170707123632944e-5 0.0
0.002697873937886815 -5.172561788352993e-5 0.0
0.0010460968260176259 -0.0005025869927421717 0.0
0.002069613449232641 -0.0001082178647203501 0.0
0.0004985931029236137 9.431535240271814e-5 0.0
0.0005006971761546563 0.00010348455109818027 0.0
0.0006049618085808201 0.00012983635010282383 0.0
0.000500885170093001 0.00010974623050045544 0.0
0.0006480973188870928 0.0001470289097064415 0.0
0.0014456863599878141 -0.0005121760186831157 0.0
0.0009149072499662173 -0.00042778936341417775 0.0
0.0008868281877720503 -0.000430957398603065 0.0
0.0008913028310387105 -0.00045373938691244315 0.0
0.0008590091184934746 -0.0004339977564499587 0.0
0.0023519420976323285 -0.00029815957060430815 0.0
0.002377557911966414 -0.00030252835755831747 0.0
0.002359682952501705 -0.0003370304022940238 0.0
0.00240243789929325 -0.0003078935412961228 0.0
0.0018754327575357358 -0.00028478076115673757 0.0
0.001923882526641491 -0.0002686370826291905 0.0
0.0016092431092524844 -0.0005568855001682855 0.0
0.001643234912500022 -0.0005430561380378979 0.0
0.0012750388462296769 -0.00028207237821106096 0.0
0.001234606476290502 -0.0002883390425228096 0.0
0.0012276738224898034 -0.0005379428527121647 0.0
0.0008635863359217296 -0.00045668100082250115 0.0
0.0008319019999372046 -0.00043677287670355793 0.0
0.0026207612126197305 -0.00018019138329174484 0.0
0.002602410896889885 -0.00021033996346813972 0.0
0.0025743158538856074 -0.00021197784485314206 0.0
0.0025603817298012225 -0.0002409805128502529 0.0
0.0012928332074717045 -0.0005487086424976857 0.0
0.00022409776024028151 -0.0001534830523953814 0.0
0.0003159639566782933 -0.000141794831489865 0.0
0.00027422388018406765 -0.0001195972566013116 0.0
0.00023123170453186843 -6.68294777090568e-5 0.0
0.00022713607725762422 -5.5950680588655174e-5 0.0
0.0002815982206109203 -6.241283168093844e-5 0.0
0.00022420226257591314 -4.4914835245668836e-5 0.0
0.00028091603084271573 -4.932064401022773e-5 0.0
0.00022152465724694812 -3.345198362407267e-5 0.0
0.0002812589774187582 -3.547144580907621e-5 0.0
0.0026311294469407165 -0.00020848912689439776 0.0
0.0008532242887578113 -0.00041192744871237886 0.0
0.002172256615896405 -0.0003133285451564817 0.0
0.0019439589987085306 -0.00048337292561506206 0.0
0.0019339816831319568 -0.0005154517960145125 0.0
0.0019080110119116449 -0.0005061398626601545 0.0
0.0014468818439065377 -0.000563371657572392 0.0
0.0020635047298677768 2.3971461733259217e-5 0.0
0.002384758156257102 -0.0003440890863799361 0.0
0.002846340671101357 -7.525721411651236e-5 0.0
0.0028285214176442886 -9.685099650095266e-5 0.0
0.000868323329809271 0.00016818808142447501 0.0
0.0020035112985727424 5.150178165037808e-5 0.0
0.0015315070535500365 -0.0003752308559764752 0.0
0.001571854379139182 -0.00036392982041371627 0.0
0.0015123509503870709 -0.0005678170365716927 0.0
0.0014152511275274512 -0.0005475067345895307 0.0
0.0006402287680597363 -0.00016615899306945386 0.0
0.0027401272665983807 -3.790730011584888e-5 0.0
0.0027601008330914085 -4.1839181398076556e-5 0.0
0.0027169115533303427 -5.610641719681092e-5 0.0
0.0027769536949089502 -4.5078496189719105e-5 0.0
0.002274384846844184 -0.00023699160533607517 0.0
0.0017030270373955376 -0.0004505489713277109 0.0
0.001742592674339353 -0.0003093429477064744 0.0
0.0012687805405091966 -0.00041666394516006974 0.0
0.0018374790313554574 -0.00017180999670419193 0.0
0.0019567959272876246 -0.0002945789122858698 0.0
0.0019556667365828954 -0.00036897869259922087 0.0
0.001999663655705474 -0.0003487531841485601 0.0
0.0019906302805482662 0.00011012110352307477 0.0
0.0020519542591442125 0.00010441635415009155 0.0
0.0006556781882243947 -0.0003887547231237967 0.0
0.0006818158763075555 -0.0003887500072554879 0.0
0.00021940636723986683 -2.1505728877060048e-5 0.0
0.00027964315871576394 -2.0967752244461316e-5 0.0
0.00034334762150431804 -3.5803788084403226e-5 0.0
0.00034419807741983984 -1.8477547054636098e-5 0.0
0.00028000798159408664 -6.470305180165841e-6 0.0
0.0003479130035053961 -1.1041296067669328e-6 0.0
0.00028228357920279644 7.4881067741710275e-6 0.0
0.00035446260448941154 1.6030993430310176e-5 0.0
0.00028556547349019323 2.052717194681571e-5 0.0
0.0001668620640905393 -0.00011592930258063593 0.0
0.0016972768057937884 -0.0003228149477843037 0.0
0.00013309155137409057 -8.937646040457658e-5 0.0
0.000597092452919062 -0.0003649804692326282 0.0
0.002831143522865836 -5.6793581983845044e-5 0.0
0.0013839321152893697 -0.0003523968441898555 0.0
0.0018074875543925499 1.715654219412654e-5 0.0
0.0018199905846662055 4.203178624509838e-5 0.0
0.00036132424461089073 3.2408450628618864e-5 0.0
0.0004363678377674917 -0.00028532105038175167 0.0
0.0004032369849040681 -0.0002598793456537922 0.0
0.0008962619188070849 -0.0004810134172253864 0.0
0.0019921840108034295 -0.0005021761205540796 0.0
0.0010778129734093794 -0.0005210625740020828 0.0
0.002427112894999829 -0.00031378790239322573 0.0
0.002862349373739641 -5.906796121211692e-5 0.0
0.0012331678789632297 -0.0003061761858798968 0.0
0.0011947256463892314 -0.00029415778118867703 0.0
0.0011935314820945232 -0.0003122377584036226 0.0
0.0009513900871532176 0.00016984977473029009 0.0
0.0011573441131672924 -0.00029966764890611075 0.0
0.00023968479586236623 -7.879643454046456e-5 0.0
0.0016393084451978414 -0.0005705652957166268 0.0
0.001673423407884475 -0.0005560145101093555 0.0
0.0016781278771553308 -0.0005284030679604663 0.0
0.0017080528834602562 -0.0005406289608602435 0.0
0.0020321994945485086 -0.00035197944365844075 0.0
0.002045062870799589 -0.00032783023525980316 0.0
0.0028434122813348318 -4.7650798475802925e-5 0.0
0.0028099022608373955 -5.512147056397715e-5 0.0
0.0019014470104633575 6.461447489169642e-5 0.0
0.001833165371525816 6.8673650772483e-5 0.0
0.0005646266960035464 -0.00034142608879917123 0.0
0.0008366989849958493 -0.00045960793972742864 0.0
0.0008056022464066947 -0.00043943925650632624 0.0
0.0014545517323789603 -0.00020542734681745152 0.0
0.0023432588377491305 -0.0003741961724761762 0.0
0.0002909384479805109 3.243882285203488e-5 0.0
0.0008000067495988122 -0.00041656223896414116 0.0
0.0017028927952797463 -0.000569015114100154 0.0
0.001736958735092447 -0.000552790996982273 0.0
0.001701997228282472 -0.00030277443061799814 0.0
0.001657631814090788 -0.0003149157780551435 0.0
0.001661942757015121 -0.0002955327551079417 0.0
0.00154032559676568 -0.0001759778842347293 0.0
0.000239116439886627 -0.000110543373654639 0.0
0.00014256749010421973 -0.00010365218227733772 0.0
0.001714059619199792 -0.0005127954937675396 0.0
0.0017704378169847142 -0.00025567872713113136 0.0
0.0014153108316124667 -0.0005734990664988912 0.0
0.0005794808367570198 -0.00010836891989415417 0.0
0.0010196236003817223 -0.0002064348568818193 0.0
0.000468740813435664 -0.0003113690895710834 0.0
0.00244523892960851 -0.000279387877703038 0.0
0.0006262751176596707 -0.00026373602301836476 0.0
0.0005866109732533449 -0.00024246610574707442 0.0
0.0006236269533745666 -0.0002454936106289108 0.0
0.0005824369437057209 -0.00022450580969252728 0.0
0.0006206118810483815 -0.00022756003400427034 0.0
0.0005450497346417055 -0.00022097359078189954 0.0
0.0018988518832154628 -0.0005381157755366943 0.0
0.0018749555705324052 -0.0005280872955035399 0.0
0.00039971089177520404 7.72973450174972e-5 0.0
0.0014475842076203146 -0.0005894532000559498 0.0
0.0014102176234425297 -0.0004498567801370859 0.0
0.001374355301253327 -0.0004588585683914536 0.0
0.000687511740302073 -0.00041174482559252226 0.0
0.00018586205102541655 -5.834670725581224e-5 0.0
0.00019796781473424967 -7.113756539611385e-5 0.0
0.0026473841435835912 -0.00010476305149432707 0.0
0.002698997393188448 -8.433570494912845e-5 0.0
0.0004088232126765659 -3.3994146497580844e-5 0.0
0.0007131824825123031 -0.00041081182786167534 0.0
0.0007093597757745799 -0.0003897529364104241 0.0
0.0007188361041464375 -0.0004341886377540421 0.0
0.0006623841641432986 -0.0004123159735287774 0.0
0.0005217152437840759 0.00012083704649485761 0.0
0.001099910194970128 -0.00044703877813084586 0.0
0.0016918520230953954 -0.0003442377890535328 0.0
0.002658506879957514 -9.169944902196633e-5 0.0
0.0016062391584308459 -0.0005843738966179674 0.0
0.001048836546336721 -0.0005267257443262214 0.0
0.002871636999425544 -6.790165528581549e-5 0.0
0.0028536005165702982 -9.016687151828396e-5 0.0
0.0009605942660365537 0.00015546343206401006 0.0
0.0008113221741161982 -0.0004630056271288745 0.0
0.001881541682029889 -0.00026306315277577316 0.0
0.0019340288861856897 -0.0002471255842937322 0.0
0.00031001014755980275 -0.00012788821415594373 0.0
0.00041300714830195043 -0.0002824745872238493 0.0
0.0003808385885493393 -0.0002570232127021221 0.0
0.00037047908451830105 -0.00023529458208437263 0.0
0.0005721489509490067 -0.00036453180746779784 0.0
0.00010954685044518408 -7.673947415106648e-5 0.0
0.00010210947471025573 -6.633806319569507e-5 0.0
0.0017312740614431677 -0.0005819911797115328 0.0
0.0017644191154755002 -0.0005649400720795916 0.0
0.001770009897769486 -0.000534114964720096 0.0
0.0023960780303919826 -0.000271058175342841 0.0
0.0023694813322257006 -0.0002686839897200274 0.0
0.0023672650467158438 -0.00038315489852344946 0.0
0.0005403244302349428 -0.00020358473091641713 0.0
0.000503785225461502 -0.00020022314041654143 0.0
0.001975361647468598 -0.0002517530551000775 0.0
0.0028172923207218474 -3.260030861892564e-5 0.0
0.0028323455081464954 -3.469540765590996e-5 0.0
0.0028500543042683053 -4.135680724728797e-5 0.0
0.0028021171064427234 -0.00013107856852319645 0.0
0.0001760665651549522 -0.00013258175978457607 0.0
0.001839237095465875 -5.0881869332998806e-5 0.0
0.0017803911380922487 -4.84394319009981e-5 0.0
0.0017706509596707302 -6.536809381786106e-5 0.0
0.0017153533870405 -6.337742449532061e-5 0.0
0.0017092867615155544 -7.933375200631026e-5 0.0
0.0017198919471047409 -4.79169876630403e-5 0.0
0.0015350936138884062 -0.0003542425300354866 0.0
0.0012361373901335368 -0.0002711040752844706 0.0
0.0012771215847337538 -0.0002649616496052422 0.0
0.0003906039220691118 -0.00027960623017878066 0.0
0.00035876253458312624 -0.0002533813155140453 0.0
0.0025464720556931868 4.883871435654363e-5 0.0
0.0026376782948973215 3.988146505479183e-5 0.0
0.0026743205722365767 2.635403016966964e-5 0.0
0.0027282016811469505 2.9885960812840706e-5 0.0
0.0027046119668869576 4.118736550174162e-5 0.0
0.0013851439185257651 -0.0005579370816683421 0.0
0.0013846677072206195 -0.0005335213583211466 0.0
0.0013845993303773696 -0.0005833844326845591 0.0
0.00174451649202852 1.7664705119078366e-5 0.0
0.001734006206848525 -2.732159278165351e-6 0.0
0.00041002323478024524 -5.285897780356824e-5 0.0
0.00021322552495024684 1.9605618696314724e-5 0.0
0.0018650704317377364 -0.0005598481492583492 0.0
0.0004941829625469112 8.332298211501746e-5 0.0
0.0019000699592349158 -0.00033447924129822445 0.0
0.0017716631559095495 -8.147151848461847e-5 0.0
0.001703562694001622 -9.500430103843336e-5 0.0
0.0017546507123149884 -9.915767275236232e-5 0.0
0.0016975737621740907 -0.00011044191517256457 0.0
0.0017457934209410984 -0.00011501812867545651 0.0
0.0016918226547834496 -0.00012598450674036751 0.0
0.0017385764794058877 -0.00013086165538364315 0.0
0.0016863404335070757 -0.00014179410800716885 0.0
0.00173381141715035 -0.00014685625268869446 0.0
0.001646754532454291 -0.00010581645557478003 0.0
0.0016396774012997421 -0.00013651951325760174 0.0
0.001923929286870297 -0.0005484763104212046 0.0
0.00288341222008448 -3.737901300054335e-5 0.0
0.001004958581444722 -0.0004173472462591445 0.0
0.0009702593396059296 -0.00040029279895396154 0.0
0.0027078695435183795 -0.0001707661917096898 0.0
0.0011602535093152302 -0.00028451211117110336 0.0
0.0016573242799465151 -7.58131506183488e-5 0.0
0.0006573098740810851 0.00015817476620879535 0.0
0.00017239187390752814 -3.908055684744781e-5 0.0
0.0010408708971632098 0.00016841715750882084 0.0
0.001040955645939894 0.00015179420247514428 0.0
0.002221645984602884 5.975219643876286e-5 0.0
0.002734963238266808 -0.00016721299855232324 0.0
0.0026900148798702436 -0.00020375444888480395 0.0
0.0011551921920841682 -0.0003177463411785997 0.0
0.0011226420696753986 -0.0003023363409842332 0.0
0.0004923715540827079 -0.00029499898263344514 0.0
0.00011896836839011109 -9.045704037886067e-5 0.0
0.00014098013029138252 -4.802727534713875e-5 0.0
0.00014662766677557004 -5.6196540825852874e-5 0.0
8.644592439964738e-5 -6.321637930501855e-5 0.0
0.0020104933248110066 -0.00032533250925639704 0.0
0.0020571232110892864 -0.00030504836969271056 0.0
0.0020921783220159474 -0.0003067821547606525 0.0
0.0021041306650730895 -0.0002841105133813085 0.0
0.0016354441442995196 -0.0001514866311974097 0.0
0.0007750785440036908 0.0001792490818049414 0.0
0.0009644815965599086 0.00018148863612870526 0.0
0.0016181297907961521 -0.0003067790089861764 0.0
0.001622791452978983 -0.0002875859421217563 0.0
0.001238703721267534 -0.00025505631631002015 0.0
0.001058559309799258 -0.0002525287821737366 0.0
0.0010805793935069784 -0.0005456000445004489 0.0
0.002182199352540052 -0.00040756998624192297 0.0
0.0022067746996886017 -0.0004158103617572804 0.0
0.0021684910386089674 -0.0004431332752997416 0.0
0.0021923816058614896 -0.0004534781795217552 0.0
0.002155680867392402 -0.0004807790029905194 0.0
0.002131739401506734 -0.0004701985077587476 0.0
0.0020710357808517914 -0.0004570487831027416 0.0
0.0018808599226169023 -0.0004966842086664123 0.0
0.0020082306299652655 9.774048649701337e-5 0.0
0.0015184090737347634 -0.0004669949460443459 0.0
0.00042245016370274786 6.840212365067111e-6 0.0
0.002832883340426087 -0.00011889023278513826 0.0
0.0028765428485810892 -8.305143915753154e-5 0.0
0.0022303418389890816 -0.00042527599379348356 0.0
0.0022165624517308333 -0.00046399192597627046 0.0
0.002253182723640066 -0.00043586065285268564 0.0
0.0011085791042479733 -0.0005396499119618848 0.0
0.0013403177568461315 -0.000445053820274831 0.0
0.0013401199865201606 -0.00046699540488982436 0.0
0.001373209506780262 -0.00048168354283516484 0.0
0.0009097436595449163 -0.00034254689352374967 0.0
0.0013061631664883166 -0.0004526523938431988 0.0
0.0016838613821289023 -0.0005020452661184801 0.0
0.002415844445075668 -0.00024200040117491962 0.0
0.002469492223282861 -0.00028386789160573487 0.0
0.00245098897817318 -0.00032056431102512516 0.0
0.0024939606096253883 -0.00024734174162764535 0.0
0.00034505141538462527 -6.765835560415607e-5 0.0
0.0009847812288897749 -0.0004889088379300369 0.0
0.0009567027606049265 -0.000493408185657361 0.0
0.0009883647211930012 -0.0005128732226101102 0.0
0.0009616328417027382 -0.0005177157251364474 0.0
0.002138987765421941 -0.00028475862318116284 0.0
0.000604735374503361 -0.0003887000756736719 0.0
0.0005415108835104187 -0.00034111456794517114 0.0
0.0027913493281368773 -4.8202268718554776e-5 0.0
0.00016268142460383928 -2.0253418805220085e-5 0.0
0.00016105120928409862 -1.1156737013743017e-5 0.0
0.001839996651277837 -0.0005453345064578068 0.0
0.001835145804451948 -0.0005797045348736752 0.0
0.00149426452818334 -0.00036485881101787284 0.0
0.0027640040894401662 1.80870966122873e-5 0.0
0.0005485747220591003 -0.000364061279876648 0.0
0.002225866307431501 8.042934082911807e-5 0.0
0.0025892098690264423 -0.00018360735814140192 0.0
0.002625949443972642 7.284065643061249e-5 0.0
0.0026564303233163047 6.745041099771987e-5 0.0
0.0020686966107305383 -0.00028307070136803067 0.0
0.0022183377066404613 -0.00028972709526029747 0.0
0.0022479102706619656 -0.00028951951848586217 0.0
0.001984630404782849 9.092116818661544e-5 0.0
0.002042603877078165 8.202374137593792e-5 0.0
0.0021132525527849107 9.862092185937824e-5 0.0
0.0016975739854271908 -0.0005981591312685421 0.0
0.00084018574106039 -0.0004827871536534902 0.0
0.0012708642818056127 -0.0003365318211736324 0.0
0.0018332500524691155 -0.00027981648858563474 0.0
0.0016074850184108025 -0.00037282317626584496 0.0
0.0016356541858796947 -0.0005988406426301547 0.0
0.0007433178426640068 -0.0004325099377131825 0.0
0.0009397414478129967 -0.0004029792272956176 0.0
0.00038888932428704807 -0.00014245215385300027 0.0
0.0028030269381176948 2.0184563030336345e-5 0.0
0.0021287063267264716 -0.0003370573422233095 0.0
0.0002667354926381464 -0.00010690835405423512 0.0
0.0007864057070378004 0.00019447671146455742 0.0
0.0016234392677281029 -0.000478513103982117 0.0
0.002119526150792076 -0.0005081273461946142 0.0
0.002094345916466356 -0.0004970636106507099 0.0
0.0018790825315008043 -0.00038183569553156644 0.0
0.0019827975744989047 -0.00023110932462676344 0.0
0.0008632046033356085 -0.0002844382532764659 0.0
0.0013395954860441182 -0.0004934438504657428 0.0
0.001816690848773449 -0.00024339086802219548 0.0
0.0009357069648491435 -0.0003825540474484279 0.0
0.0009047008355796811 -0.0003845924510813227 0.0
0.000748906393561681 -0.0004562966857749749 0.0
0.0004747563965629431 -5.188770402090892e-5 0.0
0.0004770818886797906 -3.158357565255517e-5 0.0
0.0002190593500972741 2.7828703829133943e-5 0.0
0.00030258410395467815 4.39629394388519e-5 0.0
0.0023275678218963466 -0.0004132612479285397 0.0
0.0003514836926820173 -0.000149568919282487 0.0
0.0005090171480037208 -0.00021762830609494001 0.0
0.0004677837941384021 -0.00019612724875563614 0.0
0.0024656233375238775 -0.0002469478797728373 0.0
0.0012329542801704362 -0.0004450641040867896 0.0
0.0015753659347369515 -0.00034223048997047674 0.0
0.0019218673733063583 9.990347058015812e-5 0.0
0.0019025033736874448 0.00011127817538313117 0.0
0.001849626006165854 0.00010347177195172219 0.0
0.0018324282830360908 0.00010896804152194745 0.0
0.001880743438381741 0.00010960917408716507 0.0
0.0021334904201845855 -8.226891373794657e-8 0.0
0.0021953211231071287 -7.650160299736555e-6 0.0
0.002213387817590665 1.4762048768497818e-5 0.0
0.0022702653363558694 6.005684333397042e-6 0.0
0.002253094663815169 -1.6280107865831115e-5 0.0
0.0001339647518715461 -3.9798784934143034e-5 0.0
0.0021525806070814045 -0.00026310427763912085 0.0
0.0003778745632284733 8.254424099283458e-5 0.0
0.0004044952274661015 9.422098516569077e-5 0.0
0.0017582743640497322 -0.0005946906505275441 0.0
0.00010419068152208988 -9.530648075850433e-6 0.0
0.002368731463224706 -0.00015280886476858526 0.0
0.0024260056847298585 -0.00013110705405491074 0.0
0.002385559283112869 -0.0001308063182388953 0.0
0.0024714308066449003 -0.00012754791795365424 0.0
0.0024845207623746565 -0.0001099154173236016 0.0
0.002530823015719342 -0.00010667121792121578 0.0
0.0006626128580776028 -0.0002477710477696738 0.0
0.0006614899058348651 -0.0002302932557177392 0.0
0.0006173267745810958 -0.00020990617775933543 0.0
0.0006597804182200301 -0.00021308350068969856 0.0
0.0007041895873657226 -0.00023270986780675375 0.0
0.0007031625562309069 -0.00021540626184948685 0.0
0.000747006221938457 -0.00023420564458770176 0.0
0.0008170632516251599 -0.0004858600322381219 0.0
0.000746441758512098 -0.0002164204065152771 0.0
0.000790134238528585 -0.00023505251146392514 0.0
0.0002152717048044557 8.713643717567006e-7 0.0
0.00047381680883250743 -7.123378724008944e-5 0.0
0.0007889194742686417 -0.00025222440061623344 0.0
0.0006190807855841042 -0.00019464591495636958 0.0
0.002387692182342711 -0.00024192192590548927 0.0
0.0023425092880090944 -0.0002677886830320926 0.0
0.0013555117086812222 -0.0005684245536459034 0.0
0.001354713116456291 -0.0005931251305332205 0.0
0.0017831698938627922 0.00010227543876443607 0.0
0.000972590700454736 0.00013622204239917241 0.0
0.0010476834654082408 0.00012973299039013681 0.0
0.001111293235229852 0.00014391689745539985 0.0
0.001118110999822575 0.00011828793317439785 0.0
0.0010569244109448303 0.0001030288448206203 0.0
0.0011265341883614287 8.585458400011394e-5 0.0
0.001067502309501034 7.292407120530937e-5 0.0
0.0011374787511554084 5.223184805386637e-5 0.0
0.0010781265114119718 4.3222502936127776e-5 0.0
0.0011586070468370456 2.1101804046852163e-5 0.0
0.001087069736729629 1.6322026496512582e-5 0.0
0.0011539696826566629 -3.0248966186125944e-6 0.0
0.0010921003889519801 -7.263813132087213e-6 0.0
0.0011564812214272901 -2.4521611419414513e-5 0.0
0.0010997900710623385 -2.9382512707223544e-5 0.0
0.0011605356381126756 -4.4465002950016135e-5 0.0
0.0011043773972308911 -4.896155305509036e-5 0.0
0.0011612293924160774 -6.223495288411826e-5 0.0
0.0011077678704735174 -6.673337287683444e-5 0.0
0.0011622692181738655 -7.868502266418175e-5 0.0
0.0011100481516403845 -8.352499375136156e-5 0.0
0.0011624419781335626 -9.469049410960987e-5 0.0
0.0011103759676993625 -9.96270324128253e-5 0.0
0.0011621677490413571 -0.00010984409214885363 0.0
0.0011105511894483181 -0.0001157409675993731 0.0
0.0010584306423719163 -0.00010411269439907694 0.0
0.0010591582585985164 -0.00012090394032611509 0.0
0.0011655262144467705 -0.00012650490875729402 0.0
0.0010523176035370054 -5.321540728803943e-5 0.0
0.0012126621397561261 -0.00010341698044245029 0.0
0.001218833633506912 -7.438369830943702e-5 0.0
0.0010112853363444898 6.125938493398205e-5 0.0
0.001216299617858464 -3.932463020991595e-5 0.0
0.001005941844117419 -0.0001084079407104008 0.0
0.0010079255457011522 -0.0001254801580254312 0.0
0.0010600454595308226 -0.00013774313427928698 0.0
0.0010098786480538925 -0.0001424755338359561 0.0
0.0010355412806811678 -1.2318815701579832e-5 0.0
0.0012210167625413479 -2.3570920671809224e-6 0.0
0.0010049034034971328 -9.098928226939393e-5 0.0
0.001198424815592437 6.255979818462406e-5 0.0
0.0010612334305811625 -0.00015441055371478706 0.0
0.0010115721173938861 -0.00015935412791268113 0.0
0.0009602269829091583 -0.0001467086797489967 0.0
0.0009503690276647582 -9.515873696756523e-5 0.0
0.0009467946201216537 -7.59107609935689e-5 0.0
0.0011112722610334112 -0.0001488324668977203 0.0
0.0011108861418935715 -0.00016518717790451007 0.0
0.0011594707342037684 -0.0001593764236848159 0.0
0.0011808848509088873 0.00012987703422386496 0.0
0.0011794850695964212 0.00014891415624944255 0.0
0.0009639439015131756 -0.00016403425506920553 0.0
0.0009114135147566449 -0.00015070004447960295 0.0
0.0009087432743231426 -0.00013366382512561845 0.0
0.0008570528976183664 -0.00013664821359190042 0.0
0.0016037846279851407 -0.0006122009081009278 0.0
0.0015746977178515528 -0.00059745034162403 0.0
0.002716319369908237 -0.000200640825241647 0.0
0.0017203927624118425 -0.00048603888817858916 0.0
0.001750907450088661 -0.0004965321209764817 0.0
0.0009973282941126477 -0.00039587325525069583 0.0
0.0010323397704127615 -0.0004122492961982809 0.0
0.0024294732737071218 7.191280673354365e-5 0.0
0.001747520228594529 -0.00028878864288490596 0.0
0.0010145734634418534 -0.00017584376481916562 0.0
0.0007705432084376054 -0.000417937819809604 0.0
0.00076787152668435 -0.0003963691232437019 0.0
0.0007948076619975295 -0.0003948887398904785 0.0
0.0019399215039620041 -0.00022681225282371334 0.0
0.0017972067027332446 -0.00010494724165551912 0.0
0.0011934867813068858 -0.0003308381382210051 0.0
0.001156088377532131 -0.00033664466381850053 0.0
0.0016718068474060508 -2.051918347435413e-6 0.0
0.0016658806973894587 -1.8467047085608752e-5 0.0
0.0017188070121936397 -2.0036694821696905e-5 0.0
0.0016553777751742954 -3.568758059197135e-5 0.0
0.0016818890829437994 1.5900772549541687e-5 0.0
0.001785090652206213 -0.00013613301687411038 0.0
0.0017811694138556006 -0.00015210222026526484 0.0
0.001724918782744542 -0.000162926601526284 0.0
0.0012798642661729887 -0.0002488079686263855 0.0
0.0013186851452480631 -0.0002584102242379852 0.0
0.001321979550309314 -0.00024276291262201037 0.0
0.0013602272011848614 -0.0002514233238892533 0.0
0.0013635507888620814 -0.00023601189733264287 0.0
0.0014017632862470691 -0.00024415724991542706 0.0
0.001405367317199896 -0.00022901887817303792 0.0
0.0014452598026298473 -0.00023650892127879231 0.0
0.001440583710384094 -0.0002524669067044603 0.0
0.0014851818617121631 -0.00024212659153208428 0.0
0.0016684973040269064 -0.00027738051910545196 0.0
0.0016272481236405737 -0.0002695852451346383 0.0
0.001583359131930096 -0.0002797818852136275 0.0
0.0015871508028158215 -0.00026229220404949764 0.0
0.00030407345350459073 -0.00011475803563009038 0.0
0.00036950481581701376 -0.0002765133108328328 0.0
0.00033812494363280035 -0.0002495266606598397 0.0
0.0003277531637380077 -0.0002266425443459603 0.0
0.00030612558661836193 -0.00022163575115932097 0.0
0.0014974230925267691 -0.0003444792869751272 0.0
0.0020252138168988707 -0.00023407639657102672 0.0
0.002013444530976479 -0.00025608080217512185 0.0
0.0007803634752205749 0.00016177793687116612 0.0
0.0015914968841576238 -0.00014623178311674618 0.0
0.0015939110421470436 -0.00013304635524490166 0.0
0.0016769785237694072 9.13671753298083e-5 0.0
0.0028382485718643287 -6.433831933234965e-5 0.0
0.0028779197599179338 -4.6475357583339334e-5 0.0
0.0029049116319706685 -3.8754075615029593e-5 0.0
0.00010137673699107601 -3.7242175373622905e-5 0.0
0.00010458073215366558 -4.2857527010494896e-5 0.0
0.0001480788738569069 -6.279050724388524e-5 0.0
0.00011072529902096719 -4.9787972997250624e-5 0.0
0.0001514836059756081 -7.044090286836446e-5 0.0
0.00011507329855596946 -5.6479550789301855e-5 0.0
7.107922565422602e-5 -3.3958833176982765e-5 0.0
0.0014569201131083823 -0.00035441891986631426 0.0
0.000704444796467987 -0.00019879858220155523 0.0
0.00042368373700262283 -0.00030595259921119565 0.0
0.0011575176626105552 -0.00017444774220426527 0.0
0.0026799414992712475 -0.0002334924311579473 0.0
0.0026515540903763717 -0.00024210535483429996 0.0
0.0022648251409302994 -0.00026559429835050773 0.0
0.002304894437915423 -0.0002601673171769549 0.0
0.0023178989955770666 -0.0002367121070220666 0.0
0.00013999804730576777 1.4698002265927152e-5 0.0
0.001053323309020803 -0.0005514719975810981 0.0
0.0007255283236689791 -0.00045866256081422734 0.0
9.613295778409259e-5 -7.668701542981254e-5 0.0
0.0001310395420700853 -0.0001099792465668804 0.0
0.0005751993999763445 -0.00019121134756768795 0.0
0.0018219613306553236 0.00010011012723640117 0.0
0.0018778475220962974 9.484016705844129e-5 0.0
0.002184407961257722 -0.00029106417688031763 0.0
0.0022753876887922427 -0.0002904990063163473 0.0
0.0009927990457271059 -0.0005366686083476618 0.0
0.0011101674747284367 -0.0005633345173517773 0.0
0.0011384208655526734 -0.0005579076730593067 0.0
0.002492401851880994 -0.00029000243623831937 0.0
0.0024739775805806994 -0.00032803970309675803 0.0
0.0024317718294635865 -0.00036528742040945475 0.0
0.0027111722030014195 -7.289984434269513e-5 0.0
0.0026704734092923414 -7.950312371632038e-5 0.0
0.0026169725960797714 -9.813344879251937e-5 0.0
0.0026250785078892522 -8.57000467017225e-5 0.0
0.0004921500011822816 -0.00018391322178253747 0.0
0.002541652737043223 -9.080546412436166e-5 0.0
0.0024874138446304827 -9.336474538750714e-5 0.0
0.0017590706936093847 -0.00047098294105137284 0.0
0.00031461255754438233 -0.00024226720945480908 0.0
0.0002865408714300329 -0.00021862003507177588 0.0
0.0002756964978111965 -0.0001972318517611747 0.0
0.00025649864609491376 -0.00019272782050461134 0.0
0.00291358727514762 -3.17887956398337e-5 0.0
0.0028474211471039707 -3.543264360554119e-5 0.0
0.002885510621332422 -2.426438264908507e-5 0.0
0.0023499871807329447 -0.000421681735365844 0.0
0.0011969941786141372 -0.00026000064022058946 0.0
0.0025135305933862823 -0.0002974931377416896 0.0
0.00249733926083983 -0.0003341935387009125 0.0
0.002534237867671013 -0.00030455841546707407 0.0
0.0025212949193854695 -0.00034306780626244663 0.0
0.002559409041582722 -0.00030717872839126014 0.0
0.0025727200232850823 -0.0002733712244958632 0.0
0.0025940975740065537 -0.00027840586400600104 0.0
0.001386653021209489 -0.0006081875028205114 0.0
0.0013585963456864084 -0.0006201258850272841 0.0
0.0013213060380917088 -0.0006021201082902832 0.0
0.000968275315900804 -0.0001815630764082758 0.0
8.241586842102356e-5 -4.2886814554951487e-5 0.0
0.00011892165248472448 -6.34930624497532e-5 0.0
8.66734368303264e-5 -4.862292946196829e-5 0.0
0.0009703350853532966 -0.0005460244070014169 0.0
0.0009377428181903795 -0.0005234040906938608 0.0
0.0027944448772209136 -0.000154759101510458 0.0
0.00023139868190600956 3.628301183716747e-5 0.0
0.0015447570452920944 -0.0002739310388918939 0.0
0.0015501169878477808 -0.0002558602055754655 0.0
0.002706144658847842 1.4065254168204324e-5 0.0
0.0027931866848580258 8.19154683475856e-6 0.0
0.002510368516971058 -0.00021941175002620643 0.0
0.0005203785190010254 -0.0003401180890898419 0.0
0.0005309467124334387 -0.0003656855314547107 0.0
0.002130258668907186 -0.00030646505155600514 0.0
0.0021791858538786966 4.2236506630795645e-5 0.0
0.0028566119488642764 -0.00011032615612818323 0.0
0.0028991977392932556 -7.402275646209987e-5 0.0
0.0029163906668308558 -5.302446477475482e-5 0.0
0.002098794135955116 7.339104415310742e-5 0.0
0.0024350559017352947 -0.00021691067834021327 0.0
0.001325526665388545 -0.0005347520879565746 0.0
0.0025164896768565675 -0.00012344672422197274 0.0
0.002352361119744315 -0.0002468618893149711 0.0
0.0009031285586142202 -0.00036330681126536834 0.0
0.0005324516603603714 -0.0003183960184025018 0.0
0.0027564290525437926 -6.359615807677429e-5 0.0
0.0022747853365887444 9.875692311212797e-5 0.0
0.000938864168767341 -0.0005462401063306095 0.0
0.0004380485460777007 -0.0001652268875158797 0.0
0.0015810651405970633 -0.00016237626341652483 0.0
0.0023032749658730587 -0.00040907607128372884 0.0
0.002292600580828511 -0.0004447808895821524 0.0
6.540215940159992e-5 -5.033306570868971e-5 0.0
0.0017887705521033392 -0.00058045604864842 0.0
0.0017779730196954206 -0.0006058115296355181 0.0
0.0011383058483950721 -0.0005854091617158272 0.0
0.0011680628610715941 -0.0005767838956989948 0.0
0.0011663543258394378 -0.0005517189531701621 0.0
0.0011964977623260375 -0.0005694268276485101 0.0
0.0011689493462799028 -0.000597807641015043 0.0
0.0010040735721345004 -7.318884324120172e-5 0.0
0.0009450885524372782 -5.7674191356990234e-5 0.0
0.0004079035211867464 -6.994555733822763e-5 0.0
0.0008801231952334769 0.0002004798821868766 0.0
0.0008735013321501591 0.0001873479745678868 0.0
0.001798161813948746 8.569833385109708e-5 0.0
0.002236904783743451 -0.0004751622548347113 0.0
0.002203750153965589 -0.0005024302767944895 0.0
0.00026442309819667357 -0.00021398755428889526 0.0
0.000235175939737201 -0.00018614102763501723 0.0
0.0028998920207388822 -2.3977289438696444e-5 0.0
0.00048025474628047063 -0.00021477065156567373 0.0
0.0004341801557513148 -0.00019489784609258778 0.0
0.0026999652041048263 6.986426351310246e-5 0.0
0.002756697536725359 -0.0001658135319174362 0.0
0.002737579689819149 -0.0002015510578662488 0.0
0.0016292552122222962 -0.00016700161760815584 0.0
0.0018569666792964297 -0.0005909449386683444 0.0
0.0018206900549329207 -0.000614736929545562 0.0
0.0008286214980346379 -0.0002514677729717752 0.0
0.000832684164487871 -0.00023435191398351728 0.0
0.0011964011807514617 -0.0005449058714780693 0.0
0.0025229508630360904 -0.00025002701124809246 0.0
0.0014486547026453967 -0.00022112037313169514 0.0
0.0014121808447697835 -0.00021373516083309519 0.0
7.941186145642799e-5 -6.717391459611366e-5 0.0
0.0008680765430678188 0.000311412568163466 0.0
0.0013237927587531906 -0.0002267518514736482 0.0
0.0008933744727440521 -8.08689740113657e-5 0.0
0.0008995855166989166 -9.946943693083225e-5 0.0
0.0005401612037422562 -7.028049203639624e-5 0.0
0.0018366205850687894 -0.00013977209038340652 0.0
0.00120372088509123 -0.00016880734931149413 0.0
0.0012069521657737529 -0.0001541999023024428 0.0
0.0012499611597943815 -0.00016340213624165272 0.0
0.0012521992555940406 -0.0001496359701845725 0.0
0.0012934912836126747 -0.00015702516828743914 0.0
0.0012962942421266912 -0.00014408943363342102 0.0
0.0012541300243512307 -0.00013640910769184317 0.0
0.0012986253149516902 -0.0001310115037087732 0.0
0.001256618927952049 -0.0001236456547612379 0.0
0.0013017450163505964 -0.00011842566908269332 0.0
0.0013348680323018375 -0.00015115080953111552 0.0
0.00011148771140932371 -4.1680539160724095e-6 0.0
0.0017728452561523863 -0.00017057550736681898 0.0
0.0012066675980767186 -0.00024447829683962445 0.0
0.0011871166179000642 9.824282624033556e-5 0.0
0.0012694110527027484 6.698352385618198e-5 0.0
0.0012704594207089697 3.648537897075056e-5 0.0
0.0012507995630822188 0.00010763858412038122 0.0
0.0012124237462192691 3.2133517074335875e-5 0.0
0.0012816384262703143 1.3395180389429464e-5 0.0
0.0013472519106058646 1.3209071970931085e-5 0.0
0.0013201460014381848 8.456775971636383e-5 0.0
0.0001892366466727069 -8.364633939845847e-5 0.0
0.0001950007615042626 -9.383869362464233e-5 0.0
0.0029004574356169127 1.4246226241195985e-5 0.0
0.0028034263490681398 3.144468830750393e-5 0.0
0.002797229172990409 3.771433772893493e-5 0.0
0.002146915014109633 -0.0005226829572946074 0.0
0.002107602337489658 -0.0005476837575755642 0.0
0.0007626799141557884 -0.0003752363723645309 0.0
0.0007906390499644438 -0.00037333837477525567 0.0
0.000734290241185242 -0.0003758355074374672 0.0
0.0008408276873327217 -8.8285330368906e-5 0.0
0.0013310763098484514 3.763474795642946e-5 0.0
0.001345359778651449 -0.0001251471920111481 0.0
0.001345421345215454 -0.00011245256424677226 0.0
0.0013041594498771005 -0.00010598090159941347 0.0
0.0013465477226158023 -0.00010098670789731421 0.0
0.0013086093867844568 -9.417137045062214e-5 0.0
0.0007880250715668792 -0.0004669189514079638 0.0
0.0028918864520626787 2.245464725486571e-5 0.0
0.0012535205229377983 0.00013504039665022022 0.0
0.0017297259162435596 8.288850783005482e-5 0.0
0.0017349280930575612 5.931021861964735e-5 0.0
0.001667039019794623 5.0093024468900616e-5 0.0
0.0008872202985888871 0.00013884752787194355 0.0
0.0011182182095667754 0.00016855938971150968 0.0
0.0010549468057473948 0.0001789845193195674 0.0
0.0010196571639243615 0.00018743971464869072 0.0
0.0019471480484198177 3.630219576417457e-5 0.0
0.0023902860113088234 -0.00039241675365195007 0.0
0.0023719274420037025 -0.0004349389553793782 0.0
0.0007530440133128707 -0.00047961110331879505 0.0
0.0012262090042764932 -0.000562542985846993 0.0
0.001227192015444631 -0.000586619198630958 0.0
0.001255255632829102 -0.0005796606160617307 0.0
0.001260105119058552 -0.0006069156213389668 0.0
0.0020911859328900935 9.22257856289629e-5 0.0
0.002033535224211252 8.11500064719599e-5 0.0
0.0021126866847058596 7.724566716862712e-5 0.0
0.0021742232443163496 8.595274712457676e-5 0.0
0.0015945517161213328 -0.00024580369658219595 0.0
0.0015617126088468334 -0.00023828543914940393 0.0
0.0012858562340047428 -0.0005956128661304786 0.0
0.0008681110220864187 -0.0001560124173471555 0.0
5.306628773714798e-5 -3.7488890122015644e-5 0.0
0.001216334171106473 -1.965593090971719e-5 0.0
0.0012727199003491863 -3.456960902351147e-5 0.0
0.0012731046394493435 -5.0731762540726796e-5 0.0
0.0013277896087422407 -4.600965241135485e-5 0.0
0.001324735275339851 -5.918411314192114e-5 0.0
0.001327645637815924 -3.228857106200194e-5 0.0
0.0012789250185917518 -6.425578419303721e-5 0.0
0.0013232394290479755 -7.142499713850345e-5 0.0
0.0013783967774710895 -4.141326621188763e-5 0.0
0.0019567212626715007 8.373959030101483e-5 0.0
0.0012814832510738387 -7.729183475494631e-5 0.0
0.0029355386404093815 -7.15930530999894e-7 0.0
0.0011095782036075294 -0.00018104868247912652 0.0
0.0013724450507849898 -0.0005053081491650871 0.0
0.0014084560379968864 -0.0004964774722468293 0.0
0.0012764675172409225 -1.8388705860891764e-5 0.0
0.0013354949362893221 -1.812940456000879e-5 0.0
0.0016777505718911386 -0.00026001300472694184 0.0
0.0021038444854234984 -0.0004612367661823338 0.0
0.002067011548136521 -0.0004901234391654444 0.0
0.0020585691089387835 -0.0005246419706299545 0.0
0.0020334408766443522 -0.0005177162303060616 0.0
0.0020273849668654854 -0.0005493627911856287 0.0
0.002000523802582827 -0.0005443570515452738 0.0
0.002452232945037402 -1.8341937151141712e-5 0.0
0.0024008382866355315 -3.8483401147578165e-5 0.0
0.002425123871599484 -5.432165972909449e-5 0.0
0.002349578508678161 -6.053199005867453e-5 0.0
0.0023711666757325472 -7.651059147454371e-5 0.0
0.0022960683615734423 -8.422634527169874e-5 0.0
0.002318775338286016 -0.0001000839361665707 0.0
0.0022729965594887663 -6.757721685276318e-5 0.0
0.0022212552436716095 -9.169996225391772e-5 0.0
0.0023896992763954984 -9.169808125656512e-5 0.0
0.0021970400745391426 -7.536660565423154e-5 0.0
0.0023367609580299013 -0.00011524161521479545 0.0
0.002269930498360547 -0.0001237857228250224 0.0
0.002284827934913604 -0.00013908573315311903 0.0
0.0022493796665656223 -5.1777970200846476e-5 0.0
0.002372966316619024 -2.1591671464034602e-5 0.0
0.00240628491326462 -0.00010704881595148504 0.0
0.0025049316134610647 -5.1149561017033876e-5 0.0
0.002454231331220987 -8.436097591216346e-5 0.0
0.0016081991166466791 -1.7435528532204014e-5 0.0
0.0010922463244785777 0.00017260100668055805 0.0
0.00016142324751643956 -8.230519337187447e-5 0.0
0.00015240937338625984 -0.00012044063569462145 0.0
0.00018352502279473783 -0.00014907754326288518 0.0
0.0012840164747198353 -0.0005718863473099594 0.0
0.0017233515727916157 -0.00026913457232042226 0.0
0.001661393210988411 -6.1522810678657e-5 0.0
0.001605389414309653 -7.246622049238224e-5 0.0
0.0016157306949822682 -5.953406731850531e-5 0.0
0.0016059733672538139 -8.57354432251482e-5 0.0
0.0016528241555795443 -9.029020782834875e-5 0.0
0.0016010255259145505 -9.95315776431622e-5 0.0
0.001595040374368576 -0.00011263187896104701 0.0
0.001556220181365281 -0.00010723543211728718 0.0
0.00019862686054385848 -0.00014253287387056964 0.0
0.0018599011136045949 -8.79584268475977e-6 0.0
0.00226435459849888 4.346421079777753e-5 0.0
0.002171996982136489 4.643872155334536e-5 0.0
0.00011952448354584765 2.0203653017170167e-5 0.0
0.00025205184211681594 4.95560370389439e-5 0.0
0.0002318617137948771 4.212334424067092e-5 0.0
0.0018946482019167475 -5.7595823355315615e-5 0.0
0.000254708458515748 -0.0001683618079097531 0.0
0.0002946252919511311 -0.00019911750920120053 0.0
0.00031887702073253664 -0.00020675154809049364 0.0
0.00031504094414734005 -0.00018965552426887015 0.0
0.0003402270840653891 -0.0001925550759028487 0.0
0.0012144827919105914 -8.951065904894807e-5 0.0
0.0001373826646711011 9.038371794512897e-6 0.0
0.0005803397110258796 -0.00016185776715187865 0.0
0.0004773620879806778 -0.00015219563047901935 0.0
0.001335351050572246 -2.783114060885374e-6 0.0
0.00036597872940216035 0.00011756704944260708 0.0
0.002028168251892909 -0.00047858613302330166 0.0
0.0017875811480639345 -2.8923375789813256e-5 0.0
0.002817170577532006 -0.00014773804512616034 0.0
0.002247723963747866 -0.00010768187418865552 0.0
0.0021739171401139634 -0.00011529063033167226 0.0
0.0020830827906002224 -0.0005357575072154028 0.0
0.0029412738489958024 -3.600616775774493e-6 0.0
0.002883306100680067 -1.0155203602683695e-5 0.0
0.0028946914818321996 -1.3639469506338004e-5 0.0
0.0028737586739628947 -5.263376450421049e-6 0.0
0.0028284007802998976 -1.981248601849618e-5 0.0
0.0028663088186525335 2.2959427410002863e-7 0.0
0.002798579490257519 -4.894773225851808e-6 0.0
0.0028121729238498364 -1.3011144523814279e-5 0.0
3.493617348631244e-5 -1.5921734321420763e-5 0.0
0.0029625500780122768 -1.0711575975340013e-5 0.0
0.00292141339746789 -2.1058322118054104e-5 0.0
0.002946416187917229 -1.1450042717566442e-5 0.0
0.002925060897866084 -2.2582859863067994e-5 0.0
0.0017535076283637814 3.9913655632332674e-5 0.0
0.002182133161235306 -0.0004900950947499865 0.0
2.7766173782088622e-5 -1.6295253843565954e-5 0.0
0.002971164279227409 -1.2054966752067473e-5 0.0
0.0009833618770325953 0.0001133536673208015 0.0
0.002388116393432955 1.771109382175568e-5 0.0
0.0008189712678906759 -7.566406852486021e-6 0.0
0.000886883802454754 -1.7431393540621626e-7 0.0
0.0008860834711943337 2.7365810922983375e-5 0.0
0.0008857827597265585 -2.3974707978680558e-5 0.0
0.0009439814774952496 -1.9725299556456722e-5 0.0
0.0009603634872059443 3.1596828889575027e-6 0.0
0.0009557197006890232 3.197517440936913e-5 0.0
0.0008898125428146152 5.391337949592647e-5 0.0
0.0008324709727675374 7.855006151964453e-5 0.0
0.0008265456546473506 -3.626872497051649e-5 0.0
0.002463430925943699 -0.00036349972516355034 0.0
0.002933816077072144 5.58116049495507e-6 0.0
0.001198097851674485 -0.0005206924784522676 0.0
0.00040517462009662683 -0.0003078760268095145 0.0
0.0013173437277718763 -0.0005117508024664713 0.0
0.0010203915290462827 -0.0005320576715816996 0.0
0.0010228339911411337 -0.0005563701385484364 0.0
0.0013898853375598071 -0.00010660084943039522 0.0
0.001895953286626761 -9.804983061101612e-5 0.0
0.0025690087940483243 7.767152833963305e-5 0.0
0.0026074913473312423 6.584415530607737e-5 0.0
0.0025253457449287125 6.92427029325864e-5 0.0
0.00018940538655725083 -7.629121035666497e-5 0.0
0.00037912813328351303 -0.00029939162805889583 0.0
0.0010092976100358594 0.0002298562635376238 0.0
0.0009116085601679179 0.0002265297587245217 0.0
0.0021645886153522464 1.1804686116662414e-5 0.0
0.0011140318502434348 0.0001612693087891525 0.0
0.002678586658091947 -0.00017413318379079317 0.0
0.0013051742928561997 -0.00043091798702987613 0.0
0.002057041988243596 9.94911871416894e-6 0.0
0.0021058251842853565 3.796266053026311e-5 0.0
0.0009106250159758322 9.512068511623799e-5 0.0
0.0007308542630024754 -0.0004837133831218009 0.0
0.0026566161745365927 -0.00021181634767993688 0.0
0.00044577181029300096 -0.00030843256327381906 0.0
0.0004723930817345255 -0.0003303502895152608 0.0
0.00045881153495773875 -0.0003366191707885786 0.0
0.0006913637562133712 -0.00016412501660129054 0.0
0.0016359385941471496 -0.00012114714527444013 0.0
0.0018401362955809705 -7.600298094836131e-5 0.0
0.001111699081575272 -0.00013206321422881877 0.0
0.0011609405786721081 -0.00014378301337904248 0.0
0.0028684098843834104 2.99820671958767e-5 0.0
0.0027206529130850794 5.57453876577729e-5 0.0
0.00013838189577442556 2.9243746189224645e-5 0.0
3.483875552933275e-5 -1.727716696645083e-5 0.0
0.0013393939164203286 -0.00013805890956312787 0.0
4.468876611467174e-5 -1.1064735559610938e-5 0.0
0.00010738681178313848 -2.3310818978936733e-5 0.0
0.0013018871264289698 -0.0004923993635283882 0.0
0.0018930341041592847 4.6019238150848076e-5 0.0
0.0011567060313073937 0.0001606683254884125 0.0
0.0018094339226372152 -0.00026048261084264977 0.0
0.0013557317703294944 -8.93150120043893e-5 0.0
0.0023702364712106525 -0.0002086292954888269 0.0
0.0027801038786490775 -0.00013220643420566453 0.0
0.0008697957300955436 -0.0003656923036155542 0.0
0.000873670889280286 -0.00038708767817349755 0.0
0.0008384604459538055 -0.0003655287577922276 0.0
0.0008021242866988485 -0.00034425700202153896 0.0
2.8569086480654178e-5 -1.8022181668561326e-5 0.0
5.33001717967756e-5 -3.4729347075309715e-5 0.0
5.949372693975912e-5 -3.585256846408069e-5 0.0
0.0007486723544272396 -0.0002515406531829922 0.0
0.0007088736646151643 -0.00025250958039787076 0.0
0.002965289994853552 -1.1189763660798273e-5 0.0
0.0015732868990320987 -0.0006255055267352871 0.0
0.0015440080740256313 -0.0006100876420604756 0.0
0.0015426998721599207 -0.0006377296361437148 0.0
0.001513371807092876 -0.0006221176660538703 0.0
0.001482024260151035 -0.0006328354008493894 0.0
0.0014801661960355394 -0.0006055825592302996 0.0
0.0015444874827591443 -0.0005825980219881167 0.0
0.002040819344725179 4.68027902249402e-5 0.0
0.0003434844484102413 -5.174189731940461e-5 0.0
0.00040132487304534825 -8.574820964335782e-5 0.0
0.0003492850921340131 -8.399108264797644e-5 0.0
0.0018587852135644755 -0.00024848573024964017 0.0
0.0006609441441996518 0.00017337965712148855 0.0
0.0014767003861049237 -0.0002596509961054923 0.0
4.623092505453675e-5 -1.6688877653813818e-5 0.0
0.0009110656089176942 -0.0005247621403391136 0.0
0.0008822474957292488 -0.0005227325116133544 0.0
0.0008871688652759269 -0.0005032814140921208 0.0
0.0010169431623265868 -0.0005077941872395698 0.0
0.0008699163822450009 -0.00034214736509196914 0.0
0.0003904113219418284 -0.0001566490388512266 0.0
0.00023200584964276532 -0.00011635414103193765 0.0
0.00294960987581347 -7.354667574416291e-6 0.0
0.0029066299816363646 -1.5352451970609865e-5 0.0
0.0005800602094533763 -0.0003886055245677441 0.0
0.0006943997801418382 -0.0004350745842711837 0.0
0.0006692439912731814 -0.0004367818333497082 0.0
0.0006370865646466116 -0.00041267412144525573 0.0
0.0006426374459310031 -0.0004364999867176064 0.0
0.0017804359762561657 6.734558657698069e-5 0.0
0.0012427145467292038 0.00014430374153161118 0.0
0.0018903134037998488 -0.0005704510315825233 0.0
0.0019143913545754784 -0.0005820164103728261 0.0
0.0019457715060678708 -0.0005608699708830749 0.0
0.0018783625960254527 -0.0006068458768943844 0.0
0.0009390930334121761 -0.00036496999708664684 0.0
0.001661577331256903 -0.00046497627443046655 0.0
0.0011447767292465058 0.00016368256104891065 0.0
0.0012162396355477054 -5.853661490056274e-5 0.0
0.002972471261466094 -1.3163543248665312e-5 0.0
0.002946331447136091 -2.75977600869894e-5 0.0
0.0029352941373436145 -2.8711939646561572e-5 0.0
0.0006117212349718025 -0.0004128143163494763 0.0
0.0005874066559675704 -0.00041180672688712674 0.0
0.0008793407570168777 -5.811442015806871e-5 0.0
0.0007705866360138788 -0.0003473338125568143 0.0
0.00276624348151685 -9.32178150030699e-5 0.0
0.002264608127219006 6.114305924834518e-5 0.0
0.001328622227191673 -0.00016422994437167654 0.0
0.0013693554657240757 -0.0001572021964536954 0.0
0.0017731646806076352 0.00010249536642478293 0.0
0.002155617618087908 -0.0004009233391772597 0.0
0.0012693027690984166 -0.0004381570449348694 0.0
0.0012709615495227803 -0.00046061094642971576 0.0
0.00032525263772779 5.752412408090449e-5 0.0
0.0007076301009031124 -0.00034803299278893805 0.0
0.000675773432187092 -0.000345039260528757 0.0
0.0006400798704948085 -0.00032265506838969807 0.0
0.0006450101319457716 -0.0003441063879130766 0.0
0.0005424578809976317 -4.9636104122404204e-5 0.0
0.0005451010139326971 -2.7662080401156108e-5 0.0
0.0006084963855967132 -9.124773869246908e-5 0.0
0.0019049518294905502 -0.0006158109892428162 0.0
0.0018518099296533114 -0.0004600652149571589 0.0
0.0018099776060480485 -0.00048006179360882747 0.0
0.0018460535895220332 -0.0004929277141740717 0.0
0.0018048551989642552 -0.0005133126093248504 0.0
0.0018298555529928672 -0.0005233461352868524 0.0
0.001885249483966787 -0.00046750442471636927 0.0
0.0019159686057052079 -0.0004723312590564973 0.0
2.4383221178768317e-5 -1.778731232861227e-5 0.0
0.0029767511988989634 -1.497693455631485e-5 0.0
0.002410518725654362 -0.0003520392387838084 0.0
0.0017250515675850274 -0.0006103980960142287 0.0
0.0027504629396367924 5.243376947495422e-5 0.0
0.0016686814290108275 -0.0005843403054696822 0.0
0.0016633010848027925 -0.0006122854412108354 0.0
0.002215167894857679 -0.00026342268341460065 0.0
0.0019881890705713556 -0.0002108665161844683 0.0
0.0019469052515893063 -0.0002064990121687515 0.0
0.000924354517253801 -0.00047426738376458386 0.0
0.0005459963104742944 -0.0002961438198855288 0.0
0.0022159392344941746 -0.00014950789678890177 0.0
0.0023108866716139965 -0.0003732450144323717 0.0
0.0010155831348698224 -0.0002922624462914435 0.0
0.0010531534790837345 -0.00028840853336712063 0.0
0.001051432391661524 -0.0003071577159341182 0.0
0.001055989506941385 -0.0002703432205981109 0.0
0.0010142542341468695 -0.00031120149009030156 0.0
0.0010898322191924138 -0.00028623197519567694 0.0
0.0010950639634850652 -0.0002693808900782848 0.0
0.0011055151174336397 -0.00025086313281954354 0.0
0.0022016462537197703 0.00010727247760789492 0.0
0.00025548793106788717 5.434831361576241e-5 0.0
0.0021471182313411844 -9.959430264306661e-5 0.0
0.0023239814093173644 -0.0002173639840064944 0.0
0.00048459058974547123 0.00012875797734527642 0.0
0.00041434012528462796 -1.3693927613131909e-5 0.0
0.0006099906429712786 -4.7026730256739166e-5 0.0
0.0004801183098360951 -0.0002697246468642433 0.0
0.0010158303070017698 -0.00025592132162711073 0.0
0.0007906055622761685 -0.00021673736275770508 0.0
0.0008450551976733435 -0.0002174009256269721 0.0
0.000879234264565317 -0.0002363892696349497 0.0
0.00141576643132968 -0.0005994002861168178 0.0
0.0014491252008159415 -0.0006158397704666235 0.0
0.0014491523310654559 -0.0006455517124623519 0.0
0.0014801983308208846 -0.0005789134071932246 0.0
0.00226801668045887 -0.0003980920322586512 0.0
0.0010613849877854904 -0.0001705491664196109 0.0
0.0021564160042950816 -0.00023909751500972068 0.0
0.0010135373173427915 -0.0004840413664657989 0.0
0.001545043608506105 -0.0005557786868269341 0.0
0.0010788274315526956 -0.0005713146868006584 0.0
0.002742492309914301 1.7396129988813615e-6 0.0
0.0014370618176592893 -0.0002690425454544062 0.0
0.0003473500317106362 -0.00013516675461144209 0.0
0.0010917031924864416 -0.0004027965431541785 0.0
0.0011272438126783198 -0.0004194027873773342 0.0
0.001018647016993247 -0.00036978324326110304 0.0
0.0011062982988169756 -0.0005154403106789982 0.0
0.0017305026272472995 -0.00035249176233429223 0.0
0.001686040257215568 -0.0003668233593402183 0.0
0.0017241113711724393 -0.0003753846403024018 0.0
0.002122500991526674 -8.370709866251185e-5 0.0
0.0013048328912947324 -0.0004093390689262025 0.0
0.0009437404955756034 -0.0003365943701714388 0.0
0.0016799094768715876 -0.00015720525060192468 0.0
0.0016704050747493896 -0.000173320535697387 0.0
0.00037869605824870125 -0.00021595129547307218 0.0
0.0007828216360812282 -0.00044400464296590335 0.0
0.0019567494316250285 -0.0005258800294142297 0.0
0.0016644269849570364 -4.8452200612737525e-5 0.0
0.0015209486263464535 -0.00044290397722004325 0.0
0.001483059455611078 -0.00045378453211202793 0.0
0.0014812850213641452 -0.00047805968822520146 0.0
0.0014457163932331306 -0.0004638089656015067 0.0
0.0014450471054702468 -0.0004881176016722593 0.0
0.0015160695814738904 -0.0004914240986181773 0.0
0.0017980824863424191 -6.326679561247549e-6 0.0
0.001194830534795599 -0.0003496737200346314 0.0
0.0011593944617741259 -0.00035531777846318195 0.0
0.0016529528877025454 -0.00033632030358441594 0.0
0.00098225596537833 -0.0003724168133008538 0.0
0.0016324357984500988 -0.0006259265987460986 0.0
0.0012325227260198061 -0.0004232302844788134 0.0
0.0014476346526659518 -0.00044054031403182865 0.0
0.002050351181005495 -0.0005599226076966539 0.0
0.0013163360286272284 -0.0002752687806722103 0.0
0.002813328319151276 -4.844031521446861e-5 0.0
0.0014544188601976903 -0.0003749904442411161 0.0
0.0006611314394358575 -0.00026532946621755135 0.0
0.0013262067481699107 0.00012478453362269076 0.0
0.002046084205883363 -0.00044473522353576366 0.0
0.0026894452839568276 5.798713541262122e-5 0.0
0.0004320450244922622 2.712112595186589e-5 0.0
0.00044992407206281935 4.617922457057448e-5 0.0
0.0004986792702066432 1.660891251703506e-5 0.0
0.0005288905519050556 4.0027526198758965e-5 0.0
0.0005793298188413375 2.3490786531706102e-5 0.0
0.002101209606856962 -0.00012308114767616167 0.0
0.0011994423971648754 -0.000596690510155691 0.0
0.0013571825854855543 -0.0002681428245056051 0.0
8.804805848802641e-5 -2.4280930416366555e-5 0.0
0.0010502404500406406 0.00018922558021966274 0.0
0.0009748882711501765 0.00019724477618013626 0.0
0.001984600434113191 6.810733025203627e-5 0.0
0.001166194912622314 -0.0005034351207264063 0.0
0.0013276862036387886 -0.0005786009294576828 0.0
0.0011591952490035732 -0.0001908601737149753 0.0
0.0016143075890234818 -0.00032796380847833096 0.0
0.001572341032683531 -0.00031833343006480963 0.0
0.0015802789745239293 -0.000297506135055227 0.0
0.0016821891775127278 3.303393249422089e-5 0.0
0.0010963457740058653 -0.00042467933139953603 0.0
0.0007469933490086066 -0.0001990203484126199 0.0
0.0011199015698607018 -0.00032039470698433755 0.0
0.00015592337147628374 -8.597920099085638e-5 0.0
0.0015460781670391772 -0.00015390059516507995 0.0
0.0006298425540459174 -0.00038856847459099345 0.0
0.0015383641046203221 -0.0003335328755623594 0.0
0.0009311726392604267 -0.0004984765257869948 0.0
0.002076956129448446 -0.00021464245455606146 0.0
0.0013863524971579287 -0.00033287392378728036 0.0
0.0014093715210377496 -0.000473075968785076 0.0
0.0026010723023585087 -0.00015976324310179094 0.0
0.0005586217552138336 -0.00038790569438522154 0.0
0.00284240740616681 -0.0001403216999964751 0.0
0.0011552859150483568 -0.00025823048472581816 0.0
0.001380955236022499 -0.0003726094139624473 0.0
0.0002587379071804303 -9.443450026264889e-5 0.0
0.002608750948102753 -0.00011129160513524293 0.0
0.0016176866699867823 -0.0005041217627008693 0.0
8.863863694358446e-5 -2.871533797048952e-5 0.0
0.0014916524390582303 -0.00021233380060874585 0.0
0.0014888867750861277 -0.00022625745589054902 0.0
0.0027976417559482315 -3.0002057192621883e-5 0.0
0.0016039238485334331 -0.0006396387560978564 0.0
0.0005172434336404297 -0.0002938356689131943 0.0
0.002889336832977963 -5.099282966567086e-5 0.0
0.0015400294740712899 -0.0002899576642841802 0.0
0.0014259012255411054 -0.0003245591999287228 0.0
0.0017836235799300792 -0.0004438773371351757 0.0
0.001746092003622456 -0.0004345080770841268 0.0
0.001629403297865403 -0.00045335987256596536 0.0
0.0013542972861859352 -0.00028567724766252777 0.0
0.001670747889664503 -0.0006565082828665682 0.0
0.0017957203149422 -0.0006473973946289577 0.0
0.0012801343983318261 -0.0006335022684056297 0.0
0.0013775839625270998 -0.0006457247269299343 0.0
0.0019760174463828665 -0.0006096717716116947 0.0
0.0019679532532558153 -0.0005760550007002811 0.0
0.0010270405958853705 -0.0005796335351941732 0.0
0.000814775340732257 -0.0005184720425316572 0.0
0.001733776036619933 -0.0006534790602423885 0.0
0.0010930031252843007 -0.0005984352813025289 0.0
0.0012271693608422777 -0.00022991671106041445 0.0
0.0025584526644734447 -7.340833855592827e-5 0.0
0.0020775043997413403 -0.00033065483420092415 0.0
0.0020606640946674126 -0.00035609878582542524 0.0
0.001051112199252259 -0.0003274300163641385 0.0
0.001788398608091513 -0.00029585407303813784 0.0
0.0014133121123518578 -0.0005198335817908745 0.0
0.0007392702271235863 -0.0004098885415307297 0.0
0.0005530465707849948 -0.00023974935653958763 0.0
0.0012328139894180585 -0.00032445129968420634 0.0
0.002614381375658132 2.100952384886117e-5 0.0
0.001022914620459566 1.2080176560895996e-5 0.0
0.001398630899228926 -0.0002604787353127644 0.0
0.001648491281457126 -0.0003591987610432914 0.0
0.00020609941801811595 -0.00016027149256062897 0.0
0.0002139980825376554 -0.0001791961847607005 0.0
0.001232665499043656 -0.00046744523441586826 0.0
0.0010370522489692325 -0.00043487184259033613 0.0
0.0014915697507575155 -0.00038600863934810226 0.0
0.0027746810216071603 4.592923679608149e-5 0.0
0.001576219447598685 -0.0005699518049209108 0.0
0.002940257097281973 -4.204053020257505e-5 0.0
0.002917882464579079 -6.775663347012009e-5 0.0
0.0008127412125947493 -0.00014175497044650163 0.0
0.0012701580454725792 -0.0003556422276637872 0.0
0.0013406707447206263 -0.0004229587053709516 0.0
0.0028546382043389365 1.0560985053630608e-5 0.0
0.0014069381995653928 1.7262491533284064e-5 0.0
0.0019536560112002927 -0.000452807899162803 0.0
0.002018404053463285 -0.00037713406124451423 0.0
0.0007995582323281096 -0.0004926936081730769 0.0
0.0018533471441427737 -0.0003515159525975777 0.0
0.001271726855536468 -0.0003178329440735559 0.0
0.0019462846989220283 -0.0003170961922465244 0.0
0.0019358245598424602 -0.00034039789284351265 0.0
0.0019930977014242486 -0.0002993322119272506 0.0
0.0006717358505076728 -0.0004610364347227836 0.0
0.002336326761016495 -2.0009843194661963e-6 0.0
0.0016905333873819255 -0.0006291707250884788 0.0
0.002405830103387281 -0.00040524869264102383 0.0
0.002199998121203968 -0.0002392280823461935 0.0
0.0014187972022632067 -0.0001991133125108425 0.0
0.001802408174854506 -0.0005468092678537648 0.0
0.0011304456525924737 -0.0004411702591081947 0.0
0.0011870210914863325 -0.0002750859875585482 0.0
0.002765013159947624 -2.313231152466311e-5 0.0
0.0006297256704893562 -0.00018062464040483024 0.0
0.0021210991211971842 -0.00013842571857624716 0.0
0.001405706805500946 -0.0001332270286072469 0.0
0.0018284578122947542 -0.0003011645920603675 0.0
0.002647898743784408 -6.937688336329818e-5 0.0
0.00023031488446626625 -9.716390197331835e-5 0.0
0.0021153981051771032 -0.0003620869698520925 0.0
0.0016046518410871768 -3.206435726742928e-5 0.0
0.001589530343508283 -4.544863065713401e-5 0.0
0.0017424105607105353 -0.0005241572159901918 0.0
0.0016036430282649042 -0.0003953539687984399 0.0
0.0016479911901329887 -0.0005163412050811627 0.0
0.002143451212088364 -0.0004343360883683344 0.0
0.002179258779717525 -3.1285882440885334e-5 0.0
0.0014164425719423572 3.225944286482711e-6 0.0
0.001954590073155059 0.00011280113016934495 0.0
0.0025412167707216248 -0.00021582075598017855 0.0
0.0025560304537922277 -0.0001893902816369128 0.0
0.0014086091946155655 -8.073069334502955e-5 0.0
0.0009437991150467459 -0.0004243206263798447 0.0
0.0019227500128888755 7.203936160292849e-5 0.0
0.001416895792131286 -2.150665768398696e-5 0.0
0.0018436438842041646 -0.0003752483566943772 0.0
0.0028941065564164446 -6.124107558976536e-5 0.0
0.0004924406236035919 -0.00031317799193022225 0.0
0.0017876518279788802 -0.00018554422410059398 0.0
0.0014157707559714547 -5.0318336631213934e-5 0.0
0.0014091051911121139 -7.135743111218123e-5 0.0
0.0004953089753580817 -8.540363378517063e-6 0.0
0.0025940378681254253 7.41320426783493e-5 0.0
0.001512276930060291 -0.0001366772642957169 0.0
0.0026367871863735605 -0.00015371897725222967 0.0
0.0009092435615532415 -0.00040556598731385354 0.0
0.0022253461334446117 -0.0005169276264851053 0.0
0.00228612507817227 -0.0004958970785350436 0.0
0.0008267039178605061 -0.0004146482497094182 0.0
0.001912468361545707 -0.00038820278625678004 0.0
0.0012482239843799748 -0.0006289152362758682 0.0
0.0018390559111268543 -0.00011298293013312654 0.0
0.0005367240214838539 -0.00039945141911092066 0.0
0.0015329590487282887 -6.360553664581113e-5 0.0
0.0015854446841072408 -0.00017703955158469744 0.0
0.0015598773187105476 -8.143990693608803e-5 0.0
0.001681351547059573 -0.00039054687793675685 0.0
0.0020468821543978928 -0.00038150955244077486 0.0
7.549163955720487e-5 -7.140735172376042e-5 0.0
0.00012946872671223955 -0.00012026621216883172 0.0
0.00015487594972386678 -0.00014221696160330625 0.0
0.0027440687131561935 -0.00022236297091890857 0.0
0.0002072979957176346 -0.00018675239709338272 0.0
0.00084579672847124 -0.00038838033316178616 0.0
0.0003809754349973449 4.8180707188937906e-5 0.0
0.0024359934256846932 -0.0004219103205122056 0.0
0.00045625530334090413 -0.0003542705969138014 0.0
0.0005107036650401726 -0.0003855555797433281 0.0
0.002712609763674557 -0.0002444840422268991 0.0
0.002650513898227192 -0.00029071956773426964 0.0
0.0015691172360237642 -0.00022265488388488187 0.0
0.0011364020714855411 -0.0005341841870803891 0.0
0.0021683458394097747 -5.704306124968911e-5 0.0
0.002496918997619727 -0.000385462580957144 0.0
0.0025276025668494167 -0.00036824200305666735 0.0
0.00040391418394843494 -0.0003252936557567144 0.0
0.00028287092778102633 -0.0002425073764331894 0.0
0.002589640548360337 -0.0003296599129155934 0.0
0.0026153779138154754 -0.0002838396058856915 0.0
0.0017515784489944806 -0.0006255038699459713 0.0
0.00033444196062954736 -0.00027958070769432017 0.0
0.002125755067666852 -0.0005655755565110052 0.0
0.0005569349822121936 -0.00031925498199802125 0.0
0.0024211523825188493 -0.00027469986556023757 0.0
0.0008479456752300496 -0.0005085010630750025 0.0
0.002246964657036438 -0.00038800052333273885 0.0
0.0023250184406047045 -4.429750878549754e-5 0.0
0.0008275664793160158 -0.0002856531573912837 0.0
0.0005611946673754097 -0.0002588050791875283 0.0
0.0010699103217196922 -0.0004523165946493578 0.0
0.0014166566666117522 -0.0003846060515401694 0.0
0.002452955487212957 -0.00014625069478692006 0.0
0.0015123391601467235 -0.0005943414623955742 0.0
0.0015509098348359873 -0.00014140068174116173 0.0
0.0015436781601012182 -4.3228295948678236e-5 0.0
0.0019653656673154253 -0.0002729897787605074 0.0
0.0022561683602402884 -0.0003185258888959228 0.0
0.0008167827922475235 4.6598251590315974e-5 0.0
0.0018599331345036543 8.930505983203051e-5 0.0
0.0009002653831082442 -0.000282834494679054 0.0
0.002460847516526267 -0.00021757704449098836 0.0
0.0005890725765504591 9.106420294049787e-5 0.0
0.0004967458903381791 6.766239974894219e-5 0.0
0.001260976750281294 -9.867372648225473e-5 0.0
0.0025862314434685722 -8.858095804376905e-5 0.0
0.001398253577658399 5.5678893266730926e-5 0.0
0.0015028138140588787 -0.0001715100947360952 0.0
0.0027358922788595454 -7.724669216297471e-5 0.0
0.0007596039162420759 -0.00028668482804216364 0.0
0.0009345899098817973 -0.00019190540723539853 0.0
0.0021148159006706573 -0.0002620981804180657 0.0
0.0023255361353838253 -0.0002954211580012164 0.0
0.000661208398526333 -0.0002844461699880667 0.0
0.00039330993865369665 -0.00023836098585326116 0.0
0.0022292610266211174 -0.0003157355482828734 0.0
0.000958647777733426 -0.00013007140678799578 0.0
0.002232444041255926 -0.00017560235193012327 0.0
0.0029484452569859564 -3.0256471153935477e-5 0.0
0.002441738443582353 -6.951010183849143e-5 0.0
0.0015714203112054614 2.3127351621572688e-7 0.0
0.0016201394214284445 -1.2965671029720257e-6 0.0
0.0018223519942529522 -0.0002253003135297003 0.0
0.002683052853266434 -1.4407329766678599e-5 0.0
0.0026357468259112023 8.020245148110024e-6 0.0
0.00012493126548022667 -7.779339627461717e-5 0.0
9.380065055654969e-5 -5.675055413308793e-5 0.0
0.0011664113285108167 -0.0005272716634966878 0.0
0.0018891195553866745 -0.00035793325281802265 0.0
0.0010625723123528778 -0.00020243131615996164 0.0
0.00106270757632079 -0.00018668248764147838 0.0
0.0010581389345314693 -8.786972528399155e-5 0.0
0.0014808637251026526 -0.0005027244220417433 0.0
0.0017411962039015144 -0.00019931843908678392 0.0
0.0004671647745526299 -8.806726623667598e-5 0.0
0.0020552038666540786 -0.00014611218592290885 0.0
0.0015959754794566878 2.9617084662963958e-5 0.0
0.0012323134836044409 -0.0003432534595401737 0.0
4.971527565690287e-5 -5.874949618789309e-6 0.0
0.0014189953195743444 -0.0003638000688182604 0.0
0.0027186152670538918 -9.112146875002062e-5 0.0
0.002316394690053443 -0.00017496836093893175 0.0
0.0022013640340500943 -0.00013097386025821917 0.0
0.002598527637892099 -0.00012640953115129923 0.0
0.001888341829545082 -0.00015764406165309034 0.0
0.0010474080282709632 -3.4784000855724994e-5 0.0
0.00034250531182399116 -0.00012143116760726727 0.0
0.0012781854285424245 -0.0001820872786945352 0.0
0.0016052138509009921 -0.00022962004482784205 0.0
0.00042801742458305187 -0.00020748502374622955 0.0
0.0013452095128215988 -0.0006423661488729482 0.0
0.0018253118062942827 -0.00015737033560063056 0.0
0.0008804520472063795 -0.00040845818866921984 0.0
0.0019828291698192353 5.913171970127541e-5 0.0
0.002491478790531204 -0.0001423179760169955 0.0
0.0009543987467384227 -0.0001126310986160316 0.0
0.002168497233402515 0.00011050688053752269 0.0
0.0016620435517366195 -0.00018914524026475277 0.0
0.001421694846383273 -0.0003437099284550898 0.0
0.0005247057647798405 -0.00010668920173443318 0.0
0.0009759555058223778 -0.0002087642419950675 0.0
0.0013034043142238086 0.0001150120764926818 0.0
0.00039847348536854477 6.333385910988597e-5 0.0
0.0021863145843139154 -0.0002624535582099398 0.0
0.0005784055805518488 -0.0002073282434986919 0.0
0.001461421539912126 -0.00033498310178583336 0.0
0.002459095652094587 5.7142953137449523e-5 0.0
0.0020776184055311766 -0.00026029679376749724 0.0
0.0010021513688565145 8.818946369858175e-5 0.0
0.00017942638517954437 -4.8703484587380617e-5 0.0
0.0007461035807543445 -0.00018145931780895225 0.0
6.582459692033704e-5 4.905530770917396e-6 0.0
0.00013647540339469335 2.08326299805326e-6 0.0
0.002067944025769551 -0.000240166250625045 0.0
0.0017143315068216128 -3.449453894328158e-5 0.0
0.0009634000063445843 -0.0005679701078012378 0.0
0.0006768889289387958 -0.0003676466914057551 0.0
0.0024368756349266076 -0.00011330319163415433 0.0
0.0003444323020483429 -0.0002713269456990604 0.0
0.002000824711394943 -0.0002779589137787895 0.0
0.0016532655541577857 -0.0004906089603614952 0.0
0.0024100595208773764 8.455442460741184e-5 0.0
0.0008651977060795307 -0.00048015269375733773 0.0
0.0026104058382553546 -0.00024323354388025348 0.0
0.0015057643146297226 -0.00015996824741739318 0.0
0.0004908610516904698 -0.00035634980253916837 0.0
0.0020006446899729917 -0.0005762374401902197 0.0
0.0004927885397147426 -0.00023430909221211298 0.0
0.002793139883164736 -8.767309635433716e-5 0.0
0.00035503482676431473 -0.0001636295553058494 0.0
0.0020651156386752266 3.4259313397763594e-6 0.0
0.0018923380696083398 -0.0001397334921284819 0.0
0.001547480382905389 -2.263827044265467e-5 0.0
6.837842627874404e-5 7.4373256480843465e-6 0.0
0.0011879343425647668 0.0001553574164687237 0.0
0.0008023540220953201 -0.00012174749553013784 0.0
0.0023121807536888275 -0.00045318917453094775 0.0
0.002344267689278906 -0.0004723091032853062 0.0
0.000219392795850445 -9.946107297006037e-6 0.0
0.001709548574318238 -0.000178754295227073 0.0
0.000705177987668325 -0.00036887773128877773 0.0
0.0011970903831258685 -0.0003687687332925469 0.0
7.914334951220985e-5 -5.3598310570718046e-5 0.0
0.00016464581721954574 -2.945926173872076e-5 0.0
0.0016367790171780393 -0.0002526444284282326 0.0
0.0015014847928995802 -0.00032502585380909634 0.0
0.00010685663027664095 -1.630058220670303e-5 0.0
0.0002931106592229311 -0.00010005753505134223 0.0
0.0002324843271092079 -0.00020591520100360518 0.0
0.0024402741711202665 -0.0002443779861401932 0.0
0.0019234280196443144 -0.0003639288310957687 0.0
0.0003568760352222503 -0.00021473840399155984 0.0
0.002292766270672875 -3.0241793146104808e-5 0.0
0.0021046466450066192 -4.8182931583924646e-5 0.0
0.0001654105543507699 -0.0001412535387722433 0.0
0.0012204524315187655 -0.00012900611015537235 0.0
2.1370032392980016e-5 -1.870329370522398e-5 0.0
0.002977359993749325 -2.013214015705565e-5 0.0
0.002885985236880378 -3.269033475528849e-5 0.0
0.0008762286691862814 -0.000541223433245341 0.0
0.00229700920204678 2.5672546825810734e-5 0.0
0.0019230245831010828 -0.00044562666589809856 0.0
0.00039176651598101956 -0.00017087352291608152 0.0
0.001825172379806059 -0.00064278954975739 0.0
0.00041952636597370315 -0.00010272847518226102 0.0
0.0025741008301915728 -0.00010334010503403968 0.0
0.0011600006638226796 -0.0003739023402369271 0.0
0.00011708594865058904 -6.7799244194731e-5 0.0
0.001369847278246521 -5.520075591971155e-5 0.0
0.0013668362363920142 -6.642196945689976e-5 0.0
0.0027085740329524845 4.877845413906601e-5 0.0
0.0016444770837446615 -0.00038155431080296094 0.0
0.00020933289911945652 1.0207448201547688e-5 0.0
0.002579313871743742 -0.00031281200232893103 0.0
0.002734768213279897 -5.95081683198356e-5 0.0
0.0020869442797148 4.515249001099837e-5 0.0
0.0021428612390641576 2.5619922748741823e-5 0.0
0.0012578001336680513 -0.0005550242681514679 0.0
0.0029076412061388272 -8.963387520605464e-5 0.0
0.0012584003639310557 -0.00011128818607984441 0.0
0.0002956313763296283 6.758431052963157e-5 0.0
0.00035020441057428346 -0.00023343996172897204 0.0
0.0009010855400092565 0.00012032504867251523 0.0
0.0025877080718973715 -0.00024066962886707936 0.0
0.0001513654765169998 2.0757322337393886e-5 0.0
0.0015509394471241208 -0.0001296517607577465 0.0
0.0023293672563551335 -0.00015312432021342344 0.0
0.0018630801316944653 -0.00023191926272846819 0.0
0.002928871944868023 -2.4040284597637615e-5 0.0
7.074823673993342e-5 -3.0485405061718624e-5 0.0
0.002750153704260201 -1.3332118081553265e-5 0.0
0.0029389999939482534 -2.4134356324238842e-5 0.0
0.0014176765832365928 -0.0006240131337138648 0.0
0.0016854032753753688 -0.0002426840713719555 0.0
0.0010228975335133525 0.000176464923850379 0.0
0.0006962109004844835 -0.0002849149639162271 0.0
0.0009206957023721405 -0.00017000855377776345 0.0
0.0012117559423882687 -0.00014146801392632763 0.0
0.0005944073167157786 7.46033432144625e-5 0.0
0.001065888107448417 -0.00042927352222939534 0.0
0.0005329741569129168 -8.770033295357966e-5 0.0
0.000366738126416329 7.573657652445294e-5 0.0
0.0013695421864434768 -0.00022139621173544028 0.0
0.0020879214165856062 -0.0003593572006919845 0.0
0.0024855294061640197 -0.0002191960933572778 0.0
0.0009968119029131267 -3.813941309435384e-5 0.0
0.0006908540747580337 0.00014172206265194133 0.0
0.0016170763674446366 5.0469012735497485e-5 0.0
0.0008558427880121181 -0.000119417500286512 0.0
0.0023577885508327475 -0.00022829673268953677 0.0
0.0008683599441792077 0.00017782202376949875 0.0
0.000784464699727819 0.00017124924938139477 0.0
0.0016117091671577059 -0.0003503382862232969 0.0
0.0016662671831837214 8.0892593292347e-5 0.0
0.0011509772095645088 -0.0006119618362841933 0.0
0.002188935643597755 -0.0005400847907237941 0.0
0.00078956246605794 -0.0002689202974262309 0.0
0.002036372146406737 -0.0005964586566748884 0.0
0.0006373681087924109 -0.00011260657949423888 0.0
0.002399211001300425 -0.0002216019935746079 0.0
0.001122582297942961 -0.0003596288570230173 0.0
0.00256124602196275 -0.00013358717460007009 0.0
0.000698010321682424 -0.0002678862267688785 0.0
0.0012320812985598104 0.0001457978755264624 0.0
0.0010566849853857123 -7.071587943307895e-5 0.0
0.0013082892370637437 -0.0004731691159640189 0.0
0.0013975909899207877 -0.0001666537925643495 0.0
0.0013641040576289267 -7.702107385102221e-5 0.0
0.0008099690464329326 -0.0003670559056224192 0.0
0.0008200227802441708 -0.0003914649984643022 0.0
0.0005309630812647596 -0.00018702373221029853 0.0
0.0008029792809682663 0.00022658037620756148 0.0
0.0013556331536130478 -0.000545595891309837 0.0
0.0025954993675867417 5.3219755626039055e-5 0.0
0.0022995525735068287 -0.0002930235959576311 0.0
0.001627495455652432 1.3601950442320062e-5 0.0
0.0007554864177038057 -0.0002695458089481245 0.0
0.0020314630555746554 -0.00021195470921561395 0.0
0.0016917679167779785 -0.0004760544391773175 0.0
0.0011207418032620614 -0.0003395461038727858 0.0
0.0027658722984204645 -7.186914891642423e-5 0.0
0.0029101051399794283 -4.54031811174797e-5 0.0
0.0010176550645985803 -0.0001914377538169032 0.0
0.0019344169230158823 -0.0005946642776766089 0.0
0.002648415076052647 -0.0002690570020762118 0.0
0.00013378297162689606 -3.4213353898569784e-5 0.0
0.0007019685381760893 -0.0001822004985859535 0.0
0.0008266796050842342 -0.00026853073606422065 0.0
0.002702930991138821 -0.00023158761628233363 0.0
0.001060701202257705 -0.0004060101960735096 0.0
0.0018676807763223118 7.129901800630792e-5 0.0
0.0002934601880705352 -0.00023679294218544565 0.0
0.001700753448108563 -0.0002867207669908758 0.0
0.0024809227516478845 -0.00019373599053412136 0.0
0.0019670539814478894 -0.0003454545437453344 0.0
0.002814581001653398 -6.922356874057015e-5 0.0
0.001976578552668871 -0.0005386812325831288 0.0
5.035811435388128e-5 -2.957622734410202e-6 0.0
0.0013034462673560542 -0.00021443674667274125 0.0
5.481510012555878e-5 -3.042264810754413e-5 0.0
0.000947089749733775 7.52890209339518e-5 0.0
0.0006206085988295579 -2.8039586637742734e-5 0.0
4.75304851280083e-5 -3.929137005513958e-5 0.0
0.0007587692995002049 -0.0005009904999698522 0.0
0.000702690545440231 -0.0004576453143573098 0.0
0.0012660535255119597 -8.743957274903396e-5 0.0
0.0012839120257713255 -4.018517583793637e-6 0.0
0.0005182294892559204 -0.0003722109827280147 0.0
0.0009048313844813134 -0.00011670257498661565 0.0
0.0017424023410474766 -0.0001858265414007368 0.0
0.00052102447893467 -0.00023664218947838374 0.0
0.0019389292411035185 9.804480420359964e-5 0.0
0.0017339498212374778 -0.00046022699580302825 0.0
0.00038089902273794106 -0.00010218823506085258 0.0
0.00022822412470626947 -0.0001682410610635255 0.0
0.0015146745923140903 -0.00011451872375384744 0.0
0.00010828031958688327 -9.391758326005988e-5 0.0
0.0028535352301655562 -2.2580600527190164e-5 0.0
0.0010186945898218115 3.6881307489555595e-5 0.0
0.001379436570781735 -0.0002049495017934966 0.0
0.002548796768840489 -0.0002705656493083213 0.0
0.002803941013997339 -0.00017656312326263835 0.0
0.0023420309977258535 -0.000131222760704411 0.0
0.0013511770048195465 -0.000521056782827892 0.0
0.001769343851973846 -0.00027072095257862173 0.0
0.0024839276789074285 -0.0003694997697922868 0.0
0.0014785387123242796 -0.0006559890142161348 0.0
0.002448239288304 -0.00019710448986276746 0.0
0.0019780871823160584 -0.00032242117167438194 0.0
0.001024613259268482 -0.00038915076708658707 0.0
0.0017693208228494871 8.737327120017272e-5 0.0
0.001080999746493588 -0.00032238428855377863 0.0
0.0009115294854191784 -0.0005044454160390224 0.0
0.0013597220363620079 -0.00017134200994788003 0.0
0.0022623977363369556 -0.00047653656058421593 0.0
0.0005255844422810214 -0.00017138011300947735 0.0
0.00043580242321214827 -0.0003285943754883255 0.0
0.0021368687121956532 6.15536161470794e-5 0.0
0.0006628467089813866 -0.00019805048451287965 0.0
0.0017165696374429294 9.649698685524045e-5 0.0
0.000996265871060903 0.0003451359415132667 0.0
0.0022375740446070836 8.435659958814983e-5 0.0
0.002558985151396228 -0.00012008432395849876 0.0
0.0014259343445609531 -4.125635230344864e-5 0.0
0.002284839058027592 -0.00015522603420152012 0.0
0.0017765888996356147 -0.000504711262386106 0.0
0.0018800094688821828 -0.0006365271760352917 0.0
0.0008648215231460161 -0.000266643653206636 0.0
0.000942250839678637 0.00018749055736028982 0.0
0.0005757226167654681 -0.00017619894947521736 0.0
0.0006470554160961337 -0.00045588094098952375 0.0
0.0012783511321671252 -0.0002354219185283646 0.0
7.13232468120837e-5 -2.8101267232655313e-5 0.0
0.0004996798195860471 -0.00034103646834875905 0.0
0.0014123096150050615 -9.880019062166724e-5 0.0
0.00017747425892597146 -0.00010273324222145896 0.0
0.00016753314355991679 -4.213956794324324e-6 0.0
0.0015331685546436295 -0.0003169773702933013 0.0
0.0015527815108911517 -0.00011879880574061856 0.0
0.0027651029585590097 -0.00018771146140305952 0.0
0.0012148715598603644 -0.00011690890202822452 0.0
0.002105037454715554 -0.00033384861443870356 0.0
0.001570173526919516 -6.685752348589627e-5 0.0
0.0004109349862552315 7.387758359624923e-5 0.0
0.0005325147841730992 5.78553313022108e-5 0.0
0.0028614960634570693 -4.868825759533296e-5 0.0
0.0018192396568481799 7.898226903138011e-5 0.0
0.00043012632978503123 -0.0001771059095700038 0.0
0.001787965065502234 -0.0001206037959014485 0.0
0.0013695630936237258 -2.8129088272270286e-5 0.0
0.0015351875802962493 -0.0001647276093854353 0.0
0.0005441836675792985 0.00013418015532461894 0.0
0.001541556136140049 -0.0006611254790281946 0.0
0.0027167841877600136 -3.284539848072031e-5 0.0
0.0015109446899561464 -0.00026699710524722016 0.0
0.001516410519961033 -8.364379160050808e-5 0.0
0.001921680454188154 -0.0001972189427326366 0.0
0.0013163409847479586 -8.2947656405357e-5 0.0
0.001519376593065663 -0.00024852465022061825 0.0
0.0007391851154451936 -0.0003935608788344849 0.0
0.0020232864341435124 -0.0003037713736967681 0.0
0.001203112752157234 -0.0001926871660674612 0.0
0.001513310103137406 -0.0001044751041421436 0.0
0.0023705881148383175 -0.0004626323212761425 0.0
0.0012870443577098275 -0.0001686996708481684 0.0
0.0018050867983902391 -9.004935169654762e-5 0.0
0.0015780852736817035 -5.66741953111077e-5 0.0
0.0002402718120410991 -0.00020095509222248077 0.0
0.0023149699171680087 -0.000271315570382306 0.0
0.0015644239457796962 -9.406310860437796e-5 0.0
0.0008643131261991273 -0.0005013529526537026 0.0
0.001718220781523526 9.24078108279216e-5 0.0
0.0020979605361346617 -0.0005811386852443997 0.0
0.0028782014169157597 3.495665065739527e-5 0.0
0.00014674024556564908 6.069046503476487e-5 0.0
0.0012460286503918512 -0.00024277008245788848 0.0
0.0016574292712460345 -0.0006362126630214209 0.0
0.0010482773170129422 -0.0005689434801025347 0.0
0.0011892304110406023 -0.0006201907662957369 0.0
0.00022818597183621586 -8.883500604129673e-5 0.0
0.0021442937210795292 -0.00031624437774660985 0.0
0.0008693002673651499 -0.00024935898006548497 0.0
0.0012425417995036612 -0.00017478060240419584 0.0
0.0009988007393147303 -5.5549971502069295e-5 0.0
0.0012304096301137236 -0.000608430828802718 0.0
0.002121701809025876 0.0001090818978759846 0.0
0.0027415958900357156 5.3660561116427476e-5 0.0
0.001776965700615112 -0.0004823702314533495 0.0
0.0015046348471411813 -0.00028705091851604476 0.0
0.0009648271836045527 -0.0003831820921199006 0.0
0.0016063517644309363 -0.000663400230611184 0.0
0.0022402809848285823 -0.0002650823229988963 0.0
0.00020295214058454596 -0.00010414862923197053 0.0
0.00267319354112105 -7.097723212043098e-5 0.0
0.0012965136430520658 -0.0006170694021421256 0.0
0.0013267101399595288 -0.0005565436272571563 0.0
0.002011334182483749 -0.0005123906783754476 0.0
0.002953092779882941 -3.739665241292354e-5 0.0
0.0011086476744562586 -0.0005841414134912683 0.0
0.000942523144909365 -3.9713109895957945e-5 0.0
0.0009813547847165158 -0.00019578868020547294 0.0
0.001907565984008389 -0.000219208667506424 0.0
0.0028699038137553765 -2.430064008083901e-5 0.0
0.00024774214929877036 -0.00017576025294233815 0.0
0.001525819552088199 -0.00023240007644017652 0.0
0.0026254004015033626 -0.0002505011832959085 0.0
0.00286119737132574 5.180721877766102e-6 0.0
0.0008307664549977807 -0.0001617429605560744 0.0
0.001326748868737259 -0.0006237305097757907 0.0
0.002777341954011126 -6.216610450382077e-5 0.0
0.0005156729755125879 -0.0003213207397562156 0.0
0.0029134576391391213 -1.643170635886167e-5 0.0
0.0009371405616504655 -0.0005643704330745752 0.0
0.0020345280330873335 -0.0002811785090173133 0.0
0.0005591826140386658 2.921498207881261e-6 0.0
0.0018511540945268413 -9.177994285848025e-5 0.0
0.0028789217500061943 -9.95218959549143e-5 0.0
0.0022841411588212465 -0.0002446162133307328 0.0
0.0008249946590079902 -0.0005069577992501774 0.0
0.0005926389570894847 -0.00043136770361932176 0.0
0.0007373709267886168 -0.00036034901140791334 0.0
0.002432280943222858 -0.00039923550824806176 0.0
0.0022422175437500727 -0.0001582732006917754 0.0
0.0004660714090727725 -0.00018441176414509135 0.0
0.0011793629466648385 -0.000233416212376579 0.0
0.0019023816388083088 -0.00024135429371228292 0.0
0.0011369296268616557 -0.00027046893120089146 0.0
0.002806595794425839 2.520155943274876e-5 0.0
0.002044503952372067 -0.0001296754215487849 0.0
0.0011983256179992447 -0.0001806442365550719 0.0
0.0004774862519468105 -0.00016623856585097442 0.0
0.0021712560412674702 -0.0002816240573408403 0.0
0.0018049804062766385 -0.0005974164515742127 0.0
0.0025503727732549887 -0.00033548333783016047 0.0
0.0010005829820557257 -0.0005578771449094625 0.0
0.0018964286251334536 8.265396082120622e-5 0.0
0.0010838910206992735 -0.00030296252088502873 0.0
0.001719593765094904 -0.0006349863118109532 0.0
0.002525425745743531 -0.0002698121687644177 0.0
0.002229981601717456 -3.70506062396824e-5 0.0
0.002807337758827796 1.7653488777495894e-6 0.0
0.0007020352311426534 0.00015179698007244908 0.0
0.002727976067771652 -6.7687923393318876e-6 0.0
0.0009514114247639701 -0.00035347647229646363 0.0
0.002511957431006629 6.0466764252552865e-5 0.0
0.001754338456521843 -2.2741406315077383e-5 0.0
0.002061417266082104 -9.075326376629912e-5 0.0
0.0008946607243361044 -0.0002268886778688801 0.0
0.002090872190840264 -0.00015532545637373087 0.0
0.0013901788054853496 -0.00062900651768524 0.0
0.0007726068313976683 -0.00047470497659386757 0.0
0.0015868755533273234 -0.00012312278293825156 0.0
0.002218896211278067 3.165223611492397e-5 0.0
0.00130425376501859 -0.000584865649720924 0.0
5.1577958149042506e-5 -2.6574625641528212e-5 0.0
0.0028849352782198295 -3.0219798427224824e-5 0.0
0.002506751463125302 -7.705578496437841e-5 0.0
0.001231820739868278 1.1616403730341634e-5 0.0
0.0029257024167165043 -4.098834390731713e-5 0.0
0.0008274724668997031 0.000123483793891647 0.0
0.0013741596515791138 -1.4270750913997162e-5 0.0
0.002975695237683137 -2.5089071888237902e-5 0.0
2.1887315590997246e-5 -2.165590267034226e-5 0.0
7.685399871081071e-5 -4.852358108230526e-5 0.0
0.0008535140289816294 -0.0001043748350487308 0.0
0.001797235244369417 -0.00027804722696763275 0.0
0.0020608652198017326 6.772792754237561e-5 0.0
0.0022670680096132188 -0.0004468065789187709 0.0
0.00289494935200826 -3.646143579776443e-5 0.0
0.0002251828622825826 -0.0001193265752461227 0.0
0.0006209195815264512 9.112372608924187e-6 0.0
0.001816707767372019 -0.0005684467905793103 0.0
0.002593916772008323 -7.664268257266505e-5 0.0
0.0007602664441220716 -0.0003599552829116938 0.0
0.00017078514869522978 2.725575782838188e-5 0.0
0.0018304294137660175 -0.00012659274126298437 0.0
0.000895117359420341 -4.340513631051607e-5 0.0
0.002170974371088691 9.015686089060819e-5 0.0
0.0013808267656124026 -9.694451962461342e-5 0.0
0.001126880064053238 -0.0002853746143126535 0.0
0.0026326114305408868 5.568900079450677e-5 0.0
0.0026734718122603937 -0.0002577327388843868 0.0
0.0021780849709357782 -0.0005196965884104903 0.0
0.0006678311515554444 -0.0001844123034262154 0.0
0.002748914985351512 -6.1006301931848316e-5 0.0
0.00045835630753710894 -0.00021567151383430883 0.0
0.002778125639460364 -2.7775514574378066e-5 0.0
0.002456525697045598 -0.0003912898723752994 0.0
0.0017789852735891917 6.093578673451924e-5 0.0
0.002025396105949037 -0.000577096133854375 0.0
0.0021473388536464707 6.411883165310775e-5 0.0
0.0013614017216769293 -0.00014448613808476136 0.0
0.000764404121138917 -0.0004505901360316448 0.0
0.0010985622674679638 0.0001662057508216213 0.0
6.777432216405903e-5 -6.445193842268762e-7 0.0
0.002857051016939566 -3.6321881616337314e-5 0.0
0.00031594753825507426 -0.0002561347900417169 0.0
0.002183198161091951 7.253746189741357e-5 0.0
0.0005410342471453992 -0.00038710377704169615 0.0
0.0020391324098526223 -0.0002630930261951193 0.0
0.0006104070762754854 4.0285019688213047e-5 0.0
0.0002631783342892697 -0.0001301567956280933 0.0
0.0003838081066446099 -0.0003163017839565589 0.0
0.00034345189793098487 -0.00021727920174826617 0.0
0.0009619284995569641 0.00021360542433007836 0.0
0.0023255919616366793 1.2018120338158413e-5 0.0
4.068500605207381e-5 -3.071213415963e-5 0.0
0.0024881530030891495 -6.794117033519775e-5 0.0
0.002269263959463212 6.548241857811555e-5 0.0
0.0018432781567589622 -0.00026430081425922545 0.0
0.0013801988507893914 -0.000116325540834224 0.0
0.0007835103654893779 -7.998941155277753e-5 0.0
0.0014088341333800562 -0.00015503843749368915 0.0
0.0018574000270559343 -0.0005177922899978246 0.0
0.0009032649975822017 -0.0002501210573496148 0.0
0.0006844483813153522 -0.0004562378712030668 0.0
0.0025246344638913667 -0.0001973851055545047 0.0
0.001926596304763079 0.00010674790173800969 0.0
0.0003154401784551435 6.079529343762129e-5 0.0
0.000891344659219749 7.515670002602813e-5 0.0
0.0019870672995607273 -0.000197770153252812 0.0
0.0018473306186927003 -0.0006183925843834599 0.0
0.0011750546243657516 -0.000248147253871526 0.0
0.0023382660243366697 -0.00045287256483002525 0.0
0.00019035879793615512 -0.00016415107547189208 0.0
0.0020431307054986424 -0.0004900593805445094 0.0
0.000996731597316211 -2.0520895721058367e-5 0.0
0.002789414734559739 -0.0001725203795132078 0.0
0.0009639738655591982 5.233736489293606e-5 0.0
0.0018210805442788885 -6.615425336893052e-5 0.0
0.0015459249681767484 -0.0003043553020112988 0.0
0.0013802853817279986 -1.5950738396425277e-6 0.0
0.001621125262622613 -4.973287120463641e-5 0.0
0.0017845266716780609 -0.0006251343821653158 0.0
0.0022858944521013283 -0.00047047930942440113 0.0
0.0007304551432188707 -0.0002721848936200392 0.0
0.001673382073830222 7.166339676477881e-5 0.0
0.001630599674335098 2.6914600739159068e-5 0.0
0.0022799323931438783 -0.00041166533857041495 0.0
0.0013685543590346227 -0.00013314876139190984 0.0
0.0013455695610455531 5.253798366428367e-5 0.0
0.000758800081439342 -0.0004282257866178119 0.0
0.0027697955698156858 -0.0001687031086776643 0.0
0.0019229140105350743 -0.0006276504618869275 0.0
0.0013069774441618045 -0.0005680734806252259 0.0
0.002886666921988119 1.3018945185697482e-5 0.0
0.0012880255321075604 -0.0005048179659531098 0.0
0.0022157472199357897 3.8662148636151215e-5 0.0
0.0007832166618455208 -0.0001483245814072639 0.0
0.0019402043946105205 5.276017621488577e-5 0.0
0.0005698965743996587 -1.4907849921188715e-5 0.0
0.001249547833829867 -6.94667901180371e-5 0.0
0.0009223734524072573 0.00028097109250681257 0.0
0.002937847487996269 -2.2832268160329975e-5 0.0
0.0017895096850746711 -0.00046415065114664407 0.0
SCALARS damage float 1
LOOKUP_TABLE damage
0.47244329565695226
0.237837162607645
0.6738602634961826
0.20790648858753727
0.9767482450163373
0.9905369349781946
0.08901250932540036
0.66737117669421
0.6655260323455171
0.6774109753085417
0.7062088297268326
0.7284250437250319
0.7563515168584088
0.7836212182616107
0.7983524639376193
0.8061838038149929
0.7999675832777169
0.7907800169255266
0.7752102125288218
0.7559609711373236
0.7375530634948725
0.7272003927397528
0.7087216597629522
0.6905760820069098
0.6781301023311195
0.6625270474014047
0.6402818969963523
0.61953376355665
0.5898167299968586
0.5588234503222428
0.5141502924406
0.4592160354189319
0.21290798459148572
0.3461591363549425
0.3687582260730355
0.40432161753558327
0.4272615209022449
0.4434139004004312
0.46127686792688694
0.47302661107720784
0.48518172570032286
0.4971726255605715
0.5062259475325916
0.5162238398890097
0.5270848129291502
0.5338153179029639
0.5388022879009629
0.548021364985241
0.5577753286686625
0.5694224513123076
0.5758254893462449
0.5842460871052171
0.5918721056196254
0.6036610752121093
0.6064839710935357
0.619435785730119
0.6241433739999224
0.6352240441692054
0.6424612144289239
0.6555397127885627
0.6579462258516336
0.6711661637121175
0.6790303661676671
0.6902393620427442
0.697798382194235
0.706351579895768
0.7093501123523818
0.7152963690849022
0.7260870466274243
0.7322888195008446
0.7512581814003431
0.7606954870033266
0.7686632111751809
0.7904446907160596
0.7998577835886098
0.8127924676030387
0.8289389391721312
0.8350469501420941
0.85323992413478
0.8609873220283678
0.8732261771563794
0.8854403652918879
0.892988387665673
0.8942626003364266
0.9122760535028959
0.9194100143842344
0.9427653683385584
0.9436595124146073
0.962887413769899
0.9709330711563241
0.9749629773379461
0.9778871253752619
0.9760930780645171
0.9727730626855363
0.9676077291659364
0.9611164226489289
0.9521156781518703
0.94276550201932
0.9208651823622915
0.9019337713592789
0.8869162344693501
0.878169682349825
0.8592299685274306
0.854374737762916
0.8343592895741543
0.8186756441395656
0.8076263639028779
0.7877630555328062
0.7805780186118648
0.7663901109552173
0.7530516776600562
0.735016399223803
0.7373682520457154
0.714482896824932
0.7078591617507878
0.6906926177084725
0.6792734505777824
0.669190237850936
0.6521419788154307
0.6399163737379243
0.6308692641415351
0.6160164863858165
0.5972923570113782
0.5766707938067928
0.5637375167380447
0.5458367729766528
0.5287592823977854
0.4849279704743338
0.44851375133756666
0.4343075304189685
0.2945917624776322
0.3907335113297713
0.48476645187986456
0.5801592273560887
0.6219269752172853
0.6434267272045071
0.655737979026105
0.6639352844728162
0.6692080071569303
0.6733684052143237
0.6807828718628505
0.686118829453247
0.6911462613560696
0.6960090167937503
0.7001921636897406
0.7016585208644467
0.7002934179284593
0.6959580852465181
0.6927311917407268
0.6838280062327073
0.6816925989712529
0.6794216677695307
0.6794974216471684
0.6938997669250347
0.7212935147005217
0.7913480886697704
0.735268028721812
0.9550006490446316
1.0039145431562488
0.99282218049532
0.9892954644943753
0.9816117181497558
0.90380932816627
0.8214570446978939
0.7318808860135373
0.653260235938496
0.5702773857704014
0.5091312533961784
0.43520852371205937
0.3580563695345396
0.2799093564648784
0.2402330677088581
0.04170250050770486
0.1444550805805732
0.23991905840996533
0.3367170938847648
0.43369748180074497
0.5416200176192457
0.6423612597196139
0.7509079334123319
0.8574332339349745
0.9421680954438079
1.0021861779784207
0.9934379371985478
0.9997737218401395
0.9719620794313211
0.8728286998118479
0.6660925221826544
0.6639784513945152
0.8792059974115186
0.7288182847641264
0.9618056668089618
0.805153640178028
0.9474302693766777
0.878436603317378
0.7990616049655703
0.6126726910384319
0.738817023088061
0.5700764739795259
0.7496520025120875
0.6969819761671928
0.5305725586157514
0.5431803333909113
0.10779837507804044
0.395804783035771
0.6758856651757713
0.5305557838485262
0.6931604332376612
0.6808618353983334
0.6847326911410017
0.7893451573584412
0.6234966424334588
0.48585993123940985
0.7423175964158143
0.6483596745006827
0.6506096157400062
0.656758799842401
0.7613197965950163
0.8460874668133891
0.9728337789968301
0.8995039917499936
0.9356678875630546
0.8361288326701067
0.7054275796611756
0.6374358690190934
0.5676445518339643
0.44523367919182416
0.6708015761537939
0.7657473154692988
0.6191436771523411
0.5739634874965743
0.8711319198575669
0.8593908308952529
0.6875209850552869
0.6915364175336174
0.7231670813570588
0.6938787231248781
0.46441050635489317
0.24746016170226348
0.3812583149924757
0.4935831830952255
0.9009518610873067
0.9254289040622224
0.7399973487801961
0.6830006342667448
0.9671962667019134
0.7723857459524806
0.5958883342278911
0.7133169296172789
0.5518226324340968
0.508490571400874
0.6473426196111777
0.8568819925050469
0.9118641679660905
0.5434271981053865
0.4987295630712618
0.9904121409538473
0.9830706773738557
0.6213615298602031
0.7556710776990921
0.3222369162491597
0.4300342395464881
0.9891529364695874
0.8969795101382629
0.793667121201568
0.7948791633357787
0.8622469140513986
0.7674290049632495
0.7301934825204978
0.7055782224677687
0.6820560711577125
0.66085671791419
0.6748416492781689
0.6426177246670945
0.6514565504126254
0.629914742685187
0.6391030969168867
0.6311150471559114
0.5573278523575289
0.29091314301150983
0.49276835047704626
0.3329672593887478
0.4875463196479061
0.39261900746272255
0.48866962532665237
0.4328284717418015
0.49845110902583173
0.4576828557007344
0.5029965296547984
0.48170137355033144
0.5184627671477948
0.49723791599178113
0.526963357835245
0.5130720016444911
0.5363421880190503
0.522150809596334
0.5415511108644643
0.5323963619061876
0.548107820532698
0.5428661934282348
0.5550401397604385
0.5525226551645532
0.564661973640148
0.5635229700677233
0.5733446203329339
0.5713105307860473
0.5809355744784178
0.5773396718923182
0.586867881933947
0.5875601058734886
0.5952438764458345
0.5972137558042406
0.603309004780554
0.604489663479822
0.610958156541869
0.6137023253327647
0.4108648221151725
0.6200034227433029
0.5164349003709097
0.5831698816337328
0.6224243622224975
0.6289889232096226
0.6312363701769417
0.6247120657381988
0.6334777877894441
0.6378589577084738
0.6353202930244538
0.5935309109995278
0.6445816592505709
0.6416874008407316
0.6505108093826565
0.6265691074936856
0.6355019097350258
0.647346989863916
0.6286898129278633
0.6374335911274854
0.657844096157687
0.6548707600134179
0.6313303654613256
0.6400419838250735
0.6657085597787603
0.6629522578468493
0.6329395429604392
0.6407648305877233
0.6743435233679377
0.6716431503484611
0.6334191047198983
0.6416290203930206
0.6833499638275458
0.68064538371374
0.6332451207584864
0.6434105770403316
0.633481935055559
0.6237984597793299
0.6860228857117411
0.6925763340206577
0.6891161818627427
0.6763772253348986
0.5602651265819448
0.6857584234878528
0.6718035386338816
0.6813547838160324
0.644193858907142
0.6353917793230631
0.6506348835853153
0.7017102341079788
0.6433065405089324
0.6335075232656552
0.5491063665703786
0.6412032317996964
0.6317877789993321
0.639482077387993
0.629536977262405
0.6220304391976892
0.6188972627305113
0.613057820570292
0.6373721329529594
0.6130919021439787
0.6053496416167139
0.6474991126087675
0.6449263088660211
0.6048568747064436
0.5981574953019557
0.6693871629325322
0.6782813247667753
0.6541589986429238
0.6499874113446399
0.6675096065146032
0.6774960668629079
0.689609397512553
0.6869816658159157
0.7032593552141563
0.6981620009493735
0.7147734879559361
0.7080926483739441
0.726355367320071
0.6939265068664054
0.717190755657495
0.7380717507843894
0.6601265388120758
0.5985408602719089
0.5925463636289021
0.7458712402250866
0.759000736114096
0.7491706121328696
0.7701947021252366
0.6560308656041949
0.7716289336227296
0.7601605887750906
0.6662385711565353
0.6626452364015102
0.6528899431024973
0.7836475876006586
0.7716792723423143
0.6737760769856179
0.678147258819975
0.6583240926895071
0.6478810048068238
0.7928267329049933
0.7813872811120613
0.7538365014877849
0.8039028165090942
0.7621502646767239
0.7383177843631282
0.5933826571997377
0.5898886647248894
0.5869321783698616
0.5885245136965033
0.5803506143856085
0.584280194736712
0.5749191684420364
0.685746620615666
0.6896844636168455
0.6528709369577179
0.6426487103692378
0.7879809679243555
0.5843344379135499
0.5725439167967391
0.697121603663197
0.7011784969755325
0.647290801970754
0.7682638341378984
0.5727489550072397
0.7782259302653991
0.553592428824555
0.6673649183429958
0.5865160902708224
0.5743384280559659
0.6485636872387129
0.6389514855564945
0.7086392663602392
0.7133162579992766
0.7933894955105115
0.5935312511061154
0.5956988680738408
0.5947605491917581
0.7703868655381323
0.5958092972832919
0.5793298879609228
0.7039461101384666
0.6430900035909777
0.6332540162920951
0.6580211319995776
0.6616658461807451
0.6517433541347274
0.6591389238013782
0.72077014877603
0.7250892491766764
0.6232268506640102
0.604488468793056
0.5963133203654606
0.7959290626309418
0.8116241979916299
0.6318275275738432
0.6176869687811846
0.7763340853185569
0.7501501689131572
0.6538165033602967
0.6537589126740851
0.7334517463791554
0.7372819241655183
0.7286316680680924
0.7410826219772809
0.7319110617354471
0.7444754419541502
0.7347784806535255
0.746960422103159
0.7366308764756023
0.7486852519820304
0.759384028005777
0.7613944311937391
0.7724371940589821
0.774385624694697
0.7856720529639583
0.787574158214705
0.7380791043070027
0.7753343369664467
0.7887623099513783
0.8017292281128209
0.8030979058299498
0.5949942525770266
0.5959829396234162
0.6377477652308678
0.628482530764737
0.789146467749148
0.8033767439838548
0.8182465807001844
0.8183721993448565
0.5972118568167818
0.596354766176443
0.6501401433162796
0.6613294944514718
0.6534726656376033
0.798730712801476
0.7794356594734304
0.746376524181853
0.5595013313701396
0.6609797007836703
0.8340600177512243
0.8336700627757914
0.817309745781272
0.8327238859518229
0.643936811087072
0.6690111570314544
0.6759163090626991
0.6436061483875213
0.63253411483941
0.62321154745361
0.6611552153023542
0.8486945163420245
0.8479001626996994
0.8299285613484171
0.8462177677074896
0.8266165166929186
0.841760697154337
0.8615624105433275
0.8564655350522647
0.6737126909047247
0.5986685560259823
0.5958683480792203
0.7427651117884422
0.8014331705493677
0.7841942231976958
0.8739322186081023
0.8715257618173767
0.659269264872997
0.6282532103525073
0.6180805172898663
0.5793554561234617
0.6267107320928854
0.7556550385039518
0.6834802682879336
0.6179797174196492
0.803360539744768
0.7839480232306282
0.7530430174092418
0.6783224803508845
0.8110056069878192
0.6036616570507981
0.6339295528024183
0.6837247665973971
0.6770326700709507
0.822073841355153
0.6213651818658001
0.6115627998040123
0.6001746402972078
0.5959519204363263
0.6339023061236096
0.8889109159798939
0.8837979170790701
0.6085366767460623
0.6027880417292732
0.8919062775824458
0.7508894231228451
0.604710807446923
0.5963639246670965
0.7228550452430399
0.7542238751900585
0.7228518085814655
0.7836882586340982
0.9008980877200351
0.8954559291382832
0.8075459602281477
0.8027273464836345
0.7640930437062217
0.878253617333249
0.8882713866716051
0.6023685815808993
0.5959427557759082
0.9034359518971758
0.8945169088116334
0.5977153705180391
0.5892907810258412
0.7014431106156773
0.6995294848108449
0.588813820711339
0.5821618822490671
0.5812086545943514
0.5743785065329355
0.7541207962075739
0.7806874347585328
0.67285461263386
0.6909339812017382
0.6445073279710208
0.75916072182486
0.9065354168969111
0.8969327846317549
0.6396111802398033
0.8711428516893092
0.7830419435071792
0.5762033513765833
0.5691529233198461
0.5673603030264979
0.5612512585978652
0.5641159816341248
0.5567838717298946
0.5622520202472518
0.555271076397821
0.5647828834076297
0.5576570893570559
0.5699085387756364
0.5472562213338847
0.5534668308758355
0.6034883384324444
0.6120554556704867
0.534302326792198
0.5423299012630266
0.6528583750327246
0.6052972588576121
0.7888847146994656
0.7841604744183376
0.5952226619145224
0.7719354931961626
0.775792415196312
0.7973494180317058
0.7788523489600896
0.754182124634826
0.7724950454717945
0.7809957702539781
0.6714953754474787
0.6983756319406026
0.7454501736050246
0.752447091191656
0.7398226773274863
0.5578939991469968
0.7206561106067354
0.7264651359936398
0.6106857868638919
0.9065442466036823
0.896333521793869
0.8878413597588983
0.8875929213703933
0.6683220108516208
0.6872752338938184
0.6934656592647617
0.9149971474839166
0.6403564990345344
0.8933603441606347
0.8845214901633076
0.8772865831868942
0.8751933559570092
0.8680893668075902
0.8665689248123905
0.871112774402933
0.862356567162015
0.5267628414853482
0.5312713684708218
0.5539290893476819
0.7820664848215305
0.7883244074602327
0.7455606793066164
0.7330146119637561
0.7653321985670721
0.7596725385931695
0.6508374427340503
0.6482248511462627
0.7067115771768636
0.7031697599091175
0.5231894042146498
0.6571226500174546
0.6419652824475868
0.7681459443937849
0.5735877781364301
0.6619684077445978
0.8648849983490986
0.8565125335973731
0.6352967251307551
0.6289591938263941
0.6655112627981062
0.5926870528929059
0.6150902345478759
0.6260519962416699
0.5653067916870054
0.8892362504749949
0.706117459117822
0.8330362149751792
0.6800831513256913
0.5143528666059378
0.5216648159107733
0.6073227905212369
0.7919205280538053
0.7730583838715114
0.7573940390886783
0.6383314829288743
0.6339363654339442
0.6429408032559991
0.6400181147232608
0.6345926339925697
0.6391139295079857
0.6465594703969673
0.6440034286055073
0.6544708185349958
0.6544885976146656
0.6630893258666131
0.6621332582714489
0.6726264588472585
0.6695209472548912
0.6743373851121538
0.6782106879896486
0.677224642186477
0.6370031420697057
0.6004125978729574
0.6001148219380619
0.6095822915561722
0.6860102538788778
0.6827754809578136
0.6869621896615905
0.8492742963184625
0.8475581227267616
0.863509938750002
0.8614656709349284
0.8766196545667876
0.8742409634607193
0.858654227272935
0.8706909790253536
0.8544170617100031
0.23187844496216084
0.8891631326347275
0.8914955930023447
0.6451183645531183
0.7264272056878117
0.7274039638256181
0.7161125300278706
0.7164136112890951
0.7055704279125298
0.705401071141788
0.7160140066017423
0.7046430451654623
0.7156201845125364
0.7026560794888992
0.7133350374809275
0.6932386116133317
0.6949007670769819
0.69533177247246
0.7259483567124142
0.7240563285268351
0.6025109845713026
0.5979206559310803
0.467568826720734
0.7886999764308177
0.7166773856774584
0.7121994794438279
0.552289293471225
0.5739357075535565
0.8676292850948073
0.6960430739638443
0.7492370772902167
0.7454027956314577
0.6098922431691799
0.7386059527943001
0.7260556978365479
0.551725454253696
0.8646973088040083
0.848010613465122
0.7202183913750451
0.714537197349005
0.7080348136882033
0.7034532496081262
0.7096162219223087
0.6986758778572548
0.7057999840269285
0.6943727797222738
0.5577985972705657
0.6869481664387749
0.7402488825844645
0.750773742333072
0.6421662460452692
0.6255989387839029
0.6706267883904254
0.6564485581342447
0.7944892230928542
0.7993648376767948
0.9125876030929738
0.5693798565079111
0.6601479437353727
0.7271362723372282
0.7660692782326166
0.8578698190631443
0.7378553598583547
0.8535971881014972
0.8470979900356164
0.8477860476758282
0.837840445234146
0.6195304100602865
0.5666153179321048
0.7006412401631877
0.6600648988034499
0.7806619847685423
0.6123947379550307
0.6193331452907082
0.9215100654283207
0.6968943133814296
0.7703152931387154
0.7749528752317515
0.7283271912658983
0.7252532745698106
0.7331607600175672
0.6421031510782595
0.4990246297802735
0.5092505384564726
0.5376005832655633
0.6736834388355987
0.6863282428050002
0.6647901767101277
0.696634908953232
0.6890717565329167
0.6865453157778529
0.7319846718478803
0.6683812145572764
0.715765291431282
0.710436045756304
0.6908349595572332
0.6879907857607668
0.6918815843753506
0.8366458471873944
0.6881424302937589
0.6828817476350892
0.6893954302499476
0.678425118831723
0.8404175822687732
0.8320766219841881
0.828774353233694
0.8201935739425893
0.7600356061879815
0.7539568570320763
0.9032218708995431
0.9051779808571406
0.6847055613585746
0.6855524309480795
0.7859407932423901
0.6832147508669574
0.6724882043225983
0.7835688921499118
0.7740976160294132
0.7893852270831977
0.7761677366075249
0.8085385741254842
0.4956191730132554
0.5747415323377685
0.5818268032214677
0.6327550576034213
0.6454911588916624
0.635680876047349
0.6599482952796916
0.6490093522956203
0.6749209268227196
0.6647895277810768
0.7554178095599502
0.6718757365817756
0.8549534808189269
0.9233723839131761
0.9307887601896484
0.9311400831018823
0.8585695732293929
0.7216463264520728
0.8135982049949273
0.7164458862717289
0.6987315558604118
0.634908006824499
0.7212811658051853
0.775534227672392
0.7736909972510346
0.8807655562260204
0.8423150321276752
0.5977393126509515
0.6804565905955606
0.6839291348589757
0.6856356245826057
0.6820468852380464
0.8133202989078909
0.8641185993433098
0.7571996716684812
0.7542144016131174
0.6603848681192865
0.7861898065585344
0.8597729190158242
0.8523532373554604
0.7271901568343881
0.7419785490455013
0.6224077802168582
0.6299317311045708
0.6927244563172039
0.6832305102143205
0.6540847957530327
0.6725644718591568
0.7023338455683716
0.692221639737101
0.72036613016921
0.7109877730109091
0.7352510859977428
0.4852820921259149
0.7620248395495329
0.49800805219549876
0.6052896973547713
0.6811610106898934
0.7388190448541763
0.7273297024713715
0.7832083899003222
0.7254514505243597
0.5580486036689147
0.5494957437948244
0.6947515485696859
0.9192051415018857
0.7439680627485635
0.8043031307456537
0.697148249536657
0.6945961074596726
0.684660458058347
0.6930551357086605
0.588634093121596
0.6838303670145168
0.619498956312209
0.9162937844193975
0.9182161119942215
0.9075128089409985
0.9206281794298018
0.8632459477386616
0.8442954453887092
0.6707970790541291
0.6785791816671124
0.7695066125341912
0.7928168466830414
0.5955318944299587
0.6776897114368767
0.6668612168152629
0.6479150510440033
0.8219146748048578
0.7424022162987751
0.6619851132036999
0.9318546535128351
0.934711407228671
0.7475395338431482
0.7499694167171178
0.7347008787532513
0.6331017842870791
0.5794190592109593
0.46855079470670274
0.9077132821958009
0.7143829047175259
0.8526078812730844
0.595494375163863
0.6262776630407969
0.5656443604698906
0.8138699096435685
0.6066762394396307
0.5995962879667671
0.6055430637408358
0.5989564197893211
0.603599255903893
0.5936025995876144
0.9397723957849433
0.9384265573443431
0.7160325424264777
0.8685835458288171
0.7965661050909665
0.7929692477640161
0.631592992821572
0.6407230208956974
0.6234896613871963
0.7234841511617061
0.7045549378104435
0.6449468259056399
0.6393280392914259
0.6367768516175795
0.6417855961464154
0.6251021016488962
0.6835328077496028
0.7324938352341323
0.7789085168275801
0.709135623147046
0.9126308492969709
0.7391496870091452
0.6923890326274521
0.6718902113353633
0.6078177062281948
0.6703212632670777
0.7413827958733198
0.7371335515339428
0.5845877359973906
0.5487779818450881
0.5401508322769528
0.5428152704205316
0.5991604212927899
0.4832041142910672
0.5207017694703107
0.9452875087300446
0.9443315668751705
0.9314854107932489
0.8321741507093947
0.8361667247503634
0.8027892687579224
0.5936371595624035
0.5897195133183818
0.7491023433354171
0.681912721786683
0.6807841329466267
0.6713548137837696
0.6646491626236257
0.46476717187402294
0.6445803948069507
0.6324660089267111
0.6230346770707494
0.6099499134420936
0.6066459148827801
0.6169285556945892
0.7613821309690402
0.6758945977844798
0.6744238222539986
0.5400063814851663
0.5304748514278959
0.6327427880795478
0.6364150202134036
0.6427838208123149
0.6468001940147315
0.6448705978716563
0.8375004606740164
0.8276935575826208
0.8477742124400975
0.7093180316736719
0.6697061438267119
0.6306656743047504
0.7580343471812904
0.948317878312846
0.7219102314256796
0.8113985373352706
0.6198451398233279
0.6058965658508507
0.6171339384491276
0.6092731229970538
0.6189759272395717
0.6154100952266248
0.6245058547150616
0.6228748155472273
0.6319807488634522
0.5998258821455633
0.6146562601307113
0.9372100104622948
0.6602884328462512
0.7018692893679066
0.6910411113891884
0.7308836597737237
0.6778713882414751
0.5943163134228053
0.7338485044726709
0.6713977583807161
0.5447288404576208
0.5757247655580379
0.6479041782681154
0.7011568063756098
0.700563905111819
0.6918314015153367
0.6813674494329097
0.5748218443186289
0.4481848023004402
0.6510986369454899
0.634530911656306
0.4678522285778773
0.8337728747617844
0.824658376259278
0.8351575866421458
0.8153823047037352
0.6232510602135577
0.7288215157411844
0.5935123153839907
0.7386280576192743
0.7237204485404327
0.6680445697651601
0.6508534945995261
0.7505914655791327
0.8720891983302534
0.862655526967692
0.8710818361208295
0.8605270929272852
0.8670736971267434
0.8796945698371699
0.8986503672555004
0.9278016254461535
0.6623062679439938
0.831186077996793
0.6802138827231112
0.6269754108594666
0.6313368246440526
0.8544555931988833
0.8504825826408049
0.8437484929604527
0.7585029860651392
0.7789631950141868
0.7895345649435361
0.8013203232217971
0.6651414859056147
0.7763135821610166
0.8949026513231423
0.8283706060000511
0.8010541552266003
0.7880314855188654
0.8066089883697576
0.6294401632233394
0.7166608806246505
0.7114326306727943
0.7219221319603756
0.7184764056655673
0.8266612456301413
0.6079530129438097
0.5897081401766024
0.6820606509479484
0.7077924561633008
0.7252120849191808
0.9445307941768114
0.9535454146805296
0.7627005865407923
0.6540573196170074
0.5909821662066391
0.8322670689169005
0.7968615320655383
0.7008407844072041
0.6726278812181516
0.8037091690288829
0.8463000139197204
0.8490299463121507
0.7775301192256635
0.8040795678525012
0.758677530135484
0.9438823293636618
0.6805630876758427
0.7150080951673998
0.7499723357050507
0.7867377668807419
0.9252356030194827
0.6472798004860503
0.6858864671142239
0.5890168752572114
0.653403670408147
0.8678444619686675
0.5938712453336897
0.804397522011585
0.8648604859411291
0.877029565815087
0.8901785255787049
0.8515550877483561
0.7308056682470537
0.6430177494879772
0.7971682873104514
0.7124271234625583
0.6790484407881767
0.6744929473579826
0.6520662632687627
0.621568717647857
0.6349038360431251
0.7566572298253688
0.7455720164360798
0.8088781895151349
0.578950151792672
0.5871697438220703
0.5830880822932738
0.8175929725708959
0.7593832572110456
0.7578203583416988
0.6914662148511006
0.6903484994957451
0.7114790457073913
0.7167728916563623
0.7310019301540481
0.7019561444904735
0.6930546758929083
0.6855006545595206
0.6739594161534788
0.6884971536409334
0.6674528596275983
0.8065319373880818
0.6946556549120502
0.703217332593363
0.9538928832248826
0.7402892891194143
0.7314568332963013
0.7223664496723946
0.7152109708540495
0.7263499108988772
0.7142557887416465
0.7140271687614757
0.6094788085017626
0.6081950621485186
0.6018554602423118
0.6059490456816914
0.6125512914799747
0.6085159819829551
0.6163697181874446
0.6735885432162447
0.6132981694073572
0.6204563074420861
0.7324595478976414
0.6130647595452472
0.624759682015259
0.6008190906937155
0.8308838984568454
0.8392262358822488
0.8376473789805317
0.8480178558605387
0.7394503847029912
0.620167371276672
0.5964128244473712
0.5417135739377225
0.5623834933896558
0.5786161167265014
0.5147266356312301
0.5254563384943164
0.4533679774686082
0.48010667712457994
0.4306008005328893
0.4662710569982467
0.44151991192849266
0.4695068122554765
0.4599395783024722
0.48004852689402094
0.48238433474331277
0.4947968734598335
0.500636244582813
0.5118304291924529
0.5197710399970422
0.5290737002802185
0.5379241772981139
0.5456294495893252
0.5544230067105252
0.5611248768087951
0.5517037799229028
0.566287547870416
0.572109489696488
0.5086807238599638
0.5487225999444693
0.5137902280766437
0.5411772049024474
0.46637743575620694
0.5584966394927634
0.5715772035410427
0.5803156476789305
0.5844699947602525
0.4936365310290095
0.4134428976463638
0.544562602818737
0.4217137271131446
0.5932339936245039
0.596201547659187
0.5874353153643393
0.5531734768024507
0.5416470832016156
0.5898368435623635
0.6024766587242764
0.5998836095857597
0.5157084718055219
0.4379105303683898
0.5983839033948107
0.590867657436343
0.5808978320334074
0.5840888466800563
0.9210047265907761
0.9079244029295855
0.6687691917575186
0.893317593407135
0.9087231637674824
0.6968416295527735
0.7075441100249981
0.6271024635513591
0.7411529317849453
0.6070968092053332
0.6554484070366794
0.6527004234662516
0.6566948808507963
0.7199052959946677
0.6249310951468362
0.7018417613834768
0.7002714810282926
0.6415392024190328
0.6146212038202039
0.6437097363163578
0.6016886234490603
0.6754124076892977
0.6331256815547075
0.6410655772210765
0.6398442618552145
0.6664169647095656
0.6752217936340001
0.6651964097944535
0.6734361796655393
0.6629793403745488
0.6714449063319811
0.66099299216864
0.6690332257652499
0.6798575820274059
0.6759312986043747
0.7201144080761951
0.7100204058743153
0.7124067937747596
0.7000800468067147
0.5933489958706899
0.5312080438690129
0.522542775978558
0.5216437718943954
0.5129511908102153
0.7498726184237917
0.7421472582103733
0.7606477056151519
0.6569108800714535
0.6157722881408076
0.6081283513520774
0.7225731834212048
0.7006798752615807
0.6669941757847737
0.6561697005830212
0.6616392816163371
0.6448904807903283
0.6196646983651515
0.6282246879132414
0.6017441644484637
0.6069306061762675
0.6397444804759941
0.7500606263205678
0.6063213865459974
0.551209741844219
0.61065457423367
0.6685825411420563
0.6917731459240682
0.8385191188277558
0.8385703935423083
0.8266147779106721
0.7730822697121611
0.7419665635907766
0.6455167060614472
0.42105420368847535
0.42122305726853093
0.5962528396240143
0.7250150852504719
0.7496583720576521
0.8422526958214108
0.8526272955024664
0.7261252181387168
0.7556141951215932
0.7659272676800106
0.7856431734485702
0.7699549557352298
0.7723210102199881
0.691244147182424
0.7021533061896907
0.7108178927780138
0.700622123587016
0.5903608712777556
0.7030844767326694
0.7027021912147027
0.8964129664302706
0.5119802563429153
0.5005508341997165
0.5064409669769182
0.4939811661296269
0.6511927938173809
0.6776217586580212
0.6809829541661125
0.790689394259927
0.6669890185051571
0.7629964333588596
0.7480076536313515
0.7409072429846281
0.722558241373899
0.7219920960962585
0.7372915882580383
0.7153666131324958
0.8569064115162071
0.8539792282674703
0.8357280524852421
0.6084971130970123
0.6104554519322898
0.5832489691238991
0.5868386082986431
0.7226212550670066
0.7118243033621154
0.6168881292287718
0.7539206404377661
0.7040731530925453
0.69153544547884
0.6483661335071113
0.6592942676913093
0.8107498148950363
0.5826620601445358
0.5836263755299386
0.8450237758010369
0.9213967247544492
0.5874847158479289
0.5838773355930951
0.6253318268181555
0.8418363919327769
0.8216064965945765
0.8101044733817048
0.7268627066420658
0.8321879520987415
0.6689673326360257
0.5870742225603333
0.684752042974275
0.7383817607544476
0.7101201066345982
0.5868392130321743
0.6253010745088555
0.8211741610868365
0.8174181775652164
0.44279908218769937
0.9539031945498996
0.9598897265918818
0.7636948723409369
0.77239641984972
0.771388072244241
0.7821349587029883
0.7744042566923893
0.5313486810547254
0.532080166036195
0.620937145554687
0.7597245609478227
0.6903026548760913
0.7844489985495416
0.8306468289773521
0.8396915004628465
0.48933481998500566
0.4789511422039174
0.6745080056691748
0.5820633936454583
0.5771694130457989
0.8077259894649669
0.6719833773115241
0.6396342617976479
0.6327143957447545
0.9544423611424498
0.9626088700250779
0.6292340344590733
0.6249285521712288
0.7792308524662451
0.7928499432314278
0.6581579442115805
0.650765335467157
0.38946059838248753
0.9601692535883044
0.6543851534043476
0.5544773830202508
0.5626097259478066
0.6047465126463784
0.642321519243171
0.6077390342745622
0.5969587097842386
0.6050104652984076
0.5956282469153956
0.6028741091637878
0.5925667149971473
0.5851267643635667
0.5807531521861415
0.571597340700793
0.56985045544474
0.6016669352848978
0.7516108682542265
0.6512577256942955
0.6591195076847174
0.49089229266367895
0.3509939308881654
0.343565392483712
0.45333776537794335
0.3993479760563708
0.3671686391903703
0.3400506255116931
0.32462234939998935
0.5958705426104606
0.580647961515478
0.6724995845383516
0.6533882098279095
0.65562716841301
0.8636482856823136
0.8784186284574602
0.6491228724384488
0.653139649649489
0.6436827381879646
0.5629994110885681
0.2822383687660624
0.5784855521274501
0.5661651678749628
0.5565736475630925
0.5549331710140647
0.5426056916904209
0.6632267096927374
0.6733107524527703
0.36705399618677764
0.8100623424164124
0.8094958736507698
0.7411600089550539
0.6430045881507849
0.5632685680759035
0.5547666334987603
0.6305320597049745
0.6770983783055787
0.7857011797651451
0.7671020525006355
0.6536306921828188
0.7894877018593662
0.7963698336804974
0.8074335139959674
0.8149565430984357
0.6505359737835038
0.675673325906939
0.6555955826640274
0.6393309657095505
0.6884961308449217
0.6792801452492835
0.8213745285428183
0.5952193451385098
0.511186150917555
0.43873252757211134
0.4516080606739371
0.4775005920161406
0.4744680812065769
0.4961163281371293
0.44837111964651016
0.503636698654163
0.5164133919773638
0.4762657476915212
0.7131615440796153
0.5210397433956379
0.6920049065046787
0.6141192130081966
0.8120634865986854
0.8176546102960873
0.4225669505612024
0.41793648187167576
0.7083822926447568
0.8911442863848513
0.8978174702092153
0.8992478075891897
0.9068851516773663
0.9082898515589526
0.9184655197778798
0.6680544274226876
0.6790440387729884
0.6844525250702539
0.6872068812357273
0.6901353408742958
0.688097505391537
0.6929133364106499
0.685433628252897
0.6834690608936687
0.6953803430348255
0.6819920052585836
0.7011695001984256
0.6974885284244173
0.7060304442289935
0.6869664396238776
0.6747439113406302
0.7058313291568814
0.6830383106492358
0.697434690738053
0.5857551604009796
0.5040120611818129
0.5777800248519719
0.4442560154128172
0.45212851488517114
0.816097956574635
0.7211323642015199
0.5971350659348587
0.5833874470594287
0.5839944471794597
0.5845039726723275
0.5960374245909316
0.5895672418681923
0.595851770814576
0.5881109817682247
0.4816294649132702
0.6910667780541554
0.6517517472055552
0.6698619337266357
0.7297794866945244
0.7125358631172837
0.7443793928582892
0.6520075436264973
0.5113065869467766
0.5139842817193117
0.5266315781735114
0.5348700820068782
0.5462167051153657
0.5321590718468586
0.7711246718863264
0.5955961822220603
0.5932199926936857
0.380927989899053
0.7307964561906187
0.9105400998007724
0.6491434902188921
0.5818211384475018
0.6884727540560285
0.6822875065228713
0.8862955721275795
0.6947524144679575
0.6830155793357459
0.6849944700377036
0.6776049898379856
0.6800812062792115
0.6716585176313086
0.6683987346533046
0.6749299229130975
0.6772362881712517
0.6731038016292082
0.6689536654978947
0.6870477843456363
0.6625811070902266
0.757101404996892
0.8567274095332431
0.6275051980540034
0.6469852126852134
0.6160641550143252
0.6517755172611551
0.5624243221098727
0.5433918963617109
0.5594305543478025
0.5392395107265123
0.5208318655996992
0.5184080596141045
0.5346348615993647
0.5828585717494419
0.6320470566921508
0.5553874014743967
0.7496508409860241
0.6804353625318053
0.7771664964378899
0.5429046588902028
0.8016505703440757
0.7323380665559859
0.7390759760664959
0.5640680095446209
0.6411771050791341
0.6556376822480383
0.6428834808439873
0.633796351322277
0.6122999062681804
0.5336296359294364
0.9359575765216976
0.8890492899622383
0.9430881896252432
0.48445344430668863
0.7498602851197526
0.7670625415332745
0.7975213834073612
0.8705427758699796
0.6227205374234931
0.648472539444667
0.7280674750815932
0.5586690907672115
0.5653018673999821
0.5604836164600674
0.5967387659080421
0.6065145528295087
0.6332978557376344
0.5754035221464318
0.5863021048215352
0.7255701912276811
0.7476318785394792
0.6342029925992527
0.6661454600924256
0.589496462299209
0.7365080505553427
0.7030814802070239
0.7904427403535906
0.6145836283029652
0.46655940816923713
0.7249359211500165
0.5442146310257763
0.8079782007999334
0.6984852932735431
0.6636802008763446
0.6700952840517083
0.6584318851689971
0.6471247878735458
0.6044449220424978
0.5564448675139574
0.5846187364354126
0.6191673281154364
0.6162297504625639
0.6656983712206769
0.917359133192929
0.9025975509644334
0.9062979447691769
0.8960934725977255
0.8861022069525557
0.8830499577166678
0.8940945229537824
0.8328665575281858
0.6395829488883301
0.6120679363737936
0.6168246283620523
0.7228212968599516
0.8010835108180676
0.6881389226632493
0.701429144766595
0.7042017394408294
0.6959931721673632
0.6952566304824852
0.7270133865408632
0.6584600820702263
0.5831082769437285
0.5655649073786169
0.6964229468743665
0.6861989855062242
0.6008303514792667
0.634650565991504
0.6277309229067599
0.6173507565342038
0.6183945162509669
0.49940213851463117
0.31657364315663566
0.946317947085998
0.9435553462990895
0.9330138707114514
0.952824590961789
0.677237621281956
0.865003787890239
0.44553882677764517
0.4914796135698962
0.6412223181662426
0.6331608393205066
0.6452476559362572
0.6102329315409533
0.6012828235409048
0.542672907825917
0.6442191783186929
0.7509347372344113
0.9620689093326666
0.6110086320552095
0.6086993399335465
0.7164404837642593
0.8789903718657934
0.7633541932739991
0.7726652420470502
0.7418248392251366
0.6315498567767266
0.6232878465169347
0.614403660430631
0.616838181887366
0.6116645080220039
0.6187601491526701
0.5925721766011481
0.9463479731021511
0.9076441619883726
0.9104345898995941
0.9229405323862511
0.92493074773725
0.9345377569433753
0.9167495356430997
0.9223607505694758
0.5460913714555298
0.6003868135126639
0.7971919555048605
0.953690769294963
0.7018925664286931
0.9297738507913277
0.9398612700594757
0.8238278237798844
0.7146626615034005
0.7041059820427087
0.6998243128276866
0.5903142011806292
0.7026715868058014
0.8356617222858883
0.664409365146592
0.6665270232353997
0.6747126409701721
0.6584230580674417
0.6708646684873265
0.6692437667777262
0.662149645535147
0.6535190378156855
0.6967381574024312
0.6805260210764345
0.6761110357532468
0.8044490496099973
0.7570586224583944
0.6619527386751667
0.5989085324695325
0.5744939845641547
0.6489693826708849
0.6161827267581869
0.6199509025537275
0.629399224322006
0.863802383911339
0.8782504653517221
0.8837704908967698
0.8749142189525819
0.8473822417388748
0.6051936005659395
0.7834282277279302
0.7204893661038568
0.8855823462569774
0.7459102372757211
0.6543242940252915
0.6911667691854435
0.5869556573765996
0.7172049546693232
0.7298795571877991
0.6910610541091544
0.7513274219955773
0.7928199491337253
0.796732201313791
0.8112201103854624
0.6746636061848533
0.7571728221196576
0.6673279508651132
0.631540372313481
0.6413188999708439
0.5516000856361035
0.6621903003700587
0.9275126668582375
0.6025856426246954
0.8171059404211518
0.8149262242435591
0.828296852167171
0.811641984039695
0.8240930633539295
0.8451290879527117
0.683697312868367
0.711170755094998
0.7084157603739484
0.7663793915537798
0.6872090824485528
0.9357467981146895
0.7501557012632603
0.7995456222340314
0.8983075423504918
0.6845515921959934
0.6758256257285297
0.7627652516286376
0.6118886468498652
0.2104257523399859
0.9033578477155373
0.6553241527914461
0.7003736678087068
0.7141343752667942
0.6730916499786714
0.6858488963154344
0.6538819002456334
0.6750440123340464
0.7884582583005593
0.6841004376264678
0.6967311846840443
0.7536068945603062
0.7212315639683287
0.7124093216139199
0.7655110846732334
0.834415770377754
0.622711287764785
0.7536937348416769
0.7416965150386626
0.726439496595822
0.7113068790701431
0.7249777093256955
0.6091485091573285
0.6891104693749719
0.5605453514762369
0.6164329297196313
0.6151333677443419
0.7485728396043374
0.7079268470564298
0.7349787860632199
0.7273922802052112
0.8077407693160998
0.7979987156931565
0.593563683304415
0.5365168852789762
0.661703412023452
0.7500868223266062
0.605399976586812
0.725611373878572
0.878805167913369
0.6810716945230146
0.6546495076745555
0.6649908535448531
0.6791922132937162
0.9314802606744756
0.5823541441301353
0.6872791790563519
0.7156990112903336
0.7271141504649199
0.8793024199381926
0.8638105333768633
0.8495468160099644
0.6944460438645522
0.9610318124678617
0.9711372063757493
0.8316308896171214
0.8704336701097692
0.9177335296297388
0.929136726933077
0.7345893205843201
0.6735227605471528
0.970821592296114
0.7536686607173555
0.6511190619634629
0.6949436064240294
0.8539471503453293
0.8709021731632314
0.6824237405039402
0.7536746524471235
0.8305149957543739
0.644840949377597
0.5934244019625501
0.7037489326889951
0.6418877367662825
0.49459902917757625
0.6822105519069522
0.7832416239359945
0.4691275939362151
0.4644919676062963
0.7686624059935869
0.7142429473304581
0.7756841880729689
0.6646947664422379
0.899468743797182
0.5809031465684228
0.5181611839296157
0.5906218879108802
0.7247665324999023
0.7697288077089606
0.6648520925514756
0.30522300706919764
0.9145627864541337
0.8802906205238394
0.6675874121448488
0.816610549858038
0.7053815845876525
0.8053966567424561
0.8260448521066777
0.79941104339407
0.6272481937752988
0.6710400027643535
0.9531644035303033
0.7618522667364503
0.7931489009247302
0.6409596519951914
0.9410082885749098
0.7377912749096511
0.67567072553829
0.6744641495518987
0.5993455182922569
0.6830297358273784
0.5921791967749258
0.7657767398184471
0.6950042451223227
0.5953426644702702
0.8785116381602032
0.5778345662352861
0.5711990891153312
0.921714857975129
0.8027446867242234
0.8935215511996284
0.8816193238334428
0.6922585451232628
0.3711657854560839
0.6935422598256816
0.8020243996727051
0.8050705772165576
0.540946830595943
0.6926962503073404
0.7600898782097244
0.4444220223636613
0.8364334006321819
0.6650532843887089
0.5751454363749153
0.6644166236530884
0.5024546997743512
0.530135752610073
0.6484510084242401
0.7439301908493117
0.6017587498916565
0.7921916720061906
0.6815827020620173
0.8122280468426258
0.7844341384488508
0.6669454910121726
0.8657812410300811
0.8178663815734105
0.6320075449843763
0.5860945463614567
0.5554759062852864
0.6366037356114894
0.5749988261780734
0.815012304387815
0.8852578622916125
0.3571554811373895
0.4004385545023541
0.4283065134030535
0.5865266620663664
0.45864090017404047
0.6655771847980323
0.7309230013584067
0.7255778103267644
0.5590538439670177
0.5795852597230235
0.6101806575547774
0.6339398570669765
0.6682468409598239
0.7625240927281786
0.6850858794720732
0.7034055012166335
0.68691984821162
0.5414304278678486
0.4988060771991198
0.6651178030086646
0.6840259776916855
0.9620747577481314
0.518362962913579
0.8579063834475874
0.5927358863793871
0.824953804224095
0.6829311701517888
0.8559558165629396
0.6836504022551954
0.6376872640916875
0.5948449448374371
0.7269187771258889
0.7626890943247638
0.7431932255902878
0.8886349338959091
0.608231363862183
0.548070754012431
0.7677030807406041
0.8575180978865641
0.6077364663002386
0.7492649923017266
0.6473319396971521
0.8200358815548925
0.7027898284408036
0.7163320962135059
0.5446979137621372
0.7063051194408005
0.16233552523075132
0.6265408978161572
0.695712925306738
0.6300677473804668
0.6139581030760692
0.7952766328873163
0.8458370122967959
0.614351363317827
0.5500407722023238
0.8587626276834869
0.5768719476456515
0.7288386074269119
0.6295232855708629
0.6920620021623394
0.5583693397262622
0.6059458958190527
0.6990823032953796
0.6632120112354979
0.6499583895511328
0.5291123062154441
0.5539400386773218
0.7696209861133814
0.8311668601721669
0.6250784932556491
0.6155800950654775
0.5368686336859987
0.8416011482391107
0.6692856100705196
0.6070358922751501
0.6761770883643036
0.6113976202617684
0.7131081214598194
0.7692719155758314
0.750571712856755
0.7180225517687412
0.746001018795101
0.6896715913375675
0.7497442574935178
0.6581599169848928
0.4979977901434113
0.5950213230656501
0.6216700068165492
0.6767550340301764
0.5718553569273005
0.8562721979901806
0.6497380076812395
0.6765609799491364
0.798806208597212
0.7452415768582964
0.5649044165853807
0.6640963391360828
0.6520364315207846
0.7387499954191376
0.5982152847797173
0.6255661972440538
0.35345919833062517
0.7314604937653133
0.8139071639040136
0.5972795937481085
0.737979870919366
0.6307601970881848
0.7860393725364881
0.5877832662964598
0.6538474443066981
0.6031161483983635
0.792032585512347
0.7592733484762008
0.7579176716660141
0.6258508555997933
0.7165058051819175
0.6253537039048547
0.7103292551584236
0.5227305364004928
0.7798903813715462
0.8801789911158815
0.6310873385331272
0.6854526179648658
0.7381859980038383
0.6170279124860282
0.5715605701227475
0.9174670408303873
0.5825794809778796
0.7424832103860161
0.5710724915891071
0.7107837342379535
0.6493895836060254
0.5399110843555776
0.7825960389419158
0.38792990106460123
0.5803818128741595
0.7967718400287681
0.7522928233164161
0.7113074299658736
0.648950355640152
0.6324116720546322
0.7197312350574013
0.5143871579808253
0.6874853781599173
0.6979052931108629
0.7373379282511762
0.7228182700251244
0.6053079713793873
0.47480199567794
0.8251674699394242
0.8460435684029312
0.5419664593946387
0.6823869209336672
0.6848661971064689
0.43449096485492283
0.5780496490420393
0.41573407382868277
0.46529015234226045
0.663763347606468
0.6942387363259129
0.6589584848841392
0.9109017464238097
0.5758775564848979
0.9681472296522587
0.6064168887159355
0.7155214522424727
0.7169509172259869
0.5601131403298446
0.49767890648596885
0.515052575038256
0.6471447888709616
0.8005856241845977
0.7463232557032391
0.696779452014321
0.6873849383202975
0.6943960146107224
0.6937811332372819
0.7991066103408058
0.44500554181599955
0.5594932475734486
0.6792791349491848
0.5321533676631377
0.6414512606499524
0.7579042394364399
0.763314128639478
0.6006029832982409
0.7266168999708723
0.709778375873515
0.6546579261962285
0.6584659189675229
0.6647534563511581
0.6416623990645353
0.8708884276650785
0.6958767059479469
0.5383532627830622
0.6206212056734536
0.6023649432869977
0.5863227661958249
0.6937530753215795
0.7196515937614721
0.6003806462438233
0.7150406413849516
0.6542834655622655
0.8765264554512718
0.8188603150255165
0.5118830187931026
0.6860843287355508
0.6534304689236026
0.575909982375595
0.8227149252995297
0.6380235877169613
0.676725482985238
0.7698424416342394
0.4422099737674795
0.7763484809671002
0.8273109926313437
0.6283885137100531
0.8943591573676268
0.5904933226099408
0.8227379907500009
0.7051779775262305
0.7512184293662316
0.6182148272294931
0.3331325745935291
0.522785382417709
0.7823057206066791
0.6162812128849237
0.5306596323607966
0.6552793716605476
0.661157576526338
0.5931031961848109
0.8964408837250585
0.8254604451837605
0.6378994595994153
0.8503049902174791
0.6268099471401617
0.6255677175767225
0.7233745617067344
0.8805951000354473
0.6967854105085179
0.6938580031729644
0.6614481876358286
0.6168886833713337
0.9413364510472975
0.6647644189592161
0.6748786288868422
0.6034592624486226
0.633587773885198
0.6444889236906659
0.7121200333074755
0.7064591809664881
0.5004802504879619
0.7338828386020649
0.8114109129717431
0.8405657888312396
0.7116260948364578
0.9245940598932767
0.7848684462269547
0.6449756957517531
0.615699825405932
0.5837442090090654
0.6045156667039996
0.3962336429155253
0.6563278907975127
0.6393966164117741
0.5317076594659513
0.3942404149144661
0.5822137613711581
0.5715027642758622
0.6595191965320304
0.587700594705639
0.7592115905724446
0.8777708096827957
0.605477075521504
0.4838751328483499
0.5868269528441752
0.3965617598491065
0.6829418820371069
0.5070560846084095
0.6437267636280251
0.7585406911188906
0.5476938506402143
0.7123343346448747
0.8133087668058148
0.7286731034723734
0.7329543230388342
0.8884181783047207
0.8117376778306488
0.8200449975417867
0.6990930440018854
0.6750986261867316
0.6850996951902864
0.7044266283681893
0.6179990207766833
0.8172649116285527
0.5940397604531851
0.5534037279700624
0.6689178707981248
0.6036501418208202
0.7552515649697786
0.9884227745940576
0.9912481278823863
0.7293016526799292
0.49446156294417304
0.7194465862986051
0.9199649339066337
0.9549086198798544
0.6383896877097375
0.6360888785662164
0.5957847179200676
0.6213082623316809
0.659114542432856
0.6680904854564941
0.5752243715783039
0.5598831272271514
0.5431452802579263
0.7364745032777296
0.7353181757900019
0.5939530494734439
0.6088848167522901
0.5617894456877627
0.8637435824377482
0.570660822588767
0.7248026393745218
0.6987227218583884
0.6692609424759149
0.678953760294708
0.5824390759240251
0.6272048921736447
0.4468581275864414
0.6228503310026835
0.7005550769315255
0.9083083903680107
0.6786211825708157
0.6965836873050404
0.5647879805642908
0.690644191912053
0.5326681286806924
0.6833201395425064
0.6436625656475893
0.8136550977897299
0.6267446959452048
0.5801683104910125
0.7421050278039326
0.6121226461466314
0.6263066544822778
0.570102413258188
0.47740825829022937
0.8437178614273085
0.5816520260080331
0.6861292635405192
0.6760675052906024
0.868914706126744
0.7198194390946853
0.5763604332529294
0.6618937201113617
0.946224857233902
0.7404784789182508
0.792010620923182
0.6038973749594748
0.8579887377529843
0.6337190935677272
0.6149204602554224
0.5217890131895765
0.8063225376916634
0.7019811507502641
0.6875053660709821
0.9071015412124794
0.7096184974758254
0.6871064248037786
0.9410476863499576
0.8326761826949048
0.5649137268088563
0.6944664752881694
0.835530479534569
0.8232853255796881
0.9157713120795928
0.522315434176828
0.748075376409706
0.5261099897756433
0.6203367883877606
0.7063127873925691
0.6831984199234136
0.4964844350070031
0.6717514748700075
0.7132566933472152
0.6714361094141815
0.598307982780628
0.8430884576480737
0.6850896557631947
0.5842013640104886
0.6822142952514242
0.7095993928596683
0.7941302504207196
0.6424905202178747
0.6321380033480556
0.551581362740065
0.8270343885337346
0.6757062678327583
0.6033184168456545
0.6401067911226339
0.7454326593687748
0.7148734269446397
0.5871005756317104
0.6490232249799599
0.7229598979643332
0.6671187348273104
0.6510444469015503
0.6683182081310295
0.6156892503795316
0.5902119203801586
0.829415613335667
0.9579711046168026
0.7011222684341366
0.7336527506122592
0.7311416155712158
0.6770342277608243
0.9599424448203911
0.7749961118658056
0.6894402060366767
0.6636824526759867
0.672718212232796
0.6610046064519534
0.6750837940691488
0.6303987268066521
0.6461907890578089
0.6683121343084245
0.6281048258228362
0.6884144737510993
0.8685124605421981
0.6597729077084584
0.6008372465882047
0.6670060106525231
0.8229552197917444
0.6342045126597518
0.669295267068275
0.6945704804620514
0.40145362181935573
0.6552574669085742
0.6540011533126606
0.4145401102908823
0.323114422147521
0.28672682282657586
0.5481254878245123
0.5708224524376213
0.7403338018914263
0.6851600816499213
0.8256773450948105
0.6657357719867316
0.555780173179106
0.6318653417190319
0.9521328426792877
0.6981646086121921
0.6437045935445944
0.7495783020430918
0.6350638854507283
0.5408260786731856
0.7853406426114765
0.5561286384413575
0.6740635175478098
0.635833564565708
0.6467854970832675
0.847814582313861
0.6021118961395381
0.6885629313669365
0.5795811989575325
0.6787207748854054
0.7325742760436884
0.8161589412207553
0.9073814301285693
0.8662077856378323
0.5970902457271521
0.6567443286765425
0.482787474354115
0.7861757954185601
0.6733169198591544
0.5095821293401492
0.6485622634682124
0.5880976509831026
0.7773303640174006
0.6648063527580266
0.5643248374850313
0.5354081144840156
0.5387900177924291
0.805814679781975
0.6651818567699763
0.4892084265981185
0.6909323230180554
0.9794246072017879
0.7342213224742452
0.570950409972644
0.5685381084117004
0.6082341913075267
0.9339466131111934
0.6381623649045275
0.6335110458536061
0.8161798448420314
0.7408761157118555
0.7293286154913902
0.6134463603083643
0.7026173184743664
0.9620285378062371
0.6554278440409744
0.7825712379131299
0.44860706946265705
0.9065655620126924
0.50325794291812
0.5921628042965499
0.5530671455082988
0.6350017539731818
0.7284961171249702
0.3803143478427091
0.58748728054757
0.965913225899015
0.8085260003037655
0.6238533223918686
0.7865169887199371
0.6482186731647946
0.8331838496443834
0.5888834228554575
0.23699286400468664
0.6542027555471753
0.6485451925962954
0.9461357239868208
0.8225929169157552
0.6713211140660411
0.7934025028829005
0.964472296610167
0.5928503724718123
0.7555580240871903
0.626060940075822
0.5070516677482043
0.9555309988359566
0.6604067850149877
0.8974579187943758
CELL_DATA 4886
TENSORS stress float
-1.2045245575619584e7 4.660522501822071e6 0.0
4.660522501822071e6 2.567427015315924e7 0.0
0.0 0.0 0.0

-1.906008785500129e7 7.921600031237814e6 0.0
7.921600031237814e6 9.939487321734425e6 0.0
0.0 0.0 0.0

-6.658478019066134e6 2.00040562774137e7 0.0
2.00040562774137e7 -2.531849975882114e6 0.0
0.0 0.0 0.0

-4.665232556763146e6 1.8455767744087208e7 0.0
1.8455767744087208e7 1.0665475051145915e7 0.0
0.0 0.0 0.0

-3.221935859933462e6 2.0713262687661346e7 0.0
2.0713262687661346e7 -361424.4803140935 0.0
0.0 0.0 0.0

1.9594053588378995e6 3.4361882155418005e6 0.0
3.4361882155418005e6 -4.913555257442046e6 0.0
0.0 0.0 0.0

3.7053439841459274e7 1.9391899930533484e7 0.0
1.9391899930533484e7 8.771249680808775e6 0.0
0.0 0.0 0.0

4.706413230720326e6 3.5593686380578806e6 0.0
3.5593686380578806e6 -3.223646714381598e7 0.0
0.0 0.0 0.0

-1.1910963399929108e7 6.43961940999863e6 0.0
6.43961940999863e6 2.6989368257814266e7 0.0
0.0 0.0 0.0

-733437.8474318916 1.6756005479425656e7 0.0
1.6756005479425656e7 1.3505978051854135e7 0.0
0.0 0.0 0.0

-1.523706734091481e6 1.7104629646577153e7 0.0
1.7104629646577153e7 -6.020314384500405e6 0.0
0.0 0.0 0.0

-2.1647160292340424e6 2.4345427031579304e7 0.0
2.4345427031579304e7 277908.50568676763 0.0
0.0 0.0 0.0

3.0921614609349836e6 8.43755644029074e6 0.0
8.43755644029074e6 -2.9868703332506433e7 0.0
0.0 0.0 0.0

5.521720638468618e7 2.2026611945317313e7 0.0
2.2026611945317313e7 9.401114808579579e6 0.0
0.0 0.0 0.0

-1.4724453561663572e6 1.7568478907502454e7 0.0
1.7568478907502454e7 -6.052312916771458e6 0.0
0.0 0.0 0.0

3.779172345414363e6 4.327894395025739e6 0.0
4.327894395025739e6 -1.3143963979584089e7 0.0
0.0 0.0 0.0

-1.5123813234721809e6 1.4401085872023983e7 0.0
1.4401085872023983e7 -1.628212211543954e7 0.0
0.0 0.0 0.0

1.3141451513741706e6 1.2014622753698364e7 0.0
1.2014622753698364e7 -2.1478357501857232e7 0.0
0.0 0.0 0.0

-8.476078109287431e6 -4.820540350779076e6 0.0
-4.820540350779076e6 1.9048130904278763e7 0.0
0.0 0.0 0.0

-1.8181174947817177e6 1.945513897730538e7 0.0
1.945513897730538e7 -5.226790456604553e6 0.0
0.0 0.0 0.0

2.785339716705572e6 1.0001569244913626e7 0.0
1.0001569244913626e7 -1.5674781846910967e7 0.0
0.0 0.0 0.0

-1.4123542610551678e6 2.416252401755409e7 0.0
2.416252401755409e7 216777.75934957707 0.0
0.0 0.0 0.0

-8.2826215429593995e6 5.451543329536743e6 0.0
5.451543329536743e6 1.2801701826420158e7 0.0
0.0 0.0 0.0

-9.763241460863847e6 1.9530440204804607e7 0.0
1.9530440204804607e7 530235.9428701773 0.0
0.0 0.0 0.0

1.4670426515178476e6 1.0845075876465004e7 0.0
1.0845075876465004e7 -2.728493271675789e7 0.0
0.0 0.0 0.0

1.2007409589794457e7 3.1056156508794896e7 0.0
3.1056156508794896e7 -1.073437023245212e7 0.0
0.0 0.0 0.0

2.4743856050309684e7 1.724661437636109e7 0.0
1.724661437636109e7 4.919228192405792e6 0.0
0.0 0.0 0.0

-1.2158693814476535e7 1.3318556434420519e7 0.0
1.3318556434420519e7 1.938589537390995e7 0.0
0.0 0.0 0.0

3.98163441772395e6 4.410301862568226e6 0.0
4.410301862568226e6 -1.3307255916763196e7 0.0
0.0 0.0 0.0

-4.9019344802095e6 -1.2621418264944633e6 0.0
-1.2621418264944633e6 7.868726296950475e6 0.0
0.0 0.0 0.0

-9.619224110026635e6 6.805283960248162e6 0.0
6.805283960248162e6 1.106029509108153e7 0.0
0.0 0.0 0.0

1.564017487540206e6 7.884208203984971e6 0.0
7.884208203984971e6 -7.404070235448813e6 0.0
0.0 0.0 0.0

-264531.2724190466 1.6828833183777448e7 0.0
1.6828833183777448e7 6.839462208917846e6 0.0
0.0 0.0 0.0

73314.15507158844 1.5591195499691885e7 0.0
1.5591195499691885e7 -208566.21935154818 0.0
0.0 0.0 0.0

-4.478820067865729e6 1.9101649162096806e7 0.0
1.9101649162096806e7 4.250936384151855e6 0.0
0.0 0.0 0.0

-8.66735975535249e6 4.810914676918998e6 0.0
4.810914676918998e6 9.651457984860603e6 0.0
0.0 0.0 0.0

301515.6100140945 1.080168397623134e7 0.0
1.080168397623134e7 -6.346171432388058e6 0.0
0.0 0.0 0.0

-4.0271803410575986e6 1.891647453232339e7 0.0
1.891647453232339e7 4.544833065372774e6 0.0
0.0 0.0 0.0

-1.7146680946007725e6 1.3322568059199044e7 0.0
1.3322568059199044e7 -2.732043981852614e7 0.0
0.0 0.0 0.0

-3.509856853264602e6 2.2252538837540407e7 0.0
2.2252538837540407e7 2.100746549627697e6 0.0
0.0 0.0 0.0

2.3821738139762767e6 8.605135201128308e6 0.0
8.605135201128308e6 -3.2580717004500747e7 0.0
0.0 0.0 0.0

-8.831378274326187e6 2.1392690109885123e7 0.0
2.1392690109885123e7 -4.0156569665064244e6 0.0
0.0 0.0 0.0

-3.5890756546692797e6 2.175468871189417e7 0.0
2.175468871189417e7 1.911173747671877e6 0.0
0.0 0.0 0.0

-1.1107744800685242e7 1.7469472030056526e6 0.0
1.7469472030056526e6 1.8601365281641454e7 0.0
0.0 0.0 0.0

2.398403164491033e6 9.943274059445815e6 0.0
9.943274059445815e6 -1.710215497930973e7 0.0
0.0 0.0 0.0

-1.0844125227362279e7 1.4628502339497158e7 0.0
1.4628502339497158e7 1.880820468155857e7 0.0
0.0 0.0 0.0

-221854.69900497934 1.690410634642093e7 0.0
1.690410634642093e7 -9.690255209768295e6 0.0
0.0 0.0 0.0

-219244.7047462701 1.044366304686708e7 0.0
1.044366304686708e7 -6.950881193429215e6 0.0
0.0 0.0 0.0

4.835964054234475e6 3.6850849371580677e6 0.0
3.6850849371580677e6 -2.7039424598904364e7 0.0
0.0 0.0 0.0

2.6493861507181977e6 1.4465006565066162e7 0.0
1.4465006565066162e7 8.831287454441175e6 0.0
0.0 0.0 0.0

-2.590991966515573e6 2.1537280047618665e7 0.0
2.1537280047618665e7 359268.0947363855 0.0
0.0 0.0 0.0

-1.385858797878525e7 5.291171048872281e6 0.0
5.291171048872281e6 8.694677315753447e6 0.0
0.0 0.0 0.0

4.89461065103516e6 3.689198113984915e6 0.0
3.689198113984915e6 -2.7895840124909885e7 0.0
0.0 0.0 0.0

-3.0973110533931516e6 2.0234324272133566e7 0.0
2.0234324272133566e7 1.1680158619921606e6 0.0
0.0 0.0 0.0

2.4337326181911062e6 1.4948734941077618e7 0.0
1.4948734941077618e7 1.0933762720377753e7 0.0
0.0 0.0 0.0

-6.644925916853315e6 2.0302391078148317e7 0.0
2.0302391078148317e7 5.48709888727129e6 0.0
0.0 0.0 0.0

4.390971231776549e6 4.029317930615473e6 0.0
4.029317930615473e6 -3.505658985382136e7 0.0
0.0 0.0 0.0

-3.1143398749034884e6 2.2395421155698296e7 0.0
2.2395421155698296e7 2.163990962537108e6 0.0
0.0 0.0 0.0

775509.6641139407 1.6262169814885637e7 0.0
1.6262169814885637e7 2.374656188897846e7 0.0
0.0 0.0 0.0

3.2312354921163004e6 9.14647772537429e6 0.0
9.14647772537429e6 -1.870634438289728e7 0.0
0.0 0.0 0.0

-901187.2143676658 1.325639552415499e7 0.0
1.325639552415499e7 -8.715193553706037e6 0.0
0.0 0.0 0.0

1.715672866067908e7 1.8004107173048228e7 0.0
1.8004107173048228e7 -4.800195792029581e6 0.0
0.0 0.0 0.0

-2.749939740391191e6 1.635804373918919e7 0.0
1.635804373918919e7 -9.285154266778756e6 0.0
0.0 0.0 0.0

-6.4498550017050095e6 522338.88364803547 0.0
522338.88364803547 8.0427334338176865e6 0.0
0.0 0.0 0.0

700416.0520180803 5.870140061557938e6 0.0
5.870140061557938e6 -2.9668046088048005e6 0.0
0.0 0.0 0.0

4.497178641152056e6 4.658213575840206e6 0.0
4.658213575840206e6 -2.6506823305510778e7 0.0
0.0 0.0 0.0

3.657200936607007e6 7.461970871242281e6 0.0
7.461970871242281e6 -2.9704079459949464e7 0.0
0.0 0.0 0.0

-3.669947189829371e6 1.98928129504065e7 0.0
1.98928129504065e7 581520.8715347906 0.0
0.0 0.0 0.0

-1.3371704510205416e6 1.637536897716609e7 0.0
1.637536897716609e7 1.957726107718738e7 0.0
0.0 0.0 0.0

1.3538970690189244e7 1.500149249490086e7 0.0
1.500149249490086e7 3.4097530680415556e6 0.0
0.0 0.0 0.0

-1.2045769800866215e7 3.0508207664848594e6 0.0
3.0508207664848594e6 1.6732847366490275e7 0.0
0.0 0.0 0.0

2.0526717639858332e6 1.0805784026498454e7 0.0
1.0805784026498454e7 -2.5317869848971408e7 0.0
0.0 0.0 0.0

-1.7061995418295516e6 1.3860255859066809e7 0.0
1.3860255859066809e7 -2.5552176870256126e7 0.0
0.0 0.0 0.0

1.305715648883015e6 1.5726257623488875e7 0.0
1.5726257623488875e7 3.469014567150569e7 0.0
0.0 0.0 0.0

-4.798911140925221e6 1.86098936994408e7 0.0
1.86098936994408e7 1.01574815492172e7 0.0
0.0 0.0 0.0

-1.0945398344202721e7 1.4580686818362214e7 0.0
1.4580686818362214e7 1.838379071091227e7 0.0
0.0 0.0 0.0

-5.645311722056727e6 1.0998846737047242e7 0.0
1.0998846737047242e7 9.259478747644935e6 0.0
0.0 0.0 0.0

-956592.3711296525 1.4140118298931949e7 0.0
1.4140118298931949e7 -1.5970381189392703e7 0.0
0.0 0.0 0.0

-204462.3608392221 1.4823986213058872e7 0.0
1.4823986213058872e7 -9.395693168444304e6 0.0
0.0 0.0 0.0

1.3262138293154435e6 1.2080032587999856e7 0.0
1.2080032587999856e7 -1.4008472550172219e7 0.0
0.0 0.0 0.0

1.2468556778300153e7 2.0370365346296076e7 0.0
2.0370365346296076e7 -5.986949222779405e6 0.0
0.0 0.0 0.0

-9.981060370841473e6 -4.658435457674258e6 0.0
-4.658435457674258e6 2.3346946467305683e7 0.0
0.0 0.0 0.0

993615.3239394092 1.4957272965011826e7 0.0
1.4957272965011826e7 -2.6188506404749835e6 0.0
0.0 0.0 0.0

-1.5142413521551725e6 2.5081190086314056e7 0.0
2.5081190086314056e7 -418829.76638103754 0.0
0.0 0.0 0.0

-4.980725529960901e6 1.8503110532696754e7 0.0
1.8503110532696754e7 1.07037777329221e7 0.0
0.0 0.0 0.0

4.566825387201531e6 4.192446147855923e6 0.0
4.192446147855923e6 -1.7627426091757357e7 0.0
0.0 0.0 0.0

1.274536051852954e6 7.176405789441742e6 0.0
7.176405789441742e6 -8.2723729375450555e6 0.0
0.0 0.0 0.0

-234249.77044597548 1.5829185833635712e7 0.0
1.5829185833635712e7 6.185194753170516e6 0.0
0.0 0.0 0.0

8.042399078249583e6 3.2520008780930866e7 0.0
3.2520008780930866e7 -1.3028238850740027e7 0.0
0.0 0.0 0.0

-1.1374114361696161e7 6.046597312222055e6 0.0
6.046597312222055e6 3.259236493536957e7 0.0
0.0 0.0 0.0

812185.3030529716 1.6413443017256854e7 0.0
1.6413443017256854e7 -6.699452697266882e6 0.0
0.0 0.0 0.0

-639737.6242418694 1.5107408512692204e7 0.0
1.5107408512692204e7 -1.1226168725631025e7 0.0
0.0 0.0 0.0

-136769.12355578225 9.523999800527954e6 0.0
9.523999800527954e6 -6.262110299547475e6 0.0
0.0 0.0 0.0

102591.00312569528 5.100070273652552e6 0.0
5.100070273652552e6 -4.055561838051252e6 0.0
0.0 0.0 0.0

2.1386704981402396e6 1.729908623695678e7 0.0
1.729908623695678e7 -4.711924699468105e6 0.0
0.0 0.0 0.0

-1.5330928685607417e6 1.4195658831449548e7 0.0
1.4195658831449548e7 -2.1222717520317253e7 0.0
0.0 0.0 0.0

4.626030080908632e6 3.5494260869655167e6 0.0
3.5494260869655167e6 -3.197933945462176e7 0.0
0.0 0.0 0.0

-5.155374877165978e6 1.8918065481719386e7 0.0
1.8918065481719386e7 9.232843558723852e6 0.0
0.0 0.0 0.0

3.3428261097948328e6 8.164938706283418e6 0.0
8.164938706283418e6 -2.4192657535328373e7 0.0
0.0 0.0 0.0

4.413999580081422e6 4.0424110096144048e6 0.0
4.0424110096144048e6 -3.574192005541306e7 0.0
0.0 0.0 0.0

-4.003672762702792e6 1.735595919182047e7 0.0
1.735595919182047e7 1.0744004000118688e7 0.0
0.0 0.0 0.0

-4.375964759980528e6 1.5637940739729507e7 0.0
1.5637940739729507e7 -9.419273716982016e6 0.0
0.0 0.0 0.0

-9.980893696812961e6 5.0605647597204e6 0.0
5.0605647597204e6 1.4670669963622406e7 0.0
0.0 0.0 0.0

-3.001719718588461e6 2.1236466995834026e7 0.0
2.1236466995834026e7 1.4524392369841922e6 0.0
0.0 0.0 0.0

143523.11845052522 9.659683458007872e6 0.0
9.659683458007872e6 -4.731978419566593e6 0.0
0.0 0.0 0.0

-5.725660857529986e6 1.1364881567664038e7 0.0
1.1364881567664038e7 7.824073089059136e6 0.0
0.0 0.0 0.0

-9.595286466118176e6 -4.347848016414199e6 0.0
-4.347848016414199e6 2.394724891845896e7 0.0
0.0 0.0 0.0

1.6355382837744895e6 1.2221281859997774e7 0.0
1.2221281859997774e7 -1.3118349596515596e7 0.0
0.0 0.0 0.0

-1.7966675418799827e6 2.388984553604619e7 0.0
2.388984553604619e7 88395.27214668132 0.0
0.0 0.0 0.0

-6.3326772928098105e6 5.576517622326337e6 0.0
5.576517622326337e6 1.0094487216849172e7 0.0
0.0 0.0 0.0

2.8603691352479476e6 7.669167247961952e6 0.0
7.669167247961952e6 -3.225892825465818e7 0.0
0.0 0.0 0.0

-1.6620095422397591e6 1.0137568212608447e7 0.0
1.0137568212608447e7 -3.624585403243924e6 0.0
0.0 0.0 0.0

3.789215095801752e6 1.8255265335724693e7 0.0
1.8255265335724693e7 8.539441205898708e6 0.0
0.0 0.0 0.0

2.5893850287074387e7 1.820942773874533e7 0.0
1.820942773874533e7 4.590642125252876e6 0.0
0.0 0.0 0.0

4.038257077792865e6 6.051271270115718e6 0.0
6.051271270115718e6 -1.6274459488537075e7 0.0
0.0 0.0 0.0

-2.7736953552415324e6 1.431919490835583e7 0.0
1.431919490835583e7 -2.5773545664553504e7 0.0
0.0 0.0 0.0

3.933427629363845e6 6.058997073731029e6 0.0
6.058997073731029e6 -1.70541305225625e7 0.0
0.0 0.0 0.0

4.761980263888101e6 4.1895779560401267e6 0.0
4.1895779560401267e6 -1.8236166285494007e7 0.0
0.0 0.0 0.0

2.2466951284948666e7 1.2414510985792663e7 0.0
1.2414510985792663e7 71766.17663464788 0.0
0.0 0.0 0.0

-9.330540961963369e6 2.8404540472867884e7 0.0
2.8404540472867884e7 4.1803555450574844e6 0.0
0.0 0.0 0.0

-1.0811379380948534e6 1.3316610258763922e7 0.0
1.3316610258763922e7 -2.3651055906382535e7 0.0
0.0 0.0 0.0

-6.991473087069461e6 1.895704064045114e7 0.0
1.895704064045114e7 -1.966541157201462e6 0.0
0.0 0.0 0.0

5.0854323922324795e6 4.024994255933835e6 0.0
4.024994255933835e6 -2.2951719231370673e7 0.0
0.0 0.0 0.0

-7.253382733585515e6 2.018827842577827e7 0.0
2.018827842577827e7 6.074558409667661e6 0.0
0.0 0.0 0.0

3.179140068123376e6 2.4061528191599198e7 0.0
2.4061528191599198e7 -4.199506340480654e6 0.0
0.0 0.0 0.0

-1.2537431846079225e7 7.571471260262804e6 0.0
7.571471260262804e6 2.447821528170515e7 0.0
0.0 0.0 0.0

4.1584039251964195e6 3.183695874843277e7 0.0
3.183695874843277e7 -8.033340910032513e6 0.0
0.0 0.0 0.0

-452287.9763726962 1.6234697619983602e7 0.0
1.6234697619983602e7 -882026.998448972 0.0
0.0 0.0 0.0

4.807603649444206e6 3.5740122277264884e6 0.0
3.5740122277264884e6 -2.859939635821666e7 0.0
0.0 0.0 0.0

1.811096102958461e7 1.4864304418578202e7 0.0
1.4864304418578202e7 413960.90425625816 0.0
0.0 0.0 0.0

-3.9830240405575456e6 1.7072038428651705e7 0.0
1.7072038428651705e7 1.0823819581069622e7 0.0
0.0 0.0 0.0

3.926626674010655e6 6.086236610367582e6 0.0
6.086236610367582e6 -2.6291124200870868e7 0.0
0.0 0.0 0.0

-1.1962530285826016e6 1.981855238785258e7 0.0
1.981855238785258e7 -4.625747851701068e6 0.0
0.0 0.0 0.0

510178.1533308686 1.5984889699635198e7 0.0
1.5984889699635198e7 -7.258786078591352e6 0.0
0.0 0.0 0.0

-2.3344253668192024e6 1.5390717379858116e7 0.0
1.5390717379858116e7 -9.552189818798425e6 0.0
0.0 0.0 0.0

-120466.23198207747 1.5361018527881378e7 0.0
1.5361018527881378e7 -8.516842962554567e6 0.0
0.0 0.0 0.0

5.573682708177762e6 1.8495656561430972e7 0.0
1.8495656561430972e7 8.655254807808511e6 0.0
0.0 0.0 0.0

2.752713309069149e6 6.489248343112723e6 0.0
6.489248343112723e6 -4.401963428108249e7 0.0
0.0 0.0 0.0

-5.151701830582265e6 1.944429512217243e7 0.0
1.944429512217243e7 9.074398685109487e6 0.0
0.0 0.0 0.0

1.542003958529299e6 4.598196196168508e6 0.0
4.598196196168508e6 -4.564229287810358e6 0.0
0.0 0.0 0.0

-1.239564396433679e7 1.1865898617567835e7 0.0
1.1865898617567835e7 2.0150032725618675e7 0.0
0.0 0.0 0.0

4.708993226426527e6 4.527961893060358e6 0.0
4.527961893060358e6 -1.6170424972619204e7 0.0
0.0 0.0 0.0

-9.590647289219884e6 -4.330486703358743e6 0.0
-4.330486703358743e6 2.9256311814498007e7 0.0
0.0 0.0 0.0

1.6576270656598993e6 1.2827323932521109e7 0.0
1.2827323932521109e7 -1.5781027295713611e7 0.0
0.0 0.0 0.0

1.4657464231913628e6 3.2023967425637073e6 0.0
3.2023967425637073e6 -4.753877876662587e6 0.0
0.0 0.0 0.0

1.9438887130823513e6 1.5279781436434144e7 0.0
1.5279781436434144e7 1.0565696774357455e7 0.0
0.0 0.0 0.0

-3.470287318141286e6 2.2062267019903425e7 0.0
2.2062267019903425e7 3.6189832249218137e6 0.0
0.0 0.0 0.0

-1.036938703575518e7 -3.10274750486892e6 0.0
-3.10274750486892e6 2.7600957444487445e7 0.0
0.0 0.0 0.0

-2.0609916222645394e6 1.662976266052552e7 0.0
1.662976266052552e7 5.845165576072397e6 0.0
0.0 0.0 0.0

2.4127861156785814e6 1.8232307161278486e7 0.0
1.8232307161278486e7 -5.408512212290788e6 0.0
0.0 0.0 0.0

-3.7006761151586575e6 1.9291542299626082e7 0.0
1.9291542299626082e7 314554.69742657477 0.0
0.0 0.0 0.0

-2.3192464368894584e6 1.792305753474121e7 0.0
1.792305753474121e7 -6.455332053974317e6 0.0
0.0 0.0 0.0

-3.287688014575779e6 1.9465396473197382e7 0.0
1.9465396473197382e7 1.56803162293325e6 0.0
0.0 0.0 0.0

-3.5934556939049577e6 1.3784024163249793e7 0.0
1.3784024163249793e7 -1.4759047166208139e7 0.0
0.0 0.0 0.0

1.061082151637097e7 1.968377277814867e7 0.0
1.968377277814867e7 -6.983913443367142e6 0.0
0.0 0.0 0.0

-656128.8654613295 1.4481717417139541e7 0.0
1.4481717417139541e7 -1.1973160334928138e7 0.0
0.0 0.0 0.0

-6.571977089348434e6 1.6767352072710391e7 0.0
1.6767352072710391e7 1.7347262714979943e7 0.0
0.0 0.0 0.0

607518.0406241878 1.751565819328662e7 0.0
1.751565819328662e7 1.136564185240623e7 0.0
0.0 0.0 0.0

2.9181581313592084e6 9.289559408249222e6 0.0
9.289559408249222e6 -1.8119495384331934e7 0.0
0.0 0.0 0.0

-6.242136331777498e6 1.0476351914961163e7 0.0
1.0476351914961163e7 6.87607985942873e6 0.0
0.0 0.0 0.0

-3.51256715608213e6 2.477550953600939e7 0.0
2.477550953600939e7 2.216024377477369e6 0.0
0.0 0.0 0.0

-7.260523590886799e6 1.6228514480736133e7 0.0
1.6228514480736133e7 1.2741392128104681e7 0.0
0.0 0.0 0.0

-186880.36594331608 2.5751006524419766e7 0.0
2.5751006524419766e7 -397126.33253751765 0.0
0.0 0.0 0.0

1.2937188525510412e6 1.2607466369650712e7 0.0
1.2607466369650712e7 -1.6775516213544285e7 0.0
0.0 0.0 0.0

-1.3848587921030529e7 2.1658285368745312e7 0.0
2.1658285368745312e7 -4.693716500302218e6 0.0
0.0 0.0 0.0

4.697478992237398e6 4.72864813354328e6 0.0
4.72864813354328e6 -3.161107825557879e7 0.0
0.0 0.0 0.0

5.093134874302203e6 2.564609183127585e7 0.0
2.564609183127585e7 -4.404366194431646e6 0.0
0.0 0.0 0.0

-1.5554182233353175e7 2.536350714318969e7 0.0
2.536350714318969e7 8.144562870858492e6 0.0
0.0 0.0 0.0

-1.1611141621579276e6 1.648420086163592e7 0.0
1.648420086163592e7 1.2554144870325968e7 0.0
0.0 0.0 0.0

-2.808750260250464e7 2.45897640529221e7 0.0
2.45897640529221e7 9.132890827035693e6 0.0
0.0 0.0 0.0

4.98426217597938e6 3.5747638665272347e6 0.0
3.5747638665272347e6 -2.932046242103558e7 0.0
0.0 0.0 0.0

-6.880737765805183e6 1.6106812238220297e7 0.0
1.6106812238220297e7 1.3929964134318974e7 0.0
0.0 0.0 0.0

-6.995510775877825e6 5.5686172531657135e6 0.0
5.5686172531657135e6 7.830249550446407e6 0.0
0.0 0.0 0.0

4.508303495185107e6 3.910156222101959e6 0.0
3.910156222101959e6 -1.700829237929353e7 0.0
0.0 0.0 0.0

102014.88433592767 1.6077525393537462e7 0.0
1.6077525393537462e7 -8.48297070909686e6 0.0
0.0 0.0 0.0

-6.881239314148208e6 2.934676266866534e7 0.0
2.934676266866534e7 5.062615642050369e6 0.0
0.0 0.0 0.0

-1.2748815956879072e7 1.2580861038856216e7 0.0
1.2580861038856216e7 9.786205129144339e6 0.0
0.0 0.0 0.0

-2.5323056052514438e7 2.167405237652016e7 0.0
2.167405237652016e7 4.354496121098109e6 0.0
0.0 0.0 0.0

2.5566079088471066e7 1.664447772527369e7 0.0
1.664447772527369e7 8.224101676859339e6 0.0
0.0 0.0 0.0

-3.8308291984605268e6 1.41353182721331e7 0.0
1.41353182721331e7 -5.671525809858187e7 0.0
0.0 0.0 0.0

-20213.326423326507 1.5156990510058306e7 0.0
1.5156990510058306e7 -1.031787431958863e7 0.0
0.0 0.0 0.0

-6.451269318601087e6 1.648870546316298e7 0.0
1.648870546316298e7 1.7154563288379747e7 0.0
0.0 0.0 0.0

-699320.7983160352 1.835395161445924e7 0.0
1.835395161445924e7 -7.440288965219526e6 0.0
0.0 0.0 0.0

-2.662824732018853e6 2.1031923866437294e7 0.0
2.1031923866437294e7 163996.22856846242 0.0
0.0 0.0 0.0

1.1580497099482373e6 1.4273631181533398e7 0.0
1.4273631181533398e7 6.074053044099345e6 0.0
0.0 0.0 0.0

-491101.5634372057 2.5264148682059456e7 0.0
2.5264148682059456e7 -307106.4375489004 0.0
0.0 0.0 0.0

-8.177585779860105e6 5.288480183244322e6 0.0
5.288480183244322e6 1.0952261181760466e7 0.0
0.0 0.0 0.0

3.477794998419752e7 2.327181483955686e7 0.0
2.327181483955686e7 1.0723484026561048e7 0.0
0.0 0.0 0.0

-1.2458164832638928e6 2.079904958703089e7 0.0
2.079904958703089e7 -4.330400964612565e6 0.0
0.0 0.0 0.0

1.8487600483663767e6 1.389345956512667e7 0.0
1.389345956512667e7 8.085405114642303e6 0.0
0.0 0.0 0.0

-7.8652098735268265e6 2.0182072526630767e7 0.0
2.0182072526630767e7 2.321499037141113e6 0.0
0.0 0.0 0.0

-2.630814783958778e6 1.5446519975512085e7 0.0
1.5446519975512085e7 1.2793033970363352e7 0.0
0.0 0.0 0.0

-1.4133172644284284e6 1.977330650679174e7 0.0
1.977330650679174e7 -4.287702198271724e6 0.0
0.0 0.0 0.0

3.7811367960263947e6 7.379042117451619e6 0.0
7.379042117451619e6 -2.3579406759257883e7 0.0
0.0 0.0 0.0

-4.4386770040345155e6 1.832203475428929e7 0.0
1.832203475428929e7 4.832461513046035e6 0.0
0.0 0.0 0.0

-4.426663439847658e6 1.8230484120696746e7 0.0
1.8230484120696746e7 2.9185240637261053e6 0.0
0.0 0.0 0.0

1.6406072593431445e6 7.259580509918892e6 0.0
7.259580509918892e6 -9.692478254483234e6 0.0
0.0 0.0 0.0

-4.3732358630314795e6 1.8992801046163287e7 0.0
1.8992801046163287e7 9.502794825823346e6 0.0
0.0 0.0 0.0

-1.0660970962338943e7 3.6218794618062573e6 0.0
3.6218794618062573e6 3.603234032562447e7 0.0
0.0 0.0 0.0

-551581.4607183073 9.766755128342863e6 0.0
9.766755128342863e6 -3.051432339423366e6 0.0
0.0 0.0 0.0

-8.671953847371127e6 2.0152357168092553e7 0.0
2.0152357168092553e7 -3.1319355931355017e6 0.0
0.0 0.0 0.0

2.330653109828152e7 2.135929038005658e7 0.0
2.135929038005658e7 9.341423972376687e6 0.0
0.0 0.0 0.0

1.559820960156639e6 1.2199523908713851e7 0.0
1.2199523908713851e7 -2.1014739292916894e7 0.0
0.0 0.0 0.0

4.404845595171928e6 6.059747636397868e6 0.0
6.059747636397868e6 -2.4677659102411795e7 0.0
0.0 0.0 0.0

4.956058068942588e6 1.6881635844194043e7 0.0
1.6881635844194043e7 1.2822776038982011e6 0.0
0.0 0.0 0.0

-5.740314978690046e6 8.665438170552706e6 0.0
8.665438170552706e6 1.445234865336083e7 0.0
0.0 0.0 0.0

-2.9049511400778294e6 2.035845545922519e7 0.0
2.035845545922519e7 494538.59246398334 0.0
0.0 0.0 0.0

-1.9371336923669134e6 1.7671052437922664e7 0.0
1.7671052437922664e7 -5.585350066415401e6 0.0
0.0 0.0 0.0

-1.519841771900466e6 1.7825328897372637e7 0.0
1.7825328897372637e7 -6.984446116404107e6 0.0
0.0 0.0 0.0

-659166.1607865954 1.5667032807630034e7 0.0
1.5667032807630034e7 -5.736953838422998e6 0.0
0.0 0.0 0.0

2.148762497382159e6 7.872706598429654e6 0.0
7.872706598429654e6 -8.773227920962878e6 0.0
0.0 0.0 0.0

1.9002442892982654e7 1.904615759622726e7 0.0
1.904615759622726e7 5.778333886651648e6 0.0
0.0 0.0 0.0

1.1530571477469997e6 1.4651463396314517e7 0.0
1.4651463396314517e7 5.521117939508362e6 0.0
0.0 0.0 0.0

-3.5845108272239557e6 2.4493159707973637e7 0.0
2.4493159707973637e7 3.6824022485015793e6 0.0
0.0 0.0 0.0

-2.8610844413148563e7 1.6157142131990422e7 0.0
1.6157142131990422e7 9.49751360717442e6 0.0
0.0 0.0 0.0

4.487971307576209e6 4.263167018714107e6 0.0
4.263167018714107e6 -1.5325467226311749e7 0.0
0.0 0.0 0.0

-64850.70028030872 1.5900044791619046e7 0.0
1.5900044791619046e7 4.1525285681514307e6 0.0
0.0 0.0 0.0

-2.440151528697483e6 1.3212855166738734e7 0.0
1.3212855166738734e7 -1.4066012862343103e7 0.0
0.0 0.0 0.0

331870.0770370187 1.4269543276447646e7 0.0
1.4269543276447646e7 -1.5961699861332832e7 0.0
0.0 0.0 0.0

-8.526550869366255e6 -5.962497854000728e6 0.0
-5.962497854000728e6 1.7411611109947648e7 0.0
0.0 0.0 0.0

1.5984354462958323e6 1.166035741326199e7 0.0
1.166035741326199e7 -1.4953530185702741e7 0.0
0.0 0.0 0.0

-5.478458280062257e6 1.5025745456009123e7 0.0
1.5025745456009123e7 -3.1958345997369014e7 0.0
0.0 0.0 0.0

1.869769047984791e6 1.1202044567312468e7 0.0
1.1202044567312468e7 -1.5748752155313114e7 0.0
0.0 0.0 0.0

452243.10394810466 1.6544564062069569e7 0.0
1.6544564062069569e7 -7.942660845578928e6 0.0
0.0 0.0 0.0

1.9918058195419174e7 1.739198766075908e7 0.0
1.739198766075908e7 4.591772638587953e6 0.0
0.0 0.0 0.0

-1.1019042532239111e7 1.2009006477586953e7 0.0
1.2009006477586953e7 2.5316013085541226e7 0.0
0.0 0.0 0.0

-2.842637260584783e6 1.8594456337604772e7 0.0
1.8594456337604772e7 -6.944218434889418e6 0.0
0.0 0.0 0.0

-50242.98263290623 1.469502309762177e7 0.0
1.469502309762177e7 -37516.399479109474 0.0
0.0 0.0 0.0

-4.560736790830443e6 1.7498715412188698e7 0.0
1.7498715412188698e7 -7.96173865184601e6 0.0
0.0 0.0 0.0

1.8138437459744427e7 2.0307617276782278e7 0.0
2.0307617276782278e7 8.072619376698651e6 0.0
0.0 0.0 0.0

-5.022293439876575e6 1.9012200843338028e7 0.0
1.9012200843338028e7 1.0005821709312141e7 0.0
0.0 0.0 0.0

1.2635352914459251e6 1.5806701783527477e7 0.0
1.5806701783527477e7 -3.7429750126742353e6 0.0
0.0 0.0 0.0

-2.091954817058037e6 2.2237857728773292e7 0.0
2.2237857728773292e7 -408859.13133845327 0.0
0.0 0.0 0.0

-4.487859729916122e6 1.8385345214156974e7 0.0
1.8385345214156974e7 5.547213740539077e6 0.0
0.0 0.0 0.0

-8.002789000636596e6 528216.5203984723 0.0
528216.5203984723 5.614687789245006e7 0.0
0.0 0.0 0.0

-460982.86182329897 1.6447981138260558e7 0.0
1.6447981138260558e7 -1.0703222332138704e7 0.0
0.0 0.0 0.0

-3.140409508736181e6 2.200041452341531e7 0.0
2.200041452341531e7 2.342764567093087e6 0.0
0.0 0.0 0.0

550944.9003905542 4.1841930840404346e6 0.0
4.1841930840404346e6 -1.8744128016062176e6 0.0
0.0 0.0 0.0

-1.1590382954733409e7 1.3512865277817858e7 0.0
1.3512865277817858e7 1.9631251204803098e7 0.0
0.0 0.0 0.0

-3.2503769104509577e6 1.5339232364807246e7 0.0
1.5339232364807246e7 -5.815627825174742e6 0.0
0.0 0.0 0.0

4.5645963127213465e6 4.299970988871915e6 0.0
4.299970988871915e6 -2.040252025776503e7 0.0
0.0 0.0 0.0

-2.818320125668351e6 2.509359942310751e7 0.0
2.509359942310751e7 2.742888383432774e6 0.0
0.0 0.0 0.0

2.0036453973957943e6 1.1836262578175392e7 0.0
1.1836262578175392e7 -1.3717841774539601e7 0.0
0.0 0.0 0.0

-7.825326305708892e6 1.5586706273797851e7 0.0
1.5586706273797851e7 1.5206658377889104e7 0.0
0.0 0.0 0.0

3.721289133761529e6 5.899282785678268e6 0.0
5.899282785678268e6 -4.0700940341507785e7 0.0
0.0 0.0 0.0

-4.087030680015523e6 2.4187055736702878e7 0.0
2.4187055736702878e7 3.313435311720157e6 0.0
0.0 0.0 0.0

-4.95693744974535e6 1.428110771704033e7 0.0
1.428110771704033e7 -1.9789041209917944e7 0.0
0.0 0.0 0.0

3.67341276246767e6 3.5082942636078284e6 0.0
3.5082942636078284e6 -1.0763840886142349e7 0.0
0.0 0.0 0.0

-147246.320481756 9.23888184819178e6 0.0
9.23888184819178e6 -3.989360144478286e6 0.0
0.0 0.0 0.0

-1.3088125117539639e7 2.562503394215972e7 0.0
2.562503394215972e7 7.159318660960495e6 0.0
0.0 0.0 0.0

2.639160835709995e6 1.401660560790241e7 0.0
1.401660560790241e7 9.541154358891565e6 0.0
0.0 0.0 0.0

-7.176822887203766e6 2.7838101780092213e7 0.0
2.7838101780092213e7 3.8503717908503353e6 0.0
0.0 0.0 0.0

-1.1282388059605196e7 2.9639706992328567e6 0.0
2.9639706992328567e6 1.9314525597810462e7 0.0
0.0 0.0 0.0

2.5381388815784846e6 8.403900493948715e6 0.0
8.403900493948715e6 -4.5113673622132584e7 0.0
0.0 0.0 0.0

4.649302949306328e7 1.6047914780459117e7 0.0
1.6047914780459117e7 -2.392771818110304e6 0.0
0.0 0.0 0.0

-2.8711962206922965e6 2.0888538142639447e7 0.0
2.0888538142639447e7 708182.496436657 0.0
0.0 0.0 0.0

-5.0315109628760815e6 2.202695575706448e7 0.0
2.202695575706448e7 6.038989667992871e6 0.0
0.0 0.0 0.0

-3.7526743810080825e6 1.9790480678675845e7 0.0
1.9790480678675845e7 3.9070972213147897e6 0.0
0.0 0.0 0.0

1.9939513494785577e6 1.7172615207709957e7 0.0
1.7172615207709957e7 3.675623235931146e7 0.0
0.0 0.0 0.0

4.4851914353482975e6 4.444016696527456e6 0.0
4.444016696527456e6 -2.357399210826459e7 0.0
0.0 0.0 0.0

459100.7749633002 1.1186454896729093e7 0.0
1.1186454896729093e7 -6.920041234701211e6 0.0
0.0 0.0 0.0

1.8010075406937257e6 2.4132265071054608e7 0.0
2.4132265071054608e7 -3.5520594929760303e6 0.0
0.0 0.0 0.0

2.4513868533274624e6 9.485785311090311e6 0.0
9.485785311090311e6 -2.676957400613502e7 0.0
0.0 0.0 0.0

-1.733381348070969e7 1.4379558098459734e7 0.0
1.4379558098459734e7 9.520490202188116e6 0.0
0.0 0.0 0.0

-4.514549179495335e6 1.8318882267962486e7 0.0
1.8318882267962486e7 1.97773464996098e6 0.0
0.0 0.0 0.0

817.6622470187722 1.3938679363835063e7 0.0
1.3938679363835063e7 2.8416910827314304e6 0.0
0.0 0.0 0.0

2.243145571387045e6 1.1398502884779695e7 0.0
1.1398502884779695e7 -1.4553663964761155e7 0.0
0.0 0.0 0.0

-594525.0355202081 1.684337901895807e7 0.0
1.684337901895807e7 2.120657837102516e7 0.0
0.0 0.0 0.0

5.02672821201332e6 2.4060019231553074e7 0.0
2.4060019231553074e7 -5.093500278141009e6 0.0
0.0 0.0 0.0

-3.489400610875492e7 1.2649927916297745e6 0.0
1.2649927916297745e6 8.667286481399167e6 0.0
0.0 0.0 0.0

2.4163925560867094e7 2.9752307185201563e7 0.0
2.9752307185201563e7 -1.198118565414505e7 0.0
0.0 0.0 0.0

4.302269973858321e6 2.444627179879656e7 0.0
2.444627179879656e7 -5.773429685457948e6 0.0
0.0 0.0 0.0

4.1981873116601305e6 4.345563549485806e6 0.0
4.345563549485806e6 -1.475869843056996e7 0.0
0.0 0.0 0.0

-3.7743112775266115e6 2.2069559510841865e7 0.0
2.2069559510841865e7 2.5794634321909477e6 0.0
0.0 0.0 0.0

2.4696336825534757e7 1.2529933918566184e7 0.0
1.2529933918566184e7 428919.3969818521 0.0
0.0 0.0 0.0

-1.0180567339840334e7 5.996515436385312e6 0.0
5.996515436385312e6 3.857167501616435e7 0.0
0.0 0.0 0.0

-501590.37881230796 1.6616933538023407e7 0.0
1.6616933538023407e7 -1.0298935846758917e7 0.0
0.0 0.0 0.0

1.4869556431531824e7 1.5589499451949239e7 0.0
1.5589499451949239e7 3.595877939293616e6 0.0
0.0 0.0 0.0

511203.6520753768 1.6488981083145345e7 0.0
1.6488981083145345e7 -9.07973061259465e6 0.0
0.0 0.0 0.0

4.730398988912135e6 4.7103001296303e6 0.0
4.7103001296303e6 -2.511574570603924e7 0.0
0.0 0.0 0.0

-2.5429601669883993e6 2.06720945794123e7 0.0
2.06720945794123e7 -632226.9481549615 0.0
0.0 0.0 0.0

-1.9380009312071656e6 1.3372774310881514e7 0.0
1.3372774310881514e7 -1.3092889745699953e7 0.0
0.0 0.0 0.0

-1.1214478633163644e6 2.1825183700735033e7 0.0
2.1825183700735033e7 -3.2350374744433733e6 0.0
0.0 0.0 0.0

-9.099211183983833e6 8.404012585861223e6 0.0
8.404012585861223e6 4.030398455941717e7 0.0
0.0 0.0 0.0

-128514.49835075252 1.4383757025291735e7 0.0
1.4383757025291735e7 -8.328990145370925e6 0.0
0.0 0.0 0.0

2.981050831121754e6 9.038872409060832e6 0.0
9.038872409060832e6 -1.9441475198638838e7 0.0
0.0 0.0 0.0

1.1780978686276446e6 1.8525984523229804e7 0.0
1.8525984523229804e7 -5.994292492390447e6 0.0
0.0 0.0 0.0

-1.4384216239419281e6 1.3847039561876357e7 0.0
1.3847039561876357e7 -7.449467714270689e6 0.0
0.0 0.0 0.0

-1.0399964403910378e7 1.1675822410975846e6 0.0
1.1675822410975846e6 3.6093595241874084e7 0.0
0.0 0.0 0.0

-1.2820290473202579e6 1.7031260095716298e7 0.0
1.7031260095716298e7 1.5004419480051987e7 0.0
0.0 0.0 0.0

2.4364126086706705e6 9.23198774205218e6 0.0
9.23198774205218e6 -2.8585146578166857e7 0.0
0.0 0.0 0.0

-571158.2259870202 2.165493070124453e7 0.0
2.165493070124453e7 -3.2261421435353723e6 0.0
0.0 0.0 0.0

-122489.920694903 1.7605285671735104e7 0.0
1.7605285671735104e7 1.1169363445839027e7 0.0
0.0 0.0 0.0

3.6639202784681777e6 8.239946236838645e6 0.0
8.239946236838645e6 -1.896758855943332e7 0.0
0.0 0.0 0.0

3.503244704533228e7 1.8533262304138876e7 0.0
1.8533262304138876e7 6.968969242493662e6 0.0
0.0 0.0 0.0

-923266.448450639 2.1248191283627413e7 0.0
2.1248191283627413e7 -3.357998853012961e6 0.0
0.0 0.0 0.0

-9.415265012618717e6 -5.52701836403368e6 0.0
-5.52701836403368e6 2.1143084300504826e7 0.0
0.0 0.0 0.0

-1.12821852902646e7 1.3256670596035384e6 0.0
1.3256670596035384e6 3.3206136861281607e7 0.0
0.0 0.0 0.0

5.084047887895306e6 3.0919976359882476e6 0.0
3.0919976359882476e6 -2.1394958455254454e7 0.0
0.0 0.0 0.0

-4.3105504667764995e6 1.945376396757904e7 0.0
1.945376396757904e7 3.4445104697755263e6 0.0
0.0 0.0 0.0

-836996.9603732878 1.5163626336933969e7 0.0
1.5163626336933969e7 -6.297959616219051e6 0.0
0.0 0.0 0.0

-733553.6946602713 1.792452860424667e7 0.0
1.792452860424667e7 -8.357587932971422e6 0.0
0.0 0.0 0.0

-8.97780015690795e6 -1.5960546817916227e6 0.0
-1.5960546817916227e6 1.5492170782807218e7 0.0
0.0 0.0 0.0

-1.2320117604479166e6 1.815813988047208e7 0.0
1.815813988047208e7 -5.881625443643873e6 0.0
0.0 0.0 0.0

-1.0505214111307696e7 1.0418334242622647e6 0.0
1.0418334242622647e6 3.576085700971031e7 0.0
0.0 0.0 0.0

4.83614031777519e6 1.5998459874167498e7 0.0
1.5998459874167498e7 2.9601194642661037e6 0.0
0.0 0.0 0.0

1.8680256364061236e6 1.0781292742755288e7 0.0
1.0781292742755288e7 -2.724159011275682e7 0.0
0.0 0.0 0.0

2.9289016466334965e6 9.148107964728959e6 0.0
9.148107964728959e6 -2.8570240707178783e7 0.0
0.0 0.0 0.0

-1.1850130255907584e7 1.3273266872789169e7 0.0
1.3273266872789169e7 2.0437601261135403e7 0.0
0.0 0.0 0.0

-4.071356301299895e6 1.6550342101373728e7 0.0
1.6550342101373728e7 3.64790277986593e6 0.0
0.0 0.0 0.0

1.1574268343063088e6 4.688884287967258e6 0.0
4.688884287967258e6 -3.4089127739663366e6 0.0
0.0 0.0 0.0

-270695.14552708715 1.4977806974779936e7 0.0
1.4977806974779936e7 -7.390318620781025e6 0.0
0.0 0.0 0.0

-4.045613847342938e6 2.124014814592484e7 0.0
2.124014814592484e7 5.865331591297643e6 0.0
0.0 0.0 0.0

2.1291103337514363e6 1.7116664099726044e7 0.0
1.7116664099726044e7 2.6650749051962093e7 0.0
0.0 0.0 0.0

6.671994542915862e6 1.8149672083654378e7 0.0
1.8149672083654378e7 -3.8258037546242434e6 0.0
0.0 0.0 0.0

-7.449792141874172e6 91002.90173656671 0.0
91002.90173656671 5.437696824874389e7 0.0
0.0 0.0 0.0

-1.0805622310407555e7 7.801832319210202e6 0.0
7.801832319210202e6 3.1459443272529125e7 0.0
0.0 0.0 0.0

-1.1006564340778394e7 1.248544735370721e7 0.0
1.248544735370721e7 1.6946612959201384e7 0.0
0.0 0.0 0.0

383454.19283285784 1.4679858112817975e7 0.0
1.4679858112817975e7 6.368591565695351e6 0.0
0.0 0.0 0.0

-7.60730781793316e6 2.828494628715515e6 0.0
2.828494628715515e6 1.0919315351530835e7 0.0
0.0 0.0 0.0

-8.687390600985674e6 1.785127852747922e7 0.0
1.785127852747922e7 205286.65813327115 0.0
0.0 0.0 0.0

4.810567436099902e6 5.094007785490093e6 0.0
5.094007785490093e6 -2.250876529383446e7 0.0
0.0 0.0 0.0

-3.960509657296069e6 1.4492067942457596e7 0.0
1.4492067942457596e7 -2.7636165877986904e7 0.0
0.0 0.0 0.0

508605.8649686865 1.462923855163275e7 0.0
1.462923855163275e7 3.8211955510763056e6 0.0
0.0 0.0 0.0

8.400497665885082e6 2.1906325588892072e7 0.0
2.1906325588892072e7 -7.364058187384369e6 0.0
0.0 0.0 0.0

753096.6614058539 1.6903806186290205e7 0.0
1.6903806186290205e7 -7.379560806503935e6 0.0
0.0 0.0 0.0

-1.3717391535551237e7 2.1069691671358973e7 0.0
2.1069691671358973e7 -3.1462488786509535e6 0.0
0.0 0.0 0.0

-2.9170413856484e6 2.13559949868081e7 0.0
2.13559949868081e7 -590412.132352502 0.0
0.0 0.0 0.0

-427555.7826614964 6.317979116051131e6 0.0
6.317979116051131e6 -3.6732934676424493e6 0.0
0.0 0.0 0.0

-5.490820161830094e6 2.8540360018039126e7 0.0
2.8540360018039126e7 4.967238222727932e6 0.0
0.0 0.0 0.0

-3.8462719605870396e6 1.6896550325033158e7 0.0
1.6896550325033158e7 2.718092768715278e6 0.0
0.0 0.0 0.0

-1.0717182153290119e7 5.200998498636013e6 0.0
5.200998498636013e6 1.2255267389065858e7 0.0
0.0 0.0 0.0

-4.2290576847832e6 1.6758852546799714e7 0.0
1.6758852546799714e7 1.2471027002722821e6 0.0
0.0 0.0 0.0

-1.4744188993263813e6 3.170135628906332e6 0.0
3.170135628906332e6 -113675.74698360299 0.0
0.0 0.0 0.0

322268.444611568 8.730289245432014e6 0.0
8.730289245432014e6 -1.015426356678427e7 0.0
0.0 0.0 0.0

1.8920196465031812e6 1.1203487039251603e7 0.0
1.1203487039251603e7 -2.3925829312570278e7 0.0
0.0 0.0 0.0

-5.251977486684402e6 1.856660385198855e7 0.0
1.856660385198855e7 -5.181680903265035e6 0.0
0.0 0.0 0.0

-6.268273784160443e6 1.672423707334294e7 0.0
1.672423707334294e7 1.6572974276552629e7 0.0
0.0 0.0 0.0

-648391.6100660968 1.5060747890994493e7 0.0
1.5060747890994493e7 -4.651328418133261e6 0.0
0.0 0.0 0.0

3.418461553186597e6 4.457799380594749e6 0.0
4.457799380594749e6 -1.0923678496755522e7 0.0
0.0 0.0 0.0

-2.364852975017099e6 1.9402106977054246e7 0.0
1.9402106977054246e7 -3.630642061119075e6 0.0
0.0 0.0 0.0

-2.388565192167693e6 2.206549110263652e7 0.0
2.206549110263652e7 -1.2198668039237633e6 0.0
0.0 0.0 0.0

1.9835983049938222e6 1.8185798357079353e7 0.0
1.8185798357079353e7 -5.484940486406771e6 0.0
0.0 0.0 0.0

-1.1095506981782876e7 7.693830011130995e6 0.0
7.693830011130995e6 1.3395435895551268e7 0.0
0.0 0.0 0.0

-734901.1947368537 1.4208896783274584e7 0.0
1.4208896783274584e7 -1.4810771553006705e7 0.0
0.0 0.0 0.0

-5.098414597373324e6 2.5198165486626785e7 0.0
2.5198165486626785e7 3.7885595134899793e6 0.0
0.0 0.0 0.0

-4.48883618992881e6 2.4696102651974324e7 0.0
2.4696102651974324e7 3.538150984218733e6 0.0
0.0 0.0 0.0

-662311.6833148301 1.3163866496488964e7 0.0
1.3163866496488964e7 -2.2035824776557714e7 0.0
0.0 0.0 0.0

-1.8295886461281485e6 1.3905187142527515e7 0.0
1.3905187142527515e7 -9.363660019636303e6 0.0
0.0 0.0 0.0

85413.64310644951 1.5156204621919712e7 0.0
1.5156204621919712e7 3.2036527463110564e6 0.0
0.0 0.0 0.0

3.146681063066708e6 8.631456786213685e6 0.0
8.631456786213685e6 -2.3085307762189403e7 0.0
0.0 0.0 0.0

-1.1884291226122184e7 8.681311647236295e6 0.0
8.681311647236295e6 2.594003589804128e7 0.0
0.0 0.0 0.0

881285.9531442095 1.1088836378224725e7 0.0
1.1088836378224725e7 -4.655282781375139e7 0.0
0.0 0.0 0.0

3.087083434518606e6 2.6534768088526875e7 0.0
2.6534768088526875e7 -5.802184616721386e6 0.0
0.0 0.0 0.0

3.292894767085315e6 1.5258058775058368e7 0.0
1.5258058775058368e7 1.646840430452605e7 0.0
0.0 0.0 0.0

240099.00662709493 1.6223784975368131e7 0.0
1.6223784975368131e7 2.359317437401268e7 0.0
0.0 0.0 0.0

1.302532642670591e7 1.8799715561728325e7 0.0
1.8799715561728325e7 7.527599713624774e6 0.0
0.0 0.0 0.0

-558555.5197965335 1.4408240925769068e7 0.0
1.4408240925769068e7 2.092648553021251e6 0.0
0.0 0.0 0.0

-2.1796635658828607e6 1.9151023269259017e7 0.0
1.9151023269259017e7 -3.4453188553588307e6 0.0
0.0 0.0 0.0

-1.948982303622145e7 2.0912474191124734e7 0.0
2.0912474191124734e7 -3.6784838476587725e6 0.0
0.0 0.0 0.0

-349743.39955643704 1.3683466645769058e7 0.0
1.3683466645769058e7 448370.6200330539 0.0
0.0 0.0 0.0

-2.779851066951193e6 1.7558959266037244e7 0.0
1.7558959266037244e7 3.9463598450041898e6 0.0
0.0 0.0 0.0

4.943103666646365e6 4.378945477744801e6 0.0
4.378945477744801e6 -1.9010112736442298e7 0.0
0.0 0.0 0.0

-9.068905256354144e6 1.9043987253989402e7 0.0
1.9043987253989402e7 1.6464236921935277e6 0.0
0.0 0.0 0.0

-1.245128836374503e7 2.983900270976322e7 0.0
2.983900270976322e7 5.866379453185962e6 0.0
0.0 0.0 0.0

-9.865235623876402e6 -597331.7444963407 0.0
-597331.7444963407 1.8464466992600568e7 0.0
0.0 0.0 0.0

4.708548826176327e6 2.2756124796123866e7 0.0
2.2756124796123866e7 -5.282282895232638e6 0.0
0.0 0.0 0.0

-6.655813131300379e6 8.64232939573846e6 0.0
8.64232939573846e6 5.88347374239789e7 0.0
0.0 0.0 0.0

-8.970039685209457e6 -5.74216009125204e6 0.0
-5.74216009125204e6 2.03914406642219e7 0.0
0.0 0.0 0.0

-7.911930288503456e6 1.6556255893958427e7 0.0
1.6556255893958427e7 -3.5072323452056244e7 0.0
0.0 0.0 0.0

97769.78196029458 1.5668214331546532e7 0.0
1.5668214331546532e7 -9.465420412132697e6 0.0
0.0 0.0 0.0

-2.2022143485037265e6 2.269547762294873e7 0.0
2.269547762294873e7 -198773.8978684065 0.0
0.0 0.0 0.0

-6.778079525021333e6 1.6114127491741195e7 0.0
1.6114127491741195e7 -2.896952844171126e6 0.0
0.0 0.0 0.0

-237812.02464691026 8.76301003016851e6 0.0
8.76301003016851e6 -3.2593997990405234e6 0.0
0.0 0.0 0.0

-2.893402343374178e6 2.0469392572170004e7 0.0
2.0469392572170004e7 -1.5948393417527555e6 0.0
0.0 0.0 0.0

-3.473341440693616e6 2.4045994867738854e7 0.0
2.4045994867738854e7 3.1944823417114867e6 0.0
0.0 0.0 0.0

-2.0708685672993828e6 2.2777516730172273e7 0.0
2.2777516730172273e7 -428429.50893741654 0.0
0.0 0.0 0.0

-603866.809719447 1.0401833642690929e7 0.0
1.0401833642690929e7 -5.15710801230718e7 0.0
0.0 0.0 0.0

-3.7530717807153673e6 1.5775310133033928e7 0.0
1.5775310133033928e7 -9.763517894460725e6 0.0
0.0 0.0 0.0

-9.28050186155729e6 761065.0971493899 0.0
761065.0971493899 4.326680209968058e7 0.0
0.0 0.0 0.0

7.377808429554444e6 1.9408005703768525e7 0.0
1.9408005703768525e7 4.192904408209256e7 0.0
0.0 0.0 0.0

-3.8455016131148055e7 1.3746077947543296e6 0.0
1.3746077947543296e6 8.823538548028948e6 0.0
0.0 0.0 0.0

2.311892221572548e7 1.9093293350869443e7 0.0
1.9093293350869443e7 -1.6350455375483343e6 0.0
0.0 0.0 0.0

1.1884698212596048e6 1.2915786849936014e7 0.0
1.2915786849936014e7 -2.0299035911290526e7 0.0
0.0 0.0 0.0

2.3646702692227648e6 5.39002067709827e6 0.0
5.39002067709827e6 -7.401607945903198e6 0.0
0.0 0.0 0.0

3.2316596932965506e7 1.808059614719736e7 0.0
1.808059614719736e7 -7.2374370750187505e6 0.0
0.0 0.0 0.0

3.3380550099580223e6 1.0751329614727488e7 0.0
1.0751329614727488e7 -1.255304735444487e7 0.0
0.0 0.0 0.0

1.6649365902415797e7 1.850992052498565e7 0.0
1.850992052498565e7 7.251969336843377e6 0.0
0.0 0.0 0.0

-3.1444005653667874e6 2.1227988701461777e7 0.0
2.1227988701461777e7 -146766.75132075953 0.0
0.0 0.0 0.0

-4.685758454676762e6 2.160372925690184e7 0.0
2.160372925690184e7 6.105521805235516e6 0.0
0.0 0.0 0.0

-456793.7937221385 1.1525325039931612e7 0.0
1.1525325039931612e7 -7.450331218630344e6 0.0
0.0 0.0 0.0

-7.851330285446783e6 1.1135138945038691e7 0.0
1.1135138945038691e7 -744914.2855435747 0.0
0.0 0.0 0.0

-2.9742704895255105e6 1.408999606529173e7 0.0
1.408999606529173e7 -1.4149311424173485e7 0.0
0.0 0.0 0.0

-1.9220189037207975e6 1.6888405624204256e7 0.0
1.6888405624204256e7 5.8328662095074095e6 0.0
0.0 0.0 0.0

108733.15061206045 1.6314902316245837e7 0.0
1.6314902316245837e7 7.879568195812221e6 0.0
0.0 0.0 0.0

-7.309681925067034e6 7.319899350457376e6 0.0
7.319899350457376e6 5.46612334596214e7 0.0
0.0 0.0 0.0

-3.463419572830017e6 2.006385100956682e7 0.0
2.006385100956682e7 -6746.44692768855 0.0
0.0 0.0 0.0

5.084711112882482e6 3.093639350159306e6 0.0
3.093639350159306e6 -2.156313488859029e7 0.0
0.0 0.0 0.0

-4.636102268045891e6 1.7661418373638894e7 0.0
1.7661418373638894e7 1.169243265932804e7 0.0
0.0 0.0 0.0

-363866.77312535606 1.6355505374215765e7 0.0
1.6355505374215765e7 8.963513774373777e6 0.0
0.0 0.0 0.0

5.952659513576293e6 1.9405275988803606e7 0.0
1.9405275988803606e7 -5.372268868273027e6 0.0
0.0 0.0 0.0

-1.5664816623784509e6 1.9357242737806246e7 0.0
1.9357242737806246e7 -5.729255599317097e6 0.0
0.0 0.0 0.0

-4.172149954976217e6 2.6159469947922815e7 0.0
2.6159469947922815e7 2.7926920636076257e6 0.0
0.0 0.0 0.0

-1.1074276651475343e6 6.722966677629975e6 0.0
6.722966677629975e6 -2.7461809172037365e6 0.0
0.0 0.0 0.0

-9.489049626458623e6 2.5212292310891923e7 0.0
2.5212292310891923e7 5.895223792354666e6 0.0
0.0 0.0 0.0

-3.266437211835836e6 2.1847443554594815e7 0.0
2.1847443554594815e7 2.9392256165872673e6 0.0
0.0 0.0 0.0

-1.0681621192595769e7 1.3655561152395288e7 0.0
1.3655561152395288e7 1.6874211320429105e7 0.0
0.0 0.0 0.0

1.85506760809043e7 1.797413939165133e7 0.0
1.797413939165133e7 -4.5982131623560665e6 0.0
0.0 0.0 0.0

293202.71580320783 1.543745813789483e7 0.0
1.543745813789483e7 -1.1134534986957401e7 0.0
0.0 0.0 0.0

-3.340693589566065e6 2.108993437892824e7 0.0
2.108993437892824e7 384460.3028928365 0.0
0.0 0.0 0.0

-151130.82211142685 1.0619052673001284e7 0.0
1.0619052673001284e7 -7.734019793122347e6 0.0
0.0 0.0 0.0

-2.2671676731535713e6 1.6767920126506835e7 0.0
1.6767920126506835e7 9.32151889216319e6 0.0
0.0 0.0 0.0

-1.0754039925581325e7 1.0303236633900343e7 0.0
1.0303236633900343e7 2.0171992467524046e6 0.0
0.0 0.0 0.0

-9.930847534567628e6 1.8474586599191923e7 0.0
1.8474586599191923e7 1.2725297649599714e6 0.0
0.0 0.0 0.0

64428.64460362401 1.556203881117881e7 0.0
1.556203881117881e7 -9.389208294272467e6 0.0
0.0 0.0 0.0

4.245385951643825e6 1.3779157774629653e7 0.0
1.3779157774629653e7 4.309154850778175e6 0.0
0.0 0.0 0.0

62827.85570348147 1.498683488618221e7 0.0
1.498683488618221e7 -1.3923350409058198e7 0.0
0.0 0.0 0.0

-6.688716075731605e6 1.6619117068893075e7 0.0
1.6619117068893075e7 1.6422152748592194e7 0.0
0.0 0.0 0.0

-1.5345987177989565e7 1.5977597218325626e7 0.0
1.5977597218325626e7 6.102809332003596e6 0.0
0.0 0.0 0.0

-2.0668464374528772e6 1.6729653606373666e7 0.0
1.6729653606373666e7 2.1668023849802124e6 0.0
0.0 0.0 0.0

-1.2474787825224053e7 3.896210643539097e6 0.0
3.896210643539097e6 1.7627029062255047e7 0.0
0.0 0.0 0.0

54522.95197918499 1.6023548862766126e7 0.0
1.6023548862766126e7 1.1640768498845404e7 0.0
0.0 0.0 0.0

6.0256776223374605e6 2.4442307848606903e7 0.0
2.4442307848606903e7 -7.0363039800424e6 0.0
0.0 0.0 0.0

-3.03529687514884e7 1.9880948150258522e7 0.0
1.9880948150258522e7 6.494203827310422e6 0.0
0.0 0.0 0.0

2.5081945605014306e6 2.9143019250408195e7 0.0
2.9143019250408195e7 -3.008468366281993e6 0.0
0.0 0.0 0.0

-1.0058547301813956e7 1.9128448613506585e7 0.0
1.9128448613506585e7 550784.6899911752 0.0
0.0 0.0 0.0

698984.7218135253 2.6973224939648353e7 0.0
2.6973224939648353e7 -998499.751048016 0.0
0.0 0.0 0.0

-1.1383427153697286e7 598244.3322546404 0.0
598244.3322546404 1.6591721087518577e7 0.0
0.0 0.0 0.0

7.6604680257738875e6 1.873730240467953e7 0.0
1.873730240467953e7 -4.3193116980486605e6 0.0
0.0 0.0 0.0

-3.890838065340232e6 2.4990121493867025e7 0.0
2.4990121493867025e7 3.994961967541568e6 0.0
0.0 0.0 0.0

-3.3290494503416824e6 1.7372768920414794e7 0.0
1.7372768920414794e7 513771.94616462104 0.0
0.0 0.0 0.0

437659.86118786316 1.4074637365611397e7 0.0
1.4074637365611397e7 -1.721126101874491e7 0.0
0.0 0.0 0.0

-5.552434203429827e6 2.3146027572205935e7 0.0
2.3146027572205935e7 5.645773780647974e6 0.0
0.0 0.0 0.0

-6.644675008130885e6 1.5791721050015576e7 0.0
1.5791721050015576e7 734063.7753978688 0.0
0.0 0.0 0.0

90844.95520559978 2.6600010904669415e7 0.0
2.6600010904669415e7 -2.6719381955182413e6 0.0
0.0 0.0 0.0

-1.2058936948363287e7 2.56136305312991e7 0.0
2.56136305312991e7 7.314021931064617e6 0.0
0.0 0.0 0.0

4.899311929088693e6 1.8953442033024773e7 0.0
1.8953442033024773e7 -4.942366638772815e6 0.0
0.0 0.0 0.0

3.9957340822996497e6 5.690746912907026e6 0.0
5.690746912907026e6 -1.3280390308457293e7 0.0
0.0 0.0 0.0

-2.9793242615734506e6 1.4474262470282776e7 0.0
1.4474262470282776e7 -2.3192891061926525e7 0.0
0.0 0.0 0.0

3.441143767454819e6 4.344216645579557e6 0.0
4.344216645579557e6 -1.1707421098861247e7 0.0
0.0 0.0 0.0

1.7958584779788605e6 1.5783053486271484e7 0.0
1.5783053486271484e7 1.5873778621970732e7 0.0
0.0 0.0 0.0

2.6054809540410303e6 1.7428121505666725e7 0.0
1.7428121505666725e7 -4.502227657507248e6 0.0
0.0 0.0 0.0

2.8949991110173548e6 2.2970253785149742e7 0.0
2.2970253785149742e7 -4.641165009532873e6 0.0
0.0 0.0 0.0

-1.1685315039509863e7 1.4110702748681165e7 0.0
1.4110702748681165e7 1.921066643912962e7 0.0
0.0 0.0 0.0

130925.83136263955 1.202449363923179e7 0.0
1.202449363923179e7 -6.6944982051981995e6 0.0
0.0 0.0 0.0

-1.0530573590848509e6 6.492969911616502e6 0.0
6.492969911616502e6 5.277690526055807e6 0.0
0.0 0.0 0.0

1.8832262439329643e6 9.637824107000614e6 0.0
9.637824107000614e6 -3.887301991654144e7 0.0
0.0 0.0 0.0

898730.8854770826 1.3382110581048409e7 0.0
1.3382110581048409e7 3.2657423617741233e6 0.0
0.0 0.0 0.0

-1.1601926671595484e7 2.324141975485604e7 0.0
2.324141975485604e7 6.20376086223822e6 0.0
0.0 0.0 0.0

-344869.72703753365 1.4458467316674927e7 0.0
1.4458467316674927e7 -1.0277888223859468e7 0.0
0.0 0.0 0.0

1.3980400127006445e7 1.725860704903954e7 0.0
1.725860704903954e7 3.393520333369968e6 0.0
0.0 0.0 0.0

-1.1719963288696673e7 3.2171396738257273e6 0.0
3.2171396738257273e6 2.3005661594895393e7 0.0
0.0 0.0 0.0

-2.4542481831050828e7 2.238278430533623e7 0.0
2.238278430533623e7 4.897800911244616e6 0.0
0.0 0.0 0.0

1.663132142725044e7 2.4419149275847174e7 0.0
2.4419149275847174e7 -1.2841223360622168e7 0.0
0.0 0.0 0.0

-4.7067203904043455e6 2.1771248642592113e7 0.0
2.1771248642592113e7 6.795125784247137e6 0.0
0.0 0.0 0.0

-449166.80033992825 1.2495949927978091e7 0.0
1.2495949927978091e7 1.3849882315209645e6 0.0
0.0 0.0 0.0

-1.0561523717323272e7 1.3543317880699335e7 0.0
1.3543317880699335e7 2.2298378719327062e7 0.0
0.0 0.0 0.0

-1.0276406120084558e7 -4.307716113580496e6 0.0
-4.307716113580496e6 2.1626650910709582e7 0.0
0.0 0.0 0.0

-72978.06762448605 1.5178689655125048e7 0.0
1.5178689655125048e7 -1.208365920865168e7 0.0
0.0 0.0 0.0

-5.642699586839857e6 2.052770497298132e7 0.0
2.052770497298132e7 -6.561308530920672e6 0.0
0.0 0.0 0.0

-430065.98554212507 1.5446105832575064e7 0.0
1.5446105832575064e7 -8.13742129501415e6 0.0
0.0 0.0 0.0

-9.525643045705201e6 8.737437201844553e6 0.0
8.737437201844553e6 3.6711512392788865e7 0.0
0.0 0.0 0.0

1.4702554651941573e6 1.223433634705845e7 0.0
1.223433634705845e7 -2.0066049678923637e7 0.0
0.0 0.0 0.0

-6.276535890333388e6 2.058917666089459e7 0.0
2.058917666089459e7 -6.388011148684071e6 0.0
0.0 0.0 0.0

524528.540625276 1.3781578401562091e7 0.0
1.3781578401562091e7 -1.711161866504612e7 0.0
0.0 0.0 0.0

1.3890272904407214e7 1.7440640051109545e7 0.0
1.7440640051109545e7 6.464919905160395e6 0.0
0.0 0.0 0.0

-1.0611584268893478e7 6.929763229363994e6 0.0
6.929763229363994e6 3.3818440963574335e7 0.0
0.0 0.0 0.0

860033.9277380727 1.5679756212787747e7 0.0
1.5679756212787747e7 -1.8031462935955757e6 0.0
0.0 0.0 0.0

-4.105524217224085e6 1.7159979166517127e7 0.0
1.7159979166517127e7 1.3293484019988775e7 0.0
0.0 0.0 0.0

-191995.79407690314 2.2128515456570454e7 0.0
2.2128515456570454e7 -3.238508474239496e6 0.0
0.0 0.0 0.0

3.5595056710796272e6 8.813062817668011e6 0.0
8.813062817668011e6 -2.0234986946274824e7 0.0
0.0 0.0 0.0

2.203275529486337e6 8.340176868053966e6 0.0
8.340176868053966e6 -9.291228409402793e6 0.0
0.0 0.0 0.0

1.8469780694909971e6 9.949731921341008e6 0.0
9.949731921341008e6 -3.3961297786524e7 0.0
0.0 0.0 0.0

-5.3281189178324975e6 1.8751642494747385e7 0.0
1.8751642494747385e7 -2.7681759087537727e6 0.0
0.0 0.0 0.0

-1.1840596337527774e7 6.532915886239245e6 0.0
6.532915886239245e6 2.9973143884860188e7 0.0
0.0 0.0 0.0

-4.334893461176873e6 1.8680085507247735e7 0.0
1.8680085507247735e7 -4.950011247664418e6 0.0
0.0 0.0 0.0

-161895.48714582203 1.4741365296249852e7 0.0
1.4741365296249852e7 -8.443054914455324e6 0.0
0.0 0.0 0.0

2.937149268149158e6 7.997072472235416e6 0.0
7.997072472235416e6 -3.053499647062284e7 0.0
0.0 0.0 0.0

-1.1307965352769969e7 1.2387893357698102e7 0.0
1.2387893357698102e7 2.3772330736584425e7 0.0
0.0 0.0 0.0

1.5143115960458275e6 1.473591316565203e7 0.0
1.473591316565203e7 6.998035751166456e6 0.0
0.0 0.0 0.0

1.3542872889982145e6 1.109398455241155e7 0.0
1.109398455241155e7 -2.577481306312388e7 0.0
0.0 0.0 0.0

4.808676854619842e6 3.5574937740259264e6 0.0
3.5574937740259264e6 -2.3792174674339637e7 0.0
0.0 0.0 0.0

-5.449152313601959e6 1.739907322577194e7 0.0
1.739907322577194e7 1.1796049853522463e7 0.0
0.0 0.0 0.0

-4.279443749034511e6 1.9588480947012085e7 0.0
1.9588480947012085e7 -5.738308229929449e6 0.0
0.0 0.0 0.0

1.4686572334890203e6 1.1359457388054963e7 0.0
1.1359457388054963e7 -1.0512820977778692e7 0.0
0.0 0.0 0.0

-1.08487155162565e7 -2247.4787757683225 0.0
-2247.4787757683225 2.7869634956446934e7 0.0
0.0 0.0 0.0

-366673.50239185255 2.906019370744494e6 0.0
2.906019370744494e6 283062.4282599046 0.0
0.0 0.0 0.0

-8.238757920576634e6 1.5714896830190245e7 0.0
1.5714896830190245e7 1.3905442364101214e7 0.0
0.0 0.0 0.0

1.4756704459432974e7 1.9066077547326006e7 0.0
1.9066077547326006e7 8.140389577771193e6 0.0
0.0 0.0 0.0

1.069039297626643e7 1.811593229660754e7 0.0
1.811593229660754e7 7.211527911307752e6 0.0
0.0 0.0 0.0

-8.5252123238537e6 1.9498318645120595e7 0.0
1.9498318645120595e7 -5.614808628735121e6 0.0
0.0 0.0 0.0

-2.075973551719359e6 1.2759852063646197e7 0.0
1.2759852063646197e7 -9.11778372021128e6 0.0
0.0 0.0 0.0

-4.497515179194087e6 1.9458761620074876e7 0.0
1.9458761620074876e7 -5.692648255094071e6 0.0
0.0 0.0 0.0

-6.905841784019287e6 1.9066862314683124e7 0.0
1.9066862314683124e7 -3.10377987370391e6 0.0
0.0 0.0 0.0

1.8196113962099142e6 1.0373568504097683e7 0.0
1.0373568504097683e7 -3.0508994973848958e7 0.0
0.0 0.0 0.0

160502.53621730325 4.297053636602833e6 0.0
4.297053636602833e6 -3.2883463047987497e6 0.0
0.0 0.0 0.0

66297.32522867632 6.263287257041546e6 0.0
6.263287257041546e6 -2.021304281578706e6 0.0
0.0 0.0 0.0

433327.59335530165 1.4118918822521936e7 0.0
1.4118918822521936e7 536304.4413323215 0.0
0.0 0.0 0.0

9.688562255641682e6 1.867898023734077e7 0.0
1.867898023734077e7 8.422070381656103e6 0.0
0.0 0.0 0.0

-63066.685296202544 1.39266537555876e7 0.0
1.39266537555876e7 4.746560905164566e6 0.0
0.0 0.0 0.0

-6.388727776606132e6 1.665009648444036e7 0.0
1.665009648444036e7 1.1881495038925704e7 0.0
0.0 0.0 0.0

-2.125202212232957e7 7.7351898912250735e6 0.0
7.7351898912250735e6 1.0627761434567908e7 0.0
0.0 0.0 0.0

741142.4943193081 1.479320607693829e7 0.0
1.479320607693829e7 5.645882041356022e6 0.0
0.0 0.0 0.0

3.2576390932232896e6 6.040342921863606e6 0.0
6.040342921863606e6 -1.3818551315873913e7 0.0
0.0 0.0 0.0

-1.1537027857464762e7 2.442402275411008e7 0.0
2.442402275411008e7 6.783127648756175e6 0.0
0.0 0.0 0.0

-1.0411381117804006e7 -1.7539369347174815e6 0.0
-1.7539369347174815e6 2.967102770325971e7 0.0
0.0 0.0 0.0

-892684.5027258224 1.6309508538118174e7 0.0
1.6309508538118174e7 -6.370812535399455e6 0.0
0.0 0.0 0.0

2.894341226292272e6 1.795068761949387e7 0.0
1.795068761949387e7 1.0551314148953265e7 0.0
0.0 0.0 0.0

-4.531909160828833e6 1.945730407322077e7 0.0
1.945730407322077e7 -5.506930662467059e6 0.0
0.0 0.0 0.0

-948930.5903270897 1.3565135082053287e7 0.0
1.3565135082053287e7 -2.014286486330796e7 0.0
0.0 0.0 0.0

1.1178545009948172e7 1.8909807935061913e7 0.0
1.8909807935061913e7 8.486960651588216e6 0.0
0.0 0.0 0.0

-1.207410109714713e6 1.4621381871023903e7 0.0
1.4621381871023903e7 -1.5392508098177727e7 0.0
0.0 0.0 0.0

223486.87391622108 1.5470601298667308e7 0.0
1.5470601298667308e7 6.969137589376338e6 0.0
0.0 0.0 0.0

577444.5340966051 1.701924296370863e7 0.0
1.701924296370863e7 1.107483399572633e7 0.0
0.0 0.0 0.0

-4.691412266224677e6 1.7170188589329362e7 0.0
1.7170188589329362e7 1.2198475175147299e7 0.0
0.0 0.0 0.0

-2.9365558860965325e6 1.694214228582951e7 0.0
1.694214228582951e7 7.663324999301813e6 0.0
0.0 0.0 0.0

4.1924335037346547e6 5.519627999834796e6 0.0
5.519627999834796e6 -2.31474051210018e7 0.0
0.0 0.0 0.0

-1.643466118022102e6 2.364034757781082e7 0.0
2.364034757781082e7 -468904.933077588 0.0
0.0 0.0 0.0

-3.966411275553068e6 1.624689937761259e7 0.0
1.624689937761259e7 -8.2807656835687e6 0.0
0.0 0.0 0.0

1.775090724750521e7 1.5929113519284714e7 0.0
1.5929113519284714e7 5.262353009023403e6 0.0
0.0 0.0 0.0

-7.182842896930509e6 2.2672009924212184e7 0.0
2.2672009924212184e7 6.312266767659901e6 0.0
0.0 0.0 0.0

4.6339550548665e6 4.747577541524945e6 0.0
4.747577541524945e6 -2.6347411576338504e7 0.0
0.0 0.0 0.0

-4.359874166766409e6 1.530009969495916e7 0.0
1.530009969495916e7 4.605384227868241e6 0.0
0.0 0.0 0.0

8.404178651002055e6 1.6486132717217708e7 0.0
1.6486132717217708e7 4.146502981579517e6 0.0
0.0 0.0 0.0

2.391248124119117e7 1.4091899873215402e7 0.0
1.4091899873215402e7 2.046305670935452e6 0.0
0.0 0.0 0.0

-4.777937428315768e6 2.502854577074149e7 0.0
2.502854577074149e7 4.854070039280872e6 0.0
0.0 0.0 0.0

405002.1813254338 1.5566145605446547e7 0.0
1.5566145605446547e7 -1.3142413882454555e7 0.0
0.0 0.0 0.0

-9.668877016632635e6 6.854167345661548e6 0.0
6.854167345661548e6 1.4826856062391713e7 0.0
0.0 0.0 0.0

-1.0670024021454772e7 -1.8110484895513833e6 0.0
-1.8110484895513833e6 2.8139480344641216e7 0.0
0.0 0.0 0.0

807610.6357953937 1.4605063249298226e7 0.0
1.4605063249298226e7 3.7146967376853954e6 0.0
0.0 0.0 0.0

6.157696349198947e6 1.5521172940200906e7 0.0
1.5521172940200906e7 8.86178855189799e6 0.0
0.0 0.0 0.0

-1.1537209786535654e7 1.003399369772984e6 0.0
1.003399369772984e6 2.1726418562150117e7 0.0
0.0 0.0 0.0

-2.32113622623263e6 1.0513909639282355e7 0.0
1.0513909639282355e7 -2.581445697668878e6 0.0
0.0 0.0 0.0

-2.361435853146966e6 1.654555305243293e7 0.0
1.654555305243293e7 -9.089526265531339e6 0.0
0.0 0.0 0.0

-1.7703349095564196e6 1.3760479529548261e7 0.0
1.3760479529548261e7 -1.868528790821834e7 0.0
0.0 0.0 0.0

-2.1664269631129196e6 2.3197164263502013e7 0.0
2.3197164263502013e7 -158690.135402311 0.0
0.0 0.0 0.0

109349.89493803307 2.2540985504596245e7 0.0
2.2540985504596245e7 -3.55085900647923e6 0.0
0.0 0.0 0.0

-632089.4190561045 2.8694157816003904e7 0.0
2.8694157816003904e7 -2.7230160474834708e6 0.0
0.0 0.0 0.0

-1.2114146337862544e7 2.857135405814185e7 0.0
2.857135405814185e7 7.20840737167617e6 0.0
0.0 0.0 0.0

3.953267526473431e6 1.5894461305786576e7 0.0
1.5894461305786576e7 1.5467861981040237e7 0.0
0.0 0.0 0.0

-3.5320823739755508e6 1.4776709933633545e7 0.0
1.4776709933633545e7 -4.917084283378964e7 0.0
0.0 0.0 0.0

-9.388410061294518e6 -2.540333038795921e6 0.0
-2.540333038795921e6 1.3252661557436386e7 0.0
0.0 0.0 0.0

-5.670694111996584e6 1.356365494174173e7 0.0
1.356365494174173e7 -2.0863608499943238e7 0.0
0.0 0.0 0.0

-2.498835016613918e6 1.2160988982635269e7 0.0
1.2160988982635269e7 -1.0023059762343774e7 0.0
0.0 0.0 0.0

2.7710627717871424e6 1.632549900406816e7 0.0
1.632549900406816e7 1.5367452442811305e7 0.0
0.0 0.0 0.0

-5.084585715570923e6 1.4760692556513475e7 0.0
1.4760692556513475e7 -2.513882288661778e7 0.0
0.0 0.0 0.0

-3.893253250211257e6 1.3497798691793954e7 0.0
1.3497798691793954e7 -1.817779147417371e7 0.0
0.0 0.0 0.0

9.288764636973016e6 1.8626597253381584e7 0.0
1.8626597253381584e7 7.099176400937919e6 0.0
0.0 0.0 0.0

-3.9003574432202093e6 1.703360110313351e7 0.0
1.703360110313351e7 -7.345030351115634e6 0.0
0.0 0.0 0.0

3.717496341060465e6 8.205055521040601e6 0.0
8.205055521040601e6 -2.2511547022706218e7 0.0
0.0 0.0 0.0

454707.6556396121 1.461423828593532e7 0.0
1.461423828593532e7 1.8164035472870609e6 0.0
0.0 0.0 0.0

-6.362660670977427e6 2.0150021773447122e7 0.0
2.0150021773447122e7 -6.15047339761819e6 0.0
0.0 0.0 0.0

1.8105515459010426e6 1.4918574864997601e7 0.0
1.4918574864997601e7 9.55992793113074e6 0.0
0.0 0.0 0.0

3.5795354458630206e6 4.397380984062541e6 0.0
4.397380984062541e6 -1.194705572605417e7 0.0
0.0 0.0 0.0

-3.503278862159298e6 2.096013101088819e7 0.0
2.096013101088819e7 989569.4642567483 0.0
0.0 0.0 0.0

-3.9503590857409798e6 2.354662619192152e7 0.0
2.354662619192152e7 3.0817245652054986e6 0.0
0.0 0.0 0.0

-1.1606739242711587e7 1.2351513934708547e7 0.0
1.2351513934708547e7 2.2582292340562277e7 0.0
0.0 0.0 0.0

555722.9319009585 1.4772964084982516e7 0.0
1.4772964084982516e7 6.077435940946531e6 0.0
0.0 0.0 0.0

1.3546012108705337e6 1.7431915514883764e7 0.0
1.7431915514883764e7 1.1815987042999653e7 0.0
0.0 0.0 0.0

-3.9590672520936113e6 2.5952073119691752e7 0.0
2.5952073119691752e7 3.7038090719737476e6 0.0
0.0 0.0 0.0

-6.211267799522409e6 1.6606105988299139e7 0.0
1.6606105988299139e7 1.2541611606762417e7 0.0
0.0 0.0 0.0

-9.252611996485561e6 -4.724072112956119e6 0.0
-4.724072112956119e6 1.625781281009947e7 0.0
0.0 0.0 0.0

-3.6657594474391807e6 2.3550446592882786e7 0.0
2.3550446592882786e7 4.0778078322195807e6 0.0
0.0 0.0 0.0

-2.385463865948981e6 2.0281659717548683e7 0.0
2.0281659717548683e7 -1.4654009004166126e6 0.0
0.0 0.0 0.0

-4.564648923401772e6 1.6495641391521275e7 0.0
1.6495641391521275e7 1.9940247247366926e6 0.0
0.0 0.0 0.0

-1.8581390556842538e6 2.339668851465182e7 0.0
2.339668851465182e7 -548177.7204577661 0.0
0.0 0.0 0.0

-1.8263705997313266e6 2.305265505647957e7 0.0
2.305265505647957e7 -338369.2333268309 0.0
0.0 0.0 0.0

-1.3111334730495312e6 1.574222225938065e7 0.0
1.574222225938065e7 -7.177799049305821e6 0.0
0.0 0.0 0.0

2.227884258258709e6 1.537681724926197e7 0.0
1.537681724926197e7 7.426281546191085e6 0.0
0.0 0.0 0.0

3.3113173580463296e6 8.153223974372361e6 0.0
8.153223974372361e6 -2.1326784186677895e7 0.0
0.0 0.0 0.0

-7.174452666431453e6 1.4741511235891506e7 0.0
1.4741511235891506e7 -2.8988734452157702e7 0.0
0.0 0.0 0.0

-2.8754968127395646e6 1.7669428191842496e7 0.0
1.7669428191842496e7 2.3200896717733145e6 0.0
0.0 0.0 0.0

-2.344627345600602e7 2.6042562063299906e7 0.0
2.6042562063299906e7 -5.622938435065566e6 0.0
0.0 0.0 0.0

-4.48274693253775e6 1.4051238892893046e7 0.0
1.4051238892893046e7 -1.7503496716667123e7 0.0
0.0 0.0 0.0

-2.6244008818928704e7 2.5073174147228077e7 0.0
2.5073174147228077e7 -1.103311228770285e6 0.0
0.0 0.0 0.0

-4.409761198249e6 1.830922367656352e7 0.0
1.830922367656352e7 9.113145157138081e6 0.0
0.0 0.0 0.0

-9.908578170342064e6 -2.5284830601327983e6 0.0
-2.5284830601327983e6 3.305426967927039e7 0.0
0.0 0.0 0.0

-681678.7645777379 2.2060009660792127e7 0.0
2.2060009660792127e7 -3.1219271880431003e6 0.0
0.0 0.0 0.0

-8.611925417481693e6 2.0921244361140765e7 0.0
2.0921244361140765e7 -5.961537549292453e6 0.0
0.0 0.0 0.0

170209.3245931156 1.5959433260783704e7 0.0
1.5959433260783704e7 -1.2133805844541062e7 0.0
0.0 0.0 0.0

-9.256179883700166e6 2.457109353322444e7 0.0
2.457109353322444e7 6.450165576802637e6 0.0
0.0 0.0 0.0

-1.1527637005553555e7 3.818829908160673e6 0.0
3.818829908160673e6 1.7439187814997308e7 0.0
0.0 0.0 0.0

3.09207260028358e6 8.836853066803407e6 0.0
8.836853066803407e6 -2.6107285221146945e7 0.0
0.0 0.0 0.0

-1.2113112188951261e7 2.430223269420987e7 0.0
2.430223269420987e7 6.659668847312245e6 0.0
0.0 0.0 0.0

439053.28274457913 1.5167434266847868e7 0.0
1.5167434266847868e7 3.170258629991104e6 0.0
0.0 0.0 0.0

-1.1277345319482882e7 5.770023748342796e6 0.0
5.770023748342796e6 1.340855257656388e7 0.0
0.0 0.0 0.0

-773012.0841319379 1.4943325867670888e7 0.0
1.4943325867670888e7 -8.731677733653417e6 0.0
0.0 0.0 0.0

-519568.49128129915 2.1068254224231564e7 0.0
2.1068254224231564e7 -3.9089414549757796e6 0.0
0.0 0.0 0.0

-2.2023762973170653e7 8.125513386359652e6 0.0
8.125513386359652e6 9.942773467854353e6 0.0
0.0 0.0 0.0

-5.455681997252351e6 2.2760443416552346e7 0.0
2.2760443416552346e7 6.191228535634382e6 0.0
0.0 0.0 0.0

191206.74616023712 1.5270805197265252e7 0.0
1.5270805197265252e7 -1.3936807211638834e7 0.0
0.0 0.0 0.0

3.1914820946805608e6 8.349827223169914e6 0.0
8.349827223169914e6 -1.9080798450182956e7 0.0
0.0 0.0 0.0

768905.9920951403 4.781764426850787e6 0.0
4.781764426850787e6 -4.734304787522063e6 0.0
0.0 0.0 0.0

1.1365193107502023e6 1.4006689185895553e7 0.0
1.4006689185895553e7 -1.500480177144586e7 0.0
0.0 0.0 0.0

-1.347438681117971e7 2.07362822994869e7 0.0
2.07362822994869e7 -1.767072493376105e6 0.0
0.0 0.0 0.0

1.1506466465516072e6 2.839910584051797e7 0.0
2.839910584051797e7 -2.0971856579980347e6 0.0
0.0 0.0 0.0

-2.0205149966880819e6 1.628606989667042e7 0.0
1.628606989667042e7 1.939268861724912e7 0.0
0.0 0.0 0.0

1.0122934060685807e6 1.5269916548255147e7 0.0
1.5269916548255147e7 7.336099102839419e6 0.0
0.0 0.0 0.0

4.1171461348734614e6 1.4401230916123852e7 0.0
1.4401230916123852e7 1.4735389637628898e7 0.0
0.0 0.0 0.0

-2.758129651602932e6 1.5492996745762078e7 0.0
1.5492996745762078e7 -9.193765646084111e6 0.0
0.0 0.0 0.0

-1.1705817014394477e7 1.201124701971405e7 0.0
1.201124701971405e7 2.299764386484322e7 0.0
0.0 0.0 0.0

-1.4592630664878632e6 1.3660714003913041e7 0.0
1.3660714003913041e7 -1.0443118430964734e7 0.0
0.0 0.0 0.0

-2.1657251503462777e7 2.5905741991737094e7 0.0
2.5905741991737094e7 9.793450265047308e6 0.0
0.0 0.0 0.0

-1.1189121902315969e7 1.260078998374872e6 0.0
1.260078998374872e6 2.649526399137427e7 0.0
0.0 0.0 0.0

-1.0030956778116323e7 -2.435186710886219e6 0.0
-2.435186710886219e6 3.367564171051692e7 0.0
0.0 0.0 0.0

1.085340459425704e6 1.1230344639383964e7 0.0
1.1230344639383964e7 -1.186463899287696e7 0.0
0.0 0.0 0.0

-777903.9922656991 1.7176928489126826e6 0.0
1.7176928489126826e6 514170.2030430118 0.0
0.0 0.0 0.0

2.5595096319384817e6 8.715184707058994e6 0.0
8.715184707058994e6 -3.2187639121527966e7 0.0
0.0 0.0 0.0

-1.1371749211010244e7 9.616585341228297e6 0.0
9.616585341228297e6 2.7745306045138456e7 0.0
0.0 0.0 0.0

1.8859565292490423e6 1.0524282441041978e7 0.0
1.0524282441041978e7 -2.5606195896058667e7 0.0
0.0 0.0 0.0

-9.678796241935402e6 -2.893111777858943e6 0.0
-2.893111777858943e6 2.1049413731806368e7 0.0
0.0 0.0 0.0

-3.924794925824274e6 2.1768938318411153e7 0.0
2.1768938318411153e7 3.155694370458641e6 0.0
0.0 0.0 0.0

-138207.8549325033 2.140228614110903e7 0.0
2.140228614110903e7 -3.8781248324674554e6 0.0
0.0 0.0 0.0

-3.8673834621006656e6 2.4535724095438864e7 0.0
2.4535724095438864e7 2.7116510867721415e6 0.0
0.0 0.0 0.0

-633736.8477769743 2.782045682016381e7 0.0
2.782045682016381e7 -1.2030524883921589e6 0.0
0.0 0.0 0.0

-1.4426346906021384e6 2.551582359507501e7 0.0
2.551582359507501e7 -721324.8099659709 0.0
0.0 0.0 0.0

-1.0741946552989189e7 -1.8825477872688626e6 0.0
-1.8825477872688626e6 2.695708718975582e7 0.0
0.0 0.0 0.0

4.305785852111215e6 5.012208299436279e6 0.0
5.012208299436279e6 -2.8127691645886775e7 0.0
0.0 0.0 0.0

311637.14318487 1.623193697566779e7 0.0
1.623193697566779e7 -9.523344973504102e6 0.0
0.0 0.0 0.0

-973579.4345557624 1.769367260784667e7 0.0
1.769367260784667e7 -6.839343373106699e6 0.0
0.0 0.0 0.0

2.6417323825311363e6 1.0297047200438993e7 0.0
1.0297047200438993e7 -1.6025729446239393e7 0.0
0.0 0.0 0.0

-3.890970555062256e6 1.2653154643072702e7 0.0
1.2653154643072702e7 -1.4351014047973307e7 0.0
0.0 0.0 0.0

730454.1125786224 1.3899346188642966e7 0.0
1.3899346188642966e7 2.434847115539998e6 0.0
0.0 0.0 0.0

-4.688541778267091e6 1.9675621306855436e7 0.0
1.9675621306855436e7 7.094345457802274e6 0.0
0.0 0.0 0.0

-7.6292482959885625e6 2.3298887709970824e7 0.0
2.3298887709970824e7 5.967135105975095e6 0.0
0.0 0.0 0.0

-1.3928103162253036e6 1.3347511155588629e7 0.0
1.3347511155588629e7 -5.92883135814903e6 0.0
0.0 0.0 0.0

-1.0121299872194986e6 1.0709659567198105e7 0.0
1.0709659567198105e7 -2.853949142171724e6 0.0
0.0 0.0 0.0

4.74390621495868e6 4.0023423395855776e6 0.0
4.0023423395855776e6 -2.2921152641923998e7 0.0
0.0 0.0 0.0

1.1977404130304786e6 1.5849576840740025e7 0.0
1.5849576840740025e7 -5.698433808761859e6 0.0
0.0 0.0 0.0

3.134491748238312e6 8.635539901484756e6 0.0
8.635539901484756e6 -2.0379435620623663e7 0.0
0.0 0.0 0.0

-1.8305865940709817e6 7.099819916795376e6 0.0
7.099819916795376e6 -1.7128628233225201e6 0.0
0.0 0.0 0.0

-1.0315453513857306e6 9.760589030842414e6 0.0
9.760589030842414e6 -4.7413665859615775e6 0.0
0.0 0.0 0.0

-618551.7364871721 3.789587082022722e6 0.0
3.789587082022722e6 -1.7677960211660767e6 0.0
0.0 0.0 0.0

-3.586982608101244e6 2.009024017479123e7 0.0
2.009024017479123e7 3.148063216234953e6 0.0
0.0 0.0 0.0

549943.9890193511 1.4373490443369685e7 0.0
1.4373490443369685e7 -1.6013957738448404e7 0.0
0.0 0.0 0.0

2.1024219006510414e6 8.538390785176795e6 0.0
8.538390785176795e6 -3.688143221612379e7 0.0
0.0 0.0 0.0

-3.773069753200217e6 1.8152258717697557e7 0.0
1.8152258717697557e7 -4.0438496934803165e6 0.0
0.0 0.0 0.0

-1.596474847648114e7 2.376422006104441e7 0.0
2.376422006104441e7 -6.292249590705217e6 0.0
0.0 0.0 0.0

-1.5582980496667497e7 2.3541128199584547e7 0.0
2.3541128199584547e7 6.581922492565158e6 0.0
0.0 0.0 0.0

-5.789557183151464e6 2.029633699695929e7 0.0
2.029633699695929e7 -6.422274131868573e6 0.0
0.0 0.0 0.0

-1.7610065721590184e6 1.3394227453701999e7 0.0
1.3394227453701999e7 -2.4376440795997277e7 0.0
0.0 0.0 0.0

-5.363094088360068e6 1.3729267358900344e7 0.0
1.3729267358900344e7 -1.7876980974225443e7 0.0
0.0 0.0 0.0

-1.1591143935884053e7 2.2000677125717457e7 0.0
2.2000677125717457e7 -5.860303426699667e6 0.0
0.0 0.0 0.0

-7.432876164167721e6 1.4776066643173644e7 0.0
1.4776066643173644e7 -2.4776254874043602e7 0.0
0.0 0.0 0.0

-9.538396532411976e6 1.5656051064818548e7 0.0
1.5656051064818548e7 1.6720528574251818e7 0.0
0.0 0.0 0.0

-9.657671538020436e6 -1.383886119539757e6 0.0
-1.383886119539757e6 1.3173242817832274e7 0.0
0.0 0.0 0.0

-2.3430821124218e6 1.999031214370636e7 0.0
1.999031214370636e7 -2.689475115172862e6 0.0
0.0 0.0 0.0

-5.830382218459239e6 1.7726255968066078e7 0.0
1.7726255968066078e7 1.050011060320888e7 0.0
0.0 0.0 0.0

-1.0001921821156286e7 -3.678061282572247e6 0.0
-3.678061282572247e6 1.707899041735178e7 0.0
0.0 0.0 0.0

1.8488975541220643e6 1.1998125787120545e7 0.0
1.1998125787120545e7 -1.9724750812455136e7 0.0
0.0 0.0 0.0

-3.406757313100458e6 2.0569049253248245e7 0.0
2.0569049253248245e7 182287.25003136205 0.0
0.0 0.0 0.0

147657.40228878288 1.4452944427377649e7 0.0
1.4452944427377649e7 -1.5863902674749924e6 0.0
0.0 0.0 0.0

-4.54781868197649e6 2.158433472643678e7 0.0
2.158433472643678e7 5.444764004478421e6 0.0
0.0 0.0 0.0

-1.0809245322436923e7 2.2502983767584786e7 0.0
2.2502983767584786e7 -6.288912869042344e6 0.0
0.0 0.0 0.0

-5.983158999947526e6 1.4075623091810916e7 0.0
1.4075623091810916e7 -1.9943863955105364e7 0.0
0.0 0.0 0.0

1.2689050172786177e6 1.7672655515666783e7 0.0
1.7672655515666783e7 1.2629645981256492e7 0.0
0.0 0.0 0.0

-2.115623066697239e7 2.3421411673159067e7 0.0
2.3421411673159067e7 6.748474936755058e6 0.0
0.0 0.0 0.0

-8.659791663474515e6 6.1489279949956415e6 0.0
6.1489279949956415e6 1.382326419871455e7 0.0
0.0 0.0 0.0

-1.0863980005262375e7 7.577164427590464e6 0.0
7.577164427590464e6 3.527784512527035e7 0.0
0.0 0.0 0.0

-1.1638304117370776e6 1.5955311895475982e7 0.0
1.5955311895475982e7 -6.946755589755609e6 0.0
0.0 0.0 0.0

-626671.6411517194 2.533886851962202e7 0.0
2.533886851962202e7 -1.6792360363808735e6 0.0
0.0 0.0 0.0

4.124650785563795e6 1.4926839903850837e7 0.0
1.4926839903850837e7 1.3748836098153513e7 0.0
0.0 0.0 0.0

1.4053881616574673e7 1.6265435817478942e7 0.0
1.6265435817478942e7 3.474679779511682e6 0.0
0.0 0.0 0.0

-8.119342624331621e6 2.129138868825306e7 0.0
2.129138868825306e7 -6.425380247555434e6 0.0
0.0 0.0 0.0

247591.39026901172 2.3726591998263534e7 0.0
2.3726591998263534e7 -3.109251395408379e6 0.0
0.0 0.0 0.0

5.825465059077666e6 1.4649794952959621e7 0.0
1.4649794952959621e7 2.309195362090975e7 0.0
0.0 0.0 0.0

3.891643148647979e6 6.376750267517762e6 0.0
6.376750267517762e6 -3.541388676546868e7 0.0
0.0 0.0 0.0

-5.343081994423632e6 2.216044514442109e7 0.0
2.216044514442109e7 6.609370124389931e6 0.0
0.0 0.0 0.0

234932.74287871365 1.343665381486141e7 0.0
1.343665381486141e7 -542421.8404149911 0.0
0.0 0.0 0.0

-8.329906308274798e6 1.5405512325498858e7 0.0
1.5405512325498858e7 -2.7766355795054648e7 0.0
0.0 0.0 0.0

-3.2098663089141846e6 1.8167207988777664e7 0.0
1.8167207988777664e7 -1.6220614994004108e6 0.0
0.0 0.0 0.0

4.847961895515967e6 3.5697105743370755e6 0.0
3.5697105743370755e6 -3.051194165456774e7 0.0
0.0 0.0 0.0

-1.4021607069317936e6 1.6840758945295084e7 0.0
1.6840758945295084e7 -7.082438195094494e6 0.0
0.0 0.0 0.0

849089.3699646904 1.81923921391687e7 0.0
1.81923921391687e7 -6.690358957734159e6 0.0
0.0 0.0 0.0

1.3109918568369297e7 1.7505549236000955e7 0.0
1.7505549236000955e7 -3.877668656792389e6 0.0
0.0 0.0 0.0

-1.0875964518726975e7 1.4212588167949066e7 0.0
1.4212588167949066e7 1.6988288660503723e7 0.0
0.0 0.0 0.0

-2.28558636583279e6 1.337757278484901e7 0.0
1.337757278484901e7 -801316.84398048 0.0
0.0 0.0 0.0

-4.499437694470625e6 1.9354432796898816e7 0.0
1.9354432796898816e7 -6.16622492223677e6 0.0
0.0 0.0 0.0

-2.637567781223401e6 2.016081984505266e7 0.0
2.016081984505266e7 -2.2037840154282767e6 0.0
0.0 0.0 0.0

-1.02313915072984e7 150270.50244820846 0.0
150270.50244820846 3.5853897619128995e7 0.0
0.0 0.0 0.0

-1.291569853955978e6 1.4413219488886714e7 0.0
1.4413219488886714e7 -6.536429363976279e6 0.0
0.0 0.0 0.0

-8.698482551998772e6 2.3614932998527255e7 0.0
2.3614932998527255e7 6.367231145744999e6 0.0
0.0 0.0 0.0

1.7027837105928008e6 7.745802817403208e6 0.0
7.745802817403208e6 -1.0189403315999722e7 0.0
0.0 0.0 0.0

3.96239155247295e6 1.7368156632726982e7 0.0
1.7368156632726982e7 1.125487322102988e7 0.0
0.0 0.0 0.0

-3.2129599634709068e7 2.349170776454951e7 0.0
2.349170776454951e7 7.921929215270616e6 0.0
0.0 0.0 0.0

1.198487790916049e6 1.3501884106720423e7 0.0
1.3501884106720423e7 4.949578095846891e6 0.0
0.0 0.0 0.0

3.70599505070142e6 6.637089050517603e6 0.0
6.637089050517603e6 -1.2883302242979454e7 0.0
0.0 0.0 0.0

-98265.0001858715 1.7247237014285773e7 0.0
1.7247237014285773e7 1.492321755760807e7 0.0
0.0 0.0 0.0

-973377.5672962305 1.968537533320601e7 0.0
1.968537533320601e7 -5.186275040645323e6 0.0
0.0 0.0 0.0

1.002426182402643e7 2.352748786550702e7 0.0
2.352748786550702e7 -6.780174926996919e6 0.0
0.0 0.0 0.0

-2.699158456538112e6 1.2718405275638863e7 0.0
1.2718405275638863e7 -8.997195270449558e6 0.0
0.0 0.0 0.0

-4.74619560338291e6 1.384974611752721e7 0.0
1.384974611752721e7 5.716048298865926e6 0.0
0.0 0.0 0.0

1.1159941336488877e6 7.781784795927937e6 0.0
7.781784795927937e6 -8.871197998844484e6 0.0
0.0 0.0 0.0

-2.412139239272648e6 1.448822705734343e7 0.0
1.448822705734343e7 -1.7783735724402122e7 0.0
0.0 0.0 0.0

-788463.7425845044 1.7054147505340125e7 0.0
1.7054147505340125e7 -7.450616678818888e6 0.0
0.0 0.0 0.0

8.144320088823496e6 1.8803204439414993e7 0.0
1.8803204439414993e7 8.37760006192604e6 0.0
0.0 0.0 0.0

-4.686940949936882e6 1.9038729204077438e7 0.0
1.9038729204077438e7 -5.625878155030231e6 0.0
0.0 0.0 0.0

673582.081784301 1.8137120424775787e7 0.0
1.8137120424775787e7 -6.5217052459705835e6 0.0
0.0 0.0 0.0

-7.139550307654179e6 1.9579954636955126e6 0.0
1.9579954636955126e6 1.1412913234037519e7 0.0
0.0 0.0 0.0

-1.1983239881019217e6 4.879163841097307e6 0.0
4.879163841097307e6 3.435874542158163e6 0.0
0.0 0.0 0.0

4.916008272785545e6 1.766147256694569e7 0.0
1.766147256694569e7 -3.3667493415213795e6 0.0
0.0 0.0 0.0

858587.6283342845 1.411917104524688e7 0.0
1.411917104524688e7 4.376354672938354e6 0.0
0.0 0.0 0.0

3.2571742672967955e7 1.4973297048618264e7 0.0
1.4973297048618264e7 4.942092026503162e6 0.0
0.0 0.0 0.0

-1.0361008287789075e7 -3.6682801352992463e6 0.0
-3.6682801352992463e6 1.9719598609773684e7 0.0
0.0 0.0 0.0

-1.0036173846724147e7 2.0755663643251568e7 0.0
2.0755663643251568e7 -4.516741716507468e6 0.0
0.0 0.0 0.0

-1.128030572872176e7 2.019305226556555e7 0.0
2.019305226556555e7 775489.1432076544 0.0
0.0 0.0 0.0

-2.1613455512758333e7 2.150060130411785e7 0.0
2.150060130411785e7 -4.958898234888852e6 0.0
0.0 0.0 0.0

2.394701474248953e7 5.60605146168517e6 0.0
5.60605146168517e6 -2.9999161826541713e6 0.0
0.0 0.0 0.0

-9.562696364663e6 6.631147031135128e6 0.0
6.631147031135128e6 4.184744026254775e7 0.0
0.0 0.0 0.0

-1.173031063596765e6 1.0131403685228035e7 0.0
1.0131403685228035e7 -1.9929395095987006e6 0.0
0.0 0.0 0.0

-9.303099401044296e6 2.057126665867045e7 0.0
2.057126665867045e7 -5.785510049977552e6 0.0
0.0 0.0 0.0

-4.410850068544028e6 2.17730892458542e7 0.0
2.17730892458542e7 6.388973545039128e6 0.0
0.0 0.0 0.0

-1.124683907363274e6 1.6757460851269929e7 0.0
1.6757460851269929e7 -8.3993676943949e6 0.0
0.0 0.0 0.0

1.3798685207076669e6 1.1828201982851103e7 0.0
1.1828201982851103e7 -1.256003129827269e7 0.0
0.0 0.0 0.0

-59887.527618850814 1.4301715736855883e7 0.0
1.4301715736855883e7 -4.561576037694861e6 0.0
0.0 0.0 0.0

-4.687054060363973e6 1.3181140333223158e7 0.0
1.3181140333223158e7 -1.862279285318298e7 0.0
0.0 0.0 0.0

-5.360354917049332e6 1.561431505636579e7 0.0
1.561431505636579e7 -4.063608974410987e7 0.0
0.0 0.0 0.0

7.601710810117609e6 5.418318854471811e6 0.0
5.418318854471811e6 -1.8131443122728048e6 0.0
0.0 0.0 0.0

2.7870073460314227e6 2.4291528516408592e7 0.0
2.4291528516408592e7 -4.56803593343879e6 0.0
0.0 0.0 0.0

-4.1008344581987187e6 1.3253318619761603e7 0.0
1.3253318619761603e7 -1.3669448959147623e7 0.0
0.0 0.0 0.0

1.0478410830008673e7 1.4508590748310795e7 0.0
1.4508590748310795e7 3.8069269641225934e6 0.0
0.0 0.0 0.0

127164.55721020116 1.4286542797590151e7 0.0
1.4286542797590151e7 -6.243617659081977e6 0.0
0.0 0.0 0.0

-2.1620028954716045e6 1.9713668082213946e7 0.0
1.9713668082213946e7 -2.4877301167226173e6 0.0
0.0 0.0 0.0

-2.4982110938799297e6 1.3948102710339354e7 0.0
1.3948102710339354e7 -1.221020055692458e7 0.0
0.0 0.0 0.0

-1.7158589992374e7 1.4301081948817406e7 0.0
1.4301081948817406e7 7.541778537490007e6 0.0
0.0 0.0 0.0

-5.999213718038371e6 -1.8219761455023107e6 0.0
-1.8219761455023107e6 7.101827255279323e6 0.0
0.0 0.0 0.0

-8.718931399038967e6 1.5105508446116572e7 0.0
1.5105508446116572e7 1.6464832344798343e7 0.0
0.0 0.0 0.0

-706067.3405669183 1.3139066011771368e7 0.0
1.3139066011771368e7 1.3960329625325839e6 0.0
0.0 0.0 0.0

-4.446737324149121e6 1.5149330407269778e7 0.0
1.5149330407269778e7 -1.0663211153355755e7 0.0
0.0 0.0 0.0

-899728.4282558013 1.528953703164651e7 0.0
1.528953703164651e7 -6.107756043761585e6 0.0
0.0 0.0 0.0

-2.0855326070073068e6 1.1065473344921092e7 0.0
1.1065473344921092e7 -3.3947234403343853e6 0.0
0.0 0.0 0.0

1.5250068681743361e7 1.753963278233492e7 0.0
1.753963278233492e7 -3.8942603828055114e6 0.0
0.0 0.0 0.0

-8.632673117364248e6 2.561180486321137e7 0.0
2.561180486321137e7 6.559640382940076e6 0.0
0.0 0.0 0.0

2.0894518722391466e6 1.885706460171246e7 0.0
1.885706460171246e7 -5.330352817350869e6 0.0
0.0 0.0 0.0

-2.4083317608816633e6 1.7379272930578336e7 0.0
1.7379272930578336e7 -2.6240561181900552e6 0.0
0.0 0.0 0.0

-3.2146093949632877e6 2.4837152193509705e7 0.0
2.4837152193509705e7 3.1849525180562143e6 0.0
0.0 0.0 0.0

-7.976927383475627e6 1.6198838870216934e7 0.0
1.6198838870216934e7 1.4077611449081609e7 0.0
0.0 0.0 0.0

1.491940124731063e6 7.181344544856922e6 0.0
7.181344544856922e6 -7.2443072432838725e6 0.0
0.0 0.0 0.0

-586802.5779925155 6.651794780772324e6 0.0
6.651794780772324e6 -1.0130791963967985e6 0.0
0.0 0.0 0.0

-6.385468084492855e6 1.4225508554897472e7 0.0
1.4225508554897472e7 -2.5954906521864943e7 0.0
0.0 0.0 0.0

-2.958514865119754e6 1.709875475625567e7 0.0
1.709875475625567e7 4.0252781645227917e6 0.0
0.0 0.0 0.0

1.9039886068864344e6 5.231566103439271e6 0.0
5.231566103439271e6 -7.589739377305299e6 0.0
0.0 0.0 0.0

-3.893707090804614e7 2.4900447119867414e7 0.0
2.4900447119867414e7 1.8988228887664303e6 0.0
0.0 0.0 0.0

1.956437344607003e6 8.146535193337922e6 0.0
8.146535193337922e6 -4.250064440595126e7 0.0
0.0 0.0 0.0

-724180.8774058062 8.80596809089079e6 0.0
8.80596809089079e6 -4.873572136111229e6 0.0
0.0 0.0 0.0

-5.385034699330267e6 1.4638226874065034e7 0.0
1.4638226874065034e7 -2.806176251546212e7 0.0
0.0 0.0 0.0

4.536948160452846e6 4.767921452228427e6 0.0
4.767921452228427e6 -2.7439479404774435e7 0.0
0.0 0.0 0.0

1.2738160737871379e7 2.578942437112373e7 0.0
2.578942437112373e7 -9.633184577248564e6 0.0
0.0 0.0 0.0

3.549533172467218e6 8.803189986739084e6 0.0
8.803189986739084e6 -1.912227066645299e7 0.0
0.0 0.0 0.0

-9.895729323835684e6 1.069659443412513e7 0.0
1.069659443412513e7 3.1843004650005262e7 0.0
0.0 0.0 0.0

-1.0688213439403657e7 1.4617141188167281e7 0.0
1.4617141188167281e7 1.733996849994395e7 0.0
0.0 0.0 0.0

-4.475345015736587e6 1.8964159006551735e7 0.0
1.8964159006551735e7 8.8939545353131e6 0.0
0.0 0.0 0.0

-6.964751720345755e6 1.854897628340906e7 0.0
1.854897628340906e7 -3.0714892355764327e6 0.0
0.0 0.0 0.0

-9.521484187701868e6 1.5249710955097709e7 0.0
1.5249710955097709e7 1.8040657514204994e7 0.0
0.0 0.0 0.0

-3.9364366153878984e6 2.0016016869160153e7 0.0
2.0016016869160153e7 1.9905822445142122e6 0.0
0.0 0.0 0.0

6.422154772714937e6 1.5668999248418717e7 0.0
1.5668999248418717e7 2.1407183323928136e7 0.0
0.0 0.0 0.0

-8.251309646112927e6 -649652.0861882003 0.0
-649652.0861882003 1.0737287214961825e7 0.0
0.0 0.0 0.0

38277.69673753856 1.6433576142915886e7 0.0
1.6433576142915886e7 -1.0702162062992597e7 0.0
0.0 0.0 0.0

-345553.3464689292 1.111134613417241e7 0.0
1.111134613417241e7 -4.744391939628118e7 0.0
0.0 0.0 0.0

-7.654604787989458e6 2.667922022148962e7 0.0
2.667922022148962e7 6.4428008128507165e6 0.0
0.0 0.0 0.0

-390969.6382299729 2.0822844743943464e7 0.0
2.0822844743943464e7 -4.74788450632433e6 0.0
0.0 0.0 0.0

1.5661473365503035e6 1.6080998071344335e7 0.0
1.6080998071344335e7 1.0583757349351891e6 0.0
0.0 0.0 0.0

-1.0424521924557246e7 1.4446463045915402e7 0.0
1.4446463045915402e7 1.8525442605330408e7 0.0
0.0 0.0 0.0

-1.679687293067851e7 2.6787451726150814e7 0.0
2.6787451726150814e7 8.113498176084546e6 0.0
0.0 0.0 0.0

-469870.01006379956 1.8173420169654276e7 0.0
1.8173420169654276e7 -7.810275179758314e6 0.0
0.0 0.0 0.0

-2.117805331546937e6 1.37257369359079e7 0.0
1.37257369359079e7 -2.203587867386424e7 0.0
0.0 0.0 0.0

-1.3027154179797344e7 2.8141645045988668e7 0.0
2.8141645045988668e7 6.498577672432486e6 0.0
0.0 0.0 0.0

1.9686578139613938e7 2.334826533573184e7 0.0
2.334826533573184e7 -1.1931759610566728e7 0.0
0.0 0.0 0.0

1.0041878916902454e6 1.5264585783331364e7 0.0
1.5264585783331364e7 2.277309799495108e6 0.0
0.0 0.0 0.0

2.5792734946301384e6 1.0177948287656568e7 0.0
1.0177948287656568e7 -1.726903545893518e7 0.0
0.0 0.0 0.0

-7.368443945412106e6 1.5916630869740775e7 0.0
1.5916630869740775e7 -3.0665921829894718e7 0.0
0.0 0.0 0.0

7.307984215857631e6 2.3828668449263398e7 0.0
2.3828668449263398e7 -6.000373916800325e6 0.0
0.0 0.0 0.0

20642.924470236525 1.4948401376064224e7 0.0
1.4948401376064224e7 -1.1327378883471943e7 0.0
0.0 0.0 0.0

-1.927550273659942e6 2.255564631024546e7 0.0
2.255564631024546e7 -1.5323535754422261e6 0.0
0.0 0.0 0.0

616698.41535387 1.032456693791026e7 0.0
1.032456693791026e7 -3.985771928418163e7 0.0
0.0 0.0 0.0

211470.97700966615 1.5549761453655189e7 0.0
1.5549761453655189e7 4.7922530263020545e6 0.0
0.0 0.0 0.0

-1.938247863904824e7 2.4535277998164494e7 0.0
2.4535277998164494e7 8.38596909864409e6 0.0
0.0 0.0 0.0

-3.415539285579994e6 2.0372300627244722e7 0.0
2.0372300627244722e7 2.5095569919085996e6 0.0
0.0 0.0 0.0

1.372703459683022e7 1.5776142930162162e7 0.0
1.5776142930162162e7 3.3955415537511124e6 0.0
0.0 0.0 0.0

-3.760477653777349e6 2.5261770762382317e7 0.0
2.5261770762382317e7 2.407545837015602e6 0.0
0.0 0.0 0.0

911350.0990437393 1.5344699025680177e7 0.0
1.5344699025680177e7 7.693450276947172e6 0.0
0.0 0.0 0.0

72351.74819116585 3.6390976275145053e6 0.0
3.6390976275145053e6 -2.770118333231569e6 0.0
0.0 0.0 0.0

3.2044864649119033e6 2.53237479758118e7 0.0
2.53237479758118e7 -3.562297314909863e6 0.0
0.0 0.0 0.0

424523.32766635064 1.4860580956108026e7 0.0
1.4860580956108026e7 -1.5028867983383946e7 0.0
0.0 0.0 0.0

4.629542541327203e6 4.0024853274057796e6 0.0
4.0024853274057796e6 -3.364706195960907e7 0.0
0.0 0.0 0.0

123418.65650950558 9.65505344230998e6 0.0
9.65505344230998e6 -6.1485409095996255e6 0.0
0.0 0.0 0.0

1.974481890433289e6 6.150498462293782e6 0.0
6.150498462293782e6 -7.668719671633314e6 0.0
0.0 0.0 0.0

1.3277097838551514e6 1.2465100506332655e7 0.0
1.2465100506332655e7 -1.248456872462447e7 0.0
0.0 0.0 0.0

-1.645204557721787e7 2.318519048069807e7 0.0
2.318519048069807e7 7.121731927218474e6 0.0
0.0 0.0 0.0

-1.8568396641161032e6 1.720743165132191e7 0.0
1.720743165132191e7 2.069631842478281e6 0.0
0.0 0.0 0.0

1.6048924960677375e6 1.9059756201477826e7 0.0
1.9059756201477826e7 -5.653402006733153e6 0.0
0.0 0.0 0.0

4.5816170318247285e6 5.679094322572009e6 0.0
5.679094322572009e6 -2.6930923450209957e7 0.0
0.0 0.0 0.0

-910364.7797469117 1.6721980602732817e7 0.0
1.6721980602732817e7 -7.224027164635649e6 0.0
0.0 0.0 0.0

-109865.05517566856 1.4369358546228217e7 0.0
1.4369358546228217e7 -1.087423588270859e7 0.0
0.0 0.0 0.0

-7.088036165069578e6 1.983148213296239e7 0.0
1.983148213296239e7 -5.942106951205989e6 0.0
0.0 0.0 0.0

6.555591224322213e6 2.231505697125108e7 0.0
2.231505697125108e7 -6.07448677028249e6 0.0
0.0 0.0 0.0

-5.008984422266902e6 1.998368557466981e7 0.0
1.998368557466981e7 8.587452893004602e6 0.0
0.0 0.0 0.0

204326.57589810435 1.5998309813061632e7 0.0
1.5998309813061632e7 8.911713673509538e6 0.0
0.0 0.0 0.0

-446103.67991416156 1.552519306321466e7 0.0
1.552519306321466e7 5.453574475903453e7 0.0
0.0 0.0 0.0

-4.494104932211189e6 2.7699489769931428e7 0.0
2.7699489769931428e7 4.106269310376403e6 0.0
0.0 0.0 0.0

606334.1161825629 1.6408835271356594e7 0.0
1.6408835271356594e7 -8.080705257876522e6 0.0
0.0 0.0 0.0

3.3442327992236465e6 9.275903574144954e6 0.0
9.275903574144954e6 -2.1938046421571746e7 0.0
0.0 0.0 0.0

3.5354438937236555e6 8.639125661408352e6 0.0
8.639125661408352e6 -2.3008590465415515e7 0.0
0.0 0.0 0.0

5.0826766220086645e6 3.933815106232278e6 0.0
3.933815106232278e6 -1.9761341955582354e7 0.0
0.0 0.0 0.0

-4.423840576239307e6 1.9519847770314444e7 0.0
1.9519847770314444e7 8.232280715550018e6 0.0
0.0 0.0 0.0

4.718272743070531e6 4.1362041497107614e6 0.0
4.1362041497107614e6 -1.9765181794419073e7 0.0
0.0 0.0 0.0

-1.155510128380812e7 -104642.29129784148 0.0
-104642.29129784148 2.5208776907551646e7 0.0
0.0 0.0 0.0

-5.195011492834048e6 1.768817462587647e7 0.0
1.768817462587647e7 1.247405399297152e7 0.0
0.0 0.0 0.0

-1.280247493733883e6 9.160246311336221e6 0.0
9.160246311336221e6 -3.8704403916194793e6 0.0
0.0 0.0 0.0

-927769.7713706972 2.1223538711765468e7 0.0
2.1223538711765468e7 -4.1498533964013243e6 0.0
0.0 0.0 0.0

1.140266625277483e6 2.3395404518277753e7 0.0
2.3395404518277753e7 -2.770827593374033e6 0.0
0.0 0.0 0.0

582491.9169692144 1.335854227334926e7 0.0
1.335854227334926e7 1.4387423084828516e6 0.0
0.0 0.0 0.0

1.1373018503711037e6 1.0321066632308947e7 0.0
1.0321066632308947e7 -3.452989257664584e7 0.0
0.0 0.0 0.0

4.89773108434446e6 4.421793474038923e6 0.0
4.421793474038923e6 -2.9245172454437852e7 0.0
0.0 0.0 0.0

-3.500020975918351e7 2.8921312884350635e7 0.0
2.8921312884350635e7 -3.8228348994854726e6 0.0
0.0 0.0 0.0

1.319419463940771e7 1.921427314387341e7 0.0
1.921427314387341e7 7.417466071256198e6 0.0
0.0 0.0 0.0

454874.3602272067 2.3102646079202693e7 0.0
2.3102646079202693e7 -2.625437504818123e6 0.0
0.0 0.0 0.0

-2.576046859673351e6 1.6382247380632954e7 0.0
1.6382247380632954e7 1.2431667868022872e7 0.0
0.0 0.0 0.0

379909.58115079283 1.4614429129365856e7 0.0
1.4614429129365856e7 1.860029872234051e6 0.0
0.0 0.0 0.0

-1.1977591020575766e7 5.033094703683371e6 0.0
5.033094703683371e6 2.9606245653987423e7 0.0
0.0 0.0 0.0

-9.35204359593265e6 2.4424583470442686e7 0.0
2.4424583470442686e7 6.1871293330795765e6 0.0
0.0 0.0 0.0

-802651.3019699445 1.2329909558073515e7 0.0
1.2329909558073515e7 -7.169231756871389e6 0.0
0.0 0.0 0.0

-1.1104958770607524e7 -1.6667549602132624e6 0.0
-1.6667549602132624e6 1.8977655271471735e7 0.0
0.0 0.0 0.0

-4.1091916350784227e6 1.0455945504272925e7 0.0
1.0455945504272925e7 6.83970011842852e7 0.0
0.0 0.0 0.0

-4284.808820232283 1.6789700986193895e7 0.0
1.6789700986193895e7 -1.0208449944451682e7 0.0
0.0 0.0 0.0

2.671793075866723e6 4.668654101914599e6 0.0
4.668654101914599e6 -7.997244620556728e6 0.0
0.0 0.0 0.0

-9.529832722483855e6 6.701154376819403e6 0.0
6.701154376819403e6 4.3601640596276864e7 0.0
0.0 0.0 0.0

5.043248814698603e6 3.9454735224700896e6 0.0
3.9454735224700896e6 -2.4368497367974628e7 0.0
0.0 0.0 0.0

-4.747594215524964e6 1.8182071702808738e7 0.0
1.8182071702808738e7 -6.421573910855862e6 0.0
0.0 0.0 0.0

-1.2790035235563265e7 2.1236832410104584e7 0.0
2.1236832410104584e7 -5.404972173380475e6 0.0
0.0 0.0 0.0

-65585.05816154648 1.5390628499855416e7 0.0
1.5390628499855416e7 -1.2872974451545317e7 0.0
0.0 0.0 0.0

-3.6720923631837917e6 8.309063057500641e6 0.0
8.309063057500641e6 5.215970316707535e6 0.0
0.0 0.0 0.0

-3.0865748611516645e6 1.7941665944535844e7 0.0
1.7941665944535844e7 517087.17018175544 0.0
0.0 0.0 0.0

9.176622150627205e6 2.147400723685744e7 0.0
2.147400723685744e7 -6.54487450984345e6 0.0
0.0 0.0 0.0

-5.375584549709976e6 -2.908290392141073e6 0.0
-2.908290392141073e6 9.869655716552708e6 0.0
0.0 0.0 0.0

5.992550236266826e6 1.6180147594563628e7 0.0
1.6180147594563628e7 3.3374450960657652e6 0.0
0.0 0.0 0.0

7.10423217905828e6 2.735746472106794e7 0.0
2.735746472106794e7 -8.70676840221566e6 0.0
0.0 0.0 0.0

5.043783789181348e6 4.03471141455692e6 0.0
4.03471141455692e6 -2.190584116495561e7 0.0
0.0 0.0 0.0

-4.893006347645804e6 1.5248482982444728e7 0.0
1.5248482982444728e7 2.831810876689727e6 0.0
0.0 0.0 0.0

6.028916895129986e6 1.702415710633605e7 0.0
1.702415710633605e7 2.569459655891658e7 0.0
0.0 0.0 0.0

3.9100218838161334e7 5.964742221468443e6 0.0
5.964742221468443e6 -2.1425645792106185e6 0.0
0.0 0.0 0.0

-1.8162286178684376e7 2.270269929010937e7 0.0
2.270269929010937e7 -3.48164740884066e6 0.0
0.0 0.0 0.0

-4.118602474120657e6 1.9761007266551495e7 0.0
1.9761007266551495e7 2.6845280367552256e6 0.0
0.0 0.0 0.0

1.3299026086762026e6 1.04116664966219e7 0.0
1.04116664966219e7 -3.0486431792934638e7 0.0
0.0 0.0 0.0

-1.2788434829045963e7 2.3127762578177076e7 0.0
2.3127762578177076e7 6.430398234344995e6 0.0
0.0 0.0 0.0

4.559888178533766e6 1.6599987431286747e7 0.0
1.6599987431286747e7 5.306219615309576e6 0.0
0.0 0.0 0.0

-6.829645963767592e6 6.586604256172073e6 0.0
6.586604256172073e6 5.400150313110706e7 0.0
0.0 0.0 0.0

-4.8430488469159845e6 1.867710694611482e7 0.0
1.867710694611482e7 8.841051162943752e6 0.0
0.0 0.0 0.0

1.3002057090982366e6 1.5067247998950887e7 0.0
1.5067247998950887e7 9.3687345288893e6 0.0
0.0 0.0 0.0

-1.0340628157951366e6 1.5600833859136483e7 0.0
1.5600833859136483e7 -8.202393809489618e6 0.0
0.0 0.0 0.0

4.14176245354708e6 1.72425557401205e7 0.0
1.72425557401205e7 -3.0497801919121156e6 0.0
0.0 0.0 0.0

1.0340955780770979e6 1.6825867665025383e7 0.0
1.6825867665025383e7 -6.229499910947565e6 0.0
0.0 0.0 0.0

-2.4536521165865376e6 1.1982780205570146e7 0.0
1.1982780205570146e7 -3.0702494342296924e6 0.0
0.0 0.0 0.0

-926763.9820577912 1.6430071765294282e7 0.0
1.6430071765294282e7 1.3506141940148514e7 0.0
0.0 0.0 0.0

347839.4572864573 1.5205585541067528e7 0.0
1.5205585541067528e7 1.1942402186900896e6 0.0
0.0 0.0 0.0

63716.678428211366 1.4805837762118503e7 0.0
1.4805837762118503e7 -2.9511126501614917e6 0.0
0.0 0.0 0.0

-2.3379529115365217e6 1.3809637725459581e7 0.0
1.3809637725459581e7 -1.9571450225973733e7 0.0
0.0 0.0 0.0

-3.622332896253061e6 2.175631141097798e7 0.0
2.175631141097798e7 4.2055052592337765e6 0.0
0.0 0.0 0.0

-1.1124713704148531e7 2.0072385000095155e7 0.0
2.0072385000095155e7 -6.067664431051875e6 0.0
0.0 0.0 0.0

-7.807388919390112e6 2.4953550934576638e7 0.0
2.4953550934576638e7 5.538087378573667e6 0.0
0.0 0.0 0.0

-2.4601920731851365e6 1.6625250324228106e7 0.0
1.6625250324228106e7 9.307306261294037e6 0.0
0.0 0.0 0.0

4.490018531677833e6 6.140313099290116e6 0.0
6.140313099290116e6 -2.208800095293849e7 0.0
0.0 0.0 0.0

-255223.6818425376 1.640983031504942e7 0.0
1.640983031504942e7 -1.0842138827107124e7 0.0
0.0 0.0 0.0

6.579129975905442e6 2.2357788461600654e7 0.0
2.2357788461600654e7 -6.154209555985781e6 0.0
0.0 0.0 0.0

-1.1203683282504428e7 -1.355930635582912e6 0.0
-1.355930635582912e6 2.2808506228225797e7 0.0
0.0 0.0 0.0

-3.7166565364675377e6 1.7995403729648754e7 0.0
1.7995403729648754e7 5.927938126853802e6 0.0
0.0 0.0 0.0

749740.6485597418 1.5891958375228267e7 0.0
1.5891958375228267e7 863388.1831369058 0.0
0.0 0.0 0.0

4.213832637040986e6 1.8120559022415772e7 0.0
1.8120559022415772e7 -4.290897466125308e6 0.0
0.0 0.0 0.0

-1.189114887885257e7 4.449645766236811e6 0.0
4.449645766236811e6 2.2197231119897008e7 0.0
0.0 0.0 0.0

2.5522073612044426e6 1.5018600754047658e7 0.0
1.5018600754047658e7 1.2471797346197458e7 0.0
0.0 0.0 0.0

-6.440893479625465e6 1.7999303929285664e7 0.0
1.7999303929285664e7 -4.931778654180232e6 0.0
0.0 0.0 0.0

773278.2477808027 1.3614037865636608e7 0.0
1.3614037865636608e7 -1.8713226376972128e7 0.0
0.0 0.0 0.0

2.43860884244946e6 2.6640944585125446e7 0.0
2.6640944585125446e7 -2.6711432503615245e6 0.0
0.0 0.0 0.0

-7.5124530874802135e6 2.565117088654483e7 0.0
2.565117088654483e7 5.0747619835233465e6 0.0
0.0 0.0 0.0

-1.1888338720790792e7 5.264595274962885e6 0.0
5.264595274962885e6 1.9432570337214578e7 0.0
0.0 0.0 0.0

-4.273893232822852e6 1.866064174102824e7 0.0
1.866064174102824e7 -4.127949477124835e6 0.0
0.0 0.0 0.0

-5.855942316412443e6 2.572567631457053e7 0.0
2.572567631457053e7 4.1585241268931795e6 0.0
0.0 0.0 0.0

-6.307813295354573e6 2.518232934715578e7 0.0
2.518232934715578e7 4.690667108823268e6 0.0
0.0 0.0 0.0

1.3467438460950209e6 1.442467467982809e7 0.0
1.442467467982809e7 7.614410880977748e6 0.0
0.0 0.0 0.0

2.403201488056684e6 1.1278847875616187e7 0.0
1.1278847875616187e7 -1.5730878179298272e7 0.0
0.0 0.0 0.0

3.1941163405917287e7 2.2815910474046998e7 0.0
2.2815910474046998e7 1.1294732889449358e7 0.0
0.0 0.0 0.0

-3.0693924910012282e7 746150.0044283697 0.0
746150.0044283697 9.20718032639587e6 0.0
0.0 0.0 0.0

-1.4353901201208903e7 2.249504257227154e7 0.0
2.249504257227154e7 5.425506405532556e6 0.0
0.0 0.0 0.0

4.670473504453428e6 3.8624060159705533e6 0.0
3.8624060159705533e6 -2.4343395052050333e7 0.0
0.0 0.0 0.0

-864271.8665698906 1.6291696345827762e7 0.0
1.6291696345827762e7 -9.333352089466425e6 0.0
0.0 0.0 0.0

-1.0814394490944447e7 2.3466036849440597e7 0.0
2.3466036849440597e7 6.537338501129126e6 0.0
0.0 0.0 0.0

-1.2239515456764381e7 2.2995666817483455e6 0.0
2.2995666817483455e6 2.4374451635971285e7 0.0
0.0 0.0 0.0

2.872730995188982e6 9.13579103585787e6 0.0
9.13579103585787e6 -2.0754445130895812e7 0.0
0.0 0.0 0.0

-3.634322188868142e6 1.3361996360864969e7 0.0
1.3361996360864969e7 -1.5904436344178004e7 0.0
0.0 0.0 0.0

4.58141878876558e6 1.7402325658746358e7 0.0
1.7402325658746358e7 5.108296195805899e6 0.0
0.0 0.0 0.0

-2.6082326520113155e7 2.3727139080703113e7 0.0
2.3727139080703113e7 -898610.5598579906 0.0
0.0 0.0 0.0

-3.311244296928267e6 1.0342531257153375e7 0.0
1.0342531257153375e7 -563168.3333423684 0.0
0.0 0.0 0.0

-8.378906456920376e6 2.2697598680333614e7 0.0
2.2697598680333614e7 6.2435641630213065e6 0.0
0.0 0.0 0.0

-3.270725516922162e6 2.2360415022241715e7 0.0
2.2360415022241715e7 3.0768099155307505e6 0.0
0.0 0.0 0.0

-8.826583302313317e6 4.144622653938567e6 0.0
4.144622653938567e6 1.6412149165787693e7 0.0
0.0 0.0 0.0

-6.772248174226623e6 -797034.2569560098 0.0
-797034.2569560098 1.0438397266942114e7 0.0
0.0 0.0 0.0

1.7296140254334277e6 1.1572200218325183e7 0.0
1.1572200218325183e7 -1.6199267635312907e7 0.0
0.0 0.0 0.0

-1.1287687753055636e7 1.092036406363314e6 0.0
1.092036406363314e6 2.4618530758588154e7 0.0
0.0 0.0 0.0

631011.320924202 1.4025014577415688e7 0.0
1.4025014577415688e7 -1.4996279393619444e7 0.0
0.0 0.0 0.0

4.365699374779818e6 1.6269122505224759e7 0.0
1.6269122505224759e7 -1.7474893170062813e6 0.0
0.0 0.0 0.0

1.2145207252804716e6 8.2507040197357815e6 0.0
8.2507040197357815e6 -9.37293804225868e6 0.0
0.0 0.0 0.0

-1.4265509080754768e7 2.2387673829215094e7 0.0
2.2387673829215094e7 5.587907282394867e6 0.0
0.0 0.0 0.0

-6.282128725035939e6 2.008137799712397e7 0.0
2.008137799712397e7 -5.764722018948011e6 0.0
0.0 0.0 0.0

309804.1548373609 1.290761126545008e7 0.0
1.290761126545008e7 1.032681157460867e6 0.0
0.0 0.0 0.0

-488186.7649747911 1.41458919420127e7 0.0
1.41458919420127e7 -1.6272896244988146e6 0.0
0.0 0.0 0.0

2.1325681458823318e6 1.1794273181448283e7 0.0
1.1794273181448283e7 -1.4918974010177566e7 0.0
0.0 0.0 0.0

-3.465644183295229e6 1.374897450675089e7 0.0
1.374897450675089e7 -1.5689379971180065e7 0.0
0.0 0.0 0.0

-1.0332163107220631e7 -1.9782062828205216e6 0.0
-1.9782062828205216e6 1.6446214805794025e7 0.0
0.0 0.0 0.0

-4.0627647374715405e6 1.126942286193622e7 0.0
1.126942286193622e7 4.0860839394641677e6 0.0
0.0 0.0 0.0

-345778.2855622568 1.7936259026791815e7 0.0
1.7936259026791815e7 -8.131548483607292e6 0.0
0.0 0.0 0.0

3.4551779660611246e6 6.875706990431546e6 0.0
6.875706990431546e6 -1.6242196351267023e7 0.0
0.0 0.0 0.0

-2.912483791093978e7 1.9938369411049485e7 0.0
1.9938369411049485e7 220864.53130973317 0.0
0.0 0.0 0.0

3.231433360084896e6 1.705575743390502e7 0.0
1.705575743390502e7 -3.061093637935878e6 0.0
0.0 0.0 0.0

1.3941193701698847e7 1.5578708030907907e7 0.0
1.5578708030907907e7 -462059.0299023781 0.0
0.0 0.0 0.0

-8.65112397479432e6 2.8250351520776123e7 0.0
2.8250351520776123e7 6.386955246998305e6 0.0
0.0 0.0 0.0

-9.603994095483806e6 1.4135686773288401e6 0.0
1.4135686773288401e6 1.4868039074489184e7 0.0
0.0 0.0 0.0

-441101.8640176323 1.4830137572658524e7 0.0
1.4830137572658524e7 -9.982681583585953e6 0.0
0.0 0.0 0.0

-5.6318788821982695e6 1.8500324511773977e7 0.0
1.8500324511773977e7 -3.742456306797064e6 0.0
0.0 0.0 0.0

-1.66199249816054e7 2.5070256269242637e7 0.0
2.5070256269242637e7 7.695431305482285e6 0.0
0.0 0.0 0.0

-3.988236983068647e6 1.4601512643516524e7 0.0
1.4601512643516524e7 -2.408062543844023e7 0.0
0.0 0.0 0.0

612762.2233989954 1.514435752208224e7 0.0
1.514435752208224e7 5.247126021660031e6 0.0
0.0 0.0 0.0

-2.3433608608157677e6 1.371133743075081e7 0.0
1.371133743075081e7 -1.7304725375654936e7 0.0
0.0 0.0 0.0

-1.2530337003342818e7 2.7163898175155897e7 0.0
2.7163898175155897e7 7.530758541090708e6 0.0
0.0 0.0 0.0

-1.380484313156173e6 1.980196703753643e7 0.0
1.980196703753643e7 -5.371717189258437e6 0.0
0.0 0.0 0.0

-4.42905803703783e6 1.8603752426686775e7 0.0
1.8603752426686775e7 -436733.7125060515 0.0
0.0 0.0 0.0

3.02894541447735e6 9.834345860114584e6 0.0
9.834345860114584e6 -2.2293926780343823e7 0.0
0.0 0.0 0.0

-1.1731960075848473e7 4.751559827646267e6 0.0
4.751559827646267e6 2.7912562356565904e7 0.0
0.0 0.0 0.0

-1.4745828468521996e6 1.485008423085134e7 0.0
1.485008423085134e7 -6.815561825449551e6 0.0
0.0 0.0 0.0

4.295059194880945e6 1.713310469715046e7 0.0
1.713310469715046e7 -3.1933742940063505e6 0.0
0.0 0.0 0.0

-3.289801125230306e6 1.4490372236444984e7 0.0
1.4490372236444984e7 -2.0636821714523546e7 0.0
0.0 0.0 0.0

-9.063124844735643e6 2.258443150161239e7 0.0
2.258443150161239e7 6.048737686101506e6 0.0
0.0 0.0 0.0

1.3232815417844635e7 2.5682784928578157e7 0.0
2.5682784928578157e7 -9.480284823397527e6 0.0
0.0 0.0 0.0

-3.568345503559144e6 1.835600203880871e7 0.0
1.835600203880871e7 -2.960810039107566e6 0.0
0.0 0.0 0.0

-9.334995189343095e6 2.357877463002478e7 0.0
2.357877463002478e7 6.266331352029527e6 0.0
0.0 0.0 0.0

-9.129009819588866e6 1.5307544194408346e7 0.0
1.5307544194408346e7 1.5004439999142976e7 0.0
0.0 0.0 0.0

1.5057798576917516e6 1.6335399519011257e7 0.0
1.6335399519011257e7 -5.355848519371644e6 0.0
0.0 0.0 0.0

-3.894726372077886e6 2.1872597820024222e7 0.0
2.1872597820024222e7 4.867170152485678e6 0.0
0.0 0.0 0.0

-2.9414736462223083e6 1.3881052777378805e7 0.0
1.3881052777378805e7 -2.3067249457708962e7 0.0
0.0 0.0 0.0

4.276896042778541e6 5.205591712449517e6 0.0
5.205591712449517e6 -2.120934773110432e7 0.0
0.0 0.0 0.0

-3.3216221059467113e6 1.442261346266622e7 0.0
1.442261346266622e7 -1.8385603154219516e7 0.0
0.0 0.0 0.0

-4.41103379862256e6 2.37424116354192e7 0.0
2.37424116354192e7 3.7846397963301884e6 0.0
0.0 0.0 0.0

-2.307389387052662e6 1.5144103320173118e7 0.0
1.5144103320173118e7 -7.691297893984503e6 0.0
0.0 0.0 0.0

1.759707717467975e6 1.463944588588746e7 0.0
1.463944588588746e7 5.86569280190588e6 0.0
0.0 0.0 0.0

-1.1611211703297276e7 1.3632345846607296e7 0.0
1.3632345846607296e7 2.039811533780567e7 0.0
0.0 0.0 0.0

-1.404740191993929e6 1.163981257146416e7 0.0
1.163981257146416e7 -2.548482041450384e6 0.0
0.0 0.0 0.0

6.599507366242674e6 1.5043324059018109e7 0.0
1.5043324059018109e7 2.767844423330287e7 0.0
0.0 0.0 0.0

-1.135836751754456e7 -7666.565549336185 0.0
-7666.565549336185 2.7415870608316854e7 0.0
0.0 0.0 0.0

4.4064052217770945e6 4.593814663745835e6 0.0
4.593814663745835e6 -2.910217726669336e7 0.0
0.0 0.0 0.0

-1.7448210823225966e6 1.4453177453963773e7 0.0
1.4453177453963773e7 -1.9151200222338695e7 0.0
0.0 0.0 0.0

-7.964241726471472e6 2.362142514804722e7 0.0
2.362142514804722e7 6.007230035817594e6 0.0
0.0 0.0 0.0

1.8259154403834682e7 1.1825491549272068e7 0.0
1.1825491549272068e7 -38128.741820347495 0.0
0.0 0.0 0.0

-1.2466029953331798e7 3.0054269414553144e6 0.0
3.0054269414553144e6 2.0504445422900658e7 0.0
0.0 0.0 0.0

-1.5082666273882277e7 2.4123082041968964e7 0.0
2.4123082041968964e7 -5.570419992199756e6 0.0
0.0 0.0 0.0

-3.7851143077843264e6 1.7536487468572754e7 0.0
1.7536487468572754e7 6.047567083935103e6 0.0
0.0 0.0 0.0

-1.6696335856026247e7 2.6921172879830837e7 0.0
2.6921172879830837e7 8.347270265189183e6 0.0
0.0 0.0 0.0

4.231047676128862e6 4.969543512892345e6 0.0
4.969543512892345e6 -3.0067416290318444e7 0.0
0.0 0.0 0.0

1.1542124991013336e6 2.2624071077903647e7 0.0
2.2624071077903647e7 -3.4445557162151565e6 0.0
0.0 0.0 0.0

-8.651653697643142e6 1.0454752106399346e7 0.0
1.0454752106399346e7 3.8947382890725546e7 0.0
0.0 0.0 0.0

-4.1099578320559757e6 2.131704310003602e7 0.0
2.131704310003602e7 6.4781058658577e6 0.0
0.0 0.0 0.0

-1.1288822416536345e6 1.4248309652496777e7 0.0
1.4248309652496777e7 -4.886980556564019e6 0.0
0.0 0.0 0.0

-3.0568852401539814e6 3.1166253614462437e6 0.0
3.1166253614462437e6 4.583102262969086e6 0.0
0.0 0.0 0.0

1.8465022929950615e6 1.5950868523582788e7 0.0
1.5950868523582788e7 9.10025130701664e6 0.0
0.0 0.0 0.0

-4.486400837420481e6 1.8375386407695197e7 0.0
1.8375386407695197e7 7.578620257717164e6 0.0
0.0 0.0 0.0

1.7343133316590507e6 8.858682847147224e6 0.0
8.858682847147224e6 -8.433667302100938e6 0.0
0.0 0.0 0.0

-2.1445804683268643e6 1.689128154094937e7 0.0
1.689128154094937e7 398136.86734291434 0.0
0.0 0.0 0.0

3.4600952901296644e6 1.6806096200837962e7 0.0
1.6806096200837962e7 -3.4290133554202984e6 0.0
0.0 0.0 0.0

-2.174018804991743e6 1.1535186281671729e7 0.0
1.1535186281671729e7 -531062.8700875753 0.0
0.0 0.0 0.0

-1.4388358676205557e6 1.3593339389288124e7 0.0
1.3593339389288124e7 -2.104594430080121e7 0.0
0.0 0.0 0.0

-5.64216289430557e6 1.435130924625219e7 0.0
1.435130924625219e7 4.889912517071381e6 0.0
0.0 0.0 0.0

-9.193644431971911e6 1.5557035932387985e7 0.0
1.5557035932387985e7 1.7988944301716086e7 0.0
0.0 0.0 0.0

-9.588813574912978e6 -2.1140062701960765e6 0.0
-2.1140062701960765e6 1.9065204821419977e7 0.0
0.0 0.0 0.0

-8.3268212200552765e6 1.8600156374273065e7 0.0
1.8600156374273065e7 513225.4830935886 0.0
0.0 0.0 0.0

-6.250926120039718e6 2.2357288876675744e7 0.0
2.2357288876675744e7 6.326990547258893e6 0.0
0.0 0.0 0.0

4.581726332883208e6 2.2719780943170946e7 0.0
2.2719780943170946e7 -5.197206251753403e6 0.0
0.0 0.0 0.0

-1.228967883172283e7 2.7426367881929777e6 0.0
2.7426367881929777e6 2.2276894854870357e7 0.0
0.0 0.0 0.0

-2.2175717761290045e6 1.417900522461525e7 0.0
1.417900522461525e7 -2.1923013836918473e7 0.0
0.0 0.0 0.0

-4.52310746966058e6 2.2221672079376943e7 0.0
2.2221672079376943e7 6.066504907614896e6 0.0
0.0 0.0 0.0

490537.16699337866 1.509547683693216e7 0.0
1.509547683693216e7 -6.867126037596444e6 0.0
0.0 0.0 0.0

-1.3164264001379113e6 1.277395426310441e7 0.0
1.277395426310441e7 -6.19744260738531e6 0.0
0.0 0.0 0.0

-8.175717949208321e6 630619.2661988119 0.0
630619.2661988119 1.229973425901544e7 0.0
0.0 0.0 0.0

-7.675829794508783e6 2.4451601178448353e7 0.0
2.4451601178448353e7 6.111618002146956e6 0.0
0.0 0.0 0.0

-2.9463296315548415e6 1.8575467629440553e7 0.0
1.8575467629440553e7 -117256.45686571114 0.0
0.0 0.0 0.0

1.4824466523021322e6 1.6502579113039551e7 0.0
1.6502579113039551e7 9.707776763693552e6 0.0
0.0 0.0 0.0

-159426.37844917137 3.5909265244251876e6 0.0
3.5909265244251876e6 -239062.31818538232 0.0
0.0 0.0 0.0

1.95742547849959e6 1.5985894932603829e7 0.0
1.5985894932603829e7 2.7517880943637667e6 0.0
0.0 0.0 0.0

2.1186768912071846e6 8.298934980463226e6 0.0
8.298934980463226e6 -3.927497024495401e7 0.0
0.0 0.0 0.0

1.0231566916645193e6 2.5415850783923265e7 0.0
2.5415850783923265e7 -3.350639538875844e6 0.0
0.0 0.0 0.0

-5.2307425554526765e6 1.9280831262873698e7 0.0
1.9280831262873698e7 8.564967363979215e6 0.0
0.0 0.0 0.0

-7.943615099764589e6 7.378528972692496e6 0.0
7.378528972692496e6 8.2602672134424895e6 0.0
0.0 0.0 0.0

-613889.6469183067 1.6426742279077286e7 0.0
1.6426742279077286e7 -2.4935800412556496e6 0.0
0.0 0.0 0.0

1.7201241742304116e6 9.890617619834494e6 0.0
9.890617619834494e6 -3.6370342599258445e7 0.0
0.0 0.0 0.0

105995.93454399705 1.402357441860152e7 0.0
1.402357441860152e7 -1.7078809822408516e7 0.0
0.0 0.0 0.0

-7.9234309388143625e6 2.6528241879392337e7 0.0
2.6528241879392337e7 4.923731618274213e6 0.0
0.0 0.0 0.0

-1.8276734840761542e6 1.4898910742308326e7 0.0
1.4898910742308326e7 -6.092245559061061e6 0.0
0.0 0.0 0.0

-2.9323625713835536e6 1.8252785827519894e7 0.0
1.8252785827519894e7 -7.644354314211383e6 0.0
0.0 0.0 0.0

-3.943932172830435e6 1.943882532588792e7 0.0
1.943882532588792e7 4.710640996293973e6 0.0
0.0 0.0 0.0

322934.83641650015 1.4857434951709062e7 0.0
1.4857434951709062e7 -1.009873676336358e7 0.0
0.0 0.0 0.0

3.4999982045784583e6 1.7204131599919792e7 0.0
1.7204131599919792e7 4.250491469720798e6 0.0
0.0 0.0 0.0

-5.881275332651522e6 1.929504459754284e7 0.0
1.929504459754284e7 -6.031911860997474e6 0.0
0.0 0.0 0.0

-1.8510396820323581e6 1.7101521234808255e7 0.0
1.7101521234808255e7 3.8890161736222384e6 0.0
0.0 0.0 0.0

-9.075045882906798e6 7.153264587727656e6 0.0
7.153264587727656e6 4.4297552106693916e7 0.0
0.0 0.0 0.0

-366338.7233884644 1.2466705728855802e7 0.0
1.2466705728855802e7 -5.722321960194231e6 0.0
0.0 0.0 0.0

-4.307754741276677e6 1.2946797198444024e7 0.0
1.2946797198444024e7 -1.6494830362555113e7 0.0
0.0 0.0 0.0

-59613.329748708755 1.6012695986939881e7 0.0
1.6012695986939881e7 -1.183646653923668e7 0.0
0.0 0.0 0.0

-4.1191448648601416e6 1.6686726605729675e7 0.0
1.6686726605729675e7 -8.95959867593319e6 0.0
0.0 0.0 0.0

-4.17186699212412e6 1.800356487410937e7 0.0
1.800356487410937e7 7.786830842513846e6 0.0
0.0 0.0 0.0

132984.76654637672 1.3969375308295285e7 0.0
1.3969375308295285e7 443282.6554782736 0.0
0.0 0.0 0.0

-3.4415561138869105e6 2.2573472555961065e7 0.0
2.2573472555961065e7 3.779608332480751e6 0.0
0.0 0.0 0.0

-1.944962210470797e6 1.74287886334134e7 0.0
1.74287886334134e7 316460.729644599 0.0
0.0 0.0 0.0

-9.649757488181408e6 1.0090004790174658e6 0.0
1.0090004790174658e6 4.378659517612853e7 0.0
0.0 0.0 0.0

-1.2857764124443676e7 6.191720295661933e6 0.0
6.191720295661933e6 1.765728912893125e7 0.0
0.0 0.0 0.0

747240.306474478 1.5454285667495467e7 0.0
1.5454285667495467e7 -6.261357640779327e6 0.0
0.0 0.0 0.0

-1.9731976344899505e7 2.1936539738504734e7 0.0
2.1936539738504734e7 5.161621077311603e6 0.0
0.0 0.0 0.0

-1.0096984986718733e7 10260.835567695345 0.0
10260.835567695345 1.2819007903074443e7 0.0
0.0 0.0 0.0

-1.1049557644051358e7 5.211470475302104e6 0.0
5.211470475302104e6 3.529626854769578e7 0.0
0.0 0.0 0.0

-1.549862840312452e6 -228985.10776320338 0.0
-228985.10776320338 1.7905281233475711e6 0.0
0.0 0.0 0.0

-4.344580169180658e6 3.034949774509119e6 0.0
3.034949774509119e6 413966.0557165507 0.0
0.0 0.0 0.0

2.2489375908987643e6 1.0362455242856637e7 0.0
1.0362455242856637e7 -1.6296792072765147e7 0.0
0.0 0.0 0.0

-3.579376956445245e6 1.8831184322229624e7 0.0
1.8831184322229624e7 -518431.9138751789 0.0
0.0 0.0 0.0

-5.258310134941592e6 1.679246790239301e7 0.0
1.679246790239301e7 -7.308033544231748e6 0.0
0.0 0.0 0.0

-4.55621918985878e6 1.786875101156054e7 0.0
1.786875101156054e7 1.0397499178105704e7 0.0
0.0 0.0 0.0

-1.7940289529169407e6 1.3795946809997931e7 0.0
1.3795946809997931e7 -1.64119868162353e7 0.0
0.0 0.0 0.0

86846.76624190295 1.5896348723296372e7 0.0
1.5896348723296372e7 8.987448778012788e6 0.0
0.0 0.0 0.0

-6.087202470352681e6 1.3844270326985795e7 0.0
1.3844270326985795e7 -2.3283234583792303e7 0.0
0.0 0.0 0.0

-3.093250694805175e6 1.725606568054762e7 0.0
1.725606568054762e7 2.3099339508503377e6 0.0
0.0 0.0 0.0

494636.7665287573 1.0484310708009042e7 0.0
1.0484310708009042e7 -4.2946386159865454e7 0.0
0.0 0.0 0.0

1.8638705866770558e6 1.0176762635394733e7 0.0
1.0176762635394733e7 -3.205759695819189e7 0.0
0.0 0.0 0.0

-1.886167665054754e6 1.7642272686326254e7 0.0
1.7642272686326254e7 -7.148051124828872e6 0.0
0.0 0.0 0.0

-8.549311728181165e6 2.1104881260852307e7 0.0
2.1104881260852307e7 -5.002492521133126e6 0.0
0.0 0.0 0.0

-9.81466659634496e6 2.251411941916318e7 0.0
2.251411941916318e7 6.215752409608966e6 0.0
0.0 0.0 0.0

-5.216154056247426e6 1.1716599726000588e7 0.0
1.1716599726000588e7 3.389479139120245e6 0.0
0.0 0.0 0.0

-2.6241768251845026e6 4.483201975955079e6 0.0
4.483201975955079e6 5.3597708700831495e6 0.0
0.0 0.0 0.0

489825.77818460413 1.463847188539074e7 0.0
1.463847188539074e7 -5.616500607102273e6 0.0
0.0 0.0 0.0

5.19973131382956e6 1.7578013399658784e7 0.0
1.7578013399658784e7 -3.383456077970774e6 0.0
0.0 0.0 0.0

-7.799817653495124e6 1.0991685136173215e7 0.0
1.0991685136173215e7 3.970535897198668e7 0.0
0.0 0.0 0.0

-1.973803043649007e6 1.6851137558255937e7 0.0
1.6851137558255937e7 7.546058177674579e6 0.0
0.0 0.0 0.0

-6.229028732065683e6 2.2423008536567666e7 0.0
2.2423008536567666e7 6.443136000658012e6 0.0
0.0 0.0 0.0

-2.488128293000771e6 1.3438851546748806e7 0.0
1.3438851546748806e7 -1.0684060247704586e7 0.0
0.0 0.0 0.0

-1.0871137276279619e7 8.259428951754302e6 0.0
8.259428951754302e6 3.256701037510115e7 0.0
0.0 0.0 0.0

-2.0679919245423633e6 1.656625849856044e7 0.0
1.656625849856044e7 4.0831477331315232e6 0.0
0.0 0.0 0.0

-310318.99450771883 1.6002703498284468e7 0.0
1.6002703498284468e7 -1.1580660682059443e7 0.0
0.0 0.0 0.0

375941.76548048295 1.3226449872980528e7 0.0
1.3226449872980528e7 -1.9755360502120946e7 0.0
0.0 0.0 0.0

2.198799655708723e6 9.281967735646999e6 0.0
9.281967735646999e6 -3.0957884971816704e7 0.0
0.0 0.0 0.0

2.338679745176738e6 9.856575665451098e6 0.0
9.856575665451098e6 -2.5342349840627663e7 0.0
0.0 0.0 0.0

-5.745542076345819e6 1.5673789493993565e7 0.0
1.5673789493993565e7 -3.343631357559704e7 0.0
0.0 0.0 0.0

-3.6775421052197367e6 2.2224478645847756e7 0.0
2.2224478645847756e7 4.3170798374870345e6 0.0
0.0 0.0 0.0

-3.0317063273225883e6 1.8342852047848858e7 0.0
1.8342852047848858e7 -7.01405321589416e6 0.0
0.0 0.0 0.0

-367605.0324025587 1.5358039960042758e7 0.0
1.5358039960042758e7 -1.0303441197413538e7 0.0
0.0 0.0 0.0

1.2289866193007614e7 1.7518194186190218e7 0.0
1.7518194186190218e7 -3.462132869216116e6 0.0
0.0 0.0 0.0

-1.0038853388942959e7 3.3061209555230364e6 0.0
3.3061209555230364e6 3.8942615382019624e7 0.0
0.0 0.0 0.0

915971.280977346 1.0290183110890403e7 0.0
1.0290183110890403e7 -3.696505877378866e7 0.0
0.0 0.0 0.0

2.6669092529470585e6 1.0063170170340285e7 0.0
1.0063170170340285e7 -2.5077779176083274e7 0.0
0.0 0.0 0.0

-7.770403035882592e6 7.18920727481416e6 0.0
7.18920727481416e6 4.923214907134134e7 0.0
0.0 0.0 0.0

1.0681928702150065e7 1.7705399812058896e7 0.0
1.7705399812058896e7 6.424070590000287e6 0.0
0.0 0.0 0.0

-1.0124954546782147e7 6.328001976479633e6 0.0
6.328001976479633e6 3.663461472645094e7 0.0
0.0 0.0 0.0

-2.840328192226605e6 1.5769319777860052e6 0.0
1.5769319777860052e6 2.4149295392042273e6 0.0
0.0 0.0 0.0

-3.834027201194272e6 2.303700594917724e7 0.0
2.303700594917724e7 2.9105543460107027e6 0.0
0.0 0.0 0.0

2.6808081335594812e6 9.668891088718241e6 0.0
9.668891088718241e6 -1.9815893400205314e7 0.0
0.0 0.0 0.0

-6.004046176171721e6 2.488380035702663e7 0.0
2.488380035702663e7 5.700334565068374e6 0.0
0.0 0.0 0.0

-1.0489984024845919e7 1.0634279236103274e7 0.0
1.0634279236103274e7 2.906143642869117e7 0.0
0.0 0.0 0.0

-1.2374096249011716e7 4.363113134763326e6 0.0
4.363113134763326e6 1.6360856666528707e7 0.0
0.0 0.0 0.0

2.0258143387433805e6 2.278537838378043e7 0.0
2.278537838378043e7 -3.850277380733614e6 0.0
0.0 0.0 0.0

-4.7056652398310965e6 1.833126680654404e7 0.0
1.833126680654404e7 1.016565718595558e7 0.0
0.0 0.0 0.0

-776657.2738091081 2.0078646746631972e7 0.0
2.0078646746631972e7 -4.929618181196927e6 0.0
0.0 0.0 0.0

-5.917341011762462e6 2.0391100759779472e7 0.0
2.0391100759779472e7 6.5333813630651515e6 0.0
0.0 0.0 0.0

-1.6088523738553543e6 1.4524951750980293e7 0.0
1.4524951750980293e7 -1.7510679145246282e7 0.0
0.0 0.0 0.0

1.6539098499757359e6 1.788412915960882e7 0.0
1.788412915960882e7 -6.147375386546656e6 0.0
0.0 0.0 0.0

2.884287722510079e6 1.5760310572874254e7 0.0
1.5760310572874254e7 2.6620673131636936e7 0.0
0.0 0.0 0.0

-5.776502722536004e6 2.9153599174291873e6 0.0
2.9153599174291873e6 1.3364302446334314e7 0.0
0.0 0.0 0.0

-3.919231574881153e6 6.6071687225801125e6 0.0
6.6071687225801125e6 -2.839852149116866e6 0.0
0.0 0.0 0.0

-3.0117221494899876e6 1.57318736858577e7 0.0
1.57318736858577e7 -1.0039073695055045e7 0.0
0.0 0.0 0.0

2.6533048904208364e6 1.606704542603724e7 0.0
1.606704542603724e7 8.844350025227204e6 0.0
0.0 0.0 0.0

1.829294129138638e6 2.590232533393873e7 0.0
2.590232533393873e7 -4.49067236422907e6 0.0
0.0 0.0 0.0

4.0316562643781556e6 5.307895302116166e6 0.0
5.307895302116166e6 -1.2841722187633075e7 0.0
0.0 0.0 0.0

-4.282434904515191e6 2.5562836578371353e7 0.0
2.5562836578371353e7 4.372613259273012e6 0.0
0.0 0.0 0.0

-3.2521419033464406e7 1.0546165730636645e7 0.0
1.0546165730636645e7 1.007763619885187e7 0.0
0.0 0.0 0.0

-150911.44306460675 1.6218825894361915e7 0.0
1.6218825894361915e7 -1.0903012338784512e7 0.0
0.0 0.0 0.0

-1.0493281563689297e7 1.2261457000549905e7 0.0
1.2261457000549905e7 2.522123871892329e7 0.0
0.0 0.0 0.0

406477.875028966 1.5604552334632399e7 0.0
1.5604552334632399e7 -6.112385668422038e6 0.0
0.0 0.0 0.0

-4.525852806849319e6 1.872384328539551e7 0.0
1.872384328539551e7 7.908340431277147e6 0.0
0.0 0.0 0.0

-3.336540568454581e6 1.842317316202323e7 0.0
1.842317316202323e7 -1.3863398523919245e6 0.0
0.0 0.0 0.0

531053.1688287584 1.6001484141505092e7 0.0
1.6001484141505092e7 -7.208205298604667e6 0.0
0.0 0.0 0.0

4.319622113770209e6 4.354348190768369e6 0.0
4.354348190768369e6 -3.1255232886562824e7 0.0
0.0 0.0 0.0

-627209.7359835547 1.2459097701341428e7 0.0
1.2459097701341428e7 -2.0906994736204538e6 0.0
0.0 0.0 0.0

5.45410462703253e6 1.8570113028886735e7 0.0
1.8570113028886735e7 -4.494765552790835e6 0.0
0.0 0.0 0.0

-513326.4919093079 1.522473264506779e7 0.0
1.522473264506779e7 -1.1617896397324169e7 0.0
0.0 0.0 0.0

1.8090953807724956e6 1.724572858912458e7 0.0
1.724572858912458e7 7.669793137625789e6 0.0
0.0 0.0 0.0

1.2560814007980395e6 1.0401694864285061e7 0.0
1.0401694864285061e7 -3.2409101162095364e7 0.0
0.0 0.0 0.0

-1.5879004503092675e6 1.792149479470174e7 0.0
1.792149479470174e7 -6.40383951898488e6 0.0
0.0 0.0 0.0

894362.1065604878 1.788120422666546e7 0.0
1.788120422666546e7 1.1873327812602479e7 0.0
0.0 0.0 0.0

1.349182061214811e7 2.1686391424196936e7 0.0
2.1686391424196936e7 -7.18128394002658e6 0.0
0.0 0.0 0.0

1.9799396556267012e6 1.0326608963703219e7 0.0
1.0326608963703219e7 -2.8332041838506028e7 0.0
0.0 0.0 0.0

-2.7295553043352023e7 9.388255667340394e6 0.0
9.388255667340394e6 1.0043532287060827e7 0.0
0.0 0.0 0.0

-293688.7468639356 1.588149189998306e7 0.0
1.588149189998306e7 1.0241294709238252e7 0.0
0.0 0.0 0.0

-5.50401659785839e6 2.5559897565228123e7 0.0
2.5559897565228123e7 5.306191157389881e6 0.0
0.0 0.0 0.0

-500551.94381130626 1.6613004677370727e7 0.0
1.6613004677370727e7 -8.213423641711997e6 0.0
0.0 0.0 0.0

-5.493606841693316e6 2.2640816021484543e7 0.0
2.2640816021484543e7 5.95155080256291e6 0.0
0.0 0.0 0.0

-8.395405324161965e6 1.0275843803827586e7 0.0
1.0275843803827586e7 4.264084866904033e7 0.0
0.0 0.0 0.0

1.558998801793795e6 1.2732167460817989e7 0.0
1.2732167460817989e7 -1.320978951230991e7 0.0
0.0 0.0 0.0

700853.1116092552 2.285248887941807e7 0.0
2.285248887941807e7 -3.820895634036902e6 0.0
0.0 0.0 0.0

-2.0477229530763952e6 9.925301756063282e6 0.0
9.925301756063282e6 76009.77518919611 0.0
0.0 0.0 0.0

-2.5233269855356265e7 8.877973332866011e6 0.0
8.877973332866011e6 1.0017064777218958e7 0.0
0.0 0.0 0.0

-3.579834515392607e6 1.2875585418208033e7 0.0
1.2875585418208033e7 -799489.0208507401 0.0
0.0 0.0 0.0

-1.1897162371642126e7 911264.7410010973 0.0
911264.7410010973 2.234929628144113e7 0.0
0.0 0.0 0.0

-9.709977763838565e6 1.3072322022271484e7 0.0
1.3072322022271484e7 2.6324624199624345e7 0.0
0.0 0.0 0.0

-4.804553487201227e6 2.4195337680221617e7 0.0
2.4195337680221617e7 4.0041152170496387e6 0.0
0.0 0.0 0.0

-5.067599266149782e6 2.6101909473709278e7 0.0
2.6101909473709278e7 4.7653411459452715e6 0.0
0.0 0.0 0.0

-9.909248650292313e6 9.225998420938198e6 0.0
9.225998420938198e6 3.375923220823544e7 0.0
0.0 0.0 0.0

1.4608779864407838e6 1.1650936940436129e7 0.0
1.1650936940436129e7 -1.1037908449743496e7 0.0
0.0 0.0 0.0

3.5061556331150145e6 1.6789494274664328e7 0.0
1.6789494274664328e7 -1.0477170112916636e6 0.0
0.0 0.0 0.0

-1.8814466810329077e6 1.1890642712323464e7 0.0
1.1890642712323464e7 -7.627758298220867e6 0.0
0.0 0.0 0.0

326844.2497702013 8.690908253946677e6 0.0
8.690908253946677e6 -4.081258807719847e6 0.0
0.0 0.0 0.0

-3.8759456345601995e6 2.4033364206724368e7 0.0
2.4033364206724368e7 4.2086718907722775e6 0.0
0.0 0.0 0.0

-1.1005501128110435e7 1.4803388472231477e7 0.0
1.4803388472231477e7 1.9114047612715807e7 0.0
0.0 0.0 0.0

1.4157802871832438e6 1.065082518882676e7 0.0
1.065082518882676e7 -2.882507489924905e7 0.0
0.0 0.0 0.0

-1.68779086078689e7 2.1376837845935024e7 0.0
2.1376837845935024e7 3.9957042794068772e6 0.0
0.0 0.0 0.0

-839150.9783768689 2.067216674752153e7 0.0
2.067216674752153e7 -4.135271688244652e6 0.0
0.0 0.0 0.0

3.5398787802598625e6 5.5611415214977935e6 0.0
5.5611415214977935e6 -3.708243014187241e7 0.0
0.0 0.0 0.0

-4.1125160305479253e6 1.669351897362881e7 0.0
1.669351897362881e7 1.3515929648981776e7 0.0
0.0 0.0 0.0

-3.3918708636705596e6 1.880086619704362e7 0.0
1.880086619704362e7 1.347174335395617e6 0.0
0.0 0.0 0.0

36366.38916161843 1.6360030808510475e7 0.0
1.6360030808510475e7 -1.1083870376413794e7 0.0
0.0 0.0 0.0

-7.1786243556629345e6 2.527780667090812e7 0.0
2.527780667090812e7 6.07297176832177e6 0.0
0.0 0.0 0.0

-2.7510215091737234e6 1.8795053244692177e7 0.0
1.8795053244692177e7 -782143.6969640553 0.0
0.0 0.0 0.0

-5.488171080529105e6 2.4685740982042268e7 0.0
2.4685740982042268e7 4.316126015931526e6 0.0
0.0 0.0 0.0

-1.3038461367620905e6 7.007399098192108e6 0.0
7.007399098192108e6 39565.98795308557 0.0
0.0 0.0 0.0

2.9627600766010997e6 1.544161760477073e7 0.0
1.544161760477073e7 1.1879440909223748e7 0.0
0.0 0.0 0.0

-132887.10735107027 1.4440756760786418e7 0.0
1.4440756760786418e7 -1.548538639155313e7 0.0
0.0 0.0 0.0

-2.507294961013049e6 1.2506280592875993e7 0.0
1.2506280592875993e7 -233188.32814795792 0.0
0.0 0.0 0.0

-73876.14674752532 1.5387115339463977e7 0.0
1.5387115339463977e7 -1.2667226099903077e7 0.0
0.0 0.0 0.0

3.09957756823391e6 7.395173623158369e6 0.0
7.395173623158369e6 -1.5423432824232392e7 0.0
0.0 0.0 0.0

5.983768275694907e6 1.8521487755685743e7 0.0
1.8521487755685743e7 8.108253775501787e6 0.0
0.0 0.0 0.0

-1.005645972353142e7 -2.462978830735833e6 0.0
-2.462978830735833e6 2.840843757624147e7 0.0
0.0 0.0 0.0

3.423509911527494e6 1.5641160595575966e7 0.0
1.5641160595575966e7 1.3560250256436171e7 0.0
0.0 0.0 0.0

-4.0683003200132092e6 2.2761325697149754e7 0.0
2.2761325697149754e7 3.5080808977445466e6 0.0
0.0 0.0 0.0

356084.35976188164 1.4223544436056223e7 0.0
1.4223544436056223e7 -1.737083135907732e7 0.0
0.0 0.0 0.0

454601.58327239635 2.238453644084049e7 0.0
2.238453644084049e7 -3.3106308655807967e6 0.0
0.0 0.0 0.0

-146362.5948847368 1.5811830775723612e7 0.0
1.5811830775723612e7 -2.0196898247445081e6 0.0
0.0 0.0 0.0

3.330395801073908e6 9.326855349392349e6 0.0
9.326855349392349e6 -1.9270848579996094e7 0.0
0.0 0.0 0.0

-1.1431553035642654e6 2.0185875766267683e7 0.0
2.0185875766267683e7 -5.098429745090492e6 0.0
0.0 0.0 0.0

-107073.38239072077 1.470685032806737e7 0.0
1.470685032806737e7 -1.4532925849549644e7 0.0
0.0 0.0 0.0

-8.38975933529923e6 4.657469435943435e6 0.0
4.657469435943435e6 1.0901423076562501e7 0.0
0.0 0.0 0.0

712406.2803056836 1.7372806140737202e7 0.0
1.7372806140737202e7 1.106855682425553e7 0.0
0.0 0.0 0.0

-5.162162851147449e6 1.902053471634512e7 0.0
1.902053471634512e7 7.633414157426217e6 0.0
0.0 0.0 0.0

-4.21927172221553e6 2.326225178114093e7 0.0
2.326225178114093e7 3.619077217853479e6 0.0
0.0 0.0 0.0

-1.6963568132665474e6 1.6173480326029552e7 0.0
1.6173480326029552e7 7.52772315803905e6 0.0
0.0 0.0 0.0

-2.845428886152586e6 4.458022635415763e6 0.0
4.458022635415763e6 3.7188945791858984e6 0.0
0.0 0.0 0.0

-1.187463942646332e7 7.6314857814347735e6 0.0
7.6314857814347735e6 2.790057674245361e7 0.0
0.0 0.0 0.0

-105857.10804757243 1.5764262392519662e7 0.0
1.5764262392519662e7 -1.180210590993717e7 0.0
0.0 0.0 0.0

-450981.7056168243 1.2701403184444876e7 0.0
1.2701403184444876e7 -4.18796224325427e7 0.0
0.0 0.0 0.0

-2.5130349392815493e6 5.470207072438464e6 0.0
5.470207072438464e6 2.822001287600113e6 0.0
0.0 0.0 0.0

-1.0652177554836689e7 -696555.7588292648 0.0
-696555.7588292648 1.584524550521046e7 0.0
0.0 0.0 0.0

-5.851506563176416e6 1.4747263002932783e7 0.0
1.4747263002932783e7 5.991298778369079e6 0.0
0.0 0.0 0.0

-1.1649970381528947e6 2.085614775302928e7 0.0
2.085614775302928e7 -3.5560883089205315e6 0.0
0.0 0.0 0.0

-1.6158898359206412e6 1.3525949730669033e7 0.0
1.3525949730669033e7 -2.744977448659757e7 0.0
0.0 0.0 0.0

3.6078518635117607e6 7.109707700908493e6 0.0
7.109707700908493e6 -1.3476899884837091e7 0.0
0.0 0.0 0.0

-3.2572097283512154e6 2.2851559725797776e7 0.0
2.2851559725797776e7 3.1931584695325177e6 0.0
0.0 0.0 0.0

-530046.403612933 2.043164641431508e7 0.0
2.043164641431508e7 -4.709343767652338e6 0.0
0.0 0.0 0.0

-8.877682040558906e6 2.9442613761921078e7 0.0
2.9442613761921078e7 4.483992955720813e6 0.0
0.0 0.0 0.0

-3.5247079835024634e6 2.304655852190473e7 0.0
2.304655852190473e7 3.9411296244601794e6 0.0
0.0 0.0 0.0

-1.6502234201872056e7 2.2957613591073047e7 0.0
2.2957613591073047e7 -2.1930802186438083e6 0.0
0.0 0.0 0.0

-2.12100264066574e6 1.7646634064420525e7 0.0
1.7646634064420525e7 -1.259469858623461e6 0.0
0.0 0.0 0.0

-705552.9012256414 1.2582181082975768e7 0.0
1.2582181082975768e7 -3.865122276725089e7 0.0
0.0 0.0 0.0

-3.311789234464359e6 1.1920660084195035e7 0.0
1.1920660084195035e7 -1.1207388466048639e6 0.0
0.0 0.0 0.0

-1.112061546326473e7 115143.51462931803 0.0
115143.51462931803 3.279318753385118e7 0.0
0.0 0.0 0.0

-1.0541665124624848e7 4.0586737078021117e6 0.0
4.0586737078021117e6 3.832256168033684e7 0.0
0.0 0.0 0.0

3.8631517395349443e6 6.283420425237515e6 0.0
6.283420425237515e6 -2.7789857517078504e7 0.0
0.0 0.0 0.0

-4.864793680543116e6 2.013541715783934e7 0.0
2.013541715783934e7 7.8196262161023235e6 0.0
0.0 0.0 0.0

-8.439450052998781e6 1.126053130761207e7 0.0
1.126053130761207e7 3.624550073924106e7 0.0
0.0 0.0 0.0

-79299.59046513867 1.5041213159204623e7 0.0
1.5041213159204623e7 -1.3585722008487344e7 0.0
0.0 0.0 0.0

-6.69728500806037e6 1.325487985645219e7 0.0
1.325487985645219e7 3.3167573996438265e7 0.0
0.0 0.0 0.0

-1.5088124436194925e6 2.040006857475136e7 0.0
2.040006857475136e7 -4.566488817637003e6 0.0
0.0 0.0 0.0

-446904.1939329561 2.404036813889785e7 0.0
2.404036813889785e7 -2.18953623360433e6 0.0
0.0 0.0 0.0

12585.281861466588 1.5705441910380956e7 0.0
1.5705441910380956e7 -3.3121068576020887e6 0.0
0.0 0.0 0.0

-1.1128991703203548e7 1.8224247647259447e6 0.0
1.8224247647259447e6 1.6272354113698628e7 0.0
0.0 0.0 0.0

-1.095743307029956e6 1.6007825184263308e7 0.0
1.6007825184263308e7 9.044040233966747e6 0.0
0.0 0.0 0.0

-5.07794761026055e6 1.4279104863060096e7 0.0
1.4279104863060096e7 6.7875531549132615e6 0.0
0.0 0.0 0.0

4.398822448424039e6 4.923897393669417e6 0.0
4.923897393669417e6 -2.5432061717303094e7 0.0
0.0 0.0 0.0

1.8963154928163416e6 1.7637598005096696e7 0.0
1.7637598005096696e7 -5.555355299017996e6 0.0
0.0 0.0 0.0

-1.1636146497513631e7 1.6908269919324245e7 0.0
1.6908269919324245e7 7.666522107577265e6 0.0
0.0 0.0 0.0

-1.5193532262033468e7 1.9720235900950663e7 0.0
1.9720235900950663e7 -3.656153889006014e6 0.0
0.0 0.0 0.0

-3.346352414585104e6 2.3081646478059635e7 0.0
2.3081646478059635e7 1.6922462007199677e6 0.0
0.0 0.0 0.0

655035.2738307398 1.1314704037450282e7 0.0
1.1314704037450282e7 -1.049097857483794e7 0.0
0.0 0.0 0.0

-3.5822078753109523e6 1.7445086670437e7 0.0
1.7445086670437e7 -1.0058083116116126e6 0.0
0.0 0.0 0.0

-1.0159371232335645e6 2.4160709002638083e7 0.0
2.4160709002638083e7 -423375.8503194624 0.0
0.0 0.0 0.0

-5.031073147651482e6 1.673722298930568e7 0.0
1.673722298930568e7 1.4774594612115994e7 0.0
0.0 0.0 0.0

-2.333179497461195e6 1.6432277032396574e7 0.0
1.6432277032396574e7 7.678875120692871e6 0.0
0.0 0.0 0.0

1.4766102109084646e6 1.0975869908327937e7 0.0
1.0975869908327937e7 -9.952843336789407e6 0.0
0.0 0.0 0.0

-2.977198198629085e6 2.559582512578719e7 0.0
2.559582512578719e7 2.5903311378666665e6 0.0
0.0 0.0 0.0

-1.1464900637188498e7 -1.2024872870167207e6 0.0
-1.2024872870167207e6 2.4413514570786882e7 0.0
0.0 0.0 0.0

4.585052544759344e6 5.783913303008664e6 0.0
5.783913303008664e6 -2.028902057917236e7 0.0
0.0 0.0 0.0

-1.8499886523237561e6 2.233518940115521e7 0.0
2.233518940115521e7 -770822.704697672 0.0
0.0 0.0 0.0

9534.36026556883 1.4668222254963364e7 0.0
1.4668222254963364e7 -1.5843782990307355e7 0.0
0.0 0.0 0.0

-1.6217348162699444e6 2.1795219481703043e6 0.0
2.1795219481703043e6 1.9095105935616614e6 0.0
0.0 0.0 0.0

1.273286986926149e6 8.729180351205045e6 0.0
8.729180351205045e6 -9.911293223845877e6 0.0
0.0 0.0 0.0

-6.2286051276491685e6 2.043399889149608e7 0.0
2.043399889149608e7 -3.435962624473322e6 0.0
0.0 0.0 0.0

2.9333111595253274e6 1.0279157379792815e7 0.0
1.0279157379792815e7 -1.877020636030804e7 0.0
0.0 0.0 0.0

5.468417470839566e6 1.8771531493554287e7 0.0
1.8771531493554287e7 8.572668608979097e6 0.0
0.0 0.0 0.0

-2.6309318757561175e6 7.432508771067801e6 0.0
7.432508771067801e6 -607162.6942664799 0.0
0.0 0.0 0.0

-3.4839126550828987e6 4.538155679971696e6 0.0
4.538155679971696e6 1.451654071469522e6 0.0
0.0 0.0 0.0

3.176020241461437e6 2.2809202468652256e7 0.0
2.2809202468652256e7 -4.353157866067648e6 0.0
0.0 0.0 0.0

-1.0950227950297797e7 -837045.6148883954 0.0
-837045.6148883954 2.408314429796682e7 0.0
0.0 0.0 0.0

944742.9078463558 1.3674060588466246e7 0.0
1.3674060588466246e7 -1.1410796431634458e7 0.0
0.0 0.0 0.0

575633.0828822884 1.4858208687108856e7 0.0
1.4858208687108856e7 1.3484925488106695e6 0.0
0.0 0.0 0.0

8.63419746037163e6 1.9615158653400917e7 0.0
1.9615158653400917e7 -5.0368776306825355e6 0.0
0.0 0.0 0.0

939563.345408719 1.4374613996406592e7 0.0
1.4374613996406592e7 -1.3939675983789446e7 0.0
0.0 0.0 0.0

4.743943170176536e6 1.6239396925414434e7 0.0
1.6239396925414434e7 1.845656953607547e7 0.0
0.0 0.0 0.0

-7.195547927158766e6 2.2614063023884047e7 0.0
2.2614063023884047e7 6.207113626446235e6 0.0
0.0 0.0 0.0

-1.0421367414484438e7 -264487.32791021734 0.0
-264487.32791021734 3.0499072080337554e7 0.0
0.0 0.0 0.0

-1.4980860903174274e6 2.2366693935176842e7 0.0
2.2366693935176842e7 -1.227029709502875e6 0.0
0.0 0.0 0.0

-1.8649937270138217e6 1.69862440386733e7 0.0
1.69862440386733e7 1.3186248147919832e7 0.0
0.0 0.0 0.0

2.3299392869594097e6 9.941601998222128e6 0.0
9.941601998222128e6 -1.587740876914955e7 0.0
0.0 0.0 0.0

4.737840675779527e6 4.986053057484314e6 0.0
4.986053057484314e6 -2.8148115854867626e7 0.0
0.0 0.0 0.0

-3.137508167621809e6 1.860754211322071e7 0.0
1.860754211322071e7 -2.0226061242928123e6 0.0
0.0 0.0 0.0

-7.315184443407321e6 8.974733852869099e6 0.0
8.974733852869099e6 1.1087040074576173e7 0.0
0.0 0.0 0.0

-1.0961399513914995e7 1.3814943455412565e7 0.0
1.3814943455412565e7 2.2511769502378896e7 0.0
0.0 0.0 0.0

250172.55449432414 1.3960137198366426e7 0.0
1.3960137198366426e7 -1.839133872542288e7 0.0
0.0 0.0 0.0

-266938.77110321634 1.2119970914720405e7 0.0
1.2119970914720405e7 -3.617647672190561e7 0.0
0.0 0.0 0.0

-1.2740892669376305e6 2.2794139137670394e7 0.0
2.2794139137670394e7 -1.1589256560245925e6 0.0
0.0 0.0 0.0

-1.4735672352779952e6 1.6193556794858899e7 0.0
1.6193556794858899e7 5.790280164338052e6 0.0
0.0 0.0 0.0

-2.9927276322603002e7 9.819968483500447e6 0.0
9.819968483500447e6 9.85994273177403e6 0.0
0.0 0.0 0.0

5.224229857787242e6 1.6621568667700319e7 0.0
1.6621568667700319e7 2.1242839177183583e7 0.0
0.0 0.0 0.0

-2.7681307944067128e7 2.4800650146185722e7 0.0
2.4800650146185722e7 8.80192200483476e6 0.0
0.0 0.0 0.0

2.682236866003667e6 9.618419961812587e6 0.0
9.618419961812587e6 -2.245482908501955e7 0.0
0.0 0.0 0.0

5.5463658249465255e6 5.173540296826119e6 0.0
5.173540296826119e6 -1.0597771681395615e6 0.0
0.0 0.0 0.0

-1.4743975583323367e7 -1.6352383626136659e6 0.0
-1.6352383626136659e6 7.152895593923326e6 0.0
0.0 0.0 0.0

-6.116124727365108e6 8.067350669819127e6 0.0
8.067350669819127e6 9.057821292739294e6 0.0
0.0 0.0 0.0

-1.095462056025577e7 967477.5717746828 0.0
967477.5717746828 2.8909998287562042e7 0.0
0.0 0.0 0.0

-1.201699072133503e7 1.2020681493577121e6 0.0
1.2020681493577121e6 2.3615305191952422e7 0.0
0.0 0.0 0.0

201173.26293714996 1.558617024950309e7 0.0
1.558617024950309e7 -1.3018560005380364e7 0.0
0.0 0.0 0.0

-1.9625431371156266e6 1.2535630494236765e7 0.0
1.2535630494236765e7 -6.541810697598616e6 0.0
0.0 0.0 0.0

1.2608238562450663e6 1.3935392889406014e7 0.0
1.3935392889406014e7 4.20274633633555e6 0.0
0.0 0.0 0.0

742584.7325854137 1.4619981888373721e7 0.0
1.4619981888373721e7 -1.0597219084209364e6 0.0
0.0 0.0 0.0

-1.0129482496408941e6 2.3204893950435136e7 0.0
2.3204893950435136e7 -1.0621734325287845e6 0.0
0.0 0.0 0.0

-1.0413184476595487e7 7.451119752638026e6 0.0
7.451119752638026e6 1.5769824569912517e7 0.0
0.0 0.0 0.0

204236.090963657 1.4870265889513358e7 0.0
1.4870265889513358e7 -1.3131891398845961e7 0.0
0.0 0.0 0.0

-4.0611059655542886e6 2.0287722005755905e7 0.0
2.0287722005755905e7 2.8326900569118736e6 0.0
0.0 0.0 0.0

3.178698314264372e6 8.07094874125801e6 0.0
8.07094874125801e6 -2.598858616625862e7 0.0
0.0 0.0 0.0

-1.1029530299580878e7 126227.04419580952 0.0
126227.04419580952 2.585394181535071e7 0.0
0.0 0.0 0.0

-1.3491574222037168e6 2.188141025624688e7 0.0
2.188141025624688e7 -2.0069069621333007e6 0.0
0.0 0.0 0.0

-1.34368002993721e6 1.6154589107465979e7 0.0
1.6154589107465979e7 4.0116953087446075e6 0.0
0.0 0.0 0.0

-1.2195362301676208e6 1.6302629589234918e7 0.0
1.6302629589234918e7 2.26037212760634e6 0.0
0.0 0.0 0.0

-4.203311222321156e6 1.937620543693973e7 0.0
1.937620543693973e7 -7.210526392591675e6 0.0
0.0 0.0 0.0

3.4702735212467615e6 1.4328424781097598e7 0.0
1.4328424781097598e7 1.282967757555569e7 0.0
0.0 0.0 0.0

-3.8277004198334855e6 1.8493076713224545e7 0.0
1.8493076713224545e7 -6.011485217731603e6 0.0
0.0 0.0 0.0

-1.0275110464787707e7 1.1745150762231862e7 0.0
1.1745150762231862e7 2.7232463722697113e7 0.0
0.0 0.0 0.0

-1.1167671820343286e7 -283048.87002737646 0.0
-283048.87002737646 3.008256653586968e7 0.0
0.0 0.0 0.0

2.9386772714346778e6 9.593941006021416e6 0.0
9.593941006021416e6 -1.5308735013795715e7 0.0
0.0 0.0 0.0

3.9958306081916243e6 5.645641810188831e6 0.0
5.645641810188831e6 -2.8992632003234494e7 0.0
0.0 0.0 0.0

569228.2905545784 1.5217435615498928e7 0.0
1.5217435615498928e7 -1.2167529945319489e7 0.0
0.0 0.0 0.0

3.113289736769202e6 1.7827665706573974e7 0.0
1.7827665706573974e7 6.532378624493793e6 0.0
0.0 0.0 0.0

3.247969922141198e6 6.538818487520925e6 0.0
6.538818487520925e6 -1.4396170833291773e7 0.0
0.0 0.0 0.0

-4.140763840672621e6 1.4477517523502529e7 0.0
1.4477517523502529e7 -2.1340554674757034e7 0.0
0.0 0.0 0.0

91676.67649407312 1.1818165364776203e7 0.0
1.1818165364776203e7 -3.382211407705788e7 0.0
0.0 0.0 0.0

-5.335061019320829e6 1.3855553561084107e7 0.0
1.3855553561084107e7 3.750193429395731e6 0.0
0.0 0.0 0.0

-5.823599053294703e6 2.035069217223665e7 0.0
2.035069217223665e7 7.507455385134062e6 0.0
0.0 0.0 0.0

-5.362686967275985e6 1.913689979665472e7 0.0
1.913689979665472e7 -6.023353102329914e6 0.0
0.0 0.0 0.0

-1.0023616644285355e7 1.1407847469393408e6 0.0
1.1407847469393408e6 3.802677964578979e7 0.0
0.0 0.0 0.0

452657.54716909863 1.1657596597330969e7 0.0
1.1657596597330969e7 -3.1804762636260737e7 0.0
0.0 0.0 0.0

-1.0038850347406467e7 1.1147741984963333e7 0.0
1.1147741984963333e7 2.934242396382278e7 0.0
0.0 0.0 0.0

-1.2193694722933343e6 1.645691293377905e7 0.0
1.645691293377905e7 530543.0895994008 0.0
0.0 0.0 0.0

-1.7328121039153975e6 2.2968365782024942e7 0.0
2.2968365782024942e7 -1.4323456622649995e6 0.0
0.0 0.0 0.0

-1.0971485510485426e7 2.2168795317719493e7 0.0
2.2168795317719493e7 5.684024007709381e6 0.0
0.0 0.0 0.0

-1.1559378651730394e7 1.2872615446812013e7 0.0
1.2872615446812013e7 2.253575439255346e7 0.0
0.0 0.0 0.0

-3.033883784596546e6 1.2414685946828365e7 0.0
1.2414685946828365e7 -1.229445628926335e7 0.0
0.0 0.0 0.0

2.1849590267239707e6 1.4911023010242812e7 0.0
1.4911023010242812e7 8.215448354092966e6 0.0
0.0 0.0 0.0

3.6365986782936472e6 6.768056239777704e6 0.0
6.768056239777704e6 -2.6719547819622464e7 0.0
0.0 0.0 0.0

1.7489527734468495e6 8.207261854124648e6 0.0
8.207261854124648e6 -1.0746411445423413e7 0.0
0.0 0.0 0.0

-1.1155026661073856e7 8.799833766567979e6 0.0
8.799833766567979e6 2.9316431921075705e7 0.0
0.0 0.0 0.0

-4.196002789633022e6 1.7698621738061827e7 0.0
1.7698621738061827e7 9.20613715825865e6 0.0
0.0 0.0 0.0

-2.486550466557736e7 2.1888516095866185e7 0.0
2.1888516095866185e7 4.505509179324355e6 0.0
0.0 0.0 0.0

775564.2071259301 1.2839250738472352e7 0.0
1.2839250738472352e7 -2.0127068490000576e7 0.0
0.0 0.0 0.0

2.694546323119862e6 9.194683039186537e6 0.0
9.194683039186537e6 -2.5144454489200424e7 0.0
0.0 0.0 0.0

778951.8073260728 1.1609330082318898e7 0.0
1.1609330082318898e7 -2.9935138845759146e7 0.0
0.0 0.0 0.0

2.8438958348282203e6 4.594108566125499e6 0.0
4.594108566125499e6 -8.705644689713428e6 0.0
0.0 0.0 0.0

-390968.3153672372 1.6749102574606191e7 0.0
1.6749102574606191e7 -8.607145907840852e6 0.0
0.0 0.0 0.0

252998.5234840284 1.780136303176068e7 0.0
1.780136303176068e7 -7.791589570754631e6 0.0
0.0 0.0 0.0

-1.7036774423971385e7 2.8225751567304295e7 0.0
2.8225751567304295e7 7.841121916666077e6 0.0
0.0 0.0 0.0

1.8565520440464073e6 4.612510042128182e6 0.0
4.612510042128182e6 -5.664302968564428e6 0.0
0.0 0.0 0.0

122354.04473352991 1.4950392220683035e7 0.0
1.4950392220683035e7 -1.4836683925897595e7 0.0
0.0 0.0 0.0

-1.0351544942378372e7 1.5096845285938298e7 0.0
1.5096845285938298e7 1.9545101778562095e7 0.0
0.0 0.0 0.0

-1.0608497486288637e7 -67666.65875700662 0.0
-67666.65875700662 2.0998621400392316e7 0.0
0.0 0.0 0.0

4.208823935543522e6 5.417372456102267e6 0.0
5.417372456102267e6 -2.4473615470452502e7 0.0
0.0 0.0 0.0

-1.1380703802377779e7 2.4419642462527505e6 0.0
2.4419642462527505e6 2.097196658441636e7 0.0
0.0 0.0 0.0

-1.1423365720061945e7 2.693667655099936e6 0.0
2.693667655099936e6 2.532698525203622e7 0.0
0.0 0.0 0.0

-7.726658965643962e6 7.597032356541537e6 0.0
7.597032356541537e6 1.2325569264082527e7 0.0
0.0 0.0 0.0

-4.958251042176833e6 1.8828987019407157e7 0.0
1.8828987019407157e7 9.678487577200547e6 0.0
0.0 0.0 0.0

-1.7950571511504997e6 1.0542454711649613e7 0.0
1.0542454711649613e7 -824244.9461377413 0.0
0.0 0.0 0.0

1.4495945385189332e7 5.7142828201114265e6 0.0
5.7142828201114265e6 -3.0132525557944393e6 0.0
0.0 0.0 0.0

-2.8045373589277036e7 409643.9869233092 0.0
409643.9869233092 8.59153179381105e6 0.0
0.0 0.0 0.0

3.0141023714105315e6 7.739783963291649e6 0.0
7.739783963291649e6 -1.1374388726908833e7 0.0
0.0 0.0 0.0

3.375684296409121e6 8.810611561175887e6 0.0
8.810611561175887e6 -2.456356992607999e7 0.0
0.0 0.0 0.0

3.892286886589188e6 7.557211001257848e6 0.0
7.557211001257848e6 -2.5212793951819353e7 0.0
0.0 0.0 0.0

495317.7300981916 1.4627707748340832e6 0.0
1.4627707748340832e6 942385.000484576 0.0
0.0 0.0 0.0

-1.8990407182110846e6 -1.844072788532257e6 0.0
-1.844072788532257e6 2.8515265205624057e6 0.0
0.0 0.0 0.0

-2.3954395990553433e6 1.4383012604954839e7 0.0
1.4383012604954839e7 -1.9796469343394104e7 0.0
0.0 0.0 0.0

4.0785368910137936e6 5.637136229297317e6 0.0
5.637136229297317e6 -2.7333737444637656e7 0.0
0.0 0.0 0.0

-1.694839246519886e7 2.093635175379497e7 0.0
2.093635175379497e7 -5.082527026570584e6 0.0
0.0 0.0 0.0

-7.146392185917535e6 1.6724459433008142e7 0.0
1.6724459433008142e7 1.2825047969782371e7 0.0
0.0 0.0 0.0

-1.2497209468149997e6 2.137082514605377e7 0.0
2.137082514605377e7 -2.77188790056303e6 0.0
0.0 0.0 0.0

2.905355721256461e6 1.4190282288433343e7 0.0
1.4190282288433343e7 1.1143585045186143e7 0.0
0.0 0.0 0.0

7.234265759306265e6 1.0149780568795325e7 0.0
1.0149780568795325e7 1.418347238788563e6 0.0
0.0 0.0 0.0

-8.344924287314008e6 2.156546274952149e7 0.0
2.156546274952149e7 -5.116827817111436e6 0.0
0.0 0.0 0.0

-1.0893218287626328e7 3.57494850211984e6 0.0
3.57494850211984e6 3.2811340862722468e7 0.0
0.0 0.0 0.0

-5.644469720110973e6 1.9673308408009965e7 0.0
1.9673308408009965e7 7.643574655447158e6 0.0
0.0 0.0 0.0

643769.2912743972 1.7826103732045487e7 0.0
1.7826103732045487e7 -7.092926025253277e6 0.0
0.0 0.0 0.0

-9.898162427359197e6 1.5383229162638474e7 0.0
1.5383229162638474e7 1.88576310970088e7 0.0
0.0 0.0 0.0

-9.198376867775885e6 -3.7912246123301215e6 0.0
-3.7912246123301215e6 1.999025448232569e7 0.0
0.0 0.0 0.0

-2.1691861342337886e6 2.2100361834058233e7 0.0
2.2100361834058233e7 -1.6464389966904696e6 0.0
0.0 0.0 0.0

2.847825364771e6 9.107741817967648e6 0.0
9.107741817967648e6 -2.366081244912816e7 0.0
0.0 0.0 0.0

-155289.38222634885 2.073262735799902e7 0.0
2.073262735799902e7 -4.606528190986326e6 0.0
0.0 0.0 0.0

4.356490076325839e6 6.3675781788760815e6 0.0
6.3675781788760815e6 -2.6081797034019694e7 0.0
0.0 0.0 0.0

3.0052946713733957e6 1.5890175701965455e7 0.0
1.5890175701965455e7 1.0998432169057572e7 0.0
0.0 0.0 0.0

-1.3786929433112103e6 1.7198504697530948e7 0.0
1.7198504697530948e7 -7.397120956233886e6 0.0
0.0 0.0 0.0

-9.367794779924553e6 1.2844685108580813e6 0.0
1.2844685108580813e6 1.1218861971574375e7 0.0
0.0 0.0 0.0

-1.3089915592054082e6 1.2561701969455672e7 0.0
1.2561701969455672e7 -6.882207323916688e6 0.0
0.0 0.0 0.0

4.76989518012647e6 5.05008148249186e6 0.0
5.05008148249186e6 -2.643402703201096e7 0.0
0.0 0.0 0.0

6.523495644572493e6 2.0760180508100864e7 0.0
2.0760180508100864e7 -5.276167948555965e6 0.0
0.0 0.0 0.0

2.9113031484697293e6 7.078622758754793e6 0.0
7.078622758754793e6 -1.3584885378603315e7 0.0
0.0 0.0 0.0

-1.2079009021293048e7 3.7396040133005795e6 0.0
3.7396040133005795e6 1.5467114857119512e7 0.0
0.0 0.0 0.0

-3.9593072092325613e6 2.2259709682363722e7 0.0
2.2259709682363722e7 3.3073884436372304e6 0.0
0.0 0.0 0.0

847851.9003560618 1.1576689196527677e7 0.0
1.1576689196527677e7 -2.8103931015425198e7 0.0
0.0 0.0 0.0

-3.385882276025973e6 1.2949382107218556e7 0.0
1.2949382107218556e7 -1.1286274397253348e7 0.0
0.0 0.0 0.0

2.2243891660873387e6 1.4236781057294298e7 0.0
1.4236781057294298e7 7.41463079171179e6 0.0
0.0 0.0 0.0

-2.4201415507865185e6 1.0965819420029491e7 0.0
1.0965819420029491e7 409709.9529436539 0.0
0.0 0.0 0.0

-6.261231442048746e6 1.260932712213013e7 0.0
1.260932712213013e7 5.933067750776444e6 0.0
0.0 0.0 0.0

206406.17289385898 1.6330530391442735e7 0.0
1.6330530391442735e7 1.1539979492765274e7 0.0
0.0 0.0 0.0

-9.397651472736456e6 -1.75032313114859e6 0.0
-1.75032313114859e6 1.745658124182087e7 0.0
0.0 0.0 0.0

594390.4661922539 1.6302137028978832e7 0.0
1.6302137028978832e7 3.2591528037488908e6 0.0
0.0 0.0 0.0

-5.425872837535684e6 1.8459053172009446e7 0.0
1.8459053172009446e7 9.990705249307243e6 0.0
0.0 0.0 0.0

2.5795939194610277e6 7.17701911720225e6 0.0
7.17701911720225e6 -1.2260286767035857e7 0.0
0.0 0.0 0.0

-1.1895973361505415e7 967570.4967856514 0.0
967570.4967856514 1.901211973722763e7 0.0
0.0 0.0 0.0

-3.0037361932383366e6 1.805972106374926e7 0.0
1.805972106374926e7 -5.22131355939801e6 0.0
0.0 0.0 0.0

-1.018510521713314e7 1.5464796769467734e7 0.0
1.5464796769467734e7 1.7898840634793762e7 0.0
0.0 0.0 0.0

-1.6970726951339585e6 1.6694192086222118e7 0.0
1.6694192086222118e7 1.0697126233450565e7 0.0
0.0 0.0 0.0

-1.1964346577213671e7 4.884103129505875e6 0.0
4.884103129505875e6 2.0831696497849744e7 0.0
0.0 0.0 0.0

-1391.9596753427759 1.7568411121791597e7 0.0
1.7568411121791597e7 -8.297183669717588e6 0.0
0.0 0.0 0.0

-5.519096877796372e6 2.2033346689330783e7 0.0
2.2033346689330783e7 6.384561957815269e6 0.0
0.0 0.0 0.0

-1.1398146382276941e7 7.1069388967227e6 0.0
7.1069388967227e6 2.9116419772081375e7 0.0
0.0 0.0 0.0

-8.412400183781058e6 9.816297413027463e6 0.0
9.816297413027463e6 9.507791196981302e6 0.0
0.0 0.0 0.0

-1.145803875657631e7 892777.0839419992 0.0
892777.0839419992 2.814654135929414e7 0.0
0.0 0.0 0.0

429617.78850345965 1.4455948924764676e7 0.0
1.4455948924764676e7 -1.4069772312407332e7 0.0
0.0 0.0 0.0

-5.394517713883482e6 1.9882543416924085e7 0.0
1.9882543416924085e7 8.254644019858545e6 0.0
0.0 0.0 0.0

-1.3017620072102863e6 1.6668171439864555e7 0.0
1.6668171439864555e7 -1.0872669722678456e6 0.0
0.0 0.0 0.0

3.4993499193920596e6 7.910281195695195e6 0.0
7.910281195695195e6 -1.4540564002877947e7 0.0
0.0 0.0 0.0

-9.970156907397274e6 -2.9862485357910004e6 0.0
-2.9862485357910004e6 2.3274627630440846e7 0.0
0.0 0.0 0.0

-7.519470345168123e6 1.3499591275168398e7 0.0
1.3499591275168398e7 3.04033081889443e7 0.0
0.0 0.0 0.0

-1.0300626293794625e7 9.9366398045035e6 0.0
9.9366398045035e6 3.1129202903136108e7 0.0
0.0 0.0 0.0

-486775.3963502967 1.55202966102357e7 0.0
1.55202966102357e7 8.079111858494808e6 0.0
0.0 0.0 0.0

-1.2448380382572975e7 3.4697718766115066e6 0.0
3.4697718766115066e6 1.8951225013753876e7 0.0
0.0 0.0 0.0

-5.166598761001075e6 1.2130291380537372e7 0.0
1.2130291380537372e7 6.71168557872806e6 0.0
0.0 0.0 0.0

-1.4965211742223098e6 1.64113613531214e7 0.0
1.64113613531214e7 -4.810742460893099e6 0.0
0.0 0.0 0.0

576094.5106517579 1.325081298334775e7 0.0
1.325081298334775e7 -1.2082475743063143e7 0.0
0.0 0.0 0.0

-4.955775286575925e6 1.8378283186136916e7 0.0
1.8378283186136916e7 1.0903262917116668e7 0.0
0.0 0.0 0.0

-4.220844697937282e6 2.450030503877644e7 0.0
2.450030503877644e7 4.479096428336661e6 0.0
0.0 0.0 0.0

-1.2276301202957675e7 1.0160949700326903e7 0.0
1.0160949700326903e7 2.341911332789703e7 0.0
0.0 0.0 0.0

4.623510401306918e6 1.4483958042130766e7 0.0
1.4483958042130766e7 1.6911365844470058e7 0.0
0.0 0.0 0.0

236443.94909262983 1.5673305099993614e7 0.0
1.5673305099993614e7 -7.871714571848288e6 0.0
0.0 0.0 0.0

3.099656245223496e6 9.855977289515993e6 0.0
9.855977289515993e6 -1.844639730385633e7 0.0
0.0 0.0 0.0

4.795963818225937e6 3.660243883886458e6 0.0
3.660243883886458e6 -2.8277655357856847e7 0.0
0.0 0.0 0.0

-1.0635302354191074e7 -2.482043519565587e6 0.0
-2.482043519565587e6 2.6165957991469257e7 0.0
0.0 0.0 0.0

-4.485512635403581e6 1.8382304537754934e7 0.0
1.8382304537754934e7 1.0028107996029489e7 0.0
0.0 0.0 0.0

-5.650287908452238e6 1.3828937238312768e7 0.0
1.3828937238312768e7 1.4119785671928957e7 0.0
0.0 0.0 0.0

-3.642788070172243e6 1.4332287452717392e7 0.0
1.4332287452717392e7 4.609079690685727e7 0.0
0.0 0.0 0.0

461925.4413593658 1.268214170440379e7 0.0
1.268214170440379e7 -1.1226663584496874e7 0.0
0.0 0.0 0.0

3.619066833410331e6 1.476185956179636e7 0.0
1.476185956179636e7 1.2063556537096668e7 0.0
0.0 0.0 0.0

-1.0527527323803544e7 -2.825588326502669e6 0.0
-2.825588326502669e6 1.8229661667255886e7 0.0
0.0 0.0 0.0

-2.0549515454645105e7 -794767.5775485386 0.0
-794767.5775485386 9.333283935668383e6 0.0
0.0 0.0 0.0

3.1186748075818093e6 8.642983987098843e6 0.0
8.642983987098843e6 -2.17066577209895e7 0.0
0.0 0.0 0.0

-1.1653204407695152e7 1.5996005485081899e6 0.0
1.5996005485081899e6 1.6408060641587883e7 0.0
0.0 0.0 0.0

2.5542871546362285e6 9.65394519660472e6 0.0
9.65394519660472e6 -2.3908665143902943e7 0.0
0.0 0.0 0.0

-1.0027195998189626e7 1.4139165924067305e7 0.0
1.4139165924067305e7 2.3139766957582258e7 0.0
0.0 0.0 0.0

4.86841054178166e6 4.177956941608593e6 0.0
4.177956941608593e6 -1.857850689728645e7 0.0
0.0 0.0 0.0

4.573205550691593e6 2.150805181200198e7 0.0
2.150805181200198e7 -5.0328343527205e6 0.0
0.0 0.0 0.0

-1.9522344046914757e6 1.2062847928586936e7 0.0
1.2062847928586936e7 -1.4128979967530225e6 0.0
0.0 0.0 0.0

1.2902988771117541e6 6.151099547349976e6 0.0
6.151099547349976e6 -4.523759745790904e6 0.0
0.0 0.0 0.0

2.068378846724714e7 5.7376925162209e6 0.0
5.7376925162209e6 -3.1073669941103235e6 0.0
0.0 0.0 0.0

-8.561530197383426e6 1.4593416766528383e7 0.0
1.4593416766528383e7 2.250782479627484e7 0.0
0.0 0.0 0.0

-533338.7569246036 9.250911636644555e6 0.0
9.250911636644555e6 -5.623836126855164e6 0.0
0.0 0.0 0.0

-1.2069691075776907e7 2.1753489985009986e6 0.0
2.1753489985009986e6 2.6292962155913074e7 0.0
0.0 0.0 0.0

2.132226367443872e6 5.415722528192791e6 0.0
5.415722528192791e6 -8.49831523622001e6 0.0
0.0 0.0 0.0

-2.6736265465830816e6 1.7667625014093086e7 0.0
1.7667625014093086e7 -4.030399583641917e6 0.0
0.0 0.0 0.0

-5.9813232134830365e6 1.6904223117956813e7 0.0
1.6904223117956813e7 1.3040375407582603e7 0.0
0.0 0.0 0.0

-1.1361987885399416e7 5.000722951982129e6 0.0
5.000722951982129e6 1.71317390245751e7 0.0
0.0 0.0 0.0

3.4795751284683207e6 7.608695942150156e6 0.0
7.608695942150156e6 -2.2270201045907345e7 0.0
0.0 0.0 0.0

-2.9226647479600385e6 1.3862157674582727e7 0.0
1.3862157674582727e7 -2.5650743060501706e7 0.0
0.0 0.0 0.0

-4.1113483052408565e6 5.930207399478679e6 0.0
5.930207399478679e6 2.152175463025824e6 0.0
0.0 0.0 0.0

4.33020382322708e6 4.356207058577246e6 0.0
4.356207058577246e6 -1.726577270830533e7 0.0
0.0 0.0 0.0

-412721.9451464843 1.5042192912232662e7 0.0
1.5042192912232662e7 -1.0357439181021454e7 0.0
0.0 0.0 0.0

1.0947698075994153e7 1.6875820195289887e7 0.0
1.6875820195289887e7 1.657384366649031e6 0.0
0.0 0.0 0.0

4.521071389922358e6 5.710470087476007e6 0.0
5.710470087476007e6 -2.8665640593184017e7 0.0
0.0 0.0 0.0

-1.013509471535886e7 -1.457922806921036e6 0.0
-1.457922806921036e6 4.208437743823464e6 0.0
0.0 0.0 0.0

-8.496734167763747e6 1.5458218877166636e7 0.0
1.5458218877166636e7 1.6740740140624229e7 0.0
0.0 0.0 0.0

-1.1066663572099018e6 7.777441067078638e6 0.0
7.777441067078638e6 -670999.9273770778 0.0
0.0 0.0 0.0

-1.1720303331892563e7 4.322358685230401e6 0.0
4.322358685230401e6 1.8623558280243196e7 0.0
0.0 0.0 0.0

4.2019184795405455e6 5.999693613340996e6 0.0
5.999693613340996e6 -3.2777590086643647e7 0.0
0.0 0.0 0.0

5.47530556516701e6 1.5279886244668985e7 0.0
1.5279886244668985e7 1.82510188315287e7 0.0
0.0 0.0 0.0

3.4237200504109003e6 1.88346921844388e7 0.0
1.88346921844388e7 9.490136718187895e6 0.0
0.0 0.0 0.0

-2.9449863486701045e6 1.4291203235509818e7 0.0
1.4291203235509818e7 -1.631827262843958e7 0.0
0.0 0.0 0.0

238855.69485734543 1.1767999771580694e7 0.0
1.1767999771580694e7 -9.647578128071886e6 0.0
0.0 0.0 0.0

-5.3546066244995305e6 1.7509991466368493e7 0.0
1.7509991466368493e7 1.2239659575695137e7 0.0
0.0 0.0 0.0

5.485645418343126e6 1.6426374794198921e7 0.0
1.6426374794198921e7 -1.6133314713227095e6 0.0
0.0 0.0 0.0

2.7129780486211255e6 9.611488528835956e6 0.0
9.611488528835956e6 -2.1091096293656737e7 0.0
0.0 0.0 0.0

-1.5346373366949935e6 2.3398099575690035e7 0.0
2.3398099575690035e7 -1.3651128576414394e6 0.0
0.0 0.0 0.0

-714699.8425824476 1.3872591575531593e7 0.0
1.3872591575531593e7 2.803193774173054e6 0.0
0.0 0.0 0.0

-5.328944898390812e7 3.381969735830982e6 0.0
3.381969735830982e6 7.139747217735212e6 0.0
0.0 0.0 0.0

3.719750528647187e7 6.231132501204024e6 0.0
6.231132501204024e6 -2.431835319595907e6 0.0
0.0 0.0 0.0

1.0339955770137544e6 1.6720629248248091e7 0.0
1.6720629248248091e7 6.531600374124771e6 0.0
0.0 0.0 0.0

-6.433959084515536e6 5.755422434158593e6 0.0
5.755422434158593e6 2.2927615760968044e7 0.0
0.0 0.0 0.0

-784935.0235997699 1.6430535018473137e7 0.0
1.6430535018473137e7 1.037698521454117e7 0.0
0.0 0.0 0.0

-791795.5315367181 1.9909225410655197e7 0.0
1.9909225410655197e7 -5.618927482885954e6 0.0
0.0 0.0 0.0

2.984790159747606e6 1.6478092475651566e7 0.0
1.6478092475651566e7 9.94930134716117e6 0.0
0.0 0.0 0.0

-1.0864945478671454e7 4.270478418794827e6 0.0
4.270478418794827e6 1.6393736410911229e7 0.0
0.0 0.0 0.0

-4.879637618418769e6 1.7373845439053714e7 0.0
1.7373845439053714e7 8.128985393760588e6 0.0
0.0 0.0 0.0

-3.3510826624074787e7 2.7076017510824863e7 0.0
2.7076017510824863e7 -1.3085621227458026e6 0.0
0.0 0.0 0.0

4.373254244194727e6 4.710745472222131e6 0.0
4.710745472222131e6 -2.0881023802440528e7 0.0
0.0 0.0 0.0

-1.4690644456903962e6 1.6939866989695083e7 0.0
1.6939866989695083e7 -2.5645463604227854e6 0.0
0.0 0.0 0.0

5.031785327850747e6 1.4566461183693975e7 0.0
1.4566461183693975e7 1.953781728895974e7 0.0
0.0 0.0 0.0

-4.6917087459256025e6 1.3417665205524184e7 0.0
1.3417665205524184e7 -1.5639029323034143e7 0.0
0.0 0.0 0.0

3.140669971015859e6 1.4564227833894808e7 0.0
1.4564227833894808e7 1.0468900310467971e7 0.0
0.0 0.0 0.0

1.062491975206757e6 1.175180703197028e7 0.0
1.175180703197028e7 -2.6657639288175378e7 0.0
0.0 0.0 0.0

-1.00763529254307e7 -1.2551196699451134e6 0.0
-1.2551196699451134e6 2.0215992581855286e7 0.0
0.0 0.0 0.0

-1.4048510121117372e7 2.400922456965312e7 0.0
2.400922456965312e7 7.231042275476829e6 0.0
0.0 0.0 0.0

2.8739284291194724e6 7.519569803634599e6 0.0
7.519569803634599e6 -1.4124759878785633e7 0.0
0.0 0.0 0.0

-8.559973965302989e6 1.4987473968293192e7 0.0
1.4987473968293192e7 2.137405390022519e7 0.0
0.0 0.0 0.0

-1.1011612834480666e7 2.2507661195937614e6 0.0
2.2507661195937614e6 1.3382924051413614e7 0.0
0.0 0.0 0.0

-4.527935724203113e6 2.407375003130068e7 0.0
2.407375003130068e7 4.952382077664421e6 0.0
0.0 0.0 0.0

-9.46966058178455e6 2.7026267245692026e7 0.0
2.7026267245692026e7 6.671691382087939e6 0.0
0.0 0.0 0.0

-8.228966971693594e6 -2.5376116349870204e6 0.0
-2.5376116349870204e6 6.0648692486688625e6 0.0
0.0 0.0 0.0

-1.787878408925084e6 1.339964896461105e7 0.0
1.339964896461105e7 -8.417717031864675e6 0.0
0.0 0.0 0.0

-721984.7680607229 1.9483370693203725e7 0.0
1.9483370693203725e7 -5.746795407414408e6 0.0
0.0 0.0 0.0

-4.757249419737009e6 3.511071409756559e6 0.0
3.511071409756559e6 3.995213289738453e6 0.0
0.0 0.0 0.0

2.9504217521000486e6 2.1908190068660967e7 0.0
2.1908190068660967e7 -4.754003280291425e6 0.0
0.0 0.0 0.0

-1.161367098574401e7 3.004998807021293e6 0.0
3.004998807021293e6 1.4595002652990248e7 0.0
0.0 0.0 0.0

4.353798004892669e6 4.934029322092672e6 0.0
4.934029322092672e6 -2.4051308751484085e7 0.0
0.0 0.0 0.0

4.1508101568929823e6 5.628509190858024e6 0.0
5.628509190858024e6 -2.1789664214543853e7 0.0
0.0 0.0 0.0

1.1173471083212704e6 1.1565725599865954e7 0.0
1.1565725599865954e7 -1.2318327802612571e7 0.0
0.0 0.0 0.0

-200250.8053872413 1.7528102075562105e7 0.0
1.7528102075562105e7 -8.766448576670615e6 0.0
0.0 0.0 0.0

4.282701737083256e6 5.473263021827704e6 0.0
5.473263021827704e6 -3.4525014643244945e7 0.0
0.0 0.0 0.0

-4.302882829350185e6 1.895138346537366e7 0.0
1.895138346537366e7 -7.578379994774002e6 0.0
0.0 0.0 0.0

1.1565396022619102e6 1.2975146221335342e7 0.0
1.2975146221335342e7 -1.6845489377560157e7 0.0
0.0 0.0 0.0

-1.1349803769195784e7 1.4500815871785685e7 0.0
1.4500815871785685e7 1.8653889175235987e7 0.0
0.0 0.0 0.0

-3.007958172922156e6 1.8632123407338113e7 0.0
1.8632123407338113e7 -6.604282927630367e6 0.0
0.0 0.0 0.0

3.3540900870858785e6 9.29524936674878e6 0.0
9.29524936674878e6 -2.059610397802137e7 0.0
0.0 0.0 0.0

-2.482631279098423e7 1.770515666108468e7 0.0
1.770515666108468e7 8.908191633616153e6 0.0
0.0 0.0 0.0

4.492739495107673e6 4.339353796589553e6 0.0
4.339353796589553e6 -2.499839996168443e7 0.0
0.0 0.0 0.0

4.639647404541326e6 5.6698823651835695e6 0.0
5.6698823651835695e6 -2.161883148052655e7 0.0
0.0 0.0 0.0

62802.973313405644 1.6207856928867528e7 0.0
1.6207856928867528e7 -1.0755414855300961e7 0.0
0.0 0.0 0.0

-1.5780839837161018e7 -2.078315974276867e6 0.0
-2.078315974276867e6 8.085981629396813e6 0.0
0.0 0.0 0.0

1.78057001701148e6 9.317020416594302e6 0.0
9.317020416594302e6 -8.996658949482732e6 0.0
0.0 0.0 0.0

-4.14168347641146e6 1.5031977439210359e7 0.0
1.5031977439210359e7 1.753865094810327e7 0.0
0.0 0.0 0.0

-3.920747129674404e6 2.3134520622477796e7 0.0
2.3134520622477796e7 4.645805924652156e6 0.0
0.0 0.0 0.0

-5.196025874103551e6 2.448098225982249e7 0.0
2.448098225982249e7 5.302518151308828e6 0.0
0.0 0.0 0.0

-1.1988893761886511e7 5.101133919644615e6 0.0
5.101133919644615e6 1.4935377053795554e7 0.0
0.0 0.0 0.0

-6.91598437246527e6 1.1274738143735189e7 0.0
1.1274738143735189e7 4.393135822501759e7 0.0
0.0 0.0 0.0

-3.293716268385169e6 2.334137946449125e7 0.0
2.334137946449125e7 3.405798954288802e6 0.0
0.0 0.0 0.0

-2.2883643095280332e6 1.7114834135755423e7 0.0
1.7114834135755423e7 -1.1691879027629318e6 0.0
0.0 0.0 0.0

255049.47002121317 1.5253365619768646e7 0.0
1.5253365619768646e7 -4.685231547021882e6 0.0
0.0 0.0 0.0

2.0559276183676656e7 1.783991090107485e7 0.0
1.783991090107485e7 7.743485508280449e6 0.0
0.0 0.0 0.0

-1.107492061175339e7 6.215707946123452e6 0.0
6.215707946123452e6 1.6563834008178893e7 0.0
0.0 0.0 0.0

4.958327052812554e6 4.4897843404522445e6 0.0
4.4897843404522445e6 -2.3393266341038708e7 0.0
0.0 0.0 0.0

11621.26951968763 1.552190711687725e7 0.0
1.552190711687725e7 -9.59722296317038e6 0.0
0.0 0.0 0.0

-3.0404423608521596e6 1.2961730441857541e7 0.0
1.2961730441857541e7 981345.0732273392 0.0
0.0 0.0 0.0

-1.1793989349563802e7 1.478680380047844e7 0.0
1.478680380047844e7 7.126436996318201e6 0.0
0.0 0.0 0.0

-1.042048673391415e7 -1.2137723354524453e6 0.0
-1.2137723354524453e6 2.538970321836849e7 0.0
0.0 0.0 0.0

-5.4221539512823924e7 3.4498705008469e7 0.0
3.4498705008469e7 -6.729453001076246e6 0.0
0.0 0.0 0.0

-6.652330193223086e6 1.4348234707348563e7 0.0
1.4348234707348563e7 -2.2174434551915824e7 0.0
0.0 0.0 0.0

4.760504673482942e6 1.5071237306185966e7 0.0
1.5071237306185966e7 1.5868349488477068e7 0.0
0.0 0.0 0.0

1.5314942121139057e6 1.2197737406718135e7 0.0
1.2197737406718135e7 -1.885876832867769e7 0.0
0.0 0.0 0.0

-9.521875851730144e6 2.0429953416035183e7 0.0
2.0429953416035183e7 1.3240639627753012e6 0.0
0.0 0.0 0.0

3.244342669360998e6 8.059849011386199e6 0.0
8.059849011386199e6 -1.324046574057231e7 0.0
0.0 0.0 0.0

3.7538130918305228e6 8.27773652880567e6 0.0
8.27773652880567e6 -2.1134980679785475e7 0.0
0.0 0.0 0.0

-6.722238646546539e6 1.6340038420836061e7 0.0
1.6340038420836061e7 1.4313543586219814e7 0.0
0.0 0.0 0.0

2.5219268469031854e6 1.0094124700693203e7 0.0
1.0094124700693203e7 -2.0123987940893166e7 0.0
0.0 0.0 0.0

-4.118806762029369e6 2.3612644009518966e7 0.0
2.3612644009518966e7 4.791000362132845e6 0.0
0.0 0.0 0.0

-1.256958229222204e7 3.799988494774125e6 0.0
3.799988494774125e6 2.3065556223485988e7 0.0
0.0 0.0 0.0

-8.853682292592436e6 -3.0298844617471765e6 0.0
-3.0298844617471765e6 1.82599543963039e7 0.0
0.0 0.0 0.0

3.664438131299305e6 7.103478127568043e6 0.0
7.103478127568043e6 -2.1814034670092538e7 0.0
0.0 0.0 0.0

-6.5557294864129685e6 1.901110234921057e7 0.0
1.901110234921057e7 -5.577759448295617e6 0.0
0.0 0.0 0.0

360133.19378242514 2.498840416273789e7 0.0
2.498840416273789e7 -2.6182995363623793e6 0.0
0.0 0.0 0.0

-9.758747922446564e6 1.466046066390413e7 0.0
1.466046066390413e7 1.7650067201885e7 0.0
0.0 0.0 0.0

4.042443371617969e6 5.98450717979827e6 0.0
5.98450717979827e6 -2.3632709055070836e7 0.0
0.0 0.0 0.0

4.226791152258955e6 5.956638202958233e6 0.0
5.956638202958233e6 -3.056935663733594e7 0.0
0.0 0.0 0.0

-9.57246430120006e6 1.008298033667048e7 0.0
1.008298033667048e7 3.4864477302259535e7 0.0
0.0 0.0 0.0

-1.1857895147266459e7 4.020550105713664e6 0.0
4.020550105713664e6 2.4088265460389797e7 0.0
0.0 0.0 0.0

1.7915763054776795e6 2.1993844352378678e7 0.0
2.1993844352378678e7 -4.470503890459786e6 0.0
0.0 0.0 0.0

-2.5220471389905456e6 1.838120495156961e7 0.0
1.838120495156961e7 -1.6695514250159652e6 0.0
0.0 0.0 0.0

-1.1307471059711944e7 2.3095354106391864e6 0.0
2.3095354106391864e6 2.756926852753666e7 0.0
0.0 0.0 0.0

3.624007698498505e6 5.127292575306733e6 0.0
5.127292575306733e6 -1.409405630619824e7 0.0
0.0 0.0 0.0

-3.938991204047074e6 1.8482803149086185e7 0.0
1.8482803149086185e7 748471.8303859183 0.0
0.0 0.0 0.0

-1.0732656596049055e7 1.9399036394211404e7 0.0
1.9399036394211404e7 -4.531207179964704e6 0.0
0.0 0.0 0.0

-8.556508765734145e6 8.03228950577612e6 0.0
8.03228950577612e6 9.720906675461994e6 0.0
0.0 0.0 0.0

4.638508415211534e6 5.556265782507758e6 0.0
5.556265782507758e6 -2.2988762406387843e7 0.0
0.0 0.0 0.0

2.433772500390576e6 1.011939194396814e7 0.0
1.011939194396814e7 -1.885680806416048e7 0.0
0.0 0.0 0.0

-9.108747611925218e6 -332149.17282358935 0.0
-332149.17282358935 1.1523793470559351e7 0.0
0.0 0.0 0.0

-1.2142618263087358e7 6.166885762361585e6 0.0
6.166885762361585e6 2.008087650920752e7 0.0
0.0 0.0 0.0

1.0733250045619123e6 1.190211510353364e7 0.0
1.190211510353364e7 -2.502103939801669e7 0.0
0.0 0.0 0.0

4.749520603740822e6 5.2174554353954615e6 0.0
5.2174554353954615e6 -2.1178404156876862e7 0.0
0.0 0.0 0.0

-2.91686022221018e6 1.8174324215298045e7 0.0
1.8174324215298045e7 -2.9285961616853205e6 0.0
0.0 0.0 0.0

4.157212045398646e6 7.208410797028072e6 0.0
7.208410797028072e6 -2.164101110067898e7 0.0
0.0 0.0 0.0

-8.757764026005603e6 1.0296700808491282e6 0.0
1.0296700808491282e6 1.3376211802213345e7 0.0
0.0 0.0 0.0

-9.370835094689095e6 1.610748770275188e7 0.0
1.610748770275188e7 -3.1236119408462632e7 0.0
0.0 0.0 0.0

7.687875084845499e6 1.6165664882580759e7 0.0
1.6165664882580759e7 2.5626252503972147e7 0.0
0.0 0.0 0.0

331585.1778246913 1.5465918588347044e7 0.0
1.5465918588347044e7 160665.91749781033 0.0
0.0 0.0 0.0

-2.179409273719378e7 -461937.0109997848 0.0
-461937.0109997848 8.848095915108602e6 0.0
0.0 0.0 0.0

-7.888296631069329e6 -894284.2568547815 0.0
-894284.2568547815 1.2437621069770329e7 0.0
0.0 0.0 0.0

3.6812875464898422e6 1.6618056277232649e7 0.0
1.6618056277232649e7 1.2270955990537122e7 0.0
0.0 0.0 0.0

-3.1102677397636767e6 1.4965250457967462e7 0.0
1.4965250457967462e7 -1.0367557819836099e7 0.0
0.0 0.0 0.0

-6.147519226465493e6 1.1583502983227022e7 0.0
1.1583502983227022e7 4.85178508103295e7 0.0
0.0 0.0 0.0

3.860714753105888e6 6.562825959965107e6 0.0
6.562825959965107e6 -2.2733863620905902e7 0.0
0.0 0.0 0.0

-959746.4916876422 1.8989411063811965e7 0.0
1.8989411063811965e7 -6.718122243419726e6 0.0
0.0 0.0 0.0

-4.067490230119421e6 1.4189702671861973e7 0.0
1.4189702671861973e7 -2.4481779726753335e7 0.0
0.0 0.0 0.0

-4.211400343969935e6 2.237801116102641e7 0.0
2.237801116102641e7 4.099404123950017e6 0.0
0.0 0.0 0.0

-4.413230861580925e6 1.824948401112214e7 0.0
1.824948401112214e7 6.422395724109722e6 0.0
0.0 0.0 0.0

-1.8410941180203643e6 2.2041173866385985e7 0.0
2.2041173866385985e7 -2.2548752335630106e6 0.0
0.0 0.0 0.0

-7.627180108769432e6 1.5255503821012683e7 0.0
1.5255503821012683e7 -3.258359598305548e7 0.0
0.0 0.0 0.0

871890.3908463998 2.1944290458056547e7 0.0
2.1944290458056547e7 -4.240149238986352e6 0.0
0.0 0.0 0.0

-1.0556092857877988e7 1.4117041800857168e7 0.0
1.4117041800857168e7 2.1376248701961026e7 0.0
0.0 0.0 0.0

2.5235378339565555e6 8.448424822853087e6 0.0
8.448424822853087e6 -1.3859118861578617e7 0.0
0.0 0.0 0.0

4.0052874740727544e6 6.082897175268575e6 0.0
6.082897175268575e6 -2.225976711619003e7 0.0
0.0 0.0 0.0

-573490.4738081135 1.8211882322877336e7 0.0
1.8211882322877336e7 -7.870142007889759e6 0.0
0.0 0.0 0.0

-1.7979535112427014e6 1.3221741864278e7 0.0
1.3221741864278e7 -5.2046462614300465e6 0.0
0.0 0.0 0.0

3.0609676994239036e6 8.512105839605859e6 0.0
8.512105839605859e6 -2.4793745805332914e7 0.0
0.0 0.0 0.0

-4.036940764593706e6 2.1486895534548756e7 0.0
2.1486895534548756e7 4.6351500965003e6 0.0
0.0 0.0 0.0

-2.747530852631085e6 1.4684259198074313e7 0.0
1.4684259198074313e7 -539259.050653375 0.0
0.0 0.0 0.0

863150.0441634827 1.3172609495951701e7 0.0
1.3172609495951701e7 -1.0485328250731962e7 0.0
0.0 0.0 0.0

2.392705556267795e6 1.0628570028816322e7 0.0
1.0628570028816322e7 -2.3822456945898883e7 0.0
0.0 0.0 0.0

-371882.9615275392 2.1523102318586282e7 0.0
2.1523102318586282e7 -4.0671179342467636e6 0.0
0.0 0.0 0.0

265250.5740256463 1.4613876619907932e7 0.0
1.4613876619907932e7 -9.682208012091635e6 0.0
0.0 0.0 0.0

-861752.040653004 1.2523703307827843e7 0.0
1.2523703307827843e7 -4.459682414351273e6 0.0
0.0 0.0 0.0

1.7823468284655116e7 5.591755734225669e6 0.0
5.591755734225669e6 -3.0586339907311182e6 0.0
0.0 0.0 0.0

-4.60969701323293e6 1.5743370235189682e7 0.0
1.5743370235189682e7 5.592274872470144e6 0.0
0.0 0.0 0.0

-7.212789866807227e6 7.420579496588905e6 0.0
7.420579496588905e6 1.0728297361154558e7 0.0
0.0 0.0 0.0

-1.0166598730758559e7 -1.650929453455115e6 0.0
-1.650929453455115e6 2.2111793631299518e7 0.0
0.0 0.0 0.0

4.975448898033722e6 4.321285214296197e6 0.0
4.321285214296197e6 -2.0251292404895164e7 0.0
0.0 0.0 0.0

3.9286796184136653e6 6.23498349362681e6 0.0
6.23498349362681e6 -1.5563738424714189e7 0.0
0.0 0.0 0.0

4.689230743596955e6 5.335671852699551e6 0.0
5.335671852699551e6 -1.980315042496039e7 0.0
0.0 0.0 0.0

-2.316910208176371e6 1.4497014955183176e7 0.0
1.4497014955183176e7 -1.5669847282966543e7 0.0
0.0 0.0 0.0

178102.55812725797 2.17659789896829e7 0.0
2.17659789896829e7 -4.109637335433078e6 0.0
0.0 0.0 0.0

-1.0590967849651359e7 1.439288041271838e7 0.0
1.439288041271838e7 2.021149030531289e7 0.0
0.0 0.0 0.0

-5.2790784379454795e6 1.6145578434153134e7 0.0
1.6145578434153134e7 4.912154421747627e6 0.0
0.0 0.0 0.0

4.1048894666722817e6 5.769470917418528e6 0.0
5.769470917418528e6 -2.051377787744047e7 0.0
0.0 0.0 0.0

-1.0275804375377536e7 1.593323727371152e6 0.0
1.593323727371152e6 1.2497475421673615e7 0.0
0.0 0.0 0.0

-1.0673978897833677e7 1.5145479962568682e7 0.0
1.5145479962568682e7 1.848191234021407e7 0.0
0.0 0.0 0.0

204512.21660746308 1.5962380896796849e7 0.0
1.5962380896796849e7 -1.1605469816699736e7 0.0
0.0 0.0 0.0

808548.2669093031 1.5926023196940536e7 0.0
1.5926023196940536e7 -5.582363202124946e6 0.0
0.0 0.0 0.0

-3.955696500273212e6 2.2241499332511805e7 0.0
2.2241499332511805e7 5.085417302247228e6 0.0
0.0 0.0 0.0

1.7187987402235176e6 1.2844803988950437e7 0.0
1.2844803988950437e7 -1.6667620559182968e7 0.0
0.0 0.0 0.0

4.442636624373374e6 6.246726642317113e6 0.0
6.246726642317113e6 -2.0776212753622044e7 0.0
0.0 0.0 0.0

3.9879735684148697e6 6.199020257136715e6 0.0
6.199020257136715e6 -2.0947207093280904e7 0.0
0.0 0.0 0.0

2.1924305667039906e6 7.685573720704955e6 0.0
7.685573720704955e6 -1.1492248199171366e7 0.0
0.0 0.0 0.0

3.827768467983857e6 6.634572146695426e6 0.0
6.634572146695426e6 -2.1399392708305202e7 0.0
0.0 0.0 0.0

4.525917759856898e6 5.7136410348830335e6 0.0
5.7136410348830335e6 -1.7649405935149677e7 0.0
0.0 0.0 0.0

-6.53922354501516e6 2.6083432762322567e7 0.0
2.6083432762322567e7 5.780950719350267e6 0.0
0.0 0.0 0.0

1.740871394466224e6 2.2988056022896286e7 0.0
2.2988056022896286e7 -4.1924363127741357e6 0.0
0.0 0.0 0.0

-4.9325989132811595e6 1.9039315335721686e7 0.0
1.9039315335721686e7 6.821747140643903e6 0.0
0.0 0.0 0.0

3.817195452073859e6 6.152326103713197e6 0.0
6.152326103713197e6 -1.8352530039377946e7 0.0
0.0 0.0 0.0

-2.084692836681028e6 1.5978287385807283e7 0.0
1.5978287385807283e7 -5.496839347135884e6 0.0
0.0 0.0 0.0

-877812.3439376516 1.2895199470377972e7 0.0
1.2895199470377972e7 -432925.9336727178 0.0
0.0 0.0 0.0

-1.2428351474555586e7 1.8175642809309717e7 0.0
1.8175642809309717e7 -4.142784962739762e7 0.0
0.0 0.0 0.0

1.2327772985901212e7 1.922852172816962e7 0.0
1.922852172816962e7 4.1092593940831415e7 0.0
0.0 0.0 0.0

6.573555869824328e6 1.6749974956072235e7 0.0
1.6749974956072235e7 -1.833377309299138e6 0.0
0.0 0.0 0.0

1.0298510113992881e7 1.748500828668862e7 0.0
1.748500828668862e7 -3.5039686193663133e6 0.0
0.0 0.0 0.0

3.063570108977668e6 6.522857185045275e6 0.0
6.522857185045275e6 -3.819607413982396e7 0.0
0.0 0.0 0.0

765907.7341951439 1.4802864728793502e7 0.0
1.4802864728793502e7 -1.3061622896768615e7 0.0
0.0 0.0 0.0

-1.5373582074134466e6 1.6576167511460215e7 0.0
1.6576167511460215e7 9.247249622578828e6 0.0
0.0 0.0 0.0

-1.2369072872043777e7 3.537830355257881e6 0.0
3.537830355257881e6 2.490306961995408e7 0.0
0.0 0.0 0.0

-9.866910999867503e6 1.3651312602997381e7 0.0
1.3651312602997381e7 2.4590121945462417e7 0.0
0.0 0.0 0.0

-2.7105591776867583e6 1.7472215625478424e7 0.0
1.7472215625478424e7 5.686163018731979e6 0.0
0.0 0.0 0.0

-876639.7312877518 1.291456626295248e7 0.0
1.291456626295248e7 -4.730792666974367e6 0.0
0.0 0.0 0.0

-7.972260379549492e6 2.1576841917084806e7 0.0
2.1576841917084806e7 -6.141449230682628e6 0.0
0.0 0.0 0.0

-5.061394269285122e6 1.8074240163608685e7 0.0
1.8074240163608685e7 1.113400738901051e7 0.0
0.0 0.0 0.0

-7.429772164402993e6 1.114164215669751e7 0.0
1.114164215669751e7 8.612713027687209e6 0.0
0.0 0.0 0.0

-4.339445537747418e6 1.8443442454383627e7 0.0
1.8443442454383627e7 4.19818200799582e6 0.0
0.0 0.0 0.0

4.290856243275339e6 6.3930525611154195e6 0.0
6.3930525611154195e6 -2.7558354154143993e7 0.0
0.0 0.0 0.0

3.860241382098738e6 6.992790686266864e6 0.0
6.992790686266864e6 -1.4801001842383096e7 0.0
0.0 0.0 0.0

-499610.7890027622 1.6314841464018034e7 0.0
1.6314841464018034e7 -1.0210932946204973e7 0.0
0.0 0.0 0.0

2.210433223859812e6 1.0642130941363063e7 0.0
1.0642130941363063e7 -1.8005384109226193e7 0.0
0.0 0.0 0.0

-1.1112508031890435e7 6.087146768814889e6 0.0
6.087146768814889e6 3.084809389325545e7 0.0
0.0 0.0 0.0

-3.5283927527513187e6 3.4788079972015326e6 0.0
3.4788079972015326e6 2.4795615317873387e6 0.0
0.0 0.0 0.0

-9.576937759878231e6 5.569161523694666e6 0.0
5.569161523694666e6 4.005445970628569e7 0.0
0.0 0.0 0.0

-651611.1102860612 1.5684424892120002e7 0.0
1.5684424892120002e7 -9.838648774096644e6 0.0
0.0 0.0 0.0

-4.79598186297498e6 1.9440923063385185e7 0.0
1.9440923063385185e7 7.943219764668506e6 0.0
0.0 0.0 0.0

-7.681523710445971e6 9.552498196490083e6 0.0
9.552498196490083e6 1.2064072399290154e7 0.0
0.0 0.0 0.0

-393100.3699527283 2.0166630678200882e7 0.0
2.0166630678200882e7 -5.389635374776283e6 0.0
0.0 0.0 0.0

-7.937759899347721e6 6.2206964270878965e6 0.0
6.2206964270878965e6 9.07643705722088e6 0.0
0.0 0.0 0.0

-6.28346081878316e6 1.7428282840689193e7 0.0
1.7428282840689193e7 1.2116589132658692e7 0.0
0.0 0.0 0.0

1.3737839580981366e7 2.0547637582165446e7 0.0
2.0547637582165446e7 -8.889405870292205e6 0.0
0.0 0.0 0.0

-9.984149490605766e6 1.5303160671905832e7 0.0
1.5303160671905832e7 1.6439172532292642e7 0.0
0.0 0.0 0.0

-1.7371315758648776e6 4.230085200515545e6 0.0
4.230085200515545e6 1.852626992304829e6 0.0
0.0 0.0 0.0

-2.5020377911443956e7 -195034.91637542282 0.0
-195034.91637542282 9.423873107885825e6 0.0
0.0 0.0 0.0

4.508577297026827e6 4.7435120004568165e6 0.0
4.7435120004568165e6 -2.1996560437071458e7 0.0
0.0 0.0 0.0

-6.809278450131664e6 2.3637768836921975e7 0.0
2.3637768836921975e7 6.352421608523603e6 0.0
0.0 0.0 0.0

-8.825508597543873e6 632549.2000112659 0.0
632549.2000112659 1.010345994621006e7 0.0
0.0 0.0 0.0

-2.974247992526874e6 1.093870232690817e7 0.0
1.093870232690817e7 -1.4348439779191269e6 0.0
0.0 0.0 0.0

-1.1341962913700808e7 -544475.688219342 0.0
-544475.688219342 1.999658799074363e7 0.0
0.0 0.0 0.0

-37700.33616402373 1.5936990170975108e7 0.0
1.5936990170975108e7 -1.1787198271386402e7 0.0
0.0 0.0 0.0

-1.109501691716627e7 -1.9214417972986787e6 0.0
-1.9214417972986787e6 2.109978139717232e7 0.0
0.0 0.0 0.0

577921.2559103556 1.342098453894963e7 0.0
1.342098453894963e7 -1.2701806362670172e7 0.0
0.0 0.0 0.0

-1.0268028111200467e7 1.5047914267537082e7 0.0
1.5047914267537082e7 1.9489149307963297e7 0.0
0.0 0.0 0.0

-9.152238330187578e6 8.61604991835886e6 0.0
8.61604991835886e6 1.0655641600057501e7 0.0
0.0 0.0 0.0

-8.518311430984508e6 1.4179090001472335e7 0.0
1.4179090001472335e7 2.3913231569944296e7 0.0
0.0 0.0 0.0

-1.074342625827685e7 1.2044989207263093e7 0.0
1.2044989207263093e7 1.4702421441681866e7 0.0
0.0 0.0 0.0

-3.8764744364933386e6 1.9087612583509456e7 0.0
1.9087612583509456e7 871336.7660570312 0.0
0.0 0.0 0.0

4.0813544616243895e6 6.9873719013629025e6 0.0
6.9873719013629025e6 -2.6451515287340086e7 0.0
0.0 0.0 0.0

-8.56687942348374e6 1.5327893317484697e7 0.0
1.5327893317484697e7 2.0497698761710897e7 0.0
0.0 0.0 0.0

6.8001059716842845e6 1.6773049380269546e7 0.0
1.6773049380269546e7 3.56908730467246e6 0.0
0.0 0.0 0.0

-1.7873138226436835e7 7.457426258206593e6 0.0
7.457426258206593e6 1.0613057574886996e7 0.0
0.0 0.0 0.0

2.8161776516940575e6 9.977705427344365e6 0.0
9.977705427344365e6 -2.364043817277426e7 0.0
0.0 0.0 0.0

-6.799241327414005e6 1.065477716519521e7 0.0
1.065477716519521e7 1.0730626206391577e7 0.0
0.0 0.0 0.0

2.9428404037661683e6 8.575646596392596e6 0.0
8.575646596392596e6 -1.2475878387712575e7 0.0
0.0 0.0 0.0

-7.209309164077275e6 356598.5852318295 0.0
356598.5852318295 1.0377365457475983e7 0.0
0.0 0.0 0.0

-9.675849244496934e6 -3.049885620316492e6 0.0
-3.049885620316492e6 1.5515622273062367e7 0.0
0.0 0.0 0.0

1.448632140646643e6 1.2030914187381124e7 0.0
1.2030914187381124e7 -1.527113230419563e7 0.0
0.0 0.0 0.0

-1.0156308579769202e7 3.6103042749235444e6 0.0
3.6103042749235444e6 1.5321916313383434e7 0.0
0.0 0.0 0.0

-5.208513271429138e6 1.985368599296819e7 0.0
1.985368599296819e7 7.170150569898738e6 0.0
0.0 0.0 0.0

537225.3658997898 1.450820104680627e7 0.0
1.450820104680627e7 6.935293121417307e6 0.0
0.0 0.0 0.0

198261.9487218958 6.973686427290537e6 0.0
6.973686427290537e6 -2.7233263992936485e6 0.0
0.0 0.0 0.0

-244326.21674420405 1.6140826095188072e7 0.0
1.6140826095188072e7 -9.117157474231107e6 0.0
0.0 0.0 0.0

3.3624354668011554e6 7.194856479600946e6 0.0
7.194856479600946e6 -1.6776585432046149e7 0.0
0.0 0.0 0.0

-1.6743335615787446e6 2.1511739893999934e7 0.0
2.1511739893999934e7 -2.9842140623750533e6 0.0
0.0 0.0 0.0

-2.1624881575460415e6 1.3446700354457136e7 0.0
1.3446700354457136e7 -4.290279136092436e7 0.0
0.0 0.0 0.0

3.2626950471459283e6 5.572591086944576e6 0.0
5.572591086944576e6 -1.3193728306300018e7 0.0
0.0 0.0 0.0

3.9778547039592583e6 5.656510158438581e6 0.0
5.656510158438581e6 -1.795936854845668e7 0.0
0.0 0.0 0.0

-1.8076249717016849e6 1.4568454774619121e7 0.0
1.4568454774619121e7 -1.4554172327457644e7 0.0
0.0 0.0 0.0

-412169.0902725862 7.403500788823314e6 0.0
7.403500788823314e6 -1.7291165728842563e6 0.0
0.0 0.0 0.0

-8.974407289898215e6 1.5955155627511512e7 0.0
1.5955155627511512e7 -3.769712292033259e7 0.0
0.0 0.0 0.0

2.099304891440914e6 7.372458026920492e6 0.0
7.372458026920492e6 -8.21713499831198e6 0.0
0.0 0.0 0.0

3.307037116328529e6 7.636258508165829e6 0.0
7.636258508165829e6 -1.2694982878092658e7 0.0
0.0 0.0 0.0

-390123.43209934165 1.5857615232039256e7 0.0
1.5857615232039256e7 -2.1572208050058465e6 0.0
0.0 0.0 0.0

-1.1472466672009282e7 1.0455071191197727e7 0.0
1.0455071191197727e7 2.5848415941466223e7 0.0
0.0 0.0 0.0

-3.5239268632206805e6 2.2848789973769218e7 0.0
2.2848789973769218e7 2.2621925239975257e6 0.0
0.0 0.0 0.0

-1.1592901830193698e7 5.073140980773999e6 0.0
5.073140980773999e6 8.706310687249795e6 0.0
0.0 0.0 0.0

1.9984330279460745e6 1.106380287172479e7 0.0
1.106380287172479e7 -1.706082808942386e7 0.0
0.0 0.0 0.0

-655875.4190909751 1.6658214064327618e7 0.0
1.6658214064327618e7 1.1733459879909461e7 0.0
0.0 0.0 0.0

-1.5987130829186179e6 2.0990251851848315e7 0.0
2.0990251851848315e7 -3.7612915651183412e6 0.0
0.0 0.0 0.0

-300802.08088303404 1.1892619972366706e7 0.0
1.1892619972366706e7 -8.112085160390648e6 0.0
0.0 0.0 0.0

-833671.1075960128 2.0544316814675134e7 0.0
2.0544316814675134e7 -4.885806604003258e6 0.0
0.0 0.0 0.0

741016.8973073638 1.2259274004239343e7 0.0
1.2259274004239343e7 -8.884323729463167e6 0.0
0.0 0.0 0.0

-7.72452867907463e6 -2.0427151183236414e6 0.0
-2.0427151183236414e6 1.0859827661608268e7 0.0
0.0 0.0 0.0

-591642.3255879334 1.5851553537731629e7 0.0
1.5851553537731629e7 -1.020484528574896e7 0.0
0.0 0.0 0.0

4.994283247693595e6 3.1304473246727023e7 0.0
3.1304473246727023e7 -7.466177734002039e6 0.0
0.0 0.0 0.0

2.357629248699649e6 1.8146137812273346e7 0.0
1.8146137812273346e7 -4.898448572225055e6 0.0
0.0 0.0 0.0

460724.54112263164 1.5412538067812964e7 0.0
1.5412538067812964e7 -1.2357728947120955e7 0.0
0.0 0.0 0.0

-4.258847042579203e6 1.2368586148444332e7 0.0
1.2368586148444332e7 4.351043050061917e6 0.0
0.0 0.0 0.0

-3.6388470368311806e6 1.5005206752575789e7 0.0
1.5005206752575789e7 -1.0398475368983516e6 0.0
0.0 0.0 0.0

4.975745051165407e6 3.9898804941754825e6 0.0
3.9898804941754825e6 -2.121816142007142e7 0.0
0.0 0.0 0.0

3.225072899493939e6 4.481038873140373e6 0.0
4.481038873140373e6 -1.004677444105748e7 0.0
0.0 0.0 0.0

-2.3771908539797296e6 8.202739560374501e6 0.0
8.202739560374501e6 -1.3276295972364964e6 0.0
0.0 0.0 0.0

-5.709635222489057e6 1.8064422598627225e7 0.0
1.8064422598627225e7 -1.2629830101945975e6 0.0
0.0 0.0 0.0

3.5357789206140144e6 5.990650529676923e6 0.0
5.990650529676923e6 -1.5273785638539191e7 0.0
0.0 0.0 0.0

175362.30353524396 1.3659527061434828e7 0.0
1.3659527061434828e7 -1.1301442161228439e7 0.0
0.0 0.0 0.0

-1.3215025627496038e6 1.653149274411586e7 0.0
1.653149274411586e7 7.465322519531017e6 0.0
0.0 0.0 0.0

2.842731341848865e6 1.032379023219043e7 0.0
1.032379023219043e7 -1.7497756636558287e7 0.0
0.0 0.0 0.0

-9.539629585542355e6 2.8297197035137983e6 0.0
2.8297197035137983e6 1.4280722087949574e7 0.0
0.0 0.0 0.0

-2.1259921903446514e7 2.352669895778729e7 0.0
2.352669895778729e7 6.631877430524018e6 0.0
0.0 0.0 0.0

3.134203854706984e6 9.799026664805552e6 0.0
9.799026664805552e6 -1.9652911150195602e7 0.0
0.0 0.0 0.0

-4.2826378612985454e7 2.2069304301780714e6 0.0
2.2069304301780714e6 7.797516333373826e6 0.0
0.0 0.0 0.0

3.1687081845632317e6 6.984441119847991e6 0.0
6.984441119847991e6 -1.4923153035392623e7 0.0
0.0 0.0 0.0

-6.061693791963914e6 1.6639612843251623e7 0.0
1.6639612843251623e7 1.5604018124233043e7 0.0
0.0 0.0 0.0

1.1073031700545885e6 1.2059641369477822e7 0.0
1.2059641369477822e7 -2.381150979131794e7 0.0
0.0 0.0 0.0

1.4933108513662936e6 1.2872461269094445e7 0.0
1.2872461269094445e7 -1.880650080930789e7 0.0
0.0 0.0 0.0

-4.12355741990345e6 3.100485700930067e6 0.0
3.100485700930067e6 6.54007691893405e6 0.0
0.0 0.0 0.0

-1.2895428190375865e7 5.838444625771894e6 0.0
5.838444625771894e6 1.8950456884783432e7 0.0
0.0 0.0 0.0

-2.7704714221670628e6 1.2866239373552762e7 0.0
1.2866239373552762e7 -2.7283870150556434e6 0.0
0.0 0.0 0.0

-4.644716236000273e6 1.171793309461416e7 0.0
1.171793309461416e7 5.396580473902598e6 0.0
0.0 0.0 0.0

-1.2807206808713108e7 5.156170863228164e6 0.0
5.156170863228164e6 2.1719357992752906e7 0.0
0.0 0.0 0.0

-1.7668816511153197e6 1.2543034132061368e7 0.0
1.2543034132061368e7 -2.2380162866996867e6 0.0
0.0 0.0 0.0

-346059.54132077564 1.522935701550545e7 0.0
1.522935701550545e7 -1.0735389022461101e7 0.0
0.0 0.0 0.0

-289972.2341959835 1.5976725961516406e7 0.0
1.5976725961516406e7 -8.712272169085518e6 0.0
0.0 0.0 0.0

-738734.7583749178 1.640228234990834e7 0.0
1.640228234990834e7 -9.69095799989146e6 0.0
0.0 0.0 0.0

909663.0788905518 1.294273743584629e7 0.0
1.294273743584629e7 -1.3524198378697466e7 0.0
0.0 0.0 0.0

2.1767857125782054e6 8.145907495911617e6 0.0
8.145907495911617e6 -1.2035668209499963e7 0.0
0.0 0.0 0.0

-145169.99659151584 1.4921946676487789e7 0.0
1.4921946676487789e7 -5.325398460717125e6 0.0
0.0 0.0 0.0

-737135.0842552907 1.5509392958977211e7 0.0
1.5509392958977211e7 -9.471028989198398e6 0.0
0.0 0.0 0.0

236304.49131846195 1.2388975875847474e7 0.0
1.2388975875847474e7 -7.356553042191177e6 0.0
0.0 0.0 0.0

-8.540438636870883e6 2.472259057243763e6 0.0
2.472259057243763e6 1.297355389475236e7 0.0
0.0 0.0 0.0

1.1762998625989342e6 1.2507141350167423e7 0.0
1.2507141350167423e7 -1.4412790891375095e7 0.0
0.0 0.0 0.0

-1.0671404699343307e7 1.7066694465638656e7 0.0
1.7066694465638656e7 -3.5571349476348095e7 0.0
0.0 0.0 0.0

-3.7650943739812826e6 4.534807405610134e6 0.0
4.534807405610134e6 5.4553043934722915e6 0.0
0.0 0.0 0.0

2.823899345880337e6 7.929294126871098e6 0.0
7.929294126871098e6 -1.4633942594201054e7 0.0
0.0 0.0 0.0

325406.01065289206 6.629058182451694e6 0.0
6.629058182451694e6 -5.292901300341437e6 0.0
0.0 0.0 0.0

-1.172620332893921e6 1.2698178770108156e7 0.0
1.2698178770108156e7 -3.884291351314093e7 0.0
0.0 0.0 0.0

-5.667649548312648e6 1.245556184231802e7 0.0
1.245556184231802e7 8.118543585658982e6 0.0
0.0 0.0 0.0

3.8940788409113e6 6.588161134027008e6 0.0
6.588161134027008e6 -1.4293081504179442e7 0.0
0.0 0.0 0.0

-1.2635667481435604e7 5.236510224724392e6 0.0
5.236510224724392e6 1.694332294566013e7 0.0
0.0 0.0 0.0

-1.0308309214074712e7 -195747.19407515164 0.0
-195747.19407515164 3.2937682126471534e7 0.0
0.0 0.0 0.0

389872.4178258681 1.5388807051937776e7 0.0
1.5388807051937776e7 -1.6861946779628352e6 0.0
0.0 0.0 0.0

658487.1014606848 1.4052882434481764e7 0.0
1.4052882434481764e7 2.5553173815160515e6 0.0
0.0 0.0 0.0

-6.395764880887881e6 2.0012782474801656e7 0.0
2.0012782474801656e7 6.803147566260712e6 0.0
0.0 0.0 0.0

-4.713042181699439e6 1.693968471060873e7 0.0
1.693968471060873e7 2.9993040800314937e6 0.0
0.0 0.0 0.0

4.812495855466679e6 5.025827038046202e6 0.0
5.025827038046202e6 -2.3869351242292468e7 0.0
0.0 0.0 0.0

4.789971534880806e6 5.494781607733381e6 0.0
5.494781607733381e6 -2.4214499929170966e7 0.0
0.0 0.0 0.0

-1.2258702785005191e7 1.1052697603191603e7 0.0
1.1052697603191603e7 2.0235336070823386e7 0.0
0.0 0.0 0.0

-48566.64390416723 1.4590151314912945e7 0.0
1.4590151314912945e7 -1.127490985248508e7 0.0
0.0 0.0 0.0

4.54648420920962e6 1.6912236671288975e7 0.0
1.6912236671288975e7 -1.118751556145553e6 0.0
0.0 0.0 0.0

-1.0791808977420604e7 2.3630253520959746e6 0.0
2.3630253520959746e6 3.773952899343707e7 0.0
0.0 0.0 0.0

-4.926585765752606e6 1.5211160879498841e7 0.0
1.5211160879498841e7 6.69382964847186e6 0.0
0.0 0.0 0.0

-1.0526245974498668e6 1.440213001331398e7 0.0
1.440213001331398e7 -7.727593118403191e6 0.0
0.0 0.0 0.0

-5.998229976449346e6 1.3570664450044539e7 0.0
1.3570664450044539e7 3.673942961986527e7 0.0
0.0 0.0 0.0

636071.7430907984 5.028803144908955e6 0.0
5.028803144908955e6 -2.2923070447281534e6 0.0
0.0 0.0 0.0

-1.8612952765231542e6 1.8375594363607038e7 0.0
1.8375594363607038e7 -5.633577428989987e6 0.0
0.0 0.0 0.0

945082.0923346747 1.7292247809202466e7 0.0
1.7292247809202466e7 1.1986679239504635e7 0.0
0.0 0.0 0.0

3.5185170671691597e6 7.542249691031945e6 0.0
7.542249691031945e6 -1.4017127887790084e7 0.0
0.0 0.0 0.0

-2.7013565765575008e6 1.1477263946505265e7 0.0
1.1477263946505265e7 -2.2829040808017654e6 0.0
0.0 0.0 0.0

-9.505858136657419e6 1.257098150425495e7 0.0
1.257098150425495e7 2.832535556752713e7 0.0
0.0 0.0 0.0

3.675952085988174e6 8.194738696394781e6 0.0
8.194738696394781e6 -2.4298632660057053e7 0.0
0.0 0.0 0.0

664293.4534101496 1.50240058361008e7 0.0
1.50240058361008e7 -1.3247830469041293e7 0.0
0.0 0.0 0.0

-1.042026428731838e7 -2.1599149976377287e6 0.0
-2.1599149976377287e6 2.6238133171200823e7 0.0
0.0 0.0 0.0

3.215354563028737e6 9.305128911573507e6 0.0
9.305128911573507e6 -2.3369631538348284e7 0.0
0.0 0.0 0.0

557189.5207753398 8.89616879118251e6 0.0
8.89616879118251e6 -5.61999988291855e6 0.0
0.0 0.0 0.0

3.9493370797760524e6 7.782181857152982e6 0.0
7.782181857152982e6 -2.0723011195136838e7 0.0
0.0 0.0 0.0

408237.9052497111 1.2405480990056766e7 0.0
1.2405480990056766e7 -1.072919994007346e7 0.0
0.0 0.0 0.0

243295.9669801793 1.3908284235942317e7 0.0
1.3908284235942317e7 -1.177417747967485e7 0.0
0.0 0.0 0.0

-1.2644657645979235e7 3.928683239041196e6 0.0
3.928683239041196e6 2.129142245062493e7 0.0
0.0 0.0 0.0

1.598290962522272e6 1.5867356291511288e7 0.0
1.5867356291511288e7 2.6905777933549085e6 0.0
0.0 0.0 0.0

-8.303193189479094e6 1.7381118501189703e6 0.0
1.7381118501189703e6 1.1812367701865532e7 0.0
0.0 0.0 0.0

1.5427813116940195e6 1.3265590767105658e7 0.0
1.3265590767105658e7 -1.5849542984544137e7 0.0
0.0 0.0 0.0

-1.6158284681760133e6 5.211116660934276e6 0.0
5.211116660934276e6 1.2496975762899858e6 0.0
0.0 0.0 0.0

1.2462733351770472e6 5.296375038287004e6 0.0
5.296375038287004e6 -6.236997395525536e6 0.0
0.0 0.0 0.0

137517.15882626502 1.3419012277832253e7 0.0
1.3419012277832253e7 -1.0867766010710828e7 0.0
0.0 0.0 0.0

4.215076435551157e6 5.503645501272144e6 0.0
5.503645501272144e6 -1.4539637615544304e7 0.0
0.0 0.0 0.0

-1.1477780427648414e7 -99904.75688633033 0.0
-99904.75688633033 1.8064977677752547e7 0.0
0.0 0.0 0.0

4.424014307106353e6 3.8476275644975286e6 0.0
3.8476275644975286e6 -3.41316835267917e7 0.0
0.0 0.0 0.0

-1.0367603899990069e6 1.4343438207288291e7 0.0
1.4343438207288291e7 -3.4558675659607374e6 0.0
0.0 0.0 0.0

-1.2220495846647577e7 7.04423893162107e6 0.0
7.04423893162107e6 1.5099075707948353e7 0.0
0.0 0.0 0.0

-6.858907600050504e6 1.90945528616445e7 0.0
1.90945528616445e7 4.826344905101977e6 0.0
0.0 0.0 0.0

581367.1304659566 1.673734402044195e7 0.0
1.673734402044195e7 6.406901004252218e6 0.0
0.0 0.0 0.0

-9.982907235270288e6 1.5496057512284856e7 0.0
1.5496057512284856e7 1.8873317723512135e7 0.0
0.0 0.0 0.0

-7.545961767128379e6 1.5870799418357458e7 0.0
1.5870799418357458e7 1.5504841512757745e7 0.0
0.0 0.0 0.0

-1.0036945756676735e7 -4.390543646003431e6 0.0
-4.390543646003431e6 2.5951555006811526e7 0.0
0.0 0.0 0.0

-3.068260545870713e6 1.1415898081963293e7 0.0
1.1415898081963293e7 1.694889208550867e6 0.0
0.0 0.0 0.0

2.610484658783134e6 1.70954465068006e7 0.0
1.70954465068006e7 1.0928457723179678e7 0.0
0.0 0.0 0.0

-4.3077085478153825e6 1.8140234034369163e7 0.0
1.8140234034369163e7 9.004347788740221e6 0.0
0.0 0.0 0.0

-1.272006517827775e7 4.858707898154837e6 0.0
4.858707898154837e6 1.8283756850732584e7 0.0
0.0 0.0 0.0

1.5058674622755013e6 1.2201360859553354e7 0.0
1.2201360859553354e7 -1.7740685358571965e7 0.0
0.0 0.0 0.0

2.9756685131057585e6 6.653793841736164e6 0.0
6.653793841736164e6 -1.301348650144509e7 0.0
0.0 0.0 0.0

625861.4095660024 1.4400158845786566e7 0.0
1.4400158845786566e7 -1.0985596892303923e7 0.0
0.0 0.0 0.0

-2.740059097059032e6 1.0358493236788327e7 0.0
1.0358493236788327e7 1.3429492267848635e6 0.0
0.0 0.0 0.0

3.2871372871815823e6 5.324706718295457e6 0.0
5.324706718295457e6 -1.0017578438564422e7 0.0
0.0 0.0 0.0

-2.063718508365631e6 1.8797204645191703e7 0.0
1.8797204645191703e7 -4.712853330174063e6 0.0
0.0 0.0 0.0

-1.053018262775458e7 944639.9786091545 0.0
944639.9786091545 3.1353004674756434e7 0.0
0.0 0.0 0.0

-1.0663008196523925e7 -1.0732098193842955e6 0.0
-1.0732098193842955e6 2.7235866962618165e7 0.0
0.0 0.0 0.0

-1.2117930098621843e7 8.629514207349092e6 0.0
8.629514207349092e6 2.6159186002179094e7 0.0
0.0 0.0 0.0

-1.3245889603802215e6 1.7345293704770982e7 0.0
1.7345293704770982e7 -7.885710302344972e6 0.0
0.0 0.0 0.0

-940048.2607515391 7.452381376880803e6 0.0
7.452381376880803e6 -3.4817671135630193e6 0.0
0.0 0.0 0.0

7.901848023906557e6 1.8053829228132136e7 0.0
1.8053829228132136e7 7.4884439095317265e6 0.0
0.0 0.0 0.0

6.755948496243357e6 1.8105412518775377e7 0.0
1.8105412518775377e7 3.131370535673742e7 0.0
0.0 0.0 0.0

3.722588088215704e6 6.172057256804067e6 0.0
6.172057256804067e6 -1.224577318396122e7 0.0
0.0 0.0 0.0

-1.0287248936267626e7 2.244592972644882e6 0.0
2.244592972644882e6 1.5958016349724595e7 0.0
0.0 0.0 0.0

-3.329236915758831e6 1.2440228606956195e7 0.0
1.2440228606956195e7 1.9778632155382547e6 0.0
0.0 0.0 0.0

-6.35950426270041e6 1.72454636532815e7 0.0
1.72454636532815e7 1.1821703853908014e7 0.0
0.0 0.0 0.0

4.558588355117876e6 5.799418396076574e6 0.0
5.799418396076574e6 -2.583115366595679e7 0.0
0.0 0.0 0.0

4.329878540968343e6 6.607843990584171e6 0.0
6.607843990584171e6 -2.2553467989666156e7 0.0
0.0 0.0 0.0

-3.1173944999182876e6 5.576902785024146e6 0.0
5.576902785024146e6 742650.3463011603 0.0
0.0 0.0 0.0

-4.790393718698651e6 1.6068999638775026e7 0.0
1.6068999638775026e7 6.5764589928552285e6 0.0
0.0 0.0 0.0

-6.372458822117025e6 1.3918850212409072e7 0.0
1.3918850212409072e7 3.3924014935557894e7 0.0
0.0 0.0 0.0

346237.6574279475 1.5072502641517738e7 0.0
1.5072502641517738e7 -1.050283897247971e7 0.0
0.0 0.0 0.0

-2.287512672308031e6 6.421139952979538e6 0.0
6.421139952979538e6 2.0008588945853366e6 0.0
0.0 0.0 0.0

4.512843923946437e6 6.019659777663729e6 0.0
6.019659777663729e6 -2.3419716574446436e7 0.0
0.0 0.0 0.0

-5.301854420964729e6 1.7797811841862917e7 0.0
1.7797811841862917e7 7.42858512968464e6 0.0
0.0 0.0 0.0

3.048345498348682e6 7.75356492795134e6 0.0
7.75356492795134e6 -1.605867319562108e7 0.0
0.0 0.0 0.0

-7.939324257477956e6 5.793056653246722e6 0.0
5.793056653246722e6 183919.32652798435 0.0
0.0 0.0 0.0

489996.9109746297 1.2934994348367402e7 0.0
1.2934994348367402e7 -1.1743342247367488e7 0.0
0.0 0.0 0.0

-1.4876028097038942e6 4.049994087072768e6 0.0
4.049994087072768e6 -957619.5640313319 0.0
0.0 0.0 0.0

-2.3336576942491895e6 9.277411272159066e6 0.0
9.277411272159066e6 933028.0417269922 0.0
0.0 0.0 0.0

-1.833866724946155e6 8.151679524567269e6 0.0
8.151679524567269e6 489353.20038798754 0.0
0.0 0.0 0.0

93766.91581745585 1.3118862553048747e7 0.0
1.3118862553048747e7 -1.0409073055376546e7 0.0
0.0 0.0 0.0

-3.0283199893278703e6 1.242014264334882e7 0.0
1.242014264334882e7 -1.9567014776010679e6 0.0
0.0 0.0 0.0

-1.2929612429498995e7 5.379368349683087e6 0.0
5.379368349683087e6 2.0336680231453285e7 0.0
0.0 0.0 0.0

-8.854859331458816e6 1.1592810723035619e7 0.0
1.1592810723035619e7 3.297694397193768e7 0.0
0.0 0.0 0.0

-1.1152311333410358e7 8.840766082433945e6 0.0
8.840766082433945e6 2.9850708977330044e7 0.0
0.0 0.0 0.0

-9.235044074750435e6 1.2069816345804226e7 0.0
1.2069816345804226e7 3.050616545070967e7 0.0
0.0 0.0 0.0

-9.014871980243675e6 5.699760268038597e6 0.0
5.699760268038597e6 4.734295733839071e7 0.0
0.0 0.0 0.0

-1.167173197737664e6 1.652293784225803e7 0.0
1.652293784225803e7 5.726809237880602e6 0.0
0.0 0.0 0.0

-1.1078951953342883e7 3.3010608885102044e6 0.0
3.3010608885102044e6 3.542244051708024e7 0.0
0.0 0.0 0.0

-2.6372423123301878e6 1.7723624458503406e7 0.0
1.7723624458503406e7 -3.8642946989952517e6 0.0
0.0 0.0 0.0

-483852.01847148873 1.5072003847760724e7 0.0
1.5072003847760724e7 -9.356895120038185e6 0.0
0.0 0.0 0.0

-3.97761582353508e7 2.5219261988766752e7 0.0
2.5219261988766752e7 -4.206809872907594e6 0.0
0.0 0.0 0.0

3.356617425726277e6 7.210892091219954e6 0.0
7.210892091219954e6 -1.2131867921299648e7 0.0
0.0 0.0 0.0

2.6270782567260712e6 1.085270674867237e7 0.0
1.085270674867237e7 -1.6753135629755452e7 0.0
0.0 0.0 0.0

-1.8346944208271394e6 1.8924132196894214e7 0.0
1.8924132196894214e7 -4.0540028511185483e6 0.0
0.0 0.0 0.0

-3.712627220115331e6 1.8371398489541642e7 0.0
1.8371398489541642e7 2.8529419523028433e6 0.0
0.0 0.0 0.0

4.112382878241036e6 7.278123565529988e6 0.0
7.278123565529988e6 -2.035648235031689e7 0.0
0.0 0.0 0.0

9.034715412256056e6 1.9018232695297677e7 0.0
1.9018232695297677e7 -5.742264869978737e6 0.0
0.0 0.0 0.0

-3.623730709857975e6 9.681811925395805e6 0.0
9.681811925395805e6 323017.7168282997 0.0
0.0 0.0 0.0

3.427248478944201e6 6.022733745661643e6 0.0
6.022733745661643e6 -3.537494049917414e7 0.0
0.0 0.0 0.0

-3.153834359942216e6 8.569399072779834e6 0.0
8.569399072779834e6 -139664.68486630847 0.0
0.0 0.0 0.0

2.581155955615431e6 7.62372585767205e6 0.0
7.62372585767205e6 -1.2795756415917031e7 0.0
0.0 0.0 0.0

-9.598652982462006e6 1.5699925797405245e7 0.0
1.5699925797405245e7 1.827122222048101e7 0.0
0.0 0.0 0.0

-2.5194386104181502e7 2.2221873133914012e7 0.0
2.2221873133914012e7 4.878162218604203e6 0.0
0.0 0.0 0.0

-1.0701737595893245e7 -2.898604697372146e6 0.0
-2.898604697372146e6 2.0634304553548742e7 0.0
0.0 0.0 0.0

73062.19857419422 1.5700259225340413e7 0.0
1.5700259225340413e7 -9.986890410076585e6 0.0
0.0 0.0 0.0

-1.1440768986236915e7 2.174704884582745e7 0.0
2.174704884582745e7 -61536.40034575807 0.0
0.0 0.0 0.0

3.6714034658846827e6 5.690437145385831e6 0.0
5.690437145385831e6 -1.1893095176783904e7 0.0
0.0 0.0 0.0

-1.1796753394160192e7 5.710137646403473e6 0.0
5.710137646403473e6 1.8139396707481164e7 0.0
0.0 0.0 0.0

557471.8739323062 1.3912386113654274e7 0.0
1.3912386113654274e7 -1.0095476841292815e7 0.0
0.0 0.0 0.0

-685809.2851033561 1.3266567374398958e7 0.0
1.3266567374398958e7 -5.431496372159718e6 0.0
0.0 0.0 0.0

-4.006913796169965e6 1.076978391385999e7 0.0
1.076978391385999e7 717519.664694547 0.0
0.0 0.0 0.0

-1.2238214971799793e7 7.048915344867361e6 0.0
7.048915344867361e6 2.6323188096318018e7 0.0
0.0 0.0 0.0

4.965743884898882e6 4.61367142399813e6 0.0
4.61367142399813e6 -2.200808141258757e7 0.0
0.0 0.0 0.0

3.6185586072204607e6 5.586931672823558e6 0.0
5.586931672823558e6 -1.450060855910573e7 0.0
0.0 0.0 0.0

-5.3145249041852895e6 1.75411229244618e7 0.0
1.75411229244618e7 6.687567364793867e6 0.0
0.0 0.0 0.0

-6.503543040867809e6 2.357905869573904e6 0.0
2.357905869573904e6 6.553617231955062e6 0.0
0.0 0.0 0.0

333637.4749433324 1.20866411191715e7 0.0
1.20866411191715e7 -1.022674216240277e7 0.0
0.0 0.0 0.0

4.1263258436919395e6 6.683281183180488e6 0.0
6.683281183180488e6 -1.742582687108225e7 0.0
0.0 0.0 0.0

-1.124994162315109e7 2.0921075397209977e6 0.0
2.0921075397209977e6 2.9376043153593633e7 0.0
0.0 0.0 0.0

-1.0531071057295455e6 1.663552676690669e7 0.0
1.663552676690669e7 3.909725158775855e6 0.0
0.0 0.0 0.0

-1.0892089512045559e7 -1.1359633842037397e6 0.0
-1.1359633842037397e6 1.7333701043087393e7 0.0
0.0 0.0 0.0

2.6487787373892684e6 1.0388381213318188e7 0.0
1.0388381213318188e7 -2.254029921784131e7 0.0
0.0 0.0 0.0

36319.67871426605 1.4664132812687567e7 0.0
1.4664132812687567e7 -1.4811380336197454e7 0.0
0.0 0.0 0.0

-1.1651427899505181e7 8.269765773925959e6 0.0
8.269765773925959e6 1.4330966612085098e7 0.0
0.0 0.0 0.0

1.6175885026498558e6 1.2829241556884563e7 0.0
1.2829241556884563e7 -1.7771955196466222e7 0.0
0.0 0.0 0.0

1.231547302519212e6 1.3180371294767156e7 0.0
1.3180371294767156e7 -1.2327110092583064e7 0.0
0.0 0.0 0.0

451843.23226541927 3.5395756321637826e6 0.0
3.5395756321637826e6 -1.4448392231563784e6 0.0
0.0 0.0 0.0

-1.0251175163541086e7 -1.6289398540690828e6 0.0
-1.6289398540690828e6 1.4636957552859358e7 0.0
0.0 0.0 0.0

492151.44407704286 1.0600913711354205e7 0.0
1.0600913711354205e7 -9.341626404501466e6 0.0
0.0 0.0 0.0

875701.4498182815 9.710847682791796e6 0.0
9.710847682791796e6 -9.626898784664337e6 0.0
0.0 0.0 0.0

633819.7773357774 1.4145139956597323e7 0.0
1.4145139956597323e7 -1.0539036583930051e7 0.0
0.0 0.0 0.0

-1.1524580544876023e6 1.674572819890152e7 0.0
1.674572819890152e7 2.097321254399548e6 0.0
0.0 0.0 0.0

1.7911841139880922e6 8.67925804780403e6 0.0
8.67925804780403e6 -1.1253947185105558e7 0.0
0.0 0.0 0.0

186501.5001446884 1.1700500347374164e7 0.0
1.1700500347374164e7 -3.188353463133523e7 0.0
0.0 0.0 0.0

-5.615162056480257e6 3.6298550247110073e6 0.0
3.6298550247110073e6 5.72299755670215e6 0.0
0.0 0.0 0.0

-6.710168588951727e6 1.5377784602260737e7 0.0
1.5377784602260737e7 -2.7150566715061042e7 0.0
0.0 0.0 0.0

-8.779862292065476e7 9.851690917614076e6 0.0
9.851690917614076e6 3.37904488757848e6 0.0
0.0 0.0 0.0

6.885493608044928e7 1.0952076476883957e7 0.0
1.0952076476883957e7 1.98845091701141e6 0.0
0.0 0.0 0.0

-689915.4395973012 1.2146108006571606e7 0.0
1.2146108006571606e7 -3.624730436649579e7 0.0
0.0 0.0 0.0

-9.17684513040136e6 1.2662178911975602e7 0.0
1.2662178911975602e7 1.564569528012243e7 0.0
0.0 0.0 0.0

-4.0514757615974084e6 1.6269172806900846e7 0.0
1.6269172806900846e7 233961.84011717816 0.0
0.0 0.0 0.0

127128.45864671422 1.1427358809754362e7 0.0
1.1427358809754362e7 -9.05414300170181e6 0.0
0.0 0.0 0.0

216015.73165886733 5.943094035845123e6 0.0
5.943094035845123e6 -4.570305986586539e6 0.0
0.0 0.0 0.0

810642.8756068517 6.570385183665492e6 0.0
6.570385183665492e6 -3.666329153805824e6 0.0
0.0 0.0 0.0

-4.284607863423291e6 1.18369885741059e7 0.0
1.18369885741059e7 1.0462473508078444e6 0.0
0.0 0.0 0.0

-224357.48889209516 1.1890229053557532e7 0.0
1.1890229053557532e7 -3.394324334047252e7 0.0
0.0 0.0 0.0

1.3843605021999138e6 1.0245517514540508e7 0.0
1.0245517514540508e7 -8.779733112561202e6 0.0
0.0 0.0 0.0

-1.179709483862375e7 212811.78823222386 0.0
212811.78823222386 2.3080672019436147e7 0.0
0.0 0.0 0.0

5.434203441371682e7 1.3018405147686223e7 0.0
1.3018405147686223e7 -786156.9669494256 0.0
0.0 0.0 0.0

997799.9500816949 1.110354427676844e7 0.0
1.110354427676844e7 -8.546553765466763e6 0.0
0.0 0.0 0.0

4.407793383308652e6 6.338757108808836e6 0.0
6.338757108808836e6 -1.9553931303511072e7 0.0
0.0 0.0 0.0

4.266815395856867e6 6.801662430389244e6 0.0
6.801662430389244e6 -1.994663502522541e7 0.0
0.0 0.0 0.0

-9.257076667318873e6 1.593354463662829e7 0.0
1.593354463662829e7 1.76272954366934e7 0.0
0.0 0.0 0.0

1.857708125769956e6 1.223152506732252e7 0.0
1.223152506732252e7 -1.397498919910154e7 0.0
0.0 0.0 0.0

-1.9737008669238274e6 1.7319220073302813e7 0.0
1.7319220073302813e7 -7.86811076949559e6 0.0
0.0 0.0 0.0

3.1711240681875395e6 1.7783975752151534e7 0.0
1.7783975752151534e7 -4.216259830942629e6 0.0
0.0 0.0 0.0

-1.580288846912425e6 1.110146361943665e7 0.0
1.110146361943665e7 -1.7109024364403316e6 0.0
0.0 0.0 0.0

1.801906548692544e6 5.7222813058260605e6 0.0
5.7222813058260605e6 -5.49166214994021e6 0.0
0.0 0.0 0.0

-1.6297083953383504e6 7.839270173397012e6 0.0
7.839270173397012e6 -2.409518332222435e6 0.0
0.0 0.0 0.0

-3.4511478600203986e6 5.803927921237315e6 0.0
5.803927921237315e6 4.442624250154746e6 0.0
0.0 0.0 0.0

-3.144650398450965e6 1.3758677386375906e7 0.0
1.3758677386375906e7 -2.0355450490250073e7 0.0
0.0 0.0 0.0

2.9149884894162733e6 1.0263762538348509e7 0.0
1.0263762538348509e7 -1.9976827254775785e7 0.0
0.0 0.0 0.0

2.8775875675276015e6 6.104584382008361e6 0.0
6.104584382008361e6 -1.2548886806224827e7 0.0
0.0 0.0 0.0

2.625296218667359e6 8.271847868545137e6 0.0
8.271847868545137e6 -1.0582833933777548e7 0.0
0.0 0.0 0.0

-2.275953463073847e6 1.2979933312513046e7 0.0
1.2979933312513046e7 -1.104636430771729e6 0.0
0.0 0.0 0.0

2.5516944636741774e6 8.037882786181763e6 0.0
8.037882786181763e6 -1.3332657685154825e7 0.0
0.0 0.0 0.0

-304705.8949051923 7.031720506690926e6 0.0
7.031720506690926e6 -4.39771362442049e6 0.0
0.0 0.0 0.0

4.494531711128925e6 4.998211564129378e6 0.0
4.998211564129378e6 -1.524665819774416e7 0.0
0.0 0.0 0.0

829921.8677132335 1.286296272420361e7 0.0
1.286296272420361e7 -1.0011240809470138e7 0.0
0.0 0.0 0.0

-5.403647544871202e6 5.052651993491963e6 0.0
5.052651993491963e6 4.682358726564722e6 0.0
0.0 0.0 0.0

-1.792776966724053e6 1.835248299476557e7 0.0
1.835248299476557e7 -6.185707969774212e6 0.0
0.0 0.0 0.0

3.870793164570134e6 5.674956011306027e6 0.0
5.674956011306027e6 -3.0935076713399403e7 0.0
0.0 0.0 0.0

515545.7814262714 1.3614949532766584e7 0.0
1.3614949532766584e7 -9.652674212515423e6 0.0
0.0 0.0 0.0

3.674451300344579e6 7.800145522695237e6 0.0
7.800145522695237e6 -1.5805544939135421e7 0.0
0.0 0.0 0.0

-800073.3664052753 4.871455190567573e6 0.0
4.871455190567573e6 299687.9809630862 0.0
0.0 0.0 0.0

3.922478640177955e6 7.265836374752597e6 0.0
7.265836374752597e6 -1.6647342254311578e7 0.0
0.0 0.0 0.0

-4.249875108449334e6 1.6965539498373788e7 0.0
1.6965539498373788e7 4.540583525862124e6 0.0
0.0 0.0 0.0

-1.0763737420830405e6 1.9578334466204662e7 0.0
1.9578334466204662e7 -5.899117242711905e6 0.0
0.0 0.0 0.0

-218971.67969514057 1.5045950683418829e7 0.0
1.5045950683418829e7 -1.4480417756007645e7 0.0
0.0 0.0 0.0

804585.4413683908 6.147955567502279e6 0.0
6.147955567502279e6 -6.146077375877368e6 0.0
0.0 0.0 0.0

-1.0414552821757109e6 2.0263469943638023e7 0.0
2.0263469943638023e7 -4.349074821210038e6 0.0
0.0 0.0 0.0

-672380.8963603359 1.720707072139734e7 0.0
1.720707072139734e7 -7.722054057270922e6 0.0
0.0 0.0 0.0

-1.1554000186975185e7 4.369609236409779e6 0.0
4.369609236409779e6 1.4028426285946285e7 0.0
0.0 0.0 0.0

-4.3581977278912775e6 1.791399695925154e7 0.0
1.791399695925154e7 1.0530566961747276e7 0.0
0.0 0.0 0.0

-2.207967425313266e6 4.447472456468483e6 0.0
4.447472456468483e6 140800.68002065166 0.0
0.0 0.0 0.0

-1.6348075999852312e6 8.877646988632623e6 0.0
8.877646988632623e6 -302684.83141582634 0.0
0.0 0.0 0.0

-1.092557280028989e7 5.2556669412310915e6 0.0
5.2556669412310915e6 3.3160354548028734e7 0.0
0.0 0.0 0.0

-5.647425918067092e6 1.0996166304557428e7 0.0
1.0996166304557428e7 4.375451066839835e6 0.0
0.0 0.0 0.0

1.6144218693046395e6 1.532015351411875e7 0.0
1.532015351411875e7 475312.5994443845 0.0
0.0 0.0 0.0

660406.5332248928 1.1934936833854385e7 0.0
1.1934936833854385e7 -8.259186714040583e6 0.0
0.0 0.0 0.0

12612.868861375377 1.2842797230358139e7 0.0
1.2842797230358139e7 -9.867582024440814e6 0.0
0.0 0.0 0.0

277439.1976289544 1.1624502971525833e7 0.0
1.1624502971525833e7 -3.0003589179620054e7 0.0
0.0 0.0 0.0

3.558080226057319e6 5.985628610157568e6 0.0
5.985628610157568e6 -3.279660083331816e7 0.0
0.0 0.0 0.0

-1.302833694524739e7 7.108919995503451e6 0.0
7.108919995503451e6 1.8256236233898263e7 0.0
0.0 0.0 0.0

-4.035193446087836e6 1.9623815110108543e7 0.0
1.9623815110108543e7 5.424781404082828e6 0.0
0.0 0.0 0.0

-1.1876852565174572e7 863295.3946080653 0.0
863295.3946080653 2.5801273987901997e7 0.0
0.0 0.0 0.0

-241272.13694465347 1.6281925774682876e7 0.0
1.6281925774682876e7 -9.507276005756304e6 0.0
0.0 0.0 0.0

-309842.9963791501 1.5902993653115714e7 0.0
1.5902993653115714e7 -1.140751509889945e7 0.0
0.0 0.0 0.0

9.374095127333932e6 5.472922816642434e6 0.0
5.472922816642434e6 -2.0268906435141168e6 0.0
0.0 0.0 0.0

1.6570574745146013e6 8.3850309791214205e6 0.0
8.3850309791214205e6 -7.977677180568446e6 0.0
0.0 0.0 0.0

-8.934601947436985e6 1.0308637588604247e7 0.0
1.0308637588604247e7 1.0795884612331342e7 0.0
0.0 0.0 0.0

-1.2694737863077172e6 1.4774817135091128e7 0.0
1.4774817135091128e7 -1.376169299258504e7 0.0
0.0 0.0 0.0

787071.419782314 1.258632330397433e7 0.0
1.258632330397433e7 -9.471849065880373e6 0.0
0.0 0.0 0.0

902509.2829069481 1.3445877804839782e7 0.0
1.3445877804839782e7 -1.097624311219776e7 0.0
0.0 0.0 0.0

-1.1560873077198716e7 1.0296861326308537e7 0.0
1.0296861326308537e7 2.5786497335200865e7 0.0
0.0 0.0 0.0

-1.2649570243678771e7 6.580174325968678e6 0.0
6.580174325968678e6 1.6492243992212541e7 0.0
0.0 0.0 0.0

-82242.36837905506 1.2543199960874956e7 0.0
1.2543199960874956e7 -9.32549204883211e6 0.0
0.0 0.0 0.0

-1.2836371643894808e6 1.506340589094831e7 0.0
1.506340589094831e7 -7.4248717511701435e6 0.0
0.0 0.0 0.0

-4.673892465271011e6 1.6793013541656233e7 0.0
1.6793013541656233e7 -4.058325595573892e6 0.0
0.0 0.0 0.0

-3.114927199268913e6 1.975798193426352e7 0.0
1.975798193426352e7 -1.4583246410156663e6 0.0
0.0 0.0 0.0

2.845126547618271e6 1.0318642892704228e7 0.0
1.0318642892704228e7 -2.1235446226941228e7 0.0
0.0 0.0 0.0

-3.0386684382287897e6 2.314303035028069e7 0.0
2.314303035028069e7 2.6978246181819728e6 0.0
0.0 0.0 0.0

-8.087412379276799e6 1.1317540921572562e7 0.0
1.1317540921572562e7 9.62704358826471e6 0.0
0.0 0.0 0.0

-4.1366421883006915e6 1.952774641903784e7 0.0
1.952774641903784e7 -6.2914894989422215e6 0.0
0.0 0.0 0.0

-100745.24899643514 1.4392452490190305e7 0.0
1.4392452490190305e7 -1.672447124446747e6 0.0
0.0 0.0 0.0

-77010.96220316924 1.5278849644325027e7 0.0
1.5278849644325027e7 -1.3602240104656354e7 0.0
0.0 0.0 0.0

-1.284463877917418e6 1.5437335556591682e7 0.0
1.5437335556591682e7 -7.603164077615898e6 0.0
0.0 0.0 0.0

-4.812428771742361e6 1.9108687822081596e7 0.0
1.9108687822081596e7 7.245301485406475e6 0.0
0.0 0.0 0.0

-22881.89404783491 1.5306578217842115e7 0.0
1.5306578217842115e7 -9.198999489518786e6 0.0
0.0 0.0 0.0

-187616.1548498245 1.2239124454381656e7 0.0
1.2239124454381656e7 -8.734194223656692e6 0.0
0.0 0.0 0.0

380752.5946277501 1.4458998291176165e7 0.0
1.4458998291176165e7 -1.6024300585575033e7 0.0
0.0 0.0 0.0

-869208.2184728374 1.0266465019576225e7 0.0
1.0266465019576225e7 -5.608349532261298e6 0.0
0.0 0.0 0.0

-4.0839178601651285e6 1.8328860123893328e7 0.0
1.8328860123893328e7 1.6179647371516428e6 0.0
0.0 0.0 0.0

-2.9191039559120247e6 1.935799951542051e7 0.0
1.935799951542051e7 -2.379045121435475e6 0.0
0.0 0.0 0.0

-85470.47997013494 4.532554741498398e6 0.0
4.532554741498398e6 -697489.3278818763 0.0
0.0 0.0 0.0

811284.3775390317 9.242735119541345e6 0.0
9.242735119541345e6 -9.043737802502412e6 0.0
0.0 0.0 0.0

-2.692886874191431e6 2.052067185925436e7 0.0
2.052067185925436e7 -63130.32858977141 0.0
0.0 0.0 0.0

-4.968761715974365e6 1.6567982994204648e7 0.0
1.6567982994204648e7 3.908224647371039e6 0.0
0.0 0.0 0.0

-6.688433843210882e7 5.552420030064429e6 0.0
5.552420030064429e6 5.323133867370971e6 0.0
0.0 0.0 0.0

1.341077293210729e6 1.319543588705962e7 0.0
1.319543588705962e7 -1.784348922308455e7 0.0
0.0 0.0 0.0

-5.630086012490667e6 1.5653897051282968e7 0.0
1.5653897051282968e7 5.940946678251257e6 0.0
0.0 0.0 0.0

-2.2348474225370013e6 1.795487272632955e7 0.0
1.795487272632955e7 -2.599209785441651e6 0.0
0.0 0.0 0.0

-5.4044807247512005e6 1.6483621834387496e7 0.0
1.6483621834387496e7 5.871780338629516e6 0.0
0.0 0.0 0.0

-1.1450207677791e6 1.696300905783579e7 0.0
1.696300905783579e7 342019.85440218094 0.0
0.0 0.0 0.0

-608673.4044896595 1.6399038218628189e7 0.0
1.6399038218628189e7 -7.977198859613583e6 0.0
0.0 0.0 0.0

-7.203682771210199e6 1.2272817674144076e7 0.0
1.2272817674144076e7 8.303697633365205e6 0.0
0.0 0.0 0.0

-1.1713840051815895e7 3.849539177556715e6 0.0
3.849539177556715e6 2.0181159184919987e7 0.0
0.0 0.0 0.0

-381344.2189682424 1.0766554444455285e7 0.0
1.0766554444455285e7 -4.657783460670654e6 0.0
0.0 0.0 0.0

2.905100206300608e6 5.762763232039102e6 0.0
5.762763232039102e6 -9.254657502049083e6 0.0
0.0 0.0 0.0

-1.5951524183783107e6 1.356021842689526e7 0.0
1.356021842689526e7 -5.883491937961861e6 0.0
0.0 0.0 0.0

-1.0296356758266322e6 1.688539579794637e7 0.0
1.688539579794637e7 -8.78546552083306e6 0.0
0.0 0.0 0.0

-5.120227375152602e6 1.5751258302401114e7 0.0
1.5751258302401114e7 3.881388922714256e6 0.0
0.0 0.0 0.0

-2.247279971122129e6 1.2426793525943415e7 0.0
1.2426793525943415e7 -3.8082986661441717e6 0.0
0.0 0.0 0.0

-4.664973638593795e6 1.774868591885976e6 0.0
1.774868591885976e6 7.376751365041751e6 0.0
0.0 0.0 0.0

2.5097885833034087e6 5.666030714604128e6 0.0
5.666030714604128e6 -1.056811088576122e7 0.0
0.0 0.0 0.0

-1.170387411257591e7 3.818646549390399e6 0.0
3.818646549390399e6 2.6083853940772668e7 0.0
0.0 0.0 0.0

-1.0579279432538275e7 725784.1511386845 0.0
725784.1511386845 1.3864523946668765e7 0.0
0.0 0.0 0.0

-4.883910466196922e6 1.67227338306246e7 0.0
1.67227338306246e7 1.5951319001316026e7 0.0
0.0 0.0 0.0

-1.4961886920133198e6 1.5709740477360252e7 0.0
1.5709740477360252e7 -7.061555874808751e6 0.0
0.0 0.0 0.0

676201.190264666 8.729676547066221e6 0.0
8.729676547066221e6 -8.501740384161038e6 0.0
0.0 0.0 0.0

-1.1443370776245544e7 3.6972247217611196e6 0.0
3.6972247217611196e6 2.798794790453097e7 0.0
0.0 0.0 0.0

-2.0222409922337611e6 1.813929322996443e7 0.0
1.813929322996443e7 -3.2158043096628166e6 0.0
0.0 0.0 0.0

-3.6447583679033797e6 1.1377957495288499e7 0.0
1.1377957495288499e7 -223503.49735712423 0.0
0.0 0.0 0.0

-946120.1139992373 8.48105770400966e6 0.0
8.48105770400966e6 -1.427767724595155e6 0.0
0.0 0.0 0.0

-1.324601680175879e6 1.1116010161830762e7 0.0
1.1116010161830762e7 -5.202543212105177e6 0.0
0.0 0.0 0.0

-989639.6309117265 1.4060881872878866e7 0.0
1.4060881872878866e7 -1.9946314574029043e7 0.0
0.0 0.0 0.0

-4.485631720253946e6 1.6545908698727263e7 0.0
1.6545908698727263e7 5.529085914793924e6 0.0
0.0 0.0 0.0

287066.98135901336 1.5842910571483418e7 0.0
1.5842910571483418e7 -1.1427335851518728e7 0.0
0.0 0.0 0.0

-4.426254964529967e6 1.4475165897426443e7 0.0
1.4475165897426443e7 4.105840747358325e7 0.0
0.0 0.0 0.0

767902.2889338788 1.8001737746413898e7 0.0
1.8001737746413898e7 8.877436152135374e6 0.0
0.0 0.0 0.0

-1.0665839841032146e7 9.445286531420004e6 0.0
9.445286531420004e6 1.3178435381501852e7 0.0
0.0 0.0 0.0

2.7003170093742236e6 1.0768895210351303e7 0.0
1.0768895210351303e7 -1.7804938772507984e7 0.0
0.0 0.0 0.0

-1.5507703166818668e6 1.2953028516406493e7 0.0
1.2953028516406493e7 -2.996325890671684e6 0.0
0.0 0.0 0.0

-513855.66048189625 1.7742153782703597e7 0.0
1.7742153782703597e7 -8.613907299294582e6 0.0
0.0 0.0 0.0

-3.7287612088870313e6 2.0303660710937444e7 0.0
2.0303660710937444e7 3.9642918147363113e6 0.0
0.0 0.0 0.0

-2.7398315991746383e6 1.8920097574443445e7 0.0
1.8920097574443445e7 -3.155427564888087e6 0.0
0.0 0.0 0.0

10836.230711952783 1.558326912652879e7 0.0
1.558326912652879e7 -1.2708787757656172e7 0.0
0.0 0.0 0.0

-1.2255034938568666e6 1.2103126547991991e7 0.0
1.2103126547991991e7 -3.317218201553276e6 0.0
0.0 0.0 0.0

-5.08000916996035e6 1.6930586171449054e7 0.0
1.6930586171449054e7 4.880401322961762e6 0.0
0.0 0.0 0.0

-1.0941868313209293e7 3.767873714704625e6 0.0
3.767873714704625e6 1.2651012791380633e7 0.0
0.0 0.0 0.0

2.879334971244297e6 5.597802160579494e6 0.0
5.597802160579494e6 -1.1915424200816654e7 0.0
0.0 0.0 0.0

-1.1601850576834748e6 1.3711013531346032e7 0.0
1.3711013531346032e7 -4.446614730768028e6 0.0
0.0 0.0 0.0

3.189815489101534e6 8.463954063802406e6 0.0
8.463954063802406e6 -1.377134660795116e7 0.0
0.0 0.0 0.0

-3.5636260289906533e6 1.6392966423154265e7 0.0
1.6392966423154265e7 1.8452762407226656e6 0.0
0.0 0.0 0.0

-258270.84616643144 8.101009390369433e6 0.0
8.101009390369433e6 -2.5083994498103065e6 0.0
0.0 0.0 0.0

-2.273219698908519e6 2.164541122227834e7 0.0
2.164541122227834e7 -1.8949626009874109e6 0.0
0.0 0.0 0.0

-4.541966313184527e7 2.26463326269684e6 0.0
2.26463326269684e6 8.237955109365525e6 0.0
0.0 0.0 0.0

290243.68467704556 7.654602601483771e6 0.0
7.654602601483771e6 -3.4549667571208e6 0.0
0.0 0.0 0.0

-1.0979635222163824e6 1.3536301211100465e7 0.0
1.3536301211100465e7 -2.374385376562413e7 0.0
0.0 0.0 0.0

163295.9040508857 1.687777266748761e7 0.0
1.687777266748761e7 -8.311786324593881e6 0.0
0.0 0.0 0.0

1.0483350561325569e6 1.145044127821688e7 0.0
1.145044127821688e7 -9.147054269056553e6 0.0
0.0 0.0 0.0

818231.1607909994 1.4633120252448963e7 0.0
1.4633120252448963e7 -1.4133701967703082e7 0.0
0.0 0.0 0.0

816943.1412437987 7.250231157022254e6 0.0
7.250231157022254e6 -4.339415770631533e6 0.0
0.0 0.0 0.0

3.790771583197157e6 7.320739567229068e6 0.0
7.320739567229068e6 -1.5361460500069031e7 0.0
0.0 0.0 0.0

-3.257605371245396e6 2.01619420687782e7 0.0
2.01619420687782e7 -628396.2049555857 0.0
0.0 0.0 0.0

759966.3671411723 5.585871168652632e6 0.0
5.585871168652632e6 -5.330317683434685e6 0.0
0.0 0.0 0.0

1.3220306128754355e6 9.183689000539329e6 0.0
9.183689000539329e6 -1.0469239478368318e7 0.0
0.0 0.0 0.0

-2.1069088743250566e6 2.250640563019516e7 0.0
2.250640563019516e7 -1.062733066621934e6 0.0
0.0 0.0 0.0

2.0102102435201842e6 1.6089941780937804e7 0.0
1.6089941780937804e7 -687214.1803970633 0.0
0.0 0.0 0.0

-648696.2604074157 1.8909684179413624e7 0.0
1.8909684179413624e7 -6.58783393830719e6 0.0
0.0 0.0 0.0

3.43600053495026e6 7.490502988739588e6 0.0
7.490502988739588e6 -3.816627029889609e7 0.0
0.0 0.0 0.0

-1.1313145274936158e7 1.4072085927172817e7 0.0
1.4072085927172817e7 2.0444252856801685e7 0.0
0.0 0.0 0.0

-3.132617912798485e6 1.965345757082173e7 0.0
1.965345757082173e7 963670.8751022676 0.0
0.0 0.0 0.0

2.9759351999883484e6 8.167424613145823e6 0.0
8.167424613145823e6 -1.19294555667268e7 0.0
0.0 0.0 0.0

1.233500471924405e6 6.752022293633379e6 0.0
6.752022293633379e6 -5.202501538882803e6 0.0
0.0 0.0 0.0

605734.6852588677 8.230696359888785e6 0.0
8.230696359888785e6 -7.925500935936286e6 0.0
0.0 0.0 0.0

-3.781278649529547e6 2.2668133335968193e7 0.0
2.2668133335968193e7 4.515113712226771e6 0.0
0.0 0.0 0.0

-8.531858877733434e6 -565396.0357940835 0.0
-565396.0357940835 1.3685505225875532e7 0.0
0.0 0.0 0.0

-1.2565835595946293e7 1.1758435410378559e7 0.0
1.1758435410378559e7 1.8734528947501317e7 0.0
0.0 0.0 0.0

-2.3803546380710662e6 1.914705992617734e7 0.0
1.914705992617734e7 -2.0465453239017688e6 0.0
0.0 0.0 0.0

1.1803576609458015e6 1.2729181154181851e7 0.0
1.2729181154181851e7 -1.1425081578507204e7 0.0
0.0 0.0 0.0

-5.087071140225199e6 1.713179448202393e7 0.0
1.713179448202393e7 1.4296863668369602e7 0.0
0.0 0.0 0.0

-2.530575963447405e6 1.3270867124514408e7 0.0
1.3270867124514408e7 -3.4810982272376087e6 0.0
0.0 0.0 0.0

475449.174051838 1.3318967650662065e7 0.0
1.3318967650662065e7 -9.15667728103198e6 0.0
0.0 0.0 0.0

353378.8900017077 1.30238266619818e7 0.0
1.30238266619818e7 -2.088689343714994e7 0.0
0.0 0.0 0.0

-511200.08402447845 1.983047239849685e7 0.0
1.983047239849685e7 -5.496395952102931e6 0.0
0.0 0.0 0.0

554750.3851748127 1.1760187064779798e7 0.0
1.1760187064779798e7 -2.8366299904826723e7 0.0
0.0 0.0 0.0

-1.022627501595072e7 3.157685158481926e6 0.0
3.157685158481926e6 1.1884490506635688e7 0.0
0.0 0.0 0.0

2.6227097877238365e6 1.8243096735827215e7 0.0
1.8243096735827215e7 1.685041602722828e7 0.0
0.0 0.0 0.0

-4.299593475355095e6 2.1985067112815242e7 0.0
2.1985067112815242e7 4.741548129105481e6 0.0
0.0 0.0 0.0

-2.2977347622487224e6 1.3649200762292e7 0.0
1.3649200762292e7 -4.196356621012101e6 0.0
0.0 0.0 0.0

1.1818917374929462e6 1.7556958240583405e7 0.0
1.7556958240583405e7 -5.766721615535579e6 0.0
0.0 0.0 0.0

-2.0966380706599336e6 1.8753952358607266e7 0.0
1.8753952358607266e7 -2.9106593222098053e6 0.0
0.0 0.0 0.0

-3.7470281546916626e6 6.852393283927293e6 0.0
6.852393283927293e6 1.3658020937460705e6 0.0
0.0 0.0 0.0

42018.00320209423 1.5888710240024906e7 0.0
1.5888710240024906e7 -1.1857783508067021e7 0.0
0.0 0.0 0.0

2.0157631477152277e6 1.2153065400239501e7 0.0
1.2153065400239501e7 -1.526837908138065e7 0.0
0.0 0.0 0.0

1.7299523400635263e6 1.2585233098480942e7 0.0
1.2585233098480942e7 -1.436182721964332e7 0.0
0.0 0.0 0.0

-633001.8050268316 1.2681871365967592e7 0.0
1.2681871365967592e7 -7.811163290584642e6 0.0
0.0 0.0 0.0

7.327863085889544e6 2.0209537298585996e7 0.0
2.0209537298585996e7 -5.991508595364222e6 0.0
0.0 0.0 0.0

1.8162815637607155e6 9.742542363210516e6 0.0
9.742542363210516e6 -9.594913652704105e6 0.0
0.0 0.0 0.0

2.8493796743920622e6 5.197150354605556e6 0.0
5.197150354605556e6 -1.1422336474299563e7 0.0
0.0 0.0 0.0

2.2595734831296997e6 1.1677510596755983e7 0.0
1.1677510596755983e7 -1.6088625083565604e7 0.0
0.0 0.0 0.0

3.717604320638256e6 6.320608012470496e6 0.0
6.320608012470496e6 -2.9538812788283724e7 0.0
0.0 0.0 0.0

-5.013769317272001e6 6.316011156764615e6 0.0
6.316011156764615e6 3.6697471560498895e6 0.0
0.0 0.0 0.0

-4.347513896702312e6 1.7953600022313256e7 0.0
1.7953600022313256e7 2.2367792290831935e6 0.0
0.0 0.0 0.0

4.436548379018233e6 5.052328758831371e6 0.0
5.052328758831371e6 -1.795453267234325e7 0.0
0.0 0.0 0.0

2.0973750136351697e6 6.190054554674548e6 0.0
6.190054554674548e6 -9.929833068621377e6 0.0
0.0 0.0 0.0

-210628.6879862966 1.2828037377676258e7 0.0
1.2828037377676258e7 -6.416810916559794e6 0.0
0.0 0.0 0.0

-1.0693844637489317e7 1.1322469090513736e7 0.0
1.1322469090513736e7 2.7085162995903283e7 0.0
0.0 0.0 0.0

-5.707577545918474e6 1.793081388586175e7 0.0
1.793081388586175e7 1.0959548885799695e7 0.0
0.0 0.0 0.0

-3.47358626592792e6 7.763653265425702e6 0.0
7.763653265425702e6 624954.174633696 0.0
0.0 0.0 0.0

-8.691308649178738e6 1.6038981584040081e7 0.0
1.6038981584040081e7 1.5609192099866878e7 0.0
0.0 0.0 0.0

3.999920483121354e6 6.1018286048594825e6 0.0
6.1018286048594825e6 -1.3717624327892402e7 0.0
0.0 0.0 0.0

2.4233763287827587e6 1.1230053103965096e7 0.0
1.1230053103965096e7 -1.706028317285473e7 0.0
0.0 0.0 0.0

-7.634471743807259e6 4.2737308705446444e7 0.0
4.2737308705446444e7 2.6427428544246447e6 0.0
0.0 0.0 0.0

-5.0707507962315045e6 1.053625685426558e7 0.0
1.053625685426558e7 3.005498900365852e6 0.0
0.0 0.0 0.0

-9.255628014434073e6 2.365177562048297e6 0.0
2.365177562048297e6 1.061611398485309e7 0.0
0.0 0.0 0.0

-82786.67039723322 1.5315054308033684e7 0.0
1.5315054308033684e7 -1.2254801370765692e7 0.0
0.0 0.0 0.0

1.4926047758570137e6 1.3035646349805592e7 0.0
1.3035646349805592e7 -1.3565024662146753e7 0.0
0.0 0.0 0.0

107637.38474233414 829831.2219943474 0.0
829831.2219943474 2.7945694149087975e6 0.0
0.0 0.0 0.0

-933022.288015442 284447.80355308746 0.0
284447.80355308746 4.675872897094553e6 0.0
0.0 0.0 0.0

-4.39824534312498e6 2.2863590689740077e7 0.0
2.2863590689740077e7 4.219674942611653e6 0.0
0.0 0.0 0.0

-5.458148397465823e6 1.5286709993038557e7 0.0
1.5286709993038557e7 4.885981098415814e6 0.0
0.0 0.0 0.0

-3.747965389356843e6 2.257402416965629e7 0.0
2.257402416965629e7 2.7486610000649747e6 0.0
0.0 0.0 0.0

3.4080996942775175e6 8.346356178834711e6 0.0
8.346356178834711e6 -1.5082142041473169e7 0.0
0.0 0.0 0.0

-4.815956800106701e6 1.7319986705057953e7 0.0
1.7319986705057953e7 3.945650313845318e6 0.0
0.0 0.0 0.0

-1.1047085863260936e7 971097.3051745862 0.0
971097.3051745862 2.1929431515449855e7 0.0
0.0 0.0 0.0

-5.452373209055987e7 3.5062344386221697e6 0.0
3.5062344386221697e6 7.628845358871967e6 0.0
0.0 0.0 0.0

-4.276542998764977e6 1.8645781387076262e7 0.0
1.8645781387076262e7 2.4048169127776506e6 0.0
0.0 0.0 0.0

-7.743638848029957e6 1.6430479083363095e7 0.0
1.6430479083363095e7 1.4450633678149857e7 0.0
0.0 0.0 0.0

-1.6280855219361929e6 1.996270837620402e7 0.0
1.996270837620402e7 -4.850744547517787e6 0.0
0.0 0.0 0.0

2.172374317266586e6 5.744622833931699e6 0.0
5.744622833931699e6 -9.186988314881865e6 0.0
0.0 0.0 0.0

-5.739587427735645e6 1.2173154887163728e7 0.0
1.2173154887163728e7 4.672670740347295e6 0.0
0.0 0.0 0.0

-7.551813057376654e6 2.0022481223605048e7 0.0
2.0022481223605048e7 -4.727720346813899e6 0.0
0.0 0.0 0.0

-3.301302435621841e6 1.8792215599827502e7 0.0
1.8792215599827502e7 -5.421873920286444e6 0.0
0.0 0.0 0.0

3.4202272662886153e6 6.742029189106813e6 0.0
6.742029189106813e6 -1.1549178486523196e7 0.0
0.0 0.0 0.0

-6.994120053747179e6 1.6896891178658597e7 0.0
1.6896891178658597e7 1.3292949868934143e7 0.0
0.0 0.0 0.0

-531504.8386814094 1.4824501723913303e7 0.0
1.4824501723913303e7 -7.050210691104924e6 0.0
0.0 0.0 0.0

3.9883726753128655e6 4.988806663805972e6 0.0
4.988806663805972e6 -3.2013872509999316e7 0.0
0.0 0.0 0.0

-1.0837865369438898e7 -789346.243729172 0.0
-789346.243729172 3.2058674807059117e7 0.0
0.0 0.0 0.0

2.6165272806544015e6 8.705758811761433e6 0.0
8.705758811761433e6 -1.1150719493065715e7 0.0
0.0 0.0 0.0

4.310384463684896e6 6.725718700755319e6 0.0
6.725718700755319e6 -2.1212870443190046e7 0.0
0.0 0.0 0.0

89486.62234227778 1.5307608638316972e7 0.0
1.5307608638316972e7 -6.716443144214846e6 0.0
0.0 0.0 0.0

2.060632605703285e6 1.016868186101562e7 0.0
1.016868186101562e7 -2.7397455439541426e7 0.0
0.0 0.0 0.0

-1.3086131803438375e6 2.384615008711292e7 0.0
2.384615008711292e7 -1.366311449294833e6 0.0
0.0 0.0 0.0

-7.845326103967909e6 1.4819135531039165e7 0.0
1.4819135531039165e7 2.4754874326789156e7 0.0
0.0 0.0 0.0

-1.1083224771315921e7 -1.1777168922475306e6 0.0
-1.1777168922475306e6 2.933028542924426e7 0.0
0.0 0.0 0.0

-771236.1021228712 1.5493733095039103e7 0.0
1.5493733095039103e7 -6.730502067697015e6 0.0
0.0 0.0 0.0

3.6340500996072106e6 7.281083791862778e6 0.0
7.281083791862778e6 -2.5431704568775356e7 0.0
0.0 0.0 0.0

-2.9092064815825485e6 1.5484879550984299e7 0.0
1.5484879550984299e7 -288355.1167488289 0.0
0.0 0.0 0.0

-4.428488494136069e6 1.7259820738088038e7 0.0
1.7259820738088038e7 2.103670252349335e6 0.0
0.0 0.0 0.0

-1.0966070046432406e7 2.96045663656033e6 0.0
2.96045663656033e6 1.7025571623544812e7 0.0
0.0 0.0 0.0

-190671.40972204367 2.01110553993363e7 0.0
2.01110553993363e7 -5.305150822780915e6 0.0
0.0 0.0 0.0

681630.2277508553 1.5556418143455576e7 0.0
1.5556418143455576e7 -4.162187040333937e6 0.0
0.0 0.0 0.0

-2.53752300044078e6 1.957971124551808e7 0.0
1.957971124551808e7 -1.18573295691364e6 0.0
0.0 0.0 0.0

4.72827806962404e6 3.5048866861599525e6 0.0
3.5048866861599525e6 -3.027311189393732e7 0.0
0.0 0.0 0.0

-4.573923231665608e6 1.7663736422930274e7 0.0
1.7663736422930274e7 3.03335268988155e6 0.0
0.0 0.0 0.0

1.0823867948111016e6 1.1775766986931825e7 0.0
1.1775766986931825e7 -9.73196281431275e6 0.0
0.0 0.0 0.0

-2.8891567818297665e6 9.282599716085298e6 0.0
9.282599716085298e6 -923060.3590951138 0.0
0.0 0.0 0.0

-706014.0916335805 1.1678409002049118e7 0.0
1.1678409002049118e7 -4.3498274312325325e6 0.0
0.0 0.0 0.0

-4.395994234000348e6 4.881753036094334e6 0.0
4.881753036094334e6 3.1099829783803783e6 0.0
0.0 0.0 0.0

819824.9496540704 1.4965910274373736e7 0.0
1.4965910274373736e7 -4.91997310427055e6 0.0
0.0 0.0 0.0

-1.1918081284535367e7 5.2373156749691535e6 0.0
5.2373156749691535e6 2.474616323293663e7 0.0
0.0 0.0 0.0

407546.0089702103 1.303405851995535e7 0.0
1.303405851995535e7 -8.581838918961912e6 0.0
0.0 0.0 0.0

-2.1157362411225326e6 5.368804198633153e6 0.0
5.368804198633153e6 -480188.6369241202 0.0
0.0 0.0 0.0

-4.628532643665492e6 2.333487534189771e7 0.0
2.333487534189771e7 4.35800732515519e6 0.0
0.0 0.0 0.0

-1.5136167237314023e6 1.863196243329317e7 0.0
1.863196243329317e7 -4.662883215553235e6 0.0
0.0 0.0 0.0

1.3099276794239776e6 1.358717485614639e7 0.0
1.358717485614639e7 -1.5878518020349175e7 0.0
0.0 0.0 0.0

2.223205435529586e6 9.22279237266905e6 0.0
9.22279237266905e6 -1.0392020386618331e7 0.0
0.0 0.0 0.0

-3.6545595810283385e6 1.8981030449194226e7 0.0
1.8981030449194226e7 2.914338396773953e6 0.0
0.0 0.0 0.0

-8.697159910728928e6 1.6160808205390671e7 0.0
1.6160808205390671e7 1.6674028026274834e7 0.0
0.0 0.0 0.0

635040.4670077339 1.6917476119234405e7 0.0
1.6917476119234405e7 1.0600533214214858e7 0.0
0.0 0.0 0.0

3.3251109769873843e6 7.471069080333481e6 0.0
7.471069080333481e6 -2.717299131339799e7 0.0
0.0 0.0 0.0

-4.370345006010489e6 1.7290032346939027e7 0.0
1.7290032346939027e7 5.438012948212405e6 0.0
0.0 0.0 0.0

-3.931545777186605e6 1.803910216063266e7 0.0
1.803910216063266e7 3.604044268056817e6 0.0
0.0 0.0 0.0

-1.0498450327569535e7 7.240181173300425e6 0.0
7.240181173300425e6 1.2153114338361066e7 0.0
0.0 0.0 0.0

-1.0066873934187493e6 2.430407126139939e7 0.0
2.430407126139939e7 -1.4218918450133216e6 0.0
0.0 0.0 0.0

568440.450368064 1.1579746723451177e7 0.0
1.1579746723451177e7 -7.6225313785391655e6 0.0
0.0 0.0 0.0

-1.0048246551298346e7 1.3358008802377002e7 0.0
1.3358008802377002e7 1.438153345419757e7 0.0
0.0 0.0 0.0

2.2291709710254823e6 8.789638535520097e6 0.0
8.789638535520097e6 -9.833764292906474e6 0.0
0.0 0.0 0.0

-2.0720965646904034e6 7.332814402145199e6 0.0
7.332814402145199e6 1.2720331533495355e6 0.0
0.0 0.0 0.0

-3.4710793531714575e6 1.9204557047019318e7 0.0
1.9204557047019318e7 2.178947484633831e6 0.0
0.0 0.0 0.0

-3.4534636779843224e6 1.9817909976576295e7 0.0
1.9817909976576295e7 2.3017193980131317e6 0.0
0.0 0.0 0.0

335925.0894934549 1.2726522759115271e7 0.0
1.2726522759115271e7 -7.976019947267443e6 0.0
0.0 0.0 0.0

1.1567486554406828e6 1.6246240458495338e7 0.0
1.6246240458495338e7 -5.188991544233557e6 0.0
0.0 0.0 0.0

5.544896725456413e6 2.1071654379059862e7 0.0
2.1071654379059862e7 -5.752787355713148e6 0.0
0.0 0.0 0.0

-4.780271963050065e6 1.859193307999984e7 0.0
1.859193307999984e7 6.237079137289669e6 0.0
0.0 0.0 0.0

-5.051916493067039e6 1.4293658525089743e7 0.0
1.4293658525089743e7 -2.5280258689368054e7 0.0
0.0 0.0 0.0

1.3323582947773314e6 9.82644461101898e6 0.0
9.82644461101898e6 -8.134527102436072e6 0.0
0.0 0.0 0.0

-1.0880752729357593e7 1.3900016230020982e6 0.0
1.3900016230020982e6 2.0139316441494543e7 0.0
0.0 0.0 0.0

-1.3041636631422357e6 1.718857210542311e7 0.0
1.718857210542311e7 -1.2828404589319932e6 0.0
0.0 0.0 0.0

-3.5041977434389903e6 1.76623030038173e7 0.0
1.76623030038173e7 -774104.4086249413 0.0
0.0 0.0 0.0

-4.148055208042172e6 1.765299925712751e7 0.0
1.765299925712751e7 4.456344337484797e6 0.0
0.0 0.0 0.0

-1.0599119480990738e7 -664992.2497955293 0.0
-664992.2497955293 2.266218388692336e7 0.0
0.0 0.0 0.0

-5.04128052067562e6 2.3807538094819993e7 0.0
2.3807538094819993e7 4.542174436104987e6 0.0
0.0 0.0 0.0

-4.03625047472626e6 1.889709092885935e7 0.0
1.889709092885935e7 1.6561274387455909e6 0.0
0.0 0.0 0.0

1.2473589348040095e6 1.5011678372114679e7 0.0
1.5011678372114679e7 -395095.2773918967 0.0
0.0 0.0 0.0

1.759450421300929e6 1.4063916550346758e7 0.0
1.4063916550346758e7 5.864835000289551e6 0.0
0.0 0.0 0.0

-4.618737418934641e6 1.685185419384268e7 0.0
1.685185419384268e7 6.4436740665217955e6 0.0
0.0 0.0 0.0

-6.9988472452466935e6 1.5063209629817633e7 0.0
1.5063209629817633e7 1.0009463133342205e7 0.0
0.0 0.0 0.0

3.363710868906249e6 6.246776137592846e6 0.0
6.246776137592846e6 -1.098207843692611e7 0.0
0.0 0.0 0.0

-2.3437635286359526e6 1.9740781267503545e7 0.0
1.9740781267503545e7 -1.7846469312158627e6 0.0
0.0 0.0 0.0

-9.849208959269887e6 1.1339045554300616e7 0.0
1.1339045554300616e7 1.6052851017350893e7 0.0
0.0 0.0 0.0

4.0365750922901025e6 4.828587449536388e6 0.0
4.828587449536388e6 -1.6662347471226817e7 0.0
0.0 0.0 0.0

-2.7037023706477922e6 1.8349844391030088e7 0.0
1.8349844391030088e7 -3.5360535598620097e6 0.0
0.0 0.0 0.0

-3.975088375987296e6 1.731690368059549e7 0.0
1.731690368059549e7 3.610811215351615e6 0.0
0.0 0.0 0.0

-1.3294697115873815e6 5.042830585008597e6 0.0
5.042830585008597e6 -1.5094225802034985e6 0.0
0.0 0.0 0.0

1.827822398270729e6 9.8505623341326e6 0.0
9.8505623341326e6 -1.282707259773456e7 0.0
0.0 0.0 0.0

-4.555282448098279e6 3.782531025521823e7 0.0
3.782531025521823e7 1.8956202386855846e6 0.0
0.0 0.0 0.0

3.0614745298844725e6 6.981615853548743e6 0.0
6.981615853548743e6 -4.5041841809287876e7 0.0
0.0 0.0 0.0

4.0934802246617954e6 5.620179507677536e6 0.0
5.620179507677536e6 -1.9113612933645245e7 0.0
0.0 0.0 0.0

2.3480797125822147e6 1.0928796074880755e7 0.0
1.0928796074880755e7 -1.4206935869542282e7 0.0
0.0 0.0 0.0

-3.9417545228652693e6 1.8132064527423766e7 0.0
1.8132064527423766e7 4.359161303094018e6 0.0
0.0 0.0 0.0

1.3069926398694944e6 1.2583181783610504e7 0.0
1.2583181783610504e7 -1.895485228184705e7 0.0
0.0 0.0 0.0

1.2661888789176634e6 9.373448855028886e6 0.0
9.373448855028886e6 -7.561185075389708e6 0.0
0.0 0.0 0.0

-2.167405791020969e6 8.90473386515229e6 0.0
8.90473386515229e6 -2.0841283308575533e6 0.0
0.0 0.0 0.0

1.1780481281906702e6 1.594224884083238e7 0.0
1.594224884083238e7 1.094402503218601e7 0.0
0.0 0.0 0.0

-8.007560269118538e6 1.5088583285541568e7 0.0
1.5088583285541568e7 2.3180509371753212e7 0.0
0.0 0.0 0.0

6.023765280815154e6 1.2816280400263583e7 0.0
1.2816280400263583e7 6.1003392434932925e6 0.0
0.0 0.0 0.0

-4.639403186142499e6 2.5655849207258295e7 0.0
2.5655849207258295e7 3.223649073614968e6 0.0
0.0 0.0 0.0

-1.1143726229063221e6 1.3117454905641625e7 0.0
1.3117454905641625e7 -6.862456811140361e6 0.0
0.0 0.0 0.0

-2.180132441953172e7 2.0055625807766177e7 0.0
2.0055625807766177e7 1.6791392854750128e6 0.0
0.0 0.0 0.0

-260471.3669943721 1.417467345607437e7 0.0
1.417467345607437e7 -7.3716434831355065e6 0.0
0.0 0.0 0.0

-3.840542630219493e6 1.7671205129236266e7 0.0
1.7671205129236266e7 2.727943039772843e6 0.0
0.0 0.0 0.0

-26352.348798605846 1.1642367328451319e7 0.0
1.1642367328451319e7 -5.99842557772946e6 0.0
0.0 0.0 0.0

-20661.105070973746 1.3583978469865598e7 0.0
1.3583978469865598e7 -1.920389536869595e7 0.0
0.0 0.0 0.0

3.837020121612367e6 5.410109427427886e6 0.0
5.410109427427886e6 -1.5932891901920628e7 0.0
0.0 0.0 0.0

2.959906545083465e6 9.476283449510572e6 0.0
9.476283449510572e6 -2.481202634902566e7 0.0
0.0 0.0 0.0

-2.8751585771711254e6 1.6981449571854416e7 0.0
1.6981449571854416e7 1.2088043535979843e7 0.0
0.0 0.0 0.0

4.0060744398114337e6 7.033341306051436e6 0.0
7.033341306051436e6 -1.7874099274279587e7 0.0
0.0 0.0 0.0

-2.46560917487232e6 1.8472742194241975e7 0.0
1.8472742194241975e7 -4.041238042043719e6 0.0
0.0 0.0 0.0

-946876.4856414534 1.6147277855134342e7 0.0
1.6147277855134342e7 -8.939895501494158e6 0.0
0.0 0.0 0.0

-1.8939570184048158e6 1.1545584481621247e7 0.0
1.1545584481621247e7 -4.170333143547507e6 0.0
0.0 0.0 0.0

-4.446867394587648e6 1.2857331835486505e7 0.0
1.2857331835486505e7 1.325013454106051e6 0.0
0.0 0.0 0.0

-1.0020648177906498e7 1.3897146206332792e7 0.0
1.3897146206332792e7 1.5098546559060536e7 0.0
0.0 0.0 0.0

2.8944555496995207e6 8.977766381772703e6 0.0
8.977766381772703e6 -1.300425124082606e7 0.0
0.0 0.0 0.0

-5.693090307705075e6 2.7213777360599324e7 0.0
2.7213777360599324e7 3.358570418065417e6 0.0
0.0 0.0 0.0

-5.644543692391656e6 2.418855454086986e7 0.0
2.418855454086986e7 4.857343540742403e6 0.0
0.0 0.0 0.0

-1.007951272689811e7 1.4845227646832183e7 0.0
1.4845227646832183e7 1.6070651863251919e7 0.0
0.0 0.0 0.0

-1.2584618238116791e6 1.2424321879085384e7 0.0
1.2424321879085384e7 -4.194872657711679e6 0.0
0.0 0.0 0.0

1.2297410562115721e6 1.346703284933094e7 0.0
1.346703284933094e7 -1.2682408835505763e7 0.0
0.0 0.0 0.0

3.9993799426871734e6 6.874639170621808e6 0.0
6.874639170621808e6 -1.6224148729649007e7 0.0
0.0 0.0 0.0

-4.521669153995398e6 1.9560812653275765e7 0.0
1.9560812653275765e7 8.5902602634422e6 0.0
0.0 0.0 0.0

-1.2475515061204003e7 5.752592789083072e6 0.0
5.752592789083072e6 1.5777609522670284e7 0.0
0.0 0.0 0.0

405427.96531163645 2.164566060312918e7 0.0
2.164566060312918e7 -3.9206043088887045e6 0.0
0.0 0.0 0.0

-9.995555063865477e6 549677.1548023787 0.0
549677.1548023787 4.0371594649674185e7 0.0
0.0 0.0 0.0

-1.89172193531524e6 1.6186411620722914e7 0.0
1.6186411620722914e7 -6.114171572748903e6 0.0
0.0 0.0 0.0

-8.954491717896692e6 -5.595825029287475e6 0.0
-5.595825029287475e6 1.8774593867420264e7 0.0
0.0 0.0 0.0

-5.06816992625745e6 3.284121693653317e6 0.0
3.284121693653317e6 7.769870691629067e6 0.0
0.0 0.0 0.0

3.293506703700799e6 5.69989614940365e6 0.0
5.69989614940365e6 -1.0583352701554336e7 0.0
0.0 0.0 0.0

-1.1579658370208846e7 1.1252359128513843e7 0.0
1.1252359128513843e7 2.4141960850298002e7 0.0
0.0 0.0 0.0

3.125484033190511e6 9.799489840740457e6 0.0
9.799489840740457e6 -2.093543240202222e7 0.0
0.0 0.0 0.0

-2.3140275717266104e6 1.8581595811747048e7 0.0
1.8581595811747048e7 -2.2918112395865703e6 0.0
0.0 0.0 0.0

-3.88484159371124e6 1.867891894441749e7 0.0
1.867891894441749e7 3.705454834590898e6 0.0
0.0 0.0 0.0

-1.8371908086353703e6 1.3785084217114184e7 0.0
1.3785084217114184e7 -2.688780014517493e6 0.0
0.0 0.0 0.0

-4.111177854870187e6 1.903753788291962e7 0.0
1.903753788291962e7 5.4776423997375835e6 0.0
0.0 0.0 0.0

1.398459011225393e6 5.678970808337712e6 0.0
5.678970808337712e6 -6.874071378572184e6 0.0
0.0 0.0 0.0

-2.8778318585158093e6 1.5932394309572058e7 0.0
1.5932394309572058e7 -3.2128499754685047e6 0.0
0.0 0.0 0.0

4.0938562457093075e6 2.162293975734191e7 0.0
2.162293975734191e7 -5.1977429111959655e6 0.0
0.0 0.0 0.0

1.0886460157189444e6 8.771784024927078e6 0.0
8.771784024927078e6 -7.134924598351417e6 0.0
0.0 0.0 0.0

-88209.34021834051 1.3162081157331312e7 0.0
1.3162081157331312e7 -7.0669801557215955e6 0.0
0.0 0.0 0.0

-2.7781910022242726e6 1.8291496371198025e7 0.0
1.8291496371198025e7 -4.228825963132056e6 0.0
0.0 0.0 0.0

-2.0535867489015334e6 1.3394295042866914e7 0.0
1.3394295042866914e7 -1.9197899196775265e6 0.0
0.0 0.0 0.0

6.062903484548604e6 1.801846056689891e7 0.0
1.801846056689891e7 -4.014936575337398e6 0.0
0.0 0.0 0.0

-629969.391147074 4.617135570756573e6 0.0
4.617135570756573e6 -2.551687950185531e6 0.0
0.0 0.0 0.0

4.316239843269828e6 5.037506193536609e6 0.0
5.037506193536609e6 -2.265417705951695e7 0.0
0.0 0.0 0.0

-885651.1767725463 3.891298483488717e6 0.0
3.891298483488717e6 1.021003747347034e6 0.0
0.0 0.0 0.0

-1.4556071469790116e6 8.51345424998277e6 0.0
8.51345424998277e6 -3.1394432114655874e6 0.0
0.0 0.0 0.0

-2.0659634760999968e6 1.4001062327664694e7 0.0
1.4001062327664694e7 -4.889590796367666e6 0.0
0.0 0.0 0.0

-4.774503220652649e6 4.537670909701697e6 0.0
4.537670909701697e6 7.049784449044967e6 0.0
0.0 0.0 0.0

2.578859397888933e6 6.309041982707923e6 0.0
6.309041982707923e6 -8.3633878481937125e6 0.0
0.0 0.0 0.0

95105.89650516072 1.6263939196753856e7 0.0
1.6263939196753856e7 -1.100264786187187e7 0.0
0.0 0.0 0.0

-770549.1745005532 8.129076919066484e6 0.0
8.129076919066484e6 -4.223721660774983e6 0.0
0.0 0.0 0.0

-4.1106733317157514e6 3.4458224356178164e7 0.0
3.4458224356178164e7 1.453811359036989e6 0.0
0.0 0.0 0.0

5.652082120794751e6 1.7816483906566083e7 0.0
1.7816483906566083e7 7.4766058428543825e6 0.0
0.0 0.0 0.0

-180232.86263631633 7.679410103986446e6 0.0
7.679410103986446e6 -5.028664946076371e6 0.0
0.0 0.0 0.0

-6.186008384621467e6 1.1639137593665214e7 0.0
1.1639137593665214e7 9.38286551329303e6 0.0
0.0 0.0 0.0

2.0547202005005395e6 4.524354299768351e6 0.0
4.524354299768351e6 -6.44383254246859e6 0.0
0.0 0.0 0.0

-1.2090214514478935e7 5.539906462273216e6 0.0
5.539906462273216e6 2.3132738459649716e7 0.0
0.0 0.0 0.0

343258.2808612129 7.186117034363608e6 0.0
7.186117034363608e6 -5.902721129337154e6 0.0
0.0 0.0 0.0

-6.940959403186973e6 2.7481952142374564e7 0.0
2.7481952142374564e7 5.229450442939518e6 0.0
0.0 0.0 0.0

1.0577439792760836e6 2.1821893037720688e7 0.0
2.1821893037720688e7 -4.0374971081510317e6 0.0
0.0 0.0 0.0

4.25702022992935e6 6.303889516423764e6 0.0
6.303889516423764e6 -1.6940345184414066e7 0.0
0.0 0.0 0.0

-1.1903981417153575e6 1.6547597867402656e7 0.0
1.6547597867402656e7 -7.997307202978849e6 0.0
0.0 0.0 0.0

3.6882061519705104e6 7.046447904064267e6 0.0
7.046447904064267e6 -2.323449009256332e7 0.0
0.0 0.0 0.0

-2.5346220525997085e6 1.4438666350449208e7 0.0
1.4438666350449208e7 -3.8730830076454766e6 0.0
0.0 0.0 0.0

-218992.26538968692 1.6271211691808486e7 0.0
1.6271211691808486e7 9.116411667777644e6 0.0
0.0 0.0 0.0

2.8686383273670487e6 2.186867443535813e7 0.0
2.186867443535813e7 -4.6741846680025095e6 0.0
0.0 0.0 0.0

1.0728766011261977e6 8.41333085896334e6 0.0
8.41333085896334e6 -6.436855934407348e6 0.0
0.0 0.0 0.0

2.6352322588339006e6 7.784636738392644e6 0.0
7.784636738392644e6 -1.005528569379672e7 0.0
0.0 0.0 0.0

-373731.17327509506 1.0298319019228166e7 0.0
1.0298319019228166e7 -3.9604950623769676e6 0.0
0.0 0.0 0.0

-6.637384378896003e6 2.4536016207024254e7 0.0
2.4536016207024254e7 5.118152289872512e6 0.0
0.0 0.0 0.0

-3.901382814351485e6 1.2382329919479707e7 0.0
1.2382329919479707e7 79807.1776556496 0.0
0.0 0.0 0.0

1.8826295741140808e6 2.501932965632753e7 0.0
2.501932965632753e7 -2.7303211942507075e6 0.0
0.0 0.0 0.0

-1.618936817948115e6 1.4146047392296555e7 0.0
1.4146047392296555e7 -3.429609170655647e6 0.0
0.0 0.0 0.0

2.564324519254436e6 1.6051255810811734e7 0.0
1.6051255810811734e7 1.3526899118341964e7 0.0
0.0 0.0 0.0

-2.405131023834402e6 1.794009849378919e7 0.0
1.794009849378919e7 -2.8413285412345817e6 0.0
0.0 0.0 0.0

-2.7505522113879807e6 1.9964048379693534e7 0.0
1.9964048379693534e7 -317287.6637793991 0.0
0.0 0.0 0.0

-355850.1527282982 1.562632457397609e7 0.0
1.562632457397609e7 -1.0846738444960063e7 0.0
0.0 0.0 0.0

584612.4132742696 1.1805543721989272e7 0.0
1.1805543721989272e7 -2.676119828912849e7 0.0
0.0 0.0 0.0

-9.99296440320627e6 1.456738396555785e7 0.0
1.456738396555785e7 2.2111985317661718e7 0.0
0.0 0.0 0.0

953524.4087394066 1.012142244284228e7 0.0
1.012142244284228e7 -1.0200336416333163e7 0.0
0.0 0.0 0.0

-1.2197405039936451e7 5.827628960746648e6 0.0
5.827628960746648e6 2.1385259761588696e7 0.0
0.0 0.0 0.0

2.71363596707415e6 1.0733179443453768e7 0.0
1.0733179443453768e7 -1.905820725640483e7 0.0
0.0 0.0 0.0

-1.4998426484254014e6 1.0631543186640827e7 0.0
1.0631543186640827e7 -4.467498045231492e6 0.0
0.0 0.0 0.0

3.1850782295077653e6 4.510088363902404e6 0.0
4.510088363902404e6 -1.0615767259149998e7 0.0
0.0 0.0 0.0

-3.9904015287428056e6 1.546107637578884e7 0.0
1.546107637578884e7 38366.561392571544 0.0
0.0 0.0 0.0

-4.0023221570555847e6 1.9470234687089004e7 0.0
1.9470234687089004e7 1.754606782483145e6 0.0
0.0 0.0 0.0

-1.591758817921881e6 2.2463960719336227e7 0.0
2.2463960719336227e7 -2.1242196564233415e6 0.0
0.0 0.0 0.0

-2.7221135727977324e6 1.5195112322787188e7 0.0
1.5195112322787188e7 -3.537085635704419e6 0.0
0.0 0.0 0.0

2.5702496872705184e6 5.771166476362778e6 0.0
5.771166476362778e6 -7.829887342966668e6 0.0
0.0 0.0 0.0

1.85936561194706e6 2.1909514301561717e7 0.0
2.1909514301561717e7 -4.326774320397729e6 0.0
0.0 0.0 0.0

-1.1533491719932795e7 6.94746127746141e6 0.0
6.94746127746141e6 1.7476183530617774e7 0.0
0.0 0.0 0.0

3.5263518832879066e6 6.943317649229542e6 0.0
6.943317649229542e6 -2.835392644021788e7 0.0
0.0 0.0 0.0

128357.54871073551 1.7815202585798565e7 0.0
1.7815202585798565e7 9.609263726379624e6 0.0
0.0 0.0 0.0

-4.0383377360551544e6 2.1464838335569784e7 0.0
2.1464838335569784e7 3.7517895809995392e6 0.0
0.0 0.0 0.0

-1.7162588158470322e6 1.4896554815531544e7 0.0
1.4896554815531544e7 -8.305061381826032e6 0.0
0.0 0.0 0.0

-8.12810714715001e6 1.5402113064520717e7 0.0
1.5402113064520717e7 2.1936623940300055e7 0.0
0.0 0.0 0.0

-3.03392684189463e6 1.5535085533007307e7 0.0
1.5535085533007307e7 -1.0113089271244748e7 0.0
0.0 0.0 0.0

-3547.1784856365994 1.1046173050412407e7 0.0
1.1046173050412407e7 -8.417035505582329e6 0.0
0.0 0.0 0.0

-3195.165371078532 1.614327830991409e7 0.0
1.614327830991409e7 1.0106372626896555e7 0.0
0.0 0.0 0.0

-3.408458343174051e6 3.2301512264491446e7 0.0
3.2301512264491446e7 1.5473071978030019e6 0.0
0.0 0.0 0.0

-1.690047528954978e6 1.808212396748104e7 0.0
1.808212396748104e7 -6.24377424428354e6 0.0
0.0 0.0 0.0

3.6631401319699295e7 1.4808692917995185e7 0.0
1.4808692917995185e7 1.6857239660213515e6 0.0
0.0 0.0 0.0

-1.6888751463269263e6 1.1996589751848813e7 0.0
1.1996589751848813e7 -4.8364620298050335e6 0.0
0.0 0.0 0.0

-3.7572940474519827e6 1.5803606124795651e7 0.0
1.5803606124795651e7 -788474.8588348156 0.0
0.0 0.0 0.0

1.1540648654093044e6 1.2351574486694915e7 0.0
1.2351574486694915e7 -1.2735144476543425e7 0.0
0.0 0.0 0.0

-1.3619341549675958e6 2.286265132887688e7 0.0
2.286265132887688e7 -2.077838849993428e6 0.0
0.0 0.0 0.0

4.0603747737685926e6 5.912750126872487e6 0.0
5.912750126872487e6 -2.493720251383536e7 0.0
0.0 0.0 0.0

427449.3177349926 7.627461124443818e6 0.0
7.627461124443818e6 -6.553176115871602e6 0.0
0.0 0.0 0.0

2.0833841845681434e6 1.0081875987340417e7 0.0
1.0081875987340417e7 -1.456296109665779e7 0.0
0.0 0.0 0.0

-5.526826433621434e6 1.79994222209218e7 0.0
1.79994222209218e7 1.1361414480919397e7 0.0
0.0 0.0 0.0

-3.0071890486679147e6 1.6641068120564641e7 0.0
1.6641068120564641e7 -2.8989829803332775e6 0.0
0.0 0.0 0.0

-455756.7660028103 1.4657381572133632e7 0.0
1.4657381572133632e7 4.0950133384541553e6 0.0
0.0 0.0 0.0

-850547.1367697696 1.1201218683151528e7 0.0
1.1201218683151528e7 -3.641412955868255e6 0.0
0.0 0.0 0.0

-2.0688927203966298e6 1.566665851897898e7 0.0
1.566665851897898e7 -2.8068409428905295e6 0.0
0.0 0.0 0.0

1.195903960862454e6 1.5315582682329355e7 0.0
1.5315582682329355e7 -4.40335335216708e6 0.0
0.0 0.0 0.0

-2.618117420969829e6 3.0791003824041072e7 0.0
3.0791003824041072e7 1.8820832000679043e6 0.0
0.0 0.0 0.0

-2.2294889596102503e6 1.6384592049745396e7 0.0
1.6384592049745396e7 -2.5072604402413312e6 0.0
0.0 0.0 0.0

-1.4291307052216786e6 6.121658948798329e6 0.0
6.121658948798329e6 666050.0682121053 0.0
0.0 0.0 0.0

1.72827197270397e7 1.1430295511040658e7 0.0
1.1430295511040658e7 378750.6468446385 0.0
0.0 0.0 0.0

2.204263755889328e6 8.818039665023066e6 0.0
8.818039665023066e6 -3.456896950105768e7 0.0
0.0 0.0 0.0

-3.288487591184452e6 2.0054708132253006e7 0.0
2.0054708132253006e7 1.757391774702977e6 0.0
0.0 0.0 0.0

-3.134736561893989e6 6.799572520054776e6 0.0
6.799572520054776e6 3.4398622438780153e6 0.0
0.0 0.0 0.0

-1.1318294324840424e6 1.16128689207399e7 0.0
1.16128689207399e7 -5.762245942944563e6 0.0
0.0 0.0 0.0

380916.20255769603 1.0198429956279973e7 0.0
1.0198429956279973e7 -8.721571624755519e6 0.0
0.0 0.0 0.0

-2.3323602270315085e6 2.9519096402639363e7 0.0
2.9519096402639363e7 1.5943038596003056e6 0.0
0.0 0.0 0.0

2.9267083847649302e6 9.129114909894114e6 0.0
9.129114909894114e6 -2.207680428842219e7 0.0
0.0 0.0 0.0

-1.1708011077263594e7 1.448226846759373e6 0.0
1.448226846759373e6 1.734509912891196e7 0.0
0.0 0.0 0.0

-3.2259086320381924e6 1.791850852343503e7 0.0
1.791850852343503e7 -7.580350756495371e6 0.0
0.0 0.0 0.0

-4.33770271683438e6 5.995380699899048e6 0.0
5.995380699899048e6 6.076450097729597e6 0.0
0.0 0.0 0.0

-1.6947406096604865e6 1.5524772580754945e7 0.0
1.5524772580754945e7 -6.476343090511763e6 0.0
0.0 0.0 0.0

-3.5537874301700173e6 1.6800903644734934e7 0.0
1.6800903644734934e7 -1.222654582306317e6 0.0
0.0 0.0 0.0

996956.5931360703 1.3327629408909317e7 0.0
1.3327629408909317e7 -1.576518635870556e7 0.0
0.0 0.0 0.0

-2.274163930641763e6 2.848299236086517e7 0.0
2.848299236086517e7 1.5571259453861215e6 0.0
0.0 0.0 0.0

-5.212721320817152e6 1.8537121246841453e7 0.0
1.8537121246841453e7 1.0392002402893258e7 0.0
0.0 0.0 0.0

-2.357839851945093e6 1.7074216752816353e7 0.0
1.7074216752816353e7 -2.227507596131107e6 0.0
0.0 0.0 0.0

3.8581202163389483e6 6.484068959411808e6 0.0
6.484068959411808e6 -2.4158495524245262e7 0.0
0.0 0.0 0.0

-2.593024222717573e6 8.515394487818819e6 0.0
8.515394487818819e6 1.7601930232431237e6 0.0
0.0 0.0 0.0

-1.949651590228314e6 2.7672478638532873e7 0.0
2.7672478638532873e7 1.7068047931761302e6 0.0
0.0 0.0 0.0

3.08913469729471e6 7.972892155382026e6 0.0
7.972892155382026e6 -3.598693514164826e7 0.0
0.0 0.0 0.0

-1.7267449046888812e6 2.6973809531231157e7 0.0
2.6973809531231157e7 1.6586388597441663e6 0.0
0.0 0.0 0.0

-1.7119978471942297e6 2.63431977686903e7 0.0
2.63431977686903e7 1.4865675599591383e6 0.0
0.0 0.0 0.0

-3.0613050199580775e6 2.170493723858915e7 0.0
2.170493723858915e7 98826.86540484463 0.0
0.0 0.0 0.0

-2.9745147027470875e6 2.215186096580129e7 0.0
2.215186096580129e7 293507.2573122489 0.0
0.0 0.0 0.0

-2.901118045209502e6 2.258344658186974e7 0.0
2.258344658186974e7 462098.23791455466 0.0
0.0 0.0 0.0

-2.819257469769858e6 2.298891071034764e7 0.0
2.298891071034764e7 561012.289666712 0.0
0.0 0.0 0.0

-2.771101932755612e6 2.3390204866379872e7 0.0
2.3390204866379872e7 708717.6919347142 0.0
0.0 0.0 0.0

-2.7098782425891506e6 2.380612403164728e7 0.0
2.380612403164728e7 769669.6202063864 0.0
0.0 0.0 0.0

-6.25732769338096e6 1.1454908828634162e7 0.0
1.1454908828634162e7 5.714693702799125e6 0.0
0.0 0.0 0.0

-2.620682525344942e6 2.4219336545513216e7 0.0
2.4219336545513216e7 891132.4147649977 0.0
0.0 0.0 0.0

-2.686595117220265e6 2.4668007600434363e7 0.0
2.4668007600434363e7 943075.9335422292 0.0
0.0 0.0 0.0

-9.539656690956583e6 1.312861463172059e7 0.0
1.312861463172059e7 1.6348424902175194e7 0.0
0.0 0.0 0.0

-1.7676618245063357e6 2.580379682093868e7 0.0
2.580379682093868e7 1.4753533000718998e6 0.0
0.0 0.0 0.0

-2.757277360613183e6 2.5067287672029037e7 0.0
2.5067287672029037e7 1.0014963687135425e6 0.0
0.0 0.0 0.0

-2.6937299938723585e6 2.5566612806755964e7 0.0
2.5566612806755964e7 1.109020628319047e6 0.0
0.0 0.0 0.0

-1.8167821039633844e6 2.5341600266816124e7 0.0
2.5341600266816124e7 1.4308555788305965e6 0.0
0.0 0.0 0.0

-1.3517320028471746e6 1.3345088584478904e7 0.0
1.3345088584478904e7 -3.7318083142909277e6 0.0
0.0 0.0 0.0

-2.8322994538589274e6 2.608136782024813e7 0.0
2.608136782024813e7 1.0761975313510112e6 0.0
0.0 0.0 0.0

-2.0048846758646544e6 2.4872080242387023e7 0.0
2.4872080242387023e7 1.2680594002962199e6 0.0
0.0 0.0 0.0

-1.8650359454617202e6 2.444056227153826e7 0.0
2.444056227153826e7 1.2423885649507856e6 0.0
0.0 0.0 0.0

-2.0382950969510688e6 2.4052256315623075e7 0.0
2.4052256315623075e7 1.1524449856533266e6 0.0
0.0 0.0 0.0

-2.180203616047855e6 2.3617406847321004e7 0.0
2.3617406847321004e7 1.0641369255817328e6 0.0
0.0 0.0 0.0

-2.25153057188497e6 2.3233055793527424e7 0.0
2.3233055793527424e7 947566.3898773043 0.0
0.0 0.0 0.0

-2.406113031580597e6 2.281613805117628e7 0.0
2.281613805117628e7 837259.2872975839 0.0
0.0 0.0 0.0

-2.449744655777657e6 2.241883367018845e7 0.0
2.241883367018845e7 717974.7998210395 0.0
0.0 0.0 0.0

-2.517740266872355e6 2.198704039098318e7 0.0
2.198704039098318e7 550893.6043911504 0.0
0.0 0.0 0.0

-2.935151438069419e6 1.8787431392445013e7 0.0
1.8787431392445013e7 -2.605976951750094e6 0.0
0.0 0.0 0.0

-9.8018360648816e6 1.5032397299186898e7 0.0
1.5032397299186898e7 2.1072980784305062e7 0.0
0.0 0.0 0.0

-3.117686932738619e6 2.662071820026712e7 0.0
2.662071820026712e7 1.1056061204371634e6 0.0
0.0 0.0 0.0

3.2418707446601894e6 7.642626034007231e6 0.0
7.642626034007231e6 -1.724289231291781e7 0.0
0.0 0.0 0.0

-3.525288911300067e6 1.862120385946181e7 0.0
1.862120385946181e7 2.0711095665001418e6 0.0
0.0 0.0 0.0

-3.577630304812912e6 2.7331456802911833e7 0.0
2.7331456802911833e7 1.1728416722847559e6 0.0
0.0 0.0 0.0

-1.0970639167042391e7 8.12108250915558e6 0.0
8.12108250915558e6 1.6686390187276375e7 0.0
0.0 0.0 0.0

-4.1832174635463236e6 2.815079671359876e7 0.0
2.815079671359876e7 1.0577238155240198e6 0.0
0.0 0.0 0.0

-1.2010902014658947e7 6.551846268863418e6 0.0
6.551846268863418e6 1.868233142000592e7 0.0
0.0 0.0 0.0

-4.951510010172683e6 2.9020758877206527e7 0.0
2.9020758877206527e7 839517.7354618621 0.0
0.0 0.0 0.0

-54063.184789655264 1.5458924048552597e7 0.0
1.5458924048552597e7 -1.2354125570764525e7 0.0
0.0 0.0 0.0

2.735358253890247e6 9.747267705553291e6 0.0
9.747267705553291e6 -1.4031181979936033e7 0.0
0.0 0.0 0.0

748668.0763660697 1.1928264956965147e7 0.0
1.1928264956965147e7 -2.5043078643943273e7 0.0
0.0 0.0 0.0

-2.574977953102002e6 1.6829969718415864e7 0.0
1.6829969718415864e7 -1.5211475476998666e6 0.0
0.0 0.0 0.0

-942630.5690841358 1.343233979735537e7 0.0
1.343233979735537e7 -7.480502968205064e6 0.0
0.0 0.0 0.0

-2.416272413137464e6 1.78849783817811e7 0.0
1.78849783817811e7 -4.465306439488339e6 0.0
0.0 0.0 0.0

-98247.4751189216 1.5600421948255911e7 0.0
1.5600421948255911e7 -1.2409935081648171e7 0.0
0.0 0.0 0.0

5.090773374087114e6 3.176257606080331e6 0.0
3.176257606080331e6 -2.0481177871868163e7 0.0
0.0 0.0 0.0

-3.4153663823437076e6 1.0789841127961716e7 0.0
1.0789841127961716e7 2.6967624711798877e6 0.0
0.0 0.0 0.0

-5.892478463699179e6 3.0112197019424487e7 0.0
3.0112197019424487e7 819937.1405254775 0.0
0.0 0.0 0.0

2.240116977966637e6 1.0379532625808438e7 0.0
1.0379532625808438e7 -1.198694032780741e7 0.0
0.0 0.0 0.0

-1.2306208104747262e7 7.154173096724855e6 0.0
7.154173096724855e6 2.0684212911290616e7 0.0
0.0 0.0 0.0

-1.8562839968407103e6 1.492180900397706e7 0.0
1.492180900397706e7 -3.126336313691963e6 0.0
0.0 0.0 0.0

-1.8973510611816447e6 2.3425891434488453e7 0.0
2.3425891434488453e7 -97425.98217684834 0.0
0.0 0.0 0.0

3.4975055872919625e6 7.085259383408739e6 0.0
7.085259383408739e6 -1.805813678886904e7 0.0
0.0 0.0 0.0

-9.81549537057215e6 2.768614621918892e7 0.0
2.768614621918892e7 5.449483679848412e6 0.0
0.0 0.0 0.0

-6.651829569457825e6 1.3030668717739781e7 0.0
1.3030668717739781e7 7.147246047329581e6 0.0
0.0 0.0 0.0

-1.316350492869895e7 2.1416611934238654e7 0.0
2.1416611934238654e7 4.574188989818138e6 0.0
0.0 0.0 0.0

549142.6623265357 1.5624710680576492e7 0.0
1.5624710680576492e7 8.475279367852379e6 0.0
0.0 0.0 0.0

-7.722329782289717e6 3.1717452753928315e7 0.0
3.1717452753928315e7 633372.9386227876 0.0
0.0 0.0 0.0

2.502541319151721e6 1.008624591777242e7 0.0
1.008624591777242e7 -2.1384603487176746e7 0.0
0.0 0.0 0.0

-5.339972211466486e6 1.2826706072058028e7 0.0
1.2826706072058028e7 3.6176146448963745e6 0.0
0.0 0.0 0.0

848928.6798042029 1.3289854630011149e7 0.0
1.3289854630011149e7 2.829762631713924e6 0.0
0.0 0.0 0.0

2.7577919196895026e6 8.325216948311478e6 0.0
8.325216948311478e6 -1.5202684788756605e7 0.0
0.0 0.0 0.0

54457.508916724124 1.580137411130712e7 0.0
1.580137411130712e7 2.66965053069837e6 0.0
0.0 0.0 0.0

2.997388795957486e6 8.20265299564289e6 0.0
8.20265299564289e6 -1.6449423423966613e7 0.0
0.0 0.0 0.0

-255258.92300502618 1.3636708108426958e7 0.0
1.3636708108426958e7 -2.5180622052966603e6 0.0
0.0 0.0 0.0

-2.899708015521586e6 1.7245862857979912e7 0.0
1.7245862857979912e7 -538968.7838024164 0.0
0.0 0.0 0.0

-3.0976802506996733e6 1.7315176224152375e7 0.0
1.7315176224152375e7 -2.5961684917430407e6 0.0
0.0 0.0 0.0

2.185958149538058e6 8.56791868815712e6 0.0
8.56791868815712e6 -1.2570838503758293e7 0.0
0.0 0.0 0.0

1.5181613675314222e7 1.833533479736721e7 0.0
1.833533479736721e7 7.043466686053657e6 0.0
0.0 0.0 0.0

1.84462151857262e6 1.1176383677200481e7 0.0
1.1176383677200481e7 -1.1711427832427768e7 0.0
0.0 0.0 0.0

-517196.50089422637 1.3605810302252512e7 0.0
1.3605810302252512e7 -6.109608566098628e6 0.0
0.0 0.0 0.0

-4.790930949172894e6 1.8483168235664807e7 0.0
1.8483168235664807e7 5.192477124082294e6 0.0
0.0 0.0 0.0

828233.4474696391 1.0326108999956634e7 0.0
1.0326108999956634e7 -7.29932717482651e6 0.0
0.0 0.0 0.0

-5.073666412616985e6 1.906881234337495e7 0.0
1.906881234337495e7 9.369400734396879e6 0.0
0.0 0.0 0.0

1.5762730975505798e6 1.5608126077149676e7 0.0
1.5608126077149676e7 1.4140403264719836e7 0.0
0.0 0.0 0.0

-8.27955784905954e6 9.928220043809956e6 0.0
9.928220043809956e6 1.3216880402780248e7 0.0
0.0 0.0 0.0

-1.0511138332754057e7 3.350160123963775e7 0.0
3.350160123963775e7 -33035.884289476555 0.0
0.0 0.0 0.0

-3.6154754000695627e6 1.5638852676483482e7 0.0
1.5638852676483482e7 2.7443535220859095e7 0.0
0.0 0.0 0.0

-3.2976478963256227e6 1.3321366069530923e7 0.0
1.3321366069530923e7 -1.6258103806997635e6 0.0
0.0 0.0 0.0

6.123063265011169e6 1.591061190054478e7 0.0
1.591061190054478e7 733410.3198547552 0.0
0.0 0.0 0.0

3.841163477129006e6 6.673684050448204e6 0.0
6.673684050448204e6 -2.010655452761012e7 0.0
0.0 0.0 0.0

2.2031710417602602e6 1.0264663336717231e7 0.0
1.0264663336717231e7 -2.407759782651655e7 0.0
0.0 0.0 0.0

-6.3647535140204895e6 1.5692960572350936e7 0.0
1.5692960572350936e7 8.875765929559506e6 0.0
0.0 0.0 0.0

-8.224139432110442e6 2.137375959456768e7 0.0
2.137375959456768e7 -4.1578603685254743e6 0.0
0.0 0.0 0.0

-3.157668502386696e6 1.5138081781282477e7 0.0
1.5138081781282477e7 547464.6693860064 0.0
0.0 0.0 0.0

-187004.26843341812 1.3833943295033518e7 0.0
1.3833943295033518e7 -9.977291715700801e6 0.0
0.0 0.0 0.0

-1.2907779845444396e7 2.6878436373397563e7 0.0
2.6878436373397563e7 7.089152282139822e6 0.0
0.0 0.0 0.0

2.0307448190937173e6 1.0426404568003207e7 0.0
1.0426404568003207e7 -1.5027479896469165e7 0.0
0.0 0.0 0.0

-3.28206807232317e6 1.5932811813211491e7 0.0
1.5932811813211491e7 772547.9671824255 0.0
0.0 0.0 0.0

-2.886361314563807e6 7.687306863896284e6 0.0
7.687306863896284e6 2.6196095301481406e6 0.0
0.0 0.0 0.0

-5.128219326545494e6 1.5524711882697755e7 0.0
1.5524711882697755e7 7.671469023683091e6 0.0
0.0 0.0 0.0

-1.3293311952799015e7 4.872805688460929e7 0.0
4.872805688460929e7 -1.5099295895607173e6 0.0
0.0 0.0 0.0

-7.449309900357693e6 1.1030384885175828e7 0.0
1.1030384885175828e7 1.1897886764761033e7 0.0
0.0 0.0 0.0

-1.9494420980507832e6 6.277488590378537e6 0.0
6.277488590378537e6 -1.0941590312472861e6 0.0
0.0 0.0 0.0

-2.7318101937799524e6 1.8173444738855485e7 0.0
1.8173444738855485e7 -987708.2748109567 0.0
0.0 0.0 0.0

-4.382729642251404e6 1.8292643864208892e7 0.0
1.8292643864208892e7 3.1768896883816468e6 0.0
0.0 0.0 0.0

-988273.7807448326 1.6159949197790844e7 0.0
1.6159949197790844e7 -6.349059303708843e6 0.0
0.0 0.0 0.0

-3.3638138508239994e6 1.775927936014486e7 0.0
1.775927936014486e7 -1.6284617795606926e6 0.0
0.0 0.0 0.0

-6.577660921710445e6 1.7182043457152073e6 0.0
1.7182043457152073e6 8.178912293576608e6 0.0
0.0 0.0 0.0

325566.08732188283 1.4225374712735804e7 0.0
1.4225374712735804e7 -4.060663915866153e6 0.0
0.0 0.0 0.0

-4.376430114598602e6 1.8916838502579566e7 0.0
1.8916838502579566e7 3.314277111352778e6 0.0
0.0 0.0 0.0

1.3856760005449266e6 9.608966037698846e6 0.0
9.608966037698846e6 -1.101031477784967e7 0.0
0.0 0.0 0.0

648538.5352886822 1.45879041649296e7 0.0
1.45879041649296e7 -3.398748040112874e6 0.0
0.0 0.0 0.0

-1.4821789999760155e7 2.0386524736940637e7 0.0
2.0386524736940637e7 2.364243103694086e6 0.0
0.0 0.0 0.0

-6.57129727558127e6 1.1928612706236167e7 0.0
1.1928612706236167e7 1.0569237160712183e7 0.0
0.0 0.0 0.0

145602.3797205491 1.505323564792103e7 0.0
1.505323564792103e7 -1.3243946439803569e7 0.0
0.0 0.0 0.0

-4.485684810451189e6 1.9318799773558147e7 0.0
1.9318799773558147e7 4.994398476868856e6 0.0
0.0 0.0 0.0

3.8176038610783713e6 3.373970216303956e6 0.0
3.373970216303956e6 -1.211891860212285e7 0.0
0.0 0.0 0.0

-1.7147989209586321e6 492243.68445059675 0.0
492243.68445059675 1.187157725290229e6 0.0
0.0 0.0 0.0

-342381.74618538877 1.188507753243554e6 0.0
1.188507753243554e6 -266212.9431606498 0.0
0.0 0.0 0.0

-7.20306173331512e6 -7.987599167530192e6 0.0
-7.987599167530192e6 1.7290964981324635e7 0.0
0.0 0.0 0.0

199985.87455904065 2.0259920388388801e6 0.0
2.0259920388388801e6 -1.7323110960608248e6 0.0
0.0 0.0 0.0

-6.262270991454694e6 -7.667894309804827e6 0.0
-7.667894309804827e6 1.4672936704633836e7 0.0
0.0 0.0 0.0

3.582040365071986e6 3.54354609091369e6 0.0
3.54354609091369e6 -9.955869403520238e6 0.0
0.0 0.0 0.0

-3.4991061778587494e6 -2.033578424012456e6 0.0
-2.033578424012456e6 3.7308791299312264e6 0.0
0.0 0.0 0.0

-5.118639970972968e6 -5.203442022439182e6 0.0
-5.203442022439182e6 8.009086072005507e6 0.0
0.0 0.0 0.0

881481.5075413755 2.6899232016312242e6 0.0
2.6899232016312242e6 -3.2843637335861325e6 0.0
0.0 0.0 0.0

-5.160757307639418e6 -7.32443633114275e6 0.0
-7.32443633114275e6 1.1570475821077032e7 0.0
0.0 0.0 0.0

2.8674385198301235e6 3.6134144895714717e6 0.0
3.6134144895714717e6 -7.70459072746486e6 0.0
0.0 0.0 0.0

1.9945196042705267e6 3.4289135331072314e6 0.0
3.4289135331072314e6 -5.596759352872817e6 0.0
0.0 0.0 0.0

-2.4206899219962326e6 40677.8179527698 0.0
40677.8179527698 2.152426343835502e6 0.0
0.0 0.0 0.0

4.962538305558793e6 3.264122184600796e6 0.0
3.264122184600796e6 -1.8728372414604176e7 0.0
0.0 0.0 0.0

5.122224091287817e6 3.159185070820088e6 0.0
3.159185070820088e6 -2.0086090435436547e7 0.0
0.0 0.0 0.0

4.840905089647503e6 3.2885959106038436e6 0.0
3.2885959106038436e6 -1.7426197221054837e7 0.0
0.0 0.0 0.0

4.670703412871604e6 3.366967630225651e6 0.0
3.366967630225651e6 -1.5346874477003353e7 0.0
0.0 0.0 0.0

-3.810419891487995e6 -849096.5674533013 0.0
-849096.5674533013 3.298107214155921e6 0.0
0.0 0.0 0.0

-5.437238115959205e6 -7.555601251384319e6 0.0
-7.555601251384319e6 1.2925804178147588e7 0.0
0.0 0.0 0.0

5.054396238341175e6 3.260237677836468e6 0.0
3.260237677836468e6 -1.9469660525444802e7 0.0
0.0 0.0 0.0

4.0784261509491997e6 3.3482135095277387e6 0.0
3.3482135095277387e6 -1.3676825780849848e7 0.0
0.0 0.0 0.0

4.331945966746183e6 3.332284272778715e6 0.0
3.332284272778715e6 -1.4505328910139672e7 0.0
0.0 0.0 0.0

4.125105409636004e6 3.3721598682828248e6 0.0
3.3721598682828248e6 -1.3031322978962637e7 0.0
0.0 0.0 0.0

912956.7452175873 1.3928816245781692e7 0.0
1.3928816245781692e7 -1.1886103238431908e7 0.0
0.0 0.0 0.0

-9.963874360554727e6 9.18260593132135e6 0.0
9.18260593132135e6 1.5684314828408927e7 0.0
0.0 0.0 0.0

-1.2596337587387253e7 4.448638144691315e6 0.0
4.448638144691315e6 1.9663191926020157e7 0.0
0.0 0.0 0.0

-4.848279538503388e6 1.9654537136879805e7 0.0
1.9654537136879805e7 8.516302152569495e6 0.0
0.0 0.0 0.0

60933.27098853979 1.3779991585795099e7 0.0
1.3779991585795099e7 -1.8077915761328865e7 0.0
0.0 0.0 0.0

-4.822645593086936e6 1.6121259602305014e7 0.0
1.6121259602305014e7 2.914416686080551e6 0.0
0.0 0.0 0.0

-1.4812747137748199e7 3.613303064462722e7 0.0
3.613303064462722e7 -713949.3267434146 0.0
0.0 0.0 0.0

-3.4990719759136154e6 1.4182761798565071e7 0.0
1.4182761798565071e7 -1.322516463695024e6 0.0
0.0 0.0 0.0

-3.149415028640641e6 1.6657990565758673e7 0.0
1.6657990565758673e7 -9.274681601162514e6 0.0
0.0 0.0 0.0

4.040722280072967e6 1.7985379656746287e7 0.0
1.7985379656746287e7 7.261585296589667e6 0.0
0.0 0.0 0.0

-3.049472787499651e6 1.6866318429758918e7 0.0
1.6866318429758918e7 6.087857320592132e6 0.0
0.0 0.0 0.0

-4.932948264322951e6 1.635286831433956e7 0.0
1.635286831433956e7 7.48800908280924e6 0.0
0.0 0.0 0.0

81308.70402269345 1.6654167780294659e7 0.0
1.6654167780294659e7 -1.0199568279292123e7 0.0
0.0 0.0 0.0

-5.533914103030514e6 1.4929260827832952e7 0.0
1.4929260827832952e7 8.804067986527886e6 0.0
0.0 0.0 0.0

-3.537720379363991e6 1.8202540274198923e7 0.0
1.8202540274198923e7 -750697.38737498 0.0
0.0 0.0 0.0

-2.774082799190287e6 1.6875568582340192e7 0.0
1.6875568582340192e7 -3.567478780979714e6 0.0
0.0 0.0 0.0

-6.825540897150468e6 1.1792572440856254e7 0.0
1.1792572440856254e7 7.149703823388344e6 0.0
0.0 0.0 0.0

-501365.70565058384 1.3001332298320735e7 0.0
1.3001332298320735e7 -8.400833431975316e6 0.0
0.0 0.0 0.0

-3.4245688344621453e6 1.4767531543304862e7 0.0
1.4767531543304862e7 1.4303231367033024e6 0.0
0.0 0.0 0.0

1.8022040686998055e6 9.098897974191384e6 0.0
9.098897974191384e6 -1.1781117651838748e7 0.0
0.0 0.0 0.0

-1.7452983995899481e6 457526.34594671015 0.0
457526.34594671015 2.688928806783434e6 0.0
0.0 0.0 0.0

-541561.1922743733 1.174011518336118e6 0.0
1.174011518336118e6 828594.1897842125 0.0
0.0 0.0 0.0

-5.096549896259129e6 -7.348635130300085e6 0.0
-7.348635130300085e6 1.3209015422642048e7 0.0
0.0 0.0 0.0

-2.4093203044131976e6 -17204.235143613278 0.0
-17204.235143613278 4.45206774583789e6 0.0
0.0 0.0 0.0

-2.7523128455422465e6 -1.538012287499457e6 0.0
-1.538012287499457e6 5.380103529479059e6 0.0
0.0 0.0 0.0

4.959450083209798e6 3.2635121300721345e6 0.0
3.2635121300721345e6 -1.8825349060965437e7 0.0
0.0 0.0 0.0

4.973211708907786e6 3.196829810402331e6 0.0
3.196829810402331e6 -1.9360925735832553e7 0.0
0.0 0.0 0.0

-5.769274900306026e6 -7.4033459907585895e6 0.0
-7.4033459907585895e6 1.4829085758313006e7 0.0
0.0 0.0 0.0

4.442220374719247e6 3.42020409058228e6 0.0
3.42020409058228e6 -1.476989671237547e7 0.0
0.0 0.0 0.0

4.058283176593407e6 3.4882546493116617e6 0.0
3.4882546493116617e6 -1.2263531937245829e7 0.0
0.0 0.0 0.0

4.243854089874379e6 3.421470266261275e6 0.0
3.421470266261275e6 -1.371761794978415e7 0.0
0.0 0.0 0.0

4.126556293206742e6 3.3762619895685744e6 0.0
3.3762619895685744e6 -1.2998837241854815e7 0.0
0.0 0.0 0.0

-4.1035568633397114e6 1.3350233643420262e7 0.0
1.3350233643420262e7 376581.76394770434 0.0
0.0 0.0 0.0

-9.634652850708634e6 1.5456959793167448e7 0.0
1.5456959793167448e7 2.005251122787285e7 0.0
0.0 0.0 0.0

-6.30719091677189e6 1.454625214987446e7 0.0
1.454625214987446e7 1.0944986502468588e7 0.0
0.0 0.0 0.0

4.378256476627687e6 5.84042127230151e6 0.0
5.84042127230151e6 -1.6801220577484652e7 0.0
0.0 0.0 0.0

-2.244280054529384e6 1.9836235300421547e7 0.0
1.9836235300421547e7 -3.50733538188861e6 0.0
0.0 0.0 0.0

-3.397300825791927e6 1.7154157033838116e7 0.0
1.7154157033838116e7 1.4633034398122199e7 0.0
0.0 0.0 0.0

-1.2441876133485407e7 1.0987504871381043e7 0.0
1.0987504871381043e7 1.7136287807764918e7 0.0
0.0 0.0 0.0

2.476936391486156e6 8.846286311653992e6 0.0
8.846286311653992e6 -1.4386138709532227e7 0.0
0.0 0.0 0.0

1.986995812001788e6 1.0750984050503818e7 0.0
1.0750984050503818e7 -1.5400390808280854e7 0.0
0.0 0.0 0.0

-2.656354825749178e6 1.6197533009737821e7 0.0
1.6197533009737821e7 -3.8852100785839297e6 0.0
0.0 0.0 0.0

-4.584300975049719e6 1.7019890936165184e7 0.0
1.7019890936165184e7 1.6396751833719373e7 0.0
0.0 0.0 0.0

-3.0505516928318823e6 9.669300158014705e6 0.0
9.669300158014705e6 2.25460658864282e6 0.0
0.0 0.0 0.0

-1.294407287639701e6 1.6624697951685835e7 0.0
1.6624697951685835e7 -5.423832853892196e6 0.0
0.0 0.0 0.0

-2.950721495349885e6 1.9813751761580806e7 0.0
1.9813751761580806e7 359176.14556026936 0.0
0.0 0.0 0.0

1.4249911619665497e6 1.191394155327233e7 0.0
1.191394155327233e7 -1.156135215333554e7 0.0
0.0 0.0 0.0

-2.6771132032428468e6 1.7512791259720914e7 0.0
1.7512791259720914e7 -1.245037250647493e6 0.0
0.0 0.0 0.0

896595.020958106 2.7939613288893555e6 0.0
2.7939613288893555e6 2.511984335231415e6 0.0
0.0 0.0 0.0

-4.91749253684683e6 1.711335952404417e7 0.0
1.711335952404417e7 1.5929532673394319e7 0.0
0.0 0.0 0.0

2.660433788969936e6 9.316948253698917e6 0.0
9.316948253698917e6 -2.78950117253422e7 0.0
0.0 0.0 0.0

2.40299436046019e6 1.0125383369872157e7 0.0
1.0125383369872157e7 -2.274057908709437e7 0.0
0.0 0.0 0.0

-1.1029783783478476e6 1.5965947480362592e7 0.0
1.5965947480362592e7 -5.7722093789818315e6 0.0
0.0 0.0 0.0

-8.085380091937449e6 1.9731670392795626e7 0.0
1.9731670392795626e7 4.610239196799982e6 0.0
0.0 0.0 0.0

2.9572073837836892e6 6.226183007322505e6 0.0
6.226183007322505e6 -9.6913349274562e6 0.0
0.0 0.0 0.0

-2.997593786039763e6 1.4309656835959563e7 0.0
1.4309656835959563e7 319602.62365938176 0.0
0.0 0.0 0.0

-3.3320872483975543e6 1.708476673272576e7 0.0
1.708476673272576e7 -1.9059246569603272e6 0.0
0.0 0.0 0.0

-2.448932474287607e6 1.7744285823480826e7 0.0
1.7744285823480826e7 -1.9319158067588126e6 0.0
0.0 0.0 0.0

81859.92390020285 1.3764255459208785e7 0.0
1.3764255459208785e7 -1.9517652879264615e7 0.0
0.0 0.0 0.0

2.278883709668196e6 1.0544836241836278e7 0.0
1.0544836241836278e7 -1.918849733863409e7 0.0
0.0 0.0 0.0

-4.361306634696297e6 1.0082357304308001e7 0.0
1.0082357304308001e7 1.641872971748622e6 0.0
0.0 0.0 0.0

-6.20927508423081e6 1.541446663548211e7 0.0
1.541446663548211e7 7.970366322553994e6 0.0
0.0 0.0 0.0

1.1956557977297083e6 1.2686592698036516e7 0.0
1.2686592698036516e7 -2.0207648696358707e7 0.0
0.0 0.0 0.0

-1.847701960173672e6 1.8312768840249773e7 0.0
1.8312768840249773e7 -3.8009743488419014e6 0.0
0.0 0.0 0.0

2.3630919288837276e6 3.495689112058676e6 0.0
3.495689112058676e6 -6.356761333700774e6 0.0
0.0 0.0 0.0

926667.660680605 2.4732371536077343e7 0.0
2.4732371536077343e7 -2.211956301081981e6 0.0
0.0 0.0 0.0

2.5456704284662376e6 6.8295332524444675e6 0.0
6.8295332524444675e6 -8.987059725987116e6 0.0
0.0 0.0 0.0

-1.0362441157067001e6 1.2511431415247282e7 0.0
1.2511431415247282e7 -4.033377620294803e6 0.0
0.0 0.0 0.0

-5.819594054476985e6 1.761479598681492e7 0.0
1.761479598681492e7 9.853388567901108e6 0.0
0.0 0.0 0.0

-2.7612904105994822e6 1.1977752553698331e7 0.0
1.1977752553698331e7 707053.2011890403 0.0
0.0 0.0 0.0

-3.0234520032163123e6 1.371436007883401e7 0.0
1.371436007883401e7 -2.4094630393874114e6 0.0
0.0 0.0 0.0

-3.5939795879807104e6 1.750411262633926e7 0.0
1.750411262633926e7 -939243.6963584278 0.0
0.0 0.0 0.0

-3.949321233690519e6 8.927866003509741e6 0.0
8.927866003509741e6 1.151370434060203e6 0.0
0.0 0.0 0.0

-5.7843577326651225e6 861596.7422433306 0.0
861596.7422433306 8.025151875079913e6 0.0
0.0 0.0 0.0

-5.311496334737044e6 1.4608610681989707e7 0.0
1.4608610681989707e7 7.839394449287158e6 0.0
0.0 0.0 0.0

-4.324900477971526e6 1.6167223804849276e7 0.0
1.6167223804849276e7 4.569331662332993e6 0.0
0.0 0.0 0.0

789874.9363003317 6.656238716428752e6 0.0
6.656238716428752e6 -6.645576316047071e6 0.0
0.0 0.0 0.0

-6.048351104425609e6 1.2876726236795133e7 0.0
1.2876726236795133e7 9.223919972007597e6 0.0
0.0 0.0 0.0

-3.1403084246938187e6 1.7983166440973043e7 0.0
1.7983166440973043e7 -2.2993286470454503e6 0.0
0.0 0.0 0.0

3.7537448139165184e6 8.339966422230472e6 0.0
8.339966422230472e6 -1.9881683534917854e7 0.0
0.0 0.0 0.0

-6.701286008643766e6 1.991574374958084e7 0.0
1.991574374958084e7 3.9353829162427993e6 0.0
0.0 0.0 0.0

-2.5032974655825924e6 1.5487402498797571e7 0.0
1.5487402498797571e7 -4.210081948096287e6 0.0
0.0 0.0 0.0

2.191794325485807e6 3.5446886145351417e6 0.0
3.5446886145351417e6 -5.574089712545795e6 0.0
0.0 0.0 0.0

-4.642590619958764e6 2.1136641875944346e7 0.0
2.1136641875944346e7 6.203899674273237e6 0.0
0.0 0.0 0.0

-1.1732571367860086e7 6.347129071864338e6 0.0
6.347129071864338e6 1.4304482819958597e7 0.0
0.0 0.0 0.0

-2.965429474810412e6 1.4884242016869549e7 0.0
1.4884242016869549e7 -2.849250156684834e6 0.0
0.0 0.0 0.0

-2.5629482523662327e6 1.898763883905813e7 0.0
1.898763883905813e7 -1.4239390543871378e6 0.0
0.0 0.0 0.0

-3.5308871886959253e6 1.9471727132937133e7 0.0
1.9471727132937133e7 -222609.2797815177 0.0
0.0 0.0 0.0

-2.862022322070851e6 1.753577760973316e7 0.0
1.753577760973316e7 -3.2539562199275615e6 0.0
0.0 0.0 0.0

-3.18320610647698e6 1.7654811528074533e7 0.0
1.7654811528074533e7 389911.68414813466 0.0
0.0 0.0 0.0

3.0665125992786153e6 3.565648982480314e6 0.0
3.565648982480314e6 -8.414504819436379e6 0.0
0.0 0.0 0.0

-2.1342265784847066e6 2.1189426951642692e7 0.0
2.1189426951642692e7 -2.644872711356479e6 0.0
0.0 0.0 0.0

-9.582456324044257e6 1.6740176172035653e7 0.0
1.6740176172035653e7 -4.4349237081859894e7 0.0
0.0 0.0 0.0

9.479881558904992e6 1.6630444641194707e7 0.0
1.6630444641194707e7 4.5866563290094405e7 0.0
0.0 0.0 0.0

1.1393121737128599e6 1.2808428386957888e7 0.0
1.2808428386957888e7 -1.4712425517185975e7 0.0
0.0 0.0 0.0

-1.6780348509182078e6 1.7055925771344528e7 0.0
1.7055925771344528e7 -4.492437000364018e6 0.0
0.0 0.0 0.0

-2.0421979746856089e6 1.3565675554491566e7 0.0
1.3565675554491566e7 -1.5183076446493857e7 0.0
0.0 0.0 0.0

-2.297163631207624e6 1.475601667433524e7 0.0
1.475601667433524e7 -4.552864713490949e6 0.0
0.0 0.0 0.0

-98822.79008418228 1.690059173617513e7 0.0
1.690059173617513e7 -9.973174554565469e6 0.0
0.0 0.0 0.0

-1.4109155430287332e6 1.3876442554390308e7 0.0
1.3876442554390308e7 -6.519591244498566e6 0.0
0.0 0.0 0.0

-3.7784482947329734e6 1.7272894961309053e7 0.0
1.7272894961309053e7 -238554.08877771127 0.0
0.0 0.0 0.0

2.983478652623443e6 8.363728046808584e6 0.0
8.363728046808584e6 -3.387942204788308e7 0.0
0.0 0.0 0.0

-7.237195171691155e6 1.8737587373836443e7 0.0
1.8737587373836443e7 2.967154453716806e6 0.0
0.0 0.0 0.0

-4.846918897429711e6 1.7629282381913032e7 0.0
1.7629282381913032e7 4.885880488583213e6 0.0
0.0 0.0 0.0

-985529.6004433705 1.4042128582006587e7 0.0
1.4042128582006587e7 -5.142513317193283e6 0.0
0.0 0.0 0.0

2.067519576730731e6 1.1033561020374224e7 0.0
1.1033561020374224e7 -1.822393142570486e7 0.0
0.0 0.0 0.0

9.403616735151194e6 1.7030192955592617e7 0.0
1.7030192955592617e7 3.1345388866794545e7 0.0
0.0 0.0 0.0

-1.1327783472025048e6 1.7350926154928632e7 0.0
1.7350926154928632e7 -6.773002476823484e6 0.0
0.0 0.0 0.0

-2.3297769561919913e7 4.027329927567301e7 0.0
4.027329927567301e7 -1.088016245507924e6 0.0
0.0 0.0 0.0

1.362751378174848e6 1.2347461695968341e7 0.0
1.2347461695968341e7 -1.5565068314468846e7 0.0
0.0 0.0 0.0

-2.146402470387863e6 1.7304882729456708e7 0.0
1.7304882729456708e7 -2.9013557718242975e6 0.0
0.0 0.0 0.0

2.896233059839894e6 3.6262404940516525e6 0.0
3.6262404940516525e6 -7.7938481747559775e6 0.0
0.0 0.0 0.0

3.508159646880256e6 7.579986445377251e6 0.0
7.579986445377251e6 -1.9628031968073543e7 0.0
0.0 0.0 0.0

-2.948269514015233e6 1.9229129527006388e7 0.0
1.9229129527006388e7 161283.42736765684 0.0
0.0 0.0 0.0

-3.708227913823057e6 1.4519620185568579e7 0.0
1.4519620185568579e7 -2.6752623727077067e7 0.0
0.0 0.0 0.0

-1.4235385428010472e6 1.448473386747624e7 0.0
1.448473386747624e7 -4.142134571736e6 0.0
0.0 0.0 0.0

1.4296197754649357e6 1.0631302056597043e7 0.0
1.0631302056597043e7 -9.385869620170683e6 0.0
0.0 0.0 0.0

-3.8627904885056783e6 1.2921020362994015e7 0.0
1.2921020362994015e7 3.258967826391249e6 0.0
0.0 0.0 0.0

1.6485587333839312e6 1.1919197617221257e7 0.0
1.1919197617221257e7 -1.6469868006891113e7 0.0
0.0 0.0 0.0

-4.861946729543696e6 1.2319795526751462e7 0.0
1.2319795526751462e7 2.342880016252497e6 0.0
0.0 0.0 0.0

348461.6160812797 1.4655989558138626e7 0.0
1.4655989558138626e7 -1.4134785341235576e7 0.0
0.0 0.0 0.0

-1.5311580173215464e7 2.376784438922013e7 0.0
2.376784438922013e7 -3.666681529363407e6 0.0
0.0 0.0 0.0

-4.206040615401284e6 -3.2942863035680326e6 0.0
-3.2942863035680326e6 4.898513456779243e6 0.0
0.0 0.0 0.0

-4.739658942150185e6 1.2809821925750861e7 0.0
1.2809821925750861e7 5.629631859418895e6 0.0
0.0 0.0 0.0

-2.9482156908580065e6 1.7918206263576645e7 0.0
1.7918206263576645e7 -283188.24193290994 0.0
0.0 0.0 0.0

-1.0043413347421518e7 -809094.4285236135 0.0
-809094.4285236135 3.470649024975031e7 0.0
0.0 0.0 0.0

-836568.0787754115 1.6304522031327192e7 0.0
1.6304522031327192e7 8.955193221270869e6 0.0
0.0 0.0 0.0

-1.8591799953406695e6 1.4312751380622417e7 0.0
1.4312751380622417e7 -5.55240562513866e6 0.0
0.0 0.0 0.0

-368837.0819624914 1.6862010652642995e7 0.0
1.6862010652642995e7 -9.06207521534385e6 0.0
0.0 0.0 0.0

-1.1136768818765804e6 1.5292593848402694e7 0.0
1.5292593848402694e7 -7.876708539513412e6 0.0
0.0 0.0 0.0

-997855.7827124415 1.1959526301402654e7 0.0
1.1959526301402654e7 -6.4939535013686465e6 0.0
0.0 0.0 0.0

-2.2370844744545985e6 1.6634187314110782e7 0.0
1.6634187314110782e7 -5.15315454123828e6 0.0
0.0 0.0 0.0

-5.88318058518928e6 1.5444009241531026e7 0.0
1.5444009241531026e7 1.0605473867065746e7 0.0
0.0 0.0 0.0

-3.511192964157476e6 1.5580810774581768e7 0.0
1.5580810774581768e7 1.6122184292663315e6 0.0
0.0 0.0 0.0

-3.2239701639061756e6 1.4540960279843342e7 0.0
1.4540960279843342e7 -2.1149601938181305e6 0.0
0.0 0.0 0.0

3.9092563598238993e6 7.362735934591586e6 0.0
7.362735934591586e6 -2.454567605814343e7 0.0
0.0 0.0 0.0

-5.094937372762734e6 2.1619559839853127e7 0.0
2.1619559839853127e7 6.566266483119436e6 0.0
0.0 0.0 0.0

-2.0625527540823375e6 3.3280829926467673e6 0.0
3.3280829926467673e6 2.3790230658041537e6 0.0
0.0 0.0 0.0

-5.71373010942143e6 1.5200321634021701e7 0.0
1.5200321634021701e7 9.721995307912052e6 0.0
0.0 0.0 0.0

924127.6608032491 1.0734241359357938e7 0.0
1.0734241359357938e7 -7.93172767706658e6 0.0
0.0 0.0 0.0

4.340955634720642e6 4.230188096887857e6 0.0
4.230188096887857e6 -1.6007680438488448e7 0.0
0.0 0.0 0.0

1.8539765812309114e6 1.1447929284916611e7 0.0
1.1447929284916611e7 -1.7402845176078577e7 0.0
0.0 0.0 0.0

-2.85373238976891e6 6.532274798095135e6 0.0
6.532274798095135e6 66196.35605090554 0.0
0.0 0.0 0.0

-1.2868025760626417e7 1.095795056416745e7 0.0
1.095795056416745e7 2.0119685020590533e7 0.0
0.0 0.0 0.0

-2.2884115921332855e6 1.575336281796053e7 0.0
1.575336281796053e7 -4.865621341236714e6 0.0
0.0 0.0 0.0

-2.910094055705635e6 -2.5056512552560554e6 0.0
-2.5056512552560554e6 6.627310115548823e6 0.0
0.0 0.0 0.0

-4.677326366472783e6 1.1222677647410508e7 0.0
1.1222677647410508e7 2.0363911441201633e6 0.0
0.0 0.0 0.0

-584035.3337436216 1.7313000450091925e7 0.0
1.7313000450091925e7 -8.12068302046825e6 0.0
0.0 0.0 0.0

-859480.9143123818 1.4862147524171066e7 0.0
1.4862147524171066e7 -1.4621839934973244e7 0.0
0.0 0.0 0.0

1.435395516030468e6 1.0723807347994056e7 0.0
1.0723807347994056e7 -1.2540838345603796e7 0.0
0.0 0.0 0.0

4151.227311867056 8.569445235337451e6 0.0
8.569445235337451e6 -6.261643003691371e6 0.0
0.0 0.0 0.0

-1.6634975692592324e6 1.5229153378300227e7 0.0
1.5229153378300227e7 -3.8191482645745827e6 0.0
0.0 0.0 0.0

-6.281110931127427e6 1.6533367125614163e7 0.0
1.6533367125614163e7 1.793770580279049e7 0.0
0.0 0.0 0.0

-3.346305146687376e6 1.9605342219785225e7 0.0
1.9605342219785225e7 -863457.9020893141 0.0
0.0 0.0 0.0

-8.891708495207578e6 1.5713687613201952e7 0.0
1.5713687613201952e7 1.5272014455163386e7 0.0
0.0 0.0 0.0

-4.887502690982517e6 1.7594309910500024e7 0.0
1.7594309910500024e7 8.830293278028268e6 0.0
0.0 0.0 0.0

457376.9509269083 9.699028925753385e6 0.0
9.699028925753385e6 -8.075121011890237e6 0.0
0.0 0.0 0.0

-3.687816786427613e6 1.18793980543155e7 0.0
1.18793980543155e7 3.0313402528187097e6 0.0
0.0 0.0 0.0

-1.9543118116639033e6 1.6266273660061082e7 0.0
1.6266273660061082e7 9.315435273055118e6 0.0
0.0 0.0 0.0

-1.4825381069453768e6 1.2415432329275873e7 0.0
1.2415432329275873e7 -5.512374452182712e6 0.0
0.0 0.0 0.0

1.0284904993309779e6 1.291258215955471e7 0.0
1.291258215955471e7 -1.887690227483228e7 0.0
0.0 0.0 0.0

-1.8666206912944284e6 1.5944793291540537e7 0.0
1.5944793291540537e7 -3.499368732242765e6 0.0
0.0 0.0 0.0

863959.8778080195 1.3232679493674776e7 0.0
1.3232679493674776e7 -1.3868140992971668e7 0.0
0.0 0.0 0.0

-3.550863072831654e6 1.3428081942036513e7 0.0
1.3428081942036513e7 2.201077382496714e6 0.0
0.0 0.0 0.0

-4.719931110583821e6 1.3931879628892649e7 0.0
1.3931879628892649e7 -1.993893904102711e7 0.0
0.0 0.0 0.0

-2.0256915419000974e6 1.6636608200865766e7 0.0
1.6636608200865766e7 -3.2026906102353386e6 0.0
0.0 0.0 0.0

3.3953321677115606e6 1.602150381771724e7 0.0
1.602150381771724e7 -2.0261642830802493e6 0.0
0.0 0.0 0.0

-1.0414163145319905e7 1.131299844970536e6 0.0
1.131299844970536e6 3.387157670815924e7 0.0
0.0 0.0 0.0

-6.963062331651134e6 2.7145320863081615e7 0.0
2.7145320863081615e7 4.912993854968416e6 0.0
0.0 0.0 0.0

-3.7674996148260836e6 1.7385141410924606e7 0.0
1.7385141410924606e7 7.628680462494474e6 0.0
0.0 0.0 0.0

-1.1566775095511856e7 1.2272544872788118e7 0.0
1.2272544872788118e7 2.168246517938046e7 0.0
0.0 0.0 0.0

-4.571155464406261e6 1.9646791131189838e7 0.0
1.9646791131189838e7 7.7623106040431205e6 0.0
0.0 0.0 0.0

-2.7875945823503053e6 1.3432062932779767e7 0.0
1.3432062932779767e7 50326.92298633419 0.0
0.0 0.0 0.0

-826395.3116791933 1.4342582543716477e7 0.0
1.4342582543716477e7 -5.788207007275588e6 0.0
0.0 0.0 0.0

-1.4663794188022704e6 1.550347176304267e7 0.0
1.550347176304267e7 -4.483135374782792e6 0.0
0.0 0.0 0.0

-790125.20592765 9.131676724596195e6 0.0
9.131676724596195e6 -2.2375222309790803e6 0.0
0.0 0.0 0.0

-812562.0924557548 1.7780145786529843e7 0.0
1.7780145786529843e7 -7.242502329099443e6 0.0
0.0 0.0 0.0

3.4531217175827976e6 6.435555230675686e6 0.0
6.435555230675686e6 -1.5784737621198053e7 0.0
0.0 0.0 0.0

1.760700188481099e6 6.28923569253013e6 0.0
6.28923569253013e6 -8.628818647396548e6 0.0
0.0 0.0 0.0

-5.35182454069014e6 1.7194163254815537e7 0.0
1.7194163254815537e7 1.0635046423363794e7 0.0
0.0 0.0 0.0

-3.1291169646122935e6 1.9205665348070744e7 0.0
1.9205665348070744e7 -1.7670690489307104e6 0.0
0.0 0.0 0.0

2.653435994912726e6 1.640155889249434e7 0.0
1.640155889249434e7 -3.6191231715045376e6 0.0
0.0 0.0 0.0

-1.011780593794514e7 2.130699303395246e7 0.0
2.130699303395246e7 5.087818548250272e6 0.0
0.0 0.0 0.0

2.473825065154841e6 6.115284808726996e6 0.0
6.115284808726996e6 -1.1271525683130179e7 0.0
0.0 0.0 0.0

-2.0160580316941482e6 1.2831916692686375e7 0.0
1.2831916692686375e7 -4.524049390699244e6 0.0
0.0 0.0 0.0

2.8870803119924884e7 1.2974593217985315e7 0.0
1.2974593217985315e7 675491.0099808257 0.0
0.0 0.0 0.0

180203.41042581666 8.8916288063193e6 0.0
8.8916288063193e6 -7.07726301548146e6 0.0
0.0 0.0 0.0

3.7167725504998406e6 6.579672458568409e6 0.0
6.579672458568409e6 -1.88067936680772e7 0.0
0.0 0.0 0.0

-9.31946511092315e6 1.5708215515247436e7 0.0
1.5708215515247436e7 1.9207129769909386e7 0.0
0.0 0.0 0.0

765588.502862093 1.3936944110646565e7 0.0
1.3936944110646565e7 -1.4768149251362305e7 0.0
0.0 0.0 0.0

-8.297087179892091e6 8.084164900242047e6 0.0
8.084164900242047e6 1.3480372086961323e7 0.0
0.0 0.0 0.0

-1.0295953119519308e7 2.6628374220278658e7 0.0
2.6628374220278658e7 6.0019097324818615e6 0.0
0.0 0.0 0.0

-8.998259209109481e6 1.5866411153385973e7 0.0
1.5866411153385973e7 1.8538690750873208e7 0.0
0.0 0.0 0.0

-4.721699936534975e6 2.0164364460657965e7 0.0
2.0164364460657965e7 7.677637049683882e6 0.0
0.0 0.0 0.0

-1.1688017362172984e7 2.193563647986391e7 0.0
2.193563647986391e7 -3.0237253768855147e6 0.0
0.0 0.0 0.0

-3.92520972743271e6 1.4650623984595297e7 0.0
1.4650623984595297e7 -212694.05973016913 0.0
0.0 0.0 0.0

2.785582283740978e7 5.885743245828075e6 0.0
5.885743245828075e6 -2.782565085039396e6 0.0
0.0 0.0 0.0

-722018.2189831457 1.5775288402652243e7 0.0
1.5775288402652243e7 -7.267983083181461e6 0.0
0.0 0.0 0.0

-1.0753946086882844e6 1.2232646984105408e7 0.0
1.2232646984105408e7 -522420.0249429945 0.0
0.0 0.0 0.0

-1.0593119846271947e6 1.8235019913653716e7 0.0
1.8235019913653716e7 -6.323483818419131e6 0.0
0.0 0.0 0.0

-8.0642492642137995e6 1.8780731143725447e7 0.0
1.8780731143725447e7 -3.3135996178249726e6 0.0
0.0 0.0 0.0

361302.0835177649 8.279075738845809e6 0.0
8.279075738845809e6 -4.0292783364546197e6 0.0
0.0 0.0 0.0

-4.9497394374525035e6 1.7456012966803674e7 0.0
1.7456012966803674e7 1.172585150255778e7 0.0
0.0 0.0 0.0

-1.5142564341186178e6 1.3787101781027038e7 0.0
1.3787101781027038e7 -1.4564177224950338e7 0.0
0.0 0.0 0.0

-1.2149411502489563e7 2.0321514728479884e6 0.0
2.0321514728479884e6 1.9788886224562235e7 0.0
0.0 0.0 0.0

-3.358219491859402e6 1.902639710097134e7 0.0
1.902639710097134e7 -1.1459012880345997e6 0.0
0.0 0.0 0.0

-2.5351185700538084e6 1.3849405082811384e7 0.0
1.3849405082811384e7 -806979.4852032228 0.0
0.0 0.0 0.0

-2.7490572915481585e6 1.940410527087626e7 0.0
1.940410527087626e7 -553161.2211852748 0.0
0.0 0.0 0.0

185066.46317681624 1.431215802402342e7 0.0
1.431215802402342e7 -9.278098252039663e6 0.0
0.0 0.0 0.0

-3.951130703395076e6 7.140334228607161e6 0.0
7.140334228607161e6 4.904873780916246e6 0.0
0.0 0.0 0.0

-4.4173887189769e6 1.986251713427667e7 0.0
1.986251713427667e7 5.021207823423248e6 0.0
0.0 0.0 0.0

-5.948622375467161e6 1.698142251374946e7 0.0
1.698142251374946e7 1.3447486550927335e7 0.0
0.0 0.0 0.0

-5.155010326754261e6 1.6841215316961452e7 0.0
1.6841215316961452e7 9.143417025478162e6 0.0
0.0 0.0 0.0

-560245.4539101644 1.2098068115496967e7 0.0
1.2098068115496967e7 -5.020931076065036e6 0.0
0.0 0.0 0.0

2.309955526323066e6 1.053246918649841e7 0.0
1.053246918649841e7 -2.0401487394326054e7 0.0
0.0 0.0 0.0

-4.269703774861044e6 1.5923189763005475e7 0.0
1.5923189763005475e7 1.0590440976562994e6 0.0
0.0 0.0 0.0

-262725.7008535424 1.5389709422374345e7 0.0
1.5389709422374345e7 -1.1041401216688422e7 0.0
0.0 0.0 0.0

-166782.04304579133 1.413039113019956e7 0.0
1.413039113019956e7 -1.0418298496965336e7 0.0
0.0 0.0 0.0

-2.177164694749376e6 1.9294432755238455e7 0.0
1.9294432755238455e7 -4.383827361528288e6 0.0
0.0 0.0 0.0

-1.338521787391568e6 1.5965144987327829e7 0.0
1.5965144987327829e7 -7.425623919446941e6 0.0
0.0 0.0 0.0

2.1395112405602345e6 1.0794127310952714e7 0.0
1.0794127310952714e7 -1.6696895176667336e7 0.0
0.0 0.0 0.0

1.7401877727460777e6 6.276635610895151e6 0.0
6.276635610895151e6 -6.045276634707725e6 0.0
0.0 0.0 0.0

-688128.2896038479 5.799616261352554e6 0.0
5.799616261352554e6 -344273.42569521547 0.0
0.0 0.0 0.0

-1.5883966564602484e6 2.461366078907557e7 0.0
2.461366078907557e7 504393.78501157253 0.0
0.0 0.0 0.0

-4.276159838178566e6 1.5113700644507114e7 0.0
1.5113700644507114e7 880538.3175085934 0.0
0.0 0.0 0.0

-2.070065821461486e6 1.684331109428157e7 0.0
1.684331109428157e7 -5.752009905962762e6 0.0
0.0 0.0 0.0

3.4942291435463857e6 4.517852918573464e6 0.0
4.517852918573464e6 -1.0764733102167444e7 0.0
0.0 0.0 0.0

-1.1118803039039616e7 3.3980181095075593e6 0.0
3.3980181095075593e6 3.371173938056325e7 0.0
0.0 0.0 0.0

2.1906307697201474e6 8.957348173095997e6 0.0
8.957348173095997e6 -1.308774938105309e7 0.0
0.0 0.0 0.0

1.4200332287127413e6 1.97428382234979e7 0.0
1.97428382234979e7 -5.394360269465268e6 0.0
0.0 0.0 0.0

-1.3706976154629965e6 2.0430857551710967e7 0.0
2.0430857551710967e7 -3.8550776534750042e6 0.0
0.0 0.0 0.0

-4.294142857986249e6 2.0204647832494542e7 0.0
2.0204647832494542e7 4.305760490130373e6 0.0
0.0 0.0 0.0

4.710065348145997e6 4.185719671365002e6 0.0
4.185719671365002e6 -2.1476348012899607e7 0.0
0.0 0.0 0.0

-1.9471202742932881e6 1.751362948181955e7 0.0
1.751362948181955e7 -3.548843763557826e6 0.0
0.0 0.0 0.0

-1.7468802251414112e6 1.8421753837484557e7 0.0
1.8421753837484557e7 -4.396320185319443e6 0.0
0.0 0.0 0.0

3.623836610367191e6 7.140009408133558e6 0.0
7.140009408133558e6 -2.049138119661019e7 0.0
0.0 0.0 0.0

-2.6330292636237154e6 2.0640317818856888e7 0.0
2.0640317818856888e7 -1.9848806839219602e6 0.0
0.0 0.0 0.0

620395.6231616153 1.706385312215484e7 0.0
1.706385312215484e7 -7.234401352587533e6 0.0
0.0 0.0 0.0

-2.553833246627407e6 1.708696449989397e7 0.0
1.708696449989397e7 -4.211564271519497e6 0.0
0.0 0.0 0.0

678777.7107117148 1.3346027090700593e7 0.0
1.3346027090700593e7 -1.9932427589538235e7 0.0
0.0 0.0 0.0

2.0780308571046502e6 6.71887676030896e6 0.0
6.71887676030896e6 -1.0498898878941901e7 0.0
0.0 0.0 0.0

1.0155818528748956e6 1.0491113604706064e7 0.0
1.0491113604706064e7 -1.076942634732644e7 0.0
0.0 0.0 0.0

-1.558434168038611e6 1.751272650144178e7 0.0
1.751272650144178e7 -6.195567011529079e6 0.0
0.0 0.0 0.0

143266.6350019332 1.706267034763415e7 0.0
1.706267034763415e7 -8.255803530730538e6 0.0
0.0 0.0 0.0

-1.6711352020398872e6 1.6342423341859149e7 0.0
1.6342423341859149e7 -6.607209152839797e6 0.0
0.0 0.0 0.0

3.0172531144947563e6 7.286062924453619e6 0.0
7.286062924453619e6 -1.0827044854096455e7 0.0
0.0 0.0 0.0

4.6682916539532365e6 5.11513367941514e6 0.0
5.11513367941514e6 -1.8395688140139095e7 0.0
0.0 0.0 0.0

259804.70512767415 1.4110366120752443e7 0.0
1.4110366120752443e7 -1.216035159466668e7 0.0
0.0 0.0 0.0

583462.0086827879 1.0966951483656093e7 0.0
1.0966951483656093e7 -9.91630084856243e6 0.0
0.0 0.0 0.0

-3.783893583540449e6 1.3783181281384787e7 0.0
1.3783181281384787e7 -491715.23491255695 0.0
0.0 0.0 0.0

-8.447842550086604e6 2.1684513693187658e7 0.0
2.1684513693187658e7 5.902992680280356e6 0.0
0.0 0.0 0.0

-4.353623695649624e6 1.2511906307346784e7 0.0
1.2511906307346784e7 5.5525141007998854e7 0.0
0.0 0.0 0.0

-1.2195480769039694e7 2.4303001692525484e6 0.0
2.4303001692525484e6 1.821386956500417e7 0.0
0.0 0.0 0.0

-1.2552107725357076e6 1.9211811150116306e7 0.0
1.9211811150116306e7 -6.194729664362345e6 0.0
0.0 0.0 0.0

-4.212152120179181e6 1.4261665241557674e7 0.0
1.4261665241557674e7 648148.4357281991 0.0
0.0 0.0 0.0

-1.1768593859650034e7 5.081269281232458e6 0.0
5.081269281232458e6 2.6658725644760676e7 0.0
0.0 0.0 0.0

4.437884690727625e6 5.157343178637742e6 0.0
5.157343178637742e6 -1.6605917379445579e7 0.0
0.0 0.0 0.0

-3.765745590901031e6 1.5226268295621425e7 0.0
1.5226268295621425e7 2.5649843448406896e6 0.0
0.0 0.0 0.0

787135.8568347534 1.3656531566535791e7 0.0
1.3656531566535791e7 -1.5971685757885348e7 0.0
0.0 0.0 0.0

-1.2568996898713843e6 1.875170196375029e7 0.0
1.875170196375029e7 -5.480078904837349e6 0.0
0.0 0.0 0.0

-1.7378074345091395e6 1.7684912628148116e7 0.0
1.7684912628148116e7 -4.1642707092627855e6 0.0
0.0 0.0 0.0

-5.769389583758999e6 1.3290440826543873e7 0.0
1.3290440826543873e7 4.84389279717247e6 0.0
0.0 0.0 0.0

-2.0800699282672296e6 1.4583087546018014e7 0.0
1.4583087546018014e7 -2.389093679308005e6 0.0
0.0 0.0 0.0

-6.142003884590004e6 7.964183711027354e6 0.0
7.964183711027354e6 5.8096382660738e6 0.0
0.0 0.0 0.0

-3.48603013984152e7 1.8995702651727017e7 0.0
1.8995702651727017e7 8.435246691132661e6 0.0
0.0 0.0 0.0

787370.6153113206 1.7058422236217428e7 0.0
1.7058422236217428e7 8.612310568235759e6 0.0
0.0 0.0 0.0

-4.791647202461341e6 1.8398723559551682e7 0.0
1.8398723559551682e7 9.256337982920557e6 0.0
0.0 0.0 0.0

-3.06073153232417e6 2.073583912934042e7 0.0
2.073583912934042e7 1.3086240209364025e6 0.0
0.0 0.0 0.0

2.6840074379515005e6 8.723212630677233e6 0.0
8.723212630677233e6 -1.568469151985363e7 0.0
0.0 0.0 0.0

3.44159103775883e6 7.48954725733041e6 0.0
7.48954725733041e6 -1.85372645378809e7 0.0
0.0 0.0 0.0

3.5548744623922706e6 8.760580137421293e6 0.0
8.760580137421293e6 -2.1514049729594678e7 0.0
0.0 0.0 0.0

-4.925144903794657e6 1.3358157376675166e7 0.0
1.3358157376675166e7 2.562962236848928e6 0.0
0.0 0.0 0.0

-1.3046147854461312e7 1.0007517967177073e7 0.0
1.0007517967177073e7 1.887552233433697e7 0.0
0.0 0.0 0.0

-5.2339059836101215e6 8.877348894217286e6 0.0
8.877348894217286e6 7.158040080715502e6 0.0
0.0 0.0 0.0

1.779936001036276e6 1.6759031687648036e7 0.0
1.6759031687648036e7 -4.941726224441501e6 0.0
0.0 0.0 0.0

-1.072124952018038e6 1.3994427904898217e7 0.0
1.3994427904898217e7 -1.3716139580097971e7 0.0
0.0 0.0 0.0

-4.584131471914029e6 2.0128590952761218e7 0.0
2.0128590952761218e7 6.409563191808272e6 0.0
0.0 0.0 0.0

1.234171059415105e6 2.390247626599785e7 0.0
2.390247626599785e7 -2.827921125973656e6 0.0
0.0 0.0 0.0

-7.12246790152539e6 2.181894249597086e7 0.0
2.181894249597086e7 6.375808437880242e6 0.0
0.0 0.0 0.0

-7.3747031221844945e6 1.6131163445614573e7 0.0
1.6131163445614573e7 1.5790072499071728e7 0.0
0.0 0.0 0.0

3.312472516158743e6 6.678251918757268e6 0.0
6.678251918757268e6 -3.365651405350006e7 0.0
0.0 0.0 0.0

82251.59398169024 1.3723544220432013e7 0.0
1.3723544220432013e7 -8.281940784309046e6 0.0
0.0 0.0 0.0

3.347006949370875e6 3.686629156455106e6 0.0
3.686629156455106e6 -9.296794761681188e6 0.0
0.0 0.0 0.0

3.9721687607438853e6 7.705440186223621e6 0.0
7.705440186223621e6 -2.2069572264320698e7 0.0
0.0 0.0 0.0

-4.158589158843997e6 2.0526504667068027e7 0.0
2.0526504667068027e7 3.6055316427412666e6 0.0
0.0 0.0 0.0

-1.1867248317692613e7 1.0229498069973039e7 0.0
1.0229498069973039e7 1.849256503152219e7 0.0
0.0 0.0 0.0

-8.302289450986632e6 1.5815413982587745e7 0.0
1.5815413982587745e7 1.703231260814234e7 0.0
0.0 0.0 0.0

-4.574998736182686e6 1.8929901118578255e7 0.0
1.8929901118578255e7 8.861401806867447e6 0.0
0.0 0.0 0.0

2.6093994064621264e6 9.104038193440361e6 0.0
9.104038193440361e6 -1.1713912726372125e7 0.0
0.0 0.0 0.0

-3.1878761413141745e6 1.8728070868196968e7 0.0
1.8728070868196968e7 -6.361419445564107e6 0.0
0.0 0.0 0.0

-1.4558715902953625e6 2.4365387771030445e7 0.0
2.4365387771030445e7 -743124.7221470376 0.0
0.0 0.0 0.0

-4.312231277233515e6 2.1361414071671903e7 0.0
2.1361414071671903e7 5.047136699042721e6 0.0
0.0 0.0 0.0

-8.39215834759098e6 1.600253241665884e7 0.0
1.600253241665884e7 1.7766791736588836e7 0.0
0.0 0.0 0.0

-1.2019243503984492e7 4.37399007253728e7 0.0
4.37399007253728e7 -1.2151048856938342e7 0.0
0.0 0.0 0.0

-3.929561150504755e6 1.8232211790776927e7 0.0
1.8232211790776927e7 -7.922572691369219e6 0.0
0.0 0.0 0.0

-6.046996189113976e6 1.5094350970631115e7 0.0
1.5094350970631115e7 7.012076879010921e6 0.0
0.0 0.0 0.0

-7.544123467029613e6 1.9406406528023975e6 0.0
1.9406406528023975e6 8.620796471054299e6 0.0
0.0 0.0 0.0

-1.2413589695711313e6 1.478980233597156e7 0.0
1.478980233597156e7 -4.812477333214359e6 0.0
0.0 0.0 0.0

-5.826498618184201e6 1.908262094580248e7 0.0
1.908262094580248e7 -3.728166821199061e6 0.0
0.0 0.0 0.0

-6.900966130366879e6 2.6179013137557786e7 0.0
2.6179013137557786e7 4.60440915241898e6 0.0
0.0 0.0 0.0

-1.2129832777047425e6 1.6769166282037362e7 0.0
1.6769166282037362e7 -5.916924470252853e6 0.0
0.0 0.0 0.0

-2.2417007094268e6 1.8007514995565195e7 0.0
1.8007514995565195e7 -4.996565012182845e6 0.0
0.0 0.0 0.0

-1.0004397361235399e7 710932.4557041833 0.0
710932.4557041833 1.6085237495402321e7 0.0
0.0 0.0 0.0

4.118236509003492e6 5.927901321583663e6 0.0
5.927901321583663e6 -1.4982183759403853e7 0.0
0.0 0.0 0.0

-1.2561922908706926e6 2.3775128077016857e7 0.0
2.3775128077016857e7 -394640.47964805056 0.0
0.0 0.0 0.0

-6.629058775839904e6 1.6536592197129963e7 0.0
1.6536592197129963e7 1.464478605652314e7 0.0
0.0 0.0 0.0

-9.296742884149501e6 2.0075246902421925e7 0.0
2.0075246902421925e7 -1.6099158120839077e6 0.0
0.0 0.0 0.0

-497466.8401753305 5.528488207040069e6 0.0
5.528488207040069e6 -3.0848397580648833e6 0.0
0.0 0.0 0.0

-6.420463682584476e6 2.0140083070579283e7 0.0
2.0140083070579283e7 -5.781795162153876e6 0.0
0.0 0.0 0.0

-2.3437924133011336e6 1.726709478665972e7 0.0
1.726709478665972e7 -4.815886719653007e6 0.0
0.0 0.0 0.0

566053.6487074979 1.3679145783510812e7 0.0
1.3679145783510812e7 -1.3009439884048384e7 0.0
0.0 0.0 0.0

-1.6791748220364638e6 1.619300506809066e7 0.0
1.619300506809066e7 -4.1696620187547198e6 0.0
0.0 0.0 0.0

2.171269352922775e6 9.347135638512801e6 0.0
9.347135638512801e6 -1.3598972261968814e7 0.0
0.0 0.0 0.0

-3.0892769472108046e6 1.6980305988361824e7 0.0
1.6980305988361824e7 231727.19684142433 0.0
0.0 0.0 0.0

-7.027028069451004e6 3.6762215616693846e6 0.0
3.6762215616693846e6 7.668141238301175e6 0.0
0.0 0.0 0.0

-8.854647201584049e6 1.02593074660205e7 0.0
1.02593074660205e7 1.4405238995865846e7 0.0
0.0 0.0 0.0

-5.1645341232337905e6 1.3234467920914678e7 0.0
1.3234467920914678e7 6.874339882868899e6 0.0
0.0 0.0 0.0

-3.35907634140209e6 1.3670144729264753e7 0.0
1.3670144729264753e7 -1.2784447159618046e7 0.0
0.0 0.0 0.0

-4.342419503373547e6 1.3389950441306721e7 0.0
1.3389950441306721e7 4.502200566066455e6 0.0
0.0 0.0 0.0

-2.5278881764502715e7 2.293716341664545e7 0.0
2.293716341664545e7 2.6495079416282307e6 0.0
0.0 0.0 0.0

-4.595236602652734e6 1.4739213314025356e7 0.0
1.4739213314025356e7 1.768047552287577e6 0.0
0.0 0.0 0.0

-749470.9336886164 1.6476164557119576e7 0.0
1.6476164557119576e7 -2.427764307037315e6 0.0
0.0 0.0 0.0

-3.973531137164979e7 1.8056515589138024e7 0.0
1.8056515589138024e7 6.6839135620735325e6 0.0
0.0 0.0 0.0

1.1687059222508655e6 1.7009281501583982e7 0.0
1.7009281501583982e7 -6.217596394282251e6 0.0
0.0 0.0 0.0

-3.26125089815263e6 1.3895705276952904e7 0.0
1.3895705276952904e7 1.223920917707941e6 0.0
0.0 0.0 0.0

1.8375839757760777e6 1.0123227070861882e7 0.0
1.0123227070861882e7 -1.0183122404274669e7 0.0
0.0 0.0 0.0

-3.184736815211825e6 2.1074197692517605e7 0.0
2.1074197692517605e7 2.0390445100008834e6 0.0
0.0 0.0 0.0

1.8108111779028988e6 1.0549907256400136e7 0.0
1.0549907256400136e7 -1.3792929505307408e7 0.0
0.0 0.0 0.0

1.6949316044185432e6 1.1236357987810807e7 0.0
1.1236357987810807e7 -1.4705053647200605e7 0.0
0.0 0.0 0.0

-4.568959974550954e6 7.235415058598135e6 0.0
7.235415058598135e6 2.7944752558161644e6 0.0
0.0 0.0 0.0

-5.596247077805838e6 1.7058052978902597e7 0.0
1.7058052978902597e7 7.625025783178647e6 0.0
0.0 0.0 0.0

4.0447747667516135e6 7.2717649526981395e6 0.0
7.2717649526981395e6 -1.9134630893568173e7 0.0
0.0 0.0 0.0

-9.844264137475915e6 4.333201101496227e6 0.0
4.333201101496227e6 1.3876942478486057e7 0.0
0.0 0.0 0.0

1.7739906308634821e6 1.0876202963834114e7 0.0
1.0876202963834114e7 -1.4266118235921444e7 0.0
0.0 0.0 0.0

-6.64143814247433e7 6.54922757062286e6 0.0
6.54922757062286e6 7.196424042209506e6 0.0
0.0 0.0 0.0

3.4874664634137303e6 6.567381469436325e6 0.0
6.567381469436325e6 -3.1495304457350727e7 0.0
0.0 0.0 0.0

-5.7636270552682895e6 1.5975129746233191e7 0.0
1.5975129746233191e7 6.902728250407936e6 0.0
0.0 0.0 0.0

-5.213839489196122e6 1.7271949535999298e7 0.0
1.7271949535999298e7 5.736747860275877e6 0.0
0.0 0.0 0.0

-4.8193033807022665e6 2.1167281293309577e7 0.0
2.1167281293309577e7 7.372975938979447e6 0.0
0.0 0.0 0.0

-2.0907313268324286e6 1.5047287199062077e7 0.0
1.5047287199062077e7 -5.204111268084384e6 0.0
0.0 0.0 0.0

-6.0877929382470045e6 1.7214350115266945e7 0.0
1.7214350115266945e7 1.3603015960730553e7 0.0
0.0 0.0 0.0

893014.6831013691 1.2287506254446631e7 0.0
1.2287506254446631e7 -1.2065815797535662e7 0.0
0.0 0.0 0.0

2.968448229645633e6 8.868259256977014e6 0.0
8.868259256977014e6 -1.846837287913701e7 0.0
0.0 0.0 0.0

-3.372790784720032e6 2.084440585438425e7 0.0
2.084440585438425e7 2.634160796381251e6 0.0
0.0 0.0 0.0

-1.377336475396541e6 2.140859837166085e7 0.0
2.140859837166085e7 -3.602082774339213e6 0.0
0.0 0.0 0.0

3.5626078259318043e6 8.225462843598193e6 0.0
8.225462843598193e6 -2.5671526063772887e7 0.0
0.0 0.0 0.0

-5.086082016099837e6 1.0979312912079431e7 0.0
1.0979312912079431e7 6.470488692902296e6 0.0
0.0 0.0 0.0

-6.097043059929416e6 2.1713171907989707e7 0.0
2.1713171907989707e7 6.743342942576693e6 0.0
0.0 0.0 0.0

-3.973477291769283e7 4.7271729128689885e7 0.0
4.7271729128689885e7 -2.993821179097319e6 0.0
0.0 0.0 0.0

-1.2154154682905907e7 6.67184072539718e6 0.0
6.67184072539718e6 2.3520433834692296e7 0.0
0.0 0.0 0.0

-2.3248861343881944e6 1.286727004949798e7 0.0
1.286727004949798e7 -1.1460400984793961e7 0.0
0.0 0.0 0.0

28942.134435787564 5.416256540644171e6 0.0
5.416256540644171e6 -1.3495681747484745e6 0.0
0.0 0.0 0.0

-8.1984072821858395e6 -7.300302765025739e6 0.0
-7.300302765025739e6 2.1573761607545312e7 0.0
0.0 0.0 0.0

5.222923588674262e6 3.045020320725335e6 0.0
3.045020320725335e6 -2.2135661301253658e7 0.0
0.0 0.0 0.0

-5.025748056947386e6 1.8953123911720466e7 0.0
1.8953123911720466e7 1.8584367941501164e6 0.0
0.0 0.0 0.0

-316264.06267287955 1.4479089088724863e7 0.0
1.4479089088724863e7 -1.4821052541486103e7 0.0
0.0 0.0 0.0

-1.0553791893115042e7 1.2909735329450425e7 0.0
1.2909735329450425e7 2.3571374642936803e7 0.0
0.0 0.0 0.0

-1.0863326637623766e6 1.8671932635165997e7 0.0
1.8671932635165997e7 -6.997862310855391e6 0.0
0.0 0.0 0.0

1.836827638886678e6 1.0214646908392215e7 0.0
1.0214646908392215e7 -1.3298138097829394e7 0.0
0.0 0.0 0.0

-7.011738635735054e6 1.3805610006500721e7 0.0
1.3805610006500721e7 3.081636415272477e7 0.0
0.0 0.0 0.0

-2.505025816478412e6 1.502472212159896e7 0.0
1.502472212159896e7 -1.3412643713533715e6 0.0
0.0 0.0 0.0

-5.390941321368234e6 1.594411024842975e7 0.0
1.594411024842975e7 2.0918884646002017e7 0.0
0.0 0.0 0.0

-221031.99535020906 1.472396036361456e7 0.0
1.472396036361456e7 -1.3930892083678713e7 0.0
0.0 0.0 0.0

4.975079261196289e7 7.58722827119095e6 0.0
7.58722827119095e6 -465071.2693150621 0.0
0.0 0.0 0.0

-1.459830577045433e6 1.9240708531594403e7 0.0
1.9240708531594403e7 -4.674423714953695e6 0.0
0.0 0.0 0.0

-709937.9873526564 2.362712816877276e7 0.0
2.362712816877276e7 -1.0238221343812329e6 0.0
0.0 0.0 0.0

1.5346063841083506e6 1.1010595493111284e7 0.0
1.1010595493111284e7 -1.2978771219093882e7 0.0
0.0 0.0 0.0

2.4652233590271026e6 1.0227058910716789e7 0.0
1.0227058910716789e7 -1.3278425039756902e7 0.0
0.0 0.0 0.0

-1.6667543558701074e6 1.4601448061333397e7 0.0
1.4601448061333397e7 -6.1892701067721555e6 0.0
0.0 0.0 0.0

-1.222159887271662e7 7.4714301740967445e6 0.0
7.4714301740967445e6 1.9339579423798047e7 0.0
0.0 0.0 0.0

-683212.9560309313 1.3691375889115544e7 0.0
1.3691375889115544e7 -1.936851209568069e7 0.0
0.0 0.0 0.0

3.1699347087512007e6 3.616950070104942e6 0.0
3.616950070104942e6 -8.623450283417746e6 0.0
0.0 0.0 0.0

929823.0700449431 1.287320761570586e7 0.0
1.287320761570586e7 -1.296742879977616e7 0.0
0.0 0.0 0.0

-2.125555345723024e7 2.5715794614019554e7 0.0
2.5715794614019554e7 9.208530021376587e6 0.0
0.0 0.0 0.0

-2.5985398763631396e6 9.935648740659261e6 0.0
9.935648740659261e6 -1.764881176145216e6 0.0
0.0 0.0 0.0

-5.300234631202985e6 1.391072015827702e7 0.0
1.391072015827702e7 3.721701771547212e7 0.0
0.0 0.0 0.0

-4.52943055954786e6 1.7307088001065694e7 0.0
1.7307088001065694e7 1.0880088296094686e7 0.0
0.0 0.0 0.0

3.6597115822126446e6 1.6795504462963626e7 0.0
1.6795504462963626e7 1.31517489054506e6 0.0
0.0 0.0 0.0

-5.279672037669765e6 2.149563688756857e7 0.0
2.149563688756857e7 7.02890982923279e6 0.0
0.0 0.0 0.0

-1.5717965309981587e6 1.9711893916903753e7 0.0
1.9711893916903753e7 -3.7694641345110848e6 0.0
0.0 0.0 0.0

-4.472279763541883e6 2.1076483301473975e7 0.0
2.1076483301473975e7 5.6086745083782e6 0.0
0.0 0.0 0.0

-1.1878880906868488e7 7.704798744858653e6 0.0
7.704798744858653e6 1.804821947622055e7 0.0
0.0 0.0 0.0

-8.793747618114496e6 1.2191636736812118e7 0.0
1.2191636736812118e7 1.4859863797472984e7 0.0
0.0 0.0 0.0

-6.697372910243742e6 4.996391969555404e6 0.0
4.996391969555404e6 6.445029329219927e6 0.0
0.0 0.0 0.0

1.0830549714954766e7 1.0861722568682669e7 0.0
1.0861722568682669e7 981642.55773954 0.0
0.0 0.0 0.0

-147832.89487137273 1.4986751217174923e7 0.0
1.4986751217174923e7 -1.3105249794896977e7 0.0
0.0 0.0 0.0

-1.820768159032412e6 1.9644280472285304e7 0.0
1.9644280472285304e7 -3.238730947501589e6 0.0
0.0 0.0 0.0

-3.9837530365812657e6 2.0794367124012806e7 0.0
2.0794367124012806e7 2.9283948232353837e6 0.0
0.0 0.0 0.0

-7.662943992719706e6 -4.677640478469212e6 0.0
-4.677640478469212e6 1.263843886496404e7 0.0
0.0 0.0 0.0

-4.0915206090674307e6 2.1939835217034288e7 0.0
2.1939835217034288e7 3.917030911863778e6 0.0
0.0 0.0 0.0

-3.6834965372678987e6 1.4352745260012284e7 0.0
1.4352745260012284e7 2.3868690734518827e6 0.0
0.0 0.0 0.0

-4.513064358632384e6 2.2431409967381194e7 0.0
2.2431409967381194e7 4.796512525835675e6 0.0
0.0 0.0 0.0

3.7682249281847384e6 1.5792052214395016e7 0.0
1.5792052214395016e7 32667.053723746678 0.0
0.0 0.0 0.0

-1.1712365532916072e6 2.2295218355863072e7 0.0
2.2295218355863072e7 -1.856907106216544e6 0.0
0.0 0.0 0.0

4.244525747626355e6 5.190381877798549e6 0.0
5.190381877798549e6 -1.8526868296033416e7 0.0
0.0 0.0 0.0

-1.2270724138198055e7 6.799617731511683e6 0.0
6.799617731511683e6 2.2090021310300656e7 0.0
0.0 0.0 0.0

376534.54652392725 1.6014905504451727e7 0.0
1.6014905504451727e7 -8.602184162653329e6 0.0
0.0 0.0 0.0

-103821.27090808889 1.531862442477308e7 0.0
1.531862442477308e7 -1.224180299510782e7 0.0
0.0 0.0 0.0

-2.307297470425504e6 1.4220707391253097e7 0.0
1.4220707391253097e7 -1.6197060714680706e6 0.0
0.0 0.0 0.0

-3.947133366557796e6 1.7731017478569202e7 0.0
1.7731017478569202e7 4.4016528203500835e6 0.0
0.0 0.0 0.0

-478582.9034538311 1.925658837054227e7 0.0
1.925658837054227e7 -6.27581284265752e6 0.0
0.0 0.0 0.0

150038.54766698508 1.473644202492788e7 0.0
1.473644202492788e7 -7.525309621326199e6 0.0
0.0 0.0 0.0

-1.1122141985966638e7 1.0045787395771373e7 0.0
1.0045787395771373e7 1.4144476964395594e7 0.0
0.0 0.0 0.0

3.313919703777125e6 8.721324593248576e6 0.0
8.721324593248576e6 -1.5579590670403156e7 0.0
0.0 0.0 0.0

-244888.30852831714 1.509879172916875e7 0.0
1.509879172916875e7 -1.2641680635499634e7 0.0
0.0 0.0 0.0

-250732.86089897715 1.7052047707654804e7 0.0
1.7052047707654804e7 1.0147651724641543e7 0.0
0.0 0.0 0.0

-2.438877900046978e6 1.643172074575112e7 0.0
1.643172074575112e7 -4.536657995486229e6 0.0
0.0 0.0 0.0

4.208653120311711e6 6.901101761738121e6 0.0
6.901101761738121e6 -2.479075498149489e7 0.0
0.0 0.0 0.0

4.575450976709669e6 5.375681306636746e6 0.0
5.375681306636746e6 -3.2013151302217644e7 0.0
0.0 0.0 0.0

-6.053302688426705e6 1.3750984216861328e7 0.0
1.3750984216861328e7 5.996678777439393e6 0.0
0.0 0.0 0.0

-3.7928886980976136e6 2.1044970365126837e7 0.0
2.1044970365126837e7 2.3098644409523606e6 0.0
0.0 0.0 0.0

-1.0586833056025926e7 368159.3326169349 0.0
368159.3326169349 1.9245274869471677e7 0.0
0.0 0.0 0.0

-7.686047423855246e6 1.2611265067751648e7 0.0
1.2611265067751648e7 9.399270925215434e6 0.0
0.0 0.0 0.0

-5.497551706434428e6 1.6765941903851038e7 0.0
1.6765941903851038e7 6.7874405418902375e6 0.0
0.0 0.0 0.0

3.09598902741344e6 8.879272511871107e6 0.0
8.879272511871107e6 -1.429832733290962e7 0.0
0.0 0.0 0.0

5.183745236825765e6 2.925397661871357e6 0.0
2.925397661871357e6 -2.2768019370076887e7 0.0
0.0 0.0 0.0

-5.276716571297292e6 1.581382203056535e7 0.0
1.581382203056535e7 8.586162770906499e6 0.0
0.0 0.0 0.0

-2.7106829681070223e6 1.5283621174731059e7 0.0
1.5283621174731059e7 4.6990017661082596e7 0.0
0.0 0.0 0.0

-4.454202183913931e6 1.757294833296119e7 0.0
1.757294833296119e7 6.203358233140532e6 0.0
0.0 0.0 0.0

-1.806274324883366e6 2.011248316914987e7 0.0
2.011248316914987e7 -3.0610868932263516e6 0.0
0.0 0.0 0.0

1.527791379864364e6 1.1591809381824682e7 0.0
1.1591809381824682e7 -1.3708983837738156e7 0.0
0.0 0.0 0.0

-2.374348418602448e6 2.165434328990247e7 0.0
2.165434328990247e7 -124879.68815405469 0.0
0.0 0.0 0.0

-3.5464098019197765e6 2.0588495717107523e7 0.0
2.0588495717107523e7 3.263145776741774e6 0.0
0.0 0.0 0.0

3.3422254142042794e6 1.5257058708954988e7 0.0
1.5257058708954988e7 2.189264395759475e7 0.0
0.0 0.0 0.0

3.2074705719720484e6 3.6190596802558405e6 0.0
3.6190596802558405e6 -9.078607637369573e6 0.0
0.0 0.0 0.0

1.0205040018671919e6 1.7551418165682733e7 0.0
1.7551418165682733e7 -6.699211837646929e6 0.0
0.0 0.0 0.0

3.9729196271007173e6 4.360605737959785e6 0.0
4.360605737959785e6 -1.4037406527016547e7 0.0
0.0 0.0 0.0

-9.223870692911185e6 8.585980852333305e6 0.0
8.585980852333305e6 1.4648824047013227e7 0.0
0.0 0.0 0.0

-4.358483354095682e6 1.9685625178623535e7 0.0
1.9685625178623535e7 4.298972096564967e6 0.0
0.0 0.0 0.0

-1.8369778346288437e6 1.6860791766305782e7 0.0
1.6860791766305782e7 -3.8653689331654855e6 0.0
0.0 0.0 0.0

2.5857375698066875e6 9.485867958347872e6 0.0
9.485867958347872e6 -1.2238116605422206e7 0.0
0.0 0.0 0.0

40258.63625161396 1.5159597328970956e7 0.0
1.5159597328970956e7 -8.630676012509694e6 0.0
0.0 0.0 0.0

-1.9969327324197246e6 2.055149583268253e7 0.0
2.055149583268253e7 -2.3175458724207366e6 0.0
0.0 0.0 0.0

-1.1327029354041858e7 1.9744329410698195e6 0.0
1.9744329410698195e6 2.279903405401624e7 0.0
0.0 0.0 0.0

-8.401902630770016e6 1.3800068306855608e7 0.0
1.3800068306855608e7 1.5096335568564309e7 0.0
0.0 0.0 0.0

-1.05968858984804e7 5.5872357521352675e6 0.0
5.5872357521352675e6 1.5684389662762586e7 0.0
0.0 0.0 0.0

-4.546717875728393e6 1.3829245448495988e7 0.0
1.3829245448495988e7 1.5648341016582318e6 0.0
0.0 0.0 0.0

-3.999305521216992e6 2.0786792772519708e7 0.0
2.0786792772519708e7 6.066020445115785e6 0.0
0.0 0.0 0.0

-3.2374557035015374e6 1.6377971748728404e7 0.0
1.6377971748728404e7 -2.220877878583632e6 0.0
0.0 0.0 0.0

-3.288822147842742e6 2.1587679153569113e7 0.0
2.1587679153569113e7 607277.857738893 0.0
0.0 0.0 0.0

-5.432417034784503e6 7.537170733064073e6 0.0
7.537170733064073e6 4.3475367026030645e6 0.0
0.0 0.0 0.0

-8.362488907483887e6 1.1726514515310463e7 0.0
1.1726514515310463e7 1.3998555399755169e7 0.0
0.0 0.0 0.0

-3.6318760080643175e6 2.1261363702528946e7 0.0
2.1261363702528946e7 1.7460632341202304e6 0.0
0.0 0.0 0.0

-265056.02017374616 1.8445333716407083e7 0.0
1.8445333716407083e7 -7.4127955454588905e6 0.0
0.0 0.0 0.0

6.397002736590375e6 1.8701361692445934e7 0.0
1.8701361692445934e7 9.441654099917807e6 0.0
0.0 0.0 0.0

-3.9843955358242914e6 1.3905258265009625e7 0.0
1.3905258265009625e7 3.4296614128272575e6 0.0
0.0 0.0 0.0

1.5719947414900595e6 2.0458432985686608e7 0.0
2.0458432985686608e7 -5.064447273330067e6 0.0
0.0 0.0 0.0

-4.70019402928346e6 1.4830617095016377e7 0.0
1.4830617095016377e7 5.651791435621923e6 0.0
0.0 0.0 0.0

-8.154633234378642e6 1.3399242669075616e7 0.0
1.3399242669075616e7 1.4330505448156537e7 0.0
0.0 0.0 0.0

-4.514595187176274e6 8.450402060894985e6 0.0
8.450402060894985e6 5.71218919308599e6 0.0
0.0 0.0 0.0

-3.474298318386154e6 2.1435386864116933e7 0.0
2.1435386864116933e7 1.135901615575505e6 0.0
0.0 0.0 0.0

4.417531406929933e6 6.146528453202814e6 0.0
6.146528453202814e6 -1.8130301113465473e7 0.0
0.0 0.0 0.0

3.8580398738935497e6 7.634501284560388e6 0.0
7.634501284560388e6 -1.7130016866325043e7 0.0
0.0 0.0 0.0

-4.510346422370071e6 2.078179933436562e7 0.0
2.078179933436562e7 7.638295591617329e6 0.0
0.0 0.0 0.0

85281.89418980828 1.0520935271927053e7 0.0
1.0520935271927053e7 -5.933630830824029e6 0.0
0.0 0.0 0.0

2.537750147547436e6 9.873110053503256e6 0.0
9.873110053503256e6 -1.2749967540317412e7 0.0
0.0 0.0 0.0

-2.4801713344487157e6 2.3062198843976248e7 0.0
2.3062198843976248e7 128364.69320138288 0.0
0.0 0.0 0.0

-2.220265695939592e6 2.1310681372717407e7 0.0
2.1310681372717407e7 -828284.3618861852 0.0
0.0 0.0 0.0

-2.1105905483447025e6 1.742284076430471e7 0.0
1.742284076430471e7 -5.34880626414846e6 0.0
0.0 0.0 0.0

-297979.45891623106 1.4261563861454543e7 0.0
1.4261563861454543e7 -1.7871399050029527e7 0.0
0.0 0.0 0.0

-3.6037294167292574e6 2.3350799756442934e7 0.0
2.3350799756442934e7 2.3727812309214678e6 0.0
0.0 0.0 0.0

-8.542324350675244e6 1.4196065158484884e7 0.0
1.4196065158484884e7 1.5557919952266207e7 0.0
0.0 0.0 0.0

2.5516233689795653e6 6.693437654836574e6 0.0
6.693437654836574e6 -1.1719402127666224e7 0.0
0.0 0.0 0.0

-1.427289679161288e6 2.46670100289791e7 0.0
2.46670100289791e7 104249.39411013864 0.0
0.0 0.0 0.0

-3.71781417193341e6 1.7678820863640085e7 0.0
1.7678820863640085e7 9.134617201704651e6 0.0
0.0 0.0 0.0

-2.1083840755919507e6 2.0938683195376333e7 0.0
2.0938683195376333e7 -1.5127749382724701e6 0.0
0.0 0.0 0.0

-69092.09732300043 1.5651222286311526e7 0.0
1.5651222286311526e7 -1.143724160249525e7 0.0
0.0 0.0 0.0

-2.7544038757550903e6 2.186488405040651e7 0.0
2.186488405040651e7 1.0517074918887783e6 0.0
0.0 0.0 0.0

-4.963110547787998e6 1.8065553993587982e7 0.0
1.8065553993587982e7 1.1489825052325878e7 0.0
0.0 0.0 0.0

-2.8211199125853814e6 2.1817442146778822e7 0.0
2.1817442146778822e7 -374414.2028461725 0.0
0.0 0.0 0.0

1.5839183205216522e6 2.6007577479170285e7 0.0
2.6007577479170285e7 -1.8415513605823796e6 0.0
0.0 0.0 0.0

-1.204308820895398e7 1.1775317918344887e7 0.0
1.1775317918344887e7 1.9423129106145523e7 0.0
0.0 0.0 0.0

2.1922476237189015e6 1.0709620410854174e7 0.0
1.0709620410854174e7 -1.2507191787809793e7 0.0
0.0 0.0 0.0

-1.2377979271547886e7 8.335366422431999e6 0.0
8.335366422431999e6 1.9914709823547807e7 0.0
0.0 0.0 0.0

-9.51301416182262e6 1.0682652266552575e7 0.0
1.0682652266552575e7 1.1944308190192018e7 0.0
0.0 0.0 0.0

-591783.8915702465 -1.2655021428381042e6 0.0
-1.2655021428381042e6 1.063176495805356e6 0.0
0.0 0.0 0.0

118037.2721014095 -2.4923612944193343e6 0.0
-2.4923612944193343e6 1.25431699809155e6 0.0
0.0 0.0 0.0

-1.1969946413178157e7 1.2569844514589738e7 0.0
1.2569844514589738e7 1.9777338785061706e7 0.0
0.0 0.0 0.0

5.910870118444643e6 1.7630234313608762e7 0.0
1.7630234313608762e7 6.242736437744025e6 0.0
0.0 0.0 0.0

-1.6337009326947532e6 2.195207534097067e7 0.0
2.195207534097067e7 -1.4493805430688376e6 0.0
0.0 0.0 0.0

-1.6197422809989706e6 1.7870273134485207e7 0.0
1.7870273134485207e7 -4.80348087624465e6 0.0
0.0 0.0 0.0

2.1325686456588386e6 1.1028467257972531e7 0.0
1.1028467257972531e7 -1.3051058195191834e7 0.0
0.0 0.0 0.0

3.1648940107711e6 1.5332096416588767e7 0.0
1.5332096416588767e7 1.8792766595173497e7 0.0
0.0 0.0 0.0

-3.367829159110874e6 2.374686035286771e7 0.0
2.374686035286771e7 3.2616278948478093e6 0.0
0.0 0.0 0.0

-2.428793229891893e6 2.343044234737217e7 0.0
2.343044234737217e7 217715.0959093091 0.0
0.0 0.0 0.0

-2.1841230709420242e6 2.3828350445257924e7 0.0
2.3828350445257924e7 249487.43775035674 0.0
0.0 0.0 0.0

-6.515919452734962e6 1.5949683214121906e7 0.0
1.5949683214121906e7 9.709042315712921e6 0.0
0.0 0.0 0.0

-6.340993566958535e6 1.411796995438436e7 0.0
1.411796995438436e7 7.087291173485822e6 0.0
0.0 0.0 0.0

-6.4926711344642695e6 9.429612112531502e6 0.0
9.429612112531502e6 6.263672909476422e6 0.0
0.0 0.0 0.0

-4.446995999987591e6 1.8865823999472942e7 0.0
1.8865823999472942e7 7.761986807407458e6 0.0
0.0 0.0 0.0

-5.472203965418534e6 1.3582967032031337e7 0.0
1.3582967032031337e7 7.994643809276635e6 0.0
0.0 0.0 0.0

-1.2297111443975635e7 1.1730058104165502e7 0.0
1.1730058104165502e7 2.125859491069313e7 0.0
0.0 0.0 0.0

2.0911304034564486e6 1.1405068455976686e7 0.0
1.1405068455976686e7 -1.345688722620208e7 0.0
0.0 0.0 0.0

-5.662921769342031e6 1.7295780258437023e7 0.0
1.7295780258437023e7 8.363293437261758e6 0.0
0.0 0.0 0.0

-1.2307763877029154e7 1.002186336242537e7 0.0
1.002186336242537e7 2.2076293996425357e7 0.0
0.0 0.0 0.0

845494.5128642009 1.643516937514418e7 0.0
1.643516937514418e7 9.895319806368135e6 0.0
0.0 0.0 0.0

-5.2424108684991645e6 1.4835524757394757e7 0.0
1.4835524757394757e7 3.843285988191275e6 0.0
0.0 0.0 0.0

-2.6929439196114964e6 2.2291123720126428e7 0.0
2.2291123720126428e7 1.2009568093308797e6 0.0
0.0 0.0 0.0

-2.7977926738293725e6 2.140369185236009e7 0.0
2.140369185236009e7 895792.1866383015 0.0
0.0 0.0 0.0

-4.722199756519679e6 1.860438271349383e7 0.0
1.860438271349383e7 1.0484421347437704e7 0.0
0.0 0.0 0.0

-422815.08291264344 1.4794395545889843e7 0.0
1.4794395545889843e7 -1.5343446404721083e7 0.0
0.0 0.0 0.0

-4.657955501574055e6 1.896509432145562e7 0.0
1.896509432145562e7 5.878968259491641e6 0.0
0.0 0.0 0.0

-7.64715538723895e6 1.4798903646516616e7 0.0
1.4798903646516616e7 1.438794891121842e7 0.0
0.0 0.0 0.0

-1.5599598317977735e6 1.726183755037883e7 0.0
1.726183755037883e7 -5.098315047902179e6 0.0
0.0 0.0 0.0

-293454.8198914965 2.4051995948144227e7 0.0
2.4051995948144227e7 -1.0466118881298833e6 0.0
0.0 0.0 0.0

-4.58578253082718e6 1.9177524507481813e7 0.0
1.9177524507481813e7 9.538911172370344e6 0.0
0.0 0.0 0.0

-1.7590479472914422e6 1.6979624153306462e7 0.0
1.6979624153306462e7 -6.244126329738596e6 0.0
0.0 0.0 0.0

3.6413901652019797e6 8.064512649820165e6 0.0
8.064512649820165e6 -1.762964414548558e7 0.0
0.0 0.0 0.0

-5.42399277849233e6 1.6054935321315445e7 0.0
1.6054935321315445e7 9.438326045755642e6 0.0
0.0 0.0 0.0

254766.02179795364 2.0314188799644697e7 0.0
2.0314188799644697e7 -5.165604694470114e6 0.0
0.0 0.0 0.0

2.7277934009530777e6 3.6716060998711092e6 0.0
3.6716060998711092e6 -7.116105610770859e6 0.0
0.0 0.0 0.0

3.294327794111033e6 8.118715657368637e6 0.0
8.118715657368637e6 -2.2713916043566167e7 0.0
0.0 0.0 0.0

-672045.1970398691 1.611291996648295e7 0.0
1.611291996648295e7 -7.703341476066313e6 0.0
0.0 0.0 0.0

5.594121623629388e6 1.8445760059255198e7 0.0
1.8445760059255198e7 7.93104865015688e6 0.0
0.0 0.0 0.0

3.0563332063082727e6 8.40718979521901e6 0.0
8.40718979521901e6 -1.8174817880143665e7 0.0
0.0 0.0 0.0

2.760288332554184e6 9.284288225464424e6 0.0
9.284288225464424e6 -1.772688254815266e7 0.0
0.0 0.0 0.0

210246.56448315235 1.5227151037531734e7 0.0
1.5227151037531734e7 3.8731448752272404e6 0.0
0.0 0.0 0.0

-1.1674298386518884e7 3.480933681585455e6 0.0
3.480933681585455e6 2.1627428770432293e7 0.0
0.0 0.0 0.0

-7.797870436555477e6 9.61023623879686e6 0.0
9.61023623879686e6 8.88411673421616e6 0.0
0.0 0.0 0.0

-5.378677599240531e6 1.537613566877338e7 0.0
1.537613566877338e7 -2.9947201659227733e7 0.0
0.0 0.0 0.0

-7.212340370811274e6 1.377946894227132e7 0.0
1.377946894227132e7 9.267899463316517e6 0.0
0.0 0.0 0.0

-1.2492620561359085e7 7.820863297166388e6 0.0
7.820863297166388e6 1.588417163396544e7 0.0
0.0 0.0 0.0

10806.821092471015 1.7342742817159906e7 0.0
1.7342742817159906e7 8.171291092051895e6 0.0
0.0 0.0 0.0

-8.009186706466322e6 -7.675822153952279e6 0.0
-7.675822153952279e6 2.060424900062293e7 0.0
0.0 0.0 0.0

-5.888633404914848e6 1.6266132851295225e7 0.0
1.6266132851295225e7 7.81380922865933e6 0.0
0.0 0.0 0.0

-4.147829007858299e6 2.08556286213945e7 0.0
2.08556286213945e7 6.6436966614712775e6 0.0
0.0 0.0 0.0

-1846.1303710890934 1.4773986088439645e7 0.0
1.4773986088439645e7 -1.1640933369249202e7 0.0
0.0 0.0 0.0

-4.83246680100822e6 3707.371503608554 0.0
3707.371503608554 4.750145676532789e6 0.0
0.0 0.0 0.0

-5.90136703866514e6 8.991794934156954e6 0.0
8.991794934156954e6 4.858343477092009e6 0.0
0.0 0.0 0.0

2.762655173044538e6 7.173879928789396e6 0.0
7.173879928789396e6 -3.643083209305526e7 0.0
0.0 0.0 0.0

910789.0417984003 2.418726498358332e7 0.0
2.418726498358332e7 -1.90013624028947e6 0.0
0.0 0.0 0.0

-1.1278244945709359e7 9.572239352703681e6 0.0
9.572239352703681e6 2.7510395328063946e7 0.0
0.0 0.0 0.0

-3.4870259399986886e6 1.5605073366681084e7 0.0
1.5605073366681084e7 -1.0217756727824057e7 0.0
0.0 0.0 0.0

-1.2894467679434005e7 7.389287396589305e6 0.0
7.389287396589305e6 1.7112499203678623e7 0.0
0.0 0.0 0.0

-7.792868248236961e6 2.1263972282711737e7 0.0
2.1263972282711737e7 -2.5452052478161464e6 0.0
0.0 0.0 0.0

-664465.1931343903 1.6125746593369571e7 0.0
1.6125746593369571e7 -3.6831091446096557e6 0.0
0.0 0.0 0.0

701584.4282961567 1.5524845468775585e7 0.0
1.5524845468775585e7 9.914671510613479e6 0.0
0.0 0.0 0.0

3.493904637931509e6 7.573119933269814e6 0.0
7.573119933269814e6 -2.371056818125223e7 0.0
0.0 0.0 0.0

-4.540726248101989e6 1.4741843251555927e7 0.0
1.4741843251555927e7 -6.697068150513825e6 0.0
0.0 0.0 0.0

1.1085084604777356e6 2.7198420309913054e7 0.0
2.7198420309913054e7 -3.563788683857605e6 0.0
0.0 0.0 0.0

-5.54539278558241e6 1.6280508476012023e7 0.0
1.6280508476012023e7 1.0226966813966814e7 0.0
0.0 0.0 0.0

-9.020030613071373e6 -6.590910351727589e6 0.0
-6.590910351727589e6 2.400371990931067e7 0.0
0.0 0.0 0.0

-3.19272322619039e6 1.6432610609221956e7 0.0
1.6432610609221956e7 1.134301869231364e7 0.0
0.0 0.0 0.0

-5.952997898507006e6 2.031445221677689e7 0.0
2.031445221677689e7 -4.848778783564826e6 0.0
0.0 0.0 0.0

-4.304679280825984e6 8.123896857819552e6 0.0
8.123896857819552e6 1.9731721199993703e6 0.0
0.0 0.0 0.0

-651744.8705352917 1.6259475448761862e7 0.0
1.6259475448761862e7 2.2220670110717542e7 0.0
0.0 0.0 0.0

-9.731851871289877e6 1.2923071761115767e7 0.0
1.2923071761115767e7 1.35807873831518e7 0.0
0.0 0.0 0.0

-1.003165330350192e7 1.1072997450935474e7 0.0
1.1072997450935474e7 1.2986350866701908e7 0.0
0.0 0.0 0.0

-1.164076291138781e7 7.735760820060698e6 0.0
7.735760820060698e6 2.7413194330560137e7 0.0
0.0 0.0 0.0

-3.7741378465742683e6 1.6674865026405582e7 0.0
1.6674865026405582e7 1.4000269742619421e7 0.0
0.0 0.0 0.0

-7.212947767015375e6 2.3893065003402222e7 0.0
2.3893065003402222e7 5.517788532556508e6 0.0
0.0 0.0 0.0

-2.169859345247163e6 2.5163870687504523e7 0.0
2.5163870687504523e7 270051.7085764834 0.0
0.0 0.0 0.0

-5.311487801834003e6 1.7957771132264014e7 0.0
1.7957771132264014e7 8.179868605575216e6 0.0
0.0 0.0 0.0

2.4507160019451906e6 3.5451423303146986e6 0.0
3.5451423303146986e6 -6.340594091767251e6 0.0
0.0 0.0 0.0

2.69507630700282e6 1.0103298289046995e7 0.0
1.0103298289046995e7 -1.452871644024614e7 0.0
0.0 0.0 0.0

2.2329506204420235e6 1.0001307737153335e7 0.0
1.0001307737153335e7 -1.1482214548093302e7 0.0
0.0 0.0 0.0

-6.546020578233179e6 1.4481523405628283e7 0.0
1.4481523405628283e7 8.120531126897506e6 0.0
0.0 0.0 0.0

-4.682064684531596e6 3.2351533087126967e7 0.0
3.2351533087126967e7 -2.7126243739721016e6 0.0
0.0 0.0 0.0

-6.263848722702703e6 6.532101025628099e6 0.0
6.532101025628099e6 5.315454183169967e6 0.0
0.0 0.0 0.0

-897469.725152246 2.267917302776373e7 0.0
2.267917302776373e7 -1.787951786752104e6 0.0
0.0 0.0 0.0

343446.4374735418 2.096070880345752e7 0.0
2.096070880345752e7 -4.551728946489439e6 0.0
0.0 0.0 0.0

-3.370392856031324e6 8.889376635459105e6 0.0
8.889376635459105e6 3.127083520457086e6 0.0
0.0 0.0 0.0

-381735.979177311 1.3750073718901487e7 0.0
1.3750073718901487e7 694177.0507436763 0.0
0.0 0.0 0.0

1.0843961721734522e7 1.7972014991385583e7 0.0
1.7972014991385583e7 7.923478753631372e6 0.0
0.0 0.0 0.0

3.799641733578285e6 1.6754539700446427e7 0.0
1.6754539700446427e7 2.035804386905014e7 0.0
0.0 0.0 0.0

-338481.3363336399 1.5738836508466445e7 0.0
1.5738836508466445e7 8.81381882813967e6 0.0
0.0 0.0 0.0

-9.37112474852876e6 1.2480835022943094e7 0.0
1.2480835022943094e7 1.2709077190109737e7 0.0
0.0 0.0 0.0

-3.700854568910249e6 3.0454776097247634e7 0.0
3.0454776097247634e7 -1.6699828021471882e6 0.0
0.0 0.0 0.0

-1.1663851897622524e7 2.2016267416955803e7 0.0
2.2016267416955803e7 -1.580333282819862e6 0.0
0.0 0.0 0.0

-1.041525973134668e7 1.156817565738073e7 0.0
1.156817565738073e7 1.3901615297836836e7 0.0
0.0 0.0 0.0

1.8057887147158822e6 1.0863048564965962e7 0.0
1.0863048564965962e7 -2.4176159816891342e7 0.0
0.0 0.0 0.0

5.211132412956007e6 2.734002071483239e6 0.0
2.734002071483239e6 -2.6246376399714235e7 0.0
0.0 0.0 0.0

889997.9658305114 1.4157793021957882e7 0.0
1.4157793021957882e7 -1.223977441833124e7 0.0
0.0 0.0 0.0

2.3946812413851228e6 1.057566708754624e7 0.0
1.057566708754624e7 -1.3787609627415948e7 0.0
0.0 0.0 0.0

354956.2070248523 1.523419938308675e7 0.0
1.523419938308675e7 -1.0842978556271713e7 0.0
0.0 0.0 0.0

-5.969306539275428e6 3.4703388022975504e7 0.0
3.4703388022975504e7 -4.793084293489849e6 0.0
0.0 0.0 0.0

-3.8136997867140854e6 1.9259508209084094e7 0.0
1.9259508209084094e7 3.750682643266228e6 0.0
0.0 0.0 0.0

-867643.6128352776 1.7479599212010138e7 0.0
1.7479599212010138e7 -8.843732677305587e6 0.0
0.0 0.0 0.0

-913701.3060356535 1.6936700998606764e7 0.0
1.6936700998606764e7 -9.121919503559109e6 0.0
0.0 0.0 0.0

2.808066757765893e6 9.376133505199326e6 0.0
9.376133505199326e6 -1.3523568810322221e7 0.0
0.0 0.0 0.0

-5.195890878367168e6 1.876253641075505e7 0.0
1.876253641075505e7 8.613316779915674e6 0.0
0.0 0.0 0.0

-1.6787345013059052e6 1.6922521865850892e7 0.0
1.6922521865850892e7 1.2004214288804853e7 0.0
0.0 0.0 0.0

-5.67112952582705e6 1.9298656349328242e7 0.0
1.9298656349328242e7 6.563534844962133e6 0.0
0.0 0.0 0.0

-7.060282710392829e6 6.446580888562907e6 0.0
6.446580888562907e6 5.374018368983578e7 0.0
0.0 0.0 0.0

-7.360614720049592e6 -2.5245484984432547e6 0.0
-2.5245484984432547e6 1.273116640379523e7 0.0
0.0 0.0 0.0

-1.817780568569807e7 5.059980775641437e7 0.0
5.059980775641437e7 -1.7928533348240875e7 0.0
0.0 0.0 0.0

1.4510440659111715e6 1.5725520401703654e7 0.0
1.5725520401703654e7 1.2304467374120746e7 0.0
0.0 0.0 0.0

-3.0440700087904446e6 2.9189842662752185e7 0.0
2.9189842662752185e7 -788108.371431485 0.0
0.0 0.0 0.0

-68638.64522856101 1.5007805188772468e7 0.0
1.5007805188772468e7 -8.80238176845336e6 0.0
0.0 0.0 0.0

-165816.30830948753 1.693593243715257e7 0.0
1.693593243715257e7 -9.081216413208518e6 0.0
0.0 0.0 0.0

-3.961281954078495e6 2.0119818427962486e7 0.0
2.0119818427962486e7 5.420216012587809e6 0.0
0.0 0.0 0.0

4.741034882841517e6 3.263163643163467e6 0.0
3.263163643163467e6 -1.6030138795288011e7 0.0
0.0 0.0 0.0

4.871737333847668e6 1.5925080218907822e7 0.0
1.5925080218907822e7 466504.8904378053 0.0
0.0 0.0 0.0

2.601414011409698e6 1.0505234770510186e7 0.0
1.0505234770510186e7 -1.501565640298826e7 0.0
0.0 0.0 0.0

1.0535554488912611e6 1.9227477104237426e7 0.0
1.9227477104237426e7 -5.90063152814467e6 0.0
0.0 0.0 0.0

4.12014934773166e6 7.10454138062192e6 0.0
7.10454138062192e6 -2.299493637576612e7 0.0
0.0 0.0 0.0

-4.741799139546551e6 1.7129809373527143e7 0.0
1.7129809373527143e7 7.354891924920388e6 0.0
0.0 0.0 0.0

2.995354731821612e6 6.780686418589937e6 0.0
6.780686418589937e6 -1.0260545267085865e7 0.0
0.0 0.0 0.0

-1.3764504620255204e6 9.517349696648793e6 0.0
9.517349696648793e6 -1.118782158828782e6 0.0
0.0 0.0 0.0

-1.0830594460725466e7 1.9213412351224374e7 0.0
1.9213412351224374e7 -3.2612319840804073e6 0.0
0.0 0.0 0.0

3.3381979169551795e6 8.974560134519264e6 0.0
8.974560134519264e6 -1.7228444954293218e7 0.0
0.0 0.0 0.0

-2.7746245079336637e6 1.4090435098541185e7 0.0
1.4090435098541185e7 -3.153529664962051e6 0.0
0.0 0.0 0.0

-1.3939359597849324e6 1.7891219757275924e7 0.0
1.7891219757275924e7 -7.378932095042411e6 0.0
0.0 0.0 0.0

-4.1449767951504244e6 1.6635527396727137e7 0.0
1.6635527396727137e7 1.6963599254155047e7 0.0
0.0 0.0 0.0

393585.74258335354 1.5295024272200473e7 0.0
1.5295024272200473e7 -2.3380286270240587e6 0.0
0.0 0.0 0.0

-6.916265418654677e6 1.3446650469155993e7 0.0
1.3446650469155993e7 8.24547153639821e6 0.0
0.0 0.0 0.0

-1.2686220446531774e7 5.01062266196019e6 0.0
5.01062266196019e6 2.3509609725913655e7 0.0
0.0 0.0 0.0

-3.555905606525873e6 1.686025861929894e7 0.0
1.686025861929894e7 1.730429242483552e7 0.0
0.0 0.0 0.0

-8.910000057601165e6 1.40499341285421e7 0.0
1.40499341285421e7 1.3214734301001113e7 0.0
0.0 0.0 0.0

-1.1633622623330982e7 274821.67388827837 0.0
274821.67388827837 2.0765158258345768e7 0.0
0.0 0.0 0.0

-6.087785799535352e6 1.5693513793619946e7 0.0
1.5693513793619946e7 1.1349110504762238e7 0.0
0.0 0.0 0.0

-6.079869654978494e6 1.749840677971702e7 0.0
1.749840677971702e7 1.247151496999225e7 0.0
0.0 0.0 0.0

-5.901671860690864e6 4.817999404315891e6 0.0
4.817999404315891e6 9.125211762579383e6 0.0
0.0 0.0 0.0

-1.1457922677831454e6 1.7421027193554267e7 0.0
1.7421027193554267e7 -8.267081008335999e6 0.0
0.0 0.0 0.0

-4.199719101473366e6 2.0005612617938172e7 0.0
2.0005612617938172e7 3.5572440338777266e6 0.0
0.0 0.0 0.0

-8.99880374818923e6 1.4479747424632402e7 0.0
1.4479747424632402e7 1.3893395744227499e7 0.0
0.0 0.0 0.0

-1.1376087719651591e7 1.0319430268085136e6 0.0
1.0319430268085136e6 3.068273344158417e7 0.0
0.0 0.0 0.0

-3.2179716874651466e6 1.7049425114200003e7 0.0
1.7049425114200003e7 9.297126769110523e6 0.0
0.0 0.0 0.0

-9.399775659820966e6 1.0796150560979964e7 0.0
1.0796150560979964e7 1.5287104214770017e7 0.0
0.0 0.0 0.0

2.1268592363688014e6 1.0638339463703655e7 0.0
1.0638339463703655e7 -2.292544747669142e7 0.0
0.0 0.0 0.0

-5.331981509095896e6 1.6118355596840229e7 0.0
1.6118355596840229e7 2.1136830977842323e7 0.0
0.0 0.0 0.0

-1.1522937719230322e7 1.247631033567981e7 0.0
1.247631033567981e7 1.8456715681397244e7 0.0
0.0 0.0 0.0

2.2313423184691803e6 9.614381829411175e6 0.0
9.614381829411175e6 -1.0959827823000114e7 0.0
0.0 0.0 0.0

4.594221591749996e6 4.1589735062061693e6 0.0
4.1589735062061693e6 -2.1491026019674048e7 0.0
0.0 0.0 0.0

-307744.26739009283 1.6192242771045996e7 0.0
1.6192242771045996e7 1.642896287991989e7 0.0
0.0 0.0 0.0

-2.56188513032258e6 1.6495469042038834e7 0.0
1.6495469042038834e7 1.8703794512545817e7 0.0
0.0 0.0 0.0

-681826.1801965246 1.4598734437352829e7 0.0
1.4598734437352829e7 -6.42246824672775e6 0.0
0.0 0.0 0.0

-4.464327991105217e6 1.9785658911973722e7 0.0
1.9785658911973722e7 8.721502287285239e6 0.0
0.0 0.0 0.0

-2.242972221093637e6 2.6752555341085963e7 0.0
2.6752555341085963e7 -14293.566969167325 0.0
0.0 0.0 0.0

-71610.99115045508 1.604952335136053e7 0.0
1.604952335136053e7 -1.0623727141410222e7 0.0
0.0 0.0 0.0

-8.453038476915749e6 -1.7920686892844215e6 0.0
-1.7920686892844215e6 1.373062394904036e7 0.0
0.0 0.0 0.0

1.4974233976687351e6 1.2179284426640142e7 0.0
1.2179284426640142e7 -1.9915121861818258e7 0.0
0.0 0.0 0.0

-5.045599659378119e6 1.7839324551669456e7 0.0
1.7839324551669456e7 1.0197691463669505e7 0.0
0.0 0.0 0.0

-1.1882203312473752e7 1.1108021102952776e7 0.0
1.1108021102952776e7 1.8953299982397232e7 0.0
0.0 0.0 0.0

1.5744153534362128e6 1.3683351665082248e7 0.0
1.3683351665082248e7 6.549844466222432e6 0.0
0.0 0.0 0.0

2.84010450626049e6 8.736998229014345e6 0.0
8.736998229014345e6 -2.643513136784537e7 0.0
0.0 0.0 0.0

2.2583348589722877e6 1.0554032781918498e7 0.0
1.0554032781918498e7 -2.1602470310657922e7 0.0
0.0 0.0 0.0

1.7641881578452021e6 2.823155424807354e7 0.0
2.823155424807354e7 -4.716841828114628e6 0.0
0.0 0.0 0.0

-3.6152064775484917e6 1.9556189073115505e7 0.0
1.9556189073115505e7 3.008489837588908e6 0.0
0.0 0.0 0.0

-3.8264673274392965e6 2.0468445536526725e7 0.0
2.0468445536526725e7 4.716148436070539e6 0.0
0.0 0.0 0.0

-3.0788222765825647e6 2.032029411409014e7 0.0
2.032029411409014e7 -1.2017793436943288e6 0.0
0.0 0.0 0.0

4.331220009715306e6 4.623095853425965e6 0.0
4.623095853425965e6 -1.3491079570975116e7 0.0
0.0 0.0 0.0

-754803.1348043431 1.301614183374811e7 0.0
1.301614183374811e7 -6.174688225187652e6 0.0
0.0 0.0 0.0

-4.952403406234807e6 1.774097641827749e7 0.0
1.774097641827749e7 9.561406527805122e6 0.0
0.0 0.0 0.0

-531755.4238779279 1.7847820902392525e7 0.0
1.7847820902392525e7 -8.237376081123239e6 0.0
0.0 0.0 0.0

-2.1157812202372877e6 2.6137797402222037e7 0.0
2.6137797402222037e7 179629.05040107772 0.0
0.0 0.0 0.0

-4.758774541523768e6 7.412582492563709e6 0.0
7.412582492563709e6 6.680824542441234e6 0.0
0.0 0.0 0.0

-1.3011791145492597e7 6.721299602613281e6 0.0
6.721299602613281e6 1.958323886780592e7 0.0
0.0 0.0 0.0

-2.1235737999492395e6 2.563984669162197e7 0.0
2.563984669162197e7 325177.6216498128 0.0
0.0 0.0 0.0

-1.5984793615087313e6 1.8382262069071986e7 0.0
1.8382262069071986e7 -6.536825024242144e6 0.0
0.0 0.0 0.0

2.136382945486107e6 9.72403553276912e6 0.0
9.72403553276912e6 -1.408109004754695e7 0.0
0.0 0.0 0.0

-6.038084005667332e6 1.426364000961682e7 0.0
1.426364000961682e7 1.0009134605257507e7 0.0
0.0 0.0 0.0

3.010940781084981e6 8.179074004844805e6 0.0
8.179074004844805e6 -2.757434091813814e7 0.0
0.0 0.0 0.0

-2.557181192639739e6 2.309134296243508e7 0.0
2.309134296243508e7 1.4172318941346556e6 0.0
0.0 0.0 0.0

-3.636947252236821e6 1.783860184179794e7 0.0
1.783860184179794e7 7.489388879322213e6 0.0
0.0 0.0 0.0

1.3367488445180282e6 1.1469363229605643e7 0.0
1.1469363229605643e7 -2.4323576331313927e7 0.0
0.0 0.0 0.0

-4.314641212506821e6 2.0873235808368735e7 0.0
2.0873235808368735e7 5.033237099266103e6 0.0
0.0 0.0 0.0

-1.292921614663056e7 6.61610843324651e6 0.0
6.61610843324651e6 2.0869228047343362e7 0.0
0.0 0.0 0.0

1.8213686349276789e6 9.472010729071964e6 0.0
9.472010729071964e6 -1.230648036688488e7 0.0
0.0 0.0 0.0

-520028.28951081494 1.6556017856588455e7 0.0
1.6556017856588455e7 8.032360061669937e6 0.0
0.0 0.0 0.0

-4.12385825062953e6 1.9189151904964153e7 0.0
1.9189151904964153e7 6.223027446178528e6 0.0
0.0 0.0 0.0

773825.1810021186 1.214843904733303e7 0.0
1.214843904733303e7 -2.3949338339015994e7 0.0
0.0 0.0 0.0

-7.487935430864042e6 3.792180719827582e7 0.0
3.792180719827582e7 -7.906044252889693e6 0.0
0.0 0.0 0.0

-1.0924516343767669e7 1.3800376410232287e7 0.0
1.3800376410232287e7 1.6663294714013953e7 0.0
0.0 0.0 0.0

-6.088589298515432e6 1.5525891811329504e7 0.0
1.5525891811329504e7 -3.554406662748775e7 0.0
0.0 0.0 0.0

-3.688088765628207e6 8.0824246648581e6 0.0
8.0824246648581e6 4.0658755614111884e6 0.0
0.0 0.0 0.0

-5.99529192957623e6 1.651978455872017e7 0.0
1.651978455872017e7 8.640976860130806e6 0.0
0.0 0.0 0.0

-8.131956579242426e6 1.5633987984867468e7 0.0
1.5633987984867468e7 2.0939251808390383e7 0.0
0.0 0.0 0.0

-6.342488941071313e6 1.3188235595239613e7 0.0
1.3188235595239613e7 1.0286868263144156e7 0.0
0.0 0.0 0.0

-4.865671253815858e6 1.4272814575039634e7 0.0
1.4272814575039634e7 4.0764431587878525e7 0.0
0.0 0.0 0.0

-5.03889710100176e6 1.661554631794388e7 0.0
1.661554631794388e7 8.359576739628805e6 0.0
0.0 0.0 0.0

-117111.6601549834 1.4463010027009353e7 0.0
1.4463010027009353e7 -1.6894694657551583e7 0.0
0.0 0.0 0.0

15904.169864448719 1.6484811750076048e7 0.0
1.6484811750076048e7 -1.0920786365844913e7 0.0
0.0 0.0 0.0

1.0098905625379737e8 1.8293331414018977e7 0.0
1.8293331414018977e7 8.093246674659129e6 0.0
0.0 0.0 0.0

-9.20167685773468e6 -6.304775434582042e6 0.0
-6.304775434582042e6 2.5152539142916374e7 0.0
0.0 0.0 0.0

5.211762403062239e6 2.8263413444161178e6 0.0
2.8263413444161178e6 -2.4161689850941647e7 0.0
0.0 0.0 0.0

-5.095088735131893e6 2.2888395107354973e6 0.0
2.2888395107354973e6 5.470853819140693e6 0.0
0.0 0.0 0.0

-2.889364153403055e6 1.9881586374775294e7 0.0
1.9881586374775294e7 -1.980259798178547e6 0.0
0.0 0.0 0.0

-9.342587877939973e6 -4.2845782615020815e6 0.0
-4.2845782615020815e6 3.344331349168205e7 0.0
0.0 0.0 0.0

-4.1053451250249757e6 1.410917533182393e7 0.0
1.410917533182393e7 -2.1959509439290613e7 0.0
0.0 0.0 0.0

-1.2193444908321429e7 9.426929255690303e6 0.0
9.426929255690303e6 1.9218727181843236e7 0.0
0.0 0.0 0.0

-9.199734727268808e6 1.481916712964671e7 0.0
1.481916712964671e7 1.4480726469222862e7 0.0
0.0 0.0 0.0

5.166354719161663e6 2.679422062830688e6 0.0
2.679422062830688e6 -2.697042686825964e7 0.0
0.0 0.0 0.0

628613.1273081857 1.459965371284156e7 0.0
1.459965371284156e7 -1.1377835880401937e7 0.0
0.0 0.0 0.0

-2.4741380716197984e6 2.7500137735507306e7 0.0
2.7500137735507306e7 16866.647876311443 0.0
0.0 0.0 0.0

1.4215617699405337e6 9.990492546361787e6 0.0
9.990492546361787e6 -1.1560774133967195e7 0.0
0.0 0.0 0.0

-1.585469480078297e6 1.7453965146101866e7 0.0
1.7453965146101866e7 -2.755558133454229e6 0.0
0.0 0.0 0.0

-3.080102041208878e6 7.1316916899974765e6 0.0
7.1316916899974765e6 7.839728460158058e7 0.0
0.0 0.0 0.0

197552.1322060004 7.62912674160916e6 0.0
7.62912674160916e6 -6.308301149432033e7 0.0
0.0 0.0 0.0

-2.3211648957186043e6 1.4679867908572806e7 0.0
1.4679867908572806e7 -5.173374519703627e7 0.0
0.0 0.0 0.0

1.3860159789343867e6 1.3301856416704064e7 0.0
1.3301856416704064e7 -1.3909619645776372e7 0.0
0.0 0.0 0.0

4.1445082461615913e6 6.5040570117501635e6 0.0
6.5040570117501635e6 -2.9312797339025896e7 0.0
0.0 0.0 0.0

-1.75921490397289e7 2.2072811876545075e7 0.0
2.2072811876545075e7 4.938684630369984e6 0.0
0.0 0.0 0.0

-669379.249356776 1.7415034898139924e7 0.0
1.7415034898139924e7 -9.132681098814785e6 0.0
0.0 0.0 0.0

-9.19242486205962e6 -6.088853151163211e6 0.0
-6.088853151163211e6 2.614508521120219e7 0.0
0.0 0.0 0.0

-6.568547253177585e6 9.20155189029423e6 0.0
9.20155189029423e6 8.549455995637506e6 0.0
0.0 0.0 0.0

-3.663257758289042e6 2.077975008535789e7 0.0
2.077975008535789e7 4.001160635849512e6 0.0
0.0 0.0 0.0

-5.426885748482193e6 1.814059037720648e7 0.0
1.814059037720648e7 8.850899191746749e6 0.0
0.0 0.0 0.0

-8.573314088143483e6 1.1721689742298726e7 0.0
1.1721689742298726e7 1.071610321104864e7 0.0
0.0 0.0 0.0

-5.432934562564969e6 6.0556213856817605e6 0.0
6.0556213856817605e6 8.209966877028016e6 0.0
0.0 0.0 0.0

3.759510961897688e6 1.5940318293035418e7 0.0
1.5940318293035418e7 2.358793441158357e6 0.0
0.0 0.0 0.0

-1.841761970568056e6 1.8897756053321537e7 0.0
1.8897756053321537e7 -5.699986217375107e6 0.0
0.0 0.0 0.0

-1.2186746086573396e6 5.902945187699679e6 0.0
5.902945187699679e6 -2.117121543608268e6 0.0
0.0 0.0 0.0

-1.9915730961204004e6 2.142131572787797e7 0.0
2.142131572787797e7 -1.305534858221566e6 0.0
0.0 0.0 0.0

-1.2510603608186036e7 1.2541202689455358e7 0.0
1.2541202689455358e7 1.7951511572355818e7 0.0
0.0 0.0 0.0

-5.784539761906514e6 1.3958395419803817e7 0.0
1.3958395419803817e7 9.030332742059994e6 0.0
0.0 0.0 0.0

-9.197188569200313e6 -5.696330430723261e6 0.0
-5.696330430723261e6 2.7189788335740473e7 0.0
0.0 0.0 0.0

5.158137641473839e6 2.7721490168440472e6 0.0
2.7721490168440472e6 -2.554129399404417e7 0.0
0.0 0.0 0.0

4.039479893751938e6 6.725736499034596e6 0.0
6.725736499034596e6 -3.1115637191954866e7 0.0
0.0 0.0 0.0

-1.30318302305827e7 8.335494359917658e6 0.0
8.335494359917658e6 1.7689894724977106e7 0.0
0.0 0.0 0.0

2.191121103229843e6 5.106424437832867e6 0.0
5.106424437832867e6 -5.4069964379310876e7 0.0
0.0 0.0 0.0

-8.458627260225553e6 -2.0269053548872042e6 0.0
-2.0269053548872042e6 4.524478693272792e7 0.0
0.0 0.0 0.0

2.4083170447266567e6 9.241191915810676e6 0.0
9.241191915810676e6 -1.4874335685182068e7 0.0
0.0 0.0 0.0

3.584389139082712e6 8.182370913812492e6 0.0
8.182370913812492e6 -1.6341209177293465e7 0.0
0.0 0.0 0.0

738819.2254821243 2.548326348844756e7 0.0
2.548326348844756e7 -1.5265579439468875e6 0.0
0.0 0.0 0.0

-5.954922994749008e6 2.381103873176791e7 0.0
2.381103873176791e7 5.903181638266342e6 0.0
0.0 0.0 0.0

-4.366302438801119e6 1.8811317482141256e7 0.0
1.8811317482141256e7 6.969907741929318e6 0.0
0.0 0.0 0.0

-1.7576779523927215e6 2.0585283542242616e7 0.0
2.0585283542242616e7 -2.7810880393322073e6 0.0
0.0 0.0 0.0

-2.503920634920706e6 2.615195480970956e7 0.0
2.615195480970956e7 2.1473295033135023e6 0.0
0.0 0.0 0.0

-4.194469914917704e6 1.986125152710539e7 0.0
1.986125152710539e7 6.8636578544546245e6 0.0
0.0 0.0 0.0

-1.0213818862676392e6 1.595895191860425e7 0.0
1.595895191860425e7 7.525755228979982e6 0.0
0.0 0.0 0.0

3.7144831962082647e6 3.191316710100564e6 0.0
3.191316710100564e6 -4.473972861950748e7 0.0
0.0 0.0 0.0

5.114361094285905e6 2.4873282961841766e6 0.0
2.4873282961841766e6 -2.9945469790230345e7 0.0
0.0 0.0 0.0

4.547916467582721e6 2.5756428958914904e6 0.0
2.5756428958914904e6 -3.8414884509700865e7 0.0
0.0 0.0 0.0

-3.692410935844413e6 2.0777943931502007e7 0.0
2.0777943931502007e7 1.582761937333464e6 0.0
0.0 0.0 0.0

-5.182795076228442e6 8.527060929075513e6 0.0
8.527060929075513e6 3.418922160681255e6 0.0
0.0 0.0 0.0

-9.136120115972113e6 -4.0260241334929364e6 0.0
-4.0260241334929364e6 3.443889382744658e7 0.0
0.0 0.0 0.0

-1.2704530551691916e7 8.51536941892701e6 0.0
8.51536941892701e6 1.655693163041175e7 0.0
0.0 0.0 0.0

4.69741668297267e6 4.268549334107296e6 0.0
4.268549334107296e6 -1.730640586950125e7 0.0
0.0 0.0 0.0

-1.1203572033539534e7 2.2148400861433133e7 0.0
2.2148400861433133e7 5.722192535905902e6 0.0
0.0 0.0 0.0

-4.1267346236220477e6 1.4432084202814834e7 0.0
1.4432084202814834e7 -1.922933603255135e7 0.0
0.0 0.0 0.0

-8.455138815811647e6 -7.447914274673766e6 0.0
-7.447914274673766e6 2.0332023113643978e7 0.0
0.0 0.0 0.0

-1.1214747419503745e7 1.3627019272721936e6 0.0
1.3627019272721936e6 1.4930869523065593e7 0.0
0.0 0.0 0.0

-1.2731152360135335e7 6.289802137909248e6 0.0
6.289802137909248e6 2.3999238508824505e7 0.0
0.0 0.0 0.0

-5.907699824578632e6 1.686347274841811e7 0.0
1.686347274841811e7 1.4351855278547464e7 0.0
0.0 0.0 0.0

2.111980201370001e6 1.0974332392195765e7 0.0
1.0974332392195765e7 -1.9438738130182322e7 0.0
0.0 0.0 0.0

4.338656732092885e6 2.8753618296769704e6 0.0
2.8753618296769704e6 -4.235466046587666e7 0.0
0.0 0.0 0.0

5.089735575923925e6 2.9608902866698415e6 0.0
2.9608902866698415e6 -2.2179073306827083e7 0.0
0.0 0.0 0.0

4.696220342856354e6 2.701328518142416e7 0.0
2.701328518142416e7 -6.855799845145164e6 0.0
0.0 0.0 0.0

-8.737836994376244e6 -2.3227727632012665e6 0.0
-2.3227727632012665e6 4.3339901604127966e7 0.0
0.0 0.0 0.0

3.76618238254972e6 7.673714176183778e6 0.0
7.673714176183778e6 -2.684421279583945e7 0.0
0.0 0.0 0.0

-7.498456362807728e6 1.0033725075603261e6 0.0
1.0033725075603261e6 5.911879605419552e7 0.0
0.0 0.0 0.0

3.428709547252709e6 3.7912566644218047e6 0.0
3.7912566644218047e6 -4.840543477772401e7 0.0
0.0 0.0 0.0

-4.308344703811511e6 2.085415295294195e7 0.0
2.085415295294195e7 7.196923343984118e6 0.0
0.0 0.0 0.0

-757788.6371934996 1.0724906597870776e7 0.0
1.0724906597870776e7 -5.905693771174797e6 0.0
0.0 0.0 0.0

-767217.2796140099 1.5282140323574884e7 0.0
1.5282140323574884e7 -9.158168456269491e6 0.0
0.0 0.0 0.0

501999.4846270019 1.426874665719121e7 0.0
1.426874665719121e7 -1.5041513998434382e7 0.0
0.0 0.0 0.0

-8.180274154075751e6 -1.6295868322754682e6 0.0
-1.6295868322754682e6 4.7700892372703806e7 0.0
0.0 0.0 0.0

4.359323288341027e6 2.746319589469857e6 0.0
2.746319589469857e6 -4.019781896821897e7 0.0
0.0 0.0 0.0

-1.1920213126520775e7 1.3458241264490603e7 0.0
1.3458241264490603e7 1.8516251837326653e7 0.0
0.0 0.0 0.0

-1.2553370260133225e7 1.1864568398542093e7 0.0
1.1864568398542093e7 1.7561760644282818e7 0.0
0.0 0.0 0.0

-1.2982984738562725e7 7.689677513669192e6 0.0
7.689677513669192e6 2.133106822833831e7 0.0
0.0 0.0 0.0

-7.0569791150660105e6 1.2333450346833063e7 0.0
1.2333450346833063e7 1.1661544551766142e7 0.0
0.0 0.0 0.0

251618.07697159704 1.6559284438860677e7 0.0
1.6559284438860677e7 2.268036143991327e7 0.0
0.0 0.0 0.0

-1.201194221037074e6 1.9308610867224492e7 0.0
1.9308610867224492e7 -5.05127270037489e6 0.0
0.0 0.0 0.0

-3.4438985680533266e6 2.1905678557310313e7 0.0
2.1905678557310313e7 1.3127269025882909e6 0.0
0.0 0.0 0.0

-1.7486815684354934e6 2.0271853517340597e7 0.0
2.0271853517340597e7 -4.0527254990683068e6 0.0
0.0 0.0 0.0

3.041624430142558e6 9.258327971382093e6 0.0
9.258327971382093e6 -1.479434892034456e7 0.0
0.0 0.0 0.0

-4.1144690041380352e6 2.268882394825832e7 0.0
2.268882394825832e7 5.182500176535044e6 0.0
0.0 0.0 0.0

-908160.3218589795 1.6715497732090063e7 0.0
1.6715497732090063e7 -3.9452544217726826e6 0.0
0.0 0.0 0.0

1.8882743363146046e6 1.2470436546317894e7 0.0
1.2470436546317894e7 -1.5560162801925035e7 0.0
0.0 0.0 0.0

-1.1928454016691988e7 1.1988929294433242e7 0.0
1.1988929294433242e7 2.246631720267749e7 0.0
0.0 0.0 0.0

-1.3041678294119703e7 9.161358709504193e6 0.0
9.161358709504193e6 1.8281918636605803e7 0.0
0.0 0.0 0.0

2.9117525021125358e6 8.58351713834701e6 0.0
8.58351713834701e6 -1.6971065283196814e7 0.0
0.0 0.0 0.0

-9.388424758359112e6 -5.020849639722704e6 0.0
-5.020849639722704e6 3.0251263124784466e7 0.0
0.0 0.0 0.0

5.125079071443979e6 2.6608725109253703e6 0.0
2.6608725109253703e6 -2.768557423890232e7 0.0
0.0 0.0 0.0

-2.8471445256932024e6 1.6636688487086814e7 0.0
1.6636688487086814e7 1.4812479289880527e7 0.0
0.0 0.0 0.0

-8.810511365036651e6 -2.6381932810640493e6 0.0
-2.6381932810640493e6 4.1522082327225395e7 0.0
0.0 0.0 0.0

4.707944044924127e6 2.5457854223783086e6 0.0
2.5457854223783086e6 -3.567886345723339e7 0.0
0.0 0.0 0.0

5.066094419743495e6 2.6610707981490167e6 0.0
2.6610707981490167e6 -2.838793608500641e7 0.0
0.0 0.0 0.0

-9.330348285750711e6 -4.754884402109548e6 0.0
-4.754884402109548e6 3.1251648199018195e7 0.0
0.0 0.0 0.0

-7.601986249519415e6 1.4483851228171246e7 0.0
1.4483851228171246e7 2.676491050860838e7 0.0
0.0 0.0 0.0

4.875997792508852e6 2.498103576567445e6 0.0
2.498103576567445e6 -3.463364057810461e7 0.0
0.0 0.0 0.0

-8.868147035571132e6 -3.017623903691187e6 0.0
-3.017623903691187e6 3.975332272710137e7 0.0
0.0 0.0 0.0

-6.31354818188851e6 1.6880087040032398e7 0.0
1.6880087040032398e7 1.576079721889537e7 0.0
0.0 0.0 0.0

-1.0043711279191783e7 -2.959139959245076e6 0.0
-2.959139959245076e6 2.718193232248842e7 0.0
0.0 0.0 0.0

-9.364283825745046e6 -4.466498963675044e6 0.0
-4.466498963675044e6 3.24168137118982e7 0.0
0.0 0.0 0.0

5.207293059203731e6 2.6067165913600507e6 0.0
2.6067165913600507e6 -2.9237264557870775e7 0.0
0.0 0.0 0.0

4.921846989834499e6 2.536086134547309e6 0.0
2.536086134547309e6 -3.357270511157332e7 0.0
0.0 0.0 0.0

-8.99407434132459e6 -3.3349131168117323e6 0.0
-3.3349131168117323e6 3.8241244078940764e7 0.0
0.0 0.0 0.0

-2.054742731769703e8 4.7317709275350235e7 0.0
4.7317709275350235e7 -2.1220979799867153e7 0.0
0.0 0.0 0.0

1.692858328499853e8 3.1716973420355145e7 0.0
3.1716973420355145e7 1.1285209216477044e7 0.0
0.0 0.0 0.0

-8.962753523783367e6 1.2102234597331356e7 0.0
1.2102234597331356e7 1.1744888103620503e7 0.0
0.0 0.0 0.0

4.859745916516133e6 2.498125608932393e6 0.0
2.498125608932393e6 -3.255142169336859e7 0.0
0.0 0.0 0.0

-9.166093841608442e6 -3.5249395851530456e6 0.0
-3.5249395851530456e6 3.7030605138954505e7 0.0
0.0 0.0 0.0

367934.07641203376 1.4242620965460097e7 0.0
1.4242620965460097e7 -1.8000005433780164e6 0.0
0.0 0.0 0.0

-1.2894477446463177e7 1.0224893493474104e7 0.0
1.0224893493474104e7 1.76888353903184e7 0.0
0.0 0.0 0.0

-3.4769895944702365e6 2.1071866495914858e7 0.0
2.1071866495914858e7 3.3589512591104712e6 0.0
0.0 0.0 0.0

-2.111571278080944e6 1.705946939973912e7 0.0
1.705946939973912e7 1.543630224162215e7 0.0
0.0 0.0 0.0

-9.191569082828708e6 -3.7163227079554056e6 0.0
-3.7163227079554056e6 3.5764897060864165e7 0.0
0.0 0.0 0.0

5.020240727006698e6 2.431123875864348e6 0.0
2.431123875864348e6 -3.1764612924289167e7 0.0
0.0 0.0 0.0

-1.983322321626374e6 1.9380161281372536e7 0.0
1.9380161281372536e7 -4.859707455501366e6 0.0
0.0 0.0 0.0

-4.17772034913328e6 1.495184794032125e7 0.0
1.495184794032125e7 -3.72978786362257e7 0.0
0.0 0.0 0.0

-2.6931229892056757e6 2.147169081632849e7 0.0
2.147169081632849e7 -1.067828761388061e6 0.0
0.0 0.0 0.0

1.177585871346686e6 1.3736527433181867e7 0.0
1.3736527433181867e7 -1.3059404093272645e7 0.0
0.0 0.0 0.0

1.1306422760677412e6 1.2919030869211625e7 0.0
1.2919030869211625e7 -1.7909014702610128e7 0.0
0.0 0.0 0.0

-780120.8146069222 1.5816906228702215e7 0.0
1.5816906228702215e7 4.192740280602725e6 0.0
0.0 0.0 0.0

-747037.6023357369 1.9300752184832722e7 0.0
1.9300752184832722e7 -6.344004094644333e6 0.0
0.0 0.0 0.0

-564762.4627763061 1.7833239721287977e7 0.0
1.7833239721287977e7 -8.0427088112646695e6 0.0
0.0 0.0 0.0

-2.5374717307112375e6 1.3851784516491054e7 0.0
1.3851784516491054e7 -2.9177923556780744e7 0.0
0.0 0.0 0.0

-2.9763419258133997e6 2.1717508311686836e7 0.0
2.1717508311686836e7 1.6031330574765443e6 0.0
0.0 0.0 0.0

-4.897034023076534e6 1.8511363306986693e7 0.0
1.8511363306986693e7 7.513418646785956e6 0.0
0.0 0.0 0.0

-4.138104017213971e6 1.9534187331347488e7 0.0
1.9534187331347488e7 -6.838159689671449e6 0.0
0.0 0.0 0.0

890194.7451279182 1.3241957299387403e7 0.0
1.3241957299387403e7 -1.7918825676152296e7 0.0
0.0 0.0 0.0

-1.1990801724569578e7 8.979153793334942e6 0.0
8.979153793334942e6 1.5123286312414937e7 0.0
0.0 0.0 0.0

870679.1142586903 1.5158427223140169e7 0.0
1.5158427223140169e7 6.952245895207974e6 0.0
0.0 0.0 0.0

-1.1453635020143708e7 1.06118369801942e7 0.0
1.06118369801942e7 1.496216136746091e7 0.0
0.0 0.0 0.0

-2.276427972176459e6 1.5355742216834482e7 0.0
1.5355742216834482e7 -2.1050981109367586e6 0.0
0.0 0.0 0.0

-3.130350901673954e6 2.1552746947799154e7 0.0
2.1552746947799154e7 2.229906837893308e6 0.0
0.0 0.0 0.0

-275547.0123274354 1.3378444209302325e7 0.0
1.3378444209302325e7 -2.1531156082019612e7 0.0
0.0 0.0 0.0

-5.155426995383591e6 1.703342122733523e7 0.0
1.703342122733523e7 1.5034977287738565e7 0.0
0.0 0.0 0.0

-2.69827011110041e6 2.6716790270760503e7 0.0
2.6716790270760503e7 2.4850187336619436e6 0.0
0.0 0.0 0.0

-3.1043032313333442e6 1.5641086131051142e7 0.0
1.5641086131051142e7 -2.539377393436238e6 0.0
0.0 0.0 0.0

-2.3169322982269893e6 2.0260759595248386e7 0.0
2.0260759595248386e7 -3.282934405172982e6 0.0
0.0 0.0 0.0

8.047134101023007e6 1.8424971919008438e7 0.0
1.8424971919008438e7 7.918583195703289e6 0.0
0.0 0.0 0.0

-3.321673979716895e6 2.1330228340328977e7 0.0
2.1330228340328977e7 2.7587525735828197e6 0.0
0.0 0.0 0.0

-9.321099128579434e6 1.182198366540961e7 0.0
1.182198366540961e7 4.1639949140191963e6 0.0
0.0 0.0 0.0

-2.810026657187527e6 2.293709760960254e7 0.0
2.293709760960254e7 1.8856290530979107e6 0.0
0.0 0.0 0.0

4.902446906120975e6 3.2482811971730846e6 0.0
3.2482811971730846e6 -1.8051388950847704e7 0.0
0.0 0.0 0.0

4.899803047748741e6 3.3092009312739735e6 0.0
3.3092009312739735e6 -1.7488307797396213e7 0.0
0.0 0.0 0.0

-2.1016343177803485e6 1.9848320938061178e7 0.0
1.9848320938061178e7 -3.9310041629612045e6 0.0
0.0 0.0 0.0

-1.7192109790105857e6 1.6854276919421196e7 0.0
1.6854276919421196e7 1.9239722522729054e7 0.0
0.0 0.0 0.0

-2.503969118203149e6 2.3480611992653802e7 0.0
2.3480611992653802e7 1.5866219893757896e6 0.0
0.0 0.0 0.0

-1.3016449848722823e7 7.806035691110749e6 0.0
7.806035691110749e6 2.0060151867293373e7 0.0
0.0 0.0 0.0

-2.442975300542904e6 2.5238951477230947e7 0.0
2.5238951477230947e7 2.014336362826675e6 0.0
0.0 0.0 0.0

-3.9012610698479847e6 1.7198550575492837e7 0.0
1.7198550575492837e7 9.341436946800435e6 0.0
0.0 0.0 0.0

-663562.9330986468 1.3564928275388211e7 0.0
1.3564928275388211e7 3.305888546588511e6 0.0
0.0 0.0 0.0

2.646346814369566e6 1.0740147049279021e7 0.0
1.0740147049279021e7 -2.0252927171056498e7 0.0
0.0 0.0 0.0

-4.108253353597322e6 2.1011202412845165e7 0.0
2.1011202412845165e7 3.629007866985351e6 0.0
0.0 0.0 0.0

-7.834458191812353e6 -5.291233643725577e6 0.0
-5.291233643725577e6 1.7076910409662902e7 0.0
0.0 0.0 0.0

-7.923950669891747e6 1.3521558100118248e7 0.0
1.3521558100118248e7 2.7948179732287873e7 0.0
0.0 0.0 0.0

-1.9694210985239483e6 1.3527541609645352e7 0.0
1.3527541609645352e7 -3.2977400623780325e7 0.0
0.0 0.0 0.0

-1.230350185906814e7 8.954865841663176e6 0.0
8.954865841663176e6 2.292700651381052e7 0.0
0.0 0.0 0.0

2.1409958582981853e6 1.9719718957822837e7 0.0
1.9719718957822837e7 -5.339769421495966e6 0.0
0.0 0.0 0.0

2.5017392026368883e6 1.117513442751458e7 0.0
1.117513442751458e7 -1.8159021563446123e7 0.0
0.0 0.0 0.0

-3.3797272010918544e6 1.5343597443465352e7 0.0
1.5343597443465352e7 -1.8364208030703242e6 0.0
0.0 0.0 0.0

-2.5363019391115746e6 2.110620829906153e7 0.0
2.110620829906153e7 -1.7770356015486768e6 0.0
0.0 0.0 0.0

-1423.3860471434891 1.386059914863805e7 0.0
1.386059914863805e7 -4.775374032289446e6 0.0
0.0 0.0 0.0

-1.2084163406969525e7 8.50214983337912e6 0.0
8.50214983337912e6 1.8670617691667326e7 0.0
0.0 0.0 0.0

-1.2221684676490117e7 1.0991660160726156e7 0.0
1.0991660160726156e7 2.231843039030524e7 0.0
0.0 0.0 0.0

-2.424569573596958e6 2.0689023053272314e7 0.0
2.0689023053272314e7 -2.529012484742016e6 0.0
0.0 0.0 0.0

-7.942509360814891e6 1.1370845912560882e7 0.0
1.1370845912560882e7 1.3007253688360112e7 0.0
0.0 0.0 0.0

4.792594699187562e6 4.622530725573865e6 0.0
4.622530725573865e6 -2.7496635040732153e7 0.0
0.0 0.0 0.0

-7.468987894055184e6 1.40982663683481e7 0.0
1.40982663683481e7 1.026235478385083e7 0.0
0.0 0.0 0.0

-474183.78847474884 1.4073088879978577e7 0.0
1.4073088879978577e7 -9.001292184273489e6 0.0
0.0 0.0 0.0

225890.259318492 1.4439428886584355e7 0.0
1.4439428886584355e7 560148.7030935491 0.0
0.0 0.0 0.0

-2.152107247618527e6 1.682305473994511e7 0.0
1.682305473994511e7 -8.617406068332583e6 0.0
0.0 0.0 0.0

-1.8844207579794987e6 1.5298086376311813e7 0.0
1.5298086376311813e7 -5.851444643646267e6 0.0
0.0 0.0 0.0

967930.0770912161 1.3287512408502495e7 0.0
1.3287512408502495e7 -1.6925401734887283e7 0.0
0.0 0.0 0.0

3.462776140623671e6 7.624472203449564e6 0.0
7.624472203449564e6 -2.0927776953761227e7 0.0
0.0 0.0 0.0

-256769.47353412095 1.394961090637215e7 0.0
1.394961090637215e7 -6.94256859882311e6 0.0
0.0 0.0 0.0

2.357304112705948e6 9.609968787441727e6 0.0
9.609968787441727e6 -1.5351283172972778e7 0.0
0.0 0.0 0.0

4.302941822767649e6 4.409213620468226e6 0.0
4.409213620468226e6 -1.4516349433461035e7 0.0
0.0 0.0 0.0

-3.773152868228968e6 2.1536905026493136e7 0.0
2.1536905026493136e7 2.421312328189543e6 0.0
0.0 0.0 0.0

-682617.6722669934 1.1112429895684775e7 0.0
1.1112429895684775e7 -6.832794608728042e6 0.0
0.0 0.0 0.0

-5.359888796161142e6 1.693140548874062e7 0.0
1.693140548874062e7 1.3794119601992834e7 0.0
0.0 0.0 0.0

-3.6031774575447408e6 -4.447804534016302e6 0.0
-4.447804534016302e6 8.477831572441611e6 0.0
0.0 0.0 0.0

2.0606896411089485e6 1.583926375817818e7 0.0
1.583926375817818e7 564033.9834913503 0.0
0.0 0.0 0.0

-3.0435224432912264e6 1.726980847708517e7 0.0
1.726980847708517e7 -8.3272286642514905e6 0.0
0.0 0.0 0.0

3.171416474531778e6 8.015633566710018e6 0.0
8.015633566710018e6 -1.773812293540839e7 0.0
0.0 0.0 0.0

-7.87763506086424e7 1.2689423782992294e7 0.0
1.2689423782992294e7 7.6678846732203625e6 0.0
0.0 0.0 0.0

-7.747415378417396e6 1.6208508931884542e7 0.0
1.6208508931884542e7 1.677903320839554e7 0.0
0.0 0.0 0.0

300352.0611940818 1.563172883962713e7 0.0
1.563172883962713e7 -1.1306376927831823e7 0.0
0.0 0.0 0.0

-1.2363243421658021e6 1.4156753876083964e7 0.0
1.4156753876083964e7 -7.132092870860418e6 0.0
0.0 0.0 0.0

2.0365662792285308e6 1.202101784685922e7 0.0
1.202101784685922e7 -1.8582211306070864e7 0.0
0.0 0.0 0.0

-347400.68232860975 1.5697032944959274e7 0.0
1.5697032944959274e7 7.452815652971632e6 0.0
0.0 0.0 0.0

2.2430108217539536e6 1.1022855843211358e7 0.0
1.1022855843211358e7 -2.2650049012143206e7 0.0
0.0 0.0 0.0

-162015.99914259696 1.5960215041239448e7 0.0
1.5960215041239448e7 8.724022736523012e6 0.0
0.0 0.0 0.0

266842.8391641434 1.4322582912029982e7 0.0
1.4322582912029982e7 -1.2490976288553061e7 0.0
0.0 0.0 0.0

3.8677418856056063e6 7.82201341024498e6 0.0
7.82201341024498e6 -1.8692105116496835e7 0.0
0.0 0.0 0.0

4.719695259638479e6 3.221734065907585e6 0.0
3.221734065907585e6 -3.126514209805925e7 0.0
0.0 0.0 0.0

152365.5877079859 2.1036241451725584e7 0.0
2.1036241451725584e7 -4.670989525291867e6 0.0
0.0 0.0 0.0

2.5352856863113185e6 1.083834349385583e7 0.0
1.083834349385583e7 -2.1467909645679086e7 0.0
0.0 0.0 0.0

-4.246619960101213e6 2.2225175930913314e7 0.0
2.2225175930913314e7 5.674856319600986e6 0.0
0.0 0.0 0.0

-5.4639507200717125e6 1.796266550056822e7 0.0
1.796266550056822e7 1.4285126077026215e6 0.0
0.0 0.0 0.0

2.59379722685851e6 7.346267851398068e6 0.0
7.346267851398068e6 -9.54061766920636e6 0.0
0.0 0.0 0.0

-3.1081486682683555e6 2.733627689996783e7 0.0
2.733627689996783e7 2.740367810627592e6 0.0
0.0 0.0 0.0

3.4660404453320354e6 8.591165599634133e6 0.0
8.591165599634133e6 -1.679209498688356e7 0.0
0.0 0.0 0.0

-3.8613253780488167e6 1.5569163794398183e7 0.0
1.5569163794398183e7 2.7331379469571326e7 0.0
0.0 0.0 0.0

-529737.5011294642 1.5948479821230827e7 0.0
1.5948479821230827e7 893865.912026031 0.0
0.0 0.0 0.0

-6.2139522346009035e6 2.3144853710535005e7 0.0
2.3144853710535005e7 6.304018899092873e6 0.0
0.0 0.0 0.0

-1.0501668600647751e7 9.844293550270135e6 0.0
9.844293550270135e6 1.6389082098655652e7 0.0
0.0 0.0 0.0

1.747682625842602e6 1.1806270909677126e7 0.0
1.1806270909677126e7 -1.868653697424354e7 0.0
0.0 0.0 0.0

-1.8955830740115233e6 9.526324262201978e6 0.0
9.526324262201978e6 -2.8490138115975983e6 0.0
0.0 0.0 0.0

-1.2860095643253326e6 1.5746754440871395e7 0.0
1.5746754440871395e7 -5.141882892393507e6 0.0
0.0 0.0 0.0

7.52853901689907e6 1.6430239554213041e7 0.0
1.6430239554213041e7 136410.34524467075 0.0
0.0 0.0 0.0

407106.7337277774 1.5577367165353768e7 0.0
1.5577367165353768e7 -1.2459182160350403e7 0.0
0.0 0.0 0.0

1.0032669208019513e6 8.133550120128715e6 0.0
8.133550120128715e6 -5.635798466311765e6 0.0
0.0 0.0 0.0

1.327206820114646e6 1.255678251638556e7 0.0
1.255678251638556e7 -1.7847711867537238e7 0.0
0.0 0.0 0.0

-9.317653892377743e6 -5.098223334195543e6 0.0
-5.098223334195543e6 2.3234749794465423e7 0.0
0.0 0.0 0.0

-5.337786169893013e6 1.7514255495277435e7 0.0
1.7514255495277435e7 1.2515712588414412e7 0.0
0.0 0.0 0.0

-1.2870611727013316e7 1.0901159135412905e7 0.0
1.0901159135412905e7 1.8260305386263076e7 0.0
0.0 0.0 0.0

-1.1536069776042446e7 2.195516002863571e7 0.0
2.195516002863571e7 -207772.0283959126 0.0
0.0 0.0 0.0

-2.2861723805025686e6 1.3951687276737822e7 0.0
1.3951687276737822e7 -2.8246706479502834e7 0.0
0.0 0.0 0.0

-4.1535164290452558e6 2.0364254514486287e7 0.0
2.0364254514486287e7 6.784929895886349e6 0.0
0.0 0.0 0.0

-4.781206212056891e6 2.1138674270597827e7 0.0
2.1138674270597827e7 6.769026374973979e6 0.0
0.0 0.0 0.0

-261522.22562103253 1.793283338157664e7 0.0
1.793283338157664e7 -8.119751859980914e6 0.0
0.0 0.0 0.0

-741795.5782581121 1.282934186793019e7 0.0
1.282934186793019e7 -2.9449178189863443e7 0.0
0.0 0.0 0.0

-4.987823716575963e6 1.6707124680241045e7 0.0
1.6707124680241045e7 1.380176144117421e7 0.0
0.0 0.0 0.0

-1.1208223381909017e7 3.217853940478996e6 0.0
3.217853940478996e6 3.216448406810107e7 0.0
0.0 0.0 0.0

2.497974199179908e6 3.5546716511377823e6 0.0
3.5546716511377823e6 -6.955538916357811e6 0.0
0.0 0.0 0.0

-167433.24316129833 1.420772468172494e7 0.0
1.420772468172494e7 -1.6488632471795445e7 0.0
0.0 0.0 0.0

-662446.6734312014 1.8737684582170572e7 0.0
1.8737684582170572e7 -7.091689125405593e6 0.0
0.0 0.0 0.0

-2.4427474125072043e6 1.6102542843332328e7 0.0
1.6102542843332328e7 -1.8009134861623743e6 0.0
0.0 0.0 0.0

-385301.4360717465 1.3275638416956011e7 0.0
1.3275638416956011e7 -8.952569656212445e6 0.0
0.0 0.0 0.0

-4.942856740957201e6 1.4555199004565103e7 0.0
1.4555199004565103e7 -2.2512335298601773e7 0.0
0.0 0.0 0.0

-1.2891914377017848e7 9.876503047871262e6 0.0
9.876503047871262e6 2.0889443212227948e7 0.0
0.0 0.0 0.0

-1.9647598350280453e6 2.3270989740769956e7 0.0
2.3270989740769956e7 459024.6623601245 0.0
0.0 0.0 0.0

-1.733144149840756e7 2.1049585530855052e7 0.0
2.1049585530855052e7 4.301161849888221e6 0.0
0.0 0.0 0.0

2.2609298416417367e6 1.626696135232304e7 0.0
1.626696135232304e7 737637.5839235558 0.0
0.0 0.0 0.0

2.145851570845142e6 7.214301508491829e6 0.0
7.214301508491829e6 -1.0967400301124614e7 0.0
0.0 0.0 0.0

-2.665503595718345e6 1.5796006153936146e7 0.0
1.5796006153936146e7 -1.1116978748467215e6 0.0
0.0 0.0 0.0

-1.2053547520782303e7 7.554091590865261e6 0.0
7.554091590865261e6 2.5493756688046806e7 0.0
0.0 0.0 0.0

-4.864821256207889e6 2.3492590776936542e7 0.0
2.3492590776936542e7 5.320892141620563e6 0.0
0.0 0.0 0.0

-5.728857376262741e6 1.670000876899538e7 0.0
1.670000876899538e7 1.4668194605107293e7 0.0
0.0 0.0 0.0

-3.202225217123673e6 2.2030926615883455e7 0.0
2.2030926615883455e7 791619.0014455398 0.0
0.0 0.0 0.0

550434.7819082411 1.3909067868748264e7 0.0
1.3909067868748264e7 -1.33241410917938e7 0.0
0.0 0.0 0.0

-1.218973613533944e7 9.473348798629096e6 0.0
9.473348798629096e6 2.4477204916804973e7 0.0
0.0 0.0 0.0

318429.5391520588 1.4505619159765018e7 0.0
1.4505619159765018e7 -1.4994567294938456e7 0.0
0.0 0.0 0.0

-3.5549144153641886e6 1.781605492359134e7 0.0
1.781605492359134e7 -2.7411866820518775e6 0.0
0.0 0.0 0.0

-2.0008798929055217e6 2.358858308810064e7 0.0
2.358858308810064e7 447870.74459564185 0.0
0.0 0.0 0.0

3.898180893839976e6 5.190228122321649e6 0.0
5.190228122321649e6 -1.5224142648292368e7 0.0
0.0 0.0 0.0

523910.5201469022 1.7382950301894262e7 0.0
1.7382950301894262e7 -7.76180078493592e6 0.0
0.0 0.0 0.0

-4.045901365316357e6 2.027209365841302e7 0.0
2.027209365841302e7 6.10744028797375e6 0.0
0.0 0.0 0.0

-1.1365160684842015e7 8.847561036626874e6 0.0
8.847561036626874e6 1.7342983852842312e7 0.0
0.0 0.0 0.0

-2.848753468727568e6 1.885026654615635e7 0.0
1.885026654615635e7 -6.315167833333141e6 0.0
0.0 0.0 0.0

-1.2574553006567648e7 1.1911505403582899e7 0.0
1.1911505403582899e7 2.028071570342078e7 0.0
0.0 0.0 0.0

-2.004391838694182e6 4.741351360825897e6 0.0
4.741351360825897e6 5.308297063777191e6 0.0
0.0 0.0 0.0

-4.0946976101509e6 1.9758695883166324e7 0.0
1.9758695883166324e7 6.124052673522486e6 0.0
0.0 0.0 0.0

-1.3133000076578924e7 8.067860553563461e6 0.0
8.067860553563461e6 1.8870757303060047e7 0.0
0.0 0.0 0.0

-6.058451088072517e6 1.6739717171059974e7 0.0
1.6739717171059974e7 9.428146595551785e6 0.0
0.0 0.0 0.0

1.0875760597139755e6 1.6266399630704552e7 0.0
1.6266399630704552e7 1.8572526191540323e7 0.0
0.0 0.0 0.0

-85981.2431915775 1.2646181435991969e7 0.0
1.2646181435991969e7 -2.6331581702787746e7 0.0
0.0 0.0 0.0

-3.4344198947959784e6 -3.8306499660554086e6 0.0
-3.8306499660554086e6 7.83364277488454e6 0.0
0.0 0.0 0.0

2.8106530268988614e6 2.1000816475779064e7 0.0
2.1000816475779064e7 -4.853289363812156e6 0.0
0.0 0.0 0.0

-1.2269277424029017e7 7.917340937251033e6 0.0
7.917340937251033e6 2.2536053270549074e7 0.0
0.0 0.0 0.0

732463.6764045944 1.1651159151648132e7 0.0
1.1651159151648132e7 -1.0971768319733538e7 0.0
0.0 0.0 0.0

-4.1155104303920334e6 1.667553447640936e7 0.0
1.667553447640936e7 1.1838579826343443e7 0.0
0.0 0.0 0.0

-1.071506182865994e6 1.5052540586882424e7 0.0
1.5052540586882424e7 -5.470401682542452e6 0.0
0.0 0.0 0.0

-6.656791380815784e6 1.7077856484446224e7 0.0
1.7077856484446224e7 1.3591250800609674e7 0.0
0.0 0.0 0.0

306843.10369360447 9.834849718551628e6 0.0
9.834849718551628e6 -6.455551669220075e6 0.0
0.0 0.0 0.0

-5.519160823171113e6 1.9293353445884828e7 0.0
1.9293353445884828e7 5.839325260201826e6 0.0
0.0 0.0 0.0

-6.0555269142477475e6 1.6881106104223605e7 0.0
1.6881106104223605e7 1.015025659955521e7 0.0
0.0 0.0 0.0

237231.55403582938 1.728059897589314e7 0.0
1.728059897589314e7 -8.634287098507399e6 0.0
0.0 0.0 0.0

-4.371315577965471e6 2.037334705544923e7 0.0
2.037334705544923e7 5.009804019277059e6 0.0
0.0 0.0 0.0

-2.4120151540671745e6 2.3895753915760487e7 0.0
2.3895753915760487e7 1.74077383339922e6 0.0
0.0 0.0 0.0

140348.83714991715 1.2691304877829015e7 0.0
1.2691304877829015e7 -2.3169446392240837e7 0.0
0.0 0.0 0.0

1.6136266980705862e6 3.3622675150881493e6 0.0
3.3622675150881493e6 -3.4983644957329486e6 0.0
0.0 0.0 0.0

-4.0356113122779937e6 2.513610038782771e6 0.0
2.513610038782771e6 3.6393097979672253e6 0.0
0.0 0.0 0.0

4.260905835172748e6 4.343673003432532e6 0.0
4.343673003432532e6 -3.864625605991034e7 0.0
0.0 0.0 0.0

-1.4167985159284992e6 1.868370733363528e7 0.0
1.868370733363528e7 -5.033315189907896e6 0.0
0.0 0.0 0.0

-6.382956109211186e6 1.6596320808356307e7 0.0
1.6596320808356307e7 1.5302979093341656e7 0.0
0.0 0.0 0.0

-1.2833688906910442e7 9.33546349357926e6 0.0
9.33546349357926e6 1.7109034258407604e7 0.0
0.0 0.0 0.0

-3.624065660949356e6 2.8038038022189025e7 0.0
2.8038038022189025e7 2.946741475617933e6 0.0
0.0 0.0 0.0

-1.2794856352975562e7 6.354661697472003e6 0.0
6.354661697472003e6 2.229773532034304e7 0.0
0.0 0.0 0.0

2.0613740619703818e7 4.579193822088869e7 0.0
4.579193822088869e7 -9.050346460913805e6 0.0
0.0 0.0 0.0

-751664.7469866402 1.702822821570514e7 0.0
1.702822821570514e7 -9.35513048005161e6 0.0
0.0 0.0 0.0

1.62840747878748e6 1.2878887687512994e7 0.0
1.2878887687512994e7 -1.470781057386852e7 0.0
0.0 0.0 0.0

-5.17031338776512e6 1.7166860937784687e7 0.0
1.7166860937784687e7 1.2785136212800737e7 0.0
0.0 0.0 0.0

-1.2690674557153367e7 8.735025683320686e6 0.0
8.735025683320686e6 2.3154403899408225e7 0.0
0.0 0.0 0.0

-899664.5988103892 1.8279362349220723e7 0.0
1.8279362349220723e7 -6.78102488542555e6 0.0
0.0 0.0 0.0

-45162.847068426665 1.4778402362212038e7 0.0
1.4778402362212038e7 2.888488181385344e6 0.0
0.0 0.0 0.0

4.817428627147639e6 3.4410434993747026e6 0.0
3.4410434993747026e6 -2.523133031999254e7 0.0
0.0 0.0 0.0

-6.192895953284517e6 6.55015505370972e6 0.0
6.55015505370972e6 9.59470781536689e6 0.0
0.0 0.0 0.0

-5.014879939627053e6 2.999928850929348e7 0.0
2.999928850929348e7 3.77380235212956e6 0.0
0.0 0.0 0.0

-7.545438468583434e6 1.6591214633953333e7 0.0
1.6591214633953333e7 1.6405236540535443e7 0.0
0.0 0.0 0.0

-600254.2198308273 1.4424142479751464e7 0.0
1.4424142479751464e7 -1.3926361400607217e7 0.0
0.0 0.0 0.0

3.405244908190402e6 1.6380574885410894e7 0.0
1.6380574885410894e7 4.59309715243485e6 0.0
0.0 0.0 0.0

-7.144284605512485e6 2.7252744931642055e6 0.0
2.7252744931642055e6 9.33959590896398e6 0.0
0.0 0.0 0.0

-4.735955123592517e6 9.313018330842696e6 0.0
9.313018330842696e6 2.508125913928061e6 0.0
0.0 0.0 0.0

-669714.2178846877 1.4148338983785246e7 0.0
1.4148338983785246e7 -1.0957600174316917e7 0.0
0.0 0.0 0.0

153015.1815422955 1.4034153967288012e7 0.0
1.4034153967288012e7 -8.833910568339558e6 0.0
0.0 0.0 0.0

-8.244697410479298e6 1.5412083878540369e7 0.0
1.5412083878540369e7 1.3353794050725244e7 0.0
0.0 0.0 0.0

-291111.7852797229 1.4008276546926584e7 0.0
1.4008276546926584e7 -1.747525582643538e7 0.0
0.0 0.0 0.0

2.468818560416216e6 1.1178123488994613e7 0.0
1.1178123488994613e7 -1.9311254039687954e7 0.0
0.0 0.0 0.0

-4.2644999272679435e6 2.0409599210493535e7 0.0
2.0409599210493535e7 7.340858417298077e6 0.0
0.0 0.0 0.0

945765.7961025694 1.4261716905036924e7 0.0
1.4261716905036924e7 -1.5066051902900979e7 0.0
0.0 0.0 0.0

-1.2321093307458013e7 1.0192540786273347e7 0.0
1.0192540786273347e7 1.9678592369065095e7 0.0
0.0 0.0 0.0

3.6500033512449134e6 5.288752338301361e6 0.0
5.288752338301361e6 -1.145701207718557e7 0.0
0.0 0.0 0.0

-2.1719089664007895e7 2.5657317646959476e7 0.0
2.5657317646959476e7 -4.294756384912048e6 0.0
0.0 0.0 0.0

1.738105372946702e6 6.762427567898455e6 0.0
6.762427567898455e6 -9.118261173030756e6 0.0
0.0 0.0 0.0

3.872557603712043e6 3.471124985069853e6 0.0
3.471124985069853e6 -1.1421494789293988e7 0.0
0.0 0.0 0.0

-4.946002778461315e6 2.1059910557920817e7 0.0
2.1059910557920817e7 7.184560993515698e6 0.0
0.0 0.0 0.0

1.2898690550071436e6 1.3835497214232177e7 0.0
1.3835497214232177e7 4.29956398193027e6 0.0
0.0 0.0 0.0

2.4563648919509947e6 1.6718300891774187e7 0.0
1.6718300891774187e7 -3.153549062410723e6 0.0
0.0 0.0 0.0

-8.573362309174512e6 1.5578491597729336e7 0.0
1.5578491597729336e7 1.947681377538853e7 0.0
0.0 0.0 0.0

-5.615793428985504e6 1.6177757888110941e7 0.0
1.6177757888110941e7 2.0075051800683107e7 0.0
0.0 0.0 0.0

5.421158361464029e6 1.5161365646713542e7 0.0
1.5161365646713542e7 3.4429019655594155e7 0.0
0.0 0.0 0.0

184555.08027080796 1.5099494541728202e7 0.0
1.5099494541728202e7 -2.9808524871737966e6 0.0
0.0 0.0 0.0

-5.798532882000871e6 1.709153174322523e7 0.0
1.709153174322523e7 1.3593449782230614e7 0.0
0.0 0.0 0.0

-6.785616029069096e6 1.4788567153974112e7 0.0
1.4788567153974112e7 9.085911675585018e6 0.0
0.0 0.0 0.0

-814536.6509218384 1.421691461749304e7 0.0
1.421691461749304e7 -1.2872410440212425e7 0.0
0.0 0.0 0.0

-4.482130749094251e6 2.054235711382862e7 0.0
2.054235711382862e7 5.670145478226098e6 0.0
0.0 0.0 0.0

-1.2914973119309137e7 8.716195746624397e6 0.0
8.716195746624397e6 2.1707269879892964e7 0.0
0.0 0.0 0.0

5.905694338487623e6 1.9835418294311345e7 0.0
1.9835418294311345e7 -4.733915359901467e6 0.0
0.0 0.0 0.0

-480542.27465107804 1.7367913878555916e7 0.0
1.7367913878555916e7 -8.497901993793325e6 0.0
0.0 0.0 0.0

3.5520227618366927e6 6.687579812313358e6 0.0
6.687579812313358e6 -1.759462576639129e7 0.0
0.0 0.0 0.0

1.120907143106813e6 1.849341120520934e7 0.0
1.849341120520934e7 -6.053161310970679e6 0.0
0.0 0.0 0.0

-2.4552775668794876e6 2.1191233851120625e7 0.0
2.1191233851120625e7 -351890.12329520023 0.0
0.0 0.0 0.0

-3.5584885701869233e6 1.446521670893041e7 0.0
1.446521670893041e7 -1.1861631393721253e7 0.0
0.0 0.0 0.0

6.186426752156479e6 1.7450811468424443e7 0.0
1.7450811468424443e7 2.0621431136749674e7 0.0
0.0 0.0 0.0

-1.0191170310570704e7 -2.6391671151801944e6 0.0
-2.6391671151801944e6 3.139465676840468e7 0.0
0.0 0.0 0.0

-71339.96963727218 1.6273321344231881e7 0.0
1.6273321344231881e7 4.910850701454604e6 0.0
0.0 0.0 0.0

-9.663371265224975e6 -4.718181039525027e6 0.0
-4.718181039525027e6 2.503015340105991e7 0.0
0.0 0.0 0.0

-1.7518829754740503e6 2.149138406914189e7 0.0
2.149138406914189e7 -1.7370971657015095e6 0.0
0.0 0.0 0.0

124997.06562560354 2.035132524790638e7 0.0
2.035132524790638e7 -5.221957866155315e6 0.0
0.0 0.0 0.0

-4.296511243301697e6 2.889418493550647e7 0.0
2.889418493550647e7 3.0472780401257635e6 0.0
0.0 0.0 0.0

3.0949230719378814e6 1.6409721736258563e7 0.0
1.6409721736258563e7 7.725000283307808e6 0.0
0.0 0.0 0.0

-1.222181531710075e7 7.735916891691744e6 0.0
7.735916891691744e6 2.3944810832768388e7 0.0
0.0 0.0 0.0

-1.9129002152159582e6 2.188883514223897e7 0.0
2.188883514223897e7 -964025.0218351358 0.0
0.0 0.0 0.0

-5.729328559996789e6 1.7485539664515108e7 0.0
1.7485539664515108e7 9.160463262747338e6 0.0
0.0 0.0 0.0

-4.573266925857542e6 1.9492889189543135e7 0.0
1.9492889189543135e7 5.71254684353371e6 0.0
0.0 0.0 0.0

3.512464948940279e6 7.996295941490795e6 0.0
7.996295941490795e6 -2.8610229017264612e7 0.0
0.0 0.0 0.0

-4.41184763817458e6 2.034573427220901e7 0.0
2.034573427220901e7 7.949333537785284e6 0.0
0.0 0.0 0.0

8.811027578864224e6 1.4100402467636405e7 0.0
1.4100402467636405e7 3.601069879519024e6 0.0
0.0 0.0 0.0

2.2981063084903024e6 1.163287148444454e7 0.0
1.163287148444454e7 -1.727903821303274e7 0.0
0.0 0.0 0.0

-9.252670123676261e6 1.14043101534768e6 0.0
1.14043101534768e6 4.553364228221722e7 0.0
0.0 0.0 0.0

-2.6338980669349604e6 2.2690505653804775e7 0.0
2.2690505653804775e7 1.3345219333328384e6 0.0
0.0 0.0 0.0

948661.1694015113 1.656061669109594e7 0.0
1.656061669109594e7 4.395551561365023e6 0.0
0.0 0.0 0.0

-6.816954942876875e7 5.703105430178741e7 0.0
5.703105430178741e7 -1.2808377120519858e7 0.0
0.0 0.0 0.0

3.9731394356482364e6 4.532824482239492e6 0.0
4.532824482239492e6 -1.4694229178717567e7 0.0
0.0 0.0 0.0

-2.797655111429333e6 1.6537015489154259e7 0.0
1.6537015489154259e7 -822079.5744683815 0.0
0.0 0.0 0.0

-1.2258340093127176e7 2.158974240937197e7 0.0
2.158974240937197e7 4.312371217576241e6 0.0
0.0 0.0 0.0

-53488.48365971586 1.5808788588065859e7 0.0
1.5808788588065859e7 -1.1442224951408012e7 0.0
0.0 0.0 0.0

-687172.7089642971 1.695625245618029e7 0.0
1.695625245618029e7 -9.781303569780072e6 0.0
0.0 0.0 0.0

5.883142574930847e6 1.7097943057960972e7 0.0
1.7097943057960972e7 -1.6790175879052663e6 0.0
0.0 0.0 0.0

-3.4927536919983774e6 2.5413998906145602e7 0.0
2.5413998906145602e7 3.5326398642423097e6 0.0
0.0 0.0 0.0

-2.0281891229508806e6 1.7319393929710113e7 0.0
1.7319393929710113e7 -7.826935420906866e6 0.0
0.0 0.0 0.0

4.578722914089089e6 5.048261017514178e6 0.0
5.048261017514178e6 -3.0054324874894083e7 0.0
0.0 0.0 0.0

-1.9073383315350667e7 2.325377245113943e7 0.0
2.325377245113943e7 -2.920118929115469e6 0.0
0.0 0.0 0.0

-5.2206732330343155e6 1.7048883665767703e7 0.0
1.7048883665767703e7 9.910151562214829e6 0.0
0.0 0.0 0.0

85906.87464899919 1.97061253976428e7 0.0
1.97061253976428e7 -5.770244417467451e6 0.0
0.0 0.0 0.0

-4.35367505279923e6 1.5597178414460229e7 0.0
1.5597178414460229e7 2.5490638481767625e7 0.0
0.0 0.0 0.0

7.507526489067359e6 1.8384153760302596e7 0.0
1.8384153760302596e7 -4.748941916656679e6 0.0
0.0 0.0 0.0

-4.94724758338126e6 1.905630131184847e7 0.0
1.905630131184847e7 9.811490184865374e6 0.0
0.0 0.0 0.0

-478861.81015294 1.4558792864550307e7 0.0
1.4558792864550307e7 -9.649742130838398e6 0.0
0.0 0.0 0.0

2.4709024940737435e6 1.0037460854130547e7 0.0
1.0037460854130547e7 3.7414770731317136e6 0.0
0.0 0.0 0.0

980587.6647790791 1.7315012326049086e7 0.0
1.7315012326049086e7 -6.837038096807785e6 0.0
0.0 0.0 0.0

-8.241424731524283e6 1.6282593091101946e7 0.0
1.6282593091101946e7 1.775274877147515e7 0.0
0.0 0.0 0.0

-8.69620890467403e6 4.463713546492948e6 0.0
4.463713546492948e6 4.7813462584607214e7 0.0
0.0 0.0 0.0

-8.505978200482119e6 -404583.26114510023 0.0
-404583.26114510023 5.050017661772445e7 0.0
0.0 0.0 0.0

-992101.36356619 1.5932567384791246e7 0.0
1.5932567384791246e7 -8.587738119240317e6 0.0
0.0 0.0 0.0

156749.24550881982 1.6468024577649262e7 0.0
1.6468024577649262e7 -9.981531479356188e6 0.0
0.0 0.0 0.0

-575006.6161568873 1.6921582831068598e7 0.0
1.6921582831068598e7 -9.934260821016936e6 0.0
0.0 0.0 0.0

-7.38713326727239e6 1.9222864582385946e7 0.0
1.9222864582385946e7 -2.0487484963902482e6 0.0
0.0 0.0 0.0

1.0333441745729528e7 1.6811781607788898e7 0.0
1.6811781607788898e7 5.326502476266338e6 0.0
0.0 0.0 0.0

-8.021501211754527e6 1.6422482380733158e7 0.0
1.6422482380733158e7 1.5773671195342321e7 0.0
0.0 0.0 0.0

-388020.1645234907 1.684583038042532e7 0.0
1.684583038042532e7 -1.000660850330682e7 0.0
0.0 0.0 0.0

-653109.3678312819 1.3964202754903134e7 0.0
1.3964202754903134e7 -8.657772641957432e6 0.0
0.0 0.0 0.0

-7.57805414132365e6 -4.556318042079429e6 0.0
-4.556318042079429e6 1.4981922837195655e7 0.0
0.0 0.0 0.0

1.3107332431719191e6 1.178987492669129e7 0.0
1.178987492669129e7 -2.2909514124745794e7 0.0
0.0 0.0 0.0

-1.1060902317858964e7 -2.1380342228188426e6 0.0
-2.1380342228188426e6 2.390632501487293e7 0.0
0.0 0.0 0.0

-6.493945561353944e6 -7.673263434601298e6 0.0
-7.673263434601298e6 1.6433920689256206e7 0.0
0.0 0.0 0.0

-6.307946629741895e6 -7.709436000053876e6 0.0
-7.709436000053876e6 1.5825072449940955e7 0.0
0.0 0.0 0.0

-4.11310963261429e6 9.321090273373947e6 0.0
9.321090273373947e6 4.60095992703823e6 0.0
0.0 0.0 0.0

826347.6431030091 1.3476991994541178e7 0.0
1.3476991994541178e7 -1.4180340764995012e7 0.0
0.0 0.0 0.0

1.8130080113498643e6 1.1633657276642676e7 0.0
1.1633657276642676e7 -2.2663855065555558e7 0.0
0.0 0.0 0.0

-318047.3804484478 1.623321252940833e7 0.0
1.623321252940833e7 -3.5871955777561394e6 0.0
0.0 0.0 0.0

271089.7154450654 1.7597244290626295e7 0.0
1.7597244290626295e7 -7.509762489142974e6 0.0
0.0 0.0 0.0

2.7344255321251513e6 1.6563356087567072e7 0.0
1.6563356087567072e7 -1.1886677842061496e6 0.0
0.0 0.0 0.0

-2.0526896821278883e6 2.010104528639569e7 0.0
2.010104528639569e7 -2.53905179221259e6 0.0
0.0 0.0 0.0

3.4303297649077564e7 1.8726118777361237e7 0.0
1.8726118777361237e7 4.309094904187961e6 0.0
0.0 0.0 0.0

2.347785473672362e6 1.3413808230104268e7 0.0
1.3413808230104268e7 9.054038873270549e6 0.0
0.0 0.0 0.0

1.9733079658645936e6 1.6978298813073233e7 0.0
1.6978298813073233e7 -4.623407604871095e6 0.0
0.0 0.0 0.0

837977.9549211937 2.0431240711778443e7 0.0
2.0431240711778443e7 -5.096565696089917e6 0.0
0.0 0.0 0.0

-2.2309628957959386e6 2.2511286159126274e7 0.0
2.2511286159126274e7 264500.6459403181 0.0
0.0 0.0 0.0

646234.6732311649 1.4852999131062834e7 0.0
1.4852999131062834e7 -1.4230269389117444e7 0.0
0.0 0.0 0.0

-1.2305735790737594e7 2.0929262143296577e7 0.0
2.0929262143296577e7 1.9748455961379902e6 0.0
0.0 0.0 0.0

-5.411180819639055e6 2.1439846432448737e7 0.0
2.1439846432448737e7 6.939533327827375e6 0.0
0.0 0.0 0.0

4.711582207783741e6 3.2536235683453996e6 0.0
3.2536235683453996e6 -1.6355237424332585e7 0.0
0.0 0.0 0.0

-2.7814429347255146e6 2.100755408277229e7 0.0
2.100755408277229e7 -1.2957857341260968e6 0.0
0.0 0.0 0.0

-6.785122439819048e6 3.1086180602982767e7 0.0
3.1086180602982767e7 3.8916491117052375e6 0.0
0.0 0.0 0.0

-1.2886964066453287e6 1.1736285714411682e7 0.0
1.1736285714411682e7 -5.162335477515071e6 0.0
0.0 0.0 0.0

2.288031348181163e6 1.1614148247264909e7 0.0
1.1614148247264909e7 -1.8386456012337536e7 0.0
0.0 0.0 0.0

2.091201097353612e6 1.1362146119788716e7 0.0
1.1362146119788716e7 -2.1654845350370683e7 0.0
0.0 0.0 0.0

1.161652505192141e6 1.231648426602849e7 0.0
1.231648426602849e7 -2.2579807511743277e7 0.0
0.0 0.0 0.0

3.979755599662211e6 2.7301897226729486e7 0.0
2.7301897226729486e7 -3.820158985723812e6 0.0
0.0 0.0 0.0

-250287.7138105845 1.6679994905871108e7 0.0
1.6679994905871108e7 -1.003701771310354e7 0.0
0.0 0.0 0.0

2.3290890685184165e6 1.6702986795993725e7 0.0
1.6702986795993725e7 1.923117866045486e7 0.0
0.0 0.0 0.0

-1.95306810177781e7 1.5700917944625327e7 0.0
1.5700917944625327e7 9.053321520621054e6 0.0
0.0 0.0 0.0

-4.8874576302235216e7 2.5463238359244343e7 0.0
2.5463238359244343e7 757462.7462911699 0.0
0.0 0.0 0.0

3.914358241912402e6 6.066034080821249e6 0.0
6.066034080821249e6 -3.747353443900673e7 0.0
0.0 0.0 0.0

1.3384257939290334e6 1.722628981611601e7 0.0
1.722628981611601e7 -5.859693054267245e6 0.0
0.0 0.0 0.0

598643.0112208128 1.9154128585240103e7 0.0
1.9154128585240103e7 -6.002785850699441e6 0.0
0.0 0.0 0.0

4.531790404944414e6 3.2731711722203125e6 0.0
3.2731711722203125e6 -1.5547008178734368e7 0.0
0.0 0.0 0.0

-9.819678909569956e6 2.0002084426853728e7 0.0
2.0002084426853728e7 -2.9939896080385377e6 0.0
0.0 0.0 0.0

-3.601398723568624e6 1.6584051745436838e7 0.0
1.6584051745436838e7 1.4321609921505919e7 0.0
0.0 0.0 0.0

2.1985279095858093e6 1.6230074749340113e7 0.0
1.6230074749340113e7 1.1701739741172694e7 0.0
0.0 0.0 0.0

-5.361716144019821e6 -5.65952348787992e6 0.0
-5.65952348787992e6 1.2350740907248396e7 0.0
0.0 0.0 0.0

1.2000426544609815e6 1.3544734401157724e7 0.0
1.3544734401157724e7 -1.690346323615369e7 0.0
0.0 0.0 0.0

2.6504080563946813e6 9.112967435420724e6 0.0
9.112967435420724e6 -1.6183879433876283e7 0.0
0.0 0.0 0.0

923573.4609372867 7.756622289448525e6 0.0
7.756622289448525e6 -4.936048885110693e6 0.0
0.0 0.0 0.0

-5.990033829365703e6 -5.099792296386747e6 0.0
-5.099792296386747e6 9.740578345963348e6 0.0
0.0 0.0 0.0

698650.3803462237 1.6151291095001774e7 0.0
1.6151291095001774e7 5.874437413383136e7 0.0
0.0 0.0 0.0

-1.1334633716112766e7 2.2436724878731435e6 0.0
2.2436724878731435e6 3.137528425907874e7 0.0
0.0 0.0 0.0

-576056.3333212282 2.307222985702689e7 0.0
2.307222985702689e7 -1.7497685243465954e6 0.0
0.0 0.0 0.0

-3.0014866450636946e6 1.6238234929742608e7 0.0
1.6238234929742608e7 -107824.83749897557 0.0
0.0 0.0 0.0

-804198.4044121574 1.3779584323133128e7 0.0
1.3779584323133128e7 -9.754148680048857e6 0.0
0.0 0.0 0.0

-192598.06637472077 1.898056737707108e7 0.0
1.898056737707108e7 -6.6982209828214925e6 0.0
0.0 0.0 0.0

-4.552225501412209e6 2.065422093424248e7 0.0
2.065422093424248e7 6.318782008735431e6 0.0
0.0 0.0 0.0

791514.0976122534 3.1208866185595386e7 0.0
3.1208866185595386e7 -1.1087950130462346e6 0.0
0.0 0.0 0.0

3.0817060058944067e6 4.608576749697642e6 0.0
4.608576749697642e6 -9.306428369613707e6 0.0
0.0 0.0 0.0

-7.98818326811005e6 -4.947713772563428e6 0.0
-4.947713772563428e6 1.3718230717721272e7 0.0
0.0 0.0 0.0

-251827.003694462 1.5335544351974154e7 0.0
1.5335544351974154e7 1.1336258397089904e6 0.0
0.0 0.0 0.0

-7.767101463684795e6 2.191049045869294e7 0.0
2.191049045869294e7 6.255385437560731e6 0.0
0.0 0.0 0.0

-4.59897930581127e6 1.6663204988515973e7 0.0
1.6663204988515973e7 1.6452290836243872e7 0.0
0.0 0.0 0.0

-1.2402011298905361e7 9.26288546733954e6 0.0
9.26288546733954e6 2.039397920339627e7 0.0
0.0 0.0 0.0

1.878290809187458e6 1.2439786089459473e7 0.0
1.2439786089459473e7 -1.7677125624472093e7 0.0
0.0 0.0 0.0

-1.2578426127293603e8 1.995603183141884e7 0.0
1.995603183141884e7 -4.1416930567399412e6 0.0
0.0 0.0 0.0

-1.2453022879063303e7 8.055497569342567e6 0.0
8.055497569342567e6 2.1253862304612122e7 0.0
0.0 0.0 0.0

-6.7718904622629415e6 2.1889667288972236e7 0.0
2.1889667288972236e7 6.480721670313042e6 0.0
0.0 0.0 0.0

788541.7894164799 1.4530938813082907e7 0.0
1.4530938813082907e7 -1.5057942902755551e7 0.0
0.0 0.0 0.0

263679.0285337083 1.2867416679645987e7 0.0
1.2867416679645987e7 -2.2082249894150883e7 0.0
0.0 0.0 0.0

68655.27617186969 2.9736754782524165e7 0.0
2.9736754782524165e7 -389977.5520240228 0.0
0.0 0.0 0.0

-135530.31649423018 1.3427598950833809e7 0.0
1.3427598950833809e7 -2.027445530920095e7 0.0
0.0 0.0 0.0

-94048.539524463 1.6465783562782494e7 0.0
1.6465783562782494e7 -9.842040133308155e6 0.0
0.0 0.0 0.0

120007.55246547039 1.560139313638853e7 0.0
1.560139313638853e7 2.61597158588583e6 0.0
0.0 0.0 0.0

-1.1746024182002097e6 2.5411380060364746e7 0.0
2.5411380060364746e7 655841.7479714637 0.0
0.0 0.0 0.0

-8.881935067678472e6 2.175901837977273e7 0.0
2.175901837977273e7 5.795974324089048e6 0.0
0.0 0.0 0.0

1.4693399151612902e6 1.3211511573911889e7 0.0
1.3211511573911889e7 -1.6828233930753943e7 0.0
0.0 0.0 0.0

-226188.3544079261 1.6506383038913436e7 0.0
1.6506383038913436e7 -1.0094899750058254e7 0.0
0.0 0.0 0.0

-3.862292381632589e6 2.0558704416620966e7 0.0
2.0558704416620966e7 2.211333079668221e6 0.0
0.0 0.0 0.0

-5.969187798688551e6 2.170203069110722e7 0.0
2.170203069110722e7 6.715231106898287e6 0.0
0.0 0.0 0.0

-9.158779630341869e6 -6.405978233778095e6 0.0
-6.405978233778095e6 2.436287186213605e7 0.0
0.0 0.0 0.0

-7.7833730125122275e6 1.512504871048261e7 0.0
1.512504871048261e7 1.497703924324249e7 0.0
0.0 0.0 0.0

-465378.3366109105 1.3825557013291989e7 0.0
1.3825557013291989e7 -1.8516604421903066e7 0.0
0.0 0.0 0.0

1.1127536496895038e7 1.6009582671618741e7 0.0
1.6009582671618741e7 -716085.2989521893 0.0
0.0 0.0 0.0

880717.0617444664 1.3792805358607462e7 0.0
1.3792805358607462e7 -1.6927726351637166e7 0.0
0.0 0.0 0.0

-50353.18457503826 1.4917068167985976e7 0.0
1.4917068167985976e7 -3.0485194559356547e6 0.0
0.0 0.0 0.0

-1.1978386792072583e7 6.406822841430475e6 0.0
6.406822841430475e6 2.512565895856245e7 0.0
0.0 0.0 0.0

-4.817791950540807e6 1.834239394317007e7 0.0
1.834239394317007e7 -6.518682836446919e6 0.0
0.0 0.0 0.0

-373446.6673784591 1.3504607904652093e7 0.0
1.3504607904652093e7 -5.538035216577006e6 0.0
0.0 0.0 0.0

91559.3551685093 1.5981300046648232e7 0.0
1.5981300046648232e7 -1.0110526663968526e7 0.0
0.0 0.0 0.0

-1.3082210089267023e7 3.397301934664946e7 0.0
3.397301934664946e7 5.445925357163925e6 0.0
0.0 0.0 0.0

-3.970194610202496e7 1.137395037872704e7 0.0
1.137395037872704e7 8.358107291751396e6 0.0
0.0 0.0 0.0

-702169.0592012994 2.3635258912467003e7 0.0
2.3635258912467003e7 -2.114877689087421e6 0.0
0.0 0.0 0.0

-9.15726577902966e6 3.2427370871149432e7 0.0
3.2427370871149432e7 4.698273498488456e6 0.0
0.0 0.0 0.0

1.1832054134029225e7 3.930621019232945e7 0.0
3.930621019232945e7 -5.150691368826146e6 0.0
0.0 0.0 0.0

798625.8148780083 1.2586371132017706e7 0.0
1.2586371132017706e7 -2.1329277554758824e7 0.0
0.0 0.0 0.0

-5.432506473471134e6 1.4437868073736893e7 0.0
1.4437868073736893e7 -2.1658690650577866e7 0.0
0.0 0.0 0.0

-4.616420593444958e6 2.0132149224881146e7 0.0
2.0132149224881146e7 8.171607293759964e6 0.0
0.0 0.0 0.0

-1.3023528142311543e7 8.91411038235292e6 0.0
8.91411038235292e6 2.048926257120452e7 0.0
0.0 0.0 0.0

-8.672892319930548e6 1.916216612700096e7 0.0
1.916216612700096e7 2.7614682666935134e6 0.0
0.0 0.0 0.0

-766629.088207114 1.5081397271541594e7 0.0
1.5081397271541594e7 5.956078730535371e6 0.0
0.0 0.0 0.0

-451659.5904581675 1.5103441977448914e7 0.0
1.5103441977448914e7 -7.670718589797584e6 0.0
0.0 0.0 0.0

1.528272641558927e6 3.294581115857197e7 0.0
3.294581115857197e7 -2.239849706748199e6 0.0
0.0 0.0 0.0

-364523.69264456746 1.841466305308224e7 0.0
1.841466305308224e7 -7.370466876623342e6 0.0
0.0 0.0 0.0

1.4436725881054956e6 1.5762417357452862e7 0.0
1.5762417357452862e7 -4.1307557257911717e6 0.0
0.0 0.0 0.0

5.127159412856268e6 2.6813914598994893e6 0.0
2.6813914598994893e6 -2.630378097431567e7 0.0
0.0 0.0 0.0

-4.6979636545410985e6 2.0676234007467035e7 0.0
2.0676234007467035e7 6.912127824847458e6 0.0
0.0 0.0 0.0

-4.0764337086142786e6 1.571255579761959e7 0.0
1.571255579761959e7 3.5962414857182587e6 0.0
0.0 0.0 0.0

1.8211347398043913e6 1.0832733263243409e7 0.0
1.0832733263243409e7 -1.121036209457509e7 0.0
0.0 0.0 0.0

430845.5006617652 1.2941839719266964e7 0.0
1.2941839719266964e7 -2.221011059100778e7 0.0
0.0 0.0 0.0

-4.972362006285308e6 1.724463600457979e7 0.0
1.724463600457979e7 1.3540490154815493e7 0.0
0.0 0.0 0.0

-6.141767992847369e6 1.6458761103935795e7 0.0
1.6458761103935795e7 1.857679698232967e7 0.0
0.0 0.0 0.0

-808548.1854488759 1.4432382632597834e7 0.0
1.4432382632597834e7 -3.4218201964271157e6 0.0
0.0 0.0 0.0

1.3288078240037935e6 1.9797278616664577e7 0.0
1.9797278616664577e7 -5.486318849646477e6 0.0
0.0 0.0 0.0

-4.449448317481427e6 1.996975381869699e7 0.0
1.996975381869699e7 8.036372111890846e6 0.0
0.0 0.0 0.0

-9.71692954270534e6 917246.7205028537 0.0
917246.7205028537 4.040117454069172e7 0.0
0.0 0.0 0.0

-3.7626722979707075e6 1.0083834959257122e7 0.0
1.0083834959257122e7 3.6697418000614904e6 0.0
0.0 0.0 0.0

-4679.486039568204 1.529821065286567e7 0.0
1.529821065286567e7 -4.341249737304994e6 0.0
0.0 0.0 0.0

-5.251268945222319e6 2.0874176803569168e7 0.0
2.0874176803569168e7 7.521796562279377e6 0.0
0.0 0.0 0.0

-5.463510802659459e6 1.736272300013512e7 0.0
1.736272300013512e7 1.1279836945802897e7 0.0
0.0 0.0 0.0

2.512108775235963e6 1.0941131849026244e7 0.0
1.0941131849026244e7 -1.5334630699464507e7 0.0
0.0 0.0 0.0

-2.934344778755559e6 2.213511700618604e7 0.0
2.213511700618604e7 1.6789109196210091e6 0.0
0.0 0.0 0.0

-865613.2337238244 2.6388195358905654e7 0.0
2.6388195358905654e7 527590.9042618284 0.0
0.0 0.0 0.0

-4.0199414265643903e6 1.831095305427173e7 0.0
1.831095305427173e7 4.394241855873706e6 0.0
0.0 0.0 0.0

1.9167258660881566e6 1.2447789492717694e7 0.0
1.2447789492717694e7 -1.6570030190153312e7 0.0
0.0 0.0 0.0

-2.736135811148115e6 2.2250221697209567e7 0.0
2.2250221697209567e7 -146285.97439413785 0.0
0.0 0.0 0.0

-390085.98849809053 1.95497848966145e7 0.0
1.95497848966145e7 -6.035073116286796e6 0.0
0.0 0.0 0.0

-2.4711691941365656e6 1.6799920957745995e7 0.0
1.6799920957745995e7 1.857333030096335e7 0.0
0.0 0.0 0.0

-4.290572385270806e6 1.7863306209644284e7 0.0
1.7863306209644284e7 5.2570917318950435e6 0.0
0.0 0.0 0.0

-4.639463472649128e6 2.2014674081011515e7 0.0
2.2014674081011515e7 5.353670468185382e6 0.0
0.0 0.0 0.0

-1.0278630753924437e7 -2.1288049387972527e6 0.0
-2.1288049387972527e6 3.1228936690735523e7 0.0
0.0 0.0 0.0

-1.0351384400448201e6 2.5845182101353526e7 0.0
2.5845182101353526e7 645733.2243357513 0.0
0.0 0.0 0.0

5.123904132123454e6 2.748799389835676e6 0.0
2.748799389835676e6 -2.565332647972767e7 0.0
0.0 0.0 0.0

-2.236208507255436e6 2.071944715518905e7 0.0
2.071944715518905e7 -2.9780687424220894e6 0.0
0.0 0.0 0.0

-9.83484285278057e6 -4.328666686396284e6 0.0
-4.328666686396284e6 2.707607457137868e7 0.0
0.0 0.0 0.0

-548716.0091686612 1.2948870152258433e7 0.0
1.2948870152258433e7 -3.901625526632773e6 0.0
0.0 0.0 0.0

-8.031904906961624e6 2.0591359570285164e7 0.0
2.0591359570285164e7 4.282383642825644e6 0.0
0.0 0.0 0.0

-977543.5412798594 1.698231771348565e7 0.0
1.698231771348565e7 -2.6700022461424978e6 0.0
0.0 0.0 0.0

-1.6990302460409945e6 1.726385931863228e7 0.0
1.726385931863228e7 -3.8984442285057693e6 0.0
0.0 0.0 0.0

-523723.3125153468 1.503652930943007e7 0.0
1.503652930943007e7 -1.386799525358363e7 0.0
0.0 0.0 0.0

-1.2652818026302647e7 1.080117753967332e7 0.0
1.080117753967332e7 2.112947016280191e7 0.0
0.0 0.0 0.0

-832224.8030381091 1.5712170634182408e7 0.0
1.5712170634182408e7 7.887310974339541e6 0.0
0.0 0.0 0.0

3.881431496102269e6 7.792066025351707e6 0.0
7.792066025351707e6 -1.9558191658353984e7 0.0
0.0 0.0 0.0

180356.98981275316 1.6951029523310304e7 0.0
1.6951029523310304e7 1.694018099994907e7 0.0
0.0 0.0 0.0

-6.204034080219695e6 1.6326209939572157e7 0.0
1.6326209939572157e7 -4.302801133156867e7 0.0
0.0 0.0 0.0

-5.640064418528102e6 1.647795277134104e7 0.0
1.647795277134104e7 1.0938271391872535e7 0.0
0.0 0.0 0.0

-3.0963675182862235e6 2.2445314997541215e7 0.0
2.2445314997541215e7 958576.8567408205 0.0
0.0 0.0 0.0

-4.178692367427022e6 1.768772875877949e7 0.0
1.768772875877949e7 1.5547719855257887e6 0.0
0.0 0.0 0.0

-346249.21289812215 1.7402969003325842e7 0.0
1.7402969003325842e7 -8.774018962161403e6 0.0
0.0 0.0 0.0

809109.6458845553 1.6483225357553927e7 0.0
1.6483225357553927e7 -6.670835478638499e6 0.0
0.0 0.0 0.0

-4.835031424390271e6 2.065356963193432e7 0.0
2.065356963193432e7 7.435774439341968e6 0.0
0.0 0.0 0.0

-5.805167405527923e6 1.7175105191778515e7 0.0
1.7175105191778515e7 1.4168380788227275e7 0.0
0.0 0.0 0.0

-6.052897907294003e6 1.6462193367380675e7 0.0
1.6462193367380675e7 1.8587810527435455e7 0.0
0.0 0.0 0.0

-2.2917877270238246e6 1.4388980203584338e7 0.0
1.4388980203584338e7 -1.3490704914554982e7 0.0
0.0 0.0 0.0

1.0520393455859432e6 1.3068405044107122e7 0.0
1.3068405044107122e7 -1.4999504981571607e7 0.0
0.0 0.0 0.0

-4.0482792029590216e6 1.7193992042573772e7 0.0
1.7193992042573772e7 1.2580453517607834e7 0.0
0.0 0.0 0.0

2.713562577662902e6 9.137529761867827e6 0.0
9.137529761867827e6 -2.681098214891712e7 0.0
0.0 0.0 0.0

-1.553542104025472e6 1.6309284334806476e7 0.0
1.6309284334806476e7 -8.0160241065934235e6 0.0
0.0 0.0 0.0

-641090.7186494074 2.7073154861150198e7 0.0
2.7073154861150198e7 490751.4530410941 0.0
0.0 0.0 0.0

-331201.35071599204 1.6269675514486607e7 0.0
1.6269675514486607e7 1.406534188186341e7 0.0
0.0 0.0 0.0

1.6258354022648167e7 2.133094539303625e7 0.0
2.133094539303625e7 5.419448799605812e7 0.0
0.0 0.0 0.0

-1.5041111514221612e7 2.0049983799812775e7 0.0
2.0049983799812775e7 -5.0137017031893976e7 0.0
0.0 0.0 0.0

-4.583200234391416e6 1.5624598095530506e7 0.0
1.5624598095530506e7 1.9193842181747316e6 0.0
0.0 0.0 0.0

-2.3085433170496814e7 2.778730472484565e7 0.0
2.778730472484565e7 9.018572439495804e6 0.0
0.0 0.0 0.0

-2.6854748157263496e6 1.9467876247715052e7 0.0
1.9467876247715052e7 -2.8916304166618516e6 0.0
0.0 0.0 0.0

-3.236961985542937e6 1.72302333204211e7 0.0
1.72302333204211e7 1.0602400293158958e7 0.0
0.0 0.0 0.0

-1.1311647912079496e6 1.6478859282926923e7 0.0
1.6478859282926923e7 1.6213193131509043e7 0.0
0.0 0.0 0.0

3.0711245824753465e6 1.7447334932120528e7 0.0
1.7447334932120528e7 2.998401700794726e7 0.0
0.0 0.0 0.0

3.0490844900976457e6 1.7019909148410797e7 0.0
1.7019909148410797e7 6.645411627212722e6 0.0
0.0 0.0 0.0

3.6307811450602426e6 1.547058382653526e7 0.0
1.547058382653526e7 1.664080215638196e7 0.0
0.0 0.0 0.0

678066.5832346145 1.9765550815241687e7 0.0
1.9765550815241687e7 -5.540451180850623e6 0.0
0.0 0.0 0.0

-1.0917535539602465e6 1.6206163335450245e7 0.0
1.6206163335450245e7 1.0450001765384756e7 0.0
0.0 0.0 0.0

-4.037574235564134e6 1.6707458670875605e7 0.0
1.6707458670875605e7 1.2791905330857819e7 0.0
0.0 0.0 0.0

55358.71323367336 2.4507055804950338e7 0.0
2.4507055804950338e7 -1.0829121521540168e6 0.0
0.0 0.0 0.0

729142.936231392 1.685544254128152e7 0.0
1.685544254128152e7 9.913396181112364e6 0.0
0.0 0.0 0.0

5.044101190339769e6 3.1476466637013718e6 0.0
3.1476466637013718e6 -2.0450830682797085e7 0.0
0.0 0.0 0.0

-1.087081492053001e7 1.257480933976118e7 0.0
1.257480933976118e7 1.5526148057292717e7 0.0
0.0 0.0 0.0

-9.274550663252072e6 -6.243235429033167e6 0.0
-6.243235429033167e6 2.509918214657564e7 0.0
0.0 0.0 0.0

-7.0916855429400215e6 1.6772873804995742e7 0.0
1.6772873804995742e7 1.5560088155492758e7 0.0
0.0 0.0 0.0

-1.6255339037782215e6 2.2751639074654646e7 0.0
2.2751639074654646e7 -632959.1373566914 0.0
0.0 0.0 0.0

3.478426897868294e6 1.7896114342921898e7 0.0
1.7896114342921898e7 1.184011928252395e7 0.0
0.0 0.0 0.0

1.6669735150620788e6 1.5515698139683217e7 0.0
1.5515698139683217e7 1.252056545911651e7 0.0
0.0 0.0 0.0

-4.0377922480670195e6 2.1771836479439154e7 0.0
2.1771836479439154e7 5.738262382938097e6 0.0
0.0 0.0 0.0

3.8240584812188093e6 4.494635994621736e6 0.0
4.494635994621736e6 -1.2077864470491633e7 0.0
0.0 0.0 0.0

-2.3541240081438776e6 2.1164167523516625e7 0.0
2.1164167523516625e7 -2.2191419807571936e6 0.0
0.0 0.0 0.0

3.1823572912651394e6 9.501044801360972e6 0.0
9.501044801360972e6 -1.6356502079991832e7 0.0
0.0 0.0 0.0

-6.8423767339217765e6 2.1101553794107657e7 0.0
2.1101553794107657e7 6.558589473123996e6 0.0
0.0 0.0 0.0

827691.8160977722 2.1174719532289192e7 0.0
2.1174719532289192e7 -4.670626960047254e6 0.0
0.0 0.0 0.0

-6.958803947751874e6 1.8225284314837884e7 0.0
1.8225284314837884e7 721429.0869107712 0.0
0.0 0.0 0.0

4.793281524481591e6 2.5498271393579016e6 0.0
2.5498271393579016e6 -3.70248904430995e7 0.0
0.0 0.0 0.0

2.8146043549148026e6 1.666982660869154e7 0.0
1.666982660869154e7 1.0102528847969663e6 0.0
0.0 0.0 0.0

-977849.0457742998 2.178767897353592e7 0.0
2.178767897353592e7 -2.561051778099848e6 0.0
0.0 0.0 0.0

-1.0378917916343112e6 1.9247239356400464e7 0.0
1.9247239356400464e7 -5.555555061498546e6 0.0
0.0 0.0 0.0

-905479.1719858106 1.4728879783863684e7 0.0
1.4728879783863684e7 -1.0077433327565625e7 0.0
0.0 0.0 0.0

4.364189193626829e6 4.782854305028412e6 0.0
4.782854305028412e6 -1.918193659390323e7 0.0
0.0 0.0 0.0

-4.608419987924591e6 1.882791786934854e7 0.0
1.882791786934854e7 5.146202429749074e6 0.0
0.0 0.0 0.0

1.7044159291478917e6 1.1240740442720393e7 0.0
1.1240740442720393e7 -2.2988302772988327e7 0.0
0.0 0.0 0.0

-9.407986688937481e6 -5.4312472247790955e6 0.0
-5.4312472247790955e6 2.8265990123969078e7 0.0
0.0 0.0 0.0

-6.92512138322495e6 1.5697189062267857e7 0.0
1.5697189062267857e7 1.370870858014492e7 0.0
0.0 0.0 0.0

-1.1666476056304105e7 2.059351409396382e7 0.0
2.059351409396382e7 3.9205387643719763e6 0.0
0.0 0.0 0.0

3.0501748424891606e6 5.611945024364586e6 0.0
5.611945024364586e6 -5.449914449553752e7 0.0
0.0 0.0 0.0

-8.257833351818761e6 1.375166494350692e7 0.0
1.375166494350692e7 2.5798905014905263e7 0.0
0.0 0.0 0.0

-2.6438327924435157e6 1.7119364320340723e7 0.0
1.7119364320340723e7 1.510924281614926e7 0.0
0.0 0.0 0.0

-5.199902381007685e6 1.5749808786398828e7 0.0
1.5749808786398828e7 2.1955757728464745e7 0.0
0.0 0.0 0.0

-3.3678871824245127e6 1.6632066209130323e7 0.0
1.6632066209130323e7 816523.3585187343 0.0
0.0 0.0 0.0

-6.611375880667172e6 1.6171991760767981e7 0.0
1.6171991760767981e7 1.0460407903249083e7 0.0
0.0 0.0 0.0

-718578.423183386 1.4654418740491942e7 0.0
1.4654418740491942e7 -8.109791300473651e6 0.0
0.0 0.0 0.0

1.280667849723774e6 1.264777006627675e7 0.0
1.264777006627675e7 -1.5790917587760454e7 0.0
0.0 0.0 0.0

2.7800929823975917e6 8.772251729084998e6 0.0
8.772251729084998e6 -3.250758908733646e7 0.0
0.0 0.0 0.0

-9.451203048558496e6 -5.871584071720183e6 0.0
-5.871584071720183e6 2.6155925807659402e7 0.0
0.0 0.0 0.0

-9.438890456190715e6 -4.225187608177986e6 0.0
-4.225187608177986e6 3.333684474997957e7 0.0
0.0 0.0 0.0

-6.2336310644361535e6 1.94761352524409e7 0.0
1.94761352524409e7 1.8761008745978978e6 0.0
0.0 0.0 0.0

-286938.93081537494 1.7379692853988282e7 0.0
1.7379692853988282e7 -9.096100506609917e6 0.0
0.0 0.0 0.0

-4.021640188745821e6 1.5827612905791266e7 0.0
1.5827612905791266e7 2.5802152572433986e7 0.0
0.0 0.0 0.0

-513430.3597439397 1.4577295641680095e7 0.0
1.4577295641680095e7 -5.97777339755883e6 0.0
0.0 0.0 0.0

1.3090394056050652e6 1.9061461376902733e7 0.0
1.9061461376902733e7 -5.63298529622964e6 0.0
0.0 0.0 0.0

-4.516983626520428e6 2.0012161314816147e7 0.0
2.0012161314816147e7 5.705109427635236e6 0.0
0.0 0.0 0.0

-7.410010997364202e6 -5.224373718355128e6 0.0
-5.224373718355128e6 1.5707729541352268e7 0.0
0.0 0.0 0.0

4.463408123122918e6 3.540498558954243e7 0.0
3.540498558954243e7 -3.743111402456917e6 0.0
0.0 0.0 0.0

292120.6061315974 1.5537979446465543e7 0.0
1.5537979446465543e7 -7.933346926975168e6 0.0
0.0 0.0 0.0

-2.9335883238645233e6 1.4221134113505093e7 0.0
1.4221134113505093e7 -3.5118164943044506e7 0.0
0.0 0.0 0.0

5.218475032496998e6 3.5891668286135797e6 0.0
3.5891668286135797e6 -2.3902083796270385e7 0.0
0.0 0.0 0.0

-84324.03498240304 1.5521464104103882e7 0.0
1.5521464104103882e7 -4.427183131133172e6 0.0
0.0 0.0 0.0

-8.76834090788113e6 1.4695961434064506e7 0.0
1.4695961434064506e7 1.6046552086027598e7 0.0
0.0 0.0 0.0

-2.042824890829339e7 1.6079259779380871e7 0.0
1.6079259779380871e7 8.951408805173282e6 0.0
0.0 0.0 0.0

-2.5090679230309636e6 1.8028051972551122e7 0.0
1.8028051972551122e7 -5.918550015459795e6 0.0
0.0 0.0 0.0

2.8169462888731444e6 1.5154157987632453e7 0.0
1.5154157987632453e7 1.4216338275958804e7 0.0
0.0 0.0 0.0

-1.3607316756776888e6 1.4444318464958522e7 0.0
1.4444318464958522e7 -1.0775105104115037e7 0.0
0.0 0.0 0.0

-8.52312245474811e6 -2.7515089293114427e6 0.0
-2.7515089293114427e6 1.6164515886886116e7 0.0
0.0 0.0 0.0

-1.262659207560109e6 1.6263274244693795e7 0.0
1.6263274244693795e7 -7.686539466503362e6 0.0
0.0 0.0 0.0

-602115.4172802514 1.5935855179602653e7 0.0
1.5935855179602653e7 2.3013994955071807e6 0.0
0.0 0.0 0.0

-2.336430036881055e6 1.6952593804439213e7 0.0
1.6952593804439213e7 1.0848995783996753e7 0.0
0.0 0.0 0.0

198630.14563615248 1.4724578761231761e7 0.0
1.4724578761231761e7 -1.2957897363234112e7 0.0
0.0 0.0 0.0

-4.0483483658492425e6 1.7003890571086902e7 0.0
1.7003890571086902e7 1.6952953135049593e7 0.0
0.0 0.0 0.0

-52220.14280377644 1.3995030760489035e7 0.0
1.3995030760489035e7 -422716.0604224005 0.0
0.0 0.0 0.0

-182041.0892930152 1.7319172026018094e7 0.0
1.7319172026018094e7 -9.343037441466134e6 0.0
0.0 0.0 0.0

2.5220834500795896e6 1.5925758104463354e7 0.0
1.5925758104463354e7 -2.525685704137643e6 0.0
0.0 0.0 0.0

2.0893982898951313e6 1.0988018011062363e7 0.0
1.0988018011062363e7 -2.064055402632579e7 0.0
0.0 0.0 0.0

-7.285999720804888e6 1.6703233362999054e7 0.0
1.6703233362999054e7 1.4672727585031189e7 0.0
0.0 0.0 0.0

-376623.05222429754 1.3906900753804771e7 0.0
1.3906900753804771e7 -6.747012264755593e6 0.0
0.0 0.0 0.0

-3.646235090607323e7 2.1980138249180503e7 0.0
2.1980138249180503e7 6.652624674280183e6 0.0
0.0 0.0 0.0

-890456.0314821489 1.6199687074789017e7 0.0
1.6199687074789017e7 3.322629244469471e7 0.0
0.0 0.0 0.0

5.117150636246355e6 2.649906366188433e6 0.0
2.649906366188433e6 -2.6977664572484702e7 0.0
0.0 0.0 0.0

-9.511714992750324e6 -4.372182805770604e6 0.0
-4.372182805770604e6 3.2150085405127853e7 0.0
0.0 0.0 0.0

-1.27822107657364e6 1.3137948897270909e7 0.0
1.3137948897270909e7 -3.106127504951379e7 0.0
0.0 0.0 0.0

-62203.85143076256 1.3603153980653908e7 0.0
1.3603153980653908e7 -2.0539142864384636e7 0.0
0.0 0.0 0.0

-960517.5777520197 1.6810756474104226e7 0.0
1.6810756474104226e7 -3.779166214242602e6 0.0
0.0 0.0 0.0

-1.0751564334807344e7 2.276903826843416e7 0.0
2.276903826843416e7 -5.492615718752472e6 0.0
0.0 0.0 0.0

-8.453924827496404e6 1.5892092243214391e7 0.0
1.5892092243214391e7 1.897515637483435e7 0.0
0.0 0.0 0.0

-96641.57662222255 1.719919967809518e7 0.0
1.719919967809518e7 -9.492371050593067e6 0.0
0.0 0.0 0.0

-8.84580607056796e6 -2.271395733386235e6 0.0
-2.271395733386235e6 4.375354464520103e7 0.0
0.0 0.0 0.0

-1.073508807716141e7 1.3776846137261285e7 0.0
1.3776846137261285e7 1.8124506119405344e7 0.0
0.0 0.0 0.0

3.743141968166165e6 4.102435844790144e6 0.0
4.102435844790144e6 -5.0761587144955255e7 0.0
0.0 0.0 0.0

-3.0639945692617875e6 2.2861035930452745e7 0.0
2.2861035930452745e7 1.0650394067336752e6 0.0
0.0 0.0 0.0

4.252551092554569e6 2.8480242769907806e6 0.0
2.8480242769907806e6 -4.380789984969064e7 0.0
0.0 0.0 0.0

-2.1148623719897956e7 3.466543608673346e7 0.0
3.466543608673346e7 6.803505662802238e6 0.0
0.0 0.0 0.0

-8.712016133363292e6 -1.903337877670768e6 0.0
-1.903337877670768e6 4.5938718019586116e7 0.0
0.0 0.0 0.0

2.322711152253476e6 1.1199772887801666e7 0.0
1.1199772887801666e7 -2.0493534191385813e7 0.0
0.0 0.0 0.0

-9.26081870009293e6 2.0379280499895334e7 0.0
2.0379280499895334e7 4.638591215970719e6 0.0
0.0 0.0 0.0

-3.598357332129599e7 2.1058659389704242e7 0.0
2.1058659389704242e7 1.9645938606847953e6 0.0
0.0 0.0 0.0

4.010115566551447e6 3.4038597627695715e6 0.0
3.4038597627695715e6 -4.70847785921802e7 0.0
0.0 0.0 0.0

-4.1709649114321135e6 1.9212854068237763e7 0.0
1.9212854068237763e7 2.5415366529440875e6 0.0
0.0 0.0 0.0

-5.037462515989959e6 1.7961121911201518e7 0.0
1.7961121911201518e7 1.0846048051565345e7 0.0
0.0 0.0 0.0

9.686737612226471e6 1.4713203255314121e7 0.0
1.4713203255314121e7 6.223122858544106e6 0.0
0.0 0.0 0.0

443863.4342585197 1.3480524461396713e7 0.0
1.3480524461396713e7 -1.8472899850604627e7 0.0
0.0 0.0 0.0

-619197.4078131681 1.4106499340959214e7 0.0
1.4106499340959214e7 -1.8925425855819486e7 0.0
0.0 0.0 0.0

-1.612146839293752e6 1.8894052990305588e7 0.0
1.8894052990305588e7 -6.127532113059142e6 0.0
0.0 0.0 0.0

-3.045908024695584e6 2.323596731342279e7 0.0
2.323596731342279e7 1.2040544676407718e6 0.0
0.0 0.0 0.0

-1.2139521980338128e7 8.813599151754329e6 0.0
8.813599151754329e6 2.4316596022347935e7 0.0
0.0 0.0 0.0

4.630867349282954e6 2.5623542317528618e6 0.0
2.5623542317528618e6 -3.946293619746955e7 0.0
0.0 0.0 0.0

-9.154963212207213e6 2.6002543999609776e7 0.0
2.6002543999609776e7 5.381722924367629e6 0.0
0.0 0.0 0.0

4.431557286125086e6 5.561461053763557e6 0.0
5.561461053763557e6 -1.574549817719738e7 0.0
0.0 0.0 0.0

-764706.4226006945 1.5012129809744103e7 0.0
1.5012129809744103e7 -1.3003478462410355e7 0.0
0.0 0.0 0.0

4.475475642068921e6 2.775350981043324e6 0.0
2.775350981043324e6 -4.112465640107777e7 0.0
0.0 0.0 0.0

-838611.1967015341 1.4457787957987154e7 0.0
1.4457787957987154e7 -1.7227212247858718e7 0.0
0.0 0.0 0.0

-1.2071838529747324e7 5.988554909726449e6 0.0
5.988554909726449e6 2.766897768998839e7 0.0
0.0 0.0 0.0

-823069.0556644548 3.051168944201619e6 0.0
3.051168944201619e6 -1.1570326675230947e6 0.0
0.0 0.0 0.0

-4.9456720414702445e6 1.4343251623869304e7 0.0
1.4343251623869304e7 2.72513851710176e6 0.0
0.0 0.0 0.0

728136.4934077184 1.6782988636400618e7 0.0
1.6782988636400618e7 1.4853676812597664e7 0.0
0.0 0.0 0.0

5.004946913075078e6 2.4749940168664535e6 0.0
2.4749940168664535e6 -2.9607395362038426e7 0.0
0.0 0.0 0.0

-4.742236374606765e6 2.0095785657105368e7 0.0
2.0095785657105368e7 8.139832525641339e6 0.0
0.0 0.0 0.0

-9.93255113051499e6 -4.3731459147211015e6 0.0
-4.3731459147211015e6 2.5019536445564497e7 0.0
0.0 0.0 0.0

-23480.356660269317 1.5061406797647394e7 0.0
1.5061406797647394e7 -628814.7286848588 0.0
0.0 0.0 0.0

1.9183650169961667e6 1.140039280844798e7 0.0
1.140039280844798e7 -1.9659144052184235e7 0.0
0.0 0.0 0.0

-6.068719114222927e6 1.7004719829414774e7 0.0
1.7004719829414774e7 1.5050174050076023e7 0.0
0.0 0.0 0.0

-946813.6263754815 1.6415547467956778e7 0.0
1.6415547467956778e7 2.0675102574067723e7 0.0
0.0 0.0 0.0

-574592.2730629679 1.5409922687736394e7 0.0
1.5409922687736394e7 -3.3054483177698767e6 0.0
0.0 0.0 0.0

-1.0744335748729522e6 1.8761961279819384e7 0.0
1.8761961279819384e7 -5.941641109366561e6 0.0
0.0 0.0 0.0

-4.266658616540514e6 2.07193473498409e7 0.0
2.07193473498409e7 4.311667631042778e6 0.0
0.0 0.0 0.0

-292420.9363529575 1.6112251186154692e7 0.0
1.6112251186154692e7 -4.755538171667611e6 0.0
0.0 0.0 0.0

1.2907066062592063e7 5.692458208462542e6 0.0
5.692458208462542e6 -2.803413914068211e6 0.0
0.0 0.0 0.0

-9.068630274791827e6 -2.486067546482024e6 0.0
-2.486067546482024e6 4.16405658535257e7 0.0
0.0 0.0 0.0

2.8067699670577394e6 1.7583503630980335e7 0.0
1.7583503630980335e7 8.532103073683368e6 0.0
0.0 0.0 0.0

-9.40624926383661e6 -3.87946794701544e6 0.0
-3.87946794701544e6 3.4688707612000704e7 0.0
0.0 0.0 0.0

-625406.3520349408 1.6272553643932115e7 0.0
1.6272553643932115e7 -928485.1414419421 0.0
0.0 0.0 0.0

-9.539982977483343e6 7.879899393930476e6 0.0
7.879899393930476e6 2.290834802914506e7 0.0
0.0 0.0 0.0

-4.385638933502287e6 1.4383352942034863e7 0.0
1.4383352942034863e7 4.587194888941483e6 0.0
0.0 0.0 0.0

858377.1297121565 2.4466265543294847e6 0.0
2.4466265543294847e6 -1.9891082402421404e6 0.0
0.0 0.0 0.0

874879.7896413133 2.798094149964971e6 0.0
2.798094149964971e6 -1.9422735153604369e6 0.0
0.0 0.0 0.0

-84224.54156607715 1.6894313551670942e7 0.0
1.6894313551670942e7 -1.010619056765756e7 0.0
0.0 0.0 0.0

-4.987466847532334e6 1.83577617171744e7 0.0
1.83577617171744e7 -2.605872178437964e6 0.0
0.0 0.0 0.0

90260.23304233141 1.7075739832440946e7 0.0
1.7075739832440946e7 -9.451307603635784e6 0.0
0.0 0.0 0.0

-1.285541887258793e7 7.465232752329464e6 0.0
7.465232752329464e6 2.2713039417662352e7 0.0
0.0 0.0 0.0

-1.1137331546441154e6 1.4785518492904617e7 0.0
1.4785518492904617e7 -1.197806281609204e7 0.0
0.0 0.0 0.0

1.9977658661861075e6 1.1032820788488487e7 0.0
1.1032820788488487e7 -2.1769686910531864e7 0.0
0.0 0.0 0.0

-4.57171233108986e6 1.963791801748184e7 0.0
1.963791801748184e7 8.775678884626405e6 0.0
0.0 0.0 0.0

1.923123679715232e6 1.1398975983303059e7 0.0
1.1398975983303059e7 -1.851166774732692e7 0.0
0.0 0.0 0.0

-7.657175783355498e7 2.66725087863372e7 0.0
2.66725087863372e7 643499.4589164965 0.0
0.0 0.0 0.0

492285.3138158405 1.4301636263316723e7 0.0
1.4301636263316723e7 -1.3798966008548632e7 0.0
0.0 0.0 0.0

-3.749002912044474e6 2.6395370347781524e7 0.0
2.6395370347781524e7 1.9851276889880218e6 0.0
0.0 0.0 0.0

-598458.1672763503 1.4629064205980979e7 0.0
1.4629064205980979e7 3.9671813694036067e6 0.0
0.0 0.0 0.0

-7.898962740261291e6 1.6437609697552081e7 0.0
1.6437609697552081e7 1.714916990194461e7 0.0
0.0 0.0 0.0

-2.9099896554936515e6 1.78221831451182e7 0.0
1.78221831451182e7 -8.340503909498532e6 0.0
0.0 0.0 0.0

5.395605115429008e6 2.8334235552726414e7 0.0
2.8334235552726414e7 -5.305193725710361e6 0.0
0.0 0.0 0.0

-9.553990997847142e6 -4.92803717588383e6 0.0
-4.92803717588383e6 3.0148331972956173e7 0.0
0.0 0.0 0.0

5.066294885676632e6 2.625125862190818e6 0.0
2.625125862190818e6 -2.770819153020307e7 0.0
0.0 0.0 0.0

-1.5973600508295551e6 1.9184924356273096e7 0.0
1.9184924356273096e7 -4.239123763744487e6 0.0
0.0 0.0 0.0

-7.111414113087121e6 -3.789713178012675e6 0.0
-3.789713178012675e6 8.818849766583135e6 0.0
0.0 0.0 0.0

4.864168881597238e6 2.4701023095267788e6 0.0
2.4701023095267788e6 -3.499366989273168e7 0.0
0.0 0.0 0.0

-9.153157223107124e6 -2.874233872207323e6 0.0
-2.874233872207323e6 4.014382878597998e7 0.0
0.0 0.0 0.0

-8.836418239078432e6 -7.013652424842941e6 0.0
-7.013652424842941e6 2.196334034067189e7 0.0
0.0 0.0 0.0

-744093.9507683272 1.4176996227784285e7 0.0
1.4176996227784285e7 -4.437971084613109e6 0.0
0.0 0.0 0.0

-9.571236283867072e6 -4.61688272207868e6 0.0
-4.61688272207868e6 3.1232250016240396e7 0.0
0.0 0.0 0.0

5.030532338701593e6 2.649074495186996e6 0.0
2.649074495186996e6 -2.8617670488674466e7 0.0
0.0 0.0 0.0

4.934925211703805e6 2.5366594955867445e6 0.0
2.5366594955867445e6 -3.3710262802189425e7 0.0
0.0 0.0 0.0

-9.173891102518879e6 -3.236793318652968e6 0.0
-3.236793318652968e6 3.867763626372361e7 0.0
0.0 0.0 0.0

-3.44040894865873e6 1.6727856908273473e7 0.0
1.6727856908273473e7 -9.337021637075363e6 0.0
0.0 0.0 0.0

51295.41649183212 1.6480192907152198e7 0.0
1.6480192907152198e7 -1.0840449462926183e7 0.0
0.0 0.0 0.0

-3.796367586836925e6 2.095354504802231e7 0.0
2.095354504802231e7 4.6812570621539345e6 0.0
0.0 0.0 0.0

4.966399066574832e6 2.5074348174559623e6 0.0
2.5074348174559623e6 -3.285138177698791e7 0.0
0.0 0.0 0.0

-9.217148502732454e6 -3.4947768283382873e6 0.0
-3.4947768283382873e6 3.7065052599905685e7 0.0
0.0 0.0 0.0

-389776.95686188503 1.4547575861763768e7 0.0
1.4547575861763768e7 -3.7429938717689156e6 0.0
0.0 0.0 0.0

2.1157101650081016e6 1.203671596150028e7 0.0
1.203671596150028e7 -1.7535248579500385e7 0.0
0.0 0.0 0.0

-2.1472349871512563e6 2.0499849934289023e7 0.0
2.0499849934289023e7 -1.814761232249238e6 0.0
0.0 0.0 0.0

-3.782194049485237e6 1.650837817387831e7 0.0
1.650837817387831e7 -526526.2259361534 0.0
0.0 0.0 0.0

-5.835859265565086e6 1.6303152963204967e7 0.0
1.6303152963204967e7 1.9294415826088667e7 0.0
0.0 0.0 0.0

-9.319771186772972e6 -3.642649646093879e6 0.0
-3.642649646093879e6 3.576310290640725e7 0.0
0.0 0.0 0.0

5.021851705399174e6 2.452316959393937e6 0.0
2.452316959393937e6 -3.1662706092043713e7 0.0
0.0 0.0 0.0

-334363.6076834992 2.2273669689638283e7 0.0
2.2273669689638283e7 -3.4051215108475047e6 0.0
0.0 0.0 0.0

-2.5769843493634835e6 1.6101852699020302e7 0.0
1.6101852699020302e7 3.0458800739079654e7 0.0
0.0 0.0 0.0

4.539378379531923e7 5.3472256537150346e7 0.0
5.3472256537150346e7 -2.0423033827146403e7 0.0
0.0 0.0 0.0

60508.3395494516 9.678982538810872e6 0.0
9.678982538810872e6 -6.84894441217427e6 0.0
0.0 0.0 0.0

-3.0593560720409583e6 2.2733851857485533e7 0.0
2.2733851857485533e7 2.221420743129292e6 0.0
0.0 0.0 0.0

-6.268405497230133e6 1.0957285922632131e6 0.0
1.0957285922632131e6 6.285752212681593e6 0.0
0.0 0.0 0.0

-3.6210110783261904e6 2.128124659524175e7 0.0
2.128124659524175e7 4.04953759407276e6 0.0
0.0 0.0 0.0

3.568375444711608e6 3.4991023823701e6 0.0
3.4991023823701e6 -1.0612278771413967e7 0.0
0.0 0.0 0.0

4.1848847028551307e6 2.0578820466727607e7 0.0
2.0578820466727607e7 -4.860545905906216e6 0.0
0.0 0.0 0.0

-204080.19445747463 1.9522390651187662e7 0.0
1.9522390651187662e7 -5.994151997229436e6 0.0
0.0 0.0 0.0

-8.695188918055415e6 1.3682936742007049e7 0.0
1.3682936742007049e7 1.2377965660005765e7 0.0
0.0 0.0 0.0

-645702.7812842596 1.6759725641777106e7 0.0
1.6759725641777106e7 -1.1448465994485444e6 0.0
0.0 0.0 0.0

-7.604174033327691e6 -843857.2631502614 0.0
-843857.2631502614 5.0902314621562034e7 0.0
0.0 0.0 0.0

1.1528475758629078e6 4.0279317932693427e6 0.0
4.0279317932693427e6 -2.977140232182941e6 0.0
0.0 0.0 0.0

-2.9632339359471914e6 -1.5933169579761815e6 0.0
-1.5933169579761815e6 965450.9245497624 0.0
0.0 0.0 0.0

1.145021283972365e6 -1.6764517508354252e6 0.0
-1.6764517508354252e6 -2.4362583433615565e6 0.0
0.0 0.0 0.0

147538.87584526185 1.9714084262305036e7 0.0
1.9714084262305036e7 -5.78500089566287e6 0.0
0.0 0.0 0.0

-2.4454256653592493e6 1.3764088491498828e7 0.0
1.3764088491498828e7 -3.445322363702322e7 0.0
0.0 0.0 0.0

904882.6773683531 1.6259821034930518e7 0.0
1.6259821034930518e7 1.7437522650658045e7 0.0
0.0 0.0 0.0

-1.9622329245867794e6 1.6000012386477282e7 0.0
1.6000012386477282e7 -8.380303724857391e6 0.0
0.0 0.0 0.0

4.996707116073414e6 3.295209222927425e6 0.0
3.295209222927425e6 -1.810854759061598e7 0.0
0.0 0.0 0.0

-1.1215676839673503e6 1.327906780266251e7 0.0
1.327906780266251e7 -3.579000943188403e6 0.0
0.0 0.0 0.0

81149.44946663082 1.6114702875025257e7 0.0
1.6114702875025257e7 -1.0703273792837331e7 0.0
0.0 0.0 0.0

-919749.9714315245 1.2983352918586105e7 0.0
1.2983352918586105e7 -2.544892079561142e7 0.0
0.0 0.0 0.0

-1.8616197060034683e6 2.1019924930290204e7 0.0
2.1019924930290204e7 -2.0247605947098916e6 0.0
0.0 0.0 0.0

-6.929735511298976e6 1.6489844459296165e7 0.0
1.6489844459296165e7 1.6297747333837759e7 0.0
0.0 0.0 0.0

-754513.879288529 1.3666191830079267e7 0.0
1.3666191830079267e7 -3.029050227377525e6 0.0
0.0 0.0 0.0

-257189.45806205808 1.5338070386512576e7 0.0
1.5338070386512576e7 1.8117874818785992e6 0.0
0.0 0.0 0.0

-3.002434331026552e6 1.365666240753918e7 0.0
1.365666240753918e7 -1.7860248687161915e7 0.0
0.0 0.0 0.0

-1.4885854598701118e7 2.259922240185643e7 0.0
2.259922240185643e7 1.2902700959378192e6 0.0
0.0 0.0 0.0

4.202657326133451e6 3.0475287963366453e7 0.0
3.0475287963366453e7 -4.23483187828968e6 0.0
0.0 0.0 0.0

72854.58364244187 2.055661398033302e6 0.0
2.055661398033302e6 -289035.1661733209 0.0
0.0 0.0 0.0

260758.47335461664 1.7488971418387834e6 0.0
1.7488971418387834e6 -551117.329155359 0.0
0.0 0.0 0.0

-6.566853453769886e6 1.6953552791579977e7 0.0
1.6953552791579977e7 1.4646760931550631e7 0.0
0.0 0.0 0.0

-2.3438792876564153e6 1.8536501146323644e7 0.0
1.8536501146323644e7 -4.449318022199145e6 0.0
0.0 0.0 0.0

-2.775553231771318e6 2.3339095295772232e7 0.0
2.3339095295772232e7 2.092042806032001e6 0.0
0.0 0.0 0.0

-3.4552531629242115e6 2.1568509805095427e7 0.0
2.1568509805095427e7 3.476114574362676e6 0.0
0.0 0.0 0.0

5.863712496994991e6 1.6951406437015794e7 0.0
1.6951406437015794e7 5.8062530166742485e6 0.0
0.0 0.0 0.0

1.7007872271186186e6 1.6649843322346507e7 0.0
1.6649843322346507e7 -5.001210916945202e6 0.0
0.0 0.0 0.0

-879850.3654469103 1.5463722012772234e7 0.0
1.5463722012772234e7 3.370099386933187e7 0.0
0.0 0.0 0.0

-3.0642242409895346e7 2.2067929761505578e7 0.0
2.2067929761505578e7 -5.489745051331915e6 0.0
0.0 0.0 0.0

-8.828546865531877e7 2.9394739840440407e7 0.0
2.9394739840440407e7 8.366298061651159e6 0.0
0.0 0.0 0.0

-8.04123050903717e6 1.3009483731965931e7 0.0
1.3009483731965931e7 1.0469683231087621e7 0.0
0.0 0.0 0.0

-4.248020453606217e6 1.742106751451518e7 0.0
1.742106751451518e7 1.1954887776420042e7 0.0
0.0 0.0 0.0

4.019907516806557e6 5.346741039338689e6 0.0
5.346741039338689e6 -1.690315119218999e7 0.0
0.0 0.0 0.0

-9.619272902003236e6 1.3781891168309122e7 0.0
1.3781891168309122e7 1.6405821434240546e7 0.0
0.0 0.0 0.0

-3.851142702678161e6 -4.20494399889245e6 0.0
-4.20494399889245e6 5.835754308728702e6 0.0
0.0 0.0 0.0

3.4803642958105947e6 1.8257629559003342e7 0.0
1.8257629559003342e7 9.605194103735026e6 0.0
0.0 0.0 0.0

-254747.95285790507 1.3098640584309436e7 0.0
1.3098640584309436e7 -2.493943923814818e7 0.0
0.0 0.0 0.0

4.879568876460463e6 4.841547668056558e6 0.0
4.841547668056558e6 -2.0620216724555276e7 0.0
0.0 0.0 0.0

2.5622740064631505e6 1.6101914465651808e7 0.0
1.6101914465651808e7 3.9293625178215625e6 0.0
0.0 0.0 0.0

-4.707628520088073e6 3.1558837758709565e6 0.0
3.1558837758709565e6 6.7236483069431e7 0.0
0.0 0.0 0.0

-4.459686879751393e6 2.2629376142783023e7 0.0
2.2629376142783023e7 5.713710794254502e6 0.0
0.0 0.0 0.0

-1.2884676722764866e7 1.9676813857929487e7 0.0
1.9676813857929487e7 1.5225109545937395e6 0.0
0.0 0.0 0.0

-499818.5647434336 1.870503523800149e7 0.0
1.870503523800149e7 -7.038892772992505e6 0.0
0.0 0.0 0.0

-7.444880132127431e6 -7.6009321708383495e6 0.0
-7.6009321708383495e6 1.9018485506760135e7 0.0
0.0 0.0 0.0

-716436.0752986274 1.4296040284093877e7 0.0
1.4296040284093877e7 4.675225433107164e6 0.0
0.0 0.0 0.0

-9.42987258453065e6 -5.558714631792636e6 0.0
-5.558714631792636e6 2.727496030111734e7 0.0
0.0 0.0 0.0

2.5370220165386107e6 1.6913445634489454e7 0.0
1.6913445634489454e7 3.671382709223894e6 0.0
0.0 0.0 0.0

-3.4707052782575367e6 1.813845364931477e7 0.0
1.813845364931477e7 1.111079735533377e6 0.0
0.0 0.0 0.0

5.214978517156248e6 3.739003565301032e6 0.0
3.739003565301032e6 -2.2480870229443654e7 0.0
0.0 0.0 0.0

-3.340576764715544e6 1.7305102692256786e7 0.0
1.7305102692256786e7 -8.415707459364478e6 0.0
0.0 0.0 0.0

4.849168016544505e6 3.401495527316794e6 0.0
3.401495527316794e6 -1.6485871565935016e7 0.0
0.0 0.0 0.0

642530.5632561101 1.3945541116030239e7 0.0
1.3945541116030239e7 -1.6012189379300289e7 0.0
0.0 0.0 0.0

-5.324284812907044e6 2.6295079043376442e7 0.0
2.6295079043376442e7 3.697938731672612e6 0.0
0.0 0.0 0.0

-371384.96072594635 1.227763838459516e7 0.0
1.227763838459516e7 -323423.3662465108 0.0
0.0 0.0 0.0

-1.424248510293155e6 1.839294705414166e7 0.0
1.839294705414166e7 -6.943982010687012e6 0.0
0.0 0.0 0.0

-4.1858946219016416e6 2.5087416733525116e7 0.0
2.5087416733525116e7 2.9910920052649565e6 0.0
0.0 0.0 0.0

-3.935664683080904e6 2.0622032592790168e7 0.0
2.0622032592790168e7 5.41061725037183e6 0.0
0.0 0.0 0.0

-3.924259111810725e6 2.1283544391226154e7 0.0
2.1283544391226154e7 3.019600187687825e6 0.0
0.0 0.0 0.0

-2.2568909521010416e6 2.4796150411700193e7 0.0
2.4796150411700193e7 461846.64910791384 0.0
0.0 0.0 0.0

-674089.7152900908 1.7831850140785597e7 0.0
1.7831850140785597e7 -7.64630138587999e6 0.0
0.0 0.0 0.0

-4.2232622108334545e6 2.698598265911874e7 0.0
2.698598265911874e7 2.1919479478873587e6 0.0
0.0 0.0 0.0

-9.93774152666287e6 9.057791268937808e6 0.0
9.057791268937808e6 1.1901861459776416e7 0.0
0.0 0.0 0.0

1.2887664042484127e6 1.1768310248213079e7 0.0
1.1768310248213079e7 -1.2724502976844227e7 0.0
0.0 0.0 0.0

-9.123214096240737e6 -3.6398727636836986e6 0.0
-3.6398727636836986e6 1.4185034037417848e7 0.0
0.0 0.0 0.0

-9.544516258516029e6 2.1320775677851696e7 0.0
2.1320775677851696e7 5.053930550758175e6 0.0
0.0 0.0 0.0

-9.803808773418857e6 -1.435547811492834e6 0.0
-1.435547811492834e6 3.686068734444992e7 0.0
0.0 0.0 0.0

-516645.2697613015 2.299767253880479e7 0.0
2.299767253880479e7 -2.8016728786823926e6 0.0
0.0 0.0 0.0

1.0888733112009335e6 1.390342910417851e7 0.0
1.390342910417851e7 -1.597044388252876e7 0.0
0.0 0.0 0.0

-525788.4976829451 1.6109354975842876e7 0.0
1.6109354975842876e7 6.1244715382601805e6 0.0
0.0 0.0 0.0

-789842.8838709416 1.3708754976215588e7 0.0
1.3708754976215588e7 -8.067964963935159e6 0.0
0.0 0.0 0.0

1.7373383873483557e6 1.1994748812104918e7 0.0
1.1994748812104918e7 -2.152340006235908e7 0.0
0.0 0.0 0.0

3.6181564301365716e6 4.359679978474022e6 0.0
4.359679978474022e6 -1.2408957912997415e7 0.0
0.0 0.0 0.0

657427.2810664938 1.9810368025436025e7 0.0
1.9810368025436025e7 -5.613416055489713e6 0.0
0.0 0.0 0.0

-438577.55450228695 1.6283516315904342e7 0.0
1.6283516315904342e7 3.9567977258952535e6 0.0
0.0 0.0 0.0

-3.4508405680855024e6 1.607074463686029e7 0.0
1.607074463686029e7 -1.5321825171327055e6 0.0
0.0 0.0 0.0

4.711478731105467e6 2.461663246189149e6 0.0
2.461663246189149e6 -3.781959362224517e7 0.0
0.0 0.0 0.0

-1.064134768155103e7 1.543692434383286e6 0.0
1.543692434383286e6 1.6815387990775403e7 0.0
0.0 0.0 0.0

4.1745850608316828e6 4.319932754382387e6 0.0
4.319932754382387e6 -3.7763117392686754e7 0.0
0.0 0.0 0.0

-4.617896225146286e6 -6.313990089657741e6 0.0
-6.313990089657741e6 9.763217858661296e6 0.0
0.0 0.0 0.0

-3.7377182910518274e6 1.795328896966928e7 0.0
1.795328896966928e7 -84658.75540298433 0.0
0.0 0.0 0.0

-452024.40658105677 1.6310933527680254e7 0.0
1.6310933527680254e7 2.1662800451017544e6 0.0
0.0 0.0 0.0

-468839.9341111288 1.5683005491878804e7 0.0
1.5683005491878804e7 4.1799688369254526e6 0.0
0.0 0.0 0.0

-7.484543494238079e6 1.2672720119966226e7 0.0
1.2672720119966226e7 1.2628782603622733e7 0.0
0.0 0.0 0.0

-8.979028373620074e6 -6.58836838477322e6 0.0
-6.58836838477322e6 2.2523634337585844e7 0.0
0.0 0.0 0.0

959123.1779684243 2.110669589231289e7 0.0
2.110669589231289e7 -4.560163934653401e6 0.0
0.0 0.0 0.0

1.0426909642846566e6 1.764853535016393e7 0.0
1.764853535016393e7 1.2202979727352224e7 0.0
0.0 0.0 0.0

3.2939642643793104e6 7.93817852997873e6 0.0
7.93817852997873e6 -1.872555794159464e7 0.0
0.0 0.0 0.0

-9.540977057264268e6 -4.735707413153532e6 0.0
-4.735707413153532e6 2.478828375429759e7 0.0
0.0 0.0 0.0

75888.14224412385 1.686087036554643e7 0.0
1.686087036554643e7 9.371029250898246e6 0.0
0.0 0.0 0.0

-7.243991175438086e6 1.4198156958629375e7 0.0
1.4198156958629375e7 2.8798706697354592e7 0.0
0.0 0.0 0.0

1.788680505867863e6 1.7714835704332277e7 0.0
1.7714835704332277e7 9.321573693065971e6 0.0
0.0 0.0 0.0

-1.758556173624564e6 1.3268789311305441e7 0.0
1.3268789311305441e7 -3.2606353225900467e7 0.0
0.0 0.0 0.0

-6.365703194484623e6 1.671151885948147e7 0.0
1.671151885948147e7 1.7692106552888837e7 0.0
0.0 0.0 0.0

-1.2394503188737687e6 1.6121364019604206e7 0.0
1.6121364019604206e7 1.2158886758801818e7 0.0
0.0 0.0 0.0

110106.3750105151 1.740386985489368e7 0.0
1.740386985489368e7 -9.001006270173045e6 0.0
0.0 0.0 0.0

-1.3517013419842937e6 1.728852069464737e7 0.0
1.728852069464737e7 -4.017132608240114e6 0.0
0.0 0.0 0.0

3.210256507988684e6 7.635580604841575e6 0.0
7.635580604841575e6 -2.8772377536763076e7 0.0
0.0 0.0 0.0

3.4036967505242396e6 7.008278915523977e6 0.0
7.008278915523977e6 -3.0130507469224542e7 0.0
0.0 0.0 0.0

-265.53231465257704 1.3462265009456195e7 0.0
1.3462265009456195e7 -7.683886253667125e6 0.0
0.0 0.0 0.0

-1.0828036981203426e7 1.4325384755977206e7 0.0
1.4325384755977206e7 2.1201513779740497e7 0.0
0.0 0.0 0.0

-390713.43983119586 1.6484021784558635e7 0.0
1.6484021784558635e7 -1.0775115886676786e7 0.0
0.0 0.0 0.0

-8.383804465185182e6 1.8114573380623192e6 0.0
1.8114573380623192e6 4.831439303310531e7 0.0
0.0 0.0 0.0

277305.3692335617 1.2678385096924342e7 0.0
1.2678385096924342e7 -2.2556967307151254e7 0.0
0.0 0.0 0.0

-1.728471348542478e6 1.286975057555777e7 0.0
1.286975057555777e7 4.537446291751445e7 0.0
0.0 0.0 0.0

4.796057635373287e6 2.5598850576185747e6 0.0
2.5598850576185747e6 -3.6320784515194476e7 0.0
0.0 0.0 0.0

-911446.4998098842 1.859189263075346e7 0.0
1.859189263075346e7 -6.890865769297409e6 0.0
0.0 0.0 0.0

857569.8995675542 1.7531579608683914e7 0.0
1.7531579608683914e7 1.0054859865694901e7 0.0
0.0 0.0 0.0

-3.057198582000844e6 1.4220660382904211e7 0.0
1.4220660382904211e7 -2.971208049538226e7 0.0
0.0 0.0 0.0

4.812645518082482e6 9.783942666769182e6 0.0
9.783942666769182e6 1.6662623277260968e6 0.0
0.0 0.0 0.0

-1.052236537098329e6 1.6623562129573805e7 0.0
1.6623562129573805e7 -5.116619471445538e6 0.0
0.0 0.0 0.0

217820.15866743634 1.7241840754654385e7 0.0
1.7241840754654385e7 1.0420995681890808e7 0.0
0.0 0.0 0.0

-4.846535809023938e6 1.8268226313232545e7 0.0
1.8268226313232545e7 8.639435133039538e6 0.0
0.0 0.0 0.0

-4.874644510163808e6 1.7365689424559064e7 0.0
1.7365689424559064e7 1.2468483043195102e7 0.0
0.0 0.0 0.0

1.0699803860480306e6 1.0844986831188317e7 0.0
1.0844986831188317e7 -1.1337857397352494e7 0.0
0.0 0.0 0.0

-1.2390192021382596e7 1.2786091484798176e7 0.0
1.2786091484798176e7 1.9692159810436927e7 0.0
0.0 0.0 0.0

-1.0983931624949519e6 1.2855925048963128e7 0.0
1.2855925048963128e7 -3.0641889756815486e7 0.0
0.0 0.0 0.0

-1.4105930412067545e6 1.6495043010051433e7 0.0
1.6495043010051433e7 -7.660355787453009e6 0.0
0.0 0.0 0.0

-5.30035321170419e6 1.863661544734113e7 0.0
1.863661544734113e7 5.039731857510073e6 0.0
0.0 0.0 0.0

698799.7984415921 9.672192244735453e6 0.0
9.672192244735453e6 -7.088215347258425e6 0.0
0.0 0.0 0.0

-7.328340460181791e6 4.707565971319652e6 0.0
4.707565971319652e6 6.408717798096295e7 0.0
0.0 0.0 0.0

-3.3729047302050674e6 1.4360908028737387e7 0.0
1.4360908028737387e7 -3.6518038860157356e7 0.0
0.0 0.0 0.0

-5.851576871859999e6 1.6371719632406617e7 0.0
1.6371719632406617e7 1.93762770054902e7 0.0
0.0 0.0 0.0

-2.982230394972708e6 2.364226151926071e7 0.0
2.364226151926071e7 1.3368013476727374e6 0.0
0.0 0.0 0.0

1.0192628191523766e7 1.7781490207474638e7 0.0
1.7781490207474638e7 5.618415840625439e6 0.0
0.0 0.0 0.0

-4.452431703621009e6 1.6048806461079817e7 0.0
1.6048806461079817e7 2.421546775129603e7 0.0
0.0 0.0 0.0

-6.347203011375734e6 1.6708808141292827e7 0.0
1.6708808141292827e7 1.4723417156037895e7 0.0
0.0 0.0 0.0

863650.6632810622 1.2551863209668076e7 0.0
1.2551863209668076e7 -1.2422562156002508e7 0.0
0.0 0.0 0.0

-1.7513924206184736e6 1.5911903469864389e7 0.0
1.5911903469864389e7 -8.724229777090983e6 0.0
0.0 0.0 0.0

-7.159320419563612e6 1.5347407656157184e7 0.0
1.5347407656157184e7 1.0804942672135042e7 0.0
0.0 0.0 0.0

-7.28529662600244e6 1.4100409697739204e7 0.0
1.4100409697739204e7 1.3009172967999127e7 0.0
0.0 0.0 0.0

4.675574350179531e6 3.8524089489378496e6 0.0
3.8524089489378496e6 -2.114552662504884e7 0.0
0.0 0.0 0.0

-4.556293705558973e6 2.0198255489263143e7 0.0
2.0198255489263143e7 8.298224800504932e6 0.0
0.0 0.0 0.0

-886951.392569422 1.2616975619202137e7 0.0
1.2616975619202137e7 -2.328542284942762e6 0.0
0.0 0.0 0.0

4.890267418698079e6 4.081971820522222e6 0.0
4.081971820522222e6 -1.5902783275134988e7 0.0
0.0 0.0 0.0

-1.221686152410141e6 2.234190327073329e7 0.0
2.234190327073329e7 -2.7430936215749746e6 0.0
0.0 0.0 0.0

1.2716265982543463e6 1.780733980916738e7 0.0
1.780733980916738e7 1.1217937466465529e7 0.0
0.0 0.0 0.0

-9.157318345442776e6 -19342.48768860723 0.0
-19342.48768860723 4.201976840824705e7 0.0
0.0 0.0 0.0

3.34744909135394e6 1.853001610734016e7 0.0
1.853001610734016e7 7.957193926840451e6 0.0
0.0 0.0 0.0

2.2349444367964654e6 1.7404018926658396e7 0.0
1.7404018926658396e7 6.018529972159854e6 0.0
0.0 0.0 0.0

-59356.414765948895 1.5498124343528168e7 0.0
1.5498124343528168e7 -1.0930293376075676e7 0.0
0.0 0.0 0.0

4.791694009113988e6 3.6558435421395623e6 0.0
3.6558435421395623e6 -2.710487325717807e7 0.0
0.0 0.0 0.0

919518.324018091 1.4868590070007091e7 0.0
1.4868590070007091e7 7.272553679579634e6 0.0
0.0 0.0 0.0

-1759.7699000313878 1.5846050671613388e7 0.0
1.5846050671613388e7 -1.007952414408099e7 0.0
0.0 0.0 0.0

-341693.2993668695 1.5891077547482377e7 0.0
1.5891077547482377e7 7.131793421786008e6 0.0
0.0 0.0 0.0

-8.770814054046629e6 4.075609783763833e6 0.0
4.075609783763833e6 1.230936355488752e7 0.0
0.0 0.0 0.0

-4.294967219517887e6 -5.503459518070681e6 0.0
-5.503459518070681e6 9.13384569869872e6 0.0
0.0 0.0 0.0

-4.0818657332229298e6 1.8027069153947446e7 0.0
1.8027069153947446e7 2.924758933433355e6 0.0
0.0 0.0 0.0

1.7394714934614645e6 1.2441360886870021e7 0.0
1.2441360886870021e7 -1.8733512866452057e7 0.0
0.0 0.0 0.0

-1.6360787887427392e6 1.4550875103214279e7 0.0
1.4550875103214279e7 -1.2727532692863705e7 0.0
0.0 0.0 0.0

-7.619268273911625e6 1.2813667938280946e6 0.0
1.2813667938280946e6 6.232849271394931e7 0.0
0.0 0.0 0.0

-5.025616173587627e6 2.765118541481791e7 0.0
2.765118541481791e7 2.341819951917302e6 0.0
0.0 0.0 0.0

1.202422168596888e6 5.499091874834151e6 0.0
5.499091874834151e6 -3.8716065051537296e6 0.0
0.0 0.0 0.0

-752740.7193069123 1.6461003756288014e7 0.0
1.6461003756288014e7 532739.6587306235 0.0
0.0 0.0 0.0

-204287.82148209028 1.684987027377614e7 0.0
1.684987027377614e7 9.117609392157184e6 0.0
0.0 0.0 0.0

-1.1046580183114577e7 1.4414775924645836e7 0.0
1.4414775924645836e7 1.9659487941403605e7 0.0
0.0 0.0 0.0

-1.0028682181144437e7 2.0892173475372806e7 0.0
2.0892173475372806e7 3.4792100629372834e6 0.0
0.0 0.0 0.0

1.08615059106692e6 1.7514061797333874e7 0.0
1.7514061797333874e7 7.256446823943891e6 0.0
0.0 0.0 0.0

-530933.0452436507 1.7260172115397893e7 0.0
1.7260172115397893e7 8.679081790451718e6 0.0
0.0 0.0 0.0

432468.15267860796 1.5328885839803502e7 0.0
1.5328885839803502e7 -1.341431663772071e7 0.0
0.0 0.0 0.0

2.5258125302338554e6 5.35392300101457e6 0.0
5.35392300101457e6 -9.992678727329178e6 0.0
0.0 0.0 0.0

-153904.50286206184 1.5511276711121818e7 0.0
1.5511276711121818e7 -1.2219580409026623e7 0.0
0.0 0.0 0.0

-998206.0045550766 1.7445118037570048e7 0.0
1.7445118037570048e7 -8.567163567927636e6 0.0
0.0 0.0 0.0

-3.873858784365112e6 1.9966229632562697e7 0.0
1.9966229632562697e7 4.697002279641221e6 0.0
0.0 0.0 0.0

-16436.533345746342 1.8147894208080087e7 0.0
1.8147894208080087e7 -7.682272479475497e6 0.0
0.0 0.0 0.0

-274683.5714117843 1.7585160889285117e7 0.0
1.7585160889285117e7 -8.371438103540374e6 0.0
0.0 0.0 0.0

4.892344364890788e6 4.408072116068141e6 0.0
4.408072116068141e6 -2.4650420115563437e7 0.0
0.0 0.0 0.0

758909.7093289983 1.6594655176313559e7 0.0
1.6594655176313559e7 5.082360213696646e6 0.0
0.0 0.0 0.0

-1.235785437158531e6 1.7900834596619423e7 0.0
1.7900834596619423e7 -7.713187097059376e6 0.0
0.0 0.0 0.0

-1.2459437298493162e7 1.0254355646604186e7 0.0
1.0254355646604186e7 1.6493388187549599e7 0.0
0.0 0.0 0.0

-6.508290677606355e7 2.4494669015730537e7 0.0
2.4494669015730537e7 -1.1192059824009612e6 0.0
0.0 0.0 0.0

2.2756185896623164e7 2.5718981816271875e7 0.0
2.5718981816271875e7 7.585412070611629e7 0.0
0.0 0.0 0.0

-1.9642246922897313e7 2.316087737052372e7 0.0
2.316087737052372e7 -6.547429988682406e7 0.0
0.0 0.0 0.0

-7.374906529352652e6 1.6385856546668699e7 0.0
1.6385856546668699e7 1.7140511343605984e7 0.0
0.0 0.0 0.0

1.514940396896041e6 1.2241712077270186e7 0.0
1.2241712077270186e7 -1.6635357437173331e7 0.0
0.0 0.0 0.0

-2.1881793009834145e6 1.6838601285236932e7 0.0
1.6838601285236932e7 -8.536537797860479e6 0.0
0.0 0.0 0.0

-1.166449839145565e6 2.765027280465299e7 0.0
2.765027280465299e7 -1.3923451838222092e6 0.0
0.0 0.0 0.0

-450206.47135216 1.4278484380687283e7 0.0
1.4278484380687283e7 -1.5721269133785227e7 0.0
0.0 0.0 0.0

-2.073765510870998e6 1.7614250203541443e7 0.0
1.7614250203541443e7 -5.045965356379658e6 0.0
0.0 0.0 0.0

-1.1906686065409437e7 1.2362960915372916e7 0.0
1.2362960915372916e7 1.719015479821603e7 0.0
0.0 0.0 0.0

-2.509780822427656e6 2.0122750208318166e7 0.0
2.0122750208318166e7 -897775.8479246809 0.0
0.0 0.0 0.0

-573361.635320344 1.3563859852616198e7 0.0
1.3563859852616198e7 -2.3100831161126252e7 0.0
0.0 0.0 0.0

-626634.4577130278 1.6686403026800565e7 0.0
1.6686403026800565e7 -4.86631527070429e6 0.0
0.0 0.0 0.0

-5.443880879426112e6 1.8248535379522987e7 0.0
1.8248535379522987e7 9.514743103757748e6 0.0
0.0 0.0 0.0

9.842998124592261e6 1.723319184681839e7 0.0
1.723319184681839e7 -2.8689652754421756e6 0.0
0.0 0.0 0.0

-509268.8373756823 1.5230693246980486e7 0.0
1.5230693246980486e7 5.149727381893728e6 0.0
0.0 0.0 0.0

-7.019393899313021e6 1.6361977773799686e7 0.0
1.6361977773799686e7 1.570314853114431e7 0.0
0.0 0.0 0.0

-1.4898934196896419e7 1.966791890021212e7 0.0
1.966791890021212e7 -181586.29875512607 0.0
0.0 0.0 0.0

-503126.0481411335 1.544297439899149e7 0.0
1.544297439899149e7 5.202688383010482e6 0.0
0.0 0.0 0.0

-876334.9327929585 2.2674783061610516e7 0.0
2.2674783061610516e7 -2.63354675789142e6 0.0
0.0 0.0 0.0

3.585749218162512e6 2.078559541861034e7 0.0
2.078559541861034e7 -5.181856186733286e6 0.0
0.0 0.0 0.0

1.828489491218051e6 1.1769286794050196e7 0.0
1.1769286794050196e7 -1.2908292189968178e7 0.0
0.0 0.0 0.0

-8.166153062318968e6 1.5899560564635549e7 0.0
1.5899560564635549e7 1.9944387241854668e7 0.0
0.0 0.0 0.0

-31633.74921987299 1.5003013753844328e7 0.0
1.5003013753844328e7 -1.3854559937203242e7 0.0
0.0 0.0 0.0

-4.0694467051343555e6 1.4827874219681663e7 0.0
1.4827874219681663e7 3.5106073191207787e6 0.0
0.0 0.0 0.0

-8.072678422624306e6 1.5043581330143586e7 0.0
1.5043581330143586e7 1.279693511418818e7 0.0
0.0 0.0 0.0

2.147493779415499e6 6.8470018463805495e6 0.0
6.8470018463805495e6 -7.775870511619296e6 0.0
0.0 0.0 0.0

-279041.95866812416 1.5619263461401034e7 0.0
1.5619263461401034e7 6.118807752672324e6 0.0
0.0 0.0 0.0

742732.1686372992 2.0458584094164703e7 0.0
2.0458584094164703e7 -5.13671529611386e6 0.0
0.0 0.0 0.0

1.5797736855868306e6 1.0032024825049097e7 0.0
1.0032024825049097e7 -4.223511256308797e7 0.0
0.0 0.0 0.0

-1.2329929704139289e7 9.65865706465842e6 0.0
9.65865706465842e6 1.5853176254164547e7 0.0
0.0 0.0 0.0

8.77360707534691e6 2.9045915337628055e7 0.0
2.9045915337628055e7 -6.846833286934884e6 0.0
0.0 0.0 0.0

4.0219556065607667e6 7.096273048383638e6 0.0
7.096273048383638e6 -2.8023945904629264e7 0.0
0.0 0.0 0.0

-319279.98343840335 1.5431314586830389e7 0.0
1.5431314586830389e7 4.812334279359119e6 0.0
0.0 0.0 0.0

-401821.41179451696 1.896839204395227e7 0.0
1.896839204395227e7 -6.677419130868919e6 0.0
0.0 0.0 0.0

8.653138824688584e6 1.9875169872042183e7 0.0
1.9875169872042183e7 1.1270686006323043e8 0.0
0.0 0.0 0.0

-8.940145987178236e6 1.8889918637059335e7 0.0
1.8889918637059335e7 -9.28195895042319e7 0.0
0.0 0.0 0.0

1.7720724728911947e7 1.6453672003279751e7 0.0
1.6453672003279751e7 3.8260850137020503e6 0.0
0.0 0.0 0.0

4.794835074695338e6 2.027422657334313e7 0.0
2.027422657334313e7 -5.42683937191556e6 0.0
0.0 0.0 0.0

770863.3752079438 9.238096560339073e6 0.0
9.238096560339073e6 -6.413911636090206e6 0.0
0.0 0.0 0.0

9.660126734188408e6 2.634902471447202e7 0.0
2.634902471447202e7 -7.182025836824469e6 0.0
0.0 0.0 0.0

-3.74931393648085e6 1.710706434872778e7 0.0
1.710706434872778e7 1.4084452281303221e7 0.0
0.0 0.0 0.0

8.009763633980079e6 1.7043524569907717e7 0.0
1.7043524569907717e7 -2.3954056775201103e6 0.0
0.0 0.0 0.0

-4.667562994491918e6 1.9587798334398784e7 0.0
1.9587798334398784e7 6.444084546783871e6 0.0
0.0 0.0 0.0

-6.674531940726807e6 1.353087241509754e7 0.0
1.353087241509754e7 1.1271758146147307e7 0.0
0.0 0.0 0.0

803337.398332848 4.089971797013442e6 0.0
4.089971797013442e6 -4.328099267998951e6 0.0
0.0 0.0 0.0

1.6383987417073185e6 1.789096244322521e7 0.0
1.789096244322521e7 1.2154928466349902e7 0.0
0.0 0.0 0.0

-1.921965876282443e6 1.9930647043913506e7 0.0
1.9930647043913506e7 -4.1209427507319613e6 0.0
0.0 0.0 0.0

-7.657364446017317e6 1.6424110533450706e7 0.0
1.6424110533450706e7 1.7994084595675543e7 0.0
0.0 0.0 0.0

-5.301585570157317e6 2.0396639276995502e7 0.0
2.0396639276995502e7 7.941473267625858e6 0.0
0.0 0.0 0.0

-4.223307264461694e6 1.9320140981315583e7 0.0
1.9320140981315583e7 6.927016280588085e6 0.0
0.0 0.0 0.0

-1.1805709361084325e6 1.3700663989528665e7 0.0
1.3700663989528665e7 -5.200694498300208e6 0.0
0.0 0.0 0.0

-5.587576767926546e6 1.6271643000885036e7 0.0
1.6271643000885036e7 2.0191292520780772e7 0.0
0.0 0.0 0.0

-4.303632198601525e6 1.9937088875709195e7 0.0
1.9937088875709195e7 7.522157976922476e6 0.0
0.0 0.0 0.0

-4.47060110222947e6 1.0533759061847635e7 0.0
1.0533759061847635e7 5.098624090359136e6 0.0
0.0 0.0 0.0

-2.9136900942305814e7 2.468286749347979e7 0.0
2.468286749347979e7 2.2675062517991755e6 0.0
0.0 0.0 0.0

-9.528338030453026e6 2.55816386562539e6 0.0
2.55816386562539e6 4.189704639138129e7 0.0
0.0 0.0 0.0

-6.523538853168713e6 2.06073497116398e7 0.0
2.06073497116398e7 6.9424282701267805e6 0.0
0.0 0.0 0.0

-6.308266539733073e6 2.425942122856301e7 0.0
2.425942122856301e7 5.979417621051792e6 0.0
0.0 0.0 0.0

560354.3372595636 1.3137024704459568e7 0.0
1.3137024704459568e7 -2.1071098427609943e7 0.0
0.0 0.0 0.0

-3.1225208018326713e6 2.583390212493693e7 0.0
2.583390212493693e7 2.5750894034259506e6 0.0
0.0 0.0 0.0

-6.266634371712215e6 2.84747812932462e7 0.0
2.84747812932462e7 2.3908801145144277e6 0.0
0.0 0.0 0.0

-7.53396344272809e6 2.9243451483236324e7 0.0
2.9243451483236324e7 2.6885546209891457e6 0.0
0.0 0.0 0.0

-2.4936622537861113e6 2.1563404663121603e7 0.0
2.1563404663121603e7 -1.4755562015566141e6 0.0
0.0 0.0 0.0

-1.2195096708874917e7 9.94564332830808e6 0.0
9.94564332830808e6 2.327000381385006e7 0.0
0.0 0.0 0.0

5.13179193823365e6 2.9100140838523386e6 0.0
2.9100140838523386e6 -2.313072434381977e7 0.0
0.0 0.0 0.0

-6.25822734036485e6 1.6634619097484428e7 0.0
1.6634619097484428e7 1.8109040484273583e7 0.0
0.0 0.0 0.0

-1.0526008584049488e6 2.3254980746557213e7 0.0
2.3254980746557213e7 -2.0371110862904792e6 0.0
0.0 0.0 0.0

786546.7644296698 1.3579979562515378e7 0.0
1.3579979562515378e7 -1.6940728450958706e7 0.0
0.0 0.0 0.0

-9.816090906117676e6 -2.920128133552719e6 0.0
-2.920128133552719e6 3.217813433930093e7 0.0
0.0 0.0 0.0

103007.30474362841 1.6143267684419282e7 0.0
1.6143267684419282e7 594364.7437582868 0.0
0.0 0.0 0.0

-52135.039159697946 1.6242284725103715e7 0.0
1.6242284725103715e7 -9.393712769949839e6 0.0
0.0 0.0 0.0

-73444.46638522763 1.51552949494711e7 0.0
1.51552949494711e7 -1.1710131145759653e7 0.0
0.0 0.0 0.0

-1.8339286229034092e6 1.3230221354232237e7 0.0
1.3230221354232237e7 -1.0936293196779769e7 0.0
0.0 0.0 0.0

-6.732438793077235e6 -4.457352183399609e6 0.0
-4.457352183399609e6 1.0183766302314525e7 0.0
0.0 0.0 0.0

47943.765532247606 1.3858310665412096e7 0.0
1.3858310665412096e7 -2.5107273130056234e6 0.0
0.0 0.0 0.0

876526.0552288119 1.5681083808883455e7 0.0
1.5681083808883455e7 4.456877984308876e6 0.0
0.0 0.0 0.0

1.1117545940826425e7 1.5843809168446617e7 0.0
1.5843809168446617e7 2.242008464802082e6 0.0
0.0 0.0 0.0

-8.557346364826335e6 3.066063165941667e7 0.0
3.066063165941667e7 3.18828373529828e6 0.0
0.0 0.0 0.0

-7.008371632411597e6 1.3805081171524376e7 0.0
1.3805081171524376e7 1.2203647689527504e7 0.0
0.0 0.0 0.0

-5.53433049519312e6 1.5753313230815127e7 0.0
1.5753313230815127e7 -4.078329521283697e7 0.0
0.0 0.0 0.0

4.334168392669989e6 6.560440665620653e6 0.0
6.560440665620653e6 -2.3793636202596582e7 0.0
0.0 0.0 0.0

-8.001590940949031e6 -7.631345726506381e6 0.0
-7.631345726506381e6 1.900399719860307e7 0.0
0.0 0.0 0.0

-1.3719167146883236e7 2.3364600243850425e7 0.0
2.3364600243850425e7 -1.8998047957448708e6 0.0
0.0 0.0 0.0

-1.3644128226852719e7 2.0250848299627293e7 0.0
2.0250848299627293e7 -1.8715514660185808e6 0.0
0.0 0.0 0.0

-929833.1836029133 1.4240897482914606e7 0.0
1.4240897482914606e7 -6.699118246566156e6 0.0
0.0 0.0 0.0

-2.0453437363262742e6 2.2968223468526483e7 0.0
2.2968223468526483e7 -1.0054218481689941e6 0.0
0.0 0.0 0.0

2.9906659742524475e6 6.34214806812316e6 0.0
6.34214806812316e6 -4.052365373008421e7 0.0
0.0 0.0 0.0

3.9216752259874158e6 1.8153996352004893e7 0.0
1.8153996352004893e7 -4.27999319813653e6 0.0
0.0 0.0 0.0

1.8044390249530138e6 1.795679295162656e7 0.0
1.795679295162656e7 7.952776035360528e6 0.0
0.0 0.0 0.0

2.0807765635883594e6 1.2060993961853564e7 0.0
1.2060993961853564e7 -1.6404939732779523e7 0.0
0.0 0.0 0.0

-3.1643910199824064e6 1.899998220528403e7 0.0
1.899998220528403e7 799522.1560884854 0.0
0.0 0.0 0.0

1.8463836740065534e6 1.1403713079209235e7 0.0
1.1403713079209235e7 -1.2258280801872574e7 0.0
0.0 0.0 0.0

1.6760701168230437e6 1.185045611498287e7 0.0
1.185045611498287e7 -1.7617938105347324e7 0.0
0.0 0.0 0.0

-989739.4682151708 1.3895986746165892e7 0.0
1.3895986746165892e7 -1.1691856613096876e7 0.0
0.0 0.0 0.0

-6.5985070557852555e6 2.348905198248049e7 0.0
2.348905198248049e7 5.692931360161783e6 0.0
0.0 0.0 0.0

-9.769650974533163e6 1.8531546163991768e7 0.0
1.8531546163991768e7 -4.733318428131057e7 0.0
0.0 0.0 0.0

7.362347859540319e6 2.6022390168055393e7 0.0
2.6022390168055393e7 -5.443770026777454e6 0.0
0.0 0.0 0.0

1.5357310493846838e6 2.045936948173585e7 0.0
2.045936948173585e7 -5.056801816302282e6 0.0
0.0 0.0 0.0

-3.1556716912746774e6 2.4350410222117797e7 0.0
2.4350410222117797e7 2.9157745127654904e6 0.0
0.0 0.0 0.0

-4.831441029484389e6 1.948515200607457e7 0.0
1.948515200607457e7 8.616205648590246e6 0.0
0.0 0.0 0.0

3.1424900770477746e6 5.437733337395546e6 0.0
5.437733337395546e6 -4.2135126969902895e7 0.0
0.0 0.0 0.0

-5.070559412928002e6 1.798299378221489e7 0.0
1.798299378221489e7 1.1723960890466783e7 0.0
0.0 0.0 0.0

3.8682743301586006e6 5.279104031090927e6 0.0
5.279104031090927e6 -3.4363233207268834e7 0.0
0.0 0.0 0.0

-1.1601403458480309e6 1.7003440734852135e7 0.0
1.7003440734852135e7 -6.530096705776508e6 0.0
0.0 0.0 0.0

-971363.0464125287 1.6425145348351143e7 0.0
1.6425145348351143e7 -6.840779145382972e6 0.0
0.0 0.0 0.0

-293102.91742020915 1.3480214675664648e7 0.0
1.3480214675664648e7 -3.2727553874638304e6 0.0
0.0 0.0 0.0

-4.793699927854616e6 1.6848434193840798e7 0.0
1.6848434193840798e7 1.2931578114653315e7 0.0
0.0 0.0 0.0

-3.0122928163212715e6 2.0843443750799682e7 0.0
2.0843443750799682e7 -863825.451535116 0.0
0.0 0.0 0.0

-6.039803242582401e6 1.698207285187296e7 0.0
1.698207285187296e7 1.0826854559645465e7 0.0
0.0 0.0 0.0

-8.583843003836729e6 -6.8361890500286175e6 0.0
-6.8361890500286175e6 2.312456591968434e7 0.0
0.0 0.0 0.0

3.897663669810079e6 6.327668500677773e6 0.0
6.327668500677773e6 -2.5166200115920212e7 0.0
0.0 0.0 0.0

3.313142149268938e6 8.1262057730609765e6 0.0
8.1262057730609765e6 -2.0105460361629885e7 0.0
0.0 0.0 0.0

-1.358131607723494e6 2.4799075113427557e7 0.0
2.4799075113427557e7 -277178.26554890175 0.0
0.0 0.0 0.0

-1.3983720403753172e6 1.67890454482588e7 0.0
1.67890454482588e7 -7.334743680390628e6 0.0
0.0 0.0 0.0

1.196005986148959e6 1.2581717953931656e7 0.0
1.2581717953931656e7 -2.1318721252792206e7 0.0
0.0 0.0 0.0

-764950.1405997984 1.6949401386513595e7 0.0
1.6949401386513595e7 1.2727536506641151e7 0.0
0.0 0.0 0.0

-9.399107118323676e6 16394.610873743386 0.0
16394.610873743386 1.5207533107756276e7 0.0
0.0 0.0 0.0

1.9162680037057349e6 1.8560531308583062e7 0.0
1.8560531308583062e7 9.275544534072993e6 0.0
0.0 0.0 0.0

-1.195344919460762e7 2.568188659349462e7 0.0
2.568188659349462e7 7.482982549279645e6 0.0
0.0 0.0 0.0

1.4829253775263366e6 1.62696745198798e7 0.0
1.62696745198798e7 4.756919534255174e6 0.0
0.0 0.0 0.0

425677.08877722407 1.535283351218061e7 0.0
1.535283351218061e7 8.731303541732796e6 0.0
0.0 0.0 0.0

-4.912690039717078e6 2.2984348968309708e7 0.0
2.2984348968309708e7 5.599262884982865e6 0.0
0.0 0.0 0.0

-5.425855583115535e6 1.7332924443212662e7 0.0
1.7332924443212662e7 1.3175897885319814e7 0.0
0.0 0.0 0.0

-4.905253123436351e6 1.537754821138592e7 0.0
1.537754821138592e7 2.3362295642915763e7 0.0
0.0 0.0 0.0

-1.2647283938282013e7 2.087480565116282e7 0.0
2.087480565116282e7 -377728.3425803236 0.0
0.0 0.0 0.0

-1.0256712515454717e7 1.9592618560170665e7 0.0
1.9592618560170665e7 2.67411400566156e6 0.0
0.0 0.0 0.0

-1.0993807822037261e7 1.21053419035449e7 0.0
1.21053419035449e7 6.11960103762097e6 0.0
0.0 0.0 0.0

-5.793633079371035e7 2.691811971959559e7 0.0
2.691811971959559e7 3.870211280432131e6 0.0
0.0 0.0 0.0

6.395342006476543e6 1.6192046960624533e7 0.0
1.6192046960624533e7 3.4304892598376847e6 0.0
0.0 0.0 0.0

-178935.087767764 1.334693679555651e7 0.0
1.334693679555651e7 -2.148299161601697e7 0.0
0.0 0.0 0.0

-4.806378320983e6 1.9064524865672417e7 0.0
1.9064524865672417e7 6.554326386461167e6 0.0
0.0 0.0 0.0

-234046.98501356505 1.6056476483302202e7 0.0
1.6056476483302202e7 -1.1663301024312036e7 0.0
0.0 0.0 0.0

2.811421069757055e7 1.3218627520539341e7 0.0
1.3218627520539341e7 295527.539259512 0.0
0.0 0.0 0.0

-3.3946979216081253e6 881999.4847980625 0.0
881999.4847980625 4.936636908763014e6 0.0
0.0 0.0 0.0

3.784437324265342e6 3.415350845359644e6 0.0
3.415350845359644e6 -1.1468683516702428e7 0.0
0.0 0.0 0.0

-694220.7772264779 1.6566910530292232e7 0.0
1.6566910530292232e7 -9.837034155625578e6 0.0
0.0 0.0 0.0

-358672.15429393266 1.4592842014053227e7 0.0
1.4592842014053227e7 -1.361741705009446e6 0.0
0.0 0.0 0.0

-1.079162218836785e7 2.1910372991735106e6 0.0
2.1910372991735106e6 3.1972591402790375e7 0.0
0.0 0.0 0.0

2.525311579802053e6 2.1057435852891043e7 0.0
2.1057435852891043e7 -4.927994866161509e6 0.0
0.0 0.0 0.0

-1.236700493155188e7 3.1675675388999104e7 0.0
3.1675675388999104e7 3.507327351978996e6 0.0
0.0 0.0 0.0

5.928485491343343e6 1.6736811794068033e7 0.0
1.6736811794068033e7 2.604670163859475e6 0.0
0.0 0.0 0.0

-6.340846810671567e6 -7.713967415237665e6 0.0
-7.713967415237665e6 1.5976140467920035e7 0.0
0.0 0.0 0.0

-1.6968278721693262e7 2.139356206709682e7 0.0
2.139356206709682e7 4.4362314014820745e6 0.0
0.0 0.0 0.0

178807.21545763104 1.4313202949997557e7 0.0
1.4313202949997557e7 4.546273550544752e6 0.0
0.0 0.0 0.0

-1.6851793109168414e7 3.3098662490222637e7 0.0
3.3098662490222637e7 4.1188224514974104e6 0.0
0.0 0.0 0.0

-9.663327423616704e6 1.4263833078682229e7 0.0
1.4263833078682229e7 1.7315421735703535e7 0.0
0.0 0.0 0.0

1.158543798995639e6 1.562769221687526e7 0.0
1.562769221687526e7 -2.4920916272438033e6 0.0
0.0 0.0 0.0

-3.9188762342544235e6 1.4157694367554136e7 0.0
1.4157694367554136e7 -1.7175046192853384e7 0.0
0.0 0.0 0.0

-1.2054877755066329e6 1.4377669696838532e7 0.0
1.4377669696838532e7 -8.76742150484369e6 0.0
0.0 0.0 0.0

3.5405129588703103e6 1.7759086584302496e7 0.0
1.7759086584302496e7 -4.4755344829691965e6 0.0
0.0 0.0 0.0

1.687566341588989e7 3.114853872946482e7 0.0
3.114853872946482e7 -1.4189387900308363e7 0.0
0.0 0.0 0.0

-6.946453524875779e6 -4.074975750213278e6 0.0
-4.074975750213278e6 1.2224177730130533e7 0.0
0.0 0.0 0.0

-1.2287328263890583e6 2.6754795560100395e7 0.0
2.6754795560100395e7 -1.2980504661315356e6 0.0
0.0 0.0 0.0

-153513.86203109764 2.34239138645255e7 0.0
2.34239138645255e7 -1.782093184425687e6 0.0
0.0 0.0 0.0

-1.0642518844723338e7 -3.0541333892649086e6 0.0
-3.0541333892649086e6 2.5163260190679822e7 0.0
0.0 0.0 0.0

5.115029647083247e6 2.8981704565018546e6 0.0
2.8981704565018546e6 -2.331626423512215e7 0.0
0.0 0.0 0.0

-4.393419578351378e6 2.1304198374497484e7 0.0
2.1304198374497484e7 7.034985783849753e6 0.0
0.0 0.0 0.0

971116.5572283808 1.838220088369971e7 0.0
1.838220088369971e7 1.0254429438464774e7 0.0
0.0 0.0 0.0

-3.4650089772148426e6 3.073194580192975e6 0.0
3.073194580192975e6 6.175950668207057e6 0.0
0.0 0.0 0.0

-1.0736261007656988e7 1.233091407400669e7 0.0
1.233091407400669e7 1.7186862514099218e7 0.0
0.0 0.0 0.0

273200.7161924094 1.804702120853388e7 0.0
1.804702120853388e7 1.088608852902202e7 0.0
0.0 0.0 0.0

-558823.5438253586 1.4265141370265337e7 0.0
1.4265141370265337e7 -9.166688273269845e6 0.0
0.0 0.0 0.0

-1.3916702401565816e6 1.367975082762916e7 0.0
1.367975082762916e7 -1.2414345989880493e7 0.0
0.0 0.0 0.0

-1.4730143172701034e6 2.193039878704732e7 0.0
2.193039878704732e7 -2.7692767512928317e6 0.0
0.0 0.0 0.0

-4.51843909419633e6 -238940.45455467113 0.0
-238940.45455467113 7.22883396089595e6 0.0
0.0 0.0 0.0

-3.778531283697267e6 1.6070012224271247e7 0.0
1.6070012224271247e7 2.681311951651017e6 0.0
0.0 0.0 0.0

-1.0644347360662183e7 1.4743616575426152e7 0.0
1.4743616575426152e7 2.0305199519561835e7 0.0
0.0 0.0 0.0

1.123118753668047e6 1.212491410744703e7 0.0
1.212491410744703e7 -1.0290173451219626e7 0.0
0.0 0.0 0.0

-868034.5344188383 1.843833614912759e7 0.0
1.843833614912759e7 -7.563289286325821e6 0.0
0.0 0.0 0.0

-815102.5296640446 2.8759980634353697e7 0.0
2.8759980634353697e7 -24889.71311900104 0.0
0.0 0.0 0.0

797062.7611834696 1.2341625041099854e7 0.0
1.2341625041099854e7 -2.26248604474687e7 0.0
0.0 0.0 0.0

-3.69934627323108e7 3.3368953033029594e7 0.0
3.3368953033029594e7 7.027443112778945e6 0.0
0.0 0.0 0.0

1.4433193381922136e6 2.991647080177232e6 0.0
2.991647080177232e6 -3.4358266508702068e6 0.0
0.0 0.0 0.0

1.266698992825632e6 3.1141528902595886e6 0.0
3.1141528902595886e6 -4.204242790472157e6 0.0
0.0 0.0 0.0

1.9057209261759464e6 1.671411572905635e7 0.0
1.671411572905635e7 1.5282341976821214e7 0.0
0.0 0.0 0.0

1.3270020797671266e6 1.7926302927760057e7 0.0
1.7926302927760057e7 1.261111823276515e7 0.0
0.0 0.0 0.0

-647155.3315464519 1.6186420107233621e7 0.0
1.6186420107233621e7 5.727384697080031e6 0.0
0.0 0.0 0.0

-1.0851806584378678e7 1.0489291895014046e7 0.0
1.0489291895014046e7 1.710763790558397e7 0.0
0.0 0.0 0.0

2.656302767838546e6 4.790565554442096e6 0.0
4.790565554442096e6 -1.214920602650644e6 0.0
0.0 0.0 0.0

-2.7961010006038705e6 1.7445808339057297e7 0.0
1.7445808339057297e7 7.296416323114896e6 0.0
0.0 0.0 0.0

-2.226961123126007e6 2.28979529062229e7 0.0
2.28979529062229e7 384688.94693509466 0.0
0.0 0.0 0.0

172120.3395209927 1.2957343226659039e7 0.0
1.2957343226659039e7 -2.358248378606797e7 0.0
0.0 0.0 0.0

3.99982139410561e6 1.8721653006382428e7 0.0
1.8721653006382428e7 9.3534827380285e6 0.0
0.0 0.0 0.0

8.353103854235143e6 1.7092150853614423e7 0.0
1.7092150853614423e7 4.852230617520182e6 0.0
0.0 0.0 0.0

-2.2775135088158607e7 3.4198190949730895e7 0.0
3.4198190949730895e7 6.084533738374019e6 0.0
0.0 0.0 0.0

-562779.2563735107 1.5674781523360593e7 0.0
1.5674781523360593e7 7.128620690540265e6 0.0
0.0 0.0 0.0

-7.003339501304977e6 6.915776696324742e6 0.0
6.915776696324742e6 6.784335655164098e6 0.0
0.0 0.0 0.0

-1.3104526139892142e7 8.948496286645668e6 0.0
8.948496286645668e6 1.9391349343993507e7 0.0
0.0 0.0 0.0

-2.481740250303225e6 2.238482946079201e7 0.0
2.238482946079201e7 -427617.8695773476 0.0
0.0 0.0 0.0

1.2771647311226265e6 1.775192701041826e7 0.0
1.775192701041826e7 1.2667914253995193e7 0.0
0.0 0.0 0.0

-9.835778853295779e6 2.7027125492052627e6 0.0
2.7027125492052627e6 4.642452902661431e7 0.0
0.0 0.0 0.0

-1.9949266678721835e6 1.639108683824294e7 0.0
1.639108683824294e7 1.0732046750176284e7 0.0
0.0 0.0 0.0

-6.2148802877038345e6 1.4871605659692522e7 0.0
1.4871605659692522e7 -2.399280049083825e7 0.0
0.0 0.0 0.0

615588.8712660894 1.8195674849929556e7 0.0
1.8195674849929556e7 1.1726263503514476e7 0.0
0.0 0.0 0.0

-8.026094711592969e6 1.6110752164074883e7 0.0
1.6110752164074883e7 1.8449107895894766e7 0.0
0.0 0.0 0.0

-274768.227139201 1.3547875402582526e7 0.0
1.3547875402582526e7 -9.498142389281888e6 0.0
0.0 0.0 0.0

-156883.45378394052 1.623244114464389e7 0.0
1.623244114464389e7 5.518752028936391e7 0.0
0.0 0.0 0.0

2.5407587705731886e6 2.027229247175301e7 0.0
2.027229247175301e7 -5.003352083645407e6 0.0
0.0 0.0 0.0

239192.660113642 1.4816293572321095e7 0.0
1.4816293572321095e7 -1.4083646833861351e7 0.0
0.0 0.0 0.0

-204774.24153830274 1.1247129628115153e7 0.0
1.1247129628115153e7 -5.184447007337677e6 0.0
0.0 0.0 0.0

4.919544646937976e6 3.645959340199865e6 0.0
3.645959340199865e6 -2.8616748493326493e7 0.0
0.0 0.0 0.0

-668906.7308655138 2.770970421131809e7 0.0
2.770970421131809e7 419282.90299213195 0.0
0.0 0.0 0.0

-1.298869221604912e7 9.879660889764152e6 0.0
9.879660889764152e6 1.986308611921525e7 0.0
0.0 0.0 0.0

916814.269532368 1.5494733180588868e7 0.0
1.5494733180588868e7 1.124702234914893e7 0.0
0.0 0.0 0.0

-7.677641929557689e6 2.0950343934399806e7 0.0
2.0950343934399806e7 5.530254209769478e6 0.0
0.0 0.0 0.0

-3.7544658308954407e6 1.752955140837786e7 0.0
1.752955140837786e7 1.447899788160649e6 0.0
0.0 0.0 0.0

-1.1768174689387621e7 1.3151567165042736e7 0.0
1.3151567165042736e7 1.7278337547003895e7 0.0
0.0 0.0 0.0

2.5609617499699267e6 9.488117671022702e6 0.0
9.488117671022702e6 -1.665414972321143e7 0.0
0.0 0.0 0.0

-1.1503570654973859e7 3.0267077432987325e7 0.0
3.0267077432987325e7 6.507178531530967e6 0.0
0.0 0.0 0.0

1.4590144417019784e7 1.0891227604587106e7 0.0
1.0891227604587106e7 21836.17121680267 0.0
0.0 0.0 0.0

-9.02823386306502e6 -1.944241483497512e6 0.0
-1.944241483497512e6 1.1874574956710955e7 0.0
0.0 0.0 0.0

-5.668326786620969e6 2.3775889841571607e7 0.0
2.3775889841571607e7 5.424937910276059e6 0.0
0.0 0.0 0.0

-2.2144640998141687e7 1.677970038071198e7 0.0
1.677970038071198e7 8.77383141937274e6 0.0
0.0 0.0 0.0

-2.038582161478104e6 1.7634017677807212e7 0.0
1.7634017677807212e7 -7.027162412681451e6 0.0
0.0 0.0 0.0

-3.751287613678963e7 2.549823437087514e7 0.0
2.549823437087514e7 3.74406779501557e6 0.0
0.0 0.0 0.0

-1.951512832955021e6 1.7787208141004916e7 0.0
1.7787208141004916e7 -4.100510798134262e6 0.0
0.0 0.0 0.0

-6.908831610076666e6 1.5348666836595654e7 0.0
1.5348666836595654e7 1.3220361981826201e7 0.0
0.0 0.0 0.0

-1.1741547118863486e7 9.472562462404061e6 0.0
9.472562462404061e6 1.7954107105449278e7 0.0
0.0 0.0 0.0

-8.366770807888907e6 1.3330829443162221e7 0.0
1.3330829443162221e7 1.1462401495832453e7 0.0
0.0 0.0 0.0

-5.037777173072277e6 1.9406929725114595e7 0.0
1.9406929725114595e7 9.352162831076497e6 0.0
0.0 0.0 0.0

-1.030047973152861e7 -1.1656899642412763e6 0.0
-1.1656899642412763e6 3.2002767723841704e7 0.0
0.0 0.0 0.0

-232724.02596194835 1.3685050854410272e7 0.0
1.3685050854410272e7 -1.2212147185674326e6 0.0
0.0 0.0 0.0

1.8343955984536149e6 1.0483417901083997e7 0.0
1.0483417901083997e7 -1.0746706971198969e7 0.0
0.0 0.0 0.0

1.0656400809590667e6 1.3656947635249428e7 0.0
1.3656947635249428e7 -1.446678559664999e7 0.0
0.0 0.0 0.0

-7.947296401085093e6 -6.118568107114972e6 0.0
-6.118568107114972e6 1.9712397716643605e7 0.0
0.0 0.0 0.0

-869147.7017791755 1.403421840807702e7 0.0
1.403421840807702e7 121426.49343675136 0.0
0.0 0.0 0.0

-6.813733973889558e6 2.11863090202674e7 0.0
2.11863090202674e7 6.310501614527978e6 0.0
0.0 0.0 0.0

-894393.7881088741 1.698996868229901e7 0.0
1.698996868229901e7 1.6469582208376855e7 0.0
0.0 0.0 0.0

-341959.72182175424 1.6072593419661054e7 0.0
1.6072593419661054e7 -1.0177329179853836e7 0.0
0.0 0.0 0.0

-143789.3249201316 1.5552850707071701e7 0.0
1.5552850707071701e7 2.6522822611420397e6 0.0
0.0 0.0 0.0

-1.3176482464066045e6 2.605181167820364e7 0.0
2.605181167820364e7 -875280.0591011369 0.0
0.0 0.0 0.0

119449.03563353699 1.6603293816198183e7 0.0
1.6603293816198183e7 -8.949117625556987e6 0.0
0.0 0.0 0.0

6.157179997294972e7 2.330066716540339e7 0.0
2.330066716540339e7 1.2517265434598215e6 0.0
0.0 0.0 0.0

2.0382429606261605e6 1.6135909862516413e7 0.0
1.6135909862516413e7 -3.9646695906918067e6 0.0
0.0 0.0 0.0

-626399.3109746315 1.4613764888541168e7 0.0
1.4613764888541168e7 -1.624656475815955e7 0.0
0.0 0.0 0.0

-56722.14053257182 1.8037991717316702e7 0.0
1.8037991717316702e7 -7.507861715297653e6 0.0
0.0 0.0 0.0

-1.9930608685365546e7 2.2834119044971686e7 0.0
2.2834119044971686e7 3.1174955695894137e6 0.0
0.0 0.0 0.0

-5.430704357048867e6 2.0508408201806635e7 0.0
2.0508408201806635e7 7.273127739343934e6 0.0
0.0 0.0 0.0

8.958291551841006e6 1.6827220963993303e7 0.0
1.6827220963993303e7 685268.2138268203 0.0
0.0 0.0 0.0

-545037.298403386 1.2763364163664555e7 0.0
1.2763364163664555e7 -2.782936777596947e7 0.0
0.0 0.0 0.0

2.0705103647363028e6 1.6019473845606577e7 0.0
1.6019473845606577e7 1.9301705079993304e7 0.0
0.0 0.0 0.0

4.663431370835256e6 5.41116361112175e6 0.0
5.41116361112175e6 -1.87433769163367e7 0.0
0.0 0.0 0.0

108709.51288265316 1.8639677046139054e7 0.0
1.8639677046139054e7 -7.0184508712992035e6 0.0
0.0 0.0 0.0

4.1651306520055793e6 4.596875041280294e6 0.0
4.596875041280294e6 -3.3401817539704464e7 0.0
0.0 0.0 0.0

-830082.983414147 1.8257743609652907e7 0.0
1.8257743609652907e7 -7.730306864686731e6 0.0
0.0 0.0 0.0

1.6722048549612944e6 2.1150411218491476e7 0.0
2.1150411218491476e7 -4.70504026928902e6 0.0
0.0 0.0 0.0

-3.3931627091700854e6 1.733278156457719e7 0.0
1.733278156457719e7 1.0344561324698629e6 0.0
0.0 0.0 0.0

-1.0575922863169312e7 2.5459375700128138e7 0.0
2.5459375700128138e7 6.053295217150816e6 0.0
0.0 0.0 0.0

-8.3378135075972695e6 1.6122195205042392e7 0.0
1.6122195205042392e7 1.842629392366647e7 0.0
0.0 0.0 0.0

-340848.24873664323 1.479902723663763e7 0.0
1.479902723663763e7 6.671866116068645e6 0.0
0.0 0.0 0.0

-3.03855234954431e7 2.65807183847135e7 0.0
2.65807183847135e7 9.269678113690155e6 0.0
0.0 0.0 0.0

7.71255732520744e6 1.741355334313241e7 0.0
1.741355334313241e7 6.597981167953175e6 0.0
0.0 0.0 0.0

-5.362874027706646e6 9.747401794686852e6 0.0
9.747401794686852e6 3.956966427449833e6 0.0
0.0 0.0 0.0

-5.011808619684048e6 2.32962521769467e7 0.0
2.32962521769467e7 5.049516733138664e6 0.0
0.0 0.0 0.0

-2.326964039195106e6 1.819060153848982e7 0.0
1.819060153848982e7 -5.303690696442213e6 0.0
0.0 0.0 0.0

1.2015718085160977e6 1.2448240077335922e7 0.0
1.2448240077335922e7 -1.0873134930355594e7 0.0
0.0 0.0 0.0

5.151401015924508e6 2.783411910625392e6 0.0
2.783411910625392e6 -2.4466404644271046e7 0.0
0.0 0.0 0.0

-581119.2457484028 1.362572592013047e7 0.0
1.362572592013047e7 -7.687694027764079e6 0.0
0.0 0.0 0.0

3.123050413588588e7 5.748392665776161e6 0.0
5.748392665776161e6 -2.683663930121077e6 0.0
0.0 0.0 0.0

-8.1403325826533055e6 1.5994393479867889e7 0.0
1.5994393479867889e7 1.9135809434018668e7 0.0
0.0 0.0 0.0

-6.377562893284811e6 2.3001468309944034e7 0.0
2.3001468309944034e7 6.009479736220814e6 0.0
0.0 0.0 0.0

-9.554948323385105e6 -4.967797968575784e6 0.0
-4.967797968575784e6 2.870396064624738e7 0.0
0.0 0.0 0.0

-3.2545245474871863e6 2.5943768023351204e7 0.0
2.5943768023351204e7 1.8142952515526891e6 0.0
0.0 0.0 0.0

-1.5868579618149227e7 2.0684146632810775e7 0.0
2.0684146632810775e7 4.734541565495295e6 0.0
0.0 0.0 0.0

85355.86052900273 1.5206602879661303e7 0.0
1.5206602879661303e7 -1.325520219446578e7 0.0
0.0 0.0 0.0

1.7911079607940987e6 1.6403589746765347e7 0.0
1.6403589746765347e7 1.3525351583015457e7 0.0
0.0 0.0 0.0

-553866.8108278951 1.5079043271167485e7 0.0
1.5079043271167485e7 3.21442602710837e6 0.0
0.0 0.0 0.0

-4.54702221600231e6 1.8355258735839456e7 0.0
1.8355258735839456e7 6.985340797202986e6 0.0
0.0 0.0 0.0

799036.2460667761 1.1966242945349474e7 0.0
1.1966242945349474e7 -1.153982611528675e7 0.0
0.0 0.0 0.0

3.2174953192673484e6 9.119240260530062e6 0.0
9.119240260530062e6 -1.603770928886838e7 0.0
0.0 0.0 0.0

-121798.9926883399 8.214066452873096e6 0.0
8.214066452873096e6 -5.634501279976015e6 0.0
0.0 0.0 0.0

-4.726276335317302e6 2.289129966574432e7 0.0
2.289129966574432e7 4.884560250751722e6 0.0
0.0 0.0 0.0

-870882.5039340449 1.4622759642711906e7 0.0
1.4622759642711906e7 -8.295928892750851e6 0.0
0.0 0.0 0.0

1.2079200412753582e7 1.082220117763317e7 0.0
1.082220117763317e7 -197052.58060980402 0.0
0.0 0.0 0.0

5.141386190245174e6 2.827141965838642e6 0.0
2.827141965838642e6 -2.4661634988230787e7 0.0
0.0 0.0 0.0

392069.4580988055 1.6014047457602575e7 0.0
1.6014047457602575e7 1.4160565820144154e7 0.0
0.0 0.0 0.0

573780.014979892 8.080232702734939e6 0.0
8.080232702734939e6 -7.06604567583363e6 0.0
0.0 0.0 0.0

-753209.3914639037 2.2146961213074677e7 0.0
2.2146961213074677e7 -2.4326229837138522e6 0.0
0.0 0.0 0.0

-854648.0157477595 1.6181134045534415e7 0.0
1.6181134045534415e7 7.450491628184152e6 0.0
0.0 0.0 0.0

-1.1877760654822059e7 4.967633348328596e6 0.0
4.967633348328596e6 2.852756756568741e7 0.0
0.0 0.0 0.0

-3.619325480284911e6 2.08996046088069e6 0.0
2.08996046088069e6 5.563134583397826e6 0.0
0.0 0.0 0.0

1.7204110935655076e6 2.117767882691638e7 0.0
2.117767882691638e7 -4.763431595466619e6 0.0
0.0 0.0 0.0

-4.0980684430529095e7 1.1661512331271974e7 0.0
1.1661512331271974e7 9.855225347125707e6 0.0
0.0 0.0 0.0

497830.84705275856 1.4146545706335358e7 0.0
1.4146545706335358e7 -1.5953894188044693e7 0.0
0.0 0.0 0.0

-162821.97319672327 1.1541504244311031e7 0.0
1.1541504244311031e7 3.7431893287956235e6 0.0
0.0 0.0 0.0

-6.77090373020427e6 1.5087110121275779e7 0.0
1.5087110121275779e7 1.263262509238952e7 0.0
0.0 0.0 0.0

-4.329871013810062e7 1.1192017782508785e7 0.0
1.1192017782508785e7 9.014475462572873e6 0.0
0.0 0.0 0.0

-617679.6102216197 1.4142872765292786e7 0.0
1.4142872765292786e7 -1.6749516304343484e7 0.0
0.0 0.0 0.0

-382224.6189007149 1.7711326321575277e7 0.0
1.7711326321575277e7 -8.565575724050894e6 0.0
0.0 0.0 0.0

1.6455204146541746e6 5.294639077247024e6 0.0
5.294639077247024e6 -4.875438199537167e6 0.0
0.0 0.0 0.0

-5.6254391100798305e6 1.9492883692982264e7 0.0
1.9492883692982264e7 -4.725386181287278e6 0.0
0.0 0.0 0.0

1.5212524822197394e6 2.3931965209854487e7 0.0
2.3931965209854487e7 -3.53539986082488e6 0.0
0.0 0.0 0.0

-2.980019957614194e6 2.4082468959742356e7 0.0
2.4082468959742356e7 1.4555151796573903e6 0.0
0.0 0.0 0.0

-4.709242018507923e6 1.7978179335023817e7 0.0
1.7978179335023817e7 3.92176983788738e6 0.0
0.0 0.0 0.0

-1.1900353658295525e7 1.2740043408295121e7 0.0
1.2740043408295121e7 2.131857155108221e7 0.0
0.0 0.0 0.0

-4.77649336698235e6 1.803750434739397e7 0.0
1.803750434739397e7 1.1469574410417689e7 0.0
0.0 0.0 0.0

-3.1140670647243573e6 2.5401907301028594e7 0.0
2.5401907301028594e7 1.7469002022110966e6 0.0
0.0 0.0 0.0

1.448698368208596e6 1.0360372874623928e7 0.0
1.0360372874623928e7 -1.2062047863646857e7 0.0
0.0 0.0 0.0

-3.180916518724135e6 2.4973578013960127e7 0.0
2.4973578013960127e7 1.6119325474423564e6 0.0
0.0 0.0 0.0

1.1325730429839976e6 1.801529048300466e7 0.0
1.801529048300466e7 1.2172069646193193e7 0.0
0.0 0.0 0.0

-1.2536302620671324e7 9.951963895935053e6 0.0
9.951963895935053e6 2.078189950194599e7 0.0
0.0 0.0 0.0

4.65628033970587e6 3.801007419448327e6 0.0
3.801007419448327e6 -2.5634473924590193e7 0.0
0.0 0.0 0.0

-7.974185098376656e6 2.0856976747886416e7 0.0
2.0856976747886416e7 5.7795153358485345e6 0.0
0.0 0.0 0.0

-2.5162094304795237e6 2.025334439049728e7 0.0
2.025334439049728e7 -2.775741488811294e6 0.0
0.0 0.0 0.0

-1.622242555612225e6 2.014440633157394e7 0.0
2.014440633157394e7 -3.4940729714506594e6 0.0
0.0 0.0 0.0

-5.396463686908125e7 3.472607521410499e7 0.0
3.472607521410499e7 -1.6023737121942846e7 0.0
0.0 0.0 0.0

342336.96411348647 1.5678551152705278e7 0.0
1.5678551152705278e7 -1.2486424783648105e7 0.0
0.0 0.0 0.0

-2.2985329916729457e6 2.2106084243655622e7 0.0
2.2106084243655622e7 66111.13419887773 0.0
0.0 0.0 0.0

-7.353635387667297e6 1.5901077407618565e7 0.0
1.5901077407618565e7 1.226676909836291e7 0.0
0.0 0.0 0.0

-2.379642097691885e7 1.7882154300443895e7 0.0
1.7882154300443895e7 9.27299107989286e6 0.0
0.0 0.0 0.0

473568.8507087832 1.543657207692264e7 0.0
1.543657207692264e7 -145867.23900137763 0.0
0.0 0.0 0.0

-1.2733803195990175e6 1.727147970670859e7 0.0
1.727147970670859e7 1.3263593968504647e7 0.0
0.0 0.0 0.0

4.995892199761404e6 2.439614292826055e6 0.0
2.439614292826055e6 -3.052751877116754e7 0.0
0.0 0.0 0.0

-1.633027348978569e7 2.876904970700901e7 0.0
2.876904970700901e7 8.870615227477059e6 0.0
0.0 0.0 0.0

-9.720812809231397e6 -3.3749877431521253e6 0.0
-3.3749877431521253e6 2.9520956361116435e7 0.0
0.0 0.0 0.0

-1.0158970533793528e7 -1.4898506572055505e6 0.0
-1.4898506572055505e6 3.482923606503841e7 0.0
0.0 0.0 0.0

-2.795354340427302e6 1.6593485481743056e6 0.0
1.6593485481743056e6 4.593932249571232e6 0.0
0.0 0.0 0.0

-1.1981026351153655e7 1.0947725886156404e7 0.0
1.0947725886156404e7 2.3359221254535664e7 0.0
0.0 0.0 0.0

-2.035721952700125e6 1.5049215578784067e7 0.0
1.5049215578784067e7 9.813895256761339e6 0.0
0.0 0.0 0.0

704794.0952459704 1.3559824486740226e7 0.0
1.3559824486740226e7 -1.803330699227698e7 0.0
0.0 0.0 0.0

-3.2576343696411677e7 3.4334329758383304e7 0.0
3.4334329758383304e7 8.4452958277183e6 0.0
0.0 0.0 0.0

-1.2327413144298866e7 1.0772538326205032e7 0.0
1.0772538326205032e7 2.1170358639493816e7 0.0
0.0 0.0 0.0

-591330.6366808731 1.251721969716816e7 0.0
1.251721969716816e7 -2.8929468927474823e7 0.0
0.0 0.0 0.0

-1.5663762015000846e7 2.0150128458061676e7 0.0
2.0150128458061676e7 4.869334837034341e6 0.0
0.0 0.0 0.0

-9.598419713107733e6 -1.8604514675012333e6 0.0
-1.8604514675012333e6 3.584315397164345e7 0.0
0.0 0.0 0.0

-4833.647304086015 1.4961009105098052e7 0.0
1.4961009105098052e7 -1.1887924776117992e7 0.0
0.0 0.0 0.0

-4.1144986022293996e6 1.480105824686284e7 0.0
1.480105824686284e7 -3.157107032987296e7 0.0
0.0 0.0 0.0

-1.2614211207877425e6 1.720481493604736e7 0.0
1.720481493604736e7 -4.931774035950933e6 0.0
0.0 0.0 0.0

-1.4761443373116802e7 1.8558898427902125e7 0.0
1.8558898427902125e7 5.416969338907755e6 0.0
0.0 0.0 0.0

2.9694908142415863e7 1.9982125986957498e7 0.0
1.9982125986957498e7 5.324482182558212e6 0.0
0.0 0.0 0.0

-894451.590935442 1.1747650966370786e7 0.0
1.1747650966370786e7 -2.6942418965480183e6 0.0
0.0 0.0 0.0

1.1013349192883736e6 1.398977661250318e7 0.0
1.398977661250318e7 -1.337661354850897e7 0.0
0.0 0.0 0.0

-1.1151729041186352e6 1.3512319895689135e7 0.0
1.3512319895689135e7 -1.0615367525910573e7 0.0
0.0 0.0 0.0

5.091222435691025e6 2.501996453229597e6 0.0
2.501996453229597e6 -3.0735073431560703e7 0.0
0.0 0.0 0.0

-1.446359649506616e6 2.148418469351045e7 0.0
2.148418469351045e7 -2.1793186829431816e6 0.0
0.0 0.0 0.0

-1.2333020991701428e6 1.38599917296234e7 0.0
1.38599917296234e7 -1.793394521699538e7 0.0
0.0 0.0 0.0

215742.4353450751 1.6824576707674123e7 0.0
1.6824576707674123e7 -9.298899374930063e6 0.0
0.0 0.0 0.0

-491996.0575603761 1.4865453127061395e7 0.0
1.4865453127061395e7 1.0077185054129382e6 0.0
0.0 0.0 0.0

-4.767590539443282e6 9.733077090018146e6 0.0
9.733077090018146e6 6.024839827153964e6 0.0
0.0 0.0 0.0

-4.945902709322132e6 1.809565133356363e7 0.0
1.809565133356363e7 6.5837331652472215e6 0.0
0.0 0.0 0.0

-3.512848070896251e6 1.6745903544228386e7 0.0
1.6745903544228386e7 1.7663878474890098e7 0.0
0.0 0.0 0.0

5.100701936194822e6 3.161351250687112e6 0.0
3.161351250687112e6 -2.078541037291278e7 0.0
0.0 0.0 0.0

-1.5083205145618483e7 9.507227638375975e6 0.0
9.507227638375975e6 5.61275161618889e6 0.0
0.0 0.0 0.0

1.3338574936002544e6 1.858351872167437e7 0.0
1.858351872167437e7 1.1134226281761391e7 0.0
0.0 0.0 0.0

-476443.63430716563 1.4652572651232086e7 0.0
1.4652572651232086e7 -1.3077063893637056e7 0.0
0.0 0.0 0.0

4.8140629497052394e7 8.154355676026092e6 0.0
8.154355676026092e6 -1.3418784585051741e6 0.0
0.0 0.0 0.0

833108.32608948 1.4197703182952002e7 0.0
1.4197703182952002e7 -1.5988175245804401e7 0.0
0.0 0.0 0.0

-1.9895666899718132e6 2.0708939567933496e7 0.0
2.0708939567933496e7 -3.39047278994537e6 0.0
0.0 0.0 0.0

-3.796433479000178e6 1.8616605204585776e7 0.0
1.8616605204585776e7 90116.53968335153 0.0
0.0 0.0 0.0

1.8123998367523365e6 1.6268468139423698e7 0.0
1.6268468139423698e7 4.158533384189102e7 0.0
0.0 0.0 0.0

-1.1995640243390564e7 9.837308774449905e6 0.0
9.837308774449905e6 2.4508498068770047e7 0.0
0.0 0.0 0.0

-9.374602242824929e6 -5.453704609054144e6 0.0
-5.453704609054144e6 2.834636236941415e7 0.0
0.0 0.0 0.0

-1.193252483455534e7 3.5151747625784823e6 0.0
3.5151747625784823e6 2.9323493931607764e7 0.0
0.0 0.0 0.0

-3.2874890598868555e6 2.3502756709424317e7 0.0
2.3502756709424317e7 1.840681717407404e6 0.0
0.0 0.0 0.0

2.553004262705841e6 1.0165433192535475e7 0.0
1.0165433192535475e7 -1.7386367751540728e7 0.0
0.0 0.0 0.0

-4.569980770108307e6 1.9084007123908974e7 0.0
1.9084007123908974e7 8.91072105046318e6 0.0
0.0 0.0 0.0

151801.90232266672 1.6054632245249849e7 0.0
1.6054632245249849e7 -1.1687148008446077e7 0.0
0.0 0.0 0.0

-7.772661636799534e6 1.4374023879540663e7 0.0
1.4374023879540663e7 1.1160154216162529e7 0.0
0.0 0.0 0.0

-5.08978560348787e6 2.08202422007583e7 0.0
2.08202422007583e7 7.450581225053602e6 0.0
0.0 0.0 0.0

3.69001131969735e6 1.9894820498285033e7 0.0
1.9894820498285033e7 -4.926242209169295e6 0.0
0.0 0.0 0.0

-5.703566635260193e6 1.75955094442542e7 0.0
1.75955094442542e7 1.2665456484324565e7 0.0
0.0 0.0 0.0

-4.816769586877847e6 1.8479692581779785e7 0.0
1.8479692581779785e7 9.85536068222958e6 0.0
0.0 0.0 0.0

-1.9500984781225661e6 1.4178617027491568e7 0.0
1.4178617027491568e7 -1.1593446469662568e7 0.0
0.0 0.0 0.0

-1.2926687438935287e7 1.063290073252516e7 0.0
1.063290073252516e7 1.922508650316202e7 0.0
0.0 0.0 0.0

-3.0391625547048217e6 2.3557595611882903e7 0.0
2.3557595611882903e7 2.6959813838535016e6 0.0
0.0 0.0 0.0

4.332088099307074e6 5.016008951361601e6 0.0
5.016008951361601e6 -1.9884232864444476e7 0.0
0.0 0.0 0.0

-9.424908351173306e6 1.2339871687613216e6 0.0
1.2339871687613216e6 4.55979352306502e7 0.0
0.0 0.0 0.0

-623906.1331889143 1.6625730598170182e7 0.0
1.6625730598170182e7 -5.973495630833811e6 0.0
0.0 0.0 0.0

-3.2889130588047886e6 2.392983130564637e7 0.0
2.392983130564637e7 1.970981193515989e6 0.0
0.0 0.0 0.0

2.187056630140166e6 1.162161445510389e7 0.0
1.162161445510389e7 -1.9524933859885536e7 0.0
0.0 0.0 0.0

-2.0226044330385136e6 2.1622865016673062e7 0.0
2.1622865016673062e7 -2.413764952366338e6 0.0
0.0 0.0 0.0

2.8293660575488554e6 8.96680639705711e6 0.0
8.96680639705711e6 -1.7404796967121817e7 0.0
0.0 0.0 0.0

-1.2420732279660527e7 9.02651236195253e6 0.0
9.02651236195253e6 2.168253287568241e7 0.0
0.0 0.0 0.0

-4.655813807882278e7 3.1830087923321318e7 0.0
3.1830087923321318e7 1.0482841086552303e7 0.0
0.0 0.0 0.0

-9.563122215003207e6 1.9982612681339275e7 0.0
1.9982612681339275e7 479105.32463250635 0.0
0.0 0.0 0.0

-4.566659636342069e6 1.903534461891278e7 0.0
1.903534461891278e7 9.754598840397958e6 0.0
0.0 0.0 0.0

-4.467540893246768e6 -5.644527257482494e6 0.0
-5.644527257482494e6 1.0029125842064485e7 0.0
0.0 0.0 0.0

-1.1584564170137584e7 1.901164160981456e7 0.0
1.901164160981456e7 -1.0249888217859357e6 0.0
0.0 0.0 0.0

-6.1376258523989245e6 2.1212767347805377e7 0.0
2.1212767347805377e7 6.788971934389934e6 0.0
0.0 0.0 0.0

4.906137204537047e6 3.615557948658444e6 0.0
3.615557948658444e6 -2.6159370620786272e7 0.0
0.0 0.0 0.0

-7.833660579291232e6 1.3006036242736144e7 0.0
1.3006036242736144e7 1.3531463053116783e7 0.0
0.0 0.0 0.0

-1.1285328618817143e7 1.1009729712048924e7 0.0
1.1009729712048924e7 1.765552989383385e7 0.0
0.0 0.0 0.0

210375.14140167544 2.6295668006733093e7 0.0
2.6295668006733093e7 -590076.392141138 0.0
0.0 0.0 0.0

-1.0665074512803387e7 -573457.5117553502 0.0
-573457.5117553502 1.4001049875439553e7 0.0
0.0 0.0 0.0

-1.2712614281428356e7 1.1696353564534362e7 0.0
1.1696353564534362e7 1.9842272616077613e7 0.0
0.0 0.0 0.0

-2.3442467015052983e6 2.4323910897077825e7 0.0
2.4323910897077825e7 1.8333013018229548e6 0.0
0.0 0.0 0.0

-9.893227999482876e6 -1.3411110516948723e6 0.0
-1.3411110516948723e6 3.734897893587062e7 0.0
0.0 0.0 0.0

-6.382315807711925e6 -3.360741273362465e6 0.0
-3.360741273362465e6 1.2729900879822526e7 0.0
0.0 0.0 0.0

3.8330542883090936e6 6.951778759085095e6 0.0
6.951778759085095e6 -1.9000940017395884e7 0.0
0.0 0.0 0.0

-4.680199628515213e6 1.8380954322229143e7 0.0
1.8380954322229143e7 7.433157619785937e6 0.0
0.0 0.0 0.0

-1.2175823165568301e7 1.1659159020689046e7 0.0
1.1659159020689046e7 2.1408038646585584e7 0.0
0.0 0.0 0.0

-266926.43200132484 1.5682026824872853e7 0.0
1.5682026824872853e7 -1.1309271904306522e7 0.0
0.0 0.0 0.0

592097.4693390136 1.5041920668996261e7 0.0
1.5041920668996261e7 -1.1905028034268063e7 0.0
0.0 0.0 0.0

2.6703414557054807e6 9.948627239339368e6 0.0
9.948627239339368e6 -1.8490982237783644e7 0.0
0.0 0.0 0.0

642990.0033050701 1.3854320850165823e7 0.0
1.3854320850165823e7 -1.7029012317649383e7 0.0
0.0 0.0 0.0

-123930.17601857428 1.5046752126869956e7 0.0
1.5046752126869956e7 5.829879413704202e6 0.0
0.0 0.0 0.0

-1.2193879354522713e7 1.2775361346723635e7 0.0
1.2775361346723635e7 2.0391679898949187e7 0.0
0.0 0.0 0.0

-1.9091880491115786e6 2.108303145058552e7 0.0
2.108303145058552e7 -3.219869706856011e6 0.0
0.0 0.0 0.0

-4.979279406655402e6 2.281080023471821e7 0.0
2.281080023471821e7 5.469374153820518e6 0.0
0.0 0.0 0.0

-2.7176593112583943e6 2.3754185962964874e7 0.0
2.3754185962964874e7 2.242050929901137e6 0.0
0.0 0.0 0.0

9.184492606828269e6 2.0795619801557034e7 0.0
2.0795619801557034e7 5.174941326782619e7 0.0
0.0 0.0 0.0

-4.2238674764153045e6 1.8665065576750867e7 0.0
1.8665065576750867e7 6.364132890004407e6 0.0
0.0 0.0 0.0

873272.8954376057 1.4404989352535605e7 0.0
1.4404989352535605e7 -1.2525019678556442e7 0.0
0.0 0.0 0.0

32323.70186366886 1.4349354061534336e7 0.0
1.4349354061534336e7 -1.597614843539644e7 0.0
0.0 0.0 0.0

1.0437702397449948e6 1.420282758955693e7 0.0
1.420282758955693e7 -1.3642219023092978e7 0.0
0.0 0.0 0.0

-1.4278448676494623e6 2.3218807121804018e7 0.0
2.3218807121804018e7 -607875.3056247856 0.0
0.0 0.0 0.0

-4.896067154150333e6 1.781966300198409e7 0.0
1.781966300198409e7 5.788946997009474e6 0.0
0.0 0.0 0.0

-303624.0293247332 1.4233004059991313e7 0.0
1.4233004059991313e7 1.877211085920348e6 0.0
0.0 0.0 0.0

-197057.1739808591 1.4911204217048416e7 0.0
1.4911204217048416e7 -1.2672996694221718e7 0.0
0.0 0.0 0.0

-5.862726171994897e6 1.0164895524114005e7 0.0
1.0164895524114005e7 5.344270379975372e6 0.0
0.0 0.0 0.0

-313681.8588691794 2.9953843601497583e7 0.0
2.9953843601497583e7 -4.204506507571985e6 0.0
0.0 0.0 0.0

4.30243824671145e6 4.13791882637297e6 0.0
4.13791882637297e6 -3.628774464191177e7 0.0
0.0 0.0 0.0

6.346261810323844e7 2.522437927589525e7 0.0
2.522437927589525e7 1.1836147377754942e7 0.0
0.0 0.0 0.0

2.5386227847288013e7 2.826295588599614e7 0.0
2.826295588599614e7 -1.9935335031834505e7 0.0
0.0 0.0 0.0

-2.9693349120945074e6 1.6711784246999254e7 0.0
1.6711784246999254e7 1.2404005237036968e7 0.0
0.0 0.0 0.0

216846.2152343276 1.5573264051373372e7 0.0
1.5573264051373372e7 7.548576917950744e6 0.0
0.0 0.0 0.0

-1.861952086444943e7 2.0430860493402995e7 0.0
2.0430860493402995e7 2.114445759867022e6 0.0
0.0 0.0 0.0

-4.628862103135125e7 2.2452046833240874e7 0.0
2.2452046833240874e7 5.10719728646329e6 0.0
0.0 0.0 0.0

-6.82466244402234e6 1.0298275323885148e7 0.0
1.0298275323885148e7 9.885057332998067e6 0.0
0.0 0.0 0.0

-2.302149501741663e6 2.082612758160897e7 0.0
2.082612758160897e7 -1.0236989248033331e6 0.0
0.0 0.0 0.0

1.2520532073659515e6 1.3545327304186514e7 0.0
1.3545327304186514e7 -1.4198993958293607e7 0.0
0.0 0.0 0.0

3.671463927840475e6 7.012805153085496e6 0.0
7.012805153085496e6 -3.333426666958458e7 0.0
0.0 0.0 0.0

764782.5223856922 1.3717671069540711e7 0.0
1.3717671069540711e7 -1.446869018570907e7 0.0
0.0 0.0 0.0

-220355.91109771188 1.2452148593877856e7 0.0
1.2452148593877856e7 -2.6087702714901723e7 0.0
0.0 0.0 0.0

-1.1740287870058216e7 1.1239565944516905e7 0.0
1.1239565944516905e7 1.5697383476108693e7 0.0
0.0 0.0 0.0

-1.8727293209409313e6 1.6512295185394065e7 0.0
1.6512295185394065e7 1.5728293855817214e7 0.0
0.0 0.0 0.0

-548053.7374195061 1.4097177690544788e7 0.0
1.4097177690544788e7 4.9918246846200805e6 0.0
0.0 0.0 0.0

-8.711487931632608e6 4.0686983674182817e6 0.0
4.0686983674182817e6 5.321536237597396e6 0.0
0.0 0.0 0.0

-1.1741520418284232e7 2.0824500593511036e6 0.0
2.0824500593511036e6 2.882014081780225e7 0.0
0.0 0.0 0.0

-3.9401859394195303e6 2.105367315724153e7 0.0
2.105367315724153e7 5.337721781299282e6 0.0
0.0 0.0 0.0

-3.1431374482472725e6 1.6918882068596695e7 0.0
1.6918882068596695e7 1.7921001988948468e7 0.0
0.0 0.0 0.0

-6.508122727658138e6 1.481091335965712e7 0.0
1.481091335965712e7 1.1842108657253705e7 0.0
0.0 0.0 0.0

-2.500744041109614e6 3.4012722820103383e6 0.0
3.4012722820103383e6 652540.8932323953 0.0
0.0 0.0 0.0

-7.923409677545996e6 1.0386310740035247e7 0.0
1.0386310740035247e7 4.7046036197549306e7 0.0
0.0 0.0 0.0

-3.597057819782326e6 1.705424488094557e7 0.0
1.705424488094557e7 1.700052157047328e6 0.0
0.0 0.0 0.0

-1.7735659137369073e6 2.0550917247077424e7 0.0
2.0550917247077424e7 -4.0434020416029254e6 0.0
0.0 0.0 0.0

-3.185458271085645e6 1.6561950514198005e7 0.0
1.6561950514198005e7 1.820165459088857e7 0.0
0.0 0.0 0.0

-5.378162809432805e6 1.016689856800975e7 0.0
1.016689856800975e7 7.297894199380323e6 0.0
0.0 0.0 0.0

2.2716269371979535e6 2.034330049586596e7 0.0
2.034330049586596e7 -5.100557509862397e6 0.0
0.0 0.0 0.0

-7.945619456889603e6 3.1538511534275166e6 0.0
3.1538511534275166e6 5.2544517433768146e7 0.0
0.0 0.0 0.0

2.9134526439424995e6 1.8773076547588117e7 0.0
1.8773076547588117e7 -5.22044165326863e6 0.0
0.0 0.0 0.0

-3.0238577554436084e6 2.3952702862192485e7 0.0
2.3952702862192485e7 2.85565320817285e6 0.0
0.0 0.0 0.0

-2.7956829919008273e6 1.3452706374373415e7 0.0
1.3452706374373415e7 -1.5954380627754282e7 0.0
0.0 0.0 0.0

-5.539565384360072e6 1.71211960224208e7 0.0
1.71211960224208e7 1.334841755079117e7 0.0
0.0 0.0 0.0

-1.2690754967800688e7 9.73954912425481e6 0.0
9.73954912425481e6 2.2118847017698284e7 0.0
0.0 0.0 0.0

-105923.09189771127 2.279975894455413e7 0.0
2.279975894455413e7 -2.4889920779879554e6 0.0
0.0 0.0 0.0

2.914178165381353e6 5.42611549129803e6 0.0
5.42611549129803e6 -8.67517109910939e6 0.0
0.0 0.0 0.0

-2.8541699753037626e6 2.8316982379270796e7 0.0
2.8316982379270796e7 -353440.71906656085 0.0
0.0 0.0 0.0

1.4053188320270304e6 1.6993863876699843e7 0.0
1.6993863876699843e7 5.2948068838764e6 0.0
0.0 0.0 0.0

-2.2424982852403913e6 1.928104489862151e7 0.0
1.928104489862151e7 -2.6190073166600866e6 0.0
0.0 0.0 0.0

4.254863658356657e6 5.416274076408277e6 0.0
5.416274076408277e6 -2.612476170970145e7 0.0
0.0 0.0 0.0

-978247.9709713291 1.7258135609392468e7 0.0
1.7258135609392468e7 -6.725729858731167e6 0.0
0.0 0.0 0.0

2.0222914821804354e6 1.8513230911633246e7 0.0
1.8513230911633246e7 1.151920200883782e7 0.0
0.0 0.0 0.0

-2.8305758075465295e6 2.252804291068571e7 0.0
2.252804291068571e7 1.8262840802117083e6 0.0
0.0 0.0 0.0

1.0611443389927652e6 1.6857054771723412e7 0.0
1.6857054771723412e7 1.7301588703207884e7 0.0
0.0 0.0 0.0

-905242.7476670827 2.823578431791602e6 0.0
2.823578431791602e6 1.5489004497420006e6 0.0
0.0 0.0 0.0

-5.017169614529104e6 1.5964477573525319e7 0.0
1.5964477573525319e7 2.225174304927103e7 0.0
0.0 0.0 0.0

-5.744336903419878e6 1.9391759529887315e7 0.0
1.9391759529887315e7 3.9582960770504572e6 0.0
0.0 0.0 0.0

2.928462920257995e6 1.9430070660675026e7 0.0
1.9430070660675026e7 -5.1872692465303885e6 0.0
0.0 0.0 0.0

-13929.577325005084 1.8568883272721644e7 0.0
1.8568883272721644e7 -6.891801534195347e6 0.0
0.0 0.0 0.0

1.9366506371926153e6 2.37786908642138e7 0.0
2.37786908642138e7 -3.512602497608014e6 0.0
0.0 0.0 0.0

-231682.23306901357 1.3128882674811585e7 0.0
1.3128882674811585e7 3.1594187881131363e6 0.0
0.0 0.0 0.0

-4.662679347377265e6 1.9620701545448177e7 0.0
1.9620701545448177e7 9.025947769456942e6 0.0
0.0 0.0 0.0

-278449.9905763371 2.450779403223219e7 0.0
2.450779403223219e7 -2.3870838298402624e6 0.0
0.0 0.0 0.0

-4.010812418582552e6 1.450540654167947e7 0.0
1.450540654167947e7 -3.1110974608760804e7 0.0
0.0 0.0 0.0

-6.72973571183729e6 8.093294165893449e6 0.0
8.093294165893449e6 6.951541876702835e6 0.0
0.0 0.0 0.0

-697949.626935889 1.488287328050233e7 0.0
1.488287328050233e7 6.484684749049151e6 0.0
0.0 0.0 0.0

-148168.15085617546 2.336839686138801e7 0.0
2.336839686138801e7 -3.056252748238886e6 0.0
0.0 0.0 0.0

-311387.05176678114 1.524233805465758e7 0.0
1.524233805465758e7 -1.3101844920143854e7 0.0
0.0 0.0 0.0

4.849196836655283e6 4.135684697219324e6 0.0
4.135684697219324e6 -1.8912386719943166e7 0.0
0.0 0.0 0.0

-8.678009199680615e6 -1.4879890597788584e6 0.0
-1.4879890597788584e6 4.8322024710050404e7 0.0
0.0 0.0 0.0

2.048640581289743e6 1.1670607762989657e7 0.0
1.1670607762989657e7 -2.06645794622086e7 0.0
0.0 0.0 0.0

-602520.7165463371 1.6366582175423283e7 0.0
1.6366582175423283e7 9.028126422324339e6 0.0
0.0 0.0 0.0

-1.0203580641850648e7 1.1951230337500036e7 0.0
1.1951230337500036e7 1.677086873813035e7 0.0
0.0 0.0 0.0

3.236570819153037e6 1.927248572854813e7 0.0
1.927248572854813e7 -4.921137817513756e6 0.0
0.0 0.0 0.0

3.734307077919999e6 5.893507853501777e6 0.0
5.893507853501777e6 -1.6295191122322632e7 0.0
0.0 0.0 0.0

1.9550977709934786e6 1.6499445570218606e7 0.0
1.6499445570218606e7 -3.448323400692752e6 0.0
0.0 0.0 0.0

2.1291980291445665e6 1.8800147730966303e7 0.0
1.8800147730966303e7 1.0280492889675027e7 0.0
0.0 0.0 0.0

3.0356031689498485e6 2.940865018259139e7 0.0
2.940865018259139e7 -6.880430937760292e6 0.0
0.0 0.0 0.0

436919.0448959265 1.8263079214884985e7 0.0
1.8263079214884985e7 -7.161150527748777e6 0.0
0.0 0.0 0.0

-2.6363728726281915e6 1.5534074510307387e7 0.0
1.5534074510307387e7 2.9988548059839964e7 0.0
0.0 0.0 0.0

5.223913525979832e6 2.9211103080409598e6 0.0
2.9211103080409598e6 -2.3513637506000064e7 0.0
0.0 0.0 0.0

-1.752916465637527e6 2.397868006880791e7 0.0
2.397868006880791e7 -701208.6652381964 0.0
0.0 0.0 0.0

2.724267439325574e6 1.5730850198311849e7 0.0
1.5730850198311849e7 2.0916087313501798e6 0.0
0.0 0.0 0.0

-5.149891436010515e7 1.3926088582770368e7 0.0
1.3926088582770368e7 7.122104760596387e6 0.0
0.0 0.0 0.0

-5.812150543525528e6 2.1103290626462013e7 0.0
2.1103290626462013e7 7.16147596238454e6 0.0
0.0 0.0 0.0

-5.670503716740511e6 7.551524839179734e6 0.0
7.551524839179734e6 7.833062632094486e6 0.0
0.0 0.0 0.0

770385.8091611499 1.3804186969228834e7 0.0
1.3804186969228834e7 -1.8086127122991055e7 0.0
0.0 0.0 0.0

-3.32703246360648e6 1.6639801109435515e7 0.0
1.6639801109435515e7 1.1066563074759513e7 0.0
0.0 0.0 0.0

-956347.3028463442 1.3677632788119212e7 0.0
1.3677632788119212e7 -2.3117799811866228e7 0.0
0.0 0.0 0.0

5.126823757037576e6 3.3094901200806224e6 0.0
3.3094901200806224e6 -2.9938318676463038e7 0.0
0.0 0.0 0.0

3.540004944045734e7 1.4601471115797052e7 0.0
1.4601471115797052e7 1.7264452096972745e6 0.0
0.0 0.0 0.0

-9.166215569731686e7 3.6138920672233224e7 0.0
3.6138920672233224e7 -8.471827236673374e6 0.0
0.0 0.0 0.0

6.825100989741116e6 1.745120339780775e7 0.0
1.745120339780775e7 6.787961760522514e6 0.0
0.0 0.0 0.0

-1.358926230745248e6 1.882306478066328e7 0.0
1.882306478066328e7 -6.584427167741394e6 0.0
0.0 0.0 0.0

-4.74072069997525e6 1.7899826479449086e7 0.0
1.7899826479449086e7 1.108800161533141e7 0.0
0.0 0.0 0.0

4.662164238091402e6 4.158896538351937e6 0.0
4.158896538351937e6 -1.8575239236268163e7 0.0
0.0 0.0 0.0

-6.085625651893395e6 1.9512432234102283e7 0.0
1.9512432234102283e7 5.596260067176903e6 0.0
0.0 0.0 0.0

-646339.7323771594 2.4531614678462155e7 0.0
2.4531614678462155e7 -477999.4263620448 0.0
0.0 0.0 0.0

-1.2942792958117453e6 1.4355354686513316e7 0.0
1.4355354686513316e7 -1.829340424951697e7 0.0
0.0 0.0 0.0

-2.518506695559149e6 1.9000677865324955e7 0.0
1.9000677865324955e7 -3.69015410372542e6 0.0
0.0 0.0 0.0

2.1791981443812344e6 5.384164567555468e6 0.0
5.384164567555468e6 -6.41810561224093e6 0.0
0.0 0.0 0.0

4.297226929470967e6 1.843302230910414e7 0.0
1.843302230910414e7 1.0461434650321424e7 0.0
0.0 0.0 0.0

-6.983459148775008e6 1.8753546751295105e7 0.0
1.8753546751295105e7 -1.3240359460487792e6 0.0
0.0 0.0 0.0

67103.77583324676 1.5824497807716575e7 0.0
1.5824497807716575e7 -1.0262501691361759e7 0.0
0.0 0.0 0.0

-3.81259297929793e6 1.970740916473116e7 0.0
1.970740916473116e7 1.1661924893738462e6 0.0
0.0 0.0 0.0

1.704523713607072e6 1.18176555194237e7 0.0
1.18176555194237e7 -1.9826785097393762e7 0.0
0.0 0.0 0.0

-9.728889092126032e6 -1.1643013084093921e6 0.0
-1.1643013084093921e6 3.828031911125329e7 0.0
0.0 0.0 0.0

523665.92024835385 1.411863112035209e7 0.0
1.411863112035209e7 -1.357025081865076e7 0.0
0.0 0.0 0.0

2.1718276580307838e6 1.5560200072159177e7 0.0
1.5560200072159177e7 -1.2831756804245152e6 0.0
0.0 0.0 0.0

-9.133855002416544e6 1.7334039618239664e7 0.0
1.7334039618239664e7 -3.933835866287229e7 0.0
0.0 0.0 0.0

4.293916267068451e6 6.387542592183649e6 0.0
6.387542592183649e6 -1.8448542522761937e7 0.0
0.0 0.0 0.0

592662.8722980963 1.5213602603541616e7 0.0
1.5213602603541616e7 -1.334717728229529e7 0.0
0.0 0.0 0.0

-4.991352016970827e6 2.0536887955058392e7 0.0
2.0536887955058392e7 7.8056536713850815e6 0.0
0.0 0.0 0.0

-2.615196541748103e6 2.1931057042853087e7 0.0
2.1931057042853087e7 -845857.801400977 0.0
0.0 0.0 0.0

-4.46153267347217e6 1.8861134379400194e7 0.0
1.8861134379400194e7 8.398156739066653e6 0.0
0.0 0.0 0.0

2.1111676701888735e6 1.66354452878318e7 0.0
1.66354452878318e7 5.80830528385214e6 0.0
0.0 0.0 0.0

-6.3388177198776476e7 1.8926159966058332e7 0.0
1.8926159966058332e7 4.937867809562173e6 0.0
0.0 0.0 0.0

660303.0076903556 2.6138126906902525e6 0.0
2.6138126906902525e6 -2.6059986830082755e6 0.0
0.0 0.0 0.0

-694048.8816253974 1.3102890434331866e7 0.0
1.3102890434331866e7 -1.758954747291719e6 0.0
0.0 0.0 0.0

7.147538102076938e6 1.6262321713289682e7 0.0
1.6262321713289682e7 11133.144474345725 0.0
0.0 0.0 0.0

-2.373745016372538e6 2.567661324362907e7 0.0
2.567661324362907e7 2.149775993990087e6 0.0
0.0 0.0 0.0

-213883.25810849853 1.266100279974637e7 0.0
1.266100279974637e7 -2.7670517521970674e7 0.0
0.0 0.0 0.0

-1.3661748945344735e6 1.711337349613263e7 0.0
1.711337349613263e7 -5.132539747322312e6 0.0
0.0 0.0 0.0

495785.3815780238 1.9244641066348433e7 0.0
1.9244641066348433e7 -6.142473806422941e6 0.0
0.0 0.0 0.0

1.1757202092547845e6 1.3064282968342531e7 0.0
1.3064282968342531e7 -1.1792501805308288e7 0.0
0.0 0.0 0.0

661707.9513343843 1.870219200960271e7 0.0
1.870219200960271e7 -6.330273254951204e6 0.0
0.0 0.0 0.0

-448527.9716021947 1.59472342306555e7 0.0
1.59472342306555e7 5.795631787494823e6 0.0
0.0 0.0 0.0

-2.1730249066368802e6 2.1766489764761984e7 0.0
2.1766489764761984e7 -605724.8687824814 0.0
0.0 0.0 0.0

3.4888325313157598e6 8.5925005624862e6 0.0
8.5925005624862e6 -1.8037770952787753e7 0.0
0.0 0.0 0.0

4.911663629250664e6 3.619717157388207e6 0.0
3.619717157388207e6 -2.6398246389998496e7 0.0
0.0 0.0 0.0

-1.6018676547857746e6 492631.42228302296 0.0
492631.42228302296 -649462.429353211 0.0
0.0 0.0 0.0

-7.10917003285992e6 -334294.6925524165 0.0
-334294.6925524165 1.3247930319771678e6 0.0
0.0 0.0 0.0

192134.8963823258 1.6988374510662455e7 0.0
1.6988374510662455e7 1.0982553290472535e7 0.0
0.0 0.0 0.0

308332.450642454 1.5295988960697627e7 0.0
1.5295988960697627e7 7.098292938724187e6 0.0
0.0 0.0 0.0

-943478.4404563876 1.5884758443178516e7 0.0
1.5884758443178516e7 5.875221501157498e6 0.0
0.0 0.0 0.0

3.2527161957368795e6 5.180130148234265e6 0.0
5.180130148234265e6 -1.2731502407414997e7 0.0
0.0 0.0 0.0

1.2303916393114221e6 1.7704723164275855e7 0.0
1.7704723164275855e7 -6.398155296984786e6 0.0
0.0 0.0 0.0

2.4384463281137208e6 4.530440235288847e6 0.0
4.530440235288847e6 -7.213450530939327e6 0.0
0.0 0.0 0.0

354729.39983877726 1.8725131639090072e7 0.0
1.8725131639090072e7 -6.649552212094673e6 0.0
0.0 0.0 0.0

-1.145256908042913e7 1.3582205388224954e7 0.0
1.3582205388224954e7 2.134324948394338e7 0.0
0.0 0.0 0.0

-1.3447792736983064e6 2.095693068833662e7 0.0
2.095693068833662e7 -3.000526851271499e6 0.0
0.0 0.0 0.0

339621.0794098746 2.380260765598641e7 0.0
2.380260765598641e7 -1.8208877386245886e6 0.0
0.0 0.0 0.0

3.7326892153220754e6 6.884002441348008e6 0.0
6.884002441348008e6 -1.9204790498970836e7 0.0
0.0 0.0 0.0

3.981287914598177e6 5.950135587181999e6 0.0
5.950135587181999e6 -1.9582163228058368e7 0.0
0.0 0.0 0.0

8.664415595977481e6 1.736007457225117e7 0.0
1.736007457225117e7 -2.838210733656627e6 0.0
0.0 0.0 0.0

-1.6879692025055941e6 1.7004033982720967e7 0.0
1.7004033982720967e7 1.5823844101879219e7 0.0
0.0 0.0 0.0

221232.43608633894 1.4554522416491432e7 0.0
1.4554522416491432e7 -1.2736520131422479e7 0.0
0.0 0.0 0.0

-9.12383715023577e6 -5.244191886209381e6 0.0
-5.244191886209381e6 2.933278356782613e7 0.0
0.0 0.0 0.0

-2.395337248384041e6 2.475128743629559e7 0.0
2.475128743629559e7 1.8919870928193978e6 0.0
0.0 0.0 0.0

-1.2257789934888761e7 1.1779714986308897e7 0.0
1.1779714986308897e7 2.025003050971278e7 0.0
0.0 0.0 0.0

-6.009989905524233e6 -2.47306649126138e6 0.0
-2.47306649126138e6 7.68214642795454e6 0.0
0.0 0.0 0.0

-211255.5356211029 1.4417733314702872e7 0.0
1.4417733314702872e7 -7.993968693528313e6 0.0
0.0 0.0 0.0

4.98167761826231e6 3.6816150771505735e6 0.0
3.6816150771505735e6 -2.549542323989653e7 0.0
0.0 0.0 0.0

-4.392381212361069e6 2.312494096937737e7 0.0
2.312494096937737e7 5.237731989409877e6 0.0
0.0 0.0 0.0

-1.9168303871399788e6 1.885357418772698e7 0.0
1.885357418772698e7 -3.4411397446542205e6 0.0
0.0 0.0 0.0

1.8718173442039723e6 1.1446048281123282e7 0.0
1.1446048281123282e7 -2.085149222595373e7 0.0
0.0 0.0 0.0

9.330010925226431e6 1.577457853492361e7 0.0
1.577457853492361e7 1.8407164354283349e6 0.0
0.0 0.0 0.0

-4.899900542882893e6 2.2495136314277355e7 0.0
2.2495136314277355e7 6.002969057728913e6 0.0
0.0 0.0 0.0

-1.0017730607380956e7 -4.23157393644415e6 0.0
-4.23157393644415e6 2.7767847055887207e7 0.0
0.0 0.0 0.0

-7.873252236679125e6 -7.716879133250865e6 0.0
-7.716879133250865e6 1.923870386605666e7 0.0
0.0 0.0 0.0

2.9970433479915555e6 1.5853707014455661e7 0.0
1.5853707014455661e7 -1.0650900800373498e6 0.0
0.0 0.0 0.0

-952141.8422964185 1.872147408322085e7 0.0
1.872147408322085e7 -6.420362181215963e6 0.0
0.0 0.0 0.0

-865984.5841069029 1.9136789702280056e7 0.0
1.9136789702280056e7 -6.064636506135095e6 0.0
0.0 0.0 0.0

-9.10817146912109e6 4.70291291167213e6 0.0
4.70291291167213e6 4.255348267190537e7 0.0
0.0 0.0 0.0

3.579402187778928e6 3.5319142090838295e6 0.0
3.5319142090838295e6 -1.0087566102174684e7 0.0
0.0 0.0 0.0

-4.646689875541483e6 1.8666092958213624e7 0.0
1.8666092958213624e7 -1.5515359783864503e6 0.0
0.0 0.0 0.0

-8.029409567896964e6 1.9138262861508094e7 0.0
1.9138262861508094e7 -4.740508147634631e6 0.0
0.0 0.0 0.0

-2.2051530625665173e7 2.276219047647556e7 0.0
2.276219047647556e7 2.5774568234025724e6 0.0
0.0 0.0 0.0

-1.501680012727286e6 2.489942772914227e7 0.0
2.489942772914227e7 686200.2213196729 0.0
0.0 0.0 0.0

205287.41604014474 1.4627891033884926e7 0.0
1.4627891033884926e7 47876.54463345929 0.0
0.0 0.0 0.0

-9.924298942607632e6 -3.396216667181453e6 0.0
-3.396216667181453e6 2.9611640024113182e7 0.0
0.0 0.0 0.0

7.197803819632405e6 1.7181679873689357e7 0.0
1.7181679873689357e7 -2.3979340679032165e6 0.0
0.0 0.0 0.0

-377230.3311801236 1.5733773656656645e7 0.0
1.5733773656656645e7 -8.388000886864388e6 0.0
0.0 0.0 0.0

-9.625738676942872e6 -3.7191094264425845e6 0.0
-3.7191094264425845e6 2.2215018598462965e7 0.0
0.0 0.0 0.0

-4.915685316922951e6 1.918781706187152e7 0.0
1.918781706187152e7 7.663531743991941e6 0.0
0.0 0.0 0.0

-4.628546025069862e6 2.022171327129488e7 0.0
2.022171327129488e7 7.048878413046287e6 0.0
0.0 0.0 0.0

-1.6672045072109336e6 2.283676547453836e6 0.0
2.283676547453836e6 354269.17746101087 0.0
0.0 0.0 0.0

4.230245886715021e6 5.341051079603073e6 0.0
5.341051079603073e6 -2.0283902430025935e7 0.0
0.0 0.0 0.0

2.6122000236511547e6 7.765869985196819e6 0.0
7.765869985196819e6 -3.4370745425837584e7 0.0
0.0 0.0 0.0

2.130322808275615e6 1.8138095623974476e7 0.0
1.8138095623974476e7 1.0538032144760724e7 0.0
0.0 0.0 0.0

2.8859160896776686e6 4.650269092931171e6 0.0
4.650269092931171e6 -9.201853691778827e6 0.0
0.0 0.0 0.0

1.0424488318405144e7 2.276799718709451e7 0.0
2.276799718709451e7 -8.848799832870733e6 0.0
0.0 0.0 0.0

4.846624138458445e6 4.804731780003126e6 0.0
4.804731780003126e6 -1.9331478419780035e7 0.0
0.0 0.0 0.0

4.245952990042916e6 5.222419039142967e6 0.0
5.222419039142967e6 -1.3908078480317649e7 0.0
0.0 0.0 0.0

4.232866672547259e6 5.106012359933237e6 0.0
5.106012359933237e6 -1.7410341234947924e7 0.0
0.0 0.0 0.0

322974.08220856416 1.5380746789760707e7 0.0
1.5380746789760707e7 1.306362400805981e6 0.0
0.0 0.0 0.0

164102.13555632555 1.5103931065008363e7 0.0
1.5103931065008363e7 5.416766392679616e6 0.0
0.0 0.0 0.0

1.1537329722605757e6 1.3094234652927166e7 0.0
1.3094234652927166e7 -1.8961836252040073e7 0.0
0.0 0.0 0.0

9.041943779730257e6 2.391757919702718e7 0.0
2.391757919702718e7 -7.393205871469529e6 0.0
0.0 0.0 0.0

-9.355862762673102e6 -5.432925152633915e6 0.0
-5.432925152633915e6 2.171090249779225e7 0.0
0.0 0.0 0.0

-4.679210059608093e6 1.9398303008228347e7 0.0
1.9398303008228347e7 9.0172047758501e6 0.0
0.0 0.0 0.0

-3.0010194363980214e6 2.4521878450544115e7 0.0
2.4521878450544115e7 1.5322088534504334e6 0.0
0.0 0.0 0.0

-1.6020131324261278e6 2.1058036004057053e7 0.0
2.1058036004057053e7 -2.4557442926278673e6 0.0
0.0 0.0 0.0

-6.256517178496062e6 -4.3216838213777e6 0.0
-4.3216838213777e6 1.1820654628800984e7 0.0
0.0 0.0 0.0

-7.16082094362553e6 -735076.3567278034 0.0
-735076.3567278034 8.789805041197363e6 0.0
0.0 0.0 0.0

-218848.1806078842 1.6924534077620428e7 0.0
1.6924534077620428e7 1.4605003109790746e7 0.0
0.0 0.0 0.0

42801.67761976522 1.9179732128483683e6 0.0
1.9179732128483683e6 -1.0711588602211098e6 0.0
0.0 0.0 0.0

2.3419929883548957e6 1.9584025033053596e7 0.0
1.9584025033053596e7 -5.106550830166258e6 0.0
0.0 0.0 0.0

-1.0789956734920533e6 1.790453489696961e7 0.0
1.790453489696961e7 -7.877699421400126e6 0.0
0.0 0.0 0.0

566185.8438998386 1.5085298502437595e7 0.0
1.5085298502437595e7 -1.4143593549741505e7 0.0
0.0 0.0 0.0

-3.1450292177997725e6 1.832006706184975e7 0.0
1.832006706184975e7 578715.1166897186 0.0
0.0 0.0 0.0

-5.173943699241174e6 1.8578767861996606e7 0.0
1.8578767861996606e7 7.972642029487596e6 0.0
0.0 0.0 0.0

-1.1467927336953074e7 1.1637925830984099e7 0.0
1.1637925830984099e7 1.8147743677270044e7 0.0
0.0 0.0 0.0

-1.7275221897016514e7 3.040225475632109e7 0.0
3.040225475632109e7 6.7598966240206e6 0.0
0.0 0.0 0.0

3.0662018521187766e6 4.591659525679632e6 0.0
4.591659525679632e6 -9.40412116254667e6 0.0
0.0 0.0 0.0

585305.780720422 1.4811960730135994e7 0.0
1.4811960730135994e7 -1.171313210721789e7 0.0
0.0 0.0 0.0

4.436784377568254e6 4.197411863452119e6 0.0
4.197411863452119e6 -3.631645529010909e7 0.0
0.0 0.0 0.0

50618.54635368474 1.9115649908197008e7 0.0
1.9115649908197008e7 -6.339588471697427e6 0.0
0.0 0.0 0.0

-6.946283362407967e6 9.934769900750428e6 0.0
9.934769900750428e6 7.932257851032904e6 0.0
0.0 0.0 0.0

-4.901308013056733e6 1.4074335017297817e7 0.0
1.4074335017297817e7 -2.2554544944020335e7 0.0
0.0 0.0 0.0

1.974893156071803e7 1.683452350848745e7 0.0
1.683452350848745e7 4.079090276203395e6 0.0
0.0 0.0 0.0

-7.202997736066179e6 1.739697396463829e6 0.0
1.739697396463829e6 1.044958801505732e7 0.0
0.0 0.0 0.0

4.401076092408601e6 1.7839201143328734e7 0.0
1.7839201143328734e7 8.693780614526292e6 0.0
0.0 0.0 0.0

2.9737286357479948e6 1.4441966215442346e7 0.0
1.4441966215442346e7 1.648351011016838e7 0.0
0.0 0.0 0.0

-4.662956293160965e6 1.4195506367992006e7 0.0
1.4195506367992006e7 -1.164847580149525e7 0.0
0.0 0.0 0.0

-309735.89641335164 2.5866489230246715e7 0.0
2.5866489230246715e7 -2.113114111930991e6 0.0
0.0 0.0 0.0

-2.0227594082357567e6 1.8846739380328678e7 0.0
1.8846739380328678e7 -5.2857218856654465e6 0.0
0.0 0.0 0.0

-7.51762087359435e6 1.4421151334309505e7 0.0
1.4421151334309505e7 1.38040834270994e7 0.0
0.0 0.0 0.0

1.7901532622405235e6 7.865132367560167e6 0.0
7.865132367560167e6 -4.772804188281615e7 0.0
0.0 0.0 0.0

-7.36312335485583e6 613294.1507742534 0.0
613294.1507742534 8.98706218756552e6 0.0
0.0 0.0 0.0

-557311.4939012856 1.5665004788182313e7 0.0
1.5665004788182313e7 -5.682874795573591e6 0.0
0.0 0.0 0.0

4.088768384745299e6 1.737007229536151e7 0.0
1.737007229536151e7 7.299799376970129e6 0.0
0.0 0.0 0.0

-2.968956508698497e6 1.1424653642721191e7 0.0
1.1424653642721191e7 6.199781058898069e6 0.0
0.0 0.0 0.0

-5.327524707198081e6 1.7927515864283696e7 0.0
1.7927515864283696e7 1.1625880791003386e7 0.0
0.0 0.0 0.0

-3.7876199495451325e6 2.1422330036491297e7 0.0
2.1422330036491297e7 4.663256971385427e6 0.0
0.0 0.0 0.0

-1.5676766199248435e7 3.101299521619324e7 0.0
3.101299521619324e7 7.71788683411713e6 0.0
0.0 0.0 0.0

1.3062201604492203e6 7.126714951673512e6 0.0
7.126714951673512e6 -5.835209631016256e6 0.0
0.0 0.0 0.0

-4.261522199088115e6 2.1187017144029353e7 0.0
2.1187017144029353e7 4.310025839372304e6 0.0
0.0 0.0 0.0

-1.645601054910513e6 1.8136747179799613e7 0.0
1.8136747179799613e7 -5.413056269564773e6 0.0
0.0 0.0 0.0

7.806427756196562e6 1.818255582562406e7 0.0
1.818255582562406e7 9.52433042580162e6 0.0
0.0 0.0 0.0

-2.0996097760658814e6 2.030166207333707e7 0.0
2.030166207333707e7 -3.7122415570041044e6 0.0
0.0 0.0 0.0

2.423880472967304e6 4.583748347797503e6 0.0
4.583748347797503e6 -7.902827282365265e6 0.0
0.0 0.0 0.0

-438349.7084385874 1.597713138429909e7 0.0
1.597713138429909e7 -1.049205936603358e7 0.0
0.0 0.0 0.0

-9.853288792542908e6 -438849.7619125194 0.0
-438849.7619125194 1.6681954551228583e7 0.0
0.0 0.0 0.0

4.551610681863404e6 5.820510506712221e6 0.0
5.820510506712221e6 -1.9026294687919695e7 0.0
0.0 0.0 0.0

4.2552377685929425e6 4.821878247107589e6 0.0
4.821878247107589e6 -3.9193039159403436e7 0.0
0.0 0.0 0.0

-294577.6894970918 1.748736093315133e7 0.0
1.748736093315133e7 1.0057988623780891e7 0.0
0.0 0.0 0.0

282612.26737261517 1.5789665556906955e7 0.0
1.5789665556906955e7 -1.2561251463484816e7 0.0
0.0 0.0 0.0

-7.944644049101243e6 1.4687025872980313e7 0.0
1.4687025872980313e7 1.2006112699283417e7 0.0
0.0 0.0 0.0

4.770037184265511e6 3.3130435273441025e6 0.0
3.3130435273441025e6 -1.6824164510348406e7 0.0
0.0 0.0 0.0

1.5471681946478738e6 1.3180764530788293e7 0.0
1.3180764530788293e7 -1.4944532927775688e7 0.0
0.0 0.0 0.0

224213.73458203673 1.4603152341299249e7 0.0
1.4603152341299249e7 -1.4914650756664133e7 0.0
0.0 0.0 0.0

-7.3448333046944095e6 1.5613332005743735e7 0.0
1.5613332005743735e7 1.1581136363546824e7 0.0
0.0 0.0 0.0

-3.9229223257226795e6 5.50270747075867e6 0.0
5.50270747075867e6 4.294913774882664e6 0.0
0.0 0.0 0.0

-8.331846598409057e6 -3.8104679067874923e6 0.0
-3.8104679067874923e6 1.6767218551686846e7 0.0
0.0 0.0 0.0

38267.42865190189 1.5341431978321414e7 0.0
1.5341431978321414e7 -1.3035455548932312e7 0.0
0.0 0.0 0.0

-5.967783973367812e6 8.926247139371647e6 0.0
8.926247139371647e6 8.479660639258916e6 0.0
0.0 0.0 0.0

7.138618668591503e6 1.7156012054185417e7 0.0
1.7156012054185417e7 9.135165597251995e6 0.0
0.0 0.0 0.0

-1.203621537366788e6 1.8339721336726423e7 0.0
1.8339721336726423e7 -7.354043362563354e6 0.0
0.0 0.0 0.0

2.5462704751653895e6 4.56665394574176e6 0.0
4.56665394574176e6 -7.246168384832595e6 0.0
0.0 0.0 0.0

-1.0875438845436933e7 3.2403093630583812e6 0.0
3.2403093630583812e6 3.01186904709258e7 0.0
0.0 0.0 0.0

-3.24706431850568e6 2.270238189762441e7 0.0
2.270238189762441e7 1.5470022830406188e6 0.0
0.0 0.0 0.0

-7.652977379095295e6 2.425381496777274e7 0.0
2.425381496777274e7 5.834106669342297e6 0.0
0.0 0.0 0.0

-8.922851877008187e6 2.200100922086138e6 0.0
2.200100922086138e6 9.97412368450328e6 0.0
0.0 0.0 0.0

-1.0364955307785926e7 -1.852173949041706e6 0.0
-1.852173949041706e6 2.3735505919466827e7 0.0
0.0 0.0 0.0

1.5547692796408795e6 1.189734145671823e7 0.0
1.189734145671823e7 -2.0989751418926794e7 0.0
0.0 0.0 0.0

-6.317632289666646e6 1.6113091322342474e7 0.0
1.6113091322342474e7 1.2345053145290464e7 0.0
0.0 0.0 0.0

-1.128445168141647e7 4.488029957984952e6 0.0
4.488029957984952e6 3.0487678262898903e7 0.0
0.0 0.0 0.0

-4.891176560714716e7 1.4821461180929847e7 0.0
1.4821461180929847e7 8.52349762591508e6 0.0
0.0 0.0 0.0

1.5302596083353413e6 1.1276285082833376e7 0.0
1.1276285082833376e7 -1.3443616637275908e7 0.0
0.0 0.0 0.0

404792.06454730034 1.5229365456320537e7 0.0
1.5229365456320537e7 -265886.4603243299 0.0
0.0 0.0 0.0

5.221008106798813e6 2.820797646999999e6 0.0
2.820797646999999e6 -2.4902834495124206e7 0.0
0.0 0.0 0.0

-1.6337686322811292e6 1.6987002788562756e7 0.0
1.6987002788562756e7 1.263720944976269e7 0.0
0.0 0.0 0.0

-1.2095193944534814e7 4.533090910613647e6 0.0
4.533090910613647e6 2.778846153616842e7 0.0
0.0 0.0 0.0

1.4660250004073358e6 6.2866390975615755e6 0.0
6.2866390975615755e6 -7.208290649752169e6 0.0
0.0 0.0 0.0

-1.5629118907357275e6 1.8184749773438595e7 0.0
1.8184749773438595e7 -5.375067127884924e6 0.0
0.0 0.0 0.0

-3.5845739666271647e6 2.04493010566869e7 0.0
2.04493010566869e7 828336.1296499674 0.0
0.0 0.0 0.0

-4.707553576592385e6 1.7965710839620467e7 0.0
1.7965710839620467e7 7.6729197528764205e6 0.0
0.0 0.0 0.0

-5.625216669634431e6 2.3641928532643795e7 0.0
2.3641928532643795e7 5.284097931163125e6 0.0
0.0 0.0 0.0

-3.890597464657049e6 1.6916289917922433e7 0.0
1.6916289917922433e7 361392.4716382022 0.0
0.0 0.0 0.0

-1.0106209625019949e7 -2.0811281014271e6 0.0
-2.0811281014271e6 3.3948646615530305e7 0.0
0.0 0.0 0.0

509948.38333171234 1.6341786655453762e7 0.0
1.6341786655453762e7 1.2709305035264703e7 0.0
0.0 0.0 0.0

834463.8324231599 1.4609378749808788e7 0.0
1.4609378749808788e7 -1.2805940511922192e7 0.0
0.0 0.0 0.0

-1.202812117914524e7 2.2502747044185825e7 0.0
2.2502747044185825e7 -79031.23814236093 0.0
0.0 0.0 0.0

-3.751079446294097e6 1.179820291913912e6 0.0
1.179820291913912e6 3.8809723608828457e6 0.0
0.0 0.0 0.0

-2.7049532424715348e6 2.418962296480799e7 0.0
2.418962296480799e7 2.3794128979701344e6 0.0
0.0 0.0 0.0

101934.98209818441 1.4775210464375427e7 0.0
1.4775210464375427e7 -1.5796813709626202e6 0.0
0.0 0.0 0.0

-1.12645709021054e7 1.4313740062305013e7 0.0
1.4313740062305013e7 1.972963016668039e7 0.0
0.0 0.0 0.0

3.0282874117661053e6 1.0084137782783927e7 0.0
1.0084137782783927e7 -1.734625811627109e7 0.0
0.0 0.0 0.0

-1.132202439255286e7 1.3191050295133179e7 0.0
1.3191050295133179e7 1.8946914412908055e7 0.0
0.0 0.0 0.0

2.2051979004597287e6 4.637887763564895e6 0.0
4.637887763564895e6 -6.966045732528647e6 0.0
0.0 0.0 0.0

4.218384109667238e6 6.80510425591048e6 0.0
6.80510425591048e6 -1.8895092638900958e7 0.0
0.0 0.0 0.0

-1.0048749070151416e6 1.7233655730537355e7 0.0
1.7233655730537355e7 -5.854764735470602e6 0.0
0.0 0.0 0.0

-3.756405120258064e6 1.8064759272310283e7 0.0
1.8064759272310283e7 2.0410976638134844e6 0.0
0.0 0.0 0.0

-3.2466938660343303e6 2.0578060208900895e7 0.0
2.0578060208900895e7 1.900365383290685e6 0.0
0.0 0.0 0.0

486990.2182114818 1.8611796261510693e7 0.0
1.8611796261510693e7 -6.482837205541988e6 0.0
0.0 0.0 0.0

4.581599028057832e6 5.293311774660407e6 0.0
5.293311774660407e6 -1.7314931276052404e7 0.0
0.0 0.0 0.0

1.7367042077787737e6 4.552382941281731e6 0.0
4.552382941281731e6 -5.576047606072788e6 0.0
0.0 0.0 0.0

3.8195027298821164e6 6.316388976794218e6 0.0
6.316388976794218e6 -2.0038471314085424e7 0.0
0.0 0.0 0.0

2.1154491312648742e6 6.254320096862886e6 0.0
6.254320096862886e6 -7.443551206892018e6 0.0
0.0 0.0 0.0

1.1149301379711196e7 1.6912655761967115e7 0.0
1.6912655761967115e7 7.453483480104263e6 0.0
0.0 0.0 0.0

-3.375309631257886e6 2.6437522380246043e7 0.0
2.6437522380246043e7 3.222300051162294e6 0.0
0.0 0.0 0.0

-9.947237521529367e6 -4.331183554490831e6 0.0
-4.331183554490831e6 2.6646632189510427e7 0.0
0.0 0.0 0.0

3.4823722686714195e6 7.566927490514678e6 0.0
7.566927490514678e6 -3.155342303279032e7 0.0
0.0 0.0 0.0

75767.66845499026 1.9149427207018048e7 0.0
1.9149427207018048e7 -6.393588067494146e6 0.0
0.0 0.0 0.0

-1.0137598798075595e6 1.699921268540152e7 0.0
1.699921268540152e7 -6.988056296317995e6 0.0
0.0 0.0 0.0

3.666423345020674e6 7.043336776436646e6 0.0
7.043336776436646e6 -2.4576325339443456e7 0.0
0.0 0.0 0.0

-5.9029506881385e6 2.6633090477173828e7 0.0
2.6633090477173828e7 5.3544564299003035e6 0.0
0.0 0.0 0.0

2.4830646784877027e6 1.8481236422425687e7 0.0
1.8481236422425687e7 1.0391058915734082e7 0.0
0.0 0.0 0.0

-3.2620007697892234e7 2.841948779680176e7 0.0
2.841948779680176e7 9.150877463095715e6 0.0
0.0 0.0 0.0

-5.114525590083308e6 1.671397047394566e7 0.0
1.671397047394566e7 1.5397995251177322e7 0.0
0.0 0.0 0.0

3.0337782435293198e6 9.32227251229249e6 0.0
9.32227251229249e6 -1.7733836194590118e7 0.0
0.0 0.0 0.0

4.773138481820568e7 1.7819139341002792e7 0.0
1.7819139341002792e7 4.9768258843813315e6 0.0
0.0 0.0 0.0

612410.1536789914 1.756140874622996e7 0.0
1.756140874622996e7 1.3508350351904191e7 0.0
0.0 0.0 0.0

-1.06295688808983e7 348048.2861745129 0.0
348048.2861745129 1.776651660975683e7 0.0
0.0 0.0 0.0

178127.13245796482 1.5503184919102645e7 0.0
1.5503184919102645e7 5.752120621066275e6 0.0
0.0 0.0 0.0

-901383.1209201617 1.399674931967768e7 0.0
1.399674931967768e7 -1.7745244676555097e7 0.0
0.0 0.0 0.0

3.9472139364133305e6 1.9066624513220258e7 0.0
1.9066624513220258e7 -4.988091648335744e6 0.0
0.0 0.0 0.0

-4.594893821915313e6 1.82299822029502e7 0.0
1.82299822029502e7 6.203218938794209e6 0.0
0.0 0.0 0.0

-1.1810596584999472e7 2.992150312702995e6 0.0
2.992150312702995e6 2.7104817415622253e7 0.0
0.0 0.0 0.0

-5.502456877559079e6 2.698954183657744e7 0.0
2.698954183657744e7 4.352575721950422e6 0.0
0.0 0.0 0.0

-6.081107501751794e6 1.8798586663330387e7 0.0
1.8798586663330387e7 3.991594636605467e6 0.0
0.0 0.0 0.0

-3.761924267685663e6 2.027617340630857e7 0.0
2.027617340630857e7 1.4057652916606248e6 0.0
0.0 0.0 0.0

-634198.4637972133 2.2546426884781085e7 0.0
2.2546426884781085e7 -2.436519013353563e6 0.0
0.0 0.0 0.0

-3.2686546261009825e6 2.2294663630849417e7 0.0
2.2294663630849417e7 1.4329556933821384e6 0.0
0.0 0.0 0.0

-1118.922263779561 1.5461535352376077e7 0.0
1.5461535352376077e7 -282470.7940349941 0.0
0.0 0.0 0.0

-2.5658137761155004e6 1.711167925424934e7 0.0
1.711167925424934e7 1.2879408405396502e7 0.0
0.0 0.0 0.0

1.2556796959607848e6 1.5896460318179326e7 0.0
1.5896460318179326e7 -848587.2151993491 0.0
0.0 0.0 0.0

-4.412453640577573e6 1.4747462886088425e7 0.0
1.4747462886088425e7 -2.788373820540101e7 0.0
0.0 0.0 0.0

-89525.00391110894 1.5552224267093685e7 0.0
1.5552224267093685e7 1.1565898462725657e6 0.0
0.0 0.0 0.0

-3.958391229224127e6 1.7918976619175266e7 0.0
1.7918976619175266e7 939603.960633313 0.0
0.0 0.0 0.0

-969383.0394498836 1.3316506435492016e7 0.0
1.3316506435492016e7 1.2652048129823286e7 0.0
0.0 0.0 0.0

-357660.66492561484 1.6991032854441244e7 0.0
1.6991032854441244e7 -9.292072191387933e6 0.0
0.0 0.0 0.0

1.2122039515275806e6 1.2917676473013332e7 0.0
1.2917676473013332e7 -1.5795131562959347e7 0.0
0.0 0.0 0.0

4.686644939902982e6 4.847704043923586e6 0.0
4.847704043923586e6 -1.794902660504369e7 0.0
0.0 0.0 0.0

168723.05968428263 1.7408613167065438e7 0.0
1.7408613167065438e7 1.212510378112235e7 0.0
0.0 0.0 0.0

-2.6633581918964824e6 1.71584579984298e7 0.0
1.71584579984298e7 9.193448577566044e6 0.0
0.0 0.0 0.0

-1.1343970362422839e7 1.3735557114921264e7 0.0
1.3735557114921264e7 1.8972691425707355e7 0.0
0.0 0.0 0.0

-4.565821545632178e6 1.7761402070131145e7 0.0
1.7761402070131145e7 6.999792443789967e6 0.0
0.0 0.0 0.0

-1.9538134919889872e6 1.73340858764814e7 0.0
1.73340858764814e7 -6.073232409842201e6 0.0
0.0 0.0 0.0

-1.1666400439366527e7 1.3794877314224938e7 0.0
1.3794877314224938e7 1.7598837589398816e7 0.0
0.0 0.0 0.0

-1.1907900608573236e7 1.3609430631898759e7 0.0
1.3609430631898759e7 1.9821189387281507e7 0.0
0.0 0.0 0.0

-1.1952902898998708e7 1.1648071823012602e7 0.0
1.1648071823012602e7 1.6329143862613102e7 0.0
0.0 0.0 0.0

-7.718067054438688e6 -5.419379214365401e6 0.0
-5.419379214365401e6 1.525469058275695e7 0.0
0.0 0.0 0.0

-4.323342778076172e6 1.9394803870994642e7 0.0
1.9394803870994642e7 7.684391924727976e6 0.0
0.0 0.0 0.0

-1.0897084369588317e6 1.352460568778375e7 0.0
1.352460568778375e7 -2.5042673660060976e7 0.0
0.0 0.0 0.0

719247.442632691 1.3073310709232345e7 0.0
1.3073310709232345e7 -1.896480763920759e7 0.0
0.0 0.0 0.0

-1.989294344517669e7 2.4707881418577727e7 0.0
2.4707881418577727e7 -1.8687876719726194e6 0.0
0.0 0.0 0.0

-1.036788763753302e7 2.3494720886142417e6 0.0
2.3494720886142417e6 3.462629628989829e7 0.0
0.0 0.0 0.0

1.1115626916800207e6 1.3470786442345325e7 0.0
1.3470786442345325e7 -1.7874554861869987e7 0.0
0.0 0.0 0.0

-2.6551536328374306e6 2.268285113549765e7 0.0
2.268285113549765e7 11641.992815111415 0.0
0.0 0.0 0.0

749935.1127963257 1.5745632091224682e7 0.0
1.5745632091224682e7 9.773469460838929e6 0.0
0.0 0.0 0.0

-3.915887074811364e6 -6.725433426740705e6 0.0
-6.725433426740705e6 1.146859431782349e7 0.0
0.0 0.0 0.0

-341594.2437621624 1.525262220605823e7 0.0
1.525262220605823e7 -1.791737896164459e6 0.0
0.0 0.0 0.0

-1.5485979295041072e6 1.6597850759215085e7 0.0
1.6597850759215085e7 -6.934622866237494e6 0.0
0.0 0.0 0.0

-1.0474497645715326e7 4.564862974995853e6 0.0
4.564862974995853e6 1.1887028759965861e7 0.0
0.0 0.0 0.0

5.066359820164505e6 2.4694000985687277e6 0.0
2.4694000985687277e6 -3.085483878319327e7 0.0
0.0 0.0 0.0

491224.9198488998 9.068163013830429e6 0.0
9.068163013830429e6 -7.623620950701825e6 0.0
0.0 0.0 0.0

-1.1763216475662347e7 -758947.0310852382 0.0
-758947.0310852382 2.1211283613702457e7 0.0
0.0 0.0 0.0

-444561.045195261 1.72930614783791e7 0.0
1.72930614783791e7 -9.249587920046832e6 0.0
0.0 0.0 0.0

2.6694276638485603e6 1.595963617014189e7 0.0
1.595963617014189e7 1.6990459673420634e7 0.0
0.0 0.0 0.0

412711.16298901825 8.660236290464437e6 0.0
8.660236290464437e6 -4.7840444534262195e6 0.0
0.0 0.0 0.0

2.730730404288561e6 1.821623855379133e7 0.0
1.821623855379133e7 1.1503528316461075e7 0.0
0.0 0.0 0.0

-3.8458903557659425e6 2.7026184606215168e7 0.0
2.7026184606215168e7 3.4445543231651294e6 0.0
0.0 0.0 0.0

-1.1318012292464174e7 484152.3682049734 0.0
484152.3682049734 1.5279267642030682e7 0.0
0.0 0.0 0.0

-2.0496238549609585e6 1.678407936810736e7 0.0
1.678407936810736e7 1.3152261563891355e7 0.0
0.0 0.0 0.0

2.5525756138001643e6 9.589752188198898e6 0.0
9.589752188198898e6 -1.8149357156259052e7 0.0
0.0 0.0 0.0

-1.5379106865231952e7 2.1568756611040365e7 0.0
2.1568756611040365e7 3.890407516595411e6 0.0
0.0 0.0 0.0

-5.474436871266961e6 -851190.6193521973 0.0
-851190.6193521973 5.75125125662402e6 0.0
0.0 0.0 0.0

-6.250138763131842e6 1.8773308342504412e7 0.0
1.8773308342504412e7 -4.732813199001366e6 0.0
0.0 0.0 0.0

2.001492658193026e7 1.790778394567837e7 0.0
1.790778394567837e7 4.481135748688421e6 0.0
0.0 0.0 0.0

-2.0351362658498902e6 1.8275114619481795e7 0.0
1.8275114619481795e7 -5.196408808410915e6 0.0
0.0 0.0 0.0

2.9526437239439655e6 9.760619730302282e6 0.0
9.760619730302282e6 -1.6874384310755037e7 0.0
0.0 0.0 0.0

-4.89866125803815e6 1.9538778465041395e7 0.0
1.9538778465041395e7 8.9025409567873e6 0.0
0.0 0.0 0.0

-9.70975067468067e6 -1.080008673162073e6 0.0
-1.080008673162073e6 3.916488943371026e7 0.0
0.0 0.0 0.0

-2.9127325983724874e6 1.721685631012501e7 0.0
1.721685631012501e7 -8.960556464077983e6 0.0
0.0 0.0 0.0

-2.733100337331603e6 2.46142784601537e7 0.0
2.46142784601537e7 2.499472995610313e6 0.0
0.0 0.0 0.0

196417.55291061476 1.2409691123765105e7 0.0
1.2409691123765105e7 -2.461121578264411e7 0.0
0.0 0.0 0.0

409137.4246153841 1.5185847258708695e7 0.0
1.5185847258708695e7 -1.4084835775099048e7 0.0
0.0 0.0 0.0

571598.9455617797 1.473967601628726e7 0.0
1.473967601628726e7 -1.5051437104912823e7 0.0
0.0 0.0 0.0

-1.1867888633843603e7 1.072094608349305e7 0.0
1.072094608349305e7 2.4367208608500913e7 0.0
0.0 0.0 0.0

-4.693110884969195e6 1.8561395515664093e7 0.0
1.8561395515664093e7 6.6522926872017905e6 0.0
0.0 0.0 0.0

-7.826905677348219e6 1.0072398893366914e7 0.0
1.0072398893366914e7 7.363470080616094e7 0.0
0.0 0.0 0.0

4.532937266986541e6 1.0542395731493726e7 0.0
1.0542395731493726e7 -6.2864673280979946e7 0.0
0.0 0.0 0.0

-1.0662574230926283e7 2.2522683536994144e7 0.0
2.2522683536994144e7 -4.309748504671591e6 0.0
0.0 0.0 0.0

-3.413341371138531e6 1.6577135824014286e7 0.0
1.6577135824014286e7 9.84620850043238e6 0.0
0.0 0.0 0.0

-1.6110892828913892e7 2.2138204301665332e7 0.0
2.2138204301665332e7 50483.523961127736 0.0
0.0 0.0 0.0

-5.476620432572387e6 -1.7134781229873905e6 0.0
-1.7134781229873905e6 9.937202811434813e6 0.0
0.0 0.0 0.0

-1.0077224178109357e7 1.4404614935909396e7 0.0
1.4404614935909396e7 1.5606729373699542e7 0.0
0.0 0.0 0.0

-7.225555143679792e6 1.9637714611047518e7 0.0
1.9637714611047518e7 -3.6858370358317886e6 0.0
0.0 0.0 0.0

-1.0822367472674944e7 432805.094856697 0.0
432805.094856697 2.342171627377732e7 0.0
0.0 0.0 0.0

1.915341730695324e7 1.6350236451069439e7 0.0
1.6350236451069439e7 4.1742940827091625e6 0.0
0.0 0.0 0.0

-2.2150486383223673e6 1.6845606891738094e7 0.0
1.6845606891738094e7 1.5571763055197919e7 0.0
0.0 0.0 0.0

-6.168568922050144e6 1.591424270742162e7 0.0
1.591424270742162e7 1.1983804181462765e7 0.0
0.0 0.0 0.0

-2.12984869571136e7 2.8707308014248867e7 0.0
2.8707308014248867e7 1.0651444061682751e7 0.0
0.0 0.0 0.0

1.9019723099718173e6 1.665393473186638e7 0.0
1.665393473186638e7 3.054726129666449e6 0.0
0.0 0.0 0.0

1.9226642394556664e6 1.5411140371595588e7 0.0
1.5411140371595588e7 -2.20301573082876e6 0.0
0.0 0.0 0.0

-4.759395524430187e6 2.0594342603672843e7 0.0
2.0594342603672843e7 7.877910799156947e6 0.0
0.0 0.0 0.0

-4.742581277040468e6 1.8139184969946492e7 0.0
1.8139184969946492e7 -361713.05567074753 0.0
0.0 0.0 0.0

-495919.7267257547 1.4165218619188964e7 0.0
1.4165218619188964e7 -2.227502338031961e6 0.0
0.0 0.0 0.0

1.872909448153283e6 1.610228250103226e7 0.0
1.610228250103226e7 -3.810740355473142e6 0.0
0.0 0.0 0.0

254301.47890964523 1.7010138163796596e7 0.0
1.7010138163796596e7 1.0262085333621653e7 0.0
0.0 0.0 0.0

251147.31669232243 2.5008081260512583e7 0.0
2.5008081260512583e7 -1.1618183893960388e6 0.0
0.0 0.0 0.0

-4.741339479106189e6 1.9170211457154114e7 0.0
1.9170211457154114e7 8.40898892336663e6 0.0
0.0 0.0 0.0

-4.956454736838757e6 2.6695668354069795e7 0.0
2.6695668354069795e7 2.9217999033228215e6 0.0
0.0 0.0 0.0

-3.3867683168000057e6 1.4309979494738758e7 0.0
1.4309979494738758e7 -3.076349482554209e7 0.0
0.0 0.0 0.0

-9.780001275458602e6 1.7081477269680753e7 0.0
1.7081477269680753e7 -5.7338265231733166e7 0.0
0.0 0.0 0.0

9.057265579717988e6 1.7268113878346693e7 0.0
1.7268113878346693e7 6.454585649159058e7 0.0
0.0 0.0 0.0

2.9107304278398473e6 1.6230230397546483e7 0.0
1.6230230397546483e7 1.652080089489356e7 0.0
0.0 0.0 0.0

2.5901622358131986e6 8.902923322964627e6 0.0
8.902923322964627e6 -2.7975701720861174e7 0.0
0.0 0.0 0.0

-999914.3402451858 2.4780382190217793e7 0.0
2.4780382190217793e7 -1.4634101810731268e6 0.0
0.0 0.0 0.0

-760404.2431275891 1.8248458194328252e7 0.0
1.8248458194328252e7 -7.214972651569103e6 0.0
0.0 0.0 0.0

-565138.0952417325 1.605097025130864e7 0.0
1.605097025130864e7 -4.975489677882233e6 0.0
0.0 0.0 0.0

-259963.1862923759 1.756530052344469e7 0.0
1.756530052344469e7 -8.82239969849917e6 0.0
0.0 0.0 0.0

-2.743926648346121e7 2.9705597856113903e7 0.0
2.9705597856113903e7 1.1251423541454768e7 0.0
0.0 0.0 0.0

-3.3940434076352767e6 2.4369716356302448e7 0.0
2.4369716356302448e7 2.11624133428057e6 0.0
0.0 0.0 0.0

-5.88102660288156e6 2.1058552947604183e7 0.0
2.1058552947604183e7 7.082580793475557e6 0.0
0.0 0.0 0.0

4.659109811778547e6 3.6782144598776554e6 0.0
3.6782144598776554e6 -3.2947836216764867e7 0.0
0.0 0.0 0.0

4.1834637755706944e6 1.9624829605789617e7 0.0
1.9624829605789617e7 -5.246927175085373e6 0.0
0.0 0.0 0.0

128999.30548794102 1.282611595084495e7 0.0
1.282611595084495e7 -2.330248823732638e7 0.0
0.0 0.0 0.0

3.2251607020816253e6 2.005077157954647e7 0.0
2.005077157954647e7 -5.160664093731334e6 0.0
0.0 0.0 0.0

-228674.3425963061 1.358767678598888e7 0.0
1.358767678598888e7 -1.4420808350768294e6 0.0
0.0 0.0 0.0

-1.5113619842828605e6 1.728565000161239e7 0.0
1.728565000161239e7 1.3780904241177045e7 0.0
0.0 0.0 0.0

-4.799478429451719e6 2.2407601007875074e7 0.0
2.2407601007875074e7 5.389534909582276e6 0.0
0.0 0.0 0.0

-9.851794288926046e6 -5.143184257098282e6 0.0
-5.143184257098282e6 2.1127989396034386e7 0.0
0.0 0.0 0.0

9.289377670103054e6 1.611492907537776e7 0.0
1.611492907537776e7 -641642.4264670457 0.0
0.0 0.0 0.0

-5.4159185812396675e7 2.005007433019213e7 0.0
2.005007433019213e7 6.881538053062521e6 0.0
0.0 0.0 0.0

-1.247164752636537e7 1.0844759549301364e7 0.0
1.0844759549301364e7 2.2246668149062127e7 0.0
0.0 0.0 0.0

-5.26214597464537e6 1.8644756223565422e7 0.0
1.8644756223565422e7 4.198148943848965e6 0.0
0.0 0.0 0.0

2.1690548593329918e6 1.6371197075349562e7 0.0
1.6371197075349562e7 -1.7054500359535618e6 0.0
0.0 0.0 0.0

5.101929414399775e6 3.890340884982751e6 0.0
3.890340884982751e6 -2.238594380286862e7 0.0
0.0 0.0 0.0

-3.4497243906625956e6 1.6939038442877356e7 0.0
1.6939038442877356e7 7.8206732534058e6 0.0
0.0 0.0 0.0

-9.847519325471113e6 -2.2538029965779553e6 0.0
-2.2538029965779553e6 3.444140064015854e7 0.0
0.0 0.0 0.0

-1.0509619137732547e7 1.9637634075858783e7 0.0
1.9637634075858783e7 -6.2364720978196256e7 0.0
0.0 0.0 0.0

9.53356450383344e6 2.1793872760574467e7 0.0
2.1793872760574467e7 7.038204265889016e7 0.0
0.0 0.0 0.0

1.758966978956893e6 1.1417109673708426e7 0.0
1.1417109673708426e7 -2.1726652643662352e7 0.0
0.0 0.0 0.0

1.365679994684268e6 4.643946925566759e6 0.0
4.643946925566759e6 -5.506204289501846e6 0.0
0.0 0.0 0.0

5.704131378163743e6 1.5925254187077135e7 0.0
1.5925254187077135e7 5.6579552566175945e6 0.0
0.0 0.0 0.0

-9.963509677081957e6 -383551.1065425132 0.0
-383551.1065425132 3.9309440416011035e7 0.0
0.0 0.0 0.0

1.2034332114727534e6 7.4010478698521415e6 0.0
7.4010478698521415e6 -6.571944573105804e6 0.0
0.0 0.0 0.0

789938.0917131599 2.400138238485801e7 0.0
2.400138238485801e7 -2.836829256648872e6 0.0
0.0 0.0 0.0

-266196.4015174797 1.5579506714936242e7 0.0
1.5579506714936242e7 -1.118717222637096e7 0.0
0.0 0.0 0.0

1.73806102914917e6 1.6071337270926712e7 0.0
1.6071337270926712e7 1.2111261590505997e7 0.0
0.0 0.0 0.0

-3.8230128042718736e6 1.8580699066657804e7 0.0
1.8580699066657804e7 246146.0606891364 0.0
0.0 0.0 0.0

-1.9169407327247858e7 2.0748455436051104e7 0.0
2.0748455436051104e7 -2.2283944044341817e6 0.0
0.0 0.0 0.0

-3.6091475678273505e6 2.413138891178414e7 0.0
2.413138891178414e7 2.600851943045648e6 0.0
0.0 0.0 0.0

-287093.43463805225 1.594903857197038e7 0.0
1.594903857197038e7 7.355695566876496e6 0.0
0.0 0.0 0.0

-3.10806016395516e6 1.709019128965951e7 0.0
1.709019128965951e7 1.1456024750910241e7 0.0
0.0 0.0 0.0

1.245902659421619e6 1.3503700422905484e7 0.0
1.3503700422905484e7 -1.5297286189613024e7 0.0
0.0 0.0 0.0

-249178.66345723253 1.7109022641475294e7 0.0
1.7109022641475294e7 -9.298203793019198e6 0.0
0.0 0.0 0.0

-1.051152816148515e7 909230.758000908 0.0
909230.758000908 3.763616241178861e7 0.0
0.0 0.0 0.0

-2.2950095295133322e7 3.063205977531756e7 0.0
3.063205977531756e7 7.90541707688355e6 0.0
0.0 0.0 0.0

-9.964725232560733e6 2.578409150674167e7 0.0
2.578409150674167e7 6.647015073050744e6 0.0
0.0 0.0 0.0

-2.0844546928720254e7 2.1534350472412847e7 0.0
2.1534350472412847e7 5.070784739421593e6 0.0
0.0 0.0 0.0

-177601.53710144793 1.5945465538992386e7 0.0
1.5945465538992386e7 2.384094409613498e6 0.0
0.0 0.0 0.0

-5.557509448181397e6 1.9079741797173336e7 0.0
1.9079741797173336e7 -758713.2042192566 0.0
0.0 0.0 0.0

-1.1017271120275266e7 2.175423004394059e7 0.0
2.175423004394059e7 212041.0330909351 0.0
0.0 0.0 0.0

1.862435807262308e6 6.802275038201278e6 0.0
6.802275038201278e6 -6.46351950852664e6 0.0
0.0 0.0 0.0

857861.6533342646 1.6484925933835316e7 0.0
1.6484925933835316e7 1.2862267224849535e7 0.0
0.0 0.0 0.0

3.4437046142743137e6 8.23247088379354e6 0.0
8.23247088379354e6 -2.7299575654450394e7 0.0
0.0 0.0 0.0

-1.151081946045729e7 1.1901566715237563e7 0.0
1.1901566715237563e7 2.3488415674027376e7 0.0
0.0 0.0 0.0

-9.351300739652691e6 -782663.2653849086 0.0
-782663.2653849086 4.031860394319072e7 0.0
0.0 0.0 0.0

4.825402296916977e6 3.805277358625204e6 0.0
3.805277358625204e6 -3.2570259649622668e7 0.0
0.0 0.0 0.0

-2.4309909605728008e7 2.187516662553681e7 0.0
2.187516662553681e7 4.015867226399133e6 0.0
0.0 0.0 0.0

-9.944370804051125e6 -3.265917828584527e6 0.0
-3.265917828584527e6 3.1253656946185067e7 0.0
0.0 0.0 0.0

-9.899293861909354e6 -4.284172094187424e6 0.0
-4.284172094187424e6 2.675796010304025e7 0.0
0.0 0.0 0.0

1.3545278358371374e6 6.560793501841163e6 0.0
6.560793501841163e6 -7.924899383850366e6 0.0
0.0 0.0 0.0

-1.0153549899819724e7 -3.053231583906088e6 0.0
-3.053231583906088e6 2.5684894207550786e7 0.0
0.0 0.0 0.0

796600.1884579156 3.127442077944915e7 0.0
3.127442077944915e7 -5.16134690437797e6 0.0
0.0 0.0 0.0

-5.713087912749449e6 1.6712414691613236e7 0.0
1.6712414691613236e7 1.1526998490562104e7 0.0
0.0 0.0 0.0

3.9128780232694447e6 4.603111203015605e6 0.0
4.603111203015605e6 -3.971301322660996e7 0.0
0.0 0.0 0.0

4.487297885505917e6 4.415154764903084e6 0.0
4.415154764903084e6 -2.6144801172158055e7 0.0
0.0 0.0 0.0

-4.82086153744206e6 1.8367135041333787e7 0.0
1.8367135041333787e7 5.933213676422896e6 0.0
0.0 0.0 0.0

-4.6316908670413215e6 2.658507338613482e7 0.0
2.658507338613482e7 4.1403697112408597e6 0.0
0.0 0.0 0.0

2.054297276104472e6 9.596701600400375e6 0.0
9.596701600400375e6 2.3763484268900016e6 0.0
0.0 0.0 0.0

5.030779332604418e6 1.8203193247010864e7 0.0
1.8203193247010864e7 1.0590895296004757e7 0.0
0.0 0.0 0.0

4.217891657785698e6 1.8895725982840825e7 0.0
1.8895725982840825e7 -4.642494947650431e6 0.0
0.0 0.0 0.0

-1.0226090284424366e7 -3.029354276465548e6 0.0
-3.029354276465548e6 3.0562380834247425e7 0.0
0.0 0.0 0.0

-1.3653343108837452e7 1.8930754536140233e7 0.0
1.8930754536140233e7 5.783134112643101e6 0.0
0.0 0.0 0.0

-3.5460152173148645e6 2.370433054312231e7 0.0
2.370433054312231e7 2.4612631572417626e6 0.0
0.0 0.0 0.0

-1.7190830160116274e6 1.5899114282117197e7 0.0
1.5899114282117197e7 3.276816340276195e7 0.0
0.0 0.0 0.0

5.30406799749923e6 1.91753751605825e7 0.0
1.91753751605825e7 -4.5344900114183165e6 0.0
0.0 0.0 0.0

-1.749468581564001e6 1.751734748782165e7 0.0
1.751734748782165e7 -5.8618530111150285e6 0.0
0.0 0.0 0.0

-5.162187137217709e6 1.7512112624921117e7 0.0
1.7512112624921117e7 1.2429044649537826e7 0.0
0.0 0.0 0.0

-1.6503324911653255e6 1.6836516129389953e7 0.0
1.6836516129389953e7 -6.235534481588577e6 0.0
0.0 0.0 0.0

-5.14986917375155e7 2.8002520591802567e7 0.0
2.8002520591802567e7 849082.959962029 0.0
0.0 0.0 0.0

-6.724990006375542e6 1.642037150114518e7 0.0
1.642037150114518e7 1.107859110620422e7 0.0
0.0 0.0 0.0

-1.7129958703693033e6 1.7687610214605868e7 0.0
1.7687610214605868e7 -5.14047030762194e6 0.0
0.0 0.0 0.0

-5.096158475776856e6 1.8022376853578005e7 0.0
1.8022376853578005e7 1.1870230255388629e7 0.0
0.0 0.0 0.0

2.9782742780668084e6 1.8608421165350344e7 0.0
1.8608421165350344e7 -4.891608721460588e6 0.0
0.0 0.0 0.0

4.788455991203072e6 3.9106558482820643e6 0.0
3.9106558482820643e6 -2.177702893265544e7 0.0
0.0 0.0 0.0

310299.4571703286 1.8181180179279942e7 0.0
1.8181180179279942e7 -6.849849101549514e6 0.0
0.0 0.0 0.0

-2.2521296443545353e7 3.056713015391733e7 0.0
3.056713015391733e7 7.688152076675565e6 0.0
0.0 0.0 0.0

-5.458733872637553e6 2.3327881537815705e7 0.0
2.3327881537815705e7 5.979335462546559e6 0.0
0.0 0.0 0.0

-8.178842177601483e6 -5.2455929697682485e6 0.0
-5.2455929697682485e6 1.5351796327702407e7 0.0
0.0 0.0 0.0

-83615.69114308804 1.5671811397321748e7 0.0
1.5671811397321748e7 -1.2439139051087668e7 0.0
0.0 0.0 0.0

7.44265873707746e6 1.6738586542745212e7 0.0
1.6738586542745212e7 335076.7157149473 0.0
0.0 0.0 0.0

-4.833359574065397e7 2.304755592017461e7 0.0
2.304755592017461e7 7.013149638208335e6 0.0
0.0 0.0 0.0

1.3316933522467283e6 1.4973255138468035e7 0.0
1.4973255138468035e7 8.509271696690422e6 0.0
0.0 0.0 0.0

2.9991132601812016e6 8.138999201042434e6 0.0
8.138999201042434e6 -2.880298981317015e7 0.0
0.0 0.0 0.0

957839.0432060612 1.3355822856541201e7 0.0
1.3355822856541201e7 -1.5205368741008386e7 0.0
0.0 0.0 0.0

-3.153676427866377e6 1.7198534778743077e7 0.0
1.7198534778743077e7 9.263907770298699e6 0.0
0.0 0.0 0.0

-6.2948127257019505e6 2.6772294542747658e7 0.0
2.6772294542747658e7 4.001305733000782e6 0.0
0.0 0.0 0.0

-1.6149615354033816e6 2.0593525872848712e7 0.0
2.0593525872848712e7 -3.207741535481176e6 0.0
0.0 0.0 0.0

4.927153764546977e6 3.6452266498032627e6 0.0
3.6452266498032627e6 -2.5585663974108495e7 0.0
0.0 0.0 0.0

1.1682085316385636e6 1.6105423935456183e7 0.0
1.6105423935456183e7 2.6324127067913182e7 0.0
0.0 0.0 0.0

-393599.71359611454 1.3298249298491072e7 0.0
1.3298249298491072e7 -1.565507171597628e6 0.0
0.0 0.0 0.0

-3.737354204080048e7 2.6486842745999165e7 0.0
2.6486842745999165e7 1.2062262997256856e7 0.0
0.0 0.0 0.0

-1.0798246126256075e7 -2.7960388969904846e6 0.0
-2.7960388969904846e6 2.204623420184376e7 0.0
0.0 0.0 0.0

-1.0090916972674096e7 -2.8965296512350915e6 0.0
-2.8965296512350915e6 2.4396265112273633e7 0.0
0.0 0.0 0.0

6.919583861503257e6 1.6687287490655685e7 0.0
1.6687287490655685e7 2.9049876802096292e6 0.0
0.0 0.0 0.0

-9.910433144186873e6 -3.338531837900274e6 0.0
-3.338531837900274e6 3.0485266793893076e7 0.0
0.0 0.0 0.0

1.1743731508393718e6 1.5206308533744873e7 0.0
1.5206308533744873e7 8.351345176801721e6 0.0
0.0 0.0 0.0

3.705279361528282e6 1.6305421520674245e7 0.0
1.6305421520674245e7 1.744497669470582e7 0.0
0.0 0.0 0.0

-1.6424894774802178e6 2.4778211725297958e7 0.0
2.4778211725297958e7 -28340.44659368554 0.0
0.0 0.0 0.0

-1.0287640241776643e7 3.978642435733051e6 0.0
3.978642435733051e6 4.129035859254892e7 0.0
0.0 0.0 0.0

-257155.56144895684 1.2898458628791438e7 0.0
1.2898458628791438e7 -2.361016954830321e7 0.0
0.0 0.0 0.0

938319.5117958272 7.186753018009697e6 0.0
7.186753018009697e6 -7.069636127074381e6 0.0
0.0 0.0 0.0

-2.9370779286059993e6 1.6903307785508487e7 0.0
1.6903307785508487e7 7.669872000780138e6 0.0
0.0 0.0 0.0

940449.6598921288 1.6734032769832073e7 0.0
1.6734032769832073e7 1.765000000697757e7 0.0
0.0 0.0 0.0

-1.0834386886029778e7 -1.908112646422089e6 0.0
-1.908112646422089e6 2.946825651036008e7 0.0
0.0 0.0 0.0

-8.970596146292586e6 5.91936389559089e6 0.0
5.91936389559089e6 7.8309443390357485e6 0.0
0.0 0.0 0.0

-3.8537940092682624e6 1.750898169842976e7 0.0
1.750898169842976e7 989962.7327417072 0.0
0.0 0.0 0.0

-2.148507486808637e6 8.66895053490819e6 0.0
8.66895053490819e6 1.1810798514104092e7 0.0
0.0 0.0 0.0

2.01535562568662e6 1.565821611306053e7 0.0
1.565821611306053e7 -2.947254011350587e6 0.0
0.0 0.0 0.0

-1.0723379674171481e7 -3.238365426206881e6 0.0
-3.238365426206881e6 2.3797450256198633e7 0.0
0.0 0.0 0.0

-9.50598862866224e6 3.982264335429477e6 0.0
3.982264335429477e6 4.42081134848503e7 0.0
0.0 0.0 0.0

1.6880945008733291e6 1.6128818611712873e7 0.0
1.6128818611712873e7 -2.1285427422870677e6 0.0
0.0 0.0 0.0

115656.69157456746 1.599606291600116e7 0.0
1.599606291600116e7 -1.0690578479857598e7 0.0
0.0 0.0 0.0

-9.543781203121897e6 3.836202518628053e6 0.0
3.836202518628053e6 4.379640096854112e7 0.0
0.0 0.0 0.0

3.2136640964430748e6 1.8554602224738978e7 0.0
1.8554602224738978e7 -4.954288319989848e6 0.0
0.0 0.0 0.0

585426.4387908755 1.5831750456512176e7 0.0
1.5831750456512176e7 1.260562167806728e7 0.0
0.0 0.0 0.0

-6.623383628032306e6 9.2865113607592e6 0.0
9.2865113607592e6 7.796355474262711e6 0.0
0.0 0.0 0.0

-6.601954332806578e6 7.200779946692174e6 0.0
7.200779946692174e6 9.267919915102001e6 0.0
0.0 0.0 0.0

-1.072744343813941e7 4.752164444261629e6 0.0
4.752164444261629e6 4.728129542027316e6 0.0
0.0 0.0 0.0

