# vtk DataFile Version 2.0
phase field modeling fracture
ASCII
DATASET UNSTRUCTURED_GRID
POINTS 2538 float
0.0 0.0 0.0
10.0 0.0 0.0
0.0 10.0 0.0
10.0 10.0 0.0
0.0 4.9995 0.0
0.0 5.0005 0.0
5.0 5.0 0.0
0.9416964895726688 0.0 0.0
1.803581725054446 0.0 0.0
2.592419885431098 0.0 0.0
3.314401822861676 0.0 0.0
3.975193910351406 0.0 0.0
4.579982132660152 0.0 0.0
5.133512780936812 0.0 0.0
5.640130319506143 0.0 0.0
6.103810708661955 0.0 0.0
6.528192895506818 0.0 0.0
6.916607540127679 0.0 0.0
7.272102969376355 0.0 0.0
7.597469242948583 0.0 0.0
7.895259826292669 0.0 0.0
8.167811885738017 0.0 0.0
8.417264413845215 0.0 0.0
8.645575169389538 0.0 0.0
8.854535961159101 0.0 0.0
9.045786767735546 0.0 0.0
9.220828555767493 0.0 0.0
9.38103509633881 0.0 0.0
9.527663687265145 0.0 0.0
9.661865124984566 0.0 0.0
9.784692609918062 0.0 0.0
9.897110148790482 0.0 0.0
10.0 0.09999999999992584 0.0
10.0 0.199999999999856 0.0
10.0 0.2999999999997771 0.0
10.0 0.3999999999996677 0.0
10.0 0.4999999999995511 0.0
10.0 0.5999999999994683 0.0
10.0 0.6999999999993983 0.0
10.0 0.7999999999993286 0.0
10.0 0.8999999999992587 0.0
10.0 0.9999999999991888 0.0
10.0 1.099999999999119 0.0
10.0 1.199999999999033 0.0
10.0 1.299999999998852 0.0
10.0 1.399999999998576 0.0
10.0 1.499999999998284 0.0
10.0 1.599999999997992 0.0
10.0 1.6999999999977 0.0
10.0 1.799999999997408 0.0
10.0 1.899999999997116 0.0
10.0 1.999999999996825 0.0
10.0 2.099999999996533 0.0
10.0 2.199999999996241 0.0
10.0 2.299999999995949 0.0
10.0 2.399999999995657 0.0
10.0 2.499999999995365 0.0
10.0 2.599999999995073 0.0
10.0 2.699999999994782 0.0
10.0 2.79999999999449 0.0
10.0 2.899999999994198 0.0
10.0 2.999999999993906 0.0
10.0 3.099999999993614 0.0
10.0 3.199999999993322 0.0
10.0 3.299999999993029 0.0
10.0 3.399999999992738 0.0
10.0 3.499999999992446 0.0
10.0 3.599999999992154 0.0
10.0 3.699999999991863 0.0
10.0 3.799999999991571 0.0
10.0 3.899999999991278 0.0
10.0 3.999999999991022 0.0
10.0 4.099999999991035 0.0
10.0 4.199999999991187 0.0
10.0 4.299999999991338 0.0
10.0 4.399999999991491 0.0
10.0 4.499999999991642 0.0
10.0 4.599999999991795 0.0
10.0 4.699999999991947 0.0
10.0 4.799999999992099 0.0
10.0 4.89999999999225 0.0
10.0 4.999999999992403 0.0
10.0 5.099999999992555 0.0
10.0 5.199999999992706 0.0
10.0 5.299999999992858 0.0
10.0 5.39999999999301 0.0
10.0 5.499999999993161 0.0
10.0 5.599999999993313 0.0
10.0 5.699999999993466 0.0
10.0 5.799999999993618 0.0
10.0 5.899999999993771 0.0
10.0 5.999999999993922 0.0
10.0 6.099999999994074 0.0
10.0 6.199999999994227 0.0
10.0 6.299999999994378 0.0
10.0 6.39999999999453 0.0
10.0 6.499999999994682 0.0
10.0 6.599999999994833 0.0
10.0 6.699999999994986 0.0
10.0 6.799999999995138 0.0
10.0 6.899999999995289 0.0
10.0 6.999999999995442 0.0
10.0 7.099999999995594 0.0
10.0 7.199999999995747 0.0
10.0 7.299999999995897 0.0
10.0 7.39999999999605 0.0
10.0 7.499999999996202 0.0
10.0 7.599999999996353 0.0
10.0 7.699999999996505 0.0
10.0 7.799999999996658 0.0
10.0 7.899999999996808 0.0
10.0 7.999999999996962 0.0
10.0 8.099999999997113 0.0
10.0 8.199999999997265 0.0
10.0 8.299999999997418 0.0
10.0 8.399999999997569 0.0
10.0 8.499999999997721 0.0
10.0 8.599999999997873 0.0
10.0 8.699999999998024 0.0
10.0 8.799999999998176 0.0
10.0 8.899999999998329 0.0
10.0 8.99999999999848 0.0
10.0 9.099999999998634 0.0
10.0 9.199999999998786 0.0
10.0 9.299999999998937 0.0
10.0 9.399999999999089 0.0
10.0 9.499999999999241 0.0
10.0 9.599999999999392 0.0
10.0 9.699999999999545 0.0
10.0 9.799999999999697 0.0
10.0 9.899999999999848 0.0
9.897110148790565 10.0 0.0
9.784692609918244 10.0 0.0
9.66186512498486 10.0 0.0
9.527663687265571 10.0 0.0
9.381035096339392 10.0 0.0
9.220828555768257 10.0 0.0
9.045786767736512 10.0 0.0
8.854535961160305 10.0 0.0
8.645575169391027 10.0 0.0
8.417264413847017 10.0 0.0
8.167811885740178 10.0 0.0
7.895259826295246 10.0 0.0
7.597469242951631 10.0 0.0
7.272102969379938 10.0 0.0
6.916607540131873 10.0 0.0
6.528192895511704 10.0 0.0
6.103810708667616 10.0 0.0
5.640130319512691 10.0 0.0
5.13351278094435 10.0 0.0
4.579982132668816 10.0 0.0
3.975193910361222 10.0 0.0
3.314401822869852 10.0 0.0
2.592419885437257 10.0 0.0
1.803581725058137 10.0 0.0
0.9416964895740705 10.0 0.0
0.0 9.00010000000243 0.0
0.0 8.000200000005481 0.0
0.0 7.000300000005135 0.0
0.0 6.000400000002569 0.0
0.901790731451151 5.000409820926855 0.0
1.657200899774397 5.000334279910023 0.0
2.289991063707192 5.000271000893629 0.0
2.820065163538221 5.000217993483646 0.0
3.264096435579811 5.000173590356442 0.0
3.636051481595835 5.00013639485184 0.0
3.947629914072366 5.000105237008593 0.0
4.208632181002628 5.0000791367819 0.0
4.427267949625672 5.000057273205037 0.0
4.610414277633563 5.000038958572237 0.0
4.763831845154243 5.000023616815485 0.0
4.892346298799659 5.00001076537012 0.0
4.892346298799748 4.99998923462988 0.0
4.763831845154455 4.999976383184515 0.0
4.610414277633943 4.999961041427763 0.0
4.427267949626277 4.999942726794963 0.0
4.208632181003523 4.9999208632181 0.0
3.94762991407365 4.999894762991407 0.0
3.636051481597624 4.99986360514816 0.0
3.264096435582253 4.999826409643559 0.0
2.820065163541503 4.999782006516354 0.0
2.289991063711534 4.999728999106371 0.0
1.657200899778495 4.999665720089978 0.0
0.9017907314530094 4.999590179073145 0.0
0.0 3.999600000002013 0.0
0.0 2.999700000005187 0.0
0.0 1.99980000000512 0.0
0.0 0.9999000000025537 0.0
9.897889398521345 2.93573355845387 0.0
9.906568249974548 7.060009441434234 0.0
9.913122631074113 3.64016132281653 0.0
9.922462129543863 6.354535290629151 0.0
9.917693659967533 4.354211663134567 0.0
9.909873057440208 5.637584487339942 0.0
9.914183254994697 4.950672966925282 0.0
9.913885043715895 7.666887930262611 0.0
9.91009668007573 2.351889069770817 0.0
9.905135696074536 8.138152454502785 0.0
9.913397459621809 1.849999999997262 0.0
7.099302372137626 0.297750452375005 0.0
7.095143729410097 9.700359990366296 0.0
4.942912558701401 5.095838627899509 0.0
4.315009232304429 5.165022115481685 0.0
4.946182472483878 4.906763777264103 0.0
4.317967462990024 4.825955043772673 0.0
9.916390871492647 8.64999999999792 0.0
9.921504649680616 1.368376469890358 0.0
8.292538149791614 0.206877570318844 0.0
8.292538149793597 9.793122429681448 0.0
5.884594439766573 9.587645267048616 0.0
5.794826292691579 0.3794853783929359 0.0
9.913397459621425 9.049999999998557 0.0
9.908526577714177 0.9568239351922434 0.0
3.456851160380649 5.315740054130451 0.0
3.457889657868442 4.707121019609468 0.0
8.945214200703926 0.1503383337970344 0.0
8.950161364448409 9.8413906539257 0.0
9.913862335499305 4.055887885208452 0.0
9.916697353372683 4.650158482607802 0.0
9.919076340414442 6.049999999994006 0.0
9.906994308667635 5.25749687748192 0.0
9.917490342358025 6.655979201891897 0.0
9.915757520293784 7.343848891656911 0.0
9.910049507471042 3.363474386285078 0.0
9.914471988502868 2.647400064832979 0.0
9.91474124160965 9.337490423485129 0.0
9.916971008170838 0.6499999999994355 0.0
4.307157269264427 9.509674045029644 0.0
4.331527375865619 0.4401616696422582 0.0
9.45434939180249 9.878397030523757 0.0
9.457696120412969 0.1270877537061785 0.0
2.555070293622606 5.422044496190925 0.0
2.566232917480916 4.608001224030952 0.0
3.026511860837692 9.332320638257093 0.0
2.945561971800619 0.5895662714727601 0.0
7.7395404387124 0.2511088946967771 0.0
7.736379255744154 9.745848826372828 0.0
4.687135269408529 5.122111433928926 0.0
4.688420821504113 4.871895064967488 0.0
9.910554884115975 0.3448356354522978 0.0
9.911230082250466 9.65764729394159 0.0
9.921953841410854 6.851023993342036 0.0
9.912065178606017 5.448170483544033 0.0
9.911660025326261 3.861846960030188 0.0
9.914847467973438 3.14501593945607 0.0
9.913397459621425 5.849999999993703 0.0
9.913397459621425 7.849999999996735 0.0
9.906916878988277 2.15455769998631 0.0
9.913397459621425 8.349999999997479 0.0
9.909472363117661 1.640528221515488 0.0
9.913987325695956 1.152857110636247 0.0
9.913397459621425 8.849999999998241 0.0
0.9100099990995943 2.614215977520411 0.0
0.8395284981715456 7.451196254860987 0.0
9.723278867451556 9.898135916635193 0.0
9.723316350887044 0.09841820909386662 0.0
1.385819164827588 4.454539963646463 0.0
1.338343629665047 5.523111536005823 0.0
1.377179700550677 0.6809168304959698 0.0
1.418060461092743 9.285896715136046 0.0
9.91268220142518 0.1457914080939694 0.0
9.906737126737994 9.845745933882352 0.0
0.7108351382691361 6.537941170074089 0.0
1.527735020267026 6.915620208855231 0.0
1.630993885659103 7.838271825205868 0.0
2.232760943566823 7.370850737296832 0.0
2.243414218068206 6.688299277952821 0.0
2.779655053105118 7.021588754814074 0.0
2.80227799359795 7.632420170547022 0.0
3.282022065908813 7.305859666021318 0.0
3.327597298795347 7.857554136825748 0.0
3.743210251018715 7.549183328204379 0.0
3.716353232200752 7.062036086888612 0.0
4.111978858674101 7.27497101169417 0.0
4.104192177581432 6.879858986267289 0.0
4.436230765617037 7.045693351607117 0.0
4.430360014817357 6.703971783962796 0.0
4.732390145036301 6.849841042423394 0.0
5.056161327708878 5.095276573498806 0.0
5.111586796021131 4.999081142133581 0.0
5.169267363407189 5.09444870412406 0.0
5.223795108752053 4.996986220359468 0.0
5.281480803887719 5.092780870372803 0.0
5.335670761900611 4.994887492556936 0.0
5.393485214772442 5.090486192743301 0.0
5.447323082877892 4.992601527033996 0.0
5.505243219343024 5.087953380710069 0.0
5.558739102026105 4.990287787962959 0.0
5.616491581184779 5.085335255235766 0.0
5.669852346908056 4.9879269227514 0.0
5.727502713908907 5.082679981817038 0.0
5.780766004135139 4.988313988715834 0.0
5.838244881129535 5.080480568766611 0.0
5.891357695677371 4.986433849408193 0.0
5.948696036767613 5.077969900389505 0.0
6.001601341641615 4.981313698556656 0.0
6.058851024265095 5.074871552128682 0.0
6.111614020704875 4.978360695880202 0.0
6.168801161530775 5.072044953270978 0.0
6.221368818778567 4.975825765213497 0.0
6.278268309066882 5.066182320461055 0.0
6.330814273567539 4.972837984645718 0.0
6.387565032421376 5.062889771971895 0.0
6.437476667631405 4.971693683589553 0.0
6.496181111585419 5.060210690175857 0.0
6.539454812256072 4.964658165361536 0.0
6.604198202576491 5.056387520850258 0.0
6.648506025747331 4.939374587506267 0.0
6.714026758992516 5.05873885840664 0.0
6.764418045981209 4.959246676066148 0.0
6.8219334571197 5.055299567406268 0.0
6.873708540948134 4.960426349093742 0.0
6.930181428849307 5.053461390218819 0.0
6.981893615341967 4.96435459462232 0.0
7.037791764774784 5.051219747103022 0.0
7.090993561518408 4.96392420322464 0.0
5.504417457283294 4.900897920552702 0.0
7.145434864123609 5.048960634292441 0.0
6.054532384032612 4.883956083938546 0.0
6.738027949040956 4.850032323068674 0.0
7.198432914526514 4.956325226333323 0.0
7.252637187936749 5.046012229327236 0.0
7.30926729605109 4.948903216650376 0.0
7.248106275544042 4.860306312845646 0.0
7.363100274863074 4.849952416808486 0.0
7.365733472701664 5.039519554615095 0.0
7.308483293090149 5.137557220352172 0.0
6.768399513646964 5.145609705119954 0.0
7.422800035311104 5.132251445551834 0.0
7.358273518796229 5.235980394389298 0.0
7.480824155801127 5.227946127939927 0.0
7.302193400058628 4.761917474298247 0.0
7.413570879789824 4.754555110721153 0.0
7.414392998903179 5.334729114426734 0.0
7.352769630272076 4.660405502266205 0.0
7.467556835255426 4.658352623795039 0.0
7.536246869015014 5.328986926716081 0.0
7.478865844607288 5.432598185493195 0.0
7.406396991826072 4.556956233957538 0.0
7.523581002009154 4.552005631348623 0.0
7.597792398573263 5.429506106314967 0.0
7.540511043402902 5.53619421580439 0.0
7.46214474876342 4.452580994318881 0.0
7.5852185078634 4.446021810672608 0.0
7.663329342323453 5.533453399066901 0.0
7.603478967594521 5.643227430483237 0.0
7.513450346818673 4.347641323140766 0.0
7.640744971722214 4.333388343316237 0.0
7.727671715775243 5.642390483050116 0.0
7.667774597993788 5.753188858425915 0.0
7.570065256728661 4.230515669344811 0.0
7.702881065467917 4.218307808529532 0.0
7.638288257073729 4.107994211855027 0.0
7.493362356301017 4.120843902105771 0.0
7.779018500630071 5.521233457321821 0.0
7.794641287388929 5.752364621610818 0.0
7.73369774483611 5.865894287356292 0.0
7.600834531784728 5.867752110500446 0.0
6.233038857278689 5.15645045634683 0.0
7.669727996028819 5.985665563643058 0.0
7.528582452554481 5.987393423295551 0.0
7.598722674572824 6.11001923494443 0.0
7.778305000222867 4.104318908265786 0.0
7.704329019832056 3.987744174608892 0.0
7.838453459801382 4.213322728668484 0.0
7.864495721576461 5.862306066517277 0.0
7.846552353360407 3.98481756181946 0.0
7.769730409703277 3.86544808681145 0.0
5.785249360396857 5.177248808588045 0.0
7.908837087876153 3.861484036275285 0.0
7.834824606222196 3.740586825753288 0.0
7.97685993406276 3.736209527152902 0.0
7.89665098770825 3.615501862931453 0.0
7.753228010315262 3.617800245018972 0.0
7.826063013090472 3.483173292579822 0.0
7.66789744383048 3.48859328808356 0.0
8.042515855796823 3.595394268381807 0.0
7.75200750488492 3.341279823834038 0.0
7.582870318332553 3.346584916806707 0.0
8.120807847415062 3.732493963388337 0.0
8.189783970303546 3.61159165475499 0.0
7.657801000286734 3.200439907646711 0.0
7.486781956172036 3.201402473247712 0.0
7.452595103886905 6.11418616185016 0.0
7.527098033550077 6.243191052852112 0.0
8.260502906807751 3.728437634721859 0.0
8.327629317451398 3.608173631356984 0.0
7.372763970891452 6.247552889754036 0.0
7.456170570815929 6.384992468962936 0.0
7.621837793616884 6.376077080857113 0.0
7.548039512904141 6.520750676893614 0.0
7.717475944451644 6.514856553988943 0.0
7.636658166268699 6.661648164052906 0.0
7.807468267259438 6.664076174524672 0.0
7.718022764310774 6.817938967122142 0.0
7.887785766941087 6.807440365887151 0.0
7.545993589083432 6.815070675854734 0.0
7.809874785067209 6.967537287475282 0.0
7.975643812145337 6.948729406725126 0.0
8.396477808021062 3.725446935061211 0.0
7.565651643157136 3.044354774611752 0.0
7.384328725505071 3.043048915147076 0.0
8.056405351948353 6.802790889114673 0.0
8.14128318237188 6.940027831915737 0.0
8.064621760266059 7.086348792208953 0.0
8.225003598857908 6.805225152373254 0.0
8.463085452993242 3.606998510553562 0.0
8.230426869720718 7.079551841000411 0.0
8.155262284174286 7.224761758176069 0.0
8.530696760758996 3.721683301125054 0.0
8.596669886994064 3.604516769862316 0.0
8.528531058025589 3.490411531312337 0.0
8.320451770844851 7.218191678954744 0.0
8.245273958732774 7.363444652121271 0.0
8.66324687389452 3.717094013035765 0.0
8.600103125209296 3.831913857228569 0.0
8.662131102573216 3.488322280861316 0.0
8.594166125380536 3.374071873435548 0.0
8.411074336066186 7.353871649576861 0.0
8.339644223432472 7.505172120620427 0.0
8.165883718619623 7.513159193685373 0.0
8.483453820080417 7.2082285366806 0.0
8.261200365730348 7.657400951288149 0.0
8.081570576666843 7.670933304838066 0.0
7.471613195794025 2.872548423100142 0.0
7.268733678357991 2.881209199257603 0.0
7.184255506995786 3.084448584600423 0.0
7.065899603697895 2.883902449336828 0.0
6.960163891183182 3.081014635802978 0.0
6.847612128388715 2.885646860602812 0.0
6.739800729737967 3.078895733381448 0.0
8.729373804596847 3.827689165637365 0.0
8.668550856907444 3.938702277545298 0.0
8.72770789162863 3.371798381178293 0.0
8.659764090070603 3.257493349874974 0.0
8.436453928793245 7.648724489148887 0.0
6.619080287792762 2.90880017416788 0.0
6.511740956842646 3.09340654756684 0.0
8.793527829963288 3.935174834810256 0.0
8.736430500996828 4.042719556852617 0.0
7.631260330584174 4.565300771328012 0.0
8.359058396840432 7.801678182761817 0.0
5.339436215072359 5.184870243702279 0.0
4.994031736761993 5.193306795607908 0.0
6.383387675268097 4.87760645722207 0.0
7.29117392392962 6.382172868329505 0.0
6.378196825372041 2.907113079755629 0.0
6.269817199014261 3.12412150658573 0.0
8.793149127377946 3.255386294257182 0.0
8.725774239201558 3.141596687892195 0.0
8.857434600673502 4.041295940541356 0.0
8.802868937128341 4.1471119953668 0.0
8.532045262478793 7.7905977476835 0.0
7.364542641624493 2.699128473342751 0.0
7.571677611088925 2.695732556686516 0.0
6.723058333614999 2.672341359410618 0.0
8.456744924757372 7.94483904450548 0.0
6.140831279784704 2.921247401137864 0.0
6.02419219050745 3.14358702955763 0.0
8.916255604212301 3.934279868822481 0.0
8.859287250884009 3.140226640574265 0.0
8.791092798057303 3.025929352146465 0.0
7.210445465986021 6.245773134960393 0.0
7.120884161792869 6.385155584680196 0.0
7.036931702064287 6.240721609143972 0.0
6.943722280007011 6.3869279517155 0.0
8.920094519678617 4.144837222494242 0.0
8.864374107136287 4.250930406527029 0.0
7.347569838739255 4.463467417508182 0.0
5.90383431757064 2.935113219563906 0.0
5.783476009580765 3.156456199832474 0.0
8.626013191558314 7.935092223505354 0.0
8.687240186957197 7.796697889991163 0.0
5.642059327424706 2.903018174330269 0.0
5.52647853955939 3.162549070310043 0.0
8.555300051897738 8.086169516016518 0.0
8.405624441178524 8.083972416481254 0.0
5.374124307190728 2.945480555950917 0.0
8.935805220807357 3.249260758206028 0.0
8.981625171409894 4.247375537584228 0.0
8.924725364486765 4.352101286657735 0.0
8.807208588134106 4.356163101450244 0.0
8.868277832430604 4.45657124153171 0.0
8.75099635287701 4.460644845248524 0.0
8.812385950597063 4.560891222623518 0.0
8.693833206943118 4.564602972998703 0.0
8.756474732548273 4.665720853686476 0.0
8.63721608225855 4.669394550615355 0.0
8.700108119351134 4.770682016274914 0.0
8.81920502916846 4.767536120893284 0.0
8.76355311338807 4.871451945248518 0.0
8.881442328033694 4.868382238751069 0.0
8.826433523510634 4.97132552240372 0.0
8.943387824985514 4.967694248194483 0.0
8.888718468126953 5.071044784833541 0.0
8.580377663835254 4.774669738817985 0.0
8.770572242937233 5.073880380431421 0.0
8.832915096600454 5.174518948293615 0.0
8.952224483821848 5.170970838320107 0.0
8.897282771771884 5.275476392171722 0.0
7.463928467290875 2.513944501591933 0.0
7.675935950092034 2.509420347143072 0.0
8.924252417741767 3.024418701372628 0.0
8.857265893102921 2.911213535286156 0.0
8.776981063213334 5.27944309004916 0.0
8.840710910770163 5.380165700477552 0.0
8.960876896785969 5.375521424256389 0.0
8.904555918255223 5.482125846038813 0.0
7.567193097677677 2.32750151280277 0.0
7.780880844888839 2.323064027160363 0.0
6.851602118390116 6.234522818184622 0.0
6.758680682687229 6.389359516748128 0.0
6.66345977321418 6.231254850996584 0.0
8.715764716958308 8.079994249772627 0.0
8.65189989696114 8.227534663647639 0.0
9.042229096541828 4.348551764001607 0.0
6.436774206993324 3.316782326998922 0.0
7.590527613340588 5.22651784724799 0.0
9.024366884701616 5.476726561488805 0.0
8.968734351641839 5.583879050892151 0.0
8.845941080047659 5.586406316932274 0.0
8.909881305857882 5.690482454668167 0.0
7.348726871578975 5.44047403999932 0.0
6.567070253986433 6.398115757512583 0.0
6.697077150072261 6.553426749743366 0.0
5.252377383990728 3.187782967482479 0.0
8.988440431820699 2.908621158637298 0.0
8.922541972760119 2.796420836075996 0.0
6.466806010659505 6.229115583261771 0.0
9.033851153821296 5.686506775615425 0.0
8.978340519963718 5.795772485582058 0.0
8.85111463793018 5.798672910287243 0.0
8.922171984280597 5.907237880910408 0.0
8.795190680908043 5.911854068712683 0.0
8.864373398892472 6.019728357749566 0.0
8.991346995940626 6.014539153309398 0.0
8.93374019140187 6.12698887312768 0.0
5.095192648098848 2.952353430985476 0.0
7.672651464908932 2.141715359830917 0.0
7.886266921042761 2.136211284120189 0.0
9.098474286589756 4.245971410451114 0.0
8.813172564986438 8.216887361735234 0.0
8.74802978243154 8.366104673219047 0.0
9.059985162956899 6.120982589539211 0.0
9.00342813739303 6.233245043891739 0.0
4.961413514304496 3.214209167276753 0.0
9.05248113004685 2.794651022570942 0.0
8.986028039118027 2.681341972594222 0.0
5.671890458441996 3.377122473800023 0.0
4.755829262593116 7.184480462344647 0.0
9.158258644940048 4.34465968221255 0.0
4.799687186662534 2.961354824469195 0.0
6.030554747591715 2.726787502996874 0.0
8.938327180212585 8.34758372042188 0.0
8.847392320655468 8.503370672816716 0.0
8.67342124373679 8.518117686968314 0.0
5.234423106934083 2.694925204361751 0.0
8.964923046453565 8.185313058214797 0.0
7.456650986668838 2.134076476407834 0.0
9.111732084821366 2.897226832609386 0.0
6.368055837513985 6.402805870976705 0.0
6.265629899005033 6.226581076317183 0.0
8.736327196352686 6.026404178766982 0.0
9.117473097358854 2.67987006607594 0.0
9.052137415465204 2.565428515518978 0.0
7.781001557847192 1.955874236406257 0.0
7.992134447300669 1.949184538864554 0.0
8.593074792993455 3.143159483125708 0.0
9.1291360203536 6.226877897052981 0.0
9.072154326613617 6.338696745620542 0.0
8.916532550320525 2.566986282201109 0.0
8.984021113721658 2.449252898983242 0.0
9.178032243215632 6.120533546076094 0.0
9.213703592343162 4.244823670856978 0.0
9.11972142641474 2.449071238668887 0.0
9.052853896812186 2.33190758581705 0.0
8.635035926402708 4.462329956179506 0.0
8.773614475966344 8.657865377672689 0.0
8.596400917257634 8.67759750279447 0.0
8.942023339420883 8.644678093589654 0.0
9.19471670675691 6.33096438039349 0.0
9.138460613363325 6.443043552768813 0.0
8.66620319432524 5.916297234509582 0.0
8.606669825267202 6.032658196729024 0.0
9.27222540210304 4.341341907533128 0.0
9.013782808177437 6.451040569407859 0.0
9.08360982569773 6.55729980456602 0.0
7.885622149776354 1.768093045890686 0.0
8.095672144455353 1.768790621151345 0.0
9.208772072925791 6.549717411809656 0.0
9.154272208194383 6.662613503537815 0.0
9.187669783927937 2.334640996932141 0.0
9.122379015831417 2.215832190697178 0.0
6.164077036161143 6.404611236428829 0.0
6.062367614988677 6.224307160647549 0.0
8.987075041759633 2.211477580983978 0.0
9.056972755801603 2.093573581203428 0.0
9.194557288902232 2.096029761809264 0.0
9.131223008370409 1.972713028695079 0.0
8.87381302587057 8.795793668920256 0.0
9.039169086943392 8.781606667490083 0.0
4.662813350519927 3.228118291851354 0.0
4.474181267994617 2.945703616023359 0.0
6.562627723301209 6.075544382232434 0.0
9.326886053211574 4.243083624343211 0.0
9.280374192897945 6.656072830232892 0.0
9.224718905178564 6.766740750539347 0.0
4.703284910421452 6.528907865005451 0.0
8.955136474970331 6.565989985649191 0.0
8.998148826814893 4.865480736169776 0.0
8.99429836796776 1.965972383552685 0.0
9.065669391141741 1.847195105148808 0.0
9.207236162050343 1.853010386995843 0.0
9.143218073349985 1.725630086781897 0.0
8.998867447699345 1.719378449325465 0.0
9.082595782768397 1.592017827427701 0.0
8.92804562738841 1.585238202229766 0.0
9.01637794607019 1.453847302675876 0.0
8.854253119154375 1.446306868730686 0.0
8.941620273019874 1.320083886766936 0.0
8.775393064215876 1.308487027359826 0.0
9.102170347200483 1.324733726345249 0.0
9.013857060361985 1.178821526410403 0.0
7.991031819452564 1.587689878441685 0.0
7.767218744640202 1.595993197647291 0.0
9.191539171305216 1.194087248761656 0.0
9.123965901037613 1.057102462689568 0.0
4.853921953226772 3.470213116851758 0.0
7.496563223334782 3.470157221608763 0.0
8.536691379028115 5.921845852206257 0.0
8.475496498707471 6.037633662010236 0.0
7.978668526342969 2.307231488316941 0.0
9.384721922092124 4.337357165846226 0.0
9.331039180200886 4.435926256444196 0.0
8.546261775564837 6.150267290476958 0.0
8.411727261785726 6.155319300628062 0.0
8.972203609044218 8.930944433074036 0.0
9.133480321468399 8.90955269607895 0.0
9.197778815538276 8.768743880012563 0.0
6.162231825784922 6.05277753404107 0.0
5.962111081146334 6.046949845237622 0.0
9.268727788642101 4.146883230687689 0.0
9.380694211527906 4.144811697563401 0.0
9.323823335199954 4.049557759546529 0.0
9.283324894520613 1.736313094621396 0.0
5.858151623803662 6.22041808248046 0.0
5.759668475561988 6.038806123495502 0.0
7.836860473863919 3.191674397465999 0.0
9.348591928839294 6.75855034547469 0.0
9.293979592221298 6.870213350675044 0.0
9.170543172728557 6.879819332293818 0.0
9.240028263813034 6.983394994050525 0.0
4.347372565145963 3.312731475520695 0.0
4.114183445909965 2.96879678229065 0.0
8.616264880152233 4.042035981070631 0.0
9.403174760076901 6.650407069150438 0.0
4.173860112179449 7.723461240865885 0.0
9.365302975518428 6.973476802087294 0.0
9.312420275675276 7.088420778208979 0.0
9.184876614539778 7.0978133687822 0.0
9.25921281729617 7.204979813006656 0.0
9.12816413817609 7.21569648263899 0.0
9.203944409919862 7.322703303071253 0.0
9.334311975087337 7.311477957762272 0.0
9.280415785210538 7.428795599957155 0.0
9.274060219641907 1.066603180421249 0.0
9.211820491509728 0.9316562593680151 0.0
9.050684011148748 0.9017681241401576 0.0
9.441953732403995 4.432092590771756 0.0
9.394725873909666 4.526051349391942 0.0
9.43453556160865 4.048003950509361 0.0
9.378043599351757 3.952631412328806 0.0
9.289691247910705 8.890746792319852 0.0
9.228148443138926 9.030109127390128 0.0
4.440757888677695 6.389562448928118 0.0
4.689874463978985 6.239329075084555 0.0
4.291519540095677 2.622920583112654 0.0
3.886073352912894 2.632778677714434 0.0
9.344015622314338 1.202401041544343 0.0
8.193292196814806 3.849649660906171 0.0
6.960946604527747 6.07044529864598 0.0
9.347708267319902 8.756364147482309 0.0
6.826423138602714 3.261415861395883 0.0
6.06309517882478 5.884563187328262 0.0
9.4085057714426 7.414123963607981 0.0
9.356416821537886 7.532359471354527 0.0
5.042074134251055 6.938947182785697 0.0
5.063988238156824 7.311205832605263 0.0
3.946666851334923 3.30681624613374 0.0
8.189857914071878 1.939951128540477 0.0
7.880690277686857 1.38928908049477 0.0
7.63766396748483 1.399736360041063 0.0
9.345004233592562 1.857695941115052 0.0
9.440465164139875 7.085860901905448 0.0
7.918332480761888 5.744468010879592 0.0
9.08007135068879 5.372457017512481 0.0
8.78639561093144 3.718391405525285 0.0
9.356843485085705 0.9414458825132457 0.0
9.29705128845331 0.8103081541678832 0.0
9.251825423225316 2.451701826351773 0.0
8.483895366325516 6.270717564685176 0.0
8.346386886249478 6.275973306650227 0.0
9.493299170161215 4.138582531223591 0.0
5.321115649032961 7.117073603021904 0.0
5.354076009109965 7.436189411362466 0.0
5.597984079819928 7.254284331170681 0.0
5.644042313435943 7.564172740776336 0.0
5.383963016128051 7.753854027984002 0.0
5.681168258142109 7.880444993178456 0.0
5.935548099874979 7.687258900444162 0.0
5.979508404301389 7.994332725561488 0.0
6.21936843555201 7.802335560754011 0.0
6.267092590637372 8.104873033518185 0.0
6.498845418385807 7.917606504106031 0.0
6.544600005636809 8.209910620392591 0.0
6.77336078689533 8.027284686082275 0.0
6.814840179123049 8.311778392637773 0.0
6.721304148677048 7.737863326704131 0.0
7.031320924898797 8.1335673274533 0.0
7.077388928622946 8.403901803728003 0.0
5.417471987089176 8.090112295667405 0.0
8.845427688507666 2.446352368201366 0.0
9.318512319918124 2.339233739859646 0.0
9.380241452597096 2.451895615249572 0.0
7.283805558009199 8.237518806365102 0.0
7.329200330160381 8.497045124353782 0.0
7.233272584416691 7.991590926766813 0.0
9.142592248414191 5.471315142785471 0.0
9.196303265878848 5.36738298742727 0.0
9.25795832955665 5.465260877691205 0.0
9.310581303233182 5.36341558704714 0.0
9.371094700882272 5.459458038195667 0.0
9.422767107822985 5.360687090455724 0.0
9.36402660964156 5.264821436196721 0.0
9.474220736978928 5.262802348886269 0.0
9.41680330511366 5.169477108906666 0.0
5.168675939028436 4.895496152382537 0.0
9.482591449057548 5.454699312257291 0.0
9.431567605310825 5.552723344040521 0.0
7.531449703396948 4.741663470323411 0.0
8.517293123442691 4.672601123164268 0.0
8.459978676626639 4.778466809901586 0.0
8.396595115309985 4.67568709170855 0.0
8.338966609235166 4.782101664607259 0.0
8.275355646032752 4.678829956447008 0.0
8.217675280223542 4.785699596769931 0.0
8.28149024865807 4.888803783902183 0.0
8.16019781596952 4.892696417098926 0.0
8.22433278506531 4.995725219088695 0.0
8.102825704443651 4.999629142625341 0.0
8.166887930010795 5.098242831115916 0.0
8.034904900788316 4.896825406879729 0.0
8.15353539905931 4.682103688185489 0.0
8.211891449058882 4.574219757233394 0.0
8.290305306104333 5.094007100958221 0.0
8.225684228618732 5.201525567655179 0.0
9.444618942559746 2.343141375196729 0.0
6.929446520625337 4.868116916840016 0.0
5.737810725167649 4.893891407574175 0.0
8.720389971487277 5.38508368411851 0.0
8.805734920311323 8.951818172412821 0.0
8.905272694453211 9.083303226359831 0.0
6.006155038818204 5.171375272745409 0.0
6.431496448228514 5.152985998213245 0.0
9.052675024457304 7.106590131831544 0.0
7.740007013494393 6.09727525827826 0.0
9.375852260355511 9.013078430361404 0.0
9.32035844773103 9.14584923943073 0.0
6.989707597683965 5.146377438798643 0.0
9.488190206836386 3.951168069367155 0.0
9.432429152094464 3.855725756072153 0.0
5.568386402814275 5.185723849666124 0.0
9.525561551078322 5.166162126187324 0.0
9.465026391994275 5.072601962964018 0.0
9.320357339516937 3.857795423728873 0.0
9.375955927831914 3.759314274140895 0.0
9.261783786753899 3.761412578759438 0.0
9.31820665563318 3.661845422072752 0.0
9.431798673168924 3.660830894813109 0.0
9.374584413615914 3.563138564686839 0.0
9.48759661134647 3.562294297118573 0.0
9.431339678707085 3.464016717943268 0.0
9.417896212887529 1.746970678437863 0.0
8.731705369070733 9.110902182838881 0.0
5.652297951447118 6.21188565774667 0.0
5.569122518069258 6.024400786163834 0.0
8.257007204149394 3.505875091031567 0.0
8.717428603143034 2.925525757227976 0.0
6.882852832747376 8.57686572931064 0.0
6.337330066435714 8.416819098143066 0.0
9.50188906539997 4.521022403818629 0.0
9.453500859905136 4.617181635748691 0.0
9.46806769570129 6.749352117850711 0.0
8.836822104875719 1.72282859852854 0.0
7.481071063421426 5.64593758994851 0.0
5.668814988976305 5.86611128457842 0.0
5.487644760735084 5.847591822776978 0.0
8.993992818065195 7.228173913870249 0.0
7.98322414937693 7.229980191466666 0.0
9.22810751684646 7.54864871395298 0.0
9.304103360459063 7.654622011545798 0.0
9.432787371848761 7.633691049023619 0.0
9.382619818023882 7.759136995934441 0.0
7.239096822516492 4.679179578301165 0.0
9.47692479956498 1.861231395362419 0.0
8.041243110813022 5.095895152648969 0.0
6.190208781188077 7.509864122823853 0.0
9.283062812782122 4.549418667685757 0.0
9.503847665760087 2.450295046295932 0.0
9.443345385250678 2.557904120404248 0.0
9.52009568463353 6.644015937008899 0.0
9.203119005973903 3.662458522935253 0.0
8.406198651282708 5.92630414760378 0.0
8.467263597743843 5.811987729136874 0.0
9.461423029059445 9.128120577356565 0.0
9.408445330070542 9.26024300250086 0.0
9.266505293379728 9.277952925446408 0.0
4.14874709022218 3.631681332690154 0.0
9.437448107949258 0.8198473430736303 0.0
9.376993771693973 0.6910550697058979 0.0
9.22882356848217 0.6931820370818127 0.0
4.451823867195988 6.103664366188579 0.0
4.200031743909027 6.232039028149317 0.0
4.687154754667774 5.975132870483986 0.0
6.268889397098538 6.592235545990395 0.0
7.509366161722768 8.340075462391164 0.0
7.564775703413765 8.59800936579159 0.0
9.542148732924264 3.854614593058991 0.0
7.036231103929761 6.550562550831048 0.0
4.089373665437328 2.268193930262139 0.0
3.642558884866483 2.250386188148396 0.0
3.442182385618804 2.651948803899947 0.0
3.146832503011753 2.222630466765926 0.0
2.948870467975985 2.805088883766417 0.0
9.352005315330274 5.067356449300542 0.0
9.31729677031493 3.462944187594675 0.0
9.37428383619102 3.365546369736205 0.0
9.4883538239391 3.365384871181599 0.0
9.432147665178338 3.267287636377487 0.0
9.25034519267688 7.775848812012313 0.0
9.332091350002502 7.881724023243533 0.0
9.462101000264603 7.86490055671988 0.0
9.413353271651825 7.98561007219363 0.0
8.273592814723814 6.158623919352561 0.0
8.207135014732339 6.280394934566054 0.0
9.541483811580331 5.548224291759592 0.0
9.491365919893726 5.644847811894615 0.0
8.088095771120983 4.577581369371366 0.0
8.14760102783746 4.468303741922308 0.0
9.556217963323956 4.414867468889523 0.0
9.543667331547693 3.266908751519594 0.0
9.489307652535885 3.169908976697059 0.0
9.26285575842982 8.635341362685686 0.0
9.403220742003983 8.621447866627538 0.0
9.326013417886902 8.506778946171965 0.0
9.455477927154853 8.503896705359047 0.0
9.566646674069602 4.611465258087684 0.0
9.499341049870914 0.9352184973273918 0.0
8.683891958597638 1.444705608998412 0.0
8.599973456173778 1.287265568270043 0.0
7.760988189317371 1.175381292562583 0.0
7.50927661322749 1.171223823957793 0.0
7.380927152434357 1.411062577009695 0.0
7.242417847270241 1.170759311509981 0.0
7.107236746116019 1.421234419770886 0.0
6.960799033544566 1.169618322344823 0.0
6.817786081200392 1.434174581170586 0.0
9.48095050141868 8.738557748483624 0.0
9.319762046171894 3.263060331456388 0.0
8.920653400180534 7.117307656029475 0.0
9.452431221190624 6.544166520883111 0.0
9.571407933653493 6.540336592280795 0.0
9.507586285214174 6.443281357841339 0.0
9.575252974749443 5.070210512157044 0.0
5.755172844377253 6.370710487467459 0.0
9.541351959064952 7.969072511059531 0.0
9.354607289792183 9.3921968735401 0.0
9.495213435762107 9.37218405175897 0.0
3.77688136092967 3.643094492921176 0.0
5.460967180339239 6.159077196937325 0.0
8.656589552918996 5.283032675040985 0.0
8.599307076390474 5.387421722684671 0.0
9.584017606465821 5.263931993965828 0.0
9.51536593891754 4.977534386249715 0.0
7.788544970111893 2.70578432810479 0.0
7.381746833264364 8.755477463411431 0.0
7.615969996822885 8.852710176548548 0.0
7.783643411970649 8.691528137204457 0.0
7.845017394185501 8.938777577473743 0.0
8.570520580943368 7.342304222498308 0.0
9.103648004226827 5.781084627507008 0.0
8.338082930126799 5.815990105349368 0.0
8.930848895071895 4.561111316304916 0.0
7.381089602119859 5.983657236035151 0.0
8.42066837692862 6.393608568217351 0.0
8.888256157021065 6.459558428285236 0.0
8.826495664731354 6.575679897210801 0.0
4.22522220414496 5.921354747981145 0.0
3.943296448343383 6.075578573904587 0.0
9.563175937841836 2.554860696349795 0.0
9.505342423182917 2.656889632284623 0.0
6.660863480070611 1.168750929063519 0.0
6.518316961679488 1.436478598119306 0.0
6.683474168246802 1.694104067636375 0.0
6.376799057174731 1.707382100972048 0.0
6.205091481342603 1.443621641108414 0.0
6.058670988071357 1.728841803855816 0.0
5.877457486049096 1.454297236926778 0.0
5.724979192982589 1.756666409586195 0.0
5.529885788012015 1.462283739157555 0.0
9.514953777019835 0.7018468683209754 0.0
8.398665270372675 5.702731562702358 0.0
9.456442249775696 0.5772068858285652 0.0
9.565795671866349 2.345573662774494 0.0
8.830758563027459 9.247271599108435 0.0
8.523580738257648 4.88015211128435 0.0
5.580123316488715 5.701889892660689 0.0
5.398591029446707 5.685938459654249 0.0
5.367686360823392 1.778740548277203 0.0
9.546603444041448 1.754984055696778 0.0
9.489649223089446 1.641312329051244 0.0
9.617973952467912 3.363804764345866 0.0
9.584322830999731 6.729956156156573 0.0
9.597221861144487 3.948534024289882 0.0
9.49401963819799 8.089507968561776 0.0
9.207321074262563 9.416906871900888 0.0
8.27185428346661 4.464932191097996 0.0
8.207416067213774 4.35878753684812 0.0
8.332747746635944 4.354903699457511 0.0
3.990181919126853 3.930792395858886 0.0
8.267392138262498 4.254008221702929 0.0
7.997788712685495 1.196805377512679 0.0
9.600316638269724 5.639973985281733 0.0
9.550939606739425 5.737313319038155 0.0
9.44084303195315 5.74233753256161 0.0
9.50112296154558 5.834555019909565 0.0
8.897429225733994 6.685415510921676 0.0
8.762930941408914 6.695907295903629 0.0
8.654628175336732 9.278157371342388 0.0
8.544676900803436 9.133790942553834 0.0
5.294904777716057 5.855935872688884 0.0
5.216749389964556 5.66865685845661 0.0
9.508453581298625 2.239460033375932 0.0
9.599691370793206 3.169496930704394 0.0
9.546615051106684 3.073514534194011 0.0
7.484714626923596 5.028675123117963 0.0
9.588496050271255 7.850836295555126 0.0
5.153197381012662 1.471340286561097 0.0
9.433168304679345 3.071871997104804 0.0
9.610464706874994 5.829217654498672 0.0
9.561407772947403 5.926179534044419 0.0
8.273381980676042 5.705233340662362 0.0
8.330794188929296 5.594351887246082 0.0
8.207319603076424 5.596747949305344 0.0
7.251338559467102 5.233758892662348 0.0
8.708518799790543 1.130513882092466 0.0
9.590155250193266 0.5878623138195824 0.0
9.389919385420015 5.841079912164009 0.0
7.991397852194216 5.859910582924319 0.0
9.624951589233206 4.975554514425905 0.0
7.240016788025947 2.531866266726309 0.0
7.635666783493215 3.873554782053258 0.0
9.608476620993713 1.863530872936442 0.0
9.365330459496413 8.10677840682376 0.0
8.775076110585598 2.572737931759856 0.0
8.699389445914996 2.444602334375113 0.0
8.625078713232146 2.580891022578613 0.0
8.54447196848446 2.447624719286678 0.0
8.468898498943965 2.586757328881282 0.0
8.62282309213608 2.307826916202421 0.0
9.622102662978762 6.439307895185218 0.0
9.561995355724862 6.35103962032292 0.0
3.898245450818314 1.856155797593496 0.0
9.681759177700954 5.07069253017652 0.0
9.059254996454502 4.963357716933865 0.0
9.113144532326562 4.861710138088372 0.0
9.62140874877204 2.656009146517733 0.0
7.884510615470827 0.9666888912541309 0.0
8.14902661050739 1.005010215149227 0.0
8.491263206618079 8.527197931363634 0.0
8.408859203395778 8.697060715788105 0.0
6.54422152733529 1.954566069381189 0.0
9.563546573097593 2.755667904356369 0.0
9.453065492925557 2.761122255953964 0.0
9.676889098520615 2.755084315170127 0.0
9.678287124781653 2.556838324720633 0.0
2.60254317790297 2.278874965850319 0.0
9.211706272534968 4.050470567310489 0.0
8.526711683538949 5.698821878547752 0.0
8.296604023060945 8.533761944401608 0.0
9.649704314258118 5.543946557831669 0.0
9.651176136337964 3.85122804518279 0.0
9.44590154800397 9.498503704959054 0.0
9.580491248736612 9.476376347552954 0.0
4.3239388803087 3.921156392977062 0.0
9.65737873521736 3.075324100817917 0.0
8.128000846282253 6.160273991836929 0.0
8.06242981852327 6.292371360998262 0.0
8.500465019503922 1.442700595221201 0.0
9.615253212967009 1.649819368149096 0.0
9.561768620580791 1.538553925606111 0.0
9.435477757657937 1.527391516499924 0.0
9.627993450010088 2.242685831452484 0.0
9.5338252733548 0.4673994795805215 0.0
9.398055066504014 0.4589059948533885 0.0
9.669486082509058 5.920177035588319 0.0
9.621072177439727 6.016493814615133 0.0
9.506185962103057 6.018397021409126 0.0
9.196884440497488 7.898824858961557 0.0
9.112591143666748 7.789491461180181 0.0
9.664357762385308 7.950712034233033 0.0
8.46233617997115 2.308903464128035 0.0
8.547917980328803 2.169381684694277 0.0
8.139931430059324 6.410762600521521 0.0
7.672499127532963 9.099143622036436 0.0
7.91372855627271 9.178704612763656 0.0
8.463425076318451 9.290653726808348 0.0
9.643938029094286 9.335632419679458 0.0
9.647017668702574 0.7068996148634754 0.0
6.241662276606473 5.884018212993202 0.0
6.157742245066693 5.73500474100449 0.0
6.318815619949124 5.730068085823802 0.0
6.247706374231452 5.593094310939028 0.0
6.406948541886973 5.593272398468375 0.0
6.092564106310554 5.587409338401505 0.0
8.535507922245372 5.286142900439676 0.0
8.022959839404006 4.471630490587016 0.0
7.963561162854596 4.581393556789843 0.0
9.683487139413305 1.546750704925431 0.0
9.630761777960082 1.435922217091829 0.0
5.121714348989337 7.950140247572198 0.0
5.136464096196084 8.310254432483559 0.0
5.47349124035624 8.455234262268478 0.0
5.176273618280354 8.687190323573228 0.0
4.796664658962938 8.592678692862421 0.0
9.568705729418735 4.887269869750176 0.0
9.462711651199594 4.88832222094458 0.0
9.674903475028225 4.882285174433025 0.0
5.4996067353406 5.546583260717527 0.0
5.663632234555963 5.557613452957074 0.0
6.829408195405585 1.947174574944512 0.0
5.336529198289861 1.127585641139875 0.0
9.672387559812332 6.34138351957329 0.0
4.463988917379896 2.271060678869338 0.0
8.618048281355405 6.263841736419089 0.0
6.480949808711781 5.74815588680617 0.0
6.562207427719153 5.592185077216444 0.0
6.643040463857446 5.721233693378952 0.0
6.712825900331884 5.588664360236 0.0
6.79240375630333 5.711383948285569 0.0
6.86115931532141 5.584697050428064 0.0
6.939210100691576 5.704407337029545 0.0
7.007668476576536 5.580801046893123 0.0
7.084627386867475 5.702817970154801 0.0
6.633257976075473 5.460881327825488 0.0
6.931430743764456 5.461960451448691 0.0
9.682652370938209 6.533133024505995 0.0
8.761108695241376 9.450742747770144 0.0
9.146031326900015 3.764292700000154 0.0
9.089378801805193 3.661317181076136 0.0
9.514354521818781 8.994988681611192 0.0
8.157650730500988 4.262987189670279 0.0
6.329633198899328 5.4647789391701 0.0
2.340685767996258 2.811285337457589 0.0
7.379572471323651 0.9290892725587991 0.0
4.171878172186605 4.222320767259098 0.0
4.4876601621649 4.16473354200826 0.0
5.336389369563535 6.806464508860387 0.0
9.595468321212476 9.108133206829102 0.0
9.645038675267227 8.982113951305912 0.0
8.393140678816192 4.246338342095281 0.0
8.309440721624494 4.155300532283633 0.0
9.418269339704423 1.9925512363779 0.0
9.662781807969623 0.477809346089035 0.0
8.011297869803792 0.7518828483803571 0.0
8.250149975885678 0.7646904662196189 0.0
9.608674873602773 0.3618049194050078 0.0
8.692696069692623 6.582927327365709 0.0
8.628225948401226 6.705702462696891 0.0
8.701883181418305 6.822086652299242 0.0
8.559276855155542 6.829564723911442 0.0
7.069268463354993 5.459534423493629 0.0
2.654575201159115 3.323490466195074 0.0
3.610801136544596 4.044075244426243 0.0
8.263757217166944 5.48730323490738 0.0
8.138838162809126 5.491254533497952 0.0
7.90196833683664 4.477386962763833 0.0
7.987943097943191 3.978756490171551 0.0
9.704623491880403 3.945605151832784 0.0
9.461009573830147 7.301728818091931 0.0
9.532468631193666 7.399916015174975 0.0
9.582688928417856 7.292330983701011 0.0
9.652579613269625 7.387768793572397 0.0
9.699264016151023 7.282867433965265 0.0
9.633305589700536 7.188543855060478 0.0
9.505576100168666 6.961225778216469 0.0
9.43876966151099 6.342441564206569 0.0
4.908483672172518 6.098703904450545 0.0
9.135448256237908 5.269827196966999 0.0
5.905650502271389 2.025036080946255 0.0
9.709890722072377 9.452748507541063 0.0
9.663337613522643 9.572126259365891 0.0
9.603900123387826 7.495180532331903 0.0
9.720147629525837 7.483400774981126 0.0
9.674588415444239 7.588303295299578 0.0
9.653186673863587 4.039274180923234 0.0
9.053164539680804 4.764545162185531 0.0
9.164908495749003 4.763017269285045 0.0
9.226019227262443 4.858029410614327 0.0
8.809947621994619 3.4964384919072 0.0
9.10538997155458 4.665865142902959 0.0
9.331074106432244 5.748993480915537 0.0
9.055854333858068 7.918554535314415 0.0
9.446431573964945 8.209836764658437 0.0
9.573844810886287 8.191100251691205 0.0
9.309704769895653 8.244395007943949 0.0
7.240329561730736 1.676197957122907 0.0
9.543389817573933 3.660019800390455 0.0
9.598599341122098 3.563130123982772 0.0
9.652615161407017 3.658119804270645 0.0
9.706336063693934 3.564815526226687 0.0
8.632284427755456 6.946688912416058 0.0
9.682863230715835 2.349655023034811 0.0
9.571538455120994 2.142369886250143 0.0
8.090821900439733 9.017409120951333 0.0
6.812258669899192 0.9007667548831626 0.0
6.50135254578461 0.8974046495177885 0.0
9.598335906230732 6.246437748035812 0.0
9.719677442549804 6.253968775436637 0.0
8.593026822691716 5.180101360605356 0.0
5.537586126848265 8.836083861509138 0.0
9.688689404995035 2.143487155934306 0.0
2.821389253975936 6.507820864074362 0.0
9.176571289960709 8.507736431357309 0.0
2.918303740542162 8.256728920338826 0.0
3.428955230180972 8.401446814887457 0.0
8.490587404589881 6.715350139132777 0.0
8.86049054904785 7.243279881821806 0.0
8.93696309213556 7.356650230611625 0.0
3.951931175165697 5.78308550088855 0.0
3.65055612573298 5.91672400098539 0.0
3.668142216548471 6.247526235973777 0.0
9.717269848920886 5.821831227352286 0.0
9.708364917734201 3.164198601626433 0.0
8.45581975650687 4.569560863828342 0.0
8.204448312099833 6.040774355519757 0.0
8.65969449127868 5.485991799508151 0.0
9.707534571012967 5.634423933296901 0.0
9.62102991883279 2.849662850313935 0.0
9.144093558002634 3.560383427867003 0.0
8.29763273805118 1.77155302934031 0.0
5.280452715709455 9.01633391004168 0.0
8.984558945859158 6.99932633710603 0.0
8.4157550875812 1.275784953143711 0.0
2.068078118650995 3.355462780535101 0.0
9.205703884756806 5.568274778556933 0.0
9.745857863753141 7.178456670302003 0.0
9.681628895748586 7.081494416756802 0.0
8.875818787971069 6.240744812097083 0.0
7.993733797566922 6.414830952863579 0.0
8.462810157069566 3.377071044664789 0.0
9.29428363519789 4.759591981903337 0.0
7.933956818298286 5.97437536746848 0.0
9.028281726378319 3.558713145763133 0.0
9.083461773461467 3.455531762175701 0.0
9.73231939683535 2.849247643393067 0.0
6.70072305037728 2.192432536215492 0.0
6.423245125077639 2.212870246546939 0.0
4.931537051605536 1.135086496804522 0.0
4.746426561586179 1.500381091957315 0.0
9.707706579932626 7.836419656220658 0.0
8.590593344701457 1.595639668013959 0.0
8.708946574109854 2.1688179918246 0.0
8.634728854549891 2.028564483452208 0.0
9.230357659411311 8.129337203173913 0.0
9.102841374461482 4.452881308250647 0.0
8.472081531214734 5.388993924853032 0.0
4.925996806199801 5.844046944846857 0.0
4.702806345752284 5.745688656289065 0.0
4.884357002239844 5.633237011762874 0.0
4.709628434300812 5.536404116679045 0.0
4.530800966746534 5.627044171217377 0.0
6.040296145349247 6.603808099703576 0.0
6.162203578696918 6.795213950202512 0.0
5.923135943221574 6.824060069869489 0.0
6.046693245732212 7.010423490915212 0.0
6.297337598588478 6.979895528204233 0.0
7.760448385794147 0.7294020304851334 0.0
8.492228348169641 6.958778476405878 0.0
2.89219822877093 1.704113597264478 0.0
2.26178643438086 1.7814602252425 0.0
9.726968895980871 6.009547057102511 0.0
6.63195110828313 0.6072886418835157 0.0
7.984023036954866 7.515675826210831 0.0
7.893857204140559 7.681876703427663 0.0
7.778465117872411 7.537836322197895 0.0
7.998204230811618 7.844922503023499 0.0
7.798554315988981 7.858161805718108 0.0
7.917846202023782 8.03040048103727 0.0
8.547520504556728 2.721261126162116 0.0
8.39253850806587 2.732073315877738 0.0
8.306047241032278 2.59069854402512 0.0
8.233011054235162 2.739783364361515 0.0
8.318836035587811 2.879838477099622 0.0
8.159530874574331 2.888511553151382 0.0
8.245490421394788 3.024568439743106 0.0
9.759103003747676 3.077839427881478 0.0
8.083610090773394 3.033523757291178 0.0
8.174562583800352 3.166768504406541 0.0
6.046769434852523 1.155662270344939 0.0
6.968371001421964 2.176347877216873 0.0
8.324858098380334 3.152966249334499 0.0
8.145556596142626 2.609897633546475 0.0
8.970652052821418 7.804556541250797 0.0
9.033737629244714 7.681328986528639 0.0
9.62347010002576 4.796939565664328 0.0
9.72520380348743 4.790261082613535 0.0
4.882631186210167 5.455006233451049 0.0
4.618356368594037 3.933076284395493 0.0
4.748083507220199 4.151025177732873 0.0
4.641724290430313 4.358202249373887 0.0
4.87055838101999 4.337900676660481 0.0
4.974114446887331 4.149149057174687 0.0
5.081577844806959 4.3240148266423 0.0
5.179521650033781 4.148725180298481 0.0
5.276261408871418 4.316673822529601 0.0
5.369189110897883 4.148362797753505 0.0
5.463892033849439 4.338819369807593 0.0
5.550828466075906 4.146274465971151 0.0
5.646554822352869 4.303571429647391 0.0
5.728109623160046 4.138582010823754 0.0
5.821689108984419 4.291959598724587 0.0
5.906082534948073 4.141649907302701 0.0
5.99655838673762 4.288752711512514 0.0
6.077312859438928 4.141011188943332 0.0
6.164215275138099 4.281164574562373 0.0
6.241782344986693 4.140701084167517 0.0
6.324316420613108 4.277393447415522 0.0
6.40284165425941 4.140026953305852 0.0
6.483655157361099 4.273418937894759 0.0
6.561170698911611 4.136221843106807 0.0
6.63512300179586 4.269917278694155 0.0
6.720306110251473 4.133393659385058 0.0
6.63777078218551 3.99617001426095 0.0
6.802492763973074 3.994355399489989 0.0
6.798834760478153 4.276914787769972 0.0
6.15377608509923 4.000134206628027 0.0
6.548727135071258 4.400510710520637 0.0
6.251479300130713 4.421887359316258 0.0
5.275876048175579 3.979624500657822 0.0
5.910905077162284 4.431174408784691 0.0
6.717070288412452 3.851239795555301 0.0
6.883499045994213 3.852555480300214 0.0
6.96664848901999 3.994033961856844 0.0
7.048208567116626 3.854750001965969 0.0
5.810004974283072 3.982497501655442 0.0
5.586615391658107 4.471070246359201 0.0
6.547331954052155 3.853872077215347 0.0
5.179081233207816 4.485638492900557 0.0
7.126615227065496 3.995337770596979 0.0
7.209459742762513 3.856893463870469 0.0
7.130226097876905 3.713620439679428 0.0
6.63075064074106 3.699684148676045 0.0
6.446985573861992 3.697358756862005 0.0
7.043151422977365 4.131713936060725 0.0
7.198322215260019 4.129850614748363 0.0
7.119378405252723 4.26005098890218 0.0
4.797146270976422 4.525762781577414 0.0
4.608329098388589 4.573584257851931 0.0
7.294442092743627 3.720853338661503 0.0
7.215753312764997 3.571378507508807 0.0
7.049631633956289 3.568047985538775 0.0
7.133765707749521 3.414282375958479 0.0
9.755079417839903 5.539705890434435 0.0
9.698955703441971 5.450920012703194 0.0
9.717604099406742 9.09084770432896 0.0
9.276716006673976 5.847248422342224 0.0
9.339081208926798 5.941174203394446 0.0
9.031261921742963 3.750271483819014 0.0
9.08721978689863 3.853416037308712 0.0
4.801461566647803 7.510704110489921 0.0
8.206553504932042 5.818005960412773 0.0
7.362361315389098 3.863102442315545 0.0
9.492826845316191 2.963845037486267 0.0
9.376710375304633 2.97229517374228 0.0
9.3192743723601 3.070687802230453 0.0
7.915389082113898 6.293241865913004 0.0
6.735006382384437 5.832450056405368 0.0
8.456481836836168 4.35369289249905 0.0
8.517718268476031 4.246675068616396 0.0
5.583512022030555 5.411069060406398 0.0
5.73625200174779 5.422617752052123 0.0
5.81006929286229 5.548584937688919 0.0
5.903438861894402 5.420604003204523 0.0
5.43801870974416 5.402925156167655 0.0
7.022641548594327 5.825217331839047 0.0
7.165095795605366 5.826005223633447 0.0
7.223078558430726 5.690146755650336 0.0
7.841396000338385 4.586693006493787 0.0
7.904793170875705 4.690826189066096 0.0
7.785999820520073 4.696719777099973 0.0
7.846448506395101 4.798518978096564 0.0
7.728149182067156 4.803800941124008 0.0
7.788983823826226 4.904802634695232 0.0
7.672018889153144 4.910077510508749 0.0
7.731996012352178 5.014717724244488 0.0
7.852072803124419 5.00743796185411 0.0
7.779278698005006 5.118909346425974 0.0
8.088113864063853 5.605434545811022 0.0
8.016457362785575 5.494849890158723 0.0
8.072290383394757 5.385594956317259 0.0
7.95068657972964 5.38825563681957 0.0
8.309366678475389 1.438342408757099 0.0
9.748160780780179 1.447794693754379 0.0
9.696454228162398 1.337889922375316 0.0
9.568813761940916 1.329560834053294 0.0
9.638326779791626 1.226729570935787 0.0
8.472132467407484 5.182856496818138 0.0
8.066211547412054 6.53691730655352 0.0
8.217035586462373 6.522976700918602 0.0
3.544839338670893 3.324491119989469 0.0
6.999740002965287 5.347729916247808 0.0
6.874544698914502 5.347027470386579 0.0
4.880451234715014 5.193043717957879 0.0
9.104510033763066 9.313204713465637 0.0
9.0466357104558 9.45359399494339 0.0
9.146803165140184 9.569652364413551 0.0
8.134107047896672 0.5527712356100052 0.0
8.369770412730738 0.5571215815175228 0.0
8.47386979744655 0.7564607169846485 0.0
8.585193608569258 0.5749174254532757 0.0
8.683868132726584 0.75505070091701 0.0
8.787381435061018 0.5813987798627239 0.0
8.697570280442534 0.3771156480326233 0.0
8.530048434259976 5.077280516000916 0.0
7.995091351438729 2.90367515012593 0.0
9.731083608815164 1.662638626153251 0.0
7.260488865351954 4.255073962371814 0.0
9.760728358076392 8.990038509880067 0.0
9.716710396257366 8.884160310398862 0.0
8.794627466210242 7.369659405098349 0.0
8.868068657550866 7.515048014893154 0.0
8.702594597629135 7.510501129643432 0.0
5.132320689147051 0.7610757801158905 0.0
9.755852887652699 3.853180024615871 0.0
9.787424819067885 2.757921105725315 0.0
9.731193479931608 0.3736343090103709 0.0
9.796526908308536 0.489684029254899 0.0
8.226019692057042 2.453349105940535 0.0
4.560989821496479 5.428206018250252 0.0
4.348810639659689 5.517048281386008 0.0
8.785190163106925 7.119142251269924 0.0
9.015515413043023 7.464769766852701 0.0
9.754861440190705 3.659036930324926 0.0
9.7543610723378 4.033687839160082 0.0
9.707881226943384 4.127219992296752 0.0
9.52841017383273 8.309020665649431 0.0
9.65186044414544 8.289498614805698 0.0
9.714051275521857 8.173576484362068 0.0
8.209758892476394 8.715513071423135 0.0
8.097084883671858 8.548851201381087 0.0
8.177989947800599 8.367872862579052 0.0
7.974142434808908 8.36779470623567 0.0
8.409012054919861 2.142624252464372 0.0
7.707002321497132 8.039129945341395 0.0
7.574653123518228 7.83895791570255 0.0
9.229858094382692 5.951357214361815 0.0
9.75307989876696 1.229893222503321 0.0
9.715811155868643 1.128779429890018 0.0
9.597960915003707 1.117058287635912 0.0
9.672063923518955 1.020806103150243 0.0
8.99090422125785 9.593878510105375 0.0
8.133165456134304 9.257620998029804 0.0
7.976779931497633 9.420725324095141 0.0
9.77231778617502 7.927819487779705 0.0
7.957213679655531 4.364530256281665 0.0
9.609903116082736 8.403725680286847 0.0
9.724891358972584 8.388392708395173 0.0
9.687487059868507 8.495935345161797 0.0
9.810055520269009 8.494090598382963 0.0
9.755967487162335 8.599790818513082 0.0
9.645698986824481 8.606121319182705 0.0
9.721376049217765 8.699989876681524 0.0
9.773009257015609 4.884557953188837 0.0
9.830105798750992 4.796546393900876 0.0
9.775335108731761 4.686093304257503 0.0
7.455611517737074 3.730099283949135 0.0
8.906943567829634 0.4197477661467797 0.0
8.980613334153533 0.5814185917581446 0.0
9.081059111759728 0.4263421860552371 0.0
9.821654809259165 3.576985724143072 0.0
9.761309244784803 3.4792267780002 0.0
9.763329553045937 9.353068233045157 0.0
4.463051839136694 1.164440352584939 0.0
8.0213168204867 5.283436382300235 0.0
7.89385412333227 5.290429544753158 0.0
5.806940001023414 8.583716119232427 0.0
5.88977793877374 8.96065112858812 0.0
9.177759062826041 8.25539130897928 0.0
9.626582559276994 2.05283181283147 0.0
9.747673294325121 2.064954301745188 0.0
8.775905508647185 6.951821187702613 0.0
2.3581644273991 6.029034686663493 0.0
9.777798009058461 9.548066962498762 0.0
9.737129197219856 9.662299853506903 0.0
9.615080366030512 9.683349544763068 0.0
3.315839678697904 6.042943273456425 0.0
8.915083018115329 7.937748428923896 0.0
9.489832173860055 4.712364754630572 0.0
8.118313727862493 8.013944064029838 0.0
8.902248750797776 7.67372145952523 0.0
8.954075939212636 3.463080912810881 0.0
9.45247551997678 2.133243108303608 0.0
8.311151553157742 8.899233004613622 0.0
3.28672004268868 6.826745674539142 0.0
9.86008383798735 3.468233656255824 0.0
8.389990589860254 1.947086063498656 0.0
7.144231739553659 5.329544660076687 0.0
9.654500729007207 7.743301971143119 0.0
9.761920842881946 7.740144345898896 0.0
9.692820773976567 0.2651585113981998 0.0
9.690951720399688 6.100517071814821 0.0
9.775704281989471 6.077882312279847 0.0
9.823117117198079 4.115168542267924 0.0
9.764391943581737 4.214465954230587 0.0
9.659455011849253 4.218716850797838 0.0
9.713462125022623 4.30742830316693 0.0
9.849638067150842 4.208845651573708 0.0
6.376241713254513 3.858766051594979 0.0
6.274931849158213 3.701528298009006 0.0
7.097780104117746 1.926449727602711 0.0
2.457742027508782 3.810157622192786 0.0
2.963634206580268 3.740748099915693 0.0
5.065585416063965 5.544355730437482 0.0
9.783560252464587 7.566507987677117 0.0
9.825819294611026 7.470942204664841 0.0
9.799976114123012 1.01659516618323 0.0
9.745559590633832 0.9150866860898854 0.0
8.20473400632469 9.495828670767946 0.0
8.784586030320169 2.054461500762216 0.0
8.758471587067168 1.888286802854785 0.0
0.9188935087347281 8.510730800272478 0.0
9.674192026048217 9.20389587377276 0.0
9.796314981283475 9.185916994648775 0.0
7.206882433199502 5.452024361489832 0.0
9.773927048949279 6.334665846819535 0.0
9.830288393591173 6.225300227041885 0.0
8.25177349297509 3.282767705830209 0.0
8.099233469407428 3.304040153764131 0.0
9.607860512870598 4.315652630490023 0.0
9.403674738018715 8.367349042046314 0.0
7.611756786273919 5.018691202305147 0.0
7.549513964643336 4.923310232561835 0.0
9.80986724662116 0.2915868356190958 0.0
0.7757562810577034 3.504187313079081 0.0
7.659562100664981 4.698467529240196 0.0
6.539424975891206 3.541729955691742 0.0
6.717348880400739 3.55221857686142 0.0
6.836337579501807 2.417476958454302 0.0
7.096480496160066 5.959124656438389 0.0
7.189742782777612 4.377051328076039 0.0
7.051723187622053 4.38470822973091 0.0
7.125489805519186 4.497018383456762 0.0
6.994915621927777 4.501504591168814 0.0
7.056755276274058 4.607929817497045 0.0
6.932937068803914 4.613249390039674 0.0
6.86629288290367 4.50541343988659 0.0
6.80427099775847 4.617607827251794 0.0
6.739195362053689 4.511124964201849 0.0
6.677260697693361 4.624288827143181 0.0
6.996760608675822 4.711715831373894 0.0
6.316045249462968 0.6456945497683586 0.0
7.321834163850416 5.816449323512759 0.0
7.833101485370825 4.390058096386987 0.0
4.996572652976738 4.498711166259074 0.0
5.112334577457371 4.663858846723513 0.0
5.271923064784868 4.629759173373871 0.0
4.93773508827367 4.668006487116195 0.0
5.348137647919096 4.485934621930562 0.0
5.413454827497575 4.62999925573761 0.0
5.356581113747675 4.770594395332836 0.0
5.013422223730484 4.793321773780133 0.0
8.58674425943957 0.9312335381466886 0.0
8.776450596582496 0.9362399987293505 0.0
4.783496233934828 9.486061758876032 0.0
4.544176394620909 9.034071856445296 0.0
4.082330493623582 9.015765881393772 0.0
9.820867469965414 7.285959215547852 0.0
9.852697883440127 7.166089674802766 0.0
9.260999083164238 2.971390964911171 0.0
9.197701900169713 3.073162109379564 0.0
9.31960210441945 2.867465579641856 0.0
6.660951583415121 3.383363199709994 0.0
5.210469976037585 4.761678854423166 0.0
6.740780285297665 4.733615686805694 0.0
6.611362405615225 4.731958642073806 0.0
6.549091884465382 4.629620704100811 0.0
6.491761716522486 4.733409494449344 0.0
6.425259228542098 4.640546096196947 0.0
9.715556659367534 2.986725573570596 0.0
3.710524324925069 9.463213827486557 0.0
4.768537031214573 4.727001037865238 0.0
5.039413681704655 5.378508462165627 0.0
5.188746429211535 5.440476671296013 0.0
5.172214816037712 5.298914527247826 0.0
4.469063601436893 3.667917323494335 0.0
3.799121596584382 4.741629285988305 0.0
3.661085664896249 4.442847704416992 0.0
3.316563386321876 4.380147387454913 0.0
3.802087298647255 5.26743535640985 0.0
9.738116341343215 8.047178982429934 0.0
9.85106076399546 8.021725551312715 0.0
9.837581050304836 2.844176011307251 0.0
9.664579962075123 4.402853107737106 0.0
9.76433159763034 4.39807801415352 0.0
9.718924973226878 4.487825491046641 0.0
9.826405563645343 4.494594135148365 0.0
4.931068003413168 6.359330991212394 0.0
5.130175746947236 6.201075257041828 0.0
5.143884286052002 6.445382329515047 0.0
4.953395875296406 6.628748468717369 0.0
7.833019185167153 5.400347121613631 0.0
7.766636138801143 5.313240048256084 0.0
9.767038723422333 4.578090619166644 0.0
7.315369355237483 3.441501197259575 0.0
9.556068971301514 0.2347811136726856 0.0
5.733871280791703 4.444861510772459 0.0
5.828809543126846 4.569791247698539 0.0
5.986701526182213 4.562881783985375 0.0
5.912543327921148 4.692966271273211 0.0
6.052130330528581 4.682477327897978 0.0
5.773525984744635 4.697697018456535 0.0
6.121646311546238 4.572302645403103 0.0
6.182349700936326 4.67713231096357 0.0
5.846371383601797 4.808939734754761 0.0
5.117807918383606 5.974361363083184 0.0
6.256132501905665 4.575863546153224 0.0
6.324770064521816 9.645040261272253 0.0
7.345522892050965 4.12581088034536 0.0
9.338523512844539 4.854480276600515 0.0
9.286984287289403 4.959628690044808 0.0
5.676298026114105 4.589279806918992 0.0
5.631257891894775 4.722749088404111 0.0
7.970415275563177 5.621040275419208 0.0
9.565118337557308 7.081391220827488 0.0
9.626201005045262 6.980441083020495 0.0
9.733729506193331 6.979928568877979 0.0
9.684556253529976 6.887102896543928 0.0
9.780785815410074 6.890287441101827 0.0
9.740054813822885 6.794211367612523 0.0
6.462628988057306 7.629921412015864 0.0
6.692564520952154 7.473594130811262 0.0
6.927983108788191 7.570982428592125 0.0
6.899878641134941 7.329306734748538 0.0
7.117542472438434 7.416951094809493 0.0
7.089537168123128 7.186691566729968 0.0
7.296585396514727 7.275888419524222 0.0
6.879678873774065 7.097443005287856 0.0
7.063454637059129 6.967740076426161 0.0
7.329105042924355 7.496317641003757 0.0
6.867084781778411 6.878842928865059 0.0
7.494278796275744 7.351949197351029 0.0
7.462564159480594 7.150140034494138 0.0
7.644835001206406 7.21506678718646 0.0
6.682478929414216 7.008358327294905 0.0
6.449199855715812 7.365660640952548 0.0
7.548139855358765 7.57299228324251 0.0
7.008502809092701 7.844601794812628 0.0
7.371739019901781 7.707688433423657 0.0
5.665345294602155 5.290628720253272 0.0
3.987583013016546 4.486920698115711 0.0
8.893480480320447 0.7785000884179994 0.0
9.715485963651112 0.5955299613117169 0.0
9.761785841543585 0.7048670948649375 0.0
9.670304314877074 4.578896619304786 0.0
8.058509626083154 5.744161686650483 0.0
6.181795443628869 5.462040811515966 0.0
6.256771804808641 5.338464817889848 0.0
6.124070400983443 5.352376180901929 0.0
6.399679261813415 5.349186390888865 0.0
6.477776305607503 5.46505688468465 0.0
6.541624525938461 5.346017118512589 0.0
6.673064575428321 5.339051516933525 0.0
6.599301548842115 5.241958624987057 0.0
9.573774011620444 0.815274945835158 0.0
5.86493292693426 5.877588788523632 0.0
5.552663040119136 6.957487930464628 0.0
5.535080960199246 6.663033131707637 0.0
3.708603689392072 0.5979254716153909 0.0
3.31896983256719 1.188583855309964 0.0
3.895664898001925 1.128137111173669 0.0
6.363360407965353 6.032416442205533 0.0
9.445959758065749 1.070139246426051 0.0
9.50632172780449 1.214052376665338 0.0
9.441030033980638 1.325047485624912 0.0
9.295799464644857 1.341410624832976 0.0
9.184164107767781 1.461677744200096 0.0
6.407191016756832 4.407273313799791 0.0
5.544591888593027 0.7652641669375747 0.0
7.883090151006535 2.497506182548758 0.0
8.073420508370992 2.120510489750234 0.0
5.494822040671399 4.732314720081375 0.0
0.8986976806403217 1.464611451578306 0.0
9.536325549598013 6.83286654168725 0.0
5.972289519322897 5.727532110854501 0.0
9.82203607053145 9.443411729566549 0.0
7.263199949874008 7.064207941227515 0.0
7.233659553805083 6.853135694774254 0.0
9.793310082768443 7.072747972018893 0.0
6.734168931095253 9.67499220075154 0.0
6.941134861034159 9.382328333169653 0.0
7.285822522704258 9.443989747444657 0.0
6.576263515512108 9.333035011158342 0.0
7.160560566479093 9.127732577621245 0.0
6.218711947378506 9.298064908857533 0.0
6.432383355119106 8.980985203293491 0.0
6.795390278360442 9.046043538032663 0.0
8.54677014121837 0.1957422484480979 0.0
8.528696320820908 9.804850950580938 0.0
8.42644965647489 9.604735484095604 0.0
8.010239224104339 9.715048083583248 0.0
8.644359648763341 9.628432815860457 0.0
5.344212921686536 5.526744195650314 0.0
9.760936589662048 7.38409687515441 0.0
9.128187788393989 0.1445485608215519 0.0
9.133307661752394 9.854833215426817 0.0
4.867351616228264 3.944459575003425 0.0
5.905323253270366 7.385600364255367 0.0
5.909045412185362 3.361969954191194 0.0
5.80580919758911 3.569999290452344 0.0
5.578230704221431 3.587842862412673 0.0
6.013352753603037 3.550699073477782 0.0
5.936624955014758 3.721630401607248 0.0
5.735413275357409 3.78528948606432 0.0
5.512538847486775 3.794760621907932 0.0
5.360571639388366 3.618649018042938 0.0
5.134141179590394 3.459385929220745 0.0
6.167399567008798 3.367365990358096 0.0
9.766756262206602 8.291756450136036 0.0
5.486063578307141 9.64505925252771 0.0
9.497624614180321 4.328873442170357 0.0
9.811387324954623 1.570516917365688 0.0
9.389210081887331 4.69150887571586 0.0
9.704395728912932 3.754226393630331 0.0
9.808172776193384 3.748784464356272 0.0
6.549660911932182 4.839747932361234 0.0
6.757415124099031 6.077939876843736 0.0
3.805578542126494 8.040840085419626 0.0
4.232580149691158 8.198659880701744 0.0
4.559765382564095 7.87091698350757 0.0
8.3829075948167 0.9495097054886067 0.0
9.8571301061408 1.456307792614791 0.0
2.005900212453279 4.535525273813588 0.0
1.85904408608185 3.956445706785572 0.0
1.979307922430775 5.474327285927505 0.0
4.387923194305381 4.427191306527721 0.0
9.429258370703248 8.873693567695483 0.0
8.99196583083892 4.664567567015693 0.0
3.050357122593155 5.368999067452741 0.0
2.861107385476722 5.785089447130829 0.0
5.005058958272409 3.711196438448062 0.0
9.8972295764837 2.755337284632969 0.0
9.581048890980513 8.853909321617065 0.0
9.668838904423916 1.762418716497425 0.0
9.716576458425756 1.852218615166234 0.0
9.799043132681442 1.780583141193779 0.0
7.661868217848455 2.880323287492419 0.0
6.780136552904057 5.443858690999834 0.0
6.489544866845868 5.913957888434588 0.0
6.880149522020364 4.134257616716107 0.0
6.970134365280068 4.264072319341612 0.0
2.225481516813409 9.348422240784 0.0
1.843418032490818 8.641605249943353 0.0
2.198000805242772 0.6459947140825729 0.0
8.740020306282506 0.1903932731609072 0.0
6.86957996016679 4.720776242956433 0.0
7.430920333506809 0.2702852342693345 0.0
7.302066064947383 0.6134316505458445 0.0
9.305398039877746 4.64854361125207 0.0
4.078151380865065 5.203425462519088 0.0
4.080704120371218 4.778853303303787 0.0
8.052525541571825 5.965483159581719 0.0
6.367194027835946 4.754896037842673 0.0
8.604191121620719 7.648182513679963 0.0
9.546446695207845 9.234701521982952 0.0
9.018652854946867 3.351011585453845 0.0
9.143853648154607 3.350173119015413 0.0
9.067079866763024 3.245174561579149 0.0
8.991492136849105 3.135578770028028 0.0
9.29603967712795 0.1426516429033488 0.0
9.392428271030795 0.2506306237151588 0.0
9.223973843394301 0.2912279164401488 0.0
8.39375191941536 3.018777714002827 0.0
8.4836475746111 2.88135207267795 0.0
8.741089053946197 9.821127577434911 0.0
9.803966507713174 5.448064463539533 0.0
9.748132240148552 5.359371181503531 0.0
9.850258990973547 5.355211921626304 0.0
9.7965346514158 5.266762244994661 0.0
9.84142096963129 5.171050273734619 0.0
9.738843612428232 5.167483913244169 0.0
9.64168976006725 5.359875132194057 0.0
3.335917453809221 5.671837672982919 0.0
6.962669142802881 1.683222554707996 0.0
7.365210844496719 1.887492842536114 0.0
7.517378971174123 1.677983072937792 0.0
8.00383870208024 6.089394601875145 0.0
1.725435941000569 2.759295503019395 0.0
7.907977929549089 5.102827208603365 0.0
8.052861051278896 0.2683271125209605 0.0
9.80169732768395 3.385443381464333 0.0
9.831597648680848 3.28491948963525 0.0
9.736335895866404 3.316207814499244 0.0
9.597256128490281 3.756160701977744 0.0
8.865819925321706 3.366235906378775 0.0
8.489614436807788 1.757152185195495 0.0
8.88089641144391 1.078983279100314 0.0
7.430923851187758 9.724389499796425 0.0
7.584252919312249 9.509430586267927 0.0
9.744026095940516 2.247117754488748 0.0
9.729961521243718 2.659836747108116 0.0
9.790866569780063 2.558993767350471 0.0
9.736606445116795 2.455104424879619 0.0
9.846806182714698 2.452157456754448 0.0
4.518102112052724 5.141350889745285 0.0
4.519880229178207 4.85678334497067 0.0
9.7302407894617 6.434012603549242 0.0
9.787537474544765 6.523591663056312 0.0
9.744262337067932 6.617499601377625 0.0
9.8406238811518 6.41591236129004 0.0
8.914967252734657 3.579360039684312 0.0
9.154797282599406 5.670753066089419 0.0
4.228839454580575 4.612979739018002 0.0
6.095037541675208 4.42126627187728 0.0
9.304166983880842 9.864854494751789 0.0
9.406445527105628 9.759007358529582 0.0
9.256225114941945 9.700832989525724 0.0
9.796206564635622 2.351215649506205 0.0
9.849373673349081 2.25090453834006 0.0
6.332048155295931 3.511675163099286 0.0
9.069679774213784 3.022879178706259 0.0
9.070599961450037 9.055284879641471 0.0
1.808685691036764 6.331557276533421 0.0
7.120156826652838 4.698481230214924 0.0
7.052894345811342 4.799848851879358 0.0
4.739957520484086 5.369107149361242 0.0
9.389197839958292 7.197139943834638 0.0
9.046688232613976 4.560364044038737 0.0
9.162685461967492 4.562194096410666 0.0
4.227377821420887 1.564128177298305 0.0
9.201090975245227 2.794301402811909 0.0
9.251941624303948 2.677556975242327 0.0
9.186758273070138 2.563916005021366 0.0
9.317609833868786 2.560335260954038 0.0
6.57599191748324 2.437689779955877 0.0
6.305556560534859 2.459112595979303 0.0
6.981058048792093 2.642476994448363 0.0
9.886113463139504 6.510498309609482 0.0
9.250462794607717 6.221362629571698 0.0
9.305373999084068 6.108271307139882 0.0
9.390477915810829 6.228015172491477 0.0
9.44452571968143 6.114582165110393 0.0
9.502105740270528 6.197677857389309 0.0
9.31559697209813 6.331647407124485 0.0
9.370938253597153 6.437386206819511 0.0
9.594764406124872 0.1099001288712305 0.0
9.602872681151728 9.894988341116305 0.0
9.622661196143387 8.076680696281343 0.0
9.769069277144705 5.9102532189237 0.0
2.615076109785583 8.807551523115547 0.0
9.658920005405456 5.730890135691177 0.0
9.76063135061807 5.720703211793342 0.0
8.63963723169499 7.177334225227945 0.0
7.841904391869763 6.41346852896409 0.0
7.764520718520185 6.297267738834625 0.0
9.546492996136271 3.465225175657335 0.0
9.25600964352143 2.219157062786616 0.0
7.625057159226293 7.012987957636062 0.0
9.529121062829038 7.730283486008674 0.0
8.329887090625894 3.845190321147069 0.0
8.265841850823831 3.95687001944245 0.0
8.402006523775544 3.947660780406651 0.0
8.128436391670505 3.968543393650448 0.0
8.46705122470662 3.835767362024195 0.0
8.218867047074696 4.063481375518748 0.0
8.089763413611255 4.08062363292928 0.0
7.939578083855268 4.111915744184436 0.0
3.74991304509639 6.615676756107112 0.0
2.627714335615619 1.170993030860914 0.0
7.046129971268607 6.759930788612616 0.0
8.534603732661887 7.486325780553722 0.0
1.569381386467569 2.042794535871475 0.0
6.228703743210918 1.986421863690014 0.0
6.467030855792859 2.67190498312861 0.0
9.272246093269825 1.975478263632296 0.0
8.05269609263041 3.854522845257449 0.0
8.008595521536957 3.177870309354594 0.0
7.929796740504207 3.350600835935766 0.0
8.048703574664067 3.449582532910417 0.0
9.72947480375618 4.973926800124758 0.0
9.784850360535604 5.072865219810449 0.0
9.896036387646596 5.069261557893528 0.0
9.633140953203334 5.168645132864771 0.0
9.558102991128836 7.602453108835212 0.0
7.278758746505716 3.994295887299482 0.0
8.306681733482405 6.936428510427854 0.0
9.487163072013963 3.757777670075558 0.0
9.532950522284125 5.359403698944497 0.0
9.816036650072329 3.927268437107025 0.0
6.173882586235392 8.734645960664665 0.0
7.972518459433741 5.003005338485466 0.0
8.398453459336153 1.601072016988848 0.0
8.97460527296194 4.040886705742754 0.0
9.037941657530773 4.143578781749325 0.0
8.849604200183613 3.828506169652706 0.0
9.545296177100065 4.042698359132156 0.0
8.595941796785514 5.806754902023664 0.0
8.65588412428292 5.694192853853139 0.0
8.723710665131787 5.801528918332044 0.0
6.861288985046249 6.673713222735126 0.0
8.87477249219366 4.664500928777609 0.0
8.72385765226959 3.608276264790996 0.0
7.145228858696953 5.573648565429618 0.0
7.282945121585866 5.558559688509987 0.0
9.224761401603633 1.602363370249125 0.0
9.609115686587552 2.986868833620756 0.0
9.633989947851914 6.628120633848649 0.0
6.046214325132457 5.45615093027661 0.0
9.017014346798927 5.271996636983457 0.0
9.070824864071271 5.168510834798647 0.0
9.189021391555556 5.166867900487267 0.0
9.123328759137758 5.064718588163964 0.0
9.240587446378079 5.06459430516883 0.0
9.250848280531756 5.267364371053135 0.0
5.773050603406019 5.7192906317521 0.0
8.576466432793914 4.3559007860436 0.0
8.634627802680399 4.253467736542067 0.0
8.461790117175607 5.591735227444779 0.0
8.907610717370224 3.713397213891439 0.0
9.80665594564509 5.628066492225966 0.0
8.985935132601089 4.455263493464225 0.0
9.00640209566022 5.067597672073404 0.0
9.833659276096986 6.976519563917422 0.0
8.0283368553477 4.687271895436317 0.0
8.326580191759327 9.127498457128247 0.0
8.650637373791266 5.07513089931925 0.0
8.701067313435203 2.700069743477523 0.0
4.825307249916392 4.884175191874744 0.0
9.418335984190309 6.858444798015129 0.0
3.91434687300816 8.542956908935874 0.0
5.569239724399552 2.064135034637056 0.0
5.234271567762738 2.128974435011933 0.0
5.757920427527626 2.312422707096966 0.0
5.43365689737979 2.427455772745759 0.0
5.673210219624612 2.602111218343444 0.0
7.214258468265766 6.652783071431555 0.0
9.823626269633962 4.30685540664529 0.0
7.96996639420014 4.794005510174826 0.0
7.616003332725032 0.502676560965646 0.0
3.050634530589821 4.659174799474146 0.0
2.870894249800723 4.246924313393336 0.0
5.285393339952368 6.079037173753393 0.0
9.439954241218905 4.23581687956071 0.0
9.67709722097145 4.710772408106511 0.0
7.40767785509217 4.259947873553335 0.0
8.396202587439676 5.486075637998701 0.0
8.323689688705493 5.372061002264632 0.0
8.191312386254125 5.384662546230823 0.0
5.304380054816289 5.369675374029755 0.0
9.093848379546637 4.047647920840374 0.0
7.916313220758624 3.045043876114836 0.0
8.435854831444637 4.144861908356168 0.0
9.060262453079693 0.7340576053322918 0.0
7.053195520344596 5.238809779682351 0.0
9.621762679347093 2.45205452967588 0.0
8.410730269104743 5.287995309529392 0.0
9.655094569234972 3.472720279371932 0.0
7.982140513923982 6.667914768024983 0.0
8.402690325256646 4.883576657130221 0.0
9.17488654147479 4.962006474835693 0.0
9.013188196102961 8.49700148123058 0.0
9.795977244531603 2.156818021002043 0.0
9.893813711206834 9.545820400859157 0.0
7.965349232662289 4.250048884270795 0.0
8.644264557989125 4.874751532150782 0.0
8.215430976121077 1.26077208565765 0.0
8.379717637669398 8.37324652769609 0.0
9.320026533461409 5.559861899725609 0.0
7.885778178744864 0.4977439426642278 0.0
7.547066983926719 5.125166613071239 0.0
7.657542898944819 5.122996245335209 0.0
7.423918840193691 9.000935553397358 0.0
9.854133000712425 5.541931969512857 0.0
9.328508174398952 2.101486405523264 0.0
9.300749600926641 9.530012105354274 0.0
8.130307182491519 5.277079344947874 0.0
8.346752967392757 4.987627363826086 0.0
9.118404185029991 6.007087846617186 0.0
9.048232213728614 5.89431792713258 0.0
9.088340967655858 5.576242562571367 0.0
8.094762487139027 4.789727191449318 0.0
9.915265904493378 5.749591413470928 0.0
9.92169805280126 6.154216704502091 0.0
9.918022441582268 4.549125436287157 0.0
9.919332362905616 4.849536560132457 0.0
9.914800786693318 6.750595509794719 0.0
9.811792900437824 6.703950687575952 0.0
9.900643083988882 3.749855087409844 0.0
9.912423171222734 3.043228996968949 0.0
9.91892875832665 5.949999999993851 0.0
9.913300070218703 3.960831593817277 0.0
7.709347001661226 4.444236534782706 0.0
7.479443107717332 8.071637285053104 0.0
8.839057072155848 6.807845119358974 0.0
8.972330068019902 6.78765448182788 0.0
8.542093772125282 3.941452413628317 0.0
8.279144752968262 5.930387616620717 0.0
9.393455876855919 4.973162505621418 0.0
9.507123333872533 2.855087674515822 0.0
8.77504684283825 2.317347145885344 0.0
8.394133129040345 4.464046960801843 0.0
5.725509852450801 8.210843960481027 0.0
5.62632390239664 3.967637659758752 0.0
7.910815814627989 4.900765971697654 0.0
8.595808444085467 5.590040244353608 0.0
9.705160502006024 0.8106158419444889 0.0
9.82021247904746 0.808810893177099 0.0
9.218352146075844 4.447736986422823 0.0
9.20781892622228 3.858281726888132 0.0
8.713609974387523 5.178241668554946 0.0
3.55755059259364 8.921522400238844 0.0
9.59122926011489 5.452844834281716 0.0
9.70565100407009 9.77887811062354 0.0
9.826938454219809 9.74303055702321 0.0
7.238962096855633 3.278078153406256 0.0
8.575609105166194 4.567807831727537 0.0
8.936449841121737 4.765835458965493 0.0
5.59323463391086 9.248527978398117 0.0
5.280809113285124 4.886132326418428 0.0
9.328132730893216 6.544753806716806 0.0
9.026944889277736 6.67247283515637 0.0
9.81946239021469 3.007926663525007 0.0
8.677633568960493 6.144049349297466 0.0
8.33427489656924 4.571212803519522 0.0
8.55734024448315 6.382535186588269 0.0
8.692399379422756 6.372347713955898 0.0
8.495817478252626 6.503308565233578 0.0
9.905494734661673 2.544078755559835 0.0
6.177101405266569 7.228490244483556 0.0
9.825373011845263 5.807482724503027 0.0
9.808678508609606 8.118683092442964 0.0
8.397717712407108 7.08010313863416 0.0
7.428555529689225 4.935946611338556 0.0
9.575504958128711 6.125633853639113 0.0
9.154066996197898 4.146562596982661 0.0
8.074381802159323 4.337569667261167 0.0
7.018337246891919 8.843475095716133 0.0
7.970627172560641 2.658650028065857 0.0
7.382546388883145 6.723381543491632 0.0
6.822972334933889 4.884555620881615 0.0
8.343732976791593 6.041576709398377 0.0
7.743680217306919 8.423336160305476 0.0
8.505717922983454 1.115022897794028 0.0
9.113973198216474 6.992972408167606 0.0
5.818882632841168 5.300437503812764 0.0
5.951991891717714 5.279516346785062 0.0
9.450183479138845 5.92934813870612 0.0
8.783346541536119 5.48419035750989 0.0
9.38074895894124 5.65076274999803 0.0
9.513658728876734 7.193620441323493 0.0
6.396040948797887 6.776064256962667 0.0
5.389661780244388 4.89715084345563 0.0
4.473247649068957 5.85935163892416 0.0
9.249586607512612 8.37680799459232 0.0
9.103796366487646 8.379197231055114 0.0
6.274057301184156 4.87985402946409 0.0
9.259628836118232 3.561431822636308 0.0
4.037922477011971 5.489409780163391 0.0
5.62712958624254 4.893925433488392 0.0
8.806426003347967 6.133410188141932 0.0
9.53304466499349 9.59279975429444 0.0
9.542890959420024 1.966631379116419 0.0
7.459736176874619 5.863847835420528 0.0
5.937613117200432 4.89232797168023 0.0
6.171611131472617 4.879541833448487 0.0
6.100695199816815 2.291172318314745 0.0
2.315194906726768 8.081958163666464 0.0
6.878489987598286 5.148099521847569 0.0
9.105264414399338 8.639184652727645 0.0
9.20047261316883 3.457820810661327 0.0
9.895329010385955 7.55944047105717 0.0
9.912742873006831 7.76210330502246 0.0
9.37761459375249 3.168397068877758 0.0
8.946121261512507 6.345629828835438 0.0
9.918632496443566 4.449809517365367 0.0
6.848211525651934 5.945010613369067 0.0
9.915721525903255 2.047407395915179 0.0
6.117255841708726 5.163321965161054 0.0
7.276595248786602 5.347247322210079 0.0
6.32682869954104 5.23674259421017 0.0
8.785886448438022 5.692775375342819 0.0
9.099994401883361 6.776698531382792 0.0
9.913397459621638 0.2499999999998165 0.0
9.910352525643928 0.4481571029410266 0.0
9.907850422008579 0.5479735220323012 0.0
9.911983631350465 9.24778487019403 0.0
9.917634740384067 0.7514684821956668 0.0
9.195214232985496 3.254172408378337 0.0
5.000896927376288 1.846006038077654 0.0
9.917172478547403 8.250155740683276 0.0
9.908120476950126 1.742986232208194 0.0
9.914524635720774 1.949567899316728 0.0
9.907358878377153 9.145625165175748 0.0
9.917695944922635 8.949999999998397 0.0
7.648387553139914 5.325741673607362 0.0
9.605343588986079 4.130627398479715 0.0
6.648113233057817 6.774798386229164 0.0
9.910347203087213 8.446729917003672 0.0
9.913623694530468 8.548470085896316 0.0
9.9201245863254 1.536225488581779 0.0
9.906538426683255 1.059019360781604 0.0
9.912867352010919 8.74999999999809 0.0
9.799662981388353 8.79550485462418 0.0
9.831828680383174 5.99966894118311 0.0
9.91414179906643 1.263025320602998 0.0
9.920690092699912 7.240982963665807 0.0
9.385889285950551 2.235126904097426 0.0
9.28133998925606 8.00415195851526 0.0
9.817074723108401 3.172398890123306 0.0
9.482030285089927 7.512954023388035 0.0
6.682432918504054 7.233889573028878 0.0
8.528699633246763 3.260502457553277 0.0
8.91699963742029 2.327016692708648 0.0
9.267676068834481 3.954520684561369 0.0
8.70811637467455 4.974101624783084 0.0
8.18184214270768 7.816666208279135 0.0
9.690393137288163 5.264344933127836 0.0
6.937111790104696 5.245184991960528 0.0
5.895846026722989 5.174232967273284 0.0
8.281683356622615 6.400073017261236 0.0
9.150883172924027 7.444273543454419 0.0
5.430406600793122 3.390815886517273 0.0
5.049583827974758 5.697634876048387 0.0
8.3966710383105 3.495813899905868 0.0
9.007538428392454 8.046563579784266 0.0
4.645155158868719 2.637132843684674 0.0
4.887444326771336 2.30020425915506 0.0
6.483736782775559 4.522536327482678 0.0
7.843169154548308 8.2116075844056 0.0
5.06295551628385 4.901632590583318 0.0
7.201400991012747 5.138239336380897 0.0
8.519791031104612 8.848807089071627 0.0
8.658623737989732 3.031313729049854 0.0
7.585566208322493 3.629882964874684 0.0
8.411818469596405 6.834326722716643 0.0
9.172363528634236 7.669230647622864 0.0
8.85455683341768 2.682483055215344 0.0
9.359398739738925 1.631421337140716 0.0
9.071793864444992 7.337030604117359 0.0
6.968394563521436 3.712808894519514 0.0
7.899236117684646 7.094583340182754 0.0
9.54362864504834 9.781852543872333 0.0
7.151298729743687 7.644795130415299 0.0
5.452218361466201 5.186873761308322 0.0
5.517642289161902 5.293540933999446 0.0
7.802500357665464 5.978295671754199 0.0
6.594850839687122 8.491429270558893 0.0
6.029132431949566 8.294997405201931 0.0
9.31286590869111 0.5672913838331921 0.0
9.25238720319541 0.4415953739444106 0.0
9.550589523211062 4.228044955453704 0.0
8.748611832783206 6.250900951984038 0.0
7.566980108995873 3.995148257893202 0.0
7.426142759241261 3.996743578498081 0.0
6.478912513785404 4.000296412419969 0.0
9.30435638148753 5.168210982711592 0.0
7.542154188520517 5.752525075248498 0.0
7.219033852073297 2.139582470800704 0.0
7.370913620388047 6.545121498197235 0.0
5.226731036024996 5.187572666585561 0.0
8.515591031124366 4.462223215179979 0.0
6.762864307079274 0.3078036604979366 0.0
8.587432696997471 4.977010533175154 0.0
8.703948448756302 8.815629076400704 0.0
8.081003990931544 7.370949680119862 0.0
7.424404567669909 6.949730915714445 0.0
8.578903262311433 8.377992954045473 0.0
7.301258690263783 6.106184350645308 0.0
5.991600556904204 3.99820087171043 0.0
8.203048538477193 1.601044215405025 0.0
7.289972483120081 4.572350254111052 0.0
7.714697186439165 5.420586967696794 0.0
8.918853780709807 1.841796898567452 0.0
9.919941345877513 4.749808449067644 0.0
7.245589454939737 5.94251251443003 0.0
9.258480524497795 3.358952871140391 0.0
3.705877615124628 5.574038727593425 0.0
8.287096858129765 7.962370605242409 0.0
6.799629860952143 3.705385600481528 0.0
4.146753450763018 6.544154457143895 0.0
7.413973555029582 5.545687501585183 0.0
8.466524978378082 4.980481756569235 0.0
7.336312153537934 2.337983522449311 0.0
7.695505222753409 3.747498713679684 0.0
4.898236813123799 4.795853653580084 0.0
4.59779105899602 1.896916774247134 0.0
8.560170375862322 7.072369101894893 0.0
8.386150468360862 2.449771437140704 0.0
8.41200018115259 5.084601315536367 0.0
5.102189912301071 7.621598618277815 0.0
8.336320418935243 6.71651223072348 0.0
5.081745734883095 3.977838926197614 0.0
7.63590698378166 0.9500570055008507 0.0
7.743369677149255 3.051233984704873 0.0
5.357527459690566 0.3809996753407537 0.0
5.967373112873382 0.7731113464301924 0.0
8.169449265206127 6.666271947462212 0.0
5.95122726745053 5.55758205410881 0.0
9.922289489207834 3.53923011719877 0.0
9.39154684476555 2.659037023454942 0.0
7.701415639167884 7.690060291860976 0.0
9.819179654793023 1.329863870021845 0.0
8.358229579054417 6.506108206863729 0.0
9.269720555169467 5.657096143475924 0.0
4.473187658045934 7.435037860084884 0.0
9.65807158077373 3.255496360750368 0.0
9.605155446454205 8.713645566904637 0.0
7.097383547728313 5.141197376985936 0.0
9.812212483832656 1.89920712759492 0.0
9.83875570675407 6.81603549325055 0.0
8.926246869879279 2.079976511571457 0.0
9.166785856141402 9.169070814302419 0.0
8.763479010228052 1.587152667342957 0.0
5.957377924852992 6.404530806530254 0.0
7.14506854375872 6.10342416684208 0.0
5.672595070581394 5.164323323112049 0.0
4.899782787268781 0.3801727265981219 0.0
4.447133848117348 4.673614099606824 0.0
7.044865074789195 3.253639989243549 0.0
9.818461337102992 7.819456450952447 0.0
9.925334577033155 7.954012377173311 0.0
6.352907898232792 1.173665225954276 0.0
7.351721385581032 5.660361289755705 0.0
9.337367583861807 2.76534436379692 0.0
8.693118347802024 4.360254099729149 0.0
9.476812970101324 0.3524826622168163 0.0
7.109868985890334 0.9024224571333925 0.0
7.899106846231403 5.511805431542581 0.0
8.352799544476607 5.187887629361129 0.0
6.957483547582747 0.6176251309213842 0.0
8.099559500483094 1.412323841044818 0.0
9.913030944540278 0.8542404645334569 0.0
9.143075088381442 8.022165366829135 0.0
8.819861450593166 6.356592599428041 0.0
9.319444417409162 1.49938505915629 0.0
6.490262520326714 7.118204362551877 0.0
6.490874470087819 6.582907761235813 0.0
9.82506653058937 0.6146757679104559 0.0
6.803129818897624 4.419048038171804 0.0
9.840901379354312 0.08198751964190581 0.0
9.839740374244226 9.918356239418472 0.0
8.551927134544655 9.449788917425456 0.0
9.92097857388158 3.249999999993177 0.0
5.797087413057367 7.077351493358238 0.0
9.255412859987286 6.433984412022419 0.0
8.668174522249984 1.740767926084485 0.0
9.920991430240607 6.25262219124529 0.0
7.57275248448898 1.94367954756322 0.0
8.052865444445507 8.19900054463639 0.0
8.748697149245206 4.25201068974208 0.0
9.158270227735827 0.5542256343091421 0.0
5.997487767477439 4.787924707603557 0.0
6.119759900601896 4.78043793682227 0.0
4.353034750397793 8.619182743639561 0.0
8.721093521611476 5.588932824583312 0.0
5.717101151444983 1.123034066822819 0.0
9.825602081347064 8.68753399402474 0.0
8.005502510832988 8.7824052910506 0.0
5.548184234622668 6.408009287230429 0.0
5.77830300433981 6.598697187164234 0.0
9.613093825495433 4.50282172481406 0.0
9.928981132641653 9.74928475696928 0.0
6.613628176297015 4.515513362596662 0.0
1.822126723816303 1.297795131355289 0.0
9.514164594137375 1.43081427463862 0.0
4.735494753432723 3.698541604583975 0.0
9.52844959749262 8.615213629960298 0.0
4.660704511759056 0.7947595073298008 0.0
6.82340845160293 5.239926830264399 0.0
7.885938077030673 7.380147032865134 0.0
7.884599891021201 6.09005968568029 0.0
8.846834820720167 9.653276456345532 0.0
8.457777199486827 0.3851010632068662 0.0
6.66485224572131 8.771510767670392 0.0
9.091499342133352 9.708315832477556 0.0
9.824286725109655 4.976315293637262 0.0
7.848197684391786 5.632217046637356 0.0
3.88430598115417 4.225391362015386 0.0
8.776890759183289 2.809688928468134 0.0
7.393884285023409 3.59397875231041 0.0
6.927568893329758 4.396788356869783 0.0
4.96854327720728 2.662368428358774 0.0
9.1480130720193 3.951479613991279 0.0
7.071049729490975 2.38092990636632 0.0
3.40193058782919 1.686321186206593 0.0
7.612042194200681 4.815904436723407 0.0
9.043395868401339 6.888481825015849 0.0
9.098933057562759 8.152197681006806 0.0
6.058682303253315 3.857501492181965 0.0
3.707092669281355 2.986685502034343 0.0
5.113272509841263 5.189455016444592 0.0
6.960565857079232 3.416349532571279 0.0
8.755151527375476 7.649255597361291 0.0
3.393680865444538 3.679982303262531 0.0
3.117424600120088 3.35605258976247 0.0
8.530814041264104 5.488376426140491 0.0
4.820719767306654 5.106646490188182 0.0
9.918899263509473 4.144927088739744 0.0
9.918194630017027 7.447268230913605 0.0
8.461970084137805 3.144844565847669 0.0
9.924415919486059 6.949999999995354 0.0
7.184050152099684 2.72771667662237 0.0
8.834356715215904 7.801565642745232 0.0
8.689015446783005 4.145232831954543 0.0
8.490778532265319 8.234414357968106 0.0
8.63666290918932 2.83060276219705 0.0
4.61028976098935 4.741894230894578 0.0
6.314735925012879 4.003132559161639 0.0
9.20786580425652 4.67001723737971 0.0
7.141401229301469 4.873205425098625 0.0
6.235177809922153 4.774126344778935 0.0
9.12491895896937 3.145675090615719 0.0
9.255747684068178 3.162525801823036 0.0
8.312852272796098 2.290855459722148 0.0
1.449266720542303 3.363629101350872 0.0
9.525687840398492 4.800807314407045 0.0
4.829905263804087 8.14474456977717 0.0
9.09338914689732 7.563794106183232 0.0
5.389401689694107 5.283808684471545 0.0
8.530979415204587 3.029374286908943 0.0
7.901489077080633 6.535344047486632 0.0
9.218572924671975 5.760893551533255 0.0
8.562382833959296 4.143913974026883 0.0
8.62959127904665 8.974877485888243 0.0
9.408442441596518 9.62276529745719 0.0
7.5034765601713 3.869833107932387 0.0
9.842813436634783 6.600620949014236 0.0
9.826116984327193 8.911617279149695 0.0
7.529907780698261 0.7369111006685982 0.0
7.832164962480427 2.905293639437395 0.0
8.39517908433056 3.267417602291069 0.0
9.823014010107707 9.085319632577246 0.0
9.022314123618541 3.944559746338292 0.0
4.243701230676532 5.332574856090426 0.0
9.816740542566388 1.127839952679595 0.0
8.166775715766304 5.693916696568397 0.0
8.865374421689054 8.068986769641638 0.0
8.761145809863661 6.470583506581853 0.0
8.998345275919851 9.209303502026401 0.0
9.698477487436316 6.706902829754045 0.0
6.439032098063426 0.3109134377713525 0.0
7.562681994382136 4.643158005207056 0.0
9.03999088074715 0.2799354672273258 0.0
5.180741540467516 3.805018725608906 0.0
6.243990330956698 2.718077286244967 0.0
9.79416634023361 0.1815240178579244 0.0
9.926540005061975 2.847049370876555 0.0
9.826476210374608 2.670192168078066 0.0
6.365816673179121 4.536333049275508 0.0
5.546353765219417 4.618331215552614 0.0
9.820703096450293 2.000649418331399 0.0
6.884388790679166 3.561583980715254 0.0
7.431303395649604 5.747824222777201 0.0
8.849816832721245 2.19318290395604 0.0
4.185147517585975 5.697469360586313 0.0
9.165905238119013 5.873664931582344 0.0
7.70479478158537 1.788324620089049 0.0
9.627376046933474 0.9196091445437269 0.0
6.657687963328663 5.144792385996769 0.0
9.83245016645186 0.3925568446109945 0.0
7.483092985762584 9.253837199159435 0.0
5.445348362202234 3.977855663863651 0.0
7.476680532833337 4.837183287808616 0.0
9.572749890969304 8.505160319814301 0.0
9.915853314998252 9.437014513917465 0.0
7.679469018350979 7.390484878021194 0.0
9.418139053434402 4.790576000488359 0.0
8.096967733471567 5.865447162201908 0.0
9.829153508938724 8.378494945652118 0.0
9.926595955569645 5.157718300415699 0.0
8.774484245600224 7.939747459426853 0.0
8.629764448155779 6.481031318922794 0.0
8.961169458302376 3.839036702328818 0.0
4.617199205561317 5.256318959792646 0.0
8.480815774219478 4.031210317621497 0.0
9.708341592512763 3.401018043990571 0.0
7.183974816647467 4.77882314543966 0.0
9.821437962294304 7.659391965474772 0.0
8.150320284869602 2.286501016204562 0.0
9.828114434347311 1.684891358832554 0.0
5.349187766238684 6.538177907133678 0.0
8.076053471314525 2.76180604769483 0.0
4.907713691134565 5.29818629967416 0.0
0.6874399366049438 4.328593906714074 0.0
0.6980011780697519 5.702671170050627 0.0
8.263861466707834 8.182284285231713 0.0
5.838783785156478 4.913981390426639 0.0
7.807619472656604 7.235706382002089 0.0
9.388504256318683 6.022122644748753 0.0
9.929839894767033 6.436189192303577 0.0
8.3205848711706 3.39107920408397 0.0
3.240770542267401 4.019899919523968 0.0
8.059047070496568 2.468855909103855 0.0
9.932479519490421 2.449625056415224 0.0
7.737639000139152 4.580708137963557 0.0
8.26141077223695 0.3940397126348397 0.0
9.69568953371801 1.959951226402445 0.0
6.469120930453264 4.892267070266994 0.0
9.167223997255698 0.8102256463122337 0.0
6.236889648241256 0.9291076084031108 0.0
8.306379082772498 5.268830342852036 0.0
6.716089118890225 5.239344620507032 0.0
9.82511981852641 9.282822358664017 0.0
6.68375719572285 4.404998642130821 0.0
8.913754712375674 6.908138360584365 0.0
6.173250048857013 5.251634416326969 0.0
4.235907497612446 1.924052997345291 0.0
5.151007663981651 2.438629730660893 0.0
8.924254300637541 9.3764975797567 0.0
4.438612423541503 5.287968640901957 0.0
8.571203234299599 1.897009944569934 0.0
6.878800676380218 5.821332862798138 0.0
5.710626178601224 4.792560699857408 0.0
7.149510071621283 5.216310009157644 0.0
2.099966541549645 2.334742113488256 0.0
9.93396330620579 5.350566393301629 0.0
7.143046479323961 8.646955109387985 0.0
7.965747313080266 5.193641450105844 0.0
6.3314394693073 5.135050228240639 0.0
7.665821333021348 6.222698255001823 0.0
6.305321657053551 4.659816230868476 0.0
7.833020917089713 5.208837056143474 0.0
9.41455902676429 2.869725681199307 0.0
8.567151507735133 6.598605357295113 0.0
7.405527786978573 4.377085529441429 0.0
6.552969697053132 5.137148974085434 0.0
9.93630620742063 8.042778076596578 0.0
7.166743296019233 4.593171678848165 0.0
6.595561806063966 5.839366735225723 0.0
6.066152182102007 5.262519562574559 0.0
9.834694151277489 0.9093455747994099 0.0
8.98259191950674 7.579732466796592 0.0
6.465071238839505 5.25485771955322 0.0
9.759759896588413 3.236659507608532 0.0
4.775529448101694 5.224235675150505 0.0
9.935991245222917 7.153416415978829 0.0
0.6530736820718381 9.352299998916202 0.0
0.6449439415299687 0.6468300344151556 0.0
7.804690364869245 4.495816547678174 0.0
9.84503784553893 5.70620404704573 0.0
9.83525329400959 3.826992990746767 0.0
9.922964894244684 4.265000406933376 0.0
8.333767638401964 1.121219971446645 0.0
8.876012546033895 7.019147158538482 0.0
8.172413577824324 3.413096916572049 0.0
7.232233017296214 4.478957103028363 0.0
6.214597295185415 3.852860083673202 0.0
9.85013791746415 4.400709747289421 0.0
3.941627380932058 6.342995010255737 0.0
3.097271569675528 8.77391871286929 0.0
9.292917152323044 6.010976049411984 0.0
8.104342196673183 5.184165973282902 0.0
8.994300084006271 3.652611812846807 0.0
9.937157897030163 5.549999999993244 0.0
8.721368888525245 7.274540720770752 0.0
8.920003648712827 0.9516585309368178 0.0
7.910527456030004 8.536826514867816 0.0
9.846441288756814 4.60515911863952 0.0
9.584942233925151 4.712073182517884 0.0
9.642357858573972 6.805672051759494 0.0
9.797024725252207 9.838837222258014 0.0
9.842451438022124 4.018973836958878 0.0
6.112723137676118 3.704473949316424 0.0
7.574641969193845 3.765362276156904 0.0
7.826594968121701 6.200366572362263 0.0
7.762805366733504 9.34009502796868 0.0
9.56854033867856 1.012566255816665 0.0
7.71256563655353 5.219373702836014 0.0
9.68039392238282 8.786964504862018 0.0
5.910362452777086 9.277662068919813 0.0
7.418090653922814 3.326443419100716 0.0
9.857704179097952 4.697553149694669 0.0
8.452469674653342 8.996585816905599 0.0
9.522351366699843 2.057525484575908 0.0
7.802315574700843 9.548878971475935 0.0
9.938875656926385 3.449999999992592 0.0
8.425189037911712 6.608575180629274 0.0
5.925965231566842 2.523669697740033 0.0
6.654918072256329 5.95749128982984 0.0
9.826748589235729 9.631118448471485 0.0
8.6684585637523 7.39633999085442 0.0
9.844673843931567 3.090088625379724 0.0
9.93613850661301 2.250382721159617 0.0
9.218291993658738 2.892108990205171 0.0
9.83502846611296 8.212781989607324 0.0
7.754136409732265 7.104288507262783 0.0
8.510570542791681 2.036933285735889 0.0
7.757745059307245 4.315798612475442 0.0
7.989231770559189 6.201656630465583 0.0
8.068934521422738 4.198631572122605 0.0
4.957478134450373 9.038766150325067 0.0
7.208661142641733 6.501402463831379 0.0
7.299506095906239 4.363561999234681 0.0
8.250303873550486 2.105322217421675 0.0
8.678637541413377 7.053471135702286 0.0
9.761528395137384 6.163503990672834 0.0
9.84494857233395 8.59999999999775 0.0
9.83825138794677 3.672838954969637 0.0
5.121008544047756 5.808127183024784 0.0
8.343911550360986 4.043535893276861 0.0
9.85324441775315 5.899999999993774 0.0
9.51114465213134 8.41035540646284 0.0
6.505812179224195 6.93390566262983 0.0
6.15572847138365 9.023097246950844 0.0
3.352081892333425 3.024853379890529 0.0
6.433163283162099 8.675072413910678 0.0
8.825744236698243 3.624446391299867 0.0
4.883007294861279 7.819620905924936 0.0
5.876659170760434 5.638247433601083 0.0
6.859400040348503 6.510797998354633 0.0
7.946400945409184 3.500317276373196 0.0
7.496830255505493 6.653194511698024 0.0
9.852183479755313 4.891525833556942 0.0
9.77998778436291 2.922486526124376 0.0
6.774672660492365 5.324728659740495 0.0
5.717254072187427 6.824125962512845 0.0
9.713440940838062 4.63793103997539 0.0
8.859858662536796 0.2721395536350836 0.0
8.37556017530946 9.436653414116012 0.0
7.395237381047616 7.885576562773319 0.0
5.4709157802033 4.511152089197594 0.0
9.489749416979361 9.691840729914848 0.0
4.599216022837964 3.46438688931078 0.0
5.572287492757569 4.807021644849729 0.0
9.926499336309957 9.92730688390086 0.0
9.926499336310107 0.07269311609890093 0.0
9.338127766332573 0.3585313952168247 0.0
6.810761948165162 3.414693294319008 0.0
8.166274345037138 5.943611545564389 0.0
5.2892644736731 6.301081312912763 0.0
9.731911074791544 7.649313380659622 0.0
8.90251102352767 9.50983415326544 0.0
8.997881406541017 1.033666784655452 0.0
5.835124768755703 2.738139962594905 0.0
9.665357480775825 6.185331297099201 0.0
7.656532192558493 8.217157287499347 0.0
9.170463887605525 2.975444721032631 0.0
4.208158615905443 0.8648302238584886 0.0
6.97015686031129 5.933674629077266 0.0
6.181941366523793 3.565885175921835 0.0
3.30313590337911 6.393402837735046 0.0
6.447482061767014 4.816169316820496 0.0
8.185341428749446 4.169172087371246 0.0
4.552595724340015 8.298301336212145 0.0
9.84850676569699 8.999999999998423 0.0
9.846941514449377 7.393642828194986 0.0
7.924592433490734 2.788309934035703 0.0
8.154308714226714 8.853640122009672 0.0
8.876629743004642 1.96110242719995 0.0
7.228849192966834 8.90811350348676 0.0
9.852301635085423 8.296637825215246 0.0
5.219795195341889 5.547413133147649 0.0
9.861497117995457 6.901363010201344 0.0
2.953911258021604 6.136007283255669 0.0
6.93158841067062 4.77708273647784 0.0
9.67540418457871 2.912802891506324 0.0
4.194055958522277 4.437353127730132 0.0
6.133959559341536 0.406856611599261 0.0
8.29952795189331 9.309744645643846 0.0
9.843692337952948 1.209647690818311 0.0
5.164986286280336 6.671544079402435 0.0
9.838533350075606 2.081705440779448 0.0
8.301244777513975 6.604088853319459 0.0
5.471494771710784 2.714598185146428 0.0
8.86534684892311 1.208599471795828 0.0
9.940610684232212 1.451558535868664 0.0
9.40896208432968 1.428353940655538 0.0
2.329177605337097 4.238803555614174 0.0
5.980761651517799 7.182207186682233 0.0
9.66541573964336 0.1719254072074424 0.0
7.220979380229172 7.806128737674462 0.0
1.251721227904697 6.151932667911503 0.0
8.104967286191181 6.057912607875576 0.0
6.650768762224724 4.817922869198292 0.0
6.634976350437587 3.213339182992986 0.0
7.034320437500567 4.898219100342838 0.0
9.502772020064167 6.283064492634301 0.0
8.13187938667684 3.518506862055515 0.0
9.855471943454193 2.599999999994991 0.0
9.056747742708522 8.263936599935574 0.0
4.352645795441222 5.724453640019 0.0
3.744263984699181 1.488951698361357 0.0
5.175860134287045 3.6375726667098 0.0
7.736434712114619 6.400417475661193 0.0
9.857658576695343 6.316607183405179 0.0
7.876525261950537 4.304285002335559 0.0
9.856114384785611 7.914602773442983 0.0
9.848334119947063 0.7059644476295188 0.0
9.59694321995579 6.895814046141667 0.0
5.906465212962551 3.869023950643881 0.0
9.840676994268005 9.364956386459765 0.0
5.355015287544095 3.83518170601625 0.0
6.374090407153147 5.855743754257685 0.0
8.227401290513832 5.297819733684674 0.0
5.451235131977493 4.825706629991923 0.0
6.022070213762754 5.355923882747634 0.0
9.845674433677614 6.108401449483281 0.0
9.835067400944396 7.739582406783081 0.0
8.602026805792988 2.941372356914139 0.0
5.059869081004962 5.269480960018243 0.0
5.284714507903736 5.26496663762182 0.0
9.627110479149561 7.660076105040499 0.0
6.820001127809743 4.792514421153957 0.0
5.120512795059439 4.806607659110254 0.0
9.56933817216883 2.911464407429096 0.0
9.74091654291531 9.267545397628387 0.0
9.93006767325302 6.576784040838644 0.0
9.642486276936268 4.650227701598451 0.0
5.185183328569137 9.410919109238325 0.0
9.37052946854105 4.605636695802024 0.0
1.677077220416309 5.871167715901136 0.0
7.345783833404538 3.184020711886284 0.0
5.419239942654976 5.982692039856376 0.0
6.133318300188262 2.551919945731369 0.0
6.187291396343277 4.499077117404439 0.0
1.231465237822878 3.921479198315213 0.0
8.969849937139944 9.699215363213542 0.0
9.218303154263054 6.037447959776716 0.0
CELLS 4886 19544
3 1113 1356 1450
3 1402 231 1659
3 272 269 1414
3 396 394 1777
3 1451 945 1452
3 194 81 1801
3 1847 1501 2104
3 2024 2121 2479
3 1115 1113 1450
3 1124 1413 1844
3 1061 1955 2409
3 307 305 1645
3 1592 1369 1593
3 238 1501 1847
3 1955 1883 2409
3 1808 243 1910
3 1885 978 2362
3 1440 793 2092
3 189 1488 1608
3 353 350 1864
3 2007 2231 2232
3 307 1645 2493
3 1096 1760 2496
3 2178 874 2179
3 621 625 1595
3 1493 1480 1938
3 1655 1268 2137
3 1341 1410 2212
3 243 1808 2360
3 1902 1446 2516
3 1760 1096 1763
3 856 790 2180
3 2008 2046 2105
3 789 1809 2067
3 694 1543 1575
3 1127 1762 1953
3 1748 807 2228
3 1543 1308 1575
3 820 1872 2170
3 1417 954 1998
3 1369 1592 2386
3 272 1414 1787
3 329 333 1998
3 1544 1095 1545
3 2231 1490 2232
3 1342 1683 1790
3 374 377 1797
3 807 1678 2228
3 1665 198 2128
3 141 142 1620
3 325 322 1952
3 231 1402 1654
3 198 1665 2010
3 1890 1307 2387
3 208 1438 1619
3 2016 1970 2156
3 1436 212 2020
3 954 1417 2333
3 1736 1894 2244
3 1491 1750 2143
3 1677 1064 2146
3 1474 1258 1475
3 1500 233 1930
3 1446 2415 2516
3 1700 973 1800
3 2128 2270 2316
3 1316 1315 1593
3 1307 2341 2387
3 2258 1324 2328
3 1083 1507 1508
3 693 1095 1544
3 621 1595 1596
3 667 1571 1872
3 1932 1766 2061
3 393 391 2240
3 1342 1790 2400
3 252 1707 2234
3 931 978 1885
3 1430 1116 1704
3 1411 1109 1714
3 1478 1227 2440
3 1990 195 2297
3 1792 1167 1985
3 1682 444 1975
3 394 397 1777
3 1711 2028 2162
3 1574 856 2180
3 2008 1851 2046
3 736 1493 1938
3 1069 1060 1662
3 1458 455 1754
3 862 691 1705
3 1161 1642 2286
3 1699 1700 1800
3 447 516 1637
3 955 1482 1483
3 2024 206 2121
3 391 1773 2240
3 1072 1412 1893
3 212 1436 2350
3 1566 1365 1568
3 259 1441 1672
3 872 870 1764
3 330 328 1889
3 1539 1161 2286
3 1897 1898 2275
3 1434 1990 2297
3 1109 1411 1730
3 319 307 2493
3 1762 1761 1953
3 1369 1316 1593
3 1540 834 1832
3 1505 652 2442
3 1732 1655 2137
3 921 1712 2295
3 1872 1388 2170
3 1712 921 2125
3 2028 244 2162
3 1506 1570 1680
3 1569 368 1964
3 1571 667 2375
3 1587 2178 2179
3 196 1723 1737
3 524 2016 2156
3 1528 1250 1733
3 1115 1450 1973
3 1938 1480 1971
3 1809 1396 2067
3 1641 249 2299
3 1223 1258 1474
3 1365 1566 2120
3 1981 962 2316
3 1538 353 1864
3 455 1458 1756
3 152 233 1500
3 1116 1430 1703
3 817 652 1505
3 1347 2003 2004
3 1607 1958 2085
3 194 1801 2195
3 1410 1341 2351
3 223 1415 1710
3 197 1511 2346
3 2198 787 2225
3 81 82 1801
3 1438 208 1620
3 1444 522 1823
3 1511 197 1950
3 726 718 1567
3 1637 516 1739
3 1708 2337 2341
3 1280 1649 2124
3 2337 1395 2341
3 1327 1709 2315
3 1225 1227 1478
3 691 624 1705
3 476 2224 2305
3 830 832 2204
3 1750 1491 2403
3 1366 1897 2275
3 2345 1583 2352
3 2054 405 2110
3 1984 2172 2230
3 1846 2198 2225
3 1177 2042 2418
3 2121 1367 2479
3 1527 1531 1541
3 916 1039 1834
3 1413 1124 2467
3 1622 1503 1868
3 249 1641 2019
3 1805 405 2054
3 1761 1007 1953
3 1415 223 2395
3 960 1756 2203
3 368 1569 2135
3 1402 1659 2473
3 941 1433 2471
3 1267 1477 1501
3 260 2002 2265
3 1704 558 2077
3 2224 1886 2305
3 2053 1386 2199
3 1452 945 1952
3 1717 1611 1718
3 1682 1975 2230
3 1760 1762 2496
3 1481 203 2104
3 1264 1266 1670
3 142 236 1620
3 2133 1182 2179
3 1791 1602 2183
3 350 346 1864
3 1412 1072 2393
3 1281 1575 2255
3 1565 1948 2155
3 849 1449 1513
3 1958 396 2085
3 1339 1069 1662
3 834 1540 1917
3 269 267 1414
3 1268 1267 1501
3 1440 2092 2468
3 1399 1981 2316
3 1635 1636 2041
3 1454 252 2234
3 1451 1305 1890
3 1375 1883 1955
3 362 366 1786
3 1484 2410 2528
3 1449 849 1640
3 1267 1474 1477
3 200 1611 1717
3 1054 1581 1582
3 1350 1977 2253
3 190 1390 2118
3 788 1956 2193
3 1709 1327 1888
3 2233 2298 2413
3 1488 189 2355
3 478 1685 1714
3 230 1525 1690
3 1687 478 1688
3 427 429 1756
3 1570 1065 2476
3 1880 1133 1988
3 1649 656 2124
3 1537 209 1614
3 1134 1769 1986
3 1220 1268 1655
3 396 1777 2085
3 1167 1755 1985
3 2229 1744 2296
3 1575 1281 2287
3 127 240 1882
3 377 647 1797
3 954 329 1998
3 220 1697 1698
3 1342 1341 2212
3 1441 264 1672
3 1512 188 2433
3 763 2345 2352
3 1685 1411 1714
3 1805 1188 1951
3 1347 2004 2157
3 1054 1582 1667
3 1333 1617 1674
3 2217 73 2361
3 1539 1036 1917
3 1039 1292 1834
3 208 141 1620
3 1965 1964 2038
3 693 1544 1969
3 1453 239 2279
3 203 1481 2049
3 945 1451 1889
3 680 1459 2134
3 354 2147 2196
3 1405 1932 2061
3 1723 1722 1737
3 1748 1175 1927
3 1532 1528 1733
3 2057 1824 2154
3 1406 1659 1702
3 1948 1186 2155
3 210 1598 2114
3 1685 478 1687
3 1324 1325 2328
3 1526 1250 1527
3 165 166 1509
3 1493 736 2523
3 1526 1527 1541
3 1390 190 2417
3 522 1444 1998
3 1680 1570 1732
3 1017 1442 2525
3 374 1797 2430
3 1507 1083 2197
3 1756 960 2221
3 2270 1400 2316
3 2205 1452 2282
3 1074 1187 1888
3 2158 1245 2200
3 1442 1017 1684
3 864 1116 1703
3 1750 1751 2143
3 1456 516 1492
3 1677 2146 2149
3 2022 1339 2388
3 1602 258 2183
3 678 1594 1595
3 1245 1670 2200
3 972 830 2204
3 2143 983 2342
3 1268 1501 2226
3 1266 1461 1670
3 1487 222 2465
3 1382 2022 2388
3 58 59 1661
3 2147 1543 2196
3 1484 1485 2410
3 628 2053 2199
3 1906 1549 2259
3 364 362 1786
3 1339 2022 2247
3 1636 525 2041
3 625 678 1595
3 678 1593 1594
3 2212 1410 2222
3 1837 1865 2215
3 1699 1800 1801
3 866 864 1703
3 893 1472 1982
3 1735 1736 2244
3 1633 1255 1922
3 126 127 1882
3 681 867 1656
3 1351 1401 2363
3 11 228 1588
3 1127 1953 2454
3 265 266 267
3 1722 1122 1737
3 1389 1691 2069
3 1613 1610 1616
3 1227 1256 2440
3 429 455 1756
3 1535 1177 2418
3 322 324 1952
3 973 1700 1802
3 1964 368 2038
3 1176 1865 1866
3 1096 872 1764
3 1176 1866 1875
3 193 1839 1892
3 156 157 1441
3 615 617 1596
3 686 1520 2480
3 1409 2097 2305
3 2410 1151 2528
3 1427 2217 2361
3 440 1911 2314
3 1744 1743 2296
3 516 1456 1739
3 1939 589 2164
3 690 931 2150
3 1062 1579 1580
3 1054 1580 1581
3 955 1483 1716
3 1064 1677 2248
3 1956 1616 2193
3 1776 1893 2026
3 1398 1115 1973
3 2002 1453 2265
3 1541 1531 1542
3 216 2191 2536
3 1736 1326 1894
3 1065 994 1066
3 1598 2115 2175
3 2314 1911 2358
3 1433 941 2042
3 2115 1209 2175
3 717 1550 1551
3 188 1941 2433
3 267 1132 1414
3 771 1569 2064
3 1157 1545 1546
3 1231 1250 1526
3 1933 240 2181
3 222 1487 2025
3 1525 230 1765
3 1430 1704 2077
3 757 1744 2495
3 264 263 265
3 883 773 1917
3 739 2205 2282
3 1667 1582 2434
3 1744 757 2474
3 239 1453 2002
3 1441 259 2356
3 2005 1443 2012
3 254 1766 1932
3 1509 166 1679
3 1477 1475 1481
3 793 1440 2165
3 1385 1523 2377
3 1481 1475 2523
3 156 1441 2356
3 1066 1220 1655
3 945 325 1952
3 2094 2087 2134
3 1747 1175 1748
3 253 262 263
3 1327 1074 1888
3 718 715 1567
3 2046 1043 2105
3 240 1933 2399
3 1305 1307 1890
3 224 58 1661
3 1195 1566 2285
3 1590 1393 1749
3 1255 1230 1922
3 353 1538 2073
3 358 1999 2325
3 882 1802 2036
3 1024 1020 1604
3 333 522 1998
3 1401 1351 2414
3 1475 1258 1476
3 2310 786 2364
3 328 945 1889
3 807 1748 1927
3 825 724 1912
3 1742 263 2491
3 267 266 1132
3 2077 2102 2203
3 1431 1432 1860
3 1212 1957 2312
3 2097 476 2305
3 1132 1402 2473
3 717 713 1550
3 1746 693 1969
3 1372 1124 1844
3 1256 1541 2269
3 1977 1350 2274
3 2332 1978 2443
3 874 2133 2179
3 1983 1534 2171
3 1157 1544 1545
3 1230 1228 1922
3 1580 1579 1581
3 1565 806 1948
3 1416 1363 2413
3 1287 1995 2398
3 265 263 266
3 1534 1529 2171
3 1604 1834 2428
3 1255 1633 2509
3 1344 1643 1644
3 1332 1388 1571
3 1423 217 2217
3 2191 1057 2451
3 458 447 1637
3 1250 1233 1733
3 472 2212 2222
3 1175 1747 1840
3 1652 256 1653
3 1073 1347 1572
3 200 145 1609
3 683 640 1585
3 1116 862 1705
3 1221 1223 1474
3 1778 801 1803
3 1503 1622 2471
3 1475 1493 2523
3 464 680 2134
3 14 210 2114
3 579 1880 1988
3 1434 1435 1990
3 1447 2310 2364
3 275 274 276
3 2294 1871 2419
3 814 1068 1684
3 1172 1439 2273
3 273 272 274
3 1363 1416 2406
3 1220 1219 1221
3 1060 1656 1662
3 1099 1792 1985
3 2048 1198 2168
3 1241 1245 2323
3 699 723 1753
3 1640 1862 2070
3 910 1018 1584
3 1586 1067 1587
3 1656 867 1662
3 1067 686 2480
3 654 2242 2294
3 1593 1315 1594
3 1880 553 1974
3 236 1717 1718
3 617 621 1596
3 1723 196 2313
3 402 1877 2116
3 273 274 275
3 2202 1869 2252
3 1510 1358 1767
3 193 1892 2373
3 1188 1805 2054
3 1220 1221 1267
3 1066 1218 1219
3 1517 1097 1518
3 1677 1676 1858
3 686 277 1520
3 268 267 269
3 697 857 1592
3 220 1698 1699
3 1802 1700 2036
3 1612 1537 1614
3 929 817 994
3 228 12 2136
3 2110 2116 2482
3 1659 1658 1702
3 1611 1613 2280
3 1344 991 1643
3 683 1585 1604
3 1638 1358 2404
3 1485 1034 2410
3 2214 833 2424
3 271 272 273
3 1482 955 1962
3 1066 1219 1220
3 931 1885 2150
3 1613 1891 2280
3 1189 1589 2204
3 1566 1195 2120
3 726 1567 2490
3 1122 1722 1874
3 1494 319 2493
3 1671 259 1672
3 1267 1221 1474
3 603 528 1591
3 1664 2128 2316
3 1817 1924 2174
3 1626 1660 2111
3 1474 1475 1477
3 1023 1062 1580
3 1957 1599 2312
3 1764 1939 2164
3 1358 1950 2404
3 200 1609 1610
3 1431 1082 1432
3 1778 1803 2521
3 1830 1832 2075
3 1930 233 2369
3 1329 1482 1650
3 757 1959 2522
3 1239 1247 1597
3 758 1978 2332
3 1569 1290 2064
3 216 1694 2191
3 1453 1420 2265
3 1549 1906 2129
3 24 215 1674
3 19 235 1676
3 1621 1057 2191
3 1691 1389 2262
3 1617 1333 2192
3 929 994 1065
3 1769 1672 1986
3 1893 1412 2026
3 1609 1537 1612
3 271 269 272
3 1373 1438 1620
3 217 1423 2381
3 517 330 1889
3 1322 1055 1667
3 1974 553 2499
3 228 2136 2187
3 1589 1189 1788
3 1999 1577 2325
3 2110 405 2116
3 189 1608 1842
3 1055 1050 1667
3 739 1455 2205
3 1865 1176 2215
3 319 1494 2522
3 2474 757 2522
3 1484 227 1485
3 10 11 1588
3 723 809 1753
3 27 230 1689
3 1550 806 1565
3 1179 1180 1217
3 207 1617 2192
3 1433 1217 1502
3 1562 1556 1606
3 1379 2017 2018
3 1245 2158 2323
3 675 1097 1517
3 884 501 1599
3 1020 683 1604
3 1603 1095 1848
3 1001 2057 2154
3 1604 1585 1834
3 1610 1612 1616
3 1764 870 1939
3 2242 1871 2294
3 1669 1264 1670
3 1658 213 1702
3 1995 1646 2398
3 631 539 1600
3 1491 2143 2342
3 1801 1800 2195
3 1200 1199 1693
3 1535 940 1861
3 1534 758 2332
3 914 2258 2328
3 1588 228 2457
3 216 138 1694
3 151 152 1500
3 1133 1880 1974
3 1677 1858 2248
3 1294 1622 1868
3 875 1010 1767
3 1379 2018 2416
3 1279 2202 2252
3 182 256 1652
3 1592 857 2386
3 672 681 1656
3 615 1596 1824
3 1093 1487 1623
3 1823 522 2100
3 1245 1242 1669
3 1582 1581 1583
3 758 1534 2306
3 1975 1984 2230
3 1358 1510 1950
3 1663 1336 1665
3 2102 960 2203
3 366 1087 1786
3 1740 1490 2231
3 21 207 1709
3 145 146 1609
3 2339 765 2384
3 603 1591 1668
3 2081 199 2149
3 1540 1832 1879
3 1721 1723 1947
3 1754 455 1793
3 1751 1753 2119
3 882 1701 1807
3 1540 1539 1917
3 242 1695 1697
3 1521 354 2091
3 1363 2233 2413
3 1584 1018 1925
3 703 1067 1586
3 1177 1178 1179
3 795 916 1834
3 277 276 607
3 1571 1388 1872
3 22 23 1617
3 1097 823 1177
3 25 26 1624
3 419 418 1790
3 1728 1906 2259
3 440 1455 2261
3 1877 1318 2116
3 1488 1156 1608
3 1439 2130 2273
3 1889 1451 1890
3 1614 209 2389
3 1472 893 2094
3 675 821 823
3 23 24 1674
3 1788 1190 2183
3 917 941 1622
3 1763 1096 1764
3 1068 1442 1684
3 1034 1485 2173
3 2172 1533 2230
3 138 139 1694
3 1065 1570 2197
3 607 674 675
3 1536 1248 2268
3 229 135 1734
3 1437 1925 1926
3 680 510 1646
3 147 209 1537
3 26 27 1689
3 1627 705 2163
3 206 1651 2121
3 2409 1785 2462
3 1492 682 2447
3 1223 1225 1258
3 889 1772 2374
3 253 263 264
3 275 276 277
3 1455 739 2261
3 2022 1382 2176
3 150 227 1484
3 639 1019 1591
3 1449 1640 2070
3 1082 833 2214
3 1503 1502 1504
3 144 200 1717
3 1643 991 1713
3 1190 1791 2183
3 1538 1804 2073
3 1256 2269 2440
3 18 19 1676
3 521 531 2000
3 790 849 2180
3 1075 1329 1650
3 1087 1782 1785
3 1066 994 1218
3 270 269 271
3 682 1492 2494
3 185 252 1454
3 253 158 262
3 1629 1632 1633
3 200 1610 1611
3 1477 1481 2104
3 1623 1487 2465
3 1518 1097 1535
3 1414 1132 2460
3 1179 1217 1433
3 177 1506 1680
3 1392 1017 2525
3 1832 834 2075
3 675 823 1097
3 1459 2094 2134
3 1782 1087 1795
3 1838 1730 2372
3 1639 149 2528
3 1617 23 1674
3 2265 1420 2489
3 180 232 1859
3 1527 1250 1528
3 20 21 1709
3 1083 1508 2311
3 903 866 1703
3 1455 440 2314
3 1187 1858 1888
3 1659 1406 2473
3 1446 1902 2166
3 421 1951 2106
3 1598 210 2115
3 154 259 1671
3 1288 1835 2080
3 1832 1831 1879
3 1258 1225 1478
3 1024 1604 2117
3 1263 1429 1739
3 706 705 1627
3 1583 1581 2352
3 407 1805 1951
3 856 1574 2527
3 1701 882 2036
3 1624 26 1689
3 717 1551 1552
3 1385 2377 2391
3 2302 1745 2354
3 1572 1347 2157
3 1036 883 1917
3 1689 1690 1691
3 1664 1665 2128
3 1476 1479 1480
3 1751 2119 2143
3 815 814 1684
3 1790 889 2400
3 1606 1607 2085
3 265 267 268
3 418 889 1790
3 1522 1521 2091
3 135 136 1734
3 1726 1445 1729
3 647 1796 1797
3 1346 1453 2279
3 1293 1827 2117
3 1242 1244 1669
3 1853 1852 1854
3 889 2374 2400
3 1039 1038 1290
3 1524 628 2199
3 1331 1332 1571
3 1291 1290 1569
3 1475 1476 1493
3 1850 1852 1853
3 1490 1740 2456
3 1689 230 1690
3 1256 1526 1541
3 1704 1705 2167
3 1465 1470 1675
3 956 1073 1572
3 1613 1616 1956
3 916 917 1038
3 2014 1522 2091
3 1221 1222 1223
3 1999 763 2352
3 234 10 1588
3 1697 220 2335
3 1527 1528 1529
3 2298 1600 2413
3 1436 2020 2254
3 1642 1161 1678
3 1523 1385 2436
3 1730 1838 2426
3 795 796 916
3 713 711 1550
3 1456 1263 1739
3 999 1336 1663
3 1785 1784 2462
3 409 415 1783
3 607 675 1517
3 1229 1231 1526
3 1958 1855 2078
3 1589 1588 1590
3 1933 261 2380
3 762 1965 2038
3 1756 1458 2203
3 1776 597 1893
3 1794 1072 1893
3 188 1512 2266
3 1774 2339 2384
3 188 1908 1941
3 1010 1510 1767
3 2189 2285 2307
3 773 834 1917
3 1245 1669 1670
3 1248 1597 2268
3 146 1537 1609
3 818 910 1584
3 1641 1313 1651
3 1217 1745 2302
3 1065 1066 1655
3 1597 1247 2047
3 1360 2177 2376
3 1612 1615 1616
3 2126 867 2186
3 1019 683 1020
3 1747 892 1840
3 1092 1093 1623
3 261 1933 2181
3 400 424 1666
3 1516 1903 2377
3 1100 1392 1605
3 247 1738 1881
3 268 1134 1986
3 1177 823 1178
3 884 1599 1957
3 263 262 2491
3 806 1627 1948
3 1227 1229 1256
3 191 1729 2504
3 1636 1635 2502
3 1480 1479 1601
3 1721 1947 2498
3 1924 1146 2174
3 229 1734 1735
3 175 204 1725
3 1179 1178 1180
3 354 1521 2147
3 665 697 1592
3 640 646 1585
3 627 545 1636
3 1882 240 2399
3 1556 1555 1606
3 1373 1620 2394
3 1871 1071 2419
3 548 1628 1629
3 455 436 1793
3 974 1831 1841
3 1844 1413 2392
3 1612 1614 1615
3 209 1639 1937
3 1329 1330 1331
3 1823 2100 2142
3 1097 1177 1535
3 1021 1020 1022
3 825 1912 2455
3 913 1122 1874
3 400 1666 2113
3 1256 1229 1526
3 1419 1418 2450
3 1552 1551 1553
3 1850 1099 1852
3 1629 1631 1632
3 801 685 2029
3 1618 1619 1621
3 265 268 1986
3 1715 2165 2330
3 1531 1529 1534
3 1022 1024 1576
3 658 693 1746
3 703 686 1067
3 1062 1576 1577
3 1023 1022 1062
3 236 1718 2394
3 1688 502 1740
3 1501 1477 2104
3 213 165 1509
3 646 795 1585
3 196 1737 1738
3 379 679 1795
3 639 640 683
3 924 875 1767
3 1752 699 1753
3 207 2192 2315
3 627 1636 1660
3 1217 1180 1745
3 730 728 1833
3 528 561 1591
3 1444 1417 1998
3 252 186 1602
3 1729 1445 2504
3 460 502 1688
3 1418 946 1778
3 1203 1200 1693
3 548 470 1628
3 849 668 1640
3 646 785 795
3 607 276 674
3 14 15 210
3 147 148 209
3 478 460 1688
3 1709 207 2315
3 1157 1546 1608
3 1155 1731 1899
3 1524 1934 2390
3 1775 921 1876
3 1433 1502 1503
3 470 458 1628
3 1223 1224 1225
3 1291 1569 1964
3 871 1056 1826
3 1781 1783 1915
3 1587 1067 2300
3 916 1038 1039
3 1388 1387 1389
3 1611 1610 1613
3 1075 1328 1329
3 1039 1290 1291
3 1538 1265 1804
3 1184 1185 2163
3 597 598 1794
3 1450 1356 2421
3 1835 576 2080
3 1629 1628 1631
3 1331 1330 1332
3 561 639 1591
3 1476 1480 1493
3 705 703 1586
3 639 683 1019
3 1951 1188 2106
3 436 446 1793
3 1472 1297 2142
3 1332 1387 1388
3 1345 984 1720
3 1329 1328 1330
3 1050 1048 1667
3 150 151 227
3 11 12 228
3 557 541 2256
3 1831 974 1879
3 134 229 1766
3 1357 1358 1638
3 1336 1641 2299
3 1650 1482 1962
3 1591 1019 2512
3 1506 1507 1570
3 1803 801 2029
3 1178 823 1972
3 1552 1553 1554
3 1290 1038 1294
3 1028 1313 1641
3 1237 1239 1597
3 993 1017 1100
3 893 2087 2094
3 149 1484 2528
3 1768 1142 1949
3 9 234 1673
3 1554 1553 1555
3 668 632 1640
3 711 806 1550
3 1628 458 1637
3 1098 1829 1830
3 1482 1331 1483
3 531 1818 2000
3 435 419 1790
3 1156 1157 1608
3 1182 1184 2179
3 510 512 1646
3 1231 1233 1250
3 946 841 1778
3 1483 1331 1571
3 1459 680 2458
3 1166 1040 1210
3 892 1657 1820
3 1042 1445 1726
3 1019 1020 1021
3 749 805 1810
3 234 1588 1589
3 1695 242 1892
3 556 1853 2483
3 1018 1572 1573
3 1529 1528 1530
3 1606 1558 1607
3 1761 1759 2308
3 1396 1032 1921
3 1018 956 1572
3 689 1150 1416
3 1827 1293 2515
3 149 150 1484
3 1647 656 1648
3 1543 694 2196
3 399 409 1783
3 545 525 1636
3 268 269 270
3 715 713 717
3 1100 1017 1392
3 1657 892 1747
3 207 22 1617
3 1666 884 2249
3 1671 1672 1769
3 1554 1555 1556
3 146 147 1537
3 1081 1444 1822
3 711 709 806
3 1443 2005 2322
3 660 658 1746
3 1166 1458 1754
3 916 796 917
3 1056 1728 1826
3 1068 1069 1275
3 184 185 1454
3 158 159 262
3 2007 1687 2231
3 805 1708 1810
3 1672 264 1986
3 1561 1562 1563
3 978 1075 1650
3 1590 1588 2457
3 215 25 1624
3 1551 1550 1565
3 1073 1346 1347
3 857 818 1584
3 1648 656 1649
3 675 674 821
3 561 594 639
3 1731 529 1899
3 2303 1454 2535
3 981 903 1040
3 1630 1629 1633
3 993 877 1017
3 724 718 726
3 512 603 1646
3 1676 235 1858
3 814 1060 1068
3 715 717 1567
3 1796 647 1870
3 1715 1171 2165
3 678 1592 1593
3 644 613 1824
3 1690 1525 2145
3 1297 1822 1823
3 271 656 1647
3 1704 1116 1705
3 1225 1226 1227
3 1275 1069 1338
3 910 956 1018
3 1824 1596 2154
3 1403 1100 1605
3 1221 1219 1222
3 1068 1060 1069
3 1901 245 1949
3 1081 1055 1321
3 1751 563 1752
3 1021 1022 1023
3 672 638 681
3 1095 657 1848
3 1235 1237 1248
3 1561 1556 1562
3 1265 1259 1804
3 524 1819 2016
3 978 1650 2362
3 1492 516 2494
3 229 1735 2061
3 185 186 252
3 157 158 253
3 152 153 233
3 9 10 234
3 1527 1529 1531
3 1808 1344 2360
3 1062 1577 1579
3 1509 1679 1977
3 424 454 1666
3 637 638 672
3 981 1040 1166
3 1555 1558 1606
3 751 749 1810
3 1166 1210 1458
3 1651 1313 2121
3 15 16 2260
3 1633 1632 2509
3 2167 1705 2276
3 551 602 2045
3 697 818 857
3 364 1786 1883
3 832 1189 2204
3 1476 1478 1479
3 678 665 1592
3 213 1509 2096
3 1015 888 1124
3 1062 1022 1576
3 679 1782 1795
3 680 1646 1995
3 1101 1100 1403
3 1109 433 1714
3 1248 1237 1597
3 733 730 1833
3 1702 213 2096
3 499 498 1828
3 1418 1778 2521
3 637 600 638
3 1048 1046 1054
3 1577 1576 1578
3 814 766 1060
3 1279 2252 2292
3 474 470 548
3 199 18 1676
3 157 253 1441
3 1048 1054 1667
3 471 472 2290
3 625 665 678
3 795 785 796
3 1264 1265 1266
3 1437 1926 2350
3 1362 2048 2168
3 1394 2337 2371
3 454 884 1666
3 1022 1020 1024
3 751 1810 1923
3 1046 1023 1580
3 1807 1701 1931
3 1618 208 1619
3 566 588 689
3 1828 498 1829
3 501 509 1599
3 1118 780 1775
3 878 817 929
3 1510 1511 1950
3 1618 1621 1694
3 1052 1081 1822
3 1416 1150 1715
3 1239 1241 1247
3 1396 1921 2067
3 1751 1752 1753
3 1264 1259 1265
3 539 566 1600
3 1762 1127 2496
3 1673 1788 2183
3 1555 1557 1558
3 1052 1050 1055
3 725 724 825
3 1142 1770 1771
3 681 853 867
3 454 501 884
3 1346 1420 1453
3 932 1147 1770
3 1546 1545 1547
3 533 582 1818
3 1266 1337 1460
3 1872 820 2318
3 1117 1119 1713
3 1081 1321 1417
3 1253 1259 1264
3 1569 771 2135
3 1052 1055 1081
3 1181 1178 1972
3 709 706 1627
3 1073 1076 1346
3 1098 1828 1829
3 1382 1380 2176
3 1442 1275 1443
3 919 999 1663
3 1789 828 1855
3 877 815 1684
3 509 539 631
3 992 877 993
3 1266 1265 1337
3 2268 1498 2340
3 1130 1032 1396
3 1095 1603 2508
3 886 826 887
3 531 533 1818
3 1131 1400 1881
3 447 437 516
3 2460 1132 2473
3 940 1535 2418
3 768 1873 2037
3 1813 1869 1954
3 1627 2163 2488
3 1497 1495 1645
3 1198 1409 2168
3 724 726 1912
3 1869 987 1954
3 763 1999 2338
3 1010 1170 1374
3 984 976 1720
3 1470 1743 1744
3 689 588 1150
3 1901 1949 2359
3 1640 632 1862
3 274 272 1787
3 563 564 1752
3 994 817 1505
3 737 1807 1931
3 1770 1147 1771
3 1233 1235 1733
3 2450 1418 2521
3 414 410 1821
3 908 1099 1850
3 1227 1228 1229
3 1692 1203 1693
3 1625 216 2194
3 512 528 603
3 1377 1357 1638
3 1465 1464 1470
3 1360 1359 2177
3 1686 2007 2095
3 1336 1028 1641
3 1857 751 1923
3 1758 572 1759
3 553 541 557
3 1171 1715 1811
3 956 1003 1073
3 1467 1465 1675
3 719 718 724
3 1509 1977 2096
3 1734 1625 1736
3 1503 1504 1868
3 592 597 1776
3 180 181 232
3 162 163 231
3 2308 1759 2370
3 1357 1114 1358
3 875 946 1010
3 509 631 1599
3 17 18 199
3 144 145 200
3 1099 906 1792
3 1469 1467 1494
3 605 589 1939
3 1208 1205 1211
3 354 344 2091
3 692 782 804
3 1010 946 1170
3 1463 1462 1464
3 716 715 718
3 714 713 715
3 271 273 656
3 139 1618 1694
3 549 277 686
3 673 672 766
3 1378 1377 1379
3 2007 868 2095
3 999 1028 1336
3 1208 1211 1447
3 601 545 627
3 1119 1643 1713
3 1332 1333 1387
3 910 912 956
3 520 521 2000
3 828 1789 1819
3 277 607 1520
3 1338 1339 2247
3 818 819 910
3 767 766 814
3 712 711 713
3 1494 1467 1675
3 639 594 640
3 2044 557 2256
3 235 20 1709
3 1620 236 2394
3 804 919 962
3 1862 702 2070
3 681 852 853
3 1559 1556 1561
3 1622 941 2471
3 2165 1440 2330
3 612 644 692
3 697 698 818
3 1903 1516 1994
3 371 379 1795
3 428 426 2138
3 1290 1294 2064
3 1384 1904 2432
3 566 689 1600
3 471 452 472
3 1092 1091 1093
3 1002 1131 1719
3 1090 1089 1091
3 875 841 946
3 1758 1760 1763
3 1562 1606 2085
3 1833 1830 2075
3 178 179 214
3 164 165 213
3 769 923 1815
3 692 644 782
3 804 782 919
3 182 183 256
3 160 161 257
3 1329 1331 1482
3 962 1663 1664
3 1177 1179 2042
3 403 405 1805
3 1461 1460 1462
3 140 208 1618
3 1859 232 1860
3 274 1787 2099
3 1381 2126 2186
3 1558 1560 1789
3 430 428 682
3 452 435 1683
3 1487 1156 1488
3 1470 1464 1743
3 597 1794 1893
3 1244 1253 1669
3 962 919 1663
3 258 8 1673
3 1087 1785 1786
3 970 1042 1726
3 199 1677 2149
3 1664 1663 1665
3 1229 1230 1231
3 991 827 1713
3 792 1603 1848
3 1822 1444 1823
3 665 666 697
3 19 20 235
3 142 143 236
3 728 1098 1833
3 532 530 1898
3 1015 1124 1372
3 1546 1547 1548
3 1851 1850 1853
3 1877 393 2240
3 923 1105 1815
3 1090 1091 1092
3 687 686 703
3 1683 435 1790
3 887 826 1961
3 684 663 1089
3 426 1934 2138
3 464 510 680
3 853 854 855
3 568 572 1758
3 1376 1357 1377
3 1205 1203 1692
3 1607 1789 1855
3 710 709 711
3 780 781 1775
3 1434 1103 1435
3 876 815 877
3 766 672 1656
3 1393 1590 2457
3 684 1089 1090
3 530 890 1898
3 926 1920 1943
3 696 414 1821
3 1563 1562 1777
3 1054 1046 1580
3 1398 1973 1974
3 137 216 1625
3 1210 1040 1430
3 1750 563 1751
3 2010 1665 2299
3 1510 1374 1511
3 1777 1562 2085
3 1707 252 1791
3 1932 1404 1933
3 459 438 1814
3 139 140 1618
3 1093 1156 1487
3 231 163 1658
3 699 722 723
3 1545 1095 2508
3 598 612 1794
3 579 554 1880
3 1941 1908 2401
3 1231 1232 1233
3 1831 1829 1841
3 1037 1383 1799
3 177 178 1506
3 636 600 637
3 1036 1539 2286
3 1356 1114 1357
3 1523 1516 2377
3 704 703 705
3 403 402 405
3 648 792 1848
3 723 756 808
3 1388 1389 2170
3 933 932 1770
3 223 1710 1711
3 1779 399 1783
3 1223 1222 1224
3 1028 1029 1313
3 257 161 1654
3 418 412 421
3 734 882 1807
3 693 657 1095
3 1368 1370 1436
3 136 137 1625
3 688 652 817
3 1075 1327 1328
3 540 479 1813
3 398 395 402
3 548 1629 1630
3 574 591 699
3 1469 1494 1495
3 1041 1598 2175
3 167 168 202
3 175 176 204
3 2045 2046 2201
3 186 187 1602
3 886 887 888
3 1253 1254 1259
3 8 9 1673
3 792 655 810
3 843 1145 1960
3 1180 1349 1745
3 1165 1345 1512
3 708 706 709
3 136 1625 1734
3 21 22 207
3 140 141 208
3 625 626 665
3 1093 1094 1156
3 1585 795 1834
3 1117 1713 1806
3 599 579 600
3 810 871 1826
3 1047 1046 1048
3 1292 1291 1293
3 161 162 1654
3 199 1676 1677
3 1260 1282 1804
3 1005 1142 1768
3 1233 1234 1235
3 792 810 922
3 1122 1719 1737
3 976 985 1720
3 1278 1279 2292
3 2390 1934 2531
3 1436 1437 2350
3 270 271 1647
3 1199 966 1846
3 1683 1342 2212
3 656 273 2124
3 699 591 722
3 1977 1139 2096
3 1738 1719 1881
3 1722 985 1874
3 1797 1448 1798
3 162 231 1654
3 632 604 1862
3 252 1602 1791
3 1051 1050 1052
3 1045 1023 1046
3 648 655 792
3 993 1100 1101
3 1321 1055 1322
3 806 709 1627
3 904 903 981
3 1220 1267 1268
3 648 605 655
3 1737 1719 1738
3 385 399 1779
3 506 499 1828
3 1132 266 1402
3 1170 1418 1419
3 1323 2302 2354
3 24 25 215
3 137 138 216
3 721 965 1919
3 1787 1414 2460
3 778 1117 1806
3 723 722 756
3 407 403 1805
3 564 574 1752
3 1049 1048 1050
3 842 841 875
3 1608 1546 1842
3 809 808 899
3 1517 1519 1520
3 1530 1532 1533
3 889 421 1772
3 913 1002 1122
3 1314 1316 1367
3 1017 877 1684
3 841 802 1778
3 1235 1236 1237
3 751 1857 1900
3 1114 924 1767
3 1344 1644 2360
3 1895 1394 2371
3 1518 1535 1861
3 1758 1759 1760
3 1122 1002 1719
3 546 563 1750
3 1056 1726 1727
3 663 660 1746
3 621 622 625
3 1720 985 1721
3 1857 1843 1900
3 808 756 913
3 1056 970 1726
3 27 28 230
3 134 135 229
3 908 906 1099
3 163 164 1658
3 1727 1726 1729
3 7 8 258
3 154 155 259
3 1101 1403 1404
3 808 913 1874
3 1260 1269 1282
3 1389 1387 2262
3 1297 1053 1822
3 1555 1553 1557
3 1463 1464 1465
3 230 28 1765
3 1237 1238 1239
3 554 553 1880
3 775 778 1806
3 985 899 1874
3 1270 1524 2199
3 489 1820 1936
3 692 1072 1794
3 1472 2142 2272
3 1845 496 1929
3 438 431 1814
3 613 615 1824
3 1241 1242 1245
3 1783 415 1915
3 1192 2081 2149
3 178 214 1506
3 1816 988 1817
3 1760 1759 1761
3 1103 1092 1623
3 1512 1345 1661
3 1876 921 2295
3 1165 984 1345
3 978 1074 1075
3 1239 1240 1241
3 542 541 553
3 813 988 1816
3 1148 984 1165
3 871 970 1056
3 472 452 1683
3 1207 1796 1870
3 1167 1166 1754
3 1296 1053 1297
3 966 964 1846
3 976 899 985
3 982 976 984
3 702 1815 2015
3 900 899 976
3 1143 995 1206
3 1576 1024 1827
3 1235 1248 1733
3 1558 1557 1560
3 943 995 1143
3 1920 1144 1943
3 1471 2115 2477
3 29 30 255
3 132 133 254
3 1630 1633 1634
3 1225 1224 1226
3 1925 1573 1926
3 1211 1205 1692
3 725 825 826
3 1113 924 1114
3 600 579 1988
3 717 1552 1567
3 1820 1657 1936
3 674 276 2099
3 395 393 1877
3 572 543 1897
3 1575 1308 2255
3 999 1000 1028
3 1118 1775 1876
3 1797 1798 2430
3 526 546 559
3 867 853 2186
3 1142 1771 1949
3 1068 1275 1442
3 679 385 1779
3 1607 1558 1789
3 580 568 1758
3 1244 1252 1253
3 1760 1761 1762
3 398 402 403
3 1476 1258 1478
3 418 421 889
3 1771 1147 1839
3 164 213 1658
3 1720 1721 2267
3 1668 1591 2512
3 1042 1128 1445
3 1098 1830 1833
3 1102 1092 1103
3 2249 884 2466
3 1104 1103 1434
3 410 416 1821
3 514 513 541
3 580 1758 1763
3 637 673 1741
3 1913 936 1914
3 1394 1395 2337
3 919 920 999
3 577 554 579
3 2111 1660 2263
3 231 1658 1659
3 612 613 644
3 568 543 572
3 770 775 1806
3 1445 1128 1446
3 1546 1548 1842
3 448 460 478
3 810 870 871
3 1789 1560 1819
3 1154 1082 1431
3 873 973 1802
3 379 385 679
3 837 850 921
3 1461 1462 1463
3 1346 1076 1420
3 1088 1344 1808
3 2125 1143 2353
3 931 977 978
3 882 772 1802
3 29 255 1765
3 849 1513 2180
3 1713 827 1806
3 1130 1396 1397
3 681 638 852
3 1417 1321 1873
3 1654 1402 2530
3 502 526 1740
3 1124 888 2177
3 1266 1460 1461
3 515 1175 1840
3 1253 1264 1669
3 479 466 1813
3 1727 1729 1757
3 379 380 385
3 1971 1480 2514
3 1637 1739 2459
3 1207 1205 1208
3 529 519 1899
3 1129 1845 1929
3 224 1661 2267
3 192 1856 2361
3 732 734 1807
3 1184 2163 2435
3 1119 1120 1353
3 415 414 431
3 719 724 725
3 559 546 1750
3 871 872 970
3 1038 917 1622
3 574 699 1752
3 166 167 1679
3 1117 1118 1119
3 1409 1196 2035
3 617 619 621
3 1172 1173 1439
3 1191 1005 1768
3 664 663 684
3 494 493 1841
3 890 529 1731
3 840 802 841
3 493 974 1841
3 385 386 399
3 679 1779 1780
3 371 376 379
3 416 433 1109
3 670 769 1815
3 902 866 903
3 1780 1779 1781
3 480 515 1840
3 970 971 1042
3 433 448 1714
3 28 29 1765
3 1005 949 1142
3 778 780 1117
3 959 1037 1799
3 1073 1003 1076
3 535 532 1898
3 1119 1118 1120
3 658 657 693
3 1378 1379 1380
3 1397 1396 1809
3 1610 1609 1612
3 1819 1560 2016
3 1837 952 1865
3 1719 1131 1881
3 1131 1399 1400
3 1352 1138 2058
3 399 406 409
3 548 1630 2041
3 1275 1338 2251
3 582 1816 1818
3 1835 1836 2144
3 993 1101 1980
3 1699 1698 1700
3 2407 364 2505
3 1189 1190 1788
3 1117 780 1118
3 1830 1829 1831
3 637 672 673
3 692 804 1072
3 1204 1203 1205
3 1374 1170 2139
3 612 692 1794
3 1642 1408 2286
3 723 808 809
3 450 459 1812
3 409 410 414
3 802 801 1778
3 1853 1854 2483
3 1042 1127 1128
3 1199 1846 2225
3 1147 990 1273
3 1383 1384 2432
3 432 431 438
3 1353 1120 1390
3 1093 1091 1094
3 2020 250 2254
3 148 149 1639
3 606 605 648
3 1970 2016 2422
3 2201 2046 2327
3 475 471 513
3 412 407 1951
3 1991 246 2139
3 727 695 728
3 1673 234 1788
3 1554 1556 1559
3 1089 663 1746
3 1846 964 2056
3 923 991 1088
3 409 406 410
3 729 728 730
3 1424 1427 1856
3 1473 1911 2407
3 1376 1377 1378
3 1010 1374 1510
3 853 852 854
3 366 369 1087
3 772 873 1802
3 1219 1218 1626
3 1766 229 2061
3 1088 991 1344
3 922 810 1826
3 518 506 695
3 405 402 2116
3 962 1664 2316
3 913 942 1002
3 932 990 1147
3 629 813 1816
3 876 877 992
3 399 386 406
3 932 845 990
3 1002 1123 1131
3 843 996 1145
3 781 837 1775
3 262 2304 2491
3 431 696 1814
3 1273 1695 1892
3 731 730 732
3 737 732 1807
3 439 438 450
3 1829 498 1841
3 800 685 801
3 767 814 815
3 1060 766 1656
3 673 766 767
3 1403 1605 1882
3 716 718 719
3 1338 1069 1339
3 847 752 1843
3 864 862 1116
3 2302 443 2519
3 923 827 991
3 526 559 1740
3 1911 1473 2358
3 1085 1310 1867
3 809 899 900
3 1227 1226 1228
3 729 730 731
3 1436 1370 1437
3 731 732 737
3 769 827 923
3 456 452 471
3 1433 1503 2471
3 1435 1103 1623
3 385 380 386
3 1141 1787 2460
3 1354 1088 1808
3 657 649 1848
3 415 431 432
3 484 892 1820
3 727 728 729
3 855 854 1450
3 1721 1722 1723
3 1643 1353 1644
3 1145 1916 1960
3 1421 1191 1422
3 466 1812 1813
3 943 944 995
3 1356 1357 1376
3 714 715 716
3 1156 1094 1157
3 598 611 612
3 631 1600 2298
3 590 589 605
3 965 969 1919
3 416 1109 1821
3 242 1697 2335
3 1548 1547 1549
3 550 573 584
3 584 604 632
3 409 414 415
3 712 713 714
3 642 670 702
3 818 698 819
3 1006 1005 1191
3 1624 1689 1691
3 169 170 237
3 173 174 238
3 956 912 1003
3 937 936 1913
3 1317 1025 1875
3 515 540 550
3 973 1799 1800
3 973 959 1799
3 518 695 727
3 910 819 912
3 584 573 604
3 1170 946 1418
3 173 238 1847
3 550 540 573
3 982 984 1148
3 900 976 982
3 441 435 452
3 448 478 1714
3 1849 1648 2173
3 1631 1628 1637
3 1830 1831 1832
3 1383 1216 1384
3 734 772 882
3 949 933 1770
3 1332 1330 1333
3 574 575 591
3 1105 1088 1354
3 702 670 1815
3 498 494 1841
3 827 770 1806
3 873 959 973
3 1390 1391 1415
3 450 438 459
3 950 949 1005
3 351 362 364
3 1313 1029 1314
3 432 438 439
3 837 838 850
3 1273 1274 1695
3 850 851 943
3 911 952 1837
3 1259 1260 1804
3 566 587 588
3 1037 1216 1383
3 1337 1265 1538
3 1087 369 1795
3 810 655 870
3 1559 1561 1566
3 1147 1273 1839
3 732 733 734
3 1662 867 2126
3 890 1731 2241
3 1854 1852 2397
3 515 479 540
3 451 450 466
3 697 666 698
3 1367 1316 1368
3 662 660 663
3 365 355 694
3 1358 1114 1767
3 379 376 380
3 1796 1448 1797
3 179 180 1859
3 790 668 849
3 569 568 580
3 690 860 931
3 466 450 1812
3 431 414 696
3 1973 1133 1974
3 651 649 657
3 467 466 479
3 1288 1289 1835
3 264 265 1986
3 1302 1303 1304
3 592 596 597
3 1873 1321 2037
3 544 543 568
3 275 277 549
3 209 1937 2389
3 539 565 566
3 1485 227 1486
3 2384 2190 2408
3 1781 1779 1783
3 480 479 515
3 689 1416 2413
3 1108 1161 1539
3 1867 1310 1895
3 1300 1301 1302
3 1695 1696 1697
3 633 632 668
3 1304 1451 1452
3 988 911 1837
3 168 169 1724
3 969 1012 1172
3 582 629 1816
3 1843 752 1900
3 629 812 813
3 710 711 712
3 1782 1780 1784
3 536 535 543
3 1089 1746 1969
3 1108 1107 1161
3 1514 1426 1856
3 486 484 1820
3 369 371 1795
3 1817 988 1924
3 493 609 974
3 1422 1191 2023
3 1426 1424 1856
3 842 875 924
3 922 1826 2259
3 989 1361 1886
3 928 1070 1288
3 669 668 790
3 1113 1114 1356
3 1027 847 1843
3 728 695 1098
3 734 735 772
3 975 1107 1108
3 955 859 1962
3 813 911 988
3 1208 1448 1796
3 1101 1405 1980
3 602 676 2045
3 586 581 589
3 546 547 563
3 493 491 609
3 628 1524 2390
3 348 344 354
3 1298 1299 1300
3 509 538 539
3 974 609 975
3 813 891 911
3 871 870 872
3 1355 1354 1423
3 489 486 1820
3 778 779 780
3 1025 1176 1875
3 772 773 873
3 803 1743 2347
3 167 202 1679
3 873 883 959
3 1483 1571 2375
3 427 1756 2221
3 540 1813 1954
3 1202 1200 1203
3 959 1035 1037
3 837 921 1775
3 1304 1305 1451
3 1799 1383 2195
3 604 642 1862
3 1470 1744 2474
3 1854 2397 2453
3 1282 1269 1386
3 1573 1572 2157
3 472 2222 2290
3 1307 1708 2341
3 769 770 827
3 1037 1215 1216
3 791 790 856
3 1053 1052 1822
3 1056 1727 1728
3 1341 1138 1352
3 1300 1299 1301
3 1814 696 1838
3 1198 1196 1409
3 492 491 493
3 439 450 451
3 1171 858 2132
3 1259 1254 1260
3 665 626 666
3 970 872 971
3 258 1602 2357
3 1296 1297 1472
3 490 489 491
3 516 437 2494
3 1298 1027 1299
3 846 845 932
3 501 508 509
3 460 461 502
3 448 449 460
3 482 480 1840
3 1229 1228 1230
3 604 641 642
3 1424 1423 1427
3 502 503 526
3 1028 1000 1029
3 935 933 949
3 1084 1085 1867
3 2028 1711 2353
3 1513 1426 1514
3 892 482 1840
3 852 638 1988
3 402 395 1877
3 738 737 845
3 413 412 418
3 1119 1353 1643
3 526 527 546
3 280 279 281
3 1731 1155 2123
3 1042 971 1127
3 1208 1447 1448
3 433 434 448
3 262 159 2304
3 184 1454 2303
3 1051 1052 1053
3 1816 1817 1818
3 1081 1417 1444
3 781 836 837
3 911 951 952
3 1090 1092 1102
3 202 168 1724
3 1085 1309 1310
3 408 407 412
3 1337 1538 1864
3 1515 1514 1516
3 530 529 890
3 1517 1518 1519
3 549 686 687
3 923 1088 1105
3 404 403 407
3 1835 1289 1836
3 1314 1367 2121
3 1380 1379 2416
3 670 671 769
3 899 808 1874
3 1040 903 1703
3 1596 1595 2154
3 1496 1495 1497
3 636 637 1741
3 1377 1638 2288
3 1288 1070 1289
3 1072 804 1981
3 1129 1334 1845
3 1865 1084 1866
3 792 922 1603
3 1253 1252 1254
3 981 1167 1792
3 1302 1301 1303
3 1641 1651 2019
3 952 953 1084
3 1813 1812 1869
3 732 730 733
3 975 1106 1107
3 1142 949 1770
3 981 1166 1167
3 840 841 842
3 451 466 467
3 1273 990 1274
3 1049 1050 1051
3 1473 2407 2505
3 968 966 1199
3 642 643 670
3 1310 1309 1311
3 422 419 435
3 1063 833 1082
3 919 782 920
3 911 891 951
3 1084 953 1085
3 1763 1764 2164
3 1498 1497 1682
3 515 550 1175
3 1079 937 1913
3 642 702 1862
3 845 737 1931
3 1394 1311 1395
3 1395 1521 1522
3 467 479 480
3 1755 1754 1793
3 1231 1230 1232
3 1557 1553 2030
3 1624 1691 2262
3 584 632 633
3 1094 1091 1969
3 708 709 710
3 1948 1627 2488
3 952 951 953
3 1102 1103 1104
3 1047 1048 1049
3 1310 1311 1394
3 1852 1099 1985
3 143 144 1717
3 813 812 891
3 1944 1044 1945
3 1105 1354 1355
3 1300 1302 1455
3 1914 936 1940
3 1415 1391 1710
3 1299 1027 1843
3 952 1084 1865
3 1695 1274 1696
3 776 774 1928
3 282 281 283
3 2003 1347 2279
3 1206 995 1499
3 1164 1685 1686
3 1551 1565 2030
3 969 1172 1919
3 633 668 669
3 734 733 735
3 1373 1372 1438
3 599 600 636
3 1431 1860 2487
3 1579 1577 1999
3 484 482 892
3 917 940 941
3 2144 1836 2169
3 1866 1084 1867
3 1110 1747 1748
3 998 1171 1811
3 1390 1120 1391
3 644 1824 2057
3 1362 1961 2048
3 944 1283 1825
3 1086 1027 1298
3 679 1780 1782
3 974 975 1879
3 507 506 518
3 1121 1079 1401
3 775 777 778
3 1965 762 2349
3 1045 1046 1047
3 1772 421 2106
3 16 17 2081
3 416 417 433
3 921 850 2125
3 1607 1855 1958
3 649 648 1848
3 1241 1240 1242
3 2012 1443 2251
3 926 928 1920
3 1487 1488 2025
3 1006 1191 1421
3 1355 1423 1424
3 1133 852 1988
3 591 592 1776
3 1299 1843 1857
3 1085 1308 1309
3 490 491 492
3 958 694 1575
3 1384 1216 1385
3 741 915 1878
3 1233 1232 1234
3 669 790 791
3 481 480 482
3 687 703 704
3 492 493 494
3 1634 1633 1922
3 1697 1696 1698
3 1721 985 1722
3 1839 1273 1892
3 772 735 773
3 488 486 489
3 950 1005 1006
3 1513 1514 1515
3 454 500 501
3 873 773 883
3 284 283 285
3 2185 1505 2442
3 959 883 1035
3 543 535 1897
3 1904 1384 2093
3 800 801 802
3 1037 1035 1215
3 1293 1964 1965
3 1239 1238 1240
3 943 1143 2125
3 1782 1784 1785
3 913 756 942
3 488 490 1884
3 1590 1749 2501
3 1235 1234 1236
3 791 856 1408
3 702 2015 2070
3 1108 1539 1540
3 1021 1023 1045
3 695 506 1828
3 1530 1528 1532
3 488 489 490
3 1621 1619 2161
3 704 705 706
3 1304 1303 1305
3 558 1704 2167
3 625 622 626
3 542 553 554
3 604 573 641
3 664 684 685
3 564 571 574
3 1108 1540 1879
3 1856 1427 2361
3 880 1025 1129
3 1395 1311 1521
3 1466 1465 1467
3 915 495 1884
3 1515 1516 1523
3 1237 1236 1238
3 606 648 649
3 999 920 1000
3 676 829 1043
3 2100 794 2142
3 227 151 1500
3 577 579 599
3 153 154 1671
3 1175 550 1927
3 1014 888 1015
3 286 285 287
3 1649 1280 2427
3 1725 204 2137
3 975 609 1106
3 1129 1317 1334
3 1109 1730 2426
3 1468 1467 1469
3 1131 1123 1399
3 1215 2235 2378
3 1976 1149 1989
3 397 395 398
3 746 743 1878
3 1041 1343 1598
3 975 1108 1879
3 741 495 915
3 1167 1754 1755
3 288 287 289
3 743 741 1878
3 1274 990 1931
3 1506 214 1507
3 857 1584 2277
3 2341 1522 2387
3 846 932 933
3 1107 1106 1110
3 584 633 1927
3 290 289 291
3 722 591 1776
3 1544 1094 1969
3 1135 270 1647
3 935 949 950
3 1920 1288 2080
3 754 1896 2108
3 1693 1199 2225
3 292 291 293
3 394 393 395
3 745 743 746
3 1002 942 1123
3 731 737 738
3 294 293 295
3 1018 1573 1925
3 296 295 297
3 298 297 299
3 321 322 325
3 317 320 321
3 314 315 317
3 312 313 314
3 310 311 312
3 308 309 310
3 1898 890 2275
3 306 307 308
3 304 305 306
3 1401 1079 1913
3 300 299 301
3 302 303 304
3 300 301 302
3 302 301 303
3 491 489 1936
3 298 299 300
3 304 303 305
3 306 305 307
3 308 307 309
3 310 309 311
3 312 311 313
3 314 313 315
3 317 315 320
3 321 320 322
3 1301 1299 1857
3 514 541 542
3 296 297 298
3 850 838 851
3 1310 1394 1895
3 294 295 296
3 590 605 606
3 292 293 294
3 651 657 658
3 290 291 292
3 1207 1208 1796
3 835 1976 1989
3 621 619 622
3 746 1878 1896
3 481 482 483
3 1026 847 1027
3 1335 1207 1870
3 1661 59 2266
3 727 729 1155
3 288 289 290
3 1058 776 1928
3 662 663 664
3 495 488 1884
3 1959 319 2522
3 943 851 944
3 1293 1291 1964
3 534 532 535
3 640 645 646
3 2280 1014 2385
3 286 287 288
3 591 575 592
3 521 519 529
3 13 14 2114
3 780 779 781
3 918 908 1850
3 837 836 838
3 209 148 1639
3 754 748 1896
3 745 746 747
3 769 671 770
3 929 1065 2197
3 1278 1058 1279
3 483 482 484
3 1564 1557 2030
3 633 807 1927
3 392 391 393
3 1057 1621 2161
3 569 580 581
3 284 285 286
3 876 992 1894
3 497 494 498
3 1630 1635 2041
3 982 1148 1918
3 612 611 613
3 700 634 1044
3 822 674 2099
3 880 1129 1929
3 432 439 654
3 1039 1291 1292
3 1164 1686 1989
3 1129 1025 1317
3 738 845 846
3 582 583 629
3 278 6 279
3 544 568 569
3 1701 1274 1931
3 747 749 751
3 1085 953 1308
3 928 930 1070
3 747 748 749
3 1421 1422 2415
3 902 903 904
3 1309 1308 1543
3 642 641 643
3 904 981 1792
3 646 784 785
3 536 543 544
3 1204 1205 1207
3 365 694 958
3 71 72 217
3 88 89 1901
3 87 88 193
3 101 102 189
3 85 86 242
3 99 100 241
3 74 75 192
3 91 92 219
3 94 95 191
3 83 84 220
3 97 98 221
3 77 78 218
3 80 81 194
3 89 90 245
3 62 63 244
3 60 61 188
3 64 65 223
3 67 68 190
3 90 91 1909
3 98 99 1905
3 61 62 1908
3 69 70 243
3 68 69 1907
3 70 71 1910
3 410 411 416
3 586 589 590
3 685 684 2029
3 390 389 391
3 1715 1150 1811
3 1924 1837 2215
3 282 283 284
3 496 497 1929
3 233 1671 1769
3 627 2185 2442
3 1567 1552 2062
3 629 630 812
3 424 453 454
3 583 562 1942
3 749 750 805
3 744 743 745
3 1897 535 1898
3 467 480 481
3 504 759 880
3 670 643 671
3 89 245 1901
3 193 88 1901
3 221 98 1905
3 245 90 1909
3 91 219 1909
3 62 244 1908
3 188 61 1908
3 99 241 1905
3 190 68 1907
3 71 217 1910
3 69 243 1907
3 243 70 1910
3 505 499 506
3 475 513 514
3 1945 1044 2071
3 1712 2125 2353
3 339 343 440
3 989 1360 1361
3 764 869 1152
3 778 777 779
3 1686 1685 1687
3 742 741 743
3 979 989 1886
3 729 731 1887
3 926 927 928
3 1305 1306 1307
3 1838 1278 2292
3 747 746 748
3 181 182 1652
3 1886 1361 2305
3 1595 1594 2486
3 597 596 598
3 928 1288 1920
3 1970 824 2156
3 1425 1424 1426
3 497 504 1929
3 748 746 1896
3 745 747 1900
3 998 858 1171
3 563 547 564
3 1155 729 1887
3 634 583 1942
3 1439 1173 1440
3 1026 1027 1086
3 79 80 1904
3 1533 1532 1536
3 1449 1426 1513
3 1106 609 1936
3 1318 1013 1319
3 1098 695 1828
3 492 494 496
3 750 748 754
3 731 738 1887
3 2415 1422 2516
3 533 562 582
3 988 1837 1924
3 1216 1215 1863
3 534 535 536
3 747 751 1900
3 1753 809 2119
3 1183 824 1970
3 740 495 741
3 80 194 1904
3 893 383 2087
3 655 605 1939
3 1884 2034 2082
3 1301 1857 1923
3 1307 1306 1708
3 752 745 1900
3 750 754 755
3 76 77 1903
3 2090 2347 2365
3 255 30 2159
3 132 254 2160
3 448 434 449
3 753 848 926
3 1075 1074 1327
3 487 488 495
3 377 381 647
3 483 484 485
3 755 754 2148
3 1584 1925 2277
3 1186 1183 1970
3 951 891 1281
3 485 484 486
3 546 527 547
3 133 134 1766
3 1786 1785 2409
3 280 281 282
3 460 449 461
3 744 745 752
3 77 218 1903
3 983 1918 2342
3 1708 1306 1810
3 1389 2069 2170
3 487 486 488
3 641 573 1954
3 507 518 519
3 502 461 503
3 519 518 1899
3 1202 1203 1204
3 821 897 1972
3 92 93 1902
3 521 529 530
3 749 748 750
3 2176 1380 2416
3 885 826 886
3 485 486 487
3 371 372 376
3 1289 1070 1871
3 1110 1657 1747
3 753 926 1943
3 700 1044 1944
3 880 881 1025
3 496 1845 2034
3 1072 1981 2393
3 462 464 2134
3 1949 1771 2359
3 1044 634 1942
3 550 584 1927
3 1390 1415 2118
3 526 503 527
3 990 845 1931
3 1009 1213 1214
3 740 742 1144
3 219 92 1902
3 727 1155 1899
3 369 370 371
3 623 690 2150
3 1279 1058 1928
3 1408 2235 2286
3 487 495 740
3 979 1886 2086
3 1305 1303 1306
3 421 412 1951
3 843 844 996
3 633 669 807
3 518 727 1899
3 826 825 1961
3 1657 1106 1936
3 1172 1012 1173
3 740 741 742
3 433 417 434
3 505 506 507
3 1333 1674 2437
3 742 743 744
3 469 458 470
3 1381 1380 1382
3 1293 1965 2515
3 1554 1559 2062
3 553 557 2499
3 1774 389 2339
3 497 498 499
3 483 485 576
3 740 1144 1935
3 773 735 834
3 366 367 369
3 1120 1118 1876
3 1515 1523 1574
3 1319 1013 2039
3 1303 1301 1923
3 457 447 458
3 561 593 594
3 1355 1424 1425
3 609 491 1936
3 204 1732 2137
3 791 1408 1642
3 995 944 1825
3 456 471 475
3 1692 1693 2239
3 580 1763 2164
3 1292 1293 2117
3 441 452 456
3 388 384 389
3 823 821 1972
3 504 880 1929
3 176 177 1680
3 1070 1071 1871
3 15 2260 2477
3 362 363 366
3 2178 2300 2449
3 1035 883 1036
3 2285 1563 2307
3 978 977 1074
3 1090 1102 2029
3 1810 1306 1923
3 496 494 497
3 1306 1303 1923
3 432 654 1915
3 934 933 935
3 356 355 365
3 398 403 404
3 635 701 843
3 1110 1106 1657
3 574 571 575
3 1025 881 1176
3 386 380 786
3 415 432 1915
3 343 347 1911
3 1070 930 1071
3 1688 1740 2231
3 1385 1216 1863
3 1696 1274 1701
3 1645 305 2317
3 880 759 881
3 926 848 927
3 1427 1423 2217
3 1339 1662 2388
3 770 774 775
3 1263 1257 1428
3 1337 1864 2412
3 349 348 355
3 2267 1721 2498
3 753 752 847
3 1375 1086 1473
3 900 982 983
3 332 335 739
3 429 428 430
3 744 752 753
3 1171 2132 2165
3 1425 1426 1449
3 987 641 1954
3 1883 1786 2409
3 427 426 428
3 928 927 930
3 1815 1105 2015
3 1206 1499 1941
3 410 406 411
3 573 540 1954
3 497 499 504
3 528 560 561
3 1933 1404 2399
3 1091 1089 1969
3 1804 1282 2073
3 504 505 759
3 963 924 1113
3 1711 1710 1712
3 881 759 1146
3 968 1199 1200
3 351 352 362
3 848 847 1026
3 521 530 531
3 1884 490 2034
3 1277 957 1966
3 1349 1350 2329
3 676 1043 2045
3 997 1159 1286
3 517 1889 1890
3 781 835 836
3 944 948 1283
3 722 1776 2026
3 507 519 520
3 2040 1352 2058
3 1276 957 1277
3 446 437 447
3 931 860 977
3 361 359 765
3 1248 1536 2534
3 512 523 528
3 408 412 413
3 1368 1369 1370
3 451 2169 2223
3 192 75 1994
3 942 756 2026
3 345 344 348
3 764 1152 1963
3 413 418 419
3 1286 1773 1774
3 770 671 774
3 275 549 2124
3 1497 1645 2461
3 1982 1472 2272
3 422 435 441
3 281 279 736
3 1134 270 1135
3 582 562 583
3 1421 2415 2454
3 485 487 1935
3 2300 1067 2480
3 1578 1576 1827
3 930 927 1061
3 1026 1086 1375
3 922 2259 2379
3 1391 1120 1876
3 1495 1494 2493
3 404 407 408
3 879 2178 2449
3 1700 1698 2036
3 607 1517 1520
3 753 847 848
3 416 411 417
3 1144 742 1943
3 775 776 777
3 754 2108 2148
3 1006 1421 1953
3 585 581 586
3 531 530 532
3 235 1709 1888
3 520 519 521
3 1180 1181 1349
3 1146 759 1967
3 708 710 1921
3 1350 2253 2329
3 436 430 437
3 504 499 505
3 643 641 987
3 336 330 517
3 811 1059 1149
3 1164 1411 1685
3 846 933 934
3 635 843 1960
3 983 982 1918
3 971 872 1096
3 1149 1163 1164
3 169 237 1724
3 1314 1315 1316
3 629 583 630
3 891 812 1916
3 462 463 464
3 487 740 1935
3 798 2084 2189
3 1814 1838 2292
3 1284 1489 1491
3 340 336 2014
3 1670 1461 2200
3 920 782 2057
3 890 2241 2275
3 510 511 512
3 278 279 280
3 839 802 840
3 1858 235 1888
3 1698 1696 2036
3 104 105 222
3 57 58 224
3 1185 1183 1186
3 588 587 623
3 638 600 1988
3 1282 1386 2245
3 811 776 1058
3 816 815 876
3 2034 1845 2082
3 761 636 1741
3 566 565 587
3 174 175 1725
3 347 350 351
3 1469 1495 1496
3 1059 1058 1278
3 811 1149 1976
3 576 485 1935
3 659 658 660
3 859 1153 1962
3 76 1903 1994
3 1821 1109 2426
3 1294 1038 1622
3 733 1833 2075
3 992 993 1980
3 1566 1561 2285
3 525 474 2041
3 464 465 510
3 343 346 347
3 360 893 1982
3 650 649 651
3 896 608 936
3 950 1006 1007
3 1508 1859 1860
3 539 538 565
3 440 343 1911
3 341 340 344
3 221 1905 1906
3 1297 1823 2142
3 759 505 1967
3 1295 1053 1296
3 473 470 474
3 1463 1465 1466
3 1143 1206 2028
3 799 685 800
3 1210 2077 2203
3 509 508 538
3 492 496 2034
3 1553 1551 2030
3 1260 1261 1269
3 1430 1040 1703
3 586 590 1940
3 838 836 868
3 1705 624 2276
3 1749 972 2501
3 742 744 1943
3 804 962 1981
3 1367 1368 2254
3 531 532 533
3 337 336 340
3 1157 1094 1544
3 536 544 1158
3 812 630 1960
3 781 779 835
3 56 57 1947
3 630 583 634
3 1405 1404 1932
3 1281 891 1916
3 339 342 343
3 1411 1163 1730
3 322 323 324
3 344 340 2091
3 1735 1734 1736
3 75 76 1994
3 430 682 2494
3 1907 243 2360
3 589 581 2164
3 694 355 2196
3 744 753 1943
3 775 774 776
3 1210 1430 2077
3 335 338 339
3 1102 1803 2029
3 1078 937 1079
3 870 655 1939
3 505 507 1967
3 357 360 1982
3 1896 1878 2101
3 326 325 328
3 934 935 957
3 585 608 895
3 333 330 336
3 1270 1272 1524
3 688 817 878
3 507 520 1967
3 1428 1257 2074
3 1818 1817 2000
3 896 937 1077
3 934 957 1111
3 329 328 330
3 1499 995 1825
3 944 851 948
3 387 445 462
3 1678 1161 2228
3 777 776 811
3 313 311 757
3 324 331 332
3 848 1026 1955
3 1312 998 1811
3 1321 1322 2037
3 1080 1079 1121
3 1105 1355 2015
3 1645 2317 2461
3 1559 1568 2062
3 332 334 335
3 501 500 508
3 321 325 326
3 394 395 397
3 322 320 323
3 1529 1530 2171
3 1137 797 1138
3 811 1058 1059
3 661 660 662
3 569 581 585
3 183 4 2303
3 5 160 2304
3 1340 1138 1341
3 1660 1626 2185
3 1743 1464 2347
3 1026 1375 1955
3 1149 1059 1163
3 1736 1625 2194
3 1322 1667 2434
3 311 309 1959
3 309 307 319
3 894 700 1944
3 533 534 562
3 1276 1277 1366
3 2190 1706 2408
3 533 532 534
3 1214 1213 1410
3 1164 1163 1411
3 843 701 844
3 1009 1214 2055
3 234 1589 1788
3 2000 1817 2174
3 317 321 2050
3 328 325 945
3 392 393 394
3 588 623 2089
3 1162 958 1681
3 1078 1080 1136
3 927 848 1955
3 1496 1497 1498
3 390 391 392
3 1061 927 1955
3 1283 948 1284
3 635 634 700
3 1244 1251 1252
3 218 78 2093
3 756 722 2026
3 1071 1784 2419
3 1218 1505 2185
3 1284 948 1285
3 1489 1285 1490
3 918 1850 1851
3 684 1090 2029
3 1759 572 2537
3 1691 1690 2446
3 1979 1158 2071
3 606 649 650
3 2045 1043 2046
3 103 104 2025
3 630 634 635
3 360 383 893
3 406 386 2043
3 1909 219 2023
3 1111 957 1276
3 1925 1437 2277
3 1536 2268 2340
3 854 852 1133
3 233 153 1671
3 651 658 659
3 2099 1787 2368
3 1033 1032 1130
3 1015 1372 1373
3 1412 942 2026
3 253 264 1441
3 1531 1534 2332
3 701 700 894
3 106 107 1990
3 2048 1961 2455
3 276 274 2099
3 738 846 1968
3 1325 925 1326
3 896 936 937
3 585 586 608
3 1450 854 1973
3 1361 1360 1362
3 1045 1668 2512
3 303 301 444
3 996 844 997
3 79 1904 2093
3 1989 1686 2095
3 1928 774 2033
3 1942 562 1979
3 287 285 316
3 935 950 1966
3 1466 1467 1468
3 1242 1243 1244
3 1887 738 1968
3 2115 210 2477
3 878 929 1083
3 1326 1736 2194
3 886 888 1014
3 895 608 896
3 289 287 1978
3 821 822 897
3 936 608 1940
3 613 614 615
3 51 52 1996
3 417 411 1160
3 1149 1164 1989
3 386 786 2043
3 285 283 1971
3 1309 1543 2147
3 375 373 2053
3 371 370 372
3 779 777 1976
3 1286 1159 1773
3 2177 887 2376
3 1560 1557 1564
3 1403 1882 2399
3 1727 1757 2246
3 279 6 2049
3 1619 1438 2438
3 291 289 758
3 1781 1915 2294
3 425 401 426
3 349 355 356
3 66 67 2118
3 474 548 2041
3 1686 1687 2007
3 1262 1456 1457
3 1123 942 1412
3 1916 812 1960
3 1355 1425 2015
3 735 733 2075
3 1861 879 2449
3 1284 1285 1489
3 490 492 2034
3 366 363 367
3 980 578 2051
3 906 904 1792
3 534 536 1979
3 842 924 963
3 2051 578 2083
3 1077 937 1078
3 1102 1104 1803
3 894 1944 1946
3 398 404 2060
3 1007 1006 1953
3 369 367 370
3 348 354 2196
3 1078 1079 1080
3 1378 1380 1381
3 1568 1365 2439
3 608 586 1940
3 598 610 611
3 760 636 761
3 869 1137 1351
3 671 643 2033
3 1661 1345 2267
3 938 914 1057
3 783 761 914
3 576 1835 2144
3 388 389 390
3 297 295 318
3 454 453 500
3 1906 1728 2246
3 1439 1440 2468
3 1159 1013 1318
3 764 797 869
3 236 143 1717
3 782 644 2057
3 592 595 596
3 1542 2332 2443
3 1521 1311 2147
3 345 348 349
3 1304 1452 2205
3 1644 1907 2360
3 2146 1125 2149
3 997 844 1013
3 628 375 2053
3 299 297 1984
3 957 935 1966
3 664 685 799
3 301 299 1975
3 362 352 363
3 777 811 1976
3 1942 1979 2071
3 1001 920 2057
3 312 314 768
3 1552 1554 2062
3 615 616 617
3 357 1982 2076
3 800 802 839
3 774 671 2033
3 1749 1169 2105
3 365 958 1162
3 617 618 619
3 283 281 1938
3 1351 1772 2414
3 1525 1765 2489
3 846 934 1968
3 635 700 701
3 555 554 577
3 536 1158 1979
3 1101 1404 1405
3 630 635 1960
3 1811 1150 2089
3 2113 1666 2249
3 172 173 1847
3 107 108 195
3 54 55 196
3 1191 1768 2023
3 1455 1302 2205
3 115 116 2017
3 1387 1333 2437
3 659 661 764
3 1080 1121 1188
3 50 51 2011
3 411 406 2043
3 295 293 1983
3 643 987 2033
3 707 706 708
3 129 130 261
3 32 33 260
3 2159 260 2265
3 449 434 567
3 1314 1029 1315
3 917 796 940
3 378 375 628
3 108 109 1991
3 2370 1759 2537
3 341 344 345
3 997 1013 1159
3 544 569 1993
3 950 1007 1966
3 477 474 525
3 351 350 352
3 1696 1701 2036
3 334 331 803
3 1137 1138 1340
3 562 534 1979
3 109 110 246
3 52 53 247
3 1368 1316 1369
3 659 660 661
3 33 34 2002
3 123 124 2005
3 835 779 1976
3 851 838 1992
3 1530 1533 2172
3 1668 1045 2348
3 1162 1681 1706
3 342 338 468
3 298 300 358
3 765 359 2065
3 725 826 885
3 35 36 2003
3 46 47 2019
3 38 39 2006
3 336 517 2014
3 934 1111 1968
3 116 117 2018
3 650 651 1963
3 223 1711 2162
3 640 594 645
3 1333 1330 2192
3 104 222 2025
3 1603 922 2379
3 963 1113 1115
3 2084 1193 2189
3 564 570 571
3 36 37 2004
3 57 224 1947
3 1542 1601 2269
3 122 123 2012
3 1000 920 1001
3 127 128 240
3 34 35 239
3 383 387 2087
3 1161 1107 2228
3 1781 2294 2419
3 1201 1200 1202
3 124 125 225
3 37 38 226
3 1340 1341 1342
3 869 797 1137
3 839 840 1008
3 1158 544 1993
3 1326 925 1894
3 352 350 353
3 326 329 954
3 1864 2344 2412
3 836 835 2095
3 1051 1053 1295
3 1031 720 1032
3 503 461 787
3 1407 1112 2044
3 661 662 2058
3 838 868 1992
3 112 113 197
3 49 50 198
3 1359 980 1413
3 121 122 211
3 40 41 212
3 48 49 2010
3 113 114 2009
3 1741 673 2131
3 41 42 2020
3 120 121 2013
3 1409 2035 2097
3 1511 1374 2506
3 114 115 248
3 47 48 249
3 42 43 250
3 119 120 251
3 171 6 201
3 6 172 203
3 585 895 1993
3 43 44 2024
3 118 119 2021
3 905 904 906
3 764 661 797
3 337 340 341
3 1413 980 2051
3 117 118 205
3 44 45 206
3 347 346 350
3 1420 1076 1525
3 324 323 331
3 434 417 2031
3 965 967 969
3 716 719 788
3 1260 1254 1261
3 2053 373 2103
3 2069 2068 2170
3 326 328 329
3 1706 996 2408
3 273 275 2124
3 969 1011 1012
3 590 606 2001
3 1718 1611 2280
3 1914 1940 2001
3 915 1884 2082
3 329 330 333
3 620 859 955
3 2168 1409 2305
3 296 298 1997
3 915 2082 2101
3 339 338 342
3 1218 994 1505
3 333 336 337
3 266 263 1742
3 1873 768 2127
3 244 63 2162
3 64 223 2162
3 343 342 346
3 914 761 2258
3 310 312 1987
3 799 800 2055
3 302 304 763
3 1559 1566 1568
3 1598 1343 2114
3 592 575 595
3 341 345 794
3 189 1842 2220
3 767 815 816
3 1003 912 1004
3 839 1008 1009
3 1263 1428 1429
3 564 547 570
3 1845 1334 2082
3 332 331 334
3 901 866 902
3 651 659 1963
3 1009 1112 1213
3 335 334 338
3 569 585 1993
3 1665 1336 2299
3 1945 2071 2153
3 863 862 864
3 907 906 908
3 1849 1486 1930
3 1935 1144 2080
3 967 966 968
3 809 900 2119
3 865 864 866
3 835 1989 2095
3 190 1907 2417
3 333 337 522
3 1110 1748 2228
3 1193 1194 1195
3 94 191 2166
3 473 1854 2453
3 1769 1134 2369
3 948 851 1992
3 237 170 2216
3 420 419 422
3 1448 1447 2364
3 483 576 2144
3 721 1919 2032
3 885 886 1891
3 613 611 614
3 886 1014 1891
3 1160 411 2043
3 1918 1283 2342
3 1651 206 2485
3 1242 1240 1243
3 598 596 610
3 1295 1296 1459
3 1185 1186 1948
3 1425 1449 2070
3 294 296 762
3 1285 948 1992
3 925 876 1894
3 712 714 789
3 603 1668 2398
3 1940 590 2001
3 721 570 964
3 834 735 2075
3 1144 1920 2080
3 2263 1635 2511
3 1204 1207 1335
3 2235 1408 2378
3 965 964 966
3 1990 1435 2218
3 397 398 2060
3 1138 797 2058
3 1787 1141 2368
3 2068 820 2170
3 360 359 361
3 387 462 2087
3 1524 1272 1934
3 819 698 820
3 1197 1196 1198
3 1662 2126 2388
3 78 79 2093
3 1150 588 2089
3 1269 1261 1270
3 1878 915 2101
3 451 467 2169
3 2262 1387 2437
3 1009 1008 1112
3 757 311 1959
3 897 898 1139
3 1854 473 2483
3 2015 1425 2070
3 2082 1334 2101
3 963 1115 1174
3 1047 1049 1287
3 1194 423 1196
3 321 326 2050
3 417 1160 2031
3 854 1133 1973
3 1201 1212 1348
3 705 1586 2163
3 309 319 1959
3 1353 1390 2417
3 427 428 429
3 357 356 359
3 606 650 2001
3 549 1280 2124
3 1213 1112 1407
3 256 2303 2535
3 356 365 2065
3 662 664 2040
3 701 894 2039
3 1325 1371 2451
3 666 626 667
3 1902 93 2166
3 1236 1234 1246
3 800 839 2055
3 1869 1812 2252
3 1197 1364 1365
3 576 1935 2080
3 404 408 798
3 1678 807 2529
3 1560 1564 2016
3 1319 2039 2122
3 425 426 427
3 349 356 357
3 308 310 327
3 1716 622 2484
3 1801 82 2289
3 1768 1949 2420
3 2006 1926 2507
3 351 364 2407
3 420 423 1193
3 659 764 1963
3 292 294 2038
3 840 842 2027
3 736 279 2049
3 372 373 374
3 461 449 2052
3 2189 1195 2285
3 1174 1115 1398
3 367 363 961
3 909 908 918
3 1738 247 2402
3 1007 1761 2308
3 288 290 2135
3 422 441 2035
3 623 624 690
3 537 525 545
3 1953 1421 2454
3 1887 1968 2123
3 861 691 862
3 654 439 2223
3 1136 1080 2054
3 1312 1811 2089
3 575 571 2032
3 383 361 384
3 968 1200 1201
3 797 661 2058
3 1423 1354 2381
3 1180 1178 1181
3 1513 1515 2180
3 72 73 2217
3 462 445 463
3 12 13 2136
3 457 458 469
3 542 554 555
3 599 636 760
3 254 133 1766
3 1130 1397 1937
3 404 798 2060
3 1044 1942 2071
3 690 691 860
3 357 359 360
3 1008 2027 2152
3 1232 1230 1255
3 372 370 373
3 850 943 2125
3 1457 1456 1492
3 1952 324 2282
3 155 2 2356
3 0 7 2357
3 2017 1379 2288
3 918 1851 2008
3 195 1991 2517
3 2090 803 2347
3 1244 1243 1251
3 290 292 368
3 1432 1082 2214
3 1008 840 2027
3 1743 803 2296
3 1013 844 2039
3 365 1162 2065
3 1594 1315 2184
3 387 384 388
3 1508 1860 2311
3 547 527 2056
3 2005 225 2322
3 314 317 2127
3 1853 556 2327
3 201 6 278
3 1907 1644 2417
3 1896 2101 2108
3 646 645 784
3 538 508 558
3 374 375 377
3 1630 1634 1635
3 1579 1999 2352
3 1647 1648 1849
3 1313 1314 2121
3 1179 1433 2042
3 844 701 2039
3 1252 1251 2098
3 816 876 925
3 1922 1228 2281
3 392 394 396
3 1915 654 2294
3 1652 1653 2487
3 429 430 436
3 456 475 476
3 1605 1392 2510
3 126 1882 2284
3 1784 1780 2419
3 500 453 960
3 377 378 381
3 2178 1587 2300
3 1222 1219 1626
3 413 419 420
3 381 382 400
3 2169 1836 2223
3 1906 1905 2129
3 616 614 793
3 1170 1419 2139
3 101 189 2220
3 241 100 2220
3 1968 1111 2123
3 567 434 2031
3 615 614 616
3 1032 720 1921
3 682 428 2138
3 469 470 473
3 339 440 2261
3 1501 238 2226
3 1154 1431 1653
3 446 447 457
3 1251 1243 1257
3 2229 315 2495
3 1201 1202 1212
3 785 784 879
3 464 463 465
3 66 2118 2395
3 324 332 2282
3 286 288 771
3 17 199 2081
3 571 570 721
3 611 610 2092
3 617 616 618
3 1542 1531 2332
3 400 401 424
3 1325 1326 1371
3 1140 1406 1702
3 1323 443 2302
3 1926 1573 2507
3 436 437 446
3 1262 1457 2098
3 67 190 2118
3 1518 1861 2449
3 989 1359 1360
3 1063 1082 1154
3 1757 96 2526
3 969 967 1011
3 868 836 2095
3 1215 1035 2235
3 96 1757 2309
3 261 2160 2380
3 1381 1382 2126
3 1468 1469 2182
3 1334 1317 2108
3 861 863 1064
3 1270 1261 1271
3 360 361 383
3 287 316 1978
3 1856 192 2367
3 1905 241 2129
3 1615 1809 2425
3 528 523 560
3 979 980 989
3 662 2040 2058
3 721 964 965
3 170 171 2216
3 664 799 2040
3 512 511 523
3 1201 1348 2107
3 620 618 858
3 758 289 1978
3 859 858 998
3 424 425 453
3 1616 1615 2193
3 444 301 1975
3 561 560 593
3 965 966 967
3 1798 376 2430
3 340 2014 2091
3 510 465 511
3 107 195 1990
3 1080 1188 2054
3 1153 998 1312
3 1226 1224 1249
3 1012 1011 1363
3 902 904 905
3 842 963 2027
3 268 270 1134
3 865 901 1125
3 2077 558 2102
3 282 284 442
3 1977 1679 2253
3 1496 1498 2047
3 284 286 2063
3 281 736 1938
3 2132 793 2165
3 1674 215 2437
3 2078 1855 2411
3 839 1009 2055
3 1182 824 1183
3 1168 947 1169
3 1289 1871 2242
3 316 285 1971
3 1270 1271 1272
3 1755 1793 2264
3 51 1996 2011
3 383 384 387
3 1146 1924 2215
3 1279 1928 2202
3 619 618 620
3 1194 1196 1197
3 555 578 979
3 1937 1639 2528
3 1262 1257 1263
3 389 384 2339
3 2251 1338 2464
3 1155 1887 2123
3 1151 1937 2528
3 465 463 828
3 1318 1319 2116
3 1687 1688 2231
3 326 954 2050
3 297 318 1984
3 1308 953 2255
3 1846 2056 2198
3 320 315 2229
3 1254 1252 2059
3 760 761 783
3 951 1281 2255
3 1459 1296 2094
3 2288 1638 2470
3 1975 299 1984
3 52 247 1996
3 468 338 2090
3 2140 1511 2506
3 1125 1126 1192
3 593 824 1182
3 720 708 1921
3 704 706 707
3 623 587 624
3 2044 1112 2152
3 1393 1169 1749
3 900 983 2119
3 783 914 938
3 255 2265 2489
3 2039 894 2122
3 317 2050 2127
3 1866 1867 2513
3 374 373 375
3 429 436 455
3 387 388 445
3 1193 423 1194
3 555 577 578
3 1074 977 1187
3 449 567 2052
3 1197 1198 1364
3 2154 1595 2486
3 1486 1849 2173
3 318 295 1983
3 939 1016 1844
3 131 132 2160
3 30 31 2159
3 881 1146 2215
3 1294 1868 2238
3 1300 1455 2314
3 1365 1364 1912
3 783 938 939
3 2061 1735 2441
3 551 545 601
3 2194 216 2536
3 1251 1257 1262
3 888 887 2177
3 1364 1198 2048
3 1498 1682 2340
3 1589 1590 2501
3 60 188 2266
3 1401 1913 2324
3 195 108 1991
3 420 422 423
3 1675 1470 2474
3 258 1673 2183
3 2161 1619 2438
3 1296 1472 2094
3 1808 1910 2381
3 334 803 2090
3 1490 1285 2232
3 523 511 524
3 1240 1238 2074
3 1184 1183 1185
3 39 40 2151
3 473 474 477
3 1461 1463 2200
3 2072 353 2073
3 861 862 863
3 1206 1941 2401
3 958 1575 2287
3 614 611 2092
3 110 111 2140
3 1136 2054 2110
3 645 594 2133
3 260 33 2002
3 673 767 2131
3 989 980 1359
3 1741 2131 2258
3 1317 1875 2148
3 894 1946 2122
3 863 864 865
3 787 461 2052
3 857 2277 2386
3 109 246 1991
3 2017 116 2018
3 1182 1183 1184
3 377 375 378
3 816 925 1324
3 865 866 901
3 1262 1263 1456
3 359 356 2065
3 2129 241 2472
3 283 1938 1971
3 1458 1210 2203
3 1076 1003 2145
3 196 1738 2402
3 1033 1130 1151
3 1188 1121 2106
3 1140 1702 2096
3 549 687 1280
3 1694 1621 2191
3 861 1064 2112
3 1548 1549 2129
3 1784 1071 2462
3 714 716 2066
3 1961 825 2455
3 1447 1211 2250
3 979 578 980
3 905 907 1209
3 381 378 382
3 457 469 552
3 595 575 2032
3 408 413 2084
3 481 483 2144
3 1745 1349 2293
3 1980 1405 2441
3 198 50 2011
3 248 115 2017
3 912 819 2068
3 620 858 859
3 707 708 720
3 821 674 822
3 514 542 2086
3 400 382 401
3 123 2005 2012
3 1772 1351 2374
3 34 239 2002
3 768 314 2127
3 2003 36 2004
3 280 282 2079
3 124 225 2005
3 596 595 2130
3 593 560 824
3 1504 1502 2519
3 239 35 2003
3 1311 1309 2147
3 1318 1877 2240
3 1860 1432 2311
3 1416 1715 2330
3 859 998 1153
3 352 353 2072
3 312 768 1987
3 2027 1174 2152
3 226 38 2006
3 1827 1024 2117
3 1710 1391 2295
3 690 624 691
3 37 226 2004
3 1153 1312 1885
3 853 855 2186
3 1892 242 2373
3 1967 520 2174
3 939 938 1016
3 47 249 2019
3 388 390 2078
3 1991 2139 2517
3 905 906 907
3 571 721 2032
3 1196 423 2035
3 1324 925 1325
3 1151 1130 1937
3 363 352 2072
3 345 349 2076
3 1031 1032 1033
3 214 179 1859
3 211 122 2012
3 602 601 652
3 117 205 2018
3 710 712 2067
3 1602 187 2357
3 520 2000 2174
3 85 242 2335
3 220 84 2335
3 381 400 2113
3 1586 1587 2435
3 424 401 425
3 963 1174 2027
3 860 691 861
3 610 596 2130
3 1958 2078 2431
3 570 547 2056
3 237 2216 2354
3 1211 1692 2219
3 298 358 1997
3 909 947 1041
3 441 456 2097
3 1135 1647 1849
3 1601 1542 2443
3 197 113 2009
3 49 198 2010
3 1911 347 2407
3 1729 191 2309
3 212 41 2020
3 121 211 2013
3 222 105 2218
3 1125 901 1126
3 114 248 2009
3 249 48 2010
3 42 250 2020
3 251 120 2013
3 233 1769 2369
3 1870 647 2113
3 794 345 2076
3 250 43 2024
3 119 251 2021
3 901 902 2141
3 964 570 2056
3 739 335 2261
3 2108 1317 2148
3 577 599 2083
3 205 118 2021
3 44 206 2024
3 1247 1241 2323
3 1894 992 2244
3 6 203 2049
3 1642 1678 2529
3 1417 1873 2333
3 1422 2023 2516
3 341 794 2100
3 73 74 2361
3 1234 1232 2088
3 1261 1254 2059
3 896 1077 2257
3 1921 710 2067
3 125 126 2284
3 220 1699 2289
3 159 5 2304
3 4 184 2303
3 2059 1252 2098
3 1003 1004 2145
3 2328 1325 2451
3 1486 227 1500
3 63 64 2162
3 2081 1192 2260
3 508 500 2102
3 667 1872 2318
3 338 334 2090
3 423 422 2035
3 1192 1126 1471
3 907 908 909
3 1330 1328 2192
3 1972 897 2500
3 2443 316 2514
3 242 86 2373
3 87 193 2373
3 420 1193 2084
3 1473 1086 2358
3 1987 768 2037
3 522 337 2100
3 627 1660 2185
3 1793 446 2264
3 1405 2061 2441
3 1502 1217 2302
3 171 201 2216
3 1158 1993 2153
3 1197 1365 2120
3 1712 1710 2295
3 1121 1401 2414
3 93 94 2166
3 653 652 688
3 622 1716 2452
3 1345 1720 2267
3 477 537 556
3 128 129 2181
3 2331 1295 2458
3 784 645 874
3 1269 1270 2199
3 189 102 2355
3 1041 1168 1343
3 246 110 2140
3 477 525 537
3 755 1895 2371
3 1947 1723 2313
3 1134 1135 2369
3 223 65 2395
3 968 1201 2107
3 1577 1578 2325
3 210 15 2477
3 961 363 2072
3 1581 1579 2352
3 349 357 2076
3 337 341 2100
3 305 303 2317
3 370 367 2103
3 762 296 1997
3 581 580 2164
3 1278 1838 2372
3 1548 2129 2472
3 594 593 2133
3 2021 251 2022
3 2047 1247 2182
3 967 968 2107
3 1169 947 2008
3 481 2144 2169
3 793 614 2092
3 1910 217 2381
3 1251 1262 2098
3 716 788 2066
3 2101 1334 2108
3 2006 39 2151
3 1603 2379 2508
3 1926 2006 2151
3 96 97 2526
3 750 755 2371
3 789 714 2066
3 909 918 947
3 1993 895 2153
3 106 1990 2218
3 1243 1240 2074
3 832 986 1189
3 1283 1284 2342
3 2297 195 2517
3 1043 829 2326
3 767 816 2131
3 602 653 676
3 1004 912 2068
3 2086 1886 2224
3 1124 2177 2467
3 426 401 2531
3 707 720 1030
3 1000 1001 2184
3 1315 1029 2184
3 467 481 2169
3 541 513 2256
3 647 381 2113
3 225 2284 2510
3 2 156 2356
3 187 0 2357
3 40 212 2151
3 2245 1386 2383
3 676 677 829
3 1004 2068 2069
3 1860 232 2487
3 1031 1033 1034
3 829 830 972
3 996 997 2408
3 1195 1194 2120
3 987 1869 2202
3 1410 1213 2222
3 819 820 2068
3 1485 1486 2173
3 1564 2030 2155
3 807 669 2529
3 129 261 2181
3 1525 1076 2145
3 578 577 2083
3 327 310 1987
3 1083 929 2197
3 2131 1324 2258
3 798 408 2084
3 1838 696 2426
3 1486 1500 1930
3 1946 1944 2291
3 2257 1077 2291
3 1512 1661 2266
3 445 388 2078
3 1192 1471 2260
3 2118 1415 2395
3 1466 1468 2158
3 830 677 831
3 211 2012 2251
3 652 601 2442
3 537 545 551
3 558 508 2102
3 198 2011 2128
3 1718 2280 2385
3 500 960 2102
3 1168 1169 1393
3 1127 971 2496
3 95 96 2309
3 2030 1565 2155
3 1919 1172 2273
3 977 860 2112
3 240 128 2181
3 294 762 2038
3 1800 1799 2195
3 712 789 2067
3 972 1749 2326
3 472 1683 2212
3 874 645 2133
3 551 2045 2201
3 2105 1043 2326
3 1957 1212 2301
3 1514 1856 2367
3 565 538 2167
3 373 370 2103
3 355 348 2196
3 1934 1272 2138
3 1934 426 2531
3 1881 1400 2481
3 2046 1851 2327
3 367 961 2103
3 1963 1152 2206
3 201 278 443
3 3 131 2444
3 31 1 2445
3 2035 441 2097
3 503 787 2198
3 1135 1849 1930
3 1534 1983 2306
3 2089 623 2150
3 687 704 2109
3 869 1351 2363
3 1302 1304 2205
3 955 1716 2484
3 1030 720 1031
3 1159 1318 2240
3 1228 1226 2281
3 947 918 2008
3 413 420 2084
3 785 879 2532
3 1041 947 1168
3 1468 2182 2323
3 1246 1234 2088
3 1730 1163 2372
3 542 555 2086
3 1599 631 2312
3 1146 1967 2174
3 1078 1136 2343
3 1515 1574 2180
3 2336 885 2469
3 1257 1243 2074
3 1347 1346 2279
3 2001 650 2206
3 1480 1601 2514
3 1029 1000 2184
3 1956 788 2336
3 1271 1261 2059
3 130 3 2444
3 1 32 2445
3 1570 1507 2197
3 1232 1255 2088
3 791 1642 2529
3 1601 1479 2269
3 1361 1362 2168
3 1634 1922 2281
3 765 2065 2190
3 2071 1158 2153
3 1699 1801 2289
3 832 831 833
3 1864 346 2344
3 456 476 2097
3 1855 828 2411
3 2065 1162 2190
3 1125 1192 2149
3 599 760 2083
3 361 765 2339
3 1731 2123 2241
3 1349 1181 1350
3 1443 1275 2251
3 1819 524 2429
3 1021 1045 2512
3 858 618 2132
3 1999 358 2338
3 368 292 2038
3 290 368 2135
3 803 331 2296
3 1112 1008 2152
3 56 1947 2313
3 555 979 2086
3 1469 1496 2182
3 1011 967 2107
3 248 2017 2288
3 1809 789 2425
3 960 453 2221
3 538 558 2167
3 1858 1187 2248
3 2246 1757 2526
3 902 905 2141
3 1851 1853 2327
3 1224 1222 2111
3 771 288 2135
3 1945 2153 2257
3 1420 1525 2489
3 1399 1123 2393
3 103 2025 2355
3 897 822 898
3 1861 940 2532
3 865 1125 2146
3 1675 2474 2522
3 1573 2157 2507
3 1632 1631 2382
3 551 601 602
3 527 503 2198
3 1708 805 2337
3 1059 1278 2372
3 2056 527 2198
3 860 861 2112
3 1668 2348 2398
3 255 2159 2265
3 1541 1542 2269
3 1428 2074 2227
3 1582 1583 2321
3 389 1774 2503
3 2004 226 2157
3 1777 397 2405
3 1368 1436 2254
3 1061 2409 2462
3 1071 930 2462
3 1126 901 2141
3 1194 1197 2120
3 1452 1952 2282
3 2116 1319 2482
3 105 106 2218
3 1981 1399 2393
3 2119 983 2143
3 444 1682 2461
3 2173 1648 2463
3 616 793 2132
3 1791 1190 2334
3 1826 1728 2259
3 602 652 653
3 1834 1292 2428
3 556 2201 2327
3 1014 1015 2385
3 1995 1287 2331
3 1193 1195 2189
3 816 1324 2131
3 879 1861 2532
3 593 1182 2133
3 1402 266 1742
3 2216 1323 2354
3 1660 1636 2502
3 620 955 2484
3 1162 1706 2190
3 1870 2113 2249
3 204 1680 1732
3 1909 2023 2420
3 217 72 2217
3 376 372 2430
3 905 1209 2141
3 1378 1381 2283
3 1236 1246 2227
3 286 771 2063
3 1635 2263 2502
3 100 101 2220
3 1139 898 1140
3 2114 1343 2136
3 442 284 2063
3 1772 2106 2414
3 1985 1755 2533
3 2192 1328 2315
3 1064 863 2146
3 1631 1637 2459
3 736 2049 2523
3 221 1906 2246
3 318 1983 2171
3 1496 2047 2182
3 1374 2139 2506
3 196 55 2313
3 2087 462 2134
3 676 653 677
3 2304 257 2491
3 1401 2324 2363
3 829 677 830
3 654 2223 2242
3 1187 977 2112
3 1463 1466 2200
3 2023 219 2516
3 1176 881 2215
3 513 471 2290
3 1812 459 2252
3 1386 1269 2199
3 291 758 2306
3 618 616 2132
3 278 280 2210
3 83 220 2289
3 82 83 2289
3 938 1057 2161
3 1189 986 1190
3 788 719 2336
3 1914 2001 2206
3 232 181 1652
3 1567 2062 2490
3 313 757 2495
3 622 619 2484
3 688 878 1320
3 1222 1626 2111
3 282 442 2079
3 1169 2008 2105
3 1966 1007 2308
3 2040 799 2237
3 1744 2229 2495
3 986 833 1063
3 2284 1605 2510
3 887 1961 2376
3 215 1624 2262
3 830 831 832
3 476 475 2224
3 439 451 2223
3 1932 1933 2380
3 2227 1246 2366
3 1212 1202 2301
3 1107 1110 2228
3 249 2010 2299
3 1983 293 2306
3 2055 1214 2237
3 1438 1372 2478
3 824 560 2156
3 2320 1866 2513
3 1351 1137 2374
3 868 2007 2232
3 2063 771 2064
3 1507 214 1508
3 1728 1727 2246
3 1045 1047 2348
3 1139 1140 2096
3 1648 1649 2463
3 1502 2302 2519
3 704 707 2109
3 2343 1136 2396
3 650 1963 2206
3 2153 895 2257
3 396 1958 2431
3 1379 1377 2288
3 2115 1471 2319
3 2033 987 2202
3 2239 1693 2518
3 2025 1488 2355
3 1209 2115 2319
3 523 524 2156
3 783 939 2243
3 376 1798 2497
3 2066 788 2193
3 1984 318 2172
3 425 427 2221
3 203 172 1847
3 446 457 2264
3 1312 2089 2150
3 2138 1272 2211
3 897 1139 2274
3 828 1819 2429
3 1249 1224 2111
3 666 667 2318
3 1371 1326 2194
3 2433 1499 2475
3 1272 1271 2211
3 1367 2254 2479
3 1386 2053 2383
3 2074 1238 2227
3 755 2148 2320
3 2117 1604 2428
3 475 514 2224
3 228 2187 2457
3 1868 1504 2520
3 1626 1218 2185
3 2123 1111 2241
3 1287 1049 2331
3 1280 687 2109
3 459 1814 2292
3 54 196 2402
3 863 865 2146
3 204 176 1680
3 514 2086 2224
3 1646 603 2398
3 112 197 2346
3 358 300 2338
3 1140 898 1141
3 1204 1335 2301
3 1016 2161 2438
3 909 1041 2175
3 1681 2448 2492
3 2252 459 2292
3 1992 868 2232
3 1035 1036 2235
3 1051 1295 2331
3 1836 1289 2242
3 1508 214 1859
3 247 53 2402
3 1016 938 2161
3 1408 856 2378
3 1466 2158 2200
3 725 885 2336
3 855 1450 2421
3 2023 1768 2420
3 1238 1236 2227
3 1679 202 2253
3 2107 1348 2233
3 1653 1431 2487
3 1946 2291 2343
3 2253 202 2329
3 1885 1312 2150
3 378 628 2390
3 2195 1383 2432
3 1520 1519 2480
3 1532 1733 2534
3 308 327 2278
3 953 951 2255
3 1213 1407 2222
3 1561 1563 2285
3 302 763 2338
3 1928 2033 2202
3 763 304 2345
3 832 833 986
3 1352 2040 2237
3 247 1881 2481
3 560 523 2156
3 335 339 2261
3 346 342 2344
3 201 443 1323
3 2301 1335 2466
3 323 320 2229
3 1136 2110 2396
3 1139 1977 2274
3 1809 1615 2423
3 1707 1791 2334
3 46 2019 2485
3 2064 1294 2238
3 1950 197 2404
3 2021 2022 2176
3 1949 245 2420
3 2044 2152 2207
3 1063 1154 1707
3 1012 1363 2406
3 280 2079 2210
3 2237 1214 2351
3 820 698 2318
3 1140 1141 1406
3 205 2021 2176
3 2043 786 2310
3 2145 1004 2446
3 707 1030 2109
3 1406 2460 2473
3 2137 1268 2226
3 16 2081 2260
3 567 2031 2219
3 2112 1064 2248
3 206 45 2485
3 2347 1462 2365
3 1650 1962 2362
3 453 425 2221
3 1209 907 2175
3 1111 1276 2241
3 2448 1145 2492
3 2051 2083 2243
3 59 60 2266
3 1402 1742 2530
3 831 677 2209
3 624 587 2276
3 238 174 1725
3 1011 2107 2233
3 468 2365 2412
3 2337 805 2371
3 254 1932 2380
3 1174 1398 2207
3 2140 111 2346
3 1381 2186 2283
3 1987 2037 2188
3 1740 559 2456
3 1773 391 2503
3 1335 1870 2249
3 1945 2257 2291
3 828 463 2411
3 1246 2088 2208
3 2060 798 2307
3 1773 1159 2240
3 1187 2112 2248
3 1352 2237 2351
3 2037 1322 2188
3 1941 1499 2433
3 2322 225 2510
3 1031 1034 2236
3 327 2188 2321
3 595 2032 2273
3 1464 1462 2347
3 1285 1992 2232
3 799 2055 2237
3 443 278 2210
3 784 874 2178
3 392 396 2431
3 191 95 2309
3 879 784 2178
3 524 511 2429
3 2128 2011 2270
3 895 896 2257
3 2206 1152 2324
3 318 2171 2172
3 2259 1549 2379
3 1214 1410 2351
3 306 308 2278
3 2022 251 2247
3 1757 1729 2309
3 1283 1918 2524
3 996 1706 2492
3 557 2044 2207
3 1798 1448 2364
3 1447 2250 2310
3 559 1750 2403
3 1363 1011 2233
3 1343 1168 2187
3 1407 2044 2256
3 1462 1460 2365
3 1995 2331 2458
3 327 1987 2188
3 2160 254 2380
3 1681 958 2287
3 2031 1160 2250
3 1600 689 2413
3 2219 1692 2239
3 1494 1675 2522
3 1281 1916 2448
3 907 909 2175
3 565 2167 2276
3 2241 1276 2275
3 1978 316 2443
3 2151 212 2350
3 203 1847 2104
3 2049 1481 2523
3 1961 1362 2376
3 2187 1393 2457
3 940 796 2532
3 2293 1349 2329
3 572 1897 2537
3 332 739 2282
3 2052 567 2239
3 1437 1370 2277
3 567 2219 2239
3 667 626 2452
3 1914 2206 2324
3 2243 939 2392
3 2136 1343 2187
3 257 1654 2530
3 1376 1378 2283
3 2076 1982 2272
3 2083 760 2243
3 1944 1945 2291
3 1771 1839 2359
3 1404 1403 2399
3 1875 1866 2320
3 1460 1337 2412
3 760 783 2243
3 1276 1366 2275
3 1428 2227 2366
3 1882 1605 2284
3 1739 1429 2459
3 2321 2188 2434
3 1328 1327 2315
3 798 2189 2307
3 2152 1174 2207
3 2182 1247 2323
3 1516 1514 2367
3 293 291 2306
3 556 537 2201
3 1298 1300 2314
3 1400 1399 2316
3 1649 2236 2463
3 833 831 2424
3 2127 2050 2333
3 1057 914 2328
3 1839 193 2359
3 761 1741 2258
3 1186 1970 2422
3 1429 2366 2382
3 2211 1271 2271
3 1733 1248 2534
3 13 2114 2136
3 2078 390 2431
3 1533 1536 2340
3 1690 2145 2446
3 1277 2308 2370
3 1168 1393 2187
3 1597 2047 2268
3 587 565 2276
3 1908 244 2401
3 225 125 2284
3 610 2130 2468
3 1749 2105 2326
3 1913 1914 2324
3 2366 2208 2382
3 1391 1876 2295
3 457 552 2264
3 653 688 2209
3 1601 2443 2514
3 682 2138 2211
3 992 1980 2244
3 55 56 2313
3 1645 1495 2493
3 473 477 2483
3 202 1724 2329
3 465 828 2429
3 1277 1966 2308
3 1416 2330 2406
3 1912 1364 2455
3 1716 1483 2375
3 2019 1651 2485
3 1725 2137 2226
3 201 1323 2216
3 878 1083 2213
3 2072 2073 2245
3 1563 1777 2405
3 244 2028 2401
3 2016 1564 2422
3 1682 1497 2461
3 1962 1153 2362
3 1298 2314 2358
3 1384 1385 2391
3 688 1320 2209
3 1587 2179 2435
3 786 380 2497
3 1395 1522 2341
3 2032 1919 2273
3 251 2013 2247
3 2219 2031 2250
3 2397 552 2453
3 1765 255 2489
3 2475 1825 2524
3 1202 1204 2301
3 445 2078 2411
3 323 2229 2296
3 1286 2384 2408
3 537 551 2201
3 1724 237 2293
3 84 85 2335
3 1471 1126 2319
3 1635 1634 2511
3 300 302 2338
3 698 666 2318
3 1030 1031 2236
3 2098 1457 2271
3 696 1821 2426
3 1457 1492 2447
3 1956 2336 2469
3 331 323 2296
3 1284 1491 2342
3 2011 1996 2270
3 256 183 2303
3 160 257 2304
3 2204 1589 2501
3 1891 1014 2280
3 719 725 2336
3 1354 1808 2381
3 437 430 2494
3 2377 218 2391
3 2211 2271 2447
3 1407 2256 2290
3 2365 1460 2412
3 2047 1498 2268
3 1825 1283 2524
3 1499 1825 2475
3 1226 1249 2281
3 2051 2243 2392
3 2250 1160 2310
3 111 112 2346
3 304 306 2345
3 1341 1352 2351
3 2166 191 2504
3 2223 1836 2242
3 1996 247 2481
3 1049 1051 2331
3 1086 1298 2358
3 2130 595 2273
3 1249 2111 2263
3 680 1995 2458
3 1511 2140 2346
3 102 103 2355
3 469 473 2453
3 961 2072 2245
3 2073 1282 2245
3 1442 1443 2525
3 74 192 2361
3 2163 1586 2435
3 1519 1518 2449
3 897 2274 2500
3 303 444 2317
3 1615 1614 2423
3 197 2009 2404
3 1634 2281 2511
3 1780 1781 2419
3 1435 1623 2465
3 1286 1774 2384
3 384 361 2339
3 193 1901 2359
3 1165 2433 2475
3 2277 1370 2386
3 677 653 2209
3 1994 1516 2367
3 1479 1478 2440
3 1165 1512 2433
3 1644 1353 2417
3 1711 1712 2353
3 2193 1615 2425
3 1613 1956 2469
3 1440 1173 2330
3 2269 1479 2440
3 222 2218 2465
3 391 389 2503
3 306 2278 2345
3 468 2090 2365
3 221 2246 2526
3 1445 1446 2504
3 939 1844 2392
3 86 87 2373
3 1429 1428 2366
3 2053 2103 2383
3 1348 1212 2312
3 805 750 2371
3 997 1286 2408
3 1152 869 2363
3 2063 2064 2238
3 192 1994 2367
3 1160 2043 2310
3 1926 2151 2350
3 2059 2098 2271
3 1897 1366 2537
3 215 2262 2437
3 1655 1732 2476
3 2415 1128 2454
3 1320 2213 2214
3 7 258 2357
3 259 155 2356
3 2171 1530 2172
3 347 351 2407
3 1077 1078 2343
3 239 2003 2279
3 1446 1128 2415
3 1034 1033 2410
3 601 627 2442
3 1154 1653 2234
3 397 2060 2405
3 2142 794 2272
3 442 2063 2238
3 1863 1215 2378
3 794 2076 2272
3 1883 1375 2505
3 1320 878 2213
3 342 468 2344
3 1903 218 2377
3 380 376 2497
3 1549 1547 2379
3 1148 1165 2475
3 2157 226 2507
3 829 972 2326
3 884 1957 2466
3 2291 1077 2343
3 65 66 2395
3 787 2052 2518
3 2298 1348 2312
3 1946 2343 2396
3 1653 256 2535
3 1842 1548 2472
3 1957 2301 2466
3 1366 1277 2370
3 2213 1432 2214
3 961 2245 2383
3 218 2093 2391
3 1376 2283 2421
3 1873 2127 2333
3 1019 1021 2512
3 1128 1127 2454
3 1104 1434 2450
3 2130 1439 2468
3 2396 2110 2482
3 2186 855 2283
3 1724 2293 2329
3 1163 1059 2372
3 1614 2389 2423
3 53 54 2402
3 1063 1707 2334
3 2283 855 2421
3 1385 1863 2436
3 364 1883 2505
3 517 1890 2387
3 1145 996 2492
3 1047 1287 2348
3 2148 1875 2320
3 205 2176 2416
3 1372 1844 2478
3 1211 2219 2250
3 1141 898 2368
3 245 1909 2420
3 2278 327 2321
3 2389 1397 2423
3 2256 513 2290
3 559 2403 2456
3 1137 1340 2374
3 2093 1384 2391
3 1918 1148 2524
3 1030 2236 2427
3 1867 1895 2513
3 2014 517 2387
3 2271 1457 2447
3 1143 2028 2353
3 1904 194 2432
3 1148 2475 2524
3 1574 1523 2436
3 2213 1083 2311
3 1997 358 2325
3 2139 246 2506
3 1370 1369 2386
3 1271 2059 2271
3 1034 2173 2463
3 1123 1412 2393
3 1578 1827 2515
3 2209 1320 2424
3 2079 1504 2210
3 1361 2168 2305
3 1491 1489 2403
3 238 1725 2226
3 1190 986 2334
3 1547 1545 2508
3 1891 1613 2469
3 1153 1885 2362
3 2208 1632 2382
3 2287 1281 2448
3 1356 1376 2421
3 1965 2349 2515
3 2155 1186 2422
3 1522 2014 2387
3 2158 1468 2323
3 2050 954 2333
3 1397 1809 2423
3 1362 1360 2376
3 1852 1985 2397
3 2069 1691 2446
3 789 2066 2425
3 1895 755 2513
3 1707 1154 2234
3 372 374 2430
3 2225 787 2518
3 2028 1206 2401
3 986 1063 2334
3 1912 726 2439
3 1340 1342 2400
3 1916 1145 2448
3 2236 1649 2427
3 2374 1340 2400
3 2222 1407 2290
3 2324 1152 2363
3 241 2220 2472
3 765 2190 2384
3 2375 667 2452
3 2330 1173 2406
3 1181 1972 2500
3 2126 1382 2388
3 1173 1012 2406
3 315 313 2495
3 1015 1373 2385
3 97 221 2526
3 1937 1397 2389
3 930 1061 2462
3 971 1096 2496
3 45 46 2485
3 669 791 2529
3 1104 2450 2521
3 382 378 2390
3 2191 1371 2536
3 2235 1036 2286
3 831 2209 2424
3 762 1997 2349
3 2379 1547 2508
3 2177 1359 2467
3 2403 1489 2456
3 796 785 2532
3 219 1902 2516
3 1519 2300 2480
3 1065 1655 2476
3 1375 1473 2505
3 1489 1490 2456
3 390 392 2431
3 2247 2013 2464
3 1135 1930 2369
3 2278 1583 2345
3 626 622 2452
3 631 2298 2312
3 2233 1348 2298
3 1398 1974 2499
3 1706 1681 2492
3 261 130 2444
3 32 260 2445
3 822 2099 2368
3 1365 1912 2439
3 941 940 2418
3 1446 2166 2504
3 2106 1121 2414
3 2300 1519 2449
3 1803 1104 2521
3 1732 1570 2476
3 1413 2051 2392
3 2122 1946 2396
3 2238 1868 2520
3 477 556 2483
3 2397 1985 2533
3 463 445 2411
3 2163 1185 2488
3 1126 2141 2319
3 1755 2264 2533
3 972 2204 2501
3 2230 1533 2340
3 1774 1773 2503
3 1997 2325 2349
3 1004 2069 2446
3 2159 31 2445
3 131 2160 2444
3 1371 2191 2451
3 1001 2154 2486
3 1682 2230 2340
3 2103 961 2383
3 1033 1151 2410
3 382 2390 2531
3 1504 2079 2520
3 1583 2278 2321
3 511 465 2429
3 250 2024 2479
3 2208 2088 2509
3 619 620 2484
3 1246 2208 2366
3 2141 1209 2319
3 1359 1413 2467
3 1295 1459 2458
3 2218 1435 2465
3 2281 1249 2511
3 2293 237 2354
3 2207 1398 2499
3 1564 2155 2422
3 552 469 2453
3 1947 224 2498
3 2062 1568 2490
3 2018 205 2416
3 260 2159 2445
3 2160 261 2444
3 2092 610 2468
3 194 2195 2432
3 1432 2213 2311
3 211 2251 2464
3 2378 856 2527
3 1536 1532 2534
3 2364 786 2497
3 2438 1438 2478
3 1185 1948 2488
3 2042 941 2418
3 1582 2321 2434
3 885 1891 2469
3 1364 2048 2455
3 1693 2225 2518
3 401 382 2531
3 1338 2247 2464
3 442 2238 2520
3 1292 2117 2428
3 2274 1350 2500
3 2066 2193 2425
3 2179 1184 2435
3 898 822 2368
3 2436 1863 2527
3 1844 1016 2478
3 2184 1001 2486
3 557 2207 2499
3 2013 211 2464
3 2254 250 2479
3 1350 1181 2500
3 2009 248 2470
3 246 2140 2506
3 1574 2436 2527
3 2139 1419 2517
3 316 1971 2514
3 1319 2122 2482
3 226 2006 2507
3 1400 2270 2481
3 1681 2287 2448
3 2325 1578 2349
3 232 1652 2487
3 1320 2214 2424
3 1632 2208 2509
3 248 2288 2470
3 1406 1141 2460
3 2188 1322 2434
3 2244 1980 2441
3 2088 1255 2509
3 1280 2109 2427
3 2060 2307 2405
3 2236 1034 2463
3 1745 2293 2354
3 2122 2396 2482
3 2109 1030 2427
3 2307 1563 2405
3 1429 2382 2459
3 224 2267 2498
3 682 2211 2447
3 2079 442 2520
3 2348 1287 2398
3 2220 1842 2472
3 1335 2249 2466
3 1249 2263 2511
3 443 2210 2519
3 2385 1373 2394
3 1594 2184 2486
3 2052 2239 2518
3 1568 2439 2490
3 2349 1578 2515
3 2344 468 2412
3 2270 1996 2481
3 1735 2244 2441
3 2260 1471 2477
3 2210 1504 2519
3 1434 2297 2450
3 2297 1419 2450
3 2263 1660 2502
3 2404 2009 2470
3 1718 2385 2394
3 1371 2194 2536
3 2317 444 2461
3 1443 2322 2525
3 1716 2375 2452
3 1863 2378 2527
3 2439 726 2490
3 1057 2328 2451
3 1638 2404 2470
3 1454 2234 2535
3 755 2320 2513
3 2234 1653 2535
3 2264 552 2533
3 1419 2297 2517
3 1392 2322 2510
3 552 2397 2533
3 1798 2364 2497
3 2322 1392 2525
3 2382 1631 2459
3 1016 2438 2478
3 1366 2370 2537
3 1742 2491 2530
3 2491 257 2530
CELL_TYPES 4886
5
5
5
5
5
5
5
5
5
5
5
5
5
5
5
5
5
5
5
5
5
5
5
5
5
5
5
5
5
5
5
5
5
5
5
5
5
5
5
5
5
5
5
5
5
5
5
5
5
5
5
5
5
5
5
5
5
5
5
5
5
5
5
5
5
5
5
5
5
5
5
5
5
5
5
5
5
5
5
5
5
5
5
5
5
5
5
5
5
5
5
5
5
5
5
5
5
5
5
5
5
5
5
5
5
5
5
5
5
5
5
5
5
5
5
5
5
5
5
5
5
5
5
5
5
5
5
5
5
5
5
5
5
5
5
5
5
5
5
5
5
5
5
5
5
5
5
5
5
5
5
5
5
5
5
5
5
5
5
5
5
5
5
5
5
5
5
5
5
5
5
5
5
5
5
5
5
5
5
5
5
5
5
5
5
5
5
5
5
5
5
5
5
5
5
5
5
5
5
5
5
5
5
5
5
5
5
5
5
5
5
5
5
5
5
5
5
5
5
5
5
5
5
5
5
5
5
5
5
5
5
5
5
5
5
5
5
5
5
5
5
5
5
5
5
5
5
5
5
5
5
5
5
5
5
5
5
5
5
5
5
5
5
5
5
5
5
5
5
5
5
5
5
5
5
5
5
5
5
5
5
5
5
5
5
5
5
5
5
5
5
5
5
5
5
5
5
5
5
5
5
5
5
5
5
5
5
5
5
5
5
5
5
5
5
5
5
5
5
5
5
5
5
5
5
5
5
5
5
5
5
5
5
5
5
5
5
5
5
5
5
5
5
5
5
5
5
5
5
5
5
5
5
5
5
5
5
5
5
5
5
5
5
5
5
5
5
5
5
5
5
5
5
5
5
5
5
5
5
5
5
5
5
5
5
5
5
5
5
5
5
5
5
5
5
5
5
5
5
5
5
5
5
5
5
5
5
5
5
5
5
5
5
5
5
5
5
5
5
5
5
5
5
5
5
5
5
5
5
5
5
5
5
5
5
5
5
5
5
5
5
5
5
5
5
5
5
5
5
5
5
5
5
5
5
5
5
5
5
5
5
5
5
5
5
5
5
5
5
5
5
5
5
5
5
5
5
5
5
5
5
5
5
5
5
5
5
5
5
5
5
5
5
5
5
5
5
5
5
5
5
5
5
5
5
5
5
5
5
5
5
5
5
5
5
5
5
5
5
5
5
5
5
5
5
5
5
5
5
5
5
5
5
5
5
5
5
5
5
5
5
5
5
5
5
5
5
5
5
5
5
5
5
5
5
5
5
5
5
5
5
5
5
5
5
5
5
5
5
5
5
5
5
5
5
5
5
5
5
5
5
5
5
5
5
5
5
5
5
5
5
5
5
5
5
5
5
5
5
5
5
5
5
5
5
5
5
5
5
5
5
5
5
5
5
5
5
5
5
5
5
5
5
5
5
5
5
5
5
5
5
5
5
5
5
5
5
5
5
5
5
5
5
5
5
5
5
5
5
5
5
5
5
5
5
5
5
5
5
5
5
5
5
5
5
5
5
5
5
5
5
5
5
5
5
5
5
5
5
5
5
5
5
5
5
5
5
5
5
5
5
5
5
5
5
5
5
5
5
5
5
5
5
5
5
5
5
5
5
5
5
5
5
5
5
5
5
5
5
5
5
5
5
5
5
5
5
5
5
5
5
5
5
5
5
5
5
5
5
5
5
5
5
5
5
5
5
5
5
5
5
5
5
5
5
5
5
5
5
5
5
5
5
5
5
5
5
5
5
5
5
5
5
5
5
5
5
5
5
5
5
5
5
5
5
5
5
5
5
5
5
5
5
5
5
5
5
5
5
5
5
5
5
5
5
5
5
5
5
5
5
5
5
5
5
5
5
5
5
5
5
5
5
5
5
5
5
5
5
5
5
5
5
5
5
5
5
5
5
5
5
5
5
5
5
5
5
5
5
5
5
5
5
5
5
5
5
5
5
5
5
5
5
5
5
5
5
5
5
5
5
5
5
5
5
5
5
5
5
5
5
5
5
5
5
5
5
5
5
5
5
5
5
5
5
5
5
5
5
5
5
5
5
5
5
5
5
5
5
5
5
5
5
5
5
5
5
5
5
5
5
5
5
5
5
5
5
5
5
5
5
5
5
5
5
5
5
5
5
5
5
5
5
5
5
5
5
5
5
5
5
5
5
5
5
5
5
5
5
5
5
5
5
5
5
5
5
5
5
5
5
5
5
5
5
5
5
5
5
5
5
5
5
5
5
5
5
5
5
5
5
5
5
5
5
5
5
5
5
5
5
5
5
5
5
5
5
5
5
5
5
5
5
5
5
5
5
5
5
5
5
5
5
5
5
5
5
5
5
5
5
5
5
5
5
5
5
5
5
5
5
5
5
5
5
5
5
5
5
5
5
5
5
5
5
5
5
5
5
5
5
5
5
5
5
5
5
5
5
5
5
5
5
5
5
5
5
5
5
5
5
5
5
5
5
5
5
5
5
5
5
5
5
5
5
5
5
5
5
5
5
5
5
5
5
5
5
5
5
5
5
5
5
5
5
5
5
5
5
5
5
5
5
5
5
5
5
5
5
5
5
5
5
5
5
5
5
5
5
5
5
5
5
5
5
5
5
5
5
5
5
5
5
5
5
5
5
5
5
5
5
5
5
5
5
5
5
5
5
5
5
5
5
5
5
5
5
5
5
5
5
5
5
5
5
5
5
5
5
5
5
5
5
5
5
5
5
5
5
5
5
5
5
5
5
5
5
5
5
5
5
5
5
5
5
5
5
5
5
5
5
5
5
5
5
5
5
5
5
5
5
5
5
5
5
5
5
5
5
5
5
5
5
5
5
5
5
5
5
5
5
5
5
5
5
5
5
5
5
5
5
5
5
5
5
5
5
5
5
5
5
5
5
5
5
5
5
5
5
5
5
5
5
5
5
5
5
5
5
5
5
5
5
5
5
5
5
5
5
5
5
5
5
5
5
5
5
5
5
5
5
5
5
5
5
5
5
5
5
5
5
5
5
5
5
5
5
5
5
5
5
5
5
5
5
5
5
5
5
5
5
5
5
5
5
5
5
5
5
5
5
5
5
5
5
5
5
5
5
5
5
5
5
5
5
5
5
5
5
5
5
5
5
5
5
5
5
5
5
5
5
5
5
5
5
5
5
5
5
5
5
5
5
5
5
5
5
5
5
5
5
5
5
5
5
5
5
5
5
5
5
5
5
5
5
5
5
5
5
5
5
5
5
5
5
5
5
5
5
5
5
5
5
5
5
5
5
5
5
5
5
5
5
5
5
5
5
5
5
5
5
5
5
5
5
5
5
5
5
5
5
5
5
5
5
5
5
5
5
5
5
5
5
5
5
5
5
5
5
5
5
5
5
5
5
5
5
5
5
5
5
5
5
5
5
5
5
5
5
5
5
5
5
5
5
5
5
5
5
5
5
5
5
5
5
5
5
5
5
5
5
5
5
5
5
5
5
5
5
5
5
5
5
5
5
5
5
5
5
5
5
5
5
5
5
5
5
5
5
5
5
5
5
5
5
5
5
5
5
5
5
5
5
5
5
5
5
5
5
5
5
5
5
5
5
5
5
5
5
5
5
5
5
5
5
5
5
5
5
5
5
5
5
5
5
5
5
5
5
5
5
5
5
5
5
5
5
5
5
5
5
5
5
5
5
5
5
5
5
5
5
5
5
5
5
5
5
5
5
5
5
5
5
5
5
5
5
5
5
5
5
5
5
5
5
5
5
5
5
5
5
5
5
5
5
5
5
5
5
5
5
5
5
5
5
5
5
5
5
5
5
5
5
5
5
5
5
5
5
5
5
5
5
5
5
5
5
5
5
5
5
5
5
5
5
5
5
5
5
5
5
5
5
5
5
5
5
5
5
5
5
5
5
5
5
5
5
5
5
5
5
5
5
5
5
5
5
5
5
5
5
5
5
5
5
5
5
5
5
5
5
5
5
5
5
5
5
5
5
5
5
5
5
5
5
5
5
5
5
5
5
5
5
5
5
5
5
5
5
5
5
5
5
5
5
5
5
5
5
5
5
5
5
5
5
5
5
5
5
5
5
5
5
5
5
5
5
5
5
5
5
5
5
5
5
5
5
5
5
5
5
5
5
5
5
5
5
5
5
5
5
5
5
5
5
5
5
5
5
5
5
5
5
5
5
5
5
5
5
5
5
5
5
5
5
5
5
5
5
5
5
5
5
5
5
5
5
5
5
5
5
5
5
5
5
5
5
5
5
5
5
5
5
5
5
5
5
5
5
5
5
5
5
5
5
5
5
5
5
5
5
5
5
5
5
5
5
5
5
5
5
5
5
5
5
5
5
5
5
5
5
5
5
5
5
5
5
5
5
5
5
5
5
5
5
5
5
5
5
5
5
5
5
5
5
5
5
5
5
5
5
5
5
5
5
5
5
5
5
5
5
5
5
5
5
5
5
5
5
5
5
5
5
5
5
5
5
5
5
5
5
5
5
5
5
5
5
5
5
5
5
5
5
5
5
5
5
5
5
5
5
5
5
5
5
5
5
5
5
5
5
5
5
5
5
5
5
5
5
5
5
5
5
5
5
5
5
5
5
5
5
5
5
5
5
5
5
5
5
5
5
5
5
5
5
5
5
5
5
5
5
5
5
5
5
5
5
5
5
5
5
5
5
5
5
5
5
5
5
5
5
5
5
5
5
5
5
5
5
5
5
5
5
5
5
5
5
5
5
5
5
5
5
5
5
5
5
5
5
5
5
5
5
5
5
5
5
5
5
5
5
5
5
5
5
5
5
5
5
5
5
5
5
5
5
5
5
5
5
5
5
5
5
5
5
5
5
5
5
5
5
5
5
5
5
5
5
5
5
5
5
5
5
5
5
5
5
5
5
5
5
5
5
5
5
5
5
5
5
5
5
5
5
5
5
5
5
5
5
5
5
5
5
5
5
5
5
5
5
5
5
5
5
5
5
5
5
5
5
5
5
5
5
5
5
5
5
5
5
5
5
5
5
5
5
5
5
5
5
5
5
5
5
5
5
5
5
5
5
5
5
5
5
5
5
5
5
5
5
5
5
5
5
5
5
5
5
5
5
5
5
5
5
5
5
5
5
5
5
5
5
5
5
5
5
5
5
5
5
5
5
5
5
5
5
5
5
5
5
5
5
5
5
5
5
5
5
5
5
5
5
5
5
5
5
5
5
5
5
5
5
5
5
5
5
5
5
5
5
5
5
5
5
5
5
5
5
5
5
5
5
5
5
5
5
5
5
5
5
5
5
5
5
5
5
5
5
5
5
5
5
5
5
5
5
5
5
5
5
5
5
5
5
5
5
5
5
5
5
5
5
5
5
5
5
5
5
5
5
5
5
5
5
5
5
5
5
5
5
5
5
5
5
5
5
5
5
5
5
5
5
5
5
5
5
5
5
5
5
5
5
5
5
5
5
5
5
5
5
5
5
5
5
5
5
5
5
5
5
5
5
5
5
5
5
5
5
5
5
5
5
5
5
5
5
5
5
5
5
5
5
5
5
5
5
5
5
5
5
5
5
5
5
5
5
5
5
5
5
5
5
5
5
5
5
5
5
5
5
5
5
5
5
5
5
5
5
5
5
5
5
5
5
5
5
5
5
5
5
5
5
5
5
5
5
5
5
5
5
5
5
5
5
5
5
5
5
5
5
5
5
5
5
5
5
5
5
5
5
5
5
5
5
5
5
5
5
5
5
5
5
5
5
5
5
5
5
5
5
5
5
5
5
5
5
5
5
5
5
5
5
5
5
5
5
5
5
5
5
5
5
5
5
5
5
5
5
5
5
5
5
5
5
5
5
5
5
5
5
5
5
5
5
5
5
5
5
5
5
5
5
5
5
5
5
5
5
5
5
5
5
5
5
5
5
5
5
5
5
5
5
5
5
5
5
5
5
5
5
5
5
5
5
5
5
5
5
5
5
5
5
5
5
5
5
5
5
5
5
5
5
5
5
5
5
5
5
5
5
5
5
5
5
5
5
5
5
5
5
5
5
5
5
5
5
5
5
5
5
5
5
5
5
5
5
5
5
5
5
5
5
5
5
5
5
5
5
5
5
5
5
5
5
5
5
5
5
5
5
5
5
5
5
5
5
5
5
5
5
5
5
5
5
5
5
5
5
5
5
5
5
5
5
5
5
5
5
5
5
5
5
5
5
5
5
5
5
5
5
5
5
5
5
5
5
5
5
5
5
5
5
5
5
5
5
5
5
5
5
5
5
5
5
5
5
5
5
5
5
5
5
5
5
5
5
5
5
5
5
5
5
5
5
5
5
5
5
5
5
5
5
5
5
5
5
5
5
5
5
5
5
5
5
5
5
5
5
5
5
5
5
5
5
5
5
5
5
5
5
5
5
5
5
5
5
5
5
5
5
5
5
5
5
5
5
5
5
5
5
5
5
5
5
5
5
5
5
5
5
5
5
5
5
5
5
5
5
5
5
5
5
5
5
5
5
5
5
5
5
5
5
5
5
5
5
5
5
5
5
5
5
5
5
5
5
5
5
5
5
5
5
5
5
5
5
5
5
5
5
5
5
5
5
5
5
5
5
5
5
5
5
5
5
5
5
5
5
5
5
5
5
5
5
5
5
5
5
5
5
5
5
5
5
5
5
5
5
5
5
5
5
5
5
5
5
5
5
5
5
5
5
5
5
5
5
5
5
5
5
5
5
5
5
5
5
5
5
5
5
5
5
5
5
5
5
5
5
5
5
5
5
5
5
5
5
5
5
5
5
5
5
5
5
5
5
5
5
5
5
5
5
5
5
5
5
5
5
5
5
5
5
5
5
5
5
5
5
5
5
5
5
5
5
5
5
5
5
5
5
5
5
5
5
5
5
5
5
5
5
5
5
5
5
5
5
5
5
5
5
5
5
5
5
5
5
5
5
5
5
5
5
5
5
5
5
5
5
5
5
5
5
5
5
5
5
5
5
5
5
5
5
5
5
5
5
5
5
5
5
5
5
5
5
5
5
5
5
5
5
5
5
5
5
5
5
5
5
5
5
5
5
5
5
5
5
5
5
5
5
5
5
5
5
5
5
5
5
5
5
5
5
5
5
5
5
5
5
5
5
5
5
5
5
5
5
5
5
5
5
5
5
5
5
5
5
5
5
5
5
5
5
5
5
5
5
5
5
5
5
5
5
5
5
5
5
5
5
5
5
5
5
5
5
5
5
5
5
5
5
5
5
5
5
5
5
5
5
5
5
5
5
5
5
5
5
5
5
5
5
5
5
5
5
5
5
5
5
5
5
5
5
5
5
5
5
5
5
5
5
5
5
5
5
5
5
5
5
5
5
5
5
5
5
5
5
5
5
5
5
5
5
5
5
5
5
5
5
5
5
5
5
5
5
5
5
5
5
5
5
5
5
5
5
5
5
5
5
5
5
5
5
5
5
5
5
5
5
5
5
5
5
5
5
5
5
5
5
5
5
5
5
5
5
5
5
5
5
5
5
5
5
5
5
5
5
5
5
5
5
5
5
5
5
5
5
5
5
5
5
5
5
5
5
5
5
5
5
5
5
5
5
5
5
5
5
5
5
5
5
5
5
5
5
5
5
5
5
5
5
5
5
5
5
5
5
5
5
5
5
5
5
5
5
5
5
5
5
5
5
5
5
5
5
5
5
5
5
5
5
5
5
5
5
5
5
5
5
5
5
5
5
5
5
5
5
5
5
5
5
5
5
5
5
5
5
5
5
5
5
5
5
5
5
5
5
5
5
5
5
5
5
5
5
5
5
5
5
5
5
5
5
5
5
5
5
5
5
5
5
5
5
5
5
5
5
5
5
5
5
5
5
5
5
5
5
5
5
5
5
5
5
5
5
5
5
5
5
5
5
5
5
5
5
5
5
5
5
5
5
5
5
5
5
5
5
5
5
5
5
5
5
5
5
5
5
5
5
5
5
5
5
5
5
5
5
5
5
5
5
5
5
5
5
5
5
5
5
5
5
5
5
5
5
5
5
5
5
5
5
5
5
5
5
5
5
5
5
5
5
5
5
5
5
5
5
5
5
5
5
5
5
5
5
5
5
5
5
5
5
5
5
5
5
5
5
5
5
5
5
5
5
5
5
5
5
5
5
5
5
5
5
5
5
5
5
5
5
5
5
5
5
5
5
5
5
5
5
5
5
5
5
5
5
5
5
5
5
5
5
5
5
5
5
5
5
5
5
5
5
5
5
5
5
5
5
5
5
5
5
5
5
5
5
5
5
5
5
5
5
5
5
5
5
5
5
5
5
5
5
5
5
5
5
5
5
5
5
5
5
5
5
5
5
5
5
5
5
5
5
5
5
5
5
5
5
5
5
5
5
5
5
5
5
5
5
5
5
5
5
5
5
5
5
5
5
5
5
5
5
5
5
5
5
5
5
5
5
5
5
5
5
5
5
5
5
5
5
5
5
5
5
5
5
5
5
5
5
5
5
5
5
5
5
5
5
5
5
5
5
5
5
5
5
5
5
5
5
5
5
5
5
5
5
5
5
5
5
5
5
5
5
5
5
5
5
5
5
5
5
5
5
5
5
5
5
5
5
5
5
5
5
5
5
5
5
5
5
5
5
5
5
5
5
5
5
5
5
5
5
5
5
5
5
5
5
5
5
5
5
5
5
5
5
5
5
5
5
5
5
5
5
5
5
5
5
5
5
5
5
5
5
5
5
5
5
5
5
5
5
5
5
5
5
5
5
5
5
5
5
5
5
5
5
5
5
5
5
5
5
5
5
5
5
5
5
5
5
5
5
5
5
5
5
5
5
5
5
5
5
5
5
5
5
5
5
5
5
5
5
5
5
5
5
5
5
5
5
5
5
5
5
5
5
5
5
5
5
5
5
5
5
5
5
5
5
5
5
5
5
5
5
5
5
5
5
5
5
5
5
5
5
5
5
5
5
5
5
5
5
5
5
5
5
5
5
5
5
5
5
5
5
5
5
5
5
5
5
5
5
5
5
5
5
5
5
5
5
5
5
5
5
5
5
5
5
5
5
5
5
5
5
5
5
5
5
5
5
5
5
5
5
5
5
5
5
5
5
5
5
5
5
5
5
5
5
5
5
5
5
5
5
5
5
5
5
5
5
5
5
5
5
5
5
5
5
5
5
5
5
5
5
5
5
5
5
5
5
5
5
5
5
5
5
5
5
5
5
5
5
5
5
5
5
5
5
5
5
5
5
5
5
5
5
5
5
5
5
5
5
5
5
5
5
5
5
5
5
5
5
5
5
5
5
5
5
5
5
5
5
5
5
5
5
5
5
5
5
5
5
5
5
5
5
5
5
5
5
5
5
5
5
5
5
5
5
5
5
5
5
5
5
5
5
5
5
5
5
5
5
5
5
5
5
5
5
5
5
5
5
5
5
5
5
5
5
5
5
5
5
5
5
5
5
5
5
5
5
5
5
5
5
5
5
5
5
5
5
5
5
5
5
5
5
5
5
5
5
5
5
5
5
5
5
5
5
5
5
5
5
5
5
5
5
5
5
5
5
5
5
5
5
5
5
5
5
5
5
5
5
5
5
5
5
5
5
5
5
5
5
5
5
5
5
5
5
5
5
5
5
5
5
5
5
5
5
5
5
5
5
5
5
5
5
5
5
5
5
5
5
5
5
5
5
5
5
5
5
5
5
5
5
5
5
5
5
5
5
5
5
5
5
5
5
5
5
5
5
5
5
5
5
5
5
5
5
5
5
5
5
5
5
5
5
5
5
5
5
5
5
5
5
5
5
5
5
5
5
5
5
5
5
5
5
5
5
5
5
5
5
5
5
5
5
5
5
5
5
5
5
5
5
5
5
5
5
5
5
5
5
5
5
5
5
5
5
5
5
5
5
5
5
5
5
5
5
5
5
5
5
5
5
5
5
5
5
5
5
5
5
5
5
5
5
5
5
5
5
5
5
5
5
5
5
5
5
5
5
5
5
5
5
5
5
5
5
5
5
5
5
5
5
5
5
5
5
5
5
5
5
5
5
5
5
5
5
5
5
5
5
5
5
5
5
5
5
5
5
5
5
5
5
5
5
5
5
5
5
5
5
5
5
5
5
5
5
5
5
5
5
5
5
5
5
5
5
5
5
5
5
5
5
5
5
5
5
5
5
5
5
5
5
5
5
5
5
5
5
5
5
5
5
5
5
5
5
5
5
5
5
5
5
5
5
5
5
5
5
5
5
5
5
5
5
5
5
5
5
5
5
5
5
5
5
5
5
5
5
5
5
5
5
5
5
5
5
5
5
5
5
5
5
5
5
5
5
5
5
5
5
5
5
5
5
5
5
5
5
5
5
5
5
5
5
5
5
5
5
5
5
5
5
5
5
5
5
5
5
5
5
5
5
5
5
5
5
5
5
5
5
5
5
5
5
5
5
5
5
5
5
5
5
5
5
5
5
5
5
5
5
5
5
5
5
5
5
5
5
5
5
5
5
5
5
5
5
5
5
5
5
5
5
5
5
5
5
5
5
5
5
5
5
5
5
5
5
5
5
5
5
5
5
5
5
5
5
5
5
5
5
5
5
5
5
5
5
5
5
5
5
5
5
5
5
5
5
5
5
5
5
5
5
5
5
5
5
5
5
5
5
5
5
5
5
5
5
5
5
5
5
5
5
5
5
5
5
5
5
5
5
5
5
5
5
5
5
5
5
5
5
5
5
5
5
5
5
5
5
5
5
5
5
5
5
5
5
5
5
5
5
5
5
5
5
5
5
5
5
5
5
5
5
5
5
5
5
5
5
5
5
5
5
5
5
5
5
5
5
5
5
5
5
5
5
5
5
5
5
5
5
5
5
5
5
5
5
5
5
5
5
5
5
5
5
5
5
5
5
5
5
5
5
5
5
5
5
5
5
5
5
5
5
5
5
5
5
5
5
5
5
5
5
5
5
5
5
5
5
5
5
5
5
5
5
5
5
5
5
5
5
5
5
5
5
5
5
5
5
5
5
5
5
5
5
5
5
5
5
5
5
5
5
5
5
5
5
5
5
5
5
5
5
5
5
5
5
5
5
5
5
5
5
5
5
5
5
5
5
5
5
5
5
5
5
5
5
5
POINT_DATA 2538
VECTORS disp float
1.9979434376958857e-11 5.2450149354973954e-11 0.0
4.2791012285377445e-11 -1.1713183924916502e-10 0.0
0.004799999982555639 4.732365988782902e-11 0.0
0.004799999956595436 -1.2002669820624595e-10 0.0
0.0015077519011605452 0.0006345051021308258 0.0
0.003456227848307853 0.000438584972774205 0.0
0.0023659004334165537 0.00015602903118445237 0.0
5.849026990630819e-12 6.213590296921679e-12 0.0
1.040420581847607e-11 1.3125940340909279e-11 0.0
9.732102742708168e-12 8.403522089777211e-12 0.0
9.712883890487701e-12 7.84229429950712e-12 0.0
9.282680424211902e-12 5.999910576721513e-12 0.0
8.799811374385705e-12 4.463317479286379e-12 0.0
8.357195133845245e-12 2.758734515397995e-12 0.0
7.995594478965865e-12 9.395716105411494e-13 0.0
7.115874323564118e-12 -1.0737086096973492e-12 0.0
7.441988628477995e-12 -2.848196348430998e-12 0.0
7.09174687697208e-12 -4.852104792400341e-12 0.0
7.011015602948607e-12 -6.974268762779858e-12 0.0
7.1222677139291544e-12 -9.081198002077787e-12 0.0
6.984694909194944e-12 -1.1103583884580707e-11 0.0
7.284162636240983e-12 -1.3511722202035836e-11 0.0
7.2302220333499135e-12 -1.559317965385419e-11 0.0
7.575702919769604e-12 -1.7987634373478065e-11 0.0
7.641760620221563e-12 -2.0736543345763123e-11 0.0
7.9202541894922e-12 -2.330123916543014e-11 0.0
8.205128314053337e-12 -2.6331732355558157e-11 0.0
8.588697238309307e-12 -2.9692781056993306e-11 0.0
9.348429040802566e-12 -3.36644098063932e-11 0.0
9.316474402689762e-12 -3.787129404146345e-11 0.0
1.2524331332490703e-11 -4.715219391095689e-11 0.0
5.2248151958753035e-12 -4.342586867285928e-11 0.0
5.88204224327353e-5 -8.072118892007886e-5 0.0
0.00010133644709059186 -0.0001397987306743137 0.0
0.00014256208439961736 -0.00019148480682799662 0.0
0.00018209158520696348 -0.0002385991112534877 0.0
0.0002204646924396007 -0.0002824813260634955 0.0
0.00025848756606141 -0.00032416314351073284 0.0
0.00029678015591200744 -0.0003638292720704519 0.0
0.00033497584875020873 -0.0004017736637400868 0.0
0.0003734021819956236 -0.000438313896018576 0.0
0.00041214142964140913 -0.0004734637911059497 0.0
0.000451219578282533 -0.0005075027286221095 0.0
0.000490909525081318 -0.0005404567427053504 0.0
0.0005309077444625403 -0.0005723193543902742 0.0
0.0005714223228958119 -0.0006033178929690962 0.0
0.000612679902903155 -0.0006334214830134569 0.0
0.0006542293590896904 -0.0006625774579002443 0.0
0.0006963547516703485 -0.0006909479310979003 0.0
0.0007390356979791611 -0.000718412134456083 0.0
0.0007822448686246075 -0.0007451128856555514 0.0
0.000826001850605773 -0.000771050762581172 0.0
0.000870358446985003 -0.0007962299082807768 0.0
0.0009152007574093622 -0.0008206246832066838 0.0
0.0009607879734140569 -0.0008443639622175296 0.0
0.001006706050274642 -0.0008672879504130462 0.0
0.0010534167905064064 -0.0008895341179216919 0.0
0.0011004202580385941 -0.000910976059556121 0.0
0.0011480377574465868 -0.0009317469715699608 0.0
0.00119610120748202 -0.0009516987731608924 0.0
0.0012448596738484498 -0.0009710138351912596 0.0
0.001293882165496202 -0.0009895473073008967 0.0
0.0013435829297176345 -0.001007407724279082 0.0
0.0013936877413183973 -0.0010244605870248522 0.0
0.001444306053413609 -0.0010407990905943632 0.0
0.0014952821794316851 -0.001056358209035552 0.0
0.0015468886337673567 -0.0010712249315275246 0.0
0.0015987098607418474 -0.0010852593090189618 0.0
0.001651004675690971 -0.001098548608417722 0.0
0.001703638889572676 -0.0011110042073769475 0.0
0.0017566664481830673 -0.0011226606165736061 0.0
0.0018100003086513146 -0.0011335801815181533 0.0
0.0018636085821247723 -0.0011436152751181663 0.0
0.0019175529574194565 -0.0011529186428014483 0.0
0.0019717673973603505 -0.0011613505853111659 0.0
0.002026141700081866 -0.001169024982217739 0.0
0.002080767955327495 -0.0011757652309073738 0.0
0.002135403479863496 -0.0011817296131249567 0.0
0.0021902484421270126 -0.0011868706785615039 0.0
0.002245119947757335 -0.0011910887805695871 0.0
0.002300008426563209 -0.0011945355011010294 0.0
0.0023550359469356654 -0.0011970531299892767 0.0
0.002409533169348344 -0.0011985018017201291 0.0
0.002464525465362243 -0.0011992482153699725 0.0
0.002517877254121965 -0.0011986902206679898 0.0
0.0025721182778890993 -0.0011972046834950805 0.0
0.002624003851565323 -0.0011943930394693525 0.0
0.002677611611760406 -0.0011905573741790496 0.0
0.002729783194140601 -0.0011853203951779933 0.0
0.0027822421915312642 -0.00117821344119219 0.0
0.002835028045990479 -0.001169911313095858 0.0
0.002888308664412754 -0.0011599961291259195 0.0
0.0029416497997039673 -0.0011491477439882082 0.0
0.0029951900825620436 -0.0011371190484596265 0.0
0.0030487286809889346 -0.0011242790674573916 0.0
0.0031021787537971173 -0.001110368607275298 0.0
0.0031555528173530427 -0.001095579613447371 0.0
0.0032086992882465882 -0.0010801940346281318 0.0
0.003261359724919041 -0.001063934789876694 0.0
0.003313665696989508 -0.0010470282207703456 0.0
0.0033656977681683505 -0.0010293183698051422 0.0
0.0034173761925003873 -0.00101080071244988 0.0
0.003468465451540584 -0.0009916588510205282 0.0
0.003519396147014096 -0.0009717049364075236 0.0
0.0035696291394923855 -0.0009510192599616844 0.0
0.0036194038348647175 -0.0009297133615158046 0.0
0.0036688857846495604 -0.0009075397754697397 0.0
0.0037176366944781233 -0.000884760076159194 0.0
0.0037660346095572425 -0.0008612525079823546 0.0
0.0038138771528256695 -0.0008370117088220887 0.0
0.003861309838997335 -0.0008120484993635097 0.0
0.003908235586220595 -0.0007862503886730927 0.0
0.003954716272561314 -0.000759663493090205 0.0
0.004000491155770633 -0.0007324045620825455 0.0
0.004045897357445181 -0.000704370710638436 0.0
0.004090885367362511 -0.0006754864478119934 0.0
0.004135286980418527 -0.000645768159338123 0.0
0.0041792902356399386 -0.0006152477558972508 0.0
0.0042230040403335375 -0.0005837218022152758 0.0
0.004266135612432171 -0.0005512243031767619 0.0
0.0043087972555247295 -0.0005178062590347888 0.0
0.004351335713742283 -0.00048328305513958267 0.0
0.004393707056836689 -0.0004474901525689377 0.0
0.004435669057592688 -0.0004103465817829596 0.0
0.004477326059193674 -0.00037178540600685516 0.0
0.0045190522030442055 -0.0003315335629026365 0.0
0.0045613499468301535 -0.00028915957090117517 0.0
0.004603646651258573 -0.0002443864055022746 0.0
0.004646459326956698 -0.00019621750321878361 0.0
0.00469189842284358 -0.00014319114500140997 0.0
0.004738579646619632 -8.258805570699825e-5 0.0
0.004799999994224785 -4.135868787868785e-11 0.0
0.004799999986775865 -4.578517365476771e-11 0.0
0.00479999999035414 -3.3845417905524306e-11 0.0
0.004799999990252928 -3.040303701724707e-11 0.0
0.004799999990810378 -2.6331852395518957e-11 0.0
0.004799999991253346 -2.3072779315078778e-11 0.0
0.004799999991408705 -2.044223881615388e-11 0.0
0.004799999991714784 -1.806355988520206e-11 0.0
0.004799999991784488 -1.5815194216236962e-11 0.0
0.004799999991910764 -1.361719440179228e-11 0.0
0.004799999992280431 -1.1837658947604907e-11 0.0
0.004799999992127128 -9.493357473436481e-12 0.0
0.004799999992289602 -7.746604262742973e-12 0.0
0.004799999992340334 -5.723778675790787e-12 0.0
0.004799999992318674 -3.794426038168808e-12 0.0
0.0047999999922221925 -1.791267351480789e-12 0.0
0.00479999999219449 1.4254917784422548e-13 0.0
0.004799999991468996 2.276541096762101e-12 0.0
0.004799999991905757 3.96173218915763e-12 0.0
0.004799999990778133 6.0598743772916585e-12 0.0
0.004799999990758551 7.423481023917877e-12 0.0
0.0047999999903358395 8.902850107363992e-12 0.0
0.004799999990711584 9.368483932272433e-12 0.0
0.004799999990404059 1.3287592096801381e-11 0.0
0.004799999994808838 6.617072056462981e-12 0.0
0.0044504832869455115 0.00027856066728157837 0.0
0.004141086163061679 0.0004059622065197003 0.0
0.0038558151368077707 0.0004579109737167539 0.0
0.003613804432005684 0.0004579849403322949 0.0
0.003447175270840144 0.00029135273081493606 0.0
0.003422388050372026 0.00021287824372106742 0.0
0.003373273310338093 0.00017530657690812491 0.0
0.0033139885038673163 0.00015844320517278675 0.0
0.003243475566982784 0.00015565420808498481 0.0
0.0031656365872189 0.000158262829368676 0.0
0.0030818965162789113 0.00016281798201778263 0.0
0.0029938383844079286 0.00016985425213932463 0.0
0.002899845369682562 0.00017567283155494787 0.0
0.002799113664255181 0.0001792685453788954 0.0
0.0026869436701392247 0.0001803567333200832 0.0
0.002551583959074862 0.0001805199247253698 0.0
0.002184669775850055 0.00019920326049235721 0.0
0.0020573718047479064 0.00021085689834219877 0.0
0.0019524675204709587 0.00021387133617142696 0.0
0.0018611060644657007 0.00021518293805419282 0.0
0.0017784058317693344 0.0002165002360058799 0.0
0.0017036766117203314 0.00021885329665175514 0.0
0.0016367837223225238 0.00022384129740625906 0.0
0.0015799710684937238 0.00023370375427671965 0.0
0.0015356757812025 0.00025476795546463393 0.0
0.0015057295782041737 0.00029282386877852004 0.0
0.0014943962545223902 0.0003583108723775941 0.0
0.001497112467090567 0.0004680769137593729 0.0
0.0013180985830646265 0.0006389014823191216 0.0
0.0010559326417990083 0.0005953706843298088 0.0
0.0007322037172079328 0.0004933925971301393 0.0
0.0003859928610435957 0.00032432361822615647 0.0
0.0012554956815922658 -0.0009297512382812565 0.0
0.003456652235194142 -0.0009488922963348517 0.0
0.001614984184277377 -0.0010474421795551659 0.0
0.0030840093968328816 -0.0010717491941494425 0.0
0.0019981473183107155 -0.0011234022546268406 0.0
0.0027006359015354 -0.001137264983886241 0.0
0.002326703746977823 -0.0011513711030976701 0.0
0.0037588302778051056 -0.0008256474600987942 0.0
0.000977573214720545 -0.0008165114665925889 0.0
0.003982673819356932 -0.0007042965925759448 0.0
0.0007530544382227331 -0.0006957736056372216 0.0
7.783501743848741e-5 -1.547848458216497e-5 0.0
0.00472105967921673 -1.5213367824892067e-5 0.0
0.002583394044496741 0.0001998349077136593 0.0
0.0029613536697585922 0.00019558635227054185 0.0
0.002150494261184856 0.00020907187596009687 0.0
0.0017985825333140706 0.00023525347717716176 0.0
0.004211207204090465 -0.000562198092062334 0.0
0.0005508453548814101 -0.000562850140691776 0.0
5.274165613454974e-5 -2.8210362490017216e-5 0.0
0.0047458398227375855 -2.6412105285297157e-5 0.0
0.0046861400482890595 3.393873637297436e-6 0.0
0.00010530434630462825 4.084486025958815e-6 0.0
0.004383734073612129 -0.00042866100102960874 0.0
0.0003854141666239088 -0.00042462338793295925 0.0
0.0032205432657917967 0.0001847158699428113 0.0
0.0015771139375080618 0.00024379659636531128 0.0
3.890946887516327e-5 -3.0962389150988966e-5 0.0
0.004757332423025487 -3.0132562613666886e-5 0.0
0.0018361849807813377 -0.0010955452620798097 0.0
0.002160624256510553 -0.0011415079948276466 0.0
0.0029203638969226274 -0.0011068500158137127 0.0
0.002495996758696021 -0.0011501442597907322 0.0
0.003245199592348783 -0.0010246842619261007 0.0
0.0035995701001624914 -0.000897638511012838 0.0
0.0014713314378415662 -0.0010068451394521392 0.0
0.0011167418429841123 -0.0008817945515319848 0.0
0.0045048090979499696 -0.0003218475960441441 0.0
0.00026754968263665836 -0.0003143378976677251 0.0
0.004654885334739943 3.0227232234667756e-5 0.0
0.00013092611010613887 2.572620774890136e-5 0.0
0.004764334115077804 -3.3377247711979586e-5 0.0
3.5870776587507476e-5 -3.773209385391818e-5 0.0
0.0033719203965903418 0.00019194857593172427 0.0
0.0014615617427674295 0.0002823454273456112 0.0
0.0045972971381703686 5.6193896747656975e-5 0.0
0.00018042012423162242 5.038448403327987e-5 0.0
6.455261431190255e-5 -2.3423149302044658e-5 0.0
0.004733500619481848 -2.2575209275798215e-5 0.0
0.0027713876577898605 0.00020414850309865686 0.0
0.0019706794511774235 0.00023436393832642005 0.0
0.0001477279933172352 -0.00018155921029988767 0.0
0.004642476348723345 -0.00018220190683218776 0.0
0.0033471188610778983 -0.0009948651978988602 0.0
0.002599325955429467 -0.0011482989835723228 0.0
0.0017321721660013393 -0.001073842989281053 0.0
0.001360768482605058 -0.0009743147584364905 0.0
0.002813414607306394 -0.001123216527256636 0.0
0.003846701117946501 -0.0007818199790895338 0.0
0.0008872201765744345 -0.0007693836307881446 0.0
0.004078285446056464 -0.000649842623769511 0.0
0.0006628780317042778 -0.000637476537008603 0.0
0.0004632453830815231 -0.0004923418413936973 0.0
0.004298217224693291 -0.0004969723291563593 0.0
0.0008846467567567587 0.0003497244900153557 0.0
0.003991139949458696 0.0003001388322039763 0.0
0.004765405726636565 -3.788724371311651e-5 0.0
3.136384493183001e-5 -3.8131570555843346e-5 0.0
0.0013958427792711287 0.0003916812260933717 0.0
0.0034875532078713933 0.00026031141404591414 0.0
0.00020286822189017736 8.193894291907496e-5 0.0
0.004592604221688055 7.901963047934774e-5 0.0
6.437092340251836e-5 -8.142515027871103e-5 0.0
0.004729356349218301 -8.402064428946054e-5 0.0
0.003731259577351462 0.00034379144746819995 0.0
0.0038235162197529232 0.00026590018299156625 0.0
0.004116734240073165 0.00020814465983115717 0.0
0.003951514847277974 0.00021517701471656801 0.0
0.003727094580149358 0.00023979537639493665 0.0
0.003810195136108532 0.00022182666212762516 0.0
0.004024842813620016 0.0001897465154053199 0.0
0.0038910119927114996 0.00020262329932937013 0.0
0.004093603359301731 0.00016689878853801045 0.0
0.003969508909427138 0.000178791932887789 0.0
0.0037795565775364825 0.0002085566181872742 0.0
0.003851222795640749 0.00018397805189958926 0.0
0.003687301261030154 0.00020732116259565526 0.0
0.003744974348074392 0.00018124786032711033 0.0
0.0035951973925953196 0.0002008502697162004 0.0
0.0036470819836074823 0.0001702692826806256 0.0
0.0025205207171462942 0.00013523771933174623 0.0
0.0023624422587046907 0.00010884160788732613 0.0
0.0024869870112884528 9.679646785912609e-5 0.0
0.0023589683726155976 7.779769019176915e-5 0.0
0.0024673363092582025 6.73874242552576e-5 0.0
0.002357413413413711 5.288518842996246e-5 0.0
0.0024546452954988195 4.251918234087669e-5 0.0
0.002355548411993692 2.9995788876521053e-5 0.0
0.0024454013238398246 2.0093877678063953e-5 0.0
0.0023538859448650556 8.842881792629865e-6 0.0
0.002438387183794591 -5.151431652588773e-7 0.0
0.002352624642140562 -1.0900384553983858e-5 0.0
0.002432993974595091 -2.0411118195788692e-5 0.0
0.00235381771648652 -3.0025284645203683e-5 0.0
0.0024287914516533523 -3.9456422014718e-5 0.0
0.002352917662035721 -4.8720127486321265e-5 0.0
0.0024249893487572325 -5.797772299928208e-5 0.0
0.002349650505932855 -6.700376604643868e-5 0.0
0.002421268614239342 -7.62010383381874e-5 0.0
0.00234820332762574 -8.496443442244319e-5 0.0
0.0024181897132369568 -9.427271438822229e-5 0.0
0.002347075786866012 -0.0001028632869061714 0.0
0.002413173228323915 -0.0001121780138852547 0.0
0.002345557817300213 -0.00012082583083414043 0.0
0.0024102552348046406 -0.00013021478443538646 0.0
0.0023453355051165467 -0.0001384682201281257 0.0
0.002407784191861721 -0.00014835363486804138 0.0
0.0023407893667055945 -0.00015552983970659908 0.0
0.0024046684236528285 -0.0001666043357816495 0.0
0.0023238484377109143 -0.00017400531371553548 0.0
0.0024059364592146763 -0.0001854631671602141 0.0
0.0023379288024820625 -0.00019410139985206454 0.0
0.0024031913431110273 -0.0002044082427050385 0.0
0.00233900009488699 -0.00021358241472012226 0.0
0.002401548254910292 -0.0002239310826967838 0.0
0.0023418706877950555 -0.00023329058704203216 0.0
0.002399666097697837 -0.00024380123302566247 0.0
0.0023416759462044335 -0.00025373140175393295 0.0
0.0022693670576053866 2.0728797325156605e-5 0.0
0.002397771877908292 -0.00026426352252047636 0.0
0.0022762315057159085 -7.463311718924326e-5 0.0
0.0022635289124326207 -0.00018868254586232875 0.0
0.002336755106003421 -0.0002744296215847797 0.0
0.002395450035416686 -0.0002853024534906035 0.0
0.002331964514755729 -0.0002964805158091022 0.0
0.002274137395688077 -0.00028356227257353195 0.0
0.002267895073650387 -0.00030673145058730296 0.0
0.0023908004875764256 -0.0003082358750123878 0.0
0.0024550027220571124 -0.00029623825557173396 0.0
0.0024648974799185218 -0.00019449612872334535 0.0
0.00245068241081099 -0.0003198570283700898 0.0
0.002518673888919371 -0.0003055807376742432 0.0
0.002512111144128498 -0.00033139567761775586 0.0
0.0022106307160453076 -0.00029318319495299686 0.0
0.0022067289342588598 -0.0003159704403160112 0.0
0.002582069570324191 -0.0003158347859831937 0.0
0.002145798645318296 -0.0003016594448532247 0.0
0.0021456681635998705 -0.0003256413289403225 0.0
0.0025766193024532647 -0.0003419852356087103 0.0
0.0026442545696848847 -0.00032761599959396377 0.0
0.0020805454197275527 -0.0003103379423029666 0.0
0.0020789151921311077 -0.0003351184124460655 0.0
0.0026402323780131097 -0.0003536479483881878 0.0
0.0027096012786210675 -0.00033840285616548407 0.0
0.0020155737000607968 -0.0003190669607888407 0.0
0.0020133806119078373 -0.0003454210019454684 0.0
0.0027054022953211776 -0.0003658340484693057 0.0
0.0027764376159604147 -0.0003490633217884289 0.0
0.0019510579158516699 -0.0003264898127284702 0.0
0.0019445465354400511 -0.0003537566161305187 0.0
0.0027731122847709368 -0.00037725484155317376 0.0
0.0028443432797807533 -0.0003595236568629816 0.0
0.0018801202649332723 -0.0003339995551478058 0.0
0.0018752909765468164 -0.00036295183391564593 0.0
0.0018072275775598725 -0.0003433644095442048 0.0
0.0018115901024960055 -0.00031270295950653124 0.0
0.0026954313706246463 -0.0003929579711589342 0.0
0.002840701292310781 -0.00038887996699631425 0.0
0.0029131643752290767 -0.0003698506862362373 0.0
0.002918002962900263 -0.00033977892194157354 0.0
0.0024796660669003353 -0.00010407373190821846 0.0
0.0029893874001228962 -0.00034958517748614755 0.0
0.002994848720876161 -0.00031844322284315025 0.0
0.0030682823707465583 -0.0003272917446013641 0.0
0.0018080427563590355 -0.000374766633107861 0.0
0.001736942708445903 -0.0003518471400734377 0.0
0.0018747680863250506 -0.0003941595068799596 0.0
0.0029074697545721684 -0.00040080668360607786 0.0
0.001738536086816845 -0.00038420338048425023 0.0
0.0016666547627700729 -0.0003595158494732723 0.0
0.0025089494054430133 -2.8448032505932715e-5 0.0
0.0016678766017673458 -0.000391335221871067 0.0
0.0015961857237612401 -0.0003662456890104904 0.0
0.0015975245803988745 -0.00039897782869974756 0.0
0.0015268251510845423 -0.0003715023150209375 0.0
0.0015239091432156977 -0.0003396037103752189 0.0
0.001450543585144066 -0.0003458026334634916 0.0
0.0014486292258019207 -0.00031210860505955483 0.0
0.0015196796936162407 -0.00040408808087043913 0.0
0.0013699949932328753 -0.00031876528723237855 0.0
0.0013674460478547033 -0.00028427253384301766 0.0
0.0015992934962290365 -0.00043373268706064204 0.0
0.0015330154100070084 -0.00044152344233563354 0.0
0.0012907471875741887 -0.0002882359287669953 0.0
0.001285608941965664 -0.0002547243802495044 0.0
0.0030758553549466365 -0.0002958300823105162 0.0
0.0031519901011436854 -0.000304305574538028 0.0
0.0016007399367854469 -0.00046904404180654835 0.0
0.0015351554984452793 -0.0004767058992889164 0.0
0.0031604471858598963 -0.00027194089479782956 0.0
0.003240004519337566 -0.00028074893326852717 0.0
0.0032283873919815536 -0.0003162603299408657 0.0
0.003316711106699678 -0.00029080982200597343 0.0
0.0033066877809935663 -0.00032726851977208206 0.0
0.0033948743896246004 -0.0002990433776717705 0.0
0.003389460942423773 -0.00033536833345342254 0.0
0.0034803132791777383 -0.00030347639422193586 0.0
0.003467420572736952 -0.00034061287972176143 0.0
0.0034857364345302452 -0.0002686979052666255 0.0
0.0035595589543349253 -0.00030938114621513 0.0
0.003542078449808755 -0.00034643027778520863 0.0
0.001602780975065692 -0.0005051036431570719 0.0
0.0012049669836511972 -0.0002579041861564428 0.0
0.0011983212747610347 -0.0002239980140239255 0.0
0.003457653728961669 -0.00037887054484783347 0.0
0.003529731471294055 -0.0003842487430760324 0.0
0.0036127265901021908 -0.00035134781407728194 0.0
0.0034513856389385205 -0.000418221177819714 0.0
0.0015386135525026065 -0.0005130536375890698 0.0
0.0036008884173265436 -0.0003887976402497691 0.0
0.003681860444626165 -0.00035499910269993015 0.0
0.0016045049336939543 -0.000542265608248887 0.0
0.001541435266182116 -0.0005505188157490136 0.0
0.0014766118600099804 -0.0005200944138073681 0.0
0.003669641209152136 -0.00039210926372399395 0.0
0.003749373283730336 -0.0003569855195214945 0.0
0.001605886588267603 -0.0005806330545961053 0.0
0.0016683431760445672 -0.0005718521738388095 0.0
0.0014800444737881144 -0.0005579093228330252 0.0
0.0014158402828419498 -0.0005264496542920405 0.0
0.0037349428663190805 -0.00039434938562444866 0.0
0.003816334976355237 -0.00035780213172359156 0.0
0.0038298963394974546 -0.0003215303380503272 0.0
0.003654902740440424 -0.0004310937026619393 0.0
0.0038967887806692653 -0.000321017016351212 0.0
0.003912706905807814 -0.00028563297112913454 0.0
0.0011130024202548137 -0.00022707543879836475 0.0
0.0011109378499308345 -0.00019220358019498705 0.0
0.0012131289019923386 -0.00019101785271555334 0.0
0.0011056403402537134 -0.0001582574982869125 0.0
0.0012034508574777448 -0.00015217466799921642 0.0
0.0010992654501693433 -0.00012307743634564755 0.0
0.0011941547110602083 -0.00011530107206402186 0.0
0.0016695287845648475 -0.0006106015420202058 0.0
0.0017305118787977623 -0.0006010995471815502 0.0
0.0014195650070062999 -0.0005645978626494644 0.0
0.0013559872808809337 -0.0005320099757239215 0.0
0.0038823575526035973 -0.00035738077920977697 0.0
0.0011030439540425608 -8.822667668084407e-5 0.0
0.001192599010862362 -7.895705448615106e-5 0.0
0.001731710208167258 -0.000639889880953601 0.0
0.0017913046432087294 -0.000630192283562511 0.0
0.0020885351740973575 -0.0003591540140713813 0.0
0.0039618036302445266 -0.0003193431905046556 0.0
0.0025534021207116596 6.0292547874347484e-5 0.0
0.0026568636573113943 0.00017752855112801346 0.0
0.0022780127495427996 -0.00012867907662781247 0.0
0.003244999500356206 -0.0002476208732376391 0.0
0.0010936580377642355 -5.140791231184101e-5 0.0
0.0011980113741778407 -4.132414281185807e-5 0.0
0.001360180077013293 -0.0005704547061002119 0.0
0.0012975496632994183 -0.000536990573648769 0.0
0.0017933363293491861 -0.000669157678923613 0.0
0.0018524827864022319 -0.0006590558140517755 0.0
0.003945862072134887 -0.0003552833386381235 0.0
0.001022433871767044 -0.00019539645846028845 0.0
0.0010270545048162054 -0.0002305769090873934 0.0
0.0009902319928459388 -9.369011313015114e-5 0.0
0.004024635081139609 -0.0003161412821640815 0.0
0.001091803081161177 -1.616248612900578e-5 0.0
0.0011966674486599087 -2.8320105418543307e-6 0.0
0.0017345194805667146 -0.0006799017300911526 0.0
0.0013024903102038174 -0.0005759477242556727 0.0
0.001240234378213637 -0.0005410361023357954 0.0
0.0031658736162740683 -0.00023953766388059612 0.0
0.0032541289945476407 -0.0002142839983179347 0.0
0.0031704073302241597 -0.00020635259590783044 0.0
0.003263604608580561 -0.00018086893926220408 0.0
0.0018536595925688609 -0.0006978883520848237 0.0
0.0019133908175237638 -0.0006863170384837154 0.0
0.0020204959870530072 -0.0002955318889944168 0.0
0.0010896560918029188 1.8288887140123493e-5 0.0
0.0011917996455057798 3.453294210718179e-5 0.0
0.004009157164464098 -0.0003508653306732178 0.0
0.0039382032123897745 -0.000387236485983187 0.0
0.0010648127775793827 5.483770046595776e-5 0.0
0.0011831610234200856 7.308699599243951e-5 0.0
0.004085026056988775 -0.00031177543336422285 0.0
0.0040927977640806265 -0.0002853723122853111 0.0
0.0010756680970343963 9.014901689115213e-5 0.0
0.0013629056938134249 -0.0006133182619988036 0.0
0.0019135399909481364 -0.0007262273852089847 0.0
0.0019728882152385218 -0.0007130168538525266 0.0
0.0019735369921302336 -0.0006735031797852686 0.0
0.0020329962395250587 -0.00069926955593828 0.0
0.0020341613653839545 -0.0006602898933869963 0.0
0.0020939396807036323 -0.0006850076096171346 0.0
0.002095385606263586 -0.0006460682136962528 0.0
0.0021560873039817414 -0.0006700783621326304 0.0
0.0021579669561476215 -0.0006314252443026113 0.0
0.0022191604467959557 -0.0006543482224740769 0.0
0.00221722687030785 -0.0006940030814609417 0.0
0.002280008952839946 -0.0006772771221015416 0.0
0.0022777455903547554 -0.0007175527629256416 0.0
0.0023402350152177975 -0.0006998005859394838 0.0
0.0023372622154609873 -0.00074075671460725 0.0
0.002400240201662528 -0.0007218662569130271 0.0
0.0022216514461700296 -0.0006161135697415589 0.0
0.002403119774002787 -0.0006811806482422384 0.0
0.0024638754304462376 -0.0007020126593064431 0.0
0.0024601709006714014 -0.0007440516529548131 0.0
0.0025245293419886026 -0.0007231896279948995 0.0
0.000934837372394172 -0.00019743928183499332 0.0
0.0009388333144901183 -0.00023239304660816685 0.0
0.0012455141344610474 -0.0005801133542551371 0.0
0.001184538031750226 -0.0005445707464884423 0.0
0.002528817112913129 -0.0006816045895755568 0.0
0.002589354534210831 -0.0007012717365125932 0.0
0.0025842697146416576 -0.0007436980268547325 0.0
0.002650156587349842 -0.0007204669393085702 0.0
0.0008491048786150236 -0.00019830830691481636 0.0
0.0008530083004813576 -0.00023244958953967982 0.0
0.003175580496997947 -0.00017193457375843467 0.0
0.0032747711949565527 -0.00014661952543954882 0.0
0.0031839142015043396 -0.00013753361898350842 0.0
0.004071376929937912 -0.00034392646887271695 0.0
0.004144052298760454 -0.00030530418491107376 0.0
0.0019727306764833127 -0.0007541425360623223 0.0
0.0013060008945076796 -7.553943113750862e-5 0.0
0.002510033921803574 -0.00035529367726845113 0.0
0.002644193829632734 -0.0007636109945788113 0.0
0.002710185541413197 -0.0007391838104209317 0.0
0.002714781442239653 -0.0006961131039413709 0.0
0.002775932816309067 -0.000713241424645148 0.0
0.002651726277641813 -0.00030013055278125573 0.0
0.0032913381811613576 -0.00011143212309262674 0.0
0.003375543484219564 -0.00012673466550210097 0.0
0.0011832962468979837 0.00011186960764158571 0.0
0.0011895314780766286 -0.000583307983954161 0.0
0.0011297760700078937 -0.0005469976421913759 0.0
0.003194918371246227 -0.00010190251970579823 0.0
0.00276984147201162 -0.000757432758208239 0.0
0.0028366642208795664 -0.0007310160502355458 0.0
0.0028425501477607677 -0.0006869264293465807 0.0
0.002904672745410269 -0.0007038540368590033 0.0
0.002911875183239114 -0.0006609766362750371 0.0
0.002973021757251855 -0.000675756806583774 0.0
0.0029646070363419886 -0.0007190506672012191 0.0
0.003032324537381352 -0.000689453589503849 0.0
0.0010703958426720901 0.00012306998366751963 0.0
0.000766006091098618 -0.00019773781891635516 0.0
0.000769334187921211 -0.00023044079535262948 0.0
0.00191511564423502 -0.0007677563657841585 0.0
0.004127834337334328 -0.0003384235805186254 0.0
0.004200400085734812 -0.00029752786421360824 0.0
0.0030224770114634356 -0.0007328664164214945 0.0
0.0030893913320879105 -0.000702061946777911 0.0
0.0011838661586883502 0.00014869287803058784 0.0
0.0011354573967437816 -0.0005858201865950509 0.0
0.0010757159060771635 -0.0005480670918363211 0.0
0.0012961952014295876 5.082616856300076e-5 0.0
0.0037954884102663904 0.00015105918652435897 0.0
0.001972565126524433 -0.0007963627794638892 0.0
0.0010664000815569273 0.00015298810035215384 0.0
0.0009952192889462164 2.6439282640883153e-6 0.0
0.004177943829304039 -0.0003382158885270399 0.0
0.004254684523655355 -0.000289076367560838 0.0
0.0042724715735560454 -0.00025675066885651947 0.0
0.0009603241965343573 9.880458239024151e-5 0.0
0.004101138732732106 -0.0003770129987629705 0.0
0.0007572193718721342 -0.00016558937169002208 0.0
0.0011900306269127768 -0.0006203707904422781 0.0
0.0033073807288130255 -7.521535759743908e-5 0.0
0.003207814759714775 -6.509119951133243e-5 0.0
0.002981817150194809 -0.0006336564070892736 0.0
0.0010820025514296518 -0.0005877912692213577 0.0
0.0010224244757988286 -0.0005488889733411239 0.0
0.0006854050768619236 -0.00019547895600152614 0.0
0.0006880587592674658 -0.00022620612301364523 0.0
0.0012930086583532838 -0.0005002093010906042 0.0
0.003078203581124393 -0.0007454812231444854 0.0
0.0031444431493269564 -0.0007131626003339444 0.0
0.0010159713896712025 -0.0005099665417376065 0.0
0.0009625066731741914 -0.0005096496042696789 0.0
0.003015431019628807 -0.0007742563118268893 0.0
0.0019170224036145548 -0.0008103776406041929 0.0
0.0009700139160940013 -0.0005491630923193803 0.0
0.0009103542114353197 -0.0005087991635287071 0.0
0.0020340691060703646 -0.0006231323454380616 0.0
0.004326802580905449 -0.00024630781110122923 0.0
0.004344912545568683 -0.00021705159876668048 0.0
0.004309734097023175 -0.00027706427681816755 0.0
0.0031316722113363 -0.0007559921318481793 0.0
0.003197642697562085 -0.0007225866947280604 0.0
0.0029186917672914038 -0.0006192243139857936 0.0
0.0029900517041570756 -0.0005928005383816345 0.0
0.0019729489911229367 -0.0008394846926254037 0.0
0.0032107845959966973 -0.0006803185595883541 0.0
0.0032643565367999794 -0.0006893505626583919 0.0
0.0006061462539246646 -0.00019022055793020337 0.0
0.0006119512907509718 -0.00022002844559360172 0.0
0.0032505868531729405 -0.0007323721752023209 0.0
0.0033161904856334294 -0.0006981432463605397 0.0
0.000919586236361693 -0.0005489498454836223 0.0
0.0008598842359435006 -0.0005073662843133469 0.0
0.003323733337828214 -3.788619055636528e-5 0.0
0.0032232298950925133 -2.7135384925418207e-5 0.0
0.0008500002508395501 -0.0004690351340601772 0.0
0.0007993917432759891 -0.000465996879857859 0.0
0.0008089336841791972 -0.0005048743125869408 0.0
0.0007488188156239508 -0.00046232115469424637 0.0
0.0043791188997250145 -0.00023424892094846194 0.0
0.0043615389486458545 -0.00026458720678568574 0.0
0.0011788762642588712 0.00017953093905228587 0.0
0.0010515648939382468 0.0001777286706589997 0.0
0.0030925447806634363 -0.00012703343539646682 0.0
0.001918802556399103 -0.0008538662349068701 0.0
0.0033022073366073493 -0.0007423027885953387 0.0
0.0033663837985062357 -0.0007066776783952138 0.0
0.0034995981142062794 0.00018921347585884038 0.0
0.0032781966017838247 -0.0006471318648643813 0.0
0.002275652788140804 -0.0007590634586972711 0.0
0.0007375692033415654 -0.0004253204191941555 0.0
0.0006885625003278707 -0.00041975907389613695 0.0
0.0007000295250176023 -0.00045811853118430594 0.0
0.0006396712312824296 -0.00041392896901444696 0.0
0.0006281925850778494 -0.00037769617265832477 0.0
0.0005778847638891511 -0.0003704415845959369 0.0
0.0005660293054740418 -0.00033493676374608236 0.0
0.0005151017864989035 -0.0003258961541797021 0.0
0.0005033014553736388 -0.0002925523681224975 0.0
0.00045532788943106173 -0.00028270510730880476 0.0
0.0004427249497008705 -0.00025189134687955906 0.0
0.0004661871608033274 -0.00031497176026164004 0.0
0.00040143377037522154 -0.00026487531617156205 0.0
0.0005325223477373835 -0.00018346673555589063 0.0
0.000531308153720656 -0.00015693046259285462 0.0
0.0004180343019988561 -0.0003023796466175357 0.0
0.0003589351843402658 -0.00025617848043838306 0.0
0.0012966311404509745 0.000172449841209442 0.0
0.0014328893946734338 -0.00027557026245017335 0.0
0.00292593559336969 -0.000579004122596198 0.0
0.0029973026478735524 -0.000553308308771264 0.0
0.0008516435259297834 -0.00026478172366204805 0.0
0.001973214257732249 -0.0008836923675916273 0.0
0.002027815926911522 -0.0008685742568493875 0.0
0.003061830237969178 -0.0005657927853496792 0.0
0.0030695453115695236 -0.0005265492654944608 0.0
0.004429267112555452 -0.00022048986030804668 0.0
0.004408632022607822 -0.00025177884663356954 0.0
0.004342723768049108 -0.0002986467840773622 0.0
0.0031067720317217405 -5.4713262840733874e-5 0.0
0.003121237275026479 -1.664721948620924e-5 0.0
0.001863339494354281 -0.0008238126756292295 0.0
0.0018653713509328297 -0.0008674112978980406 0.0
0.001810762188709533 -0.0008368375878996751 0.0
0.0006536442892502752 -0.000453314602558444 0.0
0.0032400707157509033 1.2011238979611163e-5 0.0
0.0031374675922370065 2.3660756644879148e-5 0.0
0.0012919320842836562 -0.0003243893387757701 0.0
0.003351147837751304 -0.000751646123120104 0.0
0.0034154073074460257 -0.0007147778324253987 0.0
0.003431267713707361 -0.0006713963906562156 0.0
0.003479884143139108 -0.0006781749546689882 0.0
0.001203154649421581 0.0002082622248446836 0.0
0.0010512448222391325 0.0001998912882499993 0.0
0.001788247269661594 -0.0005929302676524108 0.0
0.0032884194744886106 -0.0007881435666443117 0.0
0.004029455848328769 0.00015277909959200196 0.0
0.003463242179562351 -0.0007236709105206801 0.0
0.0035280893043680883 -0.0006856428648160164 0.0
0.0035446032062978134 -0.0006412006014749352 0.0
0.003593326474140015 -0.0006474564054183899 0.0
0.003610722464880454 -0.0006034676517227656 0.0
0.0036587485668226716 -0.0006086978251391641 0.0
0.0036407163223595414 -0.0006541458536121996 0.0
0.003705300629787419 -0.0006142364140587986 0.0
0.00037213577789274235 -0.0002866682066784766 0.0
0.0003147186492117627 -0.00023986916858741814 0.0
0.0002944214684105467 -0.00020710067341885152 0.0
0.002027898197723232 -0.0009133427942936338 0.0
0.002080289149302267 -0.000899427118358331 0.0
0.0018134858133683049 -0.0008806150633535046 0.0
0.0017591048216564669 -0.0008490994780428483 0.0
0.0043869509341424775 -0.0002875325220051636 0.0
0.004451677928886775 -0.0002390079854106043 0.0
0.0034516678927794474 0.00021657678768126538 0.0
0.0033602030247293774 0.00020471726574044588 0.0
0.0009145089404376828 0.00016865934195278083 0.0
0.0009111870600148915 0.00018774843394101193 0.0
0.0004319991752945251 -0.0003378640301077901 0.0
0.0016680455583406668 -0.00046067823059366917 0.0
0.0030682704513996214 -0.00020070152018008847 0.0
0.004322934606486996 -0.0003364828048006385 0.0
0.00129382064844643 -0.00013915915525049575 0.0
0.003005495223637436 -4.489627368966191e-5 0.0
0.003685382085769169 -0.0006613818985574325 0.0
0.003749697773959439 -0.0006201753153244107 0.0
0.0036757722707485355 0.00013585494598561477 0.0
0.0038431315664339562 0.00011776635091096078 0.0
0.0011821855027139918 0.00022714208607673615 0.0
0.0006899975029279106 -0.00025678081085484216 0.0
0.0004497205884355719 -0.0001478342342627544 0.0
0.00045010629769939517 -0.00012387326426402926 0.0
0.0007114683374728592 -0.0004984300755867314 0.0
0.003514628317651491 -0.000732851361336746 0.0
0.002832831800621902 -0.00041898592958066036 0.0
0.0025800423494539357 -0.0007875105616547049 0.0
0.0016104204444956052 -0.0006183572807170404 0.0
0.00032802949410730604 -0.0002695772779855605 0.0
0.0002727616784931933 -0.00022198631888984023 0.0
0.000979099253561647 -0.0005906481034681856 0.0
0.0031349316522853027 -0.0005378262292230147 0.0
0.0031431674608800525 -0.0004990511764427788 0.0
0.0018653981374770726 -0.0009127342590713087 0.0
0.0037480001318594223 9.793579772515104e-5 0.0
0.0038914007783135817 8.475619737250715e-5 0.0
0.0038023636119425726 6.185943181270383e-5 0.0
0.003941565290271035 5.151622702041466e-5 0.0
0.004027611399742648 7.212151438846963e-5 0.0
0.004076941034286354 4.2143213759734204e-5 0.0
0.003989787130479757 1.8681967397677393e-5 0.0
0.004120952159040469 1.2933893741554054e-5 0.0
0.004034744393327219 -1.241383914781875e-5 0.0
0.004163524339041855 -1.4208116915200467e-5 0.0
0.004079783216391195 -4.1701622964377335e-5 0.0
0.004203331880274939 -3.903111502318509e-5 0.0
0.0041222086825475355 -6.884200833942156e-5 0.0
0.0042416609245095925 -6.166367727556999e-5 0.0
0.003993611099977545 -7.43538555416602e-5 0.0
0.0041629545721986174 -9.282511462571298e-5 0.0
0.0042753470142265744 -8.248774999570048e-5 0.0
0.004164712529601431 5.883367393904559e-5 0.0
0.0009538146066832324 -0.0004713335679164695 0.0
0.0009299184755415886 -0.0005908972873311411 0.0
0.0009872152342307464 -0.0006330788623747 0.0
0.004202143294639942 -0.00011432848626825843 0.0
0.0043088774527246885 -0.00010049325754559222 0.0
0.004095486649652466 -0.0001256692892976945 0.0
0.002638065843417566 -0.0008079259953245775 0.0
0.002574513977562607 -0.0008320234005283145 0.0
0.0026314072787228223 -0.0008529258554617423 0.0
0.0025695275122831532 -0.0008774849406150973 0.0
0.002624712889847849 -0.0008987767501007462 0.0
0.002565146277574476 -0.0009238101487812649 0.0
0.002509936498785336 -0.0009017012716788351 0.0
0.0025065623165703315 -0.0009480827895100314 0.0
0.0024528314648252503 -0.0009249533217543946 0.0
0.0022242687215582235 9.869711548921932e-5 0.0
0.0026184021348227607 -0.0009457089014453595 0.0
0.002677201019234185 -0.0009193526738870187 0.0
0.002199240884983357 -0.0003408992852036217 0.0
0.0021596197539035886 -0.0005941222718744951 0.0
0.002224056272568869 -0.0005792374477845545 0.0
0.002161221266863391 -0.0005581114727185502 0.0
0.0022263573007807666 -0.0005437181479836131 0.0
0.002162846977468943 -0.0005234441918004252 0.0
0.0022286144703436983 -0.0005096100519923684 0.0
0.00229234814432878 -0.0005288617959950598 0.0
0.002295127048157618 -0.0004953423567305819 0.0
0.002359078926207042 -0.0005136107979741671 0.0
0.002362183718199023 -0.00048064881976989245 0.0
0.002423535688150483 -0.0004978405730886196 0.0
0.002298018555557152 -0.0004622327574275368 0.0
0.002164521315264711 -0.0004900784091872354 0.0
0.0020985235154493587 -0.0005030057459456148 0.0
0.002419870683878635 -0.0005321824858699736 0.0
0.0024876070951277886 -0.0005133617482428678 0.0
0.000940010810973488 -0.0006338796174446704 0.0
0.0022774257610869765 -0.00022306657847340994 0.0
0.002274486527940582 -2.149987403771029e-5 0.0
0.002594498903482803 -0.0006605237492810978 0.0
0.004447338181359597 -0.00019352564989490775 0.0
0.004494864131149725 -0.0001791071929744676 0.0
0.0024960425726941737 -6.613997372606023e-5 0.0
0.00247403585084371 -0.00013693516916586532 0.0
0.003560569599581093 -0.0005984287386464809 0.0
0.003055871427115274 -0.0003595751038734015 0.0
0.004430991695248512 -0.0002734179154223857 0.0
0.004492170282592181 -0.00022518876382799613 0.0
0.002463384216968765 -0.00023448211930916907 0.0
0.001762278408263969 -0.0008933059703600028 0.0
0.0017081857257722735 -0.0008609717587398272 0.0
0.002529331431763507 1.1764723024005809e-5 0.0
0.0024493715392486207 -0.0009715595498445152 0.0
0.002395585013683308 -0.0009455811933248129 0.0
0.0017051064322808078 -0.0008172659778867155 0.0
0.0016537014906022076 -0.0008283687727746337 0.0
0.001650401622619747 -0.00078509442984739 0.0
0.0015987835005561318 -0.0007953028442896867 0.0
0.0016030232759492158 -0.0008391216226518484 0.0
0.0015483574274123527 -0.0008051230766475811 0.0
0.0015530242433743652 -0.0008494330408197107 0.0
0.0014984482455139038 -0.0008145805521041202 0.0
0.0006679480283503102 -0.0004946562801753154 0.0
0.004513167033111805 -0.0001549566988253571 0.0
0.0032565284617794635 5.253770902894083e-5 0.0
0.0031512292878162393 6.340292745242641e-5 0.0
0.001476340649842004 -0.00044948748466385244 0.0
0.0011854622256564184 -0.0005070376301474399 0.0
0.0043464239209106545 -5.666616460511079e-5 0.0
0.00428831031018671 -1.673580831590011e-5 0.0
0.0020793336838593264 -0.0009438472492407023 0.0
0.002133059969218137 -0.0009285122644888247 0.0
0.0033353500797744726 -0.0007983961494219796 0.0
0.0006208119948470352 -0.0003426519920171616 0.0
0.0027810507866254694 -0.0003222694784316072 0.0
0.00303553113566921 3.3928065943857225e-5 0.0
0.0030479837272996343 7.361437427807422e-5 0.0
0.003628632836135629 -0.0005612326122358861 0.0
0.0036929790577465782 -0.0003185675725402668 0.0
0.0037703124180895765 -0.0005747226702772894 0.0
0.0038154016262882057 -0.0005784205901882446 0.0
0.0037921447531024067 -0.0006269083961060677 0.0
0.0038586686322848603 -0.0005832319235604014 0.0
0.002156554555226259 -0.0002791185429272689 0.0
0.0007226013097370253 -0.0005399346050774559 0.0
0.00242300956412187 -0.0004645050577776412 0.0
0.0039029094448157896 -1.232234917109218e-5 0.0
0.0020918505633896584 -0.000855912211294611 0.0
0.0009945240234559645 -0.0006761602932197557 0.0
0.0010419766757035088 -0.0006751023746676091 0.0
0.003274373049195272 -0.0008352748572024473 0.0
0.0015944952562198498 -0.0007528036565804773 0.0
0.0029323815443737925 -0.0005403018788524648 0.0
0.002861321205153543 -0.0005645206619256877 0.0
0.0044712998625542595 -0.0002596018048211232 0.0
0.004531952794019084 -0.00020912606223788134 0.0
0.004550649586626255 -0.00018059689822754873 0.0
0.0013268627796379738 0.00023622931483117384 0.0
0.00028625642538200727 -0.0002502328060148792 0.0
0.0002322440630306213 -0.00020090025191585352 0.0
0.0002245151294178241 -0.0001798386792685003 0.0
0.003315612506512111 0.0002290247994229678 0.0
0.0034002846655060317 0.0002340859064295617 0.0
0.003226671075274256 0.0002172444865184423 0.0
0.0034250965362654273 -4.880956485009124e-5 0.0
0.004240464416342428 -0.0001313607281786007 0.0
0.0043449434370327516 -0.0001144469735335 0.0
0.001711928989012612 -0.0009057368721110971 0.0
0.0033562245161836623 -0.00018864140551637506 0.0
0.0007718380722746979 0.00015457926986284383 0.0
0.0007604898974607031 0.00016941821802679688 0.0
0.0009086649701278074 0.0002037187471798351 0.0
0.0007442707016886933 0.00018114804865890008 0.0
0.0009526475511914289 0.00022778943848328988 0.0
0.0023935054111775323 -0.0008982234119556486 0.0
0.0014926085854685795 -0.0007709987150768189 0.0
0.0014440204334183447 -0.0007796381008031963 0.0
0.0014495729681143219 -0.0008237470864118355 0.0
0.0013957519799692865 -0.0007880672978446703 0.0
0.0038799913388065984 -0.0005369378802314836 0.0
0.003923069085702793 -0.0005406229197812894 0.0
0.0039016072099560496 -0.0005884491981988134 0.0
0.0039643947030446915 -0.0005446792111925511 0.0
0.003076136599543117 -0.0004881661024875616 0.0
0.0031507541726209522 -0.00046160492898804454 0.0
0.002670114003504629 -0.0009663500588576717 0.0
0.002727600076573837 -0.000938735411331391 0.0
0.002099838471832599 -0.00047001235279684703 0.0
0.0020334751259682466 -0.00048215219755591153 0.0
0.0020208603099589333 -0.0009604527272841041 0.0
0.0014013746064498313 -0.0008319096419665615 0.0
0.0013486153114906211 -0.0007959364657840012 0.0
0.004278068197019102 -0.00034640220175539824 0.0
0.0042575460319849955 -0.0003868492891582804 0.0
0.004214311201298507 -0.0003946651859829508 0.0
0.004199346279219835 -0.00043299331175965944 0.0
0.0021315422261536927 -0.0009765053838873456 0.0
0.0003366841957981575 -0.00029846024730348196 0.0
0.0004948756388815849 -0.00026239800784758896 0.0
0.0004271510600779523 -0.00022146453002769753 0.0
0.0003656193871957234 -0.0001137593425953764 0.0
0.00036166850292778405 -9.243895533483758e-5 0.0
0.0004514457316111306 -0.0001001282459644906 0.0
0.0003597165187617447 -7.192832484116187e-5 0.0
0.000452947269650812 -7.624506820725235e-5 0.0
0.0003582163492355868 -5.1857041095345275e-5 0.0
0.00045606175880019624 -5.247841154551033e-5 0.0
0.004300994841309653 -0.0003776382002949929 0.0
0.0013879029070435272 -0.0007453189992153107 0.0
0.003576817738348966 -0.0005579723309884657 0.0
0.0032268306097609878 -0.0008225283351063461 0.0
0.003214074915646641 -0.0008718516511290082 0.0
0.003167375914940418 -0.000858585617589979 0.0
0.0023934217136141 -0.000993466434403775 0.0
0.0033389309374706904 3.685434217574851e-5 0.0
0.003943005939214431 -0.0005939007788327116 0.0
0.00459013928889986 -0.00016209739181351974 0.0
0.004570279583631931 -0.0001911194302731452 0.0
0.0013037684093635136 0.00024768777894134384 0.0
0.0032460767323851648 8.958698155474058e-5 0.0
0.0025328064460736354 -0.0006417210081287025 0.0
0.0025979838747091236 -0.0006212845627678648 0.0
0.002505017509736568 -0.0009960495791252648 0.0
0.0023402097444768823 -0.0009662711104314939 0.0
0.0010388495169448308 -0.0002708835448283304 0.0
0.004408943521339173 -8.608889461684426e-5 0.0
0.004442379510694281 -9.62652380105768e-5 0.0
0.004377515752644408 -0.00012592919929663908 0.0
0.004470905708150862 -0.00010539237047220421 0.0
0.0037188933073252334 -0.0004325518166029317 0.0
0.002823457689950409 -0.0007770198181625748 0.0
0.0028670374478328596 -0.0005268395953708987 0.0
0.0020949471376815027 -0.0007256725443465896 0.0
0.0029973804953923188 -0.00028752286212286937 0.0
0.0032089808084686134 -0.0005093376334230166 0.0
0.003223483560461624 -0.0006394216376671828 0.0
0.0032918292911285328 -0.0006065305663132329 0.0
0.003258172583657881 0.00024171491732164114 0.0
0.003361104391437006 0.00024045501654899228 0.0
0.0010483078952106331 -0.0007185218363484755 0.0
0.0010937476799860956 -0.0007161116770049595 0.0
0.0003574172597896875 -3.199859851615204e-5 0.0
0.0004556636564639516 -2.897538579052236e-5 0.0
0.0005570557548969041 -5.023633529816607e-5 0.0
0.0005600536576435903 -2.2689613393303844e-5 0.0
0.00045774605882061405 -6.18462282663597e-6 0.0
0.0005668039623790723 4.166364058688932e-6 0.0
0.00046171080834229745 1.5756103876774356e-5 0.0
0.000576650515312347 3.0612573338252245e-5 0.0
0.00046549894907890716 3.686105670474845e-5 0.0
0.00024641620952310433 -0.0002286982810425957 0.0
0.002796156224053578 -0.0005495795524977941 0.0
0.00019422875963408023 -0.00017858482769307532 0.0
0.0009494439740719776 -0.0006775612545747469 0.0
0.004561207361687141 -0.00013840355552805912 0.0
0.0022861935422141544 -0.0006002396795331184 0.0
0.0029345855274580477 4.3622791994092355e-5 0.0
0.002951888916209913 8.63451943069664e-5 0.0
0.0005849184757877589 5.655097063246517e-5 0.0
0.0006812395427024488 -0.0005370857720536024 0.0
0.0006275380107966363 -0.0004907988948648656 0.0
0.001455422865640064 -0.0008763438996070777 0.0
0.003314213466786989 -0.0008493074319512724 0.0
0.0017650283910100142 -0.0009388520656838848 0.0
0.004004898248135293 -0.000548531643451771 0.0
0.004608882718086551 -0.00013741454480049428 0.0
0.002032493992446242 -0.0005157996792958056 0.0
0.0019677708746581946 -0.0004938193128768977 0.0
0.001966913214709093 -0.0005282390697616716 0.0
0.0014322002491105553 0.00025241558707081365 0.0
0.0019059202771839231 -0.0005052367663839008 0.0
0.0003768666099696063 -0.00013777161698365288 0.0
0.0027191666469374067 -0.0009861639820950452 0.0
0.0027765301828502616 -0.0009570384772436487 0.0
0.00278570472498016 -0.0009104699870827095 0.0
0.0028339863176551545 -0.0009274300848569054 0.0
0.003347584019963522 -0.0006137854180886529 0.0
0.0033620928000134224 -0.0005727906840442995 0.0
0.004577776587770925 -0.00011848207269887528 0.0
0.004527859398770775 -0.00013409422321744853 0.0
0.0030834977968546818 0.00011961308132917459 0.0
0.0029729647079279296 0.00013304330035677247 0.0
0.0008960918002983184 -0.0006347463570836193 0.0
0.0013544842879424277 -0.0008400028088164096 0.0
0.0013027573083658165 -0.0008035441475216623 0.0
0.0023833490796849343 -0.0003332297264099646 0.0
0.003881591217727996 -0.0006389485220333744 0.0
0.0004704664568778029 5.719249749189263e-5 0.0
0.0012955522447475718 -0.0007593636143916913 0.0
0.002823502696537809 -0.0009747067884945752 0.0
0.0028803904822766175 -0.000943776219030813 0.0
0.0028005069191291538 -0.0005137439937661866 0.0
0.0027307821230634763 -0.0005342506030909861 0.0
0.002734714008496666 -0.0004995653069912359 0.0
0.002518491667423248 -0.00028392674218652653 0.0
0.00036869609478819716 -0.00020803675033731549 0.0
0.00020847998348053585 -0.000205243784533923 0.0
0.0028445632525772855 -0.0008815701577791082 0.0
0.0029027374159802943 -0.0004321367428748504 0.0
0.0023390249716628555 -0.0010146290229260124 0.0
0.0009372323554904138 -0.00016340904069725155 0.0
0.001667877992178954 -0.00033029446925441437 0.0
0.0007336976768457228 -0.0005845282410628936 0.0
0.004026578782321381 -0.0005016074081433671 0.0
0.0010116720111832038 -0.00047248834002221364 0.0
0.0009457760925913101 -0.00043375331525048326 0.0
0.001008662730687154 -0.0004353909499582435 0.0
0.0009401810192479788 -0.000397141115526925 0.0
0.0010047707343601787 -0.0003987694275525185 0.0
0.0008767989009820742 -0.00039469983773309284 0.0
0.003155063408813844 -0.0009081874538755603 0.0
0.00311246468442201 -0.0008936521920452944 0.0
0.0006152622793654828 0.0001324492799389153 0.0
0.0023931220864794114 -0.001041576282883726 0.0
0.0023339142786959486 -0.0007829602443747141 0.0
0.0022731504515312935 -0.0008015537147298304 0.0
0.0011008219543373284 -0.0007603339580171446 0.0
0.00029074788554560223 -0.00010186725623960395 0.0
0.0003074991772356814 -0.0001276643307917054 0.0
0.004286244239069809 -0.00022803416341924036 0.0
0.004361325483617326 -0.000190093844959912 0.0
0.0006626806459270899 -4.446428219967408e-5 0.0
0.001145582144625125 -0.0007562286888265117 0.0
0.0011414458407471063 -0.0007154675847734968 0.0
0.0011525721287170127 -0.0008010952823541965 0.0
0.0010570097790594238 -0.0007635654133652201 0.0
0.0007563992797786568 0.00020208318207792203 0.0
0.0018078838745662067 -0.0007942262019651246 0.0
0.0027908095181258517 -0.0005879336733006158 0.0
0.00429772371336055 -0.00020100229135846677 0.0
0.0026627690253518133 -0.0010147953924051986 0.0
0.0017146490256628455 -0.0009519750187780105 0.0
0.004625825387171121 -0.0001436605244693528 0.0
0.004605335891797447 -0.00017321693739363606 0.0
0.00146368127899003 0.0002415927536136659 0.0
0.0013100580399228216 -0.0008488576175118961 0.0
0.003081839290208111 -0.00044970218933652894 0.0
0.003162855841884315 -0.0004238832926835025 0.0
0.0004870148029418974 -0.00023318031768219223 0.0
0.0006412767078247293 -0.0005331170251287715 0.0
0.0005893521878188622 -0.0004867996827562669 0.0
0.0005745428944036102 -0.00044605183690332256 0.0
0.0009061151528859166 -0.0006787590661137243 0.0
0.00015797997970649647 -0.0001542655042741103 0.0
0.00014682619127404635 -0.000134198443394495 0.0
0.00286881629212656 -0.0009922452753347865 0.0
0.002925046055958695 -0.0009600624440985583 0.0
0.002935323470886561 -0.0009106080645211532 0.0
0.003944659709538093 -0.0004957477353221128 0.0
0.003899716242797677 -0.000493737568004882 0.0
0.0039211392315786995 -0.000646307098142861 0.0
0.0008702828404899458 -0.0003590896223133841 0.0
0.0008084443382780015 -0.00035706386486932836 0.0
0.003229856002994783 -0.0004341547144835115 0.0
0.0045309329218002235 -7.80083120785877e-5 0.0
0.004555917985490576 -8.447481272169542e-5 0.0
0.004586329615752664 -0.00010344940085734429 0.0
0.004539325695250982 -0.00023627147841525723 0.0
0.000260062069296302 -0.0002590112928979901 0.0
0.002990477434900384 -7.813926660587769e-5 0.0
0.0028966233479222263 -7.033073433205279e-5 0.0
0.0028818821637247825 -9.962793778798924e-5 0.0
0.0027923231067548283 -9.319428824455221e-5 0.0
0.0027834128850094094 -0.00012119319386216074 0.0
0.0027988187082292598 -6.578538733304087e-5 0.0
0.002536436887466136 -0.000603292893320212 0.0
0.0020343277095208117 -0.0004498219170516649 0.0
0.002101355774361485 -0.00043822991672003907 0.0
0.0006031120168583219 -0.0005286380742787583 0.0
0.0005519600765507495 -0.00048088790618716187 0.0
0.004110564373623068 8.566078054574465e-5 0.0
0.004250596835387419 6.931266677532928e-5 0.0
0.004305163938597683 4.36868219428058e-5 0.0
0.004388701252072005 5.124440592783586e-5 0.0
0.0043540897480446 7.248826478619132e-5 0.0
0.0022883900516668643 -0.0009877923198952907 0.0
0.0022886701558140986 -0.0009420834285847329 0.0
0.0022861817929763955 -0.001035217327346452 0.0
0.002833013330101366 5.157259452714604e-5 0.0
0.002818478573838558 1.5397253795725387e-5 0.0
0.000663431517256731 -7.520484729595065e-5 0.0
0.00034746182757123466 3.572185646175977e-5 0.0
0.0030976726086207485 -0.0009442724534179124 0.0
0.0007756990290103113 0.00013695907185987173 0.0
0.00312556243353433 -0.000577491767141755 0.0
0.0028843850907719786 -0.00012787930884926947 0.0
0.002775158350476103 -0.0001484785966598138 0.0
0.0028580500161133793 -0.0001579378407679911 0.0
0.0027666049507578264 -0.00017526007098447516 0.0
0.0028449575483280236 -0.00018521619880078026 0.0
0.0027587027222749916 -0.0002021769736759712 0.0
0.0028347243272730145 -0.00021248403076958703 0.0
0.0027514974147991654 -0.00022946741983280943 0.0
0.0028286947358817562 -0.00024006446816593076 0.0
0.002683173586142688 -0.00016514378308532865 0.0
0.0026750165997238336 -0.00021854738532480048 0.0
0.0032001661004345283 -0.000922830711024039 0.0
0.0046361157037444695 -9.510425568049066e-5 0.0
0.001647690810415114 -0.000743190296727354 0.0
0.0015895232125857127 -0.0007124188523601186 0.0
0.0044087852052498025 -0.00031286017265846834 0.0
0.0019097307634256787 -0.0004762182558720026 0.0
0.0026979782203016794 -0.00011254886667508034 0.0
0.0009396773011098325 0.00025062549253175776 0.0
0.0002745037340256013 -6.468734233718178e-5 0.0
0.0015692039878647886 0.0002552803919373667 0.0
0.0015895715922636688 0.00024299519211867316 0.0
0.0035993971427252876 0.000104423899325975 0.0
0.004448142990156449 -0.000299881755877557 0.0
0.004388244213975374 -0.000354933635228875 0.0
0.001903195025750179 -0.0005399859499069672 0.0
0.0018482046880125087 -0.0005114538574884383 0.0
0.000776917586755073 -0.0005510735578465046 0.0
0.00017235177198595634 -0.0001794793378830168 0.0
0.00021738121531858712 -8.60979466571127e-5 0.0
0.00022405392662305923 -0.00010325028156249747 0.0
0.00012315418212817316 -0.00012769312757739102 0.0
0.003303701710870037 -0.0005663558007634596 0.0
0.003375492857961827 -0.0005335482430034124 0.0
0.0034348923523891553 -0.0005392231407256098 0.0
0.0034474855131261836 -0.0004997288988146051 0.0
0.002670031306759221 -0.00024445196930242724 0.0
0.0011209478385496292 0.0002654749568538653 0.0
0.0014305021469837853 0.0002586777494295558 0.0
0.002665545451588787 -0.0005185990649465976 0.0
0.0026701671432846625 -0.00048422268666163204 0.0
0.002036672776099263 -0.0004198816306594866 0.0
0.001738121189681618 -0.00041759558986374535 0.0
0.0017678140336153747 -0.0009856933225177568 0.0
0.003623366753042656 -0.0007020204210693194 0.0
0.003665836920376825 -0.0007112142144693809 0.0
0.0036064921740260373 -0.0007523089040210822 0.0
0.0036476366146112648 -0.0007636358144400898 0.0
0.003590121479277086 -0.0008048524156912306 0.0
0.0035486959380543253 -0.0007932555791720268 0.0
0.0034435446041456543 -0.0007793868545292053 0.0
0.003118689865789452 -0.0008446202794538169 0.0
0.003268898960567102 0.0001858531239291114 0.0
0.002517132301018099 -0.0008107558254217336 0.0
0.0006849778898850007 1.849509942517747e-5 0.0
0.004581219202466279 -0.0002103842454429221 0.0
0.004636990277323835 -0.00015489591194858961 0.0
0.00370622495861907 -0.0007213668286701807 0.0
0.0036886163194197086 -0.000774231999553849 0.0
0.0037450364568339194 -0.0007321120333716724 0.0
0.0018165433207862757 -0.0009721550638898697 0.0
0.0022155953513281353 -0.0007768302181218105 0.0
0.002214949190862545 -0.0008186942985676857 0.0
0.002270858263451747 -0.0008449133281987701 0.0
0.0014897322217579622 -0.0006030578172561623 0.0
0.0021576560919969335 -0.0007929771768049866 0.0
0.002795135005444353 -0.0008658122356292681 0.0
0.003967270905474505 -0.00045282322337878117 0.0
0.004066092102788764 -0.0005035757507135608 0.0
0.004043617103324124 -0.0005527103937120424 0.0
0.004096430955225929 -0.0004530286763200702 0.0
0.0005558270367877292 -0.00010499416065777999 0.0
0.0016075087844838335 -0.000884163393092524 0.0
0.0015586926739437513 -0.0008951736535692236 0.0
0.0016115344107330276 -0.0009301632604160953 0.0
0.001564875038846611 -0.0009417562458507598 0.0
0.0035065978055752287 -0.0005039057103039767 0.0
0.0009596507432577037 -0.0007226901570983514 0.0
0.0008559694386284126 -0.0006361235289742001 0.0
0.0044956068783454555 -0.00011491648028630279 0.0
0.00026435236309223166 -3.18940977515171e-5 0.0
0.0002639324040797311 -1.6909128785539738e-5 0.0
0.00305263758737646 -0.0009227247657661522 0.0
0.0030462046919253077 -0.0009778745105135645 0.0
0.002470225963688994 -0.0006226363504741141 0.0
0.004442549957079468 2.916517485731554e-5 0.0
0.0008651939098252872 -0.0006795821534609232 0.0
0.003629694570411307 0.00023363579143725752 0.0
0.004229377067541445 -0.0003561976113026365 0.0
0.004240974472469597 0.00014411706734639113 0.0
0.004286531506078048 0.00012523118676727163 0.0
0.0033883100229441594 -0.0004952230586587462 0.0
0.00364714910812529 -0.0005213883962394217 0.0
0.0036993244453123885 -0.0005237319132120966 0.0
0.0032442848901662524 0.0002363146878361036 0.0
0.003340327402076208 0.00023319030917123986 0.0
0.0034605572496210248 0.00023726827403267763 0.0
0.0028117842834693763 -0.0010242636453999293 0.0
0.0013579895810616003 -0.0008846745718188999 0.0
0.0020970186371985222 -0.0005724403413023709 0.0
0.0030075124761736348 -0.0004774719360759412 0.0
0.0026575289166241097 -0.0006378535534035248 0.0
0.0027099915995570135 -0.0010355259377998933 0.0
0.0011953843587495824 -0.0007956837251683368 0.0
0.0015371513549009561 -0.0007202001331472896 0.0
0.0006194025748911472 -0.0002516036301067742 0.0
0.004502376856295431 3.391357077216189e-5 0.0
0.0035097960692831156 -0.000594906261764675 0.0
0.0004167782885415421 -0.00019480603342803137 0.0
0.0011097978232643513 0.00029592692882259475 0.0
0.002694129370520928 -0.0008279240809337219 0.0
0.0035325747654744544 -0.0008464006131552882 0.0
0.0034890096205319587 -0.0008342697049312659 0.0
0.003100488418975369 -0.0006594540353401619 0.0
0.0032376398092414933 -0.0003980116849398154 0.0
0.0014128088153266042 -0.0004907619917122414 0.0
0.0022134049039653956 -0.0008691040941466307 0.0
0.0029747811600225613 -0.0004121490397774654 0.0
0.0015316689104560505 -0.0006802513874458274 0.0
0.001478526636709121 -0.0006868962053683254 0.0
0.0012022430643445412 -0.000841303056618898 0.0
0.0007676987051782455 -7.037848983746219e-5 0.0
0.0007716492563794313 -3.7793115617138546e-5 0.0
0.0003528073516091726 5.11741489385532e-5 0.0
0.00048301415513752764 7.750681789850774e-5 0.0
0.0038620029391845095 -0.0006912366605661228 0.0
0.0005545517372304743 -0.00027306339357226054 0.0
0.000815566136970344 -0.00039268781061381383 0.0
0.0007474454916809565 -0.0003536337357932114 0.0
0.0040508242977748575 -0.000456225372292233 0.0
0.0020338012952513004 -0.0007821976172920133 0.0
0.0026009988842823966 -0.0005818376126671329 0.0
0.0031275947409823415 0.00019299408781285184 0.0
0.003102754801081078 0.00022507069190462947 0.0
0.003009474614184411 0.00020639252522243267 0.0
0.0029837601864961916 0.00023050904789561044 0.0
0.0030686091077346852 0.0002383226305312076 0.0
0.0034480714377333297 -8.023275124691119e-6 0.0
0.0035451999967332183 -2.3039746045437414e-5 0.0
0.003575482981353163 1.6909871087869415e-5 0.0
0.003664681462912999 4.1652518948841386e-7 0.0
0.0036359772654473432 -3.944828062442186e-5 0.0
0.00020870788853819878 -6.960579209132585e-5 0.0
0.0035215403286096444 -0.0004662052622055348 0.0
0.0005546902963650666 0.0001469262000623275 0.0
0.0005774903999905356 0.00017041470788986394 0.0
0.0029128790153618253 -0.0010099377102963031 0.0
0.00017049609402540727 -1.5524476605671503e-5 0.0
0.0038401113443930737 -0.00028643518567425736 0.0
0.003926675681363186 -0.0002513559223860683 0.0
0.003860333794819225 -0.0002469326322782997 0.0
0.00400079149099936 -0.00024977753756504756 0.0
0.004015434985565003 -0.00021638909475379402 0.0
0.004090973151325101 -0.0002150883424028173 0.0
0.0010747971196450878 -0.0004355066065015146 0.0
0.0010737898491296595 -0.0003997254261058689 0.0
0.0010001443740903755 -0.00036266429877431996 0.0
0.0010714785133238152 -0.0003645572052894699 0.0
0.0011457132749552678 -0.00040021815981336825 0.0
0.0011442161425986202 -0.00036499225834933896 0.0
0.001217673971825165 -0.000399200543200669 0.0
0.0013174239455616325 -0.0008926228902578623 0.0
0.0012165862627492674 -0.0003632105802419079 0.0
0.001289972988311787 -0.00039725250103408874 0.0
0.0003535815555674995 3.753129528308856e-6 0.0
0.0007657614273258453 -0.0001031485261975118 0.0
0.0012880060847813408 -0.0004320024535923359 0.0
0.0010036098077053092 -0.0003309761027456584 0.0
0.0039196911512925595 -0.00045284574136646063 0.0
0.0038538267102886077 -0.0004926797842168352 0.0
0.0022373740263979818 -0.0010093919272989196 0.0
0.00223476984077145 -0.0010554443182211894 0.0
0.002895981279702212 0.00021130102085344175 0.0
0.0014965777500127034 0.00022130572178406363 0.0
0.001614699275030194 0.00021821198394557674 0.0
0.0017032641684229057 0.00023990042687222963 0.0
0.0017280398735054037 0.00020844207952319405 0.0
0.0016397444635885643 0.0001826279392560789 0.0
0.0017516813518507588 0.00016327977894310376 0.0
0.0016643639794026008 0.00014037714851583756 0.0
0.0017774110345537201 0.00011443927823180898 0.0
0.0016880172339186752 9.757230637875865e-5 0.0
0.0018194585680413248 6.752426518234033e-5 0.0
0.0017091416754666001 5.712582248800909e-5 0.0
0.001820417700969939 2.858431993237831e-5 0.0
0.0017242432343274638 2.0235017041273525e-5 0.0
0.0018324650740626264 -6.775403380503828e-6 0.0
0.0017439396812864365 -1.545860281008749e-5 0.0
0.0018469728411864366 -4.038529829800293e-5 0.0
0.0017584991949808834 -4.7963718597775016e-5 0.0
0.0018554216451994825 -7.0831116324783e-5 0.0
0.0017707178895885842 -7.808720458978759e-5 0.0
0.001863824489400903 -9.938367400496056e-5 0.0
0.0017808183225103394 -0.00010704052914360211 0.0
0.0018704570812031773 -0.00012744421569692502 0.0
0.001787383396695615 -0.0001351723640567386 0.0
0.0018757198719176371 -0.00015421394564319965 0.0
0.0017934243841250816 -0.00016366743284365135 0.0
0.0017048065825469672 -0.000142460464897258 0.0
0.001711567152064072 -0.00017224343066061913 0.0
0.0018871114621293002 -0.00018397120721074496 0.0
0.0016771694603522364 -5.526972272246525e-5 0.0
0.0019564526172295214 -0.00014412951796346243 0.0
0.0019549812856045723 -9.29885770797132e-5 0.0
0.0015815256751030426 0.00012019545473894643 0.0
0.0019356512014090206 -3.180359910747383e-5 0.0
0.0016215784616828235 -0.00014982282290045996 0.0
0.001629984657739004 -0.00018021015726142105 0.0
0.0017182450253654855 -0.00020253921737239787 0.0
0.0016379961509525246 -0.00021096871461918858 0.0
0.0016374844180159903 1.0792427274132873e-5 0.0
0.0019276939441691917 3.120102741865553e-5 0.0
0.0016143685512127774 -0.00011940308868495837 0.0
0.0018699410898273304 0.00013410333526016216 0.0
0.001724928114174134 -0.00023290407571290709 0.0
0.001645129639372055 -0.0002419559897135645 0.0
0.0015584532539975107 -0.00021899382717114057 0.0
0.0015285338329006672 -0.0001269004783002176 0.0
0.0015172643327524922 -9.404250869094799e-5 0.0
0.0018052103148158893 -0.0002232198618281969 0.0
0.0018090908322301459 -0.0002530526739187837 0.0
0.0018873018654183347 -0.0002431614824140656 0.0
0.0018200636145760223 0.00022895426892183656 0.0
0.0018023397861253775 0.0002484930950732796 0.0
0.0015685060286476844 -0.000251077611365998 0.0
0.0014801275811240793 -0.00022711709442460124 0.0
0.001471977173366202 -0.00019581178970631624 0.0
0.0013891632982746302 -0.00020241082033011765 0.0
0.0026553674477556833 -0.0010644033925063271 0.0
0.00260851216727525 -0.0010424670904879963 0.0
0.004426131984163252 -0.0003425193478227775 0.0
0.0028543234274759953 -0.0008368894386585465 0.0
0.0029042324728112564 -0.0008523398327921323 0.0
0.0016359833994932915 -0.0007016071818958736 0.0
0.0016946950227381796 -0.0007311457919959789 0.0
0.003934109545110354 0.00013025971979868916 0.0
0.002871508631260064 -0.0004902188465642314 0.0
0.0016538235765456762 -0.0002725941479928106 0.0
0.0012443754822872245 -0.0007648113036676402 0.0
0.0012420997983053723 -0.0007227826406881554 0.0
0.001288822789409242 -0.0007172541759865811 0.0
0.003168484693745465 -0.0003882503476283515 0.0
0.0029267230946113804 -0.00016987978352975264 0.0
0.001967646765908241 -0.0005638054648997799 0.0
0.0019052453445023826 -0.000576364791508623 0.0
0.0027156089147908047 2.251370656940209e-5 0.0
0.0027076716592911534 -7.99673283454463e-6 0.0
0.0027952959323265126 -1.50141276796786e-5 0.0
0.0026916947358142217 -3.9551289179605203e-5 0.0
0.0027296663601397643 5.514287718456565e-5 0.0
0.0029098820024981084 -0.0002234989827536969 0.0
0.002905236508904125 -0.00025099321525677706 0.0
0.0028162324146654458 -0.0002676203896197241 0.0
0.002103737716711054 -0.0004084045177177619 0.0
0.002169032512342346 -0.0004262758061426644 0.0
0.002172190351167791 -0.00039768437237122677 0.0
0.002236367994710976 -0.00041389740091338695 0.0
0.002239462417590612 -0.00038596263335601754 0.0
0.002303438212604914 -0.0004013207715314459 0.0
0.0023069006641220618 -0.00037414428129733365 0.0
0.002373433794175689 -0.00038842554270142473 0.0
0.002368282769859206 -0.0004169947530524439 0.0
0.0024395285664949393 -0.0003993700677531004 0.0
0.002742430594696848 -0.00046728117187729056 0.0
0.0026745504111958876 -0.00045209406335998707 0.0
0.002605016923259733 -0.00046916009777391986 0.0
0.002608483242746574 -0.0004379358159363048 0.0
0.0004791753790411256 -0.00020547189210990855 0.0
0.0005673414870550202 -0.0005232711464335986 0.0
0.0005172204969244526 -0.0004741228693023701 0.0
0.0005024847229507384 -0.00043213062201123817 0.0
0.0004663523053713461 -0.0004232859928535442 0.0
0.0024733258741799287 -0.0005851463191979141 0.0
0.0033060065210432006 -0.00040552752679608406 0.0
0.0032919122102537 -0.00044389015864414075 0.0
0.0011677514249660733 0.0002396674997975999 0.0
0.002597547689502254 -0.00023371888613702915 0.0
0.0025996185923140382 -0.0002107863840109991 0.0
0.0027006019352536215 0.00020838300697796486 0.0
0.0045743687413908616 -0.00015121283449525343 0.0
0.004629179932422305 -0.00011420010987005298 0.0
0.004667371743701491 -9.539121483188168e-5 0.0
0.00015363106585383865 -6.845546423702524e-5 0.0
0.00015665251597262405 -8.073179100234373e-5 0.0
0.00022429345953554807 -0.00011809841250202125 0.0
0.0001645081694270935 -9.572863927547617e-5 0.0
0.00022784420832508775 -0.00013509845600891593 0.0
0.00016984347455989933 -0.00011038904819319324 0.0
0.0001029192087652847 -6.679782355569343e-5 0.0
0.002407450135846587 -0.0006034145970798938 0.0
0.0011462002592527115 -0.00033113227448933685 0.0
0.0006565433938574631 -0.0005765497944200716 0.0
0.0018880603483004334 -0.00027060309779598123 0.0
0.004377495673072246 -0.0003911461869845492 0.0
0.004337160234119361 -0.00040992247205330065 0.0
0.0037172104631818317 -0.00048373109330692007 0.0
0.0037851843065008967 -0.0004784639634234812 0.0
0.003795372031726267 -0.00043807613168492753 0.0
0.0002269415603678382 2.843782581616261e-5 0.0
0.0017202712335681672 -0.0009990509580487758 0.0
0.0011612326991102527 -0.0008477719092546496 0.0
0.00013812323739819 -0.0001520232172433841 0.0
0.00019083759741697612 -0.00021366453985851886 0.0
0.0009300494852599297 -0.00032886413634679556 0.0
0.00296137580283664 0.00023349589145602685 0.0
0.0030578074918093745 0.00023396324685447296 0.0
0.0035880434488882126 -0.000520156477152257 0.0
0.003747645824368337 -0.0005269524177503407 0.0
0.0016169596048832189 -0.0009756234434021634 0.0
0.0018174742970213163 -0.0010172700416490065 0.0
0.0018665745253227761 -0.001004775314097841 0.0
0.004103023420228995 -0.0005069055346868915 0.0
0.004080348257999191 -0.0005571492917281826 0.0
0.00402004859631133 -0.0006116071981550787 0.0
0.004375809185436287 -0.0001651171574735361 0.0
0.004311319486388723 -0.00017477280504025645 0.0
0.004231349250165698 -0.00020896506903637831 0.0
0.004238825987058477 -0.00018265709234695243 0.0
0.0007902087927633404 -0.0003244325697532042 0.0
0.004102711925820494 -0.00018404425265699354 0.0
0.004014878654691379 -0.000184621801902536 0.0
0.002916387316359772 -0.0008100750637487313 0.0
0.00047825958130162926 -0.0004606473156956107 0.0
0.000433724509299517 -0.000417486649486875 0.0
0.0004179801470303789 -0.0003787417571866788 0.0
0.00038635263431712467 -0.0003702127821204623 0.0
0.004679438418304856 -8.074772875390784e-5 0.0
0.004580326984448337 -8.79514981776852e-5 0.0
0.004635924357442084 -6.147447503514215e-5 0.0
0.003898668552762249 -0.0006977306888231995 0.0
0.0019683055024732306 -0.00042932706472702476 0.0
0.004136997156281775 -0.0005113961394867167 0.0
0.00411712104708192 -0.0005592252070169427 0.0
0.004169696173325534 -0.0005148753421546343 0.0
0.004154753657024904 -0.0005638321669881884 0.0
0.004208073943064071 -0.000511491353501734 0.0
0.004223707398536747 -0.00046836778200694794 0.0
0.00425647971047739 -0.0004685111324308216 0.0
0.002288346639307381 -0.0010809587307900115 0.0
0.002239908378248788 -0.0011052985918771077 0.0
0.0021773326387402136 -0.0010746459937012107 0.0
0.0015791392357141659 -0.00028394479511531577 0.0
0.00011891955021285801 -8.556841598975931e-5 0.0
0.00017456350883352252 -0.00012575051638487634 0.0
0.0001244751296166891 -9.79854435878366e-5 0.0
0.0015771412809548315 -0.0009955538950866703 0.0
0.0015229316506010298 -0.00095476307798651 0.0
0.004531880566945089 -0.0002634669163800917 0.0
0.00036607495946652465 6.770707237801212e-5 0.0
0.00254141134767585 -0.0004577329572891388 0.0
0.0025473774351939048 -0.0004254747344079385 0.0
0.004353012599463939 2.028891939439267e-5 0.0
0.004486910573865406 1.0446005865959636e-5 0.0
0.0041145726855311435 -0.0004140721256610196 0.0
0.000819404441352333 -0.0006358152741084502 0.0
0.0008343237873240798 -0.0006838183206076844 0.0
0.0035000224382836184 -0.0005420126293389539 0.0
0.0035209862180181246 0.00023036076408828202 0.0
0.0046133137587984424 -0.00019030225450954985 0.0
0.00466748382490273 -0.00013411462666111025 0.0
0.0046875868640069455 -0.0001063458926550013 0.0
0.003428486197704513 0.00023047794757875478 0.0
0.003988631526286661 -0.00041395890000776116 0.0
0.0021878348677185264 -0.0009480942558008967 0.0
0.004074844760626641 -0.0002478488567408624 0.0
0.0038613279929087295 -0.00045949699960300805 0.0
0.0014772907007251533 -0.0006448838748958082 0.0
0.0008432798830552359 -0.0005929084074189373 0.0
0.0044456680475240765 -0.00014909408782487935 0.0
0.003711047668803022 0.00022445640515127212 0.0
0.001522508107629033 -0.0009986536615914333 0.0
0.0007002265634903921 -0.00029271619309669515 0.0
0.0025829004313747523 -0.0002615082216757694 0.0
0.0038226495160829477 -0.0006898563576443051 0.0
0.0038099083903756557 -0.0007372176230420642 0.0
9.216145404841021e-5 -0.00010181316714253874 0.0
0.0029653651438199167 -0.0009827040169871602 0.0
0.002946175360769963 -0.0010267404794255235 0.0
0.0018644026877722016 -0.001057099033560286 0.0
0.0019163112116893524 -0.0010384057220969426 0.0
0.0019150295231257243 -0.000990943558652286 0.0
0.0019656575691341213 -0.0010223670952760192 0.0
0.001916392040755256 -0.0010782396818828466 0.0
0.0016072797475047576 -8.898757838521935e-5 0.0
0.0015093984896284904 -6.379254534733138e-5 0.0
0.0006587077837040216 -0.00010486745621699494 0.0
0.001259865040866819 0.00028857453643905154 0.0
0.0012729638268845916 0.00026655373566380374 0.0
0.0029175524829768884 0.00016988639561971692 0.0
0.003723181109847875 -0.0007855755347333946 0.0
0.003671804392689212 -0.0008261381340297092 0.0
0.0003973498860482034 -0.0004079602528862138 0.0
0.00035175333074621764 -0.00035720789058110665 0.0
0.004658260540692741 -6.181285269670723e-5 0.0
0.0007665801104520555 -0.000390874168088218 0.0
0.0006900153569522774 -0.00035616443734854856 0.0
0.0043331958719383685 0.00019133771872183918 0.0
0.004479600136811189 -0.0002903024551241311 0.0
0.0044567757069268335 -0.0003356785900558347 0.0
0.002662102007445231 -0.00027127708185000404 0.0
0.0030852982946150474 -0.0009946407115223094 0.0
0.003021584856746463 -0.0010374765180477888 0.0
0.0013546817882650975 -0.0004272634905699716 0.0
0.0013610590454592789 -0.0003926766799709246 0.0
0.001966973019882808 -0.0009758448971888066 0.0
0.004143084516394173 -0.00045159080383041166 0.0
0.0023764407224609783 -0.00036099647951177765 0.0
0.0023154166668976767 -0.00034691574203454443 0.0
0.0001137870393990096 -0.0001319927097280629 0.0
0.0011676448227939248 0.00044442500512324794 0.0
0.0021725794044881535 -0.0003685197999562348 0.0
0.0014340804760807591 -0.00010317621154456977 0.0
0.0014487628236506019 -0.00013501795468628152 0.0
0.0008725954726133652 -9.793088781237843e-5 0.0
0.002992417650852148 -0.0002319155434061374 0.0
0.0019626509514418028 -0.0002611601493512751 0.0
0.0019639911679727733 -0.00023482593216332337 0.0
0.0020374614787193237 -0.0002525001890494719 0.0
0.002037345272241657 -0.00022784556306978078 0.0
0.0021076636838973078 -0.00024231729701778242 0.0
0.0021087136058064015 -0.00021932057308419298 0.0
0.0020365427298829264 -0.0002042270566897161 0.0
0.002108685565224868 -0.00019607984148057716 0.0
0.0020365393756256157 -0.00018149928504268125 0.0
0.0021098738291635507 -0.0001737867622636057 0.0
0.002174599524757743 -0.00023319553659412553 0.0
0.00018375569784042059 -6.380402862667603e-6 0.0
0.0028940643480203365 -0.00028274769824160665 0.0
0.001982327680071273 -0.00040021314657875875 0.0
0.0018424966729204944 0.0001862525658374871 0.0
0.0019824934527551607 0.00014623733713802162 0.0
0.001993472666322577 9.762182577423029e-5 0.0
0.0019413551365145673 0.00020572117844870258 0.0
0.001901245605441635 8.750078382583426e-5 0.0
0.0020206087974982538 5.938900758494511e-5 0.0
0.0021311298581778854 6.114128696011885e-5 0.0
0.0020621448660638397 0.00017760779088514048 0.0
0.0002891350961519483 -0.000157472401857352 0.0
0.00029663159125922837 -0.0001793701269910287 0.0
0.004649999698129405 2.4801079463502983e-5 0.0
0.0045042227939266185 5.536149807587972e-5 0.0
0.004495953904113798 6.698458515527007e-5 0.0
0.00357979251874476 -0.0008617195663885161 0.0
0.0035159829798644057 -0.0009010760849995384 0.0
0.0012353506932605755 -0.0006815858612633498 0.0
0.0012837744821635579 -0.0006750423737854609 0.0
0.0011862649174091686 -0.0006855776342902493 0.0
0.0013527305381634477 -0.00011685158829540162 0.0
0.002093614877247346 0.0001024065667176467 0.0
0.002184772867539799 -0.00018735912182069777 0.0
0.0021809773470847322 -0.00016483497549456055 0.0
0.002109668305613088 -0.0001517354333328266 0.0
0.0021791462268568595 -0.00014447680628530232 0.0
0.0021128745171587133 -0.00013087999317381376 0.0
0.001269114342402375 -0.000858481619390067 0.0
0.004638389687012342 3.993678142017718e-5 0.0
0.0019311851614620093 0.00023999010702562267 0.0
0.0028007868699184138 0.0001726080652107247 0.0
0.00281061025179062 0.00012793378636594463 0.0
0.0026958653392888735 0.00012014443654845127 0.0
0.001364113071146091 0.00021965383207128242 0.0
0.0016446996428907282 0.00023885584647685755 0.0
0.0015557658385367394 0.0002523020964490304 0.0
0.0014897779449895556 0.0002584224278799169 0.0
0.003136577737220198 0.0001884128878284304 0.0
0.003958629911708479 -0.0006535318671145056 0.0
0.003934517807756352 -0.0007097450752505595 0.0
0.0012066163287078127 -0.0008858849551449435 0.0
0.0020169966874007722 -0.0010072146941935154 0.0
0.002017258560227021 -0.0010525835473904608 0.0
0.002065701386370484 -0.001037440522832131 0.0
0.0020723963895328537 -0.0010883195543025103 0.0
0.0034016094469803077 0.00017249396650569746 0.0
0.0033029799526162773 0.00014933764579829452 0.0
0.003430108990136619 0.00014049885842992138 0.0
0.0035330486081992987 0.0001585394963514503 0.0
0.0026178958445435808 -0.0004087481048010795 0.0
0.0025634616792730098 -0.0003944604638805937 0.0
0.002117095174701813 -0.0010651719008645333 0.0
0.0014108185705010194 -0.00023815325921813335 0.0
7.351652194644625e-5 -7.716635285089566e-5 0.0
0.0019272212247037118 1.9493007293103572e-6 0.0
0.002027015291484696 -2.392230076999246e-5 0.0
0.002034997284740969 -5.2475048454746964e-5 0.0
0.0021254516546705435 -4.5188223757593795e-5 0.0
0.002126104282746151 -6.881604360908013e-5 0.0
0.0021189413567663106 -2.0423628071578484e-5 0.0
0.0020508099853696815 -7.657709147702783e-5 0.0
0.0021287171654820244 -9.074162095042563e-5 0.0
0.0022107587879097845 -3.8021694431048744e-5 0.0
0.0031782979254839 0.0001564707710273911 0.0
0.0020606685711430477 -9.987754942436738e-5 0.0
0.004703885293902836 -4.059605768416631e-6 0.0
0.0018108444514344272 -0.00028223794737434115 0.0
0.002268880873510023 -0.0008896884631842323 0.0
0.0023304804370853434 -0.0008709327709678564 0.0
0.002025886565475141 4.476734464889868e-6 0.0
0.0021256947057805616 5.015777159754319e-6 0.0
0.0027545617243653836 -0.0004365830356758734 0.0
0.003500279675784859 -0.0007833254168038206 0.0
0.003441901296449691 -0.0008270403932695777 0.0
0.003431466983652241 -0.0008765638558991733 0.0
0.003387752661375123 -0.0008692494427745303 0.0
0.003380436908450013 -0.0009149071263459075 0.0
0.0033338006487679387 -0.0009107496984752183 0.0
0.003950828275393317 -4.481817603463167e-5 0.0
0.0038691025333671284 -8.129267207525941e-5 0.0
0.003908412252919182 -0.00011024775893640737 0.0
0.003789432231655075 -0.00011922040896631135 0.0
0.003825405492735392 -0.0001479736268997441 0.0
0.0037078517607127778 -0.0001584023713170754 0.0
0.0037461075265130795 -0.00018711584341006137 0.0
0.0036696669188185345 -0.00012880326111647765 0.0
0.0035913503729784876 -0.0001679074801065188 0.0
0.003857302890731795 -0.00017579828447326034 0.0
0.0035515776225469903 -0.000138965394500529 0.0
0.003777615389153572 -0.00021497748886344496 0.0
0.0036730193318156293 -0.00022608629182963163 0.0
0.0036999330148009585 -0.00025414615349587266 0.0
0.003631314719251274 -0.00010086435348353671 0.0
0.0038251503686910623 -5.0538509030361024e-5 0.0
0.003887291944717171 -0.00020465309742597154 0.0
0.004035044968708345 -0.0001061698784875969 0.0
0.003959205692220262 -0.0001658521393653217 0.0
0.002609482291481078 -1.7994242368662266e-6 0.0
0.0016275972281733924 0.0002526902734206047 0.0
0.00024189738061483672 -0.0001600724134394173 0.0
0.0002233249515116647 -0.0002352382868872007 0.0
0.0002710331501138669 -0.00028789012837112835 0.0
0.0021152928830983184 -0.0010207143247784583 0.0
0.0028294021371247625 -0.0004543306512637226 0.0
0.002703613049285351 -8.70996531937944e-5 0.0
0.002611267919214941 -0.00010415589716235735 0.0
0.00262724296447641 -8.120543392840693e-5 0.0
0.0026136876243873833 -0.0001279887139892883 0.0
0.0026917345229771376 -0.00013803839701606298 0.0
0.0026070269217034034 -0.00015224927659775961 0.0
0.0025987472163844995 -0.0001750827057840458 0.0
0.002533549889611875 -0.0001640800097180873 0.0
0.00029579020076177405 -0.00027811099836916764 0.0
0.0030202706185598867 -6.5069559980191535e-6 0.0
0.0036628623155805103 7.211575909200476e-5 0.0
0.003515873899126796 7.763047386047405e-5 0.0
0.000182052915270233 4.323492024396772e-5 0.0
0.00037745046817101415 9.528778186437355e-5 0.0
0.0003564206893669059 7.973012856329443e-5 0.0
0.003078265770161822 -9.298252625721368e-5 0.0
0.00038614799861669675 -0.0003255041341467781 0.0
0.00044969407048615136 -0.0003818467787032356 0.0
0.0004900204638302155 -0.00039498309277494187 0.0
0.0004858545399510246 -0.0003621200602372398 0.0
0.0005286816189656113 -0.0003649399580278547 0.0
0.001954047284329359 -0.00011957606160041767 0.0
0.00022539754527810482 1.7387734870952286e-5 0.0
0.0009395194291360368 -0.0002678990782890404 0.0
0.0007678766138786257 -0.00025974678663302515 0.0
0.002118270628065043 3.246684963673814e-5 0.0
0.00048676650805407653 0.00021184152565795 0.0
0.003373185389480146 -0.0008128712846532712 0.0
0.002907073484490194 -3.623007019310823e-5 0.0
0.004562700176579497 -0.00024624508531766377 0.0
0.003635165614320902 -0.000196739411481845 0.0
0.0035203361327505187 -0.00020607942591922173 0.0
0.003473817100232389 -0.0008888448127008456 0.0
0.004713425213643708 -1.0260281592623488e-5 0.0
0.004627075940558787 -2.6064908796736158e-5 0.0
0.004645869671067651 -3.430206269338284e-5 0.0
0.004611263743506371 -1.5362781042715583e-5 0.0
0.0045442829197848604 -4.783908059278742e-5 0.0
0.004599014943884358 -3.8967919919117335e-6 0.0
0.004495586397244183 -1.5838814120127564e-5 0.0
0.0045175397304409075 -3.2778056151970786e-5 0.0
4.997507030596201e-5 -3.128710778022625e-5 0.0
0.004748521549420813 -2.8725185125532444e-5 0.0
0.004689996046021863 -5.519861048868395e-5 0.0
0.004724912114008158 -3.0420009809261307e-5 0.0
0.004695647422919868 -5.9185934696066514e-5 0.0
0.0028448378301289467 8.988706666660774e-5 0.0
0.0036349746016556056 -0.0008134466537108591 0.0
3.8025309515916175e-5 -3.366954163577986e-5 0.0
0.004760195231760483 -3.103353349505243e-5 0.0
0.00152410199614745 0.00019215903445784054 0.0
0.0038537372248070452 2.2939100339458833e-5 0.0
0.0013021656145725752 1.1352106997725607e-5 0.0
0.0014050599260784086 2.4768218934755908e-5 0.0
0.0013983666509236146 6.525976600421344e-5 0.0
0.0014084511094718003 -1.1422686269276021e-5 0.0
0.0014974756380414151 -3.202717531970314e-6 0.0
0.0015170895961563232 3.243392934082893e-5 0.0
0.001503510235882343 7.497994875687721e-5 0.0
0.0013987931657490147 0.00010344226376391834 0.0
0.0013061897081180283 0.00013588897950926997 0.0
0.0013192181847394048 -3.217224235930399e-5 0.0
0.004068534500216539 -0.0006024444120064027 0.0
0.004700331015422543 8.804755157467803e-6 0.0
0.0019712656418536642 -0.0009295820862754278 0.0
0.0006244641794135143 -0.0005804346678792005 0.0
0.0021748518434466235 -0.0009051248393761106 0.0
0.0016650848690262414 -0.00096447126371622 0.0
0.0016670667337216763 -0.0010110085097556922 0.0
0.0022539404768359343 -0.00015621553039265516 0.0
0.003082969653019789 -0.00016251608957426538 0.0
0.0041542393832510755 0.00014349943965104458 0.0
0.004209944497301318 0.00011893359362426981 0.0
0.004083329924368308 0.00012526621302348103 0.0
0.0002913887183086666 -0.0001407104807647962 0.0
0.0005809534805436683 -0.0005648095702856712 0.0
0.0014205300591935044 0.0003235931995197138 0.0
0.0012761467763234072 0.0003307673702729506 0.0
0.0034344374719971846 0.00021841062883793197 0.0
0.0016883886851900348 0.0002540791656431772 0.0
0.004365578059447103 -0.00032539161505079454 0.0
0.0021562848437315556 -0.0007513823436822901 0.0
0.003298612197562458 0.00018518790148708804 0.0
0.0034081834561967145 0.0002157602499559755 0.0
0.0014200396891151956 0.00016283010914332495 0.0
0.0011674132310454267 -0.0008954804648450341 0.0
0.004340164378251009 -0.00037431049709667636 0.0
0.0006943344389439686 -0.0005803243404333391 0.0
0.0007374668730106335 -0.0006202455019056411 0.0
0.0007131414511804429 -0.0006325129413997557 0.0
0.001123086088353725 -0.00026274001366389914 0.0
0.002667076697804231 -0.00019157788001338902 0.0
0.002993277684584509 -0.0001217797773762213 0.0
0.0018007539664655543 -0.00019290188324371478 0.0
0.0018851732446678354 -0.00021496426336785476 0.0
0.004605545602745618 6.073850583586535e-5 0.0
0.0043793452707893265 0.00012989994078086946 0.0
0.0001962040901642039 6.313068392128931e-5 0.0
4.914898191066115e-5 -3.4558008167033324e-5 0.0
0.0021785569205905173 -0.00021007692627828821 0.0
6.991076733726008e-5 -1.966857379530437e-5 0.0
0.00017060776053277042 -3.951881078052342e-5 0.0
0.0021492711603511784 -0.0008692994429380422 0.0
0.0030498533502986394 0.0001901069706454022 0.0
0.0017179533910829374 0.00023663617422057758 0.0
0.0029660247973690643 -0.00044216883780838717 0.0
0.0021906045064901828 -0.00012400333716804782 0.0
0.003871196509872916 -0.0003933277682542612 0.0
0.004507450025617653 -0.0002464194091055375 0.0
0.0014201973361425695 -0.0006525158851301486 0.0
0.0014252127467062326 -0.0006945151155910772 0.0
0.001366581871317127 -0.0006550073212778509 0.0
0.0013060151290557676 -0.0006160776801076783 0.0
3.8803022716782016e-5 -3.750191103128843e-5 0.0
7.396188047287442e-5 -7.162266743168308e-5 0.0
8.330505186232916e-5 -7.347741651904336e-5 0.0
0.0012202212846429712 -0.00043424364528214684 0.0
0.0011529624469505252 -0.00044016633624158874 0.0
0.004752403490218181 -2.9883321841841292e-5 0.0
0.0026029823939213576 -0.0010931490708879978 0.0
0.0025555112351211447 -0.001069342089575128 0.0
0.002550521932513937 -0.0011197903995107449 0.0
0.0025026033132815504 -0.0010949453585703012 0.0
0.002448722648072548 -0.0011178434368734466 0.0
0.0024475458449233025 -0.0010682515351268307 0.0
0.0025587589511937917 -0.0010195685243300334 0.0
0.003312436231479421 0.00021207773572692808 0.0
0.0005553769159855877 -7.68519752529525e-5 0.0
0.0006465550933613143 -0.00013432452819254367 0.0
0.0005605321359954291 -0.00013550120132575414 0.0
0.0030429004447525957 -0.0004228717079136367 0.0
0.0009160414379973089 0.00028179539534073427 0.0
0.002428381634330749 -0.0004306200156563102 0.0
6.894098225100112e-5 -3.1214033968433484e-5 0.0
0.001476518163335736 -0.0009596753558610802 0.0
0.001426663793310765 -0.0009582418437724029 0.0
0.0014373189739773668 -0.000920237014284377 0.0
0.0016612794282034236 -0.0009180626672864167 0.0
0.001421950028272213 -0.0006056619120764718 0.0
0.000620121818305543 -0.0002818499145792862 0.0
0.00035546258931659923 -0.00022205795383976835 0.0
0.004727792105550621 -1.9293553165618925e-5 0.0
0.004665175191326083 -3.9059309745323655e-5 0.0
0.0009167139971848894 -0.0007242926186077143 0.0
0.0011099147706781502 -0.0008048275397446 0.0
0.001065856136889144 -0.0008100848013861885 0.0
0.0010128857508020712 -0.00076625904774758 0.0
0.001019494627250858 -0.0008114242237530858 0.0
0.0028681103922081974 0.0002004663945338296 0.0
0.001883581204614871 0.00023372174829121162 0.0
0.0031426957819135587 -0.0009594647522900912 0.0
0.0031858155159380955 -0.0009755818735618556 0.0
0.0032398345512194837 -0.0009401435644831799 0.0
0.003123520750471298 -0.001018272496858258 0.0
0.0015385191139321661 -0.0006451903120773728 0.0
0.0027565340700775732 -0.0008029792171223435 0.0
0.0017178861181445172 0.00024904493116435414 0.0
0.0019439147788941809 -6.516572551789102e-5 0.0
0.004761736719007059 -3.274836041499323e-5 0.0
0.004725547865629703 -6.450715385589291e-5 0.0
0.004710000887284076 -7.07839822921946e-5 0.0
0.0009686794606559209 -0.0007683333140129668 0.0
0.0009264672982935799 -0.0007679092138081972 0.0
0.001406329252886463 -6.569191242619987e-5 0.0
0.0012516731583757238 -0.0006253332304648944 0.0
0.0044739631141583755 -0.00020709763859254684 0.0
0.003647345007959176 0.00025848919469070625 0.0
0.0021675971344222566 -0.00025627947890035583 0.0
0.0022332178799854326 -0.0002451166450862986 0.0
0.0028770287667315773 0.0002282129812787458 0.0
0.003576979832581525 -0.0006942393734715033 0.0
0.0020955140001107262 -0.0007669844868507235 0.0
0.002097775524186829 -0.0008100756381014942 0.0
0.0005080844573116815 0.00010129682334348844 0.0
0.001143194419751272 -0.000633230123727908 0.0
0.0010884455597008726 -0.0006306710422669119 0.0
0.0010292778834935239 -0.0005899726943917528 0.0
0.0010352890654165745 -0.0006320491045878401 0.0
0.0008756799514240327 -6.360932358920015e-5 0.0
0.0008791123675248529 -2.902823772714238e-5 0.0
0.0009832012170254579 -0.00013070162216147178 0.0
0.003170511343385292 -0.0010294385684417359 0.0
0.003066859484952279 -0.0007889539578650332 0.0
0.003000016552343458 -0.0008221541779209487 0.0
0.0030599307036114107 -0.0008402935861871737 0.0
0.002992936329283242 -0.0008747870475976687 0.0
0.0030342185363122823 -0.0008883747006576037 0.0
0.00312290022383428 -0.0007992677354308904 0.0
0.003176076989142444 -0.000805943735053821 0.0
3.277540903869336e-5 -3.703175106097881e-5 0.0
0.004767706592375944 -3.3084745952759276e-5 0.0
0.003984991254077916 -0.0005994554800130841 0.0
0.0028558778461575214 -0.001041085920743043 0.0
0.004428716099138905 0.0001038893117594308 0.0
0.0027661251097274653 -0.001005311293085605 0.0
0.0027538504637208434 -0.0010542890083715148 0.0
0.0036286873801294715 -0.00047356962791849413 0.0
0.00324242430341123 -0.00036261796055385377 0.0
0.00317610058508657 -0.0003529319202118862 0.0
0.001504657707181967 -0.0008607945331375481 0.0
0.000869721583118619 -0.0005476852845060038 0.0
0.003592318202468409 -0.0002681112480427367 0.0
0.003829518013769073 -0.0006423547908934244 0.0
0.0016688749125597388 -0.0004964513417419947 0.0
0.0017315514684265328 -0.0004871772579944006 0.0
0.001729298564851407 -0.0005237921130647367 0.0
0.001735281551555901 -0.00045202524846071337 0.0
0.0016670007145041716 -0.0005336735673364326 0.0
0.0017926490861486018 -0.0004815270580328911 0.0
0.0018002152858572972 -0.000448929601761679 0.0
0.0018158224902767599 -0.00041329965209330817 0.0
0.0035986362842742353 0.00022894447810527441 0.0
0.00037043634777567444 0.00010570020966970123 0.0
0.003476353295859759 -0.0001778030951063876 0.0
0.0037948721985746315 -0.0004028315789188867 0.0
0.000669224947182737 0.0002291915601029566 0.0
0.000672270569278946 -1.272554512663801e-5 0.0
0.0009824170656506674 -5.6637108204488785e-5 0.0
0.0007591545320003614 -0.0005026304343032106 0.0
0.0016674047845417618 -0.00042554011402068837 0.0
0.0012902175786363105 -0.00036040231652926564 0.0
0.0013807559516924954 -0.0003580819490999839 0.0
0.001438778659913618 -0.0003937262580770695 0.0
0.002338371049086747 -0.0010624917747794902 0.0
0.0023940874620865488 -0.0010899082898665465 0.0
0.002392203978611882 -0.0011442685048834074 0.0
0.0024494112510131537 -0.0010193555583645928 0.0
0.0037639193877204912 -0.0006806410021960883 0.0
0.001729291459906794 -0.0002626130335273315 0.0
0.0035196074827163605 -0.00042335165631898785 0.0
0.0016574207440927598 -0.0008724532280171126 0.0
0.0025614974074038978 -0.0009710728200052685 0.0
0.0017626830927772335 -0.00103496353908789 0.0
0.004408591845376395 -3.3945716767532467e-6 0.0
0.0023649337580669326 -0.0004468794429500971 0.0
0.0005496835925766166 -0.00024259598253972942 0.0
0.001796029576494857 -0.0007085171738839393 0.0
0.0018556287501775462 -0.0007386269268520041 0.0
0.0016734587726562637 -0.0006486958993261109 0.0
0.0018144101653360294 -0.0009259297269641285 0.0
0.002854755402476937 -0.000603823970938265 0.0
0.0027848813230046065 -0.000628408908861857 0.0
0.0028480640166480727 -0.0006446153350979399 0.0
0.0034361735048573515 -0.0001495623261444893 0.0
0.002155756756868089 -0.0007100880229033247 0.0
0.001547681748032325 -0.000588522250408516 0.0
0.0027429267204698913 -0.00025602075931103455 0.0
0.002729653199830089 -0.00028373390062652896 0.0
0.0005914777755383152 -0.00040725488357610433 0.0
0.0012627331250983055 -0.0008144720128492433 0.0
0.003255437076682456 -0.0008866105025753402 0.0
0.0027076958267676352 -6.357048059330016e-5 0.0
0.0025204685440109753 -0.0007663265298100431 0.0
0.0024570963807174816 -0.0007875805132615981 0.0
0.00245448241181389 -0.0008327434384273254 0.0
0.0023940997445466845 -0.0008077233325794656 0.0
0.0023928892896927954 -0.0008532670516183551 0.0
0.0025135852756926957 -0.0008557976473972455 0.0
0.0029220841551391395 2.9078116190501886e-6 0.0
0.0019703935267589194 -0.0005999276279279422 0.0
0.0019110292440998255 -0.0006123169496643408 0.0
0.0027265048820592553 -0.000572689861714382 0.0
0.0016115579352251024 -0.0006565605694296519 0.0
0.0027009267474802914 -0.0010840223523207958 0.0
0.00203361680235967 -0.0007400820806199874 0.0
0.0023969861646668026 -0.0007640713029584908 0.0
0.0034203778791389106 -0.000926457107640138 0.0
0.002167303670356157 -0.0004572892826972333 0.0
0.0045310109740781136 -0.00011801239662926309 0.0
0.00240502359592611 -0.0006415730080181375 0.0
0.0010710752895015563 -0.00047163491761416826 0.0
0.002053520490015333 0.0002293035566587645 0.0
0.003397782923540363 -0.0007621242969954175 0.0
0.004334530746115508 0.00010447798846929307 0.0
0.0006984089370929028 4.9222238749360563e-5 0.0
0.0007227566993048527 7.874263285118301e-5 0.0
0.0008040692927702691 3.5386213822877674e-5 0.0
0.0008482706686867648 7.069203808073684e-5 0.0
0.0009288777143313133 4.795857677377595e-5 0.0
0.0034073940316539783 -0.00021574575524559484 0.0
0.001968985212344812 -0.0010737207232392274 0.0
0.002233687647488468 -0.0004443730957699441 0.0
0.00013712149770103826 -4.263753768175008e-5 0.0
0.001514744998094521 0.000256493661397519 0.0
0.0014087921182723126 0.00027266574023931565 0.0
0.0032191756205143043 0.00012323301172552554 0.0
0.0019177521609381387 -0.0008986904615036847 0.0
0.0021894445868132035 -0.001030262643103999 0.0
0.0018946567893654385 -0.00030072943815106986 0.0
0.0026624788717100677 -0.0005567138058294948 0.0
0.002592792508861509 -0.0005384273292464963 0.0
0.0026026811002031747 -0.0005010076399183361 0.0
0.002726339495502189 8.698819676527976e-5 0.0
0.0018029730126674396 -0.0007509138605270353 0.0
0.0012169183493017197 -0.0003281118605883372 0.0
0.0018442767311921463 -0.0005464426958380816 0.0
0.0002319997468099914 -0.00016913359248245881 0.0
0.002524256641836545 -0.0002454769277363808 0.0
0.0010033748687999482 -0.0007204107755290433 0.0
0.002539289034171893 -0.0005654835390901865 0.0
0.001514063271304338 -0.0009071845787741071 0.0
0.003384586592973672 -0.00037423608612272707 0.0
0.002288721165416727 -0.0005638133167919089 0.0
0.0023324405513780113 -0.0008267973967774391 0.0
0.004239047553909656 -0.00032240708203695034 0.0
0.0008795111491296844 -0.0007243070882264651 0.0
0.004596441774097684 -0.00022689458316570596 0.0
0.0018990544367842943 -0.0004264535418291095 0.0
0.002282452186527025 -0.0006381632913967629 0.0
0.00040572435676746815 -0.00016865728923389308 0.0
0.004224814472402616 -0.0002365217560260397 0.0
0.0026854328450005437 -0.0008733580966990826 0.0
0.00013575894119655777 -5.1805425393382286e-5 0.0
0.002445207338562537 -0.000346509138130462 0.0
0.0024430173132825497 -0.00037114869617857146 0.0
0.004498668324216369 -7.069294432298256e-5 0.0
0.0026519056124259636 -0.0011138699503877693 0.0
0.0008201993358095697 -0.0005462515920051646 0.0
0.004646929062685402 -0.00011788313400115622 0.0
0.002536072274316958 -0.0004864740123260264 0.0
0.002353328873987847 -0.0005482961106156766 0.0
0.002954229555244629 -0.000764309258199305 0.0
0.002892111584552186 -0.0007488078094854746 0.0
0.0027023542598530806 -0.0007830870126783831 0.0
0.0022310990480742285 -0.0004765334113149535 0.0
0.0027601194605150355 -0.001132568115705386 0.0
0.0029763499583957977 -0.0010965793960052803 0.0
0.0021050746805128333 -0.0011366654144502784 0.0
0.002270756011801549 -0.0011511974097674364 0.0
0.0032951447246845613 -0.001007933565470956 0.0
0.0032797145352475047 -0.0009607944456640501 0.0
0.0016721591489516061 -0.0010551925466118779 0.0
0.0013096403300664327 -0.0009557091304482608 0.0
0.0028668991061578494 -0.0011170468089889184 0.0
0.0017850213956917991 -0.0010855208163438376 0.0
0.002013996354621527 -0.00037324458407745215 0.0
0.004124756489293917 -0.00015062569489478038 0.0
0.003418141595265942 -0.0005799850527186216 0.0
0.0033977353266339168 -0.0006224341054801368 0.0
0.0017290168334549258 -0.0005634480763400718 0.0
0.0029384026252552843 -0.0005043064198032924 0.0
0.0023380423899594764 -0.0009145706804932188 0.0
0.0011910344177863735 -0.0007520293561771135 0.0
0.0008886069197170077 -0.00043252866661205294 0.0
0.002032997111502997 -0.0005504519735843557 0.0
0.004211049532239758 3.2273695834104834e-5 0.0
0.001611116221262515 4.818584970244223e-5 0.0
0.0023007265980451753 -0.00043082945090768226 0.0
0.002722651484357281 -0.0006138659488333888 0.0
0.0003064960688337137 -0.0003098243819637491 0.0
0.00031790683311891355 -0.00034276998952985436 0.0
0.0020325779206303474 -0.0008253285740014388 0.0
0.0017013830810516757 -0.0007750468381441033 0.0
0.0024676399544159974 -0.0006616884239794901 0.0
0.004463580990231309 8.310446352655574e-5 0.0
0.0026135564536004493 -0.0009932123824562078 0.0
0.0047199594513947256 -8.167236985573205e-5 0.0
0.004692662419897499 -0.00011726266761707599 0.0
0.0013184528692711242 -0.00021331506735869512 0.0
0.0020966191979849298 -0.0006087693458089268 0.0
0.002216233518112873 -0.0007346839374179337 0.0
0.004580650878892194 1.6430892045896453e-5 0.0
0.002233898889625156 6.98363299891709e-5 0.0
0.003238012984830781 -0.0007753126538361144 0.0
0.003331342621103607 -0.0006555019107985865 0.0
0.0012861587625134939 -0.0009072808504509391 0.0
0.003053246793655457 -0.0006059031685411221 0.0
0.002097370400098213 -0.0005370810716925125 0.0
0.0031968002885949484 -0.0005487202349545945 0.0
0.003184769765008171 -0.0005892655690858976 0.0
0.003268764837821975 -0.0005195429997376079 0.0
0.001067096351272991 -0.0008562852441744096 0.0
0.0037685367659335903 -1.4726910150702466e-5 0.0
0.002796459827017094 -0.0010793128000043558 0.0
0.003984233592353103 -0.0006660028266304661 0.0
0.003592190176610876 -0.00042765573299888624 0.0
0.002323580471262728 -0.0003210174300440482 0.0
0.002988645683782666 -0.0009274716924926175 0.0
0.001860138912992326 -0.0007807513351111654 0.0
0.0019533788225748706 -0.0004578422550701605 0.0
0.0044452650998366 -5.447852383619288e-5 0.0
0.001021577775978065 -0.00030114276628558274 0.0
0.003440695728729691 -0.00024331205100872944 0.0
0.00228764190068392 -0.00020399552971499954 0.0
0.0030037643570263515 -0.0005154004244901043 0.0
0.004269594515383404 -0.00014925687320745348 0.0
0.0003564008482390202 -0.00017989607912282946 0.0
0.0034958728067234768 -0.0006355243859414626 0.0
0.002605458989294757 -2.9653091638754597e-5 0.0
0.002581309293838591 -5.3960441562387666e-5 0.0
0.0028903081120800573 -0.0008973604648998707 0.0
0.002653964812695305 -0.0006786957844437122 0.0
0.002736108555873076 -0.0008925753604898331 0.0
0.0035630219537981377 -0.000742367900478969 0.0
0.0035202580161453573 -6.326515795432907e-5 0.0
0.0022575743226625066 4.444618264138667e-5 0.0
0.003194665735007104 0.00023578029827931102 0.0
0.004163164696663039 -0.00040521595293435285 0.0
0.004178073094384317 -0.00036818839037227035 0.0
0.0022777153397914103 -0.00011070709298806096 0.0
0.0015424841823496647 -0.000761778651595507 0.0
0.0031241909130485827 0.00021912055590234288 0.0
0.0022697927125405882 -1.8731880733466999e-6 0.0
0.00304178831115459 -0.0006472748470873722 0.0
0.004657109804302579 -0.00012615297587013444 0.0
0.0007745255158658785 -0.000586304624914821 0.0
0.0029196559829559876 -0.00030940021052870014 0.0
0.002279633185530247 -5.55728209449038e-5 0.0
0.002275525608613084 -9.380937908459124e-5 0.0
0.0008001981361689288 -1.9507713701646197e-6 0.0
0.004189737599960622 0.00016650706358796046 0.0
0.0024655512947356524 -0.0002141159199517938 0.0
0.004294240803664887 -0.00030985964769274026 0.0
0.0014847173069707713 -0.0007278536034872284 0.0
0.0037084171567008913 -0.0008407934810291635 0.0
0.003804802956631487 -0.0008027331667492468 0.0
0.001341904475369755 -0.0007531115209590271 0.0
0.0031561698008923723 -0.0006709208627572827 0.0
0.002050635925016387 -0.0011306766006228136 0.0
0.002994006553471476 -0.00018563785280637386 0.0
0.0008399434512000048 -0.0007470330376558067 0.0
0.002487126679597943 -8.479850170139971e-5 0.0
0.0025923147898113414 -0.0002873000761149655 0.0
0.0025358312554449817 -0.00011831164209153624 0.0
0.002780712536040622 -0.0006708905576353004 0.0
0.0033820214668659125 -0.0006639787999788108 0.0
0.00010917129799573318 -0.0001362275000120024 0.0
0.00018879421446770078 -0.00022854026987006255 0.0
0.00022691164724128048 -0.00027010506815645604 0.0
0.004467529676208678 -0.0003556359182766929 0.0
0.0003067902184590465 -0.0003536880059340266 0.0
0.001377252013139041 -0.0006996106884347653 0.0
0.0006110354312571577 8.23035041556897e-5 0.0
0.004032556935424211 -0.0006795385973325999 0.0
0.0007064792263652787 -0.0006651401495234458 0.0
0.0007965987397130152 -0.0007219643752327705 0.0
0.004425169548678536 -0.00039183970344087163 0.0
0.004340472361046971 -0.00046521848103790655 0.0
0.0025730007451556327 -0.00036696990029629024 0.0
0.0018647621600152173 -0.0009596469021069393 0.0
0.003505030317807792 -0.00010659744328376074 0.0
0.004122062093194896 -0.0006206594073936954 0.0
0.004166755167468346 -0.00059202409901552 0.0
0.0006201622410426008 -0.000612026272813301 0.0
0.0004251997825681388 -0.00045870472261740937 0.0
0.004255262478811181 -0.0005291775789323727 0.0
0.004288772318953567 -0.0004685871780277671 0.0
0.002899573230549412 -0.0010640000438432255 0.0
0.0005075037666323084 -0.0005276039558409382 0.0
0.00354755233237168 -0.0009212050885720679 0.0
0.0008856648607136275 -0.0005921776730325809 0.0
0.003986681003221491 -0.0004984651108207814 0.0
0.0013685795827107126 -0.0009337278064756206 0.0
0.0037274460797222285 -0.0006694125326392755 0.0
0.0037495817921966387 -9.020314646186753e-5 0.0
0.0013526024129358113 -0.0004961345752561546 0.0
0.0009005282341931226 -0.00047057207700942867 0.0
0.0017564001938859854 -0.000806628150305976 0.0
0.0023427182743200876 -0.000660015001979037 0.0
0.003978577489584414 -0.000284674443550311 0.0
0.0025031317402456855 -0.0010444387613125173 0.0
0.00253015190547305 -0.00022380302728859362 0.0
0.002501842746205527 -4.748926658404948e-5 0.0
0.0032182294935297253 -0.000471403519994072 0.0
0.0037252735085975324 -0.0005703031684444058 0.0
0.0012893169426737429 8.982457394408301e-5 0.0
0.003021460447999934 0.00017311621986933575 0.0
0.0014752345605127534 -0.0004847869031322146 0.0
0.004032510097106968 -0.0004150222781527542 0.0
0.0009255489078744615 0.00014763956611249447 0.0
0.0007896717124946392 0.00011221367319600529 0.0
0.002034830210518041 -0.0001372159256159216 0.0
0.004175359700151463 -0.0001840368678691727 0.0
0.0022029012441165383 0.0001365110031692266 0.0
0.002456284182729381 -0.0002748444086197908 0.0
0.004418516697548322 -0.00017853067470810076 0.0
0.0012373399663482847 -0.0005045190886367147 0.0
0.0015256797589098656 -0.00030445275403771105 0.0
0.0034582039062524745 -0.0004611423348822662 0.0
0.0038352627033813778 -0.0005344909516624526 0.0
0.0010696281679586231 -0.0005105665681846925 0.0
0.0006134487172102041 -0.00045001456245510467 0.0
0.0036779147694613536 -0.0005655947377028482 0.0
0.0015516368751619816 -0.00018867441574336874 0.0
0.003624716400846143 -0.0003156290286702929 0.0
0.004729164519382747 -6.624215654451735e-5 0.0
0.003936490708807348 -0.0001380176593744553 0.0
0.002541062872573531 3.5285724741616694e-5 0.0
0.0026272464406532922 2.8481249317677798e-5 0.0
0.0029809151215503572 -0.00038046778612663525 0.0
0.00431562679057094 -3.6400406594920964e-5 0.0
0.004242724397938655 7.271231045547683e-6 0.0
0.00018213195784605416 -0.000155948840581039 0.0
0.00013459995011908817 -0.00011484245891766167 0.0
0.0019166847698621826 -0.0009443138488473786 0.0
0.0031123953421012705 -0.0006183016723534914 0.0
0.0017379302549511706 -0.00032216177954928527 0.0
0.001735089655274332 -0.0002926126936424769 0.0
0.0016986832922684257 -0.00011411246018910151 0.0
0.002453666285730602 -0.0008785512872114692 0.0
0.0028471693843119756 -0.0003316881200192233 0.0
0.0007544159578686736 -0.0001336655283862609 0.0
0.003338179648390845 -0.00025316144609642674 0.0
0.002575986092760736 9.029467728088834e-5 0.0
0.002032946962421729 -0.0005862993639324055 0.0
8.132720597037457e-5 -1.014460569753338e-5 0.0
0.0023452887987330836 -0.0006211010641418868 0.0
0.004396923305897463 -0.0002065253711064962 0.0
0.0037617156223769257 -0.000322203113027061 0.0
0.003565884762911509 -0.00023473582135550035 0.0
0.004216344892952244 -0.00026638996050957033 0.0
0.0030764681405092646 -0.0002651316104733816 0.0
0.001663177590734562 -2.49691298561402e-5 0.0
0.0005435449905545492 -0.00021367184621023214 0.0
0.0020886512365164843 -0.0002868772332898365 0.0
0.002632611043085033 -0.0003803645243763369 0.0
0.0006777321912755265 -0.000383332722863843 0.0
0.002215774977293564 -0.0011477793841208487 0.0
0.002976281146034194 -0.00026192201286773643 0.0
0.0014350661075719826 -0.0007360454418498282 0.0
0.0032211775036774743 0.00021474701925527817 0.0
0.004042449163375953 -0.0002828668439900769 0.0
0.0015399991633144167 -0.00015748983695682432 0.0
0.0035418643349307342 0.0002224948951644705 0.0
0.002718353865816125 -0.0003110658975391288 0.0
0.002348183756101359 -0.0005837331711533937 0.0
0.0008479834159736828 -0.00016408500044543434 0.0
0.0015962748018963355 -0.00033568343411344043 0.0
0.0020248588977531726 0.00022007267726813123 0.0
0.0006306712428782441 0.00010725669104024528 0.0
0.003578391495289249 -0.0004683923375295443 0.0
0.0009345588446025729 -0.0003619710323568143 0.0
0.002412999140441742 -0.0005675722505289003 0.0
0.003975892930663637 0.00010114000520944443 0.0
0.003396619614147126 -0.0004552034592289504 0.0
0.0015608588480004169 0.00015804206679277363 0.0
0.0002830610760530641 -8.279298435968288e-5 0.0
0.0012144059689996759 -0.00029314393708089096 0.0
0.00010766638639182141 1.0501486694064895e-5 0.0
0.0002252368207613711 4.599017342506278e-6 0.0
0.00337587480650018 -0.00041877584936868414 0.0
0.002788924315280539 -4.131997296781268e-5 0.0
0.0015628600343718252 -0.001038297103634271 0.0
0.0010877337340884608 -0.0006752287971215995 0.0
0.003938526448060068 -0.00021857338457964857 0.0
0.0005252978249880718 -0.0005135345818047584 0.0
0.0032764179387480036 -0.0004820396571335308 0.0
0.0027443199530711895 -0.0008479266576667394 0.0
0.003908488037431696 0.00015605324138524148 0.0
0.0014017015433840899 -0.0008773919967694113 0.0
0.004275985576941315 -0.00042333184555004127 0.0
0.0024590393921311983 -0.00025469451420672106 0.0
0.0007660059997153853 -0.000668203727241524 0.0
0.00333627518158516 -0.0009566703222213561 0.0
0.0007857254729947342 -0.0004294894597288252 0.0
0.00451368390442859 -0.00019385839985620757 0.0
0.0005585078054125941 -0.0003026488215942075 0.0
0.0033407544803072966 4.903957678573273e-7 0.0
0.0030808469999195234 -0.00023427839971363124 0.0
0.002504202492317482 -8.322398353294288e-6 0.0
0.0001097558720625478 1.618878815911824e-5 0.0
0.0017990266833834319 0.0002480574889804702 0.0
0.0012981831976468779 -0.00017682992774373314 0.0
0.00384216668866852 -0.0007443109947989494 0.0
0.003894734127871088 -0.0007616961299797939 0.0
0.0003593432295951065 -1.3412501609533378e-5 0.0
0.002793522392352919 -0.0002946149151303708 0.0
0.0011366311348457538 -0.0006747868214480511 0.0
0.0019744035830240167 -0.0006366220916454027 0.0
0.00011205531492284228 -0.00010932326600955142 0.0
0.0002647795007750731 -4.7690897167237914e-5 0.0
0.0026872839032093645 -0.00042217377349216005 0.0
0.0024777657895731107 -0.0005495929410111254 0.0
0.0001726484262277365 -2.695703201797276e-5 0.0
0.00046322688166984614 -0.00017532634845864438 0.0
0.00034587884555523855 -0.0003899307233812409 0.0
0.004008669704009125 -0.0004550068924122176 0.0
0.0031693981150497682 -0.0006297510388203866 0.0
0.0005540532423232635 -0.00040727526144418197 0.0
0.0036984494784864123 -6.500511279820089e-5 0.0
0.0034050125130976484 -8.855760164459628e-5 0.0
0.0002429875744985418 -0.0002715418186304623 0.0
0.0019784617725427138 -0.0001899486376316855 0.0
2.929509853728542e-5 -3.7631074183126526e-5 0.0
0.004769613494804067 -3.665799695681505e-5 0.0
0.00463921994166132 -8.37742933515354e-5 0.0
0.0014141160962096338 -0.000994398565977408 0.0
0.0037105775672667545 3.758994044768316e-5 0.0
0.0031837559178224282 -0.0007642746353268118 0.0
0.0006204960008182595 -0.0003120329170149223 0.0
0.0030291897868319766 -0.0010841875215053304 0.0
0.0006751260916178692 -0.00016543405504599638 0.0
0.0041619676040505664 -0.00021400104129574104 0.0
0.001912028686780787 -0.000648303909854248 0.0
0.00017068599976571285 -0.00013564768653033011 0.0
0.002201796036313139 -6.301946770942548e-5 0.0
0.002201090118276132 -8.326238101219679e-5 0.0
0.004361649835436606 8.683448176128773e-5 0.0
0.0027192278903293366 -0.0006541497843444311 0.0
0.00034352559144859557 1.920369232359942e-5 0.0
0.004238498814190202 -0.0005126110708340325 0.0
0.004408295622190604 -0.000136232894124086 0.0
0.003378893047703238 7.550573696936862e-5 0.0
0.0034648042919402664 3.758777641901906e-5 0.0
0.002071432932630062 -0.000990783423165003 0.0
0.004680114081758926 -0.00014288066338574127 0.0
0.002035200848043761 -0.00015954213286561858 0.0
0.00041239194729137004 0.00013595447927035578 0.0
0.0005399843716026523 -0.00044386723663569116 0.0
0.0013959214839616666 0.000197071297806148 0.0
0.004241124506595829 -0.0004262128122158216 0.0
0.00024102051259374373 4.1055594416113206e-5 0.0
0.0025283198761258353 -0.00020325326313369962 0.0
0.003775591118122606 -0.0002831276599748344 0.0
0.0030469547959261958 -0.00039381382777358673 0.0
0.004701217728909113 -6.256011921633324e-5 0.0
0.0001038674333154811 -5.858446298729724e-5 0.0
0.004420828615037094 -3.382057088861083e-5 0.0
0.004715257469201567 -6.139170333371516e-5 0.0
0.0023401903503320466 -0.001107617995408359 0.0
0.0027641152138565815 -0.00040608299424939385 0.0
0.0015260784832437939 0.00025681778471707545 0.0
0.0011294552594059918 -0.0005075673019791724 0.0
0.0014991399742519465 -0.00026311213369419924 0.0
0.001968116936199966 -0.00021203089460128234 0.0
0.0009412570772559049 0.00012318376962123216 0.0
0.0017509095136270638 -0.0007620141667685989 0.0
0.0008613612260184247 -0.00012872204650988164 0.0
0.0005514696004324319 0.00013330208850218328 0.0
0.0022468333699210523 -0.0003596909899738716 0.0
0.003446352904638458 -0.000629573845007433 0.0
0.004074003262102336 -0.0004160951939887971 0.0
0.0015847776287513618 -3.116949314687132e-5 0.0
0.0010453251197867354 0.00021693228444529444 0.0
0.002607024032930529 0.00012707540240311632 0.0
0.0013835920767359747 -0.00017112055559050592 0.0
0.003860857047892086 -0.00042773219663590044 0.0
0.0012855031966287176 0.00025543598238568396 0.0
0.0011547132895925543 0.0002507842073497639 0.0
0.002661437548571619 -0.0005971405934904959 0.0
0.0026771006915286633 0.00020527719953591028 0.0
0.0018843801900730772 -0.0011065237779655022 0.0
0.0036508696828763563 -0.0008769271733515928 0.0
0.0012888127572577832 -0.00046570693789216007 0.0
0.003398345600562026 -0.0009786781746801304 0.0
0.0010312625107986298 -0.00016774264938984793 0.0
0.003929481223310619 -0.0004199564115460841 0.0
0.0018491535267163668 -0.000622488495764421 0.0
0.004156957190096987 -0.00027593283454414337 0.0
0.0011337116921501477 -0.0004727084746856517 0.0
0.001880844396266015 0.00024407610886662595 0.0
0.001690266437551796 -8.469876042076093e-5 0.0
0.002160773438846415 -0.0008321086727460054 0.0
0.002282069347181944 -0.00026281513756878575 0.0
0.002200442709297439 -0.00010227806951822805 0.0
0.0013175582030194484 -0.0006607452578823022 0.0
0.001332643919366153 -0.0007080895995459209 0.0
0.000855694994204924 -0.0003256611014288544 0.0
0.0011039619719555986 0.00034472876581685344 0.0
0.0022386715702808033 -0.000966614361193378 0.0
0.004188008823739791 9.460466777011437e-5 0.0
0.0037903527274231576 -0.0005313598877561901 0.0
0.002636574983572189 5.6732605222970046e-5 0.0
0.0012311462535501915 -0.00047018753836390267 0.0
0.0033114813332780608 -0.0003668709650187699 0.0
0.0028070432346292366 -0.0008213109802129543 0.0
0.0018460226244759984 -0.0005835470631891162 0.0
0.004464341658742032 -0.0001690637017120959 0.0
0.004676370925089745 -0.0001025450051890239 0.0
0.001662024570260459 -0.00030188991803480606 0.0
0.0032221460286980803 -0.0009929570884274121 0.0
0.004335577825548618 -0.0004413696562436515 0.0
0.00021072162561903914 -5.8456149530005407e-5 0.0
0.001141526357079683 -0.00029790650220438145 0.0
0.0013514358175310199 -0.0004617333016927262 0.0
0.004410410977724153 -0.0003811056363296883 0.0
0.0017432880029081247 -0.0007168769184346225 0.0
0.003023890602303133 0.00021319636134098125 0.0
0.00044335439657706906 -0.0004498903140694961 0.0
0.002795876971349139 -0.0004849837184814748 0.0
0.00405494252683673 -0.0003776087519592607 0.0
0.0032369574967215883 -0.0005993370203758605 0.0
0.0045396540617596215 -0.0001630073770969022 0.0
0.003291460407494346 -0.0009044628081827687 0.0
8.332691394162072e-5 -4.9947421841372095e-6 0.0
0.002136907291260458 -0.00034586358594295325 0.0
7.713346218654554e-5 -6.188836149007115e-5 0.0
0.0014808586637642483 0.00013665197181510254 0.0
0.0009976762905700217 -2.6679895005424817e-5 0.0
6.665833981199649e-5 -7.883931887694451e-5 0.0
0.0012139803413891515 -0.0009265137309633528 0.0
0.0011215375321110702 -0.0008475939862356427 0.0
0.0020389254208050913 -0.00011742300515755211 0.0
0.002031838865754582 2.9517749176025343e-5 0.0
0.0008113957601473314 -0.0006967660747864651 0.0
0.0014615513032800972 -0.0001653164866533067 0.0
0.0028472093278951987 -0.0003081492116070052 0.0
0.0008340115713959246 -0.00043042279737848775 0.0
0.003167637985985336 0.00023833999249437112 0.0
0.0028748755356345994 -0.0007930519618121769 0.0
0.0006108864439077095 -0.00016838464520050085 0.0
0.0003419852314984846 -0.0003253673406100989 0.0
0.0024654539269030645 -0.00017528662376084254 0.0
0.00015684864305575344 -0.0001820483555245615 0.0
0.004584684944977481 -5.517801420916908e-5 0.0
0.0015984873457546124 8.509715556460664e-5 0.0
0.0022600658249260575 -0.00033039210589791684 0.0
0.004186894912004493 -0.00047094596817374247 0.0
0.0045466384156979504 -0.0002818127153150277 0.0
0.00378983118220275 -0.00024410170197119584 0.0
0.002232106807469408 -0.0009206787324111317 0.0
0.0029034816247091337 -0.0004588321283989019 0.0
0.0041007218917314655 -0.0006047777849220503 0.0
0.0024411755744959563 -0.0011604132153730149 0.0
0.004000718716833135 -0.00038148424167597857 0.0
0.003249703513368115 -0.0005595795718393624 0.0
0.0016827427139378935 -0.0006863858539999855 0.0
0.0028606003029568996 0.0002200010845156601 0.0
0.0017791504594253005 -0.0005520555378575236 0.0
0.0014794706434946066 -0.0009203769139086928 0.0
0.002220641718329793 -0.0002699249335476936 0.0
0.0037646288989221293 -0.0007828344569656434 0.0
0.0008476498857435023 -0.000293669463984329 0.0
0.0006745047312105491 -0.0006181693664284191 0.0
0.0034636950203291144 0.00010790789936007782 0.0
0.0010768153788619484 -0.00033344846745577946 0.0
0.00277733530250726 0.00020790695144627712 0.0
0.0013814975167401934 0.0004968804991054898 0.0
0.0035454557848265448 0.00033534813561800745 0.0
0.004145254243814215 -0.0002474501967392503 0.0
0.0022940896260249047 -3.9063881624692245e-5 0.0
0.0037038941538116033 -0.000283113549229035 0.0
0.0029462093245028525 -0.000863328451014246 0.0
0.0031270639266706307 -0.0010647063568231866 0.0
0.001415584294697525 -0.00045499504087892685 0.0
0.0013812885924808541 0.00026265683252836466 0.0
0.0009315237484658578 -0.0002977471122896766 0.0
0.0010247156697769733 -0.0008480133764645656 0.0
0.002099202325323651 -0.0003837761990459973 0.0
0.00010604309954431114 -5.298704237526091e-5 0.0
0.0007833180192263058 -0.0006389702869316423 0.0
0.002289522459145096 -0.00014323258662643108 0.0
0.0002653693162808971 -0.00020180190296289967 0.0
0.00027561145734441233 -5.4396824411481985e-6 0.0
0.002528664391025303 -0.0005353239768572028 0.0
0.0025296296700796157 -0.00018429197424872404 0.0
0.004494116571324655 -0.00031014172853521035 0.0
0.001965043740047638 -0.00016815374439118393 0.0
0.0034668048027575882 -0.0005875742239634423 0.0
0.0025511692336050522 -9.237662599448284e-5 0.0
0.0006413203572895143 0.00012491555749005547 0.0
0.0008496370161413179 9.733854674216185e-5 0.0
0.0046053739695211555 -0.00012054092552922057 0.0
0.0029435205725658305 0.0002163801752848161 0.0
0.0006853262953566274 -0.0003192169787617533 0.0
0.002913101208615714 -0.00019667321190015925 0.0
0.0021893994760263194 -1.3433988651555247e-5 0.0
0.0025081999130298696 -0.0002640462659832321 0.0
0.0007709752884665995 0.00022670048592884605 0.0
0.00254628960058326 -0.001162411265534283 0.0
0.004370534098196066 -7.433352666693717e-5 0.0
0.002485333177797482 -0.00044453200007360305 0.0
0.002462592830153618 -0.00012041057999545591 0.0
0.00313464705584721 -0.0003355171315715614 0.0
0.002121606243204528 -0.00011113571825830221 0.0
0.0024962546044365744 -0.000411605361804665 0.0
0.0011927783231923588 -0.0007200037095684274 0.0
0.003319174989041751 -0.0005291109485169257 0.0
0.001967344465270209 -0.0003046637695541165 0.0
0.0024612851336024808 -0.00015748119959380568 0.0
0.003935012140428703 -0.0007441204203741094 0.0
0.0021000356788595225 -0.00026302795194841575 0.0
0.0029382996940778994 -0.00014437201086851822 0.0
0.0025632216558481536 -7.412848091738144e-5 0.0
0.00035885857290181305 -0.00038296884166964573 0.0
0.0038079498799720966 -0.0004975298989982542 0.0
0.002545286431912269 -0.00014107652150323655 0.0
0.001397857631946363 -0.0009184804439675072 0.0
0.002773680975540804 0.0002190364228917989 0.0
0.0035017060576908302 -0.0009466353065826362 0.0
0.0046127551429360255 0.00010127209864803366 0.0
0.00019658350863158107 0.00011233561598391989 0.0
0.0020470534151477496 -0.00039709143396840366 0.0
0.002740802747436554 -0.0010980263807837873 0.0
0.001709963426332565 -0.0010329619750305014 0.0
0.0019497844741709408 -0.0011190190793381022 0.0
0.00035466668739083393 -0.00016170179486004675 0.0
0.0035285718480797873 -0.0005603783566232958 0.0
0.0014227521849900064 -0.00042013202338591905 0.0
0.0020281339363557665 -0.0002728235835727222 0.0
0.0015932764970098049 -5.958155873690048e-5 0.0
0.002021401198890502 -0.0010935100061268386 0.0
0.0034722773121052862 0.0002351165017089445 0.0
0.0044149400370276926 0.00010089381106580673 0.0
0.002946296680480242 -0.0008278426966126627 0.0
0.002477958397083391 -0.0004805487128459437 0.0
0.0015813168441411278 -0.0006791164956012326 0.0
0.0026526941280924114 -0.0011570372143009488 0.0
0.0036736281763299597 -0.0004798159075122457 0.0
0.0003081289672630493 -0.00020065321120649272 0.0
0.0043118674678708484 -0.00015554815875607684 0.0
0.0021340730563943694 -0.0011045383636372965 0.0
0.0021888604786059114 -0.0009890831958087518 0.0
0.003348904536613965 -0.0008631677941495567 0.0
0.004737672406606185 -6.842978775289699e-5 0.0
0.001813228057148196 -0.001057058283507293 0.0
0.0015004043007640182 -3.47278153743581e-5 0.0
0.0016031496585507195 -0.0003107631425029831 0.0
0.003115707917069762 -0.0003733948998709599 0.0
0.004611271955261009 -6.0515825117987715e-5 0.0
0.00037360996048058326 -0.0003393733362841321 0.0
0.0025041924969997 -0.00038303429264767257 0.0
0.0042994284744588985 -0.0004274388837349148 0.0
0.00459074748429785 5.957874535866797e-6 0.0
0.001350991632774695 -0.0002503175985173596 0.0
0.002185382711456838 -0.0011145936616124888 0.0
0.00447879875670396 -0.00014799615844004525 0.0
0.0008137834767206832 -0.0006000574911908709 0.0
0.004676153202667613 -4.226003481478866e-5 0.0
0.0015175647276851926 -0.0010336702241161167 0.0
0.0033317777004316317 -0.0004896268613196067 0.0
0.0008995452752409348 1.735266549305021e-5 0.0
0.0030117211308943637 -0.00014957584212705187 0.0
0.004642765392835281 -0.00016838964832248575 0.0
0.0037399685078196685 -0.0004479779543839414 0.0
0.001328801196491538 -0.0009326830181226424 0.0
0.0009330383625742942 -0.0008045801507629721 0.0
0.0011931974999818012 -0.0006546300702682646 0.0
0.004024607718782878 -0.0006527590234556744 0.0
0.0036361468604563696 -0.0002854005463204185 0.0
0.000745830219096164 -0.00032922409064441936 0.0
0.0019356780548873713 -0.0003796889050918676 0.0
0.0031112038063013984 -0.00041216336592930905 0.0
0.0018698447468100971 -0.0004499900523742542 0.0
0.00450824369638563 4.357819855041531e-5 0.0
0.0033193151983321907 -0.00022423244231735932 0.0
0.001956699931470437 -0.00028254787719072096 0.0
0.0007669601766013484 -0.00028918283570909234 0.0
0.0035606670026661126 -0.0005014821010320443 0.0
0.002993762526615523 -0.0010096441021037019 0.0
0.004197671953626325 -0.0005471843485238407 0.0
0.0016284013019653135 -0.0010157800306789388 0.0
0.0030792225336979365 0.0001571915689793381 0.0
0.0017834965982325495 -0.0005141520605362711 0.0
0.0028443361803948213 -0.001085473787413183 0.0
0.004150862697442472 -0.0004752888532908231 0.0
0.0036000873171955325 -7.502166225979e-5 0.0
0.004508706310484741 -2.1256330588584504e-6 0.0
0.0010468804025128282 0.00022942254123426348 0.0
0.004385894412176581 -2.062393014767064e-5 0.0
0.001560021814860534 -0.0006214576873500351 0.0
0.004059726876233407 0.0001081125394574356 0.0
0.002853090995987177 -2.2723332679486934e-5 0.0
0.003341579190575326 -0.00015840736238183448 0.0
0.0014637746069155763 -0.00037411808070220154 0.0
0.0033956367037706343 -0.0002710134139312607 0.0
0.002293144993839979 -0.0011191670276853938 0.0
0.0012413255407949584 -0.0008748461520954861 0.0
0.0025866731497044045 -0.0001931717497918111 0.0
0.00358736494909489 4.894910740275858e-5 0.0
0.0021491774367933835 -0.0010436052267528261 0.0
7.315751187647845e-5 -5.342346327021732e-5 0.0
0.004637012047531984 -7.71261252917705e-5 0.0
0.00404229008488379 -0.0001549333243116559 0.0
0.0019398282821712068 5.4695923710347995e-5 0.0
0.004698179811746519 -8.992423172324117e-5 0.0
0.0012814598125116914 0.00019783092470818532 0.0
0.0021909470160216336 1.19336617887842e-5 0.0
0.0047675944879629764 -4.139013333252705e-5 0.0
3.1085055017110664e-5 -4.161204792925774e-5 0.0
0.00010882055335612057 -9.90658737908401e-5 0.0
0.001376548649420283 -0.00014451033592272587 0.0
0.0029495059801047216 -0.0004729230071759334 0.0
0.003342755675660513 0.00012096471416791873 0.0
0.0037689511187844146 -0.0007441218680845262 0.0
0.004652857733271511 -9.252784643992158e-5 0.0
0.0003432592860829479 -0.00022979224029150117 0.0
0.0009948111760867521 2.8559552587898266e-5 0.0
0.003013622026032554 -0.0009608615279002026 0.0
0.004183568861317357 -0.0001597793172217215 0.0
0.0012327190714365081 -0.0006514862566638173 0.0
0.00026688384561978046 5.459352079328809e-5 0.0
0.0029813754563427957 -0.00020885925255152937 0.0
0.0014274595032375383 -4.172254596195497e-5 0.0
0.003550347251756172 0.00023371835049717184 0.0
0.0022356674933513656 -0.0001386401143740076 0.0
0.0018543069171496702 -0.00047870586722431255 0.0
0.004246061052509616 9.948721261105881e-5 0.0
0.004370650721756553 -0.0004203430138160578 0.0
0.0036311986424077125 -0.0008527090780950882 0.0
0.001085013719138011 -0.00030524592600556844 0.0
0.004431856221987633 -0.00014135973123334276 0.0
0.0007288683475152823 -0.0003958599936962823 0.0
0.0044668847539231366 -6.479973876689782e-5 0.0
0.004061016793666803 -0.0006375871723145082 0.0
0.002885067243508352 0.00012545886776647926 0.0
0.0033787637123294575 -0.0009540569618000391 0.0
0.003498910485470825 0.0002287784539314877 0.0
0.0022168447366443804 -0.00022228493161372752 0.0
0.0012299288504310337 -0.0008289081289460513 0.0
0.0016514116523043065 0.00025212261911197693 0.0
0.00011239404418322672 -8.629240154501303e-7 0.0
0.0045955702975749 -9.087106486611022e-5 0.0
0.0004789646033502352 -0.0004852531527327282 0.0
0.003542137206710789 0.00013057628819788678 0.0
0.0008490390737781418 -0.0007237018983421308 0.0
0.0033348268527907668 -0.0004577713444257726 0.0
0.0009744365874792654 7.326587606702757e-5 0.0
0.00040631567925874715 -0.00024650693702036604 0.0
0.0005869403715992842 -0.0005952419373286039 0.0
0.0005306546323283802 -0.0004134125882384072 0.0
0.0013665144925162954 0.00030044756712749586 0.0
0.003753499179942897 1.1887357959866186e-5 0.0
5.5931268609035985e-5 -6.304737015891179e-5 0.0
0.004010643903405712 -0.00013693252512705893 0.0
0.003622008734768651 0.0002917033408626329 0.0
0.00302083087321466 -0.00045031588292166104 0.0
0.002240482271670988 -0.0001730710926776063 0.0
0.0012603313822590714 -0.00010435542042237247 0.0
0.00229804098784758 -0.00024265252669513693 0.0
0.003080789998360628 -0.0008780682915846942 0.0
0.0014795178133270633 -0.00041950901099644213 0.0
0.0010899222968987449 -0.0008461938842429028 0.0
0.004129646741660387 -0.0003821546479650986 0.0
0.003148501242961274 0.00024001620028745493 0.0
0.000482253424197908 0.000109738341561628 0.0
0.0013960321978679906 0.00013372387980912994 0.0
0.003238429420818098 -0.000339635170506071 0.0
0.0030687122411479028 -0.0010407433159047735 0.0
0.0019305630004010758 -0.00040724556125812535 0.0
0.003883469504586241 -0.0007388417906932896 0.0
0.000281140158391618 -0.0003137277078498309 0.0
0.0034006557385058323 -0.0008286052610725773 0.0
0.0015795690306414378 -3.1268862071304576e-6 0.0
0.004526597443906784 -0.00028393622458336876 0.0
0.0015116459995658952 0.00010475400057525247 0.0
0.0029624421400256786 -0.00010370727810996084 0.0
0.002547762444783378 -0.0005126330132614536 0.0
0.0021956359365588613 3.5135312890476097e-5 0.0
0.0026352756012177243 -6.351563738995603e-5 0.0
0.002957277537997103 -0.0010596019669630989 0.0
0.0038019686962821853 -0.0007708831527530615 0.0
0.0011886070354405343 -0.0004780290085781793 0.0
0.002702549591524216 0.0001586511455752844 0.0
0.002638235653971657 8.185103777441539e-5 0.0
0.00378513352566861 -0.0006967257598524423 0.0
0.0022257254639254692 -0.00020244385593669892 0.0
0.0021132084790384557 0.00012794085523220382 0.0
0.0012228124944100214 -0.000785937285509846 0.0
0.00449862783699928 -0.00028828391972414815 0.0
0.003202183163501814 -0.0010440429368764026 0.0
0.0021547134092199534 -0.001011957200098502 0.0
0.004629026895386528 2.1859540773765084e-5 0.0
0.0021252787575541544 -0.0008936856362422143 0.0
0.0035359307956072763 0.0002527441237032222 0.0
0.0012716051891658697 -0.00022688312417893075 0.0
0.0031446190059935355 9.477895897151735e-5 0.0
0.0009173800859185976 -8.764040183191965e-6 0.0
0.002003958493762034 -8.506505123635862e-5 0.0
0.0012649767749356082 0.00039805354636168603 0.0
0.004713646998289261 -5.872874364637484e-5 0.0
0.002965767849891963 -0.0007976026075071038 0.0
SCALARS damage float 1
LOOKUP_TABLE damage
0.24882529836139639
0.055701622936355416
0.2503053539660123
0.08686650990647987
0.9626958560518013
0.9617547395999337
0.009209448452104889
0.39440664867552194
0.3852687368470738
0.38376789318562804
0.3999413079312216
0.4149004321130109
0.4378884096492948
0.4605590037200731
0.47670040532398333
0.4929028024597799
0.4918398548337745
0.49036779858421087
0.4811465089995064
0.4636593545532501
0.4461739720076893
0.4332218722340623
0.4117284851309306
0.38637160542906657
0.36959786303014336
0.3456212420927408
0.3158310497145576
0.28965951702174025
0.2552587059882151
0.2220343788655647
0.1846114993623694
0.14407737536851697
0.045573253747992336
0.08880231534732994
0.09990049819744089
0.11666536784572541
0.12883287238341476
0.13842985257048504
0.14950011300741084
0.1580647053085423
0.16701352284617324
0.1761324067953606
0.183540292315183
0.1923155757369822
0.20126771648070083
0.2076260832969771
0.21478070031757135
0.22281026154441558
0.2320257272804388
0.2427576389930956
0.2494089736388341
0.2582633891267718
0.26708542057773726
0.2789640951011449
0.2840449034652317
0.2986774433599796
0.3055877484511991
0.31943952561654815
0.32895485044837824
0.3454344786198093
0.35071321409675416
0.3693795670976446
0.3815791512980512
0.3984278561571431
0.4105080956977415
0.42960411545851507
0.4409319058905362
0.457385911834424
0.4767692296125839
0.5014494377904526
0.5243635309666246
0.545248297606293
0.5686142428653848
0.5992569394837794
0.6213577456463257
0.6503680115463133
0.6834094794835021
0.7068780739191015
0.7428160438019114
0.771454081412689
0.8009366974446609
0.8359945363942576
0.8638490788276998
0.8758244629972591
0.9056368038866217
0.9123774658573525
0.9267829347959908
0.9202191911222201
0.9018350015338052
0.8755572091493421
0.8490016277536566
0.8163284365137407
0.7906474501636401
0.763272954422069
0.7423496630796266
0.7151421934909591
0.7028218111484498
0.6805465576048647
0.6572815950987175
0.6412230424913675
0.6222096666244877
0.6120024399451918
0.5889332054268566
0.5823513439871909
0.5681996559322713
0.5549586080036729
0.5447526857363563
0.5254593134657491
0.5185943139056965
0.507073571475304
0.49491671505743257
0.4798980821653445
0.47848900600427435
0.4594568830892417
0.452486708229106
0.4385449316304681
0.4287850384035835
0.419063367994397
0.4044256020373885
0.39405656641042214
0.3850472959385354
0.3719509324687917
0.3564907979707725
0.34106172431895365
0.3290661842805843
0.3134191321300881
0.29946810118733846
0.26624070814706075
0.23954815773648044
0.22461385201172385
0.13631023766729047
0.17855821812768102
0.23136814376594536
0.291118794605745
0.3303316556220217
0.3541013780051118
0.37486028348470757
0.39059560093663453
0.40204817212298116
0.4106785444200155
0.421929429556068
0.4294295030943786
0.4362318638094672
0.4426875722838667
0.4486050854931796
0.4499234630219384
0.44633014395633264
0.4387105356165503
0.4320061063293026
0.41158998183307466
0.40251658737892404
0.38996931356246445
0.3793847785229336
0.3853170177802694
0.3927718778619405
0.46085186762439867
0.31312009928524553
0.68643542460833
0.9566901831544762
0.9957026439269131
0.9763803643453327
0.8958270705682753
0.7426627348332465
0.6336948720591838
0.5130030165391666
0.4157138137263074
0.32370361126514313
0.26681398640768916
0.20081090312843364
0.1425650059573144
0.08449175741982896
0.061049022676237984
0.007628607932325535
0.029863678788724552
0.05841782228979345
0.09898469091026048
0.1522484457211585
0.22743981745240577
0.3244156532089789
0.4605808734621306
0.6235699548042554
0.8307903897491649
1.0038245486878026
1.0080184046241603
1.0048921675366722
0.9275242746405976
0.7798659559554746
0.48506168800546645
0.36327914069619205
0.6202565607497599
0.4730057035993455
0.7411742890326413
0.6320891990131869
0.9110693612590824
0.8056041885926903
0.5379853492184689
0.2957953710597586
0.4824801999800453
0.24893523679986465
0.46442767207668384
0.44350969041482513
0.276445460751559
0.3113248669252869
0.019679477455297335
0.1234115972006807
0.4232756992630547
0.20842971567344576
0.40646277822048077
0.4215611147258479
0.42197758539302804
0.47361241269222837
0.37489403187113524
0.17226893968298793
0.5704433420154955
0.3216306823567099
0.34312967553904605
0.3874964685561434
0.5541086782996605
0.7188054613290467
0.8160699056752049
0.8766292563422733
0.6879406517923731
0.5741210533047718
0.4249929983679903
0.32659039493402536
0.3279549104178938
0.14412268765912906
0.38216354301657135
0.43918805012211654
0.3362457522385436
0.24691045582927196
0.7418894135678599
0.5892564274750689
0.3766620022194617
0.3870212230523761
0.4423727154439239
0.4402845701640923
0.237649495874525
0.05578448616470533
0.10981641445994539
0.26758391684487876
0.645345499149253
0.9106691890475473
0.5106990927191528
0.3900151818082779
0.8677712525423531
0.5122914112868088
0.27643611541523566
0.45739201476658276
0.23029464072873576
0.190036847172155
0.39748752029507883
0.6566426811498369
0.624313639167572
0.2671487525379833
0.1768912793346566
0.9383632215919401
0.9222680150904758
0.3467548640624724
0.4112157064118234
0.08271364331012399
0.21103720426120912
0.8787444846930698
0.5877829103404887
0.43651336775038
0.4563268677598176
0.5578761893885004
0.43841503783557945
0.3931092316969047
0.3793823683429156
0.3586730708610607
0.3473435349261559
0.35817210899995905
0.3400212031590958
0.3502230015152918
0.3389096375185034
0.34910137987720724
0.35064637267542376
0.1558836284119764
0.05531247419982238
0.1401559209783822
0.07327659161741236
0.13484104418041906
0.09674667937934844
0.1405671555050972
0.1153350034847955
0.14804013427827845
0.1289089717229101
0.15258379940416436
0.141922569547664
0.16362820050509014
0.15246286631550304
0.170650286376292
0.16304809243876187
0.1778435220992591
0.17043165243977332
0.18379172568715257
0.17856014266643613
0.1900790169836901
0.18680487944634444
0.19602751310159364
0.1937238612874944
0.2037023080004044
0.20247220919692877
0.21081604442492782
0.2089342980768451
0.21714527422185353
0.21460843924744594
0.2237439309311315
0.22391828753224857
0.2316246080692242
0.23192336049135032
0.23881629239662314
0.23954898204849015
0.2464640244405053
0.24801783301904048
0.10993286326266488
0.25455154858841866
0.16886662151084086
0.21983056947195012
0.2564057843913304
0.26328985267888544
0.26556382098198167
0.258824090039854
0.26822494527219337
0.2725726049620362
0.2706125038444373
0.2315320657205146
0.28031426517814445
0.2782492928153542
0.28769080573998024
0.26158414430674987
0.27142574984452456
0.2857836465488859
0.2650586997336361
0.27508714650078003
0.2965727030980635
0.29506163694914767
0.2696849883781578
0.2797329784528094
0.3062196516772218
0.30514134539990617
0.2741470746649328
0.2841891670370162
0.31684318600738554
0.3160020909887547
0.27776662525590123
0.2889537691402025
0.3281703825055989
0.3273761690507983
0.282114844176417
0.2950970050957402
0.2879285058143499
0.2765154253536028
0.3291930155145124
0.34010425112629744
0.3389111958089913
0.3259367189867708
0.20095002113830818
0.33838594340087197
0.32531117537192816
0.33797968048248794
0.3009897345566612
0.29426259941967936
0.30581893735225796
0.3527143627858415
0.30519646232218306
0.29826908708583794
0.18533351745783405
0.30884910802267446
0.30212322263562014
0.3121254863098812
0.305371053518637
0.295945732603486
0.2987953923321953
0.292036622391999
0.3149848590100465
0.2971765385629257
0.2892059506663378
0.3232275810035789
0.3248071622989599
0.29385321263268416
0.2882329290051836
0.32728385034952906
0.33964363603164127
0.3336021365099795
0.33393071548100023
0.33001798048790554
0.34357315921531745
0.35421495505697226
0.3569736636160615
0.3718195129760249
0.37195268502871953
0.38753670288508846
0.38583478570070995
0.4027313219405211
0.37327089211859077
0.3990699728932211
0.41814460290925426
0.3438475102682225
0.29337400895628984
0.2886418918510974
0.4227870556881546
0.43901557170027866
0.4320540792264881
0.44879524288290973
0.34358854745572476
0.4541673985592799
0.4445519964025864
0.3543124511611663
0.3541342205810991
0.3436923511708145
0.46738887757622394
0.45632464077475937
0.36636108660289735
0.36740875682628693
0.3530044234998262
0.342159328270332
0.47653182316107057
0.4660221222664543
0.44331121837008935
0.4896503431579039
0.45064841795356386
0.4324010551305012
0.29425552947798844
0.2913197329954965
0.28326557561225246
0.291029684380876
0.28004892611260873
0.28902556781844146
0.2767114992705846
0.38026640739545364
0.38135955619522116
0.35009116067066043
0.33973387544415956
0.4717467520088482
0.2905483683914438
0.27766265834104037
0.3950649311594853
0.39640248196504796
0.28876044407358203
0.457090387211787
0.19494576114056894
0.6235313981780782
0.19534258394764287
0.33473253091373584
0.2926853924890651
0.2788339103451506
0.3481002246019337
0.33801319121953965
0.4105806383659923
0.41329487097461665
0.47783844176205487
0.2992235026275643
0.30024936364093613
0.30329818324511265
0.45994803042389243
0.29933298567501454
0.28268965747581687
0.40804472798764707
0.3440288138147367
0.33392189813880824
0.3216430494855972
0.32890310708188053
0.3156991574752168
0.3273998753558587
0.42808659865407245
0.43053224662435036
0.26359288027586464
0.3045284908700302
0.29477063808212656
0.4814232290851885
0.49776336211380484
0.32080077679092395
0.3052623005099739
0.4650379000829653
0.4453731629455608
0.3299599258861011
0.35568262333103196
0.44750809321664103
0.44944584350728495
0.43160879702239807
0.4507733910480788
0.4316384902249405
0.4508953624672033
0.4305004813615422
0.44918131055864596
0.4275917856028876
0.44584093152964743
0.4694577636412695
0.4658715894661316
0.4916638097993266
0.487261172066595
0.5153066932190029
0.5098879752067066
0.42370555774695035
0.48090665310442204
0.5027579220026748
0.5345670653364469
0.5266197228795164
0.30402294626949566
0.30389908534880195
0.3398594252623981
0.33004174690661575
0.49454121968334236
0.5175248181276939
0.5526063594754078
0.5426979474931174
0.3092402841552162
0.30718639423221744
0.3145060951214228
0.32953187352314195
0.3177479077323345
0.4851179776068652
0.4673589811782376
0.468521236887382
0.260829106262035
0.2989198859327617
0.5810586286565841
0.5701829969128295
0.53202968502426
0.5593520528657421
0.2846096807783874
0.33772317041092115
0.34828435764688365
0.3162650627715076
0.33484056429149395
0.32552174822428387
0.3245972325668031
0.5998059124932956
0.5886562008271043
0.5473041928303194
0.5773654722998629
0.5369417998090174
0.5647697347837278
0.6074337542195022
0.5924752173737453
0.335908789361432
0.31262343305525586
0.3090450571555915
0.46603597529614565
0.4884395155822108
0.4715391632930562
0.6320151780720622
0.6179600006150924
0.3171957277213971
0.3309883512863572
0.3209647276981142
0.2782991016071463
0.34363100209577235
0.48836839466590254
0.33325127188256726
0.31872858995937053
0.49299238053713534
0.46953271710950495
0.4470092467865844
0.3463299537028521
0.5063218868724263
0.31866156983570065
0.3371293423041805
0.3539851282801351
0.3414913056461002
0.5266860482141709
0.3237522893673238
0.31466975866129643
0.3153065712450265
0.31001403996646476
0.33116883482109405
0.6568585025780123
0.6362779794925961
0.3121505932577316
0.30674776095291184
0.6734724620096951
0.4837185815195455
0.3077544756319722
0.30017503435028553
0.41342055862276794
0.44624178329335695
0.4268003701141811
0.4687338579220044
0.6732805167212724
0.6520335873021346
0.5014437690886531
0.492508733556123
0.5075004261164304
0.6178488975473647
0.6311379141279893
0.3185625128619078
0.3099934465551241
0.6630099729896421
0.6409645400549956
0.30003226362199203
0.29257180531975246
0.3768001444578733
0.36698930215097164
0.29355893340010303
0.28649114202563314
0.2835295542050363
0.2776296300174767
0.44428796858729536
0.46572824595276396
0.3137208119477268
0.32810702582706114
0.30425935209720056
0.502481514316357
0.6715353452482683
0.6490126169277111
0.362110132650797
0.5988337740015909
0.5187390579061205
0.2813932797026811
0.2733355275216254
0.2691673323626211
0.26414376231986136
0.2695307347378902
0.26057582083986036
0.26801655458331275
0.25922329818956125
0.2704457531761289
0.26113072140180665
0.27567407257312243
0.24937913623578425
0.2549364056697493
0.31969295155952326
0.3303852735612989
0.23492337209739333
0.24167892708145597
0.3030581008078754
0.28377895513849677
0.4697575363241277
0.4623549738674651
0.30527359990742875
0.5277829199780343
0.5320136077808096
0.4838805574275893
0.45497115232659924
0.4416222859150444
0.45902388732863625
0.477301987920385
0.32833649665099757
0.35691872015257636
0.4788403740387915
0.49612865394512506
0.4738981533215218
0.25874814810348024
0.3996001378952148
0.39656964018166035
0.29975661096424555
0.6769836058415855
0.6545797647193614
0.6290689095192105
0.635594500908458
0.29803159527804995
0.31578534612650183
0.38215920776227247
0.6975476428953362
0.33745411661802394
0.6581768820975454
0.6396677347984498
0.6153148825119024
0.6204989674984875
0.5967337869367739
0.602050924825473
0.6218078155511884
0.6040539722771342
0.22538317199560956
0.22808600571703352
0.2510305058797172
0.5533568262434262
0.5612120713988011
0.48927447626834425
0.4675694367981905
0.464685577550804
0.44823754391398135
0.36195992923169124
0.37314488426055326
0.3416955703193974
0.3335937426624165
0.22274918933127183
0.3318928706458202
0.3022695574873521
0.47842967189753294
0.26901023832641857
0.31174769366987815
0.6190234652957383
0.6033256359821825
0.3610481545810541
0.35041222605013495
0.291463267786304
0.30560865582131225
0.3329831481516781
0.34552093042638504
0.26431386899640186
0.657347173256391
0.35514650983201884
0.5911329052060891
0.3777339225498694
0.211919224981556
0.21691543276185302
0.30893494941065175
0.4757378409128201
0.44785865460058805
0.512295551599508
0.36648990558149425
0.3586376505713838
0.37006404425213907
0.36592525968167816
0.3567737925957963
0.36406405802290703
0.3727554383346671
0.3696186172459238
0.3792696925873569
0.38116367158335984
0.38565627313378165
0.38789086396121236
0.39324732904373877
0.393556767916876
0.38952430798766474
0.39691232018345435
0.4001183562783165
0.35859041914591916
0.30517845589861137
0.30066701668724016
0.3096151901675751
0.40338451475555764
0.40445444152503185
0.4002031282380701
0.6229521825199996
0.6329339138150589
0.6674877019335581
0.6775387921887355
0.7144521569030736
0.723930216266023
0.6852642693554888
0.729796286835295
0.6889361144640475
0.05116321508048194
0.7638434269538659
0.7532539912690225
0.2826199358609431
0.40727591689932585
0.4028326999510445
0.3879615716371939
0.38313944969271774
0.3696681415968545
0.3647520821779577
0.3777636551994519
0.3593699546784014
0.372658532172155
0.3533473268795433
0.36633281998928496
0.34215454831000947
0.3523384986410867
0.3573951489094497
0.38583260495835553
0.3795089434080263
0.3008389573181437
0.2329591980383727
0.13885752103758667
0.4859309769427969
0.41947797388734176
0.41397958255090456
0.19134174276392968
0.21247511644512415
0.5899733370557072
0.35184455048668617
0.4512793852498017
0.43551620508471117
0.24645606379955629
0.48180128759709573
0.46057216344276664
0.18252723947484684
0.7290702672262012
0.6857771001013307
0.4472757758632851
0.441493267890137
0.4284920782340169
0.4238344728215754
0.4353618812409561
0.41799133002276656
0.42956295864184296
0.4118979438382309
0.25497663122706044
0.40132942237491004
0.4417675695792225
0.4435332112453132
0.3265759256808528
0.3266166364013348
0.3979794669253855
0.38494285510720927
0.5840330509667527
0.5906759422392074
0.6969608387651359
0.2768567766005494
0.3048046691555574
0.3853196651729445
0.44988366303955984
0.5721761624439576
0.42492059073135047
0.5867025173627428
0.5857439231343038
0.5968212892932657
0.5807191446279354
0.25508813777656913
0.2624718248360711
0.3481873614671995
0.38212710241243936
0.5401190416346333
0.3105475842999152
0.3193537604015809
0.7170661834808398
0.41184697750858595
0.44148703035298315
0.44841806320689825
0.43319587509175267
0.41828071155791136
0.4177596176333493
0.2666590780974715
0.19705057038347426
0.20405695653268854
0.22949822735308686
0.38711664955872294
0.3846212626919574
0.3953779091436231
0.379077100631531
0.40469878092822864
0.4074261176298396
0.4739948661622267
0.34064389929365396
0.3562402616592458
0.35251714871484024
0.32923095140888875
0.3470337082552302
0.3432403292523344
0.6475842339341689
0.40224456865318853
0.39565786621799465
0.4052364153460188
0.3900441307880795
0.5707130710299229
0.5676134762133686
0.5720471677885086
0.5581816725162302
0.4280059820798647
0.4222945913608127
0.8031869736420034
0.788799153897812
0.340908194649068
0.3460701027559414
0.5717552950874576
0.3969500153610107
0.38239202950138634
0.49107937257429585
0.49281617578382897
0.5054914512801011
0.502351719511145
0.6163280496899041
0.19479612715937894
0.2824123764985747
0.2896144391433445
0.3523906124657323
0.36599998845030834
0.3550345875476923
0.3797991463290936
0.3676484536449594
0.3928854176902066
0.38011141513236363
0.47616117155791576
0.38109559044809427
0.5639626530928386
0.7181340784197473
0.738090443045328
0.7389714238959914
0.7248832532134868
0.42828589265183503
0.5564163948679332
0.4013610167817597
0.3967748671608435
0.2673033940077149
0.44784705313448714
0.4656898693403223
0.45694052225987514
0.7731768378549828
0.6815049880059909
0.3014047718708512
0.4057475615808224
0.40848885167493876
0.40500725182051733
0.4061779020170671
0.499351641960059
0.6321203330093209
0.42211099541191105
0.47245184690817515
0.31453572266271146
0.467909522887202
0.5836543184629673
0.5664069812052901
0.433598065291264
0.4388234871304764
0.32033950231179764
0.3302929057343897
0.4048487026740461
0.3922971747936415
0.36679960446269216
0.37839993130584665
0.4024299293217646
0.38816539070072537
0.4097298935670133
0.39517186614913996
0.41420577081471727
0.18372082511460094
0.42891749891396086
0.19167144881650194
0.30088670387881894
0.3972912418233027
0.4187052687957425
0.3701815595667262
0.45559775802323993
0.3981982773737825
0.2511322713246195
0.24468969807652224
0.41360523241040603
0.7123216535658518
0.49499186809282114
0.5436515588867782
0.3935415090300603
0.361520388877607
0.34958366073039293
0.36490558596921235
0.2313555252529356
0.35378541484095855
0.335855586911983
0.834884529385561
0.8173917604698216
0.7738740639893006
0.7992637831829063
0.5806599939305995
0.5501955859800087
0.3926707257667739
0.39845652455033553
0.5015090503962301
0.5355384408912334
0.29166011555431887
0.38859881921095224
0.3748065932861096
0.2834930826015952
0.5682587427648412
0.4121359638668455
0.3688043591118064
0.8347463134895275
0.8143000190786754
0.4073760280036717
0.41171626264142164
0.38991786766141984
0.2695324555141363
0.28452059644510946
0.16880140522059542
0.7548370139978273
0.3673028119257913
0.7177972607833837
0.3052365946587416
0.2887590800769825
0.2571319376911354
0.5459299870855532
0.31074992775353816
0.3048589934367379
0.30969700032643876
0.30472480824714604
0.3079345998181963
0.30030830726274543
0.75836191102217
0.7595293392477395
0.3662891833300602
0.7631183548229392
0.5447686158842305
0.5463875095427647
0.33029162104584053
0.3593673485916147
0.337671630980436
0.42764453508370576
0.415896557010784
0.35473862106352755
0.3405729320358376
0.3388919670316923
0.3416992608707158
0.3207327321134769
0.35366990744211985
0.4577046412254975
0.4556406079276858
0.4186907630269638
0.8478594709538689
0.4878787892773666
0.3802541156624267
0.37179281509025813
0.23574194766937784
0.37832483104061365
0.4043760786290175
0.40159489361404105
0.29505177605435723
0.24011523055924686
0.23363686120158614
0.23938909193973695
0.2918305123579908
0.17765298524765546
0.20808978577231146
0.8410551715535443
0.8187706750440212
0.7881127380427225
0.5548445538808537
0.5530227025970942
0.546055844201275
0.3013312377260126
0.2979985109665182
0.4182461975179246
0.4109039581547511
0.4086628929401027
0.3979201371230334
0.3815861290462013
0.16696389120406324
0.29552722528488334
0.2783177177194109
0.27029601842192796
0.2534925393166471
0.25332815727428915
0.2577957562790593
0.43872956586581524
0.3308850444580658
0.3254568991268936
0.22934852946921333
0.2225880668604856
0.34875509796261794
0.3519286746632932
0.3645015199842483
0.3644956684645537
0.35525554102318285
0.6783056859834813
0.6464335921707586
0.7106513306361896
0.3390353765971607
0.2971309451611274
0.3451067799422466
0.43311807882265846
0.775127778158679
0.36650663332850103
0.506835935524249
0.27000836640494724
0.25357162970115005
0.26782232813890305
0.25696916392375785
0.2695051489363909
0.2621091561174373
0.2744937400156794
0.26913903273974293
0.2811826856957928
0.2443273772702484
0.25813226249172644
0.7451987960802531
0.3859482436936564
0.4161827037780707
0.40111662791336733
0.44451269636440016
0.34230420499202674
0.2369379335079955
0.3923392123736078
0.3933495018373778
0.1952473052548317
0.20718750746400091
0.37765093648743303
0.4194962155994376
0.4275632367504077
0.36793384749238534
0.35451865198366717
0.27221051644878724
0.15284911984684313
0.3672235290254678
0.3461740685417295
0.1643281771561541
0.5360138122810824
0.5207768365379427
0.5339548312160839
0.5067437554531712
0.26581830986437766
0.3748048242054746
0.24943608763457883
0.39592813966655727
0.37514838379575033
0.3184242574888696
0.31687958306538616
0.5108944799355466
0.6335892784025892
0.6233859108787602
0.6363900237139015
0.6197120231837114
0.6280342820179663
0.6484458748856056
0.6761279976067435
0.735634090965918
0.3999451845476249
0.6001981480269304
0.37183593069438375
0.3500903342070029
0.3399129208671629
0.6102181486798264
0.6004358921598099
0.5947998690426677
0.5206922885699832
0.518695784748032
0.5473005718282463
0.5735361518742327
0.3641009170808783
0.5194324274389115
0.7260670934494825
0.5372468408480616
0.5339271870885482
0.5268406883455444
0.5306730542222764
0.34846800826324115
0.44731106980507146
0.4386545468777473
0.45668293734755394
0.4485435449151625
0.5196888669999176
0.30031446642644094
0.28338031323047197
0.40524814591317215
0.4230929415847859
0.43392195885608126
0.779343258871243
0.7875968396138525
0.446642881362257
0.37767059638122574
0.28149224093472275
0.5106047440080187
0.500955206500388
0.37005286671405974
0.3545171914911429
0.49158457237861963
0.5485820316830612
0.5552202463176128
0.5201610087941544
0.534273539836297
0.4462115741020453
0.8610549829447919
0.39165802559938756
0.39206895065671765
0.4127127079690503
0.47608889928048387
0.870685222630045
0.34935192287673
0.39636070657332867
0.3011793296549148
0.3731723227648157
0.58532556931573
0.3045033243423965
0.46420132748486576
0.6563734728869999
0.636428625175423
0.6602375403869395
0.5778116066728997
0.3970788021292865
0.3342497449099797
0.5732565426811904
0.3667272674131393
0.38494048706510114
0.38143558235832364
0.3526921156324299
0.33400411578875017
0.342737752651122
0.4245413801364711
0.40541880221435767
0.5537741683765095
0.28847292021118914
0.294691482199119
0.291697825358525
0.5380436760644495
0.4916096132501628
0.4287883757665221
0.43636420229387685
0.41951357038513665
0.47072656799575013
0.4660405230859729
0.46398283657151945
0.3983848843687151
0.3932668130302773
0.4010752121404304
0.3888434577110675
0.39054214635564694
0.3879546734184224
0.49316456030887845
0.3601444390815005
0.3785861530731617
0.8377937034153682
0.45039808856602503
0.4253545425864518
0.41977995387253325
0.4113599506407461
0.42514043972726945
0.4160045280756897
0.4178042408435562
0.31248834357416977
0.3102838339515876
0.3063700075298051
0.3076930618990616
0.31241772716622596
0.307546895062221
0.3127908437038743
0.3818167670582265
0.30817405180466095
0.3128426173625512
0.4284725184836299
0.327315241638304
0.3190177933327121
0.30543448871628426
0.534365292699914
0.5505802512294109
0.678551427194808
0.707552334212022
0.5231180762675781
0.25118013462900246
0.23117484722208986
0.1798376017226741
0.20909592249050135
0.23888141619549316
0.20207722108194467
0.21918300019830392
0.17464964833501664
0.19531858742350622
0.1579353206858
0.18596596135953566
0.16073470690190794
0.1833187191866576
0.16687511554047013
0.184351357352508
0.17541550036180045
0.18956119900994098
0.18369451995763966
0.19654979844241308
0.1932941472799565
0.20455529418275425
0.20317311953733927
0.2135569313342571
0.21308222904227153
0.22283937020261904
0.22379931751808524
0.2326342063248999
0.2243682504796715
0.20356707844796437
0.2042136734267093
0.18339353490009663
0.2374506477882015
0.16021749028027157
0.23458170297817385
0.24239445626930387
0.24213305419143147
0.2511603058803825
0.20231051998068802
0.13780521013929098
0.2268609566304054
0.1492532234200155
0.2520434487273648
0.260487878948551
0.2597948774233099
0.23824711302301926
0.2341908695141305
0.24360679425857823
0.25426290848891486
0.2469260090232557
0.16014236981067423
0.1238295413217314
0.26846190835106193
0.26837224060452997
0.2610124185426364
0.2697950376903522
0.8822234443369628
0.8542003831220688
0.40130402593495246
0.7065623672774316
0.7380608711201242
0.4047258321569092
0.42009833570628574
0.34134799380937997
0.39935956501067443
0.2699231186809937
0.36082619464403565
0.3576254078678708
0.36278314066644574
0.3820835810238367
0.2790083731733186
0.3808274590219551
0.383118766556622
0.26151124216616245
0.2406180623877054
0.27238262234064486
0.23304177925981
0.29282600000150855
0.2863388472230429
0.29272690531303264
0.28771560146671027
0.31277208657275307
0.3216861771183322
0.30796549857688965
0.3168690610833497
0.3032687208498351
0.31237645226493627
0.29921252909760554
0.30799885217464545
0.32171439025376797
0.3159303910611557
0.3712136195264705
0.3574524386835848
0.3607805599639206
0.3450567355379364
0.30577250870124106
0.2181119962551739
0.21239727018429688
0.21630597726563794
0.20621008364641968
0.4224672308632363
0.413342613768191
0.43501958368590854
0.29275116747631497
0.2562145690135177
0.24899988208450263
0.6688853046684726
0.3997932731254955
0.3829480755035448
0.3708146201974382
0.37771016464236556
0.3550601854484195
0.32763817764840547
0.3309561839981579
0.3036169204733881
0.3040121374199836
0.33964153051159834
0.42889658138380543
0.3044696310009857
0.2376034921034447
0.25744612047764814
0.4058795168899212
0.4262614102750617
0.5329671066343428
0.5359670223849942
0.5138589694933009
0.44465058491556775
0.49707245098352343
0.34274465077318506
0.13494042201450507
0.13501297494711756
0.3036239162014479
0.5228997544368612
0.5496528052235603
0.54085924361464
0.5634962395016434
0.46535800016724055
0.5294170573503996
0.544779994034216
0.5217487950698971
0.50850145584474
0.5134978140425587
0.4054612762476461
0.4149701533605495
0.41874893280540093
0.4107865270377697
0.29971937211116867
0.41017252943236215
0.4072677688125877
0.697820453781674
0.2008895650272974
0.1932408854163085
0.20184642238236003
0.18898820113558576
0.3742203924876081
0.40553685162364267
0.4143876052578929
0.533466748923066
0.3215194951450838
0.499856531132945
0.48633030336377125
0.47807272701930265
0.4619627898749247
0.4583888396507322
0.4714439702662046
0.4501440493527623
0.7401686003076652
0.7331306916410818
0.6881379104427134
0.2769371826556193
0.30298198557021017
0.2759290268982147
0.2738728447196524
0.45729201828676846
0.4391016976457438
0.3526215713546007
0.4129334331864233
0.35039586992470234
0.3343396727486693
0.373458377192732
0.387612244553467
0.5235557974447127
0.27404754665555503
0.2709534022597117
0.5452481186632612
0.725869146487798
0.3221311946339678
0.30431978624846856
0.32496168126656594
0.5661779387455694
0.5182234665032872
0.6157549127029994
0.42673765926357715
0.5316923482869295
0.3718315652247276
0.28381266753408046
0.4027025592974739
0.4125402238177309
0.43845966896350785
0.2977061512418365
0.2645691942045518
0.5690065116057185
0.5603166950170334
0.14591603400879616
0.8202767949931699
0.8281950532522528
0.5544654438480411
0.5672662644617941
0.5531450788181397
0.5806303029451936
0.5772694952400194
0.22038312687552641
0.22940093537212433
0.3377945215181096
0.42684192209972915
0.3389500009347236
0.5575952957549791
0.5765421446478486
0.5820764390158902
0.18114719838387133
0.17505316956886918
0.40685713561771925
0.28898074848291694
0.285132127139731
0.4478442448255913
0.3953844703296062
0.3775453259887076
0.2743922529273076
0.7780405190206058
0.7937709916493124
0.3193514035482446
0.3125716043246469
0.5621472886202218
0.5191913823293618
0.2951043937585438
0.28704529564729425
0.11635133587822952
0.8881238463567043
0.2942533753992336
0.24810222804898238
0.2504542841353043
0.31567878432914814
0.2986659565228688
0.2504109460045789
0.24066369925439818
0.24461682124847195
0.23556981516574138
0.23990321431256037
0.23028777694621014
0.22590918327140538
0.22096072542943052
0.216115174683798
0.2116822664330271
0.2366297738303013
0.45454770440747866
0.30171528649930585
0.30897585627070084
0.17260969192882883
0.11020277956533961
0.10353980675849322
0.1337208197995377
0.1355120472412449
0.1101535986091552
0.08980587534589325
0.08498310914506575
0.30142728415330516
0.2821001185720069
0.3919969947383488
0.3620752504495862
0.35792834254431233
0.6099294475958543
0.6235703215370899
0.3533780783499793
0.3577092415911225
0.3471494521000472
0.2574073656405682
0.07311488248787439
0.2167530943245925
0.20745767375458665
0.2020036403371802
0.19824856271296645
0.19242175468196487
0.36834476536556177
0.37609379821448663
0.08744112904827958
0.6230906392830852
0.5029973956549088
0.3891462577860901
0.27177635328041555
0.23911973751413174
0.22746855056641635
0.2976431506382202
0.48374045430807855
0.525782967044895
0.5088379138710588
0.35158024947331334
0.5902913603073525
0.6093504483625443
0.6237632169028271
0.6477452706046998
0.3856613625891535
0.41557527457978266
0.3890581460454417
0.36857999412035386
0.3308636111093395
0.3200377356549375
0.6536151395769898
0.27637780438421405
0.193259908957145
0.14878950139039984
0.1459039594179594
0.15837549653798413
0.15089648126206506
0.16286036631812975
0.13725923072618026
0.17136531171054625
0.17373202065697357
0.14619616128173152
0.4635842430588377
0.1809178380767033
0.43616029527659755
0.26526754271205427
0.6055451489629573
0.6067409936919126
0.13244415836551385
0.12262930881774037
0.3561096613040226
0.6653721096795968
0.6741980948078927
0.6693920196021063
0.6861176452110678
0.6756916741432097
0.6991021802934246
0.38657052121208846
0.38786286424697597
0.3911760505952436
0.38580964944796836
0.3889030914419034
0.3795227424915213
0.3858092763512654
0.3766546604865068
0.3679811052221549
0.3938465692347343
0.36546386112718676
0.39469952100292116
0.3858425329705347
0.39591197643887377
0.3773607402832966
0.38752925721361714
0.40451440064741584
0.39564808653266387
0.4003550612053375
0.21106927511984402
0.1879814986209803
0.2747588863708004
0.1510496520630963
0.1558775401478135
0.6345642441334534
0.3729553386892003
0.23646723057859975
0.22265495973782645
0.2205591090094323
0.2262597873169042
0.2404271060749731
0.23179056986022525
0.2373588549868327
0.2276213619622397
0.18152776499105022
0.3413356524786147
0.3791490777103905
0.4007388151103479
0.40887009657865037
0.38006281315428103
0.4014715024739729
0.3092036448228034
0.2092851805809122
0.2117339625247768
0.22434703016332105
0.23532584729393907
0.24847384363713954
0.19395463472341645
0.4517428566744216
0.3033378906290192
0.30517970710975956
0.1070369544826601
0.49484743214539545
0.695448614436264
0.29145245646549056
0.32720083815436246
0.37481719208254993
0.3628685966966668
0.6443261832102065
0.44003005757854124
0.4205013002656992
0.4219711453022213
0.413303964895237
0.4137790793426817
0.4029988465553731
0.4019072537052489
0.4094889523891627
0.3839250742147961
0.4111089791766938
0.4036531298978961
0.42867980416117774
0.39421667421851675
0.4048797122220173
0.6072464284935264
0.31110225288319665
0.3747475366286503
0.2635651664200822
0.3771064166637854
0.26702612937690484
0.25031285495998445
0.2605482251550865
0.24514087253713493
0.22832541714315027
0.22786261714367234
0.24059009417975807
0.27184058449768994
0.30121375169706915
0.2605248824459491
0.4905379891127386
0.4111403928273449
0.5463030119797379
0.2267088182856439
0.5902152792558095
0.47703540126521227
0.48693336372421353
0.204568655421511
0.301661353336245
0.34424166754355284
0.34239231697918243
0.33969473684747414
0.32243479596910674
0.2160379948939433
0.7621159718106955
0.6138296685844343
0.8294679528060838
0.15580683318061325
0.46368984801029023
0.49555366427208525
0.6414622223144434
0.7015754245014578
0.282020075715991
0.3411475516968029
0.45281890659028695
0.24764781053557772
0.25306468390324527
0.24492710743264604
0.2966209840208406
0.24988051565036992
0.2888117660711347
0.23290593926155334
0.2355250223115944
0.3998268775257724
0.4007975080394188
0.36168459944832737
0.36590737478235447
0.22636424842046596
0.4539751955865955
0.42263901764130557
0.5613436886062035
0.39705090312274005
0.16784392103756032
0.38191584288914
0.18952093547058288
0.49244917201556976
0.40856459485899893
0.3676902791703295
0.3775013344149638
0.36292335616619215
0.3497177037137548
0.2820177574831057
0.23533083192889326
0.2675149845525482
0.3168840933263226
0.3166675684774822
0.4015207293216041
0.891019253599293
0.8569773588426073
0.8831798533723227
0.8521717812061816
0.8357020483869807
0.8092768696175027
0.8150669468881411
0.6654019566437084
0.356312193155482
0.3289714049872938
0.335412875050644
0.3811715857934567
0.490584612052971
0.33119559446744146
0.41740281900707915
0.42657712288376304
0.4122760592789367
0.4131596476440044
0.4659623358111084
0.35941179720803934
0.29399679043939486
0.2675668822157753
0.44278781637439035
0.423764795933534
0.2899816412293969
0.33075969542911543
0.3200906742590667
0.3096501382303464
0.30682551923272855
0.2656272223180038
0.08341157955727606
0.7591591847479835
0.7426711504555268
0.7269894018669334
0.7527432078866796
0.37940932170211095
0.6439737474514448
0.14770432021147933
0.1715723446230519
0.3614442005859693
0.34578861554323953
0.36191105555063224
0.29868793454091486
0.2863657362633005
0.24330400631946308
0.3472102428369917
0.43675350583781947
0.7491612924577856
0.2459178191657415
0.242218068000049
0.5222042229133345
0.6386053049445329
0.4940719353477884
0.5176303184476926
0.39290178494134553
0.33435886087741573
0.3260991584052851
0.31687557254656723
0.31832388164397896
0.32090998505749546
0.3261144872457929
0.30168387205991104
0.7209701061391947
0.699113282255589
0.7189198631476318
0.7366187486355129
0.7612589019282133
0.7724634195533608
0.7088983862208751
0.7144095599596817
0.2188053505601551
0.310218725605438
0.5383139743634406
0.856318580195047
0.37060813388069686
0.8540632818631061
0.880557820600497
0.5144964146877998
0.37933389915810906
0.3658163401182092
0.4206453351873989
0.29157255381663155
0.38687801283634576
0.5852022438372116
0.34360134851360913
0.34166195932209675
0.3548975803639516
0.328862278853394
0.35501994589665237
0.3405162481847523
0.32824638687784347
0.31458368060501907
0.38215932959569393
0.36570784755616886
0.354565904189475
0.48881890989195115
0.4225481968181233
0.3643227250423663
0.30684366990873063
0.27520464697341374
0.31987418699258874
0.3069937613498392
0.3048954015260255
0.31170874615451705
0.7539389027440951
0.8000794942374286
0.8305029381424521
0.770775932763426
0.5999806507330019
0.2623895619317473
0.46528644936696856
0.4538700462833454
0.7708469912794779
0.516296216419609
0.3818343156396802
0.3369698873148349
0.2986664870708943
0.42642654635159605
0.44542640259557853
0.39114569854621306
0.5045518464906389
0.47731237301714186
0.48637024497233305
0.5102431211981855
0.3510875621540125
0.4718583931857178
0.36272723323380107
0.27667858672383405
0.28506823641521567
0.2533943919556775
0.3681415547311465
0.7289680632111095
0.23843709223086995
0.5618653768246925
0.5694482602206313
0.6070657893745338
0.5743261228073621
0.6099725229706928
0.6414538666351858
0.3213577415702671
0.3977146750168854
0.3984031509666824
0.4370095716147462
0.38944724007473214
0.8953812962636806
0.47071643067501334
0.5408470526365946
0.6531927016458045
0.33621238873941833
0.3999173012831059
0.4538217684921494
0.3150423648824779
0.03872155023253287
0.6781788495162754
0.3485075141268659
0.37989363631140516
0.3804711505653753
0.36124896488285785
0.3615066293999202
0.34127287058636646
0.3503629860950113
0.599890835163073
0.3315674421253837
0.4179249374812723
0.4273777517950499
0.3826081118939256
0.4520070817362398
0.5206649534284059
0.6739985068438769
0.2695135409605251
0.4190553662001914
0.4021568363868901
0.37993856554903915
0.34191103502670983
0.44180944370083763
0.30313075580422355
0.3681468334626571
0.2535310935882552
0.25431847154189974
0.31055529222452805
0.41544556002770533
0.43230432766191756
0.40824122292420695
0.39740130346696384
0.5768253075258885
0.4891008958655965
0.2797699379804383
0.2970763504210411
0.32006119511997905
0.4414744394270842
0.3192992642834815
0.42924207656233404
0.704075170612706
0.39799383331521065
0.29108796694001793
0.30289087623347194
0.4075733029368111
0.9066901625880772
0.28217072189114495
0.38163162944200174
0.36669012059151906
0.39182409208071584
0.651838156310725
0.6203736043617167
0.6113622977300915
0.3473763883808879
0.8916249583072571
0.7880525457695593
0.6885057556481304
0.7811486738538852
0.6640482843811055
0.7030795088479741
0.4904801866040233
0.37646183395664656
0.842865215800715
0.5341684426462496
0.2968710498034113
0.4065143188889316
0.5629730539307782
0.591860431960435
0.3681702521973546
0.4175644888571448
0.6441142126635024
0.34846697329184917
0.29946282944299396
0.37788705534995537
0.36737637806471996
0.20763393264378405
0.3264822746976074
0.46548770508652304
0.16946469197407724
0.16207445313208857
0.513569639877231
0.43413104905128147
0.4734202760462952
0.3555621013846477
0.8118354085380615
0.29150401550561544
0.2620046847635366
0.27904102742622844
0.41070082787655143
0.4942320797364221
0.3904864759445739
0.07188246819084554
0.6923259515016106
0.6111768273901659
0.37189970483816037
0.5164055895172381
0.37443313221702906
0.4968244806659063
0.5294786770535248
0.4873576377463997
0.31379947992746376
0.38624047348543655
0.8766128073968135
0.5052014231551578
0.4778322818612892
0.2758824427555295
0.7926823192084155
0.46199047002651944
0.33480279556364106
0.40491536399627764
0.3037008921872468
0.3603544528784119
0.22704446997968403
0.43488402303574586
0.41082716850029377
0.3040993045302118
0.6098773486540564
0.2103730143124244
0.20640841828072592
0.7787640361769859
0.507954756301937
0.7403471808307129
0.6498617983973459
0.37995162490718104
0.09376429410672946
0.40698297004379536
0.5178155201292304
0.5067884960577056
0.1856784539189264
0.4076031412102085
0.5916376757372911
0.1258556965396971
0.5523483293070963
0.3584338322818304
0.2683376818225595
0.3148594017443121
0.1585370081688188
0.17821545939607725
0.34869511284364174
0.4044775670010464
0.23913486757517693
0.4850424384611462
0.39210232950762414
0.5528385295260085
0.5250393360300976
0.37549055746600996
0.6000800752821851
0.6568272359283145
0.2894699972188229
0.2658118586012905
0.19577226141473889
0.2754412714560862
0.2141849504663475
0.5210124432716894
0.6207544269232191
0.09811229181318173
0.11944273613222167
0.1345284421853426
0.3436168356133485
0.15287950923973273
0.3723323171562544
0.3931078188234625
0.46870585250426144
0.23788761332412628
0.2580621824942266
0.363133157861877
0.38486268384467653
0.3076070377504645
0.5281861330831105
0.36651325020695796
0.44853878045599094
0.4332165837190005
0.21986337538259743
0.18233382153882777
0.41356214431649674
0.4244504110003953
0.8426241531662693
0.19823338560708947
0.5936522833168387
0.291843585707379
0.5531037139555852
0.39411858340581246
0.6109820207920015
0.38367083001652863
0.33249493713079814
0.2998667819548575
0.45316692885073595
0.46071068463170906
0.4378450989118467
0.8145983624549846
0.24696236971465207
0.1867138788848047
0.44171288257579505
0.5846106088095403
0.29343821113438706
0.5193841457112668
0.33472078318550785
0.522138599711197
0.34776471567711126
0.37062765583578344
0.19734817458148643
0.414701948260918
0.037670131184453406
0.2619811857137311
0.4085756929531449
0.3293074527223737
0.28647436069753135
0.4794566059984233
0.5704100096905645
0.3174404136726518
0.24891687696030232
0.5787856202649267
0.25211363543157417
0.4135697070858925
0.32976481857219064
0.396272612785559
0.18496753696142182
0.22423962466828432
0.35183219381987607
0.39145169059498935
0.3780353880384009
0.218385103356116
0.23948390546659112
0.5370430336716057
0.5405281250554125
0.28290937304114844
0.27252670835587806
0.21557208174438994
0.6469054767933226
0.3159615578088038
0.3222183957698704
0.34763848028082944
0.22482544626955817
0.395112728412269
0.47768968034825143
0.43561944670151154
0.4220098334701963
0.4346765772478197
0.37235043560567077
0.44498824898961603
0.31671834644414326
0.2001095842075791
0.30894965700570426
0.25881668399599306
0.31789951455700416
0.2778892528240693
0.7457027410216897
0.30480451024787475
0.3865585989859266
0.6318413809274566
0.44161851484591425
0.2449073377837664
0.3629460268417233
0.294531413788851
0.41282392474680374
0.31078548976902326
0.2934452866762914
0.07573288576206545
0.38300881687470417
0.5020537634689259
0.3039480860296687
0.4066298952648684
0.35109164137191157
0.4663509911880095
0.2583194090229451
0.3740866003131252
0.2975463676155882
0.4706193184239346
0.4499192212560786
0.4331575775482363
0.26106813863467154
0.4509736133059249
0.327168321458497
0.4108040510673798
0.20740050882363514
0.45960118840781966
0.6917349933145412
0.3379308872607675
0.4003447968494437
0.465600303490838
0.2532969592838029
0.25522588306023025
0.6783503554536859
0.2880983604051534
0.42731638900413516
0.27858407094929166
0.398214247440368
0.3094718950013545
0.17587814243227126
0.4569258500782616
0.11070855683699278
0.2725715898597672
0.5377323760258612
0.49723451542284813
0.41547646925046366
0.2950094791005346
0.33465370606815936
0.41414632030263004
0.198936953320458
0.4058008084587079
0.34257825608905296
0.4002046315813341
0.4392480195520569
0.3207497039668989
0.1639716441833051
0.5399100860967722
0.5637141997422077
0.2418477136723854
0.38464272936487937
0.3607446833614941
0.14257987123136848
0.22346160409258603
0.12488269009723649
0.21762168638013177
0.39308543955003583
0.40776464919707006
0.38494351701528284
0.6847608654213012
0.2847020836885104
0.7673337057147506
0.32287038897661124
0.4209939907273466
0.41449991471850106
0.24889520417749372
0.15912038022375385
0.1702285093205402
0.3501173487039691
0.4974809078793668
0.43049436143536346
0.43607137670551593
0.40640412932276243
0.420207515863701
0.41084255929059316
0.6012357933651559
0.2294581835508119
0.20697003983351855
0.3782865211787565
0.22779203709750462
0.28189108021797465
0.4851805638446243
0.4314170588962225
0.23987387296302756
0.41781636932383565
0.3664098768862401
0.3831542536483708
0.36530926857961943
0.39370569840566627
0.367299244153353
0.7833512983600381
0.3415727023644421
0.20771369124625938
0.3226327102559591
0.276968853863649
0.23050770235471743
0.3509757288204804
0.4376689632892548
0.3132425224251932
0.366685755913357
0.291430741311975
0.6021969989517592
0.5257606102344876
0.21428827238357964
0.31442777038647113
0.30177742839079497
0.264114080634759
0.5121997327559185
0.28541731724298425
0.3178335470830901
0.44609623926098024
0.2579148334658935
0.5788098090870712
0.5643803596856237
0.32431513297793674
0.6349066634247256
0.2959934211699895
0.5151945534189086
0.39805340888492013
0.4470515813777648
0.3195817941751274
0.08336493685466746
0.20903782535137047
0.5393730041983417
0.24982251298906655
0.18003113712216115
0.35978165837004794
0.3677580829934486
0.3020189227859538
0.6464782609648803
0.6470874296040292
0.34987953463644356
0.5697479040410693
0.2419071890439179
0.3240392762835398
0.39252928578456203
0.6784457832253117
0.3826806994873375
0.4072241089031129
0.358694030090112
0.2794943149965106
0.7218979367010122
0.407284274757375
0.3955306336769661
0.3016044992795536
0.32593143994735263
0.38598135917937815
0.4227502621656246
0.5356004854394859
0.1892445859364934
0.38824225543914925
0.5034882378287151
0.5504479226582459
0.41161960652291396
0.7171088597111934
0.4856420499224269
0.28410797842640745
0.30457941864802773
0.2646656738303239
0.3098223476316932
0.11804195684613149
0.35160394796179384
0.3326601389940128
0.18811284955908475
0.11928946260573632
0.2660118285203172
0.25512984105588854
0.30678276352247463
0.2938567378255054
0.5110186728914635
0.66175209245946
0.3225450104555992
0.18260554195490927
0.22445172336435124
0.12091145663107664
0.41724546556209846
0.21737412690351293
0.27944784566380587
0.4912706264541911
0.31051616671409016
0.4052273830022637
0.6150493639661353
0.38441880279214213
0.47185453919249004
0.8547054755004214
0.5003901202876255
0.5174860720619489
0.40507452413714923
0.5086547760037758
0.3672346483316294
0.42707746793761747
0.25208233106180167
0.5592823047078128
0.30360077191406387
0.2363363965358761
0.40494472924521596
0.30509427762855107
0.5870155550347678
0.9628328477570475
0.9713090905233539
0.4308806133313367
0.15291047666385146
0.4085431324199027
0.7578143782541392
0.7200955230215248
0.3265198929274262
0.29252934378236506
0.30367429954280045
0.30516238762159287
0.3025747488890044
0.38018652449541274
0.26372998917797186
0.2004714459866296
0.23780624529651867
0.43606033665146304
0.3946417560012036
0.23307574680296655
0.35410847954582375
0.2129879160255159
0.575016188099544
0.20881125016354024
0.3746486490737358
0.3627705381350266
0.3859502100718434
0.5133456453756601
0.29214058239334295
0.2809587131598329
0.1308789807232086
0.25992858839737404
0.3803331095801903
0.8972154515096563
0.40558081145063196
0.34119562145140725
0.20406895573742992
0.35056867555981114
0.18451841577508238
0.3245831192916244
0.3474950733445022
0.5057527065903799
0.26962169982348466
0.21826685289969003
0.48561372654094076
0.24917866530941365
0.2798735251425751
0.20695821696567346
0.1705950776399504
0.5516181598730936
0.22156768191771947
0.3996008106050501
0.5408070500721502
0.6025265985251311
0.3347854971323695
0.35266179888224286
0.3080392594120976
0.8974311948153705
0.4980205917302848
0.605177145384526
0.31564632740454557
0.5651739136908824
0.3191221917672327
0.2543512386095225
0.21702490586665035
0.6291118458643226
0.3940602758630417
0.36428325619021296
0.7214701727861933
0.3589757306267861
0.39234255760093667
0.9207557108966333
0.5237281349886492
0.2650087306677141
0.4109805389297569
0.6894087741443874
0.6455330395166953
0.7046259346522633
0.25339110915449087
0.5329277716009545
0.22871115203154316
0.2860504592052191
0.36547083605308195
0.41611396558335817
0.1937257572178321
0.31088785100308364
0.4482179298444926
0.4041674069191534
0.2834017276884471
0.7108513886420068
0.4049142873106413
0.27860200196606394
0.41738583226651454
0.4361507671505213
0.4785836735906466
0.33799298606852995
0.28986521387407554
0.29327101244871406
0.5132860791720688
0.3836579536067801
0.2842124843859528
0.3438209268525399
0.4871519773000947
0.40185536739464534
0.296509776921246
0.29985728671762385
0.38394778109765776
0.32917670209256217
0.36521004269235813
0.3391283374815248
0.25913827401558887
0.3009780871576445
0.522886421543317
0.8084475561836949
0.4429073391236643
0.47638115028742356
0.4778182755829773
0.3533359354900591
0.8622814882850566
0.5072629345296272
0.3815306607403951
0.3943166095500094
0.31345098415020084
0.39041112698025415
0.37436865664214886
0.34317215429490017
0.28201233635956996
0.3393866781064167
0.3083754999569601
0.3632646390301331
0.7706974488825403
0.36154972852418554
0.24122835946234397
0.39343198131311236
0.6554984108888662
0.3288226273762322
0.3987476206664276
0.4029536791364874
0.13079356437142
0.3508410710968562
0.2943636116832374
0.11554224596771119
0.14348452343212723
0.06860625698982589
0.2313073014316101
0.2606959519655703
0.39939872377103486
0.4224106544825696
0.5735574791818666
0.39148957363403114
0.2550689773452195
0.3265941647817562
0.7971740566597565
0.4102153827705789
0.3470674153850646
0.4137121234711007
0.29118606787100526
0.24193089019148104
0.4720987272432492
0.19711349128877365
0.34154755415469734
0.34046355587809374
0.39106184953812634
0.5894076112724872
0.3031091059473824
0.40884014418674786
0.2857832332414406
0.40737652366854804
0.47381276852193205
0.5278028098829536
0.6606016729441097
0.5812329109729115
0.23193355866067994
0.36019370809922646
0.16237473488098544
0.481135050724562
0.4012877197866575
0.1955872392215396
0.382253053733374
0.2716533464356119
0.4546172937205636
0.3431318043492672
0.26780298961235555
0.21297026238510844
0.23622274984308045
0.4938087920149869
0.3890694373068663
0.17299862303620045
0.39864582914476043
0.83330149489662
0.3939225751256271
0.2103213920051017
0.2691723851953813
0.24268651119096468
0.7551213355569761
0.31999832644573084
0.32466260484775633
0.5164955808200424
0.46557070642626985
0.38023287174497283
0.2880288452102227
0.3676925849867878
0.7756028572298486
0.30993629405009115
0.5230018180463517
0.15076296951318438
0.6918416971727155
0.2110012333492067
0.33908566322354555
0.24902899733744543
0.2860067219678658
0.383599552217369
0.0992415260441722
0.22204886995718126
0.8178170217470602
0.5468756037489807
0.32353729557215766
0.5441350346267217
0.26934300176792564
0.586958016133948
0.22464809722666454
0.05796838005644936
0.3583324870771125
0.3798647775270146
0.7009175079873065
0.6478971973070785
0.3962126767323824
0.569388788359936
0.8560428952365062
0.28323629246718346
0.4767074540822155
0.3283362992747341
0.17545467515932814
0.8355360856897978
0.39034036762691826
0.6930804700228838
CELL_DATA 4886
TENSORS stress float
-7.475998358709743e6 9.911654877191737e6 0.0
9.911654877191737e6 4.578588226977661e7 0.0
0.0 0.0 0.0

-2.3215373981403578e7 1.5928463014172597e7 0.0
1.5928463014172597e7 5.820143549178297e6 0.0
0.0 0.0 0.0

-1.3122945045274656e7 2.7936995575328145e7 0.0
2.7936995575328145e7 -1.3074341728218783e7 0.0
0.0 0.0 0.0

-3.404200032223166e6 2.7017992800210536e7 0.0
2.7017992800210536e7 1.5836036319771972e7 0.0
0.0 0.0 0.0

-1.1703652791481703e6 3.2569238408762734e7 0.0
3.2569238408762734e7 -1.3020010770907789e6 0.0
0.0 0.0 0.0

1.2526267831079087e6 2.5527974540648046e6 0.0
2.5527974540648046e6 -3.58850867082417e6 0.0
0.0 0.0 0.0

8.301291849541248e7 3.8069100204110846e7 0.0
3.8069100204110846e7 2.1804628865116853e7 0.0
0.0 0.0 0.0

1.0912736473730356e6 3.0058195326654897e6 0.0
3.0058195326654897e6 -6.166216800350596e7 0.0
0.0 0.0 0.0

-6.947446002049245e6 1.1751969500783622e7 0.0
1.1751969500783622e7 4.723640890997779e7 0.0
0.0 0.0 0.0

3.790484148873077e6 2.279726901982846e7 0.0
2.279726901982846e7 2.9440923437933408e7 0.0
0.0 0.0 0.0

-5935.9555921508 2.6045442810526542e7 0.0
2.6045442810526542e7 -9.24975142275956e6 0.0
0.0 0.0 0.0

750262.7142029818 4.033721291577135e7 0.0
4.033721291577135e7 -1.4778667896221022e6 0.0
0.0 0.0 0.0

-65121.59274896979 1.0985657925508425e7 0.0
1.0985657925508425e7 -5.6215149487351805e7 0.0
0.0 0.0 0.0

1.1787750082721126e8 4.204604049544171e7 0.0
4.204604049544171e7 2.4069442304016896e7 0.0
0.0 0.0 0.0

467513.7379773613 2.69385333838156e7 0.0
2.69385333838156e7 -9.199460043700049e6 0.0
0.0 0.0 0.0

2.789320423932188e6 3.947286331227296e6 0.0
3.947286331227296e6 -2.116173952211209e7 0.0
0.0 0.0 0.0

-5.253255066884249e6 2.1544655170085628e7 0.0
2.1544655170085628e7 -2.845408733401839e7 0.0
0.0 0.0 0.0

-996797.7130704578 1.684410922299006e7 0.0
1.684410922299006e7 -3.782674996953115e7 0.0
0.0 0.0 0.0

-7.970512168581758e6 232713.67417356075 0.0
232713.67417356075 3.611084988838642e7 0.0
0.0 0.0 0.0

1.6519740257155066e6 3.0543411791187014e7 0.0
3.0543411791187014e7 -8.538056974114867e6 0.0
0.0 0.0 0.0

1.7549797636815272e6 1.3406134534609275e7 0.0
1.3406134534609275e7 -2.6477745958264716e7 0.0
0.0 0.0 0.0

2.6087292908716854e6 3.981898342147375e7 0.0
3.981898342147375e7 -1.3857068762384427e6 0.0
0.0 0.0 0.0

-9.62486004052288e6 1.1373057398264978e7 0.0
1.1373057398264978e7 2.337781067613434e7 0.0
0.0 0.0 0.0

-1.876190614415764e7 2.912471662790982e7 0.0
2.912471662790982e7 -1.2758060679067336e6 0.0
0.0 0.0 0.0

-1.8797035792509522e6 1.4736240605841827e7 0.0
1.4736240605841827e7 -5.022754895438066e7 0.0
0.0 0.0 0.0

3.5817787031368926e7 5.701479294749665e7 0.0
5.701479294749665e7 -1.0400849380942948e7 0.0
0.0 0.0 0.0

5.5779656082419455e7 2.8890414613936163e7 0.0
2.8890414613936163e7 1.2367776346935324e7 0.0
0.0 0.0 0.0

-6.108570071443271e6 1.9415725173751365e7 0.0
1.9415725173751365e7 3.261180367364356e7 0.0
0.0 0.0 0.0

2.8474761014204975e6 3.9268537547666524e6 0.0
3.9268537547666524e6 -2.1675418800378114e7 0.0
0.0 0.0 0.0

-8.770543411981598e6 -1.234806806082744e6 0.0
-1.234806806082744e6 2.0578228375707805e7 0.0
0.0 0.0 0.0

-1.0020987402236536e7 1.3023792467431514e7 0.0
1.3023792467431514e7 2.1413223138598092e7 0.0
0.0 0.0 0.0

1.1341712223167643e6 1.0118505432225386e7 0.0
1.0118505432225386e7 -1.0201745633345678e7 0.0
0.0 0.0 0.0

3.648760035531312e6 2.601671031455301e7 0.0
2.601671031455301e7 1.1500980636381766e7 0.0
0.0 0.0 0.0

-201606.31781348606 2.3015948650219835e7 0.0
2.3015948650219835e7 258268.51348939323 0.0
0.0 0.0 0.0

-2.6901531640856666e6 2.864033046857563e7 0.0
2.864033046857563e7 6.43427873346729e6 0.0
0.0 0.0 0.0

-1.09314150862212e7 9.925497854264062e6 0.0
9.925497854264062e6 2.0333062006851513e7 0.0
0.0 0.0 0.0

-136705.7798797628 1.4908872075645845e7 0.0
1.4908872075645845e7 -8.617846672222115e6 0.0
0.0 0.0 0.0

-1.9534993219476598e6 2.822065173761287e7 0.0
2.822065173761287e7 7.17221745585557e6 0.0
0.0 0.0 0.0

-7.083182495667303e6 1.8444337753543638e7 0.0
1.8444337753543638e7 -5.3014199730577245e7 0.0
0.0 0.0 0.0

-2.6686753027190673e6 3.518420646442255e7 0.0
3.518420646442255e7 2.0112798737072223e6 0.0
0.0 0.0 0.0

-1.2264622993961126e6 1.1096321142476697e7 0.0
1.1096321142476697e7 -6.129200709910467e7 0.0
0.0 0.0 0.0

-1.6265633922236502e7 2.9945445838126205e7 0.0
2.9945445838126205e7 -1.418807984112588e7 0.0
0.0 0.0 0.0

-2.4818272655226835e6 3.421313515747757e7 0.0
3.421313515747757e7 1.888156923713529e6 0.0
0.0 0.0 0.0

-9.530755628399532e6 7.437633974487319e6 0.0
7.437633974487319e6 3.2528998350775845e7 0.0
0.0 0.0 0.0

1.067068612596402e6 1.323933713322701e7 0.0
1.323933713322701e7 -2.9090014239496913e7 0.0
0.0 0.0 0.0

-4.7347634603282735e6 2.0665123842123896e7 0.0
2.0665123842123896e7 3.0327300777832195e7 0.0
0.0 0.0 0.0

1.8587438628610075e6 2.569760995782197e7 0.0
2.569760995782197e7 -1.4891246963077813e7 0.0
0.0 0.0 0.0

-1.0751524160970107e6 1.4276048249680592e7 0.0
1.4276048249680592e7 -9.684901687434327e6 0.0
0.0 0.0 0.0

1.5714976571006328e6 2.9974653110997896e6 0.0
2.9974653110997896e6 -5.088095237593302e7 0.0
0.0 0.0 0.0

7.038781496135301e6 2.027005297458744e7 0.0
2.027005297458744e7 2.3462604612137526e7 0.0
0.0 0.0 0.0

-46616.709876921224 3.4099611370068796e7 0.0
3.4099611370068796e7 -304604.4674337933 0.0
0.0 0.0 0.0

-1.6252127945977354e7 1.3485310249326475e7 0.0
1.3485310249326475e7 5.092752485840384e6 0.0
0.0 0.0 0.0

1.6173883884073645e6 3.05959665363939e6 0.0
3.05959665363939e6 -5.290869951553236e7 0.0
0.0 0.0 0.0

-1.000715954799204e6 3.133345749303288e7 0.0
3.133345749303288e7 1.4713077110251286e6 0.0
0.0 0.0 0.0

8.101439229372279e6 2.012367877962842e7 0.0
2.012367877962842e7 2.82258421365756e7 0.0
0.0 0.0 0.0

-9.573222308662582e6 3.0516562221328717e7 0.0
3.0516562221328717e7 6.459723986200381e6 0.0
0.0 0.0 0.0

770160.3684694432 3.890390602486136e6 0.0
3.890390602486136e6 -6.779327126719926e7 0.0
0.0 0.0 0.0

-1.7397797280631952e6 3.551113750959247e7 0.0
3.551113750959247e7 2.119631140928633e6 0.0
0.0 0.0 0.0

8.836890349253595e6 2.170056826652481e7 0.0
2.170056826652481e7 5.374908953408025e7 0.0
0.0 0.0 0.0

1.7112652979844492e6 1.2001577200172672e7 0.0
1.2001577200172672e7 -3.2448283488891494e7 0.0
0.0 0.0 0.0

-3.5513680725628557e6 2.0903878825238477e7 0.0
2.0903878825238477e7 -1.4237187259622976e7 0.0
0.0 0.0 0.0

4.153849299530055e7 3.2170163260120735e7 0.0
3.2170163260120735e7 4.4611699068701435e6 0.0
0.0 0.0 0.0

-5.4765537627875265e6 2.4169673064399518e7 0.0
2.4169673064399518e7 -1.707251527278858e7 0.0
0.0 0.0 0.0

-9.624214366481919e6 1.959727612099406e6 0.0
1.959727612099406e6 2.1434561416502085e7 0.0
0.0 0.0 0.0

-492879.55225183256 7.301270825737526e6 0.0
7.301270825737526e6 35243.63560675937 0.0
0.0 0.0 0.0

1.371857899772318e6 4.585894290412482e6 0.0
4.585894290412482e6 -4.952248637892854e7 0.0
0.0 0.0 0.0

615751.858682394 9.464095957535848e6 0.0
9.464095957535848e6 -5.58231221315139e7 0.0
0.0 0.0 0.0

-1.882529455252731e6 3.0781977893761583e7 0.0
3.0781977893761583e7 517255.75999070704 0.0
0.0 0.0 0.0

5.098936283123091e6 2.148807704898264e7 0.0
2.148807704898264e7 4.382970083800532e7 0.0
0.0 0.0 0.0

2.929697323597911e7 2.1659845516270924e7 0.0
2.1659845516270924e7 5.974889005289438e6 0.0
0.0 0.0 0.0

-1.0326593001898307e7 9.302918349516919e6 0.0
9.302918349516919e6 2.9888064109846003e7 0.0
0.0 0.0 0.0

-801495.5150829349 1.48799048385903e7 0.0
1.48799048385903e7 -4.6440645059396386e7 0.0
0.0 0.0 0.0

-6.474553397861563e6 1.9852560052535787e7 0.0
1.9852560052535787e7 -4.8549177328639135e7 0.0
0.0 0.0 0.0

1.1390382981680224e7 2.13765623845252e7 0.0
2.13765623845252e7 7.135331430053261e7 0.0
0.0 0.0 0.0

-3.0759297555945115e6 2.7197320231449835e7 0.0
2.7197320231449835e7 1.5266735504767532e7 0.0
0.0 0.0 0.0

-5.058137855420301e6 2.107115632413704e7 0.0
2.107115632413704e7 2.972060903977096e7 0.0
0.0 0.0 0.0

609080.5763712763 1.6128385196171235e7 0.0
1.6128385196171235e7 1.2402757508816648e7 0.0
0.0 0.0 0.0

-4.1192540027833646e6 2.122090475188968e7 0.0
2.122090475188968e7 -2.796182782125602e7 0.0
0.0 0.0 0.0

-1.01303153985233e6 2.308049083036324e7 0.0
2.308049083036324e7 -1.387760125193474e7 0.0
0.0 0.0 0.0

684657.9581602672 1.6908227845323846e7 0.0
1.6908227845323846e7 -2.3005832704627067e7 0.0
0.0 0.0 0.0

3.362710986258035e7 3.364829232606883e7 0.0
3.364829232606883e7 -2.729086124389142e6 0.0
0.0 0.0 0.0

-7.686805422471976e6 427752.2098584631 0.0
427752.2098584631 4.250957201483307e7 0.0
0.0 0.0 0.0

2.447159095187109e6 2.3989356150165148e7 0.0
2.3989356150165148e7 -1.7869231228871567e6 0.0
0.0 0.0 0.0

2.7267726353784134e6 4.194685349459775e7 0.0
4.194685349459775e7 -2.455270051133653e6 0.0
0.0 0.0 0.0

-3.3781004803759335e6 2.710344516150956e7 0.0
2.710344516150956e7 1.5951715999160195e7 0.0
0.0 0.0 0.0

2.425762396978941e6 3.2726680631817747e6 0.0
3.2726680631817747e6 -3.0812107595206123e7 0.0
0.0 0.0 0.0

457332.8833994842 8.97962899118503e6 0.0
8.97962899118503e6 -1.162504873696036e7 0.0
0.0 0.0 0.0

3.45033543342871e6 2.466589430017997e7 0.0
2.466589430017997e7 1.0558919427861156e7 0.0
0.0 0.0 0.0

3.0460835724163983e7 5.872294266275004e7 0.0
5.872294266275004e7 -1.3061839316980084e7 0.0
0.0 0.0 0.0

-5.589840663466051e6 1.0735107807445627e7 0.0
1.0735107807445627e7 5.776634769886262e7 0.0
0.0 0.0 0.0

2.595262277483268e6 2.5954107049879733e7 0.0
2.5954107049879733e7 -7.912388610741345e6 0.0
0.0 0.0 0.0

-2.7425803043380794e6 2.3547251520602018e7 0.0
2.3547251520602018e7 -1.7495164885794587e7 0.0
0.0 0.0 0.0

-996612.4512852358 1.3004953328137271e7 0.0
1.3004953328137271e7 -7.938257581257675e6 0.0
0.0 0.0 0.0

-2.16722847052509e6 5.98720594826275e6 0.0
5.98720594826275e6 -1.8674047769487572e6 0.0
0.0 0.0 0.0

8.461372745768696e6 2.7038228338049185e7 0.0
2.7038228338049185e7 -4.01170055157499e6 0.0
0.0 0.0 0.0

-5.80339270719472e6 2.0825137128408678e7 0.0
2.0825137128408678e7 -3.89813789360486e7 0.0
0.0 0.0 0.0

1.0307076462399848e6 2.9958471037929216e6 0.0
2.9958471037929216e6 -6.149166731805766e7 0.0
0.0 0.0 0.0

-3.7047608261255613e6 2.7867146485844616e7 0.0
2.7867146485844616e7 1.3762606439590054e7 0.0
0.0 0.0 0.0

843064.1666937899 1.0354739735799536e7 0.0
1.0354739735799536e7 -4.3650729154490314e7 0.0
0.0 0.0 0.0

762016.4806470536 3.883467345665837e6 0.0
3.883467345665837e6 -6.85785691405191e7 0.0
0.0 0.0 0.0

-2.492011041751981e6 2.5583468350541703e7 0.0
2.5583468350541703e7 1.732519023641789e7 0.0
0.0 0.0 0.0

-6.791974816747966e6 2.1715063912079364e7 0.0
2.1715063912079364e7 -2.450636492516145e7 0.0
0.0 0.0 0.0

-9.675262821141394e6 1.1562854713989371e7 0.0
1.1562854713989371e7 2.578006166724083e7 0.0
0.0 0.0 0.0

-981557.4457684143 3.3257236717349056e7 0.0
3.3257236717349056e7 1.5358917440627743e6 0.0
0.0 0.0 0.0

-521325.715861646 1.324509951453457e7 0.0
1.324509951453457e7 -5.316052564184634e6 0.0
0.0 0.0 0.0

-4.130149138950385e6 1.6773108916824918e7 0.0
1.6773108916824918e7 1.6161271180755144e7 0.0
0.0 0.0 0.0

-7.409769767302427e6 594501.3842424791 0.0
594501.3842424791 4.281124742923551e7 0.0
0.0 0.0 0.0

1.3049812486598901e6 1.724390623676817e7 0.0
1.724390623676817e7 -2.1348758510562025e7 0.0
0.0 0.0 0.0

1.795221828010884e6 3.936522275038231e7 0.0
3.936522275038231e7 -1.651484561577397e6 0.0
0.0 0.0 0.0

-9.364052104724944e6 1.0707852658482306e7 0.0
1.0707852658482306e7 2.1662862658886306e7 0.0
0.0 0.0 0.0

-763164.7526925206 9.545264589001376e6 0.0
9.545264589001376e6 -6.048247770177999e7 0.0
0.0 0.0 0.0

-2.6577948988623377e6 1.4407008050997837e7 0.0
1.4407008050997837e7 -2.7859083317181417e6 0.0
0.0 0.0 0.0

1.4376759806051437e7 2.7709680249044318e7 0.0
2.7709680249044318e7 1.5970839755454008e7 0.0
0.0 0.0 0.0

5.6516635032365285e7 2.983157536524429e7 0.0
2.983157536524429e7 1.1951132906173592e7 0.0
0.0 0.0 0.0

2.456370091392897e6 6.654260206968587e6 0.0
6.654260206968587e6 -2.787177186524653e7 0.0
0.0 0.0 0.0

-8.2986179698255295e6 2.054829332132073e7 0.0
2.054829332132073e7 -4.974525118379977e7 0.0
0.0 0.0 0.0

2.122675314836072e6 6.546140583787168e6 0.0
6.546140583787168e6 -2.93502698104584e7 0.0
0.0 0.0 0.0

2.661434315679664e6 3.339399971698963e6 0.0
3.339399971698963e6 -3.2075979976336256e7 0.0
0.0 0.0 0.0

4.669217665208658e7 1.8143070218928874e7 0.0
1.8143070218928874e7 3.049989907991972e6 0.0
0.0 0.0 0.0

-1.4389310179805968e7 4.774000618091946e7 0.0
4.774000618091946e7 3.773842156670197e6 0.0
0.0 0.0 0.0

-5.587079588312417e6 1.887683230814001e7 0.0
1.887683230814001e7 -4.4529991216517776e7 0.0
0.0 0.0 0.0

-1.5135463122382497e7 2.8378820696908794e7 0.0
2.8378820696908794e7 -4.566487362529429e6 0.0
0.0 0.0 0.0

2.3504277897658926e6 3.3766719717701413e6 0.0
3.3766719717701413e6 -4.2390136469064325e7 0.0
0.0 0.0 0.0

-1.004977345924403e7 3.0279180301392213e7 0.0
3.0279180301392213e7 7.314697815380922e6 0.0
0.0 0.0 0.0

1.4850693637702191e7 4.020392024974954e7 0.0
4.020392024974954e7 -5.764160572805341e6 0.0
0.0 0.0 0.0

-7.244795334224215e6 1.3136784191719169e7 0.0
1.3136784191719169e7 4.400242524561306e7 0.0
0.0 0.0 0.0

2.1464807378874112e7 5.707662654614114e7 0.0
5.707662654614114e7 -8.135856933441161e6 0.0
0.0 0.0 0.0

-1.1734070167138085e6 2.4275067718000162e7 0.0
2.4275067718000162e7 -1.0482551184041887e6 0.0
0.0 0.0 0.0

1.444579267197989e6 2.935338417397187e6 0.0
2.935338417397187e6 -5.4249063719403565e7 0.0
0.0 0.0 0.0

4.2206960851561084e7 2.5241276005105752e7 0.0
2.5241276005105752e7 1.1100785724037003e7 0.0
0.0 0.0 0.0

-1.6216409173701946e6 2.4816160530026324e7 0.0
2.4816160530026324e7 1.777787680964905e7 0.0
0.0 0.0 0.0

883762.1986939944 6.897868079949535e6 0.0
6.897868079949535e6 -4.838550756868841e7 0.0
0.0 0.0 0.0

2.8837082477271706e6 3.119055373599734e7 0.0
3.119055373599734e7 -7.478907056789283e6 0.0
0.0 0.0 0.0

2.789682468197887e6 2.4971143835985158e7 0.0
2.4971143835985158e7 -9.098709457812006e6 0.0
0.0 0.0 0.0

-4.837522031609009e6 2.2639371062138125e7 0.0
2.2639371062138125e7 -1.7563712717732098e7 0.0
0.0 0.0 0.0

-1.1476303587869825e6 2.424872022936317e7 0.0
2.424872022936317e7 -1.195719800878085e7 0.0
0.0 0.0 0.0

1.8284001449563764e7 2.8644698748965282e7 0.0
2.8644698748965282e7 1.5847103477107704e7 0.0
0.0 0.0 0.0

-1.0068010255458206e6 7.671474604106109e6 0.0
7.671474604106109e6 -8.501443571298966e7 0.0
0.0 0.0 0.0

-5.235321381781257e6 2.881357874817785e7 0.0
2.881357874817785e7 1.292085959142876e7 0.0
0.0 0.0 0.0

723796.8032014368 4.806188980199772e6 0.0
4.806188980199772e6 -2.832928465879979e6 0.0
0.0 0.0 0.0

-6.415004146659782e6 1.7783714931051705e7 0.0
1.7783714931051705e7 3.3459939280285764e7 0.0
0.0 0.0 0.0

3.004172575033685e6 3.9344712882027496e6 0.0
3.9344712882027496e6 -2.775917379836545e7 0.0
0.0 0.0 0.0

-6.485041019669715e6 -337668.05427838984 0.0
-337668.05427838984 5.093825778433729e7 0.0
0.0 0.0 0.0

1.1533625223943386e6 1.8327122696202263e7 0.0
1.8327122696202263e7 -2.6300798917176485e7 0.0
0.0 0.0 0.0

265871.0047321088 2.1229937844586726e6 0.0
2.1229937844586726e6 -2.8175821602762262e6 0.0
0.0 0.0 0.0

6.491809784461608e6 2.1272874731902692e7 0.0
2.1272874731902692e7 2.696797911950502e7 0.0
0.0 0.0 0.0

-2.705279314882937e6 3.441177728808614e7 0.0
3.441177728808614e7 4.538538974811608e6 0.0
0.0 0.0 0.0

-7.348380219395343e6 1.2458590633972199e6 0.0
1.2458590633972199e6 4.88159090596995e7 0.0
0.0 0.0 0.0

-1.079076030179923e6 2.4695196299661413e7 0.0
2.4695196299661413e7 1.0860120584212385e7 0.0
0.0 0.0 0.0

8.997242848359058e6 2.8825342813432906e7 0.0
2.8825342813432906e7 -5.30477715798573e6 0.0
0.0 0.0 0.0

-1.8646085965377414e6 2.9673339984646965e7 0.0
2.9673339984646965e7 301537.73688409454 0.0
0.0 0.0 0.0

-7.120862542105932e6 2.60648142679538e7 0.0
2.60648142679538e7 -1.3669321884739958e7 0.0
0.0 0.0 0.0

-1.2266919300551051e6 2.979321768727837e7 0.0
2.979321768727837e7 2.3919527716893796e6 0.0
0.0 0.0 0.0

-8.469702708509415e6 2.0577015658651706e7 0.0
2.0577015658651706e7 -2.6968011935702e7 0.0
0.0 0.0 0.0

2.8194119536952615e7 3.281408408375505e7 0.0
3.281408408375505e7 -2.695837291949475e6 0.0
0.0 0.0 0.0

-2.6618216168315466e6 2.2124112816761576e7 0.0
2.2124112816761576e7 -1.918005660998597e7 0.0
0.0 0.0 0.0

-1.5822180142134503e6 2.2754776584356748e7 0.0
2.2754776584356748e7 3.028347063997326e7 0.0
0.0 0.0 0.0

7.702000662100233e6 2.5955047642851334e7 0.0
2.5955047642851334e7 1.7497830138593853e7 0.0
0.0 0.0 0.0

1.350163799829591e6 1.2140521364654934e7 0.0
1.2140521364654934e7 -3.1255353347596172e7 0.0
0.0 0.0 0.0

-5.71247032452242e6 1.5999855788776096e7 0.0
1.5999855788776096e7 1.513224369901469e7 0.0
0.0 0.0 0.0

-3.655585408601117e6 4.063635935402064e7 0.0
4.063635935402064e7 1.3583980573207156e6 0.0
0.0 0.0 0.0

-3.8782584248092053e6 2.3707747505638532e7 0.0
2.3707747505638532e7 2.034825020930338e7 0.0
0.0 0.0 0.0

6.281063767846521e6 4.3632050914728805e7 0.0
4.3632050914728805e7 -2.0479079458104721e6 0.0
0.0 0.0 0.0

462449.9707671199 1.7857191021749295e7 0.0
1.7857191021749295e7 -2.8115614824169382e7 0.0
0.0 0.0 0.0

-3.1303799143926475e7 3.2511681699375924e7 0.0
3.2511681699375924e7 -1.393899679983934e7 0.0
0.0 0.0 0.0

1.544312731360361e6 5.068536909118426e6 0.0
5.068536909118426e6 -6.043624530468711e7 0.0
0.0 0.0 0.0

1.9378098138430793e7 4.390055893286716e7 0.0
4.390055893286716e7 -5.433758425915046e6 0.0
0.0 0.0 0.0

-2.4091019066447582e7 3.937258788776637e7 0.0
3.937258788776637e7 6.74028520201355e6 0.0
0.0 0.0 0.0

3.4780761744134137e6 2.2617407585067607e7 0.0
2.2617407585067607e7 2.663009610237675e7 0.0
0.0 0.0 0.0

-4.4585399564871535e7 3.971450786476919e7 0.0
3.971450786476919e7 5.36544951586704e6 0.0
0.0 0.0 0.0

1.7001185727482587e6 3.0215849541107435e6 0.0
3.0215849541107435e6 -5.604652751503405e7 0.0
0.0 0.0 0.0

-3.2430382305598436e6 2.3305337279577438e7 0.0
2.3305337279577438e7 2.2044131096476898e7 0.0
0.0 0.0 0.0

-1.0202086496103436e7 1.053176190455813e7 0.0
1.053176190455813e7 1.867572075288611e7 0.0
0.0 0.0 0.0

2.5144746623729486e6 2.790207806581215e6 0.0
2.790207806581215e6 -2.93202052591111e7 0.0
0.0 0.0 0.0

1.5862018768012165e6 2.4819020539619125e7 0.0
2.4819020539619125e7 -1.1487696696927095e7 0.0
0.0 0.0 0.0

-8.96996778884838e6 4.9778120993906185e7 0.0
4.9778120993906185e7 5.532888903789841e6 0.0
0.0 0.0 0.0

-1.6645264461609691e7 2.091830484463856e7 0.0
2.091830484463856e7 2.943315952922656e6 0.0
0.0 0.0 0.0

-4.5786897602737226e7 3.308620281558245e7 0.0
3.308620281558245e7 -2.678006941620581e6 0.0
0.0 0.0 0.0

6.022792267659247e7 3.0538202144364774e7 0.0
3.0538202144364774e7 2.3549204052807733e7 0.0
0.0 0.0 0.0

-1.0397063045247972e7 1.9165580525317486e7 0.0
1.9165580525317486e7 -1.0805020098177157e8 0.0
0.0 0.0 0.0

-194839.0474278247 2.342388574012302e7 0.0
2.342388574012302e7 -1.53215639160354e7 0.0
0.0 0.0 0.0

-1.0533627922373563e6 2.2047664044395655e7 0.0
2.2047664044395655e7 3.0680365207903903e7 0.0
0.0 0.0 0.0

2.8340915284791146e6 2.8406426466511395e7 0.0
2.8406426466511395e7 -1.1224056473505171e7 0.0
0.0 0.0 0.0

-158210.5286030477 3.310273928148485e7 0.0
3.310273928148485e7 -429058.7069269619 0.0
0.0 0.0 0.0

4.749012014468863e6 2.0044464026021846e7 0.0
2.0044464026021846e7 1.5361025274912087e7 0.0
0.0 0.0 0.0

5.460728998049832e6 4.249967421543701e7 0.0
4.249967421543701e7 -2.0080586225945791e6 0.0
0.0 0.0 0.0

-9.844985968840532e6 1.1459749024375098e7 0.0
1.1459749024375098e7 2.1806763826942682e7 0.0
0.0 0.0 0.0

7.982579266819161e7 4.73947771276842e7 0.0
4.73947771276842e7 3.58714064037001e7 0.0
0.0 0.0 0.0

4.01232260805876e6 3.316643420531774e7 0.0
3.316643420531774e7 -7.293486711674165e6 0.0
0.0 0.0 0.0

6.17811808185847e6 1.8873248697592348e7 0.0
1.8873248697592348e7 2.1797815096771333e7 0.0
0.0 0.0 0.0

-1.4504151572261691e7 3.0388715126507804e7 0.0
3.0388715126507804e7 1.6406401497009555e6 0.0
0.0 0.0 0.0

2.5559385936651584e6 2.112931804083751e7 0.0
2.112931804083751e7 2.149101694857498e7 0.0
0.0 0.0 0.0

2.3559629716714458e6 3.1120610044552267e7 0.0
3.1120610044552267e7 -6.946996630820668e6 0.0
0.0 0.0 0.0

1.2612475566052683e6 9.119981044270666e6 0.0
9.119981044270666e6 -4.2753550965741746e7 0.0
0.0 0.0 0.0

-2.3389396202973053e6 2.7189696559285257e7 0.0
2.7189696559285257e7 7.754379392527279e6 0.0
0.0 0.0 0.0

-7.923328550643511e6 2.736149372265509e7 0.0
2.736149372265509e7 4.3819106128146555e6 0.0
0.0 0.0 0.0

867747.3784791175 8.999736686467757e6 0.0
8.999736686467757e6 -1.4486601614323096e7 0.0
0.0 0.0 0.0

-3.607269260015879e6 2.7940750016891878e7 0.0
2.7940750016891878e7 1.3782100411751246e7 0.0
0.0 0.0 0.0

-5.223513907022916e6 7.77870425002043e6 0.0
7.77870425002043e6 6.1932962971139684e7 0.0
0.0 0.0 0.0

-1.220832387379127e6 1.37068502782085e7 0.0
1.37068502782085e7 -1.6560783264437988e6 0.0
0.0 0.0 0.0

-1.4307457193242867e7 2.790340022294332e7 0.0
2.790340022294332e7 -1.3430448249380998e7 0.0
0.0 0.0 0.0

5.603025800301605e7 3.7978444400248915e7 0.0
3.7978444400248915e7 2.5134505447363462e7 0.0
0.0 0.0 0.0

-448306.72575637326 1.728699752359461e7 0.0
1.728699752359461e7 -3.689665672864785e7 0.0
0.0 0.0 0.0

1.7682899268689752e6 7.0088032330245515e6 0.0
7.0088032330245515e6 -4.546218048635603e7 0.0
0.0 0.0 0.0

1.3695861488449259e7 2.6611272742253363e7 0.0
2.6611272742253363e7 6.716119972015293e6 0.0
0.0 0.0 0.0

-673517.7171122814 1.4129767540646719e7 0.0
1.4129767540646719e7 1.7160286722229846e7 0.0
0.0 0.0 0.0

-665801.7930875589 3.1688602414616387e7 0.0
3.1688602414616387e7 353181.79463451076 0.0
0.0 0.0 0.0

-206199.23265255103 2.711354906404431e7 0.0
2.711354906404431e7 -8.681873313915815e6 0.0
0.0 0.0 0.0

769509.5284247231 2.745665390737175e7 0.0
2.745665390737175e7 -1.0965080493709616e7 0.0
0.0 0.0 0.0

-1.5110421795638746e6 2.334756068006069e7 0.0
2.334756068006069e7 -1.0122375449428607e7 0.0
0.0 0.0 0.0

1.689650269184255e6 9.993362013451742e6 0.0
9.993362013451742e6 -1.2996925606691843e7 0.0
0.0 0.0 0.0

4.7023918369513094e7 3.427038216054677e7 0.0
3.427038216054677e7 2.262491184161911e7 0.0
0.0 0.0 0.0

3.899581452231892e6 2.1232897880590025e7 0.0
2.1232897880590025e7 1.3592618623357596e7 0.0
0.0 0.0 0.0

-4.209544374169832e6 3.937486470694374e7 0.0
3.937486470694374e7 3.7886151730872653e6 0.0
0.0 0.0 0.0

-4.728817638305052e7 2.781325354411752e7 0.0
2.781325354411752e7 3.7987580413786042e6 0.0
0.0 0.0 0.0

2.9774740736715067e6 3.5688186813577493e6 0.0
3.5688186813577493e6 -2.585473686732394e7 0.0
0.0 0.0 0.0

1.2319088182667254e6 2.363716063241245e7 0.0
2.363716063241245e7 8.825079251399104e6 0.0
0.0 0.0 0.0

-6.461564877748298e6 1.963885017119149e7 0.0
1.963885017119149e7 -2.580420030110174e7 0.0
0.0 0.0 0.0

-530377.3460106915 2.0959803202216823e7 0.0
2.0959803202216823e7 -2.644760975379375e7 0.0
0.0 0.0 0.0

-8.195960447624104e6 -511289.33631470386 0.0
-511289.33631470386 3.5035842585619174e7 0.0
0.0 0.0 0.0

800106.2343267063 1.6183638053106219e7 0.0
1.6183638053106219e7 -2.4848294128875934e7 0.0
0.0 0.0 0.0

-1.4019492255702868e7 1.997910384966235e7 0.0
1.997910384966235e7 -6.580158010026614e7 0.0
0.0 0.0 0.0

936086.1382362563 1.5414875306157468e7 0.0
1.5414875306157468e7 -2.6383456965774138e7 0.0
0.0 0.0 0.0

3.508012459181214e6 2.5682639401913453e7 0.0
2.5682639401913453e7 -1.0415817502026105e7 0.0
0.0 0.0 0.0

4.349400675240859e7 2.7333474827253215e7 0.0
2.7333474827253215e7 1.0237484785793614e7 0.0
0.0 0.0 0.0

-4.141026002563888e6 1.7184913361764107e7 0.0
1.7184913361764107e7 4.5168695333897084e7 0.0
0.0 0.0 0.0

-7.279529790216421e6 2.7393675458692607e7 0.0
2.7393675458692607e7 -1.4405644116368728e7 0.0
0.0 0.0 0.0

530226.3023465567 2.1875495404564053e7 0.0
2.1875495404564053e7 1.139456845647271e6 0.0
0.0 0.0 0.0

-7.933407410052896e6 2.4654998714425117e7 0.0
2.4654998714425117e7 -1.8501972105484974e7 0.0
0.0 0.0 0.0

4.428842225052992e7 3.405579385567883e7 0.0
3.405579385567883e7 1.980798406551823e7 0.0
0.0 0.0 0.0

-4.327467421285936e6 2.804076065045369e7 0.0
2.804076065045369e7 1.4584170628808623e7 0.0
0.0 0.0 0.0

3.0279689934236323e6 2.5377365883539382e7 0.0
2.5377365883539382e7 -3.0543482631502403e6 0.0
0.0 0.0 0.0

1.2893151811520916e6 3.56887159253722e7 0.0
3.56887159253722e7 -1.7780129086417167e6 0.0
0.0 0.0 0.0

-2.1709092549033593e6 2.7110802010336943e7 0.0
2.7110802010336943e7 8.792917880488254e6 0.0
0.0 0.0 0.0

-3.4847916108727604e6 2.711237217665709e6 0.0
2.711237217665709e6 9.136062263897857e7 0.0
0.0 0.0 0.0

1.4556222089222297e6 2.4876320026555866e7 0.0
2.4876320026555866e7 -1.6622912990178652e7 0.0
0.0 0.0 0.0

-1.5913240361453774e6 3.463950908609863e7 0.0
3.463950908609863e7 2.6051261595280785e6 0.0
0.0 0.0 0.0

-1.5843482942630379e6 4.0116345489595295e6 0.0
4.0116345489595295e6 3.8322925167750837e6 0.0
0.0 0.0 0.0

-5.426977870645931e6 1.936672631501917e7 0.0
1.936672631501917e7 3.212274171278599e7 0.0
0.0 0.0 0.0

-4.636688117521688e6 2.0860599537749257e7 0.0
2.0860599537749257e7 -1.7977451456191316e7 0.0
0.0 0.0 0.0

2.0156841669195239e6 3.559159138602203e6 0.0
3.559159138602203e6 -3.662405869406291e7 0.0
0.0 0.0 0.0

-1.9499768826234117e6 4.1270453051203154e7 0.0
4.1270453051203154e7 2.309151669111831e6 0.0
0.0 0.0 0.0

1.5655883003033325e6 1.6570582985733813e7 0.0
1.6570582985733813e7 -2.2562743157232232e7 0.0
0.0 0.0 0.0

-3.692824509696204e6 2.2588424580104183e7 0.0
2.2588424580104183e7 2.409238156589914e7 0.0
0.0 0.0 0.0

349275.93679328635 6.875545601373412e6 0.0
6.875545601373412e6 -7.87839068336708e7 0.0
0.0 0.0 0.0

-5.12734129221985e6 3.890878327593812e7 0.0
3.890878327593812e7 3.196343164143024e6 0.0
0.0 0.0 0.0

-1.0894252136583516e7 2.0536318318254918e7 0.0
2.0536318318254918e7 -3.8793767424794e7 0.0
0.0 0.0 0.0

3.0893046825142596e6 2.319098748883895e6 0.0
2.319098748883895e6 -1.6410661262386208e7 0.0
0.0 0.0 0.0

-946924.0400406738 1.2695261474980623e7 0.0
1.2695261474980623e7 -3.574426013669441e6 0.0
0.0 0.0 0.0

-2.1058066540373374e7 3.954382648240661e7 0.0
3.954382648240661e7 5.8353701547654765e6 0.0
0.0 0.0 0.0

8.02414074978937e6 1.881512922145033e7 0.0
1.881512922145033e7 2.575941601491448e7 0.0
0.0 0.0 0.0

-1.054873385886332e7 4.679093856567611e7 0.0
4.679093856567611e7 3.4637233337061787e6 0.0
0.0 0.0 0.0

-9.223707491683023e6 8.950605042185247e6 0.0
8.950605042185247e6 3.368870460158172e7 0.0
0.0 0.0 0.0

-1.0334181284612082e6 1.0554779502176873e7 0.0
1.0554779502176873e7 -8.77857985312602e7 0.0
0.0 0.0 0.0

1.0283896939982422e8 3.440540348442393e7 0.0
3.440540348442393e7 1.2175161946826097e7 0.0
0.0 0.0 0.0

-609578.1565135464 3.271078846900953e7 0.0
3.271078846900953e7 504609.4197871424 0.0
0.0 0.0 0.0

-6.537118442289843e6 3.3594511901336126e7 0.0
3.3594511901336126e7 7.622824028999003e6 0.0
0.0 0.0 0.0

-1.936718080168827e6 2.9963264540594928e7 0.0
2.9963264540594928e7 5.784666682946036e6 0.0
0.0 0.0 0.0

1.1660908199760776e7 2.285225487941994e7 0.0
2.285225487941994e7 7.202093513952073e7 0.0
0.0 0.0 0.0

1.5184307476276774e6 3.9534608798921253e6 0.0
3.9534608798921253e6 -4.3247005262787804e7 0.0
0.0 0.0 0.0

62016.63977420051 1.5490551907018965e7 0.0
1.5490551907018965e7 -9.863044168068707e6 0.0
0.0 0.0 0.0

1.2136771516127415e7 4.001279816440429e7 0.0
4.001279816440429e7 -5.286328028919557e6 0.0
0.0 0.0 0.0

-512042.5299155414 1.256943892363782e7 0.0
1.256943892363782e7 -4.885205356984681e7 0.0
0.0 0.0 0.0

-2.5007624461268846e7 2.383642329895515e7 0.0
2.383642329895515e7 2.458763340411259e6 0.0
0.0 0.0 0.0

-7.808985463935854e6 2.7764516175239738e7 0.0
2.7764516175239738e7 2.9104901460866267e6 0.0
0.0 0.0 0.0

697453.1918346407 2.2607880236185864e7 0.0
2.2607880236185864e7 5.213630799414168e6 0.0
0.0 0.0 0.0

1.6145882885116749e6 1.5806668892757842e7 0.0
1.5806668892757842e7 -2.4221150422562703e7 0.0
0.0 0.0 0.0

5.944101219057513e6 2.175965819865937e7 0.0
2.175965819865937e7 4.7032531976455994e7 0.0
0.0 0.0 0.0

1.8831080505870488e7 4.039195410792521e7 0.0
4.039195410792521e7 -6.100705949058623e6 0.0
0.0 0.0 0.0

-5.2229159544281416e7 5.604407481444686e6 0.0
5.604407481444686e6 5.072790996082913e6 0.0
0.0 0.0 0.0

6.117237767257681e7 5.565349710613062e7 0.0
5.565349710613062e7 -9.224330352111362e6 0.0
0.0 0.0 0.0

1.7989424605096914e7 4.070181879036466e7 0.0
4.070181879036466e7 -6.558740838988314e6 0.0
0.0 0.0 0.0

2.628604772603618e6 3.634576570331765e6 0.0
3.634576570331765e6 -2.4833239500072986e7 0.0
0.0 0.0 0.0

-3.168904206653131e6 3.468062057265717e7 0.0
3.468062057265717e7 2.7673196968802586e6 0.0
0.0 0.0 0.0

5.208034377727722e7 1.88084973640294e7 0.0
1.88084973640294e7 3.582582228264937e6 0.0
0.0 0.0 0.0

-3.999098855736293e6 9.9615924869533e6 0.0
9.9615924869533e6 6.722802028409693e7 0.0
0.0 0.0 0.0

1.484270292257307e6 2.5188139421819616e7 0.0
2.5188139421819616e7 -1.6017692966645587e7 0.0
0.0 0.0 0.0

3.27768048176334e7 2.298755437777962e7 0.0
2.298755437777962e7 6.530861810810313e6 0.0
0.0 0.0 0.0

2.526692046654349e6 2.5727199347374704e7 0.0
2.5727199347374704e7 -1.2504831790066835e7 0.0
0.0 0.0 0.0

1.831419772120973e6 4.703790239521488e6 0.0
4.703790239521488e6 -4.671479053643113e7 0.0
0.0 0.0 0.0

121684.1464353932 3.2504066474052463e7 0.0
3.2504066474052463e7 -1.5190338383429102e6 0.0
0.0 0.0 0.0

-5.736677215610595e6 2.015700862294115e7 0.0
2.015700862294115e7 -2.3162975142811924e7 0.0
0.0 0.0 0.0

4.553043083607919e6 3.521303040533312e7 0.0
3.521303040533312e7 -5.93317307363307e6 0.0
0.0 0.0 0.0

-2.164980886104271e6 1.2922581921575043e7 0.0
1.2922581921575043e7 6.948525448896687e7 0.0
0.0 0.0 0.0

-1.32868892574528e6 2.26587715488651e7 0.0
2.26587715488651e7 -1.2212543183453247e7 0.0
0.0 0.0 0.0

1.226385766387608e6 1.1730636963026254e7 0.0
1.1730636963026254e7 -3.373777650286669e7 0.0
0.0 0.0 0.0

7.046238555553717e6 2.9049294312766872e7 0.0
2.9049294312766872e7 -6.85449356255898e6 0.0
0.0 0.0 0.0

-3.92480680892959e6 2.21117601053676e7 0.0
2.21117601053676e7 -1.1767742083727859e7 0.0
0.0 0.0 0.0

-5.511269150353931e6 5.032987505250814e6 0.0
5.032987505250814e6 6.1871394968014255e7 0.0
0.0 0.0 0.0

4.835302232999569e6 2.255248478863726e7 0.0
2.255248478863726e7 2.7432705349489473e7 0.0
0.0 0.0 0.0

-813749.2482528873 1.2122172366467748e7 0.0
1.2122172366467748e7 -5.289757742094266e7 0.0
0.0 0.0 0.0

5.576280621784902e6 3.48432148513562e7 0.0
3.48432148513562e7 -5.689342097343918e6 0.0
0.0 0.0 0.0

5.445068677814329e6 2.6309961181731213e7 0.0
2.6309961181731213e7 1.6799710799023405e7 0.0
0.0 0.0 0.0

1.988894469963789e6 1.0464520990813484e7 0.0
1.0464520990813484e7 -3.3126756992780197e7 0.0
0.0 0.0 0.0

7.776728638313131e7 3.3381310355047412e7 0.0
3.3381310355047412e7 1.8147392117945652e7 0.0
0.0 0.0 0.0

4.491489421530729e6 3.402138132507414e7 0.0
3.402138132507414e7 -5.892869928254411e6 0.0
0.0 0.0 0.0

-7.790506687684791e6 -240677.8914541509 0.0
-240677.8914541509 3.880701059451998e7 0.0
0.0 0.0 0.0

-6.761878206413526e6 5.423932195294374e6 0.0
5.423932195294374e6 5.7883567075716354e7 0.0
0.0 0.0 0.0

2.2886159873888213e6 1.5626459329242264e6 0.0
1.5626459329242264e6 -3.921701838573617e7 0.0
0.0 0.0 0.0

-2.6016738783417577e6 2.942130487110922e7 0.0
2.942130487110922e7 5.069961135321383e6 0.0
0.0 0.0 0.0

-2.1424959125778936e6 2.2413955408437233e7 0.0
2.2413955408437233e7 -1.1209793715501543e7 0.0
0.0 0.0 0.0

2.8090972172611402e6 2.765419316718546e7 0.0
2.765419316718546e7 -1.2700292120780958e7 0.0
0.0 0.0 0.0

-9.031689085017454e6 2.6831387324397843e6 0.0
2.6831387324397843e6 2.9832300010083336e7 0.0
0.0 0.0 0.0

1.260029737356407e6 2.8034004828381382e7 0.0
2.8034004828381382e7 -9.081467848123807e6 0.0
0.0 0.0 0.0

-5.981563592801195e6 4.906615125660111e6 0.0
4.906615125660111e6 6.182150709248185e7 0.0
0.0 0.0 0.0

1.3197320048815105e7 2.5035275759633817e7 0.0
2.5035275759633817e7 8.574037141162498e6 0.0
0.0 0.0 0.0

-1.315934112992946e6 1.4795804154688457e7 0.0
1.4795804154688457e7 -5.0489769992344014e7 0.0
0.0 0.0 0.0

-81389.53206880018 1.2174903861059528e7 0.0
1.2174903861059528e7 -5.3324732658800125e7 0.0
0.0 0.0 0.0

-5.469118022930145e6 1.8900565013362866e7 0.0
1.8900565013362866e7 3.4122317125350595e7 0.0
0.0 0.0 0.0

-1.6720208635493559e6 2.4337386078076635e7 0.0
2.4337386078076635e7 6.61792043955902e6 0.0
0.0 0.0 0.0

53648.27466882861 5.1407374533274695e6 0.0
5.1407374533274695e6 -537964.6801814823 0.0
0.0 0.0 0.0

-1.7055720174486793e6 2.3883019848912377e7 0.0
2.3883019848912377e7 -1.0277666440769922e7 0.0
0.0 0.0 0.0

-3.7082900277937828e6 3.2292561435207356e7 0.0
3.2292561435207356e7 7.981989693855955e6 0.0
0.0 0.0 0.0

1.0414195524692202e7 2.265092267481702e7 0.0
2.265092267481702e7 5.876952839754705e7 0.0
0.0 0.0 0.0

1.9122141555099614e7 2.868535986552081e7 0.0
2.868535986552081e7 -1.0177176614426952e6 0.0
0.0 0.0 0.0

-2.997880755807072e6 2.2917320973515096e6 0.0
2.2917320973515096e6 8.864696657096168e7 0.0
0.0 0.0 0.0

-4.690621493354965e6 1.2785829748859564e7 0.0
1.2785829748859564e7 5.517979940727075e7 0.0
0.0 0.0 0.0

-6.019489441060349e6 1.9091291402269494e7 0.0
1.9091291402269494e7 2.7446694305293288e7 0.0
0.0 0.0 0.0

3.213292121398747e6 2.2379888656239785e7 0.0
2.2379888656239785e7 1.4441078755167237e7 0.0
0.0 0.0 0.0

-1.03332741707794e7 6.990798159557131e6 0.0
6.990798159557131e6 2.195052064060545e7 0.0
0.0 0.0 0.0

-1.3139588542570917e7 2.4388306352596413e7 0.0
2.4388306352596413e7 -1.118979443923877e7 0.0
0.0 0.0 0.0

2.2856124112267867e6 5.208216104772033e6 0.0
5.208216104772033e6 -4.119516474141325e7 0.0
0.0 0.0 0.0

-1.0780216122013535e7 2.0034310408995353e7 0.0
2.0034310408995353e7 -5.541210561683271e7 0.0
0.0 0.0 0.0

2.8526446124809687e6 2.1148472562414892e7 0.0
2.1148472562414892e7 9.235764601273803e6 0.0
0.0 0.0 0.0

2.5409420164043322e7 3.594563495119749e7 0.0
3.594563495119749e7 -5.4255307969294805e6 0.0
0.0 0.0 0.0

3.23544981762961e6 2.649173803364663e7 0.0
2.649173803364663e7 -9.146375241260966e6 0.0
0.0 0.0 0.0

-3.1017738993797947e7 3.1406209924511116e7 0.0
3.1406209924511116e7 -1.0885096217437766e7 0.0
0.0 0.0 0.0

-572083.2306578226 3.391227177535742e7 0.0
3.391227177535742e7 -1.937836915125523e6 0.0
0.0 0.0 0.0

-2.686929015915715e6 8.183822533022477e6 0.0
8.183822533022477e6 -1.3585661259115178e6 0.0
0.0 0.0 0.0

-6.921478172344351e6 4.799174944673574e7 0.0
4.799174944673574e7 5.313253244838435e6 0.0
0.0 0.0 0.0

-1.597815520398367e6 2.5031791486610904e7 0.0
2.5031791486610904e7 5.055572229440508e6 0.0
0.0 0.0 0.0

-1.068404043769557e7 1.165051295316879e7 0.0
1.165051295316879e7 2.2431346677443612e7 0.0
0.0 0.0 0.0

-2.287158222897399e6 2.5071931673562456e7 0.0
2.5071931673562456e7 2.704386581702803e6 0.0
0.0 0.0 0.0

-7.663029507037188e6 1.4482582925409821e6 0.0
1.4482582925409821e6 9.539097833204813e6 0.0
0.0 0.0 0.0

-236045.06472805422 1.1280780592548488e7 0.0
1.1280780592548488e7 -2.5553669652733907e7 0.0
0.0 0.0 0.0

-794181.0480573829 1.5574942012498625e7 0.0
1.5574942012498625e7 -4.337789360937111e7 0.0
0.0 0.0 0.0

-1.4161693442599159e7 2.6979840869996853e7 0.0
2.6979840869996853e7 -1.175207684692593e7 0.0
0.0 0.0 0.0

-1.6703986983898021e6 2.2967375469597258e7 0.0
2.2967375469597258e7 2.8252575681280766e7 0.0
0.0 0.0 0.0

-1.6103106185869903e6 2.2260894590291843e7 0.0
2.2260894590291843e7 -8.16663549015187e6 0.0
0.0 0.0 0.0

2.861060585138009e6 4.173225537880516e6 0.0
4.173225537880516e6 -1.6642180271015696e7 0.0
0.0 0.0 0.0

247301.2201806181 3.039577017761596e7 0.0
3.039577017761596e7 -5.943925225003976e6 0.0
0.0 0.0 0.0

801067.8981322607 3.54755090684739e7 0.0
3.54755090684739e7 -3.2202410358709376e6 0.0
0.0 0.0 0.0

9.222986384832714e6 2.844753285985135e7 0.0
2.844753285985135e7 -5.87990047742326e6 0.0
0.0 0.0 0.0

-9.416683116783623e6 1.4607357315183932e7 0.0
1.4607357315183932e7 2.3755170338219337e7 0.0
0.0 0.0 0.0

-3.456272111457616e6 2.139390197356132e7 0.0
2.139390197356132e7 -2.5226724742865264e7 0.0
0.0 0.0 0.0

-7.6226134557638e6 4.082696793478396e7 0.0
4.082696793478396e7 3.568025160307966e6 0.0
0.0 0.0 0.0

-6.2857382405563835e6 3.987691217353928e7 0.0
3.987691217353928e7 3.364835092036926e6 0.0
0.0 0.0 0.0

-4.584911728770328e6 1.878236728520602e7 0.0
1.878236728520602e7 -4.068445684313531e7 0.0
0.0 0.0 0.0

-5.099832814110198e6 2.182835238931988e7 0.0
2.182835238931988e7 -1.5216265140927052e7 0.0
0.0 0.0 0.0

1.6760481954256885e6 2.215979498564445e7 0.0
2.215979498564445e7 7.4969778677482875e6 0.0
0.0 0.0 0.0

824020.6536909174 1.1113259271245025e7 0.0
1.1113259271245025e7 -4.125731415479982e7 0.0
0.0 0.0 0.0

-6.254298214159781e6 1.4103087302100196e7 0.0
1.4103087302100196e7 4.531739164802722e7 0.0
0.0 0.0 0.0

-3.266036052962113e6 1.4526402583669519e7 0.0
1.4526402583669519e7 -9.122868226842764e7 0.0
0.0 0.0 0.0

1.5730394601877578e7 4.528135460581171e7 0.0
4.528135460581171e7 -7.252901413877642e6 0.0
0.0 0.0 0.0

1.0015510516474385e7 2.0281212027207687e7 0.0
2.0281212027207687e7 4.20734952865889e7 0.0
0.0 0.0 0.0

7.910074782768823e6 2.139852245596704e7 0.0
2.139852245596704e7 5.332058418429639e7 0.0
0.0 0.0 0.0

3.2954792876363184e7 2.9851130135643188e7 0.0
2.9851130135643188e7 1.5571071336878195e7 0.0
0.0 0.0 0.0

-135319.5264244466 2.3286785956498783e7 0.0
2.3286785956498783e7 3.927158646955411e6 0.0
0.0 0.0 0.0

334675.2308232116 2.9813265680865858e7 0.0
2.9813265680865858e7 -5.60309958564705e6 0.0
0.0 0.0 0.0

-3.889705536629798e7 3.2240946717848767e7 0.0
3.2240946717848767e7 -1.2474504397987371e7 0.0
0.0 0.0 0.0

-100319.45183520816 2.2187936362418257e7 0.0
2.2187936362418257e7 1.5045902363450667e6 0.0
0.0 0.0 0.0

-4.514268150253033e6 2.643173283757278e7 0.0
2.643173283757278e7 6.748197215802151e6 0.0
0.0 0.0 0.0

2.7561132071677446e6 3.7461476474614153e6 0.0
3.7461476474614153e6 -3.3867219592576005e7 0.0
0.0 0.0 0.0

-1.5268122196337996e7 2.6345227823158342e7 0.0
2.6345227823158342e7 -9.2386481894841e6 0.0
0.0 0.0 0.0

-1.881113157917808e7 5.04372880423309e7 0.0
5.04372880423309e7 6.177761730128303e6 0.0
0.0 0.0 0.0

-8.876146323741682e6 4.487953184694236e6 0.0
4.487953184694236e6 3.345850572841182e7 0.0
0.0 0.0 0.0

1.8352959568196267e7 3.709495073431786e7 0.0
3.709495073431786e7 -5.46985695108787e6 0.0
0.0 0.0 0.0

-1.073564583879441e6 1.2237129244367756e7 0.0
1.2237129244367756e7 9.637128838169225e7 0.0
0.0 0.0 0.0

-7.856527597525304e6 -195813.78874990492 0.0
-195813.78874990492 3.863366182365669e7 0.0
0.0 0.0 0.0

-1.7747567836144768e7 2.2733441753256135e7 0.0
2.2733441753256135e7 -7.186979006293924e7 0.0
0.0 0.0 0.0

-358063.6495269397 2.4512820847791586e7 0.0
2.4512820847791586e7 -1.3489082118003415e7 0.0
0.0 0.0 0.0

909348.4498501916 3.664034181382128e7 0.0
3.664034181382128e7 -1.664853542932731e6 0.0
0.0 0.0 0.0

-9.479022114783546e6 2.2051543382995714e7 0.0
2.2051543382995714e7 -1.4602548401788875e7 0.0
0.0 0.0 0.0

-1.1190037205964269e6 1.2078769032933457e7 0.0
1.2078769032933457e7 -1.6950353314337006e6 0.0
0.0 0.0 0.0

-455816.6481199069 3.2259218346815012e7 0.0
3.2259218346815012e7 -3.237760637611761e6 0.0
0.0 0.0 0.0

-3.7620837215302074e6 3.853784947928907e7 0.0
3.853784947928907e7 3.152590072870868e6 0.0
0.0 0.0 0.0

1.3514582842395278e6 3.691750497463431e7 0.0
3.691750497463431e7 -2.186064079244242e6 0.0
0.0 0.0 0.0

-5.570501297840383e6 1.3416546294309637e7 0.0
1.3416546294309637e7 -9.86849959859653e7 0.0
0.0 0.0 0.0

-7.314677128391432e6 2.2579808135750793e7 0.0
2.2579808135750793e7 -2.609142126797122e7 0.0
0.0 0.0 0.0

-4.538855681815125e6 3.8114013647960313e6 0.0
3.8114013647960313e6 7.28748732548682e7 0.0
0.0 0.0 0.0

1.827759697130905e7 2.5824168367546547e7 0.0
2.5824168367546547e7 8.038118259581894e7 0.0
0.0 0.0 0.0

-5.961155755265492e7 5.445152903816367e6 0.0
5.445152903816367e6 4.796226082232546e6 0.0
0.0 0.0 0.0

5.480491920555833e7 3.606445270102161e7 0.0
3.606445270102161e7 1.277901530653655e7 0.0
0.0 0.0 0.0

-909133.8506115638 1.854136782944918e7 0.0
1.854136782944918e7 -3.557926061262957e7 0.0
0.0 0.0 0.0

1.9848274287671573e6 5.9588502440536665e6 0.0
5.9588502440536665e6 -9.598824025958216e6 0.0
0.0 0.0 0.0

7.365365575865848e7 3.412707792023301e7 0.0
3.412707792023301e7 1.630250541085992e6 0.0
0.0 0.0 0.0

2.158865942057343e6 1.2942930401431207e7 0.0
1.2942930401431207e7 -3.2294385831138782e7 0.0
0.0 0.0 0.0

4.099375418535318e7 3.0401367147795882e7 0.0
3.0401367147795882e7 1.698237055411338e7 0.0
0.0 0.0 0.0

-1.087798523231679e6 3.356376950312529e7 0.0
3.356376950312529e7 -1.1750109374886465e6 0.0
0.0 0.0 0.0

-5.4347699516067095e6 3.2848760025653906e7 0.0
3.2848760025653906e7 7.942604593240163e6 0.0
0.0 0.0 0.0

-1.160394244605695e6 1.6070021048139432e7 0.0
1.6070021048139432e7 -1.0769732192471534e7 0.0
0.0 0.0 0.0

-6.803043147381479e6 1.6078244016088918e7 0.0
1.6078244016088918e7 -9.392363440343514e6 0.0
0.0 0.0 0.0

-7.340832826017619e6 2.1462665329013444e7 0.0
2.1462665329013444e7 -2.50690477305016e7 0.0
0.0 0.0 0.0

-1.900202480102255e6 2.529801227058144e7 0.0
2.529801227058144e7 1.049445542610126e7 0.0
0.0 0.0 0.0

5.119263499495748e6 2.5189668962022007e7 0.0
2.5189668962022007e7 1.2952634146027364e7 0.0
0.0 0.0 0.0

-1.3835591673215553e6 1.0691134056388492e7 0.0
1.0691134056388492e7 9.10590225516451e7 0.0
0.0 0.0 0.0

-1.5832362307046729e6 3.1217621687732726e7 0.0
3.1217621687732726e7 -443259.6928512928 0.0
0.0 0.0 0.0

2.235683052394623e6 1.5295148785245446e6 0.0
1.5295148785245446e6 -3.941033291085922e7 0.0
0.0 0.0 0.0

-2.547287952096084e6 2.5856442018228758e7 0.0
2.5856442018228758e7 1.8121771641997367e7 0.0
0.0 0.0 0.0

3.334757906296865e6 2.511157974982453e7 0.0
2.511157974982453e7 1.4789260803256659e7 0.0
0.0 0.0 0.0

1.785546519346263e7 3.119094354751888e7 0.0
3.119094354751888e7 -3.5297311403548876e6 0.0
0.0 0.0 0.0

2.3038882730434523e6 3.0385601819615938e7 0.0
3.0385601819615938e7 -9.183015809594976e6 0.0
0.0 0.0 0.0

-5.145171029575445e6 4.353815581917942e7 0.0
4.353815581917942e7 2.0375172210804166e6 0.0
0.0 0.0 0.0

-3.722128316539588e6 9.103951316879727e6 0.0
9.103951316879727e6 894833.6768332163 0.0
0.0 0.0 0.0

-1.5199900789580721e7 3.95421074865603e7 0.0
3.95421074865603e7 5.703560038953702e6 0.0
0.0 0.0 0.0

-1.9873744429035739e6 3.415514588404261e7 0.0
3.415514588404261e7 3.6257073074512416e6 0.0
0.0 0.0 0.0

-5.732529981524868e6 2.039257482307484e7 0.0
2.039257482307484e7 2.7344062208372716e7 0.0
0.0 0.0 0.0

4.537555812805766e7 3.070463692322502e7 0.0
3.070463692322502e7 3.6112769232420865e6 0.0
0.0 0.0 0.0

1.333882387642379e6 2.2992540592239067e7 0.0
2.2992540592239067e7 -1.754322619040032e7 0.0
0.0 0.0 0.0

-1.5300874530676021e6 3.3179502982463006e7 0.0
3.3179502982463006e7 -271937.12149331486 0.0
0.0 0.0 0.0

-1.0069106063829525e6 1.4523114704554874e7 0.0
1.4523114704554874e7 -1.1252845489786556e7 0.0
0.0 0.0 0.0

-471231.91801814083 2.463000404184416e7 0.0
2.463000404184416e7 1.6751641899376154e7 0.0
0.0 0.0 0.0

-1.0766447413615169e7 1.7299751790296815e7 0.0
1.7299751790296815e7 -5.99966458594459e6 0.0
0.0 0.0 0.0

-1.4876100828320798e7 2.5240494664792523e7 0.0
2.5240494664792523e7 -9.35718531754226e6 0.0
0.0 0.0 0.0

715239.8978084717 2.4099936439745873e7 0.0
2.4099936439745873e7 -1.3387558161664031e7 0.0
0.0 0.0 0.0

1.4414986880516537e7 1.824430451957311e7 0.0
1.824430451957311e7 5.165574672860263e6 0.0
0.0 0.0 0.0

80462.07801269274 2.219736852023427e7 0.0
2.219736852023427e7 -2.234950076711885e7 0.0
0.0 0.0 0.0

-1.4228983026232943e6 2.262430124243878e7 0.0
2.262430124243878e7 2.822974119867251e7 0.0
0.0 0.0 0.0

-1.994964638298853e7 2.411347249655145e7 0.0
2.411347249655145e7 -3.7072135735119004e6 0.0
0.0 0.0 0.0

-3.269556824733562e6 2.50650333828527e7 0.0
2.50650333828527e7 4.340115779182775e6 0.0
0.0 0.0 0.0

-1.0166160055304589e7 1.0269616328443458e7 0.0
1.0269616328443458e7 3.116163851605028e7 0.0
0.0 0.0 0.0

4.7541762657421855e6 2.1849876169109687e7 0.0
2.1849876169109687e7 2.6395520920428105e7 0.0
0.0 0.0 0.0

2.1786351473383486e7 4.0918690468296684e7 0.0
4.0918690468296684e7 -7.122339824886179e6 0.0
0.0 0.0 0.0

-5.031120507851113e7 3.2789293344699975e7 0.0
3.2789293344699975e7 -2.588434539156338e6 0.0
0.0 0.0 0.0

1.4578372415041089e7 5.1549716116407715e7 0.0
5.1549716116407715e7 -3.7232081133196605e6 0.0
0.0 0.0 0.0

-1.7190009960961614e7 2.901687464883189e7 0.0
2.901687464883189e7 -790471.3523131646 0.0
0.0 0.0 0.0

8.909758554764055e6 4.647811306620761e7 0.0
4.647811306620761e7 -2.4435174180428474e6 0.0
0.0 0.0 0.0

-1.025881761748225e7 6.314016195879359e6 0.0
6.314016195879359e6 3.059728893350789e7 0.0
0.0 0.0 0.0

2.185693144722439e7 2.9684479691013444e7 0.0
2.9684479691013444e7 -1.16417138215785e6 0.0
0.0 0.0 0.0

-5.054880912419024e6 4.03425777391132e7 0.0
4.03425777391132e7 4.0921552679688046e6 0.0
0.0 0.0 0.0

-6.365167526639428e6 2.6148377714356728e7 0.0
2.6148377714356728e7 1.096392807067247e6 0.0
0.0 0.0 0.0

-865902.0731364898 2.0621181582144465e7 0.0
2.0621181582144465e7 -2.903665392590644e7 0.0
0.0 0.0 0.0

-7.998919651972093e6 3.57058453448105e7 0.0
3.57058453448105e7 6.546972204509409e6 0.0
0.0 0.0 0.0

-9.118458291839855e6 2.1550020682110056e7 0.0
2.1550020682110056e7 -1.009953529839103e7 0.0
0.0 0.0 0.0

7.926841676968557e6 4.5528436465705395e7 0.0
4.5528436465705395e7 -4.701901979610546e6 0.0
0.0 0.0 0.0

-1.899851033443789e7 3.985227059412237e7 0.0
3.985227059412237e7 6.672789915540884e6 0.0
0.0 0.0 0.0

1.5395660597303065e7 3.003549773031727e7 0.0
3.003549773031727e7 -3.0160555213188203e6 0.0
0.0 0.0 0.0

2.8805377335378285e6 6.066021035136591e6 0.0
6.066021035136591e6 -2.1770933226720013e7 0.0
0.0 0.0 0.0

-8.438654945203355e6 2.099710285515873e7 0.0
2.099710285515873e7 -4.438928377220355e7 0.0
0.0 0.0 0.0

2.722372344461723e6 4.054163327451453e6 0.0
4.054163327451453e6 -1.834183436374611e7 0.0
0.0 0.0 0.0

8.000755917548645e6 2.0783435946543466e7 0.0
2.0783435946543466e7 3.956935929263448e7 0.0
0.0 0.0 0.0

8.288207655139915e6 2.760309483731766e7 0.0
2.760309483731766e7 -3.381036021154636e6 0.0
0.0 0.0 0.0

1.4484063372304019e7 3.749759454827064e7 0.0
3.749759454827064e7 -5.7226996513953125e6 0.0
0.0 0.0 0.0

-5.4075527779575605e6 2.013794768181623e7 0.0
2.013794768181623e7 3.2303560369288426e7 0.0
0.0 0.0 0.0

-160562.46044618124 1.6920279064833004e7 0.0
1.6920279064833004e7 -9.482322384016335e6 0.0
0.0 0.0 0.0

2.7019012002311843e6 1.0425994857853087e7 0.0
1.0425994857853087e7 4.008062926884109e6 0.0
0.0 0.0 0.0

-1.8296638941163458e6 1.2622922587055957e7 0.0
1.2622922587055957e7 -7.536723874213493e7 0.0
0.0 0.0 0.0

3.251607798138302e6 1.9104850057244036e7 0.0
1.9104850057244036e7 9.152378372697782e6 0.0
0.0 0.0 0.0

-1.798040161969055e7 3.511891098466629e7 0.0
3.511891098466629e7 5.07435646725168e6 0.0
0.0 0.0 0.0

-1.8786668244978832e6 2.243875852628591e7 0.0
2.243875852628591e7 -1.5860239626966963e7 0.0
0.0 0.0 0.0

3.5068118153085716e7 2.932314552802209e7 0.0
2.932314552802209e7 1.6173816899934368e7 0.0
0.0 0.0 0.0

-8.531859843320284e6 8.804124964199321e6 0.0
8.804124964199321e6 4.032289665501313e7 0.0
0.0 0.0 0.0

-3.9776439040633865e7 3.672136861656326e7 0.0
3.672136861656326e7 -510213.37906580046 0.0
0.0 0.0 0.0

4.4006632443009205e7 4.339772138989484e7 0.0
4.339772138989484e7 -8.5575017567574e6 0.0
0.0 0.0 0.0

-5.894292337135728e6 3.285125819925125e7 0.0
3.285125819925125e7 8.707140810024876e6 0.0
0.0 0.0 0.0

127953.62552709156 2.0360293608963232e7 0.0
2.0360293608963232e7 3.3826855548487324e6 0.0
0.0 0.0 0.0

-3.51509741629947e6 1.894975345806858e7 0.0
1.894975345806858e7 4.168405479093462e7 0.0
0.0 0.0 0.0

-8.208380439180788e6 949309.316174592 0.0
949309.316174592 3.9919419418492004e7 0.0
0.0 0.0 0.0

645119.9093428832 2.247019796622367e7 0.0
2.247019796622367e7 -1.9278956326273188e7 0.0
0.0 0.0 0.0

-1.3748056934136754e7 2.9905995908460476e7 0.0
2.9905995908460476e7 -1.542430171337228e7 0.0
0.0 0.0 0.0

410800.9966683751 2.297686663364653e7 0.0
2.297686663364653e7 -1.2349148792171057e7 0.0
0.0 0.0 0.0

-2.584646307326328e6 1.3401316380587818e7 0.0
1.3401316380587818e7 6.4178482808859825e7 0.0
0.0 0.0 0.0

-209439.65967097692 1.7245735881967273e7 0.0
1.7245735881967273e7 -3.4707181673283644e7 0.0
0.0 0.0 0.0

-1.3218156400141064e7 2.962001792880744e7 0.0
2.962001792880744e7 -1.566057391031769e7 0.0
0.0 0.0 0.0

-1.0690527459920198e6 2.0026786287662927e7 0.0
2.0026786287662927e7 -2.89450814276807e7 0.0
0.0 0.0 0.0

3.602029829247178e7 2.860124667050743e7 0.0
2.860124667050743e7 1.795381492267561e7 0.0
0.0 0.0 0.0

-4.465005426505208e6 1.1619207256321719e7 0.0
1.1619207256321719e7 5.9023367003192015e7 0.0
0.0 0.0 0.0

2.1448696209437866e6 2.517467082685627e7 0.0
2.517467082685627e7 -459515.23874387785 0.0
0.0 0.0 0.0

-478950.08521066513 2.4198085423136894e7 0.0
2.4198085423136894e7 2.292209426024053e7 0.0
0.0 0.0 0.0

6.694925754076383e6 3.584796792246084e7 0.0
3.584796792246084e7 -5.660164806588806e6 0.0
0.0 0.0 0.0

1.784998092447089e6 1.1481959953753524e7 0.0
1.1481959953753524e7 -3.5701486974240646e7 0.0
0.0 0.0 0.0

1.6488138863847451e6 1.071407134042643e7 0.0
1.071407134042643e7 -1.4148298646436678e7 0.0
0.0 0.0 0.0

-1.8626553178001828e6 1.3250643706801377e7 0.0
1.3250643706801377e7 -6.516089101864601e7 0.0
0.0 0.0 0.0

-1.3319381825743077e7 2.7721971032974564e7 0.0
2.7721971032974564e7 -6.042902025704213e6 0.0
0.0 0.0 0.0

-6.044616140297048e6 1.1494856848731104e7 0.0
1.1494856848731104e7 5.361927905518503e7 0.0
0.0 0.0 0.0

-1.2012477931878006e7 2.7406177447586924e7 0.0
2.7406177447586924e7 -1.1004500663599733e7 0.0
0.0 0.0 0.0

334164.57968542166 2.166058731581417e7 0.0
2.166058731581417e7 -1.2852456595960723e7 0.0
0.0 0.0 0.0

-451535.29938511923 1.0110603949382165e7 0.0
1.0110603949382165e7 -5.682861258903918e7 0.0
0.0 0.0 0.0

-4.467835004446041e6 1.762592139709565e7 0.0
1.762592139709565e7 4.2131957138211325e7 0.0
0.0 0.0 0.0

4.92052252855021e6 2.1054480073533062e7 0.0
2.1054480073533062e7 1.752931898523036e7 0.0
0.0 0.0 0.0

-1.8151902092168238e6 1.5211204385841634e7 0.0
1.5211204385841634e7 -4.695210216983213e7 0.0
0.0 0.0 0.0

1.7127615323194247e6 2.428466946281486e6 0.0
2.428466946281486e6 -4.40862513232074e7 0.0
0.0 0.0 0.0

-2.7971052939833486e6 2.5205592380902577e7 0.0
2.5205592380902577e7 1.8381804715121515e7 0.0
0.0 0.0 0.0

-1.126948318707403e7 2.815656449599337e7 0.0
2.815656449599337e7 -1.5001665284971677e7 0.0
0.0 0.0 0.0

1.0194648984046252e6 1.5674363514921466e7 0.0
1.5674363514921466e7 -1.653669708727282e7 0.0
0.0 0.0 0.0

-7.255644330363404e6 4.756385300556275e6 0.0
4.756385300556275e6 4.880645488819873e7 0.0
0.0 0.0 0.0

-5.239446595037684e6 632172.4669529883 0.0
632172.4669529883 1.080900324915474e7 0.0
0.0 0.0 0.0

-4.366692007790338e6 2.3033775810306784e7 0.0
2.3033775810306784e7 2.2230820933410395e7 0.0
0.0 0.0 0.0

3.833273544110756e7 3.222256994349813e7 0.0
3.222256994349813e7 2.2991528226766244e7 0.0
0.0 0.0 0.0

2.9355235799244877e7 2.8986077557400413e7 0.0
2.8986077557400413e7 1.703849132917105e7 0.0
0.0 0.0 0.0

-2.1176466731050782e7 2.843249788842671e7 0.0
2.843249788842671e7 -1.4058216264578555e7 0.0
0.0 0.0 0.0

-5.474948977524578e6 1.9778296754463524e7 0.0
1.9778296754463524e7 -1.5838787719258692e7 0.0
0.0 0.0 0.0

-1.2489115556468835e7 2.8794155058796186e7 0.0
2.8794155058796186e7 -1.2760250015600285e7 0.0
0.0 0.0 0.0

-1.1966042424444187e7 2.647304439215338e7 0.0
2.647304439215338e7 -1.4029212479972037e7 0.0
0.0 0.0 0.0

-1.6625386505459808e6 1.402661778487919e7 0.0
1.402661778487919e7 -5.761376778396824e7 0.0
0.0 0.0 0.0

-2.545039473134252e6 4.423569401054278e6 0.0
4.423569401054278e6 253350.77221157227 0.0
0.0 0.0 0.0

-1.5481790124522303e6 8.134362801687382e6 0.0
8.134362801687382e6 2.4433682944549355e6 0.0
0.0 0.0 0.0

1.6984121557605653e6 2.0596352756271705e7 0.0
2.0596352756271705e7 2.4336129511952745e6 0.0
0.0 0.0 0.0

2.579435937520008e7 2.9005963554800566e7 0.0
2.9005963554800566e7 1.5237929708494354e7 0.0
0.0 0.0 0.0

2.0655200539209358e6 2.1742323623889506e7 0.0
2.1742323623889506e7 1.1034970992673274e7 0.0
0.0 0.0 0.0

-3.3671193382246466e6 2.4253817389871854e7 0.0
2.4253817389871854e7 1.9065483567964517e7 0.0
0.0 0.0 0.0

-2.9055062183426388e7 1.5650722785134092e7 0.0
1.5650722785134092e7 6.9753713780611865e6 0.0
0.0 0.0 0.0

3.958003968892479e6 2.112633320824637e7 0.0
2.112633320824637e7 1.344954115726409e7 0.0
0.0 0.0 0.0

1.916039725060829e6 6.72358046589478e6 0.0
6.72358046589478e6 -2.276952125219524e7 0.0
0.0 0.0 0.0

-1.785124548347774e7 3.754083854919152e7 0.0
3.754083854919152e7 6.248316996487698e6 0.0
0.0 0.0 0.0

-6.808616637706216e6 2.5336318497275296e6 0.0
2.5336318497275296e6 5.15500940355723e7 0.0
0.0 0.0 0.0

-2.3293872741253925e6 2.4275368586501215e7 0.0
2.4275368586501215e7 -1.1649699413303724e7 0.0
0.0 0.0 0.0

1.2123241242057731e7 2.5530493646770775e7 0.0
2.5530493646770775e7 1.3356986049465362e7 0.0
0.0 0.0 0.0

-1.0424541738334134e7 2.7801944833449487e7 0.0
2.7801944833449487e7 -1.5015086868606992e7 0.0
0.0 0.0 0.0

-4.738007864634067e6 1.9592637463496316e7 0.0
1.9592637463496316e7 -3.686424199653853e7 0.0
0.0 0.0 0.0

3.06613534929359e7 3.0624798494839355e7 0.0
3.0624798494839355e7 2.067459259080773e7 0.0
0.0 0.0 0.0

-4.428012333300234e6 2.20977589410912e7 0.0
2.20977589410912e7 -2.6233045569912158e7 0.0
0.0 0.0 0.0

2.9720917479408067e6 2.2358424910767194e7 0.0
2.2358424910767194e7 1.5568660305366203e7 0.0
0.0 0.0 0.0

6.584543604597504e6 2.4978634321760632e7 0.0
2.4978634321760632e7 1.80476837258234e7 0.0
0.0 0.0 0.0

-2.5303054667352177e6 2.4950496509287555e7 0.0
2.4950496509287555e7 1.948204947105609e7 0.0
0.0 0.0 0.0

-2.3692993755614227e6 2.51819047100261e7 0.0
2.51819047100261e7 1.318786607101038e7 0.0
0.0 0.0 0.0

1.4475229160603285e6 5.800131199314749e6 0.0
5.800131199314749e6 -4.20823878092154e7 0.0
0.0 0.0 0.0

2.2878045184203754e6 3.874142766619112e7 0.0
3.874142766619112e7 -2.406310404817636e6 0.0
0.0 0.0 0.0

-7.899344275596676e6 2.378795126074526e7 0.0
2.378795126074526e7 -2.02399339320805e7 0.0
0.0 0.0 0.0

4.330385672330133e7 2.7170496166978735e7 0.0
2.7170496166978735e7 1.8379451483451106e7 0.0
0.0 0.0 0.0

-1.0749297949052328e7 3.422655354229351e7 0.0
3.422655354229351e7 6.82264480369112e6 0.0
0.0 0.0 0.0

1.6044153118666504e6 4.732815736019945e6 0.0
4.732815736019945e6 -4.901041992097348e7 0.0
0.0 0.0 0.0

-1.8138842063246649e6 2.2231076490903847e7 0.0
2.2231076490903847e7 8.575917279709531e6 0.0
0.0 0.0 0.0

2.244787941701619e7 2.5968609579847947e7 0.0
2.5968609579847947e7 1.2557050348410413e7 0.0
0.0 0.0 0.0

5.506232346042286e7 2.5430880644817714e7 0.0
2.5430880644817714e7 1.5831846646676129e7 0.0
0.0 0.0 0.0

-7.154732878620753e6 3.9915895501171485e7 0.0
3.9915895501171485e7 5.112829192208597e6 0.0
0.0 0.0 0.0

651917.8409453342 2.3370245502638105e7 0.0
2.3370245502638105e7 -2.0779176005442735e7 0.0
0.0 0.0 0.0

-8.908367121296762e6 1.3781754742760846e7 0.0
1.3781754742760846e7 2.5297179676423483e7 0.0
0.0 0.0 0.0

-7.387378152573504e6 2.7693577554125893e6 0.0
2.7693577554125893e6 4.969394144481214e7 0.0
0.0 0.0 0.0

2.8694275713358545e6 2.1433714920847602e7 0.0
2.1433714920847602e7 9.301192693967752e6 0.0
0.0 0.0 0.0

1.7222554942722507e7 2.1085604156665914e7 0.0
2.1085604156665914e7 1.1489552928255852e7 0.0
0.0 0.0 0.0

-8.702523544277228e6 6.447378445941755e6 0.0
6.447378445941755e6 3.886879987654958e7 0.0
0.0 0.0 0.0

-3.050894519372814e6 1.5230724391828263e7 0.0
1.5230724391828263e7 -831649.5312181655 0.0
0.0 0.0 0.0

-5.181195252501346e6 2.4170296066592224e7 0.0
2.4170296066592224e7 -1.7880378708254505e7 0.0
0.0 0.0 0.0

-6.1171752216942785e6 2.0047882755720466e7 0.0
2.0047882755720466e7 -3.438591854227743e7 0.0
0.0 0.0 0.0

1.003195460777736e6 3.7817960654341415e7 0.0
3.7817960654341415e7 -1.903341671486314e6 0.0
0.0 0.0 0.0

7.848755142592544e6 3.6656230703295834e7 0.0
3.6656230703295834e7 -5.935209289381502e6 0.0
0.0 0.0 0.0

7.264983961543146e6 5.007037899479663e7 0.0
5.007037899479663e7 -4.225434817237807e6 0.0
0.0 0.0 0.0

-1.8739770770827875e7 4.6656390729262e7 0.0
4.6656390729262e7 7.062822190993679e6 0.0
0.0 0.0 0.0

1.081191132639645e7 2.173008797415439e7 0.0
2.173008797415439e7 3.979691917404498e7 0.0
0.0 0.0 0.0

-1.0394148476983164e7 2.0112675345146224e7 0.0
2.0112675345146224e7 -9.531898061954077e7 0.0
0.0 0.0 0.0

-9.724739605640173e6 2.047890783264405e6 0.0
2.047890783264405e6 2.8496286271244343e7 0.0
0.0 0.0 0.0

-1.2650363091108916e7 1.8322106243664626e7 0.0
1.8322106243664626e7 -4.253764568814362e7 0.0
0.0 0.0 0.0

-5.797748210116217e6 1.849825986520671e7 0.0
1.849825986520671e7 -1.843166179795259e7 0.0
0.0 0.0 0.0

8.900098049947655e6 2.2183865098998584e7 0.0
2.2183865098998584e7 3.805550496428927e7 0.0
0.0 0.0 0.0

-1.2292486708898105e7 2.082710209507114e7 0.0
2.082710209507114e7 -5.0266552404592134e7 0.0
0.0 0.0 0.0

-9.500979219564477e6 1.9043704194707587e7 0.0
1.9043704194707587e7 -3.541070694349221e7 0.0
0.0 0.0 0.0

2.5238702380256552e7 2.8639957633831248e7 0.0
2.8639957633831248e7 1.347287998469507e7 0.0
0.0 0.0 0.0

-6.888900834042581e6 2.4295067429398634e7 0.0
2.4295067429398634e7 -1.7952087546022806e7 0.0
0.0 0.0 0.0

1.5008776325621158e6 1.0509142137393093e7 0.0
1.0509142137393093e7 -4.046056263173538e7 0.0
0.0 0.0 0.0

1.8241995710687398e6 2.163533080501701e7 0.0
2.163533080501701e7 5.0835779667706685e6 0.0
0.0 0.0 0.0

-1.1996452945296627e7 2.8609632682972137e7 0.0
2.8609632682972137e7 -1.5598189087522693e7 0.0
0.0 0.0 0.0

6.867328376488963e6 2.0375566180301186e7 0.0
2.0375566180301186e7 2.401871561017695e7 0.0
0.0 0.0 0.0

2.7581102157580983e6 4.0327093913868126e6 0.0
4.0327093913868126e6 -1.88751608100007e7 0.0
0.0 0.0 0.0

-1.876478040662422e6 3.2799366772973925e7 0.0
3.2799366772973925e7 777367.8953461418 0.0
0.0 0.0 0.0

-4.625377434472969e6 3.760073324270341e7 0.0
3.760073324270341e7 3.0135735047793705e6 0.0
0.0 0.0 0.0

-4.995383121611405e6 1.798247265015858e7 0.0
1.798247265015858e7 4.0823949380653195e7 0.0
0.0 0.0 0.0

2.635066862296905e6 2.3318003579972807e7 0.0
2.3318003579972807e7 1.1502885315720893e7 0.0
0.0 0.0 0.0

5.963774450793065e6 2.5206623617710385e7 0.0
2.5206623617710385e7 1.8966480917194597e7 0.0
0.0 0.0 0.0

-4.970175299786012e6 4.265101530283137e7 0.0
4.265101530283137e7 3.407656252469803e6 0.0
0.0 0.0 0.0

-2.9767105103417747e6 2.3980751813852727e7 0.0
2.3980751813852727e7 1.9858583683812268e7 0.0
0.0 0.0 0.0

-8.886749480429258e6 449563.75219942565 0.0
449563.75219942565 3.2713687316230696e7 0.0
0.0 0.0 0.0

-4.052813135359872e6 3.726748450205561e7 0.0
3.726748450205561e7 4.646276393264409e6 0.0
0.0 0.0 0.0

372064.0422207599 3.1874136471438427e7 0.0
3.1874136471438427e7 -2.6814517260594787e6 0.0
0.0 0.0 0.0

-2.4599187814007914e6 2.4479835640059344e7 0.0
2.4479835640059344e7 4.010386248686742e6 0.0
0.0 0.0 0.0

1.9911657093083926e6 3.830828609676705e7 0.0
3.830828609676705e7 -2.52178060650435e6 0.0
0.0 0.0 0.0

1.8993352373314616e6 3.7399225555166565e7 0.0
3.7399225555166565e7 -1.9925034272846882e6 0.0
0.0 0.0 0.0

-2.729150154955822e6 2.347690492425903e7 0.0
2.347690492425903e7 -1.2820061817087706e7 0.0
0.0 0.0 0.0

4.7675733635443235e6 2.342109546182475e7 0.0
2.342109546182475e7 1.5891911645842478e7 0.0
0.0 0.0 0.0

1.1732088143183086e6 1.0254169988832444e7 0.0
1.0254169988832444e7 -3.7727442524374105e7 0.0
0.0 0.0 0.0

-1.6570792242231727e7 1.913378845905882e7 0.0
1.913378845905882e7 -6.092918922528666e7 0.0
0.0 0.0 0.0

-5.705678249151597e6 2.6581354916135624e7 0.0
2.6581354916135624e7 3.9569239771337365e6 0.0
0.0 0.0 0.0

-4.719594007348152e7 3.9642892821881585e7 0.0
3.9642892821881585e7 -1.9427783168939818e7 0.0
0.0 0.0 0.0

-9.732161316987852e6 2.0504698404212356e7 0.0
2.0504698404212356e7 -3.351839177330697e7 0.0
0.0 0.0 0.0

-5.242289962859087e7 3.893089507995839e7 0.0
3.893089507995839e7 -1.1542103271942586e7 0.0
0.0 0.0 0.0

-3.638014003222733e6 2.7017983204944316e7 0.0
2.7017983204944316e7 1.3646251304316932e7 0.0
0.0 0.0 0.0

-6.193717617914911e6 1.2180712626090073e6 0.0
1.2180712626090073e6 5.71845668922005e7 0.0
0.0 0.0 0.0

5.690680027374093e6 3.564084980462762e7 0.0
3.564084980462762e7 -5.626449803445334e6 0.0
0.0 0.0 0.0

-2.149227719410339e7 3.1048107634090073e7 0.0
3.1048107634090073e7 -1.4741423717775688e7 0.0
0.0 0.0 0.0

699768.021382696 2.418455812325672e7 0.0
2.418455812325672e7 -1.8710766459837943e7 0.0
0.0 0.0 0.0

-1.4910387642266573e7 3.7622526426562704e7 0.0
3.7622526426562704e7 5.999389158573843e6 0.0
0.0 0.0 0.0

-9.804534417597257e6 1.011417469727191e7 0.0
1.011417469727191e7 3.035412172023599e7 0.0
0.0 0.0 0.0

293310.1453782972 1.164691167697884e7 0.0
1.164691167697884e7 -4.7933138877557024e7 0.0
0.0 0.0 0.0

-1.905840381905201e7 3.704453082607056e7 0.0
3.704453082607056e7 5.459768363777242e6 0.0
0.0 0.0 0.0

2.1323473359311027e6 2.2462472349638905e7 0.0
2.2462472349638905e7 7.581074396102667e6 0.0
0.0 0.0 0.0

-1.0367552453117503e7 1.2522280914405907e7 0.0
1.2522280914405907e7 2.3710144537169445e7 0.0
0.0 0.0 0.0

-417881.1517586475 2.203553105909211e7 0.0
2.203553105909211e7 -1.3489847702140573e7 0.0
0.0 0.0 0.0

5.474945376307072e6 3.368981187503429e7 0.0
3.368981187503429e7 -6.474342289846553e6 0.0
0.0 0.0 0.0

-3.1123460865023986e7 1.6240994809296936e7 0.0
1.6240994809296936e7 6.663671527931223e6 0.0
0.0 0.0 0.0

-7.92791793822391e6 3.4709101801082805e7 0.0
3.4709101801082805e7 7.352312107261385e6 0.0
0.0 0.0 0.0

-477457.3155436935 2.2963638305880416e7 0.0
2.2963638305880416e7 -2.2374852502733346e7 0.0
0.0 0.0 0.0

1.4017085722590946e6 1.056638711863227e7 0.0
1.056638711863227e7 -3.318764290764755e7 0.0
0.0 0.0 0.0

-830589.6415388617 5.32776240073384e6 0.0
5.32776240073384e6 -3.5475685565643874e6 0.0
0.0 0.0 0.0

948587.636552156 2.041003153603949e7 0.0
2.041003153603949e7 -2.4653626035725735e7 0.0
0.0 0.0 0.0

-2.8601363291258655e7 3.0726078362906326e7 0.0
3.0726078362906326e7 -7.0667178668567445e6 0.0
0.0 0.0 0.0

1.061360598677492e7 4.976132401417733e7 0.0
4.976132401417733e7 -3.2246755759177757e6 0.0
0.0 0.0 0.0

4.183858615487432e6 2.1104627748258177e7 0.0
2.1104627748258177e7 4.325948389040059e7 0.0
0.0 0.0 0.0

4.021133986503516e6 2.3698642969692327e7 0.0
2.3698642969692327e7 1.4118498136708073e7 0.0
0.0 0.0 0.0

1.1271345714450836e7 1.91588979717915e7 0.0
1.91588979717915e7 3.914389629834588e7 0.0
0.0 0.0 0.0

-4.905479891601746e6 2.315924358288933e7 0.0
2.315924358288933e7 -1.6351600065142112e7 0.0
0.0 0.0 0.0

-5.090449373088777e6 1.7552561183877416e7 0.0
1.7552561183877416e7 4.2174311856271006e7 0.0
0.0 0.0 0.0

-4.335267570287726e6 2.132266492730736e7 0.0
2.132266492730736e7 -1.7658726677875556e7 0.0
0.0 0.0 0.0

-3.264098274235343e7 4.148170084596072e7 0.0
4.148170084596072e7 7.0478227723942585e6 0.0
0.0 0.0 0.0

-7.592086628621386e6 6.272511765459612e6 0.0
6.272511765459612e6 4.630384776596235e7 0.0
0.0 0.0 0.0

-6.067537045888621e6 1.145698369403378e6 0.0
1.145698369403378e6 5.788151721520017e7 0.0
0.0 0.0 0.0

324369.77018505987 1.5442049378872644e7 0.0
1.5442049378872644e7 -1.8987168471497755e7 0.0
0.0 0.0 0.0

3.346273495991444e6 4.867244167101288e6 0.0
4.867244167101288e6 -397489.6564980878 0.0
0.0 0.0 0.0

-987244.6556904875 1.1229765580427699e7 0.0
1.1229765580427699e7 -6.053097369370672e7 0.0
0.0 0.0 0.0

-4.822702669801228e6 1.4901995432158833e7 0.0
1.4901995432158833e7 5.073570296793617e7 0.0
0.0 0.0 0.0

-1.0515103209147677e6 1.4277369743868208e7 0.0
1.4277369743868208e7 -4.649579340958305e7 0.0
0.0 0.0 0.0

-8.081911165108234e6 2.2929327722199326e6 0.0
2.2929327722199326e6 3.8206166063981816e7 0.0
0.0 0.0 0.0

-3.396896706935358e6 3.392785780713566e7 0.0
3.392785780713566e7 3.773564790704812e6 0.0
0.0 0.0 0.0

6.592557729640267e6 3.437520495369653e7 0.0
3.437520495369653e7 -6.326172579606773e6 0.0
0.0 0.0 0.0

-4.6079660703601595e6 3.9903286300592795e7 0.0
3.9903286300592795e7 2.2041322876324365e6 0.0
0.0 0.0 0.0

6.40367133261886e6 4.818157905309764e7 0.0
4.818157905309764e7 -2.512500822769866e6 0.0
0.0 0.0 0.0

2.9541747076974483e6 4.299473396514079e7 0.0
4.299473396514079e7 -2.93187713020566e6 0.0
0.0 0.0 0.0

-7.394967156109214e6 2.717744787701301e6 0.0
2.717744787701301e6 4.7749043418003716e7 0.0
0.0 0.0 0.0

1.0603508666277416e6 5.187437992209455e6 0.0
5.187437992209455e6 -5.2646238419813275e7 0.0
0.0 0.0 0.0

1.2612086896294225e6 2.5306257601166837e7 0.0
2.5306257601166837e7 -1.326380555541038e7 0.0
0.0 0.0 0.0

1.3449711244411236e6 2.716676072213947e7 0.0
2.716676072213947e7 -1.0469393419331916e7 0.0
0.0 0.0 0.0

1.5745964922097437e6 1.3895437696886493e7 0.0
1.3895437696886493e7 -2.715073329036278e7 0.0
0.0 0.0 0.0

-8.64226387637149e6 1.8205918667103443e7 0.0
1.8205918667103443e7 -2.752276554209695e7 0.0
0.0 0.0 0.0

2.0814943954950415e6 2.049057974175608e7 0.0
2.049057974175608e7 6.938314486051123e6 0.0
0.0 0.0 0.0

-3.5486998618158842e6 2.928685913646739e7 0.0
2.928685913646739e7 1.0367187089191843e7 0.0
0.0 0.0 0.0

-1.1662749252550472e7 3.564925858059475e7 0.0
3.564925858059475e7 6.427540666058416e6 0.0
0.0 0.0 0.0

-3.206630141796527e6 2.1428481978232406e7 0.0
2.1428481978232406e7 -9.6599180436561e6 0.0
0.0 0.0 0.0

-1.4629184449414168e6 1.5272687965029497e7 0.0
1.5272687965029497e7 -1.5962899691679152e6 0.0
0.0 0.0 0.0

1.8240230906347837e6 3.153226088729799e6 0.0
3.153226088729799e6 -4.205489396338715e7 0.0
0.0 0.0 0.0

4.058164709657203e6 2.4991652718854707e7 0.0
2.4991652718854707e7 -6.288434953993404e6 0.0
0.0 0.0 0.0

1.1740301247535702e6 1.1052386128412407e7 0.0
1.1052386128412407e7 -3.573884728521509e7 0.0
0.0 0.0 0.0

-4.567401697435772e6 1.0053715393337235e7 0.0
1.0053715393337235e7 3.2315255769970478e6 0.0
0.0 0.0 0.0

-2.110134429014064e6 1.3621947966937438e7 0.0
1.3621947966937438e7 -4.872829561633035e6 0.0
0.0 0.0 0.0

-5.40604572270331e6 2.8955388167244988e6 0.0
2.8955388167244988e6 4.88806695114357e6 0.0
0.0 0.0 0.0

-1.8114579519322282e6 3.067438545953605e7 0.0
3.067438545953605e7 4.537160596194558e6 0.0
0.0 0.0 0.0

-583435.3290163521 2.113559497964041e7 0.0
2.113559497964041e7 -2.6617372283109985e7 0.0
0.0 0.0 0.0

-1.9445108829540685e6 1.0806326476187587e7 0.0
1.0806326476187587e7 -7.012307713661888e7 0.0
0.0 0.0 0.0

-1.0433925651579022e7 2.6628347274367243e7 0.0
2.6628347274367243e7 -8.589538973563697e6 0.0
0.0 0.0 0.0

-3.5191369521923974e7 3.560912261010918e7 0.0
3.560912261010918e7 -1.8261912206710737e7 0.0
0.0 0.0 0.0

-2.397140202729817e7 3.590065345017341e7 0.0
3.590065345017341e7 4.359555781832003e6 0.0
0.0 0.0 0.0

-1.496575072652608e7 2.986378175870054e7 0.0
2.986378175870054e7 -1.491558016801642e7 0.0
0.0 0.0 0.0

-6.914610631668402e6 1.8719356446044028e7 0.0
1.8719356446044028e7 -4.70014175785087e7 0.0
0.0 0.0 0.0

-1.0538782816943353e7 1.9639272965852704e7 0.0
1.9639272965852704e7 -3.5129277065280914e7 0.0
0.0 0.0 0.0

-2.7587734290933922e7 3.2729945984946262e7 0.0
3.2729945984946262e7 -1.5555902601281306e7 0.0
0.0 0.0 0.0

-1.5357939805528328e7 2.023557329260843e7 0.0
2.023557329260843e7 -5.1193133770070106e7 0.0
0.0 0.0 0.0

-4.221714601569314e6 2.2436158915990286e7 0.0
2.2436158915990286e7 2.650328985426857e7 0.0
0.0 0.0 0.0

-1.0081332251137072e7 2.9345729967660634e6 0.0
2.9345729967660634e6 2.6269370220715016e7 0.0
0.0 0.0 0.0

427488.84383230074 3.1442735339388587e7 0.0
3.1442735339388587e7 -4.56742803812688e6 0.0
0.0 0.0 0.0

-3.397131977901429e6 2.586229742670642e7 0.0
2.586229742670642e7 1.6331318457424568e7 0.0
0.0 0.0 0.0

-9.137640021513073e6 1.692534846808655e6 0.0
1.692534846808655e6 3.3501399893234886e7 0.0
0.0 0.0 0.0

125626.94489915669 1.6917519896088492e7 0.0
1.6917519896088492e7 -3.4249087307620436e7 0.0
0.0 0.0 0.0

-1.5498977093531531e6 3.2187500835284997e7 0.0
3.2187500835284997e7 -351841.898018435 0.0
0.0 0.0 0.0

693195.5058336116 2.1309813771064226e7 0.0
2.1309813771064226e7 -1.96570793395183e6 0.0
0.0 0.0 0.0

-5.021473717520965e6 3.2966177873205405e7 0.0
3.2966177873205405e7 7.099020756524942e6 0.0
0.0 0.0 0.0

-2.5343525415227674e7 3.314914195221942e7 0.0
3.314914195221942e7 -1.6930820200992715e7 0.0
0.0 0.0 0.0

-1.1967590398870977e7 1.9857267411444113e7 0.0
1.9857267411444113e7 -3.98919682069865e7 0.0
0.0 0.0 0.0

6.395792445421646e6 2.4384149213689614e7 0.0
2.4384149213689614e7 2.035778422327025e7 0.0
0.0 0.0 0.0

-3.638288450013587e7 3.636146195593342e7 0.0
3.636146195593342e7 2.6188917730255127e6 0.0
0.0 0.0 0.0

-9.07163222785336e6 1.2748346777765617e7 0.0
1.2748346777765617e7 2.4438699150178444e7 0.0
0.0 0.0 0.0

-4.414352180116743e6 1.2089125369593829e7 0.0
1.2089125369593829e7 6.2507449714725055e7 0.0
0.0 0.0 0.0

-3.1654411706091627e6 2.35533934756419e7 0.0
2.35533934756419e7 -1.2815119593241997e7 0.0
0.0 0.0 0.0

5.56343563530947e6 4.267360907808619e7 0.0
4.267360907808619e7 -4.003107122217619e6 0.0
0.0 0.0 0.0

1.1015268652151946e7 2.046860632988772e7 0.0
2.046860632988772e7 3.671756239622212e7 0.0
0.0 0.0 0.0

3.2830264331464373e7 2.4775418821032993e7 0.0
2.4775418821032993e7 7.126349704136269e6 0.0
0.0 0.0 0.0

-1.972578126935869e7 3.131625573957333e7 0.0
3.131625573957333e7 -1.590568075727813e7 0.0
0.0 0.0 0.0

8.08118965406483e6 3.9286714943784885e7 0.0
3.9286714943784885e7 -5.470925284869716e6 0.0
0.0 0.0 0.0

1.509846907880199e7 2.0047537466590263e7 0.0
2.0047537466590263e7 5.611550922080551e7 0.0
0.0 0.0 0.0

683396.6706571504 7.751614642487031e6 0.0
7.751614642487031e6 -6.794623800893171e7 0.0
0.0 0.0 0.0

-7.446321889257019e6 3.3493654650750365e7 0.0
3.3493654650750365e7 8.078242930093477e6 0.0
0.0 0.0 0.0

1.0725151427437817e6 1.9739862855179053e7 0.0
1.9739862855179053e7 487534.9132384943 0.0
0.0 0.0 0.0

-1.7333495142480917e7 2.0924028390516646e7 0.0
2.0924028390516646e7 -5.777831873774649e7 0.0
0.0 0.0 0.0

-8.325595004819903e6 2.7096459311302356e7 0.0
2.7096459311302356e7 -3.218464463731829e6 0.0
0.0 0.0 0.0

1.423537173666533e6 3.1133353647818854e6 0.0
3.1133353647818854e6 -5.839010529126259e7 0.0
0.0 0.0 0.0

19963.92595051322 2.55667970941897e7 0.0
2.55667970941897e7 -1.0990645720248394e7 0.0
0.0 0.0 0.0

6.451501814034579e6 2.8517406466809265e7 0.0
2.8517406466809265e7 -8.594715638598375e6 0.0
0.0 0.0 0.0

3.24484477082471e7 2.9655426685468834e7 0.0
2.9655426685468834e7 4.028976579382333e6 0.0
0.0 0.0 0.0

-5.205695621715512e6 2.079470046214261e7 0.0
2.079470046214261e7 2.735376696306121e7 0.0
0.0 0.0 0.0

-2.7004390991220716e6 1.7448979621923346e7 0.0
1.7448979621923346e7 -1.1302221096735833e7 0.0
0.0 0.0 0.0

-1.2540132373268612e7 2.8063848985777333e7 0.0
2.8063848985777333e7 -1.4979956861254845e7 0.0
0.0 0.0 0.0

-33975.994560312014 3.171387359699067e7 0.0
3.171387359699067e7 -4.0323782519648974e6 0.0
0.0 0.0 0.0

-5.667391159063395e6 3.9428069944630754e6 0.0
3.9428069944630754e6 6.1326950400622904e7 0.0
0.0 0.0 0.0

-2.6047898402311103e6 2.150045735746355e7 0.0
2.150045735746355e7 -1.1546299031499458e7 0.0
0.0 0.0 0.0

-1.3198658674148694e7 3.6039196030180134e7 0.0
3.6039196030180134e7 6.384670974362998e6 0.0
0.0 0.0 0.0

862770.07871769 9.746374397807742e6 0.0
9.746374397807742e6 -1.5609856334166627e7 0.0
0.0 0.0 0.0

1.4057175087860553e7 2.4351484245470706e7 0.0
2.4351484245470706e7 1.4732583981015034e7 0.0
0.0 0.0 0.0

-5.6262041905680165e7 3.8875240086143985e7 0.0
3.8875240086143985e7 2.029687753949765e6 0.0
0.0 0.0 0.0

4.264002800162743e6 1.8940863710804276e7 0.0
1.8940863710804276e7 1.3380312714653809e7 0.0
0.0 0.0 0.0

2.684949282532325e6 7.739341163447983e6 0.0
7.739341163447983e6 -2.117757888981571e7 0.0
0.0 0.0 0.0

6.688228490194286e6 2.3126043212876886e7 0.0
2.3126043212876886e7 2.4106655182334565e7 0.0
0.0 0.0 0.0

3.3857504747919664e6 3.0958180492587622e7 0.0
3.0958180492587622e7 -8.240327144933176e6 0.0
0.0 0.0 0.0

2.914196938526019e7 4.006485671826622e7 0.0
4.006485671826622e7 -6.048344227499763e6 0.0
0.0 0.0 0.0

-4.797999776022111e6 1.989657581573956e7 0.0
1.989657581573956e7 -1.5993332814692928e7 0.0
0.0 0.0 0.0

-2.1868340527867945e6 2.002789311668656e7 0.0
2.002789311668656e7 1.1001879278129427e7 0.0
0.0 0.0 0.0

295380.60302335396 9.906894129700664e6 0.0
9.906894129700664e6 -1.2917583414249333e7 0.0
0.0 0.0 0.0

-6.858490370655962e6 2.1713437673653472e7 0.0
2.1713437673653472e7 -3.2261802084359635e7 0.0
0.0 0.0 0.0

1.0870967368784905e6 2.5984188163069256e7 0.0
2.5984188163069256e7 -1.1354512544281079e7 0.0
0.0 0.0 0.0

2.4045788545621835e7 2.9463193856828064e7 0.0
2.9463193856828064e7 1.7919651656467747e7 0.0
0.0 0.0 0.0

-9.578784919954339e6 2.6995563752143487e7 0.0
2.6995563752143487e7 -1.5521994346970132e7 0.0
0.0 0.0 0.0

5.653865345391108e6 2.8268102382956307e7 0.0
2.8268102382956307e7 -7.813315943787869e6 0.0
0.0 0.0 0.0

-7.939848333916873e6 5.319034621543219e6 0.0
5.319034621543219e6 1.1652443337164354e7 0.0
0.0 0.0 0.0

466423.0459798167 8.2882760268015005e6 0.0
8.2882760268015005e6 -4.47244326987999e6 0.0
0.0 0.0 0.0

1.482160978118256e7 2.768277005531468e7 0.0
2.768277005531468e7 -529339.9940853659 0.0
0.0 0.0 0.0

3.6976285903422264e6 2.013774228886612e7 0.0
2.013774228886612e7 1.1114737460596366e7 0.0
0.0 0.0 0.0

7.469797081924178e7 2.9969912506597944e7 0.0
2.9969912506597944e7 2.2078387856381267e7 0.0
0.0 0.0 0.0

-8.72364949204536e6 1.755704863879389e6 0.0
1.755704863879389e6 3.729841479805832e7 0.0
0.0 0.0 0.0

-2.411640313942483e7 3.0884386372801393e7 0.0
3.0884386372801393e7 -1.1846617047077067e7 0.0
0.0 0.0 0.0

-1.841643838770843e7 2.7920019864771005e7 0.0
2.7920019864771005e7 -9.837080680846358e6 0.0
0.0 0.0 0.0

-4.431572268489094e7 3.2671383218834344e7 0.0
3.2671383218834344e7 -1.8388444685981974e7 0.0
0.0 0.0 0.0

4.949590856782522e7 6.753485704396674e6 0.0
6.753485704396674e6 -934339.6986360848 0.0
0.0 0.0 0.0

-3.2402301186948493e6 1.0797732302644162e7 0.0
1.0797732302644162e7 7.178767179726249e7 0.0
0.0 0.0 0.0

-1.7229490010345723e6 1.45066371484658e7 0.0
1.45066371484658e7 357515.5200177011 0.0
0.0 0.0 0.0

-2.3250450947434e7 3.002681380622272e7 0.0
3.002681380622272e7 -1.6219527554748047e7 0.0
0.0 0.0 0.0

-5.196307867599969e6 3.308165391534706e7 0.0
3.308165391534706e7 8.346657025412444e6 0.0
0.0 0.0 0.0

464273.02971144393 2.5446649069414414e7 0.0
2.5446649069414414e7 -1.3119734561083648e7 0.0
0.0 0.0 0.0

802200.2767113466 1.6487988857875248e7 0.0
1.6487988857875248e7 -2.0374624241033737e7 0.0
0.0 0.0 0.0

-235943.93455599947 2.13512347298249e7 0.0
2.13512347298249e7 -7.730669356478476e6 0.0
0.0 0.0 0.0

-1.0637080762925206e7 1.8083650197784077e7 0.0
1.8083650197784077e7 -3.734466797474214e7 0.0
0.0 0.0 0.0

-1.3387063049040996e7 2.1427295689536612e7 0.0
2.1427295689536612e7 -8.166590782237802e7 0.0
0.0 0.0 0.0

1.8653224444560897e7 5.9542036118787145e6 0.0
5.9542036118787145e6 -2.0928952345510665e6 0.0
0.0 0.0 0.0

1.451319706115796e7 4.0330133240813494e7 0.0
4.0330133240813494e7 -5.96215584916889e6 0.0
0.0 0.0 0.0

-7.669993783682348e6 1.9763756625441562e7 0.0
1.9763756625441562e7 -2.5566646678110648e7 0.0
0.0 0.0 0.0

2.4618796679095987e7 2.0527166944303583e7 0.0
2.0527166944303583e7 5.460833855324423e6 0.0
0.0 0.0 0.0

-686323.1078198869 2.280095514737791e7 0.0
2.280095514737791e7 -8.499645389646163e6 0.0
0.0 0.0 0.0

572565.4854286001 3.083669083107013e7 0.0
3.083669083107013e7 -4.1904649244684326e6 0.0
0.0 0.0 0.0

-6.184332323624662e6 2.1503348011417758e7 0.0
2.1503348011417758e7 -2.1090459084258117e7 0.0
0.0 0.0 0.0

-2.414781570847833e7 2.3353152314173687e7 0.0
2.3353152314173687e7 -529792.1666268138 0.0
0.0 0.0 0.0

-9.04255390092323e6 -1.1788531317780125e6 0.0
-1.1788531317780125e6 2.1680206383001383e7 0.0
0.0 0.0 0.0

-4.121000583028214e6 2.193678243101919e7 0.0
2.193678243101919e7 2.608628827221037e7 0.0
0.0 0.0 0.0

-369009.7781391705 2.12947776412081e7 0.0
2.12947776412081e7 2.8265719124693186e6 0.0
0.0 0.0 0.0

-8.25546565714138e6 2.1490993440700404e7 0.0
2.1490993440700404e7 -2.3022048578402713e7 0.0
0.0 0.0 0.0

-259135.19547945075 2.2686294571485918e7 0.0
2.2686294571485918e7 -8.824142125248384e6 0.0
0.0 0.0 0.0

-2.740985082605192e6 1.5925558325313566e7 0.0
1.5925558325313566e7 -2.675398109878843e6 0.0
0.0 0.0 0.0

3.766806395614659e7 2.9068012032402333e7 0.0
2.9068012032402333e7 2.875316095212683e6 0.0
0.0 0.0 0.0

-1.3831267617808226e7 4.005553802215645e7 0.0
4.005553802215645e7 6.407125012346995e6 0.0
0.0 0.0 0.0

1.0185679791953329e7 2.9528250753011923e7 0.0
2.9528250753011923e7 -5.585132710228013e6 0.0
0.0 0.0 0.0

-6.838403347644197e6 2.562578825882891e7 0.0
2.562578825882891e7 -5.160006037632914e6 0.0
0.0 0.0 0.0

-3.242876217972488e6 4.039803286479073e7 0.0
4.039803286479073e7 2.978645985073423e6 0.0
0.0 0.0 0.0

-4.0729737129105786e6 2.3584110088321842e7 0.0
2.3584110088321842e7 2.2271300767527997e7 0.0
0.0 0.0 0.0

954277.2538160328 9.081239058476266e6 0.0
9.081239058476266e6 -9.641654936405879e6 0.0
0.0 0.0 0.0

-2.51372337426697e6 9.00994760997072e6 0.0
9.00994760997072e6 4.919871541919656e6 0.0
0.0 0.0 0.0

-1.4757933548898697e7 1.8640219848871216e7 0.0
1.8640219848871216e7 -5.430093123282413e7 0.0
0.0 0.0 0.0

-3.6902817880728967e6 2.5704716745721657e7 0.0
2.5704716745721657e7 7.192791727752851e6 0.0
0.0 0.0 0.0

1.2421278394281934e6 5.75758264311998e6 0.0
5.75758264311998e6 -9.741041030833265e6 0.0
0.0 0.0 0.0

-6.930447184682263e7 4.061535440419401e7 0.0
4.061535440419401e7 -1.328823135106704e7 0.0
0.0 0.0 0.0

-2.216624516016446e6 1.0084193538984148e7 0.0
1.0084193538984148e7 -8.136513121016173e7 0.0
0.0 0.0 0.0

-2.0626939967336117e6 1.2012926705923082e7 0.0
1.2012926705923082e7 -4.873545472093642e6 0.0
0.0 0.0 0.0

-1.3518166429109316e7 1.9622788471636087e7 0.0
1.9622788471636087e7 -5.7683121203542486e7 0.0
0.0 0.0 0.0

1.3702994230056442e6 4.790513878476473e6 0.0
4.790513878476473e6 -5.145852355089621e7 0.0
0.0 0.0 0.0

3.54382211333876e7 4.562230313098369e7 0.0
4.562230313098369e7 -8.717740359533584e6 0.0
0.0 0.0 0.0

1.9723839359071068e6 1.1446659835164763e7 0.0
1.1446659835164763e7 -3.3408306625053592e7 0.0
0.0 0.0 0.0

-2.489433139931366e6 1.5649087542156674e7 0.0
1.5649087542156674e7 5.8376648632501274e7 0.0
0.0 0.0 0.0

-4.975948960611898e6 2.095191974561583e7 0.0
2.095191974561583e7 2.788133340281637e7 0.0
0.0 0.0 0.0

-4.051032212365088e6 2.7980504934420627e7 0.0
2.7980504934420627e7 1.2835782901120597e7 0.0
0.0 0.0 0.0

-1.0709201406844296e7 2.5518859450536996e7 0.0
2.5518859450536996e7 -1.3561809161723306e7 0.0
0.0 0.0 0.0

-4.119144738401478e6 2.176501067688697e7 0.0
2.176501067688697e7 2.8626194437048092e7 0.0
0.0 0.0 0.0

-2.3008457202968113e6 3.0742175592468183e7 0.0
3.0742175592468183e7 2.634070554866479e6 0.0
0.0 0.0 0.0

1.5977082150681056e7 2.1778958905947775e7 0.0
2.1778958905947775e7 5.325694234558967e7 0.0
0.0 0.0 0.0

-1.0193584226264734e7 2.2101522007875824e6 0.0
2.2101522007875824e6 2.276364517076561e7 0.0
0.0 0.0 0.0

1.7063733531572316e6 2.483244584034081e7 0.0
2.483244584034081e7 -1.656030520559248e7 0.0
0.0 0.0 0.0

-5.412403422921479e6 1.4549390986162668e7 0.0
1.4549390986162668e7 -9.125543764957006e7 0.0
0.0 0.0 0.0

-1.2255404564076202e7 4.2600575110872395e7 0.0
4.2600575110872395e7 6.350206695414846e6 0.0
0.0 0.0 0.0

6.297194312766252e6 3.317219570929604e7 0.0
3.317219570929604e7 -7.367163250070462e6 0.0
0.0 0.0 0.0

4.90320043116845e6 2.5532672381794322e7 0.0
2.5532672381794322e7 4.0507983471410014e6 0.0
0.0 0.0 0.0

-4.863279988098642e6 2.0875038445688732e7 0.0
2.0875038445688732e7 2.967396443904383e7 0.0
0.0 0.0 0.0

-2.6059780634306032e7 4.2575724691459976e7 0.0
4.2575724691459976e7 7.135425185461953e6 0.0
0.0 0.0 0.0

3.1088924539687773e6 2.812960375165217e7 0.0
2.812960375165217e7 -1.1555291254571993e7 0.0
0.0 0.0 0.0

-7.07044143946023e6 1.952453344723556e7 0.0
1.952453344723556e7 -4.211676283890822e7 0.0
0.0 0.0 0.0

-2.0642051292877637e7 4.6154246823883355e7 0.0
4.6154246823883355e7 6.390087731262009e6 0.0
0.0 0.0 0.0

4.864592218302963e7 4.222464444363083e7 0.0
4.222464444363083e7 -8.869269239959747e6 0.0
0.0 0.0 0.0

3.9397196301653087e6 2.4265666138465613e7 0.0
2.4265666138465613e7 5.437663326395521e6 0.0
0.0 0.0 0.0

1.4031534230060615e6 1.3732916297615513e7 0.0
1.3732916297615513e7 -2.941153398200506e7 0.0
0.0 0.0 0.0

-1.6435195152696535e7 2.195560532529427e7 0.0
2.195560532529427e7 -6.2893694683348775e7 0.0
0.0 0.0 0.0

2.362759222265304e7 4.027129356044263e7 0.0
4.027129356044263e7 -6.192108224626148e6 0.0
0.0 0.0 0.0

-820901.5980466604 2.3088054863633502e7 0.0
2.3088054863633502e7 -1.7503668596187174e7 0.0
0.0 0.0 0.0

2.022252573755508e6 3.657811925905053e7 0.0
3.657811925905053e7 -3.8068626628284194e6 0.0
0.0 0.0 0.0

-4.066773154161725e6 1.3415711687958209e7 0.0
1.3415711687958209e7 -7.65860906079908e7 0.0
0.0 0.0 0.0

2.105786180846961e6 2.297344474849883e7 0.0
2.297344474849883e7 1.0539184921901625e7 0.0
0.0 0.0 0.0

-3.028982980594398e7 3.808755376021045e7 0.0
3.808755376021045e7 5.753660486426812e6 0.0
0.0 0.0 0.0

-1.602358351885965e6 3.1336624545504384e7 0.0
3.1336624545504384e7 3.487872420868369e6 0.0
0.0 0.0 0.0

3.388706444630022e7 2.5875104231100436e7 0.0
2.5875104231100436e7 1.417971493986975e7 0.0
0.0 0.0 0.0

-4.403070148346393e6 4.1606626656951606e7 0.0
4.1606626656951606e7 1.526098326648817e6 0.0
0.0 0.0 0.0

4.947815933136112e6 2.2694799282558486e7 0.0
2.2694799282558486e7 1.729565328150085e7 0.0
0.0 0.0 0.0

-3.4282550227670153e6 2.917115483537113e6 0.0
2.917115483537113e6 2.070230667046287e6 0.0
0.0 0.0 0.0

1.507047369318154e7 4.305757292206121e7 0.0
4.305757292206121e7 -5.134759857175276e6 0.0
0.0 0.0 0.0

-442896.29413258284 2.2122028703394882e7 0.0
2.2122028703394882e7 -2.4612801816914424e7 0.0
0.0 0.0 0.0

1.2073069511460476e6 3.929588646183618e6 0.0
3.929588646183618e6 -6.456412847007213e7 0.0
0.0 0.0 0.0

-659734.1237373422 1.3150396127623191e7 0.0
1.3150396127623191e7 -8.002031442632466e6 0.0
0.0 0.0 0.0

1.4338762414360652e6 7.325785589737826e6 0.0
7.325785589737826e6 -1.0034638031493355e7 0.0
0.0 0.0 0.0

1.0238902817311818e6 1.76296658553514e7 0.0
1.76296658553514e7 -2.0145661776370622e7 0.0
0.0 0.0 0.0

-2.6469521863114845e7 3.572561163398552e7 0.0
3.572561163398552e7 4.606140115783149e6 0.0
0.0 0.0 0.0

-3.8296675837863665e6 2.5857989055771835e7 0.0
2.5857989055771835e7 3.9194153110404327e6 0.0
0.0 0.0 0.0

8.449246627364267e6 3.0081771652803965e7 0.0
3.0081771652803965e7 -6.428512335516658e6 0.0
0.0 0.0 0.0

1.7193580560864266e6 6.489065604008618e6 0.0
6.489065604008618e6 -5.0322563829084575e7 0.0
0.0 0.0 0.0

650582.6229462917 2.5363935364425004e7 0.0
2.5363935364425004e7 -1.0954088778292796e7 0.0
0.0 0.0 0.0

117265.97617775202 2.100630487313271e7 0.0
2.100630487313271e7 -1.71969623458782e7 0.0
0.0 0.0 0.0

-1.845406717464216e7 2.8854041309408665e7 0.0
2.8854041309408665e7 -1.5229992602580454e7 0.0
0.0 0.0 0.0

2.1067872676688623e7 3.687415396309525e7 0.0
3.687415396309525e7 -5.925775287560293e6 0.0
0.0 0.0 0.0

-5.330378670725933e6 2.967356740926336e7 0.0
2.967356740926336e7 1.196057556809274e7 0.0
0.0 0.0 0.0

4.558651888400491e6 2.3883509036371335e7 0.0
2.3883509036371335e7 1.647861832420261e7 0.0
0.0 0.0 0.0

7.375248948427148e6 2.0514379967887603e7 0.0
2.0514379967887603e7 9.348450528341798e7 0.0
0.0 0.0 0.0

-5.2932370700174235e6 4.644743587021713e7 0.0
4.644743587021713e7 4.074111873388695e6 0.0
0.0 0.0 0.0

2.057613957095332e6 2.5765748852897603e7 0.0
2.5765748852897603e7 -1.05208047935625e7 0.0
0.0 0.0 0.0

1.3311184042282067e6 1.2326704802142132e7 0.0
1.2326704802142132e7 -3.9109243552784994e7 0.0
0.0 0.0 0.0

1.2957232322462518e6 1.1270085398525914e7 0.0
1.1270085398525914e7 -4.140353863005887e7 0.0
0.0 0.0 0.0

2.706585707944298e6 2.994458955035321e6 0.0
2.994458955035321e6 -3.561856987817553e7 0.0
0.0 0.0 0.0

-3.173730979800406e6 2.883607245867611e7 0.0
2.883607245867611e7 1.227522077917862e7 0.0
0.0 0.0 0.0

2.3175488330316413e6 3.2669360177900186e6 0.0
3.2669360177900186e6 -3.536505795212856e7 0.0
0.0 0.0 0.0

-8.099135309809329e6 4.871475190177313e6 0.0
4.871475190177313e6 4.4957267390002444e7 0.0
0.0 0.0 0.0

-2.866974138021848e6 2.5818472115308754e7 0.0
2.5818472115308754e7 1.907675879266201e7 0.0
0.0 0.0 0.0

-2.623450145769035e6 1.2803305912451152e7 0.0
1.2803305912451152e7 -2.9119955356162656e6 0.0
0.0 0.0 0.0

5.030480752645502e6 3.3964079839292735e7 0.0
3.3964079839292735e7 -6.958163868608013e6 0.0
0.0 0.0 0.0

1.0040301534891857e7 3.8588752245822445e7 0.0
3.8588752245822445e7 -4.835278109087309e6 0.0
0.0 0.0 0.0

2.1854903070762483e6 1.9385041792223494e7 0.0
1.9385041792223494e7 4.855050891069586e6 0.0
0.0 0.0 0.0

-3.0982172025172748e6 1.3603077130612196e7 0.0
1.3603077130612196e7 -6.5719547908063315e7 0.0
0.0 0.0 0.0

1.7702890363388434e6 4.512602375607646e6 0.0
4.512602375607646e6 -5.560950446400868e7 0.0
0.0 0.0 0.0

-6.452590926404887e7 4.534527677375327e7 0.0
4.534527677375327e7 -1.8868141101124745e7 0.0
0.0 0.0 0.0

3.3389602092391998e7 3.056546101278306e7 0.0
3.056546101278306e7 1.5915124684366897e7 0.0
0.0 0.0 0.0

8.335800318707156e6 3.793333044938301e7 0.0
3.793333044938301e7 -4.8332909876974635e6 0.0
0.0 0.0 0.0

1.6466084646673491e6 2.253668024743552e7 0.0
2.253668024743552e7 2.4800963246680655e7 0.0
0.0 0.0 0.0

1.829520917826839e6 2.132838085396156e7 0.0
2.132838085396156e7 4.9563439644528655e6 0.0
0.0 0.0 0.0

-6.753627272736363e6 9.916026749674896e6 0.0
9.916026749674896e6 5.262337931473334e7 0.0
0.0 0.0 0.0

-1.4578688606582206e7 3.769480002570378e7 0.0
3.769480002570378e7 6.096662005438641e6 0.0
0.0 0.0 0.0

-1.3691441791368187e6 1.7459651107734885e7 0.0
1.7459651107734885e7 -1.0337413357487354e7 0.0
0.0 0.0 0.0

-9.322069328677543e6 3.896986940080036e6 0.0
3.896986940080036e6 3.5446268175477944e7 0.0
0.0 0.0 0.0

2.4773072958190925e6 1.4690832922871595e7 0.0
1.4690832922871595e7 1.0966399389186427e8 0.0
0.0 0.0 0.0

1.8155619042337062e6 2.5662195971373755e7 0.0
2.5662195971373755e7 -1.5173768021726932e7 0.0
0.0 0.0 0.0

2.3002783549435944e6 4.55359862902251e6 0.0
4.55359862902251e6 -1.0757736951062422e7 0.0
0.0 0.0 0.0

-3.5876462614688426e6 1.0548133061825627e7 0.0
1.0548133061825627e7 7.451760745232481e7 0.0
0.0 0.0 0.0

2.1308208725452367e6 3.3367845308081903e6 0.0
3.3367845308081903e6 -4.539476553776082e7 0.0
0.0 0.0 0.0

-8.181959120481868e6 2.5566128446031056e7 0.0
2.5566128446031056e7 -1.6445791710360438e7 0.0
0.0 0.0 0.0

-2.9846582539909255e7 3.12883873920465e7 0.0
3.12883873920465e7 -1.7480296569303602e7 0.0
0.0 0.0 0.0

415319.0235264171 2.300808288059209e7 0.0
2.300808288059209e7 -2.0219258396544687e7 0.0
0.0 0.0 0.0

-2.336387728160173e6 1.3235929417884197e7 0.0
1.3235929417884197e7 -539077.495349757 0.0
0.0 0.0 0.0

-7.046217549102854e6 2.6854667772872686e7 0.0
2.6854667772872686e7 807824.0565378522 0.0
0.0 0.0 0.0

2.6120027988705233e7 3.571004241605487e7 0.0
3.571004241605487e7 -5.19674228589466e6 0.0
0.0 0.0 0.0

-8.7302352491046e6 -1.2921282106322416e6 0.0
-1.2921282106322416e6 2.3590727408427294e7 0.0
0.0 0.0 0.0

1.5984249689921768e7 2.5204624335302033e7 0.0
2.5204624335302033e7 9.91890424925857e6 0.0
0.0 0.0 0.0

2.5547451204684258e7 4.716752541177065e7 0.0
4.716752541177065e7 -8.427003447166324e6 0.0
0.0 0.0 0.0

2.464247189597912e6 3.3335938265436217e6 0.0
3.3335938265436217e6 -4.0020223984148294e7 0.0
0.0 0.0 0.0

-2.6205434380893107e6 2.2399175595300723e7 0.0
2.2399175595300723e7 5.873534929583468e6 0.0
0.0 0.0 0.0

1.5215737602881625e7 2.316363179687996e7 0.0
2.316363179687996e7 5.9019409746266745e7 0.0
0.0 0.0 0.0

8.093264295056501e7 8.927655561440121e6 0.0
8.927655561440121e6 -184836.89985718578 0.0
0.0 0.0 0.0

-3.8227675291533075e7 3.398252814846044e7 0.0
3.398252814846044e7 -1.7457039700295668e7 0.0
0.0 0.0 0.0

-2.484453689904497e6 3.013801998966737e7 0.0
3.013801998966737e7 3.8026295542198233e6 0.0
0.0 0.0 0.0

-2.5004065648892205e6 1.3903878337722804e7 0.0
1.3903878337722804e7 -5.717997224021527e7 0.0
0.0 0.0 0.0

-1.9762193946483865e7 3.507616642434446e7 0.0
3.507616642434446e7 5.202920198861573e6 0.0
0.0 0.0 0.0

1.3970680979831086e7 2.5640384317365307e7 0.0
2.5640384317365307e7 1.191982115208387e7 0.0
0.0 0.0 0.0

-1.190911439515181e6 9.963974934091376e6 0.0
9.963974934091376e6 8.90393708704025e7 0.0
0.0 0.0 0.0

-4.908442271821653e6 2.7787586798427425e7 0.0
2.7787586798427425e7 1.2976138036589094e7 0.0
0.0 0.0 0.0

5.4595909132141005e6 2.10095129358984e7 0.0
2.10095129358984e7 2.342490705816769e7 0.0
0.0 0.0 0.0

-367836.8599054357 2.325361286355403e7 0.0
2.325361286355403e7 -1.2675038757908188e7 0.0
0.0 0.0 0.0

1.1654033214070728e7 2.73899994460705e7 0.0
2.73899994460705e7 -244373.97437811596 0.0
0.0 0.0 0.0

3.854366655357816e6 2.6576184584657095e7 0.0
2.6576184584657095e7 -6.944361538049275e6 0.0
0.0 0.0 0.0

-2.717898638537123e6 1.7423801366874684e7 0.0
1.7423801366874684e7 -2.4523477964233863e6 0.0
0.0 0.0 0.0

4.0507559396812813e6 2.194459340835781e7 0.0
2.194459340835781e7 2.966797291538329e7 0.0
0.0 0.0 0.0

1.478459127094899e6 2.2626040902930565e7 0.0
2.2626040902930565e7 3.455566197128331e6 0.0
0.0 0.0 0.0

229233.04009405896 2.207858702698888e7 0.0
2.207858702698888e7 -4.697119289424542e6 0.0
0.0 0.0 0.0

-7.225074204971574e6 1.9920852601630013e7 0.0
1.9920852601630013e7 -3.688270072225417e7 0.0
0.0 0.0 0.0

-2.9655841845176066e6 3.365499758292807e7 0.0
3.365499758292807e7 5.494798846049458e6 0.0
0.0 0.0 0.0

-2.6242410249748237e7 2.9520554075472195e7 0.0
2.9520554075472195e7 -1.5732777055984959e7 0.0
0.0 0.0 0.0

-1.2383714935160067e7 3.922401200543253e7 0.0
3.922401200543253e7 5.627425596704809e6 0.0
0.0 0.0 0.0

281571.6015511425 2.399470613117697e7 0.0
2.399470613117697e7 1.7153752604846872e7 0.0
0.0 0.0 0.0

2.147084724970069e6 6.9890966125518065e6 0.0
6.9890966125518065e6 -4.0061151134495586e7 0.0
0.0 0.0 0.0

1.6634290641089808e6 2.4888789068652984e7 0.0
2.4888789068652984e7 -1.6481572773851153e7 0.0
0.0 0.0 0.0

2.2097625650846448e7 3.643156194643426e7 0.0
3.643156194643426e7 -5.217871037982149e6 0.0
0.0 0.0 0.0

-8.45660551883381e6 3.9190255849867845e6 0.0
3.9190255849867845e6 4.137272628684611e7 0.0
0.0 0.0 0.0

-4.907218398533363e6 2.70345622074166e7 0.0
2.70345622074166e7 9.33362890476219e6 0.0
0.0 0.0 0.0

2.7546429193117945e6 2.5309338675779995e7 0.0
2.5309338675779995e7 3.341204139750231e6 0.0
0.0 0.0 0.0

1.2778917741415488e7 2.875811051708492e7 0.0
2.875811051708492e7 -2.46638185676801e6 0.0
0.0 0.0 0.0

-8.610562146310149e6 1.0346235588407509e7 0.0
1.0346235588407509e7 3.843557330577581e7 0.0
0.0 0.0 0.0

8.522336485678505e6 2.0078996425174505e7 0.0
2.0078996425174505e7 3.2551293636481583e7 0.0
0.0 0.0 0.0

-1.0234137596513469e7 2.4931917294421114e7 0.0
2.4931917294421114e7 -1.6435040205074947e7 0.0
0.0 0.0 0.0

-1.188226385933673e6 1.981956090147502e7 0.0
1.981956090147502e7 -3.235727085474299e7 0.0
0.0 0.0 0.0

1.3427270099543735e7 4.5989722358925894e7 0.0
4.5989722358925894e7 -4.0993184984311005e6 0.0
0.0 0.0 0.0

-1.2083885952877806e7 4.098542917195791e7 0.0
4.098542917195791e7 5.003390719841566e6 0.0
0.0 0.0 0.0

-9.047616826115888e6 1.1656092506213006e7 0.0
1.1656092506213006e7 3.3040189077758532e7 0.0
0.0 0.0 0.0

-1.1684045447407134e7 2.7490612272894315e7 0.0
2.7490612272894315e7 -8.851500701957475e6 0.0
0.0 0.0 0.0

-9.102447915311355e6 4.1795688887300484e7 0.0
4.1795688887300484e7 3.9105025080233095e6 0.0
0.0 0.0 0.0

-9.927811041997219e6 4.02434003678619e7 0.0
4.02434003678619e7 4.731075598704064e6 0.0
0.0 0.0 0.0

5.425499446793685e6 1.9963622103683718e7 0.0
1.9963622103683718e7 1.9547412124235146e7 0.0
0.0 0.0 0.0

1.6331326724706963e6 1.5613976268684408e7 0.0
1.5613976268684408e7 -2.6427434803600937e7 0.0
0.0 0.0 0.0

7.457074327496694e7 4.382263696680914e7 0.0
4.382263696680914e7 3.3507070159859143e7 0.0
0.0 0.0 0.0

-4.5815814782120444e7 4.872780854827896e6 0.0
4.872780854827896e6 5.78645980921649e6 0.0
0.0 0.0 0.0

-2.2144016001684234e7 3.400929289386265e7 0.0
3.400929289386265e7 3.471156352623582e6 0.0
0.0 0.0 0.0

1.5491228178096376e6 3.0062768571601696e6 0.0
3.0062768571601696e6 -4.508041948538616e7 0.0
0.0 0.0 0.0

492067.3436145382 2.4560192937114593e7 0.0
2.4560192937114593e7 -1.461000171186856e7 0.0
0.0 0.0 0.0

-1.6478972449604735e7 3.5701459411688074e7 0.0
3.5701459411688074e7 5.99257853579274e6 0.0
0.0 0.0 0.0

-8.501239092808245e6 7.589057832265171e6 0.0
7.589057832265171e6 4.3480060011608124e7 0.0
0.0 0.0 0.0

903317.259027062 1.1913055265397174e7 0.0
1.1913055265397174e7 -3.639804705801715e7 0.0
0.0 0.0 0.0

-8.692730404136254e6 1.9254526462501846e7 0.0
1.9254526462501846e7 -3.0241333036762614e7 0.0
0.0 0.0 0.0

1.426330178007971e7 2.6939192534744218e7 0.0
2.6939192534744218e7 1.2462562369184773e7 0.0
0.0 0.0 0.0

-5.025049165065574e7 3.7121969865823336e7 0.0
3.7121969865823336e7 -1.6475278023253933e7 0.0
0.0 0.0 0.0

-3.6427470879345434e6 1.5353344173054907e7 0.0
1.5353344173054907e7 3.137314235055346e6 0.0
0.0 0.0 0.0

-1.245875434403152e7 3.44091310368784e7 0.0
3.44091310368784e7 6.506747178065919e6 0.0
0.0 0.0 0.0

-2.2142791214253167e6 3.5182255555013105e7 0.0
3.5182255555013105e7 3.6109212984587653e6 0.0
0.0 0.0 0.0

-6.57409985700302e6 8.177251465352218e6 0.0
8.177251465352218e6 2.248888545527801e7 0.0
0.0 0.0 0.0

-9.015368139671106e6 1.2894640509567866e6 0.0
1.2894640509567866e6 2.4674537989953965e7 0.0
0.0 0.0 0.0

821810.9738033917 1.6060276579721965e7 0.0
1.6060276579721965e7 -2.715583292692563e7 0.0
0.0 0.0 0.0

-8.147746320157314e6 6.25357660759674e6 0.0
6.25357660759674e6 4.284231306183389e7 0.0
0.0 0.0 0.0

491088.7071756199 2.0393026904206052e7 0.0
2.0393026904206052e7 -2.4585905341969375e7 0.0
0.0 0.0 0.0

1.1878893999060033e7 2.5762531588658027e7 0.0
2.5762531588658027e7 1.428195480505526e6 0.0
0.0 0.0 0.0

384041.2747104345 1.0622999486976016e7 0.0
1.0622999486976016e7 -1.4043693462160753e7 0.0
0.0 0.0 0.0

-2.3292312168533124e7 3.39815138860504e7 0.0
3.39815138860504e7 3.483508303520295e6 0.0
0.0 0.0 0.0

-1.6366227316947892e7 2.9094069477502484e7 0.0
2.9094069477502484e7 -1.5418653692672718e7 0.0
0.0 0.0 0.0

709662.6388672045 2.1345575015862588e7 0.0
2.1345575015862588e7 2.3655433943943297e6 0.0
0.0 0.0 0.0

-542667.884161239 2.1240103122960716e7 0.0
2.1240103122960716e7 -1.8088939902979822e6 0.0
0.0 0.0 0.0

1.549822128060869e6 1.6499996571164213e7 0.0
1.6499996571164213e7 -2.4854526034884356e7 0.0
0.0 0.0 0.0

-7.727737640215164e6 2.0259118750380937e7 0.0
2.0259118750380937e7 -2.9538295051690962e7 0.0
0.0 0.0 0.0

-9.6034541829153e6 3.2631301367027066e6 0.0
3.2631301367027066e6 3.165580332679239e7 0.0
0.0 0.0 0.0

-2.8767286319083334e6 1.6608590387878897e7 0.0
1.6608590387878897e7 1.0238768292622747e7 0.0
0.0 0.0 0.0

3.1250921081853327e6 2.770793677021403e7 0.0
2.770793677021403e7 -1.1744855382887034e7 0.0
0.0 0.0 0.0

1.8400406520075314e6 7.97762474107587e6 0.0
7.97762474107587e6 -2.762625165499976e7 0.0
0.0 0.0 0.0

-5.106682122198542e7 3.303438544834321e7 0.0
3.303438544834321e7 -8.728715850904368e6 0.0
0.0 0.0 0.0

9.268005957850687e6 2.707069483337256e7 0.0
2.707069483337256e7 -696477.6597732198 0.0
0.0 0.0 0.0

3.324752592691173e7 2.5619255540206544e7 0.0
2.5619255540206544e7 8.029403701755234e6 0.0
0.0 0.0 0.0

-1.3331887844073828e7 4.616792247112086e7 0.0
4.616792247112086e7 6.460396592610026e6 0.0
0.0 0.0 0.0

-9.862654102957163e6 6.703372914470134e6 0.0
6.703372914470134e6 2.7356134082156155e7 0.0
0.0 0.0 0.0

-47484.10046272259 2.1825733558527578e7 0.0
2.1825733558527578e7 -1.5666697442887949e7 0.0
0.0 0.0 0.0

-1.3897920995009435e7 2.7208773947998088e7 0.0
2.7208773947998088e7 -8.191689604696731e6 0.0
0.0 0.0 0.0

-2.587969515320703e7 3.848365708246144e7 0.0
3.848365708246144e7 5.322690573941592e6 0.0
0.0 0.0 0.0

-1.027442422018649e7 2.0957025337693363e7 0.0
2.0957025337693363e7 -4.705035733954907e7 0.0
0.0 0.0 0.0

3.014033389173915e6 2.2192873864242524e7 0.0
2.2192873864242524e7 1.2155199469435176e7 0.0
0.0 0.0 0.0

-6.961814931135682e6 2.003827788798825e7 0.0
2.003827788798825e7 -3.2071157010935094e7 0.0
0.0 0.0 0.0

-1.9910278612362403e7 4.287212119034504e7 0.0
4.287212119034504e7 6.67993268703661e6 0.0
0.0 0.0 0.0

3.1126984958773204e6 3.123351712232323e7 0.0
3.123351712232323e7 -8.646709859428613e6 0.0
0.0 0.0 0.0

-9.790653664827313e6 2.7945549384853553e7 0.0
2.7945549384853553e7 -1.198780177147267e6 0.0
0.0 0.0 0.0

943822.0972600896 1.3270071663683321e7 0.0
1.3270071663683321e7 -3.977429022223655e7 0.0
0.0 0.0 0.0

-7.0392725695281215e6 1.001413706945831e7 0.0
1.001413706945831e7 4.927122001420115e7 0.0
0.0 0.0 0.0

-1.2399751583666743e6 2.19298241120581e7 0.0
2.19298241120581e7 -1.0042821934917793e7 0.0
0.0 0.0 0.0

1.2839141117161961e7 2.6963001713727225e7 0.0
2.6963001713727225e7 -770515.2762129456 0.0
0.0 0.0 0.0

-8.62067009220488e6 2.126956355331495e7 0.0
2.126956355331495e7 -3.899351447591677e7 0.0
0.0 0.0 0.0

-1.3854055708841972e7 3.4053879908425465e7 0.0
3.4053879908425465e7 5.933149521312891e6 0.0
0.0 0.0 0.0

3.886196454810544e7 4.443573870342094e7 0.0
4.443573870342094e7 -6.873332444258105e6 0.0
0.0 0.0 0.0

-9.744285420741918e6 2.720196753985986e7 0.0
2.720196753985986e7 -6.095254546509201e6 0.0
0.0 0.0 0.0

-1.4667549707449006e7 3.572740553754701e7 0.0
3.572740553754701e7 5.852489289864395e6 0.0
0.0 0.0 0.0

-4.678296053701171e6 2.240958233825902e7 0.0
2.240958233825902e7 2.40192046364473e7 0.0
0.0 0.0 0.0

5.480730260484178e6 2.5675060845452383e7 0.0
2.5675060845452383e7 -5.436284211207609e6 0.0
0.0 0.0 0.0

-3.82676275848121e6 3.3653233376537055e7 0.0
3.3653233376537055e7 6.35445607963709e6 0.0
0.0 0.0 0.0

-8.638585552501827e6 1.9506891838219658e7 0.0
1.9506891838219658e7 -4.50570433312957e7 0.0
0.0 0.0 0.0

1.7386814514535107e6 5.174706278535807e6 0.0
5.174706278535807e6 -3.8147370057986744e7 0.0
0.0 0.0 0.0

-8.474246789304497e6 2.139626791132725e7 0.0
2.139626791132725e7 -3.412424453943766e7 0.0
0.0 0.0 0.0

-5.872797505388452e6 3.770813782684537e7 0.0
3.770813782684537e7 3.9770666464090366e6 0.0
0.0 0.0 0.0

-4.0646509925941764e6 2.2765806399226017e7 0.0
2.2765806399226017e7 -1.3548836663567487e7 0.0
0.0 0.0 0.0

3.853659193416829e6 2.2880771215100393e7 0.0
2.2880771215100393e7 1.2845531176996192e7 0.0
0.0 0.0 0.0

-4.937703749326782e6 1.9226022342529926e7 0.0
1.9226022342529926e7 3.633343063283184e7 0.0
0.0 0.0 0.0

-1.5715642176656304e6 1.6788687324877255e7 0.0
1.6788687324877255e7 -1.3960465069949946e6 0.0
0.0 0.0 0.0

1.69503276313043e7 2.0695006810301315e7 0.0
2.0695006810301315e7 6.369000387800481e7 0.0
0.0 0.0 0.0

-7.733634428117126e6 4.685365148336646e6 0.0
4.685365148336646e6 4.879732115866274e7 0.0
0.0 0.0 0.0

1.049202860624101e6 4.550710573895331e6 0.0
4.550710573895331e6 -5.497813789986653e7 0.0
0.0 0.0 0.0

-5.885145022286382e6 2.1459656692206535e7 0.0
2.1459656692206535e7 -3.472034541777489e7 0.0
0.0 0.0 0.0

-1.2700136996547522e7 3.6053324364872135e7 0.0
3.6053324364872135e7 6.114279440060993e6 0.0
0.0 0.0 0.0

3.894772196304872e7 1.6676695724322176e7 0.0
1.6676695724322176e7 1.9677816465436928e6 0.0
0.0 0.0 0.0

-9.421334641231427e6 8.81787430754427e6 0.0
8.81787430754427e6 3.661569063641191e7 0.0
0.0 0.0 0.0

-3.279088379645391e7 3.5763126802250676e7 0.0
3.5763126802250676e7 -1.755635430560389e7 0.0
0.0 0.0 0.0

-3.970048212814517e6 2.6312460344250724e7 0.0
2.6312460344250724e7 9.822419690819217e6 0.0
0.0 0.0 0.0

-2.6008532258061033e7 4.239760659069017e7 0.0
4.239760659069017e7 6.806596445381219e6 0.0
0.0 0.0 0.0

803696.5547777601 5.191672655860542e6 0.0
5.191672655860542e6 -5.6634138140382916e7 0.0
0.0 0.0 0.0

9.956614539684784e6 3.695931451164322e7 0.0
3.695931451164322e7 -5.497715075034191e6 0.0
0.0 0.0 0.0

-1.2397437524080127e6 1.5051905484050086e7 0.0
1.5051905484050086e7 6.904769851676217e7 0.0
0.0 0.0 0.0

-4.107956609257213e6 3.2269482345264792e7 0.0
3.2269482345264792e7 8.726637819583403e6 0.0
0.0 0.0 0.0

-2.0652939023895836e6 2.122462455542745e7 0.0
2.122462455542745e7 -8.295577926621508e6 0.0
0.0 0.0 0.0

-8.799158494442865e6 3.3714431855076663e6 0.0
3.3714431855076663e6 1.74142119927501e7 0.0
0.0 0.0 0.0

6.452767783567806e6 2.2672525236896396e7 0.0
2.2672525236896396e7 2.0242746937647425e7 0.0
0.0 0.0 0.0

-5.059036350751964e6 2.7507929004573386e7 0.0
2.7507929004573386e7 1.138578119669075e7 0.0
0.0 0.0 0.0

1.237179310254003e6 1.160275307055141e7 0.0
1.160275307055141e7 -1.2529910715354227e7 0.0
0.0 0.0 0.0

-4.431895474588469e6 2.527007145408795e7 0.0
2.527007145408795e7 1.0928844798712411e6 0.0
0.0 0.0 0.0

1.0597916128940549e7 2.6482655198564287e7 0.0
2.6482655198564287e7 -1.5440758666781024e6 0.0
0.0 0.0 0.0

-2.0447490853968868e6 1.6879977822836682e7 0.0
1.6879977822836682e7 2.355433076993277e6 0.0
0.0 0.0 0.0

-5.816935651798075e6 1.9530341505231705e7 0.0
1.9530341505231705e7 -3.932345033606555e7 0.0
0.0 0.0 0.0

-3.088988427214563e6 2.087328300558589e7 0.0
2.087328300558589e7 9.554941479829147e6 0.0
0.0 0.0 0.0

-3.7180132408568114e6 2.191569757543974e7 0.0
2.191569757543974e7 2.868147246433413e7 0.0
0.0 0.0 0.0

-8.623013910439588e6 2.994222594692965e6 0.0
2.994222594692965e6 3.5172337150545366e7 0.0
0.0 0.0 0.0

-1.5003313798993424e7 2.8032679594107766e7 0.0
2.8032679594107766e7 -423992.4862874737 0.0
0.0 0.0 0.0

-8.799123654062402e6 3.391530995476406e7 0.0
3.391530995476406e7 7.432317716747414e6 0.0
0.0 0.0 0.0

1.7285505707995284e7 3.74473234476262e7 0.0
3.74473234476262e7 -6.004728182378493e6 0.0
0.0 0.0 0.0

-8.914819359601665e6 8.2813817995070135e6 0.0
8.2813817995070135e6 3.9994281304094695e7 0.0
0.0 0.0 0.0

-7.101627157704339e6 2.0688543084914688e7 0.0
2.0688543084914688e7 -4.104714782205439e7 0.0
0.0 0.0 0.0

-5.720280232375295e6 3.390051601078902e7 0.0
3.390051601078902e7 7.628032484118297e6 0.0
0.0 0.0 0.0

1.1214727899139067e6 2.3834669460063126e7 0.0
2.3834669460063126e7 -8.866380831434468e6 0.0
0.0 0.0 0.0

-1.7448508302884535e6 1.831416086311427e7 0.0
1.831416086311427e7 -8.596430960441332e6 0.0
0.0 0.0 0.0

-9.702271429023428e6 4.0832977636025813e6 0.0
4.0832977636025813e6 2.509273462223048e7 0.0
0.0 0.0 0.0

-1.2359264759692833e7 3.764889253936283e7 0.0
3.764889253936283e7 6.128856821112127e6 0.0
0.0 0.0 0.0

-929315.5062336121 2.843625338021932e7 0.0
2.843625338021932e7 111005.35730968363 0.0
0.0 0.0 0.0

5.040396437782774e6 2.4583073679074295e7 0.0
2.4583073679074295e7 1.778371984355227e7 0.0
0.0 0.0 0.0

-4.1256145163492397e6 2.255573882100647e6 0.0
2.255573882100647e6 9.150743698536249e6 0.0
0.0 0.0 0.0

6.669438848496323e6 2.512635242789454e7 0.0
2.512635242789454e7 6.683852884729481e6 0.0
0.0 0.0 0.0

-2.0024219825676791e6 1.0361109411088426e7 0.0
1.0361109411088426e7 -7.504262481409241e7 0.0
0.0 0.0 0.0

1.0282630168558529e7 4.283138965457702e7 0.0
4.283138965457702e7 -5.373662368249278e6 0.0
0.0 0.0 0.0

-5.668935505085559e6 2.8678021190210573e7 0.0
2.8678021190210573e7 1.212410764878213e7 0.0
0.0 0.0 0.0

-9.54301270062966e6 1.2939154212088885e7 0.0
1.2939154212088885e7 1.8781089540887855e7 0.0
0.0 0.0 0.0

-1.979384831363973e6 2.449218035238836e7 0.0
2.449218035238836e7 -4.266402282999387e6 0.0
0.0 0.0 0.0

-2.0995607275002114e6 1.3078992424848998e7 0.0
1.3078992424848998e7 -7.013411732956494e7 0.0
0.0 0.0 0.0

-1.6185106725355396e6 2.056644031707314e7 0.0
2.056644031707314e7 -2.8967829359762736e7 0.0
0.0 0.0 0.0

-1.3053556614950432e7 4.316336364296421e7 0.0
4.316336364296421e7 4.589789761284851e6 0.0
0.0 0.0 0.0

-3.181774187913481e6 2.2451109897381913e7 0.0
2.2451109897381913e7 -1.0605915317810424e7 0.0
0.0 0.0 0.0

-6.715142376782654e6 2.680016323679711e7 0.0
2.680016323679711e7 -1.5451177409502996e7 0.0
0.0 0.0 0.0

-2.0566415968991965e6 2.9174678580194972e7 0.0
2.9174678580194972e7 7.135217449143746e6 0.0
0.0 0.0 0.0

995816.6080552936 2.189689151807519e7 0.0
2.189689151807519e7 -1.5783019793321371e7 0.0
0.0 0.0 0.0

1.1244369862115704e7 2.6677683871558063e7 0.0
2.6677683871558063e7 1.0316268093696734e7 0.0
0.0 0.0 0.0

-1.0214837179840637e7 2.71665642986308e7 0.0
2.71665642986308e7 -1.5745655615387755e7 0.0
0.0 0.0 0.0

-2.8246592831856827e6 2.5696908365627505e7 0.0
2.5696908365627505e7 7.088265371451857e6 0.0
0.0 0.0 0.0

-2.3479301783138067e6 1.112760261502752e7 0.0
1.112760261502752e7 7.541860971510385e7 0.0
0.0 0.0 0.0

-575898.6162050061 1.7760018659234893e7 0.0
1.7760018659234893e7 -7.709722976065075e6 0.0
0.0 0.0 0.0

-9.664754694434833e6 1.819633611977596e7 0.0
1.819633611977596e7 -3.2410496400476344e7 0.0
0.0 0.0 0.0

1.3014465154688237e6 2.4185451443168856e7 0.0
2.4185451443168856e7 -1.826738780323907e7 0.0
0.0 0.0 0.0

-7.145011004503449e6 2.3742894508619126e7 0.0
2.3742894508619126e7 -2.016406504814412e7 0.0
0.0 0.0 0.0

-3.831845416535097e6 2.67771053619539e7 0.0
2.67771053619539e7 1.1969480046036776e7 0.0
0.0 0.0 0.0

754074.9930266909 2.082894875152844e7 0.0
2.082894875152844e7 2.51358326657054e6 0.0
0.0 0.0 0.0

-3.0211758186420314e6 3.5382800122166105e7 0.0
3.5382800122166105e7 4.570044599982329e6 0.0
0.0 0.0 0.0

-4.851154333888772e6 2.6096019470797062e7 0.0
2.6096019470797062e7 756166.1491884394 0.0
0.0 0.0 0.0

-4.883846803728621e6 4.0434354154452006e6 0.0
4.0434354154452006e6 7.339959210719565e7 0.0
0.0 0.0 0.0

-9.719132330982748e6 1.282499984285443e7 0.0
1.282499984285443e7 3.0673243009984165e7 0.0
0.0 0.0 0.0

2.4028401795914136e6 2.4391092835570704e7 0.0
2.4391092835570704e7 -7.492499785053713e6 0.0
0.0 0.0 0.0

-3.055257941504535e7 3.383292636228982e7 0.0
3.383292636228982e7 1.5310695524731893e6 0.0
0.0 0.0 0.0

-1.0556771509970943e7 4.9078876935277e6 0.0
4.9078876935277e6 2.473188566808293e7 0.0
0.0 0.0 0.0

-5.373411899439171e6 9.542908624287393e6 0.0
9.542908624287393e6 6.1826117046269044e7 0.0
0.0 0.0 0.0

-2.9545467733960506e6 3.0232140279374933e6 0.0
3.0232140279374933e6 7.820666268901471e6 0.0
0.0 0.0 0.0

-3.915641074555697e6 6.264915687359007e6 0.0
6.264915687359007e6 -1.1894871249551377e6 0.0
0.0 0.0 0.0

1.1128127283030897e6 1.3965432061005827e7 0.0
1.3965432061005827e7 -2.746764939244527e7 0.0
0.0 0.0 0.0

-1.7518431418800259e6 2.8954767838595428e7 0.0
2.8954767838595428e7 -838932.1888185964 0.0
0.0 0.0 0.0

-8.279452990711331e6 2.31427949864054e7 0.0
2.31427949864054e7 -2.0436187145326175e7 0.0
0.0 0.0 0.0

-3.0711735785319423e6 2.6199982217576023e7 0.0
2.6199982217576023e7 1.5866185304707017e7 0.0
0.0 0.0 0.0

-5.86086963227126e6 2.0368668270112716e7 0.0
2.0368668270112716e7 -2.9545260569804944e7 0.0
0.0 0.0 0.0

3.344359041979787e6 2.4163700754242532e7 0.0
2.4163700754242532e7 1.5990219764407856e7 0.0
0.0 0.0 0.0

-1.3785736412025774e7 1.841031808468291e7 0.0
1.841031808468291e7 -4.8239094494089074e7 0.0
0.0 0.0 0.0

-4.924365113744553e6 2.600408334223123e7 0.0
2.600408334223123e7 4.265812167482868e6 0.0
0.0 0.0 0.0

-4.231985195142187e6 1.360192883895594e7 0.0
1.360192883895594e7 -8.279796857990609e7 0.0
0.0 0.0 0.0

-1.7056514683217108e6 1.3681316225967515e7 0.0
1.3681316225967515e7 -6.108459112632195e7 0.0
0.0 0.0 0.0

-5.593631553822285e6 2.5713070839696363e7 0.0
2.5713070839696363e7 -1.4779510501928188e7 0.0
0.0 0.0 0.0

-2.1103749118185833e7 3.054473381876764e7 0.0
3.054473381876764e7 -1.56245916865875e7 0.0
0.0 0.0 0.0

-1.480813237876975e7 3.4104977854708076e7 0.0
3.4104977854708076e7 5.90228073592356e6 0.0
0.0 0.0 0.0

-3.837498834485195e6 1.7380077300115626e7 0.0
1.7380077300115626e7 8.802011397955691e6 0.0
0.0 0.0 0.0

-1.6276240236948864e6 8.564586709197568e6 0.0
8.564586709197568e6 9.115110696365034e6 0.0
0.0 0.0 0.0

557833.725698554 2.3379344694444764e7 0.0
2.3379344694444764e7 -7.025977182910545e6 0.0
0.0 0.0 0.0

1.4309582782800749e7 2.8014448413302764e7 0.0
2.8014448413302764e7 -340158.70012712665 0.0
0.0 0.0 0.0

119392.51887434348 1.5718066545350462e7 0.0
1.5718066545350462e7 7.001925801102275e7 0.0
0.0 0.0 0.0

-1.0227825665732352e6 2.5011717907379907e7 0.0
2.5011717907379907e7 1.359184750403812e7 0.0
0.0 0.0 0.0

-9.131016453379454e6 3.390779281097588e7 0.0
3.390779281097588e7 7.447079746092044e6 0.0
0.0 0.0 0.0

-5.473245825909105e6 2.086982752651914e7 0.0
2.086982752651914e7 -1.8630916714889467e7 0.0
0.0 0.0 0.0

-4.337649909282178e6 1.3086545208449595e7 0.0
1.3086545208449595e7 5.8348840096422255e7 0.0
0.0 0.0 0.0

-2.1610898277619244e6 2.477285943652648e7 0.0
2.477285943652648e7 7.703974030126832e6 0.0
0.0 0.0 0.0

1.072076973604558e6 2.4008251306380395e7 0.0
2.4008251306380395e7 -1.8130181097647473e7 0.0
0.0 0.0 0.0

-2.0233859318897743e6 1.903491740729939e7 0.0
1.903491740729939e7 -3.457229425395631e7 0.0
0.0 0.0 0.0

-1.3662341706487052e6 1.2130583655391864e7 0.0
1.2130583655391864e7 -5.770372081490264e7 0.0
0.0 0.0 0.0

-441631.81003942713 1.3178368552958224e7 0.0
1.3178368552958224e7 -4.5847446889173985e7 0.0
0.0 0.0 0.0

-1.4063118633115578e7 2.1827957920792114e7 0.0
2.1827957920792114e7 -6.755332454424609e7 0.0
0.0 0.0 0.0

-3.4749507787299147e6 3.451221959924093e7 0.0
3.451221959924093e7 5.462222478676666e6 0.0
0.0 0.0 0.0

-7.433900917041676e6 2.6492168686041784e7 0.0
2.6492168686041784e7 -1.5748205194138652e7 0.0
0.0 0.0 0.0

-1.7436487677528877e6 2.394763172814101e7 0.0
2.394763172814101e7 -1.5325852535626747e7 0.0
0.0 0.0 0.0

3.0962315489182506e7 2.8380141146831926e7 0.0
2.8380141146831926e7 2.1840187265324006e6 0.0
0.0 0.0 0.0

-4.573037015496228e6 7.223628474206549e6 0.0
7.223628474206549e6 6.633675786146151e7 0.0
0.0 0.0 0.0

-3.5514583500373214e6 1.3454938094788013e7 0.0
1.3454938094788013e7 -7.074727947772871e7 0.0
0.0 0.0 0.0

-1946.2603766731918 1.3646015242155265e7 0.0
1.3646015242155265e7 -4.577666815649634e7 0.0
0.0 0.0 0.0

-1.1519489365546145e6 1.1046632905955875e7 0.0
1.1046632905955875e7 8.244314289795074e7 0.0
0.0 0.0 0.0

2.8658902254595164e7 2.8768136990108956e7 0.0
2.8768136990108956e7 1.8721899317062892e7 0.0
0.0 0.0 0.0

-3.953087211995721e6 1.0769406897515096e7 0.0
1.0769406897515096e7 6.3357923252409145e7 0.0
0.0 0.0 0.0

-8.40930627345334e6 -715594.2340377346 0.0
-715594.2340377346 1.4098626617710788e7 0.0
0.0 0.0 0.0

-4.020855407093099e6 3.661261691383809e7 0.0
3.661261691383809e7 2.9232850279840115e6 0.0
0.0 0.0 0.0

936692.6257832199 1.2806508824761258e7 0.0
1.2806508824761258e7 -3.442110977533421e7 0.0
0.0 0.0 0.0

-9.542322913605645e6 3.903155894401234e7 0.0
3.903155894401234e7 6.004295303666748e6 0.0
0.0 0.0 0.0

-3.660742063112989e6 1.5722620837422935e7 0.0
1.5722620837422935e7 5.18512405492637e7 0.0
0.0 0.0 0.0

-1.0390695678369118e7 1.0925512693475852e7 0.0
1.0925512693475852e7 2.8384310183623835e7 0.0
0.0 0.0 0.0

1.1933440003919385e7 3.7368922265110664e7 0.0
3.7368922265110664e7 -5.657690212487519e6 0.0
0.0 0.0 0.0

-3.946900774703523e6 2.7111003519099876e7 0.0
2.7111003519099876e7 1.524827856333942e7 0.0
0.0 0.0 0.0

4.216621175705746e6 3.1738124940555003e7 0.0
3.1738124940555003e7 -7.840565936248487e6 0.0
0.0 0.0 0.0

-7.788989671134411e6 3.051375131596061e7 0.0
3.051375131596061e7 8.027691117163431e6 0.0
0.0 0.0 0.0

-5.398959089957897e6 2.1788280378919717e7 0.0
2.1788280378919717e7 -3.1276057934702024e7 0.0
0.0 0.0 0.0

7.699270615904255e6 2.813403083763203e7 0.0
2.813403083763203e7 -7.189813259750617e6 0.0
0.0 0.0 0.0

1.2248710887540923e7 2.128566681764453e7 0.0
2.128566681764453e7 6.064460262956391e7 0.0
0.0 0.0 0.0

-4.5013316508133225e6 7.463542792440034e6 0.0
7.463542792440034e6 1.9047257710409068e7 0.0
0.0 0.0 0.0

-1.6756497226918717e6 9.6364359305921e6 0.0
9.6364359305921e6 -1.0893487435466537e7 0.0
0.0 0.0 0.0

-5.549207872334498e6 2.3353315920010097e7 0.0
2.3353315920010097e7 -1.849735922749149e7 0.0
0.0 0.0 0.0

5.634741187920515e6 2.3540136169794027e7 0.0
2.3540136169794027e7 1.87824706441481e7 0.0
0.0 0.0 0.0

1.2579627644703014e7 4.385529235841321e7 0.0
4.385529235841321e7 -6.3028189191460665e6 0.0
0.0 0.0 0.0

3.057942553738881e6 5.517822909525533e6 0.0
5.517822909525533e6 -2.0817843116607334e7 0.0
0.0 0.0 0.0

-5.890981500025293e6 4.140032930405017e7 0.0
4.140032930405017e7 4.452428203975849e6 0.0
0.0 0.0 0.0

-5.070458045648779e7 1.951379000235158e7 0.0
1.951379000235158e7 5.941529655592214e6 0.0
0.0 0.0 0.0

1.557731433220055e6 2.464659072907419e7 0.0
2.464659072907419e7 -1.6399288805128107e7 0.0
0.0 0.0 0.0

-3.2428956836376954e6 1.7572230805197623e7 0.0
1.7572230805197623e7 4.735014777925503e7 0.0
0.0 0.0 0.0

576630.5635626703 2.4894948128184736e7 0.0
2.4894948128184736e7 -7.3043972095878115e6 0.0
0.0 0.0 0.0

-4.53251309718815e6 2.7803227192165677e7 0.0
2.7803227192165677e7 1.1501541851120094e7 0.0
0.0 0.0 0.0

-1.5793267168808063e6 2.8307885908413652e7 0.0
2.8307885908413652e7 -2.0312311619456592e6 0.0
0.0 0.0 0.0

1.3105691029896638e6 2.5290486744951095e7 0.0
2.5290486744951095e7 -8.996550137314796e6 0.0
0.0 0.0 0.0

719543.6930888146 4.1870746860537296e6 0.0
4.1870746860537296e6 -5.9403161714783736e7 0.0
0.0 0.0 0.0

-1.059212644944403e6 2.0615905152400166e7 0.0
2.0615905152400166e7 -3.530709328777909e6 0.0
0.0 0.0 0.0

1.5983195458932644e7 2.9615186655735135e7 0.0
2.9615186655735135e7 -2.844801256037186e6 0.0
0.0 0.0 0.0

-2.0235330662819492e6 2.3338459168047186e7 0.0
2.3338459168047186e7 -1.7953772462259304e7 0.0
0.0 0.0 0.0

9.110821424013134e6 2.644497069023322e7 0.0
2.644497069023322e7 1.3525181399600364e7 0.0
0.0 0.0 0.0

-2.7803915156716816e6 1.3795772660719784e7 0.0
1.3795772660719784e7 -6.127367639157327e7 0.0
0.0 0.0 0.0

621417.1293001515 2.7639318420218185e7 0.0
2.7639318420218185e7 -9.907855278189685e6 0.0
0.0 0.0 0.0

6.52145651883832e6 2.6038217346110065e7 0.0
2.6038217346110065e7 1.7514767859848075e7 0.0
0.0 0.0 0.0

3.70679095246478e7 3.632065262065785e7 0.0
3.632065262065785e7 -3.4221468217133265e6 0.0
0.0 0.0 0.0

-1.274914359833952e6 1.404643859174058e7 0.0
1.404643859174058e7 -5.306429630996707e7 0.0
0.0 0.0 0.0

-4.0878254152663246e7 1.7887990032098055e7 0.0
1.7887990032098055e7 6.406257986304224e6 0.0
0.0 0.0 0.0

4.023093812246029e6 2.1924775814553645e7 0.0
2.1924775814553645e7 2.2845142616792686e7 0.0
0.0 0.0 0.0

-8.570067607939703e6 4.0747810806335166e7 0.0
4.0747810806335166e7 5.518557621430461e6 0.0
0.0 0.0 0.0

1.1409421609989163e6 2.513678007639159e7 0.0
2.513678007639159e7 -1.261307178902118e7 0.0
0.0 0.0 0.0

-7.629166513794605e6 3.461777431811057e7 0.0
3.461777431811057e7 7.105873585127872e6 0.0
0.0 0.0 0.0

-1.2922316473180316e6 1.4653934694190256e7 0.0
1.4653934694190256e7 7.459551254357813e7 0.0
0.0 0.0 0.0

1.332813097740654e6 1.8119452742868237e7 0.0
1.8119452742868237e7 -2.1495956778117035e7 0.0
0.0 0.0 0.0

9.381646165354496e6 3.724284158214889e7 0.0
3.724284158214889e7 -5.96335998315454e6 0.0
0.0 0.0 0.0

-2.4321747783049764e6 1.4551311221626729e7 0.0
1.4551311221626729e7 4.485542882212823e6 0.0
0.0 0.0 0.0

-3.734576116786603e7 1.7055044877617907e7 0.0
1.7055044877617907e7 6.217993651661281e6 0.0
0.0 0.0 0.0

-2.8909865076938276e6 1.90236352107398e7 0.0
1.90236352107398e7 1.2075908033246633e6 0.0
0.0 0.0 0.0

-8.970007921020536e6 6.480702581762481e6 0.0
6.480702581762481e6 4.022047059631497e7 0.0
0.0 0.0 0.0

-2.334679611755913e6 1.806553997928838e7 0.0
1.806553997928838e7 4.806354476453608e7 0.0
0.0 0.0 0.0

-6.945347038143505e6 3.8562921648434654e7 0.0
3.8562921648434654e7 4.1360739274135795e6 0.0
0.0 0.0 0.0

-7.538345583151721e6 4.236830872731417e7 0.0
4.236830872731417e7 4.806176043421123e6 0.0
0.0 0.0 0.0

-3.003701774509147e6 1.4060566873774985e7 0.0
1.4060566873774985e7 5.9604582181535356e7 0.0
0.0 0.0 0.0

1.038035352563763e6 1.6200606102086524e7 0.0
1.6200606102086524e7 -1.7505007536902327e7 0.0
0.0 0.0 0.0

9.837187796511358e6 2.6613155369505305e7 0.0
2.6613155369505305e7 2.5415338518301505e6 0.0
0.0 0.0 0.0

-4.626911300746008e6 1.863424908704737e7 0.0
1.863424908704737e7 -1.3850632700437775e7 0.0
0.0 0.0 0.0

950154.8384385686 1.0487210559693743e7 0.0
1.0487210559693743e7 -1.7493249386795815e7 0.0
0.0 0.0 0.0

-4.93071217230161e6 3.8169176464356504e7 0.0
3.8169176464356504e7 4.6574344307104675e6 0.0
0.0 0.0 0.0

-4.647547017305603e6 2.0718832361037698e7 0.0
2.0718832361037698e7 3.2450416353171002e7 0.0
0.0 0.0 0.0

-2.1672022053288035e6 1.4363626105806082e7 0.0
1.4363626105806082e7 -5.355944592384509e7 0.0
0.0 0.0 0.0

-2.663203307458495e7 3.248897987287033e7 0.0
3.248897987287033e7 1.0757783508770969e6 0.0
0.0 0.0 0.0

4.436868727990035e6 3.2894485889911562e7 0.0
3.2894485889911562e7 -6.848873051069425e6 0.0
0.0 0.0 0.0

-330046.3855597824 6.180416353993343e6 0.0
6.180416353993343e6 -7.108430064931074e7 0.0
0.0 0.0 0.0

-175035.45445701666 2.3253819165712345e7 0.0
2.3253819165712345e7 2.4444389864220027e7 0.0
0.0 0.0 0.0

-1.343533170649204e6 2.8599355904413458e7 0.0
2.8599355904413458e7 2.2464973502611443e6 0.0
0.0 0.0 0.0

1.179692621890219e6 2.4861813245365966e7 0.0
2.4861813245365966e7 -1.67187394107215e7 0.0
0.0 0.0 0.0

-1.1613046395007022e7 3.9532158066575296e7 0.0
3.9532158066575296e7 6.115675261038412e6 0.0
0.0 0.0 0.0

-680669.6164229244 2.8916807812836878e7 0.0
2.8916807812836878e7 -1.0388808181311392e6 0.0
0.0 0.0 0.0

-8.35508744420816e6 3.9448182663503066e7 0.0
3.9448182663503066e7 4.38018774637785e6 0.0
0.0 0.0 0.0

-3.3569854710069303e6 9.86394211494553e6 0.0
9.86394211494553e6 7.259345420446333e6 0.0
0.0 0.0 0.0

8.573505206672318e6 2.1333017371244114e7 0.0
2.1333017371244114e7 3.0746009939873576e7 0.0
0.0 0.0 0.0

-1.6693819938567039e6 2.1443277478983764e7 0.0
2.1443277478983764e7 -2.5777902217136186e7 0.0
0.0 0.0 0.0

-1.9685667874907106e6 1.8362240877067357e7 0.0
1.8362240877067357e7 2.348542609530455e6 0.0
0.0 0.0 0.0

212142.51011141948 2.3135957881574336e7 0.0
2.3135957881574336e7 -1.98241730918118e7 0.0
0.0 0.0 0.0

1.6236261433064248e6 8.905787841259135e6 0.0
8.905787841259135e6 -2.598701182378597e7 0.0
0.0 0.0 0.0

1.882197316086184e7 2.7832732906892963e7 0.0
2.7832732906892963e7 1.3327507196193296e7 0.0
0.0 0.0 0.0

-6.790470640229452e6 1.997024079950483e6 0.0
1.997024079950483e6 4.978599878322534e7 0.0
0.0 0.0 0.0

9.633620082304407e6 2.146076747731713e7 0.0
2.146076747731713e7 3.5089726135094866e7 0.0
0.0 0.0 0.0

-4.451873045315816e6 3.5834039662248455e7 0.0
3.5834039662248455e7 3.905468381773479e6 0.0
0.0 0.0 0.0

-1.5034801821523309e6 2.0969388522255823e7 0.0
2.0969388522255823e7 -2.9566087987351872e7 0.0
0.0 0.0 0.0

8.286379426852008e6 3.642127180739899e7 0.0
3.642127180739899e7 -5.5777515589953605e6 0.0
0.0 0.0 0.0

-1.274698730196457e6 2.3295200426479865e7 0.0
2.3295200426479865e7 -3.3965082334676976e6 0.0
0.0 0.0 0.0

1.7484128852520213e6 1.2340587562188646e7 0.0
1.2340587562188646e7 -3.36762953603675e7 0.0
0.0 0.0 0.0

4.0032973444424258e6 3.1972049707146753e7 0.0
3.1972049707146753e7 -8.198698391388598e6 0.0
0.0 0.0 0.0

-1.0879584207832683e6 2.193954477718395e7 0.0
2.193954477718395e7 -2.369187002251437e7 0.0
0.0 0.0 0.0

-1.0571760430752791e7 9.715916216778612e6 0.0
9.715916216778612e6 2.1624151354238823e7 0.0
0.0 0.0 0.0

6.562112534604325e6 2.3830408828980606e7 0.0
2.3830408828980606e7 2.1780992022999175e7 0.0
0.0 0.0 0.0

-6.081004420377631e6 2.8433295485904425e7 0.0
2.8433295485904425e7 1.086109469037662e7 0.0
0.0 0.0 0.0

-5.139596277901174e6 3.678726441183691e7 0.0
3.678726441183691e7 3.8869626648848476e6 0.0
0.0 0.0 0.0

681971.2767472286 2.354976712550659e7 0.0
2.354976712550659e7 1.4657498775387025e7 0.0
0.0 0.0 0.0

-8.307304317145697e6 5.572437725726554e6 0.0
5.572437725726554e6 1.6405796534855526e7 0.0
0.0 0.0 0.0

-6.052146015421703e6 1.2854731455048418e7 0.0
1.2854731455048418e7 5.02951045543191e7 0.0
0.0 0.0 0.0

892009.172767018 2.3815935462413993e7 0.0
2.3815935462413993e7 -1.810713638568194e7 0.0
0.0 0.0 0.0

-5.352042570585988e6 1.7139583462423407e7 0.0
1.7139583462423407e7 -8.238977627404082e7 0.0
0.0 0.0 0.0

-7.016528396029092e6 7.471621312089464e6 0.0
7.471621312089464e6 1.4569992750435755e7 0.0
0.0 0.0 0.0

-9.91765215614113e6 4.71094265753021e6 0.0
4.71094265753021e6 2.99773684163704e7 0.0
0.0 0.0 0.0

-3.1166055357100535e6 2.1356461932478532e7 0.0
2.1356461932478532e7 1.1081018367009364e7 0.0
0.0 0.0 0.0

3.6641482694772356e6 3.3209414305378586e7 0.0
3.3209414305378586e7 -6.123550222457696e6 0.0
0.0 0.0 0.0

-6.57078235877285e6 1.910511621117978e7 0.0
1.910511621117978e7 -5.265455342327313e7 0.0
0.0 0.0 0.0

2.523484428764683e6 8.48347370262984e6 0.0
8.48347370262984e6 -2.234536194664471e7 0.0
0.0 0.0 0.0

-2.587819273591104e6 3.61648626148105e7 0.0
3.61648626148105e7 3.6016675130505357e6 0.0
0.0 0.0 0.0

5.124256022406319e6 3.244217699635592e7 0.0
3.244217699635592e7 -7.450073211626928e6 0.0
0.0 0.0 0.0

-1.2852629784312114e7 4.962648645540186e7 0.0
4.962648645540186e7 4.357090600722801e6 0.0
0.0 0.0 0.0

-3.5290291888980824e6 3.62984197218033e7 0.0
3.62984197218033e7 4.612224610240446e6 0.0
0.0 0.0 0.0

-3.4684644196266845e7 3.4314167477060966e7 0.0
3.4314167477060966e7 -1.5535024244008701e7 0.0
0.0 0.0 0.0

-5.934320646116476e6 2.6325580669389695e7 0.0
2.6325580669389695e7 -2.3706152049541515e6 0.0
0.0 0.0 0.0

-5.7323608914866e6 1.704724575356557e7 0.0
1.704724575356557e7 -7.581501373320915e7 0.0
0.0 0.0 0.0

-3.074933957198767e6 1.7578967876889408e7 0.0
1.7578967876889408e7 1.1604570415955167e6 0.0
0.0 0.0 0.0

-6.859108476883903e6 4.1466720851599714e6 0.0
4.1466720851599714e6 5.695215565811455e7 0.0
0.0 0.0 0.0

-5.009023648226038e6 7.960529307182717e6 0.0
7.960529307182717e6 6.616586455954419e7 0.0
0.0 0.0 0.0

723193.7389591187 7.287403793613981e6 0.0
7.287403793613981e6 -5.146095989117319e7 0.0
0.0 0.0 0.0

-5.49738114294281e6 2.990465159061173e7 0.0
2.990465159061173e7 1.04728642471212e7 0.0
0.0 0.0 0.0

-593474.3826081604 1.6114588198912418e7 0.0
1.6114588198912418e7 6.4594907762746274e7 0.0
0.0 0.0 0.0

-446177.11908838246 2.2523543280664116e7 0.0
2.2523543280664116e7 -2.169700384384278e7 0.0
0.0 0.0 0.0

1.655655728428334e6 1.828583050397445e7 0.0
1.828583050397445e7 6.246955460631286e7 0.0
0.0 0.0 0.0

3.139489340914823e6 3.239799163793254e7 0.0
3.239799163793254e7 -7.629974001924351e6 0.0
0.0 0.0 0.0

6.168311633459839e6 3.986598568807327e7 0.0
3.986598568807327e7 -4.604084902982179e6 0.0
0.0 0.0 0.0

-798051.706159883 2.312316446769333e7 0.0
2.312316446769333e7 -5.868538414336322e6 0.0
0.0 0.0 0.0

-9.93179941033073e6 7.777044141739219e6 0.0
7.777044141739219e6 2.8841522119231753e7 0.0
0.0 0.0 0.0

2.3904942707283976e6 2.2693170949147243e7 0.0
2.2693170949147243e7 1.8642519365764454e7 0.0
0.0 0.0 0.0

-2.2209551673122486e6 2.0548166274787113e7 0.0
2.0548166274787113e7 1.251607330853581e7 0.0
0.0 0.0 0.0

1.3785238414561767e6 4.90690522031087e6 0.0
4.90690522031087e6 -4.699371155899074e7 0.0
0.0 0.0 0.0

7.118885702588253e6 2.784414441049407e7 0.0
2.784414441049407e7 -5.574100783096241e6 0.0
0.0 0.0 0.0

-1.8542876174125977e7 2.4901453727700423e7 0.0
2.4901453727700423e7 -2.695103161390133e6 0.0
0.0 0.0 0.0

-3.1005064789229475e7 2.919677231281549e7 0.0
2.919677231281549e7 -1.0991914232068118e7 0.0
0.0 0.0 0.0

-2.5052918058550176e6 3.707841641458839e7 0.0
3.707841641458839e7 1.0394454992337835e6 0.0
0.0 0.0 0.0

-56664.523284140974 1.5573454949994506e7 0.0
1.5573454949994506e7 -1.6435644514599454e7 0.0
0.0 0.0 0.0

-8.512283293390833e6 2.593517891047541e7 0.0
2.593517891047541e7 -2.151819457137233e6 0.0
0.0 0.0 0.0

4.045722410294338e6 4.000250252714435e7 0.0
4.000250252714435e7 -2.305033035329907e6 0.0
0.0 0.0 0.0

-967408.0299699772 2.3286123936731905e7 0.0
2.3286123936731905e7 2.5479733743902337e7 0.0
0.0 0.0 0.0

-479817.27757696155 2.4142772228860017e7 0.0
2.4142772228860017e7 1.4203793297703844e7 0.0
0.0 0.0 0.0

992643.2798469849 1.5010588239571765e7 0.0
1.5010588239571765e7 -1.5516631666999994e7 0.0
0.0 0.0 0.0

-2.3519764291294967e6 4.246483707782967e7 0.0
4.246483707782967e7 1.903606717021913e6 0.0
0.0 0.0 0.0

-8.290462190185046e6 3.8066549128970453e6 0.0
3.8066549128970453e6 4.371938729367878e7 0.0
0.0 0.0 0.0

2.4166427066431623e6 6.281964749621744e6 0.0
6.281964749621744e6 -3.63863216839387e7 0.0
0.0 0.0 0.0

2.006690816954346e6 3.597889604737499e7 0.0
3.597889604737499e7 -2.414499924462285e6 0.0
0.0 0.0 0.0

-1.7604766938175764e6 2.1878049477593377e7 0.0
2.1878049477593377e7 -2.6461811695041373e7 0.0
0.0 0.0 0.0

-7.392987228527856e6 -209796.61230704834 0.0
-209796.61230704834 1.3724260610655598e7 0.0
0.0 0.0 0.0

405376.42748942226 1.1345647159849692e7 0.0
1.1345647159849692e7 -1.51803390975234e7 0.0
0.0 0.0 0.0

-1.3955358392918348e7 2.8929325602821734e7 0.0
2.8929325602821734e7 -1.370587303329543e7 0.0
0.0 0.0 0.0

1.5390786012691595e6 1.3951565693946574e7 0.0
1.3951565693946574e7 -3.2467277674525183e7 0.0
0.0 0.0 0.0

1.8350368743315812e7 2.8771317944535065e7 0.0
2.8771317944535065e7 1.6206969841418838e7 0.0
0.0 0.0 0.0

-5.297116013194695e6 1.093298507342156e7 0.0
1.093298507342156e7 5.492219870502327e6 0.0
0.0 0.0 0.0

-9.545141468127083e6 5.744896399551243e6 0.0
5.744896399551243e6 1.1994906822831403e7 0.0
0.0 0.0 0.0

1.4435255392638018e7 3.751152411654552e7 0.0
3.751152411654552e7 -5.740200551256767e6 0.0
0.0 0.0 0.0

-8.228442119713252e6 4.302082744652308e6 0.0
4.302082744652308e6 4.229420278801222e7 0.0
0.0 0.0 0.0

1.1077115204206603e6 1.977428861522178e7 0.0
1.977428861522178e7 -1.814926902773231e7 0.0
0.0 0.0 0.0

2.4236980520797553e6 2.3823767984265864e7 0.0
2.3823767984265864e7 3.7576519215361364e6 0.0
0.0 0.0 0.0

2.4830524502018712e7 3.1393181258417547e7 0.0
3.1393181258417547e7 -1.8068704023179878e6 0.0
0.0 0.0 0.0

1.0601307603868134e6 2.1058809200077016e7 0.0
2.1058809200077016e7 -2.2635606640730243e7 0.0
0.0 0.0 0.0

1.2503705621001687e7 2.216564521600109e7 0.0
2.216564521600109e7 4.636402313676334e7 0.0
0.0 0.0 0.0

-1.0485225118727805e7 3.428557581825641e7 0.0
3.428557581825641e7 6.904351525890106e6 0.0
0.0 0.0 0.0

-6.48702541625439e6 4.211582493181052e6 0.0
4.211582493181052e6 5.287676437515935e7 0.0
0.0 0.0 0.0

3.0171225176030863e6 3.613475039995388e7 0.0
3.613475039995388e7 -3.0886666663235454e6 0.0
0.0 0.0 0.0

2.471828246319386e6 2.3430584507304102e7 0.0
2.3430584507304102e7 2.5882907856749054e7 0.0
0.0 0.0 0.0

1.1543612267825324e6 1.3242126175543219e7 0.0
1.3242126175543219e7 -2.669700734846379e7 0.0
0.0 0.0 0.0

1.6987526665885411e6 5.35828190395662e6 0.0
5.35828190395662e6 -5.299428158235891e7 0.0
0.0 0.0 0.0

-1.31739431329615e6 2.872107307106881e7 0.0
2.872107307106881e7 -3.1137592637721286e6 0.0
0.0 0.0 0.0

-7.113204854209892e6 1.4881221050324388e7 0.0
1.4881221050324388e7 2.114189653512507e7 0.0
0.0 0.0 0.0

-4.144263499943888e6 1.910804318752439e7 0.0
1.910804318752439e7 3.963273973761806e7 0.0
0.0 0.0 0.0

-2.0689799523985004e6 2.0493701211812172e7 0.0
2.0493701211812172e7 -3.188127431221853e7 0.0
0.0 0.0 0.0

-5.006894319903199e6 1.6447131776103612e7 0.0
1.6447131776103612e7 -7.045656908630332e7 0.0
0.0 0.0 0.0

3.6063404284286033e6 3.704360577637587e7 0.0
3.704360577637587e7 -3.0942689276266033e6 0.0
0.0 0.0 0.0

-31529.584079703316 2.3857943723884188e7 0.0
2.3857943723884188e7 1.1337141824496744e7 0.0
0.0 0.0 0.0

-4.652442540545992e7 1.833842363939662e7 0.0
1.833842363939662e7 5.612399321998639e6 0.0
0.0 0.0 0.0

1.363375774912474e7 2.262998762332604e7 0.0
2.262998762332604e7 5.187485949165733e7 0.0
0.0 0.0 0.0

-4.175342219990195e7 4.1297946869867966e7 0.0
4.1297946869867966e7 5.462856714500671e6 0.0
0.0 0.0 0.0

489437.7859329246 1.2765403691091824e7 0.0
1.2765403691091824e7 -3.9770802961219154e7 0.0
0.0 0.0 0.0

1.083868349163287e7 6.214505880707095e6 0.0
6.214505880707095e6 -1.5237972262235945e6 0.0
0.0 0.0 0.0

-2.0659665952189855e7 2.7132603681499246e6 0.0
2.7132603681499246e6 5.691633918499159e6 0.0
0.0 0.0 0.0

-7.474235781310997e6 1.36024388485599e7 0.0
1.36024388485599e7 1.9278417986478053e7 0.0
0.0 0.0 0.0

-7.010626267770514e6 5.659049599566714e6 0.0
5.659049599566714e6 5.029347666450905e7 0.0
0.0 0.0 0.0

-8.623481878788326e6 6.491285222530452e6 0.0
6.491285222530452e6 4.230915765969247e7 0.0
0.0 0.0 0.0

119066.0553714754 2.3530025110005524e7 0.0
2.3530025110005524e7 -2.0488925921100184e7 0.0
0.0 0.0 0.0

-3.4275650562167047e6 2.010847777700296e7 0.0
2.010847777700296e7 -1.142521670265894e7 0.0
0.0 0.0 0.0

3.347613319113176e6 2.026542336665698e7 0.0
2.026542336665698e7 1.1158711023091458e7 0.0
0.0 0.0 0.0

1.847840036418104e6 2.3594937381666724e7 0.0
2.3594937381666724e7 223638.02103135863 0.0
0.0 0.0 0.0

4.272066690410072e6 3.795362237614156e7 0.0
3.795362237614156e7 -3.0200153801822923e6 0.0
0.0 0.0 0.0

-8.661220953783322e6 1.4415063546190739e7 0.0
1.4415063546190739e7 2.635636855991859e7 0.0
0.0 0.0 0.0

717853.9382566409 2.192355682757475e7 0.0
2.192355682757475e7 -2.1085578179539524e7 0.0
0.0 0.0 0.0

-2.64452330726757e6 3.1098905228904355e7 0.0
3.1098905228904355e7 3.836213385110618e6 0.0
0.0 0.0 0.0

323514.99102079123 1.0196989976007096e7 0.0
1.0196989976007096e7 -4.7306545035905845e7 0.0
0.0 0.0 0.0

-7.766916439425519e6 5.160613149611526e6 0.0
5.160613149611526e6 4.520022031006948e7 0.0
0.0 0.0 0.0

3.3854402870037556e6 3.519918069930239e7 0.0
3.519918069930239e7 -4.134729467574187e6 0.0
0.0 0.0 0.0

-795879.8693297766 2.401809278623971e7 0.0
2.401809278623971e7 8.014494156284849e6 0.0
0.0 0.0 0.0

-1.627341710852111e6 2.428521343597498e7 0.0
2.428521343597498e7 4.762517155286079e6 0.0
0.0 0.0 0.0

-9.309444615999756e6 2.818519162490453e7 0.0
2.818519162490453e7 -1.5763074291438833e7 0.0
0.0 0.0 0.0

9.951311550234629e6 1.9036078973928276e7 0.0
1.9036078973928276e7 3.452538790942734e7 0.0
0.0 0.0 0.0

-1.1180673959180778e7 2.687883509013396e7 0.0
2.687883509013396e7 -1.3482663801150743e7 0.0
0.0 0.0 0.0

-2.98867942912516e6 1.700309710441286e7 0.0
1.700309710441286e7 5.079786496942967e7 0.0
0.0 0.0 0.0

-7.18323978755099e6 4.118296162786806e6 0.0
4.118296162786806e6 5.282683295192895e7 0.0
0.0 0.0 0.0

1.906664119502809e6 1.2697044568252616e7 0.0
1.2697044568252616e7 -2.5790756632084846e7 0.0
0.0 0.0 0.0

678520.9848099314 6.26275530043024e6 0.0
6.26275530043024e6 -5.415271862767075e7 0.0
0.0 0.0 0.0

1.3868322003987832e6 2.258697890601653e7 0.0
2.258697890601653e7 -1.9340242898797676e7 0.0
0.0 0.0 0.0

1.1669954644960891e7 2.7346027192341734e7 0.0
2.7346027192341734e7 1.3585355587425586e7 0.0
0.0 0.0 0.0

1.849783467057853e6 7.500643514350808e6 0.0
7.500643514350808e6 -2.3926831047067292e7 0.0
0.0 0.0 0.0

-1.02536519061199e7 2.0936173994221333e7 0.0
2.0936173994221333e7 -4.12914747271978e7 0.0
0.0 0.0 0.0

-4.412675635758374e6 1.6089395684880206e7 0.0
1.6089395684880206e7 -6.541552538486828e7 0.0
0.0 0.0 0.0

-3.0649368336052694e6 2.02810733391648e7 0.0
2.02810733391648e7 8.031208335980387e6 0.0
0.0 0.0 0.0

-7.316822780978693e6 3.0405949951827012e7 0.0
3.0405949951827012e7 9.869070757267237e6 0.0
0.0 0.0 0.0

-1.4611058956619088e7 2.7801843516168702e7 0.0
2.7801843516168702e7 -1.4324441861588068e7 0.0
0.0 0.0 0.0

-5.157798624180775e6 4.726564789855411e6 0.0
4.726564789855411e6 6.473570591968007e7 0.0
0.0 0.0 0.0

-3.7912462609913293e6 1.5941184241185995e7 0.0
1.5941184241185995e7 -6.1028427776099294e7 0.0
0.0 0.0 0.0

-2.703111240903087e6 1.628997605334618e7 0.0
1.628997605334618e7 5.434371665776141e7 0.0
0.0 0.0 0.0

-2.640584594172274e6 2.4509737548834987e7 0.0
2.4509737548834987e7 1.475410898828596e6 0.0
0.0 0.0 0.0

2.4904610286940616e6 3.747374295542682e7 0.0
3.747374295542682e7 -3.7712026756713875e6 0.0
0.0 0.0 0.0

-1.6650425646051334e7 3.3429934145868313e7 0.0
3.3429934145868313e7 4.844679059828607e6 0.0
0.0 0.0 0.0

-5.045180258962022e6 1.828544012981837e7 0.0
1.828544012981837e7 3.907503511751938e7 0.0
0.0 0.0 0.0

-6.956475241484175e6 1.83006632094999e7 0.0
1.83006632094999e7 -2.3110220884701286e7 0.0
0.0 0.0 0.0

6.506261986367199e6 2.1041799818125945e7 0.0
2.1041799818125945e7 2.07286427555085e7 0.0
0.0 0.0 0.0

610203.5383186005 8.069193454728469e6 0.0
8.069193454728469e6 -4.907675845966605e7 0.0
0.0 0.0 0.0

830705.2505541639 1.0473490954743098e7 0.0
1.0473490954743098e7 -1.6767911634881545e7 0.0
0.0 0.0 0.0

-4.996419305887599e6 1.3896540204764888e7 0.0
1.3896540204764888e7 5.161462699313806e7 0.0
0.0 0.0 0.0

-3.044092529081947e6 2.611695056655506e7 0.0
2.611695056655506e7 1.4381939213764226e7 0.0
0.0 0.0 0.0

-4.1115444037277386e7 3.409058421717381e7 0.0
3.409058421717381e7 -1.213640032514343e6 0.0
0.0 0.0 0.0

-1.3946786762404311e6 1.8301168872196455e7 0.0
1.8301168872196455e7 -3.510773282937569e7 0.0
0.0 0.0 0.0

-15871.735250268131 1.2071973735133674e7 0.0
1.2071973735133674e7 -4.5388176224515855e7 0.0
0.0 0.0 0.0

-3.1456167932184655e6 1.5963033085601848e7 0.0
1.5963033085601848e7 -5.69126723942541e7 0.0
0.0 0.0 0.0

2.488631321122945e6 4.485429398520599e6 0.0
4.485429398520599e6 -1.19155268999948e7 0.0
0.0 0.0 0.0

1.4288854462738074e6 2.5389523412844844e7 0.0
2.5389523412844844e7 -1.32943074738275e7 0.0
0.0 0.0 0.0

3.863325900905792e6 2.762585977058099e7 0.0
2.762585977058099e7 -1.0483599812136853e7 0.0
0.0 0.0 0.0

-2.6371970795953028e7 4.6423171400263935e7 0.0
4.6423171400263935e7 7.5569584347753e6 0.0
0.0 0.0 0.0

1.2530034978835448e6 4.681047050371047e6 0.0
4.681047050371047e6 -5.759619499617149e6 0.0
0.0 0.0 0.0

-1.1094849717996065e6 2.2385185734689478e7 0.0
2.2385185734689478e7 -2.428314440930036e7 0.0
0.0 0.0 0.0

-3.885400560058141e6 2.076511488615459e7 0.0
2.076511488615459e7 3.2591403819633283e7 0.0
0.0 0.0 0.0

-8.716018656175675e6 5.343171259409766e6 0.0
5.343171259409766e6 3.729101391873773e7 0.0
0.0 0.0 0.0

1.2980933819917236e6 5.687893585638523e6 0.0
5.687893585638523e6 -4.491378931404039e7 0.0
0.0 0.0 0.0

-8.974460431773657e6 8.226338789146109e6 0.0
8.226338789146109e6 3.653247177065408e7 0.0
0.0 0.0 0.0

-7.832234098375957e6 7.98021669972772e6 0.0
7.98021669972772e6 4.404719697205327e7 0.0
0.0 0.0 0.0

-8.30297101218031e6 1.386154814006715e7 0.0
1.386154814006715e7 2.2826948663529612e7 0.0
0.0 0.0 0.0

-4.595042212313934e6 2.7873867312213607e7 0.0
2.7873867312213607e7 1.4132055849110797e7 0.0
0.0 0.0 0.0

-2.0900989135626254e6 1.5337684707675323e7 0.0
1.5337684707675323e7 2.383120193300934e6 0.0
0.0 0.0 0.0

3.0136198085337445e7 6.489977865415725e6 0.0
6.489977865415725e6 -1.365711408753097e6 0.0
0.0 0.0 0.0

-4.0202861279208235e7 4.7826846276561655e6 0.0
4.7826846276561655e6 5.5000243950188905e6 0.0
0.0 0.0 0.0

2.2173820088356724e6 9.660389084713442e6 0.0
9.660389084713442e6 -1.82105404343466e7 0.0
0.0 0.0 0.0

891153.9486700781 1.1588853432134667e7 0.0
1.1588853432134667e7 -4.465521084788931e7 0.0
0.0 0.0 0.0

1.294178204134727e6 9.536241603056764e6 0.0
9.536241603056764e6 -4.630684985480635e7 0.0
0.0 0.0 0.0

-60880.64706654765 2.8678330508403294e6 0.0
2.8678330508403294e6 2.206356554579026e6 0.0
0.0 0.0 0.0

-5.404504389621458e6 58778.865514513935 0.0
58778.865514513935 3.8532952764310315e6 0.0
0.0 0.0 0.0

-7.112393695134809e6 2.1263123962327745e7 0.0
2.1263123962327745e7 -3.65851683091809e7 0.0
0.0 0.0 0.0

928111.8522617333 6.182987688352988e6 0.0
6.182987688352988e6 -5.066957334290342e7 0.0
0.0 0.0 0.0

-3.642547453979858e7 3.0782161124081023e7 0.0
3.0782161124081023e7 -1.6079517665747419e7 0.0
0.0 0.0 0.0

-3.7887538839386776e6 2.4347688392672207e7 0.0
2.4347688392672207e7 2.018910515528984e7 0.0
0.0 0.0 0.0

3.597735984746744e6 3.421632542076149e7 0.0
3.421632542076149e7 -5.1053304367508115e6 0.0
0.0 0.0 0.0

8.706026152162382e6 1.89375451893748e7 0.0
1.89375451893748e7 3.015147253517216e7 0.0
0.0 0.0 0.0

1.793653395204634e7 1.2895328540662471e7 0.0
1.2895328540662471e7 2.0347868002633234e6 0.0
0.0 0.0 0.0

-1.7804042547924556e7 3.07560719435746e7 0.0
3.07560719435746e7 -1.5014274282778608e7 0.0
0.0 0.0 0.0

-5.85495548765485e6 8.172385895768932e6 0.0
8.172385895768932e6 5.660555282480701e7 0.0
0.0 0.0 0.0

-6.852887032578168e6 2.9381970151138976e7 0.0
2.9381970151138976e7 1.0395248746127792e7 0.0
0.0 0.0 0.0

4.75680282453331e6 2.7816126242150832e7 0.0
2.7816126242150832e7 -8.88019633454104e6 0.0
0.0 0.0 0.0

-3.8024936139244214e6 2.1352693924589388e7 0.0
2.1352693924589388e7 3.062580684105266e7 0.0
0.0 0.0 0.0

-8.150917108345769e6 1.3762450713329334e6 0.0
1.3762450713329334e6 3.726253382067461e7 0.0
0.0 0.0 0.0

1.487830390372457e6 3.563159452081256e7 0.0
3.563159452081256e7 -3.8710921499938364e6 0.0
0.0 0.0 0.0

423433.96649192646 1.1916963844310656e7 0.0
1.1916963844310656e7 -4.229563513414003e7 0.0
0.0 0.0 0.0

6.226671997791118e6 3.3046308770320192e7 0.0
3.3046308770320192e7 -7.166348417704616e6 0.0
0.0 0.0 0.0

1.6172172209838945e6 7.575223555994946e6 0.0
7.575223555994946e6 -4.829341131102576e7 0.0
0.0 0.0 0.0

8.208353342493796e6 2.1737254928796627e7 0.0
2.1737254928796627e7 2.4240131229337595e7 0.0
0.0 0.0 0.0

354038.0625563883 2.6236167615107283e7 0.0
2.6236167615107283e7 -1.1557829797333267e7 0.0
0.0 0.0 0.0

-1.0859772781892112e7 5.6185642321771085e6 0.0
5.6185642321771085e6 2.238731941871375e7 0.0
0.0 0.0 0.0

-3.9618317737323325e6 1.9868013210882824e7 0.0
1.9868013210882824e7 -1.1654446769023212e7 0.0
0.0 0.0 0.0

1.8968270655922685e6 5.378037359815088e6 0.0
5.378037359815088e6 -4.94355252641173e7 0.0
0.0 0.0 0.0

2.1059281547777712e7 3.3272800281723224e7 0.0
3.3272800281723224e7 -3.8546110093625328e6 0.0
0.0 0.0 0.0

1.6265648862666152e6 8.47080321067239e6 0.0
8.47080321067239e6 -2.2346045892733403e7 0.0
0.0 0.0 0.0

-1.0604587990358466e7 1.0177890549935179e7 0.0
1.0177890549935179e7 2.709455091226386e7 0.0
0.0 0.0 0.0

-3.849763277776243e6 3.4875159084515244e7 0.0
3.4875159084515244e7 3.8064576867089304e6 0.0
0.0 0.0 0.0

-2.865416153917143e6 1.6014435012991065e7 0.0
1.6014435012991065e7 -5.2944273644153185e7 0.0
0.0 0.0 0.0

-6.1502514096472245e6 1.9774628247625627e7 0.0
1.9774628247625627e7 -2.0500837724171843e7 0.0
0.0 0.0 0.0

5.856651065811804e6 2.0127139986471258e7 0.0
2.0127139986471258e7 1.952217058310487e7 0.0
0.0 0.0 0.0

-2.2866380067009088e6 1.6124115594838027e7 0.0
1.6124115594838027e7 4.341120352149803e6 0.0
0.0 0.0 0.0

-4.1521012947971066e6 1.8517024781523466e7 0.0
1.8517024781523466e7 1.224806767776815e7 0.0
0.0 0.0 0.0

4.437584678187412e6 2.2738984584602926e7 0.0
2.2738984584602926e7 2.589825171473148e7 0.0
0.0 0.0 0.0

-8.913383049848411e6 3.080413134671628e6 0.0
3.080413134671628e6 3.2450817896169625e7 0.0
0.0 0.0 0.0

3.5575817109659924e6 2.55919037221677e7 0.0
2.55919037221677e7 6.716459087573983e6 0.0
0.0 0.0 0.0

-3.581807567897734e6 2.706359742774801e7 0.0
2.706359742774801e7 1.5105008602558704e7 0.0
0.0 0.0 0.0

1.500200329913061e6 8.708763727250678e6 0.0
8.708763727250678e6 -1.9708657189220354e7 0.0
0.0 0.0 0.0

-9.750397952527435e6 6.705956137451276e6 0.0
6.705956137451276e6 3.449000774655775e7 0.0
0.0 0.0 0.0

-9.20831876030695e6 2.633326677639999e7 0.0
2.633326677639999e7 -1.119785563138081e7 0.0
0.0 0.0 0.0

-4.3366070323650595e6 2.197303323545437e7 0.0
2.197303323545437e7 2.8828000518664736e7 0.0
0.0 0.0 0.0

1.2489697043353338e6 2.38738306398767e7 0.0
2.38738306398767e7 2.0623649933986723e7 0.0
0.0 0.0 0.0

-8.882720617190268e6 1.0991293209509548e7 0.0
1.0991293209509548e7 3.572596762787498e7 0.0
0.0 0.0 0.0

3.9493853196059223e6 2.719554630401747e7 0.0
2.719554630401747e7 -1.1681960189073429e7 0.0
0.0 0.0 0.0

-7.378339160230208e6 3.3397246446086206e7 0.0
3.3397246446086206e7 7.874216586943187e6 0.0
0.0 0.0 0.0

-5.835348760193091e6 1.2151307375227876e7 0.0
1.2151307375227876e7 5.095805893839864e7 0.0
0.0 0.0 0.0

-7.837861486789823e6 1.5813191781971851e7 0.0
1.5813191781971851e7 1.926764140849398e7 0.0
0.0 0.0 0.0

-7.486538364358224e6 5.654128449367564e6 0.0
5.654128449367564e6 4.985843896621056e7 0.0
0.0 0.0 0.0

622374.783943723 2.117514118116276e7 0.0
2.117514118116276e7 -2.2818721438478783e7 0.0
0.0 0.0 0.0

-6.183967053224127e6 2.9596959096836995e7 0.0
2.9596959096836995e7 1.1349874025102116e7 0.0
0.0 0.0 0.0

-3.6627804877633736e6 2.470283601078625e7 0.0
2.470283601078625e7 -1.7430612030594875e6 0.0
0.0 0.0 0.0

2.349242406067566e6 9.816946879722163e6 0.0
9.816946879722163e6 -2.4426745307202302e7 0.0
0.0 0.0 0.0

-7.777182210587069e6 2.1176023174850815e6 0.0
2.1176023174850815e6 4.13941799346008e7 0.0
0.0 0.0 0.0

740982.8135142177 1.85914719946255e7 0.0
1.85914719946255e7 5.801594323767188e7 0.0
0.0 0.0 0.0

-3.4842820228713565e6 1.492383501525194e7 0.0
1.492383501525194e7 5.538538848056456e7 0.0
0.0 0.0 0.0

3.340392098787704e6 2.3803466697741885e7 0.0
2.3803466697741885e7 1.4072865900006834e7 0.0
0.0 0.0 0.0

-9.821414822046382e6 9.554284029768214e6 0.0
9.554284029768214e6 3.377623440209854e7 0.0
0.0 0.0 0.0

-3.1432701140358765e6 1.7692035427286614e7 0.0
1.7692035427286614e7 1.3798516863777589e7 0.0
0.0 0.0 0.0

-351477.0102880739 2.4754132034733534e7 0.0
2.4754132034733534e7 -6.836610954647122e6 0.0
0.0 0.0 0.0

380954.66163406894 1.8988241604996257e7 0.0
1.8988241604996257e7 -1.9396222902979888e7 0.0
0.0 0.0 0.0

-3.8224744370120214e6 2.706069221198507e7 0.0
2.706069221198507e7 1.6296200646733422e7 0.0
0.0 0.0 0.0

-5.903569692047979e6 3.901558933870232e7 0.0
3.901558933870232e7 4.842478785522684e6 0.0
0.0 0.0 0.0

-6.256699327739347e6 1.584028392722215e7 0.0
1.584028392722215e7 4.23320954915666e7 0.0
0.0 0.0 0.0

1.2364766618788304e7 1.9374492492240787e7 0.0
1.9374492492240787e7 4.4085224513639376e7 0.0
0.0 0.0 0.0

85437.09438045416 2.4781598545294203e7 0.0
2.4781598545294203e7 -1.0465537283583231e7 0.0
0.0 0.0 0.0

1.713155426170025e6 1.3220071543519324e7 0.0
1.3220071543519324e7 -3.189229054636417e7 0.0
0.0 0.0 0.0

1.4388595814035498e6 2.957473039717586e6 0.0
2.957473039717586e6 -5.335377575814294e7 0.0
0.0 0.0 0.0

-7.510867416018199e6 2.2146709453349295e6 0.0
2.2146709453349295e6 4.642761409357672e7 0.0
0.0 0.0 0.0

-3.3536238659334313e6 2.6969262774611183e7 0.0
2.6969262774611183e7 1.4915833433034573e7 0.0
0.0 0.0 0.0

1.0702502229341809e6 1.9183514721100666e7 0.0
1.9183514721100666e7 1.9371617598566186e7 0.0
0.0 0.0 0.0

4.577056274303779e6 1.9133098491351794e7 0.0
1.9133098491351794e7 8.19240942613196e7 0.0
0.0 0.0 0.0

48899.312418213114 1.796976619863141e7 0.0
1.796976619863141e7 -1.782099190434907e7 0.0
0.0 0.0 0.0

9.705234349754805e6 2.0291567158866886e7 0.0
2.0291567158866886e7 3.235078153457523e7 0.0
0.0 0.0 0.0

-9.166427545961684e6 2.699410647119845e6 0.0
2.699410647119845e6 3.467376876350612e7 0.0
0.0 0.0 0.0

-2.640199194519971e7 3.2337737889249506e6 0.0
3.2337737889249506e6 7.272454767995827e6 0.0
0.0 0.0 0.0

972816.9814692289 1.1093231738737587e7 0.0
1.1093231738737587e7 -3.841386011077879e7 0.0
0.0 0.0 0.0

-1.040613059339462e7 7.659458075837549e6 0.0
7.659458075837549e6 2.970027042699077e7 0.0
0.0 0.0 0.0

68000.24646469578 1.2838766438052872e7 0.0
1.2838766438052872e7 -4.2770495395722225e7 0.0
0.0 0.0 0.0

-2.8836140344018154e6 1.912077289788659e7 0.0
1.912077289788659e7 4.196038044611052e7 0.0
0.0 0.0 0.0

2.663517732001016e6 3.3043485681568906e6 0.0
3.3043485681568906e6 -3.3003224936352655e7 0.0
0.0 0.0 0.0

1.748126781089961e7 3.453976421973754e7 0.0
3.453976421973754e7 -4.888886962974424e6 0.0
0.0 0.0 0.0

-1.819431515204628e6 1.759704493071367e7 0.0
1.759704493071367e7 511016.71402638743 0.0
0.0 0.0 0.0

641796.5337802449 7.566050666612181e6 0.0
7.566050666612181e6 -3.858911386288287e6 0.0
0.0 0.0 0.0

4.268251820469417e7 6.839253535286719e6 0.0
6.839253535286719e6 -844859.4519918915 0.0
0.0 0.0 0.0

-1.2399371564149074e6 1.9735999551083088e7 0.0
1.9735999551083088e7 4.392035278833898e7 0.0
0.0 0.0 0.0

-1.5864583611874916e6 1.2629873206944363e7 0.0
1.2629873206944363e7 -6.5495882237570975e6 0.0
0.0 0.0 0.0

-8.08017312347227e6 7.1627796573597e6 0.0
7.1627796573597e6 4.690636570288208e7 0.0
0.0 0.0 0.0

1.5460102902582395e6 6.010431905751751e6 0.0
6.010431905751751e6 -1.1654472426468732e7 0.0
0.0 0.0 0.0

-8.037767856903382e6 2.5882896205846705e7 0.0
2.5882896205846705e7 -8.280132203336795e6 0.0
0.0 0.0 0.0

-2.9298918086675704e6 2.4477583367687136e7 0.0
2.4477583367687136e7 2.034305043429847e7 0.0
0.0 0.0 0.0

-9.551290312246239e6 1.1664705839146117e7 0.0
1.1664705839146117e7 2.907752987882449e7 0.0
0.0 0.0 0.0

1.1214502758114673e6 9.3490734881453e6 0.0
9.3490734881453e6 -3.976198192374784e7 0.0
0.0 0.0 0.0

-9.008480298184622e6 1.927568133093912e7 0.0
1.927568133093912e7 -5.046265984425545e7 0.0
0.0 0.0 0.0

-8.967973762905005e6 8.818524164436929e6 0.0
8.818524164436929e6 1.2248718579290507e7 0.0
0.0 0.0 0.0

2.236342375787854e6 3.5591079433227503e6 0.0
3.5591079433227503e6 -2.9924116448756102e7 0.0
0.0 0.0 0.0

150492.5693004951 2.2230724263308e7 0.0
2.2230724263308e7 -1.6310716564702889e7 0.0
0.0 0.0 0.0

2.7636772812632505e7 2.7699583495973244e7 0.0
2.7699583495973244e7 1.1439504013259806e7 0.0
0.0 0.0 0.0

1.527049434956763e6 6.6073960289593795e6 0.0
6.6073960289593795e6 -5.3980371679652154e7 0.0
0.0 0.0 0.0

-1.3396123887783296e7 1.2618231794530181e6 0.0
1.2618231794530181e6 6.648576611283209e6 0.0
0.0 0.0 0.0

-3.8075350289694667e6 2.2283317641717494e7 0.0
2.2283317641717494e7 2.638044308660751e7 0.0
0.0 0.0 0.0

-2.573799150239871e6 1.105469971639159e7 0.0
1.105469971639159e7 4.784612079038609e6 0.0
0.0 0.0 0.0

-9.40715783666619e6 1.0670623979444787e7 0.0
1.0670623979444787e7 3.1938567693431273e7 0.0
0.0 0.0 0.0

1.0713606292508803e6 7.164777264909161e6 0.0
7.164777264909161e6 -6.249324785642702e7 0.0
0.0 0.0 0.0

1.4095273838092387e7 2.109232097096168e7 0.0
2.109232097096168e7 4.698424671867723e7 0.0
0.0 0.0 0.0

1.3961297777052708e7 2.835765871049042e7 0.0
2.835765871049042e7 1.57507315677844e7 0.0
0.0 0.0 0.0

-7.551638477754293e6 2.1465258472152244e7 0.0
2.1465258472152244e7 -2.96753831750944e7 0.0
0.0 0.0 0.0

-403187.08635458257 1.6358502390225545e7 0.0
1.6358502390225545e7 -1.4891560745809713e7 0.0
0.0 0.0 0.0

-2.8907846095071333e6 2.5440749478659526e7 0.0
2.5440749478659526e7 1.8778341862407908e7 0.0
0.0 0.0 0.0

1.4631140072866252e7 2.593353189417666e7 0.0
2.593353189417666e7 2.1957124759789137e6 0.0
0.0 0.0 0.0

759835.7901105192 1.2736091012678934e7 0.0
1.2736091012678934e7 -3.699895869535693e7 0.0
0.0 0.0 0.0

3.0220935639441703e6 3.8408861175138466e7 0.0
3.8408861175138466e7 -3.7329460160230203e6 0.0
0.0 0.0 0.0

307490.2270959038 2.2319225665555872e7 0.0
2.2319225665555872e7 5.263237724848876e6 0.0
0.0 0.0 0.0

-8.532940500348364e7 8.225962096319605e6 0.0
8.225962096319605e6 2.1678630459961295e6 0.0
0.0 0.0 0.0

7.577365470833163e7 8.90203503552096e6 0.0
8.90203503552096e6 416477.06943709776 0.0
0.0 0.0 0.0

6.728403531624667e6 2.5811800088812526e7 0.0
2.5811800088812526e7 1.1631441203222869e7 0.0
0.0 0.0 0.0

-3.556664141439073e6 1.0280839815328e7 0.0
1.0280839815328e7 3.2750178256027922e7 0.0
0.0 0.0 0.0

2.544415569722697e6 2.339280866603079e7 0.0
2.339280866603079e7 2.1266236625261683e7 0.0
0.0 0.0 0.0

4.788675325276157e6 3.141190732543709e7 0.0
3.141190732543709e7 -8.641692946172092e6 0.0
0.0 0.0 0.0

6.4434921132617695e6 2.3363381958629757e7 0.0
2.3363381958629757e7 2.1478307612216853e7 0.0
0.0 0.0 0.0

-9.75629506567778e6 1.0718276386164594e7 0.0
1.0718276386164594e7 2.8111598311136447e7 0.0
0.0 0.0 0.0

-2.1075147266040593e6 2.5185490001189146e7 0.0
2.5185490001189146e7 1.3219473656905327e7 0.0
0.0 0.0 0.0

-6.034036279940223e7 4.316469584831972e7 0.0
4.316469584831972e7 -1.6320860400014872e7 0.0
0.0 0.0 0.0

1.7577766591069251e6 4.278179710751008e6 0.0
4.278179710751008e6 -3.7523615895316325e7 0.0
0.0 0.0 0.0

-4.679343861709069e6 2.4967840636909444e7 0.0
2.4967840636909444e7 -4.857785538413821e6 0.0
0.0 0.0 0.0

1.3416925650492989e7 1.963156779700351e7 0.0
1.963156779700351e7 4.9602621517517805e7 0.0
0.0 0.0 0.0

-8.990935788270617e6 1.9610873110143673e7 0.0
1.9610873110143673e7 -2.9969785816744763e7 0.0
0.0 0.0 0.0

8.417812439051988e6 2.013832023333391e7 0.0
2.013832023333391e7 2.8059375784781165e7 0.0
0.0 0.0 0.0

-2.3775413569471296e6 1.6377196953292895e7 0.0
1.6377196953292895e7 -4.9654768194616355e7 0.0
0.0 0.0 0.0

-8.624432980125293e6 4.0641616952612842e6 0.0
4.0641616952612842e6 3.6415988879849344e7 0.0
0.0 0.0 0.0

-2.1852976845336724e7 3.6846420644195326e7 0.0
3.6846420644195326e7 5.907101490723534e6 0.0
0.0 0.0 0.0

1.5517086908734133e6 9.170142752485964e6 0.0
9.170142752485964e6 -2.343472629177339e7 0.0
0.0 0.0 0.0

-1.5474513058095407e6 2.0165411604536917e7 0.0
2.0165411604536917e7 4.125398106773041e7 0.0
0.0 0.0 0.0

-1.090198736204556e7 8.081591387216901e6 0.0
8.081591387216901e6 2.4597306046809483e7 0.0
0.0 0.0 0.0

-6.574329445470162e6 3.77834487215109e7 0.0
3.77834487215109e7 5.533049524396563e6 0.0
0.0 0.0 0.0

-1.5433201762595925e7 4.294328433496144e7 0.0
4.294328433496144e7 6.271747163151956e6 0.0
0.0 0.0 0.0

-1.3627086649863593e7 1.445482280953313e6 0.0
1.445482280953313e6 6.315271074618886e6 0.0
0.0 0.0 0.0

-4.1667729094371693e6 2.1201891806990657e7 0.0
2.1201891806990657e7 -1.417033121028258e7 0.0
0.0 0.0 0.0

3.8599355696922084e6 3.0593497879041377e7 0.0
3.0593497879041377e7 -8.903851102816248e6 0.0
0.0 0.0 0.0

-1.0613724319761636e7 4.751495172949206e6 0.0
4.751495172949206e6 1.5158314216234505e7 0.0
0.0 0.0 0.0

1.4221653880843123e7 3.5265586420883745e7 0.0
3.5265586420883745e7 -5.5696283922695955e6 0.0
0.0 0.0 0.0

-1.0800201946145464e7 9.184812320813667e6 0.0
9.184812320813667e6 2.592369426926704e7 0.0
0.0 0.0 0.0

1.4210223242937215e6 4.833001058111625e6 0.0
4.833001058111625e6 -4.4123593385104336e7 0.0
0.0 0.0 0.0

1.602175796683479e6 5.9412507396001825e6 0.0
5.9412507396001825e6 -3.921604442929582e7 0.0
0.0 0.0 0.0

414038.2789841555 1.6018086321508022e7 0.0
1.6018086321508022e7 -1.9859458573685236e7 0.0
0.0 0.0 0.0

3.374726204778755e6 2.701331701588284e7 0.0
2.701331701588284e7 -1.2816876461882582e7 0.0
0.0 0.0 0.0

1.0901001036480702e6 6.338178909023243e6 0.0
6.338178909023243e6 -6.6379373538382e7 0.0
0.0 0.0 0.0

-8.52230924101169e6 2.734630747210461e7 0.0
2.734630747210461e7 -1.6341789709838862e7 0.0
0.0 0.0 0.0

365424.99364271015 1.8515336504435193e7 0.0
1.8515336504435193e7 -2.821615728770908e7 0.0
0.0 0.0 0.0

-5.19731238799605e6 2.078351099486212e7 0.0
2.078351099486212e7 3.070227562350078e7 0.0
0.0 0.0 0.0

-8.249258338282181e6 2.69599456112861e7 0.0
2.69599456112861e7 -1.5021421614079978e7 0.0
0.0 0.0 0.0

1.5618272946293484e6 1.2315721931814332e7 0.0
1.2315721931814332e7 -3.63409573261473e7 0.0
0.0 0.0 0.0

-4.0171968743707e7 2.9219147231015205e7 0.0
2.9219147231015205e7 1.435927510678351e6 0.0
0.0 0.0 0.0

1.3698704999648072e6 3.860605054545089e6 0.0
3.860605054545089e6 -4.6231766859399654e7 0.0
0.0 0.0 0.0

2.291260014652161e6 6.157666865333811e6 0.0
6.157666865333811e6 -3.918141562796568e7 0.0
0.0 0.0 0.0

1.7159948154571513e6 2.444641878035436e7 0.0
2.444641878035436e7 -1.6752072457854021e7 0.0
0.0 0.0 0.0

-1.8373381279800426e7 1.6487700759188582e6 0.0
1.6487700759188582e6 7.418528857062136e6 0.0
0.0 0.0 0.0

1.2375926837871885e6 1.2292187798498992e7 0.0
1.2292187798498992e7 -1.3707524465310976e7 0.0
0.0 0.0 0.0

2.1249207620174102e6 2.062857570728228e7 0.0
2.062857570728228e7 2.47792552632588e7 0.0
0.0 0.0 0.0

-4.685382060546201e6 3.618424126163327e7 0.0
3.618424126163327e7 5.5435700040232055e6 0.0
0.0 0.0 0.0

-7.964822043052597e6 3.843156744881613e7 0.0
3.843156744881613e7 5.742979617958119e6 0.0
0.0 0.0 0.0

-1.0420313547316302e7 1.1844943803441152e7 0.0
1.1844943803441152e7 2.6004970767400622e7 0.0
0.0 0.0 0.0

1.129365674493879e6 1.5913611856730757e7 0.0
1.5913611856730757e7 7.630910767282914e7 0.0
0.0 0.0 0.0

-2.92714133909123e6 3.7134614644804835e7 0.0
3.7134614644804835e7 3.7618446348335245e6 0.0
0.0 0.0 0.0

-5.661388213140893e6 2.542613476400791e7 0.0
2.542613476400791e7 -2.0562153234985103e6 0.0
0.0 0.0 0.0

5375.4835984918755 2.4524489113351207e7 0.0
2.4524489113351207e7 -5.293417685178816e6 0.0
0.0 0.0 0.0

4.9762099565453656e7 3.0519871566836547e7 0.0
3.0519871566836547e7 1.9893668228523307e7 0.0
0.0 0.0 0.0

-9.179102375205113e6 1.3046532319447333e7 0.0
1.3046532319447333e7 2.7773097991657767e7 0.0
0.0 0.0 0.0

2.2331836376021374e6 4.22786298221728e6 0.0
4.22786298221728e6 -4.322782263079537e7 0.0
0.0 0.0 0.0

1.020073088186278e6 2.3106222230501663e7 0.0
2.3106222230501663e7 -1.4924262098463083e7 0.0
0.0 0.0 0.0

-2.0186824244831263e6 1.906742888553314e7 0.0
1.906742888553314e7 4.1116800970674707e6 0.0
0.0 0.0 0.0

-1.560872252639063e7 2.254155740278337e7 0.0
2.254155740278337e7 -2.048267159765012e6 0.0
0.0 0.0 0.0

-7.577745945852315e6 3.711422597895505e6 0.0
3.711422597895505e6 4.436299993421192e7 0.0
0.0 0.0 0.0

-9.651789881933497e7 5.7671278719724104e7 0.0
5.7671278719724104e7 -2.490744296312409e7 0.0
0.0 0.0 0.0

-1.3579202726690656e7 1.9908663603356153e7 0.0
1.9908663603356153e7 -4.526401005974844e7 0.0
0.0 0.0 0.0

1.2526128466542177e7 2.06931091144611e7 0.0
2.06931091144611e7 4.17537626220788e7 0.0
0.0 0.0 0.0

191095.7432520315 1.71667269415852e7 0.0
1.71667269415852e7 -3.223573090904792e7 0.0
0.0 0.0 0.0

-1.789238776030488e7 2.8303619347709157e7 0.0
2.8303619347709157e7 -9.64275200006947e6 0.0
0.0 0.0 0.0

2.250476016648855e6 1.0113429175145904e7 0.0
1.0113429175145904e7 -2.1892596546688765e7 0.0
0.0 0.0 0.0

1.782835622230662e6 1.0601808876460109e7 0.0
1.0601808876460109e7 -3.764468586902564e7 0.0
0.0 0.0 0.0

-3.1598902120234678e6 2.3669347585992772e7 0.0
2.3669347585992772e7 2.2416470464576244e7 0.0
0.0 0.0 0.0

774012.6633350533 1.353780155219564e7 0.0
1.353780155219564e7 -3.497816799583747e7 0.0
0.0 0.0 0.0

-5.451569965858618e6 3.700299527664801e7 0.0
3.700299527664801e7 5.54805355932928e6 0.0
0.0 0.0 0.0

-8.742843368266104e6 9.330892900685515e6 0.0
9.330892900685515e6 4.1121395449330695e7 0.0
0.0 0.0 0.0

-8.377094639088104e6 1.7838282746992207e6 0.0
1.7838282746992207e6 3.431610853855438e7 0.0
0.0 0.0 0.0

1.3081207513629515e6 8.473902980494624e6 0.0
8.473902980494624e6 -3.8947669514920145e7 0.0
0.0 0.0 0.0

-1.708920007684045e7 2.7647039893273413e7 0.0
2.7647039893273413e7 -1.3266622591606757e7 0.0
0.0 0.0 0.0

8.433411436387803e6 4.1899444887129426e7 0.0
4.1899444887129426e7 -4.819210546261748e6 0.0
0.0 0.0 0.0

-4.620127327068016e6 2.1278823635123886e7 0.0
2.1278823635123886e7 2.7987376962812774e7 0.0
0.0 0.0 0.0

1.3099600462832004e6 6.624439388271773e6 0.0
6.624439388271773e6 -4.297252530883893e7 0.0
0.0 0.0 0.0

1.1205031388222948e6 7.053936095493775e6 0.0
7.053936095493775e6 -5.791936997249684e7 0.0
0.0 0.0 0.0

-2.1977805692503564e6 1.4793410998409575e7 0.0
1.4793410998409575e7 6.2989435259048656e7 0.0
0.0 0.0 0.0

-8.200446104530195e6 9.530726328018412e6 0.0
9.530726328018412e6 4.178161829977044e7 0.0
0.0 0.0 0.0

1.1721945519849038e7 3.5452655912978165e7 0.0
3.5452655912978165e7 -5.971948414586203e6 0.0
0.0 0.0 0.0

-553976.5230565339 2.8243003758134205e7 0.0
2.8243003758134205e7 -2.307765860830801e6 0.0
0.0 0.0 0.0

-7.290800738749895e6 7.329711348979817e6 0.0
7.329711348979817e6 4.7872518871731654e7 0.0
0.0 0.0 0.0

2.2153811493255366e6 5.093358001132563e6 0.0
5.093358001132563e6 -2.317676321761489e7 0.0
0.0 0.0 0.0

-2.0607845782467169e6 2.813602305451361e7 0.0
2.813602305451361e7 1.33402387400332e6 0.0
0.0 0.0 0.0

-2.4068166466659196e7 2.8507175654843774e7 0.0
2.8507175654843774e7 -1.1494799733726725e7 0.0
0.0 0.0 0.0

-9.2178204512485e6 1.4015473410943627e7 0.0
1.4015473410943627e7 1.9820273974336565e7 0.0
0.0 0.0 0.0

2.1091113806967586e6 6.032682470918286e6 0.0
6.032682470918286e6 -4.2083681798198596e7 0.0
0.0 0.0 0.0

906337.2184716668 1.3572585579126677e7 0.0
1.3572585579126677e7 -3.2465006291609813e7 0.0
0.0 0.0 0.0

-1.0488862516872909e7 3.602979136500897e6 0.0
3.602979136500897e6 2.364864152806942e7 0.0
0.0 0.0 0.0

-8.774906542823225e6 1.2540812090069056e7 0.0
1.2540812090069056e7 3.400619217643232e7 0.0
0.0 0.0 0.0

-2.173142672581639e6 1.6687623519262068e7 0.0
1.6687623519262068e7 -4.613287548837003e7 0.0
0.0 0.0 0.0

2.386580526385242e6 5.334447664060202e6 0.0
5.334447664060202e6 -3.8318887907470286e7 0.0
0.0 0.0 0.0

-1.2086135869722257e6 2.7991050644162253e7 0.0
2.7991050644162253e7 -4.422545947646042e6 0.0
0.0 0.0 0.0

2.0083877300450243e6 8.801556319787433e6 0.0
8.801556319787433e6 -3.890112158821772e7 0.0
0.0 0.0 0.0

-9.767510311253404e6 5.420392958058291e6 0.0
5.420392958058291e6 2.6139668664515316e7 0.0
0.0 0.0 0.0

-1.9575671550140012e7 2.1711687162966147e7 0.0
2.1711687162966147e7 -6.525224195468983e7 0.0
0.0 0.0 0.0

1.8097384371653985e7 2.256136205518391e7 0.0
2.256136205518391e7 6.0324617106698856e7 0.0
0.0 0.0 0.0

1.3757108832718376e6 2.4799896448020343e7 0.0
2.4799896448020343e7 1.9660452171812742e6 0.0
0.0 0.0 0.0

-2.986025434915609e7 3.9380478545569275e6 0.0
3.9380478545569275e6 6.329811701220559e6 0.0
0.0 0.0 0.0

-9.255316304606577e6 2.1030549506949964e6 0.0
2.1030549506949964e6 2.6338589802052576e7 0.0
0.0 0.0 0.0

7.9342550719769085e6 2.2917993698942877e7 0.0
2.2917993698942877e7 2.6447513383167133e7 0.0
0.0 0.0 0.0

-7.295983311181167e6 2.2340635570939127e7 0.0
2.2340635570939127e7 -2.4319940963515624e7 0.0
0.0 0.0 0.0

1.7451672016857825e6 1.6181792162829183e7 0.0
1.6181792162829183e7 8.304742762476386e7 0.0
0.0 0.0 0.0

1.3187064011417832e6 7.579603048081769e6 0.0
7.579603048081769e6 -4.096248888444345e7 0.0
0.0 0.0 0.0

3.5475806086659115e6 2.968251043755396e7 0.0
2.968251043755396e7 -1.0272649760062782e7 0.0
0.0 0.0 0.0

-1.0730275131374124e7 1.9626196795559257e7 0.0
1.9626196795559257e7 -4.901543314633786e7 0.0
0.0 0.0 0.0

-4.638027662461277e6 3.4885753052672826e7 0.0
3.4885753052672826e7 4.909658886211111e6 0.0
0.0 0.0 0.0

-4.9369277668444645e6 2.7324799742319286e7 0.0
2.7324799742319286e7 9.65496132299693e6 0.0
0.0 0.0 0.0

2.463625939345076e6 3.5579933975495294e7 0.0
3.5579933975495294e7 -4.736187714164845e6 0.0
0.0 0.0 0.0

-1.780386762206355e7 1.9640443841750134e7 0.0
1.9640443841750134e7 -6.851965540966706e7 0.0
0.0 0.0 0.0

9.636160198080074e6 3.537731943335466e7 0.0
3.537731943335466e7 -6.225210922526039e6 0.0
0.0 0.0 0.0

-3.5896292725361083e6 1.9564118510064702e7 0.0
1.9564118510064702e7 3.944807317487941e7 0.0
0.0 0.0 0.0

1.3016619002781464e6 1.0748949119571324e7 0.0
1.0748949119571324e7 -2.2911074832073614e7 0.0
0.0 0.0 0.0

1.458291676460443e6 6.74358340646339e6 0.0
6.74358340646339e6 -4.00900075669415e7 0.0
0.0 0.0 0.0

3.60957955939092e6 2.8227162269507118e7 0.0
2.8227162269507118e7 -1.1678234720736695e7 0.0
0.0 0.0 0.0

-2.0208306907554164e6 1.91742217645826e7 0.0
1.91742217645826e7 -6.857893089496696e6 0.0
0.0 0.0 0.0

436604.26934571564 1.0935694125625478e7 0.0
1.0935694125625478e7 -4.474670267463599e7 0.0
0.0 0.0 0.0

-3.6810518680039244e6 3.302574698283045e7 0.0
3.302574698283045e7 6.077392212293686e6 0.0
0.0 0.0 0.0

-1.6512613958920392e6 2.1760685291527525e7 0.0
2.1760685291527525e7 816862.554827127 0.0
0.0 0.0 0.0

826180.5526459394 1.8846149967380907e7 0.0
1.8846149967380907e7 -1.6494794411144873e7 0.0
0.0 0.0 0.0

-98510.00290903822 1.462025767027325e7 0.0
1.462025767027325e7 -4.304704130997694e7 0.0
0.0 0.0 0.0

6.543690129434561e6 3.457657899674108e7 0.0
3.457657899674108e7 -6.640951030313799e6 0.0
0.0 0.0 0.0

794795.6427463172 2.144605098903126e7 0.0
2.144605098903126e7 -1.504345672146255e7 0.0
0.0 0.0 0.0

-2.782683400345559e6 2.018762599959949e7 0.0
2.018762599959949e7 -7.406682963544824e6 0.0
0.0 0.0 0.0

3.738775263803203e7 6.205289727349429e6 0.0
6.205289727349429e6 -1.4331558270926066e6 0.0
0.0 0.0 0.0

-1.8335404668602552e6 2.2804839152443245e7 0.0
2.2804839152443245e7 9.960293906627841e6 0.0
0.0 0.0 0.0

-8.714386616839163e6 1.3126492352129208e7 0.0
1.3126492352129208e7 2.1634670586569674e7 0.0
0.0 0.0 0.0

-8.185643939127764e6 3.578215916197923e6 0.0
3.578215916197923e6 3.9341577991310805e7 0.0
0.0 0.0 0.0

2.580616635820573e6 3.6837659448703476e6 0.0
3.6837659448703476e6 -3.655840366882508e7 0.0
0.0 0.0 0.0

2.3698558791191857e6 6.894310544276002e6 0.0
6.894310544276002e6 -2.6530712594030753e7 0.0
0.0 0.0 0.0

2.518572653535038e6 5.471715795467451e6 0.0
5.471715795467451e6 -3.547632087649371e7 0.0
0.0 0.0 0.0

-6.496144153892451e6 2.2012342573248137e7 0.0
2.2012342573248137e7 -2.772860796831953e7 0.0
0.0 0.0 0.0

7.946824282421131e6 3.5050418408043e7 0.0
3.5050418408043e7 -6.436289339998444e6 0.0
0.0 0.0 0.0

-3.7776062747081164e6 1.9895599161820993e7 0.0
1.9895599161820993e7 3.661571318385614e7 0.0
0.0 0.0 0.0

-2.639940088898681e6 2.3521955571991365e7 0.0
2.3521955571991365e7 8.698475805842334e6 0.0
0.0 0.0 0.0

1.729788266082801e6 6.118085536819283e6 0.0
6.118085536819283e6 -3.653942275616825e7 0.0
0.0 0.0 0.0

-1.0970321307102708e7 6.869064289185912e6 0.0
6.869064289185912e6 2.3521977421862483e7 0.0
0.0 0.0 0.0

-4.548283889719507e6 2.1335928332325805e7 0.0
2.1335928332325805e7 3.0566840808673523e7 0.0
0.0 0.0 0.0

1.4288159429894993e6 2.3982062201968316e7 0.0
2.3982062201968316e7 -1.8151071319103494e7 0.0
0.0 0.0 0.0

1.953243554415889e6 2.5384379761584047e7 0.0
2.5384379761584047e7 -6.088758285584424e6 0.0
0.0 0.0 0.0

-4.304845624626159e6 3.433164933744962e7 0.0
3.433164933744962e7 6.501423599304575e6 0.0
0.0 0.0 0.0

977231.3148550075 1.836705227402462e7 0.0
1.836705227402462e7 -2.8010425193998978e7 0.0
0.0 0.0 0.0

2.2747959933490995e6 7.105155398733716e6 0.0
7.105155398733716e6 -3.7311998183559276e7 0.0
0.0 0.0 0.0

1.6295776351909358e6 6.890105201036831e6 0.0
6.890105201036831e6 -3.7351893012703426e7 0.0
0.0 0.0 0.0

1.1996705083028553e6 9.581390859766921e6 0.0
9.581390859766921e6 -1.8243616347054984e7 0.0
0.0 0.0 0.0

1.462298850564858e6 7.654526116409153e6 0.0
7.654526116409153e6 -3.8196753560811445e7 0.0
0.0 0.0 0.0

2.7241541121745687e6 6.047861324049153e6 0.0
6.047861324049153e6 -3.0869435268065058e7 0.0
0.0 0.0 0.0

-1.04793149865311e7 4.15644122698779e7 0.0
4.15644122698779e7 5.875950218356306e6 0.0
0.0 0.0 0.0

1.1848816824238686e7 3.750762980216147e7 0.0
3.750762980216147e7 -5.902404150771093e6 0.0
0.0 0.0 0.0

-5.758894157368726e6 2.8442405679950953e7 0.0
2.8442405679950953e7 9.562509746213026e6 0.0
0.0 0.0 0.0

1.794696504834842e6 6.742229327600331e6 0.0
6.742229327600331e6 -3.1988581607781667e7 0.0
0.0 0.0 0.0

-1.3392611384522493e6 2.401712031047483e7 0.0
2.401712031047483e7 -8.004395071944734e6 0.0
0.0 0.0 0.0

-1.6347171308697832e6 2.1029924344780125e7 0.0
2.1029924344780125e7 -348780.3618026792 0.0
0.0 0.0 0.0

-2.5545741405700568e7 2.451377713901484e7 0.0
2.451377713901484e7 -8.515248876351391e7 0.0
0.0 0.0 0.0

2.452343029182835e7 2.6123990142734587e7 0.0
2.6123990142734587e7 8.174478706110969e7 0.0
0.0 0.0 0.0

1.7473798564460393e7 2.6401168742082953e7 0.0
2.6401168742082953e7 2.478962342445629e6 0.0
0.0 0.0 0.0

2.605089310758842e7 2.8836938654461145e7 0.0
2.8836938654461145e7 2.931897990248654e6 0.0
0.0 0.0 0.0

-839047.8765191585 7.66827466335695e6 0.0
7.66827466335695e6 -7.30135043915084e7 0.0
0.0 0.0 0.0

1.2372429481247645e6 2.184255574193379e7 0.0
2.184255574193379e7 -2.0986701916413877e7 0.0
0.0 0.0 0.0

722202.9615627499 2.4132313411701933e7 0.0
2.4132313411701933e7 1.7464306395770602e7 0.0
0.0 0.0 0.0

-8.232777196981782e6 8.829038833644629e6 0.0
8.829038833644629e6 4.448015543836895e7 0.0
0.0 0.0 0.0

-2.593619352725342e6 1.8619707596582457e7 0.0
1.8619707596582457e7 4.486286356899164e7 0.0
0.0 0.0 0.0

-3.3273242276638066e6 2.6258967135051154e7 0.0
2.6258967135051154e7 9.669197848291997e6 0.0
0.0 0.0 0.0

-947546.6003625707 1.8609348954062052e7 0.0
1.8609348954062052e7 -5.93729289239201e6 0.0
0.0 0.0 0.0

-1.8330643859303243e7 3.1308217062056452e7 0.0
3.1308217062056452e7 -1.5815577030474816e7 0.0
0.0 0.0 0.0

-2.988855617553342e6 2.630125720728466e7 0.0
2.630125720728466e7 1.6938986943299487e7 0.0
0.0 0.0 0.0

-6.284841892924502e6 1.6881256298774246e7 0.0
1.6881256298774246e7 1.7397750255562093e7 0.0
0.0 0.0 0.0

-2.1532003979883604e6 2.7410100316535942e7 0.0
2.7410100316535942e7 6.664744061346071e6 0.0
0.0 0.0 0.0

1.4320703119229116e6 7.682072689309674e6 0.0
7.682072689309674e6 -5.1459830364925325e7 0.0
0.0 0.0 0.0

2.594987832531143e6 8.216870017428819e6 0.0
8.216870017428819e6 -2.4927408884665925e7 0.0
0.0 0.0 0.0

1.021971168751047e6 2.455823262688488e7 0.0
2.455823262688488e7 -1.5968881965181692e7 0.0
0.0 0.0 0.0

889019.3837832566 1.4455242769392952e7 0.0
1.4455242769392952e7 -3.0716857733982176e7 0.0
0.0 0.0 0.0

-5.632846892879862e6 1.0992815402989252e7 0.0
1.0992815402989252e7 5.392964841511486e7 0.0
0.0 0.0 0.0

-9.823337067759596e6 3.4480423148976252e6 0.0
3.4480423148976252e6 1.3712854450215645e7 0.0
0.0 0.0 0.0

-3.469376769802507e6 9.763972993597256e6 0.0
9.763972993597256e6 6.82955529641255e7 0.0
0.0 0.0 0.0

299898.4903306458 2.342399656249713e7 0.0
2.342399656249713e7 -1.5430623132536242e7 0.0
0.0 0.0 0.0

-5.145493611657638e6 2.8839142140125178e7 0.0
2.8839142140125178e7 1.10145530777503e7 0.0
0.0 0.0 0.0

-6.990206486292272e6 1.5681887635859873e7 0.0
1.5681887635859873e7 2.2163080254050247e7 0.0
0.0 0.0 0.0

5.947798285189664e6 3.189179126849841e7 0.0
3.189179126849841e7 -8.076345365479389e6 0.0
0.0 0.0 0.0

-1.0142058244991433e7 1.1732548466890235e7 0.0
1.1732548466890235e7 1.9669805274455264e7 0.0
0.0 0.0 0.0

-3.479146416569883e6 2.5400253490450125e7 0.0
2.5400253490450125e7 1.8718226670169447e7 0.0
0.0 0.0 0.0

3.542574571963211e7 3.56274039183443e7 0.0
3.56274039183443e7 -4.499568207049444e6 0.0
0.0 0.0 0.0

-4.74756701161739e6 2.220427166066274e7 0.0
2.220427166066274e7 2.621629911451417e7 0.0
0.0 0.0 0.0

-7.138147788283402e6 4.544115881061713e6 0.0
4.544115881061713e6 1.3948719970587123e7 0.0
0.0 0.0 0.0

-3.5354066548731156e7 3.9561230005495874e6 0.0
3.9561230005495874e6 6.579030276434561e6 0.0
0.0 0.0 0.0

1.8374105285195783e6 4.401925655843606e6 0.0
4.401925655843606e6 -3.992321524796587e7 0.0
0.0 0.0 0.0

-1.0261041340240953e7 3.617395590184638e7 0.0
3.617395590184638e7 6.856881718946064e6 0.0
0.0 0.0 0.0

-1.09640072076053e7 4.1672682920365897e6 0.0
4.1672682920365897e6 2.0781424162848707e7 0.0
0.0 0.0 0.0

-3.247286750357163e6 1.6082107890374046e7 0.0
1.6082107890374046e7 1.1423087021044893e6 0.0
0.0 0.0 0.0

-9.208838878761709e6 4.992305412409308e6 0.0
4.992305412409308e6 3.652604958715358e7 0.0
0.0 0.0 0.0

779163.0202270085 2.3948722130111516e7 0.0
2.3948722130111516e7 -1.8264495388076704e7 0.0
0.0 0.0 0.0

-8.774543933582611e6 3.4049814144071275e6 0.0
3.4049814144071275e6 3.864074492832644e7 0.0
0.0 0.0 0.0

448753.7372320378 1.9319501130793124e7 0.0
1.9319501130793124e7 -2.046847869091391e7 0.0
0.0 0.0 0.0

-3.660192171026647e6 2.066513320569471e7 0.0
2.066513320569471e7 3.449517913577856e7 0.0
0.0 0.0 0.0

-8.834659758907309e6 1.4936667537900273e7 0.0
1.4936667537900273e7 2.1012076735673666e7 0.0
0.0 0.0 0.0

-956490.5157477483 1.930930986063228e7 0.0
1.930930986063228e7 4.680070643668518e7 0.0
0.0 0.0 0.0

-6.760940285201559e6 1.8789669031203125e7 0.0
1.8789669031203125e7 2.474982209789762e7 0.0
0.0 0.0 0.0

-2.0536181528039938e6 2.9188543410026614e7 0.0
2.9188543410026614e7 1.2419999664002121e6 0.0
0.0 0.0 0.0

1.3348643305129688e6 8.622137334122436e6 0.0
8.622137334122436e6 -4.895200957730269e7 0.0
0.0 0.0 0.0

-1.8069342244097292e6 2.057294093009741e7 0.0
2.057294093009741e7 3.885412363743594e7 0.0
0.0 0.0 0.0

1.8596182693358608e7 2.6277331381877515e7 0.0
2.6277331381877515e7 1.146211171034152e7 0.0
0.0 0.0 0.0

-2.301755451405588e7 1.5382757619603086e7 0.0
1.5382757619603086e7 7.23700495918395e6 0.0
0.0 0.0 0.0

436979.82810573094 1.3522890483012034e7 0.0
1.3522890483012034e7 -4.263390340883151e7 0.0
0.0 0.0 0.0

-5.422951199054565e6 1.6431796174357189e7 0.0
1.6431796174357189e7 2.0285663606224194e7 0.0
0.0 0.0 0.0

2.0633348686676212e6 1.10216924355701e7 0.0
1.10216924355701e7 -2.0403375885433618e7 0.0
0.0 0.0 0.0

-9.484950014004264e6 2.7112685696396106e6 0.0
2.7112685696396106e6 2.3465531029521205e7 0.0
0.0 0.0 0.0

-9.366538440547096e6 2.0621156521745932e6 0.0
2.0621156521745932e6 3.092367705072368e7 0.0
0.0 0.0 0.0

711487.309210483 1.6838960378465243e7 0.0
1.6838960378465243e7 -2.5390878830251686e7 0.0
0.0 0.0 0.0

-9.872815483454704e6 9.79576206145715e6 0.0
9.79576206145715e6 2.7039154113665886e7 0.0
0.0 0.0 0.0

-6.291287993766226e6 2.958753570654642e7 0.0
2.958753570654642e7 9.45742122799683e6 0.0
0.0 0.0 0.0

9.55383598694729e6 1.9176724769293446e7 0.0
1.9176724769293446e7 8.278485344424494e6 0.0
0.0 0.0 0.0

-1.0129900610315533e6 9.250359187736887e6 0.0
9.250359187736887e6 224595.6285606941 0.0
0.0 0.0 0.0

1.1470207173257936e6 2.4255349360104818e7 0.0
2.4255349360104818e7 -1.4117262848621165e7 0.0
0.0 0.0 0.0

1.6790517773029078e6 8.521879681792269e6 0.0
8.521879681792269e6 -2.8703039417580407e7 0.0
0.0 0.0 0.0

2.8714421306375572e6 3.4555962160448484e7 0.0
3.4555962160448484e7 -5.661930956181498e6 0.0
0.0 0.0 0.0

-8.3097596637499e6 1.8046660828352854e7 0.0
1.8046660828352854e7 -8.379396226299232e7 0.0
0.0 0.0 0.0

2.0383526877676267e6 5.960904633174159e6 0.0
5.960904633174159e6 -2.152714456744037e7 0.0
0.0 0.0 0.0

1.9687866280883402e6 5.882995826354926e6 0.0
5.882995826354926e6 -3.1219232125844598e7 0.0
0.0 0.0 0.0

-5.512904404785951e6 2.2210428901982762e7 0.0
2.2210428901982762e7 -2.4916584177360922e7 0.0
0.0 0.0 0.0

-1.8324136654957386e6 1.0173264639249155e7 0.0
1.0173264639249155e7 2.522584789541343e6 0.0
0.0 0.0 0.0

-2.0223271948958512e7 2.0573734755658608e7 0.0
2.0573734755658608e7 -7.845062642770146e7 0.0
0.0 0.0 0.0

1.7139510996998455e6 9.207214338632971e6 0.0
9.207214338632971e6 -1.1764133889092261e7 0.0
0.0 0.0 0.0

2.348509846567764e6 9.433364865813907e6 0.0
9.433364865813907e6 -2.081051286114751e7 0.0
0.0 0.0 0.0

-956808.4734947918 2.3656739643779553e7 0.0
2.3656739643779553e7 -3.416774357880766e6 0.0
0.0 0.0 0.0

-4.925625218805045e6 1.5828108010114523e7 0.0
1.5828108010114523e7 4.746849624764545e7 0.0
0.0 0.0 0.0

-2.9549840395889874e6 3.643504800226802e7 0.0
3.643504800226802e7 2.0045674516672804e6 0.0
0.0 0.0 0.0

-1.172683899828407e7 1.2169111973074384e7 0.0
1.2169111973074384e7 6.934411981363715e6 0.0
0.0 0.0 0.0

892575.8789836187 1.5187271102030754e7 0.0
1.5187271102030754e7 -2.8857633340794433e7 0.0
0.0 0.0 0.0

3.250584040625248e6 2.326194559151092e7 0.0
2.326194559151092e7 2.468340736349775e7 0.0
0.0 0.0 0.0

3.0395421167403976e6 3.353590962247203e7 0.0
3.353590962247203e7 -6.652992237695816e6 0.0
0.0 0.0 0.0

-950968.4576654444 1.6627447387935553e7 0.0
1.6627447387935553e7 -1.20685463547215e7 0.0
0.0 0.0 0.0

5.041806958668983e6 3.2648825793389235e7 0.0
3.2648825793389235e7 -7.778301596413551e6 0.0
0.0 0.0 0.0

494619.189241983 1.7221379808538742e7 0.0
1.7221379808538742e7 -1.3550878010004058e7 0.0
0.0 0.0 0.0

-9.47253983998414e6 682699.9949600793 0.0
682699.9949600793 2.436142399246315e7 0.0
0.0 0.0 0.0

523071.67096019257 2.371588838276496e7 0.0
2.371588838276496e7 -1.6066287024619572e7 0.0
0.0 0.0 0.0

2.1186871306764804e7 5.65297293331467e7 0.0
5.65297293331467e7 -7.82213742713524e6 0.0
0.0 0.0 0.0

9.682226909950688e6 2.83649517150203e7 0.0
2.83649517150203e7 -4.1898093171096393e6 0.0
0.0 0.0 0.0

1.2855488377704984e6 2.2957828730093095e7 0.0
2.2957828730093095e7 -1.9604679618476417e7 0.0
0.0 0.0 0.0

-2.5003171549649164e6 1.806895507131139e7 0.0
1.806895507131139e7 9.8375915966995e6 0.0
0.0 0.0 0.0

-2.453539154518848e6 2.2366370331794634e7 0.0
2.2366370331794634e7 -200142.22941594874 0.0
0.0 0.0 0.0

2.3914645264215246e6 3.1490145830837726e6 0.0
3.1490145830837726e6 -3.868941737741245e7 0.0
0.0 0.0 0.0

2.773375098822333e6 4.259463505980439e6 0.0
4.259463505980439e6 -1.4771694361129569e7 0.0
0.0 0.0 0.0

-4.289311284459483e6 1.199920173511404e7 0.0
1.199920173511404e7 3.2397677830459746e6 0.0
0.0 0.0 0.0

-1.2371442299354572e7 2.6853719249333326e7 0.0
2.6853719249333326e7 -2.870797702868366e6 0.0
0.0 0.0 0.0

1.9791911629062425e6 6.497089579497205e6 0.0
6.497089579497205e6 -2.561930337802848e7 0.0
0.0 0.0 0.0

97860.53904064186 1.9719189663543057e7 0.0
1.9719189663543057e7 -1.7968214146201e7 0.0
0.0 0.0 0.0

182748.86401086766 2.440609821086604e7 0.0
2.440609821086604e7 1.4128713218873259e7 0.0
0.0 0.0 0.0

1.6567723725730032e6 1.3991754250887498e7 0.0
1.3991754250887498e7 -2.9972060458439045e7 0.0
0.0 0.0 0.0

-9.966056037470233e6 8.571794947248738e6 0.0
8.571794947248738e6 2.5977316550045583e7 0.0
0.0 0.0 0.0

-3.294299232001797e7 3.6573810067049176e7 0.0
3.6573810067049176e7 3.0769391220818367e6 0.0
0.0 0.0 0.0

1.5313161783565637e6 1.31477324914698e7 0.0
1.31477324914698e7 -3.435312532618562e7 0.0
0.0 0.0 0.0

-6.6441252301586315e7 6.611626852022329e6 0.0
6.611626852022329e6 3.4482589813993983e6 0.0
0.0 0.0 0.0

1.7133410372664891e6 8.2093333041138165e6 0.0
8.2093333041138165e6 -2.500695041125439e7 0.0
0.0 0.0 0.0

-1.9052058612801768e6 2.3285766717510685e7 0.0
2.3285766717510685e7 2.5831478671527296e7 0.0
0.0 0.0 0.0

-1.8933114475694057e6 1.700112871622994e7 0.0
1.700112871622994e7 -4.337489649173436e7 0.0
0.0 0.0 0.0

-80727.3717202805 1.8435306648273017e7 0.0
1.8435306648273017e7 -3.2372742513509154e7 0.0
0.0 0.0 0.0

-9.407188532892942e6 4.801936900127249e6 0.0
4.801936900127249e6 1.9260341984991338e7 0.0
0.0 0.0 0.0

-9.53946625704076e6 1.2176793075266743e7 0.0
1.2176793075266743e7 3.3257192454903133e7 0.0
0.0 0.0 0.0

-2.651884965959599e6 1.8866084872256853e7 0.0
1.8866084872256853e7 -2.202340613393782e6 0.0
0.0 0.0 0.0

-2.996075843365277e6 1.7161048225906488e7 0.0
1.7161048225906488e7 1.2021826037951596e7 0.0
0.0 0.0 0.0

-8.894831077877486e6 1.0921950924215445e7 0.0
1.0921950924215445e7 3.873015296322424e7 0.0
0.0 0.0 0.0

-1.633528819157927e6 1.8266267458293714e7 0.0
1.8266267458293714e7 -1.198498178518627e6 0.0
0.0 0.0 0.0

380821.43998979684 2.257900393267807e7 0.0
2.257900393267807e7 -1.6957572635217387e7 0.0
0.0 0.0 0.0

951789.5598666435 2.3949770325042408e7 0.0
2.3949770325042408e7 -1.339989355281585e7 0.0
0.0 0.0 0.0

817090.7530193608 2.47627516662583e7 0.0
2.47627516662583e7 -1.519723099813353e7 0.0
0.0 0.0 0.0

574132.4468482742 1.8454855207701877e7 0.0
1.8454855207701877e7 -2.203966662048505e7 0.0
0.0 0.0 0.0

1.1259393323237682e6 1.031890527681406e7 0.0
1.031890527681406e7 -1.9309688586561527e7 0.0
0.0 0.0 0.0

-1.1605952759182772e6 2.4004259627273202e7 0.0
2.4004259627273202e7 -6.759268357957962e6 0.0
0.0 0.0 0.0

14109.930769347586 2.308328955812267e7 0.0
2.308328955812267e7 -1.4803223932521135e7 0.0
0.0 0.0 0.0

7373.002651258837 1.7497653193452183e7 0.0
1.7497653193452183e7 -1.074356023677381e7 0.0
0.0 0.0 0.0

-9.854115619813174e6 7.325061844477255e6 0.0
7.325061844477255e6 2.490106799906077e7 0.0
0.0 0.0 0.0

621805.7554164436 1.767215516605511e7 0.0
1.767215516605511e7 -2.37207275752158e7 0.0
0.0 0.0 0.0

-2.2217003643378206e7 2.2940685817887817e7 0.0
2.2940685817887817e7 -7.405667865252101e7 0.0
0.0 0.0 0.0

-9.000026636481982e6 6.775869480436898e6 0.0
6.775869480436898e6 1.8021596309792913e7 0.0
0.0 0.0 0.0

1.480545169730424e6 9.833236771250665e6 0.0
9.833236771250665e6 -2.4441790722851828e7 0.0
0.0 0.0 0.0

-1.0603329352436443e6 8.434750990751695e6 0.0
8.434750990751695e6 -5.259995098392212e6 0.0
0.0 0.0 0.0

-6.703911714964051e6 1.699641884402591e7 0.0
1.699641884402591e7 -7.583477114868975e7 0.0
0.0 0.0 0.0

-3.2811839444230525e6 1.8160002932198524e7 0.0
1.8160002932198524e7 1.5575613046550017e7 0.0
0.0 0.0 0.0

2.6470405016737916e6 7.532074852375631e6 0.0
7.532074852375631e6 -2.3922216304188367e7 0.0
0.0 0.0 0.0

-1.0089139403404253e7 1.193467633627655e7 0.0
1.193467633627655e7 2.9515899521940786e7 0.0
0.0 0.0 0.0

-5.998237672309779e6 3.883226262464358e6 0.0
3.883226262464358e6 5.681024184610786e7 0.0
0.0 0.0 0.0

429033.87060049817 2.267584106854068e7 0.0
2.267584106854068e7 -2.4941055406096186e6 0.0
0.0 0.0 0.0

2.699133130602334e6 2.0296701404163957e7 0.0
2.0296701404163957e7 6.881677774920443e6 0.0
0.0 0.0 0.0

-8.463602660839407e6 2.995761862662263e7 0.0
2.995761862662263e7 8.7801120586959e6 0.0
0.0 0.0 0.0

-2.4451456542833834e6 2.5056577446450494e7 0.0
2.5056577446450494e7 5.380066372645901e6 0.0
0.0 0.0 0.0

2.123758449655384e6 5.160265612921127e6 0.0
5.160265612921127e6 -4.40993135123868e7 0.0
0.0 0.0 0.0

2.190408753045926e6 5.9954588867669515e6 0.0
5.9954588867669515e6 -4.469307983183773e7 0.0
0.0 0.0 0.0

-6.9605509086862635e6 1.7216245426480338e7 0.0
1.7216245426480338e7 3.3325911700049732e7 0.0
0.0 0.0 0.0

326335.17558195535 2.1411644465442643e7 0.0
2.1411644465442643e7 -1.7901725550629307e7 0.0
0.0 0.0 0.0

1.2398808048285611e7 2.682350198238378e7 0.0
2.682350198238378e7 3.0458924296971974e6 0.0
0.0 0.0 0.0

-5.869750333967086e6 6.129564342047869e6 0.0
6.129564342047869e6 6.4888688848667346e7 0.0
0.0 0.0 0.0

-1.9792138666286343e6 2.1906066781471334e7 0.0
2.1906066781471334e7 1.1915545014494779e7 0.0
0.0 0.0 0.0

-979064.6009155298 2.109030486257527e7 0.0
2.109030486257527e7 -1.1586139239316711e7 0.0
0.0 0.0 0.0

2.4547191038817093e6 1.852993731487826e7 0.0
1.852993731487826e7 6.795180989471991e7 0.0
0.0 0.0 0.0

-940000.9062774408 5.793977509642605e6 0.0
5.793977509642605e6 2.1799549134137277e6 0.0
0.0 0.0 0.0

499542.65367879113 2.8495256103139006e7 0.0
2.8495256103139006e7 -8.837753808107773e6 0.0
0.0 0.0 0.0

7.247089761207954e6 2.4347648568887047e7 0.0
2.4347648568887047e7 2.0237437125160348e7 0.0
0.0 0.0 0.0

2.390178791418626e6 9.191865574967477e6 0.0
9.191865574967477e6 -2.341272436766774e7 0.0
0.0 0.0 0.0

-2.975763824953306e6 1.6760884063011376e7 0.0
1.6760884063011376e7 -735413.2698064881 0.0
0.0 0.0 0.0

-2.0298426705402918e6 1.7564282911636252e7 0.0
1.7564282911636252e7 5.158915937462957e7 0.0
0.0 0.0 0.0

1.2382368280298095e6 1.0563417273647817e7 0.0
1.0563417273647817e7 -4.416550078298113e7 0.0
0.0 0.0 0.0

1.1207993981867824e6 2.2246869689971283e7 0.0
2.2246869689971283e7 -2.1265394656029224e7 0.0
0.0 0.0 0.0

-7.40656116518838e6 2.615008616609445e6 0.0
2.615008616609445e6 4.608817037578601e7 0.0
0.0 0.0 0.0

933283.8392354585 1.241349020358637e7 0.0
1.241349020358637e7 -4.211212628478669e7 0.0
0.0 0.0 0.0

-105911.75929281348 1.1935290518460294e7 0.0
1.1935290518460294e7 -6.908530693393163e6 0.0
0.0 0.0 0.0

1.9926129875435233e6 9.748455607137483e6 0.0
9.748455607137483e6 -3.6901473808903396e7 0.0
0.0 0.0 0.0

-80651.00358821545 1.7470179368645936e7 0.0
1.7470179368645936e7 -1.6904276695637282e7 0.0
0.0 0.0 0.0

290845.81036071293 2.017349939960787e7 0.0
2.017349939960787e7 -1.8789659781936593e7 0.0
0.0 0.0 0.0

-9.185556467977e6 9.663552973148406e6 0.0
9.663552973148406e6 3.7793785898248196e7 0.0
0.0 0.0 0.0

5.490019083184699e6 2.498584492729403e7 0.0
2.498584492729403e7 6.397152889463259e6 0.0
0.0 0.0 0.0

-1.0206914277471662e7 6.083484149450975e6 0.0
6.083484149450975e6 2.374219543455146e7 0.0
0.0 0.0 0.0

1.1064390922105387e6 1.9105992558615055e7 0.0
1.9105992558615055e7 -2.634810819779572e7 0.0
0.0 0.0 0.0

-5.935660109909491e6 6.511443231218998e6 0.0
6.511443231218998e6 1.2215393629898692e7 0.0
0.0 0.0 0.0

252330.83943448635 6.022004956000912e6 0.0
6.022004956000912e6 -6.833585893351508e6 0.0
0.0 0.0 0.0

-54688.232579938136 1.9268878542537767e7 0.0
1.9268878542537767e7 -1.7173828603346635e7 0.0
0.0 0.0 0.0

2.852811656730759e6 5.64767613513124e6 0.0
5.64767613513124e6 -2.43505854840195e7 0.0
0.0 0.0 0.0

-9.796962232127149e6 5.581447681008945e6 0.0
5.581447681008945e6 3.3442816536583904e7 0.0
0.0 0.0 0.0

694992.8922746554 3.5246797630075766e6 0.0
3.5246797630075766e6 -6.5903184368608154e7 0.0
0.0 0.0 0.0

-1.635577753697796e6 2.1600349594296444e7 0.0
2.1600349594296444e7 -5.451925270918833e6 0.0
0.0 0.0 0.0

-9.741546108469041e6 1.4028771968459038e7 0.0
1.4028771968459038e7 2.590524911142012e7 0.0
0.0 0.0 0.0

-9.713273114691546e6 2.878335841443906e7 0.0
2.878335841443906e7 6.068292393638624e6 0.0
0.0 0.0 0.0

5.123020227893406e6 2.5739444586367965e7 0.0
2.5739444586367965e7 1.1266970265665429e7 0.0
0.0 0.0 0.0

-3.6360794357211795e6 2.130436443741391e7 0.0
2.130436443741391e7 3.250628872565587e7 0.0
0.0 0.0 0.0

-3.424099889946215e6 2.2931520539775085e7 0.0
2.2931520539775085e7 2.4415645794597834e7 0.0
0.0 0.0 0.0

-7.343968620195741e6 360397.8042806992 0.0
360397.8042806992 4.6086820603176594e7 0.0
0.0 0.0 0.0

-2.402868531176563e6 1.6845434017519146e7 0.0
1.6845434017519146e7 6.224736249232784e6 0.0
0.0 0.0 0.0

6.716698324894472e6 2.450333605310211e7 0.0
2.450333605310211e7 1.9917130528847333e7 0.0
0.0 0.0 0.0

-4.0126314902479816e6 2.6987895800700262e7 0.0
2.6987895800700262e7 1.3774418166258767e7 0.0
0.0 0.0 0.0

-9.872747701421019e6 1.1247995269436864e7 0.0
1.1247995269436864e7 3.21907759057568e7 0.0
0.0 0.0 0.0

425938.1410981566 1.715539896219638e7 0.0
1.715539896219638e7 -3.0024761900819283e7 0.0
0.0 0.0 0.0

1.7777625450986894e6 7.784566800435642e6 0.0
7.784566800435642e6 -2.1187873865978252e7 0.0
0.0 0.0 0.0

1.0837885361235067e6 2.106905987651363e7 0.0
2.106905987651363e7 -1.7355700463383146e7 0.0
0.0 0.0 0.0

-2.654948424613303e6 1.5320726868197866e7 0.0
1.5320726868197866e7 6.451916518785697e6 0.0
0.0 0.0 0.0

2.8978116841726163e6 5.685745567071954e6 0.0
5.685745567071954e6 -1.4990040523365812e7 0.0
0.0 0.0 0.0

387323.9796318286 2.9238264383827403e7 0.0
2.9238264383827403e7 -7.534315668229302e6 0.0
0.0 0.0 0.0

-6.302809129766624e6 5.46900495833389e6 0.0
5.46900495833389e6 5.4257839225134365e7 0.0
0.0 0.0 0.0

-7.364154426752765e6 3.678841617079461e6 0.0
3.678841617079461e6 4.757875525101932e7 0.0
0.0 0.0 0.0

-6.229319448513741e6 1.3995856048038097e7 0.0
1.3995856048038097e7 4.729063075648642e7 0.0
0.0 0.0 0.0

717114.8926476324 2.6554960550490256e7 0.0
2.6554960550490256e7 -1.2345289277806733e7 0.0
0.0 0.0 0.0

-2.958442597460038e6 1.0166197356942909e7 0.0
1.0166197356942909e7 -1.238337186459403e6 0.0
0.0 0.0 0.0

2.3136852608083915e7 2.8448313838495117e7 0.0
2.8448313838495117e7 1.8347397187378496e7 0.0
0.0 0.0 0.0

1.6869063144799106e7 2.4348188399048388e7 0.0
2.4348188399048388e7 6.7098716719122216e7 0.0
0.0 0.0 0.0

2.7610760522155315e6 6.98482303308447e6 0.0
6.98482303308447e6 -1.990748963094917e7 0.0
0.0 0.0 0.0

-9.849587768372986e6 7.963086493146232e6 0.0
7.963086493146232e6 2.8480242642474744e7 0.0
0.0 0.0 0.0

-2.183101573951231e6 1.8299043057720784e7 0.0
1.8299043057720784e7 6.004453414588048e6 0.0
0.0 0.0 0.0

-3.4997581171542956e6 2.5132287121898998e7 0.0
2.5132287121898998e7 1.8524275094213467e7 0.0
0.0 0.0 0.0

1.804810366308488e6 6.576749409885768e6 0.0
6.576749409885768e6 -4.801714054639857e7 0.0
0.0 0.0 0.0

1.9906906475284286e6 7.819892410045021e6 0.0
7.819892410045021e6 -4.091224330573537e7 0.0
0.0 0.0 0.0

-8.299918105408432e6 7.771600684000569e6 0.0
7.771600684000569e6 1.0121152174540132e7 0.0
0.0 0.0 0.0

-1.8746958366397293e6 2.3219315462252278e7 0.0
2.3219315462252278e7 1.1369409829228884e7 0.0
0.0 0.0 0.0

2.2997021924144328e6 1.8867956454556983e7 0.0
1.8867956454556983e7 6.318832302539947e7 0.0
0.0 0.0 0.0

1.1254066832446586e6 2.2288365951236576e7 0.0
2.2288365951236576e7 -1.6499870032058137e7 0.0
0.0 0.0 0.0

-5.446422532806469e6 9.150075376246346e6 0.0
9.150075376246346e6 1.2233321125800326e7 0.0
0.0 0.0 0.0

2.010602346874155e6 6.856479522625997e6 0.0
6.856479522625997e6 -4.2879240664999776e7 0.0
0.0 0.0 0.0

-2.901847556010469e6 2.5986098922707643e7 0.0
2.5986098922707643e7 1.1896706424975429e7 0.0
0.0 0.0 0.0

1.5309996031509843e6 9.511675775349382e6 0.0
9.511675775349382e6 -2.718290768813671e7 0.0
0.0 0.0 0.0

-8.642953111755667e6 1.0383347696068995e7 0.0
1.0383347696068995e7 -300392.487042747 0.0
0.0 0.0 0.0

155443.31318570208 1.8436746555437673e7 0.0
1.8436746555437673e7 -1.8755013035284784e7 0.0
0.0 0.0 0.0

-7.300334645628379e6 3.5380023066006023e6 0.0
3.5380023066006023e6 7.15183839615218e6 0.0
0.0 0.0 0.0

-2.9294288221509377e6 1.3703486334394824e7 0.0
1.3703486334394824e7 6.701938209310971e6 0.0
0.0 0.0 0.0

-3.165832667034748e6 1.190353071823706e7 0.0
1.190353071823706e7 6.995900479182316e6 0.0
0.0 0.0 0.0

-205206.8238174133 1.873968802194683e7 0.0
1.873968802194683e7 -1.6321467118890617e7 0.0
0.0 0.0 0.0

-2.855783802683115e6 1.824751274812102e7 0.0
1.824751274812102e7 -592058.8973296615 0.0
0.0 0.0 0.0

-9.266987751492577e6 1.1477360158863056e7 0.0
1.1477360158863056e7 3.597587592614921e7 0.0
0.0 0.0 0.0

-1.1547521199622564e6 1.6509140473400561e7 0.0
1.6509140473400561e7 5.9513953016737245e7 0.0
0.0 0.0 0.0

-4.605890383415472e6 1.391112247908243e7 0.0
1.391112247908243e7 5.415030189919719e7 0.0
0.0 0.0 0.0

-1.6529918748282976e6 1.706587388804086e7 0.0
1.706587388804086e7 5.537239126141033e7 0.0
0.0 0.0 0.0

-3.4784627508823946e6 9.081389647491215e6 0.0
9.081389647491215e6 7.986270902086803e7 0.0
0.0 0.0 0.0

-479029.2985563162 2.4639147001805805e7 0.0
2.4639147001805805e7 1.0865652767149571e7 0.0
0.0 0.0 0.0

-6.054185081413381e6 7.476346170397218e6 0.0
7.476346170397218e6 6.148062336022014e7 0.0
0.0 0.0 0.0

-1.088463486855202e6 2.721466370269019e7 0.0
2.721466370269019e7 -5.787296467298533e6 0.0
0.0 0.0 0.0

-2.2964024761973927e6 2.3763394191127084e7 0.0
2.3763394191127084e7 -1.387421566551204e7 0.0
0.0 0.0 0.0

-6.968526189699195e7 4.326091639330535e7 0.0
4.326091639330535e7 -1.5407549792590015e7 0.0
0.0 0.0 0.0

2.447165491112641e6 8.74034101129973e6 0.0
8.74034101129973e6 -1.967547293187927e7 0.0
0.0 0.0 0.0

1.6685197368374243e6 1.4897245182447221e7 0.0
1.4897245182447221e7 -2.8413631090555172e7 0.0
0.0 0.0 0.0

828683.877584096 2.9489102810811743e7 0.0
2.9489102810811743e7 -6.330099790646536e6 0.0
0.0 0.0 0.0

-1.5316651205702224e6 2.7577147107916176e7 0.0
2.7577147107916176e7 4.709154021636472e6 0.0
0.0 0.0 0.0

2.1443918167802095e6 8.863741171922693e6 0.0
8.863741171922693e6 -3.624062689616468e7 0.0
0.0 0.0 0.0

2.4064583179599516e7 3.1192517389635473e7 0.0
3.1192517389635473e7 -2.1362134389743637e6 0.0
0.0 0.0 0.0

-4.173378647509582e6 1.4547836117588798e7 0.0
1.4547836117588798e7 5.268694665836728e6 0.0
0.0 0.0 0.0

-382720.5360677466 6.919125127625704e6 0.0
6.919125127625704e6 -6.728583528030235e7 0.0
0.0 0.0 0.0

-4.695869240788262e6 1.2852864848935684e7 0.0
1.2852864848935684e7 5.390793544207524e6 0.0
0.0 0.0 0.0

1.4278805159080746e6 9.430345678145204e6 0.0
9.430345678145204e6 -2.079862117507348e7 0.0
0.0 0.0 0.0

-3.605934778643623e6 2.1808649895348303e7 0.0
2.1808649895348303e7 3.053121719777176e7 0.0
0.0 0.0 0.0

-4.560521036660682e7 3.634751225492132e7 0.0
3.634751225492132e7 -1.5105417016638573e6 0.0
0.0 0.0 0.0

-8.654067469021093e6 2.440058029527685e6 0.0
2.440058029527685e6 3.7996508737418815e7 0.0
0.0 0.0 0.0

1.2084200101665892e6 2.3428184674110156e7 0.0
2.3428184674110156e7 -1.5608714674331909e7 0.0
0.0 0.0 0.0

-2.089902234111538e7 3.040765675044735e7 0.0
3.040765675044735e7 -1.081979315667926e7 0.0
0.0 0.0 0.0

2.8362850407820847e6 6.233407519481555e6 0.0
6.233407519481555e6 -1.905441060321916e7 0.0
0.0 0.0 0.0

-9.248639786318487e6 1.243616997474957e7 0.0
1.243616997474957e7 3.0425100456328295e7 0.0
0.0 0.0 0.0

790566.331249957 2.01610634240359e7 0.0
2.01610634240359e7 -1.5777288809031647e7 0.0
0.0 0.0 0.0

-707547.7537831594 1.9151552242846906e7 0.0
1.9151552242846906e7 -7.2946230694409385e6 0.0
0.0 0.0 0.0

-3.7374423788462705e6 1.611024099735949e7 0.0
1.611024099735949e7 5.103077887628473e6 0.0
0.0 0.0 0.0

-6.944432505016601e6 1.2423059162759548e7 0.0
1.2423059162759548e7 4.720302618947158e7 0.0
0.0 0.0 0.0

2.442668934840111e6 4.356169508603432e6 0.0
4.356169508603432e6 -4.025306891539051e7 0.0
0.0 0.0 0.0

2.1325795337258615e6 5.808150475447448e6 0.0
5.808150475447448e6 -2.4166837426235683e7 0.0
0.0 0.0 0.0

-2.8170465549725182e6 2.560415028488575e7 0.0
2.560415028488575e7 1.0875033237521853e7 0.0
0.0 0.0 0.0

-1.0872086854275666e7 4.101282075553831e6 0.0
4.101282075553831e6 1.768362450943061e7 0.0
0.0 0.0 0.0

-238429.52002615388 1.6907193323678013e7 0.0
1.6907193323678013e7 -1.5966130922096564e7 0.0
0.0 0.0 0.0

2.444342483040657e6 7.729705162389207e6 0.0
7.729705162389207e6 -3.0271424654425543e7 0.0
0.0 0.0 0.0

-6.985616380478639e6 6.926127910073072e6 0.0
6.926127910073072e6 5.1210647152071916e7 0.0
0.0 0.0 0.0

-1.2110757091486556e6 2.4902170505985387e7 0.0
2.4902170505985387e7 7.56072988358297e6 0.0
0.0 0.0 0.0

-9.68126872152982e6 4.413787047599222e6 0.0
4.413787047599222e6 3.252597826079277e7 0.0
0.0 0.0 0.0

450951.60939005576 1.4206555061844958e7 0.0
1.4206555061844958e7 -4.0246407353566356e7 0.0
0.0 0.0 0.0

-654494.4510785434 2.173717536966237e7 0.0
2.173717536966237e7 -2.413664304902968e7 0.0
0.0 0.0 0.0

-9.130993519868495e6 1.5235634372676779e7 0.0
1.5235634372676779e7 2.477731456694394e7 0.0
0.0 0.0 0.0

479482.31792729534 1.8352977543217637e7 0.0
1.8352977543217637e7 -3.0201779897925954e7 0.0
0.0 0.0 0.0

1.1691064100601198e6 1.8896319414595284e7 0.0
1.8896319414595284e7 -1.9825889989627007e7 0.0
0.0 0.0 0.0

-2.5150703295524493e6 2.405275545888652e6 0.0
2.405275545888652e6 5.39166053263466e6 0.0
0.0 0.0 0.0

-9.969556705626806e6 3.480011668395566e6 0.0
3.480011668395566e6 2.9033528757814836e7 0.0
0.0 0.0 0.0

-304271.7939929152 1.4380503344782388e7 0.0
1.4380503344782388e7 -1.4271406929589683e7 0.0
0.0 0.0 0.0

45841.6008971734 1.2915192460409883e7 0.0
1.2915192460409883e7 -1.4725150082497638e7 0.0
0.0 0.0 0.0

995814.3261540951 2.0613797737257116e7 0.0
2.0613797737257116e7 -1.6563834469633674e7 0.0
0.0 0.0 0.0

-2.2415324824851025e6 2.512799591419932e7 0.0
2.512799591419932e7 4.246520278558527e6 0.0
0.0 0.0 0.0

827163.55266676 1.1202094756380312e7 0.0
1.1202094756380312e7 -1.7799777014385454e7 0.0
0.0 0.0 0.0

-4.303469392193301e6 1.5819397601642096e7 0.0
1.5819397601642096e7 -6.091297327960604e7 0.0
0.0 0.0 0.0

-1.0768193133429332e7 6.123976037219235e6 0.0
6.123976037219235e6 1.6912875268929787e7 0.0
0.0 0.0 0.0

-1.5015168234470684e7 2.1363429884370275e7 0.0
2.1363429884370275e7 -5.5425546075066805e7 0.0
0.0 0.0 0.0

-1.47541925227441e8 1.8421858839451514e7 0.0
1.8421858839451514e7 -4.394052398321636e6 0.0
0.0 0.0 0.0

1.3893696754198152e8 1.95880677303367e7 0.0
1.95880677303367e7 7.286351990316071e6 0.0
0.0 0.0 0.0

-5.8928136406652015e6 1.6277858523301233e7 0.0
1.6277858523301233e7 -7.031343758475515e7 0.0
0.0 0.0 0.0

-5.407637707393367e6 1.9303960312155277e7 0.0
1.9303960312155277e7 2.553956886747581e7 0.0
0.0 0.0 0.0

-2.33399101938861e6 2.434992210501217e7 0.0
2.434992210501217e7 1.3281876818383797e6 0.0
0.0 0.0 0.0

-588105.4692489845 1.5786664897301618e7 0.0
1.5786664897301618e7 -1.3786789832736997e7 0.0
0.0 0.0 0.0

-1.5380894162525511e6 7.388193696769093e6 0.0
7.388193696769093e6 -3.4375900125551275e6 0.0
0.0 0.0 0.0

-75597.30556360527 8.385636772451717e6 0.0
8.385636772451717e6 -1.9684924151512845e6 0.0
0.0 0.0 0.0

-3.3757704662217493e6 1.7600535437941007e7 0.0
1.7600535437941007e7 4.924331534158429e6 0.0
0.0 0.0 0.0

-5.080886299019445e6 1.6006161000573348e7 0.0
1.6006161000573348e7 -6.5363711591172546e7 0.0
0.0 0.0 0.0

883408.493518373 1.3797043212247837e7 0.0
1.3797043212247837e7 -1.3327873936976302e7 0.0
0.0 0.0 0.0

-8.730433065985588e6 5.475149900416843e6 0.0
5.475149900416843e6 4.149215529906394e7 0.0
0.0 0.0 0.0

1.1507371489127181e8 2.4366716414641708e7 0.0
2.4366716414641708e7 364648.15675096214 0.0
0.0 0.0 0.0

569571.1160219396 1.5241649169462549e7 0.0
1.5241649169462549e7 -1.2909296447809728e7 0.0
0.0 0.0 0.0

2.431419726317577e6 7.216722108462828e6 0.0
7.216722108462828e6 -3.4693447255802885e7 0.0
0.0 0.0 0.0

2.28500278263182e6 8.021966236724061e6 0.0
8.021966236724061e6 -3.547809060623716e7 0.0
0.0 0.0 0.0

-3.5927303503033407e6 2.2335365338366594e7 0.0
2.2335365338366594e7 2.8595525226169705e7 0.0
0.0 0.0 0.0

1.463030458695773e6 1.7253512840877198e7 0.0
1.7253512840877198e7 -2.3026863022770427e7 0.0
0.0 0.0 0.0

-4.697276286499973e6 2.5588271422049496e7 0.0
2.5588271422049496e7 -1.5050353897535404e7 0.0
0.0 0.0 0.0

1.0221883623939345e7 2.8073082634177197e7 0.0
2.8073082634177197e7 -2.510870150930495e6 0.0
0.0 0.0 0.0

-1.8102346531587234e6 1.6073424334112981e7 0.0
1.6073424334112981e7 425755.61557074485 0.0
0.0 0.0 0.0

1.3711642229444538e6 6.688058441089193e6 0.0
6.688058441089193e6 -5.702562356490454e6 0.0
0.0 0.0 0.0

-3.695476890108836e6 1.108924628134993e7 0.0
1.108924628134993e7 1.0475668317981642e6 0.0
0.0 0.0 0.0

-7.780958679211951e6 8.51992817873803e6 0.0
8.51992817873803e6 1.6404184569211876e7 0.0
0.0 0.0 0.0

-8.597302237270385e6 1.9531861114897333e7 0.0
1.9531861114897333e7 -3.93998050830782e7 0.0
0.0 0.0 0.0

1.2881371794745084e6 1.3952525495476894e7 0.0
1.3952525495476894e7 -3.492985834002945e7 0.0
0.0 0.0 0.0

1.7738318625441222e6 6.929230940475946e6 0.0
6.929230940475946e6 -2.016188390659859e7 0.0
0.0 0.0 0.0

1.9280208081907164e6 1.0563762007333059e7 0.0
1.0563762007333059e7 -1.6719766305254461e7 0.0
0.0 0.0 0.0

-1.7935004141191875e6 1.9044606820402797e7 0.0
1.9044606820402797e7 620959.9337963111 0.0
0.0 0.0 0.0

1.355890751505807e6 1.0098734382857729e7 0.0
1.0098734382857729e7 -2.1873367869297754e7 0.0
0.0 0.0 0.0

-2.0812594081359287e6 9.245720429332383e6 0.0
9.245720429332383e6 -3.3367054048233796e6 0.0
0.0 0.0 0.0

2.989748768806042e6 4.777947357988143e6 0.0
4.777947357988143e6 -2.5858173172492888e7 0.0
0.0 0.0 0.0

718979.654886296 1.8296424518862814e7 0.0
1.8296424518862814e7 -1.5607678811712459e7 0.0
0.0 0.0 0.0

-1.0600197495776538e7 8.055210075436614e6 0.0
8.055210075436614e6 1.5772895971427333e7 0.0
0.0 0.0 0.0

729123.1566901212 2.8463396924509358e7 0.0
2.8463396924509358e7 -9.756818888850862e6 0.0
0.0 0.0 0.0

391490.73148867115 6.348644360051264e6 0.0
6.348644360051264e6 -5.812192509257822e7 0.0
0.0 0.0 0.0

634736.9634348517 1.9632048208225533e7 0.0
1.9632048208225533e7 -1.4959249665255232e7 0.0
0.0 0.0 0.0

2.3563833212301303e6 9.6266681027537e6 0.0
9.6266681027537e6 -2.6932518716518227e7 0.0
0.0 0.0 0.0

-4.516568680970776e6 5.419622444861775e6 0.0
5.419622444861775e6 1.005217993979976e7 0.0
0.0 0.0 0.0

2.4253027951296475e6 8.714097467422165e6 0.0
8.714097467422165e6 -2.863830330889614e7 0.0
0.0 0.0 0.0

-1.7160413019944602e6 2.4871876953079626e7 0.0
2.4871876953079626e7 7.845377136733998e6 0.0
0.0 0.0 0.0

3.792843481768793e6 3.0798050248204652e7 0.0
3.0798050248204652e7 -9.197557452816837e6 0.0
0.0 0.0 0.0

-1.858649078389801e6 2.2723088010673467e7 0.0
2.2723088010673467e7 -2.365244768741537e7 0.0
0.0 0.0 0.0

-301861.4868884827 7.550769373967044e6 0.0
7.550769373967044e6 -7.01264174454456e6 0.0
0.0 0.0 0.0

3.621635973047255e6 3.207076360056989e7 0.0
3.207076360056989e7 -7.14600272862496e6 0.0
0.0 0.0 0.0

1.4137174185450897e6 2.626546424969005e7 0.0
2.626546424969005e7 -1.1882354671749497e7 0.0
0.0 0.0 0.0

-1.0693057204894789e7 1.0938757547368452e7 0.0
1.0938757547368452e7 2.4854971368514538e7 0.0
0.0 0.0 0.0

-3.1556469920164477e6 2.6467548426788326e7 0.0
2.6467548426788326e7 1.6284582051466512e7 0.0
0.0 0.0 0.0

-8.329143213347403e6 4.855442183727324e6 0.0
4.855442183727324e6 9.753047960819434e6 0.0
0.0 0.0 0.0

-2.582720127443521e6 1.2896514763638986e7 0.0
1.2896514763638986e7 4.621052296947319e6 0.0
0.0 0.0 0.0

-5.394989033221267e6 9.971583422192946e6 0.0
9.971583422192946e6 5.767887735017568e7 0.0
0.0 0.0 0.0

-4.611752167673226e6 1.6438836633953584e7 0.0
1.6438836633953584e7 1.0944378932170065e7 0.0
0.0 0.0 0.0

4.847580031833282e6 2.4473354002340794e7 0.0
2.4473354002340794e7 3.211963531959249e6 0.0
0.0 0.0 0.0

351012.4939163937 1.6666662767560767e7 0.0
1.6666662767560767e7 -1.240856888633845e7 0.0
0.0 0.0 0.0

-382069.1478360733 1.823798181168918e7 0.0
1.823798181168918e7 -1.5337896750642663e7 0.0
0.0 0.0 0.0

-3.9721480233737137e6 1.5813346489863582e7 0.0
1.5813346489863582e7 -5.680461618216511e7 0.0
0.0 0.0 0.0

-96197.80760576203 6.868825732015901e6 0.0
6.868825732015901e6 -6.2028755287165895e7 0.0
0.0 0.0 0.0

-9.34413190092294e6 1.3669805975615649e7 0.0
1.3669805975615649e7 3.170529265419909e7 0.0
0.0 0.0 0.0

-2.323503003663512e6 2.9378431894523393e7 0.0
2.9378431894523393e7 8.17626846548035e6 0.0
0.0 0.0 0.0

-8.186661727305697e6 5.821801328540786e6 0.0
5.821801328540786e6 4.5991422769791335e7 0.0
0.0 0.0 0.0

1.258382925166429e6 2.4506238447756592e7 0.0
2.4506238447756592e7 -1.4787842050159695e7 0.0
0.0 0.0 0.0

973731.7297416925 2.3802684515511632e7 0.0
2.3802684515511632e7 -1.7934850187445395e7 0.0
0.0 0.0 0.0

1.9470585064407356e7 6.272079638247327e6 0.0
6.272079638247327e6 -1.59420793993467e6 0.0
0.0 0.0 0.0

1.207466116848833e6 1.088597927193652e7 0.0
1.088597927193652e7 -1.1465972814458638e7 0.0
0.0 0.0 0.0

-7.616623201354143e6 1.6536843831974534e7 0.0
1.6536843831974534e7 2.0642144260898948e7 0.0
0.0 0.0 0.0

-4.361479022094119e6 2.2654329376908265e7 0.0
2.2654329376908265e7 -2.2912703310900923e7 0.0
0.0 0.0 0.0

605774.231720184 1.779360722276278e7 0.0
1.779360722276278e7 -1.4625898318705792e7 0.0
0.0 0.0 0.0

975256.5290046502 1.9349816788979102e7 0.0
1.9349816788979102e7 -1.7381523727679357e7 0.0
0.0 0.0 0.0

-5.355647370906863e6 1.5592052772725862e7 0.0
1.5592052772725862e7 4.537333915258222e7 0.0
0.0 0.0 0.0

-9.742723518678842e6 1.3492779195903677e7 0.0
1.3492779195903677e7 2.831281547693471e7 0.0
0.0 0.0 0.0

-573778.5179068213 1.7712696474577386e7 0.0
1.7712696474577386e7 -1.4338289408775672e7 0.0
0.0 0.0 0.0

-937396.2354838504 2.230185301604396e7 0.0
2.230185301604396e7 -1.1148716898322234e7 0.0
0.0 0.0 0.0

-7.114115314878281e6 2.295983200529113e7 0.0
2.295983200529113e7 -1.494054812302958e7 0.0
0.0 0.0 0.0

-999354.4450552006 3.0857074040278234e7 0.0
3.0857074040278234e7 -2.658221948850163e6 0.0
0.0 0.0 0.0

967165.5272053368 1.4069599706198396e7 0.0
1.4069599706198396e7 -3.751197016804289e7 0.0
0.0 0.0 0.0

-2.0180551342284235e6 3.6932631905863576e7 0.0
3.6932631905863576e7 2.7486705763025573e6 0.0
0.0 0.0 0.0

-6.470926919368611e6 1.7343802901824143e7 0.0
1.7343802901824143e7 1.8662011250074655e7 0.0
0.0 0.0 0.0

-1.1280686235124517e7 2.878963294600859e7 0.0
2.878963294600859e7 -1.386071160638735e7 0.0
0.0 0.0 0.0

57037.852258794475 2.1231436460735504e7 0.0
2.1231436460735504e7 -2.1695215474423063e6 0.0
0.0 0.0 0.0

-1.1567791570990672e6 2.314028275331494e7 0.0
2.314028275331494e7 -2.1735199072288606e7 0.0
0.0 0.0 0.0

-3.0752796564030945e6 2.2828553304057594e7 0.0
2.2828553304057594e7 -1.374709277927959e7 0.0
0.0 0.0 0.0

-3.2195498828160726e6 2.8257794900708705e7 0.0
2.8257794900708705e7 1.0936658625188971e7 0.0
0.0 0.0 0.0

859164.3791847182 2.2715975758587785e7 0.0
2.2715975758587785e7 -1.4207649283752067e7 0.0
0.0 0.0 0.0

-765681.62928038 1.718894160598727e7 0.0
1.718894160598727e7 -1.3246495920705745e7 0.0
0.0 0.0 0.0

-1.0179926672512144e6 2.136605087023053e7 0.0
2.136605087023053e7 -2.6710241208123807e7 0.0
0.0 0.0 0.0

-1.8510783527044002e6 1.425268084011411e7 0.0
1.425268084011411e7 -6.740189112088478e6 0.0
0.0 0.0 0.0

-2.1407073658567136e6 2.7694744297161143e7 0.0
2.7694744297161143e7 2.6706494169309726e6 0.0
0.0 0.0 0.0

-797138.0301757089 3.0178255680612728e7 0.0
3.0178255680612728e7 -3.950015661250083e6 0.0
0.0 0.0 0.0

-3.062390382271104e6 4.580546385563418e6 0.0
4.580546385563418e6 7.378528797297809e6 0.0
0.0 0.0 0.0

-10447.211629390717 1.2231599171618804e7 0.0
1.2231599171618804e7 -1.3548078540871244e7 0.0
0.0 0.0 0.0

-242543.64640430314 3.2116548806225523e7 0.0
3.2116548806225523e7 -555300.5490215503 0.0
0.0 0.0 0.0

-2.5135309296235912e6 2.4313542899991687e7 0.0
2.4313542899991687e7 6.951778566272184e6 0.0
0.0 0.0 0.0

-1.1014082755701463e8 1.1432585659769667e7 0.0
1.1432585659769667e7 -473564.3001447916 0.0
0.0 0.0 0.0

67839.49158558808 1.9011850295127377e7 0.0
1.9011850295127377e7 -3.0352792281674508e7 0.0
0.0 0.0 0.0

-2.854543200618323e6 2.268192365450607e7 0.0
2.268192365450607e7 1.0550748493135119e7 0.0
0.0 0.0 0.0

-412989.3590753733 2.7526616829444297e7 0.0
2.7526616829444297e7 -3.6362534227847047e6 0.0
0.0 0.0 0.0

-2.7157000915051186e6 2.396639041569176e7 0.0
2.396639041569176e7 1.0069726773956597e7 0.0
0.0 0.0 0.0

-3.01691364146675e6 2.5402938241129108e7 0.0
2.5402938241129108e7 1.0020050797190971e6 0.0
0.0 0.0 0.0

827318.8672999665 2.4757652520137265e7 0.0
2.4757652520137265e7 -1.2161045081034914e7 0.0
0.0 0.0 0.0

-5.235587578553391e6 1.8204211491728872e7 0.0
1.8204211491728872e7 1.6271769402680185e7 0.0
0.0 0.0 0.0

-9.113414555684492e6 9.939176681993762e6 0.0
9.939176681993762e6 3.476052388755746e7 0.0
0.0 0.0 0.0

-855714.1649628229 1.5064408821745949e7 0.0
1.5064408821745949e7 -5.240282024786528e6 0.0
0.0 0.0 0.0

2.5516656096735094e6 6.473058523911574e6 0.0
6.473058523911574e6 -1.354109083173934e7 0.0
0.0 0.0 0.0

-1.7839066024449905e6 1.9693771704079892e7 0.0
1.9693771704079892e7 -8.171530368644267e6 0.0
0.0 0.0 0.0

782144.3515466573 2.567359181525635e7 0.0
2.567359181525635e7 -1.3752501614115622e7 0.0
0.0 0.0 0.0

-2.616305606676421e6 2.3032544129778646e7 0.0
2.3032544129778646e7 7.269844599311685e6 0.0
0.0 0.0 0.0

-2.500098519057146e6 1.803348833697412e7 0.0
1.803348833697412e7 -4.0235352317672134e6 0.0
0.0 0.0 0.0

-9.154015565055847e6 2.8122225935245487e6 0.0
2.8122225935245487e6 2.008131133516104e7 0.0
0.0 0.0 0.0

1.78741596116078e6 6.334290305239717e6 0.0
6.334290305239717e6 -1.6082543805520365e7 0.0
0.0 0.0 0.0

-7.647900738991095e6 9.105071718266645e6 0.0
9.105071718266645e6 4.523466251890298e7 0.0
0.0 0.0 0.0

-1.0620015812854605e7 6.03862702839236e6 0.0
6.03862702839236e6 2.580082175241082e7 0.0
0.0 0.0 0.0

145649.7876726184 2.2379637135561712e7 0.0
2.2379637135561712e7 2.9744364470140897e7 0.0
0.0 0.0 0.0

-848057.2409481197 2.3499102834424544e7 0.0
2.3499102834424544e7 -1.0650578312559187e7 0.0
0.0 0.0 0.0

-185298.06363949133 1.1466992786022635e7 0.0
1.1466992786022635e7 -1.2396019874178795e7 0.0
0.0 0.0 0.0

-7.072169098535242e6 8.750199326379864e6 0.0
8.750199326379864e6 4.873061078866735e7 0.0
0.0 0.0 0.0

-60377.672310679685 2.7908011943290204e7 0.0
2.7908011943290204e7 -4.70558675807521e6 0.0
0.0 0.0 0.0

-3.3418506700294833e6 1.687738325677842e7 0.0
1.687738325677842e7 3.0644221995778014e6 0.0
0.0 0.0 0.0

-2.0539575665437148e6 1.202266414305294e7 0.0
1.202266414305294e7 2.487991769366382e6 0.0
0.0 0.0 0.0

-2.10594781117432e6 1.5698804013078958e7 0.0
1.5698804013078958e7 -6.289214315729675e6 0.0
0.0 0.0 0.0

-4.672168095048764e6 2.065223198862742e7 0.0
2.065223198862742e7 -3.592544470300629e7 0.0
0.0 0.0 0.0

-1.7576207919398039e6 2.407317778317092e7 0.0
2.407317778317092e7 9.542431010040516e6 0.0
0.0 0.0 0.0

1.5088926939806845e6 2.3735694498180006e7 0.0
2.3735694498180006e7 -1.7923620901124947e7 0.0
0.0 0.0 0.0

4.720864449503478e6 1.9543098664549224e7 0.0
1.9543098664549224e7 7.461447216745427e7 0.0
0.0 0.0 0.0

7.348228178150836e6 2.7264088802294128e7 0.0
2.7264088802294128e7 1.4838531863414634e7 0.0
0.0 0.0 0.0

-8.347890427481873e6 1.6239811277442351e7 0.0
1.6239811277442351e7 2.3425522043367706e7 0.0
0.0 0.0 0.0

1.5168613449429907e6 1.476854944487482e7 0.0
1.476854944487482e7 -3.053087542254537e7 0.0
0.0 0.0 0.0

-1.4218966303726847e6 1.8859925060453527e7 0.0
1.8859925060453527e7 -2.7485777056229133e6 0.0
0.0 0.0 0.0

3.0779678194667306e6 2.7332881214753915e7 0.0
2.7332881214753915e7 -1.285825397503085e7 0.0
0.0 0.0 0.0

-2.160272096423762e6 3.09120698958305e7 0.0
3.09120698958305e7 5.684765783737733e6 0.0
0.0 0.0 0.0

-640293.4856595693 2.9420514081344087e7 0.0
2.9420514081344087e7 -5.063008347497617e6 0.0
0.0 0.0 0.0

-448402.7139366707 2.3668978118146833e7 0.0
2.3668978118146833e7 -1.984007126847754e7 0.0
0.0 0.0 0.0

-1.3532912118597545e6 1.7438237239187125e7 0.0
1.7438237239187125e7 -3.045950048391279e6 0.0
0.0 0.0 0.0

-2.5553854998831227e6 2.477161454559986e7 0.0
2.477161454559986e7 8.334581713860942e6 0.0
0.0 0.0 0.0

-1.0964816510048756e7 9.995839223461913e6 0.0
9.995839223461913e6 2.3331657637306273e7 0.0
0.0 0.0 0.0

1.9561281091908924e6 6.126311167268096e6 0.0
6.126311167268096e6 -1.883274507702163e7 0.0
0.0 0.0 0.0

-1.0008187395344637e6 1.9994649291776534e7 0.0
1.9994649291776534e7 -5.587295186252947e6 0.0
0.0 0.0 0.0

2.1789899880202105e6 1.0776373687332148e7 0.0
1.0776373687332148e7 -2.292138729107543e7 0.0
0.0 0.0 0.0

-1.5562681276829925e6 2.4354541647088494e7 0.0
2.4354541647088494e7 3.921736897257941e6 0.0
0.0 0.0 0.0

-1.3282397115354938e6 1.1161452135207662e7 0.0
1.1161452135207662e7 275397.3467708485 0.0
0.0 0.0 0.0

1.1863991825439187e6 3.4711749204472534e7 0.0
3.4711749204472534e7 -4.1395346973278206e6 0.0
0.0 0.0 0.0

-7.227664824992812e7 6.438694294479851e6 0.0
6.438694294479851e6 3.8630136611479297e6 0.0
0.0 0.0 0.0

-635494.6082342663 1.023256172479913e7 0.0
1.023256172479913e7 -1.8297525536872258e6 0.0
0.0 0.0 0.0

-5.471267839518696e6 1.9328404844509408e7 0.0
1.9328404844509408e7 -4.467885108940074e7 0.0
0.0 0.0 0.0

2.2687714060586863e6 2.6115335762574825e7 0.0
2.6115335762574825e7 -1.105352572822422e7 0.0
0.0 0.0 0.0

647156.0234156335 1.582251158103902e7 0.0
1.582251158103902e7 -1.4029282978619203e7 0.0
0.0 0.0 0.0

906576.6783975437 2.1546678222461857e7 0.0
2.1546678222461857e7 -2.2946151794196934e7 0.0
0.0 0.0 0.0

61072.382479697466 9.407042250557492e6 0.0
9.407042250557492e6 -3.762479135136355e6 0.0
0.0 0.0 0.0

2.493170792193655e6 8.795079363153078e6 0.0
8.795079363153078e6 -2.601696313741127e7 0.0
0.0 0.0 0.0

-1.232486213162634e6 3.1520685831952553e7 0.0
3.1520685831952553e7 -1.4937790430697894e6 0.0
0.0 0.0 0.0

-537879.3245085748 6.682519480189075e6 0.0
6.682519480189075e6 -5.143348988880146e6 0.0
0.0 0.0 0.0

429057.83491160907 1.2042548923362862e7 0.0
1.2042548923362862e7 -1.6295890495685816e7 0.0
0.0 0.0 0.0

1.3813044387416055e6 3.637183838658296e7 0.0
3.637183838658296e7 -3.080134661734268e6 0.0
0.0 0.0 0.0

5.5901957859351775e6 2.5698423996977165e7 0.0
2.5698423996977165e7 1.8993979721536972e6 0.0
0.0 0.0 0.0

3.4800429685611078e6 2.9502150968996543e7 0.0
2.9502150968996543e7 -1.0037533315458845e7 0.0
0.0 0.0 0.0

194369.77338286117 9.403262693660636e6 0.0
9.403262693660636e6 -7.364789713664392e7 0.0
0.0 0.0 0.0

-4.708115955015e6 1.958279603388367e7 0.0
1.958279603388367e7 3.448300873052479e7 0.0
0.0 0.0 0.0

-1.0374433979888997e6 3.025891571841204e7 0.0
3.025891571841204e7 1.3734317875973945e6 0.0
0.0 0.0 0.0

2.1262198064768e6 1.0354045850601438e7 0.0
1.0354045850601438e7 -1.9327221566747963e7 0.0
0.0 0.0 0.0

635547.6554522698 8.492480426890746e6 0.0
8.492480426890746e6 -5.541289481633843e6 0.0
0.0 0.0 0.0

-310676.49202005286 1.0723274538413513e7 0.0
1.0723274538413513e7 -1.1169104492325597e7 0.0
0.0 0.0 0.0

-4.0302142802271047e6 3.5335657883660994e7 0.0
3.5335657883660994e7 5.549254287590833e6 0.0
0.0 0.0 0.0

-9.362095208330076e6 3.498192546679738e6 0.0
3.498192546679738e6 2.758644619867955e7 0.0
0.0 0.0 0.0

-6.948967410022331e6 1.8056149377323546e7 0.0
1.8056149377323546e7 3.143770048010065e7 0.0
0.0 0.0 0.0

-44743.87179618876 2.9711993314318724e7 0.0
2.9711993314318724e7 -3.189263404769285e6 0.0
0.0 0.0 0.0

985448.4625421828 1.807789163345059e7 0.0
1.807789163345059e7 -1.818785984593966e7 0.0
0.0 0.0 0.0

-1.2928715880440287e6 2.419019276631792e7 0.0
2.419019276631792e7 2.371419143450599e7 0.0
0.0 0.0 0.0

-2.452866536419609e6 1.9446497138386298e7 0.0
1.9446497138386298e7 -3.721596339052381e6 0.0
0.0 0.0 0.0

484326.5149357617 1.909426954896429e7 0.0
1.909426954896429e7 -1.4058228264408005e7 0.0
0.0 0.0 0.0

-2.4119138406463154e6 1.8636861352689404e7 0.0
1.8636861352689404e7 -3.711657835077066e7 0.0
0.0 0.0 0.0

4.730228775884425e6 3.1276543925840084e7 0.0
3.1276543925840084e7 -8.424499640560124e6 0.0
0.0 0.0 0.0

-3.376642496649569e6 1.6142853350739136e7 0.0
1.6142853350739136e7 -5.315642644421357e7 0.0
0.0 0.0 0.0

-1.109770501077602e7 8.789613331528159e6 0.0
8.789613331528159e6 2.2125557142407782e7 0.0
0.0 0.0 0.0

7.2324054251356535e6 2.380556407086884e7 0.0
2.380556407086884e7 2.9475934014744747e7 0.0
0.0 0.0 0.0

-4.639800498583807e6 3.3926513855043344e7 0.0
3.3926513855043344e7 5.984122810499466e6 0.0
0.0 0.0 0.0

-2.2444032431805516e6 2.0004522176097248e7 0.0
2.0004522176097248e7 -5.137105909348991e6 0.0
0.0 0.0 0.0

6.525781503202599e6 2.731901766534265e7 0.0
2.731901766534265e7 -6.163355678770956e6 0.0
0.0 0.0 0.0

172801.67763517285 2.902703852785463e7 0.0
2.902703852785463e7 -4.426885135039548e6 0.0
0.0 0.0 0.0

-7.378185043965804e6 1.0415738073819473e7 0.0
1.0415738073819473e7 1.0071279358159702e7 0.0
0.0 0.0 0.0

206696.04043096025 2.4211123175772075e7 0.0
2.4211123175772075e7 -1.8084333013827145e7 0.0
0.0 0.0 0.0

1.4675944986638464e6 1.712261170938189e7 0.0
1.712261170938189e7 -2.545533205643316e7 0.0
0.0 0.0 0.0

1.3667602170542898e6 1.786770877137019e7 0.0
1.786770877137019e7 -2.370772971577806e7 0.0
0.0 0.0 0.0

-1.1234267509776233e6 1.8015736165153574e7 0.0
1.8015736165153574e7 -1.1571365560664365e7 0.0
0.0 0.0 0.0

2.1292046759273566e7 3.2946930505349696e7 0.0
3.2946930505349696e7 -4.2925603291962445e6 0.0
0.0 0.0 0.0

1.241962545676046e6 1.2962385617250914e7 0.0
1.2962385617250914e7 -1.4856806545824423e7 0.0
0.0 0.0 0.0

2.0547138740263404e6 5.478926512825062e6 0.0
5.478926512825062e6 -1.771805333558177e7 0.0
0.0 0.0 0.0

1.5087675302628148e6 1.6316324429735674e7 0.0
1.6316324429735674e7 -2.70701334218038e7 0.0
0.0 0.0 0.0

401586.14753599465 7.394153264942047e6 0.0
7.394153264942047e6 -5.511337205316302e7 0.0
0.0 0.0 0.0

-9.500015470330535e6 9.801060756959546e6 0.0
9.801060756959546e6 1.4171180108245187e7 0.0
0.0 0.0 0.0

-2.315698002284893e6 2.6935041186309535e7 0.0
2.6935041186309535e7 3.774104858986901e6 0.0
0.0 0.0 0.0

2.4730542701611854e6 4.828145606406997e6 0.0
4.828145606406997e6 -3.1323248737560928e7 0.0
0.0 0.0 0.0

1.3790578412025757e6 7.265380746221165e6 0.0
7.265380746221165e6 -1.4798414941468976e7 0.0
0.0 0.0 0.0

-354235.7785599851 1.8321493852568444e7 0.0
1.8321493852568444e7 -9.035899916742101e6 0.0
0.0 0.0 0.0

-3.8580086684120074e6 1.6461344633416688e7 0.0
1.6461344633416688e7 4.840471729959017e7 0.0
0.0 0.0 0.0

-3.423762899560013e6 2.620166825574508e7 0.0
2.620166825574508e7 1.6815339047169264e7 0.0
0.0 0.0 0.0

-5.845491948726254e6 1.1766919664430473e7 0.0
1.1766919664430473e7 7.710466847423225e6 0.0
0.0 0.0 0.0

-4.030049436442025e6 2.3191474043195587e7 0.0
2.3191474043195587e7 2.45972172312518e7 0.0
0.0 0.0 0.0

2.8342914405156914e6 6.740130265840854e6 0.0
6.740130265840854e6 -2.2749374725486357e7 0.0
0.0 0.0 0.0

1.4247254113602862e6 1.5546060741476847e7 0.0
1.5546060741476847e7 -2.8965782969721735e7 0.0
0.0 0.0 0.0

1.2456512265965703e6 7.95363492667956e7 0.0
7.95363492667956e7 8.488114924135623e6 0.0
0.0 0.0 0.0

-4.478904498596853e6 1.5857485100480214e7 0.0
1.5857485100480214e7 9.09900091822045e6 0.0
0.0 0.0 0.0

-1.0965867371304104e7 7.232089256045041e6 0.0
7.232089256045041e6 2.1179296282013744e7 0.0
0.0 0.0 0.0

733530.7775184773 2.27249880490878e7 0.0
2.27249880490878e7 -1.9507916603329808e7 0.0
0.0 0.0 0.0

1.3255994453554712e6 1.8655544446831267e7 0.0
1.8655544446831267e7 -2.2145327779704943e7 0.0
0.0 0.0 0.0

175938.80631621578 4.017265628147472e6 0.0
4.017265628147472e6 2.5977176825468685e6 0.0
0.0 0.0 0.0

-4.0705574920329577e6 2.358808385994243e6 0.0
2.358808385994243e6 6.673360292231503e6 0.0
0.0 0.0 0.0

-5.394925579211563e6 3.577004501228717e7 0.0
3.577004501228717e7 4.891951358701925e6 0.0
0.0 0.0 0.0

-2.7997242585749757e6 2.221825253436161e7 0.0
2.221825253436161e7 9.055268150066245e6 0.0
0.0 0.0 0.0

-3.494645896999443e6 3.568397864576154e7 0.0
3.568397864576154e7 2.8335336326435683e6 0.0
0.0 0.0 0.0

2.2441343513606377e6 1.0556174018596115e7 0.0
1.0556174018596115e7 -2.5465266806527615e7 0.0
0.0 0.0 0.0

-2.469167184356363e6 2.5533146193907797e7 0.0
2.5533146193907797e7 6.70380004201138e6 0.0
0.0 0.0 0.0

-8.671708803045742e6 6.460518194457228e6 0.0
6.460518194457228e6 3.842384602267669e7 0.0
0.0 0.0 0.0

-8.940761850133926e7 8.231842489163873e6 0.0
8.231842489163873e6 2.9523296746497415e6 0.0
0.0 0.0 0.0

-2.344343299325338e6 2.8129156474169225e7 0.0
2.8129156474169225e7 3.7722870719211213e6 0.0
0.0 0.0 0.0

-3.7815161126410067e6 2.3871175864981327e7 0.0
2.3871175864981327e7 2.2649274852387242e7 0.0
0.0 0.0 0.0

2.5047926571780182e6 3.1557039528807074e7 0.0
3.1557039528807074e7 -7.985375124459377e6 0.0
0.0 0.0 0.0

1.5052092880216977e6 6.506428527410945e6 0.0
6.506428527410945e6 -1.326556323758064e7 0.0
0.0 0.0 0.0

-4.003962245071303e6 1.7931670735810384e7 0.0
1.7931670735810384e7 1.0549118313094554e7 0.0
0.0 0.0 0.0

-1.9073268036160532e7 2.9684173506468847e7 0.0
2.9684173506468847e7 -1.1399405279805802e7 0.0
0.0 0.0 0.0

-9.672693366218409e6 2.7781885115256686e7 0.0
2.7781885115256686e7 -1.1557653512059271e7 0.0
0.0 0.0 0.0

2.5960085051760497e6 7.98736731638714e6 0.0
7.98736731638714e6 -1.8502268871041227e7 0.0
0.0 0.0 0.0

-3.636542926113531e6 2.4617689853633635e7 0.0
2.4617689853633635e7 2.0680039472555213e7 0.0
0.0 0.0 0.0

-63221.550056335516 2.182495358547849e7 0.0
2.182495358547849e7 -1.0408173741647542e7 0.0
0.0 0.0 0.0

332685.87228571624 5.254961433104346e6 0.0
5.254961433104346e6 -6.061381142244968e7 0.0
0.0 0.0 0.0

-6.829453897230182e6 3.252571525349545e6 0.0
3.252571525349545e6 5.586524098594368e7 0.0
0.0 0.0 0.0

1.8691534851956312e6 1.1249676244108554e7 0.0
1.1249676244108554e7 -1.7838526203232724e7 0.0
0.0 0.0 0.0

2.156106788576655e6 7.95485721684457e6 0.0
7.95485721684457e6 -3.812070344255901e7 0.0
0.0 0.0 0.0

-588427.2967294422 2.4422842989779048e7 0.0
2.4422842989779048e7 -8.722443925762823e6 0.0
0.0 0.0 0.0

-1.0281126609519739e6 1.367544754592078e7 0.0
1.367544754592078e7 -5.018911956446795e7 0.0
0.0 0.0 0.0

3.58548843449656e6 3.937956275294031e7 0.0
3.937956275294031e7 -3.7743073556834552e6 0.0
0.0 0.0 0.0

-377690.6251562778 1.956166525092613e7 0.0
1.956166525092613e7 4.71703372523095e7 0.0
0.0 0.0 0.0

-7.3736701313795075e6 3.224111792637769e6 0.0
3.224111792637769e6 5.1592610723251015e7 0.0
0.0 0.0 0.0

-8583.813136457931 2.3054839335820578e7 0.0
2.3054839335820578e7 -9.934688748633428e6 0.0
0.0 0.0 0.0

849056.9310958516 8.87852404914785e6 0.0
8.87852404914785e6 -4.628836650780379e7 0.0
0.0 0.0 0.0

-1.560318771887864e6 2.3063175326406155e7 0.0
2.3063175326406155e7 891748.053758191 0.0
0.0 0.0 0.0

-2.3372196787806135e6 2.5745719817281194e7 0.0
2.5745719817281194e7 3.7999179950607363e6 0.0
0.0 0.0 0.0

-9.834196889288833e6 9.124474708324777e6 0.0
9.124474708324777e6 2.9539564712227926e7 0.0
0.0 0.0 0.0

5.738612934127746e6 3.183504846273538e7 0.0
3.183504846273538e7 -7.96901722870555e6 0.0
0.0 0.0 0.0

1.3409290155159626e6 2.5000767101244435e7 0.0
2.5000767101244435e7 -4.066133932397946e6 0.0
0.0 0.0 0.0

-176631.99488643347 3.0431051623320837e7 0.0
3.0431051623320837e7 -1.9675471302162067e6 0.0
0.0 0.0 0.0

1.164468259350475e6 2.76914472311379e6 0.0
2.76914472311379e6 -5.76056755931055e7 0.0
0.0 0.0 0.0

-2.4116745168635463e6 2.626582958623779e7 0.0
2.626582958623779e7 5.146103134980307e6 0.0
0.0 0.0 0.0

716688.7508286946 1.6383006177745437e7 0.0
1.6383006177745437e7 -1.5103951550960185e7 0.0
0.0 0.0 0.0

-3.968939726912761e6 1.3741020099198554e7 0.0
1.3741020099198554e7 3.222745171594998e6 0.0
0.0 0.0 0.0

-1.0107451133464875e6 1.6612980770288952e7 0.0
1.6612980770288952e7 -4.900694045098551e6 0.0
0.0 0.0 0.0

-1.014404681778779e7 6.928382785512217e6 0.0
6.928382785512217e6 1.4059082216677632e7 0.0
0.0 0.0 0.0

1.8399504134677674e6 2.3874482997607272e7 0.0
2.3874482997607272e7 -5.491144404724846e6 0.0
0.0 0.0 0.0

-7.781773913641594e6 1.0757733053822365e7 0.0
1.0757733053822365e7 4.2834988247500956e7 0.0
0.0 0.0 0.0

330877.93245929107 1.8584227796960957e7 0.0
1.8584227796960957e7 -1.3016992532023955e7 0.0
0.0 0.0 0.0

-7.254309664799324e6 6.857534692480266e6 0.0
6.857534692480266e6 7.67682047938835e6 0.0
0.0 0.0 0.0

-6.187604798495566e6 3.660896121961639e7 0.0
3.660896121961639e7 4.933745499286941e6 0.0
0.0 0.0 0.0

1.1087160243849955e6 2.8931786184197005e7 0.0
2.8931786184197005e7 -7.126007978146535e6 0.0
0.0 0.0 0.0

785994.1799830012 1.966963519858357e7 0.0
1.966963519858357e7 -2.6393193086838897e7 0.0
0.0 0.0 0.0

1.5649810689413743e6 1.2105597563590724e7 0.0
1.2105597563590724e7 -1.6367221009550937e7 0.0
0.0 0.0 0.0

-1.5746083770321775e6 2.8667734805197373e7 0.0
2.8667734805197373e7 4.58116265596603e6 0.0
0.0 0.0 0.0

-3.555062096397359e6 2.293465574353729e7 0.0
2.293465574353729e7 2.6583335788603064e7 0.0
0.0 0.0 0.0

8.85291915655577e6 2.320745507480686e7 0.0
2.320745507480686e7 1.2991610020271715e7 0.0
0.0 0.0 0.0

283193.59885754064 9.24038021900669e6 0.0
9.24038021900669e6 -4.987867614931512e7 0.0
0.0 0.0 0.0

-1.7541899001477072e6 2.528805120869825e7 0.0
2.528805120869825e7 9.132417881320558e6 0.0
0.0 0.0 0.0

-1.654580622395773e6 2.683999042129191e7 0.0
2.683999042129191e7 6.010683750720357e6 0.0
0.0 0.0 0.0

-9.72927415577245e6 1.3974017706824718e7 0.0
1.3974017706824718e7 2.2602812957123876e7 0.0
0.0 0.0 0.0

4.400767961131904e6 4.038859538728625e7 0.0
4.038859538728625e7 -3.7916406093365e6 0.0
0.0 0.0 0.0

206119.0394124994 1.6093781675249243e7 0.0
1.6093781675249243e7 -1.121992411286879e7 0.0
0.0 0.0 0.0

-5.90888757755053e6 2.0113131826461628e7 0.0
2.0113131826461628e7 2.397286913568685e7 0.0
0.0 0.0 0.0

1.6110068125668569e6 1.1428097943938509e7 0.0
1.1428097943938509e7 -1.5271931962438041e7 0.0
0.0 0.0 0.0

-4.0820313147261622e6 1.0652817052411988e7 0.0
1.0652817052411988e7 9.587574748946052e6 0.0
0.0 0.0 0.0

-1.4146652225671601e6 2.9204619664394137e7 0.0
2.9204619664394137e7 3.3837654003906404e6 0.0
0.0 0.0 0.0

-1.5185164749259935e6 3.032298058026051e7 0.0
3.032298058026051e7 3.373920769705765e6 0.0
0.0 0.0 0.0

182252.96126396162 1.8053812389714506e7 0.0
1.8053812389714506e7 -1.1901043187744755e7 0.0
0.0 0.0 0.0

3.3070094834255436e6 2.590098220506245e7 0.0
2.590098220506245e7 -5.179302753395531e6 0.0
0.0 0.0 0.0

1.8299314204190526e7 3.4248433788763665e7 0.0
3.4248433788763665e7 -5.372364547543823e6 0.0
0.0 0.0 0.0

-6.285725296875646e6 2.791206949317056e7 0.0
2.791206949317056e7 9.126333121792259e6 0.0
0.0 0.0 0.0

-1.247375604753879e7 1.9269346475048568e7 0.0
1.9269346475048568e7 -5.171694632314479e7 0.0
0.0 0.0 0.0

848507.7672628392 1.3153026745988425e7 0.0
1.3153026745988425e7 -1.2112688408796018e7 0.0
0.0 0.0 0.0

-8.971966658236211e6 7.061670557556309e6 0.0
7.061670557556309e6 3.551919030710303e7 0.0
0.0 0.0 0.0

-3.940223947258666e6 2.565313351033281e7 0.0
2.565313351033281e7 -2.1769889677388407e6 0.0
0.0 0.0 0.0

-7.754225902244066e6 2.6376546970412835e7 0.0
2.6376546970412835e7 -1.5794350322242207e6 0.0
0.0 0.0 0.0

-1.7302648560743914e6 2.6031814049746223e7 0.0
2.6031814049746223e7 7.4594724342989195e6 0.0
0.0 0.0 0.0

-8.223796490478549e6 4.664601696388604e6 0.0
4.664601696388604e6 4.02134182939765e7 0.0
0.0 0.0 0.0

-7.242370964656661e6 3.742484986776455e7 0.0
3.742484986776455e7 4.98106803067684e6 0.0
0.0 0.0 0.0

-2.1748142423547837e6 2.873407938658579e7 0.0
2.873407938658579e7 2.5649657404681696e6 0.0
0.0 0.0 0.0

3.4577706557473475e6 2.409931477175877e7 0.0
2.409931477175877e7 1.6120476306591507e6 0.0
0.0 0.0 0.0

4.615578701261461e6 2.0153269531318255e7 0.0
2.0153269531318255e7 1.538526244148746e7 0.0
0.0 0.0 0.0

-1.8276088114545993e6 2.4469976031661995e7 0.0
2.4469976031661995e7 1.0848845670019286e7 0.0
0.0 0.0 0.0

-3.9198566647453196e6 2.181900253424656e7 0.0
2.181900253424656e7 1.730853038060418e7 0.0
0.0 0.0 0.0

2.663363262344227e6 7.1968039144669585e6 0.0
7.1968039144669585e6 -1.729843350978485e7 0.0
0.0 0.0 0.0

235168.3116344195 3.0800910077843644e7 0.0
3.0800910077843644e7 -2.982274907732308e6 0.0
0.0 0.0 0.0

-6.342012013838492e6 1.8051530378592506e7 0.0
1.8051530378592506e7 2.630744248568157e7 0.0
0.0 0.0 0.0

2.100092718354922e6 4.406012476298775e6 0.0
4.406012476298775e6 -2.8565711676669963e7 0.0
0.0 0.0 0.0

-864737.2518994514 2.8363453130152788e7 0.0
2.8363453130152788e7 -5.454361339372146e6 0.0
0.0 0.0 0.0

-1.595936407074098e6 2.560358818622633e7 0.0
2.560358818622633e7 6.282926851501862e6 0.0
0.0 0.0 0.0

-5.938267029378075e6 5.93254951779254e6 0.0
5.93254951779254e6 5.181348385714015e6 0.0
0.0 0.0 0.0

832362.6597142098 1.3109905232652657e7 0.0
1.3109905232652657e7 -2.085526308479642e7 0.0
0.0 0.0 0.0

3.2487976360240476e6 6.959103378880334e7 0.0
6.959103378880334e7 6.002057061693692e6 0.0
0.0 0.0 0.0

-619235.3279010616 8.345976553430081e6 0.0
8.345976553430081e6 -8.661847209142815e7 0.0
0.0 0.0 0.0

1.9069341518790629e6 5.809819806713349e6 0.0
5.809819806713349e6 -3.3649680739797026e7 0.0
0.0 0.0 0.0

1.6451828640002506e6 1.4981674457919717e7 0.0
1.4981674457919717e7 -2.3592847163983665e7 0.0
0.0 0.0 0.0

-6.222777191813201e6 2.729053060030894e7 0.0
2.729053060030894e7 6.798412965399005e6 0.0
0.0 0.0 0.0

-107974.71040469036 1.784332544251731e7 0.0
1.784332544251731e7 -3.2463401871111743e7 0.0
0.0 0.0 0.0

800928.6773420689 1.248273312933404e7 0.0
1.248273312933404e7 -1.0909181435945356e7 0.0
0.0 0.0 0.0

-3.6369221459704908e6 1.2864821768434534e7 0.0
1.2864821768434534e7 1.1085014014277866e6 0.0
0.0 0.0 0.0

5.6707479964392595e6 2.2204932451471698e7 0.0
2.2204932451471698e7 2.615736116194244e7 0.0
0.0 0.0 0.0

-800182.0974396486 1.98171669889392e7 0.0
1.98171669889392e7 4.406735386383563e7 0.0
0.0 0.0 0.0

1.706811760507652e7 1.688663100385131e7 0.0
1.688663100385131e7 7.572808308590837e6 0.0
0.0 0.0 0.0

-6.565083884106239e6 4.213404365928455e7 0.0
4.213404365928455e7 2.6525147395545505e6 0.0
0.0 0.0 0.0

-1.480207584356582e6 1.884495583246636e7 0.0
1.884495583246636e7 -9.875119647387695e6 0.0
0.0 0.0 0.0

-3.692731182492804e7 3.1125418475352295e7 0.0
3.1125418475352295e7 -3.693665147478535e6 0.0
0.0 0.0 0.0

-21611.95601467276 2.0646236471145514e7 0.0
2.0646236471145514e7 -1.0891202743754607e7 0.0
0.0 0.0 0.0

-1.6390305049111773e6 2.6396049229655184e7 0.0
2.6396049229655184e7 4.779353318659195e6 0.0
0.0 0.0 0.0

-376790.9955996643 1.6341382523514044e7 0.0
1.6341382523514044e7 -8.118613212580141e6 0.0
0.0 0.0 0.0

-2.675826480361673e6 1.972677602115728e7 0.0
1.972677602115728e7 -3.3720590918446295e7 0.0
0.0 0.0 0.0

2.130107173833158e6 5.462513279952076e6 0.0
5.462513279952076e6 -2.7020012623721622e7 0.0
0.0 0.0 0.0

368817.2902828362 1.2687905114022668e7 0.0
1.2687905114022668e7 -4.5162419532428384e7 0.0
0.0 0.0 0.0

645675.597340838 2.402888460798641e7 0.0
2.402888460798641e7 2.1883360323252812e7 0.0
0.0 0.0 0.0

2.274945436133368e6 8.331941187646292e6 0.0
8.331941187646292e6 -3.1155088705496483e7 0.0
0.0 0.0 0.0

-443537.93266830593 2.8623626138324738e7 0.0
2.8623626138324738e7 -6.340529386599172e6 0.0
0.0 0.0 0.0

199386.79517564178 2.42839397884967e7 0.0
2.42839397884967e7 -1.3943721517423881e7 0.0
0.0 0.0 0.0

-2.472456941117904e6 1.6568742018513598e7 0.0
1.6568742018513598e7 -4.377981271174403e6 0.0
0.0 0.0 0.0

-3.065135305334686e6 1.9028127591222037e7 0.0
1.9028127591222037e7 4.749621075553811e6 0.0
0.0 0.0 0.0

-5.554227847677596e6 2.0697916918066524e7 0.0
2.0697916918066524e7 2.485180261608144e7 0.0
0.0 0.0 0.0

2.000384550892787e6 1.167218049800166e7 0.0
1.167218049800166e7 -2.142132301846098e7 0.0
0.0 0.0 0.0

-8.028410554140705e6 4.565236993354059e7 0.0
4.565236993354059e7 2.8091436699486813e6 0.0
0.0 0.0 0.0

-8.545561475096257e6 3.807563429602248e7 0.0
3.807563429602248e7 5.200044766174089e6 0.0
0.0 0.0 0.0

-4.988144701824674e6 2.1711937738701437e7 0.0
2.1711937738701437e7 2.573934663577777e7 0.0
0.0 0.0 0.0

-2.1730569845539783e6 2.0324443940462694e7 0.0
2.0324443940462694e7 -7.243522680699074e6 0.0
0.0 0.0 0.0

1.2690172785653295e6 1.941988028385711e7 0.0
1.941988028385711e7 -2.0492210890263937e7 0.0
0.0 0.0 0.0

2.529628967528958e6 8.024691556861894e6 0.0
8.024691556861894e6 -2.7796887980429567e7 0.0
0.0 0.0 0.0

-4.436709541761919e6 2.8905794533824693e7 0.0
2.8905794533824693e7 1.2033605361818654e7 0.0
0.0 0.0 0.0

-1.0156804832937812e7 1.2636897199929498e7 0.0
1.2636897199929498e7 2.7143417200966332e7 0.0
0.0 0.0 0.0

7.985292654899768e6 3.489833808055856e7 0.0
3.489833808055856e7 -6.195720682131829e6 0.0
0.0 0.0 0.0

-5.396913696411718e6 3.6983034671458057e6 0.0
3.6983034671458057e6 6.861291121264876e7 0.0
0.0 0.0 0.0

-1.0381245952219456e6 2.4385594475585375e7 0.0
2.4385594475585375e7 -9.102673415197456e6 0.0
0.0 0.0 0.0

-8.014506834771272e6 -123967.36866164762 0.0
-123967.36866164762 3.623637001827278e7 0.0
0.0 0.0 0.0

-9.742655670109272e6 6.328139400697605e6 0.0
6.328139400697605e6 2.0258843173324086e7 0.0
0.0 0.0 0.0

2.750428595456806e6 6.333438894264608e6 0.0
6.333438894264608e6 -1.6288751113239441e7 0.0
0.0 0.0 0.0

-5.027077411583949e6 1.672118697993473e7 0.0
1.672118697993473e7 4.44457477273654e7 0.0
0.0 0.0 0.0

1.3045315069827735e6 1.318320251084204e7 0.0
1.318320251084204e7 -3.695843258391553e7 0.0
0.0 0.0 0.0

-219202.62484798185 2.8662931564699657e7 0.0
2.8662931564699657e7 -3.3720392516857246e6 0.0
0.0 0.0 0.0

-1.7145102300023525e6 2.796561744233356e7 0.0
2.796561744233356e7 5.919002262309203e6 0.0
0.0 0.0 0.0

-1.432343600847871e6 2.0252492813665394e7 0.0
2.0252492813665394e7 -2.4807471094993306e6 0.0
0.0 0.0 0.0

-2.0724552997845365e6 2.831757462725222e7 0.0
2.831757462725222e7 8.499414198891332e6 0.0
0.0 0.0 0.0

562418.8079551547 6.629933573610495e6 0.0
6.629933573610495e6 -8.458640127475016e6 0.0
0.0 0.0 0.0

-1.9479451693290083e6 2.395886896206597e7 0.0
2.395886896206597e7 -4.136202744815912e6 0.0
0.0 0.0 0.0

1.5751407445753213e7 3.512357863651025e7 0.0
3.512357863651025e7 -5.789233570566828e6 0.0
0.0 0.0 0.0

578654.0499510472 1.1597726975229956e7 0.0
1.1597726975229956e7 -9.88594004314471e6 0.0
0.0 0.0 0.0

-147826.49074480683 1.8866852753730737e7 0.0
1.8866852753730737e7 -1.0252298201916529e7 0.0
0.0 0.0 0.0

-8.298580111097408e6 2.7064608259784274e7 0.0
2.7064608259784274e7 -8.674197480924385e6 0.0
0.0 0.0 0.0

-1.6169583527763246e6 1.966163018578431e7 0.0
1.966163018578431e7 -985138.033000223 0.0
0.0 0.0 0.0

1.6799579791134376e7 2.879889125213181e7 0.0
2.879889125213181e7 -669232.0050013475 0.0
0.0 0.0 0.0

-4.513796721673127e6 4.955720570952129e6 0.0
4.955720570952129e6 2.382872548069422e6 0.0
0.0 0.0 0.0

1.555475355699297e6 4.949126121277236e6 0.0
4.949126121277236e6 -4.115633795515266e7 0.0
0.0 0.0 0.0

-5.72280470416706e6 3.2428788511966667e6 0.0
3.2428788511966667e6 1.2360762893109748e7 0.0
0.0 0.0 0.0

-3.105681954681955e6 1.1954760741241286e7 0.0
1.1954760741241286e7 -1.0096732183338291e6 0.0
0.0 0.0 0.0

-2.01653782376597e6 2.0537156941736076e7 0.0
2.0537156941736076e7 -6.476785081859178e6 0.0
0.0 0.0 0.0

-9.50787240353711e6 7.918421699894208e6 0.0
7.918421699894208e6 1.9514925573085546e7 0.0
0.0 0.0 0.0

2.263557445774562e6 7.438242134882226e6 0.0
7.438242134882226e6 -1.1901698817006677e7 0.0
0.0 0.0 0.0

934034.9365306217 2.4865969761628922e7 0.0
2.4865969761628922e7 -1.6421618560840411e7 0.0
0.0 0.0 0.0

-2.3808919859656594e6 1.1080155925104141e7 0.0
1.1080155925104141e7 -3.223151248190626e6 0.0
0.0 0.0 0.0

1.9070000999934522e6 6.230237827786675e7 0.0
6.230237827786675e7 3.6435381424363866e6 0.0
0.0 0.0 0.0

1.8142353458167385e7 2.7613338569004543e7 0.0
2.7613338569004543e7 1.532072989363477e7 0.0
0.0 0.0 0.0

-1.586511867938507e6 1.0164386982147722e7 0.0
1.0164386982147722e7 -4.992265826944749e6 0.0
0.0 0.0 0.0

-4.197805028654513e6 1.723423512189423e7 0.0
1.723423512189423e7 1.799245549557047e7 0.0
0.0 0.0 0.0

1.5514631459916532e6 4.550214330731648e6 0.0
4.550214330731648e6 -6.990449631780514e6 0.0
0.0 0.0 0.0

-8.281158591376314e6 1.134216969509417e7 0.0
1.134216969509417e7 3.976019576041839e7 0.0
0.0 0.0 0.0

-853300.9872750505 9.249077297731686e6 0.0
9.249077297731686e6 -6.766175304337688e6 0.0
0.0 0.0 0.0

-1.0844005237769024e7 4.500287620263467e7 0.0
4.500287620263467e7 5.053307716929743e6 0.0
0.0 0.0 0.0

9.535879810318688e6 3.529522963130338e7 0.0
3.529522963130338e7 -6.072351677701693e6 0.0
0.0 0.0 0.0

2.6187646298448276e6 7.065003428342822e6 0.0
7.065003428342822e6 -2.935919790612518e7 0.0
0.0 0.0 0.0

108160.77711331984 2.5015746922702134e7 0.0
2.5015746922702134e7 -1.2439196276149545e7 0.0
0.0 0.0 0.0

1.1440413468935285e6 8.42496338151205e6 0.0
8.42496338151205e6 -4.1851401995877706e7 0.0
0.0 0.0 0.0

-2.183474365478255e6 2.136219862743948e7 0.0
2.136219862743948e7 -4.801856645089438e6 0.0
0.0 0.0 0.0

4.5286637518342035e6 2.4606198536855083e7 0.0
2.4606198536855083e7 1.5596178268736182e7 0.0
0.0 0.0 0.0

1.3328880055435263e7 3.5498329653107755e7 0.0
3.5498329653107755e7 -5.9085219548214e6 0.0
0.0 0.0 0.0

541785.784307865 1.1020123957685668e7 0.0
1.1020123957685668e7 -8.436467599554036e6 0.0
0.0 0.0 0.0

2.0111111933064647e6 9.796969448277213e6 0.0
9.796969448277213e6 -1.5631667642953081e7 0.0
0.0 0.0 0.0

-916511.1322637144 1.444336916282818e7 0.0
1.444336916282818e7 -3.667838209730977e6 0.0
0.0 0.0 0.0

-1.0508806845972527e7 3.8605198897648e7 0.0
3.8605198897648e7 5.315561094013272e6 0.0
0.0 0.0 0.0

-3.085560499666915e6 1.834065694122388e7 0.0
1.834065694122388e7 2.980919802665948e6 0.0
0.0 0.0 0.0

1.1955397458506547e7 4.227765077603858e7 0.0
4.227765077603858e7 -4.5070293554036375e6 0.0
0.0 0.0 0.0

-1.2227621558702176e6 2.081419159712159e7 0.0
2.081419159712159e7 -3.8888215745070716e6 0.0
0.0 0.0 0.0

8.317822748349121e6 2.1940777625560306e7 0.0
2.1940777625560306e7 3.367083338820529e7 0.0
0.0 0.0 0.0

-7.095148217902666e6 2.6638613765423134e7 0.0
2.6638613765423134e7 -5.62583518386326e6 0.0
0.0 0.0 0.0

-411171.29084220465 3.1065650012860566e7 0.0
3.1065650012860566e7 -767511.4382600832 0.0
0.0 0.0 0.0

-1.2695963892909712e6 2.412768336339234e7 0.0
2.412768336339234e7 -1.6211478721858993e7 0.0
0.0 0.0 0.0

-3.1175154659219366e6 1.6325971566063838e7 0.0
1.6325971566063838e7 -4.962912740686426e7 0.0
0.0 0.0 0.0

-3.000436034314422e6 1.9622879074489072e7 0.0
1.9622879074489072e7 3.952068060122884e7 0.0
0.0 0.0 0.0

121302.14270431455 1.3565530881399576e7 0.0
1.3565530881399576e7 -1.5839180193389155e7 0.0
0.0 0.0 0.0

-8.631087653340476e6 1.1933621844217975e7 0.0
1.1933621844217975e7 3.6663567780154414e7 0.0
0.0 0.0 0.0

1.2963099572915845e6 1.4733142654516485e7 0.0
1.4733142654516485e7 -3.299144912473105e7 0.0
0.0 0.0 0.0

-2.385282602428857e6 1.5052597358552754e7 0.0
1.5052597358552754e7 -4.634518540672133e6 0.0
0.0 0.0 0.0

2.557125657317804e6 4.2213325944788335e6 0.0
4.2213325944788335e6 -1.6102255615233118e7 0.0
0.0 0.0 0.0

-2.4217438736459687e6 2.3046896514859002e7 0.0
2.3046896514859002e7 1.3554080379560494e6 0.0
0.0 0.0 0.0

-2.2373130003338847e6 2.9759351472318325e7 0.0
2.9759351472318325e7 2.485787064940405e6 0.0
0.0 0.0 0.0

3.0972912958181733e6 3.644934795539576e7 0.0
3.644934795539576e7 -4.621899037985114e6 0.0
0.0 0.0 0.0

-2.0795633556204925e6 2.2675449941260777e7 0.0
2.2675449941260777e7 -4.458973248103766e6 0.0
0.0 0.0 0.0

2.2661793370493087e6 6.537209276566264e6 0.0
6.537209276566264e6 -1.0681048047134256e7 0.0
0.0 0.0 0.0

1.1265335545813177e7 3.55144059480163e7 0.0
3.55144059480163e7 -6.047689231960844e6 0.0
0.0 0.0 0.0

-8.89377206976438e6 1.3842391255695865e7 0.0
1.3842391255695865e7 2.88775732606835e7 0.0
0.0 0.0 0.0

335444.0199996494 8.378208728348165e6 0.0
8.378208728348165e6 -5.24758912948205e7 0.0
0.0 0.0 0.0

5.999257416263208e6 2.6962733846252292e7 0.0
2.6962733846252292e7 1.5157335954768257e7 0.0
0.0 0.0 0.0

-3.533586684310302e6 3.319048771966912e7 0.0
3.319048771966912e7 4.772281059860239e6 0.0
0.0 0.0 0.0

-3.590462118343263e6 2.2155083709523752e7 0.0
2.2155083709523752e7 -1.4882334532513013e7 0.0
0.0 0.0 0.0

-1.1686856814807598e6 2.01713512325411e7 0.0
2.01713512325411e7 4.1300238109005295e7 0.0
0.0 0.0 0.0

-6.146213246456153e6 2.295663007515317e7 0.0
2.295663007515317e7 -2.0487377748084024e7 0.0
0.0 0.0 0.0

-783866.5864555091 1.5181050095662989e7 0.0
1.5181050095662989e7 -1.257947691026724e7 0.0
0.0 0.0 0.0

3.681850600482941e6 2.2859381512655675e7 0.0
2.2859381512655675e7 2.2055421197716787e7 0.0
0.0 0.0 0.0

1.756184527000622e6 5.7686320598517716e7 0.0
5.7686320598517716e7 2.7940189474343676e6 0.0
0.0 0.0 0.0

-5.4412329750570245e6 2.6687328090903666e7 0.0
2.6687328090903666e7 -1.2705434428756097e7 0.0
0.0 0.0 0.0

7.672052161312908e7 2.4467861726964995e7 0.0
2.4467861726964995e7 6.994186306005806e6 0.0
0.0 0.0 0.0

-2.2071407614366915e6 1.718593790287898e7 0.0
1.718593790287898e7 -5.8294763322527185e6 0.0
0.0 0.0 0.0

-2.3470947328288713e6 2.3660153336294115e7 0.0
2.3660153336294115e7 -112882.06020490546 0.0
0.0 0.0 0.0

661990.8898908356 1.7393556828895923e7 0.0
1.7393556828895923e7 -2.0682445829154238e7 0.0
0.0 0.0 0.0

3.702087705881441e6 3.730320192543058e7 0.0
3.730320192543058e7 -4.63676341836052e6 0.0
0.0 0.0 0.0

1.179255114995828e6 6.565345004291204e6 0.0
6.565345004291204e6 -4.567523363964476e7 0.0
0.0 0.0 0.0

-618985.362268439 9.878542858479345e6 0.0
9.878542858479345e6 -8.181140469291604e6 0.0
0.0 0.0 0.0

996659.7331370842 1.3475701670244982e7 0.0
1.3475701670244982e7 -2.4219392485876728e7 0.0
0.0 0.0 0.0

-3.3170805647706194e6 2.6284646184345298e7 0.0
2.6284646184345298e7 1.7276717806357644e7 0.0
0.0 0.0 0.0

-1.8190933423779856e6 2.5198077006443e7 0.0
2.5198077006443e7 -3.843659863866937e6 0.0
0.0 0.0 0.0

741893.6445124496 2.351108944808607e7 0.0
2.351108944808607e7 7.22377038223883e6 0.0
0.0 0.0 0.0

-1.2055822738707243e6 1.5934258980559787e7 0.0
1.5934258980559787e7 -3.345059931975711e6 0.0
0.0 0.0 0.0

-1.119134641643453e6 2.3443026047824282e7 0.0
2.3443026047824282e7 -3.271426339290233e6 0.0
0.0 0.0 0.0

3.2488355379611254e6 2.440823083952311e7 0.0
2.440823083952311e7 -4.33025923122899e6 0.0
0.0 0.0 0.0

2.2546147308351207e6 5.43872273813691e7 0.0
5.43872273813691e7 2.553892279488734e6 0.0
0.0 0.0 0.0

-1.0068078824296773e6 2.469176176384861e7 0.0
2.469176176384861e7 -2.9929827273458284e6 0.0
0.0 0.0 0.0

-4.390116606867788e6 8.274008048750123e6 0.0
8.274008048750123e6 9.867253190294413e6 0.0
0.0 0.0 0.0

3.6074018432123594e7 1.5833783385497516e7 0.0
1.5833783385497516e7 2.7837831754176933e6 0.0
0.0 0.0 0.0

-1.6768391362047642e6 1.1301083671872567e7 0.0
1.1301083671872567e7 -6.542944977364607e7 0.0
0.0 0.0 0.0

-1.2963117538347621e6 3.0870717851020496e7 0.0
3.0870717851020496e7 2.44882045670841e6 0.0
0.0 0.0 0.0

-6.190079484123345e6 1.0083704999298196e7 0.0
1.0083704999298196e7 1.4185425191655181e7 0.0
0.0 0.0 0.0

-1.803910512593655e6 1.6401522649228405e7 0.0
1.6401522649228405e7 -7.521005421521721e6 0.0
0.0 0.0 0.0

-440679.4046888896 1.374708164193932e7 0.0
1.374708164193932e7 -1.3072759078423249e7 0.0
0.0 0.0 0.0

2.0170347413259856e6 5.16151935963835e7 0.0
5.16151935963835e7 1.5145570013819623e6 0.0
0.0 0.0 0.0

777290.4716581311 1.192976740874619e7 0.0
1.192976740874619e7 -3.908378997470041e7 0.0
0.0 0.0 0.0

-1.0094572105582958e7 7.399503565620639e6 0.0
7.399503565620639e6 3.1631634678129602e7 0.0
0.0 0.0 0.0

-6.960438595370257e6 2.5805489942455318e7 0.0
2.5805489942455318e7 -1.6624279264748419e7 0.0
0.0 0.0 0.0

-8.375654850296669e6 9.574073532110596e6 0.0
9.574073532110596e6 1.8043150353549715e7 0.0
0.0 0.0 0.0

-1.1625521260132238e6 2.3168014809687823e7 0.0
2.3168014809687823e7 -9.57625790495117e6 0.0
0.0 0.0 0.0

-2.0558750518925493e6 2.538333791254051e7 0.0
2.538333791254051e7 -1.2083709424171648e6 0.0
0.0 0.0 0.0

491092.3491827566 1.91258018767014e7 0.0
1.91258018767014e7 -2.612027880079742e7 0.0
0.0 0.0 0.0

1.4395817739272218e6 4.9304264541268714e7 0.0
4.9304264541268714e7 1.0445017144694547e6 0.0
0.0 0.0 0.0

-3.5101376604708964e6 2.7160321807540983e7 0.0
2.7160321807540983e7 1.5565573490990417e7 0.0
0.0 0.0 0.0

-879327.5968450591 2.5902850837071393e7 0.0
2.5902850837071393e7 -2.7523650359516707e6 0.0
0.0 0.0 0.0

1.1197660226351377e6 7.496487627978192e6 0.0
7.496487627978192e6 -4.389757256374763e7 0.0
0.0 0.0 0.0

-3.611510308963351e6 1.2660259285698755e7 0.0
1.2660259285698755e7 9.09709709487898e6 0.0
0.0 0.0 0.0

1.6567683896064842e6 4.7493498223395176e7 0.0
4.7493498223395176e7 1.0317021725702982e6 0.0
0.0 0.0 0.0

-247382.43725609407 1.0191824922261348e7 0.0
1.0191824922261348e7 -6.916091177227882e7 0.0
0.0 0.0 0.0

1.702118195056804e6 4.59866719833465e7 0.0
4.59866719833465e7 824659.8116357925 0.0
0.0 0.0 0.0

1.5252612284100575e6 4.45974865288718e7 0.0
4.45974865288718e7 495091.75441336754 0.0
0.0 0.0 0.0

-1.0286018556234287e6 3.451002757066465e7 0.0
3.451002757066465e7 -959072.5244244531 0.0
0.0 0.0 0.0

-961026.3708393647 3.5407072995170124e7 0.0
3.5407072995170124e7 -803791.1416775996 0.0
0.0 0.0 0.0

-953970.5266618115 3.630012548415998e7 0.0
3.630012548415998e7 -711271.0971125871 0.0
0.0 0.0 0.0

-929014.0077696491 3.715060627800878e7 0.0
3.715060627800878e7 -708340.9570569356 0.0
0.0 0.0 0.0

-933228.1406576635 3.8014270888070196e7 0.0
3.8014270888070196e7 -628111.0099736485 0.0
0.0 0.0 0.0

-956780.4226633041 3.892538965491999e7 0.0
3.892538965491999e7 -713892.1205161962 0.0
0.0 0.0 0.0

-4.933249196014094e6 1.7028626127592877e7 0.0
1.7028626127592877e7 1.2772365352766898e7 0.0
0.0 0.0 0.0

-822508.7512383423 3.98308649302929e7 0.0
3.98308649302929e7 -598031.4760866095 0.0
0.0 0.0 0.0

-994904.9247371407 4.078955373744633e7 0.0
4.078955373744633e7 -586435.1340712009 0.0
0.0 0.0 0.0

-5.3073276079224385e6 1.9775656784733355e7 0.0
1.9775656784733355e7 2.636104453713751e7 0.0
0.0 0.0 0.0

1.3351327299278094e6 4.335578602504793e7 0.0
4.335578602504793e7 452334.886067744 0.0
0.0 0.0 0.0

-1.2165575669030305e6 4.168979626422916e7 0.0
4.168979626422916e7 -546796.6769237518 0.0
0.0 0.0 0.0

-1.1072170745052686e6 4.2810731101159275e7 0.0
4.2810731101159275e7 -383643.6695091244 0.0
0.0 0.0 0.0

1.2260528305041655e6 4.22709556676721e7 0.0
4.22709556676721e7 363073.6245898175 0.0
0.0 0.0 0.0

-1.216249602335764e6 1.9439629668117426e7 0.0
1.9439629668117426e7 -4.207631619954623e6 0.0
0.0 0.0 0.0

-1.4191836884442484e6 4.3999706882338814e7 0.0
4.3999706882338814e7 -442463.3010265057 0.0
0.0 0.0 0.0

814816.1259295589 4.119610182837054e7 0.0
4.119610182837054e7 106659.02677450451 0.0
0.0 0.0 0.0

1.0885764258141704e6 4.023315712825001e7 0.0
4.023315712825001e7 128595.7794359538 0.0
0.0 0.0 0.0

806865.151996872 3.940980754499335e7 0.0
3.940980754499335e7 60267.68620463385 0.0
0.0 0.0 0.0

508218.688277658 3.8439420782393724e7 0.0
3.8439420782393724e7 37767.97630656327 0.0
0.0 0.0 0.0

432787.61859386286 3.760335924674997e7 0.0
3.760335924674997e7 -4145.2067760628415 0.0
0.0 0.0 0.0

155592.67061256332 3.6726691046582684e7 0.0
3.6726691046582684e7 -39779.99990628973 0.0
0.0 0.0 0.0

147360.24953131066 3.588152536231818e7 0.0
3.588152536231818e7 -54770.205232028646 0.0
0.0 0.0 0.0

64414.28963540458 3.5005783560437635e7 0.0
3.5005783560437635e7 -170778.73226044353 0.0
0.0 0.0 0.0

-1.0025889545645427e6 2.9112322037516117e7 0.0
2.9112322037516117e7 -4.1223339923763806e6 0.0
0.0 0.0 0.0

-2.9717358282477614e6 2.020850894678368e7 0.0
2.020850894678368e7 3.708594430999924e7 0.0
0.0 0.0 0.0

-1.8405247293278812e6 4.523036918867536e7 0.0
4.523036918867536e7 -360595.73967191926 0.0
0.0 0.0 0.0

1.558316314271694e6 9.31005006326532e6 0.0
9.31005006326532e6 -2.9583512121602584e7 0.0
0.0 0.0 0.0

-1.442652945061537e6 2.8167310362797577e7 0.0
2.8167310362797577e7 3.399971923648484e6 0.0
0.0 0.0 0.0

-2.4562486699419287e6 4.6731514451385245e7 0.0
4.6731514451385245e7 -161602.17171961884 0.0
0.0 0.0 0.0

-8.365380642692246e6 1.5057634657013586e7 0.0
1.5057634657013586e7 2.743111124185554e7 0.0
0.0 0.0 0.0

-3.327299374234775e6 4.845883148827796e7 0.0
4.845883148827796e7 -228388.70043835498 0.0
0.0 0.0 0.0

-8.90720902779496e6 1.3257401328330569e7 0.0
1.3257401328330569e7 3.1316898618810844e7 0.0
0.0 0.0 0.0

-4.410229221755781e6 5.0384732256711066e7 0.0
5.0384732256711066e7 -349926.9780667082 0.0
0.0 0.0 0.0

880759.4541502958 2.2999787842738606e7 0.0
2.2999787842738606e7 -1.9613162027188852e7 0.0
0.0 0.0 0.0

1.832053737612158e6 1.2940354147896452e7 0.0
1.2940354147896452e7 -2.336260576103753e7 0.0
0.0 0.0 0.0

-2.6223697335261237e6 1.6584042185941081e7 0.0
1.6584042185941081e7 -4.591627501082066e7 0.0
0.0 0.0 0.0

-1.1061620235303836e6 2.542726601764342e7 0.0
2.542726601764342e7 -1.5399303585130973e6 0.0
0.0 0.0 0.0

-1.228465495804144e6 1.9356072314100776e7 0.0
1.9356072314100776e7 -1.1037504947904032e7 0.0
0.0 0.0 0.0

-724091.2930136372 2.7540160113769375e7 0.0
2.7540160113769375e7 -6.826377054906102e6 0.0
0.0 0.0 0.0

868011.3700224916 2.326221962749246e7 0.0
2.326221962749246e7 -1.9611245399419986e7 0.0
0.0 0.0 0.0

2.4036784615801014e6 1.6585652583841716e6 0.0
1.6585652583841716e6 -3.726509529321763e7 0.0
0.0 0.0 0.0

-2.7798360079983114e6 1.5984608871209998e7 0.0
1.5984608871209998e7 8.379680712471388e6 0.0
0.0 0.0 0.0

-5.565836780402275e6 5.278041633903643e7 0.0
5.278041633903643e7 39681.58723856066 0.0
0.0 0.0 0.0

1.5887437185578402e6 1.403331256693344e7 0.0
1.403331256693344e7 -1.9389088022441357e7 0.0
0.0 0.0 0.0

-8.44583786126424e6 1.3426579892485669e7 0.0
1.3426579892485669e7 3.495475921715512e7 0.0
0.0 0.0 0.0

-1.1861514353146364e6 2.2153169903461676e7 0.0
2.2153169903461676e7 -3.580823772798798e6 0.0
0.0 0.0 0.0

1.5933154441130678e6 3.820281729959285e7 0.0
3.820281729959285e7 -1.759177082369607e6 0.0
0.0 0.0 0.0

1.6346392673458923e6 8.35903589132742e6 0.0
8.35903589132742e6 -3.1262472538889784e7 0.0
0.0 0.0 0.0

-1.5645076065998606e7 4.5395942975181e7 0.0
4.5395942975181e7 5.309033767946568e6 0.0
0.0 0.0 0.0

-4.280025953884581e6 1.9076565528225157e7 0.0
1.9076565528225157e7 1.3952388512291247e7 0.0
0.0 0.0 0.0

-2.016548679592694e7 3.239163359819321e7 0.0
3.239163359819321e7 2.910973621519726e6 0.0
0.0 0.0 0.0

4.014460079259189e6 2.2294356020521317e7 0.0
2.2294356020521317e7 1.9238663874686904e7 0.0
0.0 0.0 0.0

-8.211098562511179e6 5.610411029910311e7 0.0
5.610411029910311e7 318134.5169247999 0.0
0.0 0.0 0.0

530882.7878328431 1.354713185051752e7 0.0
1.354713185051752e7 -3.752852414433801e7 0.0
0.0 0.0 0.0

-3.4433154953616736e6 1.886913859648053e7 0.0
1.886913859648053e7 8.446233894434841e6 0.0
0.0 0.0 0.0

1.817338891032094e6 2.1737627411993966e7 0.0
2.1737627411993966e7 6.057796779276786e6 0.0
0.0 0.0 0.0

1.3973330163967013e6 1.0490224534597531e7 0.0
1.0490224534597531e7 -2.5508821497655906e7 0.0
0.0 0.0 0.0

1.9174019300392417e6 2.504719621964366e7 0.0
2.504719621964366e7 5.479381659192703e6 0.0
0.0 0.0 0.0

1.4942700932835843e6 1.0265596363440821e7 0.0
1.0265596363440821e7 -2.7961264080307532e7 0.0
0.0 0.0 0.0

-171316.9490275588 2.0206432449430007e7 0.0
2.0206432449430007e7 -3.611370145615866e6 0.0
0.0 0.0 0.0

-1.1967596839030974e6 2.609104772807655e7 0.0
2.609104772807655e7 -124614.54720883595 0.0
0.0 0.0 0.0

-1.67563395950606e6 2.639748953390258e7 0.0
2.639748953390258e7 -3.5769626391588645e6 0.0
0.0 0.0 0.0

1.1015657708194107e6 1.099782193916794e7 0.0
1.099782193916794e7 -2.0369506952883303e7 0.0
0.0 0.0 0.0

3.469869055764807e7 2.8368366344987933e7 0.0
2.8368366344987933e7 1.302397544075337e7 0.0
0.0 0.0 0.0

1.2999895019297916e6 1.5368076100764958e7 0.0
1.5368076100764958e7 -1.8848275582639303e7 0.0
0.0 0.0 0.0

-459101.89523693547 1.9694440534643073e7 0.0
1.9694440534643073e7 -8.565805120025929e6 0.0
0.0 0.0 0.0

-6.205362632723286e6 2.7797444468270224e7 0.0
2.7797444468270224e7 7.586045690741416e6 0.0
0.0 0.0 0.0

386046.281042404 1.402774580890741e7 0.0
1.402774580890741e7 -1.0486322886866825e7 0.0
0.0 0.0 0.0

-3.8541159550359594e6 2.8081442535600755e7 0.0
2.8081442535600755e7 1.37662688338086e7 0.0
0.0 0.0 0.0

7.362181915165434e6 2.0722209965531066e7 0.0
2.0722209965531066e7 3.541974846398777e7 0.0
0.0 0.0 0.0

-6.870145877032119e6 1.6337193817307638e7 0.0
1.6337193817307638e7 2.327147882724326e7 0.0
0.0 0.0 0.0

-1.2128697973334009e7 5.991066529621258e7 0.0
5.991066529621258e7 -79259.77976447437 0.0
0.0 0.0 0.0

4.679476520541435e6 2.0786945761455197e7 0.0
2.0786945761455197e7 5.6349225496666715e7 0.0
0.0 0.0 0.0

-2.7265257835282455e6 1.966889445991892e7 0.0
1.966889445991892e7 -442520.957270029 0.0
0.0 0.0 0.0

1.55881288591467e7 2.5164475667015854e7 0.0
2.5164475667015854e7 5.930861748396074e6 0.0
0.0 0.0 0.0

1.6676068233987186e6 7.71727448588184e6 0.0
7.71727448588184e6 -3.552626974366622e7 0.0
0.0 0.0 0.0

-377694.28936369345 1.3856917055117264e7 0.0
1.3856917055117264e7 -4.314795680684691e7 0.0
0.0 0.0 0.0

-3.388134196055427e6 2.267607641327026e7 0.0
2.267607641327026e7 1.523280531101238e7 0.0
0.0 0.0 0.0

-1.9422704937437996e7 3.0557193291583825e7 0.0
3.0557193291583825e7 -1.4741578807555096e7 0.0
0.0 0.0 0.0

-1.6752850837657016e6 2.2440640046603765e7 0.0
2.2440640046603765e7 2.3859762786332844e6 0.0
0.0 0.0 0.0

-238632.59314955585 2.0024130347847663e7 0.0
2.0024130347847663e7 -1.5595914973748058e7 0.0
0.0 0.0 0.0

-2.0283952528829478e7 4.285718216462157e7 0.0
4.285718216462157e7 6.652706550353631e6 0.0
0.0 0.0 0.0

980271.9183823504 1.4065646312209684e7 0.0
1.4065646312209684e7 -2.5086239537019186e7 0.0
0.0 0.0 0.0

-1.5910727707115042e6 2.3718556858815365e7 0.0
2.3718556858815365e7 2.3996129004212716e6 0.0
0.0 0.0 0.0

-4.69738007858689e6 1.1445225844571294e7 0.0
1.1445225844571294e7 1.1671823722357599e7 0.0
0.0 0.0 0.0

-2.066996141675854e6 2.2321894067626715e7 0.0
2.2321894067626715e7 1.3325113951195288e7 0.0
0.0 0.0 0.0

-1.818345048848029e6 9.3121213568685e7 0.0
9.3121213568685e7 5.6337705357226385e6 0.0
0.0 0.0 0.0

-5.660160432052205e6 1.707704348257727e7 0.0
1.707704348257727e7 2.1503887869715456e7 0.0
0.0 0.0 0.0

-5.702478042479571e6 8.68753940468973e6 0.0
8.68753940468973e6 5.424369356896584e6 0.0
0.0 0.0 0.0

-833161.4755035669 2.779771741827484e7 0.0
2.779771741827484e7 -1.140024221756809e6 0.0
0.0 0.0 0.0

-2.315830874754983e6 2.7356213379515994e7 0.0
2.7356213379515994e7 5.105208671361175e6 0.0
0.0 0.0 0.0

106773.28122195881 2.4294771576516513e7 0.0
2.4294771576516513e7 -9.391955156502789e6 0.0
0.0 0.0 0.0

-1.7545541936637042e6 2.712303415922515e7 0.0
2.712303415922515e7 -2.1823866804832607e6 0.0
0.0 0.0 0.0

-1.0093391325424422e7 4.1878501828931505e6 0.0
4.1878501828931505e6 2.075315267657685e7 0.0
0.0 0.0 0.0

-46683.547052854905 2.293523431157817e7 0.0
2.293523431157817e7 -4.867841416049985e6 0.0
0.0 0.0 0.0

-2.4651347865129295e6 2.844728313338141e7 0.0
2.844728313338141e7 5.093520677902512e6 0.0
0.0 0.0 0.0

479912.67950265575 1.2716280423898535e7 0.0
1.2716280423898535e7 -1.7360106384006385e7 0.0
0.0 0.0 0.0

1.1390252719240815e6 2.349231398576311e7 0.0
2.349231398576311e7 -3.3943387682283823e6 0.0
0.0 0.0 0.0

-2.3720752504650094e7 3.100072106715381e7 0.0
3.100072106715381e7 39179.40088616591 0.0
0.0 0.0 0.0

-4.345729206272096e6 1.780618836960572e7 0.0
1.780618836960572e7 1.942384883147479e7 0.0
0.0 0.0 0.0

700356.9312566184 2.2254977629662048e7 0.0
2.2254977629662048e7 -2.1233162324681565e7 0.0
0.0 0.0 0.0

-2.857862887671107e6 2.889423139791351e7 0.0
2.889423139791351e7 7.510653275587946e6 0.0
0.0 0.0 0.0

3.017555639637323e6 2.262562209066765e6 0.0
2.262562209066765e6 -1.916492050812105e7 0.0
0.0 0.0 0.0

-6.522029468774788e6 -4.336809854360205e6 0.0
-4.336809854360205e6 1.2257299130977342e7 0.0
0.0 0.0 0.0

-4.876855832490502e6 -3.672978763524792e6 0.0
-3.672978763524792e6 9.010901252381943e6 0.0
0.0 0.0 0.0

-7.650388679527661e6 -2.2129713304500673e6 0.0
-2.2129713304500673e6 3.598860625474322e7 0.0
0.0 0.0 0.0

-3.680102254177301e6 -1.6846663576328615e6 0.0
-1.6846663576328615e6 4.5192573751910515e6 0.0
0.0 0.0 0.0

-7.765948222337503e6 -2.481487040080232e6 0.0
-2.481487040080232e6 3.3089917463634558e7 0.0
0.0 0.0 0.0

3.21056893887268e6 2.471769212394118e6 0.0
2.471769212394118e6 -1.4385623131470188e7 0.0
0.0 0.0 0.0

-7.471406786818864e6 -4.3310733793619275e6 0.0
-4.3310733793619275e6 1.945534823938272e7 0.0
0.0 0.0 0.0

-8.20811505075038e6 -3.4719661559440605e6 0.0
-3.4719661559440605e6 2.535848584887919e7 0.0
0.0 0.0 0.0

-1.5123514122685487e6 692326.46953095 0.0
692326.46953095 662283.98028528 0.0
0.0 0.0 0.0

-7.982489550186574e6 -2.757748262064222e6 0.0
-2.757748262064222e6 3.0123742637733847e7 0.0
0.0 0.0 0.0

2.6484420157876518e6 2.665910677707375e6 0.0
2.665910677707375e6 -9.487598268367032e6 0.0
0.0 0.0 0.0

1.3844800214265613e6 2.4942878017711174e6 0.0
2.4942878017711174e6 -4.619913770065e6 0.0
0.0 0.0 0.0

-6.655471577522362e6 -4.558365984672449e6 0.0
-4.558365984672449e6 1.4607614719327377e7 0.0
0.0 0.0 0.0

2.6153854314490035e6 1.7128028847149096e6 0.0
1.7128028847149096e6 -3.3321109862191003e7 0.0
0.0 0.0 0.0

2.5916328569451254e6 1.63615579510462e6 0.0
1.63615579510462e6 -3.628945436228774e7 0.0
0.0 0.0 0.0

2.7676949070204124e6 1.7302426662636867e6 0.0
1.7302426662636867e6 -3.0287928410370126e7 0.0
0.0 0.0 0.0

3.198515844569562e6 2.0170530593519085e6 0.0
2.0170530593519085e6 -2.5619044044211503e7 0.0
0.0 0.0 0.0

-7.6428292185593285e6 -4.470572471052942e6 0.0
-4.470572471052942e6 1.7537519174231164e7 0.0
0.0 0.0 0.0

-7.73687012292501e6 -2.6029338033618787e6 0.0
-2.6029338033618787e6 3.1492077175741177e7 0.0
0.0 0.0 0.0

2.596153753240537e6 1.7279748210391733e6 0.0
1.7279748210391733e6 -3.494198783052009e7 0.0
0.0 0.0 0.0

2.9194799598224945e6 2.1544206146430797e6 0.0
2.1544206146430797e6 -2.2436974405399386e7 0.0
0.0 0.0 0.0

3.038684995451237e6 2.1135303323148233e6 0.0
2.1135303323148233e6 -2.3999592419879917e7 0.0
0.0 0.0 0.0

3.165429186533983e6 2.180885406914583e6 0.0
2.180885406914583e6 -2.0889501133210987e7 0.0
0.0 0.0 0.0

1.1526944271987136e6 2.0237455960930876e7 0.0
2.0237455960930876e7 -1.899590680464299e7 0.0
0.0 0.0 0.0

-7.614816490445429e6 1.6056430955735443e7 0.0
1.6056430955735443e7 2.599411425196918e7 0.0
0.0 0.0 0.0

-9.518504760604268e6 1.0547656848617338e7 0.0
1.0547656848617338e7 3.4878081779510856e7 0.0
0.0 0.0 0.0

-4.0438492721954575e6 2.907520973390659e7 0.0
2.907520973390659e7 1.2256850350792833e7 0.0
0.0 0.0 0.0

-2.1572142738718307e6 2.0096020268623948e7 0.0
2.0096020268623948e7 -3.120447570578943e7 0.0
0.0 0.0 0.0

-2.5215353370885e6 2.3744938639867175e7 0.0
2.3744938639867175e7 5.5735242537480695e6 0.0
0.0 0.0 0.0

-1.83914911136918e7 6.544738110270881e7 0.0
6.544738110270881e7 -412248.4457489224 0.0
0.0 0.0 0.0

-2.5879058223146773e6 2.1039218034691468e7 0.0
2.1039218034691468e7 -309621.42877071735 0.0
0.0 0.0 0.0

-6.441761595866939e6 2.4371373382603608e7 0.0
2.4371373382603608e7 -1.895233989223255e7 0.0
0.0 0.0 0.0

1.4435685497436786e7 2.7644053485089533e7 0.0
2.7644053485089533e7 1.5428781518836709e7 0.0
0.0 0.0 0.0

-2.869927702518538e6 2.526744471493037e7 0.0
2.526744471493037e7 1.0548277106807262e7 0.0
0.0 0.0 0.0

-1.9667054541669851e6 2.359923292915054e7 0.0
2.359923292915054e7 1.2684388925825961e7 0.0
0.0 0.0 0.0

1.6376056244738102e6 2.5559680316363856e7 0.0
2.5559680316363856e7 -1.4914748375904838e7 0.0
0.0 0.0 0.0

-2.3902985892105997e6 2.141919827860436e7 0.0
2.141919827860436e7 1.5410723096068088e7 0.0
0.0 0.0 0.0

-1.7866964531114001e6 2.7827493062639896e7 0.0
2.7827493062639896e7 -936460.4602952097 0.0
0.0 0.0 0.0

-1.575232473261191e6 2.564028007439555e7 0.0
2.564028007439555e7 -5.010556304676416e6 0.0
0.0 0.0 0.0

-5.1132246651838785e6 1.7618114357798032e7 0.0
1.7618114357798032e7 1.4711481044630243e7 0.0
0.0 0.0 0.0

-903122.5388415828 1.854239735980585e7 0.0
1.854239735980585e7 -1.2681531701586016e7 0.0
0.0 0.0 0.0

-1.780628490597067e6 2.17836404656401e7 0.0
2.17836404656401e7 3.9547721775833596e6 0.0
0.0 0.0 0.0

813979.6232087314 1.1868192601518415e7 0.0
1.1868192601518415e7 -1.884316041072259e7 0.0
0.0 0.0 0.0

-6.466186373928117e6 -4.447259983222021e6 0.0
-4.447259983222021e6 1.4500386450435083e7 0.0
0.0 0.0 0.0

-5.478764749784486e6 -3.7192371144389785e6 0.0
-3.7192371144389785e6 1.2343924443451254e7 0.0
0.0 0.0 0.0

-7.949486772691254e6 -2.7827623504405725e6 0.0
-2.7827623504405725e6 2.982973298633737e7 0.0
0.0 0.0 0.0

-7.211864849582122e6 -4.27222803722066e6 0.0
-4.27222803722066e6 1.6744491026429692e7 0.0
0.0 0.0 0.0

-7.66221762044369e6 -4.496574255753459e6 0.0
-4.496574255753459e6 1.8270012558925077e7 0.0
0.0 0.0 0.0

2.5314763670735955e6 1.659780790291538e6 0.0
1.659780790291538e6 -3.3515745577772245e7 0.0
0.0 0.0 0.0

2.456268801612418e6 1.618208788137125e6 0.0
1.618208788137125e6 -3.4742990217407e7 0.0
0.0 0.0 0.0

-7.764596116999021e6 -2.58983869737753e6 0.0
-2.58983869737753e6 3.163514487847302e7 0.0
0.0 0.0 0.0

2.9216746042558644e6 2.0542809803549e6 0.0
2.0542809803549e6 -2.463987967880689e7 0.0
0.0 0.0 0.0

3.149302462292225e6 2.303485337440483e6 0.0
2.303485337440483e6 -1.9545796758134447e7 0.0
0.0 0.0 0.0

3.0068508789071245e6 2.1871475836265916e6 0.0
2.1871475836265916e6 -2.251560990240587e7 0.0
0.0 0.0 0.0

3.106993624258279e6 2.143117759353674e6 0.0
2.143117759353674e6 -2.0988789519939337e7 0.0
0.0 0.0 0.0

-2.8756859807202653e6 1.9749109234730896e7 0.0
1.9749109234730896e7 2.9311407392974594e6 0.0
0.0 0.0 0.0

-3.037477024968628e6 2.07668598702824e7 0.0
2.07668598702824e7 3.4690798905704275e7 0.0
0.0 0.0 0.0

-3.100195773052088e6 2.0992807777930673e7 0.0
2.0992807777930673e7 1.8860056006852686e7 0.0
0.0 0.0 0.0

2.7365789420747757e6 6.247195581494199e6 0.0
6.247195581494199e6 -2.9019339587102387e7 0.0
0.0 0.0 0.0

658266.2348030168 3.1225884002551023e7 0.0
3.1225884002551023e7 -5.8869927549646115e6 0.0
0.0 0.0 0.0

983527.602143595 2.342581973912887e7 0.0
2.342581973912887e7 2.7238039710730996e7 0.0
0.0 0.0 0.0

-7.548741590895629e6 1.773225334600497e7 0.0
1.773225334600497e7 2.8501096831603806e7 0.0
0.0 0.0 0.0

1.2448276946365675e6 1.1390273264192268e7 0.0
1.1390273264192268e7 -2.3918628646157384e7 0.0
0.0 0.0 0.0

984592.5821478367 1.4630776279976182e7 0.0
1.4630776279976182e7 -2.5774745048181605e7 0.0
0.0 0.0 0.0

-1.7288618986753086e6 2.442371683998245e7 0.0
2.442371683998245e7 -5.336447871187897e6 0.0
0.0 0.0 0.0

259056.7597530745 2.288248311880135e7 0.0
2.288248311880135e7 3.0484471024336945e7 0.0
0.0 0.0 0.0

-3.1690348146742857e6 1.440464002532165e7 0.0
1.440464002532165e7 8.70767546817762e6 0.0
0.0 0.0 0.0

-11813.191446525045 2.513267186587219e7 0.0
2.513267186587219e7 -7.926018716496455e6 0.0
0.0 0.0 0.0

-761579.5159530562 3.065898246258796e7 0.0
3.065898246258796e7 341654.0466523928 0.0
0.0 0.0 0.0

993969.32650417 1.664353918908462e7 0.0
1.664353918908462e7 -1.8510691732242487e7 0.0
0.0 0.0 0.0

-985982.5941591284 2.66172859616901e7 0.0
2.66172859616901e7 -1.3322625323744086e6 0.0
0.0 0.0 0.0

3.7380322947072787e6 5.315364413348583e6 0.0
5.315364413348583e6 531558.9430844897 0.0
0.0 0.0 0.0

-326317.00909013115 2.3311637118313987e7 0.0
2.3311637118313987e7 2.83834233851196e7 0.0
0.0 0.0 0.0

-361937.742896935 1.2423644408052614e7 0.0
1.2423644408052614e7 -5.1638370692814864e7 0.0
0.0 0.0 0.0

147907.13219285943 1.362129881660032e7 0.0
1.362129881660032e7 -4.031490856355357e7 0.0
0.0 0.0 0.0

-153662.35057454044 2.392298335211335e7 0.0
2.392298335211335e7 -8.371216146742719e6 0.0
0.0 0.0 0.0

-1.1780247535735723e7 2.9741895666812144e7 0.0
2.9741895666812144e7 5.253517520385746e6 0.0
0.0 0.0 0.0

2.5035473618159825e6 7.253989191972524e6 0.0
7.253989191972524e6 -1.4642986163690582e7 0.0
0.0 0.0 0.0

-1.7754639471627013e6 2.1135810973723855e7 0.0
2.1135810973723855e7 2.380335832326873e6 0.0
0.0 0.0 0.0

-1.8986072936103516e6 2.5924943276983585e7 0.0
2.5924943276983585e7 -2.398982881370663e6 0.0
0.0 0.0 0.0

-717869.4113154438 2.7095054475353263e7 0.0
2.7095054475353263e7 -2.4983584070212543e6 0.0
0.0 0.0 0.0

-2.664180179204926e6 2.0122025952124886e7 0.0
2.0122025952124886e7 -3.439724173404228e7 0.0
0.0 0.0 0.0

750764.3954145424 1.431430146733685e7 0.0
1.431430146733685e7 -3.3041401189149607e7 0.0
0.0 0.0 0.0

-4.3220060613706885e6 1.5239978817090504e7 0.0
1.5239978817090504e7 7.244119319045946e6 0.0
0.0 0.0 0.0

-3.289891433986174e6 2.2256819500624023e7 0.0
2.2256819500624023e7 1.3939388850748567e7 0.0
0.0 0.0 0.0

-651424.5860022195 1.8049601425278317e7 0.0
1.8049601425278317e7 -3.510797437981338e7 0.0
0.0 0.0 0.0

266341.52165595675 2.8245660930774245e7 0.0
2.8245660930774245e7 -5.730364235022835e6 0.0
0.0 0.0 0.0

1.9607897796653803e6 2.5541472440659963e6 0.0
2.5541472440659963e6 -6.305204128980531e6 0.0
0.0 0.0 0.0

9.640093370649265e6 4.148625442652849e7 0.0
4.148625442652849e7 -4.1749279662543708e6 0.0
0.0 0.0 0.0

2.1468466187614305e6 8.288127759785115e6 0.0
8.288127759785115e6 -1.3288521961998843e7 0.0
0.0 0.0 0.0

-1.134433516566624e6 1.802152738534574e7 0.0
1.802152738534574e7 -4.526024941186997e6 0.0
0.0 0.0 0.0

-3.29198458639032e6 2.5666371391556572e7 0.0
2.5666371391556572e7 1.5563780599855058e7 0.0
0.0 0.0 0.0

-2.1570800006430037e6 1.761948321123728e7 0.0
1.761948321123728e7 4.216648537016306e6 0.0
0.0 0.0 0.0

-2.5521566648273137e6 2.025688501980425e7 0.0
2.025688501980425e7 -1.9844867122975008e6 0.0
0.0 0.0 0.0

-1.9595626839912909e6 2.659763113938768e7 0.0
2.659763113938768e7 -1.0141101000415476e6 0.0
0.0 0.0 0.0

-5.013339616512004e6 1.3601749482754542e7 0.0
1.3601749482754542e7 7.473994817017473e6 0.0
0.0 0.0 0.0

-9.669483985758387e6 1.815924851687184e6 0.0
1.815924851687184e6 1.984016144801836e7 0.0
0.0 0.0 0.0

-2.274312494120322e6 2.0982650189966355e7 0.0
2.0982650189966355e7 1.4010846814696115e7 0.0
0.0 0.0 0.0

-1.741212697448126e6 2.3579242996020008e7 0.0
2.3579242996020008e7 8.194034157117555e6 0.0
0.0 0.0 0.0

-214864.53504768154 8.30317497387737e6 0.0
8.30317497387737e6 -8.304319686213692e6 0.0
0.0 0.0 0.0

-3.390043422769051e6 1.870245352646743e7 0.0
1.870245352646743e7 1.7067360508346535e7 0.0
0.0 0.0 0.0

-1.50829101894362e6 2.7591805837200005e7 0.0
2.7591805837200005e7 -3.3388728919571415e6 0.0
0.0 0.0 0.0

1.9862428573147282e6 1.0663395402162366e7 0.0
1.0663395402162366e7 -3.508291256423879e7 0.0
0.0 0.0 0.0

-1.0850393184278121e7 3.0064611129550062e7 0.0
3.0064611129550062e7 4.382178136791286e6 0.0
0.0 0.0 0.0

-1.8655248771913226e6 2.3164813319319673e7 0.0
2.3164813319319673e7 -5.690629698590249e6 0.0
0.0 0.0 0.0

1.6713965591720066e6 2.6453593191962964e6 0.0
2.6453593191962964e6 -5.133081990232369e6 0.0
0.0 0.0 0.0

-4.887349714750255e6 3.1999228065734267e7 0.0
3.1999228065734267e7 8.313213166785367e6 0.0
0.0 0.0 0.0

-1.003549411832061e7 1.3253643305531103e7 0.0
1.3253643305531103e7 2.4816486881007105e7 0.0
0.0 0.0 0.0

-2.2707692548527033e6 2.2160187965175975e7 0.0
2.2160187965175975e7 -3.1848979377429313e6 0.0
0.0 0.0 0.0

-382897.16638213943 2.93495554383239e7 0.0
2.93495554383239e7 -2.123755976032262e6 0.0
0.0 0.0 0.0

-1.6470309841686192e6 3.0112873414384894e7 0.0
3.0112873414384894e7 -593209.754351105 0.0
0.0 0.0 0.0

-1.404085263262356e6 2.683368106897273e7 0.0
2.683368106897273e7 -4.718727687387792e6 0.0
0.0 0.0 0.0

-1.2863551887703477e6 2.669678133129847e7 0.0
2.669678133129847e7 1.2083564236442002e6 0.0
0.0 0.0 0.0

2.8589387944939947e6 2.5889109660577453e6 0.0
2.5889109660577453e6 -1.107108279681101e7 0.0
0.0 0.0 0.0

1.5629810852762784e6 3.3858387757402696e7 0.0
3.3858387757402696e7 -5.113288395908683e6 0.0
0.0 0.0 0.0

-2.1307301659868553e7 2.1725896308931697e7 0.0
2.1725896308931697e7 -9.069652689443433e7 0.0
0.0 0.0 0.0

2.1316736635107156e7 2.2665403519922573e7 0.0
2.2665403519922573e7 8.805829730018078e7 0.0
0.0 0.0 0.0

674855.4916276559 1.8208466805152282e7 0.0
1.8208466805152282e7 -2.4254859205238096e7 0.0
0.0 0.0 0.0

-213204.89028222905 2.5942225499638412e7 0.0
2.5942225499638412e7 -6.461586136187832e6 0.0
0.0 0.0 0.0

-6.191083680154264e6 2.012989617440872e7 0.0
2.012989617440872e7 -2.758606117303436e7 0.0
0.0 0.0 0.0

-1.957770931397603e6 2.1870624763651293e7 0.0
2.1870624763651293e7 -6.079715899401582e6 0.0
0.0 0.0 0.0

2.0533154223450562e6 2.575178377064561e7 0.0
2.575178377064561e7 -1.5208346894539759e7 0.0
0.0 0.0 0.0

-1.5428882433201566e6 2.0197883060360253e7 0.0
2.0197883060360253e7 -9.377394302736785e6 0.0
0.0 0.0 0.0

-2.0456097284002749e6 2.6083527404249072e7 0.0
2.6083527404249072e7 185715.02236270625 0.0
0.0 0.0 0.0

-322278.1760079451 1.0838043144472497e7 0.0
1.0838043144472497e7 -6.470471042813203e7 0.0
0.0 0.0 0.0

-1.1467423432640508e7 2.8324444563273724e7 0.0
2.8324444563273724e7 3.5459221066633374e6 0.0
0.0 0.0 0.0

-2.497365121030603e6 2.594570485761856e7 0.0
2.594570485761856e7 8.0537759598989235e6 0.0
0.0 0.0 0.0

-774662.7120026087 2.0522823311986543e7 0.0
2.0522823311986543e7 -6.897462840946678e6 0.0
0.0 0.0 0.0

766501.993316777 1.5132076449929819e7 0.0
1.5132076449929819e7 -3.111219834509634e7 0.0
0.0 0.0 0.0

2.077302396578804e7 2.3655538371373754e7 0.0
2.3655538371373754e7 6.924341271650584e7 0.0
0.0 0.0 0.0

858196.7472535111 2.656031592991857e7 0.0
2.656031592991857e7 -1.0302925894439414e7 0.0
0.0 0.0 0.0

-3.1271940187910922e7 7.418291161557838e7 0.0
7.418291161557838e7 360738.7027727887 0.0
0.0 0.0 0.0

696372.9852839485 1.740771353084979e7 0.0
1.740771353084979e7 -2.5902144599695854e7 0.0
0.0 0.0 0.0

-606618.4237083319 2.6348802233978387e7 0.0
2.6348802233978387e7 -3.9118557597941337e6 0.0
0.0 0.0 0.0

2.66218879902781e6 2.6476536432446176e6 0.0
2.6476536432446176e6 -1.0140381548759412e7 0.0
0.0 0.0 0.0

1.5306747937134542e6 9.24059539920013e6 0.0
9.24059539920013e6 -3.438225255373003e7 0.0
0.0 0.0 0.0

-827342.8388986635 2.958946446503521e7 0.0
2.958946446503521e7 256246.37021313945 0.0
0.0 0.0 0.0

-1.0127860362480719e7 2.060777125272469e7 0.0
2.060777125272469e7 -5.272940435513428e7 0.0
0.0 0.0 0.0

-1.0072008980759513e6 2.135008548455731e7 0.0
2.135008548455731e7 -5.221396364108531e6 0.0
0.0 0.0 0.0

929541.4470302388 1.4428277251374792e7 0.0
1.4428277251374792e7 -1.4461100250133391e7 0.0
0.0 0.0 0.0

-2.185710122232133e6 1.891962672645704e7 0.0
1.891962672645704e7 7.741885049868559e6 0.0
0.0 0.0 0.0

800188.6630709898 1.66687297348915e7 0.0
1.66687297348915e7 -2.7636242043118216e7 0.0
0.0 0.0 0.0

-3.395403996332092e6 1.824834637075268e7 0.0
1.824834637075268e7 6.715936414572648e6 0.0
0.0 0.0 0.0

535834.053174003 2.153508592919486e7 0.0
2.153508592919486e7 -2.289378553238937e7 0.0
0.0 0.0 0.0

-3.1732709931285452e7 3.474285212805308e7 0.0
3.474285212805308e7 -1.5603010913727295e7 0.0
0.0 0.0 0.0

-7.990400691974179e6 -4.051084695002321e6 0.0
-4.051084695002321e6 2.1660270849532176e7 0.0
0.0 0.0 0.0

-2.5297207222257513e6 1.8601864540977836e7 0.0
1.8601864540977836e7 1.1575623970192406e7 0.0
0.0 0.0 0.0

-1.0753719989102338e6 2.7266785198310364e7 0.0
2.7266785198310364e7 48501.330601315014 0.0
0.0 0.0 0.0

-5.734083974763051e6 2.961208442181293e6 0.0
2.961208442181293e6 5.951059891125895e7 0.0
0.0 0.0 0.0

1.9135276371410424e6 2.356445359611962e7 0.0
2.356445359611962e7 1.8056266224400938e7 0.0
0.0 0.0 0.0

-1.7831115319833998e6 2.103278887292307e7 0.0
2.103278887292307e7 -7.730255234669172e6 0.0
0.0 0.0 0.0

1.6108752756308233e6 2.5614085804844856e7 0.0
2.5614085804844856e7 -1.402303859971948e7 0.0
0.0 0.0 0.0

-636240.3218692439 2.2693317201823212e7 0.0
2.2693317201823212e7 -1.2035392532930385e7 0.0
0.0 0.0 0.0

-1.625102587178462e6 1.690691149926258e7 0.0
1.690691149926258e7 -9.007310474714004e6 0.0
0.0 0.0 0.0

-1.1779583459803492e6 2.522133484292704e7 0.0
2.522133484292704e7 -7.59096071654008e6 0.0
0.0 0.0 0.0

-2.646538979848655e6 2.221406819099889e7 0.0
2.221406819099889e7 1.793169729777221e7 0.0
0.0 0.0 0.0

-1.6630766705168812e6 2.3061403826335117e7 0.0
2.3061403826335117e7 3.8861346024509147e6 0.0
0.0 0.0 0.0

-2.442452523260163e6 2.1615521747068025e7 0.0
2.1615521747068025e7 -1.808188861902497e6 0.0
0.0 0.0 0.0

1.4022529144026712e6 9.153036359093878e6 0.0
9.153036359093878e6 -4.473984473477843e7 0.0
0.0 0.0 0.0

-6.293183396959176e6 3.2677987979946703e7 0.0
3.2677987979946703e7 8.4281834075385e6 0.0
0.0 0.0 0.0

-7.94272828152329e6 2.6335222906362363e6 0.0
2.6335222906362363e6 1.503022845307168e7 0.0
0.0 0.0 0.0

-2.51485487278583e6 2.1827866653428677e7 0.0
2.1827866653428677e7 1.6717812155536408e7 0.0
0.0 0.0 0.0

473517.88014247315 1.465091592172188e7 0.0
1.465091592172188e7 -1.1740509758562779e7 0.0
0.0 0.0 0.0

2.55593828130229e6 3.3853667022080417e6 0.0
3.3853667022080417e6 -2.7266324437348627e7 0.0
0.0 0.0 0.0

768995.8186305594 1.5855470480579156e7 0.0
1.5855470480579156e7 -2.9459927483151842e7 0.0
0.0 0.0 0.0

-6.7284076779547455e6 9.507909254546866e6 0.0
9.507909254546866e6 7.816451316440582e6 0.0
0.0 0.0 0.0

-7.267034628168656e6 1.69734038895524e7 0.0
1.69734038895524e7 3.499335651001485e7 0.0
0.0 0.0 0.0

-1.615541085136334e6 2.36183439323042e7 0.0
2.36183439323042e7 -6.872213489418519e6 0.0
0.0 0.0 0.0

-7.897725347778935e6 -4.1402612262812243e6 0.0
-4.1402612262812243e6 2.032330062492077e7 0.0
0.0 0.0 0.0

-3.809667413745066e6 1.678083234055428e7 0.0
1.678083234055428e7 6.98189116508167e6 0.0
0.0 0.0 0.0

1.6754239878849164e6 2.6452714352147672e7 0.0
2.6452714352147672e7 -1.254076540573752e7 0.0
0.0 0.0 0.0

-3.533395298784351e6 2.2576683897280965e7 0.0
2.2576683897280965e7 -2.4372574606201716e7 0.0
0.0 0.0 0.0

568749.145175565 1.4575385525517937e7 0.0
1.4575385525517937e7 -2.0298738023367524e7 0.0
0.0 0.0 0.0

-1.0322180348368541e6 1.1430006349169895e7 0.0
1.1430006349169895e7 -7.849540636280784e6 0.0
0.0 0.0 0.0

-971416.4023725701 2.265971033372299e7 0.0
2.265971033372299e7 -4.856698570601537e6 0.0
0.0 0.0 0.0

-647580.0471611787 2.180444750571571e7 0.0
2.180444750571571e7 3.313703524733062e7 0.0
0.0 0.0 0.0

-1.3844854364206356e6 3.0478160199263692e7 0.0
3.0478160199263692e7 -1.6619485672188532e6 0.0
0.0 0.0 0.0

-4.336830124495802e6 2.2847184563371513e7 0.0
2.2847184563371513e7 2.4293415344966635e7 0.0
0.0 0.0 0.0

-2.2208273174445694e6 2.551745126931279e7 0.0
2.551745126931279e7 1.4213710923658727e7 0.0
0.0 0.0 0.0

-341629.88234451367 1.3004233483483836e7 0.0
1.3004233483483836e7 -1.1768248312361658e7 0.0
0.0 0.0 0.0

-2.4564159680150514e6 1.7482585888293564e7 0.0
1.7482585888293564e7 8.05557734025823e6 0.0
0.0 0.0 0.0

1.185309696485688e6 2.3208260757934332e7 0.0
2.3208260757934332e7 1.810687765694334e7 0.0
0.0 0.0 0.0

-1.9555115362371886e6 1.7777072626865596e7 0.0
1.7777072626865596e7 -7.240535683182288e6 0.0
0.0 0.0 0.0

-546006.1333536524 1.8434380200499088e7 0.0
1.8434380200499088e7 -3.2381500232098356e7 0.0
0.0 0.0 0.0

-887906.1535935823 2.3924991821325343e7 0.0
2.3924991821325343e7 -4.510041214710253e6 0.0
0.0 0.0 0.0

603299.7832077825 1.897059060993205e7 0.0
1.897059060993205e7 -2.2646866867776062e7 0.0
0.0 0.0 0.0

-2.0218182778013367e6 1.9714281835216492e7 0.0
1.9714281835216492e7 5.802051212779479e6 0.0
0.0 0.0 0.0

-1.1155472732829915e7 1.9570412265673492e7 0.0
1.9570412265673492e7 -3.9439585317434534e7 0.0
0.0 0.0 0.0

-762303.7559277102 2.5153185309003964e7 0.0
2.5153185309003964e7 -4.203126183519805e6 0.0
0.0 0.0 0.0

9.413976172155287e6 2.5444880030094735e7 0.0
2.5444880030094735e7 554895.5044813948 0.0
0.0 0.0 0.0

-5.798546989210919e6 5.3129147179187685e6 0.0
5.3129147179187685e6 5.823665982390341e7 0.0
0.0 0.0 0.0

-1.0612375972126763e7 4.473138406023918e7 0.0
4.473138406023918e7 4.8450489757702295e6 0.0
0.0 0.0 0.0

-3.0663502637577765e6 2.5844073606171664e7 0.0
2.5844073606171664e7 1.2460097529364184e7 0.0
0.0 0.0 0.0

-4.979076515921887e6 1.777400576196904e7 0.0
1.777400576196904e7 3.88297697336291e7 0.0
0.0 0.0 0.0

-3.480471563447286e6 2.910309951648814e7 0.0
2.910309951648814e7 1.1277028488133112e7 0.0
0.0 0.0 0.0

-1.880049876406997e6 1.977826810474374e7 0.0
1.977826810474374e7 2.3583842880482003e6 0.0
0.0 0.0 0.0

-545951.1185157951 2.100818908348509e7 0.0
2.100818908348509e7 -8.105956158240181e6 0.0
0.0 0.0 0.0

-716943.9711013513 2.3119401358786747e7 0.0
2.3119401358786747e7 -6.062024359564615e6 0.0
0.0 0.0 0.0

-1.6585016169265402e6 1.2871076220342506e7 0.0
1.2871076220342506e7 353124.83084907115 0.0
0.0 0.0 0.0

1.7398144240551586e6 2.7336213426931843e7 0.0
2.7336213426931843e7 -1.1184700304111978e7 0.0
0.0 0.0 0.0

1.841808272942908e6 7.239980815024247e6 0.0
7.239980815024247e6 -2.664795196726487e7 0.0
0.0 0.0 0.0

1.0284238450765642e6 7.450764932928888e6 0.0
7.450764932928888e6 -1.2086576601744546e7 0.0
0.0 0.0 0.0

-2.5444636730536446e6 2.486955327388879e7 0.0
2.486955327388879e7 1.7072291961635135e7 0.0
0.0 0.0 0.0

-1.1493294577286188e6 2.9820997566849418e7 0.0
2.9820997566849418e7 -2.915749154519562e6 0.0
0.0 0.0 0.0

8.294732060470808e6 2.5887893836359773e7 0.0
2.5887893836359773e7 -2.1556340673877643e6 0.0
0.0 0.0 0.0

-1.5119903976791391e7 3.2058091923278823e7 0.0
3.2058091923278823e7 4.664108997808235e6 0.0
0.0 0.0 0.0

1.6178435621549413e6 7.06508860801303e6 0.0
7.06508860801303e6 -1.7543425043933064e7 0.0
0.0 0.0 0.0

-2.2587429658131595e6 1.8609229087996796e7 0.0
1.8609229087996796e7 -5.489178136120133e6 0.0
0.0 0.0 0.0

6.157482451044481e7 2.0612148923035875e7 0.0
2.0612148923035875e7 4.2461394801033605e6 0.0
0.0 0.0 0.0

-732307.5888868212 1.1846689709969344e7 0.0
1.1846689709969344e7 -9.49984444208187e6 0.0
0.0 0.0 0.0

1.6666926560940277e6 7.474495223871895e6 0.0
7.474495223871895e6 -3.2901858327460323e7 0.0
0.0 0.0 0.0

-3.095862812218312e6 2.1276776582469363e7 0.0
2.1276776582469363e7 3.2517143556383293e7 0.0
0.0 0.0 0.0

700288.4131444506 2.022750994447937e7 0.0
2.022750994447937e7 -2.4204874208988536e7 0.0
0.0 0.0 0.0

-7.997169736203384e6 1.4723913474328369e7 0.0
1.4723913474328369e7 2.379356075569562e7 0.0
0.0 0.0 0.0

-1.6802084766612858e7 4.248564970680274e7 0.0
4.248564970680274e7 5.617077130785336e6 0.0
0.0 0.0 0.0

-3.1170356692673676e6 2.177442357705355e7 0.0
2.177442357705355e7 3.0516895915283345e7 0.0
0.0 0.0 0.0

-4.3023772085394e6 3.005510503936875e7 0.0
3.005510503936875e7 1.0816550921929179e7 0.0
0.0 0.0 0.0

-2.704740065254308e7 3.205416195528703e7 0.0
3.205416195528703e7 -1.4844701861173838e7 0.0
0.0 0.0 0.0

-2.571342230932557e6 2.175599326480738e7 0.0
2.175599326480738e7 1.319096518376279e6 0.0
0.0 0.0 0.0

5.726235777150026e7 7.597674094878353e6 0.0
7.597674094878353e6 4135.051432248205 0.0
0.0 0.0 0.0

229724.60191602353 2.358962405272977e7 0.0
2.358962405272977e7 -1.088706949735621e7 0.0
0.0 0.0 0.0

-1.8762738102941075e6 2.0228536339562725e7 0.0
2.0228536339562725e7 -781260.0021134294 0.0
0.0 0.0 0.0

1.7534024712177827e6 2.8189696751885932e7 0.0
2.8189696751885932e7 -9.787084202392938e6 0.0
0.0 0.0 0.0

-1.823084592514906e7 2.7654168702428583e7 0.0
2.7654168702428583e7 -7.857750173198043e6 0.0
0.0 0.0 0.0

-412358.39044508827 1.1115413040724328e7 0.0
1.1115413040724328e7 -3.4246387976081423e6 0.0
0.0 0.0 0.0

-2.913810103088606e6 2.5441944225984372e7 0.0
2.5441944225984372e7 1.8079088044438343e7 0.0
0.0 0.0 0.0

-5.151942696100134e6 2.0694778915160224e7 0.0
2.0694778915160224e7 -2.5677169189160608e7 0.0
0.0 0.0 0.0

-9.583721394900609e6 7.812629785615421e6 0.0
7.812629785615421e6 3.554071419957264e7 0.0
0.0 0.0 0.0

-1.4762412577338452e6 2.941544161594685e7 0.0
2.941544161594685e7 -1.8599186372801636e6 0.0
0.0 0.0 0.0

-1.7293323416919112e6 2.04244287362713e7 0.0
2.04244287362713e7 728145.4739457364 0.0
0.0 0.0 0.0

-532749.6089457847 3.0020053720180005e7 0.0
3.0020053720180005e7 -910983.3378822273 0.0
0.0 0.0 0.0

554311.6874363963 2.0898267062682897e7 0.0
2.0898267062682897e7 -1.431247331868434e7 0.0
0.0 0.0 0.0

-6.758131884785797e6 1.0954937590740073e7 0.0
1.0954937590740073e7 1.5951225626908962e7 0.0
0.0 0.0 0.0

-3.0909992064092266e6 2.9888698999633096e7 0.0
2.9888698999633096e7 7.307717392717671e6 0.0
0.0 0.0 0.0

-2.9773329061912717e6 2.4651801724860642e7 0.0
2.4651801724860642e7 2.0748996077811453e7 0.0
0.0 0.0 0.0

-2.2021810827386314e6 2.4309994641870737e7 0.0
2.4309994641870737e7 1.5028341969775222e7 0.0
0.0 0.0 0.0

-822126.6000519525 1.7199688516715188e7 0.0
1.7199688516715188e7 -6.3006202036265e6 0.0
0.0 0.0 0.0

550376.6635691617 1.4295472869788304e7 0.0
1.4295472869788304e7 -3.547282909651794e7 0.0
0.0 0.0 0.0

-2.3743651620585527e6 2.369067775138822e7 0.0
2.369067775138822e7 2.7943874512953367e6 0.0
0.0 0.0 0.0

609515.7800673833 2.286903877469114e7 0.0
2.286903877469114e7 -1.7488386165880512e7 0.0
0.0 0.0 0.0

-92904.97143663 2.0551361446554106e7 0.0
2.0551361446554106e7 -1.6407474451601889e7 0.0
0.0 0.0 0.0

620045.3867635457 3.0252331908320382e7 0.0
3.0252331908320382e7 -7.165403209002127e6 0.0
0.0 0.0 0.0

-547927.0301412861 2.3928106774558194e7 0.0
2.3928106774558194e7 -1.1402968356892854e7 0.0
0.0 0.0 0.0

1.0413940744244661e6 1.4706233746464172e7 0.0
1.4706233746464172e7 -2.8215755988815628e7 0.0
0.0 0.0 0.0

1.3247600372704389e6 7.575025771173173e6 0.0
7.575025771173173e6 -7.13174597488405e6 0.0
0.0 0.0 0.0

-3.317759533921612e6 7.428621740749725e6 0.0
7.428621740749725e6 7.501671241736375e6 0.0
0.0 0.0 0.0

2.157389214642142e6 4.075396899697405e7 0.0
4.075396899697405e7 -975581.5532161596 0.0
0.0 0.0 0.0

-2.519615687978451e6 2.2413501761683457e7 0.0
2.2413501761683457e7 2.8710115980829997e6 0.0
0.0 0.0 0.0

-898548.0203811559 2.558927238820548e7 0.0
2.558927238820548e7 -8.667971224317862e6 0.0
0.0 0.0 0.0

2.9562888507549623e6 4.220353407796642e6 0.0
4.220353407796642e6 -1.6565716048276855e7 0.0
0.0 0.0 0.0

-6.046432673595265e6 7.869940284318981e6 0.0
7.869940284318981e6 5.8905317151469015e7 0.0
0.0 0.0 0.0

1.0854840637187557e6 1.162825553977194e7 0.0
1.162825553977194e7 -2.138615250202937e7 0.0
0.0 0.0 0.0

9.660848236421779e6 3.1079823246849857e7 0.0
3.1079823246849857e7 -6.540020842531309e6 0.0
0.0 0.0 0.0

2.873420857953699e6 3.235007604077267e7 0.0
3.235007604077267e7 -6.524090649104914e6 0.0
0.0 0.0 0.0

-3.0984509266938823e6 3.064719359401712e7 0.0
3.064719359401712e7 6.0830932753220005e6 0.0
0.0 0.0 0.0

1.981134215292737e6 3.5367610574329165e6 0.0
3.5367610574329165e6 -3.9150725321958676e7 0.0
0.0 0.0 0.0

-292414.0707588587 2.675775814698601e7 0.0
2.675775814698601e7 -5.027399759161915e6 0.0
0.0 0.0 0.0

557233.8797293971 2.849348389041768e7 0.0
2.849348389041768e7 -6.757156533681657e6 0.0
0.0 0.0 0.0

1.4362007778545711e6 8.499130195093574e6 0.0
8.499130195093574e6 -3.624939023733292e7 0.0
0.0 0.0 0.0

104481.23070053337 3.2664593005401816e7 0.0
3.2664593005401816e7 -3.835798523065346e6 0.0
0.0 0.0 0.0

4.706744325955266e6 2.6537483581620447e7 0.0
2.6537483581620447e7 -9.153692513695622e6 0.0
0.0 0.0 0.0

-1.2941058937650328e6 2.604320569432472e7 0.0
2.604320569432472e7 -6.137166653720712e6 0.0
0.0 0.0 0.0

-1.6967981571907587e6 1.93270498457994e7 0.0
1.93270498457994e7 -3.501131134497105e7 0.0
0.0 0.0 0.0

1.297596547073965e6 8.0900313955876455e6 0.0
8.0900313955876455e6 -1.6036045631843835e7 0.0
0.0 0.0 0.0

193164.8649691278 1.417615567397754e7 0.0
1.417615567397754e7 -1.6921857452719007e7 0.0
0.0 0.0 0.0

252214.74162810203 2.6800496986425605e7 0.0
2.6800496986425605e7 -9.595612873099761e6 0.0
0.0 0.0 0.0

3.694321945101531e6 2.6365996633477114e7 0.0
2.6365996633477114e7 -1.1214797367330424e7 0.0
0.0 0.0 0.0

-675827.1495503797 2.467806865708983e7 0.0
2.467806865708983e7 -1.0023383181528613e7 0.0
0.0 0.0 0.0

2.298528271139782e6 8.923862314172147e6 0.0
8.923862314172147e6 -1.709877002599902e7 0.0
0.0 0.0 0.0

2.6246202165803853e6 4.996463140699303e6 0.0
4.996463140699303e6 -3.250947663578465e7 0.0
0.0 0.0 0.0

419676.70331943315 2.054696733882672e7 0.0
2.054696733882672e7 -1.9487567954482343e7 0.0
0.0 0.0 0.0

-172906.84208769538 1.4984275498399671e7 0.0
1.4984275498399671e7 -1.5362743103872003e7 0.0
0.0 0.0 0.0

-2.7214854618542674e6 2.0411046856157668e7 0.0
2.0411046856157668e7 1.265806762161186e6 0.0
0.0 0.0 0.0

-1.2520766249945443e7 3.2545747760176837e7 0.0
3.2545747760176837e7 6.096377150067165e6 0.0
0.0 0.0 0.0

3.6378969949284755e6 1.713052805505623e7 0.0
1.713052805505623e7 9.25370417894623e7 0.0
0.0 0.0 0.0

-1.004532260051123e7 8.487556212876368e6 0.0
8.487556212876368e6 3.271863551754103e7 0.0
0.0 0.0 0.0

2.97906206959865e6 3.0104472464832295e7 0.0
3.0104472464832295e7 -9.720079617657293e6 0.0
0.0 0.0 0.0

-2.674392436723347e6 2.110358081090379e7 0.0
2.110358081090379e7 2.905611275903969e6 0.0
0.0 0.0 0.0

-7.288315426561285e6 1.0352082735101687e7 0.0
1.0352082735101687e7 4.6265632836938344e7 0.0
0.0 0.0 0.0

2.7187127521838807e6 5.033295283927024e6 0.0
5.033295283927024e6 -2.864814257318837e7 0.0
0.0 0.0 0.0

-1.734310951162433e6 2.2381885515100084e7 0.0
2.2381885515100084e7 5.49695580988807e6 0.0
0.0 0.0 0.0

288670.7991930861 1.9726384421187416e7 0.0
1.9726384421187416e7 -2.6466194510189217e7 0.0
0.0 0.0 0.0

1.7631592355800383e6 2.9140924141262062e7 0.0
2.9140924141262062e7 -8.579039030796427e6 0.0
0.0 0.0 0.0

71992.68547872012 2.7097272763879757e7 0.0
2.7097272763879757e7 -6.097916633706447e6 0.0
0.0 0.0 0.0

-3.500173984136271e6 1.9441586124742605e7 0.0
1.9441586124742605e7 1.0086309064363426e7 0.0
0.0 0.0 0.0

-1.3963234751872038e6 2.1599883347053707e7 0.0
2.1599883347053707e7 -2.229039917954485e6 0.0
0.0 0.0 0.0

-8.366687950408006e6 1.287623555186668e7 0.0
1.287623555186668e7 1.5718802400508596e7 0.0
0.0 0.0 0.0

-5.8588190066015e7 3.227167307333783e7 0.0
3.227167307333783e7 582528.2723677196 0.0
0.0 0.0 0.0

7.2530191743884e6 2.615746493135693e7 0.0
2.615746493135693e7 1.4132076621889958e7 0.0
0.0 0.0 0.0

-2.661175405333639e6 2.686809991506701e7 0.0
2.686809991506701e7 1.4316794573349591e7 0.0
0.0 0.0 0.0

-995680.5488115826 3.2296372458464075e7 0.0
3.2296372458464075e7 1.4791536109154262e6 0.0
0.0 0.0 0.0

1.3215124439506736e6 1.1156760038594574e7 0.0
1.1156760038594574e7 -2.643472529818308e7 0.0
0.0 0.0 0.0

1.5827838149120528e6 9.054225034820698e6 0.0
9.054225034820698e6 -3.2192124430474654e7 0.0
0.0 0.0 0.0

1.5604380492659993e6 1.1432226786463862e7 0.0
1.1432226786463862e7 -3.832609562253786e7 0.0
0.0 0.0 0.0

-3.0590695716460883e6 1.96684979985798e7 0.0
1.96684979985798e7 6.444399864487624e6 0.0
0.0 0.0 0.0

-8.051767978607686e6 1.6371456146418247e7 0.0
1.6371456146418247e7 3.217567938553569e7 0.0
0.0 0.0 0.0

-5.937093719300069e6 1.373064150057861e7 0.0
1.373064150057861e7 1.7052421450172555e7 0.0
0.0 0.0 0.0

6.878666756974606e6 2.6285279792932067e7 0.0
2.6285279792932067e7 -4.603542065499959e6 0.0
0.0 0.0 0.0

-4.1852959291273975e6 2.1219837946933635e7 0.0
2.1219837946933635e7 -2.3466771413698934e7 0.0
0.0 0.0 0.0

-3.701844497332816e6 3.0165449576902013e7 0.0
3.0165449576902013e7 9.179957120415904e6 0.0
0.0 0.0 0.0

1.0622670752006121e7 3.95028892179584e7 0.0
3.95028892179584e7 -4.7275837362994235e6 0.0
0.0 0.0 0.0

-1.0359523797322322e7 3.276185897826526e7 0.0
3.276185897826526e7 7.179795204976366e6 0.0
0.0 0.0 0.0

-3.248683126246795e6 2.3216324244359776e7 0.0
2.3216324244359776e7 2.4660875872153066e7 0.0
0.0 0.0 0.0

-326788.91303703934 7.966389999606604e6 0.0
7.966389999606604e6 -6.358119784083539e7 0.0
0.0 0.0 0.0

188050.53971113358 1.982196827441517e7 0.0
1.982196827441517e7 -1.2509507966613203e7 0.0
0.0 0.0 0.0

2.979031915798058e6 2.6099522373908064e6 0.0
2.6099522373908064e6 -1.331382164304122e7 0.0
0.0 0.0 0.0

1.8185158860922065e6 9.663604321742654e6 0.0
9.663604321742654e6 -3.967437913077165e7 0.0
0.0 0.0 0.0

-3.0245086589285787e6 3.138747882527174e7 0.0
3.138747882527174e7 4.916519067029661e6 0.0
0.0 0.0 0.0

-7.3327891783392895e6 1.6873861551135503e7 0.0
1.6873861551135503e7 3.008806707082638e7 0.0
0.0 0.0 0.0

-3.4853121195081025e6 2.2573211037707433e7 0.0
2.2573211037707433e7 2.6744429770538565e7 0.0
0.0 0.0 0.0

-2.9123593075068807e6 2.781798385923469e7 0.0
2.781798385923469e7 1.3381562775922352e7 0.0
0.0 0.0 0.0

1.8375706579790637e6 1.1904359068028864e7 0.0
1.1904359068028864e7 -1.8920841529702753e7 0.0
0.0 0.0 0.0

-9.408288338206418e6 2.7166866117717016e7 0.0
2.7166866117717016e7 -1.4450659003314635e7 0.0
0.0 0.0 0.0

2.892235941012241e6 4.042147929726175e7 0.0
4.042147929726175e7 -2.960541059387361e6 0.0
0.0 0.0 0.0

-4.335581305098713e6 3.270637851343654e7 0.0
3.270637851343654e7 6.6884201261742925e6 0.0
0.0 0.0 0.0

-3.0480900438352264e6 2.2294296779013917e7 0.0
2.2294296779013917e7 2.856293230263487e7 0.0
0.0 0.0 0.0

-4.978360547043216e6 8.098850646144068e7 0.0
8.098850646144068e7 -1.2515793580130354e7 0.0
0.0 0.0 0.0

-7.478050339429609e6 2.6216827719138335e7 0.0
2.6216827719138335e7 -1.696443494589921e7 0.0
0.0 0.0 0.0

-3.1928731401165174e6 2.1816634905241184e7 0.0
2.1816634905241184e7 1.254900524784348e7 0.0
0.0 0.0 0.0

-1.0859772722634094e7 4.777832719963109e6 0.0
4.777832719963109e6 1.9170557907909483e7 0.0
0.0 0.0 0.0

-772118.9601952676 2.184735027549356e7 0.0
2.184735027549356e7 -6.467222216032781e6 0.0
0.0 0.0 0.0

-1.4862452039252743e7 2.812766914179451e7 0.0
2.812766914179451e7 -8.365000857729083e6 0.0
0.0 0.0 0.0

-1.1040455863863345e7 4.259236145123294e7 0.0
4.259236145123294e7 4.384173314385587e6 0.0
0.0 0.0 0.0

197714.98486284912 2.5413923405909665e7 0.0
2.5413923405909665e7 -8.835650803420868e6 0.0
0.0 0.0 0.0

-403339.6195574235 2.778752859064882e7 0.0
2.778752859064882e7 -7.787736996702722e6 0.0
0.0 0.0 0.0

-9.63144892879309e6 6.049478021321736e6 0.0
6.049478021321736e6 2.9545848642953023e7 0.0
0.0 0.0 0.0

2.696441178630816e6 6.396752100935476e6 0.0
6.396752100935476e6 -2.531224440807869e7 0.0
0.0 0.0 0.0

3.46133220511409e6 3.914873612374696e7 0.0
3.914873612374696e7 -2.185942480775071e6 0.0
0.0 0.0 0.0

-3.095735295355145e6 2.39181358260469e7 0.0
2.39181358260469e7 2.2741908671664633e7 0.0
0.0 0.0 0.0

-2.0373800135859367e7 2.9897763441928547e7 0.0
2.9897763441928547e7 -4.955237831733715e6 0.0
0.0 0.0 0.0

-3.4117797572275763e6 6.840639964381379e6 0.0
6.840639964381379e6 523965.5270806998 0.0
0.0 0.0 0.0

-1.6705384950559754e7 2.98183612703432e7 0.0
2.98183612703432e7 -1.3622711226209836e7 0.0
0.0 0.0 0.0

-968517.180295075 2.639091912545343e7 0.0
2.639091912545343e7 -7.199585664748749e6 0.0
0.0 0.0 0.0

519840.1782280039 1.9764160423722222e7 0.0
1.9764160423722222e7 -2.1042788927563045e7 0.0
0.0 0.0 0.0

-635828.7378826663 2.435932387180388e7 0.0
2.435932387180388e7 -5.698638881346588e6 0.0
0.0 0.0 0.0

1.0554934337871633e6 1.2255396325209307e7 0.0
1.2255396325209307e7 -2.2371596533832457e7 0.0
0.0 0.0 0.0

-1.3298728870874024e6 2.554244437630651e7 0.0
2.554244437630651e7 1.1476363633047151e6 0.0
0.0 0.0 0.0

-1.0930282493053198e7 7.198901995842794e6 0.0
7.198901995842794e6 1.8469914265353452e7 0.0
0.0 0.0 0.0

-6.692496893752528e6 1.68998775641989e7 0.0
1.68998775641989e7 2.4434252023211986e7 0.0
0.0 0.0 0.0

-2.5875789015993234e6 1.912959605738341e7 0.0
1.912959605738341e7 1.3194845961646233e7 0.0
0.0 0.0 0.0

-7.260801191409164e6 2.0821935639267746e7 0.0
2.0821935639267746e7 -2.2921015884820007e7 0.0
0.0 0.0 0.0

-2.1833827888808697e6 1.947779176389468e7 0.0
1.947779176389468e7 9.401176600799838e6 0.0
0.0 0.0 0.0

-4.662857142074585e7 3.6323918827043526e7 0.0
3.6323918827043526e7 -1.0166246117598984e7 0.0
0.0 0.0 0.0

-2.6444885905425968e6 2.1749351520335935e7 0.0
2.1749351520335935e7 4.450399945015324e6 0.0
0.0 0.0 0.0

-2.883207724747292e6 2.4290401733332757e7 0.0
2.4290401733332757e7 -4.392041989115744e6 0.0
0.0 0.0 0.0

-6.596637629161789e7 3.1364073053373184e7 0.0
3.1364073053373184e7 -1.5190397200530358e6 0.0
0.0 0.0 0.0

5.694977894371612e6 2.6592510483131655e7 0.0
2.6592510483131655e7 -7.107250194885321e6 0.0
0.0 0.0 0.0

-1.8918093882277114e6 2.045565423986756e7 0.0
2.045565423986756e7 4.02775381558198e6 0.0
0.0 0.0 0.0

1.2527591028388971e6 1.3584338483405745e7 0.0
1.3584338483405745e7 -1.596405636989817e7 0.0
0.0 0.0 0.0

-1.356718394304343e6 3.28130956216376e7 0.0
3.28130956216376e7 2.5092413935431116e6 0.0
0.0 0.0 0.0

850979.9235285688 1.4286510869026141e7 0.0
1.4286510869026141e7 -2.2696064755985964e7 0.0
0.0 0.0 0.0

813252.4426370235 1.5459660636335952e7 0.0
1.5459660636335952e7 -2.438446650128219e7 0.0
0.0 0.0 0.0

-7.859400332763752e6 1.1272327783436548e7 0.0
1.1272327783436548e7 1.2130574519172242e7 0.0
0.0 0.0 0.0

-2.915287643340148e6 2.47721309105624e7 0.0
2.47721309105624e7 1.255118570771676e7 0.0
0.0 0.0 0.0

2.230791718166383e6 8.829409465985686e6 0.0
8.829409465985686e6 -3.372348418040066e7 0.0
0.0 0.0 0.0

-1.0220834810540333e7 1.0422547881546136e7 0.0
1.0422547881546136e7 2.487478868713351e7 0.0
0.0 0.0 0.0

848256.008580015 1.4845478714585576e7 0.0
1.4845478714585576e7 -2.3576282299304605e7 0.0
0.0 0.0 0.0

-1.1096882444464941e8 1.274101527147106e7 0.0
1.274101527147106e7 2.1953575152504593e6 0.0
0.0 0.0 0.0

-544.84763501212 7.812412592403288e6 0.0
7.812412592403288e6 -5.907516627863137e7 0.0
0.0 0.0 0.0

-2.9284980669863e6 2.3116839562444247e7 0.0
2.3116839562444247e7 1.1939187525180478e7 0.0
0.0 0.0 0.0

-2.690026484437439e6 2.5220815717940252e7 0.0
2.5220815717940252e7 9.56688627178915e6 0.0
0.0 0.0 0.0

-5.841398415646753e6 3.170469578400138e7 0.0
3.170469578400138e7 9.691745393275484e6 0.0
0.0 0.0 0.0

-1.7191317694873158e6 2.2347814429082952e7 0.0
2.2347814429082952e7 -7.282051526926619e6 0.0
0.0 0.0 0.0

-3.0209938775407784e6 2.4983156234650806e7 0.0
2.4983156234650806e7 2.1008337185333535e7 0.0
0.0 0.0 0.0

394769.2406519763 1.72866306068595e7 0.0
1.72866306068595e7 -1.933952008674762e7 0.0
0.0 0.0 0.0

1.2975884613525122e6 1.1401830500702223e7 0.0
1.1401830500702223e7 -3.193907560666573e7 0.0
0.0 0.0 0.0

-1.6925064352197729e6 3.2232491433212325e7 0.0
3.2232491433212325e7 3.499037133541153e6 0.0
0.0 0.0 0.0

3.752994427311945e6 3.436956373004172e7 0.0
3.436956373004172e7 -6.467768998418928e6 0.0
0.0 0.0 0.0

915900.8621174172 1.0648440267111717e7 0.0
1.0648440267111717e7 -4.711165729543084e7 0.0
0.0 0.0 0.0

-3.8238648606118914e6 1.6209334507297864e7 0.0
1.6209334507297864e7 1.4234296196619112e7 0.0
0.0 0.0 0.0

-8.546610661698438e6 3.2609870842871185e7 0.0
3.2609870842871185e7 8.078084068721553e6 0.0
0.0 0.0 0.0

-5.757892728753318e7 8.76480859507337e7 0.0
8.76480859507337e7 -1.4918121116289534e6 0.0
0.0 0.0 0.0

-7.843676078234447e6 1.2402027099390605e7 0.0
1.2402027099390605e7 4.0545611615231335e7 0.0
0.0 0.0 0.0

-6.142268419647609e6 1.9452072093410823e7 0.0
1.9452072093410823e7 -2.0624689549629513e7 0.0
0.0 0.0 0.0

-2.0980800942713786e6 6.580459801697138e6 0.0
6.580459801697138e6 4.858422998877096e6 0.0
0.0 0.0 0.0

-7.124184406704372e6 -1.923852140837956e6 0.0
-1.923852140837956e6 4.047454156973958e7 0.0
0.0 0.0 0.0

2.3632286988560986e6 1.5283940786344144e6 0.0
1.5283940786344144e6 -4.083285541816777e7 0.0
0.0 0.0 0.0

-9.362232432893293e6 2.863707838796468e7 0.0
2.863707838796468e7 2.2469326676466726e6 0.0
0.0 0.0 0.0

-2.155214925658458e6 2.1686487457817793e7 0.0
2.1686487457817793e7 -2.4670870085580423e7 0.0
0.0 0.0 0.0

-3.3889328080929313e6 1.8265502157883063e7 0.0
1.8265502157883063e7 4.4333998452750124e7 0.0
0.0 0.0 0.0

2.822054005383641e6 2.907364466809133e7 0.0
2.907364466809133e7 -1.0805923469181387e7 0.0
0.0 0.0 0.0

859049.724083133 1.3717235178933915e7 0.0
1.3717235178933915e7 -2.175767811947327e7 0.0
0.0 0.0 0.0

1.3000965000362918e6 1.8697284546872385e7 0.0
1.8697284546872385e7 5.821267474496767e7 0.0
0.0 0.0 0.0

-1.4947087516518212e6 2.234813364133894e7 0.0
2.234813364133894e7 -632799.4708494217 0.0
0.0 0.0 0.0

1.3569628730713613e6 2.0921723385598484e7 0.0
2.0921723385598484e7 4.302788601288755e7 0.0
0.0 0.0 0.0

-1.5176782316575246e6 2.2133906436252214e7 0.0
2.2133906436252214e7 -2.2664591499779858e7 0.0
0.0 0.0 0.0

1.0078920975629285e8 1.2196784893366087e7 0.0
1.2196784893366087e7 3.4123796095222123e6 0.0
0.0 0.0 0.0

1.7610263600943307e6 3.0071191416555386e7 0.0
3.0071191416555386e7 -7.42587896453187e6 0.0
0.0 0.0 0.0

5.05798005275459e6 3.8896181073947705e7 0.0
3.8896181073947705e7 -3.0303826530271303e6 0.0
0.0 0.0 0.0

742562.3702860847 1.5085941871854698e7 0.0
1.5085941871854698e7 -2.1109253359992597e7 0.0
0.0 0.0 0.0

1.6941466420358736e6 1.3773177679423835e7 0.0
1.3773177679423835e7 -2.187045430854518e7 0.0
0.0 0.0 0.0

-1.5249582870581748e6 2.1508178161360208e7 0.0
2.1508178161360208e7 -8.902413775498662e6 0.0
0.0 0.0 0.0

-8.572443735427806e6 1.4030648708356608e7 0.0
1.4030648708356608e7 3.23116657004542e7 0.0
0.0 0.0 0.0

-4.081134492351141e6 1.9931677760775063e7 0.0
1.9931677760775063e7 -3.47987063089026e7 0.0
0.0 0.0 0.0

2.8677166800751705e6 2.5650535665271943e6 0.0
2.5650535665271943e6 -1.1832484361187497e7 0.0
0.0 0.0 0.0

630884.306307205 1.8337146022324853e7 0.0
1.8337146022324853e7 -2.0995483809603564e7 0.0
0.0 0.0 0.0

-3.340717063102907e7 4.139060204523297e7 0.0
4.139060204523297e7 7.084623392467935e6 0.0
0.0 0.0 0.0

-3.4439711298056967e6 1.4520484243022786e7 0.0
1.4520484243022786e7 1.113728015180034e6 0.0
0.0 0.0 0.0

3.604319270560138e6 1.892317559285571e7 0.0
1.892317559285571e7 6.855235285289355e7 0.0
0.0 0.0 0.0

-2.7263821984410807e6 2.5372519907420002e7 0.0
2.5372519907420002e7 1.709606868788521e7 0.0
0.0 0.0 0.0

1.0620754126041396e7 2.6416171042119294e7 0.0
2.6416171042119294e7 6.052247082744764e6 0.0
0.0 0.0 0.0

-6.985714619685758e6 3.2243156815364555e7 0.0
3.2243156815364555e7 8.851626183151882e6 0.0
0.0 0.0 0.0

1.8139975286555556e6 3.0938564338735584e7 0.0
3.0938564338735584e7 -6.143280779944945e6 0.0
0.0 0.0 0.0

-4.34587056384066e6 3.202150141510428e7 0.0
3.202150141510428e7 7.546534871087784e6 0.0
0.0 0.0 0.0

-8.535555389456697e6 1.4551067032268023e7 0.0
1.4551067032268023e7 2.9814650714974802e7 0.0
0.0 0.0 0.0

-5.518560504838524e6 1.877707577322637e7 0.0
1.877707577322637e7 2.4644736968088426e7 0.0
0.0 0.0 0.0

-1.0881242757006401e7 9.137947334166648e6 0.0
9.137947334166648e6 1.7320242709663272e7 0.0
0.0 0.0 0.0

2.4589704687476356e7 1.3935447305670077e7 0.0
1.3935447305670077e7 1.559852822571109e6 0.0
0.0 0.0 0.0

-818583.8166755354 2.2600027280327294e7 0.0
2.2600027280327294e7 -2.0837264286502615e7 0.0
0.0 0.0 0.0

1.188851172074463e6 3.0779261910982095e7 0.0
3.0779261910982095e7 -5.333919608736968e6 0.0
0.0 0.0 0.0

-2.8440491856730636e6 3.205232895691015e7 0.0
3.205232895691015e7 3.79802126486745e6 0.0
0.0 0.0 0.0

-8.685810383188149e6 -430289.70489306946 0.0
-430289.70489306946 2.9783284739751536e7 0.0
0.0 0.0 0.0

-3.954521882569054e6 3.4061652526977725e7 0.0
3.4061652526977725e7 4.846404718087608e6 0.0
0.0 0.0 0.0

-1.8633690030433652e6 2.10701347535493e7 0.0
2.10701347535493e7 5.634713843266156e6 0.0
0.0 0.0 0.0

-5.479074444055652e6 3.475119937342742e7 0.0
3.475119937342742e7 5.854878622392115e6 0.0
0.0 0.0 0.0

1.0101545550407551e7 2.508234636840283e7 0.0
2.508234636840283e7 3.7393549409769983e6 0.0
0.0 0.0 0.0

4.01975291165275e6 3.605585773577021e7 0.0
3.605585773577021e7 -3.993171126833235e6 0.0
0.0 0.0 0.0

2.1173293152899984e6 5.0671089156968e6 0.0
5.0671089156968e6 -3.2510073538652867e7 0.0
0.0 0.0 0.0

-8.240122509118522e6 1.2833182309064234e7 0.0
1.2833182309064234e7 3.769890176647762e7 0.0
0.0 0.0 0.0

840783.8661484313 2.507203822484324e7 0.0
2.507203822484324e7 -1.165155811800834e7 0.0
0.0 0.0 0.0

-127533.86247142777 2.3182126462491184e7 0.0
2.3182126462491184e7 -1.901443302127511e7 0.0
0.0 0.0 0.0

-1.5764040531083217e6 2.1018414573255785e7 0.0
2.1018414573255785e7 -797086.0936208924 0.0
0.0 0.0 0.0

-5.080504027333593e6 2.673532868312981e7 0.0
2.673532868312981e7 7.200283153391413e6 0.0
0.0 0.0 0.0

4.258549158209738e6 3.0181515633190908e7 0.0
3.0181515633190908e7 -9.42736953774295e6 0.0
0.0 0.0 0.0

-195875.76890079398 2.324790169115688e7 0.0
2.324790169115688e7 -1.0373265796647672e7 0.0
0.0 0.0 0.0

-8.048989784500591e6 1.6867661907908563e7 0.0
1.6867661907908563e7 2.443331412638553e7 0.0
0.0 0.0 0.0

2.1285201729304027e6 1.1195736419988658e7 0.0
1.1195736419988658e7 -2.640486145392584e7 0.0
0.0 0.0 0.0

-1.821859522552534e6 2.3286056834254447e7 0.0
2.3286056834254447e7 -2.010876491514435e7 0.0
0.0 0.0 0.0

4.198328007744247e6 2.5733166274462037e7 0.0
2.5733166274462037e7 1.606035685076819e7 0.0
0.0 0.0 0.0

-1.468524656499431e6 2.4846817781306457e7 0.0
2.4846817781306457e7 -6.493020774758142e6 0.0
0.0 0.0 0.0

1.6449449689173307e6 8.442868670433925e6 0.0
8.442868670433925e6 -4.556775461912631e7 0.0
0.0 0.0 0.0

1.5236704535883293e6 6.152107416731946e6 0.0
6.152107416731946e6 -6.1035538113891065e7 0.0
0.0 0.0 0.0

-3.519032878972763e6 1.998636653235109e7 0.0
1.998636653235109e7 1.1659062031419324e7 0.0
0.0 0.0 0.0

-2.5890650249904427e6 3.2683191436955594e7 0.0
3.2683191436955594e7 2.7662873181145936e6 0.0
0.0 0.0 0.0

-9.116769064717555e6 5.867172207189024e6 0.0
5.867172207189024e6 3.440069640442377e7 0.0
0.0 0.0 0.0

-5.354103409351667e6 1.875659562159169e7 0.0
1.875659562159169e7 1.7713764404778197e7 0.0
0.0 0.0 0.0

-2.7864251747680325e6 2.4352282776813637e7 0.0
2.4352282776813637e7 1.1386485659170218e7 0.0
0.0 0.0 0.0

2.0658454725963175e6 1.1460027844838543e7 0.0
1.1460027844838543e7 -2.392822369917383e7 0.0
0.0 0.0 0.0

2.2322231878302265e6 1.4004404246699836e6 0.0
1.4004404246699836e6 -4.221421631262191e7 0.0
0.0 0.0 0.0

-2.158059514434805e6 2.2716677407562017e7 0.0
2.2716677407562017e7 1.465075713876809e7 0.0
0.0 0.0 0.0

6.787358784062032e6 2.063157020537449e7 0.0
2.063157020537449e7 8.351277801398309e7 0.0
0.0 0.0 0.0

-1.8551644027579217e6 2.565780258441904e7 0.0
2.565780258441904e7 1.0234242817792878e7 0.0
0.0 0.0 0.0

1.5735694585995958e6 3.1676463854581326e7 0.0
3.1676463854581326e7 -5.167676732085009e6 0.0
0.0 0.0 0.0

814999.4738735845 1.6088863949149506e7 0.0
1.6088863949149506e7 -2.2489073496097125e7 0.0
0.0 0.0 0.0

510682.95378039853 3.444102643170942e7 0.0
3.444102643170942e7 -1.1122522653266543e6 0.0
0.0 0.0 0.0

-1.951043901335795e6 3.1601253270325877e7 0.0
3.1601253270325877e7 4.538701739804463e6 0.0
0.0 0.0 0.0

1.1709807735642333e7 2.0570881815214533e7 0.0
2.0570881815214533e7 5.305717355198994e7 0.0
0.0 0.0 0.0

2.8889075397307873e6 2.592561406136435e6 0.0
2.592561406136435e6 -1.2613825117345016e7 0.0
0.0 0.0 0.0

6.105520720613552e6 2.7427943998664666e7 0.0
2.7427943998664666e7 -8.258350616147056e6 0.0
0.0 0.0 0.0

2.772905412078838e6 3.881723939722722e6 0.0
3.881723939722722e6 -2.3018409386834264e7 0.0
0.0 0.0 0.0

-7.8057989512144625e6 1.5444066672336062e7 0.0
1.5444066672336062e7 2.4909776997599624e7 0.0
0.0 0.0 0.0

-2.832534743973282e6 2.9676707223549068e7 0.0
2.9676707223549068e7 6.290923679649069e6 0.0
0.0 0.0 0.0

-487809.08154304745 2.5570541639609497e7 0.0
2.5570541639609497e7 -5.360751917961011e6 0.0
0.0 0.0 0.0

1.8039104644458508e6 1.2540855477132829e7 0.0
1.2540855477132829e7 -1.9919833329582192e7 0.0
0.0 0.0 0.0

171500.05188264512 2.3659666868484035e7 0.0
2.3659666868484035e7 -1.2105287473116908e7 0.0
0.0 0.0 0.0

1.330693901271024e6 3.246561784244529e7 0.0
3.246561784244529e7 -4.159622998432626e6 0.0
0.0 0.0 0.0

-8.530767550699752e6 7.591797065473086e6 0.0
7.591797065473086e6 3.959470372368271e7 0.0
0.0 0.0 0.0

-4.555501861237004e6 2.0477932785886772e7 0.0
2.0477932785886772e7 2.4562374978277966e7 0.0
0.0 0.0 0.0

-9.463356633587962e6 1.2309528677087829e7 0.0
1.2309528677087829e7 2.6733047199279584e7 0.0
0.0 0.0 0.0

-2.827475753325494e6 2.0411434680082887e7 0.0
2.0411434680082887e7 4.599828014388902e6 0.0
0.0 0.0 0.0

-3.241578052410564e6 3.1397641873507384e7 0.0
3.1397641873507384e7 8.530451087386655e6 0.0
0.0 0.0 0.0

-2.0189529789246712e6 2.470446839402528e7 0.0
2.470446839402528e7 -2.6571171604127083e6 0.0
0.0 0.0 0.0

-1.554195176837769e6 3.4146685828488536e7 0.0
3.4146685828488536e7 -111333.54303433065 0.0
0.0 0.0 0.0

-8.190457080494325e6 1.2041812881222831e7 0.0
1.2041812881222831e7 1.4041553959790252e7 0.0
0.0 0.0 0.0

-5.606255316740797e6 1.8217102537557364e7 0.0
1.8217102537557364e7 2.369359351224993e7 0.0
0.0 0.0 0.0

-2.307284459142667e6 3.325031364143203e7 0.0
3.325031364143203e7 1.8247498511382858e6 0.0
0.0 0.0 0.0

3.8371006464038296e6 2.867020707289349e7 0.0
2.867020707289349e7 -1.068501514322621e7 0.0
0.0 0.0 0.0

1.9391182432380177e7 2.8438554304489583e7 0.0
2.8438554304489583e7 1.5068657461040244e7 0.0
0.0 0.0 0.0

-1.9777555251834714e6 2.030357747179877e7 0.0
2.030357747179877e7 7.450660549695566e6 0.0
0.0 0.0 0.0

9.762017216824388e6 3.2624047569685563e7 0.0
3.2624047569685563e7 -6.585822412161464e6 0.0
0.0 0.0 0.0

-1.9639011972945128e6 2.142810697310387e7 0.0
2.142810697310387e7 1.0435822818009004e7 0.0
0.0 0.0 0.0

-4.640916336656146e6 1.9991635025765996e7 0.0
1.9991635025765996e7 2.3703371164508484e7 0.0
0.0 0.0 0.0

-5.650681168290001e6 1.2918483691817619e7 0.0
1.2918483691817619e7 1.5412914426128853e7 0.0
0.0 0.0 0.0

-1.9707442860543965e6 3.372424651080636e7 0.0
3.372424651080636e7 783599.4860842415 0.0
0.0 0.0 0.0

2.5759241594620273e6 6.788609278232726e6 0.0
6.788609278232726e6 -3.1831134287731826e7 0.0
0.0 0.0 0.0

2.362502613927653e6 9.373872185856277e6 0.0
9.373872185856277e6 -2.9551270515289113e7 0.0
0.0 0.0 0.0

-4.894337867776386e6 3.104076690433391e7 0.0
3.104076690433391e7 1.0386375413301624e7 0.0
0.0 0.0 0.0

-382108.1667237538 1.4535370674709491e7 0.0
1.4535370674709491e7 -7.559792067268161e6 0.0
0.0 0.0 0.0

1.7640410621433128e6 1.317898698374057e7 0.0
1.317898698374057e7 -2.0882297423951842e7 0.0
0.0 0.0 0.0

29483.821942936804 3.742281027816944e7 0.0
3.742281027816944e7 -1.4109591690316503e6 0.0
0.0 0.0 0.0

895680.6259676727 3.383288687854009e7 0.0
3.383288687854009e7 -2.0928373220372014e6 0.0
0.0 0.0 0.0

-582699.4555216918 2.6689263669854123e7 0.0
2.6689263669854123e7 -8.190346035410935e6 0.0
0.0 0.0 0.0

-3.0012282929019844e6 2.1112322986100618e7 0.0
2.1112322986100618e7 -3.1027578015231572e7 0.0
0.0 0.0 0.0

-3.4573091940705976e6 3.741304997115945e7 0.0
3.741304997115945e7 2.0079905547576374e6 0.0
0.0 0.0 0.0

-4.416296706939142e6 2.0925737437354133e7 0.0
2.0925737437354133e7 2.520176455011236e7 0.0
0.0 0.0 0.0

1.597684706210941e6 7.947523966983184e6 0.0
7.947523966983184e6 -1.856705338096324e7 0.0
0.0 0.0 0.0

2.84429463966576e6 4.106168328408191e7 0.0
4.106168328408191e7 -1.5950785633253662e6 0.0
0.0 0.0 0.0

-2.972654354673192e6 2.6251253236447275e7 0.0
2.6251253236447275e7 1.4498665158882454e7 0.0
0.0 0.0 0.0

1.154399894908211e6 3.317495897739682e7 0.0
3.317495897739682e7 -3.030753839849385e6 0.0
0.0 0.0 0.0

592538.7441268219 2.3781123127608765e7 0.0
2.3781123127608765e7 -1.7360573970136892e7 0.0
0.0 0.0 0.0

-529218.1808830826 3.463124327292288e7 0.0
3.463124327292288e7 661386.2585060545 0.0
0.0 0.0 0.0

-3.119565454386318e6 2.6320356336039014e7 0.0
2.6320356336039014e7 1.7338789045081533e7 0.0
0.0 0.0 0.0

-431648.5921726613 3.483720820282508e7 0.0
3.483720820282508e7 -1.7478357047942362e6 0.0
0.0 0.0 0.0

1.115773873014007e7 4.443000285155655e7 0.0
4.443000285155655e7 -3.4667600123197795e6 0.0
0.0 0.0 0.0

-6.621582272715658e6 1.808030762809572e7 0.0
1.808030762809572e7 3.1580844364583086e7 0.0
0.0 0.0 0.0

1.5471471116582956e6 1.4600253522817485e7 0.0
1.4600253522817485e7 -2.0347504059395283e7 0.0
0.0 0.0 0.0

-8.183499532805398e6 1.4771938539635926e7 0.0
1.4771938539635926e7 3.324476925702835e7 0.0
0.0 0.0 0.0

-7.42736581599216e6 1.7147412327868372e7 0.0
1.7147412327868372e7 2.181417848165055e7 0.0
0.0 0.0 0.0

-1.539962378272687e6 -652049.0811280083 0.0
-652049.0811280083 2.7439430538851293e6 0.0
0.0 0.0 0.0

-1.196410622255824e6 -2.017342728840024e6 0.0
-2.017342728840024e6 2.6951258871478587e6 0.0
0.0 0.0 0.0

-6.19175692730145e6 1.862382508462902e7 0.0
1.862382508462902e7 3.2207251923189867e7 0.0
0.0 0.0 0.0

1.7910486243624266e7 2.739522796495474e7 0.0
2.739522796495474e7 1.5248304839597903e7 0.0
0.0 0.0 0.0

2.5619370619548187e6 3.525989398711039e7 0.0
3.525989398711039e7 -3.3173262584529277e6 0.0
0.0 0.0 0.0

358690.53399939276 2.744989924688159e7 0.0
2.744989924688159e7 -7.246187938455374e6 0.0
0.0 0.0 0.0

1.5018303121738723e6 1.5149127588638531e7 0.0
1.5149127588638531e7 -2.1358345155199613e7 0.0
0.0 0.0 0.0

1.0644835352149818e7 2.036724962506264e7 0.0
2.036724962506264e7 4.731518520825971e7 0.0
0.0 0.0 0.0

-3.249026443383028e6 3.8052620807825774e7 0.0
3.8052620807825774e7 3.363424010442378e6 0.0
0.0 0.0 0.0

77025.52445158636 3.823569738042982e7 0.0
3.823569738042982e7 -1.4191159093071765e6 0.0
0.0 0.0 0.0

542710.4205357488 3.908116170660494e7 0.0
3.908116170660494e7 -1.4486252283147103e6 0.0
0.0 0.0 0.0

-3.4933820558269816e6 2.3064089294163264e7 0.0
2.3064089294163264e7 1.6392102018639963e7 0.0
0.0 0.0 0.0

-3.6115511204035347e6 2.046570567315929e7 0.0
2.046570567315929e7 1.3208564674379138e7 0.0
0.0 0.0 0.0

-7.039620343586317e6 1.4702452268000811e7 0.0
1.4702452268000811e7 1.5298002479190553e7 0.0
0.0 0.0 0.0

-2.5303315104559585e6 2.7777165233067274e7 0.0
2.7777165233067274e7 1.198590524594317e7 0.0
0.0 0.0 0.0

-2.6313152825232847e6 1.958644961426101e7 0.0
1.958644961426101e7 1.475659131772937e7 0.0
0.0 0.0 0.0

-6.351366446163552e6 1.7498935983003583e7 0.0
1.7498935983003583e7 3.579023994150174e7 0.0
0.0 0.0 0.0

1.5489965807138588e6 1.5816401461696045e7 0.0
1.5816401461696045e7 -2.2088832503939934e7 0.0
0.0 0.0 0.0

-3.0452574088647207e6 2.513177431079265e7 0.0
2.513177431079265e7 1.3610801515625808e7 0.0
0.0 0.0 0.0

-6.995836882694198e6 1.5869335083339365e7 0.0
1.5869335083339365e7 3.7408374345120445e7 0.0
0.0 0.0 0.0

6.048038864691766e6 2.3888685989539232e7 0.0
2.3888685989539232e7 1.895662023360297e7 0.0
0.0 0.0 0.0

-2.795728600543871e6 2.166563240703116e7 0.0
2.166563240703116e7 7.639610186071172e6 0.0
0.0 0.0 0.0

-492604.2770236016 3.549967437437659e7 0.0
3.549967437437659e7 739079.1817682555 0.0
0.0 0.0 0.0

-537808.0042986732 3.370967163785867e7 0.0
3.370967163785867e7 587270.5444603948 0.0
0.0 0.0 0.0

-3.267945253965142e6 2.719398460755989e7 0.0
2.719398460755989e7 1.5611966474691965e7 0.0
0.0 0.0 0.0

-2.6244762358027e6 2.225620499617983e7 0.0
2.225620499617983e7 -2.56043557780874e7 0.0
0.0 0.0 0.0

-2.8269821525212335e6 2.8155605099425886e7 0.0
2.8155605099425886e7 9.036906641455997e6 0.0
0.0 0.0 0.0

-3.880908710427547e6 2.1619314708379913e7 0.0
2.1619314708379913e7 2.340211677176247e7 0.0
0.0 0.0 0.0

29220.48281578021 2.6294918090221524e7 0.0
2.6294918090221524e7 -7.565700038113858e6 0.0
0.0 0.0 0.0

6.062832539481651e6 3.985529095061132e7 0.0
3.985529095061132e7 -3.0361921036730967e6 0.0
0.0 0.0 0.0

-3.6108311354642464e6 2.8209786779485237e7 0.0
2.8209786779485237e7 1.3967531818832863e7 0.0
0.0 0.0 0.0

-339648.675022454 2.5875760746391486e7 0.0
2.5875760746391486e7 -9.531991966149997e6 0.0
0.0 0.0 0.0

2.1147300586386807e6 1.0120677493210318e7 0.0
1.0120677493210318e7 -3.0509545309158593e7 0.0
0.0 0.0 0.0

-2.288819070671155e6 2.30817805675757e7 0.0
2.30817805675757e7 1.586488514632765e7 0.0
0.0 0.0 0.0

6.897258722261223e6 3.2251348951387584e7 0.0
3.2251348951387584e7 -7.512065555384913e6 0.0
0.0 0.0 0.0

2.44835744725199e6 2.7434009088865137e6 0.0
2.7434009088865137e6 -8.486471659420855e6 0.0
0.0 0.0 0.0

941822.1466609612 1.0229572511306746e7 0.0
1.0229572511306746e7 -4.0556541055230305e7 0.0
0.0 0.0 0.0

521744.55324901873 2.4217265149592973e7 0.0
2.4217265149592973e7 -1.1691978114827905e7 0.0
0.0 0.0 0.0

1.836454159826692e7 2.852881784444643e7 0.0
2.852881784444643e7 1.7046390441976875e7 0.0
0.0 0.0 0.0

1.3668675047343746e6 1.0631175012565065e7 0.0
1.0631175012565065e7 -3.132464769010056e7 0.0
0.0 0.0 0.0

1.2715001679841112e6 1.2132877152530398e7 0.0
1.2132877152530398e7 -3.0338711126210995e7 0.0
0.0 0.0 0.0

2.9497389793980485e6 2.4084178706857707e7 0.0
2.4084178706857707e7 7.31751616081786e6 0.0
0.0 0.0 0.0

-8.818521308685143e6 9.328459612407114e6 0.0
9.328459612407114e6 3.749311138780822e7 0.0
0.0 0.0 0.0

-7.811982350385318e6 1.5329748049697328e7 0.0
1.5329748049697328e7 1.8358778846508633e7 0.0
0.0 0.0 0.0

-1.3067343043109436e7 2.1435556161725543e7 0.0
2.1435556161725543e7 -6.054731925547746e7 0.0
0.0 0.0 0.0

-4.4379924619858125e6 2.0103645441827603e7 0.0
2.0103645441827603e7 1.686551720059465e7 0.0
0.0 0.0 0.0

-9.302518663342454e6 1.4787368969518745e7 0.0
1.4787368969518745e7 2.7047516561641634e7 0.0
0.0 0.0 0.0

5.063248889359304e6 2.6484406622890484e7 0.0
2.6484406622890484e7 1.3547851745492391e7 0.0
0.0 0.0 0.0

-7.336580618387308e6 -2.116822357460764e6 0.0
-2.116822357460764e6 3.917037870611858e7 0.0
0.0 0.0 0.0

-3.0285816030082228e6 2.3526988678807836e7 0.0
2.3526988678807836e7 1.324283596569361e7 0.0
0.0 0.0 0.0

-3.796540014066867e6 3.140367030691143e7 0.0
3.140367030691143e7 9.245280265043922e6 0.0
0.0 0.0 0.0

500772.46287569776 2.1752135209601678e7 0.0
2.1752135209601678e7 -1.8542132482511025e7 0.0
0.0 0.0 0.0

-8.64972744071713e6 -1.2054053398464727e6 0.0
-1.2054053398464727e6 1.7961132904784977e7 0.0
0.0 0.0 0.0

-6.932357387751487e6 1.3962720635103248e7 0.0
1.3962720635103248e7 1.3594002098485509e7 0.0
0.0 0.0 0.0

-1.2091237835668586e6 8.677055811518405e6 0.0
8.677055811518405e6 -6.921852841318245e7 0.0
0.0 0.0 0.0

9.300647556784187e6 4.024805804240042e7 0.0
4.024805804240042e7 -3.8771603249083133e6 0.0
0.0 0.0 0.0

-5.060196125022365e6 1.4769096738771053e7 0.0
1.4769096738771053e7 4.842929895935953e7 0.0
0.0 0.0 0.0

-6.803246922492037e6 2.256669367475853e7 0.0
2.256669367475853e7 -1.9843953155978106e7 0.0
0.0 0.0 0.0

-9.402788416678734e6 1.4242116238417976e7 0.0
1.4242116238417976e7 2.9360030465440974e7 0.0
0.0 0.0 0.0

-1.755679512790228e7 3.016728442928369e7 0.0
3.016728442928369e7 -1.3067702588352825e7 0.0
0.0 0.0 0.0

-1.8829052780096517e6 2.399141141857647e7 0.0
2.399141141857647e7 -6.548964710205733e6 0.0
0.0 0.0 0.0

5.358695360383816e6 2.135259514863109e7 0.0
2.135259514863109e7 2.3490261336677384e7 0.0
0.0 0.0 0.0

949571.5298148636 9.326195675787345e6 0.0
9.326195675787345e6 -4.26857026530678e7 0.0
0.0 0.0 0.0

-6.249920946451329e6 1.9557815134473983e7 0.0
1.9557815134473983e7 -2.138596633141011e7 0.0
0.0 0.0 0.0

1.0949266461772535e7 4.679748088769251e7 0.0
4.679748088769251e7 -5.311311202101798e6 0.0
0.0 0.0 0.0

-2.430274371987774e6 2.343172220073889e7 0.0
2.343172220073889e7 1.6967060439929057e7 0.0
0.0 0.0 0.0

-7.1400717126383e6 -1.6005273056374278e6 0.0
-1.6005273056374278e6 4.341737710732228e7 0.0
0.0 0.0 0.0

46385.863257988356 2.335075927527097e7 0.0
2.335075927527097e7 2.0945283482796162e7 0.0
0.0 0.0 0.0

-1.4880176864168508e7 2.916426165541027e7 0.0
2.916426165541027e7 -1.4707345054133072e7 0.0
0.0 0.0 0.0

-6.271054303682107e6 1.2523547460695494e7 0.0
1.2523547460695494e7 9.80723021978935e6 0.0
0.0 0.0 0.0

6.397168108057544e6 2.124609868762365e7 0.0
2.124609868762365e7 4.982909478906799e7 0.0
0.0 0.0 0.0

-6.060635558582518e6 1.961533968147746e7 0.0
1.961533968147746e7 2.3107031510382734e7 0.0
0.0 0.0 0.0

-7.226097427671511e6 1.7719036304983232e7 0.0
1.7719036304983232e7 2.2907185039464608e7 0.0
0.0 0.0 0.0

-6.090736102700509e6 1.2931107223190209e7 0.0
1.2931107223190209e7 4.800463627581433e7 0.0
0.0 0.0 0.0

554480.4645422203 2.2792335028100457e7 0.0
2.2792335028100457e7 2.6409062378699582e7 0.0
0.0 0.0 0.0

-1.1419512290162683e7 3.6953190519656666e7 0.0
3.6953190519656666e7 5.795708830352795e6 0.0
0.0 0.0 0.0

634659.1967450004 4.206468477291897e7 0.0
4.206468477291897e7 -1.5897409276838545e6 0.0
0.0 0.0 0.0

-2.9916376697215633e6 2.6255113443020068e7 0.0
2.6255113443020068e7 1.287982522727488e7 0.0
0.0 0.0 0.0

2.1095922762789843e6 2.6103106498208833e6 0.0
2.6103106498208833e6 -6.853829492178168e6 0.0
0.0 0.0 0.0

1.804522912100779e6 1.354342608271379e7 0.0
1.354342608271379e7 -2.428646879449592e7 0.0
0.0 0.0 0.0

1.5581029127445342e6 1.3388862256662566e7 0.0
1.3388862256662566e7 -1.8446439625766676e7 0.0
0.0 0.0 0.0

-3.695001544486882e6 2.0942719846297976e7 0.0
2.0942719846297976e7 1.4670739681095388e7 0.0
0.0 0.0 0.0

-122457.7449991093 5.788182836168321e7 0.0
5.788182836168321e7 -3.511563201104222e6 0.0
0.0 0.0 0.0

-9.899703009328948e6 1.077717980761245e7 0.0
1.077717980761245e7 1.591061462469101e7 0.0
0.0 0.0 0.0

4.744517918806695e6 3.6875510674525954e7 0.0
3.6875510674525954e7 -3.957700677683845e6 0.0
0.0 0.0 0.0

7.51469346060889e6 3.3516045706441164e7 0.0
3.3516045706441164e7 -6.844025176163202e6 0.0
0.0 0.0 0.0

-3.9852396671187417e6 1.334466455283057e7 0.0
1.334466455283057e7 1.1088730808865553e7 0.0
0.0 0.0 0.0

-313303.8490814429 2.23944970299326e7 0.0
2.23944970299326e7 1.50290844921136e6 0.0
0.0 0.0 0.0

2.633938702479e7 2.7175646436900176e7 0.0
2.7175646436900176e7 1.2596668780721765e7 0.0
0.0 0.0 0.0

1.1306463898675004e7 2.246320844076499e7 0.0
2.246320844076499e7 4.870363543629618e7 0.0
0.0 0.0 0.0

3.483538721621235e6 2.2146208423715115e7 0.0
2.2146208423715115e7 1.9260201131892987e7 0.0
0.0 0.0 0.0

-6.18763108768355e6 1.9065766088871825e7 0.0
1.9065766088871825e7 2.2183281710512772e7 0.0
0.0 0.0 0.0

606975.9069089153 5.383471026034539e7 0.0
5.383471026034539e7 -2.8438733776252507e6 0.0
0.0 0.0 0.0

-2.5429840601073463e7 3.189791433598381e7 0.0
3.189791433598381e7 -1.3091830369400073e7 0.0
0.0 0.0 0.0

-6.98902640816365e6 1.8284641627821274e7 0.0
1.8284641627821274e7 2.387430475481577e7 0.0
0.0 0.0 0.0

-893318.6229022071 1.4864567758815104e7 0.0
1.4864567758815104e7 -4.343396469260924e7 0.0
0.0 0.0 0.0

1.8789794792965986e6 1.3038828798648773e6 0.0
1.3038828798648773e6 -4.979459755561372e7 0.0
0.0 0.0 0.0

1.2045286648464315e6 2.064625826324549e7 0.0
2.064625826324549e7 -1.962614703234747e7 0.0
0.0 0.0 0.0

1.6456736723365523e6 1.4370983808471048e7 0.0
1.4370983808471048e7 -2.2813821526638005e7 0.0
0.0 0.0 0.0

1.2608833869377663e6 2.260561907841039e7 0.0
2.260561907841039e7 -1.707090246767082e7 0.0
0.0 0.0 0.0

-858140.8986794124 6.294621578864512e7 0.0
6.294621578864512e7 -5.699737747643398e6 0.0
0.0 0.0 0.0

-1.8396508324250197e6 2.9010650678809695e7 0.0
2.9010650678809695e7 5.758906218582352e6 0.0
0.0 0.0 0.0

1.9144439599962132e6 2.6773111440266438e7 0.0
2.6773111440266438e7 -1.3618149709064772e7 0.0
0.0 0.0 0.0

1.1049127926376257e6 2.5778153959312517e7 0.0
2.5778153959312517e7 -1.4267223238506308e7 0.0
0.0 0.0 0.0

1.9059180638115387e6 1.231996698509558e7 0.0
1.231996698509558e7 -2.2407452703808893e7 0.0
0.0 0.0 0.0

-3.4570893011584803e6 2.759577375053765e7 0.0
2.759577375053765e7 1.302900589226396e7 0.0
0.0 0.0 0.0

1.7970771844293699e6 2.3795965435480557e7 0.0
2.3795965435480557e7 2.349893590269284e7 0.0
0.0 0.0 0.0

-7.48236113484059e6 2.8931732677013677e7 0.0
2.8931732677013677e7 8.9773099766297e6 0.0
0.0 0.0 0.0

-790508.9241339266 9.889840485478861e6 0.0
9.889840485478861e6 8.86969119048082e7 0.0
0.0 0.0 0.0

-8.559756539556636e6 473789.3762905949 0.0
473789.3762905949 2.783254946536076e7 0.0
0.0 0.0 0.0

-8.619683462548122e6 9.403154174312153e7 0.0
9.403154174312153e7 -1.7107002161592685e7 0.0
0.0 0.0 0.0

6.383132315665014e6 2.1473667684589192e7 0.0
2.1473667684589192e7 3.044253579629797e7 0.0
0.0 0.0 0.0

940108.9750766952 5.109364031883633e7 0.0
5.109364031883633e7 -2.0911031341448808e6 0.0
0.0 0.0 0.0

644077.8684399314 2.2187800284167893e7 0.0
2.2187800284167893e7 -1.3487648646406842e7 0.0
0.0 0.0 0.0

2.6996717192108687e6 2.5956723077148426e7 0.0
2.5956723077148426e7 -1.2906469732205857e7 0.0
0.0 0.0 0.0

-2.5451926348979385e6 3.0302469055370346e7 0.0
3.0302469055370346e7 7.946936608560896e6 0.0
0.0 0.0 0.0

3.072184141439531e6 1.8183952899188383e6 0.0
1.8183952899188383e6 -2.7147099740491387e7 0.0
0.0 0.0 0.0

1.2712363277727053e7 2.5193799802329242e7 0.0
2.5193799802329242e7 4.910969146098487e6 0.0
0.0 0.0 0.0

1.7463902677962594e6 1.4257653721158026e7 0.0
1.4257653721158026e7 -2.5142791348615047e7 0.0
0.0 0.0 0.0

7.566014494342228e6 3.0274906540099937e7 0.0
3.0274906540099937e7 -7.404905744589913e6 0.0
0.0 0.0 0.0

1.7597454043172523e6 8.679318313107727e6 0.0
8.679318313107727e6 -4.169908556186806e7 0.0
0.0 0.0 0.0

-1.9544305475132368e6 2.4832985575792722e7 0.0
2.4832985575792722e7 1.213498298823331e7 0.0
0.0 0.0 0.0

2.4034967096440634e6 8.130994366683434e6 0.0
8.130994366683434e6 -1.5925017513140095e7 0.0
0.0 0.0 0.0

-2.0819836004954162e6 1.3716207598476892e7 0.0
1.3716207598476892e7 2.4468821090060356e6 0.0
0.0 0.0 0.0

-2.2722389109054066e7 2.8449760146322858e7 0.0
2.8449760146322858e7 -8.202642400126839e6 0.0
0.0 0.0 0.0

1.996074476809552e6 1.1672977828447584e7 0.0
1.1672977828447584e7 -2.9591990511697672e7 0.0
0.0 0.0 0.0

-2.3784918264985746e6 2.0821910426937558e7 0.0
2.0821910426937558e7 -3.435152770313958e6 0.0
0.0 0.0 0.0

1.1872845536691626e6 2.7573778391788546e7 0.0
2.7573778391788546e7 -1.156657357493702e7 0.0
0.0 0.0 0.0

1.2219818030025512e6 2.1809214603670076e7 0.0
2.1809214603670076e7 3.40661991119189e7 0.0
0.0 0.0 0.0

724928.5349959638 2.4642404888646983e7 0.0
2.4642404888646983e7 -1.669127172425366e6 0.0
0.0 0.0 0.0

-4.359139720051555e6 1.9608200320406914e7 0.0
1.9608200320406914e7 1.5456906726092543e7 0.0
0.0 0.0 0.0

-8.4289954550003e6 1.0521639540649319e7 0.0
1.0521639540649319e7 4.203257017888756e7 0.0
0.0 0.0 0.0

1.7424324505568296e6 2.22522913502153e7 0.0
2.22522913502153e7 3.466986525259916e7 0.0
0.0 0.0 0.0

-5.183650449375019e6 2.084279085367323e7 0.0
2.084279085367323e7 2.220030108715345e7 0.0
0.0 0.0 0.0

-9.149725766874274e6 5.9122864076323975e6 0.0
5.9122864076323975e6 3.754552608295282e7 0.0
0.0 0.0 0.0

-2.843694630996771e6 2.2616861260895807e7 0.0
2.2616861260895807e7 1.892287759026945e7 0.0
0.0 0.0 0.0

-3.356689743291294e6 2.552294759378273e7 0.0
2.552294759378273e7 1.9125781492113054e7 0.0
0.0 0.0 0.0

-9.76791828595981e6 9.284797653431715e6 0.0
9.284797653431715e6 2.101331346678679e7 0.0
0.0 0.0 0.0

1.1736674794866256e6 2.668512613800534e7 0.0
2.668512613800534e7 -1.2915282748730607e7 0.0
0.0 0.0 0.0

-2.748087733322243e6 3.0417074670132387e7 0.0
3.0417074670132387e7 5.033474975139722e6 0.0
0.0 0.0 0.0

-5.018039732064246e6 2.1349860272933386e7 0.0
2.1349860272933386e7 2.29845359136029e7 0.0
0.0 0.0 0.0

-7.078325611458357e6 5.470453961229125e6 0.0
5.470453961229125e6 5.384835379491757e7 0.0
0.0 0.0 0.0

-1.3707868200251125e6 2.511618769556179e7 0.0
2.511618769556179e7 1.5684042996114992e7 0.0
0.0 0.0 0.0

-6.529719299006257e6 1.749549362389081e7 0.0
1.749549362389081e7 2.5394237702090245e7 0.0
0.0 0.0 0.0

-194494.20854803734 1.4497245995942166e7 0.0
1.4497245995942166e7 -4.0695460026680395e7 0.0
0.0 0.0 0.0

1.2950886257270072e6 2.075359327215785e7 0.0
2.075359327215785e7 4.2817022512901224e7 0.0
0.0 0.0 0.0

-6.233946564417617e6 1.8853082471058458e7 0.0
1.8853082471058458e7 2.975223099137557e7 0.0
0.0 0.0 0.0

1.5536314192237463e6 1.2738251154950988e7 0.0
1.2738251154950988e7 -1.7457166443327785e7 0.0
0.0 0.0 0.0

1.8443080632110275e6 3.3425004833031e6 0.0
3.3425004833031e6 -3.894717059543916e7 0.0
0.0 0.0 0.0

5.310024356838501e6 2.1290295512382388e7 0.0
2.1290295512382388e7 3.863358936877009e7 0.0
0.0 0.0 0.0

3.408593539320795e6 2.1310637633366324e7 0.0
2.1310637633366324e7 4.090638282573814e7 0.0
0.0 0.0 0.0

-320309.76997870393 2.143606412253962e7 0.0
2.143606412253962e7 -9.268619697090067e6 0.0
0.0 0.0 0.0

-3.908765907669086e6 2.9252753535751335e7 0.0
2.9252753535751335e7 1.2518088854615811e7 0.0
0.0 0.0 0.0

885162.8728659267 4.572953371775264e7 0.0
4.572953371775264e7 -1.8445274836806175e6 0.0
0.0 0.0 0.0

1.3361662233074252e6 2.447178385472118e7 0.0
2.447178385472118e7 -1.5765651303320758e7 0.0
0.0 0.0 0.0

-9.025026076455727e6 1.6753758682938814e6 0.0
1.6753758682938814e6 2.8998736047999844e7 0.0
0.0 0.0 0.0

-472313.9330990575 1.7191155347782314e7 0.0
1.7191155347782314e7 -3.470492471866663e7 0.0
0.0 0.0 0.0

-2.615598407839885e6 2.593012703247281e7 0.0
2.593012703247281e7 1.5978995751980603e7 0.0
0.0 0.0 0.0

-6.912208099365123e6 1.751731580958536e7 0.0
1.751731580958536e7 3.082086088264475e7 0.0
0.0 0.0 0.0

5.332104802689543e6 1.8881412430299554e7 0.0
1.8881412430299554e7 1.757690856991271e7 0.0
0.0 0.0 0.0

-70334.16729535162 1.131764654096847e7 0.0
1.131764654096847e7 -4.811257195645686e7 0.0
0.0 0.0 0.0

241674.45289471373 1.4347366135393195e7 0.0
1.4347366135393195e7 -3.794556735814126e7 0.0
0.0 0.0 0.0

1.3251755877857659e7 4.910586360442863e7 0.0
4.910586360442863e7 -5.999671766416732e6 0.0
0.0 0.0 0.0

-1.6640997388614274e6 2.9694377731613062e7 0.0
2.9694377731613062e7 4.519907973528018e6 0.0
0.0 0.0 0.0

-2.4811284559426038e6 3.107428753147892e7 0.0
3.107428753147892e7 6.74633084473611e6 0.0
0.0 0.0 0.0

-862357.7506883407 3.1902904781187523e7 0.0
3.1902904781187523e7 -2.4893317790826373e6 0.0
0.0 0.0 0.0

3.1210851189150764e6 4.236504681050032e6 0.0
4.236504681050032e6 -2.2207369108683262e7 0.0
0.0 0.0 0.0

-3.016659688563169e6 2.0835503316874612e7 0.0
2.0835503316874612e7 -9.811811206886165e6 0.0
0.0 0.0 0.0

-2.423679987156446e6 2.5744260436787605e7 0.0
2.5744260436787605e7 1.5188266030382477e7 0.0
0.0 0.0 0.0

2.515178602692293e6 2.749021912420563e7 0.0
2.749021912420563e7 -1.2434925022589328e7 0.0
0.0 0.0 0.0

860713.5975695604 4.4330372257804185e7 0.0
4.4330372257804185e7 -1.6700947744903388e6 0.0
0.0 0.0 0.0

-7.164500239822112e6 1.1855325024876922e7 0.0
1.1855325024876922e7 1.759347202804078e7 0.0
0.0 0.0 0.0

-9.138571031436836e6 1.3023193273403786e7 0.0
1.3023193273403786e7 3.432841833277393e7 0.0
0.0 0.0 0.0

747025.4476773412 4.3202170808536045e7 0.0
4.3202170808536045e7 -1.4760304320010291e6 0.0
0.0 0.0 0.0

1.198780108216941e6 2.8508176461523283e7 0.0
2.8508176461523283e7 -1.0319967550563432e7 0.0
0.0 0.0 0.0

1.033313190894763e6 1.2874020187751768e7 0.0
1.2874020187751768e7 -2.3304185195791245e7 0.0
0.0 0.0 0.0

-2.924523532427362e6 2.0552535569381647e7 0.0
2.0552535569381647e7 1.7579243766265813e7 0.0
0.0 0.0 0.0

-73823.70897367038 1.0411410777778346e7 0.0
1.0411410777778346e7 -5.062863185029242e7 0.0
0.0 0.0 0.0

-478303.91629423015 3.71727024320536e7 0.0
3.71727024320536e7 792011.4634456354 0.0
0.0 0.0 0.0

-3.8777465283592446e6 2.6701851635220643e7 0.0
2.6701851635220643e7 1.190038413670404e7 0.0
0.0 0.0 0.0

-1.551791811292056e6 1.5875063794114085e7 0.0
1.5875063794114085e7 -4.383675184151455e7 0.0
0.0 0.0 0.0

-3.766688472119906e6 3.178153791050856e7 0.0
3.178153791050856e7 6.868305742142411e6 0.0
0.0 0.0 0.0

-8.79804288802395e6 1.259527291671633e7 0.0
1.259527291671633e7 3.69782134773095e7 0.0
0.0 0.0 0.0

820905.5410094429 1.2479119252154695e7 0.0
1.2479119252154695e7 -1.9863277718422208e7 0.0
0.0 0.0 0.0

3.4063145721401162e6 2.561321552865367e7 0.0
2.561321552865367e7 1.3149035860453175e7 0.0
0.0 0.0 0.0

-2.2614824214471374e6 2.8508170134158902e7 0.0
2.8508170134158902e7 9.56397311656085e6 0.0
0.0 0.0 0.0

-2.3427744463712294e6 1.702206485055086e7 0.0
1.702206485055086e7 -4.34023408083219e7 0.0
0.0 0.0 0.0

-1.2309468213187268e6 6.988625922530232e7 0.0
6.988625922530232e7 -8.994438093293617e6 0.0
0.0 0.0 0.0

-5.6104315927905105e6 2.0351231109460276e7 0.0
2.0351231109460276e7 2.6818959488385297e7 0.0
0.0 0.0 0.0

-1.5429846731599536e7 2.0664404794232562e7 0.0
2.0664404794232562e7 -7.309930047682413e7 0.0
0.0 0.0 0.0

-5.186914237832296e6 1.2211704425621819e7 0.0
1.2211704425621819e7 1.3598581950950805e7 0.0
0.0 0.0 0.0

-3.1443630660761986e6 2.3916981230655648e7 0.0
2.3916981230655648e7 1.4414636515107702e7 0.0
0.0 0.0 0.0

-1.4300639157054815e6 2.0493422429102816e7 0.0
2.0493422429102816e7 3.87772502006749e7 0.0
0.0 0.0 0.0

-3.519452531138125e6 1.9214006108979877e7 0.0
1.9214006108979877e7 1.8451429807932235e7 0.0
0.0 0.0 0.0

3.5830474737502746e6 1.9223738140996613e7 0.0
1.9223738140996613e7 7.40978816564477e7 0.0
0.0 0.0 0.0

-2.0607805654790252e6 2.3957425269250967e7 0.0
2.3957425269250967e7 1.3914604689078536e7 0.0
0.0 0.0 0.0

-2.36374204397007e6 2.1499644030201875e7 0.0
2.1499644030201875e7 -2.8781776249449957e7 0.0
0.0 0.0 0.0

1.4441694322098e6 2.4998727605880693e7 0.0
2.4998727605880693e7 -1.6644943408055823e7 0.0
0.0 0.0 0.0

2.0401124478080165e8 3.603189370463481e7 0.0
3.603189370463481e7 1.971857117807082e7 0.0
0.0 0.0 0.0

-7.013778319700517e6 -1.5284103161445488e6 0.0
-1.5284103161445488e6 4.491100285766714e7 0.0
0.0 0.0 0.0

2.0984537213865668e6 1.3128082730554314e6 0.0
1.3128082730554314e6 -4.521844027467969e7 0.0
0.0 0.0 0.0

-1.0137476441573538e7 2.744010421159432e6 0.0
2.744010421159432e6 1.676956211078531e7 0.0
0.0 0.0 0.0

-570333.4380658567 3.117387381440504e7 0.0
3.117387381440504e7 -3.591283604375884e6 0.0
0.0 0.0 0.0

-5.969073616950139e6 -971629.474862844 0.0
-971629.474862844 5.7645854862731256e7 0.0
0.0 0.0 0.0

-1.0214790412170287e7 1.977170790131115e7 0.0
1.977170790131115e7 -4.352748388328121e7 0.0
0.0 0.0 0.0

-7.765546093639374e6 1.5931986998982554e7 0.0
1.5931986998982554e7 3.1643008104041558e7 0.0
0.0 0.0 0.0

-4.898163293809988e6 2.182138179244554e7 0.0
2.182138179244554e7 2.3606995388175216e7 0.0
0.0 0.0 0.0

1.7597699527919888e6 1.256384145953789e6 0.0
1.256384145953789e6 -5.134782286555467e7 0.0
0.0 0.0 0.0

1.1828329138788963e6 2.1445431403646324e7 0.0
2.1445431403646324e7 -1.8052091697636176e7 0.0
0.0 0.0 0.0

882211.7475116833 4.736689883682849e7 0.0
4.736689883682849e7 -1.515841678540471e6 0.0
0.0 0.0 0.0

509588.1161497813 1.3335218587048037e7 0.0
1.3335218587048037e7 -1.8424209356043875e7 0.0
0.0 0.0 0.0

-5.014874551929884e6 2.5935819369556077e7 0.0
2.5935819369556077e7 -5.250876959739218e6 0.0
0.0 0.0 0.0

2.0098927537252083e6 9.971153077648025e6 0.0
9.971153077648025e6 1.2180914641490406e8 0.0
0.0 0.0 0.0

-3.9199421880179793e6 9.492804155248059e6 0.0
9.492804155248059e6 -1.1933106616495562e8 0.0
0.0 0.0 0.0

-8.550990674298834e6 1.968424928892161e7 0.0
1.968424928892161e7 -1.0140667751403747e8 0.0
0.0 0.0 0.0

1.258994668089875e6 1.9131486071786042e7 0.0
1.9131486071786042e7 -2.2756424864618607e7 0.0
0.0 0.0 0.0

1.1546479560835585e6 7.904056640090939e6 0.0
7.904056640090939e6 -5.512149707203811e7 0.0
0.0 0.0 0.0

-3.063381096730619e7 3.410137549489591e7 0.0
3.410137549489591e7 1.1083613944765609e6 0.0
0.0 0.0 0.0

2.3146244005671637e6 2.6681177386242867e7 0.0
2.6681177386242867e7 -1.3912627360028649e7 0.0
0.0 0.0 0.0

-6.828370149572708e6 -1.5153931240187914e6 0.0
-1.5153931240187914e6 4.64330872755827e7 0.0
0.0 0.0 0.0

-6.719745918983428e6 1.4789687582029067e7 0.0
1.4789687582029067e7 1.909628841356098e7 0.0
0.0 0.0 0.0

-2.3243218318697866e6 3.1812169127618346e7 0.0
3.1812169127618346e7 5.579592642235238e6 0.0
0.0 0.0 0.0

-3.2312476866094014e6 2.6527539984250437e7 0.0
2.6527539984250437e7 1.3777545264194723e7 0.0
0.0 0.0 0.0

-6.444788919046063e6 1.7951954101191506e7 0.0
1.7951954101191506e7 1.991702832442934e7 0.0
0.0 0.0 0.0

-8.779464350864105e6 1.0582353428809088e7 0.0
1.0582353428809088e7 1.970219424110686e7 0.0
0.0 0.0 0.0

1.059188695531266e7 2.5059462368603192e7 0.0
2.5059462368603192e7 7.067407336092893e6 0.0
0.0 0.0 0.0

1.1209574840895645e6 2.948838743891901e7 0.0
2.948838743891901e7 -9.137986721944677e6 0.0
0.0 0.0 0.0

-4.664489421366686e6 7.739214182311506e6 0.0
7.739214182311506e6 2.9995211116214115e6 0.0
0.0 0.0 0.0

1.5016596481290474e6 3.411619874982753e7 0.0
3.411619874982753e7 -2.8832302552604843e6 0.0
0.0 0.0 0.0

-6.8169132312745005e6 1.8988001498856824e7 0.0
1.8988001498856824e7 2.9772349841798373e7 0.0
0.0 0.0 0.0

-2.769939855421762e6 2.0084682993468747e7 0.0
2.0084682993468747e7 1.6211015209169693e7 0.0
0.0 0.0 0.0

-6.654095010080064e6 -1.4497832029580716e6 0.0
-1.4497832029580716e6 4.793019041401711e7 0.0
0.0 0.0 0.0

1.867592854157921e6 1.3099263818639333e6 0.0
1.3099263818639333e6 -4.822927199575279e7 0.0
0.0 0.0 0.0

954092.3040499687 8.266081770105039e6 0.0
8.266081770105039e6 -5.891198135415481e7 0.0
0.0 0.0 0.0

-8.990340781738115e6 1.5016502867104167e7 0.0
1.5016502867104167e7 3.032221745573037e7 0.0
0.0 0.0 0.0

-1.6507617725521028e6 5.585357969149323e6 0.0
5.585357969149323e6 -1.0386738083921312e8 0.0
0.0 0.0 0.0

-4.426825143686578e6 332739.14083193016 0.0
332739.14083193016 7.579430400880553e7 0.0
0.0 0.0 0.0

1.18186398590508e6 1.2040481264538258e7 0.0
1.2040481264538258e7 -2.4858570185601775e7 0.0
0.0 0.0 0.0

2.2361724051381014e6 1.028848573842303e7 0.0
1.028848573842303e7 -2.7951793766321406e7 0.0
0.0 0.0 0.0

9.00119807895279e6 4.3175704048651375e7 0.0
4.3175704048651375e7 -3.3734345537648485e6 0.0
0.0 0.0 0.0

-8.936314630790502e6 3.684303671497609e7 0.0
3.684303671497609e7 6.549449429266257e6 0.0
0.0 0.0 0.0

-2.3656275771535956e6 2.773143886267202e7 0.0
2.773143886267202e7 1.0882455142686456e7 0.0
0.0 0.0 0.0

1.9355728297247346e6 3.25819787240117e7 0.0
3.25819787240117e7 -4.914465151662016e6 0.0
0.0 0.0 0.0

-909952.285620911 4.386111949829988e7 0.0
4.386111949829988e7 1.334832284313921e6 0.0
0.0 0.0 0.0

-2.9005373694799305e6 2.9603539491947483e7 0.0
2.9603539491947483e7 1.0136340093818596e7 0.0
0.0 0.0 0.0

1.801275612094664e6 2.3000865046395943e7 0.0
2.3000865046395943e7 1.5390706996705355e7 0.0
0.0 0.0 0.0

-61392.33776016161 2.753757895016981e6 0.0
2.753757895016981e6 -8.778284732143758e7 0.0
0.0 0.0 0.0

1.6030973810018376e6 1.1852067708323286e6 0.0
1.1852067708323286e6 -5.7831020559447944e7 0.0
0.0 0.0 0.0

727880.2511049993 1.6710863193155082e6 0.0
1.6710863193155082e6 -7.567041926399386e7 0.0
0.0 0.0 0.0

-2.2111344542861967e6 3.231673900134414e7 0.0
3.231673900134414e7 1.7446842235702104e6 0.0
0.0 0.0 0.0

-6.67935039744491e6 1.3263447538277006e7 0.0
1.3263447538277006e7 1.17617689767938e7 0.0
0.0 0.0 0.0

-5.6768019702616595e6 -839268.9911085754 0.0
-839268.9911085754 5.933776629063821e7 0.0
0.0 0.0 0.0

-8.932412077031614e6 1.5454656401341882e7 0.0
1.5454656401341882e7 2.8061402943115562e7 0.0
0.0 0.0 0.0

2.742401717489196e6 3.462321264067715e6 0.0
3.462321264067715e6 -3.0069095780444257e7 0.0
0.0 0.0 0.0

-1.7473846218391586e7 3.3523869037039492e7 0.0
3.3523869037039492e7 4.709779323037863e6 0.0
0.0 0.0 0.0

-9.700393989153361e6 2.1169587331068642e7 0.0
2.1169587331068642e7 -3.6693496987948805e7 0.0
0.0 0.0 0.0

-7.345152970223244e6 -2.0326647198759324e6 0.0
-2.0326647198759324e6 3.855683816933571e7 0.0
0.0 0.0 0.0

-1.0529582202411532e7 7.2253756598309595e6 0.0
7.2253756598309595e6 2.701451671478962e7 0.0
0.0 0.0 0.0

-7.962875685641015e6 1.1773831436071077e7 0.0
1.1773831436071077e7 4.2957419594450004e7 0.0
0.0 0.0 0.0

-2.659753401816055e6 2.425487199136506e7 0.0
2.425487199136506e7 2.252047562743789e7 0.0
0.0 0.0 0.0

583260.195645066 1.5048038967214482e7 0.0
1.5048038967214482e7 -3.3491887290349156e7 0.0
0.0 0.0 0.0

646515.0134641379 2.224997709057888e6 0.0
2.224997709057888e6 -8.316968039049816e7 0.0
0.0 0.0 0.0

2.156775024493521e6 1.3984493715792878e6 0.0
1.3984493715792878e6 -4.080643318020052e7 0.0
0.0 0.0 0.0

1.9985428364592243e7 4.635360742872035e7 0.0
4.635360742872035e7 -7.448444594160572e6 0.0
0.0 0.0 0.0

-4.730990731487703e6 141517.60984845558 0.0
141517.60984845558 7.286784435239594e7 0.0
0.0 0.0 0.0

995074.2050807159 9.756064418042134e6 0.0
9.756064418042134e6 -4.9674713667055786e7 0.0
0.0 0.0 0.0

-3.2718240958104357e6 3.1094620898535317e6 0.0
3.1094620898535317e6 9.535625733791876e7 0.0
0.0 0.0 0.0

-208954.45393932983 3.7045609621010628e6 0.0
3.7045609621010628e6 -9.429129518724999e7 0.0
0.0 0.0 0.0

-4.319494141099733e6 3.1281923768238977e7 0.0
3.1281923768238977e7 9.890475489231091e6 0.0
0.0 0.0 0.0

-1.609708757194433e6 1.4889749565226428e7 0.0
1.4889749565226428e7 -7.718783393683415e6 0.0
0.0 0.0 0.0

-236183.84975360986 2.263913568223072e7 0.0
2.263913568223072e7 -1.428942407358527e7 0.0
0.0 0.0 0.0

316303.221016909 2.084052198785178e7 0.0
2.084052198785178e7 -2.4629675423334688e7 0.0
0.0 0.0 0.0

-3.980807802412793e6 656795.7292652524 0.0
656795.7292652524 7.930944386725384e7 0.0
0.0 0.0 0.0

539629.7463868745 1.9785870789799837e6 0.0
1.9785870789799837e6 -7.917036819557302e7 0.0
0.0 0.0 0.0

-5.919115860799847e6 1.977937700795819e7 0.0
1.977937700795819e7 3.0577032602892965e7 0.0
0.0 0.0 0.0

-7.239685173699066e6 1.8416447361580737e7 0.0
1.8416447361580737e7 2.909258875879945e7 0.0
0.0 0.0 0.0

-8.367223476310303e6 1.3585883516072255e7 0.0
1.3585883516072255e7 3.784028874869413e7 0.0
0.0 0.0 0.0

-4.528931911700327e6 1.8416821283269487e7 0.0
1.8416821283269487e7 2.0668570700193558e7 0.0
0.0 0.0 0.0

7.581951511359602e6 2.1847801978517566e7 0.0
2.1847801978517566e7 5.065738247211924e7 0.0
0.0 0.0 0.0

2.3666071785817062e6 3.021376090556821e7 0.0
3.021376090556821e7 -7.993939936113479e6 0.0
0.0 0.0 0.0

-2.105626994401438e6 3.463517325580167e7 0.0
3.463517325580167e7 887753.7136898955 0.0
0.0 0.0 0.0

2.1977514333633645e6 3.2083448272457905e7 0.0
3.2083448272457905e7 -6.806409571242071e6 0.0
0.0 0.0 0.0

2.0110002239462286e6 1.210571825096595e7 0.0
1.210571825096595e7 -2.4858426464981697e7 0.0
0.0 0.0 0.0

-4.956576437488951e6 3.512634148362387e7 0.0
3.512634148362387e7 6.414643326379105e6 0.0
0.0 0.0 0.0

-2.94440649508798e6 2.484264843470478e7 0.0
2.484264843470478e7 -7.268461847505372e6 0.0
0.0 0.0 0.0

1.37298837784883e6 1.7694799476754554e7 0.0
1.7694799476754554e7 -2.594753293232517e7 0.0
0.0 0.0 0.0

-5.774629133821122e6 1.756182563934676e7 0.0
1.756182563934676e7 3.8560106521118924e7 0.0
0.0 0.0 0.0

-8.519888792489115e6 1.5720510965146046e7 0.0
1.5720510965146046e7 3.1268660410966575e7 0.0
0.0 0.0 0.0

1.4008751521824151e6 1.0913044929866266e7 0.0
1.0913044929866266e7 -2.893339495099721e7 0.0
0.0 0.0 0.0

-6.337813375172e6 -1.25111900314727e6 0.0
-1.25111900314727e6 5.2616518002711155e7 0.0
0.0 0.0 0.0

1.646492389272485e6 1.2713564135531224e6 0.0
1.2713564135531224e6 -5.290755468229751e7 0.0
0.0 0.0 0.0

1.9715311575830765e6 2.2175686964928396e7 0.0
2.2175686964928396e7 3.0358461314343672e7 0.0
0.0 0.0 0.0

-4.855882355253059e6 -27484.815017325156 0.0
-27484.815017325156 7.01290404346641e7 0.0
0.0 0.0 0.0

853756.0844362155 1.4901797152919518e6 0.0
1.4901797152919518e6 -7.004366334946024e7 0.0
0.0 0.0 0.0

1.5602426109504253e6 1.3407541694615048e6 0.0
1.3407541694615048e6 -5.446033393322787e7 0.0
0.0 0.0 0.0

-6.172072802608427e6 -1.1112503722624062e6 0.0
-1.1112503722624062e6 5.421608104741487e7 0.0
0.0 0.0 0.0

116696.06239563599 1.929405714888481e7 0.0
1.929405714888481e7 5.070394594611654e7 0.0
0.0 0.0 0.0

1.084826506660141e6 1.378123531609684e6 0.0
1.378123531609684e6 -6.775242708035277e7 0.0
0.0 0.0 0.0

-5.024727757506076e6 -294685.89048927865 0.0
-294685.89048927865 6.753898946308304e7 0.0
0.0 0.0 0.0

-1.6752318648953624e6 2.3525232010605507e7 0.0
2.3525232010605507e7 2.6085005722117875e7 0.0
0.0 0.0 0.0

-7.013929509474281e6 1.566925176127336e6 0.0
1.566925176127336e6 4.796345116023501e7 0.0
0.0 0.0 0.0

-6.064670049474478e6 -999434.1760127757 0.0
-999434.1760127757 5.594912463781297e7 0.0
0.0 0.0 0.0

1.7457218080003858e6 1.3052990640465533e6 0.0
1.3052990640465533e6 -5.6217229853105515e7 0.0
0.0 0.0 0.0

1.1492445092909485e6 1.394211128096157e6 0.0
1.394211128096157e6 -6.556325481375433e7 0.0
0.0 0.0 0.0

-5.24951776666759e6 -530172.104446401 0.0
-530172.104446401 6.526123295368007e7 0.0
0.0 0.0 0.0

-3.5785100787558234e8 7.80439135751665e7 0.0
7.80439135751665e7 -4.303783098850556e7 0.0
0.0 0.0 0.0

3.477131543091532e8 7.212841370246474e7 0.0
7.212841370246474e7 3.6826688239724636e7 0.0
0.0 0.0 0.0

-6.321457671643514e6 1.8516441912240446e7 0.0
1.8516441912240446e7 2.109698502421743e7 0.0
0.0 0.0 0.0

1.0437984791788049e6 1.2609803313177826e6 0.0
1.2609803313177826e6 -6.341208382622726e7 0.0
0.0 0.0 0.0

-5.543834844567321e6 -630155.8082554485 0.0
-630155.8082554485 6.333184762351049e7 0.0
0.0 0.0 0.0

560097.5130560738 2.3068088972591348e7 0.0
2.3068088972591348e7 -1.2917124631621258e6 0.0
0.0 0.0 0.0

-8.106510492450135e6 1.683590254789009e7 0.0
1.683590254789009e7 2.9815421545778774e7 0.0
0.0 0.0 0.0

-2.0738893068458035e6 3.2520776353149325e7 0.0
3.2520776353149325e7 4.523748973193809e6 0.0
0.0 0.0 0.0

2.756222051137153e6 2.283791002247849e7 0.0
2.283791002247849e7 3.1309335240133353e7 0.0
0.0 0.0 0.0

-5.658180121851977e6 -678943.02695622 0.0
-678943.02695622 6.135445332730197e7 0.0
0.0 0.0 0.0

1.3022530143707432e6 1.1143630902654289e6 0.0
1.1143630902654289e6 -6.160640125348257e7 0.0
0.0 0.0 0.0

1.123574589830886e6 3.0407705382039826e7 0.0
3.0407705382039826e7 -7.99841870801035e6 0.0
0.0 0.0 0.0

-1.1473857496990405e7 2.0538626609932963e7 0.0
2.0538626609932963e7 -7.46165053212346e7 0.0
0.0 0.0 0.0

-13795.259128897334 3.422864341393584e7 0.0
3.422864341393584e7 -2.734365920798852e6 0.0
0.0 0.0 0.0

1.2725996880385745e6 1.989684814160881e7 0.0
1.989684814160881e7 -2.1161814978761315e7 0.0
0.0 0.0 0.0

-3046.8781108297408 1.842856764347678e7 0.0
1.842856764347678e7 -3.031609356954074e7 0.0
0.0 0.0 0.0

337129.19863732764 2.3361002585300084e7 0.0
2.3361002585300084e7 8.717184569993788e6 0.0
0.0 0.0 0.0

4.427751943285553e6 3.025868556916062e7 0.0
3.025868556916062e7 -9.550626230958331e6 0.0
0.0 0.0 0.0

2.4351280366970096e6 2.7479619064903896e7 0.0
2.7479619064903896e7 -1.2303750853018088e7 0.0
0.0 0.0 0.0

-8.493875911585676e6 1.9151761122159325e7 0.0
1.9151761122159325e7 -5.7554276713023506e7 0.0
0.0 0.0 0.0

-1.0496861880799718e6 3.4198354038290374e7 0.0
3.4198354038290374e7 1.5604976335171738e6 0.0
0.0 0.0 0.0

-2.768881422779559e6 2.7115796567752026e7 0.0
2.7115796567752026e7 1.1693152292401738e7 0.0
0.0 0.0 0.0

-1.0274149784125797e7 2.8610353345481306e7 0.0
2.8610353345481306e7 -1.5060508581678193e7 0.0
0.0 0.0 0.0

-355835.60862935707 1.9011801729028385e7 0.0
1.9011801729028385e7 -3.0356094138772342e7 0.0
0.0 0.0 0.0

-8.75720665611902e6 1.5907871065125577e7 0.0
1.5907871065125577e7 2.5769113162755825e7 0.0
0.0 0.0 0.0

3.9581172704917714e6 2.1862171480521183e7 0.0
2.1862171480521183e7 1.6380641715974554e7 0.0
0.0 0.0 0.0

-7.739796448803311e6 1.742205442096791e7 0.0
1.742205442096791e7 2.536261103590272e7 0.0
0.0 0.0 0.0

-1.3162908714466863e6 2.2914722552289847e7 0.0
2.2914722552289847e7 -1.992594181265589e6 0.0
0.0 0.0 0.0

-1.4199695897338549e6 3.374050654563508e7 0.0
3.374050654563508e7 2.6344252323120255e6 0.0
0.0 0.0 0.0

-3.663310259924805e6 1.9256375274883065e7 0.0
1.9256375274883065e7 -3.907235793652793e7 0.0
0.0 0.0 0.0

-873154.228817055 2.3642208667841017e7 0.0
2.3642208667841017e7 2.583706060570182e7 0.0
0.0 0.0 0.0

-1.1804651452364093e6 4.509642227560718e7 0.0
4.509642227560718e7 1.8739330555370916e6 0.0
0.0 0.0 0.0

-2.139400622743016e6 2.3453004800486065e7 0.0
2.3453004800486065e7 -2.9261428302297415e6 0.0
0.0 0.0 0.0

807552.9039591951 3.203976326124267e7 0.0
3.203976326124267e7 -5.7560697476188e6 0.0
0.0 0.0 0.0

2.3618877166589595e7 2.8928613348615333e7 0.0
2.8928613348615333e7 1.6300894354467764e7 0.0
0.0 0.0 0.0

-1.8090932285112247e6 3.3168589677656148e7 0.0
3.3168589677656148e7 3.5302819111296525e6 0.0
0.0 0.0 0.0

-1.0474647686229886e7 1.85565903706888e7 0.0
1.85565903706888e7 -4.289001457054265e6 0.0
0.0 0.0 0.0

-1.2070936829130636e6 3.669813319625298e7 0.0
3.669813319625298e7 1.5707696952121542e6 0.0
0.0 0.0 0.0

2.603566972782582e6 1.6151704105024324e6 0.0
1.6151704105024324e6 -3.1831083656872664e7 0.0
0.0 0.0 0.0

2.7219476666137e6 1.683814476785014e6 0.0
1.683814476785014e6 -3.0521664659021586e7 0.0
0.0 0.0 0.0

1.073906602624624e6 3.1253972197539136e7 0.0
3.1253972197539136e7 -6.650697559532363e6 0.0
0.0 0.0 0.0

4.2911824316535015e6 2.1917546334766593e7 0.0
2.1917546334766593e7 4.175879331741815e7 0.0
0.0 0.0 0.0

-473315.9615187174 3.799935485094867e7 0.0
3.799935485094867e7 908469.1235453091 0.0
0.0 0.0 0.0

-8.613531145522622e6 1.3985063549851557e7 0.0
1.3985063549851557e7 3.5254009375583604e7 0.0
0.0 0.0 0.0

-703065.716380113 4.1817841727730066e7 0.0
4.1817841727730066e7 1.140580275980573e6 0.0
0.0 0.0 0.0

-2.30833602338499e6 2.534990322024175e7 0.0
2.534990322024175e7 1.5151594131213237e7 0.0
0.0 0.0 0.0

537343.5051632873 2.1739723853870742e7 0.0
2.1739723853870742e7 6.385705470421297e6 0.0
0.0 0.0 0.0

959051.6983852256 1.4766021113878598e7 0.0
1.4766021113878598e7 -3.542959184414939e7 0.0
0.0 0.0 0.0

-3.278018715571353e6 3.2311528355398037e7 0.0
3.2311528355398037e7 4.776343372891987e6 0.0
0.0 0.0 0.0

-7.998320453816468e6 -456262.18178180116 0.0
-456262.18178180116 3.484756205680549e7 0.0
0.0 0.0 0.0

45005.78913959116 1.864863948707452e7 0.0
1.864863948707452e7 5.38761479054983e7 0.0
0.0 0.0 0.0

-7.617655614314286e6 1.871783922082642e7 0.0
1.871783922082642e7 -6.4661549407340005e7 0.0
0.0 0.0 0.0

-7.2405461319790445e6 1.4724765387943208e7 0.0
1.4724765387943208e7 3.933751306264206e7 0.0
0.0 0.0 0.0

1.0109560074434416e7 3.13072064677942e7 0.0
3.13072064677942e7 -6.2136805730385035e6 0.0
0.0 0.0 0.0

1.3020240639622249e6 1.5481877388673447e7 0.0
1.5481877388673447e7 -3.1138259659920737e7 0.0
0.0 0.0 0.0

-2.3277280815291936e6 2.2936623248191945e7 0.0
2.2936623248191945e7 -1.6491792532271778e6 0.0
0.0 0.0 0.0

376106.6351065668 3.3577796995757766e7 0.0
3.3577796995757766e7 -3.699746683568421e6 0.0
0.0 0.0 0.0

-1.1024562711355344e6 2.2343549708120875e7 0.0
2.2343549708120875e7 -6.454681399380951e6 0.0
0.0 0.0 0.0

-8.177441873917455e6 1.5226910699983902e7 0.0
1.5226910699983902e7 3.0775808341520283e7 0.0
0.0 0.0 0.0

-6.470005983351022e6 1.6711351828205107e7 0.0
1.6711351828205107e7 3.799490104697163e7 0.0
0.0 0.0 0.0

625594.4443106095 3.282443016068879e7 0.0
3.282443016068879e7 -4.740761929488481e6 0.0
0.0 0.0 0.0

-5.678125141216743e6 1.766617287055926e7 0.0
1.766617287055926e7 2.2633906672062654e7 0.0
0.0 0.0 0.0

1.736396866896078e6 4.7062093657996915e6 0.0
4.7062093657996915e6 -5.186958222160714e7 0.0
0.0 0.0 0.0

-4.502843337372729e6 2.056426886443388e7 0.0
2.056426886443388e7 1.8180359620673448e7 0.0
0.0 0.0 0.0

-2.45624488055358e6 2.2085353652913574e7 0.0
2.2085353652913574e7 -1.3866267659300357e7 0.0
0.0 0.0 0.0

1.1331984759819736e6 2.329440408710116e7 0.0
2.329440408710116e7 2.2539933276160667e6 0.0
0.0 0.0 0.0

-4.728140861741929e6 2.4897799127875537e7 0.0
2.4897799127875537e7 -1.6027733408360774e7 0.0
0.0 0.0 0.0

-1.4464963986115681e6 2.2776042226612154e7 0.0
2.2776042226612154e7 -8.451867174694054e6 0.0
0.0 0.0 0.0

142782.7440311946 1.9069457099083107e7 0.0
1.9069457099083107e7 -2.835015102891341e7 0.0
0.0 0.0 0.0

1.2890749791302346e6 9.338212755699571e6 0.0
9.338212755699571e6 -3.702687591385822e7 0.0
0.0 0.0 0.0

-1.8572356226506077e6 2.2215034672304213e7 0.0
2.2215034672304213e7 -1.0135699688907955e7 0.0
0.0 0.0 0.0

1.151769120115865e6 1.2664800942980312e7 0.0
1.2664800942980312e7 -2.574894402245673e7 0.0
0.0 0.0 0.0

2.926955211982237e6 3.8132548364252793e6 0.0
3.8132548364252793e6 -2.4116034856348626e7 0.0
0.0 0.0 0.0

-2.8181706161679747e6 3.3637844148526005e7 0.0
3.3637844148526005e7 2.7616683199380534e6 0.0
0.0 0.0 0.0

-1.4652777095240864e6 1.5489350507493295e7 0.0
1.5489350507493295e7 -9.45990985894899e6 0.0
0.0 0.0 0.0

-2.3775752696034852e6 2.4351305485017803e7 0.0
2.4351305485017803e7 2.1975677956771977e7 0.0
0.0 0.0 0.0

-8.079786554491419e6 -3.591309923403351e6 0.0
-3.591309923403351e6 2.3676140099180143e7 0.0
0.0 0.0 0.0

6.231782363567048e6 2.5114945647550233e7 0.0
2.5114945647550233e7 3.7938038662999216e6 0.0
0.0 0.0 0.0

-6.338266755884154e6 2.5102715316585213e7 0.0
2.5102715316585213e7 -1.7802421033368446e7 0.0
0.0 0.0 0.0

1.48580170483529e6 9.960554055008966e6 0.0
9.960554055008966e6 -3.0492915080867235e7 0.0
0.0 0.0 0.0

-1.3407968970389079e8 2.3167357571016286e7 0.0
2.3167357571016286e7 2.9526262569862306e6 0.0
0.0 0.0 0.0

-3.045794480576506e6 2.2900093159387633e7 0.0
2.2900093159387633e7 2.655209158106552e7 0.0
0.0 0.0 0.0

1.447174345408962e6 2.3346357479056314e7 0.0
2.3346357479056314e7 -1.7782098927475974e7 0.0
0.0 0.0 0.0

-1.277179533711316e6 2.0667940248480424e7 0.0
2.0667940248480424e7 -1.0502064796028394e7 0.0
0.0 0.0 0.0

724228.5877476558 1.694814564893209e7 0.0
1.694814564893209e7 -3.1893899539563872e7 0.0
0.0 0.0 0.0

2.8548065358041273e6 2.2490927822376363e7 0.0
2.2490927822376363e7 1.5972133208967548e7 0.0
0.0 0.0 0.0

-69033.22549524717 1.5268961848385433e7 0.0
1.5268961848385433e7 -4.051787485135849e7 0.0
0.0 0.0 0.0

2.9193997194566885e6 2.2912532423963957e7 0.0
2.2912532423963957e7 1.8654030720116198e7 0.0
0.0 0.0 0.0

525624.5408301083 2.0926514464612372e7 0.0
2.0926514464612372e7 -2.0068710886312798e7 0.0
0.0 0.0 0.0

2.2037016163994055e6 9.694959543054117e6 0.0
9.694959543054117e6 -3.2632526843250364e7 0.0
0.0 0.0 0.0

1.0195196051168106e6 2.3354465322589623e6 0.0
2.3354465322589623e6 -6.004087980949095e7 0.0
0.0 0.0 0.0

7.694747460241921e6 3.357573400795901e7 0.0
3.357573400795901e7 -6.961203950731642e6 0.0
0.0 0.0 0.0

561485.4783123322 1.4946778096905539e7 0.0
1.4946778096905539e7 -3.796349734442298e7 0.0
0.0 0.0 0.0

-5.058890459942043e6 3.4080062498798504e7 0.0
3.4080062498798504e7 7.223448353544017e6 0.0
0.0 0.0 0.0

-9.999902769445522e6 2.704785262434038e7 0.0
2.704785262434038e7 1.785568678324414e6 0.0
0.0 0.0 0.0

2.0828222780927392e6 9.090278537537377e6 0.0
9.090278537537377e6 -1.4508938250725431e7 0.0
0.0 0.0 0.0

-1.7426603141890028e6 4.639602826208294e7 0.0
4.639602826208294e7 2.3047462789896224e6 0.0
0.0 0.0 0.0

2.116304328627603e6 1.0996999809055287e7 0.0
1.0996999809055287e7 -2.8792728985008877e7 0.0
0.0 0.0 0.0

4.3450012652735505e6 2.0463122298274014e7 0.0
2.0463122298274014e7 5.595277303224164e7 0.0
0.0 0.0 0.0

-1.0457449185990937e6 2.3657986648521006e7 0.0
2.3657986648521006e7 2.318059919033759e6 0.0
0.0 0.0 0.0

-9.265684431583991e6 3.5308853358520254e7 0.0
3.5308853358520254e7 7.097739984516688e6 0.0
0.0 0.0 0.0

-7.365891144502686e6 1.6668730937006831e7 0.0
1.6668730937006831e7 2.68887892000914e7 0.0
0.0 0.0 0.0

454753.2032312155 1.6479651157626148e7 0.0
1.6479651157626148e7 -3.1912268608319543e7 0.0
0.0 0.0 0.0

-3.0852592527748193e6 1.3631356438284395e7 0.0
1.3631356438284395e7 -906940.3901615735 0.0
0.0 0.0 0.0

-447777.91983852466 2.3541716696291175e7 0.0
2.3541716696291175e7 -7.2407144035082385e6 0.0
0.0 0.0 0.0

1.900657286779898e7 2.6163226381810118e7 0.0
2.6163226381810118e7 5.973001490683918e6 0.0
0.0 0.0 0.0

1.2237143206909215e6 2.3274959670479745e7 0.0
2.3274959670479745e7 -1.970556992911519e7 0.0
0.0 0.0 0.0

469752.1745584863 1.0665372979708262e7 0.0
1.0665372979708262e7 -6.787465361191975e6 0.0
0.0 0.0 0.0

245281.59954332374 1.778776837975767e7 0.0
1.778776837975767e7 -3.0196739747469395e7 0.0
0.0 0.0 0.0

-7.451330198352704e6 -34543.828443000224 0.0
-34543.828443000224 4.209046366032458e7 0.0
0.0 0.0 0.0

-3.023433331060935e6 2.5500242058058307e7 0.0
2.5500242058058307e7 1.910136531946369e7 0.0
0.0 0.0 0.0

-7.6369466830702275e6 1.7411948101583917e7 0.0
1.7411948101583917e7 3.064990530733324e7 0.0
0.0 0.0 0.0

-2.247476554746767e7 3.048418661537322e7 0.0
3.048418661537322e7 -1.1265571493274339e7 0.0
0.0 0.0 0.0

-7.831780178315762e6 1.9719227680549666e7 0.0
1.9719227680549666e7 -5.487251701331747e7 0.0
0.0 0.0 0.0

-3.3063422481467472e6 3.0513615304304477e7 0.0
3.0513615304304477e7 9.741463688423026e6 0.0
0.0 0.0 0.0

-5.32675945510816e6 3.1857726905626755e7 0.0
3.1857726905626755e7 9.022108151614541e6 0.0
0.0 0.0 0.0

3.909812338966856e6 2.774469205903783e7 0.0
2.774469205903783e7 -1.1724308912106011e7 0.0
0.0 0.0 0.0

-5.45733801828018e6 1.786783263303524e7 0.0
1.786783263303524e7 -5.658712749317123e7 0.0
0.0 0.0 0.0

-1.5234073138076952e6 2.372804716648423e7 0.0
2.372804716648423e7 2.31351126471543e7 0.0
0.0 0.0 0.0

-6.07478103880975e6 7.6393079908123305e6 0.0
7.6393079908123305e6 5.644187749892712e7 0.0
0.0 0.0 0.0

2.1715509006138816e6 2.629921104532644e6 0.0
2.629921104532644e6 -7.78473874596481e6 0.0
0.0 0.0 0.0

-2.194945464583912e6 2.1015057396421846e7 0.0
2.1015057396421846e7 -2.801322820093238e7 0.0
0.0 0.0 0.0

4.036692096924134e6 2.9193669732065886e7 0.0
2.9193669732065886e7 -1.0550811590841157e7 0.0
0.0 0.0 0.0

-1.218543143132064e6 2.4183308462115627e7 0.0
2.4183308462115627e7 -1.7541777737738644e6 0.0
0.0 0.0 0.0

-681322.1627902831 1.902059092681009e7 0.0
1.902059092681009e7 -1.3710562773560978e7 0.0
0.0 0.0 0.0

-1.1628602811540136e7 2.0702349828825444e7 0.0
2.0702349828825444e7 -4.461273727910891e7 0.0
0.0 0.0 0.0

-7.5267127923515495e6 1.5813016437678613e7 0.0
1.5813016437678613e7 3.678519294902479e7 0.0
0.0 0.0 0.0

1.3121068929021424e6 3.78225261983836e7 0.0
3.78225261983836e7 -799394.3573939223 0.0
0.0 0.0 0.0

-3.1795660212074786e7 3.1338905548851993e7 0.0
3.1338905548851993e7 -6.6343487915117955e6 0.0
0.0 0.0 0.0

6.76986524013639e6 2.5769022915770132e7 0.0
2.5769022915770132e7 4.126583860154911e6 0.0
0.0 0.0 0.0

1.2608493395582475e6 8.857881409545446e6 0.0
8.857881409545446e6 -1.713448980553248e7 0.0
0.0 0.0 0.0

-1.4057824933890575e6 2.3637577461786352e7 0.0
2.3637577461786352e7 -520669.6161328224 0.0
0.0 0.0 0.0

-6.993065453892576e6 1.3013347658666031e7 0.0
1.3013347658666031e7 4.446653820901438e7 0.0
0.0 0.0 0.0

-7.053385777876125e6 3.649045956323829e7 0.0
3.649045956323829e7 6.161330536900909e6 0.0
0.0 0.0 0.0

-2.108470618091204e6 2.374162461776636e7 0.0
2.374162461776636e7 2.376595898412936e7 0.0
0.0 0.0 0.0

-1.553720082057627e6 3.503920659299198e7 0.0
3.503920659299198e7 16198.876338240225 0.0
0.0 0.0 0.0

584947.4760992741 2.017573639179591e7 0.0
2.017573639179591e7 -2.160141992827704e7 0.0
0.0 0.0 0.0

-6.246861816978896e6 1.5013937354534421e7 0.0
1.5013937354534421e7 4.4459656699730605e7 0.0
0.0 0.0 0.0

29624.258620353416 2.12881951517776e7 0.0
2.12881951517776e7 -2.4492479143480513e7 0.0
0.0 0.0 0.0

-9.307241052749762e6 2.626752091765709e7 0.0
2.626752091765709e7 -5.599870817527896e6 0.0
0.0 0.0 0.0

1.2635497666597283e6 3.860085090063428e7 0.0
3.860085090063428e7 -964219.9370128601 0.0
0.0 0.0 0.0

2.354395370431572e6 5.099392206833112e6 0.0
5.099392206833112e6 -2.557336739313839e7 0.0
0.0 0.0 0.0

3.640179206824961e6 2.711361339600471e7 0.0
2.711361339600471e7 -1.0074304319974877e7 0.0
0.0 0.0 0.0

-2.8840146679672534e6 3.0456986982222732e7 0.0
3.0456986982222732e7 8.870647918845192e6 0.0
0.0 0.0 0.0

-8.037092698409505e6 1.5699849613189792e7 0.0
1.5699849613189792e7 2.8363972757697925e7 0.0
0.0 0.0 0.0

-8.113353353503345e6 2.783055165127933e7 0.0
2.783055165127933e7 -1.3339099883568041e7 0.0
0.0 0.0 0.0

-6.55596063286514e6 1.7782454880796596e7 0.0
1.7782454880796596e7 3.5521158447879605e7 0.0
0.0 0.0 0.0

-3.3006267132516485e6 7.391665591456537e6 0.0
7.391665591456537e6 5.69141366193688e6 0.0
0.0 0.0 0.0

-2.5674693257643054e6 2.951556717900087e7 0.0
2.951556717900087e7 9.145747988142217e6 0.0
0.0 0.0 0.0

-8.91982488599267e6 1.4485064307393523e7 0.0
1.4485064307393523e7 3.272807450912997e7 0.0
0.0 0.0 0.0

-3.2136061513581136e6 2.4248254640565794e7 0.0
2.4248254640565794e7 1.5532192487478271e7 0.0
0.0 0.0 0.0

7.576762152404095e6 2.14548109468765e7 0.0
2.14548109468765e7 4.45753268976793e7 0.0
0.0 0.0 0.0

-4.1128555417730957e6 1.7799145506062493e7 0.0
1.7799145506062493e7 -4.945577780003087e7 0.0
0.0 0.0 0.0

-8.030090283551799e6 -4.03510039392927e6 0.0
-4.03510039392927e6 2.193057134112427e7 0.0
0.0 0.0 0.0

1.344566524364252e7 3.346313400320063e7 0.0
3.346313400320063e7 -5.485976531553351e6 0.0
0.0 0.0 0.0

-7.716123038600957e6 1.3788340844798053e7 0.0
1.3788340844798053e7 3.855885571189079e7 0.0
0.0 0.0 0.0

83497.98529252596 1.6153835739406953e7 0.0
1.6153835739406953e7 -1.7349230265504133e7 0.0
0.0 0.0 0.0

-1.4310163171985727e6 2.40579743661891e7 0.0
2.40579743661891e7 2.0072034762721304e7 0.0
0.0 0.0 0.0

-528292.156954204 2.228259323499992e7 0.0
2.228259323499992e7 -7.667807348370532e6 0.0
0.0 0.0 0.0

-3.4026465286426703e6 2.4832378548034936e7 0.0
2.4832378548034936e7 2.100084870143116e7 0.0
0.0 0.0 0.0

-375931.2544131777 1.3321911277311789e7 0.0
1.3321911277311789e7 -8.940320659078043e6 0.0
0.0 0.0 0.0

-7.195329595688501e6 2.8941443483605083e7 0.0
2.8941443483605083e7 7.796663747364201e6 0.0
0.0 0.0 0.0

-3.1874116366289826e6 2.4488627404467046e7 0.0
2.4488627404467046e7 1.6487827699650759e7 0.0
0.0 0.0 0.0

3.022137433930086e6 2.679293572959311e7 0.0
2.679293572959311e7 -1.1910094268770989e7 0.0
0.0 0.0 0.0

-3.412025606408962e6 3.0848606927206527e7 0.0
3.0848606927206527e7 7.062077194462119e6 0.0
0.0 0.0 0.0

-438431.4441607778 3.889786355241288e7 0.0
3.889786355241288e7 1.0269095955951429e6 0.0
0.0 0.0 0.0

-3.4329105188722033e6 1.78829707431818e7 0.0
1.78829707431818e7 -4.272563165235846e7 0.0
0.0 0.0 0.0

565314.2742763885 2.4282999559445297e6 0.0
2.4282999559445297e6 -341886.5497984404 0.0
0.0 0.0 0.0

-9.83695692936191e6 1.7328148313778674e6 0.0
1.7328148313778674e6 1.484929261729613e7 0.0
0.0 0.0 0.0

629155.5781085081 4.401489588930125e6 0.0
4.401489588930125e6 -7.442546192521329e7 0.0
0.0 0.0 0.0

1.3519462567154896e6 2.9020923964850735e7 0.0
2.9020923964850735e7 -7.850665055067828e6 0.0
0.0 0.0 0.0

-2.565517398399776e6 2.3638015771925937e7 0.0
2.3638015771925937e7 2.429527837355246e7 0.0
0.0 0.0 0.0

-8.521979879907453e6 1.6148178154615542e7 0.0
1.6148178154615542e7 2.896110358701818e7 0.0
0.0 0.0 0.0

-2.4943796355010504e6 4.7847775785285e7 0.0
4.7847775785285e7 2.6729564866406205e6 0.0
0.0 0.0 0.0

-8.417935281491939e6 1.2080135348749353e7 0.0
1.2080135348749353e7 3.978384643154463e7 0.0
0.0 0.0 0.0

5.671099993201379e7 8.688023856777656e7 0.0
8.688023856777656e7 -3.4811931036179923e6 0.0
0.0 0.0 0.0

1.50317583261549e6 2.59389381360067e7 0.0
2.59389381360067e7 -1.4535226537463935e7 0.0
0.0 0.0 0.0

1.3006643350559361e6 1.8392497085095696e7 0.0
1.8392497085095696e7 -2.4315904014509667e7 0.0
0.0 0.0 0.0

-2.696142579818396e6 2.4917498992729582e7 0.0
2.4917498992729582e7 2.004482475954104e7 0.0
0.0 0.0 0.0

-7.282867601358922e6 1.44225278228405e7 0.0
1.44225278228405e7 4.157868955274178e7 0.0
0.0 0.0 0.0

2.151352512205678e6 2.827445476581202e7 0.0
2.827445476581202e7 -1.0486128832080105e7 0.0
0.0 0.0 0.0

1.74237096446401e6 2.357345877650015e7 0.0
2.357345877650015e7 5.688371552990938e6 0.0
0.0 0.0 0.0

1.5543970098666735e6 2.3182747846624567e6 0.0
2.3182747846624567e6 -4.712928744073471e7 0.0
0.0 0.0 0.0

-8.766860336090302e6 1.1754798607115304e7 0.0
1.1754798607115304e7 2.081923889989783e7 0.0
0.0 0.0 0.0

-4.347018021337825e6 5.189897065490368e7 0.0
5.189897065490368e7 4.292545739071312e6 0.0
0.0 0.0 0.0

-2.754823796650037e6 2.3292685549580056e7 0.0
2.3292685549580056e7 2.646594176115469e7 0.0
0.0 0.0 0.0

-2.840130128104874e6 2.178899009881435e7 0.0
2.178899009881435e7 -2.312417886967137e7 0.0
0.0 0.0 0.0

1.0914402297813663e7 2.5382505624450535e7 0.0
2.5382505624450535e7 1.0236378047520809e7 0.0
0.0 0.0 0.0

-1.033136876117074e7 7.057588605141607e6 0.0
7.057588605141607e6 2.112299000931848e7 0.0
0.0 0.0 0.0

-5.290823531013091e6 1.427827159154177e7 0.0
1.427827159154177e7 9.437031740032572e6 0.0
0.0 0.0 0.0

-2.964487955066774e6 2.187247025034034e7 0.0
2.187247025034034e7 -1.7594736614351984e7 0.0
0.0 0.0 0.0

383690.79752189387 2.0373931677231435e7 0.0
2.0373931677231435e7 -1.3504052499120083e7 0.0
0.0 0.0 0.0

-4.436612011920556e6 2.2552087942914903e7 0.0
2.2552087942914903e7 2.180450787655052e7 0.0
0.0 0.0 0.0

-2.8082420556410607e6 2.0624475231784448e7 0.0
2.0624475231784448e7 -3.0264522186492927e7 0.0
0.0 0.0 0.0

997963.9441158976 1.5498831634734908e7 0.0
1.5498831634734908e7 -3.3448318801288527e7 0.0
0.0 0.0 0.0

-3.7627781495054574e6 3.049192206072666e7 0.0
3.049192206072666e7 1.0409678922801007e7 0.0
0.0 0.0 0.0

663193.7599885613 2.088260217148356e7 0.0
2.088260217148356e7 -2.4734104151703436e7 0.0
0.0 0.0 0.0

-7.401461873768514e6 1.6562113454750815e7 0.0
1.6562113454750815e7 3.245628113355147e7 0.0
0.0 0.0 0.0

3.023424348749102e6 5.615892152763204e6 0.0
5.615892152763204e6 -1.796795348599688e7 0.0
0.0 0.0 0.0

-4.346728046308382e7 3.881416113159905e7 0.0
3.881416113159905e7 -1.8614228697986603e7 0.0
0.0 0.0 0.0

994685.301727932 8.220519716491552e6 0.0
8.220519716491552e6 -1.3226760334429877e7 0.0
0.0 0.0 0.0

3.2533125578787634e6 2.350406665197031e6 0.0
2.350406665197031e6 -1.7630741599206965e7 0.0
0.0 0.0 0.0

-5.75784716863157e6 3.159777965978151e7 0.0
3.159777965978151e7 9.477108766175725e6 0.0
0.0 0.0 0.0

2.807650983444972e6 2.2207691534530994e7 0.0
2.2207691534530994e7 9.358837144565728e6 0.0
0.0 0.0 0.0

7.201703637873169e6 2.6548239356063016e7 0.0
2.6548239356063016e7 -1.2034400237855003e6 0.0
0.0 0.0 0.0

-2.049382224253554e6 2.0937330317086168e7 0.0
2.0937330317086168e7 3.633263785180805e7 0.0
0.0 0.0 0.0

783307.9278856423 2.120791761353575e7 0.0
2.120791761353575e7 4.050419238926907e7 0.0
0.0 0.0 0.0

1.6526439659616701e7 2.108933528976421e7 0.0
2.108933528976421e7 7.34567005743699e7 0.0
0.0 0.0 0.0

96055.0867809346 2.2263267362322647e7 0.0
2.2263267362322647e7 -4.949538991877167e6 0.0
0.0 0.0 0.0

-2.9236678930605827e6 2.4779597900585223e7 0.0
2.4779597900585223e7 2.0903570070138045e7 0.0
0.0 0.0 0.0

-3.8156164548719535e6 2.1397380930365566e7 0.0
2.1397380930365566e7 1.6042560890774429e7 0.0
0.0 0.0 0.0

-3.417318880089914e6 2.16793846389633e7 0.0
2.16793846389633e7 -2.1360830386193957e7 0.0
0.0 0.0 0.0

-3.831410882030875e6 3.103561442344645e7 0.0
3.103561442344645e7 7.935029926336058e6 0.0
0.0 0.0 0.0

-7.798004203921508e6 1.4542832524151513e7 0.0
1.4542832524151513e7 3.8626696402221404e7 0.0
0.0 0.0 0.0

1.909534121544545e7 3.143212392364062e7 0.0
3.143212392364062e7 -3.137709650042069e6 0.0
0.0 0.0 0.0

1.9595967924920935e6 2.6581408580457907e7 0.0
2.6581408580457907e7 -1.310194318352484e7 0.0
0.0 0.0 0.0

1.6803032640731111e6 7.64921887367886e6 0.0
7.64921887367886e6 -3.038061229101832e7 0.0
0.0 0.0 0.0

7.768412925876034e6 2.8918842877341744e7 0.0
2.8918842877341744e7 -7.423982023695798e6 0.0
0.0 0.0 0.0

323705.0295105143 3.3518142649934873e7 0.0
3.3518142649934873e7 -1.2966575215140644e6 0.0
0.0 0.0 0.0

-1.030921430787476e7 2.2237838007380173e7 0.0
2.2237838007380173e7 -3.4364056367472306e7 0.0
0.0 0.0 0.0

1.1450829450431464e7 2.3378328643177055e7 0.0
2.3378328643177055e7 3.816944150494964e7 0.0
0.0 0.0 0.0

-6.449311809240483e6 1.1861743244573555e6 0.0
1.1861743244573555e6 5.459581988232325e7 0.0
0.0 0.0 0.0

2.8250275417512483e6 2.5458996441842552e7 0.0
2.5458996441842552e7 8.720940079328964e6 0.0
0.0 0.0 0.0

-7.179223378879778e6 264562.2358689261 0.0
264562.2358689261 4.483058290660664e7 0.0
0.0 0.0 0.0

2.187352344136975e6 3.432873033680186e7 0.0
3.432873033680186e7 -3.5940522392973304e6 0.0
0.0 0.0 0.0

7.281101731718516e6 3.2230589051591236e7 0.0
3.2230589051591236e7 -7.500173703832108e6 0.0
0.0 0.0 0.0

-3.471716069771805e6 4.9604740805449136e7 0.0
4.9604740805449136e7 2.9166315608235374e6 0.0
0.0 0.0 0.0

1.2787007068956517e7 2.2589866882491697e7 0.0
2.2589866882491697e7 9.341963791421e6 0.0
0.0 0.0 0.0

-7.408299825310256e6 1.339809167921437e7 0.0
1.339809167921437e7 4.141798323162148e7 0.0
0.0 0.0 0.0

1.773128678678971e6 3.505090344188288e7 0.0
3.505090344188288e7 -2.5354024965175474e6 0.0
0.0 0.0 0.0

-3.140453373206537e6 2.5417502969009455e7 0.0
2.5417502969009455e7 1.4685692225436715e7 0.0
0.0 0.0 0.0

-3.085820152230211e6 2.911748717800758e7 0.0
2.911748717800758e7 8.532571484586881e6 0.0
0.0 0.0 0.0

564255.3547044918 1.0295130057619296e7 0.0
1.0295130057619296e7 -5.3373056391727954e7 0.0
0.0 0.0 0.0

-4.21020309067449e6 3.029508044971089e7 0.0
3.029508044971089e7 1.115892546297878e7 0.0
0.0 0.0 0.0

2.115120634618364e7 1.924700602381227e7 0.0
1.924700602381227e7 5.271806844119066e6 0.0
0.0 0.0 0.0

1.3167362452697773e6 1.624350583757714e7 0.0
1.624350583757714e7 -2.9360467276621595e7 0.0
0.0 0.0 0.0

-4.476614699047398e6 4.040062873724816e6 0.0
4.040062873724816e6 7.624658875771692e7 0.0
0.0 0.0 0.0

-498352.56001195696 3.633246742342131e7 0.0
3.633246742342131e7 803596.2835654961 0.0
0.0 0.0 0.0

5.025468066626948e6 2.5775940444003936e7 0.0
2.5775940444003936e7 8.695776190189794e6 0.0
0.0 0.0 0.0

-1.1213853911196516e8 1.0573888662246066e8 0.0
1.0573888662246066e8 -1.0109315855448976e7 0.0
0.0 0.0 0.0

2.4616586382222474e6 4.0112772659559995e6 0.0
4.0112772659559995e6 -2.4428961624813158e7 0.0
0.0 0.0 0.0

-1.3013608761432788e6 2.4885370741372027e7 0.0
2.4885370741372027e7 -333667.5365975244 0.0
0.0 0.0 0.0

-2.03658950337977e7 3.2586310895905886e7 0.0
3.2586310895905886e7 2.608634233465651e6 0.0
0.0 0.0 0.0

-302785.3280041432 2.4255114509027045e7 0.0
2.4255114509027045e7 -1.725710924031791e7 0.0
0.0 0.0 0.0

1.6727225577607658e6 2.582979590100861e7 0.0
2.582979590100861e7 -1.509217380697199e7 0.0
0.0 0.0 0.0

1.5497389236672284e7 2.7283258247684795e7 0.0
2.7283258247684795e7 2.8237878581248783e6 0.0
0.0 0.0 0.0

-3.8781707696233965e6 4.158376105131153e7 0.0
4.158376105131153e7 3.3448841653899513e6 0.0
0.0 0.0 0.0

-5.215009069631668e6 2.5252150862392336e7 0.0
2.5252150862392336e7 -1.5750585346241223e7 0.0
0.0 0.0 0.0

1.4518174842688255e6 5.574111173377905e6 0.0
5.574111173377905e6 -5.701778209677878e7 0.0
0.0 0.0 0.0

-4.047592150655091e7 3.517366758640655e7 0.0
3.517366758640655e7 -1.2133823167255554e7 0.0
0.0 0.0 0.0

-2.3470000649621673e6 2.4608204357101433e7 0.0
2.4608204357101433e7 1.6090035579612752e7 0.0
0.0 0.0 0.0

6.750529165154107e6 3.100824931749557e7 0.0
3.100824931749557e7 -8.086443552704785e6 0.0
0.0 0.0 0.0

3.518904121830959e6 2.0663656598356705e7 0.0
2.0663656598356705e7 5.261791177349191e7 0.0
0.0 0.0 0.0

2.024556756322476e7 2.9716867682287406e7 0.0
2.9716867682287406e7 -1.333250331373279e6 0.0
0.0 0.0 0.0

-3.8963141028931076e6 2.804221389445225e7 0.0
2.804221389445225e7 1.4342410590773715e7 0.0
0.0 0.0 0.0

-252039.7196008889 2.133414823571456e7 0.0
2.133414823571456e7 -1.5076192882483995e7 0.0
0.0 0.0 0.0

1.1319813817943111e7 1.3024954606392667e7 0.0
1.3024954606392667e7 4.331758876361843e6 0.0
0.0 0.0 0.0

4.603498674560629e6 2.718054652974218e7 0.0
2.718054652974218e7 -8.123578249954605e6 0.0
0.0 0.0 0.0

-2.670224192080522e6 2.2278502970514104e7 0.0
2.2278502970514104e7 3.0297892657220222e7 0.0
0.0 0.0 0.0

-2.9197269698859043e6 7.826520291018909e6 0.0
7.826520291018909e6 7.96892995268774e7 0.0
0.0 0.0 0.0

-4.1357545522344336e6 1.8720204195543868e6 0.0
1.8720204195543868e6 8.334442045342019e7 0.0
0.0 0.0 0.0

-87699.29836888332 2.3860268142050643e7 0.0
2.3860268142050643e7 -1.3355523660030516e7 0.0
0.0 0.0 0.0

1.3788041149056116e6 2.541367547389437e7 0.0
2.541367547389437e7 -1.432647992973254e7 0.0
0.0 0.0 0.0

1.8538445774784135e6 2.57570766526214e7 0.0
2.57570766526214e7 -1.5185015208983928e7 0.0
0.0 0.0 0.0

-1.7013230072656594e7 2.848472801575281e7 0.0
2.848472801575281e7 -5.111143463148829e6 0.0
0.0 0.0 0.0

2.760760388202618e7 2.675763021825497e7 0.0
2.675763021825497e7 1.5361499493987542e7 0.0
0.0 0.0 0.0

-3.48858735210301e6 2.354288419473058e7 0.0
2.354288419473058e7 2.480870250444983e7 0.0
0.0 0.0 0.0

2.0909503893622104e6 2.566774149189611e7 0.0
2.566774149189611e7 -1.5049064246884841e7 0.0
0.0 0.0 0.0

-730357.2311092787 2.0268542816575445e7 0.0
2.0268542816575445e7 -1.3213022547486648e7 0.0
0.0 0.0 0.0

-8.545700152731303e6 -491962.50607741036 0.0
-491962.50607741036 3.0403426256178144e7 0.0
0.0 0.0 0.0

-1.295959027136393e6 1.6455365406242711e7 0.0
1.6455365406242711e7 -4.085137297993723e7 0.0
0.0 0.0 0.0

-8.154000843814593e6 2.8780951089481893e6 0.0
2.8780951089481893e6 4.3025543541972145e7 0.0
0.0 0.0 0.0

-7.599741782816032e6 -2.308952958480033e6 0.0
-2.308952958480033e6 3.416979483904069e7 0.0
0.0 0.0 0.0

-7.675621679265061e6 -2.534110056540353e6 0.0
-2.534110056540353e6 3.3156048508164518e7 0.0
0.0 0.0 0.0

-4.289223207407667e6 1.401186173419529e7 0.0
1.401186173419529e7 1.2942164011501145e7 0.0
0.0 0.0 0.0

635131.7873794334 1.9406106444241364e7 0.0
1.9406106444241364e7 -2.3192292851856973e7 0.0
0.0 0.0 0.0

-643962.8364122938 1.6314231565649914e7 0.0
1.6314231565649914e7 -4.062483747324033e7 0.0
0.0 0.0 0.0

-2.0617736763198986e6 2.3868095378860064e7 0.0
2.3868095378860064e7 -6.631191514346994e6 0.0
0.0 0.0 0.0

4.761491304443354e6 2.732570696653978e7 0.0
2.732570696653978e7 -1.001351998993665e7 0.0
0.0 0.0 0.0

7.740021665560285e6 2.628311516889226e7 0.0
2.628311516889226e7 1.8473973495621139e6 0.0
0.0 0.0 0.0

962453.5237611227 3.161503283493088e7 0.0
3.161503283493088e7 -4.384926547619994e6 0.0
0.0 0.0 0.0

7.60070220952782e7 3.399957180696206e7 0.0
3.399957180696206e7 1.1597777144781163e7 0.0
0.0 0.0 0.0

1.212398082350992e7 1.7740545369083773e7 0.0
1.7740545369083773e7 1.095076444864696e7 0.0
0.0 0.0 0.0

6.374618991727153e6 2.6880660148152314e7 0.0
2.6880660148152314e7 -3.7954609381107553e6 0.0
0.0 0.0 0.0

8.246757094014498e6 3.2512575978069622e7 0.0
3.2512575978069622e7 -7.058774842972994e6 0.0
0.0 0.0 0.0

752816.5343049642 3.617787670446258e7 0.0
3.617787670446258e7 -807036.1565236406 0.0
0.0 0.0 0.0

658168.4814207535 2.1975358535400886e7 0.0
2.1975358535400886e7 -2.304994563471468e7 0.0
0.0 0.0 0.0

-2.3042031226658847e7 3.1535398299979005e7 0.0
3.1535398299979005e7 -541819.652932846 0.0
0.0 0.0 0.0

-6.833067949776061e6 3.2241717066021703e7 0.0
3.2241717066021703e7 8.830405964460615e6 0.0
0.0 0.0 0.0

2.8016829164664727e6 1.6569819572235863e6 0.0
1.6569819572235863e6 -2.798776589364315e7 0.0
0.0 0.0 0.0

-200377.91666711925 3.3310108930206403e7 0.0
3.3310108930206403e7 -2.9019111392407394e6 0.0
0.0 0.0 0.0

-7.038420969178017e6 5.394184925055655e7 0.0
5.394184925055655e7 4.675473486004661e6 0.0
0.0 0.0 0.0

-3.2903769691996234e6 1.8912612809943482e7 0.0
1.8912612809943482e7 -9.286349589368591e6 0.0
0.0 0.0 0.0

1.0557817993249986e6 1.6240597411199434e7 0.0
1.6240597411199434e7 -3.1535109329304934e7 0.0
0.0 0.0 0.0

-37450.555540842935 1.5844639315702008e7 0.0
1.5844639315702008e7 -3.834548526962323e7 0.0
0.0 0.0 0.0

-1.5694489072747193e6 1.7459358197611712e7 0.0
1.7459358197611712e7 -4.06300042927218e7 0.0
0.0 0.0 0.0

1.738201174788248e7 4.7501284592351295e7 0.0
4.7501284592351295e7 -4.94840829773832e6 0.0
0.0 0.0 0.0

2.13365600572976e6 2.544786976004259e7 0.0
2.544786976004259e7 -1.483849443707777e7 0.0
0.0 0.0 0.0

9.045327909293476e6 2.218812800333647e7 0.0
2.218812800333647e7 4.558959433403708e7 0.0
0.0 0.0 0.0

-2.9268557047208436e7 2.554147053830602e7 0.0
2.554147053830602e7 1.4318974191473816e6 0.0
0.0 0.0 0.0

-8.070863993550071e7 4.294962639661719e7 0.0
4.294962639661719e7 -1.1022826158284927e7 0.0
0.0 0.0 0.0

666263.6101776101 7.24172814686543e6 0.0
7.24172814686543e6 -7.235138194330032e7 0.0
0.0 0.0 0.0

5.246461997752699e6 2.7163913935738873e7 0.0
2.7163913935738873e7 -6.1269073428994585e6 0.0
0.0 0.0 0.0

7.377155173032107e6 3.0007020893943124e7 0.0
3.0007020893943124e7 -7.85167220600941e6 0.0
0.0 0.0 0.0

2.837052438627694e6 1.7857740281208523e6 0.0
1.7857740281208523e6 -2.6317898243889913e7 0.0
0.0 0.0 0.0

-2.2659532537161343e7 2.9575858095479988e7 0.0
2.9575858095479988e7 -8.234851902484974e6 0.0
0.0 0.0 0.0

1.0800562779676141e6 2.23888242388479e7 0.0
2.23888242388479e7 2.8258395476002667e7 0.0
0.0 0.0 0.0

1.202611258004613e7 2.1728750909764193e7 0.0
2.1728750909764193e7 1.5376657117292441e7 0.0
0.0 0.0 0.0

-7.842877267937332e6 -2.621988461231329e6 0.0
-2.621988461231329e6 2.870479533513449e7 0.0
0.0 0.0 0.0

241859.18357811868 1.962255669890101e7 0.0
1.962255669890101e7 -2.839901842262505e7 0.0
0.0 0.0 0.0

1.3067535255750678e6 1.1824021035820277e7 0.0
1.1824021035820277e7 -2.73697750065932e7 0.0
0.0 0.0 0.0

278424.6113425952 1.0143828857942201e7 0.0
1.0143828857942201e7 -5.266921598877716e6 0.0
0.0 0.0 0.0

-8.735079551787e6 -2.4088469370943923e6 0.0
-2.4088469370943923e6 2.547665007916475e7 0.0
0.0 0.0 0.0

9.479533335757896e6 2.190473905427338e7 0.0
2.190473905427338e7 1.0135323814073002e8 0.0
0.0 0.0 0.0

-6.675480220629536e6 6.712027679797353e6 0.0
6.712027679797353e6 5.4974812399635725e7 0.0
0.0 0.0 0.0

5.611290355608689e6 3.775209773475592e7 0.0
3.775209773475592e7 -3.933955611088302e6 0.0
0.0 0.0 0.0

-1.4489508506314903e6 2.4310513859106716e7 0.0
2.4310513859106716e7 905852.572206735 0.0
0.0 0.0 0.0

-3.375512330911562e6 2.151287464839767e7 0.0
2.151287464839767e7 -1.5714573932480406e7 0.0
0.0 0.0 0.0

4.595738088829e6 2.9685118969492756e7 0.0
2.9685118969492756e7 -9.727634888583358e6 0.0
0.0 0.0 0.0

-4.206258689424766e6 3.111751946020466e7 0.0
3.111751946020466e7 8.772726576544868e6 0.0
0.0 0.0 0.0

1.0809407856989613e7 5.5890048410982296e7 0.0
5.5890048410982296e7 -824315.9526079767 0.0
0.0 0.0 0.0

2.6539498307246156e6 4.386134516358442e6 0.0
4.386134516358442e6 -1.358059662263323e7 0.0
0.0 0.0 0.0

-8.713470561299711e6 -441410.14654486167 0.0
-441410.14654486167 3.095640450652089e7 0.0
0.0 0.0 0.0

-112340.81107156002 2.2743549597669873e7 0.0
2.2743549597669873e7 3.06264667119684e6 0.0
0.0 0.0 0.0

-1.120407548404414e7 3.3003597353684343e7 0.0
3.3003597353684343e7 6.811966921091725e6 0.0
0.0 0.0 0.0

609974.8170967866 2.2058271242756367e7 0.0
2.2058271242756367e7 3.1900035751061797e7 0.0
0.0 0.0 0.0

-7.766953196074553e6 1.5501689455502067e7 0.0
1.5501689455502067e7 3.408557029027755e7 0.0
0.0 0.0 0.0

839346.3489276022 1.7666967954599902e7 0.0
1.7666967954599902e7 -3.002197591103682e7 0.0
0.0 0.0 0.0

-2.1611141017072707e8 3.62241914486513e7 0.0
3.62241914486513e7 -1.8226345609862156e7 0.0
0.0 0.0 0.0

-8.087424271126075e6 1.4231457658688823e7 0.0
1.4231457658688823e7 3.590467502994087e7 0.0
0.0 0.0 0.0

-9.46713773883981e6 3.2974764404445972e7 0.0
3.2974764404445972e7 7.501721592918972e6 0.0
0.0 0.0 0.0

406802.2925890004 2.1389605769233316e7 0.0
2.1389605769233316e7 -2.4680110683633786e7 0.0
0.0 0.0 0.0

-2.827892249831438e6 1.8329694090054415e7 0.0
1.8329694090054415e7 -3.9807893727378786e7 0.0
0.0 0.0 0.0

8.360926579436233e6 5.265007817027778e7 0.0
5.265007817027778e7 -579164.8865615549 0.0
0.0 0.0 0.0

-3.177593776839262e6 1.9410973329965323e7 0.0
1.9410973329965323e7 -3.617662867097144e7 0.0
0.0 0.0 0.0

2.0355707860428514e6 2.520373374561323e7 0.0
2.520373374561323e7 -1.4306066844372284e7 0.0
0.0 0.0 0.0

1.2341913887504584e6 2.3223273081205986e7 0.0
2.3223273081205986e7 6.051524689509384e6 0.0
0.0 0.0 0.0

3.2936534754136116e6 4.264449704885807e7 0.0
4.264449704885807e7 -687713.2197618885 0.0
0.0 0.0 0.0

-1.3227029961294295e7 3.2760402428967286e7 0.0
3.2760402428967286e7 5.765136460967511e6 0.0
0.0 0.0 0.0

634434.7790927384 1.901353600293813e7 0.0
1.901353600293813e7 -2.8287732410616893e7 0.0
0.0 0.0 0.0

1.5859959224335542e6 2.4952283251187954e7 0.0
2.4952283251187954e7 -1.5704058587501185e7 0.0
0.0 0.0 0.0

-2.436434405898574e6 3.1750386141840983e7 0.0
3.1750386141840983e7 2.7910406765507115e6 0.0
0.0 0.0 0.0

-8.01993783983544e6 3.2677512174014658e7 0.0
3.2677512174014658e7 8.160894200677558e6 0.0
0.0 0.0 0.0

-6.990030978115207e6 -1.7057440157574727e6 0.0
-1.7057440157574727e6 4.366614666051872e7 0.0
0.0 0.0 0.0

-3.818145050394728e6 2.2069995904959824e7 0.0
2.2069995904959824e7 2.400800739590614e7 0.0
0.0 0.0 0.0

-3.439499300244198e6 2.0251217974460203e7 0.0
2.0251217974460203e7 -3.266128483476044e7 0.0
0.0 0.0 0.0

2.7033940118001852e7 2.583427002841411e7 0.0
2.583427002841411e7 6.258478571203136e6 0.0
0.0 0.0 0.0

-330569.4693184644 2.0062125330284487e7 0.0
2.0062125330284487e7 -2.8470051227899384e7 0.0
0.0 0.0 0.0

-512205.0640584636 2.4105227367524046e7 0.0
2.4105227367524046e7 -3.1507793907493064e6 0.0
0.0 0.0 0.0

-7.382094339509195e6 1.1905172573138293e7 0.0
1.1905172573138293e7 4.3685777433312e7 0.0
0.0 0.0 0.0

-8.829723336084096e6 2.588452559260008e7 0.0
2.588452559260008e7 -1.6775009080005864e7 0.0
0.0 0.0 0.0

-2.1236380457974314e6 2.1701068350231744e7 0.0
2.1701068350231744e7 -8.183588897616569e6 0.0
0.0 0.0 0.0

120115.7558560418 2.4793549577552754e7 0.0
2.4793549577552754e7 -1.4545552687099213e7 0.0
0.0 0.0 0.0

-1.6350591448544497e7 5.941027878143289e7 0.0
5.941027878143289e7 7.472857811713446e6 0.0
0.0 0.0 0.0

-6.4026216215025544e7 2.0670233058695614e7 0.0
2.0670233058695614e7 2.6118298786001727e6 0.0
0.0 0.0 0.0

5.4070956995932385e6 3.899950894315581e7 0.0
3.899950894315581e7 -4.603174843447324e6 0.0
0.0 0.0 0.0

-1.0455074380515192e7 5.6497064418155275e7 0.0
5.6497064418155275e7 6.179827189300463e6 0.0
0.0 0.0 0.0

3.718601420635668e7 7.402747571986482e7 0.0
7.402747571986482e7 -1.498917369938571e6 0.0
0.0 0.0 0.0

-1.7226085141202807e6 1.784181813652595e7 0.0
1.784181813652595e7 -3.771737403823987e7 0.0
0.0 0.0 0.0

-1.1878105893079484e7 2.029428468660167e7 0.0
2.029428468660167e7 -4.344456740628072e7 0.0
0.0 0.0 0.0

-4.8203296901231855e6 2.9846270796752315e7 0.0
2.9846270796752315e7 1.1210893029208725e7 0.0
0.0 0.0 0.0

-8.138887670546394e6 1.4946150440655315e7 0.0
1.4946150440655315e7 3.605449969348555e7 0.0
0.0 0.0 0.0

-1.3682028081333926e7 2.8993317649772532e7 0.0
2.8993317649772532e7 2.7125842827091804e6 0.0
0.0 0.0 0.0

1.9688995146816245e6 2.3625317400637463e7 0.0
2.3625317400637463e7 1.0297679514937717e7 0.0
0.0 0.0 0.0

186571.06990024075 2.2348576276948996e7 0.0
2.2348576276948996e7 -1.149499360919948e7 0.0
0.0 0.0 0.0

1.3740581061782897e7 5.984379860004719e7 0.0
5.984379860004719e7 -1.2923232223195778e6 0.0
0.0 0.0 0.0

4.392868408690443e6 2.8617520899113517e7 0.0
2.8617520899113517e7 -1.0590442463775132e7 0.0
0.0 0.0 0.0

4.50868820884514e6 2.5010730524705388e7 0.0
2.5010730524705388e7 -3.456752730959545e6 0.0
0.0 0.0 0.0

1.737066204203479e6 1.217339637577749e6 0.0
1.217339637577749e6 -4.96806458937493e7 0.0
0.0 0.0 0.0

-4.648239135055276e6 3.105116733102873e7 0.0
3.105116733102873e7 9.509567814179039e6 0.0
0.0 0.0 0.0

-1.727927179046792e6 2.300242397868129e7 0.0
2.300242397868129e7 6.881877558067861e6 0.0
0.0 0.0 0.0

1.2616134372904683e6 1.4796321415137706e7 0.0
1.4796321415137706e7 -1.790004939193698e7 0.0
0.0 0.0 0.0

-2.6405750804879665e6 1.8537138756256595e7 0.0
1.8537138756256595e7 -4.015581995222519e7 0.0
0.0 0.0 0.0

-1.726618288752934e6 2.471406558567651e7 0.0
2.471406558567651e7 2.1873469568032607e7 0.0
0.0 0.0 0.0

-253922.233550895 2.1477081957352877e7 0.0
2.1477081957352877e7 3.533506470987314e7 0.0
0.0 0.0 0.0

-1.3023907099642488e6 2.144665987753234e7 0.0
2.144665987753234e7 -5.50652246917548e6 0.0
0.0 0.0 0.0

8.698183691698022e6 3.135822292942688e7 0.0
3.135822292942688e7 -6.947431503308913e6 0.0
0.0 0.0 0.0

-3.7696221440671925e6 2.9630046147117686e7 0.0
2.9630046147117686e7 1.1615290540393263e7 0.0
0.0 0.0 0.0

-4.828476593370311e6 4.308215138766186e6 0.0
4.308215138766186e6 6.828744058475801e7 0.0
0.0 0.0 0.0

-3.3637306068334156e6 1.5041329164270451e7 0.0
1.5041329164270451e7 1.062082762287591e7 0.0
0.0 0.0 0.0

-230095.6389019424 2.271191540500598e7 0.0
2.271191540500598e7 -7.538924115368076e6 0.0
0.0 0.0 0.0

-6.574618153634564e6 3.114429856434343e7 0.0
3.114429856434343e7 9.787348440071313e6 0.0
0.0 0.0 0.0

-2.732611882141047e6 2.513728230969418e7 0.0
2.513728230969418e7 1.791434576791453e7 0.0
0.0 0.0 0.0

1.7156006110127475e6 1.5020579842981393e7 0.0
1.5020579842981393e7 -2.571844876055965e7 0.0
0.0 0.0 0.0

-1.0971748420500862e6 3.504604058663633e7 0.0
3.504604058663633e7 1.537826345565522e6 0.0
0.0 0.0 0.0

4.210467742864275e6 4.498268471250094e7 0.0
4.498268471250094e7 -770788.8454974422 0.0
0.0 0.0 0.0

-1.75590428386924e6 2.717623747583522e7 0.0
2.717623747583522e7 7.11794663273542e6 0.0
0.0 0.0 0.0

1.1992351510096379e6 1.7668202475010112e7 0.0
1.7668202475010112e7 -2.7872285830681283e7 0.0
0.0 0.0 0.0

-321158.372431254 3.571358542934174e7 0.0
3.571358542934174e7 -1.535909762429235e6 0.0
0.0 0.0 0.0

5.51732806333672e6 3.072357507497428e7 0.0
3.072357507497428e7 -8.835449916355025e6 0.0
0.0 0.0 0.0

3.2409746856363993e6 2.1941798222857684e7 0.0
2.1941798222857684e7 3.935100892569066e7 0.0
0.0 0.0 0.0

-1.8161103422967019e6 2.6300354679831646e7 0.0
2.6300354679831646e7 8.625582774627786e6 0.0
0.0 0.0 0.0

-5.451697796936801e6 3.3774596866409294e7 0.0
3.3774596866409294e7 6.763976220674204e6 0.0
0.0 0.0 0.0

-6.524460626834761e6 2.0078237038363593e6 0.0
2.0078237038363593e6 5.4066955511600986e7 0.0
0.0 0.0 0.0

3.6258330406110263e6 4.371613695130406e7 0.0
4.371613695130406e7 -673899.4354398835 0.0
0.0 0.0 0.0

1.794617545374725e6 1.2658007851130597e6 0.0
1.2658007851130597e6 -4.8270362622092e7 0.0
0.0 0.0 0.0

1.1837347746435693e6 3.2927771480541743e7 0.0
3.2927771480541743e7 -5.474590577300967e6 0.0
0.0 0.0 0.0

-6.798174554230748e6 -44550.67325998839 0.0
-44550.67325998839 4.782994870496424e7 0.0
0.0 0.0 0.0

-2.203088939194712e6 2.1015181492273103e7 0.0
2.1015181492273103e7 -5.929167602396721e6 0.0
0.0 0.0 0.0

-1.2977978478513148e7 3.1046638004217148e7 0.0
3.1046638004217148e7 4.169159514856075e6 0.0
0.0 0.0 0.0

-3.2827013572710203e6 2.5267156249226723e7 0.0
2.5267156249226723e7 -4.847983270710882e6 0.0
0.0 0.0 0.0

-5.721239066677932e6 2.531524458314298e7 0.0
2.531524458314298e7 -7.765255967885036e6 0.0
0.0 0.0 0.0

-2.5719803218199937e6 2.2906086665672045e7 0.0
2.2906086665672045e7 -2.258743019174754e7 0.0
0.0 0.0 0.0

-6.830935890717106e6 1.6621845998003004e7 0.0
1.6621845998003004e7 3.742263755216816e7 0.0
0.0 0.0 0.0

2.9475583306418075e6 2.4157784062934697e7 0.0
2.4157784062934697e7 1.3177350893325021e7 0.0
0.0 0.0 0.0

2.0594771866351087e6 9.704850022345582e6 0.0
9.704850022345582e6 -3.451612441061664e7 0.0
0.0 0.0 0.0

5.607431119531558e6 2.243414590047212e7 0.0
2.243414590047212e7 3.779105656784524e7 0.0
0.0 0.0 0.0

-1.5002784464585481e7 2.197565872459275e7 0.0
2.197565872459275e7 -8.678316463319904e7 0.0
0.0 0.0 0.0

-2.5523694486971833e6 2.3756290705815498e7 0.0
2.3756290705815498e7 1.795063610089049e7 0.0
0.0 0.0 0.0

-1.5059238423092365e6 3.5891472053121716e7 0.0
3.5891472053121716e7 121954.601569905 0.0
0.0 0.0 0.0

-2.1924441969940243e6 2.654371007575981e7 0.0
2.654371007575981e7 2.7567374804021455e6 0.0
0.0 0.0 0.0

2.242865362862368e6 2.665183029217399e7 0.0
2.665183029217399e7 -1.3429995502129033e7 0.0
0.0 0.0 0.0

4.282153865488768e6 2.5735870987718534e7 0.0
2.5735870987718534e7 -7.91582577426655e6 0.0
0.0 0.0 0.0

-5.071826440069266e6 3.0900433159586694e7 0.0
3.0900433159586694e7 1.0151280527969267e7 0.0
0.0 0.0 0.0

-2.3719027391498834e6 2.4638651560043134e7 0.0
2.4638651560043134e7 2.242027620152624e7 0.0
0.0 0.0 0.0

-198824.385369692 2.1746831753019128e7 0.0
2.1746831753019128e7 3.5703218103766434e7 0.0
0.0 0.0 0.0

-6.199231232333049e6 2.212141765931297e7 0.0
2.212141765931297e7 -2.3175699135330647e7 0.0
0.0 0.0 0.0

643720.473311292 1.8671888012856107e7 0.0
1.8671888012856107e7 -2.476127063148179e7 0.0
0.0 0.0 0.0

-995414.5047614304 2.4692146495417327e7 0.0
2.4692146495417327e7 2.0996352914303582e7 0.0
0.0 0.0 0.0

-295524.10455853306 1.2064188459627775e7 0.0
1.2064188459627775e7 -4.935310336698598e7 0.0
0.0 0.0 0.0

-3.983932694661399e6 2.4022208061086234e7 0.0
2.4022208061086234e7 -1.5052659796002418e7 0.0
0.0 0.0 0.0

4.990672019181383e6 4.649374264052361e7 0.0
4.649374264052361e7 -639266.9189342279 0.0
0.0 0.0 0.0

4.75207951587472e6 2.1667637779449765e7 0.0
2.1667637779449765e7 3.239604392244622e7 0.0
0.0 0.0 0.0

2.9604333316271253e7 2.862953605511279e7 0.0
2.862953605511279e7 9.868106688011019e7 0.0
0.0 0.0 0.0

-3.026275122281013e7 2.748550821498275e7 0.0
2.748550821498275e7 -1.0087579412124552e8 0.0
0.0 0.0 0.0

-2.5034005962480013e6 2.30967190819574e7 0.0
2.30967190819574e7 4.279140723445245e6 0.0
0.0 0.0 0.0

-3.531729807398519e7 4.592356339047803e7 0.0
4.592356339047803e7 8.084293796303194e6 0.0
0.0 0.0 0.0

-327720.27836377244 3.0448084658398572e7 0.0
3.0448084658398572e7 -4.817363122570223e6 0.0
0.0 0.0 0.0

-842803.339054687 2.504912676503091e7 0.0
2.504912676503091e7 1.8018146290515423e7 0.0
0.0 0.0 0.0

4.360194266752358e6 2.162196645402069e7 0.0
2.162196645402069e7 3.6634974034233205e7 0.0
0.0 0.0 0.0

1.2264284596133977e7 2.3238543803649224e7 0.0
2.3238543803649224e7 6.380693268668952e7 0.0
0.0 0.0 0.0

1.1326538773455614e7 2.6129600762310527e7 0.0
2.6129600762310527e7 1.2927699407392027e7 0.0
0.0 0.0 0.0

1.0807387514413634e7 2.072078748865199e7 0.0
2.072078748865199e7 4.245634452274868e7 0.0
0.0 0.0 0.0

8.114114270053057e6 3.112329994966942e7 0.0
3.112329994966942e7 -7.314369632839015e6 0.0
0.0 0.0 0.0

3.0323750665617166e6 2.25044975791466e7 0.0
2.25044975791466e7 2.1968853138975143e7 0.0
0.0 0.0 0.0

-713279.3913901746 2.3681312276141398e7 0.0
2.3681312276141398e7 2.2306515030378405e7 0.0
0.0 0.0 0.0

7.029817179919856e6 4.0858705312243894e7 0.0
4.0858705312243894e7 -2.99882954548653e6 0.0
0.0 0.0 0.0

4.97542102129474e6 2.5360378259363446e7 0.0
2.5360378259363446e7 1.6523313707425797e7 0.0
0.0 0.0 0.0

2.3645124332985636e6 1.5266296599842333e6 0.0
1.5266296599842333e6 -3.69604292533444e7 0.0
0.0 0.0 0.0

-6.412738650493732e6 1.9304323846091673e7 0.0
1.9304323846091673e7 2.5664362501400568e7 0.0
0.0 0.0 0.0

-6.843939219865274e6 -1.6970098414009546e6 0.0
-1.6970098414009546e6 4.4869942722437546e7 0.0
0.0 0.0 0.0

-2.8391853592057023e6 2.3858129881575312e7 0.0
2.3858129881575312e7 2.4625447313502636e7 0.0
0.0 0.0 0.0

2.5144067354725897e6 3.687848408656604e7 0.0
3.687848408656604e7 -2.3293006521109845e6 0.0
0.0 0.0 0.0

8.00891231438718e6 2.435410418645411e7 0.0
2.435410418645411e7 2.2600896997337595e7 0.0
0.0 0.0 0.0

7.105767338921047e6 2.0778182235831268e7 0.0
2.0778182235831268e7 3.1160302871162873e7 0.0
0.0 0.0 0.0

-4.271036595486984e6 3.3269303849005282e7 0.0
3.3269303849005282e7 7.5789836763550285e6 0.0
0.0 0.0 0.0

2.955638058383791e6 4.1301524739879216e6 0.0
4.1301524739879216e6 -1.9368478823881812e7 0.0
0.0 0.0 0.0

910007.3679042587 3.3751713577524126e7 0.0
3.3751713577524126e7 -4.461009374609776e6 0.0
0.0 0.0 0.0

2.0330987679834235e6 1.2537793376264757e7 0.0
1.2537793376264757e7 -2.786837627782926e7 0.0
0.0 0.0 0.0

-9.552793334278747e6 3.1591855777339365e7 0.0
3.1591855777339365e7 7.765922692767425e6 0.0
0.0 0.0 0.0

9.29873763384163e6 3.3821030143621825e7 0.0
3.3821030143621825e7 -6.556566708034741e6 0.0
0.0 0.0 0.0

-1.2664472868850626e7 2.7409183474725936e7 0.0
2.7409183474725936e7 328218.50962917134 0.0
0.0 0.0 0.0

1.0260473744444288e6 1.5535914766281168e6 0.0
1.5535914766281168e6 -7.277265034469879e7 0.0
0.0 0.0 0.0

8.333381003059663e6 2.6262687614463486e7 0.0
2.6262687614463486e7 5.001393975253491e6 0.0
0.0 0.0 0.0

4.38725684986552e6 3.505116473951625e7 0.0
3.505116473951625e7 -4.884365149056815e6 0.0
0.0 0.0 0.0

2.769655013475692e6 3.011306588524012e7 0.0
3.011306588524012e7 -8.758784277814217e6 0.0
0.0 0.0 0.0

-3.3582696351395743e6 2.3165653735472236e7 0.0
2.3165653735472236e7 -1.5632164026284846e7 0.0
0.0 0.0 0.0

2.070611568064699e6 4.369784311369517e6 0.0
4.369784311369517e6 -3.400354369363676e7 0.0
0.0 0.0 0.0

-2.6960321392552624e6 2.7975057956492897e7 0.0
2.7975057956492897e7 7.9502450377276e6 0.0
0.0 0.0 0.0

-767083.5771353655 1.5509817167391201e7 0.0
1.5509817167391201e7 -4.089479208753153e7 0.0
0.0 0.0 0.0

-6.769824550605707e6 -1.422642743920175e6 0.0
-1.422642743920175e6 4.956527401556425e7 0.0
0.0 0.0 0.0

-3.3197559103570757e6 2.2770303074257143e7 0.0
2.2770303074257143e7 2.2059133747574694e7 0.0
0.0 0.0 0.0

-1.791112955664313e7 3.1150727415890962e7 0.0
3.1150727415890962e7 2.858407497598028e6 0.0
0.0 0.0 0.0

12600.120599679649 6.564084118932908e6 0.0
6.564084118932908e6 -1.0470286308314289e8 0.0
0.0 0.0 0.0

-511216.438038921 1.8914315331579708e7 0.0
1.8914315331579708e7 5.0170841026876494e7 0.0
0.0 0.0 0.0

1.9136159200688954e6 2.3157805579983607e7 0.0
2.3157805579983607e7 2.934812830387483e7 0.0
0.0 0.0 0.0

1.9298330346582048e6 2.0739435506201733e7 0.0
2.0739435506201733e7 4.570363698701209e7 0.0
0.0 0.0 0.0

-1.5432459972613454e6 2.4890768248780396e7 0.0
2.4890768248780396e7 2.2068545273000337e6 0.0
0.0 0.0 0.0

-3.5602634551870767e6 2.3412988385743607e7 0.0
2.3412988385743607e7 1.741372524368582e7 0.0
0.0 0.0 0.0

-2.8269698984244918e6 2.332509730100337e7 0.0
2.332509730100337e7 -1.1963614900176834e7 0.0
0.0 0.0 0.0

664274.4530891851 1.7931493668166317e7 0.0
1.7931493668166317e7 -2.6284597249350145e7 0.0
0.0 0.0 0.0

-530194.5724497698 1.1493818244219283e7 0.0
1.1493818244219283e7 -6.16402543719858e7 0.0
0.0 0.0 0.0

-6.785648239075623e6 -1.5650435569997337e6 0.0
-1.5650435569997337e6 4.629157107491382e7 0.0
0.0 0.0 0.0

-5.906749007179335e6 -1.0011887725279978e6 0.0
-1.0011887725279978e6 5.74562668131101e7 0.0
0.0 0.0 0.0

-1.1643427267830448e7 2.9398692143720865e7 0.0
2.9398692143720865e7 1.7030756789760874e6 0.0
0.0 0.0 0.0

2.335828520017852e6 2.6621110362384204e7 0.0
2.6621110362384204e7 -1.3809239544104025e7 0.0
0.0 0.0 0.0

3.592397392684156e6 2.0598092406620424e7 0.0
2.0598092406620424e7 5.255034328182481e7 0.0
0.0 0.0 0.0

-2.1608649108052226e6 2.3431464343384318e7 0.0
2.3431464343384318e7 -8.264310758427533e6 0.0
0.0 0.0 0.0

8.79262201189266e6 2.988160168830391e7 0.0
2.988160168830391e7 -6.794510695999779e6 0.0
0.0 0.0 0.0

-3.3960213930954807e6 3.0053884366852023e7 0.0
3.0053884366852023e7 8.2502363188342145e6 0.0
0.0 0.0 0.0

-8.212417757763173e6 -758388.173943051 0.0
-758388.173943051 3.1994874094752178e7 0.0
0.0 0.0 0.0

2.109430112093017e7 6.5540411029250845e7 0.0
6.5540411029250845e7 -1.722979775347066e6 0.0
0.0 0.0 0.0

1.4574901799913617e6 2.430549656896754e7 0.0
2.430549656896754e7 -1.0537417371470578e7 0.0
0.0 0.0 0.0

-9.264188247228252e6 1.9627872633943487e7 0.0
1.9627872633943487e7 -6.951393167564973e7 0.0
0.0 0.0 0.0

2.328987302000653e6 2.682221057155331e6 0.0
2.682221057155331e6 -4.456600862541099e7 0.0
0.0 0.0 0.0

-829080.0652662318 2.289251536643601e7 0.0
2.289251536643601e7 -7.910599450504395e6 0.0
0.0 0.0 0.0

-4.380842455819953e6 2.1465785941841412e7 0.0
2.1465785941841412e7 2.5644162295345016e7 0.0
0.0 0.0 0.0

-3.174213851365689e7 2.646121646134143e7 0.0
2.646121646134143e7 1.9645118920091242e6 0.0
0.0 0.0 0.0

-8.099354200679533e6 2.62387358063671e7 0.0
2.62387358063671e7 -1.2752806434230966e7 0.0
0.0 0.0 0.0

9.251385449321233e6 2.0116361784823697e7 0.0
2.0116361784823697e7 3.696802255005428e7 0.0
0.0 0.0 0.0

-4.389154966832098e6 2.2593399066269983e7 0.0
2.2593399066269983e7 -1.737569453454934e7 0.0
0.0 0.0 0.0

-8.747267897439864e6 1.6210943099815599e6 0.0
1.6210943099815599e6 3.1354694787608054e7 0.0
0.0 0.0 0.0

-243137.51487063477 2.4473951243907377e7 0.0
2.4473951243907377e7 -1.1894670918183483e7 0.0
0.0 0.0 0.0

-292456.3611856075 2.361184339626045e7 0.0
2.361184339626045e7 5.121569391318085e6 0.0
0.0 0.0 0.0

273053.9666380165 2.445612851651783e7 0.0
2.445612851651783e7 1.9690778419067994e7 0.0
0.0 0.0 0.0

631503.1731950864 2.164874477581435e7 0.0
2.164874477581435e7 -2.0843899775813375e7 0.0
0.0 0.0 0.0

1.0284464749002568e6 2.2598746733158488e7 0.0
2.2598746733158488e7 3.2662645039630976e7 0.0
0.0 0.0 0.0

81604.3144371368 2.2693068035824582e7 0.0
2.2693068035824582e7 477970.5407431497 0.0
0.0 0.0 0.0

2.4233366684066877e6 2.657039517693678e7 0.0
2.657039517693678e7 -1.3985039212939585e7 0.0
0.0 0.0 0.0

7.197544508704743e6 2.5352333886317417e7 0.0
2.5352333886317417e7 -604061.157613277 0.0
0.0 0.0 0.0

299870.5859551355 1.5077445750620734e7 0.0
1.5077445750620734e7 -3.591653132176325e7 0.0
0.0 0.0 0.0

-3.4070448166729994e6 2.4144544432976514e7 0.0
2.4144544432976514e7 2.2889870661922682e7 0.0
0.0 0.0 0.0

-229871.21704928996 2.0191425104680423e7 0.0
2.0191425104680423e7 -9.74634109402564e6 0.0
0.0 0.0 0.0

-6.3330166475174844e7 3.695832702527051e7 0.0
3.695832702527051e7 -3.560560925937537e6 0.0
0.0 0.0 0.0

8.183012439715976e6 2.1520901788787104e7 0.0
2.1520901788787104e7 6.6041731198061734e7 0.0
0.0 0.0 0.0

1.6789915876874365e6 1.212907107304503e6 0.0
1.212907107304503e6 -5.115286666915408e7 0.0
0.0 0.0 0.0

-6.063119559013221e6 -992781.1721727613 0.0
-992781.1721727613 5.560765453715073e7 0.0
0.0 0.0 0.0

-6.419468467950953e6 1.8242854144517954e7 0.0
1.8242854144517954e7 -6.0317995597641855e7 0.0
0.0 0.0 0.0

-3.1763480155647844e6 1.980314354125668e7 0.0
1.980314354125668e7 -3.677073480655934e7 0.0
0.0 0.0 0.0

-3.793314197467759e6 2.4674230150451485e7 0.0
2.4674230150451485e7 -7.292233496578277e6 0.0
0.0 0.0 0.0

-2.3977574234513175e7 3.300303486126208e7 0.0
3.300303486126208e7 -1.6235315505666878e7 0.0
0.0 0.0 0.0

-2.209135119045485e6 2.1407998155394338e7 0.0
2.1407998155394338e7 3.439581201823882e7 0.0
0.0 0.0 0.0

2.3770877592047416e6 2.6423987459290996e7 0.0
2.6423987459290996e7 -1.396599169038307e7 0.0
0.0 0.0 0.0

-4.743406219103865e6 137769.56739533282 0.0
137769.56739533282 7.324654803181253e7 0.0
0.0 0.0 0.0

-5.418976602032144e6 2.022737551187033e7 0.0
2.022737551187033e7 2.9037984917118628e7 0.0
0.0 0.0 0.0

366357.00957288966 4.237350528596017e6 0.0
4.237350528596017e6 -9.762433618008612e7 0.0
0.0 0.0 0.0

-1.624979234419072e6 3.675598915837109e7 0.0
3.675598915837109e7 143653.24751582474 0.0
0.0 0.0 0.0

648154.3366305456 2.262534116367591e6 0.0
2.262534116367591e6 -8.487148619861074e7 0.0
0.0 0.0 0.0

-2.903990264270289e7 6.102847125881785e7 0.0
6.102847125881785e7 9.501565792381816e6 0.0
0.0 0.0 0.0

-4.599482388112638e6 409091.99035960017 0.0
409091.99035960017 7.650012463083965e7 0.0
0.0 0.0 0.0

516982.8255252205 1.5550659118993752e7 0.0
1.5550659118993752e7 -3.5888075367926046e7 0.0
0.0 0.0 0.0

-1.3599317903990565e7 3.0733383596427795e7 0.0
3.0733383596427795e7 4.679407837422371e6 0.0
0.0 0.0 0.0

-5.7911108618724495e7 3.765520359332617e7 0.0
3.765520359332617e7 -5.228917673033066e6 0.0
0.0 0.0 0.0

498196.2846291177 3.145510936876412e6 0.0
3.145510936876412e6 -9.093184401420242e7 0.0
0.0 0.0 0.0

-2.3421942220815606e6 2.914026089745923e7 0.0
2.914026089745923e7 3.7953110903079365e6 0.0
0.0 0.0 0.0

-2.7278190450576013e6 2.611459716614735e7 0.0
2.611459716614735e7 1.6726225805369603e7 0.0
0.0 0.0 0.0

2.2900703462896757e7 2.037335699675452e7 0.0
2.037335699675452e7 8.47395800250607e6 0.0
0.0 0.0 0.0

-1.5047707483146135e6 1.948331791103016e7 0.0
1.948331791103016e7 -3.1775066422258567e7 0.0
0.0 0.0 0.0

-3.825457919281329e6 2.0798655844966147e7 0.0
2.0798655844966147e7 -3.3461871312380165e7 0.0
0.0 0.0 0.0

1.6827964694409454e6 2.9492525003286924e7 0.0
2.9492525003286924e7 -9.759999437604982e6 0.0
0.0 0.0 0.0

-1.7523481562847435e6 3.7558813429423615e7 0.0
3.7558813429423615e7 219010.3736917479 0.0
0.0 0.0 0.0

-6.836233922057301e6 1.4400045257146604e7 0.0
1.4400045257146604e7 4.2178445751487374e7 0.0
0.0 0.0 0.0

881037.225560952 1.6902509803886202e6 0.0
1.6902509803886202e6 -7.682076680807026e7 0.0
0.0 0.0 0.0

-1.5014785284926476e7 4.1555682803954676e7 0.0
4.1555682803954676e7 5.058276477531242e6 0.0
0.0 0.0 0.0

2.9047578619982805e6 5.724000735785518e6 0.0
5.724000735785518e6 -2.690542285498774e7 0.0
0.0 0.0 0.0

-3.1644149706394654e6 2.3110758765192725e7 0.0
2.3110758765192725e7 -2.1049647697888892e7 0.0
0.0 0.0 0.0

798335.9371145219 2.0913666608623175e6 0.0
2.0913666608623175e6 -8.00320579122316e7 0.0
0.0 0.0 0.0

-3.959396511679803e6 2.158331494782109e7 0.0
2.158331494782109e7 -2.998380421009364e7 0.0
0.0 0.0 0.0

-6.886961648176126e6 1.1171553439060196e7 0.0
1.1171553439060196e7 4.963981878605907e7 0.0
0.0 0.0 0.0

-6.4713119948425405e6 800741.688793501 0.0
800741.688793501 6.727924447082323e6 0.0
0.0 0.0 0.0

-2.8102010514339446e6 2.1064098579238914e7 0.0
2.1064098579238914e7 6.156634126645603e6 0.0
0.0 0.0 0.0

5.918985256464451e6 2.2589617889153246e7 0.0
2.2589617889153246e7 3.378663644386595e7 0.0
0.0 0.0 0.0

1.4077485498109981e6 1.069542868838901e6 0.0
1.069542868838901e6 -5.665141266930659e7 0.0
0.0 0.0 0.0

-4.532915835027757e6 2.9858103389411073e7 0.0
2.9858103389411073e7 1.1397658705439515e7 0.0
0.0 0.0 0.0

-7.296138949009242e6 316260.2165904676 0.0
316260.2165904676 4.44832808392053e7 0.0
0.0 0.0 0.0

208241.26782024442 2.4280532539301872e7 0.0
2.4280532539301872e7 451575.6166238021 0.0
0.0 0.0 0.0

372026.60387258604 1.5787175262035599e7 0.0
1.5787175262035599e7 -3.389968732599111e7 0.0
0.0 0.0 0.0

-2.031022268308619e6 2.4081781989437994e7 0.0
2.4081781989437994e7 2.4226923147908736e7 0.0
0.0 0.0 0.0

5.834760808443876e6 2.1574704595238354e7 0.0
2.1574704595238354e7 4.68086592684737e7 0.0
0.0 0.0 0.0

-1.2980490705842134e6 2.29183460308307e7 0.0
2.29183460308307e7 -5.575613323331124e6 0.0
0.0 0.0 0.0

2.235719803619839e6 2.918815766003857e7 0.0
2.918815766003857e7 -9.254262233365122e6 0.0
0.0 0.0 0.0

-3.401636300219425e6 3.1606363526482414e7 0.0
3.1606363526482414e7 5.887960817889372e6 0.0
0.0 0.0 0.0

-1.7668129996535429e6 2.3681483705058936e7 0.0
2.3681483705058936e7 -8.890738013850953e6 0.0
0.0 0.0 0.0

2.7618368912206426e7 5.996931525370828e6 0.0
5.996931525370828e6 -1.9418801381265502e6 0.0
0.0 0.0 0.0

-5.007689041471664e6 63042.43038659421 0.0
63042.43038659421 7.015107846138553e7 0.0
0.0 0.0 0.0

1.1951018886571288e7 2.6931268239898477e7 0.0
2.6931268239898477e7 1.4986327587768696e7 0.0
0.0 0.0 0.0

-5.751507907174826e6 -801683.2570055211 0.0
-801683.2570055211 5.948857750550577e7 0.0
0.0 0.0 0.0

-2.0226404370772575e6 2.410108619648791e7 0.0
2.410108619648791e7 -1.3022553230622523e6 0.0
0.0 0.0 0.0

-6.07318663627932e6 1.2091420506003525e7 0.0
1.2091420506003525e7 3.641643097834644e7 0.0
0.0 0.0 0.0

-1.970838335016034e6 2.088537242571133e7 0.0
2.088537242571133e7 8.9893789481737e6 0.0
0.0 0.0 0.0

-1.4535837747014735e6 -262158.3021201489 0.0
-262158.3021201489 4.080895013328197e6 0.0
0.0 0.0 0.0

-1.4836533232400985e6 928666.9951556213 0.0
928666.9951556213 4.038010406056637e6 0.0
0.0 0.0 0.0

1.9478992798606968e6 2.5777456657914072e7 0.0
2.5777456657914072e7 -1.5229385821607044e7 0.0
0.0 0.0 0.0

-1.2016482771488825e7 2.7195741370914634e7 0.0
2.7195741370914634e7 -5.574480680292968e6 0.0
0.0 0.0 0.0

2.3716194403811274e6 2.630548804962399e7 0.0
2.630548804962399e7 -1.3589785943264779e7 0.0
0.0 0.0 0.0

-7.982586700827377e6 1.3156638426553888e7 0.0
1.3156638426553888e7 4.063108010915095e7 0.0
0.0 0.0 0.0

-3.9238223514306583e6 2.2964396786748834e7 0.0
2.2964396786748834e7 -1.934005749804809e7 0.0
0.0 0.0 0.0

-77600.14478726313 1.5162296158861645e7 0.0
1.5162296158861645e7 -3.8300673592109665e7 0.0
0.0 0.0 0.0

-4.175592590670553e6 2.9018887580463096e7 0.0
2.9018887580463096e7 1.2413751527161876e7 0.0
0.0 0.0 0.0

631670.2812063228 1.5776427975805767e7 0.0
1.5776427975805767e7 -3.1609399578652654e7 0.0
0.0 0.0 0.0

-1.3217966823360986e8 4.60551523027409e7 0.0
4.60551523027409e7 -1.4482382173028756e7 0.0
0.0 0.0 0.0

669615.3056115201 2.0892178816903345e7 0.0
2.0892178816903345e7 -2.2386704591233537e7 0.0
0.0 0.0 0.0

-3.7926322668856885e6 4.445489380797754e7 0.0
4.445489380797754e7 886953.9494390481 0.0
0.0 0.0 0.0

1.2284633232045986e6 2.3245856371783562e7 0.0
2.3245856371783562e7 7.190738100228934e6 0.0
0.0 0.0 0.0

-2.625973350537494e6 2.275768396801936e7 0.0
2.275768396801936e7 2.839471561928717e7 0.0
0.0 0.0 0.0

-6.176522491577508e6 2.6072929772155546e7 0.0
2.6072929772155546e7 -1.6466267707725978e7 0.0
0.0 0.0 0.0

2.1052739938495904e7 4.9904645233283386e7 0.0
4.9904645233283386e7 -6.030459259524969e6 0.0
0.0 0.0 0.0

-6.305001516569823e6 -1.2591993832916433e6 0.0
-1.2591993832916433e6 5.249711801728164e7 0.0
0.0 0.0 0.0

1.5799707634982318e6 1.2363945429204486e6 0.0
1.2363945429204486e6 -5.268591992924815e7 0.0
0.0 0.0 0.0

1.3677828117182446e6 2.993531241505806e7 0.0
2.993531241505806e7 -6.659197276942812e6 0.0
0.0 0.0 0.0

-9.007197717259936e6 -1.2861353295223434e6 0.0
-1.2861353295223434e6 2.4512405944300193e7 0.0
0.0 0.0 0.0

1.1468019736651555e6 1.4081334556806192e6 0.0
1.4081334556806192e6 -6.780597894010112e7 0.0
0.0 0.0 0.0

-5.1370298631786e6 -246117.59242319892 0.0
-246117.59242319892 6.787426310337555e7 0.0
0.0 0.0 0.0

-7.238993616481135e6 -1.855540370865434e6 0.0
-1.855540370865434e6 4.034369812757254e7 0.0
0.0 0.0 0.0

-2.3352517734551476e6 2.2925112722297825e7 0.0
2.2925112722297825e7 -6.190797391643822e6 0.0
0.0 0.0 0.0

-6.173181321186662e6 -1.105716959245888e6 0.0
-1.105716959245888e6 5.409266228011652e7 0.0
0.0 0.0 0.0

1.5019359289010055e6 1.3073209121849842e6 0.0
1.3073209121849842e6 -5.463057899179883e7 0.0
0.0 0.0 0.0

1.2571552413119525e6 1.4663010827264395e6 0.0
1.4663010827264395e6 -6.531213270151391e7 0.0
0.0 0.0 0.0

-5.280199226294976e6 -520645.9578418177 0.0
-520645.9578418177 6.5660638345466815e7 0.0
0.0 0.0 0.0

-6.661630299196325e6 2.4148336614342246e7 0.0
2.4148336614342246e7 -1.831004183887547e7 0.0
0.0 0.0 0.0

1.700311665595754e6 2.4958752385043394e7 0.0
2.4958752385043394e7 -1.665734211947596e7 0.0
0.0 0.0 0.0

-2.784429249940156e6 3.1984455715376616e7 0.0
3.1984455715376616e7 6.486954578408589e6 0.0
0.0 0.0 0.0

1.243535310946323e6 1.3334301078206832e6 0.0
1.3334301078206832e6 -6.353422605331322e7 0.0
0.0 0.0 0.0

-5.441632251764901e6 -690158.1517334682 0.0
-690158.1517334682 6.324362102866027e7 0.0
0.0 0.0 0.0

-1.474205675446296e6 2.354319465910786e7 0.0
2.354319465910786e7 -4.64633808002874e6 0.0
0.0 0.0 0.0

1.1399933653907925e6 1.6964497711256746e7 0.0
1.6964497711256746e7 -2.9788417772334773e7 0.0
0.0 0.0 0.0

897674.692026129 3.2334229579454854e7 0.0
3.2334229579454854e7 -3.3134620593658905e6 0.0
0.0 0.0 0.0

-2.2020872833293146e6 2.4841729003191486e7 0.0
2.4841729003191486e7 16830.556442631176 0.0
0.0 0.0 0.0

258163.895681303 2.144568579050719e7 0.0
2.144568579050719e7 3.8054486875144854e7 0.0
0.0 0.0 0.0

-5.601594963986862e6 -706484.426427281 0.0
-706484.426427281 6.122098988516452e7 0.0
0.0 0.0 0.0

1.353106019613143e6 1.239013204751496e6 0.0
1.239013204751496e6 -6.107667925062131e7 0.0
0.0 0.0 0.0

6.651943152885413e6 3.6114086788551055e7 0.0
3.6114086788551055e7 -5.92697600283898e6 0.0
0.0 0.0 0.0

6.14041182007953e6 2.116779093506299e7 0.0
2.116779093506299e7 6.119476625200266e7 0.0
0.0 0.0 0.0

1.044373037308465e8 1.0539549577264754e8 0.0
1.0539549577264754e8 -9.675696990863264e6 0.0
0.0 0.0 0.0

-690926.4046456097 1.3136785926929435e7 0.0
1.3136785926929435e7 -9.26200797834955e6 0.0
0.0 0.0 0.0

-1.9050117984418692e6 3.6113463310476e7 0.0
3.6113463310476e7 2.1434359512440353e6 0.0
0.0 0.0 0.0

-9.943762658150584e6 1.8897502509876483e6 0.0
1.8897502509876483e6 1.824655255741039e7 0.0
0.0 0.0 0.0

-2.5946147934893677e6 3.2760954677277535e7 0.0
3.2760954677277535e7 5.4752899045214215e6 0.0
0.0 0.0 0.0

3.022521169421491e6 2.3803240912070065e6 0.0
2.3803240912070065e6 -1.5957128668609016e7 0.0
0.0 0.0 0.0

1.6094612673294028e7 3.269632692119877e7 0.0
3.269632692119877e7 -4.566695668374133e6 0.0
0.0 0.0 0.0

5.1912415992701575e6 3.071490722257377e7 0.0
3.071490722257377e7 -8.815618660855735e6 0.0
0.0 0.0 0.0

-5.310123989715011e6 2.0339245494183835e7 0.0
2.0339245494183835e7 2.1287835864348143e7 0.0
0.0 0.0 0.0

-2.1889498748458577e6 2.5042881520887893e7 0.0
2.5042881520887893e7 -1.755468629467266e6 0.0
0.0 0.0 0.0

-3.2204765079726316e6 1.422268018174983e6 0.0
1.422268018174983e6 8.378184105048075e7 0.0
0.0 0.0 0.0

-269360.9248516756 3.836316111398926e6 0.0
3.836316111398926e6 895733.31641331 0.0
0.0 0.0 0.0

-5.468077602873821e6 -756077.2339687636 0.0
-756077.2339687636 2.239958268900849e6 0.0
0.0 0.0 0.0

29139.060314035858 -1.139808946384649e6 0.0
-1.139808946384649e6 -870622.2559641313 0.0
0.0 0.0 0.0

6.163259571896019e6 3.109885072101924e7 0.0
3.109885072101924e7 -8.219065017424282e6 0.0
0.0 0.0 0.0

-8.658988979832359e6 1.869885161419518e7 0.0
1.869885161419518e7 -6.818484093087804e7 0.0
0.0 0.0 0.0

7.1234322707604645e6 2.1436357184915937e7 0.0
2.1436357184915937e7 4.1773590303110726e7 0.0
0.0 0.0 0.0

-3.990609850114436e6 2.382285660860546e7 0.0
2.382285660860546e7 -1.509243520496142e7 0.0
0.0 0.0 0.0

2.8022045196345635e6 1.7210904292979315e6 0.0
1.7210904292979315e6 -3.183634578319762e7 0.0
0.0 0.0 0.0

-2.381538987963667e6 2.1549386903853714e7 0.0
2.1549386903853714e7 -5.718533693518533e6 0.0
0.0 0.0 0.0

564134.4226283599 2.4816716329943866e7 0.0
2.4816716329943866e7 -1.5717894387436662e7 0.0
0.0 0.0 0.0

-5.536741106973583e6 1.81692090090239e7 0.0
1.81692090090239e7 -4.852083190292993e7 0.0
0.0 0.0 0.0

1.795403736040618e6 3.3385715765290342e7 0.0
3.3385715765290342e7 -3.878125384475057e6 0.0
0.0 0.0 0.0

-2.493160915418815e6 2.314492520771284e7 0.0
2.314492520771284e7 2.62737318682814e7 0.0
0.0 0.0 0.0

-1.8970988185811047e6 2.22682959957573e7 0.0
2.22682959957573e7 -4.335850195248172e6 0.0
0.0 0.0 0.0

753725.1216430238 2.451811032929206e7 0.0
2.451811032929206e7 3.972158366063564e6 0.0
0.0 0.0 0.0

-8.05344835256494e6 1.967092843767961e7 0.0
1.967092843767961e7 -3.3955868657717474e7 0.0
0.0 0.0 0.0

-3.1166823018019557e7 3.391012177836301e7 0.0
3.391012177836301e7 -1.0986195263492791e7 0.0
0.0 0.0 0.0

1.8984979448092952e7 5.4561534840821445e7 0.0
5.4561534840821445e7 -4.40821774375854e6 0.0
0.0 0.0 0.0

-3.923610993511241e6 -1.6799251961596918e6 0.0
-1.6799251961596918e6 8.967669662542362e6 0.0
0.0 0.0 0.0

-3.7222713656856813e6 -2.5964135499178763e6 0.0
-2.5964135499178763e6 8.432681346769517e6 0.0
0.0 0.0 0.0

-2.956029783522986e6 2.4417646862586066e7 0.0
2.4417646862586066e7 2.289925180169826e7 0.0
0.0 0.0 0.0

-182728.27407714212 2.8744549498103954e7 0.0
2.8744549498103954e7 -7.097186124081405e6 0.0
0.0 0.0 0.0

-1.294378022935886e6 3.7533658503158905e7 0.0
3.7533658503158905e7 1.750066898634752e6 0.0
0.0 0.0 0.0

-2.3253842531930553e6 3.346516202778984e7 0.0
3.346516202778984e7 4.514454561115025e6 0.0
0.0 0.0 0.0

1.7516652056440044e7 2.622129313489985e7 0.0
2.622129313489985e7 1.3445519843715988e7 0.0
0.0 0.0 0.0

4.993256178004502e6 2.6486009038735397e7 0.0
2.6486009038735397e7 -4.684488391501067e6 0.0
0.0 0.0 0.0

8.714836995264973e6 2.0818781414944675e7 0.0
2.0818781414944675e7 6.825821367913705e7 0.0
0.0 0.0 0.0

-5.8016427906553574e7 3.531162935145444e7 0.0
3.531162935145444e7 -2.1272831962231025e7 0.0
0.0 0.0 0.0

-1.406857454640547e8 5.217285708098728e7 0.0
5.217285708098728e7 799347.9085142985 0.0
0.0 0.0 0.0

-5.380496365476871e6 1.9302842839277957e7 0.0
1.9302842839277957e7 1.9030855676034216e7 0.0
0.0 0.0 0.0

-1.9104369042528793e6 2.5339045126790147e7 0.0
2.5339045126790147e7 1.9413612984683e7 0.0
0.0 0.0 0.0

2.1192035893645957e6 5.319350325237993e6 0.0
5.319350325237993e6 -2.9122710797623765e7 0.0
0.0 0.0 0.0

-5.026314340279615e6 2.0321646126193106e7 0.0
2.0321646126193106e7 2.650132976835612e7 0.0
0.0 0.0 0.0

-7.741864333190665e6 -3.772489218353638e6 0.0
-3.772489218353638e6 2.335740270454419e7 0.0
0.0 0.0 0.0

1.3918558756630233e7 2.7873287467122562e7 0.0
2.7873287467122562e7 1.554615959341869e7 0.0
0.0 0.0 0.0

-4.087697122474976e6 1.863017581957279e7 0.0
1.863017581957279e7 -4.619279880080454e7 0.0
0.0 0.0 0.0

2.537168626687849e6 4.6392099655614225e6 0.0
4.6392099655614225e6 -3.727653674983529e7 0.0
0.0 0.0 0.0

8.590355259933906e6 2.5111747824813128e7 0.0
2.5111747824813128e7 8.744643528128222e6 0.0
0.0 0.0 0.0

115768.26721640676 5.488685742041216e6 0.0
5.488685742041216e6 1.0608744691421193e8 0.0
0.0 0.0 0.0

-5.805921356688421e6 3.479251674435147e7 0.0
3.479251674435147e7 7.0892626062356625e6 0.0
0.0 0.0 0.0

-2.0963274392530944e7 2.986595582735441e7 0.0
2.986595582735441e7 -375913.8471784601 0.0
0.0 0.0 0.0

3.6599949668481923e6 2.91252266131184e7 0.0
2.91252266131184e7 -1.0458031240194384e7 0.0
0.0 0.0 0.0

-7.49622550424337e6 -2.272640696262348e6 0.0
-2.272640696262348e6 3.666743753046828e7 0.0
0.0 0.0 0.0

1.1379292080537206e6 2.2719392259543385e7 0.0
2.2719392259543385e7 8.483879221887888e6 0.0
0.0 0.0 0.0

-6.560767819477344e6 -1.5084677890526443e6 0.0
-1.5084677890526443e6 4.805311807052487e7 0.0
0.0 0.0 0.0

8.667380999519438e6 2.6315820484109152e7 0.0
2.6315820484109152e7 8.74422271348673e6 0.0
0.0 0.0 0.0

-1.4709397588475305e6 2.739906290521796e7 0.0
2.739906290521796e7 2.0163599736748599e6 0.0
0.0 0.0 0.0

2.5107350689999647e6 2.8267212910956047e6 0.0
2.8267212910956047e6 -4.152159068867829e7 0.0
0.0 0.0 0.0

-6.663341415284226e6 2.4920514388599947e7 0.0
2.4920514388599947e7 -1.769316687710682e7 0.0
0.0 0.0 0.0

2.872299414818788e6 1.873932414164834e6 0.0
1.873932414164834e6 -2.8429233650620095e7 0.0
0.0 0.0 0.0

86955.41453616321 2.025621608818282e7 0.0
2.025621608818282e7 -2.6526679660880312e7 0.0
0.0 0.0 0.0

-7.709447256284403e6 4.337714753289204e7 0.0
4.337714753289204e7 3.2646732655380373e6 0.0
0.0 0.0 0.0

-376443.95730111026 2.0142265937478635e7 0.0
2.0142265937478635e7 -322169.19440506573 0.0
0.0 0.0 0.0

1.6559596785741062e6 2.8524897174981598e7 0.0
2.8524897174981598e7 -1.0891094567170415e7 0.0
0.0 0.0 0.0

-5.503922118775686e6 4.100312033590436e7 0.0
4.100312033590436e7 2.465053452164259e6 0.0
0.0 0.0 0.0

-2.8554098493813598e6 3.123589562934731e7 0.0
3.123589562934731e7 7.691902716110934e6 0.0
0.0 0.0 0.0

-3.0542484220070215e6 3.299570610874413e7 0.0
3.299570610874413e7 3.760964875193787e6 0.0
0.0 0.0 0.0

429033.37495703343 4.12705644975054e7 0.0
4.12705644975054e7 -1.24338912173018e6 0.0
0.0 0.0 0.0

2.0803809236159064e6 2.742873941243307e7 0.0
2.742873941243307e7 -1.1790010673883509e7 0.0
0.0 0.0 0.0

-4.650127168698693e6 4.57031230310205e7 0.0
4.57031230310205e7 1.2185267629393584e6 0.0
0.0 0.0 0.0

-8.55324889619354e6 1.5658153628675343e7 0.0
1.5658153628675343e7 2.2225351566225033e7 0.0
0.0 0.0 0.0

713843.4246713547 1.6420807039368454e7 0.0
1.6420807039368454e7 -2.0620649674145624e7 0.0
0.0 0.0 0.0

-9.373481114051588e6 1.1344558678673506e6 0.0
1.1344558678673506e6 3.038303484227152e7 0.0
0.0 0.0 0.0

-1.5175251936338384e7 3.2177997710450668e7 0.0
3.2177997710450668e7 4.4708024289953625e6 0.0
0.0 0.0 0.0

-5.6756877533441335e6 1.9452490189908491e6 0.0
1.9452490189908491e6 6.313708677294958e7 0.0
0.0 0.0 0.0

6.13609243960253e6 3.762213725216981e7 0.0
3.762213725216981e7 -5.343587161027085e6 0.0
0.0 0.0 0.0

464048.1076419484 2.0242779352090217e7 0.0
2.0242779352090217e7 -2.6530460374366492e7 0.0
0.0 0.0 0.0

2.2533563092573057e6 2.515227936935378e7 0.0
2.515227936935378e7 1.0299654023655633e7 0.0
0.0 0.0 0.0

-974236.1228301628 1.982296204243957e7 0.0
1.982296204243957e7 -1.2122277722497873e7 0.0
0.0 0.0 0.0

-458155.4679974038 1.6943634266176604e7 0.0
1.6943634266176604e7 -3.814508231443378e7 0.0
0.0 0.0 0.0

2.7696388848763127e6 4.005041133074945e6 0.0
4.005041133074945e6 -1.968585258490036e7 0.0
0.0 0.0 0.0

7.336550403230138e6 3.1312667763769846e7 0.0
3.1312667763769846e7 -7.604013391012837e6 0.0
0.0 0.0 0.0

182705.27584685804 2.429586680656052e7 0.0
2.429586680656052e7 8.044106952020519e6 0.0
0.0 0.0 0.0

-2.1663519345780425e6 2.4161145659609213e7 0.0
2.4161145659609213e7 -1.4324208645844122e6 0.0
0.0 0.0 0.0

953855.9926316179 1.4729099804082918e6 0.0
1.4729099804082918e6 -7.352640443904229e7 0.0
0.0 0.0 0.0

-9.69683053621971e6 7.30766591519765e6 0.0
7.30766591519765e6 3.0265479770923477e7 0.0
0.0 0.0 0.0

555207.232898619 4.392194786430005e6 0.0
4.392194786430005e6 -7.330505627674338e7 0.0
0.0 0.0 0.0

-8.153849085917173e6 -2.811997393160583e6 0.0
-2.811997393160583e6 2.8325002912621904e7 0.0
0.0 0.0 0.0

-1.9461151552130315e6 2.731409962694982e7 0.0
2.731409962694982e7 213849.00953058095 0.0
0.0 0.0 0.0

-602798.6242735309 2.4407389637426816e7 0.0
2.4407389637426816e7 4.664777324022636e6 0.0
0.0 0.0 0.0

1.3912428699105182e6 2.4776629675589647e7 0.0
2.4776629675589647e7 7.414708786296245e6 0.0
0.0 0.0 0.0

-4.646487628097362e6 1.8956104308101945e7 0.0
1.8956104308101945e7 2.1802592232523866e7 0.0
0.0 0.0 0.0

-7.13166377148802e6 -1.627337197939214e6 0.0
-1.627337197939214e6 4.131929669603463e7 0.0
0.0 0.0 0.0

8.960812965349853e6 3.383465756668301e7 0.0
3.383465756668301e7 -6.555511170810952e6 0.0
0.0 0.0 0.0

8.568423570052389e6 2.525094048959876e7 0.0
2.525094048959876e7 1.872820396203183e7 0.0
0.0 0.0 0.0

1.444317843447337e6 9.81484743140865e6 0.0
9.81484743140865e6 -3.258444379777748e7 0.0
0.0 0.0 0.0

-7.165807443821518e6 86348.65576088254 0.0
86348.65576088254 4.40363530829816e7 0.0
0.0 0.0 0.0

5.970624979667495e6 2.575837342487533e7 0.0
2.575837342487533e7 1.4981986606788231e7 0.0
0.0 0.0 0.0

741272.3921921961 1.906768989138722e7 0.0
1.906768989138722e7 5.4441669350364886e7 0.0
0.0 0.0 0.0

9.969421734248778e6 2.704464127844308e7 0.0
2.704464127844308e7 1.5137040496028513e7 0.0
0.0 0.0 0.0

-7.425635192879371e6 1.8106795946834188e7 0.0
1.8106795946834188e7 -6.380393993791726e7 0.0
0.0 0.0 0.0

-1.0766573427838627e6 2.249734157789397e7 0.0
2.249734157789397e7 3.184767685350639e7 0.0
0.0 0.0 0.0

3.043195457970131e6 2.1988766903011475e7 0.0
2.1988766903011475e7 2.589837897619768e7 0.0
0.0 0.0 0.0

3.2372584777077865e6 2.6950678026552316e7 0.0
2.6950678026552316e7 -1.2922276010355962e7 0.0
0.0 0.0 0.0

-4.387852419462919e6 2.5630042469658375e7 0.0
2.5630042469658375e7 -7.7135937236183e6 0.0
0.0 0.0 0.0

-3023.913870051503 9.523597041156828e6 0.0
9.523597041156828e6 -5.326548983038437e7 0.0
0.0 0.0 0.0

64629.75740888715 8.518470605496306e6 0.0
8.518470605496306e6 -5.610972909126276e7 0.0
0.0 0.0 0.0

19670.790020492394 1.9365426559291847e7 0.0
1.9365426559291847e7 -1.1401219072557464e7 0.0
0.0 0.0 0.0

-4.0487576945846397e6 1.9619539917307276e7 0.0
1.9619539917307276e7 3.687056961879483e7 0.0
0.0 0.0 0.0

1.5364669903437756e6 2.4942397921213493e7 0.0
2.4942397921213493e7 -1.6597644181227278e7 0.0
0.0 0.0 0.0

-3.4856390061808266e6 4.664081238645595e6 0.0
4.664081238645595e6 8.021415392422754e7 0.0
0.0 0.0 0.0

-5.189955462984573e6 1.7563488451085147e7 0.0
1.7563488451085147e7 -5.727468240019056e7 0.0
0.0 0.0 0.0

3.2864898126659617e6 1.8069668412249595e7 0.0
1.8069668412249595e7 6.585714721886305e7 0.0
0.0 0.0 0.0

1.0542544067854248e6 1.5719780248743529e6 0.0
1.5719780248743529e6 -7.056953177723126e7 0.0
0.0 0.0 0.0

2.5967776230698545e6 2.8834413412407156e7 0.0
2.8834413412407156e7 -1.0627737820651287e7 0.0
0.0 0.0 0.0

8.222156352338309e6 2.6662409171704642e7 0.0
2.6662409171704642e7 1.5589398745482303e7 0.0
0.0 0.0 0.0

-9.309083546431636e6 1.988726398610818e7 0.0
1.988726398610818e7 -5.860306139628364e7 0.0
0.0 0.0 0.0

1.5390765992544629e7 1.2177394856545731e7 0.0
1.2177394856545731e7 1.3655388672998594e6 0.0
0.0 0.0 0.0

-2.855360560870364e6 2.4705734713017605e7 0.0
2.4705734713017605e7 -9.488414706188317e6 0.0
0.0 0.0 0.0

6.938617329371857e6 2.6087748123691794e7 0.0
2.6087748123691794e7 1.6164668945871083e7 0.0
0.0 0.0 0.0

-2.6720482587080803e6 2.6729359980662573e7 0.0
2.6729359980662573e7 1.3559239765095811e7 0.0
0.0 0.0 0.0

-2.182093779498157e6 2.5162409436976623e7 0.0
2.5162409436976623e7 1.9800671343390238e7 0.0
0.0 0.0 0.0

267670.72255364247 1.4768983911890736e7 0.0
1.4768983911890736e7 -1.7987663608131398e7 0.0
0.0 0.0 0.0

-6.340708219052009e6 1.8770050750157498e7 0.0
1.8770050750157498e7 3.390833346011503e7 0.0
0.0 0.0 0.0

-6.302718314508142e6 1.7601040227590725e7 0.0
1.7601040227590725e7 -5.937361018664603e7 0.0
0.0 0.0 0.0

-3.3571423286556285e6 2.454300776574091e7 0.0
2.454300776574091e7 -1.4099091811312532e7 0.0
0.0 0.0 0.0

-7.785769281195317e6 2.8063250785690885e7 0.0
2.8063250785690885e7 7.11206474750758e6 0.0
0.0 0.0 0.0

201507.42428345373 1.3079874633111103e7 0.0
1.3079874633111103e7 -9.836822652942257e6 0.0
0.0 0.0 0.0

-2.992110707129672e6 7.17500607088447e6 0.0
7.17500607088447e6 1.0371287460328045e8 0.0
0.0 0.0 0.0

-1.0297101503619375e7 1.939288118767284e7 0.0
1.939288118767284e7 -7.315648038114676e7 0.0
0.0 0.0 0.0

248715.3386447858 2.1222529234371565e7 0.0
2.1222529234371565e7 3.778130322718313e7 0.0
0.0 0.0 0.0

-1.7956491903969436e6 3.841516547892781e7 0.0
3.841516547892781e7 273259.4829807859 0.0
0.0 0.0 0.0

2.519429348998416e7 2.6560179559098415e7 0.0
2.6560179559098415e7 9.577099656658346e6 0.0
0.0 0.0 0.0

2.795397229249293e6 2.075148006972817e7 0.0
2.075148006972817e7 4.9174614299857445e7 0.0
0.0 0.0 0.0

-2.9080151697473098e6 2.4099146439253267e7 0.0
2.4099146439253267e7 2.284758515401351e7 0.0
0.0 0.0 0.0

399313.9465197893 1.7736094107934352e7 0.0
1.7736094107934352e7 -2.002901697639792e7 0.0
0.0 0.0 0.0

-4.067947750386399e6 2.340888820683981e7 0.0
2.340888820683981e7 -1.6182374041448647e7 0.0
0.0 0.0 0.0

-3.9396573290084293e6 2.224238851846704e7 0.0
2.224238851846704e7 1.8336894701795477e7 0.0
0.0 0.0 0.0

-3.929141145190227e6 2.067329512820276e7 0.0
2.067329512820276e7 2.177264296855263e7 0.0
0.0 0.0 0.0

1.9220414746839143e6 2.7602843973889407e6 0.0
2.7602843973889407e6 -3.830780382740022e7 0.0
0.0 0.0 0.0

-4.603336403061058e6 2.997782575224243e7 0.0
2.997782575224243e7 1.15775243666527e7 0.0
0.0 0.0 0.0

-2.285572327351045e6 2.0541674520493772e7 0.0
2.0541674520493772e7 -3.778313513708579e6 0.0
0.0 0.0 0.0

3.3056138192517217e6 3.178492428283027e6 0.0
3.178492428283027e6 -2.7109564267331406e7 0.0
0.0 0.0 0.0

4.231024614400998e6 3.6212356910716735e7 0.0
3.6212356910716735e7 -5.419876268377438e6 0.0
0.0 0.0 0.0

9.401933591754867e6 2.669387942448278e7 0.0
2.669387942448278e7 1.6610734379947359e7 0.0
0.0 0.0 0.0

-4.568825560898863e6 3.075367584256956e6 0.0
3.075367584256956e6 7.077631697201464e7 0.0
0.0 0.0 0.0

1.3118300636311082e7 2.8450980906739023e7 0.0
2.8450980906739023e7 1.5346819046320867e7 0.0
0.0 0.0 0.0

9.055103145351935e6 2.672171857808634e7 0.0
2.672171857808634e7 1.2087734883451711e7 0.0
0.0 0.0 0.0

233826.72098957282 2.3719920623040777e7 0.0
2.3719920623040777e7 -1.6391312838163845e7 0.0
0.0 0.0 0.0

1.4626936397549957e6 2.9369821501436564e6 0.0
2.9369821501436564e6 -5.126847879287993e7 0.0
0.0 0.0 0.0

4.787028135414474e6 2.09198113649046e7 0.0
2.09198113649046e7 1.7522873769205753e7 0.0
0.0 0.0 0.0

1.0411113723016633e6 2.429745918001677e7 0.0
2.429745918001677e7 -1.4683286940799695e7 0.0
0.0 0.0 0.0

2.332145174324155e6 2.4732887635999847e7 0.0
2.4732887635999847e7 1.189574440265777e7 0.0
0.0 0.0 0.0

-1.0320235568232808e7 9.657800732313242e6 0.0
9.657800732313242e6 2.3572840003149662e7 0.0
0.0 0.0 0.0

-7.69586187778124e6 -3.1389018322593966e6 0.0
-3.1389018322593966e6 2.726922909255958e7 0.0
0.0 0.0 0.0

-6.222277332130099e6 2.7264814622388642e7 0.0
2.7264814622388642e7 4.8071879333331175e6 0.0
0.0 0.0 0.0

280208.4516713135 1.766861700873577e7 0.0
1.766861700873577e7 -3.22064060285809e7 0.0
0.0 0.0 0.0

-5.031718933182937e6 2.250519649220906e7 0.0
2.250519649220906e7 -2.1208812516966116e7 0.0
0.0 0.0 0.0

-3.1933039999165162e6 3.3412349401583276e6 0.0
3.3412349401583276e6 1.0033995250227977e8 0.0
0.0 0.0 0.0

-6.032914041769808e6 4.7073079922980934e7 0.0
4.7073079922980934e7 1.462706167973681e6 0.0
0.0 0.0 0.0

398378.55696293653 6.509341545084311e6 0.0
6.509341545084311e6 -2.0543589071969246e6 0.0
0.0 0.0 0.0

-1.7794859070249503e6 2.4658295913832784e7 0.0
2.4658295913832784e7 1.5376723463819758e6 0.0
0.0 0.0 0.0

4.986787085181072e6 2.572578994510305e7 0.0
2.572578994510305e7 1.4789392172170335e7 0.0
0.0 0.0 0.0

-4.669379727204174e6 2.0178796069397602e7 0.0
2.0178796069397602e7 3.2425060617554817e7 0.0
0.0 0.0 0.0

-1.7426698645789057e7 3.1503504436127115e7 0.0
3.1503504436127115e7 2.321954009610406e6 0.0
0.0 0.0 0.0

6.947480936506242e6 2.6714031736337364e7 0.0
2.6714031736337364e7 1.2998291852627782e7 0.0
0.0 0.0 0.0

4.1148778749512867e6 2.6420655336779404e7 0.0
2.6420655336779404e7 1.3963136716654176e7 0.0
0.0 0.0 0.0

830986.4550818428 2.2907938494965196e7 0.0
2.2907938494965196e7 -2.1368303734451942e7 0.0
0.0 0.0 0.0

1.8432034677204257e6 5.769083748579806e6 0.0
5.769083748579806e6 -1.480410876051934e7 0.0
0.0 0.0 0.0

-1.0454455718612708e6 2.3722755907821905e7 0.0
2.3722755907821905e7 -1.8932013016773462e7 0.0
0.0 0.0 0.0

1.5328128677191995e6 2.672861122522658e7 0.0
2.672861122522658e7 -1.3325453752649385e7 0.0
0.0 0.0 0.0

-2.255022610830981e6 3.013844699132543e7 0.0
3.013844699132543e7 6.9221961865684595e6 0.0
0.0 0.0 0.0

3.911776283473594e6 2.816517908647088e7 0.0
2.816517908647088e7 -1.0696602229772398e7 0.0
0.0 0.0 0.0

2.92312915759208e6 2.7069233877338994e7 0.0
2.7069233877338994e7 -1.1818396946085026e7 0.0
0.0 0.0 0.0

2.017081741531672e6 4.176999088707831e6 0.0
4.176999088707831e6 -4.58892012952722e7 0.0
0.0 0.0 0.0

4.964537731560627e6 2.5812061182411823e7 0.0
2.5812061182411823e7 9.354198435004707e6 0.0
0.0 0.0 0.0

1.5858518097160393e6 2.75851909530637e7 0.0
2.75851909530637e7 -1.202662056271438e7 0.0
0.0 0.0 0.0

-8.041983192191049e6 1.7119108699768472e7 0.0
1.7119108699768472e7 2.7601460358598165e7 0.0
0.0 0.0 0.0

-1.1625732795759735e8 3.632229481632275e7 0.0
3.632229481632275e7 -2.0853595950513855e7 0.0
0.0 0.0 0.0

3.754151527817408e7 3.4291089479954824e7 0.0
3.4291089479954824e7 1.2513862807697791e8 0.0
0.0 0.0 0.0

-3.774279566615812e7 3.2893800314648096e7 0.0
3.2893800314648096e7 -1.2580956229440153e8 0.0
0.0 0.0 0.0

-2.3735683912320584e6 2.262969799337621e7 0.0
2.262969799337621e7 2.8262867655543104e7 0.0
0.0 0.0 0.0

676052.3374158349 1.722566863417259e7 0.0
1.722566863417259e7 -2.79159542987882e7 0.0
0.0 0.0 0.0

-5.089876571971273e6 2.460759809295531e7 0.0
2.460759809295531e7 -1.670710449408839e7 0.0
0.0 0.0 0.0

4.676383401015995e6 4.7953343177578114e7 0.0
4.7953343177578114e7 -3.065404801743513e6 0.0
0.0 0.0 0.0

-2.808250711382822e6 2.1306398935205497e7 0.0
2.1306398935205497e7 -2.6749845572082292e7 0.0
0.0 0.0 0.0

-6.905795063867226e6 2.5711573987241928e7 0.0
2.5711573987241928e7 -1.0426845241948895e7 0.0
0.0 0.0 0.0

-6.721876237884233e6 1.9140511354997095e7 0.0
1.9140511354997095e7 2.8091136068211827e7 0.0
0.0 0.0 0.0

40458.50198860897 3.1450512305674884e7 0.0
3.1450512305674884e7 -1.7449993269905206e6 0.0
0.0 0.0 0.0

-4.331302195850724e6 1.957893287830218e7 0.0
1.957893287830218e7 -4.245204722276656e7 0.0
0.0 0.0 0.0

-3.0153500072766677e6 2.4485040586786706e7 0.0
2.4485040586786706e7 -9.405759358546136e6 0.0
0.0 0.0 0.0

-3.372536368416613e6 2.6738437733365823e7 0.0
2.6738437733365823e7 1.4628227372925814e7 0.0
0.0 0.0 0.0

2.528303530324096e7 2.746356734053113e7 0.0
2.746356734053113e7 2.298645998589402e6 0.0
0.0 0.0 0.0

2.1719188365035756e6 2.3965096657436736e7 0.0
2.3965096657436736e7 8.967940151289506e6 0.0
0.0 0.0 0.0

-2.973246187656831e6 2.3419857252404295e7 0.0
2.3419857252404295e7 2.463403984139695e7 0.0
0.0 0.0 0.0

-2.586462881434465e7 2.9942376290263586e7 0.0
2.9942376290263586e7 -3.4588237498550685e6 0.0
0.0 0.0 0.0

1.345464139362247e6 2.4378472291229974e7 0.0
2.4378472291229974e7 8.909770463838875e6 0.0
0.0 0.0 0.0

5.154748004937259e6 3.693018616813425e7 0.0
3.693018616813425e7 -5.211459891067458e6 0.0
0.0 0.0 0.0

1.4091078597264133e7 3.3374936023688857e7 0.0
3.3374936023688857e7 -5.618680365871625e6 0.0
0.0 0.0 0.0

1.3932034865344008e6 1.6441887106265634e7 0.0
1.6441887106265634e7 -2.0970321780244462e7 0.0
0.0 0.0 0.0

-1.7266051955232173e6 2.0920829943787698e7 0.0
2.0920829943787698e7 3.6330507906882495e7 0.0
0.0 0.0 0.0

-172375.46451549884 2.23437187652539e7 0.0
2.23437187652539e7 -2.2180192046176285e7 0.0
0.0 0.0 0.0

-1.8480451603408898e6 2.1654007299622133e7 0.0
2.1654007299622133e7 7.118968614937369e6 0.0
0.0 0.0 0.0

-4.449545279109532e6 2.2013190721293673e7 0.0
2.2013190721293673e7 2.1234685226864867e7 0.0
0.0 0.0 0.0

1.7812129194858023e6 8.387066548600155e6 0.0
8.387066548600155e6 -1.06530688862516e7 0.0
0.0 0.0 0.0

2.3212336728403633e6 2.262800038466155e7 0.0
2.262800038466155e7 1.3083853934564773e7 0.0
0.0 0.0 0.0

8.749611380969385e6 3.2418550136794895e7 0.0
3.2418550136794895e7 -6.941448341583619e6 0.0
0.0 0.0 0.0

-2.2657596874829456e6 1.3141424103243409e7 0.0
1.3141424103243409e7 -8.208989857896715e7 0.0
0.0 0.0 0.0

-8.436850719245957e6 1.6529313662751924e7 0.0
1.6529313662751924e7 2.6725699956712376e7 0.0
0.0 0.0 0.0

2.925209573541174e7 5.172008675511113e7 0.0
5.172008675511113e7 -6.896530665761694e6 0.0
0.0 0.0 0.0

1.1605336146332324e6 8.846629474383462e6 0.0
8.846629474383462e6 -5.230991790464223e7 0.0
0.0 0.0 0.0

1.428423025160401e6 2.259574057214753e7 0.0
2.259574057214753e7 1.0325511299921628e7 0.0
0.0 0.0 0.0

4.955412905120174e6 2.9633739310261045e7 0.0
2.9633739310261045e7 -9.64876706301555e6 0.0
0.0 0.0 0.0

1.784520224398893e7 2.7732460005956005e7 0.0
2.7732460005956005e7 1.7052943203325787e8 0.0
0.0 0.0 0.0

-1.8317252297693543e7 2.7385035594410464e7 0.0
2.7385035594410464e7 -1.6693731926591069e8 0.0
0.0 0.0 0.0

3.7779140398950264e7 2.4751165686448075e7 0.0
2.4751165686448075e7 7.900381506473571e6 0.0
0.0 0.0 0.0

1.619162801504451e7 3.2529690255433165e7 0.0
3.2529690255433165e7 -4.861825251575247e6 0.0
0.0 0.0 0.0

200659.33598122 1.2349260788056387e7 0.0
1.2349260788056387e7 -8.581639140025958e6 0.0
0.0 0.0 0.0

2.9375258930225313e7 4.59781094245208e7 0.0
4.59781094245208e7 -6.962278453736512e6 0.0
0.0 0.0 0.0

175408.03124437016 2.3772940686888855e7 0.0
2.3772940686888855e7 2.5148745446027588e7 0.0
0.0 0.0 0.0

2.091537859220578e7 2.698225726493823e7 0.0
2.698225726493823e7 2.2737620510227326e6 0.0
0.0 0.0 0.0

-3.3541923969320897e6 2.9193781171608977e7 0.0
2.9193781171608977e7 9.514338689380206e6 0.0
0.0 0.0 0.0

-3.673861541182925e6 1.9728558952997774e7 0.0
1.9728558952997774e7 1.972811154964536e7 0.0
0.0 0.0 0.0

-1.0229733648800547e6 4.077448948899724e6 0.0
4.077448948899724e6 -2.17579297067487e6 0.0
0.0 0.0 0.0

1.0061240071912074e7 2.6101276924970545e7 0.0
2.6101276924970545e7 1.721480004201915e7 0.0
0.0 0.0 0.0

1.5900777318310863e6 3.1415832914081637e7 0.0
3.1415832914081637e7 -7.020389282168543e6 0.0
0.0 0.0 0.0

-2.2054773811177183e6 2.2232065966570515e7 0.0
2.2232065966570515e7 3.0331580155720662e7 0.0
0.0 0.0 0.0

-6.320846171585784e6 3.0396981984148216e7 0.0
3.0396981984148216e7 1.0709641067362601e7 0.0
0.0 0.0 0.0

-2.527797743069723e6 2.864920272551958e7 0.0
2.864920272551958e7 1.051907076939855e7 0.0
0.0 0.0 0.0

-3.094053701918446e6 2.2154982010652587e7 0.0
2.2154982010652587e7 -7.904548757351464e6 0.0
0.0 0.0 0.0

736215.4989707898 2.0973935485533573e7 0.0
2.0973935485533573e7 4.021719581918556e7 0.0
0.0 0.0 0.0

-3.294923791258607e6 2.965315322841681e7 0.0
2.965315322841681e7 1.098241579027927e7 0.0
0.0 0.0 0.0

-3.5861833157927394e6 1.5628862580106603e7 0.0
1.5628862580106603e7 1.2455594424917797e7 0.0
0.0 0.0 0.0

-5.198343250925579e7 3.928664027741254e7 0.0
3.928664027741254e7 -1.048192215259026e7 0.0
0.0 0.0 0.0

-4.1556452295772918e6 6.157541450135485e6 0.0
6.157541450135485e6 7.063764734555832e7 0.0
0.0 0.0 0.0

-8.718074061804364e6 3.0844369578135945e7 0.0
3.0844369578135945e7 8.661166930341708e6 0.0
0.0 0.0 0.0

-9.896868356525742e6 3.750158375128224e7 0.0
3.750158375128224e7 6.322472144448841e6 0.0
0.0 0.0 0.0

-2.1745167965385765e6 1.892458831144052e7 0.0
1.892458831144052e7 -3.758091750595683e7 0.0
0.0 0.0 0.0

-2.873390922710989e6 4.279071217305885e7 0.0
4.279071217305885e7 1.7865978796625654e6 0.0
0.0 0.0 0.0

-7.993618205562592e6 4.8734942826498695e7 0.0
4.8734942826498695e7 1.5552970182982646e6 0.0
0.0 0.0 0.0

-1.0111709292970886e7 5.033808298375735e7 0.0
5.033808298375735e7 2.1505051033108914e6 0.0
0.0 0.0 0.0

554089.0374606969 3.4479406074673936e7 0.0
3.4479406074673936e7 -3.432396077408846e6 0.0
0.0 0.0 0.0

-6.663430004000571e6 1.5636573592844658e7 0.0
1.5636573592844658e7 4.0074412472352624e7 0.0
0.0 0.0 0.0

2.0543141452343222e6 1.3020969426154273e6 0.0
1.3020969426154273e6 -4.2784686734760255e7 0.0
0.0 0.0 0.0

-659904.2027171701 2.212758892874257e7 0.0
2.212758892874257e7 3.368812867308232e7 0.0
0.0 0.0 0.0

4.520636230661082e6 3.815248529398491e7 0.0
3.815248529398491e7 -4.561300280775871e6 0.0
0.0 0.0 0.0

-106493.57570716552 1.9610744589126166e7 0.0
1.9610744589126166e7 -2.8359009187155083e7 0.0
0.0 0.0 0.0

-6.175968496626705e6 877210.3232867874 0.0
877210.3232867874 5.5727264122023225e7 0.0
0.0 0.0 0.0

437486.31844309263 2.4130068669112608e7 0.0
2.4130068669112608e7 1.9009906869515073e6 0.0
0.0 0.0 0.0

1.69378462424283e6 2.4929631770550728e7 0.0
2.4929631770550728e7 -1.3298715394982427e7 0.0
0.0 0.0 0.0

-439145.17457455676 2.3129555198485013e7 0.0
2.3129555198485013e7 -1.805979928525107e7 0.0
0.0 0.0 0.0

-5.359378669770957e6 2.027677255363367e7 0.0
2.027677255363367e7 -1.887647388851269e7 0.0
0.0 0.0 0.0

-8.910038310730642e6 -1.0520735528905918e6 0.0
-1.0520735528905918e6 2.5758611169776917e7 0.0
0.0 0.0 0.0

-502012.3549682452 2.2490259216597483e7 0.0
2.2490259216597483e7 -2.797010901928687e6 0.0
0.0 0.0 0.0

4.837274876412433e6 2.4611397851905636e7 0.0
2.4611397851905636e7 8.466559867537897e6 0.0
0.0 0.0 0.0

2.7528523271923292e7 2.5447746185544733e7 0.0
2.5447746185544733e7 1.1118941045305414e7 0.0
0.0 0.0 0.0

-1.1240616217272278e7 5.313094203335776e7 0.0
5.313094203335776e7 3.2728054263328025e6 0.0
0.0 0.0 0.0

-3.8444363298034137e6 2.0202125881645266e7 0.0
2.0202125881645266e7 2.089098528414656e7 0.0
0.0 0.0 0.0

-1.3831724978852067e7 2.1450927465997662e7 0.0
2.1450927465997662e7 -8.178195552974302e7 0.0
0.0 0.0 0.0

1.8116363292067908e6 7.777538025232016e6 0.0
7.777538025232016e6 -4.354552161503744e7 0.0
0.0 0.0 0.0

-7.422765869864957e6 -2.1264668290137444e6 0.0
-2.1264668290137444e6 3.715905595111063e7 0.0
0.0 0.0 0.0

-2.8089116112962566e7 3.371459537766423e7 0.0
3.371459537766423e7 -1.3489942335129783e7 0.0
0.0 0.0 0.0

-2.6557531464468688e7 3.043308485661222e7 0.0
3.043308485661222e7 -6.489445295675248e6 0.0
0.0 0.0 0.0

-3.0831223995932485e6 2.281402624164e7 0.0
2.281402624164e7 -9.937969134436328e6 0.0
0.0 0.0 0.0

1.5548501131928656e6 3.737303483789992e7 0.0
3.737303483789992e7 -3.178409237565673e6 0.0
0.0 0.0 0.0

-954230.4894176647 7.369532955644686e6 0.0
7.369532955644686e6 -7.774161298208892e7 0.0
0.0 0.0 0.0

1.3259251740358837e7 2.847214254316985e7 0.0
2.847214254316985e7 -2.7712449228333533e6 0.0
0.0 0.0 0.0

9.32015914489574e6 2.7342847078122165e7 0.0
2.7342847078122165e7 1.4604971452911003e7 0.0
0.0 0.0 0.0

1.3488824296660665e6 1.6996726846124444e7 0.0
1.6996726846124444e7 -2.760634549881669e7 0.0
0.0 0.0 0.0

-1.0900160788532295e6 2.9078421358119026e7 0.0
2.9078421358119026e7 1.3291772019829173e6 0.0
0.0 0.0 0.0

1.3068242195916418e6 1.5771462924100388e7 0.0
1.5771462924100388e7 -1.9855851618468605e7 0.0
0.0 0.0 0.0

589538.0291504655 1.6542542564983191e7 0.0
1.6542542564983191e7 -2.9834244278127495e7 0.0
0.0 0.0 0.0

-3.877066864990399e6 2.1369224948048834e7 0.0
2.1369224948048834e7 -1.9412626388603114e7 0.0
0.0 0.0 0.0

-1.0124695995588318e7 3.6260665693544656e7 0.0
3.6260665693544656e7 6.275462154535154e6 0.0
0.0 0.0 0.0

-2.0873208196709525e7 2.5810130931398887e7 0.0
2.5810130931398887e7 -9.444835703149964e7 0.0
0.0 0.0 0.0

2.4503630340022314e7 4.497279989324335e7 0.0
4.497279989324335e7 -5.842541925353916e6 0.0
0.0 0.0 0.0

1.0452988014959715e7 3.2394530821549267e7 0.0
3.2394530821549267e7 -6.257410946010426e6 0.0
0.0 0.0 0.0

-2.828694843450183e6 3.94365830285355e7 0.0
3.94365830285355e7 2.72261027214137e6 0.0
0.0 0.0 0.0

-3.886104840451788e6 2.8851544491129678e7 0.0
2.8851544491129678e7 1.2705603912116427e7 0.0
0.0 0.0 0.0

-776321.9854507633 6.0059650539503135e6 0.0
6.0059650539503135e6 -8.140501448311222e7 0.0
0.0 0.0 0.0

-3.4732663574458994e6 2.6300106457979653e7 0.0
2.6300106457979653e7 1.770609267846005e7 0.0
0.0 0.0 0.0

153855.49568563327 5.730679334919445e6 0.0
5.730679334919445e6 -6.556878126429275e7 0.0
0.0 0.0 0.0

508924.2845126013 2.5888030875395276e7 0.0
2.5888030875395276e7 -9.85399683492534e6 0.0
0.0 0.0 0.0

313235.74468375416 2.4789640440754734e7 0.0
2.4789640440754734e7 -1.0285863070035966e7 0.0
0.0 0.0 0.0

-1.4796440550081385e6 2.1868563349762894e7 0.0
2.1868563349762894e7 -4.432680036791333e6 0.0
0.0 0.0 0.0

-1.8653086353917504e6 2.427272953946516e7 0.0
2.427272953946516e7 2.1192329744047776e7 0.0
0.0 0.0 0.0

-725207.995150219 3.2907387927363064e7 0.0
3.2907387927363064e7 -2.2004328335505016e6 0.0
0.0 0.0 0.0

-3.0998277204482825e6 2.4566481537230466e7 0.0
2.4566481537230466e7 1.7332588298260197e7 0.0
0.0 0.0 0.0

-7.0788509451370705e6 -1.7172412383103487e6 0.0
-1.7172412383103487e6 4.222351680844239e7 0.0
0.0 0.0 0.0

1.049922393073637e6 7.322143733421576e6 0.0
7.322143733421576e6 -4.592135515900179e7 0.0
0.0 0.0 0.0

1.318472871603787e6 1.0166863958935263e7 0.0
1.0166863958935263e7 -3.527600384902617e7 0.0
0.0 0.0 0.0

3.2841591817698693e6 4.148764373795694e7 0.0
4.148764373795694e7 -2.138545678387488e6 0.0
0.0 0.0 0.0

-4.1370688422305556e6 2.4612566849782836e7 0.0
2.4612566849782836e7 -1.4180186575183056e7 0.0
0.0 0.0 0.0

-1.2203939489036016e6 1.7954510364203103e7 0.0
1.7954510364203103e7 -3.7886700603086054e7 0.0
0.0 0.0 0.0

5.576671570706766e6 2.2867657094309818e7 0.0
2.2867657094309818e7 1.8962184060648058e7 0.0
0.0 0.0 0.0

-9.41542771372775e6 4.690397077984311e6 0.0
4.690397077984311e6 2.8834179760810554e7 0.0
0.0 0.0 0.0

1.0330018013438731e7 2.809186127386895e7 0.0
2.809186127386895e7 1.5763941272478646e7 0.0
0.0 0.0 0.0

-1.8403608715043392e7 4.011742838666679e7 0.0
4.011742838666679e7 6.8445265227586e6 0.0
0.0 0.0 0.0

6.752540730851103e6 2.532786752044874e7 0.0
2.532786752044874e7 9.433562623628328e6 0.0
0.0 0.0 0.0

4.614088040238954e6 2.1403882360871833e7 0.0
2.1403882360871833e7 2.024443355067814e7 0.0
0.0 0.0 0.0

-6.993946825650656e6 3.539209072972582e7 0.0
3.539209072972582e7 6.698302109402216e6 0.0
0.0 0.0 0.0

-2.579674992111915e6 2.5149908121667292e7 0.0
2.5149908121667292e7 2.050108053999246e7 0.0
0.0 0.0 0.0

2.535641968132198e6 2.0442416233331244e7 0.0
2.0442416233331244e7 4.8775639027737424e7 0.0
0.0 0.0 0.0

-2.5678025169987585e7 3.1103918424560234e7 0.0
3.1103918424560234e7 -4.1391484278644715e6 0.0
0.0 0.0 0.0

-1.587018892832359e7 2.9785417088618305e7 0.0
2.9785417088618305e7 2.1462761322060926e6 0.0
0.0 0.0 0.0

-1.3664763682713442e7 1.9507480794155028e7 0.0
1.9507480794155028e7 -2.904832162401762e6 0.0
0.0 0.0 0.0

-1.0643228036456522e8 4.22859440213258e7 0.0
4.22859440213258e7 -1.4319822214048848e7 0.0
0.0 0.0 0.0

1.6989376510618065e7 2.525614205771509e7 0.0
2.525614205771509e7 1.0137579430645017e7 0.0
0.0 0.0 0.0

-3.6498902446542364e6 1.9228920054187156e7 0.0
1.9228920054187156e7 -3.904212334370059e7 0.0
0.0 0.0 0.0

-3.1208064569271756e6 2.82646923711949e7 0.0
2.82646923711949e7 9.993899926690726e6 0.0
0.0 0.0 0.0

1.18740023755077e6 2.415634609435957e7 0.0
2.415634609435957e7 -1.812374302480509e7 0.0
0.0 0.0 0.0

5.894426424219831e7 2.044574984273926e7 0.0
2.044574984273926e7 4.090551176631937e6 0.0
0.0 0.0 0.0

-8.445901596826512e6 -1.101979271928918e6 0.0
-1.101979271928918e6 1.674634781059956e7 0.0
0.0 0.0 0.0

3.0904186074596373e6 2.2461198410751834e6 0.0
2.2461198410751834e6 -1.7966308153195824e7 0.0
0.0 0.0 0.0

1.0135735872804374e6 2.5025588944153696e7 0.0
2.5025588944153696e7 -1.5385942522798456e7 0.0
0.0 0.0 0.0

-807778.6160409193 2.3636825231239837e7 0.0
2.3636825231239837e7 -1.0034372018843107e6 0.0
0.0 0.0 0.0

-6.216370139368985e6 6.696512353795019e6 0.0
6.696512353795019e6 5.5252509001931995e7 0.0
0.0 0.0 0.0

1.2144781734355314e7 3.383728524422758e7 0.0
3.383728524422758e7 -6.040590838509229e6 0.0
0.0 0.0 0.0

-1.721248528605639e7 5.505904853633727e7 0.0
5.505904853633727e7 3.8929586006644173e6 0.0
0.0 0.0 0.0

1.6111716586914644e7 2.6383165187737167e7 0.0
2.6383165187737167e7 9.273449892251167e6 0.0
0.0 0.0 0.0

-7.588375975700468e6 -2.361816623698954e6 0.0
-2.361816623698954e6 3.475880191781089e7 0.0
0.0 0.0 0.0

-3.056280514715405e7 3.1694006621606085e7 0.0
3.1694006621606085e7 -6.238207367699061e6 0.0
0.0 0.0 0.0

1.4966758843930557e6 2.294502061694033e7 0.0
2.294502061694033e7 8.406379753099691e6 0.0
0.0 0.0 0.0

-2.384406808494276e7 5.7766598795393035e7 0.0
5.7766598795393035e7 4.990683783657131e6 0.0
0.0 0.0 0.0

-4.811453850249752e6 2.095084858788647e7 0.0
2.095084858788647e7 2.7490286544086438e7 0.0
0.0 0.0 0.0

3.408230687570956e6 2.4896485765525237e7 0.0
2.4896485765525237e7 -1.1153777720583528e6 0.0
0.0 0.0 0.0

-9.025808163095342e6 2.1013949777116504e7 0.0
2.1013949777116504e7 -3.2057554751921367e7 0.0
0.0 0.0 0.0

-3.855326047586634e6 2.2798060675106138e7 0.0
2.2798060675106138e7 -1.3603613635249658e7 0.0
0.0 0.0 0.0

1.1759579225759469e7 2.7999468403537016e7 0.0
2.7999468403537016e7 -3.5070435461612074e6 0.0
0.0 0.0 0.0

4.987709836746353e7 5.691361998331393e7 0.0
5.691361998331393e7 -1.125043985613281e7 0.0
0.0 0.0 0.0

-8.841203470925251e6 -364135.9682788635 0.0
-364135.9682788635 2.7402221217898563e7 0.0
0.0 0.0 0.0

4.0429190528590456e6 4.579950769056074e7 0.0
4.579950769056074e7 -3.4101192942858394e6 0.0
0.0 0.0 0.0

6.687887524752641e6 3.856690208551595e7 0.0
3.856690208551595e7 -3.9348625351851257e6 0.0
0.0 0.0 0.0

-7.741547344295921e6 1.7621220605807642e6 0.0
1.7621220605807642e6 4.5047542096028425e7 0.0
0.0 0.0 0.0

2.011897721975116e6 1.3876617477608847e6 0.0
1.3876617477608847e6 -4.338137734476098e7 0.0
0.0 0.0 0.0

-4.97623529783494e6 3.205273796074669e7 0.0
3.205273796074669e7 9.350459563115092e6 0.0
0.0 0.0 0.0

8.379823636798836e6 2.762487496349515e7 0.0
2.762487496349515e7 1.5912686582711082e7 0.0
0.0 0.0 0.0

-4.648209416159292e6 7.855901963413067e6 0.0
7.855901963413067e6 5.632908466394668e6 0.0
0.0 0.0 0.0

-6.124613024261542e6 1.910479428152252e7 0.0
1.910479428152252e7 2.788821451841394e7 0.0
0.0 0.0 0.0

6.859124957804266e6 2.7055557345742863e7 0.0
2.7055557345742863e7 1.6234480108593376e7 0.0
0.0 0.0 0.0

-512251.83549687034 2.078592847552449e7 0.0
2.078592847552449e7 -1.4184119672335742e7 0.0
0.0 0.0 0.0

-4.774487133943908e6 2.0880043439131238e7 0.0
2.0880043439131238e7 -2.1296107771388948e7 0.0
0.0 0.0 0.0

3.546557553281079e6 3.537592358993411e7 0.0
3.537592358993411e7 -5.3952871750007775e6 0.0
0.0 0.0 0.0

-8.766268525673257e6 -1.171302215769635e6 0.0
-1.171302215769635e6 1.960074287543733e7 0.0
0.0 0.0 0.0

-1.6160551363317177e6 2.3687686151620362e7 0.0
2.3687686151620362e7 5.323579578336537e6 0.0
0.0 0.0 0.0

-3.9474454844362605e6 2.0150260365528844e7 0.0
2.0150260365528844e7 3.463605904808302e7 0.0
0.0 0.0 0.0

805525.4938196987 1.6987039737593114e7 0.0
1.6987039737593114e7 -1.614842841692234e7 0.0
0.0 0.0 0.0

3.179206241896042e6 2.8640569666297622e7 0.0
2.8640569666297622e7 -1.1483563627589216e7 0.0
0.0 0.0 0.0

5.710524282593768e6 5.039773506500269e7 0.0
5.039773506500269e7 -740260.1539867162 0.0
0.0 0.0 0.0

-2.031805487444548e6 1.7390834269643325e7 0.0
1.7390834269643325e7 -4.053565963366758e7 0.0
0.0 0.0 0.0

-5.5561614890887275e7 5.8034015073393196e7 0.0
5.8034015073393196e7 7.112556091672339e6 0.0
0.0 0.0 0.0

260188.38672549964 1.62945446509435e6 0.0
1.62945446509435e6 -104628.1030888547 0.0
0.0 0.0 0.0

-198078.3359396679 1.9357199788510283e6 0.0
1.9357199788510283e6 -1.5522508004632518e6 0.0
0.0 0.0 0.0

7.555512512948776e6 2.2556176219129264e7 0.0
2.2556176219129264e7 3.6136704951464266e7 0.0
0.0 0.0 0.0

7.039086491406316e6 2.5190855259817082e7 0.0
2.5190855259817082e7 1.856678495232727e7 0.0
0.0 0.0 0.0

648244.0585795725 2.403023331035628e7 0.0
2.403023331035628e7 1.1387267114659557e7 0.0
0.0 0.0 0.0

-7.075457882779568e6 1.722310295840726e7 0.0
1.722310295840726e7 2.777948489823304e7 0.0
0.0 0.0 0.0

1.0291019182181444e7 6.155296512051833e6 0.0
6.155296512051833e6 -1.5243975441266536e6 0.0
0.0 0.0 0.0

-2.2095126719700815e6 2.608776497840123e7 0.0
2.608776497840123e7 1.2184000163498303e7 0.0
0.0 0.0 0.0

788014.0018379287 3.704502802911906e7 0.0
3.704502802911906e7 -820806.9377679607 0.0
0.0 0.0 0.0

-3.2358846004229784e6 1.8489307837437287e7 0.0
1.8489307837437287e7 -4.319312091420204e7 0.0
0.0 0.0 0.0

1.4707337954014556e7 2.762954839383115e7 0.0
2.762954839383115e7 1.3690074797199473e7 0.0
0.0 0.0 0.0

2.2584806180803865e7 2.7097382359743122e7 0.0
2.7097382359743122e7 1.4706947751260344e7 0.0
0.0 0.0 0.0

-3.265569171618151e7 6.006667041262756e7 0.0
6.006667041262756e7 8.031592088814871e6 0.0
0.0 0.0 0.0

3.1983815699664108e6 2.435949206670346e7 0.0
2.435949206670346e7 1.1838800951139258e7 0.0
0.0 0.0 0.0

-9.768109947710324e6 1.185769913313413e7 0.0
1.185769913313413e7 1.7443231754639596e7 0.0
0.0 0.0 0.0

-8.421262842228053e6 1.5263737918944834e7 0.0
1.5263737918944834e7 3.362754696427125e7 0.0
0.0 0.0 0.0

374085.8534186736 3.608109572501289e7 0.0
3.608109572501289e7 -2.0853936814093003e6 0.0
0.0 0.0 0.0

1.0303421115141096e7 2.4593390576086048e7 0.0
2.4593390576086048e7 1.770571927693955e7 0.0
0.0 0.0 0.0

-5.076387203649495e6 5.718341632839715e6 0.0
5.718341632839715e6 7.78302229883223e7 0.0
0.0 0.0 0.0

1.8163263916731747e6 2.292152192880146e7 0.0
2.292152192880146e7 2.115373873662619e7 0.0
0.0 0.0 0.0

-1.3714027945689814e7 2.0760532568638902e7 0.0
2.0760532568638902e7 -4.864601071141899e7 0.0
0.0 0.0 0.0

7.299599052338855e6 2.670600969078387e7 0.0
2.670600969078387e7 1.6511851685722765e7 0.0
0.0 0.0 0.0

-2.0845515761339944e6 2.160565649034405e7 0.0
2.160565649034405e7 3.216575148195906e7 0.0
0.0 0.0 0.0

-456650.0373057509 1.9498242553872824e7 0.0
1.9498242553872824e7 -1.47066364798689e7 0.0
0.0 0.0 0.0

9.495504749517418e6 2.1756914831188813e7 0.0
2.1756914831188813e7 9.496589622757109e7 0.0
0.0 0.0 0.0

1.2407402450656326e7 3.205047177795172e7 0.0
3.205047177795172e7 -5.4530672324547395e6 0.0
0.0 0.0 0.0

358592.82038732804 2.1854270680486143e7 0.0
2.1854270680486143e7 -2.2751422243118703e7 0.0
0.0 0.0 0.0

-609628.4572765192 1.5772583976085605e7 0.0
1.5772583976085605e7 -6.493458448897821e6 0.0
0.0 0.0 0.0

1.593702884832345e6 3.031694621184717e6 0.0
3.031694621184717e6 -5.454390433458015e7 0.0
0.0 0.0 0.0

5.310138547528917e6 4.791000886050991e7 0.0
4.791000886050991e7 -488716.9112621336 0.0
0.0 0.0 0.0

-7.813546440380659e6 1.6032350699608468e7 0.0
1.6032350699608468e7 3.449154956009196e7 0.0
0.0 0.0 0.0

5.731220697118102e6 2.1034517696639065e7 0.0
2.1034517696639065e7 2.7110126262199245e7 0.0
0.0 0.0 0.0

-1.1385535971113425e7 3.152885213231098e7 0.0
3.152885213231098e7 5.921698490462779e6 0.0
0.0 0.0 0.0

-1.730868400946072e6 2.633438218389476e7 0.0
2.633438218389476e7 2.8938559556111502e6 0.0
0.0 0.0 0.0

-6.178123482280329e6 1.9667803750757646e7 0.0
1.9667803750757646e7 2.830361238621175e7 0.0
0.0 0.0 0.0

1.2207651464614607e6 1.2460994215321643e7 0.0
1.2460994215321643e7 -2.826152390624557e7 0.0
0.0 0.0 0.0

-1.6355752939257497e7 5.098289847423374e7 0.0
5.098289847423374e7 7.099383868369538e6 0.0
0.0 0.0 0.0

3.1442045876492176e7 1.458530472308299e7 0.0
1.458530472308299e7 1.3894081525687296e6 0.0
0.0 0.0 0.0

-9.983931168503894e6 1.7750496562348534e6 0.0
1.7750496562348534e6 2.5323185065032575e7 0.0
0.0 0.0 0.0

-8.843074995282844e6 3.689754792599325e7 0.0
3.689754792599325e7 5.984504474136965e6 0.0
0.0 0.0 0.0

-3.500115080546745e7 2.7381729671159565e7 0.0
2.7381729671159565e7 1.4541205811573546e6 0.0
0.0 0.0 0.0

-5.268699385264384e6 2.606904856830972e7 0.0
2.606904856830972e7 -1.3784361272790471e7 0.0
0.0 0.0 0.0

-6.865845951242265e7 4.0610263097902924e7 0.0
4.0610263097902924e7 -6.648314590403216e6 0.0
0.0 0.0 0.0

-6.148014261850606e6 2.63322108660687e7 0.0
2.63322108660687e7 -8.139271449243338e6 0.0
0.0 0.0 0.0

-3.4157341276598126e6 2.227385974332675e7 0.0
2.227385974332675e7 2.1590580248996265e7 0.0
0.0 0.0 0.0

-7.72960850550939e6 1.6270089918905906e7 0.0
1.6270089918905906e7 2.9272353718340334e7 0.0
0.0 0.0 0.0

-5.356433544067341e6 1.979694080243523e7 0.0
1.979694080243523e7 2.024444686545261e7 0.0
0.0 0.0 0.0

-4.8279987668214105e6 2.870283249895823e7 0.0
2.870283249895823e7 1.3371485244182836e7 0.0
0.0 0.0 0.0

-6.320073071731608e6 2.9818536496943925e6 0.0
2.9818536496943925e6 5.540906755121273e7 0.0
0.0 0.0 0.0

-531661.4702874374 2.232486838856915e7 0.0
2.232486838856915e7 -1.3790734748919064e6 0.0
0.0 0.0 0.0

1.2518917939638244e6 1.419108087649534e7 0.0
1.419108087649534e7 -1.701189483030517e7 0.0
0.0 0.0 0.0

823973.618912789 1.9729070753779683e7 0.0
1.9729070753779683e7 -2.375213508243416e7 0.0
0.0 0.0 0.0

-7.517353680917241e6 -725297.4221104756 0.0
-725297.4221104756 3.77757924349521e7 0.0
0.0 0.0 0.0

-1.4044654604788283e6 2.2795093493498486e7 0.0
2.2795093493498486e7 833214.8991128284 0.0
0.0 0.0 0.0

-9.51272201249157e6 3.1779131665205788e7 0.0
3.1779131665205788e7 7.229525029102013e6 0.0
0.0 0.0 0.0

4.3489366498398995e6 2.2478175393558305e7 0.0
2.2478175393558305e7 3.5639808173379645e7 0.0
0.0 0.0 0.0

1.0115085659111151e6 2.411545512024521e7 0.0
2.411545512024521e7 -1.5967843780034808e7 0.0
0.0 0.0 0.0

842013.066676891 2.2913164709075645e7 0.0
2.2913164709075645e7 6.041388631320868e6 0.0
0.0 0.0 0.0

3.4636418293345077e6 4.423795782793221e7 0.0
4.423795782793221e7 -3.026487297729807e6 0.0
0.0 0.0 0.0

2.814830251540222e6 2.559699864824882e7 0.0
2.559699864824882e7 -1.246378242013626e7 0.0
0.0 0.0 0.0

1.3350510078455496e8 4.737158939625733e7 0.0
4.737158939625733e7 3.4937961076644957e6 0.0
0.0 0.0 0.0

6.416899727660734e6 2.552997612125984e7 0.0
2.552997612125984e7 -2.947605245761188e6 0.0
0.0 0.0 0.0

-3.3208251070345016e6 2.1907017371688668e7 0.0
2.1907017371688668e7 -2.769070116808868e7 0.0
0.0 0.0 0.0

4.617209304944262e6 2.7968362188984543e7 0.0
2.7968362188984543e7 -1.03896214401319e7 0.0
0.0 0.0 0.0

-3.632588293748979e7 3.446053632139839e7 0.0
3.446053632139839e7 -8.36051237712032e6 0.0
0.0 0.0 0.0

-6.8014353099218765e6 3.0578887608191393e7 0.0
3.0578887608191393e7 9.24392763614963e6 0.0
0.0 0.0 0.0

2.283221949717474e7 2.7125821385008793e7 0.0
2.7125821385008793e7 8.493266857141426e6 0.0
0.0 0.0 0.0

-4.966691697615789e6 1.7741399678885512e7 0.0
1.7741399678885512e7 -5.274224327614232e7 0.0
0.0 0.0 0.0

9.04012823009572e6 2.120997706956908e7 0.0
2.120997706956908e7 4.700354531788778e7 0.0
0.0 0.0 0.0

2.6492031525034644e6 5.563893231545916e6 0.0
5.563893231545916e6 -3.321039988488819e7 0.0
0.0 0.0 0.0

4.825876787333254e6 2.9115101664595976e7 0.0
2.9115101664595976e7 -9.81243467835747e6 0.0
0.0 0.0 0.0

449625.062171299 4.628255445626267e6 0.0
4.628255445626267e6 -6.372530898491034e7 0.0
0.0 0.0 0.0

2.7668628191652074e6 2.8291736022347234e7 0.0
2.8291736022347234e7 -1.1816953277248101e7 0.0
0.0 0.0 0.0

1.0504066372332288e7 3.396837824864989e7 0.0
3.396837824864989e7 -6.322860976655503e6 0.0
0.0 0.0 0.0

-1.4305190582119245e6 2.60906658654984e7 0.0
2.60906658654984e7 2.3035591376883136e6 0.0
0.0 0.0 0.0

-1.748250103391697e7 3.96701456672232e7 0.0
3.96701456672232e7 5.487781068567349e6 0.0
0.0 0.0 0.0

-2.3836924617799763e6 2.182003830153407e7 0.0
2.182003830153407e7 3.2387897482936483e7 0.0
0.0 0.0 0.0

2.348713102744487e6 2.2887805298866536e7 0.0
2.2887805298866536e7 1.3120200362095233e7 0.0
0.0 0.0 0.0

-4.668639956648411e7 4.455531638559701e7 0.0
4.455531638559701e7 7.380066863496035e6 0.0
0.0 0.0 0.0

2.2428627848708384e7 2.7269881552138817e7 0.0
2.7269881552138817e7 1.5501390353010926e7 0.0
0.0 0.0 0.0

-5.444203300376644e6 1.4906793677614441e7 0.0
1.4906793677614441e7 1.1343209636958135e7 0.0
0.0 0.0 0.0

-7.075739241952613e6 3.6246210353098646e7 0.0
3.6246210353098646e7 5.83668158660144e6 0.0
0.0 0.0 0.0

-7.200884818868861e6 2.6876881810294583e7 0.0
2.6876881810294583e7 -1.088588174748877e7 0.0
0.0 0.0 0.0

953981.0209150342 1.7572759724112034e7 0.0
1.7572759724112034e7 -1.7182335285207614e7 0.0
0.0 0.0 0.0

1.9128557946195956e6 1.1913024113151527e6 0.0
1.1913024113151527e6 -4.567995602577071e7 0.0
0.0 0.0 0.0

-2.7840877476136833e6 2.1601803909861606e7 0.0
2.1601803909861606e7 -1.1881181150782095e7 0.0
0.0 0.0 0.0

6.436806781167121e7 7.739740472892533e6 0.0
7.739740472892533e6 -508967.4983083047 0.0
0.0 0.0 0.0

-1.9119886300374586e6 2.1237975064963005e7 0.0
2.1237975064963005e7 3.4185705722286485e7 0.0
0.0 0.0 0.0

-9.36348032918584e6 3.5177151841846004e7 0.0
3.5177151841846004e7 6.807204356858455e6 0.0
0.0 0.0 0.0

-6.499947103052359e6 -1.0891437657824564e6 0.0
-1.0891437657824564e6 5.0275585270026855e7 0.0
0.0 0.0 0.0

-2.7946816226119096e6 4.343973011661068e7 0.0
4.343973011661068e7 641397.9355747594 0.0
0.0 0.0 0.0

-2.7824211795695823e7 2.992504678014435e7 0.0
2.992504678014435e7 -6.080218979311882e6 0.0
0.0 0.0 0.0

621404.8938170541 2.2555028495640166e7 0.0
2.2555028495640166e7 -2.1174421144343562e7 0.0
0.0 0.0 0.0

7.140961406946673e6 2.2348402720978517e7 0.0
2.2348402720978517e7 3.231226411671766e7 0.0
0.0 0.0 0.0

527850.8303500807 2.4085876365076948e7 0.0
2.4085876365076948e7 5.814888002552354e6 0.0
0.0 0.0 0.0

-2.30513881110294e6 2.691230804626444e7 0.0
2.691230804626444e7 1.1075920114626018e7 0.0
0.0 0.0 0.0

228507.8408570513 1.6726692443803977e7 0.0
1.6726692443803977e7 -1.8354173715025455e7 0.0
0.0 0.0 0.0

2.0369976241539866e6 1.1877617001020335e7 0.0
1.1877617001020335e7 -2.725997034768068e7 0.0
0.0 0.0 0.0

-1.3227368134089122e6 1.092082089914807e7 0.0
1.092082089914807e7 -6.443391799531678e6 0.0
0.0 0.0 0.0

-6.247321098186992e6 3.55504464895044e7 0.0
3.55504464895044e7 5.7924901602413785e6 0.0
0.0 0.0 0.0

-673658.825760629 2.147579684269836e7 0.0
2.147579684269836e7 -1.2641856917956676e7 0.0
0.0 0.0 0.0

2.6009639736571208e7 1.418327589954027e7 0.0
1.418327589954027e7 1.2166746560385982e6 0.0
0.0 0.0 0.0

1.8961915077219699e6 1.3830472119382515e6 0.0
1.3830472119382515e6 -4.629371437561316e7 0.0
0.0 0.0 0.0

5.76793448611991e6 2.1280193931478105e7 0.0
2.1280193931478105e7 3.402891597318605e7 0.0
0.0 0.0 0.0

-321636.4725301415 1.04873531502597e7 0.0
1.04873531502597e7 -9.420772804255024e6 0.0
0.0 0.0 0.0

5.150800148027465e6 3.579916034695495e7 0.0
3.579916034695495e7 -4.741328145464178e6 0.0
0.0 0.0 0.0

1.1134796204896462e6 2.372370731284698e7 0.0
2.372370731284698e7 1.4823637659278957e7 0.0
0.0 0.0 0.0

-6.87986020682846e6 9.936292986202525e6 0.0
9.936292986202525e6 4.9777154506434426e7 0.0
0.0 0.0 0.0

-8.793856226368496e6 1.868890659250367e6 0.0
1.868890659250367e6 1.8339798401577074e7 0.0
0.0 0.0 0.0

1.1229017710717829e7 3.380580536377286e7 0.0
3.380580536377286e7 -6.106771574894578e6 0.0
0.0 0.0 0.0

-6.577871621658918e7 2.101930021751677e7 0.0
2.101930021751677e7 4.9596172694913e6 0.0
0.0 0.0 0.0

-149946.45922475867 2.06653983191059e7 0.0
2.06653983191059e7 -2.6398291007727567e7 0.0
0.0 0.0 0.0

8.435159907574117e6 1.4687342925488627e7 0.0
1.4687342925488627e7 3.946616936726439e6 0.0
0.0 0.0 0.0

-3.386496662047824e6 2.1883733932868056e7 0.0
2.1883733932868056e7 2.0920647996660918e7 0.0
0.0 0.0 0.0

-7.141956191286603e7 2.0294993160874613e7 0.0
2.0294993160874613e7 3.4030070332568027e6 0.0
0.0 0.0 0.0

-3.4520535892178295e6 2.103049446712477e7 0.0
2.103049446712477e7 -2.91425997621568e7 0.0
0.0 0.0 0.0

2.647286808690517e6 2.7262449225369163e7 0.0
2.7262449225369163e7 -1.274931391747206e7 0.0
0.0 0.0 0.0

1.0688437491898476e6 5.9968628080051625e6 0.0
5.9968628080051625e6 -4.0659229952703984e6 0.0
0.0 0.0 0.0

-1.494044486638726e7 2.8856432918833174e7 0.0
2.8856432918833174e7 -1.0912047382199628e7 0.0
0.0 0.0 0.0

1.1008332551377561e7 3.985299363408948e7 0.0
3.985299363408948e7 -5.518801338802835e6 0.0
0.0 0.0 0.0

-1.910166051191607e6 3.934522089358046e7 0.0
3.934522089358046e7 354971.7126490186 0.0
0.0 0.0 0.0

-2.5546981995495367e6 2.6654926389314238e7 0.0
2.6654926389314238e7 6.41512216674162e6 0.0
0.0 0.0 0.0

-5.619524936183061e6 1.8287769462066423e7 0.0
1.8287769462066423e7 3.6223925431948625e7 0.0
0.0 0.0 0.0

-3.250865837115476e6 2.6494203003918465e7 0.0
2.6494203003918465e7 1.744351511283855e7 0.0
0.0 0.0 0.0

-2.5893172798730684e6 4.21765354433676e7 0.0
4.21765354433676e7 524491.4309562215 0.0
0.0 0.0 0.0

552867.746974864 1.3962450346665516e7 0.0
1.3962450346665516e7 -1.9397014503192164e7 0.0
0.0 0.0 0.0

-2.4951675251880414e6 4.127743127127812e7 0.0
4.127743127127812e7 384164.8940340512 0.0
0.0 0.0 0.0

7.923709771238342e6 2.55107379988343e7 0.0
2.55107379988343e7 1.6265724036455138e7 0.0
0.0 0.0 0.0

-7.4178641459553875e6 1.610290193459773e7 0.0
1.610290193459773e7 3.4829353764446475e7 0.0
0.0 0.0 0.0

1.3953807930701803e6 3.001957879486939e6 0.0
3.001957879486939e6 -4.779011878636703e7 0.0
0.0 0.0 0.0

-1.1427168296984117e7 3.1292225008267697e7 0.0
3.1292225008267697e7 6.417256206731339e6 0.0
0.0 0.0 0.0

312310.8376649348 3.1985448007481404e7 0.0
3.1985448007481404e7 -4.902006775881619e6 0.0
0.0 0.0 0.0

2.125077982709142e6 3.178323105620419e7 0.0
3.178323105620419e7 -5.856915407459281e6 0.0
0.0 0.0 0.0

-9.082401862444988e7 5.272745624370001e7 0.0
5.272745624370001e7 -4.454502092174418e7 0.0
0.0 0.0 0.0

1.0922116014445182e6 2.3487037221855626e7 0.0
2.3487037221855626e7 -1.9655187000923023e7 0.0
0.0 0.0 0.0

669789.3525614009 3.5344755816018e7 0.0
3.5344755816018e7 -966792.764972301 0.0
0.0 0.0 0.0

-3.923196667771438e6 2.317247511923641e7 0.0
2.317247511923641e7 2.002105712275742e7 0.0
0.0 0.0 0.0

-3.9449436383092545e7 2.95519756698628e7 0.0
2.95519756698628e7 1.8548999666478634e6 0.0
0.0 0.0 0.0

1.2852552907436702e6 2.2926791853035234e7 0.0
2.2926791853035234e7 643955.4886911834 0.0
0.0 0.0 0.0

6.132609253497866e6 2.251475263464931e7 0.0
2.251475263464931e7 1.8754984410163023e7 0.0
0.0 0.0 0.0

1.3245043063065633e6 1.032831570670132e6 0.0
1.032831570670132e6 -5.869755033264538e7 0.0
0.0 0.0 0.0

-2.474028927943166e7 4.6987602158323936e7 0.0
4.6987602158323936e7 8.381132870723704e6 0.0
0.0 0.0 0.0

-6.336161604719199e6 666739.4944860734 0.0
666739.4944860734 5.150020524409263e7 0.0
0.0 0.0 0.0

-6.106059513052836e6 1.973289073937529e6 0.0
1.973289073937529e6 5.9966902402171284e7 0.0
0.0 0.0 0.0

-8.292480304976369e6 -643005.5553184493 0.0
-643005.5553184493 1.7094495179531544e7 0.0
0.0 0.0 0.0

-6.020907479257369e6 1.6516025442901064e7 0.0
1.6516025442901064e7 4.0605353680027604e7 0.0
0.0 0.0 0.0

6.190718997093826e6 2.023332127721236e7 0.0
2.023332127721236e7 1.2960810894563254e7 0.0
0.0 0.0 0.0

-690326.0596256815 1.962754365878175e7 0.0
1.962754365878175e7 -3.0651186207820624e7 0.0
0.0 0.0 0.0

-4.756580510568295e7 6.085205316035632e7 0.0
6.085205316035632e7 1.1510437919368986e7 0.0
0.0 0.0 0.0

-6.851256468128659e6 1.6716263522670517e7 0.0
1.6716263522670517e7 3.551382830026064e7 0.0
0.0 0.0 0.0

-5.30020595649403e6 1.7199341573583413e7 0.0
1.7199341573583413e7 -5.5466805146960266e7 0.0
0.0 0.0 0.0

-2.6450034190346133e7 2.942574636739505e7 0.0
2.942574636739505e7 -5.602430458415846e6 0.0
0.0 0.0 0.0

-5.616681313062739e6 1.584199841986429e6 0.0
1.584199841986429e6 6.142641225823592e7 0.0
0.0 0.0 0.0

596701.4615565287 2.2079364835604604e7 0.0
2.2079364835604604e7 -1.8985964363145895e7 0.0
0.0 0.0 0.0

-1.1121025247831544e7 2.065334121607312e7 0.0
2.065334121607312e7 -6.295519514118327e7 0.0
0.0 0.0 0.0

-4.781560563951148e6 2.517356351274741e7 0.0
2.517356351274741e7 -9.868685077521365e6 0.0
0.0 0.0 0.0

-2.2705213163594473e7 2.700072226415023e7 0.0
2.700072226415023e7 -4.910571932936895e6 0.0
0.0 0.0 0.0

6.592207180217472e7 3.456600798687361e7 0.0
3.456600798687361e7 1.4559407321183015e7 0.0
0.0 0.0 0.0

-2.157372772384335e6 1.9297664646791987e7 0.0
1.9297664646791987e7 -4.783643431205928e6 0.0
0.0 0.0 0.0

1.2476308896289226e6 2.0350972960157093e7 0.0
2.0350972960157093e7 -2.1711442822741635e7 0.0
0.0 0.0 0.0

-4.145299308219434e6 2.096789608470064e7 0.0
2.096789608470064e7 -1.772460540962723e7 0.0
0.0 0.0 0.0

1.459761862390004e6 1.2761445382900988e6 0.0
1.2761445382900988e6 -5.928750225229874e7 0.0
0.0 0.0 0.0

2.9484769622418457e6 3.437709591134e7 0.0
3.437709591134e7 -4.299604115127295e6 0.0
0.0 0.0 0.0

-4.972675420368278e6 2.0300530746321697e7 0.0
2.0300530746321697e7 -3.2315611254961584e7 0.0
0.0 0.0 0.0

2.1936807306957403e6 2.6005558602123942e7 0.0
2.6005558602123942e7 -1.310573741299641e7 0.0
0.0 0.0 0.0

-259340.55905863945 2.3928623194039542e7 0.0
2.3928623194039542e7 2.5017359024084997e6 0.0
0.0 0.0 0.0

-4.545626462185709e6 1.4658674958741933e7 0.0
1.4658674958741933e7 1.468033298688922e7 0.0
0.0 0.0 0.0

-2.655361671004656e6 2.655345273837771e7 0.0
2.655345273837771e7 1.052348856959857e7 0.0
0.0 0.0 0.0

1.9905190132745598e6 2.1750469831807673e7 0.0
2.1750469831807673e7 3.64667182617292e7 0.0
0.0 0.0 0.0

2.4077235681608804e6 1.6181591896116515e6 0.0
1.6181591896116515e6 -3.7907806990483314e7 0.0
0.0 0.0 0.0

-1.6822935858552244e7 1.750739612145509e7 0.0
1.750739612145509e7 -361774.0464817388 0.0
0.0 0.0 0.0

9.286436274604281e6 2.748313535092263e7 0.0
2.748313535092263e7 1.5926298119526431e7 0.0
0.0 0.0 0.0

-2.1770088352063242e6 2.217679342096847e7 0.0
2.217679342096847e7 -2.1146773050964847e7 0.0
0.0 0.0 0.0

1.0049424446815947e8 1.3911514668506796e7 0.0
1.3911514668506796e7 242539.87644292787 0.0
0.0 0.0 0.0

16231.422461783513 2.0789242053393077e7 0.0
2.0789242053393077e7 -2.654144274311171e7 0.0
0.0 0.0 0.0

1.8503952309244755e6 3.295412887640751e7 0.0
3.295412887640751e7 -6.065566278367547e6 0.0
0.0 0.0 0.0

-1.979899299095352e6 2.847331859832882e7 0.0
2.847331859832882e7 170587.4663059134 0.0
0.0 0.0 0.0

1.1562967939296678e7 2.184408584428003e7 0.0
2.184408584428003e7 8.004087067600773e7 0.0
0.0 0.0 0.0

-6.232996318949938e6 1.5340350495540882e7 0.0
1.5340350495540882e7 4.276876369574441e7 0.0
0.0 0.0 0.0

-6.436164329637393e6 -1.6155436911227885e6 0.0
-1.6155436911227885e6 4.973187524631931e7 0.0
0.0 0.0 0.0

-7.217081166525912e6 8.333175870007984e6 0.0
8.333175870007984e6 5.187034536182266e7 0.0
0.0 0.0 0.0

-2.680093182864695e6 3.7948356134614974e7 0.0
3.7948356134614974e7 1.1195703070647793e6 0.0
0.0 0.0 0.0

1.2849239137504287e6 1.3655229332585877e7 0.0
1.3655229332585877e7 -2.9606565900982454e7 0.0
0.0 0.0 0.0

-3.0886359600298703e6 2.7999416909092955e7 0.0
2.7999416909092955e7 1.3176863468051704e7 0.0
0.0 0.0 0.0

1.3202277919564722e6 2.4172708743115734e7 0.0
2.4172708743115734e7 -1.816181034209055e7 0.0
0.0 0.0 0.0

-4.579190762005575e6 2.1013510360544972e7 0.0
2.1013510360544972e7 1.932382622585199e7 0.0
0.0 0.0 0.0

-5.985727885329945e6 3.1115338973741263e7 0.0
3.1115338973741263e7 9.76986112223299e6 0.0
0.0 0.0 0.0

1.4451915932277998e7 3.1435687157257438e7 0.0
3.1435687157257438e7 -4.6158237907417575e6 0.0
0.0 0.0 0.0

-3.1573400199947013e6 2.564432000003276e7 0.0
2.564432000003276e7 1.9349339501873754e7 0.0
0.0 0.0 0.0

-2.8421046088958317e6 2.698173437896887e7 0.0
2.698173437896887e7 1.503168943705919e7 0.0
0.0 0.0 0.0

-5.34610032352401e6 2.2077102983482644e7 0.0
2.2077102983482644e7 -1.934208319984614e7 0.0
0.0 0.0 0.0

-7.522798878133822e6 1.689225097008091e7 0.0
1.689225097008091e7 3.288877397898697e7 0.0
0.0 0.0 0.0

-2.222005099581904e6 3.779963452889759e7 0.0
3.779963452889759e7 2.5964735149001274e6 0.0
0.0 0.0 0.0

1.9848799760042615e6 4.820070505871104e6 0.0
4.820070505871104e6 -3.531683048018995e7 0.0
0.0 0.0 0.0

-4.666713031082947e6 4.1422191473474186e6 0.0
4.1422191473474186e6 7.634177401937546e7 0.0
0.0 0.0 0.0

-2.6759837706109975e6 2.4412348263708033e7 0.0
2.4412348263708033e7 -1.1474564127247944e7 0.0
0.0 0.0 0.0

-2.82058538942614e6 3.884433658356332e7 0.0
3.884433658356332e7 1.2000145699339758e6 0.0
0.0 0.0 0.0

614240.7019938566 1.6257646785004584e7 0.0
1.6257646785004584e7 -3.384856667761372e7 0.0
0.0 0.0 0.0

1.9445728517292398e6 3.473426724133343e7 0.0
3.473426724133343e7 -4.844497598982932e6 0.0
0.0 0.0 0.0

1.3343580720366538e6 1.1574099333575325e7 0.0
1.1574099333575325e7 -2.9746439812878907e7 0.0
0.0 0.0 0.0

-7.591964174538288e6 1.505175249414889e7 0.0
1.505175249414889e7 3.671814334208755e7 0.0
0.0 0.0 0.0

-7.271396032057166e7 5.628595342556546e7 0.0
5.628595342556546e7 1.1516402579586066e7 0.0
0.0 0.0 0.0

-1.828587103567347e7 3.0264017034862768e7 0.0
3.0264017034862768e7 -1.5089744840573426e6 0.0
0.0 0.0 0.0

-3.7046130348975006e6 2.796950009979386e7 0.0
2.796950009979386e7 1.4207074852702139e7 0.0
0.0 0.0 0.0

-8.23132111045175e6 -3.4552024118650113e6 0.0
-3.4552024118650113e6 2.525020045129157e7 0.0
0.0 0.0 0.0

-2.1715708291666057e7 2.8645313069512706e7 0.0
2.8645313069512706e7 -4.0176370063322303e6 0.0
0.0 0.0 0.0

-8.181593893796002e6 3.1776133802024134e7 0.0
3.1776133802024134e7 8.18144047326532e6 0.0
0.0 0.0 0.0

1.7180556649884619e6 2.8523199898177986e6 0.0
2.8523199898177986e6 -4.90427885036018e7 0.0
0.0 0.0 0.0

-4.676037077418801e6 1.946790427140139e7 0.0
1.946790427140139e7 2.2819226285865683e7 0.0
0.0 0.0 0.0

-6.868488496056298e6 1.774141254084397e7 0.0
1.774141254084397e7 2.856298369786659e7 0.0
0.0 0.0 0.0

7.403186958847278e6 4.494854400727237e7 0.0
4.494854400727237e7 -2.1389020734771905e6 0.0
0.0 0.0 0.0

-1.0352107329642873e7 4.596221900862409e6 0.0
4.596221900862409e6 2.7186961062877573e7 0.0
0.0 0.0 0.0

-6.95865063932237e6 1.783917618753064e7 0.0
1.783917618753064e7 3.3917703477323346e7 0.0
0.0 0.0 0.0

-327238.2338213022 3.982248898654595e7 0.0
3.982248898654595e7 1.053612566127898e6 0.0
0.0 0.0 0.0

-5.605685782734558e6 1.925322950576381e6 0.0
1.925322950576381e6 6.371016974180682e7 0.0
0.0 0.0 0.0

-8.27125964514631e6 -1.375924604072299e6 0.0
-1.375924604072299e6 2.721620805449851e7 0.0
0.0 0.0 0.0

1.8838887293520886e6 8.1855720627185395e6 0.0
8.1855720627185395e6 -3.3241979138193704e7 0.0
0.0 0.0 0.0

-2.5822809421174037e6 2.7001207719640955e7 0.0
2.7001207719640955e7 1.175959913046643e7 0.0
0.0 0.0 0.0

-5.934101761109119e6 1.7354740773617465e7 0.0
1.7354740773617465e7 3.8122023315760404e7 0.0
0.0 0.0 0.0

868702.0200981405 2.3433874931681678e7 0.0
2.3433874931681678e7 -1.785812647905155e7 0.0
0.0 0.0 0.0

1.348731631963321e6 2.2248463541585945e7 0.0
2.2248463541585945e7 -1.89451867737998e7 0.0
0.0 0.0 0.0

1.2196720209636688e6 1.3272650251792185e7 0.0
1.3272650251792185e7 -3.1813309422590576e7 0.0
0.0 0.0 0.0

-358352.1403373182 2.0149911413104065e7 0.0
2.0149911413104065e7 -2.855122891608678e7 0.0
0.0 0.0 0.0

1.85380014212171e6 2.3844344854724627e7 0.0
2.3844344854724627e7 1.0211922511472072e7 0.0
0.0 0.0 0.0

-5.822113234651396e6 1.8490881168407217e7 0.0
1.8490881168407217e7 3.596592678654884e7 0.0
0.0 0.0 0.0

2.2221551425744146e6 3.371792348597614e7 0.0
3.371792348597614e7 -5.884505145290347e6 0.0
0.0 0.0 0.0

-6.777949295774968e6 3.514763327281018e7 0.0
3.514763327281018e7 6.590714011195278e6 0.0
0.0 0.0 0.0

-1.3231736756204776e6 3.84189716678394e7 0.0
3.84189716678394e7 1.8513728557171053e6 0.0
0.0 0.0 0.0

2.049466712326279e7 2.74403679567808e7 0.0
2.74403679567808e7 9.302714767042643e7 0.0
0.0 0.0 0.0

-2.033825179550229e6 2.7567940965571463e7 0.0
2.7567940965571463e7 9.989432721423281e6 0.0
0.0 0.0 0.0

1.2731923780099666e6 2.1091830367719956e7 0.0
2.1091830367719956e7 -2.012721950358712e7 0.0
0.0 0.0 0.0

-1.225668902184222e6 2.1184969492575858e7 0.0
2.1184969492575858e7 -2.656696568242467e7 0.0
0.0 0.0 0.0

1.2033273541869912e6 2.0739742307101324e7 0.0
2.0739742307101324e7 -2.2147380620447796e7 0.0
0.0 0.0 0.0

2.9822884336670106e6 3.7869094498483494e7 0.0
3.7869094498483494e7 -2.433929628814597e6 0.0
0.0 0.0 0.0

-2.525425127575778e6 2.6176476616661552e7 0.0
2.6176476616661552e7 9.32835150963967e6 0.0
0.0 0.0 0.0

650974.538244928 2.2905752989160452e7 0.0
2.2905752989160452e7 3.9507621464158013e6 0.0
0.0 0.0 0.0

-1.2445025584275424e6 2.2720610980243873e7 0.0
2.2720610980243873e7 -2.0116991145036332e7 0.0
0.0 0.0 0.0

-5.522149835492517e6 1.549552815020598e7 0.0
1.549552815020598e7 1.3158051684733024e7 0.0
0.0 0.0 0.0

8.959565778957307e6 5.2863868308368795e7 0.0
5.2863868308368795e7 -5.545078548097384e6 0.0
0.0 0.0 0.0

631343.2467393503 4.0762500498937443e6 0.0
4.0762500498937443e6 -7.04095991725948e7 0.0
0.0 0.0 0.0

1.392798303451353e8 5.33158407024626e7 0.0
5.33158407024626e7 3.5946159451268956e7 0.0
0.0 0.0 0.0

6.1838220606873736e7 5.421309755422532e7 0.0
5.421309755422532e7 -1.6928221311096746e7 0.0
0.0 0.0 0.0

575905.8997939304 2.3314235064716596e7 0.0
2.3314235064716596e7 2.3451017570217934e7 0.0
0.0 0.0 0.0

2.888962761630521e6 2.4234585180436414e7 0.0
2.4234585180436414e7 1.3099128064656712e7 0.0
0.0 0.0 0.0

-3.2031113306417447e7 3.0681446161972836e7 0.0
3.0681446161972836e7 -2.284751138777865e6 0.0
0.0 0.0 0.0

-7.81249714988771e7 3.826707428325217e7 0.0
3.826707428325217e7 -5.361925794527903e6 0.0
0.0 0.0 0.0

-5.80811790078005e6 1.5759462617174074e7 0.0
1.5759462617174074e7 1.9081650112822745e7 0.0
0.0 0.0 0.0

642422.2347889118 3.2902164800158013e7 0.0
3.2902164800158013e7 -2.2094304962714934e6 0.0
0.0 0.0 0.0

1.1396899638442043e6 1.956554729333118e7 0.0
1.956554729333118e7 -2.3267142482783575e7 0.0
0.0 0.0 0.0

470206.5334424041 8.741050670929668e6 0.0
8.741050670929668e6 -6.361710227067596e7 0.0
0.0 0.0 0.0

637985.1819111109 1.9834259731828816e7 0.0
1.9834259731828816e7 -2.3687024489794105e7 0.0
0.0 0.0 0.0

-4.344627624414859e6 1.737932147064757e7 0.0
1.737932147064757e7 -4.89232098111257e7 0.0
0.0 0.0 0.0

-7.423858271385103e6 1.7976814413945146e7 0.0
1.7976814413945146e7 2.6236937637127466e7 0.0
0.0 0.0 0.0

3.3665193545640856e6 2.1740064023706e7 0.0
2.1740064023706e7 3.45027344126501e7 0.0
0.0 0.0 0.0

1.4042430757425502e6 2.22173798308651e7 0.0
2.22173798308651e7 9.714305763459146e6 0.0
0.0 0.0 0.0

-1.2221311191810688e7 1.0930095479062097e7 0.0
1.0930095479062097e7 4.131769604881149e6 0.0
0.0 0.0 0.0

-7.423618817388143e6 6.8326909286992885e6 0.0
6.8326909286992885e6 5.105072160722104e7 0.0
0.0 0.0 0.0

-3.212089493893528e6 3.20726072428975e7 0.0
3.20726072428975e7 7.374163131021312e6 0.0
0.0 0.0 0.0

2.34299781030738e6 2.213789413769744e7 0.0
2.213789413769744e7 3.700088818854277e7 0.0
0.0 0.0 0.0

-3.2099423394099455e6 2.1433288160635497e7 0.0
2.1433288160635497e7 1.997356682204531e7 0.0
0.0 0.0 0.0

-8.983807090638857e6 2.6460331643691994e6 0.0
2.6460331643691994e6 1.1194813455516707e7 0.0
0.0 0.0 0.0

-1.0312553722312674e6 1.4460266136188734e7 0.0
1.4460266136188734e7 8.0890886331121e7 0.0
0.0 0.0 0.0

-1.5314809604001455e6 2.5448349505582623e7 0.0
2.5448349505582623e7 3.3381149495609486e6 0.0
0.0 0.0 0.0

2.4269024246970336e6 3.2694000303937074e7 0.0
3.2694000303937074e7 -6.93794643486966e6 0.0
0.0 0.0 0.0

2.570901228494808e6 2.1440136397489697e7 0.0
2.1440136397489697e7 3.8642070823479295e7 0.0
0.0 0.0 0.0

-4.8014258439416215e6 1.5377767606407702e7 0.0
1.5377767606407702e7 1.637156711977076e7 0.0
0.0 0.0 0.0

1.1099423650439795e7 3.2474331004941355e7 0.0
3.2474331004941355e7 -6.082917940553648e6 0.0
0.0 0.0 0.0

-2.5870920400549136e6 6.111242599173539e6 0.0
6.111242599173539e6 8.601089915948363e7 0.0
0.0 0.0 0.0

1.0819964683867635e7 2.9727603923879914e7 0.0
2.9727603923879914e7 -5.288260766131133e6 0.0
0.0 0.0 0.0

-2.3518753838117113e6 3.863135519438083e7 0.0
3.863135519438083e7 2.7525060487781907e6 0.0
0.0 0.0 0.0

-7.467888780697913e6 1.969233591796355e7 0.0
1.969233591796355e7 -2.9679895165220097e7 0.0
0.0 0.0 0.0

-2.841779685562851e6 2.4805985611665137e7 0.0
2.4805985611665137e7 2.0642373290047444e7 0.0
0.0 0.0 0.0

-7.075735165090663e6 1.5473223017100334e7 0.0
1.5473223017100334e7 3.945012538401933e7 0.0
0.0 0.0 0.0

6.894401430994889e6 3.7266891792193115e7 0.0
3.7266891792193115e7 -4.782770891044265e6 0.0
0.0 0.0 0.0

2.624668550427842e6 5.8557772376531e6 0.0
5.8557772376531e6 -1.2168652292585766e7 0.0
0.0 0.0 0.0

538698.1487408775 4.912851878454928e7 0.0
4.912851878454928e7 -1.9351596606765196e6 0.0
0.0 0.0 0.0

6.752140065384896e6 2.6198311727120493e7 0.0
2.6198311727120493e7 1.0404498302163238e7 0.0
0.0 0.0 0.0

256813.20752045698 2.9988158577876147e7 0.0
2.9988158577876147e7 -4.213618577297054e6 0.0
0.0 0.0 0.0

1.2306807321201582e6 5.754017657051478e6 0.0
5.754017657051478e6 -4.820950976019146e7 0.0
0.0 0.0 0.0

-3.701061461807785e6 2.5330809399781663e7 0.0
2.5330809399781663e7 -1.3346673697066173e7 0.0
0.0 0.0 0.0

1.0227434114120955e7 2.6753364405630056e7 0.0
2.6753364405630056e7 1.5422708142154831e7 0.0
0.0 0.0 0.0

-1.055220420194046e6 3.587776322607729e7 0.0
3.587776322607729e7 1.631382550497301e6 0.0
0.0 0.0 0.0

7.013197369821866e6 2.228548557868606e7 0.0
2.228548557868606e7 3.987430711319536e7 0.0
0.0 0.0 0.0

-6.36054093766191e6 999924.226141057 0.0
999924.226141057 1.362722555345622e7 0.0
0.0 0.0 0.0

1.889123443954192e6 2.0592205434261847e7 0.0
2.0592205434261847e7 4.550787661034797e7 0.0
0.0 0.0 0.0

-9.018255720102403e6 2.9238476741884958e7 0.0
2.9238476741884958e7 4.956380533047123e6 0.0
0.0 0.0 0.0

1.160711927291274e7 3.081514774400287e7 0.0
3.081514774400287e7 -5.30379746386485e6 0.0
0.0 0.0 0.0

5.393945783543832e6 2.892677766563251e7 0.0
2.892677766563251e7 -9.520125906270746e6 0.0
0.0 0.0 0.0

1.1970899030122662e7 3.949055247320173e7 0.0
3.949055247320173e7 -5.42721316311081e6 0.0
0.0 0.0 0.0

1.1848206020486017e6 2.1006825791206326e7 0.0
2.1006825791206326e7 7.336505288965625e6 0.0
0.0 0.0 0.0

-4.416548449025462e6 2.90100709787002e7 0.0
2.90100709787002e7 1.2888671819659552e7 0.0
0.0 0.0 0.0

6.761979060392631e6 4.086047453738315e7 0.0
4.086047453738315e7 -4.794681905703684e6 0.0
0.0 0.0 0.0

-1.12474597115543e7 1.964233337025565e7 0.0
1.964233337025565e7 -6.299449584739812e7 0.0
0.0 0.0 0.0

-8.0715671487352615e6 1.3558456350274662e7 0.0
1.3558456350274662e7 1.715472342513805e7 0.0
0.0 0.0 0.0

2.0108081608753228e6 2.3268902995875247e7 0.0
2.3268902995875247e7 1.1617220786961464e7 0.0
0.0 0.0 0.0

7.0970514344427865e6 3.8412619100346796e7 0.0
3.8412619100346796e7 -5.585712458466267e6 0.0
0.0 0.0 0.0

-1.7753438806527033e6 2.3264600324540198e7 0.0
2.3264600324540198e7 -2.0855565133068625e7 0.0
0.0 0.0 0.0

2.637238567201145e6 3.2344569588407543e6 0.0
3.2344569588407543e6 -3.3581600176226124e7 0.0
0.0 0.0 0.0

-4.438862645140916e6 767110.0677191704 0.0
767110.0677191704 8.004151485145667e7 0.0
0.0 0.0 0.0

140653.39992159232 1.634185283030692e7 0.0
1.634185283030692e7 -3.62646590891933e7 0.0
0.0 0.0 0.0

4.028999356526691e6 2.510907120169565e7 0.0
2.510907120169565e7 1.4540551633109864e7 0.0
0.0 0.0 0.0

-6.150267960566625e6 1.8613116591374498e7 0.0
1.8613116591374498e7 2.71898691346201e7 0.0
0.0 0.0 0.0

1.301439850356517e7 3.0246780293556195e7 0.0
3.0246780293556195e7 -4.4030062634159615e6 0.0
0.0 0.0 0.0

1.9638630375979189e6 6.271288044690398e6 0.0
6.271288044690398e6 -2.7849772321823135e7 0.0
0.0 0.0 0.0

5.615383529646855e6 2.622483048237171e7 0.0
2.622483048237171e7 -1.9900578070795897e6 0.0
0.0 0.0 0.0

1.1127154119069386e7 2.8015081910736397e7 0.0
2.8015081910736397e7 1.5579472076511363e7 0.0
0.0 0.0 0.0

1.6784484483738255e7 5.164840881112907e7 0.0
5.164840881112907e7 -8.085837763564267e6 0.0
0.0 0.0 0.0

5.010965127844049e6 2.8530814908125922e7 0.0
2.8530814908125922e7 -9.552092088581532e6 0.0
0.0 0.0 0.0

6.011982059269374e6 2.0756664741687953e7 0.0
2.0756664741687953e7 6.08358923207837e7 0.0
0.0 0.0 0.0

2.1626191491276473e6 1.3956667085360573e6 0.0
1.3956667085360573e6 -4.384354927268399e7 0.0
0.0 0.0 0.0

2.0988968043073593e6 3.960650094696912e7 0.0
3.960650094696912e7 -2.8989117714773677e6 0.0
0.0 0.0 0.0

8.06305511654705e6 2.4825940933577735e7 0.0
2.4825940933577735e7 6.179054587888388e6 0.0
0.0 0.0 0.0

-8.509103547520828e7 2.480582729706933e7 0.0
2.480582729706933e7 425987.87818787247 0.0
0.0 0.0 0.0

-7.481358171230389e6 3.1628531133457884e7 0.0
3.1628531133457884e7 9.01976646921791e6 0.0
0.0 0.0 0.0

-7.56023266282572e6 1.2670060087167496e7 0.0
1.2670060087167496e7 1.8700663842398677e7 0.0
0.0 0.0 0.0

-799201.6360309478 2.016657766681577e7 0.0
2.016657766681577e7 -3.0887484966590617e7 0.0
0.0 0.0 0.0

-823063.6066883709 2.399749295152785e7 0.0
2.399749295152785e7 1.9485321522676777e7 0.0
0.0 0.0 0.0

-5.091809632668288e6 1.9819379195768114e7 0.0
1.9819379195768114e7 -4.28926551361311e7 0.0
0.0 0.0 0.0

1.806261741903726e6 2.6451178649642873e6 0.0
2.6451178649642873e6 -5.754672822206681e7 0.0
0.0 0.0 0.0

7.583812464991723e7 2.4984111662011266e7 0.0
2.4984111662011266e7 6.302855680693187e6 0.0
0.0 0.0 0.0

-1.497015398310608e8 5.515356525244083e7 0.0
5.515356525244083e7 -3.233163509053815e7 0.0
0.0 0.0 0.0

1.9182267669882555e7 2.5494966332772616e7 0.0
2.5494966332772616e7 9.719358641318865e6 0.0
0.0 0.0 0.0

2.2719864369482175e6 2.9358790218422107e7 0.0
2.9358790218422107e7 -1.0344245951159324e7 0.0
0.0 0.0 0.0

-2.942806420824715e6 2.615544945471576e7 0.0
2.615544945471576e7 1.678342931458118e7 0.0
0.0 0.0 0.0

2.3997864500963613e6 3.2103910946137104e6 0.0
3.2103910946137104e6 -3.2805119851627167e7 0.0
0.0 0.0 0.0

-8.736178973065214e6 2.9364034426931262e7 0.0
2.9364034426931262e7 7.202240644395039e6 0.0
0.0 0.0 0.0

4.986458151378597e6 4.0808354963765725e7 0.0
4.0808354963765725e7 -2.3403327894554385e6 0.0
0.0 0.0 0.0

-4.927186831138593e6 2.1358457953373358e7 0.0
2.1358457953373358e7 -3.2495258765365336e7 0.0
0.0 0.0 0.0

-191678.4022552108 2.960599880426351e7 0.0
2.960599880426351e7 -5.917034610475511e6 0.0
0.0 0.0 0.0

1.8419388974565794e6 5.924153416359844e6 0.0
5.924153416359844e6 -7.40148094128651e6 0.0
0.0 0.0 0.0

1.5169189416367775e7 2.7618830008512393e7 0.0
2.7618830008512393e7 1.5242785972905107e7 0.0
0.0 0.0 0.0

-1.52497385665616e7 2.780005075287529e7 0.0
2.780005075287529e7 -3.3224572705439893e6 0.0
0.0 0.0 0.0

1.3210278714313665e6 2.36716571382344e7 0.0
2.36716571382344e7 -1.606272888101115e7 0.0
0.0 0.0 0.0

-2.0457772631476824e6 3.0300106618429292e7 0.0
3.0300106618429292e7 1.4642296929994863e6 0.0
0.0 0.0 0.0

110879.99843838252 1.650967274279185e7 0.0
1.650967274279185e7 -3.4230544782301314e7 0.0
0.0 0.0 0.0

-5.603049440427642e6 2.0953331480878773e6 0.0
2.0953331480878773e6 6.5271800833540566e7 0.0
0.0 0.0 0.0

634303.4025224773 2.0556769306837883e7 0.0
2.0556769306837883e7 -2.2032001968768694e7 0.0
0.0 0.0 0.0

6.020031371298397e6 2.4881683250187997e7 0.0
2.4881683250187997e7 1.0035879772605351e6 0.0
0.0 0.0 0.0

-2.0056771824323844e7 2.372603257194481e7 0.0
2.372603257194481e7 -8.03886321796343e7 0.0
0.0 0.0 0.0

2.4340020555140804e6 7.253617339230483e6 0.0
7.253617339230483e6 -3.2431708901526466e7 0.0
0.0 0.0 0.0

1.0307018208636371e6 2.2618430266847312e7 0.0
2.2618430266847312e7 -2.136236892721586e7 0.0
0.0 0.0 0.0

-5.529430693231286e6 3.0640808592046596e7 0.0
3.0640808592046596e7 1.0608309320623733e7 0.0
0.0 0.0 0.0

146280.63308001298 3.5145641286782004e7 0.0
3.5145641286782004e7 -2.573845523866848e6 0.0
0.0 0.0 0.0

-2.6169877107778313e6 2.7719892638564594e7 0.0
2.7719892638564594e7 1.2908596647828486e7 0.0
0.0 0.0 0.0

8.726662429924915e6 2.5671378484666497e7 0.0
2.5671378484666497e7 1.1267986776264057e7 0.0
0.0 0.0 0.0

-1.0693825522790866e8 3.2855070790083367e7 0.0
3.2855070790083367e7 -4.554527726492673e6 0.0
0.0 0.0 0.0

-2.2974811132492917e6 339212.58837463 0.0
339212.58837463 2.2818300118334186e6 0.0
0.0 0.0 0.0

-1.8070267532586986e6 2.1393237564761747e7 0.0
2.1393237564761747e7 -2.3617106037793485e6 0.0
0.0 0.0 0.0

1.8241289333264846e7 2.5738504766091213e7 0.0
2.5738504766091213e7 5.7155331274637515e6 0.0
0.0 0.0 0.0

-584016.6681283086 4.281839151773492e7 0.0
4.281839151773492e7 1.36316702336387e6 0.0
0.0 0.0 0.0

-4.448464466812234e6 1.77130311807684e7 0.0
1.77130311807684e7 -5.2624834045231156e7 0.0
0.0 0.0 0.0

-4.131770357962003e6 2.5368697833922666e7 0.0
2.5368697833922666e7 -9.833130225163365e6 0.0
0.0 0.0 0.0

6.430999839169778e6 3.0247880905854743e7 0.0
3.0247880905854743e7 -8.231797686130985e6 0.0
0.0 0.0 0.0

1.0832527542895237e6 1.8659970244665522e7 0.0
1.8659970244665522e7 -1.8877090943264425e7 0.0
0.0 0.0 0.0

6.208062039429833e6 2.9234124128647774e7 0.0
2.9234124128647774e7 -8.011472705672844e6 0.0
0.0 0.0 0.0

1.2714875943364473e6 2.3523506846528076e7 0.0
2.3523506846528076e7 1.208493418760741e7 0.0
0.0 0.0 0.0

1.076074169268569e6 3.474346074838323e7 0.0
3.474346074838323e7 -1.927817919878529e6 0.0
0.0 0.0 0.0

1.9359767086513173e6 1.100115486363013e7 0.0
1.100115486363013e7 -3.1313830253987245e7 0.0
0.0 0.0 0.0

1.6609565869534574e6 2.8173653131468305e6 0.0
2.8173653131468305e6 -4.9754361629466675e7 0.0
0.0 0.0 0.0

-2.0929820140863468e6 1.8651091751427173e6 0.0
1.8651091751427173e6 474301.60072473716 0.0
0.0 0.0 0.0

-1.0189170290314723e7 1.1801436362097282e6 0.0
1.1801436362097282e6 3.179302924711985e6 0.0
0.0 0.0 0.0

5.160269670417666e6 2.516068393689405e7 0.0
2.516068393689405e7 1.7577155056162357e7 0.0
0.0 0.0 0.0

3.848685887002779e6 2.170517060334295e7 0.0
2.170517060334295e7 1.6191281020609397e7 0.0
0.0 0.0 0.0

1.0145600016973866e6 2.3224166583815224e7 0.0
2.3224166583815224e7 1.2051108104652379e7 0.0
0.0 0.0 0.0

2.22491327492371e6 5.367327619607036e6 0.0
5.367327619607036e6 -2.0481292504153304e7 0.0
0.0 0.0 0.0

5.848135388563635e6 2.779131799685818e7 0.0
2.779131799685818e7 -7.26047877160636e6 0.0
0.0 0.0 0.0

2.102615624021665e6 4.402200986705415e6 0.0
4.402200986705415e6 -9.063082174906695e6 0.0
0.0 0.0 0.0

5.48921221382723e6 2.931979556939819e7 0.0
2.931979556939819e7 -8.933357022527684e6 0.0
0.0 0.0 0.0

-4.8475401543899365e6 1.90002740075376e7 0.0
1.90002740075376e7 3.6649551093853846e7 0.0
0.0 0.0 0.0

3.092294626514346e6 3.3386954159569293e7 0.0
3.3386954159569293e7 -5.390156873032332e6 0.0
0.0 0.0 0.0

7.886387794233221e6 3.940457929202924e7 0.0
3.940457929202924e7 -3.8940583044476258e6 0.0
0.0 0.0 0.0

1.7423703824267238e6 8.075867435045016e6 0.0
8.075867435045016e6 -3.3678589420169674e7 0.0
0.0 0.0 0.0

1.761486083240347e6 6.419984725198581e6 0.0
6.419984725198581e6 -3.454164292340727e7 0.0
0.0 0.0 0.0

2.202873709427873e7 2.808822249749662e7 0.0
2.808822249749662e7 2.7224050395139167e6 0.0
0.0 0.0 0.0

3.2831755357002467e6 2.2577320931556556e7 0.0
2.2577320931556556e7 3.3275382872603036e7 0.0
0.0 0.0 0.0

564432.9548018491 2.1333338999094136e7 0.0
2.1333338999094136e7 -2.0500064838631153e7 0.0
0.0 0.0 0.0

-6.255030031292506e6 -1.390419026345291e6 0.0
-1.390419026345291e6 5.129728215630296e7 0.0
0.0 0.0 0.0

-516197.6825555918 4.074368950039735e7 0.0
4.074368950039735e7 1.0294725097732234e6 0.0
0.0 0.0 0.0

-6.623912667173402e6 1.790712084339375e7 0.0
1.790712084339375e7 3.38643926124767e7 0.0
0.0 0.0 0.0

-8.884747051930876e6 -1.1941502704358196e6 0.0
-1.1941502704358196e6 2.3344856546573065e7 0.0
0.0 0.0 0.0

132441.61159571167 2.1090391512747284e7 0.0
2.1090391512747284e7 -1.2006942841961838e7 0.0
0.0 0.0 0.0

1.8675505926452074e6 2.921025284443222e6 0.0
2.921025284443222e6 -4.789458422511037e7 0.0
0.0 0.0 0.0

-5.8745340414218195e6 3.587995398173376e7 0.0
3.587995398173376e7 6.287045689041783e6 0.0
0.0 0.0 0.0

510768.16548229987 2.9224384469594486e7 0.0
2.9224384469594486e7 -5.3945724959536195e6 0.0
0.0 0.0 0.0

37203.264124570414 1.5876202285493314e7 0.0
1.5876202285493314e7 -3.635056170647112e7 0.0
0.0 0.0 0.0

2.313732828692253e7 2.5083148757568225e7 0.0
2.5083148757568225e7 9.347680894763758e6 0.0
0.0 0.0 0.0

-6.739569277810457e6 3.432861327935505e7 0.0
3.432861327935505e7 7.401513820182307e6 0.0
0.0 0.0 0.0

-7.233838899228033e6 70557.01926082898 0.0
70557.01926082898 4.89593640254663e7 0.0
0.0 0.0 0.0

-7.566198205246879e6 -2.1208329987663385e6 0.0
-2.1208329987663385e6 3.763796976442956e7 0.0
0.0 0.0 0.0

7.9982220401154915e6 2.532788424242354e7 0.0
2.532788424242354e7 1.6808276945808327e6 0.0
0.0 0.0 0.0

2.533609563978639e6 2.910425472016418e7 0.0
2.910425472016418e7 -9.968643087048704e6 0.0
0.0 0.0 0.0

3.125621105367724e6 2.990366865391208e7 0.0
2.990366865391208e7 -9.441270609125832e6 0.0
0.0 0.0 0.0

-3.14517691204438e6 8.52834503049633e6 0.0
8.52834503049633e6 7.203805107397568e7 0.0
0.0 0.0 0.0

3.1207918880002666e6 2.3814858722441653e6 0.0
2.3814858722441653e6 -1.4957383792137269e7 0.0
0.0 0.0 0.0

-1.1307214579948463e7 2.7822399873620324e7 0.0
2.7822399873620324e7 -3.4691664342735205e6 0.0
0.0 0.0 0.0

-1.9350820401913647e7 2.796588047368657e7 0.0
2.796588047368657e7 -1.1230954511366598e7 0.0
0.0 0.0 0.0

-3.969674299847605e7 3.4249838328168854e7 0.0
3.4249838328168854e7 -9.173526700765014e6 0.0
0.0 0.0 0.0

2.4264951813420616e6 4.149420758212999e7 0.0
4.149420758212999e7 -703851.0875437916 0.0
0.0 0.0 0.0

858870.3382788046 2.146303799215604e7 0.0
2.146303799215604e7 1.2070701006673186e6 0.0
0.0 0.0 0.0

-6.710103833582092e6 678787.913137729 0.0
678787.913137729 5.1836470176318616e7 0.0
0.0 0.0 0.0

1.8737768884497628e7 2.759408600844767e7 0.0
2.759408600844767e7 2.5069115182177857e6 0.0
0.0 0.0 0.0

680661.6562580029 2.3515376107494634e7 0.0
2.3515376107494634e7 -1.2807269651042435e7 0.0
0.0 0.0 0.0

-7.787974094055286e6 1.391760966571966e6 0.0
1.391760966571966e6 4.0173790504007675e7 0.0
0.0 0.0 0.0

-3.4627897645582072e6 2.836460379366171e7 0.0
2.836460379366171e7 1.1416106135544749e7 0.0
0.0 0.0 0.0

-3.9835274964767727e6 3.023583588934517e7 0.0
3.023583588934517e7 1.001495081114788e7 0.0
0.0 0.0 0.0

-7.556056925247297e6 5488.143365509709 0.0
5488.143365509709 1.1258523886251904e7 0.0
0.0 0.0 0.0

1.8546280494462084e6 5.391401691838602e6 0.0
5.391401691838602e6 -3.607237907249262e7 0.0
0.0 0.0 0.0

-1.204224427686859e6 9.682236817818332e6 0.0
9.682236817818332e6 -6.495159503257114e7 0.0
0.0 0.0 0.0

1.1145335699944671e7 2.7388508402655493e7 0.0
2.7388508402655493e7 1.5880603391814513e7 0.0
0.0 0.0 0.0

2.397857047360682e6 4.481105672720931e6 0.0
4.481105672720931e6 -1.3144389793265583e7 0.0
0.0 0.0 0.0

2.9536187847881727e7 3.8929283506949134e7 0.0
3.8929283506949134e7 -7.457358852605488e6 0.0
0.0 0.0 0.0

2.675966253778672e6 4.548753539085082e6 0.0
4.548753539085082e6 -3.455512860403481e7 0.0
0.0 0.0 0.0

3.0059786029727207e6 5.16248248794309e6 0.0
5.16248248794309e6 -2.3103214584080562e7 0.0
0.0 0.0 0.0

2.241463954115482e6 4.847882494377652e6 0.0
4.847882494377652e6 -3.02276937523415e7 0.0
0.0 0.0 0.0

1.3561741191421265e6 2.270573838398977e7 0.0
2.270573838398977e7 3.502941823200021e6 0.0
0.0 0.0 0.0

2.624847522793731e6 2.1881028254250206e7 0.0
2.1881028254250206e7 1.2103534081657091e7 0.0
0.0 0.0 0.0

-616636.2637559958 1.8854308520182215e7 0.0
1.8854308520182215e7 -3.272199460573694e7 0.0
0.0 0.0 0.0

2.832799153491812e7 4.01067718680107e7 0.0
4.01067718680107e7 -5.951619191649415e6 0.0
0.0 0.0 0.0

-7.778080766288277e6 -84578.56809563111 0.0
-84578.56809563111 4.0073719845360085e7 0.0
0.0 0.0 0.0

-3.562056889135672e6 2.853815028409122e7 0.0
2.853815028409122e7 1.3280736482021313e7 0.0
0.0 0.0 0.0

-2.0640604898891852e6 4.028935626907298e7 0.0
4.028935626907298e7 357500.27735548397 0.0
0.0 0.0 0.0

2.470597159155801e6 3.3512125558323182e7 0.0
3.3512125558323182e7 -4.568900133223368e6 0.0
0.0 0.0 0.0

-8.032835491040556e6 -954394.3795451724 0.0
-954394.3795451724 2.925592599779074e7 0.0
0.0 0.0 0.0

-9.90615877293684e6 1.2430179619245464e6 0.0
1.2430179619245464e6 2.1312147861078136e7 0.0
0.0 0.0 0.0

4.593687839627962e6 2.2797591668670934e7 0.0
2.2797591668670934e7 3.215006487597665e7 0.0
0.0 0.0 0.0

-4.0683601891350863e6 -2.1418132834270904e6 0.0
-2.1418132834270904e6 6.4508225238752e6 0.0
0.0 0.0 0.0

1.147418598157467e7 3.0772476524431117e7 0.0
3.0772476524431117e7 -5.369933734120958e6 0.0
0.0 0.0 0.0

1.9290493576509766e6 2.7571996280416876e7 0.0
2.7571996280416876e7 -1.2214517745156229e7 0.0
0.0 0.0 0.0

467679.9476644816 2.243532292051133e7 0.0
2.243532292051133e7 -2.2810518776834458e7 0.0
0.0 0.0 0.0

-1.1301549321048767e6 2.787930886202585e7 0.0
2.787930886202585e7 1.2627323058569247e6 0.0
0.0 0.0 0.0

-3.282479590814422e6 2.734476145415473e7 0.0
2.734476145415473e7 1.2221100980243625e7 0.0
0.0 0.0 0.0

-6.589917889614943e6 1.822122389931057e7 0.0
1.822122389931057e7 2.9263126325874858e7 0.0
0.0 0.0 0.0

-2.5969483117014278e7 5.140224852044081e7 0.0
5.140224852044081e7 7.171265317447066e6 0.0
0.0 0.0 0.0

2.656580696242463e6 4.399470950510176e6 0.0
4.399470950510176e6 -1.345622321205334e7 0.0
0.0 0.0 0.0

1.241507422621308e6 2.1838660199203484e7 0.0
2.1838660199203484e7 -1.862027728880947e7 0.0
0.0 0.0 0.0

944349.1863274351 4.265149146502065e6 0.0
4.265149146502065e6 -7.000439494832493e7 0.0
0.0 0.0 0.0

6.130438868492993e6 2.9916533853703655e7 0.0
2.9916533853703655e7 -8.782753198826268e6 0.0
0.0 0.0 0.0

-6.076261273173699e6 1.5653054743197242e7 0.0
1.5653054743197242e7 1.742111594615979e7 0.0
0.0 0.0 0.0

-1.1795754008583428e7 1.9234777469579827e7 0.0
1.9234777469579827e7 -4.572701373112038e7 0.0
0.0 0.0 0.0

4.453035248056195e7 2.6638607432640947e7 0.0
2.6638607432640947e7 9.494656002876725e6 0.0
0.0 0.0 0.0

-9.81682662607883e6 4.866470269873928e6 0.0
4.866470269873928e6 2.309237782372325e7 0.0
0.0 0.0 0.0

1.473821826915664e7 2.5530387031389378e7 0.0
2.5530387031389378e7 1.1296847177289e7 0.0
0.0 0.0 0.0

8.7844395787202e6 1.9450683219892375e7 0.0
1.9450683219892375e7 3.291388491465926e7 0.0
0.0 0.0 0.0

-9.36642539869589e6 1.9119605529612962e7 0.0
1.9119605529612962e7 -3.042076803469419e7 0.0
0.0 0.0 0.0

6.567258698075004e6 4.390328483455876e7 0.0
4.390328483455876e7 -4.395718682074603e6 0.0
0.0 0.0 0.0

656423.1618297165 2.9405692442584883e7 0.0
2.9405692442584883e7 -8.459920043938328e6 0.0
0.0 0.0 0.0

-3.9506607817359697e6 2.1133652240067344e7 0.0
2.1133652240067344e7 2.266583258568861e7 0.0
0.0 0.0 0.0

-2.274963975743983e6 9.67872062982572e6 0.0
9.67872062982572e6 -9.173051406154132e7 0.0
0.0 0.0 0.0

-1.0428957373290554e7 2.526250854440342e6 0.0
2.526250854440342e6 2.0028152598116457e7 0.0
0.0 0.0 0.0

-1.991979823935463e6 2.3059918892622203e7 0.0
2.3059918892622203e7 -1.0404547168281648e7 0.0
0.0 0.0 0.0

1.4159386217525387e7 2.666617380674895e7 0.0
2.666617380674895e7 1.4312121934846662e7 0.0
0.0 0.0 0.0

4.911807888100546e6 1.5608276763823085e7 0.0
1.5608276763823085e7 7.6101087023336785e6 0.0
0.0 0.0 0.0

-3.204462844535128e6 2.620236120620651e7 0.0
2.620236120620651e7 1.7634947965410687e7 0.0
0.0 0.0 0.0

-3.1992891631449265e6 3.2858624337013103e7 0.0
3.2858624337013103e7 6.265038428059064e6 0.0
0.0 0.0 0.0

-2.2519245749007497e7 5.237896619598149e7 0.0
5.237896619598149e7 8.580642334302314e6 0.0
0.0 0.0 0.0

758885.8490060321 9.060483597405413e6 0.0
9.060483597405413e6 -7.013993672088986e6 0.0
0.0 0.0 0.0

-3.7546154114822303e6 3.247605827811767e7 0.0
3.247605827811767e7 5.7049925592900105e6 0.0
0.0 0.0 0.0

571935.4989056704 2.7993822620134566e7 0.0
2.7993822620134566e7 -8.289121605492345e6 0.0
0.0 0.0 0.0

2.068819744819778e7 2.69135112277847e7 0.0
2.69135112277847e7 1.366354296421325e7 0.0
0.0 0.0 0.0

1.3781678992421054e6 3.2134466197522793e7 0.0
3.2134466197522793e7 -6.4449949214362595e6 0.0
0.0 0.0 0.0

2.0293033070951551e6 4.520460016216603e6 0.0
4.520460016216603e6 -1.0266282085426884e7 0.0
0.0 0.0 0.0

904000.3532390762 2.3962669732610416e7 0.0
2.3962669732610416e7 -1.6554189324376663e7 0.0
0.0 0.0 0.0

-9.390536260489361e6 4.451485182739605e6 0.0
4.451485182739605e6 3.068664957803297e7 0.0
0.0 0.0 0.0

2.5658612450113334e6 6.299499527334768e6 0.0
6.299499527334768e6 -3.3758261305938e7 0.0
0.0 0.0 0.0

875253.3435150646 5.267967533161533e6 0.0
5.267967533161533e6 -7.588271114477403e7 0.0
0.0 0.0 0.0

4.842511172457006e6 2.6392049894518334e7 0.0
2.6392049894518334e7 1.5582254967820384e7 0.0
0.0 0.0 0.0

1.1125910998918368e6 2.3819514735949084e7 0.0
2.3819514735949084e7 -1.9630708970709093e7 0.0
0.0 0.0 0.0

-4.500065240301602e6 2.1501847833813462e7 0.0
2.1501847833813462e7 2.0322754610676035e7 0.0
0.0 0.0 0.0

2.856806725253364e6 1.7904990679543416e6 0.0
1.7904990679543416e6 -2.88764029664384e7 0.0
0.0 0.0 0.0

1.2637958737742715e6 1.891653021451749e7 0.0
1.891653021451749e7 -2.4721439693411548e7 0.0
0.0 0.0 0.0

-185659.35240759887 2.154717278513916e7 0.0
2.154717278513916e7 -2.4310967934007734e7 0.0
0.0 0.0 0.0

-4.0273694671423463e6 2.2673542446497474e7 0.0
2.2673542446497474e7 1.927345243193984e7 0.0
0.0 0.0 0.0

2.1997943572678305e6 1.0460767147853952e7 0.0
1.0460767147853952e7 4.540805717087388e6 0.0
0.0 0.0 0.0

-8.458420939739464e6 773594.4927193283 0.0
773594.4927193283 3.316122223900619e7 0.0
0.0 0.0 0.0

505628.2954526562 2.2824997757003568e7 0.0
2.2824997757003568e7 -2.0694566810864165e7 0.0
0.0 0.0 0.0

-6.228172240802539e6 1.4328550362094456e7 0.0
1.4328550362094456e7 1.8387401656504676e7 0.0
0.0 0.0 0.0

1.9051868646172937e7 2.437568245572847e7 0.0
2.437568245572847e7 1.22140807758913e7 0.0
0.0 0.0 0.0

2.15266615038914e6 2.8412755653492466e7 0.0
2.8412755653492466e7 -1.1410688875228487e7 0.0
0.0 0.0 0.0

2.254233889713662e6 4.521590937006178e6 0.0
4.521590937006178e6 -8.695075459154606e6 0.0
0.0 0.0 0.0

-6.29004660577235e6 8.016641784458089e6 0.0
8.016641784458089e6 5.2421381961413585e7 0.0
0.0 0.0 0.0

-2.0858217097817236e6 3.629321182590738e7 0.0
3.629321182590738e7 973946.2171130279 0.0
0.0 0.0 0.0

-1.1874581221717874e7 3.755948175937762e7 0.0
3.755948175937762e7 6.028461260999868e6 0.0
0.0 0.0 0.0

-1.1309236344010852e7 6.273238463094906e6 0.0
6.273238463094906e6 2.0127691892377213e7 0.0
0.0 0.0 0.0

-7.941847832659025e6 3.265395427535426e6 0.0
3.265395427535426e6 4.208421652224622e7 0.0
0.0 0.0 0.0

-412389.69648952596 1.6656102110065771e7 0.0
1.6656102110065771e7 -3.669789553229742e7 0.0
0.0 0.0 0.0

-3.0203568873344585e6 2.329982977692385e7 0.0
2.329982977692385e7 1.993501515165382e7 0.0
0.0 0.0 0.0

-6.264226944310259e6 9.344789684973733e6 0.0
9.344789684973733e6 5.312136449652142e7 0.0
0.0 0.0 0.0

-8.201241210004306e7 2.5709670262668513e7 0.0
2.5709670262668513e7 1.843745384571366e6 0.0
0.0 0.0 0.0

744248.0617152862 1.5532094092710912e7 0.0
1.5532094092710912e7 -2.1975565399688426e7 0.0
0.0 0.0 0.0

1.192574956910297e6 2.2710277360574715e7 0.0
2.2710277360574715e7 536321.4948989451 0.0
0.0 0.0 0.0

2.0043285380131975e6 1.334197207971111e6 0.0
1.334197207971111e6 -4.6877259460447446e7 0.0
0.0 0.0 0.0

7.172295309247766e6 2.247485367112335e7 0.0
2.247485367112335e7 1.7986942190870523e7 0.0
0.0 0.0 0.0

-7.400929086831059e6 9.678356664115053e6 0.0
9.678356664115053e6 4.936218431649806e7 0.0
0.0 0.0 0.0

730873.8373033335 7.520494079927788e6 0.0
7.520494079927788e6 -9.440938790834049e6 0.0
0.0 0.0 0.0

664835.0463635763 2.8045331875775304e7 0.0
2.8045331875775304e7 -8.299203900995845e6 0.0
0.0 0.0 0.0

-1.865609684730481e6 3.1824244807539232e7 0.0
3.1824244807539232e7 688710.7084312711 0.0
0.0 0.0 0.0

-2.3218186011854373e6 2.6228709298166078e7 0.0
2.6228709298166078e7 1.2284478209171245e7 0.0
0.0 0.0 0.0

-8.281407191292787e6 3.678892565114408e7 0.0
3.678892565114408e7 5.946952573286062e6 0.0
0.0 0.0 0.0

-2.090282750249961e6 2.5458368514437817e7 0.0
2.5458368514437817e7 1.2786872363610244e6 0.0
0.0 0.0 0.0

-6.169137895572528e6 1.446085923826847e6 0.0
1.446085923826847e6 5.8516104668200985e7 0.0
0.0 0.0 0.0

5.152592988915546e6 2.2318415570151277e7 0.0
2.2318415570151277e7 2.950959626530498e7 0.0
0.0 0.0 0.0

1.291673151985513e6 2.1478889152235802e7 0.0
2.1478889152235802e7 -2.05956072961903e7 0.0
0.0 0.0 0.0

-2.3744529680833135e7 3.186118994791959e7 0.0
3.186118994791959e7 -1.111713906927281e7 0.0
0.0 0.0 0.0

-8.521874426582348e6 -947453.7516679905 0.0
-947453.7516679905 1.5876551204650732e7 0.0
0.0 0.0 0.0

-1.425938720499441e6 3.933561517223378e7 0.0
3.933561517223378e7 1.968715005155007e6 0.0
0.0 0.0 0.0

383374.77681014943 2.1737737814706e7 0.0
2.1737737814706e7 -2.1369677920654137e6 0.0
0.0 0.0 0.0

-4.698484356099641e6 2.00316883619662e7 0.0
2.00316883619662e7 3.440096424296067e7 0.0
0.0 0.0 0.0

1.911697582671089e6 1.357502884479799e7 0.0
1.357502884479799e7 -2.961713005408789e7 0.0
0.0 0.0 0.0

-5.747925049054919e6 1.945647659575147e7 0.0
1.945647659575147e7 3.0496494821561906e7 0.0
0.0 0.0 0.0

1.6812405794838946e6 4.668278246053474e6 0.0
4.668278246053474e6 -8.370114069807847e6 0.0
0.0 0.0 0.0

2.396733910857858e6 8.012640847802524e6 0.0
8.012640847802524e6 -3.320183894452143e7 0.0
0.0 0.0 0.0

-4.0030380069498178e6 2.528140515095805e7 0.0
2.528140515095805e7 -1.1649575237544606e7 0.0
0.0 0.0 0.0

-1.637869057011249e6 2.7159191085351225e7 0.0
2.7159191085351225e7 3.5325403239250076e6 0.0
0.0 0.0 0.0

-1.329065441944127e6 3.185902061221706e7 0.0
3.185902061221706e7 2.478150493361069e6 0.0
0.0 0.0 0.0

6.534522355886577e6 2.903613986797742e7 0.0
2.903613986797742e7 -8.478432874365304e6 0.0
0.0 0.0 0.0

2.778283592754366e6 5.288130403735546e6 0.0
5.288130403735546e6 -3.012084383559038e7 0.0
0.0 0.0 0.0

1.0658502892326263e6 4.61906137949875e6 0.0
4.61906137949875e6 -5.051849169766686e6 0.0
0.0 0.0 0.0

1.5543385800934639e6 7.064264390491873e6 0.0
7.064264390491873e6 -3.53860577442099e7 0.0
0.0 0.0 0.0

1.7111278564889594e6 7.458508054864989e6 0.0
7.458508054864989e6 -9.81097649930802e6 0.0
0.0 0.0 0.0

2.5516022775969353e7 2.4620824779579774e7 0.0
2.4620824779579774e7 1.0842244557558026e7 0.0
0.0 0.0 0.0

-3.277715673120183e6 4.406991251129537e7 0.0
4.406991251129537e7 2.8222662399067953e6 0.0
0.0 0.0 0.0

-6.987968172073383e6 141528.73300286967 0.0
141528.73300286967 4.691058999315687e7 0.0
0.0 0.0 0.0

320694.671691563 9.604519355949668e6 0.0
9.604519355949668e6 -5.9823511306573026e7 0.0
0.0 0.0 0.0

5.43883157463477e6 3.004917863830414e7 0.0
3.004917863830414e7 -8.987336196558828e6 0.0
0.0 0.0 0.0

-3.0548833160517667e6 2.5160257052632816e7 0.0
2.5160257052632816e7 -1.3284571898340823e7 0.0
0.0 0.0 0.0

934983.6830525603 8.456823392817238e6 0.0
8.456823392817238e6 -4.4649037891161524e7 0.0
0.0 0.0 0.0

-8.99066703590429e6 4.333569972903951e7 0.0
4.333569972903951e7 5.480454357839519e6 0.0
0.0 0.0 0.0

1.151884593749087e7 2.6958696882832993e7 0.0
2.6958696882832993e7 1.4085332233040292e7 0.0
0.0 0.0 0.0

-4.938799513507043e7 4.8315820892374404e7 0.0
4.8315820892374404e7 7.235579830825128e6 0.0
0.0 0.0 0.0

-514208.4811515957 2.2769312648189995e7 0.0
2.2769312648189995e7 2.7668969630531047e7 0.0
0.0 0.0 0.0

1.6065372732976023e6 1.2267270647023056e7 0.0
1.2267270647023056e7 -3.0542566665771168e7 0.0
0.0 0.0 0.0

1.0028771777741459e8 3.1786494315915518e7 0.0
3.1786494315915518e7 1.3809494124704298e7 0.0
0.0 0.0 0.0

8.198975875426292e6 2.4134490742405836e7 0.0
2.4134490742405836e7 2.0528084203497663e7 0.0
0.0 0.0 0.0

-9.593679784675198e6 5.668945990974195e6 0.0
5.668945990974195e6 3.170814214744719e7 0.0
0.0 0.0 0.0

2.98453794621366e6 2.252321466004587e7 0.0
2.252321466004587e7 1.2713531735097008e7 0.0
0.0 0.0 0.0

-4.2151693932369985e6 2.0675512270120766e7 0.0
2.0675512270120766e7 -3.145205413084621e7 0.0
0.0 0.0 0.0

1.3282772967345852e7 3.0310447759251222e7 0.0
3.0310447759251222e7 -4.293404705101919e6 0.0
0.0 0.0 0.0

-2.3427465885836105e6 2.685136941968636e7 0.0
2.685136941968636e7 9.946131626113122e6 0.0
0.0 0.0 0.0

-7.513178419984497e6 8.053903604097916e6 0.0
8.053903604097916e6 4.826568311251835e7 0.0
0.0 0.0 0.0

-8.158727637969014e6 4.4421029002992995e7 0.0
4.4421029002992995e7 4.058827598762441e6 0.0
0.0 0.0 0.0

-9.50252717009718e6 2.8259721807761025e7 0.0
2.8259721807761025e7 5.29130394997534e6 0.0
0.0 0.0 0.0

-2.1248408171070283e6 3.1362259103417728e7 0.0
3.1362259103417728e7 1.6605330203125325e6 0.0
0.0 0.0 0.0

5.621059486217657e6 3.665249452940981e7 0.0
3.665249452940981e7 -4.786900595956717e6 0.0
0.0 0.0 0.0

-2.0352878089347333e6 3.5442233743905485e7 0.0
3.5442233743905485e7 923922.4097358574 0.0
0.0 0.0 0.0

192043.4501947743 2.303878511013482e7 0.0
2.303878511013482e7 338284.9294484237 0.0
0.0 0.0 0.0

1.2206789487119103e6 2.3854013105041858e7 0.0
2.3854013105041858e7 2.4109271991734978e7 0.0
0.0 0.0 0.0

3.5838378142271084e6 2.5417982536391858e7 0.0
2.5417982536391858e7 1.3195301931653116e6 0.0
0.0 0.0 0.0

-1.1730604603516676e7 2.0510205479290992e7 0.0
2.0510205479290992e7 -5.5902343898626484e7 0.0
0.0 0.0 0.0

143593.1843152464 2.2969505993303433e7 0.0
2.2969505993303433e7 3.0192137883417783e6 0.0
0.0 0.0 0.0

-2.058782478050083e6 2.7143502937522862e7 0.0
2.7143502937522862e7 1.8662110814248296e6 0.0
0.0 0.0 0.0

7.509816641750308e6 1.8401363746311653e7 0.0
1.8401363746311653e7 1.5955078502418486e7 0.0
0.0 0.0 0.0

1.7162009483343298e6 2.5821935024477705e7 0.0
2.5821935024477705e7 -1.4354208655737026e7 0.0
0.0 0.0 0.0

645496.3215515111 1.841322912012189e7 0.0
1.841322912012189e7 -2.6269085961420476e7 0.0
0.0 0.0 0.0

2.700657898724718e6 4.515597826494046e6 0.0
4.515597826494046e6 -3.156912316898736e7 0.0
0.0 0.0 0.0

6.83266959692323e6 2.368984737609095e7 0.0
2.368984737609095e7 1.6242459281970575e7 0.0
0.0 0.0 0.0

-1.1624301220259257e6 2.530059325029264e7 0.0
2.530059325029264e7 1.5840196676914953e7 0.0
0.0 0.0 0.0

-5.4384668339287415e6 1.9838795142732494e7 0.0
1.9838795142732494e7 3.062280523063674e7 0.0
0.0 0.0 0.0

-2.0381390654667262e6 2.5894150506414752e7 0.0
2.5894150506414752e7 1.1323928325891597e7 0.0
0.0 0.0 0.0

-5.74670199155415e6 2.5505425996331077e7 0.0
2.5505425996331077e7 -1.2034105837184317e7 0.0
0.0 0.0 0.0

-5.737811701156555e6 2.0177727553639624e7 0.0
2.0177727553639624e7 2.8735951643143017e7 0.0
0.0 0.0 0.0

-5.559053633231444e6 1.9448239040421974e7 0.0
1.9448239040421974e7 3.422114761667863e7 0.0
0.0 0.0 0.0

-7.104874201021889e6 1.839163029743505e7 0.0
1.839163029743505e7 2.7047884863058567e7 0.0
0.0 0.0 0.0

-8.263787129914168e6 -620710.4090636278 0.0
-620710.4090636278 3.2856155522092577e7 0.0
0.0 0.0 0.0

-2.7954998855310963e6 2.869967832862092e7 0.0
2.869967832862092e7 1.1606315607553981e7 0.0
0.0 0.0 0.0

-5.466542081085397e6 1.936401347863195e7 0.0
1.936401347863195e7 -4.691779953356115e7 0.0
0.0 0.0 0.0

-1.0996928205433972e6 1.874944649214e7 0.0
1.874944649214e7 -3.2615145131366264e7 0.0
0.0 0.0 0.0

-3.959148125612421e7 3.701734373003672e7 0.0
3.701734373003672e7 -1.4953978255566401e7 0.0
0.0 0.0 0.0

-5.373341342832513e6 6.63453832759406e6 0.0
6.63453832759406e6 5.958852674407233e7 0.0
0.0 0.0 0.0

-334777.1003408339 1.9499092876392752e7 0.0
1.9499092876392752e7 -3.0474402224699605e7 0.0
0.0 0.0 0.0

-277852.34655750426 3.661532350026823e7 0.0
3.661532350026823e7 -1.4808571473876617e6 0.0
0.0 0.0 0.0

4.753189305491197e6 2.2200170699376773e7 0.0
2.2200170699376773e7 2.276074361648475e7 0.0
0.0 0.0 0.0

-8.025084897321345e6 -2.932002806698078e6 0.0
-2.932002806698078e6 2.8435257076379526e7 0.0
0.0 0.0 0.0

-410775.99735440104 2.2732425996822286e7 0.0
2.2732425996822286e7 -2.5403041902904245e6 0.0
0.0 0.0 0.0

-415570.1124903215 2.5088341472954113e7 0.0
2.5088341472954113e7 -1.068625407584615e7 0.0
0.0 0.0 0.0

-1.118723450957104e7 1.049018247077542e7 0.0
1.049018247077542e7 2.1646673721653905e7 0.0
0.0 0.0 0.0

1.4442255804691426e6 1.173052950334968e6 0.0
1.173052950334968e6 -5.977391241477887e7 0.0
0.0 0.0 0.0

-320028.53173227096 1.2105723345699545e7 0.0
1.2105723345699545e7 -1.074017314453641e7 0.0
0.0 0.0 0.0

-9.16737718208786e6 4.531336633597526e6 0.0
4.531336633597526e6 3.884916355658081e7 0.0
0.0 0.0 0.0

2.5857763265504194e6 2.648151587775478e7 0.0
2.648151587775478e7 -1.3834772058506794e7 0.0
0.0 0.0 0.0

9.068141015575442e6 2.133325946449421e7 0.0
2.133325946449421e7 4.2782023696976274e7 0.0
0.0 0.0 0.0

-293076.56742040254 1.1624188040165845e7 0.0
1.1624188040165845e7 -5.1509178364739595e6 0.0
0.0 0.0 0.0

1.2093537487199401e7 2.6994694232102163e7 0.0
2.6994694232102163e7 1.6035942494281704e7 0.0
0.0 0.0 0.0

-4.18539636494288e6 4.519677186936732e7 0.0
4.519677186936732e7 3.116527821551503e6 0.0
0.0 0.0 0.0

-1.0476631486640139e7 6.002737850055771e6 0.0
6.002737850055771e6 2.8376273885092318e7 0.0
0.0 0.0 0.0

2.1269824787399964e6 2.2746778728649177e7 0.0
2.2746778728649177e7 2.7172121776830938e7 0.0
0.0 0.0 0.0

987377.0572752524 1.2644447889727132e7 0.0
1.2644447889727132e7 -3.112785967751533e7 0.0
0.0 0.0 0.0

-2.6920044570791718e7 3.2679013433886815e7 0.0
3.2679013433886815e7 805639.5966443904 0.0
0.0 0.0 0.0

-8.84506525614873e6 -1.1628567008190572e6 0.0
-1.1628567008190572e6 1.9844865661438882e7 0.0
0.0 0.0 0.0

-1.5836866652982168e7 2.7399115219437156e7 0.0
2.7399115219437156e7 -1.0819393149332412e7 0.0
0.0 0.0 0.0

4.504330085931929e7 2.845803395055681e7 0.0
2.845803395055681e7 1.038470520159975e7 0.0
0.0 0.0 0.0

29648.635203170124 2.8214597201434366e7 0.0
2.8214597201434366e7 -8.19974590578841e6 0.0
0.0 0.0 0.0

1.7244276231253203e6 1.3000908316517344e7 0.0
1.3000908316517344e7 -2.879523959962631e7 0.0
0.0 0.0 0.0

-4.271745899138354e6 2.888723775969642e7 0.0
2.888723775969642e7 1.2782207507523505e7 0.0
0.0 0.0 0.0

-5.338509050026029e6 1.993280038794851e6 0.0
1.993280038794851e6 6.6392870143905394e7 0.0
0.0 0.0 0.0

-5.950165170804787e6 2.520027646477081e7 0.0
2.520027646477081e7 -1.7304575654187653e7 0.0
0.0 0.0 0.0

-1.5568232765073124e6 4.025671367096714e7 0.0
4.025671367096714e7 2.0550862466374561e6 0.0
0.0 0.0 0.0

-3.5368105251234956e6 1.749185032386646e7 0.0
1.749185032386646e7 -4.570670222032284e7 0.0
0.0 0.0 0.0

71003.8215806121 2.2703967825122513e7 0.0
2.2703967825122513e7 -2.266948669270187e7 0.0
0.0 0.0 0.0

-49611.58281943947 2.1820683359717473e7 0.0
2.1820683359717473e7 -2.4641191424894225e7 0.0
0.0 0.0 0.0

-5.607171949890878e6 1.613450353968769e7 0.0
1.613450353968769e7 4.2802505955670364e7 0.0
0.0 0.0 0.0

-2.595370411527583e6 2.7323924860861942e7 0.0
2.7323924860861942e7 1.0410849075700793e7 0.0
0.0 0.0 0.0

-4.64332679882618e6 1.3983810281535774e7 0.0
1.3983810281535774e7 1.1942959366625702e8 0.0
0.0 0.0 0.0

2.9994797945270166e6 1.415522573929358e7 0.0
1.415522573929358e7 -1.1967824227392027e8 0.0
0.0 0.0 0.0

-2.257167516598856e7 3.205081980764726e7 0.0
3.205081980764726e7 -1.4933285130786804e7 0.0
0.0 0.0 0.0

-1.6134241453406205e6 2.4290513926275063e7 0.0
2.4290513926275063e7 1.706081936465666e7 0.0
0.0 0.0 0.0

-3.280492476938608e7 3.332881985875861e7 0.0
3.332881985875861e7 -5.66885120055199e6 0.0
0.0 0.0 0.0

-8.70997070633337e6 -1.116329198367008e6 0.0
-1.116329198367008e6 2.346024456702977e7 0.0
0.0 0.0 0.0

-5.273999905679107e6 2.126597535734805e7 0.0
2.126597535734805e7 2.534237818880684e7 0.0
0.0 0.0 0.0

-1.7727731239719182e7 2.9082616865274124e7 0.0
2.9082616865274124e7 -8.693630590425499e6 0.0
0.0 0.0 0.0

-8.13071590994679e6 5.8096394416682e6 0.0
5.8096394416682e6 4.1215775556484655e7 0.0
0.0 0.0 0.0

4.219401179937262e7 2.5605564943492487e7 0.0
2.5605564943492487e7 9.416431294721896e6 0.0
0.0 0.0 0.0

2.7561659788612174e6 2.2257334645768248e7 0.0
2.2257334645768248e7 3.2819246254215065e7 0.0
0.0 0.0 0.0

-2.907911755728991e6 2.2966440653053373e7 0.0
2.2966440653053373e7 1.9669823019302733e7 0.0
0.0 0.0 0.0

-3.163367879186884e7 4.742060306012288e7 0.0
4.742060306012288e7 9.993427525436377e6 0.0
0.0 0.0 0.0

6.678675809454106e6 2.599532397064269e7 0.0
2.599532397064269e7 7.354937435175645e6 0.0
0.0 0.0 0.0

4.845700032329673e6 2.4749053713564403e7 0.0
2.4749053713564403e7 -656524.5157647314 0.0
0.0 0.0 0.0

-5.448253234555846e6 3.066926655222767e7 0.0
3.066926655222767e7 1.065114369049171e7 0.0
0.0 0.0 0.0

-1.0376775573279535e7 2.7047884470851652e7 0.0
2.7047884470851652e7 -969377.817730824 0.0
0.0 0.0 0.0

-1.3986914748109165e6 2.30036249298265e7 0.0
2.30036249298265e7 -2.6955346560241287e6 0.0
0.0 0.0 0.0

4.750985984908291e6 2.5783835676783424e7 0.0
2.5783835676783424e7 -2.910623347093599e6 0.0
0.0 0.0 0.0

5.992809434233394e6 2.5635424304378238e7 0.0
2.5635424304378238e7 1.6408064252742968e7 0.0
0.0 0.0 0.0

7.699556149140051e6 4.203658246700368e7 0.0
4.203658246700368e7 -3.005029575496796e6 0.0
0.0 0.0 0.0

-3.4066801773813777e6 2.833075565012049e7 0.0
2.833075565012049e7 1.2439277783969937e7 0.0
0.0 0.0 0.0

-6.6410436842650175e6 4.4618920561557546e7 0.0
4.4618920561557546e7 2.183257672679356e6 0.0
0.0 0.0 0.0

-9.999136308365019e6 1.964323588704495e7 0.0
1.964323588704495e7 -6.127038033159828e7 0.0
0.0 0.0 0.0

-2.0789827165823985e7 2.2880363047283594e7 0.0
2.2880363047283594e7 -1.1230685075726776e8 0.0
0.0 0.0 0.0

2.002989370129127e7 2.385811556792969e7 0.0
2.385811556792969e7 1.1109196122120267e8 0.0
0.0 0.0 0.0

9.367429110658433e6 2.182804832122727e7 0.0
2.182804832122727e7 4.088722231095047e7 0.0
0.0 0.0 0.0

-564843.7320167273 1.1614452638319723e7 0.0
1.1614452638319723e7 -5.150522452973429e7 0.0
0.0 0.0 0.0

4.559427772791792e6 4.144830231384518e7 0.0
4.144830231384518e7 -3.7921646202713894e6 0.0
0.0 0.0 0.0

2.490169031567109e6 2.822304173418725e7 0.0
2.822304173418725e7 -1.1109886195774853e7 0.0
0.0 0.0 0.0

-1.5338300356670332e6 2.3900459583012313e7 0.0
2.3900459583012313e7 -8.910965021575116e6 0.0
0.0 0.0 0.0

2.653132792157476e6 2.7063229686338972e7 0.0
2.7063229686338972e7 -1.292132428587627e7 0.0
0.0 0.0 0.0

-4.047180733401157e7 5.11198794871795e7 0.0
5.11198794871795e7 1.166083442591669e7 0.0
0.0 0.0 0.0

-3.2255446207351102e6 3.977841429609202e7 0.0
3.977841429609202e7 1.3313440090389664e6 0.0
0.0 0.0 0.0

-7.8668561313247355e6 3.1489355862457752e7 0.0
3.1489355862457752e7 8.806825751353886e6 0.0
0.0 0.0 0.0

1.088674020173803e6 3.2748088590301936e6 0.0
3.2748088590301936e6 -6.3587761685108386e7 0.0
0.0 0.0 0.0

1.4425705727643572e7 3.1333824990572624e7 0.0
3.1333824990572624e7 -4.75337884051874e6 0.0
0.0 0.0 0.0

-3.2805518380593024e6 1.8178617033736575e7 0.0
1.8178617033736575e7 -4.254143830124014e7 0.0
0.0 0.0 0.0

1.283325621652347e7 3.199279234500403e7 0.0
3.199279234500403e7 -5.460241579734725e6 0.0
0.0 0.0 0.0

-704023.6076310052 2.2101017182999443e7 0.0
2.2101017182999443e7 -1.4457803830857207e6 0.0
0.0 0.0 0.0

3.103639094197198e6 2.3545091749655496e7 0.0
2.3545091749655496e7 2.819018559738225e7 0.0
0.0 0.0 0.0

-6.287009383678803e6 3.446830131447908e7 0.0
3.446830131447908e7 6.616454853356369e6 0.0
0.0 0.0 0.0

-8.023473580344979e6 137397.0220636763 0.0
137397.0220636763 3.920791926536866e7 0.0
0.0 0.0 0.0

2.2803933300539374e7 2.5734568196840286e7 0.0
2.5734568196840286e7 5.520227882698966e6 0.0
0.0 0.0 0.0

-9.332545699028237e7 3.410137088374618e7 0.0
3.410137088374618e7 -2.2945502910751365e6 0.0
0.0 0.0 0.0

-6.356461723692784e6 1.6489009710988563e7 0.0
1.6489009710988563e7 4.004583005139663e7 0.0
0.0 0.0 0.0

-7.5471489064116e6 2.8185518921705835e7 0.0
2.8185518921705835e7 5.848910922720838e6 0.0
0.0 0.0 0.0

6.09486886825678e6 2.602239613646055e7 0.0
2.602239613646055e7 674811.009637726 0.0
0.0 0.0 0.0

2.410607298497375e6 2.9729840735538052e6 0.0
2.9729840735538052e6 -4.108853482847064e7 0.0
0.0 0.0 0.0

-2.434693876630109e6 2.5173986998513497e7 0.0
2.5173986998513497e7 1.3243893115820874e7 0.0
0.0 0.0 0.0

-6.074429073332723e6 1.3260594283476043e6 0.0
1.3260594283476043e6 5.924110878732809e7 0.0
0.0 0.0 0.0

-2.146873846832151e7 2.777491735149576e7 0.0
2.777491735149576e7 -1.1944854834249699e8 0.0
0.0 0.0 0.0

2.0091369856923923e7 2.887571229191167e7 0.0
2.887571229191167e7 1.1595505485409842e8 0.0
0.0 0.0 0.0

-406908.61160585843 1.5826863083475716e7 0.0
1.5826863083475716e7 -3.8285184812455185e7 0.0
0.0 0.0 0.0

258540.68077793182 4.892776496868604e6 0.0
4.892776496868604e6 -5.202685512631564e6 0.0
0.0 0.0 0.0

1.6865249052167427e7 2.234788270840365e7 0.0
2.234788270840365e7 7.112750837580262e6 0.0
0.0 0.0 0.0

-5.534555098169558e6 2.7336060343433907e6 0.0
2.7336060343433907e6 6.6877648466407955e7 0.0
0.0 0.0 0.0

566004.0563051216 9.379379435239702e6 0.0
9.379379435239702e6 -8.652349729902415e6 0.0
0.0 0.0 0.0

9.562703450309897e6 3.9765090777185015e7 0.0
3.9765090777185015e7 -4.829332420783933e6 0.0
0.0 0.0 0.0

710544.1117111081 2.3190426850636154e7 0.0
2.3190426850636154e7 -1.772695522644367e7 0.0
0.0 0.0 0.0

6.795219206888805e6 2.2228630128572922e7 0.0
2.2228630128572922e7 2.887195044240621e7 0.0
0.0 0.0 0.0

-8.236230588391875e6 2.7873185711392283e7 0.0
2.7873185711392283e7 234222.34594403673 0.0
0.0 0.0 0.0

-3.878240595967574e7 3.082282060917789e7 0.0
3.082282060917789e7 -9.685927284123061e6 0.0
0.0 0.0 0.0

-3.8498293549106894e6 3.906242231346581e7 0.0
3.906242231346581e7 2.1549136994026443e6 0.0
0.0 0.0 0.0

2.2426325280635054e6 2.3245775129202474e7 0.0
2.3245775129202474e7 1.5464865676532626e7 0.0
0.0 0.0 0.0

-142672.82283949852 2.449838127533202e7 0.0
2.449838127533202e7 2.0016769584844302e7 0.0
0.0 0.0 0.0

1.0289847367614824e6 1.9536823308106404e7 0.0
1.9536823308106404e7 -2.5248123755204495e7 0.0
0.0 0.0 0.0

2.7420806536752386e6 2.6199121494515155e7 0.0
2.6199121494515155e7 -1.3582907348996745e7 0.0
0.0 0.0 0.0

-5.965812389993053e6 4.511712537882107e6 0.0
4.511712537882107e6 6.45507000333584e7 0.0
0.0 0.0 0.0

-3.423487542959712e7 5.20547324247282e7 0.0
5.20547324247282e7 8.471283678021872e6 0.0
0.0 0.0 0.0

-1.6263477915888147e7 4.014898719244905e7 0.0
4.014898719244905e7 6.126380542719295e6 0.0
0.0 0.0 0.0

-3.8796208980398186e7 3.430959659923502e7 0.0
3.430959659923502e7 -5.821708762273997e6 0.0
0.0 0.0 0.0

360563.32334904815 2.379326805524305e7 0.0
2.379326805524305e7 5.342009558507622e6 0.0
0.0 0.0 0.0

-1.2102594058491373e7 2.8652121823449437e7 0.0
2.8652121823449437e7 -1.9796249837495754e6 0.0
0.0 0.0 0.0

-2.3379443242570736e7 3.0962236733257625e7 0.0
3.0962236733257625e7 -1.1022214266225219e7 0.0
0.0 0.0 0.0

1.4363559927128316e6 8.385940719149923e6 0.0
8.385940719149923e6 -8.188695194877945e6 0.0
0.0 0.0 0.0

5.846584763429969e6 2.2424269949428782e7 0.0
2.2424269949428782e7 2.974491126423227e7 0.0
0.0 0.0 0.0

597613.8931040391 1.0653278337446898e7 0.0
1.0653278337446898e7 -5.055019616587031e7 0.0
0.0 0.0 0.0

-5.172391724290239e6 1.7387904401610345e7 0.0
1.7387904401610345e7 4.116237185576836e7 0.0
0.0 0.0 0.0

-5.042255835035909e6 2.339001003243302e6 0.0
2.339001003243302e6 6.819161055834028e7 0.0
0.0 0.0 0.0

1.4469502426868826e6 3.5781372703225873e6 0.0
3.5781372703225873e6 -6.259815044076424e7 0.0
0.0 0.0 0.0

-4.363444762344876e7 3.442280060876881e7 0.0
3.442280060876881e7 -7.277117846184187e6 0.0
0.0 0.0 0.0

-6.472766548477117e6 619294.0839596884 0.0
619294.0839596884 5.417282413439806e7 0.0
0.0 0.0 0.0

-7.236306200888699e6 230677.94816939306 0.0
230677.94816939306 4.733757899345518e7 0.0
0.0 0.0 0.0

565648.369552901 8.040236302573418e6 0.0
8.040236302573418e6 -1.0807884311224943e7 0.0
0.0 0.0 0.0

-7.392483334509959e6 1.7727188946524526e6 0.0
1.7727188946524526e6 4.525584585263816e7 0.0
0.0 0.0 0.0

1.285069530464102e7 5.5707751481685296e7 0.0
5.5707751481685296e7 -5.442869770042938e6 0.0
0.0 0.0 0.0

-2.6819646028832113e6 2.4114261052948248e7 0.0
2.4114261052948248e7 1.8656225647075627e7 0.0
0.0 0.0 0.0

217556.07533770427 4.814778104493985e6 0.0
4.814778104493985e6 -7.70729257352183e7 0.0
0.0 0.0 0.0

1.2851176401087772e6 4.096471760141409e6 0.0
4.096471760141409e6 -4.875788505372064e7 0.0
0.0 0.0 0.0

-2.6601453223901642e6 2.711210938094041e7 0.0
2.711210938094041e7 9.361446759002645e6 0.0
0.0 0.0 0.0

-6.353337955116725e6 4.379459294439995e7 0.0
4.379459294439995e7 3.9254086704275766e6 0.0
0.0 0.0 0.0

9.443377608138071e6 1.2009176196081353e7 0.0
1.2009176196081353e7 2.447951120560753e6 0.0
0.0 0.0 0.0

1.5855384435494808e7 2.645723009473269e7 0.0
2.645723009473269e7 1.4479335092030283e7 0.0
0.0 0.0 0.0

1.4560607886574801e7 2.9673491104188256e7 0.0
2.9673491104188256e7 -3.185272294619768e6 0.0
0.0 0.0 0.0

-6.658589486267615e6 882866.9296601302 0.0
882866.9296601302 5.318926662978347e7 0.0
0.0 0.0 0.0

-2.322636115047869e7 2.749226016248739e7 0.0
2.749226016248739e7 -5.019948618071776e6 0.0
0.0 0.0 0.0

-3.654353882701225e6 3.815699562369879e7 0.0
3.815699562369879e7 2.0095306819442336e6 0.0
0.0 0.0 0.0

7.376828363005467e6 2.111228096474874e7 0.0
2.111228096474874e7 6.5455921683026135e7 0.0
0.0 0.0 0.0

1.7182821223471433e7 3.0319114719191883e7 0.0
3.0319114719191883e7 -3.1800440990994275e6 0.0
0.0 0.0 0.0

-6.050042445457304e6 2.5528666718081605e7 0.0
2.5528666718081605e7 -1.2036445246028474e7 0.0
0.0 0.0 0.0

-2.9184138373068003e6 2.549112359963101e7 0.0
2.549112359963101e7 1.9020111711843863e7 0.0
0.0 0.0 0.0

-4.408703616313304e6 2.4891197406612583e7 0.0
2.4891197406612583e7 -1.1893139236769142e7 0.0
0.0 0.0 0.0

-8.924614407113224e7 4.7382327912014775e7 0.0
4.7382327912014775e7 -1.3756829278415838e7 0.0
0.0 0.0 0.0

-3.59821898286485e6 2.379441163456917e7 0.0
2.379441163456917e7 1.8156951103028405e7 0.0
0.0 0.0 0.0

-5.364347595381067e6 2.6154159221499253e7 0.0
2.6154159221499253e7 -1.0193320481422603e7 0.0
0.0 0.0 0.0

-3.2632590484021697e6 2.639681406549301e7 0.0
2.639681406549301e7 1.7962913832751393e7 0.0
0.0 0.0 0.0

1.1821527982425302e7 2.9169873623909954e7 0.0
2.9169873623909954e7 -4.329162079519352e6 0.0
0.0 0.0 0.0

1.972210972313149e6 2.934672513407118e6 0.0
2.934672513407118e6 -3.983349757225375e7 0.0
0.0 0.0 0.0

5.517270823988607e6 2.8220702064319614e7 0.0
2.8220702064319614e7 -8.945150627776232e6 0.0
0.0 0.0 0.0

-3.324755243045792e7 5.181002095464603e7 0.0
5.181002095464603e7 7.774365275243664e6 0.0
0.0 0.0 0.0

-8.112082772108076e6 3.588757078852082e7 0.0
3.588757078852082e7 6.906293510671087e6 0.0
0.0 0.0 0.0

-8.560965549343724e6 -371650.24200455 0.0
-371650.24200455 3.199355748131573e7 0.0
0.0 0.0 0.0

879567.755952877 2.344855872135607e7 0.0
2.344855872135607e7 -1.9568751812767565e7 0.0
0.0 0.0 0.0

1.9053385828697715e7 2.663169514041256e7 0.0
2.663169514041256e7 6.925456515755226e6 0.0
0.0 0.0 0.0

-7.766377401347896e7 3.96534326509963e7 0.0
3.96534326509963e7 -362767.07608452067 0.0
0.0 0.0 0.0

5.821132409025505e6 2.08338202371293e7 0.0
2.08338202371293e7 2.075945915511585e7 0.0
0.0 0.0 0.0

-216538.45011318102 1.0351860204027724e7 0.0
1.0351860204027724e7 -5.3329752194830626e7 0.0
0.0 0.0 0.0

600770.0158860227 1.916853995562358e7 0.0
1.916853995562358e7 -2.5117120360801384e7 0.0
0.0 0.0 0.0

-2.064830955633846e6 2.552053799329918e7 0.0
2.552053799329918e7 1.5347303406733327e7 0.0
0.0 0.0 0.0

-9.471573744853776e6 4.41693669669898e7 0.0
4.41693669669898e7 3.6192092307647243e6 0.0
0.0 0.0 0.0

2.356808205577883e6 3.263681781016789e7 0.0
3.263681781016789e7 -5.601740406175315e6 0.0
0.0 0.0 0.0

1.756773307397822e6 2.831599241646302e6 0.0
2.831599241646302e6 -4.790338366528248e7 0.0
0.0 0.0 0.0

9.989292160299588e6 2.149508009982862e7 0.0
2.149508009982862e7 5.859809021949268e7 0.0
0.0 0.0 0.0

-912221.2213178945 2.175459648975238e7 0.0
2.175459648975238e7 -2.3346820164122647e6 0.0
0.0 0.0 0.0

-6.032722405699457e7 4.6347191168703996e7 0.0
4.6347191168703996e7 1.0134166121565893e7 0.0
0.0 0.0 0.0

-8.46771926727433e6 2.4335997612312e6 0.0
2.4335997612312e6 4.06100405347251e7 0.0
0.0 0.0 0.0

-7.619148447596528e6 2.0691257191881072e6 0.0
2.0691257191881072e6 4.318085621412562e7 0.0
0.0 0.0 0.0

1.8350413808137037e7 2.6422971173612986e7 0.0
2.6422971173612986e7 9.940309415712366e6 0.0
0.0 0.0 0.0

-6.389961565920178e6 503072.0132094866 0.0
503072.0132094866 5.283006358716062e7 0.0
0.0 0.0 0.0

4.822449725665686e6 2.156398509703181e7 0.0
2.156398509703181e7 2.0129593837680396e7 0.0
0.0 0.0 0.0

1.0901108441602692e7 2.196936142274045e7 0.0
2.196936142274045e7 4.3599045927800916e7 0.0
0.0 0.0 0.0

2.2192498299923306e6 4.124392675067096e7 0.0
4.124392675067096e7 -1.8735440965009718e6 0.0
0.0 0.0 0.0

-4.943863412348334e6 7.631872315553855e6 0.0
7.631872315553855e6 7.05377351286312e7 0.0
0.0 0.0 0.0

-4.199338437295618e6 1.820268573377443e7 0.0
1.820268573377443e7 -4.403242202132276e7 0.0
0.0 0.0 0.0

79658.7719060108 9.073268700810466e6 0.0
9.073268700810466e6 -9.281018183965748e6 0.0
0.0 0.0 0.0

-1.5161019035136374e6 2.4941504448088013e7 0.0
2.4941504448088013e7 1.348189455807889e7 0.0
0.0 0.0 0.0

6.892586238190351e6 2.2025977519316327e7 0.0
2.2025977519316327e7 4.196196730703452e7 0.0
0.0 0.0 0.0

-7.336919150666993e6 2.4251263705596593e6 0.0
2.4251263705596593e6 5.1540354473344065e7 0.0
0.0 0.0 0.0

-5.4981276086454205e6 1.0354648953219533e7 0.0
1.0354648953219533e7 6.580431244923772e6 0.0
0.0 0.0 0.0

-1.9009504346649237e6 2.6326578278498128e7 0.0
2.6326578278498128e7 1.9513926488483006e6 0.0
0.0 0.0 0.0

3.8364871468113014e6 1.3780398954723978e7 0.0
1.3780398954723978e7 1.1668091176094476e7 0.0
0.0 0.0 0.0

5.635584478991436e6 2.4997191319163263e7 0.0
2.4997191319163263e7 -1.4857602449176554e6 0.0
0.0 0.0 0.0

-8.075010561187016e6 1.9194177117832308e6 0.0
1.9194177117832308e6 4.2970578509248674e7 0.0
0.0 0.0 0.0

-4.149437168078482e6 7.504611631283071e6 0.0
7.504611631283071e6 7.480598668541169e7 0.0
0.0 0.0 0.0

4.625664156012942e6 2.569913374093895e7 0.0
2.569913374093895e7 -238186.9445913746 0.0
0.0 0.0 0.0

1.5930313561434494e6 2.4033370157635804e7 0.0
2.4033370157635804e7 -1.6704573536937207e7 0.0
0.0 0.0 0.0

-3.8434128568174057e6 7.319290154578004e6 0.0
7.319290154578004e6 7.406522361202978e7 0.0
0.0 0.0 0.0

1.1262654586307442e7 2.9325291569300603e7 0.0
2.9325291569300603e7 -4.141551542855756e6 0.0
0.0 0.0 0.0

5.74029036641098e6 2.129804085740025e7 0.0
2.129804085740025e7 3.0566110049625866e7 0.0
0.0 0.0 0.0

-6.995785071061376e6 1.491598844812566e7 0.0
1.491598844812566e7 1.6901805095014114e7 0.0
0.0 0.0 0.0

-5.7374802128725145e6 1.4009858974903814e7 0.0
1.4009858974903814e7 4.783650645408627e6 0.0
0.0 0.0 0.0

-1.209735761235016e7 1.0772153201289149e7 0.0
1.0772153201289149e7 4.577997119967899e6 0.0
0.0 0.0 0.0

