# vtk DataFile Version 2.0
phase field modeling fracture
ASCII
DATASET UNSTRUCTURED_GRID
POINTS 2538 float
0.0 0.0 0.0
10.0 0.0 0.0
0.0 10.0 0.0
10.0 10.0 0.0
0.0 4.9995 0.0
0.0 5.0005 0.0
5.0 5.0 0.0
0.9416964895726688 0.0 0.0
1.803581725054446 0.0 0.0
2.592419885431098 0.0 0.0
3.314401822861676 0.0 0.0
3.975193910351406 0.0 0.0
4.579982132660152 0.0 0.0
5.133512780936812 0.0 0.0
5.640130319506143 0.0 0.0
6.103810708661955 0.0 0.0
6.528192895506818 0.0 0.0
6.916607540127679 0.0 0.0
7.272102969376355 0.0 0.0
7.597469242948583 0.0 0.0
7.895259826292669 0.0 0.0
8.167811885738017 0.0 0.0
8.417264413845215 0.0 0.0
8.645575169389538 0.0 0.0
8.854535961159101 0.0 0.0
9.045786767735546 0.0 0.0
9.220828555767493 0.0 0.0
9.38103509633881 0.0 0.0
9.527663687265145 0.0 0.0
9.661865124984566 0.0 0.0
9.784692609918062 0.0 0.0
9.897110148790482 0.0 0.0
10.0 0.09999999999992584 0.0
10.0 0.199999999999856 0.0
10.0 0.2999999999997771 0.0
10.0 0.3999999999996677 0.0
10.0 0.4999999999995511 0.0
10.0 0.5999999999994683 0.0
10.0 0.6999999999993983 0.0
10.0 0.7999999999993286 0.0
10.0 0.8999999999992587 0.0
10.0 0.9999999999991888 0.0
10.0 1.099999999999119 0.0
10.0 1.199999999999033 0.0
10.0 1.299999999998852 0.0
10.0 1.399999999998576 0.0
10.0 1.499999999998284 0.0
10.0 1.599999999997992 0.0
10.0 1.6999999999977 0.0
10.0 1.799999999997408 0.0
10.0 1.899999999997116 0.0
10.0 1.999999999996825 0.0
10.0 2.099999999996533 0.0
10.0 2.199999999996241 0.0
10.0 2.299999999995949 0.0
10.0 2.399999999995657 0.0
10.0 2.499999999995365 0.0
10.0 2.599999999995073 0.0
10.0 2.699999999994782 0.0
10.0 2.79999999999449 0.0
10.0 2.899999999994198 0.0
10.0 2.999999999993906 0.0
10.0 3.099999999993614 0.0
10.0 3.199999999993322 0.0
10.0 3.299999999993029 0.0
10.0 3.399999999992738 0.0
10.0 3.499999999992446 0.0
10.0 3.599999999992154 0.0
10.0 3.699999999991863 0.0
10.0 3.799999999991571 0.0
10.0 3.899999999991278 0.0
10.0 3.999999999991022 0.0
10.0 4.099999999991035 0.0
10.0 4.199999999991187 0.0
10.0 4.299999999991338 0.0
10.0 4.399999999991491 0.0
10.0 4.499999999991642 0.0
10.0 4.599999999991795 0.0
10.0 4.699999999991947 0.0
10.0 4.799999999992099 0.0
10.0 4.89999999999225 0.0
10.0 4.999999999992403 0.0
10.0 5.099999999992555 0.0
10.0 5.199999999992706 0.0
10.0 5.299999999992858 0.0
10.0 5.39999999999301 0.0
10.0 5.499999999993161 0.0
10.0 5.599999999993313 0.0
10.0 5.699999999993466 0.0
10.0 5.799999999993618 0.0
10.0 5.899999999993771 0.0
10.0 5.999999999993922 0.0
10.0 6.099999999994074 0.0
10.0 6.199999999994227 0.0
10.0 6.299999999994378 0.0
10.0 6.39999999999453 0.0
10.0 6.499999999994682 0.0
10.0 6.599999999994833 0.0
10.0 6.699999999994986 0.0
10.0 6.799999999995138 0.0
10.0 6.899999999995289 0.0
10.0 6.999999999995442 0.0
10.0 7.099999999995594 0.0
10.0 7.199999999995747 0.0
10.0 7.299999999995897 0.0
10.0 7.39999999999605 0.0
10.0 7.499999999996202 0.0
10.0 7.599999999996353 0.0
10.0 7.699999999996505 0.0
10.0 7.799999999996658 0.0
10.0 7.899999999996808 0.0
10.0 7.999999999996962 0.0
10.0 8.099999999997113 0.0
10.0 8.199999999997265 0.0
10.0 8.299999999997418 0.0
10.0 8.399999999997569 0.0
10.0 8.499999999997721 0.0
10.0 8.599999999997873 0.0
10.0 8.699999999998024 0.0
10.0 8.799999999998176 0.0
10.0 8.899999999998329 0.0
10.0 8.99999999999848 0.0
10.0 9.099999999998634 0.0
10.0 9.199999999998786 0.0
10.0 9.299999999998937 0.0
10.0 9.399999999999089 0.0
10.0 9.499999999999241 0.0
10.0 9.599999999999392 0.0
10.0 9.699999999999545 0.0
10.0 9.799999999999697 0.0
10.0 9.899999999999848 0.0
9.897110148790565 10.0 0.0
9.784692609918244 10.0 0.0
9.66186512498486 10.0 0.0
9.527663687265571 10.0 0.0
9.381035096339392 10.0 0.0
9.220828555768257 10.0 0.0
9.045786767736512 10.0 0.0
8.854535961160305 10.0 0.0
8.645575169391027 10.0 0.0
8.417264413847017 10.0 0.0
8.167811885740178 10.0 0.0
7.895259826295246 10.0 0.0
7.597469242951631 10.0 0.0
7.272102969379938 10.0 0.0
6.916607540131873 10.0 0.0
6.528192895511704 10.0 0.0
6.103810708667616 10.0 0.0
5.640130319512691 10.0 0.0
5.13351278094435 10.0 0.0
4.579982132668816 10.0 0.0
3.975193910361222 10.0 0.0
3.314401822869852 10.0 0.0
2.592419885437257 10.0 0.0
1.803581725058137 10.0 0.0
0.9416964895740705 10.0 0.0
0.0 9.00010000000243 0.0
0.0 8.000200000005481 0.0
0.0 7.000300000005135 0.0
0.0 6.000400000002569 0.0
0.901790731451151 5.000409820926855 0.0
1.657200899774397 5.000334279910023 0.0
2.289991063707192 5.000271000893629 0.0
2.820065163538221 5.000217993483646 0.0
3.264096435579811 5.000173590356442 0.0
3.636051481595835 5.00013639485184 0.0
3.947629914072366 5.000105237008593 0.0
4.208632181002628 5.0000791367819 0.0
4.427267949625672 5.000057273205037 0.0
4.610414277633563 5.000038958572237 0.0
4.763831845154243 5.000023616815485 0.0
4.892346298799659 5.00001076537012 0.0
4.892346298799748 4.99998923462988 0.0
4.763831845154455 4.999976383184515 0.0
4.610414277633943 4.999961041427763 0.0
4.427267949626277 4.999942726794963 0.0
4.208632181003523 4.9999208632181 0.0
3.94762991407365 4.999894762991407 0.0
3.636051481597624 4.99986360514816 0.0
3.264096435582253 4.999826409643559 0.0
2.820065163541503 4.999782006516354 0.0
2.289991063711534 4.999728999106371 0.0
1.657200899778495 4.999665720089978 0.0
0.9017907314530094 4.999590179073145 0.0
0.0 3.999600000002013 0.0
0.0 2.999700000005187 0.0
0.0 1.99980000000512 0.0
0.0 0.9999000000025537 0.0
9.897889398521345 2.93573355845387 0.0
9.906568249974548 7.060009441434234 0.0
9.913122631074113 3.64016132281653 0.0
9.922462129543863 6.354535290629151 0.0
9.917693659967533 4.354211663134567 0.0
9.909873057440208 5.637584487339942 0.0
9.914183254994697 4.950672966925282 0.0
9.913885043715895 7.666887930262611 0.0
9.91009668007573 2.351889069770817 0.0
9.905135696074536 8.138152454502785 0.0
9.913397459621809 1.849999999997262 0.0
7.099302372137626 0.297750452375005 0.0
7.095143729410097 9.700359990366296 0.0
4.942912558701401 5.095838627899509 0.0
4.315009232304429 5.165022115481685 0.0
4.946182472483878 4.906763777264103 0.0
4.317967462990024 4.825955043772673 0.0
9.916390871492647 8.64999999999792 0.0
9.921504649680616 1.368376469890358 0.0
8.292538149791614 0.206877570318844 0.0
8.292538149793597 9.793122429681448 0.0
5.884594439766573 9.587645267048616 0.0
5.794826292691579 0.3794853783929359 0.0
9.913397459621425 9.049999999998557 0.0
9.908526577714177 0.9568239351922434 0.0
3.456851160380649 5.315740054130451 0.0
3.457889657868442 4.707121019609468 0.0
8.945214200703926 0.1503383337970344 0.0
8.950161364448409 9.8413906539257 0.0
9.913862335499305 4.055887885208452 0.0
9.916697353372683 4.650158482607802 0.0
9.919076340414442 6.049999999994006 0.0
9.906994308667635 5.25749687748192 0.0
9.917490342358025 6.655979201891897 0.0
9.915757520293784 7.343848891656911 0.0
9.910049507471042 3.363474386285078 0.0
9.914471988502868 2.647400064832979 0.0
9.91474124160965 9.337490423485129 0.0
9.916971008170838 0.6499999999994355 0.0
4.307157269264427 9.509674045029644 0.0
4.331527375865619 0.4401616696422582 0.0
9.45434939180249 9.878397030523757 0.0
9.457696120412969 0.1270877537061785 0.0
2.555070293622606 5.422044496190925 0.0
2.566232917480916 4.608001224030952 0.0
3.026511860837692 9.332320638257093 0.0
2.945561971800619 0.5895662714727601 0.0
7.7395404387124 0.2511088946967771 0.0
7.736379255744154 9.745848826372828 0.0
4.687135269408529 5.122111433928926 0.0
4.688420821504113 4.871895064967488 0.0
9.910554884115975 0.3448356354522978 0.0
9.911230082250466 9.65764729394159 0.0
9.921953841410854 6.851023993342036 0.0
9.912065178606017 5.448170483544033 0.0
9.911660025326261 3.861846960030188 0.0
9.914847467973438 3.14501593945607 0.0
9.913397459621425 5.849999999993703 0.0
9.913397459621425 7.849999999996735 0.0
9.906916878988277 2.15455769998631 0.0
9.913397459621425 8.349999999997479 0.0
9.909472363117661 1.640528221515488 0.0
9.913987325695956 1.152857110636247 0.0
9.913397459621425 8.849999999998241 0.0
0.9100099990995943 2.614215977520411 0.0
0.8395284981715456 7.451196254860987 0.0
9.723278867451556 9.898135916635193 0.0
9.723316350887044 0.09841820909386662 0.0
1.385819164827588 4.454539963646463 0.0
1.338343629665047 5.523111536005823 0.0
1.377179700550677 0.6809168304959698 0.0
1.418060461092743 9.285896715136046 0.0
9.91268220142518 0.1457914080939694 0.0
9.906737126737994 9.845745933882352 0.0
0.7108351382691361 6.537941170074089 0.0
1.527735020267026 6.915620208855231 0.0
1.630993885659103 7.838271825205868 0.0
2.232760943566823 7.370850737296832 0.0
2.243414218068206 6.688299277952821 0.0
2.779655053105118 7.021588754814074 0.0
2.80227799359795 7.632420170547022 0.0
3.282022065908813 7.305859666021318 0.0
3.327597298795347 7.857554136825748 0.0
3.743210251018715 7.549183328204379 0.0
3.716353232200752 7.062036086888612 0.0
4.111978858674101 7.27497101169417 0.0
4.104192177581432 6.879858986267289 0.0
4.436230765617037 7.045693351607117 0.0
4.430360014817357 6.703971783962796 0.0
4.732390145036301 6.849841042423394 0.0
5.056161327708878 5.095276573498806 0.0
5.111586796021131 4.999081142133581 0.0
5.169267363407189 5.09444870412406 0.0
5.223795108752053 4.996986220359468 0.0
5.281480803887719 5.092780870372803 0.0
5.335670761900611 4.994887492556936 0.0
5.393485214772442 5.090486192743301 0.0
5.447323082877892 4.992601527033996 0.0
5.505243219343024 5.087953380710069 0.0
5.558739102026105 4.990287787962959 0.0
5.616491581184779 5.085335255235766 0.0
5.669852346908056 4.9879269227514 0.0
5.727502713908907 5.082679981817038 0.0
5.780766004135139 4.988313988715834 0.0
5.838244881129535 5.080480568766611 0.0
5.891357695677371 4.986433849408193 0.0
5.948696036767613 5.077969900389505 0.0
6.001601341641615 4.981313698556656 0.0
6.058851024265095 5.074871552128682 0.0
6.111614020704875 4.978360695880202 0.0
6.168801161530775 5.072044953270978 0.0
6.221368818778567 4.975825765213497 0.0
6.278268309066882 5.066182320461055 0.0
6.330814273567539 4.972837984645718 0.0
6.387565032421376 5.062889771971895 0.0
6.437476667631405 4.971693683589553 0.0
6.496181111585419 5.060210690175857 0.0
6.539454812256072 4.964658165361536 0.0
6.604198202576491 5.056387520850258 0.0
6.648506025747331 4.939374587506267 0.0
6.714026758992516 5.05873885840664 0.0
6.764418045981209 4.959246676066148 0.0
6.8219334571197 5.055299567406268 0.0
6.873708540948134 4.960426349093742 0.0
6.930181428849307 5.053461390218819 0.0
6.981893615341967 4.96435459462232 0.0
7.037791764774784 5.051219747103022 0.0
7.090993561518408 4.96392420322464 0.0
5.504417457283294 4.900897920552702 0.0
7.145434864123609 5.048960634292441 0.0
6.054532384032612 4.883956083938546 0.0
6.738027949040956 4.850032323068674 0.0
7.198432914526514 4.956325226333323 0.0
7.252637187936749 5.046012229327236 0.0
7.30926729605109 4.948903216650376 0.0
7.248106275544042 4.860306312845646 0.0
7.363100274863074 4.849952416808486 0.0
7.365733472701664 5.039519554615095 0.0
7.308483293090149 5.137557220352172 0.0
6.768399513646964 5.145609705119954 0.0
7.422800035311104 5.132251445551834 0.0
7.358273518796229 5.235980394389298 0.0
7.480824155801127 5.227946127939927 0.0
7.302193400058628 4.761917474298247 0.0
7.413570879789824 4.754555110721153 0.0
7.414392998903179 5.334729114426734 0.0
7.352769630272076 4.660405502266205 0.0
7.467556835255426 4.658352623795039 0.0
7.536246869015014 5.328986926716081 0.0
7.478865844607288 5.432598185493195 0.0
7.406396991826072 4.556956233957538 0.0
7.523581002009154 4.552005631348623 0.0
7.597792398573263 5.429506106314967 0.0
7.540511043402902 5.53619421580439 0.0
7.46214474876342 4.452580994318881 0.0
7.5852185078634 4.446021810672608 0.0
7.663329342323453 5.533453399066901 0.0
7.603478967594521 5.643227430483237 0.0
7.513450346818673 4.347641323140766 0.0
7.640744971722214 4.333388343316237 0.0
7.727671715775243 5.642390483050116 0.0
7.667774597993788 5.753188858425915 0.0
7.570065256728661 4.230515669344811 0.0
7.702881065467917 4.218307808529532 0.0
7.638288257073729 4.107994211855027 0.0
7.493362356301017 4.120843902105771 0.0
7.779018500630071 5.521233457321821 0.0
7.794641287388929 5.752364621610818 0.0
7.73369774483611 5.865894287356292 0.0
7.600834531784728 5.867752110500446 0.0
6.233038857278689 5.15645045634683 0.0
7.669727996028819 5.985665563643058 0.0
7.528582452554481 5.987393423295551 0.0
7.598722674572824 6.11001923494443 0.0
7.778305000222867 4.104318908265786 0.0
7.704329019832056 3.987744174608892 0.0
7.838453459801382 4.213322728668484 0.0
7.864495721576461 5.862306066517277 0.0
7.846552353360407 3.98481756181946 0.0
7.769730409703277 3.86544808681145 0.0
5.785249360396857 5.177248808588045 0.0
7.908837087876153 3.861484036275285 0.0
7.834824606222196 3.740586825753288 0.0
7.97685993406276 3.736209527152902 0.0
7.89665098770825 3.615501862931453 0.0
7.753228010315262 3.617800245018972 0.0
7.826063013090472 3.483173292579822 0.0
7.66789744383048 3.48859328808356 0.0
8.042515855796823 3.595394268381807 0.0
7.75200750488492 3.341279823834038 0.0
7.582870318332553 3.346584916806707 0.0
8.120807847415062 3.732493963388337 0.0
8.189783970303546 3.61159165475499 0.0
7.657801000286734 3.200439907646711 0.0
7.486781956172036 3.201402473247712 0.0
7.452595103886905 6.11418616185016 0.0
7.527098033550077 6.243191052852112 0.0
8.260502906807751 3.728437634721859 0.0
8.327629317451398 3.608173631356984 0.0
7.372763970891452 6.247552889754036 0.0
7.456170570815929 6.384992468962936 0.0
7.621837793616884 6.376077080857113 0.0
7.548039512904141 6.520750676893614 0.0
7.717475944451644 6.514856553988943 0.0
7.636658166268699 6.661648164052906 0.0
7.807468267259438 6.664076174524672 0.0
7.718022764310774 6.817938967122142 0.0
7.887785766941087 6.807440365887151 0.0
7.545993589083432 6.815070675854734 0.0
7.809874785067209 6.967537287475282 0.0
7.975643812145337 6.948729406725126 0.0
8.396477808021062 3.725446935061211 0.0
7.565651643157136 3.044354774611752 0.0
7.384328725505071 3.043048915147076 0.0
8.056405351948353 6.802790889114673 0.0
8.14128318237188 6.940027831915737 0.0
8.064621760266059 7.086348792208953 0.0
8.225003598857908 6.805225152373254 0.0
8.463085452993242 3.606998510553562 0.0
8.230426869720718 7.079551841000411 0.0
8.155262284174286 7.224761758176069 0.0
8.530696760758996 3.721683301125054 0.0
8.596669886994064 3.604516769862316 0.0
8.528531058025589 3.490411531312337 0.0
8.320451770844851 7.218191678954744 0.0
8.245273958732774 7.363444652121271 0.0
8.66324687389452 3.717094013035765 0.0
8.600103125209296 3.831913857228569 0.0
8.662131102573216 3.488322280861316 0.0
8.594166125380536 3.374071873435548 0.0
8.411074336066186 7.353871649576861 0.0
8.339644223432472 7.505172120620427 0.0
8.165883718619623 7.513159193685373 0.0
8.483453820080417 7.2082285366806 0.0
8.261200365730348 7.657400951288149 0.0
8.081570576666843 7.670933304838066 0.0
7.471613195794025 2.872548423100142 0.0
7.268733678357991 2.881209199257603 0.0
7.184255506995786 3.084448584600423 0.0
7.065899603697895 2.883902449336828 0.0
6.960163891183182 3.081014635802978 0.0
6.847612128388715 2.885646860602812 0.0
6.739800729737967 3.078895733381448 0.0
8.729373804596847 3.827689165637365 0.0
8.668550856907444 3.938702277545298 0.0
8.72770789162863 3.371798381178293 0.0
8.659764090070603 3.257493349874974 0.0
8.436453928793245 7.648724489148887 0.0
6.619080287792762 2.90880017416788 0.0
6.511740956842646 3.09340654756684 0.0
8.793527829963288 3.935174834810256 0.0
8.736430500996828 4.042719556852617 0.0
7.631260330584174 4.565300771328012 0.0
8.359058396840432 7.801678182761817 0.0
5.339436215072359 5.184870243702279 0.0
4.994031736761993 5.193306795607908 0.0
6.383387675268097 4.87760645722207 0.0
7.29117392392962 6.382172868329505 0.0
6.378196825372041 2.907113079755629 0.0
6.269817199014261 3.12412150658573 0.0
8.793149127377946 3.255386294257182 0.0
8.725774239201558 3.141596687892195 0.0
8.857434600673502 4.041295940541356 0.0
8.802868937128341 4.1471119953668 0.0
8.532045262478793 7.7905977476835 0.0
7.364542641624493 2.699128473342751 0.0
7.571677611088925 2.695732556686516 0.0
6.723058333614999 2.672341359410618 0.0
8.456744924757372 7.94483904450548 0.0
6.140831279784704 2.921247401137864 0.0
6.02419219050745 3.14358702955763 0.0
8.916255604212301 3.934279868822481 0.0
8.859287250884009 3.140226640574265 0.0
8.791092798057303 3.025929352146465 0.0
7.210445465986021 6.245773134960393 0.0
7.120884161792869 6.385155584680196 0.0
7.036931702064287 6.240721609143972 0.0
6.943722280007011 6.3869279517155 0.0
8.920094519678617 4.144837222494242 0.0
8.864374107136287 4.250930406527029 0.0
7.347569838739255 4.463467417508182 0.0
5.90383431757064 2.935113219563906 0.0
5.783476009580765 3.156456199832474 0.0
8.626013191558314 7.935092223505354 0.0
8.687240186957197 7.796697889991163 0.0
5.642059327424706 2.903018174330269 0.0
5.52647853955939 3.162549070310043 0.0
8.555300051897738 8.086169516016518 0.0
8.405624441178524 8.083972416481254 0.0
5.374124307190728 2.945480555950917 0.0
8.935805220807357 3.249260758206028 0.0
8.981625171409894 4.247375537584228 0.0
8.924725364486765 4.352101286657735 0.0
8.807208588134106 4.356163101450244 0.0
8.868277832430604 4.45657124153171 0.0
8.75099635287701 4.460644845248524 0.0
8.812385950597063 4.560891222623518 0.0
8.693833206943118 4.564602972998703 0.0
8.756474732548273 4.665720853686476 0.0
8.63721608225855 4.669394550615355 0.0
8.700108119351134 4.770682016274914 0.0
8.81920502916846 4.767536120893284 0.0
8.76355311338807 4.871451945248518 0.0
8.881442328033694 4.868382238751069 0.0
8.826433523510634 4.97132552240372 0.0
8.943387824985514 4.967694248194483 0.0
8.888718468126953 5.071044784833541 0.0
8.580377663835254 4.774669738817985 0.0
8.770572242937233 5.073880380431421 0.0
8.832915096600454 5.174518948293615 0.0
8.952224483821848 5.170970838320107 0.0
8.897282771771884 5.275476392171722 0.0
7.463928467290875 2.513944501591933 0.0
7.675935950092034 2.509420347143072 0.0
8.924252417741767 3.024418701372628 0.0
8.857265893102921 2.911213535286156 0.0
8.776981063213334 5.27944309004916 0.0
8.840710910770163 5.380165700477552 0.0
8.960876896785969 5.375521424256389 0.0
8.904555918255223 5.482125846038813 0.0
7.567193097677677 2.32750151280277 0.0
7.780880844888839 2.323064027160363 0.0
6.851602118390116 6.234522818184622 0.0
6.758680682687229 6.389359516748128 0.0
6.66345977321418 6.231254850996584 0.0
8.715764716958308 8.079994249772627 0.0
8.65189989696114 8.227534663647639 0.0
9.042229096541828 4.348551764001607 0.0
6.436774206993324 3.316782326998922 0.0
7.590527613340588 5.22651784724799 0.0
9.024366884701616 5.476726561488805 0.0
8.968734351641839 5.583879050892151 0.0
8.845941080047659 5.586406316932274 0.0
8.909881305857882 5.690482454668167 0.0
7.348726871578975 5.44047403999932 0.0
6.567070253986433 6.398115757512583 0.0
6.697077150072261 6.553426749743366 0.0
5.252377383990728 3.187782967482479 0.0
8.988440431820699 2.908621158637298 0.0
8.922541972760119 2.796420836075996 0.0
6.466806010659505 6.229115583261771 0.0
9.033851153821296 5.686506775615425 0.0
8.978340519963718 5.795772485582058 0.0
8.85111463793018 5.798672910287243 0.0
8.922171984280597 5.907237880910408 0.0
8.795190680908043 5.911854068712683 0.0
8.864373398892472 6.019728357749566 0.0
8.991346995940626 6.014539153309398 0.0
8.93374019140187 6.12698887312768 0.0
5.095192648098848 2.952353430985476 0.0
7.672651464908932 2.141715359830917 0.0
7.886266921042761 2.136211284120189 0.0
9.098474286589756 4.245971410451114 0.0
8.813172564986438 8.216887361735234 0.0
8.74802978243154 8.366104673219047 0.0
9.059985162956899 6.120982589539211 0.0
9.00342813739303 6.233245043891739 0.0
4.961413514304496 3.214209167276753 0.0
9.05248113004685 2.794651022570942 0.0
8.986028039118027 2.681341972594222 0.0
5.671890458441996 3.377122473800023 0.0
4.755829262593116 7.184480462344647 0.0
9.158258644940048 4.34465968221255 0.0
4.799687186662534 2.961354824469195 0.0
6.030554747591715 2.726787502996874 0.0
8.938327180212585 8.34758372042188 0.0
8.847392320655468 8.503370672816716 0.0
8.67342124373679 8.518117686968314 0.0
5.234423106934083 2.694925204361751 0.0
8.964923046453565 8.185313058214797 0.0
7.456650986668838 2.134076476407834 0.0
9.111732084821366 2.897226832609386 0.0
6.368055837513985 6.402805870976705 0.0
6.265629899005033 6.226581076317183 0.0
8.736327196352686 6.026404178766982 0.0
9.117473097358854 2.67987006607594 0.0
9.052137415465204 2.565428515518978 0.0
7.781001557847192 1.955874236406257 0.0
7.992134447300669 1.949184538864554 0.0
8.593074792993455 3.143159483125708 0.0
9.1291360203536 6.226877897052981 0.0
9.072154326613617 6.338696745620542 0.0
8.916532550320525 2.566986282201109 0.0
8.984021113721658 2.449252898983242 0.0
9.178032243215632 6.120533546076094 0.0
9.213703592343162 4.244823670856978 0.0
9.11972142641474 2.449071238668887 0.0
9.052853896812186 2.33190758581705 0.0
8.635035926402708 4.462329956179506 0.0
8.773614475966344 8.657865377672689 0.0
8.596400917257634 8.67759750279447 0.0
8.942023339420883 8.644678093589654 0.0
9.19471670675691 6.33096438039349 0.0
9.138460613363325 6.443043552768813 0.0
8.66620319432524 5.916297234509582 0.0
8.606669825267202 6.032658196729024 0.0
9.27222540210304 4.341341907533128 0.0
9.013782808177437 6.451040569407859 0.0
9.08360982569773 6.55729980456602 0.0
7.885622149776354 1.768093045890686 0.0
8.095672144455353 1.768790621151345 0.0
9.208772072925791 6.549717411809656 0.0
9.154272208194383 6.662613503537815 0.0
9.187669783927937 2.334640996932141 0.0
9.122379015831417 2.215832190697178 0.0
6.164077036161143 6.404611236428829 0.0
6.062367614988677 6.224307160647549 0.0
8.987075041759633 2.211477580983978 0.0
9.056972755801603 2.093573581203428 0.0
9.194557288902232 2.096029761809264 0.0
9.131223008370409 1.972713028695079 0.0
8.87381302587057 8.795793668920256 0.0
9.039169086943392 8.781606667490083 0.0
4.662813350519927 3.228118291851354 0.0
4.474181267994617 2.945703616023359 0.0
6.562627723301209 6.075544382232434 0.0
9.326886053211574 4.243083624343211 0.0
9.280374192897945 6.656072830232892 0.0
9.224718905178564 6.766740750539347 0.0
4.703284910421452 6.528907865005451 0.0
8.955136474970331 6.565989985649191 0.0
8.998148826814893 4.865480736169776 0.0
8.99429836796776 1.965972383552685 0.0
9.065669391141741 1.847195105148808 0.0
9.207236162050343 1.853010386995843 0.0
9.143218073349985 1.725630086781897 0.0
8.998867447699345 1.719378449325465 0.0
9.082595782768397 1.592017827427701 0.0
8.92804562738841 1.585238202229766 0.0
9.01637794607019 1.453847302675876 0.0
8.854253119154375 1.446306868730686 0.0
8.941620273019874 1.320083886766936 0.0
8.775393064215876 1.308487027359826 0.0
9.102170347200483 1.324733726345249 0.0
9.013857060361985 1.178821526410403 0.0
7.991031819452564 1.587689878441685 0.0
7.767218744640202 1.595993197647291 0.0
9.191539171305216 1.194087248761656 0.0
9.123965901037613 1.057102462689568 0.0
4.853921953226772 3.470213116851758 0.0
7.496563223334782 3.470157221608763 0.0
8.536691379028115 5.921845852206257 0.0
8.475496498707471 6.037633662010236 0.0
7.978668526342969 2.307231488316941 0.0
9.384721922092124 4.337357165846226 0.0
9.331039180200886 4.435926256444196 0.0
8.546261775564837 6.150267290476958 0.0
8.411727261785726 6.155319300628062 0.0
8.972203609044218 8.930944433074036 0.0
9.133480321468399 8.90955269607895 0.0
9.197778815538276 8.768743880012563 0.0
6.162231825784922 6.05277753404107 0.0
5.962111081146334 6.046949845237622 0.0
9.268727788642101 4.146883230687689 0.0
9.380694211527906 4.144811697563401 0.0
9.323823335199954 4.049557759546529 0.0
9.283324894520613 1.736313094621396 0.0
5.858151623803662 6.22041808248046 0.0
5.759668475561988 6.038806123495502 0.0
7.836860473863919 3.191674397465999 0.0
9.348591928839294 6.75855034547469 0.0
9.293979592221298 6.870213350675044 0.0
9.170543172728557 6.879819332293818 0.0
9.240028263813034 6.983394994050525 0.0
4.347372565145963 3.312731475520695 0.0
4.114183445909965 2.96879678229065 0.0
8.616264880152233 4.042035981070631 0.0
9.403174760076901 6.650407069150438 0.0
4.173860112179449 7.723461240865885 0.0
9.365302975518428 6.973476802087294 0.0
9.312420275675276 7.088420778208979 0.0
9.184876614539778 7.0978133687822 0.0
9.25921281729617 7.204979813006656 0.0
9.12816413817609 7.21569648263899 0.0
9.203944409919862 7.322703303071253 0.0
9.334311975087337 7.311477957762272 0.0
9.280415785210538 7.428795599957155 0.0
9.274060219641907 1.066603180421249 0.0
9.211820491509728 0.9316562593680151 0.0
9.050684011148748 0.9017681241401576 0.0
9.441953732403995 4.432092590771756 0.0
9.394725873909666 4.526051349391942 0.0
9.43453556160865 4.048003950509361 0.0
9.378043599351757 3.952631412328806 0.0
9.289691247910705 8.890746792319852 0.0
9.228148443138926 9.030109127390128 0.0
4.440757888677695 6.389562448928118 0.0
4.689874463978985 6.239329075084555 0.0
4.291519540095677 2.622920583112654 0.0
3.886073352912894 2.632778677714434 0.0
9.344015622314338 1.202401041544343 0.0
8.193292196814806 3.849649660906171 0.0
6.960946604527747 6.07044529864598 0.0
9.347708267319902 8.756364147482309 0.0
6.826423138602714 3.261415861395883 0.0
6.06309517882478 5.884563187328262 0.0
9.4085057714426 7.414123963607981 0.0
9.356416821537886 7.532359471354527 0.0
5.042074134251055 6.938947182785697 0.0
5.063988238156824 7.311205832605263 0.0
3.946666851334923 3.30681624613374 0.0
8.189857914071878 1.939951128540477 0.0
7.880690277686857 1.38928908049477 0.0
7.63766396748483 1.399736360041063 0.0
9.345004233592562 1.857695941115052 0.0
9.440465164139875 7.085860901905448 0.0
7.918332480761888 5.744468010879592 0.0
9.08007135068879 5.372457017512481 0.0
8.78639561093144 3.718391405525285 0.0
9.356843485085705 0.9414458825132457 0.0
9.29705128845331 0.8103081541678832 0.0
9.251825423225316 2.451701826351773 0.0
8.483895366325516 6.270717564685176 0.0
8.346386886249478 6.275973306650227 0.0
9.493299170161215 4.138582531223591 0.0
5.321115649032961 7.117073603021904 0.0
5.354076009109965 7.436189411362466 0.0
5.597984079819928 7.254284331170681 0.0
5.644042313435943 7.564172740776336 0.0
5.383963016128051 7.753854027984002 0.0
5.681168258142109 7.880444993178456 0.0
5.935548099874979 7.687258900444162 0.0
5.979508404301389 7.994332725561488 0.0
6.21936843555201 7.802335560754011 0.0
6.267092590637372 8.104873033518185 0.0
6.498845418385807 7.917606504106031 0.0
6.544600005636809 8.209910620392591 0.0
6.77336078689533 8.027284686082275 0.0
6.814840179123049 8.311778392637773 0.0
6.721304148677048 7.737863326704131 0.0
7.031320924898797 8.1335673274533 0.0
7.077388928622946 8.403901803728003 0.0
5.417471987089176 8.090112295667405 0.0
8.845427688507666 2.446352368201366 0.0
9.318512319918124 2.339233739859646 0.0
9.380241452597096 2.451895615249572 0.0
7.283805558009199 8.237518806365102 0.0
7.329200330160381 8.497045124353782 0.0
7.233272584416691 7.991590926766813 0.0
9.142592248414191 5.471315142785471 0.0
9.196303265878848 5.36738298742727 0.0
9.25795832955665 5.465260877691205 0.0
9.310581303233182 5.36341558704714 0.0
9.371094700882272 5.459458038195667 0.0
9.422767107822985 5.360687090455724 0.0
9.36402660964156 5.264821436196721 0.0
9.474220736978928 5.262802348886269 0.0
9.41680330511366 5.169477108906666 0.0
5.168675939028436 4.895496152382537 0.0
9.482591449057548 5.454699312257291 0.0
9.431567605310825 5.552723344040521 0.0
7.531449703396948 4.741663470323411 0.0
8.517293123442691 4.672601123164268 0.0
8.459978676626639 4.778466809901586 0.0
8.396595115309985 4.67568709170855 0.0
8.338966609235166 4.782101664607259 0.0
8.275355646032752 4.678829956447008 0.0
8.217675280223542 4.785699596769931 0.0
8.28149024865807 4.888803783902183 0.0
8.16019781596952 4.892696417098926 0.0
8.22433278506531 4.995725219088695 0.0
8.102825704443651 4.999629142625341 0.0
8.166887930010795 5.098242831115916 0.0
8.034904900788316 4.896825406879729 0.0
8.15353539905931 4.682103688185489 0.0
8.211891449058882 4.574219757233394 0.0
8.290305306104333 5.094007100958221 0.0
8.225684228618732 5.201525567655179 0.0
9.444618942559746 2.343141375196729 0.0
6.929446520625337 4.868116916840016 0.0
5.737810725167649 4.893891407574175 0.0
8.720389971487277 5.38508368411851 0.0
8.805734920311323 8.951818172412821 0.0
8.905272694453211 9.083303226359831 0.0
6.006155038818204 5.171375272745409 0.0
6.431496448228514 5.152985998213245 0.0
9.052675024457304 7.106590131831544 0.0
7.740007013494393 6.09727525827826 0.0
9.375852260355511 9.013078430361404 0.0
9.32035844773103 9.14584923943073 0.0
6.989707597683965 5.146377438798643 0.0
9.488190206836386 3.951168069367155 0.0
9.432429152094464 3.855725756072153 0.0
5.568386402814275 5.185723849666124 0.0
9.525561551078322 5.166162126187324 0.0
9.465026391994275 5.072601962964018 0.0
9.320357339516937 3.857795423728873 0.0
9.375955927831914 3.759314274140895 0.0
9.261783786753899 3.761412578759438 0.0
9.31820665563318 3.661845422072752 0.0
9.431798673168924 3.660830894813109 0.0
9.374584413615914 3.563138564686839 0.0
9.48759661134647 3.562294297118573 0.0
9.431339678707085 3.464016717943268 0.0
9.417896212887529 1.746970678437863 0.0
8.731705369070733 9.110902182838881 0.0
5.652297951447118 6.21188565774667 0.0
5.569122518069258 6.024400786163834 0.0
8.257007204149394 3.505875091031567 0.0
8.717428603143034 2.925525757227976 0.0
6.882852832747376 8.57686572931064 0.0
6.337330066435714 8.416819098143066 0.0
9.50188906539997 4.521022403818629 0.0
9.453500859905136 4.617181635748691 0.0
9.46806769570129 6.749352117850711 0.0
8.836822104875719 1.72282859852854 0.0
7.481071063421426 5.64593758994851 0.0
5.668814988976305 5.86611128457842 0.0
5.487644760735084 5.847591822776978 0.0
8.993992818065195 7.228173913870249 0.0
7.98322414937693 7.229980191466666 0.0
9.22810751684646 7.54864871395298 0.0
9.304103360459063 7.654622011545798 0.0
9.432787371848761 7.633691049023619 0.0
9.382619818023882 7.759136995934441 0.0
7.239096822516492 4.679179578301165 0.0
9.47692479956498 1.861231395362419 0.0
8.041243110813022 5.095895152648969 0.0
6.190208781188077 7.509864122823853 0.0
9.283062812782122 4.549418667685757 0.0
9.503847665760087 2.450295046295932 0.0
9.443345385250678 2.557904120404248 0.0
9.52009568463353 6.644015937008899 0.0
9.203119005973903 3.662458522935253 0.0
8.406198651282708 5.92630414760378 0.0
8.467263597743843 5.811987729136874 0.0
9.461423029059445 9.128120577356565 0.0
9.408445330070542 9.26024300250086 0.0
9.266505293379728 9.277952925446408 0.0
4.14874709022218 3.631681332690154 0.0
9.437448107949258 0.8198473430736303 0.0
9.376993771693973 0.6910550697058979 0.0
9.22882356848217 0.6931820370818127 0.0
4.451823867195988 6.103664366188579 0.0
4.200031743909027 6.232039028149317 0.0
4.687154754667774 5.975132870483986 0.0
6.268889397098538 6.592235545990395 0.0
7.509366161722768 8.340075462391164 0.0
7.564775703413765 8.59800936579159 0.0
9.542148732924264 3.854614593058991 0.0
7.036231103929761 6.550562550831048 0.0
4.089373665437328 2.268193930262139 0.0
3.642558884866483 2.250386188148396 0.0
3.442182385618804 2.651948803899947 0.0
3.146832503011753 2.222630466765926 0.0
2.948870467975985 2.805088883766417 0.0
9.352005315330274 5.067356449300542 0.0
9.31729677031493 3.462944187594675 0.0
9.37428383619102 3.365546369736205 0.0
9.4883538239391 3.365384871181599 0.0
9.432147665178338 3.267287636377487 0.0
9.25034519267688 7.775848812012313 0.0
9.332091350002502 7.881724023243533 0.0
9.462101000264603 7.86490055671988 0.0
9.413353271651825 7.98561007219363 0.0
8.273592814723814 6.158623919352561 0.0
8.207135014732339 6.280394934566054 0.0
9.541483811580331 5.548224291759592 0.0
9.491365919893726 5.644847811894615 0.0
8.088095771120983 4.577581369371366 0.0
8.14760102783746 4.468303741922308 0.0
9.556217963323956 4.414867468889523 0.0
9.543667331547693 3.266908751519594 0.0
9.489307652535885 3.169908976697059 0.0
9.26285575842982 8.635341362685686 0.0
9.403220742003983 8.621447866627538 0.0
9.326013417886902 8.506778946171965 0.0
9.455477927154853 8.503896705359047 0.0
9.566646674069602 4.611465258087684 0.0
9.499341049870914 0.9352184973273918 0.0
8.683891958597638 1.444705608998412 0.0
8.599973456173778 1.287265568270043 0.0
7.760988189317371 1.175381292562583 0.0
7.50927661322749 1.171223823957793 0.0
7.380927152434357 1.411062577009695 0.0
7.242417847270241 1.170759311509981 0.0
7.107236746116019 1.421234419770886 0.0
6.960799033544566 1.169618322344823 0.0
6.817786081200392 1.434174581170586 0.0
9.48095050141868 8.738557748483624 0.0
9.319762046171894 3.263060331456388 0.0
8.920653400180534 7.117307656029475 0.0
9.452431221190624 6.544166520883111 0.0
9.571407933653493 6.540336592280795 0.0
9.507586285214174 6.443281357841339 0.0
9.575252974749443 5.070210512157044 0.0
5.755172844377253 6.370710487467459 0.0
9.541351959064952 7.969072511059531 0.0
9.354607289792183 9.3921968735401 0.0
9.495213435762107 9.37218405175897 0.0
3.77688136092967 3.643094492921176 0.0
5.460967180339239 6.159077196937325 0.0
8.656589552918996 5.283032675040985 0.0
8.599307076390474 5.387421722684671 0.0
9.584017606465821 5.263931993965828 0.0
9.51536593891754 4.977534386249715 0.0
7.788544970111893 2.70578432810479 0.0
7.381746833264364 8.755477463411431 0.0
7.615969996822885 8.852710176548548 0.0
7.783643411970649 8.691528137204457 0.0
7.845017394185501 8.938777577473743 0.0
8.570520580943368 7.342304222498308 0.0
9.103648004226827 5.781084627507008 0.0
8.338082930126799 5.815990105349368 0.0
8.930848895071895 4.561111316304916 0.0
7.381089602119859 5.983657236035151 0.0
8.42066837692862 6.393608568217351 0.0
8.888256157021065 6.459558428285236 0.0
8.826495664731354 6.575679897210801 0.0
4.22522220414496 5.921354747981145 0.0
3.943296448343383 6.075578573904587 0.0
9.563175937841836 2.554860696349795 0.0
9.505342423182917 2.656889632284623 0.0
6.660863480070611 1.168750929063519 0.0
6.518316961679488 1.436478598119306 0.0
6.683474168246802 1.694104067636375 0.0
6.376799057174731 1.707382100972048 0.0
6.205091481342603 1.443621641108414 0.0
6.058670988071357 1.728841803855816 0.0
5.877457486049096 1.454297236926778 0.0
5.724979192982589 1.756666409586195 0.0
5.529885788012015 1.462283739157555 0.0
9.514953777019835 0.7018468683209754 0.0
8.398665270372675 5.702731562702358 0.0
9.456442249775696 0.5772068858285652 0.0
9.565795671866349 2.345573662774494 0.0
8.830758563027459 9.247271599108435 0.0
8.523580738257648 4.88015211128435 0.0
5.580123316488715 5.701889892660689 0.0
5.398591029446707 5.685938459654249 0.0
5.367686360823392 1.778740548277203 0.0
9.546603444041448 1.754984055696778 0.0
9.489649223089446 1.641312329051244 0.0
9.617973952467912 3.363804764345866 0.0
9.584322830999731 6.729956156156573 0.0
9.597221861144487 3.948534024289882 0.0
9.49401963819799 8.089507968561776 0.0
9.207321074262563 9.416906871900888 0.0
8.27185428346661 4.464932191097996 0.0
8.207416067213774 4.35878753684812 0.0
8.332747746635944 4.354903699457511 0.0
3.990181919126853 3.930792395858886 0.0
8.267392138262498 4.254008221702929 0.0
7.997788712685495 1.196805377512679 0.0
9.600316638269724 5.639973985281733 0.0
9.550939606739425 5.737313319038155 0.0
9.44084303195315 5.74233753256161 0.0
9.50112296154558 5.834555019909565 0.0
8.897429225733994 6.685415510921676 0.0
8.762930941408914 6.695907295903629 0.0
8.654628175336732 9.278157371342388 0.0
8.544676900803436 9.133790942553834 0.0
5.294904777716057 5.855935872688884 0.0
5.216749389964556 5.66865685845661 0.0
9.508453581298625 2.239460033375932 0.0
9.599691370793206 3.169496930704394 0.0
9.546615051106684 3.073514534194011 0.0
7.484714626923596 5.028675123117963 0.0
9.588496050271255 7.850836295555126 0.0
5.153197381012662 1.471340286561097 0.0
9.433168304679345 3.071871997104804 0.0
9.610464706874994 5.829217654498672 0.0
9.561407772947403 5.926179534044419 0.0
8.273381980676042 5.705233340662362 0.0
8.330794188929296 5.594351887246082 0.0
8.207319603076424 5.596747949305344 0.0
7.251338559467102 5.233758892662348 0.0
8.708518799790543 1.130513882092466 0.0
9.590155250193266 0.5878623138195824 0.0
9.389919385420015 5.841079912164009 0.0
7.991397852194216 5.859910582924319 0.0
9.624951589233206 4.975554514425905 0.0
7.240016788025947 2.531866266726309 0.0
7.635666783493215 3.873554782053258 0.0
9.608476620993713 1.863530872936442 0.0
9.365330459496413 8.10677840682376 0.0
8.775076110585598 2.572737931759856 0.0
8.699389445914996 2.444602334375113 0.0
8.625078713232146 2.580891022578613 0.0
8.54447196848446 2.447624719286678 0.0
8.468898498943965 2.586757328881282 0.0
8.62282309213608 2.307826916202421 0.0
9.622102662978762 6.439307895185218 0.0
9.561995355724862 6.35103962032292 0.0
3.898245450818314 1.856155797593496 0.0
9.681759177700954 5.07069253017652 0.0
9.059254996454502 4.963357716933865 0.0
9.113144532326562 4.861710138088372 0.0
9.62140874877204 2.656009146517733 0.0
7.884510615470827 0.9666888912541309 0.0
8.14902661050739 1.005010215149227 0.0
8.491263206618079 8.527197931363634 0.0
8.408859203395778 8.697060715788105 0.0
6.54422152733529 1.954566069381189 0.0
9.563546573097593 2.755667904356369 0.0
9.453065492925557 2.761122255953964 0.0
9.676889098520615 2.755084315170127 0.0
9.678287124781653 2.556838324720633 0.0
2.60254317790297 2.278874965850319 0.0
9.211706272534968 4.050470567310489 0.0
8.526711683538949 5.698821878547752 0.0
8.296604023060945 8.533761944401608 0.0
9.649704314258118 5.543946557831669 0.0
9.651176136337964 3.85122804518279 0.0
9.44590154800397 9.498503704959054 0.0
9.580491248736612 9.476376347552954 0.0
4.3239388803087 3.921156392977062 0.0
9.65737873521736 3.075324100817917 0.0
8.128000846282253 6.160273991836929 0.0
8.06242981852327 6.292371360998262 0.0
8.500465019503922 1.442700595221201 0.0
9.615253212967009 1.649819368149096 0.0
9.561768620580791 1.538553925606111 0.0
9.435477757657937 1.527391516499924 0.0
9.627993450010088 2.242685831452484 0.0
9.5338252733548 0.4673994795805215 0.0
9.398055066504014 0.4589059948533885 0.0
9.669486082509058 5.920177035588319 0.0
9.621072177439727 6.016493814615133 0.0
9.506185962103057 6.018397021409126 0.0
9.196884440497488 7.898824858961557 0.0
9.112591143666748 7.789491461180181 0.0
9.664357762385308 7.950712034233033 0.0
8.46233617997115 2.308903464128035 0.0
8.547917980328803 2.169381684694277 0.0
8.139931430059324 6.410762600521521 0.0
7.672499127532963 9.099143622036436 0.0
7.91372855627271 9.178704612763656 0.0
8.463425076318451 9.290653726808348 0.0
9.643938029094286 9.335632419679458 0.0
9.647017668702574 0.7068996148634754 0.0
6.241662276606473 5.884018212993202 0.0
6.157742245066693 5.73500474100449 0.0
6.318815619949124 5.730068085823802 0.0
6.247706374231452 5.593094310939028 0.0
6.406948541886973 5.593272398468375 0.0
6.092564106310554 5.587409338401505 0.0
8.535507922245372 5.286142900439676 0.0
8.022959839404006 4.471630490587016 0.0
7.963561162854596 4.581393556789843 0.0
9.683487139413305 1.546750704925431 0.0
9.630761777960082 1.435922217091829 0.0
5.121714348989337 7.950140247572198 0.0
5.136464096196084 8.310254432483559 0.0
5.47349124035624 8.455234262268478 0.0
5.176273618280354 8.687190323573228 0.0
4.796664658962938 8.592678692862421 0.0
9.568705729418735 4.887269869750176 0.0
9.462711651199594 4.88832222094458 0.0
9.674903475028225 4.882285174433025 0.0
5.4996067353406 5.546583260717527 0.0
5.663632234555963 5.557613452957074 0.0
6.829408195405585 1.947174574944512 0.0
5.336529198289861 1.127585641139875 0.0
9.672387559812332 6.34138351957329 0.0
4.463988917379896 2.271060678869338 0.0
8.618048281355405 6.263841736419089 0.0
6.480949808711781 5.74815588680617 0.0
6.562207427719153 5.592185077216444 0.0
6.643040463857446 5.721233693378952 0.0
6.712825900331884 5.588664360236 0.0
6.79240375630333 5.711383948285569 0.0
6.86115931532141 5.584697050428064 0.0
6.939210100691576 5.704407337029545 0.0
7.007668476576536 5.580801046893123 0.0
7.084627386867475 5.702817970154801 0.0
6.633257976075473 5.460881327825488 0.0
6.931430743764456 5.461960451448691 0.0
9.682652370938209 6.533133024505995 0.0
8.761108695241376 9.450742747770144 0.0
9.146031326900015 3.764292700000154 0.0
9.089378801805193 3.661317181076136 0.0
9.514354521818781 8.994988681611192 0.0
8.157650730500988 4.262987189670279 0.0
6.329633198899328 5.4647789391701 0.0
2.340685767996258 2.811285337457589 0.0
7.379572471323651 0.9290892725587991 0.0
4.171878172186605 4.222320767259098 0.0
4.4876601621649 4.16473354200826 0.0
5.336389369563535 6.806464508860387 0.0
9.595468321212476 9.108133206829102 0.0
9.645038675267227 8.982113951305912 0.0
8.393140678816192 4.246338342095281 0.0
8.309440721624494 4.155300532283633 0.0
9.418269339704423 1.9925512363779 0.0
9.662781807969623 0.477809346089035 0.0
8.011297869803792 0.7518828483803571 0.0
8.250149975885678 0.7646904662196189 0.0
9.608674873602773 0.3618049194050078 0.0
8.692696069692623 6.582927327365709 0.0
8.628225948401226 6.705702462696891 0.0
8.701883181418305 6.822086652299242 0.0
8.559276855155542 6.829564723911442 0.0
7.069268463354993 5.459534423493629 0.0
2.654575201159115 3.323490466195074 0.0
3.610801136544596 4.044075244426243 0.0
8.263757217166944 5.48730323490738 0.0
8.138838162809126 5.491254533497952 0.0
7.90196833683664 4.477386962763833 0.0
7.987943097943191 3.978756490171551 0.0
9.704623491880403 3.945605151832784 0.0
9.461009573830147 7.301728818091931 0.0
9.532468631193666 7.399916015174975 0.0
9.582688928417856 7.292330983701011 0.0
9.652579613269625 7.387768793572397 0.0
9.699264016151023 7.282867433965265 0.0
9.633305589700536 7.188543855060478 0.0
9.505576100168666 6.961225778216469 0.0
9.43876966151099 6.342441564206569 0.0
4.908483672172518 6.098703904450545 0.0
9.135448256237908 5.269827196966999 0.0
5.905650502271389 2.025036080946255 0.0
9.709890722072377 9.452748507541063 0.0
9.663337613522643 9.572126259365891 0.0
9.603900123387826 7.495180532331903 0.0
9.720147629525837 7.483400774981126 0.0
9.674588415444239 7.588303295299578 0.0
9.653186673863587 4.039274180923234 0.0
9.053164539680804 4.764545162185531 0.0
9.164908495749003 4.763017269285045 0.0
9.226019227262443 4.858029410614327 0.0
8.809947621994619 3.4964384919072 0.0
9.10538997155458 4.665865142902959 0.0
9.331074106432244 5.748993480915537 0.0
9.055854333858068 7.918554535314415 0.0
9.446431573964945 8.209836764658437 0.0
9.573844810886287 8.191100251691205 0.0
9.309704769895653 8.244395007943949 0.0
7.240329561730736 1.676197957122907 0.0
9.543389817573933 3.660019800390455 0.0
9.598599341122098 3.563130123982772 0.0
9.652615161407017 3.658119804270645 0.0
9.706336063693934 3.564815526226687 0.0
8.632284427755456 6.946688912416058 0.0
9.682863230715835 2.349655023034811 0.0
9.571538455120994 2.142369886250143 0.0
8.090821900439733 9.017409120951333 0.0
6.812258669899192 0.9007667548831626 0.0
6.50135254578461 0.8974046495177885 0.0
9.598335906230732 6.246437748035812 0.0
9.719677442549804 6.253968775436637 0.0
8.593026822691716 5.180101360605356 0.0
5.537586126848265 8.836083861509138 0.0
9.688689404995035 2.143487155934306 0.0
2.821389253975936 6.507820864074362 0.0
9.176571289960709 8.507736431357309 0.0
2.918303740542162 8.256728920338826 0.0
3.428955230180972 8.401446814887457 0.0
8.490587404589881 6.715350139132777 0.0
8.86049054904785 7.243279881821806 0.0
8.93696309213556 7.356650230611625 0.0
3.951931175165697 5.78308550088855 0.0
3.65055612573298 5.91672400098539 0.0
3.668142216548471 6.247526235973777 0.0
9.717269848920886 5.821831227352286 0.0
9.708364917734201 3.164198601626433 0.0
8.45581975650687 4.569560863828342 0.0
8.204448312099833 6.040774355519757 0.0
8.65969449127868 5.485991799508151 0.0
9.707534571012967 5.634423933296901 0.0
9.62102991883279 2.849662850313935 0.0
9.144093558002634 3.560383427867003 0.0
8.29763273805118 1.77155302934031 0.0
5.280452715709455 9.01633391004168 0.0
8.984558945859158 6.99932633710603 0.0
8.4157550875812 1.275784953143711 0.0
2.068078118650995 3.355462780535101 0.0
9.205703884756806 5.568274778556933 0.0
9.745857863753141 7.178456670302003 0.0
9.681628895748586 7.081494416756802 0.0
8.875818787971069 6.240744812097083 0.0
7.993733797566922 6.414830952863579 0.0
8.462810157069566 3.377071044664789 0.0
9.29428363519789 4.759591981903337 0.0
7.933956818298286 5.97437536746848 0.0
9.028281726378319 3.558713145763133 0.0
9.083461773461467 3.455531762175701 0.0
9.73231939683535 2.849247643393067 0.0
6.70072305037728 2.192432536215492 0.0
6.423245125077639 2.212870246546939 0.0
4.931537051605536 1.135086496804522 0.0
4.746426561586179 1.500381091957315 0.0
9.707706579932626 7.836419656220658 0.0
8.590593344701457 1.595639668013959 0.0
8.708946574109854 2.1688179918246 0.0
8.634728854549891 2.028564483452208 0.0
9.230357659411311 8.129337203173913 0.0
9.102841374461482 4.452881308250647 0.0
8.472081531214734 5.388993924853032 0.0
4.925996806199801 5.844046944846857 0.0
4.702806345752284 5.745688656289065 0.0
4.884357002239844 5.633237011762874 0.0
4.709628434300812 5.536404116679045 0.0
4.530800966746534 5.627044171217377 0.0
6.040296145349247 6.603808099703576 0.0
6.162203578696918 6.795213950202512 0.0
5.923135943221574 6.824060069869489 0.0
6.046693245732212 7.010423490915212 0.0
6.297337598588478 6.979895528204233 0.0
7.760448385794147 0.7294020304851334 0.0
8.492228348169641 6.958778476405878 0.0
2.89219822877093 1.704113597264478 0.0
2.26178643438086 1.7814602252425 0.0
9.726968895980871 6.009547057102511 0.0
6.63195110828313 0.6072886418835157 0.0
7.984023036954866 7.515675826210831 0.0
7.893857204140559 7.681876703427663 0.0
7.778465117872411 7.537836322197895 0.0
7.998204230811618 7.844922503023499 0.0
7.798554315988981 7.858161805718108 0.0
7.917846202023782 8.03040048103727 0.0
8.547520504556728 2.721261126162116 0.0
8.39253850806587 2.732073315877738 0.0
8.306047241032278 2.59069854402512 0.0
8.233011054235162 2.739783364361515 0.0
8.318836035587811 2.879838477099622 0.0
8.159530874574331 2.888511553151382 0.0
8.245490421394788 3.024568439743106 0.0
9.759103003747676 3.077839427881478 0.0
8.083610090773394 3.033523757291178 0.0
8.174562583800352 3.166768504406541 0.0
6.046769434852523 1.155662270344939 0.0
6.968371001421964 2.176347877216873 0.0
8.324858098380334 3.152966249334499 0.0
8.145556596142626 2.609897633546475 0.0
8.970652052821418 7.804556541250797 0.0
9.033737629244714 7.681328986528639 0.0
9.62347010002576 4.796939565664328 0.0
9.72520380348743 4.790261082613535 0.0
4.882631186210167 5.455006233451049 0.0
4.618356368594037 3.933076284395493 0.0
4.748083507220199 4.151025177732873 0.0
4.641724290430313 4.358202249373887 0.0
4.87055838101999 4.337900676660481 0.0
4.974114446887331 4.149149057174687 0.0
5.081577844806959 4.3240148266423 0.0
5.179521650033781 4.148725180298481 0.0
5.276261408871418 4.316673822529601 0.0
5.369189110897883 4.148362797753505 0.0
5.463892033849439 4.338819369807593 0.0
5.550828466075906 4.146274465971151 0.0
5.646554822352869 4.303571429647391 0.0
5.728109623160046 4.138582010823754 0.0
5.821689108984419 4.291959598724587 0.0
5.906082534948073 4.141649907302701 0.0
5.99655838673762 4.288752711512514 0.0
6.077312859438928 4.141011188943332 0.0
6.164215275138099 4.281164574562373 0.0
6.241782344986693 4.140701084167517 0.0
6.324316420613108 4.277393447415522 0.0
6.40284165425941 4.140026953305852 0.0
6.483655157361099 4.273418937894759 0.0
6.561170698911611 4.136221843106807 0.0
6.63512300179586 4.269917278694155 0.0
6.720306110251473 4.133393659385058 0.0
6.63777078218551 3.99617001426095 0.0
6.802492763973074 3.994355399489989 0.0
6.798834760478153 4.276914787769972 0.0
6.15377608509923 4.000134206628027 0.0
6.548727135071258 4.400510710520637 0.0
6.251479300130713 4.421887359316258 0.0
5.275876048175579 3.979624500657822 0.0
5.910905077162284 4.431174408784691 0.0
6.717070288412452 3.851239795555301 0.0
6.883499045994213 3.852555480300214 0.0
6.96664848901999 3.994033961856844 0.0
7.048208567116626 3.854750001965969 0.0
5.810004974283072 3.982497501655442 0.0
5.586615391658107 4.471070246359201 0.0
6.547331954052155 3.853872077215347 0.0
5.179081233207816 4.485638492900557 0.0
7.126615227065496 3.995337770596979 0.0
7.209459742762513 3.856893463870469 0.0
7.130226097876905 3.713620439679428 0.0
6.63075064074106 3.699684148676045 0.0
6.446985573861992 3.697358756862005 0.0
7.043151422977365 4.131713936060725 0.0
7.198322215260019 4.129850614748363 0.0
7.119378405252723 4.26005098890218 0.0
4.797146270976422 4.525762781577414 0.0
4.608329098388589 4.573584257851931 0.0
7.294442092743627 3.720853338661503 0.0
7.215753312764997 3.571378507508807 0.0
7.049631633956289 3.568047985538775 0.0
7.133765707749521 3.414282375958479 0.0
9.755079417839903 5.539705890434435 0.0
9.698955703441971 5.450920012703194 0.0
9.717604099406742 9.09084770432896 0.0
9.276716006673976 5.847248422342224 0.0
9.339081208926798 5.941174203394446 0.0
9.031261921742963 3.750271483819014 0.0
9.08721978689863 3.853416037308712 0.0
4.801461566647803 7.510704110489921 0.0
8.206553504932042 5.818005960412773 0.0
7.362361315389098 3.863102442315545 0.0
9.492826845316191 2.963845037486267 0.0
9.376710375304633 2.97229517374228 0.0
9.3192743723601 3.070687802230453 0.0
7.915389082113898 6.293241865913004 0.0
6.735006382384437 5.832450056405368 0.0
8.456481836836168 4.35369289249905 0.0
8.517718268476031 4.246675068616396 0.0
5.583512022030555 5.411069060406398 0.0
5.73625200174779 5.422617752052123 0.0
5.81006929286229 5.548584937688919 0.0
5.903438861894402 5.420604003204523 0.0
5.43801870974416 5.402925156167655 0.0
7.022641548594327 5.825217331839047 0.0
7.165095795605366 5.826005223633447 0.0
7.223078558430726 5.690146755650336 0.0
7.841396000338385 4.586693006493787 0.0
7.904793170875705 4.690826189066096 0.0
7.785999820520073 4.696719777099973 0.0
7.846448506395101 4.798518978096564 0.0
7.728149182067156 4.803800941124008 0.0
7.788983823826226 4.904802634695232 0.0
7.672018889153144 4.910077510508749 0.0
7.731996012352178 5.014717724244488 0.0
7.852072803124419 5.00743796185411 0.0
7.779278698005006 5.118909346425974 0.0
8.088113864063853 5.605434545811022 0.0
8.016457362785575 5.494849890158723 0.0
8.072290383394757 5.385594956317259 0.0
7.95068657972964 5.38825563681957 0.0
8.309366678475389 1.438342408757099 0.0
9.748160780780179 1.447794693754379 0.0
9.696454228162398 1.337889922375316 0.0
9.568813761940916 1.329560834053294 0.0
9.638326779791626 1.226729570935787 0.0
8.472132467407484 5.182856496818138 0.0
8.066211547412054 6.53691730655352 0.0
8.217035586462373 6.522976700918602 0.0
3.544839338670893 3.324491119989469 0.0
6.999740002965287 5.347729916247808 0.0
6.874544698914502 5.347027470386579 0.0
4.880451234715014 5.193043717957879 0.0
9.104510033763066 9.313204713465637 0.0
9.0466357104558 9.45359399494339 0.0
9.146803165140184 9.569652364413551 0.0
8.134107047896672 0.5527712356100052 0.0
8.369770412730738 0.5571215815175228 0.0
8.47386979744655 0.7564607169846485 0.0
8.585193608569258 0.5749174254532757 0.0
8.683868132726584 0.75505070091701 0.0
8.787381435061018 0.5813987798627239 0.0
8.697570280442534 0.3771156480326233 0.0
8.530048434259976 5.077280516000916 0.0
7.995091351438729 2.90367515012593 0.0
9.731083608815164 1.662638626153251 0.0
7.260488865351954 4.255073962371814 0.0
9.760728358076392 8.990038509880067 0.0
9.716710396257366 8.884160310398862 0.0
8.794627466210242 7.369659405098349 0.0
8.868068657550866 7.515048014893154 0.0
8.702594597629135 7.510501129643432 0.0
5.132320689147051 0.7610757801158905 0.0
9.755852887652699 3.853180024615871 0.0
9.787424819067885 2.757921105725315 0.0
9.731193479931608 0.3736343090103709 0.0
9.796526908308536 0.489684029254899 0.0
8.226019692057042 2.453349105940535 0.0
4.560989821496479 5.428206018250252 0.0
4.348810639659689 5.517048281386008 0.0
8.785190163106925 7.119142251269924 0.0
9.015515413043023 7.464769766852701 0.0
9.754861440190705 3.659036930324926 0.0
9.7543610723378 4.033687839160082 0.0
9.707881226943384 4.127219992296752 0.0
9.52841017383273 8.309020665649431 0.0
9.65186044414544 8.289498614805698 0.0
9.714051275521857 8.173576484362068 0.0
8.209758892476394 8.715513071423135 0.0
8.097084883671858 8.548851201381087 0.0
8.177989947800599 8.367872862579052 0.0
7.974142434808908 8.36779470623567 0.0
8.409012054919861 2.142624252464372 0.0
7.707002321497132 8.039129945341395 0.0
7.574653123518228 7.83895791570255 0.0
9.229858094382692 5.951357214361815 0.0
9.75307989876696 1.229893222503321 0.0
9.715811155868643 1.128779429890018 0.0
9.597960915003707 1.117058287635912 0.0
9.672063923518955 1.020806103150243 0.0
8.99090422125785 9.593878510105375 0.0
8.133165456134304 9.257620998029804 0.0
7.976779931497633 9.420725324095141 0.0
9.77231778617502 7.927819487779705 0.0
7.957213679655531 4.364530256281665 0.0
9.609903116082736 8.403725680286847 0.0
9.724891358972584 8.388392708395173 0.0
9.687487059868507 8.495935345161797 0.0
9.810055520269009 8.494090598382963 0.0
9.755967487162335 8.599790818513082 0.0
9.645698986824481 8.606121319182705 0.0
9.721376049217765 8.699989876681524 0.0
9.773009257015609 4.884557953188837 0.0
9.830105798750992 4.796546393900876 0.0
9.775335108731761 4.686093304257503 0.0
7.455611517737074 3.730099283949135 0.0
8.906943567829634 0.4197477661467797 0.0
8.980613334153533 0.5814185917581446 0.0
9.081059111759728 0.4263421860552371 0.0
9.821654809259165 3.576985724143072 0.0
9.761309244784803 3.4792267780002 0.0
9.763329553045937 9.353068233045157 0.0
4.463051839136694 1.164440352584939 0.0
8.0213168204867 5.283436382300235 0.0
7.89385412333227 5.290429544753158 0.0
5.806940001023414 8.583716119232427 0.0
5.88977793877374 8.96065112858812 0.0
9.177759062826041 8.25539130897928 0.0
9.626582559276994 2.05283181283147 0.0
9.747673294325121 2.064954301745188 0.0
8.775905508647185 6.951821187702613 0.0
2.3581644273991 6.029034686663493 0.0
9.777798009058461 9.548066962498762 0.0
9.737129197219856 9.662299853506903 0.0
9.615080366030512 9.683349544763068 0.0
3.315839678697904 6.042943273456425 0.0
8.915083018115329 7.937748428923896 0.0
9.489832173860055 4.712364754630572 0.0
8.118313727862493 8.013944064029838 0.0
8.902248750797776 7.67372145952523 0.0
8.954075939212636 3.463080912810881 0.0
9.45247551997678 2.133243108303608 0.0
8.311151553157742 8.899233004613622 0.0
3.28672004268868 6.826745674539142 0.0
9.86008383798735 3.468233656255824 0.0
8.389990589860254 1.947086063498656 0.0
7.144231739553659 5.329544660076687 0.0
9.654500729007207 7.743301971143119 0.0
9.761920842881946 7.740144345898896 0.0
9.692820773976567 0.2651585113981998 0.0
9.690951720399688 6.100517071814821 0.0
9.775704281989471 6.077882312279847 0.0
9.823117117198079 4.115168542267924 0.0
9.764391943581737 4.214465954230587 0.0
9.659455011849253 4.218716850797838 0.0
9.713462125022623 4.30742830316693 0.0
9.849638067150842 4.208845651573708 0.0
6.376241713254513 3.858766051594979 0.0
6.274931849158213 3.701528298009006 0.0
7.097780104117746 1.926449727602711 0.0
2.457742027508782 3.810157622192786 0.0
2.963634206580268 3.740748099915693 0.0
5.065585416063965 5.544355730437482 0.0
9.783560252464587 7.566507987677117 0.0
9.825819294611026 7.470942204664841 0.0
9.799976114123012 1.01659516618323 0.0
9.745559590633832 0.9150866860898854 0.0
8.20473400632469 9.495828670767946 0.0
8.784586030320169 2.054461500762216 0.0
8.758471587067168 1.888286802854785 0.0
0.9188935087347281 8.510730800272478 0.0
9.674192026048217 9.20389587377276 0.0
9.796314981283475 9.185916994648775 0.0
7.206882433199502 5.452024361489832 0.0
9.773927048949279 6.334665846819535 0.0
9.830288393591173 6.225300227041885 0.0
8.25177349297509 3.282767705830209 0.0
8.099233469407428 3.304040153764131 0.0
9.607860512870598 4.315652630490023 0.0
9.403674738018715 8.367349042046314 0.0
7.611756786273919 5.018691202305147 0.0
7.549513964643336 4.923310232561835 0.0
9.80986724662116 0.2915868356190958 0.0
0.7757562810577034 3.504187313079081 0.0
7.659562100664981 4.698467529240196 0.0
6.539424975891206 3.541729955691742 0.0
6.717348880400739 3.55221857686142 0.0
6.836337579501807 2.417476958454302 0.0
7.096480496160066 5.959124656438389 0.0
7.189742782777612 4.377051328076039 0.0
7.051723187622053 4.38470822973091 0.0
7.125489805519186 4.497018383456762 0.0
6.994915621927777 4.501504591168814 0.0
7.056755276274058 4.607929817497045 0.0
6.932937068803914 4.613249390039674 0.0
6.86629288290367 4.50541343988659 0.0
6.80427099775847 4.617607827251794 0.0
6.739195362053689 4.511124964201849 0.0
6.677260697693361 4.624288827143181 0.0
6.996760608675822 4.711715831373894 0.0
6.316045249462968 0.6456945497683586 0.0
7.321834163850416 5.816449323512759 0.0
7.833101485370825 4.390058096386987 0.0
4.996572652976738 4.498711166259074 0.0
5.112334577457371 4.663858846723513 0.0
5.271923064784868 4.629759173373871 0.0
4.93773508827367 4.668006487116195 0.0
5.348137647919096 4.485934621930562 0.0
5.413454827497575 4.62999925573761 0.0
5.356581113747675 4.770594395332836 0.0
5.013422223730484 4.793321773780133 0.0
8.58674425943957 0.9312335381466886 0.0
8.776450596582496 0.9362399987293505 0.0
4.783496233934828 9.486061758876032 0.0
4.544176394620909 9.034071856445296 0.0
4.082330493623582 9.015765881393772 0.0
9.820867469965414 7.285959215547852 0.0
9.852697883440127 7.166089674802766 0.0
9.260999083164238 2.971390964911171 0.0
9.197701900169713 3.073162109379564 0.0
9.31960210441945 2.867465579641856 0.0
6.660951583415121 3.383363199709994 0.0
5.210469976037585 4.761678854423166 0.0
6.740780285297665 4.733615686805694 0.0
6.611362405615225 4.731958642073806 0.0
6.549091884465382 4.629620704100811 0.0
6.491761716522486 4.733409494449344 0.0
6.425259228542098 4.640546096196947 0.0
9.715556659367534 2.986725573570596 0.0
3.710524324925069 9.463213827486557 0.0
4.768537031214573 4.727001037865238 0.0
5.039413681704655 5.378508462165627 0.0
5.188746429211535 5.440476671296013 0.0
5.172214816037712 5.298914527247826 0.0
4.469063601436893 3.667917323494335 0.0
3.799121596584382 4.741629285988305 0.0
3.661085664896249 4.442847704416992 0.0
3.316563386321876 4.380147387454913 0.0
3.802087298647255 5.26743535640985 0.0
9.738116341343215 8.047178982429934 0.0
9.85106076399546 8.021725551312715 0.0
9.837581050304836 2.844176011307251 0.0
9.664579962075123 4.402853107737106 0.0
9.76433159763034 4.39807801415352 0.0
9.718924973226878 4.487825491046641 0.0
9.826405563645343 4.494594135148365 0.0
4.931068003413168 6.359330991212394 0.0
5.130175746947236 6.201075257041828 0.0
5.143884286052002 6.445382329515047 0.0
4.953395875296406 6.628748468717369 0.0
7.833019185167153 5.400347121613631 0.0
7.766636138801143 5.313240048256084 0.0
9.767038723422333 4.578090619166644 0.0
7.315369355237483 3.441501197259575 0.0
9.556068971301514 0.2347811136726856 0.0
5.733871280791703 4.444861510772459 0.0
5.828809543126846 4.569791247698539 0.0
5.986701526182213 4.562881783985375 0.0
5.912543327921148 4.692966271273211 0.0
6.052130330528581 4.682477327897978 0.0
5.773525984744635 4.697697018456535 0.0
6.121646311546238 4.572302645403103 0.0
6.182349700936326 4.67713231096357 0.0
5.846371383601797 4.808939734754761 0.0
5.117807918383606 5.974361363083184 0.0
6.256132501905665 4.575863546153224 0.0
6.324770064521816 9.645040261272253 0.0
7.345522892050965 4.12581088034536 0.0
9.338523512844539 4.854480276600515 0.0
9.286984287289403 4.959628690044808 0.0
5.676298026114105 4.589279806918992 0.0
5.631257891894775 4.722749088404111 0.0
7.970415275563177 5.621040275419208 0.0
9.565118337557308 7.081391220827488 0.0
9.626201005045262 6.980441083020495 0.0
9.733729506193331 6.979928568877979 0.0
9.684556253529976 6.887102896543928 0.0
9.780785815410074 6.890287441101827 0.0
9.740054813822885 6.794211367612523 0.0
6.462628988057306 7.629921412015864 0.0
6.692564520952154 7.473594130811262 0.0
6.927983108788191 7.570982428592125 0.0
6.899878641134941 7.329306734748538 0.0
7.117542472438434 7.416951094809493 0.0
7.089537168123128 7.186691566729968 0.0
7.296585396514727 7.275888419524222 0.0
6.879678873774065 7.097443005287856 0.0
7.063454637059129 6.967740076426161 0.0
7.329105042924355 7.496317641003757 0.0
6.867084781778411 6.878842928865059 0.0
7.494278796275744 7.351949197351029 0.0
7.462564159480594 7.150140034494138 0.0
7.644835001206406 7.21506678718646 0.0
6.682478929414216 7.008358327294905 0.0
6.449199855715812 7.365660640952548 0.0
7.548139855358765 7.57299228324251 0.0
7.008502809092701 7.844601794812628 0.0
7.371739019901781 7.707688433423657 0.0
5.665345294602155 5.290628720253272 0.0
3.987583013016546 4.486920698115711 0.0
8.893480480320447 0.7785000884179994 0.0
9.715485963651112 0.5955299613117169 0.0
9.761785841543585 0.7048670948649375 0.0
9.670304314877074 4.578896619304786 0.0
8.058509626083154 5.744161686650483 0.0
6.181795443628869 5.462040811515966 0.0
6.256771804808641 5.338464817889848 0.0
6.124070400983443 5.352376180901929 0.0
6.399679261813415 5.349186390888865 0.0
6.477776305607503 5.46505688468465 0.0
6.541624525938461 5.346017118512589 0.0
6.673064575428321 5.339051516933525 0.0
6.599301548842115 5.241958624987057 0.0
9.573774011620444 0.815274945835158 0.0
5.86493292693426 5.877588788523632 0.0
5.552663040119136 6.957487930464628 0.0
5.535080960199246 6.663033131707637 0.0
3.708603689392072 0.5979254716153909 0.0
3.31896983256719 1.188583855309964 0.0
3.895664898001925 1.128137111173669 0.0
6.363360407965353 6.032416442205533 0.0
9.445959758065749 1.070139246426051 0.0
9.50632172780449 1.214052376665338 0.0
9.441030033980638 1.325047485624912 0.0
9.295799464644857 1.341410624832976 0.0
9.184164107767781 1.461677744200096 0.0
6.407191016756832 4.407273313799791 0.0
5.544591888593027 0.7652641669375747 0.0
7.883090151006535 2.497506182548758 0.0
8.073420508370992 2.120510489750234 0.0
5.494822040671399 4.732314720081375 0.0
0.8986976806403217 1.464611451578306 0.0
9.536325549598013 6.83286654168725 0.0
5.972289519322897 5.727532110854501 0.0
9.82203607053145 9.443411729566549 0.0
7.263199949874008 7.064207941227515 0.0
7.233659553805083 6.853135694774254 0.0
9.793310082768443 7.072747972018893 0.0
6.734168931095253 9.67499220075154 0.0
6.941134861034159 9.382328333169653 0.0
7.285822522704258 9.443989747444657 0.0
6.576263515512108 9.333035011158342 0.0
7.160560566479093 9.127732577621245 0.0
6.218711947378506 9.298064908857533 0.0
6.432383355119106 8.980985203293491 0.0
6.795390278360442 9.046043538032663 0.0
8.54677014121837 0.1957422484480979 0.0
8.528696320820908 9.804850950580938 0.0
8.42644965647489 9.604735484095604 0.0
8.010239224104339 9.715048083583248 0.0
8.644359648763341 9.628432815860457 0.0
5.344212921686536 5.526744195650314 0.0
9.760936589662048 7.38409687515441 0.0
9.128187788393989 0.1445485608215519 0.0
9.133307661752394 9.854833215426817 0.0
4.867351616228264 3.944459575003425 0.0
5.905323253270366 7.385600364255367 0.0
5.909045412185362 3.361969954191194 0.0
5.80580919758911 3.569999290452344 0.0
5.578230704221431 3.587842862412673 0.0
6.013352753603037 3.550699073477782 0.0
5.936624955014758 3.721630401607248 0.0
5.735413275357409 3.78528948606432 0.0
5.512538847486775 3.794760621907932 0.0
5.360571639388366 3.618649018042938 0.0
5.134141179590394 3.459385929220745 0.0
6.167399567008798 3.367365990358096 0.0
9.766756262206602 8.291756450136036 0.0
5.486063578307141 9.64505925252771 0.0
9.497624614180321 4.328873442170357 0.0
9.811387324954623 1.570516917365688 0.0
9.389210081887331 4.69150887571586 0.0
9.704395728912932 3.754226393630331 0.0
9.808172776193384 3.748784464356272 0.0
6.549660911932182 4.839747932361234 0.0
6.757415124099031 6.077939876843736 0.0
3.805578542126494 8.040840085419626 0.0
4.232580149691158 8.198659880701744 0.0
4.559765382564095 7.87091698350757 0.0
8.3829075948167 0.9495097054886067 0.0
9.8571301061408 1.456307792614791 0.0
2.005900212453279 4.535525273813588 0.0
1.85904408608185 3.956445706785572 0.0
1.979307922430775 5.474327285927505 0.0
4.387923194305381 4.427191306527721 0.0
9.429258370703248 8.873693567695483 0.0
8.99196583083892 4.664567567015693 0.0
3.050357122593155 5.368999067452741 0.0
2.861107385476722 5.785089447130829 0.0
5.005058958272409 3.711196438448062 0.0
9.8972295764837 2.755337284632969 0.0
9.581048890980513 8.853909321617065 0.0
9.668838904423916 1.762418716497425 0.0
9.716576458425756 1.852218615166234 0.0
9.799043132681442 1.780583141193779 0.0
7.661868217848455 2.880323287492419 0.0
6.780136552904057 5.443858690999834 0.0
6.489544866845868 5.913957888434588 0.0
6.880149522020364 4.134257616716107 0.0
6.970134365280068 4.264072319341612 0.0
2.225481516813409 9.348422240784 0.0
1.843418032490818 8.641605249943353 0.0
2.198000805242772 0.6459947140825729 0.0
8.740020306282506 0.1903932731609072 0.0
6.86957996016679 4.720776242956433 0.0
7.430920333506809 0.2702852342693345 0.0
7.302066064947383 0.6134316505458445 0.0
9.305398039877746 4.64854361125207 0.0
4.078151380865065 5.203425462519088 0.0
4.080704120371218 4.778853303303787 0.0
8.052525541571825 5.965483159581719 0.0
6.367194027835946 4.754896037842673 0.0
8.604191121620719 7.648182513679963 0.0
9.546446695207845 9.234701521982952 0.0
9.018652854946867 3.351011585453845 0.0
9.143853648154607 3.350173119015413 0.0
9.067079866763024 3.245174561579149 0.0
8.991492136849105 3.135578770028028 0.0
9.29603967712795 0.1426516429033488 0.0
9.392428271030795 0.2506306237151588 0.0
9.223973843394301 0.2912279164401488 0.0
8.39375191941536 3.018777714002827 0.0
8.4836475746111 2.88135207267795 0.0
8.741089053946197 9.821127577434911 0.0
9.803966507713174 5.448064463539533 0.0
9.748132240148552 5.359371181503531 0.0
9.850258990973547 5.355211921626304 0.0
9.7965346514158 5.266762244994661 0.0
9.84142096963129 5.171050273734619 0.0
9.738843612428232 5.167483913244169 0.0
9.64168976006725 5.359875132194057 0.0
3.335917453809221 5.671837672982919 0.0
6.962669142802881 1.683222554707996 0.0
7.365210844496719 1.887492842536114 0.0
7.517378971174123 1.677983072937792 0.0
8.00383870208024 6.089394601875145 0.0
1.725435941000569 2.759295503019395 0.0
7.907977929549089 5.102827208603365 0.0
8.052861051278896 0.2683271125209605 0.0
9.80169732768395 3.385443381464333 0.0
9.831597648680848 3.28491948963525 0.0
9.736335895866404 3.316207814499244 0.0
9.597256128490281 3.756160701977744 0.0
8.865819925321706 3.366235906378775 0.0
8.489614436807788 1.757152185195495 0.0
8.88089641144391 1.078983279100314 0.0
7.430923851187758 9.724389499796425 0.0
7.584252919312249 9.509430586267927 0.0
9.744026095940516 2.247117754488748 0.0
9.729961521243718 2.659836747108116 0.0
9.790866569780063 2.558993767350471 0.0
9.736606445116795 2.455104424879619 0.0
9.846806182714698 2.452157456754448 0.0
4.518102112052724 5.141350889745285 0.0
4.519880229178207 4.85678334497067 0.0
9.7302407894617 6.434012603549242 0.0
9.787537474544765 6.523591663056312 0.0
9.744262337067932 6.617499601377625 0.0
9.8406238811518 6.41591236129004 0.0
8.914967252734657 3.579360039684312 0.0
9.154797282599406 5.670753066089419 0.0
4.228839454580575 4.612979739018002 0.0
6.095037541675208 4.42126627187728 0.0
9.304166983880842 9.864854494751789 0.0
9.406445527105628 9.759007358529582 0.0
9.256225114941945 9.700832989525724 0.0
9.796206564635622 2.351215649506205 0.0
9.849373673349081 2.25090453834006 0.0
6.332048155295931 3.511675163099286 0.0
9.069679774213784 3.022879178706259 0.0
9.070599961450037 9.055284879641471 0.0
1.808685691036764 6.331557276533421 0.0
7.120156826652838 4.698481230214924 0.0
7.052894345811342 4.799848851879358 0.0
4.739957520484086 5.369107149361242 0.0
9.389197839958292 7.197139943834638 0.0
9.046688232613976 4.560364044038737 0.0
9.162685461967492 4.562194096410666 0.0
4.227377821420887 1.564128177298305 0.0
9.201090975245227 2.794301402811909 0.0
9.251941624303948 2.677556975242327 0.0
9.186758273070138 2.563916005021366 0.0
9.317609833868786 2.560335260954038 0.0
6.57599191748324 2.437689779955877 0.0
6.305556560534859 2.459112595979303 0.0
6.981058048792093 2.642476994448363 0.0
9.886113463139504 6.510498309609482 0.0
9.250462794607717 6.221362629571698 0.0
9.305373999084068 6.108271307139882 0.0
9.390477915810829 6.228015172491477 0.0
9.44452571968143 6.114582165110393 0.0
9.502105740270528 6.197677857389309 0.0
9.31559697209813 6.331647407124485 0.0
9.370938253597153 6.437386206819511 0.0
9.594764406124872 0.1099001288712305 0.0
9.602872681151728 9.894988341116305 0.0
9.622661196143387 8.076680696281343 0.0
9.769069277144705 5.9102532189237 0.0
2.615076109785583 8.807551523115547 0.0
9.658920005405456 5.730890135691177 0.0
9.76063135061807 5.720703211793342 0.0
8.63963723169499 7.177334225227945 0.0
7.841904391869763 6.41346852896409 0.0
7.764520718520185 6.297267738834625 0.0
9.546492996136271 3.465225175657335 0.0
9.25600964352143 2.219157062786616 0.0
7.625057159226293 7.012987957636062 0.0
9.529121062829038 7.730283486008674 0.0
8.329887090625894 3.845190321147069 0.0
8.265841850823831 3.95687001944245 0.0
8.402006523775544 3.947660780406651 0.0
8.128436391670505 3.968543393650448 0.0
8.46705122470662 3.835767362024195 0.0
8.218867047074696 4.063481375518748 0.0
8.089763413611255 4.08062363292928 0.0
7.939578083855268 4.111915744184436 0.0
3.74991304509639 6.615676756107112 0.0
2.627714335615619 1.170993030860914 0.0
7.046129971268607 6.759930788612616 0.0
8.534603732661887 7.486325780553722 0.0
1.569381386467569 2.042794535871475 0.0
6.228703743210918 1.986421863690014 0.0
6.467030855792859 2.67190498312861 0.0
9.272246093269825 1.975478263632296 0.0
8.05269609263041 3.854522845257449 0.0
8.008595521536957 3.177870309354594 0.0
7.929796740504207 3.350600835935766 0.0
8.048703574664067 3.449582532910417 0.0
9.72947480375618 4.973926800124758 0.0
9.784850360535604 5.072865219810449 0.0
9.896036387646596 5.069261557893528 0.0
9.633140953203334 5.168645132864771 0.0
9.558102991128836 7.602453108835212 0.0
7.278758746505716 3.994295887299482 0.0
8.306681733482405 6.936428510427854 0.0
9.487163072013963 3.757777670075558 0.0
9.532950522284125 5.359403698944497 0.0
9.816036650072329 3.927268437107025 0.0
6.173882586235392 8.734645960664665 0.0
7.972518459433741 5.003005338485466 0.0
8.398453459336153 1.601072016988848 0.0
8.97460527296194 4.040886705742754 0.0
9.037941657530773 4.143578781749325 0.0
8.849604200183613 3.828506169652706 0.0
9.545296177100065 4.042698359132156 0.0
8.595941796785514 5.806754902023664 0.0
8.65588412428292 5.694192853853139 0.0
8.723710665131787 5.801528918332044 0.0
6.861288985046249 6.673713222735126 0.0
8.87477249219366 4.664500928777609 0.0
8.72385765226959 3.608276264790996 0.0
7.145228858696953 5.573648565429618 0.0
7.282945121585866 5.558559688509987 0.0
9.224761401603633 1.602363370249125 0.0
9.609115686587552 2.986868833620756 0.0
9.633989947851914 6.628120633848649 0.0
6.046214325132457 5.45615093027661 0.0
9.017014346798927 5.271996636983457 0.0
9.070824864071271 5.168510834798647 0.0
9.189021391555556 5.166867900487267 0.0
9.123328759137758 5.064718588163964 0.0
9.240587446378079 5.06459430516883 0.0
9.250848280531756 5.267364371053135 0.0
5.773050603406019 5.7192906317521 0.0
8.576466432793914 4.3559007860436 0.0
8.634627802680399 4.253467736542067 0.0
8.461790117175607 5.591735227444779 0.0
8.907610717370224 3.713397213891439 0.0
9.80665594564509 5.628066492225966 0.0
8.985935132601089 4.455263493464225 0.0
9.00640209566022 5.067597672073404 0.0
9.833659276096986 6.976519563917422 0.0
8.0283368553477 4.687271895436317 0.0
8.326580191759327 9.127498457128247 0.0
8.650637373791266 5.07513089931925 0.0
8.701067313435203 2.700069743477523 0.0
4.825307249916392 4.884175191874744 0.0
9.418335984190309 6.858444798015129 0.0
3.91434687300816 8.542956908935874 0.0
5.569239724399552 2.064135034637056 0.0
5.234271567762738 2.128974435011933 0.0
5.757920427527626 2.312422707096966 0.0
5.43365689737979 2.427455772745759 0.0
5.673210219624612 2.602111218343444 0.0
7.214258468265766 6.652783071431555 0.0
9.823626269633962 4.30685540664529 0.0
7.96996639420014 4.794005510174826 0.0
7.616003332725032 0.502676560965646 0.0
3.050634530589821 4.659174799474146 0.0
2.870894249800723 4.246924313393336 0.0
5.285393339952368 6.079037173753393 0.0
9.439954241218905 4.23581687956071 0.0
9.67709722097145 4.710772408106511 0.0
7.40767785509217 4.259947873553335 0.0
8.396202587439676 5.486075637998701 0.0
8.323689688705493 5.372061002264632 0.0
8.191312386254125 5.384662546230823 0.0
5.304380054816289 5.369675374029755 0.0
9.093848379546637 4.047647920840374 0.0
7.916313220758624 3.045043876114836 0.0
8.435854831444637 4.144861908356168 0.0
9.060262453079693 0.7340576053322918 0.0
7.053195520344596 5.238809779682351 0.0
9.621762679347093 2.45205452967588 0.0
8.410730269104743 5.287995309529392 0.0
9.655094569234972 3.472720279371932 0.0
7.982140513923982 6.667914768024983 0.0
8.402690325256646 4.883576657130221 0.0
9.17488654147479 4.962006474835693 0.0
9.013188196102961 8.49700148123058 0.0
9.795977244531603 2.156818021002043 0.0
9.893813711206834 9.545820400859157 0.0
7.965349232662289 4.250048884270795 0.0
8.644264557989125 4.874751532150782 0.0
8.215430976121077 1.26077208565765 0.0
8.379717637669398 8.37324652769609 0.0
9.320026533461409 5.559861899725609 0.0
7.885778178744864 0.4977439426642278 0.0
7.547066983926719 5.125166613071239 0.0
7.657542898944819 5.122996245335209 0.0
7.423918840193691 9.000935553397358 0.0
9.854133000712425 5.541931969512857 0.0
9.328508174398952 2.101486405523264 0.0
9.300749600926641 9.530012105354274 0.0
8.130307182491519 5.277079344947874 0.0
8.346752967392757 4.987627363826086 0.0
9.118404185029991 6.007087846617186 0.0
9.048232213728614 5.89431792713258 0.0
9.088340967655858 5.576242562571367 0.0
8.094762487139027 4.789727191449318 0.0
9.915265904493378 5.749591413470928 0.0
9.92169805280126 6.154216704502091 0.0
9.918022441582268 4.549125436287157 0.0
9.919332362905616 4.849536560132457 0.0
9.914800786693318 6.750595509794719 0.0
9.811792900437824 6.703950687575952 0.0
9.900643083988882 3.749855087409844 0.0
9.912423171222734 3.043228996968949 0.0
9.91892875832665 5.949999999993851 0.0
9.913300070218703 3.960831593817277 0.0
7.709347001661226 4.444236534782706 0.0
7.479443107717332 8.071637285053104 0.0
8.839057072155848 6.807845119358974 0.0
8.972330068019902 6.78765448182788 0.0
8.542093772125282 3.941452413628317 0.0
8.279144752968262 5.930387616620717 0.0
9.393455876855919 4.973162505621418 0.0
9.507123333872533 2.855087674515822 0.0
8.77504684283825 2.317347145885344 0.0
8.394133129040345 4.464046960801843 0.0
5.725509852450801 8.210843960481027 0.0
5.62632390239664 3.967637659758752 0.0
7.910815814627989 4.900765971697654 0.0
8.595808444085467 5.590040244353608 0.0
9.705160502006024 0.8106158419444889 0.0
9.82021247904746 0.808810893177099 0.0
9.218352146075844 4.447736986422823 0.0
9.20781892622228 3.858281726888132 0.0
8.713609974387523 5.178241668554946 0.0
3.55755059259364 8.921522400238844 0.0
9.59122926011489 5.452844834281716 0.0
9.70565100407009 9.77887811062354 0.0
9.826938454219809 9.74303055702321 0.0
7.238962096855633 3.278078153406256 0.0
8.575609105166194 4.567807831727537 0.0
8.936449841121737 4.765835458965493 0.0
5.59323463391086 9.248527978398117 0.0
5.280809113285124 4.886132326418428 0.0
9.328132730893216 6.544753806716806 0.0
9.026944889277736 6.67247283515637 0.0
9.81946239021469 3.007926663525007 0.0
8.677633568960493 6.144049349297466 0.0
8.33427489656924 4.571212803519522 0.0
8.55734024448315 6.382535186588269 0.0
8.692399379422756 6.372347713955898 0.0
8.495817478252626 6.503308565233578 0.0
9.905494734661673 2.544078755559835 0.0
6.177101405266569 7.228490244483556 0.0
9.825373011845263 5.807482724503027 0.0
9.808678508609606 8.118683092442964 0.0
8.397717712407108 7.08010313863416 0.0
7.428555529689225 4.935946611338556 0.0
9.575504958128711 6.125633853639113 0.0
9.154066996197898 4.146562596982661 0.0
8.074381802159323 4.337569667261167 0.0
7.018337246891919 8.843475095716133 0.0
7.970627172560641 2.658650028065857 0.0
7.382546388883145 6.723381543491632 0.0
6.822972334933889 4.884555620881615 0.0
8.343732976791593 6.041576709398377 0.0
7.743680217306919 8.423336160305476 0.0
8.505717922983454 1.115022897794028 0.0
9.113973198216474 6.992972408167606 0.0
5.818882632841168 5.300437503812764 0.0
5.951991891717714 5.279516346785062 0.0
9.450183479138845 5.92934813870612 0.0
8.783346541536119 5.48419035750989 0.0
9.38074895894124 5.65076274999803 0.0
9.513658728876734 7.193620441323493 0.0
6.396040948797887 6.776064256962667 0.0
5.389661780244388 4.89715084345563 0.0
4.473247649068957 5.85935163892416 0.0
9.249586607512612 8.37680799459232 0.0
9.103796366487646 8.379197231055114 0.0
6.274057301184156 4.87985402946409 0.0
9.259628836118232 3.561431822636308 0.0
4.037922477011971 5.489409780163391 0.0
5.62712958624254 4.893925433488392 0.0
8.806426003347967 6.133410188141932 0.0
9.53304466499349 9.59279975429444 0.0
9.542890959420024 1.966631379116419 0.0
7.459736176874619 5.863847835420528 0.0
5.937613117200432 4.89232797168023 0.0
6.171611131472617 4.879541833448487 0.0
6.100695199816815 2.291172318314745 0.0
2.315194906726768 8.081958163666464 0.0
6.878489987598286 5.148099521847569 0.0
9.105264414399338 8.639184652727645 0.0
9.20047261316883 3.457820810661327 0.0
9.895329010385955 7.55944047105717 0.0
9.912742873006831 7.76210330502246 0.0
9.37761459375249 3.168397068877758 0.0
8.946121261512507 6.345629828835438 0.0
9.918632496443566 4.449809517365367 0.0
6.848211525651934 5.945010613369067 0.0
9.915721525903255 2.047407395915179 0.0
6.117255841708726 5.163321965161054 0.0
7.276595248786602 5.347247322210079 0.0
6.32682869954104 5.23674259421017 0.0
8.785886448438022 5.692775375342819 0.0
9.099994401883361 6.776698531382792 0.0
9.913397459621638 0.2499999999998165 0.0
9.910352525643928 0.4481571029410266 0.0
9.907850422008579 0.5479735220323012 0.0
9.911983631350465 9.24778487019403 0.0
9.917634740384067 0.7514684821956668 0.0
9.195214232985496 3.254172408378337 0.0
5.000896927376288 1.846006038077654 0.0
9.917172478547403 8.250155740683276 0.0
9.908120476950126 1.742986232208194 0.0
9.914524635720774 1.949567899316728 0.0
9.907358878377153 9.145625165175748 0.0
9.917695944922635 8.949999999998397 0.0
7.648387553139914 5.325741673607362 0.0
9.605343588986079 4.130627398479715 0.0
6.648113233057817 6.774798386229164 0.0
9.910347203087213 8.446729917003672 0.0
9.913623694530468 8.548470085896316 0.0
9.9201245863254 1.536225488581779 0.0
9.906538426683255 1.059019360781604 0.0
9.912867352010919 8.74999999999809 0.0
9.799662981388353 8.79550485462418 0.0
9.831828680383174 5.99966894118311 0.0
9.91414179906643 1.263025320602998 0.0
9.920690092699912 7.240982963665807 0.0
9.385889285950551 2.235126904097426 0.0
9.28133998925606 8.00415195851526 0.0
9.817074723108401 3.172398890123306 0.0
9.482030285089927 7.512954023388035 0.0
6.682432918504054 7.233889573028878 0.0
8.528699633246763 3.260502457553277 0.0
8.91699963742029 2.327016692708648 0.0
9.267676068834481 3.954520684561369 0.0
8.70811637467455 4.974101624783084 0.0
8.18184214270768 7.816666208279135 0.0
9.690393137288163 5.264344933127836 0.0
6.937111790104696 5.245184991960528 0.0
5.895846026722989 5.174232967273284 0.0
8.281683356622615 6.400073017261236 0.0
9.150883172924027 7.444273543454419 0.0
5.430406600793122 3.390815886517273 0.0
5.049583827974758 5.697634876048387 0.0
8.3966710383105 3.495813899905868 0.0
9.007538428392454 8.046563579784266 0.0
4.645155158868719 2.637132843684674 0.0
4.887444326771336 2.30020425915506 0.0
6.483736782775559 4.522536327482678 0.0
7.843169154548308 8.2116075844056 0.0
5.06295551628385 4.901632590583318 0.0
7.201400991012747 5.138239336380897 0.0
8.519791031104612 8.848807089071627 0.0
8.658623737989732 3.031313729049854 0.0
7.585566208322493 3.629882964874684 0.0
8.411818469596405 6.834326722716643 0.0
9.172363528634236 7.669230647622864 0.0
8.85455683341768 2.682483055215344 0.0
9.359398739738925 1.631421337140716 0.0
9.071793864444992 7.337030604117359 0.0
6.968394563521436 3.712808894519514 0.0
7.899236117684646 7.094583340182754 0.0
9.54362864504834 9.781852543872333 0.0
7.151298729743687 7.644795130415299 0.0
5.452218361466201 5.186873761308322 0.0
5.517642289161902 5.293540933999446 0.0
7.802500357665464 5.978295671754199 0.0
6.594850839687122 8.491429270558893 0.0
6.029132431949566 8.294997405201931 0.0
9.31286590869111 0.5672913838331921 0.0
9.25238720319541 0.4415953739444106 0.0
9.550589523211062 4.228044955453704 0.0
8.748611832783206 6.250900951984038 0.0
7.566980108995873 3.995148257893202 0.0
7.426142759241261 3.996743578498081 0.0
6.478912513785404 4.000296412419969 0.0
9.30435638148753 5.168210982711592 0.0
7.542154188520517 5.752525075248498 0.0
7.219033852073297 2.139582470800704 0.0
7.370913620388047 6.545121498197235 0.0
5.226731036024996 5.187572666585561 0.0
8.515591031124366 4.462223215179979 0.0
6.762864307079274 0.3078036604979366 0.0
8.587432696997471 4.977010533175154 0.0
8.703948448756302 8.815629076400704 0.0
8.081003990931544 7.370949680119862 0.0
7.424404567669909 6.949730915714445 0.0
8.578903262311433 8.377992954045473 0.0
7.301258690263783 6.106184350645308 0.0
5.991600556904204 3.99820087171043 0.0
8.203048538477193 1.601044215405025 0.0
7.289972483120081 4.572350254111052 0.0
7.714697186439165 5.420586967696794 0.0
8.918853780709807 1.841796898567452 0.0
9.919941345877513 4.749808449067644 0.0
7.245589454939737 5.94251251443003 0.0
9.258480524497795 3.358952871140391 0.0
3.705877615124628 5.574038727593425 0.0
8.287096858129765 7.962370605242409 0.0
6.799629860952143 3.705385600481528 0.0
4.146753450763018 6.544154457143895 0.0
7.413973555029582 5.545687501585183 0.0
8.466524978378082 4.980481756569235 0.0
7.336312153537934 2.337983522449311 0.0
7.695505222753409 3.747498713679684 0.0
4.898236813123799 4.795853653580084 0.0
4.59779105899602 1.896916774247134 0.0
8.560170375862322 7.072369101894893 0.0
8.386150468360862 2.449771437140704 0.0
8.41200018115259 5.084601315536367 0.0
5.102189912301071 7.621598618277815 0.0
8.336320418935243 6.71651223072348 0.0
5.081745734883095 3.977838926197614 0.0
7.63590698378166 0.9500570055008507 0.0
7.743369677149255 3.051233984704873 0.0
5.357527459690566 0.3809996753407537 0.0
5.967373112873382 0.7731113464301924 0.0
8.169449265206127 6.666271947462212 0.0
5.95122726745053 5.55758205410881 0.0
9.922289489207834 3.53923011719877 0.0
9.39154684476555 2.659037023454942 0.0
7.701415639167884 7.690060291860976 0.0
9.819179654793023 1.329863870021845 0.0
8.358229579054417 6.506108206863729 0.0
9.269720555169467 5.657096143475924 0.0
4.473187658045934 7.435037860084884 0.0
9.65807158077373 3.255496360750368 0.0
9.605155446454205 8.713645566904637 0.0
7.097383547728313 5.141197376985936 0.0
9.812212483832656 1.89920712759492 0.0
9.83875570675407 6.81603549325055 0.0
8.926246869879279 2.079976511571457 0.0
9.166785856141402 9.169070814302419 0.0
8.763479010228052 1.587152667342957 0.0
5.957377924852992 6.404530806530254 0.0
7.14506854375872 6.10342416684208 0.0
5.672595070581394 5.164323323112049 0.0
4.899782787268781 0.3801727265981219 0.0
4.447133848117348 4.673614099606824 0.0
7.044865074789195 3.253639989243549 0.0
9.818461337102992 7.819456450952447 0.0
9.925334577033155 7.954012377173311 0.0
6.352907898232792 1.173665225954276 0.0
7.351721385581032 5.660361289755705 0.0
9.337367583861807 2.76534436379692 0.0
8.693118347802024 4.360254099729149 0.0
9.476812970101324 0.3524826622168163 0.0
7.109868985890334 0.9024224571333925 0.0
7.899106846231403 5.511805431542581 0.0
8.352799544476607 5.187887629361129 0.0
6.957483547582747 0.6176251309213842 0.0
8.099559500483094 1.412323841044818 0.0
9.913030944540278 0.8542404645334569 0.0
9.143075088381442 8.022165366829135 0.0
8.819861450593166 6.356592599428041 0.0
9.319444417409162 1.49938505915629 0.0
6.490262520326714 7.118204362551877 0.0
6.490874470087819 6.582907761235813 0.0
9.82506653058937 0.6146757679104559 0.0
6.803129818897624 4.419048038171804 0.0
9.840901379354312 0.08198751964190581 0.0
9.839740374244226 9.918356239418472 0.0
8.551927134544655 9.449788917425456 0.0
9.92097857388158 3.249999999993177 0.0
5.797087413057367 7.077351493358238 0.0
9.255412859987286 6.433984412022419 0.0
8.668174522249984 1.740767926084485 0.0
9.920991430240607 6.25262219124529 0.0
7.57275248448898 1.94367954756322 0.0
8.052865444445507 8.19900054463639 0.0
8.748697149245206 4.25201068974208 0.0
9.158270227735827 0.5542256343091421 0.0
5.997487767477439 4.787924707603557 0.0
6.119759900601896 4.78043793682227 0.0
4.353034750397793 8.619182743639561 0.0
8.721093521611476 5.588932824583312 0.0
5.717101151444983 1.123034066822819 0.0
9.825602081347064 8.68753399402474 0.0
8.005502510832988 8.7824052910506 0.0
5.548184234622668 6.408009287230429 0.0
5.77830300433981 6.598697187164234 0.0
9.613093825495433 4.50282172481406 0.0
9.928981132641653 9.74928475696928 0.0
6.613628176297015 4.515513362596662 0.0
1.822126723816303 1.297795131355289 0.0
9.514164594137375 1.43081427463862 0.0
4.735494753432723 3.698541604583975 0.0
9.52844959749262 8.615213629960298 0.0
4.660704511759056 0.7947595073298008 0.0
6.82340845160293 5.239926830264399 0.0
7.885938077030673 7.380147032865134 0.0
7.884599891021201 6.09005968568029 0.0
8.846834820720167 9.653276456345532 0.0
8.457777199486827 0.3851010632068662 0.0
6.66485224572131 8.771510767670392 0.0
9.091499342133352 9.708315832477556 0.0
9.824286725109655 4.976315293637262 0.0
7.848197684391786 5.632217046637356 0.0
3.88430598115417 4.225391362015386 0.0
8.776890759183289 2.809688928468134 0.0
7.393884285023409 3.59397875231041 0.0
6.927568893329758 4.396788356869783 0.0
4.96854327720728 2.662368428358774 0.0
9.1480130720193 3.951479613991279 0.0
7.071049729490975 2.38092990636632 0.0
3.40193058782919 1.686321186206593 0.0
7.612042194200681 4.815904436723407 0.0
9.043395868401339 6.888481825015849 0.0
9.098933057562759 8.152197681006806 0.0
6.058682303253315 3.857501492181965 0.0
3.707092669281355 2.986685502034343 0.0
5.113272509841263 5.189455016444592 0.0
6.960565857079232 3.416349532571279 0.0
8.755151527375476 7.649255597361291 0.0
3.393680865444538 3.679982303262531 0.0
3.117424600120088 3.35605258976247 0.0
8.530814041264104 5.488376426140491 0.0
4.820719767306654 5.106646490188182 0.0
9.918899263509473 4.144927088739744 0.0
9.918194630017027 7.447268230913605 0.0
8.461970084137805 3.144844565847669 0.0
9.924415919486059 6.949999999995354 0.0
7.184050152099684 2.72771667662237 0.0
8.834356715215904 7.801565642745232 0.0
8.689015446783005 4.145232831954543 0.0
8.490778532265319 8.234414357968106 0.0
8.63666290918932 2.83060276219705 0.0
4.61028976098935 4.741894230894578 0.0
6.314735925012879 4.003132559161639 0.0
9.20786580425652 4.67001723737971 0.0
7.141401229301469 4.873205425098625 0.0
6.235177809922153 4.774126344778935 0.0
9.12491895896937 3.145675090615719 0.0
9.255747684068178 3.162525801823036 0.0
8.312852272796098 2.290855459722148 0.0
1.449266720542303 3.363629101350872 0.0
9.525687840398492 4.800807314407045 0.0
4.829905263804087 8.14474456977717 0.0
9.09338914689732 7.563794106183232 0.0
5.389401689694107 5.283808684471545 0.0
8.530979415204587 3.029374286908943 0.0
7.901489077080633 6.535344047486632 0.0
9.218572924671975 5.760893551533255 0.0
8.562382833959296 4.143913974026883 0.0
8.62959127904665 8.974877485888243 0.0
9.408442441596518 9.62276529745719 0.0
7.5034765601713 3.869833107932387 0.0
9.842813436634783 6.600620949014236 0.0
9.826116984327193 8.911617279149695 0.0
7.529907780698261 0.7369111006685982 0.0
7.832164962480427 2.905293639437395 0.0
8.39517908433056 3.267417602291069 0.0
9.823014010107707 9.085319632577246 0.0
9.022314123618541 3.944559746338292 0.0
4.243701230676532 5.332574856090426 0.0
9.816740542566388 1.127839952679595 0.0
8.166775715766304 5.693916696568397 0.0
8.865374421689054 8.068986769641638 0.0
8.761145809863661 6.470583506581853 0.0
8.998345275919851 9.209303502026401 0.0
9.698477487436316 6.706902829754045 0.0
6.439032098063426 0.3109134377713525 0.0
7.562681994382136 4.643158005207056 0.0
9.03999088074715 0.2799354672273258 0.0
5.180741540467516 3.805018725608906 0.0
6.243990330956698 2.718077286244967 0.0
9.79416634023361 0.1815240178579244 0.0
9.926540005061975 2.847049370876555 0.0
9.826476210374608 2.670192168078066 0.0
6.365816673179121 4.536333049275508 0.0
5.546353765219417 4.618331215552614 0.0
9.820703096450293 2.000649418331399 0.0
6.884388790679166 3.561583980715254 0.0
7.431303395649604 5.747824222777201 0.0
8.849816832721245 2.19318290395604 0.0
4.185147517585975 5.697469360586313 0.0
9.165905238119013 5.873664931582344 0.0
7.70479478158537 1.788324620089049 0.0
9.627376046933474 0.9196091445437269 0.0
6.657687963328663 5.144792385996769 0.0
9.83245016645186 0.3925568446109945 0.0
7.483092985762584 9.253837199159435 0.0
5.445348362202234 3.977855663863651 0.0
7.476680532833337 4.837183287808616 0.0
9.572749890969304 8.505160319814301 0.0
9.915853314998252 9.437014513917465 0.0
7.679469018350979 7.390484878021194 0.0
9.418139053434402 4.790576000488359 0.0
8.096967733471567 5.865447162201908 0.0
9.829153508938724 8.378494945652118 0.0
9.926595955569645 5.157718300415699 0.0
8.774484245600224 7.939747459426853 0.0
8.629764448155779 6.481031318922794 0.0
8.961169458302376 3.839036702328818 0.0
4.617199205561317 5.256318959792646 0.0
8.480815774219478 4.031210317621497 0.0
9.708341592512763 3.401018043990571 0.0
7.183974816647467 4.77882314543966 0.0
9.821437962294304 7.659391965474772 0.0
8.150320284869602 2.286501016204562 0.0
9.828114434347311 1.684891358832554 0.0
5.349187766238684 6.538177907133678 0.0
8.076053471314525 2.76180604769483 0.0
4.907713691134565 5.29818629967416 0.0
0.6874399366049438 4.328593906714074 0.0
0.6980011780697519 5.702671170050627 0.0
8.263861466707834 8.182284285231713 0.0
5.838783785156478 4.913981390426639 0.0
7.807619472656604 7.235706382002089 0.0
9.388504256318683 6.022122644748753 0.0
9.929839894767033 6.436189192303577 0.0
8.3205848711706 3.39107920408397 0.0
3.240770542267401 4.019899919523968 0.0
8.059047070496568 2.468855909103855 0.0
9.932479519490421 2.449625056415224 0.0
7.737639000139152 4.580708137963557 0.0
8.26141077223695 0.3940397126348397 0.0
9.69568953371801 1.959951226402445 0.0
6.469120930453264 4.892267070266994 0.0
9.167223997255698 0.8102256463122337 0.0
6.236889648241256 0.9291076084031108 0.0
8.306379082772498 5.268830342852036 0.0
6.716089118890225 5.239344620507032 0.0
9.82511981852641 9.282822358664017 0.0
6.68375719572285 4.404998642130821 0.0
8.913754712375674 6.908138360584365 0.0
6.173250048857013 5.251634416326969 0.0
4.235907497612446 1.924052997345291 0.0
5.151007663981651 2.438629730660893 0.0
8.924254300637541 9.3764975797567 0.0
4.438612423541503 5.287968640901957 0.0
8.571203234299599 1.897009944569934 0.0
6.878800676380218 5.821332862798138 0.0
5.710626178601224 4.792560699857408 0.0
7.149510071621283 5.216310009157644 0.0
2.099966541549645 2.334742113488256 0.0
9.93396330620579 5.350566393301629 0.0
7.143046479323961 8.646955109387985 0.0
7.965747313080266 5.193641450105844 0.0
6.3314394693073 5.135050228240639 0.0
7.665821333021348 6.222698255001823 0.0
6.305321657053551 4.659816230868476 0.0
7.833020917089713 5.208837056143474 0.0
9.41455902676429 2.869725681199307 0.0
8.567151507735133 6.598605357295113 0.0
7.405527786978573 4.377085529441429 0.0
6.552969697053132 5.137148974085434 0.0
9.93630620742063 8.042778076596578 0.0
7.166743296019233 4.593171678848165 0.0
6.595561806063966 5.839366735225723 0.0
6.066152182102007 5.262519562574559 0.0
9.834694151277489 0.9093455747994099 0.0
8.98259191950674 7.579732466796592 0.0
6.465071238839505 5.25485771955322 0.0
9.759759896588413 3.236659507608532 0.0
4.775529448101694 5.224235675150505 0.0
9.935991245222917 7.153416415978829 0.0
0.6530736820718381 9.352299998916202 0.0
0.6449439415299687 0.6468300344151556 0.0
7.804690364869245 4.495816547678174 0.0
9.84503784553893 5.70620404704573 0.0
9.83525329400959 3.826992990746767 0.0
9.922964894244684 4.265000406933376 0.0
8.333767638401964 1.121219971446645 0.0
8.876012546033895 7.019147158538482 0.0
8.172413577824324 3.413096916572049 0.0
7.232233017296214 4.478957103028363 0.0
6.214597295185415 3.852860083673202 0.0
9.85013791746415 4.400709747289421 0.0
3.941627380932058 6.342995010255737 0.0
3.097271569675528 8.77391871286929 0.0
9.292917152323044 6.010976049411984 0.0
8.104342196673183 5.184165973282902 0.0
8.994300084006271 3.652611812846807 0.0
9.937157897030163 5.549999999993244 0.0
8.721368888525245 7.274540720770752 0.0
8.920003648712827 0.9516585309368178 0.0
7.910527456030004 8.536826514867816 0.0
9.846441288756814 4.60515911863952 0.0
9.584942233925151 4.712073182517884 0.0
9.642357858573972 6.805672051759494 0.0
9.797024725252207 9.838837222258014 0.0
9.842451438022124 4.018973836958878 0.0
6.112723137676118 3.704473949316424 0.0
7.574641969193845 3.765362276156904 0.0
7.826594968121701 6.200366572362263 0.0
7.762805366733504 9.34009502796868 0.0
9.56854033867856 1.012566255816665 0.0
7.71256563655353 5.219373702836014 0.0
9.68039392238282 8.786964504862018 0.0
5.910362452777086 9.277662068919813 0.0
7.418090653922814 3.326443419100716 0.0
9.857704179097952 4.697553149694669 0.0
8.452469674653342 8.996585816905599 0.0
9.522351366699843 2.057525484575908 0.0
7.802315574700843 9.548878971475935 0.0
9.938875656926385 3.449999999992592 0.0
8.425189037911712 6.608575180629274 0.0
5.925965231566842 2.523669697740033 0.0
6.654918072256329 5.95749128982984 0.0
9.826748589235729 9.631118448471485 0.0
8.6684585637523 7.39633999085442 0.0
9.844673843931567 3.090088625379724 0.0
9.93613850661301 2.250382721159617 0.0
9.218291993658738 2.892108990205171 0.0
9.83502846611296 8.212781989607324 0.0
7.754136409732265 7.104288507262783 0.0
8.510570542791681 2.036933285735889 0.0
7.757745059307245 4.315798612475442 0.0
7.989231770559189 6.201656630465583 0.0
8.068934521422738 4.198631572122605 0.0
4.957478134450373 9.038766150325067 0.0
7.208661142641733 6.501402463831379 0.0
7.299506095906239 4.363561999234681 0.0
8.250303873550486 2.105322217421675 0.0
8.678637541413377 7.053471135702286 0.0
9.761528395137384 6.163503990672834 0.0
9.84494857233395 8.59999999999775 0.0
9.83825138794677 3.672838954969637 0.0
5.121008544047756 5.808127183024784 0.0
8.343911550360986 4.043535893276861 0.0
9.85324441775315 5.899999999993774 0.0
9.51114465213134 8.41035540646284 0.0
6.505812179224195 6.93390566262983 0.0
6.15572847138365 9.023097246950844 0.0
3.352081892333425 3.024853379890529 0.0
6.433163283162099 8.675072413910678 0.0
8.825744236698243 3.624446391299867 0.0
4.883007294861279 7.819620905924936 0.0
5.876659170760434 5.638247433601083 0.0
6.859400040348503 6.510797998354633 0.0
7.946400945409184 3.500317276373196 0.0
7.496830255505493 6.653194511698024 0.0
9.852183479755313 4.891525833556942 0.0
9.77998778436291 2.922486526124376 0.0
6.774672660492365 5.324728659740495 0.0
5.717254072187427 6.824125962512845 0.0
9.713440940838062 4.63793103997539 0.0
8.859858662536796 0.2721395536350836 0.0
8.37556017530946 9.436653414116012 0.0
7.395237381047616 7.885576562773319 0.0
5.4709157802033 4.511152089197594 0.0
9.489749416979361 9.691840729914848 0.0
4.599216022837964 3.46438688931078 0.0
5.572287492757569 4.807021644849729 0.0
9.926499336309957 9.92730688390086 0.0
9.926499336310107 0.07269311609890093 0.0
9.338127766332573 0.3585313952168247 0.0
6.810761948165162 3.414693294319008 0.0
8.166274345037138 5.943611545564389 0.0
5.2892644736731 6.301081312912763 0.0
9.731911074791544 7.649313380659622 0.0
8.90251102352767 9.50983415326544 0.0
8.997881406541017 1.033666784655452 0.0
5.835124768755703 2.738139962594905 0.0
9.665357480775825 6.185331297099201 0.0
7.656532192558493 8.217157287499347 0.0
9.170463887605525 2.975444721032631 0.0
4.208158615905443 0.8648302238584886 0.0
6.97015686031129 5.933674629077266 0.0
6.181941366523793 3.565885175921835 0.0
3.30313590337911 6.393402837735046 0.0
6.447482061767014 4.816169316820496 0.0
8.185341428749446 4.169172087371246 0.0
4.552595724340015 8.298301336212145 0.0
9.84850676569699 8.999999999998423 0.0
9.846941514449377 7.393642828194986 0.0
7.924592433490734 2.788309934035703 0.0
8.154308714226714 8.853640122009672 0.0
8.876629743004642 1.96110242719995 0.0
7.228849192966834 8.90811350348676 0.0
9.852301635085423 8.296637825215246 0.0
5.219795195341889 5.547413133147649 0.0
9.861497117995457 6.901363010201344 0.0
2.953911258021604 6.136007283255669 0.0
6.93158841067062 4.77708273647784 0.0
9.67540418457871 2.912802891506324 0.0
4.194055958522277 4.437353127730132 0.0
6.133959559341536 0.406856611599261 0.0
8.29952795189331 9.309744645643846 0.0
9.843692337952948 1.209647690818311 0.0
5.164986286280336 6.671544079402435 0.0
9.838533350075606 2.081705440779448 0.0
8.301244777513975 6.604088853319459 0.0
5.471494771710784 2.714598185146428 0.0
8.86534684892311 1.208599471795828 0.0
9.940610684232212 1.451558535868664 0.0
9.40896208432968 1.428353940655538 0.0
2.329177605337097 4.238803555614174 0.0
5.980761651517799 7.182207186682233 0.0
9.66541573964336 0.1719254072074424 0.0
7.220979380229172 7.806128737674462 0.0
1.251721227904697 6.151932667911503 0.0
8.104967286191181 6.057912607875576 0.0
6.650768762224724 4.817922869198292 0.0
6.634976350437587 3.213339182992986 0.0
7.034320437500567 4.898219100342838 0.0
9.502772020064167 6.283064492634301 0.0
8.13187938667684 3.518506862055515 0.0
9.855471943454193 2.599999999994991 0.0
9.056747742708522 8.263936599935574 0.0
4.352645795441222 5.724453640019 0.0
3.744263984699181 1.488951698361357 0.0
5.175860134287045 3.6375726667098 0.0
7.736434712114619 6.400417475661193 0.0
9.857658576695343 6.316607183405179 0.0
7.876525261950537 4.304285002335559 0.0
9.856114384785611 7.914602773442983 0.0
9.848334119947063 0.7059644476295188 0.0
9.59694321995579 6.895814046141667 0.0
5.906465212962551 3.869023950643881 0.0
9.840676994268005 9.364956386459765 0.0
5.355015287544095 3.83518170601625 0.0
6.374090407153147 5.855743754257685 0.0
8.227401290513832 5.297819733684674 0.0
5.451235131977493 4.825706629991923 0.0
6.022070213762754 5.355923882747634 0.0
9.845674433677614 6.108401449483281 0.0
9.835067400944396 7.739582406783081 0.0
8.602026805792988 2.941372356914139 0.0
5.059869081004962 5.269480960018243 0.0
5.284714507903736 5.26496663762182 0.0
9.627110479149561 7.660076105040499 0.0
6.820001127809743 4.792514421153957 0.0
5.120512795059439 4.806607659110254 0.0
9.56933817216883 2.911464407429096 0.0
9.74091654291531 9.267545397628387 0.0
9.93006767325302 6.576784040838644 0.0
9.642486276936268 4.650227701598451 0.0
5.185183328569137 9.410919109238325 0.0
9.37052946854105 4.605636695802024 0.0
1.677077220416309 5.871167715901136 0.0
7.345783833404538 3.184020711886284 0.0
5.419239942654976 5.982692039856376 0.0
6.133318300188262 2.551919945731369 0.0
6.187291396343277 4.499077117404439 0.0
1.231465237822878 3.921479198315213 0.0
8.969849937139944 9.699215363213542 0.0
9.218303154263054 6.037447959776716 0.0
CELLS 4886 19544
3 1113 1356 1450
3 1402 231 1659
3 272 269 1414
3 396 394 1777
3 1451 945 1452
3 194 81 1801
3 1847 1501 2104
3 2024 2121 2479
3 1115 1113 1450
3 1124 1413 1844
3 1061 1955 2409
3 307 305 1645
3 1592 1369 1593
3 238 1501 1847
3 1955 1883 2409
3 1808 243 1910
3 1885 978 2362
3 1440 793 2092
3 189 1488 1608
3 353 350 1864
3 2007 2231 2232
3 307 1645 2493
3 1096 1760 2496
3 2178 874 2179
3 621 625 1595
3 1493 1480 1938
3 1655 1268 2137
3 1341 1410 2212
3 243 1808 2360
3 1902 1446 2516
3 1760 1096 1763
3 856 790 2180
3 2008 2046 2105
3 789 1809 2067
3 694 1543 1575
3 1127 1762 1953
3 1748 807 2228
3 1543 1308 1575
3 820 1872 2170
3 1417 954 1998
3 1369 1592 2386
3 272 1414 1787
3 329 333 1998
3 1544 1095 1545
3 2231 1490 2232
3 1342 1683 1790
3 374 377 1797
3 807 1678 2228
3 1665 198 2128
3 141 142 1620
3 325 322 1952
3 231 1402 1654
3 198 1665 2010
3 1890 1307 2387
3 208 1438 1619
3 2016 1970 2156
3 1436 212 2020
3 954 1417 2333
3 1736 1894 2244
3 1491 1750 2143
3 1677 1064 2146
3 1474 1258 1475
3 1500 233 1930
3 1446 2415 2516
3 1700 973 1800
3 2128 2270 2316
3 1316 1315 1593
3 1307 2341 2387
3 2258 1324 2328
3 1083 1507 1508
3 693 1095 1544
3 621 1595 1596
3 667 1571 1872
3 1932 1766 2061
3 393 391 2240
3 1342 1790 2400
3 252 1707 2234
3 931 978 1885
3 1430 1116 1704
3 1411 1109 1714
3 1478 1227 2440
3 1990 195 2297
3 1792 1167 1985
3 1682 444 1975
3 394 397 1777
3 1711 2028 2162
3 1574 856 2180
3 2008 1851 2046
3 736 1493 1938
3 1069 1060 1662
3 1458 455 1754
3 862 691 1705
3 1161 1642 2286
3 1699 1700 1800
3 447 516 1637
3 955 1482 1483
3 2024 206 2121
3 391 1773 2240
3 1072 1412 1893
3 212 1436 2350
3 1566 1365 1568
3 259 1441 1672
3 872 870 1764
3 330 328 1889
3 1539 1161 2286
3 1897 1898 2275
3 1434 1990 2297
3 1109 1411 1730
3 319 307 2493
3 1762 1761 1953
3 1369 1316 1593
3 1540 834 1832
3 1505 652 2442
3 1732 1655 2137
3 921 1712 2295
3 1872 1388 2170
3 1712 921 2125
3 2028 244 2162
3 1506 1570 1680
3 1569 368 1964
3 1571 667 2375
3 1587 2178 2179
3 196 1723 1737
3 524 2016 2156
3 1528 1250 1733
3 1115 1450 1973
3 1938 1480 1971
3 1809 1396 2067
3 1641 249 2299
3 1223 1258 1474
3 1365 1566 2120
3 1981 962 2316
3 1538 353 1864
3 455 1458 1756
3 152 233 1500
3 1116 1430 1703
3 817 652 1505
3 1347 2003 2004
3 1607 1958 2085
3 194 1801 2195
3 1410 1341 2351
3 223 1415 1710
3 197 1511 2346
3 2198 787 2225
3 81 82 1801
3 1438 208 1620
3 1444 522 1823
3 1511 197 1950
3 726 718 1567
3 1637 516 1739
3 1708 2337 2341
3 1280 1649 2124
3 2337 1395 2341
3 1327 1709 2315
3 1225 1227 1478
3 691 624 1705
3 476 2224 2305
3 830 832 2204
3 1750 1491 2403
3 1366 1897 2275
3 2345 1583 2352
3 2054 405 2110
3 1984 2172 2230
3 1846 2198 2225
3 1177 2042 2418
3 2121 1367 2479
3 1527 1531 1541
3 916 1039 1834
3 1413 1124 2467
3 1622 1503 1868
3 249 1641 2019
3 1805 405 2054
3 1761 1007 1953
3 1415 223 2395
3 960 1756 2203
3 368 1569 2135
3 1402 1659 2473
3 941 1433 2471
3 1267 1477 1501
3 260 2002 2265
3 1704 558 2077
3 2224 1886 2305
3 2053 1386 2199
3 1452 945 1952
3 1717 1611 1718
3 1682 1975 2230
3 1760 1762 2496
3 1481 203 2104
3 1264 1266 1670
3 142 236 1620
3 2133 1182 2179
3 1791 1602 2183
3 350 346 1864
3 1412 1072 2393
3 1281 1575 2255
3 1565 1948 2155
3 849 1449 1513
3 1958 396 2085
3 1339 1069 1662
3 834 1540 1917
3 269 267 1414
3 1268 1267 1501
3 1440 2092 2468
3 1399 1981 2316
3 1635 1636 2041
3 1454 252 2234
3 1451 1305 1890
3 1375 1883 1955
3 362 366 1786
3 1484 2410 2528
3 1449 849 1640
3 1267 1474 1477
3 200 1611 1717
3 1054 1581 1582
3 1350 1977 2253
3 190 1390 2118
3 788 1956 2193
3 1709 1327 1888
3 2233 2298 2413
3 1488 189 2355
3 478 1685 1714
3 230 1525 1690
3 1687 478 1688
3 427 429 1756
3 1570 1065 2476
3 1880 1133 1988
3 1649 656 2124
3 1537 209 1614
3 1134 1769 1986
3 1220 1268 1655
3 396 1777 2085
3 1167 1755 1985
3 2229 1744 2296
3 1575 1281 2287
3 127 240 1882
3 377 647 1797
3 954 329 1998
3 220 1697 1698
3 1342 1341 2212
3 1441 264 1672
3 1512 188 2433
3 763 2345 2352
3 1685 1411 1714
3 1805 1188 1951
3 1347 2004 2157
3 1054 1582 1667
3 1333 1617 1674
3 2217 73 2361
3 1539 1036 1917
3 1039 1292 1834
3 208 141 1620
3 1965 1964 2038
3 693 1544 1969
3 1453 239 2279
3 203 1481 2049
3 945 1451 1889
3 680 1459 2134
3 354 2147 2196
3 1405 1932 2061
3 1723 1722 1737
3 1748 1175 1927
3 1532 1528 1733
3 2057 1824 2154
3 1406 1659 1702
3 1948 1186 2155
3 210 1598 2114
3 1685 478 1687
3 1324 1325 2328
3 1526 1250 1527
3 165 166 1509
3 1493 736 2523
3 1526 1527 1541
3 1390 190 2417
3 522 1444 1998
3 1680 1570 1732
3 1017 1442 2525
3 374 1797 2430
3 1507 1083 2197
3 1756 960 2221
3 2270 1400 2316
3 2205 1452 2282
3 1074 1187 1888
3 2158 1245 2200
3 1442 1017 1684
3 864 1116 1703
3 1750 1751 2143
3 1456 516 1492
3 1677 2146 2149
3 2022 1339 2388
3 1602 258 2183
3 678 1594 1595
3 1245 1670 2200
3 972 830 2204
3 2143 983 2342
3 1268 1501 2226
3 1266 1461 1670
3 1487 222 2465
3 1382 2022 2388
3 58 59 1661
3 2147 1543 2196
3 1484 1485 2410
3 628 2053 2199
3 1906 1549 2259
3 364 362 1786
3 1339 2022 2247
3 1636 525 2041
3 625 678 1595
3 678 1593 1594
3 2212 1410 2222
3 1837 1865 2215
3 1699 1800 1801
3 866 864 1703
3 893 1472 1982
3 1735 1736 2244
3 1633 1255 1922
3 126 127 1882
3 681 867 1656
3 1351 1401 2363
3 11 228 1588
3 1127 1953 2454
3 265 266 267
3 1722 1122 1737
3 1389 1691 2069
3 1613 1610 1616
3 1227 1256 2440
3 429 455 1756
3 1535 1177 2418
3 322 324 1952
3 973 1700 1802
3 1964 368 2038
3 1176 1865 1866
3 1096 872 1764
3 1176 1866 1875
3 193 1839 1892
3 156 157 1441
3 615 617 1596
3 686 1520 2480
3 1409 2097 2305
3 2410 1151 2528
3 1427 2217 2361
3 440 1911 2314
3 1744 1743 2296
3 516 1456 1739
3 1939 589 2164
3 690 931 2150
3 1062 1579 1580
3 1054 1580 1581
3 955 1483 1716
3 1064 1677 2248
3 1956 1616 2193
3 1776 1893 2026
3 1398 1115 1973
3 2002 1453 2265
3 1541 1531 1542
3 216 2191 2536
3 1736 1326 1894
3 1065 994 1066
3 1598 2115 2175
3 2314 1911 2358
3 1433 941 2042
3 2115 1209 2175
3 717 1550 1551
3 188 1941 2433
3 267 1132 1414
3 771 1569 2064
3 1157 1545 1546
3 1231 1250 1526
3 1933 240 2181
3 222 1487 2025
3 1525 230 1765
3 1430 1704 2077
3 757 1744 2495
3 264 263 265
3 883 773 1917
3 739 2205 2282
3 1667 1582 2434
3 1744 757 2474
3 239 1453 2002
3 1441 259 2356
3 2005 1443 2012
3 254 1766 1932
3 1509 166 1679
3 1477 1475 1481
3 793 1440 2165
3 1385 1523 2377
3 1481 1475 2523
3 156 1441 2356
3 1066 1220 1655
3 945 325 1952
3 2094 2087 2134
3 1747 1175 1748
3 253 262 263
3 1327 1074 1888
3 718 715 1567
3 2046 1043 2105
3 240 1933 2399
3 1305 1307 1890
3 224 58 1661
3 1195 1566 2285
3 1590 1393 1749
3 1255 1230 1922
3 353 1538 2073
3 358 1999 2325
3 882 1802 2036
3 1024 1020 1604
3 333 522 1998
3 1401 1351 2414
3 1475 1258 1476
3 2310 786 2364
3 328 945 1889
3 807 1748 1927
3 825 724 1912
3 1742 263 2491
3 267 266 1132
3 2077 2102 2203
3 1431 1432 1860
3 1212 1957 2312
3 2097 476 2305
3 1132 1402 2473
3 717 713 1550
3 1746 693 1969
3 1372 1124 1844
3 1256 1541 2269
3 1977 1350 2274
3 2332 1978 2443
3 874 2133 2179
3 1983 1534 2171
3 1157 1544 1545
3 1230 1228 1922
3 1580 1579 1581
3 1565 806 1948
3 1416 1363 2413
3 1287 1995 2398
3 265 263 266
3 1534 1529 2171
3 1604 1834 2428
3 1255 1633 2509
3 1344 1643 1644
3 1332 1388 1571
3 1423 217 2217
3 2191 1057 2451
3 458 447 1637
3 1250 1233 1733
3 472 2212 2222
3 1175 1747 1840
3 1652 256 1653
3 1073 1347 1572
3 200 145 1609
3 683 640 1585
3 1116 862 1705
3 1221 1223 1474
3 1778 801 1803
3 1503 1622 2471
3 1475 1493 2523
3 464 680 2134
3 14 210 2114
3 579 1880 1988
3 1434 1435 1990
3 1447 2310 2364
3 275 274 276
3 2294 1871 2419
3 814 1068 1684
3 1172 1439 2273
3 273 272 274
3 1363 1416 2406
3 1220 1219 1221
3 1060 1656 1662
3 1099 1792 1985
3 2048 1198 2168
3 1241 1245 2323
3 699 723 1753
3 1640 1862 2070
3 910 1018 1584
3 1586 1067 1587
3 1656 867 1662
3 1067 686 2480
3 654 2242 2294
3 1593 1315 1594
3 1880 553 1974
3 236 1717 1718
3 617 621 1596
3 1723 196 2313
3 402 1877 2116
3 273 274 275
3 2202 1869 2252
3 1510 1358 1767
3 193 1892 2373
3 1188 1805 2054
3 1220 1221 1267
3 1066 1218 1219
3 1517 1097 1518
3 1677 1676 1858
3 686 277 1520
3 268 267 269
3 697 857 1592
3 220 1698 1699
3 1802 1700 2036
3 1612 1537 1614
3 929 817 994
3 228 12 2136
3 2110 2116 2482
3 1659 1658 1702
3 1611 1613 2280
3 1344 991 1643
3 683 1585 1604
3 1638 1358 2404
3 1485 1034 2410
3 2214 833 2424
3 271 272 273
3 1482 955 1962
3 1066 1219 1220
3 931 1885 2150
3 1613 1891 2280
3 1189 1589 2204
3 1566 1195 2120
3 726 1567 2490
3 1122 1722 1874
3 1494 319 2493
3 1671 259 1672
3 1267 1221 1474
3 603 528 1591
3 1664 2128 2316
3 1817 1924 2174
3 1626 1660 2111
3 1474 1475 1477
3 1023 1062 1580
3 1957 1599 2312
3 1764 1939 2164
3 1358 1950 2404
3 200 1609 1610
3 1431 1082 1432
3 1778 1803 2521
3 1830 1832 2075
3 1930 233 2369
3 1329 1482 1650
3 757 1959 2522
3 1239 1247 1597
3 758 1978 2332
3 1569 1290 2064
3 216 1694 2191
3 1453 1420 2265
3 1549 1906 2129
3 24 215 1674
3 19 235 1676
3 1621 1057 2191
3 1691 1389 2262
3 1617 1333 2192
3 929 994 1065
3 1769 1672 1986
3 1893 1412 2026
3 1609 1537 1612
3 271 269 272
3 1373 1438 1620
3 217 1423 2381
3 517 330 1889
3 1322 1055 1667
3 1974 553 2499
3 228 2136 2187
3 1589 1189 1788
3 1999 1577 2325
3 2110 405 2116
3 189 1608 1842
3 1055 1050 1667
3 739 1455 2205
3 1865 1176 2215
3 319 1494 2522
3 2474 757 2522
3 1484 227 1485
3 10 11 1588
3 723 809 1753
3 27 230 1689
3 1550 806 1565
3 1179 1180 1217
3 207 1617 2192
3 1433 1217 1502
3 1562 1556 1606
3 1379 2017 2018
3 1245 2158 2323
3 675 1097 1517
3 884 501 1599
3 1020 683 1604
3 1603 1095 1848
3 1001 2057 2154
3 1604 1585 1834
3 1610 1612 1616
3 1764 870 1939
3 2242 1871 2294
3 1669 1264 1670
3 1658 213 1702
3 1995 1646 2398
3 631 539 1600
3 1491 2143 2342
3 1801 1800 2195
3 1200 1199 1693
3 1535 940 1861
3 1534 758 2332
3 914 2258 2328
3 1588 228 2457
3 216 138 1694
3 151 152 1500
3 1133 1880 1974
3 1677 1858 2248
3 1294 1622 1868
3 875 1010 1767
3 1379 2018 2416
3 1279 2202 2252
3 182 256 1652
3 1592 857 2386
3 672 681 1656
3 615 1596 1824
3 1093 1487 1623
3 1823 522 2100
3 1245 1242 1669
3 1582 1581 1583
3 758 1534 2306
3 1975 1984 2230
3 1358 1510 1950
3 1663 1336 1665
3 2102 960 2203
3 366 1087 1786
3 1740 1490 2231
3 21 207 1709
3 145 146 1609
3 2339 765 2384
3 603 1591 1668
3 2081 199 2149
3 1540 1832 1879
3 1721 1723 1947
3 1754 455 1793
3 1751 1753 2119
3 882 1701 1807
3 1540 1539 1917
3 242 1695 1697
3 1521 354 2091
3 1363 2233 2413
3 1584 1018 1925
3 703 1067 1586
3 1177 1178 1179
3 795 916 1834
3 277 276 607
3 1571 1388 1872
3 22 23 1617
3 1097 823 1177
3 25 26 1624
3 419 418 1790
3 1728 1906 2259
3 440 1455 2261
3 1877 1318 2116
3 1488 1156 1608
3 1439 2130 2273
3 1889 1451 1890
3 1614 209 2389
3 1472 893 2094
3 675 821 823
3 23 24 1674
3 1788 1190 2183
3 917 941 1622
3 1763 1096 1764
3 1068 1442 1684
3 1034 1485 2173
3 2172 1533 2230
3 138 139 1694
3 1065 1570 2197
3 607 674 675
3 1536 1248 2268
3 229 135 1734
3 1437 1925 1926
3 680 510 1646
3 147 209 1537
3 26 27 1689
3 1627 705 2163
3 206 1651 2121
3 2409 1785 2462
3 1492 682 2447
3 1223 1225 1258
3 889 1772 2374
3 253 263 264
3 275 276 277
3 1455 739 2261
3 2022 1382 2176
3 150 227 1484
3 639 1019 1591
3 1449 1640 2070
3 1082 833 2214
3 1503 1502 1504
3 144 200 1717
3 1643 991 1713
3 1190 1791 2183
3 1538 1804 2073
3 1256 2269 2440
3 18 19 1676
3 521 531 2000
3 790 849 2180
3 1075 1329 1650
3 1087 1782 1785
3 1066 994 1218
3 270 269 271
3 682 1492 2494
3 185 252 1454
3 253 158 262
3 1629 1632 1633
3 200 1610 1611
3 1477 1481 2104
3 1623 1487 2465
3 1518 1097 1535
3 1414 1132 2460
3 1179 1217 1433
3 177 1506 1680
3 1392 1017 2525
3 1832 834 2075
3 675 823 1097
3 1459 2094 2134
3 1782 1087 1795
3 1838 1730 2372
3 1639 149 2528
3 1617 23 1674
3 2265 1420 2489
3 180 232 1859
3 1527 1250 1528
3 20 21 1709
3 1083 1508 2311
3 903 866 1703
3 1455 440 2314
3 1187 1858 1888
3 1659 1406 2473
3 1446 1902 2166
3 421 1951 2106
3 1598 210 2115
3 154 259 1671
3 1288 1835 2080
3 1832 1831 1879
3 1258 1225 1478
3 1024 1604 2117
3 1263 1429 1739
3 706 705 1627
3 1583 1581 2352
3 407 1805 1951
3 856 1574 2527
3 1701 882 2036
3 1624 26 1689
3 717 1551 1552
3 1385 2377 2391
3 2302 1745 2354
3 1572 1347 2157
3 1036 883 1917
3 1689 1690 1691
3 1664 1665 2128
3 1476 1479 1480
3 1751 2119 2143
3 815 814 1684
3 1790 889 2400
3 1606 1607 2085
3 265 267 268
3 418 889 1790
3 1522 1521 2091
3 135 136 1734
3 1726 1445 1729
3 647 1796 1797
3 1346 1453 2279
3 1293 1827 2117
3 1242 1244 1669
3 1853 1852 1854
3 889 2374 2400
3 1039 1038 1290
3 1524 628 2199
3 1331 1332 1571
3 1291 1290 1569
3 1475 1476 1493
3 1850 1852 1853
3 1490 1740 2456
3 1689 230 1690
3 1256 1526 1541
3 1704 1705 2167
3 1465 1470 1675
3 956 1073 1572
3 1613 1616 1956
3 916 917 1038
3 2014 1522 2091
3 1221 1222 1223
3 1999 763 2352
3 234 10 1588
3 1697 220 2335
3 1527 1528 1529
3 2298 1600 2413
3 1436 2020 2254
3 1642 1161 1678
3 1523 1385 2436
3 1730 1838 2426
3 795 796 916
3 713 711 1550
3 1456 1263 1739
3 999 1336 1663
3 1785 1784 2462
3 409 415 1783
3 607 675 1517
3 1229 1231 1526
3 1958 1855 2078
3 1589 1588 1590
3 1933 261 2380
3 762 1965 2038
3 1756 1458 2203
3 1776 597 1893
3 1794 1072 1893
3 188 1512 2266
3 1774 2339 2384
3 188 1908 1941
3 1010 1510 1767
3 2189 2285 2307
3 773 834 1917
3 1245 1669 1670
3 1248 1597 2268
3 146 1537 1609
3 818 910 1584
3 1641 1313 1651
3 1217 1745 2302
3 1065 1066 1655
3 1597 1247 2047
3 1360 2177 2376
3 1612 1615 1616
3 2126 867 2186
3 1019 683 1020
3 1747 892 1840
3 1092 1093 1623
3 261 1933 2181
3 400 424 1666
3 1516 1903 2377
3 1100 1392 1605
3 247 1738 1881
3 268 1134 1986
3 1177 823 1178
3 884 1599 1957
3 263 262 2491
3 806 1627 1948
3 1227 1229 1256
3 191 1729 2504
3 1636 1635 2502
3 1480 1479 1601
3 1721 1947 2498
3 1924 1146 2174
3 229 1734 1735
3 175 204 1725
3 1179 1178 1180
3 354 1521 2147
3 665 697 1592
3 640 646 1585
3 627 545 1636
3 1882 240 2399
3 1556 1555 1606
3 1373 1620 2394
3 1871 1071 2419
3 548 1628 1629
3 455 436 1793
3 974 1831 1841
3 1844 1413 2392
3 1612 1614 1615
3 209 1639 1937
3 1329 1330 1331
3 1823 2100 2142
3 1097 1177 1535
3 1021 1020 1022
3 825 1912 2455
3 913 1122 1874
3 400 1666 2113
3 1256 1229 1526
3 1419 1418 2450
3 1552 1551 1553
3 1850 1099 1852
3 1629 1631 1632
3 801 685 2029
3 1618 1619 1621
3 265 268 1986
3 1715 2165 2330
3 1531 1529 1534
3 1022 1024 1576
3 658 693 1746
3 703 686 1067
3 1062 1576 1577
3 1023 1022 1062
3 236 1718 2394
3 1688 502 1740
3 1501 1477 2104
3 213 165 1509
3 646 795 1585
3 196 1737 1738
3 379 679 1795
3 639 640 683
3 924 875 1767
3 1752 699 1753
3 207 2192 2315
3 627 1636 1660
3 1217 1180 1745
3 730 728 1833
3 528 561 1591
3 1444 1417 1998
3 252 186 1602
3 1729 1445 2504
3 460 502 1688
3 1418 946 1778
3 1203 1200 1693
3 548 470 1628
3 849 668 1640
3 646 785 795
3 607 276 674
3 14 15 210
3 147 148 209
3 478 460 1688
3 1709 207 2315
3 1157 1546 1608
3 1155 1731 1899
3 1524 1934 2390
3 1775 921 1876
3 1433 1502 1503
3 470 458 1628
3 1223 1224 1225
3 1291 1569 1964
3 871 1056 1826
3 1781 1783 1915
3 1587 1067 2300
3 916 1038 1039
3 1388 1387 1389
3 1611 1610 1613
3 1075 1328 1329
3 1039 1290 1291
3 1538 1265 1804
3 1184 1185 2163
3 597 598 1794
3 1450 1356 2421
3 1835 576 2080
3 1629 1628 1631
3 1331 1330 1332
3 561 639 1591
3 1476 1480 1493
3 705 703 1586
3 639 683 1019
3 1951 1188 2106
3 436 446 1793
3 1472 1297 2142
3 1332 1387 1388
3 1345 984 1720
3 1329 1328 1330
3 1050 1048 1667
3 150 151 227
3 11 12 228
3 557 541 2256
3 1831 974 1879
3 134 229 1766
3 1357 1358 1638
3 1336 1641 2299
3 1650 1482 1962
3 1591 1019 2512
3 1506 1507 1570
3 1803 801 2029
3 1178 823 1972
3 1552 1553 1554
3 1290 1038 1294
3 1028 1313 1641
3 1237 1239 1597
3 993 1017 1100
3 893 2087 2094
3 149 1484 2528
3 1768 1142 1949
3 9 234 1673
3 1554 1553 1555
3 668 632 1640
3 711 806 1550
3 1628 458 1637
3 1098 1829 1830
3 1482 1331 1483
3 531 1818 2000
3 435 419 1790
3 1156 1157 1608
3 1182 1184 2179
3 510 512 1646
3 1231 1233 1250
3 946 841 1778
3 1483 1331 1571
3 1459 680 2458
3 1166 1040 1210
3 892 1657 1820
3 1042 1445 1726
3 1019 1020 1021
3 749 805 1810
3 234 1588 1589
3 1695 242 1892
3 556 1853 2483
3 1018 1572 1573
3 1529 1528 1530
3 1606 1558 1607
3 1761 1759 2308
3 1396 1032 1921
3 1018 956 1572
3 689 1150 1416
3 1827 1293 2515
3 149 150 1484
3 1647 656 1648
3 1543 694 2196
3 399 409 1783
3 545 525 1636
3 268 269 270
3 715 713 717
3 1100 1017 1392
3 1657 892 1747
3 207 22 1617
3 1666 884 2249
3 1671 1672 1769
3 1554 1555 1556
3 146 147 1537
3 1081 1444 1822
3 711 709 806
3 1443 2005 2322
3 660 658 1746
3 1166 1458 1754
3 916 796 917
3 1056 1728 1826
3 1068 1069 1275
3 184 185 1454
3 158 159 262
3 2007 1687 2231
3 805 1708 1810
3 1672 264 1986
3 1561 1562 1563
3 978 1075 1650
3 1590 1588 2457
3 215 25 1624
3 1551 1550 1565
3 1073 1346 1347
3 857 818 1584
3 1648 656 1649
3 675 674 821
3 561 594 639
3 1731 529 1899
3 2303 1454 2535
3 981 903 1040
3 1630 1629 1633
3 993 877 1017
3 724 718 726
3 512 603 1646
3 1676 235 1858
3 814 1060 1068
3 715 717 1567
3 1796 647 1870
3 1715 1171 2165
3 678 1592 1593
3 644 613 1824
3 1690 1525 2145
3 1297 1822 1823
3 271 656 1647
3 1704 1116 1705
3 1225 1226 1227
3 1275 1069 1338
3 910 956 1018
3 1824 1596 2154
3 1403 1100 1605
3 1221 1219 1222
3 1068 1060 1069
3 1901 245 1949
3 1081 1055 1321
3 1751 563 1752
3 1021 1022 1023
3 672 638 681
3 1095 657 1848
3 1235 1237 1248
3 1561 1556 1562
3 1265 1259 1804
3 524 1819 2016
3 978 1650 2362
3 1492 516 2494
3 229 1735 2061
3 185 186 252
3 157 158 253
3 152 153 233
3 9 10 234
3 1527 1529 1531
3 1808 1344 2360
3 1062 1577 1579
3 1509 1679 1977
3 424 454 1666
3 637 638 672
3 981 1040 1166
3 1555 1558 1606
3 751 749 1810
3 1166 1210 1458
3 1651 1313 2121
3 15 16 2260
3 1633 1632 2509
3 2167 1705 2276
3 551 602 2045
3 697 818 857
3 364 1786 1883
3 832 1189 2204
3 1476 1478 1479
3 678 665 1592
3 213 1509 2096
3 1015 888 1124
3 1062 1022 1576
3 679 1782 1795
3 680 1646 1995
3 1101 1100 1403
3 1109 433 1714
3 1248 1237 1597
3 733 730 1833
3 1702 213 2096
3 499 498 1828
3 1418 1778 2521
3 637 600 638
3 1048 1046 1054
3 1577 1576 1578
3 814 766 1060
3 1279 2252 2292
3 474 470 548
3 199 18 1676
3 157 253 1441
3 1048 1054 1667
3 471 472 2290
3 625 665 678
3 795 785 796
3 1264 1265 1266
3 1437 1926 2350
3 1362 2048 2168
3 1394 2337 2371
3 454 884 1666
3 1022 1020 1024
3 751 1810 1923
3 1046 1023 1580
3 1807 1701 1931
3 1618 208 1619
3 566 588 689
3 1828 498 1829
3 501 509 1599
3 1118 780 1775
3 878 817 929
3 1510 1511 1950
3 1618 1621 1694
3 1052 1081 1822
3 1416 1150 1715
3 1239 1241 1247
3 1396 1921 2067
3 1751 1752 1753
3 1264 1259 1265
3 539 566 1600
3 1762 1127 2496
3 1673 1788 2183
3 1555 1557 1558
3 1052 1050 1055
3 725 724 825
3 1142 1770 1771
3 681 853 867
3 454 501 884
3 1346 1420 1453
3 932 1147 1770
3 1546 1545 1547
3 533 582 1818
3 1266 1337 1460
3 1872 820 2318
3 1117 1119 1713
3 1081 1321 1417
3 1253 1259 1264
3 1569 771 2135
3 1052 1055 1081
3 1181 1178 1972
3 709 706 1627
3 1073 1076 1346
3 1098 1828 1829
3 1382 1380 2176
3 1442 1275 1443
3 919 999 1663
3 1789 828 1855
3 877 815 1684
3 509 539 631
3 992 877 993
3 1266 1265 1337
3 2268 1498 2340
3 1130 1032 1396
3 1095 1603 2508
3 886 826 887
3 531 533 1818
3 1131 1400 1881
3 447 437 516
3 2460 1132 2473
3 940 1535 2418
3 768 1873 2037
3 1813 1869 1954
3 1627 2163 2488
3 1497 1495 1645
3 1198 1409 2168
3 724 726 1912
3 1869 987 1954
3 763 1999 2338
3 1010 1170 1374
3 984 976 1720
3 1470 1743 1744
3 689 588 1150
3 1901 1949 2359
3 1640 632 1862
3 274 272 1787
3 563 564 1752
3 994 817 1505
3 737 1807 1931
3 1770 1147 1771
3 1233 1235 1733
3 2450 1418 2521
3 414 410 1821
3 908 1099 1850
3 1227 1228 1229
3 1692 1203 1693
3 1625 216 2194
3 512 528 603
3 1377 1357 1638
3 1465 1464 1470
3 1360 1359 2177
3 1686 2007 2095
3 1336 1028 1641
3 1857 751 1923
3 1758 572 1759
3 553 541 557
3 1171 1715 1811
3 956 1003 1073
3 1467 1465 1675
3 719 718 724
3 1509 1977 2096
3 1734 1625 1736
3 1503 1504 1868
3 592 597 1776
3 180 181 232
3 162 163 231
3 2308 1759 2370
3 1357 1114 1358
3 875 946 1010
3 509 631 1599
3 17 18 199
3 144 145 200
3 1099 906 1792
3 1469 1467 1494
3 605 589 1939
3 1208 1205 1211
3 354 344 2091
3 692 782 804
3 1010 946 1170
3 1463 1462 1464
3 716 715 718
3 714 713 715
3 271 273 656
3 139 1618 1694
3 549 277 686
3 673 672 766
3 1378 1377 1379
3 2007 868 2095
3 999 1028 1336
3 1208 1211 1447
3 601 545 627
3 1119 1643 1713
3 1332 1333 1387
3 910 912 956
3 520 521 2000
3 828 1789 1819
3 277 607 1520
3 1338 1339 2247
3 818 819 910
3 767 766 814
3 712 711 713
3 1494 1467 1675
3 639 594 640
3 2044 557 2256
3 235 20 1709
3 1620 236 2394
3 804 919 962
3 1862 702 2070
3 681 852 853
3 1559 1556 1561
3 1622 941 2471
3 2165 1440 2330
3 612 644 692
3 697 698 818
3 1903 1516 1994
3 371 379 1795
3 428 426 2138
3 1290 1294 2064
3 1384 1904 2432
3 566 689 1600
3 471 452 472
3 1092 1091 1093
3 1002 1131 1719
3 1090 1089 1091
3 875 841 946
3 1758 1760 1763
3 1562 1606 2085
3 1833 1830 2075
3 178 179 214
3 164 165 213
3 769 923 1815
3 692 644 782
3 804 782 919
3 182 183 256
3 160 161 257
3 1329 1331 1482
3 962 1663 1664
3 1177 1179 2042
3 403 405 1805
3 1461 1460 1462
3 140 208 1618
3 1859 232 1860
3 274 1787 2099
3 1381 2126 2186
3 1558 1560 1789
3 430 428 682
3 452 435 1683
3 1487 1156 1488
3 1470 1464 1743
3 597 1794 1893
3 1244 1253 1669
3 962 919 1663
3 258 8 1673
3 1087 1785 1786
3 970 1042 1726
3 199 1677 2149
3 1664 1663 1665
3 1229 1230 1231
3 991 827 1713
3 792 1603 1848
3 1822 1444 1823
3 665 666 697
3 19 20 235
3 142 143 236
3 728 1098 1833
3 532 530 1898
3 1015 1124 1372
3 1546 1547 1548
3 1851 1850 1853
3 1877 393 2240
3 923 1105 1815
3 1090 1091 1092
3 687 686 703
3 1683 435 1790
3 887 826 1961
3 684 663 1089
3 426 1934 2138
3 464 510 680
3 853 854 855
3 568 572 1758
3 1376 1357 1377
3 1205 1203 1692
3 1607 1789 1855
3 710 709 711
3 780 781 1775
3 1434 1103 1435
3 876 815 877
3 766 672 1656
3 1393 1590 2457
3 684 1089 1090
3 530 890 1898
3 926 1920 1943
3 696 414 1821
3 1563 1562 1777
3 1054 1046 1580
3 1398 1973 1974
3 137 216 1625
3 1210 1040 1430
3 1750 563 1751
3 2010 1665 2299
3 1510 1374 1511
3 1777 1562 2085
3 1707 252 1791
3 1932 1404 1933
3 459 438 1814
3 139 140 1618
3 1093 1156 1487
3 231 163 1658
3 699 722 723
3 1545 1095 2508
3 598 612 1794
3 579 554 1880
3 1941 1908 2401
3 1231 1232 1233
3 1831 1829 1841
3 1037 1383 1799
3 177 178 1506
3 636 600 637
3 1036 1539 2286
3 1356 1114 1357
3 1523 1516 2377
3 704 703 705
3 403 402 405
3 648 792 1848
3 723 756 808
3 1388 1389 2170
3 933 932 1770
3 223 1710 1711
3 1779 399 1783
3 1223 1222 1224
3 1028 1029 1313
3 257 161 1654
3 418 412 421
3 734 882 1807
3 693 657 1095
3 1368 1370 1436
3 136 137 1625
3 688 652 817
3 1075 1327 1328
3 540 479 1813
3 398 395 402
3 548 1629 1630
3 574 591 699
3 1469 1494 1495
3 1041 1598 2175
3 167 168 202
3 175 176 204
3 2045 2046 2201
3 186 187 1602
3 886 887 888
3 1253 1254 1259
3 8 9 1673
3 792 655 810
3 843 1145 1960
3 1180 1349 1745
3 1165 1345 1512
3 708 706 709
3 136 1625 1734
3 21 22 207
3 140 141 208
3 625 626 665
3 1093 1094 1156
3 1585 795 1834
3 1117 1713 1806
3 599 579 600
3 810 871 1826
3 1047 1046 1048
3 1292 1291 1293
3 161 162 1654
3 199 1676 1677
3 1260 1282 1804
3 1005 1142 1768
3 1233 1234 1235
3 792 810 922
3 1122 1719 1737
3 976 985 1720
3 1278 1279 2292
3 2390 1934 2531
3 1436 1437 2350
3 270 271 1647
3 1199 966 1846
3 1683 1342 2212
3 656 273 2124
3 699 591 722
3 1977 1139 2096
3 1738 1719 1881
3 1722 985 1874
3 1797 1448 1798
3 162 231 1654
3 632 604 1862
3 252 1602 1791
3 1051 1050 1052
3 1045 1023 1046
3 648 655 792
3 993 1100 1101
3 1321 1055 1322
3 806 709 1627
3 904 903 981
3 1220 1267 1268
3 648 605 655
3 1737 1719 1738
3 385 399 1779
3 506 499 1828
3 1132 266 1402
3 1170 1418 1419
3 1323 2302 2354
3 24 25 215
3 137 138 216
3 721 965 1919
3 1787 1414 2460
3 778 1117 1806
3 723 722 756
3 407 403 1805
3 564 574 1752
3 1049 1048 1050
3 842 841 875
3 1608 1546 1842
3 809 808 899
3 1517 1519 1520
3 1530 1532 1533
3 889 421 1772
3 913 1002 1122
3 1314 1316 1367
3 1017 877 1684
3 841 802 1778
3 1235 1236 1237
3 751 1857 1900
3 1114 924 1767
3 1344 1644 2360
3 1895 1394 2371
3 1518 1535 1861
3 1758 1759 1760
3 1122 1002 1719
3 546 563 1750
3 1056 1726 1727
3 663 660 1746
3 621 622 625
3 1720 985 1721
3 1857 1843 1900
3 808 756 913
3 1056 970 1726
3 27 28 230
3 134 135 229
3 908 906 1099
3 163 164 1658
3 1727 1726 1729
3 7 8 258
3 154 155 259
3 1101 1403 1404
3 808 913 1874
3 1260 1269 1282
3 1389 1387 2262
3 1297 1053 1822
3 1555 1553 1557
3 1463 1464 1465
3 230 28 1765
3 1237 1238 1239
3 554 553 1880
3 775 778 1806
3 985 899 1874
3 1270 1524 2199
3 489 1820 1936
3 692 1072 1794
3 1472 2142 2272
3 1845 496 1929
3 438 431 1814
3 613 615 1824
3 1241 1242 1245
3 1783 415 1915
3 1192 2081 2149
3 178 214 1506
3 1816 988 1817
3 1760 1759 1761
3 1103 1092 1623
3 1512 1345 1661
3 1876 921 2295
3 1165 984 1345
3 978 1074 1075
3 1239 1240 1241
3 542 541 553
3 813 988 1816
3 1148 984 1165
3 871 970 1056
3 472 452 1683
3 1207 1796 1870
3 1167 1166 1754
3 1296 1053 1297
3 966 964 1846
3 976 899 985
3 982 976 984
3 702 1815 2015
3 900 899 976
3 1143 995 1206
3 1576 1024 1827
3 1235 1248 1733
3 1558 1557 1560
3 943 995 1143
3 1920 1144 1943
3 1471 2115 2477
3 29 30 255
3 132 133 254
3 1630 1633 1634
3 1225 1224 1226
3 1925 1573 1926
3 1211 1205 1692
3 725 825 826
3 1113 924 1114
3 600 579 1988
3 717 1552 1567
3 1820 1657 1936
3 674 276 2099
3 395 393 1877
3 572 543 1897
3 1575 1308 2255
3 999 1000 1028
3 1118 1775 1876
3 1797 1798 2430
3 526 546 559
3 867 853 2186
3 1142 1771 1949
3 1068 1275 1442
3 679 385 1779
3 1607 1558 1789
3 580 568 1758
3 1244 1252 1253
3 1760 1761 1762
3 398 402 403
3 1476 1258 1478
3 418 421 889
3 1771 1147 1839
3 164 213 1658
3 1720 1721 2267
3 1668 1591 2512
3 1042 1128 1445
3 1098 1830 1833
3 1102 1092 1103
3 2249 884 2466
3 1104 1103 1434
3 410 416 1821
3 514 513 541
3 580 1758 1763
3 637 673 1741
3 1913 936 1914
3 1394 1395 2337
3 919 920 999
3 577 554 579
3 2111 1660 2263
3 231 1658 1659
3 612 613 644
3 568 543 572
3 770 775 1806
3 1445 1128 1446
3 1546 1548 1842
3 448 460 478
3 810 870 871
3 1789 1560 1819
3 1154 1082 1431
3 873 973 1802
3 379 385 679
3 837 850 921
3 1461 1462 1463
3 1346 1076 1420
3 1088 1344 1808
3 2125 1143 2353
3 931 977 978
3 882 772 1802
3 29 255 1765
3 849 1513 2180
3 1713 827 1806
3 1130 1396 1397
3 681 638 852
3 1417 1321 1873
3 1654 1402 2530
3 502 526 1740
3 1124 888 2177
3 1266 1460 1461
3 515 1175 1840
3 1253 1264 1669
3 479 466 1813
3 1727 1729 1757
3 379 380 385
3 1971 1480 2514
3 1637 1739 2459
3 1207 1205 1208
3 529 519 1899
3 1129 1845 1929
3 224 1661 2267
3 192 1856 2361
3 732 734 1807
3 1184 2163 2435
3 1119 1120 1353
3 415 414 431
3 719 724 725
3 559 546 1750
3 871 872 970
3 1038 917 1622
3 574 699 1752
3 166 167 1679
3 1117 1118 1119
3 1409 1196 2035
3 617 619 621
3 1172 1173 1439
3 1191 1005 1768
3 664 663 684
3 494 493 1841
3 890 529 1731
3 840 802 841
3 493 974 1841
3 385 386 399
3 679 1779 1780
3 371 376 379
3 416 433 1109
3 670 769 1815
3 902 866 903
3 1780 1779 1781
3 480 515 1840
3 970 971 1042
3 433 448 1714
3 28 29 1765
3 1005 949 1142
3 778 780 1117
3 959 1037 1799
3 1073 1003 1076
3 535 532 1898
3 1119 1118 1120
3 658 657 693
3 1378 1379 1380
3 1397 1396 1809
3 1610 1609 1612
3 1819 1560 2016
3 1837 952 1865
3 1719 1131 1881
3 1131 1399 1400
3 1352 1138 2058
3 399 406 409
3 548 1630 2041
3 1275 1338 2251
3 582 1816 1818
3 1835 1836 2144
3 993 1101 1980
3 1699 1698 1700
3 2407 364 2505
3 1189 1190 1788
3 1117 780 1118
3 1830 1829 1831
3 637 672 673
3 692 804 1072
3 1204 1203 1205
3 1374 1170 2139
3 612 692 1794
3 1642 1408 2286
3 723 808 809
3 450 459 1812
3 409 410 414
3 802 801 1778
3 1853 1854 2483
3 1042 1127 1128
3 1199 1846 2225
3 1147 990 1273
3 1383 1384 2432
3 432 431 438
3 1353 1120 1390
3 1093 1091 1094
3 2020 250 2254
3 148 149 1639
3 606 605 648
3 1970 2016 2422
3 2201 2046 2327
3 475 471 513
3 412 407 1951
3 1991 246 2139
3 727 695 728
3 1673 234 1788
3 1554 1556 1559
3 1089 663 1746
3 1846 964 2056
3 923 991 1088
3 409 406 410
3 729 728 730
3 1424 1427 1856
3 1473 1911 2407
3 1376 1377 1378
3 1010 1374 1510
3 853 852 854
3 366 369 1087
3 772 873 1802
3 1219 1218 1626
3 1766 229 2061
3 1088 991 1344
3 922 810 1826
3 518 506 695
3 405 402 2116
3 962 1664 2316
3 913 942 1002
3 932 990 1147
3 629 813 1816
3 876 877 992
3 399 386 406
3 932 845 990
3 1002 1123 1131
3 843 996 1145
3 781 837 1775
3 262 2304 2491
3 431 696 1814
3 1273 1695 1892
3 731 730 732
3 737 732 1807
3 439 438 450
3 1829 498 1841
3 800 685 801
3 767 814 815
3 1060 766 1656
3 673 766 767
3 1403 1605 1882
3 716 718 719
3 1338 1069 1339
3 847 752 1843
3 864 862 1116
3 2302 443 2519
3 923 827 991
3 526 559 1740
3 1911 1473 2358
3 1085 1310 1867
3 809 899 900
3 1227 1226 1228
3 729 730 731
3 1436 1370 1437
3 731 732 737
3 769 827 923
3 456 452 471
3 1433 1503 2471
3 1435 1103 1623
3 385 380 386
3 1141 1787 2460
3 1354 1088 1808
3 657 649 1848
3 415 431 432
3 484 892 1820
3 727 728 729
3 855 854 1450
3 1721 1722 1723
3 1643 1353 1644
3 1145 1916 1960
3 1421 1191 1422
3 466 1812 1813
3 943 944 995
3 1356 1357 1376
3 714 715 716
3 1156 1094 1157
3 598 611 612
3 631 1600 2298
3 590 589 605
3 965 969 1919
3 416 1109 1821
3 242 1697 2335
3 1548 1547 1549
3 550 573 584
3 584 604 632
3 409 414 415
3 712 713 714
3 642 670 702
3 818 698 819
3 1006 1005 1191
3 1624 1689 1691
3 169 170 237
3 173 174 238
3 956 912 1003
3 937 936 1913
3 1317 1025 1875
3 515 540 550
3 973 1799 1800
3 973 959 1799
3 518 695 727
3 910 819 912
3 584 573 604
3 1170 946 1418
3 173 238 1847
3 550 540 573
3 982 984 1148
3 900 976 982
3 441 435 452
3 448 478 1714
3 1849 1648 2173
3 1631 1628 1637
3 1830 1831 1832
3 1383 1216 1384
3 734 772 882
3 949 933 1770
3 1332 1330 1333
3 574 575 591
3 1105 1088 1354
3 702 670 1815
3 498 494 1841
3 827 770 1806
3 873 959 973
3 1390 1391 1415
3 450 438 459
3 950 949 1005
3 351 362 364
3 1313 1029 1314
3 432 438 439
3 837 838 850
3 1273 1274 1695
3 850 851 943
3 911 952 1837
3 1259 1260 1804
3 566 587 588
3 1037 1216 1383
3 1337 1265 1538
3 1087 369 1795
3 810 655 870
3 1559 1561 1566
3 1147 1273 1839
3 732 733 734
3 1662 867 2126
3 890 1731 2241
3 1854 1852 2397
3 515 479 540
3 451 450 466
3 697 666 698
3 1367 1316 1368
3 662 660 663
3 365 355 694
3 1358 1114 1767
3 379 376 380
3 1796 1448 1797
3 179 180 1859
3 790 668 849
3 569 568 580
3 690 860 931
3 466 450 1812
3 431 414 696
3 1973 1133 1974
3 651 649 657
3 467 466 479
3 1288 1289 1835
3 264 265 1986
3 1302 1303 1304
3 592 596 597
3 1873 1321 2037
3 544 543 568
3 275 277 549
3 209 1937 2389
3 539 565 566
3 1485 227 1486
3 2384 2190 2408
3 1781 1779 1783
3 480 479 515
3 689 1416 2413
3 1108 1161 1539
3 1867 1310 1895
3 1300 1301 1302
3 1695 1696 1697
3 633 632 668
3 1304 1451 1452
3 988 911 1837
3 168 169 1724
3 969 1012 1172
3 582 629 1816
3 1843 752 1900
3 629 812 813
3 710 711 712
3 1782 1780 1784
3 536 535 543
3 1089 1746 1969
3 1108 1107 1161
3 1514 1426 1856
3 486 484 1820
3 369 371 1795
3 1817 988 1924
3 493 609 974
3 1422 1191 2023
3 1426 1424 1856
3 842 875 924
3 922 1826 2259
3 989 1361 1886
3 928 1070 1288
3 669 668 790
3 1113 1114 1356
3 1027 847 1843
3 728 695 1098
3 734 735 772
3 975 1107 1108
3 955 859 1962
3 813 911 988
3 1208 1448 1796
3 1101 1405 1980
3 602 676 2045
3 586 581 589
3 546 547 563
3 493 491 609
3 628 1524 2390
3 348 344 354
3 1298 1299 1300
3 509 538 539
3 974 609 975
3 813 891 911
3 871 870 872
3 1355 1354 1423
3 489 486 1820
3 778 779 780
3 1025 1176 1875
3 772 773 873
3 803 1743 2347
3 167 202 1679
3 873 883 959
3 1483 1571 2375
3 427 1756 2221
3 540 1813 1954
3 1202 1200 1203
3 959 1035 1037
3 837 921 1775
3 1304 1305 1451
3 1799 1383 2195
3 604 642 1862
3 1470 1744 2474
3 1854 2397 2453
3 1282 1269 1386
3 1573 1572 2157
3 472 2222 2290
3 1307 1708 2341
3 769 770 827
3 1037 1215 1216
3 791 790 856
3 1053 1052 1822
3 1056 1727 1728
3 1341 1138 1352
3 1300 1299 1301
3 1814 696 1838
3 1198 1196 1409
3 492 491 493
3 439 450 451
3 1171 858 2132
3 1259 1254 1260
3 665 626 666
3 970 872 971
3 258 1602 2357
3 1296 1297 1472
3 490 489 491
3 516 437 2494
3 1298 1027 1299
3 846 845 932
3 501 508 509
3 460 461 502
3 448 449 460
3 482 480 1840
3 1229 1228 1230
3 604 641 642
3 1424 1423 1427
3 502 503 526
3 1028 1000 1029
3 935 933 949
3 1084 1085 1867
3 2028 1711 2353
3 1513 1426 1514
3 892 482 1840
3 852 638 1988
3 402 395 1877
3 738 737 845
3 413 412 418
3 1119 1353 1643
3 526 527 546
3 280 279 281
3 1731 1155 2123
3 1042 971 1127
3 1208 1447 1448
3 433 434 448
3 262 159 2304
3 184 1454 2303
3 1051 1052 1053
3 1816 1817 1818
3 1081 1417 1444
3 781 836 837
3 911 951 952
3 1090 1092 1102
3 202 168 1724
3 1085 1309 1310
3 408 407 412
3 1337 1538 1864
3 1515 1514 1516
3 530 529 890
3 1517 1518 1519
3 549 686 687
3 923 1088 1105
3 404 403 407
3 1835 1289 1836
3 1314 1367 2121
3 1380 1379 2416
3 670 671 769
3 899 808 1874
3 1040 903 1703
3 1596 1595 2154
3 1496 1495 1497
3 636 637 1741
3 1377 1638 2288
3 1288 1070 1289
3 1072 804 1981
3 1129 1334 1845
3 1865 1084 1866
3 792 922 1603
3 1253 1252 1254
3 981 1167 1792
3 1302 1301 1303
3 1641 1651 2019
3 952 953 1084
3 1813 1812 1869
3 732 730 733
3 975 1106 1107
3 1142 949 1770
3 981 1166 1167
3 840 841 842
3 451 466 467
3 1273 990 1274
3 1049 1050 1051
3 1473 2407 2505
3 968 966 1199
3 642 643 670
3 1310 1309 1311
3 422 419 435
3 1063 833 1082
3 919 782 920
3 911 891 951
3 1084 953 1085
3 1763 1764 2164
3 1498 1497 1682
3 515 550 1175
3 1079 937 1913
3 642 702 1862
3 845 737 1931
3 1394 1311 1395
3 1395 1521 1522
3 467 479 480
3 1755 1754 1793
3 1231 1230 1232
3 1557 1553 2030
3 1624 1691 2262
3 584 632 633
3 1094 1091 1969
3 708 709 710
3 1948 1627 2488
3 952 951 953
3 1102 1103 1104
3 1047 1048 1049
3 1310 1311 1394
3 1852 1099 1985
3 143 144 1717
3 813 812 891
3 1944 1044 1945
3 1105 1354 1355
3 1300 1302 1455
3 1914 936 1940
3 1415 1391 1710
3 1299 1027 1843
3 952 1084 1865
3 1695 1274 1696
3 776 774 1928
3 282 281 283
3 2003 1347 2279
3 1206 995 1499
3 1164 1685 1686
3 1551 1565 2030
3 969 1172 1919
3 633 668 669
3 734 733 735
3 1373 1372 1438
3 599 600 636
3 1431 1860 2487
3 1579 1577 1999
3 484 482 892
3 917 940 941
3 2144 1836 2169
3 1866 1084 1867
3 1110 1747 1748
3 998 1171 1811
3 1390 1120 1391
3 644 1824 2057
3 1362 1961 2048
3 944 1283 1825
3 1086 1027 1298
3 679 1780 1782
3 974 975 1879
3 507 506 518
3 1121 1079 1401
3 775 777 778
3 1965 762 2349
3 1045 1046 1047
3 1772 421 2106
3 16 17 2081
3 416 417 433
3 921 850 2125
3 1607 1855 1958
3 649 648 1848
3 1241 1240 1242
3 2012 1443 2251
3 926 928 1920
3 1487 1488 2025
3 1006 1191 1421
3 1355 1423 1424
3 1133 852 1988
3 591 592 1776
3 1299 1843 1857
3 1085 1308 1309
3 490 491 492
3 958 694 1575
3 1384 1216 1385
3 741 915 1878
3 1233 1232 1234
3 669 790 791
3 481 480 482
3 687 703 704
3 492 493 494
3 1634 1633 1922
3 1697 1696 1698
3 1721 985 1722
3 1839 1273 1892
3 772 735 773
3 488 486 489
3 950 1005 1006
3 1513 1514 1515
3 454 500 501
3 873 773 883
3 284 283 285
3 2185 1505 2442
3 959 883 1035
3 543 535 1897
3 1904 1384 2093
3 800 801 802
3 1037 1035 1215
3 1293 1964 1965
3 1239 1238 1240
3 943 1143 2125
3 1782 1784 1785
3 913 756 942
3 488 490 1884
3 1590 1749 2501
3 1235 1234 1236
3 791 856 1408
3 702 2015 2070
3 1108 1539 1540
3 1021 1023 1045
3 695 506 1828
3 1530 1528 1532
3 488 489 490
3 1621 1619 2161
3 704 705 706
3 1304 1303 1305
3 558 1704 2167
3 625 622 626
3 542 553 554
3 604 573 641
3 664 684 685
3 564 571 574
3 1108 1540 1879
3 1856 1427 2361
3 880 1025 1129
3 1395 1311 1521
3 1466 1465 1467
3 915 495 1884
3 1515 1516 1523
3 1237 1236 1238
3 606 648 649
3 999 920 1000
3 676 829 1043
3 2100 794 2142
3 227 151 1500
3 577 579 599
3 153 154 1671
3 1175 550 1927
3 1014 888 1015
3 286 285 287
3 1649 1280 2427
3 1725 204 2137
3 975 609 1106
3 1129 1317 1334
3 1109 1730 2426
3 1468 1467 1469
3 1131 1123 1399
3 1215 2235 2378
3 1976 1149 1989
3 397 395 398
3 746 743 1878
3 1041 1343 1598
3 975 1108 1879
3 741 495 915
3 1167 1754 1755
3 288 287 289
3 743 741 1878
3 1274 990 1931
3 1506 214 1507
3 857 1584 2277
3 2341 1522 2387
3 846 932 933
3 1107 1106 1110
3 584 633 1927
3 290 289 291
3 722 591 1776
3 1544 1094 1969
3 1135 270 1647
3 935 949 950
3 1920 1288 2080
3 754 1896 2108
3 1693 1199 2225
3 292 291 293
3 394 393 395
3 745 743 746
3 1002 942 1123
3 731 737 738
3 294 293 295
3 1018 1573 1925
3 296 295 297
3 298 297 299
3 321 322 325
3 317 320 321
3 314 315 317
3 312 313 314
3 310 311 312
3 308 309 310
3 1898 890 2275
3 306 307 308
3 304 305 306
3 1401 1079 1913
3 300 299 301
3 302 303 304
3 300 301 302
3 302 301 303
3 491 489 1936
3 298 299 300
3 304 303 305
3 306 305 307
3 308 307 309
3 310 309 311
3 312 311 313
3 314 313 315
3 317 315 320
3 321 320 322
3 1301 1299 1857
3 514 541 542
3 296 297 298
3 850 838 851
3 1310 1394 1895
3 294 295 296
3 590 605 606
3 292 293 294
3 651 657 658
3 290 291 292
3 1207 1208 1796
3 835 1976 1989
3 621 619 622
3 746 1878 1896
3 481 482 483
3 1026 847 1027
3 1335 1207 1870
3 1661 59 2266
3 727 729 1155
3 288 289 290
3 1058 776 1928
3 662 663 664
3 495 488 1884
3 1959 319 2522
3 943 851 944
3 1293 1291 1964
3 534 532 535
3 640 645 646
3 2280 1014 2385
3 286 287 288
3 591 575 592
3 521 519 529
3 13 14 2114
3 780 779 781
3 918 908 1850
3 837 836 838
3 209 148 1639
3 754 748 1896
3 745 746 747
3 769 671 770
3 929 1065 2197
3 1278 1058 1279
3 483 482 484
3 1564 1557 2030
3 633 807 1927
3 392 391 393
3 1057 1621 2161
3 569 580 581
3 284 285 286
3 876 992 1894
3 497 494 498
3 1630 1635 2041
3 982 1148 1918
3 612 611 613
3 700 634 1044
3 822 674 2099
3 880 1129 1929
3 432 439 654
3 1039 1291 1292
3 1164 1686 1989
3 1129 1025 1317
3 738 845 846
3 582 583 629
3 278 6 279
3 544 568 569
3 1701 1274 1931
3 747 749 751
3 1085 953 1308
3 928 930 1070
3 747 748 749
3 1421 1422 2415
3 902 903 904
3 1309 1308 1543
3 642 641 643
3 904 981 1792
3 646 784 785
3 536 543 544
3 1204 1205 1207
3 365 694 958
3 71 72 217
3 88 89 1901
3 87 88 193
3 101 102 189
3 85 86 242
3 99 100 241
3 74 75 192
3 91 92 219
3 94 95 191
3 83 84 220
3 97 98 221
3 77 78 218
3 80 81 194
3 89 90 245
3 62 63 244
3 60 61 188
3 64 65 223
3 67 68 190
3 90 91 1909
3 98 99 1905
3 61 62 1908
3 69 70 243
3 68 69 1907
3 70 71 1910
3 410 411 416
3 586 589 590
3 685 684 2029
3 390 389 391
3 1715 1150 1811
3 1924 1837 2215
3 282 283 284
3 496 497 1929
3 233 1671 1769
3 627 2185 2442
3 1567 1552 2062
3 629 630 812
3 424 453 454
3 583 562 1942
3 749 750 805
3 744 743 745
3 1897 535 1898
3 467 480 481
3 504 759 880
3 670 643 671
3 89 245 1901
3 193 88 1901
3 221 98 1905
3 245 90 1909
3 91 219 1909
3 62 244 1908
3 188 61 1908
3 99 241 1905
3 190 68 1907
3 71 217 1910
3 69 243 1907
3 243 70 1910
3 505 499 506
3 475 513 514
3 1945 1044 2071
3 1712 2125 2353
3 339 343 440
3 989 1360 1361
3 764 869 1152
3 778 777 779
3 1686 1685 1687
3 742 741 743
3 979 989 1886
3 729 731 1887
3 926 927 928
3 1305 1306 1307
3 1838 1278 2292
3 747 746 748
3 181 182 1652
3 1886 1361 2305
3 1595 1594 2486
3 597 596 598
3 928 1288 1920
3 1970 824 2156
3 1425 1424 1426
3 497 504 1929
3 748 746 1896
3 745 747 1900
3 998 858 1171
3 563 547 564
3 1155 729 1887
3 634 583 1942
3 1439 1173 1440
3 1026 1027 1086
3 79 80 1904
3 1533 1532 1536
3 1449 1426 1513
3 1106 609 1936
3 1318 1013 1319
3 1098 695 1828
3 492 494 496
3 750 748 754
3 731 738 1887
3 2415 1422 2516
3 533 562 582
3 988 1837 1924
3 1216 1215 1863
3 534 535 536
3 747 751 1900
3 1753 809 2119
3 1183 824 1970
3 740 495 741
3 80 194 1904
3 893 383 2087
3 655 605 1939
3 1884 2034 2082
3 1301 1857 1923
3 1307 1306 1708
3 752 745 1900
3 750 754 755
3 76 77 1903
3 2090 2347 2365
3 255 30 2159
3 132 254 2160
3 448 434 449
3 753 848 926
3 1075 1074 1327
3 487 488 495
3 377 381 647
3 483 484 485
3 755 754 2148
3 1584 1925 2277
3 1186 1183 1970
3 951 891 1281
3 485 484 486
3 546 527 547
3 133 134 1766
3 1786 1785 2409
3 280 281 282
3 460 449 461
3 744 745 752
3 77 218 1903
3 983 1918 2342
3 1708 1306 1810
3 1389 2069 2170
3 487 486 488
3 641 573 1954
3 507 518 519
3 502 461 503
3 519 518 1899
3 1202 1203 1204
3 821 897 1972
3 92 93 1902
3 521 529 530
3 749 748 750
3 2176 1380 2416
3 885 826 886
3 485 486 487
3 371 372 376
3 1289 1070 1871
3 1110 1657 1747
3 753 926 1943
3 700 1044 1944
3 880 881 1025
3 496 1845 2034
3 1072 1981 2393
3 462 464 2134
3 1949 1771 2359
3 1044 634 1942
3 550 584 1927
3 1390 1415 2118
3 526 503 527
3 990 845 1931
3 1009 1213 1214
3 740 742 1144
3 219 92 1902
3 727 1155 1899
3 369 370 371
3 623 690 2150
3 1279 1058 1928
3 1408 2235 2286
3 487 495 740
3 979 1886 2086
3 1305 1303 1306
3 421 412 1951
3 843 844 996
3 633 669 807
3 518 727 1899
3 826 825 1961
3 1657 1106 1936
3 1172 1012 1173
3 740 741 742
3 433 417 434
3 505 506 507
3 1333 1674 2437
3 742 743 744
3 469 458 470
3 1381 1380 1382
3 1293 1965 2515
3 1554 1559 2062
3 553 557 2499
3 1774 389 2339
3 497 498 499
3 483 485 576
3 740 1144 1935
3 773 735 834
3 366 367 369
3 1120 1118 1876
3 1515 1523 1574
3 1319 1013 2039
3 1303 1301 1923
3 457 447 458
3 561 593 594
3 1355 1424 1425
3 609 491 1936
3 204 1732 2137
3 791 1408 1642
3 995 944 1825
3 456 471 475
3 1692 1693 2239
3 580 1763 2164
3 1292 1293 2117
3 441 452 456
3 388 384 389
3 823 821 1972
3 504 880 1929
3 176 177 1680
3 1070 1071 1871
3 15 2260 2477
3 362 363 366
3 2178 2300 2449
3 1035 883 1036
3 2285 1563 2307
3 978 977 1074
3 1090 1102 2029
3 1810 1306 1923
3 496 494 497
3 1306 1303 1923
3 432 654 1915
3 934 933 935
3 356 355 365
3 398 403 404
3 635 701 843
3 1110 1106 1657
3 574 571 575
3 1025 881 1176
3 386 380 786
3 415 432 1915
3 343 347 1911
3 1070 930 1071
3 1688 1740 2231
3 1385 1216 1863
3 1696 1274 1701
3 1645 305 2317
3 880 759 881
3 926 848 927
3 1427 1423 2217
3 1339 1662 2388
3 770 774 775
3 1263 1257 1428
3 1337 1864 2412
3 349 348 355
3 2267 1721 2498
3 753 752 847
3 1375 1086 1473
3 900 982 983
3 332 335 739
3 429 428 430
3 744 752 753
3 1171 2132 2165
3 1425 1426 1449
3 987 641 1954
3 1883 1786 2409
3 427 426 428
3 928 927 930
3 1815 1105 2015
3 1206 1499 1941
3 410 406 411
3 573 540 1954
3 497 499 504
3 528 560 561
3 1933 1404 2399
3 1091 1089 1969
3 1804 1282 2073
3 504 505 759
3 963 924 1113
3 1711 1710 1712
3 881 759 1146
3 968 1199 1200
3 351 352 362
3 848 847 1026
3 521 530 531
3 1884 490 2034
3 1277 957 1966
3 1349 1350 2329
3 676 1043 2045
3 997 1159 1286
3 517 1889 1890
3 781 835 836
3 944 948 1283
3 722 1776 2026
3 507 519 520
3 2040 1352 2058
3 1276 957 1277
3 446 437 447
3 931 860 977
3 361 359 765
3 1248 1536 2534
3 512 523 528
3 408 412 413
3 1368 1369 1370
3 451 2169 2223
3 192 75 1994
3 942 756 2026
3 345 344 348
3 764 1152 1963
3 413 418 419
3 1286 1773 1774
3 770 671 774
3 275 549 2124
3 1497 1645 2461
3 1982 1472 2272
3 422 435 441
3 281 279 736
3 1134 270 1135
3 582 562 583
3 1421 2415 2454
3 485 487 1935
3 2300 1067 2480
3 1578 1576 1827
3 930 927 1061
3 1026 1086 1375
3 922 2259 2379
3 1391 1120 1876
3 1495 1494 2493
3 404 407 408
3 879 2178 2449
3 1700 1698 2036
3 607 1517 1520
3 753 847 848
3 416 411 417
3 1144 742 1943
3 775 776 777
3 754 2108 2148
3 1006 1421 1953
3 585 581 586
3 531 530 532
3 235 1709 1888
3 520 519 521
3 1180 1181 1349
3 1146 759 1967
3 708 710 1921
3 1350 2253 2329
3 436 430 437
3 504 499 505
3 643 641 987
3 336 330 517
3 811 1059 1149
3 1164 1411 1685
3 846 933 934
3 635 843 1960
3 983 982 1918
3 971 872 1096
3 1149 1163 1164
3 169 237 1724
3 1314 1315 1316
3 629 583 630
3 891 812 1916
3 462 463 464
3 487 740 1935
3 798 2084 2189
3 1814 1838 2292
3 1284 1489 1491
3 340 336 2014
3 1670 1461 2200
3 920 782 2057
3 890 2241 2275
3 510 511 512
3 278 279 280
3 839 802 840
3 1858 235 1888
3 1698 1696 2036
3 104 105 222
3 57 58 224
3 1185 1183 1186
3 588 587 623
3 638 600 1988
3 1282 1386 2245
3 811 776 1058
3 816 815 876
3 2034 1845 2082
3 761 636 1741
3 566 565 587
3 174 175 1725
3 347 350 351
3 1469 1495 1496
3 1059 1058 1278
3 811 1149 1976
3 576 485 1935
3 659 658 660
3 859 1153 1962
3 76 1903 1994
3 1821 1109 2426
3 1294 1038 1622
3 733 1833 2075
3 992 993 1980
3 1566 1561 2285
3 525 474 2041
3 464 465 510
3 343 346 347
3 360 893 1982
3 650 649 651
3 896 608 936
3 950 1006 1007
3 1508 1859 1860
3 539 538 565
3 440 343 1911
3 341 340 344
3 221 1905 1906
3 1297 1823 2142
3 759 505 1967
3 1295 1053 1296
3 473 470 474
3 1463 1465 1466
3 1143 1206 2028
3 799 685 800
3 1210 2077 2203
3 509 508 538
3 492 496 2034
3 1553 1551 2030
3 1260 1261 1269
3 1430 1040 1703
3 586 590 1940
3 838 836 868
3 1705 624 2276
3 1749 972 2501
3 742 744 1943
3 804 962 1981
3 1367 1368 2254
3 531 532 533
3 337 336 340
3 1157 1094 1544
3 536 544 1158
3 812 630 1960
3 781 779 835
3 56 57 1947
3 630 583 634
3 1405 1404 1932
3 1281 891 1916
3 339 342 343
3 1411 1163 1730
3 322 323 324
3 344 340 2091
3 1735 1734 1736
3 75 76 1994
3 430 682 2494
3 1907 243 2360
3 589 581 2164
3 694 355 2196
3 744 753 1943
3 775 774 776
3 1210 1430 2077
3 335 338 339
3 1102 1803 2029
3 1078 937 1079
3 870 655 1939
3 505 507 1967
3 357 360 1982
3 1896 1878 2101
3 326 325 328
3 934 935 957
3 585 608 895
3 333 330 336
3 1270 1272 1524
3 688 817 878
3 507 520 1967
3 1428 1257 2074
3 1818 1817 2000
3 896 937 1077
3 934 957 1111
3 329 328 330
3 1499 995 1825
3 944 851 948
3 387 445 462
3 1678 1161 2228
3 777 776 811
3 313 311 757
3 324 331 332
3 848 1026 1955
3 1312 998 1811
3 1321 1322 2037
3 1080 1079 1121
3 1105 1355 2015
3 1645 2317 2461
3 1559 1568 2062
3 332 334 335
3 501 500 508
3 321 325 326
3 394 395 397
3 322 320 323
3 1529 1530 2171
3 1137 797 1138
3 811 1058 1059
3 661 660 662
3 569 581 585
3 183 4 2303
3 5 160 2304
3 1340 1138 1341
3 1660 1626 2185
3 1743 1464 2347
3 1026 1375 1955
3 1149 1059 1163
3 1736 1625 2194
3 1322 1667 2434
3 311 309 1959
3 309 307 319
3 894 700 1944
3 533 534 562
3 1276 1277 1366
3 2190 1706 2408
3 533 532 534
3 1214 1213 1410
3 1164 1163 1411
3 843 701 844
3 1009 1214 2055
3 234 1589 1788
3 2000 1817 2174
3 317 321 2050
3 328 325 945
3 392 393 394
3 588 623 2089
3 1162 958 1681
3 1078 1080 1136
3 927 848 1955
3 1496 1497 1498
3 390 391 392
3 1061 927 1955
3 1283 948 1284
3 635 634 700
3 1244 1251 1252
3 218 78 2093
3 756 722 2026
3 1071 1784 2419
3 1218 1505 2185
3 1284 948 1285
3 1489 1285 1490
3 918 1850 1851
3 684 1090 2029
3 1759 572 2537
3 1691 1690 2446
3 1979 1158 2071
3 606 649 650
3 2045 1043 2046
3 103 104 2025
3 630 634 635
3 360 383 893
3 406 386 2043
3 1909 219 2023
3 1111 957 1276
3 1925 1437 2277
3 1536 2268 2340
3 854 852 1133
3 233 153 1671
3 651 658 659
3 2099 1787 2368
3 1033 1032 1130
3 1015 1372 1373
3 1412 942 2026
3 253 264 1441
3 1531 1534 2332
3 701 700 894
3 106 107 1990
3 2048 1961 2455
3 276 274 2099
3 738 846 1968
3 1325 925 1326
3 896 936 937
3 585 586 608
3 1450 854 1973
3 1361 1360 1362
3 1045 1668 2512
3 303 301 444
3 996 844 997
3 79 1904 2093
3 1989 1686 2095
3 1928 774 2033
3 1942 562 1979
3 287 285 316
3 935 950 1966
3 1466 1467 1468
3 1242 1243 1244
3 1887 738 1968
3 2115 210 2477
3 878 929 1083
3 1326 1736 2194
3 886 888 1014
3 895 608 896
3 289 287 1978
3 821 822 897
3 936 608 1940
3 613 614 615
3 51 52 1996
3 417 411 1160
3 1149 1164 1989
3 386 786 2043
3 285 283 1971
3 1309 1543 2147
3 375 373 2053
3 371 370 372
3 779 777 1976
3 1286 1159 1773
3 2177 887 2376
3 1560 1557 1564
3 1403 1882 2399
3 1727 1757 2246
3 279 6 2049
3 1619 1438 2438
3 291 289 758
3 1781 1915 2294
3 425 401 426
3 349 355 356
3 66 67 2118
3 474 548 2041
3 1686 1687 2007
3 1262 1456 1457
3 1123 942 1412
3 1916 812 1960
3 1355 1425 2015
3 735 733 2075
3 1861 879 2449
3 1284 1285 1489
3 490 492 2034
3 366 363 367
3 980 578 2051
3 906 904 1792
3 534 536 1979
3 842 924 963
3 2051 578 2083
3 1077 937 1078
3 1102 1104 1803
3 894 1944 1946
3 398 404 2060
3 1007 1006 1953
3 369 367 370
3 348 354 2196
3 1078 1079 1080
3 1378 1380 1381
3 1568 1365 2439
3 608 586 1940
3 598 610 611
3 760 636 761
3 869 1137 1351
3 671 643 2033
3 1661 1345 2267
3 938 914 1057
3 783 761 914
3 576 1835 2144
3 388 389 390
3 297 295 318
3 454 453 500
3 1906 1728 2246
3 1439 1440 2468
3 1159 1013 1318
3 764 797 869
3 236 143 1717
3 782 644 2057
3 592 595 596
3 1542 2332 2443
3 1521 1311 2147
3 345 348 349
3 1304 1452 2205
3 1644 1907 2360
3 2146 1125 2149
3 997 844 1013
3 628 375 2053
3 299 297 1984
3 957 935 1966
3 664 685 799
3 301 299 1975
3 362 352 363
3 777 811 1976
3 1942 1979 2071
3 1001 920 2057
3 312 314 768
3 1552 1554 2062
3 615 616 617
3 357 1982 2076
3 800 802 839
3 774 671 2033
3 1749 1169 2105
3 365 958 1162
3 617 618 619
3 283 281 1938
3 1351 1772 2414
3 1525 1765 2489
3 846 934 1968
3 635 700 701
3 555 554 577
3 536 1158 1979
3 1101 1404 1405
3 630 635 1960
3 1811 1150 2089
3 2113 1666 2249
3 172 173 1847
3 107 108 195
3 54 55 196
3 1191 1768 2023
3 1455 1302 2205
3 115 116 2017
3 1387 1333 2437
3 659 661 764
3 1080 1121 1188
3 50 51 2011
3 411 406 2043
3 295 293 1983
3 643 987 2033
3 707 706 708
3 129 130 261
3 32 33 260
3 2159 260 2265
3 449 434 567
3 1314 1029 1315
3 917 796 940
3 378 375 628
3 108 109 1991
3 2370 1759 2537
3 341 344 345
3 997 1013 1159
3 544 569 1993
3 950 1007 1966
3 477 474 525
3 351 350 352
3 1696 1701 2036
3 334 331 803
3 1137 1138 1340
3 562 534 1979
3 109 110 246
3 52 53 247
3 1368 1316 1369
3 659 660 661
3 33 34 2002
3 123 124 2005
3 835 779 1976
3 851 838 1992
3 1530 1533 2172
3 1668 1045 2348
3 1162 1681 1706
3 342 338 468
3 298 300 358
3 765 359 2065
3 725 826 885
3 35 36 2003
3 46 47 2019
3 38 39 2006
3 336 517 2014
3 934 1111 1968
3 116 117 2018
3 650 651 1963
3 223 1711 2162
3 640 594 645
3 1333 1330 2192
3 104 222 2025
3 1603 922 2379
3 963 1113 1115
3 2084 1193 2189
3 564 570 571
3 36 37 2004
3 57 224 1947
3 1542 1601 2269
3 122 123 2012
3 1000 920 1001
3 127 128 240
3 34 35 239
3 383 387 2087
3 1161 1107 2228
3 1781 2294 2419
3 1201 1200 1202
3 124 125 225
3 37 38 226
3 1340 1341 1342
3 869 797 1137
3 839 840 1008
3 1158 544 1993
3 1326 925 1894
3 352 350 353
3 326 329 954
3 1864 2344 2412
3 836 835 2095
3 1051 1053 1295
3 1031 720 1032
3 503 461 787
3 1407 1112 2044
3 661 662 2058
3 838 868 1992
3 112 113 197
3 49 50 198
3 1359 980 1413
3 121 122 211
3 40 41 212
3 48 49 2010
3 113 114 2009
3 1741 673 2131
3 41 42 2020
3 120 121 2013
3 1409 2035 2097
3 1511 1374 2506
3 114 115 248
3 47 48 249
3 42 43 250
3 119 120 251
3 171 6 201
3 6 172 203
3 585 895 1993
3 43 44 2024
3 118 119 2021
3 905 904 906
3 764 661 797
3 337 340 341
3 1413 980 2051
3 117 118 205
3 44 45 206
3 347 346 350
3 1420 1076 1525
3 324 323 331
3 434 417 2031
3 965 967 969
3 716 719 788
3 1260 1254 1261
3 2053 373 2103
3 2069 2068 2170
3 326 328 329
3 1706 996 2408
3 273 275 2124
3 969 1011 1012
3 590 606 2001
3 1718 1611 2280
3 1914 1940 2001
3 915 1884 2082
3 329 330 333
3 620 859 955
3 2168 1409 2305
3 296 298 1997
3 915 2082 2101
3 339 338 342
3 1218 994 1505
3 333 336 337
3 266 263 1742
3 1873 768 2127
3 244 63 2162
3 64 223 2162
3 343 342 346
3 914 761 2258
3 310 312 1987
3 799 800 2055
3 302 304 763
3 1559 1566 1568
3 1598 1343 2114
3 592 575 595
3 341 345 794
3 189 1842 2220
3 767 815 816
3 1003 912 1004
3 839 1008 1009
3 1263 1428 1429
3 564 547 570
3 1845 1334 2082
3 332 331 334
3 901 866 902
3 651 659 1963
3 1009 1112 1213
3 335 334 338
3 569 585 1993
3 1665 1336 2299
3 1945 2071 2153
3 863 862 864
3 907 906 908
3 1849 1486 1930
3 1935 1144 2080
3 967 966 968
3 809 900 2119
3 865 864 866
3 835 1989 2095
3 190 1907 2417
3 333 337 522
3 1110 1748 2228
3 1193 1194 1195
3 94 191 2166
3 473 1854 2453
3 1769 1134 2369
3 948 851 1992
3 237 170 2216
3 420 419 422
3 1448 1447 2364
3 483 576 2144
3 721 1919 2032
3 885 886 1891
3 613 611 614
3 886 1014 1891
3 1160 411 2043
3 1918 1283 2342
3 1651 206 2485
3 1242 1240 1243
3 598 596 610
3 1295 1296 1459
3 1185 1186 1948
3 1425 1449 2070
3 294 296 762
3 1285 948 1992
3 925 876 1894
3 712 714 789
3 603 1668 2398
3 1940 590 2001
3 721 570 964
3 834 735 2075
3 1144 1920 2080
3 2263 1635 2511
3 1204 1207 1335
3 2235 1408 2378
3 965 964 966
3 1990 1435 2218
3 397 398 2060
3 1138 797 2058
3 1787 1141 2368
3 2068 820 2170
3 360 359 361
3 387 462 2087
3 1524 1272 1934
3 819 698 820
3 1197 1196 1198
3 1662 2126 2388
3 78 79 2093
3 1150 588 2089
3 1269 1261 1270
3 1878 915 2101
3 451 467 2169
3 2262 1387 2437
3 1009 1008 1112
3 757 311 1959
3 897 898 1139
3 1854 473 2483
3 2015 1425 2070
3 2082 1334 2101
3 963 1115 1174
3 1047 1049 1287
3 1194 423 1196
3 321 326 2050
3 417 1160 2031
3 854 1133 1973
3 1201 1212 1348
3 705 1586 2163
3 309 319 1959
3 1353 1390 2417
3 427 428 429
3 357 356 359
3 606 650 2001
3 549 1280 2124
3 1213 1112 1407
3 256 2303 2535
3 356 365 2065
3 662 664 2040
3 701 894 2039
3 1325 1371 2451
3 666 626 667
3 1902 93 2166
3 1236 1234 1246
3 800 839 2055
3 1869 1812 2252
3 1197 1364 1365
3 576 1935 2080
3 404 408 798
3 1678 807 2529
3 1560 1564 2016
3 1319 2039 2122
3 425 426 427
3 349 356 357
3 308 310 327
3 1716 622 2484
3 1801 82 2289
3 1768 1949 2420
3 2006 1926 2507
3 351 364 2407
3 420 423 1193
3 659 764 1963
3 292 294 2038
3 840 842 2027
3 736 279 2049
3 372 373 374
3 461 449 2052
3 2189 1195 2285
3 1174 1115 1398
3 367 363 961
3 909 908 918
3 1738 247 2402
3 1007 1761 2308
3 288 290 2135
3 422 441 2035
3 623 624 690
3 537 525 545
3 1953 1421 2454
3 1887 1968 2123
3 861 691 862
3 654 439 2223
3 1136 1080 2054
3 1312 1811 2089
3 575 571 2032
3 383 361 384
3 968 1200 1201
3 797 661 2058
3 1423 1354 2381
3 1180 1178 1181
3 1513 1515 2180
3 72 73 2217
3 462 445 463
3 12 13 2136
3 457 458 469
3 542 554 555
3 599 636 760
3 254 133 1766
3 1130 1397 1937
3 404 798 2060
3 1044 1942 2071
3 690 691 860
3 357 359 360
3 1008 2027 2152
3 1232 1230 1255
3 372 370 373
3 850 943 2125
3 1457 1456 1492
3 1952 324 2282
3 155 2 2356
3 0 7 2357
3 2017 1379 2288
3 918 1851 2008
3 195 1991 2517
3 2090 803 2347
3 1244 1243 1251
3 290 292 368
3 1432 1082 2214
3 1008 840 2027
3 1743 803 2296
3 1013 844 2039
3 365 1162 2065
3 1594 1315 2184
3 387 384 388
3 1508 1860 2311
3 547 527 2056
3 2005 225 2322
3 314 317 2127
3 1853 556 2327
3 201 6 278
3 1907 1644 2417
3 1896 2101 2108
3 646 645 784
3 538 508 558
3 374 375 377
3 1630 1634 1635
3 1579 1999 2352
3 1647 1648 1849
3 1313 1314 2121
3 1179 1433 2042
3 844 701 2039
3 1252 1251 2098
3 816 876 925
3 1922 1228 2281
3 392 394 396
3 1915 654 2294
3 1652 1653 2487
3 429 430 436
3 456 475 476
3 1605 1392 2510
3 126 1882 2284
3 1784 1780 2419
3 500 453 960
3 377 378 381
3 2178 1587 2300
3 1222 1219 1626
3 413 419 420
3 381 382 400
3 2169 1836 2223
3 1906 1905 2129
3 616 614 793
3 1170 1419 2139
3 101 189 2220
3 241 100 2220
3 1968 1111 2123
3 567 434 2031
3 615 614 616
3 1032 720 1921
3 682 428 2138
3 469 470 473
3 339 440 2261
3 1501 238 2226
3 1154 1431 1653
3 446 447 457
3 1251 1243 1257
3 2229 315 2495
3 1201 1202 1212
3 785 784 879
3 464 463 465
3 66 2118 2395
3 324 332 2282
3 286 288 771
3 17 199 2081
3 571 570 721
3 611 610 2092
3 617 616 618
3 1542 1531 2332
3 400 401 424
3 1325 1326 1371
3 1140 1406 1702
3 1323 443 2302
3 1926 1573 2507
3 436 437 446
3 1262 1457 2098
3 67 190 2118
3 1518 1861 2449
3 989 1359 1360
3 1063 1082 1154
3 1757 96 2526
3 969 967 1011
3 868 836 2095
3 1215 1035 2235
3 96 1757 2309
3 261 2160 2380
3 1381 1382 2126
3 1468 1469 2182
3 1334 1317 2108
3 861 863 1064
3 1270 1261 1271
3 360 361 383
3 287 316 1978
3 1856 192 2367
3 1905 241 2129
3 1615 1809 2425
3 528 523 560
3 979 980 989
3 662 2040 2058
3 721 964 965
3 170 171 2216
3 664 799 2040
3 512 511 523
3 1201 1348 2107
3 620 618 858
3 758 289 1978
3 859 858 998
3 424 425 453
3 1616 1615 2193
3 444 301 1975
3 561 560 593
3 965 966 967
3 1798 376 2430
3 340 2014 2091
3 510 465 511
3 107 195 1990
3 1080 1188 2054
3 1153 998 1312
3 1226 1224 1249
3 1012 1011 1363
3 902 904 905
3 842 963 2027
3 268 270 1134
3 865 901 1125
3 2077 558 2102
3 282 284 442
3 1977 1679 2253
3 1496 1498 2047
3 284 286 2063
3 281 736 1938
3 2132 793 2165
3 1674 215 2437
3 2078 1855 2411
3 839 1009 2055
3 1182 824 1183
3 1168 947 1169
3 1289 1871 2242
3 316 285 1971
3 1270 1271 1272
3 1755 1793 2264
3 51 1996 2011
3 383 384 387
3 1146 1924 2215
3 1279 1928 2202
3 619 618 620
3 1194 1196 1197
3 555 578 979
3 1937 1639 2528
3 1262 1257 1263
3 389 384 2339
3 2251 1338 2464
3 1155 1887 2123
3 1151 1937 2528
3 465 463 828
3 1318 1319 2116
3 1687 1688 2231
3 326 954 2050
3 297 318 1984
3 1308 953 2255
3 1846 2056 2198
3 320 315 2229
3 1254 1252 2059
3 760 761 783
3 951 1281 2255
3 1459 1296 2094
3 2288 1638 2470
3 1975 299 1984
3 52 247 1996
3 468 338 2090
3 2140 1511 2506
3 1125 1126 1192
3 593 824 1182
3 720 708 1921
3 704 706 707
3 623 587 624
3 2044 1112 2152
3 1393 1169 1749
3 900 983 2119
3 783 914 938
3 255 2265 2489
3 2039 894 2122
3 317 2050 2127
3 1866 1867 2513
3 374 373 375
3 429 436 455
3 387 388 445
3 1193 423 1194
3 555 577 578
3 1074 977 1187
3 449 567 2052
3 1197 1198 1364
3 2154 1595 2486
3 1486 1849 2173
3 318 295 1983
3 939 1016 1844
3 131 132 2160
3 30 31 2159
3 881 1146 2215
3 1294 1868 2238
3 1300 1455 2314
3 1365 1364 1912
3 783 938 939
3 2061 1735 2441
3 551 545 601
3 2194 216 2536
3 1251 1257 1262
3 888 887 2177
3 1364 1198 2048
3 1498 1682 2340
3 1589 1590 2501
3 60 188 2266
3 1401 1913 2324
3 195 108 1991
3 420 422 423
3 1675 1470 2474
3 258 1673 2183
3 2161 1619 2438
3 1296 1472 2094
3 1808 1910 2381
3 334 803 2090
3 1490 1285 2232
3 523 511 524
3 1240 1238 2074
3 1184 1183 1185
3 39 40 2151
3 473 474 477
3 1461 1463 2200
3 2072 353 2073
3 861 862 863
3 1206 1941 2401
3 958 1575 2287
3 614 611 2092
3 110 111 2140
3 1136 2054 2110
3 645 594 2133
3 260 33 2002
3 673 767 2131
3 989 980 1359
3 1741 2131 2258
3 1317 1875 2148
3 894 1946 2122
3 863 864 865
3 787 461 2052
3 857 2277 2386
3 109 246 1991
3 2017 116 2018
3 1182 1183 1184
3 377 375 378
3 816 925 1324
3 865 866 901
3 1262 1263 1456
3 359 356 2065
3 2129 241 2472
3 283 1938 1971
3 1458 1210 2203
3 1076 1003 2145
3 196 1738 2402
3 1033 1130 1151
3 1188 1121 2106
3 1140 1702 2096
3 549 687 1280
3 1694 1621 2191
3 861 1064 2112
3 1548 1549 2129
3 1784 1071 2462
3 714 716 2066
3 1961 825 2455
3 1447 1211 2250
3 979 578 980
3 905 907 1209
3 381 378 382
3 457 469 552
3 595 575 2032
3 408 413 2084
3 481 483 2144
3 1745 1349 2293
3 1980 1405 2441
3 198 50 2011
3 248 115 2017
3 912 819 2068
3 620 858 859
3 707 708 720
3 821 674 822
3 514 542 2086
3 400 382 401
3 123 2005 2012
3 1772 1351 2374
3 34 239 2002
3 768 314 2127
3 2003 36 2004
3 280 282 2079
3 124 225 2005
3 596 595 2130
3 593 560 824
3 1504 1502 2519
3 239 35 2003
3 1311 1309 2147
3 1318 1877 2240
3 1860 1432 2311
3 1416 1715 2330
3 859 998 1153
3 352 353 2072
3 312 768 1987
3 2027 1174 2152
3 226 38 2006
3 1827 1024 2117
3 1710 1391 2295
3 690 624 691
3 37 226 2004
3 1153 1312 1885
3 853 855 2186
3 1892 242 2373
3 1967 520 2174
3 939 938 1016
3 47 249 2019
3 388 390 2078
3 1991 2139 2517
3 905 906 907
3 571 721 2032
3 1196 423 2035
3 1324 925 1325
3 1151 1130 1937
3 363 352 2072
3 345 349 2076
3 1031 1032 1033
3 214 179 1859
3 211 122 2012
3 602 601 652
3 117 205 2018
3 710 712 2067
3 1602 187 2357
3 520 2000 2174
3 85 242 2335
3 220 84 2335
3 381 400 2113
3 1586 1587 2435
3 424 401 425
3 963 1174 2027
3 860 691 861
3 610 596 2130
3 1958 2078 2431
3 570 547 2056
3 237 2216 2354
3 1211 1692 2219
3 298 358 1997
3 909 947 1041
3 441 456 2097
3 1135 1647 1849
3 1601 1542 2443
3 197 113 2009
3 49 198 2010
3 1911 347 2407
3 1729 191 2309
3 212 41 2020
3 121 211 2013
3 222 105 2218
3 1125 901 1126
3 114 248 2009
3 249 48 2010
3 42 250 2020
3 251 120 2013
3 233 1769 2369
3 1870 647 2113
3 794 345 2076
3 250 43 2024
3 119 251 2021
3 901 902 2141
3 964 570 2056
3 739 335 2261
3 2108 1317 2148
3 577 599 2083
3 205 118 2021
3 44 206 2024
3 1247 1241 2323
3 1894 992 2244
3 6 203 2049
3 1642 1678 2529
3 1417 1873 2333
3 1422 2023 2516
3 341 794 2100
3 73 74 2361
3 1234 1232 2088
3 1261 1254 2059
3 896 1077 2257
3 1921 710 2067
3 125 126 2284
3 220 1699 2289
3 159 5 2304
3 4 184 2303
3 2059 1252 2098
3 1003 1004 2145
3 2328 1325 2451
3 1486 227 1500
3 63 64 2162
3 2081 1192 2260
3 508 500 2102
3 667 1872 2318
3 338 334 2090
3 423 422 2035
3 1192 1126 1471
3 907 908 909
3 1330 1328 2192
3 1972 897 2500
3 2443 316 2514
3 242 86 2373
3 87 193 2373
3 420 1193 2084
3 1473 1086 2358
3 1987 768 2037
3 522 337 2100
3 627 1660 2185
3 1793 446 2264
3 1405 2061 2441
3 1502 1217 2302
3 171 201 2216
3 1158 1993 2153
3 1197 1365 2120
3 1712 1710 2295
3 1121 1401 2414
3 93 94 2166
3 653 652 688
3 622 1716 2452
3 1345 1720 2267
3 477 537 556
3 128 129 2181
3 2331 1295 2458
3 784 645 874
3 1269 1270 2199
3 189 102 2355
3 1041 1168 1343
3 246 110 2140
3 477 525 537
3 755 1895 2371
3 1947 1723 2313
3 1134 1135 2369
3 223 65 2395
3 968 1201 2107
3 1577 1578 2325
3 210 15 2477
3 961 363 2072
3 1581 1579 2352
3 349 357 2076
3 337 341 2100
3 305 303 2317
3 370 367 2103
3 762 296 1997
3 581 580 2164
3 1278 1838 2372
3 1548 2129 2472
3 594 593 2133
3 2021 251 2022
3 2047 1247 2182
3 967 968 2107
3 1169 947 2008
3 481 2144 2169
3 793 614 2092
3 1910 217 2381
3 1251 1262 2098
3 716 788 2066
3 2101 1334 2108
3 2006 39 2151
3 1603 2379 2508
3 1926 2006 2151
3 96 97 2526
3 750 755 2371
3 789 714 2066
3 909 918 947
3 1993 895 2153
3 106 1990 2218
3 1243 1240 2074
3 832 986 1189
3 1283 1284 2342
3 2297 195 2517
3 1043 829 2326
3 767 816 2131
3 602 653 676
3 1004 912 2068
3 2086 1886 2224
3 1124 2177 2467
3 426 401 2531
3 707 720 1030
3 1000 1001 2184
3 1315 1029 2184
3 467 481 2169
3 541 513 2256
3 647 381 2113
3 225 2284 2510
3 2 156 2356
3 187 0 2357
3 40 212 2151
3 2245 1386 2383
3 676 677 829
3 1004 2068 2069
3 1860 232 2487
3 1031 1033 1034
3 829 830 972
3 996 997 2408
3 1195 1194 2120
3 987 1869 2202
3 1410 1213 2222
3 819 820 2068
3 1485 1486 2173
3 1564 2030 2155
3 807 669 2529
3 129 261 2181
3 1525 1076 2145
3 578 577 2083
3 327 310 1987
3 1083 929 2197
3 2131 1324 2258
3 798 408 2084
3 1838 696 2426
3 1486 1500 1930
3 1946 1944 2291
3 2257 1077 2291
3 1512 1661 2266
3 445 388 2078
3 1192 1471 2260
3 2118 1415 2395
3 1466 1468 2158
3 830 677 831
3 211 2012 2251
3 652 601 2442
3 537 545 551
3 558 508 2102
3 198 2011 2128
3 1718 2280 2385
3 500 960 2102
3 1168 1169 1393
3 1127 971 2496
3 95 96 2309
3 2030 1565 2155
3 1919 1172 2273
3 977 860 2112
3 240 128 2181
3 294 762 2038
3 1800 1799 2195
3 712 789 2067
3 972 1749 2326
3 472 1683 2212
3 874 645 2133
3 551 2045 2201
3 2105 1043 2326
3 1957 1212 2301
3 1514 1856 2367
3 565 538 2167
3 373 370 2103
3 355 348 2196
3 1934 1272 2138
3 1934 426 2531
3 1881 1400 2481
3 2046 1851 2327
3 367 961 2103
3 1963 1152 2206
3 201 278 443
3 3 131 2444
3 31 1 2445
3 2035 441 2097
3 503 787 2198
3 1135 1849 1930
3 1534 1983 2306
3 2089 623 2150
3 687 704 2109
3 869 1351 2363
3 1302 1304 2205
3 955 1716 2484
3 1030 720 1031
3 1159 1318 2240
3 1228 1226 2281
3 947 918 2008
3 413 420 2084
3 785 879 2532
3 1041 947 1168
3 1468 2182 2323
3 1246 1234 2088
3 1730 1163 2372
3 542 555 2086
3 1599 631 2312
3 1146 1967 2174
3 1078 1136 2343
3 1515 1574 2180
3 2336 885 2469
3 1257 1243 2074
3 1347 1346 2279
3 2001 650 2206
3 1480 1601 2514
3 1029 1000 2184
3 1956 788 2336
3 1271 1261 2059
3 130 3 2444
3 1 32 2445
3 1570 1507 2197
3 1232 1255 2088
3 791 1642 2529
3 1601 1479 2269
3 1361 1362 2168
3 1634 1922 2281
3 765 2065 2190
3 2071 1158 2153
3 1699 1801 2289
3 832 831 833
3 1864 346 2344
3 456 476 2097
3 1855 828 2411
3 2065 1162 2190
3 1125 1192 2149
3 599 760 2083
3 361 765 2339
3 1731 2123 2241
3 1349 1181 1350
3 1443 1275 2251
3 1819 524 2429
3 1021 1045 2512
3 858 618 2132
3 1999 358 2338
3 368 292 2038
3 290 368 2135
3 803 331 2296
3 1112 1008 2152
3 56 1947 2313
3 555 979 2086
3 1469 1496 2182
3 1011 967 2107
3 248 2017 2288
3 1809 789 2425
3 960 453 2221
3 538 558 2167
3 1858 1187 2248
3 2246 1757 2526
3 902 905 2141
3 1851 1853 2327
3 1224 1222 2111
3 771 288 2135
3 1945 2153 2257
3 1420 1525 2489
3 1399 1123 2393
3 103 2025 2355
3 897 822 898
3 1861 940 2532
3 865 1125 2146
3 1675 2474 2522
3 1573 2157 2507
3 1632 1631 2382
3 551 601 602
3 527 503 2198
3 1708 805 2337
3 1059 1278 2372
3 2056 527 2198
3 860 861 2112
3 1668 2348 2398
3 255 2159 2265
3 1541 1542 2269
3 1428 2074 2227
3 1582 1583 2321
3 389 1774 2503
3 2004 226 2157
3 1777 397 2405
3 1368 1436 2254
3 1061 2409 2462
3 1071 930 2462
3 1126 901 2141
3 1194 1197 2120
3 1452 1952 2282
3 2116 1319 2482
3 105 106 2218
3 1981 1399 2393
3 2119 983 2143
3 444 1682 2461
3 2173 1648 2463
3 616 793 2132
3 1791 1190 2334
3 1826 1728 2259
3 602 652 653
3 1834 1292 2428
3 556 2201 2327
3 1014 1015 2385
3 1995 1287 2331
3 1193 1195 2189
3 816 1324 2131
3 879 1861 2532
3 593 1182 2133
3 1402 266 1742
3 2216 1323 2354
3 1660 1636 2502
3 620 955 2484
3 1162 1706 2190
3 1870 2113 2249
3 204 1680 1732
3 1909 2023 2420
3 217 72 2217
3 376 372 2430
3 905 1209 2141
3 1378 1381 2283
3 1236 1246 2227
3 286 771 2063
3 1635 2263 2502
3 100 101 2220
3 1139 898 1140
3 2114 1343 2136
3 442 284 2063
3 1772 2106 2414
3 1985 1755 2533
3 2192 1328 2315
3 1064 863 2146
3 1631 1637 2459
3 736 2049 2523
3 221 1906 2246
3 318 1983 2171
3 1496 2047 2182
3 1374 2139 2506
3 196 55 2313
3 2087 462 2134
3 676 653 677
3 2304 257 2491
3 1401 2324 2363
3 829 677 830
3 654 2223 2242
3 1187 977 2112
3 1463 1466 2200
3 2023 219 2516
3 1176 881 2215
3 513 471 2290
3 1812 459 2252
3 1386 1269 2199
3 291 758 2306
3 618 616 2132
3 278 280 2210
3 83 220 2289
3 82 83 2289
3 938 1057 2161
3 1189 986 1190
3 788 719 2336
3 1914 2001 2206
3 232 181 1652
3 1567 2062 2490
3 313 757 2495
3 622 619 2484
3 688 878 1320
3 1222 1626 2111
3 282 442 2079
3 1169 2008 2105
3 1966 1007 2308
3 2040 799 2237
3 1744 2229 2495
3 986 833 1063
3 2284 1605 2510
3 887 1961 2376
3 215 1624 2262
3 830 831 832
3 476 475 2224
3 439 451 2223
3 1932 1933 2380
3 2227 1246 2366
3 1212 1202 2301
3 1107 1110 2228
3 249 2010 2299
3 1983 293 2306
3 2055 1214 2237
3 1438 1372 2478
3 824 560 2156
3 2320 1866 2513
3 1351 1137 2374
3 868 2007 2232
3 2063 771 2064
3 1507 214 1508
3 1728 1727 2246
3 1045 1047 2348
3 1139 1140 2096
3 1648 1649 2463
3 1502 2302 2519
3 704 707 2109
3 2343 1136 2396
3 650 1963 2206
3 2153 895 2257
3 396 1958 2431
3 1379 1377 2288
3 2115 1471 2319
3 2033 987 2202
3 2239 1693 2518
3 2025 1488 2355
3 1209 2115 2319
3 523 524 2156
3 783 939 2243
3 376 1798 2497
3 2066 788 2193
3 1984 318 2172
3 425 427 2221
3 203 172 1847
3 446 457 2264
3 1312 2089 2150
3 2138 1272 2211
3 897 1139 2274
3 828 1819 2429
3 1249 1224 2111
3 666 667 2318
3 1371 1326 2194
3 2433 1499 2475
3 1272 1271 2211
3 1367 2254 2479
3 1386 2053 2383
3 2074 1238 2227
3 755 2148 2320
3 2117 1604 2428
3 475 514 2224
3 228 2187 2457
3 1868 1504 2520
3 1626 1218 2185
3 2123 1111 2241
3 1287 1049 2331
3 1280 687 2109
3 459 1814 2292
3 54 196 2402
3 863 865 2146
3 204 176 1680
3 514 2086 2224
3 1646 603 2398
3 112 197 2346
3 358 300 2338
3 1140 898 1141
3 1204 1335 2301
3 1016 2161 2438
3 909 1041 2175
3 1681 2448 2492
3 2252 459 2292
3 1992 868 2232
3 1035 1036 2235
3 1051 1295 2331
3 1836 1289 2242
3 1508 214 1859
3 247 53 2402
3 1016 938 2161
3 1408 856 2378
3 1466 2158 2200
3 725 885 2336
3 855 1450 2421
3 2023 1768 2420
3 1238 1236 2227
3 1679 202 2253
3 2107 1348 2233
3 1653 1431 2487
3 1946 2291 2343
3 2253 202 2329
3 1885 1312 2150
3 378 628 2390
3 2195 1383 2432
3 1520 1519 2480
3 1532 1733 2534
3 308 327 2278
3 953 951 2255
3 1213 1407 2222
3 1561 1563 2285
3 302 763 2338
3 1928 2033 2202
3 763 304 2345
3 832 833 986
3 1352 2040 2237
3 247 1881 2481
3 560 523 2156
3 335 339 2261
3 346 342 2344
3 201 443 1323
3 2301 1335 2466
3 323 320 2229
3 1136 2110 2396
3 1139 1977 2274
3 1809 1615 2423
3 1707 1791 2334
3 46 2019 2485
3 2064 1294 2238
3 1950 197 2404
3 2021 2022 2176
3 1949 245 2420
3 2044 2152 2207
3 1063 1154 1707
3 1012 1363 2406
3 280 2079 2210
3 2237 1214 2351
3 820 698 2318
3 1140 1141 1406
3 205 2021 2176
3 2043 786 2310
3 2145 1004 2446
3 707 1030 2109
3 1406 2460 2473
3 2137 1268 2226
3 16 2081 2260
3 567 2031 2219
3 2112 1064 2248
3 206 45 2485
3 2347 1462 2365
3 1650 1962 2362
3 453 425 2221
3 1209 907 2175
3 1111 1276 2241
3 2448 1145 2492
3 2051 2083 2243
3 59 60 2266
3 1402 1742 2530
3 831 677 2209
3 624 587 2276
3 238 174 1725
3 1011 2107 2233
3 468 2365 2412
3 2337 805 2371
3 254 1932 2380
3 1174 1398 2207
3 2140 111 2346
3 1381 2186 2283
3 1987 2037 2188
3 1740 559 2456
3 1773 391 2503
3 1335 1870 2249
3 1945 2257 2291
3 828 463 2411
3 1246 2088 2208
3 2060 798 2307
3 1773 1159 2240
3 1187 2112 2248
3 1352 2237 2351
3 2037 1322 2188
3 1941 1499 2433
3 2322 225 2510
3 1031 1034 2236
3 327 2188 2321
3 595 2032 2273
3 1464 1462 2347
3 1285 1992 2232
3 799 2055 2237
3 443 278 2210
3 784 874 2178
3 392 396 2431
3 191 95 2309
3 879 784 2178
3 524 511 2429
3 2128 2011 2270
3 895 896 2257
3 2206 1152 2324
3 318 2171 2172
3 2259 1549 2379
3 1214 1410 2351
3 306 308 2278
3 2022 251 2247
3 1757 1729 2309
3 1283 1918 2524
3 996 1706 2492
3 557 2044 2207
3 1798 1448 2364
3 1447 2250 2310
3 559 1750 2403
3 1363 1011 2233
3 1343 1168 2187
3 1407 2044 2256
3 1462 1460 2365
3 1995 2331 2458
3 327 1987 2188
3 2160 254 2380
3 1681 958 2287
3 2031 1160 2250
3 1600 689 2413
3 2219 1692 2239
3 1494 1675 2522
3 1281 1916 2448
3 907 909 2175
3 565 2167 2276
3 2241 1276 2275
3 1978 316 2443
3 2151 212 2350
3 203 1847 2104
3 2049 1481 2523
3 1961 1362 2376
3 2187 1393 2457
3 940 796 2532
3 2293 1349 2329
3 572 1897 2537
3 332 739 2282
3 2052 567 2239
3 1437 1370 2277
3 567 2219 2239
3 667 626 2452
3 1914 2206 2324
3 2243 939 2392
3 2136 1343 2187
3 257 1654 2530
3 1376 1378 2283
3 2076 1982 2272
3 2083 760 2243
3 1944 1945 2291
3 1771 1839 2359
3 1404 1403 2399
3 1875 1866 2320
3 1460 1337 2412
3 760 783 2243
3 1276 1366 2275
3 1428 2227 2366
3 1882 1605 2284
3 1739 1429 2459
3 2321 2188 2434
3 1328 1327 2315
3 798 2189 2307
3 2152 1174 2207
3 2182 1247 2323
3 1516 1514 2367
3 293 291 2306
3 556 537 2201
3 1298 1300 2314
3 1400 1399 2316
3 1649 2236 2463
3 833 831 2424
3 2127 2050 2333
3 1057 914 2328
3 1839 193 2359
3 761 1741 2258
3 1186 1970 2422
3 1429 2366 2382
3 2211 1271 2271
3 1733 1248 2534
3 13 2114 2136
3 2078 390 2431
3 1533 1536 2340
3 1690 2145 2446
3 1277 2308 2370
3 1168 1393 2187
3 1597 2047 2268
3 587 565 2276
3 1908 244 2401
3 225 125 2284
3 610 2130 2468
3 1749 2105 2326
3 1913 1914 2324
3 2366 2208 2382
3 1391 1876 2295
3 457 552 2264
3 653 688 2209
3 1601 2443 2514
3 682 2138 2211
3 992 1980 2244
3 55 56 2313
3 1645 1495 2493
3 473 477 2483
3 202 1724 2329
3 465 828 2429
3 1277 1966 2308
3 1416 2330 2406
3 1912 1364 2455
3 1716 1483 2375
3 2019 1651 2485
3 1725 2137 2226
3 201 1323 2216
3 878 1083 2213
3 2072 2073 2245
3 1563 1777 2405
3 244 2028 2401
3 2016 1564 2422
3 1682 1497 2461
3 1962 1153 2362
3 1298 2314 2358
3 1384 1385 2391
3 688 1320 2209
3 1587 2179 2435
3 786 380 2497
3 1395 1522 2341
3 2032 1919 2273
3 251 2013 2247
3 2219 2031 2250
3 2397 552 2453
3 1765 255 2489
3 2475 1825 2524
3 1202 1204 2301
3 445 2078 2411
3 323 2229 2296
3 1286 2384 2408
3 537 551 2201
3 1724 237 2293
3 84 85 2335
3 1471 1126 2319
3 1635 1634 2511
3 300 302 2338
3 698 666 2318
3 1030 1031 2236
3 2098 1457 2271
3 696 1821 2426
3 1457 1492 2447
3 1956 2336 2469
3 331 323 2296
3 1284 1491 2342
3 2011 1996 2270
3 256 183 2303
3 160 257 2304
3 2204 1589 2501
3 1891 1014 2280
3 719 725 2336
3 1354 1808 2381
3 437 430 2494
3 2377 218 2391
3 2211 2271 2447
3 1407 2256 2290
3 2365 1460 2412
3 2047 1498 2268
3 1825 1283 2524
3 1499 1825 2475
3 1226 1249 2281
3 2051 2243 2392
3 2250 1160 2310
3 111 112 2346
3 304 306 2345
3 1341 1352 2351
3 2166 191 2504
3 2223 1836 2242
3 1996 247 2481
3 1049 1051 2331
3 1086 1298 2358
3 2130 595 2273
3 1249 2111 2263
3 680 1995 2458
3 1511 2140 2346
3 102 103 2355
3 469 473 2453
3 961 2072 2245
3 2073 1282 2245
3 1442 1443 2525
3 74 192 2361
3 2163 1586 2435
3 1519 1518 2449
3 897 2274 2500
3 303 444 2317
3 1615 1614 2423
3 197 2009 2404
3 1634 2281 2511
3 1780 1781 2419
3 1435 1623 2465
3 1286 1774 2384
3 384 361 2339
3 193 1901 2359
3 1165 2433 2475
3 2277 1370 2386
3 677 653 2209
3 1994 1516 2367
3 1479 1478 2440
3 1165 1512 2433
3 1644 1353 2417
3 1711 1712 2353
3 2193 1615 2425
3 1613 1956 2469
3 1440 1173 2330
3 2269 1479 2440
3 222 2218 2465
3 391 389 2503
3 306 2278 2345
3 468 2090 2365
3 221 2246 2526
3 1445 1446 2504
3 939 1844 2392
3 86 87 2373
3 1429 1428 2366
3 2053 2103 2383
3 1348 1212 2312
3 805 750 2371
3 997 1286 2408
3 1152 869 2363
3 2063 2064 2238
3 192 1994 2367
3 1160 2043 2310
3 1926 2151 2350
3 2059 2098 2271
3 1897 1366 2537
3 215 2262 2437
3 1655 1732 2476
3 2415 1128 2454
3 1320 2213 2214
3 7 258 2357
3 259 155 2356
3 2171 1530 2172
3 347 351 2407
3 1077 1078 2343
3 239 2003 2279
3 1446 1128 2415
3 1034 1033 2410
3 601 627 2442
3 1154 1653 2234
3 397 2060 2405
3 2142 794 2272
3 442 2063 2238
3 1863 1215 2378
3 794 2076 2272
3 1883 1375 2505
3 1320 878 2213
3 342 468 2344
3 1903 218 2377
3 380 376 2497
3 1549 1547 2379
3 1148 1165 2475
3 2157 226 2507
3 829 972 2326
3 884 1957 2466
3 2291 1077 2343
3 65 66 2395
3 787 2052 2518
3 2298 1348 2312
3 1946 2343 2396
3 1653 256 2535
3 1842 1548 2472
3 1957 2301 2466
3 1366 1277 2370
3 2213 1432 2214
3 961 2245 2383
3 218 2093 2391
3 1376 2283 2421
3 1873 2127 2333
3 1019 1021 2512
3 1128 1127 2454
3 1104 1434 2450
3 2130 1439 2468
3 2396 2110 2482
3 2186 855 2283
3 1724 2293 2329
3 1163 1059 2372
3 1614 2389 2423
3 53 54 2402
3 1063 1707 2334
3 2283 855 2421
3 1385 1863 2436
3 364 1883 2505
3 517 1890 2387
3 1145 996 2492
3 1047 1287 2348
3 2148 1875 2320
3 205 2176 2416
3 1372 1844 2478
3 1211 2219 2250
3 1141 898 2368
3 245 1909 2420
3 2278 327 2321
3 2389 1397 2423
3 2256 513 2290
3 559 2403 2456
3 1137 1340 2374
3 2093 1384 2391
3 1918 1148 2524
3 1030 2236 2427
3 1867 1895 2513
3 2014 517 2387
3 2271 1457 2447
3 1143 2028 2353
3 1904 194 2432
3 1148 2475 2524
3 1574 1523 2436
3 2213 1083 2311
3 1997 358 2325
3 2139 246 2506
3 1370 1369 2386
3 1271 2059 2271
3 1034 2173 2463
3 1123 1412 2393
3 1578 1827 2515
3 2209 1320 2424
3 2079 1504 2210
3 1361 2168 2305
3 1491 1489 2403
3 238 1725 2226
3 1190 986 2334
3 1547 1545 2508
3 1891 1613 2469
3 1153 1885 2362
3 2208 1632 2382
3 2287 1281 2448
3 1356 1376 2421
3 1965 2349 2515
3 2155 1186 2422
3 1522 2014 2387
3 2158 1468 2323
3 2050 954 2333
3 1397 1809 2423
3 1362 1360 2376
3 1852 1985 2397
3 2069 1691 2446
3 789 2066 2425
3 1895 755 2513
3 1707 1154 2234
3 372 374 2430
3 2225 787 2518
3 2028 1206 2401
3 986 1063 2334
3 1912 726 2439
3 1340 1342 2400
3 1916 1145 2448
3 2236 1649 2427
3 2374 1340 2400
3 2222 1407 2290
3 2324 1152 2363
3 241 2220 2472
3 765 2190 2384
3 2375 667 2452
3 2330 1173 2406
3 1181 1972 2500
3 2126 1382 2388
3 1173 1012 2406
3 315 313 2495
3 1015 1373 2385
3 97 221 2526
3 1937 1397 2389
3 930 1061 2462
3 971 1096 2496
3 45 46 2485
3 669 791 2529
3 1104 2450 2521
3 382 378 2390
3 2191 1371 2536
3 2235 1036 2286
3 831 2209 2424
3 762 1997 2349
3 2379 1547 2508
3 2177 1359 2467
3 2403 1489 2456
3 796 785 2532
3 219 1902 2516
3 1519 2300 2480
3 1065 1655 2476
3 1375 1473 2505
3 1489 1490 2456
3 390 392 2431
3 2247 2013 2464
3 1135 1930 2369
3 2278 1583 2345
3 626 622 2452
3 631 2298 2312
3 2233 1348 2298
3 1398 1974 2499
3 1706 1681 2492
3 261 130 2444
3 32 260 2445
3 822 2099 2368
3 1365 1912 2439
3 941 940 2418
3 1446 2166 2504
3 2106 1121 2414
3 2300 1519 2449
3 1803 1104 2521
3 1732 1570 2476
3 1413 2051 2392
3 2122 1946 2396
3 2238 1868 2520
3 477 556 2483
3 2397 1985 2533
3 463 445 2411
3 2163 1185 2488
3 1126 2141 2319
3 1755 2264 2533
3 972 2204 2501
3 2230 1533 2340
3 1774 1773 2503
3 1997 2325 2349
3 1004 2069 2446
3 2159 31 2445
3 131 2160 2444
3 1371 2191 2451
3 1001 2154 2486
3 1682 2230 2340
3 2103 961 2383
3 1033 1151 2410
3 382 2390 2531
3 1504 2079 2520
3 1583 2278 2321
3 511 465 2429
3 250 2024 2479
3 2208 2088 2509
3 619 620 2484
3 1246 2208 2366
3 2141 1209 2319
3 1359 1413 2467
3 1295 1459 2458
3 2218 1435 2465
3 2281 1249 2511
3 2293 237 2354
3 2207 1398 2499
3 1564 2155 2422
3 552 469 2453
3 1947 224 2498
3 2062 1568 2490
3 2018 205 2416
3 260 2159 2445
3 2160 261 2444
3 2092 610 2468
3 194 2195 2432
3 1432 2213 2311
3 211 2251 2464
3 2378 856 2527
3 1536 1532 2534
3 2364 786 2497
3 2438 1438 2478
3 1185 1948 2488
3 2042 941 2418
3 1582 2321 2434
3 885 1891 2469
3 1364 2048 2455
3 1693 2225 2518
3 401 382 2531
3 1338 2247 2464
3 442 2238 2520
3 1292 2117 2428
3 2274 1350 2500
3 2066 2193 2425
3 2179 1184 2435
3 898 822 2368
3 2436 1863 2527
3 1844 1016 2478
3 2184 1001 2486
3 557 2207 2499
3 2013 211 2464
3 2254 250 2479
3 1350 1181 2500
3 2009 248 2470
3 246 2140 2506
3 1574 2436 2527
3 2139 1419 2517
3 316 1971 2514
3 1319 2122 2482
3 226 2006 2507
3 1400 2270 2481
3 1681 2287 2448
3 2325 1578 2349
3 232 1652 2487
3 1320 2214 2424
3 1632 2208 2509
3 248 2288 2470
3 1406 1141 2460
3 2188 1322 2434
3 2244 1980 2441
3 2088 1255 2509
3 1280 2109 2427
3 2060 2307 2405
3 2236 1034 2463
3 1745 2293 2354
3 2122 2396 2482
3 2109 1030 2427
3 2307 1563 2405
3 1429 2382 2459
3 224 2267 2498
3 682 2211 2447
3 2079 442 2520
3 2348 1287 2398
3 2220 1842 2472
3 1335 2249 2466
3 1249 2263 2511
3 443 2210 2519
3 2385 1373 2394
3 1594 2184 2486
3 2052 2239 2518
3 1568 2439 2490
3 2349 1578 2515
3 2344 468 2412
3 2270 1996 2481
3 1735 2244 2441
3 2260 1471 2477
3 2210 1504 2519
3 1434 2297 2450
3 2297 1419 2450
3 2263 1660 2502
3 2404 2009 2470
3 1718 2385 2394
3 1371 2194 2536
3 2317 444 2461
3 1443 2322 2525
3 1716 2375 2452
3 1863 2378 2527
3 2439 726 2490
3 1057 2328 2451
3 1638 2404 2470
3 1454 2234 2535
3 755 2320 2513
3 2234 1653 2535
3 2264 552 2533
3 1419 2297 2517
3 1392 2322 2510
3 552 2397 2533
3 1798 2364 2497
3 2322 1392 2525
3 2382 1631 2459
3 1016 2438 2478
3 1366 2370 2537
3 1742 2491 2530
3 2491 257 2530
CELL_TYPES 4886
5
5
5
5
5
5
5
5
5
5
5
5
5
5
5
5
5
5
5
5
5
5
5
5
5
5
5
5
5
5
5
5
5
5
5
5
5
5
5
5
5
5
5
5
5
5
5
5
5
5
5
5
5
5
5
5
5
5
5
5
5
5
5
5
5
5
5
5
5
5
5
5
5
5
5
5
5
5
5
5
5
5
5
5
5
5
5
5
5
5
5
5
5
5
5
5
5
5
5
5
5
5
5
5
5
5
5
5
5
5
5
5
5
5
5
5
5
5
5
5
5
5
5
5
5
5
5
5
5
5
5
5
5
5
5
5
5
5
5
5
5
5
5
5
5
5
5
5
5
5
5
5
5
5
5
5
5
5
5
5
5
5
5
5
5
5
5
5
5
5
5
5
5
5
5
5
5
5
5
5
5
5
5
5
5
5
5
5
5
5
5
5
5
5
5
5
5
5
5
5
5
5
5
5
5
5
5
5
5
5
5
5
5
5
5
5
5
5
5
5
5
5
5
5
5
5
5
5
5
5
5
5
5
5
5
5
5
5
5
5
5
5
5
5
5
5
5
5
5
5
5
5
5
5
5
5
5
5
5
5
5
5
5
5
5
5
5
5
5
5
5
5
5
5
5
5
5
5
5
5
5
5
5
5
5
5
5
5
5
5
5
5
5
5
5
5
5
5
5
5
5
5
5
5
5
5
5
5
5
5
5
5
5
5
5
5
5
5
5
5
5
5
5
5
5
5
5
5
5
5
5
5
5
5
5
5
5
5
5
5
5
5
5
5
5
5
5
5
5
5
5
5
5
5
5
5
5
5
5
5
5
5
5
5
5
5
5
5
5
5
5
5
5
5
5
5
5
5
5
5
5
5
5
5
5
5
5
5
5
5
5
5
5
5
5
5
5
5
5
5
5
5
5
5
5
5
5
5
5
5
5
5
5
5
5
5
5
5
5
5
5
5
5
5
5
5
5
5
5
5
5
5
5
5
5
5
5
5
5
5
5
5
5
5
5
5
5
5
5
5
5
5
5
5
5
5
5
5
5
5
5
5
5
5
5
5
5
5
5
5
5
5
5
5
5
5
5
5
5
5
5
5
5
5
5
5
5
5
5
5
5
5
5
5
5
5
5
5
5
5
5
5
5
5
5
5
5
5
5
5
5
5
5
5
5
5
5
5
5
5
5
5
5
5
5
5
5
5
5
5
5
5
5
5
5
5
5
5
5
5
5
5
5
5
5
5
5
5
5
5
5
5
5
5
5
5
5
5
5
5
5
5
5
5
5
5
5
5
5
5
5
5
5
5
5
5
5
5
5
5
5
5
5
5
5
5
5
5
5
5
5
5
5
5
5
5
5
5
5
5
5
5
5
5
5
5
5
5
5
5
5
5
5
5
5
5
5
5
5
5
5
5
5
5
5
5
5
5
5
5
5
5
5
5
5
5
5
5
5
5
5
5
5
5
5
5
5
5
5
5
5
5
5
5
5
5
5
5
5
5
5
5
5
5
5
5
5
5
5
5
5
5
5
5
5
5
5
5
5
5
5
5
5
5
5
5
5
5
5
5
5
5
5
5
5
5
5
5
5
5
5
5
5
5
5
5
5
5
5
5
5
5
5
5
5
5
5
5
5
5
5
5
5
5
5
5
5
5
5
5
5
5
5
5
5
5
5
5
5
5
5
5
5
5
5
5
5
5
5
5
5
5
5
5
5
5
5
5
5
5
5
5
5
5
5
5
5
5
5
5
5
5
5
5
5
5
5
5
5
5
5
5
5
5
5
5
5
5
5
5
5
5
5
5
5
5
5
5
5
5
5
5
5
5
5
5
5
5
5
5
5
5
5
5
5
5
5
5
5
5
5
5
5
5
5
5
5
5
5
5
5
5
5
5
5
5
5
5
5
5
5
5
5
5
5
5
5
5
5
5
5
5
5
5
5
5
5
5
5
5
5
5
5
5
5
5
5
5
5
5
5
5
5
5
5
5
5
5
5
5
5
5
5
5
5
5
5
5
5
5
5
5
5
5
5
5
5
5
5
5
5
5
5
5
5
5
5
5
5
5
5
5
5
5
5
5
5
5
5
5
5
5
5
5
5
5
5
5
5
5
5
5
5
5
5
5
5
5
5
5
5
5
5
5
5
5
5
5
5
5
5
5
5
5
5
5
5
5
5
5
5
5
5
5
5
5
5
5
5
5
5
5
5
5
5
5
5
5
5
5
5
5
5
5
5
5
5
5
5
5
5
5
5
5
5
5
5
5
5
5
5
5
5
5
5
5
5
5
5
5
5
5
5
5
5
5
5
5
5
5
5
5
5
5
5
5
5
5
5
5
5
5
5
5
5
5
5
5
5
5
5
5
5
5
5
5
5
5
5
5
5
5
5
5
5
5
5
5
5
5
5
5
5
5
5
5
5
5
5
5
5
5
5
5
5
5
5
5
5
5
5
5
5
5
5
5
5
5
5
5
5
5
5
5
5
5
5
5
5
5
5
5
5
5
5
5
5
5
5
5
5
5
5
5
5
5
5
5
5
5
5
5
5
5
5
5
5
5
5
5
5
5
5
5
5
5
5
5
5
5
5
5
5
5
5
5
5
5
5
5
5
5
5
5
5
5
5
5
5
5
5
5
5
5
5
5
5
5
5
5
5
5
5
5
5
5
5
5
5
5
5
5
5
5
5
5
5
5
5
5
5
5
5
5
5
5
5
5
5
5
5
5
5
5
5
5
5
5
5
5
5
5
5
5
5
5
5
5
5
5
5
5
5
5
5
5
5
5
5
5
5
5
5
5
5
5
5
5
5
5
5
5
5
5
5
5
5
5
5
5
5
5
5
5
5
5
5
5
5
5
5
5
5
5
5
5
5
5
5
5
5
5
5
5
5
5
5
5
5
5
5
5
5
5
5
5
5
5
5
5
5
5
5
5
5
5
5
5
5
5
5
5
5
5
5
5
5
5
5
5
5
5
5
5
5
5
5
5
5
5
5
5
5
5
5
5
5
5
5
5
5
5
5
5
5
5
5
5
5
5
5
5
5
5
5
5
5
5
5
5
5
5
5
5
5
5
5
5
5
5
5
5
5
5
5
5
5
5
5
5
5
5
5
5
5
5
5
5
5
5
5
5
5
5
5
5
5
5
5
5
5
5
5
5
5
5
5
5
5
5
5
5
5
5
5
5
5
5
5
5
5
5
5
5
5
5
5
5
5
5
5
5
5
5
5
5
5
5
5
5
5
5
5
5
5
5
5
5
5
5
5
5
5
5
5
5
5
5
5
5
5
5
5
5
5
5
5
5
5
5
5
5
5
5
5
5
5
5
5
5
5
5
5
5
5
5
5
5
5
5
5
5
5
5
5
5
5
5
5
5
5
5
5
5
5
5
5
5
5
5
5
5
5
5
5
5
5
5
5
5
5
5
5
5
5
5
5
5
5
5
5
5
5
5
5
5
5
5
5
5
5
5
5
5
5
5
5
5
5
5
5
5
5
5
5
5
5
5
5
5
5
5
5
5
5
5
5
5
5
5
5
5
5
5
5
5
5
5
5
5
5
5
5
5
5
5
5
5
5
5
5
5
5
5
5
5
5
5
5
5
5
5
5
5
5
5
5
5
5
5
5
5
5
5
5
5
5
5
5
5
5
5
5
5
5
5
5
5
5
5
5
5
5
5
5
5
5
5
5
5
5
5
5
5
5
5
5
5
5
5
5
5
5
5
5
5
5
5
5
5
5
5
5
5
5
5
5
5
5
5
5
5
5
5
5
5
5
5
5
5
5
5
5
5
5
5
5
5
5
5
5
5
5
5
5
5
5
5
5
5
5
5
5
5
5
5
5
5
5
5
5
5
5
5
5
5
5
5
5
5
5
5
5
5
5
5
5
5
5
5
5
5
5
5
5
5
5
5
5
5
5
5
5
5
5
5
5
5
5
5
5
5
5
5
5
5
5
5
5
5
5
5
5
5
5
5
5
5
5
5
5
5
5
5
5
5
5
5
5
5
5
5
5
5
5
5
5
5
5
5
5
5
5
5
5
5
5
5
5
5
5
5
5
5
5
5
5
5
5
5
5
5
5
5
5
5
5
5
5
5
5
5
5
5
5
5
5
5
5
5
5
5
5
5
5
5
5
5
5
5
5
5
5
5
5
5
5
5
5
5
5
5
5
5
5
5
5
5
5
5
5
5
5
5
5
5
5
5
5
5
5
5
5
5
5
5
5
5
5
5
5
5
5
5
5
5
5
5
5
5
5
5
5
5
5
5
5
5
5
5
5
5
5
5
5
5
5
5
5
5
5
5
5
5
5
5
5
5
5
5
5
5
5
5
5
5
5
5
5
5
5
5
5
5
5
5
5
5
5
5
5
5
5
5
5
5
5
5
5
5
5
5
5
5
5
5
5
5
5
5
5
5
5
5
5
5
5
5
5
5
5
5
5
5
5
5
5
5
5
5
5
5
5
5
5
5
5
5
5
5
5
5
5
5
5
5
5
5
5
5
5
5
5
5
5
5
5
5
5
5
5
5
5
5
5
5
5
5
5
5
5
5
5
5
5
5
5
5
5
5
5
5
5
5
5
5
5
5
5
5
5
5
5
5
5
5
5
5
5
5
5
5
5
5
5
5
5
5
5
5
5
5
5
5
5
5
5
5
5
5
5
5
5
5
5
5
5
5
5
5
5
5
5
5
5
5
5
5
5
5
5
5
5
5
5
5
5
5
5
5
5
5
5
5
5
5
5
5
5
5
5
5
5
5
5
5
5
5
5
5
5
5
5
5
5
5
5
5
5
5
5
5
5
5
5
5
5
5
5
5
5
5
5
5
5
5
5
5
5
5
5
5
5
5
5
5
5
5
5
5
5
5
5
5
5
5
5
5
5
5
5
5
5
5
5
5
5
5
5
5
5
5
5
5
5
5
5
5
5
5
5
5
5
5
5
5
5
5
5
5
5
5
5
5
5
5
5
5
5
5
5
5
5
5
5
5
5
5
5
5
5
5
5
5
5
5
5
5
5
5
5
5
5
5
5
5
5
5
5
5
5
5
5
5
5
5
5
5
5
5
5
5
5
5
5
5
5
5
5
5
5
5
5
5
5
5
5
5
5
5
5
5
5
5
5
5
5
5
5
5
5
5
5
5
5
5
5
5
5
5
5
5
5
5
5
5
5
5
5
5
5
5
5
5
5
5
5
5
5
5
5
5
5
5
5
5
5
5
5
5
5
5
5
5
5
5
5
5
5
5
5
5
5
5
5
5
5
5
5
5
5
5
5
5
5
5
5
5
5
5
5
5
5
5
5
5
5
5
5
5
5
5
5
5
5
5
5
5
5
5
5
5
5
5
5
5
5
5
5
5
5
5
5
5
5
5
5
5
5
5
5
5
5
5
5
5
5
5
5
5
5
5
5
5
5
5
5
5
5
5
5
5
5
5
5
5
5
5
5
5
5
5
5
5
5
5
5
5
5
5
5
5
5
5
5
5
5
5
5
5
5
5
5
5
5
5
5
5
5
5
5
5
5
5
5
5
5
5
5
5
5
5
5
5
5
5
5
5
5
5
5
5
5
5
5
5
5
5
5
5
5
5
5
5
5
5
5
5
5
5
5
5
5
5
5
5
5
5
5
5
5
5
5
5
5
5
5
5
5
5
5
5
5
5
5
5
5
5
5
5
5
5
5
5
5
5
5
5
5
5
5
5
5
5
5
5
5
5
5
5
5
5
5
5
5
5
5
5
5
5
5
5
5
5
5
5
5
5
5
5
5
5
5
5
5
5
5
5
5
5
5
5
5
5
5
5
5
5
5
5
5
5
5
5
5
5
5
5
5
5
5
5
5
5
5
5
5
5
5
5
5
5
5
5
5
5
5
5
5
5
5
5
5
5
5
5
5
5
5
5
5
5
5
5
5
5
5
5
5
5
5
5
5
5
5
5
5
5
5
5
5
5
5
5
5
5
5
5
5
5
5
5
5
5
5
5
5
5
5
5
5
5
5
5
5
5
5
5
5
5
5
5
5
5
5
5
5
5
5
5
5
5
5
5
5
5
5
5
5
5
5
5
5
5
5
5
5
5
5
5
5
5
5
5
5
5
5
5
5
5
5
5
5
5
5
5
5
5
5
5
5
5
5
5
5
5
5
5
5
5
5
5
5
5
5
5
5
5
5
5
5
5
5
5
5
5
5
5
5
5
5
5
5
5
5
5
5
5
5
5
5
5
5
5
5
5
5
5
5
5
5
5
5
5
5
5
5
5
5
5
5
5
5
5
5
5
5
5
5
5
5
5
5
5
5
5
5
5
5
5
5
5
5
5
5
5
5
5
5
5
5
5
5
5
5
5
5
5
5
5
5
5
5
5
5
5
5
5
5
5
5
5
5
5
5
5
5
5
5
5
5
5
5
5
5
5
5
5
5
5
5
5
5
5
5
5
5
5
5
5
5
5
5
5
5
5
5
5
5
5
5
5
5
5
5
5
5
5
5
5
5
5
5
5
5
5
5
5
5
5
5
5
5
5
5
5
5
5
5
5
5
5
5
5
5
5
5
5
5
5
5
5
5
5
5
5
5
5
5
5
5
5
5
5
5
5
5
5
5
5
5
5
5
5
5
5
5
5
5
5
5
5
5
5
5
5
5
5
5
5
5
5
5
5
5
5
5
5
5
5
5
5
5
5
5
5
5
5
5
5
5
5
5
5
5
5
5
5
5
5
5
5
5
5
5
5
5
5
5
5
5
5
5
5
5
5
5
5
5
5
5
5
5
5
5
5
5
5
5
5
5
5
5
5
5
5
5
5
5
5
5
5
5
5
5
5
5
5
5
5
5
5
5
5
5
5
5
5
5
5
5
5
5
5
5
5
5
5
5
5
5
5
5
5
5
5
5
5
5
5
5
5
5
5
5
5
5
5
5
5
5
5
5
5
5
5
5
5
5
5
5
5
5
5
5
5
5
5
5
5
5
5
5
5
5
5
5
5
5
5
5
5
5
5
5
5
5
5
5
5
5
5
5
5
5
5
5
5
5
5
5
5
5
5
5
5
5
5
5
5
5
5
5
5
5
5
5
5
5
5
5
5
5
5
5
5
5
5
5
5
5
5
5
5
5
5
5
5
5
5
5
5
5
5
5
5
5
5
5
5
5
5
5
5
5
5
5
5
5
5
5
5
5
5
5
5
5
5
5
5
5
5
5
5
5
5
5
5
5
5
5
5
5
5
5
5
5
5
5
5
5
5
5
5
5
5
5
5
5
5
5
5
5
5
5
5
5
5
5
5
5
5
5
5
5
5
5
5
5
5
5
5
5
5
5
5
5
5
5
5
5
5
5
5
5
5
5
5
5
5
5
5
5
5
5
5
5
5
5
5
5
5
5
5
5
5
5
5
5
5
5
5
5
5
5
5
5
5
5
5
5
5
5
5
5
5
5
5
5
5
5
5
5
5
5
5
5
5
5
5
5
5
5
5
5
5
5
5
5
5
5
5
5
5
5
5
5
5
5
5
5
5
5
5
5
5
5
5
5
5
5
5
5
5
5
5
5
5
5
5
5
5
5
5
5
5
5
5
5
5
5
5
5
5
5
5
5
5
5
5
5
5
5
5
5
5
5
5
5
5
5
5
5
5
5
5
5
5
5
5
5
5
5
5
5
5
5
5
5
5
5
5
5
5
5
5
5
5
5
5
5
5
5
5
5
5
5
5
5
5
5
5
5
5
5
5
5
5
5
5
5
5
5
5
5
5
5
5
5
5
5
5
5
5
5
5
5
5
5
5
5
5
5
5
5
5
5
5
5
5
5
5
5
5
5
5
5
5
5
5
5
5
5
5
5
5
5
5
5
5
5
5
5
5
5
5
5
5
5
5
5
5
5
5
5
5
5
5
5
5
5
5
5
5
5
5
5
5
5
5
5
5
5
5
5
5
5
5
5
5
5
5
5
5
5
5
5
5
5
5
5
5
5
5
5
5
5
5
5
5
5
5
5
5
5
5
5
5
5
5
5
5
5
5
5
5
5
5
5
5
5
5
5
5
5
5
5
5
5
5
5
5
5
5
5
5
5
5
5
5
5
5
5
5
5
5
5
5
5
5
5
5
5
5
5
5
5
5
5
5
5
5
5
5
5
5
5
5
5
5
5
5
5
5
5
5
5
5
5
5
5
5
5
5
5
5
5
5
5
5
5
5
5
5
5
5
5
5
5
5
5
5
5
5
5
5
5
5
5
5
5
5
5
5
5
5
5
5
5
5
5
5
5
5
5
5
5
5
5
5
5
5
5
5
5
5
5
5
5
5
5
5
5
5
5
5
5
5
5
5
5
5
5
5
5
5
5
5
5
5
5
5
5
5
5
5
5
5
5
5
5
5
5
5
5
5
5
5
5
5
5
5
5
5
5
5
5
5
5
5
5
5
5
5
5
5
5
5
5
5
5
5
5
5
5
5
5
5
5
5
5
5
5
5
5
5
5
5
5
5
5
5
5
5
5
5
5
5
5
5
5
5
5
5
5
5
5
5
5
5
5
5
5
5
5
5
5
5
5
5
5
5
5
5
5
5
5
5
5
5
5
5
5
5
5
5
5
5
5
5
5
5
5
5
5
5
5
5
5
5
5
5
5
5
5
5
5
5
5
5
5
5
5
5
5
5
5
5
5
5
5
5
5
5
5
5
5
5
5
5
5
5
5
5
5
5
5
5
5
5
5
5
5
5
5
5
5
5
5
5
5
5
5
5
5
5
5
5
5
5
5
5
5
5
5
5
5
5
5
5
5
5
5
5
5
5
5
5
5
5
5
5
5
5
5
5
5
5
5
5
5
5
5
5
5
5
5
5
5
5
5
5
5
5
5
5
5
5
5
5
5
5
5
5
5
5
5
5
5
5
5
5
5
5
5
5
5
5
5
5
5
5
5
5
5
5
5
5
5
5
5
5
5
5
5
5
5
5
5
5
5
5
5
5
5
5
5
5
5
5
5
5
5
5
5
5
5
5
5
5
5
5
5
5
5
5
5
5
5
5
5
5
5
5
5
5
5
5
5
5
5
5
5
5
5
5
5
5
5
5
5
5
5
5
5
5
5
5
5
5
5
5
5
5
5
5
5
5
5
5
5
5
5
5
5
5
5
5
5
5
5
5
5
5
5
5
5
5
5
5
5
5
5
5
5
5
5
5
5
5
5
5
5
5
5
5
5
5
5
5
5
5
5
5
5
5
5
5
5
5
5
5
5
5
5
5
5
5
5
5
5
5
5
5
5
5
5
5
5
5
5
5
5
5
5
5
5
5
5
5
5
5
5
5
5
5
5
5
5
5
5
5
5
5
5
5
5
5
5
5
5
5
5
5
5
5
5
5
5
5
5
5
5
5
5
5
5
5
5
5
5
5
5
5
5
5
5
5
5
5
5
5
5
5
5
5
5
5
5
5
5
5
5
5
5
5
5
5
5
5
5
5
5
5
5
5
5
5
5
5
5
5
5
5
5
5
5
5
5
5
5
5
5
5
5
5
5
5
5
5
5
5
5
5
5
5
5
5
5
5
5
5
5
5
5
5
5
5
5
5
5
5
5
5
5
5
5
5
5
5
5
5
5
5
5
5
5
5
5
5
5
5
5
5
5
5
5
5
5
5
5
5
5
5
5
5
5
5
5
5
5
5
5
5
5
5
5
5
5
5
5
5
5
5
5
5
5
5
5
5
5
5
5
5
5
5
5
5
5
5
5
5
5
5
5
5
5
5
5
5
5
5
5
5
5
5
5
5
5
5
5
5
5
5
5
5
5
5
5
5
5
5
5
5
5
5
5
5
5
5
5
5
5
5
5
5
5
5
5
5
5
5
5
5
5
5
5
5
5
5
5
5
5
5
5
5
5
5
5
5
5
5
5
5
5
5
5
5
5
5
5
5
5
5
5
5
5
5
5
5
5
5
5
5
5
5
5
5
5
5
5
5
5
5
5
5
5
5
5
5
5
5
5
5
5
5
5
5
5
5
5
5
5
5
5
5
5
5
5
5
5
5
5
5
5
5
5
5
5
5
5
5
5
5
5
5
5
5
5
5
5
5
5
5
5
5
5
5
5
5
5
5
5
5
5
5
5
5
5
5
5
5
5
5
5
5
5
5
5
5
5
5
5
5
5
5
5
5
5
5
5
5
5
5
5
5
5
5
5
5
5
5
5
5
5
5
5
5
5
5
5
5
5
5
5
5
5
5
5
5
5
5
5
5
5
5
5
5
5
5
5
5
5
5
5
5
5
5
5
5
5
5
5
5
5
5
5
5
5
5
5
5
5
5
5
5
5
5
5
5
5
5
5
5
5
5
5
5
5
5
5
5
5
5
5
5
5
5
5
5
5
5
5
5
5
5
5
5
5
5
5
5
5
5
5
5
5
5
5
5
5
5
5
5
5
5
5
5
5
5
5
5
5
5
5
5
5
5
5
5
5
5
5
5
5
5
5
5
5
5
5
5
5
5
5
5
5
5
5
5
5
5
5
5
5
5
5
5
5
5
5
5
5
5
5
5
5
5
5
5
5
5
5
5
5
5
5
5
5
5
5
5
5
5
5
5
5
5
5
5
5
5
5
5
5
5
5
5
5
5
5
5
5
5
5
5
5
5
5
5
5
5
5
5
5
5
5
5
5
5
5
5
5
5
5
5
5
5
5
5
5
5
5
5
5
5
5
5
5
5
5
5
5
5
5
5
5
5
5
5
5
5
5
5
5
5
5
5
5
5
5
5
5
5
5
5
5
5
5
5
5
5
5
5
5
5
5
5
5
5
5
5
5
5
5
5
5
5
5
5
5
5
5
5
5
5
5
5
5
5
5
5
5
5
5
5
5
5
5
5
5
5
5
5
5
5
5
5
5
5
5
5
5
5
5
5
5
5
5
5
5
5
5
5
5
5
5
5
5
5
5
5
5
5
5
5
5
5
5
5
5
5
5
5
5
5
5
5
5
5
5
5
5
5
5
5
5
5
5
5
5
5
5
5
5
5
5
5
5
5
5
5
5
5
5
5
5
5
5
5
5
5
5
5
5
5
POINT_DATA 2538
VECTORS disp float
1.6098520720178244e-11 3.8724819503316054e-11 0.0
3.1525030817816476e-11 -8.525429293197942e-11 0.0
0.003599999989607748 2.6365683043256384e-11 0.0
0.0035999999659721504 -9.323773116823526e-11 0.0
0.0012084928180336422 0.0004936515812005586 0.0
0.0026061897878122413 0.0002394810560251174 0.0
0.0017727102134320713 9.575825891960303e-5 0.0
3.6565121731491525e-12 1.7973685106068744e-12 0.0
7.211611590183573e-12 8.069287692241615e-12 0.0
6.322919991709826e-12 4.493413888623081e-12 0.0
5.992447031339724e-12 4.125210788713814e-12 0.0
5.372225971681318e-12 2.9067160705299367e-12 0.0
4.904828977468766e-12 1.910599101144516e-12 0.0
4.466237300284164e-12 9.579564805396113e-13 0.0
4.132308570800183e-12 -6.650989249815303e-14 0.0
3.5372099923332014e-12 -1.1916409307700015e-12 0.0
3.778793832633691e-12 -2.241373507008646e-12 0.0
3.64998325414112e-12 -3.4906365953400572e-12 0.0
3.727576222870703e-12 -4.842115283011389e-12 0.0
3.925164174574821e-12 -6.203908684964332e-12 0.0
3.949246768084997e-12 -7.454314692412079e-12 0.0
4.276342356850952e-12 -8.962921598970728e-12 0.0
4.32848056853528e-12 -1.0178759148599871e-11 0.0
4.627038888536808e-12 -1.1653950010921271e-11 0.0
4.7971218155743245e-12 -1.3283190776797847e-11 0.0
5.0422519502087215e-12 -1.4829768593459642e-11 0.0
5.352089809221401e-12 -1.6708300379800528e-11 0.0
5.752466706473262e-12 -1.8832712551915606e-11 0.0
6.418954487770316e-12 -2.1483560657194725e-11 0.0
6.5346372985826856e-12 -2.4316714572551937e-11 0.0
9.060715061123566e-12 -3.1183717508049637e-11 0.0
4.186189185938393e-12 -2.8115549048802543e-11 0.0
4.575506954742147e-5 -5.7969763936546793e-5 0.0
7.947371379901949e-5 -9.941492020600817e-5 0.0
0.000112115972610433 -0.00013539334401980793 0.0
0.00014326665246389522 -0.0001679835761343318 0.0
0.00017335658867207685 -0.00019823328318052905 0.0
0.00020298992818378823 -0.0002269596258379321 0.0
0.00023265805743301479 -0.0002542620592530971 0.0
0.00026208256644171234 -0.00028037969671022205 0.0
0.0002915271961375466 -0.00030556191981312154 0.0
0.00032107227014636935 -0.0003298023828460148 0.0
0.0003507304612335482 -0.0003533202089806961 0.0
0.00038073890528672946 -0.00037611136305807746 0.0
0.0004108722524463573 -0.00039817800154180055 0.0
0.0004412765730816328 -0.000419695154860317 0.0
0.0004721401648859159 -0.00044060411945109207 0.0
0.0005031300002400823 -0.0004608901424523901 0.0
0.0005344678108954547 -0.0004806784188114099 0.0
0.0005661486982149233 -0.0004998614375852254 0.0
0.0005981438290314556 -0.0005185547856890341 0.0
0.0006304712194365974 -0.000536750033231453 0.0
0.0006631715741381766 -0.0005544473748381947 0.0
0.0006961680511415869 -0.0005716372979828444 0.0
0.0007296640854731354 -0.0005883930808103393 0.0
0.0007633290799346727 -0.0006046244270864434 0.0
0.0007975427717261687 -0.000620408377685476 0.0
0.0008318971453744201 -0.0006356662465138008 0.0
0.0008666710445069974 -0.0006504879617396324 0.0
0.0009017126216685889 -0.0006647745391544475 0.0
0.0009372344121750342 -0.0006786396396307062 0.0
0.0009728721134483586 -0.000692009157380966 0.0
0.0010089926746857391 -0.0007049388599020103 0.0
0.001045362388890126 -0.0007173364047027081 0.0
0.0010820785458725733 -0.0007292840616546582 0.0
0.0011190023094499728 -0.0007407217173907453 0.0
0.0011563631778784467 -0.0007517060716046973 0.0
0.0011938175433083016 -0.000762143878913174 0.0
0.001231610288869824 -0.0007720989576202399 0.0
0.0012695823439166103 -0.0007814713579656898 0.0
0.0013078117370946625 -0.000790285466082903 0.0
0.0013462439315457067 -0.0007986459697360757 0.0
0.0013848379922495905 -0.0008063831365408745 0.0
0.0014237083660664375 -0.0008136590447428568 0.0
0.0014627772127672476 -0.0008203446628938569 0.0
0.0015019572005903724 -0.0008265633196868935 0.0
0.0015413451329510512 -0.0008321382822880345 0.0
0.0015807117149289464 -0.0008372231823016382 0.0
0.0016202864138844951 -0.0008417783804964971 0.0
0.0016598773117099343 -0.0008457334346221739 0.0
0.0016995326768577646 -0.000849217304902802 0.0
0.001739342303169503 -0.0008520975868647052 0.0
0.0017788296778962 -0.0008542977546302785 0.0
0.0018186983973593072 -0.0008560464962352956 0.0
0.0018578485284161542 -0.0008571032252573353 0.0
0.0018974479043388777 -0.000857623438771383 0.0
0.0019354560150469866 -0.0008573655012979684 0.0
0.0019745353401283837 -0.0008564523826460166 0.0
0.002012185516047887 -0.0008549576257391293 0.0
0.0020496361080810854 -0.0008524040124237911 0.0
0.0020869029864097216 -0.0008493597332998446 0.0
0.002124026697414918 -0.000845003831135773 0.0
0.0021607956059604577 -0.0008400788664222632 0.0
0.0021975383010199735 -0.0008339563059661711 0.0
0.002234694518260889 -0.0008270998509709916 0.0
0.002271528099624521 -0.0008187613340355463 0.0
0.002308965635700981 -0.0008095184161325701 0.0
0.002346670701990283 -0.0007993560459493408 0.0
0.002384018109194911 -0.0007882156618727565 0.0
0.0024216270825209987 -0.0007764325910388877 0.0
0.0024594858132528257 -0.00076386409861413 0.0
0.0024974191135437363 -0.0007505876272696672 0.0
0.0025351045456959635 -0.0007367316828490797 0.0
0.0025730254783381465 -0.0007221272026610757 0.0
0.0026105935817537654 -0.0007069423108054714 0.0
0.0026480419709115376 -0.0006913384291563229 0.0
0.002685544532105178 -0.0006750362164416595 0.0
0.0027226441842394715 -0.0006582855631111713 0.0
0.002759655828430278 -0.0006409864583132876 0.0
0.0027964072331580414 -0.0006231639454870301 0.0
0.0028330870664456257 -0.0006048045675119718 0.0
0.0028695490066164265 -0.0005858451115417491 0.0
0.002905792754157891 -0.0005663196213045001 0.0
0.0029416329669714227 -0.0005462771023707177 0.0
0.002977339663210276 -0.0005256890120655303 0.0
0.0030129049381325225 -0.0005044631242975573 0.0
0.003048152354281309 -0.000482642561481297 0.0
0.003083271993065952 -0.00046025817553243127 0.0
0.0031183866688357566 -0.0004371147464146712 0.0
0.0031532268562566557 -0.00041324664147068726 0.0
0.0031878665082436157 -0.0003887052560892805 0.0
0.0032226203056707377 -0.0003633253774209856 0.0
0.0032574748497189495 -0.00033696215643229393 0.0
0.003292227540034274 -0.00030956487007623233 0.0
0.003326972401754638 -0.0002811006782871498 0.0
0.0033619939779142402 -0.0002512959265926314 0.0
0.003397727102001005 -0.00021978976982328668 0.0
0.003433709393363872 -0.00018635693710048864 0.0
0.0034703494163720204 -0.00015021543332564572 0.0
0.003509254140322498 -0.00011003872360172789 0.0
0.0035492184069605163 -6.379117581090018e-5 0.0
0.0035999999951892053 -2.705877869388953e-11 0.0
0.003599999989850098 -3.0000755780369114e-11 0.0
0.003599999993060718 -1.9882740286845236e-11 0.0
0.0035999999930914463 -1.744242403850731e-11 0.0
0.003599999993614979 -1.456239044691667e-11 0.0
0.00359999999392364 -1.2488736624784163e-11 0.0
0.0035999999940523387 -1.0937008447004619e-11 0.0
0.0035999999942835786 -9.549340692151241e-12 0.0
0.0035999999943690277 -8.281380927533237e-12 0.0
0.003599999994542937 -7.064712145910415e-12 0.0
0.003599999994780899 -6.0849026269320576e-12 0.0
0.0035999999948588784 -4.8232274824674445e-12 0.0
0.003599999995000412 -3.878019032161011e-12 0.0
0.0035999999951333416 -2.763942443283275e-12 0.0
0.003599999995203616 -1.6942840610470393e-12 0.0
0.003599999995220433 -5.357072305257841e-13 0.0
0.003599999995270691 6.252194481316829e-13 0.0
0.0035999999948364047 1.964947688474944e-12 0.0
0.003599999995185443 3.0596276768030484e-12 0.0
0.0035999999944419468 4.480761718699331e-12 0.0
0.003599999994451513 5.42826636831561e-12 0.0
0.0035999999941919133 6.461974056054812e-12 0.0
0.003599999994399848 6.734327712958304e-12 0.0
0.0035999999943810575 8.992723112319027e-12 0.0
0.003599999997089992 3.922621224577215e-12 0.0
0.0033300033106582905 0.00016992410522686372 0.0
0.0030994725815327267 0.00024666876060586043 0.0
0.0028943686037932693 0.00026774903002312755 0.0
0.0027213511570014976 0.00025775249470368913 0.0
0.0026009188453553047 0.00013162396913108616 0.0
0.002583330456419901 7.601858531862251e-5 0.0
0.002539679329962393 5.287472085401534e-5 0.0
0.0024869640575977984 5.080083372516173e-5 0.0
0.00242617273950126 5.9111721505810735e-5 0.0
0.0023620768740334835 6.878606590713468e-5 0.0
0.0022955839668976196 7.793934433761676e-5 0.0
0.0022276066060782176 8.765623597815687e-5 0.0
0.0021567273263062023 9.547220215317076e-5 0.0
0.0020822839134346832 0.00010081970281690686 0.0
0.002000504460143233 0.00010338846647157443 0.0
0.0019035333599095067 0.0001041509134764353 0.0
0.0016538381995046137 0.0001343801321765878 0.0
0.0015700236184512913 0.00014802345453671879 0.0
0.0015010061763959294 0.00015480183165113827 0.0
0.0014410222268578074 0.00015985853455451477 0.0
0.001386815050814681 0.00016463392899527062 0.0
0.0013379396195601903 0.0001700441667265156 0.0
0.00129414565012634 0.00017736849126187077 0.0
0.001256983244777494 0.00018806417016226646 0.0
0.0012281285585720911 0.000206725695205324 0.0
0.001208527375177243 0.00023675669365669916 0.0
0.0012041852631442481 0.0002902145747646382 0.0
0.001204348895120668 0.0003691102118393949 0.0
0.0010737912835311776 0.0005068087166505449 0.0
0.0008795918160358267 0.00048160307863695653 0.0
0.0006159317172244159 0.00039436379478340614 0.0
0.000327352925883495 0.0002564655315819865 0.0
0.0009438725241050673 -0.0006501419584779448 0.0
0.0025276822282035683 -0.000700578298698433 0.0
0.0012047012876931966 -0.0007363233863474916 0.0
0.0022591182445774716 -0.0007871015598868947 0.0
0.001481145465141234 -0.000794663880758444 0.0
0.001990039292269386 -0.0008209764294571196 0.0
0.0017182608395225874 -0.0008197311342636747 0.0
0.0027553651730734814 -0.0006105318558806503 0.0
0.0007410871136983086 -0.0005688994372830189 0.0
0.0029288710222209343 -0.0005208095951285715 0.0
0.0005758110411064359 -0.0004836267013642121 0.0
5.922245832356474e-5 -1.0690059294807882e-5 0.0
0.0035379410575233435 -9.311478986913605e-6 0.0
0.0019199777929084568 0.00012257252644235815 0.0
0.002198281203274482 0.00011132305756291666 0.0
0.00162550632116334 0.00013745550717289467 0.0
0.0013945030035440707 0.000176146052310296 0.0
0.003109709891298147 -0.0004168556183630831 0.0
0.00042537095577272713 -0.00039073854237012175 0.0
4.197618136849222e-5 -1.914178253039179e-5 0.0
0.003555866388202287 -1.567172342638281e-5 0.0
0.003512196931178574 2.7327947471184597e-6 0.0
7.901324176981922e-5 2.796550629614989e-6 0.0
0.0032498360838059096 -0.0003183250483201836 0.0
0.0003004384593937235 -0.000294556865791703 0.0
0.0023936167738337136 9.107925112747979e-5 0.0
0.0012454311211978076 0.00019483928861277112 0.0
3.184443384645464e-5 -2.053432606081443e-5 0.0
0.0035648124287177593 -1.784382844692545e-5 0.0
0.0013643664922845873 -0.000772885256007906 0.0
0.0015983453874871502 -0.0008098698264101296 0.0
0.0021452998107002593 -0.0008070918799484991 0.0
0.0018408053468907837 -0.0008226123198999706 0.0
0.002373369133313203 -0.0007553874881487571 0.0
0.0026343083529306493 -0.0006635576083139546 0.0
0.0011006976215974166 -0.0007062188917874781 0.0
0.0008429272088465753 -0.0006154325061335 0.0
0.0033503131375556988 -0.00023938561115965625 0.0
0.000210080797618644 -0.00021834400553511933 0.0
0.003487936597302928 2.168618810880368e-5 0.0
0.00010030615842414428 1.6756577823469645e-5 0.0
0.0035707128623809333 -2.0602586542037796e-5 0.0
2.977102662141958e-5 -2.4976273782200618e-5 0.0
0.0025162238199266224 7.778008124180064e-5 0.0
0.0011682508108118268 0.00022785800637284583 0.0
0.0034420608331976487 4.0307094053402204e-5 0.0
0.00014242267504104974 3.370073738866603e-5 0.0
5.0251964858704615e-5 -1.6177223530993785e-5 0.0
0.003546722906715195 -1.3601450183595338e-5 0.0
0.0020593517387244337 0.00012188834737355022 0.0
0.0015079414785801244 0.00016628718278934306 0.0
0.00011672146158305899 -0.0001261956556607414 0.0
0.0034668164279058923 -0.00013517890069013729 0.0
0.002446908858444045 -0.0007345835600505083 0.0
0.0019162330027959367 -0.0008248056291467455 0.0
0.0012893480735744866 -0.0007563110134162613 0.0
0.001020555173329813 -0.0006822511278562204 0.0
0.0020704938950533644 -0.0008149611061141794 0.0
0.0028229440675030383 -0.0005782513737996476 0.0
0.000674714306644257 -0.0005355006851637501 0.0
0.0030039455307131198 -0.0004811665584146181 0.0
0.000508896295778267 -0.00044274032396561487 0.0
0.0003594391700487835 -0.0003416232434333927 0.0
0.0031799820813596677 -0.00036869518005277276 0.0
0.0007301945118500169 0.0002614519032214171 0.0
0.002980601619213401 0.00017390615609563459 0.0
0.00357130920650823 -2.5279594134899373e-5 0.0
2.5908712455631532e-5 -2.561689322951474e-5 0.0
0.001134048250499172 0.0003145677884144989 0.0
0.002621173201425974 0.00011240221842212458 0.0
0.0001651019825871217 5.353330097199485e-5 0.0
0.0034373061957581057 5.025233995255004e-5 0.0
5.108617883194881e-5 -5.658015743586156e-5 0.0
0.0035409100215784695 -6.150646078194724e-5 0.0
0.002795932975531261 0.00018187001208753295 0.0
0.0028480133829406487 0.00015379265256618954 0.0
0.0030725197499346353 0.00012922071432023316 0.0
0.0029424301238037396 0.00013756380550145059 0.0
0.0027680563361650555 0.0001425355628466229 0.0
0.0028304133255791964 0.00014474974899002433 0.0
0.0029978466690558534 0.00012908325326813126 0.0
0.0028934131222983672 0.00013937770997989653 0.0
0.0030514819707921806 0.00011750720224653634 0.0
0.0029557097823163453 0.0001259528919174935 0.0
0.002807606773596176 0.00014440740697163395 0.0
0.0028652572000014147 0.0001292232445773799 0.0
0.002738088727286247 0.0001439838760521215 0.0
0.00278507042575197 0.00012694885858150913 0.0
0.0026696505415884754 0.0001396186916958381 0.0
0.002712180026989156 0.00011911237641063288 0.0
0.001875336420390294 8.089110960708228e-5 0.0
0.0017671110605086652 6.340383330442983e-5 0.0
0.0018505983062976454 5.47950168305464e-5 0.0
0.0017627379230769793 4.220895670160346e-5 0.0
0.0018359786272457135 3.488389475020406e-5 0.0
0.0017602264443539995 2.5161208884387413e-5 0.0
0.0018264740628773104 1.8036884610180963e-5 0.0
0.0017578000292772127 9.502829783960127e-6 0.0
0.0018194949680811873 2.7421975064599235e-6 0.0
0.0017556956199326825 -5.079894436026615e-6 0.0
0.0018141461415832228 -1.1459322672632344e-5 0.0
0.0017539647285112357 -1.883698596270562e-5 0.0
0.001809937425704129 -2.5331174456501486e-5 0.0
0.0017540294967243015 -3.22727772301441e-5 0.0
0.0018065810822934054 -3.8734605482747055e-5 0.0
0.0017527067542928664 -4.5503539757859144e-5 0.0
0.0018034979857893632 -5.186439472562993e-5 0.0
0.0017497231960757677 -5.854165875249104e-5 0.0
0.0018004491396206611 -6.489156805750025e-5 0.0
0.00174804849528141 -7.14372657124924e-5 0.0
0.001797838742005611 -7.789424256829246e-5 0.0
0.0017466079248369853 -8.435122235380474e-5 0.0
0.0017938122804582394 -9.084307951106459e-5 0.0
0.0017448806733504924 -9.735921114667725e-5 0.0
0.001791247251247396 -0.00010391520125975689 0.0
0.0017440841331155157 -0.00011015884861249996 0.0
0.0017889826094132013 -0.00011709551897665087 0.0
0.0017401856467455252 -0.0001225776108748006 0.0
0.0017862118779613469 -0.0001303833742007781 0.0
0.0017271995680151202 -0.00013609361638977752 0.0
0.0017865861280519802 -0.0001441194621141011 0.0
0.0017367176583748694 -0.0001506832575419092 0.0
0.001784027997177872 -0.00015793949022793993 0.0
0.0017368099361932724 -0.00016485572979074242 0.0
0.0017822407533654872 -0.00017216297006404698 0.0
0.0017382111427804417 -0.0001791817495210465 0.0
0.0017802561765383194 -0.00018663255050949674 0.0
0.00173736064071362 -0.000194037880879839 0.0
0.0016977381098641484 3.191493271250483e-6 0.0
0.0017782331520986704 -0.00020151196340535829 0.0
0.001697162823669648 -6.427059002618369e-5 0.0
0.001682709822274378 -0.0001470339857131324 0.0
0.0017330294133656116 -0.00020906318075474537 0.0
0.001775869222076067 -0.00021677567113653637 0.0
0.0017287512350656622 -0.00022502974355807372 0.0
0.0016866566400947965 -0.00021583833586437783 0.0
0.0016812174266197372 -0.00023257292994144436 0.0
0.001771729424212943 -0.00023337824619651837 0.0
0.0018194545395409788 -0.00022453130193182054 0.0
0.0018294116673223239 -0.00015048970961608834 0.0
0.0018155900361634702 -0.00024162183506519863 0.0
0.0018662471869973372 -0.00023111391593264307 0.0
0.0018607088822322477 -0.00024979761114735886 0.0
0.001639583549614469 -0.00022293070049700855 0.0
0.0016358460396145118 -0.0002393279040132073 0.0
0.0019129361564622321 -0.00023835255433029648 0.0
0.0015915593498845872 -0.00022914425144418435 0.0
0.001590535026819353 -0.0002463302973154553 0.0
0.0019082498362088976 -0.0002572699676659315 0.0
0.00195882047551234 -0.0002466861380742826 0.0
0.0015431991833704019 -0.00023543700954004602 0.0
0.0015410399492735336 -0.00025311980941280924 0.0
0.0019552183308652214 -0.000265495083412141 0.0
0.002007205069895077 -0.00025426172303583946 0.0
0.0014950385543088757 -0.00024168063648843073 0.0
0.001492424179663484 -0.0002604010530532695 0.0
0.002003444764099539 -0.0002740574841599368 0.0
0.002056825497445786 -0.00026169985156203844 0.0
0.0014472619411694185 -0.0002469086380326309 0.0
0.0014414732403678315 -0.00026618047942426827 0.0
0.002053689642285568 -0.0002820099298189433 0.0
0.0021073616632377506 -0.00026893288058192616 0.0
0.0013947653090883665 -0.00025209140000129166 0.0
0.0013902293655644476 -0.000272432364687384 0.0
0.0013407969632551757 -0.0002584311298019139 0.0
0.0013451283665923005 -0.00023689980714784666 0.0
0.001995340727529596 -0.00029358119793337965 0.0
0.0021039385453032224 -0.0002900544699750098 0.0
0.0021586814789157274 -0.0002760100169917956 0.0
0.0021629886465580105 -0.00025431219394490514 0.0
0.0018418465552642318 -8.475450341788441e-5 0.0
0.0022163841779839163 -0.00026096293007552365 0.0
0.0022211480236556643 -0.00023843065959564105 0.0
0.002276269022505941 -0.00024432588513710444 0.0
0.0013404357711196146 -0.00028037917120596605 0.0
0.0012888241053867207 -0.00026400438239813847 0.0
0.001388952644787978 -0.0002942695632498672 0.0
0.00215363832311287 -0.00029825417947815724 0.0
0.0012891199819232274 -0.0002864984937218268 0.0
0.0012369209457964085 -0.0002688621982019562 0.0
0.001863515380174818 -3.074600232515922e-5 0.0
0.0012370834454249473 -0.00029085784856564386 0.0
0.0011849679779045359 -0.00027291557931689343 0.0
0.0011853308430346456 -0.00029541796070500044 0.0
0.0011339269837039696 -0.0002758199187667235 0.0
0.0011324431651397447 -0.000253878132414249 0.0
0.0010783599475335359 -0.00025735619953064616 0.0
0.0010776916462368641 -0.00023418715765515205 0.0
0.0011282005822177725 -0.0002979987343363686 0.0
0.0010196237433482277 -0.0002378777007131589 0.0
0.001018536750853643 -0.00021415111971252382 0.0
0.0011861659477131578 -0.00031920079729986915 0.0
0.0011376004685393314 -0.000323645470712965 0.0
0.0009618410274508148 -0.00021597474852787636 0.0
0.0009588323422069992 -0.0001928337993310006 0.0
0.0022825991944985706 -0.00022149257810135764 0.0
0.002339949628068861 -0.00022703418437919557 0.0
0.0011869290982037322 -0.00034326911886798023 0.0
0.0011389993012818189 -0.0003475364006501077 0.0
0.002346959987061383 -0.00020347344945273975 0.0
0.0024070890962601716 -0.00020915004592689043 0.0
0.0023974718508731623 -0.00023498237710764316 0.0
0.0024650614704147976 -0.00021564062119202156 0.0
0.0024564359753951616 -0.00024205451697219016 0.0
0.002524094795504771 -0.00022063336436885489 0.0
0.002518728870955829 -0.00024676474742643044 0.0
0.0025886505940305848 -0.00022257843832113947 0.0
0.0025773471096940895 -0.0002492785974695139 0.0
0.0025940114032082626 -0.00019752309009115566 0.0
0.0026482751573833206 -0.00022542803415073737 0.0
0.002633210381136071 -0.0002519910763276047 0.0
0.001188284243313553 -0.00036778012428832665 0.0
0.000899111887621047 -0.00019403437122063005 0.0
0.0008949732138278539 -0.0001705147125461417 0.0
0.0025681132256463097 -0.00027657936483888696 0.0
0.0026216735678982355 -0.00027880189725594344 0.0
0.0026857110803475744 -0.0002537877459761899 0.0
0.0025611414491192737 -0.0003043380208230637 0.0
0.0011415058096022534 -0.00037217877799012195 0.0
0.002674150155427087 -0.0002800723785896546 0.0
0.002736790294703325 -0.00025437637389461064 0.0
0.0011895554117345862 -0.0003929732611703221 0.0
0.0011436830812977662 -0.0003975245165325559 0.0
0.0010963745398717818 -0.00037590102873013567 0.0
0.002724537385002446 -0.0002801852517938179 0.0
0.002786451062280406 -0.000253523768237507 0.0
0.0011907146719446853 -0.0004189327933386852 0.0
0.0012361074366844646 -0.0004139864760554527 0.0
0.001099096379672348 -0.0004014391054840415 0.0
0.001052193312620981 -0.00037910128735081574 0.0
0.0027720884440444516 -0.0002793252956858562 0.0
0.0028354464409274414 -0.00025155450072568224 0.0
0.0028490986352737477 -0.00022667152712503737 0.0
0.0027099428760370965 -0.0003071705999005448 0.0
0.0028983034711472107 -0.00022379379674137707 0.0
0.00291353178041064 -0.00019960813922991632 0.0
0.0008316494160554987 -0.00017155303638425568 0.0
0.0008308610065710276 -0.0001472777376975625 0.0
0.0009069469808988287 -0.0001476112326349605 0.0
0.0008278371292588446 -0.0001232707978303767 0.0
0.0009011149799470681 -0.00011991773319732937 0.0
0.0008241438599883844 -9.794075834894946e-5 0.0
0.0008956348469621907 -9.315418917519452e-5 0.0
0.0012371472967570361 -0.0004402161196136061 0.0
0.001281447246748414 -0.0004347339735539392 0.0
0.0010552243978960837 -0.0004048331004949947 0.0
0.0010087314634846245 -0.00038171697609609283 0.0
0.002883662880482101 -0.0002486098210421316 0.0
0.0008281817856957721 -7.244076217671783e-5 0.0
0.000896043276402788 -6.635447555547196e-5 0.0
0.0012825187970328302 -0.0004610139504529222 0.0
0.001325785006814708 -0.00045535560884686665 0.0
0.0015472716075929387 -0.000270227228913211 0.0
0.0029460601519195042 -0.00022004963119063526 0.0
0.0018956942815311602 3.0423128287086303e-5 0.0
0.001973601159877341 0.00011253026855442019 0.0
0.001695872053689925 -0.00010333404320443672 0.0
0.0024114976687118917 -0.00018501654120991787 0.0
0.0008224607196553414 -4.485168033390576e-5 0.0
0.0009018986568338976 -3.816660379972048e-5 0.0
0.0010121907009331978 -0.00040762785620070867 0.0
0.0009663378690253741 -0.0003839122506412353 0.0
0.0013274831015717126 -0.0004817890130773587 0.0
0.0013704073484105523 -0.00047582367570762587 0.0
0.002930088811362105 -0.000244579590509172 0.0
0.0007650288019287118 -0.00014835665770738336 0.0
0.0007679698198372114 -0.00017269948285129547 0.0
0.0007431315679000158 -7.536164699697916e-5 0.0
0.0029922892387278977 -0.00021535995352346392 0.0
0.0008224500434589958 -1.8032843904595282e-5 0.0
0.0009027404819691458 -8.792720491998462e-6 0.0
0.0012848686151084071 -0.00048812926391261595 0.0
0.000970418887054235 -0.00041017705865864534 0.0
0.0009247859145786506 -0.00038546264587714115 0.0
0.0023515416029599636 -0.0001798345720104758 0.0
0.002418912379120278 -0.00016060735348581218 0.0
0.0023553335646798604 -0.00015556076453237847 0.0
0.002426526794112811 -0.00013604228336514185 0.0
0.0013714940534618786 -0.0005021685874898892 0.0
0.0014148205701294807 -0.0004951883573953239 0.0
0.0014996412023664785 -0.0002249026305119006 0.0
0.0008222654459332636 8.560764999557587e-6 0.0
0.0009008863278954277 2.01432433338494e-5 0.0
0.002976645272534965 -0.00023917139389319778 0.0
0.002920454114881735 -0.00026639930960689135 0.0
0.0008050236066087524 3.7189463028087686e-5 0.0
0.0008963641082328206 5.0208012130123774e-5 0.0
0.0030369266980679373 -0.00021016039391094773 0.0
0.003045788989545358 -0.00019243904167760988 0.0
0.0008153279984973212 6.44079088450624e-5 0.0
0.0010147333817956314 -0.00043651417182798564 0.0
0.0014151752084691058 -0.0005222672344332686 0.0
0.0014581979587547436 -0.0005141415790062714 0.0
0.0014585116296314579 -0.0004872930211827338 0.0
0.0015018336334899065 -0.0005055874158822317 0.0
0.0015026239913333607 -0.0004790426785981526 0.0
0.001546158237889448 -0.0004965989526445019 0.0
0.0015472735904796385 -0.0004699971437700414 0.0
0.0015914654726016907 -0.0004870515864971929 0.0
0.0015930313484055162 -0.0004605493341853868 0.0
0.0016375830617119738 -0.0004768284157451188 0.0
0.0016359499850502448 -0.0005040311505554461 0.0
0.0016818572179214254 -0.0004930822431025105 0.0
0.0016799421419461938 -0.0005207278942048607 0.0
0.0017256483552735775 -0.0005090247697940043 0.0
0.001723161610455951 -0.0005371648554545931 0.0
0.0017692462598493906 -0.000524627434257151 0.0
0.0016397438074685063 -0.0004505042938285319 0.0
0.0017718653513473348 -0.0004965519572828353 0.0
0.0018160770319622004 -0.0005112396986944787 0.0
0.0018127542158616462 -0.0005402903035812567 0.0
0.00186018936149796 -0.0005261303540823942 0.0
0.0007000133986705078 -0.0001484829813583281 0.0
0.0007027585638239496 -0.00017247434135907235 0.0
0.0009291912684679166 -0.00041180798456111974 0.0
0.0008844457888148124 -0.0003866594348074014 0.0
0.001864152125419218 -0.0004972806747136622 0.0
0.0019082909483348293 -0.0005110398840863365 0.0
0.001903625515681605 -0.0005405225816337113 0.0
0.0019526188534481825 -0.000524425507002405 0.0
0.0006365376277549892 -0.0001476743007394564 0.0
0.0006394488329266421 -0.000170932750978376 0.0
0.002359504968101268 -0.00013030215616818578 0.0
0.0024353843492193506 -0.0001107319400047188 0.0
0.0023660308949921055 -0.00010493829532281085 0.0
0.0030227851602311626 -0.00023234197320950775 0.0
0.0030808241867493805 -0.00020377284925549144 0.0
0.0014583418025528446 -0.0005420552812012361 0.0
0.000981782883041353 -6.471101509994209e-5 0.0
0.0018585259700649335 -0.0002670329024456422 0.0
0.0019471885019228358 -0.0005544795981113406 0.0
0.0019963733167053157 -0.0005374441130284428 0.0
0.0020009943126906783 -0.0005073695745631797 0.0
0.0020456941791265463 -0.0005191799714517665 0.0
0.0019649701507870455 -0.0002267541990573091 0.0
0.0024484032682352557 -8.457262894409626e-5 0.0
0.0025128353740742774 -9.496328588544949e-5 0.0
0.0008989753776563441 8.02468894683751e-5 0.0
0.0008887076188778653 -0.0004127849753577025 0.0
0.0008447996151501353 -0.00038710674330646343 0.0
0.0023745923209649534 -7.85581964042562e-5 0.0
0.0020398437100329105 -0.0005501342628883167 0.0
0.002090015798548904 -0.0005314375382860045 0.0
0.002095893306693471 -0.000500493591833021 0.0
0.00214129650181814 -0.0005120424625572245 0.0
0.0021482497250357876 -0.0004819232247869036 0.0
0.0021929643038615305 -0.0004918595023816754 0.0
0.0021849672638526384 -0.0005223855793007452 0.0
0.0022361413873138447 -0.0005009968118459102 0.0
0.0008137466764356338 8.977839981027235e-5 0.0
0.000575122802128651 -0.00014579628593522074 0.0
0.0005778179369504004 -0.00016790585166545042 0.0
0.0014166591982013946 -0.0005504460647747929 0.0
0.003064598759131168 -0.00022702023299446246 0.0
0.0031229332326685216 -0.00019686740139050103 0.0
0.0022269498597079617 -0.0005317972586394135 0.0
0.0022773264711462744 -0.0005093125770200324 0.0
0.0009024966775152049 0.00010863983475185554 0.0
0.0008496236914730115 -0.0004133241944881697 0.0
0.0008056627043172312 -0.0003866445670218446 0.0
0.0009814227437197403 3.1705284658663884e-5 0.0
0.0028261753118219474 0.00010626730886902834 0.0
0.0014585670252536148 -0.0005707013885397676 0.0
0.0008136562507974598 0.00011281582891424471 0.0
0.0007497902083134633 -2.642928326419564e-6 0.0
0.0031011086522488717 -0.00022605829424284638 0.0
0.0031637134095321476 -0.000189966779832632 0.0
0.003180902557270509 -0.00016741504944386949 0.0
0.0007280100665232592 7.184643765044803e-5 0.0
0.0030401095419509126 -0.00025507274892804107 0.0
0.0005684650384787458 -0.00012365069593504462 0.0
0.00088975352341071 -0.0004377512747393592 0.0
0.0024611053012328055 -5.7519260357483e-5 0.0
0.0023846697662259827 -5.119541168445172e-5 0.0
0.0022012148340014143 -0.0004622597064764366 0.0
0.0008110013114532696 -0.00041352226158260154 0.0
0.0007671064877866281 -0.00038602840729224047 0.0
0.0005156524003773323 -0.00014270443584384106 0.0
0.0005180264737823314 -0.00016332115832159644 0.0
0.0009626621679758111 -0.0003591428459620779 0.0
0.0022668536482585585 -0.0005402582968634627 0.0
0.002316604619631662 -0.0005164000477016664 0.0
0.0007616637284756065 -0.0003597408761354533 0.0
0.0007229198521563965 -0.0003583179624489676 0.0
0.0022199726591160163 -0.000561345135228443 0.0
0.0014184643517538887 -0.0005793754140343959 0.0
0.000729193111162773 -0.00038507379618399367 0.0
0.0006851309344430143 -0.00035657312756566295 0.0
0.001502613081831554 -0.0004536532419270828 0.0
0.003222126234077261 -0.00015915459322690616 0.0
0.003238817999990999 -0.00013940080066565585 0.0
0.003205595206760344 -0.00018100553974724563 0.0
0.002304710563791116 -0.0005471450285989045 0.0
0.0023540959068419423 -0.0005221649952427688 0.0
0.0021548905196670386 -0.0004526270011934755 0.0
0.0022089871078038474 -0.0004335503541784839 0.0
0.0014592680268054078 -0.0005999747965280134 0.0
0.0023666132770973182 -0.000491998684074399 0.0
0.0024042047109511257 -0.0004971529117553742 0.0
0.0004572298944462447 -0.00013753415410208675 0.0
0.00046206580939346393 -0.00015746357731851043 0.0
0.0023909022415738125 -0.0005281519148089054 0.0
0.002440268850458837 -0.0005021614008726703 0.0
0.0006927125129999453 -0.0003838641666496062 0.0
0.0006485537414964359 -0.00035450014482047717 0.0
0.0024741401551679008 -2.9542227118098585e-5 0.0
0.002396858620919052 -2.2813624748645876e-5 0.0
0.0006405324533807774 -0.00032848315584352994 0.0
0.000603778905712374 -0.00032528934754091454 0.0
0.0006116055548779254 -0.00035174165755038326 0.0
0.0005670325664300013 -0.00032169896468706535 0.0
0.003262156737297325 -0.00015023382837710825 0.0
0.0032452653243306216 -0.0001722764675869502 0.0
0.0009022556538217567 0.00013273480441986519 0.0
0.0008058886656817286 0.00013228098385276057 0.0
0.0022964551653507858 -9.804164005689687e-5 0.0
0.00142024890574933 -0.0006089172487988592 0.0
0.0024266267847627455 -0.0005344685977960719 0.0
0.002475134313575882 -0.0005072616742110137 0.0
0.0025989546608832254 0.00013143382791517476 0.0
0.002417567665186002 -0.0004672244229102874 0.0
0.001678282367063373 -0.0005491430577626032 0.0
0.0005579953452678961 -0.0002965484797437414 0.0
0.0005222989684464542 -0.0002916830363997483 0.0
0.0005315568100789671 -0.0003178465479905544 0.0
0.0004866570164224338 -0.00028669528248675817 0.0
0.0004774280472939874 -0.00026206092850968287 0.0
0.000440670693943071 -0.00025604973378582214 0.0
0.0004311615807864073 -0.00023199832361236469 0.0
0.00039384253567920817 -0.00022473772528749982 0.0
0.0003843962830594318 -0.00020228232870241817 0.0
0.0003491440292138917 -0.00019453815566317906 0.0
0.00033913322924105814 -0.00017389968553638605 0.0
0.00035788697777353946 -0.00021633877300922654 0.0
0.000309283535347073 -0.00018140714333922124 0.0
0.00040298625847193736 -0.00013141044974987056 0.0
0.0004014378835339507 -0.00011368194747096659 0.0
0.0003223620921441347 -0.00020693392952715007 0.0
0.0002779041541877599 -0.00017471504080869386 0.0
0.0009908638121623058 0.00012596930300888879 0.0
0.0010671284492398089 -0.00020877519478823442 0.0
0.0021617760340056514 -0.00042437250452020405 0.0
0.002215936765497479 -0.00040577018116003756 0.0
0.0006385896619984409 -0.00019261510935344333 0.0
0.001459951833984979 -0.0006300248407476413 0.0
0.001499276074158696 -0.0006205472111361988 0.0
0.0022635098194430012 -0.00041393122598430655 0.0
0.002270891091544171 -0.0003862826000704093 0.0
0.0033008846904626844 -0.0001405955841331119 0.0
0.0032815803869496564 -0.0001638389417144799 0.0
0.0032270427772734213 -0.00019854378039772466 0.0
0.0023073055542774763 -4.473844763850127e-5 0.0
0.0023185876024452144 -1.6483112418046397e-5 0.0
0.0013797623674361846 -0.0005876474594115138 0.0
0.0013817958999269688 -0.0006172819539758074 0.0
0.0013419152936450336 -0.0005956372121467746 0.0
0.0004977804407162083 -0.0003137172239642329 0.0
0.0024102031435336312 6.447851520977499e-6 0.0
0.0023314461191300353 1.349068249945837e-5 0.0
0.0009620902678043223 -0.00024067877567733085 0.0
0.0024606542297899913 -0.0005408617012160877 0.0
0.0025093543069768984 -0.0005125218353154189 0.0
0.0025244568561044586 -0.00048037087188319003 0.0
0.0025585265799360967 -0.0004844886714128596 0.0
0.0009254830550325765 0.00015591157358675714 0.0
0.0008102436130741547 0.00015043814832318812 0.0
0.0013234509048471945 -0.00043002611463877674 0.0
0.0024134734761784987 -0.0005689120070944141 0.0
0.0030037630873726386 0.00010837063709196638 0.0
0.0025429145436550635 -0.0005189489659240945 0.0
0.0025924921876744195 -0.0004896911494270229 0.0
0.002608230902871951 -0.00045625855696358535 0.0
0.002642734670060473 -0.00046039379292401765 0.0
0.002659353561722543 -0.000427548276497366 0.0
0.002693463011578563 -0.00043076829355024416 0.0
0.0026765232987283625 -0.0004655135479860949 0.0
0.0027267661543182928 -0.00043485861853601705 0.0
0.000288313391717548 -0.00019555409877746696 0.0
0.0002449611125102061 -0.00016296779755949336 0.0
0.00022922595858239917 -0.00014066767112327504 0.0
0.0014998201558290322 -0.0006510432423044392 0.0
0.0015375467546419825 -0.0006423147753230847 0.0
0.0013445119534306223 -0.0006254270116838997 0.0
0.0013047759551226552 -0.000603112831183621 0.0
0.003261128020227906 -0.00019202140638652248 0.0
0.0033149939697136614 -0.00015594091128138984 0.0
0.0025594485814804126 0.00014924203802764248 0.0
0.002492325433786816 0.000141026614347011 0.0
0.0007017720578186027 0.00012552340246714086 0.0
0.0007039971812451231 0.00014087039547925928 0.0
0.0003334214403511957 -0.00023137082927413458 0.0
0.0012361974859649 -0.0003384226765641921 0.0
0.002277932494502079 -0.00015223408150314392 0.0
0.0032082123403719687 -0.0002289487685993698 0.0
0.0009692977129265379 -0.00011129107678939818 0.0
0.002230032789462342 -3.87567858389369e-5 0.0
0.002708602845016102 -0.0004716577564008926 0.0
0.0027587231629620634 -0.00043989482727309326 0.0
0.0027366966858366816 9.554478620093911e-5 0.0
0.0028647665302175785 8.321621451206039e-5 0.0
0.0009153126930001954 0.0001729712284472155 0.0
0.0005199241701737629 -0.00018363267291087387 0.0
0.00034116997186899327 -0.00010591445271557441 0.0
0.0003406721506990808 -8.980371627284801e-5 0.0
0.0005408503821877642 -0.0003455379267472906 0.0
0.002579349194198411 -0.0005262541397767863 0.0
0.0020972727464757908 -0.0003116472488260473 0.0
0.001899694488557406 -0.0005709512347882565 0.0
0.0011942710546101176 -0.0004444757920579236 0.0
0.0002553944172224317 -0.00018343597051569897 0.0
0.0002134798481292753 -0.00015035157404886515 0.0
0.0007366922639004122 -0.0004133188645676248 0.0
0.002319149822394441 -0.00039348503042349446 0.0
0.0023270003749162912 -0.00036612633438092 0.0
0.0013824558400923127 -0.0006481287396032911 0.0
0.002793920904306743 6.946114159983813e-5 0.0
0.0029034298822765013 6.029121736148087e-5 0.0
0.0028371412194144133 4.441248910991856e-5 0.0
0.002943208060119414 3.7122786334814694e-5 0.0
0.003007517958817351 5.142791222803652e-5 0.0
0.0030463504193783963 3.0478773737140725e-5 0.0
0.0029811263148101117 1.417163459608102e-5 0.0
0.0030807903090493893 1.0054268240782663e-5 0.0
0.003016113066338914 -7.633243445383547e-6 0.0
0.0031137142915774007 -8.871509740512262e-6 0.0
0.003050650138399767 -2.8152502111137693e-5 0.0
0.0031440643588325577 -2.604074688241079e-5 0.0
0.0030826371711337175 -4.694546079715672e-5 0.0
0.0031728152767019607 -4.1426341752113424e-5 0.0
0.0029854349201620224 -5.144374343266404e-5 0.0
0.003112826676017231 -6.329618418763971e-5 0.0
0.003197601493840568 -5.533135400476905e-5 0.0
0.003112369322050246 4.2061165933686844e-5 0.0
0.000715864695744737 -0.00033244516206859146 0.0
0.0007011632484607461 -0.0004125302316581996 0.0
0.000743545790671391 -0.0004423156654564746 0.0
0.0031413944202799975 -7.747231209601573e-5 0.0
0.0032219060199524855 -6.68924013445899e-5 0.0
0.0030609526815319143 -8.65454985357603e-5 0.0
0.001941747724855051 -0.0005853723260369199 0.0
0.0018949727852228338 -0.0006018686928169915 0.0
0.0019361126403227994 -0.000616812606069942 0.0
0.001890861022618335 -0.0006334927112576795 0.0
0.001930731039594992 -0.0006489715557749709 0.0
0.0018874745659469532 -0.0006658123290759115 0.0
0.0018476596080615267 -0.0006496941555077676 0.0
0.001845296773400931 -0.0006818683701395632 0.0
0.0018065402059573646 -0.0006650316574952813 0.0
0.0016719047357358692 5.749094692684801e-5 0.0
0.0019260048910971518 -0.0006820594425748134 0.0
0.001968803875855733 -0.0006642363364908204 0.0
0.0016294347262222246 -0.0002572067206795686 0.0
0.001594552302676597 -0.00043487346883507537 0.0
0.0016419558282236638 -0.0004250105981321311 0.0
0.0015961500895982457 -0.00040998262156629033 0.0
0.0016441910584794038 -0.0004003499928802307 0.0
0.0015978678771841428 -0.0003859164388575488 0.0
0.001646479224937521 -0.00037656045594283304 0.0
0.0016930227935838293 -0.00039024562674488115 0.0
0.0016957906252751344 -0.0003667553848959643 0.0
0.0017425696465790301 -0.0003797166226687803 0.0
0.0017456491563611959 -0.0003565145008143738 0.0
0.0017905874451202626 -0.00036868559262800017 0.0
0.0016987163088871527 -0.0003434423297319499 0.0
0.0015997133469095686 -0.0003626486354813354 0.0
0.0015509770264775 -0.00037133876062127807 0.0
0.0017870458591421625 -0.00039284222408248376 0.0
0.0018376306630335736 -0.0003796416379880464 0.0
0.0007094864381825718 -0.00044204149401830885 0.0
0.001691420054268015 -0.0001719767673928037 0.0
0.0016987507790454913 -2.641772159652098e-5 0.0
0.0019130575126726013 -0.00048267673117508383 0.0
0.003317328018447344 -0.00012191188571655752 0.0
0.003354285451607447 -0.00011197275521774299 0.0
0.0018540384976157315 -5.745587961389643e-5 0.0
0.001837271834791376 -0.00010855116437435724 0.0
0.002623893417825068 -0.0004250532638568206 0.0
0.0022661628573730306 -0.00026769286524267345 0.0
0.003295568578822998 -0.00018368215301291056 0.0
0.0033467308226625787 -0.00014771552226524047 0.0
0.0018273109456968658 -0.00017963787632598318 0.0
0.0013077612834002693 -0.0006332312850924194 0.0
0.0012682186168630064 -0.0006103300444681137 0.0
0.0018781271367633566 -2.735880167057981e-6 0.0
0.0018043446313682867 -0.0006972004317103032 0.0
0.0017654637663977646 -0.0006784079381785699 0.0
0.0012652967597379617 -0.0005805974735285033 0.0
0.0012283707837617 -0.0005872515303114522 0.0
0.0012252887043182174 -0.00055784670282522 0.0
0.0011881794940117485 -0.0005638583134890841 0.0
0.0011919997824532285 -0.0005936807931610301 0.0
0.0011519560361480498 -0.0005696261747415147 0.0
0.0011561410239199958 -0.0005998254370112701 0.0
0.0011161317336301397 -0.0005751583223128484 0.0
0.0005091943566762737 -0.0003422959104158104 0.0
0.003370072606943648 -9.604829410216851e-5 0.0
0.0024229757612160858 3.630889261150336e-5 0.0
0.0023422621027937352 4.289130789929925e-5 0.0
0.0010961376441982918 -0.000328220653993603 0.0
0.0008845741246783819 -0.00036152234647351635 0.0
0.0032518682779177424 -3.7517856001874445e-5 0.0
0.0032082925084296852 -1.058158087211754e-5 0.0
0.0015373217418524526 -0.0006726361945189505 0.0
0.0015759678770992068 -0.0006629348120826736 0.0
0.002446216259300861 -0.0005766428245465966 0.0
0.0004712168430227008 -0.00023850472274901697 0.0
0.0020608314852517606 -0.00024231913102272637 0.0
0.002253270627094836 1.9363800646704213e-5 0.0
0.002263195432506913 4.8567402081203155e-5 0.0
0.0026766015969887594 -0.00039691474697838914 0.0
0.002747810731675954 -0.00022888085198698036 0.0
0.002777564116670122 -0.0004046156131811352 0.0
0.0028102099014615375 -0.0004077972968525198 0.0
0.0027894560583294043 -0.0004461361273894301 0.0
0.002841708007125986 -0.00041244996363166205 0.0
0.0016003999487837453 -0.00021291634132343943 0.0
0.0005499553935596975 -0.00037423343670637556 0.0
0.0017910502305229468 -0.000345130997709147 0.0
0.002916183157437612 -7.602823576260881e-6 0.0
0.0015454931649497088 -0.0006128522860304221 0.0
0.000749854073864004 -0.0004718873344541921 0.0
0.0007840559598388969 -0.0004719566248920839 0.0
0.002400606667364346 -0.0006051211660258013 0.0
0.0011843941049090598 -0.0005349987386910925 0.0
0.0021679734365950224 -0.0003971236995674795 0.0
0.00211412454646863 -0.00041461314435438195 0.0
0.0033273414000474038 -0.0001759327929918282 0.0
0.003378326769822046 -0.00013818682915816722 0.0
0.003395716232410359 -0.0001153699980840245 0.0
0.0010257724629642207 0.00017878414708346872 0.0
0.00022399383491298683 -0.00016993917827243818 0.0
0.0001828350914464927 -0.00013569879725098432 0.0
0.00017671421434569139 -0.00012127959940187488 0.0
0.0024552801955655848 0.00015609419722862464 0.0
0.002517265408808457 0.00015899786433217262 0.0
0.002390655846028959 0.000148166123961679 0.0
0.0025519724019184334 -3.6520214944847676e-5 0.0
0.0031690307465614947 -8.821166495263339e-5 0.0
0.0032479167643789204 -7.529065592029515e-5 0.0
0.0012716787969795193 -0.0006408696476638033 0.0
0.0024971421726208967 -0.00014080331533701808 0.0
0.0005936001878799122 0.00011418536164422663 0.0
0.0005896904525136703 0.0001256228982329366 0.0
0.0007076666450374827 0.0001539974805002443 0.0
0.0005825615773527769 0.0001342664330961914 0.0
0.0007487337660236476 0.00017372902987949822 0.0
0.001763703881963731 -0.0006458143368936367 0.0
0.0011111096140639714 -0.0005454776375134272 0.0
0.0010762125489451788 -0.0005504460056173423 0.0
0.0010810880729597734 -0.0005805174526990753 0.0
0.001041577886110146 -0.0005552859718305533 0.0
0.0028611860811401687 -0.000376053015014969 0.0
0.002892604260951905 -0.00037972801663355735 0.0
0.002873201774218428 -0.00041804612556460655 0.0
0.0029229616483533766 -0.000384298420539655 0.0
0.0022773254297397795 -0.00035916232407385814 0.0
0.002334207617770528 -0.00033963282482516805 0.0
0.0019636929499840298 -0.0006978323194543818 0.0
0.0020056309864929745 -0.0006790747984187759 0.0
0.0015525660153533182 -0.00034833977273360944 0.0
0.0015035919319470032 -0.000356450383764612 0.0
0.0014952979143446302 -0.0006831064287508529 0.0
0.0010465405936868975 -0.0005852300462767095 0.0
0.0010077753658595096 -0.0005597896340305238 0.0
0.003173740711208731 -0.00023449385965658518 0.0
0.003154550187732039 -0.0002673039112212328 0.0
0.0031214733873900853 -0.0002712527012066685 0.0
0.003107048659188662 -0.00030272174192491445 0.0
0.0015753683153150828 -0.0006957491338881366 0.0
0.0002623168162923131 -0.0002036340629989353 0.0
0.0003774766389512165 -0.000182207693877434 0.0
0.0003269050987923101 -0.0001535668833339882 0.0
0.0002780891808366469 -8.144096832342294e-5 0.0
0.0002742481808012669 -6.687577612221296e-5 0.0
0.0003408834790163209 -7.348059573755626e-5 0.0
0.00027188944513032717 -5.252729102475799e-5 0.0
0.0003412170413188408 -5.662614323910589e-5 0.0
0.00026988997252698705 -3.81181789470451e-5 0.0
0.00034281954423853815 -3.9410186891485405e-5 0.0
0.0031881204011079537 -0.0002627987563784409 0.0
0.0010350677748081935 -0.0005261302370755044 0.0
0.002639817459982361 -0.000396253193459911 0.0
0.002367636047828003 -0.0005953594580495436 0.0
0.0023559804981029466 -0.0006332404436326238 0.0
0.0023236737793198153 -0.0006229344967475728 0.0
0.0017643487238220108 -0.0007113726150902747 0.0
0.00248598208255559 2.5731620307463647e-5 0.0
0.0029037708109918257 -0.0004243059171307126 0.0
0.0034273388444528512 -0.00010398373762072326 0.0
0.003409061282600102 -0.00012745895296942733 0.0
0.0010144310287170588 0.0001912128805453607 0.0
0.0024142738898213388 6.269539270301623e-5 0.0
0.00186796122833466 -0.000469541297157238 0.0
0.0019166305060540516 -0.00045529454659070344 0.0
0.0018445668692648012 -0.0007152583944202737 0.0
0.001725787127637082 -0.0006917832159754263 0.0
0.0007763284925781145 -0.00020034181286734276 0.0
0.0032975068734208586 -5.6214188687209365e-5 0.0
0.003321742893955723 -6.205520177451275e-5 0.0
0.0032712720565022096 -8.183628402700373e-5 0.0
0.0033422805280043984 -6.709774966004071e-5 0.0
0.0027561774205175924 -0.0003056619056160787 0.0
0.0020788027485578076 -0.0005638443819759531 0.0
0.0021196414007184313 -0.00038804981089830435 0.0
0.001546946749703903 -0.0005243317071461496 0.0
0.002223590889970052 -0.00021599824190607093 0.0
0.0023756236026997485 -0.00037251370578536623 0.0
0.0023786950045909688 -0.0004631100220295287 0.0
0.002430607947275273 -0.00043868854993260186 0.0
0.0024087676673801768 0.00016084897855809087 0.0
0.002484520958180415 0.00015859062318602452 0.0
0.0007896607327673734 -0.0005017808165740497 0.0
0.000822353901370141 -0.0005008624810744787 0.0
0.0002685224035021546 -2.3574877648165024e-5 0.0
0.00034195949955675536 -2.200074135926172e-5 0.0
0.00041829369071870004 -3.867605333314265e-5 0.0
0.00042026223146054883 -1.8087635441602096e-5 0.0
0.0003432574253524348 -4.9807447368127324e-6 0.0
0.00042539984625875364 2.125262761338089e-6 0.0
0.00034641147562234503 1.127276895707435e-5 0.0
0.0004334055880123058 2.191087244343949e-5 0.0
0.00035003433311442145 2.660951795795356e-5 0.0
0.00019379514478215593 -0.00015512685376736215 0.0
0.0020660229413196835 -0.0004044339472710796 0.0
0.00015383502370404915 -0.00012038484317758043 0.0
0.0007173665340234693 -0.0004721707595474093 0.0
0.003407685925715422 -8.500668526952783e-5 0.0
0.0016872586875351355 -0.00043991765182706 0.0
0.002176347069209056 2.4559610959683012e-5 0.0
0.002190184607798073 5.573853053924233e-5 0.0
0.00044092333260956946 4.099892185425244e-5 0.0
0.000519888413147868 -0.00037183387108077534 0.0
0.00047975117260611315 -0.00033917628482662816 0.0
0.0010863921583383947 -0.0006164694074983759 0.0
0.0024282856429964613 -0.0006162823637835573 0.0
0.001310505410280311 -0.0006643342149623528 0.0
0.0029529301382993736 -0.0003892364280435262 0.0
0.0034441262899371793 -8.54337546664343e-5 0.0
0.0015023395824255085 -0.0003797913349858222 0.0
0.0014552064580596639 -0.0003640987305235785 0.0
0.0014541539728249813 -0.0003878527410101058 0.0
0.0011122360685612903 0.00019325593802394588 0.0
0.0014097646682117992 -0.00037146346784585184 0.0
0.00028732890990621293 -9.765025332838026e-5 0.0
0.001999855292488483 -0.0007135208900590997 0.0
0.00204171886543689 -0.0006936569087882147 0.0
0.0020483624698203863 -0.000659498134943268 0.0
0.0020838406163364567 -0.0006729831186872077 0.0
0.0024701912458441615 -0.00044220465358201546 0.0
0.0024841822278002016 -0.0004135139935759382 0.0
0.0034214581165205133 -7.238956815128957e-5 0.0
0.003382657608929698 -8.288343822286876e-5 0.0
0.002290124308981306 8.203211910341748e-5 0.0
0.0022062378314311585 8.955888407832155e-5 0.0
0.0006777967610714603 -0.0004419468527098141 0.0
0.0010129608422440675 -0.000589942968829699 0.0
0.0009749190363097122 -0.0005641639588770693 0.0
0.001765455872302213 -0.000251419454877468 0.0
0.0028552670839180317 -0.0004592076983335997 0.0
0.0003552273677478986 4.103411714747656e-5 0.0
0.0009687599451400413 -0.0005339355147404872 0.0
0.0020762994024050257 -0.0007079721788863778 0.0
0.0021175513543549595 -0.0006860596191295425 0.0
0.002070385795406328 -0.00037914416403405797 0.0
0.002017763839229113 -0.0003938994375804414 0.0
0.0020217141838659823 -0.0003693817808706801 0.0
0.0018666648377963688 -0.00021542136225461024 0.0
0.00028375838408867157 -0.00014319425503712605 0.0
0.00016476716577317537 -0.00013917668997971016 0.0
0.002091927473201628 -0.0006390734012704139 0.0
0.002149249671937631 -0.0003206798606640953 0.0
0.0017254317485469522 -0.0007250685495820441 0.0
0.0007021519351764484 -0.0001248432344590368 0.0
0.0012386682979608236 -0.0002485750938919199 0.0
0.0005591008415678971 -0.00040530591005401425 0.0
0.002972486630942021 -0.00035125268837866156 0.0
0.0007578732249389615 -0.0003345617699381241 0.0
0.0007093568316334177 -0.00030717070591821034 0.0
0.0007551069758328919 -0.00030973070928091344 0.0
0.0007047163445481516 -0.00028266835852077706 0.0
0.0007517994662832057 -0.00028524506757150194 0.0
0.0006585366746354567 -0.00027952423945482664 0.0
0.00231271984213543 -0.00066108786944768 0.0
0.0022832775705105553 -0.0006497579185792522 0.0
0.00047459184666845183 9.619154085985346e-5 0.0
0.0017647106155127316 -0.0007446466958423926 0.0
0.0017205394267966734 -0.000566084193096096 0.0
0.0016764602217087107 -0.0005781596348666436 0.0
0.000828509002094161 -0.0005312833774502739 0.0
0.0002225118876464085 -7.206413945225284e-5 0.0
0.0002360459679135211 -8.94109653568085e-5 0.0
0.0031943249068985455 -0.00014828938780032212 0.0
0.003253650602889768 -0.0001218642249231714 0.0
0.000497500986033807 -3.538122285093934e-5 0.0
0.0008606514007959825 -0.000529167838084269 0.0
0.0008567215569404312 -0.0005012456361131531 0.0
0.0008667549641405962 -0.0005600591803662311 0.0
0.0007970269688738271 -0.0005328915418659129 0.0
0.000598304244275109 0.00014918517866586143 0.0
0.0013392730506611877 -0.0005666958893207046 0.0
0.002060812330757569 -0.00043141989484952163 0.0
0.003205565297706173 -0.00013078558882149215 0.0
0.00195899624402478 -0.0007325910301486513 0.0
0.001274465368044741 -0.0006724743223755898 0.0
0.003456053344067903 -9.285000966155592e-5 0.0
0.0034374644618990658 -0.00011701089909793207 0.0
0.0011298012851800655 0.0001806299675109484 0.0
0.0009811931652216389 -0.0005952612840777688 0.0
0.002283000752535333 -0.00033191138337004133 0.0
0.0023447038024101475 -0.00031276624310848996 0.0
0.00037096412344697686 -0.00016286848647513436 0.0
0.0004907683722132214 -0.0003688045163518039 0.0
0.0004518694943187263 -0.00033612517600854286 0.0
0.0004401039951791432 -0.00030762167708008324 0.0
0.0006861258647560265 -0.00047243620304569453 0.0
0.00012590045657531222 -0.00010386943340118772 0.0
0.00011733531488667645 -8.991090803102395e-5 0.0
0.0021090319277359544 -0.0007220082983014174 0.0
0.0021492649167385775 -0.000698976531770302 0.0
0.0021575106775693557 -0.0006617899371815193 0.0
0.0029124883493980907 -0.0003446623234843813 0.0
0.0028798097323788833 -0.0003430166454993364 0.0
0.002884558563252929 -0.0004673812246083718 0.0
0.000653231648476851 -0.0002557250791097329 0.0
0.0006081181314956082 -0.00025286389371158584 0.0
0.0023946100100914907 -0.00031927572189589657 0.0
0.0033892183672439907 -4.9287966762892564e-5 0.0
0.0034073691882008745 -5.2707405545710764e-5 0.0
0.0034288561045364135 -6.324002441782625e-5 0.0
0.0033813894237668565 -0.00016468723882517687 0.0
0.0002043220530965913 -0.00017675416072657048 0.0
0.0022188046961983308 -6.316694416593436e-5 0.0
0.0021479283565433737 -5.831187924174432e-5 0.0
0.002137176735610625 -7.967217281740225e-5 0.0
0.0020703037985483714 -7.558174417330714e-5 0.0
0.002063958657797458 -9.590691303677204e-5 0.0
0.0020747999166603795 -5.578819082468834e-5 0.0
0.0018715449973837838 -0.0004427265400136194 0.0
0.0015048513490624991 -0.0003339238950063889 0.0
0.001554397767939016 -0.0003260769234563129 0.0
0.0004628772945836784 -0.00036560578632488516 0.0
0.0004244568740077251 -0.0003319163348701107 0.0
0.003069906340208658 6.0900563179124764e-5 0.0
0.003177332773251875 4.9403656583245335e-5 0.0
0.003219879263353217 3.1328826831503095e-5 0.0
0.0032834552293926197 3.663076267149486e-5 0.0
0.0032562522465939604 5.1775312982942865e-5 0.0
0.0016886584616247564 -0.0007057942473540262 0.0
0.001688429218821466 -0.0006744334317805732 0.0
0.0016875805172616137 -0.0007384272920460164 0.0
0.0020995305312976353 2.826353450190471e-5 0.0
0.002088517133854683 2.3659571356508003e-6 0.0
0.0004981864541814472 -5.818646953190338e-5 0.0
0.00026166668830989527 2.5361010923202453e-5 0.0
0.0022709985243720273 -0.0006884611855285598 0.0
0.0005928832364630555 0.0001008474256232822 0.0
0.0023103354240168973 -0.00042141598098642053 0.0
0.002139292429140287 -0.00010021281964008715 0.0
0.0020579935611250316 -0.00011579590312057989 0.0
0.0021197943658988155 -0.00012228398357592258 0.0
0.0020517041787883866 -0.0001353501059666733 0.0
0.0021100588184197354 -0.00014225090544648592 0.0
0.0020457603590002863 -0.00015501013380482962 0.0
0.0021023407474049815 -0.00016219668543916393 0.0
0.0020402009019243796 -0.00017495436537323924 0.0
0.002097632774526428 -0.00018234878549163114 0.0
0.0019899738169662264 -0.00012830688373655932 0.0
0.0019835785122546416 -0.00016728553539646984 0.0
0.002344003197627927 -0.0006728552370304882 0.0
0.0034673985456483655 -5.741118061959635e-5 0.0
0.0012227062442097183 -0.000529440339190483 0.0
0.0011801988615307883 -0.0005076074803257911 0.0
0.0032751429346037793 -0.0002163594172218739 0.0
0.0014129401587206329 -0.0003514828780522847 0.0
0.002000758864311659 -9.004459156884693e-5 0.0
0.0007475841456362677 0.00018925913351264782 0.0
0.00020846942254844803 -4.6521346873011906e-5 0.0
0.0012163895507386825 0.00019295020775862207 0.0
0.001224276543882437 0.00017865978027147396 0.0
0.0026809759834395424 7.388019742317426e-5 0.0
0.0033063041346035145 -0.0002095850566960651 0.0
0.003256427912910408 -0.00025184843370045645 0.0
0.001407454123076547 -0.00039531150209199854 0.0
0.0013674779590906443 -0.00037517712675756904 0.0
0.0005895622689893109 -0.0003826665632885587 0.0
0.00013682611075719337 -0.0001217989210301869 0.0
0.0001677414101077144 -6.017195547486159e-5 0.0
0.00017361858449148356 -7.150566323622107e-5 0.0
9.87629022488761e-5 -8.5957193460291e-5 0.0
0.0024422339506994786 -0.0004105774779136579 0.0
0.0024970834903082495 -0.00038611013080152293 0.0
0.0025397993622465285 -0.00038828891517043746 0.0
0.002552336063772255 -0.0003608656749610067 0.0
0.0019795497022706914 -0.0001861970044853135 0.0
0.0008875444116479357 0.00020664671632089886 0.0
0.0011190700334349213 0.00020293421574468052 0.0
0.0019696332781281426 -0.00038305504533876837 0.0
0.0019740450594742656 -0.00035872224163999676 0.0
0.001507281750387341 -0.00031297530716676463 0.0
0.0012881096740988529 -0.000309584154265712 0.0
0.001313333710225159 -0.000696399144280669 0.0
0.0026604936729723305 -0.0005030985276477417 0.0
0.0026911266043891727 -0.0005113943273342519 0.0
0.0026452422679514877 -0.0005433665975745374 0.0
0.0026750131910288446 -0.0005538347906463331 0.0
0.002630754685117543 -0.0005859610091161884 0.0
0.0026008610822810837 -0.000575250795888505 0.0
0.0025250247971571097 -0.0005622816425240177 0.0
0.0022903069882594202 -0.0006126090541691202 0.0
0.0024257067861793774 0.00012796582232939423 0.0
0.001853475587404627 -0.0005867467011609442 0.0
0.0005149075772490594 1.2202285887886953e-5 0.0
0.003415886408658122 -0.00014807418751717325 0.0
0.003463365054665507 -0.00010619694257343013 0.0
0.0027204074086191747 -0.0005208728032784374 0.0
0.0027049199218808725 -0.0005641065154413146 0.0
0.0027486928299156133 -0.0005312497783217865 0.0
0.001348167489675172 -0.0006879213599753302 0.0
0.0016346858396038394 -0.0005606255256622687 0.0
0.0016343520030975276 -0.0005891575625302907 0.0
0.001674925747160712 -0.0006077445804377796 0.0
0.001106540665699625 -0.00043202564091526313 0.0
0.001592717696815045 -0.0005709243465362568 0.0
0.0020558081920999693 -0.000627103131395035 0.0
0.002933504448509572 -0.0003120675166172051 0.0
0.003001811951850959 -0.00035459975239096944 0.0
0.0029817748182367322 -0.0003948992494923756 0.0
0.0030284853252430205 -0.0003141092719930812 0.0
0.00041837497070257355 -7.833560027109527e-5 0.0
0.0011960593096022724 -0.0006244115952266186 0.0
0.0011611105240228658 -0.0006310896198287048 0.0
0.0011998414831348489 -0.0006558669592703933 0.0
0.0011665045828547797 -0.0006630120712426128 0.0
0.002594980386713713 -0.00036187798186382574 0.0
0.0007258458508785621 -0.000503451370343925 0.0
0.0006488462931573459 -0.000442354526662054 0.0
0.003359901262168761 -7.220570688436606e-5 0.0
0.0001990799198493907 -2.2970359078102713e-5 0.0
0.00019811039442449414 -1.2017763255929698e-5 0.0
0.002240310573421776 -0.0006716811766887377 0.0
0.0022340093622690974 -0.0007137708572441889 0.0
0.001822220031276478 -0.00045615200565950914 0.0
0.0033251500684945952 2.1033734034918118e-5 0.0
0.0006565903925776637 -0.0004725844886449821 0.0
0.0026889477566860993 0.000144044186552359 0.0
0.003136580693677458 -0.00024041814958053866 0.0
0.003165680630787426 0.0001010188716426355 0.0
0.0032015356253525533 8.949570846491749e-5 0.0
0.00250930495091952 -0.0003593295199937428 0.0
0.002694322770959056 -0.0003686254540051479 0.0
0.0027315001778581006 -0.0003685166425265022 0.0
0.002396828765020521 0.00014966299896856285 0.0
0.002467538276045939 0.00014475680817125454 0.0
0.0025590396582888825 0.0001551130917473886 0.0
0.002068235433192984 -0.0007442869639479035 0.0
0.0010164815930678354 -0.0006205643285549942 0.0
0.0015489386050012107 -0.00041942608494756404 0.0
0.002226345788206907 -0.00035221717298351395 0.0
0.0019602816105435393 -0.0004668036139025433 0.0
0.001994130607962589 -0.0007492388324474882 0.0
0.0008974402701360365 -0.0005570001984448848 0.0
0.0011424378006170898 -0.0005119141133709839 0.0
0.0004681584745509153 -0.00017846206930868195 0.0
0.0033708731630152666 2.431971508655112e-5 0.0
0.0025880145165713023 -0.0004240574305075953 0.0
0.00031852692662118556 -0.00013592816801208802 0.0
0.0008889615852698263 0.0002270811978102592 0.0
0.0019823844150087112 -0.0005995713363673601 0.0
0.0025867994955200394 -0.0006183646964612812 0.0
0.002555375887269097 -0.0006071867882546286 0.0
0.002287705161039359 -0.0004791583788055656 0.0
0.0024018836429988725 -0.0002935078638298342 0.0
0.0010497964788578045 -0.0003550295593025377 0.0
0.0016335146465500886 -0.0006234958394754048 0.0
0.00220381500810454 -0.00030596777734707455 0.0
0.0011378827503909562 -0.0004848340453860809 0.0
0.0010995283390879155 -0.0004883312797872084 0.0
0.0009034629675998198 -0.0005884245030824552 0.0
0.0005763369411024047 -5.577222407350098e-5 0.0
0.0005795706486148918 -3.142503551282218e-5 0.0
0.0002671150601685773 3.5902892328602606e-5 0.0
0.0003668821560929686 5.5407809046489586e-5 0.0
0.002837997610782653 -0.0005022827255297577 0.0
0.0004212823773901639 -0.00019083020675591647 0.0
0.0006139523417140883 -0.0002766827115313567 0.0
0.0005636178818810618 -0.00024906153115498926 0.0
0.002994427859628926 -0.0003153078150978487 0.0
0.0015028508742187983 -0.0005619547549594924 0.0
0.0019199028329134637 -0.0004276805710555034 0.0
0.0023191699365391516 0.0001316384354392029 0.0
0.002297258047933304 0.00015161952993838517 0.0
0.0022297793318722006 0.00013878730157869311 0.0
0.002208417353902707 0.00015218347138434257 0.0
0.002269568489043705 0.00015711262753331605 0.0
0.002569842154055626 -6.131977594017556e-6 0.0
0.0026441986712226273 -1.6423105969174206e-5 0.0
0.0026667950659003555 1.2681856359656877e-5 0.0
0.0027350092112328264 1.107387972542944e-6 0.0
0.0027135979875250265 -2.7880902465997417e-5 0.0
0.00016029804117149386 -4.905225546307194e-5 0.0
0.002609292928914773 -0.0003356525026067392 0.0
0.00043674434283739436 0.00010562245203308643 0.0
0.00046028293584023144 0.00012155837931930165 0.0
0.002140249454876408 -0.0007359704266484493 0.0
0.00012829960616833058 -1.0768550533443227e-5 0.0
0.00285971475825763 -0.00020253959886710197 0.0
0.002926831652322936 -0.00017608612329380927 0.0
0.0028777046171462365 -0.00017488091429354388 0.0
0.002981876317420798 -0.0001726576743895446 0.0
0.002995558237295297 -0.00014993308763412748 0.0
0.003051632279658181 -0.00014681160901824702 0.0
0.0008032312216860851 -0.00031129986274453295 0.0
0.0008021409083977873 -0.00028740605193865995 0.0
0.0007480683974152413 -0.0002610969973322989 0.0
0.0008002263226225165 -0.00026387353357917837 0.0
0.0008546423616490371 -0.00028922837473923784 0.0
0.0008534471852854554 -0.0002656070891685063 0.0
0.000907209075879565 -0.0002899435891845503 0.0
0.000987501067686102 -0.000625394466604867 0.0
0.0009064503057811555 -0.0002657332134403985 0.0
0.0009600716555114288 -0.0002899328898161561 0.0
0.0002650145333438506 2.8031446035593666e-6 0.0
0.0005747544446164036 -7.970734482033025e-5 0.0
0.0009586316304880512 -0.00031327608855678964 0.0
0.0007504066781203339 -0.00024003602747200606 0.0
0.002898883340716923 -0.0003126798159770625 0.0
0.0028465369023806197 -0.0003426925461074905 0.0
0.0016521044055350645 -0.0007198809278255898 0.0
0.0016507327699916623 -0.0007515957784012381 0.0
0.0021455762433981603 0.00013974209403689385 0.0
0.0011493654899646477 0.00016193095418075607 0.0
0.0012377045829767102 0.00015687489906448862 0.0
0.0013078905206447447 0.00017277846106829184 0.0
0.0013211670420328558 0.0001466202613230589 0.0
0.0012523698343237428 0.00012858523125670982 0.0
0.0013347683354220374 0.00011160209873530164 0.0
0.0012675132223583271 9.58496882530858e-5 0.0
0.0013505318743561525 7.433082816131062e-5 0.0
0.0012822883883117043 6.290491656112316e-5 0.0
0.0013783654462346652 3.885027873219424e-5 0.0
0.0012951700853962352 3.218333900413749e-5 0.0
0.001375864446770652 1.0117628177053989e-5 0.0
0.0013035607758581811 4.4942469056153105e-6 0.0
0.0013817391482787236 -1.5928052581543934e-5 0.0
0.0013152910311404907 -2.2063540611043574e-5 0.0
0.0013894993656437405 -4.055901470678603e-5 0.0
0.0013233383597629485 -4.606062113127621e-5 0.0
0.0013930637068122248 -6.281323396186472e-5 0.0
0.0013298494564048253 -6.818378335505222e-5 0.0
0.0013968432713039255 -8.362959238735737e-5 0.0
0.0013349456480153917 -8.93456923910562e-5 0.0
0.0013994685898445376 -0.00010404331196872245 0.0
0.0013375874523898987 -0.00010982474673491267 0.0
0.0014013227664597628 -0.00012347176691800374 0.0
0.0013399530675182497 -0.0001304771695857119 0.0
0.0012758757291878398 -0.00011517556133430908 0.0
0.0012787949960309565 -0.00013671715795135432 0.0
0.0014076299760882305 -0.00014498272475045994 0.0
0.0012621426529527036 -5.1317968244390606e-5 0.0
0.0014613506417272843 -0.0001159084559316566 0.0
0.0014642389378054566 -7.874133346497298e-5 0.0
0.0012033493761975228 8.173388690858046e-5 0.0
0.001455356394277899 -3.429266365384996e-5 0.0
0.0012135157390275955 -0.00012044901244828168 0.0
0.0012177645702999378 -0.0001423770629491176 0.0
0.0012817860544316806 -0.00015849914124326157 0.0
0.001221861099510778 -0.00016441325150501408 0.0
0.0012377313114726065 -2.014552893950118e-6 0.0
0.001455110966219283 1.1492500810216683e-5 0.0
0.0012102956181089936 -9.833226777863833e-5 0.0
0.001420599067466294 8.746684781356877e-5 0.0
0.001284962620126193 -0.00018020296414667045 0.0
0.0012254830050325636 -0.0001864608436296966 0.0
0.0011624581149541138 -0.00016987469576330844 0.0
0.0011457002037247952 -0.00010359523590133327 0.0
0.001139516684202862 -7.950906392998034e-5 0.0
0.0013447979914185094 -0.00017332375791490333 0.0
0.0013460150367576107 -0.000194633857701933 0.0
0.0014041861614115837 -0.00018755266635879332 0.0
0.0013918583430626887 0.00016061436260595454 0.0
0.001384270433868148 0.00017865762601860006 0.0
0.0011683633398061482 -0.0001925940010513886 0.0
0.0011039705563736537 -0.00017523125959316137 0.0
0.0010994265467750503 -0.00015300244402925942 0.0
0.0010375169539714962 -0.00015718558394140988 0.0
0.0019548282081030877 -0.0007679352672953963 0.0
0.001919995971265766 -0.000750621248324374 0.0
0.003286627633657154 -0.00024561940456831703 0.0
0.0020999413797008993 -0.000606606416998357 0.0
0.0021362525598461737 -0.0006181408053479213 0.0
0.0012136803078683347 -0.0005011281109913226 0.0
0.0012565641098434936 -0.0005221048888835833 0.0
0.002932952951472993 9.207221906650719e-5 0.0
0.0021241421088169458 -0.0003621518850662857 0.0
0.0012304753940696497 -0.000208127022382695 0.0
0.0009320009376783486 -0.0005367197324385873 0.0
0.000929445073279865 -0.0005080799086592155 0.0
0.0009630238722985678 -0.0005052243007244096 0.0
0.00235017128305093 -0.0002873088330346277 0.0
0.0021712682688949047 -0.00013062409885049802 0.0
0.0014543922946731668 -0.0004123110157463655 0.0
0.0014087616850001123 -0.0004202344769980261 0.0
0.0020121702287302606 6.077001333623796e-6 0.0
0.0020066234780347645 -1.5343925926322023e-5 0.0
0.0020714573629998876 -1.951141798004671e-5 0.0
0.001995337031276407 -3.772157353828894e-5 0.0
0.0020225457938333412 2.904147331306679e-5 0.0
0.0021585267759685477 -0.00016985647528081055 0.0
0.002154814928857032 -0.00018994954630506373 0.0
0.0020880120566474157 -0.00020248972640000742 0.0
0.0015569336181305165 -0.0003050964042949454 0.0
0.001604527239264009 -0.0003178432166742463 0.0
0.0016076606353458399 -0.00029762840048920346 0.0
0.0016545059324450345 -0.00030918359666928227 0.0
0.0016576066964727747 -0.0002893459685957484 0.0
0.0017043670896188612 -0.0003002766026175107 0.0
0.0017077388469625488 -0.0002808868874895277 0.0
0.0017564689296033357 -0.0002910336231102029 0.0
0.00175184042673214 -0.00031141403448485734 0.0
0.0018050657385482146 -0.00029877828250654423 0.0
0.002028389602896336 -0.0003464569173545652 0.0
0.0019782067990508564 -0.0003358945527935274 0.0
0.0019259833490751694 -0.0003482104566928393 0.0
0.0019294104664499007 -0.0003259940573365965 0.0
0.00036447791063742537 -0.00014456474220894602 0.0
0.0004366490230637627 -0.00036196804921810117 0.0
0.0003988860033707763 -0.00032728374821082 0.0
0.0003871760106872247 -0.00029752839949310247 0.0
0.000360479421077565 -0.00029142048128684585 0.0
0.0018253285881755135 -0.0004300031158594398 0.0
0.0024529755814552577 -0.0002979612042803546 0.0
0.002440649779671638 -0.0003252837616964246 0.0
0.000910447554727694 0.00018526459653040578 0.0
0.0019261087594070576 -0.00017862543395671393 0.0
0.0019279993548270318 -0.00016189345239360533 0.0
0.0020078474350125834 0.00013149151375041002 0.0
0.0034166875498431136 -9.378261645913144e-5 0.0
0.003461263585098443 -6.956956602587363e-5 0.0
0.0034918934177046784 -5.7957488922654743e-5 0.0
0.00011973246890686753 -4.7306513545555904e-5 0.0
0.0001227718250358779 -5.52861802753183e-5 0.0
0.0001745495853260286 -8.105745658072854e-5 0.0
0.00012943224412539394 -6.506075894113364e-5 0.0
0.0001779102954375784 -9.204841678237178e-5 0.0
0.00013405389523111463 -7.459025998314343e-5 0.0
8.21921624077964e-5 -4.494598968409862e-5 0.0
0.001776354575894513 -0.00044261855653281943 0.0
0.0008549576057317657 -0.00024289170975260732 0.0
0.000502905218485261 -0.0003994239492704479 0.0
0.0014033246965389824 -0.00020716160211927214 0.0
0.0032461946607298267 -0.00028334586604842265 0.0
0.003213788438940789 -0.00029528035433353845 0.0
0.00274901475210542 -0.0003403089998380742 0.0
0.0027985763262164125 -0.00033426877867188514 0.0
0.002810808291967604 -0.0003063031121438661 0.0
0.00017145341858534581 1.951163895020812e-5 0.0
0.0012793822105649267 -0.0007047936413141448 0.0
0.0008741108123402423 -0.0005923391992828553 0.0
0.000110056027062282 -0.00010341283129763314 0.0
0.0001508438677224927 -0.00014666675196098398 0.0
0.0006965383376690351 -0.00023704532024240447 0.0
0.0021918629357334817 0.0001492283735873523 0.0
0.00226150367399096 0.00014817483051730835 0.0
0.002652028250223345 -0.0003699440905477136 0.0
0.0027659805755531164 -0.0003694977193821544 0.0
0.0012046533383195822 -0.0006870620541525606 0.0
0.0013495964672168845 -0.0007188319083464774 0.0
0.0013847139314878132 -0.0007110455296481317 0.0
0.003029376651107681 -0.00035952977531573266 0.0
0.003009357398724418 -0.00040110946411846303 0.0
0.0029609010839510056 -0.00044376015077679374 0.0
0.003266637872973163 -0.00010599831509665398 0.0
0.0032181151126300343 -0.00011399361223438857 0.0
0.0031558198678201393 -0.00013813046297972637 0.0
0.00316378137325845 -0.00012120480401459621 0.0
0.0005942825985109025 -0.0002308069470261596 0.0
0.0030628742386470515 -0.00012597807293924466 0.0
0.0029974043925912425 -0.00012842030162846647 0.0
0.002146286325045707 -0.0005874694030981917 0.0
0.0003699786460164599 -0.00031810492951795196 0.0
0.0003363053128649692 -0.000287698300524805 0.0
0.00032395091094601246 -0.0002600563397343451 0.0
0.00030038267766134183 -0.0002543956792123523 0.0
0.0035017749398252493 -4.854939345000473e-5 0.0
0.0034253567343746323 -5.421426681152155e-5 0.0
0.003469303984132593 -3.761377036526566e-5 0.0
0.002865313893094453 -0.0005097773978839955 0.0
0.0014568083539544864 -0.000319292572687362 0.0
0.003054793354680814 -0.00036575943459649205 0.0
0.00303725133322351 -0.00040567094372345627 0.0
0.0030795325586667165 -0.0003714053035945252 0.0
0.00306587365574649 -0.00041287186204484944 0.0
0.0031091760042032744 -0.00037187418206121106 0.0
0.003123296538611131 -0.00033542587896487927 0.0
0.003148510548633286 -0.00033866614994209173 0.0
0.0016896756362572212 -0.0007701213780491095 0.0
0.0016550339812599554 -0.0007861677876444655 0.0
0.0016095394844079522 -0.000763957866503233 0.0
0.0011748651864484639 -0.00021571441722375746 0.0
9.507889206359927e-5 -5.732552014721428e-5 0.0
0.00013812271553155384 -8.461512956823247e-5 0.0
9.972607639066884e-5 -6.547687895235686e-5 0.0
0.0011764460003190127 -0.0007000724198063683 0.0
0.0011366209641242256 -0.0006712337131912791 0.0
0.003373970760179879 -0.0001892223206872151 0.0
0.0002793052978592521 4.7234139164143454e-5 0.0
0.0018790290618250305 -0.00034021437595005904 0.0
0.0018843326078759558 -0.00031724344474525667 0.0
0.0032569620483793122 1.4951231495154309e-5 0.0
0.0033592722796315544 7.951096954389726e-6 0.0
0.003045679011472931 -0.00028334626047340496 0.0
0.0006224046168745048 -0.0004417421617146379 0.0
0.0006343886994663933 -0.0004752951633789597 0.0
0.0025865293732124798 -0.0003880237326536434 0.0
0.002612137937507779 0.00011849303276908404 0.0
0.003442484343398423 -0.00013579072324479457 0.0
0.003488699419927617 -9.335629744156779e-5 0.0
0.003506495357411673 -7.048153684375115e-5 0.0
0.0025339165706020606 0.0001394250780197764 0.0
0.0029536348788635346 -0.0002834545018364352 0.0
0.0016157358243005405 -0.00067711544233385 0.0
0.0030366497368891424 -0.00016874637677309008 0.0
0.002855809416668309 -0.0003187480792643257 0.0
0.0010980282199555672 -0.00045996723906727995 0.0
0.0006386014378690034 -0.00041240543075699184 0.0
0.00331992132063332 -9.407504900510258e-5 0.0
0.0027525666199491585 0.00014987366081422037 0.0
0.0011372660199924953 -0.0007013527065151104 0.0
0.0005280306324166337 -0.00020760633204189237 0.0
0.0019147659455190167 -0.00019892512414028702 0.0
0.0028085429380021822 -0.0004992437468597446 0.0
0.0027969124339226495 -0.0005384722016138726 0.0
7.428144301291874e-5 -6.867389076511569e-5 0.0
0.0021774703973512655 -0.0007165747112890752 0.0
0.0021634522410662296 -0.0007489352425756589 0.0
0.0013839864980469668 -0.0007469058544532192 0.0
0.0014210210223516144 -0.0007349031054418498 0.0
0.0014193925492769614 -0.0007023304253203665 0.0
0.0014563122668647343 -0.000724661559217211 0.0
0.0014216885118980731 -0.0007622569950015483 0.0
0.0012072680163092034 -7.603699584497895e-5 0.0
0.001135740134768631 -5.7088267853794645e-5 0.0
0.0004948877791754231 -7.960108446742748e-5 0.0
0.0010031936947193273 0.00022750568360602582 0.0
0.0010046849383332163 0.00021100038773696542 0.0
0.0021637220063173484 0.00011368915031440216 0.0
0.00273014013870518 -0.0005750286926613422 0.0
0.0026903639383750394 -0.0006067679790170336 0.0
0.0003091500375629199 -0.0002816753324218742 0.0
0.00027438900653437714 -0.00024584030192077716 0.0
0.003486151384449585 -3.7404332213023776e-5 0.0
0.0005783055298930936 -0.0002742465628107997 0.0
0.0005218753035783763 -0.0002492511795995021 0.0
0.003241884209532572 0.00011396344353011005 0.0
0.003331313761722258 -0.0002054167129690435 0.0
0.0033110952189827534 -0.00024392534885090366 0.0
0.0019732290561995177 -0.00020575675797311383 0.0
0.0022608234656838946 -0.000727058434697048 0.0
0.0022156313571574417 -0.000758429000799691 0.0
0.001007318150306117 -0.00031125980361217207 0.0
0.0010121179755435143 -0.00028801071312423555 0.0
0.0014566211837698097 -0.0006928049492739812 0.0
0.003063332623269653 -0.00031504143709738455 0.0
0.0017595050420357314 -0.0002713897894934524 0.0
0.001714883644176308 -0.00026137755133847707 0.0
9.067040595666628e-5 -9.035647140940637e-5 0.0
0.0009632084003268441 0.0003514065197089316 0.0
0.0016088537262358938 -0.00027692972679048617 0.0
0.0010765119027474344 -8.58792223481534e-5 0.0
0.001085533536252549 -0.00010919043066008438 0.0
0.0006547552735186495 -7.718356264465161e-5 0.0
0.002220509181846576 -0.00017553293040686635 0.0
0.0014587038200664306 -0.00020036392183784201 0.0
0.0014610764024391698 -0.00018145435672848768 0.0
0.0015141395772353219 -0.000194017553384469 0.0
0.0015153435578144987 -0.00017624779806389563 0.0
0.0015661863182004822 -0.00018649700798292575 0.0
0.0015681234844708775 -0.0001698637122319561 0.0
0.001516088500902922 -0.00015918345419835443 0.0
0.001569355662141001 -0.00015302768282130123 0.0
0.0015174498474670227 -0.0001427320256980386 0.0
0.0015714941063667662 -0.0001368438460750423 0.0
0.0016156912749413857 -0.00017969040439253328 0.0
0.0001378546161209733 -4.218538024160069e-6 0.0
0.0021460454381010264 -0.00021312343708369084 0.0
0.0014678467670633788 -0.00029898944535831435 0.0
0.001403889471450595 0.00012697692366301814 0.0
0.0015035571127710531 9.435194723277268e-5 0.0
0.0015083228731097198 5.893035457646265e-5 0.0
0.0014773867067794492 0.00013934489929634612 0.0
0.0014403116568557088 5.26842526385734e-5 0.0
0.001524978789713178 3.13011200140107e-5 0.0
0.0016040396060411969 3.183384572683669e-5 0.0
0.0015621555907947245 0.00011578586582961101 0.0
0.00022378033711689598 -0.00010819778108371166 0.0
0.00023004229964651592 -0.00012256327087503227 0.0
0.0034843782383299302 1.7707184811803405e-5 0.0
0.003371655653099346 3.9665246559242404e-5 0.0
0.003364744364255622 4.8193560679436246e-5 0.0
0.0026209388887163316 -0.0006327411516593964 0.0
0.0025726742408519847 -0.000663062999971297 0.0
0.0009237108142882392 -0.0004800237645459714 0.0
0.000958535573396268 -0.00047656385348725813 0.0
0.0008883617183037926 -0.00048177442648981284 0.0
0.0010146164743084296 -9.54519974727669e-5 0.0
0.0015805061822153652 6.129184157350745e-5 0.0
0.0016253695876757258 -0.00014639564175879577 0.0
0.0016237885410484796 -0.00013003122338659757 0.0
0.0015726776040886922 -0.0001208224917644323 0.0
0.001623570351549173 -0.0001152357002785016 0.0
0.0015763331338534534 -0.0001056515112448565 0.0
0.0009519583168443477 -0.0006012185705244684 0.0
0.0034747214626085435 2.881333713755859e-5 0.0
0.0014748939232711567 0.00016753627184972825 0.0
0.002077285548940962 0.00011293726827766181 0.0
0.002084368620357641 8.191052635590368e-5 0.0
0.0019994692003832784 7.34842002255352e-5 0.0
0.001049201650505882 0.00016312383304921974 0.0
0.0012909156310722412 0.00018725339387321396 0.0
0.0012200057215176802 0.00019874837632299685 0.0
0.001174479875518015 0.00020669680419850632 0.0
0.0023290089538241777 9.95671416533179e-5 0.0
0.0029125035349635777 -0.00047568641420487283 0.0
0.0028919972179188083 -0.0005222173499350141 0.0
0.0009076824051339944 -0.0006192332290305656 0.0
0.001493102399746146 -0.0007150582081152794 0.0
0.00149389719293331 -0.0007462320834385652 0.0
0.0015286116271723336 -0.0007365648100411101 0.0
0.0015341054061413523 -0.0007717014903298151 0.0
0.0025266787898592115 0.00011973294125275469 0.0
0.0024541960956517067 0.00010377323791134631 0.0
0.0025506405662625 9.821730509101914e-5 0.0
0.0026270015853759147 0.0001107587329944487 0.0
0.0019371958450612 -0.00030513110261396424 0.0
0.0018971139054018006 -0.0002950384816465846 0.0
0.0015660183602038088 -0.0007564556714035704 0.0
0.0010521161069630815 -0.0001825044985975748 0.0
5.996319190605161e-5 -5.150127727577134e-5 0.0
0.0014521940137691028 -9.768538042396856e-6 0.0
0.0015224485400331012 -2.8520660371629875e-5 0.0
0.0015257998451406849 -4.91209455118794e-5 0.0
0.0015914889864754916 -4.362827493144107e-5 0.0
0.0015901686089418226 -6.064738001717029e-5 0.0
0.0015887564682520237 -2.5905681596832018e-5 0.0
0.0015352654687283086 -6.652751251479809e-5 0.0
0.0015904822611825203 -7.648524408831778e-5 0.0
0.001652766794822012 -3.827450845907557e-5 0.0
0.002359923813526019 0.00010785489164104086 0.0
0.0015406244328929313 -8.337052396103277e-5 0.0
0.0035255912292965442 -2.2861758911768564e-6 0.0
0.0013458797146531048 -0.00021537039514641013 0.0
0.0016737552706549209 -0.0006382986263122316 0.0
0.0017181186462138613 -0.0006262907877850072 0.0
0.0015240997477140084 -8.083933540618857e-6 0.0
0.0015956342700272227 -7.768431975686879e-6 0.0
0.002038299092335393 -0.0003245632277060702 0.0
0.002565996113803549 -0.0005661759658900986 0.0
0.0025213490075280997 -0.0006003304521569175 0.0
0.0025117205876805794 -0.0006401908590533227 0.0
0.002480353711665514 -0.0006332836245714698 0.0
0.0024733601408458775 -0.000670079106954075 0.0
0.0024398448077098925 -0.0006655779004593434 0.0
0.0029530283503364815 -3.0616286792968496e-5 0.0
0.0028910252340613586 -5.702665865750673e-5 0.0
0.002920381001015847 -7.756412269871927e-5 0.0
0.002829822431905249 -8.509533496536443e-5 0.0
0.002856348145219279 -0.00010557356084047005 0.0
0.002766607188730953 -0.0001145356603406811 0.0
0.0027947350128583845 -0.00013484877043287783 0.0
0.002738239691613445 -9.328136850755698e-5 0.0
0.0026774017665139966 -0.0001228855270285046 0.0
0.002879438337143341 -0.0001250910342019709 0.0
0.0026476366684655517 -0.00010203449035515181 0.0
0.0028173990258355025 -0.00015427951591348913 0.0
0.0027377186652748076 -0.0001640053061057145 0.0
0.002756817457268286 -0.0001835432069550254 0.0
0.002709454598508017 -7.30790646314747e-5 0.0
0.002857706285311739 -3.506118980378216e-5 0.0
0.0029005631278746363 -0.0001449087613411735 0.0
0.003016189423979493 -7.363103206301918e-5 0.0
0.0029567070238314458 -0.00011642836484669202 0.0
0.001935254555659788 -1.1708947244308172e-5 0.0
0.0012685594149893437 0.00019450575833312075 0.0
0.00018916217412326655 -0.00010856350976116482 0.0
0.00017611166229381892 -0.00016078222655729524 0.0
0.00021278003614238187 -0.0001977835434766109 0.0
0.0015641592390217454 -0.0007258492716055962 0.0
0.0020937271113595883 -0.0003368897828899075 0.0
0.0020046976098548044 -7.166194084105254e-5 0.0
0.0019372203731744418 -8.434020961441943e-5 0.0
0.0019487807684784616 -6.776241451489195e-5 0.0
0.001938994428415987 -0.00010155916784372525 0.0
0.0019962781263781347 -0.0001085559154192476 0.0
0.0019340359483371976 -0.00011920438880888422 0.0
0.001927785085708606 -0.00013586154015446088 0.0
0.001880166022832391 -0.00012807254477782882 0.0
0.000231479348850977 -0.00018965711664007981 0.0
0.0022413087163701316 -1.051085582618849e-5 0.0
0.002730873715113875 5.157806067941379e-5 0.0
0.002619222398037659 5.5317674128943544e-5 0.0
0.0001411129460829157 2.8649794246006488e-5 0.0
0.0002948590965778178 6.626434609221161e-5 0.0
0.0002752820504367234 5.544771915160217e-5 0.0
0.002285536166674499 -7.318560583879044e-5 0.0
0.00029943844179895605 -0.00022252197405596576 0.0
0.0003473751955011743 -0.00026211381333509265 0.0
0.00037721106015444215 -0.0002714503897111195 0.0
0.0003733993043926829 -0.0002486815030272422 0.0
0.00040471015958234936 -0.0002513344803664394 0.0
0.0014614300083103163 -9.807297253297099e-5 0.0
0.00016941827884209444 1.2187062878894217e-5 0.0
0.0007032027700451812 -0.00019648347462871674 0.0
0.0005770485789552523 -0.00018742598105130596 0.0
0.001592575414091208 1.170252192695207e-5 0.0
0.0004017001159215367 0.00014733484874327368 0.0
0.002472433660249735 -0.0005880660021894046 0.0
0.0021554285728905415 -3.3561825441705825e-5 0.0
0.003399461340712769 -0.00017892282897520188 0.0
0.0027100057405402274 -0.00014337497272436851 0.0
0.002622160513061954 -0.00015167940750306704 0.0
0.0025421748124524603 -0.0006514629550584894 0.0
0.0035325188740649733 -6.268582227758902e-6 0.0
0.003465422323427753 -1.6373668111037723e-5 0.0
0.003479088900808635 -2.1369474523182292e-5 0.0
0.0034539374354769603 -9.556565363167006e-6 0.0
0.003401381468560255 -3.056116410603876e-5 0.0
0.0034449700694281823 -2.002544848177948e-6 0.0
0.0033657009587637577 -9.915584852232527e-6 0.0
0.0033819004858238106 -2.1052689125051847e-5 0.0
4.022247897940649e-5 -2.1029014514991478e-5 0.0
0.0035578028193554356 -1.6989517551859648e-5 0.0
0.0035109097794455766 -3.305829844226258e-5 0.0
0.0035394272185346348 -1.8188071958689485e-5 0.0
0.0035150698688343053 -3.533290830714136e-5 0.0
0.002108947053866809 5.601548682614787e-5 0.0
0.0026635400430320235 -0.0005946998229127578 0.0
3.1337281862033654e-5 -2.2256271300345838e-5 0.0
0.003567205410815289 -1.8499932151909308e-5 0.0
0.0011659521536898916 0.00013809000403391136 0.0
0.0028778326952219515 1.7208538780150372e-5 0.0
0.0009837439149577608 1.1366628474674744e-6 0.0
0.001062814636537057 1.0479992873450618e-5 0.0
0.0010602407942959654 4.174565367950254e-5 0.0
0.0010630921610356651 -1.7180232096018404e-5 0.0
0.0011310519351791024 -1.16109083924913e-5 0.0
0.0011484032545957068 1.527586106733639e-5 0.0
0.0011409513696037385 4.802343701643256e-5 0.0
0.0010630137577402308 7.134145713149244e-5 0.0
0.0009946473645869602 9.753937334463729e-5 0.0
0.0009942164187738943 -3.224364162000642e-5 0.0
0.002998270976769343 -0.000439344716464162 0.0
0.00352323696607246 6.380045003292438e-6 0.0
0.0014591084634961449 -0.0006612666440970883 0.0
0.0004796314287113898 -0.00040231476331794615 0.0
0.0016059573500323279 -0.000647550591008112 0.0
0.0012390402168866482 -0.0006802144044056186 0.0
0.0012413783254560334 -0.0007121126687040793 0.0
0.0016771971393174199 -0.0001234352134099954 0.0
0.0022891776914874514 -0.00012416751160916476 0.0
0.003099503830567034 0.0001023029468702757 0.0
0.00314373011160859 8.496938192080277e-5 0.0
0.003046839208360369 8.897053450137462e-5 0.0
0.0002247667041363831 -9.746363155001392e-5 0.0
0.0004474991109496706 -0.0003916030970913548 0.0
0.0011445569531823635 0.0002580884568214265 0.0
0.0010282641746614022 0.0002578091683802498 0.0
0.0025725678741593855 8.937067052834616e-5 0.0
0.0013037967915425102 0.0001879860679845115 0.0
0.0032412858906701487 -0.00022293490493962512 0.0
0.0015915745594030607 -0.0005425823954609437 0.0
0.0024552053718686663 8.363529060141349e-5 0.0
0.002525594844427603 0.00011187209744819616 0.0
0.0010838684418562 0.00011695196442336713 0.0
0.0008797197003209091 -0.000625422172332039 0.0
0.003218143545562498 -0.0002636792700060451 0.0
0.000530452826643143 -0.00040212744670472096 0.0
0.0005627054796838057 -0.0004303031285543944 0.0
0.0005453539090654795 -0.0004389081941160558 0.0
0.000838538214925171 -0.00019618329547013583 0.0
0.0019779592911451584 -0.00014764025505385983 0.0
0.002221205306744866 -9.501384972660705e-5 0.0
0.0013433820755620128 -0.000151559278587859 0.0
0.0014042329586123699 -0.0001673175171700444 0.0
0.003447593903881836 4.191830541971795e-5 0.0
0.0032732338739061713 8.481928666878475e-5 0.0
0.00015741201036687072 4.1929427395802544e-5 0.0
3.985276441044351e-5 -2.3079936288433486e-5 0.0
0.0016196943565255921 -0.00016291534998020594 0.0
5.380725982577519e-5 -1.3629224628345656e-5 0.0
0.00013001295996061126 -2.7959458158656936e-5 0.0
0.0015871574129209835 -0.0006227379647037241 0.0
0.002264223459979923 0.00010425122751720722 0.0
0.001340230051441971 0.00018144956202312634 0.0
0.0021963750505757246 -0.0003274332564131211 0.0
0.001633044358721181 -0.00010031234181893253 0.0
0.0028711502773741578 -0.0002730994654052042 0.0
0.0033560526559686553 -0.0001689056193408895 0.0
0.0010567974937101372 -0.00046402848481345355 0.0
0.001061091823513852 -0.0004924729941911374 0.0
0.001018038565422578 -0.0004646746037805867 0.0
0.0009735785372739248 -0.00043724179981124365 0.0
3.210351108754494e-5 -2.4779258467684194e-5 0.0
6.0372752042553154e-5 -4.759218200046891e-5 0.0
6.77095290472503e-5 -4.8820431254244314e-5 0.0
0.0009091885118226227 -0.00031349659331769106 0.0
0.0008602013749888039 -0.00031609897332811885 0.0
0.0035608285423234503 -1.7650501068107167e-5 0.0
0.0019172629139958327 -0.0007863340247398059 0.0
0.0018821522125928144 -0.0007679184521754759 0.0
0.0018797822743633257 -0.0008030725557472511 0.0
0.001844472699743254 -0.0007842650277665035 0.0
0.0018059634967104933 -0.0007988792960973788 0.0
0.0018042822952144984 -0.0007642832034106242 0.0
0.0018835498211292891 -0.0007329742545022877 0.0
0.0024517367958813785 0.0001165104366913269 0.0
0.00041748230384750477 -5.819582232440799e-5 0.0
0.00048617293101178486 -0.00010020616919085907 0.0
0.0004225135384673565 -9.964770386182062e-5 0.0
0.0022546362512202755 -0.00031314231245336714 0.0
0.000739804467849433 0.00020866593130825962 0.0
0.0017959412736716853 -0.000321071796164121 0.0
5.42946260582816e-5 -2.1366663522172216e-5 0.0
0.0011033663388800737 -0.0006738636789899078 0.0
0.0010675140137081677 -0.0006721166073596961 0.0
0.0010743255693513682 -0.0006462025248408376 0.0
0.0012354213738255022 -0.0006484329679959948 0.0
0.0010574194243622784 -0.00043250156255090013 0.0
0.0004693259116493876 -0.0001983592452138095 0.0
0.0002744591030740619 -0.0001520240249765737 0.0
0.003542685336480765 -1.1722316024423146e-5 0.0
0.0034933015372032843 -2.4001393283631338e-5 0.0
0.0006949055179713218 -0.0005041292713777693 0.0
0.0008361345636409188 -0.0005620482815879689 0.0
0.0008045410249650846 -0.0005651518079569979 0.0
0.0007653048918917733 -0.0005342128296784542 0.0
0.0007711824958295847 -0.0005656397636405389 0.0
0.0021296794391061006 0.0001172470178844643 0.0
0.001450905300470294 0.00017062710530974553 0.0
0.0023022278586869826 -0.0007006555431128825 0.0
0.002332252044347251 -0.0007140822512706354 0.0
0.0023715914775453636 -0.0006871390953726491 0.0
0.0022872846251729283 -0.0007462137042702905 0.0
0.0011423855233714118 -0.0004613071473662671 0.0
0.0020287874054856817 -0.0005821453314043484 0.0
0.0013328121879497788 0.0001876154021285446 0.0
0.0014584904568984867 -5.8536015767317e-5 0.0
0.0035685380582069536 -1.9758616761836823e-5 0.0
0.0035388877756530606 -3.9941439517353606e-5 0.0
0.0035263297999585733 -4.291479359200451e-5 0.0
0.0007334870520077193 -0.000535218372391423 0.0
0.0007030232990762232 -0.000534627874350889 0.0
0.0010580153529030783 -5.799687951654041e-5 0.0
0.0009344139266015292 -0.00044236831174267313 0.0
0.003335595609495879 -0.00013167963620448446 0.0
0.0027146575490454455 0.0001389999418372424 0.0
0.0016095049792360452 -0.00019641244295403966 0.0
0.0016581299706998165 -0.00018813541922064244 0.0
0.002131171101308454 0.00014686774422704361 0.0
0.0026272219773980357 -0.0004964135505045935 0.0
0.001547521139408655 -0.00055244751870978 0.0
0.0015494237138002315 -0.0005817676401124667 0.0
0.00038959396879162817 7.250317476544358e-5 0.0
0.0008561597928916422 -0.000445468548168498 0.0
0.0008165733660745999 -0.00044262275133471617 0.0
0.000772940223106888 -0.0004138825307652565 0.0
0.0007782253446389705 -0.00044251691749003794 0.0
0.0006576118104559517 -5.1889728165139626e-5 0.0
0.000660870149037396 -2.5805414296791302e-5 0.0
0.0007370009310646299 -0.00010220079872330399 0.0
0.002320330309740522 -0.0007563928159015538 0.0
0.002256371700046857 -0.0005716537855885694 0.0
0.0022066865554943842 -0.0005963450160191256 0.0
0.002248875505268397 -0.0006096144042054323 0.0
0.0021995552381472183 -0.0006353376269241532 0.0
0.0022286841982147245 -0.0006458048729701377 0.0
0.002295851240672776 -0.0005788029717563323 0.0
0.0023329334917208326 -0.0005832431378298402 0.0
2.719462206689294e-5 -2.463730974242757e-5 0.0
0.0035734241347735486 -2.1027864418600302e-5 0.0
0.0029350098161506984 -0.0004312031984328738 0.0
0.002099873125388299 -0.0007576274755921708 0.0
0.0033107064755259195 7.267833349475344e-5 0.0
0.002034708625676339 -0.0007290389780463238 0.0
0.0020267035071976445 -0.0007643633808180614 0.0
0.0026864100068470136 -0.0003368727117346141 0.0
0.0024067382483061424 -0.0002681717691406988 0.0
0.002356990240556856 -0.0002619006756332166 0.0
0.001121515487516 -0.0006067220844397685 0.0
0.0006566175321350885 -0.0003819987981719459 0.0
0.002674849700242972 -0.00019544912546841917 0.0
0.0028161729858049963 -0.0004598969524677399 0.0
0.0012365503183581882 -0.00036281986169288936 0.0
0.0012824023524728853 -0.000357275268788898 0.0
0.0012805449187736394 -0.00038222091514212393 0.0
0.0012854948828641309 -0.0003332448577808108 0.0
0.0012350817897550802 -0.0003880881111742581 0.0
0.0013271345345458921 -0.00035407969580525573 0.0
0.001333099490784777 -0.00033173650500619844 0.0
0.0013452011408119587 -0.000307230135546203 0.0
0.002666701881779345 0.00015536931590500808 0.0
0.00029354893441936266 7.332542367910347e-5 0.0
0.002589210571871232 -0.0001315070722972057 0.0
0.0028147187484837267 -0.0002826169268015382 0.0
0.0005413856309603122 0.000162670929453414 0.0
0.0005048188262452127 -1.1479102830730467e-5 0.0
0.0007382418520888075 -4.7735838026181865e-5 0.0
0.0005755027646045971 -0.0003492389241468045 0.0
0.0012361461555042718 -0.0003143704819489715 0.0
0.0009604384716606728 -0.00026506861783877534 0.0
0.0010268907608284048 -0.00026485056759632927 0.0
0.0010690310139932107 -0.0002898726265840551 0.0
0.0017255295288770604 -0.0007581574849771143 0.0
0.0017660717643956632 -0.000778229818063886 0.0
0.0017654941125437812 -0.0008161115553777538 0.0
0.001804900802428056 -0.0007303318150471537 0.0
0.002765272495301687 -0.0004891936593862991 0.0
0.0012866540149844856 -0.0002013152373310523 0.0
0.002611396898528802 -0.00030621349415915826 0.0
0.0012318130543296551 -0.0006172842918947849 0.0
0.0018849794079917178 -0.0006989144598057738 0.0
0.0013105241113640297 -0.0007300935846361479 0.0
0.0032995862870484095 -1.448576783113448e-6 0.0
0.001748546908970118 -0.00033263880838629975 0.0
0.0004169885326396973 -0.0001707251672049884 0.0
0.0013297522847376504 -0.0005084750121056073 0.0
0.0013732559154724822 -0.0005297980722553614 0.0
0.0012402841790667618 -0.00046602860380613487 0.0
0.0013458766216787566 -0.0006563161484399322 0.0
0.0021078818215575653 -0.00044223923771809356 0.0
0.0020550822649074135 -0.00045981343761678677 0.0
0.0021014769991032052 -0.00047084966647824614 0.0
0.0025589725254230892 -0.0001111587417988854 0.0
0.0015911497697067229 -0.0005144089639036706 0.0
0.0011484720608344989 -0.0004232738648479974 0.0
0.002033515474167039 -0.00019434806976005722 0.0
0.002023214254929593 -0.00021456787856224594 0.0
0.00045147046049988604 -0.00028122948057179837 0.0
0.0009463439979018968 -0.0005709589208394281 0.0
0.002384656407489779 -0.0006450479279546287 0.0
0.002007431231070347 -5.475526190131294e-5 0.0
0.0018564959839921656 -0.0005560026402520451 0.0
0.0018100273124116606 -0.0005703165405164197 0.0
0.0018078006518475903 -0.0006014402486457118 0.0
0.001764134033207124 -0.0005836562446692391 0.0
0.001763172828976353 -0.0006149276335372722 0.0
0.0018504918801515626 -0.0006179091677788047 0.0
0.0021666132231145502 -5.0797505227901944e-6 0.0
0.001456225057812482 -0.000437082385685815 0.0
0.0014129159555666933 -0.0004448372029466663 0.0
0.0020134197008996628 -0.00042096640919042904 0.0
0.0011954619447546644 -0.00047027666409664404 0.0
0.0019888435893322958 -0.0007836695005529282 0.0
0.0015024513474812032 -0.0005333475025809987 0.0
0.001766479914939781 -0.000553670027699099 0.0
0.0025019386543033177 -0.0006807230346201567 0.0
0.001602474721925659 -0.0003396761445301078 0.0
0.0033861337238774193 -7.316190905571231e-5 0.0
0.001773877174244811 -0.0004691294164398186 0.0
0.0008010012140388682 -0.00033533884837830415 0.0
0.0015619472496687906 0.0001577599717214585 0.0
0.0024931979909935246 -0.0005486491125822796 0.0
0.003239582598675513 7.503458853736262e-5 0.0
0.0005261506710439524 3.540243380205051e-5 0.0
0.000546380972054901 5.740613072958907e-5 0.0
0.000605702226188627 2.4273090555786143e-5 0.0
0.0006409245860816297 5.100077728967029e-5 0.0
0.000701102501534735 3.3027656496869624e-5 0.0
0.0025357448104916594 -0.00016008565239595735 0.0
0.001459441694014336 -0.0007599959222424509 0.0
0.0016517073968448346 -0.0003307359801728394 0.0
0.00010553220871950683 -2.9879081379602553e-5 0.0
0.001203066822934081 0.00020719020928471608 0.0
0.001117009361059651 0.00021877108003212568 0.0
0.0023925401620695434 8.568981086488469e-5 0.0
0.0014200560951273457 -0.0006393852568851784 0.0
0.0016177628492536791 -0.0007335428032332096 0.0
0.0014067940863751204 -0.0002285934645509962 0.0
0.0019662637720989965 -0.0004099223865989434 0.0
0.0019149899504960811 -0.0003971977774936852 0.0
0.0019233709700501734 -0.00037076790739912815 0.0
0.002020692080029079 5.11518927153394e-5 0.0
0.0013352083637426023 -0.0005372854740580361 0.0
0.0009069107310283721 -0.0002420557595487177 0.0
0.0013643790177909616 -0.00039908156396439837 0.0
0.00018206906450147204 -0.00011428159000662479 0.0
0.0018718256430856899 -0.00018744429837029575 0.0
0.0007573183145733605 -0.0005024262793389356 0.0
0.0018745984039238587 -0.00041626094850436175 0.0
0.0011292402954776095 -0.0006385232253877643 0.0
0.0025134349775048706 -0.00027455161255248936 0.0
0.0016896961090492343 -0.0004146204847440787 0.0
0.0017194291871701066 -0.0005960956251775155 0.0
0.0031478157641074167 -0.0002143517519079201 0.0
0.0006680404012646789 -0.0005038648841031339 0.0
0.003427652470362197 -0.00016769026993595818 0.0
0.0014060196623642497 -0.00031690857333909817 0.0
0.0016840265473341835 -0.0004661394330457848 0.0
0.00030959846704361197 -0.00011861268046719928 0.0
0.0031481565678651876 -0.00015586094628121966 0.0
0.00197523538679262 -0.0006315941790753115 0.0
0.00010531654385086733 -3.6003112060228156e-5 0.0
0.001810775513856836 -0.00026085145748654874 0.0
0.0018084489885720055 -0.00027856599644669305 0.0
0.0033655944303593107 -4.528096106512316e-5 0.0
0.0019537737062800442 -0.0008028604672015731 0.0
0.0006207615374910228 -0.0003800934774248468 0.0
0.0034747085030649248 -7.339499938844267e-5 0.0
0.001874288779856012 -0.00036060692484000327 0.0
0.0017375690375284142 -0.0004040106158976586 0.0
0.002175552784919515 -0.0005545674113591076 0.0
0.002130366689769553 -0.0005437783620430942 0.0
0.0019894481780745477 -0.000568131603927803 0.0
0.0016490171789942736 -0.000353380878735277 0.0
0.002032856950970532 -0.0008197045889350272 0.0
0.0021841069508638762 -0.0008017003915479714 0.0
0.0015582885769388263 -0.0008055906188391073 0.0
0.0016778554337445121 -0.0008185533738411509 0.0
0.0024092079057728495 -0.0007434793716379431 0.0
0.002399443713706151 -0.0007045698939218296 0.0
0.0012459227477858287 -0.0007425425419313882 0.0
0.0009833843030295432 -0.0006687475519151646 0.0
0.002108317015810072 -0.0008125061092811667 0.0
0.0013274588369784827 -0.0007651825684212086 0.0
0.0014919361707309482 -0.0002801068980242129 0.0
0.0030815953376230744 -0.00010313813839225558 0.0
0.002523944370261427 -0.0004167649520744708 0.0
0.0025052765840647487 -0.00044669616049735386 0.0
0.0012802797323686037 -0.00040917824745246407 0.0
0.002173711050148923 -0.00037170929795991554 0.0
0.0017238135346509637 -0.0006562765860456082 0.0
0.0008932857980415844 -0.0005270573609635968 0.0
0.000667798370600265 -0.00030498664019646906 0.0
0.001502295465788338 -0.0004037342968742114 0.0
0.0031486113672398917 2.3461171258209282e-5 0.0
0.0012206761093565782 2.6374635845864867e-5 0.0
0.0017015348999625342 -0.00032123419347188385 0.0
0.002009300432020847 -0.0004498649642182241 0.0
0.00023984972897445902 -0.00021250356105681235 0.0
0.00024874073826439396 -0.00023655902316272346 0.0
0.0015023112096170588 -0.0005912325617744235 0.0
0.0012619824527318826 -0.0005519254727207293 0.0
0.0018195431068481485 -0.0004833003479011451 0.0
0.003338938358072618 5.9810441805630923e-5 0.0
0.0019228040131054275 -0.0007157176395434879 0.0
0.003533295430020199 -5.501739565577287e-5 0.0
0.003509707310871838 -8.366490263244102e-5 0.0
0.000984507684842399 -0.0001643003472578857 0.0
0.0015483515069096812 -0.0004444303658419862 0.0
0.0016351265529654074 -0.0005318580370378715 0.0
0.003431115898936712 1.1944043417268845e-5 0.0
0.001676538784981072 3.733796914579182e-5 0.0
0.002378705496353324 -0.0005597590966793254 0.0
0.0024548497624240157 -0.0004716544558920653 0.0
0.0009653645423453673 -0.0006350349861888025 0.0
0.0022553908335168635 -0.00044214656252474665 0.0
0.0015496098206413725 -0.0003949874642048066 0.0
0.0023645865051427546 -0.0004002934806879963 0.0
0.002353507791345836 -0.0004288249019710755 0.0
0.002419508648729255 -0.00037873148119142545 0.0
0.0008065766024095567 -0.0005972576652208519 0.0
0.002814272322760303 -9.452443399780017e-6 0.0
0.0020578953588304477 -0.0007835790708638694 0.0
0.002931440600904474 -0.00048806370952078143 0.0
0.0026644727583707544 -0.0003070048084412363 0.0
0.0017217509131296847 -0.00024274918011872506 0.0
0.0021951072947476273 -0.0006750156702684598 0.0
0.0013769456077744589 -0.0005584066595753389 0.0
0.0014452509960399093 -0.00033906370990732364 0.0
0.0033264141979247007 -3.551157292963399e-5 0.0
0.0007635273532224461 -0.0002204185645700017 0.0
0.0025604936315178433 -0.00017975014027748603 0.0
0.001699659140078145 -0.00015807647987863346 0.0
0.0022221820150932544 -0.0003790336743218186 0.0
0.003189382090308195 -9.91024884263184e-5 0.0
0.00027386435367758046 -0.0001245831893226438 0.0
0.002573932861813472 -0.0004531127371254338 0.0
0.0019325779458849105 -3.1193513491805775e-5 0.0
0.001915306617941181 -4.848424158977816e-5 0.0
0.0021253160246467173 -0.0006514247089801808 0.0
0.0019565214281759254 -0.000495315781894725 0.0
0.002012079342533888 -0.0006458135804515032 0.0
0.0026139555275368127 -0.000534412497059027 0.0
0.0026248944897804185 -4.631550203445131e-5 0.0
0.0016911162091472252 1.9644953851989083e-5 0.0
0.002363507024696635 0.00015831343014771266 0.0
0.0030824207584576333 -0.00027763496639088227 0.0
0.0030974410344126006 -0.0002486414094455104 0.0
0.0016965056357038668 -9.030093575440604e-5 0.0
0.0011469630561876934 -0.0005401378067084883 0.0
0.002311708990128978 0.00013123084485751484 0.0
0.001696621167703894 -1.2602433578566981e-5 0.0
0.002245050010371825 -0.00047126519857379365 0.0
0.00348145576102486 -8.253074823671155e-5 0.0
0.0005887152764203732 -0.00040692073269030417 0.0
0.0021648240959404076 -0.00023233374282995864 0.0
0.001700545972966472 -5.059536882359891e-5 0.0
0.001695727200106674 -7.809046277483602e-5 0.0
0.000601700727031638 -4.364297658314566e-6 0.0
0.0031264000580187314 0.00011130580539435302 0.0
0.0018294153862655935 -0.0001647887032160491 0.0
0.003189908125257375 -0.00020565622763887988 0.0
0.0011046602215464619 -0.0005161228471849958 0.0
0.002717125481442982 -0.0006207747585355338 0.0
0.0027906365344349906 -0.0005936185806102554 0.0
0.0010020413679770407 -0.0005305493593392729 0.0
0.002327756727340199 -0.0004864110933425814 0.0
0.0015190350751213084 -0.0008005398924614443 0.0
0.0022218922065343886 -0.00014172800897298163 0.0
0.0006399902675732226 -0.0005197150592159198 0.0
0.0018474589612352589 -7.084521298285538e-5 0.0
0.0019211850748258239 -0.00021763998201569556 0.0
0.001882324929530778 -9.483541125530044e-5 0.0
0.0020505980208200226 -0.0004895485266902639 0.0
0.002490124480946657 -0.00047624706275662965 0.0
8.63734537750995e-5 -9.473768802663005e-5 0.0
0.00014889200889687003 -0.00015879469383654816 0.0
0.00017859346918630274 -0.00018754280232809943 0.0
0.0033191635950508163 -0.0002642689002168734 0.0
0.0002403293192208249 -0.00024558289194642974 0.0
0.001026524846893876 -0.0004949895411401439 0.0
0.00046272785746923273 5.9755761402546236e-5 0.0
0.0029678397072721687 -0.0005032085749838719 0.0
0.000541269221436061 -0.00046210504463232456 0.0
0.000608008421959067 -0.0005020468522429248 0.0
0.003284041959039994 -0.0002908057333329936 0.0
0.003214349366275614 -0.00034552574845436935 0.0
0.0019049240070025681 -0.000275279933498767 0.0
0.0013827035537973013 -0.0006801388596858782 0.0
0.002612556694282371 -7.859301605872671e-5 0.0
0.003038640726027242 -0.0004595533432593086 0.0
0.003074150692802149 -0.0004386615548225274 0.0
0.0004771783197811119 -0.0004250143227691981 0.0
0.0003306360932951884 -0.00031817479690216563 0.0
0.0031452195459179544 -0.00039237198459029024 0.0
0.003173530599679914 -0.000342178549344659 0.0
0.002130755293396594 -0.0007752356730642851 0.0
0.00039279460243833307 -0.0003661295688206539 0.0
0.0025952355855236448 -0.000681060179290032 0.0
0.0006692170891392087 -0.00041260170265102245 0.0
0.002943168729998028 -0.0003474827862778883 0.0
0.0010252191974817035 -0.0006543983096705269 0.0
0.0027390039410883746 -0.0004789677620482959 0.0
0.0027999971802343325 -6.42483767717741e-5 0.0
0.0010059837895936763 -0.00035755241187052165 0.0
0.0006771997481599791 -0.0003306905985321474 0.0
0.0013022012500755577 -0.0005742495559664676 0.0
0.0017279028623882011 -0.0004815997395039144 0.0
0.0029621260176179317 -0.00019652271617908885 0.0
0.0018438949001777514 -0.0007490019565390574 0.0
0.0018766329304815755 -0.00017162798257341552 0.0
0.0018583259715297814 -4.4187817275431774e-5 0.0
0.0023842930761237275 -0.00034571768716054195 0.0
0.0027452850100067325 -0.00040151420972174535 0.0
0.0009785014255431683 6.207118595570644e-5 0.0
0.002241030314040437 0.00011730431971501132 0.0
0.0010952811199768685 -0.00035206058449835343 0.0
0.002985433007158954 -0.0002835916824053714 0.0
0.0007065451576437682 0.00010920466014249741 0.0
0.0005999125295683798 8.237040403924561e-5 0.0
0.001519134691133613 -0.00011058865257828495 0.0
0.003116775825556249 -0.0001240005861644869 0.0
0.0016594204670113341 8.391867646782566e-5 0.0
0.0018209988198148674 -0.00020901548010889668 0.0
0.003297159528771992 -0.00011293806060939178 0.0
0.0009222341854103419 -0.00036091480470978025 0.0
0.0011347021019936863 -0.00022960919208891642 0.0
0.0025632413998042444 -0.00033399834747087695 0.0
0.0028286799896796496 -0.00037395692722101367 0.0
0.0008005703381958499 -0.0003613533730541219 0.0
0.0004685042066249871 -0.00031081951186952956 0.0
0.0027115323277471315 -0.00039880838281539045 0.0
0.001159049845598613 -0.00014824520446904518 0.0
0.0026969388244970287 -0.00022850910622104122 0.0
0.003541571495801853 -4.220880373407831e-5 0.0
0.0029408180516235453 -9.715037941229756e-5 0.0
0.001886611881758176 1.3395516514508e-5 0.0
0.0019479324838302587 9.357905884722323e-6 0.0
0.0022092683351933296 -0.00028323050211101773 0.0
0.00322897566964094 -2.4010121946439585e-5 0.0
0.003173360800020962 6.024327088460846e-6 0.0
0.0001444694124083557 -0.00010476430022387487 0.0
0.00010779716924802634 -7.676144159010177e-5 0.0
0.001419912764064868 -0.0006704777070371827 0.0
0.0022985818451432428 -0.000450159501720936 0.0
0.0012905262222300277 -0.00024327622886931007 0.0
0.0012895793913066352 -0.00022251612791811297 0.0
0.0012734632628421067 -9.454523486951104e-5 0.0
0.0018070715796455847 -0.0006330180261212207 0.0
0.0021100790933103394 -0.00024883564067878074 0.0
0.0005662812020240966 -0.0001013330962256979 0.0
0.0024822358458187603 -0.00018810891056314966 0.0
0.0019122916570909882 5.0885012309225394e-5 0.0
0.0015019663791463465 -0.0004283958641339254 0.0
6.135477560478582e-5 -6.905065214965628e-6 0.0
0.0017303336761944129 -0.0004546785579692546 0.0
0.0032784553043630872 -0.00013128872294169646 0.0
0.002798648016926751 -0.0002293994244862664 0.0
0.0026560231611472917 -0.00017187012296765545 0.0
0.003138556975441774 -0.0001755073356634714 0.0
0.002283546142357393 -0.00019917699492959056 0.0
0.001254143354250578 -2.883081865540915e-5 0.0
0.00041180151717515746 -0.00015159870680399922 0.0
0.0015501494169686174 -0.00021862587851802833 0.0
0.0019488836794625678 -0.00028474339400110947 0.0
0.0005135635659891195 -0.0002670199497902616 0.0
0.0016381768631658533 -0.0008151875014379059 0.0
0.002208063776845952 -0.00019751436865270163 0.0
0.001068935765591506 -0.0005207387510661189 0.0
0.002383491651350253 0.0001238921513392986 0.0
0.0030091687634153626 -0.0001928143847097376 0.0
0.001152266419807029 -0.00012580267820771468 0.0
0.0026259418509274883 0.00015286814418320253 0.0
0.0020142976040308396 -0.00023444722413203936 0.0
0.0017330891680348904 -0.00042872051126202133 0.0
0.0006357968212619981 -0.00012404056972805706 0.0
0.0011857924671008833 -0.00025181034754587564 0.0
0.0015384360222313255 0.00014875599121594023 0.0
0.0004805517499964145 7.801657263525815e-5 0.0
0.0026505417488641874 -0.0003352465490124955 0.0
0.0007001634116439529 -0.000259160707480827 0.0
0.0017811733558293261 -0.00041762045626343714 0.0
0.0029666195140759495 7.170351275127376e-5 0.0
0.002518125659081048 -0.00033134466241019654 0.0
0.0011905473895948509 0.00011114298526070232 0.0
0.000215823713321838 -5.9105599958350826e-5 0.0
0.0009054686160597696 -0.00021828489907009633 0.0
8.107536560143643e-5 6.940698025417092e-6 0.0
0.00016881845399189672 3.5028486958475593e-6 0.0
0.0025047519634446426 -0.00030624271220873017 0.0
0.002067131919874716 -3.8273230508125585e-5 0.0
0.0011671051970602987 -0.0007292362600969472 0.0
0.00081706442978542 -0.000472864444116646 0.0
0.0029380872285969606 -0.0001534078964477852 0.0
0.00040562960382540994 -0.00035550229675010637 0.0
0.002427206592072698 -0.0003523467781408086 0.0
0.0020187805918860037 -0.0006139302290961003 0.0
0.002911481321702501 0.0001101167608198213 0.0
0.001047756808253655 -0.0006162838024417285 0.0
0.0031659137821903275 -0.00030064669257848974 0.0
0.00182358234652122 -0.00019436565314435948 0.0
0.0005845552769750883 -0.0004640892680758054 0.0
0.002440146887848217 -0.0007028447518692914 0.0
0.0005930426179544158 -0.000300477734980061 0.0
0.003366626389704094 -0.00012327054265639625 0.0
0.0004248906936269875 -0.0002104027418750765 0.0
0.002487535955126753 -7.95788690887863e-7 0.0
0.0022872093389708814 -0.00017666868128038093 0.0
0.0018602715137107748 -1.6697379121212813e-5 0.0
8.319914556852279e-5 1.0522675924052544e-5 0.0
0.0013879270415308091 0.00018224975127589202 0.0
0.0009708580816202582 -0.00013833982261147895 0.0
0.0028208608208073528 -0.0005461470731562953 0.0
0.0028600172752371897 -0.0005640386671373616 0.0
0.0002694623338318042 -9.839658208412823e-6 0.0
0.0020706438687998225 -0.0002222124849520903 0.0
0.0008523240007528362 -0.00047349025742917755 0.0
0.0014590911156341837 -0.00046218667184886355 0.0
9.03066926283553e-5 -7.309658983945307e-5 0.0
0.00020026436570126402 -3.4387087422731585e-5 0.0
0.0019885051440678854 -0.0003145215629146411 0.0
0.0018294441611140986 -0.0004050979818268015 0.0
0.0001305954506625697 -1.9034683771010825e-5 0.0
0.0003519349263107388 -0.00012441127326817285 0.0
0.000270287733486211 -0.0002705958477612461 0.0
0.002963539478925539 -0.00031374174541292163 0.0
0.0023398972906102824 -0.0004573561301497998 0.0
0.00042423982097685467 -0.0002806257681249682 0.0
0.002761214806014518 -4.612902790812874e-5 0.0
0.002536016746279753 -6.631953687113396e-5 0.0
0.0001911709337768753 -0.00018719558304141094 0.0
0.0014743638822843777 -0.00014904727914257806 0.0
2.387784131875747e-5 -2.5638521662715328e-5 0.0
0.0035747660311398373 -2.558915556162532e-5 0.0
0.0034703011944625032 -5.059563968902579e-5 0.0
0.0010593275330557602 -0.0006968288588357134 0.0
0.0027686722955734436 2.748996744305248e-5 0.0
0.002341216081546778 -0.0005524363949618038 0.0
0.00047027274234568236 -0.00021824579327781062 0.0
0.002220628381503257 -0.000794345114849741 0.0
0.000507703929051475 -0.00012213882447018889 0.0
0.003104148868101403 -0.00014373666656848272 0.0
0.0014136863163459793 -0.0004693444720197253 0.0
0.00013549842187836287 -9.103014907902057e-5 0.0
0.0016447580387605697 -5.619534535535403e-5 0.0
0.001642990009746069 -7.078125683705759e-5 0.0
0.0032613454840868853 6.222496366815792e-5 0.0
0.002005537918985478 -0.0004780545551683901 0.0
0.00025778136237403324 1.3855249074229758e-5 0.0
0.003132670209965548 -0.0003758621156707597 0.0
0.0032932579149062675 -8.734802293474763e-5 0.0
0.002515563773982035 5.355029298339775e-5 0.0
0.002582065951845666 2.7139887712985445e-5 0.0
0.001532155015466606 -0.0007046301370892593 0.0
0.003498991248585775 -0.00010655498657307364 0.0
0.0015178825346932499 -0.00012680672610280986 0.0
0.000332458428041065 9.237755851733973e-5 0.0
0.00041485535870529913 -0.0003058521508453714 0.0
0.001069372662238036 0.0001440387805818551 0.0
0.003139163069140063 -0.0003000648272842395 0.0
0.00018342608513083154 2.787414363988803e-5 0.0
0.001875686569583628 -0.00015664822552700648 0.0
0.0028119139164819915 -0.00020210933703135355 0.0
0.0022585433448550195 -0.0002923378672250803 0.0
0.003519330820563939 -3.73241052519722e-5 0.0
8.235105397610584e-5 -3.976373902908992e-5 0.0
0.0033085947743245335 -2.201719124671243e-5 0.0
0.0035306345497517202 -3.681290231983699e-5 0.0
0.0017274105556996516 -0.0007895372601798871 0.0
0.0020462488767219815 -0.00030272598101594106 0.0
0.0011896225375727532 0.0001986323127910894 0.0
0.000843924716534765 -0.0003606678009053278 0.0
0.0011165427449369041 -0.00020062700131707616 0.0
0.0014654133807247111 -0.00016502310844814072 0.0
0.0007156141155742947 9.050991963637891e-5 0.0
0.0012976383130205824 -0.0005439374434625608 0.0
0.0006459918337554569 -9.926505449608266e-5 0.0
0.0004297589104067997 9.600612557235173e-5 0.0
0.0016638749485024266 -0.00027060426238840454 0.0
0.0025392542517544813 -0.0004502174034626511 0.0
0.0030156543868871126 -0.0002843753589699064 0.0
0.001194836706244843 -3.313395331715531e-5 0.0
0.0008112977437193416 0.00016520449527327951 0.0
0.0019357874980968006 7.631653675704992e-5 0.0
0.001034840736010843 -0.0001348722668578947 0.0
0.0028593666073821926 -0.0002967986861202333 0.0
0.0010069798501028489 0.00020042470992818754 0.0
0.0009070075391296215 0.00019576199114151586 0.0
0.0019643306812531826 -0.0004383096713719579 0.0
0.0019914587007403787 0.00012340056709117536 0.0
0.00139912827167391 -0.0007811950556125321 0.0
0.0026730462308201244 -0.0006484504411588087 0.0
0.0009593544479699163 -0.00033592103568190436 0.0
0.0024843934816554114 -0.0007230854776994495 0.0
0.0007721064039652105 -0.00012909854599477857 0.0
0.0029099746121465987 -0.00028916730944085196 0.0
0.001367857828691783 -0.00045094701409922303 0.0
0.0030939140814777765 -0.00018384876074353226 0.0
0.0008465360329270903 -0.00033744133944854676 0.0
0.001443749954470272 0.00017524397063198085 0.0
0.0012695254674990957 -7.300697327590935e-5 0.0
0.0015951994989931396 -0.0005976089339476028 0.0
0.0016932659129749934 -0.0002008044036959532 0.0
0.0016413826690626126 -8.452958485445972e-5 0.0
0.000982692434974427 -0.0004675713016198237 0.0
0.00099446517187499 -0.0004998649164576083 0.0
0.000642132884089211 -0.00023321407661477136 0.0
0.0008968621856769889 0.0002619209918217111 0.0
0.001652594018514336 -0.0006905262918645572 0.0
0.0031284271558830374 6.731320755734212e-5 0.0
0.002796369729064482 -0.00037195126422206114 0.0
0.0019548300222140295 2.8791968568900132e-5 0.0
0.0009173987536610342 -0.0003377878961160667 0.0
0.002458671044578882 -0.00027036497648437783 0.0
0.0020654860825525933 -0.0005952192931561139 0.0
0.0013655530569091263 -0.0004244113101853261 0.0
0.003332251321868511 -0.00010588211583847159 0.0
0.0034983577050683033 -6.443790035945083e-5 0.0
0.0012353400702482579 -0.00022871978043324676 0.0
0.0023575555864889463 -0.0007288312918883842 0.0
0.0032112294932264925 -0.0003233869146900289 0.0
0.0001610229546742326 -4.148114678750641e-5 0.0
0.0008517453894767413 -0.00022037669739811603 0.0
0.0010049739238308431 -0.0003344089942014072 0.0
0.00327256219411161 -0.0002787451110858894 0.0
0.0012915918609665566 -0.0005132781516354576 0.0
0.002240681988407313 0.00012688830570678155 0.0
0.00034399215526946926 -0.0003110602753550405 0.0
0.0020677941740000687 -0.0003588018790202695 0.0
0.003006416561522477 -0.0002562292700501297 0.0
0.0023912124003451765 -0.00043492502254209613 0.0
0.0033894653677567716 -0.00010124133413097224 0.0
0.00240969242384598 -0.000659685806925321 0.0
6.255795622292734e-5 -3.284641418244566e-6 0.0
0.0015833522707115306 -0.0002607807211589509 0.0
6.256699274907355e-5 -4.11527621980286e-5 0.0
0.0011279587081661018 9.59122858222794e-5 0.0
0.0007506660489269333 -2.516172853570618e-5 0.0
5.3758661815753536e-5 -5.3557898688470465e-5 0.0
0.000913961394078668 -0.0006474362319471398 0.0
0.0008455459653563072 -0.0005917478574484393 0.0
0.001523535945571766 -9.618802986749175e-5 0.0
0.001530565854467974 9.879262616574915e-6 0.0
0.0006181128209284078 -0.00048427491112938947 0.0
0.0010933076672045114 -0.00013113150338897104 0.0
0.0021105622799148225 -0.00023179294629295527 0.0
0.0006281094402237391 -0.00030226529548860816 0.0
0.0023408113104818914 0.00015309161453684784 0.0
0.002116207701413384 -0.0005751737273335829 0.0
0.00046032302878786484 -0.00012294736538882538 0.0
0.00026666495044444283 -0.0002228482292251827 0.0
0.0018302606584490603 -0.00013647947250608228 0.0
0.0001242453284532583 -0.0001252806555574403 0.0
0.0034313206114084784 -3.465912049695644e-5 0.0
0.001213759422371401 5.46154541818153e-5 0.0
0.0016746168392050068 -0.00024960389434869497 0.0
0.0030950594065362515 -0.00033458099357541873 0.0
0.0033854705653838585 -0.00020972074265855156 0.0
0.0028250657051253902 -0.00017459930473845783 0.0
0.001647438716741821 -0.0006589860975485407 0.0
0.002149028195304622 -0.0003396805504224574 0.0
0.0030227769538318963 -0.0004439202889702106 0.0
0.0018011868004477185 -0.0008284693730393376 0.0
0.002966535186438269 -0.0002603554002449122 0.0
0.002403076240026483 -0.00040699601202169486 0.0
0.001247388596151481 -0.0004916456039078595 0.0
0.0021214999033465493 0.00013562194875993666 0.0
0.0013168352151277953 -0.0004021086833491742 0.0
0.0011046262168492782 -0.0006469858855600568 0.0
0.0016478689049082005 -0.00020612417198019852 0.0
0.0027612197878574933 -0.000574708173201105 0.0
0.0006358925549208475 -0.0002117861880609409 0.0
0.0005169315485067415 -0.0004288688139572798 0.0
0.0025781136962261778 7.612211688891153e-5 0.0
0.0008040563281027653 -0.00024315988457563557 0.0
0.0020598428456610803 0.0001346860107053023 0.0
0.0011238096053054947 0.0003941204789557016 0.0
0.002667766814192846 0.00016448056366690845 0.0
0.0030884769433419113 -0.00016584441578253888 0.0
0.0017115918574031363 -3.881827795290517e-5 0.0
0.002758242610046237 -0.00020388430065074572 0.0
0.0021665209728491367 -0.0006266679077578917 0.0
0.0022891058593426895 -0.0007832203399825822 0.0
0.0010517633830824287 -0.00033097490439337507 0.0
0.0010870999372058082 0.00020881080611995288 0.0
0.0006974106321274018 -0.00021633023049460857 0.0
0.000775842181895637 -0.0005911979509853255 0.0
0.0015543273092785508 -0.0002876962775646708 0.0
8.352657348765434e-5 -3.622103335878266e-5 0.0
0.0005963842234980136 -0.0004436318275410657 0.0
0.0017035539401357306 -0.00011384634943229157 0.0
0.00020758833795045108 -0.00013660508803367154 0.0
0.00020657372746317088 -3.7017747358372288e-6 0.0
0.0018674902601440986 -0.0003950705937983961 0.0
0.0018769884719120314 -0.00014281739156699925 0.0
0.0033419233591480144 -0.00022637110837109373 0.0
0.0014659601691239 -0.00013331582253065988 0.0
0.0025581006994691317 -0.0004203889434525365 0.0
0.001893578429059807 -7.607794982683765e-5 0.0
0.0004917061823245444 9.098561946922407e-5 0.0
0.0006438819264360092 7.11839913951793e-5 0.0
0.003442498515731064 -7.339814655645983e-5 0.0
0.002181901998098115 0.00013094897577652976 0.0
0.0005176729168200115 -0.00022468997386612463 0.0
0.0021610523713104473 -0.00015025956353225745 0.0
0.0016393499096190886 -2.083516962017821e-5 0.0
0.0018595538695010193 -0.00020101111623265741 0.0
0.0006160820167046996 0.00016596917998552694 0.0
0.0018777969694905655 -0.000832760583349865 0.0
0.0032693724374145013 -4.9081086342632425e-5 0.0
0.0018377693776609949 -0.00033090956070747253 0.0
0.0018292716913236215 -9.66232699342631e-5 0.0
0.002326137452316623 -0.00024973222239565844 0.0
0.001583972137389954 -9.127952801450574e-5 0.0
0.0018467671896647499 -0.00030743704405691223 0.0
0.0008938121170584071 -0.0005052812870487129 0.0
0.0024561365728957532 -0.00038440163919106437 0.0
0.0014601409023497788 -0.0002314220594604249 0.0
0.0018276117815267442 -0.00012352996210579379 0.0
0.0028912251901049534 -0.0005516675103094906 0.0
0.0015595938739644862 -0.00020145808392200726 0.0
0.002179901848594529 -0.00011191984108164927 0.0
0.001902313056425526 -6.293695883194538e-5 0.0
0.0002800116355599446 -0.00026468013925958877 0.0
0.002812810058758202 -0.00034710395230414974 0.0
0.0018890106092069906 -0.00011130576792070594 0.0
0.001045908638113017 -0.0006443793286708901 0.0
0.0020591124438441395 0.00013650884340977242 0.0
0.0025607856670351384 -0.0007004449717593864 0.0
0.0034542900260052163 5.753053666762051e-5 0.0
0.00016214863757521 7.709122528279312e-5 0.0
0.001515543934350681 -0.0002969914097886824 0.0
0.0020182339227169345 -0.0007949427286715271 0.0
0.0012726277845045645 -0.0007278709014471968 0.0
0.0014463287607095238 -0.0007908474191229201 0.0
0.00027196123720888804 -0.00011273746164748695 0.0
0.0026051035872928278 -0.00039960293784221864 0.0
0.0010570995601518222 -0.00030754229075016044 0.0
0.0015062939514428179 -0.00020863930910908758 0.0
0.001199036374132615 -5.428650173073945e-5 0.0
0.0014974545803510641 -0.0007744452730876104 0.0
0.002570188755208951 0.00015848234658989984 0.0
0.0033005921117191506 7.189228252181071e-5 0.0
0.0021675208760416143 -0.0006003877647441532 0.0
0.001831332862289546 -0.0003564696816170152 0.0
0.001173811858472083 -0.00048497462037198083 0.0
0.001955613037324574 -0.0008327862645009106 0.0
0.002718097112648715 -0.0003393279787127373 0.0
0.0002391288138946919 -0.00013677039582535555 0.0
0.0032202060366264534 -0.00010198019486593372 0.0
0.001578756422954228 -0.0007838884726770554 0.0
0.001616892729782585 -0.0007051996338552324 0.0
0.0024525680356328535 -0.000627734075141182 0.0
0.0035479459715716164 -4.7535337837423474e-5 0.0
0.0013472236197465959 -0.0007460579389650476 0.0
0.0011310431736978048 -3.536772827986128e-5 0.0
0.0011916218808954119 -0.00023455530406096104 0.0
0.002310861554485835 -0.0002771476507166045 0.0
0.0034508689320756486 -3.745239867184911e-5 0.0
0.0002904103665270739 -0.00023242128966174274 0.0
0.0018534380744505915 -0.00028697564820054036 0.0
0.0031837331939781367 -0.000306679776295635 0.0
0.0034388235272211506 4.70585561360965e-6 0.0
0.0010073561615064467 -0.00019046473327577107 0.0
0.0016158375783709908 -0.0007916796134034798 0.0
0.0033447650188850077 -9.251052394135644e-5 0.0
0.0006174442960801023 -0.00041691768099607566 0.0
0.0035013813770400962 -2.5736330609991687e-5 0.0
0.0011344934393244706 -0.0007253775370664558 0.0
0.0024679380084676435 -0.00035668389083326967 0.0
0.0006775929180538406 9.59472025501688e-6 0.0
0.0022352425908532536 -0.00011522030672405052 0.0
0.003467233827117782 -0.00012145950842901078 0.0
0.0027696630630930615 -0.00031521295040937754 0.0
0.0009966083863848967 -0.0006531177517018139 0.0
0.0007086643446868941 -0.0005603573984496845 0.0
0.0008927261020932291 -0.000460948050299287 0.0
0.002962690192797809 -0.00047954603167284183 0.0
0.0027071590158867787 -0.00020694137919501773 0.0
0.0005619756372805448 -0.00023286467709162016 0.0
0.0014341270854275124 -0.00028440559439991666 0.0
0.0023063121417849497 -0.0003049315192330273 0.0
0.0013841218782995961 -0.00033303707435093367 0.0
0.0033751500200088595 3.1176830178326075e-5 0.0
0.0024684225905438947 -0.0001672260858209548 0.0
0.0014532932013076227 -0.00021567237469667585 0.0
0.000576759929799129 -0.000206929012392301 0.0
0.0026343654917844513 -0.0003583424268739729 0.0
0.0021967189952920275 -0.000737082046526022 0.0
0.0030996860932726933 -0.00040227136329109474 0.0
0.0012136922500650899 -0.0007147648956110003 0.0
0.0022853727942577884 0.00010731679877980685 0.0
0.0013201673919694453 -0.00037631286845666803 0.0
0.0020919792649907983 -0.0007891400382834505 0.0
0.003067467000372798 -0.0003356891332432751 0.0
0.002685899360651646 -5.426117784195476e-5 0.0
0.00337588912794757 -6.681706203127334e-7 0.0
0.0008176557688447877 0.00017629154484919538 0.0
0.0032823099826418383 -1.3202428197833917e-5 0.0
0.0011577242850690625 -0.0004456885190439906 0.0
0.0030299574556622555 7.668691552757193e-5 0.0
0.002114837295294766 -2.4428931637119176e-5 0.0
0.00248638449295918 -0.0001187158684816846 0.0
0.0010876070167284261 -0.00027685400201775845 0.0
0.00252549585448384 -0.00020038540953248136 0.0
0.0016936127406898386 -0.0007967089877601398 0.0
0.0009323683721138766 -0.000612067838681179 0.0
0.0019187094822055463 -0.00014909311039483194 0.0
0.002674716860082306 3.534572966438851e-5 0.0
0.0015888605411234341 -0.0007421301493753344 0.0
5.91102344668647e-5 -3.5647449451605923e-5 0.0
0.0034689988342879964 -4.678124080912606e-5 0.0
0.0030195837685576695 -0.00010746456073864086 0.0
0.001465946909149833 2.8499539323498803e-5 0.0
0.0035160458995422005 -5.722163091719603e-5 0.0
0.000982752339049508 0.0001463061290480458 0.0
0.0016422922574802024 -2.9080931924245312e-6 0.0
0.003573144957943633 -3.0396904880224883e-5 0.0
2.4768886465455156e-5 -2.9000344215681105e-5 0.0
8.77907441454922e-5 -6.604861288764309e-5 0.0
0.0010309500982270158 -0.00011567584568917702 0.0
0.002183037836558263 -0.0003494038216775627 0.0
0.0024859846506325857 8.474656551349781e-5 0.0
0.002765993177182645 -0.0005423287259389451 0.0
0.0034805644720077933 -5.57683495875059e-5 0.0
0.00026572553074890676 -0.0001567909769712983 0.0
0.0007504738030142438 1.742060219782246e-5 0.0
0.002211695746237103 -0.0007005863532155356 0.0
0.003124757261277137 -0.0001079850325981254 0.0
0.0009212083478156353 -0.00045963093430238637 0.0
0.00020470816070888907 3.703694539585229e-5 0.0
0.002212323549012156 -0.0001587597101149235 0.0
0.0010755082801947652 -4.01664772088814e-5 0.0
0.0026271047848171964 0.00014975309026150378 0.0
0.0016648234458588578 -0.00011073991089467681 0.0
0.0013722971522855197 -0.0003527344347448511 0.0
0.003172452571364283 7.099719791341044e-5 0.0
0.003239673349486854 -0.00030895414308656013 0.0
0.002659265060802383 -0.0006272880873050778 0.0
0.000810124018480584 -0.00022435807620978818 0.0
0.0033104094432119505 -8.988518819410365e-5 0.0
0.0005510013762076803 -0.00027664173787589054 0.0
0.003342180294105031 -4.198486957893827e-5 0.0
0.0029911241933967742 -0.0004691838951368159 0.0
0.0021397785085266415 8.202680210359524e-5 0.0
0.0024709138620389276 -0.0007020719770554349 0.0
0.002588797423176423 0.0001329876431009979 0.0
0.001647127752559122 -0.0001716333892522876 0.0
0.0009230785467762704 -0.0005803219521680535 0.0
0.0012809948396539511 0.00019035630867890037 0.0
8.42329662815097e-5 -3.576196888059294e-7 0.0
0.0034367085372611884 -5.567970768810366e-5 0.0
0.0003709533190699335 -0.00033595983264987146 0.0
0.0026359436125746338 9.170707215050186e-5 0.0
0.0006460031669124572 -0.0005033090346991018 0.0
0.0024720235110188634 -0.00033433535866245304 0.0
0.0007371311222886207 5.2186981435555687e-5 0.0
0.00031237057717806496 -0.00016940228017243793 0.0
0.00045250838873873436 -0.0004134788294743277 0.0
0.00040732223114933297 -0.0002845839678443777 0.0
0.001093095945933113 0.0002391019832948638 0.0
0.0028021395725291542 9.330054179803754e-6 0.0
4.574680505547557e-5 -4.22701725529142e-5 0.0
0.0029966741067825125 -9.544410262263832e-5 0.0
0.0027093366522545027 0.0001458095009264924 0.0
0.002237222955975834 -0.0003328327513596547 0.0
0.001666635735195717 -0.00013576948029728675 0.0
0.0009458574173280801 -8.565484275048184e-5 0.0
0.0017057512342625119 -0.000186135576940798 0.0
0.002261886250350135 -0.000638076442383256 0.0
0.0010986350366903846 -0.0003079563834708392 0.0
0.000822747390144548 -0.0005904645480082108 0.0
0.003060366987179678 -0.0002588883003952121 0.0
0.0023274201706427076 0.00015752062086064195 0.0
0.00037328343436136477 7.805060219430038e-5 0.0
0.0010631786623465898 9.476606521887982e-5 0.0
0.0024044147652110184 -0.00025170110355704657 0.0
0.0022484994741910425 -0.0007621177211816561 0.0
0.0014296180801802827 -0.00030368869402097137 0.0
0.002852252373347814 -0.0005438718956128507 0.0
0.00022056315215598853 -0.00021679717978284932 0.0
0.0024915198186996165 -0.000600944726352238 0.0
0.001193024238913954 -1.2086609904736997e-5 0.0
0.0033689816756864994 -0.00020770796054753033 0.0
0.0011491515516051896 7.088239372518584e-5 0.0
0.0021978180385644323 -8.203917257799267e-5 0.0
0.0018822555531851253 -0.0003790734392678142 0.0
0.0016473236012318434 1.3371391615426209e-5 0.0
0.001954519297372205 -5.5066668069118985e-5 0.0
0.0021708853541742303 -0.0007733582771722306 0.0
0.0027896232150200224 -0.0005665115397682036 0.0
0.0008865137007447105 -0.0003421687482872752 0.0
0.0020057557984755688 0.0001008727909261294 0.0
0.0019565799056096393 4.595097518282491e-5 0.0
0.0027802677749813485 -0.0005033814640186427 0.0
0.0016545185831237843 -0.00015718646294189749 0.0
0.0015959601888305825 7.917848491787845e-5 0.0
0.0009169540599841849 -0.0005507817325207202 0.0
0.0033464372751878463 -0.0002066176616440425 0.0
0.002342551206938547 -0.0007694751315836931 0.0
0.0015924803536625464 -0.0007204328171980604 0.0
0.003468326874999162 1.570943080235259e-5 0.0
0.0015700031561659644 -0.0006390501833721283 0.0
0.0026419802861813143 0.00011831132736128589 0.0
0.0009492537827296275 -0.00017333552914675034 0.0
0.0023370171099161632 6.538289321394536e-5 0.0
0.0006903618884392492 -1.0660280515900852e-5 0.0
0.001500564394283791 -7.282733432681895e-5 0.0
0.0010324585346131888 0.00031558905451498017 0.0
0.003529404927761584 -3.51307506587016e-5 0.0
0.002182672881742122 -0.0005784907889355889 0.0
SCALARS damage float 1
LOOKUP_TABLE damage
0.38426490888324266
0.13673770644114952
0.5017043014560515
0.15275278741942203
0.9700986694749694
0.9840645437498766
0.04098061171501897
0.5655540438386396
0.5600348563864678
0.5671191658540199
0.5934622902873068
0.6152055570763075
0.6442691439459278
0.6727433074056915
0.6900820841421927
0.7028710106247036
0.6986092870601399
0.6915529499906421
0.6767004812786653
0.656206348898194
0.636326093311427
0.6239664106028734
0.6027315526281514
0.5801693523358544
0.5648390072284596
0.5443305911918649
0.5163011238736328
0.4904337768606148
0.45401627051591714
0.4164488622047366
0.3674116003459466
0.3093821754908383
0.11820802013149521
0.2132842759905562
0.23322532359803683
0.26368023775417343
0.28417172239657135
0.2993382161120715
0.3164007349064889
0.3284346006232418
0.3408718983755438
0.35320989127068164
0.3628651498671702
0.37385339449042615
0.3852323958057568
0.39285597876125505
0.4002552215030412
0.4098834012402408
0.4205980378649472
0.4331419016245198
0.44039488568097274
0.4499736805101576
0.45910283298478394
0.47211235645667576
0.4764168101188616
0.4914505320756581
0.4976547601652591
0.5110952046267513
0.5198910284517788
0.5356205193127715
0.5395067721590904
0.5560850699915723
0.5662954939412396
0.5805897519073276
0.5904229764420281
0.6040292997158517
0.6109730596055739
0.6217837256287474
0.6366166590084507
0.6510983478968345
0.671748652088242
0.6855411745671741
0.6996224902552158
0.7241821968229676
0.7379154316822257
0.756120576346538
0.7778404619676113
0.7894885328756948
0.8127487932978977
0.82692214946922
0.844136182646902
0.8633238747561098
0.8775212459493513
0.8827925622203172
0.9063819708651498
0.915776430787372
0.9421655394367437
0.9429824296502076
0.9591560697550517
0.9612081392409393
0.9576530787975644
0.9492832141122044
0.9364371160145825
0.9204449791084615
0.904819408157873
0.8834831617614831
0.8702756068655019
0.8518445416840901
0.8241094838163636
0.8050201368791411
0.7868119043130343
0.7763451760295281
0.753866936194541
0.747774067778304
0.7305035573912264
0.7165433246299402
0.7060094054409917
0.6862861059708398
0.6797593189727003
0.66726123031476
0.6549093708747636
0.6385205678192025
0.639400541757495
0.6178771990242428
0.6115151377529779
0.5958172100394188
0.585272548130171
0.5755236697296952
0.5593426161324715
0.5478280998896833
0.5387453979614264
0.5243796249432285
0.50670003630782
0.48794986795593387
0.47516775575204306
0.457525334619273
0.4413180782860146
0.40017354661872323
0.36653204179666765
0.35091553229800027
0.22801288109586315
0.3004105460964094
0.3810060419329332
0.4679925833858585
0.5129042535916856
0.537315937862062
0.553976666891592
0.5655352568147719
0.5732388041786013
0.5791655153537515
0.588404522002174
0.59477426688126
0.6010002152314468
0.6070733556337274
0.6126619134380792
0.6147439646486708
0.6129629472582281
0.60749853680582
0.6028164655748216
0.5880176121974159
0.5824938497629695
0.5744398884722928
0.5684209717611162
0.5787674944379568
0.5978236131672781
0.6780291440760641
0.5697942240636187
0.8890408250934494
1.0063665777202024
0.9916175107262452
0.9873716747010909
0.9536266198147056
0.8381958066555066
0.7461922673361994
0.6441949656254413
0.5589242146451695
0.4711500406136778
0.40987193445277814
0.3358776765129429
0.26248049289336617
0.19013951564575982
0.15506700767650528
0.02101302057439831
0.08210103806156303
0.148101868812577
0.22621843928493773
0.3131483676602515
0.4179241562865485
0.52804625180826
0.6564990663610926
0.7894712983538039
0.9188423101216532
1.0075735498645098
0.9955630706779652
1.0024933046417919
0.9579480524569066
0.8471293544454308
0.6094755277690307
0.5485282320370277
0.7817294193675519
0.635964715691462
0.8966611632207788
0.7448308164511014
0.9450487147954261
0.8495342422701682
0.699559205425344
0.48586009866191765
0.6428209484765226
0.43689695626771996
0.652519490217346
0.6089984244246703
0.4361740979803751
0.4530961966010705
0.05687187499410317
0.27230973233398537
0.5817750412929743
0.3914800001317245
0.5895434655478872
0.5879872479194863
0.5928427999384948
0.6832337207780418
0.5304562722974092
0.34471670299606166
0.677118571655354
0.5274065655216077
0.5347659043271269
0.5590047129240506
0.6892898235407968
0.8006467346539331
0.9420088557826799
0.887582369864066
0.8495760640547216
0.7352892484540061
0.6009091758339705
0.5155550388233656
0.47703571149181934
0.3044975889031202
0.5647728735792712
0.6505350616943825
0.5139649666022679
0.4398432915552857
0.8206123608316589
0.7793450267588268
0.5690403841698164
0.5789493143474109
0.6246500956290945
0.604518335623993
0.3737484861938737
0.14789952123910394
0.247558333240309
0.4065016238354836
0.8063659787342262
0.9210371325757762
0.6589538986621961
0.572128723708081
0.95453056560729
0.6738606168124519
0.4662407935228243
0.6174608204321674
0.4162357057772324
0.3682389104757987
0.5540500413370852
0.7969546536216
0.8260597167065653
0.4336307386714526
0.35509169724687994
0.9836214008571565
0.9661221484487554
0.5153928320009638
0.626354906192912
0.1979923245365273
0.34156244560252924
0.968063430097546
0.7981012484532763
0.6573061978065609
0.6665108332319292
0.7558331054468237
0.6387975193310413
0.5978889621256771
0.5753216228620046
0.5533903865224098
0.5349809503291489
0.5459274944053528
0.5204947573974866
0.5283955846754009
0.5122665413904843
0.5209587908254578
0.5186192398085179
0.380137120771656
0.16210847350196908
0.3289444944833972
0.19785326416102408
0.3190040489625372
0.24450529421022485
0.32322025222494166
0.27821702674944976
0.3332781530405283
0.3005275910366874
0.3388230774191878
0.3218976343574315
0.35451364897268334
0.33733214680464263
0.36379961839946245
0.3525949136053139
0.3735742112482475
0.3625498248041326
0.38060177528016204
0.37346230483801746
0.3883824539231189
0.38438708730608245
0.3959895018962153
0.3939744855514016
0.40599819567290724
0.4054217925065186
0.415280376887595
0.4137392135072105
0.4233704117714212
0.4208369788862831
0.43100391722512493
0.43207090166362194
0.44049256363042016
0.44220248949050833
0.4493592396537635
0.4509948114016951
0.4582810701100171
0.46114124764371295
0.2647459955557414
0.4681627626719824
0.35963377739769065
0.4277691661459302
0.4710407835823007
0.4783909247489467
0.4814492312715002
0.4741854154054623
0.48467190132250343
0.4888803932708048
0.48584345262045603
0.4389667884333049
0.49679352517573067
0.49351768550022107
0.5040614688079694
0.4772534849219262
0.488028473407331
0.5007064300018139
0.48082139984084055
0.4915316503507164
0.5129337918929185
0.5099310644586376
0.4852960729704662
0.495862527760702
0.5224884442817331
0.5198825797776608
0.4890116371679676
0.4989793889620652
0.5330237389391106
0.5305741273120996
0.49151194554393846
0.5022572962727689
0.5440978378427265
0.5417466248855454
0.4940141432086514
0.5065613982315309
0.4972902291846837
0.4859214793984446
0.5466389751415636
0.5556369394481334
0.552703158326411
0.5381930923492426
0.4010243396922
0.5501927336563199
0.5349169393896581
0.5472045726286102
0.5100046304847675
0.5016352374915809
0.5161221295573096
0.5675141086170211
0.5115356504847045
0.5024865537100196
0.38380751051851814
0.511913558839545
0.5032374932847828
0.5122002112171401
0.5032601574579603
0.4947228511828751
0.49405591064891297
0.4878375311975526
0.5120286329166254
0.4900871935296912
0.4821685151269853
0.5218350383338759
0.5206896147777426
0.48388345347074296
0.4777626402570429
0.5343198454509399
0.5461635166612342
0.5302822739695789
0.5275595243171621
0.5345267664072676
0.5476250913357824
0.5605178146596141
0.5604487526618728
0.5778987613302545
0.5750707317417016
0.5929965850330969
0.5881628195675985
0.6077241837851021
0.573370832645501
0.60068085109339
0.6227822379555342
0.5382157109130625
0.48024121955127363
0.475031374877825
0.629639656382307
0.6457490471305924
0.6364590994049565
0.6572148542210573
0.5352443383916703
0.6607092480614507
0.6489115453379306
0.5462731765355898
0.5436685716325108
0.5330583200963125
0.6739077709842525
0.6610219371291252
0.5559246690715333
0.5594055928120468
0.5402110167191535
0.5290441707657396
0.6831630818057282
0.6707182311071185
0.6438426023870981
0.6965556636048741
0.6515670394978471
0.6291819564564505
0.47788942198758505
0.4750128896399463
0.4696843528286971
0.4746734570335649
0.46483935508932317
0.47172850461376664
0.46045063012497117
0.5694371263520218
0.5726998510552231
0.5353189311665583
0.5245077891469474
0.6766275677853477
0.4729707147600394
0.4599016697189987
0.5829796219679315
0.586448446571659
0.5049016359588062
0.6576236215245365
0.4038463695972851
0.7276765255717405
0.39628616702387437
0.5367901179025981
0.47566194473844003
0.4618095457860961
0.5315778791800444
0.5212854901176409
0.596919672171725
0.6014240511385992
0.6822156137252818
0.48057765001035885
0.48163930341832356
0.48496859576526374
0.6597396833205554
0.48462266493698514
0.46683995423286706
0.5925685224154282
0.5262345319894474
0.5157807438729768
0.5242059838520532
0.5300737997263538
0.5171115389929092
0.5276290985055906
0.6120765990060403
0.616308951621294
0.4776543007218211
0.49239275000358657
0.4828358750368409
0.6852078068956702
0.702442603376247
0.5163432322458638
0.5001972111783557
0.6654413626042808
0.6405448475145856
0.533035196093842
0.537910082094092
0.6283607426573661
0.6321339528316935
0.6195643895822384
0.6357633055880443
0.6223323650717106
0.6387630267598234
0.6244223584967067
0.6404974987212833
0.6251196833437801
0.6410688296611311
0.6574405283645506
0.6582192932929585
0.6755812690103608
0.6760897200235451
0.6943571214325855
0.6945265043564439
0.625086548166572
0.674914077499329
0.6932282936268307
0.7143327718540281
0.712847764642386
0.4832693238911156
0.48306162104622186
0.5209003031203981
0.5109084342077335
0.690518627239805
0.7096836581046236
0.7337334829548743
0.7300711042315954
0.48664804284015944
0.48440030532339456
0.5151862467921923
0.5298189617321598
0.518574381854603
0.6886236599832938
0.6684374646024592
0.6454316697763927
0.44395037473553906
0.5164542901380582
0.755818384081982
0.7513515565950946
0.7248796875347805
0.7462312708137171
0.4976221703248751
0.538498448889616
0.5486014552666902
0.5200311188455843
0.5152933536148768
0.5054754207051871
0.5263535497222408
0.7729704714341435
0.7680022970774713
0.739157329441323
0.7622912993907835
0.7324455609506122
0.7541791783652279
0.784889722522873
0.7758133444615032
0.5468268204762508
0.4886371465642562
0.4845963544665373
0.6416368872821102
0.6922845858088215
0.6735866386648112
0.8035623040020553
0.7970281415928405
0.5284287236087502
0.5108273218848132
0.5001580280427161
0.46461344811295113
0.5139773367405523
0.6591191186273475
0.5500385401604523
0.507145611808397
0.6962479952677858
0.6728935038141893
0.6427984615612955
0.5550203683277775
0.7069552757787427
0.495181038598834
0.5169963884671009
0.5556451635587586
0.5444574338079002
0.7250650867848573
0.5032620795449889
0.4932392213517741
0.4904132958701008
0.4847134966800871
0.515455189761655
0.8244833244970617
0.8131458208406099
0.4904737303754319
0.48441234559960283
0.8320794984112061
0.6537576702596741
0.4858904496522413
0.47742891861812786
0.609220291501422
0.6434225014412914
0.6150094229315513
0.6730072426650138
0.8393828918890004
0.8272859092088473
0.7046405335527666
0.69750457551483
0.671933149922658
0.8021273344314612
0.8136948080779274
0.49290686924587107
0.4843815423759625
0.8354953618474376
0.8203663613103803
0.47807314542093016
0.46958961978479685
0.5780048485751167
0.5710169253584391
0.46990620629895646
0.4625497906891735
0.4604369136333684
0.4536055472645225
0.6429243859868671
0.6705098504165384
0.5335255216221246
0.5509570146184382
0.505633900859439
0.6664567996215168
0.8386392541513965
0.8235121685801033
0.527672291724097
0.789359734283664
0.692787627233733
0.4566668210994748
0.44854444172940133
0.44529679655473037
0.43934724226402816
0.44389828044774415
0.43511466352861083
0.44223973894550633
0.43370819077521466
0.44519521637749515
0.4363149246758084
0.4510801162647969
0.4240382699298647
0.43075845968045245
0.4938540654016698
0.504692771670196
0.40891380636416413
0.41738526325648345
0.5170881581596615
0.47969657349205347
0.6784319969245641
0.6719063586985256
0.4821331903625839
0.6849095040702059
0.6894032150500856
0.6902281240430526
0.6651339252267814
0.6423273427238532
0.6630911429574464
0.6769887953893597
0.5334693348121794
0.5642114894492727
0.6480482967205536
0.659463092690989
0.6422978748836581
0.4345483300240722
0.5998181261079014
0.6010430586732634
0.4895064384729665
0.8386434462611264
0.8236315250412771
0.8095696797408007
0.8109306241706004
0.5216006025284965
0.5414287721470602
0.5757905180971092
0.8515427432150049
0.5197653232372513
0.8212848632764275
0.8091755581046751
0.7961968276068468
0.7959751304426008
0.7826417388055329
0.7832389985781175
0.7926044816992595
0.7803914501120296
0.3995348482598635
0.40372637510213244
0.42931819379898833
0.7016503140535334
0.709057018068457
0.6522513325217597
0.6353441214827651
0.6618749695628431
0.6508386924241325
0.531970966215488
0.5361279060675785
0.5669309773292173
0.5598100967507157
0.3958930955429364
0.5316180909672374
0.5040185914529058
0.6692276421751205
0.45561979180734524
0.5182044676343858
0.7861256189349682
0.7752591800850198
0.5269003931826289
0.5193485389491955
0.5152456957127827
0.48005811945897087
0.507415839903618
0.5204780954328774
0.44159974221269377
0.8167210532337825
0.5716702929724586
0.7583974507680307
0.56451566241277
0.38499872688878906
0.39211193751308876
0.4879650989624092
0.6831679336825512
0.658159047835198
0.6691609884690041
0.532239413725254
0.5271253528828954
0.5378737367479411
0.5351928216733124
0.5276459237479233
0.5348088943016513
0.5434871927322839
0.5413253713143595
0.5524472517403061
0.5540993229655111
0.561757171602197
0.5626633443577226
0.5720054990270402
0.5704811935079259
0.570978411780316
0.5776165941404758
0.5785332214926268
0.5310895661063167
0.4825017294935328
0.4797943280473963
0.4896958288395284
0.5855074839913667
0.5838263436706257
0.5845950484724225
0.7818209940192623
0.7832451054676209
0.8070955172314135
0.8076325740274722
0.8312450490055119
0.8306842134194815
0.8062486460451203
0.827719075420123
0.8023968836389762
0.136502497228153
0.8545705844704939
0.8547722895313157
0.49990634538296763
0.6101048380604525
0.6092872848164871
0.5951789131006824
0.5935279804643068
0.5803215866716454
0.5781253328605905
0.5909831250305109
0.5751350190374216
0.5883415632012567
0.5708564100035294
0.5837178988913863
0.5595949641859439
0.565625057347602
0.5681091190073975
0.6010527819697199
0.5966804538602388
0.4814087495166683
0.4438154947303957
0.31415914507118886
0.6866877076438216
0.6081658116682414
0.6032557409837986
0.38994225551966505
0.41590595207580194
0.7800682803610478
0.5632915851627089
0.6458818852437175
0.6365542024838976
0.4572091549399918
0.6447754062140318
0.6280832277354291
0.3826667031493978
0.8211361474551387
0.7951867618718713
0.6188098561886977
0.6127776341562605
0.6031913083284249
0.5982630261623744
0.6070221420800349
0.5927009705863048
0.6020803963909542
0.5873025089425732
0.4325184677347737
0.581728151959785
0.6308058189583341
0.637704466764707
0.5195549587064173
0.5079114229761464
0.5733811720172282
0.5576723489096725
0.7214744436250979
0.7273373910267877
0.8472797787765844
0.4508574831867736
0.5176378980575613
0.5951304491410383
0.6493921105014804
0.7659505501787746
0.6260500107667633
0.7681770586878245
0.7628359294813328
0.765691815680989
0.7536604535813454
0.4698615807387591
0.44146386193011045
0.5668660391678443
0.5566057342435295
0.6962311972290357
0.49198825214227593
0.5001700374617633
0.8601350738973271
0.5890819150328821
0.6535386511658394
0.6599251226920982
0.6245797096559598
0.6163590226969894
0.6204502504058622
0.4886107815556666
0.3678785931045116
0.37781613168880435
0.4083547790412298
0.555359182255151
0.5605539719246011
0.5543056563782705
0.5769023395416507
0.587615230431126
0.5870172414153555
0.6373562384842375
0.5404396579469359
0.5800164117524319
0.5742671293076301
0.5498041494361806
0.5572317097857385
0.5567271673676326
0.7755872067488861
0.5792866127485451
0.573073773414855
0.5812835963139358
0.5678375160296663
0.7530763227674561
0.7456938562523877
0.7433116504555386
0.7331984199410574
0.6404973184352388
0.6339365186533004
0.8773293089958967
0.876176079428425
0.5538228286108795
0.556599865964022
0.7110149170588704
0.573956199891165
0.560861179240331
0.6844172687323655
0.6783225549245819
0.6936926102712792
0.6826549659299682
0.742360563575213
0.36455385695306386
0.4572908913314711
0.4653219554071102
0.5274869107316853
0.5421123820163993
0.5314460651753031
0.557993177199602
0.5461606037737515
0.5739282387084785
0.5623477872733202
0.6589312647621073
0.5598600820825544
0.7610491129614652
0.8646446221442345
0.8735218105856329
0.8767559703582709
0.8140274049238954
0.6137271843870357
0.7258046871834778
0.6028909123665592
0.5901314700065439
0.4846567336511789
0.6185478332366144
0.6692890088491847
0.6641660859700299
0.8466590051300286
0.7886873818371636
0.4826429419950208
0.5827816466192428
0.5856724531601695
0.5846429234669571
0.5827460691486447
0.7057838449943183
0.7957038915944774
0.6362698670915351
0.6534599469815401
0.5223510251727153
0.6760001343323612
0.7755262331116888
0.7632629980125073
0.6076812953160993
0.6180673798345815
0.5026690678169913
0.5116900058198015
0.591203944640464
0.5800246024885976
0.550088978554924
0.5673915592451096
0.5969677366530537
0.5843112764744819
0.6115723570495118
0.5990309851073541
0.6226653501114922
0.35232595567118974
0.6428242176467693
0.3642563079862167
0.48325264102011567
0.5766962555668445
0.62393974032956
0.5867486540834259
0.66257632731409
0.6088869154583031
0.4306816789266264
0.4223839175843509
0.5884015691279175
0.8544286813691595
0.6534997688441904
0.7158287196666244
0.58658481187379
0.5692552220626502
0.5574178642296966
0.5694484808633907
0.43867471158958654
0.558524800291942
0.5112447885443682
0.8974616369135526
0.8955392980531013
0.8747002443091348
0.8935655952028815
0.7760905906903052
0.7507296495215057
0.5683670178339488
0.5755100196327568
0.6698958718853231
0.6976977982356031
0.47290944988861555
0.567014356817297
0.5541721576466189
0.500955569016571
0.7346767804588454
0.6255895246932188
0.5483603483879032
0.9128352203396345
0.9098056515693645
0.6233375412273504
0.6273205987921815
0.6071392847949533
0.48351379958933105
0.4614342218324343
0.33391242664758813
0.8698459208737207
0.5827354572233749
0.8067814239336967
0.48501942688976696
0.4937502103843874
0.4382258831219571
0.7250876241329073
0.4890031123299809
0.4821870711833767
0.4882164057221605
0.4821644863145484
0.48669796394573805
0.47670089681754724
0.8868646680763456
0.8883173829646689
0.5851206953039633
0.832029201253228
0.7124384180340507
0.7094105386609348
0.5129367065216613
0.53534293587283
0.5143173804029247
0.6157998159498108
0.5990294011573358
0.5393778496070326
0.522177741394541
0.5196450061333047
0.5244683748605584
0.5047228306436051
0.5566416660350494
0.6310559948313683
0.6660527405814233
0.6034672703740304
0.8960164051642316
0.6475872013772067
0.5783783680189409
0.5618691340072378
0.45192489446499357
0.5581119136206457
0.6174294561351924
0.6135040911510675
0.4696565346530805
0.4195656070303686
0.4111904927620631
0.4158027539927639
0.4753612010561533
0.34750146157372375
0.38678245729009314
0.9259447094132177
0.91798920330384
0.8997401335257206
0.7415638600933577
0.7433981302975712
0.7120951410565728
0.4776359477725658
0.4735015603944401
0.6290770696173283
0.5851835070696035
0.5829211296367954
0.5711977794654215
0.5614846677039312
0.3306406990541306
0.49973034479221
0.483093571123406
0.4738487931559271
0.456991128835211
0.4558434506525501
0.4629785678645558
0.6481471822375496
0.5435188378389909
0.5400424425467278
0.40875326028104914
0.3996581789342868
0.5230034837685117
0.5278649070856802
0.5385153616697944
0.5411847370586303
0.5348208156213415
0.783595173877426
0.766857513220389
0.8006905429541252
0.5596722478011779
0.5131454236410384
0.5255609627434816
0.645335256830646
0.8984907222947426
0.5893620112324456
0.7097598286627899
0.47252955561953186
0.45614255857732494
0.47043248190028814
0.46040295987795915
0.472860813085136
0.46729431626581575
0.4793024458368641
0.475921113767121
0.48772689368638755
0.44815193638520695
0.4652385171943211
0.878095709618485
0.5592153442534539
0.5941535774774244
0.5808771104069692
0.6303002059177747
0.549756627358973
0.43966301855426254
0.604931143719883
0.5707423925883843
0.39288003557296264
0.417223512979867
0.5422340085039037
0.6004498989427269
0.6026332481499423
0.5696114007393159
0.5570160679174612
0.45109122931567597
0.31268053624615577
0.5452134728349364
0.525099624723042
0.330768339790522
0.7378218583905747
0.7250198059392102
0.7372657891084902
0.7126774859901405
0.4747944755271867
0.5940909295641618
0.4530307435395513
0.6129910562287205
0.5934148878818659
0.5326667267752773
0.521398932917887
0.6642660991430828
0.7953629299411432
0.7835656554822699
0.7929212356402844
0.7776202148728574
0.7836376732637585
0.8018643499337037
0.8285497289572682
0.8759323384594156
0.5566474579684624
0.759377730220785
0.5694494195008818
0.523969876728392
0.5220694425026888
0.7711592877923646
0.7614648351706196
0.7564790571370927
0.6731109583915396
0.6889605080972747
0.7063764916260009
0.7244010995886777
0.5490226861585403
0.6865648254161343
0.8504022424890122
0.7317586972344784
0.711035418386426
0.6973853180300607
0.7149250515813904
0.5250840765641934
0.6164581645450452
0.6094315426496908
0.6236877924269418
0.618057259481406
0.7250676855340437
0.48478305671137417
0.4655246687168788
0.5816902622954194
0.6084841319763923
0.6250748986127663
0.9000193112982268
0.907643064331966
0.6525016620516871
0.5524551057013308
0.46554224966701857
0.7125918561407854
0.697005432343359
0.570436833503371
0.5476779517475285
0.6984846843720581
0.7483831181335447
0.7524810397042072
0.6839585029174132
0.7062330407649359
0.6315509603146662
0.9304156108837089
0.5704012372845637
0.5958497054928555
0.626811286940018
0.6809511100290405
0.9142204384396249
0.5310869718261891
0.5755316485401417
0.47547594036128144
0.5501316570299818
0.7789114734939041
0.48009704292136113
0.6845785312604529
0.8049416601908801
0.7920506395768881
0.8120077183500781
0.7668986613395643
0.6074249270884573
0.5228787457016553
0.7205406304121599
0.5810360185488305
0.5664074918658466
0.5619760005402857
0.5358585367517654
0.5153226424686542
0.528178875068916
0.6397500584843062
0.6236426802781572
0.7177558324694732
0.46279663551457784
0.47003092687357456
0.46636842318670335
0.7253235624555585
0.6634106607015882
0.6411169396014712
0.5883060521854105
0.5786851272167601
0.612960126376041
0.6168659699734759
0.625543557389578
0.5889938154294186
0.5816614933651278
0.5792423244200126
0.5671747578187785
0.5782289711566307
0.5651793356024868
0.7006563436040613
0.5662549649344735
0.5775320494894978
0.9309206585585543
0.6415006073756694
0.6222124109011584
0.6141583463009345
0.6061082551720761
0.6185793247620016
0.6077265880923423
0.6077524470379613
0.4921246085149577
0.49083576851092703
0.48546359261476874
0.4888128169577414
0.4947573515155169
0.4906124035475275
0.497529117250464
0.5620518392788181
0.49409371557700016
0.5002910017471855
0.6276421312609791
0.5064020176038991
0.5052358556382041
0.4850271810659824
0.7317611099166732
0.7442215056536567
0.7833223164775526
0.7994199047082479
0.6504929159208518
0.4692085782646438
0.4450158519374251
0.3818853447197438
0.4141262893662773
0.4413112658259982
0.3859128879971757
0.4020522258481369
0.336883306207814
0.3637349999012391
0.3141255893589609
0.35061362936710755
0.3214189345919905
0.35050968331044136
0.334583002047455
0.3564803355564294
0.35143307635062904
0.36733072254415294
0.3660383813482719
0.38040425463541416
0.3818788426344275
0.39422456936050737
0.39736901931283003
0.40828327567215505
0.41197096323972066
0.4219095003730273
0.41803243314576893
0.4308522087631626
0.42795547583480154
0.3834825997654623
0.4028442987659795
0.37167604936471177
0.4210809431133041
0.3326674913077471
0.42823799401283386
0.43958105458449165
0.44373246153708196
0.4513283444554792
0.37486614733377244
0.2911865006034503
0.41643697859419326
0.30389242332401134
0.4561948976399284
0.46269945357077885
0.45780694526852767
0.42774610145267367
0.4193456785735847
0.4492354115846742
0.46205074213907404
0.45607612070726755
0.35588676035902467
0.28960307293029725
0.46825821887885166
0.46425396669852464
0.455113554968354
0.4613804157200542
0.9116062071780484
0.8916265741477398
0.5712351061481878
0.8432301527532571
0.8662785963569251
0.5862139486227897
0.5995433873416435
0.5141813879495093
0.6152402444747975
0.4735851359466834
0.5409112565177995
0.5376561476681173
0.5423517406471919
0.5931679228740159
0.4812766939095674
0.5818018569547837
0.5813023611056379
0.4777415413941816
0.4503922543710422
0.48423931305410184
0.439263390205387
0.5165129590904839
0.4907666279757592
0.4992066293692043
0.49611240670869017
0.5287923975263267
0.5385258499186305
0.5254430552058532
0.5348076067378299
0.5213837772153077
0.5310384159835181
0.5177411260819151
0.5269330120719646
0.5407507822537493
0.534963157375521
0.5887703757862698
0.5760312085088654
0.5795745979505328
0.5639300436410356
0.48045372276649123
0.397537625614705
0.3894065497073898
0.3911933931269111
0.3805537826396525
0.6333943263263525
0.6226088289105055
0.6443526893347823
0.5106598930073962
0.46537445783091247
0.4566394826947408
0.6888796572634709
0.5909061777269026
0.5625550162289105
0.5508747267562321
0.5564344667455982
0.5356941633720939
0.5071159100173837
0.5141284437982928
0.4846863716471225
0.4881671510725721
0.5255317985645686
0.6363081218291481
0.48845741564666184
0.4196935641829643
0.46793866526039946
0.572390470799062
0.5954906957253266
0.7359019087349733
0.7370136510008239
0.7194868371227
0.6593904350161258
0.653289383157436
0.527520193584313
0.2863296682199994
0.2863881808291274
0.4811241145576394
0.6502490864733999
0.6787836486368641
0.7431075563002657
0.7584173010898321
0.6300707940821872
0.6752553342204505
0.6876595520675246
0.6952046082705801
0.6776357358441497
0.6797147098567673
0.5866999389233966
0.5982785346480709
0.6048101426186387
0.5958347205437324
0.475119634367919
0.5982616273066027
0.5971502288624795
0.8434773134286475
0.3768331023012887
0.36603633462240276
0.3744985608757127
0.3599452378953242
0.5491773058335809
0.5790349241369407
0.5853471549544367
0.6970898041762181
0.5335314109062267
0.6707279068012714
0.6537799587147225
0.6468487306911321
0.626868228893109
0.6261578894066877
0.6427291160986722
0.6193934472932586
0.8157235308477083
0.8108900612496048
0.7842182759648034
0.4780127210773027
0.49003124676483145
0.45986292760667374
0.46120226412733833
0.6248449020614047
0.6102019352449528
0.5184837393133735
0.6315625470612142
0.5694931634812266
0.5534721983569955
0.5469146405542781
0.5608889558671242
0.7151847598852915
0.4568003301831516
0.4559825480319407
0.7477690107232594
0.8641924108389722
0.4873251258952788
0.47639602572121154
0.5110663006121543
0.7445269331688609
0.7185959390252886
0.7436124786700931
0.6189673945861109
0.7311154240171593
0.55449875385068
0.4640348723614426
0.5814239055820426
0.6070547974198887
0.6092999398086766
0.4722054831239699
0.4757980844201592
0.732673546472816
0.7241944764094409
0.30512572736933713
0.9229839776478558
0.9310128438448465
0.6903867890974094
0.7006135066402013
0.694469914597769
0.7118429393814487
0.7056201669201602
0.40564306571553843
0.4114689021120808
0.5155093798769658
0.6406294086007875
0.555503804431829
0.6971963065174104
0.7378847095722765
0.7441783570239887
0.3524683090267834
0.3431386472241963
0.5777493758719712
0.46409593248161074
0.4595336613216497
0.6782426752049002
0.5712945954915211
0.5425489750544689
0.4853175458978925
0.9045415578498318
0.919760415469192
0.5083511655298177
0.5031763929173562
0.702926587644012
0.7006371228578916
0.5134535823464703
0.5050074276622453
0.2570175925080232
0.9415170565682974
0.5117580053417287
0.43415316642104734
0.43968637275725353
0.4964605403364328
0.5028117090486112
0.46191608329206624
0.4503435847702784
0.456574552126141
0.4460252694092485
0.4520661573608331
0.4406357590762501
0.4344765058716171
0.42861744544815505
0.4213911358665669
0.41703267761654195
0.4488148699408417
0.6511286450286278
0.5102104269822211
0.522617139935873
0.3543379470521443
0.24141745859304728
0.2322695556080919
0.3070043436910893
0.2829661441691475
0.24787097318115459
0.21776657944197714
0.20816626139835434
0.4799268904365376
0.46108065633510037
0.5710096907406695
0.5438893478129135
0.5424627652285846
0.7701662891865483
0.7844336506066503
0.5335095192953513
0.5379707052747683
0.5274295820662984
0.4437029921620459
0.17903235451165578
0.4241138677651627
0.4118551929778529
0.4039989130194132
0.39992957096400256
0.39059422454691684
0.5495481300657115
0.5622112348377333
0.22663501161596006
0.7400745170330826
0.7014184361396918
0.6127145354808482
0.49322861177040356
0.4344781238458871
0.42019148250967897
0.5019070291910751
0.6039902911615962
0.6918829448676067
0.6716291970935359
0.5366472772944538
0.7201242068218859
0.7312728241684364
0.7435572346103588
0.7565826214440101
0.5447595610581083
0.5728476797769299
0.550113021211853
0.5316322016105971
0.5494256678021807
0.538479468547692
0.7629740563525346
0.47064111948839743
0.37254459279627195
0.31125901809008005
0.3146251344557398
0.3360914085196281
0.3282745571289082
0.34732527046912487
0.30560765334616524
0.3576540339566489
0.36469343903453744
0.32453587104193826
0.6148526082880341
0.3726494302514794
0.6035591537654789
0.47449233822049586
0.7425273515976165
0.7478788325250215
0.2908605289115517
0.28003176253131085
0.5739179352623583
0.8177996999362731
0.8236818092618045
0.820061840756514
0.8327347577996415
0.827485393804994
0.844844649385192
0.5648233526271681
0.5727698921152224
0.5782982825911869
0.5769913541831693
0.5805546549734648
0.5740969630895865
0.5802708878117884
0.5707653413253618
0.5648114408389457
0.5862011761334484
0.5623525271615973
0.5896981986358605
0.582578591353129
0.5928581343567826
0.5717238400943083
0.5690330555647144
0.5975809444175131
0.5798921933767562
0.5909456303826269
0.4177965874772956
0.3691592760116893
0.4558462690629279
0.30931447007448915
0.31660607094826637
0.7532158372465854
0.5899199710498298
0.44009227438344706
0.42537131463720534
0.42384818576720906
0.42882062712341845
0.44331014874725083
0.435318791226193
0.4424866062216025
0.43276057062805406
0.3489099629903865
0.5509037691913845
0.5463513816982483
0.56651163301555
0.6133560936825234
0.5879717879348776
0.6189191735483893
0.5121519391865202
0.3816397357475754
0.38441534019943063
0.3985925167708647
0.4092990601983913
0.42276749243263834
0.38784616750974704
0.6620868323584781
0.4818255257915141
0.4805240146918347
0.2505040303297862
0.6506867690560495
0.8433321609554006
0.49929174896367506
0.48595499318905994
0.5714721295835296
0.5610752478830497
0.7997627430405662
0.6065976321144865
0.5909499000540279
0.5924224981843526
0.5845293052532291
0.5861576682519893
0.5761859804418034
0.5735983178896206
0.581198638843389
0.569536867531767
0.5787694755351047
0.5726205512127339
0.5951194155499867
0.5647784401563792
0.6229822080552301
0.767001196857526
0.5053245867128779
0.5479123357138447
0.4751897876809951
0.5478063032433617
0.44914689931288215
0.4295576602644258
0.4440259915645108
0.42438224829160315
0.40489363521223243
0.4032523255106715
0.4193619017303116
0.46293303891640736
0.5053104701354955
0.44160515155844565
0.6555376058656437
0.5854692816429166
0.6954206877183629
0.40902697243813213
0.7290676790795317
0.6388349146888129
0.6471221860259572
0.4080957174646216
0.5027720198913299
0.5323522218981965
0.5252633396134134
0.5181495689927681
0.5001455095175433
0.39774489195867246
0.8947132549709028
0.8110568215598656
0.9042462737990951
0.33603472374935195
0.6509838028565442
0.671537472588647
0.7372863156331515
0.8173631626480212
0.48939769209126666
0.5289809373178357
0.6309194394154283
0.4292629988052318
0.4360421612957017
0.4290948012431418
0.4802891972276785
0.4555476981418864
0.4908451373050904
0.43536781464661894
0.44213049453435316
0.6019859313496135
0.615685588045799
0.5310518605274073
0.5546479686640389
0.4360234376150398
0.6388473976466652
0.6040308903728788
0.7110752747332226
0.5313993597213102
0.33875339665993004
0.5963487946688767
0.38852957115564224
0.6981024650117101
0.59487499890016
0.549292185918027
0.5573850496837991
0.5437780580599153
0.5309824946144542
0.4766851879080018
0.42299644799799463
0.45677661465284825
0.5005872329706679
0.4983981062243781
0.5701950955749622
0.9083845754449565
0.8860478437600774
0.8953277374827547
0.8781017362092712
0.8653468038480069
0.8560829056649985
0.8693192614484189
0.7784588485322366
0.535664500787739
0.5052868849477261
0.510587542565286
0.5945399900238567
0.6961313772940986
0.5504360249906597
0.5996059024402113
0.6003530848674944
0.5892696656278752
0.5888441468129378
0.6308557841845279
0.5425861681321067
0.4680261643799838
0.4445751818915065
0.6077506805790789
0.5933379432779397
0.47565552172992304
0.5152724919912194
0.5062970508292243
0.4950071647506345
0.4945172301984603
0.40727925576230756
0.20316589956793243
0.8905161837760677
0.8810794896783882
0.8668369571227065
0.8931999097644543
0.5630599877367578
0.8007485507392146
0.3128436207871169
0.3527194521227534
0.539005045038011
0.5266733057558681
0.5409972487045153
0.4856049614269887
0.4743465318088256
0.42511195492736054
0.5279304056140486
0.6388156189520569
0.909737662346065
0.4596231806201478
0.4555822506959679
0.6402163786031732
0.8034841848407164
0.6676606046080024
0.6826640221186101
0.6142264650511227
0.5142421774560326
0.5054803481046957
0.4958900685617501
0.498062083049083
0.5036632364713416
0.5109003095040168
0.48225270849753815
0.8733972005666503
0.8534374882362818
0.8621289959881284
0.8763677444263296
0.8866682828177378
0.8955642393206762
0.8626737264345342
0.8655802020377723
0.4074600573113624
0.4897869989928104
0.7067147128162632
0.9371496990568757
0.5726150962493024
0.9153655664140341
0.9313005614212584
0.7197089334964366
0.5886213168553077
0.575254788413414
0.5944570308818758
0.4696561796805594
0.5858795679254201
0.7515395268406576
0.5410508121419966
0.5418139510815528
0.5524475617344535
0.531308879505041
0.5497820224453707
0.5432125767376378
0.53351697312943
0.522060583345661
0.5674089932743319
0.5602657326847713
0.5528858211690958
0.6948676348833115
0.6348712249603871
0.554668337136305
0.4896833810126328
0.45241107590803326
0.5214462355846001
0.49556476608287486
0.49718911957812706
0.5056140918880047
0.825282072027817
0.8492856149601902
0.8614021578402585
0.8399145659183407
0.7640311866005383
0.46833634252900347
0.6732579964077295
0.6217254707290455
0.8518074315555841
0.6641179775086449
0.5552107775344047
0.5555345209798067
0.47288531258389416
0.608751485320527
0.6248146793472589
0.5771811226590581
0.6620987697132938
0.6845781890415896
0.6914245884948379
0.711059786184934
0.5498683383256773
0.6560213954358434
0.5500600213423451
0.4854081907854219
0.4959609723614195
0.42828680113241185
0.5485289469193373
0.8655094673968119
0.44358581763456933
0.73586778246795
0.7361464705041681
0.7583597897414677
0.7343213670677667
0.754871395337797
0.7829911324929956
0.535129129906748
0.5947689327426394
0.5927717985990345
0.6497427676083781
0.5737660362509177
0.9300337298769628
0.6493579298370293
0.714206042809964
0.8102415602676689
0.5514857151945081
0.5747687300077503
0.6553939433820551
0.49432865691638345
0.11452491486353447
0.8348870873770147
0.5359029991911629
0.5851640619077438
0.5932607174632215
0.5603767953341742
0.5674906576836235
0.539206898168138
0.54974855766144
0.7227636462869277
0.5487983889629318
0.5972358033315672
0.6421987960045046
0.5986901911019447
0.6117396774965274
0.6777385560370365
0.7792331691558286
0.48126547022584915
0.6335948048448746
0.6182457847320664
0.5978711205814904
0.5664574462237971
0.6198671896373023
0.4898572945962442
0.5676000318822024
0.4347276681590018
0.4651388418087105
0.4938320878755592
0.6291678957413909
0.6045985404683548
0.6156709217850028
0.6071964406005292
0.7311846686661312
0.6917704990628805
0.4663881400716
0.4448915389125674
0.5296712415805578
0.6408967510961625
0.49442318854330386
0.6180986224080617
0.8307191505078715
0.5781511963637294
0.5087675183512637
0.5213835478294045
0.5826343912995199
0.9270764681481765
0.46041874835450364
0.5755893208699252
0.5849692882989969
0.6046493778673996
0.8143740305641647
0.791267439074345
0.7780344769711526
0.5630113860998083
0.9545831334321977
0.9281692769235423
0.7812905705543611
0.836577126343521
0.8255678224232449
0.852759564899212
0.646916282130908
0.5603714328277875
0.9502389228688934
0.6765331408063574
0.511711134783971
0.5922387196996022
0.7618477029688818
0.7849068842012935
0.5627674833367283
0.6316489273204441
0.7688605566635107
0.5289531257147292
0.47582255357734143
0.5821910812321439
0.5390764987188171
0.37869438691057195
0.5448935416390165
0.6736544627502459
0.33444665600387097
0.3270185343068614
0.6778150620342068
0.6095835872160912
0.6725095500235964
0.545315303330047
0.87477618254515
0.4679767258543783
0.4169838510048313
0.4695968426715355
0.6099089872142511
0.6737548676309337
0.5658512349567321
0.18592462670370813
0.8518948740876191
0.7997404640507225
0.554240310560879
0.7171671550746777
0.5820863585195071
0.7015767212859506
0.729539127277175
0.6935453518072633
0.503298859758577
0.5650629300310173
0.942758322733613
0.6679441092167249
0.6849283644329025
0.49299362169018596
0.9061008989195867
0.6364425731655944
0.5450707983016475
0.5789605750309178
0.4839794763122545
0.5600413730978138
0.4369118028760246
0.6474246957529781
0.593301139884138
0.4808102733420461
0.795606103721692
0.41359315933324015
0.40815845693319147
0.8892012944889586
0.7052613446776538
0.8533567220193023
0.8068808702090181
0.5753573186343849
0.23347925909325978
0.5749637806783069
0.7071627744882228
0.7044186547041699
0.3834416615847853
0.5845409822458812
0.7017907366848792
0.29313126046149246
0.7456686877123201
0.5515285374231712
0.44944295372455795
0.5251201598150099
0.3452883752657425
0.3729463513935546
0.5394663736672332
0.6131173630470225
0.4482306657771437
0.6869285100058165
0.570890480808094
0.7137301549660802
0.6858959228466069
0.5543255886729599
0.7861510181423
0.7615465744940632
0.4912137367557229
0.4550640248049802
0.39494231856750134
0.48855842649945663
0.4165985466946672
0.718478368290885
0.8057072337718457
0.22675715484974435
0.2641859149600794
0.2891552264531463
0.4950716361687275
0.3174659143357498
0.5521898306004158
0.6091689158873934
0.6291982085270936
0.42456879883457604
0.44717477866824573
0.517679939605933
0.5407679852424586
0.5251435758692938
0.6788206560237722
0.5643563511526293
0.6082405203669784
0.5921738073990843
0.40440058847652993
0.3581413494816796
0.5715097628808198
0.5886719725298307
0.9393915988371511
0.3786418914016722
0.7563096643811108
0.471245287822377
0.7358866197464108
0.573347856169235
0.7755604527901144
0.5733527908254558
0.5185904076314424
0.4765670605605398
0.6255346847478904
0.6577150303492987
0.6340825780503804
0.8629908066771594
0.456072610555591
0.3844594339663966
0.6519456285085985
0.7702797303305233
0.48836573232084385
0.6581592573187823
0.525991750658237
0.7198734812579365
0.5684356700164026
0.5887934698727354
0.39566750534519507
0.6018366100976871
0.09692473849731395
0.4758090439559674
0.5901676301073862
0.5120622076851684
0.4857778987441853
0.6875316918486812
0.7567600251368128
0.4965538772348057
0.42496481253295765
0.768942817104532
0.44803571086643434
0.6151064980468863
0.5166003881068746
0.5856718107756924
0.3883310749804304
0.43729362361910906
0.5652451296392037
0.5653127118425405
0.5498381552690029
0.3974012823310303
0.4236212107489148
0.6868671016436562
0.73742966271209
0.4901017628783877
0.47944147772389445
0.4053929296121431
0.7805570271075496
0.5288509587846271
0.49963505873421576
0.5490475433443215
0.4481140585500561
0.5954353667978185
0.6715974296597752
0.6392583025489716
0.6098808059005291
0.6354825722678157
0.5706132449388508
0.6398726187412938
0.5219531175220378
0.37583528256682097
0.48311779063181925
0.47363301831705
0.5354264457164026
0.4525955121332263
0.8158823357846314
0.5106737743168208
0.5652242062598657
0.7426039414202575
0.6363693646108317
0.43768052286502573
0.5396406656218127
0.5075754324247074
0.6216361506346022
0.4887847228313838
0.49561609841914667
0.20928126651484447
0.6040511168715079
0.7088294293413643
0.48132355478466515
0.6184959077430536
0.5217795724984194
0.6754017916904185
0.4578004538694284
0.5506814294570719
0.48427389968045403
0.6829268538279868
0.6540357327624818
0.6419526109885707
0.46855255458448347
0.6192395553265623
0.5073218006345714
0.6029936733607506
0.3866100105334367
0.6681987584403816
0.8281557313122854
0.5141040225639552
0.5770240454781883
0.6417166729472441
0.4653883646254102
0.4409715731292777
0.8332352514712292
0.46373078585832356
0.6300017342843143
0.4529493196318531
0.5938886309427465
0.5126156583605749
0.37214605783613336
0.6699915632200308
0.25680371723241663
0.46089656301703985
0.7009887734563095
0.6561591306131731
0.6081946984683071
0.5056121525410348
0.5149208928126744
0.6069149447404545
0.3778406524569389
0.5872471928739641
0.560907812853101
0.6149967295072649
0.6246760086840603
0.4952222778959932
0.3334346096674184
0.7310202208573877
0.7575569548783408
0.4166850823436467
0.5723077688565545
0.5605137173902013
0.29831725338316695
0.42980992467214224
0.2754871953215986
0.3631426106813729
0.5645365147562265
0.5866452325368956
0.5547836198276291
0.8494719356920135
0.4588445834648191
0.9169511947397294
0.4983036873979751
0.6094603808785238
0.6047235801406254
0.4320904771598269
0.34441633006122613
0.3608258206554401
0.5330906856697375
0.6991070733162889
0.6372243470891088
0.6006598912953646
0.5855509001886804
0.5902025920992915
0.5879193976512973
0.7303874295871187
0.35966533930774836
0.40938553433506725
0.5646303447102113
0.40348534841827177
0.49884745017655685
0.663287062233068
0.6463122375951001
0.4474615859991438
0.6159127984668366
0.5791483321811703
0.5551350064248118
0.5490109175544805
0.5677348169625707
0.5406163420064842
0.8384888395176996
0.5587216361299348
0.39829520831963033
0.5029003013235182
0.47481441537019203
0.43853494865868464
0.565699193136374
0.6145760166511527
0.4919546641130188
0.583486002610048
0.5098304936361079
0.7919271273154205
0.7211199250779712
0.39180581739764087
0.5391412548028722
0.5236059942013651
0.45408496521706626
0.7160559731703114
0.49690396178002433
0.5350919756181091
0.6565287900765397
0.366814766311902
0.707776296168516
0.7266347796136767
0.5093952281175222
0.7977864314008987
0.4777449815692478
0.7174886371808619
0.5901112192811255
0.6417846917482773
0.5004588690156612
0.2089835638585348
0.394118845372669
0.6978000631939265
0.4640644476920099
0.37525577546663547
0.5403004152274989
0.5473744715669403
0.478158008223031
0.8262019420674542
0.7648704660865489
0.5266875832094814
0.7594782190280707
0.46133045728726324
0.5073083471519694
0.6006660786466727
0.8240653747344575
0.5784753450121163
0.588457791008844
0.5493664122603877
0.48389076052270574
0.8704794540328982
0.5697987057685993
0.5737553306367302
0.48603076114685134
0.5135322232898973
0.5486727006232891
0.6037028961253803
0.6443345615090652
0.3635070987129167
0.6054651783496282
0.7054599228620145
0.7485199128771701
0.6024881096139589
0.8571870178039084
0.6857736124483644
0.5009077210709981
0.4943097058686186
0.45925647038577444
0.4947519018877431
0.26131105503824886
0.5386641803690214
0.5193280861163608
0.38300269195975767
0.26742496434019686
0.4528297405805234
0.4469711994503295
0.5180757997681954
0.46961413867900026
0.6678901651765664
0.8162971376103232
0.49719248526739107
0.3506769351272062
0.4307505396382709
0.26388454310297155
0.5888278345252808
0.39116020590303724
0.49695421437839155
0.6653447829491805
0.4573950070607593
0.6014417408349667
0.7460953267609991
0.6001096656495282
0.6366344422740617
0.8720810282134799
0.7037917893228408
0.720519311363448
0.5879558265897411
0.6128398156299136
0.5643312381544573
0.6004147467865928
0.4667626231240172
0.7217990161399944
0.48002385484043986
0.4204398647908734
0.5663162832505086
0.4868086730316742
0.687870168264783
0.9809226756100633
0.9871450587896029
0.621555792269784
0.33713428333863366
0.6070508826854497
0.8820212894303456
0.879900346268699
0.5169857660790216
0.5010754251540526
0.4814637881296689
0.4956139099253053
0.5192401840428522
0.5617851026915305
0.44731358151636724
0.40285749183912695
0.4160357976503399
0.6335479645694418
0.6107833157938974
0.43952523306450747
0.5137624848957432
0.4150313680817886
0.7726685696655593
0.410461422239835
0.5952516873926508
0.5750169858837763
0.5646555577289112
0.6177696833415365
0.46647936572783466
0.4840007754526044
0.29910801529266756
0.4721762403370882
0.5762634354827407
0.9011477961711524
0.5818155314359792
0.560458255666127
0.40559912592147124
0.5592356632851654
0.3801385167767024
0.5436824495279359
0.5276393744493815
0.7111938664746013
0.48328963608807685
0.42315100777707226
0.6454254755768001
0.46266228765225853
0.48198661989495317
0.4083757743221203
0.33932724033451395
0.7473344344272238
0.4251619818582875
0.577408223658187
0.6183280632029173
0.7664054203504919
0.569425484306396
0.4938833724592593
0.5237165905299863
0.9413248632881107
0.6530164633076929
0.7271227182785003
0.4916995034538549
0.7642544731165601
0.5112282254805052
0.4677062242808435
0.3986284764906101
0.7444321369345801
0.5737766931055102
0.5612588983604117
0.8603103921738404
0.5776206908977901
0.5747315809480096
0.9392859792344792
0.7287958319018473
0.44299122505333977
0.5922779600745199
0.7842937037223815
0.7624542393012819
0.847449553723941
0.4144153728994031
0.6723537823280055
0.407878009200387
0.4891524979421864
0.5764866386112137
0.5880061187890544
0.3642469057706016
0.5294066918918289
0.6181373674630328
0.5763560487957186
0.47570715087091703
0.7961310579680737
0.5822349643464909
0.4598335126963175
0.587745406052124
0.6085512897629631
0.6862151054974407
0.5310657685251376
0.4910712072569735
0.45211161480184786
0.7199418630982429
0.5645066437450944
0.47454711540206695
0.5237264653729761
0.65028167457397
0.6008609251247998
0.47140469385298345
0.5121312652071748
0.5960448014245017
0.5370442794013648
0.5443756775185309
0.5397131018806759
0.47127609156402434
0.47613821446947524
0.7275841572768115
0.921314239280848
0.6057490891090686
0.6397023332105877
0.6311008964065367
0.5534779393071106
0.9450649181954631
0.6829155189186727
0.5749028625828981
0.5671314522627023
0.5303930781424665
0.5635991659087095
0.5597863811560968
0.5181282596740999
0.49213797937922277
0.5394699768643888
0.5037170320671395
0.5646359265547571
0.8324936115470619
0.5446593860288274
0.44779185097990987
0.5625622792265021
0.7649339367428541
0.5173465104626549
0.5707298661311828
0.5904926334296472
0.28007468819880393
0.5421737908306071
0.5121464735369865
0.27192925161043924
0.2461237649799876
0.16975498575223139
0.4158715091152258
0.4497487747788067
0.6145456236500697
0.5829550061634092
0.7353404286296696
0.5653877039057055
0.43240246722759346
0.5194297608532215
0.9114989508437319
0.5953541435981802
0.5274135829596862
0.6287134353027861
0.4941126665622251
0.4234307427543507
0.6607992438222124
0.39923787860100285
0.5468556197274792
0.52110685619
0.5518904605735959
0.7510259851460395
0.4854655297394398
0.5868448228074128
0.46097944811214614
0.5825702623604241
0.6366543996453187
0.7124579390209129
0.8186119251008552
0.769406065102667
0.44310217473423996
0.5418341411423372
0.34005486459108913
0.6846445710171719
0.5741588807696059
0.3723097286001668
0.5437067372068574
0.4591774241654263
0.66421402743735
0.546199462206324
0.44382495708160574
0.3969917532487112
0.4119027023626856
0.7030943640950124
0.5613211963968181
0.3477432117608745
0.5863029863956399
0.9463840641707987
0.6078907276902867
0.4155709489953324
0.4532562903421992
0.45524666545873343
0.8870458969499074
0.514498356235423
0.5120659526416924
0.7155258563349683
0.6334299269273009
0.5987038104156557
0.488486896392625
0.5752118171104746
0.9125232844323409
0.5209689255141826
0.6860766165192169
0.3111674176663474
0.83701996561064
0.3852150903049385
0.4972037859107853
0.4340100098151027
0.48920138840025806
0.6012985921698745
0.24260444337094747
0.4263077330777532
0.9332837857029191
0.7110923577643045
0.5057854536000007
0.7016410440000506
0.49288947385310633
0.7478943448992262
0.4340698317658068
0.14600778259243685
0.5391954497838154
0.549884070661088
0.8644650589811906
0.7625050710401325
0.5723370348886848
0.7158278814256621
0.9372118287314819
0.4725984893043629
0.6527411100576046
0.516506503077205
0.3625907365634144
0.9306627848630836
0.5620262023179767
0.8431773715132197
CELL_DATA 4886
TENSORS stress float
-1.0896342533820327e7 6.824699385863685e6 0.0
6.824699385863685e6 3.208430498377453e7 0.0
0.0 0.0 0.0

-1.9975859539807484e7 1.10971907440865e7 0.0
1.10971907440865e7 8.913209451998198e6 0.0
0.0 0.0 0.0

-8.6339305343038e6 2.253310516454747e7 0.0
2.253310516454747e7 -6.972994822272453e6 0.0
0.0 0.0 0.0

-3.8440534775526104e6 2.1301328452694543e7 0.0
2.1301328452694543e7 1.267111585214242e7 0.0
0.0 0.0 0.0

-2.256479842583943e6 2.436187607995376e7 0.0
2.436187607995376e7 -1.1317168908117542e6 0.0
0.0 0.0 0.0

1.7294379754249419e6 2.9119365109752784e6 0.0
2.9119365109752784e6 -4.479882367860019e6 0.0
0.0 0.0 0.0

5.245883045238218e7 2.5233094956125e7 0.0
2.5233094956125e7 1.3287842360869106e7 0.0
0.0 0.0 0.0

3.1435084901412968e6 3.1040673865843276e6 0.0
3.1040673865843276e6 -4.234565948638368e7 0.0
0.0 0.0 0.0

-1.065130556451332e7 8.66836925924458e6 0.0
8.66836925924458e6 3.347163912305624e7 0.0
0.0 0.0 0.0

768537.6050773524 1.8722406805625238e7 0.0
1.8722406805625238e7 1.9207878883638933e7 0.0
0.0 0.0 0.0

-1.1066436884468216e6 1.9855833036360823e7 0.0
1.9855833036360823e7 -7.583145243289803e6 0.0
0.0 0.0 0.0

-704658.5933785602 2.9182859555358574e7 0.0
2.9182859555358574e7 -876236.635429349 0.0
0.0 0.0 0.0

1.7636640144962166e6 9.140300316110484e6 0.0
9.140300316110484e6 -3.88805456852846e7 0.0
0.0 0.0 0.0

7.562229266299586e7 2.819433883964139e7 0.0
2.819433883964139e7 1.4480743061187692e7 0.0
0.0 0.0 0.0

-902753.5301557765 2.0450344135012668e7 0.0
2.0450344135012668e7 -7.582894156549747e6 0.0
0.0 0.0 0.0

3.571595005105191e6 4.046002094124624e6 0.0
4.046002094124624e6 -1.5754366306842916e7 0.0
0.0 0.0 0.0

-2.865850386599982e6 1.6793675055874553e7 0.0
1.6793675055874553e7 -2.0315833676630728e7 0.0
0.0 0.0 0.0

433358.16543464735 1.3553729835519776e7 0.0
1.3553729835519776e7 -2.708871356712189e7 0.0
0.0 0.0 0.0

-9.377121183134347e6 -2.8335305059441575e6 0.0
-2.8335305059441575e6 2.548878428046643e7 0.0
0.0 0.0 0.0

-631533.9841390434 2.2842397081131343e7 0.0
2.2842397081131343e7 -6.812956446021312e6 0.0
0.0 0.0 0.0

2.42587985047411e6 1.1028269712980982e7 0.0
1.1028269712980982e7 -1.9518211870157484e7 0.0
0.0 0.0 0.0

375650.7824147157 2.8897177026848257e7 0.0
2.8897177026848257e7 -879622.3967916899 0.0
0.0 0.0 0.0

-1.0363448098150134e7 7.036725427451076e6 0.0
7.036725427451076e6 1.726584282141051e7 0.0
0.0 0.0 0.0

-1.3171870404249083e7 2.286357366692069e7 0.0
2.286357366692069e7 -60281.40065632574 0.0
0.0 0.0 0.0

170171.57449885644 1.2050318867118035e7 0.0
1.2050318867118035e7 -3.512586650685908e7 0.0
0.0 0.0 0.0

2.0583221691538192e7 3.909709967258224e7 0.0
3.909709967258224e7 -1.0090722195476308e7 0.0
0.0 0.0 0.0

3.51536117233896e7 2.0760413705708187e7 0.0
2.0760413705708187e7 7.4264661623722855e6 0.0
0.0 0.0 0.0

-1.0300440366549931e7 1.598985396859473e7 0.0
1.598985396859473e7 2.386738782351597e7 0.0
0.0 0.0 0.0

3.7166420939406613e6 4.0852091386525356e6 0.0
4.0852091386525356e6 -1.6081235122608824e7 0.0
0.0 0.0 0.0

-6.754487275729433e6 -3.143378280254532e6 0.0
-3.143378280254532e6 1.2546337630649623e7 0.0
0.0 0.0 0.0

-1.1375545407181602e7 8.699355344171388e6 0.0
8.699355344171388e6 1.5208148928961763e7 0.0
0.0 0.0 0.0

1.4797924564367533e6 8.565982321990352e6 0.0
8.565982321990352e6 -8.427617740583532e6 0.0
0.0 0.0 0.0

1.2418521791487855e6 2.0014505420687135e7 0.0
2.0014505420687135e7 8.318186705884792e6 0.0
0.0 0.0 0.0

20223.469760139917 1.791857020628528e7 0.0
1.791857020628528e7 176730.93274196575 0.0
0.0 0.0 0.0

-3.4433110840138313e6 2.211873980152582e7 0.0
2.211873980152582e7 4.703779241487136e6 0.0
0.0 0.0 0.0

-1.0999684205397349e7 5.824474584479247e6 0.0
5.824474584479247e6 1.4045635004764546e7 0.0
0.0 0.0 0.0

166103.7301597637 1.210831175277863e7 0.0
1.210831175277863e7 -7.363764224518394e6 0.0
0.0 0.0 0.0

-2.9326387878425242e6 2.1860120790151134e7 0.0
2.1860120790151134e7 5.1443157227570005e6 0.0
0.0 0.0 0.0

-3.683669984486618e6 1.4960591212557502e7 0.0
1.4960591212557502e7 -3.6116513900671504e7 0.0
0.0 0.0 0.0

-2.758870317495434e6 2.6229584244506482e7 0.0
2.6229584244506482e7 1.628816000103166e6 0.0
0.0 0.0 0.0

890855.8343890887 9.290682235511547e6 0.0
9.290682235511547e6 -4.2432576841172636e7 0.0
0.0 0.0 0.0

-1.1066550606296439e7 2.4087739680459335e7 0.0
2.4087739680459335e7 -8.221169955122712e6 0.0
0.0 0.0 0.0

-2.7743049059135416e6 2.5590762238794934e7 0.0
2.5590762238794934e7 1.47256164288272e6 0.0
0.0 0.0 0.0

-1.1362868212676654e7 3.8240482062939527e6 0.0
3.8240482062939527e6 2.3492236058458377e7 0.0
0.0 0.0 0.0

1.937297389836885e6 1.0942827198632771e7 0.0
1.0942827198632771e7 -2.1334529915940408e7 0.0
0.0 0.0 0.0

-8.814709924421713e6 1.7153620338012915e7 0.0
1.7153620338012915e7 2.2814947737096645e7 0.0
0.0 0.0 0.0

394007.21183050703 1.962130597890859e7 0.0
1.962130597890859e7 -1.1827728221627876e7 0.0
0.0 0.0 0.0

-505982.345232944 1.1674225200480837e7 0.0
1.1674225200480837e7 -8.092862060336556e6 0.0
0.0 0.0 0.0

3.552955939904688e6 3.1925065417711535e6 0.0
3.1925065417711535e6 -3.5147102620052494e7 0.0
0.0 0.0 0.0

4.208475520331809e6 1.635168588170952e7 0.0
1.635168588170952e7 1.4028251925177995e7 0.0
0.0 0.0 0.0

-1.4490224290869453e6 2.5382488761924837e7 0.0
2.5382488761924837e7 -353766.21693632205 0.0
0.0 0.0 0.0

-1.4798144931146927e7 8.895125075751873e6 0.0
8.895125075751873e6 8.036689341170117e6 0.0
0.0 0.0 0.0

3.5919139648223035e6 3.225360220659253e6 0.0
3.225360220659253e6 -3.641013241407026e7 0.0
0.0 0.0 0.0

-2.126389820417549e6 2.3677269998905703e7 0.0
2.3677269998905703e7 840317.4352749437 0.0
0.0 0.0 0.0

4.286756555058081e6 1.6664744490435481e7 0.0
1.6664744490435481e7 1.703291514306342e7 0.0
0.0 0.0 0.0

-7.584830483169297e6 2.3795142091916557e7 0.0
2.3795142091916557e7 5.883903845641943e6 0.0
0.0 0.0 0.0

2.7608784848125037e6 3.73270438146693e6 0.0
3.73270438146693e6 -4.6360064510336794e7 0.0
0.0 0.0 0.0

-2.2176483141390374e6 2.6417721639725007e7 0.0
2.6417721639725007e7 1.6810168175576204e6 0.0
0.0 0.0 0.0

3.4746757640483826e6 1.815045138348664e7 0.0
1.815045138348664e7 3.372742758787792e7 0.0
0.0 0.0 0.0

2.6861487532526273e6 9.9951705791249e6 0.0
9.9951705791249e6 -2.3469957207010843e7 0.0
0.0 0.0 0.0

-1.9100463284839161e6 1.5917390856593683e7 0.0
1.5917390856593683e7 -1.0362022205245573e7 0.0
0.0 0.0 0.0

2.5330752306664214e7 2.2610623652873833e7 0.0
2.2610623652873833e7 -1.123637623072084e6 0.0
0.0 0.0 0.0

-3.708574344159247e6 1.8810982844145592e7 0.0
1.8810982844145592e7 -1.2207657652292565e7 0.0
0.0 0.0 0.0

-8.432388246499311e6 -430319.48825340945 0.0
-430319.48825340945 1.3002837367936147e7 0.0
0.0 0.0 0.0

303037.58410159533 6.197194058857645e6 0.0
6.197194058857645e6 -2.0863538649969113e6 0.0
0.0 0.0 0.0

3.2950525844835136e6 4.422605476312837e6 0.0
4.422605476312837e6 -3.432885002945318e7 0.0
0.0 0.0 0.0

2.372497843463436e6 7.975622848050405e6 0.0
7.975622848050405e6 -3.862934104935968e7 0.0
0.0 0.0 0.0

-2.7670764898559274e6 2.328496800483149e7 0.0
2.328496800483149e7 163816.90090165893 0.0
0.0 0.0 0.0

809710.0022655101 1.8140220533308584e7 0.0
1.8140220533308584e7 2.781720542008999e7 0.0
0.0 0.0 0.0

1.8850300407017134e7 1.6949950903965537e7 0.0
1.6949950903965537e7 4.101923768184782e6 0.0
0.0 0.0 0.0

-1.2311207214196006e7 5.487987222057507e6 0.0
5.487987222057507e6 2.112235299697056e7 0.0
0.0 0.0 0.0

927827.0195131712 1.2078480104497459e7 0.0
1.2078480104497459e7 -3.252052617518297e7 0.0
0.0 0.0 0.0

-3.4346293843705924e6 1.5820967515514143e7 0.0
1.5820967515514143e7 -3.3380565101549365e7 0.0
0.0 0.0 0.0

4.935649284587463e6 1.7727582375935104e7 0.0
1.7727582375935104e7 4.6768163402462795e7 0.0
0.0 0.0 0.0

-3.761713596534444e6 2.142282406148956e7 0.0
2.142282406148956e7 1.1996627767852617e7 0.0
0.0 0.0 0.0

-8.975798210523397e6 1.729383856940671e7 0.0
1.729383856940671e7 2.2429603027375527e7 0.0
0.0 0.0 0.0

-3.433265343242387e6 1.3150672495545711e7 0.0
1.3150672495545711e7 9.797601719837544e6 0.0
0.0 0.0 0.0

-2.129827948870496e6 1.651040431386207e7 0.0
1.651040431386207e7 -1.9945940470262483e7 0.0
0.0 0.0 0.0

-655015.3851269479 1.756486640734907e7 0.0
1.756486640734907e7 -1.0871363688934248e7 0.0
0.0 0.0 0.0

1.0721455606181407e6 1.3571170114894941e7 0.0
1.3571170114894941e7 -1.7339668931388713e7 0.0
0.0 0.0 0.0

1.9681501722831395e7 2.4439893901606746e7 0.0
2.4439893901606746e7 -4.590257441797479e6 0.0
0.0 0.0 0.0

-9.69870540616363e6 -2.2160716799486987e6 0.0
-2.2160716799486987e6 3.000143654439284e7 0.0
0.0 0.0 0.0

1.2228779828385871e6 1.806156489759505e7 0.0
1.806156489759505e7 -2.281995962304628e6 0.0
0.0 0.0 0.0

452056.5392017523 3.015279300843713e7 0.0
3.015279300843713e7 -1.6381994609441364e6 0.0
0.0 0.0 0.0

-4.1261027260150043e6 2.138329007805047e7 0.0
2.138329007805047e7 1.2758070567215618e7 0.0
0.0 0.0 0.0

3.9180283797507696e6 3.6398992914247066e6 0.0
3.6398992914247066e6 -2.2011747371251184e7 0.0
0.0 0.0 0.0

1.0451362018387448e6 7.715305971185506e6 0.0
7.715305971185506e6 -9.481950661547557e6 0.0
0.0 0.0 0.0

1.0813850631448776e6 1.8960176243585277e7 0.0
1.8960176243585277e7 7.581541314568865e6 0.0
0.0 0.0 0.0

1.6473912874381028e7 4.058318304486227e7 0.0
4.058318304486227e7 -1.2417619951665105e7 0.0
0.0 0.0 0.0

-9.51905649294629e6 7.890877813677496e6 0.0
7.890877813677496e6 4.057358751353959e7 0.0
0.0 0.0 0.0

1.1699414091546927e6 1.954216822344682e7 0.0
1.954216822344682e7 -7.113335938347644e6 0.0
0.0 0.0 0.0

-1.502561060924212e6 1.7929369439098697e7 0.0
1.7929369439098697e7 -1.3267942373655919e7 0.0
0.0 0.0 0.0

-439373.8328018354 1.064052657279371e7 0.0
1.064052657279371e7 -6.983654551589682e6 0.0
0.0 0.0 0.0

-568132.5059545051 5.250712810097185e6 0.0
5.250712810097185e6 -3.433862520436178e6 0.0
0.0 0.0 0.0

4.102760137838505e6 2.0391994483731486e7 0.0
2.0391994483731486e7 -4.502161478799744e6 0.0
0.0 0.0 0.0

-3.0684798422188153e6 1.6396121610504538e7 0.0
1.6396121610504538e7 -2.7212738271657176e7 0.0
0.0 0.0 0.0

3.089925533800913e6 3.1043271758514824e6 0.0
3.1043271758514824e6 -4.210975502690507e7 0.0
0.0 0.0 0.0

-4.213883192393087e6 2.1828853821128692e7 0.0
2.1828853821128692e7 1.0838952851822784e7 0.0
0.0 0.0 0.0

2.394583447174657e6 8.783052850899326e6 0.0
8.783052850899326e6 -3.0848634526723813e7 0.0
0.0 0.0 0.0

2.750055455042761e6 3.7241998482541526e6 0.0
3.7241998482541526e6 -4.709163139018313e7 0.0
0.0 0.0 0.0

-3.43503898107549e6 2.013824646957943e7 0.0
2.013824646957943e7 1.3482645254494576e7 0.0
0.0 0.0 0.0

-4.920082860734954e6 1.7806158505581908e7 0.0
1.7806158505581908e7 -1.5095714446105853e7 0.0
0.0 0.0 0.0

-1.1208900028242685e7 7.249216465349155e6 0.0
7.249216465349155e6 1.9015698537401985e7 0.0
0.0 0.0 0.0

-1.9851456455968805e6 2.4935227226441022e7 0.0
2.4935227226441022e7 1.0269059239791399e6 0.0
0.0 0.0 0.0

-96983.27536035865 1.081088609018225e7 0.0
1.081088609018225e7 -5.101880248905904e6 0.0
0.0 0.0 0.0

-5.725203037995432e6 1.3313134000891153e7 0.0
1.3313134000891153e7 1.0966445583449218e7 0.0
0.0 0.0 0.0

-9.465126300709166e6 -2.0233470454431663e6 0.0
-2.0233470454431663e6 3.037564432343418e7 0.0
0.0 0.0 0.0

1.479974709804332e6 1.3769971678579224e7 0.0
1.3769971678579224e7 -1.6196782602839477e7 0.0
0.0 0.0 0.0

-176678.77536228456 2.857238507436777e7 0.0
2.857238507436777e7 -1.0608813277127855e6 0.0
0.0 0.0 0.0

-8.952702179861609e6 6.680893529190635e6 0.0
6.680893529190635e6 1.5146338353959333e7 0.0
0.0 0.0 0.0

1.3676994896025527e6 8.132681450836068e6 0.0
8.132681450836068e6 -4.1940474093758635e7 0.0
0.0 0.0 0.0

-2.208359820734863e6 1.1522662991954526e7 0.0
1.1522662991954526e7 -3.4872429127735836e6 0.0
0.0 0.0 0.0

7.659360555959156e6 2.1326259776877496e7 0.0
2.1326259776877496e7 1.07074410892829e7 0.0
0.0 0.0 0.0

3.589865146526024e7 2.1646747075028073e7 0.0
2.1646747075028073e7 7.046666021019797e6 0.0
0.0 0.0 0.0

3.5677576805758215e6 6.093947287081593e6 0.0
6.093947287081593e6 -2.0181518919759758e7 0.0
0.0 0.0 0.0

-4.753782164012986e6 1.636664074423968e7 0.0
1.636664074423968e7 -3.393275609627597e7 0.0
0.0 0.0 0.0

3.3790269290646072e6 6.062529884835183e6 0.0
6.062529884835183e6 -2.1242518823681317e7 0.0
0.0 0.0 0.0

4.122644432318317e6 3.6586404659273545e6 0.0
3.6586404659273545e6 -2.281381961023017e7 0.0
0.0 0.0 0.0

3.01123977596742e7 1.4049403150849862e7 0.0
1.4049403150849862e7 1.068096304891687e6 0.0
0.0 0.0 0.0

-9.829494411960779e6 3.434610492030575e7 0.0
3.434610492030575e7 3.3642695242500096e6 0.0
0.0 0.0 0.0

-2.722722325086427e6 1.5127310638221305e7 0.0
1.5127310638221305e7 -3.0733056755657695e7 0.0
0.0 0.0 0.0

-1.0016955445742577e7 2.2193801258832473e7 0.0
2.2193801258832473e7 -2.8068505545852105e6 0.0
0.0 0.0 0.0

4.0965052199648824e6 3.5517217413680675e6 0.0
3.5517217413680675e6 -2.948848231241534e7 0.0
0.0 0.0 0.0

-7.954582403375344e6 2.3613380102778465e7 0.0
2.3613380102778465e7 6.540812772847624e6 0.0
0.0 0.0 0.0

7.409338597465875e6 2.8899839127914887e7 0.0
2.8899839127914887e7 -4.918918844634403e6 0.0
0.0 0.0 0.0

-1.1146120785196861e7 9.909531767308591e6 0.0
9.909531767308591e6 3.065177526334266e7 0.0
0.0 0.0 0.0

1.0864264003360152e7 3.9526493097704425e7 0.0
3.9526493097704425e7 -7.798339438785957e6 0.0
0.0 0.0 0.0

-664930.3446466024 1.87871991191985e7 0.0
1.87871991191985e7 -727519.5763245483 0.0
0.0 0.0 0.0

3.4390423811018337e6 3.096878219550876e6 0.0
3.096878219550876e6 -3.7353637236236565e7 0.0
0.0 0.0 0.0

2.6118407589359984e7 1.8333967976579085e7 0.0
1.8333967976579085e7 4.244477960968725e6 0.0
0.0 0.0 0.0

-3.0993030733865527e6 1.972550354697303e7 0.0
1.972550354697303e7 1.368761781268636e7 0.0
0.0 0.0 0.0

2.757562781726785e6 6.189293523154294e6 0.0
6.189293523154294e6 -3.383651750915223e7 0.0
0.0 0.0 0.0

182870.76904487866 2.3294023557368886e7 0.0
2.3294023557368886e7 -6.069747673616505e6 0.0
0.0 0.0 0.0

1.0773417720351014e6 1.8894903599055808e7 0.0
1.8894903599055808e7 -7.918534239845591e6 0.0
0.0 0.0 0.0

-3.22303220341446e6 1.7666108562166784e7 0.0
1.7666108562166784e7 -1.2547129703383127e7 0.0
0.0 0.0 0.0

-660536.6175030619 1.8334438966144465e7 0.0
1.8334438966144465e7 -9.608549824888518e6 0.0
0.0 0.0 0.0

1.0256116475222899e7 2.1772601076490693e7 0.0
2.1772601076490693e7 1.0786851597056244e7 0.0
0.0 0.0 0.0

933135.5200201795 6.638258101593149e6 0.0
6.638258101593149e6 -5.839276713628871e7 0.0
0.0 0.0 0.0

-4.821365273932509e6 2.2553072266970795e7 0.0
2.2553072266970795e7 1.0555214378753608e7 0.0
0.0 0.0 0.0

1.2795734316198507e6 4.468346601759039e6 0.0
4.468346601759039e6 -3.9815710892717587e6 0.0
0.0 0.0 0.0

-1.0722909189362777e7 1.459077436149809e7 0.0
1.459077436149809e7 2.4553382692789804e7 0.0
0.0 0.0 0.0

4.222357454813051e6 4.0986692032675087e6 0.0
4.0986692032675087e6 -1.9983012243299585e7 0.0
0.0 0.0 0.0

-8.8151594822469e6 -2.393166067843611e6 0.0
-2.393166067843611e6 3.633638933268726e7 0.0
0.0 0.0 0.0

1.426675360853889e6 1.4546457594840521e7 0.0
1.4546457594840521e7 -1.9584394523732178e7 0.0
0.0 0.0 0.0

1.0814209926635767e6 2.621182806408826e6 0.0
2.621182806408826e6 -4.0759092333339034e6 0.0
0.0 0.0 0.0

3.4749225040959115e6 1.7255318623110477e7 0.0
1.7255318623110477e7 1.6389852293530796e7 0.0
0.0 0.0 0.0

-2.725964186820573e6 2.587953580929999e7 0.0
2.587953580929999e7 3.5263450468242215e6 0.0
0.0 0.0 0.0

-9.612363216527423e6 -1.0900229367983593e6 0.0
-1.0900229367983593e6 3.45820143311043e7 0.0
0.0 0.0 0.0

-1.7279848213311308e6 1.929270877165576e7 0.0
1.929270877165576e7 7.980907623307318e6 0.0
0.0 0.0 0.0

4.448716370706649e6 2.1584830789636843e7 0.0
2.1584830789636843e7 -5.409040285820392e6 0.0
0.0 0.0 0.0

-2.828943196337098e6 2.2547352549085308e7 0.0
2.2547352549085308e7 -71315.92059796711 0.0
0.0 0.0 0.0

-4.019106505035796e6 2.0456774252822272e7 0.0
2.0456774252822272e7 -9.08566130409677e6 0.0
0.0 0.0 0.0

-2.345217066778342e6 2.2703434188209277e7 0.0
2.2703434188209277e7 1.4461979495647491e6 0.0
0.0 0.0 0.0

-5.246988230752466e6 1.6146487953574361e7 0.0
1.6146487953574361e7 -1.869133881530283e7 0.0
0.0 0.0 0.0

1.6534491547100909e7 2.376219582765773e7 0.0
2.376219582765773e7 -5.059631441584678e6 0.0
0.0 0.0 0.0

-1.4675058377610953e6 1.7021039769850515e7 0.0
1.7021039769850515e7 -1.4345314101072663e7 0.0
0.0 0.0 0.0

-4.78107461994228e6 1.891037447245697e7 0.0
1.891037447245697e7 2.20173339548564e7 0.0
0.0 0.0 0.0

3.7125978175365836e6 2.025480704040331e7 0.0
2.025480704040331e7 1.3395969447609562e7 0.0
0.0 0.0 0.0

2.366310261282728e6 1.0133263148214e7 0.0
1.0133263148214e7 -2.27106018785084e7 0.0
0.0 0.0 0.0

-6.784854995420509e6 1.2476718233656622e7 0.0
1.2476718233656622e7 9.970772798014894e6 0.0
0.0 0.0 0.0

-2.9816611802631924e6 2.962445120680282e7 0.0
2.962445120680282e7 1.38397504288368e6 0.0
0.0 0.0 0.0

-6.0176535486136805e6 1.8840424312937018e7 0.0
1.8840424312937018e7 1.57952988495702e7 0.0
0.0 0.0 0.0

2.5094187936178073e6 3.1130530213800553e7 0.0
3.1130530213800553e7 -1.4696742386418316e6 0.0
0.0 0.0 0.0

962078.0890721623 1.4249618293034524e7 0.0
1.4249618293034524e7 -2.0831500387595e7 0.0
0.0 0.0 0.0

-2.0095142167041283e7 2.5569355513860997e7 0.0
2.5569355513860997e7 -7.774647094167716e6 0.0
0.0 0.0 0.0

3.311935810727095e6 4.61605234403818e6 0.0
4.61605234403818e6 -4.148987623610849e7 0.0
0.0 0.0 0.0

1.027661005009479e7 3.1130447201041427e7 0.0
3.1130447201041427e7 -4.849868348080039e6 0.0
0.0 0.0 0.0

-1.793998098589173e7 3.0123886093827005e7 0.0
3.0123886093827005e7 6.954878870516518e6 0.0
0.0 0.0 0.0

410220.6173485657 1.850125988166569e7 0.0
1.850125988166569e7 1.766576473858459e7 0.0
0.0 0.0 0.0

-3.369347541356821e7 3.026231321379069e7 0.0
3.026231321379069e7 6.930787757368278e6 0.0
0.0 0.0 0.0

3.6242971403496284e6 3.1348537238332033e6 0.0
3.1348537238332033e6 -3.843923464929518e7 0.0
0.0 0.0 0.0

-5.613436167595497e6 1.869745933364238e7 0.0
1.869745933364238e7 1.7040598938125674e7 0.0
0.0 0.0 0.0

-9.715654801407149e6 6.51035153249112e6 0.0
6.51035153249112e6 1.2419161556259125e7 0.0
0.0 0.0 0.0

3.927479714159335e6 3.296246763580377e6 0.0
3.296246763580377e6 -2.1073919561107017e7 0.0
0.0 0.0 0.0

428213.5449367217 1.8885574117439155e7 0.0
1.8885574117439155e7 -9.556783458830116e6 0.0
0.0 0.0 0.0

-6.466996605334302e6 3.561776050985949e7 0.0
3.561776050985949e7 4.484997458381728e6 0.0
0.0 0.0 0.0

-1.2782191530542016e7 1.647408727447767e7 0.0
1.647408727447767e7 7.448748308636884e6 0.0
0.0 0.0 0.0

-3.2740567597956404e7 2.596355752478766e7 0.0
2.596355752478766e7 1.5652710203838125e6 0.0
0.0 0.0 0.0

3.741870449073878e7 2.1050639535006437e7 0.0
2.1050639535006437e7 1.3479164139460787e7 0.0
0.0 0.0 0.0

-6.635044721612174e6 1.55736548346769e7 0.0
1.55736548346769e7 -7.503732684554115e7 0.0
0.0 0.0 0.0

-250777.87882944243 1.786153978823974e7 0.0
1.786153978823974e7 -1.202223093250836e7 0.0
0.0 0.0 0.0

-4.522634291213077e6 1.8468737024721816e7 0.0
1.8468737024721816e7 2.1979138417560782e7 0.0
0.0 0.0 0.0

432108.85032346845 2.1441483585123915e7 0.0
2.1441483585123915e7 -9.109888011633558e6 0.0
0.0 0.0 0.0

-1.571904465519484e6 2.4737285754564345e7 0.0
2.4737285754564345e7 -515012.00895629235 0.0
0.0 0.0 0.0

2.3750950380109022e6 1.6121531281935463e7 0.0
1.6121531281935463e7 9.503882344844544e6 0.0
0.0 0.0 0.0

2.0020321161246244e6 3.0452666435132228e7 0.0
3.0452666435132228e7 -1.4161463547124336e6 0.0
0.0 0.0 0.0

-1.0371748410265077e7 6.958084756448138e6 0.0
6.958084756448138e6 1.5457262018891845e7 0.0
0.0 0.0 0.0

5.001614935008414e7 3.1055515151629202e7 0.0
3.1055515151629202e7 1.9333474931744765e7 0.0
0.0 0.0 0.0

660456.4057982475 2.4558207788869556e7 0.0
2.4558207788869556e7 -5.77424959830925e6 0.0
0.0 0.0 0.0

3.3126908155454835e6 1.5491746001052152e7 0.0
1.5491746001052152e7 1.295055136248108e7 0.0
0.0 0.0 0.0

-1.039089968952633e7 2.3728325872196116e7 0.0
2.3728325872196116e7 2.1382517044757046e6 0.0
0.0 0.0 0.0

-485416.9159012716 1.7415926396957584e7 0.0
1.7415926396957584e7 1.5655356738326734e7 0.0
0.0 0.0 0.0

-131744.3417851925 2.3245738719613485e7 0.0
2.3245738719613485e7 -5.672049869287555e6 0.0
0.0 0.0 0.0

2.8202374970506374e6 7.826495776852705e6 0.0
7.826495776852705e6 -3.0128659771451607e7 0.0
0.0 0.0 0.0

-3.334034674444771e6 2.1156800471621953e7 0.0
2.1156800471621953e7 5.59491679940065e6 0.0
0.0 0.0 0.0

-5.722367026257893e6 2.1278333722372495e7 0.0
2.1278333722372495e7 3.6556652485788353e6 0.0
0.0 0.0 0.0

1.455975341628265e6 7.776364475121028e6 0.0
7.776364475121028e6 -1.1391063194093749e7 0.0
0.0 0.0 0.0

-3.729835385215187e6 2.1959121897887696e7 0.0
2.1959121897887696e7 1.1136890619827004e7 0.0
0.0 0.0 0.0

-8.93449416021775e6 5.290704822627287e6 0.0
5.290704822627287e6 4.425257541650729e7 0.0
0.0 0.0 0.0

-874628.0050655047 1.1020378762274422e7 0.0
1.1020378762274422e7 -2.698579652042293e6 0.0
0.0 0.0 0.0

-1.0392008592824206e7 2.2712854276964657e7 0.0
2.2712854276964657e7 -7.495681677661568e6 0.0
0.0 0.0 0.0

3.441143573707821e7 2.6451537142121766e7 0.0
2.6451537142121766e7 1.464115203855732e7 0.0
0.0 0.0 0.0

778368.5560735893 1.3825126651674151e7 0.0
1.3825126651674151e7 -2.6478586973987643e7 0.0
0.0 0.0 0.0

3.387694743145287e6 6.211561503566623e6 0.0
6.211561503566623e6 -3.1732313206356075e7 0.0
0.0 0.0 0.0

7.700822416058485e6 2.0197043865725163e7 0.0
2.0197043865725163e7 3.169883722978052e6 0.0
0.0 0.0 0.0

-4.43802108212141e6 1.0737367893509172e7 0.0
1.0737367893509172e7 1.54020028165986e7 0.0
0.0 0.0 0.0

-1.921481871728798e6 2.3859741195796784e7 0.0
2.3859741195796784e7 -1866.1171890773112 0.0
0.0 0.0 0.0

-1.4302375919735485e6 2.0574784475401003e7 0.0
2.0574784475401003e7 -7.101350376748019e6 0.0
0.0 0.0 0.0

-822416.2264981186 2.077834771172544e7 0.0
2.077834771172544e7 -8.792358297828551e6 0.0
0.0 0.0 0.0

-922728.3639861338 1.808907826254516e7 0.0
1.808907826254516e7 -7.189394811545496e6 0.0
0.0 0.0 0.0

2.0722454570321878e6 8.508785514959188e6 0.0
8.508785514959188e6 -1.0292663346225306e7 0.0
0.0 0.0 0.0

2.849696285225989e7 2.39233608730843e7 0.0
2.39233608730843e7 1.157893694678658e7 0.0
0.0 0.0 0.0

2.130379028401872e6 1.6763314040542068e7 0.0
1.6763314040542068e7 8.556396309347332e6 0.0
0.0 0.0 0.0

-3.20372622210917e6 2.907851932297547e7 0.0
2.907851932297547e7 3.232057478135352e6 0.0
0.0 0.0 0.0

-3.385175326809412e7 2.0186233112467926e7 0.0
2.0186233112467926e7 7.611793332170088e6 0.0
0.0 0.0 0.0

4.088655159774551e6 3.816128542140175e6 0.0
3.816128542140175e6 -1.876205995796185e7 0.0
0.0 0.0 0.0

383464.00213722396 1.83853667393566e7 0.0
1.83853667393566e7 6.1214264037382975e6 0.0
0.0 0.0 0.0

-3.8442703919199985e6 1.5452156250284437e7 0.0
1.5452156250284437e7 -1.7848701651428528e7 0.0
0.0 0.0 0.0

-47360.3598108748 1.6407074357446214e7 0.0
1.6407074357446214e7 -1.9636808032547742e7 0.0
0.0 0.0 0.0

-9.64105205775143e6 -3.613110183026498e6 0.0
-3.613110183026498e6 2.4361107959674954e7 0.0
0.0 0.0 0.0

1.2963777975133965e6 1.305614998720622e7 0.0
1.305614998720622e7 -1.8563566577444322e7 0.0
0.0 0.0 0.0

-8.620436005281456e6 1.6600203198056027e7 0.0
1.6600203198056027e7 -4.383297182459046e7 0.0
0.0 0.0 0.0

1.5270953153708149e6 1.25009422666342e7 0.0
1.25009422666342e7 -1.9583338399400257e7 0.0
0.0 0.0 0.0

1.3100848430153718e6 1.9450488316516545e7 0.0
1.9450488316516545e7 -8.879870195596308e6 0.0
0.0 0.0 0.0

2.7743400615677856e7 2.036049573917252e7 0.0
2.036049573917252e7 6.37327446965535e6 0.0
0.0 0.0 0.0

-8.92344648561124e6 1.422165166193958e7 0.0
1.422165166193958e7 3.1679727029342167e7 0.0
0.0 0.0 0.0

-4.422086201033518e6 2.1362414781689227e7 0.0
2.1362414781689227e7 -9.665218102146257e6 0.0
0.0 0.0 0.0

213536.37331966436 1.696518865634448e7 0.0
1.696518865634448e7 619771.6065698863 0.0
0.0 0.0 0.0

-5.576169790227588e6 1.9702814079770654e7 0.0
1.9702814079770654e7 -1.2166954387716908e7 0.0
0.0 0.0 0.0

2.705841101862602e7 2.446388671607569e7 0.0
2.446388671607569e7 1.1877157223397898e7 0.0
0.0 0.0 0.0

-4.45355428276191e6 2.201464188941904e7 0.0
2.201464188941904e7 1.1803097545212325e7 0.0
0.0 0.0 0.0

1.5805523129168137e6 1.9058397475563113e7 0.0
1.9058397475563113e7 -3.43447187606612e6 0.0
0.0 0.0 0.0

-661014.7144844296 2.632691955301639e7 0.0
2.632691955301639e7 -1.392532671306469e6 0.0
0.0 0.0 0.0

-3.30430849000692e6 2.1167245494374916e7 0.0
2.1167245494374916e7 6.396761195004094e6 0.0
0.0 0.0 0.0

-6.260130169598557e6 1.4376878506148409e6 0.0
1.4376878506148409e6 6.72357091126578e7 0.0
0.0 0.0 0.0

109909.31807463057 1.90532060963686e7 0.0
1.90532060963686e7 -1.3043204182989826e7 0.0
0.0 0.0 0.0

-2.1976097794774952e6 2.588353059174767e7 0.0
2.588353059174767e7 1.9747722150407485e6 0.0
0.0 0.0 0.0

-51521.590104361014 3.9798831044534547e6 0.0
3.9798831044534547e6 -352237.2470147829 0.0
0.0 0.0 0.0

-9.72386279004977e6 1.609618268801392e7 0.0
1.609618268801392e7 2.3864110120126117e7 0.0
0.0 0.0 0.0

-3.548300486461218e6 1.7356285999535173e7 0.0
1.7356285999535173e7 -1.0816695729595399e7 0.0
0.0 0.0 0.0

3.726365706949489e6 3.8212140303227175e6 0.0
3.8212140303227175e6 -2.5853249680050347e7 0.0
0.0 0.0 0.0

-1.9448245026085852e6 3.0036769438514084e7 0.0
3.0036769438514084e7 2.024548317787499e6 0.0
0.0 0.0 0.0

1.8165972511470327e6 1.3292628372791884e7 0.0
1.3292628372791884e7 -1.698666236678969e7 0.0
0.0 0.0 0.0

-6.50294638613393e6 1.820520225855209e7 0.0
1.820520225855209e7 1.8624288058806084e7 0.0
0.0 0.0 0.0

2.0497924568634965e6 5.968913661636891e6 0.0
5.968913661636891e6 -5.399670088640941e7 0.0
0.0 0.0 0.0

-3.869319836536295e6 2.8725242392311025e7 0.0
2.8725242392311025e7 2.7891348344645062e6 0.0
0.0 0.0 0.0

-6.96517357916951e6 1.644668300784624e7 0.0
1.644668300784624e7 -2.6144393344246164e7 0.0
0.0 0.0 0.0

3.619763985494199e6 2.9234716290712953e6 0.0
2.9234716290712953e6 -1.2595349193642117e7 0.0
0.0 0.0 0.0

-457921.2982612483 1.0334629073864512e7 0.0
1.0334629073864512e7 -3.983352324729454e6 0.0
0.0 0.0 0.0

-1.4810797784262858e7 3.024884478951086e7 0.0
3.024884478951086e7 6.126741563918701e6 0.0
0.0 0.0 0.0

4.440107238185862e6 1.5586052982701683e7 0.0
1.5586052982701683e7 1.523874408796039e7 0.0
0.0 0.0 0.0

-7.330575636449843e6 3.3648478260974795e7 0.0
3.3648478260974795e7 3.0534906596004562e6 0.0
0.0 0.0 0.0

-1.1384173085349275e7 5.326170235994313e6 0.0
5.326170235994313e6 2.4275072837013066e7 0.0
0.0 0.0 0.0

746017.5307553858 8.866820088681428e6 0.0
8.866820088681428e6 -6.0175678143690474e7 0.0
0.0 0.0 0.0

6.560966850620148e7 2.2154686006496057e7 0.0
2.2154686006496057e7 3.105974734980788e6 0.0
0.0 0.0 0.0

-1.8368661395235842e6 2.4528763781544577e7 0.0
2.4528763781544577e7 177694.52468205185 0.0
0.0 0.0 0.0

-4.996776195466141e6 2.5701613567644645e7 0.0
2.5701613567644645e7 6.336423665581798e6 0.0
0.0 0.0 0.0

-2.728181068281147e6 2.2978341744791005e7 0.0
2.2978341744791005e7 4.19519393210162e6 0.0
0.0 0.0 0.0

5.426410572899764e6 1.9120371814779427e7 0.0
1.9120371814779427e7 4.81838608620107e7 0.0
0.0 0.0 0.0

3.4257410299104676e6 4.0579441482506525e6 0.0
4.0579441482506525e6 -3.0237386192896787e7 0.0
0.0 0.0 0.0

333782.8785765623 1.2545883185768932e7 0.0
1.2545883185768932e7 -8.195374197923725e6 0.0
0.0 0.0 0.0

5.696713241311259e6 2.8867918587204292e7 0.0
2.8867918587204292e7 -4.4034169387439955e6 0.0
0.0 0.0 0.0

1.2956208893651348e6 1.041385298013469e7 0.0
1.041385298013469e7 -3.431222713042037e7 0.0
0.0 0.0 0.0

-1.8714223610167086e7 1.851015060985034e7 0.0
1.851015060985034e7 7.00365675413794e6 0.0
0.0 0.0 0.0

-5.711418475763042e6 2.1511654133553244e7 0.0
2.1511654133553244e7 2.501552546433988e6 0.0
0.0 0.0 0.0

342374.2212902823 1.710712381577194e7 0.0
1.710712381577194e7 3.7498380622776346e6 0.0
0.0 0.0 0.0

1.9981278871731246e6 1.2751482054452794e7 0.0
1.2751482054452794e7 -1.807640697358866e7 0.0
0.0 0.0 0.0

1.555751374856038e6 1.8524590318094216e7 0.0
1.8524590318094216e7 2.9897141068575583e7 0.0
0.0 0.0 0.0

9.94156369331511e6 2.8963295163808763e7 0.0
2.8963295163808763e7 -5.485863822573079e6 0.0
0.0 0.0 0.0

-4.0513219495329276e7 2.9411447545378446e6 0.0
2.9411447545378446e6 7.226440113685761e6 0.0
0.0 0.0 0.0

3.7024327039725326e7 3.794460973543844e7 0.0
3.794460973543844e7 -1.0338867505380716e7 0.0
0.0 0.0 0.0

9.325649842698451e6 2.9265638830469966e7 0.0
2.9265638830469966e7 -6.001694717256498e6 0.0
0.0 0.0 0.0

3.77640018832507e6 3.8997335525160553e6 0.0
3.8997335525160553e6 -1.8098792540211312e7 0.0
0.0 0.0 0.0

-3.0908336624598037e6 2.5958371880786385e7 0.0
2.5958371880786385e7 2.2282042345936038e6 0.0
0.0 0.0 0.0

3.359048627243755e7 1.4340927926382005e7 0.0
1.4340927926382005e7 1.5299514655619431e6 0.0
0.0 0.0 0.0

-8.01075722123687e6 7.524542739035076e6 0.0
7.524542739035076e6 4.764144587768832e7 0.0
0.0 0.0 0.0

90516.49428602261 1.925938951419891e7 0.0
1.925938951419891e7 -1.261359620633018e7 0.0
0.0 0.0 0.0

2.100981126109186e7 1.778001031705793e7 0.0
1.778001031705793e7 4.444935758265005e6 0.0
0.0 0.0 0.0

995937.3665474784 1.945200282971002e7 0.0
1.945200282971002e7 -1.0342802089035086e7 0.0
0.0 0.0 0.0

3.616435071000416e6 4.488678767125914e6 0.0
4.488678767125914e6 -3.243679671188924e7 0.0
0.0 0.0 0.0

-1.457426719391688e6 2.430748240079351e7 0.0
2.430748240079351e7 -1.4089484938649125e6 0.0
0.0 0.0 0.0

-3.2890567252034107e6 1.5708546277201615e7 0.0
1.5708546277201615e7 -1.6306232389798753e7 0.0
0.0 0.0 0.0

1.0154415280253086e6 2.5874893642663337e7 0.0
2.5874893642663337e7 -4.612239327951994e6 0.0
0.0 0.0 0.0

-6.731428150441311e6 1.012948265938723e7 0.0
1.012948265938723e7 4.954328205336681e7 0.0
0.0 0.0 0.0

-718886.6638444411 1.7177542735441748e7 0.0
1.7177542735441748e7 -9.549224901904233e6 0.0
0.0 0.0 0.0

2.35470238539022e6 9.835096618116356e6 0.0
9.835096618116356e6 -2.440588840778989e7 0.0
0.0 0.0 0.0

3.0337324729336854e6 2.1809832999632616e7 0.0
2.1809832999632616e7 -6.383831658532532e6 0.0
0.0 0.0 0.0

-2.3425059269183814e6 1.6735219323235461e7 0.0
1.6735219323235461e7 -8.660546941432709e6 0.0
0.0 0.0 0.0

-8.838023786896443e6 2.778322302380853e6 0.0
2.778322302380853e6 4.430336853772207e7 0.0
0.0 0.0 0.0

1.126772594863832e6 1.8867775492831267e7 0.0
1.8867775492831267e7 1.9075729679060847e7 0.0
0.0 0.0 0.0

1.1382858542277813e6 1.0077378147733841e7 0.0
1.0077378147733841e7 -3.689527003943911e7 0.0
0.0 0.0 0.0

1.6598851471743057e6 2.565840954590105e7 0.0
2.565840954590105e7 -4.52881249559569e6 0.0
0.0 0.0 0.0

2.3194180062993383e6 2.0482729507537745e7 0.0
2.0482729507537745e7 1.2954658938537756e7 0.0
0.0 0.0 0.0

3.074266444289962e6 8.864550808049131e6 0.0
8.864550808049131e6 -2.38415049521284e7 0.0
0.0 0.0 0.0

4.920986398523698e7 2.3088889341368012e7 0.0
2.3088889341368012e7 1.0824364083916835e7 0.0
0.0 0.0 0.0

1.0223688558459813e6 2.5131905799587328e7 0.0
2.5131905799587328e7 -4.69950678648141e6 0.0
0.0 0.0 0.0

-9.658972054186778e6 -3.0555447729924135e6 0.0
-3.0555447729924135e6 2.7438717311252914e7 0.0
0.0 0.0 0.0

-9.840458664745294e6 3.028466764192473e6 0.0
3.028466764192473e6 4.106698023846951e7 0.0
0.0 0.0 0.0

4.143854060096806e6 2.2760093922217498e6 0.0
2.2760093922217498e6 -2.732999861166513e7 0.0
0.0 0.0 0.0

-3.3071602519379817e6 2.2591573175175816e7 0.0
2.2591573175175816e7 3.671765751104258e6 0.0
0.0 0.0 0.0

-1.258060247797624e6 1.7406906731486425e7 0.0
1.7406906731486425e7 -7.964317607595954e6 0.0
0.0 0.0 0.0

401860.42864396656 2.091392370083758e7 0.0
2.091392370083758e7 -1.019271617300733e7 0.0
0.0 0.0 0.0

-9.791601727830917e6 -716646.8787209595 0.0
-716646.8787209595 2.0993788404969536e7 0.0
0.0 0.0 0.0

-470584.5902176765 2.118901969012678e7 0.0
2.118901969012678e7 -7.44272887974971e6 0.0
0.0 0.0 0.0

-9.035266410490418e6 2.6506922435174575e6 0.0
2.6506922435174575e6 4.403622154412548e7 0.0
0.0 0.0 0.0

7.453088920746574e6 1.9122306459372174e7 0.0
1.9122306459372174e7 4.805171209404849e6 0.0
0.0 0.0 0.0

607246.5981689468 1.2024273350887066e7 0.0
1.2024273350887066e7 -3.517276955890912e7 0.0
0.0 0.0 0.0

1.6900003338944018e6 1.0037693594047748e7 0.0
1.0037693594047748e7 -3.7016007985533655e7 0.0
0.0 0.0 0.0

-9.897101077169856e6 1.577140521795924e7 0.0
1.577140521795924e7 2.49892555349628e7 0.0
0.0 0.0 0.0

-3.1265290573368752e6 1.913518395897077e7 0.0
1.913518395897077e7 4.394582534548948e6 0.0
0.0 0.0 0.0

813402.7771731035 4.663853927102209e6 0.0
4.663853927102209e6 -2.5065419752597245e6 0.0
0.0 0.0 0.0

-938755.2524279144 1.800580901959066e7 0.0
1.800580901959066e7 -8.240355964199077e6 0.0
0.0 0.0 0.0

-3.3975477230354706e6 2.4711045948857877e7 0.0
2.4711045948857877e7 6.307996323528783e6 0.0
0.0 0.0 0.0

4.899658211788568e6 1.9036145024528764e7 0.0
1.9036145024528764e7 3.728483325590196e7 0.0
0.0 0.0 0.0

1.0756034518305983e7 2.1454923841104854e7 0.0
2.1454923841104854e7 -2.8009566454721373e6 0.0
0.0 0.0 0.0

-5.770105962077063e6 1.0343345441460089e6 0.0
1.0343345441460089e6 6.513463365690029e7 0.0
0.0 0.0 0.0

-9.003583452465922e6 9.818486227417149e6 0.0
9.818486227417149e6 3.899278667301096e7 0.0
0.0 0.0 0.0

-9.904754330324745e6 1.5407444206847254e7 0.0
1.5407444206847254e7 2.0810503953132316e7 0.0
0.0 0.0 0.0

1.5072484664913868e6 1.7329047055053756e7 0.0
1.7329047055053756e7 9.335864745302925e6 0.0
0.0 0.0 0.0

-9.94625234906032e6 3.199592900832934e6 0.0
3.199592900832934e6 1.5630835236682143e7 0.0
0.0 0.0 0.0

-9.722117487841647e6 2.0260746697135855e7 0.0
2.0260746697135855e7 -4.346688535120479e6 0.0
0.0 0.0 0.0

3.8958503756694943e6 4.925624531177483e6 0.0
4.925624531177483e6 -2.881655852670899e7 0.0
0.0 0.0 0.0

-6.401691623561652e6 1.6303046230315462e7 0.0
1.6303046230315462e7 -3.718828179699119e7 0.0
0.0 0.0 0.0

1.3014413602818714e6 1.670364631807804e7 0.0
1.670364631807804e7 5.971269705555666e6 0.0
0.0 0.0 0.0

1.4343092329292022e7 2.6110417300629675e7 0.0
2.6110417300629675e7 -6.360816730214279e6 0.0
0.0 0.0 0.0

1.3726286066884845e6 1.9986708795793608e7 0.0
1.9986708795793608e7 -8.038871419135235e6 0.0
0.0 0.0 0.0

-1.9950449284149725e7 2.478099251236852e7 0.0
2.478099251236852e7 -5.817408800057124e6 0.0
0.0 0.0 0.0

-1.8410444125252e6 2.5195671876296077e7 0.0
2.5195671876296077e7 -1.5261261927101237e6 0.0
0.0 0.0 0.0

-1.1776228927484313e6 6.791372963001943e6 0.0
6.791372963001943e6 -3.0245501596367634e6 0.0
0.0 0.0 0.0

-4.967263796253957e6 3.4496773959857054e7 0.0
3.4496773959857054e7 4.3761770629635425e6 0.0
0.0 0.0 0.0

-2.961382272977858e6 1.957198957353664e7 0.0
1.957198957353664e7 3.217987817840998e6 0.0
0.0 0.0 0.0

-1.2067279232147422e7 7.21918420039487e6 0.0
7.21918420039487e6 1.6126881534304563e7 0.0
0.0 0.0 0.0

-3.439152479897392e6 1.9500526034213535e7 0.0
1.9500526034213535e7 1.4857843801458448e6 0.0
0.0 0.0 0.0

-3.950298922254937e6 2.3096120891179238e6 0.0
2.3096120891179238e6 3.3022383421154027e6 0.0
0.0 0.0 0.0

848764.3363769539 9.906018368402047e6 0.0
9.906018368402047e6 -1.5095836821545344e7 0.0
0.0 0.0 0.0

844978.960287001 1.2584137458391303e7 0.0
1.2584137458391303e7 -3.0565882103300415e7 0.0
0.0 0.0 0.0

-8.456986984676756e6 2.134385042926366e7 0.0
2.134385042926366e7 -7.484238142308978e6 0.0
0.0 0.0 0.0

-4.622016153075415e6 1.8942848083970994e7 0.0
1.8942848083970994e7 2.0845655870909162e7 0.0
0.0 0.0 0.0

-932646.4633568554 1.729257849850359e7 0.0
1.729257849850359e7 -5.761150162319288e6 0.0
0.0 0.0 0.0

3.347916095641085e6 4.215225146005526e6 0.0
4.215225146005526e6 -1.2790378336818842e7 0.0
0.0 0.0 0.0

-1.4407906538006798e6 2.2781073807212308e7 0.0
2.2781073807212308e7 -4.879319767808068e6 0.0
0.0 0.0 0.0

-1.0230670843834856e6 2.613641774687534e7 0.0
2.613641774687534e7 -2.412726348008458e6 0.0
0.0 0.0 0.0

4.315504484075159e6 2.1383427345029373e7 0.0
2.1383427345029373e7 -5.718751579317557e6 0.0
0.0 0.0 0.0

-1.1935482108485576e7 1.033148905152488e7 0.0
1.033148905152488e7 1.739387150101261e7 0.0
0.0 0.0 0.0

-1.7677889078750876e6 1.6602174558776263e7 0.0
1.6602174558776263e7 -1.8264327660106238e7 0.0
0.0 0.0 0.0

-5.286393194462337e6 3.0031855805634297e7 0.0
3.0031855805634297e7 3.1873754491199427e6 0.0
0.0 0.0 0.0

-4.484233735113339e6 2.9384218170832448e7 0.0
2.9384218170832448e7 2.980795229310614e6 0.0
0.0 0.0 0.0

-2.0918896813697824e6 1.5004032189394657e7 0.0
1.5004032189394657e7 -2.834635812094445e7 0.0
0.0 0.0 0.0

-3.008795385993053e6 1.6650511608240487e7 0.0
1.6650511608240487e7 -1.1106902530503118e7 0.0
0.0 0.0 0.0

620254.1825172919 1.7387768520107713e7 0.0
1.7387768520107713e7 4.983538485916016e6 0.0
0.0 0.0 0.0

2.2744953168588355e6 9.356532106190534e6 0.0
9.356532106190534e6 -2.9317725053273223e7 0.0
0.0 0.0 0.0

-1.038891918697615e7 1.1030617016807586e7 0.0
1.1030617016807586e7 3.213815649791984e7 0.0
0.0 0.0 0.0

-1.0979094239084497e6 1.1980514577550534e7 0.0
1.1980514577550534e7 -6.24316958676772e7 0.0
0.0 0.0 0.0

7.9064828589719385e6 3.2106173576562136e7 0.0
3.2106173576562136e7 -6.273242813910766e6 0.0
0.0 0.0 0.0

5.45595681864731e6 1.7027546595208585e7 0.0
1.7027546595208585e7 2.522834262649657e7 0.0
0.0 0.0 0.0

2.797216157890605e6 1.8038881479953267e7 0.0
1.8038881479953267e7 3.348976143946302e7 0.0
0.0 0.0 0.0

2.0049545910364255e7 2.2225583321445648e7 0.0
2.2225583321445648e7 9.99306029600298e6 0.0
0.0 0.0 0.0

-362112.43770022236 1.762231932368592e7 0.0
1.762231932368592e7 2.8310811777761765e6 0.0
0.0 0.0 0.0

-1.3339455785156672e6 2.2425481633951668e7 0.0
2.2425481633951668e7 -4.657329213748011e6 0.0
0.0 0.0 0.0

-2.659634997478366e7 2.5127626562190007e7 0.0
2.5127626562190007e7 -6.704141459673145e6 0.0
0.0 0.0 0.0

-315996.17847932363 1.6772368632909654e7 0.0
1.6772368632909654e7 952486.5012019222 0.0
0.0 0.0 0.0

-3.414642155399708e6 2.0490845909257315e7 0.0
2.0490845909257315e7 5.236128025254655e6 0.0
0.0 0.0 0.0

4.242158123105933e6 3.9253912268150756e6 0.0
3.9253912268150756e6 -2.3959312645390235e7 0.0
0.0 0.0 0.0

-1.0676353659344034e7 2.1717176316645652e7 0.0
2.1717176316645652e7 -2.7499354645769605e6 0.0
0.0 0.0 0.0

-1.3211894015629007e7 3.623054620033717e7 0.0
3.623054620033717e7 5.128957136515981e6 0.0
0.0 0.0 0.0

-1.036727681183889e7 1.1367846046919862e6 0.0
1.1367846046919862e6 2.391490086158149e7 0.0
0.0 0.0 0.0

9.591755471340112e6 2.70174474496671e7 0.0
2.70174474496671e7 -5.343140725722995e6 0.0
0.0 0.0 0.0

-4.401957225493103e6 9.963607524699736e6 0.0
9.963607524699736e6 7.069705407839811e7 0.0
0.0 0.0 0.0

-9.494377683459565e6 -3.1363309641062855e6 0.0
-3.1363309641062855e6 2.7188330738639154e7 0.0
0.0 0.0 0.0

-1.1478576800465617e7 1.857340323144727e7 0.0
1.857340323144727e7 -4.804666590519534e7 0.0
0.0 0.0 0.0

-249838.77222104836 1.8583692386850644e7 0.0
1.8583692386850644e7 -1.0811378752144974e7 0.0
0.0 0.0 0.0

-802648.8758182046 2.6929819385878645e7 0.0
2.6929819385878645e7 -1.220109713627109e6 0.0
0.0 0.0 0.0

-7.204586136448282e6 1.8449933443631552e7 0.0
1.8449933443631552e7 -7.347266631925545e6 0.0
0.0 0.0 0.0

-611876.2052181157 9.785421786773311e6 0.0
9.785421786773311e6 -2.8391045311613493e6 0.0
0.0 0.0 0.0

-1.885990501331486e6 2.408480102799494e7 0.0
2.408480102799494e7 -2.6235749238521336e6 0.0
0.0 0.0 0.0

-3.00504024268339e6 2.850403986767671e7 0.0
2.850403986767671e7 2.7087767179316916e6 0.0
0.0 0.0 0.0

-592174.5426681167 2.7061371827853195e7 0.0
2.7061371827853195e7 -1.5660599239596024e6 0.0
0.0 0.0 0.0

-2.859770429070469e6 1.1149629220035862e7 0.0
1.1149629220035862e7 -6.826528999273708e7 0.0
0.0 0.0 0.0

-4.81590273621702e6 1.8194633154634815e7 0.0
1.8194633154634815e7 -1.5852175116282692e7 0.0
0.0 0.0 0.0

-7.616059499048509e6 2.0353238448837262e6 0.0
2.0353238448837262e6 5.258790103472613e7 0.0
0.0 0.0 0.0

1.1136541540635122e7 2.158488066681028e7 0.0
2.158488066681028e7 5.445382088071151e7 0.0
0.0 0.0 0.0

-4.4934395929843865e7 2.9046865196371665e6 0.0
2.9046865196371665e6 7.152347346235629e6 0.0
0.0 0.0 0.0

3.385485507404498e7 2.455220414971643e7 0.0
2.455220414971643e7 3.7762593109353324e6 0.0
0.0 0.0 0.0

373973.686067516 1.472534403628122e7 0.0
1.472534403628122e7 -2.554701523453365e7 0.0
0.0 0.0 0.0

2.296548519043705e6 5.437004761294019e6 0.0
5.437004761294019e6 -8.126630635348728e6 0.0
0.0 0.0 0.0

4.63389080572909e7 2.328699124944447e7 0.0
2.328699124944447e7 -3.564620238110287e6 0.0
0.0 0.0 0.0

3.3372716538060047e6 1.1605307081747051e7 0.0
1.1605307081747051e7 -1.9747678862402283e7 0.0
0.0 0.0 0.0

2.5077636827738777e7 2.2205439316743273e7 0.0
2.2205439316743273e7 1.037024503989626e7 0.0
0.0 0.0 0.0

-2.1390624073894843e6 2.501181563492418e7 0.0
2.501181563492418e7 -958182.7455795796 0.0
0.0 0.0 0.0

-4.410320894396836e6 2.5168929921548508e7 0.0
2.5168929921548508e7 6.495275893639369e6 0.0
0.0 0.0 0.0

-705232.2546976907 1.2970925248843255e7 0.0
1.2970925248843255e7 -8.860477570321083e6 0.0
0.0 0.0 0.0

-7.263831786835398e6 1.3402924972779166e7 0.0
1.3402924972779166e7 -3.008563261091964e6 0.0
0.0 0.0 0.0

-4.482691527149601e6 1.6628898787990939e7 0.0
1.6628898787990939e7 -1.7653618742370795e7 0.0
0.0 0.0 0.0

-1.9364738527743844e6 1.9643964439352907e7 0.0
1.9643964439352907e7 7.8472951961029805e6 0.0
0.0 0.0 0.0

2.0510043712594383e6 1.939486183933958e7 0.0
1.939486183933958e7 9.480528888730874e6 0.0
0.0 0.0 0.0

-4.996378985127252e6 8.549846551590368e6 0.0
8.549846551590368e6 6.613559297471132e7 0.0
0.0 0.0 0.0

-2.5606325015731324e6 2.352620651433869e7 0.0
2.352620651433869e7 -568006.8195087407 0.0
0.0 0.0 0.0

4.1167825070836246e6 2.2598845092388703e6 0.0
2.2598845092388703e6 -2.754282607315105e7 0.0
0.0 0.0 0.0

-3.8000475394678432e6 2.0476264760737147e7 0.0
2.0476264760737147e7 1.43722097381577e7 0.0
0.0 0.0 0.0

1.2371364856816656e6 1.939125022228797e7 0.0
1.939125022228797e7 1.0910736527062226e7 0.0
0.0 0.0 0.0

9.890956713836795e6 2.3062817106286254e7 0.0
2.3062817106286254e7 -4.590579379760198e6 0.0
0.0 0.0 0.0

-248419.73715424212 2.272833221043321e7 0.0
2.272833221043321e7 -7.346986410590253e6 0.0
0.0 0.0 0.0

-3.8016322344833626e6 3.146817071979611e7 0.0
3.146817071979611e7 1.9342376028455573e6 0.0
0.0 0.0 0.0

-2.091570357196278e6 7.308312307260055e6 0.0
7.308312307260055e6 -1.6938564343771078e6 0.0
0.0 0.0 0.0

-1.0708385431679301e7 2.980390841439958e7 0.0
2.980390841439958e7 5.306294523999751e6 0.0
0.0 0.0 0.0

-2.389317488706724e6 2.564272544275101e7 0.0
2.564272544275101e7 2.746817908421751e6 0.0
0.0 0.0 0.0

-9.391588920744963e6 1.6469382801108845e7 0.0
1.6469382801108845e7 2.0809662416155957e7 0.0
0.0 0.0 0.0

2.770616768657123e7 2.1987468767649785e7 0.0
2.1987468767649785e7 -1.3609783527978025e6 0.0
0.0 0.0 0.0

562368.3905052356 1.777210040832475e7 0.0
1.777210040832475e7 -1.3690564040640736e7 0.0
0.0 0.0 0.0

-2.393602002917703e6 2.480857874881546e7 0.0
2.480857874881546e7 -284922.5486246961 0.0
0.0 0.0 0.0

-425569.15218053386 1.1865217414269606e7 0.0
1.1865217414269606e7 -9.173702596560676e6 0.0
0.0 0.0 0.0

-1.689961751092326e6 1.9379705404947385e7 0.0
1.9379705404947385e7 1.2325862333253987e7 0.0
0.0 0.0 0.0

-1.1082647277369907e7 1.4152560764596164e7 0.0
1.4152560764596164e7 42104.970955727156 0.0
0.0 0.0 0.0

-1.1368782709133385e7 2.109428515429162e7 0.0
2.109428515429162e7 -3.085315041673391e6 0.0
0.0 0.0 0.0

104432.38225003378 1.8335129051120315e7 0.0
1.8335129051120315e7 -1.0782189353255317e7 0.0
0.0 0.0 0.0

8.162598688919492e6 1.514438831112346e7 0.0
1.514438831112346e7 4.371944195577347e6 0.0
0.0 0.0 0.0

-13706.433853923343 1.726192124495277e7 0.0
1.726192124495277e7 -1.696328792329263e7 0.0
0.0 0.0 0.0

-4.785711070896998e6 1.878137262123545e7 0.0
1.878137262123545e7 2.075370826982479e7 0.0
0.0 0.0 0.0

-1.5703096661357667e7 1.983683482776258e7 0.0
1.983683482776258e7 2.5087313596839653e6 0.0
0.0 0.0 0.0

-2.4846813090670053e6 1.9442484048575517e7 0.0
1.9442484048575517e7 3.202010438692216e6 0.0
0.0 0.0 0.0

-1.250924052424387e7 6.497876510083804e6 0.0
6.497876510083804e6 2.208413521660912e7 0.0
0.0 0.0 0.0

1.6071518219625517e6 1.7925211395486217e7 0.0
1.7925211395486217e7 1.696122912697689e7 0.0
0.0 0.0 0.0

1.1743853556440704e7 2.933929040043856e7 0.0
2.933929040043856e7 -6.861519198606681e6 0.0
0.0 0.0 0.0

-3.61121703969058e7 2.4569277427808348e7 0.0
2.4569277427808348e7 3.3599763693985566e6 0.0
0.0 0.0 0.0

7.246927040674253e6 3.5889010325304e7 0.0
3.5889010325304e7 -3.4121511454729494e6 0.0
0.0 0.0 0.0

-1.2734594162514005e7 2.257082349597634e7 0.0
2.257082349597634e7 144253.9536900157 0.0
0.0 0.0 0.0

4.060191208376089e6 3.2836202336753685e7 0.0
3.2836202336753685e7 -1.9055617828145241e6 0.0
0.0 0.0 0.0

-1.1848580357640628e7 2.677225283421266e6 0.0
2.677225283421266e6 2.1501514749694724e7 0.0
0.0 0.0 0.0

1.239818908107229e7 2.211630856645695e7 0.0
2.211630856645695e7 -3.1038824316938426e6 0.0
0.0 0.0 0.0

-3.6535548873889027e6 2.972673876691111e7 0.0
2.972673876691111e7 3.514769291774233e6 0.0
0.0 0.0 0.0

-4.427986114489492e6 2.0270218348793622e7 0.0
2.0270218348793622e7 915861.5604663994 0.0
0.0 0.0 0.0

-96847.82639501337 1.6178630730879122e7 0.0
1.6178630730879122e7 -2.1318707415941544e7 0.0
0.0 0.0 0.0

-5.8293895063508125e6 2.713810350298823e7 0.0
2.713810350298823e7 5.627027547138871e6 0.0
0.0 0.0 0.0

-7.252401855537149e6 1.822008353841018e7 0.0
1.822008353841018e7 -3.689139269131475e6 0.0
0.0 0.0 0.0

3.349607730333291e6 3.2248775919324063e7 0.0
3.2248775919324063e7 -3.6659261396180885e6 0.0
0.0 0.0 0.0

-1.3727993430717617e7 3.0266410187243894e7 0.0
3.0266410187243894e7 6.517812071564183e6 0.0
0.0 0.0 0.0

8.354144793796523e6 2.2396912786022663e7 0.0
2.2396912786022663e7 -4.1627155184169314e6 0.0
0.0 0.0 0.0

3.710371790290665e6 5.658885510130498e6 0.0
5.658885510130498e6 -1.6127467712366808e7 0.0
0.0 0.0 0.0

-4.90208694841198e6 1.6646811854345646e7 0.0
1.6646811854345646e7 -3.0359732471120216e7 0.0
0.0 0.0 0.0

3.325790388258728e6 4.1084605909074238e6 0.0
4.1084605909074238e6 -1.3878914090441106e7 0.0
0.0 0.0 0.0

3.800673737305769e6 1.7492052747227486e7 0.0
1.7492052747227486e7 2.4043682664701305e7 0.0
0.0 0.0 0.0

4.285644873226252e6 2.0724207154193982e7 0.0
2.0724207154193982e7 -4.094347211124371e6 0.0
0.0 0.0 0.0

7.119994513538521e6 2.7294844433543812e7 0.0
2.7294844433543812e7 -5.1361658400432095e6 0.0
0.0 0.0 0.0

-9.627506314444833e6 1.666309633363167e7 0.0
1.666309633363167e7 2.368585943580029e7 0.0
0.0 0.0 0.0

15478.41081546247 1.3566689178993765e7 0.0
1.3566689178993765e7 -7.9578138602856165e6 0.0
0.0 0.0 0.0

-501604.7800366867 8.383746895120149e6 0.0
8.383746895120149e6 4.727358484573218e6 0.0
0.0 0.0 0.0

184896.77505512908 1.043492561631295e7 0.0
1.043492561631295e7 -5.1578406972026475e7 0.0
0.0 0.0 0.0

1.7470373513228523e6 1.516855331540788e7 0.0
1.516855331540788e7 5.525269114027518e6 0.0
0.0 0.0 0.0

-1.3235340964421514e7 2.7293387457909986e7 0.0
2.7293387457909986e7 5.526107834426805e6 0.0
0.0 0.0 0.0

-1.0242647956117135e6 1.7124990168980595e7 0.0
1.7124990168980595e7 -1.208779171427832e7 0.0
0.0 0.0 0.0

2.104063857742654e7 2.120761885663766e7 0.0
2.120761885663766e7 7.81237089469428e6 0.0
0.0 0.0 0.0

-1.1260122510401472e7 5.541791701483684e6 0.0
5.541791701483684e6 2.8691244580617305e7 0.0
0.0 0.0 0.0

-3.002230072271035e7 2.7975493950965125e7 0.0
2.7975493950965125e7 2.7824161565625686e6 0.0
0.0 0.0 0.0

2.628823755958558e7 3.0304482529556468e7 0.0
3.0304482529556468e7 -1.0566205323136913e7 0.0
0.0 0.0 0.0

-4.569426301972924e6 2.532148985689192e7 0.0
2.532148985689192e7 7.255414714027222e6 0.0
0.0 0.0 0.0

-137136.12440340663 1.5415367706802007e7 0.0
1.5415367706802007e7 2.2021859338683696e6 0.0
0.0 0.0 0.0

-8.270452800942846e6 1.5758511721107192e7 0.0
1.5758511721107192e7 2.8630491577047743e7 0.0
0.0 0.0 0.0

-1.0125862286740517e7 -1.864740100725355e6 0.0
-1.864740100725355e6 2.805802304033735e7 0.0
0.0 0.0 0.0

99838.15930251312 1.743363601806506e7 0.0
1.743363601806506e7 -1.487328373782802e7 0.0
0.0 0.0 0.0

-8.436282096869696e6 2.3473908754333753e7 0.0
2.3473908754333753e7 -9.832551040661765e6 0.0
0.0 0.0 0.0

-238980.38725949312 1.7761545780053046e7 0.0
1.7761545780053046e7 -1.0006624216957951e7 0.0
0.0 0.0 0.0

-7.250123782822663e6 1.0543017128536714e7 0.0
1.0543017128536714e7 4.540635811008575e7 0.0
0.0 0.0 0.0

819684.8853277406 1.38238939151741e7 0.0
1.38238939151741e7 -2.5134952090701718e7 0.0
0.0 0.0 0.0

-8.550098784640398e6 2.3379472825028915e7 0.0
2.3379472825028915e7 -9.963852270807676e6 0.0
0.0 0.0 0.0

-101843.84547659382 1.5788148445590341e7 0.0
1.5788148445590341e7 -2.122112054851056e7 0.0
0.0 0.0 0.0

2.1529317145203926e7 2.1039568760339946e7 0.0
2.1039568760339946e7 1.0247140227326822e7 0.0
0.0 0.0 0.0

-8.723740592116302e6 8.79093591828502e6 0.0
8.79093591828502e6 4.182460722298491e7 0.0
0.0 0.0 0.0

1.0496395519411634e6 1.897366674622389e7 0.0
1.897366674622389e7 -1.252806671838067e6 0.0
0.0 0.0 0.0

-2.810998955064581e6 1.957208811013259e7 0.0
1.957208811013259e7 1.701866743946502e7 0.0
0.0 0.0 0.0

2.3221449870923324e6 2.62779201719272e7 0.0
2.62779201719272e7 -4.49686474007312e6 0.0
0.0 0.0 0.0

2.8996795248722173e6 9.59387945789878e6 0.0
9.59387945789878e6 -2.5561767866048682e7 0.0
0.0 0.0 0.0

2.0835825609270148e6 9.060311809386374e6 0.0
9.060311809386374e6 -1.1060826404068792e7 0.0
0.0 0.0 0.0

257687.26384235173 1.089129770013019e7 0.0
1.089129770013019e7 -4.471161284379205e7 0.0
0.0 0.0 0.0

-8.262661083917044e6 2.1765380996709585e7 0.0
2.1765380996709585e7 -3.8442872576663336e6 0.0
0.0 0.0 0.0

-1.0059814347234933e7 8.511001316159029e6 0.0
8.511001316159029e6 3.746295113861533e7 0.0
0.0 0.0 0.0

-7.084054738656811e6 2.159131182062757e7 0.0
2.159131182062757e7 -7.038434392872306e6 0.0
0.0 0.0 0.0

-75013.78812034475 1.6869805639607128e7 0.0
1.6869805639607128e7 -1.0364563221332878e7 0.0
0.0 0.0 0.0

1.5586930964673236e6 8.558174753866816e6 0.0
8.558174753866816e6 -3.953417921125134e7 0.0
0.0 0.0 0.0

-9.203946902804561e6 1.4652670424106736e7 0.0
1.4652670424106736e7 2.9690392774481494e7 0.0
0.0 0.0 0.0

2.69963237429112e6 1.6774736604919802e7 0.0
1.6774736604919802e7 1.0853542931525808e7 0.0
0.0 0.0 0.0

140729.12847721577 1.238803347604228e7 0.0
1.238803347604228e7 -3.300890152216392e7 0.0
0.0 0.0 0.0

3.7004140522916e6 2.909575052923273e6 0.0
2.909575052923273e6 -3.0641127698909692e7 0.0
0.0 0.0 0.0

-4.23525906863219e6 2.00261444557631e7 0.0
2.00261444557631e7 1.4279402094584575e7 0.0
0.0 0.0 0.0

-6.69385598067776e6 2.225129308513602e7 0.0
2.225129308513602e7 -9.349821378760498e6 0.0
0.0 0.0 0.0

1.3075223037084062e6 1.2686944192008233e7 0.0
1.2686944192008233e7 -1.2838924980724782e7 0.0
0.0 0.0 0.0

-1.000902060893455e7 2.0248097602706987e6 0.0
2.0248097602706987e6 3.467656886262059e7 0.0
0.0 0.0 0.0

-1.9789557779252946e6 1.9724505000333027e6 0.0
1.9724505000333027e6 3.7841434396810336e6 0.0
0.0 0.0 0.0

-6.946181365153736e6 1.837647799981064e7 0.0
1.837647799981064e7 1.7266397267447717e7 0.0
0.0 0.0 0.0

2.2846639342265926e7 2.320953657601812e7 0.0
2.320953657601812e7 1.303246712380256e7 0.0
0.0 0.0 0.0

1.7234887828050412e7 2.1611825027599327e7 0.0
2.1611825027599327e7 1.0327434056139521e7 0.0
0.0 0.0 0.0

-1.3056744448772281e7 2.257594307902762e7 0.0
2.257594307902762e7 -8.528023800366415e6 0.0
0.0 0.0 0.0

-3.2551460403466136e6 1.5246717450007353e7 0.0
1.5246717450007353e7 -1.1133596400359992e7 0.0
0.0 0.0 0.0

-7.3689334881069185e6 2.2547478895070933e7 0.0
2.2547478895070933e7 -8.157888319439982e6 0.0
0.0 0.0 0.0

-8.36807498183892e6 2.147171733060047e7 0.0
2.147171733060047e7 -7.6688861570842005e6 0.0
0.0 0.0 0.0

398317.5300723929 1.1467154485087229e7 0.0
1.1467154485087229e7 -3.978513979085128e7 0.0
0.0 0.0 0.0

-569166.3204383729 4.197503155237681e6 0.0
4.197503155237681e6 -2.2774302376260944e6 0.0
0.0 0.0 0.0

-492521.48354937066 6.696217956584617e6 0.0
6.696217956584617e6 -730979.1386998786 0.0
0.0 0.0 0.0

916811.6593791735 1.6147422113634186e7 0.0
1.6147422113634186e7 1.437879666740275e6 0.0
0.0 0.0 0.0

1.550612453803696e7 2.1915049931852877e7 0.0
2.1915049931852877e7 1.0405552267700167e7 0.0
0.0 0.0 0.0

821640.5049793345 1.668177836548966e7 0.0
1.668177836548966e7 7.025832434682326e6 0.0
0.0 0.0 0.0

-5.156526030657847e6 1.9240843273924742e7 0.0
1.9240843273924742e7 1.4684684099131798e7 0.0
0.0 0.0 0.0

-2.3052783873624057e7 1.0731455648134008e7 0.0
1.0731455648134008e7 9.30495729864679e6 0.0
0.0 0.0 0.0

1.8166913461080792e6 1.682693152414418e7 0.0
1.682693152414418e7 8.613801689367475e6 0.0
0.0 0.0 0.0

2.889244346985898e6 6.147173450086708e6 0.0
6.147173450086708e6 -1.687237345371529e7 0.0
0.0 0.0 0.0

-1.3196170640530169e7 2.878756545389398e7 0.0
2.878756545389398e7 6.114822165344715e6 0.0
0.0 0.0 0.0

-9.480520626930257e6 152994.99617018297 0.0
152994.99617018297 3.6732489593343034e7 0.0
0.0 0.0 0.0

-1.3691528167200682e6 1.880570503711017e7 0.0
1.880570503711017e7 -8.19701942166366e6 0.0
0.0 0.0 0.0

6.798559326168066e6 2.0266451928585004e7 0.0
2.0266451928585004e7 1.1171325519570997e7 0.0
0.0 0.0 0.0

-6.487360304466996e6 2.203829606958168e7 0.0
2.203829606958168e7 -9.318337517278718e6 0.0
0.0 0.0 0.0

-2.3201255619727317e6 1.555732886604797e7 0.0
1.555732886604797e7 -2.577382045484246e7 0.0
0.0 0.0 0.0

1.7966951934774615e7 2.258196092379174e7 0.0
2.258196092379174e7 1.2341644246484265e7 0.0
0.0 0.0 0.0

-2.3961870958939735e6 1.7116388344081014e7 0.0
1.7116388344081014e7 -1.8992782732227832e7 0.0
0.0 0.0 0.0

1.1382365865755337e6 1.7699348680621795e7 0.0
1.7699348680621795e7 1.0241719552422304e7 0.0
0.0 0.0 0.0

3.1958398937514005e6 1.9618978327202737e7 0.0
1.9618978327202737e7 1.3465663820593307e7 0.0
0.0 0.0 0.0

-3.8441684326764895e6 1.982699321986856e7 0.0
1.982699321986856e7 1.5145074852784473e7 0.0
0.0 0.0 0.0

-2.748351419939512e6 1.9664041404230636e7 0.0
1.9664041404230636e7 1.0002645222346816e7 0.0
0.0 0.0 0.0

3.2103148498322833e6 5.436812882382555e6 0.0
5.436812882382555e6 -2.9581110335250538e7 0.0
0.0 0.0 0.0

88282.88859126146 2.8202618392947383e7 0.0
2.8202618392947383e7 -1.6658504224315612e6 0.0
0.0 0.0 0.0

-5.252011484782316e6 1.880038798375367e7 0.0
1.880038798375367e7 -1.3080518772877231e7 0.0
0.0 0.0 0.0

2.64447230992562e7 1.960069376492908e7 0.0
1.960069376492908e7 9.745192573837027e6 0.0
0.0 0.0 0.0

-7.864099095290469e6 2.6484576069053665e7 0.0
2.6484576069053665e7 6.281595831508225e6 0.0
0.0 0.0 0.0

3.4532036977752093e6 4.524239810945348e6 0.0
4.524239810945348e6 -3.406317609257446e7 0.0
0.0 0.0 0.0

-3.46951242811549e6 1.768210917903897e7 0.0
1.768210917903897e7 5.7773463974350635e6 0.0
0.0 0.0 0.0

1.3054687696703985e7 1.9712792473231323e7 0.0
1.9712792473231323e7 6.923609241779396e6 0.0
0.0 0.0 0.0

3.4404938093316995e7 1.786069518200713e7 0.0
1.786069518200713e7 6.99324556511729e6 0.0
0.0 0.0 0.0

-4.906611437920495e6 2.96628217006848e7 0.0
2.96628217006848e7 4.447327455014331e6 0.0
0.0 0.0 0.0

375170.40214067325 1.803947724279657e7 0.0
1.803947724279657e7 -1.5921354657492714e7 0.0
0.0 0.0 0.0

-1.0975568721174013e7 9.47496521424497e6 0.0
9.47496521424497e6 1.8928558991336696e7 0.0
0.0 0.0 0.0

-9.868843927919656e6 237761.1529116863 0.0
237761.1529116863 3.5169914694892935e7 0.0
0.0 0.0 0.0

1.5660013624075672e6 1.678342985995644e7 0.0
1.678342985995644e7 5.912638520107017e6 0.0
0.0 0.0 0.0

1.0343513529455489e7 1.7272476382529426e7 0.0
1.7272476382529426e7 9.38466556020245e6 0.0
0.0 0.0 0.0

-1.1166487777580412e7 3.2650610979048056e6 0.0
3.2650610979048056e6 2.7351787003102347e7 0.0
0.0 0.0 0.0

-2.895877437178005e6 1.2070858180146046e7 0.0
1.2070858180146046e7 -2.0954655832099551e6 0.0
0.0 0.0 0.0

-3.357989315247566e6 1.8908009534859385e7 0.0
1.8908009534859385e7 -1.251761475722767e7 0.0
0.0 0.0 0.0

-3.3170841988370838e6 1.586774151091881e7 0.0
1.586774151091881e7 -2.392326900012373e7 0.0
0.0 0.0 0.0

-721276.3808239254 2.762331535574004e7 0.0
2.762331535574004e7 -1.302056275265312e6 0.0
0.0 0.0 0.0

3.0146223057725937e6 2.678483196395898e7 0.0
2.678483196395898e7 -4.7256602140521025e6 0.0
0.0 0.0 0.0

2.843578082969035e6 3.50900712051261e7 0.0
3.50900712051261e7 -3.4677876605956485e6 0.0
0.0 0.0 0.0

-1.2923262131308725e7 3.4351142108141534e7 0.0
3.4351142108141534e7 6.413764805406924e6 0.0
0.0 0.0 0.0

6.230906735418742e6 1.7902985639842376e7 0.0
1.7902985639842376e7 2.3852240763549026e7 0.0
0.0 0.0 0.0

-6.376345131177671e6 1.6344916344318567e7 0.0
1.6344916344318567e7 -6.5545578794282354e7 0.0
0.0 0.0 0.0

-1.0531664282363301e7 -1.5084558392150237e6 0.0
-1.5084558392150237e6 1.9277843378033094e7 0.0
0.0 0.0 0.0

-8.042336028145788e6 1.5216275469564639e7 0.0
1.5216275469564639e7 -2.819151288520117e7 0.0
0.0 0.0 0.0

-3.611703635227371e6 1.4444425862378614e7 0.0
1.4444425862378614e7 -1.2628067313043611e7 0.0
0.0 0.0 0.0

4.772000776204894e6 1.8296544708921175e7 0.0
1.8296544708921175e7 2.3232099789309073e7 0.0
0.0 0.0 0.0

-7.594943863202214e6 1.6788122197814927e7 0.0
1.6788122197814927e7 -3.370968712859177e7 0.0
0.0 0.0 0.0

-5.801134048126287e6 1.5415307262975859e7 0.0
1.5415307262975859e7 -2.3906122937078618e7 0.0
0.0 0.0 0.0

1.5048381797003489e7 2.1656905701729566e7 0.0
2.1656905701729566e7 8.94064678239106e6 0.0
0.0 0.0 0.0

-4.84455303102264e6 1.938886049752519e7 0.0
1.938886049752519e7 -1.171174953655839e7 0.0
0.0 0.0 0.0

2.870604882772589e6 8.855266066007221e6 0.0
8.855266066007221e6 -2.8652398959571403e7 0.0
0.0 0.0 0.0

987500.8590762739 1.6842402813473634e7 0.0
1.6842402813473634e7 3.2163054606015775e6 0.0
0.0 0.0 0.0

-8.195935876826126e6 2.2774117575628165e7 0.0
2.2774117575628165e7 -9.931749894291151e6 0.0
0.0 0.0 0.0

3.465995780186123e6 1.6704460972646136e7 0.0
1.6704460972646136e7 1.4732014436811548e7 0.0
0.0 0.0 0.0

3.426243830279588e6 4.132390624931213e6 0.0
4.132390624931213e6 -1.4249297046999393e7 0.0
0.0 0.0 0.0

-2.5900421491509504e6 2.4614039332734976e7 0.0
2.4614039332734976e7 491798.9707834211 0.0
0.0 0.0 0.0

-3.6236673997126166e6 2.7878703910650797e7 0.0
2.7878703910650797e7 2.6020286648969743e6 0.0
0.0 0.0 0.0

-9.590723850728182e6 1.4786816164887082e7 0.0
1.4786816164887082e7 2.8491501381631203e7 0.0
0.0 0.0 0.0

1.4215681533382994e6 1.7843091060266223e7 0.0
1.7843091060266223e7 7.992308072279119e6 0.0
0.0 0.0 0.0

3.28426709573109e6 1.9936442009328544e7 0.0
1.9936442009328544e7 1.4282907042376867e7 0.0
0.0 0.0 0.0

-3.5865462409920087e6 3.108047798515623e7 0.0
3.108047798515623e7 3.0086458847653596e6 0.0
0.0 0.0 0.0

-4.967499850983421e6 1.9170686739309758e7 0.0
1.9170686739309758e7 1.5300709235306133e7 0.0
0.0 0.0 0.0

-1.0209375442317685e7 -2.8240718212696468e6 0.0
-2.8240718212696468e6 2.2593838864766866e7 0.0
0.0 0.0 0.0

-3.2445061038136254e6 2.7794379000417177e7 0.0
2.7794379000417177e7 3.8317096694957586e6 0.0
0.0 0.0 0.0

-1.3251140474655193e6 2.3847678211615656e7 0.0
2.3847678211615656e7 -2.3504365862457096e6 0.0
0.0 0.0 0.0

-3.7075185611308403e6 1.9152733145315267e7 0.0
1.9152733145315267e7 2.45883514483908e6 0.0
0.0 0.0 0.0

-185484.2972207202 2.7902404659496136e7 0.0
2.7902404659496136e7 -1.7662983924957495e6 0.0
0.0 0.0 0.0

-219048.14691896786 2.7396707671848465e7 0.0
2.7396707671848465e7 -1.4337928015127336e6 0.0
0.0 0.0 0.0

-1.7893379181285237e6 1.8183191810176723e7 0.0
1.8183191810176723e7 -9.142522518264499e6 0.0
0.0 0.0 0.0

3.159251721292704e6 1.8154171388188243e7 0.0
1.8154171388188243e7 1.0530839696710635e7 0.0
0.0 0.0 0.0

2.540255844803348e6 8.744774049578205e6 0.0
8.744774049578205e6 -2.6965238911626305e7 0.0
0.0 0.0 0.0

-1.0513139337962376e7 1.6199161015326504e7 0.0
1.6199161015326504e7 -4.0163096664261654e7 0.0
0.0 0.0 0.0

-3.907924364038087e6 2.0611486124218576e7 0.0
2.0611486124218576e7 3.1469796834186222e6 0.0
0.0 0.0 0.0

-3.1144543069053035e7 3.074615155702604e7 0.0
3.074615155702604e7 -1.0271276988427257e7 0.0
0.0 0.0 0.0

-6.256561643486694e6 1.6295556331773618e7 0.0
1.6295556331773618e7 -2.2792793825248502e7 0.0
0.0 0.0 0.0

-3.5064073288228944e7 3.008089132662272e7 0.0
3.008089132662272e7 -4.667130115124746e6 0.0
0.0 0.0 0.0

-3.90083429209636e6 2.1252784475956332e7 0.0
2.1252784475956332e7 1.0975250683467725e7 0.0
0.0 0.0 0.0

-8.793004444818612e6 -812010.6470077228 0.0
-812010.6470077228 4.076884431675035e7 0.0
0.0 0.0 0.0

1.7106039014686493e6 2.6167708129969575e7 0.0
2.6167708129969575e7 -4.427280644777292e6 0.0
0.0 0.0 0.0

-1.3207927382320335e7 2.4318378728743147e7 0.0
2.4318378728743147e7 -8.965800237738974e6 0.0
0.0 0.0 0.0

224829.86335429084 1.8569781324063804e7 0.0
1.8569781324063804e7 -1.4541177595410226e7 0.0
0.0 0.0 0.0

-1.0431780583621938e7 2.885339718137949e7 0.0
2.885339718137949e7 5.899137689841489e6 0.0
0.0 0.0 0.0

-1.1801884092608282e7 6.250428204116108e6 0.0
6.250428204116108e6 2.1952815017633226e7 0.0
0.0 0.0 0.0

1.9730681495736986e6 9.660226322755452e6 0.0
9.660226322755452e6 -3.355736331687327e7 0.0
0.0 0.0 0.0

-1.3748888344786564e7 2.8603269018778116e7 0.0
2.8603269018778116e7 5.848150935618402e6 0.0
0.0 0.0 0.0

1.056627584318782e6 1.74984950292497e7 0.0
1.74984950292497e7 4.993026127810598e6 0.0
0.0 0.0 0.0

-1.2260334245269828e7 8.125272096989023e6 0.0
8.125272096989023e6 1.726915658259633e7 0.0
0.0 0.0 0.0

-739632.5583339366 1.712837156936282e7 0.0
1.712837156936282e7 -1.0765352643993143e7 0.0
0.0 0.0 0.0

1.5983105231257153e6 2.49085116706981e7 0.0
2.49085116706981e7 -5.225789084392278e6 0.0
0.0 0.0 0.0

-2.4574036211148128e7 1.1224736051522331e7 0.0
1.1224736051522331e7 8.87793761925616e6 0.0
0.0 0.0 0.0

-5.714650563656583e6 2.658730559603825e7 0.0
2.658730559603825e7 6.326962541200133e6 0.0
0.0 0.0 0.0

-155234.8420026498 1.7745521444934808e7 0.0
1.7745521444934808e7 -1.6908007600976653e7 0.0
0.0 0.0 0.0

2.5703328577708593e6 8.982408609010002e6 0.0
8.982408609010002e6 -2.396376063089809e7 0.0
0.0 0.0 0.0

260244.09264993411 4.786048650241901e6 0.0
4.786048650241901e6 -4.3907449360293895e6 0.0
0.0 0.0 0.0

998082.8149202447 1.60154078282896e7 0.0
1.60154078282896e7 -1.8522185435787085e7 0.0
0.0 0.0 0.0

-1.90272392469616e7 2.4340383834011815e7 0.0
2.4340383834011815e7 -3.612754252531487e6 0.0
0.0 0.0 0.0

4.978468769146044e6 3.48089481484969e7 0.0
3.48089481484969e7 -2.7698140332627804e6 0.0
0.0 0.0 0.0

53976.51063934155 1.7945640207383346e7 0.0
1.7945640207383346e7 2.7495766306833267e7 0.0
0.0 0.0 0.0

2.2341479722879278e6 1.825171581358891e7 0.0
1.825171581358891e7 9.7825260633191e6 0.0
0.0 0.0 0.0

6.465459529866274e6 1.6098594693102235e7 0.0
1.6098594693102235e7 2.3092466489465427e7 0.0
0.0 0.0 0.0

-3.53917469624507e6 1.795279119067384e7 0.0
1.795279119067384e7 -1.1797249249390962e7 0.0
0.0 0.0 0.0

-9.697256340681273e6 1.435585113889609e7 0.0
1.435585113889609e7 2.914362460924297e7 0.0
0.0 0.0 0.0

-2.509062423929871e6 1.632021668278672e7 0.0
1.632021668278672e7 -1.2651548719476288e7 0.0
0.0 0.0 0.0

-2.4408599389854576e7 3.1627616482372113e7 0.0
3.1627616482372113e7 8.244216523147339e6 0.0
0.0 0.0 0.0

-1.0409502138806632e7 3.357090752400559e6 0.0
3.357090752400559e6 3.291434577326055e7 0.0
0.0 0.0 0.0

-8.788913953432374e6 -803366.1327625379 0.0
-803366.1327625379 4.1408576692308895e7 0.0
0.0 0.0 0.0

822825.7396337083 1.253376116712766e7 0.0
1.253376116712766e7 -1.4543415272472229e7 0.0
0.0 0.0 0.0

80976.71027751363 2.877561456535665e6 0.0
2.877561456535665e6 167622.80806339937 0.0
0.0 0.0 0.0

1.0774017820877545e6 9.399648964912737e6 0.0
9.399648964912737e6 -4.1914534974505305e7 0.0
0.0 0.0 0.0

-9.351767734647524e6 1.1731992608981788e7 0.0
1.1731992608981788e7 3.5023272133062415e7 0.0
0.0 0.0 0.0

755036.822629597 1.1691747335300636e7 0.0
1.1691747335300636e7 -3.2742877597843926e7 0.0
0.0 0.0 0.0

-9.943344562773261e6 -738378.7447144045 0.0
-738378.7447144045 2.7091359924473085e7 0.0
0.0 0.0 0.0

-3.2530542702257363e6 2.5531660693561602e7 0.0
2.5531660693561602e7 2.976768671011745e6 0.0
0.0 0.0 0.0

2.2555905019959295e6 2.5341321022898607e7 0.0
2.5341321022898607e7 -5.12112884590744e6 0.0
0.0 0.0 0.0

-3.5386499088229225e6 2.9252921389294364e7 0.0
2.9252921389294364e7 2.025187416565152e6 0.0
0.0 0.0 0.0

2.4994523539521135e6 3.392945968411381e7 0.0
3.392945968411381e7 -2.0199219614794892e6 0.0
0.0 0.0 0.0

612222.8679636535 3.076912446849861e7 0.0
3.076912446849861e7 -1.9701927286681153e6 0.0
0.0 0.0 0.0

-9.926560556390345e6 169463.80257452183 0.0
169463.80257452183 3.377002779889137e7 0.0
0.0 0.0 0.0

3.0194481029527094e6 4.866507100198176e6 0.0
4.866507100198176e6 -3.6501520420276076e7 0.0
0.0 0.0 0.0

434362.36858493555 1.9162786088684373e7 0.0
1.9162786088684373e7 -1.085911619305384e7 0.0
0.0 0.0 0.0

-279930.81242916314 2.0600178956435032e7 0.0
2.0600178956435032e7 -8.540732950332824e6 0.0
0.0 0.0 0.0

2.2613559003428575e6 1.138996313545454e7 0.0
1.138996313545454e7 -1.99907722013812e7 0.0
0.0 0.0 0.0

-5.484493580278372e6 1.4620801003245465e7 0.0
1.4620801003245465e7 -1.8642727536007315e7 0.0
0.0 0.0 0.0

1.2717018974637128e6 1.5971479485238012e7 0.0
1.5971479485238012e7 4.239006353743685e6 0.0
0.0 0.0 0.0

-3.8057225718051433e6 2.2741272146911576e7 0.0
2.2741272146911576e7 8.084182402507596e6 0.0
0.0 0.0 0.0

-8.451976980489178e6 2.73059599574876e7 0.0
2.73059599574876e7 5.8178381777779795e6 0.0
0.0 0.0 0.0

-2.0030357403892153e6 1.6237290656843191e7 0.0
1.6237290656843191e7 -6.899358416420279e6 0.0
0.0 0.0 0.0

-1.2932061234874744e6 1.2190610814683018e7 0.0
1.2190610814683018e7 -2.5701037126220786e6 0.0
0.0 0.0 0.0

3.716886523883542e6 3.470691745287395e6 0.0
3.470691745287395e6 -2.9379833358655542e7 0.0
0.0 0.0 0.0

1.9265856583363283e6 1.884729993117844e7 0.0
1.884729993117844e7 -5.909368720261065e6 0.0
0.0 0.0 0.0

2.430995366313573e6 9.337695700779624e6 0.0
9.337695700779624e6 -2.5684943496103026e7 0.0
0.0 0.0 0.0

-3.045046749959975e6 7.850599493777754e6 0.0
7.850599493777754e6 -185202.2113713856 0.0
0.0 0.0 0.0

-1.5094981552060486e6 1.1005187299953753e7 0.0
1.1005187299953753e7 -4.942124341517714e6 0.0
0.0 0.0 0.0

-1.992996588728509e6 3.2935756233714498e6 0.0
3.2935756233714498e6 -30951.305929647177 0.0
0.0 0.0 0.0

-2.60129684923428e6 2.3395295499618936e7 0.0
2.3395295499618936e7 3.2415122234052615e6 0.0
0.0 0.0 0.0

73400.92516790051 1.6539495611154139e7 0.0
1.6539495611154139e7 -1.973367923121733e7 0.0
0.0 0.0 0.0

365019.44431473874 9.10532215030068e6 0.0
9.10532215030068e6 -4.8367665014382936e7 0.0
0.0 0.0 0.0

-6.160224599189993e6 2.095609512477054e7 0.0
2.095609512477054e7 -5.579504437589377e6 0.0
0.0 0.0 0.0

-2.2523510277325567e7 2.78101549303433e7 0.0
2.78101549303433e7 -1.0312156186911874e7 0.0
0.0 0.0 0.0

-1.785928611255645e7 2.78881735510324e7 0.0
2.78881735510324e7 5.434375010579218e6 0.0
0.0 0.0 0.0

-9.021035248725174e6 2.3384020037820853e7 0.0
2.3384020037820853e7 -9.448668281439973e6 0.0
0.0 0.0 0.0

-3.61775697485881e6 1.5129199380124725e7 0.0
1.5129199380124725e7 -3.2070280677144606e7 0.0
0.0 0.0 0.0

-7.08343578351904e6 1.5806686731271103e7 0.0
1.5806686731271103e7 -2.361145348351946e7 0.0
0.0 0.0 0.0

-1.723215384248923e7 2.5633398478329323e7 0.0
2.5633398478329323e7 -9.156266934864426e6 0.0
0.0 0.0 0.0

-1.015191959501976e7 1.6676469216422413e7 0.0
1.6676469216422413e7 -3.383973316345211e7 0.0
0.0 0.0 0.0

-7.67772757338223e6 1.8294791145354386e7 0.0
1.8294791145354386e7 2.039823680977649e7 0.0
0.0 0.0 0.0

-1.070861248363733e7 -642955.6182383372 0.0
-642955.6182383372 1.791410212651983e7 0.0
0.0 0.0 0.0

-1.3148886683395e6 2.3509800469552103e7 0.0
2.3509800469552103e7 -3.787123075479874e6 0.0
0.0 0.0 0.0

-4.701836953554465e6 2.0434715390532535e7 0.0
2.0434715390532535e7 1.269271508303122e7 0.0
0.0 0.0 0.0

-1.060679805609719e7 -1.567950044530887e6 0.0
-1.567950044530887e6 2.3252528610783122e7 0.0
0.0 0.0 0.0

1.1751961349833822e6 1.3556886719955979e7 0.0
1.3556886719955979e7 -2.4755280659901522e7 0.0
0.0 0.0 0.0

-2.4763759140148093e6 2.4159622649433974e7 0.0
2.4159622649433974e7 -428320.55012403335 0.0
0.0 0.0 0.0

397723.39085124864 1.6602800932112342e7 0.0
1.6602800932112342e7 -1.5064521799655426e6 0.0
0.0 0.0 0.0

-4.1590349647559547e6 2.5167121993903045e7 0.0
2.5167121993903045e7 5.733305505673316e6 0.0
0.0 0.0 0.0

-1.5830068435653739e7 2.59467627271321e7 0.0
2.59467627271321e7 -1.0054532239949718e7 0.0
0.0 0.0 0.0

-7.992683589748407e6 1.610139232031284e7 0.0
1.610139232031284e7 -2.6642279175125763e7 0.0
0.0 0.0 0.0

3.4317813865820775e6 1.978690385351514e7 0.0
1.978690385351514e7 1.5347128416776696e7 0.0
0.0 0.0 0.0

-2.6859117327332154e7 2.8195090853543792e7 0.0
2.8195090853543792e7 4.715035202669181e6 0.0
0.0 0.0 0.0

-1.0422816234130014e7 8.342163511660533e6 0.0
8.342163511660533e6 1.8181423370911904e7 0.0
0.0 0.0 0.0

-8.645134339626303e6 9.3116111143203e6 0.0
9.3116111143203e6 4.388878201793576e7 0.0
0.0 0.0 0.0

-1.8508809647045215e6 1.829374820590297e7 0.0
1.829374820590297e7 -9.02677897717411e6 0.0
0.0 0.0 0.0

1.996262904758584e6 3.052996501006894e7 0.0
3.052996501006894e7 -2.9083720979169607e6 0.0
0.0 0.0 0.0

6.5061381972203255e6 1.6845461637891483e7 0.0
1.6845461637891483e7 2.1687127596685328e7 0.0
0.0 0.0 0.0

2.0552754231709518e7 1.877804852859051e7 0.0
1.877804852859051e7 4.57735645143554e6 0.0
0.0 0.0 0.0

-1.2157828503991762e7 2.4526117448143367e7 0.0
2.4526117448143367e7 -9.795534028468944e6 0.0
0.0 0.0 0.0

3.268563850580629e6 2.839086467355391e7 0.0
2.839086467355391e7 -4.268824836493164e6 0.0
0.0 0.0 0.0

8.874550118021172e6 1.6683418634757977e7 0.0
1.6683418634757977e7 3.415747731107555e7 0.0
0.0 0.0 0.0

2.400928053968547e6 6.624311615722622e6 0.0
6.624311615722622e6 -4.664197549390559e7 0.0
0.0 0.0 0.0

-5.50039365911518e6 2.5815201568345893e7 0.0
2.5815201568345893e7 6.914077234327277e6 0.0
0.0 0.0 0.0

589299.5785844402 1.5391198033733724e7 0.0
1.5391198033733724e7 55234.888666794344 0.0
0.0 0.0 0.0

-1.145304731579782e7 1.7311404418199815e7 0.0
1.7311404418199815e7 -3.817682605207909e7 0.0
0.0 0.0 0.0

-5.065845087149765e6 2.1120851701351278e7 0.0
2.1120851701351278e7 -2.0548579968702318e6 0.0
0.0 0.0 0.0

3.382562477335939e6 3.1503710508858375e6 0.0
3.1503710508858375e6 -4.005560158940303e7 0.0
0.0 0.0 0.0

-1.0185556895875786e6 1.952074415351215e7 0.0
1.952074415351215e7 -8.865427909403706e6 0.0
0.0 0.0 0.0

2.6231027185623706e6 2.141574879192142e7 0.0
2.141574879192142e7 -7.515669731630178e6 0.0
0.0 0.0 0.0

1.9521617773765694e7 2.144521473521066e7 0.0
2.144521473521066e7 -760173.0716602001 0.0
0.0 0.0 0.0

-9.139195102125699e6 1.695721533159884e7 0.0
1.695721533159884e7 2.083241957962441e7 0.0
0.0 0.0 0.0

-2.0831297866982094e6 1.5209010711227313e7 0.0
1.5209010711227313e7 -4.922823022467219e6 0.0
0.0 0.0 0.0

-7.332579525175763e6 2.2133842776856575e7 0.0
2.2133842776856575e7 -9.441873629536271e6 0.0
0.0 0.0 0.0

-1.6419602408018885e6 2.3700062765093498e7 0.0
2.3700062765093498e7 -3.298472616973681e6 0.0
0.0 0.0 0.0

-8.798632479557067e6 1.768624423708001e6 0.0
1.768624423708001e6 4.3944296357835874e7 0.0
0.0 0.0 0.0

-1.7142650114553794e6 1.6630503981378248e7 0.0
1.6630503981378248e7 -8.21784047944435e6 0.0
0.0 0.0 0.0

-9.775263279481983e6 2.7712271800525576e7 0.0
2.7712271800525576e7 6.019781934631012e6 0.0
0.0 0.0 0.0

1.496201928727529e6 8.352505806590854e6 0.0
8.352505806590854e6 -1.213018512900508e7 0.0
0.0 0.0 0.0

8.085286221051628e6 1.9502244312531795e7 0.0
1.9502244312531795e7 1.2070006935423324e7 0.0
0.0 0.0 0.0

-4.072097645711531e7 2.92419715353137e7 0.0
2.92419715353137e7 5.394551834765475e6 0.0
0.0 0.0 0.0

2.2723601889077113e6 1.5209230799276594e7 0.0
1.5209230799276594e7 8.056541520225507e6 0.0
0.0 0.0 0.0

3.4370870309422845e6 6.878746287078368e6 0.0
6.878746287078368e6 -1.5725815496707607e7 0.0
0.0 0.0 0.0

2.7668720644994173e6 1.9138005700620003e7 0.0
1.9138005700620003e7 1.785153932851495e7 0.0
0.0 0.0 0.0

491146.23508066824 2.313232235551684e7 0.0
2.313232235551684e7 -6.679434508898967e6 0.0
0.0 0.0 0.0

1.6632049850508846e7 2.8549868947466638e7 0.0
2.8549868947466638e7 -6.309223604615952e6 0.0
0.0 0.0 0.0

-3.3247461650748537e6 1.5313524679259134e7 0.0
1.5313524679259134e7 -1.1082487621768532e7 0.0
0.0 0.0 0.0

-4.0172517764673764e6 1.6063442904367749e7 0.0
1.6063442904367749e7 7.464404923524836e6 0.0
0.0 0.0 0.0

898780.6131937206 8.440383056185579e6 0.0
8.440383056185579e6 -1.0341494741334155e7 0.0
0.0 0.0 0.0

-3.981125557484882e6 1.6929247375441175e7 0.0
1.6929247375441175e7 -2.258551473015562e7 0.0
0.0 0.0 0.0

-254989.4068186828 1.979511340753303e7 0.0
1.979511340753303e7 -9.236697156011673e6 0.0
0.0 0.0 0.0

1.3810470762792684e7 2.214228592283235e7 0.0
2.214228592283235e7 1.1256970564374268e7 0.0
0.0 0.0 0.0

-6.263914514355551e6 2.1487502560442355e7 0.0
2.1487502560442355e7 -9.666113441589268e6 0.0
0.0 0.0 0.0

2.2242772496077004e6 2.129906211651779e7 0.0
2.129906211651779e7 -7.062167683161758e6 0.0
0.0 0.0 0.0

-7.956284528390415e6 3.1185691274701487e6 0.0
3.1185691274701487e6 1.1411137729885008e7 0.0
0.0 0.0 0.0

-898235.1548918798 6.710817193260258e6 0.0
6.710817193260258e6 1.2519774173203735e6 0.0
0.0 0.0 0.0

8.118366148282863e6 2.082997385198902e7 0.0
2.082997385198902e7 -2.3420003365180185e6 0.0
0.0 0.0 0.0

1.8348260239852022e6 1.6031661450363783e7 0.0
1.6031661450363783e7 6.949732845703462e6 0.0
0.0 0.0 0.0

4.690653294701685e7 1.9867313564328283e7 0.0
1.9867313564328283e7 1.1087674984123198e7 0.0
0.0 0.0 0.0

-1.0500672063598698e7 -1.310764833696736e6 0.0
-1.310764833696736e6 2.611382141868864e7 0.0
0.0 0.0 0.0

-1.5133130005833492e7 2.4304292659535058e7 0.0
2.4304292659535058e7 -7.012297239651315e6 0.0
0.0 0.0 0.0

-1.317149599465815e7 2.302054205144566e7 0.0
2.302054205144566e7 -3.804698326992297e6 0.0
0.0 0.0 0.0

-2.9311500076622326e7 2.5636073636284497e7 0.0
2.5636073636284497e7 -9.592866024978757e6 0.0
0.0 0.0 0.0

3.2023003460395455e7 5.79164119254262e6 0.0
5.79164119254262e6 -2.2508329261458293e6 0.0
0.0 0.0 0.0

-7.307543819929536e6 8.240145637003696e6 0.0
8.240145637003696e6 5.130640663065018e7 0.0
0.0 0.0 0.0

-1.5470199016562912e6 1.1548879521954311e7 0.0
1.1548879521954311e7 -1.2730141215842632e6 0.0
0.0 0.0 0.0

-1.4216463389552716e7 2.375307105531672e7 0.0
2.375307105531672e7 -9.511890041971138e6 0.0
0.0 0.0 0.0

-4.1175549315571855e6 2.535965187127161e7 0.0
2.535965187127161e7 6.816199334109596e6 0.0
0.0 0.0 0.0

-681000.547846219 1.9425321937494554e7 0.0
1.9425321937494554e7 -1.0442751874395546e7 0.0
0.0 0.0 0.0

1.1537202436217219e6 1.3264822508179164e7 0.0
1.3264822508179164e7 -1.5508768407428462e7 0.0
0.0 0.0 0.0

-53500.98579935799 1.6509703979549222e7 0.0
1.6509703979549222e7 -5.517988338681014e6 0.0
0.0 0.0 0.0

-6.700696925261731e6 1.4895407496425884e7 0.0
1.4895407496425884e7 -2.488767026598587e7 0.0
0.0 0.0 0.0

-8.4980273786121e6 1.7397209780934285e7 0.0
1.7397209780934285e7 -5.518913468369178e7 0.0
0.0 0.0 0.0

1.128673521865106e7 5.722408871570653e6 0.0
5.722408871570653e6 -2.2595245643747845e6 0.0
0.0 0.0 0.0

7.156164874127533e6 2.9055624554874416e7 0.0
2.9055624554874416e7 -5.168964290662835e6 0.0
0.0 0.0 0.0

-5.250272208578426e6 1.5564991643844277e7 0.0
1.5564991643844277e7 -1.7500908162009094e7 0.0
0.0 0.0 0.0

1.5553017625998477e7 1.6291619088891972e7 0.0
1.6291619088891972e7 4.1534823734834697e6 0.0
0.0 0.0 0.0

-354388.66332925414 1.7196934927671168e7 0.0
1.7196934927671168e7 -6.903640357108352e6 0.0
0.0 0.0 0.0

-1.1975452717520504e6 2.3128983160171926e7 0.0
2.3128983160171926e7 -3.5434888328705127e6 0.0
0.0 0.0 0.0

-3.7831468616393013e6 1.6561987067488156e7 0.0
1.6561987067488156e7 -1.4994154781360539e7 0.0
0.0 0.0 0.0

-1.824966007349167e7 1.8255995622280538e7 0.0
1.8255995622280538e7 4.9124476423214525e6 0.0
0.0 0.0 0.0

-7.704547874423307e6 -3.6046646289701825e6 0.0
-3.6046646289701825e6 1.2037836988590157e7 0.0
0.0 0.0 0.0

-7.315919589337268e6 1.776954143347045e7 0.0
1.776954143347045e7 2.0102185836091075e7 0.0
0.0 0.0 0.0

-534873.6478735114 1.6146488428178256e7 0.0
1.6146488428178256e7 2.0169318561379635e6 0.0
0.0 0.0 0.0

-5.58307927159952e6 1.734662339767294e7 0.0
1.734662339767294e7 -1.5200133067248758e7 0.0
0.0 0.0 0.0

-781565.7703975027 1.75840498978309e7 0.0
1.75840498978309e7 -7.459691892178011e6 0.0
0.0 0.0 0.0

-2.5427664715413726e6 1.266601415767782e7 0.0
1.266601415767782e7 -3.31582333357328e6 0.0
0.0 0.0 0.0

2.276828683498895e7 2.1199293464746483e7 0.0
2.1199293464746483e7 -1.279446914908504e6 0.0
0.0 0.0 0.0

-9.583760530012244e6 3.0256490858872384e7 0.0
3.0256490858872384e7 5.972347508959521e6 0.0
0.0 0.0 0.0

4.770085903325812e6 2.2146148965878226e7 0.0
2.2146148965878226e7 -5.503135914760353e6 0.0
0.0 0.0 0.0

-3.9787770681282287e6 2.0052859802599862e7 0.0
2.0052859802599862e7 -3.407818214283822e6 0.0
0.0 0.0 0.0

-2.634037558703094e6 2.96115534136795e7 0.0
2.96115534136795e7 2.5872925144238807e6 0.0
0.0 0.0 0.0

-6.632505914227608e6 1.8893095878006384e7 0.0
1.8893095878006384e7 1.735079586499502e7 0.0
0.0 0.0 0.0

1.3571477210420752e6 7.744652220870494e6 0.0
7.744652220870494e6 -8.096838544651851e6 0.0
0.0 0.0 0.0

-1.3406184493400368e6 7.218023261752642e6 0.0
7.218023261752642e6 806393.258063993 0.0
0.0 0.0 0.0

-9.312792928287841e6 1.5725332792610656e7 0.0
1.5725332792610656e7 -3.575338479144292e7 0.0
0.0 0.0 0.0

-3.200456082805949e6 1.9952223005428605e7 0.0
1.9952223005428605e7 5.45091025416786e6 0.0
0.0 0.0 0.0

1.7069685986940153e6 5.257870498018051e6 0.0
5.257870498018051e6 -8.297081226054102e6 0.0
0.0 0.0 0.0

-4.8754991756546974e7 3.0093815235131536e7 0.0
3.0093815235131536e7 -2.648313165608842e6 0.0
0.0 0.0 0.0

66631.36190322414 8.56247240456005e6 0.0
8.56247240456005e6 -5.606023188706345e7 0.0
0.0 0.0 0.0

-1.2576324220204833e6 9.817033393119572e6 0.0
9.817033393119572e6 -4.990191238840039e6 0.0
0.0 0.0 0.0

-8.282643495655723e6 1.627282032790971e7 0.0
1.627282032790971e7 -3.832960433348848e7 0.0
0.0 0.0 0.0

3.2972038829443213e6 4.566150276016042e6 0.0
4.566150276016042e6 -3.561891710358518e7 0.0
0.0 0.0 0.0

2.068369692197616e7 3.187910970580535e7 0.0
3.187910970580535e7 -8.820549847344294e6 0.0
0.0 0.0 0.0

2.9773405349539146e6 9.57543728107011e6 0.0
9.57543728107011e6 -2.4050886238398574e7 0.0
0.0 0.0 0.0

-7.371944192068083e6 1.2584191040568426e7 0.0
1.2584191040568426e7 4.022437811464208e7 0.0
0.0 0.0 0.0

-8.860827065204151e6 1.7243585183920205e7 0.0
1.7243585183920205e7 2.119739503055444e7 0.0
0.0 0.0 0.0

-4.0176597201041337e6 2.1986232120686833e7 0.0
2.1986232120686833e7 1.0452632922341822e7 0.0
0.0 0.0 0.0

-8.075213230045717e6 2.092456982045113e7 0.0
2.092456982045113e7 -7.528684410869186e6 0.0
0.0 0.0 0.0

-7.756809957108385e6 1.7863426220540073e7 0.0
1.7863426220540073e7 2.1874476868313152e7 0.0
0.0 0.0 0.0

-3.000922425651266e6 2.3362045941138774e7 0.0
2.3362045941138774e7 1.8330364081866774e6 0.0
0.0 0.0 0.0

9.639721174349517e6 1.7907726564262778e7 0.0
1.7907726564262778e7 3.2132405198926974e7 0.0
0.0 0.0 0.0

-9.889806045857426e6 -987487.0541202286 0.0
-987487.0541202286 1.519766635380052e7 0.0
0.0 0.0 0.0

512721.20976629015 1.903731104976353e7 0.0
1.903731104976353e7 -1.3035109570937196e7 0.0
0.0 0.0 0.0

-2.5882398021707423e6 1.2030195135303944e7 0.0
1.2030195135303944e7 -6.288943986222079e7 0.0
0.0 0.0 0.0

-8.305554727761975e6 3.1697925679231584e7 0.0
3.1697925679231584e7 5.7425629731576685e6 0.0
0.0 0.0 0.0

2.0045692533366424e6 2.4568492742838837e7 0.0
2.4568492742838837e7 -5.994146030618333e6 0.0
0.0 0.0 0.0

2.461899040889276e6 1.938404838042833e7 0.0
1.938404838042833e7 2.103748737435212e6 0.0
0.0 0.0 0.0

-8.723181822756143e6 1.715241869223898e7 0.0
1.715241869223898e7 2.2490569534144655e7 0.0
0.0 0.0 0.0

-1.9138664338480227e7 3.2063991693368092e7 0.0
3.2063991693368092e7 6.923680013820615e6 0.0
0.0 0.0 0.0

662686.7382717784 2.124379729969193e7 0.0
2.124379729969193e7 -9.424024965063205e6 0.0
0.0 0.0 0.0

-3.878518140235612e6 1.564947037236794e7 0.0
1.564947037236794e7 -2.8819513601925895e7 0.0
0.0 0.0 0.0

-1.4399924340790173e7 3.384117263307957e7 0.0
3.384117263307957e7 5.645120159375183e6 0.0
0.0 0.0 0.0

2.9565003158416335e7 2.9297438532558534e7 0.0
2.9297438532558534e7 -1.0119459422826888e7 0.0
0.0 0.0 0.0

1.7976067574819692e6 1.8456580954304054e7 0.0
1.8456580954304054e7 3.345438453631696e6 0.0
0.0 0.0 0.0

2.155727939578239e6 1.1266172267913636e7 0.0
1.1266172267913636e7 -2.1549465934026767e7 0.0
0.0 0.0 0.0

-1.058037480968497e7 1.793007795827815e7 0.0
1.793007795827815e7 -4.1884052360952966e7 0.0
0.0 0.0 0.0

1.3020466087486684e7 2.878853913638385e7 0.0
2.878853913638385e7 -5.973634076452279e6 0.0
0.0 0.0 0.0

-430268.50241319695 1.762911999011734e7 0.0
1.762911999011734e7 -1.340309412245574e7 0.0
0.0 0.0 0.0

-283873.5995465246 2.6799347500036385e7 0.0
2.6799347500036385e7 -2.8195749657200873e6 0.0
0.0 0.0 0.0

-1.376551793025067e6 1.1156756744393857e7 0.0
1.1156756744393857e7 -5.263780432523802e7 0.0
0.0 0.0 0.0

862179.8663469953 1.7938913545982644e7 0.0
1.7938913545982644e7 7.114635045950651e6 0.0
0.0 0.0 0.0

-2.305698183262579e7 2.9374485308294363e7 0.0
2.9374485308294363e7 6.744141867000115e6 0.0
0.0 0.0 0.0

-2.4422960912212553e6 2.378233238199636e7 0.0
2.378233238199636e7 2.4412816175443167e6 0.0
0.0 0.0 0.0

2.0473390403713673e7 1.916799172961415e7 0.0
1.916799172961415e7 7.076575432677017e6 0.0
0.0 0.0 0.0

-3.3357695141154276e6 3.0256296444262438e7 0.0
3.0256296444262438e7 1.5549355046502447e6 0.0
0.0 0.0 0.0

2.519719782416615e6 1.7820358300589025e7 0.0
1.7820358300589025e7 1.1287869255625054e7 0.0
0.0 0.0 0.0

-765350.3803569622 3.301226910203526e6 0.0
3.301226910203526e6 -1.4625392357995554e6 0.0
0.0 0.0 0.0

7.590888972066535e6 3.0645273301992767e7 0.0
3.0645273301992767e7 -4.318174821728475e6 0.0
0.0 0.0 0.0

22204.21961778961 1.7192791675307915e7 0.0
1.7192791675307915e7 -1.8396446454041474e7 0.0
0.0 0.0 0.0

3.0813898923598398e6 3.72016130407092e6 0.0
3.72016130407092e6 -4.429447428969334e7 0.0
0.0 0.0 0.0

-131117.11445175763 1.0781366819516573e7 0.0
1.0781366819516573e7 -6.974566023699506e6 0.0
0.0 0.0 0.0

1.8298883639940745e6 6.43779740829594e6 0.0
6.43779740829594e6 -8.464354014555184e6 0.0
0.0 0.0 0.0

1.1813961135683665e6 1.4057620130498447e7 0.0
1.4057620130498447e7 -1.538730769832056e7 0.0
0.0 0.0 0.0

-2.001443538720213e7 2.768533457605868e7 0.0
2.768533457605868e7 5.726862179301074e6 0.0
0.0 0.0 0.0

-2.559293872145272e6 2.0026453758277524e7 0.0
2.0026453758277524e7 2.9886545877330126e6 0.0
0.0 0.0 0.0

3.812722506571831e6 2.2482589357871883e7 0.0
2.2482589357871883e7 -6.024972464572761e6 0.0
0.0 0.0 0.0

3.4181926221529897e6 5.763561805744062e6 0.0
5.763561805744062e6 -3.489449747590915e7 0.0
0.0 0.0 0.0

-485430.7385602975 1.9376046578308553e7 0.0
1.9376046578308553e7 -8.950155338901227e6 0.0
0.0 0.0 0.0

-103827.37329140212 1.6415390996866154e7 0.0
1.6415390996866154e7 -1.3401274599695971e7 0.0
0.0 0.0 0.0

-1.1131999560370933e7 2.2819856894821852e7 0.0
2.2819856894821852e7 -9.284211576996155e6 0.0
0.0 0.0 0.0

1.1551042566696309e7 2.670964729857361e7 0.0
2.670964729857361e7 -5.918201747711588e6 0.0
0.0 0.0 0.0

-4.689138663216097e6 2.3164204553519752e7 0.0
2.3164204553519752e7 9.803390309936807e6 0.0
0.0 0.0 0.0

2.0609838689494734e6 1.8661166712653045e7 0.0
1.8661166712653045e7 1.1642472277636904e7 0.0
0.0 0.0 0.0

2.5736906361559182e6 1.720099250222497e7 0.0
1.720099250222497e7 6.6940876183332875e7 0.0
0.0 0.0 0.0

-3.868833888354596e6 3.3430582407914788e7 0.0
3.3430582407914788e7 3.4428658211902957e6 0.0
0.0 0.0 0.0

874593.023939834 1.9448995365967266e7 0.0
1.9448995365967266e7 -8.950136388281602e6 0.0
0.0 0.0 0.0

2.5644473032971006e6 1.0192609140455771e7 0.0
1.0192609140455771e7 -2.7832341705200035e7 0.0
0.0 0.0 0.0

2.6651319713618625e6 9.405850354043648e6 0.0
9.405850354043648e6 -2.930183849811181e7 0.0
0.0 0.0 0.0

4.308772697644414e6 3.3520427247524243e6 0.0
3.3520427247524243e6 -2.501914712737883e7 0.0
0.0 0.0 0.0

-3.4882759275531364e6 2.2502754073028743e7 0.0
2.2502754073028743e7 9.51538781669354e6 0.0
0.0 0.0 0.0

3.948208991037518e6 3.603007744167346e6 0.0
3.603007744167346e6 -2.4968448633742478e7 0.0
0.0 0.0 0.0

-1.073090328266005e7 2.0236358822646139e6 0.0
2.0236358822646139e6 3.1664459450106613e7 0.0
0.0 0.0 0.0

-4.222383642666262e6 2.048192612682675e7 0.0
2.048192612682675e7 1.5193250592737608e7 0.0
0.0 0.0 0.0

-1.9026693032948563e6 1.0312735451261891e7 0.0
1.0312735451261891e7 -3.674239708056212e6 0.0
0.0 0.0 0.0

1.2553534691015212e6 2.508214838570342e7 0.0
2.508214838570342e7 -5.519107354346746e6 0.0
0.0 0.0 0.0

4.433627261680609e6 2.7968906025691446e7 0.0
2.7968906025691446e7 -3.8652748350128764e6 0.0
0.0 0.0 0.0

1.1905105189015884e6 1.5233292586652935e7 0.0
1.5233292586652935e7 2.865384148315913e6 0.0
0.0 0.0 0.0

-599208.248310117 1.1258580553761983e7 0.0
1.1258580553761983e7 -4.5279243366173014e7 0.0
0.0 0.0 0.0

3.5751913082862124e6 4.221407915108908e6 0.0
4.221407915108908e6 -3.824011447470227e7 0.0
0.0 0.0 0.0

-4.428655578865467e7 3.462658252962264e7 0.0
3.462658252962264e7 -8.861418053588921e6 0.0
0.0 0.0 0.0

2.0244827578482218e7 2.262155294323278e7 0.0
2.262155294323278e7 1.0014001441690871e7 0.0
0.0 0.0 0.0

3.3849196517103147e6 2.7571708454431344e7 0.0
2.7571708454431344e7 -3.811061873638886e6 0.0
0.0 0.0 0.0

-1.1349898519074898e6 1.8426012595618e7 0.0
1.8426012595618e7 1.6988801256567404e7 0.0
0.0 0.0 0.0

895077.8888012699 1.6727961782833498e7 0.0
1.6727961782833498e7 3.1945528985648933e6 0.0
0.0 0.0 0.0

-1.0418806543464962e7 6.997674630166139e6 0.0
6.997674630166139e6 3.692470746724494e7 0.0
0.0 0.0 0.0

-1.05546027737374e7 2.873899058330459e7 0.0
2.873899058330459e7 5.699216415067716e6 0.0
0.0 0.0 0.0

-1.0300937121402875e6 1.3953585187349474e7 0.0
1.3953585187349474e7 -8.564399419243004e6 0.0
0.0 0.0 0.0

-1.117088517838064e7 627101.2852317101 0.0
627101.2852317101 2.4755708469432186e7 0.0
0.0 0.0 0.0

-1.531084067650579e6 1.1939537802589128e7 0.0
1.1939537802589128e7 8.143994000330442e7 0.0
0.0 0.0 0.0

486447.89634719864 1.9571251092742164e7 0.0
1.9571251092742164e7 -1.2127207378174188e7 0.0
0.0 0.0 0.0

2.618570619967314e6 4.459256295446064e6 0.0
4.459256295446064e6 -8.897683424442803e6 0.0
0.0 0.0 0.0

-7.327862988394316e6 8.15418361867215e6 0.0
8.15418361867215e6 5.334715899794549e7 0.0
0.0 0.0 0.0

3.9531956160700377e6 3.486693581403642e6 0.0
3.486693581403642e6 -3.146218279035853e7 0.0
0.0 0.0 0.0

-5.878702393895885e6 2.054470704247339e7 0.0
2.054470704247339e7 -1.059583873440789e7 0.0
0.0 0.0 0.0

-1.8682395601785e7 2.4708461493161015e7 0.0
2.4708461493161015e7 -9.712848120782495e6 0.0
0.0 0.0 0.0

2125.909860353917 1.7792728443628665e7 0.0
1.7792728443628665e7 -1.554101227540997e7 0.0
0.0 0.0 0.0

-3.5194433070314033e6 1.1021944083337428e7 0.0
1.1021944083337428e7 4.437182584061826e6 0.0
0.0 0.0 0.0

-4.526444603054209e6 2.0882741725855526e7 0.0
2.0882741725855526e7 812283.209052773 0.0
0.0 0.0 0.0

1.4915655450886816e7 2.5821713452653915e7 0.0
2.5821713452653915e7 -5.854816241760835e6 0.0
0.0 0.0 0.0

-7.294588331630237e6 -4.235684453598368e6 0.0
-4.235684453598368e6 1.4899849730413621e7 0.0
0.0 0.0 0.0

9.175111230675783e6 1.9261146637815654e7 0.0
1.9261146637815654e7 5.511893384796707e6 0.0
0.0 0.0 0.0

1.3921448269177537e7 3.3282528289668817e7 0.0
3.3282528289668817e7 -8.238017812375678e6 0.0
0.0 0.0 0.0

4.144773566231385e6 3.5496820971402484e6 0.0
3.5496820971402484e6 -2.7970317960982405e7 0.0
0.0 0.0 0.0

-4.0824747457545027e6 1.772011656017829e7 0.0
1.772011656017829e7 3.730741941292553e6 0.0
0.0 0.0 0.0

9.056152298813889e6 1.919674480175116e7 0.0
1.919674480175116e7 3.679706858268907e7 0.0
0.0 0.0 0.0

5.24080233899956e7 6.708597434470252e6 0.0
6.708597434470252e6 -1.1879689936346002e6 0.0
0.0 0.0 0.0

-2.4729592639211807e7 2.6695234522847913e7 0.0
2.6695234522847913e7 -8.439204027150286e6 0.0
0.0 0.0 0.0

-3.15791074189402e6 2.3013823050524514e7 0.0
2.3013823050524514e7 2.710770135841836e6 0.0
0.0 0.0 0.0

-188457.5826178789 1.1454746354643721e7 0.0
1.1454746354643721e7 -3.963601272024363e7 0.0
0.0 0.0 0.0

-1.506523825859206e7 2.7252116393335853e7 0.0
2.7252116393335853e7 5.653793043146653e6 0.0
0.0 0.0 0.0

7.677748156848491e6 1.970488102262541e7 0.0
1.970488102262541e7 7.404602644711563e6 0.0
0.0 0.0 0.0

-4.647063401288405e6 7.869404579411997e6 0.0
7.869404579411997e6 6.506024787487666e7 0.0
0.0 0.0 0.0

-4.6830128495688485e6 2.1737185652855974e7 0.0
2.1737185652855974e7 1.0558307370658895e7 0.0
0.0 0.0 0.0

2.691683328399606e6 1.7007245999605607e7 0.0
1.7007245999605607e7 1.4419018755939515e7 0.0
0.0 0.0 0.0

-903850.0801231144 1.795634441238903e7 0.0
1.795634441238903e7 -1.0154834330073297e7 0.0
0.0 0.0 0.0

6.4364020244762e6 2.056940593729973e7 0.0
2.056940593729973e7 -2.0044116709894193e6 0.0
0.0 0.0 0.0

1.7474482629256337e6 1.9997194095016163e7 0.0
1.9997194095016163e7 -6.489512727011915e6 0.0
0.0 0.0 0.0

-2.7802718681157683e6 1.378948953380388e7 0.0
1.378948953380388e7 -3.049247839814175e6 0.0
0.0 0.0 0.0

745852.339324981 1.824503647035221e7 0.0
1.824503647035221e7 1.928517403806805e7 0.0
0.0 0.0 0.0

792760.7482929569 1.7560347236988693e7 0.0
1.7560347236988693e7 2.2490775534763034e6 0.0
0.0 0.0 0.0

186425.04363700026 1.7101010937654495e7 0.0
1.7101010937654495e7 -3.3788356331233275e6 0.0
0.0 0.0 0.0

-4.0586049490997195e6 1.5865680728588266e7 0.0
1.5865680728588266e7 -2.5358846802873608e7 0.0
0.0 0.0 0.0

-2.897654509086216e6 2.5448115980737597e7 0.0
2.5448115980737597e7 4.270763323535123e6 0.0
0.0 0.0 0.0

-1.651232684338244e7 2.342620261099399e7 0.0
2.342620261099399e7 -9.3386415152324e6 0.0
0.0 0.0 0.0

-8.673445249929685e6 2.948035929257152e7 0.0
2.948035929257152e7 5.072278959069004e6 0.0
0.0 0.0 0.0

-1.530860416735868e6 1.9094250292917483e7 0.0
1.9094250292917483e7 1.2454828391619531e7 0.0
0.0 0.0 0.0

3.636055019693667e6 6.255868500613723e6 0.0
6.255868500613723e6 -2.8185194643829934e7 0.0
0.0 0.0 0.0

299185.2304635588 1.9051994168927982e7 0.0
1.9051994168927982e7 -1.3001070148795692e7 0.0
0.0 0.0 0.0

1.2055615115593078e7 2.6545105270390607e7 0.0
2.6545105270390607e7 -5.666288065520122e6 0.0
0.0 0.0 0.0

-1.0737712635434037e7 932258.1263645298 0.0
932258.1263645298 2.908750094785635e7 0.0
0.0 0.0 0.0

-4.1381436043186006e6 2.101729496324751e7 0.0
2.101729496324751e7 7.437555417496895e6 0.0
0.0 0.0 0.0

1.2303245779914905e6 1.9198556174191553e7 0.0
1.9198556174191553e7 1.762633693979427e6 0.0
0.0 0.0 0.0

6.9121477647274e6 2.150869252802659e7 0.0
2.150869252802659e7 -3.612107609257599e6 0.0
0.0 0.0 0.0

-1.147238962067658e7 6.961187884160993e6 0.0
6.961187884160993e6 2.752147758126641e7 0.0
0.0 0.0 0.0

4.49064956667257e6 1.672997404757942e7 0.0
1.672997404757942e7 1.948094715056577e7 0.0
0.0 0.0 0.0

-7.446109847423593e6 2.027141152639962e7 0.0
2.027141152639962e7 -9.669587519795796e6 0.0
0.0 0.0 0.0

6868.2514872495085 1.5621263131897464e7 0.0
1.5621263131897464e7 -2.340442164519506e7 0.0
0.0 0.0 0.0

6.648589095939414e6 3.2451586987107538e7 0.0
3.2451586987107538e7 -3.425936633784914e6 0.0
0.0 0.0 0.0

-8.295276713798172e6 3.046092407051473e7 0.0
3.046092407051473e7 4.49118479719582e6 0.0
0.0 0.0 0.0

-1.1770259583500171e7 7.975673415353204e6 0.0
7.975673415353204e6 2.404394264613591e7 0.0
0.0 0.0 0.0

-6.9665082820896935e6 2.1577619455096245e7 0.0
2.1577619455096245e7 -5.740093931511644e6 0.0
0.0 0.0 0.0

-6.217981335018532e6 3.0703461943666924e7 0.0
3.0703461943666924e7 3.504848270719835e6 0.0
0.0 0.0 0.0

-6.827229984625736e6 2.9884871755536802e7 0.0
2.9884871755536802e7 4.1913127242577733e6 0.0
0.0 0.0 0.0

2.713261440429879e6 1.6210447824521799e7 0.0
1.6210447824521799e7 1.1929721212991048e7 0.0
0.0 0.0 0.0

2.103543680314147e6 1.261328081711875e7 0.0
1.261328081711875e7 -1.9577692922756545e7 0.0
0.0 0.0 0.0

4.6275066476341516e7 2.9407739148885384e7 0.0
2.9407739148885384e7 1.8844130302664783e7 0.0
0.0 0.0 0.0

-3.528196310374278e7 2.3518659053812474e6 0.0
2.3518659053812474e6 7.79487566373739e6 0.0
0.0 0.0 0.0

-1.6700232115018843e7 2.654247270338584e7 0.0
2.654247270338584e7 4.509232991121785e6 0.0
0.0 0.0 0.0

3.5375547391550057e6 3.3252486199959205e6 0.0
3.3252486199959205e6 -3.136345518589675e7 0.0
0.0 0.0 0.0

-495179.3877804624 1.8831997004265007e7 0.0
1.8831997004265007e7 -1.154969972782778e7 0.0
0.0 0.0 0.0

-1.2401447681749908e7 2.7584183828398917e7 0.0
2.7584183828398917e7 5.976184168426341e6 0.0
0.0 0.0 0.0

-1.1370911612468813e7 4.50236610370182e6 0.0
4.50236610370182e6 3.05136595311715e7 0.0
0.0 0.0 0.0

2.1564597191852443e6 9.963981821459722e6 0.0
9.963981821459722e6 -2.6160804237575714e7 0.0
0.0 0.0 0.0

-5.349740696524031e6 1.5409839790627336e7 0.0
1.5409839790627336e7 -2.0599574724507492e7 0.0
0.0 0.0 0.0

7.784418776970327e6 2.0620923534969024e7 0.0
2.0620923534969024e7 7.453504859925574e6 0.0
0.0 0.0 0.0

-3.372779247090752e7 2.8501529630181544e7 0.0
2.8501529630181544e7 -6.021506736559639e6 0.0
0.0 0.0 0.0

-3.9657121395877227e6 1.2070328726817643e7 0.0
1.2070328726817643e7 739053.7438127038 0.0
0.0 0.0 0.0

-9.409930491566373e6 2.6593683031097196e7 0.0
2.6593683031097196e7 6.079427707945071e6 0.0
0.0 0.0 0.0

-2.448686052196339e6 2.6306795377801128e7 0.0
2.6306795377801128e7 2.817590163816979e6 0.0
0.0 0.0 0.0

-8.220561895243941e6 5.531553255294009e6 0.0
5.531553255294009e6 1.7809252191620555e7 0.0
0.0 0.0 0.0

-8.319146776230814e6 -1.505913380678719e6 0.0
-1.505913380678719e6 1.5848485284957983e7 0.0
0.0 0.0 0.0

1.387330593325357e6 1.2962094661408361e7 0.0
1.2962094661408361e7 -2.0140907633178834e7 0.0
0.0 0.0 0.0

-1.075737645553195e7 3.230445090729263e6 0.0
3.230445090729263e6 3.0556792086296413e7 0.0
0.0 0.0 0.0

518631.1664299853 1.6019075058274912e7 0.0
1.6019075058274912e7 -1.8489603096113387e7 0.0
0.0 0.0 0.0

6.648040173210273e6 1.9425236370010734e7 0.0
1.9425236370010734e7 -647783.8102928866 0.0
0.0 0.0 0.0

1.0027632468274282e6 8.992654123841498e6 0.0
8.992654123841498e6 -1.1084469863715028e7 0.0
0.0 0.0 0.0

-1.75865318555929e7 2.650149302240104e7 0.0
2.650149302240104e7 4.547912672452201e6 0.0
0.0 0.0 0.0

-9.808942862667028e6 2.2973174806501657e7 0.0
2.2973174806501657e7 -9.399549300791588e6 0.0
0.0 0.0 0.0

485889.2758268922 1.6016272687264102e7 0.0
1.6016272687264102e7 1.6196317750390298e6 0.0
0.0 0.0 0.0

-436963.82452968287 1.6379299680777915e7 0.0
1.6379299680777915e7 -1.4565467061700728e6 0.0
0.0 0.0 0.0

1.8925606876421487e6 1.3245908476810876e7 0.0
1.3245908476810876e7 -1.8537300308945276e7 0.0
0.0 0.0 0.0

-4.910718130711602e6 1.6016888836880576e7 0.0
1.6016888836880576e7 -2.0214319028370522e7 0.0
0.0 0.0 0.0

-1.1006153229779359e7 -145451.90519556217 0.0
-145451.90519556217 2.2032600000937417e7 0.0
0.0 0.0 0.0

-4.174709690949103e6 1.3260225966012642e7 0.0
1.3260225966012642e7 6.400220099150218e6 0.0
0.0 0.0 0.0

735067.4097644985 2.0959476183224943e7 0.0
2.0959476183224943e7 -9.645151141961636e6 0.0
0.0 0.0 0.0

2.9649866639039945e6 7.114668211827388e6 0.0
7.114668211827388e6 -2.014224626641825e7 0.0
0.0 0.0 0.0

-3.707518509773796e7 2.5027004422597267e7 0.0
2.5027004422597267e7 -3.135346853485329e6 0.0
0.0 0.0 0.0

5.011313125587329e6 2.0359149491930027e7 0.0
2.0359149491930027e7 -2.1833746264552297e6 0.0
0.0 0.0 0.0

2.0274609589482557e7 1.8926883118895825e7 0.0
1.8926883118895825e7 2.5875792472816794e6 0.0
0.0 0.0 0.0

-9.055033489340499e6 3.384932110570185e7 0.0
3.384932110570185e7 5.699356965285567e6 0.0
0.0 0.0 0.0

-1.0652014457637742e7 2.8385732349105934e6 0.0
2.8385732349105934e6 1.9623940972715862e7 0.0
0.0 0.0 0.0

-386777.4934518542 1.6983568460425194e7 0.0
1.6983568460425194e7 -1.2315772189760573e7 0.0
0.0 0.0 0.0

-8.620674586446775e6 2.1440001588693228e7 0.0
2.1440001588693228e7 -5.240226542596782e6 0.0
0.0 0.0 0.0

-1.8901575671346728e7 2.973978177986031e7 0.0
2.973978177986031e7 6.349688364911642e6 0.0
0.0 0.0 0.0

-6.179787528950089e6 1.6723907154159805e7 0.0
1.6723907154159805e7 -3.1864761567758348e7 0.0
0.0 0.0 0.0

1.4512622494072004e6 1.741157385042287e7 0.0
1.741157385042287e7 7.92711922401181e6 0.0
0.0 0.0 0.0

-3.963340861161848e6 1.5858634772929624e7 0.0
1.5858634772929624e7 -2.2183117578259442e7 0.0
0.0 0.0 0.0

-1.3824407216278316e7 3.229712733430153e7 0.0
3.229712733430153e7 6.56597428276519e6 0.0
0.0 0.0 0.0

180467.55242105247 2.3290547256710496e7 0.0
2.3290547256710496e7 -6.920013533477265e6 0.0
0.0 0.0 0.0

-6.406124133402868e6 2.175503422690093e7 0.0
2.175503422690093e7 -568572.3652780384 0.0
0.0 0.0 0.0

2.215187003415903e6 1.088608351758002e7 0.0
1.088608351758002e7 -2.8292003351327114e7 0.0
0.0 0.0 0.0

-1.0532288669426844e7 6.925416260293902e6 0.0
6.925416260293902e6 3.4761150424291015e7 0.0
0.0 0.0 0.0

-1.4896489966806665e6 1.7051575401041348e7 0.0
1.7051575401041348e7 -8.316967083188969e6 0.0
0.0 0.0 0.0

6.985220955510304e6 2.0295056887218326e7 0.0
2.0295056887218326e7 -2.354796217582689e6 0.0
0.0 0.0 0.0

-5.138477751453372e6 1.6777109786668459e7 0.0
1.6777109786668459e7 -2.6785277614159048e7 0.0
0.0 0.0 0.0

-1.0173384294630721e7 2.6432475112120297e7 0.0
2.6432475112120297e7 5.812559386539941e6 0.0
0.0 0.0 0.0

2.2411673697638866e7 3.1377367280019466e7 0.0
3.1377367280019466e7 -8.059915364197999e6 0.0
0.0 0.0 0.0

-5.810305567685176e6 2.1279973628520068e7 0.0
2.1279973628520068e7 -3.9778078812477314e6 0.0
0.0 0.0 0.0

-1.0525166721770851e7 2.761337763789109e7 0.0
2.761337763789109e7 5.827112817810666e6 0.0
0.0 0.0 0.0

-7.735590564178433e6 1.8006647122282475e7 0.0
1.8006647122282475e7 1.8595016717223607e7 0.0
0.0 0.0 0.0

2.6181479649775443e6 1.9365114004987627e7 0.0
1.9365114004987627e7 -5.397189872598839e6 0.0
0.0 0.0 0.0

-3.3347244754581647e6 2.554703163363184e7 0.0
2.554703163363184e7 5.042317937995311e6 0.0
0.0 0.0 0.0

-4.94917034752355e6 1.575349500578509e7 0.0
1.575349500578509e7 -3.051747092839559e7 0.0
0.0 0.0 0.0

3.4116923729711287e6 5.004911601836445e6 0.0
5.004911601836445e6 -2.694424385195637e7 0.0
0.0 0.0 0.0

-5.102783131476382e6 1.6794293931269076e7 0.0
1.6794293931269076e7 -2.360059437347474e7 0.0
0.0 0.0 0.0

-4.333100206309872e6 2.8069923533478547e7 0.0
2.8069923533478547e7 3.41154683335398e6 0.0
0.0 0.0 0.0

-2.9161381734289145e6 1.758067500250529e7 0.0
1.758067500250529e7 -9.720460567551577e6 0.0
0.0 0.0 0.0

2.5100529090198292e6 1.752959974628936e7 0.0
1.752959974628936e7 8.366843545284458e6 0.0
0.0 0.0 0.0

-9.45332421676996e6 1.599463437123444e7 0.0
1.599463437123444e7 2.570918328332315e7 0.0
0.0 0.0 0.0

-1.6065853088567061e6 1.3331750746161124e7 0.0
1.3331750746161124e7 -2.3272747318214644e6 0.0
0.0 0.0 0.0

1.0061383151932422e7 1.7159259469305046e7 0.0
1.7159259469305046e7 3.9720502933881804e7 0.0
0.0 0.0 0.0

-1.0415005310036577e7 1.9965708187207854e6 0.0
1.9965708187207854e6 3.435868899850326e7 0.0
0.0 0.0 0.0

3.0534639311771e6 4.359092105281955e6 0.0
4.359092105281955e6 -3.79448095267006e7 0.0
0.0 0.0 0.0

-3.2302249305628752e6 1.6796256015829306e7 0.0
1.6796256015829306e7 -2.436786216846773e7 0.0
0.0 0.0 0.0

-8.913751523359451e6 2.7671608145013325e7 0.0
2.7671608145013325e7 5.7263443303189e6 0.0
0.0 0.0 0.0

2.506499125439488e7 1.3194013496285746e7 0.0
1.3194013496285746e7 593672.7021371899 0.0
0.0 0.0 0.0

-1.205654932754086e7 5.424708903475051e6 0.0
5.424708903475051e6 2.5724413707409084e7 0.0
0.0 0.0 0.0

-2.0961604240950946e7 2.792490752905074e7 0.0
2.792490752905074e7 -9.815680761922434e6 0.0
0.0 0.0 0.0

-3.777871410326033e6 2.0491005813265353e7 0.0
2.0491005813265353e7 7.700959251635021e6 0.0
0.0 0.0 0.0

-1.8607714125866473e7 3.2229232874294706e7 0.0
3.2229232874294706e7 7.174244970440605e6 0.0
0.0 0.0 0.0

2.830021028622208e6 4.834447279015343e6 0.0
4.834447279015343e6 -3.91603292915961e7 0.0
0.0 0.0 0.0

4.336098877527086e6 2.6946355684224907e7 0.0
2.6946355684224907e7 -4.498286302502019e6 0.0
0.0 0.0 0.0

-5.950720673171692e6 1.2157875686020177e7 0.0
1.2157875686020177e7 4.84560041168614e7 0.0
0.0 0.0 0.0

-3.572267755753781e6 2.4780733221205458e7 0.0
2.4780733221205458e7 7.010930931243053e6 0.0
0.0 0.0 0.0

-1.4026042131921016e6 1.6427697405943707e7 0.0
1.6427697405943707e7 -5.931997357876778e6 0.0
0.0 0.0 0.0

-6.024455141135311e6 2.165699514391676e6 0.0
2.165699514391676e6 9.708108098867945e6 0.0
0.0 0.0 0.0

3.639876281853261e6 1.8169979034651916e7 0.0
1.8169979034651916e7 1.3291418188101446e7 0.0
0.0 0.0 0.0

-4.611997253531339e6 2.1447456678428937e7 0.0
2.1447456678428937e7 9.20799486461728e6 0.0
0.0 0.0 0.0

1.6281325195620293e6 9.710396164365582e6 0.0
9.710396164365582e6 -9.975508106046878e6 0.0
0.0 0.0 0.0

-2.9496092846184876e6 1.9612312883829504e7 0.0
1.9612312883829504e7 855277.9804860593 0.0
0.0 0.0 0.0

5.650091662699348e6 1.994524627512285e7 0.0
1.994524627512285e7 -2.787104645222988e6 0.0
0.0 0.0 0.0

-2.4270317132276217e6 1.3364425201233815e7 0.0
1.3364425201233815e7 419631.3204912442 0.0
0.0 0.0 0.0

-3.00774937868191e6 1.5561722825389585e7 0.0
1.5561722825389585e7 -2.720116114667299e7 0.0
0.0 0.0 0.0

-4.823368063776933e6 1.667204458506817e7 0.0
1.667204458506817e7 6.436780734729678e6 0.0
0.0 0.0 0.0

-7.316578403146067e6 1.8070797189213783e7 0.0
1.8070797189213783e7 2.1830980762212865e7 0.0
0.0 0.0 0.0

-1.0159222740517538e7 -226681.4059539029 0.0
-226681.4059539029 2.4965605344239574e7 0.0
0.0 0.0 0.0

-1.0850972894748105e7 2.182816838724016e7 0.0
2.182816838724016e7 281238.5486280252 0.0
0.0 0.0 0.0

-6.643811343427797e6 2.6108957589874897e7 0.0
2.6108957589874897e7 6.478014240656442e6 0.0
0.0 0.0 0.0

9.032311602982437e6 2.714949037044385e7 0.0
2.714949037044385e7 -5.523441771947544e6 0.0
0.0 0.0 0.0

-1.1663224345061274e7 5.043173842902661e6 0.0
5.043173842902661e6 2.7997200535347816e7 0.0
0.0 0.0 0.0

-3.9522080146449963e6 1.6345451118427377e7 0.0
1.6345451118427377e7 -2.8370719430560917e7 0.0
0.0 0.0 0.0

-4.383090850986897e6 2.5930649789737903e7 0.0
2.5930649789737903e7 6.335418787759011e6 0.0
0.0 0.0 0.0

479594.7974191555 1.800684945309203e7 0.0
1.800684945309203e7 -7.513237493550056e6 0.0
0.0 0.0 0.0

-1.525408908135458e6 1.4537700218817187e7 0.0
1.4537700218817187e7 -7.338391651014591e6 0.0
0.0 0.0 0.0

-9.74539939149725e6 805230.5354874243 0.0
805230.5354874243 1.73898691350303e7 0.0
0.0 0.0 0.0

-8.543027300550072e6 2.870590486306348e7 0.0
2.870590486306348e7 5.714604891837387e6 0.0
0.0 0.0 0.0

-2.1693319461093615e6 2.1685026779085744e7 0.0
2.1685026779085744e7 -439619.193456296 0.0
0.0 0.0 0.0

2.886112586907166e6 1.923383609045917e7 0.0
1.923383609045917e7 1.2643878647044376e7 0.0
0.0 0.0 0.0

-1.2460087115916382e6 2.9501673673288245e6 0.0
2.9501673673288245e6 2.4560965659669787e6 0.0
0.0 0.0 0.0

3.3749305333527797e6 1.918745261563231e7 0.0
1.918745261563231e7 4.0574917045239774e6 0.0
0.0 0.0 0.0

302939.12987850234 8.775388818168996e6 0.0
8.775388818168996e6 -5.168540162082998e7 0.0
0.0 0.0 0.0

4.6614557258000495e6 3.060555822086095e7 0.0
3.060555822086095e7 -4.302291287488366e6 0.0
0.0 0.0 0.0

-5.105727313563224e6 2.2420179445820406e7 0.0
2.2420179445820406e7 9.986883058270084e6 0.0
0.0 0.0 0.0

-1.008985263227944e7 8.888178764077691e6 0.0
8.888178764077691e6 1.2605857725401819e7 0.0
0.0 0.0 0.0

-1.0521951731259925e6 1.8979812556438964e7 0.0
1.8979812556438964e7 -2.9572314492002195e6 0.0
0.0 0.0 0.0

42563.92514701001 1.0774588410600245e7 0.0
1.0774588410600245e7 -4.805822733503241e7 0.0
0.0 0.0 0.0

-572555.2565648695 1.61417021788267e7 0.0
1.61417021788267e7 -2.1166638369307566e7 0.0
0.0 0.0 0.0

-8.691622892805217e6 3.170437405667097e7 0.0
3.170437405667097e7 4.1682210136549864e6 0.0
0.0 0.0 0.0

-2.2716859434954575e6 1.730554461069706e7 0.0
1.730554461069706e7 -7.572287373777246e6 0.0
0.0 0.0 0.0

-4.273928756822778e6 2.0904988879142974e7 0.0
2.0904988879142974e7 -1.0551325985132797e7 0.0
0.0 0.0 0.0

-2.8751210175319444e6 2.250266794932389e7 0.0
2.250266794932389e7 5.221961103209166e6 0.0
0.0 0.0 0.0

467177.0867674025 1.7023423877699725e7 0.0
1.7023423877699725e7 -1.243557240518865e7 0.0
0.0 0.0 0.0

6.005930160423093e6 2.043736802520598e7 0.0
2.043736802520598e7 6.213814044864991e6 0.0
0.0 0.0 0.0

-7.299501778228698e6 2.177346798241214e7 0.0
2.177346798241214e7 -1.0031892318595465e7 0.0
0.0 0.0 0.0

-2.203407035914579e6 1.990948845169787e7 0.0
1.990948845169787e7 5.341451288076642e6 0.0
0.0 0.0 0.0

-6.676680879227467e6 8.660628818560334e6 0.0
8.660628818560334e6 5.412865927296921e7 0.0
0.0 0.0 0.0

-474369.81863845536 1.4145156158744719e7 0.0
1.4145156158744719e7 -6.722464435534469e6 0.0
0.0 0.0 0.0

-6.120222488150187e6 1.4796001789241998e7 0.0
1.4796001789241998e7 -2.1762775926250953e7 0.0
0.0 0.0 0.0

299397.0475441618 1.857345040971139e7 0.0
1.857345040971139e7 -1.424161717346542e7 0.0
0.0 0.0 0.0

-5.010065214298078e6 1.8953487089251548e7 0.0
1.8953487089251548e7 -1.3314285149448894e7 0.0
0.0 0.0 0.0

-3.8946963603378334e6 2.09710907109432e7 0.0
2.09710907109432e7 9.564796546957243e6 0.0
0.0 0.0 0.0

424659.0461686299 1.6125071459060604e7 0.0
1.6125071459060604e7 1.4155302328461679e6 0.0
0.0 0.0 0.0

-2.7923842167587187e6 2.6532390794810023e7 0.0
2.6532390794810023e7 3.6364449007912017e6 0.0
0.0 0.0 0.0

-2.976669187265397e6 2.0249311096613176e7 0.0
2.0249311096613176e7 681787.5263027349 0.0
0.0 0.0 0.0

-7.937658064666677e6 2.252152933268209e6 0.0
2.252152933268209e6 5.312985876205416e7 0.0
0.0 0.0 0.0

-1.2630616884290753e7 9.06674967280375e6 0.0
9.06674967280375e6 2.188917591048838e7 0.0
0.0 0.0 0.0

1.0713590752758859e6 1.8410017747630943e7 0.0
1.8410017747630943e7 -6.670669512464638e6 0.0
0.0 0.0 0.0

-2.3289178898018725e7 2.6335370046056155e7 0.0
2.6335370046056155e7 3.575967325902763e6 0.0
0.0 0.0 0.0

-1.1119410575363416e7 1.115170233242283e6 0.0
1.115170233242283e6 1.7113150881416254e7 0.0
0.0 0.0 0.0

-9.145157009951547e6 6.910941569578644e6 0.0
6.910941569578644e6 4.370606167365216e7 0.0
0.0 0.0 0.0

-2.4075095835443423e6 768755.33108417 0.0
768755.33108417 4.319378890846973e6 0.0
0.0 0.0 0.0

-5.039577167496588e6 4.517179762504655e6 0.0
4.517179762504655e6 487633.86433504126 0.0
0.0 0.0 0.0

1.849617937897319e6 1.1463387404220367e7 0.0
1.1463387404220367e7 -2.027782222610599e7 0.0
0.0 0.0 0.0

-2.7881902118992023e6 2.2013509996361326e7 0.0
2.2013509996361326e7 -1.0124710736104534e6 0.0
0.0 0.0 0.0

-6.003349098609468e6 1.8897435926295385e7 0.0
1.8897435926295385e7 -1.2475914236259213e7 0.0
0.0 0.0 0.0

-3.806167629369092e6 2.06974762293907e7 0.0
2.06974762293907e7 1.2637152378865585e7 0.0
0.0 0.0 0.0

-3.2427404141999693e6 1.6011399793064846e7 0.0
1.6011399793064846e7 -2.0746076170506723e7 0.0
0.0 0.0 0.0

1.4867151864853138e6 1.876106654034164e7 0.0
1.876106654034164e7 1.1442569599653786e7 0.0
0.0 0.0 0.0

-8.742000494158408e6 1.5421154851404406e7 0.0
1.5421154851404406e7 -3.18171916394724e7 0.0
0.0 0.0 0.0

-3.7428380877674967e6 2.014931197965487e7 0.0
2.014931197965487e7 3.257229920604355e6 0.0
0.0 0.0 0.0

-1.5751107192022316e6 1.1305152497620115e7 0.0
1.1305152497620115e7 -5.690147554779732e7 0.0
0.0 0.0 0.0

369455.2185889818 1.1204584418985195e7 0.0
1.1204584418985195e7 -4.202355090315739e7 0.0
0.0 0.0 0.0

-3.190827100258847e6 2.0126941219806228e7 0.0
2.0126941219806228e7 -9.990392667627614e6 0.0
0.0 0.0 0.0

-1.2891745233123753e7 2.413993129924253e7 0.0
2.413993129924253e7 -9.036907651295973e6 0.0
0.0 0.0 0.0

-1.1321613375076743e7 2.645169253100835e7 0.0
2.645169253100835e7 5.848573060168645e6 0.0
0.0 0.0 0.0

-5.20437452414694e6 1.3849654170148678e7 0.0
1.3849654170148678e7 5.370006358188387e6 0.0
0.0 0.0 0.0

-2.68330359936643e6 5.957601928674016e6 0.0
5.957601928674016e6 7.098117099728259e6 0.0
0.0 0.0 0.0

279586.4821977846 1.760938962348678e7 0.0
1.760938962348678e7 -6.021293780295222e6 0.0
0.0 0.0 0.0

8.0495246611464005e6 2.0969178818447385e7 0.0
2.0969178818447385e7 -2.2334658231344307e6 0.0
0.0 0.0 0.0

-5.035156582633089e6 1.2757996815105343e7 0.0
1.2757996815105343e7 4.929941751533626e7 0.0
0.0 0.0 0.0

-1.6791768321032552e6 1.9538252031602487e7 0.0
1.9538252031602487e7 1.007752877554649e7 0.0
0.0 0.0 0.0

-6.665699463437196e6 2.6165358417300113e7 0.0
2.6165358417300113e7 6.581154543910185e6 0.0
0.0 0.0 0.0

-3.496158971066852e6 1.6062860372047663e7 0.0
1.6062860372047663e7 -1.3121254406711873e7 0.0
0.0 0.0 0.0

-8.720396124129344e6 1.0132195426708506e7 0.0
1.0132195426708506e7 4.072185948495444e7 0.0
0.0 0.0 0.0

-2.0971856276475703e6 1.9253102795724045e7 0.0
1.9253102795724045e7 5.68012557823254e6 0.0
0.0 0.0 0.0

82952.12391624041 1.848509279760825e7 0.0
1.848509279760825e7 -1.4103208996414779e7 0.0
0.0 0.0 0.0

-530908.7461403273 1.510714141813738e7 0.0
1.510714141813738e7 -2.4823462417166516e7 0.0
0.0 0.0 0.0

761692.4780521393 1.0101937476607885e7 0.0
1.0101937476607885e7 -4.0118914804682426e7 0.0
0.0 0.0 0.0

1.2656598083313052e6 1.0873426808329182e7 0.0
1.0873426808329182e7 -3.2354452429813102e7 0.0
0.0 0.0 0.0

-8.793648221839037e6 1.764758858849666e7 0.0
1.764758858849666e7 -4.5334876280621335e7 0.0
0.0 0.0 0.0

-3.0879498744307267e6 2.6039257117105387e7 0.0
2.6039257117105387e7 4.3339013789782915e6 0.0
0.0 0.0 0.0

-4.552756985022483e6 2.0835191861775164e7 0.0
2.0835191861775164e7 -1.0415072649212055e7 0.0
0.0 0.0 0.0

-1.0020876329889321e6 1.8206392644031033e7 0.0
1.8206392644031033e7 -1.195346245166831e7 0.0
0.0 0.0 0.0

1.8473385293930657e7 2.0961212295937534e7 0.0
2.0961212295937534e7 -1.314913152972347e6 0.0
0.0 0.0 0.0

-8.2413833204798065e6 4.884009582053505e6 0.0
4.884009582053505e6 4.7613851102616936e7 0.0
0.0 0.0 0.0

-948715.4297975972 1.116771976359584e7 0.0
1.116771976359584e7 -4.865879148454989e7 0.0
0.0 0.0 0.0

1.605165038325252e6 1.116097754709016e7 0.0
1.116097754709016e7 -3.214548307453355e7 0.0
0.0 0.0 0.0

-5.348352791906871e6 8.644060437313233e6 0.0
8.644060437313233e6 5.972571134009252e7 0.0
0.0 0.0 0.0

1.6773460350435577e7 2.130598710412948e7 0.0
2.130598710412948e7 1.0433138610571824e7 0.0
0.0 0.0 0.0

-8.151249127930356e6 8.076668699300015e6 0.0
8.076668699300015e6 4.510772867628532e7 0.0
0.0 0.0 0.0

-5.607891123359715e6 -139692.82397296678 0.0
-139692.82397296678 6.366810210947467e6 0.0
0.0 0.0 0.0

-3.377470664451733e6 2.7222747846794464e7 0.0
2.7222747846794464e7 2.4687233537466917e6 0.0
0.0 0.0 0.0

2.0480585742240865e6 1.0620315517692614e7 0.0
1.0620315517692614e7 -2.488842455776861e7 0.0
0.0 0.0 0.0

-6.481147825882837e6 2.9347762411139842e7 0.0
2.9347762411139842e7 5.339718441887513e6 0.0
0.0 0.0 0.0

-8.41189779719376e6 1.2717977401275797e7 0.0
1.2717977401275797e7 3.630869316482626e7 0.0
0.0 0.0 0.0

-1.2608095100074006e7 6.975752057983873e6 0.0
6.975752057983873e6 2.0343197741143297e7 0.0
0.0 0.0 0.0

5.578453530625887e6 2.7176726692316245e7 0.0
2.7176726692316245e7 -4.744845748102386e6 0.0
0.0 0.0 0.0

-4.251212946993217e6 2.1285839365721986e7 0.0
2.1285839365721986e7 1.2271519159685401e7 0.0
0.0 0.0 0.0

926876.9459774182 2.364072867967788e7 0.0
2.364072867967788e7 -6.359429396567591e6 0.0
0.0 0.0 0.0

-6.311736462011002e6 2.3819316933713622e7 0.0
2.3819316933713622e7 7.079632547000364e6 0.0
0.0 0.0 0.0

-2.98168897525862e6 1.6960202983851857e7 0.0
1.6960202983851857e7 -2.209516870341544e7 0.0
0.0 0.0 0.0

3.534270910679987e6 2.111323350221865e7 0.0
2.111323350221865e7 -6.622855229291482e6 0.0
0.0 0.0 0.0

6.06589691556919e6 1.7740187755809225e7 0.0
1.7740187755809225e7 3.795693580487925e7 0.0
0.0 0.0 0.0

-5.779773697888861e6 4.517182818902242e6 0.0
4.517182818902242e6 1.5715669621515328e7 0.0
0.0 0.0 0.0

-3.0280277784154573e6 8.051309256241355e6 0.0
8.051309256241355e6 -5.124883864529691e6 0.0
0.0 0.0 0.0

-3.980368958879032e6 1.819610866152486e7 0.0
1.819610866152486e7 -1.3267896337592952e7 0.0
0.0 0.0 0.0

3.7689169221899887e6 1.8582457004082985e7 0.0
1.8582457004082985e7 1.2563056712453451e7 0.0
0.0 0.0 0.0

6.000426000801593e6 3.1237844841810755e7 0.0
3.1237844841810755e7 -5.2347479679009e6 0.0
0.0 0.0 0.0

3.8042379625251945e6 5.227755497197397e6 0.0
5.227755497197397e6 -1.5482288904395793e7 0.0
0.0 0.0 0.0

-4.1401145741096614e6 3.0453031715664413e7 0.0
3.0453031715664413e7 3.846530037444994e6 0.0
0.0 0.0 0.0

-3.797669367965091e7 1.3666721658748703e7 0.0
1.3666721658748703e7 8.604488217300054e6 0.0
0.0 0.0 0.0

312895.3041327223 1.8864747735736504e7 0.0
1.8864747735736504e7 -1.2960284190373387e7 0.0
0.0 0.0 0.0

-8.15705009941834e6 1.4390242350970564e7 0.0
1.4390242350970564e7 3.227881730263308e7 0.0
0.0 0.0 0.0

229070.92706833174 1.873136808095637e7 0.0
1.873136808095637e7 -6.442611118919244e6 0.0
0.0 0.0 0.0

-4.298137802412612e6 2.1790641851934046e7 0.0
2.1790641851934046e7 9.396383040595494e6 0.0
0.0 0.0 0.0

-2.6448373189921407e6 2.153143399301872e7 0.0
2.153143399301872e7 -1.9933054295367678e6 0.0
0.0 0.0 0.0

562620.033904261 1.906901805131471e7 0.0
1.906901805131471e7 -7.7933734029500615e6 0.0
0.0 0.0 0.0

2.821255000333963e6 4.064038639892538e6 0.0
4.064038639892538e6 -4.090949142824143e7 0.0
0.0 0.0 0.0

-696559.1235044464 1.5477459473124696e7 0.0
1.5477459473124696e7 -2.3218641245215456e6 0.0
0.0 0.0 0.0

8.839928481682042e6 2.205584075933954e7 0.0
2.205584075933954e7 -3.88515884895118e6 0.0
0.0 0.0 0.0

-1.1656357690842138e6 1.7896093810923524e7 0.0
1.7896093810923524e7 -1.3740828210558029e7 0.0
0.0 0.0 0.0

4.469533828097687e6 2.0363168809022088e7 0.0
2.0363168809022088e7 9.454796597091205e6 0.0
0.0 0.0 0.0

-367034.3716315292 1.139465383557188e7 0.0
1.139465383557188e7 -4.232355147212094e7 0.0
0.0 0.0 0.0

-921500.577230985 2.0903208437600113e7 0.0
2.0903208437600113e7 -8.05257045705233e6 0.0
0.0 0.0 0.0

3.3413958311822573e6 2.0495788502926555e7 0.0
2.0495788502926555e7 1.368632221936238e7 0.0
0.0 0.0 0.0

2.1711347794491265e7 2.6126419067745764e7 0.0
2.6126419067745764e7 -5.479590406735961e6 0.0
0.0 0.0 0.0

667572.2577871252 1.1457970566754242e7 0.0
1.1457970566754242e7 -3.677833661537025e7 0.0
0.0 0.0 0.0

-3.1300014791474488e7 1.2443304339645168e7 0.0
1.2443304339645168e7 8.819876495522086e6 0.0
0.0 0.0 0.0

1.1327992952666664e6 1.78497485589019e7 0.0
1.78497485589019e7 1.4855499685743038e7 0.0
0.0 0.0 0.0

-5.796029238962866e6 3.029884471637462e7 0.0
3.029884471637462e7 4.847798251355171e6 0.0
0.0 0.0 0.0

-43484.693818566855 1.9230501690047633e7 0.0
1.9230501690047633e7 -1.015873167420434e7 0.0
0.0 0.0 0.0

-5.689813864375732e6 2.646590359429136e7 0.0
2.646590359429136e7 6.0714664676274955e6 0.0
0.0 0.0 0.0

-5.706659577773567e6 1.1878570494395336e7 0.0
1.1878570494395336e7 5.274601167625141e7 0.0
0.0 0.0 0.0

1.4300180404311484e6 1.439505982492424e7 0.0
1.439505982492424e7 -1.6322812948115941e7 0.0
0.0 0.0 0.0

3.947333778121076e6 2.715849815125517e7 0.0
2.715849815125517e7 -4.851752679013085e6 0.0
0.0 0.0 0.0

-2.570470889487761e6 1.1483021338401765e7 0.0
1.1483021338401765e7 1.6764005195461968e6 0.0
0.0 0.0 0.0

-2.8458844653376974e7 1.178061887485604e7 0.0
1.178061887485604e7 8.643259178898841e6 0.0
0.0 0.0 0.0

-3.6507144086604705e6 1.5008356581012895e7 0.0
1.5008356581012895e7 -216119.81748522038 0.0
0.0 0.0 0.0

-1.1430682330938265e7 3.2482859442186565e6 0.0
3.2482859442186565e6 2.8252959339075096e7 0.0
0.0 0.0 0.0

-7.354931111427728e6 1.5116099602086842e7 0.0
1.5116099602086842e7 3.327637820615795e7 0.0
0.0 0.0 0.0

-4.927922487611979e6 2.865781289989314e7 0.0
2.865781289989314e7 3.5921159778130525e6 0.0
0.0 0.0 0.0

-5.124531140993261e6 3.1135160782019082e7 0.0
3.1135160782019082e7 4.1866617864755318e6 0.0
0.0 0.0 0.0

-7.7216833023674935e6 1.1129829999758506e7 0.0
1.1129829999758506e7 4.195327924875372e7 0.0
0.0 0.0 0.0

1.296963823509708e6 1.3051957530152157e7 0.0
1.3051957530152157e7 -1.3527628440230101e7 0.0
0.0 0.0 0.0

5.387875909482446e6 2.009668798518354e7 0.0
2.009668798518354e7 247906.70168821863 0.0
0.0 0.0 0.0

-2.8098567461559763e6 1.4350221274236852e7 0.0
1.4350221274236852e7 -9.466762392920727e6 0.0
0.0 0.0 0.0

973399.5476733246 9.79262761860481e6 0.0
9.79262761860481e6 -9.256734037541265e6 0.0
0.0 0.0 0.0

-3.640172531344015e6 2.841161709457798e7 0.0
2.841161709457798e7 3.915319109144206e6 0.0
0.0 0.0 0.0

-8.831311762343025e6 1.7226167614865825e7 0.0
1.7226167614865825e7 2.370859439304635e7 0.0
0.0 0.0 0.0

14223.908334493637 1.1786499698697275e7 0.0
1.1786499698697275e7 -3.728100142105988e7 0.0
0.0 0.0 0.0

-2.0259846500400547e7 2.538978316310267e7 0.0
2.538978316310267e7 2.774899893575797e6 0.0
0.0 0.0 0.0

1.0059572909203232e6 2.4397405020354047e7 0.0
2.4397405020354047e7 -5.5169269229326425e6 0.0
0.0 0.0 0.0

1.8147546443625595e6 5.531680473263065e6 0.0
5.531680473263065e6 -4.8851147673602596e7 0.0
0.0 0.0 0.0

-2.735625653644963e6 1.89236555531409e7 0.0
1.89236555531409e7 1.7614682218024716e7 0.0
0.0 0.0 0.0

-2.503888772290112e6 2.18981319465045e7 0.0
2.18981319465045e7 1.2649744757066588e6 0.0
0.0 0.0 0.0

301416.4766520234 1.9038804255970314e7 0.0
1.9038804255970314e7 -1.3199212573137255e7 0.0
0.0 0.0 0.0

-7.900065468226492e6 2.9813726883458264e7 0.0
2.9813726883458264e7 5.607485786485523e6 0.0
0.0 0.0 0.0

-1.9782591321606627e6 2.1965164597891998e7 0.0
2.1965164597891998e7 -1.2877968788771299e6 0.0
0.0 0.0 0.0

-5.81520096166265e6 2.928485889163451e7 0.0
2.928485889163451e7 3.854924708811238e6 0.0
0.0 0.0 0.0

-2.257284284866049e6 7.7556529618521035e6 0.0
7.7556529618521035e6 2.4372546626124973e6 0.0
0.0 0.0 0.0

4.849788013749877e6 1.7408855829787653e7 0.0
1.7408855829787653e7 1.8517635134374894e7 0.0
0.0 0.0 0.0

-755450.6765768202 1.6715650931043094e7 0.0
1.6715650931043094e7 -1.901655700310385e7 0.0
0.0 0.0 0.0

-2.5942380731222695e6 1.4524045596426208e7 0.0
1.4524045596426208e7 570976.9703556991 0.0
0.0 0.0 0.0

-86088.2038209401 1.7851729177092087e7 0.0
1.7851729177092087e7 -1.522618218955535e7 0.0
0.0 0.0 0.0

2.6538882330993526e6 7.786449081155153e6 0.0
7.786449081155153e6 -1.908159197694729e7 0.0
0.0 0.0 0.0

1.0851300936855083e7 2.1370699664087173e7 0.0
2.1370699664087173e7 9.489747439139964e6 0.0
0.0 0.0 0.0

-9.320573770741038e6 -439404.38960891997 0.0
-439404.38960891997 3.540013291687721e7 0.0
0.0 0.0 0.0

5.496158903236512e6 1.7613867736288328e7 0.0
1.7613867736288328e7 2.1060816893332202e7 0.0
0.0 0.0 0.0

-3.6719922959577553e6 2.6807850477565326e7 0.0
2.6807850477565326e7 3.2317829597936943e6 0.0
0.0 0.0 0.0

-377192.81780556403 1.6413188571765484e7 0.0
1.6413188571765484e7 -2.15667383779861e7 0.0
0.0 0.0 0.0

3.2999287754949676e6 2.6624437938495226e7 0.0
2.6624437938495226e7 -4.482194659912093e6 0.0
0.0 0.0 0.0

-493630.6676963255 1.815086819656085e7 0.0
1.815086819656085e7 -2.336745589188918e6 0.0
0.0 0.0 0.0

2.7441450568272024e6 1.022692974856793e7 0.0
1.022692974856793e7 -2.4259909763157435e7 0.0
0.0 0.0 0.0

670841.5912618553 2.3776670569531184e7 0.0
2.3776670569531184e7 -6.569836544000786e6 0.0
0.0 0.0 0.0

-543798.8011383023 1.7040864643967737e7 0.0
1.7040864643967737e7 -1.7706893831403054e7 0.0
0.0 0.0 0.0

-1.0685361413292814e7 5.648393659207453e6 0.0
5.648393659207453e6 1.5389767045636717e7 0.0
0.0 0.0 0.0

3.166642798075424e6 1.9394101275923707e7 0.0
1.9394101275923707e7 1.4975017097019022e7 0.0
0.0 0.0 0.0

-5.332417539893983e6 2.2187163384807453e7 0.0
2.2187163384807453e7 8.976175029554425e6 0.0
0.0 0.0 0.0

-3.984028193872082e6 2.745123825004861e7 0.0
2.745123825004861e7 3.2880009001821494e6 0.0
0.0 0.0 0.0

-907413.4177391538 1.8606445228852723e7 0.0
1.8606445228852723e7 1.0394967587116517e7 0.0
0.0 0.0 0.0

-5.210328290584219e6 3.9803763104807553e6 0.0
3.9803763104807553e6 8.804082305820776e6 0.0
0.0 0.0 0.0

-1.0165783716243964e7 9.738800070495753e6 0.0
9.738800070495753e6 3.49937673652362e7 0.0
0.0 0.0 0.0

119841.06878198776 1.8307683867320735e7 0.0
1.8307683867320735e7 -1.4104244981894977e7 0.0
0.0 0.0 0.0

-2.593732914318826e6 1.39883234160882e7 0.0
1.39883234160882e7 -5.614346358369358e7 0.0
0.0 0.0 0.0

-4.324787658702793e6 5.642786513262785e6 0.0
5.642786513262785e6 7.227737817306811e6 0.0
0.0 0.0 0.0

-1.1255995496309035e7 1.0968503475694451e6 0.0
1.0968503475694451e6 2.095395082131421e7 0.0
0.0 0.0 0.0

-4.911378806099698e6 1.705987995229408e7 0.0
1.705987995229408e7 7.6788641183300475e6 0.0
0.0 0.0 0.0

549244.9754546906 2.4617016049095828e7 0.0
2.4617016049095828e7 -4.912653567614894e6 0.0
0.0 0.0 0.0

-3.4358180414001467e6 1.5324694855650652e7 0.0
1.5324694855650652e7 -3.605882224059795e7 0.0
0.0 0.0 0.0

3.308130855224681e6 7.441870651094347e6 0.0
7.441870651094347e6 -1.6537051546010325e7 0.0
0.0 0.0 0.0

-2.537646955483689e6 2.6951375115025662e7 0.0
2.6951375115025662e7 2.8826902649600087e6 0.0
0.0 0.0 0.0

1.4222868519309792e6 2.4096517031287067e7 0.0
2.4096517031287067e7 -6.05957704197746e6 0.0
0.0 0.0 0.0

-8.870966963486351e6 3.564820600126403e7 0.0
3.564820600126403e7 3.7755689196892227e6 0.0
0.0 0.0 0.0

-2.998450565046679e6 2.714507598541286e7 0.0
2.714507598541286e7 3.7451722977470746e6 0.0
0.0 0.0 0.0

-2.229287999353513e7 2.685356641228876e7 0.0
2.685356641228876e7 -7.15638137161779e6 0.0
0.0 0.0 0.0

-3.479123863996425e6 2.0474169242049888e7 0.0
2.0474169242049888e7 -1.4987160083290986e6 0.0
0.0 0.0 0.0

-2.8216781694297493e6 1.3893719152485706e7 0.0
1.3893719152485706e7 -5.1636994550614886e7 0.0
0.0 0.0 0.0

-3.611643538333921e6 1.3879792209126852e7 0.0
1.3879792209126852e7 -409702.82857143704 0.0
0.0 0.0 0.0

-9.76575852303106e6 1.8313908632623772e6 0.0
1.8313908632623772e6 4.050564013870648e7 0.0
0.0 0.0 0.0

-8.620318260892428e6 5.6041433871673895e6 0.0
5.6041433871673895e6 4.713157271689715e7 0.0
0.0 0.0 0.0

2.623224860441584e6 6.454480305056565e6 0.0
6.454480305056565e6 -3.587442009217862e7 0.0
0.0 0.0 0.0

-4.699427482856574e6 2.337979620564584e7 0.0
2.337979620564584e7 8.771017100227011e6 0.0
0.0 0.0 0.0

-5.780870840562256e6 1.3105163706588784e7 0.0
1.3105163706588784e7 4.520669245519497e7 0.0
0.0 0.0 0.0

-310628.2972766366 1.7438506577101108e7 0.0
1.7438506577101108e7 -1.6436702612328568e7 0.0
0.0 0.0 0.0

-3.706998212697381e6 1.5093400773688884e7 0.0
1.5093400773688884e7 4.246487700698121e7 0.0
0.0 0.0 0.0

155535.3857703649 2.405572009490997e7 0.0
2.405572009490997e7 -6.057701942209575e6 0.0
0.0 0.0 0.0

2.208497091820641e6 2.8787750777165867e7 0.0
2.8787750777165867e7 -3.4522082373493845e6 0.0
0.0 0.0 0.0

-217218.30314011383 1.8013845888344463e7 0.0
1.8013845888344463e7 -4.078621139723076e6 0.0
0.0 0.0 0.0

-1.1547301424686074e7 3.9479228437478715e6 0.0
3.9479228437478715e6 2.0556423259528816e7 0.0
0.0 0.0 0.0

60625.484483389184 1.8201295741152495e7 0.0
1.8201295741152495e7 1.2702761101296734e7 0.0
0.0 0.0 0.0

-4.161311214750268e6 1.6485352764965719e7 0.0
1.6485352764965719e7 8.683337855505144e6 0.0
0.0 0.0 0.0

3.26783735406499e6 4.715152995740029e6 0.0
4.715152995740029e6 -3.2763229861535754e7 0.0
0.0 0.0 0.0

3.444578080726043e6 2.0900674399177708e7 0.0
2.0900674399177708e7 -5.598440600767321e6 0.0
0.0 0.0 0.0

-1.3016208926640492e7 2.0380220746042836e7 0.0
2.0380220746042836e7 3.515383624803369e6 0.0
0.0 0.0 0.0

-2.0953083672574457e7 2.3162397543219812e7 0.0
2.3162397543219812e7 -6.198896175986803e6 0.0
0.0 0.0 0.0

-2.589172662848219e6 2.736387840361834e7 0.0
2.736387840361834e7 982558.6801789083 0.0
0.0 0.0 0.0

416901.2736378256 1.263890802897971e7 0.0
1.263890802897971e7 -1.2786346451935494e7 0.0
0.0 0.0 0.0

-5.373115631086232e6 2.023475036465701e7 0.0
2.023475036465701e7 -1.2712105834601484e6 0.0
0.0 0.0 0.0

1.0952985736886403e6 2.8937070413703293e7 0.0
2.8937070413703293e7 -1.608874086721092e6 0.0
0.0 0.0 0.0

-3.590176691426892e6 1.9012964939676914e7 0.0
1.9012964939676914e7 1.878949495367111e7 0.0
0.0 0.0 0.0

-1.7150364614143018e6 1.899736386772351e7 0.0
1.899736386772351e7 1.0360840269076945e7 0.0
0.0 0.0 0.0

1.315756862898414e6 1.2218808442378484e7 0.0
1.2218808442378484e7 -1.2109628560769755e7 0.0
0.0 0.0 0.0

-2.1603623878463237e6 3.0747481152135532e7 0.0
3.0747481152135532e7 1.767454565432998e6 0.0
0.0 0.0 0.0

-1.0741957829016736e7 989195.3834990278 0.0
989195.3834990278 3.0798803553852577e7 0.0
0.0 0.0 0.0

3.837098581160035e6 5.769603158342602e6 0.0
5.769603158342602e6 -2.5727539299748003e7 0.0
0.0 0.0 0.0

-275835.5073745348 2.6473768965685077e7 0.0
2.6473768965685077e7 -1.86293125150475e6 0.0
0.0 0.0 0.0

-699650.5657091504 1.701678624819963e7 0.0
1.701678624819963e7 -1.9490618807274785e7 0.0
0.0 0.0 0.0

-4.0412097092908705e6 695447.6086622836 0.0
695447.6086622836 6.59876378067117e6 0.0
0.0 0.0 0.0

1.0434951439419817e6 9.548330123866526e6 0.0
9.548330123866526e6 -1.185075003815711e7 0.0
0.0 0.0 0.0

-8.738589088343313e6 2.3090200435566295e7 0.0
2.3090200435566295e7 -7.730110052232862e6 0.0
0.0 0.0 0.0

2.404034507065867e6 1.1404499248987818e7 0.0
1.1404499248987818e7 -2.3546744088840876e7 0.0
0.0 0.0 0.0

1.0211036900021937e7 2.1923438066245217e7 0.0
2.1923438066245217e7 1.0784966697194384e7 0.0
0.0 0.0 0.0

-4.0299965322887255e6 8.393902331694841e6 0.0
8.393902331694841e6 1.4441322562592477e6 0.0
0.0 0.0 0.0

-6.078704754361099e6 4.427581172420641e6 0.0
4.427581172420641e6 5.416764194286566e6 0.0
0.0 0.0 0.0

7.169532665358772e6 2.723457011465158e7 0.0
2.723457011465158e7 -5.0115537855811e6 0.0
0.0 0.0 0.0

-1.0568047267679952e7 1.3423680942439842e6 0.0
1.3423680942439842e6 3.0109496213551406e7 0.0
0.0 0.0 0.0

933415.7677645953 1.5554504396087019e7 0.0
1.5554504396087019e7 -1.4058132124475053e7 0.0
0.0 0.0 0.0

1.0091863594780532e6 1.8051013095152598e7 0.0
1.8051013095152598e7 2.204268254089648e6 0.0
0.0 0.0 0.0

1.4148511901677284e7 2.3196720250982087e7 0.0
2.3196720250982087e7 -3.7296196680132654e6 0.0
0.0 0.0 0.0

904858.6657453859 1.6463744270951174e7 0.0
1.6463744270951174e7 -1.7166446168622147e7 0.0
0.0 0.0 0.0

7.306645836446508e6 1.831561633902981e7 0.0
1.831561633902981e7 2.7933237077543635e7 0.0
0.0 0.0 0.0

-7.884913329386021e6 2.6444470225198455e7 0.0
2.6444470225198455e7 6.210033617262457e6 0.0
0.0 0.0 0.0

-9.399233334177226e6 1.6734756413306543e6 0.0
1.6734756413306543e6 3.7693469604617335e7 0.0
0.0 0.0 0.0

276336.1608888883 2.653814911094991e7 0.0
2.653814911094991e7 -2.3929110766860414e6 0.0
0.0 0.0 0.0

-372140.1580055505 1.9124038767401986e7 0.0
1.9124038767401986e7 1.7851823870607626e7 0.0
0.0 0.0 0.0

1.9291590322689125e6 1.094261083289331e7 0.0
1.094261083289331e7 -1.9731372006126504e7 0.0
0.0 0.0 0.0

3.481098933533717e6 4.897941457749267e6 0.0
4.897941457749267e6 -3.66176477891497e7 0.0
0.0 0.0 0.0

-2.4474804869032325e6 2.1767182206915013e7 0.0
2.1767182206915013e7 -2.8019964719398012e6 0.0
0.0 0.0 0.0

-8.430568367197853e6 1.088195282629514e7 0.0
1.088195282629514e7 1.5278911511792954e7 0.0
0.0 0.0 0.0

-8.78583006546815e6 1.6071418921655625e7 0.0
1.6071418921655625e7 2.8113808156659372e7 0.0
0.0 0.0 0.0

-638373.7935313657 1.6090302510490803e7 0.0
1.6090302510490803e7 -2.3001923494758785e7 0.0
0.0 0.0 0.0

-2.2260510971622597e6 1.3402188653733192e7 0.0
1.3402188653733192e7 -4.807368057964067e7 0.0
0.0 0.0 0.0

656104.6336862369 2.7102868389464237e7 0.0
2.7102868389464237e7 -2.3500333581569847e6 0.0
0.0 0.0 0.0

-1.0056451054798882e6 1.8699188488814257e7 0.0
1.8699188488814257e7 8.093490237326003e6 0.0
0.0 0.0 0.0

-3.464121023070331e7 1.2724032467035886e7 0.0
1.2724032467035886e7 8.362019768929839e6 0.0
0.0 0.0 0.0

7.984298655944756e6 1.8737122410519194e7 0.0
1.8737122410519194e7 3.1561484800168026e7 0.0
0.0 0.0 0.0

-3.205696498135096e7 3.1191649857373167e7 0.0
3.1191649857373167e7 7.291383438717391e6 0.0
0.0 0.0 0.0

1.8555248915443327e6 1.0576606513007373e7 0.0
1.0576606513007373e7 -2.840988116369779e7 0.0
0.0 0.0 0.0

6.98791861779598e6 5.556355785584564e6 0.0
5.556355785584564e6 -1.3504755495586684e6 0.0
0.0 0.0 0.0

-1.7801522406131726e7 229537.28264708657 0.0
229537.28264708657 6.960381960564103e6 0.0
0.0 0.0 0.0

-7.669826517018311e6 9.691190641783983e6 0.0
9.691190641783983e6 1.3282009939858299e7 0.0
0.0 0.0 0.0

-9.975413768594936e6 2.9376490491500273e6 0.0
2.9376490491500273e6 3.5801286392910406e7 0.0
0.0 0.0 0.0

-1.128484893269246e7 3.4206596270780247e6 0.0
3.4206596270780247e6 2.9694676290582918e7 0.0
0.0 0.0 0.0

50302.48177628778 1.8124485953648187e7 0.0
1.8124485953648187e7 -1.569599051977232e7 0.0
0.0 0.0 0.0

-2.367213142856094e6 1.5299971200551594e7 0.0
1.5299971200551594e7 -7.890710621698404e6 0.0
0.0 0.0 0.0

2.048937023023726e6 1.5931665369760102e7 0.0
1.5931665369760102e7 6.829790208532696e6 0.0
0.0 0.0 0.0

875284.4283895316 1.7776205408753652e7 0.0
1.7776205408753652e7 -557935.5824484441 0.0
0.0 0.0 0.0

1.0842628415314038e6 2.765912150564621e7 0.0
2.765912150564621e7 -2.262920305430568e6 0.0
0.0 0.0 0.0

-1.1235083102547888e7 1.0282708833084721e7 0.0
1.0282708833084721e7 1.9758534936252996e7 0.0
0.0 0.0 0.0

308538.305844062 1.7063166529777836e7 0.0
1.7063166529777836e7 -1.612936803363906e7 0.0
0.0 0.0 0.0

-3.146211462643224e6 2.365825508634826e7 0.0
2.365825508634826e7 2.8108954797927304e6 0.0
0.0 0.0 0.0

2.0762887986652479e6 8.66230503424148e6 0.0
8.66230503424148e6 -3.3274472486537904e7 0.0
0.0 0.0 0.0

-1.038898464136436e7 2.2601316596617275e6 0.0
2.2601316596617275e6 3.216623812342384e7 0.0
0.0 0.0 0.0

436267.6579327553 2.592036616796713e7 0.0
2.592036616796713e7 -3.247274867511804e6 0.0
0.0 0.0 0.0

-1.163154606083146e6 1.870327210626059e7 0.0
1.870327210626059e7 5.7454175606409665e6 0.0
0.0 0.0 0.0

-1.3547535946832553e6 1.887213625838312e7 0.0
1.887213625838312e7 3.42102054010966e6 0.0
0.0 0.0 0.0

-5.9715106210527085e6 2.2113181652621184e7 0.0
2.2113181652621184e7 -1.0447144410862138e7 0.0
0.0 0.0 0.0

5.6095708010070585e6 1.595656846420886e7 0.0
1.595656846420886e7 2.032302498902187e7 0.0
0.0 0.0 0.0

-6.452234051733166e6 2.120022439009666e7 0.0
2.120022439009666e7 -8.682521970707228e6 0.0
0.0 0.0 0.0

-7.910995629513174e6 1.3816950956710108e7 0.0
1.3816950956710108e7 3.470604219313878e7 0.0
0.0 0.0 0.0

-9.994088711558687e6 1.6146360480584486e6 0.0
1.6146360480584486e6 3.7404331910647996e7 0.0
0.0 0.0 0.0

2.589440379358042e6 1.0518687721862055e7 0.0
1.0518687721862055e7 -1.903201095050121e7 0.0
0.0 0.0 0.0

2.6663335131904073e6 5.66651894056539e6 0.0
5.66651894056539e6 -3.759481420750616e7 0.0
0.0 0.0 0.0

762340.2906315727 1.7505219945862595e7 0.0
1.7505219945862595e7 -1.4938883762891434e7 0.0
0.0 0.0 0.0

6.0589801017046925e6 2.102489428688416e7 0.0
2.102489428688416e7 8.714705916268371e6 0.0
0.0 0.0 0.0

2.848305293629679e6 6.739012356936518e6 0.0
6.739012356936518e6 -1.7668476075103797e7 0.0
0.0 0.0 0.0

-6.247029221461742e6 1.6663499858336423e7 0.0
1.6663499858336423e7 -2.8040310110484935e7 0.0
0.0 0.0 0.0

-1.7396877331384178e6 1.3097437694901798e7 0.0
1.3097437694901798e7 -4.472841094878312e7 0.0
0.0 0.0 0.0

-4.695102325937641e6 1.6179079762036432e7 0.0
1.6179079762036432e7 5.184003072607851e6 0.0
0.0 0.0 0.0

-5.987776413784885e6 2.369274298872807e7 0.0
2.369274298872807e7 8.348639428826884e6 0.0
0.0 0.0 0.0

-8.657040156085387e6 2.1971787427718285e7 0.0
2.1971787427718285e7 -9.008383367292525e6 0.0
0.0 0.0 0.0

-8.42759202783335e6 2.628589090427859e6 0.0
2.628589090427859e6 4.649076437858477e7 0.0
0.0 0.0 0.0

-1.25062406132105e6 1.2957052799911551e7 0.0
1.2957052799911551e7 -4.184913241219163e7 0.0
0.0 0.0 0.0

-7.616771749215942e6 1.3144872184956124e7 0.0
1.3144872184956124e7 3.724891337774462e7 0.0
0.0 0.0 0.0

-1.7011335455196216e6 1.903729338834803e7 0.0
1.903729338834803e7 1.091655965586584e6 0.0
0.0 0.0 0.0

37700.55063567357 2.7351513138870247e7 0.0
2.7351513138870247e7 -2.744391298396047e6 0.0
0.0 0.0 0.0

-1.251190514845808e7 2.6046811936807103e7 0.0
2.6046811936807103e7 5.217939748405774e6 0.0
0.0 0.0 0.0

-9.58930377327419e6 1.5252881546215685e7 0.0
1.5252881546215685e7 2.7899621947143905e7 0.0
0.0 0.0 0.0

-4.357651399978072e6 1.4513037989156116e7 0.0
1.4513037989156116e7 -1.5753800157866338e7 0.0
0.0 0.0 0.0

3.6654770765783023e6 1.6902385738578893e7 0.0
1.6902385738578893e7 1.2738090715223117e7 0.0
0.0 0.0 0.0

2.46118705780695e6 7.055871588390205e6 0.0
7.055871588390205e6 -3.435692876138222e7 0.0
0.0 0.0 0.0

1.5066485865060939e6 8.902144053508973e6 0.0
8.902144053508973e6 -1.291530223667662e7 0.0
0.0 0.0 0.0

-9.374384354092784e6 1.0896153849866163e7 0.0
1.0896153849866163e7 3.640711637131195e7 0.0
0.0 0.0 0.0

-3.6279712863204014e6 2.0553858436544016e7 0.0
2.0553858436544016e7 1.1372319110395303e7 0.0
0.0 0.0 0.0

-3.082832369940277e7 2.6508873514777478e7 0.0
2.6508873514777478e7 2.1734701384340767e6 0.0
0.0 0.0 0.0

-50193.3672137009 1.4593272191274138e7 0.0
1.4593272191274138e7 -2.5274524213001624e7 0.0
0.0 0.0 0.0

1.651746293951271e6 1.0055712966993837e7 0.0
1.0055712966993837e7 -3.207041524995868e7 0.0
0.0 0.0 0.0

-778282.2786126882 1.294749118810351e7 0.0
1.294749118810351e7 -3.9174886089633524e7 0.0
0.0 0.0 0.0

2.7966844473363794e6 4.386207718738497e6 0.0
4.386207718738497e6 -9.747746931121966e6 0.0
0.0 0.0 0.0

129974.40969812311 1.9404048207932014e7 0.0
1.9404048207932014e7 -1.0641899178049013e7 0.0
0.0 0.0 0.0

1.3308727209496987e6 2.087223009028754e7 0.0
2.087223009028754e7 -8.886607923516257e6 0.0
0.0 0.0 0.0

-1.9001206057646684e7 3.416926913547088e7 0.0
3.416926913547088e7 6.801074980344488e6 0.0
0.0 0.0 0.0

1.6730546253759163e6 4.433556346540686e6 0.0
4.433556346540686e6 -5.6736603401152305e6 0.0
0.0 0.0 0.0

-408855.0523959147 1.7357800254006688e7 0.0
1.7357800254006688e7 -1.8115334410332795e7 0.0
0.0 0.0 0.0

-8.139401721008642e6 1.74071436662058e7 0.0
1.74071436662058e7 2.4006399322073005e7 0.0
0.0 0.0 0.0

-1.070156083893289e7 2.081231206996855e6 0.0
2.081231206996855e6 2.659540933616812e7 0.0
0.0 0.0 0.0

3.136452487398794e6 5.324868438840698e6 0.0
5.324868438840698e6 -3.1428348875795446e7 0.0
0.0 0.0 0.0

-1.1306631267461171e7 4.788140969849003e6 0.0
4.788140969849003e6 2.6215797723086946e7 0.0
0.0 0.0 0.0

-1.0727752747713493e7 4.897138311305752e6 0.0
4.897138311305752e6 3.138448646824745e7 0.0
0.0 0.0 0.0

-9.487742704612505e6 9.620737893100236e6 0.0
9.620737893100236e6 1.6763446516921943e7 0.0
0.0 0.0 0.0

-4.553059869727608e6 2.1853539595870353e7 0.0
2.1853539595870353e7 1.1477657408546455e7 0.0
0.0 0.0 0.0

-2.19122980765954e6 1.214925184870698e7 0.0
1.214925184870698e7 262241.821480933 0.0
0.0 0.0 0.0

1.9174916010646846e7 5.912103023420135e6 0.0
5.912103023420135e6 -2.683914576902831e6 0.0
0.0 0.0 0.0

-3.2241410080625013e7 2.1622138941539885e6 0.0
2.1622138941539885e6 7.409518781200282e6 0.0
0.0 0.0 0.0

2.8057532912027584e6 8.2875907486138735e6 0.0
8.2875907486138735e6 -1.3784318985026494e7 0.0
0.0 0.0 0.0

2.391647262602968e6 9.627569753663752e6 0.0
9.627569753663752e6 -3.1423753644898377e7 0.0
0.0 0.0 0.0

2.8593653842626754e6 8.084500255394749e6 0.0
8.084500255394749e6 -3.2402634957104333e7 0.0
0.0 0.0 0.0

432198.32885895536 1.8719077922072012e6 0.0
1.8719077922072012e6 1.593655128072045e6 0.0
0.0 0.0 0.0

-3.487230859166053e6 -1.185903081191927e6 0.0
-1.185903081191927e6 3.8941713286815025e6 0.0
0.0 0.0 0.0

-4.0596076444427045e6 1.6694347033538865e7 0.0
1.6694347033538865e7 -2.541041824417423e7 0.0
0.0 0.0 0.0

2.848272895762028e6 5.637104101921537e6 0.0
5.637104101921537e6 -3.530074318679114e7 0.0
0.0 0.0 0.0

-2.3726301661036134e7 2.448331495989846e7 0.0
2.448331495989846e7 -8.901018504132396e6 0.0
0.0 0.0 0.0

-5.8837974898838615e6 1.940425722934397e7 0.0
1.940425722934397e7 1.5772867871168891e7 0.0
0.0 0.0 0.0

521380.04534130124 2.5275073157765184e7 0.0
2.5275073157765184e7 -4.064628326653303e6 0.0
0.0 0.0 0.0

4.834919248342837e6 1.5783838830877738e7 0.0
1.5783838830877738e7 1.776246078631878e7 0.0
0.0 0.0 0.0

1.082255266660506e7 1.1104911694190055e7 0.0
1.1104911694190055e7 1.2572769000010737e6 0.0
0.0 0.0 0.0

-1.1399439974518228e7 2.4401404954483155e7 0.0
2.4401404954483155e7 -9.000062703681093e6 0.0
0.0 0.0 0.0

-9.433281396268835e6 5.453231663149082e6 0.0
5.453231663149082e6 4.038074023493646e7 0.0
0.0 0.0 0.0

-5.810865861862097e6 2.2925577927035447e7 0.0
2.2925577927035447e7 8.719620880784454e6 0.0
0.0 0.0 0.0

1.8698909406386917e6 2.096402891226206e7 0.0
2.096402891226206e7 -7.823138408244436e6 0.0
0.0 0.0 0.0

-7.786431986890763e6 1.7775804708303653e7 0.0
1.7775804708303653e7 2.2964822558618244e7 0.0
0.0 0.0 0.0

-9.760115567503586e6 -1.7102844079065332e6 0.0
-1.7102844079065332e6 2.6344333857199475e7 0.0
0.0 0.0 0.0

-656256.5341993192 2.620377985655255e7 0.0
2.620377985655255e7 -2.916044146008273e6 0.0
0.0 0.0 0.0

1.928441879585592e6 9.94788779866191e6 0.0
9.94788779866191e6 -3.0049969115193132e7 0.0
0.0 0.0 0.0

2.0624302105942946e6 2.4484618259873815e7 0.0
2.4484618259873815e7 -5.861286670657545e6 0.0
0.0 0.0 0.0

3.261446121633975e6 6.606776844454429e6 0.0
6.606776844454429e6 -3.3641563257325366e7 0.0
0.0 0.0 0.0

4.939815293318568e6 1.7845551348955646e7 0.0
1.7845551348955646e7 1.5817203691930043e7 0.0
0.0 0.0 0.0

-885151.4787156037 1.9972054956153855e7 0.0
1.9972054956153855e7 -9.264261040837731e6 0.0
0.0 0.0 0.0

-1.0972134240932725e7 1.8955780826153853e6 0.0
1.8955780826153853e6 1.5509768379008748e7 0.0
0.0 0.0 0.0

-2.2641030817085793e6 1.5171148564662028e7 0.0
1.5171148564662028e7 -8.234040919351735e6 0.0
0.0 0.0 0.0

3.6226782243435215e6 4.952675585247241e6 0.0
4.952675585247241e6 -3.425240071508811e7 0.0
0.0 0.0 0.0

1.1536610540084204e7 2.4523293718917895e7 0.0
2.4523293718917895e7 -4.691951303279478e6 0.0
0.0 0.0 0.0

2.5426173048492745e6 7.443390151278544e6 0.0
7.443390151278544e6 -1.6625940810949024e7 0.0
0.0 0.0 0.0

-1.2518589306004032e7 6.144991921877829e6 0.0
6.144991921877829e6 1.9394867322306257e7 0.0
0.0 0.0 0.0

-3.415788367462503e6 2.6161923609042183e7 0.0
2.6161923609042183e7 3.0783203795209555e6 0.0
0.0 0.0 0.0

-602841.526560273 1.2960143282730326e7 0.0
1.2960143282730326e7 -3.659043723088302e7 0.0
0.0 0.0 0.0

-4.247677770895644e6 1.5393860815257307e7 0.0
1.5393860815257307e7 -1.4158925956899418e7 0.0
0.0 0.0 0.0

3.5286030321737416e6 1.6125196019277845e7 0.0
1.6125196019277845e7 1.1762010424097674e7 0.0
0.0 0.0 0.0

-2.764315394350807e6 1.276472533432163e7 0.0
1.276472533432163e7 1.8235182168065999e6 0.0
0.0 0.0 0.0

-5.8885801793919625e6 1.4798948822786527e7 0.0
1.4798948822786527e7 8.174978891001973e6 0.0
0.0 0.0 0.0

1.597501262518757e6 1.8416609086831983e7 0.0
1.8416609086831983e7 1.6731274169001495e7 0.0
0.0 0.0 0.0

-1.0159352185660033e7 -273926.3297710557 0.0
-273926.3297710557 2.3038705179583177e7 0.0
0.0 0.0 0.0

1.4876634778579003e6 1.956614322435863e7 0.0
1.956614322435863e7 4.416947386689055e6 0.0
0.0 0.0 0.0

-4.416446051326997e6 2.1295811801886097e7 0.0
2.1295811801886097e7 1.1891437760541633e7 0.0
0.0 0.0 0.0

2.2903752335755453e6 7.602763364893582e6 0.0
7.602763364893582e6 -1.4862426571279854e7 0.0
0.0 0.0 0.0

-1.184468830783845e7 3.2763746985044354e6 0.0
3.2763746985044354e6 2.4205418808167398e7 0.0
0.0 0.0 0.0

-5.2124143342513535e6 2.0751141904155932e7 0.0
2.0751141904155932e7 -7.302490554786629e6 0.0
0.0 0.0 0.0

-8.120233138637001e6 1.804511918441466e7 0.0
1.804511918441466e7 2.184457497813924e7 0.0
0.0 0.0 0.0

-729254.6840567524 1.9061705183452733e7 0.0
1.9061705183452733e7 1.4484668172797844e7 0.0
0.0 0.0 0.0

-1.1680256923058355e7 7.485092533239801e6 0.0
7.485092533239801e6 2.578012786838159e7 0.0
0.0 0.0 0.0

1.2236099795997776e6 2.0561857511189863e7 0.0
2.0561857511189863e7 -9.670416165739626e6 0.0
0.0 0.0 0.0

-5.650789540423926e6 2.568872765571407e7 0.0
2.568872765571407e7 6.6862579327632915e6 0.0
0.0 0.0 0.0

-9.866893349973628e6 9.183070622940402e6 0.0
9.183070622940402e6 3.6074334361203335e7 0.0
0.0 0.0 0.0

-9.55395645987615e6 1.1891920329323152e7 0.0
1.1891920329323152e7 1.3334212308043186e7 0.0
0.0 0.0 0.0

-1.038123117383856e7 2.9043327016724558e6 0.0
2.9043327016724558e6 3.515596115854174e7 0.0
0.0 0.0 0.0

426523.0024082707 1.6552018982571963e7 0.0
1.6552018982571963e7 -1.7306880318410758e7 0.0
0.0 0.0 0.0

-5.299886933588799e6 2.3102781260140184e7 0.0
2.3102781260140184e7 9.414382377386056e6 0.0
0.0 0.0 0.0

-2.1109209247302897e6 1.923357811489956e7 0.0
1.923357811489956e7 -1.144984048041699e6 0.0
0.0 0.0 0.0

3.1515728334843926e6 8.425552322394356e6 0.0
8.425552322394356e6 -1.7986329410962295e7 0.0
0.0 0.0 0.0

-9.876822883926798e6 -751017.2695292463 0.0
-751017.2695292463 2.9445919337791074e7 0.0
0.0 0.0 0.0

-4.619609924587954e6 1.5380261368846372e7 0.0
1.5380261368846372e7 3.9187363186780356e7 0.0
0.0 0.0 0.0

-8.199272979868349e6 1.1934552335706588e7 0.0
1.1934552335706588e7 3.882227235387618e7 0.0
0.0 0.0 0.0

1.177360076646575e6 1.840934675333877e7 0.0
1.840934675333877e7 1.0156954000966432e7 0.0
0.0 0.0 0.0

-1.2289328811310757e7 5.9890226551587125e6 0.0
5.9890226551587125e6 2.378248366187016e7 0.0
0.0 0.0 0.0

-4.876317754578661e6 1.4177732525869122e7 0.0
1.4177732525869122e7 9.282068153072486e6 0.0
0.0 0.0 0.0

-1.21134633032757e6 1.9006782783731226e7 0.0
1.9006782783731226e7 -5.935808054307613e6 0.0
0.0 0.0 0.0

458448.5228270963 1.5023008469626801e7 0.0
1.5023008469626801e7 -1.4901461873387186e7 0.0
0.0 0.0 0.0

-4.299798579148994e6 2.129541557380677e7 0.0
2.129541557380677e7 1.3093146623114474e7 0.0
0.0 0.0 0.0

-4.164151446323656e6 2.90077678122818e7 0.0
2.90077678122818e7 4.137905466192173e6 0.0
0.0 0.0 0.0

-1.0592098713886898e7 1.2605196806662781e7 0.0
1.2605196806662781e7 2.94435315971004e7 0.0
0.0 0.0 0.0

7.170271170825747e6 1.62686247548644e7 0.0
1.62686247548644e7 2.6145156959271144e7 0.0
0.0 0.0 0.0

-30849.921588205267 1.870208888849807e7 0.0
1.870208888849807e7 -8.706379119337525e6 0.0
0.0 0.0 0.0

2.5861403455080446e6 1.0874154709841285e7 0.0
1.0874154709841285e7 -2.313108731543296e7 0.0
0.0 0.0 0.0

3.4547548223097716e6 3.1633404981808034e6 0.0
3.1633404981808034e6 -3.6833380017160855e7 0.0
0.0 0.0 0.0

-9.913236373001326e6 -352060.315418663 0.0
-352060.315418663 3.285285711208717e7 0.0
0.0 0.0 0.0

-3.787831445148363e6 2.126861231097786e7 0.0
2.126861231097786e7 1.197446109961482e7 0.0
0.0 0.0 0.0

-3.200382604419633e6 1.5861185627187274e7 0.0
1.5861185627187274e7 1.5329749019828621e7 0.0
0.0 0.0 0.0

-451470.26638385653 1.5969275909790765e7 0.0
1.5969275909790765e7 5.748100095108996e7 0.0
0.0 0.0 0.0

285206.04624407645 1.4317328155804148e7 0.0
1.4317328155804148e7 -1.3795116437988713e7 0.0
0.0 0.0 0.0

5.740163409244834e6 1.6633114411896495e7 0.0
1.6633114411896495e7 1.9133878538629815e7 0.0
0.0 0.0 0.0

-1.0826688531039761e7 -579814.279422086 0.0
-579814.279422086 2.4176109144238222e7 0.0
0.0 0.0 0.0

-2.2232967335903965e7 877676.3692327795 0.0
877676.3692327795 8.636922650738519e6 0.0
0.0 0.0 0.0

2.3326247515712064e6 9.357407403282985e6 0.0
9.357407403282985e6 -2.7455056251222014e7 0.0
0.0 0.0 0.0

-1.2031536568251457e7 3.779409842859665e6 0.0
3.779409842859665e6 2.100860149896533e7 0.0
0.0 0.0 0.0

1.6048858019878324e6 1.0625429779466473e7 0.0
1.0625429779466473e7 -3.0373068512599796e7 0.0
0.0 0.0 0.0

-7.698040148839559e6 1.619560882062729e7 0.0
1.619560882062729e7 2.9260855554829177e7 0.0
0.0 0.0 0.0

4.177003306617393e6 3.6321839030452436e6 0.0
3.6321839030452436e6 -2.3378426943689432e7 0.0
0.0 0.0 0.0

9.10580248111721e6 2.5406673940863505e7 0.0
2.5406673940863505e7 -5.000914861231089e6 0.0
0.0 0.0 0.0

-2.1224764117816635e6 1.3921659962151306e7 0.0
1.3921659962151306e7 -880817.8668218644 0.0
0.0 0.0 0.0

1.0889958149635352e6 6.498315143013529e6 0.0
6.498315143013529e6 -4.321281388405561e6 0.0
0.0 0.0 0.0

2.738662413244783e7 5.981370441886956e6 0.0
5.981370441886956e6 -2.4079700727603696e6 0.0
0.0 0.0 0.0

-6.085341126071559e6 1.65851967288428e7 0.0
1.65851967288428e7 2.9543419759163857e7 0.0
0.0 0.0 0.0

-934515.8405490156 1.0327364416742655e7 0.0
1.0327364416742655e7 -6.0703664302728e6 0.0
0.0 0.0 0.0

-1.1064778173822546e7 4.244353360347862e6 0.0
4.244353360347862e6 3.2922751420537848e7 0.0
0.0 0.0 0.0

1.9834635632157698e6 5.481634126273548e6 0.0
5.481634126273548e6 -9.555535824565535e6 0.0
0.0 0.0 0.0

-4.581442930163471e6 2.0333880767396566e7 0.0
2.0333880767396566e7 -5.461843386924745e6 0.0
0.0 0.0 0.0

-4.7226739577394305e6 1.9515911906044528e7 0.0
1.9515911906044528e7 1.5864207022463342e7 0.0
0.0 0.0 0.0

-1.1767888489922013e7 7.640553783876125e6 0.0
7.640553783876125e6 2.1359152671208497e7 0.0
0.0 0.0 0.0

2.6241695829119366e6 8.070646766838982e6 0.0
8.070646766838982e6 -2.8263553094089784e7 0.0
0.0 0.0 0.0

-5.102166693001588e6 1.5628813361461125e7 0.0
1.5628813361461125e7 -3.412187359457274e7 0.0
0.0 0.0 0.0

-6.341351275505103e6 6.473329406934317e6 0.0
6.473329406934317e6 5.903664243476903e6 0.0
0.0 0.0 0.0

3.7009163793119155e6 3.8632414968075105e6 0.0
3.8632414968075105e6 -2.149292295134896e7 0.0
0.0 0.0 0.0

-302123.49342189124 1.725554008515996e7 0.0
1.725554008515996e7 -1.2779878108521588e7 0.0
0.0 0.0 0.0

1.6449865894368382e7 2.0461267332935967e7 0.0
2.0461267332935967e7 5.098538546131125e6 0.0
0.0 0.0 0.0

3.2634864287789464e6 5.820077956270375e6 0.0
5.820077956270375e6 -3.730254192558709e7 0.0
0.0 0.0 0.0

-1.2910992316257088e7 -362973.5247921759 0.0
-362973.5247921759 6.127025346704461e6 0.0
0.0 0.0 0.0

-6.97682418521407e6 1.811449680682581e7 0.0
1.811449680682581e7 2.0372361456489593e7 0.0
0.0 0.0 0.0

-1.8458407893511937e6 8.711211206784355e6 0.0
8.711211206784355e6 1.1422654391757958e6 0.0
0.0 0.0 0.0

-1.178222667951775e7 6.897073497429529e6 0.0
6.897073497429529e6 2.3222556334366888e7 0.0
0.0 0.0 0.0

2.7951003333334867e6 6.187150441986705e6 0.0
6.187150441986705e6 -4.298185513768547e7 0.0
0.0 0.0 0.0

8.402576072292417e6 1.7377667711542618e7 0.0
1.7377667711542618e7 2.8008587397804856e7 0.0
0.0 0.0 0.0

7.4696122432081085e6 2.1846068131400473e7 0.0
2.1846068131400473e7 1.1198382951776966e7 0.0
0.0 0.0 0.0

-4.549649685222355e6 1.6743247395274974e7 0.0
1.6743247395274974e7 -2.069006096875276e7 0.0
0.0 0.0 0.0

14683.864444359206 1.3198832270022051e7 0.0
1.3198832270022051e7 -1.1729889801167386e7 0.0
0.0 0.0 0.0

-4.195123085399524e6 2.0192136423468746e7 0.0
2.0192136423468746e7 1.4762983878251962e7 0.0
0.0 0.0 0.0

8.337157028688894e6 1.9560091560113385e7 0.0
1.9560091560113385e7 -278903.0875545051 0.0
0.0 0.0 0.0

1.9895840071701556e6 1.0560615864550166e7 0.0
1.0560615864550166e7 -2.658774177846791e7 0.0
0.0 0.0 0.0

384410.0046285802 2.792830907773267e7 0.0
2.792830907773267e7 -2.6861253479111455e6 0.0
0.0 0.0 0.0

-324106.6676287318 1.6958251953495882e7 0.0
1.6958251953495882e7 3.72877921119672e6 0.0
0.0 0.0 0.0

-6.330972821448382e7 5.1575020014640605e6 0.0
5.1575020014640605e6 5.091391026663564e6 0.0
0.0 0.0 0.0

4.922054433941681e7 6.90692489133943e6 0.0
6.90692489133943e6 -1.2132135907996148e6 0.0
0.0 0.0 0.0

3.0733634582493473e6 1.985700187276299e7 0.0
1.985700187276299e7 8.1319472755995635e6 0.0
0.0 0.0 0.0

-5.524408560605865e6 7.374006562390504e6 0.0
7.374006562390504e6 2.592508831311952e7 0.0
0.0 0.0 0.0

308145.2831939263 1.8708210897050116e7 0.0
1.8708210897050116e7 1.4446239404139718e7 0.0
0.0 0.0 0.0

1.1494295424129227e6 2.341445685311021e7 0.0
2.341445685311021e7 -7.017474527079262e6 0.0
0.0 0.0 0.0

4.279566064739341e6 1.874414011799869e7 0.0
1.874414011799869e7 1.4265220966853086e7 0.0
0.0 0.0 0.0

-1.1556128207616143e7 6.61908210150846e6 0.0
6.61908210150846e6 2.0663440613558915e7 0.0
0.0 0.0 0.0

-3.5675062996481047e6 1.9908132094838645e7 0.0
1.9908132094838645e7 9.772122424770176e6 0.0
0.0 0.0 0.0

-4.157307699522704e7 3.2528449488703486e7 0.0
3.2528449488703486e7 -6.2211262827784745e6 0.0
0.0 0.0 0.0

3.4969981751970425e6 4.354522292674804e6 0.0
4.354522292674804e6 -2.649966179332205e7 0.0
0.0 0.0 0.0

-2.5791843300839765e6 1.950417193348741e7 0.0
1.950417193348741e7 -3.249484181292649e6 0.0
0.0 0.0 0.0

7.772362054385411e6 1.6456214014118155e7 0.0
1.6456214014118155e7 2.9674693092685442e7 0.0
0.0 0.0 0.0

-6.100685100669003e6 1.5607958923970206e7 0.0
1.5607958923970206e7 -2.0335617141570386e7 0.0
0.0 0.0 0.0

4.994741417484375e6 1.6410153777682716e7 0.0
1.6410153777682716e7 1.6649138694238976e7 0.0
0.0 0.0 0.0

-273505.9681979697 1.321130413046789e7 0.0
1.321130413046789e7 -3.449914291638466e7 0.0
0.0 0.0 0.0

-1.0389645783201253e7 800344.0858127797 0.0
800344.0858127797 2.5926084054151066e7 0.0
0.0 0.0 0.0

-1.6466162340433031e7 2.8422939735574245e7 0.0
2.8422939735574245e7 6.262459295666322e6 0.0
0.0 0.0 0.0

2.4824702737075035e6 7.969572124684198e6 0.0
7.969572124684198e6 -1.7373010446077302e7 0.0
0.0 0.0 0.0

-6.173298999189755e6 1.6992751371229786e7 0.0
1.6992751371229786e7 2.7995864703107733e7 0.0
0.0 0.0 0.0

-1.1959777574648047e7 3.999833675888529e6 0.0
3.999833675888529e6 1.740555846624807e7 0.0
0.0 0.0 0.0

-4.602870806809275e6 2.835786415245414e7 0.0
2.835786415245414e7 4.738296319821536e6 0.0
0.0 0.0 0.0

-1.0410720226695508e7 3.208140558479269e7 0.0
3.208140558479269e7 5.883531812200349e6 0.0
0.0 0.0 0.0

-1.16645067320785e7 -953800.368735615 0.0
-953800.368735615 7.10469470728354e6 0.0
0.0 0.0 0.0

-2.6003090631926316e6 1.6166275097828556e7 0.0
1.6166275097828556e7 -1.0087443661512591e7 0.0
0.0 0.0 0.0

803262.4967822796 2.2885500997042462e7 0.0
2.2885500997042462e7 -7.240668912446775e6 0.0
0.0 0.0 0.0

-8.03958018004218e6 2.8319426095958934e6 0.0
2.8319426095958934e6 8.673875450985517e6 0.0
0.0 0.0 0.0

6.970999529075699e6 2.590115056572827e7 0.0
2.590115056572827e7 -5.150837969349138e6 0.0
0.0 0.0 0.0

-1.2314087644679071e7 5.109219216259197e6 0.0
5.109219216259197e6 1.852552847146413e7 0.0
0.0 0.0 0.0

3.289640902475916e6 4.699655137917776e6 0.0
4.699655137917776e6 -3.086540187990014e7 0.0
0.0 0.0 0.0

3.264721772211518e6 5.561441742738356e6 0.0
5.561441742738356e6 -2.7706563868114743e7 0.0
0.0 0.0 0.0

862338.9455693737 1.2941624843214849e7 0.0
1.2941624843214849e7 -1.5150186751745313e7 0.0
0.0 0.0 0.0

909128.1837139078 2.046784246500158e7 0.0
2.046784246500158e7 -1.041520021416058e7 0.0
0.0 0.0 0.0

2.808888534638047e6 5.541467232093159e6 0.0
5.541467232093159e6 -4.5500622309240654e7 0.0
0.0 0.0 0.0

-5.752711169686434e6 2.1536820650826424e7 0.0
2.1536820650826424e7 -1.0989934933394896e7 0.0
0.0 0.0 0.0

829952.9217701247 1.4715437882424178e7 0.0
1.4715437882424178e7 -2.0899970936052598e7 0.0
0.0 0.0 0.0

-9.290291082879338e6 1.712677180423329e7 0.0
1.712677180423329e7 2.2874435732784566e7 0.0
0.0 0.0 0.0

-4.8323051493523745e6 2.1210578255463716e7 0.0
2.1210578255463716e7 -9.799572353849517e6 0.0
0.0 0.0 0.0

2.674648800142331e6 1.0199806977707945e7 0.0
1.0199806977707945e7 -2.6022968332448933e7 0.0
0.0 0.0 0.0

-2.886642288753272e7 2.1998676413383473e7 0.0
2.1998676413383473e7 6.303843352630127e6 0.0
0.0 0.0 0.0

3.3413015030044876e6 3.9523864902304197e6 0.0
3.9523864902304197e6 -3.220788287522047e7 0.0
0.0 0.0 0.0

3.801204796503037e6 5.648944536914585e6 0.0
5.648944536914585e6 -2.7558314337758686e7 0.0
0.0 0.0 0.0

533173.6683104364 1.8756067497994352e7 0.0
1.8756067497994352e7 -1.3160725026512636e7 0.0
0.0 0.0 0.0

-1.692412150528368e7 -645962.0433504711 0.0
-645962.0433504711 8.488768551630814e6 0.0
0.0 0.0 0.0

1.6463867016082145e6 1.0237642231322622e7 0.0
1.0237642231322622e7 -1.0778196615261614e7 0.0
0.0 0.0 0.0

-1.8508337094150884e6 1.714442925931336e7 0.0
1.714442925931336e7 1.9422491401141297e7 0.0
0.0 0.0 0.0

-3.620848112151898e6 2.7194584877423618e7 0.0
2.7194584877423618e7 4.560493659509121e6 0.0
0.0 0.0 0.0

-5.474569151155142e6 2.886111021850321e7 0.0
2.886111021850321e7 5.016256693095025e6 0.0
0.0 0.0 0.0

-1.2528361971861172e7 7.664885972007205e6 0.0
7.664885972007205e6 1.8761184522940613e7 0.0
0.0 0.0 0.0

-4.0177304250982814e6 1.2976771092630198e7 0.0
1.2976771092630198e7 5.417449531207488e7 0.0
0.0 0.0 0.0

-2.6544860364874825e6 2.7589645114674825e7 0.0
2.7589645114674825e7 3.061075030671834e6 0.0
0.0 0.0 0.0

-3.480560881214546e6 1.9806378697206356e7 0.0
1.9806378697206356e7 -1.3246433370640844e6 0.0
0.0 0.0 0.0

-50637.2845992276 1.8433204545962323e7 0.0
1.8433204545962323e7 -4.77385221159061e6 0.0
0.0 0.0 0.0

3.0596222958194572e7 2.1795129457966715e7 0.0
2.1795129457966715e7 1.1776862670669766e7 0.0
0.0 0.0 0.0

-1.1619581676812723e7 8.95491532950035e6 0.0
8.95491532950035e6 2.06386881507473e7 0.0
0.0 0.0 0.0

3.9557460614403896e6 4.169919209681576e6 0.0
4.169919209681576e6 -3.008361143017965e7 0.0
0.0 0.0 0.0

263725.3594313832 1.7854648931530144e7 0.0
1.7854648931530144e7 -1.183082030333595e7 0.0
0.0 0.0 0.0

-2.9798179075574772e6 1.5113065553918688e7 0.0
1.5113065553918688e7 1.9994992984072503e6 0.0
0.0 0.0 0.0

-1.2072530038726024e7 1.8438932229016833e7 0.0
1.8438932229016833e7 4.1872794114424083e6 0.0
0.0 0.0 0.0

-9.978616352113845e6 910429.1578191242 0.0
910429.1578191242 3.1630050225546084e7 0.0
0.0 0.0 0.0

-6.7082242042648606e7 4.15955994051717e7 0.0
4.15955994051717e7 -1.2180683117768632e7 0.0
0.0 0.0 0.0

-9.005757930776736e6 1.6293724301761275e7 0.0
1.6293724301761275e7 -3.0019193957069647e7 0.0
0.0 0.0 0.0

7.417693048569966e6 1.7065423837432966e7 0.0
1.7065423837432966e7 2.4725644301294457e7 0.0
0.0 0.0 0.0

1.0108449618344996e6 1.3764096805698717e7 0.0
1.3764096805698717e7 -2.3538313590345524e7 0.0
0.0 0.0 0.0

-1.1903903689885896e7 2.3050992168066807e7 0.0
2.3050992168066807e7 -3.42307626513186e6 0.0
0.0 0.0 0.0

2.955521764197994e6 8.636401304482333e6 0.0
8.636401304482333e6 -1.628213052553785e7 0.0
0.0 0.0 0.0

3.01764623730639e6 8.936592858899713e6 0.0
8.936592858899713e6 -2.6796396034705628e7 0.0
0.0 0.0 0.0

-5.400417528483513e6 1.895796906372323e7 0.0
1.895796906372323e7 1.7470755508880902e7 0.0
0.0 0.0 0.0

1.8761063186637424e6 1.115013855423276e7 0.0
1.115013855423276e7 -2.5282400556991205e7 0.0
0.0 0.0 0.0

-3.983373087475243e6 2.7783714536774673e7 0.0
2.7783714536774673e7 4.6463406589275645e6 0.0
0.0 0.0 0.0

-1.1747935104184633e7 6.1063027831934625e6 0.0
6.1063027831934625e6 2.8834372813026138e7 0.0
0.0 0.0 0.0

-9.68251391493324e6 -1.4161724715977113e6 0.0
-1.4161724715977113e6 2.4283262264619805e7 0.0
0.0 0.0 0.0

2.8252494165103957e6 7.431448762748933e6 0.0
7.431448762748933e6 -2.7675351022203993e7 0.0
0.0 0.0 0.0

-1.0335692225615729e7 2.1919696210730143e7 0.0
2.1919696210730143e7 -8.259805883012496e6 0.0
0.0 0.0 0.0

3.576659943397372e6 3.004062997864131e7 0.0
3.004062997864131e7 -3.7251412748989286e6 0.0
0.0 0.0 0.0

-8.187407104930322e6 1.7364558332151826e7 0.0
1.7364558332151826e7 2.142585968739661e7 0.0
0.0 0.0 0.0

3.0479678139842823e6 6.036833432548331e6 0.0
6.036833432548331e6 -3.0219192394879274e7 0.0
0.0 0.0 0.0

2.8868258300715797e6 6.132721690203097e6 0.0
6.132721690203097e6 -3.992781219526617e7 0.0
0.0 0.0 0.0

-6.978794746594941e6 1.1855338082677757e7 0.0
1.1855338082677757e7 4.374168452551664e7 0.0
0.0 0.0 0.0

-1.1201397714520425e7 6.330172723065589e6 0.0
6.330172723065589e6 2.9822968722830545e7 0.0
0.0 0.0 0.0

5.375026576234144e6 2.6027589571677182e7 0.0
2.6027589571677182e7 -5.18905902085783e6 0.0
0.0 0.0 0.0

-1.8448687459601779e6 2.1467470614275154e7 0.0
2.1467470614275154e7 -2.31063233208834e6 0.0
0.0 0.0 0.0

-1.0356822414708804e7 4.393795449421581e6 0.0
4.393795449421581e6 3.409644102189925e7 0.0
0.0 0.0 0.0

3.246290582804404e6 4.965553347617264e6 0.0
4.965553347617264e6 -1.7129038307583105e7 0.0
0.0 0.0 0.0

-3.070672721435431e6 2.155444902974743e7 0.0
2.155444902974743e7 605706.9577552672 0.0
0.0 0.0 0.0

-1.5549079393042788e7 2.263169607921748e7 0.0
2.263169607921748e7 -6.898506998865344e6 0.0
0.0 0.0 0.0

-1.0398754141956706e7 9.913565642142916e6 0.0
9.913565642142916e6 1.3827284314508662e7 0.0
0.0 0.0 0.0

3.705810019317517e6 5.527102788166028e6 0.0
5.527102788166028e6 -2.9454778493001252e7 0.0
0.0 0.0 0.0

1.8812892501832703e6 1.11760414846797e7 0.0
1.11760414846797e7 -2.36176768456491e7 0.0
0.0 0.0 0.0

-1.061106620697654e7 9328.653161242726 0.0
9328.653161242726 1.6005789847682517e7 0.0
0.0 0.0 0.0

-1.1806937807915807e7 8.958928065438217e6 0.0
8.958928065438217e6 2.4722493003468778e7 0.0
0.0 0.0 0.0

-173094.99532881938 1.3425296171375588e7 0.0
1.3425296171375588e7 -3.2214024678773575e7 0.0
0.0 0.0 0.0

3.923539931907553e6 5.0539079001135845e6 0.0
5.0539079001135845e6 -2.6956033614599094e7 0.0
0.0 0.0 0.0

-2.3261062220046893e6 2.12361547461676e7 0.0
2.12361547461676e7 -3.8515008464092077e6 0.0
0.0 0.0 0.0

3.364439472710317e6 7.602299565572584e6 0.0
7.602299565572584e6 -2.7527059483096547e7 0.0
0.0 0.0 0.0

-1.0116103806612473e7 1.7892363184921895e6 0.0
1.7892363184921895e6 1.842961857986737e7 0.0
0.0 0.0 0.0

-1.2957863950395254e7 1.8019661675149385e7 0.0
1.8019661675149385e7 -4.319288286492745e7 0.0
0.0 0.0 0.0

1.1170871523896117e7 1.8526324271553e7 0.0
1.8526324271553e7 3.723624079329828e7 0.0
0.0 0.0 0.0

510684.93799546454 1.8757413840533644e7 0.0
1.8757413840533644e7 861636.0330218392 0.0
0.0 0.0 0.0

-2.499014389808218e7 1.3923979472657181e6 0.0
1.3923979472657181e6 7.971388798494205e6 0.0
0.0 0.0 0.0

-9.187048181873124e6 -1.082361172696991e6 0.0
-1.082361172696991e6 1.7898164620123196e7 0.0
0.0 0.0 0.0

5.18369987009387e6 1.8651547295667082e7 0.0
1.8651547295667082e7 1.7278996817116614e7 0.0
0.0 0.0 0.0

-4.639862630364193e6 1.7525347198352404e7 0.0
1.7525347198352404e7 -1.5466206672524929e7 0.0
0.0 0.0 0.0

-3.221419825559918e6 1.3232885398051657e7 0.0
1.3232885398051657e7 5.9438868813163206e7 0.0
0.0 0.0 0.0

2.9460355407813694e6 6.759035524729503e6 0.0
6.759035524729503e6 -2.8952809276504226e7 0.0
0.0 0.0 0.0

550969.8739254773 2.226139978715715e7 0.0
2.226139978715715e7 -8.30672998407045e6 0.0
0.0 0.0 0.0

-6.403185070725175e6 1.6000525768996349e7 0.0
1.6000525768996349e7 -3.2851258961939797e7 0.0
0.0 0.0 0.0

-3.8270110791475037e6 2.6267007931913096e7 0.0
2.6267007931913096e7 4.002053862306416e6 0.0
0.0 0.0 0.0

-4.465718984589435e6 2.132189871130305e7 0.0
2.132189871130305e7 7.825604928417588e6 0.0
0.0 0.0 0.0

-127478.88610769878 2.614344323611605e7 0.0
2.614344323611605e7 -3.598668140236026e6 0.0
0.0 0.0 0.0

-1.1325120336627305e7 1.6668959665400103e7 0.0
1.6668959665400103e7 -4.53252607140248e7 0.0
0.0 0.0 0.0

4.064244971951927e6 2.598150478719072e7 0.0
2.598150478719072e7 -5.197165430999447e6 0.0
0.0 0.0 0.0

-8.251576673593584e6 1.634439447005371e7 0.0
1.634439447005371e7 2.7357652028166622e7 0.0
0.0 0.0 0.0

2.1491026699638823e6 9.12559347003632e6 0.0
9.12559347003632e6 -1.7063901824036337e7 0.0
0.0 0.0 0.0

3.1048850915831123e6 6.146680455135356e6 0.0
6.146680455135356e6 -2.8330051538362827e7 0.0
0.0 0.0 0.0

784776.9960731808 2.1291032730326667e7 0.0
2.1291032730326667e7 -9.488106984916696e6 0.0
0.0 0.0 0.0

-1.97137152131039e6 1.5128988736324454e7 0.0
1.5128988736324454e7 -6.089978168426283e6 0.0
0.0 0.0 0.0

2.0567058922561724e6 9.21433542367152e6 0.0
9.21433542367152e6 -3.1621365256961588e7 0.0
0.0 0.0 0.0

-3.405181992190184e6 2.5085263246685777e7 0.0
2.5085263246685777e7 4.791114395834619e6 0.0
0.0 0.0 0.0

-2.510330063000055e6 1.7049015862808146e7 0.0
1.7049015862808146e7 -314703.05481765966 0.0
0.0 0.0 0.0

798037.9977179337 1.4919534397598011e7 0.0
1.4919534397598011e7 -1.2884369416344794e7 0.0
0.0 0.0 0.0

1.4136093158632629e6 1.1875607129836122e7 0.0
1.1875607129836122e7 -3.03936984252508e7 0.0
0.0 0.0 0.0

2.164577488286617e6 2.5471974492292214e7 0.0
2.5471974492292214e7 -5.325400533803593e6 0.0
0.0 0.0 0.0

364264.2431064518 1.6715067779464144e7 0.0
1.6715067779464144e7 -1.1912420069778536e7 0.0
0.0 0.0 0.0

-1.570562927742849e6 1.5297899097743666e7 0.0
1.5297899097743666e7 -5.205509723155296e6 0.0
0.0 0.0 0.0

2.403332604680674e7 5.663085762085286e6 0.0
5.663085762085286e6 -2.625351368727957e6 0.0
0.0 0.0 0.0

-3.5463826931396257e6 1.8133105067668144e7 0.0
1.8133105067668144e7 6.902846227953575e6 0.0
0.0 0.0 0.0

-9.248757833320204e6 9.02624313039521e6 0.0
9.02624313039521e6 1.5481761314497933e7 0.0
0.0 0.0 0.0

-1.0210456493905181e7 508203.8498286026 0.0
508203.8498286026 2.800338493558696e7 0.0
0.0 0.0 0.0

4.1755829503717516e6 3.86139422565843e6 0.0
3.86139422565843e6 -2.569874611182012e7 0.0
0.0 0.0 0.0

3.465232208488034e6 6.293107238569284e6 0.0
6.293107238569284e6 -1.9292662374575563e7 0.0
0.0 0.0 0.0

3.9596914515227936e6 5.182758537906575e6 0.0
5.182758537906575e6 -2.5074278756936077e7 0.0
0.0 0.0 0.0

-3.796769416921661e6 1.705113703082607e7 0.0
1.705113703082607e7 -1.961667578966001e7 0.0
0.0 0.0 0.0

3.0217287846566755e6 2.5772079175204746e7 0.0
2.5772079175204746e7 -5.2399527846359825e6 0.0
0.0 0.0 0.0

-8.28761422262115e6 1.6640843708430568e7 0.0
1.6640843708430568e7 2.5734002418528162e7 0.0
0.0 0.0 0.0

-4.185377183273725e6 1.862564805432816e7 0.0
1.862564805432816e7 6.047001450288989e6 0.0
0.0 0.0 0.0

3.304061140193859e6 5.717226806280922e6 0.0
5.717226806280922e6 -2.5953156579522006e7 0.0
0.0 0.0 0.0

-1.155196064318002e7 2.8558057033619257e6 0.0
2.8558057033619257e6 1.6575616228356153e7 0.0
0.0 0.0 0.0

-8.541527418926047e6 1.7643548713285692e7 0.0
1.7643548713285692e7 2.2740615394770466e7 0.0
0.0 0.0 0.0

528563.6432283185 1.8458624848163504e7 0.0
1.8458624848163504e7 -1.414249550529629e7 0.0
0.0 0.0 0.0

939854.7441385721 1.9090555191840004e7 0.0
1.9090555191840004e7 -5.70100019619642e6 0.0
0.0 0.0 0.0

-3.527050790445496e6 2.6018361335298467e7 0.0
2.6018361335298467e7 5.2309424643735215e6 0.0
0.0 0.0 0.0

1.3970905042444654e6 1.4579808484564627e7 0.0
1.4579808484564627e7 -2.071271170640071e7 0.0
0.0 0.0 0.0

3.678199323949836e6 6.368736689594929e6 0.0
6.368736689594929e6 -2.6384195870054994e7 0.0
0.0 0.0 0.0

3.175833320655562e6 6.276543347001644e6 0.0
6.276543347001644e6 -2.653235294399166e7 0.0
0.0 0.0 0.0

1.928117189508182e6 8.245468329524407e6 0.0
8.245468329524407e6 -1.3886284555470327e7 0.0
0.0 0.0 0.0

3.000120772413466e6 6.833934602500985e6 0.0
6.833934602500985e6 -2.713373867608945e7 0.0
0.0 0.0 0.0

3.9599496217441997e6 5.641613408300121e6 0.0
5.641613408300121e6 -2.2095357754679114e7 0.0
0.0 0.0 0.0

-7.055422917090448e6 3.0937349842208732e7 0.0
3.0937349842208732e7 5.228794276706539e6 0.0
0.0 0.0 0.0

5.465796921984145e6 2.7320410178771637e7 0.0
2.7320410178771637e7 -4.995949580637522e6 0.0
0.0 0.0 0.0

-5.011335208699714e6 2.2227976504017267e7 0.0
2.2227976504017267e7 7.975655686801083e6 0.0
0.0 0.0 0.0

3.172658298424991e6 6.197319946563487e6 0.0
6.197319946563487e6 -2.298961327375013e7 0.0
0.0 0.0 0.0

-1.9329283955454133e6 1.8483703106705695e7 0.0
1.8483703106705695e7 -6.764348654896918e6 0.0
0.0 0.0 0.0

-1.125173064451674e6 1.5892460531751098e7 0.0
1.5892460531751098e7 -225303.38644339773 0.0
0.0 0.0 0.0

-1.7161698715076506e7 2.0250082544831045e7 0.0
2.0250082544831045e7 -5.7205676094296865e7 0.0
0.0 0.0 0.0

1.6362825263868637e7 2.16659566266564e7 0.0
2.16659566266564e7 5.454276830573606e7 0.0
0.0 0.0 0.0

1.0051791672382643e7 1.988618058293827e7 0.0
1.988618058293827e7 -290759.6792524727 0.0
0.0 0.0 0.0

1.5460320828119555e7 2.116871636993152e7 0.0
2.116871636993152e7 -971020.9029386789 0.0
0.0 0.0 0.0

1.3181597884358335e6 6.678737818325462e6 0.0
6.678737818325462e6 -5.026130580660977e7 0.0
0.0 0.0 0.0

844802.6490004277 1.6996010566790123e7 0.0
1.6996010566790123e7 -1.6057188743513685e7 0.0
0.0 0.0 0.0

-808112.2293913257 1.906272724404875e7 0.0
1.906272724404875e7 1.2479374586710919e7 0.0
0.0 0.0 0.0

-1.136279822900639e7 5.72370352356774e6 0.0
5.72370352356774e6 3.115379683206564e7 0.0
0.0 0.0 0.0

-7.530755587954063e6 1.5704221130096937e7 0.0
1.5704221130096937e7 3.1120545074506536e7 0.0
0.0 0.0 0.0

-2.9411045794147714e6 2.038687223042001e7 0.0
2.038687223042001e7 7.450721753214866e6 0.0
0.0 0.0 0.0

-963798.8328500872 1.473330852854694e7 0.0
1.473330852854694e7 -5.465392267548596e6 0.0
0.0 0.0 0.0

-1.1444757150606742e7 2.4628090414006654e7 0.0
2.4628090414006654e7 -9.74632043463946e6 0.0
0.0 0.0 0.0

-3.964600510037397e6 2.080702254077676e7 0.0
2.080702254077676e7 1.3306555363312632e7 0.0
0.0 0.0 0.0

-7.911691869342703e6 1.3210891007324424e7 0.0
1.3210891007324424e7 1.1961582023787152e7 0.0
0.0 0.0 0.0

-3.2253782994170003e6 2.130002530569988e7 0.0
2.130002530569988e7 4.753726879016977e6 0.0
0.0 0.0 0.0

3.1138232614293396e6 6.654461845426454e6 0.0
6.654461845426454e6 -3.5708113751955196e7 0.0
0.0 0.0 0.0

3.4920456713403836e6 7.260537242932952e6 0.0
7.260537242932952e6 -1.8270934695487358e7 0.0
0.0 0.0 0.0

-57873.93343280628 1.885983613623845e7 0.0
1.885983613623845e7 -1.2540807838852843e7 0.0
0.0 0.0 0.0

1.729346988122427e6 1.1816512748166203e7 0.0
1.1816512748166203e7 -2.248665236331702e7 0.0
0.0 0.0 0.0

-9.567208700872188e6 8.080440631706121e6 0.0
8.080440631706121e6 3.81945030081691e7 0.0
0.0 0.0 0.0

-6.603635566897598e6 2.6553919030736065e6 0.0
2.6553919030736065e6 7.069452966182478e6 0.0
0.0 0.0 0.0

-7.5445667104121e6 7.216289805895954e6 0.0
7.216289805895954e6 4.898738733333401e7 0.0
0.0 0.0 0.0

-417110.8096530102 1.8064882580435243e7 0.0
1.8064882580435243e7 -1.2153664000772264e7 0.0
0.0 0.0 0.0

-4.604779898011485e6 2.2593727078878913e7 0.0
2.2593727078878913e7 9.14588388717049e6 0.0
0.0 0.0 0.0

-8.716991988120165e6 1.1693115598141756e7 0.0
1.1693115598141756e7 1.622056872470435e7 0.0
0.0 0.0 0.0

1.8256182962033595e6 2.373381179195508e7 0.0
2.373381179195508e7 -6.637927230074957e6 0.0
0.0 0.0 0.0

-1.0358177208287312e7 7.602538830130803e6 0.0
7.602538830130803e6 1.3502254558311205e7 0.0
0.0 0.0 0.0

-5.10313811376934e6 2.0163346089285694e7 0.0
2.0163346089285694e7 1.4723613257734302e7 0.0
0.0 0.0 0.0

2.1100345165646926e7 2.5272275289863147e7 0.0
2.5272275289863147e7 -6.777471508133343e6 0.0
0.0 0.0 0.0

-8.231442941853638e6 1.801892662315106e7 0.0
1.801892662315106e7 2.016714172507961e7 0.0
0.0 0.0 0.0

-3.7179149752633465e6 3.8297438671735856e6 0.0
3.8297438671735856e6 6.28627682671509e6 0.0
0.0 0.0 0.0

-2.808097257499731e7 1.4931958162422746e6 0.0
1.4931958162422746e6 8.263452414302722e6 0.0
0.0 0.0 0.0

3.586414138033945e6 4.418680089250363e6 0.0
4.418680089250363e6 -2.805157905884439e7 0.0
0.0 0.0 0.0

-7.419166313497197e6 2.7702177080516156e7 0.0
2.7702177080516156e7 6.174530005091825e6 0.0
0.0 0.0 0.0

-1.072319617282275e7 635785.3260683634 0.0
635785.3260683634 1.4185226495242633e7 0.0
0.0 0.0 0.0

-3.4953193344183825e6 1.2692871176048946e7 0.0
1.2692871176048946e7 -603222.7510041735 0.0
0.0 0.0 0.0

-1.1265987526084706e7 1.727392684656872e6 0.0
1.727392684656872e6 2.5616530731623445e7 0.0
0.0 0.0 0.0

142504.79273546394 1.8454112106343117e7 0.0
1.8454112106343117e7 -1.4212935390738217e7 0.0
0.0 0.0 0.0

-1.0872789834487103e7 356466.44278533856 0.0
356466.44278533856 2.712441954534483e7 0.0
0.0 0.0 0.0

475714.5577505147 1.5245369127391983e7 0.0
1.5245369127391983e7 -1.566728201002718e7 0.0
0.0 0.0 0.0

-7.97879596414848e6 1.729912041913093e7 0.0
1.729912041913093e7 2.46263087577521e7 0.0
0.0 0.0 0.0

-1.0663647984039713e7 1.078479783187321e7 0.0
1.078479783187321e7 1.4831157312470691e7 0.0
0.0 0.0 0.0

-5.964356843613755e6 1.6151798186002374e7 0.0
1.6151798186002374e7 3.134089098241491e7 0.0
0.0 0.0 0.0

-1.0267408595227823e7 1.4854826358251367e7 0.0
1.4854826358251367e7 1.863040308678443e7 0.0
0.0 0.0 0.0

-2.9818057264841013e6 2.226967073471587e7 0.0
2.226967073471587e7 634368.8286850849 0.0
0.0 0.0 0.0

2.9725612507766616e6 7.38299831662797e6 0.0
7.38299831662797e6 -3.411803260970787e7 0.0
0.0 0.0 0.0

-6.235465550502863e6 1.7347263584851015e7 0.0
1.7347263584851015e7 2.6692984616266683e7 0.0
0.0 0.0 0.0

1.0672381829962654e7 1.997392333868244e7 0.0
1.997392333868244e7 6.192564341617534e6 0.0
0.0 0.0 0.0

-1.9200909984458357e7 1.069195192143181e7 0.0
1.069195192143181e7 9.637616275161358e6 0.0
0.0 0.0 0.0

1.8805754866241347e6 1.1067642673266921e7 0.0
1.1067642673266921e7 -3.0136992162715897e7 0.0
0.0 0.0 0.0

-7.148408032422205e6 1.2646248967408892e7 0.0
1.2646248967408892e7 1.4524588859745596e7 0.0
0.0 0.0 0.0

2.6835018064982016e6 9.294759974128868e6 0.0
9.294759974128868e6 -1.5301809946620455e7 0.0
0.0 0.0 0.0

-8.984117364927929e6 -159874.928859974 0.0
-159874.928859974 1.548840296246183e7 0.0
0.0 0.0 0.0

-1.0549149303638514e7 -1.3851274445502202e6 0.0
-1.3851274445502202e6 2.137502590272501e7 0.0
0.0 0.0 0.0

1.1609720963179925e6 1.352014354446368e7 0.0
1.352014354446368e7 -1.8959182495935407e7 0.0
0.0 0.0 0.0

-1.1170884780191021e7 5.650119794923653e6 0.0
5.650119794923653e6 1.974440262402314e7 0.0
0.0 0.0 0.0

-5.288491365516014e6 2.313406122772439e7 0.0
2.313406122772439e7 8.058725948773221e6 0.0
0.0 0.0 0.0

4.307917823772836e6 1.6058125185576148e7 0.0
1.6058125185576148e7 7.175922980697241e6 0.0
0.0 0.0 0.0

-249188.77227440896 7.591639855725196e6 0.0
7.591639855725196e6 -1.8556131057526448e6 0.0
0.0 0.0 0.0

134087.75141548878 1.863564769628351e7 0.0
1.863564769628351e7 -1.1251727033265343e7 0.0
0.0 0.0 0.0

2.8359540535831368e6 7.514913525207001e6 0.0
7.514913525207001e6 -2.0885782206211966e7 0.0
0.0 0.0 0.0

57875.214444466634 2.547087255940593e7 0.0
2.547087255940593e7 -4.378744833285931e6 0.0
0.0 0.0 0.0

-4.69244569703785e6 1.4784488479858108e7 0.0
1.4784488479858108e7 -5.728559211954431e7 0.0
0.0 0.0 0.0

2.950169220801824e6 5.576672899887311e6 0.0
5.576672899887311e6 -1.6017891953450888e7 0.0
0.0 0.0 0.0

3.3500406018059496e6 5.563513188577933e6 0.0
5.563513188577933e6 -2.245166017138677e7 0.0
0.0 0.0 0.0

-3.150545518864815e6 1.7146860444335323e7 0.0
1.7146860444335323e7 -1.7938074639199037e7 0.0
0.0 0.0 0.0

-1.0016776434129346e6 8.158553957971471e6 0.0
8.158553957971471e6 -414933.50265050074 0.0
0.0 0.0 0.0

-1.3145677715807632e7 1.7386437115159824e7 0.0
1.7386437115159824e7 -5.2349746345947124e7 0.0
0.0 0.0 0.0

2.0482003090615212e6 7.906712539721502e6 0.0
7.906712539721502e6 -9.470827833912473e6 0.0
0.0 0.0 0.0

3.0406219074890856e6 8.12922158419325e6 0.0
8.12922158419325e6 -1.5531623093073841e7 0.0
0.0 0.0 0.0

-533400.748944159 1.8312390617104862e7 0.0
1.8312390617104862e7 -2.4169838598971292e6 0.0
0.0 0.0 0.0

-9.489129419499805e6 1.2643590071844433e7 0.0
1.2643590071844433e7 3.2696404125910245e7 0.0
0.0 0.0 0.0

-2.8514010735081774e6 2.7018769744764637e7 0.0
2.7018769744764637e7 1.7061825225514402e6 0.0
0.0 0.0 0.0

-1.1660117977176948e7 8.166540204563763e6 0.0
8.166540204563763e6 8.933617026065426e6 0.0
0.0 0.0 0.0

1.5916252337515391e6 1.2338687218348993e7 0.0
1.2338687218348993e7 -2.125946546527472e7 0.0
0.0 0.0 0.0

637211.7828486515 1.8813040032956652e7 0.0
1.8813040032956652e7 1.647853666039839e7 0.0
0.0 0.0 0.0

112609.81378978095 2.4804634219439715e7 0.0
2.4804634219439715e7 -5.211516561976369e6 0.0
0.0 0.0 0.0

-534533.6493048514 1.3383515844689436e7 0.0
1.3383515844689436e7 -9.76110652897577e6 0.0
0.0 0.0 0.0

1.2603016620478476e6 2.4223776968660917e7 0.0
2.4223776968660917e7 -6.260635890924485e6 0.0
0.0 0.0 0.0

633900.9678049106 1.3794833798368288e7 0.0
1.3794833798368288e7 -1.0803867056845004e7 0.0
0.0 0.0 0.0

-9.273928974648109e6 -2.6012271510892496e6 0.0
-2.6012271510892496e6 1.5792801023351446e7 0.0
0.0 0.0 0.0

-297827.0588805997 1.8270687521346327e7 0.0
1.8270687521346327e7 -1.260303297779071e7 0.0
0.0 0.0 0.0

1.1166311703453705e7 3.897308496037038e7 0.0
3.897308496037038e7 -7.342922856584178e6 0.0
0.0 0.0 0.0

4.707503516886501e6 2.1345310399105128e7 0.0
2.1345310399105128e7 -4.66859020252853e6 0.0
0.0 0.0 0.0

654514.191206458 1.7761861558990635e7 0.0
1.7761861558990635e7 -1.513103424571114e7 0.0
0.0 0.0 0.0

-4.0372042798885293e6 1.4478503682005217e7 0.0
1.4478503682005217e7 6.312126709718496e6 0.0
0.0 0.0 0.0

-3.342047152802358e6 1.7464629807497308e7 0.0
1.7464629807497308e7 -989449.2088410492 0.0
0.0 0.0 0.0

4.0959925156365763e6 3.4494006804068424e6 0.0
3.4494006804068424e6 -2.7050715651651748e7 0.0
0.0 0.0 0.0

3.176791375479185e6 4.250362670271999e6 0.0
4.250362670271999e6 -1.1585243430401377e7 0.0
0.0 0.0 0.0

-3.4925772749596722e6 9.324146633017218e6 0.0
9.324146633017218e6 181505.55176729336 0.0
0.0 0.0 0.0

-8.186853917515755e6 2.100352304887752e7 0.0
2.100352304887752e7 -1.7196756196787576e6 0.0
0.0 0.0 0.0

3.089810570383574e6 6.015387931500064e6 0.0
6.015387931500064e6 -1.8788137267847545e7 0.0
0.0 0.0 0.0

92274.26922938507 1.5530333602297006e7 0.0
1.5530333602297006e7 -1.3924278414765315e7 0.0
0.0 0.0 0.0

-844148.3449959736 1.9109614386805244e7 0.0
1.9109614386805244e7 1.0181220261955578e7 0.0
0.0 0.0 0.0

2.401894107026102e6 1.1442567650017932e7 0.0
1.1442567650017932e7 -2.188773254728883e7 0.0
0.0 0.0 0.0

-1.079420226701724e7 4.430868836076514e6 0.0
4.430868836076514e6 1.8837930010730732e7 0.0
0.0 0.0 0.0

-2.481146623942241e7 2.836263810655957e7 0.0
2.836263810655957e7 4.949829459705036e6 0.0
0.0 0.0 0.0

2.5278757098160144e6 1.0816012798567258e7 0.0
1.0816012798567258e7 -2.474714047269763e7 0.0
0.0 0.0 0.0

-5.028452675652169e7 3.860860670352723e6 0.0
3.860860670352723e6 6.015644833051059e6 0.0
0.0 0.0 0.0

2.7412623082658304e6 7.276063976142196e6 0.0
7.276063976142196e6 -1.840332750307842e7 0.0
0.0 0.0 0.0

-4.56459886004456e6 1.9005877687324483e7 0.0
1.9005877687324483e7 1.945204562166331e7 0.0
0.0 0.0 0.0

-41485.63989480585 1.3642209114940181e7 0.0
1.3642209114940181e7 -3.0481606761904046e7 0.0
0.0 0.0 0.0

868543.1682704398 1.464631237268151e7 0.0
1.464631237268151e7 -2.35146694515481e7 0.0
0.0 0.0 0.0

-7.231385974427176e6 2.5453976884581842e6 0.0
2.5453976884581842e6 1.1707737800383473e7 0.0
0.0 0.0 0.0

-1.2516296798768569e7 8.587065018820526e6 0.0
8.587065018820526e6 2.3544802338833097e7 0.0
0.0 0.0 0.0

-2.9501387922468395e6 1.4864149451800676e7 0.0
1.4864149451800676e7 -2.76058340968105e6 0.0
0.0 0.0 0.0

-4.541769902331838e6 1.3743132410028275e7 0.0
1.3743132410028275e7 7.826626343143809e6 0.0
0.0 0.0 0.0

-1.2044631688418217e7 7.595826411478576e6 0.0
7.595826411478576e6 2.711435074509427e7 0.0
0.0 0.0 0.0

-1.8759635315920506e6 1.4436321660025688e7 0.0
1.4436321660025688e7 -2.0832253049791371e6 0.0
0.0 0.0 0.0

-179733.0348779573 1.7493218976124693e7 0.0
1.7493218976124693e7 -1.3242180871073585e7 0.0
0.0 0.0 0.0

34148.56657676352 1.842648936354455e7 0.0
1.842648936354455e7 -1.0747262164396755e7 0.0
0.0 0.0 0.0

-297737.7874777387 1.8972205546568926e7 0.0
1.8972205546568926e7 -1.1973674782841336e7 0.0
0.0 0.0 0.0

744378.2580786962 1.4649403610369744e7 0.0
1.4649403610369744e7 -1.6717946026612625e7 0.0
0.0 0.0 0.0

1.8787221073939037e6 8.796570395422751e6 0.0
8.796570395422751e6 -1.4625439950817484e7 0.0
0.0 0.0 0.0

-674916.91693675 1.8051400156707946e7 0.0
1.8051400156707946e7 -5.667217541171419e6 0.0
0.0 0.0 0.0

-571018.1412566653 1.783803705988683e7 0.0
1.783803705988683e7 -1.170131808431012e7 0.0
0.0 0.0 0.0

132957.94776418013 1.3984954336114144e7 0.0
1.3984954336114144e7 -8.845227131864466e6 0.0
0.0 0.0 0.0

-1.015120748780734e7 3.446488284130708e6 0.0
3.446488284130708e6 1.779066109054494e7 0.0
0.0 0.0 0.0

944090.3422420137 1.410666765281305e7 0.0
1.410666765281305e7 -1.784937424097866e7 0.0
0.0 0.0 0.0

-1.4781024289594254e7 1.9034493862245902e7 0.0
1.9034493862245902e7 -4.927008153998666e7 0.0
0.0 0.0 0.0

-6.4618743397546895e6 4.28231953890677e6 0.0
4.28231953890677e6 1.075429617961509e7 0.0
0.0 0.0 0.0

2.416227050807882e6 8.463978656105427e6 0.0
8.463978656105427e6 -1.806920432769966e7 0.0
0.0 0.0 0.0

-141766.60736137792 7.13554434685331e6 0.0
7.13554434685331e6 -5.35012586278807e6 0.0
0.0 0.0 0.0

-3.4255374979210068e6 1.3948864952643275e7 0.0
1.3948864952643275e7 -5.1761804176543064e7 0.0
0.0 0.0 0.0

-5.199006888705288e6 1.4521768823101314e7 0.0
1.4521768823101314e7 1.0804591907883894e7 0.0
0.0 0.0 0.0

3.5442989367229836e6 6.7561000995729845e6 0.0
6.7561000995729845e6 -1.7572754888723973e7 0.0
0.0 0.0 0.0

-1.2659451908258185e7 8.046081299395969e6 0.0
8.046081299395969e6 2.1064154576064244e7 0.0
0.0 0.0 0.0

-9.047380748361014e6 1.5636540083718628e6 0.0
1.5636540083718628e6 4.056885023007759e7 0.0
0.0 0.0 0.0

457453.8564730657 1.766140801515736e7 0.0
1.766140801515736e7 -1.786479874303835e6 0.0
0.0 0.0 0.0

1.3839167768931547e6 1.602112223225938e7 0.0
1.602112223225938e7 4.306469212866446e6 0.0
0.0 0.0 0.0

-6.888474607220776e6 2.335356862042512e7 0.0
2.335356862042512e7 7.563764439276021e6 0.0
0.0 0.0 0.0

-3.7179845551991337e6 1.9616264954174597e7 0.0
1.9616264954174597e7 3.5737258858084707e6 0.0
0.0 0.0 0.0

3.8061656399239767e6 4.861535291033555e6 0.0
4.861535291033555e6 -3.071402170796979e7 0.0
0.0 0.0 0.0

3.799265994659703e6 5.472560970196532e6 0.0
5.472560970196532e6 -3.1151824370968886e7 0.0
0.0 0.0 0.0

-1.1020502510171298e7 1.3949905930705732e7 0.0
1.3949905930705732e7 2.4576547561883606e7 0.0
0.0 0.0 0.0

4536.111535875127 1.6693376466836186e7 0.0
1.6693376466836186e7 -1.3900977243141856e7 0.0
0.0 0.0 0.0

6.952012396028655e6 2.0230873008266393e7 0.0
2.0230873008266393e7 394273.03155129915 0.0
0.0 0.0 0.0

-9.096447175539475e6 3.8850933986662845e6 0.0
3.8850933986662845e6 4.633243195200829e7 0.0
0.0 0.0 0.0

-3.84129163310543e6 1.750146349524782e7 0.0
1.750146349524782e7 8.357636653991591e6 0.0
0.0 0.0 0.0

-1.1095936565994837e6 1.6475682969358955e7 0.0
1.6475682969358955e7 -9.43754959611181e6 0.0
0.0 0.0 0.0

-2.878646800326053e6 1.534822379943541e7 0.0
1.534822379943541e7 4.6635393424945146e7 0.0
0.0 0.0 0.0

163744.3412166072 5.1055227189968e6 0.0
5.1055227189968e6 -1.029217210194156e6 0.0
0.0 0.0 0.0

-1.1209569309376604e6 2.14798307988287e7 0.0
2.14798307988287e7 -7.179098739854124e6 0.0
0.0 0.0 0.0

3.6364773557201903e6 1.9525122199453525e7 0.0
1.9525122199453525e7 1.4876244257814389e7 0.0
0.0 0.0 0.0

3.191386145103275e6 7.969341140317014e6 0.0
7.969341140317014e6 -1.72776866235125e7 0.0
0.0 0.0 0.0

-3.120052374646692e6 1.3254736293923471e7 0.0
1.3254736293923471e7 -1.8785698970225335e6 0.0
0.0 0.0 0.0

-7.109397402372707e6 1.4579265198800026e7 0.0
1.4579265198800026e7 3.572508170744136e7 0.0
0.0 0.0 0.0

2.719741076884648e6 8.865730474771611e6 0.0
8.865730474771611e6 -3.1077585394769162e7 0.0
0.0 0.0 0.0

734784.4668051125 1.7281537550162967e7 0.0
1.7281537550162967e7 -1.6250991839220328e7 0.0
0.0 0.0 0.0

-9.828530688385148e6 -25305.77397656984 0.0
-25305.77397656984 3.2777646186096653e7 0.0
0.0 0.0 0.0

2.3196024032058977e6 1.0242266880836992e7 0.0
1.0242266880836992e7 -2.978118603321535e7 0.0
0.0 0.0 0.0

351550.04649143876 9.862032389150828e6 0.0
9.862032389150828e6 -6.202784388764254e6 0.0
0.0 0.0 0.0

3.2333018764651436e6 8.312787368913694e6 0.0
8.312787368913694e6 -2.625926803804099e7 0.0
0.0 0.0 0.0

214890.97042622697 1.397335000414945e7 0.0
1.397335000414945e7 -1.3148492146705687e7 0.0
0.0 0.0 0.0

195410.84374108724 1.5842424964721918e7 0.0
1.5842424964721918e7 -1.4511725025323765e7 0.0
0.0 0.0 0.0

-1.2062038772962486e7 6.333037857677923e6 0.0
6.333037857677923e6 2.6560874767021004e7 0.0
0.0 0.0 0.0

2.707264015638205e6 1.905414868076817e7 0.0
1.905414868076817e7 3.913707881460615e6 0.0
0.0 0.0 0.0

-1.0127317510175776e7 2.2485875480146147e6 0.0
2.2485875480146147e6 1.6676856721638497e7 0.0
0.0 0.0 0.0

1.3242502644131137e6 1.5096518968361706e7 0.0
1.5096518968361706e7 -1.96373786716279e7 0.0
0.0 0.0 0.0

-3.173535526275828e6 5.308497795639453e6 0.0
5.308497795639453e6 4.972747193672728e6 0.0
0.0 0.0 0.0

920530.4150348562 5.385330706379193e6 0.0
5.385330706379193e6 -6.446501193459789e6 0.0
0.0 0.0 0.0

19896.363957739435 1.522500748137635e7 0.0
1.522500748137635e7 -1.3366137214572756e7 0.0
0.0 0.0 0.0

3.84810403165836e6 5.372827360189723e6 0.0
5.372827360189723e6 -1.782470397480622e7 0.0
0.0 0.0 0.0

-1.1638652804918505e7 2.1277248149020127e6 0.0
2.1277248149020127e6 2.3374479128831886e7 0.0
0.0 0.0 0.0

2.7820663563806415e6 3.4816621933265384e6 0.0
3.4816621933265384e6 -4.5090196777441636e7 0.0
0.0 0.0 0.0

-1.1851617858574018e6 1.663615225267257e7 0.0
1.663615225267257e7 -3.9505388268851354e6 0.0
0.0 0.0 0.0

-1.252269632916622e7 9.909399870613636e6 0.0
9.909399870613636e6 1.8882481510659754e7 0.0
0.0 0.0 0.0

-7.751148788119128e6 2.2401190883140106e7 0.0
2.2401190883140106e7 5.39014077651288e6 0.0
0.0 0.0 0.0

2.1497071498572063e6 1.9864615506325196e7 0.0
1.9864615506325196e7 7.893141079111108e6 0.0
0.0 0.0 0.0

-7.738391931648573e6 1.777537744327814e7 0.0
1.777537744327814e7 2.361080987392703e7 0.0
0.0 0.0 0.0

-6.151185846140441e6 1.8502196325673234e7 0.0
1.8502196325673234e7 1.8944084248654902e7 0.0
0.0 0.0 0.0

-9.496591978306578e6 -2.083198262777469e6 0.0
-2.083198262777469e6 3.270641207740463e7 0.0
0.0 0.0 0.0

-3.282649673299236e6 1.3377958468011735e7 0.0
1.3377958468011735e7 3.3648435484042773e6 0.0
0.0 0.0 0.0

4.1742044659450776e6 1.9504755937789854e7 0.0
1.9504755937789854e7 1.4213789027006457e7 0.0
0.0 0.0 0.0

-4.106562543558378e6 2.1115027475600556e7 0.0
2.1115027475600556e7 1.1021618001886172e7 0.0
0.0 0.0 0.0

-1.2548055619344639e7 7.556061300481693e6 0.0
7.556061300481693e6 2.2786185340739995e7 0.0
0.0 0.0 0.0

1.087197134911417e6 1.3753419255378507e7 0.0
1.3753419255378507e7 -2.2089341197221182e7 0.0
0.0 0.0 0.0

2.648463363736558e6 6.928596597093571e6 0.0
6.928596597093571e6 -1.5834164005961858e7 0.0
0.0 0.0 0.0

705242.3722514352 1.6455000454563491e7 0.0
1.6455000454563491e7 -1.353026410868915e7 0.0
0.0 0.0 0.0

-3.203981051547611e6 1.2116073661295863e7 0.0
1.2116073661295863e7 3.2736584684615796e6 0.0
0.0 0.0 0.0

3.265661384734151e6 5.317350466516794e6 0.0
5.317350466516794e6 -1.1659879440873872e7 0.0
0.0 0.0 0.0

-1.2676776602817923e6 2.1999654116299964e7 0.0
2.1999654116299964e7 -6.134934380269487e6 0.0
0.0 0.0 0.0

-9.393718094164392e6 2.8629507926661302e6 0.0
2.8629507926661302e6 3.8687228972251184e7 0.0
0.0 0.0 0.0

-9.944002570864897e6 994297.0724970988 0.0
994297.0724970988 3.387436161989314e7 0.0
0.0 0.0 0.0

-1.043035851113437e7 1.0829707125716815e7 0.0
1.0829707125716815e7 3.2837989540367536e7 0.0
0.0 0.0 0.0

-717041.1762517546 2.0171156151092973e7 0.0
2.0171156151092973e7 -9.845566962905195e6 0.0
0.0 0.0 0.0

-1.734915930294552e6 8.2195219462047545e6 0.0
8.2195219462047545e6 -2.850800364174034e6 0.0
0.0 0.0 0.0

1.3154048111621976e7 2.142785958188625e7 0.0
2.142785958188625e7 1.0893863051761847e7 0.0
0.0 0.0 0.0

1.01355289954194e7 2.027911210662865e7 0.0
2.027911210662865e7 4.312896320354161e7 0.0
0.0 0.0 0.0

3.486665593337603e6 6.313878757083838e6 0.0
6.313878757083838e6 -1.4851893268766247e7 0.0
0.0 0.0 0.0

-1.1037750332323698e7 4.043571271410834e6 0.0
4.043571271410834e6 2.0616598695927933e7 0.0
0.0 0.0 0.0

-3.296450812953595e6 1.455757259420787e7 0.0
1.455757259420787e7 3.3889978717339635e6 0.0
0.0 0.0 0.0

-5.161838275819926e6 1.9923253872722737e7 0.0
1.9923253872722737e7 1.4450406397995468e7 0.0
0.0 0.0 0.0

3.4756956554939933e6 5.880090680722854e6 0.0
5.880090680722854e6 -3.336595248444086e7 0.0
0.0 0.0 0.0

3.460189656357918e6 6.859892492349607e6 0.0
6.859892492349607e6 -2.8796556425032064e7 0.0
0.0 0.0 0.0

-5.236220948796033e6 5.941165414375398e6 0.0
5.941165414375398e6 4.0296447113754055e6 0.0
0.0 0.0 0.0

-3.604507143188069e6 1.8457244287523337e7 0.0
1.8457244287523337e7 8.052682449498488e6 0.0
0.0 0.0 0.0

-3.3513113949768506e6 1.5744242974509329e7 0.0
1.5744242974509329e7 4.3212128397545196e7 0.0
0.0 0.0 0.0

525811.6149132205 1.7294590391751476e7 0.0
1.7294590391751476e7 -1.293917307213098e7 0.0
0.0 0.0 0.0

-3.7150046455286606e6 7.054065932107191e6 0.0
7.054065932107191e6 5.704723970572246e6 0.0
0.0 0.0 0.0

3.5717886499412674e6 6.12807341362308e6 0.0
6.12807341362308e6 -3.0025383772637744e7 0.0
0.0 0.0 0.0

-4.1073279255113997e6 2.0449552461950492e7 0.0
2.0449552461950492e7 8.877717414260656e6 0.0
0.0 0.0 0.0

2.5758682686915547e6 8.230906131513535e6 0.0
8.230906131513535e6 -1.9923695688406292e7 0.0
0.0 0.0 0.0

-9.574558991453938e6 7.920157464246897e6 0.0
7.920157464246897e6 1.4489140726933968e6 0.0
0.0 0.0 0.0

331723.3351560449 1.4636070750834472e7 0.0
1.4636070750834472e7 -1.445566590847969e7 0.0
0.0 0.0 0.0

-3.486771566099019e6 3.5828946199249863e6 0.0
3.5828946199249863e6 1.459269527000054e6 0.0
0.0 0.0 0.0

-3.0271693201133213e6 1.0768718921245927e7 0.0
1.0768718921245927e7 3.1004244491161783e6 0.0
0.0 0.0 0.0

-2.6975183016692055e6 9.301341556897637e6 0.0
9.301341556897637e6 2.8350964237385243e6 0.0
0.0 0.0 0.0

-53749.39178423444 1.4856495404484918e7 0.0
1.4856495404484918e7 -1.276883029865713e7 0.0
0.0 0.0 0.0

-3.262707942175967e6 1.4395425936398443e7 0.0
1.4395425936398443e7 -1.6370136685786466e6 0.0
0.0 0.0 0.0

-1.2346237108126126e7 8.009798983269163e6 0.0
8.009798983269163e6 2.53269236829971e7 0.0
0.0 0.0 0.0

-6.3201898678777795e6 1.3499890724381955e7 0.0
1.3499890724381955e7 4.138125101635417e7 0.0
0.0 0.0 0.0

-9.07974275740869e6 1.0833470078101868e7 0.0
1.0833470078101868e7 3.7533737865562394e7 0.0
0.0 0.0 0.0

-6.7811412272785455e6 1.4045455003294311e7 0.0
1.4045455003294311e7 3.839221622861915e7 0.0
0.0 0.0 0.0

-6.893869698396169e6 6.986002634837552e6 0.0
6.986002634837552e6 5.760212349076756e7 0.0
0.0 0.0 0.0

-953976.6229586331 1.916150261958862e7 0.0
1.916150261958862e7 7.900976119877482e6 0.0
0.0 0.0 0.0

-9.42155488279936e6 4.977588862583721e6 0.0
4.977588862583721e6 4.3679503291280285e7 0.0
0.0 0.0 0.0

-2.151255584441209e6 2.0676657437503263e7 0.0
2.0676657437503263e7 -4.9381687156284405e6 0.0
0.0 0.0 0.0

-1.2659652772024153e6 1.7997970722311758e7 0.0
1.7997970722311758e7 -1.0778243686972097e7 0.0
0.0 0.0 0.0

-4.991121741294006e7 3.1631158020146694e7 0.0
3.1631158020146694e7 -8.260931110971171e6 0.0
0.0 0.0 0.0

3.1173828649730477e6 7.613459317548536e6 0.0
7.613459317548536e6 -1.4750360676131245e7 0.0
0.0 0.0 0.0

2.2626331299238503e6 1.2095150012732565e7 0.0
1.2095150012732565e7 -2.089134349725445e7 0.0
0.0 0.0 0.0

-956523.3576777533 2.217739087406291e7 0.0
2.217739087406291e7 -5.295410819272849e6 0.0
0.0 0.0 0.0

-2.7165056022729957e6 2.1309814388063468e7 0.0
2.1309814388063468e7 3.1416433487060713e6 0.0
0.0 0.0 0.0

3.4090114463938307e6 7.670803578311884e6 0.0
7.670803578311884e6 -2.5778460810340058e7 0.0
0.0 0.0 0.0

1.399892017600091e7 2.2839084595332734e7 0.0
2.2839084595332734e7 -4.192127561634615e6 0.0
0.0 0.0 0.0

-4.448777670161715e6 1.1369801933711331e7 0.0
1.1369801933711331e7 2.1391341433075713e6 0.0
0.0 0.0 0.0

1.7723691501816995e6 6.108378402910296e6 0.0
6.108378402910296e6 -4.6379650800124705e7 0.0
0.0 0.0 0.0

-4.298385164022121e6 9.936317879664283e6 0.0
9.936317879664283e6 1.8304750054802883e6 0.0
0.0 0.0 0.0

2.250959578391716e6 8.1419126263630735e6 0.0
8.1419126263630735e6 -1.5606351028103264e7 0.0
0.0 0.0 0.0

-7.455909797889605e6 1.807605144767106e7 0.0
1.807605144767106e7 2.2614813021261465e7 0.0
0.0 0.0 0.0

-3.256734449032862e7 2.7689908563562337e7 0.0
2.7689908563562337e7 2.4403946225563027e6 0.0
0.0 0.0 0.0

-1.0611346259457082e7 -588114.7041618513 0.0
-588114.7041618513 2.671471887945947e7 0.0
0.0 0.0 0.0

368462.6211911924 1.8078298884457678e7 0.0
1.8078298884457678e7 -1.2312546400627922e7 0.0
0.0 0.0 0.0

-1.4205153605806924e7 2.4644811309580095e7 0.0
2.4644811309580095e7 -4.732844592885835e6 0.0
0.0 0.0 0.0

3.492421915356228e6 5.742202077225098e6 0.0
5.742202077225098e6 -1.4306670355855044e7 0.0
0.0 0.0 0.0

-1.1890567059936466e7 8.543601235062549e6 0.0
8.543601235062549e6 2.2417556709441084e7 0.0
0.0 0.0 0.0

570537.3261884144 1.5834904336648662e7 0.0
1.5834904336648662e7 -1.2411458282573495e7 0.0
0.0 0.0 0.0

-754835.2741290361 1.5128239049641129e7 0.0
1.5128239049641129e7 -6.420091019729248e6 0.0
0.0 0.0 0.0

-4.48694079103446e6 1.269927778468384e7 0.0
1.269927778468384e7 2.330395579463076e6 0.0
0.0 0.0 0.0

-1.0800950218422355e7 9.257176975111878e6 0.0
9.257176975111878e6 3.2941800750563957e7 0.0
0.0 0.0 0.0

4.0700947393809203e6 4.299193315667903e6 0.0
4.299193315667903e6 -2.814091674758738e7 0.0
0.0 0.0 0.0

3.2027525309013072e6 5.50619529927916e6 0.0
5.50619529927916e6 -1.7763741333965432e7 0.0
0.0 0.0 0.0

-4.105096489564639e6 2.0155677731531486e7 0.0
2.0155677731531486e7 7.992334718884192e6 0.0
0.0 0.0 0.0

-9.22046808693863e6 1.6161258113361993e6 0.0
1.6161258113361993e6 1.1108328592963718e7 0.0
0.0 0.0 0.0

122739.3878490976 1.3582986889406163e7 0.0
1.3582986889406163e7 -1.248871517125845e7 0.0
0.0 0.0 0.0

3.5863205037621055e6 6.881584679386084e6 0.0
6.881584679386084e6 -2.1796625780542426e7 0.0
0.0 0.0 0.0

-1.01584323723394e7 4.110198699465012e6 0.0
4.110198699465012e6 3.639449713585356e7 0.0
0.0 0.0 0.0

-1.1128297305941998e6 1.930890028441199e7 0.0
1.930890028441199e7 5.528479039035603e6 0.0
0.0 0.0 0.0

-1.1275838083543725e7 976642.3135970967 0.0
976642.3135970967 2.2757456103283837e7 0.0
0.0 0.0 0.0

1.7903389715433735e6 1.1575066415670685e7 0.0
1.1575066415670685e7 -2.8611182985895213e7 0.0
0.0 0.0 0.0

-292173.83174361754 1.6927631113004435e7 0.0
1.6927631113004435e7 -1.808376076091062e7 0.0
0.0 0.0 0.0

-1.2069421236232694e7 1.1108303337254211e7 0.0
1.1108303337254211e7 1.823396325278014e7 0.0
0.0 0.0 0.0

1.1517295435299668e6 1.4577399328544917e7 0.0
1.4577399328544917e7 -2.214042172047277e7 0.0
0.0 0.0 0.0

1.1526821588689554e6 1.494366782207198e7 0.0
1.494366782207198e7 -1.5202909180489065e7 0.0
0.0 0.0 0.0

-285824.8694740019 2.9848538152977894e6 0.0
2.9848538152977894e6 304720.4298981267 0.0
0.0 0.0 0.0

-1.1065998283300078e7 -91222.74652622522 0.0
-91222.74652622522 2.0059067984322794e7 0.0
0.0 0.0 0.0

249018.6839987114 1.1788401873135218e7 0.0
1.1788401873135218e7 -1.1261906152227553e7 0.0
0.0 0.0 0.0

643014.2320310338 1.0718355729987172e7 0.0
1.0718355729987172e7 -1.1556186245683655e7 0.0
0.0 0.0 0.0

682505.4681735644 1.613751870965409e7 0.0
1.613751870965409e7 -1.2971051590548994e7 0.0
0.0 0.0 0.0

-1.5237752327856517e6 1.9448885497697905e7 0.0
1.9448885497697905e7 3.13764704089602e6 0.0
0.0 0.0 0.0

1.5192846545849415e6 9.453122281697467e6 0.0
9.453122281697467e6 -1.3621133777653528e7 0.0
0.0 0.0 0.0

-1.5747315622091554e6 1.2949164840448545e7 0.0
1.2949164840448545e7 -4.1866473345562935e7 0.0
0.0 0.0 0.0

-8.789606833724614e6 3.282803769361649e6 0.0
3.282803769361649e6 1.0502104872415328e7 0.0
0.0 0.0 0.0

-9.60365176387772e6 1.7403287444307007e7 0.0
1.7403287444307007e7 -3.688770428771685e7 0.0
0.0 0.0 0.0

-1.0646578621574982e8 1.2608425647705073e7 0.0
1.2608425647705073e7 471853.95621825755 0.0
0.0 0.0 0.0

9.117982468764554e7 1.3513909591587266e7 0.0
1.3513909591587266e7 4.0363278843935207e6 0.0
0.0 0.0 0.0

-2.7774795796163324e6 1.3361868176976334e7 0.0
1.3361868176976334e7 -4.80692186896462e7 0.0
0.0 0.0 0.0

-8.662567315266239e6 1.5367692031900639e7 0.0
1.5367692031900639e7 1.9437872997428305e7 0.0
0.0 0.0 0.0

-3.4282518891638434e6 1.894611027618807e7 0.0
1.894611027618807e7 350506.2371535774 0.0
0.0 0.0 0.0

-111974.89748679241 1.2793986435580647e7 0.0
1.2793986435580647e7 -1.0948645847695759e7 0.0
0.0 0.0 0.0

-355305.7497714908 6.297119538374118e6 0.0
6.297119538374118e6 -4.265513891292802e6 0.0
0.0 0.0 0.0

508840.02457629004 7.052002699445281e6 0.0
7.052002699445281e6 -3.168556251893422e6 0.0
0.0 0.0 0.0

-4.429037143957257e6 1.3943572526180279e7 0.0
1.3943572526180279e7 2.438208461446424e6 0.0
0.0 0.0 0.0

-2.150229562499553e6 1.3119482064909263e7 0.0
1.3119482064909263e7 -4.4792224431057975e7 0.0
0.0 0.0 0.0

1.2447727783183516e6 1.134838643629986e7 0.0
1.134838643629986e7 -1.0557949407085402e7 0.0
0.0 0.0 0.0

-1.1196491399950402e7 2.432502986824595e6 0.0
2.432502986824595e6 2.915909782296398e7 0.0
0.0 0.0 0.0

7.408244413110934e7 1.6479498987693245e7 0.0
1.6479498987693245e7 -140083.52898365632 0.0
0.0 0.0 0.0

862597.0441458807 1.2391006278468214e7 0.0
1.2391006278468214e7 -1.030876087437305e7 0.0
0.0 0.0 0.0

3.73289298074279e6 6.470859643762031e6 0.0
6.470859643762031e6 -2.4684009969085015e7 0.0
0.0 0.0 0.0

3.574700104494922e6 7.060039127018771e6 0.0
7.060039127018771e6 -2.5233008118548255e7 0.0
0.0 0.0 0.0

-7.201511607078788e6 1.839535377533986e7 0.0
1.839535377533986e7 2.1604090748469956e7 0.0
0.0 0.0 0.0

1.6782019031668333e6 1.378199359902127e7 0.0
1.378199359902127e7 -1.7323428364533547e7 0.0
0.0 0.0 0.0

-2.9387638905281136e6 1.988804590409752e7 0.0
1.988804590409752e7 -1.0505005435448578e7 0.0
0.0 0.0 0.0

5.34980016999022e6 2.1078295935626227e7 0.0
2.1078295935626227e7 -3.584006539627137e6 0.0
0.0 0.0 0.0

-1.871552793524284e6 1.2751181244626092e7 0.0
1.2751181244626092e7 -1.0792191166343521e6 0.0
0.0 0.0 0.0

1.687174127275258e6 5.902446808014402e6 0.0
5.902446808014402e6 -5.554277655473085e6 0.0
0.0 0.0 0.0

-2.596812897349364e6 8.758861184830448e6 0.0
8.758861184830448e6 -1.357528660072452e6 0.0
0.0 0.0 0.0

-5.4175929022009e6 6.027661047759595e6 0.0
6.027661047759595e6 9.248802591096384e6 0.0
0.0 0.0 0.0

-5.037521685922055e6 1.5709261827677283e7 0.0
1.5709261827677283e7 -2.674539360001697e7 0.0
0.0 0.0 0.0

2.2890262471449208e6 1.139949434168305e7 0.0
1.139949434168305e7 -2.5157030870540444e7 0.0
0.0 0.0 0.0

2.601677397361273e6 6.276245563923467e6 0.0
6.276245563923467e6 -1.5155084618279934e7 0.0
0.0 0.0 0.0

2.4462001557419635e6 8.95441785438316e6 0.0
8.95441785438316e6 -1.2786614013969094e7 0.0
0.0 0.0 0.0

-2.313990173621963e6 1.5025227764180887e7 0.0
1.5025227764180887e7 -675561.8554256276 0.0
0.0 0.0 0.0

2.1967730803583423e6 8.639797468138454e6 0.0
8.639797468138454e6 -1.6345173378003377e7 0.0
0.0 0.0 0.0

-935101.3156224668 7.66300981768843e6 0.0
7.66300981768843e6 -4.139330778025846e6 0.0
0.0 0.0 0.0

4.0799010044156425e6 4.721068569536532e6 0.0
4.721068569536532e6 -1.8757331741705127e7 0.0
0.0 0.0 0.0

748650.7413427578 1.45370068876891e7 0.0
1.45370068876891e7 -1.2263937672513558e7 0.0
0.0 0.0 0.0

-8.5672691681934e6 5.183958997523904e6 0.0
5.183958997523904e6 9.304924470823921e6 0.0
0.0 0.0 0.0

-994273.3238454445 2.145166871619078e7 0.0
2.145166871619078e7 -7.854843275586189e6 0.0
0.0 0.0 0.0

2.436328311444031e6 5.708053794242066e6 0.0
5.708053794242066e6 -4.0249938223743945e7 0.0
0.0 0.0 0.0

495571.5391792925 1.546774844294922e7 0.0
1.546774844294922e7 -1.1836247627313692e7 0.0
0.0 0.0 0.0

3.2596535953731453e6 8.282724280553882e6 0.0
8.282724280553882e6 -1.965449256807887e7 0.0
0.0 0.0 0.0

-2.0240389160194886e6 4.792974968386731e6 0.0
4.792974968386731e6 3.318973515145652e6 0.0
0.0 0.0 0.0

3.4461240948239816e6 7.61244517900336e6 0.0
7.61244517900336e6 -2.0757884659911096e7 0.0
0.0 0.0 0.0

-3.1711676551147187e6 1.9561417791566905e7 0.0
1.9561417791566905e7 5.408165558315965e6 0.0
0.0 0.0 0.0

597750.3400681126 2.300387559160083e7 0.0
2.300387559160083e7 -7.418871289994264e6 0.0
0.0 0.0 0.0

-896260.89150507 1.755546490399887e7 0.0
1.755546490399887e7 -1.7621287524564415e7 0.0
0.0 0.0 0.0

441347.2131849304 6.51076520890529e6 0.0
6.51076520890529e6 -6.481126687922013e6 0.0
0.0 0.0 0.0

565549.9749712443 2.3866966962413576e7 0.0
2.3866966962413576e7 -5.77090951413107e6 0.0
0.0 0.0 0.0

-61842.58240723284 1.9988651387436874e7 0.0
1.9988651387436874e7 -9.592507765800057e6 0.0
0.0 0.0 0.0

-1.2369732551116731e7 6.656890204884616e6 0.0
6.656890204884616e6 1.7908507485418662e7 0.0
0.0 0.0 0.0

-3.8267996901064906e6 2.0806824654452045e7 0.0
2.0806824654452045e7 1.2941741713485328e7 0.0
0.0 0.0 0.0

-4.50015333206471e6 4.249782152570915e6 0.0
4.249782152570915e6 3.4090975095381094e6 0.0
0.0 0.0 0.0

-2.3039654654592704e6 1.0147661738267962e7 0.0
1.0147661738267962e7 1.4394356875395984e6 0.0
0.0 0.0 0.0

-9.275224547954436e6 7.152799524899932e6 0.0
7.152799524899932e6 4.096244281905663e7 0.0
0.0 0.0 0.0

-5.846967539859529e6 1.3042180851062391e7 0.0
1.3042180851062391e7 6.804806795747868e6 0.0
0.0 0.0 0.0

2.4469045242128912e6 1.850979250628983e7 0.0
1.850979250628983e7 1.4182623064192792e6 0.0
0.0 0.0 0.0

542932.0932092885 1.3406153882651808e7 0.0
1.3406153882651808e7 -9.989892385798544e6 0.0
0.0 0.0 0.0

-158165.1276760772 1.4513464573800089e7 0.0
1.4513464573800089e7 -1.2070641190326657e7 0.0
0.0 0.0 0.0

-1.363757319369167e6 1.2913879798591532e7 0.0
1.2913879798591532e7 -3.918990562969857e7 0.0
0.0 0.0 0.0

2.0196828919880725e6 6.082239915864888e6 0.0
6.082239915864888e6 -4.283706202747996e7 0.0
0.0 0.0 0.0

-1.256862985925004e7 1.0025196919021197e7 0.0
1.0025196919021197e7 2.260138336327023e7 0.0
0.0 0.0 0.0

-2.9844515362543035e6 2.2692311403897498e7 0.0
2.2692311403897498e7 6.088487366695402e6 0.0
0.0 0.0 0.0

-1.096105078115214e7 2.954541069386134e6 0.0
2.954541069386134e6 3.233229453370284e7 0.0
0.0 0.0 0.0

180007.46496430924 1.881286784930964e7 0.0
1.881286784930964e7 -1.1725268534752017e7 0.0
0.0 0.0 0.0

50993.7345375577 1.8346014187146865e7 0.0
1.8346014187146865e7 -1.3954915048354374e7 0.0
0.0 0.0 0.0

1.231388742143248e7 5.810519935415424e6 0.0
5.810519935415424e6 -2.2681745401652576e6 0.0
0.0 0.0 0.0

1.5733073344664373e6 9.158962965810485e6 0.0
9.158962965810485e6 -9.27590269881447e6 0.0
0.0 0.0 0.0

-9.835960742527878e6 1.2564006654657492e7 0.0
1.2564006654657492e7 1.4724222718368966e7 0.0
0.0 0.0 0.0

-2.429164250682513e6 1.741736287687205e7 0.0
1.741736287687205e7 -1.6761734689110588e7 0.0
0.0 0.0 0.0

691306.1702449857 1.4192801497515602e7 0.0
1.4192801497515602e7 -1.1567025681318572e7 0.0
0.0 0.0 0.0

868752.2325944128 1.5264433991706496e7 0.0
1.5264433991706496e7 -1.351127075316572e7 0.0
0.0 0.0 0.0

-9.813465311193267e6 1.2575860552603781e7 0.0
1.2575860552603781e7 3.2045262984683905e7 0.0
0.0 0.0 0.0

-1.2620978320303649e7 9.559317565301908e6 0.0
9.559317565301908e6 2.043980482778809e7 0.0
0.0 0.0 0.0

-277874.60783316894 1.4149709315316577e7 0.0
1.4149709315316577e7 -1.136317367330136e7 0.0
0.0 0.0 0.0

-1.261433858678529e6 1.7302942313880526e7 0.0
1.7302942313880526e7 -9.105778540674254e6 0.0
0.0 0.0 0.0

-5.401047476735493e6 1.8979616796142302e7 0.0
1.8979616796142302e7 -8.69025478294922e6 0.0
0.0 0.0 0.0

-2.2382420692540673e6 2.319121005193978e7 0.0
2.319121005193978e7 -2.3020976879909523e6 0.0
0.0 0.0 0.0

2.114106842500396e6 1.1478903643148351e7 0.0
1.1478903643148351e7 -2.6842042871139847e7 0.0
0.0 0.0 0.0

-2.2163119258688074e6 2.737227413224241e7 0.0
2.737227413224241e7 2.2328774524107636e6 0.0
0.0 0.0 0.0

-8.503088294526942e6 1.3477853474130297e7 0.0
1.3477853474130297e7 1.3101933646375608e7 0.0
0.0 0.0 0.0

-6.680297026500633e6 2.2499773039530434e7 0.0
2.2499773039530434e7 -8.986932844285086e6 0.0
0.0 0.0 0.0

17528.29957265721 1.652626519532071e7 0.0
1.652626519532071e7 -1.6346910672555508e6 0.0
0.0 0.0 0.0

-573458.3528864132 1.783016801615854e7 0.0
1.783016801615854e7 -1.6421030962567745e7 0.0
0.0 0.0 0.0

-1.9026139573257533e6 1.772543130727267e7 0.0
1.772543130727267e7 -9.789725585496975e6 0.0
0.0 0.0 0.0

-3.802235668727392e6 2.203586806129183e7 0.0
2.203586806129183e7 8.394684805128207e6 0.0
0.0 0.0 0.0

185542.93825096032 1.7584299457195394e7 0.0
1.7584299457195394e7 -1.1329547706840636e7 0.0
0.0 0.0 0.0

-404425.479764896 1.3785214915004594e7 0.0
1.3785214915004594e7 -1.0589027090669174e7 0.0
0.0 0.0 0.0

-194578.9632909028 1.6687782587270465e7 0.0
1.6687782587270465e7 -1.9732395919079684e7 0.0
0.0 0.0 0.0

-1.2649543031396018e6 1.1555597252658086e7 0.0
1.1555597252658086e7 -6.170835684406344e6 0.0
0.0 0.0 0.0

-3.165744169728433e6 2.132130041693908e7 0.0
2.132130041693908e7 1.643122644280281e6 0.0
0.0 0.0 0.0

-2.107905317309352e6 2.2704169635305393e7 0.0
2.2704169635305393e7 -3.3473445474673407e6 0.0
0.0 0.0 0.0

-935378.1461136898 4.334910699542022e6 0.0
4.334910699542022e6 1.4864348100089165e6 0.0
0.0 0.0 0.0

586272.7923821597 1.0191490883119281e7 0.0
1.0191490883119281e7 -1.074807709490218e7 0.0
0.0 0.0 0.0

-1.6636862409375778e6 2.4093238215047386e7 0.0
2.4093238215047386e7 -694693.8943294839 0.0
0.0 0.0 0.0

-3.9132254765958916e6 1.9145735563321583e7 0.0
1.9145735563321583e7 4.746726403788657e6 0.0
0.0 0.0 0.0

-8.040951377361976e7 7.621990334951455e6 0.0
7.621990334951455e6 2.9433558552249335e6 0.0
0.0 0.0 0.0

821239.9672352225 1.504715209704016e7 0.0
1.504715209704016e7 -2.2219082897470515e7 0.0
0.0 0.0 0.0

-4.545257486963729e6 1.8043676002759017e7 0.0
1.8043676002759017e7 7.415562322431417e6 0.0
0.0 0.0 0.0

-1.6575701416978077e6 2.0944106467770133e7 0.0
2.0944106467770133e7 -3.3802252541003926e6 0.0
0.0 0.0 0.0

-4.245485721266612e6 1.8968819139401425e7 0.0
1.8968819139401425e7 7.170047486978786e6 0.0
0.0 0.0 0.0

-1.7855667742716568e6 1.9678807404705595e7 0.0
1.9678807404705595e7 803162.6361850117 0.0
0.0 0.0 0.0

-225128.44677035045 1.8965677137449272e7 0.0
1.8965677137449272e7 -9.85057336615372e6 0.0
0.0 0.0 0.0

-7.116101667507732e6 1.4417703236577218e7 0.0
1.4417703236577218e7 1.1235495234761517e7 0.0
0.0 0.0 0.0

-1.161670849654379e7 6.352788581396029e6 0.0
6.352788581396029e6 2.5102130218293533e7 0.0
0.0 0.0 0.0

-570665.0263346995 1.2147350289433422e7 0.0
1.2147350289433422e7 -5.070772437560944e6 0.0
0.0 0.0 0.0

2.8868809267523913e6 5.882514026402161e6 0.0
5.882514026402161e6 -1.0693188251677904e7 0.0
0.0 0.0 0.0

-1.7440930621001022e6 1.5504967084033364e7 0.0
1.5504967084033364e7 -7.012410024400572e6 0.0
0.0 0.0 0.0

-503146.2380307736 1.9583396838039227e7 0.0
1.9583396838039227e7 -1.0902761058009902e7 0.0
0.0 0.0 0.0

-4.140055615731448e6 1.8232188475834534e7 0.0
1.8232188475834534e7 4.885289071251498e6 0.0
0.0 0.0 0.0

-2.50224906463146e6 1.4266405436805146e7 0.0
1.4266405436805146e7 -4.124382151671381e6 0.0
0.0 0.0 0.0

-7.281438263507663e6 849723.0613286418 0.0
849723.0613286418 1.2307962404503139e7 0.0
0.0 0.0 0.0

2.361826372447647e6 5.787440011632585e6 0.0
5.787440011632585e6 -1.2439228309426216e7 0.0
0.0 0.0 0.0

-1.0809986332915314e7 6.0224219603171395e6 0.0
6.0224219603171395e6 3.2227966290687993e7 0.0
0.0 0.0 0.0

-1.1518560863236926e7 2.2030111892399397e6 0.0
2.2030111892399397e6 1.807112029650841e7 0.0
0.0 0.0 0.0

-3.100823620213533e6 1.8660146976748284e7 0.0
1.8660146976748284e7 2.0909983319674514e7 0.0
0.0 0.0 0.0

-1.379260275875003e6 1.8116305218896076e7 0.0
1.8116305218896076e7 -8.710174551161062e6 0.0
0.0 0.0 0.0

437921.0773271951 9.601936161041956e6 0.0
9.601936161041956e6 -9.971856251824126e6 0.0
0.0 0.0 0.0

-1.0361988206025535e7 5.78166378045619e6 0.0
5.78166378045619e6 3.464604877144693e7 0.0
0.0 0.0 0.0

-1.4089087720362288e6 2.117089103460385e7 0.0
2.117089103460385e7 -4.167069312231915e6 0.0
0.0 0.0 0.0

-4.0176020762005458e6 1.332518605447117e7 0.0
1.332518605447117e7 920843.4754685361 0.0
0.0 0.0 0.0

-1.5229128267711925e6 9.545903657043116e6 0.0
9.545903657043116e6 -149006.9826129364 0.0
0.0 0.0 0.0

-1.6753735179237637e6 1.2604690161326986e7 0.0
1.2604690161326986e7 -5.800552625499812e6 0.0
0.0 0.0 0.0

-2.328389061568725e6 1.6242624968783008e7 0.0
1.6242624968783008e7 -2.5339194750303328e7 0.0
0.0 0.0 0.0

-3.343316979734349e6 1.9036460996540938e7 0.0
1.9036460996540938e7 6.680816967162131e6 0.0
0.0 0.0 0.0

613475.5740746241 1.829124479377605e7 0.0
1.829124479377605e7 -1.3977677126114337e7 0.0
0.0 0.0 0.0

-1.0917973157638758e6 1.6261954821561212e7 0.0
1.6261954821561212e7 5.17164734502486e7 0.0
0.0 0.0 0.0

3.2943971594504705e6 2.1089957662563026e7 0.0
2.1089957662563026e7 1.0617107908050815e7 0.0
0.0 0.0 0.0

-1.1252366577373493e7 1.2132369462107176e7 0.0
1.2132369462107176e7 1.7226132833009332e7 0.0
0.0 0.0 0.0

2.248554005330626e6 1.2001139816419192e7 0.0
1.2001139816419192e7 -2.2282085268418867e7 0.0
0.0 0.0 0.0

-1.622043976331335e6 1.4882241464740546e7 0.0
1.4882241464740546e7 -3.1732323199027195e6 0.0
0.0 0.0 0.0

626142.8984588804 2.0697758108249996e7 0.0
2.0697758108249996e7 -1.0372418972076304e7 0.0
0.0 0.0 0.0

-2.7574263745505116e6 2.3613845844359618e7 0.0
2.3613845844359618e7 4.194623411572035e6 0.0
0.0 0.0 0.0

-1.9935420513786748e6 2.2166124747214705e7 0.0
2.2166124747214705e7 -4.249585095522304e6 0.0
0.0 0.0 0.0

-280352.8393698586 1.8189999970857438e7 0.0
1.8189999970857438e7 -1.5219047066795535e7 0.0
0.0 0.0 0.0

-1.368746598384362e6 1.3841736911450276e7 0.0
1.3841736911450276e7 -3.4590024735025284e6 0.0
0.0 0.0 0.0

-3.941778132192737e6 1.950989626805772e7 0.0
1.950989626805772e7 5.868241563252663e6 0.0
0.0 0.0 0.0

-1.2116166645000957e7 5.685885175420874e6 0.0
5.685885175420874e6 1.6573511998137452e7 0.0
0.0 0.0 0.0

2.674078128293284e6 5.666597566145395e6 0.0
5.666597566145395e6 -1.425950453536585e7 0.0
0.0 0.0 0.0

-1.189974836004585e6 1.5713991435868496e7 0.0
1.5713991435868496e7 -5.183441098651546e6 0.0
0.0 0.0 0.0

2.8829943984890236e6 9.125315490280854e6 0.0
9.125315490280854e6 -1.700255712729349e7 0.0
0.0 0.0 0.0

-2.8489182696424704e6 1.9032136084747393e7 0.0
1.9032136084747393e7 2.271833818092186e6 0.0
0.0 0.0 0.0

-716972.7897519139 9.004008603369841e6 0.0
9.004008603369841e6 -1.6668685180712435e6 0.0
0.0 0.0 0.0

-871437.6002904694 2.5615790520200647e7 0.0
2.5615790520200647e7 -3.1639802207414713e6 0.0
0.0 0.0 0.0

-5.371544684389376e7 3.8220199807000672e6 0.0
3.8220199807000672e6 6.379103235878121e6 0.0
0.0 0.0 0.0

-55514.61512568395 8.411678766372804e6 0.0
8.411678766372804e6 -3.001839947329367e6 0.0
0.0 0.0 0.0

-2.685311692643945e6 1.5438073898811154e7 0.0
1.5438073898811154e7 -3.084727650290982e7 0.0
0.0 0.0 0.0

705007.4673408233 1.981802553876892e7 0.0
1.981802553876892e7 -9.339513348331878e6 0.0
0.0 0.0 0.0

910094.1894182181 1.280440998486344e7 0.0
1.280440998486344e7 -1.1102133852226859e7 0.0
0.0 0.0 0.0

765867.8964428296 1.680349831264415e7 0.0
1.680349831264415e7 -1.737660779092752e7 0.0
0.0 0.0 0.0

562505.4174241503 7.877102558749838e6 0.0
7.877102558749838e6 -4.210159227696417e6 0.0
0.0 0.0 0.0

3.398121413235466e6 7.678457751400365e6 0.0
7.678457751400365e6 -1.9028332783188388e7 0.0
0.0 0.0 0.0

-2.3422565298198946e6 2.3673693371104885e7 0.0
2.3673693371104885e7 -1.3556322536767325e6 0.0
0.0 0.0 0.0

331414.97649857355 5.814295386190353e6 0.0
5.814295386190353e6 -5.305166601224208e6 0.0
0.0 0.0 0.0

1.0739843226876585e6 1.0074744606922802e7 0.0
1.0074744606922802e7 -1.2618443962331083e7 0.0
0.0 0.0 0.0

-605619.3950022166 2.6708707555436134e7 0.0
2.6708707555436134e7 -2.266220997107505e6 0.0
0.0 0.0 0.0

2.9389089034097204e6 1.9398887176790897e7 0.0
1.9398887176790897e7 241829.73782421916 0.0
0.0 0.0 0.0

696442.9828594099 2.216016879539236e7 0.0
2.216016879539236e7 -8.160587662367517e6 0.0
0.0 0.0 0.0

1.8815893605984822e6 7.913343646926904e6 0.0
7.913343646926904e6 -5.048098745193829e7 0.0
0.0 0.0 0.0

-9.174158208857121e6 1.6440835366208943e7 0.0
1.6440835366208943e7 2.5138087480704874e7 0.0
0.0 0.0 0.0

-2.204808320317153e6 2.2964874937495634e7 0.0
2.2964874937495634e7 684875.188893659 0.0
0.0 0.0 0.0

2.738377216173202e6 8.802713965185378e6 0.0
8.802713965185378e6 -1.4553568472463116e7 0.0
0.0 0.0 0.0

1.051586788055098e6 7.236165765047996e6 0.0
7.236165765047996e6 -5.347894192262458e6 0.0
0.0 0.0 0.0

336112.1688459078 9.022450044821411e6 0.0
9.022450044821411e6 -9.144406577377098e6 0.0
0.0 0.0 0.0

-3.326193861363123e6 2.6604938655496195e7 0.0
2.6604938655496195e7 4.486251581461901e6 0.0
0.0 0.0 0.0

-9.679956968680788e6 25418.36615173641 0.0
25418.36615173641 1.917656226799675e7 0.0
0.0 0.0 0.0

-1.1091308769441534e7 1.4641971267095663e7 0.0
1.4641971267095663e7 2.3042448869996328e7 0.0
0.0 0.0 0.0

-1.5554351173179643e6 2.2419287470657337e7 0.0
2.2419287470657337e7 -2.887988492160347e6 0.0
0.0 0.0 0.0

1.0684964614739595e6 1.4376102834818223e7 0.0
1.4376102834818223e7 -1.4049234871688861e7 0.0
0.0 0.0 0.0

-3.710409199580838e6 1.959925079922809e7 0.0
1.959925079922809e7 1.795364260011825e7 0.0
0.0 0.0 0.0

-2.669095684229891e6 1.5296440784559071e7 0.0
1.5296440784559071e7 -3.8281463875833745e6 0.0
0.0 0.0 0.0

425443.74466989003 1.5099215264647441e7 0.0
1.5099215264647441e7 -1.1195608888780918e7 0.0
0.0 0.0 0.0

-683098.0686126389 1.4844054035934465e7 0.0
1.4844054035934465e7 -2.6422085701959368e7 0.0
0.0 0.0 0.0

1.2571394244395476e6 2.3332872108289335e7 0.0
2.3332872108289335e7 -6.888309961614196e6 0.0
0.0 0.0 0.0

-954341.0502734259 1.3130531888283953e7 0.0
1.3130531888283953e7 -3.684145878728633e7 0.0
0.0 0.0 0.0

-1.1706914024582868e7 4.589086443678159e6 0.0
4.589086443678159e6 1.5736632213295372e7 0.0
0.0 0.0 0.0

4.272823834449584e6 1.994235528810829e7 0.0
1.994235528810829e7 2.0738566522139072e7 0.0
0.0 0.0 0.0

-3.883697507305363e6 2.57158399761412e7 0.0
2.57158399761412e7 4.831384892137077e6 0.0
0.0 0.0 0.0

-2.40922498660351e6 1.570451146841743e7 0.0
1.570451146841743e7 -4.825103453297199e6 0.0
0.0 0.0 0.0

2.8345482671941123e6 2.0626319128747065e7 0.0
2.0626319128747065e7 -5.964506758954425e6 0.0
0.0 0.0 0.0

-1.3461997135828799e6 2.1931117957421616e7 0.0
2.1931117957421616e7 -3.882508863112155e6 0.0
0.0 0.0 0.0

-5.524680237273101e6 7.801063467317127e6 0.0
7.801063467317127e6 4.513594200485617e6 0.0
0.0 0.0 0.0

-42580.04699537065 1.8553989404532474e7 0.0
1.8553989404532474e7 -1.4090670616477545e7 0.0
0.0 0.0 0.0

1.7807080602326076e6 1.3692580191192342e7 0.0
1.3692580191192342e7 -1.8970782858816303e7 0.0
0.0 0.0 0.0

1.5554153588726036e6 1.4221551431539878e7 0.0
1.4221551431539878e7 -1.7809866715255696e7 0.0
0.0 0.0 0.0

-837571.7564363074 1.4354904065790722e7 0.0
1.4354904065790722e7 -9.426853053287458e6 0.0
0.0 0.0 0.0

1.1995549306322124e7 2.4126627270846825e7 0.0
2.4126627270846825e7 -5.21449900393727e6 0.0
0.0 0.0 0.0

1.6565182421483765e6 1.0734753753577406e7 0.0
1.0734753753577406e7 -1.1585860213834504e7 0.0
0.0 0.0 0.0

2.6875345356190233e6 5.177619820974099e6 0.0
5.177619820974099e6 -1.3531736397315461e7 0.0
0.0 0.0 0.0

1.957711165479675e6 1.311421154994026e7 0.0
1.311421154994026e7 -2.0031209942764055e7 0.0
0.0 0.0 0.0

2.3762299764132462e6 6.509214843829587e6 0.0
6.509214843829587e6 -3.828717016377133e7 0.0
0.0 0.0 0.0

-7.489333299237439e6 6.9596863371678125e6 0.0
6.9596863371678125e6 7.736537252078012e6 0.0
0.0 0.0 0.0

-3.3812951858804636e6 2.0847872183494348e7 0.0
2.0847872183494348e7 2.462689480726319e6 0.0
0.0 0.0 0.0

3.8374229471816095e6 4.779181865638629e6 0.0
4.779181865638629e6 -2.2418941095809065e7 0.0
0.0 0.0 0.0

1.9349931090885033e6 6.460316930643721e6 0.0
6.460316930643721e6 -1.1608502068250744e7 0.0
0.0 0.0 0.0

-300955.94511696463 1.4554211096702306e7 0.0
1.4554211096702306e7 -7.656670068098289e6 0.0
0.0 0.0 0.0

-8.625869505355239e6 1.3475247289630117e7 0.0
1.3475247289630117e7 3.388998818635072e7 0.0
0.0 0.0 0.0

-4.62191204648913e6 2.0703108664752796e7 0.0
2.0703108664752796e7 1.3214646052923916e7 0.0
0.0 0.0 0.0

-4.897607101741843e6 8.976265964059552e6 0.0
8.976265964059552e6 3.1747201545863575e6 0.0
0.0 0.0 0.0

-7.048511863686259e6 1.874418343494421e7 0.0
1.874418343494421e7 1.912199682467885e7 0.0
0.0 0.0 0.0

3.6916774083852638e6 6.159473753557056e6 0.0
6.159473753557056e6 -1.6770220764694706e7 0.0
0.0 0.0 0.0

2.0383492312634988e6 1.256460802250804e7 0.0
1.256460802250804e7 -2.128473027272724e7 0.0
0.0 0.0 0.0

-3.354840404866316e6 5.388568121056876e7 0.0
5.388568121056876e7 3.7349049437029976e6 0.0
0.0 0.0 0.0

-5.481288079859383e6 1.2522792202376734e7 0.0
1.2522792202376734e7 5.296516091761881e6 0.0
0.0 0.0 0.0

-1.1099011298131987e7 3.162117866259951e6 0.0
3.162117866259951e6 1.4777290068583913e7 0.0
0.0 0.0 0.0

123152.37179194856 1.7610845368272014e7 0.0
1.7610845368272014e7 -1.5044251758415341e7 0.0
0.0 0.0 0.0

1.3782980843176655e6 1.4774961950212577e7 0.0
1.4774961950212577e7 -1.677798005156716e7 0.0
0.0 0.0 0.0

-973048.9847690028 2.2831424177307794e6 0.0
2.2831424177307794e6 4.252728729257964e6 0.0
0.0 0.0 0.0

-2.131478294440717e6 1.0157964394619506e6 0.0
1.0157964394619506e6 5.876682334635258e6 0.0
0.0 0.0 0.0

-4.1886411019772743e6 2.6881173635079972e7 0.0
2.6881173635079972e7 4.067660644803522e6 0.0
0.0 0.0 0.0

-4.465887159559147e6 1.76803883794759e7 0.0
1.76803883794759e7 6.201245507324403e6 0.0
0.0 0.0 0.0

-3.164986440420173e6 2.6614303850289736e7 0.0
2.6614303850289736e7 2.3439737882640082e6 0.0
0.0 0.0 0.0

3.041785185151946e6 8.965684057068402e6 0.0
8.965684057068402e6 -1.8714022297121447e7 0.0
0.0 0.0 0.0

-3.726699854278611e6 2.000250341574659e7 0.0
2.000250341574659e7 4.6522554436492575e6 0.0
0.0 0.0 0.0

-1.0916180252350448e7 3.1852999562519775e6 0.0
3.1852999562519775e6 2.748250098956251e7 0.0
0.0 0.0 0.0

-6.532286966321289e7 5.213524116013583e6 0.0
5.213524116013583e6 5.587777218351319e6 0.0
0.0 0.0 0.0

-3.289556657611125e6 2.1663669988846745e7 0.0
2.1663669988846745e7 2.5467995285938703e6 0.0
0.0 0.0 0.0

-6.326368070919392e6 1.9146616772663325e7 0.0
1.9146616772663325e7 1.7722958524617713e7 0.0
0.0 0.0 0.0

-178349.30259176646 2.350332083160571e7 0.0
2.350332083160571e7 -6.372190074420419e6 0.0
0.0 0.0 0.0

2.0129965343254143e6 5.886778915514639e6 0.0
5.886778915514639e6 -1.057601593718147e7 0.0
0.0 0.0 0.0

-5.549036354935957e6 1.432637666997079e7 0.0
1.432637666997079e7 6.783485105598833e6 0.0
0.0 0.0 0.0

-1.1727482462333992e7 2.3340757860571604e7 0.0
2.3340757860571604e7 -7.011236850231952e6 0.0
0.0 0.0 0.0

-5.599634737749615e6 2.1716429703998495e7 0.0
2.1716429703998495e7 -7.565331784659393e6 0.0
0.0 0.0 0.0

3.222792293795895e6 7.048543289942031e6 0.0
7.048543289942031e6 -1.3943823888535501e7 0.0
0.0 0.0 0.0

-5.70851418734846e6 1.9621456493121862e7 0.0
1.9621456493121862e7 1.6252768597658722e7 0.0
0.0 0.0 0.0

-460945.2226538523 1.69887001891314e7 0.0
1.69887001891314e7 -8.615182648830729e6 0.0
0.0 0.0 0.0

2.455253825930251e6 4.858070548713285e6 0.0
4.858070548713285e6 -4.1833478754573055e7 0.0
0.0 0.0 0.0

-9.591990694609659e6 965841.0387097697 0.0
965841.0387097697 3.9683135262643985e7 0.0
0.0 0.0 0.0

2.406945862483654e6 9.466866441934267e6 0.0
9.466866441934267e6 -1.356592623759865e7 0.0
0.0 0.0 0.0

3.5333138851495665e6 6.9856330586172305e6 0.0
6.9856330586172305e6 -2.6964566156664353e7 0.0
0.0 0.0 0.0

-351578.53475372354 1.83905472919166e7 0.0
1.83905472919166e7 -7.299459965719218e6 0.0
0.0 0.0 0.0

852926.375583401 1.1242906548095139e7 0.0
1.1242906548095139e7 -3.518331297612653e7 0.0
0.0 0.0 0.0

757014.685117311 2.8522055943678215e7 0.0
2.8522055943678215e7 -2.693337244823502e6 0.0
0.0 0.0 0.0

-5.358894285106206e6 1.6657137891356502e7 0.0
1.6657137891356502e7 3.2014334528279033e7 0.0
0.0 0.0 0.0

-1.0010725041414367e7 758221.8207240573 0.0
758221.8207240573 3.652826138793745e7 0.0
0.0 0.0 0.0

-611725.7805580746 1.782851492891793e7 0.0
1.782851492891793e7 -8.258448900585716e6 0.0
0.0 0.0 0.0

2.5657272275358867e6 7.682245260450912e6 0.0
7.682245260450912e6 -3.2555949216913983e7 0.0
0.0 0.0 0.0

-2.5397688787363167e6 1.799306911575579e7 0.0
1.799306911575579e7 -161553.3594734281 0.0
0.0 0.0 0.0

-3.5066418745856406e6 2.0035920189805742e7 0.0
2.0035920189805742e7 2.409731629137751e6 0.0
0.0 0.0 0.0

-1.146702099388216e7 5.1578292919012e6 0.0
5.1578292919012e6 2.1534395348003536e7 0.0
0.0 0.0 0.0

1.8263255836240868e6 2.369557047950564e7 0.0
2.369557047950564e7 -6.572772499491692e6 0.0
0.0 0.0 0.0

654315.8722149178 1.8784681772185467e7 0.0
1.8784681772185467e7 -4.036634317336403e6 0.0
0.0 0.0 0.0

-1.6493197890579877e6 2.293937423679019e7 0.0
2.293937423679019e7 -1.9010440305397685e6 0.0
0.0 0.0 0.0

3.2564581579347905e6 2.991458296384714e6 0.0
2.991458296384714e6 -3.9632411681928754e7 0.0
0.0 0.0 0.0

-3.551407225664339e6 2.045289365598668e7 0.0
2.045289365598668e7 3.4879224654593635e6 0.0
0.0 0.0 0.0

944719.2736302819 1.319798563206426e7 0.0
1.319798563206426e7 -1.1866400470260061e7 0.0
0.0 0.0 0.0

-3.8043660335616996e6 1.0735192447715046e7 0.0
1.0735192447715046e7 512191.9874257429 0.0
0.0 0.0 0.0

-863208.8369389611 1.327069980716326e7 0.0
1.327069980716326e7 -4.788579798367646e6 0.0
0.0 0.0 0.0

-7.335774147736555e6 4.82463400305034e6 0.0
4.82463400305034e6 7.468038001780485e6 0.0
0.0 0.0 0.0

913823.7507982138 1.7977885343361508e7 0.0
1.7977885343361508e7 -5.065875633512594e6 0.0
0.0 0.0 0.0

-1.1068575735791974e7 7.581112473030449e6 0.0
7.581112473030449e6 3.0560371136536453e7 0.0
0.0 0.0 0.0

338213.55572820036 1.474957547748811e7 0.0
1.474957547748811e7 -1.0453911715855807e7 0.0
0.0 0.0 0.0

-3.999730094769196e6 5.555530597208301e6 0.0
5.555530597208301e6 2.1185355149521064e6 0.0
0.0 0.0 0.0

-4.593228504341571e6 2.747220107992395e7 0.0
2.747220107992395e7 4.1605167703664117e6 0.0
0.0 0.0 0.0

-688531.8050693185 2.179616365233775e7 0.0
2.179616365233775e7 -5.9696083450789e6 0.0
0.0 0.0 0.0

1.0580204358981336e6 1.5501826467066087e7 0.0
1.5501826467066087e7 -1.9657700773531362e7 0.0
0.0 0.0 0.0

2.0390316194705889e6 1.0100766987828417e7 0.0
1.0100766987828417e7 -1.2594161761735499e7 0.0
0.0 0.0 0.0

-2.6483506533065606e6 2.2043823916032255e7 0.0
2.2043823916032255e7 3.1218676765969032e6 0.0
0.0 0.0 0.0

-6.828869725090263e6 1.8731018288106333e7 0.0
1.8731018288106333e7 2.0403021985235214e7 0.0
0.0 0.0 0.0

4.270640872482423e6 1.8874669777629964e7 0.0
1.8874669777629964e7 1.1138642205295382e7 0.0
0.0 0.0 0.0

2.1350102750076577e6 7.9286576992906565e6 0.0
7.9286576992906565e6 -3.493110634030372e7 0.0
0.0 0.0 0.0

-3.1911510911895516e6 1.9890692937603235e7 0.0
1.9890692937603235e7 6.458956308636031e6 0.0
0.0 0.0 0.0

-2.886488440328998e6 2.0864640552554484e7 0.0
2.0864640552554484e7 4.1124554912726353e6 0.0
0.0 0.0 0.0

-1.1774674565575944e7 9.593256719228456e6 0.0
9.593256719228456e6 1.6288122268271064e7 0.0
0.0 0.0 0.0

1.2639583145871714e6 2.91347090227446e7 0.0
2.91347090227446e7 -2.72067636890717e6 0.0
0.0 0.0 0.0

444218.3417912638 1.299354698643425e7 0.0
1.299354698643425e7 -9.146550173948582e6 0.0
0.0 0.0 0.0

-9.250958107585015e6 1.6038042721169285e7 0.0
1.6038042721169285e7 1.8172622470824566e7 0.0
0.0 0.0 0.0

2.0721730726758856e6 9.594954077843627e6 0.0
9.594954077843627e6 -1.182958786930187e7 0.0
0.0 0.0 0.0

-3.185908449409033e6 8.282299721794073e6 0.0
8.282299721794073e6 4.276775387320344e6 0.0
0.0 0.0 0.0

-2.503336148870969e6 2.2352467791502703e7 0.0
2.2352467791502703e7 2.2042091543828333e6 0.0
0.0 0.0 0.0

-2.478254048876232e6 2.310399447923495e7 0.0
2.310399447923495e7 2.2745129556594687e6 0.0
0.0 0.0 0.0

248728.90812724642 1.4380063661122182e7 0.0
1.4380063661122182e7 -9.663633100592831e6 0.0
0.0 0.0 0.0

1.615862365365978e6 1.9455681427604534e7 0.0
1.9455681427604534e7 -5.150165269727698e6 0.0
0.0 0.0 0.0

9.882470358263724e6 2.5076801328721404e7 0.0
2.5076801328721404e7 -5.545836807210713e6 0.0
0.0 0.0 0.0

-5.270490286726123e6 2.172845381749604e7 0.0
2.172845381749604e7 7.4974456571439635e6 0.0
0.0 0.0 0.0

-7.655210413360721e6 1.5959522884297114e7 0.0
1.5959522884297114e7 -3.435927077610307e7 0.0
0.0 0.0 0.0

1.2127815409946116e6 1.0867140524770247e7 0.0
1.0867140524770247e7 -9.695569621035362e6 0.0
0.0 0.0 0.0

-1.101366176120272e7 3.6096023273661057e6 0.0
3.6096023273661057e6 2.54397264477052e7 0.0
0.0 0.0 0.0

-2.2181317538857097e6 1.9910587322380487e7 0.0
1.9910587322380487e7 -1.428685819671203e6 0.0
0.0 0.0 0.0

-5.043903385321574e6 2.053370343519624e7 0.0
2.053370343519624e7 -914731.6798524731 0.0
0.0 0.0 0.0

-3.0428576539936736e6 2.036081009235709e7 0.0
2.036081009235709e7 5.200532454192058e6 0.0
0.0 0.0 0.0

-1.0446011179153984e7 1.5480495289036687e6 0.0
1.5480495289036687e6 2.8601022402329754e7 0.0
0.0 0.0 0.0

-5.203174911122641e6 2.8060821180936642e7 0.0
2.8060821180936642e7 4.279894055796057e6 0.0
0.0 0.0 0.0

-3.1002262563064587e6 2.201171068615916e7 0.0
2.201171068615916e7 1.6195241008932109e6 0.0
0.0 0.0 0.0

1.7319170570885567e6 1.8194387387509003e7 0.0
1.8194387387509003e7 324468.4683645513 0.0
0.0 0.0 0.0

2.804318827627039e6 1.5996559693878409e7 0.0
1.5996559693878409e7 9.347729697792396e6 0.0
0.0 0.0 0.0

-3.389539639302476e6 1.934706576714602e7 0.0
1.934706576714602e7 7.758276943942504e6 0.0
0.0 0.0 0.0

-6.075964178264958e6 1.7385004847873874e7 0.0
1.7385004847873874e7 1.2720260911369285e7 0.0
0.0 0.0 0.0

3.2274933707015663e6 6.450572764509024e6 0.0
6.450572764509024e6 -1.3133819323769521e7 0.0
0.0 0.0 0.0

-1.3988573903746684e6 2.3149539748972364e7 0.0
2.3149539748972364e7 -2.6554036218032734e6 0.0
0.0 0.0 0.0

-9.699536177220404e6 1.420431446221885e7 0.0
1.420431446221885e7 1.9947059076583534e7 0.0
0.0 0.0 0.0

3.465509209731617e6 4.491960800038384e6 0.0
4.491960800038384e6 -2.065506130645677e7 0.0
0.0 0.0 0.0

-2.08363677061065e6 2.1454981704392e7 0.0
2.1454981704392e7 -4.61965513537325e6 0.0
0.0 0.0 0.0

-2.9617336279329616e6 2.0018470357236583e7 0.0
2.0018470357236583e7 4.227968037861943e6 0.0
0.0 0.0 0.0

-2.8790258273205436e6 5.030644745054506e6 0.0
5.030644745054506e6 406458.38108196994 0.0
0.0 0.0 0.0

1.50809071659102e6 1.0848617659583336e7 0.0
1.0848617659583336e7 -1.5747919838171655e7 0.0
0.0 0.0 0.0

-764482.5987232816 4.748375096455523e7 0.0
4.748375096455523e7 2.795433587791136e6 0.0
0.0 0.0 0.0

1.240688069495257e6 7.169891095796197e6 0.0
7.169891095796197e6 -5.964508872508998e7 0.0
0.0 0.0 0.0

3.3885053294159416e6 5.510655426348981e6 0.0
5.510655426348981e6 -2.4031833621221095e7 0.0
0.0 0.0 0.0

2.0888784547637375e6 1.2165832003472673e7 0.0
1.2165832003472673e7 -1.762660059108867e7 0.0
0.0 0.0 0.0

-4.777299775745656e6 2.1193055068991445e7 0.0
2.1193055068991445e7 5.484994733749596e6 0.0
0.0 0.0 0.0

753596.4064938417 1.4250456500406176e7 0.0
1.4250456500406176e7 -2.3663036965252798e7 0.0
0.0 0.0 0.0

1.1612755146178738e6 1.035285421048553e7 0.0
1.035285421048553e7 -8.872958406544194e6 0.0
0.0 0.0 0.0

-3.0567516410762793e6 1.0131479940512842e7 0.0
1.0131479940512842e7 -1.0698373184616272e6 0.0
0.0 0.0 0.0

2.661014033867684e6 1.798665876041442e7 0.0
1.798665876041442e7 1.64012674450152e7 0.0
0.0 0.0 0.0

-5.597233152438719e6 1.692264161945856e7 0.0
1.692264161945856e7 3.001348139000031e7 0.0
0.0 0.0 0.0

1.0007464791674752e7 1.4170096190545844e7 0.0
1.4170096190545844e7 6.1474471777696805e6 0.0
0.0 0.0 0.0

-4.60095454433695e6 3.0718831688701972e7 0.0
3.0718831688701972e7 2.4597990940726297e6 0.0
0.0 0.0 0.0

-1.2981911946790072e6 1.4922997550495477e7 0.0
1.4922997550495477e7 -8.234601202198118e6 0.0
0.0 0.0 0.0

-2.737640449361835e7 2.423788114819534e7 0.0
2.423788114819534e7 -418491.68946465105 0.0
0.0 0.0 0.0

-253286.66780353058 1.6178133025892891e7 0.0
1.6178133025892891e7 -8.971907410630703e6 0.0
0.0 0.0 0.0

-2.8920576343872263e6 2.049637686402869e7 0.0
2.049637686402869e7 3.107072884119221e6 0.0
0.0 0.0 0.0

-156250.599345373 1.3136089088206226e7 0.0
1.3136089088206226e7 -7.006554130709832e6 0.0
0.0 0.0 0.0

-1.0160584744694699e6 1.55889047548847e7 0.0
1.55889047548847e7 -2.4140746612387348e7 0.0
0.0 0.0 0.0

3.345373354263732e6 5.25990234220254e6 0.0
5.25990234220254e6 -1.966653861896274e7 0.0
0.0 0.0 0.0

1.9328805747350194e6 1.0445873344665635e7 0.0
1.0445873344665635e7 -3.1761826277437776e7 0.0
0.0 0.0 0.0

-1.655883198162321e6 1.9358373564400867e7 0.0
1.9358373564400867e7 1.5861734496531133e7 0.0
0.0 0.0 0.0

3.4340664511198187e6 7.323496862432659e6 0.0
7.323496862432659e6 -2.2414000378623303e7 0.0
0.0 0.0 0.0

-1.7968697194545828e6 2.160641691317666e7 0.0
2.160641691317666e7 -5.270527728278424e6 0.0
0.0 0.0 0.0

-653587.2883040048 1.8646422768298034e7 0.0
1.8646422768298034e7 -1.1069951773092648e7 0.0
0.0 0.0 0.0

-2.2501665188851818e6 1.3189529707604825e7 0.0
1.3189529707604825e7 -4.459024239646389e6 0.0
0.0 0.0 0.0

-4.29382038898176e6 1.5097443434734484e7 0.0
1.5097443434734484e7 2.496339609522178e6 0.0
0.0 0.0 0.0

-8.960680587118603e6 1.6619703982881239e7 0.0
1.6619703982881239e7 1.8935488808873773e7 0.0
0.0 0.0 0.0

2.6186860608286355e6 9.774416787587402e6 0.0
9.774416787587402e6 -1.601643134847515e7 0.0
0.0 0.0 0.0

-5.604853375885329e6 3.2858097858582806e7 0.0
3.2858097858582806e7 2.5444348725869427e6 0.0
0.0 0.0 0.0

-6.020919413489856e6 2.8547463827983927e7 0.0
2.8547463827983927e7 4.536748693296316e6 0.0
0.0 0.0 0.0

-8.513043270362865e6 1.7565556660156373e7 0.0
1.7565556660156373e7 1.9795990615295507e7 0.0
0.0 0.0 0.0

-1.479120973780146e6 1.5333143715597391e7 0.0
1.5333143715597391e7 -4.930403024846073e6 0.0
0.0 0.0 0.0

1.1791456418222208e6 1.5307311436360534e7 0.0
1.5307311436360534e7 -1.5662245049998201e7 0.0
0.0 0.0 0.0

3.5494481281029955e6 7.112041653922522e6 0.0
7.112041653922522e6 -2.016001711369972e7 0.0
0.0 0.0 0.0

-4.100224420757342e6 2.2660987709587798e7 0.0
2.2660987709587798e7 9.87555973365793e6 0.0
0.0 0.0 0.0

-1.2704891253234383e7 8.557421743713185e6 0.0
8.557421743713185e6 1.961544905520638e7 0.0
0.0 0.0 0.0

3.101581795033437e6 2.566344637678398e7 0.0
2.566344637678398e7 -5.068455640295733e6 0.0
0.0 0.0 0.0

-8.370224368017379e6 1.8552299746929938e6 0.0
1.8552299746929938e6 4.929416347056906e7 0.0
0.0 0.0 0.0

-1.7035575596235336e6 1.8725953642015733e7 0.0
1.8725953642015733e7 -7.559150222305042e6 0.0
0.0 0.0 0.0

-9.67331660766975e6 -3.1287433649728205e6 0.0
-3.1287433649728205e6 2.5364202019886263e7 0.0
0.0 0.0 0.0

-8.0834878317338275e6 3.166587424878731e6 0.0
3.166587424878731e6 1.295403965945488e7 0.0
0.0 0.0 0.0

3.219662383711e6 5.795623077481649e6 0.0
5.795623077481649e6 -1.2499642389824646e7 0.0
0.0 0.0 0.0

-9.608634325712845e6 1.3524966613269996e7 0.0
1.3524966613269996e7 3.0597654122491825e7 0.0
0.0 0.0 0.0

2.423423806533495e6 1.0831641219698006e7 0.0
1.0831641219698006e7 -2.64582143373539e7 0.0
0.0 0.0 0.0

-1.609630709862831e6 2.1716176329077557e7 0.0
2.1716176329077557e7 -3.10096246157763e6 0.0
0.0 0.0 0.0

-2.818561621633456e6 2.1626369012250528e7 0.0
2.1626369012250528e7 4.130429853003188e6 0.0
0.0 0.0 0.0

-1.821195521597875e6 1.5895674212675016e7 0.0
1.5895674212675016e7 -2.9042023402052494e6 0.0
0.0 0.0 0.0

-2.9829547217632597e6 2.1969808239729706e7 0.0
2.1969808239729706e7 6.241143331871849e6 0.0
0.0 0.0 0.0

1.1384455860280124e6 5.8698573006579075e6 0.0
5.8698573006579075e6 -7.420659664417764e6 0.0
0.0 0.0 0.0

-2.6467007841558624e6 1.849699001534073e7 0.0
1.849699001534073e7 -3.8820813128093937e6 0.0
0.0 0.0 0.0

8.117266309383754e6 2.5706109348157205e7 0.0
2.5706109348157205e7 -5.453752132902473e6 0.0
0.0 0.0 0.0

970784.8021488977 9.661142204189146e6 0.0
9.661142204189146e6 -8.207948500025672e6 0.0
0.0 0.0 0.0

-157110.00041424483 1.4941230804780621e7 0.0
1.4941230804780621e7 -8.51808520373104e6 0.0
0.0 0.0 0.0

-4.770887581971372e6 2.1152883947479293e7 0.0
2.1152883947479293e7 -5.737477075217616e6 0.0
0.0 0.0 0.0

-2.0573283805062866e6 1.5470857207592903e7 0.0
1.5470857207592903e7 -1.8300244696762615e6 0.0
0.0 0.0 0.0

9.50928724100387e6 2.146900596920782e7 0.0
2.146900596920782e7 -2.6955479045686917e6 0.0
0.0 0.0 0.0

-1.718888219535742e6 4.53551677737352e6 0.0
4.53551677737352e6 -1.2096786090159956e6 0.0
0.0 0.0 0.0

3.345718028113695e6 4.814200891721147e6 0.0
4.814200891721147e6 -2.8924074553380683e7 0.0
0.0 0.0 0.0

-2.444222993894897e6 3.3195296076059253e6 0.0
3.3195296076059253e6 4.888382230022412e6 0.0
0.0 0.0 0.0

-2.234166993658777e6 9.55976532448227e6 0.0
9.55976532448227e6 -2.530229382011031e6 0.0
0.0 0.0 0.0

-2.1590946906135175e6 1.6088079844646225e7 0.0
1.6088079844646225e7 -5.7726521775098415e6 0.0
0.0 0.0 0.0

-7.697726243779209e6 4.64953819173877e6 0.0
4.64953819173877e6 1.2490708456864372e7 0.0
0.0 0.0 0.0

2.559759082853758e6 6.580436609538474e6 0.0
6.580436609538474e6 -9.561579542671403e6 0.0
0.0 0.0 0.0

235246.02200146578 1.900135406564762e7 0.0
1.900135406564762e7 -1.299203479908158e7 0.0
0.0 0.0 0.0

-1.4142191469162523e6 9.025612016057068e6 0.0
9.025612016057068e6 -3.998415181157488e6 0.0
0.0 0.0 0.0

-967563.1109087758 4.288064683299229e7 0.0
4.288064683299229e7 1.7425553756362041e6 0.0
0.0 0.0 0.0

1.0078583123579971e7 2.1050205760538235e7 0.0
2.1050205760538235e7 9.883917807501532e6 0.0
0.0 0.0 0.0

-686678.7121441903 8.434803406968094e6 0.0
8.434803406968094e6 -5.111430422637147e6 0.0
0.0 0.0 0.0

-6.034159186979017e6 1.361737968530959e7 0.0
1.361737968530959e7 1.2625366736885335e7 0.0
0.0 0.0 0.0

1.9036036477489127e6 4.331532882577053e6 0.0
4.331532882577053e6 -6.596300856038615e6 0.0
0.0 0.0 0.0

-1.14507496640426e7 8.044846481106149e6 0.0
8.044846481106149e6 2.8520411534054164e7 0.0
0.0 0.0 0.0

-59108.91215763148 7.802917022746863e6 0.0
7.802917022746863e6 -6.265755227397494e6 0.0
0.0 0.0 0.0

-7.231625497023048e6 3.2909037006716903e7 0.0
3.2909037006716903e7 4.507881427768832e6 0.0
0.0 0.0 0.0

4.0647447489410406e6 2.5900404139165416e7 0.0
2.5900404139165416e7 -5.053648879694756e6 0.0
0.0 0.0 0.0

3.7486433390476285e6 6.396541942245613e6 0.0
6.396541942245613e6 -2.1140560701062914e7 0.0
0.0 0.0 0.0

-848532.1297308546 1.9147843960837986e7 0.0
1.9147843960837986e7 -9.950260964493971e6 0.0
0.0 0.0 0.0

2.7563227408613693e6 7.375151215749026e6 0.0
7.375151215749026e6 -2.959616359864693e7 0.0
0.0 0.0 0.0

-2.540483470298293e6 1.6670031175471805e7 0.0
1.6670031175471805e7 -4.515348352571203e6 0.0
0.0 0.0 0.0

1.8246071253723165e6 1.9102511727876868e7 0.0
1.9102511727876868e7 1.1403688462961517e7 0.0
0.0 0.0 0.0

6.517372367777799e6 2.5985664608321704e7 0.0
2.5985664608321704e7 -5.261538741714272e6 0.0
0.0 0.0 0.0

932457.2629830972 9.228370569474159e6 0.0
9.228370569474159e6 -7.232004649086903e6 0.0
0.0 0.0 0.0

2.497264389549869e6 8.376455131005376e6 0.0
8.376455131005376e6 -1.2041599923210654e7 0.0
0.0 0.0 0.0

-618232.4740689094 1.1628571190626219e7 0.0
1.1628571190626219e7 -4.028584758758709e6 0.0
0.0 0.0 0.0

-7.288290581625074e6 2.89725800983919e7 0.0
2.89725800983919e7 4.727960133836841e6 0.0
0.0 0.0 0.0

-4.0000035238003824e6 1.450401229749407e7 0.0
1.450401229749407e7 1.0510701903557985e6 0.0
0.0 0.0 0.0

5.673117373641755e6 3.019827399822873e7 0.0
3.019827399822873e7 -3.6650361608268656e6 0.0
0.0 0.0 0.0

-1.5897506227915282e6 1.6292358104711765e7 0.0
1.6292358104711765e7 -3.9176863336592847e6 0.0
0.0 0.0 0.0

4.445638687863624e6 1.8013227435064055e7 0.0
1.8013227435064055e7 2.0584388454056352e7 0.0
0.0 0.0 0.0

-4.0886706513423803e6 2.0775782662272986e7 0.0
2.0775782662272986e7 -3.7197881060724594e6 0.0
0.0 0.0 0.0

-1.8018857476481728e6 2.3400347307484396e7 0.0
2.3400347307484396e7 -920841.0032936985 0.0
0.0 0.0 0.0

-823902.8165047569 1.8411416590038184e7 0.0
1.8411416590038184e7 -1.2672341091505717e7 0.0
0.0 0.0 0.0

-820885.3387447521 1.3236293184300926e7 0.0
1.3236293184300926e7 -3.456717628679034e7 0.0
0.0 0.0 0.0

-7.674479958315289e6 1.6643113636738319e7 0.0
1.6643113636738319e7 2.783644481982908e7 0.0
0.0 0.0 0.0

706848.831651818 1.1197038765226254e7 0.0
1.1197038765226254e7 -1.2332134349701747e7 0.0
0.0 0.0 0.0

-1.1717526603015156e7 8.498936910577912e6 0.0
8.498936910577912e6 2.64096620432479e7 0.0
0.0 0.0 0.0

2.1659024293488013e6 1.19714237725324e7 0.0
1.19714237725324e7 -2.3914510920354962e7 0.0
0.0 0.0 0.0

-1.941473241583722e6 1.2070109057561701e7 0.0
1.2070109057561701e7 -4.711762044078824e6 0.0
0.0 0.0 0.0

3.0904622241139393e6 4.271146632140126e6 0.0
4.271146632140126e6 -1.2438473987380438e7 0.0
0.0 0.0 0.0

-3.500469286158923e6 1.80113438047146e7 0.0
1.80113438047146e7 264499.9879892678 0.0
0.0 0.0 0.0

-3.0583964953511115e6 2.270150668562305e7 0.0
2.270150668562305e7 1.6407613476369036e6 0.0
0.0 0.0 0.0

283453.2120661726 2.6691326976291556e7 0.0
2.6691326976291556e7 -3.475262768675993e6 0.0
0.0 0.0 0.0

-2.6152602674760567e6 1.7596864369694408e7 0.0
1.7596864369694408e7 -4.1923765505252206e6 0.0
0.0 0.0 0.0

2.5434497993092705e6 5.900352631139222e6 0.0
5.900352631139222e6 -8.778774740124494e6 0.0
0.0 0.0 0.0

5.172459517199542e6 2.6021654033250637e7 0.0
2.6021654033250637e7 -5.163911346308468e6 0.0
0.0 0.0 0.0

-1.1746127228470024e7 9.896861822798645e6 0.0
9.896861822798645e6 2.1513170825294334e7 0.0
0.0 0.0 0.0

2.2581902905934975e6 7.271127065693237e6 0.0
7.271127065693237e6 -3.6599604005600244e7 0.0
0.0 0.0 0.0

2.5227138391024303e6 2.0874567668378275e7 0.0
2.0874567668378275e7 1.1253065022249406e7 0.0
0.0 0.0 0.0

-3.363129701728384e6 2.510699539680334e7 0.0
2.510699539680334e7 3.739889201337084e6 0.0
0.0 0.0 0.0

-2.367994293509857e6 1.717477112652122e7 0.0
1.717477112652122e7 -1.0649520445388515e7 0.0
0.0 0.0 0.0

-5.77140237130744e6 1.723867192968665e7 0.0
1.723867192968665e7 2.834446617037057e7 0.0
0.0 0.0 0.0

-4.241771235432566e6 1.7992549798510533e7 0.0
1.7992549798510533e7 -1.4139237467322124e7 0.0
0.0 0.0 0.0

-256250.2690035412 1.2353974451745527e7 0.0
1.2353974451745527e7 -1.0099498180498326e7 0.0
0.0 0.0 0.0

1.2087650680665877e6 1.832978979383105e7 0.0
1.832978979383105e7 1.4506022877899379e7 0.0
0.0 0.0 0.0

-623035.3963034516 3.9968089474430405e7 0.0
3.9968089474430405e7 1.5121576841517184e6 0.0
0.0 0.0 0.0

-3.0220533772501783e6 2.0812498876404457e7 0.0
2.0812498876404457e7 -8.54133545716828e6 0.0
0.0 0.0 0.0

4.9382346639994055e7 1.762565592888934e7 0.0
1.762565592888934e7 3.616144787217837e6 0.0
0.0 0.0 0.0

-1.9725624048731597e6 1.3682242478726905e7 0.0
1.3682242478726905e7 -5.432822510693224e6 0.0
0.0 0.0 0.0

-3.313967394739771e6 1.8399015017325398e7 0.0
1.8399015017325398e7 -824444.8325490778 0.0
0.0 0.0 0.0

951024.8915476128 1.3907757192778263e7 0.0
1.3907757192778263e7 -1.5741803239839945e7 0.0
0.0 0.0 0.0

672773.7817152974 2.7220264155555945e7 0.0
2.7220264155555945e7 -3.444239354944912e6 0.0
0.0 0.0 0.0

2.9815116752665173e6 5.962894487661739e6 0.0
5.962894487661739e6 -3.2007173554554667e7 0.0
0.0 0.0 0.0

84781.42650455981 8.322369490530029e6 0.0
8.322369490530029e6 -7.186182662920113e6 0.0
0.0 0.0 0.0

1.7168313902793154e6 1.1114455496322652e7 0.0
1.1114455496322652e7 -1.804226059602474e7 0.0
0.0 0.0 0.0

-4.4929263206341e6 2.0799790412236493e7 0.0
2.0799790412236493e7 1.3680830937546577e7 0.0
0.0 0.0 0.0

-2.655294742804184e6 1.9359898731209155e7 0.0
1.9359898731209155e7 -3.5883871735132746e6 0.0
0.0 0.0 0.0

70848.7939758629 1.7867548908179186e7 0.0
1.7867548908179186e7 5.222410486120994e6 0.0
0.0 0.0 0.0

-1.048845919197372e6 1.2733090407215716e7 0.0
1.2733090407215716e7 -3.7417835701474138e6 0.0
0.0 0.0 0.0

-1.8469705970499683e6 1.8153065468510874e7 0.0
1.8153065468510874e7 -3.331058079533396e6 0.0
0.0 0.0 0.0

1.6269583087731623e6 1.8369064104547143e7 0.0
1.8369064104547143e7 -4.350516847833917e6 0.0
0.0 0.0 0.0

-16906.507064979407 3.790973939993e7 0.0
3.790973939993e7 1.5965759883682257e6 0.0
0.0 0.0 0.0

-1.8980012148016025e6 1.9027631770152204e7 0.0
1.9027631770152204e7 -3.054130257061123e6 0.0
0.0 0.0 0.0

-2.63847902598188e6 6.593022973545058e6 0.0
6.593022973545058e6 3.707068823392842e6 0.0
0.0 0.0 0.0

2.3247339761984117e7 1.2701768335625669e7 0.0
1.2701768335625669e7 1.0573048163920753e6 0.0
0.0 0.0 0.0

572428.2669092044 9.478516880092777e6 0.0
9.478516880092777e6 -4.5191821160053864e7 0.0
0.0 0.0 0.0

-2.3211690673821964e6 2.342127226725625e7 0.0
2.342127226725625e7 1.5795388191472362e6 0.0
0.0 0.0 0.0

-4.647327595127782e6 7.568217275056651e6 0.0
7.568217275056651e6 7.546854361712314e6 0.0
0.0 0.0 0.0

-1.4174108221100536e6 1.3157295230367148e7 0.0
1.3157295230367148e7 -6.623521121313981e6 0.0
0.0 0.0 0.0

139502.48920239555 1.1323366848448435e7 0.0
1.1323366848448435e7 -1.0424735815514544e7 0.0
0.0 0.0 0.0

15866.505739239277 3.618978703334772e7 0.0
3.618978703334772e7 1.0400153214165912e6 0.0
0.0 0.0 0.0

2.12623017460059e6 9.966326045507107e6 0.0
9.966326045507107e6 -2.792921118448498e7 0.0
0.0 0.0 0.0

-1.1959072148099998e7 3.752829829195505e6 0.0
3.752829829195505e6 2.2218059189195897e7 0.0
0.0 0.0 0.0

-4.496208420835476e6 2.0305241905698907e7 0.0
2.0305241905698907e7 -1.116513397572513e7 0.0
0.0 0.0 0.0

-6.529188538984234e6 6.43467970542483e6 0.0
6.43467970542483e6 1.1184220153834034e7 0.0
0.0 0.0 0.0

-1.6161417294765073e6 1.7896138513681445e7 0.0
1.7896138513681445e7 -7.947883212233624e6 0.0
0.0 0.0 0.0

-3.030879193617835e6 1.9571541567927267e7 0.0
1.9571541567927267e7 -1.5461936090466361e6 0.0
0.0 0.0 0.0

767631.5861130031 1.5142925777942594e7 0.0
1.5142925777942594e7 -1.9506718549847834e7 0.0
0.0 0.0 0.0

-199467.56257200835 3.477069843371838e7 0.0
3.477069843371838e7 830659.3558619085 0.0
0.0 0.0 0.0

-4.274834256940143e6 2.1398287197611377e7 0.0
2.1398287197611377e7 1.2360539142739395e7 0.0
0.0 0.0 0.0

-1.915392804538534e6 1.9868006975538813e7 0.0
1.9868006975538813e7 -2.8009432331087515e6 0.0
0.0 0.0 0.0

2.845141627368817e6 6.674109439988304e6 0.0
6.674109439988304e6 -3.0894811067908306e7 0.0
0.0 0.0 0.0

-3.4946525148119824e6 9.877320831600886e6 0.0
9.877320831600886e6 4.546434017085582e6 0.0
0.0 0.0 0.0

18152.21456123673 3.36618825868623e7 0.0
3.36618825868623e7 897904.8845439875 0.0
0.0 0.0 0.0

1.5610342016155552e6 8.52271681685893e6 0.0
8.52271681685893e6 -4.744893561179019e7 0.0
0.0 0.0 0.0

105505.5266576187 3.272872495492558e7 0.0
3.272872495492558e7 790595.5799054655 0.0
0.0 0.0 0.0

4309.726440048544 3.1875747919143137e7 0.0
3.1875747919143137e7 573409.8465947052 0.0
0.0 0.0 0.0

-2.0311345224151942e6 2.5622432080203597e7 0.0
2.5622432080203597e7 -735590.066451792 0.0
0.0 0.0 0.0

-1.9232946199052336e6 2.619828036286418e7 0.0
2.619828036286418e7 -565503.4517216746 0.0
0.0 0.0 0.0

-1.8488921302727035e6 2.6763883620817166e7 0.0
2.6763883620817166e7 -435632.0513608159 0.0
0.0 0.0 0.0

-1.7639399356059413e6 2.7299031085934967e7 0.0
2.7299031085934967e7 -380556.3501329944 0.0
0.0 0.0 0.0

-1.7084521241835852e6 2.7836953554344025e7 0.0
2.7836953554344025e7 -271799.4985378771 0.0
0.0 0.0 0.0

-1.6529725371542864e6 2.840092005080064e7 0.0
2.840092005080064e7 -271164.30842444836 0.0
0.0 0.0 0.0

-6.349626711692012e6 1.3530854557340601e7 0.0
1.3530854557340601e7 8.2992191607189495e6 0.0
0.0 0.0 0.0

-1.5167049695188024e6 2.8957560250462133e7 0.0
2.8957560250462133e7 -168933.1633813886 0.0
0.0 0.0 0.0

-1.5808082874362532e6 2.9556833487884972e7 0.0
2.9556833487884972e7 -136605.9954448507 0.0
0.0 0.0 0.0

-8.722957526029658e6 1.5887096649394235e7 0.0
1.5887096649394235e7 2.0133193822212256e7 0.0
0.0 0.0 0.0

-134133.10554327467 3.1122386127291612e7 0.0
3.1122386127291612e7 549149.208426607 0.0
0.0 0.0 0.0

-1.666176458105357e6 3.0105750090278573e7 0.0
3.0105750090278573e7 -84174.98435814516 0.0
0.0 0.0 0.0

-1.5499738815409725e6 3.07910177510578e7 0.0
3.07910177510578e7 39625.17537607113 0.0
0.0 0.0 0.0

-239530.89282878442 3.0471806880469754e7 0.0
3.0471806880469754e7 488871.16293338296 0.0
0.0 0.0 0.0

-1.399151434110929e6 1.5310885059306376e7 0.0
1.5310885059306376e7 -4.2042422706035925e6 0.0
0.0 0.0 0.0

-1.703149946600798e6 3.1510245206342228e7 0.0
3.1510245206342228e7 312.09385636250954 0.0
0.0 0.0 0.0

-528599.5824626554 2.9820064140490573e7 0.0
2.9820064140490573e7 300068.0256672409 0.0
0.0 0.0 0.0

-384112.50164001837 2.9227815534230284e7 0.0
2.9227815534230284e7 294452.96200172114 0.0
0.0 0.0 0.0

-636971.2189856851 2.871019653339269e7 0.0
2.871019653339269e7 217917.19905357284 0.0
0.0 0.0 0.0

-849586.219562034 2.8118462134591598e7 0.0
2.8118462134591598e7 168876.59067594836 0.0
0.0 0.0 0.0

-950129.6312004157 2.759970222994895e7 0.0
2.759970222994895e7 90803.16108533338 0.0
0.0 0.0 0.0

-1.1686096853033113e6 2.704938692245242e7 0.0
2.704938692245242e7 18813.729436539987 0.0
0.0 0.0 0.0

-1.2249512040355187e6 2.6521428028347243e7 0.0
2.6521428028347243e7 -53634.61141824769 0.0
0.0 0.0 0.0

-1.329077044151279e6 2.5962430242208812e7 0.0
2.5962430242208812e7 -192842.13934309463 0.0
0.0 0.0 0.0

-2.2276874578248286e6 2.199397054193975e7 0.0
2.199397054193975e7 -3.549718432450953e6 0.0
0.0 0.0 0.0

-7.480659489648361e6 1.7124784105808098e7 0.0
1.7124784105808098e7 2.641026289115525e7 0.0
0.0 0.0 0.0

-1.9688596304143202e6 3.2257598476784702e7 0.0
3.2257598476784702e7 52421.98861296056 0.0
0.0 0.0 0.0

2.702386908181726e6 8.084864283526373e6 0.0
8.084864283526373e6 -2.1506287071063045e7 0.0
0.0 0.0 0.0

-2.596596846585747e6 2.1650931178300127e7 0.0
2.1650931178300127e7 2.153123276468329e6 0.0
0.0 0.0 0.0

-2.3937448322032015e6 3.3194310259181205e7 0.0
3.3194310259181205e7 165712.89327849913 0.0
0.0 0.0 0.0

-1.1361932987770703e7 1.1094237146237697e7 0.0
1.1094237146237697e7 2.0618056918958955e7 0.0
0.0 0.0 0.0

-2.9923155531059266e6 3.427414965908841e7 0.0
3.427414965908841e7 82907.48938837263 0.0
0.0 0.0 0.0

-1.187861274630668e7 9.504592215594595e6 0.0
9.504592215594595e6 2.3000761534062486e7 0.0
0.0 0.0 0.0

-3.771387418165152e6 3.5457474694965184e7 0.0
3.5457474694965184e7 -70417.08518107701 0.0
0.0 0.0 0.0

189641.3193725655 1.7800528753229544e7 0.0
1.7800528753229544e7 -1.5121134655032827e7 0.0
0.0 0.0 0.0

2.4358142969991723e6 1.0703154804729259e7 0.0
1.0703154804729259e7 -1.7386224045238536e7 0.0
0.0 0.0 0.0

-527047.0912292805 1.341104795194503e7 0.0
1.341104795194503e7 -3.216245950465226e7 0.0
0.0 0.0 0.0

-2.126166578347177e6 1.957867506335037e7 0.0
1.957867506335037e7 -1.8968969002823974e6 0.0
0.0 0.0 0.0

-1.1010164922111414e6 1.528447624663857e7 0.0
1.528447624663857e7 -9.054395050888715e6 0.0
0.0 0.0 0.0

-1.8920589252557904e6 2.0873049617150977e7 0.0
2.0873049617150977e7 -5.702897150233291e6 0.0
0.0 0.0 0.0

152611.39635134675 1.7985922192807503e7 0.0
1.7985922192807503e7 -1.512734939271939e7 0.0
0.0 0.0 0.0

4.197322446082853e6 2.3555096364805447e6 0.0
2.3555096364805447e6 -2.6067842738621544e7 0.0
0.0 0.0 0.0

-3.733344227324941e6 1.2696437416947555e7 0.0
1.2696437416947555e7 4.864867142120495e6 0.0
0.0 0.0 0.0

-4.665279065911835e6 3.693861605676341e7 0.0
3.693861605676341e7 77031.32355510234 0.0
0.0 0.0 0.0

2.019003926254508e6 1.1493207039068954e7 0.0
1.1493207039068954e7 -1.4724253623706622e7 0.0
0.0 0.0 0.0

-1.176301038461043e7 9.9754404363604e6 0.0
9.9754404363604e6 2.53867768209055e7 0.0
0.0 0.0 0.0

-1.737301074030276e6 1.7242707191725165e7 0.0
1.7242707191725165e7 -3.6302300068742833e6 0.0
0.0 0.0 0.0

-319112.7657211955 2.789915806828045e7 0.0
2.789915806828045e7 -1.2049477595517994e6 0.0
0.0 0.0 0.0

2.8949229551372845e6 7.384247289677354e6 0.0
7.384247289677354e6 -2.258791659573266e7 0.0
0.0 0.0 0.0

-1.0735347639270911e7 3.3200750096269876e7 0.0
3.3200750096269876e7 4.684060076929658e6 0.0
0.0 0.0 0.0

-6.160752131496878e6 1.5232738920865173e7 0.0
1.5232738920865173e7 9.570162695850203e6 0.0
0.0 0.0 0.0

-1.5392644105552187e7 2.52900050412117e7 0.0
2.52900050412117e7 3.8692801347680744e6 0.0
0.0 0.0 0.0

1.700476759168678e6 1.7789633952604778e7 0.0
1.7789633952604778e7 1.2464367216077583e7 0.0
0.0 0.0 0.0

-6.602989689871014e6 3.905233903542796e7 0.0
3.905233903542796e7 79173.04484012071 0.0
0.0 0.0 0.0

1.762103616528526e6 1.1151476428852074e7 0.0
1.1151476428852074e7 -2.695927377655216e7 0.0
0.0 0.0 0.0

-4.992033197916308e6 1.5067220293722518e7 0.0
1.5067220293722518e7 5.318924292599739e6 0.0
0.0 0.0 0.0

1.201125308937667e6 1.6368954088174595e7 0.0
1.6368954088174595e7 4.0037514692147383e6 0.0
0.0 0.0 0.0

2.333726830341925e6 8.947187680467121e6 0.0
8.947187680467121e6 -1.882222398124412e7 0.0
0.0 0.0 0.0

599127.0564201097 1.907937266832749e7 0.0
1.907937266832749e7 3.652207900267698e6 0.0
0.0 0.0 0.0

2.517290903238301e6 8.784357462557346e6 0.0
8.784357462557346e6 -2.0460122283591516e7 0.0
0.0 0.0 0.0

-154275.68972453487 1.5677562629589416e7 0.0
1.5677562629589416e7 -2.6819692712760386e6 0.0
0.0 0.0 0.0

-2.3181150289413375e6 2.0083256737181928e7 0.0
2.0083256737181928e7 -760730.7737101503 0.0
0.0 0.0 0.0

-2.6272231329554506e6 2.0185248507160917e7 0.0
2.0185248507160917e7 -3.3109287882023463e6 0.0
0.0 0.0 0.0

1.8644574546822738e6 9.300682991432253e6 0.0
9.300682991432253e6 -1.5356043977983873e7 0.0
0.0 0.0 0.0

2.1892523321499653e7 2.135671413198507e7 0.0
2.135671413198507e7 8.80607901910925e6 0.0
0.0 0.0 0.0

1.6450441957007004e6 1.2460974458219172e7 0.0
1.2460974458219172e7 -1.4401673030972615e7 0.0
0.0 0.0 0.0

-562409.1024888037 1.5514829612204913e7 0.0
1.5514829612204913e7 -7.32206240861149e6 0.0
0.0 0.0 0.0

-5.1975531004155055e6 2.164103290183123e7 0.0
2.164103290183123e7 6.266843366108494e6 0.0
0.0 0.0 0.0

712164.3179550683 1.1494226934128521e7 0.0
1.1494226934128521e7 -8.610939144240525e6 0.0
0.0 0.0 0.0

-4.242826540849106e6 2.2024749605414692e7 0.0
2.2024749605414692e7 1.0971602356748594e7 0.0
0.0 0.0 0.0

3.452001965887838e6 1.7334056480322547e7 0.0
1.7334056480322547e7 2.1542966243148547e7 0.0
0.0 0.0 0.0

-9.11400620155416e6 1.2323209151304964e7 0.0
1.2323209151304964e7 1.7293615347184323e7 0.0
0.0 0.0 0.0

-9.564127948565617e6 4.146722080093298e7 0.0
4.146722080093298e7 -456664.38587054005 0.0
0.0 0.0 0.0

-729420.0033339281 1.7452925281754594e7 0.0
1.7452925281754594e7 3.684000113921328e7 0.0
0.0 0.0 0.0

-3.343834821539643e6 1.5472965697893193e7 0.0
1.5472965697893193e7 -1.3956474058855195e6 0.0
0.0 0.0 0.0

9.066702700066235e6 1.904308098163623e7 0.0
1.904308098163623e7 2.5131613781337976e6 0.0
0.0 0.0 0.0

3.0986929306415133e6 6.88507944204817e6 0.0
6.88507944204817e6 -2.537301454714858e7 0.0
0.0 0.0 0.0

1.2151994011533614e6 1.1377331825955316e7 0.0
1.1377331825955316e7 -3.060897672444595e7 0.0
0.0 0.0 0.0

-5.293141500437397e6 1.8049075324566513e7 0.0
1.8049075324566513e7 1.1138920855516424e7 0.0
0.0 0.0 0.0

-1.1976590283275211e7 2.4247676011362083e7 0.0
2.4247676011362083e7 -8.370736407628766e6 0.0
0.0 0.0 0.0

-2.756373827812562e6 1.7597509003617905e7 0.0
1.7597509003617905e7 946429.9135630347 0.0
0.0 0.0 0.0

-266810.1660469789 1.574441923422582e7 0.0
1.574441923422582e7 -1.2264426639052138e7 0.0
0.0 0.0 0.0

-1.4514484406964464e7 3.203637678381106e7 0.0
3.203637678381106e7 6.158580588725309e6 0.0
0.0 0.0 0.0

1.667387306672846e6 1.1537838706511658e7 0.0
1.1537838706511658e7 -1.865150060239661e7 0.0
0.0 0.0 0.0

-2.7432600264477953e6 1.8520502667284634e7 0.0
1.8520502667284634e7 1.0568786157222488e6 0.0
0.0 0.0 0.0

-4.0542604953680662e6 8.818952045064492e6 0.0
8.818952045064492e6 6.056361274075915e6 0.0
0.0 0.0 0.0

-3.9434861538698506e6 1.781863246919431e7 0.0
1.781863246919431e7 9.516777207179626e6 0.0
0.0 0.0 0.0

-8.059111200111744e6 6.242652921745849e7 0.0
6.242652921745849e7 541862.392045463 0.0
0.0 0.0 0.0

-7.760657412977984e6 1.3194862371199584e7 0.0
1.3194862371199584e7 1.5721423697438162e7 0.0
0.0 0.0 0.0

-3.4609244723644666e6 6.7882968918781625e6 0.0
6.7882968918781625e6 932655.3001926586 0.0
0.0 0.0 0.0

-2.0591712626697891e6 2.120728146050766e7 0.0
2.120728146050766e7 -1.4445712382255527e6 0.0
0.0 0.0 0.0

-3.343447056176684e6 2.1193142910649404e7 0.0
2.1193142910649404e7 3.541275719820793e6 0.0
0.0 0.0 0.0

-722565.8953828653 1.866999092981844e7 0.0
1.866999092981844e7 -7.834249890995035e6 0.0
0.0 0.0 0.0

-2.7659634742331854e6 2.072550262008993e7 0.0
2.072550262008993e7 -2.1895520259492258e6 0.0
0.0 0.0 0.0

-8.98408277010815e6 1.3115260418907034e6 0.0
1.3115260418907034e6 1.304485940308327e7 0.0
0.0 0.0 0.0

-20710.06581840734 1.7250223328759234e7 0.0
1.7250223328759234e7 -4.226832739417511e6 0.0
0.0 0.0 0.0

-3.3432692205175003e6 2.193625132223777e7 0.0
2.193625132223777e7 3.6050831504763723e6 0.0
0.0 0.0 0.0

1.1184131839667913e6 1.0572145003885059e7 0.0
1.0572145003885059e7 -1.3355304944511674e7 0.0
0.0 0.0 0.0

567738.9185117881 1.7666142616111226e7 0.0
1.7666142616111226e7 -3.321294006668616e6 0.0
0.0 0.0 0.0

-1.803493759334645e7 2.4199902960631736e7 0.0
2.4199902960631736e7 1.4895146429872e6 0.0
0.0 0.0 0.0

-6.3602011390059795e6 1.3998227103342116e7 0.0
1.3998227103342116e7 1.3946872308880707e7 0.0
0.0 0.0 0.0

261718.27707311232 1.729765514455958e7 0.0
1.729765514455958e7 -1.622777844902273e7 0.0
0.0 0.0 0.0

-3.475617289591484e6 2.234346363485252e7 0.0
2.234346363485252e7 5.598598970066476e6 0.0
0.0 0.0 0.0

3.693191555212561e6 2.8212172952324953e6 0.0
2.8212172952324953e6 -1.4366376143023107e7 0.0
0.0 0.0 0.0

-3.761016050282078e6 -2.0455333572570626e6 0.0
-2.0455333572570626e6 3.9789218155928245e6 0.0
0.0 0.0 0.0

-2.3146178996187365e6 -837454.7276759796 0.0
-837454.7276759796 2.2951284438938666e6 0.0
0.0 0.0 0.0

-8.855360723191125e6 -5.338569805217797e6 0.0
-5.338569805217797e6 2.5055280624144133e7 0.0
0.0 0.0 0.0

-1.0206427770973113e6 637538.9603382112 0.0
637538.9603382112 209682.11369888042 0.0
0.0 0.0 0.0

-8.509959816883642e6 -5.804059595057934e6 0.0
-5.804059595057934e6 2.2583996904399816e7 0.0
0.0 0.0 0.0

3.568459168912981e6 2.9865860721245524e6 0.0
2.9865860721245524e6 -1.1366775835387602e7 0.0
0.0 0.0 0.0

-4.598067133979163e6 -5.413195288023785e6 0.0
-5.413195288023785e6 8.470509286828717e6 0.0
0.0 0.0 0.0

-6.793626422606072e6 -6.836244609977087e6 0.0
-6.836244609977087e6 1.463894594405939e7 0.0
0.0 0.0 0.0

255940.6632338724 1.960250195796475e6 0.0
1.960250195796475e6 -2.0366758451103957e6 0.0
0.0 0.0 0.0

-8.08185914574446e6 -6.448701401733946e6 0.0
-6.448701401733946e6 1.985621040938675e7 0.0
0.0 0.0 0.0

2.844165775001266e6 3.073683336318424e6 0.0
3.073683336318424e6 -8.257146657225198e6 0.0
0.0 0.0 0.0

1.800480714249947e6 2.8841695298175407e6 0.0
2.8841695298175407e6 -5.220419709529337e6 0.0
0.0 0.0 0.0

-3.637740382855544e6 -3.2391156721825358e6 0.0
-3.2391156721825358e6 4.997236133007172e6 0.0
0.0 0.0 0.0

4.239639289687535e6 2.44008212588107e6 0.0
2.44008212588107e6 -2.3523197814551443e7 0.0
0.0 0.0 0.0

4.306897225674761e6 2.3464643575144713e6 0.0
2.3464643575144713e6 -2.5446966332887124e7 0.0
0.0 0.0 0.0

4.230870190340501e6 2.4696966119246637e6 0.0
2.4696966119246637e6 -2.1606050415144607e7 0.0
0.0 0.0 0.0

4.299881871393791e6 2.6693320830472405e6 0.0
2.6693320830472405e6 -1.862019285276015e7 0.0
0.0 0.0 0.0

-4.860082248859622e6 -4.344725202393205e6 0.0
-4.344725202393205e6 7.25377965345088e6 0.0
0.0 0.0 0.0

-8.124771137831378e6 -6.078095188352165e6 0.0
-6.078095188352165e6 2.112871032633342e7 0.0
0.0 0.0 0.0

4.279670113051517e6 2.4437934884984745e6 0.0
2.4437934884984745e6 -2.457550400826138e7 0.0
0.0 0.0 0.0

3.8365108896916276e6 2.7518109080834254e6 0.0
2.7518109080834254e6 -1.6477262967540309e7 0.0
0.0 0.0 0.0

4.0367375030713174e6 2.7088267746489807e6 0.0
2.7088267746489807e6 -1.7533779440026924e7 0.0
0.0 0.0 0.0

3.9475583744362276e6 2.778779924879642e6 0.0
2.778779924879642e6 -1.5536739794073325e7 0.0
0.0 0.0 0.0

925385.498010342 1.5876495954588566e7 0.0
1.5876495954588566e7 -1.465417647520696e7 0.0
0.0 0.0 0.0

-1.054917189216461e7 1.2063878809115946e7 0.0
1.2063878809115946e7 1.9632937342946123e7 0.0
0.0 0.0 0.0

-1.2266802709309423e7 7.031416847478034e6 0.0
7.031416847478034e6 2.4563012261156898e7 0.0
0.0 0.0 0.0

-4.1178479765411806e6 2.2708908018433567e7 0.0
2.2708908018433567e7 9.79461414368164e6 0.0
0.0 0.0 0.0

-783498.7006461499 1.5833255473492306e7 0.0
1.5833255473492306e7 -2.256042801630944e7 0.0
0.0 0.0 0.0

-3.89909487626642e6 1.8688817191021994e7 0.0
1.8688817191021994e7 3.630035796096961e6 0.0
0.0 0.0 0.0

-1.426917799265948e7 4.500811459023563e7 0.0
4.500811459023563e7 -1.0327343858923642e6 0.0
0.0 0.0 0.0

-3.36498824194976e6 1.6494291115168339e7 0.0
1.6494291115168339e7 -1.1811463393863842e6 0.0
0.0 0.0 0.0

-4.307680258074063e6 1.9119684541132044e7 0.0
1.9119684541132044e7 -1.3127701588805998e7 0.0
0.0 0.0 0.0

7.667022191783363e6 2.1187465641800527e7 0.0
2.1187465641800527e7 9.756678822570032e6 0.0
0.0 0.0 0.0

-2.9615516784414793e6 1.9663656770213626e7 0.0
1.9663656770213626e7 8.014346519234996e6 0.0
0.0 0.0 0.0

-3.67555934569941e6 1.8748734572907764e7 0.0
1.8748734572907764e7 9.14197576147024e6 0.0
0.0 0.0 0.0

464908.8343529152 1.9470375542992733e7 0.0
1.9470375542992733e7 -1.1977849252038367e7 0.0
0.0 0.0 0.0

-4.410287658645724e6 1.7136888150713358e7 0.0
1.7136888150713358e7 1.1074210656198498e7 0.0
0.0 0.0 0.0

-2.8230508905039006e6 2.125254997818617e7 0.0
2.125254997818617e7 -1.1782064534405593e6 0.0
0.0 0.0 0.0

-2.427041188577961e6 1.963319875703387e7 0.0
1.963319875703387e7 -4.450460341066056e6 0.0
0.0 0.0 0.0

-6.788909565685132e6 1.3945174317623619e7 0.0
1.3945174317623619e7 9.914444626866285e6 0.0
0.0 0.0 0.0

-681680.0103286104 1.4727503502456645e7 0.0
1.4727503502456645e7 -1.0208735215185216e7 0.0
0.0 0.0 0.0

-2.9911859450484193e6 1.7174647910902288e7 0.0
1.7174647910902288e7 2.1132358623667983e6 0.0
0.0 0.0 0.0

1.509455750789701e6 9.947262571258007e6 0.0
9.947262571258007e6 -1.434178646836043e7 0.0
0.0 0.0 0.0

-2.815589378782491e6 -2.6999464873011652e6 0.0
-2.6999464873011652e6 7.079737997605942e6 0.0
0.0 0.0 0.0

-2.310605661802654e6 -1.1502577410480313e6 0.0
-1.1502577410480313e6 5.412065867121098e6 0.0
0.0 0.0 0.0

-8.369847455593148e6 -6.256606394098019e6 0.0
-6.256606394098019e6 2.0056209503429886e7 0.0
0.0 0.0 0.0

-3.391816093804509e6 -3.4664178428050065e6 0.0
-3.4664178428050065e6 8.593451940545162e6 0.0
0.0 0.0 0.0

-3.935852301373567e6 -4.981742904191745e6 0.0
-4.981742904191745e6 9.775993513282312e6 0.0
0.0 0.0 0.0

4.204804674938997e6 2.419328818127473e6 0.0
2.419328818127473e6 -2.368827466377648e7 0.0
0.0 0.0 0.0

4.172207353528591e6 2.3613781801521275e6 0.0
2.3613781801521275e6 -2.4466119725777127e7 0.0
0.0 0.0 0.0

-8.500406984009318e6 -5.867232242484803e6 0.0
-5.867232242484803e6 2.167584691049488e7 0.0
0.0 0.0 0.0

4.043770340984503e6 2.730705434603827e6 0.0
2.730705434603827e6 -1.7990896211359903e7 0.0
0.0 0.0 0.0

3.8859046288899435e6 2.902382400757833e6 0.0
2.902382400757833e6 -1.462640450424252e7 0.0
0.0 0.0 0.0

3.956945390911556e6 2.798093572513356e6 0.0
2.798093572513356e6 -1.6574447082306813e7 0.0
0.0 0.0 0.0

3.928409954697039e6 2.763989786179477e6 0.0
2.763989786179477e6 -1.5592179157977773e7 0.0
0.0 0.0 0.0

-3.9501622331610746e6 1.5611510806055415e7 0.0
1.5611510806055415e7 1.1769859761106397e6 0.0
0.0 0.0 0.0

-7.342120717648873e6 1.755770046855313e7 0.0
1.755770046855313e7 2.501063820072747e7 0.0
0.0 0.0 0.0

-5.312756704611478e6 1.6757877189925388e7 0.0
1.6757877189925388e7 1.3870123574479725e7 0.0
0.0 0.0 0.0

3.885705381566406e6 5.804344499886695e6 0.0
5.804344499886695e6 -2.089282724717026e7 0.0
0.0 0.0 0.0

-1.2042933603258333e6 2.3325825819480963e7 0.0
2.3325825819480963e7 -4.782884810587972e6 0.0
0.0 0.0 0.0

-1.8526769600063106e6 1.9268278197662726e7 0.0
1.9268278197662726e7 1.9263178196223192e7 0.0
0.0 0.0 0.0

-1.1430285570785094e7 1.4058900993144695e7 0.0
1.4058900993144695e7 2.115293937472213e7 0.0
0.0 0.0 0.0

2.0883514955524085e6 9.600586813616628e6 0.0
9.600586813616628e6 -1.777118223088789e7 0.0
0.0 0.0 0.0

1.630777736996782e6 1.1940994471650274e7 0.0
1.1940994471650274e7 -1.9140759132762246e7 0.0
0.0 0.0 0.0

-2.426920685026041e6 1.8796575407876402e7 0.0
1.8796575407876402e7 -4.761704362136163e6 0.0
0.0 0.0 0.0

-2.8601341810515476e6 1.903235454745018e7 0.0
1.903235454745018e7 2.146324768112337e7 0.0
0.0 0.0 0.0

-3.6746127053663963e6 1.1348910794294918e7 0.0
1.1348910794294918e7 4.74982736361646e6 0.0
0.0 0.0 0.0

-964713.6254665449 1.9255720487571653e7 0.0
1.9255720487571653e7 -6.724838542108099e6 0.0
0.0 0.0 0.0

-2.0237580741094546e6 2.3183367884692065e7 0.0
2.3183367884692065e7 -83032.3875205213 0.0
0.0 0.0 0.0

1.251357746913747e6 1.336936425178524e7 0.0
1.336936425178524e7 -1.4224761799047835e7 0.0
0.0 0.0 0.0

-2.1163540114575727e6 2.0403144295589134e7 0.0
2.0403144295589134e7 -1.6635072872180776e6 0.0
0.0 0.0 0.0

1.8841584336853991e6 3.7796404508626107e6 0.0
3.7796404508626107e6 1.7148682559591564e6 0.0
0.0 0.0 0.0

-3.268658386302336e6 1.9255983011210166e7 0.0
1.9255983011210166e7 2.0487210597849973e7 0.0
0.0 0.0 0.0

1.4455316953633353e6 1.0244447900140151e7 0.0
1.0244447900140151e7 -3.600028543908761e7 0.0
0.0 0.0 0.0

1.5460382379818335e6 1.120442594153268e7 0.0
1.120442594153268e7 -2.8779949372559935e7 0.0
0.0 0.0 0.0

-887136.5298584991 1.843011377674414e7 0.0
1.843011377674414e7 -7.095907456069896e6 0.0
0.0 0.0 0.0

-9.255900881177966e6 2.3166828438012045e7 0.0
2.3166828438012045e7 4.913140148204466e6 0.0
0.0 0.0 0.0

2.906494582271865e6 6.465941631567961e6 0.0
6.465941631567961e6 -1.1377207008601358e7 0.0
0.0 0.0 0.0

-2.7480749959871755e6 1.6635869661290584e7 0.0
1.6635869661290584e7 842912.6122216769 0.0
0.0 0.0 0.0

-2.843058203317378e6 1.9905810395910848e7 0.0
1.9905810395910848e7 -2.4308768916157996e6 0.0
0.0 0.0 0.0

-1.8897177821341734e6 2.0686682387991194e7 0.0
2.0686682387991194e7 -2.5349771879969556e6 0.0
0.0 0.0 0.0

-951331.1464947751 1.5844448979742307e7 0.0
1.5844448979742307e7 -2.458124641056472e7 0.0
0.0 0.0 0.0

1.7161172043744326e6 1.1709802859741734e7 0.0
1.1709802859741734e7 -2.402926435449867e7 0.0
0.0 0.0 0.0

-4.998630561448285e6 1.1959215908042466e7 0.0
1.1959215908042466e7 3.7527032119094436e6 0.0
0.0 0.0 0.0

-5.16042263627648e6 1.773658320977191e7 0.0
1.773658320977191e7 1.0033593549288254e7 0.0
0.0 0.0 0.0

480159.66423196904 1.439988460436763e7 0.0
1.439988460436763e7 -2.534939640928776e7 0.0
0.0 0.0 0.0

-1.1895043391257052e6 2.1380023315108452e7 0.0
2.1380023315108452e7 -4.915372999162765e6 0.0
0.0 0.0 0.0

2.2413907643534634e6 2.9400750260990025e6 0.0
2.9400750260990025e6 -6.29532333194595e6 0.0
0.0 0.0 0.0

4.276743412657908e6 2.9758549250139814e7 0.0
2.9758549250139814e7 -3.280438660793701e6 0.0
0.0 0.0 0.0

2.50262494536097e6 7.227732489401273e6 0.0
7.227732489401273e6 -1.0475903671524433e7 0.0
0.0 0.0 0.0

-1.1445126394852994e6 1.428970597622072e7 0.0
1.428970597622072e7 -4.485074924971414e6 0.0
0.0 0.0 0.0

-4.653969429112163e6 2.0276428723307483e7 0.0
2.0276428723307483e7 1.19433842948629e7 0.0
0.0 0.0 0.0

-2.9082766403684304e6 1.397006641556192e7 0.0
1.397006641556192e7 1.922895058720357e6 0.0
0.0 0.0 0.0

-3.0502693102776194e6 1.5889811728420291e7 0.0
1.5889811728420291e7 -2.499222480706339e6 0.0
0.0 0.0 0.0

-2.9676921180977584e6 2.041318400318286e7 0.0
2.041318400318286e7 -1.3134380447304405e6 0.0
0.0 0.0 0.0

-5.003443842196073e6 1.0523746862853609e7 0.0
1.0523746862853609e7 3.507292557198883e6 0.0
0.0 0.0 0.0

-8.002481801154572e6 -237582.18064118904 0.0
-237582.18064118904 1.2642282002472397e7 0.0
0.0 0.0 0.0

-4.26734897492826e6 1.6813584061440106e7 0.0
1.6813584061440106e7 9.90720783514613e6 0.0
0.0 0.0 0.0

-3.3166202355724494e6 1.8651722792210434e7 0.0
1.8651722792210434e7 5.576628608756376e6 0.0
0.0 0.0 0.0

467602.1489011566 7.123279728337353e6 0.0
7.123279728337353e6 -7.255165701354348e6 0.0
0.0 0.0 0.0

-5.447998815250717e6 1.4942079796755634e7 0.0
1.4942079796755634e7 1.2061636995945632e7 0.0
0.0 0.0 0.0

-2.556274614013671e6 2.100149268069211e7 0.0
2.100149268069211e7 -3.048072498359754e6 0.0
0.0 0.0 0.0

3.110624120257139e6 8.998698704328014e6 0.0
8.998698704328014e6 -2.5104456600790124e7 0.0
0.0 0.0 0.0

-8.221599962585193e6 2.3411448302587118e7 0.0
2.3411448302587118e7 4.1840231484963372e6 0.0
0.0 0.0 0.0

-2.390783343757275e6 1.7922824793573793e7 0.0
1.7922824793573793e7 -5.086114663162353e6 0.0
0.0 0.0 0.0

2.0231490950873494e6 3.0082998976035356e6 0.0
3.0082998976035356e6 -5.401388108327415e6 0.0
0.0 0.0 0.0

-4.199527452444843e6 2.4578645851397596e7 0.0
2.4578645851397596e7 6.708127736000927e6 0.0
0.0 0.0 0.0

-1.2375227198802533e7 8.988094257288244e6 0.0
8.988094257288244e6 1.8090127512566343e7 0.0
0.0 0.0 0.0

-2.850603540265596e6 1.7252385794789195e7 0.0
1.7252385794789195e7 -3.267208476660254e6 0.0
0.0 0.0 0.0

-1.7731757756071677e6 2.2213855333981887e7 0.0
2.2213855333981887e7 -2.098462133545202e6 0.0
0.0 0.0 0.0

-2.671061545802758e6 2.2792548472883273e7 0.0
2.2792548472883273e7 -750084.4589961222 0.0
0.0 0.0 0.0

-2.394266551210986e6 2.044854055635392e7 0.0
2.044854055635392e7 -4.154431341600643e6 0.0
0.0 0.0 0.0

-2.470360488689604e6 2.0555624361289524e7 0.0
2.0555624361289524e7 307745.57585903804 0.0
0.0 0.0 0.0

3.0697709771825504e6 3.027207440312521e6 0.0
3.027207440312521e6 -9.248868734047163e6 0.0
0.0 0.0 0.0

-704203.6029940489 2.504377633062702e7 0.0
2.504377633062702e7 -3.977729760157779e6 0.0
0.0 0.0 0.0

-1.4110112152638897e7 1.8195208127394915e7 0.0
1.8195208127394915e7 -6.128474921734638e7 0.0
0.0 0.0 0.0

1.3675877376224596e7 1.8731209571764253e7 0.0
1.8731209571764253e7 5.989760367456608e7 0.0
0.0 0.0 0.0

932076.5140218567 1.4484313561414652e7 0.0
1.4484313561414652e7 -1.822668759410264e7 0.0
0.0 0.0 0.0

-1.2762688960793703e6 1.9814984167090848e7 0.0
1.9814984167090848e7 -5.605655861308359e6 0.0
0.0 0.0 0.0

-3.5076036458047694e6 1.5808420537379667e7 0.0
1.5808420537379667e7 -1.9227405689511955e7 0.0
0.0 0.0 0.0

-2.294996084450692e6 1.702072349496179e7 0.0
1.702072349496179e7 -5.431178196362118e6 0.0
0.0 0.0 0.0

533344.8826133325 1.964614318515934e7 0.0
1.964614318515934e7 -1.208558922743811e7 0.0
0.0 0.0 0.0

-1.5369448299890328e6 1.586223836878548e7 0.0
1.586223836878548e7 -7.862954453490089e6 0.0
0.0 0.0 0.0

-3.1015100102358926e6 2.0118751892036404e7 0.0
2.0118751892036404e7 -414569.3248008223 0.0
0.0 0.0 0.0

1.5175354556680769e6 9.01581415151624e6 0.0
9.01581415151624e6 -4.44836053214114e7 0.0
0.0 0.0 0.0

-8.777554751706127e6 2.2009534359858096e7 0.0
2.2009534359858096e7 3.3100268854169105e6 0.0
0.0 0.0 0.0

-3.7069942603847687e6 2.0323986395563494e7 0.0
2.0323986395563494e7 5.749500167782245e6 0.0
0.0 0.0 0.0

-996265.6568407556 1.6087439645464897e7 0.0
1.6087439645464897e7 -6.116621308206286e6 0.0
0.0 0.0 0.0

1.5855354673697567e6 1.2303772076919992e7 0.0
1.2303772076919992e7 -2.2764150514022514e7 0.0
0.0 0.0 0.0

1.320283260225071e7 1.9467330267982874e7 0.0
1.9467330267982874e7 4.4009442160148785e7 0.0
0.0 0.0 0.0

-556459.8124043262 2.0178316963416085e7 0.0
2.0178316963416085e7 -8.435408868573874e6 0.0
0.0 0.0 0.0

-2.3919002907069296e7 5.06572249445255e7 0.0
5.06572249445255e7 -1.152709317415421e6 0.0
0.0 0.0 0.0

1.093549752104017e6 1.392024155145225e7 0.0
1.392024155145225e7 -1.932310478402645e7 0.0
0.0 0.0 0.0

-1.6922549554230173e6 2.014144477974738e7 0.0
2.014144477974738e7 -3.6619458368133786e6 0.0
0.0 0.0 0.0

2.8898492686417187e6 3.0884064765762715e6 0.0
3.0884064765762715e6 -8.539553252149053e6 0.0
0.0 0.0 0.0

2.82911534752116e6 8.016977701092607e6 0.0
8.016977701092607e6 -2.4697869528211568e7 0.0
0.0 0.0 0.0

-2.0912922399044044e6 2.2469689784763616e7 0.0
2.2469689784763616e7 -229702.21455247357 0.0
0.0 0.0 0.0

-5.994708225920166e6 1.6519326327701293e7 0.0
1.6519326327701293e7 -3.5626761357355565e7 0.0
0.0 0.0 0.0

-1.3805171067187767e6 1.6668186171326883e7 0.0
1.6668186171326883e7 -4.876065110102662e6 0.0
0.0 0.0 0.0

1.2764436146861408e6 1.1804812104514787e7 0.0
1.1804812104514787e7 -1.1361331104275757e7 0.0
0.0 0.0 0.0

-3.604032977231227e6 1.5107611631737825e7 0.0
1.5107611631737825e7 4.8058933712891545e6 0.0
0.0 0.0 0.0

1.319459304307161e6 1.3395903127264993e7 0.0
1.3395903127264993e7 -2.0479697272796087e7 0.0
0.0 0.0 0.0

-4.741827717798887e6 1.4522687468147766e7 0.0
1.4522687468147766e7 3.909154066036571e6 0.0
0.0 0.0 0.0

341137.9730151333 1.6808647315802757e7 0.0
1.6808647315802757e7 -1.7349706680273347e7 0.0
0.0 0.0 0.0

-2.057707143920823e7 2.7301751861157607e7 0.0
2.7301751861157607e7 -8.213862020272631e6 0.0
0.0 0.0 0.0

-5.480169887950334e6 -6.178035455764772e6 0.0
-6.178035455764772e6 1.0601069945779521e7 0.0
0.0 0.0 0.0

-4.28718996142322e6 1.493525794850401e7 0.0
1.493525794850401e7 7.712560060732659e6 0.0
0.0 0.0 0.0

-2.2637577413434885e6 2.0890615852766123e7 0.0
2.0890615852766123e7 -556408.0363981007 0.0
0.0 0.0 0.0

-8.715608699196871e6 839569.2755864142 0.0
839569.2755864142 4.260188483687082e7 0.0
0.0 0.0 0.0

57647.64549149992 1.867739532860405e7 0.0
1.867739532860405e7 1.2450119150144985e7 0.0
0.0 0.0 0.0

-1.9335122925925693e6 1.6436104984843215e7 0.0
1.6436104984843215e7 -6.662549232403814e6 0.0
0.0 0.0 0.0

211200.30752173252 1.9555550861190822e7 0.0
1.9555550861190822e7 -1.1172193320711602e7 0.0
0.0 0.0 0.0

-1.0469259942883491e6 1.7575510135803565e7 0.0
1.7575510135803565e7 -9.715075345742116e6 0.0
0.0 0.0 0.0

-1.2503168309562407e6 1.3541496805264054e7 0.0
1.3541496805264054e7 -7.641523721186976e6 0.0
0.0 0.0 0.0

-1.9695659275653963e6 1.9304650242392786e7 0.0
1.9304650242392786e7 -6.405152502370167e6 0.0
0.0 0.0 0.0

-4.702810417608289e6 1.7724797883801173e7 0.0
1.7724797883801173e7 1.3267825560867455e7 0.0
0.0 0.0 0.0

-2.9282886895373613e6 1.8103928447040617e7 0.0
1.8103928447040617e7 2.1549376858133394e6 0.0
0.0 0.0 0.0

-3.100800614934009e6 1.688149292146737e7 0.0
1.688149292146737e7 -2.268443945078214e6 0.0
0.0 0.0 0.0

2.941199498359043e6 7.832549724674119e6 0.0
7.832549724674119e6 -3.142905650489513e7 0.0
0.0 0.0 0.0

-4.99162234136207e6 2.5161219153325334e7 0.0
2.5161219153325334e7 7.018336477457793e6 0.0
0.0 0.0 0.0

-4.66457387880669e6 2.3165714295719997e6 0.0
2.3165714295719997e6 7.261139842612319e6 0.0
0.0 0.0 0.0

-4.552288187274027e6 1.743672457910753e7 0.0
1.743672457910753e7 1.2198514567558005e7 0.0
0.0 0.0 0.0

794215.7939332882 1.1961498524028651e7 0.0
1.1961498524028651e7 -9.483693722174015e6 0.0
0.0 0.0 0.0

3.839906629751077e6 3.732316162331172e6 0.0
3.732316162331172e6 -1.974476375558628e7 0.0
0.0 0.0 0.0

1.4465701215648586e6 1.2817718633954864e7 0.0
1.2817718633954864e7 -2.1686185786823127e7 0.0
0.0 0.0 0.0

-4.589786274079569e6 7.248704249478208e6 0.0
7.248704249478208e6 2.707865475766023e6 0.0
0.0 0.0 0.0

-1.1399872205968738e7 1.3675345883531604e7 0.0
1.3675345883531604e7 2.4948889429578777e7 0.0
0.0 0.0 0.0

-2.1614688796932604e6 1.8223480071210787e7 0.0
1.8223480071210787e7 -5.944371697004556e6 0.0
0.0 0.0 0.0

-4.463150580319652e6 -5.629243450626963e6 0.0
-5.629243450626963e6 1.1254385484067434e7 0.0
0.0 0.0 0.0

-4.916024697136376e6 1.3293994938605553e7 0.0
1.3293994938605553e7 3.873904606954201e6 0.0
0.0 0.0 0.0

89198.2300310256 2.012090145472064e7 0.0
2.012090145472064e7 -1.0066938361673683e7 0.0
0.0 0.0 0.0

-1.8812816926539037e6 1.7422262255976677e7 0.0
1.7422262255976677e7 -1.787914140683057e7 0.0
0.0 0.0 0.0

1.1435870023721047e6 1.1910272964269236e7 0.0
1.1910272964269236e7 -1.5410365760112204e7 0.0
0.0 0.0 0.0

-350576.0105347701 9.479055611274004e6 0.0
9.479055611274004e6 -6.915988902560271e6 0.0
0.0 0.0 0.0

-1.5323968729743809e6 1.7586069469167255e7 0.0
1.7586069469167255e7 -4.554417596009208e6 0.0
0.0 0.0 0.0

-4.28192058331606e6 1.8394719916636825e7 0.0
1.8394719916636825e7 2.3268643424922675e7 0.0
0.0 0.0 0.0

-2.4916187439207816e6 2.2984299289181508e7 0.0
2.2984299289181508e7 -1.5542780423636038e6 0.0
0.0 0.0 0.0

-7.3896355338494545e6 1.8413774549777925e7 0.0
1.8413774549777925e7 1.881999710583667e7 0.0
0.0 0.0 0.0

-3.586740675400735e6 2.016272879592917e7 0.0
2.016272879592917e7 1.0641869698235791e7 0.0
0.0 0.0 0.0

225127.88841496268 1.075782003011979e7 0.0
1.075782003011979e7 -9.528590916074893e6 0.0
0.0 0.0 0.0

-3.7030158556581037e6 1.394755625585868e7 0.0
1.394755625585868e7 4.872175906711017e6 0.0
0.0 0.0 0.0

-903522.8401452797 1.856314173096926e7 0.0
1.856314173096926e7 1.2737767095109165e7 0.0
0.0 0.0 0.0

-1.7219883826825903e6 1.413883237826268e7 0.0
1.413883237826268e7 -6.396246701887811e6 0.0
0.0 0.0 0.0

414129.55703289993 1.467310157783552e7 0.0
1.467310157783552e7 -2.3564819511282444e7 0.0
0.0 0.0 0.0

-1.634592078077276e6 1.8468052292492166e7 0.0
1.8468052292492166e7 -4.2389378631729465e6 0.0
0.0 0.0 0.0

720881.3213084992 1.5011358728363257e7 0.0
1.5011358728363257e7 -1.7147428089297954e7 0.0
0.0 0.0 0.0

-3.286884580021468e6 1.5670354182702344e7 0.0
1.5670354182702344e7 3.378170688409806e6 0.0
0.0 0.0 0.0

-6.899979819545345e6 1.5869337781361824e7 0.0
1.5869337781361824e7 -2.6474588609496936e7 0.0
0.0 0.0 0.0

-1.684987372772946e6 1.93191641947254e7 0.0
1.93191641947254e7 -3.9494314200200546e6 0.0
0.0 0.0 0.0

5.156810497773605e6 1.917097038635668e7 0.0
1.917097038635668e7 -1.1383148436901653e6 0.0
0.0 0.0 0.0

-9.042122296981037e6 2.8912300282582515e6 0.0
2.8912300282582515e6 4.162791488927123e7 0.0
0.0 0.0 0.0

-7.307876285299862e6 3.2593399436510075e7 0.0
3.2593399436510075e7 4.200706963412466e6 0.0
0.0 0.0 0.0

-3.4318804406944057e6 2.023570541464709e7 0.0
2.023570541464709e7 9.693828373453012e6 0.0
0.0 0.0 0.0

-9.570999984446794e6 1.4666223962241432e7 0.0
1.4666223962241432e7 2.729393861391891e7 0.0
0.0 0.0 0.0

-3.711423331666975e6 2.268407225076798e7 0.0
2.268407225076798e7 8.883073631014388e6 0.0
0.0 0.0 0.0

-2.7030357343761576e6 1.5613234425376605e7 0.0
1.5613234425376605e7 709837.4921595072 0.0
0.0 0.0 0.0

-815097.0618398897 1.6428426143818505e7 0.0
1.6428426143818505e7 -6.9746236971790325e6 0.0
0.0 0.0 0.0

-1.3156370475481234e6 1.7895530141936503e7 0.0
1.7895530141936503e7 -5.427820657648564e6 0.0
0.0 0.0 0.0

-1.235401818393629e6 1.0298367829075156e7 0.0
1.0298367829075156e7 -1.44119759622433e6 0.0
0.0 0.0 0.0

-35823.93579137651 2.071297662853998e7 0.0
2.071297662853998e7 -9.042032307960127e6 0.0
0.0 0.0 0.0

2.9760170132701434e6 6.567144226440543e6 0.0
6.567144226440543e6 -1.949407463223115e7 0.0
0.0 0.0 0.0

1.5662110533606727e6 6.581014671180564e6 0.0
6.581014671180564e6 -9.826945913753213e6 0.0
0.0 0.0 0.0

-4.0646190078773983e6 1.9725599762376733e7 0.0
1.9725599762376733e7 1.297163799284541e7 0.0
0.0 0.0 0.0

-2.3416683475475376e6 2.2504712192675274e7 0.0
2.2504712192675274e7 -2.5766298322713054e6 0.0
0.0 0.0 0.0

4.319722519434928e6 1.9505006057227023e7 0.0
1.9505006057227023e7 -3.123262954142686e6 0.0
0.0 0.0 0.0

-1.1573424161553612e7 2.5021810073600683e7 0.0
2.5021810073600683e7 4.870193061304702e6 0.0
0.0 0.0 0.0

2.282231936296338e6 6.34243027257384e6 0.0
6.34243027257384e6 -1.3424896657318806e7 0.0
0.0 0.0 0.0

-2.2222878191848714e6 1.4705344273632044e7 0.0
1.4705344273632044e7 -5.139610046485412e6 0.0
0.0 0.0 0.0

3.952943038303364e7 1.5178203152615828e7 0.0
1.5178203152615828e7 1.9994560967507455e6 0.0
0.0 0.0 0.0

-111543.40687709488 9.837512277132826e6 0.0
9.837512277132826e6 -8.0326163707283465e6 0.0
0.0 0.0 0.0

3.047124511533823e6 6.737242939025983e6 0.0
6.737242939025983e6 -2.3615857564343594e7 0.0
0.0 0.0 0.0

-7.135159666739598e6 1.7876929079968944e7 0.0
1.7876929079968944e7 2.379533511061567e7 0.0
0.0 0.0 0.0

679299.9820722267 1.5898663236372607e7 0.0
1.5898663236372607e7 -1.8235960731723137e7 0.0
0.0 0.0 0.0

-9.793257950906344e6 1.0490998663371569e7 0.0
1.0490998663371569e7 1.771834941553584e7 0.0
0.0 0.0 0.0

-1.1541676554525025e7 3.1639544746170685e7 0.0
3.1639544746170685e7 5.198707630944362e6 0.0
0.0 0.0 0.0

-6.904293332675891e6 1.814630693144327e7 0.0
1.814630693144327e7 2.2747489981602333e7 0.0
0.0 0.0 0.0

-4.09560099307136e6 2.3343484628684927e7 0.0
2.3343484628684927e7 8.662995337995816e6 0.0
0.0 0.0 0.0

-1.6864480024796724e7 2.5280575491634168e7 0.0
2.5280575491634168e7 -7.588004993399007e6 0.0
0.0 0.0 0.0

-3.593512244046421e6 1.7071869576186344e7 0.0
1.7071869576186344e7 126688.66921817907 0.0
0.0 0.0 0.0

3.692926206029216e7 6.280503190201513e6 0.0
6.280503190201513e6 -1.736010045144178e6 0.0
0.0 0.0 0.0

-499926.6108817612 1.8180908051109985e7 0.0
1.8180908051109985e7 -8.944373427252404e6 0.0
0.0 0.0 0.0

-1.2861835678405983e6 1.5216722725955166e7 0.0
1.5216722725955166e7 -418691.36797305016 0.0
0.0 0.0 0.0

-182104.09736037115 2.128843501191129e7 0.0
2.128843501191129e7 -7.971365234137604e6 0.0
0.0 0.0 0.0

-1.1780821523552457e7 2.183561319020077e7 0.0
2.183561319020077e7 -4.857079397595522e6 0.0
0.0 0.0 0.0

79881.09959277697 9.151977070169674e6 0.0
9.151977070169674e6 -3.9227423317430373e6 0.0
0.0 0.0 0.0

-4.0299562096730676e6 2.0190838350302298e7 0.0
2.0190838350302298e7 1.4311003620146561e7 0.0
0.0 0.0 0.0

-2.83350374985151e6 1.612977164206268e7 0.0
1.612977164206268e7 -1.818201457463132e7 0.0
0.0 0.0 0.0

-1.1940093093660504e7 4.397556035933377e6 0.0
4.397556035933377e6 2.496263992417001e7 0.0
0.0 0.0 0.0

-2.5760897203251375e6 2.2274641274963163e7 0.0
2.2274641274963163e7 -1.7898701288677407e6 0.0
0.0 0.0 0.0

-2.4354065680407053e6 1.6061813039242674e7 0.0
1.6061813039242674e7 -481938.12778879656 0.0
0.0 0.0 0.0

-1.885506358501217e6 2.270809146258459e7 0.0
2.270809146258459e7 -1.1096233404252892e6 0.0
0.0 0.0 0.0

236389.88372279983 1.6338080132347327e7 0.0
1.6338080132347327e7 -1.139447285047217e7 0.0
0.0 0.0 0.0

-5.508864639105329e6 8.009704361626777e6 0.0
8.009704361626777e6 9.335386942128386e6 0.0
0.0 0.0 0.0

-3.4807514946223083e6 2.301755367073537e7 0.0
2.301755367073537e7 5.535714171824246e6 0.0
0.0 0.0 0.0

-4.703974257873612e6 1.9638804225090608e7 0.0
1.9638804225090608e7 1.630643618099527e7 0.0
0.0 0.0 0.0

-3.8375579548504585e6 1.928690130243483e7 0.0
1.928690130243483e7 1.115501581728678e7 0.0
0.0 0.0 0.0

-688253.6044650427 1.3729136414884714e7 0.0
1.3729136414884714e7 -5.7486235237976285e6 0.0
0.0 0.0 0.0

1.6501702658406906e6 1.169844200008159e7 0.0
1.169844200008159e7 -2.5630460335056316e7 0.0
0.0 0.0 0.0

-3.5830308353584264e6 1.8531413057322368e7 0.0
1.8531413057322368e7 1.432134133681979e6 0.0
0.0 0.0 0.0

-46072.285436133854 1.769566719278953e7 0.0
1.769566719278953e7 -1.3614515628282169e7 0.0
0.0 0.0 0.0

-208077.45347270835 1.6109520157941287e7 0.0
1.6109520157941287e7 -1.2835012704089668e7 0.0
0.0 0.0 0.0

-1.2198034963408723e6 2.2653451597114086e7 0.0
2.2653451597114086e7 -5.794659006573819e6 0.0
0.0 0.0 0.0

-1.1720178427198757e6 1.8418744048101857e7 0.0
1.8418744048101857e7 -9.215061839379802e6 0.0
0.0 0.0 0.0

1.7428033433812615e6 1.1996984629756428e7 0.0
1.1996984629756428e7 -2.0800533672420226e7 0.0
0.0 0.0 0.0

1.6345996866413811e6 6.595296531009014e6 0.0
6.595296531009014e6 -6.408696835913439e6 0.0
0.0 0.0 0.0

-1.6294028059487343e6 6.086405600683213e6 0.0
6.086405600683213e6 2.0363621418775532e6 0.0
0.0 0.0 0.0

166835.9505253022 2.9490596007063784e7 0.0
2.9490596007063784e7 -554586.8985442229 0.0
0.0 0.0 0.0

-3.729877240754684e6 1.7611868354195483e7 0.0
1.7611868354195483e7 1.3841708175924546e6 0.0
0.0 0.0 0.0

-1.766639745484624e6 1.9547495971693702e7 0.0
1.9547495971693702e7 -7.180826148148205e6 0.0
0.0 0.0 0.0

3.4426708997727334e6 4.270574528162619e6 0.0
4.270574528162619e6 -1.2677516727304215e7 0.0
0.0 0.0 0.0

-9.532773090478268e6 5.213211400379746e6 0.0
5.213211400379746e6 4.171824269624157e7 0.0
0.0 0.0 0.0

1.8506098223937778e6 9.765047476585684e6 0.0
9.765047476585684e6 -1.6060196596384749e7 0.0
0.0 0.0 0.0

4.233647886333594e6 2.3199492162246976e7 0.0
2.3199492162246976e7 -5.9411480805122405e6 0.0
0.0 0.0 0.0

110059.62236000015 2.4063708041357297e7 0.0
2.4063708041357297e7 -5.2462068594107255e6 0.0
0.0 0.0 0.0

-3.4026571981195486e6 2.3475186010397688e7 0.0
2.3475186010397688e7 4.603711763992355e6 0.0
0.0 0.0 0.0

3.7629491020547207e6 3.7184159645246207e6 0.0
3.7184159645246207e6 -2.7414061026823808e7 0.0
0.0 0.0 0.0

-1.4612518019283342e6 2.039262909266066e7 0.0
2.039262909266066e7 -4.48613267529548e6 0.0
0.0 0.0 0.0

-1.0217866470799956e6 2.1522690208928186e7 0.0
2.1522690208928186e7 -5.66676915709778e6 0.0
0.0 0.0 0.0

2.8663004783716425e6 7.465331876507881e6 0.0
7.465331876507881e6 -2.588879487800376e7 0.0
0.0 0.0 0.0

-1.5399577815058408e6 2.432059113160255e7 0.0
2.432059113160255e7 -3.0882103748834664e6 0.0
0.0 0.0 0.0

1.8396100979921161e6 2.0055978875760656e7 0.0
2.0055978875760656e7 -7.999797956150029e6 0.0
0.0 0.0 0.0

-2.194204823994793e6 1.9882626326034617e7 0.0
1.9882626326034617e7 -5.278361043150554e6 0.0
0.0 0.0 0.0

-229950.6037753988 1.5285388334767085e7 0.0
1.5285388334767085e7 -2.5089748884884715e7 0.0
0.0 0.0 0.0

1.902070969518749e6 7.100709821661119e6 0.0
7.100709821661119e6 -1.2427835852537224e7 0.0
0.0 0.0 0.0

758691.3148490014 1.1635937136749035e7 0.0
1.1635937136749035e7 -1.3091305863826375e7 0.0
0.0 0.0 0.0

-1.0368297955190004e6 2.0363948193786845e7 0.0
2.0363948193786845e7 -7.819135456171437e6 0.0
0.0 0.0 0.0

1.2085349209894505e6 1.9980049288570024e7 0.0
1.9980049288570024e7 -9.413271775219953e6 0.0
0.0 0.0 0.0

-1.4360062389644939e6 1.891494145606223e7 0.0
1.891494145606223e7 -8.208588834776623e6 0.0
0.0 0.0 0.0

2.852737689856481e6 7.739086450882039e6 0.0
7.739086450882039e6 -1.3019761464552924e7 0.0
0.0 0.0 0.0

4.0158652026441935e6 4.868134153980145e6 0.0
4.868134153980145e6 -2.3126472509884786e7 0.0
0.0 0.0 0.0

247932.2313302392 1.6099478999637151e7 0.0
1.6099478999637151e7 -1.4998920588056715e7 0.0
0.0 0.0 0.0

342257.8417296172 1.2221705545645038e7 0.0
1.2221705545645038e7 -1.2029127442577252e7 0.0
0.0 0.0 0.0

-3.640452235834537e6 1.6067393528136443e7 0.0
1.6067393528136443e7 -33879.10582432407 0.0
0.0 0.0 0.0

-9.433088140061582e6 2.536200952525291e7 0.0
2.536200952525291e7 5.867644985392315e6 0.0
0.0 0.0 0.0

-1.3170330363802835e6 1.4133964544809448e7 0.0
1.4133964544809448e7 6.721475532491297e7 0.0
0.0 0.0 0.0

-1.2228608997824213e7 4.865356160147846e6 0.0
4.865356160147846e6 2.3033068297469765e7 0.0
0.0 0.0 0.0

176945.6774188229 2.2542228055434305e7 0.0
2.2542228055434305e7 -7.812658540309107e6 0.0
0.0 0.0 0.0

-3.8433464824275486e6 1.6644508197105478e7 0.0
1.6644508197105478e7 1.29314747058783e6 0.0
0.0 0.0 0.0

-1.0702783988411494e7 7.279147322963116e6 0.0
7.279147322963116e6 3.2931374388021525e7 0.0
0.0 0.0 0.0

3.9337785316728773e6 4.914574883582304e6 0.0
4.914574883582304e6 -2.060709903706213e7 0.0
0.0 0.0 0.0

-3.132741680296178e6 1.7677246017502975e7 0.0
1.7677246017502975e7 3.3659222167445193e6 0.0
0.0 0.0 0.0

556221.134671214 1.5564045226826051e7 0.0
1.5564045226826051e7 -1.973975625329659e7 0.0
0.0 0.0 0.0

-294034.65057766903 2.193470543962748e7 0.0
2.193470543962748e7 -7.009290921251609e6 0.0
0.0 0.0 0.0

-1.2044717317332595e6 2.0600183654412482e7 0.0
2.0600183654412482e7 -5.271417229068185e6 0.0
0.0 0.0 0.0

-5.215806627368843e6 1.554729766841139e7 0.0
1.554729766841139e7 6.658167990920462e6 0.0
0.0 0.0 0.0

-1.9663299681472732e6 1.6865882499718323e7 0.0
1.6865882499718323e7 -2.644120753247387e6 0.0
0.0 0.0 0.0

-7.948066383464899e6 9.39388953326846e6 0.0
9.39388953326846e6 9.661147239623634e6 0.0
0.0 0.0 0.0

-4.19591486081552e7 2.349225894039379e7 0.0
2.349225894039379e7 5.870471853779886e6 0.0
0.0 0.0 0.0

3.300569205111054e6 2.015060058992289e7 0.0
2.015060058992289e7 1.0308829276539069e7 0.0
0.0 0.0 0.0

-3.611258326296214e6 2.1137028771688156e7 0.0
2.1137028771688156e7 1.098503149158105e7 0.0
0.0 0.0 0.0

-2.0645258042607522e6 2.430471722953534e7 0.0
2.430471722953534e7 921386.4970715034 0.0
0.0 0.0 0.0

2.2486985866222437e6 9.434346662931873e6 0.0
9.434346662931873e6 -1.9467626291365962e7 0.0
0.0 0.0 0.0

2.823689191998088e6 7.893077790391785e6 0.0
7.893077790391785e6 -2.3235925453287054e7 0.0
0.0 0.0 0.0

2.796388125651343e6 9.543153345345713e6 0.0
9.543153345345713e6 -2.7284641542126056e7 0.0
0.0 0.0 0.0

-4.5175736663561985e6 1.5657371305236675e7 0.0
1.5657371305236675e7 3.8836415242013093e6 0.0
0.0 0.0 0.0

-1.1955565218745694e7 1.294973151691523e7 0.0
1.294973151691523e7 2.3254875932823505e7 0.0
0.0 0.0 0.0

-6.243921288533018e6 1.0401017037328439e7 0.0
1.0401017037328439e7 1.118030725876755e7 0.0
0.0 0.0 0.0

3.2984606345791155e6 1.9823668488245502e7 0.0
1.9823668488245502e7 -4.858312503374948e6 0.0
0.0 0.0 0.0

-2.2340107103490634e6 1.642949072918016e7 0.0
1.642949072918016e7 -1.689093653988486e7 0.0
0.0 0.0 0.0

-3.7740066911064326e6 2.3308420172166217e7 0.0
2.3308420172166217e7 7.165445837265388e6 0.0
0.0 0.0 0.0

4.764354535801302e6 2.8569351720325347e7 0.0
2.8569351720325347e7 -3.8353591320589576e6 0.0
0.0 0.0 0.0

-7.761642342075795e6 2.5458279993977427e7 0.0
2.5458279993977427e7 6.528070743708679e6 0.0
0.0 0.0 0.0

-5.927538832454287e6 1.876468255440713e7 0.0
1.876468255440713e7 1.919115258154756e7 0.0
0.0 0.0 0.0

1.7682740954792853e6 6.921176288593142e6 0.0
6.921176288593142e6 -4.3941865559665136e7 0.0
0.0 0.0 0.0

57168.10110622132 1.5607453556821387e7 0.0
1.5607453556821387e7 -1.0110526637926936e7 0.0
0.0 0.0 0.0

3.3295581040682103e6 3.131364951698903e6 0.0
3.131364951698903e6 -1.0596429880313965e7 0.0
0.0 0.0 0.0

3.1616605058710556e6 8.232284011645776e6 0.0
8.232284011645776e6 -2.808419870537129e7 0.0
0.0 0.0 0.0

-3.297740823225162e6 2.3913527484402318e7 0.0
2.3913527484402318e7 3.7101028282887186e6 0.0
0.0 0.0 0.0

-1.1168479252955228e7 1.3324619634867107e7 0.0
1.3324619634867107e7 2.250140273495449e7 0.0
0.0 0.0 0.0

-6.648056705017075e6 1.8412592337465636e7 0.0
1.8412592337465636e7 2.0638289070071973e7 0.0
0.0 0.0 0.0

-3.5237270108945384e6 2.179482842917895e7 0.0
2.179482842917895e7 1.0376969198368229e7 0.0
0.0 0.0 0.0

2.3792823544243285e6 9.945739914542148e6 0.0
9.945739914542148e6 -1.43250824976842e7 0.0
0.0 0.0 0.0

-5.387987407462403e6 2.1383793463631824e7 0.0
2.1383793463631824e7 -9.353198320311118e6 0.0
0.0 0.0 0.0

474779.53338052356 2.920077599878959e7 0.0
2.920077599878959e7 -2.0210433349723546e6 0.0
0.0 0.0 0.0

-3.7750569966245475e6 2.4914411207695376e7 0.0
2.4914411207695376e7 5.305081390224494e6 0.0
0.0 0.0 0.0

-6.496967236571813e6 1.840893468408888e7 0.0
1.840893468408888e7 2.1656991569522016e7 0.0
0.0 0.0 0.0

-7.976517567324271e6 5.516848461522582e7 0.0
5.516848461522582e7 -1.1894800011743177e7 0.0
0.0 0.0 0.0

-5.142151729727842e6 2.0695569404293407e7 0.0
2.0695569404293407e7 -1.1529403521309026e7 0.0
0.0 0.0 0.0

-5.030305308034176e6 1.7407824863190036e7 0.0
1.7407824863190036e7 8.878638840983447e6 0.0
0.0 0.0 0.0

-9.896569928497583e6 1.6380140965002624e6 0.0
1.6380140965002624e6 1.2917705439021144e7 0.0
0.0 0.0 0.0

-1.1788344737723547e6 1.7011927826748792e7 0.0
1.7011927826748792e7 -5.769341838888718e6 0.0
0.0 0.0 0.0

-9.122380371242793e6 2.2131262924193587e7 0.0
2.2131262924193587e7 -5.303902250391804e6 0.0
0.0 0.0 0.0

-7.487450842192161e6 3.128061692715958e7 0.0
3.128061692715958e7 3.910461784702432e6 0.0
0.0 0.0 0.0

-837152.6788798294 1.9433891829083394e7 0.0
1.9433891829083394e7 -7.370431326147389e6 0.0
0.0 0.0 0.0

-1.674820753037826e6 2.1022179793156806e7 0.0
2.1022179793156806e7 -6.395612218807643e6 0.0
0.0 0.0 0.0

-1.0668740138890771e7 2.3172401665782086e6 0.0
2.3172401665782086e6 2.107804414364261e7 0.0
0.0 0.0 0.0

3.7166876987518547e6 5.916092986466925e6 0.0
5.916092986466925e6 -1.8463637003009334e7 0.0
0.0 0.0 0.0

707080.6834885366 2.8415913482336897e7 0.0
2.8415913482336897e7 -1.555883910522979e6 0.0
0.0 0.0 0.0

-5.293066595518203e6 1.9177021315770492e7 0.0
1.9177021315770492e7 1.7803480251362488e7 0.0
0.0 0.0 0.0

-1.3402016534443395e7 2.352345990345952e7 0.0
2.352345990345952e7 -2.7399374260536586e6 0.0
0.0 0.0 0.0

-1.3897542700199082e6 5.770139283868921e6 0.0
5.770139283868921e6 -2.0814210435492396e6 0.0
0.0 0.0 0.0

-1.01021325272352e7 2.3365997350582547e7 0.0
2.3365997350582547e7 -8.503484519786479e6 0.0
0.0 0.0 0.0

-1.9517551360129481e6 2.009765296597593e7 0.0
2.009765296597593e7 -6.055219318421755e6 0.0
0.0 0.0 0.0

490350.9085422754 1.5562799487270404e7 0.0
1.5562799487270404e7 -1.606281832723727e7 0.0
0.0 0.0 0.0

-1.4269247701382365e6 1.8751649901156407e7 0.0
1.8751649901156407e7 -5.108305233339248e6 0.0
0.0 0.0 0.0

1.8153136028260617e6 1.022684609627884e7 0.0
1.022684609627884e7 -1.6749590450694475e7 0.0
0.0 0.0 0.0

-2.477515505066285e6 1.975610592429769e7 0.0
1.975610592429769e7 206313.38218690688 0.0
0.0 0.0 0.0

-9.818070673823383e6 3.7251893639911967e6 0.0
3.7251893639911967e6 1.2287164678111102e7 0.0
0.0 0.0 0.0

-9.397101032579908e6 1.28935242669116e7 0.0
1.28935242669116e7 1.8385341232126188e7 0.0
0.0 0.0 0.0

-4.508355985911954e6 1.537090966313821e7 0.0
1.537090966313821e7 9.054971726807995e6 0.0
0.0 0.0 0.0

-4.6654408058346035e6 1.6178530503639273e7 0.0
1.6178530503639273e7 -1.5987971976598132e7 0.0
0.0 0.0 0.0

-3.840567367471404e6 1.5599380762977192e7 0.0
1.5599380762977192e7 6.153591487282716e6 0.0
0.0 0.0 0.0

-3.1724195578134645e7 2.7618772361054473e7 0.0
2.7618772361054473e7 -1.8325442032569759e6 0.0
0.0 0.0 0.0

-3.9929964486898193e6 1.7181939578855816e7 0.0
1.7181939578855816e7 2.5566424415877927e6 0.0
0.0 0.0 0.0

-1.4658625088934768e6 1.8944599728197165e7 0.0
1.8944599728197165e7 -2.980307810274126e6 0.0
0.0 0.0 0.0

-4.757372242783957e7 2.2588572302371558e7 0.0
2.2588572302371558e7 4.0436220085900594e6 0.0
0.0 0.0 0.0

2.5084255142423925e6 2.006107551202709e7 0.0
2.006107551202709e7 -6.590788057382721e6 0.0
0.0 0.0 0.0

-3.0036715508911144e6 1.6181516807190252e7 0.0
1.6181516807190252e7 2.0630176383127074e6 0.0
0.0 0.0 0.0

1.660854087763194e6 1.118584624875666e7 0.0
1.118584624875666e7 -1.2368233624847423e7 0.0
0.0 0.0 0.0

-2.205274276956397e6 2.4697179947436966e7 0.0
2.4697179947436966e7 1.7656318636219818e6 0.0
0.0 0.0 0.0

1.4791318132556807e6 1.1694894783462996e7 0.0
1.1694894783462996e7 -1.7036936196907133e7 0.0
0.0 0.0 0.0

1.372632922888468e6 1.2535155272605354e7 0.0
1.2535155272605354e7 -1.823124430154682e7 0.0
0.0 0.0 0.0

-6.378449671025215e6 8.347210396510205e6 0.0
8.347210396510205e6 6.283915018922653e6 0.0
0.0 0.0 0.0

-4.3867070165631585e6 1.958360242863619e7 0.0
1.958360242863619e7 9.259701116947383e6 0.0
0.0 0.0 0.0

3.4175814563578283e6 7.656896380433137e6 0.0
7.656896380433137e6 -2.412012983755832e7 0.0
0.0 0.0 0.0

-1.1337901437992197e7 6.097507951480603e6 0.0
6.097507951480603e6 1.8299830440788165e7 0.0
0.0 0.0 0.0

1.4447159938019002e6 1.209404952457103e7 0.0
1.209404952457103e7 -1.7657885417455852e7 0.0
0.0 0.0 0.0

-8.016443137738378e7 8.667152406072801e6 0.0
8.667152406072801e6 4.943515836971708e6 0.0
0.0 0.0 0.0

2.0430513020722605e6 6.806654172499249e6 0.0
6.806654172499249e6 -4.0950370067855164e7 0.0
0.0 0.0 0.0

-4.624447335900018e6 1.837366732681982e7 0.0
1.837366732681982e7 8.558033437713848e6 0.0
0.0 0.0 0.0

-4.0300191315774997e6 1.9863001899696916e7 0.0
1.9863001899696916e7 6.88177743362956e6 0.0
0.0 0.0 0.0

-4.640532687150499e6 2.4570961671571903e7 0.0
2.4570961671571903e7 8.042300682514517e6 0.0
0.0 0.0 0.0

-2.0700701534481307e6 1.7346824635480173e7 0.0
1.7346824635480173e7 -6.294984231814495e6 0.0
0.0 0.0 0.0

-4.893912729498092e6 1.9941839353888158e7 0.0
1.9941839353888158e7 1.6612645551429953e7 0.0
0.0 0.0 0.0

689007.2327595614 1.3832923646291675e7 0.0
1.3832923646291675e7 -1.48385222772681e7 0.0
0.0 0.0 0.0

2.3926434500127984e6 9.610383132197749e6 0.0
9.610383132197749e6 -2.315311388623198e7 0.0
0.0 0.0 0.0

-2.415166839844045e6 2.4371868699014224e7 0.0
2.4371868699014224e7 2.5192164584271237e6 0.0
0.0 0.0 0.0

538575.0051464329 2.5338452100416947e7 0.0
2.5338452100416947e7 -5.032204769732529e6 0.0
0.0 0.0 0.0

2.502920931276474e6 8.912418943865852e6 0.0
8.912418943865852e6 -3.2984020387322288e7 0.0
0.0 0.0 0.0

-5.213828635804472e6 1.2895293135137638e7 0.0
1.2895293135137638e7 9.384841422457024e6 0.0
0.0 0.0 0.0

-6.427887797318935e6 2.529305424331385e7 0.0
2.529305424331385e7 7.075471467851534e6 0.0
0.0 0.0 0.0

-4.322087688619445e7 5.945430956505326e7 0.0
5.945430956505326e7 -3.154397321586499e6 0.0
0.0 0.0 0.0

-1.130205720399868e7 9.173955029958034e6 0.0
9.173955029958034e6 2.899822996601551e7 0.0
0.0 0.0 0.0

-3.651605736211639e6 1.5186671789814373e7 0.0
1.5186671789814373e7 -1.4337059365754664e7 0.0
0.0 0.0 0.0

-643077.6096101644 5.584691812668901e6 0.0
5.584691812668901e6 374757.083540496 0.0
0.0 0.0 0.0

-8.741220564437909e6 -4.561120847648276e6 0.0
-4.561120847648276e6 2.8585397128959112e7 0.0
0.0 0.0 0.0

4.239397086834867e6 2.232450288053687e6 0.0
2.232450288053687e6 -2.837161132571634e7 0.0
0.0 0.0 0.0

-6.635058204096464e6 2.22531667324703e7 0.0
2.22531667324703e7 2.1569671623195377e6 0.0
0.0 0.0 0.0

-1.0508548015071582e6 1.684159143331356e7 0.0
1.684159143331356e7 -1.8157165237069942e7 0.0
0.0 0.0 0.0

-8.24737984914444e6 1.5088126615843251e7 0.0
1.5088126615843251e7 3.0260973977131862e7 0.0
0.0 0.0 0.0

202247.1474490161 2.185618668595901e7 0.0
2.185618668595901e7 -8.699522312337331e6 0.0
0.0 0.0 0.0

1.509868701694793e6 1.1286647237141594e7 0.0
1.1286647237141594e7 -1.6379929703526517e7 0.0
0.0 0.0 0.0

-4.187559105316717e6 1.5645606122531466e7 0.0
1.5645606122531466e7 3.954436646909668e7 0.0
0.0 0.0 0.0

-2.2768641112864865e6 1.7431562591715377e7 0.0
1.7431562591715377e7 -1.3888690543246153e6 0.0
0.0 0.0 0.0

-3.086610569466876e6 1.7741649489666313e7 0.0
1.7741649489666313e7 2.8354005512560584e7 0.0
0.0 0.0 0.0

-778348.1513015497 1.7138261375136588e7 0.0
1.7138261375136588e7 -1.6915447281036057e7 0.0
0.0 0.0 0.0

6.5842214302691996e7 8.864023173571488e6 0.0
8.864023173571488e6 1.1373975827746838e6 0.0
0.0 0.0 0.0

-400773.53559375904 2.255708081370399e7 0.0
2.255708081370399e7 -6.089665085091269e6 0.0
0.0 0.0 0.0

1.5789319086388943e6 2.8231997937794656e7 0.0
2.8231997937794656e7 -2.2420646501305047e6 0.0
0.0 0.0 0.0

1.2541905407867534e6 1.2265864395200802e7 0.0
1.2265864395200802e7 -1.5983987447202392e7 0.0
0.0 0.0 0.0

2.2027379202341875e6 1.1301653063173136e7 0.0
1.1301653063173136e7 -1.6407441605367096e7 0.0
0.0 0.0 0.0

-1.7147565876273569e6 1.6764274809239374e7 0.0
1.6764274809239374e7 -7.501414505578725e6 0.0
0.0 0.0 0.0

-1.1859515822411155e7 1.043552460616074e7 0.0
1.043552460616074e7 2.369741028183581e7 0.0
0.0 0.0 0.0

-1.9282759005658105e6 1.5751989025079679e7 0.0
1.5751989025079679e7 -2.4571983443633236e7 0.0
0.0 0.0 0.0

3.1569936593414303e6 3.061530197244931e6 0.0
3.061530197244931e6 -9.660822777649136e6 0.0
0.0 0.0 0.0

778885.2454637438 1.4560915629911935e7 0.0
1.4560915629911935e7 -1.6001575686270704e7 0.0
0.0 0.0 0.0

-2.5033877502264652e7 3.124620561318713e7 0.0
3.124620561318713e7 7.543587601489188e6 0.0
0.0 0.0 0.0

-3.323524062533763e6 1.1445669704254277e7 0.0
1.1445669704254277e7 -830341.4748957234 0.0
0.0 0.0 0.0

-2.141849548958933e6 1.5726379654088175e7 0.0
1.5726379654088175e7 4.716093767496112e7 0.0
0.0 0.0 0.0

-3.739448024714398e6 2.0063601946760118e7 0.0
2.0063601946760118e7 1.3442539446478235e7 0.0
0.0 0.0 0.0

5.796802997609403e6 2.0087121312498603e7 0.0
2.0087121312498603e7 2.955511050491258e6 0.0
0.0 0.0 0.0

-5.339168828694427e6 2.499260676935757e7 0.0
2.499260676935757e7 7.525986744830772e6 0.0
0.0 0.0 0.0

-423798.1361700224 2.314625339652805e7 0.0
2.314625339652805e7 -5.064418717564087e6 0.0
0.0 0.0 0.0

-3.8989536786431368e6 2.4521843149167575e7 0.0
2.4521843149167575e7 6.012518271260059e6 0.0
0.0 0.0 0.0

-1.1751016810977332e7 1.0780018121972702e7 0.0
1.0780018121972702e7 2.213131768068867e7 0.0
0.0 0.0 0.0

-8.549527283432938e6 1.4817118022684075e7 0.0
1.4817118022684075e7 1.867069934237787e7 0.0
0.0 0.0 0.0

-9.720527480224885e6 5.517394621054606e6 0.0
5.517394621054606e6 1.1093021350833708e7 0.0
0.0 0.0 0.0

1.5584590675852561e7 1.1837589069688478e7 0.0
1.1837589069688478e7 931517.0324921412 0.0
0.0 0.0 0.0

-498079.0190832652 1.7449220392516177e7 0.0
1.7449220392516177e7 -1.5780477067368578e7 0.0
0.0 0.0 0.0

-797391.3143369649 2.3056916263183445e7 0.0
2.3056916263183445e7 -4.436060135100062e6 0.0
0.0 0.0 0.0

-3.1401765262793526e6 2.42918118350014e7 0.0
2.42918118350014e7 2.8541676428328454e6 0.0
0.0 0.0 0.0

-9.155887619806455e6 -4.0440905443173586e6 0.0
-4.0440905443173586e6 1.998453650656421e7 0.0
0.0 0.0 0.0

-3.533502835798229e6 2.570349620104898e7 0.0
2.570349620104898e7 3.8662514775214577e6 0.0
0.0 0.0 0.0

-3.21871614242116e6 1.6703260284990799e7 0.0
1.6703260284990799e7 3.3649302727888385e6 0.0
0.0 0.0 0.0

-4.299744352354977e6 2.6287390352517106e7 0.0
2.6287390352517106e7 4.819225132901872e6 0.0
0.0 0.0 0.0

5.632927815394762e6 1.896839595468317e7 0.0
1.896839595468317e7 1.298405252533156e6 0.0
0.0 0.0 0.0

810641.9591809053 2.6459823007833e7 0.0
2.6459823007833e7 -3.1039232846512645e6 0.0
0.0 0.0 0.0

3.5743354386316836e6 4.961109778841641e6 0.0
4.961109778841641e6 -2.3235515099567052e7 0.0
0.0 0.0 0.0

-1.1600101828784553e7 9.48939016629812e6 0.0
9.48939016629812e6 2.7160911911308587e7 0.0
0.0 0.0 0.0

323475.6837640018 1.8978253009025577e7 0.0
1.8978253009025577e7 -9.645327980869219e6 0.0
0.0 0.0 0.0

-240008.0868953932 1.784476561551523e7 0.0
1.784476561551523e7 -1.4621800675315386e7 0.0
0.0 0.0 0.0

-2.1976780945978803e6 1.6467253674995383e7 0.0
1.6467253674995383e7 -1.598448012062559e6 0.0
0.0 0.0 0.0

-4.304550393347494e6 2.0758969640072823e7 0.0
2.0758969640072823e7 5.673779677406606e6 0.0
0.0 0.0 0.0

1.083202401432326e6 2.2608825575612895e7 0.0
2.2608825575612895e7 -7.7220195589409005e6 0.0
0.0 0.0 0.0

-172650.2431326909 1.7590092544039592e7 0.0
1.7590092544039592e7 -8.428441796559721e6 0.0
0.0 0.0 0.0

-1.1289856433628988e7 1.2870101463147208e7 0.0
1.2870101463147208e7 1.8135465922193263e7 0.0
0.0 0.0 0.0

2.9270610244655777e6 9.430958515020534e6 0.0
9.430958515020534e6 -1.9376538946409512e7 0.0
0.0 0.0 0.0

-935800.1667028661 1.780434135279756e7 0.0
1.780434135279756e7 -1.5145183146465072e7 0.0
0.0 0.0 0.0

1.6683584355499744e6 1.996127099011532e7 0.0
1.996127099011532e7 1.2101056149211265e7 0.0
0.0 0.0 0.0

-2.198326727617798e6 1.906676858355378e7 0.0
1.906676858355378e7 -5.60722681149708e6 0.0
0.0 0.0 0.0

3.200418885669006e6 7.268152156710085e6 0.0
7.268152156710085e6 -3.1858345412030984e7 0.0
0.0 0.0 0.0

3.20656937222044e6 5.418719198671659e6 0.0
5.418719198671659e6 -4.1971083285260014e7 0.0
0.0 0.0 0.0

-5.343965132230699e6 1.6003115216107765e7 0.0
1.6003115216107765e7 7.943573636996699e6 0.0
0.0 0.0 0.0

-2.950280348550945e6 2.4647684854338873e7 0.0
2.4647684854338873e7 2.0696497466175102e6 0.0
0.0 0.0 0.0

-1.0918268628205659e7 2.421735899118332e6 0.0
2.421735899118332e6 2.4600600020494126e7 0.0
0.0 0.0 0.0

-7.5204637985301595e6 1.4816787259508146e7 0.0
1.4816787259508146e7 1.251761952002589e7 0.0
0.0 0.0 0.0

-4.2965163319005435e6 1.9263408797668524e7 0.0
1.9263408797668524e7 8.260928050573798e6 0.0
0.0 0.0 0.0

2.7709719772875477e6 9.628750616068207e6 0.0
9.628750616068207e6 -1.771039788333523e7 0.0
0.0 0.0 0.0

4.1472260482849237e6 2.1085522773555894e6 0.0
2.1085522773555894e6 -2.9271569842244375e7 0.0
0.0 0.0 0.0

-4.031304505860453e6 1.811642706054896e7 0.0
1.811642706054896e7 1.0628816534785993e7 0.0
0.0 0.0 0.0

840220.6881003715 1.7141898209241923e7 0.0
1.7141898209241923e7 5.86225350695775e7 0.0
0.0 0.0 0.0

-3.224433045725925e6 2.0183101096273985e7 0.0
2.0183101096273985e7 7.377912678536201e6 0.0
0.0 0.0 0.0

-617747.3603236899 2.3649114739481322e7 0.0
2.3649114739481322e7 -4.263793072364724e6 0.0
0.0 0.0 0.0

1.255940060414385e6 1.2978702372049171e7 0.0
1.2978702372049171e7 -1.6956368625273027e7 0.0
0.0 0.0 0.0

-1.1391783686898332e6 2.55583629003024e7 0.0
2.55583629003024e7 -960009.5609038167 0.0
0.0 0.0 0.0

-2.5915833525947956e6 2.4012666260342773e7 0.0
2.4012666260342773e7 3.312980508886435e6 0.0
0.0 0.0 0.0

6.086686586239766e6 1.7176553577817023e7 0.0
1.7176553577817023e7 3.236076763601087e7 0.0
0.0 0.0 0.0

3.187821532897e6 3.0712393972213874e6 0.0
3.0712393972213874e6 -1.0193578742408767e7 0.0
0.0 0.0 0.0

2.580567949025082e6 2.065610359204864e7 0.0
2.065610359204864e7 -7.3586602214349415e6 0.0
0.0 0.0 0.0

3.694505133701374e6 4.033994927697361e6 0.0
4.033994927697361e6 -1.6967886927466594e7 0.0
0.0 0.0 0.0

-1.0258215498851275e7 1.130306540175309e7 0.0
1.130306540175309e7 1.8706632241277866e7 0.0
0.0 0.0 0.0

-3.380053120659552e6 2.2826333322051413e7 0.0
2.2826333322051413e7 4.678113640572566e6 0.0
0.0 0.0 0.0

-1.4714364763786148e6 1.958216035399086e7 0.0
1.958216035399086e7 -4.800886342878635e6 0.0
0.0 0.0 0.0

2.3398085413651494e6 1.0407110644395359e7 0.0
1.0407110644395359e7 -1.5028225567032158e7 0.0
0.0 0.0 0.0

-108893.05650555389 1.7960751642486583e7 0.0
1.7960751642486583e7 -9.794545094019355e6 0.0
0.0 0.0 0.0

-777587.5335149302 2.4192548066358123e7 0.0
2.4192548066358123e7 -3.434669066500081e6 0.0
0.0 0.0 0.0

-1.1025627681924101e7 4.290741370348134e6 0.0
4.290741370348134e6 2.836783630018199e7 0.0
0.0 0.0 0.0

-7.580111846345336e6 1.6387449204080101e7 0.0
1.6387449204080101e7 1.876380844956531e7 0.0
0.0 0.0 0.0

-1.149148099084277e7 8.0889917256636415e6 0.0
8.0889917256636415e6 1.98336600506955e7 0.0
0.0 0.0 0.0

-4.1452243784939633e6 1.6175283334564228e7 0.0
1.6175283334564228e7 2.536117014250341e6 0.0
0.0 0.0 0.0

-3.211620585504562e6 2.412144008123375e7 0.0
2.412144008123375e7 6.644260259470778e6 0.0
0.0 0.0 0.0

-2.869353700029144e6 1.9054208642286126e7 0.0
1.9054208642286126e7 -2.7085075083473315e6 0.0
0.0 0.0 0.0

-2.3335967604853883e6 2.5439469673056487e7 0.0
2.5439469673056487e7 -96282.38129832351 0.0
0.0 0.0 0.0

-7.242792814192401e6 8.796799099913128e6 0.0
8.796799099913128e6 8.05415267041385e6 0.0
0.0 0.0 0.0

-8.3635265263082e6 1.4235649786304219e7 0.0
1.4235649786304219e7 1.781612596464727e7 0.0
0.0 0.0 0.0

-2.7692485199650456e6 2.496065731121269e7 0.0
2.496065731121269e7 1.353133448707224e6 0.0
0.0 0.0 0.0

1.0386993133168323e6 2.1601674624223836e7 0.0
2.1601674624223836e7 -8.824754171552796e6 0.0
0.0 0.0 0.0

1.1330824042926606e7 2.1751828970881496e7 0.0
2.1751828970881496e7 1.0991041923446264e7 0.0
0.0 0.0 0.0

-3.4895761698556994e6 1.6187686011067836e7 0.0
1.6187686011067836e7 4.72170353312265e6 0.0
0.0 0.0 0.0

4.349945290677523e6 2.4176754960001517e7 0.0
2.4176754960001517e7 -5.7954580188787505e6 0.0
0.0 0.0 0.0

-3.76877468441558e6 1.7127101326424874e7 0.0
1.7127101326424874e7 7.15533907066506e6 0.0
0.0 0.0 0.0

-7.525592178649504e6 1.5910395522597635e7 0.0
1.5910395522597635e7 1.7984273727933362e7 0.0
0.0 0.0 0.0

-5.600118678006695e6 9.817723894742798e6 0.0
9.817723894742798e6 9.602536101779671e6 0.0
0.0 0.0 0.0

-2.5746105786443045e6 2.5215457152128424e7 0.0
2.5215457152128424e7 575180.194872976 0.0
0.0 0.0 0.0

3.8185634331655316e6 6.190860764013753e6 0.0
6.190860764013753e6 -2.2762791382974762e7 0.0
0.0 0.0 0.0

3.365842210151259e6 8.085576591314514e6 0.0
8.085576591314514e6 -2.1403427118376177e7 0.0
0.0 0.0 0.0

-4.1113198637893824e6 2.4083287031481843e7 0.0
2.4083287031481843e7 8.469961115922129e6 0.0
0.0 0.0 0.0

-73994.0472055478 1.1802155165357318e7 0.0
1.1802155165357318e7 -6.691517072892739e6 0.0
0.0 0.0 0.0

2.2837028844048e6 1.0871604660221903e7 0.0
1.0871604660221903e7 -1.5709297179862704e7 0.0
0.0 0.0 0.0

-1.2359698721136248e6 2.7422801378274072e7 0.0
2.7422801378274072e7 -921739.7064465603 0.0
0.0 0.0 0.0

-966168.0902501334 2.5133560694147058e7 0.0
2.5133560694147058e7 -1.7571461430329722e6 0.0
0.0 0.0 0.0

-1.6728293807549775e6 2.028411190376038e7 0.0
2.028411190376038e7 -6.76270372433425e6 0.0
0.0 0.0 0.0

-1.3163571576238181e6 1.6513039394524585e7 0.0
1.6513039394524585e7 -2.233362897918213e7 0.0
0.0 0.0 0.0

-3.0417617461156934e6 2.766698115039401e7 0.0
2.766698115039401e7 1.7737937216014946e6 0.0
0.0 0.0 0.0

-7.544879043564179e6 1.684474808424422e7 0.0
1.684474808424422e7 1.9277324241487138e7 0.0
0.0 0.0 0.0

2.31935008899648e6 7.024640906643568e6 0.0
7.024640906643568e6 -1.4094768439864645e7 0.0
0.0 0.0 0.0

471565.5676056015 2.9611997691717334e7 0.0
2.9611997691717334e7 -1.0339792080529131e6 0.0
0.0 0.0 0.0

-3.4121657685343935e6 2.0558181705279477e7 0.0
2.0558181705279477e7 1.1416780931455553e7 0.0
0.0 0.0 0.0

-859065.9561768933 2.467606757241006e7 0.0
2.467606757241006e7 -2.5266566333406265e6 0.0
0.0 0.0 0.0

24304.08014880959 1.824433435819724e7 0.0
1.824433435819724e7 -1.3555928863696888e7 0.0
0.0 0.0 0.0

-1.6607746034733842e6 2.577235611435224e7 0.0
2.577235611435224e7 436000.0786844571 0.0
0.0 0.0 0.0

-3.955252462857323e6 2.082386085396151e7 0.0
2.082386085396151e7 1.3750180531449325e7 0.0
0.0 0.0 0.0

-1.695699830217871e6 2.578982112969137e7 0.0
2.578982112969137e7 -1.3300975368376365e6 0.0
0.0 0.0 0.0

5.294862305664834e6 3.1538828033508506e7 0.0
3.1538828033508506e7 -2.77351836732544e6 0.0
0.0 0.0 0.0

-1.0713397833615651e7 1.4699218355624942e7 0.0
1.4699218355624942e7 2.352420700950378e7 0.0
0.0 0.0 0.0

1.9632057437736196e6 1.1896716604972031e7 0.0
1.1896716604972031e7 -1.5405305708719827e7 0.0
0.0 0.0 0.0

-1.174331017949133e7 1.1304600860159345e7 0.0
1.1304600860159345e7 2.4343987411169507e7 0.0
0.0 0.0 0.0

-1.0094525208375685e7 1.3126087641311064e7 0.0
1.3126087641311064e7 1.5900101016552467e7 0.0
0.0 0.0 0.0

-561316.4916404423 -1.2772270916334242e6 0.0
-1.2772270916334242e6 1.2005222336029878e6 0.0
0.0 0.0 0.0

-486105.41436240764 -2.0081445215731855e6 0.0
-2.0081445215731855e6 2.2700641942272484e6 0.0
0.0 0.0 0.0

-1.0377797303281302e7 1.5343042336968526e7 0.0
1.5343042336968526e7 2.396679386005245e7 0.0
0.0 0.0 0.0

9.975082081017612e6 2.0875406406390738e7 0.0
2.0875406406390738e7 9.083341042545838e6 0.0
0.0 0.0 0.0

-5233.195241575595 2.599172055911416e7 0.0
2.599172055911416e7 -2.60864229643196e6 0.0
0.0 0.0 0.0

-1.0261026475791729e6 2.082428074997103e7 0.0
2.082428074997103e7 -6.095692939328688e6 0.0
0.0 0.0 0.0

1.8993724086591927e6 1.2288142715407455e7 0.0
1.2288142715407455e7 -1.6117129847963821e7 0.0
0.0 0.0 0.0

5.6136267420614585e6 1.7138825324705355e7 0.0
1.7138825324705355e7 2.8448840997652467e7 0.0
0.0 0.0 0.0

-2.799261471914329e6 2.81496083326144e7 0.0
2.81496083326144e7 2.812408430076272e6 0.0
0.0 0.0 0.0

-1.158147942749262e6 2.7923238163556393e7 0.0
2.7923238163556393e7 -878295.898265464 0.0
0.0 0.0 0.0

-817339.3936854528 2.845017521271037e7 0.0
2.845017521271037e7 -871043.7274083005 0.0
0.0 0.0 0.0

-5.435606656459759e6 1.8346495634225715e7 0.0
1.8346495634225715e7 1.21589018718099e7 0.0
0.0 0.0 0.0

-5.525258640621613e6 1.6365300946359735e7 0.0
1.6365300946359735e7 9.20764971622867e6 0.0
0.0 0.0 0.0

-7.601170279963745e6 1.1251766906929838e7 0.0
1.1251766906929838e7 9.708091507972412e6 0.0
0.0 0.0 0.0

-3.3140948430122086e6 2.170670123307809e7 0.0
2.170670123307809e7 9.100600863418624e6 0.0
0.0 0.0 0.0

-4.657646109295928e6 1.5716750618054911e7 0.0
1.5716750618054911e7 1.0331136958939813e7 0.0
0.0 0.0 0.0

-1.0672446647112982e7 1.4381640837689279e7 0.0
1.4381640837689279e7 2.5999164109761022e7 0.0
0.0 0.0 0.0

1.8783385507292803e6 1.2757745788331658e7 0.0
1.2757745788331658e7 -1.6641800540955842e7 0.0
0.0 0.0 0.0

-4.464400913240828e6 1.9860616172988314e7 0.0
1.9860616172988314e7 1.0169045934165312e7 0.0
0.0 0.0 0.0

-1.1063190031698084e7 1.2709493851628298e7 0.0
1.2709493851628298e7 2.7034190977282386e7 0.0
0.0 0.0 0.0

3.04573867572472e6 1.8891811726882175e7 0.0
1.8891811726882175e7 1.325535940468706e7 0.0
0.0 0.0 0.0

-4.399439598463783e6 1.7230109503937725e7 0.0
1.7230109503937725e7 5.042626476718883e6 0.0
0.0 0.0 0.0

-1.5802233534107727e6 2.6326302330789004e7 0.0
2.6326302330789004e7 550105.4113789022 0.0
0.0 0.0 0.0

-1.7258355115724183e6 2.5179815781879053e7 0.0
2.5179815781879053e7 318452.61281790433 0.0
0.0 0.0 0.0

-3.792108152082067e6 2.1435199714132454e7 0.0
2.1435199714132454e7 1.2402240550783485e7 0.0
0.0 0.0 0.0

-1.282341074313879e6 1.7246284606779322e7 0.0
1.7246284606779322e7 -1.882408935508997e7 0.0
0.0 0.0 0.0

-3.583961186194032e6 2.1886165506078266e7 0.0
2.1886165506078266e7 6.755561744298248e6 0.0
0.0 0.0 0.0

-6.604067871964968e6 1.7319375807221893e7 0.0
1.7319375807221893e7 1.789437081362152e7 0.0
0.0 0.0 0.0

-1.114901046728716e6 2.0050343506447267e7 0.0
2.0050343506447267e7 -6.395358280940748e6 0.0
0.0 0.0 0.0

2.2154378531874097e6 2.8810224971358687e7 0.0
2.8810224971358687e7 -2.245991368224484e6 0.0
0.0 0.0 0.0

-3.7740483246516166e6 2.21216626404091e7 0.0
2.21216626404091e7 1.1122598812463168e7 0.0
0.0 0.0 0.0

-1.3688946792389362e6 1.9721332947660416e7 0.0
1.9721332947660416e7 -7.810297106230299e6 0.0
0.0 0.0 0.0

3.123869014277694e6 8.628326413534263e6 0.0
8.628326413534263e6 -2.20755327824588e7 0.0
0.0 0.0 0.0

-4.15047249699868e6 1.8387241008764546e7 0.0
1.8387241008764546e7 1.1673631034226399e7 0.0
0.0 0.0 0.0

2.5206545237366306e6 2.3961823056105003e7 0.0
2.3961823056105003e7 -6.282807656515291e6 0.0
0.0 0.0 0.0

2.6818813964685067e6 3.1399463548812377e6 0.0
3.1399463548812377e6 -7.536700077476483e6 0.0
0.0 0.0 0.0

2.426556072176758e6 8.712592699214423e6 0.0
8.712592699214423e6 -2.883280241725774e7 0.0
0.0 0.0 0.0

-369851.3393492028 1.8602843545896236e7 0.0
1.8602843545896236e7 -9.508560103061067e6 0.0
0.0 0.0 0.0

1.0113476814097807e7 2.1713606986538414e7 0.0
2.1713606986538414e7 1.069641040843309e7 0.0
0.0 0.0 0.0

2.4850199909327757e6 9.043853914546423e6 0.0
9.043853914546423e6 -2.2738282818454266e7 0.0
0.0 0.0 0.0

2.2470666760172416e6 1.01354421677213e7 0.0
1.01354421677213e7 -2.2140238193705555e7 0.0
0.0 0.0 0.0

1.052832166259075e6 1.8393103018985156e7 0.0
1.8393103018985156e7 5.028010197153974e6 0.0
0.0 0.0 0.0

-1.141570453997572e7 5.915715237981054e6 0.0
5.915715237981054e6 2.6892069949594088e7 0.0
0.0 0.0 0.0

-9.02833767270743e6 1.1569471881639e7 0.0
1.1569471881639e7 1.2636448389470626e7 0.0
0.0 0.0 0.0

-8.135980994612869e6 1.73551786229259e7 0.0
1.73551786229259e7 -4.053734124132368e7 0.0
0.0 0.0 0.0

-6.608794266749974e6 1.6007955279202469e7 0.0
1.6007955279202469e7 1.2061269742545899e7 0.0
0.0 0.0 0.0

-1.2442247577388056e7 1.0834884713299312e7 0.0
1.0834884713299312e7 1.974624867442373e7 0.0
0.0 0.0 0.0

1.9471883724050734e6 2.0471907449929487e7 0.0
2.0471907449929487e7 9.782153064810282e6 0.0
0.0 0.0 0.0

-8.86949847905932e6 -4.896639832193331e6 0.0
-4.896639832193331e6 2.7708934167458773e7 0.0
0.0 0.0 0.0

-4.724927486189801e6 1.8682789111314453e7 0.0
1.8682789111314453e7 9.653911776233332e6 0.0
0.0 0.0 0.0

-3.4872201895426395e6 2.419097410689069e7 0.0
2.419097410689069e7 7.314846270937536e6 0.0
0.0 0.0 0.0

93605.52868214622 1.6927878273185395e7 0.0
1.6927878273185395e7 -1.4352610534843957e7 0.0
0.0 0.0 0.0

-6.651073136915381e6 -2.0613983212475632e6 0.0
-2.0613983212475632e6 8.950226882616725e6 0.0
0.0 0.0 0.0

-7.100899235151896e6 1.0673323144502915e7 0.0
1.0673323144502915e7 8.167846303102339e6 0.0
0.0 0.0 0.0

1.0497035959362797e6 7.47264252365743e6 0.0
7.47264252365743e6 -4.774782633020332e7 0.0
0.0 0.0 0.0

4.0955509426031807e6 2.901259953884792e7 0.0
2.901259953884792e7 -3.021590801217454e6 0.0
0.0 0.0 0.0

-9.506537709647832e6 1.1759381602156332e7 0.0
1.1759381602156332e7 3.417654934289181e7 0.0
0.0 0.0 0.0

-4.599790862813164e6 1.7835676934765287e7 0.0
1.7835676934765287e7 -1.3878610411587112e7 0.0
0.0 0.0 0.0

-1.2599918997267714e7 1.0445484743176106e7 0.0
1.0445484743176106e7 2.1181578900191747e7 0.0
0.0 0.0 0.0

-1.0991749545401277e7 2.4079426143941082e7 0.0
2.4079426143941082e7 -6.926942467341758e6 0.0
0.0 0.0 0.0

-1.0480752885559647e6 1.8594289280698936e7 0.0
1.8594289280698936e7 -4.5624388953259485e6 0.0
0.0 0.0 0.0

2.227467017549707e6 1.7421166807820596e7 0.0
1.7421166807820596e7 1.4825456280219e7 0.0
0.0 0.0 0.0

2.5469821145326328e6 8.036374862055853e6 0.0
8.036374862055853e6 -3.0201205248859845e7 0.0
0.0 0.0 0.0

-4.601605624257547e6 1.6697163966618674e7 0.0
1.6697163966618674e7 -1.2247678555733807e7 0.0
0.0 0.0 0.0

5.080865623990956e6 3.304423205378067e7 0.0
3.304423205378067e7 -4.352174205933365e6 0.0
0.0 0.0 0.0

-4.268874553437887e6 1.8653954981638525e7 0.0
1.8653954981638525e7 1.2650395849963346e7 0.0
0.0 0.0 0.0

-8.963342887715204e6 -4.021551903969193e6 0.0
-4.021551903969193e6 3.0812303794678234e7 0.0
0.0 0.0 0.0

-2.0920523300909018e6 1.8763109290391672e7 0.0
1.8763109290391672e7 1.5045907487717884e7 0.0
0.0 0.0 0.0

-8.994748757328223e6 2.310319159899296e7 0.0
2.310319159899296e7 -8.744006842181742e6 0.0
0.0 0.0 0.0

-5.668377452936225e6 9.537575352534212e6 0.0
9.537575352534212e6 4.892270609806072e6 0.0
0.0 0.0 0.0

1.6863119841338713e6 1.7998113067238368e7 0.0
1.7998113067238368e7 3.1459189828499973e7 0.0
0.0 0.0 0.0

-9.233569046925666e6 1.553517343576603e7 0.0
1.553517343576603e7 1.7383103097144846e7 0.0
0.0 0.0 0.0

-1.0249986008029409e7 1.3690406955915509e7 0.0
1.3690406955915509e7 1.6950354686357215e7 0.0
0.0 0.0 0.0

-1.0155691813307548e7 9.916663224363154e6 0.0
9.916663224363154e6 3.398758011862024e7 0.0
0.0 0.0 0.0

-2.266217619809543e6 1.8740781462630913e7 0.0
1.8740781462630913e7 1.8566900818618253e7 0.0
0.0 0.0 0.0

-7.984975746704676e6 2.8068251268167064e7 0.0
2.8068251268167064e7 5.2405303775165025e6 0.0
0.0 0.0 0.0

-663082.5738236358 3.0269658901851583e7 0.0
3.0269658901851583e7 -904658.3020996449 0.0
0.0 0.0 0.0

-4.1356478176635816e6 2.0650581465468585e7 0.0
2.0650581465468585e7 9.76573341626615e6 0.0
0.0 0.0 0.0

2.3636617712646564e6 2.9991016350512602e6 0.0
2.9991016350512602e6 -6.47945391037786e6 0.0
0.0 0.0 0.0

2.3886091659601806e6 1.1139349293818515e7 0.0
1.1139349293818515e7 -1.803887100055869e7 0.0
0.0 0.0 0.0

2.017667044813687e6 1.1032721704759017e7 0.0
1.1032721704759017e7 -1.4056131091391463e7 0.0
0.0 0.0 0.0

-5.684734989536481e6 1.6726206925232451e7 0.0
1.6726206925232451e7 1.0428134169308627e7 0.0
0.0 0.0 0.0

-2.023137409600919e6 4.0036205403668135e7 0.0
4.0036205403668135e7 -3.1732399058921225e6 0.0
0.0 0.0 0.0

-8.776012570164636e6 7.429383725287158e6 0.0
7.429383725287158e6 9.57180370565396e6 0.0
0.0 0.0 0.0

1.2661964977248458e6 2.6968469441019055e7 0.0
2.6968469441019055e7 -3.042775660628732e6 0.0
0.0 0.0 0.0

2.8407397110707825e6 2.478135719096527e7 0.0
2.478135719096527e7 -5.674842666810403e6 0.0
0.0 0.0 0.0

-4.215689590206822e6 1.0414720882338054e7 0.0
1.0414720882338054e7 6.227525435399845e6 0.0
0.0 0.0 0.0

-287300.6206979773 1.6902316689964e7 0.0
1.6902316689964e7 1.1311403765894868e6 0.0
0.0 0.0 0.0

1.6429249179946057e7 2.077861871718443e7 0.0
2.077861871718443e7 9.188727228555158e6 0.0
0.0 0.0 0.0

6.2389955718968585e6 1.871218377630219e7 0.0
1.871218377630219e7 2.992283257328624e7 0.0
0.0 0.0 0.0

922619.8377842167 1.7825482298232358e7 0.0
1.7825482298232358e7 1.2721051936053243e7 0.0
0.0 0.0 0.0

-9.15724778706813e6 1.4997636908019014e7 0.0
1.4997636908019014e7 1.6489309560202133e7 0.0
0.0 0.0 0.0

-1.2259822851315455e6 3.747560700040742e7 0.0
3.747560700040742e7 -2.3591406204365157e6 0.0
0.0 0.0 0.0

-1.6092832982601572e7 2.5250910693601757e7 0.0
2.5250910693601757e7 -6.265939396884727e6 0.0
0.0 0.0 0.0

-1.0283559594725661e7 1.4302456752757568e7 0.0
1.4302456752757568e7 1.7851388491206992e7 0.0
0.0 0.0 0.0

773201.0051750075 1.2118608554492619e7 0.0
1.2118608554492619e7 -3.0763484411040276e7 0.0
0.0 0.0 0.0

3.934689086957125e6 1.94824558755885e6 0.0
1.94824558755885e6 -3.42142764875321e7 0.0
0.0 0.0 0.0

924879.4073676383 1.6164165343929889e7 0.0
1.6164165343929889e7 -1.5096377657052405e7 0.0
0.0 0.0 0.0

2.129788281656554e6 1.1730028633503547e7 0.0
1.1730028633503547e7 -1.7075746304327134e7 0.0
0.0 0.0 0.0

577260.7190949013 1.7507949908583753e7 0.0
1.7507949908583753e7 -1.3349803731421221e7 0.0
0.0 0.0 0.0

-3.0152283679652903e6 4.3259648959484525e7 0.0
4.3259648959484525e7 -5.159031086246962e6 0.0
0.0 0.0 0.0

-2.7723651898690504e6 2.233343317175349e7 0.0
2.233343317175349e7 4.0967730603207173e6 0.0
0.0 0.0 0.0

4981.130077642854 2.03335097014094e7 0.0
2.03335097014094e7 -1.0843104668632641e7 0.0
0.0 0.0 0.0

-311608.68504157336 1.9653286155145068e7 0.0
1.9653286155145068e7 -1.1281529424901893e7 0.0
0.0 0.0 0.0

2.519583260056859e6 1.0251590430679891e7 0.0
1.0251590430679891e7 -1.671208347551624e7 0.0
0.0 0.0 0.0

-4.162267272052424e6 2.1624402739470914e7 0.0
2.1624402739470914e7 1.0124868362851439e7 0.0
0.0 0.0 0.0

-520341.97258116957 1.9184825770208437e7 0.0
1.9184825770208437e7 1.6286759204692433e7 0.0
0.0 0.0 0.0

-6.201725249410067e6 2.2550373926617138e7 0.0
2.2550373926617138e7 7.573796962658999e6 0.0
0.0 0.0 0.0

-4.71266480074396e6 7.737489711208198e6 0.0
7.737489711208198e6 6.475481141609308e7 0.0
0.0 0.0 0.0

-8.497312227350825e6 -2.7650545710420553e6 0.0
-2.7650545710420553e6 1.872908998696937e7 0.0
0.0 0.0 0.0

-1.3313265354217667e7 6.423303515631384e7 0.0
6.423303515631384e7 -1.7104538984117746e7 0.0
0.0 0.0 0.0

3.072370838803779e6 1.762385656304565e7 0.0
1.762385656304565e7 1.870890476551941e7 0.0
0.0 0.0 0.0

-776897.0103665333 3.576855120956636e7 0.0
3.576855120956636e7 -1.6153681066742183e6 0.0
0.0 0.0 0.0

84472.98463131255 1.7215750922043342e7 0.0
1.7215750922043342e7 -1.0825283259486832e7 0.0
0.0 0.0 0.0

685518.3105307892 1.9750691888030376e7 0.0
1.9750691888030376e7 -1.0565481463397212e7 0.0
0.0 0.0 0.0

-2.9880954380250825e6 2.331389749299148e7 0.0
2.331389749299148e7 5.994844077881583e6 0.0
0.0 0.0 0.0

4.293167425675385e6 2.515651323227399e6 0.0
2.515651323227399e6 -1.958766438928704e7 0.0
0.0 0.0 0.0

7.253477659973369e6 1.908010738571892e7 0.0
1.908010738571892e7 1.9807310276769935e6 0.0
0.0 0.0 0.0

2.295411936283325e6 1.1645200856802242e7 0.0
1.1645200856802242e7 -1.8656744803927194e7 0.0
0.0 0.0 0.0

3.1766242738279775e6 2.2641316185411647e7 0.0
2.2641316185411647e7 -6.5854546591170365e6 0.0
0.0 0.0 0.0

3.227470941289611e6 7.490614109945642e6 0.0
7.490614109945642e6 -2.9368885038482144e7 0.0
0.0 0.0 0.0

-3.463247067868149e6 1.9634908449506003e7 0.0
1.9634908449506003e7 8.840711177089645e6 0.0
0.0 0.0 0.0

2.8897657540859757e6 7.136176881764712e6 0.0
7.136176881764712e6 -1.2219231408574417e7 0.0
0.0 0.0 0.0

-1.87838872212729e6 1.0866554062696831e7 0.0
1.0866554062696831e7 86858.73237691971 0.0
0.0 0.0 0.0

-1.520935981008096e7 2.2459168703280024e7 0.0
2.2459168703280024e7 -4.958899236119084e6 0.0
0.0 0.0 0.0

2.8737193783116806e6 9.763790459128546e6 0.0
9.763790459128546e6 -2.1538838836727984e7 0.0
0.0 0.0 0.0

-2.7882835846867934e6 1.6291996214940276e7 0.0
1.6291996214940276e7 -3.5347227989581027e6 0.0
0.0 0.0 0.0

-587595.2190338932 2.0858393307498816e7 0.0
2.0858393307498816e7 -9.247939196283584e6 0.0
0.0 0.0 0.0

-2.283752104101983e6 1.8384858281254057e7 0.0
1.8384858281254057e7 2.2957232103099108e7 0.0
0.0 0.0 0.0

291794.3784191363 1.8550001222679865e7 0.0
1.8550001222679865e7 -1.9946017663394464e6 0.0
0.0 0.0 0.0

-6.367882344455072e6 1.56414069279063e7 0.0
1.56414069279063e7 1.0841412212436162e7 0.0
0.0 0.0 0.0

-1.1697058819178887e7 7.307222899694362e6 0.0
7.307222899694362e6 2.938975838694324e7 0.0
0.0 0.0 0.0

-1.7168769076649137e6 1.8700918706306107e7 0.0
1.8700918706306107e7 2.340861185739315e7 0.0
0.0 0.0 0.0

-8.123501885940622e6 1.659610513268394e7 0.0
1.659610513268394e7 1.6789080964210667e7 0.0
0.0 0.0 0.0

-1.1398877136322875e7 2.6205298633363526e6 0.0
2.6205298633363526e6 2.636018000794807e7 0.0
0.0 0.0 0.0

-4.908957732240825e6 1.803851016273404e7 0.0
1.803851016273404e7 1.4171238043636903e7 0.0
0.0 0.0 0.0

-4.932094331596657e6 2.026223014559548e7 0.0
2.026223014559548e7 1.5138948724325797e7 0.0
0.0 0.0 0.0

-8.740583490405744e6 5.42377916139285e6 0.0
5.42377916139285e6 1.4375675853405764e7 0.0
0.0 0.0 0.0

-438596.4121625931 2.0262476717648853e7 0.0
2.0262476717648853e7 -1.0276361547885414e7 0.0
0.0 0.0 0.0

-3.256251015379319e6 2.3264126038206317e7 0.0
2.3264126038206317e7 3.7238505370340752e6 0.0
0.0 0.0 0.0

-8.034517566853813e6 1.7077846621973872e7 0.0
1.7077846621973872e7 1.7524540472465515e7 0.0
0.0 0.0 0.0

-1.0087995414227407e7 2.8955411502518337e6 0.0
2.8955411502518337e6 3.810426128530641e7 0.0
0.0 0.0 0.0

-2.5566730584926736e6 1.9788878529877067e7 0.0
1.9788878529877067e7 1.195995669214811e7 0.0
0.0 0.0 0.0

-9.602079925863804e6 1.3572955381595839e7 0.0
1.3572955381595839e7 1.921039968659254e7 0.0
0.0 0.0 0.0

1.2395049811857939e6 1.184398292313007e7 0.0
1.184398292313007e7 -2.9025226510988563e7 0.0
0.0 0.0 0.0

-3.0842918655527066e6 1.7781143360473964e7 0.0
1.7781143360473964e7 2.840214986772765e7 0.0
0.0 0.0 0.0

-1.0244925956151148e7 1.5359448862492893e7 0.0
1.5359448862492893e7 2.2403494619087353e7 0.0
0.0 0.0 0.0

2.0276961704501165e6 1.056433202085662e7 0.0
1.056433202085662e7 -1.3358710992218895e7 0.0
0.0 0.0 0.0

3.6615866217304226e6 3.6453865955682285e6 0.0
3.6453865955682285e6 -2.737081706587527e7 0.0
0.0 0.0 0.0

1.5431001896926677e6 1.7909754126562994e7 0.0
1.7909754126562994e7 2.410239680804393e7 0.0
0.0 0.0 0.0

-554776.5786708072 1.8137010558885295e7 0.0
1.8137010558885295e7 2.6298938414207328e7 0.0
0.0 0.0 0.0

-645458.4836108822 1.672353017104329e7 0.0
1.672353017104329e7 -7.803330990033252e6 0.0
0.0 0.0 0.0

-3.7658162926179273e6 2.2845628582182534e7 0.0
2.2845628582182534e7 1.0006490636943553e7 0.0
0.0 0.0 0.0

-490001.44314814644 3.2470250033641748e7 0.0
3.2470250033641748e7 -1.138501662553143e6 0.0
0.0 0.0 0.0

274383.27397989994 1.871818114938322e7 0.0
1.871818114938322e7 -1.2506479494960785e7 0.0
0.0 0.0 0.0

-9.419648708698329e6 -1.6390418051604226e6 0.0
-1.6390418051604226e6 1.990102345762856e7 0.0
0.0 0.0 0.0

738391.1390905986 1.3774636510115331e7 0.0
1.3774636510115331e7 -2.5020395804027025e7 0.0
0.0 0.0 0.0

-3.818047603090548e6 2.0489001244149152e7 0.0
2.0489001244149152e7 1.2264586827677002e7 0.0
0.0 0.0 0.0

-1.0883754189492745e7 1.4085651902424622e7 0.0
1.4085651902424622e7 2.2992702721819285e7 0.0
0.0 0.0 0.0

2.865262678549623e6 1.532986024735848e7 0.0
1.532986024735848e7 1.0519599122037426e7 0.0
0.0 0.0 0.0

1.7080379362567626e6 9.489032954263795e6 0.0
9.489032954263795e6 -3.3843848111708604e7 0.0
0.0 0.0 0.0

1.493780145347802e6 1.1734269670883736e7 0.0
1.1734269670883736e7 -2.7239968720297236e7 0.0
0.0 0.0 0.0

6.332234702512295e6 3.446014592441509e7 0.0
3.446014592441509e7 -5.222591324136501e6 0.0
0.0 0.0 0.0

-2.609252750221136e6 2.2738708761559304e7 0.0
2.2738708761559304e7 3.153271030649538e6 0.0
0.0 0.0 0.0

-2.8896240329469414e6 2.378050259845773e7 0.0
2.378050259845773e7 5.078450131734094e6 0.0
0.0 0.0 0.0

-2.126068884971033e6 2.3885733258645505e7 0.0
2.3885733258645505e7 -2.0906087043489665e6 0.0
0.0 0.0 0.0

4.0283305676741926e6 4.309944110279689e6 0.0
4.309944110279689e6 -1.6370682807068624e7 0.0
0.0 0.0 0.0

-1.6301821308344514e6 1.57727496397401e7 0.0
1.57727496397401e7 -7.185099712390957e6 0.0
0.0 0.0 0.0

-3.685925535177573e6 2.0344259872105535e7 0.0
2.0344259872105535e7 1.1521539264648214e7 0.0
0.0 0.0 0.0

419227.98890182516 2.0819338708495457e7 0.0
2.0819338708495457e7 -1.004180850706642e7 0.0
0.0 0.0 0.0

-474727.34053689585 3.1627414546226554e7 0.0
3.1627414546226554e7 -976171.8032379632 0.0
0.0 0.0 0.0

-6.349673201173728e6 8.488259658708401e6 0.0
8.488259658708401e6 1.1221388197170828e7 0.0
0.0 0.0 0.0

-1.240905809017063e7 9.513974236454586e6 0.0
9.513974236454586e6 2.4296493638792828e7 0.0
0.0 0.0 0.0

-559385.3633993685 3.0942755415481117e7 0.0
3.0942755415481117e7 -828965.3809923249 0.0
0.0 0.0 0.0

-703966.815535208 2.1483038621762462e7 0.0
2.1483038621762462e7 -8.275606976497696e6 0.0
0.0 0.0 0.0

1.773678736800393e6 1.0679032624758746e7 0.0
1.0679032624758746e7 -1.740063223846552e7 0.0
0.0 0.0 0.0

-5.071524242018612e6 1.6426694541846786e7 0.0
1.6426694541846786e7 1.2734884979126222e7 0.0
0.0 0.0 0.0

1.7971447210061383e6 8.801511302338464e6 0.0
8.801511302338464e6 -3.545298824242935e7 0.0
0.0 0.0 0.0

-1.4378169838418246e6 2.738378200853026e7 0.0
2.738378200853026e7 692630.3320031324 0.0
0.0 0.0 0.0

-3.705444924870812e6 2.080747642443872e7 0.0
2.080747642443872e7 9.395551537546366e6 0.0
0.0 0.0 0.0

235585.85140016675 1.2866470735616017e7 0.0
1.2866470735616017e7 -3.098974051346501e7 0.0
0.0 0.0 0.0

-3.6057142126985244e6 2.4292267624555804e7 0.0
2.4292267624555804e7 5.368627361317361e6 0.0
0.0 0.0 0.0

-1.2147955173802251e7 9.21831113043092e6 0.0
9.21831113043092e6 2.5983075365661245e7 0.0
0.0 0.0 0.0

1.5124025593558867e6 1.0392968738572894e7 0.0
1.0392968738572894e7 -1.5052436939032083e7 0.0
0.0 0.0 0.0

1.1174279353820228e6 1.9700908638155065e7 0.0
1.9700908638155065e7 9.70038938644159e6 0.0
0.0 0.0 0.0

-3.0241992322282926e6 2.2137013276463326e7 0.0
2.2137013276463326e7 7.138769062718087e6 0.0
0.0 0.0 0.0

-402662.70079781115 1.370953538728202e7 0.0
1.370953538728202e7 -3.058463230729073e7 0.0
0.0 0.0 0.0

-4.0369937462046687e6 4.772893494021654e7 0.0
4.772893494021654e7 -8.164504418014566e6 0.0
0.0 0.0 0.0

-9.476477178956214e6 1.6534368229211751e7 0.0
1.6534368229211751e7 2.0447503327869236e7 0.0
0.0 0.0 0.0

-9.59070914539981e6 1.7116229494138155e7 0.0
1.7116229494138155e7 -4.885890554794399e7 0.0
0.0 0.0 0.0

-4.828939191824539e6 9.348033183864078e6 0.0
9.348033183864078e6 7.803584316134e6 0.0
0.0 0.0 0.0

-4.830428903671937e6 1.8973498857282393e7 0.0
1.8973498857282393e7 1.0663845691667464e7 0.0
0.0 0.0 0.0

-5.839597290805854e6 1.749132891358876e7 0.0
1.749132891358876e7 2.6915569574759647e7 0.0
0.0 0.0 0.0

-5.682305192501798e6 1.5301325316715222e7 0.0
1.5301325316715222e7 1.3294381447710514e7 0.0
0.0 0.0 0.0

-1.6607132271960378e6 1.6003472737224376e7 0.0
1.6003472737224376e7 5.134004964495133e7 0.0
0.0 0.0 0.0

-3.737907227199313e6 1.902529639362489e7 0.0
1.902529639362489e7 1.0189971284013899e7 0.0
0.0 0.0 0.0

-984170.824680292 1.6765827758581663e7 0.0
1.6765827758581663e7 -2.0947252129574094e7 0.0
0.0 0.0 0.0

392640.34514613077 1.914834956668871e7 0.0
1.914834956668871e7 -1.312200171611411e7 0.0
0.0 0.0 0.0

1.3406802599572939e8 2.3830510352412764e7 0.0
2.3830510352412764e7 1.213435494255393e7 0.0
0.0 0.0 0.0

-8.92119824826597e6 -3.8500708353041224e6 0.0
-3.8500708353041224e6 3.1921850121212672e7 0.0
0.0 0.0 0.0

4.0768299486365337e6 2.0107151286811715e6 0.0
2.0107151286811715e6 -3.1239643567661338e7 0.0
0.0 0.0 0.0

-7.882407841721816e6 1.1487544077925403e6 0.0
1.1487544077925403e6 9.997583694223972e6 0.0
0.0 0.0 0.0

-1.9693766771686925e6 2.335991835623805e7 0.0
2.335991835623805e7 -2.982427822842188e6 0.0
0.0 0.0 0.0

-8.324853502022255e6 -2.6707783414113107e6 0.0
-2.6707783414113107e6 4.114366958196936e7 0.0
0.0 0.0 0.0

-6.2212913107003495e6 1.6027169286763547e7 0.0
1.6027169286763547e7 -2.9244997075143427e7 0.0
0.0 0.0 0.0

-1.1507349862584498e7 1.2459583193156349e7 0.0
1.2459583193156349e7 2.3403647878414907e7 0.0
0.0 0.0 0.0

-7.996164142614182e6 1.7504211261611085e7 0.0
1.7504211261611085e7 1.811276606490068e7 0.0
0.0 0.0 0.0

3.8406520763180163e6 1.8944003516530187e6 0.0
1.8944003516530187e6 -3.523829946204834e7 0.0
0.0 0.0 0.0

738425.6604229603 1.6712486530469848e7 0.0
1.6712486530469848e7 -1.4019014445503362e7 0.0
0.0 0.0 0.0

-568474.4858197639 3.3473521283651337e7 0.0
3.3473521283651337e7 -994037.2818109257 0.0
0.0 0.0 0.0

1.1388516031276155e6 1.1023077271959359e7 0.0
1.1023077271959359e7 -1.4097104290963657e7 0.0
0.0 0.0 0.0

-2.79180087806838e6 2.01815259408216e7 0.0
2.01815259408216e7 -3.5181810889281332e6 0.0
0.0 0.0 0.0

-1.0234964466582276e6 8.1621507148106415e6 0.0
8.1621507148106415e6 9.218804664762974e7 0.0
0.0 0.0 0.0

-1.8816367233254388e6 7.994185408526347e6 0.0
7.994185408526347e6 -8.345480355597688e7 0.0
0.0 0.0 0.0

-5.063981624256711e6 1.6088448924869105e7 0.0
1.6088448924869105e7 -6.965863137755671e7 0.0
0.0 0.0 0.0

1.2824302942296201e6 1.5111325731579473e7 0.0
1.5111325731579473e7 -1.72075370688309e7 0.0
0.0 0.0 0.0

2.88057865155806e6 6.801342916796327e6 0.0
6.801342916796327e6 -3.8125080815523855e7 0.0
0.0 0.0 0.0

-2.24914755557502e7 2.6526778634504367e7 0.0
2.6526778634504367e7 3.2712906583054746e6 0.0
0.0 0.0 0.0

268727.78883503797 2.026800407014783e7 0.0
2.026800407014783e7 -1.1096594369530346e7 0.0
0.0 0.0 0.0

-8.79413093814811e6 -3.730167688608124e6 0.0
-3.730167688608124e6 3.3006786371013973e7 0.0
0.0 0.0 0.0

-7.677162224174403e6 1.1023567744108098e7 0.0
1.1023567744108098e7 1.2834203508459847e7 0.0
0.0 0.0 0.0

-2.749091920003227e6 2.4211391928008955e7 0.0
2.4211391928008955e7 4.1753350547697106e6 0.0
0.0 0.0 0.0

-4.295937621958473e6 2.0875223747861777e7 0.0
2.0875223747861777e7 1.0574480742221026e7 0.0
0.0 0.0 0.0

-8.8340472325597e6 1.3998266968851648e7 0.0
1.3998266968851648e7 1.4314710705638427e7 0.0
0.0 0.0 0.0

-7.703766525570645e6 6.856381248535208e6 0.0
6.856381248535208e6 1.3296637876645718e7 0.0
0.0 0.0 0.0

5.8406210712306565e6 1.9103636017779272e7 0.0
1.9103636017779272e7 3.9129289601735645e6 0.0
0.0 0.0 0.0

-862953.7074180383 2.2138321988777857e7 0.0
2.2138321988777857e7 -7.327639860126837e6 0.0
0.0 0.0 0.0

-2.432924752186251e6 6.239056002090549e6 0.0
6.239056002090549e6 -648490.527805967 0.0
0.0 0.0 0.0

-625681.0426660489 2.5287789475647755e7 0.0
2.5287789475647755e7 -2.348964863848133e6 0.0
0.0 0.0 0.0

-1.090732129595692e7 1.5421712758016707e7 0.0
1.5421712758016707e7 2.2091606231279552e7 0.0
0.0 0.0 0.0

-4.8654128903567465e6 1.6089636736600524e7 0.0
1.6089636736600524e7 1.1551132899206236e7 0.0
0.0 0.0 0.0

-8.69708107715246e6 -3.5238043105902197e6 0.0
-3.5238043105902197e6 3.410963162688495e7 0.0
0.0 0.0 0.0

3.917357412199702e6 1.9742770023609588e6 0.0
1.9742770023609588e6 -3.320463906577082e7 0.0
0.0 0.0 0.0

2.693905136900196e6 7.0567821983938385e6 0.0
7.0567821983938385e6 -4.063981873071493e7 0.0
0.0 0.0 0.0

-1.2459296999282917e7 1.1365893141515432e7 0.0
1.1365893141515432e7 2.1863418390730962e7 0.0
0.0 0.0 0.0

187596.26930211484 4.976387401420023e6 0.0
4.976387401420023e6 -7.190056874686569e7 0.0
0.0 0.0 0.0

-7.034964048464872e6 -972919.7135959053 0.0
-972919.7135959053 5.4817894363406084e7 0.0
0.0 0.0 0.0

2.0120102736257212e6 1.0077582991180867e7 0.0
1.0077582991180867e7 -1.8427532202222943e7 0.0
0.0 0.0 0.0

3.142634616773052e6 8.764311921912225e6 0.0
8.764311921912225e6 -2.037167123102975e7 0.0
0.0 0.0 0.0

3.995915968596912e6 3.0794826148088094e7 0.0
3.0794826148088094e7 -2.590247357978292e6 0.0
0.0 0.0 0.0

-6.384782871117728e6 2.7967132385600213e7 0.0
2.7967132385600213e7 5.730311902288013e6 0.0
0.0 0.0 0.0

-3.221594786450437e6 2.1648745260927934e7 0.0
2.1648745260927934e7 8.141714811262228e6 0.0
0.0 0.0 0.0

-427821.79103561654 2.4246554144059766e7 0.0
2.4246554144059766e7 -4.003880971101673e6 0.0
0.0 0.0 0.0

-1.3165648001213279e6 3.1540326355611112e7 0.0
3.1540326355611112e7 1.286151896135237e6 0.0
0.0 0.0 0.0

-3.2374610016236883e6 2.2943817938073203e7 0.0
2.2943817938073203e7 7.78418753389385e6 0.0
0.0 0.0 0.0

-94589.36057182867 1.8262822767397407e7 0.0
1.8262822767397407e7 1.0612465553164799e7 0.0
0.0 0.0 0.0

1.7888275364420116e6 2.761760405359335e6 0.0
2.761760405359335e6 -5.996276583152665e7 0.0
0.0 0.0 0.0

3.6512932320259493e6 1.7476751264235093e6 0.0
1.7476751264235093e6 -3.947665803310913e7 0.0
0.0 0.0 0.0

2.7204695528617688e6 1.9743708173709393e6 0.0
1.9743708173709393e6 -5.141913404842964e7 0.0
0.0 0.0 0.0

-2.8021220911613754e6 2.4350402297982093e7 0.0
2.4350402297982093e7 1.231478763823824e6 0.0
0.0 0.0 0.0

-6.454576071659177e6 1.010147640287422e7 0.0
1.010147640287422e7 6.571220005772639e6 0.0
0.0 0.0 0.0

-8.0795910177801885e6 -2.490203115780429e6 0.0
-2.490203115780429e6 4.234489459237704e7 0.0
0.0 0.0 0.0

-1.2350495623817e7 1.1637622064263586e7 0.0
1.1637622064263586e7 2.050595076570808e7 0.0
0.0 0.0 0.0

4.1172732065297505e6 3.752238701001835e6 0.0
3.752238701001835e6 -2.149596173704478e7 0.0
0.0 0.0 0.0

-1.336552659001727e7 2.610015580619519e7 0.0
2.610015580619519e7 5.149675803754028e6 0.0
0.0 0.0 0.0

-6.026164313561736e6 1.6735949968094725e7 0.0
1.6735949968094725e7 -2.5041322699262217e7 0.0
0.0 0.0 0.0

-9.052106402793158e6 -4.740689687064009e6 0.0
-4.740689687064009e6 2.7119926472210623e7 0.0
0.0 0.0 0.0

-1.1837839328092428e7 3.3045762535946355e6 0.0
3.3045762535946355e6 1.909745971924671e7 0.0
0.0 0.0 0.0

-1.1547751670989584e7 8.57972616280191e6 0.0
8.57972616280191e6 2.99944726200563e7 0.0
0.0 0.0 0.0

-4.666048734721565e6 1.947881497627916e7 0.0
1.947881497627916e7 1.7567972073450077e7 0.0
0.0 0.0 0.0

1.538589734351973e6 1.2241883594919361e7 0.0
1.2241883594919361e7 -2.4343603441471625e7 0.0
0.0 0.0 0.0

2.4754666349296905e6 2.366952805879174e6 0.0
2.366952805879174e6 -5.671004532437035e7 0.0
0.0 0.0 0.0

4.0702512061952315e6 2.1256319704226977e6 0.0
2.1256319704226977e6 -2.842170139761939e7 0.0
0.0 0.0 0.0

1.0441847009741504e7 3.2774880388722096e7 0.0
3.2774880388722096e7 -6.889875068622738e6 0.0
0.0 0.0 0.0

-7.346774126167107e6 -1.2131876523940663e6 0.0
-1.2131876523940663e6 5.2590540474188976e7 0.0
0.0 0.0 0.0

2.638842831711769e6 8.231220864631542e6 0.0
8.231220864631542e6 -3.462988894794339e7 0.0
0.0 0.0 0.0

-5.843524536512822e6 1.8906966275506848e6 0.0
1.8906966275506848e6 7.05299501884919e7 0.0
0.0 0.0 0.0

1.5136177978077307e6 3.485623240302702e6 0.0
3.485623240302702e6 -6.472637888976498e7 0.0
0.0 0.0 0.0

-3.775086003716005e6 2.417628665716177e7 0.0
2.417628665716177e7 7.948930214169953e6 0.0
0.0 0.0 0.0

-1.0775723125109198e6 1.207026759879486e7 0.0
1.207026759879486e7 -6.746336033449713e6 0.0
0.0 0.0 0.0

-673602.3017633501 1.7545549892958846e7 0.0
1.7545549892958846e7 -1.131875869902938e7 0.0
0.0 0.0 0.0

369878.5957821226 1.6334408614492329e7 0.0
1.6334408614492329e7 -1.850797098931249e7 0.0
0.0 0.0 0.0

-6.670450567549303e6 -615482.4431322691 0.0
-615482.4431322691 5.76083682184317e7 0.0
0.0 0.0 0.0

2.494864351443317e6 2.1922941036302573e6 0.0
2.1922941036302573e6 -5.385640752493215e7 0.0
0.0 0.0 0.0

-1.0076821950158255e7 1.6231882071470316e7 0.0
1.6231882071470316e7 2.2717275477366965e7 0.0
0.0 0.0 0.0

-1.1233010076327678e7 1.4815760461842956e7 0.0
1.4815760461842956e7 2.160251970262032e7 0.0
0.0 0.0 0.0

-1.1988051972030137e7 1.0270629365065396e7 0.0
1.0270629365065396e7 2.6564621904870916e7 0.0
0.0 0.0 0.0

-6.791275191847887e6 1.4506388591397174e7 0.0
1.4506388591397174e7 1.5133954836092018e7 0.0
0.0 0.0 0.0

2.6777797008507065e6 1.837766809410592e7 0.0
1.837766809410592e7 3.2018313009816736e7 0.0
0.0 0.0 0.0

-29366.331648235675 2.2645630947746698e7 0.0
2.2645630947746698e7 -6.527104041762476e6 0.0
0.0 0.0 0.0

-2.5710539357727296e6 2.581278785939183e7 0.0
2.581278785939183e7 715571.2575892095 0.0
0.0 0.0 0.0

-343228.1979393447 2.3877479634127993e7 0.0
2.3877479634127993e7 -5.465271003864027e6 0.0
0.0 0.0 0.0

2.703732389981824e6 1.00962443223752e7 0.0
1.00962443223752e7 -1.8366937750536613e7 0.0
0.0 0.0 0.0

-3.839646569343388e6 2.658106417822031e7 0.0
2.658106417822031e7 5.2598363611946e6 0.0
0.0 0.0 0.0

-1.5938007813535787e6 1.92797692596258e7 0.0
1.92797692596258e7 -5.01038162222585e6 0.0
0.0 0.0 0.0

1.6572804479051298e6 1.4096193963778099e7 0.0
1.4096193963778099e7 -1.9325223914099976e7 0.0
0.0 0.0 0.0

-1.0187936807208192e7 1.4496885804061305e7 0.0
1.4496885804061305e7 2.7671678207331836e7 0.0
0.0 0.0 0.0

-1.2209908253588712e7 1.217907076701536e7 0.0
1.217907076701536e7 2.2559372885311708e7 0.0
0.0 0.0 0.0

2.415815714644978e6 9.256636411802351e6 0.0
9.256636411802351e6 -2.1145134901277836e7 0.0
0.0 0.0 0.0

-8.573005141156813e6 -3.1330134706177656e6 0.0
-3.1330134706177656e6 3.751313632517643e7 0.0
0.0 0.0 0.0

3.7522646587023586e6 1.8894327706926567e6 0.0
1.8894327706926567e6 -3.626101681010631e7 0.0
0.0 0.0 0.0

-1.189119210322761e6 1.846710477849128e7 0.0
1.846710477849128e7 2.035926527367076e7 0.0
0.0 0.0 0.0

-7.4589603950933255e6 -1.4511903516925443e6 0.0
-1.4511903516925443e6 5.0488753858818464e7 0.0
0.0 0.0 0.0

2.944075277698638e6 1.8891164322865657e6 0.0
1.8891164322865657e6 -4.759770348250703e7 0.0
0.0 0.0 0.0

3.658468383154014e6 1.9162359551863228e6 0.0
1.9162359551863228e6 -3.726849703278791e7 0.0
0.0 0.0 0.0

-8.443339057368623e6 -2.941652037352291e6 0.0
-2.941652037352291e6 3.864317889314826e7 0.0
0.0 0.0 0.0

-5.026989793341814e6 1.6336807933119519e7 0.0
1.6336807933119519e7 3.4449921688211605e7 0.0
0.0 0.0 0.0

3.1656955997791104e6 1.820044925284446e6 0.0
1.820044925284446e6 -4.60859435894503e7 0.0
0.0 0.0 0.0

-7.582066760412006e6 -1.7624925818724975e6 0.0
-1.7624925818724975e6 4.848513730840926e7 0.0
0.0 0.0 0.0

-4.61357156936213e6 1.9260908204510506e7 0.0
1.9260908204510506e7 1.9662507948824476e7 0.0
0.0 0.0 0.0

-9.403399027871868e6 -877351.2713657167 0.0
-877351.2713657167 3.40437609785676e7 0.0
0.0 0.0 0.0

-8.396532195641315e6 -2.7615802013754216e6 0.0
-2.7615802013754216e6 3.993281587708464e7 0.0
0.0 0.0 0.0

3.7878156351692583e6 1.869148258717498e6 0.0
1.869148258717498e6 -3.8440208027623944e7 0.0
0.0 0.0 0.0

3.2499767454657704e6 1.8488815214648722e6 0.0
1.8488815214648722e6 -4.460731513116438e7 0.0
0.0 0.0 0.0

-7.764054543226564e6 -2.0268992627998327e6 0.0
-2.0268992627998327e6 4.675355439965012e7 0.0
0.0 0.0 0.0

-2.5167740084131998e8 5.652850511496841e7 0.0
5.652850511496841e7 -2.8830854142089523e7 0.0
0.0 0.0 0.0

2.2682799647642386e8 4.4829086927868985e7 0.0
4.4829086927868985e7 2.0017819917690113e7 0.0
0.0 0.0 0.0

-9.01823897036523e6 1.4496589443660874e7 0.0
1.4496589443660874e7 1.5446945308526218e7 0.0
0.0 0.0 0.0

3.2052231694657784e6 1.7762613619632628e6 0.0
1.7762613619632628e6 -4.317171001669861e7 0.0
0.0 0.0 0.0

-8.00525011369646e6 -2.164278827764108e6 0.0
-2.164278827764108e6 4.533463485375089e7 0.0
0.0 0.0 0.0

220075.2717480663 1.7358788390966795e7 0.0
1.7358788390966795e7 -1.5298832891299112e6 0.0
0.0 0.0 0.0

-1.1934865545645844e7 1.3262477138873946e7 0.0
1.3262477138873946e7 2.180632512843721e7 0.0
0.0 0.0 0.0

-2.5647199149062205e6 2.4620388153513372e7 0.0
2.4620388153513372e7 3.3636571983338837e6 0.0
0.0 0.0 0.0

-434109.9719564626 1.897653282526562e7 0.0
1.897653282526562e7 2.1101557152356647e7 0.0
0.0 0.0 0.0

-8.0845962940706e6 -2.274105954816261e6 0.0
-2.274105954816261e6 4.386147934723122e7 0.0
0.0 0.0 0.0

3.4262779932197705e6 1.679520316432591e6 0.0
1.679520316432591e6 -4.200642323917106e7 0.0
0.0 0.0 0.0

-922173.4637138534 2.2753438380172264e7 0.0
2.2753438380172264e7 -6.393790886681989e6 0.0
0.0 0.0 0.0

-7.001020129014444e6 1.6669773124051858e7 0.0
1.6669773124051858e7 -5.039294912217343e7 0.0
0.0 0.0 0.0

-1.5252435226568324e6 2.536323087865747e7 0.0
2.536323087865747e7 -2.1229209116411977e6 0.0
0.0 0.0 0.0

1.1425438058703672e6 1.5644556086679762e7 0.0
1.5644556086679762e7 -1.6131575254805565e7 0.0
0.0 0.0 0.0

679677.2793207029 1.466166807352887e7 0.0
1.466166807352887e7 -2.2268832262278087e7 0.0
0.0 0.0 0.0

-418353.12369776587 1.8247181942832276e7 0.0
1.8247181942832276e7 6.101552096548125e6 0.0
0.0 0.0 0.0

1.0114698783732522e6 2.264977657450621e7 0.0
2.264977657450621e7 -7.786388864447727e6 0.0
0.0 0.0 0.0

369320.80803825567 2.0800732893450428e7 0.0
2.0800732893450428e7 -9.906125194213547e6 0.0
0.0 0.0 0.0

-4.728597282803317e6 1.5541395389903476e7 0.0
1.5541395389903476e7 -3.895235746283307e7 0.0
0.0 0.0 0.0

-1.9572866603978998e6 2.5547749755870864e7 0.0
2.5547749755870864e7 1.1224701163219654e6 0.0
0.0 0.0 0.0

-3.7413623248463743e6 2.127518938641182e7 0.0
2.127518938641182e7 8.832311950642534e6 0.0
0.0 0.0 0.0

-6.279605508221116e6 2.2387144539345082e7 0.0
2.2387144539345082e7 -9.861645742643667e6 0.0
0.0 0.0 0.0

393707.0997865414 1.5076582050341569e7 0.0
1.5076582050341569e7 -2.2267875709313095e7 0.0
0.0 0.0 0.0

-1.2026880017324727e7 1.1937583467781093e7 0.0
1.1937583467781093e7 1.9020038392850496e7 0.0
0.0 0.0 0.0

1.9266266734502208e6 1.732569391181402e7 0.0
1.732569391181402e7 1.0474601858710665e7 0.0
0.0 0.0 0.0

-1.123438317951253e7 1.35231972137941e7 0.0
1.35231972137941e7 1.892291021614821e7 0.0
0.0 0.0 0.0

-2.0556496782281925e6 1.7804016231808368e7 0.0
1.7804016231808368e7 -2.396480756958916e6 0.0
0.0 0.0 0.0

-2.1599317855729633e6 2.530534557189272e7 0.0
2.530534557189272e7 1.9239107289456027e6 0.0
0.0 0.0 0.0

-1.5253969363868404e6 1.530419861423027e7 0.0
1.530419861423027e7 -2.748100135147514e7 0.0
0.0 0.0 0.0

-3.6069017545586294e6 1.9342654007055692e7 0.0
1.9342654007055692e7 1.9101434600818798e7 0.0
0.0 0.0 0.0

-1.479281288460507e6 3.231066634011036e7 0.0
3.231066634011036e7 1.6757788313053409e6 0.0
0.0 0.0 0.0

-2.864819922328932e6 1.8169708114860855e7 0.0
1.8169708114860855e7 -2.9920176405430688e6 0.0
0.0 0.0 0.0

-1.1615488461396054e6 2.3861969032805942e7 0.0
2.3861969032805942e7 -4.599749410258326e6 0.0
0.0 0.0 0.0

1.3614735723587157e7 2.1805257546238415e7 0.0
2.1805257546238415e7 1.0482351787654899e7 0.0
0.0 0.0 0.0

-2.3936324441368263e6 2.498660596584435e7 0.0
2.498660596584435e7 2.603007080068718e6 0.0
0.0 0.0 0.0

-8.786679237752156e6 1.5153654319611302e7 0.0
1.5153654319611302e7 1.5568228547889795e6 0.0
0.0 0.0 0.0

-1.8321977633402813e6 2.7144223737791825e7 0.0
2.7144223737791825e7 1.2880301361908154e6 0.0
0.0 0.0 0.0

4.206132989612185e6 2.393003258280771e6 0.0
2.393003258280771e6 -2.259666008962223e7 0.0
0.0 0.0 0.0

4.253985369794443e6 2.461624122548524e6 0.0
2.461624122548524e6 -2.1780195173750248e7 0.0
0.0 0.0 0.0

-979945.6590395292 2.3334091449822463e7 0.0
2.3334091449822463e7 -5.334725921489082e6 0.0
0.0 0.0 0.0

292024.5448897388 1.857843670457167e7 0.0
1.857843670457167e7 2.693934264793564e7 0.0
0.0 0.0 0.0

-1.3755180196952412e6 2.7903555222035076e7 0.0
2.7903555222035076e7 829141.2929546483 0.0
0.0 0.0 0.0

-1.2171667096034229e7 1.0574209069341807e7 0.0
1.0574209069341807e7 2.49140718981994e7 0.0
0.0 0.0 0.0

-1.2890223462243679e6 3.0281015198222544e7 0.0
3.0281015198222544e7 1.1377878606784865e6 0.0
0.0 0.0 0.0

-3.2520383801543787e6 1.9970256443500813e7 0.0
1.9970256443500813e7 1.1770950541840332e7 0.0
0.0 0.0 0.0

-128432.50332492823 1.6574225414127974e7 0.0
1.6574225414127974e7 4.444018667658049e6 0.0
0.0 0.0 0.0

1.9907313436968625e6 1.1992953036652232e7 0.0
1.1992953036652232e7 -2.5505838262970947e7 0.0
0.0 0.0 0.0

-3.3338888344366504e6 2.4525465377136134e7 0.0
2.4525465377136134e7 3.669355731552356e6 0.0
0.0 0.0 0.0

-9.154554036173796e6 -3.6216997411687137e6 0.0
-3.6216997411687137e6 2.4309370107126288e7 0.0
0.0 0.0 0.0

-5.198712017994298e6 1.5452687672062123e7 0.0
1.5452687672062123e7 3.6226012489938565e7 0.0
0.0 0.0 0.0

-4.1437898707520384e6 1.513672162282419e7 0.0
1.513672162282419e7 -4.3932211661935315e7 0.0
0.0 0.0 0.0

-1.115705953629938e7 1.1563921386895558e7 0.0
1.1563921386895558e7 2.8212065200918272e7 0.0
0.0 0.0 0.0

4.76287346794909e6 2.329223617722856e7 0.0
2.329223617722856e7 -5.768402315342547e6 0.0
0.0 0.0 0.0

2.0341746284947218e6 1.251319988917878e7 0.0
1.251319988917878e7 -2.2718016030609384e7 0.0
0.0 0.0 0.0

-3.1141903406076306e6 1.7836706266551893e7 0.0
1.7836706266551893e7 -2.053956714595897e6 0.0
0.0 0.0 0.0

-1.3469312486737915e6 2.491232781678927e7 0.0
2.491232781678927e7 -2.9148122992508993e6 0.0
0.0 0.0 0.0

-560454.3786613324 1.6817946732790902e7 0.0
1.6817946732790902e7 -5.203346192082356e6 0.0
0.0 0.0 0.0

-1.1677832715030078e7 1.1604712588881325e7 0.0
1.1604712588881325e7 2.2810288026019145e7 0.0
0.0 0.0 0.0

-1.0712943447837269e7 1.3610539729706679e7 0.0
1.3610539729706679e7 2.7381886788104095e7 0.0
0.0 0.0 0.0

-1.2419900193104662e6 2.4396808945631213e7 0.0
2.4396808945631213e7 -3.7609795681789923e6 0.0
0.0 0.0 0.0

-8.128388490267838e6 1.3712491250503743e7 0.0
1.3712491250503743e7 1.682635067220015e7 0.0
0.0 0.0 0.0

3.555847244999757e6 4.425343483668266e6 0.0
4.425343483668266e6 -3.578656207278293e7 0.0
0.0 0.0 0.0

-6.820764720411353e6 1.63763385974572e7 0.0
1.63763385974572e7 1.3241216873834476e7 0.0
0.0 0.0 0.0

-1.3035012170032572e6 1.6793480645457584e7 0.0
1.6793480645457584e7 -1.0514128051308518e7 0.0
0.0 0.0 0.0

363313.6283472864 1.7605723913538277e7 0.0
1.7605723913538277e7 1.2118222932481302e6 0.0
0.0 0.0 0.0

-3.060436531379044e6 1.933412103912386e7 0.0
1.933412103912386e7 -1.1365609165283155e7 0.0
0.0 0.0 0.0

-1.8386361051031675e6 1.763371174097192e7 0.0
1.763371174097192e7 -7.1390538862544205e6 0.0
0.0 0.0 0.0

624839.1434593778 1.5110913624536538e7 0.0
1.5110913624536538e7 -2.097999193433053e7 0.0
0.0 0.0 0.0

2.694939472746784e6 8.077070639787319e6 0.0
8.077070639787319e6 -2.6453601238618262e7 0.0
0.0 0.0 0.0

-973689.700308196 1.678868142665171e7 0.0
1.678868142665171e7 -7.882774279452663e6 0.0
0.0 0.0 0.0

1.957871092380072e6 1.0529438184313793e7 0.0
1.0529438184313793e7 -1.9055174805787038e7 0.0
0.0 0.0 0.0

3.952452348039872e6 4.0017148505406785e6 0.0
4.0017148505406785e6 -1.7639788659373205e7 0.0
0.0 0.0 0.0

-2.9922976704801414e6 2.5273289354427908e7 0.0
2.5273289354427908e7 2.1306912559341406e6 0.0
0.0 0.0 0.0

-966984.6515891973 1.2516428069303103e7 0.0
1.2516428069303103e7 -7.9819303399051465e6 0.0
0.0 0.0 0.0

-4.232404647473734e6 1.952304405778572e7 0.0
1.952304405778572e7 1.7034528844754048e7 0.0
0.0 0.0 0.0

-5.614026354055745e6 -6.369631317191825e6 0.0
-6.369631317191825e6 1.3862012497717928e7 0.0
0.0 0.0 0.0

3.2213227193138907e6 1.903067797234197e7 0.0
1.903067797234197e7 1.675189165623125e6 0.0
0.0 0.0 0.0

-4.1862307010245714e6 1.9720566783694144e7 0.0
1.9720566783694144e7 -1.214366684736304e7 0.0
0.0 0.0 0.0

2.6154219504818683e6 8.554571239471417e6 0.0
8.554571239471417e6 -2.21546447653217e7 0.0
0.0 0.0 0.0

-9.595585848702827e7 1.5893560000009501e7 0.0
1.5893560000009501e7 5.429880573747352e6 0.0
0.0 0.0 0.0

-6.082185248497574e6 1.8720687213498026e7 0.0
1.8720687213498026e7 2.0415943318002492e7 0.0
0.0 0.0 0.0

604316.4271647027 1.8020314020287473e7 0.0
1.8020314020287473e7 -1.3868390690739775e7 0.0
0.0 0.0 0.0

-1.3309574384300066e6 1.6186773831283137e7 0.0
1.6186773831283137e7 -8.664804893457785e6 0.0
0.0 0.0 0.0

1.5135100067374688e6 1.3572442891053447e7 0.0
1.3572442891053447e7 -2.323850181195584e7 0.0
0.0 0.0 0.0

702800.3885694491 1.790664841455251e7 0.0
1.790664841455251e7 1.0726161445165263e7 0.0
0.0 0.0 0.0

1.3405993527810331e6 1.235841857258255e7 0.0
1.235841857258255e7 -2.8770751186628032e7 0.0
0.0 0.0 0.0

848834.3268302316 1.822220194740951e7 0.0
1.822220194740951e7 1.2462102950911373e7 0.0
0.0 0.0 0.0

286883.0270181326 1.6365276473346109e7 0.0
1.6365276473346109e7 -1.5407883215851095e7 0.0
0.0 0.0 0.0

3.294275426264556e6 8.3211866914018905e6 0.0
8.3211866914018905e6 -2.3473865542336732e7 0.0
0.0 0.0 0.0

3.169179869804224e6 2.646974513436605e6 0.0
2.646974513436605e6 -4.113738657500934e7 0.0
0.0 0.0 0.0

2.854966879814465e6 2.4831018334201142e7 0.0
2.4831018334201142e7 -5.7629434250886375e6 0.0
0.0 0.0 0.0

1.7639489226840176e6 1.2123204819499036e7 0.0
1.2123204819499036e7 -2.7144024078514185e7 0.0
0.0 0.0 0.0

-3.9682860354462485e6 2.5958286463484146e7 0.0
2.5958286463484146e7 5.908411860172954e6 0.0
0.0 0.0 0.0

-7.156072328298777e6 2.1009238256822776e7 0.0
2.1009238256822776e7 1.71941448343369e6 0.0
0.0 0.0 0.0

2.5076584515780006e6 7.845758537387263e6 0.0
7.845758537387263e6 -1.1289969652966158e7 0.0
0.0 0.0 0.0

-1.8563033312638623e6 3.3131964760679275e7 0.0
3.3131964760679275e7 1.976733150129443e6 0.0
0.0 0.0 0.0

3.0098702901354088e6 9.277521091397839e6 0.0
9.277521091397839e6 -2.096714449979332e7 0.0
0.0 0.0 0.0

-1.0566322623865213e6 1.7325794495371394e7 0.0
1.7325794495371394e7 3.665411961245589e7 0.0
0.0 0.0 0.0

-686273.8105382274 1.8396111493835248e7 0.0
1.8396111493835248e7 1.6412414167651727e6 0.0
0.0 0.0 0.0

-6.673901698663324e6 2.7073256828328755e7 0.0
2.7073256828328755e7 6.290167497749957e6 0.0
0.0 0.0 0.0

-1.0662972755566666e7 1.2819651063079968e7 0.0
1.2819651063079968e7 2.0298404974360555e7 0.0
0.0 0.0 0.0

1.2508039975292925e6 1.327112998292219e7 0.0
1.327112998292219e7 -2.332702600053186e7 0.0
0.0 0.0 0.0

-2.5918681623409144e6 1.0837831225869304e7 0.0
1.0837831225869304e7 -2.295125164847399e6 0.0
0.0 0.0 0.0

-1.1056813251499394e6 1.8175947867751785e7 0.0
1.8175947867751785e7 -6.281624044479514e6 0.0
0.0 0.0 0.0

1.1162206701996416e7 1.9733011785528824e7 0.0
1.9733011785528824e7 2.1926883095120396e6 0.0
0.0 0.0 0.0

591669.4943087865 1.7982040811387576e7 0.0
1.7982040811387576e7 -1.5203395839731863e7 0.0
0.0 0.0 0.0

848296.8494982589 8.91738279716774e6 0.0
8.91738279716774e6 -6.122188962044751e6 0.0
0.0 0.0 0.0

900201.9545316212 1.4203776102819255e7 0.0
1.4203776102819255e7 -2.220509641122642e7 0.0
0.0 0.0 0.0

-9.354574580515848e6 -2.6989211992535936e6 0.0
-2.6989211992535936e6 2.9848466056644533e7 0.0
0.0 0.0 0.0

-4.250165312405239e6 2.022933741592834e7 0.0
2.022933741592834e7 1.5109126167047491e7 0.0
0.0 0.0 0.0

-1.1636003867406793e7 1.3903061147960365e7 0.0
1.3903061147960365e7 2.2446657747825775e7 0.0
0.0 0.0 0.0

-1.475531786670423e7 2.4638239617286686e7 0.0
2.4638239617286686e7 -4.8689716943913e6 0.0
0.0 0.0 0.0

-4.32042816844784e6 1.5809588862108013e7 0.0
1.5809588862108013e7 -3.736036108569259e7 0.0
0.0 0.0 0.0

-3.334404293761807e6 2.3572166943929315e7 0.0
2.3572166943929315e7 7.58676517348225e6 0.0
0.0 0.0 0.0

-4.456232523341231e6 2.4563045651297793e7 0.0
2.4563045651297793e7 7.365440820766488e6 0.0
0.0 0.0 0.0

1.0686916603105543e6 2.09606006778559e7 0.0
2.09606006778559e7 -9.617549746042173e6 0.0
0.0 0.0 0.0

-2.53730355210511e6 1.4414553207241261e7 0.0
1.4414553207241261e7 -3.874821764895612e7 0.0
0.0 0.0 0.0

-3.7516673206523824e6 1.9151419780689478e7 0.0
1.9151419780689478e7 1.741417400258485e7 0.0
0.0 0.0 0.0

-9.618986719568798e6 5.011062776900509e6 0.0
5.011062776900509e6 3.990304254467889e7 0.0
0.0 0.0 0.0

2.4137631694439896e6 3.0123200677312864e6 0.0
3.0123200677312864e6 -7.185979300504073e6 0.0
0.0 0.0 0.0

-955606.8823798522 1.6430006346687935e7 0.0
1.6430006346687935e7 -2.0413892649512246e7 0.0
0.0 0.0 0.0

897291.3560077669 2.1941751243182927e7 0.0
2.1941751243182927e7 -8.601688839031346e6 0.0
0.0 0.0 0.0

-2.109007495587084e6 1.8704200958178513e7 0.0
1.8704200958178513e7 -2.1364040448312634e6 0.0
0.0 0.0 0.0

-535429.0071968464 1.5057613171231681e7 0.0
1.5057613171231681e7 -1.0934452332445107e7 0.0
0.0 0.0 0.0

-7.240591193993389e6 1.6641165032137288e7 0.0
1.6641165032137288e7 -2.9978693062709697e7 0.0
0.0 0.0 0.0

-1.1558634611943807e7 1.2536603888944149e7 0.0
1.2536603888944149e7 2.5983031335640844e7 0.0
0.0 0.0 0.0

-477538.62165747356 2.76847258530321e7 0.0
2.76847258530321e7 -515045.33874507435 0.0
0.0 0.0 0.0

-2.1325678615909345e7 2.475238897611542e7 0.0
2.475238897611542e7 -144927.97308450006 0.0
0.0 0.0 0.0

3.540355760385966e6 1.9559969313935097e7 0.0
1.9559969313935097e7 1.910701592015626e6 0.0
0.0 0.0 0.0

1.9316806546190083e6 7.691967826178416e6 0.0
7.691967826178416e6 -1.3136655548036143e7 0.0
0.0 0.0 0.0

-2.3218993522185963e6 1.835443312575355e7 0.0
1.835443312575355e7 -1.2238346299463923e6 0.0
0.0 0.0 0.0

-1.081216733553459e7 9.900289558592567e6 0.0
9.900289558592567e6 3.1559508719483815e7 0.0
0.0 0.0 0.0

-5.000675629952442e6 2.7580594542457804e7 0.0
2.7580594542457804e7 5.242423895536762e6 0.0
0.0 0.0 0.0

-4.407728389383756e6 1.9196430787651714e7 0.0
1.9196430787651714e7 1.8194116003682867e7 0.0
0.0 0.0 0.0

-2.2520549305416397e6 2.601198912461561e7 0.0
2.601198912461561e7 56171.55061535048 0.0
0.0 0.0 0.0

500109.8912817249 1.5851162453919927e7 0.0
1.5851162453919927e7 -1.6452473883333934e7 0.0
0.0 0.0 0.0

-1.0517727616217164e7 1.1794048888124118e7 0.0
1.1794048888124118e7 3.080357128898389e7 0.0
0.0 0.0 0.0

147130.1026302697 1.6646406749242961e7 0.0
1.6646406749242961e7 -1.8400592734935295e7 0.0
0.0 0.0 0.0

-5.623021655978052e6 2.059811232487102e7 0.0
2.059811232487102e7 -3.653003671512331e6 0.0
0.0 0.0 0.0

-498918.056175377 2.813887420314784e7 0.0
2.813887420314784e7 -593674.9618840719 0.0
0.0 0.0 0.0

3.4734409463686123e6 4.986708576826313e6 0.0
4.986708576826313e6 -1.8675114354871087e7 0.0
0.0 0.0 0.0

1.3948696632549847e6 2.0466899035647426e7 0.0
2.0466899035647426e7 -8.66760929034027e6 0.0
0.0 0.0 0.0

-3.1352638478470366e6 2.3475852433584288e7 0.0
2.3475852433584288e7 6.798896579567861e6 0.0
0.0 0.0 0.0

-1.137144954826472e7 1.1910939659400428e7 0.0
1.1910939659400428e7 2.1266801775485788e7 0.0
0.0 0.0 0.0

-4.720258822027147e6 2.1717663810650285e7 0.0
2.1717663810650285e7 -8.819670518690763e6 0.0
0.0 0.0 0.0

-1.0851519733588831e7 1.4523908222582871e7 0.0
1.4523908222582871e7 2.5292717171711374e7 0.0
0.0 0.0 0.0

-2.408843912252251e6 5.905947637558777e6 0.0
5.905947637558777e6 5.833346695202767e6 0.0
0.0 0.0 0.0

-3.0805817141742203e6 2.283420462186421e7 0.0
2.283420462186421e7 6.916368025205814e6 0.0
0.0 0.0 0.0

-1.2416172843899252e7 1.097262463454853e7 0.0
1.097262463454853e7 2.3342788385121927e7 0.0
0.0 0.0 0.0

-4.893272342754508e6 1.9235349866304122e7 0.0
1.9235349866304122e7 1.1636202214080028e7 0.0
0.0 0.0 0.0

3.2014636673386795e6 1.8051407791062366e7 0.0
1.8051407791062366e7 2.742202136150278e7 0.0
0.0 0.0 0.0

-1.6003908274729755e6 1.4294796968698675e7 0.0
1.4294796968698675e7 -3.4211437494861625e7 0.0
0.0 0.0 0.0

-5.237980815024863e6 -6.379537737525715e6 0.0
-6.379537737525715e6 1.27258840178459e7 0.0
0.0 0.0 0.0

6.534275483489659e6 2.4751212683687907e7 0.0
2.4751212683687907e7 -5.185022155803518e6 0.0
0.0 0.0 0.0

-1.1369474138602454e7 1.0557216217693703e7 0.0
1.0557216217693703e7 2.7709078731210463e7 0.0
0.0 0.0 0.0

502970.48315775953 1.3047344410576452e7 0.0
1.3047344410576452e7 -1.3428240534754733e7 0.0
0.0 0.0 0.0

-3.163942261439915e6 1.9195600691223886e7 0.0
1.9195600691223886e7 1.5106861582677294e7 0.0
0.0 0.0 0.0

-984622.1464960128 1.7310243316357728e7 0.0
1.7310243316357728e7 -6.6315368090572925e6 0.0
0.0 0.0 0.0

-5.393027246241538e6 1.981092659181881e7 0.0
1.981092659181881e7 1.657960309236659e7 0.0
0.0 0.0 0.0

101086.72143808054 1.0952412705823813e7 0.0
1.0952412705823813e7 -7.50981388562091e6 0.0
0.0 0.0 0.0

-5.935021404888714e6 2.258114877438839e7 0.0
2.258114877438839e7 6.683190452945645e6 0.0
0.0 0.0 0.0

-4.877179178967556e6 1.9424762336466912e7 0.0
1.9424762336466912e7 1.250230429936666e7 0.0
0.0 0.0 0.0

1.0227528516039257e6 2.0279901945891555e7 0.0
2.0279901945891555e7 -9.917042484205471e6 0.0
0.0 0.0 0.0

-3.5385922150610383e6 2.3661778748837326e7 0.0
2.3661778748837326e7 5.431124481802808e6 0.0
0.0 0.0 0.0

-1.2809733630924504e6 2.846344523470081e7 0.0
2.846344523470081e7 955336.8781502965 0.0
0.0 0.0 0.0

-1.186982028583398e6 1.4366961293717569e7 0.0
1.4366961293717569e7 -2.9819262814397525e7 0.0
0.0 0.0 0.0

1.254761426488617e6 2.843718121417002e6 0.0
2.843718121417002e6 -2.4771655753744813e6 0.0
0.0 0.0 0.0

-7.0176624530080445e6 1.1105409866096226e6 0.0
1.1105409866096226e6 8.056538290216686e6 0.0
0.0 0.0 0.0

2.5353981894277595e6 4.092910134978628e6 0.0
4.092910134978628e6 -5.1077541276600644e7 0.0
0.0 0.0 0.0

-540613.0441228494 2.185431633763341e7 0.0
2.185431633763341e7 -6.4653083900001645e6 0.0
0.0 0.0 0.0

-4.990123608912448e6 1.913167799687134e7 0.0
1.913167799687134e7 1.877722040899222e7 0.0
0.0 0.0 0.0

-1.2171515434295949e7 1.2458470579580557e7 0.0
1.2458470579580557e7 2.116037245025392e7 0.0
0.0 0.0 0.0

-2.3640751431322657e6 3.4054027518852554e7 0.0
3.4054027518852554e7 2.223769409571738e6 0.0
0.0 0.0 0.0

-1.1837887029511184e7 8.794832692861514e6 0.0
8.794832692861514e6 2.783082185703475e7 0.0
0.0 0.0 0.0

3.34276020256579e7 5.860801714708456e7 0.0
5.860801714708456e7 -6.6427223901916575e6 0.0
0.0 0.0 0.0

-65708.67298368178 1.9767626626741275e7 0.0
1.9767626626741275e7 -1.1505884586630678e7 0.0
0.0 0.0 0.0

1.4602650007947348e6 1.4592600954758681e7 0.0
1.4592600954758681e7 -1.823914312918539e7 0.0
0.0 0.0 0.0

-4.1527465432587266e6 1.9847187885274567e7 0.0
1.9847187885274567e7 1.5704912119584402e7 0.0
0.0 0.0 0.0

-1.128111248141598e7 1.1172264830038773e7 0.0
1.1172264830038773e7 2.8995304562780518e7 0.0
0.0 0.0 0.0

61011.542411280796 2.1345097043530732e7 0.0
2.1345097043530732e7 -8.497763482406603e6 0.0
0.0 0.0 0.0

483377.63308108074 1.7937940009571027e7 0.0
1.7937940009571027e7 3.8808977270848462e6 0.0
0.0 0.0 0.0

3.6101050495541804e6 2.7919891317375056e6 0.0
2.7919891317375056e6 -3.264844437577552e7 0.0
0.0 0.0 0.0

-8.4391871201446e6 7.717845477388654e6 0.0
7.717845477388654e6 1.4553222995935176e7 0.0
0.0 0.0 0.0

-3.7197983978720987e6 3.6634295657568e7 0.0
3.6634295657568e7 3.2973188688709876e6 0.0
0.0 0.0 0.0

-5.791545869100588e6 1.9055529671815015e7 0.0
1.9055529671815015e7 2.0203190615487926e7 0.0
0.0 0.0 0.0

-1.4769646685220376e6 1.6863325387225617e7 0.0
1.6863325387225617e7 -1.699239773396183e7 0.0
0.0 0.0 0.0

5.838609186371963e6 1.949728243742292e7 0.0
1.949728243742292e7 6.4026208485927675e6 0.0
0.0 0.0 0.0

-9.647447389413662e6 3.166332006835178e6 0.0
3.166332006835178e6 1.4204011263448235e7 0.0
0.0 0.0 0.0

-5.6348425385281015e6 1.1081699264260937e7 0.0
1.1081699264260937e7 5.129661637817917e6 0.0
0.0 0.0 0.0

-1.5835569747192678e6 1.6749207400097392e7 0.0
1.6749207400097392e7 -1.308536445303814e7 0.0
0.0 0.0 0.0

162733.4999426175 1.5985991929459387e7 0.0
1.5985991929459387e7 -1.0820562720704913e7 0.0
0.0 0.0 0.0

-7.103775645831585e6 1.8003937179510955e7 0.0
1.8003937179510955e7 1.6728245032827863e7 0.0
0.0 0.0 0.0

-1.2425983268139213e6 1.6177871017669898e7 0.0
1.6177871017669898e7 -2.1809402178781133e7 0.0
0.0 0.0 0.0

1.8939959513690704e6 1.2527373460608382e7 0.0
1.2527373460608382e7 -2.4232710048256196e7 0.0
0.0 0.0 0.0

-3.5583727499693916e6 2.3618511563502118e7 0.0
2.3618511563502118e7 8.236156904640361e6 0.0
0.0 0.0 0.0

769766.8162533734 1.634818431409585e7 0.0
1.634818431409585e7 -1.8566117319538698e7 0.0
0.0 0.0 0.0

-1.1329532976288825e7 1.3187400224990675e7 0.0
1.3187400224990675e7 2.394090995287585e7 0.0
0.0 0.0 0.0

3.5518349017499844e6 5.270469543451724e6 0.0
5.270469543451724e6 -1.3614262163545538e7 0.0
0.0 0.0 0.0

-2.857640459518852e7 3.0067613394624095e7 0.0
3.0067613394624095e7 -9.303617410107752e6 0.0
0.0 0.0 0.0

1.5516200163080418e6 7.172268125695525e6 0.0
7.172268125695525e6 -1.0558066196573414e7 0.0
0.0 0.0 0.0

3.8015491300707906e6 2.909225955135536e6 0.0
2.909225955135536e6 -1.3411351664948339e7 0.0
0.0 0.0 0.0

-4.739705088927155e6 2.4463865565327685e7 0.0
2.4463865565327685e7 7.850862851139639e6 0.0
0.0 0.0 0.0

1.8249669262143879e6 1.68342793120312e7 0.0
1.68342793120312e7 6.083223615616635e6 0.0
0.0 0.0 0.0

3.7898063378928676e6 1.9978214947228808e7 0.0
1.9978214947228808e7 -2.4340654516914356e6 0.0
0.0 0.0 0.0

-6.292854300114306e6 1.762922605294817e7 0.0
1.762922605294817e7 2.5267182561356626e7 0.0
0.0 0.0 0.0

-3.4114546497367043e6 1.7986613170387078e7 0.0
1.7986613170387078e7 2.7021080124801043e7 0.0
0.0 0.0 0.0

9.33339767644899e6 1.736240571564931e7 0.0
1.736240571564931e7 4.747203418848291e7 0.0
0.0 0.0 0.0

209164.0068090055 1.732670560765904e7 0.0
1.732670560765904e7 -3.513236961583193e6 0.0
0.0 0.0 0.0

-4.596697597530614e6 1.9762916221513946e7 0.0
1.9762916221513946e7 1.6482670719705792e7 0.0
0.0 0.0 0.0

-5.894129942412797e6 1.7063576269086923e7 0.0
1.7063576269086923e7 1.1601026530073164e7 0.0
0.0 0.0 0.0

-1.8175541240040557e6 1.6716357046407817e7 0.0
1.6716357046407817e7 -1.564492925008285e7 0.0
0.0 0.0 0.0

-3.741852572380754e6 2.3846937715488765e7 0.0
2.3846937715488765e7 6.198820282533475e6 0.0
0.0 0.0 0.0

-1.168343805928597e7 1.1276068559865016e7 0.0
1.1276068559865016e7 2.7079276383345835e7 0.0
0.0 0.0 0.0

1.0381180984092131e7 2.335758046354491e7 0.0
2.335758046354491e7 -4.1390675197676173e6 0.0
0.0 0.0 0.0

258153.1496580406 2.0202310959706515e7 0.0
2.0202310959706515e7 -1.0485926407121208e7 0.0
0.0 0.0 0.0

2.960933106288176e6 6.872844733720655e6 0.0
6.872844733720655e6 -2.1969088713105336e7 0.0
0.0 0.0 0.0

3.288039494973524e6 2.1722316315659624e7 0.0
2.1722316315659624e7 -6.685129720274578e6 0.0
0.0 0.0 0.0

-1.292420684941522e6 2.496626526196897e7 0.0
2.496626526196897e7 -1.1621261649426261e6 0.0
0.0 0.0 0.0

-5.8564464231796255e6 1.7305014561744217e7 0.0
1.7305014561744217e7 -1.9521493374261476e7 0.0
0.0 0.0 0.0

7.858223793349495e6 1.928322576803735e7 0.0
1.928322576803735e7 2.619408811938765e7 0.0
0.0 0.0 0.0

-9.051409362886861e6 -889177.9637563563 0.0
-889177.9637563563 3.886789651964695e7 0.0
0.0 0.0 0.0

941088.75411633 1.9510224940175243e7 0.0
1.9510224940175243e7 6.166690889700012e6 0.0
0.0 0.0 0.0

-9.269719896096596e6 -2.2909379261831786e6 0.0
-2.2909379261831786e6 3.1787963753021065e7 0.0
0.0 0.0 0.0

-247095.44102051563 2.5397224597330503e7 0.0
2.5397224597330503e7 -2.880219333803867e6 0.0
0.0 0.0 0.0

2.633865377144935e6 2.395966874613013e7 0.0
2.395966874613013e7 -6.286196124530865e6 0.0
0.0 0.0 0.0

-3.0533410202319464e6 3.518002467707293e7 0.0
3.518002467707293e7 2.373757622574131e6 0.0
0.0 0.0 0.0

7.107986439363982e6 1.8286882901256982e7 0.0
1.8286882901256982e7 8.009162097135238e6 0.0
0.0 0.0 0.0

-1.1148308800713968e7 1.0229728630504977e7 0.0
1.0229728630504977e7 2.9554600929501105e7 0.0
0.0 0.0 0.0

-439832.274757097 2.5889002159702264e7 0.0
2.5889002159702264e7 -2.0205407593867918e6 0.0
0.0 0.0 0.0

-4.537772665433108e6 2.009209604305725e7 0.0
2.009209604305725e7 1.1122572864747055e7 0.0
0.0 0.0 0.0

-3.5862626059993324e6 2.2539089115017552e7 0.0
2.2539089115017552e7 6.459889908461998e6 0.0
0.0 0.0 0.0

2.2906903301522117e6 8.62638010095401e6 0.0
8.62638010095401e6 -3.70639511996594e7 0.0
0.0 0.0 0.0

-3.815075412581099e6 2.3537267730420657e7 0.0
2.3537267730420657e7 8.950565841045108e6 0.0
0.0 0.0 0.0

1.3226624565276e7 1.5603353594678828e7 0.0
1.5603353594678828e7 3.932093691115929e6 0.0
0.0 0.0 0.0

1.9086559155413788e6 1.3066462978260174e7 0.0
1.3066462978260174e7 -2.1561808031205624e7 0.0
0.0 0.0 0.0

-7.535695607848197e6 2.347403713462699e6 0.0
2.347403713462699e6 5.518703209638757e7 0.0
0.0 0.0 0.0

-1.5188759424389908e6 2.6852586977490403e7 0.0
2.6852586977490403e7 649736.0088690293 0.0
0.0 0.0 0.0

2.226566104539443e6 1.9772282930699535e7 0.0
1.9772282930699535e7 5.767424066461676e6 0.0
0.0 0.0 0.0

-8.120644567058548e7 7.214819867836927e7 0.0
7.214819867836927e7 -1.2215815067948865e7 0.0
0.0 0.0 0.0

3.5662584594998723e6 4.1757955856168424e6 0.0
4.1757955856168424e6 -1.7925016601258237e7 0.0
0.0 0.0 0.0

-2.332228024008565e6 1.923815575662576e7 0.0
1.923815575662576e7 -994778.5905120772 0.0
0.0 0.0 0.0

-1.5301504559203219e7 2.548431976196927e7 0.0
2.548431976196927e7 3.5694009723176863e6 0.0
0.0 0.0 0.0

-292861.5735169132 1.8542782366231557e7 0.0
1.8542782366231557e7 -1.3480102658931008e7 0.0
0.0 0.0 0.0

35287.02189613227 1.969018624390267e7 0.0
1.969018624390267e7 -1.1940299785001574e7 0.0
0.0 0.0 0.0

8.886852043736119e6 2.048487647450245e7 0.0
2.048487647450245e7 -20462.027784320526 0.0
0.0 0.0 0.0

-2.9927911669828305e6 3.037427965304906e7 0.0
3.037427965304906e7 2.9034842852877146e6 0.0
0.0 0.0 0.0

-3.151117921755839e6 1.973532284911192e7 0.0
1.973532284911192e7 -1.0840229495043272e7 0.0
0.0 0.0 0.0

3.240216057955859e6 5.013063568013859e6 0.0
5.013063568013859e6 -3.927161998997983e7 0.0
0.0 0.0 0.0

-2.6499753092405472e7 2.7515650014672685e7 0.0
2.7515650014672685e7 -6.025822862594569e6 0.0
0.0 0.0 0.0

-3.9154855639235247e6 1.952691425209785e7 0.0
1.952691425209785e7 1.2096519716628022e7 0.0
0.0 0.0 0.0

2.3734388659479534e6 2.3153273541953225e7 0.0
2.3153273541953225e7 -6.829027584234261e6 0.0
0.0 0.0 0.0

-1.654640156703936e6 1.7400439059992902e7 0.0
1.7400439059992902e7 3.4353182743544504e7 0.0
0.0 0.0 0.0

1.1648088961669208e7 2.198252367842169e7 0.0
2.198252367842169e7 -3.3554213756332863e6 0.0
0.0 0.0 0.0

-4.220323564669141e6 2.2024543268967632e7 0.0
2.2024543268967632e7 1.1520426369344518e7 0.0
0.0 0.0 0.0

-477827.8842357113 1.664612880446239e7 0.0
1.664612880446239e7 -1.1892166598174943e7 0.0
0.0 0.0 0.0

5.304682043167828e6 1.1412990801002022e7 0.0
1.1412990801002022e7 4.086060454278164e6 0.0
0.0 0.0 0.0

1.9955899363548816e6 2.046541938941885e7 0.0
2.046541938941885e7 -7.346669219775021e6 0.0
0.0 0.0 0.0

-6.226384008776811e6 1.8511676787411805e7 0.0
1.8511676787411805e7 2.2249719282996897e7 0.0
0.0 0.0 0.0

-6.611206648644794e6 5.772645417335004e6 0.0
5.772645417335004e6 5.785412447064761e7 0.0
0.0 0.0 0.0

-6.854113873198349e6 559696.6113133744 0.0
559696.6113133744 6.082049328342037e7 0.0
0.0 0.0 0.0

-780487.3235028461 1.8368734368271433e7 0.0
1.8368734368271433e7 -1.0639151431389995e7 0.0
0.0 0.0 0.0

403282.3870951333 1.932537982431592e7 0.0
1.932537982431592e7 -1.1577376678805906e7 0.0
0.0 0.0 0.0

170005.89209581958 1.9650465949004002e7 0.0
1.9650465949004002e7 -1.2032407169232944e7 0.0
0.0 0.0 0.0

-1.0942762488285515e7 2.2400647824388593e7 0.0
2.2400647824388593e7 -3.0547123396326117e6 0.0
0.0 0.0 0.0

1.6202288838637533e7 2.012855876737325e7 0.0
2.012855876737325e7 8.613554279797573e6 0.0
0.0 0.0 0.0

-6.377195600792962e6 1.9066669357070845e7 0.0
1.9066669357070845e7 1.9287421161281586e7 0.0
0.0 0.0 0.0

361501.95596307004 1.958115776126334e7 0.0
1.958115776126334e7 -1.1987620274419803e7 0.0
0.0 0.0 0.0

-748067.5711959628 1.591512799631416e7 0.0
1.591512799631416e7 -1.0592862673731e7 0.0
0.0 0.0 0.0

-9.317022659989085e6 -3.8293687019557836e6 0.0
-3.8293687019557836e6 2.1054400834204745e7 0.0
0.0 0.0 0.0

318306.3706131317 1.3276484677177565e7 0.0
1.3276484677177565e7 -2.9049589317649875e7 0.0
0.0 0.0 0.0

-1.0463959993194351e7 95972.68798414693 0.0
95972.68798414693 3.032140956830189e7 0.0
0.0 0.0 0.0

-8.793606656656321e6 -5.400685899347958e6 0.0
-5.400685899347958e6 2.3652559396039523e7 0.0
0.0 0.0 0.0

-8.676296430757292e6 -5.732074339008786e6 0.0
-5.732074339008786e6 2.2895731549730968e7 0.0
0.0 0.0 0.0

-4.839731034199603e6 1.0957953119355548e7 0.0
1.0957953119355548e7 7.86832733477081e6 0.0
0.0 0.0 0.0

703885.1695895959 1.5318229467242358e7 0.0
1.5318229467242358e7 -1.753106667054388e7 0.0
0.0 0.0 0.0

857804.0706950948 1.312203089542445e7 0.0
1.312203089542445e7 -2.880570936950951e7 0.0
0.0 0.0 0.0

-886309.896433722 1.862265312663341e7 0.0
1.862265312663341e7 -4.549404174839838e6 0.0
0.0 0.0 0.0

1.6712047978344527e6 2.0630792611471295e7 0.0
2.0630792611471295e7 -8.532887586664572e6 0.0
0.0 0.0 0.0

4.1566767858027187e6 1.984864001788532e7 0.0
1.984864001788532e7 -91719.58676144597 0.0
0.0 0.0 0.0

-976953.3295185234 2.362605781010274e7 0.0
2.362605781010274e7 -3.649696852999059e6 0.0
0.0 0.0 0.0

4.813231339167119e7 2.3319875593180835e7 0.0
2.3319875593180835e7 6.938954522726917e6 0.0
0.0 0.0 0.0

5.961379306718705e6 1.5056864661076456e7 0.0
1.5056864661076456e7 9.116047636202987e6 0.0
0.0 0.0 0.0

3.206549283552354e6 2.0211113440687012e7 0.0
2.0211113440687012e7 -4.319545954306709e6 0.0
0.0 0.0 0.0

3.362910188724519e6 2.4121704364078827e7 0.0
2.4121704364078827e7 -6.032440461126141e6 0.0
0.0 0.0 0.0

-887583.0689455048 2.6669967216528956e7 0.0
2.6669967216528956e7 -617773.7149829587 0.0
0.0 0.0 0.0

562378.9271779358 1.7099002093125988e7 0.0
1.7099002093125988e7 -1.7446077712176148e7 0.0
0.0 0.0 0.0

-1.6409254764547858e7 2.472876701240728e7 0.0
2.472876701240728e7 1.0194854542002678e6 0.0
0.0 0.0 0.0

-5.4364374288345035e6 2.494469065870614e7 0.0
2.494469065870614e7 7.447324530189152e6 0.0
0.0 0.0 0.0

4.1653537694038423e6 2.445320579020819e6 0.0
2.445320579020819e6 -2.0157499751290284e7 0.0
0.0 0.0 0.0

-1.6827220803228165e6 2.4771287312438753e7 0.0
2.4771287312438753e7 -2.316872883511154e6 0.0
0.0 0.0 0.0

-5.637957394153755e6 3.80197506136436e7 0.0
3.80197506136436e7 3.512359772068816e6 0.0
0.0 0.0 0.0

-1.9627991918137132e6 1.4387400613699345e7 0.0
1.4387400613699345e7 -6.284373698012778e6 0.0
0.0 0.0 0.0

1.80016242648884e6 1.3061286951979347e7 0.0
1.3061286951979347e7 -2.2997105597253967e7 0.0
0.0 0.0 0.0

1.2639728772603963e6 1.2779446494077327e7 0.0
1.2779446494077327e7 -2.7387903647416394e7 0.0
0.0 0.0 0.0

115570.66392749175 1.3968234939510707e7 0.0
1.3968234939510707e7 -2.874073470078566e7 0.0
0.0 0.0 0.0

9.019232742146064e6 3.3373440729394488e7 0.0
3.3373440729394488e7 -4.331926399844415e6 0.0
0.0 0.0 0.0

450227.09254563693 1.9415261524918966e7 0.0
1.9415261524918966e7 -1.1883310211474905e7 0.0
0.0 0.0 0.0

4.509319295923755e6 1.857242988429411e7 0.0
1.857242988429411e7 2.818212343756126e7 0.0
0.0 0.0 0.0

-2.154363775180733e7 1.962578812472768e7 0.0
1.962578812472768e7 6.3194467326373635e6 0.0
0.0 0.0 0.0

-6.169864794947804e7 3.1225792747740157e7 0.0
3.1225792747740157e7 -3.7669965457871016e6 0.0
0.0 0.0 0.0

2.362911951780718e6 6.233361007262331e6 0.0
6.233361007262331e6 -4.956066464943264e7 0.0
0.0 0.0 0.0

2.427020083841409e6 2.0428105291024633e7 0.0
2.0428105291024633e7 -5.969844121185988e6 0.0
0.0 0.0 0.0

2.8711667216415955e6 2.2481793670717098e7 0.0
2.2481793670717098e7 -6.841842680847069e6 0.0
0.0 0.0 0.0

4.0729777749647377e6 2.525109738463258e6 0.0
2.525109738463258e6 -1.9072261855795935e7 0.0
0.0 0.0 0.0

-1.4528099602490263e7 2.3365792835239984e7 0.0
2.3365792835239984e7 -4.79580936283907e6 0.0
0.0 0.0 0.0

-1.9696048010978047e6 1.8524794217473835e7 0.0
1.8524794217473835e7 1.9363308409507237e7 0.0
0.0 0.0 0.0

6.182276287492735e6 1.799425970768181e7 0.0
1.799425970768181e7 1.255678059352395e7 0.0
0.0 0.0 0.0

-7.311165368612158e6 -6.036551774573009e6 0.0
-6.036551774573009e6 1.8908815169090558e7 0.0
0.0 0.0 0.0

792156.955442558 1.5474640716277055e7 0.0
1.5474640716277055e7 -2.096267325945562e7 0.0
0.0 0.0 0.0

2.2082520795125654e6 9.916917147493139e6 0.0
9.916917147493139e6 -2.0124413754260946e7 0.0
0.0 0.0 0.0

716552.624243797 8.480257739955725e6 0.0
8.480257739955725e6 -5.124640940246514e6 0.0
0.0 0.0 0.0

-8.155641869838109e6 -5.833463566749049e6 0.0
-5.833463566749049e6 1.5852241826201214e7 0.0
0.0 0.0 0.0

4.0827184253401197e6 1.8073337776418608e7 0.0
1.8073337776418608e7 7.251474169394399e7 0.0
0.0 0.0 0.0

-9.921166336693255e6 4.0856858563090716e6 0.0
4.0856858563090716e6 3.889988101433987e7 0.0
0.0 0.0 0.0

1.7994041414239637e6 2.7501481993323077e7 0.0
2.7501481993323077e7 -3.003989585783063e6 0.0
0.0 0.0 0.0

-2.5153640168719813e6 1.8883190764725983e7 0.0
1.8883190764725983e7 -66157.50895712548 0.0
0.0 0.0 0.0

-1.80655116767041e6 1.6423430481564825e7 0.0
1.6423430481564825e7 -1.1604387976171128e7 0.0
0.0 0.0 0.0

1.361604707835785e6 2.227496525952703e7 0.0
2.227496525952703e7 -8.0494413598313425e6 0.0
0.0 0.0 0.0

-3.9165897669024416e6 2.3967306097286943e7 0.0
2.3967306097286943e7 6.952713069054664e6 0.0
0.0 0.0 0.0

4.98032135956093e6 3.8660052058397576e7 0.0
3.8660052058397576e7 -1.2737537399860485e6 0.0
0.0 0.0 0.0

3.0417716829479556e6 4.376794710789809e6 0.0
4.376794710789809e6 -1.0710335356695374e7 0.0
0.0 0.0 0.0

-9.486856341430655e6 -3.8954280453906856e6 0.0
-3.8954280453906856e6 2.1018765993395876e7 0.0
0.0 0.0 0.0

-178084.44624620036 1.7669080016644422e7 0.0
1.7669080016644422e7 2.0735815387111541e6 0.0
0.0 0.0 0.0

-8.672999129620139e6 2.562943815007782e7 0.0
2.562943815007782e7 6.285850167195517e6 0.0
0.0 0.0 0.0

-2.7668394104818515e6 1.850028193200981e7 0.0
1.850028193200981e7 2.1931393955073174e7 0.0
0.0 0.0 0.0

-1.1533545930337403e7 1.2179166329928845e7 0.0
1.2179166329928845e7 2.489748233143239e7 0.0
0.0 0.0 0.0

1.4528329987606155e6 1.4084720963682996e7 0.0
1.4084720963682996e7 -2.2031063355859913e7 0.0
0.0 0.0 0.0

-1.5366322797846735e8 2.4898670423785623e7 0.0
2.4898670423785623e7 -9.195915168142915e6 0.0
0.0 0.0 0.0

-1.166934288149303e7 1.088859941791317e7 0.0
1.088859941791317e7 2.6036790484119996e7 0.0
0.0 0.0 0.0

-7.320569131555969e6 2.5556475749671258e7 0.0
2.5556475749671258e7 6.67544471396022e6 0.0
0.0 0.0 0.0

570036.0659738593 1.6702864732750932e7 0.0
1.6702864732750932e7 -1.8514413580840006e7 0.0
0.0 0.0 0.0

-889154.5046608523 1.4638778373901535e7 0.0
1.4638778373901535e7 -2.8119535744691283e7 0.0
0.0 0.0 0.0

3.636905066440844e6 3.6644293973985314e7 0.0
3.6644293973985314e7 -827504.5904221034 0.0
0.0 0.0 0.0

-1.2649173965700911e6 1.538521684138543e7 0.0
1.538521684138543e7 -2.5670435186741494e7 0.0
0.0 0.0 0.0

496897.55328571424 1.921618889735614e7 0.0
1.921618889735614e7 -1.1520060326587614e7 0.0
0.0 0.0 0.0

528772.4610351826 1.803631249387478e7 0.0
1.803631249387478e7 4.116164522806298e6 0.0
0.0 0.0 0.0

858837.9145339194 3.061732734648713e7 0.0
3.061732734648713e7 -363401.8655572126 0.0
0.0 0.0 0.0

-1.0258006421169112e7 2.551539876994147e7 0.0
2.551539876994147e7 5.644422153690181e6 0.0
0.0 0.0 0.0

1.1100845648448002e6 1.5043705643357538e7 0.0
1.5043705643357538e7 -2.0897161103590284e7 0.0
0.0 0.0 0.0

297851.57617797377 1.9109441028187454e7 0.0
1.9109441028187454e7 -1.2399561913422279e7 0.0
0.0 0.0 0.0

-2.968004432110928e6 2.4034165237756938e7 0.0
2.4034165237756938e7 2.0211544072177636e6 0.0
0.0 0.0 0.0

-6.232956660022008e6 2.529276102623743e7 0.0
2.529276102623743e7 7.061813019979684e6 0.0
0.0 0.0 0.0

-8.954504908263348e6 -4.0001349266019394e6 0.0
-4.0001349266019394e6 3.1012622485896643e7 0.0
0.0 0.0 0.0

-6.604152852610209e6 1.772151561790026e7 0.0
1.772151561790026e7 1.8478261039976217e7 0.0
0.0 0.0 0.0

-1.5698741494141864e6 1.5940456801174222e7 0.0
1.5940456801174222e7 -2.329338974306931e7 0.0
0.0 0.0 0.0

1.6276168987750078e7 1.9274186914946206e7 0.0
1.9274186914946206e7 1.779874424085759e6 0.0
0.0 0.0 0.0

382389.7250657026 1.5795201002150958e7 0.0
1.5795201002150958e7 -2.097500887062752e7 0.0
0.0 0.0 0.0

-385801.60814816307 1.8129033462139174e7 0.0
1.8129033462139174e7 -2.9375613050709376e6 0.0
0.0 0.0 0.0

-1.0938908025467375e7 8.755891640606549e6 0.0
8.755891640606549e6 3.1070095319412723e7 0.0
0.0 0.0 0.0

-6.058101477727802e6 2.0651423174305696e7 0.0
2.0651423174305696e7 -1.069606611696997e7 0.0
0.0 0.0 0.0

-1.115638844150637e6 1.6375043478431405e7 0.0
1.6375043478431405e7 -6.254759148104245e6 0.0
0.0 0.0 0.0

-80326.72817447456 1.8847382796970557e7 0.0
1.8847382796970557e7 -1.1651466796340834e7 0.0
0.0 0.0 0.0

-1.2521459188030865e7 4.1803468758924015e7 0.0
4.1803468758924015e7 5.370228250544181e6 0.0
0.0 0.0 0.0

-4.706842082190874e7 1.4499700372582028e7 0.0
1.4499700372582028e7 6.348130153765792e6 0.0
0.0 0.0 0.0

1.7424494226337469e6 2.8253980033702813e7 0.0
2.8253980033702813e7 -3.4241838313905504e6 0.0
0.0 0.0 0.0

-8.180781571356526e6 3.976034110944444e7 0.0
3.976034110944444e7 4.497519840568295e6 0.0
0.0 0.0 0.0

2.106100049086127e7 5.005702588641072e7 0.0
5.005702588641072e7 -3.815792412316734e6 0.0
0.0 0.0 0.0

-153427.0732563641 1.4276224415996568e7 0.0
1.4276224415996568e7 -2.6937454743608683e7 0.0
0.0 0.0 0.0

-7.624639659698127e6 1.645831916203867e7 0.0
1.645831916203867e7 -2.9021837351324856e7 0.0
0.0 0.0 0.0

-4.24401607593864e6 2.332145260343619e7 0.0
2.332145260343619e7 9.216840179627739e6 0.0
0.0 0.0 0.0

-1.1942817753848793e7 1.1619685963562766e7 0.0
1.1619685963562766e7 2.5462831135527372e7 0.0
0.0 0.0 0.0

-1.0483007231861748e7 2.2550327211686887e7 0.0
2.2550327211686887e7 2.842360218261973e6 0.0
0.0 0.0 0.0

340497.6874046533 1.812263240311326e7 0.0
1.812263240311326e7 7.466313940108745e6 0.0
0.0 0.0 0.0

-326490.80467479676 1.7335158573573876e7 0.0
1.7335158573573876e7 -9.401408094397616e6 0.0
0.0 0.0 0.0

6.501925115168162e6 4.11072436417932e7 0.0
4.11072436417932e7 -2.0566758603519797e6 0.0
0.0 0.0 0.0

1.1909349924220936e6 2.1550819954429395e7 0.0
2.1550819954429395e7 -8.745027872134814e6 0.0
0.0 0.0 0.0

2.220274185662724e6 1.8835480727642953e7 0.0
1.8835480727642953e7 -3.8725326473251972e6 0.0
0.0 0.0 0.0

3.8182301688142996e6 1.8759624477532122e6 0.0
1.8759624477532122e6 -3.4233264080122374e7 0.0
0.0 0.0 0.0

-4.172894372744602e6 2.3986818899749704e7 0.0
2.3986818899749704e7 7.644531365762234e6 0.0
0.0 0.0 0.0

-3.2426147914136797e6 1.818731707074156e7 0.0
1.818731707074156e7 4.498780581552069e6 0.0
0.0 0.0 0.0

1.628901937435341e6 1.2048441527217511e7 0.0
1.2048441527217511e7 -1.3736041712020177e7 0.0
0.0 0.0 0.0

-722919.6024309956 1.475608441715364e7 0.0
1.475608441715364e7 -2.831811456530782e7 0.0
0.0 0.0 0.0

-3.790903495823852e6 1.985230443464465e7 0.0
1.985230443464465e7 1.6872819394536577e7 0.0
0.0 0.0 0.0

-4.075423581964165e6 1.8233380183589183e7 0.0
1.8233380183589183e7 2.4384473243535917e7 0.0
0.0 0.0 0.0

-909936.657925728 1.6623282273428753e7 0.0
1.6623282273428753e7 -3.9764575091266744e6 0.0
0.0 0.0 0.0

3.779456271985552e6 2.3351051218601257e7 0.0
2.3351051218601257e7 -6.17179173532712e6 0.0
0.0 0.0 0.0

-3.692276523835146e6 2.3063108213981427e7 0.0
2.3063108213981427e7 9.177100991793443e6 0.0
0.0 0.0 0.0

-8.071071133425269e6 2.3332576240710435e6 0.0
2.3332576240710435e6 4.9208072542823404e7 0.0
0.0 0.0 0.0

-4.239351777791014e6 1.189472647123654e7 0.0
1.189472647123654e7 6.367856581707863e6 0.0
0.0 0.0 0.0

-28587.831296519842 1.7619805384592786e7 0.0
1.7619805384592786e7 -5.329671819966164e6 0.0
0.0 0.0 0.0

-5.21766604813623e6 2.423916422008653e7 0.0
2.423916422008653e7 8.237975791958471e6 0.0
0.0 0.0 0.0

-4.208078493762012e6 1.994538225769356e7 0.0
1.994538225769356e7 1.3742293315879975e7 0.0
0.0 0.0 0.0

2.2143482547159223e6 1.2189300714858785e7 0.0
1.2189300714858785e7 -1.9072311067746323e7 0.0
0.0 0.0 0.0

-1.9209926501665367e6 2.608976018749012e7 0.0
2.608976018749012e7 1.1555542586280846e6 0.0
0.0 0.0 0.0

1.4392725036271627e6 3.2003461620702397e7 0.0
3.2003461620702397e7 -456419.64612309204 0.0
0.0 0.0 0.0

-2.9128321406303113e6 2.11413930451428e7 0.0
2.11413930451428e7 5.033466961467874e6 0.0
0.0 0.0 0.0

1.610747594526614e6 1.4080142405141413e7 0.0
1.4080142405141413e7 -2.0610785144206975e7 0.0
0.0 0.0 0.0

-1.5718530311814968e6 2.6349847415598992e7 0.0
2.6349847415598992e7 -1.1208596166781976e6 0.0
0.0 0.0 0.0

1.6324917005644473e6 2.296129859044046e7 0.0
2.296129859044046e7 -7.304070937395674e6 0.0
0.0 0.0 0.0

-539210.0610810164 1.855187339983062e7 0.0
1.855187339983062e7 2.5730835856249593e7 0.0
0.0 0.0 0.0

-3.103851765322335e6 2.057298381096914e7 0.0
2.057298381096914e7 6.143822158901138e6 0.0
0.0 0.0 0.0

-4.3814944809781825e6 2.571711404951171e7 0.0
2.571711404951171e7 5.541803636500161e6 0.0
0.0 0.0 0.0

-9.216386551527949e6 -254675.36698697406 0.0
-254675.36698697406 3.856640500545796e7 0.0
0.0 0.0 0.0

1.0916788184216814e6 3.1243577129088216e7 0.0
3.1243577129088216e7 -359430.0804194632 0.0
0.0 0.0 0.0

3.8614673553656377e6 1.9383355559931877e6 0.0
1.9383355559931877e6 -3.3311253880605265e7 0.0
0.0 0.0 0.0

-941186.0733518777 2.4442274843229957e7 0.0
2.4442274843229957e7 -4.311353448413541e6 0.0
0.0 0.0 0.0

-9.10458760717323e6 -2.2562135765561727e6 0.0
-2.2562135765561727e6 3.39635580012849e7 0.0
0.0 0.0 0.0

-1.2101542315046221e6 1.5834682453990674e7 0.0
1.5834682453990674e7 -4.37633554839916e6 0.0
0.0 0.0 0.0

-9.842680832200866e6 2.421377008950094e7 0.0
2.421377008950094e7 4.257392229277413e6 0.0
0.0 0.0 0.0

-1.761671447974858e6 1.962132206401593e7 0.0
1.962132206401593e7 -3.301591497712313e6 0.0
0.0 0.0 0.0

-3.108509519560262e6 1.983718285116381e7 0.0
1.983718285116381e7 -5.186009996989324e6 0.0
0.0 0.0 0.0

-1.346802265895368e6 1.7632360335632104e7 0.0
1.7632360335632104e7 -1.6805108978741482e7 0.0
0.0 0.0 0.0

-1.1073454255166467e7 1.3393775421801653e7 0.0
1.3393775421801653e7 2.639508096113672e7 0.0
0.0 0.0 0.0

775519.00816342 1.86560052655968e7 0.0
1.86560052655968e7 9.676860852061726e6 0.0
0.0 0.0 0.0

3.235461992284082e6 8.30367269243758e6 0.0
8.30367269243758e6 -2.4687014734268792e7 0.0
0.0 0.0 0.0

1.9639492369696032e6 1.877605797251914e7 0.0
1.877605797251914e7 2.4184080676718973e7 0.0
0.0 0.0 0.0

-9.668594074960506e6 1.8027095511671282e7 0.0
1.8027095511671282e7 -5.874338613649068e7 0.0
0.0 0.0 0.0

-4.370750648439319e6 1.890627279669778e7 0.0
1.890627279669778e7 1.3523069144124806e7 0.0
0.0 0.0 0.0

-2.146907483531875e6 2.655376360411217e7 0.0
2.655376360411217e7 189551.67568523414 0.0
0.0 0.0 0.0

-3.3047311548615578e6 2.0550256423246473e7 0.0
2.0550256423246473e7 1.6466690380906377e6 0.0
0.0 0.0 0.0

440432.96936094295 2.0253313487589177e7 0.0
2.0253313487589177e7 -1.0752883260249302e7 0.0
0.0 0.0 0.0

1.7844906273619682e6 1.944981430502743e7 0.0
1.944981430502743e7 -7.149676167913887e6 0.0
0.0 0.0 0.0

-4.432155263489429e6 2.395215253041421e7 0.0
2.395215253041421e7 8.2620044004096715e6 0.0
0.0 0.0 0.0

-4.528722275416866e6 1.9808248832356993e7 0.0
1.9808248832356993e7 1.747393224609286e7 0.0
0.0 0.0 0.0

-3.9965350993119404e6 1.8352564313604183e7 0.0
1.8352564313604183e7 2.455105071726833e7 0.0
0.0 0.0 0.0

-3.681322091862699e6 1.703167909968732e7 0.0
1.703167909968732e7 -1.6590573651591629e7 0.0
0.0 0.0 0.0

861128.8284218712 1.4811791223128673e7 0.0
1.4811791223128673e7 -1.8581879675787363e7 0.0
0.0 0.0 0.0

-2.963865965681509e6 1.977365246917021e7 0.0
1.977365246917021e7 1.593998177076564e7 0.0
0.0 0.0 0.0

1.5130324845850673e6 1.0000364024765452e7 0.0
1.0000364024765452e7 -3.451201341483434e7 0.0
0.0 0.0 0.0

-2.414263171943091e6 1.867261279572725e7 0.0
1.867261279572725e7 -1.0613784335578509e7 0.0
0.0 0.0 0.0

1.8974450464735986e6 3.292706109814801e7 0.0
3.292706109814801e7 -418371.94557720725 0.0
0.0 0.0 0.0

1.34380956909075e6 1.8043586056938328e7 0.0
1.8043586056938328e7 2.0529969043331105e7 0.0
0.0 0.0 0.0

2.0665339605952047e7 2.377492289168606e7 0.0
2.377492289168606e7 6.888443369081093e7 0.0
0.0 0.0 0.0

-2.061839181809832e7 2.240288150163614e7 0.0
2.240288150163614e7 -6.872794381972647e7 0.0
0.0 0.0 0.0

-3.828625587892483e6 1.816654665470656e7 0.0
1.816654665470656e7 2.5467149280277034e6 0.0
0.0 0.0 0.0

-2.6096924252855476e7 3.397741620832442e7 0.0
3.397741620832442e7 7.669196434981063e6 0.0
0.0 0.0 0.0

-1.8120796895023715e6 2.285045235725556e7 0.0
2.285045235725556e7 -3.9977567579932557e6 0.0
0.0 0.0 0.0

-2.4053436294444203e6 1.9879034072799224e7 0.0
1.9879034072799224e7 1.3634910682504868e7 0.0
0.0 0.0 0.0

702045.385800791 1.819055682834391e7 0.0
1.819055682834391e7 2.331670664582915e7 0.0
0.0 0.0 0.0

6.186435027369606e6 1.9443319885210596e7 0.0
1.9443319885210596e7 4.110441545929809e7 0.0
0.0 0.0 0.0

5.912268883916572e6 2.012140284404541e7 0.0
2.012140284404541e7 8.589825739420347e6 0.0
0.0 0.0 0.0

5.955787513376891e6 1.7321869259597156e7 0.0
1.7321869259597156e7 2.5476103012191217e7 0.0
0.0 0.0 0.0

3.2270064898909624e6 2.322823384924279e7 0.0
2.322823384924279e7 -6.365603297934873e6 0.0
0.0 0.0 0.0

291645.4609054513 1.8267743369158458e7 0.0
1.8267743369158458e7 1.4731859204844518e7 0.0
0.0 0.0 0.0

-2.8812106926145814e6 1.908926301477974e7 0.0
1.908926301477974e7 1.6463925198087214e7 0.0
0.0 0.0 0.0

2.810428278924492e6 2.9421575425195433e7 0.0
2.9421575425195433e7 -2.2395351247371263e6 0.0
0.0 0.0 0.0

2.518305257493868e6 1.9727403843615048e7 0.0
1.9727403843615048e7 1.2214217092793552e7 0.0
0.0 0.0 0.0

4.167709219501823e6 2.2993062123612342e6 0.0
2.2993062123612342e6 -2.59604787866689e7 0.0
0.0 0.0 0.0

-1.0080085836995095e7 1.5429585456100162e7 0.0
1.5429585456100162e7 1.942449410642599e7 0.0
0.0 0.0 0.0

-8.881109256640956e6 -3.8986651373047847e6 0.0
-3.8986651373047847e6 3.1854350968024794e7 0.0
0.0 0.0 0.0

-5.527108274692338e6 1.934539778804643e7 0.0
1.934539778804643e7 1.9093518044535503e7 0.0
0.0 0.0 0.0

73625.43642680475 2.702932424745607e7 0.0
2.702932424745607e7 -1.7536855464719678e6 0.0
0.0 0.0 0.0

5.144010502307126e6 1.9896753207108743e7 0.0
1.9896753207108743e7 1.574069101484073e7 0.0
0.0 0.0 0.0

3.433710913306408e6 1.7266583979000196e7 0.0
1.7266583979000196e7 1.9075507088424183e7 0.0
0.0 0.0 0.0

-3.568306996590748e6 2.538378214853459e7 0.0
2.538378214853459e7 6.0723432867787015e6 0.0
0.0 0.0 0.0

3.652249213938266e6 4.214886802524823e6 0.0
4.214886802524823e6 -1.4487004154748026e7 0.0
0.0 0.0 0.0

-1.0608247163805102e6 2.499778268298896e7 0.0
2.499778268298896e7 -3.474834634962687e6 0.0
0.0 0.0 0.0

2.780187724885078e6 1.0402885733237457e7 0.0
1.0402885733237457e7 -2.0408171299211163e7 0.0
0.0 0.0 0.0

-7.360856018337582e6 2.46088524306702e7 0.0
2.46088524306702e7 6.918236068172233e6 0.0
0.0 0.0 0.0

3.852271600000787e6 2.499159737982294e7 0.0
2.499159737982294e7 -5.573479663365843e6 0.0
0.0 0.0 0.0

-9.11097755801e6 2.132877345497149e7 0.0
2.132877345497149e7 712637.7593000005 0.0
0.0 0.0 0.0

3.021194359145729e6 1.9148389828784252e6 0.0
1.9148389828784252e6 -4.945808789809233e7 0.0
0.0 0.0 0.0

4.444213827444741e6 1.996121030605949e7 0.0
1.996121030605949e7 2.3922089944102354e6 0.0
0.0 0.0 0.0

1.00085869724187e6 2.580846739610582e7 0.0
2.580846739610582e7 -3.854826310544926e6 0.0
0.0 0.0 0.0

212945.78642851487 2.257336929547987e7 0.0
2.257336929547987e7 -7.104345588501786e6 0.0
0.0 0.0 0.0

-1.8748427018474464e6 1.7586980128951315e7 0.0
1.7586980128951315e7 -1.1814475275995895e7 0.0
0.0 0.0 0.0

3.6305825408546524e6 4.436201208068993e6 0.0
4.436201208068993e6 -2.4154273609338805e7 0.0
0.0 0.0 0.0

-3.5295607605553814e6 2.173434563083273e7 0.0
2.173434563083273e7 5.86836216694143e6 0.0
0.0 0.0 0.0

762742.55663432 1.2587650316604154e7 0.0
1.2587650316604154e7 -2.91269486745214e7 0.0
0.0 0.0 0.0

-8.7994030729777e6 -3.4007973620143803e6 0.0
-3.4007973620143803e6 3.527909101848717e7 0.0
0.0 0.0 0.0

-5.725388569064517e6 1.822010656674276e7 0.0
1.822010656674276e7 1.6937165662834857e7 0.0
0.0 0.0 0.0

-1.3763275063014088e7 2.430401382695624e7 0.0
2.430401382695624e7 3.525579642677782e6 0.0
0.0 0.0 0.0

1.3339756641911268e6 5.651063997988529e6 0.0
5.651063997988529e6 -7.24698846665685e7 0.0
0.0 0.0 0.0

-5.634230122499492e6 1.5720911673510505e7 0.0
1.5720911673510505e7 3.3631146151422e7 0.0
0.0 0.0 0.0

-1.0570474322590027e6 1.914040337594858e7 0.0
1.914040337594858e7 2.0254568813099124e7 0.0
0.0 0.0 0.0

-2.7639817774713133e6 1.7548919169530127e7 0.0
1.7548919169530127e7 2.986479651214271e7 0.0
0.0 0.0 0.0

-2.723089830092336e6 1.9344218666990962e7 0.0
1.9344218666990962e7 991647.0551095075 0.0
0.0 0.0 0.0

-5.506261156739732e6 1.8621516912135605e7 0.0
1.8621516912135605e7 1.3080375637785122e7 0.0
0.0 0.0 0.0

-1.5822379789161626e6 1.7616647926706914e7 0.0
1.7616647926706914e7 -9.25111265959848e6 0.0
0.0 0.0 0.0

1.0237677346391631e6 1.4294263166750176e7 0.0
1.4294263166750176e7 -1.9595789186020132e7 0.0
0.0 0.0 0.0

1.3605139089575e6 9.52871620711795e6 0.0
9.52871620711795e6 -4.249606421678249e7 0.0
0.0 0.0 0.0

-8.884919739788052e6 -3.6628303896917333e6 0.0
-3.6628303896917333e6 3.2920469470828135e7 0.0
0.0 0.0 0.0

-8.335189040814631e6 -2.661947587710711e6 0.0
-2.661947587710711e6 4.106070330549935e7 0.0
0.0 0.0 0.0

-8.268534010827271e6 2.289042983603145e7 0.0
2.289042983603145e7 1.9347598523767479e6 0.0
0.0 0.0 0.0

509738.1737079541 2.0235797721932705e7 0.0
2.0235797721932705e7 -1.1056213075423883e7 0.0
0.0 0.0 0.0

-1.4628361668601558e6 1.753890574872699e7 0.0
1.753890574872699e7 3.4539402277643815e7 0.0
0.0 0.0 0.0

-1.2214381941249259e6 1.7638452807867058e7 0.0
1.7638452807867058e7 -6.575766363173656e6 0.0
0.0 0.0 0.0

3.8065413856445905e6 2.238851820397431e7 0.0
2.238851820397431e7 -6.18708089248404e6 0.0
0.0 0.0 0.0

-3.631868002064937e6 2.318033873943065e7 0.0
2.318033873943065e7 6.342119847296562e6 0.0
0.0 0.0 0.0

-9.193866265324948e6 -4.018023155322608e6 0.0
-4.018023155322608e6 2.2183250022764422e7 0.0
0.0 0.0 0.0

1.0893636311444523e7 4.464445082415599e7 0.0
4.464445082415599e7 -3.0486491558202393e6 0.0
0.0 0.0 0.0

482834.7827611761 1.840645557374572e7 0.0
1.840645557374572e7 -8.829885817462813e6 0.0
0.0 0.0 0.0

-5.372419332037132e6 1.5889623671466013e7 0.0
1.5889623671466013e7 -4.7086063450712755e7 0.0
0.0 0.0 0.0

4.1529486821109764e6 3.0082380951953926e6 0.0
3.0082380951953926e6 -3.0850039882495522e7 0.0
0.0 0.0 0.0

-296162.4906653466 1.7808387364436768e7 0.0
1.7808387364436768e7 -5.549043649220767e6 0.0
0.0 0.0 0.0

-7.559946122999484e6 1.735900245966913e7 0.0
1.735900245966913e7 1.971192486011606e7 0.0
0.0 0.0 0.0

-2.3049575526497573e7 2.0210768959068634e7 0.0
2.0210768959068634e7 6.478044350487746e6 0.0
0.0 0.0 0.0

-4.497413499642088e6 2.0640249940048814e7 0.0
2.0640249940048814e7 -8.362650846059238e6 0.0
0.0 0.0 0.0

4.898952600282468e6 1.6870620682876647e7 0.0
1.6870620682876647e7 2.207917927739766e7 0.0
0.0 0.0 0.0

-2.496355032918771e6 1.722204811806349e7 0.0
1.722204811806349e7 -1.283127691282824e7 0.0
0.0 0.0 0.0

-9.72650843566007e6 -1.6696020013526964e6 0.0
-1.6696020013526964e6 2.2068284535650928e7 0.0
0.0 0.0 0.0

-1.0163911232537797e6 1.878682285315988e7 0.0
1.878682285315988e7 -9.560391350168575e6 0.0
0.0 0.0 0.0

-493206.99656357407 1.8389354141740836e7 0.0
1.8389354141740836e7 3.5778537745854417e6 0.0
0.0 0.0 0.0

-1.4752031182751758e6 1.9456081199926283e7 0.0
1.9456081199926283e7 1.4320308598449046e7 0.0
0.0 0.0 0.0

279534.0688664522 1.687213692883256e7 0.0
1.687213692883256e7 -1.595399685728626e7 0.0
0.0 0.0 0.0

-2.263858462143394e6 1.891587120568674e7 0.0
1.891587120568674e7 2.25303954516385e7 0.0
0.0 0.0 0.0

-151139.235425582 1.711782572743061e7 0.0
1.711782572743061e7 2604.658430372321 0.0
0.0 0.0 0.0

596600.8518788475 2.019055046377625e7 0.0
2.019055046377625e7 -1.1233611028013773e7 0.0
0.0 0.0 0.0

3.826307700764381e6 1.9087230421170857e7 0.0
1.9087230421170857e7 -1.854124175830534e6 0.0
0.0 0.0 0.0

1.4105629329070523e6 1.226581096561526e7 0.0
1.226581096561526e7 -2.593248013524848e7 0.0
0.0 0.0 0.0

-5.859167767319795e6 1.94018266407123e7 0.0
1.94018266407123e7 1.795093005971747e7 0.0
0.0 0.0 0.0

-396348.0660900455 1.5863221155776625e7 0.0
1.5863221155776625e7 -8.159709289633885e6 0.0
0.0 0.0 0.0

-4.471673491409294e7 2.6854424264643483e7 0.0
2.6854424264643483e7 3.366277948819762e6 0.0
0.0 0.0 0.0

2.320799320663275e6 1.803038950571942e7 0.0
1.803038950571942e7 4.3832250089678876e7 0.0
0.0 0.0 0.0

3.77144170568927e6 1.854219006600233e6 0.0
1.854219006600233e6 -3.519300433684768e7 0.0
0.0 0.0 0.0

-8.44914352205221e6 -2.7245951014119475e6 0.0
-2.7245951014119475e6 3.968775981004125e7 0.0
0.0 0.0 0.0

-3.248115632933259e6 1.4731591223645093e7 0.0
1.4731591223645093e7 -4.112635086143569e7 0.0
0.0 0.0 0.0

-1.2194952997091534e6 1.563540618220251e7 0.0
1.563540618220251e7 -2.604867654511394e7 0.0
0.0 0.0 0.0

-1.9293234307314754e6 1.9293963649575286e7 0.0
1.9293963649575286e7 -4.929797411755353e6 0.0
0.0 0.0 0.0

-1.5186741137481578e7 2.5979994986639913e7 0.0
2.5979994986639913e7 -9.537016896476429e6 0.0
0.0 0.0 0.0

-6.2415161413997635e6 1.7982732601959985e7 0.0
1.7982732601959985e7 2.4339161894747753e7 0.0
0.0 0.0 0.0

621317.178924188 2.0078589908050038e7 0.0
2.0078589908050038e7 -1.1271510729182651e7 0.0
0.0 0.0 0.0

-7.3941992500040755e6 -1.1982791885353355e6 0.0
-1.1982791885353355e6 5.303487939977126e7 0.0
0.0 0.0 0.0

-9.236702323645283e6 1.6538721075522978e7 0.0
1.6538721075522978e7 2.2043906049089633e7 0.0
0.0 0.0 0.0

1.8922555475792922e6 3.854681532950192e6 0.0
3.854681532950192e6 -6.741222882154977e7 0.0
0.0 0.0 0.0

-2.1448534549398967e6 2.7101293102527417e7 0.0
2.7101293102527417e7 256509.6536471038 0.0
0.0 0.0 0.0

2.4063611077241413e6 2.3526030105881137e6 0.0
2.3526030105881137e6 -5.823100943075607e7 0.0
0.0 0.0 0.0

-2.1818898087898526e7 4.3052587264496535e7 0.0
4.3052587264496535e7 6.832633112214007e6 0.0
0.0 0.0 0.0

-7.2305373539958745e6 -883713.6221919216 0.0
-883713.6221919216 5.55366399000534e7 0.0
0.0 0.0 0.0

1.6194462693303116e6 1.2566047172238518e7 0.0
1.2566047172238518e7 -2.5814007202839047e7 0.0
0.0 0.0 0.0

-1.0585665827580342e7 2.3961726390439745e7 0.0
2.3961726390439745e7 4.671172440931504e6 0.0
0.0 0.0 0.0

-4.364945550366494e7 2.733286542434607e7 0.0
2.733286542434607e7 -719810.8425184097 0.0
0.0 0.0 0.0

2.155245851449702e6 3.0226805853203996e6 0.0
3.0226805853203996e6 -6.256223629397131e7 0.0
0.0 0.0 0.0

-3.181330641221047e6 2.2344497169649463e7 0.0
2.2344497169649463e7 2.6258822640641034e6 0.0
0.0 0.0 0.0

-3.850842881389768e6 2.065053557418756e7 0.0
2.065053557418756e7 1.299497883095938e7 0.0
0.0 0.0 0.0

1.447768992642366e7 1.6431355312833086e7 0.0
1.6431355312833086e7 6.690901449628234e6 0.0
0.0 0.0 0.0

-305176.8275666516 1.5417059649342297e7 0.0
1.5417059649342297e7 -2.3045463670002718e7 0.0
0.0 0.0 0.0

-1.8023078399121528e6 1.6314658331659414e7 0.0
1.6314658331659414e7 -2.383918741875369e7 0.0
0.0 0.0 0.0

-523173.2051732545 2.2136068824426718e7 0.0
2.2136068824426718e7 -7.811339651863162e6 0.0
0.0 0.0 0.0

-2.1511699467493645e6 2.760505332743994e7 0.0
2.760505332743994e7 362144.43240928696 0.0
0.0 0.0 0.0

-1.0837566603941523e7 1.1284732122040369e7 0.0
1.1284732122040369e7 3.004235309468531e7 0.0
0.0 0.0 0.0

2.805540051159095e6 1.960861284658513e6 0.0
1.960861284658513e6 -5.249183488674825e7 0.0
0.0 0.0 0.0

-1.0281516617035545e7 3.0905551176980667e7 0.0
3.0905551176980667e7 4.671587297185147e6 0.0
0.0 0.0 0.0

3.9965185512549514e6 5.432541166220335e6 0.0
5.432541166220335e6 -1.9475442921700656e7 0.0
0.0 0.0 0.0

-1.7126032232519183e6 1.770890938533284e7 0.0
1.770890938533284e7 -1.5665201971969273e7 0.0
0.0 0.0 0.0

2.6408035621605925e6 2.2399383106815736e6 0.0
2.2399383106815736e6 -5.4741801657696e7 0.0
0.0 0.0 0.0

-1.9953950693014963e6 1.6820330989680823e7 0.0
1.6820330989680823e7 -2.1512773409095496e7 0.0
0.0 0.0 0.0

-1.0620825771385852e7 8.091444762985256e6 0.0
8.091444762985256e6 3.465103673532975e7 0.0
0.0 0.0 0.0

-2.7678531861646106e6 2.241226991433177e6 0.0
2.241226991433177e6 1.3104308844327375e6 0.0
0.0 0.0 0.0

-4.304674281287588e6 1.6729668758917684e7 0.0
1.6729668758917684e7 3.8182696089082137e6 0.0
0.0 0.0 0.0

2.431484018519598e6 1.8694856311252598e7 0.0
1.8694856311252598e7 2.1521338164226748e7 0.0
0.0 0.0 0.0

3.5275833131114896e6 1.6941701135890149e6 0.0
1.6941701135890149e6 -3.885107725749557e7 0.0
0.0 0.0 0.0

-4.221066734510347e6 2.3266556651721664e7 0.0
2.3266556651721664e7 9.231293759329012e6 0.0
0.0 0.0 0.0

-9.457008122747893e6 -2.1112977403656356e6 0.0
-2.1112977403656356e6 3.156963025496588e7 0.0
0.0 0.0 0.0

-91329.95864450088 1.832636577263024e7 0.0
1.832636577263024e7 -139883.1504673793 0.0
0.0 0.0 0.0

1.329459213809901e6 1.2774933767090278e7 0.0
1.2774933767090278e7 -2.4620218307988428e7 0.0
0.0 0.0 0.0

-4.584169086547868e6 1.9528506054589417e7 0.0
1.9528506054589417e7 1.8625065941871982e7 0.0
0.0 0.0 0.0

1.3039305219549006e6 1.8188969287764277e7 0.0
1.8188969287764277e7 2.948357714550597e7 0.0
0.0 0.0 0.0

-765260.3426116141 1.775777806113287e7 0.0
1.775777806113287e7 -3.941384663268999e6 0.0
0.0 0.0 0.0

-12274.628780905157 2.1956416427947473e7 0.0
2.1956416427947473e7 -7.5336486592315305e6 0.0
0.0 0.0 0.0

-3.4679878143673493e6 2.412014149881674e7 0.0
2.412014149881674e7 4.530098254772026e6 0.0
0.0 0.0 0.0

-768258.9409722907 1.846616973606865e7 0.0
1.846616973606865e7 -6.143528611403718e6 0.0
0.0 0.0 0.0

1.7617935435575467e7 5.761405975735961e6 0.0
5.761405975735961e6 -2.734587874486683e6 0.0
0.0 0.0 0.0

-7.6464570401170775e6 -1.3415953015508985e6 0.0
-1.3415953015508985e6 5.061573420191552e7 0.0
0.0 0.0 0.0

6.169297488151373e6 2.070337420908965e7 0.0
2.070337420908965e7 1.0447102129773399e7 0.0
0.0 0.0 0.0

-8.236019893781189e6 -2.408567909117653e6 0.0
-2.408567909117653e6 4.2579290112701766e7 0.0
0.0 0.0 0.0

-1.0845695938022232e6 1.8753837206787694e7 0.0
1.8753837206787694e7 -868150.4137146815 0.0
0.0 0.0 0.0

-8.291068561681222e6 9.291670344661701e6 0.0
9.291670344661701e6 2.6951170856508613e7 0.0
0.0 0.0 0.0

-3.6604647396796853e6 1.6680789857484125e7 0.0
1.6680789857484125e7 5.976890259459415e6 0.0
0.0 0.0 0.0

357364.9382009704 1.5179194620772803e6 0.0
1.5179194620772803e6 -401058.8608565844 0.0
0.0 0.0 0.0

288061.54131984763 2.0698786573361014e6 0.0
2.0698786573361014e6 -277406.0652003444 0.0
0.0 0.0 0.0

497084.43927937886 1.9661595899792463e7 0.0
1.9661595899792463e7 -1.2132860689466132e7 0.0
0.0 0.0 0.0

-7.546620737038704e6 2.132517249255315e7 0.0
2.132517249255315e7 -3.563386316284621e6 0.0
0.0 0.0 0.0

717096.7825777084 1.9974610173531387e7 0.0
1.9974610173531387e7 -1.1064291407450063e7 0.0
0.0 0.0 0.0

-1.1686753832833298e7 9.897358280150637e6 0.0
9.897358280150637e6 2.837651394534818e7 0.0
0.0 0.0 0.0

-2.1937776770015596e6 1.7539607716727983e7 0.0
1.7539607716727983e7 -1.4350186689324519e7 0.0
0.0 0.0 0.0

1.20527594190895e6 1.2329229208604846e7 0.0
1.2329229208604846e7 -2.7463037793700315e7 0.0
0.0 0.0 0.0

-4.018604264488422e6 2.2722386069045983e7 0.0
2.2722386069045983e7 1.0077007596693987e7 0.0
0.0 0.0 0.0

1.4355063546265159e6 1.2763749636798318e7 0.0
1.2763749636798318e7 -2.3116557622853983e7 0.0
0.0 0.0 0.0

-9.358940187673889e7 3.254368848185592e7 0.0
3.254368848185592e7 -3.8330635164385103e6 0.0
0.0 0.0 0.0

487825.3114206847 1.6351691920597592e7 0.0
1.6351691920597592e7 -1.7005235025929652e7 0.0
0.0 0.0 0.0

-3.045944224871524e6 3.1891890303477146e7 0.0
3.1891890303477146e7 1.028605239576729e6 0.0
0.0 0.0 0.0

68814.59866041644 1.7736927539012834e7 0.0
1.7736927539012834e7 5.120291566518272e6 0.0
0.0 0.0 0.0

-5.973231361187004e6 1.877591388397369e7 0.0
1.877591388397369e7 2.126990552277299e7 0.0
0.0 0.0 0.0

-4.059463859076564e6 2.0365913919634033e7 0.0
2.0365913919634033e7 -1.143361904124548e7 0.0
0.0 0.0 0.0

1.1227805728252623e7 3.483812804731385e7 0.0
3.483812804731385e7 -5.504868104590055e6 0.0
0.0 0.0 0.0

-8.627372997593634e6 -3.097734761154679e6 0.0
-3.097734761154679e6 3.7414251564709164e7 0.0
0.0 0.0 0.0

3.681007400812868e6 1.8479123963029075e6 0.0
1.8479123963029075e6 -3.62068711948892e7 0.0
0.0 0.0 0.0

-626542.5166307241 2.2480916548394006e7 0.0
2.2480916548394006e7 -5.536635648195548e6 0.0
0.0 0.0 0.0

-8.42606340791413e6 -4.72730962610925e6 0.0
-4.72730962610925e6 1.4830908074626729e7 0.0
0.0 0.0 0.0

3.161817546897225e6 1.8028295483486832e6 0.0
1.8028295483486832e6 -4.633754784499343e7 0.0
0.0 0.0 0.0

-7.770130830584448e6 -1.6736117227230694e6 0.0
-1.6736117227230694e6 4.887398261907233e7 0.0
0.0 0.0 0.0

-9.040420811823627e6 -4.408411493486803e6 0.0
-4.408411493486803e6 2.854849149626722e7 0.0
0.0 0.0 0.0

-1.382993749468211e6 1.725513562182184e7 0.0
1.725513562182184e7 -4.819494366830996e6 0.0
0.0 0.0 0.0

-8.5465584297405e6 -2.8811286316619297e6 0.0
-2.8811286316619297e6 3.859986136186767e7 0.0
0.0 0.0 0.0

3.604368047646923e6 1.8894886936380176e6 0.0
1.8894886936380176e6 -3.749055734402122e7 0.0
0.0 0.0 0.0

3.2797518477664106e6 1.8652986279084254e6 0.0
1.8652986279084254e6 -4.4609517858789176e7 0.0
0.0 0.0 0.0

-7.863326703937387e6 -1.9772065458255433e6 0.0
-1.9772065458255433e6 4.719607466354006e7 0.0
0.0 0.0 0.0

-4.509304194648777e6 1.9022924672543745e7 0.0
1.9022924672543745e7 -1.2808060324112272e7 0.0
0.0 0.0 0.0

511464.12435870897 1.9118694219367582e7 0.0
1.9118694219367582e7 -1.3121350347885547e7 0.0
0.0 0.0 0.0

-2.955374134679096e6 2.439141048457549e7 0.0
2.439141048457549e7 4.958715565031219e6 0.0
0.0 0.0 0.0

3.326771932969477e6 1.799508575314652e6 0.0
1.799508575314652e6 -4.341257864096809e7 0.0
0.0 0.0 0.0

-7.973969439433809e6 -2.1836848768503633e6 0.0
-2.1836848768503633e6 4.5360679711829014e7 0.0
0.0 0.0 0.0

-894461.3028137322 1.7701569841345284e7 0.0
1.7701569841345284e7 -3.872460337008877e6 0.0
0.0 0.0 0.0

1.7189148097073939e6 1.3578993952551141e7 0.0
1.3578993952551141e7 -2.186787712770556e7 0.0
0.0 0.0 0.0

-1.0064808181708979e6 2.4126609869955134e7 0.0
2.4126609869955134e7 -2.805207854639924e6 0.0
0.0 0.0 0.0

-3.2204732209084746e6 1.9233273841450892e7 0.0
1.9233273841450892e7 -634510.2760576201 0.0
0.0 0.0 0.0

-3.717686120763192e6 1.8149059243344493e7 0.0
1.8149059243344493e7 2.574582198846435e7 0.0
0.0 0.0 0.0

-8.112074362630393e6 -2.2579343803414293e6 0.0
-2.2579343803414293e6 4.3850817049955666e7 0.0
0.0 0.0 0.0

3.4302635080907084e6 1.7309513117347497e6 0.0
1.7309513117347497e6 -4.17592455430798e7 0.0
0.0 0.0 0.0

2.2900004205030007e6 2.6449112628359467e7 0.0
2.6449112628359467e7 -4.669299234410854e6 0.0
0.0 0.0 0.0

435670.0018529203 1.78860748475417e7 0.0
1.78860748475417e7 4.041544006469424e7 0.0
0.0 0.0 0.0

6.538088583076909e7 6.99989238434211e7 0.0
6.99989238434211e7 -1.599951890056296e7 0.0
0.0 0.0 0.0

-174129.55423534894 1.078700163410666e7 0.0
1.078700163410666e7 -7.837718235174982e6 0.0
0.0 0.0 0.0

-2.2113865924790045e6 2.683799264902832e7 0.0
2.683799264902832e7 1.7338516187737593e6 0.0
0.0 0.0 0.0

-8.431505945466233e6 -84411.00441074852 0.0
-84411.00441074852 1.0539060356379693e7 0.0
0.0 0.0 0.0

-2.7920334020580356e6 2.4845638322856747e7 0.0
2.4845638322856747e7 4.1676882031936706e6 0.0
0.0 0.0 0.0

3.5075568143504728e6 2.9351480728858006e6 0.0
2.9351480728858006e6 -1.2318969257695265e7 0.0
0.0 0.0 0.0

8.2987400068668965e6 2.4232051593840677e7 0.0
2.4232051593840677e7 -4.801158509456768e6 0.0
0.0 0.0 0.0

1.5903690491151582e6 2.295632454538925e7 0.0
2.295632454538925e7 -7.295283639087064e6 0.0
0.0 0.0 0.0

-8.108782664193913e6 1.6136744337282175e7 0.0
1.6136744337282175e7 1.5915526756545782e7 0.0
0.0 0.0 0.0

-1.1513053503383272e6 1.9404440924163207e7 0.0
1.9404440924163207e7 -1.1679933530581433e6 0.0
0.0 0.0 0.0

-5.99875892463579e6 141608.2248441642 0.0
141608.2248441642 6.121268586126147e7 0.0
0.0 0.0 0.0

726778.942183077 3.7961264355755053e6 0.0
3.7961264355755053e6 -1.7520225279990134e6 0.0
0.0 0.0 0.0

-4.870304357809676e6 -819994.4818680382 0.0
-819994.4818680382 2.1935618936821646e6 0.0
0.0 0.0 0.0

954077.256371591 -1.76247142831169e6 0.0
-1.76247142831169e6 -2.345467082116983e6 0.0
0.0 0.0 0.0

2.156763821297154e6 2.3206151204068135e7 0.0
2.3206151204068135e7 -6.909888387656439e6 0.0
0.0 0.0 0.0

-4.836728079075269e6 1.5272391980682088e7 0.0
1.5272391980682088e7 -4.6195259110980675e7 0.0
0.0 0.0 0.0

2.926000821874392e6 1.803087082729203e7 0.0
1.803087082729203e7 2.5783597631004855e7 0.0
0.0 0.0 0.0

-2.6756203844552534e6 1.8468054805878837e7 0.0
1.8468054805878837e7 -1.080337480831104e7 0.0
0.0 0.0 0.0

4.340377003521978e6 2.46501452435258e6 0.0
2.46501452435258e6 -2.2593200802892067e7 0.0
0.0 0.0 0.0

-1.5239999235596638e6 1.6268694871079385e7 0.0
1.6268694871079385e7 -4.0296948298329934e6 0.0
0.0 0.0 0.0

80135.10206543608 1.8911989919689167e7 0.0
1.8911989919689167e7 -1.2497432381733902e7 0.0
0.0 0.0 0.0

-2.623423133769892e6 1.464567804167959e7 0.0
1.464567804167959e7 -3.331430749073815e7 0.0
0.0 0.0 0.0

-493902.1025825142 2.478982823625357e7 0.0
2.478982823625357e7 -3.159366227391031e6 0.0
0.0 0.0 0.0

-5.330789128592252e6 1.8921582927551582e7 0.0
1.8921582927551582e7 2.0041442569651943e7 0.0
0.0 0.0 0.0

-1.1820184600726948e6 1.6743839272867875e7 0.0
1.6743839272867875e7 -3.240451162781431e6 0.0
0.0 0.0 0.0

14880.134174217586 1.861064774866743e7 0.0
1.861064774866743e7 2.6209812409623526e6 0.0
0.0 0.0 0.0

-4.75046925461353e6 1.57109775139059e7 0.0
1.57109775139059e7 -2.3194984897630326e7 0.0
0.0 0.0 0.0

-1.995803773491677e7 2.652574308119006e7 0.0
2.652574308119006e7 -3.532697381497607e6 0.0
0.0 0.0 0.0

9.877362011019735e6 3.776200901368571e7 0.0
3.776200901368571e7 -4.297634145278909e6 0.0
0.0 0.0 0.0

-1.4072162178432816e6 789903.5603440382 0.0
789903.5603440382 2.5891420722279088e6 0.0
0.0 0.0 0.0

-1.122670027842577e6 184054.4133114916 0.0
184054.4133114916 2.471158463970157e6 0.0
0.0 0.0 0.0

-5.220808875142958e6 1.9620666871131875e7 0.0
1.9620666871131875e7 1.794913996936997e7 0.0
0.0 0.0 0.0

-1.6359887427639288e6 2.1676443931663986e7 0.0
2.1676443931663986e7 -5.811278862243877e6 0.0
0.0 0.0 0.0

-1.815885159642652e6 2.7677402102979373e7 0.0
2.7677402102979373e7 1.470857294761526e6 0.0
0.0 0.0 0.0

-2.6104231745630973e6 2.5248768589721397e7 0.0
2.5248768589721397e7 3.430942678858111e6 0.0
0.0 0.0 0.0

9.813592700499222e6 2.0090368148249418e7 0.0
2.0090368148249418e7 8.219652477496891e6 0.0
0.0 0.0 0.0

2.5345455593776517e6 1.988972724990109e7 0.0
1.988972724990109e7 -4.872745390637951e6 0.0
0.0 0.0 0.0

2.54407502456386e6 1.7349824401595436e7 0.0
1.7349824401595436e7 4.4992840689206585e7 0.0
0.0 0.0 0.0

-3.989591669323942e7 2.6848724895375952e7 0.0
2.6848724895375952e7 -1.0906714783745868e7 0.0
0.0 0.0 0.0

-1.0731289143600488e8 3.604933363064581e7 0.0
3.604933363064581e7 5.222281811800055e6 0.0
0.0 0.0 0.0

-7.782373212853813e6 1.5279113698185734e7 0.0
1.5279113698185734e7 1.3748516991896288e7 0.0
0.0 0.0 0.0

-3.401743063128287e6 2.0135899971822143e7 0.0
2.0135899971822143e7 1.5012587753246494e7 0.0
0.0 0.0 0.0

3.448935737333971e6 5.158941819050931e6 0.0
5.158941819050931e6 -2.1034534468335524e7 0.0
0.0 0.0 0.0

-8.568591217252608e6 1.6498135052326366e7 0.0
1.6498135052326366e7 2.0209726471419275e7 0.0
0.0 0.0 0.0

-5.320075766390082e6 -6.471136814059962e6 0.0
-6.471136814059962e6 1.2116887260458834e7 0.0
0.0 0.0 0.0

7.518943222595513e6 2.137116965342982e7 0.0
2.137116965342982e7 1.1302126793883258e7 0.0
0.0 0.0 0.0

-1.674504292977916e6 1.4892426014383415e7 0.0
1.4892426014383415e7 -3.217232881234622e7 0.0
0.0 0.0 0.0

4.082363257873878e6 4.552742779173186e6 0.0
4.552742779173186e6 -2.620874733102654e7 0.0
0.0 0.0 0.0

4.4582943397660665e6 1.9247049465298656e7 0.0
1.9247049465298656e7 5.485657636474501e6 0.0
0.0 0.0 0.0

-2.809407617903307e6 4.0836832758625e6 0.0
4.0836832758625e6 7.95105971619341e7 0.0
0.0 0.0 0.0

-4.347108214287823e6 2.646324085701523e7 0.0
2.646324085701523e7 5.879033689354559e6 0.0
0.0 0.0 0.0

-1.5872627843908973e7 2.3286218378348824e7 0.0
2.3286218378348824e7 861518.7346721413 0.0
0.0 0.0 0.0

845488.5176599566 2.1910196049995534e7 0.0
2.1910196049995534e7 -8.555873729536055e6 0.0
0.0 0.0 0.0

-8.955611346384589e6 -5.173190598050039e6 0.0
-5.173190598050039e6 2.581984779308596e7 0.0
0.0 0.0 0.0

53202.298210924724 1.7351926538520243e7 0.0
1.7351926538520243e7 6.046275663378179e6 0.0
0.0 0.0 0.0

-8.73581789869713e6 -3.5022432675453094e6 0.0
-3.5022432675453094e6 3.418456043529812e7 0.0
0.0 0.0 0.0

4.46751244355732e6 2.0151192382767923e7 0.0
2.0151192382767923e7 5.322973140541021e6 0.0
0.0 0.0 0.0

-2.653065660471996e6 2.1091265192385204e7 0.0
2.1091265192385204e7 1.0452131434242692e6 0.0
0.0 0.0 0.0

4.253951006263802e6 3.1583817353689093e6 0.0
3.1583817353689093e6 -2.8855024646704115e7 0.0
0.0 0.0 0.0

-4.450565757533938e6 1.9611942946430847e7 0.0
1.9611942946430847e7 -1.2091720003575347e7 0.0
0.0 0.0 0.0

4.271021114765521e6 2.5911025412174757e6 0.0
2.5911025412174757e6 -2.0374920358953267e7 0.0
0.0 0.0 0.0

385611.8734146077 1.5937272969965262e7 0.0
1.5937272969965262e7 -1.976255816015829e7 0.0
0.0 0.0 0.0

-5.375062810354169e6 3.1549890633100227e7 0.0
3.1549890633100227e7 2.9315302716910373e6 0.0
0.0 0.0 0.0

-304041.2961522159 1.5218963935530178e7 0.0
1.5218963935530178e7 -129396.96044122492 0.0
0.0 0.0 0.0

-431524.4327867157 2.149444302551455e7 0.0
2.149444302551455e7 -8.725644394074718e6 0.0
0.0 0.0 0.0

-4.0084855749196294e6 2.9977115783025734e7 0.0
2.9977115783025734e7 2.28134529713132e6 0.0
0.0 0.0 0.0

-3.057667560763703e6 2.394598649817052e7 0.0
2.394598649817052e7 5.889972111157333e6 0.0
0.0 0.0 0.0

-3.154789439335073e6 2.491302246428424e7 0.0
2.491302246428424e7 2.8928108405622737e6 0.0
0.0 0.0 0.0

-825146.505547496 2.9778384217162695e7 0.0
2.9778384217162695e7 -677600.4079103122 0.0
0.0 0.0 0.0

173953.04605758376 2.0777609239738286e7 0.0
2.0777609239738286e7 -9.49731600510917e6 0.0
0.0 0.0 0.0

-3.568943493431272e6 3.2681324968161438e7 0.0
3.2681324968161438e7 1.2706542504142397e6 0.0
0.0 0.0 0.0

-1.1001245858314037e7 1.1507446955177873e7 0.0
1.1507446955177873e7 1.604386077392564e7 0.0
0.0 0.0 0.0

1.0659465283657918e6 1.3205658047208844e7 0.0
1.3205658047208844e7 -1.56811267959559e7 0.0
0.0 0.0 0.0

-1.0351872077398201e7 -2.3135593320991145e6 0.0
-2.3135593320991145e6 2.0705506387817767e7 0.0
0.0 0.0 0.0

-1.1570667009135757e7 2.5091411187005706e7 0.0
2.5091411187005706e7 4.75728314162463e6 0.0
0.0 0.0 0.0

-8.469249164272165e6 56583.37393691242 0.0
56583.37393691242 4.5181231035088256e7 0.0
0.0 0.0 0.0

2.057558446379419e6 2.7396971613596912e7 0.0
2.7396971613596912e7 -4.099243271883756e6 0.0
0.0 0.0 0.0

795923.3586589964 1.5908974054163657e7 0.0
1.5908974054163657e7 -1.9742548205616966e7 0.0
0.0 0.0 0.0

569040.3204845861 1.929125163985471e7 0.0
1.929125163985471e7 7.5045310679055145e6 0.0
0.0 0.0 0.0

-917370.8964686873 1.5608580805620633e7 0.0
1.5608580805620633e7 -9.823780707437158e6 0.0
0.0 0.0 0.0

882181.3304183148 1.3573715000374842e7 0.0
1.3573715000374842e7 -2.7222346860144537e7 0.0
0.0 0.0 0.0

3.4631759598097745e6 4.094373327573342e6 0.0
4.094373327573342e6 -1.4771541704965414e7 0.0
0.0 0.0 0.0

2.8866835824673143e6 2.3339028411547244e7 0.0
2.3339028411547244e7 -6.538164363729316e6 0.0
0.0 0.0 0.0

-224854.29255472147 1.88622100428097e7 0.0
1.88622100428097e7 5.72924269166166e6 0.0
0.0 0.0 0.0

-3.058982784855432e6 1.870675512016099e7 0.0
1.870675512016099e7 -1.8035742950401213e6 0.0
0.0 0.0 0.0

2.923689970393833e6 1.8190766557437778e6 0.0
1.8190766557437778e6 -5.0235391396616526e7 0.0
0.0 0.0 0.0

-1.1084042012724664e7 3.518736168422326e6 0.0
3.518736168422326e6 2.1642547013751317e7 0.0
0.0 0.0 0.0

2.4782189558666423e6 4.088986462895642e6 0.0
4.088986462895642e6 -5.0103682726204604e7 0.0
0.0 0.0 0.0

-7.863373307665047e6 -6.459185057096175e6 0.0
-6.459185057096175e6 1.7965728374105513e7 0.0
0.0 0.0 0.0

-2.983987781907766e6 2.0948044836565215e7 0.0
2.0948044836565215e7 -321935.9230008768 0.0
0.0 0.0 0.0

-489878.26232057344 1.8904348144326545e7 0.0
1.8904348144326545e7 3.3374407763392194e6 0.0
0.0 0.0 0.0

194076.90499942913 1.8921029542275134e7 0.0
1.8921029542275134e7 5.29135999028399e6 0.0
0.0 0.0 0.0

-7.137003231304093e6 1.4960270481312187e7 0.0
1.4960270481312187e7 1.6196327819027733e7 0.0
0.0 0.0 0.0

-9.009192992986226e6 -4.0741442247715597e6 0.0
-4.0741442247715597e6 2.920079555592229e7 0.0
0.0 0.0 0.0

3.7421674556171084e6 2.4975368143118616e7 0.0
2.4975368143118616e7 -5.536599344023761e6 0.0
0.0 0.0 0.0

4.339656453584173e6 2.0038686196969453e7 0.0
2.0038686196969453e7 1.437879168144646e7 0.0
0.0 0.0 0.0

2.6656443408142924e6 8.449381367868224e6 0.0
8.449381367868224e6 -2.3513037500068072e7 0.0
0.0 0.0 0.0

-9.276494744981503e6 -2.40462830790429e6 0.0
-2.40462830790429e6 3.1302028650475398e7 0.0
0.0 0.0 0.0

2.518471209342555e6 1.9869645633621868e7 0.0
1.9869645633621868e7 1.1172259168371327e7 0.0
0.0 0.0 0.0

-4.565734606624154e6 1.6054685985691583e7 0.0
1.6054685985691583e7 3.698670378263946e7 0.0
0.0 0.0 0.0

4.9706833130503e6 2.0807059105984185e7 0.0
2.0807059105984185e7 1.1040052358626865e7 0.0
0.0 0.0 0.0

-3.92428017585993e6 1.4759380847979028e7 0.0
1.4759380847979028e7 -4.339646519525062e7 0.0
0.0 0.0 0.0

-4.463709262912067e6 1.877399574579135e7 0.0
1.877399574579135e7 2.274011181472499e7 0.0
0.0 0.0 0.0

184613.13860379346 1.8047603495107986e7 0.0
1.8047603495107986e7 1.7151555832864888e7 0.0
0.0 0.0 0.0

1.033111999761696e6 2.038943481469466e7 0.0
2.038943481469466e7 -1.056748033388231e7 0.0
0.0 0.0 0.0

-2.410772377095594e6 1.9940023813332908e7 0.0
1.9940023813332908e7 -5.237760386164508e6 0.0
0.0 0.0 0.0

1.9254078025707472e6 8.127125641467116e6 0.0
8.127125641467116e6 -3.714773712788943e7 0.0
0.0 0.0 0.0

2.0428241685185544e6 7.3548056959353965e6 0.0
7.3548056959353965e6 -3.9021572062074e7 0.0
0.0 0.0 0.0

-48304.82438527746 1.529282487355456e7 0.0
1.529282487355456e7 -9.32931805475054e6 0.0
0.0 0.0 0.0

-8.602330927145964e6 1.655588145043584e7 0.0
1.655588145043584e7 2.6399303053037576e7 0.0
0.0 0.0 0.0

179859.48485540878 1.9106153099891376e7 0.0
1.9106153099891376e7 -1.3041567011030026e7 0.0
0.0 0.0 0.0

-6.6107719212678e6 2.9801180445323987e6 0.0
2.9801180445323987e6 5.833609213849975e7 0.0
0.0 0.0 0.0

-1.3834285709551014e6 1.4582526662834441e7 0.0
1.4582526662834441e7 -3.440324316506462e7 0.0
0.0 0.0 0.0

4250.717554204166 1.4590463418502094e7 0.0
1.4590463418502094e7 5.1299503609408066e7 0.0
0.0 0.0 0.0

3.051317468779348e6 1.916013731400709e6 0.0
1.916013731400709e6 -4.8195899473202124e7 0.0
0.0 0.0 0.0

221877.3084634128 2.173236252795624e7 0.0
2.173236252795624e7 -8.581502469842466e6 0.0
0.0 0.0 0.0

3.899025896537336e6 2.05610187504517e7 0.0
2.05610187504517e7 1.1730046125057723e7 0.0
0.0 0.0 0.0

-5.360762667024343e6 1.6028212489878299e7 0.0
1.6028212489878299e7 -3.9653346005553074e7 0.0
0.0 0.0 0.0

8.695778705910292e6 1.0729798709044268e7 0.0
1.0729798709044268e7 1.324878587568251e6 0.0
0.0 0.0 0.0

-1.6559625261974991e6 1.9158616937839493e7 0.0
1.9158616937839493e7 -6.591579974625783e6 0.0
0.0 0.0 0.0

3.1129928254446317e6 2.0175381550050016e7 0.0
2.0175381550050016e7 1.2251966531387955e7 0.0
0.0 0.0 0.0

-3.6538458575647906e6 2.099332968848411e7 0.0
2.099332968848411e7 1.0271279254409611e7 0.0
0.0 0.0 0.0

-3.8624168734629806e6 2.0064107873886563e7 0.0
2.0064107873886563e7 1.5482235147792516e7 0.0
0.0 0.0 0.0

806283.4091222035 1.2060126249561988e7 0.0
1.2060126249561988e7 -1.384383342792286e7 0.0
0.0 0.0 0.0

-1.0589453306732524e7 1.542615628350404e7 0.0
1.542615628350404e7 2.4454897448713835e7 0.0
0.0 0.0 0.0

-3.07551709277346e6 1.4330622546053117e7 0.0
1.4330622546053117e7 -4.053293602419619e7 0.0
0.0 0.0 0.0

-2.0896828629228792e6 1.9014448605020273e7 0.0
1.9014448605020273e7 -9.971145799879232e6 0.0
0.0 0.0 0.0

-6.180569491231549e6 2.181622544152495e7 0.0
2.181622544152495e7 5.97203141334681e6 0.0
0.0 0.0 0.0

567735.3627330894 1.0754639585803494e7 0.0
1.0754639585803494e7 -8.202178889653799e6 0.0
0.0 0.0 0.0

-5.492918814623252e6 5.636364738432401e6 0.0
5.636364738432401e6 7.660580737657951e7 0.0
0.0 0.0 0.0

-6.050671399456566e6 1.5891415985530667e7 0.0
1.5891415985530667e7 -4.938064389571279e7 0.0
0.0 0.0 0.0

-3.747304316056831e6 1.809368794631584e7 0.0
1.809368794631584e7 2.567499582414846e7 0.0
0.0 0.0 0.0

-2.099749786250022e6 2.8145871933567267e7 0.0
2.8145871933567267e7 455241.12549886503 0.0
0.0 0.0 0.0

1.5547166394291239e7 2.0349029118232165e7 0.0
2.0349029118232165e7 6.6987970710524265e6 0.0
0.0 0.0 0.0

-2.0113413490839917e6 1.7740245890572388e7 0.0
1.7740245890572388e7 3.2420647494917423e7 0.0
0.0 0.0 0.0

-5.0336380403023e6 1.934302113379816e7 0.0
1.934302113379816e7 1.7904305070077825e7 0.0
0.0 0.0 0.0

666375.9775336562 1.41533122907418e7 0.0
1.41533122907418e7 -1.531657187121249e7 0.0
0.0 0.0 0.0

-2.5774438591492404e6 1.8225692383620974e7 0.0
1.8225692383620974e7 -1.1512141924682116e7 0.0
0.0 0.0 0.0

-6.179390283809012e6 1.7728114817668702e7 0.0
1.7728114817668702e7 1.3669624061896738e7 0.0
0.0 0.0 0.0

-6.4729039714188855e6 1.647445182953175e7 0.0
1.647445182953175e7 1.6386422441323144e7 0.0
0.0 0.0 0.0

3.7551574171395097e6 3.2273304460929087e6 0.0
3.2273304460929087e6 -2.6905424479866162e7 0.0
0.0 0.0 0.0

-4.068759645858132e6 2.336819959203905e7 0.0
2.336819959203905e7 9.387827586394826e6 0.0
0.0 0.0 0.0

-1.3860310237835576e6 1.5518344863774782e7 0.0
1.5518344863774782e7 -2.5944188529582825e6 0.0
0.0 0.0 0.0

4.458180170514587e6 3.5380044099257286e6 0.0
3.5380044099257286e6 -1.9545340814818684e7 0.0
0.0 0.0 0.0

891518.8298561545 2.6530917232712362e7 0.0
2.6530917232712362e7 -4.127837900601173e6 0.0
0.0 0.0 0.0

4.760267395684466e6 2.068786592326812e7 0.0
2.068786592326812e7 1.2855098633613419e7 0.0
0.0 0.0 0.0

-7.575663135021411e6 1.2916455765521044e6 0.0
1.2916455765521044e6 5.106957423147479e7 0.0
0.0 0.0 0.0

6.882129826092268e6 2.1789635489852604e7 0.0
2.1789635489852604e7 1.0183415435058026e7 0.0
0.0 0.0 0.0

4.529935543773776e6 2.0575438556797005e7 0.0
2.0575438556797005e7 7.901048397104287e6 0.0
0.0 0.0 0.0

-112214.33227356942 1.815187144388364e7 0.0
1.815187144388364e7 -1.2841482810656445e7 0.0
0.0 0.0 0.0

3.4962083330945894e6 3.159189839369025e6 0.0
3.159189839369025e6 -3.531395392654225e7 0.0
0.0 0.0 0.0

2.2031008811155343e6 1.6821815609107424e7 0.0
1.6821815609107424e7 1.1060269277797034e7 0.0
0.0 0.0 0.0

198962.45874999464 1.855230861262978e7 0.0
1.855230861262978e7 -1.1724005048625153e7 0.0
0.0 0.0 0.0

779358.5986620579 1.899439279883419e7 0.0
1.899439279883419e7 8.731300056161426e6 0.0
0.0 0.0 0.0

-1.0677075891007833e7 5.414105093271351e6 0.0
5.414105093271351e6 1.6966399597307295e7 0.0
0.0 0.0 0.0

-6.528131579269761e6 -6.501439694019144e6 0.0
-6.501439694019144e6 1.6527396332196306e7 0.0
0.0 0.0 0.0

-4.835752886408876e6 2.113553652496173e7 0.0
2.113553652496173e7 3.8371262352619255e6 0.0
0.0 0.0 0.0

1.1600597753778836e6 1.4097373355956702e7 0.0
1.4097373355956702e7 -2.3430662718569614e7 0.0
0.0 0.0 0.0

-2.8854625656226072e6 1.7248989828245517e7 0.0
1.7248989828245517e7 -1.5445053918155674e7 0.0
0.0 0.0 0.0

-5.851986187958188e6 2.1175076898460235e6 0.0
2.1175076898460235e6 7.430875972847886e7 0.0
0.0 0.0 0.0

-4.458952376002784e6 3.355494769033527e7 0.0
3.355494769033527e7 1.4438055030007898e6 0.0
0.0 0.0 0.0

942112.3988806854 5.680904911807507e6 0.0
5.680904911807507e6 -3.294766339851612e6 0.0
0.0 0.0 0.0

-1.0867343100391175e6 1.9079088227325324e7 0.0
1.9079088227325324e7 1.1338647704773033e6 0.0
0.0 0.0 0.0

2.0211299038104534e6 1.9845333231271908e7 0.0
1.9845333231271908e7 1.0999107775274027e7 0.0
0.0 0.0 0.0

-8.94704229812222e6 1.6860660786445677e7 0.0
1.6860660786445677e7 2.400237696298562e7 0.0
0.0 0.0 0.0

-1.2841097746133614e7 2.462582845239797e7 0.0
2.462582845239797e7 3.041228579101296e6 0.0
0.0 0.0 0.0

3.166338377011342e6 2.0638305489372604e7 0.0
2.0638305489372604e7 8.987052689764872e6 0.0
0.0 0.0 0.0

1.3893075318182814e6 2.038916256428624e7 0.0
2.038916256428624e7 1.0323508386774125e7 0.0
0.0 0.0 0.0

468562.86021017376 1.7719233464580774e7 0.0
1.7719233464580774e7 -1.6335129637592316e7 0.0
0.0 0.0 0.0

2.375117832741172e6 5.371930843489503e6 0.0
5.371930843489503e6 -1.1609528754827043e7 0.0
0.0 0.0 0.0

-602509.1517932802 1.818521821275096e7 0.0
1.818521821275096e7 -1.4533470017866675e7 0.0
0.0 0.0 0.0

-214446.22672948055 2.0294433663469277e7 0.0
2.0294433663469277e7 -1.0592257084802223e7 0.0
0.0 0.0 0.0

-2.866422075447916e6 2.315263712717271e7 0.0
2.315263712717271e7 5.135589643097832e6 0.0
0.0 0.0 0.0

1.202295206041569e6 2.1254414488995105e7 0.0
2.1254414488995105e7 -8.947197574201554e6 0.0
0.0 0.0 0.0

701310.1969223069 2.0532874400791712e7 0.0
2.0532874400791712e7 -9.766422379206466e6 0.0
0.0 0.0 0.0

3.8034717269694023e6 4.0993254977299273e6 0.0
4.0993254977299273e6 -3.1831425973999918e7 0.0
0.0 0.0 0.0

2.1914760860794852e6 1.981111768682001e7 0.0
1.981111768682001e7 6.455006336487831e6 0.0
0.0 0.0 0.0

-343864.23310899315 2.0868496836524386e7 0.0
2.0868496836524386e7 -9.60965165659332e6 0.0
0.0 0.0 0.0

-1.1771158414486727e7 1.3364754853436919e7 0.0
1.3364754853436919e7 2.0460447380714625e7 0.0
0.0 0.0 0.0

-7.98926535298953e7 2.979475184505435e7 0.0
2.979475184505435e7 -6.014293964019917e6 0.0
0.0 0.0 0.0

2.757047807138784e7 2.8417654491520405e7 0.0
2.8417654491520405e7 9.19017828808932e7 0.0
0.0 0.0 0.0

-2.6303775862779923e7 2.6210114974988114e7 0.0
2.6210114974988114e7 -8.767943001579875e7 0.0
0.0 0.0 0.0

-5.580914327741503e6 1.868516868919041e7 0.0
1.868516868919041e7 2.1198999904802114e7 0.0
0.0 0.0 0.0

1.183680123002804e6 1.3796692934730574e7 0.0
1.3796692934730574e7 -2.0680591926751643e7 0.0
0.0 0.0 0.0

-3.210133886520031e6 1.920471574859917e7 0.0
1.920471574859917e7 -1.167786029553173e7 0.0
0.0 0.0 0.0

1.5177538739968566e6 3.373724421949428e7 0.0
3.373724421949428e7 -2.3459192872197162e6 0.0
0.0 0.0 0.0

-1.3559967044684598e6 1.659452246380164e7 0.0
1.659452246380164e7 -1.943316039550814e7 0.0
0.0 0.0 0.0

-3.7846431511285985e6 2.020130279227857e7 0.0
2.020130279227857e7 -6.914728830041634e6 0.0
0.0 0.0 0.0

-1.061958105165506e7 1.5358036136540912e7 0.0
1.5358036136540912e7 2.1154114980692506e7 0.0
0.0 0.0 0.0

-1.5143200194247866e6 2.3613998822905514e7 0.0
2.3613998822905514e7 -1.6518698503911472e6 0.0
0.0 0.0 0.0

-1.9549414369180305e6 1.553518665118037e7 0.0
1.553518665118037e7 -2.967358562074263e7 0.0
0.0 0.0 0.0

-1.4349463676825138e6 1.9127870075485542e7 0.0
1.9127870075485542e7 -6.40973083505529e6 0.0
0.0 0.0 0.0

-4.349752206156345e6 2.1029495462173156e7 0.0
2.1029495462173156e7 1.1362865409138957e7 0.0
0.0 0.0 0.0

1.4903119046085576e7 2.049087896140187e7 0.0
2.049087896140187e7 -942839.6916588536 0.0
0.0 0.0 0.0

457488.7902178799 1.8351487581738964e7 0.0
1.8351487581738964e7 6.443681011909741e6 0.0
0.0 0.0 0.0

-5.560550607770627e6 1.8952259970824745e7 0.0
1.8952259970824745e7 1.9131922637791675e7 0.0
0.0 0.0 0.0

-1.901251829182666e7 2.337747835802564e7 0.0
2.337747835802564e7 -1.3655008957412383e6 0.0
0.0 0.0 0.0

244471.55558709893 1.8631159118851144e7 0.0
1.8631159118851144e7 6.47893261656003e6 0.0
0.0 0.0 0.0

1.4607782751771705e6 2.6972634278054997e7 0.0
2.6972634278054997e7 -3.976105102632456e6 0.0
0.0 0.0 0.0

7.154630261550143e6 2.4614485729789246e7 0.0
2.4614485729789246e7 -5.392997485542359e6 0.0
0.0 0.0 0.0

1.6452133825609535e6 1.320610954833953e7 0.0
1.320610954833953e7 -1.591565020983249e7 0.0
0.0 0.0 0.0

-5.928673043029737e6 1.7792863303670187e7 0.0
1.7792863303670187e7 2.5515468481651023e7 0.0
0.0 0.0 0.0

-172939.54165921547 1.7336341939602625e7 0.0
1.7336341939602625e7 -1.6821141385154825e7 0.0
0.0 0.0 0.0

-3.3845680495041357e6 1.7203956638393857e7 0.0
1.7203956638393857e7 4.583261862821401e6 0.0
0.0 0.0 0.0

-7.078072719271292e6 1.7550821580041435e7 0.0
1.7550821580041435e7 1.6147474403939275e7 0.0
0.0 0.0 0.0

2.0916116216862714e6 7.271172440953277e6 0.0
7.271172440953277e6 -8.770775229844678e6 0.0
0.0 0.0 0.0

572118.2196511673 1.7889669979206026e7 0.0
1.7889669979206026e7 8.86873368546238e6 0.0
0.0 0.0 0.0

3.547761984709782e6 2.4084860309825987e7 0.0
2.4084860309825987e7 -5.985024136931547e6 0.0
0.0 0.0 0.0

-218630.5954162255 1.0854752028171485e7 0.0
1.0854752028171485e7 -5.619833245816557e7 0.0
0.0 0.0 0.0

-1.197390095512785e7 1.2691163237313928e7 0.0
1.2691163237313928e7 1.9770048286527056e7 0.0
0.0 0.0 0.0

1.624689314409132e7 3.5940016956717074e7 0.0
3.5940016956717074e7 -6.631906379616528e6 0.0
0.0 0.0 0.0

2.83134980262815e6 7.5253473361859005e6 0.0
7.5253473361859005e6 -3.631258639176849e7 0.0
0.0 0.0 0.0

251419.48388596508 1.773126003554291e7 0.0
1.773126003554291e7 7.0522706829038635e6 0.0
0.0 0.0 0.0

1.3922767762975632e6 2.2235421481733117e7 0.0
2.2235421481733117e7 -7.986975521666223e6 0.0
0.0 0.0 0.0

1.1979771018250845e7 2.2343983306258652e7 0.0
2.2343983306258652e7 1.3117609645139705e8 0.0
0.0 0.0 0.0

-1.2829432185466807e7 2.14446517309993e7 0.0
2.14446517309993e7 -1.1978818702023637e8 0.0
0.0 0.0 0.0

2.432380290848945e7 1.887037944695525e7 0.0
1.887037944695525e7 5.047811621854737e6 0.0
0.0 0.0 0.0

8.623135646272616e6 2.4022846183183365e7 0.0
2.4022846183183365e7 -5.184245307773722e6 0.0
0.0 0.0 0.0

616507.175606844 1.0229920920978518e7 0.0
1.0229920920978518e7 -7.315441422198313e6 0.0
0.0 0.0 0.0

1.664756984778906e7 3.2300849476534717e7 0.0
3.2300849476534717e7 -6.851405715165759e6 0.0
0.0 0.0 0.0

-2.365023598521958e6 1.9380226000295598e7 0.0
1.9380226000295598e7 1.8239672189566642e7 0.0
0.0 0.0 0.0

1.2184790692239838e7 2.0239501417410783e7 0.0
2.0239501417410783e7 -686864.2405594825 0.0
0.0 0.0 0.0

-3.727073794761035e6 2.26381045557734e7 0.0
2.26381045557734e7 7.316148947456942e6 0.0
0.0 0.0 0.0

-5.968423485950556e6 1.5704265362001535e7 0.0
1.5704265362001535e7 1.4452705783341631e7 0.0
0.0 0.0 0.0

244303.827592202 3.912173195045257e6 0.0
3.912173195045257e6 -3.6618432563903136e6 0.0
0.0 0.0 0.0

5.298401142601945e6 2.047014759775506e7 0.0
2.047014759775506e7 1.3698622701823687e7 0.0
0.0 0.0 0.0

-688889.1465442574 2.3436147250687145e7 0.0
2.3436147250687145e7 -5.589927200214846e6 0.0
0.0 0.0 0.0

-5.708401303825475e6 1.8557886240395483e7 0.0
1.8557886240395483e7 2.2384801842290334e7 0.0
0.0 0.0 0.0

-5.20156565124859e6 2.3680393728923142e7 0.0
2.3680393728923142e7 8.89624596738543e6 0.0
0.0 0.0 0.0

-3.154037937726034e6 2.2278353975387502e7 0.0
2.2278353975387502e7 7.972126533122057e6 0.0
0.0 0.0 0.0

-1.8824713095221044e6 1.669272293852009e7 0.0
1.669272293852009e7 -5.8632603908619415e6 0.0
0.0 0.0 0.0

-3.427739724637391e6 1.794562564466493e7 0.0
1.794562564466493e7 2.6969871656313635e7 0.0
0.0 0.0 0.0

-3.432813886344332e6 2.3028344164003108e7 0.0
2.3028344164003108e7 8.556656735227574e6 0.0
0.0 0.0 0.0

-4.764384406561691e6 1.241202526191793e7 0.0
1.241202526191793e7 7.913330762530792e6 0.0
0.0 0.0 0.0

-3.578306238861665e7 2.978043115418422e7 0.0
2.978043115418422e7 -2.1052169350907113e6 0.0
0.0 0.0 0.0

-7.69615139481188e6 4.0193155563680325e6 0.0
4.0193155563680325e6 5.097781560512405e7 0.0
0.0 0.0 0.0

-6.90564026743382e6 2.402677920688669e7 0.0
2.402677920688669e7 7.51581479621671e6 0.0
0.0 0.0 0.0

-6.867879855854038e6 2.8489822760829147e7 0.0
2.8489822760829147e7 5.697563391461505e6 0.0
0.0 0.0 0.0

-472857.82001838274 1.5016165093681488e7 0.0
1.5016165093681488e7 -2.670075725706374e7 0.0
0.0 0.0 0.0

-2.374736908562273e6 3.1006967028738156e7 0.0
3.1006967028738156e7 1.7341518553746026e6 0.0
0.0 0.0 0.0

-5.818838304242247e6 3.462261785746889e7 0.0
3.462261785746889e7 1.5013623228956782e6 0.0
0.0 0.0 0.0

-7.218102176416969e6 3.563764397837592e7 0.0
3.563764397837592e7 1.8974263465519138e6 0.0
0.0 0.0 0.0

-1.2180970467678937e6 2.5493687822205406e7 0.0
2.5493687822205406e7 -2.6414370114559345e6 0.0
0.0 0.0 0.0

-1.0803474889607208e7 1.252143078023051e7 0.0
1.252143078023051e7 2.8679775460330907e7 0.0
0.0 0.0 0.0

4.040531828615686e6 2.0581992518411493e6 0.0
2.0581992518411493e6 -2.974053195258921e7 0.0
0.0 0.0 0.0

-4.263109449210303e6 1.8589245321328633e7 0.0
1.8589245321328633e7 2.3599074806935955e7 0.0
0.0 0.0 0.0

1.185396369448578e6 2.774223151083274e7 0.0
2.774223151083274e7 -3.3831724609513725e6 0.0
0.0 0.0 0.0

413447.91891322285 1.5490760664324012e7 0.0
1.5490760664324012e7 -2.0969001990232937e7 0.0
0.0 0.0 0.0

-8.744672852369081e6 -1.1596817726423235e6 0.0
-1.1596817726423235e6 3.9727710498566024e7 0.0
0.0 0.0 0.0

247645.81744951775 1.868883605363999e7 0.0
1.868883605363999e7 1.3041796372902629e6 0.0
0.0 0.0 0.0

390479.9484105762 1.900147892427863e7 0.0
1.900147892427863e7 -1.0821454665110445e7 0.0
0.0 0.0 0.0

-344425.4027363574 1.774646274556583e7 0.0
1.774646274556583e7 -1.389772882779077e7 0.0
0.0 0.0 0.0

-3.093954694426709e6 1.5671677947287997e7 0.0
1.5671677947287997e7 -1.3398034163902389e7 0.0
0.0 0.0 0.0

-8.731592075809544e6 -4.589361480720979e6 0.0
-4.589361480720979e6 1.626322018903973e7 0.0
0.0 0.0 0.0

-319614.9669346186 1.6916073139434528e7 0.0
1.6916073139434528e7 -2.4764428560143146e6 0.0
0.0 0.0 0.0

2.1265118248207425e6 1.8847087023726553e7 0.0
1.8847087023726553e7 5.750970054774272e6 0.0
0.0 0.0 0.0

1.6499374902947767e7 1.9104827619704362e7 0.0
1.9104827619704362e7 5.2878302603662275e6 0.0
0.0 0.0 0.0

-8.203236342911249e6 3.746324371114581e7 0.0
3.746324371114581e7 2.5738214171934333e6 0.0
0.0 0.0 0.0

-6.265438541940604e6 1.6073281056627752e7 0.0
1.6073281056627752e7 1.5524768978203457e7 0.0
0.0 0.0 0.0

-8.739994886756472e6 1.749745118855383e7 0.0
1.749745118855383e7 -5.532084168199276e7 0.0
0.0 0.0 0.0

3.370597491839424e6 6.811064402300662e6 0.0
6.811064402300662e6 -3.051232425604677e7 0.0
0.0 0.0 0.0

-9.054908965666762e6 -4.983125568600193e6 0.0
-4.983125568600193e6 2.6060383982240453e7 0.0
0.0 0.0 0.0

-1.8227072598306164e7 2.6738795085403204e7 0.0
2.6738795085403204e7 -6.579138199986288e6 0.0
0.0 0.0 0.0

-1.845920046698715e7 2.392287809569967e7 0.0
2.392287809569967e7 -3.489586465193108e6 0.0
0.0 0.0 0.0

-1.770239583899874e6 1.7216995823749535e7 0.0
1.7216995823749535e7 -7.582359539118119e6 0.0
0.0 0.0 0.0

-482833.834771481 2.7321803527078364e7 0.0
2.7321803527078364e7 -2.2716726621759166e6 0.0
0.0 0.0 0.0

1.1829106733590625e6 6.441770678193347e6 0.0
6.441770678193347e6 -5.347300785492937e7 0.0
0.0 0.0 0.0

6.962221683885654e6 2.1383665967089485e7 0.0
2.1383665967089485e7 -3.7621628721933025e6 0.0
0.0 0.0 0.0

4.523447817578938e6 2.1093540464431845e7 0.0
2.1093540464431845e7 9.942501933987388e6 0.0
0.0 0.0 0.0

1.778043377820189e6 1.3598267459655266e7 0.0
1.3598267459655266e7 -2.0416765650966503e7 0.0
0.0 0.0 0.0

-2.2951360092312167e6 2.2171388578722134e7 0.0
2.2171388578722134e7 572833.1829159077 0.0
0.0 0.0 0.0

1.640158223863205e6 1.274274914710521e7 0.0
1.274274914710521e7 -1.5111100102354998e7 0.0
0.0 0.0 0.0

1.261812600744971e6 1.3314102353434201e7 0.0
1.3314102353434201e7 -2.1951353854894925e7 0.0
0.0 0.0 0.0

-2.086344113663618e6 1.6430566352103973e7 0.0
1.6430566352103973e7 -1.4150677043562153e7 0.0
0.0 0.0 0.0

-7.195435268939506e6 2.7570872601473313e7 0.0
2.7570872601473313e7 5.552826190936053e6 0.0
0.0 0.0 0.0

-1.3994501160185717e7 2.0804303896466136e7 0.0
2.0804303896466136e7 -6.425463413796573e7 0.0
0.0 0.0 0.0

1.3496938097373888e7 3.1737597915916394e7 0.0
3.1737597915916394e7 -5.530749480250618e6 0.0
0.0 0.0 0.0

4.641596497991063e6 2.407235115518791e7 0.0
2.407235115518791e7 -5.639980059771389e6 0.0
0.0 0.0 0.0

-2.4899749991371827e6 2.8974209586529072e7 0.0
2.8974209586529072e7 2.33947575714289e6 0.0
0.0 0.0 0.0

-4.0142550986052207e6 2.2496378692060936e7 0.0
2.2496378692060936e7 9.980342312845496e6 0.0
0.0 0.0 0.0

1.2873946041748822e6 5.364281835467914e6 0.0
5.364281835467914e6 -5.586587981180589e7 0.0
0.0 0.0 0.0

-4.195269597942988e6 2.077648821530645e7 0.0
2.077648821530645e7 1.4094375176445866e7 0.0
0.0 0.0 0.0

2.2598076792175807e6 5.207902584899477e6 0.0
5.207902584899477e6 -4.5110773430991426e7 0.0
0.0 0.0 0.0

-694663.9596406368 1.9736301351715248e7 0.0
1.9736301351715248e7 -8.120223396293228e6 0.0
0.0 0.0 0.0

-639681.7154404842 1.899860495719839e7 0.0
1.899860495719839e7 -8.46911299853332e6 0.0
0.0 0.0 0.0

-832435.3724457799 1.646131658370473e7 0.0
1.646131658370473e7 -3.4938733728572805e6 0.0
0.0 0.0 0.0

-3.7151236907655494e6 1.9423837666912112e7 0.0
1.9423837666912112e7 1.6213324921410374e7 0.0
0.0 0.0 0.0

-1.9934050192051248e6 2.4543424434092037e7 0.0
2.4543424434092037e7 -1.7861347240992512e6 0.0
0.0 0.0 0.0

-4.856753604293002e6 1.9558188160045553e7 0.0
1.9558188160045553e7 1.3269265164243892e7 0.0
0.0 0.0 0.0

-8.803089728373956e6 -4.234357635705367e6 0.0
-4.234357635705367e6 2.9963498510707065e7 0.0
0.0 0.0 0.0

2.8158052637894973e6 6.505043264330285e6 0.0
6.505043264330285e6 -3.225284012130564e7 0.0
0.0 0.0 0.0

2.6129902744728047e6 8.69532442691062e6 0.0
8.69532442691062e6 -2.533157135547898e7 0.0
0.0 0.0 0.0

690660.3359808773 2.9825438828133103e7 0.0
2.9825438828133103e7 -1.4575102953297298e6 0.0
0.0 0.0 0.0

-2.366111505545247e6 1.9184808170410216e7 0.0
1.9184808170410216e7 -9.84009610646476e6 0.0
0.0 0.0 0.0

266750.4617063571 1.4310897253172034e7 0.0
1.4310897253172034e7 -2.6987287830992095e7 0.0
0.0 0.0 0.0

1.981226138843203e6 1.8871836641371466e7 0.0
1.8871836641371466e7 1.4735802143999089e7 0.0
0.0 0.0 0.0

-1.0161089780446265e7 1.0817538488348501e6 0.0
1.0817538488348501e6 2.0429095649716027e7 0.0
0.0 0.0 0.0

5.145356570107063e6 2.1661565088804852e7 0.0
2.1661565088804852e7 1.1147995822426267e7 0.0
0.0 0.0 0.0

-1.3363906624310223e7 3.0424982095980242e7 0.0
3.0424982095980242e7 6.598736165385759e6 0.0
0.0 0.0 0.0

3.217933237964971e6 1.943300426825718e7 0.0
1.943300426825718e7 6.262659886182329e6 0.0
0.0 0.0 0.0

1.8019619487367547e6 1.7316441591254875e7 0.0
1.7316441591254875e7 1.2962660105042618e7 0.0
0.0 0.0 0.0

-5.030376124691034e6 2.6909279443617456e7 0.0
2.6909279443617456e7 5.669899657261852e6 0.0
0.0 0.0 0.0

-4.328745033311492e6 2.006098466600061e7 0.0
2.006098466600061e7 1.6178749644883288e7 0.0
0.0 0.0 0.0

-2.3706442131201234e6 1.7206296967259657e7 0.0
1.7206296967259657e7 3.1742103155553177e7 0.0
0.0 0.0 0.0

-1.7530983809344444e7 2.4546916838662036e7 0.0
2.4546916838662036e7 -1.7293605114068924e6 0.0
0.0 0.0 0.0

-1.2230963551502123e7 2.3151933450268168e7 0.0
2.3151933450268168e7 2.549753079792426e6 0.0
0.0 0.0 0.0

-1.1515442863806678e7 1.5890995322483528e7 0.0
1.5890995322483528e7 3.1752596617498696e6 0.0
0.0 0.0 0.0

-7.186589678898433e7 3.2383429129181717e7 0.0
3.2383429129181717e7 -538552.3336852752 0.0
0.0 0.0 0.0

9.80276642437774e6 1.930989405819187e7 0.0
1.930989405819187e7 5.638186129983662e6 0.0
0.0 0.0 0.0

-1.4590290542963948e6 1.5270646181870185e7 0.0
1.5270646181870185e7 -2.7435766057166927e7 0.0
0.0 0.0 0.0

-3.770414733872098e6 2.1997225739587374e7 0.0
2.1997225739587374e7 7.565345454946818e6 0.0
0.0 0.0 0.0

163097.78027289268 1.8578092227108292e7 0.0
1.8578092227108292e7 -1.4118687843199592e7 0.0
0.0 0.0 0.0

3.784575573611445e7 1.5291326219307585e7 0.0
1.5291326219307585e7 1.6476519305787738e6 0.0
0.0 0.0 0.0

-5.382818407340309e6 -1.2847682596062063e6 0.0
-1.2847682596062063e6 9.225948600611057e6 0.0
0.0 0.0 0.0

3.6957123787697824e6 2.8416916923708026e6 0.0
2.8416916923708026e6 -1.3582518570044355e7 0.0
0.0 0.0 0.0

-194418.89822388394 1.9169647273718435e7 0.0
1.9169647273718435e7 -1.2115243047210686e7 0.0
0.0 0.0 0.0

-624033.7057264748 1.780800379378393e7 0.0
1.780800379378393e7 -1.0812086514955405e6 0.0
0.0 0.0 0.0

-9.509059165904842e6 4.0598996220259457e6 0.0
4.0598996220259457e6 3.93986416505686e7 0.0
0.0 0.0 0.0

5.828095255072091e6 2.4940104079024248e7 0.0
2.4940104079024248e7 -5.459869052248069e6 0.0
0.0 0.0 0.0

-1.2449390665152846e7 3.8786299598963745e7 0.0
3.8786299598963745e7 2.9527834653392574e6 0.0
0.0 0.0 0.0

9.182416308063483e6 2.0000357890771158e7 0.0
2.0000357890771158e7 4.856907178893768e6 0.0
0.0 0.0 0.0

-8.521326387848774e6 -5.565731436321877e6 0.0
-5.565731436321877e6 2.399654477256847e7 0.0
0.0 0.0 0.0

-2.0572106364555456e7 2.5152105339973487e7 0.0
2.5152105339973487e7 111234.14706523251 0.0
0.0 0.0 0.0

760105.1942563059 1.7454791655287467e7 0.0
1.7454791655287467e7 5.909566478345304e6 0.0
0.0 0.0 0.0

-1.7432829824889e7 4.066052153570997e7 0.0
4.066052153570997e7 3.6349565761755435e6 0.0
0.0 0.0 0.0

-8.315358346205155e6 1.699827491911649e7 0.0
1.699827491911649e7 2.1079293909008622e7 0.0
0.0 0.0 0.0

1.6569254068327425e6 1.877343484282158e7 0.0
1.877343484282158e7 -1.965783659631534e6 0.0
0.0 0.0 0.0

-5.654762854894553e6 1.6520500593330007e7 0.0
1.6520500593330007e7 -2.2063963242737826e7 0.0
0.0 0.0 0.0

-2.214259356122882e6 1.7273465361991424e7 0.0
1.7273465361991424e7 -1.0205968464770097e7 0.0
0.0 0.0 0.0

6.147083865053978e6 2.1011427248128235e7 0.0
2.1011427248128235e7 -4.1800649262307957e6 0.0
0.0 0.0 0.0

2.879070387617772e7 3.924691321775568e7 0.0
3.924691321775568e7 -1.2408612612284767e7 0.0
0.0 0.0 0.0

-9.049970007194325e6 -3.8201714010044993e6 0.0
-3.8201714010044993e6 1.8230988383205824e7 0.0
0.0 0.0 0.0

1.2133372353642755e6 3.2458565954217684e7 0.0
3.2458565954217684e7 -2.439024542047728e6 0.0
0.0 0.0 0.0

2.464784669517099e6 2.7989044943479925e7 0.0
2.7989044943479925e7 -3.0098364093846213e6 0.0
0.0 0.0 0.0

-1.0003281621621126e7 -831695.5370598537 0.0
-831695.5370598537 3.181156756017486e7 0.0
0.0 0.0 0.0

3.9970356319290437e6 2.0746746778771472e6 0.0
2.0746746778771472e6 -3.006144890051531e7 0.0
0.0 0.0 0.0

-4.0452709524980946e6 2.4738445330531508e7 0.0
2.4738445330531508e7 7.647262568446607e6 0.0
0.0 0.0 0.0

3.989310573886911e6 2.1397463578156337e7 0.0
2.1397463578156337e7 1.1854929642109334e7 0.0
0.0 0.0 0.0

-4.771470528106549e6 5.1008330721489275e6 0.0
5.1008330721489275e6 7.290153012959642e6 0.0
0.0 0.0 0.0

-9.81047956763783e6 1.5332566121546922e7 0.0
1.5332566121546922e7 2.1135169435721673e7 0.0
0.0 0.0 0.0

3.0869565186900496e6 2.1007462088406302e7 0.0
2.1007462088406302e7 1.2453696251785327e7 0.0
0.0 0.0 0.0

-615951.2312599099 1.6276788469049163e7 0.0
1.6276788469049163e7 -1.126669953134834e7 0.0
0.0 0.0 0.0

-2.631747762800659e6 1.6140348510305457e7 0.0
1.6140348510305457e7 -1.524021944196405e7 0.0
0.0 0.0 0.0

461020.0575981408 2.6000413687084302e7 0.0
2.6000413687084302e7 -4.1512315396967325e6 0.0
0.0 0.0 0.0

-6.422667995875489e6 -2.261563031649545e6 0.0
-2.261563031649545e6 1.1836256282929476e7 0.0
0.0 0.0 0.0

-3.0111824966135183e6 1.8623234532537285e7 0.0
1.8623234532537285e7 3.3293396729942188e6 0.0
0.0 0.0 0.0

-8.388505338297483e6 1.697896863801998e7 0.0
1.697896863801998e7 2.512163743945226e7 0.0
0.0 0.0 0.0

989869.8263438828 1.3622659418499231e7 0.0
1.3622659418499231e7 -1.2599792501179822e7 0.0
0.0 0.0 0.0

457169.24584863055 2.156661291570374e7 0.0
2.156661291570374e7 -9.264599533120837e6 0.0
0.0 0.0 0.0

2.1386837883893754e6 3.5278766618817e7 0.0
3.5278766618817e7 -708467.6264738726 0.0
0.0 0.0 0.0

-269866.47697184794 1.3963913077232862e7 0.0
1.3963913077232862e7 -2.874174596437134e7 0.0
0.0 0.0 0.0

-4.0833257206091546e7 4.161780046560399e7 0.0
4.161780046560399e7 5.937287449301185e6 0.0
0.0 0.0 0.0

1.0501178080373234e6 2.3791827621088685e6 0.0
2.3791827621088685e6 -2.398724719002978e6 0.0
0.0 0.0 0.0

806407.0544586515 2.543904078765527e6 0.0
2.543904078765527e6 -3.2555610936835813e6 0.0
0.0 0.0 0.0

3.741766737016176e6 1.8650403911967438e7 0.0
1.8650403911967438e7 2.256093334197258e7 0.0
0.0 0.0 0.0

3.7635138403450083e6 2.0194341417348873e7 0.0
2.0194341417348873e7 1.4570860716883564e7 0.0
0.0 0.0 0.0

-225964.7893653717 1.872801576029522e7 0.0
1.872801576029522e7 8.068407095671683e6 0.0
0.0 0.0 0.0

-1.063157989831591e7 1.3504092352596376e7 0.0
1.3504092352596376e7 2.0992839774655007e7 0.0
0.0 0.0 0.0

4.911911915885802e6 5.339701377413535e6 0.0
5.339701377413535e6 -1.3359683157846094e6 0.0
0.0 0.0 0.0

-2.585333205032457e6 2.034276393833792e7 0.0
2.034276393833792e7 9.410928237994596e6 0.0
0.0 0.0 0.0

-857595.5276345732 2.7193156853601962e7 0.0
2.7193156853601962e7 -563273.3643579396 0.0
0.0 0.0 0.0

-1.1008231528732125e6 1.4748382972501775e7 0.0
1.4748382972501775e7 -3.0257016875474475e7 0.0
0.0 0.0 0.0

8.251886202508774e6 2.1449940881555047e7 0.0
2.1449940881555047e7 1.0411634825136993e7 0.0
0.0 0.0 0.0

1.3090545901720632e7 2.0419208008310582e7 0.0
2.0419208008310582e7 8.089669885327505e6 0.0
0.0 0.0 0.0

-2.4242885553257618e7 4.231668121880803e7 0.0
4.231668121880803e7 5.695117311119845e6 0.0
0.0 0.0 0.0

922324.7371491727 1.8731635523355592e7 0.0
1.8731635523355592e7 8.681707025936574e6 0.0
0.0 0.0 0.0

-9.423564299154757e6 8.112037475844566e6 0.0
8.112037475844566e6 1.1153438298392612e7 0.0
0.0 0.0 0.0

-1.2158080267486244e7 1.1840954345615229e7 0.0
1.1840954345615229e7 2.3989477054582324e7 0.0
0.0 0.0 0.0

-1.1894928033313407e6 2.654363085950339e7 0.0
2.654363085950339e7 -1.5151151211174242e6 0.0
0.0 0.0 0.0

5.204076179647581e6 1.9833727266801376e7 0.0
1.9833727266801376e7 1.4166359366037253e7 0.0
0.0 0.0 0.0

-8.035020718348917e6 3.8943853832365535e6 0.0
3.8943853832365535e6 5.6321085962809235e7 0.0
0.0 0.0 0.0

-700906.3123995848 1.855559664185314e7 0.0
1.855559664185314e7 1.4689990080607897e7 0.0
0.0 0.0 0.0

-8.793147180551032e6 1.6889463907644022e7 0.0
1.6889463907644022e7 -3.2392212437259912e7 0.0
0.0 0.0 0.0

3.5319147964709625e6 2.0921351204562e7 0.0
2.0921351204562e7 1.3114758941270305e7 0.0
0.0 0.0 0.0

-5.910787809222661e6 1.8163941961008653e7 0.0
1.8163941961008653e7 2.3258124544048175e7 0.0
0.0 0.0 0.0

-392078.52806279715 1.538743933655777e7 0.0
1.538743933655777e7 -1.1640754320211295e7 0.0
0.0 0.0 0.0

3.508797303770475e6 1.810652892029495e7 0.0
1.810652892029495e7 6.789321211531751e7 0.0
0.0 0.0 0.0

5.940661634198046e6 2.384076873542961e7 0.0
2.384076873542961e7 -5.261937100902448e6 0.0
0.0 0.0 0.0

203958.46830943227 1.702785303694989e7 0.0
1.702785303694989e7 -1.72382957750287e7 0.0
0.0 0.0 0.0

-358313.86428617267 1.2693231330174886e7 0.0
1.2693231330174886e7 -5.8804417718130825e6 0.0
0.0 0.0 0.0

3.5751185260943063e6 3.184488306878465e6 0.0
3.184488306878465e6 -3.745489924801369e7 0.0
0.0 0.0 0.0

2.052901343493683e6 3.379571708672166e7 0.0
3.379571708672166e7 -385047.1226199111 0.0
0.0 0.0 0.0

-1.1778996416132187e7 1.2688724393698886e7 0.0
1.2688724393698886e7 2.460772615929275e7 0.0
0.0 0.0 0.0

2.483652722810131e6 1.7305766434922118e7 0.0
1.7305766434922118e7 1.6909723880490262e7 0.0
0.0 0.0 0.0

-8.887130754341727e6 2.4577404982906237e7 0.0
2.4577404982906237e7 5.632262399937503e6 0.0
0.0 0.0 0.0

-2.9093533506297087e6 2.0388566968024403e7 0.0
2.0388566968024403e7 1.644196153486185e6 0.0
0.0 0.0 0.0

-1.0216811688838672e7 1.598734992021916e7 0.0
1.598734992021916e7 2.12881911914901e7 0.0
0.0 0.0 0.0

2.10791229242229e6 1.0379789241184957e7 0.0
1.0379789241184957e7 -2.074971431759353e7 0.0
0.0 0.0 0.0

-1.1611365176089691e7 3.673378908487576e7 0.0
3.673378908487576e7 5.923171950406504e6 0.0
0.0 0.0 0.0

2.021975218479923e7 1.1973188522810034e7 0.0
1.1973188522810034e7 358440.43918059394 0.0
0.0 0.0 0.0

-1.0281457269780034e7 -1.7228996148577095e6 0.0
-1.7228996148577095e6 1.6882988802345447e7 0.0
0.0 0.0 0.0

-6.094478692858728e6 2.793163995537315e7 0.0
2.793163995537315e7 5.245190320468214e6 0.0
0.0 0.0 0.0

-2.5285647698153943e7 2.0768267418289702e7 0.0
2.0768267418289702e7 6.096514572152246e6 0.0
0.0 0.0 0.0

-3.1913321251723072e6 2.0267280145005245e7 0.0
2.0267280145005245e7 -9.470276089136422e6 0.0
0.0 0.0 0.0

-4.807776302859487e7 3.0943400897568237e7 0.0
3.0943400897568237e7 -124910.90837204643 0.0
0.0 0.0 0.0

-3.446497370892682e6 2.0533649758397855e7 0.0
2.0533649758397855e7 -5.455497971870996e6 0.0
0.0 0.0 0.0

-5.7904764850334395e6 1.7799830544088732e7 0.0
1.7799830544088732e7 1.644263124438127e7 0.0
0.0 0.0 0.0

-1.1351590177525392e7 1.2608180079315398e7 0.0
1.2608180079315398e7 2.192385085807135e7 0.0
0.0 0.0 0.0

-7.974069173983946e6 1.5683423927209351e7 0.0
1.5683423927209351e7 1.4893124174874147e7 0.0
0.0 0.0 0.0

-4.54488145960758e6 2.246796435436143e7 0.0
2.246796435436143e7 1.0860565598594464e7 0.0
0.0 0.0 0.0

-9.163184685805008e6 666411.1262288087 0.0
666411.1262288087 3.951089232409401e7 0.0
0.0 0.0 0.0

-368783.4523718101 1.6806767327049885e7 0.0
1.6806767327049885e7 -1.0821170251979297e6 0.0
0.0 0.0 0.0

1.6461987441880303e6 1.1619767463247906e7 0.0
1.1619767463247906e7 -1.3112010491122272e7 0.0
0.0 0.0 0.0

924058.9839313822 1.5552605350458069e7 0.0
1.5552605350458069e7 -1.788921715237245e7 0.0
0.0 0.0 0.0

-9.028503365600215e6 -3.6859244112127074e6 0.0
-3.6859244112127074e6 2.6662354347338203e7 0.0
0.0 0.0 0.0

-1.0850702387019314e6 1.7197638365734998e7 0.0
1.7197638365734998e7 519818.6339563337 0.0
0.0 0.0 0.0

-7.516815059146456e6 2.4765861941640567e7 0.0
2.4765861941640567e7 6.564696407745302e6 0.0
0.0 0.0 0.0

861372.2403702643 1.881168069991122e7 0.0
1.881168069991122e7 2.317978762680991e7 0.0
0.0 0.0 0.0

35945.035854353104 1.8552479077231616e7 0.0
1.8552479077231616e7 -1.2539189791151764e7 0.0
0.0 0.0 0.0

192108.2428637119 1.7895461392936952e7 0.0
1.7895461392936952e7 4.126888188702717e6 0.0
0.0 0.0 0.0

905856.7468199952 3.1511929018937457e7 0.0
3.1511929018937457e7 -2.0807969602946474e6 0.0
0.0 0.0 0.0

883514.0375524405 1.9444453123568185e7 0.0
1.9444453123568185e7 -1.028522289707483e7 0.0
0.0 0.0 0.0

8.530668460860254e7 3.094841779441037e7 0.0
3.094841779441037e7 2.125719609860517e6 0.0
0.0 0.0 0.0

3.2635176910783593e6 1.92311783646468e7 0.0
1.92311783646468e7 -3.6158196980469045e6 0.0
0.0 0.0 0.0

-1.6441590091542462e6 1.702290698050826e7 0.0
1.702290698050826e7 -2.0104275951888945e7 0.0
0.0 0.0 0.0

1.4406429796608733e6 2.1104518284522258e7 0.0
2.1104518284522258e7 -8.71133999477892e6 0.0
0.0 0.0 0.0

-2.4574272741111163e7 2.699152971445377e7 0.0
2.699152971445377e7 -1.3636548305074302e6 0.0
0.0 0.0 0.0

-5.5104905272811055e6 2.3870970348552797e7 0.0
2.3870970348552797e7 7.938886249990484e6 0.0
0.0 0.0 0.0

1.3468275323443407e7 2.0259844078476287e7 0.0
2.0259844078476287e7 3.4744697404050967e6 0.0
0.0 0.0 0.0

-2.197551802573582e6 1.4345135823508065e7 0.0
1.4345135823508065e7 -3.634521004235737e7 0.0
0.0 0.0 0.0

4.348163193486619e6 1.7832817049285542e7 0.0
1.7832817049285542e7 2.868542881525322e7 0.0
0.0 0.0 0.0

4.006223167698267e6 5.269324166470829e6 0.0
5.269324166470829e6 -2.3606990077779416e7 0.0
0.0 0.0 0.0

1.6085861397842001e6 2.1879219725025088e7 0.0
2.1879219725025088e7 -8.231458696152222e6 0.0
0.0 0.0 0.0

2.570562161755856e6 4.368588296128912e6 0.0
4.368588296128912e6 -4.383519192280366e7 0.0
0.0 0.0 0.0

328186.6712075891 2.1337749993900463e7 0.0
2.1337749993900463e7 -9.525937068952436e6 0.0
0.0 0.0 0.0

4.7309252497988865e6 2.504459543279379e7 0.0
2.504459543279379e7 -5.487653660951795e6 0.0
0.0 0.0 0.0

-2.637676043731286e6 2.01745706548908e7 0.0
2.01745706548908e7 1.133708835031825e6 0.0
0.0 0.0 0.0

-1.211425902812941e7 3.0059323447730284e7 0.0
3.0059323447730284e7 5.312556016103793e6 0.0
0.0 0.0 0.0

-6.209545410566038e6 1.8260423369772375e7 0.0
1.8260423369772375e7 2.333885886127401e7 0.0
0.0 0.0 0.0

828543.4680903701 1.7666088563449398e7 0.0
1.7666088563449398e7 9.017773436372725e6 0.0
0.0 0.0 0.0

-3.489777301031641e7 3.3060184113725953e7 0.0
3.3060184113725953e7 7.63189728797348e6 0.0
0.0 0.0 0.0

1.279823341520365e7 2.0689487260232512e7 0.0
2.0689487260232512e7 9.405636774228718e6 0.0
0.0 0.0 0.0

-6.085395167667519e6 1.1624100496070743e7 0.0
1.1624100496070743e7 6.743064045348703e6 0.0
0.0 0.0 0.0

-5.1486002356678825e6 2.737070749477289e7 0.0
2.737070749477289e7 4.953064702757343e6 0.0
0.0 0.0 0.0

-4.0704026778330905e6 2.0975823675988127e7 0.0
2.0975823675988127e7 -7.245474475148072e6 0.0
0.0 0.0 0.0

1.0789324119609091e6 1.4025649803313095e7 0.0
1.4025649803313095e7 -1.3340088418656461e7 0.0
0.0 0.0 0.0

3.963242208554847e6 1.9340521095807832e6 0.0
1.9340521095807832e6 -3.162631826358834e7 0.0
0.0 0.0 0.0

-1.4710924393377e6 1.6380762966952004e7 0.0
1.6380762966952004e7 -8.924007483581439e6 0.0
0.0 0.0 0.0

4.170859134569814e7 6.179434293284748e6 0.0
6.179434293284748e6 -1.7522507232871372e6 0.0
0.0 0.0 0.0

-5.946909038979026e6 1.7961299118247896e7 0.0
1.7961299118247896e7 2.433055431974424e7 0.0
0.0 0.0 0.0

-6.865723341200656e6 2.6925358896052323e7 0.0
2.6925358896052323e7 5.995145957764868e6 0.0
0.0 0.0 0.0

-8.73067875897013e6 -3.047217342221823e6 0.0
-3.047217342221823e6 3.577907859944584e7 0.0
0.0 0.0 0.0

-2.4568712975148433e6 3.126457775764861e7 0.0
3.126457775764861e7 837306.1543409737 0.0
0.0 0.0 0.0

-1.8884887848976806e7 2.406248709535968e7 0.0
2.406248709535968e7 264468.4413847467 0.0
0.0 0.0 0.0

189621.62582656275 1.7504613650593463e7 0.0
1.7504613650593463e7 -1.6186447546163877e7 0.0
0.0 0.0 0.0

3.5383820807814472e6 1.835948357330157e7 0.0
1.835948357330157e7 2.0149124461407166e7 0.0
0.0 0.0 0.0

-151209.03033734392 1.8314356585245077e7 0.0
1.8314356585245077e7 4.1647250735533657e6 0.0
0.0 0.0 0.0

-3.353892302872702e6 2.108989007110874e7 0.0
2.108989007110874e7 8.22119501626938e6 0.0
0.0 0.0 0.0

584132.4200380538 1.3440418279649545e7 0.0
1.3440418279649545e7 -1.4150074969964908e7 0.0
0.0 0.0 0.0

2.818357969057503e6 9.926255521010712e6 0.0
9.926255521010712e6 -1.9980187603816994e7 0.0
0.0 0.0 0.0

-548810.643605748 9.063536676487565e6 0.0
9.063536676487565e6 -6.011395835903032e6 0.0
0.0 0.0 0.0

-4.683532784454141e6 2.686059414424203e7 0.0
2.686059414424203e7 4.848357270599213e6 0.0
0.0 0.0 0.0

-888103.8203756204 1.674011033494537e7 0.0
1.674011033494537e7 -1.0180392991471365e7 0.0
0.0 0.0 0.0

1.6563830636567367e7 1.1830804773080457e7 0.0
1.1830804773080457e7 89599.97703545727 0.0
0.0 0.0 0.0

3.928671171196781e6 2.026648759337842e6 0.0
2.026648759337842e6 -3.1956380849498186e7 0.0
0.0 0.0 0.0

2.152645345262617e6 1.7761952075095262e7 0.0
1.7761952075095262e7 2.1115709539666545e7 0.0
0.0 0.0 0.0

298301.47476057755 8.837694987747427e6 0.0
8.837694987747427e6 -7.9534418685207e6 0.0
0.0 0.0 0.0

1.44830018490219e6 2.6280638578334894e7 0.0
2.6280638578334894e7 -3.716737462091623e6 0.0
0.0 0.0 0.0

-221488.83263098728 1.8638554619257145e7 0.0
1.8638554619257145e7 1.0378103715068106e7 0.0
0.0 0.0 0.0

-1.0549329920514181e7 7.012959375333866e6 0.0
7.012959375333866e6 3.529639727265975e7 0.0
0.0 0.0 0.0

-6.470482750258159e6 910128.5545370075 0.0
910128.5545370075 1.0189407771520153e7 0.0
0.0 0.0 0.0

5.086398223155292e6 2.4981290962101273e7 0.0
2.4981290962101273e7 -5.413055932787459e6 0.0
0.0 0.0 0.0

-4.8557864373388596e7 1.4830541806551944e7 0.0
1.4830541806551944e7 8.118910534991436e6 0.0
0.0 0.0 0.0

201279.02768779825 1.621498578086376e7 0.0
1.621498578086376e7 -1.9650841507438276e7 0.0
0.0 0.0 0.0

3.06747852948687e6 1.2714116751868596e7 0.0
1.2714116751868596e7 3.4824378114869725e6 0.0
0.0 0.0 0.0

-5.710762968799931e6 1.746278476890251e7 0.0
1.746278476890251e7 1.5797377229067754e7 0.0
0.0 0.0 0.0

-5.189638057311292e7 1.421594454933883e7 0.0
1.421594454933883e7 6.980092287442666e6 0.0
0.0 0.0 0.0

-1.6804011785577042e6 1.6423516182412803e7 0.0
1.6423516182412803e7 -2.0910038348782096e7 0.0
0.0 0.0 0.0

550566.2350571877 2.0662992538107943e7 0.0
2.0662992538107943e7 -1.0318367677295746e7 0.0
0.0 0.0 0.0

1.4686399244068915e6 5.361239511726625e6 0.0
5.361239511726625e6 -4.594269927472631e6 0.0
0.0 0.0 0.0

-8.991889601349868e6 2.2659608736528657e7 0.0
2.2659608736528657e7 -6.852891973283187e6 0.0
0.0 0.0 0.0

5.070142049349654e6 2.8702578215075687e7 0.0
2.8702578215075687e7 -4.4970784042283e6 0.0
0.0 0.0 0.0

-2.1075427065585502e6 2.8730701828904334e7 0.0
2.8730701828904334e7 548437.6344413133 0.0
0.0 0.0 0.0

-3.6307822685026573e6 2.0771860800444636e7 0.0
2.0771860800444636e7 4.515113881742233e6 0.0
0.0 0.0 0.0

-1.005360568331857e7 1.5229406223189585e7 0.0
1.5229406223189585e7 2.6206190663894106e7 0.0
0.0 0.0 0.0

-4.071577638916645e6 2.090127590652918e7 0.0
2.090127590652918e7 1.3931002494649261e7 0.0
0.0 0.0 0.0

-2.3151038558725873e6 3.050171405069953e7 0.0
3.050171405069953e7 767732.0744110114 0.0
0.0 0.0 0.0

1.158275265020119e6 1.1471466289362166e7 0.0
1.1471466289362166e7 -1.4774349257218178e7 0.0
0.0 0.0 0.0

-2.3758548559867484e6 2.993225585090137e7 0.0
2.993225585090137e7 634436.6332667314 0.0
0.0 0.0 0.0

4.120212508874548e6 2.0333823880464375e7 0.0
2.0333823880464375e7 1.3348670658066085e7 0.0
0.0 0.0 0.0

-1.1401105235121753e7 1.2843668748781875e7 0.0
1.2843668748781875e7 2.5392929521419358e7 0.0
0.0 0.0 0.0

3.4345262991005573e6 3.2809260099857077e6 0.0
3.2809260099857077e6 -3.3156876240169786e7 0.0
0.0 0.0 0.0

-8.840561173248783e6 2.440589248889213e7 0.0
2.440589248889213e7 5.976733596427994e6 0.0
0.0 0.0 0.0

-1.4451525058724058e6 2.3846746859595377e7 0.0
2.3846746859595377e7 -3.9676932334132683e6 0.0
0.0 0.0 0.0

-310548.9785417535 2.3702184837525137e7 0.0
2.3702184837525137e7 -4.786710923682097e6 0.0
0.0 0.0 0.0

-6.764973942053756e7 4.171193610274803e7 0.0
4.171193610274803e7 -2.339378913532565e7 0.0
0.0 0.0 0.0

497458.7522298414 1.8127387841183174e7 0.0
1.8127387841183174e7 -1.5171093229765875e7 0.0
0.0 0.0 0.0

-997662.2355054498 2.6138383433935244e7 0.0
2.6138383433935244e7 -795765.0794038833 0.0
0.0 0.0 0.0

-6.204442716040123e6 1.8441889066144872e7 0.0
1.8441889066144872e7 1.5325561578514576e7 0.0
0.0 0.0 0.0

-2.7991418506280515e7 2.217210848126169e7 0.0
2.217210848126169e7 6.631793999510612e6 0.0
0.0 0.0 0.0

803311.6498526036 1.7800858486216515e7 0.0
1.7800858486216515e7 362517.8100274046 0.0
0.0 0.0 0.0

1.8122080109294374e6 1.897908133982154e7 0.0
1.897908133982154e7 1.4822920755176943e7 0.0
0.0 0.0 0.0

3.4635940775022265e6 1.6544152296079139e6 0.0
1.6544152296079139e6 -4.017801194389928e7 0.0
0.0 0.0 0.0

-1.7632857597181883e7 3.4827496799456365e7 0.0
3.4827496799456365e7 7.90829813738604e6 0.0
0.0 0.0 0.0

-8.851034197058346e6 -1.4842015563445785e6 0.0
-1.4842015563445785e6 3.668478004569286e7 0.0
0.0 0.0 0.0

-8.83857247460021e6 31687.85092815519 0.0
31687.85092815519 4.283039268335079e7 0.0
0.0 0.0 0.0

-5.306753638312875e6 -197483.25009044237 0.0
-197483.25009044237 9.4777631567205e6 0.0
0.0 0.0 0.0

-1.0367364450836977e7 1.3449023379576366e7 0.0
1.3449023379576366e7 2.891144395525372e7 0.0
0.0 0.0 0.0

1.4341463932296925e6 1.6879212904609498e7 0.0
1.6879212904609498e7 1.0734378803093614e7 0.0
0.0 0.0 0.0

146125.0654631611 1.5502907255873429e7 0.0
1.5502907255873429e7 -2.2420559964864083e7 0.0
0.0 0.0 0.0

-3.637448130445631e7 4.3053718010392755e7 0.0
4.3053718010392755e7 8.157871708276141e6 0.0
0.0 0.0 0.0

-1.1011925499408862e7 1.353188525356048e7 0.0
1.353188525356048e7 2.5848764548657313e7 0.0
0.0 0.0 0.0

-2.3700295790162776e6 1.3985054699898802e7 0.0
1.3985054699898802e7 -3.803132571349605e7 0.0
0.0 0.0 0.0

-1.8285829046627235e7 2.3745642313361607e7 0.0
2.3745642313361607e7 486475.87942747865 0.0
0.0 0.0 0.0

-8.344805369583562e6 -321601.6760828298 0.0
-321601.6760828298 4.395871723223452e7 0.0
0.0 0.0 0.0

126030.90143421665 1.716050516100908e7 0.0
1.716050516100908e7 -1.4657256631358348e7 0.0
0.0 0.0 0.0

-6.691288372775574e6 1.666777514718869e7 0.0
1.666777514718869e7 -4.243292623172961e7 0.0
0.0 0.0 0.0

-2.4857724180194438e6 1.9721671610735964e7 0.0
1.9721671610735964e7 -6.630947022400773e6 0.0
0.0 0.0 0.0

-1.646723416416135e7 2.218916792874295e7 0.0
2.218916792874295e7 1.1394269321952201e6 0.0
0.0 0.0 0.0

4.159101286377423e7 2.4346058241040204e7 0.0
2.4346058241040204e7 8.501571317658318e6 0.0
0.0 0.0 0.0

-1.3034600801029988e6 1.45678184448694e7 0.0
1.45678184448694e7 -3.1527548932351833e6 0.0
0.0 0.0 0.0

1.0822291210037218e6 1.5964819016555117e7 0.0
1.5964819016555117e7 -1.6517650256056918e7 0.0
0.0 0.0 0.0

-2.2503015823016865e6 1.607764966558269e7 0.0
1.607764966558269e7 -1.2823865342499197e7 0.0
0.0 0.0 0.0

3.536853502961371e6 1.7750289242067132e6 0.0
1.7750289242067132e6 -4.0515926774666145e7 0.0
0.0 0.0 0.0

185101.14361564443 2.5401222808582764e7 0.0
2.5401222808582764e7 -3.414922817910833e6 0.0
0.0 0.0 0.0

-2.581896913349307e6 1.600515032980994e7 0.0
1.600515032980994e7 -2.2734299584791843e7 0.0
0.0 0.0 0.0

716575.1551398006 1.9734142550831333e7 0.0
1.9734142550831333e7 -1.0741720864203092e7 0.0
0.0 0.0 0.0

-463942.15011840966 1.8112194910806786e7 0.0
1.8112194910806786e7 1.6322330918404912e6 0.0
0.0 0.0 0.0

-5.361696632684985e6 1.1457834402472235e7 0.0
1.1457834402472235e7 9.398764686054114e6 0.0
0.0 0.0 0.0

-3.7609775538405096e6 2.080991846463498e7 0.0
2.080991846463498e7 7.788395437173122e6 0.0
0.0 0.0 0.0

-1.632243060012171e6 1.8434127592908327e7 0.0
1.8434127592908327e7 2.4188974532522272e7 0.0
0.0 0.0 0.0

4.213748721555786e6 2.337803837022545e6 0.0
2.337803837022545e6 -2.646607633619223e7 0.0
0.0 0.0 0.0

-1.5757818761714838e7 1.3200553438714866e7 0.0
1.3200553438714866e7 4.881516614671246e6 0.0
0.0 0.0 0.0

4.711226940197753e6 2.1422085095185477e7 0.0
2.1422085095185477e7 1.241417454924256e7 0.0
0.0 0.0 0.0

-1.1762165404565288e6 1.7126244512754112e7 0.0
1.7126244512754112e7 -1.5784407379808301e7 0.0
0.0 0.0 0.0

6.494898090934383e7 9.79344285781465e6 0.0
9.79344285781465e6 -497534.73022839054 0.0
0.0 0.0 0.0

468897.930506384 1.6295171264511507e7 0.0
1.6295171264511507e7 -1.9728613022424433e7 0.0
0.0 0.0 0.0

-566206.2097726124 2.4440400149799686e7 0.0
2.4440400149799686e7 -4.782336678269892e6 0.0
0.0 0.0 0.0

-2.9812377500756746e6 2.1733618626830325e7 0.0
2.1733618626830325e7 -250085.12488186697 0.0
0.0 0.0 0.0

5.439236560513621e6 1.8170931577105965e7 0.0
1.8170931577105965e7 5.417933743628617e7 0.0
0.0 0.0 0.0

-1.0471134126866948e7 1.2269646456148209e7 0.0
1.2269646456148209e7 3.0359055345725328e7 0.0
0.0 0.0 0.0

-8.621623129848411e6 -3.505108602723837e6 0.0
-3.505108602723837e6 3.539874096140111e7 0.0
0.0 0.0 0.0

-1.0566484530194938e7 5.479402937262089e6 0.0
5.479402937262089e6 3.651513594695819e7 0.0
0.0 0.0 0.0

-2.5858264248638568e6 2.7921044794211403e7 0.0
2.7921044794211403e7 1.097223476079382e6 0.0
0.0 0.0 0.0

2.0960923457847023e6 1.123047890318056e7 0.0
1.123047890318056e7 -2.1702292394925598e7 0.0
0.0 0.0 0.0

-3.5951740261278534e6 2.1982397399552085e7 0.0
2.1982397399552085e7 1.0371355552058678e7 0.0
0.0 0.0 0.0

450445.60782833956 1.859175810715055e7 0.0
1.859175810715055e7 -1.4162865308924502e7 0.0
0.0 0.0 0.0

-7.032361497209993e6 1.6722679594069317e7 0.0
1.6722679594069317e7 1.4310259358537547e7 0.0
0.0 0.0 0.0

-4.973314333003986e6 2.4192107386057913e7 0.0
2.4192107386057913e7 8.180117026666842e6 0.0
0.0 0.0 0.0

7.352149821483273e6 2.3405899393666625e7 0.0
2.3405899393666625e7 -4.859242284765331e6 0.0
0.0 0.0 0.0

-4.628972562767403e6 2.0367944700499218e7 0.0
2.0367944700499218e7 1.538262981362497e7 0.0
0.0 0.0 0.0

-3.6912203175157234e6 2.1249751789457504e7 0.0
2.1249751789457504e7 1.166626430783677e7 0.0
0.0 0.0 0.0

-3.174234290620789e6 1.6890577820708405e7 0.0
1.6890577820708405e7 -1.401179768489335e7 0.0
0.0 0.0 0.0

-1.1602082447894149e7 1.3527480300893432e7 0.0
1.3527480300893432e7 2.3754845129463732e7 0.0
0.0 0.0 0.0

-2.2668695408669016e6 2.7923612065955285e7 0.0
2.7923612065955285e7 2.1683957958058696e6 0.0
0.0 0.0 0.0

3.5646816065213103e6 4.753967577633902e6 0.0
4.753967577633902e6 -2.5085370495403085e7 0.0
0.0 0.0 0.0

-7.683746883828577e6 2.425339591777051e6 0.0
2.425339591777051e6 5.5296912604337364e7 0.0
0.0 0.0 0.0

-1.3194206862464517e6 1.9045482620888684e7 0.0
1.9045482620888684e7 -7.899831618618913e6 0.0
0.0 0.0 0.0

-2.6087323221638e6 2.8488983661097277e7 0.0
2.8488983661097277e7 1.1973888188881963e6 0.0
0.0 0.0 0.0

1.5702304360750392e6 1.308011970377702e7 0.0
1.308011970377702e7 -2.4501271440582957e7 0.0
0.0 0.0 0.0

-460137.10010186036 2.5605577369053133e7 0.0
2.5605577369053133e7 -3.7353763868756485e6 0.0
0.0 0.0 0.0

2.3248936082195453e6 9.734151603513421e6 0.0
9.734151603513421e6 -2.1717576632638086e7 0.0
0.0 0.0 0.0

-1.1425653026665326e7 1.1805709295975335e7 0.0
1.1805709295975335e7 2.6564467464667533e7 0.0
0.0 0.0 0.0

-5.5119634229462355e7 3.9903930840773106e7 0.0
3.9903930840773106e7 1.0062329076249383e7 0.0
0.0 0.0 0.0

-1.2850271035254786e7 2.3618301665536456e7 0.0
2.3618301665536456e7 -191607.03670723923 0.0
0.0 0.0 0.0

-3.8309409800278964e6 2.197479089792667e7 0.0
2.197479089792667e7 1.1413630411453439e7 0.0
0.0 0.0 0.0

-6.95387191013763e6 -6.773717967016484e6 0.0
-6.773717967016484e6 1.5743525523669597e7 0.0
0.0 0.0 0.0

-1.541385516440792e7 2.2412944135133956e7 0.0
2.2412944135133956e7 -2.059856812985572e6 0.0
0.0 0.0 0.0

-6.492676877526704e6 2.4730525365726266e7 0.0
2.4730525365726266e7 7.18641587599217e6 0.0
0.0 0.0 0.0

3.6722316434201133e6 3.094128821778925e6 0.0
3.094128821778925e6 -3.3928397589915216e7 0.0
0.0 0.0 0.0

-7.370223870136048e6 1.5417896859630639e7 0.0
1.5417896859630639e7 1.71577912097862e7 0.0
0.0 0.0 0.0

-1.0639302984683277e7 1.4090292306373939e7 0.0
1.4090292306373939e7 2.1576767680004176e7 0.0
0.0 0.0 0.0

3.1778976831120085e6 3.1905292925976016e7 0.0
3.1905292925976016e7 -1.5994967963840817e6 0.0
0.0 0.0 0.0

-1.137027570357434e7 881243.0806283945 0.0
881243.0806283945 1.874690382712544e7 0.0
0.0 0.0 0.0

-1.1137027263016073e7 1.4487708313737784e7 0.0
1.4487708313737784e7 2.448844550490566e7 0.0
0.0 0.0 0.0

-1.1678301184675829e6 2.903830948618527e7 0.0
2.903830948618527e7 1.0106079551322727e6 0.0
0.0 0.0 0.0

-8.475790348574843e6 91758.98561968577 0.0
91758.98561968577 4.571700786209158e7 0.0
0.0 0.0 0.0

-7.755138405593888e6 -4.385918541710554e6 0.0
-4.385918541710554e6 1.8302951287017904e7 0.0
0.0 0.0 0.0

3.1743540260417517e6 7.228379908802949e6 0.0
7.228379908802949e6 -2.3883389973855134e7 0.0
0.0 0.0 0.0

-3.5170500284516616e6 2.113911470192412e7 0.0
2.113911470192412e7 8.816279966733152e6 0.0
0.0 0.0 0.0

-1.0368040145899044e7 1.4163396143063193e7 0.0
1.4163396143063193e7 2.683943800610283e7 0.0
0.0 0.0 0.0

41069.54769723676 1.807817052842141e7 0.0
1.807817052842141e7 -1.388723287841792e7 0.0
0.0 0.0 0.0

768876.6701122122 1.727331465280295e7 0.0
1.727331465280295e7 -1.465085612041157e7 0.0
0.0 0.0 0.0

2.1482752889712946e6 1.0958588506019505e7 0.0
1.0958588506019505e7 -2.315073373876579e7 0.0
0.0 0.0 0.0

222938.32960332092 1.586101696816905e7 0.0
1.586101696816905e7 -2.1064070749957446e7 0.0
0.0 0.0 0.0

725230.5312072351 1.8201141323331647e7 0.0
1.8201141323331647e7 7.352457905551134e6 0.0
0.0 0.0 0.0

-1.023838892766453e7 1.5259745809848012e7 0.0
1.5259745809848012e7 2.5547735320989262e7 0.0
0.0 0.0 0.0

-350920.9725186711 2.4927984334342707e7 0.0
2.4927984334342707e7 -4.60601628321489e6 0.0
0.0 0.0 0.0

-5.040363663419455e6 2.6711128441620763e7 0.0
2.6711128441620763e7 5.5376653396049645e6 0.0
0.0 0.0 0.0

-1.7651071101958347e6 2.8234267848408893e7 0.0
2.8234267848408893e7 1.5898060780929916e6 0.0
0.0 0.0 0.0

1.3173066733040377e7 2.2969881909073368e7 0.0
2.2969881909073368e7 6.514171153027257e7 0.0
0.0 0.0 0.0

-3.045308729992633e6 2.1496330223586045e7 0.0
2.1496330223586045e7 7.386943365593618e6 0.0
0.0 0.0 0.0

934958.7774510356 1.6475944930601584e7 0.0
1.6475944930601584e7 -1.544631406134223e7 0.0
0.0 0.0 0.0

-488477.8561317595 1.655183363519998e7 0.0
1.655183363519998e7 -1.9648748917006698e7 0.0
0.0 0.0 0.0

1.0263119476378039e6 1.623825806739119e7 0.0
1.623825806739119e7 -1.6826032137195095e7 0.0
0.0 0.0 0.0

399751.0475566498 2.764988652347754e7 0.0
2.764988652347754e7 -1.7665404987499719e6 0.0
0.0 0.0 0.0

-3.7133423312327694e6 2.0514298380609673e7 0.0
2.0514298380609673e7 6.807622508994517e6 0.0
0.0 0.0 0.0

-44836.96332243434 1.736782327952974e7 0.0
1.736782327952974e7 2.6695406132072364e6 0.0
0.0 0.0 0.0

-693112.304111938 1.7466506138082303e7 0.0
1.7466506138082303e7 -1.5207625051421e7 0.0
0.0 0.0 0.0

-6.427251682229844e6 1.2112493926943837e7 0.0
1.2112493926943837e7 8.26143597297512e6 0.0
0.0 0.0 0.0

3.6749385105111874e6 3.6822727189880885e7 0.0
3.6822727189880885e7 -4.7534930752448235e6 0.0
0.0 0.0 0.0

2.6201632135026623e6 3.8608748598273383e6 0.0
3.8608748598273383e6 -4.8102326951534815e7 0.0
0.0 0.0 0.0

8.854546202142966e7 3.421017142903823e7 0.0
3.421017142903823e7 2.0194584592934884e7 0.0
0.0 0.0 0.0

3.7952630408717394e7 3.656056723921892e7 0.0
3.656056723921892e7 -1.785093997371318e7 0.0
0.0 0.0 0.0

-1.7749812855988862e6 1.8908042424102064e7 0.0
1.8908042424102064e7 1.6544421671006663e7 0.0
0.0 0.0 0.0

1.34035516529639e6 1.8624484881253093e7 0.0
1.8624484881253093e7 9.460861926940242e6 0.0
0.0 0.0 0.0

-2.361521637870268e7 2.417937534726793e7 0.0
2.417937534726793e7 390330.15699910093 0.0
0.0 0.0 0.0

-5.584306385647743e7 2.76769230772024e7 0.0
2.76769230772024e7 1.8695033004301153e6 0.0
0.0 0.0 0.0

-7.293615520844574e6 1.2154725271049745e7 0.0
1.2154725271049745e7 1.355134925284715e7 0.0
0.0 0.0 0.0

-1.1419286951767309e6 2.452733560107032e7 0.0
2.452733560107032e7 -1.9154059825876998e6 0.0
0.0 0.0 0.0

1.1518115766401337e6 1.541962787734946e7 0.0
1.541962787734946e7 -1.7563363103559535e7 0.0
0.0 0.0 0.0

2.2383196828893665e6 7.402105005214412e6 0.0
7.402105005214412e6 -4.3744579931617185e7 0.0
0.0 0.0 0.0

662920.8739385009 1.5620608242987603e7 0.0
1.5620608242987603e7 -1.7877681643488754e7 0.0
0.0 0.0 0.0

-1.7570881592208687e6 1.4029475888377886e7 0.0
1.4029475888377886e7 -3.387571244032177e7 0.0
0.0 0.0 0.0

-1.1140222666233627e7 1.418222939640105e7 0.0
1.418222939640105e7 1.9650096586608108e7 0.0
0.0 0.0 0.0

-107968.1388069028 1.8247789234988473e7 0.0
1.8247789234988473e7 2.2307638316467e7 0.0
0.0 0.0 0.0

313586.33853217796 1.7037845201981865e7 0.0
1.7037845201981865e7 6.691235767577256e6 0.0
0.0 0.0 0.0

-1.139696892288262e7 7.085957101282533e6 0.0
7.085957101282533e6 6.253940433390184e6 0.0
0.0 0.0 0.0

-1.0521501054134453e7 4.0553624838566366e6 0.0
4.0553624838566366e6 3.595943461914825e7 0.0
0.0 0.0 0.0

-3.1729964751780885e6 2.4500809937450524e7 0.0
2.4500809937450524e7 5.720557290959059e6 0.0
0.0 0.0 0.0

-1.2603655183476545e6 1.8691357815648004e7 0.0
1.8691357815648004e7 2.45557282818402e7 0.0
0.0 0.0 0.0

-5.490491619696306e6 1.7105536384996146e7 0.0
1.7105536384996146e7 1.4892395855080634e7 0.0
0.0 0.0 0.0

-5.193770097300971e6 2.720833145595775e6 0.0
2.720833145595775e6 4.6545453244916815e6 0.0
0.0 0.0 0.0

-5.2196860594227165e6 1.1849221277706701e7 0.0
1.1849221277706701e7 5.774757512434717e7 0.0
0.0 0.0 0.0

-2.8018254847201966e6 1.979628034158189e7 0.0
1.979628034158189e7 1.9341078124062533e6 0.0
0.0 0.0 0.0

-247612.44124016794 2.4251900340612732e7 0.0
2.4251900340612732e7 -5.492788160908494e6 0.0
0.0 0.0 0.0

-1.2285494773285128e6 1.821797377290512e7 0.0
1.821797377290512e7 2.5237257441678956e7 0.0
0.0 0.0 0.0

-5.866189143474773e6 1.1998899438185299e7 0.0
1.1998899438185299e7 1.081893983773788e7 0.0
0.0 0.0 0.0

5.251554148191683e6 2.4057600322321303e7 0.0
2.4057600322321303e7 -5.580824117968468e6 0.0
0.0 0.0 0.0

-5.9625243515928835e6 4.331972635901353e6 0.0
4.331972635901353e6 6.3065705802369475e7 0.0
0.0 0.0 0.0

5.431515973814681e6 2.2202955320837438e7 0.0
2.2202955320837438e7 -5.315030079477791e6 0.0
0.0 0.0 0.0

-2.2732407385193026e6 2.845007718930687e7 0.0
2.845007718930687e7 2.3139645030885395e6 0.0
0.0 0.0 0.0

-4.4206792635578e6 1.5604925399330623e7 0.0
1.5604925399330623e7 -2.0442038131967362e7 0.0
0.0 0.0 0.0

-4.41587429650787e6 1.9792080077743094e7 0.0
1.9792080077743094e7 1.6258578417766258e7 0.0
0.0 0.0 0.0

-1.1214973102646358e7 1.225246876916957e7 0.0
1.225246876916957e7 2.7655308003808036e7 0.0
0.0 0.0 0.0

2.5074741286911764e6 2.7166498437318806e7 0.0
2.7166498437318806e7 -3.734542151001281e6 0.0
0.0 0.0 0.0

2.9045242866443777e6 5.432138800400853e6 0.0
5.432138800400853e6 -9.823735003842851e6 0.0
0.0 0.0 0.0

-857735.0813814728 3.456956556403129e7 0.0
3.456956556403129e7 -1.3358278335940624e6 0.0
0.0 0.0 0.0

3.16376705071605e6 2.0167563528520677e7 0.0
2.0167563528520677e7 6.8940061361356815e6 0.0
0.0 0.0 0.0

-1.375894412638511e6 2.2580663775518134e7 0.0
2.2580663775518134e7 -3.631180491128721e6 0.0
0.0 0.0 0.0

3.104073670192547e6 5.344841306033861e6 0.0
5.344841306033861e6 -3.365665732909176e7 0.0
0.0 0.0 0.0

-1.9282654886667272e6 1.9774216033086967e7 0.0
1.9774216033086967e7 -9.113187254584642e6 0.0
0.0 0.0 0.0

5.548301690327436e6 2.1072850982720137e7 0.0
2.1072850982720137e7 1.2501456206242086e7 0.0
0.0 0.0 0.0

-1.8187201546932952e6 2.6611857214066125e7 0.0
2.6611857214066125e7 1.2718437136849067e6 0.0
0.0 0.0 0.0

3.0077112854001857e6 1.8674794563481156e7 0.0
1.8674794563481156e7 2.5085614136821695e7 0.0
0.0 0.0 0.0

-3.0202389834713517e6 1.7974290734695594e6 0.0
1.7974290734695594e6 6.063467145572115e6 0.0
0.0 0.0 0.0

-2.6885956543285474e6 1.7634352513687924e7 0.0
1.7634352513687924e7 2.998281983632601e7 0.0
0.0 0.0 0.0

-6.917444099366771e6 2.2758465915293716e7 0.0
2.2758465915293716e7 4.455380405347431e6 0.0
0.0 0.0 0.0

5.775881559999785e6 2.2953669457032878e7 0.0
2.2953669457032878e7 -5.292610296595883e6 0.0
0.0 0.0 0.0

1.7621163163561858e6 2.175575810106887e7 0.0
2.175575810106887e7 -8.028910434162728e6 0.0
0.0 0.0 0.0

5.616974426908326e6 2.849788362112064e7 0.0
2.849788362112064e7 -4.451484514417866e6 0.0
0.0 0.0 0.0

400716.918189924 1.5991307541016325e7 0.0
1.5991307541016325e7 4.688679739737682e6 0.0
0.0 0.0 0.0

-4.0979208905080045e6 2.2685636694527883e7 0.0
2.2685636694527883e7 1.040631487202928e7 0.0
0.0 0.0 0.0

2.5685838195952526e6 2.940341751919266e7 0.0
2.940341751919266e7 -3.6116076173338853e6 0.0
0.0 0.0 0.0

-6.688193682042736e6 1.6119424546845105e7 0.0
1.6119424546845105e7 -4.221395407410985e7 0.0
0.0 0.0 0.0

-8.3548765052422285e6 9.744454817003869e6 0.0
9.744454817003869e6 1.0956233945264641e7 0.0
0.0 0.0 0.0

468731.3658671146 1.787090383797148e7 0.0
1.787090383797148e7 8.301556430533429e6 0.0
0.0 0.0 0.0

2.652300983107998e6 2.787956763560227e7 0.0
2.787956763560227e7 -4.304610308387587e6 0.0
0.0 0.0 0.0

-946753.719936328 1.787110667241193e7 0.0
1.787110667241193e7 -1.5742933058649225e7 0.0
0.0 0.0 0.0

4.160200776568344e6 3.584957141040956e6 0.0
3.584957141040956e6 -2.3773826797516678e7 0.0
0.0 0.0 0.0

-7.11432351013837e6 -504665.05250024586 0.0
-504665.05250024586 5.828632818085345e7 0.0
0.0 0.0 0.0

1.303905595616499e6 1.314832312047247e7 0.0
1.314832312047247e7 -2.604587511982134e7 0.0
0.0 0.0 0.0

1.3406170570917598e6 1.9384608122110087e7 0.0
1.9384608122110087e7 1.0823694632578928e7 0.0
0.0 0.0 0.0

-9.704170792924862e6 1.4849745783995194e7 0.0
1.4849745783995194e7 2.065662351797349e7 0.0
0.0 0.0 0.0

6.51945395763081e6 2.263454020011308e7 0.0
2.263454020011308e7 -4.777532073271025e6 0.0
0.0 0.0 0.0

3.207312912207518e6 5.863198103885108e6 0.0
5.863198103885108e6 -2.0209562406737894e7 0.0
0.0 0.0 0.0

2.912589118194717e6 1.974206210411366e7 0.0
1.974206210411366e7 -2.9008929740374824e6 0.0
0.0 0.0 0.0

5.768571593050267e6 2.1719967923664633e7 0.0
2.1719967923664633e7 1.1684516991361788e7 0.0
0.0 0.0 0.0

8.396959956821175e6 3.6067241385581195e7 0.0
3.6067241385581195e7 -7.156960116084751e6 0.0
0.0 0.0 0.0

1.8558411419790527e6 2.1462441325470228e7 0.0
2.1462441325470228e7 -8.172715313123784e6 0.0
0.0 0.0 0.0

400230.4927424975 1.736150638614795e7 0.0
1.736150638614795e7 3.9985152165667765e7 0.0
0.0 0.0 0.0

4.1281478894904256e6 2.0984842077127113e6 0.0
2.0984842077127113e6 -3.032945683131121e7 0.0
0.0 0.0 0.0

-23021.365301625337 2.869266893989603e7 0.0
2.869266893989603e7 -1.9779536062869127e6 0.0
0.0 0.0 0.0

4.296722217488207e6 1.889934903183973e7 0.0
1.889934903183973e7 3.451411731474514e6 0.0
0.0 0.0 0.0

-6.181620572891902e7 1.7498876950975116e7 0.0
1.7498876950975116e7 4.782737124158196e6 0.0
0.0 0.0 0.0

-5.980209298762307e6 2.4568443854989674e7 0.0
2.4568443854989674e7 7.719182942182901e6 0.0
0.0 0.0 0.0

-7.298195438481714e6 8.900846282723373e6 0.0
8.900846282723373e6 1.2377442724770477e7 0.0
0.0 0.0 0.0

138508.08802986145 1.5855099986263575e7 0.0
1.5855099986263575e7 -2.251425973384534e7 0.0
0.0 0.0 0.0

-2.48039081080437e6 1.910845303177267e7 0.0
1.910845303177267e7 1.4391789559634943e7 0.0
0.0 0.0 0.0

-2.4607197747321324e6 1.5699231554623593e7 0.0
1.5699231554623593e7 -2.9818569676823087e7 0.0
0.0 0.0 0.0

3.718604953486273e6 2.815544657710655e6 0.0
2.815544657710655e6 -3.937181383016322e7 0.0
0.0 0.0 0.0

4.858905746970534e7 1.7672457002449065e7 0.0
1.7672457002449065e7 3.4469515977273528e6 0.0
0.0 0.0 0.0

-1.1157429180638559e8 4.317748204205185e7 0.0
4.317748204205185e7 -1.4938959661293559e7 0.0
0.0 0.0 0.0

1.1524890094087467e7 1.9851973164101068e7 0.0
1.9851973164101068e7 7.472548777133577e6 0.0
0.0 0.0 0.0

-158902.14189134166 2.2046644035872098e7 0.0
2.2046644035872098e7 -8.292590155582484e6 0.0
0.0 0.0 0.0

-3.8513127992105084e6 2.0695683107263256e7 0.0
2.0695683107263256e7 1.3376823655170277e7 0.0
0.0 0.0 0.0

3.9596934637195785e6 3.5971810051647313e6 0.0
3.5971810051647313e6 -2.332998718849729e7 0.0
0.0 0.0 0.0

-6.964731705428902e6 2.286309982412643e7 0.0
2.286309982412643e7 6.286128137234351e6 0.0
0.0 0.0 0.0

1.6930827487536753e6 2.943531929030166e7 0.0
2.943531929030166e7 -1.645813241571126e6 0.0
0.0 0.0 0.0

-2.6144900890498646e6 1.668870924610284e7 0.0
1.668870924610284e7 -2.305780867523438e7 0.0
0.0 0.0 0.0

-1.7072841280214693e6 2.2268647123933464e7 0.0
2.2268647123933464e7 -4.904814934261734e6 0.0
0.0 0.0 0.0

2.100761455169499e6 5.403144491997405e6 0.0
5.403144491997405e6 -6.714801037316342e6 0.0
0.0 0.0 0.0

8.62725379539681e6 2.132321542477665e7 0.0
2.132321542477665e7 1.1718874154337132e7 0.0
0.0 0.0 0.0

-1.0071847260189632e7 2.1825257268393844e7 0.0
2.1825257268393844e7 -1.9386104387916997e6 0.0
0.0 0.0 0.0

404959.87354405783 1.8243110837416384e7 0.0
1.8243110837416384e7 -1.2638044847733708e7 0.0
0.0 0.0 0.0

-2.894823196615274e6 2.3016631149673022e7 0.0
2.3016631149673022e7 886336.8870082104 0.0
0.0 0.0 0.0

1.0910257709241044e6 1.3296854158738978e7 0.0
1.3296854158738978e7 -2.4832166858522467e7 0.0
0.0 0.0 0.0

-8.358816415967567e6 262773.7258893863 0.0
262773.7258893863 4.679778090813294e7 0.0
0.0 0.0 0.0

498626.82724470366 1.6117150255602084e7 0.0
1.6117150255602084e7 -1.6750195013180058e7 0.0
0.0 0.0 0.0

3.1869073045277293e6 1.8753154420300588e7 0.0
1.8753154420300588e7 -478122.5508797951 0.0
0.0 0.0 0.0

-1.31598485910961e7 1.9374214730762232e7 0.0
1.9374214730762232e7 -5.397889825059418e7 0.0
0.0 0.0 0.0

3.6780015521333236e6 6.518213124682394e6 0.0
6.518213124682394e6 -2.3191762482437477e7 0.0
0.0 0.0 0.0

649405.2789037665 1.7537144963233203e7 0.0
1.7537144963233203e7 -1.632138013967765e7 0.0
0.0 0.0 0.0

-4.717974248591671e6 2.38227537228651e7 0.0
2.38227537228651e7 8.722384214796137e6 0.0
0.0 0.0 0.0

-1.3834574754496876e6 2.5951442512992613e7 0.0
2.5951442512992613e7 -1.935789884183724e6 0.0
0.0 0.0 0.0

-3.356015574398221e6 2.1705407779389516e7 0.0
2.1705407779389516e7 9.859646723320499e6 0.0
0.0 0.0 0.0

4.353488937666033e6 1.9755316460178215e7 0.0
1.9755316460178215e7 7.528412680178268e6 0.0
0.0 0.0 0.0

-7.671714044499406e7 2.3335697987549298e7 0.0
2.3335697987549298e7 1.783654082497917e6 0.0
0.0 0.0 0.0

-91605.5443802705 1.7990271942868643e6 0.0
1.7990271942868643e6 -1.0679086914062037e6 0.0
0.0 0.0 0.0

-1.1422359131031109e6 1.61010470951004e7 0.0
1.61010470951004e7 -1.782682912295272e6 0.0
0.0 0.0 0.0

1.0678696396300118e7 1.942100907958107e7 0.0
1.942100907958107e7 2.0271048494474818e6 0.0
0.0 0.0 0.0

-1.1672322682072257e6 3.0887676420282505e7 0.0
3.0887676420282505e7 1.2936407894040085e6 0.0
0.0 0.0 0.0

-1.820286164479034e6 1.4261763359453544e7 0.0
1.4261763359453544e7 -3.6197321350673884e7 0.0
0.0 0.0 0.0

-2.3343531823059195e6 1.9712313103366766e7 0.0
1.9712313103366766e7 -6.740449086689357e6 0.0
0.0 0.0 0.0

2.434667154031794e6 2.26367321749084e7 0.0
2.26367321749084e7 -7.084214924179504e6 0.0
0.0 0.0 0.0

1.0917280455301665e6 1.4787279706723807e7 0.0
1.4787279706723807e7 -1.4531897131557815e7 0.0
0.0 0.0 0.0

2.437032429301539e6 2.196424961682836e7 0.0
2.196424961682836e7 -7.068418912659285e6 0.0
0.0 0.0 0.0

115796.78014185373 1.8401643117485836e7 0.0
1.8401643117485836e7 8.326186326358254e6 0.0
0.0 0.0 0.0

-831676.6823684506 2.5718348689230762e7 0.0
2.5718348689230762e7 -1.5664281694037751e6 0.0
0.0 0.0 0.0

2.949910748994585e6 9.278507371464271e6 0.0
9.278507371464271e6 -2.263512837771141e7 0.0
0.0 0.0 0.0

3.6664737842455674e6 3.0914041014340767e6 0.0
3.0914041014340767e6 -3.431743079158381e7 0.0
0.0 0.0 0.0

-1.6910296585365431e6 665861.3079926634 0.0
665861.3079926634 -695015.5043458585 0.0
0.0 0.0 0.0

-9.35832717265664e6 491115.8282267172 0.0
491115.8282267172 2.240464219732578e6 0.0
0.0 0.0 0.0

2.372971802557894e6 1.968688779026915e7 0.0
1.968688779026915e7 1.3210104401777687e7 0.0
0.0 0.0 0.0

1.4751091823908028e6 1.737025844783057e7 0.0
1.737025844783057e7 1.0529263327848338e7 0.0
0.0 0.0 0.0

-310396.22210367303 1.8271237844842102e7 0.0
1.8271237844842102e7 8.376810658589642e6 0.0
0.0 0.0 0.0

3.0175982791643245e6 5.122837495221175e6 0.0
5.122837495221175e6 -1.5325583743919104e7 0.0
0.0 0.0 0.0

2.5958037905906215e6 2.0898303223678235e7 0.0
2.0898303223678235e7 -6.7638944854626525e6 0.0
0.0 0.0 0.0

2.381645305159753e6 4.301196602282355e6 0.0
4.301196602282355e6 -7.799274779542711e6 0.0
0.0 0.0 0.0

1.9849514512115126e6 2.200800883242602e7 0.0
2.200800883242602e7 -7.647918298321386e6 0.0
0.0 0.0 0.0

-9.3841902515996e6 1.5938734865388155e7 0.0
1.5938734865388155e7 2.638619757030851e7 0.0
0.0 0.0 0.0

247156.81107954285 2.4740477839129034e7 0.0
2.4740477839129034e7 -4.311960362350721e6 0.0
0.0 0.0 0.0

3.215366280339265e6 2.8495992455102984e7 0.0
2.8495992455102984e7 -3.001007775530192e6 0.0
0.0 0.0 0.0

3.065520493122955e6 7.150352157610469e6 0.0
7.150352157610469e6 -2.415226776870157e7 0.0
0.0 0.0 0.0

3.2485151985399425e6 5.946366503465259e6 0.0
5.946366503465259e6 -2.4660110671018437e7 0.0
0.0 0.0 0.0

1.29756537238958e7 2.085414229921128e7 0.0
2.085414229921128e7 -700142.098207565 0.0
0.0 0.0 0.0

-3852.332654118538 1.885286682150362e7 0.0
1.885286682150362e7 2.1994745671601057e7 0.0
0.0 0.0 0.0

271377.10901255906 1.6653192164805455e7 0.0
1.6653192164805455e7 -1.5706934806891166e7 0.0
0.0 0.0 0.0

-8.42232892997927e6 -3.3090468645200944e6 0.0
-3.3090468645200944e6 3.652428179544226e7 0.0
0.0 0.0 0.0

-1.227248424824718e6 2.961379351122459e7 0.0
2.961379351122459e7 1.0288783729034248e6 0.0
0.0 0.0 0.0

-1.077930404011209e7 1.4622635182429815e7 0.0
1.4622635182429815e7 2.4774743068876974e7 0.0
0.0 0.0 0.0

-7.578569096479672e6 -4.0202899218879244e6 0.0
-4.0202899218879244e6 1.3184868307521665e7 0.0
0.0 0.0 0.0

-172636.95358320884 1.6475961013534145e7 0.0
1.6475961013534145e7 -9.7705146984136e6 0.0
0.0 0.0 0.0

3.800800312772425e6 3.1663780549304024e6 0.0
3.1663780549304024e6 -3.3066183317893397e7 0.0
0.0 0.0 0.0

-4.312813472662266e6 2.7123929749928378e7 0.0
2.7123929749928378e7 5.246213099115561e6 0.0
0.0 0.0 0.0

-1.1215583932095177e6 2.2047299811974056e7 0.0
2.2047299811974056e7 -4.576116061234916e6 0.0
0.0 0.0 0.0

1.1688139881979153e6 1.2841310150824642e7 0.0
1.2841310150824642e7 -2.620919524672872e7 0.0
0.0 0.0 0.0

1.3777929390068388e7 1.894890942622123e7 0.0
1.894890942622123e7 4.402385086865236e6 0.0
0.0 0.0 0.0

-4.950100922258053e6 2.6255512647037666e7 0.0
2.6255512647037666e7 6.224615321029664e6 0.0
0.0 0.0 0.0

-9.354121259221848e6 -2.15804349290289e6 0.0
-2.15804349290289e6 3.475432841492473e7 0.0
0.0 0.0 0.0

-8.998337910121368e6 -5.06277429234644e6 0.0
-5.06277429234644e6 2.65094590029675e7 0.0
0.0 0.0 0.0

4.392090371450281e6 1.909749887220527e7 0.0
1.909749887220527e7 -109589.92736199684 0.0
0.0 0.0 0.0

170817.4345895527 2.1903881771447025e7 0.0
2.1903881771447025e7 -8.073359031400121e6 0.0
0.0 0.0 0.0

443456.4481615401 2.243478663539624e7 0.0
2.243478663539624e7 -7.648898728262063e6 0.0
0.0 0.0 0.0

-7.058156547943648e6 6.201311556791066e6 0.0
6.201311556791066e6 5.188651459990807e7 0.0
0.0 0.0 0.0

3.549490857616432e6 2.9529307808552776e6 0.0
2.9529307808552776e6 -1.167414776608327e7 0.0
0.0 0.0 0.0

-7.095918158038972e6 2.1741633534010176e7 0.0
2.1741633534010176e7 -2.1177169393520104e6 0.0
0.0 0.0 0.0

-1.2108566842101552e7 2.2186685314401656e7 0.0
2.2186685314401656e7 -6.955941280568858e6 0.0
0.0 0.0 0.0

-2.7127935538586527e7 2.6827650903655827e7 0.0
2.6827650903655827e7 -1.9775682221880862e6 0.0
0.0 0.0 0.0

332232.3912560516 2.9917706865681536e7 0.0
2.9917706865681536e7 -354386.77400603774 0.0
0.0 0.0 0.0

479364.4831773127 1.6762007818980666e7 0.0
1.6762007818980666e7 685637.6932430138 0.0
0.0 0.0 0.0

-9.053171044587964e6 -1.485958398744235e6 0.0
-1.485958398744235e6 3.68390791008457e7 0.0
0.0 0.0 0.0

1.0871425668042675e7 2.060764395017848e7 0.0
2.060764395017848e7 -547106.6956163472 0.0
0.0 0.0 0.0

-116100.36194062838 1.812524144722157e7 0.0
1.812524144722157e7 -1.0334511941870527e7 0.0
0.0 0.0 0.0

-9.7660845100186e6 -1.4663851109940233e6 0.0
-1.4663851109940233e6 2.8501759909232218e7 0.0
0.0 0.0 0.0

-3.9480757617036477e6 2.213772110584524e7 0.0
2.213772110584524e7 8.879922362789227e6 0.0
0.0 0.0 0.0

-3.909254236024766e6 2.3413607194888692e7 0.0
2.3413607194888692e7 7.918272011484325e6 0.0
0.0 0.0 0.0

-4.406181702512687e6 1.0024494083866539e6 0.0
1.0024494083866539e6 4.518146195992218e6 0.0
0.0 0.0 0.0

3.439244248539338e6 5.173676305593802e6 0.0
5.173676305593802e6 -2.5626526976672553e7 0.0
0.0 0.0 0.0

1.003742198703235e6 8.227587816651697e6 0.0
8.227587816651697e6 -4.4888922112365164e7 0.0
0.0 0.0 0.0

5.812205127959942e6 2.1133323392020278e7 0.0
2.1133323392020278e7 1.205568332694941e7 0.0
0.0 0.0 0.0

2.8100652807806213e6 4.435051397251454e6 0.0
4.435051397251454e6 -1.0514601477052275e7 0.0
0.0 0.0 0.0

1.704893370500006e7 2.769810836975709e7 0.0
2.769810836975709e7 -7.9233277116452325e6 0.0
0.0 0.0 0.0

4.1347796177563015e6 4.500544509062668e6 0.0
4.500544509062668e6 -2.44200868206413e7 0.0
0.0 0.0 0.0

3.9314350631726263e6 5.016760310448195e6 0.0
5.016760310448195e6 -1.696142247290123e7 0.0
0.0 0.0 0.0

3.630227597524315e6 4.8213273237918075e6 0.0
4.8213273237918075e6 -2.172147435870038e7 0.0
0.0 0.0 0.0

697456.9818935787 1.770187124153502e7 0.0
1.770187124153502e7 2.336456152870155e6 0.0
0.0 0.0 0.0

975075.5299978701 1.7282883737767532e7 0.0
1.7282883737767532e7 8.043398517544781e6 0.0
0.0 0.0 0.0

458061.79762664344 1.494279149776591e7 0.0
1.494279149776591e7 -2.3711238031492922e7 0.0
0.0 0.0 0.0

1.5915324441053715e7 2.875204657542081e7 0.0
2.875204657542081e7 -6.579298093838945e6 0.0
0.0 0.0 0.0

-9.524860018244123e6 -2.8918588478732193e6 0.0
-2.8918588478732193e6 2.8310470179397825e7 0.0
0.0 0.0 0.0

-3.80646249198276e6 2.235320034343021e7 0.0
2.235320034343021e7 1.047433323322248e7 0.0
0.0 0.0 0.0

-2.1415145996912625e6 2.932022658271828e7 0.0
2.932022658271828e7 584686.3267549792 0.0
0.0 0.0 0.0

-110189.98134663096 2.4849945929016203e7 0.0
2.4849945929016203e7 -3.680974661283392e6 0.0
0.0 0.0 0.0

-7.921876050876091e6 -4.453533166876449e6 0.0
-4.453533166876449e6 1.9347553019146647e7 0.0
0.0 0.0 0.0

-9.08593686506714e6 -1.6856230076567496e6 0.0
-1.6856230076567496e6 1.3263252905934026e7 0.0
0.0 0.0 0.0

1.373861110901405e6 1.8849104567727875e7 0.0
1.8849104567727875e7 2.0832374068003155e7 0.0
0.0 0.0 0.0

-1.5570608385579179e6 533195.0002961692 0.0
533195.0002961692 1.359119052338575e6 0.0
0.0 0.0 0.0

5.437845619835954e6 2.2998092424274933e7 0.0
2.2998092424274933e7 -5.294321830475997e6 0.0
0.0 0.0 0.0

-120427.22081598407 2.087075421771715e7 0.0
2.087075421771715e7 -9.755958008083882e6 0.0
0.0 0.0 0.0

431933.6071671704 1.741415103405644e7 0.0
1.741415103405644e7 -1.727522409254249e7 0.0
0.0 0.0 0.0

-2.3485746876724926e6 2.135571621543379e7 0.0
2.135571621543379e7 421783.68642793933 0.0
0.0 0.0 0.0

-4.0854855790081117e6 2.1403413561594926e7 0.0
2.1403413561594926e7 9.390436621949729e6 0.0
0.0 0.0 0.0

-1.0528934726557408e7 1.46440920252653e7 0.0
1.46440920252653e7 2.206313923157504e7 0.0
0.0 0.0 0.0

-1.8644739118728288e7 3.704722907186697e7 0.0
3.704722907186697e7 5.963815599086128e6 0.0
0.0 0.0 0.0

3.018079569300726e6 4.364369738842932e6 0.0
4.364369738842932e6 -1.072133029011592e7 0.0
0.0 0.0 0.0

729672.4871393014 1.698410461959354e7 0.0
1.698410461959354e7 -1.4424736261196656e7 0.0
0.0 0.0 0.0

2.7979941535938606e6 3.9565702459453535e6 0.0
3.9565702459453535e6 -4.798125067001244e7 0.0
0.0 0.0 0.0

2.0914784911811016e6 2.2424826587604307e7 0.0
2.2424826587604307e7 -7.4285756977584995e6 0.0
0.0 0.0 0.0

-7.502700401778037e6 1.1902837381743072e7 0.0
1.1902837381743072e7 1.1613746005284965e7 0.0
0.0 0.0 0.0

-7.2840100175539665e6 1.5835895238820316e7 0.0
1.5835895238820316e7 -3.042819084089936e7 0.0
0.0 0.0 0.0

2.808773130077531e7 1.969585614010859e7 0.0
1.969585614010859e7 5.81641001436121e6 0.0
0.0 0.0 0.0

-9.217784139719063e6 1.6468439310455518e6 0.0
1.6468439310455518e6 1.5586191855907526e7 0.0
0.0 0.0 0.0

8.568110247458119e6 2.01366782998837e7 0.0
2.01366782998837e7 9.219668150105853e6 0.0
0.0 0.0 0.0

5.097841388797532e6 1.6178448260421896e7 0.0
1.6178448260421896e7 2.1977244825539254e7 0.0
0.0 0.0 0.0

-5.934987698840405e6 1.6117653423342131e7 0.0
1.6117653423342131e7 -1.806715786862511e7 0.0
0.0 0.0 0.0

2.578542187914133e6 3.126074347279011e7 0.0
3.126074347279011e7 -3.2739890279646865e6 0.0
0.0 0.0 0.0

-1.14270969972663e6 2.208361343658805e7 0.0
2.208361343658805e7 -6.824922982995957e6 0.0
0.0 0.0 0.0

-6.587595096698422e6 1.687478780589963e7 0.0
1.687478780589963e7 1.7244497900868766e7 0.0
0.0 0.0 0.0

-165149.2947250679 8.2164438066551965e6 0.0
8.2164438066551965e6 -6.323189910456851e7 0.0
0.0 0.0 0.0

-9.499766688717244e6 -140676.57141851704 0.0
-140676.57141851704 1.3262707969550198e7 0.0
0.0 0.0 0.0

-1.0230303490432005e6 1.7941254217673972e7 0.0
1.7941254217673972e7 -7.292661077548652e6 0.0
0.0 0.0 0.0

7.6097633708278835e6 2.0497934644547816e7 0.0
2.0497934644547816e7 9.428578283091981e6 0.0
0.0 0.0 0.0

-53968.16320459149 1.3270459030314632e7 0.0
1.3270459030314632e7 6.32227235367997e6 0.0
0.0 0.0 0.0

-4.350470847327389e6 2.0741101258682396e7 0.0
2.0741101258682396e7 1.4033040714485941e7 0.0
0.0 0.0 0.0

-3.0720372262629163e6 2.4985622329552546e7 0.0
2.4985622329552546e7 4.8707461189794205e6 0.0
0.0 0.0 0.0

-1.6238088662406946e7 3.7853947719239704e7 0.0
3.7853947719239704e7 7.188691225005466e6 0.0
0.0 0.0 0.0

1.1549051643421045e6 7.690653148767876e6 0.0
7.690653148767876e6 -6.284284391511658e6 0.0
0.0 0.0 0.0

-3.5728866491721915e6 2.4707023211705007e7 0.0
2.4707023211705007e7 4.456520960166928e6 0.0
0.0 0.0 0.0

-966788.8185914401 2.1165626830873672e7 0.0
2.1165626830873672e7 -6.85511470382612e6 0.0
0.0 0.0 0.0

1.267517916413452e7 2.084396947622191e7 0.0
2.084396947622191e7 1.05640812903593e7 0.0
0.0 0.0 0.0

-835009.9902161934 2.3913441908012193e7 0.0
2.3913441908012193e7 -5.116678722479011e6 0.0
0.0 0.0 0.0

2.3360751361710057e6 4.382272334854744e6 0.0
4.382272334854744e6 -8.66147566959373e6 0.0
0.0 0.0 0.0

-65110.41543229669 1.8437117343950283e7 0.0
1.8437117343950283e7 -1.2946786988736065e7 0.0
0.0 0.0 0.0

-1.0448088863442678e7 968191.0064962391 0.0
968191.0064962391 2.1862696178744167e7 0.0
0.0 0.0 0.0

3.8934304175425842e6 5.804918692038988e6 0.0
5.804918692038988e6 -2.399134495105605e7 0.0
0.0 0.0 0.0

2.592425805336576e6 4.710615586731846e6 0.0
4.710615586731846e6 -5.1965120706973776e7 0.0
0.0 0.0 0.0

1.9036332755778697e6 2.0455572683027443e7 0.0
2.0455572683027443e7 1.1781054062197626e7 0.0
0.0 0.0 0.0

451512.4914921047 1.832140318081555e7 0.0
1.832140318081555e7 -1.517819999766953e7 0.0
0.0 0.0 0.0

-7.0724813290313715e6 1.712504892276866e7 0.0
1.712504892276866e7 1.526185089638747e7 0.0
0.0 0.0 0.0

4.225111260591195e6 2.5172244259963073e6 0.0
2.5172244259963073e6 -2.0701175049777817e7 0.0
0.0 0.0 0.0

1.387876601121978e6 1.4968348072353777e7 0.0
1.4968348072353777e7 -1.852562404884403e7 0.0
0.0 0.0 0.0

321.7281220210716 1.680918455040181e7 0.0
1.680918455040181e7 -1.8251347833630003e7 0.0
0.0 0.0 0.0

-6.293852683543014e6 1.806260229234345e7 0.0
1.806260229234345e7 1.4576579606831647e7 0.0
0.0 0.0 0.0

-2.206745744478726e6 7.861617760185854e6 0.0
7.861617760185854e6 4.367821434317993e6 0.0
0.0 0.0 0.0

-9.575692218887303e6 -2.473552670385049e6 0.0
-2.473552670385049e6 2.3247433004362002e7 0.0
0.0 0.0 0.0

114445.2332287198 1.769141829101531e7 0.0
1.769141829101531e7 -1.5843537071078522e7 0.0
0.0 0.0 0.0

-6.913384460971729e6 1.0665343788034344e7 0.0
1.0665343788034344e7 1.2550932362674335e7 0.0
0.0 0.0 0.0

1.1681377823796283e7 1.9326066361428935e7 0.0
1.9326066361428935e7 9.817087251759106e6 0.0
0.0 0.0 0.0

-116891.86975296447 2.142362134117574e7 0.0
2.142362134117574e7 -9.152196328725157e6 0.0
0.0 0.0 0.0

2.4881694275989668e6 4.359092623582135e6 0.0
4.359092623582135e6 -7.69784824435257e6 0.0
0.0 0.0 0.0

-9.672185549908327e6 5.213752611620633e6 0.0
5.213752611620633e6 3.725561388642741e7 0.0
0.0 0.0 0.0

-2.412179134720278e6 2.686048641976672e7 0.0
2.686048641976672e7 873445.575571005 0.0
0.0 0.0 0.0

-8.498675867908422e6 2.852818738147467e7 0.0
2.852818738147467e7 5.466509806998743e6 0.0
0.0 0.0 0.0

-1.0950839512683667e7 2.527486558033745e6 0.0
2.527486558033745e6 1.405126086048511e7 0.0
0.0 0.0 0.0

-1.0134084205472814e7 353711.90716991195 0.0
353711.90716991195 2.993704463789422e7 0.0
0.0 0.0 0.0

799334.1056771409 1.3406891023715809e7 0.0
1.3406891023715809e7 -2.6408919503868904e7 0.0
0.0 0.0 0.0

-5.101154920327703e6 1.860131779226863e7 0.0
1.860131779226863e7 1.5230624708174312e7 0.0
0.0 0.0 0.0

-9.906540844255846e6 6.47544994817665e6 0.0
6.47544994817665e6 3.7706554189679205e7 0.0
0.0 0.0 0.0

-5.90365813415606e7 1.8342449181904662e7 0.0
1.8342449181904662e7 6.105331163649756e6 0.0
0.0 0.0 0.0

1.2441757270022565e6 1.2586148484741123e7 0.0
1.2586148484741123e7 -1.6593408800528206e7 0.0
0.0 0.0 0.0

747433.4210146719 1.759219121767941e7 0.0
1.759219121767941e7 250732.09865756438 0.0
0.0 0.0 0.0

4.025786955762375e6 2.0105396938337663e6 0.0
2.0105396938337663e6 -3.2303829568373866e7 0.0
0.0 0.0 0.0

2.0130187996364208e6 1.879374515603272e7 0.0
1.879374515603272e7 1.414306212370122e7 0.0
0.0 0.0 0.0

-1.0823887075685857e7 6.637352411697622e6 0.0
6.637352411697622e6 3.466278106078391e7 0.0
0.0 0.0 0.0

1.2551465008782311e6 6.598497437994128e6 0.0
6.598497437994128e6 -7.989009505084857e6 0.0
0.0 0.0 0.0

-888965.1340121052 2.1209925577427868e7 0.0
2.1209925577427868e7 -6.838527710268938e6 0.0
0.0 0.0 0.0

-2.669730830005498e6 2.3974173322112728e7 0.0
2.3974173322112728e7 367461.35785458435 0.0
0.0 0.0 0.0

-3.4782720831919634e6 2.0624794722343158e7 0.0
2.0624794722343158e7 9.131646969852675e6 0.0
0.0 0.0 0.0

-5.949191441101322e6 2.7796100407861583e7 0.0
2.7796100407861583e7 5.117486124308972e6 0.0
0.0 0.0 0.0

-3.1777493453581743e6 1.971450548239846e7 0.0
1.971450548239846e7 389927.4792606721 0.0
0.0 0.0 0.0

-8.838982505971752e6 -497420.15539492824 0.0
-497420.15539492824 4.1790719223358564e7 0.0
0.0 0.0 0.0

2.031634581151608e6 1.828596167130972e7 0.0
1.828596167130972e7 1.8692253144254573e7 0.0
0.0 0.0 0.0

912929.9066995773 1.6742610116582401e7 0.0
1.6742610116582401e7 -1.5776016987137465e7 0.0
0.0 0.0 0.0

-1.5605854632896934e7 2.5564992328608528e7 0.0
2.5564992328608528e7 -4.747214964638843e6 0.0
0.0 0.0 0.0

-5.946313372017371e6 -798823.1107912359 0.0
-798823.1107912359 7.450232150414683e6 0.0
0.0 0.0 0.0

-1.7612631110597365e6 2.8814869319486722e7 0.0
2.8814869319486722e7 1.7082799033448575e6 0.0
0.0 0.0 0.0

249792.03574371163 1.6941292580539573e7 0.0
1.6941292580539573e7 -1.576757888937475e6 0.0
0.0 0.0 0.0

-9.07768244051279e6 1.6691286283069134e7 0.0
1.6691286283069134e7 2.4700375113475163e7 0.0
0.0 0.0 0.0

2.6152759564934745e6 1.114240447607447e7 0.0
1.114240447607447e7 -2.1660193227467645e7 0.0
0.0 0.0 0.0

-9.796467726162441e6 1.598393777131012e7 0.0
1.598393777131012e7 2.2955345271808058e7 0.0
0.0 0.0 0.0

2.066699172255054e6 4.460224613961045e6 0.0
4.460224613961045e6 -7.422350955558518e6 0.0
0.0 0.0 0.0

3.6017642008489333e6 7.064132523335923e6 0.0
7.064132523335923e6 -2.375895266485948e7 0.0
0.0 0.0 0.0

-2.0450130287931548e6 1.976094415463636e7 0.0
1.976094415463636e7 -7.8901823559584655e6 0.0
0.0 0.0 0.0

-2.8464330546292933e6 2.0978024040202275e7 0.0
2.0978024040202275e7 2.1956448641624255e6 0.0
0.0 0.0 0.0

-2.2664506600008896e6 2.407368575574598e7 0.0
2.407368575574598e7 1.674792936339953e6 0.0
0.0 0.0 0.0

2.4705573822076446e6 2.1823772948577277e7 0.0
2.1823772948577277e7 -7.362638366250964e6 0.0
0.0 0.0 0.0

4.033059618022766e6 5.092484705554349e6 0.0
5.092484705554349e6 -2.1591985279455237e7 0.0
0.0 0.0 0.0

1.5204773096053584e6 4.367667440659011e6 0.0
4.367667440659011e6 -5.370920083087235e6 0.0
0.0 0.0 0.0

3.057658382571647e6 6.414448065940512e6 0.0
6.414448065940512e6 -2.5271927011253264e7 0.0
0.0 0.0 0.0

2.0374391359557677e6 6.551244846394167e6 0.0
6.551244846394167e6 -8.253704561959116e6 0.0
0.0 0.0 0.0

1.6281321038116252e7 1.9210572185444046e7 0.0
1.9210572185444046e7 8.289677669949247e6 0.0
0.0 0.0 0.0

-2.6274930555629027e6 3.1826697777326327e7 0.0
3.1826697777326327e7 2.4724521670476953e6 0.0
0.0 0.0 0.0

-9.288584450648764e6 -2.1697427835307787e6 0.0
-2.1697427835307787e6 3.336371601792433e7 0.0
0.0 0.0 0.0

2.1062388159278445e6 8.077174226654635e6 0.0
8.077174226654635e6 -4.1247784289652735e7 0.0
0.0 0.0 0.0

1.826689179808042e6 2.2506899280340027e7 0.0
2.2506899280340027e7 -7.556702462137255e6 0.0
0.0 0.0 0.0

-1.717971642483265e6 1.9549370286858983e7 0.0
1.9549370286858983e7 -9.236855106204234e6 0.0
0.0 0.0 0.0

2.6405892070696726e6 7.379546262087713e6 0.0
7.379546262087713e6 -3.143598379849142e7 0.0
0.0 0.0 0.0

-6.09639831684944e6 3.181906175244594e7 0.0
3.181906175244594e7 4.73420903494633e6 0.0
0.0 0.0 0.0

6.248273353644635e6 2.1094183448001526e7 0.0
2.1094183448001526e7 1.1234472503243841e7 0.0
0.0 0.0 0.0

-3.681133054701523e7 3.573606333840612e7 0.0
3.573606333840612e7 7.753630060849994e6 0.0
0.0 0.0 0.0

-3.4844866575769177e6 1.8808449570333917e7 0.0
1.8808449570333917e7 1.9892053954868693e7 0.0
0.0 0.0 0.0

2.530894956017172e6 1.0196624107114522e7 0.0
1.0196624107114522e7 -2.220572036101936e7 0.0
0.0 0.0 0.0

6.460497318220549e7 2.2018697027559053e7 0.0
2.2018697027559053e7 8.08853269301988e6 0.0
0.0 0.0 0.0

3.87975249091112e6 1.9620341895977236e7 0.0
1.9620341895977236e7 1.573785965725908e7 0.0
0.0 0.0 0.0

-1.1036241374206794e7 2.093533503056923e6 0.0
2.093533503056923e6 2.2766681264974184e7 0.0
0.0 0.0 0.0

1.1083654629024249e6 1.7773145932065085e7 0.0
1.7773145932065085e7 8.479498773218594e6 0.0
0.0 0.0 0.0

-2.1204566744977627e6 1.6216539783093158e7 0.0
1.6216539783093158e7 -2.2336530381228667e7 0.0
0.0 0.0 0.0

6.976582639580569e6 2.2574691987027474e7 0.0
2.2574691987027474e7 -4.751375011590134e6 0.0
0.0 0.0 0.0

-3.4149580757991793e6 2.0986652465654235e7 0.0
2.0986652465654235e7 7.274696161185544e6 0.0
0.0 0.0 0.0

-1.0689246965103602e7 5.083664065067635e6 0.0
5.083664065067635e6 3.3895198639148705e7 0.0
0.0 0.0 0.0

-5.495838220824065e6 3.2362937432746265e7 0.0
3.2362937432746265e7 3.624102989894215e6 0.0
0.0 0.0 0.0

-7.318131491328081e6 2.199744590283972e7 0.0
2.199744590283972e7 4.621122008109661e6 0.0
0.0 0.0 0.0

-2.8482608755817697e6 2.3722202449690085e7 0.0
2.3722202449690085e7 1.0976369041215642e6 0.0
0.0 0.0 0.0

1.7169190849266779e6 2.6806267488283537e7 0.0
2.6806267488283537e7 -3.722435138541282e6 0.0
0.0 0.0 0.0

-2.4171668531747716e6 2.6323452846908048e7 0.0
2.6323452846908048e7 795107.4300163067 0.0
0.0 0.0 0.0

123254.09600618544 1.7845037341775544e7 0.0
1.7845037341775544e7 168192.53993949833 0.0
0.0 0.0 0.0

-1.2604951732071238e6 1.9366124337819647e7 0.0
1.9366124337819647e7 1.7097640242457997e7 0.0
0.0 0.0 0.0

1.7838352082349223e6 1.9188222635741416e7 0.0
1.9188222635741416e7 -41336.44241893233 0.0
0.0 0.0 0.0

-7.038861257449844e6 1.6620271573935648e7 0.0
1.6620271573935648e7 -3.75160441292947e7 0.0
0.0 0.0 0.0

9744.783312935848 1.789282577665284e7 0.0
1.789282577665284e7 2.0650004519656526e6 0.0
0.0 0.0 0.0

-3.122345403618983e6 2.0887800327115625e7 0.0
2.0887800327115625e7 928811.7084885705 0.0
0.0 0.0 0.0

2.0741106173076832e6 1.539384430120096e7 0.0
1.539384430120096e7 1.317662063359679e7 0.0
0.0 0.0 0.0

258981.44584219297 1.9711833541268706e7 0.0
1.9711833541268706e7 -1.141579652641605e7 0.0
0.0 0.0 0.0

968261.564620954 1.4635027413869273e7 0.0
1.4635027413869273e7 -1.9586425384641632e7 0.0
0.0 0.0 0.0

4.071738631553214e6 4.516325880175224e6 0.0
4.516325880175224e6 -2.2478960260244105e7 0.0
0.0 0.0 0.0

3.1265083774411166e6 1.9363129670835573e7 0.0
1.9363129670835573e7 1.3387334653867021e7 0.0
0.0 0.0 0.0

-2.162467562928429e6 1.987680175320776e7 0.0
1.987680175320776e7 1.1957955816260729e7 0.0
0.0 0.0 0.0

-9.546579340513384e6 1.6419114573090887e7 0.0
1.6419114573090887e7 2.3004880788422227e7 0.0
0.0 0.0 0.0

-3.3208036893597436e6 2.038315426996061e7 0.0
2.038315426996061e7 8.3127248764845375e6 0.0
0.0 0.0 0.0

-3.3110469065150227e6 1.9881601999826226e7 0.0
1.9881601999826226e7 -8.187359816713084e6 0.0
0.0 0.0 0.0

-9.838445352741145e6 1.653724189745582e7 0.0
1.653724189745582e7 2.162249131049306e7 0.0
0.0 0.0 0.0

-9.893105430774568e6 1.6117623204619907e7 0.0
1.6117623204619907e7 2.4666714800451104e7 0.0
0.0 0.0 0.0

-1.0995641573343258e7 1.4663423714473458e7 0.0
1.4663423714473458e7 2.0296009831155926e7 0.0
0.0 0.0 0.0

-9.227243883388089e6 -3.951690428612687e6 0.0
-3.951690428612687e6 2.261558756627551e7 0.0
0.0 0.0 0.0

-3.2960437195943347e6 2.235701779816688e7 0.0
2.235701779816688e7 8.886444578221947e6 0.0
0.0 0.0 0.0

-2.6946159041734952e6 1.5426720777082207e7 0.0
1.5426720777082207e7 -3.2485561621119536e7 0.0
0.0 0.0 0.0

18820.15061560925 1.4893617357904011e7 0.0
1.4893617357904011e7 -2.3676415321096994e7 0.0
0.0 0.0 0.0

-2.5993260087679937e7 2.8868872200664457e7 0.0
2.8868872200664457e7 -6.733444996145502e6 0.0
0.0 0.0 0.0

-8.857931257162312e6 4.1121062476213034e6 0.0
4.1121062476213034e6 4.257137431698534e7 0.0
0.0 0.0 0.0

527545.8568001883 1.5401136899742367e7 0.0
1.5401136899742367e7 -2.225797063360197e7 0.0
0.0 0.0 0.0

-1.4769677333725556e6 2.6920673285760466e7 0.0
2.6920673285760466e7 -1.0046940877230787e6 0.0
0.0 0.0 0.0

2.0696484668779322e6 1.7844660560610715e7 0.0
1.7844660560610715e7 1.4495243479120215e7 0.0
0.0 0.0 0.0

-7.781097444038656e6 -6.418731691549252e6 0.0
-6.418731691549252e6 1.8568879293569904e7 0.0
0.0 0.0 0.0

-304157.3983732799 1.7603451931065336e7 0.0
1.7603451931065336e7 -1.8527460046638933e6 0.0
0.0 0.0 0.0

-1.2634402362074002e6 1.9210509584679347e7 0.0
1.9210509584679347e7 -8.658887045899095e6 0.0
0.0 0.0 0.0

-1.2112318264544852e7 6.135648514032067e6 0.0
6.135648514032067e6 1.5703135170036508e7 0.0
0.0 0.0 0.0

3.536704123547161e6 1.7265402838726332e6 0.0
1.7265402838726332e6 -4.07569179446236e7 0.0
0.0 0.0 0.0

251655.0892449934 1.0044445570608372e7 0.0
1.0044445570608372e7 -8.847063516788647e6 0.0
0.0 0.0 0.0

-1.138743323845771e7 1.491417321584173e6 0.0
1.491417321584173e6 2.7150153635094665e7 0.0
0.0 0.0 0.0

496646.4132585279 2.0131009976602163e7 0.0
2.0131009976602163e7 -1.1099767547993237e7 0.0
0.0 0.0 0.0

4.749791164959142e6 1.7818300841456555e7 0.0
1.7818300841456555e7 2.5796163953845683e7 0.0
0.0 0.0 0.0

172006.36546498537 9.590516707556909e6 0.0
9.590516707556909e6 -5.029985197113138e6 0.0
0.0 0.0 0.0

6.6503928982887305e6 2.0993233001906298e7 0.0
2.0993233001906298e7 1.2721582927932266e7 0.0
0.0 0.0 0.0

-3.1613425904992945e6 3.2580703685585763e7 0.0
3.2580703685585763e7 2.715703229510704e6 0.0
0.0 0.0 0.0

-1.1826570306377128e7 2.2953100619204976e6 0.0
2.2953100619204976e6 1.9870764025122125e7 0.0
0.0 0.0 0.0

-644486.5567437094 1.8729230700690035e7 0.0
1.8729230700690035e7 1.822840982847924e7 0.0
0.0 0.0 0.0

2.0083694278383963e6 1.0508574423464341e7 0.0
1.0508574423464341e7 -2.2689908483035155e7 0.0
0.0 0.0 0.0

-1.9748471314709745e7 2.5583240976653256e7 0.0
2.5583240976653256e7 2.575205727318558e6 0.0
0.0 0.0 0.0

-7.176675516871706e6 -2.8109983016305896e6 0.0
-2.8109983016305896e6 1.0257524365257882e7 0.0
0.0 0.0 0.0

-9.703099716167863e6 2.1690140923917923e7 0.0
2.1690140923917923e7 -6.824804131373713e6 0.0
0.0 0.0 0.0

2.8444902213472106e7 2.107495281015669e7 0.0
2.107495281015669e7 6.384713375853924e6 0.0
0.0 0.0 0.0

-1.392483861161984e6 2.132442951879838e7 0.0
2.132442951879838e7 -6.675589089435552e6 0.0
0.0 0.0 0.0

2.5169648327071723e6 1.0733766186797384e7 0.0
1.0733766186797384e7 -2.107218577282329e7 0.0
0.0 0.0 0.0

-4.262724520497607e6 2.259925476297035e7 0.0
2.259925476297035e7 1.028943068954145e7 0.0
0.0 0.0 0.0

-8.226113927907471e6 258863.39994479757 0.0
258863.39994479757 4.777454559942482e7 0.0
0.0 0.0 0.0

-3.960010147558603e6 1.9688313186357882e7 0.0
1.9688313186357882e7 -1.2177028892758481e7 0.0
0.0 0.0 0.0

-1.7956950746638111e6 2.9390355301245954e7 0.0
2.9390355301245954e7 1.8015476067019256e6 0.0
0.0 0.0 0.0

-1.2043338661716022e6 1.404196994187469e7 0.0
1.404196994187469e7 -3.1792229713399284e7 0.0
0.0 0.0 0.0

183304.29370151088 1.758561776840339e7 0.0
1.758561776840339e7 -1.7149023390931085e7 0.0
0.0 0.0 0.0

263412.902587099 1.6997168818890173e7 0.0
1.6997168818890173e7 -1.8461292920533966e7 0.0
0.0 0.0 0.0

-1.009198831172746e7 1.3111609435361363e7 0.0
1.3111609435361363e7 3.0292574527136743e7 0.0
0.0 0.0 0.0

-3.54823236161361e6 2.136085790862233e7 0.0
2.136085790862233e7 7.783457512578759e6 0.0
0.0 0.0 0.0

-6.299054886699218e6 1.1394879472350756e7 0.0
1.1394879472350756e7 8.829468658301307e7 0.0
0.0 0.0 0.0

3.332519991642628e6 1.1502336966262307e7 0.0
1.1502336966262307e7 -8.343074575509265e7 0.0
0.0 0.0 0.0

-1.4487752520323604e7 2.5466155912612844e7 0.0
2.5466155912612844e7 -8.51135463995301e6 0.0
0.0 0.0 0.0

-2.789794699349058e6 1.9167241390276846e7 0.0
1.9167241390276846e7 1.278392934739962e7 0.0
0.0 0.0 0.0

-2.2263168905736137e7 2.625612529332767e7 0.0
2.625612529332767e7 -2.0501349984223628e6 0.0
0.0 0.0 0.0

-7.211916302490332e6 -3.4116000243420834e6 0.0
-3.4116000243420834e6 1.5050429016467847e7 0.0
0.0 0.0 0.0

-8.712691487551518e6 1.7153345921617325e7 0.0
1.7153345921617325e7 1.940888443656892e7 0.0
0.0 0.0 0.0

-1.1058128433699813e7 2.288942999207349e7 0.0
2.288942999207349e7 -5.389112370748858e6 0.0
0.0 0.0 0.0

-1.0528824596787483e7 2.668239609602466e6 0.0
2.668239609602466e6 2.9344053085956935e7 0.0
0.0 0.0 0.0

2.676486709469936e7 1.9038695502291378e7 0.0
1.9038695502291378e7 5.809760200126588e6 0.0
0.0 0.0 0.0

-524873.5387061769 1.8622739081401505e7 0.0
1.8622739081401505e7 2.165269824211262e7 0.0
0.0 0.0 0.0

-4.980939143628982e6 1.8328723044608306e7 0.0
1.8328723044608306e7 1.4885356695736598e7 0.0
0.0 0.0 0.0

-2.3379717075329162e7 3.523590370404447e7 0.0
3.523590370404447e7 9.63985460836757e6 0.0
0.0 0.0 0.0

3.3457885713401344e6 1.9888141422595244e7 0.0
1.9888141422595244e7 4.474041207018847e6 0.0
0.0 0.0 0.0

2.6109919390041027e6 1.8619552216461293e7 0.0
1.8619552216461293e7 -1.6429246207367699e6 0.0
0.0 0.0 0.0

-4.488457906078674e6 2.3872518400447402e7 0.0
2.3872518400447402e7 8.7789928006507e6 0.0
0.0 0.0 0.0

-6.833426188662995e6 2.1107599642753094e7 0.0
2.1107599642753094e7 -422701.67861724645 0.0
0.0 0.0 0.0

-879539.8788819779 1.7313888173162818e7 0.0
1.7313888173162818e7 -2.1903939321592036e6 0.0
0.0 0.0 0.0

2.542724699378647e6 1.9360961448265918e7 0.0
1.9360961448265918e7 -3.4622536989568276e6 0.0
0.0 0.0 0.0

2.7450913207216347e6 1.989119883294573e7 0.0
1.989119883294573e7 1.2322838673213815e7 0.0
0.0 0.0 0.0

3.2113957635636237e6 3.0122677389664207e7 0.0
3.0122677389664207e7 -2.2707982405873747e6 0.0
0.0 0.0 0.0

-3.817387557490808e6 2.2128393512949254e7 0.0
2.2128393512949254e7 9.759381926786425e6 0.0
0.0 0.0 0.0

-4.731494217853818e6 3.2174203755720157e7 0.0
3.2174203755720157e7 2.0650914961944101e6 0.0
0.0 0.0 0.0

-5.831606081381918e6 1.599904387887237e7 0.0
1.599904387887237e7 -4.132490193783736e7 0.0
0.0 0.0 0.0

-1.4213821130954092e7 1.8711742229951795e7 0.0
1.8711742229951795e7 -7.765504552383734e7 0.0
0.0 0.0 0.0

1.3065414979921397e7 1.944448902704736e7 0.0
1.944448902704736e7 7.990043875060092e7 0.0
0.0 0.0 0.0

4.98934482577029e6 1.8137629656010892e7 0.0
1.8137629656010892e7 2.491194573610263e7 0.0
0.0 0.0 0.0

1.346400208685901e6 9.694763550679076e6 0.0
9.694763550679076e6 -3.6014694248736426e7 0.0
0.0 0.0 0.0

1.3767236719438178e6 2.977930138752639e7 0.0
2.977930138752639e7 -2.730089832432473e6 0.0
0.0 0.0 0.0

267929.76164838485 2.13101831055548e7 0.0
2.13101831055548e7 -8.976003477269609e6 0.0
0.0 0.0 0.0

-860283.4049835454 1.851259816876473e7 0.0
1.851259816876473e7 -6.262738656353409e6 0.0
0.0 0.0 0.0

615101.3496246687 2.0515272085733112e7 0.0
2.0515272085733112e7 -1.0496517505544161e7 0.0
0.0 0.0 0.0

-3.095312088812449e7 3.726013265805665e7 0.0
3.726013265805665e7 1.0224572560054265e7 0.0
0.0 0.0 0.0

-2.788090867365785e6 2.9078945519379627e7 0.0
2.9078945519379627e7 1.3238926910691343e6 0.0
0.0 0.0 0.0

-6.096017589024125e6 2.4503866860202715e7 0.0
2.4503866860202715e7 7.608411203259624e6 0.0
0.0 0.0 0.0

3.0967503303970005e6 3.282502349039587e6 0.0
3.282502349039587e6 -4.348699113618104e7 0.0
0.0 0.0 0.0

7.572752606300719e6 2.324136850856601e7 0.0
2.324136850856601e7 -5.060914501257012e6 0.0
0.0 0.0 0.0

-1.141272601631891e6 1.4558063131110733e7 0.0
1.4558063131110733e7 -2.985525660646918e7 0.0
0.0 0.0 0.0

6.437395041795576e6 2.3718678438109472e7 0.0
2.3718678438109472e7 -5.332331919759258e6 0.0
0.0 0.0 0.0

-507661.5568053769 1.665212353906123e7 0.0
1.665212353906123e7 -1.2851574025068444e6 0.0
0.0 0.0 0.0

60372.51269612927 1.9330045805921383e7 0.0
1.9330045805921383e7 1.8990207737560112e7 0.0
0.0 0.0 0.0

-4.74895292262754e6 2.62123598480374e7 0.0
2.62123598480374e7 5.511076819812875e6 0.0
0.0 0.0 0.0

-9.858778871344965e6 -2.6556700301888287e6 0.0
-2.6556700301888287e6 2.7616099904680487e7 0.0
0.0 0.0 0.0

1.361165093818428e7 1.931369583070232e7 0.0
1.931369583070232e7 1.5599438456445546e6 0.0
0.0 0.0 0.0

-6.6008177909608416e7 2.4432203358090762e7 0.0
2.4432203358090762e7 3.7327358128759004e6 0.0
0.0 0.0 0.0

-1.0744204870854225e7 1.330252936891865e7 0.0
1.330252936891865e7 2.796626050111376e7 0.0
0.0 0.0 0.0

-6.016534576984954e6 2.189808690355049e7 0.0
2.189808690355049e7 4.981308572914258e6 0.0
0.0 0.0 0.0

3.2148215993406675e6 1.9634286835734963e7 0.0
1.9634286835734963e7 -832758.5761946223 0.0
0.0 0.0 0.0

4.167840474941762e6 3.327575160939526e6 0.0
3.327575160939526e6 -2.866523857980247e7 0.0
0.0 0.0 0.0

-3.056965455079784e6 1.970632874572583e7 0.0
1.970632874572583e7 1.0111297042881936e7 0.0
0.0 0.0 0.0

-8.672924823932966e6 -630740.1091018037 0.0
-630740.1091018037 4.232250469073897e7 0.0
0.0 0.0 0.0

-1.4790236139022846e7 2.2127334216881666e7 0.0
2.2127334216881666e7 -8.299366637731418e7 0.0
0.0 0.0 0.0

1.329888454430094e7 2.4062009665045913e7 0.0
2.4062009665045913e7 8.498516322811712e7 0.0
0.0 0.0 0.0

930106.301809011 1.2811970230616793e7 0.0
1.2811970230616793e7 -2.7419722285132464e7 0.0
0.0 0.0 0.0

1.0047487937649745e6 4.530965273153794e6 0.0
4.530965273153794e6 -5.420288857571076e6 0.0
0.0 0.0 0.0

1.002727797046485e7 1.782527086323331e7 0.0
1.782527086323331e7 5.914606027150867e6 0.0
0.0 0.0 0.0

-8.420110589010987e6 940573.341416566 0.0
940573.341416566 4.802080653449651e7 0.0
0.0 0.0 0.0

1.0315261416146564e6 7.992210045138001e6 0.0
7.992210045138001e6 -7.35200108459848e6 0.0
0.0 0.0 0.0

4.170796052439605e6 2.8710657585014384e7 0.0
2.8710657585014384e7 -3.875376898517455e6 0.0
0.0 0.0 0.0

-9473.717114251107 1.7928075283291206e7 0.0
1.7928075283291206e7 -1.3778376872061456e7 0.0
0.0 0.0 0.0

3.3908209449328235e6 1.809093516314509e7 0.0
1.809093516314509e7 1.8077296830329325e7 0.0
0.0 0.0 0.0

-5.437616008800789e6 2.169519100949227e7 0.0
2.169519100949227e7 413747.9463921129 0.0
0.0 0.0 0.0

-2.638295430080183e7 2.4501616955954496e7 0.0
2.4501616955954496e7 -4.875583140897015e6 0.0
0.0 0.0 0.0

-3.1437704602485793e6 2.8710128104873028e7 0.0
2.8710128104873028e7 1.9468630319970567e6 0.0
0.0 0.0 0.0

543293.6867366368 1.8318833764478106e7 0.0
1.8318833764478106e7 1.049686223494133e7 0.0
0.0 0.0 0.0

-2.084796133036851e6 1.9601739823344246e7 0.0
1.9601739823344246e7 1.4853401074233342e7 0.0
0.0 0.0 0.0

1.1047096529869558e6 1.5392445503682712e7 0.0
1.5392445503682712e7 -1.892362212741747e7 0.0
0.0 0.0 0.0

663491.6278289002 1.992825312581383e7 0.0
1.992825312581383e7 -1.0988019108628593e7 0.0
0.0 0.0 0.0

-8.97313457592995e6 2.4058413251048643e6 0.0
2.4058413251048643e6 4.615305087873173e7 0.0
0.0 0.0 0.0

-2.524052444033159e7 3.767050227666717e7 0.0
3.767050227666717e7 7.011244793861777e6 0.0
0.0 0.0 0.0

-1.1147431813494528e7 3.0453325718110066e7 0.0
3.0453325718110066e7 5.865016242986007e6 0.0
0.0 0.0 0.0

-2.596239714501376e7 2.6114402505501576e7 0.0
2.6114402505501576e7 1.1522278769953381e6 0.0
0.0 0.0 0.0

27157.1020773598 1.845097438767236e7 0.0
1.845097438767236e7 3.7190787935050894e6 0.0
0.0 0.0 0.0

-7.993878024710108e6 2.23487181911045e7 0.0
2.23487181911045e7 -1.0801537110328176e6 0.0
0.0 0.0 0.0

-1.4846320397593651e7 2.4750667835204937e7 0.0
2.4750667835204937e7 -4.532596453336736e6 0.0
0.0 0.0 0.0

1.7667474587331866e6 7.238992920424389e6 0.0
7.238992920424389e6 -7.062835073520012e6 0.0
0.0 0.0 0.0

2.490858404784987e6 1.8429543963471316e7 0.0
1.8429543963471316e7 1.8876533900883187e7 0.0
0.0 0.0 0.0

2.2819796967280023e6 8.910242014815735e6 0.0
8.910242014815735e6 -3.523827656359568e7 0.0
0.0 0.0 0.0

-9.68180599839758e6 1.4334372437731758e7 0.0
1.4334372437731758e7 2.919911746622966e7 0.0
0.0 0.0 0.0

-7.8885228337632865e6 565868.8993066525 0.0
565868.8993066525 4.908908874415125e7 0.0
0.0 0.0 0.0

3.316984715784507e6 3.4671676884779404e6 0.0
3.4671676884779404e6 -4.288934625289397e7 0.0
0.0 0.0 0.0

-2.990091733191015e7 2.6361696834039707e7 0.0
2.6361696834039707e7 -39992.95180668868 0.0
0.0 0.0 0.0

-8.93266420989995e6 -1.44402782270296e6 0.0
-1.44402782270296e6 3.8625864897635505e7 0.0
0.0 0.0 0.0

-9.341855136526061e6 -2.1054472931129136e6 0.0
-2.1054472931129136e6 3.359159519296261e7 0.0
0.0 0.0 0.0

1.130460027697978e6 6.971990823284376e6 0.0
6.971990823284376e6 -8.952874334194168e6 0.0
0.0 0.0 0.0

-9.70105832558817e6 -847850.4391116278 0.0
-847850.4391116278 3.2198067049234025e7 0.0
0.0 0.0 0.0

5.763532313897952e6 3.863945465161767e7 0.0
3.863945465161767e7 -5.226823312005091e6 0.0
0.0 0.0 0.0

-4.454345153264567e6 1.920530334619562e7 0.0
1.920530334619562e7 1.4214402674852036e7 0.0
0.0 0.0 0.0

2.154710746224493e6 4.41390397941388e6 0.0
4.41390397941388e6 -5.272877847689716e7 0.0
0.0 0.0 0.0

3.2734433155849148e6 4.084300060646287e6 0.0
4.084300060646287e6 -3.383069217026013e7 0.0
0.0 0.0 0.0

-3.6670513718069773e6 2.1161399094890926e7 0.0
2.1161399094890926e7 6.9078957732179e6 0.0
0.0 0.0 0.0

-4.41031212304602e6 3.18764711400826e7 0.0
3.18764711400826e7 3.442054706636604e6 0.0
0.0 0.0 0.0

4.1253218414659766e6 1.0603740177562892e7 0.0
1.0603740177562892e7 2.1505687180125373e6 0.0
0.0 0.0 0.0

9.366033424323158e6 2.0719853171546903e7 0.0
2.0719853171546903e7 1.1544094983310312e7 0.0
0.0 0.0 0.0

7.652218709572732e6 2.2219151179705378e7 0.0
2.2219151179705378e7 -4.1076543258690787e6 0.0
0.0 0.0 0.0

-9.152453546989635e6 -1.2130573019051165e6 0.0
-1.2130573019051165e6 3.785885110967069e7 0.0
0.0 0.0 0.0

-1.5879828456309086e7 2.229263207736615e7 0.0
2.229263207736615e7 1.3247010388423298e6 0.0
0.0 0.0 0.0

-3.0438840428164937e6 2.813812400757831e7 0.0
2.813812400757831e7 1.8224738994252973e6 0.0
0.0 0.0 0.0

1.4647287243709825e6 1.7725252067540936e7 0.0
1.7725252067540936e7 4.336544697528401e7 0.0
0.0 0.0 0.0

9.269501360529209e6 2.260504521711737e7 0.0
2.260504521711737e7 -4.0692987212479603e6 0.0
0.0 0.0 0.0

-3.2678444787286352e6 2.0034594936927684e7 0.0
2.0034594936927684e7 -8.053856205791204e6 0.0
0.0 0.0 0.0

-4.131468537815136e6 2.0240689755235594e7 0.0
2.0240689755235594e7 1.506757489402855e7 0.0
0.0 0.0 0.0

-2.6228091424612994e6 1.934025263955071e7 0.0
1.934025263955071e7 -8.227337860273661e6 0.0
0.0 0.0 0.0

-6.2766880931086965e7 3.405895106088443e7 0.0
3.405895106088443e7 -3.490965194300141e6 0.0
0.0 0.0 0.0

-5.560141996406514e6 1.8929968633366685e7 0.0
1.8929968633366685e7 1.3798111269732155e7 0.0
0.0 0.0 0.0

-3.00432626878847e6 2.0375956814058695e7 0.0
2.0375956814058695e7 -6.886046847526589e6 0.0
0.0 0.0 0.0

-4.23973577657159e6 2.0864415839745093e7 0.0
2.0864415839745093e7 1.4357781268393885e7 0.0
0.0 0.0 0.0

5.890179952413449e6 2.188334353524971e7 0.0
2.188334353524971e7 -4.742597089204827e6 0.0
0.0 0.0 0.0

3.8215270781923775e6 3.3264161765161357e6 0.0
3.3264161765161357e6 -2.784981297096547e7 0.0
0.0 0.0 0.0

1.9789795854367195e6 2.128777396593445e7 0.0
2.128777396593445e7 -7.736872236589359e6 0.0
0.0 0.0 0.0

-2.4151311838242285e7 3.774448971699593e7 0.0
3.774448971699593e7 6.95285714321653e6 0.0
0.0 0.0 0.0

-5.754993508376551e6 2.7325550280271187e7 0.0
2.7325550280271187e7 5.973636608390819e6 0.0
0.0 0.0 0.0

-9.697346951461207e6 -3.672001484322784e6 0.0
-3.672001484322784e6 2.2023086706882842e7 0.0
0.0 0.0 0.0

156210.2861679867 1.8104535837092802e7 0.0
1.8104535837092802e7 -1.5101982907967862e7 0.0
0.0 0.0 0.0

1.1160368444856752e7 2.003971893014189e7 0.0
2.003971893014189e7 2.697041283520073e6 0.0
0.0 0.0 0.0

-5.786763534098976e7 2.9002656957279902e7 0.0
2.9002656957279902e7 3.9357528249159753e6 0.0
0.0 0.0 0.0

2.8081469101968547e6 1.687509804407559e7 0.0
1.687509804407559e7 1.2958101365673289e7 0.0
0.0 0.0 0.0

1.7069953236149307e6 8.745041108785687e6 0.0
8.745041108785687e6 -3.719162146482592e7 0.0
0.0 0.0 0.0

781896.5281264931 1.5168065352703717e7 0.0
1.5168065352703717e7 -1.883042925324912e7 0.0
0.0 0.0 0.0

-2.766693515205956e6 1.9983590059095327e7 0.0
1.9983590059095327e7 1.1833077359125175e7 0.0
0.0 0.0 0.0

-6.516710341763873e6 3.213038196883704e7 0.0
3.213038196883704e7 3.233783204798514e6 0.0
0.0 0.0 0.0

-202306.9457751389 2.4264323994832367e7 0.0
2.4264323994832367e7 -4.518853231534524e6 0.0
0.0 0.0 0.0

3.718313771381613e6 3.1066228888946255e6 0.0
3.1066228888946255e6 -3.3149705751190245e7 0.0
0.0 0.0 0.0

4.156129005441932e6 1.7981886335037813e7 0.0
1.7981886335037813e7 3.7021741076170474e7 0.0
0.0 0.0 0.0

-549009.9778031686 1.6380194388647923e7 0.0
1.6380194388647923e7 -1.5925156241878655e6 0.0
0.0 0.0 0.0

-4.52290304836527e7 3.3575750141999565e7 0.0
3.3575750141999565e7 1.0973865897290498e7 0.0
0.0 0.0 0.0

-1.052836070198636e7 -460469.7780558694 0.0
-460469.7780558694 2.8481940746236704e7 0.0
0.0 0.0 0.0

-9.827907319617549e6 -673713.095057275 0.0
-673713.095057275 3.069327217909091e7 0.0
0.0 0.0 0.0

1.0595758009642534e7 2.0014647532946687e7 0.0
2.0014647532946687e7 5.2787330227560345e6 0.0
0.0 0.0 0.0

-8.903388473494072e6 -1.5375491440498503e6 0.0
-1.5375491440498503e6 3.769344945709247e7 0.0
0.0 0.0 0.0

2.40587992423945e6 1.7269426295456644e7 0.0
1.7269426295456644e7 1.2654547243050186e7 0.0
0.0 0.0 0.0

6.035608455489536e6 1.8262616361940846e7 0.0
1.8262616361940846e7 2.6368297960213218e7 0.0
0.0 0.0 0.0

180810.2771585834 2.9741781114690352e7 0.0
2.9741781114690352e7 -1.197617511652999e6 0.0
0.0 0.0 0.0

-8.377231892443046e6 5.4153429433217775e6 0.0
5.4153429433217775e6 5.0523080867871955e7 0.0
0.0 0.0 0.0

-1.711890420027948e6 1.4615550221156271e7 0.0
1.4615550221156271e7 -3.0550689051981904e7 0.0
0.0 0.0 0.0

680612.3271015366 7.750550280721908e6 0.0
7.750550280721908e6 -7.873548732602701e6 0.0
0.0 0.0 0.0

-2.4430546334473025e6 1.9593293219912466e7 0.0
1.9593293219912466e7 1.0105220769239554e7 0.0
0.0 0.0 0.0

2.8888659335010713e6 1.8510501965960678e7 0.0
1.8510501965960678e7 2.597835408399048e7 0.0
0.0 0.0 0.0

-9.844512502522279e6 33355.83588290549 0.0
33355.83588290549 3.659575027825859e7 0.0
0.0 0.0 0.0

-8.250599729574512e6 7.689816012817706e6 0.0
7.689816012817706e6 7.177513829304684e6 0.0
0.0 0.0 0.0

-3.056594488748963e6 2.035672812063959e7 0.0
2.035672812063959e7 973141.7139640902 0.0
0.0 0.0 0.0

-462179.73952302895 1.0768213144319093e7 0.0
1.0768213144319093e7 1.1656574655538972e7 0.0
0.0 0.0 0.0

2.955789073566982e6 1.8806709540657617e7 0.0
1.8806709540657617e7 -2.4234965125174182e6 0.0
0.0 0.0 0.0

-1.0254985413219495e7 -876454.4601594904 0.0
-876454.4601594904 3.0353217651030958e7 0.0
0.0 0.0 0.0

-7.558001135346834e6 5.366948686548894e6 0.0
5.366948686548894e6 5.3866066395013176e7 0.0
0.0 0.0 0.0

2.4036156951611666e6 1.937963533840444e7 0.0
1.937963533840444e7 -1.4189937318459505e6 0.0
0.0 0.0 0.0

523108.538277328 1.8477050361279164e7 0.0
1.8477050361279164e7 -1.3119250128674857e7 0.0
0.0 0.0 0.0

-7.511767480958987e6 5.208968677526949e6 0.0
5.208968677526949e6 5.3367016349288546e7 0.0
0.0 0.0 0.0

5.785880678152695e6 2.1938842478165813e7 0.0
2.1938842478165813e7 -4.670396886338949e6 0.0
0.0 0.0 0.0

2.270616606531922e6 1.7629693130171623e7 0.0
1.7629693130171623e7 1.8956448797287125e7 0.0
0.0 0.0 0.0

-7.765340794782721e6 1.122117309847475e7 0.0
1.122117309847475e7 1.1300111775399597e7 0.0
0.0 0.0 0.0

-6.495043700980367e6 1.0880881933591899e7 0.0
1.0880881933591899e7 8.721640510704944e6 0.0
0.0 0.0 0.0

-1.2702652469528299e7 7.514898514486737e6 0.0
7.514898514486737e6 5.918110678258684e6 0.0
0.0 0.0 0.0

