# vtk DataFile Version 2.0
phase field modeling fracture
ASCII
DATASET UNSTRUCTURED_GRID
POINTS 2538 float
0.0 0.0 0.0
10.0 0.0 0.0
0.0 10.0 0.0
10.0 10.0 0.0
0.0 4.9995 0.0
0.0 5.0005 0.0
5.0 5.0 0.0
0.9416964895726688 0.0 0.0
1.803581725054446 0.0 0.0
2.592419885431098 0.0 0.0
3.314401822861676 0.0 0.0
3.975193910351406 0.0 0.0
4.579982132660152 0.0 0.0
5.133512780936812 0.0 0.0
5.640130319506143 0.0 0.0
6.103810708661955 0.0 0.0
6.528192895506818 0.0 0.0
6.916607540127679 0.0 0.0
7.272102969376355 0.0 0.0
7.597469242948583 0.0 0.0
7.895259826292669 0.0 0.0
8.167811885738017 0.0 0.0
8.417264413845215 0.0 0.0
8.645575169389538 0.0 0.0
8.854535961159101 0.0 0.0
9.045786767735546 0.0 0.0
9.220828555767493 0.0 0.0
9.38103509633881 0.0 0.0
9.527663687265145 0.0 0.0
9.661865124984566 0.0 0.0
9.784692609918062 0.0 0.0
9.897110148790482 0.0 0.0
10.0 0.09999999999992584 0.0
10.0 0.199999999999856 0.0
10.0 0.2999999999997771 0.0
10.0 0.3999999999996677 0.0
10.0 0.4999999999995511 0.0
10.0 0.5999999999994683 0.0
10.0 0.6999999999993983 0.0
10.0 0.7999999999993286 0.0
10.0 0.8999999999992587 0.0
10.0 0.9999999999991888 0.0
10.0 1.099999999999119 0.0
10.0 1.199999999999033 0.0
10.0 1.299999999998852 0.0
10.0 1.399999999998576 0.0
10.0 1.499999999998284 0.0
10.0 1.599999999997992 0.0
10.0 1.6999999999977 0.0
10.0 1.799999999997408 0.0
10.0 1.899999999997116 0.0
10.0 1.999999999996825 0.0
10.0 2.099999999996533 0.0
10.0 2.199999999996241 0.0
10.0 2.299999999995949 0.0
10.0 2.399999999995657 0.0
10.0 2.499999999995365 0.0
10.0 2.599999999995073 0.0
10.0 2.699999999994782 0.0
10.0 2.79999999999449 0.0
10.0 2.899999999994198 0.0
10.0 2.999999999993906 0.0
10.0 3.099999999993614 0.0
10.0 3.199999999993322 0.0
10.0 3.299999999993029 0.0
10.0 3.399999999992738 0.0
10.0 3.499999999992446 0.0
10.0 3.599999999992154 0.0
10.0 3.699999999991863 0.0
10.0 3.799999999991571 0.0
10.0 3.899999999991278 0.0
10.0 3.999999999991022 0.0
10.0 4.099999999991035 0.0
10.0 4.199999999991187 0.0
10.0 4.299999999991338 0.0
10.0 4.399999999991491 0.0
10.0 4.499999999991642 0.0
10.0 4.599999999991795 0.0
10.0 4.699999999991947 0.0
10.0 4.799999999992099 0.0
10.0 4.89999999999225 0.0
10.0 4.999999999992403 0.0
10.0 5.099999999992555 0.0
10.0 5.199999999992706 0.0
10.0 5.299999999992858 0.0
10.0 5.39999999999301 0.0
10.0 5.499999999993161 0.0
10.0 5.599999999993313 0.0
10.0 5.699999999993466 0.0
10.0 5.799999999993618 0.0
10.0 5.899999999993771 0.0
10.0 5.999999999993922 0.0
10.0 6.099999999994074 0.0
10.0 6.199999999994227 0.0
10.0 6.299999999994378 0.0
10.0 6.39999999999453 0.0
10.0 6.499999999994682 0.0
10.0 6.599999999994833 0.0
10.0 6.699999999994986 0.0
10.0 6.799999999995138 0.0
10.0 6.899999999995289 0.0
10.0 6.999999999995442 0.0
10.0 7.099999999995594 0.0
10.0 7.199999999995747 0.0
10.0 7.299999999995897 0.0
10.0 7.39999999999605 0.0
10.0 7.499999999996202 0.0
10.0 7.599999999996353 0.0
10.0 7.699999999996505 0.0
10.0 7.799999999996658 0.0
10.0 7.899999999996808 0.0
10.0 7.999999999996962 0.0
10.0 8.099999999997113 0.0
10.0 8.199999999997265 0.0
10.0 8.299999999997418 0.0
10.0 8.399999999997569 0.0
10.0 8.499999999997721 0.0
10.0 8.599999999997873 0.0
10.0 8.699999999998024 0.0
10.0 8.799999999998176 0.0
10.0 8.899999999998329 0.0
10.0 8.99999999999848 0.0
10.0 9.099999999998634 0.0
10.0 9.199999999998786 0.0
10.0 9.299999999998937 0.0
10.0 9.399999999999089 0.0
10.0 9.499999999999241 0.0
10.0 9.599999999999392 0.0
10.0 9.699999999999545 0.0
10.0 9.799999999999697 0.0
10.0 9.899999999999848 0.0
9.897110148790565 10.0 0.0
9.784692609918244 10.0 0.0
9.66186512498486 10.0 0.0
9.527663687265571 10.0 0.0
9.381035096339392 10.0 0.0
9.220828555768257 10.0 0.0
9.045786767736512 10.0 0.0
8.854535961160305 10.0 0.0
8.645575169391027 10.0 0.0
8.417264413847017 10.0 0.0
8.167811885740178 10.0 0.0
7.895259826295246 10.0 0.0
7.597469242951631 10.0 0.0
7.272102969379938 10.0 0.0
6.916607540131873 10.0 0.0
6.528192895511704 10.0 0.0
6.103810708667616 10.0 0.0
5.640130319512691 10.0 0.0
5.13351278094435 10.0 0.0
4.579982132668816 10.0 0.0
3.975193910361222 10.0 0.0
3.314401822869852 10.0 0.0
2.592419885437257 10.0 0.0
1.803581725058137 10.0 0.0
0.9416964895740705 10.0 0.0
0.0 9.00010000000243 0.0
0.0 8.000200000005481 0.0
0.0 7.000300000005135 0.0
0.0 6.000400000002569 0.0
0.901790731451151 5.000409820926855 0.0
1.657200899774397 5.000334279910023 0.0
2.289991063707192 5.000271000893629 0.0
2.820065163538221 5.000217993483646 0.0
3.264096435579811 5.000173590356442 0.0
3.636051481595835 5.00013639485184 0.0
3.947629914072366 5.000105237008593 0.0
4.208632181002628 5.0000791367819 0.0
4.427267949625672 5.000057273205037 0.0
4.610414277633563 5.000038958572237 0.0
4.763831845154243 5.000023616815485 0.0
4.892346298799659 5.00001076537012 0.0
4.892346298799748 4.99998923462988 0.0
4.763831845154455 4.999976383184515 0.0
4.610414277633943 4.999961041427763 0.0
4.427267949626277 4.999942726794963 0.0
4.208632181003523 4.9999208632181 0.0
3.94762991407365 4.999894762991407 0.0
3.636051481597624 4.99986360514816 0.0
3.264096435582253 4.999826409643559 0.0
2.820065163541503 4.999782006516354 0.0
2.289991063711534 4.999728999106371 0.0
1.657200899778495 4.999665720089978 0.0
0.9017907314530094 4.999590179073145 0.0
0.0 3.999600000002013 0.0
0.0 2.999700000005187 0.0
0.0 1.99980000000512 0.0
0.0 0.9999000000025537 0.0
9.897889398521345 2.93573355845387 0.0
9.906568249974548 7.060009441434234 0.0
9.913122631074113 3.64016132281653 0.0
9.922462129543863 6.354535290629151 0.0
9.917693659967533 4.354211663134567 0.0
9.909873057440208 5.637584487339942 0.0
9.914183254994697 4.950672966925282 0.0
9.913885043715895 7.666887930262611 0.0
9.91009668007573 2.351889069770817 0.0
9.905135696074536 8.138152454502785 0.0
9.913397459621809 1.849999999997262 0.0
7.099302372137626 0.297750452375005 0.0
7.095143729410097 9.700359990366296 0.0
4.942912558701401 5.095838627899509 0.0
4.315009232304429 5.165022115481685 0.0
4.946182472483878 4.906763777264103 0.0
4.317967462990024 4.825955043772673 0.0
9.916390871492647 8.64999999999792 0.0
9.921504649680616 1.368376469890358 0.0
8.292538149791614 0.206877570318844 0.0
8.292538149793597 9.793122429681448 0.0
5.884594439766573 9.587645267048616 0.0
5.794826292691579 0.3794853783929359 0.0
9.913397459621425 9.049999999998557 0.0
9.908526577714177 0.9568239351922434 0.0
3.456851160380649 5.315740054130451 0.0
3.457889657868442 4.707121019609468 0.0
8.945214200703926 0.1503383337970344 0.0
8.950161364448409 9.8413906539257 0.0
9.913862335499305 4.055887885208452 0.0
9.916697353372683 4.650158482607802 0.0
9.919076340414442 6.049999999994006 0.0
9.906994308667635 5.25749687748192 0.0
9.917490342358025 6.655979201891897 0.0
9.915757520293784 7.343848891656911 0.0
9.910049507471042 3.363474386285078 0.0
9.914471988502868 2.647400064832979 0.0
9.91474124160965 9.337490423485129 0.0
9.916971008170838 0.6499999999994355 0.0
4.307157269264427 9.509674045029644 0.0
4.331527375865619 0.4401616696422582 0.0
9.45434939180249 9.878397030523757 0.0
9.457696120412969 0.1270877537061785 0.0
2.555070293622606 5.422044496190925 0.0
2.566232917480916 4.608001224030952 0.0
3.026511860837692 9.332320638257093 0.0
2.945561971800619 0.5895662714727601 0.0
7.7395404387124 0.2511088946967771 0.0
7.736379255744154 9.745848826372828 0.0
4.687135269408529 5.122111433928926 0.0
4.688420821504113 4.871895064967488 0.0
9.910554884115975 0.3448356354522978 0.0
9.911230082250466 9.65764729394159 0.0
9.921953841410854 6.851023993342036 0.0
9.912065178606017 5.448170483544033 0.0
9.911660025326261 3.861846960030188 0.0
9.914847467973438 3.14501593945607 0.0
9.913397459621425 5.849999999993703 0.0
9.913397459621425 7.849999999996735 0.0
9.906916878988277 2.15455769998631 0.0
9.913397459621425 8.349999999997479 0.0
9.909472363117661 1.640528221515488 0.0
9.913987325695956 1.152857110636247 0.0
9.913397459621425 8.849999999998241 0.0
0.9100099990995943 2.614215977520411 0.0
0.8395284981715456 7.451196254860987 0.0
9.723278867451556 9.898135916635193 0.0
9.723316350887044 0.09841820909386662 0.0
1.385819164827588 4.454539963646463 0.0
1.338343629665047 5.523111536005823 0.0
1.377179700550677 0.6809168304959698 0.0
1.418060461092743 9.285896715136046 0.0
9.91268220142518 0.1457914080939694 0.0
9.906737126737994 9.845745933882352 0.0
0.7108351382691361 6.537941170074089 0.0
1.527735020267026 6.915620208855231 0.0
1.630993885659103 7.838271825205868 0.0
2.232760943566823 7.370850737296832 0.0
2.243414218068206 6.688299277952821 0.0
2.779655053105118 7.021588754814074 0.0
2.80227799359795 7.632420170547022 0.0
3.282022065908813 7.305859666021318 0.0
3.327597298795347 7.857554136825748 0.0
3.743210251018715 7.549183328204379 0.0
3.716353232200752 7.062036086888612 0.0
4.111978858674101 7.27497101169417 0.0
4.104192177581432 6.879858986267289 0.0
4.436230765617037 7.045693351607117 0.0
4.430360014817357 6.703971783962796 0.0
4.732390145036301 6.849841042423394 0.0
5.056161327708878 5.095276573498806 0.0
5.111586796021131 4.999081142133581 0.0
5.169267363407189 5.09444870412406 0.0
5.223795108752053 4.996986220359468 0.0
5.281480803887719 5.092780870372803 0.0
5.335670761900611 4.994887492556936 0.0
5.393485214772442 5.090486192743301 0.0
5.447323082877892 4.992601527033996 0.0
5.505243219343024 5.087953380710069 0.0
5.558739102026105 4.990287787962959 0.0
5.616491581184779 5.085335255235766 0.0
5.669852346908056 4.9879269227514 0.0
5.727502713908907 5.082679981817038 0.0
5.780766004135139 4.988313988715834 0.0
5.838244881129535 5.080480568766611 0.0
5.891357695677371 4.986433849408193 0.0
5.948696036767613 5.077969900389505 0.0
6.001601341641615 4.981313698556656 0.0
6.058851024265095 5.074871552128682 0.0
6.111614020704875 4.978360695880202 0.0
6.168801161530775 5.072044953270978 0.0
6.221368818778567 4.975825765213497 0.0
6.278268309066882 5.066182320461055 0.0
6.330814273567539 4.972837984645718 0.0
6.387565032421376 5.062889771971895 0.0
6.437476667631405 4.971693683589553 0.0
6.496181111585419 5.060210690175857 0.0
6.539454812256072 4.964658165361536 0.0
6.604198202576491 5.056387520850258 0.0
6.648506025747331 4.939374587506267 0.0
6.714026758992516 5.05873885840664 0.0
6.764418045981209 4.959246676066148 0.0
6.8219334571197 5.055299567406268 0.0
6.873708540948134 4.960426349093742 0.0
6.930181428849307 5.053461390218819 0.0
6.981893615341967 4.96435459462232 0.0
7.037791764774784 5.051219747103022 0.0
7.090993561518408 4.96392420322464 0.0
5.504417457283294 4.900897920552702 0.0
7.145434864123609 5.048960634292441 0.0
6.054532384032612 4.883956083938546 0.0
6.738027949040956 4.850032323068674 0.0
7.198432914526514 4.956325226333323 0.0
7.252637187936749 5.046012229327236 0.0
7.30926729605109 4.948903216650376 0.0
7.248106275544042 4.860306312845646 0.0
7.363100274863074 4.849952416808486 0.0
7.365733472701664 5.039519554615095 0.0
7.308483293090149 5.137557220352172 0.0
6.768399513646964 5.145609705119954 0.0
7.422800035311104 5.132251445551834 0.0
7.358273518796229 5.235980394389298 0.0
7.480824155801127 5.227946127939927 0.0
7.302193400058628 4.761917474298247 0.0
7.413570879789824 4.754555110721153 0.0
7.414392998903179 5.334729114426734 0.0
7.352769630272076 4.660405502266205 0.0
7.467556835255426 4.658352623795039 0.0
7.536246869015014 5.328986926716081 0.0
7.478865844607288 5.432598185493195 0.0
7.406396991826072 4.556956233957538 0.0
7.523581002009154 4.552005631348623 0.0
7.597792398573263 5.429506106314967 0.0
7.540511043402902 5.53619421580439 0.0
7.46214474876342 4.452580994318881 0.0
7.5852185078634 4.446021810672608 0.0
7.663329342323453 5.533453399066901 0.0
7.603478967594521 5.643227430483237 0.0
7.513450346818673 4.347641323140766 0.0
7.640744971722214 4.333388343316237 0.0
7.727671715775243 5.642390483050116 0.0
7.667774597993788 5.753188858425915 0.0
7.570065256728661 4.230515669344811 0.0
7.702881065467917 4.218307808529532 0.0
7.638288257073729 4.107994211855027 0.0
7.493362356301017 4.120843902105771 0.0
7.779018500630071 5.521233457321821 0.0
7.794641287388929 5.752364621610818 0.0
7.73369774483611 5.865894287356292 0.0
7.600834531784728 5.867752110500446 0.0
6.233038857278689 5.15645045634683 0.0
7.669727996028819 5.985665563643058 0.0
7.528582452554481 5.987393423295551 0.0
7.598722674572824 6.11001923494443 0.0
7.778305000222867 4.104318908265786 0.0
7.704329019832056 3.987744174608892 0.0
7.838453459801382 4.213322728668484 0.0
7.864495721576461 5.862306066517277 0.0
7.846552353360407 3.98481756181946 0.0
7.769730409703277 3.86544808681145 0.0
5.785249360396857 5.177248808588045 0.0
7.908837087876153 3.861484036275285 0.0
7.834824606222196 3.740586825753288 0.0
7.97685993406276 3.736209527152902 0.0
7.89665098770825 3.615501862931453 0.0
7.753228010315262 3.617800245018972 0.0
7.826063013090472 3.483173292579822 0.0
7.66789744383048 3.48859328808356 0.0
8.042515855796823 3.595394268381807 0.0
7.75200750488492 3.341279823834038 0.0
7.582870318332553 3.346584916806707 0.0
8.120807847415062 3.732493963388337 0.0
8.189783970303546 3.61159165475499 0.0
7.657801000286734 3.200439907646711 0.0
7.486781956172036 3.201402473247712 0.0
7.452595103886905 6.11418616185016 0.0
7.527098033550077 6.243191052852112 0.0
8.260502906807751 3.728437634721859 0.0
8.327629317451398 3.608173631356984 0.0
7.372763970891452 6.247552889754036 0.0
7.456170570815929 6.384992468962936 0.0
7.621837793616884 6.376077080857113 0.0
7.548039512904141 6.520750676893614 0.0
7.717475944451644 6.514856553988943 0.0
7.636658166268699 6.661648164052906 0.0
7.807468267259438 6.664076174524672 0.0
7.718022764310774 6.817938967122142 0.0
7.887785766941087 6.807440365887151 0.0
7.545993589083432 6.815070675854734 0.0
7.809874785067209 6.967537287475282 0.0
7.975643812145337 6.948729406725126 0.0
8.396477808021062 3.725446935061211 0.0
7.565651643157136 3.044354774611752 0.0
7.384328725505071 3.043048915147076 0.0
8.056405351948353 6.802790889114673 0.0
8.14128318237188 6.940027831915737 0.0
8.064621760266059 7.086348792208953 0.0
8.225003598857908 6.805225152373254 0.0
8.463085452993242 3.606998510553562 0.0
8.230426869720718 7.079551841000411 0.0
8.155262284174286 7.224761758176069 0.0
8.530696760758996 3.721683301125054 0.0
8.596669886994064 3.604516769862316 0.0
8.528531058025589 3.490411531312337 0.0
8.320451770844851 7.218191678954744 0.0
8.245273958732774 7.363444652121271 0.0
8.66324687389452 3.717094013035765 0.0
8.600103125209296 3.831913857228569 0.0
8.662131102573216 3.488322280861316 0.0
8.594166125380536 3.374071873435548 0.0
8.411074336066186 7.353871649576861 0.0
8.339644223432472 7.505172120620427 0.0
8.165883718619623 7.513159193685373 0.0
8.483453820080417 7.2082285366806 0.0
8.261200365730348 7.657400951288149 0.0
8.081570576666843 7.670933304838066 0.0
7.471613195794025 2.872548423100142 0.0
7.268733678357991 2.881209199257603 0.0
7.184255506995786 3.084448584600423 0.0
7.065899603697895 2.883902449336828 0.0
6.960163891183182 3.081014635802978 0.0
6.847612128388715 2.885646860602812 0.0
6.739800729737967 3.078895733381448 0.0
8.729373804596847 3.827689165637365 0.0
8.668550856907444 3.938702277545298 0.0
8.72770789162863 3.371798381178293 0.0
8.659764090070603 3.257493349874974 0.0
8.436453928793245 7.648724489148887 0.0
6.619080287792762 2.90880017416788 0.0
6.511740956842646 3.09340654756684 0.0
8.793527829963288 3.935174834810256 0.0
8.736430500996828 4.042719556852617 0.0
7.631260330584174 4.565300771328012 0.0
8.359058396840432 7.801678182761817 0.0
5.339436215072359 5.184870243702279 0.0
4.994031736761993 5.193306795607908 0.0
6.383387675268097 4.87760645722207 0.0
7.29117392392962 6.382172868329505 0.0
6.378196825372041 2.907113079755629 0.0
6.269817199014261 3.12412150658573 0.0
8.793149127377946 3.255386294257182 0.0
8.725774239201558 3.141596687892195 0.0
8.857434600673502 4.041295940541356 0.0
8.802868937128341 4.1471119953668 0.0
8.532045262478793 7.7905977476835 0.0
7.364542641624493 2.699128473342751 0.0
7.571677611088925 2.695732556686516 0.0
6.723058333614999 2.672341359410618 0.0
8.456744924757372 7.94483904450548 0.0
6.140831279784704 2.921247401137864 0.0
6.02419219050745 3.14358702955763 0.0
8.916255604212301 3.934279868822481 0.0
8.859287250884009 3.140226640574265 0.0
8.791092798057303 3.025929352146465 0.0
7.210445465986021 6.245773134960393 0.0
7.120884161792869 6.385155584680196 0.0
7.036931702064287 6.240721609143972 0.0
6.943722280007011 6.3869279517155 0.0
8.920094519678617 4.144837222494242 0.0
8.864374107136287 4.250930406527029 0.0
7.347569838739255 4.463467417508182 0.0
5.90383431757064 2.935113219563906 0.0
5.783476009580765 3.156456199832474 0.0
8.626013191558314 7.935092223505354 0.0
8.687240186957197 7.796697889991163 0.0
5.642059327424706 2.903018174330269 0.0
5.52647853955939 3.162549070310043 0.0
8.555300051897738 8.086169516016518 0.0
8.405624441178524 8.083972416481254 0.0
5.374124307190728 2.945480555950917 0.0
8.935805220807357 3.249260758206028 0.0
8.981625171409894 4.247375537584228 0.0
8.924725364486765 4.352101286657735 0.0
8.807208588134106 4.356163101450244 0.0
8.868277832430604 4.45657124153171 0.0
8.75099635287701 4.460644845248524 0.0
8.812385950597063 4.560891222623518 0.0
8.693833206943118 4.564602972998703 0.0
8.756474732548273 4.665720853686476 0.0
8.63721608225855 4.669394550615355 0.0
8.700108119351134 4.770682016274914 0.0
8.81920502916846 4.767536120893284 0.0
8.76355311338807 4.871451945248518 0.0
8.881442328033694 4.868382238751069 0.0
8.826433523510634 4.97132552240372 0.0
8.943387824985514 4.967694248194483 0.0
8.888718468126953 5.071044784833541 0.0
8.580377663835254 4.774669738817985 0.0
8.770572242937233 5.073880380431421 0.0
8.832915096600454 5.174518948293615 0.0
8.952224483821848 5.170970838320107 0.0
8.897282771771884 5.275476392171722 0.0
7.463928467290875 2.513944501591933 0.0
7.675935950092034 2.509420347143072 0.0
8.924252417741767 3.024418701372628 0.0
8.857265893102921 2.911213535286156 0.0
8.776981063213334 5.27944309004916 0.0
8.840710910770163 5.380165700477552 0.0
8.960876896785969 5.375521424256389 0.0
8.904555918255223 5.482125846038813 0.0
7.567193097677677 2.32750151280277 0.0
7.780880844888839 2.323064027160363 0.0
6.851602118390116 6.234522818184622 0.0
6.758680682687229 6.389359516748128 0.0
6.66345977321418 6.231254850996584 0.0
8.715764716958308 8.079994249772627 0.0
8.65189989696114 8.227534663647639 0.0
9.042229096541828 4.348551764001607 0.0
6.436774206993324 3.316782326998922 0.0
7.590527613340588 5.22651784724799 0.0
9.024366884701616 5.476726561488805 0.0
8.968734351641839 5.583879050892151 0.0
8.845941080047659 5.586406316932274 0.0
8.909881305857882 5.690482454668167 0.0
7.348726871578975 5.44047403999932 0.0
6.567070253986433 6.398115757512583 0.0
6.697077150072261 6.553426749743366 0.0
5.252377383990728 3.187782967482479 0.0
8.988440431820699 2.908621158637298 0.0
8.922541972760119 2.796420836075996 0.0
6.466806010659505 6.229115583261771 0.0
9.033851153821296 5.686506775615425 0.0
8.978340519963718 5.795772485582058 0.0
8.85111463793018 5.798672910287243 0.0
8.922171984280597 5.907237880910408 0.0
8.795190680908043 5.911854068712683 0.0
8.864373398892472 6.019728357749566 0.0
8.991346995940626 6.014539153309398 0.0
8.93374019140187 6.12698887312768 0.0
5.095192648098848 2.952353430985476 0.0
7.672651464908932 2.141715359830917 0.0
7.886266921042761 2.136211284120189 0.0
9.098474286589756 4.245971410451114 0.0
8.813172564986438 8.216887361735234 0.0
8.74802978243154 8.366104673219047 0.0
9.059985162956899 6.120982589539211 0.0
9.00342813739303 6.233245043891739 0.0
4.961413514304496 3.214209167276753 0.0
9.05248113004685 2.794651022570942 0.0
8.986028039118027 2.681341972594222 0.0
5.671890458441996 3.377122473800023 0.0
4.755829262593116 7.184480462344647 0.0
9.158258644940048 4.34465968221255 0.0
4.799687186662534 2.961354824469195 0.0
6.030554747591715 2.726787502996874 0.0
8.938327180212585 8.34758372042188 0.0
8.847392320655468 8.503370672816716 0.0
8.67342124373679 8.518117686968314 0.0
5.234423106934083 2.694925204361751 0.0
8.964923046453565 8.185313058214797 0.0
7.456650986668838 2.134076476407834 0.0
9.111732084821366 2.897226832609386 0.0
6.368055837513985 6.402805870976705 0.0
6.265629899005033 6.226581076317183 0.0
8.736327196352686 6.026404178766982 0.0
9.117473097358854 2.67987006607594 0.0
9.052137415465204 2.565428515518978 0.0
7.781001557847192 1.955874236406257 0.0
7.992134447300669 1.949184538864554 0.0
8.593074792993455 3.143159483125708 0.0
9.1291360203536 6.226877897052981 0.0
9.072154326613617 6.338696745620542 0.0
8.916532550320525 2.566986282201109 0.0
8.984021113721658 2.449252898983242 0.0
9.178032243215632 6.120533546076094 0.0
9.213703592343162 4.244823670856978 0.0
9.11972142641474 2.449071238668887 0.0
9.052853896812186 2.33190758581705 0.0
8.635035926402708 4.462329956179506 0.0
8.773614475966344 8.657865377672689 0.0
8.596400917257634 8.67759750279447 0.0
8.942023339420883 8.644678093589654 0.0
9.19471670675691 6.33096438039349 0.0
9.138460613363325 6.443043552768813 0.0
8.66620319432524 5.916297234509582 0.0
8.606669825267202 6.032658196729024 0.0
9.27222540210304 4.341341907533128 0.0
9.013782808177437 6.451040569407859 0.0
9.08360982569773 6.55729980456602 0.0
7.885622149776354 1.768093045890686 0.0
8.095672144455353 1.768790621151345 0.0
9.208772072925791 6.549717411809656 0.0
9.154272208194383 6.662613503537815 0.0
9.187669783927937 2.334640996932141 0.0
9.122379015831417 2.215832190697178 0.0
6.164077036161143 6.404611236428829 0.0
6.062367614988677 6.224307160647549 0.0
8.987075041759633 2.211477580983978 0.0
9.056972755801603 2.093573581203428 0.0
9.194557288902232 2.096029761809264 0.0
9.131223008370409 1.972713028695079 0.0
8.87381302587057 8.795793668920256 0.0
9.039169086943392 8.781606667490083 0.0
4.662813350519927 3.228118291851354 0.0
4.474181267994617 2.945703616023359 0.0
6.562627723301209 6.075544382232434 0.0
9.326886053211574 4.243083624343211 0.0
9.280374192897945 6.656072830232892 0.0
9.224718905178564 6.766740750539347 0.0
4.703284910421452 6.528907865005451 0.0
8.955136474970331 6.565989985649191 0.0
8.998148826814893 4.865480736169776 0.0
8.99429836796776 1.965972383552685 0.0
9.065669391141741 1.847195105148808 0.0
9.207236162050343 1.853010386995843 0.0
9.143218073349985 1.725630086781897 0.0
8.998867447699345 1.719378449325465 0.0
9.082595782768397 1.592017827427701 0.0
8.92804562738841 1.585238202229766 0.0
9.01637794607019 1.453847302675876 0.0
8.854253119154375 1.446306868730686 0.0
8.941620273019874 1.320083886766936 0.0
8.775393064215876 1.308487027359826 0.0
9.102170347200483 1.324733726345249 0.0
9.013857060361985 1.178821526410403 0.0
7.991031819452564 1.587689878441685 0.0
7.767218744640202 1.595993197647291 0.0
9.191539171305216 1.194087248761656 0.0
9.123965901037613 1.057102462689568 0.0
4.853921953226772 3.470213116851758 0.0
7.496563223334782 3.470157221608763 0.0
8.536691379028115 5.921845852206257 0.0
8.475496498707471 6.037633662010236 0.0
7.978668526342969 2.307231488316941 0.0
9.384721922092124 4.337357165846226 0.0
9.331039180200886 4.435926256444196 0.0
8.546261775564837 6.150267290476958 0.0
8.411727261785726 6.155319300628062 0.0
8.972203609044218 8.930944433074036 0.0
9.133480321468399 8.90955269607895 0.0
9.197778815538276 8.768743880012563 0.0
6.162231825784922 6.05277753404107 0.0
5.962111081146334 6.046949845237622 0.0
9.268727788642101 4.146883230687689 0.0
9.380694211527906 4.144811697563401 0.0
9.323823335199954 4.049557759546529 0.0
9.283324894520613 1.736313094621396 0.0
5.858151623803662 6.22041808248046 0.0
5.759668475561988 6.038806123495502 0.0
7.836860473863919 3.191674397465999 0.0
9.348591928839294 6.75855034547469 0.0
9.293979592221298 6.870213350675044 0.0
9.170543172728557 6.879819332293818 0.0
9.240028263813034 6.983394994050525 0.0
4.347372565145963 3.312731475520695 0.0
4.114183445909965 2.96879678229065 0.0
8.616264880152233 4.042035981070631 0.0
9.403174760076901 6.650407069150438 0.0
4.173860112179449 7.723461240865885 0.0
9.365302975518428 6.973476802087294 0.0
9.312420275675276 7.088420778208979 0.0
9.184876614539778 7.0978133687822 0.0
9.25921281729617 7.204979813006656 0.0
9.12816413817609 7.21569648263899 0.0
9.203944409919862 7.322703303071253 0.0
9.334311975087337 7.311477957762272 0.0
9.280415785210538 7.428795599957155 0.0
9.274060219641907 1.066603180421249 0.0
9.211820491509728 0.9316562593680151 0.0
9.050684011148748 0.9017681241401576 0.0
9.441953732403995 4.432092590771756 0.0
9.394725873909666 4.526051349391942 0.0
9.43453556160865 4.048003950509361 0.0
9.378043599351757 3.952631412328806 0.0
9.289691247910705 8.890746792319852 0.0
9.228148443138926 9.030109127390128 0.0
4.440757888677695 6.389562448928118 0.0
4.689874463978985 6.239329075084555 0.0
4.291519540095677 2.622920583112654 0.0
3.886073352912894 2.632778677714434 0.0
9.344015622314338 1.202401041544343 0.0
8.193292196814806 3.849649660906171 0.0
6.960946604527747 6.07044529864598 0.0
9.347708267319902 8.756364147482309 0.0
6.826423138602714 3.261415861395883 0.0
6.06309517882478 5.884563187328262 0.0
9.4085057714426 7.414123963607981 0.0
9.356416821537886 7.532359471354527 0.0
5.042074134251055 6.938947182785697 0.0
5.063988238156824 7.311205832605263 0.0
3.946666851334923 3.30681624613374 0.0
8.189857914071878 1.939951128540477 0.0
7.880690277686857 1.38928908049477 0.0
7.63766396748483 1.399736360041063 0.0
9.345004233592562 1.857695941115052 0.0
9.440465164139875 7.085860901905448 0.0
7.918332480761888 5.744468010879592 0.0
9.08007135068879 5.372457017512481 0.0
8.78639561093144 3.718391405525285 0.0
9.356843485085705 0.9414458825132457 0.0
9.29705128845331 0.8103081541678832 0.0
9.251825423225316 2.451701826351773 0.0
8.483895366325516 6.270717564685176 0.0
8.346386886249478 6.275973306650227 0.0
9.493299170161215 4.138582531223591 0.0
5.321115649032961 7.117073603021904 0.0
5.354076009109965 7.436189411362466 0.0
5.597984079819928 7.254284331170681 0.0
5.644042313435943 7.564172740776336 0.0
5.383963016128051 7.753854027984002 0.0
5.681168258142109 7.880444993178456 0.0
5.935548099874979 7.687258900444162 0.0
5.979508404301389 7.994332725561488 0.0
6.21936843555201 7.802335560754011 0.0
6.267092590637372 8.104873033518185 0.0
6.498845418385807 7.917606504106031 0.0
6.544600005636809 8.209910620392591 0.0
6.77336078689533 8.027284686082275 0.0
6.814840179123049 8.311778392637773 0.0
6.721304148677048 7.737863326704131 0.0
7.031320924898797 8.1335673274533 0.0
7.077388928622946 8.403901803728003 0.0
5.417471987089176 8.090112295667405 0.0
8.845427688507666 2.446352368201366 0.0
9.318512319918124 2.339233739859646 0.0
9.380241452597096 2.451895615249572 0.0
7.283805558009199 8.237518806365102 0.0
7.329200330160381 8.497045124353782 0.0
7.233272584416691 7.991590926766813 0.0
9.142592248414191 5.471315142785471 0.0
9.196303265878848 5.36738298742727 0.0
9.25795832955665 5.465260877691205 0.0
9.310581303233182 5.36341558704714 0.0
9.371094700882272 5.459458038195667 0.0
9.422767107822985 5.360687090455724 0.0
9.36402660964156 5.264821436196721 0.0
9.474220736978928 5.262802348886269 0.0
9.41680330511366 5.169477108906666 0.0
5.168675939028436 4.895496152382537 0.0
9.482591449057548 5.454699312257291 0.0
9.431567605310825 5.552723344040521 0.0
7.531449703396948 4.741663470323411 0.0
8.517293123442691 4.672601123164268 0.0
8.459978676626639 4.778466809901586 0.0
8.396595115309985 4.67568709170855 0.0
8.338966609235166 4.782101664607259 0.0
8.275355646032752 4.678829956447008 0.0
8.217675280223542 4.785699596769931 0.0
8.28149024865807 4.888803783902183 0.0
8.16019781596952 4.892696417098926 0.0
8.22433278506531 4.995725219088695 0.0
8.102825704443651 4.999629142625341 0.0
8.166887930010795 5.098242831115916 0.0
8.034904900788316 4.896825406879729 0.0
8.15353539905931 4.682103688185489 0.0
8.211891449058882 4.574219757233394 0.0
8.290305306104333 5.094007100958221 0.0
8.225684228618732 5.201525567655179 0.0
9.444618942559746 2.343141375196729 0.0
6.929446520625337 4.868116916840016 0.0
5.737810725167649 4.893891407574175 0.0
8.720389971487277 5.38508368411851 0.0
8.805734920311323 8.951818172412821 0.0
8.905272694453211 9.083303226359831 0.0
6.006155038818204 5.171375272745409 0.0
6.431496448228514 5.152985998213245 0.0
9.052675024457304 7.106590131831544 0.0
7.740007013494393 6.09727525827826 0.0
9.375852260355511 9.013078430361404 0.0
9.32035844773103 9.14584923943073 0.0
6.989707597683965 5.146377438798643 0.0
9.488190206836386 3.951168069367155 0.0
9.432429152094464 3.855725756072153 0.0
5.568386402814275 5.185723849666124 0.0
9.525561551078322 5.166162126187324 0.0
9.465026391994275 5.072601962964018 0.0
9.320357339516937 3.857795423728873 0.0
9.375955927831914 3.759314274140895 0.0
9.261783786753899 3.761412578759438 0.0
9.31820665563318 3.661845422072752 0.0
9.431798673168924 3.660830894813109 0.0
9.374584413615914 3.563138564686839 0.0
9.48759661134647 3.562294297118573 0.0
9.431339678707085 3.464016717943268 0.0
9.417896212887529 1.746970678437863 0.0
8.731705369070733 9.110902182838881 0.0
5.652297951447118 6.21188565774667 0.0
5.569122518069258 6.024400786163834 0.0
8.257007204149394 3.505875091031567 0.0
8.717428603143034 2.925525757227976 0.0
6.882852832747376 8.57686572931064 0.0
6.337330066435714 8.416819098143066 0.0
9.50188906539997 4.521022403818629 0.0
9.453500859905136 4.617181635748691 0.0
9.46806769570129 6.749352117850711 0.0
8.836822104875719 1.72282859852854 0.0
7.481071063421426 5.64593758994851 0.0
5.668814988976305 5.86611128457842 0.0
5.487644760735084 5.847591822776978 0.0
8.993992818065195 7.228173913870249 0.0
7.98322414937693 7.229980191466666 0.0
9.22810751684646 7.54864871395298 0.0
9.304103360459063 7.654622011545798 0.0
9.432787371848761 7.633691049023619 0.0
9.382619818023882 7.759136995934441 0.0
7.239096822516492 4.679179578301165 0.0
9.47692479956498 1.861231395362419 0.0
8.041243110813022 5.095895152648969 0.0
6.190208781188077 7.509864122823853 0.0
9.283062812782122 4.549418667685757 0.0
9.503847665760087 2.450295046295932 0.0
9.443345385250678 2.557904120404248 0.0
9.52009568463353 6.644015937008899 0.0
9.203119005973903 3.662458522935253 0.0
8.406198651282708 5.92630414760378 0.0
8.467263597743843 5.811987729136874 0.0
9.461423029059445 9.128120577356565 0.0
9.408445330070542 9.26024300250086 0.0
9.266505293379728 9.277952925446408 0.0
4.14874709022218 3.631681332690154 0.0
9.437448107949258 0.8198473430736303 0.0
9.376993771693973 0.6910550697058979 0.0
9.22882356848217 0.6931820370818127 0.0
4.451823867195988 6.103664366188579 0.0
4.200031743909027 6.232039028149317 0.0
4.687154754667774 5.975132870483986 0.0
6.268889397098538 6.592235545990395 0.0
7.509366161722768 8.340075462391164 0.0
7.564775703413765 8.59800936579159 0.0
9.542148732924264 3.854614593058991 0.0
7.036231103929761 6.550562550831048 0.0
4.089373665437328 2.268193930262139 0.0
3.642558884866483 2.250386188148396 0.0
3.442182385618804 2.651948803899947 0.0
3.146832503011753 2.222630466765926 0.0
2.948870467975985 2.805088883766417 0.0
9.352005315330274 5.067356449300542 0.0
9.31729677031493 3.462944187594675 0.0
9.37428383619102 3.365546369736205 0.0
9.4883538239391 3.365384871181599 0.0
9.432147665178338 3.267287636377487 0.0
9.25034519267688 7.775848812012313 0.0
9.332091350002502 7.881724023243533 0.0
9.462101000264603 7.86490055671988 0.0
9.413353271651825 7.98561007219363 0.0
8.273592814723814 6.158623919352561 0.0
8.207135014732339 6.280394934566054 0.0
9.541483811580331 5.548224291759592 0.0
9.491365919893726 5.644847811894615 0.0
8.088095771120983 4.577581369371366 0.0
8.14760102783746 4.468303741922308 0.0
9.556217963323956 4.414867468889523 0.0
9.543667331547693 3.266908751519594 0.0
9.489307652535885 3.169908976697059 0.0
9.26285575842982 8.635341362685686 0.0
9.403220742003983 8.621447866627538 0.0
9.326013417886902 8.506778946171965 0.0
9.455477927154853 8.503896705359047 0.0
9.566646674069602 4.611465258087684 0.0
9.499341049870914 0.9352184973273918 0.0
8.683891958597638 1.444705608998412 0.0
8.599973456173778 1.287265568270043 0.0
7.760988189317371 1.175381292562583 0.0
7.50927661322749 1.171223823957793 0.0
7.380927152434357 1.411062577009695 0.0
7.242417847270241 1.170759311509981 0.0
7.107236746116019 1.421234419770886 0.0
6.960799033544566 1.169618322344823 0.0
6.817786081200392 1.434174581170586 0.0
9.48095050141868 8.738557748483624 0.0
9.319762046171894 3.263060331456388 0.0
8.920653400180534 7.117307656029475 0.0
9.452431221190624 6.544166520883111 0.0
9.571407933653493 6.540336592280795 0.0
9.507586285214174 6.443281357841339 0.0
9.575252974749443 5.070210512157044 0.0
5.755172844377253 6.370710487467459 0.0
9.541351959064952 7.969072511059531 0.0
9.354607289792183 9.3921968735401 0.0
9.495213435762107 9.37218405175897 0.0
3.77688136092967 3.643094492921176 0.0
5.460967180339239 6.159077196937325 0.0
8.656589552918996 5.283032675040985 0.0
8.599307076390474 5.387421722684671 0.0
9.584017606465821 5.263931993965828 0.0
9.51536593891754 4.977534386249715 0.0
7.788544970111893 2.70578432810479 0.0
7.381746833264364 8.755477463411431 0.0
7.615969996822885 8.852710176548548 0.0
7.783643411970649 8.691528137204457 0.0
7.845017394185501 8.938777577473743 0.0
8.570520580943368 7.342304222498308 0.0
9.103648004226827 5.781084627507008 0.0
8.338082930126799 5.815990105349368 0.0
8.930848895071895 4.561111316304916 0.0
7.381089602119859 5.983657236035151 0.0
8.42066837692862 6.393608568217351 0.0
8.888256157021065 6.459558428285236 0.0
8.826495664731354 6.575679897210801 0.0
4.22522220414496 5.921354747981145 0.0
3.943296448343383 6.075578573904587 0.0
9.563175937841836 2.554860696349795 0.0
9.505342423182917 2.656889632284623 0.0
6.660863480070611 1.168750929063519 0.0
6.518316961679488 1.436478598119306 0.0
6.683474168246802 1.694104067636375 0.0
6.376799057174731 1.707382100972048 0.0
6.205091481342603 1.443621641108414 0.0
6.058670988071357 1.728841803855816 0.0
5.877457486049096 1.454297236926778 0.0
5.724979192982589 1.756666409586195 0.0
5.529885788012015 1.462283739157555 0.0
9.514953777019835 0.7018468683209754 0.0
8.398665270372675 5.702731562702358 0.0
9.456442249775696 0.5772068858285652 0.0
9.565795671866349 2.345573662774494 0.0
8.830758563027459 9.247271599108435 0.0
8.523580738257648 4.88015211128435 0.0
5.580123316488715 5.701889892660689 0.0
5.398591029446707 5.685938459654249 0.0
5.367686360823392 1.778740548277203 0.0
9.546603444041448 1.754984055696778 0.0
9.489649223089446 1.641312329051244 0.0
9.617973952467912 3.363804764345866 0.0
9.584322830999731 6.729956156156573 0.0
9.597221861144487 3.948534024289882 0.0
9.49401963819799 8.089507968561776 0.0
9.207321074262563 9.416906871900888 0.0
8.27185428346661 4.464932191097996 0.0
8.207416067213774 4.35878753684812 0.0
8.332747746635944 4.354903699457511 0.0
3.990181919126853 3.930792395858886 0.0
8.267392138262498 4.254008221702929 0.0
7.997788712685495 1.196805377512679 0.0
9.600316638269724 5.639973985281733 0.0
9.550939606739425 5.737313319038155 0.0
9.44084303195315 5.74233753256161 0.0
9.50112296154558 5.834555019909565 0.0
8.897429225733994 6.685415510921676 0.0
8.762930941408914 6.695907295903629 0.0
8.654628175336732 9.278157371342388 0.0
8.544676900803436 9.133790942553834 0.0
5.294904777716057 5.855935872688884 0.0
5.216749389964556 5.66865685845661 0.0
9.508453581298625 2.239460033375932 0.0
9.599691370793206 3.169496930704394 0.0
9.546615051106684 3.073514534194011 0.0
7.484714626923596 5.028675123117963 0.0
9.588496050271255 7.850836295555126 0.0
5.153197381012662 1.471340286561097 0.0
9.433168304679345 3.071871997104804 0.0
9.610464706874994 5.829217654498672 0.0
9.561407772947403 5.926179534044419 0.0
8.273381980676042 5.705233340662362 0.0
8.330794188929296 5.594351887246082 0.0
8.207319603076424 5.596747949305344 0.0
7.251338559467102 5.233758892662348 0.0
8.708518799790543 1.130513882092466 0.0
9.590155250193266 0.5878623138195824 0.0
9.389919385420015 5.841079912164009 0.0
7.991397852194216 5.859910582924319 0.0
9.624951589233206 4.975554514425905 0.0
7.240016788025947 2.531866266726309 0.0
7.635666783493215 3.873554782053258 0.0
9.608476620993713 1.863530872936442 0.0
9.365330459496413 8.10677840682376 0.0
8.775076110585598 2.572737931759856 0.0
8.699389445914996 2.444602334375113 0.0
8.625078713232146 2.580891022578613 0.0
8.54447196848446 2.447624719286678 0.0
8.468898498943965 2.586757328881282 0.0
8.62282309213608 2.307826916202421 0.0
9.622102662978762 6.439307895185218 0.0
9.561995355724862 6.35103962032292 0.0
3.898245450818314 1.856155797593496 0.0
9.681759177700954 5.07069253017652 0.0
9.059254996454502 4.963357716933865 0.0
9.113144532326562 4.861710138088372 0.0
9.62140874877204 2.656009146517733 0.0
7.884510615470827 0.9666888912541309 0.0
8.14902661050739 1.005010215149227 0.0
8.491263206618079 8.527197931363634 0.0
8.408859203395778 8.697060715788105 0.0
6.54422152733529 1.954566069381189 0.0
9.563546573097593 2.755667904356369 0.0
9.453065492925557 2.761122255953964 0.0
9.676889098520615 2.755084315170127 0.0
9.678287124781653 2.556838324720633 0.0
2.60254317790297 2.278874965850319 0.0
9.211706272534968 4.050470567310489 0.0
8.526711683538949 5.698821878547752 0.0
8.296604023060945 8.533761944401608 0.0
9.649704314258118 5.543946557831669 0.0
9.651176136337964 3.85122804518279 0.0
9.44590154800397 9.498503704959054 0.0
9.580491248736612 9.476376347552954 0.0
4.3239388803087 3.921156392977062 0.0
9.65737873521736 3.075324100817917 0.0
8.128000846282253 6.160273991836929 0.0
8.06242981852327 6.292371360998262 0.0
8.500465019503922 1.442700595221201 0.0
9.615253212967009 1.649819368149096 0.0
9.561768620580791 1.538553925606111 0.0
9.435477757657937 1.527391516499924 0.0
9.627993450010088 2.242685831452484 0.0
9.5338252733548 0.4673994795805215 0.0
9.398055066504014 0.4589059948533885 0.0
9.669486082509058 5.920177035588319 0.0
9.621072177439727 6.016493814615133 0.0
9.506185962103057 6.018397021409126 0.0
9.196884440497488 7.898824858961557 0.0
9.112591143666748 7.789491461180181 0.0
9.664357762385308 7.950712034233033 0.0
8.46233617997115 2.308903464128035 0.0
8.547917980328803 2.169381684694277 0.0
8.139931430059324 6.410762600521521 0.0
7.672499127532963 9.099143622036436 0.0
7.91372855627271 9.178704612763656 0.0
8.463425076318451 9.290653726808348 0.0
9.643938029094286 9.335632419679458 0.0
9.647017668702574 0.7068996148634754 0.0
6.241662276606473 5.884018212993202 0.0
6.157742245066693 5.73500474100449 0.0
6.318815619949124 5.730068085823802 0.0
6.247706374231452 5.593094310939028 0.0
6.406948541886973 5.593272398468375 0.0
6.092564106310554 5.587409338401505 0.0
8.535507922245372 5.286142900439676 0.0
8.022959839404006 4.471630490587016 0.0
7.963561162854596 4.581393556789843 0.0
9.683487139413305 1.546750704925431 0.0
9.630761777960082 1.435922217091829 0.0
5.121714348989337 7.950140247572198 0.0
5.136464096196084 8.310254432483559 0.0
5.47349124035624 8.455234262268478 0.0
5.176273618280354 8.687190323573228 0.0
4.796664658962938 8.592678692862421 0.0
9.568705729418735 4.887269869750176 0.0
9.462711651199594 4.88832222094458 0.0
9.674903475028225 4.882285174433025 0.0
5.4996067353406 5.546583260717527 0.0
5.663632234555963 5.557613452957074 0.0
6.829408195405585 1.947174574944512 0.0
5.336529198289861 1.127585641139875 0.0
9.672387559812332 6.34138351957329 0.0
4.463988917379896 2.271060678869338 0.0
8.618048281355405 6.263841736419089 0.0
6.480949808711781 5.74815588680617 0.0
6.562207427719153 5.592185077216444 0.0
6.643040463857446 5.721233693378952 0.0
6.712825900331884 5.588664360236 0.0
6.79240375630333 5.711383948285569 0.0
6.86115931532141 5.584697050428064 0.0
6.939210100691576 5.704407337029545 0.0
7.007668476576536 5.580801046893123 0.0
7.084627386867475 5.702817970154801 0.0
6.633257976075473 5.460881327825488 0.0
6.931430743764456 5.461960451448691 0.0
9.682652370938209 6.533133024505995 0.0
8.761108695241376 9.450742747770144 0.0
9.146031326900015 3.764292700000154 0.0
9.089378801805193 3.661317181076136 0.0
9.514354521818781 8.994988681611192 0.0
8.157650730500988 4.262987189670279 0.0
6.329633198899328 5.4647789391701 0.0
2.340685767996258 2.811285337457589 0.0
7.379572471323651 0.9290892725587991 0.0
4.171878172186605 4.222320767259098 0.0
4.4876601621649 4.16473354200826 0.0
5.336389369563535 6.806464508860387 0.0
9.595468321212476 9.108133206829102 0.0
9.645038675267227 8.982113951305912 0.0
8.393140678816192 4.246338342095281 0.0
8.309440721624494 4.155300532283633 0.0
9.418269339704423 1.9925512363779 0.0
9.662781807969623 0.477809346089035 0.0
8.011297869803792 0.7518828483803571 0.0
8.250149975885678 0.7646904662196189 0.0
9.608674873602773 0.3618049194050078 0.0
8.692696069692623 6.582927327365709 0.0
8.628225948401226 6.705702462696891 0.0
8.701883181418305 6.822086652299242 0.0
8.559276855155542 6.829564723911442 0.0
7.069268463354993 5.459534423493629 0.0
2.654575201159115 3.323490466195074 0.0
3.610801136544596 4.044075244426243 0.0
8.263757217166944 5.48730323490738 0.0
8.138838162809126 5.491254533497952 0.0
7.90196833683664 4.477386962763833 0.0
7.987943097943191 3.978756490171551 0.0
9.704623491880403 3.945605151832784 0.0
9.461009573830147 7.301728818091931 0.0
9.532468631193666 7.399916015174975 0.0
9.582688928417856 7.292330983701011 0.0
9.652579613269625 7.387768793572397 0.0
9.699264016151023 7.282867433965265 0.0
9.633305589700536 7.188543855060478 0.0
9.505576100168666 6.961225778216469 0.0
9.43876966151099 6.342441564206569 0.0
4.908483672172518 6.098703904450545 0.0
9.135448256237908 5.269827196966999 0.0
5.905650502271389 2.025036080946255 0.0
9.709890722072377 9.452748507541063 0.0
9.663337613522643 9.572126259365891 0.0
9.603900123387826 7.495180532331903 0.0
9.720147629525837 7.483400774981126 0.0
9.674588415444239 7.588303295299578 0.0
9.653186673863587 4.039274180923234 0.0
9.053164539680804 4.764545162185531 0.0
9.164908495749003 4.763017269285045 0.0
9.226019227262443 4.858029410614327 0.0
8.809947621994619 3.4964384919072 0.0
9.10538997155458 4.665865142902959 0.0
9.331074106432244 5.748993480915537 0.0
9.055854333858068 7.918554535314415 0.0
9.446431573964945 8.209836764658437 0.0
9.573844810886287 8.191100251691205 0.0
9.309704769895653 8.244395007943949 0.0
7.240329561730736 1.676197957122907 0.0
9.543389817573933 3.660019800390455 0.0
9.598599341122098 3.563130123982772 0.0
9.652615161407017 3.658119804270645 0.0
9.706336063693934 3.564815526226687 0.0
8.632284427755456 6.946688912416058 0.0
9.682863230715835 2.349655023034811 0.0
9.571538455120994 2.142369886250143 0.0
8.090821900439733 9.017409120951333 0.0
6.812258669899192 0.9007667548831626 0.0
6.50135254578461 0.8974046495177885 0.0
9.598335906230732 6.246437748035812 0.0
9.719677442549804 6.253968775436637 0.0
8.593026822691716 5.180101360605356 0.0
5.537586126848265 8.836083861509138 0.0
9.688689404995035 2.143487155934306 0.0
2.821389253975936 6.507820864074362 0.0
9.176571289960709 8.507736431357309 0.0
2.918303740542162 8.256728920338826 0.0
3.428955230180972 8.401446814887457 0.0
8.490587404589881 6.715350139132777 0.0
8.86049054904785 7.243279881821806 0.0
8.93696309213556 7.356650230611625 0.0
3.951931175165697 5.78308550088855 0.0
3.65055612573298 5.91672400098539 0.0
3.668142216548471 6.247526235973777 0.0
9.717269848920886 5.821831227352286 0.0
9.708364917734201 3.164198601626433 0.0
8.45581975650687 4.569560863828342 0.0
8.204448312099833 6.040774355519757 0.0
8.65969449127868 5.485991799508151 0.0
9.707534571012967 5.634423933296901 0.0
9.62102991883279 2.849662850313935 0.0
9.144093558002634 3.560383427867003 0.0
8.29763273805118 1.77155302934031 0.0
5.280452715709455 9.01633391004168 0.0
8.984558945859158 6.99932633710603 0.0
8.4157550875812 1.275784953143711 0.0
2.068078118650995 3.355462780535101 0.0
9.205703884756806 5.568274778556933 0.0
9.745857863753141 7.178456670302003 0.0
9.681628895748586 7.081494416756802 0.0
8.875818787971069 6.240744812097083 0.0
7.993733797566922 6.414830952863579 0.0
8.462810157069566 3.377071044664789 0.0
9.29428363519789 4.759591981903337 0.0
7.933956818298286 5.97437536746848 0.0
9.028281726378319 3.558713145763133 0.0
9.083461773461467 3.455531762175701 0.0
9.73231939683535 2.849247643393067 0.0
6.70072305037728 2.192432536215492 0.0
6.423245125077639 2.212870246546939 0.0
4.931537051605536 1.135086496804522 0.0
4.746426561586179 1.500381091957315 0.0
9.707706579932626 7.836419656220658 0.0
8.590593344701457 1.595639668013959 0.0
8.708946574109854 2.1688179918246 0.0
8.634728854549891 2.028564483452208 0.0
9.230357659411311 8.129337203173913 0.0
9.102841374461482 4.452881308250647 0.0
8.472081531214734 5.388993924853032 0.0
4.925996806199801 5.844046944846857 0.0
4.702806345752284 5.745688656289065 0.0
4.884357002239844 5.633237011762874 0.0
4.709628434300812 5.536404116679045 0.0
4.530800966746534 5.627044171217377 0.0
6.040296145349247 6.603808099703576 0.0
6.162203578696918 6.795213950202512 0.0
5.923135943221574 6.824060069869489 0.0
6.046693245732212 7.010423490915212 0.0
6.297337598588478 6.979895528204233 0.0
7.760448385794147 0.7294020304851334 0.0
8.492228348169641 6.958778476405878 0.0
2.89219822877093 1.704113597264478 0.0
2.26178643438086 1.7814602252425 0.0
9.726968895980871 6.009547057102511 0.0
6.63195110828313 0.6072886418835157 0.0
7.984023036954866 7.515675826210831 0.0
7.893857204140559 7.681876703427663 0.0
7.778465117872411 7.537836322197895 0.0
7.998204230811618 7.844922503023499 0.0
7.798554315988981 7.858161805718108 0.0
7.917846202023782 8.03040048103727 0.0
8.547520504556728 2.721261126162116 0.0
8.39253850806587 2.732073315877738 0.0
8.306047241032278 2.59069854402512 0.0
8.233011054235162 2.739783364361515 0.0
8.318836035587811 2.879838477099622 0.0
8.159530874574331 2.888511553151382 0.0
8.245490421394788 3.024568439743106 0.0
9.759103003747676 3.077839427881478 0.0
8.083610090773394 3.033523757291178 0.0
8.174562583800352 3.166768504406541 0.0
6.046769434852523 1.155662270344939 0.0
6.968371001421964 2.176347877216873 0.0
8.324858098380334 3.152966249334499 0.0
8.145556596142626 2.609897633546475 0.0
8.970652052821418 7.804556541250797 0.0
9.033737629244714 7.681328986528639 0.0
9.62347010002576 4.796939565664328 0.0
9.72520380348743 4.790261082613535 0.0
4.882631186210167 5.455006233451049 0.0
4.618356368594037 3.933076284395493 0.0
4.748083507220199 4.151025177732873 0.0
4.641724290430313 4.358202249373887 0.0
4.87055838101999 4.337900676660481 0.0
4.974114446887331 4.149149057174687 0.0
5.081577844806959 4.3240148266423 0.0
5.179521650033781 4.148725180298481 0.0
5.276261408871418 4.316673822529601 0.0
5.369189110897883 4.148362797753505 0.0
5.463892033849439 4.338819369807593 0.0
5.550828466075906 4.146274465971151 0.0
5.646554822352869 4.303571429647391 0.0
5.728109623160046 4.138582010823754 0.0
5.821689108984419 4.291959598724587 0.0
5.906082534948073 4.141649907302701 0.0
5.99655838673762 4.288752711512514 0.0
6.077312859438928 4.141011188943332 0.0
6.164215275138099 4.281164574562373 0.0
6.241782344986693 4.140701084167517 0.0
6.324316420613108 4.277393447415522 0.0
6.40284165425941 4.140026953305852 0.0
6.483655157361099 4.273418937894759 0.0
6.561170698911611 4.136221843106807 0.0
6.63512300179586 4.269917278694155 0.0
6.720306110251473 4.133393659385058 0.0
6.63777078218551 3.99617001426095 0.0
6.802492763973074 3.994355399489989 0.0
6.798834760478153 4.276914787769972 0.0
6.15377608509923 4.000134206628027 0.0
6.548727135071258 4.400510710520637 0.0
6.251479300130713 4.421887359316258 0.0
5.275876048175579 3.979624500657822 0.0
5.910905077162284 4.431174408784691 0.0
6.717070288412452 3.851239795555301 0.0
6.883499045994213 3.852555480300214 0.0
6.96664848901999 3.994033961856844 0.0
7.048208567116626 3.854750001965969 0.0
5.810004974283072 3.982497501655442 0.0
5.586615391658107 4.471070246359201 0.0
6.547331954052155 3.853872077215347 0.0
5.179081233207816 4.485638492900557 0.0
7.126615227065496 3.995337770596979 0.0
7.209459742762513 3.856893463870469 0.0
7.130226097876905 3.713620439679428 0.0
6.63075064074106 3.699684148676045 0.0
6.446985573861992 3.697358756862005 0.0
7.043151422977365 4.131713936060725 0.0
7.198322215260019 4.129850614748363 0.0
7.119378405252723 4.26005098890218 0.0
4.797146270976422 4.525762781577414 0.0
4.608329098388589 4.573584257851931 0.0
7.294442092743627 3.720853338661503 0.0
7.215753312764997 3.571378507508807 0.0
7.049631633956289 3.568047985538775 0.0
7.133765707749521 3.414282375958479 0.0
9.755079417839903 5.539705890434435 0.0
9.698955703441971 5.450920012703194 0.0
9.717604099406742 9.09084770432896 0.0
9.276716006673976 5.847248422342224 0.0
9.339081208926798 5.941174203394446 0.0
9.031261921742963 3.750271483819014 0.0
9.08721978689863 3.853416037308712 0.0
4.801461566647803 7.510704110489921 0.0
8.206553504932042 5.818005960412773 0.0
7.362361315389098 3.863102442315545 0.0
9.492826845316191 2.963845037486267 0.0
9.376710375304633 2.97229517374228 0.0
9.3192743723601 3.070687802230453 0.0
7.915389082113898 6.293241865913004 0.0
6.735006382384437 5.832450056405368 0.0
8.456481836836168 4.35369289249905 0.0
8.517718268476031 4.246675068616396 0.0
5.583512022030555 5.411069060406398 0.0
5.73625200174779 5.422617752052123 0.0
5.81006929286229 5.548584937688919 0.0
5.903438861894402 5.420604003204523 0.0
5.43801870974416 5.402925156167655 0.0
7.022641548594327 5.825217331839047 0.0
7.165095795605366 5.826005223633447 0.0
7.223078558430726 5.690146755650336 0.0
7.841396000338385 4.586693006493787 0.0
7.904793170875705 4.690826189066096 0.0
7.785999820520073 4.696719777099973 0.0
7.846448506395101 4.798518978096564 0.0
7.728149182067156 4.803800941124008 0.0
7.788983823826226 4.904802634695232 0.0
7.672018889153144 4.910077510508749 0.0
7.731996012352178 5.014717724244488 0.0
7.852072803124419 5.00743796185411 0.0
7.779278698005006 5.118909346425974 0.0
8.088113864063853 5.605434545811022 0.0
8.016457362785575 5.494849890158723 0.0
8.072290383394757 5.385594956317259 0.0
7.95068657972964 5.38825563681957 0.0
8.309366678475389 1.438342408757099 0.0
9.748160780780179 1.447794693754379 0.0
9.696454228162398 1.337889922375316 0.0
9.568813761940916 1.329560834053294 0.0
9.638326779791626 1.226729570935787 0.0
8.472132467407484 5.182856496818138 0.0
8.066211547412054 6.53691730655352 0.0
8.217035586462373 6.522976700918602 0.0
3.544839338670893 3.324491119989469 0.0
6.999740002965287 5.347729916247808 0.0
6.874544698914502 5.347027470386579 0.0
4.880451234715014 5.193043717957879 0.0
9.104510033763066 9.313204713465637 0.0
9.0466357104558 9.45359399494339 0.0
9.146803165140184 9.569652364413551 0.0
8.134107047896672 0.5527712356100052 0.0
8.369770412730738 0.5571215815175228 0.0
8.47386979744655 0.7564607169846485 0.0
8.585193608569258 0.5749174254532757 0.0
8.683868132726584 0.75505070091701 0.0
8.787381435061018 0.5813987798627239 0.0
8.697570280442534 0.3771156480326233 0.0
8.530048434259976 5.077280516000916 0.0
7.995091351438729 2.90367515012593 0.0
9.731083608815164 1.662638626153251 0.0
7.260488865351954 4.255073962371814 0.0
9.760728358076392 8.990038509880067 0.0
9.716710396257366 8.884160310398862 0.0
8.794627466210242 7.369659405098349 0.0
8.868068657550866 7.515048014893154 0.0
8.702594597629135 7.510501129643432 0.0
5.132320689147051 0.7610757801158905 0.0
9.755852887652699 3.853180024615871 0.0
9.787424819067885 2.757921105725315 0.0
9.731193479931608 0.3736343090103709 0.0
9.796526908308536 0.489684029254899 0.0
8.226019692057042 2.453349105940535 0.0
4.560989821496479 5.428206018250252 0.0
4.348810639659689 5.517048281386008 0.0
8.785190163106925 7.119142251269924 0.0
9.015515413043023 7.464769766852701 0.0
9.754861440190705 3.659036930324926 0.0
9.7543610723378 4.033687839160082 0.0
9.707881226943384 4.127219992296752 0.0
9.52841017383273 8.309020665649431 0.0
9.65186044414544 8.289498614805698 0.0
9.714051275521857 8.173576484362068 0.0
8.209758892476394 8.715513071423135 0.0
8.097084883671858 8.548851201381087 0.0
8.177989947800599 8.367872862579052 0.0
7.974142434808908 8.36779470623567 0.0
8.409012054919861 2.142624252464372 0.0
7.707002321497132 8.039129945341395 0.0
7.574653123518228 7.83895791570255 0.0
9.229858094382692 5.951357214361815 0.0
9.75307989876696 1.229893222503321 0.0
9.715811155868643 1.128779429890018 0.0
9.597960915003707 1.117058287635912 0.0
9.672063923518955 1.020806103150243 0.0
8.99090422125785 9.593878510105375 0.0
8.133165456134304 9.257620998029804 0.0
7.976779931497633 9.420725324095141 0.0
9.77231778617502 7.927819487779705 0.0
7.957213679655531 4.364530256281665 0.0
9.609903116082736 8.403725680286847 0.0
9.724891358972584 8.388392708395173 0.0
9.687487059868507 8.495935345161797 0.0
9.810055520269009 8.494090598382963 0.0
9.755967487162335 8.599790818513082 0.0
9.645698986824481 8.606121319182705 0.0
9.721376049217765 8.699989876681524 0.0
9.773009257015609 4.884557953188837 0.0
9.830105798750992 4.796546393900876 0.0
9.775335108731761 4.686093304257503 0.0
7.455611517737074 3.730099283949135 0.0
8.906943567829634 0.4197477661467797 0.0
8.980613334153533 0.5814185917581446 0.0
9.081059111759728 0.4263421860552371 0.0
9.821654809259165 3.576985724143072 0.0
9.761309244784803 3.4792267780002 0.0
9.763329553045937 9.353068233045157 0.0
4.463051839136694 1.164440352584939 0.0
8.0213168204867 5.283436382300235 0.0
7.89385412333227 5.290429544753158 0.0
5.806940001023414 8.583716119232427 0.0
5.88977793877374 8.96065112858812 0.0
9.177759062826041 8.25539130897928 0.0
9.626582559276994 2.05283181283147 0.0
9.747673294325121 2.064954301745188 0.0
8.775905508647185 6.951821187702613 0.0
2.3581644273991 6.029034686663493 0.0
9.777798009058461 9.548066962498762 0.0
9.737129197219856 9.662299853506903 0.0
9.615080366030512 9.683349544763068 0.0
3.315839678697904 6.042943273456425 0.0
8.915083018115329 7.937748428923896 0.0
9.489832173860055 4.712364754630572 0.0
8.118313727862493 8.013944064029838 0.0
8.902248750797776 7.67372145952523 0.0
8.954075939212636 3.463080912810881 0.0
9.45247551997678 2.133243108303608 0.0
8.311151553157742 8.899233004613622 0.0
3.28672004268868 6.826745674539142 0.0
9.86008383798735 3.468233656255824 0.0
8.389990589860254 1.947086063498656 0.0
7.144231739553659 5.329544660076687 0.0
9.654500729007207 7.743301971143119 0.0
9.761920842881946 7.740144345898896 0.0
9.692820773976567 0.2651585113981998 0.0
9.690951720399688 6.100517071814821 0.0
9.775704281989471 6.077882312279847 0.0
9.823117117198079 4.115168542267924 0.0
9.764391943581737 4.214465954230587 0.0
9.659455011849253 4.218716850797838 0.0
9.713462125022623 4.30742830316693 0.0
9.849638067150842 4.208845651573708 0.0
6.376241713254513 3.858766051594979 0.0
6.274931849158213 3.701528298009006 0.0
7.097780104117746 1.926449727602711 0.0
2.457742027508782 3.810157622192786 0.0
2.963634206580268 3.740748099915693 0.0
5.065585416063965 5.544355730437482 0.0
9.783560252464587 7.566507987677117 0.0
9.825819294611026 7.470942204664841 0.0
9.799976114123012 1.01659516618323 0.0
9.745559590633832 0.9150866860898854 0.0
8.20473400632469 9.495828670767946 0.0
8.784586030320169 2.054461500762216 0.0
8.758471587067168 1.888286802854785 0.0
0.9188935087347281 8.510730800272478 0.0
9.674192026048217 9.20389587377276 0.0
9.796314981283475 9.185916994648775 0.0
7.206882433199502 5.452024361489832 0.0
9.773927048949279 6.334665846819535 0.0
9.830288393591173 6.225300227041885 0.0
8.25177349297509 3.282767705830209 0.0
8.099233469407428 3.304040153764131 0.0
9.607860512870598 4.315652630490023 0.0
9.403674738018715 8.367349042046314 0.0
7.611756786273919 5.018691202305147 0.0
7.549513964643336 4.923310232561835 0.0
9.80986724662116 0.2915868356190958 0.0
0.7757562810577034 3.504187313079081 0.0
7.659562100664981 4.698467529240196 0.0
6.539424975891206 3.541729955691742 0.0
6.717348880400739 3.55221857686142 0.0
6.836337579501807 2.417476958454302 0.0
7.096480496160066 5.959124656438389 0.0
7.189742782777612 4.377051328076039 0.0
7.051723187622053 4.38470822973091 0.0
7.125489805519186 4.497018383456762 0.0
6.994915621927777 4.501504591168814 0.0
7.056755276274058 4.607929817497045 0.0
6.932937068803914 4.613249390039674 0.0
6.86629288290367 4.50541343988659 0.0
6.80427099775847 4.617607827251794 0.0
6.739195362053689 4.511124964201849 0.0
6.677260697693361 4.624288827143181 0.0
6.996760608675822 4.711715831373894 0.0
6.316045249462968 0.6456945497683586 0.0
7.321834163850416 5.816449323512759 0.0
7.833101485370825 4.390058096386987 0.0
4.996572652976738 4.498711166259074 0.0
5.112334577457371 4.663858846723513 0.0
5.271923064784868 4.629759173373871 0.0
4.93773508827367 4.668006487116195 0.0
5.348137647919096 4.485934621930562 0.0
5.413454827497575 4.62999925573761 0.0
5.356581113747675 4.770594395332836 0.0
5.013422223730484 4.793321773780133 0.0
8.58674425943957 0.9312335381466886 0.0
8.776450596582496 0.9362399987293505 0.0
4.783496233934828 9.486061758876032 0.0
4.544176394620909 9.034071856445296 0.0
4.082330493623582 9.015765881393772 0.0
9.820867469965414 7.285959215547852 0.0
9.852697883440127 7.166089674802766 0.0
9.260999083164238 2.971390964911171 0.0
9.197701900169713 3.073162109379564 0.0
9.31960210441945 2.867465579641856 0.0
6.660951583415121 3.383363199709994 0.0
5.210469976037585 4.761678854423166 0.0
6.740780285297665 4.733615686805694 0.0
6.611362405615225 4.731958642073806 0.0
6.549091884465382 4.629620704100811 0.0
6.491761716522486 4.733409494449344 0.0
6.425259228542098 4.640546096196947 0.0
9.715556659367534 2.986725573570596 0.0
3.710524324925069 9.463213827486557 0.0
4.768537031214573 4.727001037865238 0.0
5.039413681704655 5.378508462165627 0.0
5.188746429211535 5.440476671296013 0.0
5.172214816037712 5.298914527247826 0.0
4.469063601436893 3.667917323494335 0.0
3.799121596584382 4.741629285988305 0.0
3.661085664896249 4.442847704416992 0.0
3.316563386321876 4.380147387454913 0.0
3.802087298647255 5.26743535640985 0.0
9.738116341343215 8.047178982429934 0.0
9.85106076399546 8.021725551312715 0.0
9.837581050304836 2.844176011307251 0.0
9.664579962075123 4.402853107737106 0.0
9.76433159763034 4.39807801415352 0.0
9.718924973226878 4.487825491046641 0.0
9.826405563645343 4.494594135148365 0.0
4.931068003413168 6.359330991212394 0.0
5.130175746947236 6.201075257041828 0.0
5.143884286052002 6.445382329515047 0.0
4.953395875296406 6.628748468717369 0.0
7.833019185167153 5.400347121613631 0.0
7.766636138801143 5.313240048256084 0.0
9.767038723422333 4.578090619166644 0.0
7.315369355237483 3.441501197259575 0.0
9.556068971301514 0.2347811136726856 0.0
5.733871280791703 4.444861510772459 0.0
5.828809543126846 4.569791247698539 0.0
5.986701526182213 4.562881783985375 0.0
5.912543327921148 4.692966271273211 0.0
6.052130330528581 4.682477327897978 0.0
5.773525984744635 4.697697018456535 0.0
6.121646311546238 4.572302645403103 0.0
6.182349700936326 4.67713231096357 0.0
5.846371383601797 4.808939734754761 0.0
5.117807918383606 5.974361363083184 0.0
6.256132501905665 4.575863546153224 0.0
6.324770064521816 9.645040261272253 0.0
7.345522892050965 4.12581088034536 0.0
9.338523512844539 4.854480276600515 0.0
9.286984287289403 4.959628690044808 0.0
5.676298026114105 4.589279806918992 0.0
5.631257891894775 4.722749088404111 0.0
7.970415275563177 5.621040275419208 0.0
9.565118337557308 7.081391220827488 0.0
9.626201005045262 6.980441083020495 0.0
9.733729506193331 6.979928568877979 0.0
9.684556253529976 6.887102896543928 0.0
9.780785815410074 6.890287441101827 0.0
9.740054813822885 6.794211367612523 0.0
6.462628988057306 7.629921412015864 0.0
6.692564520952154 7.473594130811262 0.0
6.927983108788191 7.570982428592125 0.0
6.899878641134941 7.329306734748538 0.0
7.117542472438434 7.416951094809493 0.0
7.089537168123128 7.186691566729968 0.0
7.296585396514727 7.275888419524222 0.0
6.879678873774065 7.097443005287856 0.0
7.063454637059129 6.967740076426161 0.0
7.329105042924355 7.496317641003757 0.0
6.867084781778411 6.878842928865059 0.0
7.494278796275744 7.351949197351029 0.0
7.462564159480594 7.150140034494138 0.0
7.644835001206406 7.21506678718646 0.0
6.682478929414216 7.008358327294905 0.0
6.449199855715812 7.365660640952548 0.0
7.548139855358765 7.57299228324251 0.0
7.008502809092701 7.844601794812628 0.0
7.371739019901781 7.707688433423657 0.0
5.665345294602155 5.290628720253272 0.0
3.987583013016546 4.486920698115711 0.0
8.893480480320447 0.7785000884179994 0.0
9.715485963651112 0.5955299613117169 0.0
9.761785841543585 0.7048670948649375 0.0
9.670304314877074 4.578896619304786 0.0
8.058509626083154 5.744161686650483 0.0
6.181795443628869 5.462040811515966 0.0
6.256771804808641 5.338464817889848 0.0
6.124070400983443 5.352376180901929 0.0
6.399679261813415 5.349186390888865 0.0
6.477776305607503 5.46505688468465 0.0
6.541624525938461 5.346017118512589 0.0
6.673064575428321 5.339051516933525 0.0
6.599301548842115 5.241958624987057 0.0
9.573774011620444 0.815274945835158 0.0
5.86493292693426 5.877588788523632 0.0
5.552663040119136 6.957487930464628 0.0
5.535080960199246 6.663033131707637 0.0
3.708603689392072 0.5979254716153909 0.0
3.31896983256719 1.188583855309964 0.0
3.895664898001925 1.128137111173669 0.0
6.363360407965353 6.032416442205533 0.0
9.445959758065749 1.070139246426051 0.0
9.50632172780449 1.214052376665338 0.0
9.441030033980638 1.325047485624912 0.0
9.295799464644857 1.341410624832976 0.0
9.184164107767781 1.461677744200096 0.0
6.407191016756832 4.407273313799791 0.0
5.544591888593027 0.7652641669375747 0.0
7.883090151006535 2.497506182548758 0.0
8.073420508370992 2.120510489750234 0.0
5.494822040671399 4.732314720081375 0.0
0.8986976806403217 1.464611451578306 0.0
9.536325549598013 6.83286654168725 0.0
5.972289519322897 5.727532110854501 0.0
9.82203607053145 9.443411729566549 0.0
7.263199949874008 7.064207941227515 0.0
7.233659553805083 6.853135694774254 0.0
9.793310082768443 7.072747972018893 0.0
6.734168931095253 9.67499220075154 0.0
6.941134861034159 9.382328333169653 0.0
7.285822522704258 9.443989747444657 0.0
6.576263515512108 9.333035011158342 0.0
7.160560566479093 9.127732577621245 0.0
6.218711947378506 9.298064908857533 0.0
6.432383355119106 8.980985203293491 0.0
6.795390278360442 9.046043538032663 0.0
8.54677014121837 0.1957422484480979 0.0
8.528696320820908 9.804850950580938 0.0
8.42644965647489 9.604735484095604 0.0
8.010239224104339 9.715048083583248 0.0
8.644359648763341 9.628432815860457 0.0
5.344212921686536 5.526744195650314 0.0
9.760936589662048 7.38409687515441 0.0
9.128187788393989 0.1445485608215519 0.0
9.133307661752394 9.854833215426817 0.0
4.867351616228264 3.944459575003425 0.0
5.905323253270366 7.385600364255367 0.0
5.909045412185362 3.361969954191194 0.0
5.80580919758911 3.569999290452344 0.0
5.578230704221431 3.587842862412673 0.0
6.013352753603037 3.550699073477782 0.0
5.936624955014758 3.721630401607248 0.0
5.735413275357409 3.78528948606432 0.0
5.512538847486775 3.794760621907932 0.0
5.360571639388366 3.618649018042938 0.0
5.134141179590394 3.459385929220745 0.0
6.167399567008798 3.367365990358096 0.0
9.766756262206602 8.291756450136036 0.0
5.486063578307141 9.64505925252771 0.0
9.497624614180321 4.328873442170357 0.0
9.811387324954623 1.570516917365688 0.0
9.389210081887331 4.69150887571586 0.0
9.704395728912932 3.754226393630331 0.0
9.808172776193384 3.748784464356272 0.0
6.549660911932182 4.839747932361234 0.0
6.757415124099031 6.077939876843736 0.0
3.805578542126494 8.040840085419626 0.0
4.232580149691158 8.198659880701744 0.0
4.559765382564095 7.87091698350757 0.0
8.3829075948167 0.9495097054886067 0.0
9.8571301061408 1.456307792614791 0.0
2.005900212453279 4.535525273813588 0.0
1.85904408608185 3.956445706785572 0.0
1.979307922430775 5.474327285927505 0.0
4.387923194305381 4.427191306527721 0.0
9.429258370703248 8.873693567695483 0.0
8.99196583083892 4.664567567015693 0.0
3.050357122593155 5.368999067452741 0.0
2.861107385476722 5.785089447130829 0.0
5.005058958272409 3.711196438448062 0.0
9.8972295764837 2.755337284632969 0.0
9.581048890980513 8.853909321617065 0.0
9.668838904423916 1.762418716497425 0.0
9.716576458425756 1.852218615166234 0.0
9.799043132681442 1.780583141193779 0.0
7.661868217848455 2.880323287492419 0.0
6.780136552904057 5.443858690999834 0.0
6.489544866845868 5.913957888434588 0.0
6.880149522020364 4.134257616716107 0.0
6.970134365280068 4.264072319341612 0.0
2.225481516813409 9.348422240784 0.0
1.843418032490818 8.641605249943353 0.0
2.198000805242772 0.6459947140825729 0.0
8.740020306282506 0.1903932731609072 0.0
6.86957996016679 4.720776242956433 0.0
7.430920333506809 0.2702852342693345 0.0
7.302066064947383 0.6134316505458445 0.0
9.305398039877746 4.64854361125207 0.0
4.078151380865065 5.203425462519088 0.0
4.080704120371218 4.778853303303787 0.0
8.052525541571825 5.965483159581719 0.0
6.367194027835946 4.754896037842673 0.0
8.604191121620719 7.648182513679963 0.0
9.546446695207845 9.234701521982952 0.0
9.018652854946867 3.351011585453845 0.0
9.143853648154607 3.350173119015413 0.0
9.067079866763024 3.245174561579149 0.0
8.991492136849105 3.135578770028028 0.0
9.29603967712795 0.1426516429033488 0.0
9.392428271030795 0.2506306237151588 0.0
9.223973843394301 0.2912279164401488 0.0
8.39375191941536 3.018777714002827 0.0
8.4836475746111 2.88135207267795 0.0
8.741089053946197 9.821127577434911 0.0
9.803966507713174 5.448064463539533 0.0
9.748132240148552 5.359371181503531 0.0
9.850258990973547 5.355211921626304 0.0
9.7965346514158 5.266762244994661 0.0
9.84142096963129 5.171050273734619 0.0
9.738843612428232 5.167483913244169 0.0
9.64168976006725 5.359875132194057 0.0
3.335917453809221 5.671837672982919 0.0
6.962669142802881 1.683222554707996 0.0
7.365210844496719 1.887492842536114 0.0
7.517378971174123 1.677983072937792 0.0
8.00383870208024 6.089394601875145 0.0
1.725435941000569 2.759295503019395 0.0
7.907977929549089 5.102827208603365 0.0
8.052861051278896 0.2683271125209605 0.0
9.80169732768395 3.385443381464333 0.0
9.831597648680848 3.28491948963525 0.0
9.736335895866404 3.316207814499244 0.0
9.597256128490281 3.756160701977744 0.0
8.865819925321706 3.366235906378775 0.0
8.489614436807788 1.757152185195495 0.0
8.88089641144391 1.078983279100314 0.0
7.430923851187758 9.724389499796425 0.0
7.584252919312249 9.509430586267927 0.0
9.744026095940516 2.247117754488748 0.0
9.729961521243718 2.659836747108116 0.0
9.790866569780063 2.558993767350471 0.0
9.736606445116795 2.455104424879619 0.0
9.846806182714698 2.452157456754448 0.0
4.518102112052724 5.141350889745285 0.0
4.519880229178207 4.85678334497067 0.0
9.7302407894617 6.434012603549242 0.0
9.787537474544765 6.523591663056312 0.0
9.744262337067932 6.617499601377625 0.0
9.8406238811518 6.41591236129004 0.0
8.914967252734657 3.579360039684312 0.0
9.154797282599406 5.670753066089419 0.0
4.228839454580575 4.612979739018002 0.0
6.095037541675208 4.42126627187728 0.0
9.304166983880842 9.864854494751789 0.0
9.406445527105628 9.759007358529582 0.0
9.256225114941945 9.700832989525724 0.0
9.796206564635622 2.351215649506205 0.0
9.849373673349081 2.25090453834006 0.0
6.332048155295931 3.511675163099286 0.0
9.069679774213784 3.022879178706259 0.0
9.070599961450037 9.055284879641471 0.0
1.808685691036764 6.331557276533421 0.0
7.120156826652838 4.698481230214924 0.0
7.052894345811342 4.799848851879358 0.0
4.739957520484086 5.369107149361242 0.0
9.389197839958292 7.197139943834638 0.0
9.046688232613976 4.560364044038737 0.0
9.162685461967492 4.562194096410666 0.0
4.227377821420887 1.564128177298305 0.0
9.201090975245227 2.794301402811909 0.0
9.251941624303948 2.677556975242327 0.0
9.186758273070138 2.563916005021366 0.0
9.317609833868786 2.560335260954038 0.0
6.57599191748324 2.437689779955877 0.0
6.305556560534859 2.459112595979303 0.0
6.981058048792093 2.642476994448363 0.0
9.886113463139504 6.510498309609482 0.0
9.250462794607717 6.221362629571698 0.0
9.305373999084068 6.108271307139882 0.0
9.390477915810829 6.228015172491477 0.0
9.44452571968143 6.114582165110393 0.0
9.502105740270528 6.197677857389309 0.0
9.31559697209813 6.331647407124485 0.0
9.370938253597153 6.437386206819511 0.0
9.594764406124872 0.1099001288712305 0.0
9.602872681151728 9.894988341116305 0.0
9.622661196143387 8.076680696281343 0.0
9.769069277144705 5.9102532189237 0.0
2.615076109785583 8.807551523115547 0.0
9.658920005405456 5.730890135691177 0.0
9.76063135061807 5.720703211793342 0.0
8.63963723169499 7.177334225227945 0.0
7.841904391869763 6.41346852896409 0.0
7.764520718520185 6.297267738834625 0.0
9.546492996136271 3.465225175657335 0.0
9.25600964352143 2.219157062786616 0.0
7.625057159226293 7.012987957636062 0.0
9.529121062829038 7.730283486008674 0.0
8.329887090625894 3.845190321147069 0.0
8.265841850823831 3.95687001944245 0.0
8.402006523775544 3.947660780406651 0.0
8.128436391670505 3.968543393650448 0.0
8.46705122470662 3.835767362024195 0.0
8.218867047074696 4.063481375518748 0.0
8.089763413611255 4.08062363292928 0.0
7.939578083855268 4.111915744184436 0.0
3.74991304509639 6.615676756107112 0.0
2.627714335615619 1.170993030860914 0.0
7.046129971268607 6.759930788612616 0.0
8.534603732661887 7.486325780553722 0.0
1.569381386467569 2.042794535871475 0.0
6.228703743210918 1.986421863690014 0.0
6.467030855792859 2.67190498312861 0.0
9.272246093269825 1.975478263632296 0.0
8.05269609263041 3.854522845257449 0.0
8.008595521536957 3.177870309354594 0.0
7.929796740504207 3.350600835935766 0.0
8.048703574664067 3.449582532910417 0.0
9.72947480375618 4.973926800124758 0.0
9.784850360535604 5.072865219810449 0.0
9.896036387646596 5.069261557893528 0.0
9.633140953203334 5.168645132864771 0.0
9.558102991128836 7.602453108835212 0.0
7.278758746505716 3.994295887299482 0.0
8.306681733482405 6.936428510427854 0.0
9.487163072013963 3.757777670075558 0.0
9.532950522284125 5.359403698944497 0.0
9.816036650072329 3.927268437107025 0.0
6.173882586235392 8.734645960664665 0.0
7.972518459433741 5.003005338485466 0.0
8.398453459336153 1.601072016988848 0.0
8.97460527296194 4.040886705742754 0.0
9.037941657530773 4.143578781749325 0.0
8.849604200183613 3.828506169652706 0.0
9.545296177100065 4.042698359132156 0.0
8.595941796785514 5.806754902023664 0.0
8.65588412428292 5.694192853853139 0.0
8.723710665131787 5.801528918332044 0.0
6.861288985046249 6.673713222735126 0.0
8.87477249219366 4.664500928777609 0.0
8.72385765226959 3.608276264790996 0.0
7.145228858696953 5.573648565429618 0.0
7.282945121585866 5.558559688509987 0.0
9.224761401603633 1.602363370249125 0.0
9.609115686587552 2.986868833620756 0.0
9.633989947851914 6.628120633848649 0.0
6.046214325132457 5.45615093027661 0.0
9.017014346798927 5.271996636983457 0.0
9.070824864071271 5.168510834798647 0.0
9.189021391555556 5.166867900487267 0.0
9.123328759137758 5.064718588163964 0.0
9.240587446378079 5.06459430516883 0.0
9.250848280531756 5.267364371053135 0.0
5.773050603406019 5.7192906317521 0.0
8.576466432793914 4.3559007860436 0.0
8.634627802680399 4.253467736542067 0.0
8.461790117175607 5.591735227444779 0.0
8.907610717370224 3.713397213891439 0.0
9.80665594564509 5.628066492225966 0.0
8.985935132601089 4.455263493464225 0.0
9.00640209566022 5.067597672073404 0.0
9.833659276096986 6.976519563917422 0.0
8.0283368553477 4.687271895436317 0.0
8.326580191759327 9.127498457128247 0.0
8.650637373791266 5.07513089931925 0.0
8.701067313435203 2.700069743477523 0.0
4.825307249916392 4.884175191874744 0.0
9.418335984190309 6.858444798015129 0.0
3.91434687300816 8.542956908935874 0.0
5.569239724399552 2.064135034637056 0.0
5.234271567762738 2.128974435011933 0.0
5.757920427527626 2.312422707096966 0.0
5.43365689737979 2.427455772745759 0.0
5.673210219624612 2.602111218343444 0.0
7.214258468265766 6.652783071431555 0.0
9.823626269633962 4.30685540664529 0.0
7.96996639420014 4.794005510174826 0.0
7.616003332725032 0.502676560965646 0.0
3.050634530589821 4.659174799474146 0.0
2.870894249800723 4.246924313393336 0.0
5.285393339952368 6.079037173753393 0.0
9.439954241218905 4.23581687956071 0.0
9.67709722097145 4.710772408106511 0.0
7.40767785509217 4.259947873553335 0.0
8.396202587439676 5.486075637998701 0.0
8.323689688705493 5.372061002264632 0.0
8.191312386254125 5.384662546230823 0.0
5.304380054816289 5.369675374029755 0.0
9.093848379546637 4.047647920840374 0.0
7.916313220758624 3.045043876114836 0.0
8.435854831444637 4.144861908356168 0.0
9.060262453079693 0.7340576053322918 0.0
7.053195520344596 5.238809779682351 0.0
9.621762679347093 2.45205452967588 0.0
8.410730269104743 5.287995309529392 0.0
9.655094569234972 3.472720279371932 0.0
7.982140513923982 6.667914768024983 0.0
8.402690325256646 4.883576657130221 0.0
9.17488654147479 4.962006474835693 0.0
9.013188196102961 8.49700148123058 0.0
9.795977244531603 2.156818021002043 0.0
9.893813711206834 9.545820400859157 0.0
7.965349232662289 4.250048884270795 0.0
8.644264557989125 4.874751532150782 0.0
8.215430976121077 1.26077208565765 0.0
8.379717637669398 8.37324652769609 0.0
9.320026533461409 5.559861899725609 0.0
7.885778178744864 0.4977439426642278 0.0
7.547066983926719 5.125166613071239 0.0
7.657542898944819 5.122996245335209 0.0
7.423918840193691 9.000935553397358 0.0
9.854133000712425 5.541931969512857 0.0
9.328508174398952 2.101486405523264 0.0
9.300749600926641 9.530012105354274 0.0
8.130307182491519 5.277079344947874 0.0
8.346752967392757 4.987627363826086 0.0
9.118404185029991 6.007087846617186 0.0
9.048232213728614 5.89431792713258 0.0
9.088340967655858 5.576242562571367 0.0
8.094762487139027 4.789727191449318 0.0
9.915265904493378 5.749591413470928 0.0
9.92169805280126 6.154216704502091 0.0
9.918022441582268 4.549125436287157 0.0
9.919332362905616 4.849536560132457 0.0
9.914800786693318 6.750595509794719 0.0
9.811792900437824 6.703950687575952 0.0
9.900643083988882 3.749855087409844 0.0
9.912423171222734 3.043228996968949 0.0
9.91892875832665 5.949999999993851 0.0
9.913300070218703 3.960831593817277 0.0
7.709347001661226 4.444236534782706 0.0
7.479443107717332 8.071637285053104 0.0
8.839057072155848 6.807845119358974 0.0
8.972330068019902 6.78765448182788 0.0
8.542093772125282 3.941452413628317 0.0
8.279144752968262 5.930387616620717 0.0
9.393455876855919 4.973162505621418 0.0
9.507123333872533 2.855087674515822 0.0
8.77504684283825 2.317347145885344 0.0
8.394133129040345 4.464046960801843 0.0
5.725509852450801 8.210843960481027 0.0
5.62632390239664 3.967637659758752 0.0
7.910815814627989 4.900765971697654 0.0
8.595808444085467 5.590040244353608 0.0
9.705160502006024 0.8106158419444889 0.0
9.82021247904746 0.808810893177099 0.0
9.218352146075844 4.447736986422823 0.0
9.20781892622228 3.858281726888132 0.0
8.713609974387523 5.178241668554946 0.0
3.55755059259364 8.921522400238844 0.0
9.59122926011489 5.452844834281716 0.0
9.70565100407009 9.77887811062354 0.0
9.826938454219809 9.74303055702321 0.0
7.238962096855633 3.278078153406256 0.0
8.575609105166194 4.567807831727537 0.0
8.936449841121737 4.765835458965493 0.0
5.59323463391086 9.248527978398117 0.0
5.280809113285124 4.886132326418428 0.0
9.328132730893216 6.544753806716806 0.0
9.026944889277736 6.67247283515637 0.0
9.81946239021469 3.007926663525007 0.0
8.677633568960493 6.144049349297466 0.0
8.33427489656924 4.571212803519522 0.0
8.55734024448315 6.382535186588269 0.0
8.692399379422756 6.372347713955898 0.0
8.495817478252626 6.503308565233578 0.0
9.905494734661673 2.544078755559835 0.0
6.177101405266569 7.228490244483556 0.0
9.825373011845263 5.807482724503027 0.0
9.808678508609606 8.118683092442964 0.0
8.397717712407108 7.08010313863416 0.0
7.428555529689225 4.935946611338556 0.0
9.575504958128711 6.125633853639113 0.0
9.154066996197898 4.146562596982661 0.0
8.074381802159323 4.337569667261167 0.0
7.018337246891919 8.843475095716133 0.0
7.970627172560641 2.658650028065857 0.0
7.382546388883145 6.723381543491632 0.0
6.822972334933889 4.884555620881615 0.0
8.343732976791593 6.041576709398377 0.0
7.743680217306919 8.423336160305476 0.0
8.505717922983454 1.115022897794028 0.0
9.113973198216474 6.992972408167606 0.0
5.818882632841168 5.300437503812764 0.0
5.951991891717714 5.279516346785062 0.0
9.450183479138845 5.92934813870612 0.0
8.783346541536119 5.48419035750989 0.0
9.38074895894124 5.65076274999803 0.0
9.513658728876734 7.193620441323493 0.0
6.396040948797887 6.776064256962667 0.0
5.389661780244388 4.89715084345563 0.0
4.473247649068957 5.85935163892416 0.0
9.249586607512612 8.37680799459232 0.0
9.103796366487646 8.379197231055114 0.0
6.274057301184156 4.87985402946409 0.0
9.259628836118232 3.561431822636308 0.0
4.037922477011971 5.489409780163391 0.0
5.62712958624254 4.893925433488392 0.0
8.806426003347967 6.133410188141932 0.0
9.53304466499349 9.59279975429444 0.0
9.542890959420024 1.966631379116419 0.0
7.459736176874619 5.863847835420528 0.0
5.937613117200432 4.89232797168023 0.0
6.171611131472617 4.879541833448487 0.0
6.100695199816815 2.291172318314745 0.0
2.315194906726768 8.081958163666464 0.0
6.878489987598286 5.148099521847569 0.0
9.105264414399338 8.639184652727645 0.0
9.20047261316883 3.457820810661327 0.0
9.895329010385955 7.55944047105717 0.0
9.912742873006831 7.76210330502246 0.0
9.37761459375249 3.168397068877758 0.0
8.946121261512507 6.345629828835438 0.0
9.918632496443566 4.449809517365367 0.0
6.848211525651934 5.945010613369067 0.0
9.915721525903255 2.047407395915179 0.0
6.117255841708726 5.163321965161054 0.0
7.276595248786602 5.347247322210079 0.0
6.32682869954104 5.23674259421017 0.0
8.785886448438022 5.692775375342819 0.0
9.099994401883361 6.776698531382792 0.0
9.913397459621638 0.2499999999998165 0.0
9.910352525643928 0.4481571029410266 0.0
9.907850422008579 0.5479735220323012 0.0
9.911983631350465 9.24778487019403 0.0
9.917634740384067 0.7514684821956668 0.0
9.195214232985496 3.254172408378337 0.0
5.000896927376288 1.846006038077654 0.0
9.917172478547403 8.250155740683276 0.0
9.908120476950126 1.742986232208194 0.0
9.914524635720774 1.949567899316728 0.0
9.907358878377153 9.145625165175748 0.0
9.917695944922635 8.949999999998397 0.0
7.648387553139914 5.325741673607362 0.0
9.605343588986079 4.130627398479715 0.0
6.648113233057817 6.774798386229164 0.0
9.910347203087213 8.446729917003672 0.0
9.913623694530468 8.548470085896316 0.0
9.9201245863254 1.536225488581779 0.0
9.906538426683255 1.059019360781604 0.0
9.912867352010919 8.74999999999809 0.0
9.799662981388353 8.79550485462418 0.0
9.831828680383174 5.99966894118311 0.0
9.91414179906643 1.263025320602998 0.0
9.920690092699912 7.240982963665807 0.0
9.385889285950551 2.235126904097426 0.0
9.28133998925606 8.00415195851526 0.0
9.817074723108401 3.172398890123306 0.0
9.482030285089927 7.512954023388035 0.0
6.682432918504054 7.233889573028878 0.0
8.528699633246763 3.260502457553277 0.0
8.91699963742029 2.327016692708648 0.0
9.267676068834481 3.954520684561369 0.0
8.70811637467455 4.974101624783084 0.0
8.18184214270768 7.816666208279135 0.0
9.690393137288163 5.264344933127836 0.0
6.937111790104696 5.245184991960528 0.0
5.895846026722989 5.174232967273284 0.0
8.281683356622615 6.400073017261236 0.0
9.150883172924027 7.444273543454419 0.0
5.430406600793122 3.390815886517273 0.0
5.049583827974758 5.697634876048387 0.0
8.3966710383105 3.495813899905868 0.0
9.007538428392454 8.046563579784266 0.0
4.645155158868719 2.637132843684674 0.0
4.887444326771336 2.30020425915506 0.0
6.483736782775559 4.522536327482678 0.0
7.843169154548308 8.2116075844056 0.0
5.06295551628385 4.901632590583318 0.0
7.201400991012747 5.138239336380897 0.0
8.519791031104612 8.848807089071627 0.0
8.658623737989732 3.031313729049854 0.0
7.585566208322493 3.629882964874684 0.0
8.411818469596405 6.834326722716643 0.0
9.172363528634236 7.669230647622864 0.0
8.85455683341768 2.682483055215344 0.0
9.359398739738925 1.631421337140716 0.0
9.071793864444992 7.337030604117359 0.0
6.968394563521436 3.712808894519514 0.0
7.899236117684646 7.094583340182754 0.0
9.54362864504834 9.781852543872333 0.0
7.151298729743687 7.644795130415299 0.0
5.452218361466201 5.186873761308322 0.0
5.517642289161902 5.293540933999446 0.0
7.802500357665464 5.978295671754199 0.0
6.594850839687122 8.491429270558893 0.0
6.029132431949566 8.294997405201931 0.0
9.31286590869111 0.5672913838331921 0.0
9.25238720319541 0.4415953739444106 0.0
9.550589523211062 4.228044955453704 0.0
8.748611832783206 6.250900951984038 0.0
7.566980108995873 3.995148257893202 0.0
7.426142759241261 3.996743578498081 0.0
6.478912513785404 4.000296412419969 0.0
9.30435638148753 5.168210982711592 0.0
7.542154188520517 5.752525075248498 0.0
7.219033852073297 2.139582470800704 0.0
7.370913620388047 6.545121498197235 0.0
5.226731036024996 5.187572666585561 0.0
8.515591031124366 4.462223215179979 0.0
6.762864307079274 0.3078036604979366 0.0
8.587432696997471 4.977010533175154 0.0
8.703948448756302 8.815629076400704 0.0
8.081003990931544 7.370949680119862 0.0
7.424404567669909 6.949730915714445 0.0
8.578903262311433 8.377992954045473 0.0
7.301258690263783 6.106184350645308 0.0
5.991600556904204 3.99820087171043 0.0
8.203048538477193 1.601044215405025 0.0
7.289972483120081 4.572350254111052 0.0
7.714697186439165 5.420586967696794 0.0
8.918853780709807 1.841796898567452 0.0
9.919941345877513 4.749808449067644 0.0
7.245589454939737 5.94251251443003 0.0
9.258480524497795 3.358952871140391 0.0
3.705877615124628 5.574038727593425 0.0
8.287096858129765 7.962370605242409 0.0
6.799629860952143 3.705385600481528 0.0
4.146753450763018 6.544154457143895 0.0
7.413973555029582 5.545687501585183 0.0
8.466524978378082 4.980481756569235 0.0
7.336312153537934 2.337983522449311 0.0
7.695505222753409 3.747498713679684 0.0
4.898236813123799 4.795853653580084 0.0
4.59779105899602 1.896916774247134 0.0
8.560170375862322 7.072369101894893 0.0
8.386150468360862 2.449771437140704 0.0
8.41200018115259 5.084601315536367 0.0
5.102189912301071 7.621598618277815 0.0
8.336320418935243 6.71651223072348 0.0
5.081745734883095 3.977838926197614 0.0
7.63590698378166 0.9500570055008507 0.0
7.743369677149255 3.051233984704873 0.0
5.357527459690566 0.3809996753407537 0.0
5.967373112873382 0.7731113464301924 0.0
8.169449265206127 6.666271947462212 0.0
5.95122726745053 5.55758205410881 0.0
9.922289489207834 3.53923011719877 0.0
9.39154684476555 2.659037023454942 0.0
7.701415639167884 7.690060291860976 0.0
9.819179654793023 1.329863870021845 0.0
8.358229579054417 6.506108206863729 0.0
9.269720555169467 5.657096143475924 0.0
4.473187658045934 7.435037860084884 0.0
9.65807158077373 3.255496360750368 0.0
9.605155446454205 8.713645566904637 0.0
7.097383547728313 5.141197376985936 0.0
9.812212483832656 1.89920712759492 0.0
9.83875570675407 6.81603549325055 0.0
8.926246869879279 2.079976511571457 0.0
9.166785856141402 9.169070814302419 0.0
8.763479010228052 1.587152667342957 0.0
5.957377924852992 6.404530806530254 0.0
7.14506854375872 6.10342416684208 0.0
5.672595070581394 5.164323323112049 0.0
4.899782787268781 0.3801727265981219 0.0
4.447133848117348 4.673614099606824 0.0
7.044865074789195 3.253639989243549 0.0
9.818461337102992 7.819456450952447 0.0
9.925334577033155 7.954012377173311 0.0
6.352907898232792 1.173665225954276 0.0
7.351721385581032 5.660361289755705 0.0
9.337367583861807 2.76534436379692 0.0
8.693118347802024 4.360254099729149 0.0
9.476812970101324 0.3524826622168163 0.0
7.109868985890334 0.9024224571333925 0.0
7.899106846231403 5.511805431542581 0.0
8.352799544476607 5.187887629361129 0.0
6.957483547582747 0.6176251309213842 0.0
8.099559500483094 1.412323841044818 0.0
9.913030944540278 0.8542404645334569 0.0
9.143075088381442 8.022165366829135 0.0
8.819861450593166 6.356592599428041 0.0
9.319444417409162 1.49938505915629 0.0
6.490262520326714 7.118204362551877 0.0
6.490874470087819 6.582907761235813 0.0
9.82506653058937 0.6146757679104559 0.0
6.803129818897624 4.419048038171804 0.0
9.840901379354312 0.08198751964190581 0.0
9.839740374244226 9.918356239418472 0.0
8.551927134544655 9.449788917425456 0.0
9.92097857388158 3.249999999993177 0.0
5.797087413057367 7.077351493358238 0.0
9.255412859987286 6.433984412022419 0.0
8.668174522249984 1.740767926084485 0.0
9.920991430240607 6.25262219124529 0.0
7.57275248448898 1.94367954756322 0.0
8.052865444445507 8.19900054463639 0.0
8.748697149245206 4.25201068974208 0.0
9.158270227735827 0.5542256343091421 0.0
5.997487767477439 4.787924707603557 0.0
6.119759900601896 4.78043793682227 0.0
4.353034750397793 8.619182743639561 0.0
8.721093521611476 5.588932824583312 0.0
5.717101151444983 1.123034066822819 0.0
9.825602081347064 8.68753399402474 0.0
8.005502510832988 8.7824052910506 0.0
5.548184234622668 6.408009287230429 0.0
5.77830300433981 6.598697187164234 0.0
9.613093825495433 4.50282172481406 0.0
9.928981132641653 9.74928475696928 0.0
6.613628176297015 4.515513362596662 0.0
1.822126723816303 1.297795131355289 0.0
9.514164594137375 1.43081427463862 0.0
4.735494753432723 3.698541604583975 0.0
9.52844959749262 8.615213629960298 0.0
4.660704511759056 0.7947595073298008 0.0
6.82340845160293 5.239926830264399 0.0
7.885938077030673 7.380147032865134 0.0
7.884599891021201 6.09005968568029 0.0
8.846834820720167 9.653276456345532 0.0
8.457777199486827 0.3851010632068662 0.0
6.66485224572131 8.771510767670392 0.0
9.091499342133352 9.708315832477556 0.0
9.824286725109655 4.976315293637262 0.0
7.848197684391786 5.632217046637356 0.0
3.88430598115417 4.225391362015386 0.0
8.776890759183289 2.809688928468134 0.0
7.393884285023409 3.59397875231041 0.0
6.927568893329758 4.396788356869783 0.0
4.96854327720728 2.662368428358774 0.0
9.1480130720193 3.951479613991279 0.0
7.071049729490975 2.38092990636632 0.0
3.40193058782919 1.686321186206593 0.0
7.612042194200681 4.815904436723407 0.0
9.043395868401339 6.888481825015849 0.0
9.098933057562759 8.152197681006806 0.0
6.058682303253315 3.857501492181965 0.0
3.707092669281355 2.986685502034343 0.0
5.113272509841263 5.189455016444592 0.0
6.960565857079232 3.416349532571279 0.0
8.755151527375476 7.649255597361291 0.0
3.393680865444538 3.679982303262531 0.0
3.117424600120088 3.35605258976247 0.0
8.530814041264104 5.488376426140491 0.0
4.820719767306654 5.106646490188182 0.0
9.918899263509473 4.144927088739744 0.0
9.918194630017027 7.447268230913605 0.0
8.461970084137805 3.144844565847669 0.0
9.924415919486059 6.949999999995354 0.0
7.184050152099684 2.72771667662237 0.0
8.834356715215904 7.801565642745232 0.0
8.689015446783005 4.145232831954543 0.0
8.490778532265319 8.234414357968106 0.0
8.63666290918932 2.83060276219705 0.0
4.61028976098935 4.741894230894578 0.0
6.314735925012879 4.003132559161639 0.0
9.20786580425652 4.67001723737971 0.0
7.141401229301469 4.873205425098625 0.0
6.235177809922153 4.774126344778935 0.0
9.12491895896937 3.145675090615719 0.0
9.255747684068178 3.162525801823036 0.0
8.312852272796098 2.290855459722148 0.0
1.449266720542303 3.363629101350872 0.0
9.525687840398492 4.800807314407045 0.0
4.829905263804087 8.14474456977717 0.0
9.09338914689732 7.563794106183232 0.0
5.389401689694107 5.283808684471545 0.0
8.530979415204587 3.029374286908943 0.0
7.901489077080633 6.535344047486632 0.0
9.218572924671975 5.760893551533255 0.0
8.562382833959296 4.143913974026883 0.0
8.62959127904665 8.974877485888243 0.0
9.408442441596518 9.62276529745719 0.0
7.5034765601713 3.869833107932387 0.0
9.842813436634783 6.600620949014236 0.0
9.826116984327193 8.911617279149695 0.0
7.529907780698261 0.7369111006685982 0.0
7.832164962480427 2.905293639437395 0.0
8.39517908433056 3.267417602291069 0.0
9.823014010107707 9.085319632577246 0.0
9.022314123618541 3.944559746338292 0.0
4.243701230676532 5.332574856090426 0.0
9.816740542566388 1.127839952679595 0.0
8.166775715766304 5.693916696568397 0.0
8.865374421689054 8.068986769641638 0.0
8.761145809863661 6.470583506581853 0.0
8.998345275919851 9.209303502026401 0.0
9.698477487436316 6.706902829754045 0.0
6.439032098063426 0.3109134377713525 0.0
7.562681994382136 4.643158005207056 0.0
9.03999088074715 0.2799354672273258 0.0
5.180741540467516 3.805018725608906 0.0
6.243990330956698 2.718077286244967 0.0
9.79416634023361 0.1815240178579244 0.0
9.926540005061975 2.847049370876555 0.0
9.826476210374608 2.670192168078066 0.0
6.365816673179121 4.536333049275508 0.0
5.546353765219417 4.618331215552614 0.0
9.820703096450293 2.000649418331399 0.0
6.884388790679166 3.561583980715254 0.0
7.431303395649604 5.747824222777201 0.0
8.849816832721245 2.19318290395604 0.0
4.185147517585975 5.697469360586313 0.0
9.165905238119013 5.873664931582344 0.0
7.70479478158537 1.788324620089049 0.0
9.627376046933474 0.9196091445437269 0.0
6.657687963328663 5.144792385996769 0.0
9.83245016645186 0.3925568446109945 0.0
7.483092985762584 9.253837199159435 0.0
5.445348362202234 3.977855663863651 0.0
7.476680532833337 4.837183287808616 0.0
9.572749890969304 8.505160319814301 0.0
9.915853314998252 9.437014513917465 0.0
7.679469018350979 7.390484878021194 0.0
9.418139053434402 4.790576000488359 0.0
8.096967733471567 5.865447162201908 0.0
9.829153508938724 8.378494945652118 0.0
9.926595955569645 5.157718300415699 0.0
8.774484245600224 7.939747459426853 0.0
8.629764448155779 6.481031318922794 0.0
8.961169458302376 3.839036702328818 0.0
4.617199205561317 5.256318959792646 0.0
8.480815774219478 4.031210317621497 0.0
9.708341592512763 3.401018043990571 0.0
7.183974816647467 4.77882314543966 0.0
9.821437962294304 7.659391965474772 0.0
8.150320284869602 2.286501016204562 0.0
9.828114434347311 1.684891358832554 0.0
5.349187766238684 6.538177907133678 0.0
8.076053471314525 2.76180604769483 0.0
4.907713691134565 5.29818629967416 0.0
0.6874399366049438 4.328593906714074 0.0
0.6980011780697519 5.702671170050627 0.0
8.263861466707834 8.182284285231713 0.0
5.838783785156478 4.913981390426639 0.0
7.807619472656604 7.235706382002089 0.0
9.388504256318683 6.022122644748753 0.0
9.929839894767033 6.436189192303577 0.0
8.3205848711706 3.39107920408397 0.0
3.240770542267401 4.019899919523968 0.0
8.059047070496568 2.468855909103855 0.0
9.932479519490421 2.449625056415224 0.0
7.737639000139152 4.580708137963557 0.0
8.26141077223695 0.3940397126348397 0.0
9.69568953371801 1.959951226402445 0.0
6.469120930453264 4.892267070266994 0.0
9.167223997255698 0.8102256463122337 0.0
6.236889648241256 0.9291076084031108 0.0
8.306379082772498 5.268830342852036 0.0
6.716089118890225 5.239344620507032 0.0
9.82511981852641 9.282822358664017 0.0
6.68375719572285 4.404998642130821 0.0
8.913754712375674 6.908138360584365 0.0
6.173250048857013 5.251634416326969 0.0
4.235907497612446 1.924052997345291 0.0
5.151007663981651 2.438629730660893 0.0
8.924254300637541 9.3764975797567 0.0
4.438612423541503 5.287968640901957 0.0
8.571203234299599 1.897009944569934 0.0
6.878800676380218 5.821332862798138 0.0
5.710626178601224 4.792560699857408 0.0
7.149510071621283 5.216310009157644 0.0
2.099966541549645 2.334742113488256 0.0
9.93396330620579 5.350566393301629 0.0
7.143046479323961 8.646955109387985 0.0
7.965747313080266 5.193641450105844 0.0
6.3314394693073 5.135050228240639 0.0
7.665821333021348 6.222698255001823 0.0
6.305321657053551 4.659816230868476 0.0
7.833020917089713 5.208837056143474 0.0
9.41455902676429 2.869725681199307 0.0
8.567151507735133 6.598605357295113 0.0
7.405527786978573 4.377085529441429 0.0
6.552969697053132 5.137148974085434 0.0
9.93630620742063 8.042778076596578 0.0
7.166743296019233 4.593171678848165 0.0
6.595561806063966 5.839366735225723 0.0
6.066152182102007 5.262519562574559 0.0
9.834694151277489 0.9093455747994099 0.0
8.98259191950674 7.579732466796592 0.0
6.465071238839505 5.25485771955322 0.0
9.759759896588413 3.236659507608532 0.0
4.775529448101694 5.224235675150505 0.0
9.935991245222917 7.153416415978829 0.0
0.6530736820718381 9.352299998916202 0.0
0.6449439415299687 0.6468300344151556 0.0
7.804690364869245 4.495816547678174 0.0
9.84503784553893 5.70620404704573 0.0
9.83525329400959 3.826992990746767 0.0
9.922964894244684 4.265000406933376 0.0
8.333767638401964 1.121219971446645 0.0
8.876012546033895 7.019147158538482 0.0
8.172413577824324 3.413096916572049 0.0
7.232233017296214 4.478957103028363 0.0
6.214597295185415 3.852860083673202 0.0
9.85013791746415 4.400709747289421 0.0
3.941627380932058 6.342995010255737 0.0
3.097271569675528 8.77391871286929 0.0
9.292917152323044 6.010976049411984 0.0
8.104342196673183 5.184165973282902 0.0
8.994300084006271 3.652611812846807 0.0
9.937157897030163 5.549999999993244 0.0
8.721368888525245 7.274540720770752 0.0
8.920003648712827 0.9516585309368178 0.0
7.910527456030004 8.536826514867816 0.0
9.846441288756814 4.60515911863952 0.0
9.584942233925151 4.712073182517884 0.0
9.642357858573972 6.805672051759494 0.0
9.797024725252207 9.838837222258014 0.0
9.842451438022124 4.018973836958878 0.0
6.112723137676118 3.704473949316424 0.0
7.574641969193845 3.765362276156904 0.0
7.826594968121701 6.200366572362263 0.0
7.762805366733504 9.34009502796868 0.0
9.56854033867856 1.012566255816665 0.0
7.71256563655353 5.219373702836014 0.0
9.68039392238282 8.786964504862018 0.0
5.910362452777086 9.277662068919813 0.0
7.418090653922814 3.326443419100716 0.0
9.857704179097952 4.697553149694669 0.0
8.452469674653342 8.996585816905599 0.0
9.522351366699843 2.057525484575908 0.0
7.802315574700843 9.548878971475935 0.0
9.938875656926385 3.449999999992592 0.0
8.425189037911712 6.608575180629274 0.0
5.925965231566842 2.523669697740033 0.0
6.654918072256329 5.95749128982984 0.0
9.826748589235729 9.631118448471485 0.0
8.6684585637523 7.39633999085442 0.0
9.844673843931567 3.090088625379724 0.0
9.93613850661301 2.250382721159617 0.0
9.218291993658738 2.892108990205171 0.0
9.83502846611296 8.212781989607324 0.0
7.754136409732265 7.104288507262783 0.0
8.510570542791681 2.036933285735889 0.0
7.757745059307245 4.315798612475442 0.0
7.989231770559189 6.201656630465583 0.0
8.068934521422738 4.198631572122605 0.0
4.957478134450373 9.038766150325067 0.0
7.208661142641733 6.501402463831379 0.0
7.299506095906239 4.363561999234681 0.0
8.250303873550486 2.105322217421675 0.0
8.678637541413377 7.053471135702286 0.0
9.761528395137384 6.163503990672834 0.0
9.84494857233395 8.59999999999775 0.0
9.83825138794677 3.672838954969637 0.0
5.121008544047756 5.808127183024784 0.0
8.343911550360986 4.043535893276861 0.0
9.85324441775315 5.899999999993774 0.0
9.51114465213134 8.41035540646284 0.0
6.505812179224195 6.93390566262983 0.0
6.15572847138365 9.023097246950844 0.0
3.352081892333425 3.024853379890529 0.0
6.433163283162099 8.675072413910678 0.0
8.825744236698243 3.624446391299867 0.0
4.883007294861279 7.819620905924936 0.0
5.876659170760434 5.638247433601083 0.0
6.859400040348503 6.510797998354633 0.0
7.946400945409184 3.500317276373196 0.0
7.496830255505493 6.653194511698024 0.0
9.852183479755313 4.891525833556942 0.0
9.77998778436291 2.922486526124376 0.0
6.774672660492365 5.324728659740495 0.0
5.717254072187427 6.824125962512845 0.0
9.713440940838062 4.63793103997539 0.0
8.859858662536796 0.2721395536350836 0.0
8.37556017530946 9.436653414116012 0.0
7.395237381047616 7.885576562773319 0.0
5.4709157802033 4.511152089197594 0.0
9.489749416979361 9.691840729914848 0.0
4.599216022837964 3.46438688931078 0.0
5.572287492757569 4.807021644849729 0.0
9.926499336309957 9.92730688390086 0.0
9.926499336310107 0.07269311609890093 0.0
9.338127766332573 0.3585313952168247 0.0
6.810761948165162 3.414693294319008 0.0
8.166274345037138 5.943611545564389 0.0
5.2892644736731 6.301081312912763 0.0
9.731911074791544 7.649313380659622 0.0
8.90251102352767 9.50983415326544 0.0
8.997881406541017 1.033666784655452 0.0
5.835124768755703 2.738139962594905 0.0
9.665357480775825 6.185331297099201 0.0
7.656532192558493 8.217157287499347 0.0
9.170463887605525 2.975444721032631 0.0
4.208158615905443 0.8648302238584886 0.0
6.97015686031129 5.933674629077266 0.0
6.181941366523793 3.565885175921835 0.0
3.30313590337911 6.393402837735046 0.0
6.447482061767014 4.816169316820496 0.0
8.185341428749446 4.169172087371246 0.0
4.552595724340015 8.298301336212145 0.0
9.84850676569699 8.999999999998423 0.0
9.846941514449377 7.393642828194986 0.0
7.924592433490734 2.788309934035703 0.0
8.154308714226714 8.853640122009672 0.0
8.876629743004642 1.96110242719995 0.0
7.228849192966834 8.90811350348676 0.0
9.852301635085423 8.296637825215246 0.0
5.219795195341889 5.547413133147649 0.0
9.861497117995457 6.901363010201344 0.0
2.953911258021604 6.136007283255669 0.0
6.93158841067062 4.77708273647784 0.0
9.67540418457871 2.912802891506324 0.0
4.194055958522277 4.437353127730132 0.0
6.133959559341536 0.406856611599261 0.0
8.29952795189331 9.309744645643846 0.0
9.843692337952948 1.209647690818311 0.0
5.164986286280336 6.671544079402435 0.0
9.838533350075606 2.081705440779448 0.0
8.301244777513975 6.604088853319459 0.0
5.471494771710784 2.714598185146428 0.0
8.86534684892311 1.208599471795828 0.0
9.940610684232212 1.451558535868664 0.0
9.40896208432968 1.428353940655538 0.0
2.329177605337097 4.238803555614174 0.0
5.980761651517799 7.182207186682233 0.0
9.66541573964336 0.1719254072074424 0.0
7.220979380229172 7.806128737674462 0.0
1.251721227904697 6.151932667911503 0.0
8.104967286191181 6.057912607875576 0.0
6.650768762224724 4.817922869198292 0.0
6.634976350437587 3.213339182992986 0.0
7.034320437500567 4.898219100342838 0.0
9.502772020064167 6.283064492634301 0.0
8.13187938667684 3.518506862055515 0.0
9.855471943454193 2.599999999994991 0.0
9.056747742708522 8.263936599935574 0.0
4.352645795441222 5.724453640019 0.0
3.744263984699181 1.488951698361357 0.0
5.175860134287045 3.6375726667098 0.0
7.736434712114619 6.400417475661193 0.0
9.857658576695343 6.316607183405179 0.0
7.876525261950537 4.304285002335559 0.0
9.856114384785611 7.914602773442983 0.0
9.848334119947063 0.7059644476295188 0.0
9.59694321995579 6.895814046141667 0.0
5.906465212962551 3.869023950643881 0.0
9.840676994268005 9.364956386459765 0.0
5.355015287544095 3.83518170601625 0.0
6.374090407153147 5.855743754257685 0.0
8.227401290513832 5.297819733684674 0.0
5.451235131977493 4.825706629991923 0.0
6.022070213762754 5.355923882747634 0.0
9.845674433677614 6.108401449483281 0.0
9.835067400944396 7.739582406783081 0.0
8.602026805792988 2.941372356914139 0.0
5.059869081004962 5.269480960018243 0.0
5.284714507903736 5.26496663762182 0.0
9.627110479149561 7.660076105040499 0.0
6.820001127809743 4.792514421153957 0.0
5.120512795059439 4.806607659110254 0.0
9.56933817216883 2.911464407429096 0.0
9.74091654291531 9.267545397628387 0.0
9.93006767325302 6.576784040838644 0.0
9.642486276936268 4.650227701598451 0.0
5.185183328569137 9.410919109238325 0.0
9.37052946854105 4.605636695802024 0.0
1.677077220416309 5.871167715901136 0.0
7.345783833404538 3.184020711886284 0.0
5.419239942654976 5.982692039856376 0.0
6.133318300188262 2.551919945731369 0.0
6.187291396343277 4.499077117404439 0.0
1.231465237822878 3.921479198315213 0.0
8.969849937139944 9.699215363213542 0.0
9.218303154263054 6.037447959776716 0.0
CELLS 4886 19544
3 1113 1356 1450
3 1402 231 1659
3 272 269 1414
3 396 394 1777
3 1451 945 1452
3 194 81 1801
3 1847 1501 2104
3 2024 2121 2479
3 1115 1113 1450
3 1124 1413 1844
3 1061 1955 2409
3 307 305 1645
3 1592 1369 1593
3 238 1501 1847
3 1955 1883 2409
3 1808 243 1910
3 1885 978 2362
3 1440 793 2092
3 189 1488 1608
3 353 350 1864
3 2007 2231 2232
3 307 1645 2493
3 1096 1760 2496
3 2178 874 2179
3 621 625 1595
3 1493 1480 1938
3 1655 1268 2137
3 1341 1410 2212
3 243 1808 2360
3 1902 1446 2516
3 1760 1096 1763
3 856 790 2180
3 2008 2046 2105
3 789 1809 2067
3 694 1543 1575
3 1127 1762 1953
3 1748 807 2228
3 1543 1308 1575
3 820 1872 2170
3 1417 954 1998
3 1369 1592 2386
3 272 1414 1787
3 329 333 1998
3 1544 1095 1545
3 2231 1490 2232
3 1342 1683 1790
3 374 377 1797
3 807 1678 2228
3 1665 198 2128
3 141 142 1620
3 325 322 1952
3 231 1402 1654
3 198 1665 2010
3 1890 1307 2387
3 208 1438 1619
3 2016 1970 2156
3 1436 212 2020
3 954 1417 2333
3 1736 1894 2244
3 1491 1750 2143
3 1677 1064 2146
3 1474 1258 1475
3 1500 233 1930
3 1446 2415 2516
3 1700 973 1800
3 2128 2270 2316
3 1316 1315 1593
3 1307 2341 2387
3 2258 1324 2328
3 1083 1507 1508
3 693 1095 1544
3 621 1595 1596
3 667 1571 1872
3 1932 1766 2061
3 393 391 2240
3 1342 1790 2400
3 252 1707 2234
3 931 978 1885
3 1430 1116 1704
3 1411 1109 1714
3 1478 1227 2440
3 1990 195 2297
3 1792 1167 1985
3 1682 444 1975
3 394 397 1777
3 1711 2028 2162
3 1574 856 2180
3 2008 1851 2046
3 736 1493 1938
3 1069 1060 1662
3 1458 455 1754
3 862 691 1705
3 1161 1642 2286
3 1699 1700 1800
3 447 516 1637
3 955 1482 1483
3 2024 206 2121
3 391 1773 2240
3 1072 1412 1893
3 212 1436 2350
3 1566 1365 1568
3 259 1441 1672
3 872 870 1764
3 330 328 1889
3 1539 1161 2286
3 1897 1898 2275
3 1434 1990 2297
3 1109 1411 1730
3 319 307 2493
3 1762 1761 1953
3 1369 1316 1593
3 1540 834 1832
3 1505 652 2442
3 1732 1655 2137
3 921 1712 2295
3 1872 1388 2170
3 1712 921 2125
3 2028 244 2162
3 1506 1570 1680
3 1569 368 1964
3 1571 667 2375
3 1587 2178 2179
3 196 1723 1737
3 524 2016 2156
3 1528 1250 1733
3 1115 1450 1973
3 1938 1480 1971
3 1809 1396 2067
3 1641 249 2299
3 1223 1258 1474
3 1365 1566 2120
3 1981 962 2316
3 1538 353 1864
3 455 1458 1756
3 152 233 1500
3 1116 1430 1703
3 817 652 1505
3 1347 2003 2004
3 1607 1958 2085
3 194 1801 2195
3 1410 1341 2351
3 223 1415 1710
3 197 1511 2346
3 2198 787 2225
3 81 82 1801
3 1438 208 1620
3 1444 522 1823
3 1511 197 1950
3 726 718 1567
3 1637 516 1739
3 1708 2337 2341
3 1280 1649 2124
3 2337 1395 2341
3 1327 1709 2315
3 1225 1227 1478
3 691 624 1705
3 476 2224 2305
3 830 832 2204
3 1750 1491 2403
3 1366 1897 2275
3 2345 1583 2352
3 2054 405 2110
3 1984 2172 2230
3 1846 2198 2225
3 1177 2042 2418
3 2121 1367 2479
3 1527 1531 1541
3 916 1039 1834
3 1413 1124 2467
3 1622 1503 1868
3 249 1641 2019
3 1805 405 2054
3 1761 1007 1953
3 1415 223 2395
3 960 1756 2203
3 368 1569 2135
3 1402 1659 2473
3 941 1433 2471
3 1267 1477 1501
3 260 2002 2265
3 1704 558 2077
3 2224 1886 2305
3 2053 1386 2199
3 1452 945 1952
3 1717 1611 1718
3 1682 1975 2230
3 1760 1762 2496
3 1481 203 2104
3 1264 1266 1670
3 142 236 1620
3 2133 1182 2179
3 1791 1602 2183
3 350 346 1864
3 1412 1072 2393
3 1281 1575 2255
3 1565 1948 2155
3 849 1449 1513
3 1958 396 2085
3 1339 1069 1662
3 834 1540 1917
3 269 267 1414
3 1268 1267 1501
3 1440 2092 2468
3 1399 1981 2316
3 1635 1636 2041
3 1454 252 2234
3 1451 1305 1890
3 1375 1883 1955
3 362 366 1786
3 1484 2410 2528
3 1449 849 1640
3 1267 1474 1477
3 200 1611 1717
3 1054 1581 1582
3 1350 1977 2253
3 190 1390 2118
3 788 1956 2193
3 1709 1327 1888
3 2233 2298 2413
3 1488 189 2355
3 478 1685 1714
3 230 1525 1690
3 1687 478 1688
3 427 429 1756
3 1570 1065 2476
3 1880 1133 1988
3 1649 656 2124
3 1537 209 1614
3 1134 1769 1986
3 1220 1268 1655
3 396 1777 2085
3 1167 1755 1985
3 2229 1744 2296
3 1575 1281 2287
3 127 240 1882
3 377 647 1797
3 954 329 1998
3 220 1697 1698
3 1342 1341 2212
3 1441 264 1672
3 1512 188 2433
3 763 2345 2352
3 1685 1411 1714
3 1805 1188 1951
3 1347 2004 2157
3 1054 1582 1667
3 1333 1617 1674
3 2217 73 2361
3 1539 1036 1917
3 1039 1292 1834
3 208 141 1620
3 1965 1964 2038
3 693 1544 1969
3 1453 239 2279
3 203 1481 2049
3 945 1451 1889
3 680 1459 2134
3 354 2147 2196
3 1405 1932 2061
3 1723 1722 1737
3 1748 1175 1927
3 1532 1528 1733
3 2057 1824 2154
3 1406 1659 1702
3 1948 1186 2155
3 210 1598 2114
3 1685 478 1687
3 1324 1325 2328
3 1526 1250 1527
3 165 166 1509
3 1493 736 2523
3 1526 1527 1541
3 1390 190 2417
3 522 1444 1998
3 1680 1570 1732
3 1017 1442 2525
3 374 1797 2430
3 1507 1083 2197
3 1756 960 2221
3 2270 1400 2316
3 2205 1452 2282
3 1074 1187 1888
3 2158 1245 2200
3 1442 1017 1684
3 864 1116 1703
3 1750 1751 2143
3 1456 516 1492
3 1677 2146 2149
3 2022 1339 2388
3 1602 258 2183
3 678 1594 1595
3 1245 1670 2200
3 972 830 2204
3 2143 983 2342
3 1268 1501 2226
3 1266 1461 1670
3 1487 222 2465
3 1382 2022 2388
3 58 59 1661
3 2147 1543 2196
3 1484 1485 2410
3 628 2053 2199
3 1906 1549 2259
3 364 362 1786
3 1339 2022 2247
3 1636 525 2041
3 625 678 1595
3 678 1593 1594
3 2212 1410 2222
3 1837 1865 2215
3 1699 1800 1801
3 866 864 1703
3 893 1472 1982
3 1735 1736 2244
3 1633 1255 1922
3 126 127 1882
3 681 867 1656
3 1351 1401 2363
3 11 228 1588
3 1127 1953 2454
3 265 266 267
3 1722 1122 1737
3 1389 1691 2069
3 1613 1610 1616
3 1227 1256 2440
3 429 455 1756
3 1535 1177 2418
3 322 324 1952
3 973 1700 1802
3 1964 368 2038
3 1176 1865 1866
3 1096 872 1764
3 1176 1866 1875
3 193 1839 1892
3 156 157 1441
3 615 617 1596
3 686 1520 2480
3 1409 2097 2305
3 2410 1151 2528
3 1427 2217 2361
3 440 1911 2314
3 1744 1743 2296
3 516 1456 1739
3 1939 589 2164
3 690 931 2150
3 1062 1579 1580
3 1054 1580 1581
3 955 1483 1716
3 1064 1677 2248
3 1956 1616 2193
3 1776 1893 2026
3 1398 1115 1973
3 2002 1453 2265
3 1541 1531 1542
3 216 2191 2536
3 1736 1326 1894
3 1065 994 1066
3 1598 2115 2175
3 2314 1911 2358
3 1433 941 2042
3 2115 1209 2175
3 717 1550 1551
3 188 1941 2433
3 267 1132 1414
3 771 1569 2064
3 1157 1545 1546
3 1231 1250 1526
3 1933 240 2181
3 222 1487 2025
3 1525 230 1765
3 1430 1704 2077
3 757 1744 2495
3 264 263 265
3 883 773 1917
3 739 2205 2282
3 1667 1582 2434
3 1744 757 2474
3 239 1453 2002
3 1441 259 2356
3 2005 1443 2012
3 254 1766 1932
3 1509 166 1679
3 1477 1475 1481
3 793 1440 2165
3 1385 1523 2377
3 1481 1475 2523
3 156 1441 2356
3 1066 1220 1655
3 945 325 1952
3 2094 2087 2134
3 1747 1175 1748
3 253 262 263
3 1327 1074 1888
3 718 715 1567
3 2046 1043 2105
3 240 1933 2399
3 1305 1307 1890
3 224 58 1661
3 1195 1566 2285
3 1590 1393 1749
3 1255 1230 1922
3 353 1538 2073
3 358 1999 2325
3 882 1802 2036
3 1024 1020 1604
3 333 522 1998
3 1401 1351 2414
3 1475 1258 1476
3 2310 786 2364
3 328 945 1889
3 807 1748 1927
3 825 724 1912
3 1742 263 2491
3 267 266 1132
3 2077 2102 2203
3 1431 1432 1860
3 1212 1957 2312
3 2097 476 2305
3 1132 1402 2473
3 717 713 1550
3 1746 693 1969
3 1372 1124 1844
3 1256 1541 2269
3 1977 1350 2274
3 2332 1978 2443
3 874 2133 2179
3 1983 1534 2171
3 1157 1544 1545
3 1230 1228 1922
3 1580 1579 1581
3 1565 806 1948
3 1416 1363 2413
3 1287 1995 2398
3 265 263 266
3 1534 1529 2171
3 1604 1834 2428
3 1255 1633 2509
3 1344 1643 1644
3 1332 1388 1571
3 1423 217 2217
3 2191 1057 2451
3 458 447 1637
3 1250 1233 1733
3 472 2212 2222
3 1175 1747 1840
3 1652 256 1653
3 1073 1347 1572
3 200 145 1609
3 683 640 1585
3 1116 862 1705
3 1221 1223 1474
3 1778 801 1803
3 1503 1622 2471
3 1475 1493 2523
3 464 680 2134
3 14 210 2114
3 579 1880 1988
3 1434 1435 1990
3 1447 2310 2364
3 275 274 276
3 2294 1871 2419
3 814 1068 1684
3 1172 1439 2273
3 273 272 274
3 1363 1416 2406
3 1220 1219 1221
3 1060 1656 1662
3 1099 1792 1985
3 2048 1198 2168
3 1241 1245 2323
3 699 723 1753
3 1640 1862 2070
3 910 1018 1584
3 1586 1067 1587
3 1656 867 1662
3 1067 686 2480
3 654 2242 2294
3 1593 1315 1594
3 1880 553 1974
3 236 1717 1718
3 617 621 1596
3 1723 196 2313
3 402 1877 2116
3 273 274 275
3 2202 1869 2252
3 1510 1358 1767
3 193 1892 2373
3 1188 1805 2054
3 1220 1221 1267
3 1066 1218 1219
3 1517 1097 1518
3 1677 1676 1858
3 686 277 1520
3 268 267 269
3 697 857 1592
3 220 1698 1699
3 1802 1700 2036
3 1612 1537 1614
3 929 817 994
3 228 12 2136
3 2110 2116 2482
3 1659 1658 1702
3 1611 1613 2280
3 1344 991 1643
3 683 1585 1604
3 1638 1358 2404
3 1485 1034 2410
3 2214 833 2424
3 271 272 273
3 1482 955 1962
3 1066 1219 1220
3 931 1885 2150
3 1613 1891 2280
3 1189 1589 2204
3 1566 1195 2120
3 726 1567 2490
3 1122 1722 1874
3 1494 319 2493
3 1671 259 1672
3 1267 1221 1474
3 603 528 1591
3 1664 2128 2316
3 1817 1924 2174
3 1626 1660 2111
3 1474 1475 1477
3 1023 1062 1580
3 1957 1599 2312
3 1764 1939 2164
3 1358 1950 2404
3 200 1609 1610
3 1431 1082 1432
3 1778 1803 2521
3 1830 1832 2075
3 1930 233 2369
3 1329 1482 1650
3 757 1959 2522
3 1239 1247 1597
3 758 1978 2332
3 1569 1290 2064
3 216 1694 2191
3 1453 1420 2265
3 1549 1906 2129
3 24 215 1674
3 19 235 1676
3 1621 1057 2191
3 1691 1389 2262
3 1617 1333 2192
3 929 994 1065
3 1769 1672 1986
3 1893 1412 2026
3 1609 1537 1612
3 271 269 272
3 1373 1438 1620
3 217 1423 2381
3 517 330 1889
3 1322 1055 1667
3 1974 553 2499
3 228 2136 2187
3 1589 1189 1788
3 1999 1577 2325
3 2110 405 2116
3 189 1608 1842
3 1055 1050 1667
3 739 1455 2205
3 1865 1176 2215
3 319 1494 2522
3 2474 757 2522
3 1484 227 1485
3 10 11 1588
3 723 809 1753
3 27 230 1689
3 1550 806 1565
3 1179 1180 1217
3 207 1617 2192
3 1433 1217 1502
3 1562 1556 1606
3 1379 2017 2018
3 1245 2158 2323
3 675 1097 1517
3 884 501 1599
3 1020 683 1604
3 1603 1095 1848
3 1001 2057 2154
3 1604 1585 1834
3 1610 1612 1616
3 1764 870 1939
3 2242 1871 2294
3 1669 1264 1670
3 1658 213 1702
3 1995 1646 2398
3 631 539 1600
3 1491 2143 2342
3 1801 1800 2195
3 1200 1199 1693
3 1535 940 1861
3 1534 758 2332
3 914 2258 2328
3 1588 228 2457
3 216 138 1694
3 151 152 1500
3 1133 1880 1974
3 1677 1858 2248
3 1294 1622 1868
3 875 1010 1767
3 1379 2018 2416
3 1279 2202 2252
3 182 256 1652
3 1592 857 2386
3 672 681 1656
3 615 1596 1824
3 1093 1487 1623
3 1823 522 2100
3 1245 1242 1669
3 1582 1581 1583
3 758 1534 2306
3 1975 1984 2230
3 1358 1510 1950
3 1663 1336 1665
3 2102 960 2203
3 366 1087 1786
3 1740 1490 2231
3 21 207 1709
3 145 146 1609
3 2339 765 2384
3 603 1591 1668
3 2081 199 2149
3 1540 1832 1879
3 1721 1723 1947
3 1754 455 1793
3 1751 1753 2119
3 882 1701 1807
3 1540 1539 1917
3 242 1695 1697
3 1521 354 2091
3 1363 2233 2413
3 1584 1018 1925
3 703 1067 1586
3 1177 1178 1179
3 795 916 1834
3 277 276 607
3 1571 1388 1872
3 22 23 1617
3 1097 823 1177
3 25 26 1624
3 419 418 1790
3 1728 1906 2259
3 440 1455 2261
3 1877 1318 2116
3 1488 1156 1608
3 1439 2130 2273
3 1889 1451 1890
3 1614 209 2389
3 1472 893 2094
3 675 821 823
3 23 24 1674
3 1788 1190 2183
3 917 941 1622
3 1763 1096 1764
3 1068 1442 1684
3 1034 1485 2173
3 2172 1533 2230
3 138 139 1694
3 1065 1570 2197
3 607 674 675
3 1536 1248 2268
3 229 135 1734
3 1437 1925 1926
3 680 510 1646
3 147 209 1537
3 26 27 1689
3 1627 705 2163
3 206 1651 2121
3 2409 1785 2462
3 1492 682 2447
3 1223 1225 1258
3 889 1772 2374
3 253 263 264
3 275 276 277
3 1455 739 2261
3 2022 1382 2176
3 150 227 1484
3 639 1019 1591
3 1449 1640 2070
3 1082 833 2214
3 1503 1502 1504
3 144 200 1717
3 1643 991 1713
3 1190 1791 2183
3 1538 1804 2073
3 1256 2269 2440
3 18 19 1676
3 521 531 2000
3 790 849 2180
3 1075 1329 1650
3 1087 1782 1785
3 1066 994 1218
3 270 269 271
3 682 1492 2494
3 185 252 1454
3 253 158 262
3 1629 1632 1633
3 200 1610 1611
3 1477 1481 2104
3 1623 1487 2465
3 1518 1097 1535
3 1414 1132 2460
3 1179 1217 1433
3 177 1506 1680
3 1392 1017 2525
3 1832 834 2075
3 675 823 1097
3 1459 2094 2134
3 1782 1087 1795
3 1838 1730 2372
3 1639 149 2528
3 1617 23 1674
3 2265 1420 2489
3 180 232 1859
3 1527 1250 1528
3 20 21 1709
3 1083 1508 2311
3 903 866 1703
3 1455 440 2314
3 1187 1858 1888
3 1659 1406 2473
3 1446 1902 2166
3 421 1951 2106
3 1598 210 2115
3 154 259 1671
3 1288 1835 2080
3 1832 1831 1879
3 1258 1225 1478
3 1024 1604 2117
3 1263 1429 1739
3 706 705 1627
3 1583 1581 2352
3 407 1805 1951
3 856 1574 2527
3 1701 882 2036
3 1624 26 1689
3 717 1551 1552
3 1385 2377 2391
3 2302 1745 2354
3 1572 1347 2157
3 1036 883 1917
3 1689 1690 1691
3 1664 1665 2128
3 1476 1479 1480
3 1751 2119 2143
3 815 814 1684
3 1790 889 2400
3 1606 1607 2085
3 265 267 268
3 418 889 1790
3 1522 1521 2091
3 135 136 1734
3 1726 1445 1729
3 647 1796 1797
3 1346 1453 2279
3 1293 1827 2117
3 1242 1244 1669
3 1853 1852 1854
3 889 2374 2400
3 1039 1038 1290
3 1524 628 2199
3 1331 1332 1571
3 1291 1290 1569
3 1475 1476 1493
3 1850 1852 1853
3 1490 1740 2456
3 1689 230 1690
3 1256 1526 1541
3 1704 1705 2167
3 1465 1470 1675
3 956 1073 1572
3 1613 1616 1956
3 916 917 1038
3 2014 1522 2091
3 1221 1222 1223
3 1999 763 2352
3 234 10 1588
3 1697 220 2335
3 1527 1528 1529
3 2298 1600 2413
3 1436 2020 2254
3 1642 1161 1678
3 1523 1385 2436
3 1730 1838 2426
3 795 796 916
3 713 711 1550
3 1456 1263 1739
3 999 1336 1663
3 1785 1784 2462
3 409 415 1783
3 607 675 1517
3 1229 1231 1526
3 1958 1855 2078
3 1589 1588 1590
3 1933 261 2380
3 762 1965 2038
3 1756 1458 2203
3 1776 597 1893
3 1794 1072 1893
3 188 1512 2266
3 1774 2339 2384
3 188 1908 1941
3 1010 1510 1767
3 2189 2285 2307
3 773 834 1917
3 1245 1669 1670
3 1248 1597 2268
3 146 1537 1609
3 818 910 1584
3 1641 1313 1651
3 1217 1745 2302
3 1065 1066 1655
3 1597 1247 2047
3 1360 2177 2376
3 1612 1615 1616
3 2126 867 2186
3 1019 683 1020
3 1747 892 1840
3 1092 1093 1623
3 261 1933 2181
3 400 424 1666
3 1516 1903 2377
3 1100 1392 1605
3 247 1738 1881
3 268 1134 1986
3 1177 823 1178
3 884 1599 1957
3 263 262 2491
3 806 1627 1948
3 1227 1229 1256
3 191 1729 2504
3 1636 1635 2502
3 1480 1479 1601
3 1721 1947 2498
3 1924 1146 2174
3 229 1734 1735
3 175 204 1725
3 1179 1178 1180
3 354 1521 2147
3 665 697 1592
3 640 646 1585
3 627 545 1636
3 1882 240 2399
3 1556 1555 1606
3 1373 1620 2394
3 1871 1071 2419
3 548 1628 1629
3 455 436 1793
3 974 1831 1841
3 1844 1413 2392
3 1612 1614 1615
3 209 1639 1937
3 1329 1330 1331
3 1823 2100 2142
3 1097 1177 1535
3 1021 1020 1022
3 825 1912 2455
3 913 1122 1874
3 400 1666 2113
3 1256 1229 1526
3 1419 1418 2450
3 1552 1551 1553
3 1850 1099 1852
3 1629 1631 1632
3 801 685 2029
3 1618 1619 1621
3 265 268 1986
3 1715 2165 2330
3 1531 1529 1534
3 1022 1024 1576
3 658 693 1746
3 703 686 1067
3 1062 1576 1577
3 1023 1022 1062
3 236 1718 2394
3 1688 502 1740
3 1501 1477 2104
3 213 165 1509
3 646 795 1585
3 196 1737 1738
3 379 679 1795
3 639 640 683
3 924 875 1767
3 1752 699 1753
3 207 2192 2315
3 627 1636 1660
3 1217 1180 1745
3 730 728 1833
3 528 561 1591
3 1444 1417 1998
3 252 186 1602
3 1729 1445 2504
3 460 502 1688
3 1418 946 1778
3 1203 1200 1693
3 548 470 1628
3 849 668 1640
3 646 785 795
3 607 276 674
3 14 15 210
3 147 148 209
3 478 460 1688
3 1709 207 2315
3 1157 1546 1608
3 1155 1731 1899
3 1524 1934 2390
3 1775 921 1876
3 1433 1502 1503
3 470 458 1628
3 1223 1224 1225
3 1291 1569 1964
3 871 1056 1826
3 1781 1783 1915
3 1587 1067 2300
3 916 1038 1039
3 1388 1387 1389
3 1611 1610 1613
3 1075 1328 1329
3 1039 1290 1291
3 1538 1265 1804
3 1184 1185 2163
3 597 598 1794
3 1450 1356 2421
3 1835 576 2080
3 1629 1628 1631
3 1331 1330 1332
3 561 639 1591
3 1476 1480 1493
3 705 703 1586
3 639 683 1019
3 1951 1188 2106
3 436 446 1793
3 1472 1297 2142
3 1332 1387 1388
3 1345 984 1720
3 1329 1328 1330
3 1050 1048 1667
3 150 151 227
3 11 12 228
3 557 541 2256
3 1831 974 1879
3 134 229 1766
3 1357 1358 1638
3 1336 1641 2299
3 1650 1482 1962
3 1591 1019 2512
3 1506 1507 1570
3 1803 801 2029
3 1178 823 1972
3 1552 1553 1554
3 1290 1038 1294
3 1028 1313 1641
3 1237 1239 1597
3 993 1017 1100
3 893 2087 2094
3 149 1484 2528
3 1768 1142 1949
3 9 234 1673
3 1554 1553 1555
3 668 632 1640
3 711 806 1550
3 1628 458 1637
3 1098 1829 1830
3 1482 1331 1483
3 531 1818 2000
3 435 419 1790
3 1156 1157 1608
3 1182 1184 2179
3 510 512 1646
3 1231 1233 1250
3 946 841 1778
3 1483 1331 1571
3 1459 680 2458
3 1166 1040 1210
3 892 1657 1820
3 1042 1445 1726
3 1019 1020 1021
3 749 805 1810
3 234 1588 1589
3 1695 242 1892
3 556 1853 2483
3 1018 1572 1573
3 1529 1528 1530
3 1606 1558 1607
3 1761 1759 2308
3 1396 1032 1921
3 1018 956 1572
3 689 1150 1416
3 1827 1293 2515
3 149 150 1484
3 1647 656 1648
3 1543 694 2196
3 399 409 1783
3 545 525 1636
3 268 269 270
3 715 713 717
3 1100 1017 1392
3 1657 892 1747
3 207 22 1617
3 1666 884 2249
3 1671 1672 1769
3 1554 1555 1556
3 146 147 1537
3 1081 1444 1822
3 711 709 806
3 1443 2005 2322
3 660 658 1746
3 1166 1458 1754
3 916 796 917
3 1056 1728 1826
3 1068 1069 1275
3 184 185 1454
3 158 159 262
3 2007 1687 2231
3 805 1708 1810
3 1672 264 1986
3 1561 1562 1563
3 978 1075 1650
3 1590 1588 2457
3 215 25 1624
3 1551 1550 1565
3 1073 1346 1347
3 857 818 1584
3 1648 656 1649
3 675 674 821
3 561 594 639
3 1731 529 1899
3 2303 1454 2535
3 981 903 1040
3 1630 1629 1633
3 993 877 1017
3 724 718 726
3 512 603 1646
3 1676 235 1858
3 814 1060 1068
3 715 717 1567
3 1796 647 1870
3 1715 1171 2165
3 678 1592 1593
3 644 613 1824
3 1690 1525 2145
3 1297 1822 1823
3 271 656 1647
3 1704 1116 1705
3 1225 1226 1227
3 1275 1069 1338
3 910 956 1018
3 1824 1596 2154
3 1403 1100 1605
3 1221 1219 1222
3 1068 1060 1069
3 1901 245 1949
3 1081 1055 1321
3 1751 563 1752
3 1021 1022 1023
3 672 638 681
3 1095 657 1848
3 1235 1237 1248
3 1561 1556 1562
3 1265 1259 1804
3 524 1819 2016
3 978 1650 2362
3 1492 516 2494
3 229 1735 2061
3 185 186 252
3 157 158 253
3 152 153 233
3 9 10 234
3 1527 1529 1531
3 1808 1344 2360
3 1062 1577 1579
3 1509 1679 1977
3 424 454 1666
3 637 638 672
3 981 1040 1166
3 1555 1558 1606
3 751 749 1810
3 1166 1210 1458
3 1651 1313 2121
3 15 16 2260
3 1633 1632 2509
3 2167 1705 2276
3 551 602 2045
3 697 818 857
3 364 1786 1883
3 832 1189 2204
3 1476 1478 1479
3 678 665 1592
3 213 1509 2096
3 1015 888 1124
3 1062 1022 1576
3 679 1782 1795
3 680 1646 1995
3 1101 1100 1403
3 1109 433 1714
3 1248 1237 1597
3 733 730 1833
3 1702 213 2096
3 499 498 1828
3 1418 1778 2521
3 637 600 638
3 1048 1046 1054
3 1577 1576 1578
3 814 766 1060
3 1279 2252 2292
3 474 470 548
3 199 18 1676
3 157 253 1441
3 1048 1054 1667
3 471 472 2290
3 625 665 678
3 795 785 796
3 1264 1265 1266
3 1437 1926 2350
3 1362 2048 2168
3 1394 2337 2371
3 454 884 1666
3 1022 1020 1024
3 751 1810 1923
3 1046 1023 1580
3 1807 1701 1931
3 1618 208 1619
3 566 588 689
3 1828 498 1829
3 501 509 1599
3 1118 780 1775
3 878 817 929
3 1510 1511 1950
3 1618 1621 1694
3 1052 1081 1822
3 1416 1150 1715
3 1239 1241 1247
3 1396 1921 2067
3 1751 1752 1753
3 1264 1259 1265
3 539 566 1600
3 1762 1127 2496
3 1673 1788 2183
3 1555 1557 1558
3 1052 1050 1055
3 725 724 825
3 1142 1770 1771
3 681 853 867
3 454 501 884
3 1346 1420 1453
3 932 1147 1770
3 1546 1545 1547
3 533 582 1818
3 1266 1337 1460
3 1872 820 2318
3 1117 1119 1713
3 1081 1321 1417
3 1253 1259 1264
3 1569 771 2135
3 1052 1055 1081
3 1181 1178 1972
3 709 706 1627
3 1073 1076 1346
3 1098 1828 1829
3 1382 1380 2176
3 1442 1275 1443
3 919 999 1663
3 1789 828 1855
3 877 815 1684
3 509 539 631
3 992 877 993
3 1266 1265 1337
3 2268 1498 2340
3 1130 1032 1396
3 1095 1603 2508
3 886 826 887
3 531 533 1818
3 1131 1400 1881
3 447 437 516
3 2460 1132 2473
3 940 1535 2418
3 768 1873 2037
3 1813 1869 1954
3 1627 2163 2488
3 1497 1495 1645
3 1198 1409 2168
3 724 726 1912
3 1869 987 1954
3 763 1999 2338
3 1010 1170 1374
3 984 976 1720
3 1470 1743 1744
3 689 588 1150
3 1901 1949 2359
3 1640 632 1862
3 274 272 1787
3 563 564 1752
3 994 817 1505
3 737 1807 1931
3 1770 1147 1771
3 1233 1235 1733
3 2450 1418 2521
3 414 410 1821
3 908 1099 1850
3 1227 1228 1229
3 1692 1203 1693
3 1625 216 2194
3 512 528 603
3 1377 1357 1638
3 1465 1464 1470
3 1360 1359 2177
3 1686 2007 2095
3 1336 1028 1641
3 1857 751 1923
3 1758 572 1759
3 553 541 557
3 1171 1715 1811
3 956 1003 1073
3 1467 1465 1675
3 719 718 724
3 1509 1977 2096
3 1734 1625 1736
3 1503 1504 1868
3 592 597 1776
3 180 181 232
3 162 163 231
3 2308 1759 2370
3 1357 1114 1358
3 875 946 1010
3 509 631 1599
3 17 18 199
3 144 145 200
3 1099 906 1792
3 1469 1467 1494
3 605 589 1939
3 1208 1205 1211
3 354 344 2091
3 692 782 804
3 1010 946 1170
3 1463 1462 1464
3 716 715 718
3 714 713 715
3 271 273 656
3 139 1618 1694
3 549 277 686
3 673 672 766
3 1378 1377 1379
3 2007 868 2095
3 999 1028 1336
3 1208 1211 1447
3 601 545 627
3 1119 1643 1713
3 1332 1333 1387
3 910 912 956
3 520 521 2000
3 828 1789 1819
3 277 607 1520
3 1338 1339 2247
3 818 819 910
3 767 766 814
3 712 711 713
3 1494 1467 1675
3 639 594 640
3 2044 557 2256
3 235 20 1709
3 1620 236 2394
3 804 919 962
3 1862 702 2070
3 681 852 853
3 1559 1556 1561
3 1622 941 2471
3 2165 1440 2330
3 612 644 692
3 697 698 818
3 1903 1516 1994
3 371 379 1795
3 428 426 2138
3 1290 1294 2064
3 1384 1904 2432
3 566 689 1600
3 471 452 472
3 1092 1091 1093
3 1002 1131 1719
3 1090 1089 1091
3 875 841 946
3 1758 1760 1763
3 1562 1606 2085
3 1833 1830 2075
3 178 179 214
3 164 165 213
3 769 923 1815
3 692 644 782
3 804 782 919
3 182 183 256
3 160 161 257
3 1329 1331 1482
3 962 1663 1664
3 1177 1179 2042
3 403 405 1805
3 1461 1460 1462
3 140 208 1618
3 1859 232 1860
3 274 1787 2099
3 1381 2126 2186
3 1558 1560 1789
3 430 428 682
3 452 435 1683
3 1487 1156 1488
3 1470 1464 1743
3 597 1794 1893
3 1244 1253 1669
3 962 919 1663
3 258 8 1673
3 1087 1785 1786
3 970 1042 1726
3 199 1677 2149
3 1664 1663 1665
3 1229 1230 1231
3 991 827 1713
3 792 1603 1848
3 1822 1444 1823
3 665 666 697
3 19 20 235
3 142 143 236
3 728 1098 1833
3 532 530 1898
3 1015 1124 1372
3 1546 1547 1548
3 1851 1850 1853
3 1877 393 2240
3 923 1105 1815
3 1090 1091 1092
3 687 686 703
3 1683 435 1790
3 887 826 1961
3 684 663 1089
3 426 1934 2138
3 464 510 680
3 853 854 855
3 568 572 1758
3 1376 1357 1377
3 1205 1203 1692
3 1607 1789 1855
3 710 709 711
3 780 781 1775
3 1434 1103 1435
3 876 815 877
3 766 672 1656
3 1393 1590 2457
3 684 1089 1090
3 530 890 1898
3 926 1920 1943
3 696 414 1821
3 1563 1562 1777
3 1054 1046 1580
3 1398 1973 1974
3 137 216 1625
3 1210 1040 1430
3 1750 563 1751
3 2010 1665 2299
3 1510 1374 1511
3 1777 1562 2085
3 1707 252 1791
3 1932 1404 1933
3 459 438 1814
3 139 140 1618
3 1093 1156 1487
3 231 163 1658
3 699 722 723
3 1545 1095 2508
3 598 612 1794
3 579 554 1880
3 1941 1908 2401
3 1231 1232 1233
3 1831 1829 1841
3 1037 1383 1799
3 177 178 1506
3 636 600 637
3 1036 1539 2286
3 1356 1114 1357
3 1523 1516 2377
3 704 703 705
3 403 402 405
3 648 792 1848
3 723 756 808
3 1388 1389 2170
3 933 932 1770
3 223 1710 1711
3 1779 399 1783
3 1223 1222 1224
3 1028 1029 1313
3 257 161 1654
3 418 412 421
3 734 882 1807
3 693 657 1095
3 1368 1370 1436
3 136 137 1625
3 688 652 817
3 1075 1327 1328
3 540 479 1813
3 398 395 402
3 548 1629 1630
3 574 591 699
3 1469 1494 1495
3 1041 1598 2175
3 167 168 202
3 175 176 204
3 2045 2046 2201
3 186 187 1602
3 886 887 888
3 1253 1254 1259
3 8 9 1673
3 792 655 810
3 843 1145 1960
3 1180 1349 1745
3 1165 1345 1512
3 708 706 709
3 136 1625 1734
3 21 22 207
3 140 141 208
3 625 626 665
3 1093 1094 1156
3 1585 795 1834
3 1117 1713 1806
3 599 579 600
3 810 871 1826
3 1047 1046 1048
3 1292 1291 1293
3 161 162 1654
3 199 1676 1677
3 1260 1282 1804
3 1005 1142 1768
3 1233 1234 1235
3 792 810 922
3 1122 1719 1737
3 976 985 1720
3 1278 1279 2292
3 2390 1934 2531
3 1436 1437 2350
3 270 271 1647
3 1199 966 1846
3 1683 1342 2212
3 656 273 2124
3 699 591 722
3 1977 1139 2096
3 1738 1719 1881
3 1722 985 1874
3 1797 1448 1798
3 162 231 1654
3 632 604 1862
3 252 1602 1791
3 1051 1050 1052
3 1045 1023 1046
3 648 655 792
3 993 1100 1101
3 1321 1055 1322
3 806 709 1627
3 904 903 981
3 1220 1267 1268
3 648 605 655
3 1737 1719 1738
3 385 399 1779
3 506 499 1828
3 1132 266 1402
3 1170 1418 1419
3 1323 2302 2354
3 24 25 215
3 137 138 216
3 721 965 1919
3 1787 1414 2460
3 778 1117 1806
3 723 722 756
3 407 403 1805
3 564 574 1752
3 1049 1048 1050
3 842 841 875
3 1608 1546 1842
3 809 808 899
3 1517 1519 1520
3 1530 1532 1533
3 889 421 1772
3 913 1002 1122
3 1314 1316 1367
3 1017 877 1684
3 841 802 1778
3 1235 1236 1237
3 751 1857 1900
3 1114 924 1767
3 1344 1644 2360
3 1895 1394 2371
3 1518 1535 1861
3 1758 1759 1760
3 1122 1002 1719
3 546 563 1750
3 1056 1726 1727
3 663 660 1746
3 621 622 625
3 1720 985 1721
3 1857 1843 1900
3 808 756 913
3 1056 970 1726
3 27 28 230
3 134 135 229
3 908 906 1099
3 163 164 1658
3 1727 1726 1729
3 7 8 258
3 154 155 259
3 1101 1403 1404
3 808 913 1874
3 1260 1269 1282
3 1389 1387 2262
3 1297 1053 1822
3 1555 1553 1557
3 1463 1464 1465
3 230 28 1765
3 1237 1238 1239
3 554 553 1880
3 775 778 1806
3 985 899 1874
3 1270 1524 2199
3 489 1820 1936
3 692 1072 1794
3 1472 2142 2272
3 1845 496 1929
3 438 431 1814
3 613 615 1824
3 1241 1242 1245
3 1783 415 1915
3 1192 2081 2149
3 178 214 1506
3 1816 988 1817
3 1760 1759 1761
3 1103 1092 1623
3 1512 1345 1661
3 1876 921 2295
3 1165 984 1345
3 978 1074 1075
3 1239 1240 1241
3 542 541 553
3 813 988 1816
3 1148 984 1165
3 871 970 1056
3 472 452 1683
3 1207 1796 1870
3 1167 1166 1754
3 1296 1053 1297
3 966 964 1846
3 976 899 985
3 982 976 984
3 702 1815 2015
3 900 899 976
3 1143 995 1206
3 1576 1024 1827
3 1235 1248 1733
3 1558 1557 1560
3 943 995 1143
3 1920 1144 1943
3 1471 2115 2477
3 29 30 255
3 132 133 254
3 1630 1633 1634
3 1225 1224 1226
3 1925 1573 1926
3 1211 1205 1692
3 725 825 826
3 1113 924 1114
3 600 579 1988
3 717 1552 1567
3 1820 1657 1936
3 674 276 2099
3 395 393 1877
3 572 543 1897
3 1575 1308 2255
3 999 1000 1028
3 1118 1775 1876
3 1797 1798 2430
3 526 546 559
3 867 853 2186
3 1142 1771 1949
3 1068 1275 1442
3 679 385 1779
3 1607 1558 1789
3 580 568 1758
3 1244 1252 1253
3 1760 1761 1762
3 398 402 403
3 1476 1258 1478
3 418 421 889
3 1771 1147 1839
3 164 213 1658
3 1720 1721 2267
3 1668 1591 2512
3 1042 1128 1445
3 1098 1830 1833
3 1102 1092 1103
3 2249 884 2466
3 1104 1103 1434
3 410 416 1821
3 514 513 541
3 580 1758 1763
3 637 673 1741
3 1913 936 1914
3 1394 1395 2337
3 919 920 999
3 577 554 579
3 2111 1660 2263
3 231 1658 1659
3 612 613 644
3 568 543 572
3 770 775 1806
3 1445 1128 1446
3 1546 1548 1842
3 448 460 478
3 810 870 871
3 1789 1560 1819
3 1154 1082 1431
3 873 973 1802
3 379 385 679
3 837 850 921
3 1461 1462 1463
3 1346 1076 1420
3 1088 1344 1808
3 2125 1143 2353
3 931 977 978
3 882 772 1802
3 29 255 1765
3 849 1513 2180
3 1713 827 1806
3 1130 1396 1397
3 681 638 852
3 1417 1321 1873
3 1654 1402 2530
3 502 526 1740
3 1124 888 2177
3 1266 1460 1461
3 515 1175 1840
3 1253 1264 1669
3 479 466 1813
3 1727 1729 1757
3 379 380 385
3 1971 1480 2514
3 1637 1739 2459
3 1207 1205 1208
3 529 519 1899
3 1129 1845 1929
3 224 1661 2267
3 192 1856 2361
3 732 734 1807
3 1184 2163 2435
3 1119 1120 1353
3 415 414 431
3 719 724 725
3 559 546 1750
3 871 872 970
3 1038 917 1622
3 574 699 1752
3 166 167 1679
3 1117 1118 1119
3 1409 1196 2035
3 617 619 621
3 1172 1173 1439
3 1191 1005 1768
3 664 663 684
3 494 493 1841
3 890 529 1731
3 840 802 841
3 493 974 1841
3 385 386 399
3 679 1779 1780
3 371 376 379
3 416 433 1109
3 670 769 1815
3 902 866 903
3 1780 1779 1781
3 480 515 1840
3 970 971 1042
3 433 448 1714
3 28 29 1765
3 1005 949 1142
3 778 780 1117
3 959 1037 1799
3 1073 1003 1076
3 535 532 1898
3 1119 1118 1120
3 658 657 693
3 1378 1379 1380
3 1397 1396 1809
3 1610 1609 1612
3 1819 1560 2016
3 1837 952 1865
3 1719 1131 1881
3 1131 1399 1400
3 1352 1138 2058
3 399 406 409
3 548 1630 2041
3 1275 1338 2251
3 582 1816 1818
3 1835 1836 2144
3 993 1101 1980
3 1699 1698 1700
3 2407 364 2505
3 1189 1190 1788
3 1117 780 1118
3 1830 1829 1831
3 637 672 673
3 692 804 1072
3 1204 1203 1205
3 1374 1170 2139
3 612 692 1794
3 1642 1408 2286
3 723 808 809
3 450 459 1812
3 409 410 414
3 802 801 1778
3 1853 1854 2483
3 1042 1127 1128
3 1199 1846 2225
3 1147 990 1273
3 1383 1384 2432
3 432 431 438
3 1353 1120 1390
3 1093 1091 1094
3 2020 250 2254
3 148 149 1639
3 606 605 648
3 1970 2016 2422
3 2201 2046 2327
3 475 471 513
3 412 407 1951
3 1991 246 2139
3 727 695 728
3 1673 234 1788
3 1554 1556 1559
3 1089 663 1746
3 1846 964 2056
3 923 991 1088
3 409 406 410
3 729 728 730
3 1424 1427 1856
3 1473 1911 2407
3 1376 1377 1378
3 1010 1374 1510
3 853 852 854
3 366 369 1087
3 772 873 1802
3 1219 1218 1626
3 1766 229 2061
3 1088 991 1344
3 922 810 1826
3 518 506 695
3 405 402 2116
3 962 1664 2316
3 913 942 1002
3 932 990 1147
3 629 813 1816
3 876 877 992
3 399 386 406
3 932 845 990
3 1002 1123 1131
3 843 996 1145
3 781 837 1775
3 262 2304 2491
3 431 696 1814
3 1273 1695 1892
3 731 730 732
3 737 732 1807
3 439 438 450
3 1829 498 1841
3 800 685 801
3 767 814 815
3 1060 766 1656
3 673 766 767
3 1403 1605 1882
3 716 718 719
3 1338 1069 1339
3 847 752 1843
3 864 862 1116
3 2302 443 2519
3 923 827 991
3 526 559 1740
3 1911 1473 2358
3 1085 1310 1867
3 809 899 900
3 1227 1226 1228
3 729 730 731
3 1436 1370 1437
3 731 732 737
3 769 827 923
3 456 452 471
3 1433 1503 2471
3 1435 1103 1623
3 385 380 386
3 1141 1787 2460
3 1354 1088 1808
3 657 649 1848
3 415 431 432
3 484 892 1820
3 727 728 729
3 855 854 1450
3 1721 1722 1723
3 1643 1353 1644
3 1145 1916 1960
3 1421 1191 1422
3 466 1812 1813
3 943 944 995
3 1356 1357 1376
3 714 715 716
3 1156 1094 1157
3 598 611 612
3 631 1600 2298
3 590 589 605
3 965 969 1919
3 416 1109 1821
3 242 1697 2335
3 1548 1547 1549
3 550 573 584
3 584 604 632
3 409 414 415
3 712 713 714
3 642 670 702
3 818 698 819
3 1006 1005 1191
3 1624 1689 1691
3 169 170 237
3 173 174 238
3 956 912 1003
3 937 936 1913
3 1317 1025 1875
3 515 540 550
3 973 1799 1800
3 973 959 1799
3 518 695 727
3 910 819 912
3 584 573 604
3 1170 946 1418
3 173 238 1847
3 550 540 573
3 982 984 1148
3 900 976 982
3 441 435 452
3 448 478 1714
3 1849 1648 2173
3 1631 1628 1637
3 1830 1831 1832
3 1383 1216 1384
3 734 772 882
3 949 933 1770
3 1332 1330 1333
3 574 575 591
3 1105 1088 1354
3 702 670 1815
3 498 494 1841
3 827 770 1806
3 873 959 973
3 1390 1391 1415
3 450 438 459
3 950 949 1005
3 351 362 364
3 1313 1029 1314
3 432 438 439
3 837 838 850
3 1273 1274 1695
3 850 851 943
3 911 952 1837
3 1259 1260 1804
3 566 587 588
3 1037 1216 1383
3 1337 1265 1538
3 1087 369 1795
3 810 655 870
3 1559 1561 1566
3 1147 1273 1839
3 732 733 734
3 1662 867 2126
3 890 1731 2241
3 1854 1852 2397
3 515 479 540
3 451 450 466
3 697 666 698
3 1367 1316 1368
3 662 660 663
3 365 355 694
3 1358 1114 1767
3 379 376 380
3 1796 1448 1797
3 179 180 1859
3 790 668 849
3 569 568 580
3 690 860 931
3 466 450 1812
3 431 414 696
3 1973 1133 1974
3 651 649 657
3 467 466 479
3 1288 1289 1835
3 264 265 1986
3 1302 1303 1304
3 592 596 597
3 1873 1321 2037
3 544 543 568
3 275 277 549
3 209 1937 2389
3 539 565 566
3 1485 227 1486
3 2384 2190 2408
3 1781 1779 1783
3 480 479 515
3 689 1416 2413
3 1108 1161 1539
3 1867 1310 1895
3 1300 1301 1302
3 1695 1696 1697
3 633 632 668
3 1304 1451 1452
3 988 911 1837
3 168 169 1724
3 969 1012 1172
3 582 629 1816
3 1843 752 1900
3 629 812 813
3 710 711 712
3 1782 1780 1784
3 536 535 543
3 1089 1746 1969
3 1108 1107 1161
3 1514 1426 1856
3 486 484 1820
3 369 371 1795
3 1817 988 1924
3 493 609 974
3 1422 1191 2023
3 1426 1424 1856
3 842 875 924
3 922 1826 2259
3 989 1361 1886
3 928 1070 1288
3 669 668 790
3 1113 1114 1356
3 1027 847 1843
3 728 695 1098
3 734 735 772
3 975 1107 1108
3 955 859 1962
3 813 911 988
3 1208 1448 1796
3 1101 1405 1980
3 602 676 2045
3 586 581 589
3 546 547 563
3 493 491 609
3 628 1524 2390
3 348 344 354
3 1298 1299 1300
3 509 538 539
3 974 609 975
3 813 891 911
3 871 870 872
3 1355 1354 1423
3 489 486 1820
3 778 779 780
3 1025 1176 1875
3 772 773 873
3 803 1743 2347
3 167 202 1679
3 873 883 959
3 1483 1571 2375
3 427 1756 2221
3 540 1813 1954
3 1202 1200 1203
3 959 1035 1037
3 837 921 1775
3 1304 1305 1451
3 1799 1383 2195
3 604 642 1862
3 1470 1744 2474
3 1854 2397 2453
3 1282 1269 1386
3 1573 1572 2157
3 472 2222 2290
3 1307 1708 2341
3 769 770 827
3 1037 1215 1216
3 791 790 856
3 1053 1052 1822
3 1056 1727 1728
3 1341 1138 1352
3 1300 1299 1301
3 1814 696 1838
3 1198 1196 1409
3 492 491 493
3 439 450 451
3 1171 858 2132
3 1259 1254 1260
3 665 626 666
3 970 872 971
3 258 1602 2357
3 1296 1297 1472
3 490 489 491
3 516 437 2494
3 1298 1027 1299
3 846 845 932
3 501 508 509
3 460 461 502
3 448 449 460
3 482 480 1840
3 1229 1228 1230
3 604 641 642
3 1424 1423 1427
3 502 503 526
3 1028 1000 1029
3 935 933 949
3 1084 1085 1867
3 2028 1711 2353
3 1513 1426 1514
3 892 482 1840
3 852 638 1988
3 402 395 1877
3 738 737 845
3 413 412 418
3 1119 1353 1643
3 526 527 546
3 280 279 281
3 1731 1155 2123
3 1042 971 1127
3 1208 1447 1448
3 433 434 448
3 262 159 2304
3 184 1454 2303
3 1051 1052 1053
3 1816 1817 1818
3 1081 1417 1444
3 781 836 837
3 911 951 952
3 1090 1092 1102
3 202 168 1724
3 1085 1309 1310
3 408 407 412
3 1337 1538 1864
3 1515 1514 1516
3 530 529 890
3 1517 1518 1519
3 549 686 687
3 923 1088 1105
3 404 403 407
3 1835 1289 1836
3 1314 1367 2121
3 1380 1379 2416
3 670 671 769
3 899 808 1874
3 1040 903 1703
3 1596 1595 2154
3 1496 1495 1497
3 636 637 1741
3 1377 1638 2288
3 1288 1070 1289
3 1072 804 1981
3 1129 1334 1845
3 1865 1084 1866
3 792 922 1603
3 1253 1252 1254
3 981 1167 1792
3 1302 1301 1303
3 1641 1651 2019
3 952 953 1084
3 1813 1812 1869
3 732 730 733
3 975 1106 1107
3 1142 949 1770
3 981 1166 1167
3 840 841 842
3 451 466 467
3 1273 990 1274
3 1049 1050 1051
3 1473 2407 2505
3 968 966 1199
3 642 643 670
3 1310 1309 1311
3 422 419 435
3 1063 833 1082
3 919 782 920
3 911 891 951
3 1084 953 1085
3 1763 1764 2164
3 1498 1497 1682
3 515 550 1175
3 1079 937 1913
3 642 702 1862
3 845 737 1931
3 1394 1311 1395
3 1395 1521 1522
3 467 479 480
3 1755 1754 1793
3 1231 1230 1232
3 1557 1553 2030
3 1624 1691 2262
3 584 632 633
3 1094 1091 1969
3 708 709 710
3 1948 1627 2488
3 952 951 953
3 1102 1103 1104
3 1047 1048 1049
3 1310 1311 1394
3 1852 1099 1985
3 143 144 1717
3 813 812 891
3 1944 1044 1945
3 1105 1354 1355
3 1300 1302 1455
3 1914 936 1940
3 1415 1391 1710
3 1299 1027 1843
3 952 1084 1865
3 1695 1274 1696
3 776 774 1928
3 282 281 283
3 2003 1347 2279
3 1206 995 1499
3 1164 1685 1686
3 1551 1565 2030
3 969 1172 1919
3 633 668 669
3 734 733 735
3 1373 1372 1438
3 599 600 636
3 1431 1860 2487
3 1579 1577 1999
3 484 482 892
3 917 940 941
3 2144 1836 2169
3 1866 1084 1867
3 1110 1747 1748
3 998 1171 1811
3 1390 1120 1391
3 644 1824 2057
3 1362 1961 2048
3 944 1283 1825
3 1086 1027 1298
3 679 1780 1782
3 974 975 1879
3 507 506 518
3 1121 1079 1401
3 775 777 778
3 1965 762 2349
3 1045 1046 1047
3 1772 421 2106
3 16 17 2081
3 416 417 433
3 921 850 2125
3 1607 1855 1958
3 649 648 1848
3 1241 1240 1242
3 2012 1443 2251
3 926 928 1920
3 1487 1488 2025
3 1006 1191 1421
3 1355 1423 1424
3 1133 852 1988
3 591 592 1776
3 1299 1843 1857
3 1085 1308 1309
3 490 491 492
3 958 694 1575
3 1384 1216 1385
3 741 915 1878
3 1233 1232 1234
3 669 790 791
3 481 480 482
3 687 703 704
3 492 493 494
3 1634 1633 1922
3 1697 1696 1698
3 1721 985 1722
3 1839 1273 1892
3 772 735 773
3 488 486 489
3 950 1005 1006
3 1513 1514 1515
3 454 500 501
3 873 773 883
3 284 283 285
3 2185 1505 2442
3 959 883 1035
3 543 535 1897
3 1904 1384 2093
3 800 801 802
3 1037 1035 1215
3 1293 1964 1965
3 1239 1238 1240
3 943 1143 2125
3 1782 1784 1785
3 913 756 942
3 488 490 1884
3 1590 1749 2501
3 1235 1234 1236
3 791 856 1408
3 702 2015 2070
3 1108 1539 1540
3 1021 1023 1045
3 695 506 1828
3 1530 1528 1532
3 488 489 490
3 1621 1619 2161
3 704 705 706
3 1304 1303 1305
3 558 1704 2167
3 625 622 626
3 542 553 554
3 604 573 641
3 664 684 685
3 564 571 574
3 1108 1540 1879
3 1856 1427 2361
3 880 1025 1129
3 1395 1311 1521
3 1466 1465 1467
3 915 495 1884
3 1515 1516 1523
3 1237 1236 1238
3 606 648 649
3 999 920 1000
3 676 829 1043
3 2100 794 2142
3 227 151 1500
3 577 579 599
3 153 154 1671
3 1175 550 1927
3 1014 888 1015
3 286 285 287
3 1649 1280 2427
3 1725 204 2137
3 975 609 1106
3 1129 1317 1334
3 1109 1730 2426
3 1468 1467 1469
3 1131 1123 1399
3 1215 2235 2378
3 1976 1149 1989
3 397 395 398
3 746 743 1878
3 1041 1343 1598
3 975 1108 1879
3 741 495 915
3 1167 1754 1755
3 288 287 289
3 743 741 1878
3 1274 990 1931
3 1506 214 1507
3 857 1584 2277
3 2341 1522 2387
3 846 932 933
3 1107 1106 1110
3 584 633 1927
3 290 289 291
3 722 591 1776
3 1544 1094 1969
3 1135 270 1647
3 935 949 950
3 1920 1288 2080
3 754 1896 2108
3 1693 1199 2225
3 292 291 293
3 394 393 395
3 745 743 746
3 1002 942 1123
3 731 737 738
3 294 293 295
3 1018 1573 1925
3 296 295 297
3 298 297 299
3 321 322 325
3 317 320 321
3 314 315 317
3 312 313 314
3 310 311 312
3 308 309 310
3 1898 890 2275
3 306 307 308
3 304 305 306
3 1401 1079 1913
3 300 299 301
3 302 303 304
3 300 301 302
3 302 301 303
3 491 489 1936
3 298 299 300
3 304 303 305
3 306 305 307
3 308 307 309
3 310 309 311
3 312 311 313
3 314 313 315
3 317 315 320
3 321 320 322
3 1301 1299 1857
3 514 541 542
3 296 297 298
3 850 838 851
3 1310 1394 1895
3 294 295 296
3 590 605 606
3 292 293 294
3 651 657 658
3 290 291 292
3 1207 1208 1796
3 835 1976 1989
3 621 619 622
3 746 1878 1896
3 481 482 483
3 1026 847 1027
3 1335 1207 1870
3 1661 59 2266
3 727 729 1155
3 288 289 290
3 1058 776 1928
3 662 663 664
3 495 488 1884
3 1959 319 2522
3 943 851 944
3 1293 1291 1964
3 534 532 535
3 640 645 646
3 2280 1014 2385
3 286 287 288
3 591 575 592
3 521 519 529
3 13 14 2114
3 780 779 781
3 918 908 1850
3 837 836 838
3 209 148 1639
3 754 748 1896
3 745 746 747
3 769 671 770
3 929 1065 2197
3 1278 1058 1279
3 483 482 484
3 1564 1557 2030
3 633 807 1927
3 392 391 393
3 1057 1621 2161
3 569 580 581
3 284 285 286
3 876 992 1894
3 497 494 498
3 1630 1635 2041
3 982 1148 1918
3 612 611 613
3 700 634 1044
3 822 674 2099
3 880 1129 1929
3 432 439 654
3 1039 1291 1292
3 1164 1686 1989
3 1129 1025 1317
3 738 845 846
3 582 583 629
3 278 6 279
3 544 568 569
3 1701 1274 1931
3 747 749 751
3 1085 953 1308
3 928 930 1070
3 747 748 749
3 1421 1422 2415
3 902 903 904
3 1309 1308 1543
3 642 641 643
3 904 981 1792
3 646 784 785
3 536 543 544
3 1204 1205 1207
3 365 694 958
3 71 72 217
3 88 89 1901
3 87 88 193
3 101 102 189
3 85 86 242
3 99 100 241
3 74 75 192
3 91 92 219
3 94 95 191
3 83 84 220
3 97 98 221
3 77 78 218
3 80 81 194
3 89 90 245
3 62 63 244
3 60 61 188
3 64 65 223
3 67 68 190
3 90 91 1909
3 98 99 1905
3 61 62 1908
3 69 70 243
3 68 69 1907
3 70 71 1910
3 410 411 416
3 586 589 590
3 685 684 2029
3 390 389 391
3 1715 1150 1811
3 1924 1837 2215
3 282 283 284
3 496 497 1929
3 233 1671 1769
3 627 2185 2442
3 1567 1552 2062
3 629 630 812
3 424 453 454
3 583 562 1942
3 749 750 805
3 744 743 745
3 1897 535 1898
3 467 480 481
3 504 759 880
3 670 643 671
3 89 245 1901
3 193 88 1901
3 221 98 1905
3 245 90 1909
3 91 219 1909
3 62 244 1908
3 188 61 1908
3 99 241 1905
3 190 68 1907
3 71 217 1910
3 69 243 1907
3 243 70 1910
3 505 499 506
3 475 513 514
3 1945 1044 2071
3 1712 2125 2353
3 339 343 440
3 989 1360 1361
3 764 869 1152
3 778 777 779
3 1686 1685 1687
3 742 741 743
3 979 989 1886
3 729 731 1887
3 926 927 928
3 1305 1306 1307
3 1838 1278 2292
3 747 746 748
3 181 182 1652
3 1886 1361 2305
3 1595 1594 2486
3 597 596 598
3 928 1288 1920
3 1970 824 2156
3 1425 1424 1426
3 497 504 1929
3 748 746 1896
3 745 747 1900
3 998 858 1171
3 563 547 564
3 1155 729 1887
3 634 583 1942
3 1439 1173 1440
3 1026 1027 1086
3 79 80 1904
3 1533 1532 1536
3 1449 1426 1513
3 1106 609 1936
3 1318 1013 1319
3 1098 695 1828
3 492 494 496
3 750 748 754
3 731 738 1887
3 2415 1422 2516
3 533 562 582
3 988 1837 1924
3 1216 1215 1863
3 534 535 536
3 747 751 1900
3 1753 809 2119
3 1183 824 1970
3 740 495 741
3 80 194 1904
3 893 383 2087
3 655 605 1939
3 1884 2034 2082
3 1301 1857 1923
3 1307 1306 1708
3 752 745 1900
3 750 754 755
3 76 77 1903
3 2090 2347 2365
3 255 30 2159
3 132 254 2160
3 448 434 449
3 753 848 926
3 1075 1074 1327
3 487 488 495
3 377 381 647
3 483 484 485
3 755 754 2148
3 1584 1925 2277
3 1186 1183 1970
3 951 891 1281
3 485 484 486
3 546 527 547
3 133 134 1766
3 1786 1785 2409
3 280 281 282
3 460 449 461
3 744 745 752
3 77 218 1903
3 983 1918 2342
3 1708 1306 1810
3 1389 2069 2170
3 487 486 488
3 641 573 1954
3 507 518 519
3 502 461 503
3 519 518 1899
3 1202 1203 1204
3 821 897 1972
3 92 93 1902
3 521 529 530
3 749 748 750
3 2176 1380 2416
3 885 826 886
3 485 486 487
3 371 372 376
3 1289 1070 1871
3 1110 1657 1747
3 753 926 1943
3 700 1044 1944
3 880 881 1025
3 496 1845 2034
3 1072 1981 2393
3 462 464 2134
3 1949 1771 2359
3 1044 634 1942
3 550 584 1927
3 1390 1415 2118
3 526 503 527
3 990 845 1931
3 1009 1213 1214
3 740 742 1144
3 219 92 1902
3 727 1155 1899
3 369 370 371
3 623 690 2150
3 1279 1058 1928
3 1408 2235 2286
3 487 495 740
3 979 1886 2086
3 1305 1303 1306
3 421 412 1951
3 843 844 996
3 633 669 807
3 518 727 1899
3 826 825 1961
3 1657 1106 1936
3 1172 1012 1173
3 740 741 742
3 433 417 434
3 505 506 507
3 1333 1674 2437
3 742 743 744
3 469 458 470
3 1381 1380 1382
3 1293 1965 2515
3 1554 1559 2062
3 553 557 2499
3 1774 389 2339
3 497 498 499
3 483 485 576
3 740 1144 1935
3 773 735 834
3 366 367 369
3 1120 1118 1876
3 1515 1523 1574
3 1319 1013 2039
3 1303 1301 1923
3 457 447 458
3 561 593 594
3 1355 1424 1425
3 609 491 1936
3 204 1732 2137
3 791 1408 1642
3 995 944 1825
3 456 471 475
3 1692 1693 2239
3 580 1763 2164
3 1292 1293 2117
3 441 452 456
3 388 384 389
3 823 821 1972
3 504 880 1929
3 176 177 1680
3 1070 1071 1871
3 15 2260 2477
3 362 363 366
3 2178 2300 2449
3 1035 883 1036
3 2285 1563 2307
3 978 977 1074
3 1090 1102 2029
3 1810 1306 1923
3 496 494 497
3 1306 1303 1923
3 432 654 1915
3 934 933 935
3 356 355 365
3 398 403 404
3 635 701 843
3 1110 1106 1657
3 574 571 575
3 1025 881 1176
3 386 380 786
3 415 432 1915
3 343 347 1911
3 1070 930 1071
3 1688 1740 2231
3 1385 1216 1863
3 1696 1274 1701
3 1645 305 2317
3 880 759 881
3 926 848 927
3 1427 1423 2217
3 1339 1662 2388
3 770 774 775
3 1263 1257 1428
3 1337 1864 2412
3 349 348 355
3 2267 1721 2498
3 753 752 847
3 1375 1086 1473
3 900 982 983
3 332 335 739
3 429 428 430
3 744 752 753
3 1171 2132 2165
3 1425 1426 1449
3 987 641 1954
3 1883 1786 2409
3 427 426 428
3 928 927 930
3 1815 1105 2015
3 1206 1499 1941
3 410 406 411
3 573 540 1954
3 497 499 504
3 528 560 561
3 1933 1404 2399
3 1091 1089 1969
3 1804 1282 2073
3 504 505 759
3 963 924 1113
3 1711 1710 1712
3 881 759 1146
3 968 1199 1200
3 351 352 362
3 848 847 1026
3 521 530 531
3 1884 490 2034
3 1277 957 1966
3 1349 1350 2329
3 676 1043 2045
3 997 1159 1286
3 517 1889 1890
3 781 835 836
3 944 948 1283
3 722 1776 2026
3 507 519 520
3 2040 1352 2058
3 1276 957 1277
3 446 437 447
3 931 860 977
3 361 359 765
3 1248 1536 2534
3 512 523 528
3 408 412 413
3 1368 1369 1370
3 451 2169 2223
3 192 75 1994
3 942 756 2026
3 345 344 348
3 764 1152 1963
3 413 418 419
3 1286 1773 1774
3 770 671 774
3 275 549 2124
3 1497 1645 2461
3 1982 1472 2272
3 422 435 441
3 281 279 736
3 1134 270 1135
3 582 562 583
3 1421 2415 2454
3 485 487 1935
3 2300 1067 2480
3 1578 1576 1827
3 930 927 1061
3 1026 1086 1375
3 922 2259 2379
3 1391 1120 1876
3 1495 1494 2493
3 404 407 408
3 879 2178 2449
3 1700 1698 2036
3 607 1517 1520
3 753 847 848
3 416 411 417
3 1144 742 1943
3 775 776 777
3 754 2108 2148
3 1006 1421 1953
3 585 581 586
3 531 530 532
3 235 1709 1888
3 520 519 521
3 1180 1181 1349
3 1146 759 1967
3 708 710 1921
3 1350 2253 2329
3 436 430 437
3 504 499 505
3 643 641 987
3 336 330 517
3 811 1059 1149
3 1164 1411 1685
3 846 933 934
3 635 843 1960
3 983 982 1918
3 971 872 1096
3 1149 1163 1164
3 169 237 1724
3 1314 1315 1316
3 629 583 630
3 891 812 1916
3 462 463 464
3 487 740 1935
3 798 2084 2189
3 1814 1838 2292
3 1284 1489 1491
3 340 336 2014
3 1670 1461 2200
3 920 782 2057
3 890 2241 2275
3 510 511 512
3 278 279 280
3 839 802 840
3 1858 235 1888
3 1698 1696 2036
3 104 105 222
3 57 58 224
3 1185 1183 1186
3 588 587 623
3 638 600 1988
3 1282 1386 2245
3 811 776 1058
3 816 815 876
3 2034 1845 2082
3 761 636 1741
3 566 565 587
3 174 175 1725
3 347 350 351
3 1469 1495 1496
3 1059 1058 1278
3 811 1149 1976
3 576 485 1935
3 659 658 660
3 859 1153 1962
3 76 1903 1994
3 1821 1109 2426
3 1294 1038 1622
3 733 1833 2075
3 992 993 1980
3 1566 1561 2285
3 525 474 2041
3 464 465 510
3 343 346 347
3 360 893 1982
3 650 649 651
3 896 608 936
3 950 1006 1007
3 1508 1859 1860
3 539 538 565
3 440 343 1911
3 341 340 344
3 221 1905 1906
3 1297 1823 2142
3 759 505 1967
3 1295 1053 1296
3 473 470 474
3 1463 1465 1466
3 1143 1206 2028
3 799 685 800
3 1210 2077 2203
3 509 508 538
3 492 496 2034
3 1553 1551 2030
3 1260 1261 1269
3 1430 1040 1703
3 586 590 1940
3 838 836 868
3 1705 624 2276
3 1749 972 2501
3 742 744 1943
3 804 962 1981
3 1367 1368 2254
3 531 532 533
3 337 336 340
3 1157 1094 1544
3 536 544 1158
3 812 630 1960
3 781 779 835
3 56 57 1947
3 630 583 634
3 1405 1404 1932
3 1281 891 1916
3 339 342 343
3 1411 1163 1730
3 322 323 324
3 344 340 2091
3 1735 1734 1736
3 75 76 1994
3 430 682 2494
3 1907 243 2360
3 589 581 2164
3 694 355 2196
3 744 753 1943
3 775 774 776
3 1210 1430 2077
3 335 338 339
3 1102 1803 2029
3 1078 937 1079
3 870 655 1939
3 505 507 1967
3 357 360 1982
3 1896 1878 2101
3 326 325 328
3 934 935 957
3 585 608 895
3 333 330 336
3 1270 1272 1524
3 688 817 878
3 507 520 1967
3 1428 1257 2074
3 1818 1817 2000
3 896 937 1077
3 934 957 1111
3 329 328 330
3 1499 995 1825
3 944 851 948
3 387 445 462
3 1678 1161 2228
3 777 776 811
3 313 311 757
3 324 331 332
3 848 1026 1955
3 1312 998 1811
3 1321 1322 2037
3 1080 1079 1121
3 1105 1355 2015
3 1645 2317 2461
3 1559 1568 2062
3 332 334 335
3 501 500 508
3 321 325 326
3 394 395 397
3 322 320 323
3 1529 1530 2171
3 1137 797 1138
3 811 1058 1059
3 661 660 662
3 569 581 585
3 183 4 2303
3 5 160 2304
3 1340 1138 1341
3 1660 1626 2185
3 1743 1464 2347
3 1026 1375 1955
3 1149 1059 1163
3 1736 1625 2194
3 1322 1667 2434
3 311 309 1959
3 309 307 319
3 894 700 1944
3 533 534 562
3 1276 1277 1366
3 2190 1706 2408
3 533 532 534
3 1214 1213 1410
3 1164 1163 1411
3 843 701 844
3 1009 1214 2055
3 234 1589 1788
3 2000 1817 2174
3 317 321 2050
3 328 325 945
3 392 393 394
3 588 623 2089
3 1162 958 1681
3 1078 1080 1136
3 927 848 1955
3 1496 1497 1498
3 390 391 392
3 1061 927 1955
3 1283 948 1284
3 635 634 700
3 1244 1251 1252
3 218 78 2093
3 756 722 2026
3 1071 1784 2419
3 1218 1505 2185
3 1284 948 1285
3 1489 1285 1490
3 918 1850 1851
3 684 1090 2029
3 1759 572 2537
3 1691 1690 2446
3 1979 1158 2071
3 606 649 650
3 2045 1043 2046
3 103 104 2025
3 630 634 635
3 360 383 893
3 406 386 2043
3 1909 219 2023
3 1111 957 1276
3 1925 1437 2277
3 1536 2268 2340
3 854 852 1133
3 233 153 1671
3 651 658 659
3 2099 1787 2368
3 1033 1032 1130
3 1015 1372 1373
3 1412 942 2026
3 253 264 1441
3 1531 1534 2332
3 701 700 894
3 106 107 1990
3 2048 1961 2455
3 276 274 2099
3 738 846 1968
3 1325 925 1326
3 896 936 937
3 585 586 608
3 1450 854 1973
3 1361 1360 1362
3 1045 1668 2512
3 303 301 444
3 996 844 997
3 79 1904 2093
3 1989 1686 2095
3 1928 774 2033
3 1942 562 1979
3 287 285 316
3 935 950 1966
3 1466 1467 1468
3 1242 1243 1244
3 1887 738 1968
3 2115 210 2477
3 878 929 1083
3 1326 1736 2194
3 886 888 1014
3 895 608 896
3 289 287 1978
3 821 822 897
3 936 608 1940
3 613 614 615
3 51 52 1996
3 417 411 1160
3 1149 1164 1989
3 386 786 2043
3 285 283 1971
3 1309 1543 2147
3 375 373 2053
3 371 370 372
3 779 777 1976
3 1286 1159 1773
3 2177 887 2376
3 1560 1557 1564
3 1403 1882 2399
3 1727 1757 2246
3 279 6 2049
3 1619 1438 2438
3 291 289 758
3 1781 1915 2294
3 425 401 426
3 349 355 356
3 66 67 2118
3 474 548 2041
3 1686 1687 2007
3 1262 1456 1457
3 1123 942 1412
3 1916 812 1960
3 1355 1425 2015
3 735 733 2075
3 1861 879 2449
3 1284 1285 1489
3 490 492 2034
3 366 363 367
3 980 578 2051
3 906 904 1792
3 534 536 1979
3 842 924 963
3 2051 578 2083
3 1077 937 1078
3 1102 1104 1803
3 894 1944 1946
3 398 404 2060
3 1007 1006 1953
3 369 367 370
3 348 354 2196
3 1078 1079 1080
3 1378 1380 1381
3 1568 1365 2439
3 608 586 1940
3 598 610 611
3 760 636 761
3 869 1137 1351
3 671 643 2033
3 1661 1345 2267
3 938 914 1057
3 783 761 914
3 576 1835 2144
3 388 389 390
3 297 295 318
3 454 453 500
3 1906 1728 2246
3 1439 1440 2468
3 1159 1013 1318
3 764 797 869
3 236 143 1717
3 782 644 2057
3 592 595 596
3 1542 2332 2443
3 1521 1311 2147
3 345 348 349
3 1304 1452 2205
3 1644 1907 2360
3 2146 1125 2149
3 997 844 1013
3 628 375 2053
3 299 297 1984
3 957 935 1966
3 664 685 799
3 301 299 1975
3 362 352 363
3 777 811 1976
3 1942 1979 2071
3 1001 920 2057
3 312 314 768
3 1552 1554 2062
3 615 616 617
3 357 1982 2076
3 800 802 839
3 774 671 2033
3 1749 1169 2105
3 365 958 1162
3 617 618 619
3 283 281 1938
3 1351 1772 2414
3 1525 1765 2489
3 846 934 1968
3 635 700 701
3 555 554 577
3 536 1158 1979
3 1101 1404 1405
3 630 635 1960
3 1811 1150 2089
3 2113 1666 2249
3 172 173 1847
3 107 108 195
3 54 55 196
3 1191 1768 2023
3 1455 1302 2205
3 115 116 2017
3 1387 1333 2437
3 659 661 764
3 1080 1121 1188
3 50 51 2011
3 411 406 2043
3 295 293 1983
3 643 987 2033
3 707 706 708
3 129 130 261
3 32 33 260
3 2159 260 2265
3 449 434 567
3 1314 1029 1315
3 917 796 940
3 378 375 628
3 108 109 1991
3 2370 1759 2537
3 341 344 345
3 997 1013 1159
3 544 569 1993
3 950 1007 1966
3 477 474 525
3 351 350 352
3 1696 1701 2036
3 334 331 803
3 1137 1138 1340
3 562 534 1979
3 109 110 246
3 52 53 247
3 1368 1316 1369
3 659 660 661
3 33 34 2002
3 123 124 2005
3 835 779 1976
3 851 838 1992
3 1530 1533 2172
3 1668 1045 2348
3 1162 1681 1706
3 342 338 468
3 298 300 358
3 765 359 2065
3 725 826 885
3 35 36 2003
3 46 47 2019
3 38 39 2006
3 336 517 2014
3 934 1111 1968
3 116 117 2018
3 650 651 1963
3 223 1711 2162
3 640 594 645
3 1333 1330 2192
3 104 222 2025
3 1603 922 2379
3 963 1113 1115
3 2084 1193 2189
3 564 570 571
3 36 37 2004
3 57 224 1947
3 1542 1601 2269
3 122 123 2012
3 1000 920 1001
3 127 128 240
3 34 35 239
3 383 387 2087
3 1161 1107 2228
3 1781 2294 2419
3 1201 1200 1202
3 124 125 225
3 37 38 226
3 1340 1341 1342
3 869 797 1137
3 839 840 1008
3 1158 544 1993
3 1326 925 1894
3 352 350 353
3 326 329 954
3 1864 2344 2412
3 836 835 2095
3 1051 1053 1295
3 1031 720 1032
3 503 461 787
3 1407 1112 2044
3 661 662 2058
3 838 868 1992
3 112 113 197
3 49 50 198
3 1359 980 1413
3 121 122 211
3 40 41 212
3 48 49 2010
3 113 114 2009
3 1741 673 2131
3 41 42 2020
3 120 121 2013
3 1409 2035 2097
3 1511 1374 2506
3 114 115 248
3 47 48 249
3 42 43 250
3 119 120 251
3 171 6 201
3 6 172 203
3 585 895 1993
3 43 44 2024
3 118 119 2021
3 905 904 906
3 764 661 797
3 337 340 341
3 1413 980 2051
3 117 118 205
3 44 45 206
3 347 346 350
3 1420 1076 1525
3 324 323 331
3 434 417 2031
3 965 967 969
3 716 719 788
3 1260 1254 1261
3 2053 373 2103
3 2069 2068 2170
3 326 328 329
3 1706 996 2408
3 273 275 2124
3 969 1011 1012
3 590 606 2001
3 1718 1611 2280
3 1914 1940 2001
3 915 1884 2082
3 329 330 333
3 620 859 955
3 2168 1409 2305
3 296 298 1997
3 915 2082 2101
3 339 338 342
3 1218 994 1505
3 333 336 337
3 266 263 1742
3 1873 768 2127
3 244 63 2162
3 64 223 2162
3 343 342 346
3 914 761 2258
3 310 312 1987
3 799 800 2055
3 302 304 763
3 1559 1566 1568
3 1598 1343 2114
3 592 575 595
3 341 345 794
3 189 1842 2220
3 767 815 816
3 1003 912 1004
3 839 1008 1009
3 1263 1428 1429
3 564 547 570
3 1845 1334 2082
3 332 331 334
3 901 866 902
3 651 659 1963
3 1009 1112 1213
3 335 334 338
3 569 585 1993
3 1665 1336 2299
3 1945 2071 2153
3 863 862 864
3 907 906 908
3 1849 1486 1930
3 1935 1144 2080
3 967 966 968
3 809 900 2119
3 865 864 866
3 835 1989 2095
3 190 1907 2417
3 333 337 522
3 1110 1748 2228
3 1193 1194 1195
3 94 191 2166
3 473 1854 2453
3 1769 1134 2369
3 948 851 1992
3 237 170 2216
3 420 419 422
3 1448 1447 2364
3 483 576 2144
3 721 1919 2032
3 885 886 1891
3 613 611 614
3 886 1014 1891
3 1160 411 2043
3 1918 1283 2342
3 1651 206 2485
3 1242 1240 1243
3 598 596 610
3 1295 1296 1459
3 1185 1186 1948
3 1425 1449 2070
3 294 296 762
3 1285 948 1992
3 925 876 1894
3 712 714 789
3 603 1668 2398
3 1940 590 2001
3 721 570 964
3 834 735 2075
3 1144 1920 2080
3 2263 1635 2511
3 1204 1207 1335
3 2235 1408 2378
3 965 964 966
3 1990 1435 2218
3 397 398 2060
3 1138 797 2058
3 1787 1141 2368
3 2068 820 2170
3 360 359 361
3 387 462 2087
3 1524 1272 1934
3 819 698 820
3 1197 1196 1198
3 1662 2126 2388
3 78 79 2093
3 1150 588 2089
3 1269 1261 1270
3 1878 915 2101
3 451 467 2169
3 2262 1387 2437
3 1009 1008 1112
3 757 311 1959
3 897 898 1139
3 1854 473 2483
3 2015 1425 2070
3 2082 1334 2101
3 963 1115 1174
3 1047 1049 1287
3 1194 423 1196
3 321 326 2050
3 417 1160 2031
3 854 1133 1973
3 1201 1212 1348
3 705 1586 2163
3 309 319 1959
3 1353 1390 2417
3 427 428 429
3 357 356 359
3 606 650 2001
3 549 1280 2124
3 1213 1112 1407
3 256 2303 2535
3 356 365 2065
3 662 664 2040
3 701 894 2039
3 1325 1371 2451
3 666 626 667
3 1902 93 2166
3 1236 1234 1246
3 800 839 2055
3 1869 1812 2252
3 1197 1364 1365
3 576 1935 2080
3 404 408 798
3 1678 807 2529
3 1560 1564 2016
3 1319 2039 2122
3 425 426 427
3 349 356 357
3 308 310 327
3 1716 622 2484
3 1801 82 2289
3 1768 1949 2420
3 2006 1926 2507
3 351 364 2407
3 420 423 1193
3 659 764 1963
3 292 294 2038
3 840 842 2027
3 736 279 2049
3 372 373 374
3 461 449 2052
3 2189 1195 2285
3 1174 1115 1398
3 367 363 961
3 909 908 918
3 1738 247 2402
3 1007 1761 2308
3 288 290 2135
3 422 441 2035
3 623 624 690
3 537 525 545
3 1953 1421 2454
3 1887 1968 2123
3 861 691 862
3 654 439 2223
3 1136 1080 2054
3 1312 1811 2089
3 575 571 2032
3 383 361 384
3 968 1200 1201
3 797 661 2058
3 1423 1354 2381
3 1180 1178 1181
3 1513 1515 2180
3 72 73 2217
3 462 445 463
3 12 13 2136
3 457 458 469
3 542 554 555
3 599 636 760
3 254 133 1766
3 1130 1397 1937
3 404 798 2060
3 1044 1942 2071
3 690 691 860
3 357 359 360
3 1008 2027 2152
3 1232 1230 1255
3 372 370 373
3 850 943 2125
3 1457 1456 1492
3 1952 324 2282
3 155 2 2356
3 0 7 2357
3 2017 1379 2288
3 918 1851 2008
3 195 1991 2517
3 2090 803 2347
3 1244 1243 1251
3 290 292 368
3 1432 1082 2214
3 1008 840 2027
3 1743 803 2296
3 1013 844 2039
3 365 1162 2065
3 1594 1315 2184
3 387 384 388
3 1508 1860 2311
3 547 527 2056
3 2005 225 2322
3 314 317 2127
3 1853 556 2327
3 201 6 278
3 1907 1644 2417
3 1896 2101 2108
3 646 645 784
3 538 508 558
3 374 375 377
3 1630 1634 1635
3 1579 1999 2352
3 1647 1648 1849
3 1313 1314 2121
3 1179 1433 2042
3 844 701 2039
3 1252 1251 2098
3 816 876 925
3 1922 1228 2281
3 392 394 396
3 1915 654 2294
3 1652 1653 2487
3 429 430 436
3 456 475 476
3 1605 1392 2510
3 126 1882 2284
3 1784 1780 2419
3 500 453 960
3 377 378 381
3 2178 1587 2300
3 1222 1219 1626
3 413 419 420
3 381 382 400
3 2169 1836 2223
3 1906 1905 2129
3 616 614 793
3 1170 1419 2139
3 101 189 2220
3 241 100 2220
3 1968 1111 2123
3 567 434 2031
3 615 614 616
3 1032 720 1921
3 682 428 2138
3 469 470 473
3 339 440 2261
3 1501 238 2226
3 1154 1431 1653
3 446 447 457
3 1251 1243 1257
3 2229 315 2495
3 1201 1202 1212
3 785 784 879
3 464 463 465
3 66 2118 2395
3 324 332 2282
3 286 288 771
3 17 199 2081
3 571 570 721
3 611 610 2092
3 617 616 618
3 1542 1531 2332
3 400 401 424
3 1325 1326 1371
3 1140 1406 1702
3 1323 443 2302
3 1926 1573 2507
3 436 437 446
3 1262 1457 2098
3 67 190 2118
3 1518 1861 2449
3 989 1359 1360
3 1063 1082 1154
3 1757 96 2526
3 969 967 1011
3 868 836 2095
3 1215 1035 2235
3 96 1757 2309
3 261 2160 2380
3 1381 1382 2126
3 1468 1469 2182
3 1334 1317 2108
3 861 863 1064
3 1270 1261 1271
3 360 361 383
3 287 316 1978
3 1856 192 2367
3 1905 241 2129
3 1615 1809 2425
3 528 523 560
3 979 980 989
3 662 2040 2058
3 721 964 965
3 170 171 2216
3 664 799 2040
3 512 511 523
3 1201 1348 2107
3 620 618 858
3 758 289 1978
3 859 858 998
3 424 425 453
3 1616 1615 2193
3 444 301 1975
3 561 560 593
3 965 966 967
3 1798 376 2430
3 340 2014 2091
3 510 465 511
3 107 195 1990
3 1080 1188 2054
3 1153 998 1312
3 1226 1224 1249
3 1012 1011 1363
3 902 904 905
3 842 963 2027
3 268 270 1134
3 865 901 1125
3 2077 558 2102
3 282 284 442
3 1977 1679 2253
3 1496 1498 2047
3 284 286 2063
3 281 736 1938
3 2132 793 2165
3 1674 215 2437
3 2078 1855 2411
3 839 1009 2055
3 1182 824 1183
3 1168 947 1169
3 1289 1871 2242
3 316 285 1971
3 1270 1271 1272
3 1755 1793 2264
3 51 1996 2011
3 383 384 387
3 1146 1924 2215
3 1279 1928 2202
3 619 618 620
3 1194 1196 1197
3 555 578 979
3 1937 1639 2528
3 1262 1257 1263
3 389 384 2339
3 2251 1338 2464
3 1155 1887 2123
3 1151 1937 2528
3 465 463 828
3 1318 1319 2116
3 1687 1688 2231
3 326 954 2050
3 297 318 1984
3 1308 953 2255
3 1846 2056 2198
3 320 315 2229
3 1254 1252 2059
3 760 761 783
3 951 1281 2255
3 1459 1296 2094
3 2288 1638 2470
3 1975 299 1984
3 52 247 1996
3 468 338 2090
3 2140 1511 2506
3 1125 1126 1192
3 593 824 1182
3 720 708 1921
3 704 706 707
3 623 587 624
3 2044 1112 2152
3 1393 1169 1749
3 900 983 2119
3 783 914 938
3 255 2265 2489
3 2039 894 2122
3 317 2050 2127
3 1866 1867 2513
3 374 373 375
3 429 436 455
3 387 388 445
3 1193 423 1194
3 555 577 578
3 1074 977 1187
3 449 567 2052
3 1197 1198 1364
3 2154 1595 2486
3 1486 1849 2173
3 318 295 1983
3 939 1016 1844
3 131 132 2160
3 30 31 2159
3 881 1146 2215
3 1294 1868 2238
3 1300 1455 2314
3 1365 1364 1912
3 783 938 939
3 2061 1735 2441
3 551 545 601
3 2194 216 2536
3 1251 1257 1262
3 888 887 2177
3 1364 1198 2048
3 1498 1682 2340
3 1589 1590 2501
3 60 188 2266
3 1401 1913 2324
3 195 108 1991
3 420 422 423
3 1675 1470 2474
3 258 1673 2183
3 2161 1619 2438
3 1296 1472 2094
3 1808 1910 2381
3 334 803 2090
3 1490 1285 2232
3 523 511 524
3 1240 1238 2074
3 1184 1183 1185
3 39 40 2151
3 473 474 477
3 1461 1463 2200
3 2072 353 2073
3 861 862 863
3 1206 1941 2401
3 958 1575 2287
3 614 611 2092
3 110 111 2140
3 1136 2054 2110
3 645 594 2133
3 260 33 2002
3 673 767 2131
3 989 980 1359
3 1741 2131 2258
3 1317 1875 2148
3 894 1946 2122
3 863 864 865
3 787 461 2052
3 857 2277 2386
3 109 246 1991
3 2017 116 2018
3 1182 1183 1184
3 377 375 378
3 816 925 1324
3 865 866 901
3 1262 1263 1456
3 359 356 2065
3 2129 241 2472
3 283 1938 1971
3 1458 1210 2203
3 1076 1003 2145
3 196 1738 2402
3 1033 1130 1151
3 1188 1121 2106
3 1140 1702 2096
3 549 687 1280
3 1694 1621 2191
3 861 1064 2112
3 1548 1549 2129
3 1784 1071 2462
3 714 716 2066
3 1961 825 2455
3 1447 1211 2250
3 979 578 980
3 905 907 1209
3 381 378 382
3 457 469 552
3 595 575 2032
3 408 413 2084
3 481 483 2144
3 1745 1349 2293
3 1980 1405 2441
3 198 50 2011
3 248 115 2017
3 912 819 2068
3 620 858 859
3 707 708 720
3 821 674 822
3 514 542 2086
3 400 382 401
3 123 2005 2012
3 1772 1351 2374
3 34 239 2002
3 768 314 2127
3 2003 36 2004
3 280 282 2079
3 124 225 2005
3 596 595 2130
3 593 560 824
3 1504 1502 2519
3 239 35 2003
3 1311 1309 2147
3 1318 1877 2240
3 1860 1432 2311
3 1416 1715 2330
3 859 998 1153
3 352 353 2072
3 312 768 1987
3 2027 1174 2152
3 226 38 2006
3 1827 1024 2117
3 1710 1391 2295
3 690 624 691
3 37 226 2004
3 1153 1312 1885
3 853 855 2186
3 1892 242 2373
3 1967 520 2174
3 939 938 1016
3 47 249 2019
3 388 390 2078
3 1991 2139 2517
3 905 906 907
3 571 721 2032
3 1196 423 2035
3 1324 925 1325
3 1151 1130 1937
3 363 352 2072
3 345 349 2076
3 1031 1032 1033
3 214 179 1859
3 211 122 2012
3 602 601 652
3 117 205 2018
3 710 712 2067
3 1602 187 2357
3 520 2000 2174
3 85 242 2335
3 220 84 2335
3 381 400 2113
3 1586 1587 2435
3 424 401 425
3 963 1174 2027
3 860 691 861
3 610 596 2130
3 1958 2078 2431
3 570 547 2056
3 237 2216 2354
3 1211 1692 2219
3 298 358 1997
3 909 947 1041
3 441 456 2097
3 1135 1647 1849
3 1601 1542 2443
3 197 113 2009
3 49 198 2010
3 1911 347 2407
3 1729 191 2309
3 212 41 2020
3 121 211 2013
3 222 105 2218
3 1125 901 1126
3 114 248 2009
3 249 48 2010
3 42 250 2020
3 251 120 2013
3 233 1769 2369
3 1870 647 2113
3 794 345 2076
3 250 43 2024
3 119 251 2021
3 901 902 2141
3 964 570 2056
3 739 335 2261
3 2108 1317 2148
3 577 599 2083
3 205 118 2021
3 44 206 2024
3 1247 1241 2323
3 1894 992 2244
3 6 203 2049
3 1642 1678 2529
3 1417 1873 2333
3 1422 2023 2516
3 341 794 2100
3 73 74 2361
3 1234 1232 2088
3 1261 1254 2059
3 896 1077 2257
3 1921 710 2067
3 125 126 2284
3 220 1699 2289
3 159 5 2304
3 4 184 2303
3 2059 1252 2098
3 1003 1004 2145
3 2328 1325 2451
3 1486 227 1500
3 63 64 2162
3 2081 1192 2260
3 508 500 2102
3 667 1872 2318
3 338 334 2090
3 423 422 2035
3 1192 1126 1471
3 907 908 909
3 1330 1328 2192
3 1972 897 2500
3 2443 316 2514
3 242 86 2373
3 87 193 2373
3 420 1193 2084
3 1473 1086 2358
3 1987 768 2037
3 522 337 2100
3 627 1660 2185
3 1793 446 2264
3 1405 2061 2441
3 1502 1217 2302
3 171 201 2216
3 1158 1993 2153
3 1197 1365 2120
3 1712 1710 2295
3 1121 1401 2414
3 93 94 2166
3 653 652 688
3 622 1716 2452
3 1345 1720 2267
3 477 537 556
3 128 129 2181
3 2331 1295 2458
3 784 645 874
3 1269 1270 2199
3 189 102 2355
3 1041 1168 1343
3 246 110 2140
3 477 525 537
3 755 1895 2371
3 1947 1723 2313
3 1134 1135 2369
3 223 65 2395
3 968 1201 2107
3 1577 1578 2325
3 210 15 2477
3 961 363 2072
3 1581 1579 2352
3 349 357 2076
3 337 341 2100
3 305 303 2317
3 370 367 2103
3 762 296 1997
3 581 580 2164
3 1278 1838 2372
3 1548 2129 2472
3 594 593 2133
3 2021 251 2022
3 2047 1247 2182
3 967 968 2107
3 1169 947 2008
3 481 2144 2169
3 793 614 2092
3 1910 217 2381
3 1251 1262 2098
3 716 788 2066
3 2101 1334 2108
3 2006 39 2151
3 1603 2379 2508
3 1926 2006 2151
3 96 97 2526
3 750 755 2371
3 789 714 2066
3 909 918 947
3 1993 895 2153
3 106 1990 2218
3 1243 1240 2074
3 832 986 1189
3 1283 1284 2342
3 2297 195 2517
3 1043 829 2326
3 767 816 2131
3 602 653 676
3 1004 912 2068
3 2086 1886 2224
3 1124 2177 2467
3 426 401 2531
3 707 720 1030
3 1000 1001 2184
3 1315 1029 2184
3 467 481 2169
3 541 513 2256
3 647 381 2113
3 225 2284 2510
3 2 156 2356
3 187 0 2357
3 40 212 2151
3 2245 1386 2383
3 676 677 829
3 1004 2068 2069
3 1860 232 2487
3 1031 1033 1034
3 829 830 972
3 996 997 2408
3 1195 1194 2120
3 987 1869 2202
3 1410 1213 2222
3 819 820 2068
3 1485 1486 2173
3 1564 2030 2155
3 807 669 2529
3 129 261 2181
3 1525 1076 2145
3 578 577 2083
3 327 310 1987
3 1083 929 2197
3 2131 1324 2258
3 798 408 2084
3 1838 696 2426
3 1486 1500 1930
3 1946 1944 2291
3 2257 1077 2291
3 1512 1661 2266
3 445 388 2078
3 1192 1471 2260
3 2118 1415 2395
3 1466 1468 2158
3 830 677 831
3 211 2012 2251
3 652 601 2442
3 537 545 551
3 558 508 2102
3 198 2011 2128
3 1718 2280 2385
3 500 960 2102
3 1168 1169 1393
3 1127 971 2496
3 95 96 2309
3 2030 1565 2155
3 1919 1172 2273
3 977 860 2112
3 240 128 2181
3 294 762 2038
3 1800 1799 2195
3 712 789 2067
3 972 1749 2326
3 472 1683 2212
3 874 645 2133
3 551 2045 2201
3 2105 1043 2326
3 1957 1212 2301
3 1514 1856 2367
3 565 538 2167
3 373 370 2103
3 355 348 2196
3 1934 1272 2138
3 1934 426 2531
3 1881 1400 2481
3 2046 1851 2327
3 367 961 2103
3 1963 1152 2206
3 201 278 443
3 3 131 2444
3 31 1 2445
3 2035 441 2097
3 503 787 2198
3 1135 1849 1930
3 1534 1983 2306
3 2089 623 2150
3 687 704 2109
3 869 1351 2363
3 1302 1304 2205
3 955 1716 2484
3 1030 720 1031
3 1159 1318 2240
3 1228 1226 2281
3 947 918 2008
3 413 420 2084
3 785 879 2532
3 1041 947 1168
3 1468 2182 2323
3 1246 1234 2088
3 1730 1163 2372
3 542 555 2086
3 1599 631 2312
3 1146 1967 2174
3 1078 1136 2343
3 1515 1574 2180
3 2336 885 2469
3 1257 1243 2074
3 1347 1346 2279
3 2001 650 2206
3 1480 1601 2514
3 1029 1000 2184
3 1956 788 2336
3 1271 1261 2059
3 130 3 2444
3 1 32 2445
3 1570 1507 2197
3 1232 1255 2088
3 791 1642 2529
3 1601 1479 2269
3 1361 1362 2168
3 1634 1922 2281
3 765 2065 2190
3 2071 1158 2153
3 1699 1801 2289
3 832 831 833
3 1864 346 2344
3 456 476 2097
3 1855 828 2411
3 2065 1162 2190
3 1125 1192 2149
3 599 760 2083
3 361 765 2339
3 1731 2123 2241
3 1349 1181 1350
3 1443 1275 2251
3 1819 524 2429
3 1021 1045 2512
3 858 618 2132
3 1999 358 2338
3 368 292 2038
3 290 368 2135
3 803 331 2296
3 1112 1008 2152
3 56 1947 2313
3 555 979 2086
3 1469 1496 2182
3 1011 967 2107
3 248 2017 2288
3 1809 789 2425
3 960 453 2221
3 538 558 2167
3 1858 1187 2248
3 2246 1757 2526
3 902 905 2141
3 1851 1853 2327
3 1224 1222 2111
3 771 288 2135
3 1945 2153 2257
3 1420 1525 2489
3 1399 1123 2393
3 103 2025 2355
3 897 822 898
3 1861 940 2532
3 865 1125 2146
3 1675 2474 2522
3 1573 2157 2507
3 1632 1631 2382
3 551 601 602
3 527 503 2198
3 1708 805 2337
3 1059 1278 2372
3 2056 527 2198
3 860 861 2112
3 1668 2348 2398
3 255 2159 2265
3 1541 1542 2269
3 1428 2074 2227
3 1582 1583 2321
3 389 1774 2503
3 2004 226 2157
3 1777 397 2405
3 1368 1436 2254
3 1061 2409 2462
3 1071 930 2462
3 1126 901 2141
3 1194 1197 2120
3 1452 1952 2282
3 2116 1319 2482
3 105 106 2218
3 1981 1399 2393
3 2119 983 2143
3 444 1682 2461
3 2173 1648 2463
3 616 793 2132
3 1791 1190 2334
3 1826 1728 2259
3 602 652 653
3 1834 1292 2428
3 556 2201 2327
3 1014 1015 2385
3 1995 1287 2331
3 1193 1195 2189
3 816 1324 2131
3 879 1861 2532
3 593 1182 2133
3 1402 266 1742
3 2216 1323 2354
3 1660 1636 2502
3 620 955 2484
3 1162 1706 2190
3 1870 2113 2249
3 204 1680 1732
3 1909 2023 2420
3 217 72 2217
3 376 372 2430
3 905 1209 2141
3 1378 1381 2283
3 1236 1246 2227
3 286 771 2063
3 1635 2263 2502
3 100 101 2220
3 1139 898 1140
3 2114 1343 2136
3 442 284 2063
3 1772 2106 2414
3 1985 1755 2533
3 2192 1328 2315
3 1064 863 2146
3 1631 1637 2459
3 736 2049 2523
3 221 1906 2246
3 318 1983 2171
3 1496 2047 2182
3 1374 2139 2506
3 196 55 2313
3 2087 462 2134
3 676 653 677
3 2304 257 2491
3 1401 2324 2363
3 829 677 830
3 654 2223 2242
3 1187 977 2112
3 1463 1466 2200
3 2023 219 2516
3 1176 881 2215
3 513 471 2290
3 1812 459 2252
3 1386 1269 2199
3 291 758 2306
3 618 616 2132
3 278 280 2210
3 83 220 2289
3 82 83 2289
3 938 1057 2161
3 1189 986 1190
3 788 719 2336
3 1914 2001 2206
3 232 181 1652
3 1567 2062 2490
3 313 757 2495
3 622 619 2484
3 688 878 1320
3 1222 1626 2111
3 282 442 2079
3 1169 2008 2105
3 1966 1007 2308
3 2040 799 2237
3 1744 2229 2495
3 986 833 1063
3 2284 1605 2510
3 887 1961 2376
3 215 1624 2262
3 830 831 832
3 476 475 2224
3 439 451 2223
3 1932 1933 2380
3 2227 1246 2366
3 1212 1202 2301
3 1107 1110 2228
3 249 2010 2299
3 1983 293 2306
3 2055 1214 2237
3 1438 1372 2478
3 824 560 2156
3 2320 1866 2513
3 1351 1137 2374
3 868 2007 2232
3 2063 771 2064
3 1507 214 1508
3 1728 1727 2246
3 1045 1047 2348
3 1139 1140 2096
3 1648 1649 2463
3 1502 2302 2519
3 704 707 2109
3 2343 1136 2396
3 650 1963 2206
3 2153 895 2257
3 396 1958 2431
3 1379 1377 2288
3 2115 1471 2319
3 2033 987 2202
3 2239 1693 2518
3 2025 1488 2355
3 1209 2115 2319
3 523 524 2156
3 783 939 2243
3 376 1798 2497
3 2066 788 2193
3 1984 318 2172
3 425 427 2221
3 203 172 1847
3 446 457 2264
3 1312 2089 2150
3 2138 1272 2211
3 897 1139 2274
3 828 1819 2429
3 1249 1224 2111
3 666 667 2318
3 1371 1326 2194
3 2433 1499 2475
3 1272 1271 2211
3 1367 2254 2479
3 1386 2053 2383
3 2074 1238 2227
3 755 2148 2320
3 2117 1604 2428
3 475 514 2224
3 228 2187 2457
3 1868 1504 2520
3 1626 1218 2185
3 2123 1111 2241
3 1287 1049 2331
3 1280 687 2109
3 459 1814 2292
3 54 196 2402
3 863 865 2146
3 204 176 1680
3 514 2086 2224
3 1646 603 2398
3 112 197 2346
3 358 300 2338
3 1140 898 1141
3 1204 1335 2301
3 1016 2161 2438
3 909 1041 2175
3 1681 2448 2492
3 2252 459 2292
3 1992 868 2232
3 1035 1036 2235
3 1051 1295 2331
3 1836 1289 2242
3 1508 214 1859
3 247 53 2402
3 1016 938 2161
3 1408 856 2378
3 1466 2158 2200
3 725 885 2336
3 855 1450 2421
3 2023 1768 2420
3 1238 1236 2227
3 1679 202 2253
3 2107 1348 2233
3 1653 1431 2487
3 1946 2291 2343
3 2253 202 2329
3 1885 1312 2150
3 378 628 2390
3 2195 1383 2432
3 1520 1519 2480
3 1532 1733 2534
3 308 327 2278
3 953 951 2255
3 1213 1407 2222
3 1561 1563 2285
3 302 763 2338
3 1928 2033 2202
3 763 304 2345
3 832 833 986
3 1352 2040 2237
3 247 1881 2481
3 560 523 2156
3 335 339 2261
3 346 342 2344
3 201 443 1323
3 2301 1335 2466
3 323 320 2229
3 1136 2110 2396
3 1139 1977 2274
3 1809 1615 2423
3 1707 1791 2334
3 46 2019 2485
3 2064 1294 2238
3 1950 197 2404
3 2021 2022 2176
3 1949 245 2420
3 2044 2152 2207
3 1063 1154 1707
3 1012 1363 2406
3 280 2079 2210
3 2237 1214 2351
3 820 698 2318
3 1140 1141 1406
3 205 2021 2176
3 2043 786 2310
3 2145 1004 2446
3 707 1030 2109
3 1406 2460 2473
3 2137 1268 2226
3 16 2081 2260
3 567 2031 2219
3 2112 1064 2248
3 206 45 2485
3 2347 1462 2365
3 1650 1962 2362
3 453 425 2221
3 1209 907 2175
3 1111 1276 2241
3 2448 1145 2492
3 2051 2083 2243
3 59 60 2266
3 1402 1742 2530
3 831 677 2209
3 624 587 2276
3 238 174 1725
3 1011 2107 2233
3 468 2365 2412
3 2337 805 2371
3 254 1932 2380
3 1174 1398 2207
3 2140 111 2346
3 1381 2186 2283
3 1987 2037 2188
3 1740 559 2456
3 1773 391 2503
3 1335 1870 2249
3 1945 2257 2291
3 828 463 2411
3 1246 2088 2208
3 2060 798 2307
3 1773 1159 2240
3 1187 2112 2248
3 1352 2237 2351
3 2037 1322 2188
3 1941 1499 2433
3 2322 225 2510
3 1031 1034 2236
3 327 2188 2321
3 595 2032 2273
3 1464 1462 2347
3 1285 1992 2232
3 799 2055 2237
3 443 278 2210
3 784 874 2178
3 392 396 2431
3 191 95 2309
3 879 784 2178
3 524 511 2429
3 2128 2011 2270
3 895 896 2257
3 2206 1152 2324
3 318 2171 2172
3 2259 1549 2379
3 1214 1410 2351
3 306 308 2278
3 2022 251 2247
3 1757 1729 2309
3 1283 1918 2524
3 996 1706 2492
3 557 2044 2207
3 1798 1448 2364
3 1447 2250 2310
3 559 1750 2403
3 1363 1011 2233
3 1343 1168 2187
3 1407 2044 2256
3 1462 1460 2365
3 1995 2331 2458
3 327 1987 2188
3 2160 254 2380
3 1681 958 2287
3 2031 1160 2250
3 1600 689 2413
3 2219 1692 2239
3 1494 1675 2522
3 1281 1916 2448
3 907 909 2175
3 565 2167 2276
3 2241 1276 2275
3 1978 316 2443
3 2151 212 2350
3 203 1847 2104
3 2049 1481 2523
3 1961 1362 2376
3 2187 1393 2457
3 940 796 2532
3 2293 1349 2329
3 572 1897 2537
3 332 739 2282
3 2052 567 2239
3 1437 1370 2277
3 567 2219 2239
3 667 626 2452
3 1914 2206 2324
3 2243 939 2392
3 2136 1343 2187
3 257 1654 2530
3 1376 1378 2283
3 2076 1982 2272
3 2083 760 2243
3 1944 1945 2291
3 1771 1839 2359
3 1404 1403 2399
3 1875 1866 2320
3 1460 1337 2412
3 760 783 2243
3 1276 1366 2275
3 1428 2227 2366
3 1882 1605 2284
3 1739 1429 2459
3 2321 2188 2434
3 1328 1327 2315
3 798 2189 2307
3 2152 1174 2207
3 2182 1247 2323
3 1516 1514 2367
3 293 291 2306
3 556 537 2201
3 1298 1300 2314
3 1400 1399 2316
3 1649 2236 2463
3 833 831 2424
3 2127 2050 2333
3 1057 914 2328
3 1839 193 2359
3 761 1741 2258
3 1186 1970 2422
3 1429 2366 2382
3 2211 1271 2271
3 1733 1248 2534
3 13 2114 2136
3 2078 390 2431
3 1533 1536 2340
3 1690 2145 2446
3 1277 2308 2370
3 1168 1393 2187
3 1597 2047 2268
3 587 565 2276
3 1908 244 2401
3 225 125 2284
3 610 2130 2468
3 1749 2105 2326
3 1913 1914 2324
3 2366 2208 2382
3 1391 1876 2295
3 457 552 2264
3 653 688 2209
3 1601 2443 2514
3 682 2138 2211
3 992 1980 2244
3 55 56 2313
3 1645 1495 2493
3 473 477 2483
3 202 1724 2329
3 465 828 2429
3 1277 1966 2308
3 1416 2330 2406
3 1912 1364 2455
3 1716 1483 2375
3 2019 1651 2485
3 1725 2137 2226
3 201 1323 2216
3 878 1083 2213
3 2072 2073 2245
3 1563 1777 2405
3 244 2028 2401
3 2016 1564 2422
3 1682 1497 2461
3 1962 1153 2362
3 1298 2314 2358
3 1384 1385 2391
3 688 1320 2209
3 1587 2179 2435
3 786 380 2497
3 1395 1522 2341
3 2032 1919 2273
3 251 2013 2247
3 2219 2031 2250
3 2397 552 2453
3 1765 255 2489
3 2475 1825 2524
3 1202 1204 2301
3 445 2078 2411
3 323 2229 2296
3 1286 2384 2408
3 537 551 2201
3 1724 237 2293
3 84 85 2335
3 1471 1126 2319
3 1635 1634 2511
3 300 302 2338
3 698 666 2318
3 1030 1031 2236
3 2098 1457 2271
3 696 1821 2426
3 1457 1492 2447
3 1956 2336 2469
3 331 323 2296
3 1284 1491 2342
3 2011 1996 2270
3 256 183 2303
3 160 257 2304
3 2204 1589 2501
3 1891 1014 2280
3 719 725 2336
3 1354 1808 2381
3 437 430 2494
3 2377 218 2391
3 2211 2271 2447
3 1407 2256 2290
3 2365 1460 2412
3 2047 1498 2268
3 1825 1283 2524
3 1499 1825 2475
3 1226 1249 2281
3 2051 2243 2392
3 2250 1160 2310
3 111 112 2346
3 304 306 2345
3 1341 1352 2351
3 2166 191 2504
3 2223 1836 2242
3 1996 247 2481
3 1049 1051 2331
3 1086 1298 2358
3 2130 595 2273
3 1249 2111 2263
3 680 1995 2458
3 1511 2140 2346
3 102 103 2355
3 469 473 2453
3 961 2072 2245
3 2073 1282 2245
3 1442 1443 2525
3 74 192 2361
3 2163 1586 2435
3 1519 1518 2449
3 897 2274 2500
3 303 444 2317
3 1615 1614 2423
3 197 2009 2404
3 1634 2281 2511
3 1780 1781 2419
3 1435 1623 2465
3 1286 1774 2384
3 384 361 2339
3 193 1901 2359
3 1165 2433 2475
3 2277 1370 2386
3 677 653 2209
3 1994 1516 2367
3 1479 1478 2440
3 1165 1512 2433
3 1644 1353 2417
3 1711 1712 2353
3 2193 1615 2425
3 1613 1956 2469
3 1440 1173 2330
3 2269 1479 2440
3 222 2218 2465
3 391 389 2503
3 306 2278 2345
3 468 2090 2365
3 221 2246 2526
3 1445 1446 2504
3 939 1844 2392
3 86 87 2373
3 1429 1428 2366
3 2053 2103 2383
3 1348 1212 2312
3 805 750 2371
3 997 1286 2408
3 1152 869 2363
3 2063 2064 2238
3 192 1994 2367
3 1160 2043 2310
3 1926 2151 2350
3 2059 2098 2271
3 1897 1366 2537
3 215 2262 2437
3 1655 1732 2476
3 2415 1128 2454
3 1320 2213 2214
3 7 258 2357
3 259 155 2356
3 2171 1530 2172
3 347 351 2407
3 1077 1078 2343
3 239 2003 2279
3 1446 1128 2415
3 1034 1033 2410
3 601 627 2442
3 1154 1653 2234
3 397 2060 2405
3 2142 794 2272
3 442 2063 2238
3 1863 1215 2378
3 794 2076 2272
3 1883 1375 2505
3 1320 878 2213
3 342 468 2344
3 1903 218 2377
3 380 376 2497
3 1549 1547 2379
3 1148 1165 2475
3 2157 226 2507
3 829 972 2326
3 884 1957 2466
3 2291 1077 2343
3 65 66 2395
3 787 2052 2518
3 2298 1348 2312
3 1946 2343 2396
3 1653 256 2535
3 1842 1548 2472
3 1957 2301 2466
3 1366 1277 2370
3 2213 1432 2214
3 961 2245 2383
3 218 2093 2391
3 1376 2283 2421
3 1873 2127 2333
3 1019 1021 2512
3 1128 1127 2454
3 1104 1434 2450
3 2130 1439 2468
3 2396 2110 2482
3 2186 855 2283
3 1724 2293 2329
3 1163 1059 2372
3 1614 2389 2423
3 53 54 2402
3 1063 1707 2334
3 2283 855 2421
3 1385 1863 2436
3 364 1883 2505
3 517 1890 2387
3 1145 996 2492
3 1047 1287 2348
3 2148 1875 2320
3 205 2176 2416
3 1372 1844 2478
3 1211 2219 2250
3 1141 898 2368
3 245 1909 2420
3 2278 327 2321
3 2389 1397 2423
3 2256 513 2290
3 559 2403 2456
3 1137 1340 2374
3 2093 1384 2391
3 1918 1148 2524
3 1030 2236 2427
3 1867 1895 2513
3 2014 517 2387
3 2271 1457 2447
3 1143 2028 2353
3 1904 194 2432
3 1148 2475 2524
3 1574 1523 2436
3 2213 1083 2311
3 1997 358 2325
3 2139 246 2506
3 1370 1369 2386
3 1271 2059 2271
3 1034 2173 2463
3 1123 1412 2393
3 1578 1827 2515
3 2209 1320 2424
3 2079 1504 2210
3 1361 2168 2305
3 1491 1489 2403
3 238 1725 2226
3 1190 986 2334
3 1547 1545 2508
3 1891 1613 2469
3 1153 1885 2362
3 2208 1632 2382
3 2287 1281 2448
3 1356 1376 2421
3 1965 2349 2515
3 2155 1186 2422
3 1522 2014 2387
3 2158 1468 2323
3 2050 954 2333
3 1397 1809 2423
3 1362 1360 2376
3 1852 1985 2397
3 2069 1691 2446
3 789 2066 2425
3 1895 755 2513
3 1707 1154 2234
3 372 374 2430
3 2225 787 2518
3 2028 1206 2401
3 986 1063 2334
3 1912 726 2439
3 1340 1342 2400
3 1916 1145 2448
3 2236 1649 2427
3 2374 1340 2400
3 2222 1407 2290
3 2324 1152 2363
3 241 2220 2472
3 765 2190 2384
3 2375 667 2452
3 2330 1173 2406
3 1181 1972 2500
3 2126 1382 2388
3 1173 1012 2406
3 315 313 2495
3 1015 1373 2385
3 97 221 2526
3 1937 1397 2389
3 930 1061 2462
3 971 1096 2496
3 45 46 2485
3 669 791 2529
3 1104 2450 2521
3 382 378 2390
3 2191 1371 2536
3 2235 1036 2286
3 831 2209 2424
3 762 1997 2349
3 2379 1547 2508
3 2177 1359 2467
3 2403 1489 2456
3 796 785 2532
3 219 1902 2516
3 1519 2300 2480
3 1065 1655 2476
3 1375 1473 2505
3 1489 1490 2456
3 390 392 2431
3 2247 2013 2464
3 1135 1930 2369
3 2278 1583 2345
3 626 622 2452
3 631 2298 2312
3 2233 1348 2298
3 1398 1974 2499
3 1706 1681 2492
3 261 130 2444
3 32 260 2445
3 822 2099 2368
3 1365 1912 2439
3 941 940 2418
3 1446 2166 2504
3 2106 1121 2414
3 2300 1519 2449
3 1803 1104 2521
3 1732 1570 2476
3 1413 2051 2392
3 2122 1946 2396
3 2238 1868 2520
3 477 556 2483
3 2397 1985 2533
3 463 445 2411
3 2163 1185 2488
3 1126 2141 2319
3 1755 2264 2533
3 972 2204 2501
3 2230 1533 2340
3 1774 1773 2503
3 1997 2325 2349
3 1004 2069 2446
3 2159 31 2445
3 131 2160 2444
3 1371 2191 2451
3 1001 2154 2486
3 1682 2230 2340
3 2103 961 2383
3 1033 1151 2410
3 382 2390 2531
3 1504 2079 2520
3 1583 2278 2321
3 511 465 2429
3 250 2024 2479
3 2208 2088 2509
3 619 620 2484
3 1246 2208 2366
3 2141 1209 2319
3 1359 1413 2467
3 1295 1459 2458
3 2218 1435 2465
3 2281 1249 2511
3 2293 237 2354
3 2207 1398 2499
3 1564 2155 2422
3 552 469 2453
3 1947 224 2498
3 2062 1568 2490
3 2018 205 2416
3 260 2159 2445
3 2160 261 2444
3 2092 610 2468
3 194 2195 2432
3 1432 2213 2311
3 211 2251 2464
3 2378 856 2527
3 1536 1532 2534
3 2364 786 2497
3 2438 1438 2478
3 1185 1948 2488
3 2042 941 2418
3 1582 2321 2434
3 885 1891 2469
3 1364 2048 2455
3 1693 2225 2518
3 401 382 2531
3 1338 2247 2464
3 442 2238 2520
3 1292 2117 2428
3 2274 1350 2500
3 2066 2193 2425
3 2179 1184 2435
3 898 822 2368
3 2436 1863 2527
3 1844 1016 2478
3 2184 1001 2486
3 557 2207 2499
3 2013 211 2464
3 2254 250 2479
3 1350 1181 2500
3 2009 248 2470
3 246 2140 2506
3 1574 2436 2527
3 2139 1419 2517
3 316 1971 2514
3 1319 2122 2482
3 226 2006 2507
3 1400 2270 2481
3 1681 2287 2448
3 2325 1578 2349
3 232 1652 2487
3 1320 2214 2424
3 1632 2208 2509
3 248 2288 2470
3 1406 1141 2460
3 2188 1322 2434
3 2244 1980 2441
3 2088 1255 2509
3 1280 2109 2427
3 2060 2307 2405
3 2236 1034 2463
3 1745 2293 2354
3 2122 2396 2482
3 2109 1030 2427
3 2307 1563 2405
3 1429 2382 2459
3 224 2267 2498
3 682 2211 2447
3 2079 442 2520
3 2348 1287 2398
3 2220 1842 2472
3 1335 2249 2466
3 1249 2263 2511
3 443 2210 2519
3 2385 1373 2394
3 1594 2184 2486
3 2052 2239 2518
3 1568 2439 2490
3 2349 1578 2515
3 2344 468 2412
3 2270 1996 2481
3 1735 2244 2441
3 2260 1471 2477
3 2210 1504 2519
3 1434 2297 2450
3 2297 1419 2450
3 2263 1660 2502
3 2404 2009 2470
3 1718 2385 2394
3 1371 2194 2536
3 2317 444 2461
3 1443 2322 2525
3 1716 2375 2452
3 1863 2378 2527
3 2439 726 2490
3 1057 2328 2451
3 1638 2404 2470
3 1454 2234 2535
3 755 2320 2513
3 2234 1653 2535
3 2264 552 2533
3 1419 2297 2517
3 1392 2322 2510
3 552 2397 2533
3 1798 2364 2497
3 2322 1392 2525
3 2382 1631 2459
3 1016 2438 2478
3 1366 2370 2537
3 1742 2491 2530
3 2491 257 2530
CELL_TYPES 4886
5
5
5
5
5
5
5
5
5
5
5
5
5
5
5
5
5
5
5
5
5
5
5
5
5
5
5
5
5
5
5
5
5
5
5
5
5
5
5
5
5
5
5
5
5
5
5
5
5
5
5
5
5
5
5
5
5
5
5
5
5
5
5
5
5
5
5
5
5
5
5
5
5
5
5
5
5
5
5
5
5
5
5
5
5
5
5
5
5
5
5
5
5
5
5
5
5
5
5
5
5
5
5
5
5
5
5
5
5
5
5
5
5
5
5
5
5
5
5
5
5
5
5
5
5
5
5
5
5
5
5
5
5
5
5
5
5
5
5
5
5
5
5
5
5
5
5
5
5
5
5
5
5
5
5
5
5
5
5
5
5
5
5
5
5
5
5
5
5
5
5
5
5
5
5
5
5
5
5
5
5
5
5
5
5
5
5
5
5
5
5
5
5
5
5
5
5
5
5
5
5
5
5
5
5
5
5
5
5
5
5
5
5
5
5
5
5
5
5
5
5
5
5
5
5
5
5
5
5
5
5
5
5
5
5
5
5
5
5
5
5
5
5
5
5
5
5
5
5
5
5
5
5
5
5
5
5
5
5
5
5
5
5
5
5
5
5
5
5
5
5
5
5
5
5
5
5
5
5
5
5
5
5
5
5
5
5
5
5
5
5
5
5
5
5
5
5
5
5
5
5
5
5
5
5
5
5
5
5
5
5
5
5
5
5
5
5
5
5
5
5
5
5
5
5
5
5
5
5
5
5
5
5
5
5
5
5
5
5
5
5
5
5
5
5
5
5
5
5
5
5
5
5
5
5
5
5
5
5
5
5
5
5
5
5
5
5
5
5
5
5
5
5
5
5
5
5
5
5
5
5
5
5
5
5
5
5
5
5
5
5
5
5
5
5
5
5
5
5
5
5
5
5
5
5
5
5
5
5
5
5
5
5
5
5
5
5
5
5
5
5
5
5
5
5
5
5
5
5
5
5
5
5
5
5
5
5
5
5
5
5
5
5
5
5
5
5
5
5
5
5
5
5
5
5
5
5
5
5
5
5
5
5
5
5
5
5
5
5
5
5
5
5
5
5
5
5
5
5
5
5
5
5
5
5
5
5
5
5
5
5
5
5
5
5
5
5
5
5
5
5
5
5
5
5
5
5
5
5
5
5
5
5
5
5
5
5
5
5
5
5
5
5
5
5
5
5
5
5
5
5
5
5
5
5
5
5
5
5
5
5
5
5
5
5
5
5
5
5
5
5
5
5
5
5
5
5
5
5
5
5
5
5
5
5
5
5
5
5
5
5
5
5
5
5
5
5
5
5
5
5
5
5
5
5
5
5
5
5
5
5
5
5
5
5
5
5
5
5
5
5
5
5
5
5
5
5
5
5
5
5
5
5
5
5
5
5
5
5
5
5
5
5
5
5
5
5
5
5
5
5
5
5
5
5
5
5
5
5
5
5
5
5
5
5
5
5
5
5
5
5
5
5
5
5
5
5
5
5
5
5
5
5
5
5
5
5
5
5
5
5
5
5
5
5
5
5
5
5
5
5
5
5
5
5
5
5
5
5
5
5
5
5
5
5
5
5
5
5
5
5
5
5
5
5
5
5
5
5
5
5
5
5
5
5
5
5
5
5
5
5
5
5
5
5
5
5
5
5
5
5
5
5
5
5
5
5
5
5
5
5
5
5
5
5
5
5
5
5
5
5
5
5
5
5
5
5
5
5
5
5
5
5
5
5
5
5
5
5
5
5
5
5
5
5
5
5
5
5
5
5
5
5
5
5
5
5
5
5
5
5
5
5
5
5
5
5
5
5
5
5
5
5
5
5
5
5
5
5
5
5
5
5
5
5
5
5
5
5
5
5
5
5
5
5
5
5
5
5
5
5
5
5
5
5
5
5
5
5
5
5
5
5
5
5
5
5
5
5
5
5
5
5
5
5
5
5
5
5
5
5
5
5
5
5
5
5
5
5
5
5
5
5
5
5
5
5
5
5
5
5
5
5
5
5
5
5
5
5
5
5
5
5
5
5
5
5
5
5
5
5
5
5
5
5
5
5
5
5
5
5
5
5
5
5
5
5
5
5
5
5
5
5
5
5
5
5
5
5
5
5
5
5
5
5
5
5
5
5
5
5
5
5
5
5
5
5
5
5
5
5
5
5
5
5
5
5
5
5
5
5
5
5
5
5
5
5
5
5
5
5
5
5
5
5
5
5
5
5
5
5
5
5
5
5
5
5
5
5
5
5
5
5
5
5
5
5
5
5
5
5
5
5
5
5
5
5
5
5
5
5
5
5
5
5
5
5
5
5
5
5
5
5
5
5
5
5
5
5
5
5
5
5
5
5
5
5
5
5
5
5
5
5
5
5
5
5
5
5
5
5
5
5
5
5
5
5
5
5
5
5
5
5
5
5
5
5
5
5
5
5
5
5
5
5
5
5
5
5
5
5
5
5
5
5
5
5
5
5
5
5
5
5
5
5
5
5
5
5
5
5
5
5
5
5
5
5
5
5
5
5
5
5
5
5
5
5
5
5
5
5
5
5
5
5
5
5
5
5
5
5
5
5
5
5
5
5
5
5
5
5
5
5
5
5
5
5
5
5
5
5
5
5
5
5
5
5
5
5
5
5
5
5
5
5
5
5
5
5
5
5
5
5
5
5
5
5
5
5
5
5
5
5
5
5
5
5
5
5
5
5
5
5
5
5
5
5
5
5
5
5
5
5
5
5
5
5
5
5
5
5
5
5
5
5
5
5
5
5
5
5
5
5
5
5
5
5
5
5
5
5
5
5
5
5
5
5
5
5
5
5
5
5
5
5
5
5
5
5
5
5
5
5
5
5
5
5
5
5
5
5
5
5
5
5
5
5
5
5
5
5
5
5
5
5
5
5
5
5
5
5
5
5
5
5
5
5
5
5
5
5
5
5
5
5
5
5
5
5
5
5
5
5
5
5
5
5
5
5
5
5
5
5
5
5
5
5
5
5
5
5
5
5
5
5
5
5
5
5
5
5
5
5
5
5
5
5
5
5
5
5
5
5
5
5
5
5
5
5
5
5
5
5
5
5
5
5
5
5
5
5
5
5
5
5
5
5
5
5
5
5
5
5
5
5
5
5
5
5
5
5
5
5
5
5
5
5
5
5
5
5
5
5
5
5
5
5
5
5
5
5
5
5
5
5
5
5
5
5
5
5
5
5
5
5
5
5
5
5
5
5
5
5
5
5
5
5
5
5
5
5
5
5
5
5
5
5
5
5
5
5
5
5
5
5
5
5
5
5
5
5
5
5
5
5
5
5
5
5
5
5
5
5
5
5
5
5
5
5
5
5
5
5
5
5
5
5
5
5
5
5
5
5
5
5
5
5
5
5
5
5
5
5
5
5
5
5
5
5
5
5
5
5
5
5
5
5
5
5
5
5
5
5
5
5
5
5
5
5
5
5
5
5
5
5
5
5
5
5
5
5
5
5
5
5
5
5
5
5
5
5
5
5
5
5
5
5
5
5
5
5
5
5
5
5
5
5
5
5
5
5
5
5
5
5
5
5
5
5
5
5
5
5
5
5
5
5
5
5
5
5
5
5
5
5
5
5
5
5
5
5
5
5
5
5
5
5
5
5
5
5
5
5
5
5
5
5
5
5
5
5
5
5
5
5
5
5
5
5
5
5
5
5
5
5
5
5
5
5
5
5
5
5
5
5
5
5
5
5
5
5
5
5
5
5
5
5
5
5
5
5
5
5
5
5
5
5
5
5
5
5
5
5
5
5
5
5
5
5
5
5
5
5
5
5
5
5
5
5
5
5
5
5
5
5
5
5
5
5
5
5
5
5
5
5
5
5
5
5
5
5
5
5
5
5
5
5
5
5
5
5
5
5
5
5
5
5
5
5
5
5
5
5
5
5
5
5
5
5
5
5
5
5
5
5
5
5
5
5
5
5
5
5
5
5
5
5
5
5
5
5
5
5
5
5
5
5
5
5
5
5
5
5
5
5
5
5
5
5
5
5
5
5
5
5
5
5
5
5
5
5
5
5
5
5
5
5
5
5
5
5
5
5
5
5
5
5
5
5
5
5
5
5
5
5
5
5
5
5
5
5
5
5
5
5
5
5
5
5
5
5
5
5
5
5
5
5
5
5
5
5
5
5
5
5
5
5
5
5
5
5
5
5
5
5
5
5
5
5
5
5
5
5
5
5
5
5
5
5
5
5
5
5
5
5
5
5
5
5
5
5
5
5
5
5
5
5
5
5
5
5
5
5
5
5
5
5
5
5
5
5
5
5
5
5
5
5
5
5
5
5
5
5
5
5
5
5
5
5
5
5
5
5
5
5
5
5
5
5
5
5
5
5
5
5
5
5
5
5
5
5
5
5
5
5
5
5
5
5
5
5
5
5
5
5
5
5
5
5
5
5
5
5
5
5
5
5
5
5
5
5
5
5
5
5
5
5
5
5
5
5
5
5
5
5
5
5
5
5
5
5
5
5
5
5
5
5
5
5
5
5
5
5
5
5
5
5
5
5
5
5
5
5
5
5
5
5
5
5
5
5
5
5
5
5
5
5
5
5
5
5
5
5
5
5
5
5
5
5
5
5
5
5
5
5
5
5
5
5
5
5
5
5
5
5
5
5
5
5
5
5
5
5
5
5
5
5
5
5
5
5
5
5
5
5
5
5
5
5
5
5
5
5
5
5
5
5
5
5
5
5
5
5
5
5
5
5
5
5
5
5
5
5
5
5
5
5
5
5
5
5
5
5
5
5
5
5
5
5
5
5
5
5
5
5
5
5
5
5
5
5
5
5
5
5
5
5
5
5
5
5
5
5
5
5
5
5
5
5
5
5
5
5
5
5
5
5
5
5
5
5
5
5
5
5
5
5
5
5
5
5
5
5
5
5
5
5
5
5
5
5
5
5
5
5
5
5
5
5
5
5
5
5
5
5
5
5
5
5
5
5
5
5
5
5
5
5
5
5
5
5
5
5
5
5
5
5
5
5
5
5
5
5
5
5
5
5
5
5
5
5
5
5
5
5
5
5
5
5
5
5
5
5
5
5
5
5
5
5
5
5
5
5
5
5
5
5
5
5
5
5
5
5
5
5
5
5
5
5
5
5
5
5
5
5
5
5
5
5
5
5
5
5
5
5
5
5
5
5
5
5
5
5
5
5
5
5
5
5
5
5
5
5
5
5
5
5
5
5
5
5
5
5
5
5
5
5
5
5
5
5
5
5
5
5
5
5
5
5
5
5
5
5
5
5
5
5
5
5
5
5
5
5
5
5
5
5
5
5
5
5
5
5
5
5
5
5
5
5
5
5
5
5
5
5
5
5
5
5
5
5
5
5
5
5
5
5
5
5
5
5
5
5
5
5
5
5
5
5
5
5
5
5
5
5
5
5
5
5
5
5
5
5
5
5
5
5
5
5
5
5
5
5
5
5
5
5
5
5
5
5
5
5
5
5
5
5
5
5
5
5
5
5
5
5
5
5
5
5
5
5
5
5
5
5
5
5
5
5
5
5
5
5
5
5
5
5
5
5
5
5
5
5
5
5
5
5
5
5
5
5
5
5
5
5
5
5
5
5
5
5
5
5
5
5
5
5
5
5
5
5
5
5
5
5
5
5
5
5
5
5
5
5
5
5
5
5
5
5
5
5
5
5
5
5
5
5
5
5
5
5
5
5
5
5
5
5
5
5
5
5
5
5
5
5
5
5
5
5
5
5
5
5
5
5
5
5
5
5
5
5
5
5
5
5
5
5
5
5
5
5
5
5
5
5
5
5
5
5
5
5
5
5
5
5
5
5
5
5
5
5
5
5
5
5
5
5
5
5
5
5
5
5
5
5
5
5
5
5
5
5
5
5
5
5
5
5
5
5
5
5
5
5
5
5
5
5
5
5
5
5
5
5
5
5
5
5
5
5
5
5
5
5
5
5
5
5
5
5
5
5
5
5
5
5
5
5
5
5
5
5
5
5
5
5
5
5
5
5
5
5
5
5
5
5
5
5
5
5
5
5
5
5
5
5
5
5
5
5
5
5
5
5
5
5
5
5
5
5
5
5
5
5
5
5
5
5
5
5
5
5
5
5
5
5
5
5
5
5
5
5
5
5
5
5
5
5
5
5
5
5
5
5
5
5
5
5
5
5
5
5
5
5
5
5
5
5
5
5
5
5
5
5
5
5
5
5
5
5
5
5
5
5
5
5
5
5
5
5
5
5
5
5
5
5
5
5
5
5
5
5
5
5
5
5
5
5
5
5
5
5
5
5
5
5
5
5
5
5
5
5
5
5
5
5
5
5
5
5
5
5
5
5
5
5
5
5
5
5
5
5
5
5
5
5
5
5
5
5
5
5
5
5
5
5
5
5
5
5
5
5
5
5
5
5
5
5
5
5
5
5
5
5
5
5
5
5
5
5
5
5
5
5
5
5
5
5
5
5
5
5
5
5
5
5
5
5
5
5
5
5
5
5
5
5
5
5
5
5
5
5
5
5
5
5
5
5
5
5
5
5
5
5
5
5
5
5
5
5
5
5
5
5
5
5
5
5
5
5
5
5
5
5
5
5
5
5
5
5
5
5
5
5
5
5
5
5
5
5
5
5
5
5
5
5
5
5
5
5
5
5
5
5
5
5
5
5
5
5
5
5
5
5
5
5
5
5
5
5
5
5
5
5
5
5
5
5
5
5
5
5
5
5
5
5
5
5
5
5
5
5
5
5
5
5
5
5
5
5
5
5
5
5
5
5
5
5
5
5
5
5
5
5
5
5
5
5
5
5
5
5
5
5
5
5
5
5
5
5
5
5
5
5
5
5
5
5
5
5
5
5
5
5
5
5
5
5
5
5
5
5
5
5
5
5
5
5
5
5
5
5
5
5
5
5
5
5
5
5
5
5
5
5
5
5
5
5
5
5
5
5
5
5
5
5
5
5
5
5
5
5
5
5
5
5
5
5
5
5
5
5
5
5
5
5
5
5
5
5
5
5
5
5
5
5
5
5
5
5
5
5
5
5
5
5
5
5
5
5
5
5
5
5
5
5
5
5
5
5
5
5
5
5
5
5
5
5
5
5
5
5
5
5
5
5
5
5
5
5
5
5
5
5
5
5
5
5
5
5
5
5
5
5
5
5
5
5
5
5
5
5
5
5
5
5
5
5
5
5
5
5
5
5
5
5
5
5
5
5
5
5
5
5
5
5
5
5
5
5
5
5
5
5
5
5
5
5
5
5
5
5
5
5
5
5
5
5
5
5
5
5
5
5
5
5
5
5
5
5
5
5
5
5
5
5
5
5
5
5
5
5
5
5
5
5
5
5
5
5
5
5
5
5
5
5
5
5
5
5
5
5
5
5
5
5
5
5
5
5
5
5
5
5
5
5
5
5
5
5
5
5
5
5
5
5
5
5
5
5
5
5
5
5
5
5
5
5
5
5
5
5
5
5
5
5
5
5
5
5
5
5
5
5
5
5
5
5
5
5
5
5
5
5
5
5
5
5
5
5
5
5
5
5
5
5
5
5
5
5
5
5
5
5
5
5
5
5
5
5
5
5
5
5
5
5
5
5
5
5
5
5
5
5
5
5
5
5
5
5
5
5
5
5
5
5
5
5
5
5
5
5
5
5
5
5
5
5
5
5
5
5
5
5
5
5
5
5
5
5
5
5
5
5
5
5
5
5
5
5
5
5
5
5
5
5
5
5
5
5
5
5
5
5
5
5
5
5
5
5
5
5
5
5
5
5
5
5
5
5
5
5
5
5
5
5
5
5
5
5
5
5
5
5
5
5
5
5
5
5
5
5
5
5
5
5
5
5
5
5
5
5
5
5
5
5
5
5
5
5
5
5
5
5
5
5
5
5
5
5
5
5
5
5
5
5
5
5
5
5
5
5
5
5
5
5
5
5
5
5
5
5
5
5
5
5
5
5
5
5
5
5
5
5
5
5
5
5
5
5
5
5
5
5
5
5
5
5
5
5
5
5
5
5
5
5
5
5
5
5
5
5
5
5
5
5
5
5
5
5
5
5
5
5
5
5
5
5
5
5
5
5
5
5
5
5
5
5
5
5
5
5
5
5
5
5
5
5
5
5
5
5
5
5
5
5
5
5
5
5
5
5
5
5
5
5
5
5
5
5
5
5
5
5
5
5
5
5
5
5
5
5
5
5
5
5
5
5
5
5
5
5
5
5
5
5
5
5
5
5
5
5
5
5
5
5
5
5
5
5
5
5
5
5
5
5
5
5
5
5
5
5
5
5
5
5
5
5
5
5
5
5
5
5
5
5
5
5
5
5
5
5
5
5
5
5
5
5
5
5
5
5
5
5
5
5
5
5
5
5
5
5
5
5
5
5
5
5
5
5
5
5
5
5
5
5
5
5
5
5
5
5
5
5
5
5
5
5
5
5
5
5
5
5
5
5
5
5
5
5
5
5
5
5
5
5
5
5
5
5
5
5
5
5
5
5
5
5
5
5
5
5
5
5
5
5
5
5
5
5
5
5
5
5
5
5
5
5
5
5
5
5
5
5
5
5
5
5
5
5
5
5
5
5
5
5
5
5
5
5
5
5
5
5
5
5
5
5
5
5
5
5
5
5
5
5
5
5
5
5
5
5
5
5
5
5
5
5
5
5
5
5
5
5
5
5
5
5
5
5
5
5
5
5
5
5
5
5
5
5
5
5
5
5
5
5
5
5
5
5
5
5
5
5
5
5
5
5
5
5
5
5
5
5
5
5
5
5
5
5
5
5
5
5
5
5
5
5
5
5
5
5
5
5
5
5
5
5
5
5
5
5
5
5
5
5
5
5
5
5
5
5
5
5
5
5
5
5
5
5
5
5
5
5
5
5
5
5
5
5
5
5
5
5
5
5
5
5
5
5
5
5
5
5
5
5
5
5
5
5
5
5
5
5
5
5
5
5
5
5
5
5
5
5
5
5
5
5
5
5
5
5
5
5
5
5
5
5
5
5
5
5
5
5
5
5
5
5
5
5
5
5
5
5
5
5
5
5
5
5
5
5
5
5
5
5
5
5
5
5
5
5
5
5
5
5
5
5
5
5
5
5
5
5
5
5
5
5
5
5
5
5
5
5
5
5
5
5
5
5
5
5
5
5
5
5
5
5
5
5
5
5
5
5
5
5
5
5
5
5
5
5
5
5
5
5
5
5
5
5
5
5
5
5
5
5
5
5
5
5
5
5
5
5
5
5
5
5
5
5
5
5
5
5
5
5
5
5
5
5
5
5
5
5
5
5
5
5
5
5
5
5
5
5
5
5
5
5
5
5
5
5
5
5
5
5
5
5
5
5
5
5
5
5
5
5
5
5
5
5
5
5
5
5
5
5
5
5
5
5
5
5
5
5
5
5
5
5
5
5
5
5
5
5
5
5
5
5
5
5
5
5
5
5
5
5
5
5
5
5
5
5
5
5
5
5
5
5
5
5
5
5
5
5
5
5
5
5
5
5
5
5
5
5
5
5
5
5
5
5
5
5
5
5
5
5
5
5
5
5
5
5
5
5
5
5
5
5
5
5
5
5
5
5
5
5
5
5
5
5
5
5
5
5
5
5
5
5
5
5
5
5
5
5
5
5
5
5
5
5
5
5
5
5
5
5
5
5
5
5
5
5
5
5
5
5
5
5
5
5
5
5
5
5
5
5
5
5
5
5
5
5
5
5
5
5
5
5
5
5
5
5
5
5
5
5
5
5
5
5
5
5
5
5
5
5
5
5
5
5
5
5
5
5
5
5
5
5
5
5
5
5
5
5
5
5
5
5
5
5
5
5
5
5
5
5
5
5
5
5
5
5
5
5
5
5
5
5
5
5
5
5
5
5
5
5
5
5
5
5
5
5
5
5
5
5
5
5
5
5
5
5
5
5
5
5
5
5
5
5
5
5
5
5
5
5
5
5
5
5
5
5
5
5
5
5
5
5
5
5
5
5
5
5
5
5
5
5
5
5
5
5
5
5
5
5
5
5
5
5
5
5
5
5
5
5
5
5
5
5
5
5
5
5
5
5
5
5
5
5
5
5
5
5
5
5
5
5
5
5
5
5
5
5
5
5
5
5
5
5
5
5
5
5
5
5
5
5
5
5
5
5
5
5
5
5
5
5
5
5
5
5
5
5
5
5
5
5
5
5
5
5
5
5
5
5
5
5
5
5
5
5
5
5
5
5
5
5
5
5
5
5
5
5
5
5
5
5
5
5
5
5
5
5
5
5
5
5
5
5
5
5
5
5
5
5
5
5
5
5
5
5
5
5
5
5
5
5
5
5
5
5
5
5
5
5
5
5
5
5
5
5
5
5
5
5
5
5
5
5
5
5
5
5
5
5
5
5
5
5
5
5
5
5
5
5
5
5
5
5
5
5
5
5
5
5
5
5
5
5
5
5
5
5
5
5
5
5
5
5
5
5
5
5
5
5
5
5
5
5
5
5
5
5
5
5
5
5
5
5
5
5
5
5
5
5
5
5
5
5
5
5
5
5
5
5
5
5
5
5
5
5
5
5
5
5
5
5
5
5
5
5
5
5
5
5
5
5
5
5
5
5
5
5
5
5
5
5
5
5
5
5
5
5
5
5
5
5
5
5
5
5
5
5
5
5
5
5
5
5
5
5
5
5
5
5
5
5
5
5
5
5
5
5
5
5
5
5
5
5
5
5
5
5
5
5
5
5
5
5
5
5
5
5
5
5
5
5
5
5
5
5
5
5
5
5
5
5
5
5
5
5
5
5
5
5
5
5
5
5
5
5
5
5
5
5
5
5
5
5
5
5
5
5
5
5
5
5
5
5
5
5
5
5
5
5
5
5
5
5
5
5
5
5
5
5
5
5
5
5
5
5
5
5
5
5
5
5
5
5
5
5
5
5
5
5
5
5
5
5
5
5
5
5
5
5
5
5
5
5
5
5
5
5
5
5
5
5
5
5
5
5
5
5
5
5
5
5
5
5
5
5
5
5
5
5
5
5
5
5
5
5
5
5
5
5
5
5
5
5
5
5
5
5
5
5
5
5
5
5
5
5
5
5
5
5
5
POINT_DATA 2538
VECTORS disp float
1.320899649056948e-11 2.633508335083614e-11 0.0
1.617212620456743e-11 -3.8961823211971636e-11 0.0
0.002299999998309607 6.531581495380673e-12 0.0
0.002299999973938352 -6.600671175107681e-11 0.0
0.0008865299492563352 0.0003625469989973956 0.0
0.0016929326053613488 6.643451789966702e-5 0.0
0.0011877970244255575 1.6230946149846633e-5 0.0
3.3382130211610706e-13 -2.668275502872715e-12 0.0
3.4573130334992724e-12 2.5100686997588886e-12 0.0
2.5076205019696217e-12 9.60774939078962e-14 0.0
2.177984305289658e-12 2.0438050121017455e-13 0.0
1.5177539313179804e-12 6.044195344247136e-15 0.0
1.383902671129687e-12 -4.047238466431329e-13 0.0
1.1182708187242561e-12 -5.815958402744171e-13 0.0
9.548382112957474e-13 -9.977294641448807e-13 0.0
6.653569689496153e-13 -1.4344978301018088e-12 0.0
8.820530438002171e-13 -2.0197428970389516e-12 0.0
8.674238607485527e-13 -2.6212630065157976e-12 0.0
1.0048138017183631e-12 -3.2496867320778523e-12 0.0
1.1661863289227736e-12 -3.8681228976660274e-12 0.0
1.2217201256600306e-12 -4.282877555423465e-12 0.0
1.4899900463626058e-12 -4.903053420449896e-12 0.0
1.5209091303034246e-12 -5.191382469781668e-12 0.0
1.6531633783743647e-12 -5.720342153773726e-12 0.0
1.842098302695027e-12 -6.168834286476724e-12 0.0
1.8836445306871656e-12 -6.579051413942622e-12 0.0
2.0402787115605538e-12 -7.1175349635908706e-12 0.0
2.25554748619673e-12 -7.708397208878085e-12 0.0
2.5446622732040304e-12 -8.48786352496332e-12 0.0
2.4920739817665004e-12 -9.316009672262154e-12 0.0
3.863238925908827e-12 -1.200047744267743e-11 0.0
1.334463137141163e-12 -8.979735025451686e-12 0.0
3.2547030003815864e-5 -2.8306718895064466e-5 0.0
5.694494319526828e-5 -4.798558412858597e-5 0.0
8.052012506701466e-5 -6.518470852698742e-5 0.0
0.00010263093088132249 -8.076571848632183e-5 0.0
0.00012366818865620373 -9.523626687508264e-5 0.0
0.00014407513165745682 -0.0001091186748488699 0.0
0.00016422329844477837 -0.00012231454108036166 0.0
0.0001838780651226713 -0.00013501619905721224 0.0
0.00020326342119034735 -0.00014737120547496886 0.0
0.00022247946766012263 -0.00015931841174930686 0.0
0.0002414942096230985 -0.00017101615025404547 0.0
0.000260524442795227 -0.0001824129575770955 0.0
0.0002794573065214865 -0.00019350952752584779 0.0
0.00029836952972554375 -0.0002044391580066428 0.0
0.000317351633557321 -0.000215100084259696 0.0
0.0003362505809537676 -0.00022548135616534513 0.0
0.00035521948658717554 -0.00023568739796161938 0.0
0.0003743005227838202 -0.0002456088602566787 0.0
0.0003934463226136592 -0.00025533167032993774 0.0
0.0004126892007192813 -0.0002648594107487279 0.0
0.0004320311332939465 -0.00027418941887958736 0.0
0.0004514759986709516 -0.00028331734599664615 0.0
0.00047114044590821963 -0.0002922662703567101 0.0
0.0004908141439248198 -0.000301016698120619 0.0
0.0005107704431904019 -0.00030957474531184226 0.0
0.000530723508606318 -0.0003179264747058733 0.0
0.0005508889064464402 -0.0003261072093550823 0.0
0.0005711859847376737 -0.0003340624423066033 0.0
0.0005917291202930843 -0.0003418337633186 0.0
0.0006122946544566248 -0.0003494418935311794 0.0
0.0006331328274145839 -0.0003568663889525773 0.0
0.0006541230432242096 -0.00036408949524627276 0.0
0.0006753406538196222 -0.00037120140432749405 0.0
0.0006967519342192956 -0.0003781846795817201 0.0
0.0007184001379877204 -0.00038513303332673207 0.0
0.0007400573803703381 -0.0003919064796760754 0.0
0.0007620495469414605 -0.00039852833459222897 0.0
0.0007840295736573737 -0.0004048141527157678 0.0
0.0008060782237013993 -0.0004107886730382713 0.0
0.0008283247591632405 -0.00041660812899392416 0.0
0.0008505510259347184 -0.00042206146757648545 0.0
0.0008730810833117853 -0.00042728787122101394 0.0
0.0008958717230217824 -0.0004321798841760981 0.0
0.0009188568353079155 -0.0004369157860262334 0.0
0.0009421633971276474 -0.0004412944466640799 0.0
0.0009655649561285799 -0.0004454689810133209 0.0
0.0009892499997805422 -0.0004494655409915157 0.0
0.0010131223706784987 -0.0004531347841528658 0.0
0.00103707664425251 -0.0004567315845471981 0.0
0.0010612960240080364 -0.00045994547138162515 0.0
0.0010854640785627075 -0.0004628373746583053 0.0
0.0011098829080409568 -0.0004655828835597194 0.0
0.0011340606202035893 -0.0004680135103339554 0.0
0.001158665480826065 -0.00047018291043802963 0.0
0.0011828667168116071 -0.00047203863577423435 0.0
0.0012076471391104342 -0.00047373301682258 0.0
0.0012321002582394278 -0.00047527378028364874 0.0
0.0012566163875591617 -0.00047643901896346643 0.0
0.0012812060263921925 -0.00047738378012423806 0.0
0.0013059098163868137 -0.0004777335560427963 0.0
0.0013305934971461725 -0.00047773477897741697 0.0
0.0013553068057601575 -0.0004771534944144298 0.0
0.0013797439098885578 -0.00047619653887195646 0.0
0.0014023183027276342 -0.0004740558827353796 0.0
0.001424755933966693 -0.0004718821254259429 0.0
0.0014477562367565663 -0.00046956512229482766 0.0
0.0014697162301684865 -0.00046667633951896385 0.0
0.0014915408382642449 -0.0004631469753235909 0.0
0.001514175504312668 -0.00045893197641615327 0.0
0.0015373017862189632 -0.000454962339070413 0.0
0.0015597071622500793 -0.0004508401505412678 0.0
0.0015834858401537013 -0.00044686633257263477 0.0
0.0016058011447481113 -0.0004425107761357233 0.0
0.001627907584522173 -0.0004375068113134092 0.0
0.001650945147843764 -0.000431548136198602 0.0
0.0016727341742341928 -0.0004247119786069703 0.0
0.0016954586754978857 -0.0004171508365343257 0.0
0.0017176604503645967 -0.000408966612790459 0.0
0.0017402393450614447 -0.0004000876006019449 0.0
0.001762747372862787 -0.00039016908205271065 0.0
0.001786058143613051 -0.00037982988224541175 0.0
0.0018087576282921755 -0.0003687304403601048 0.0
0.001831482028005731 -0.00035686825542263865 0.0
0.0018545978043979768 -0.0003439740441026543 0.0
0.0018778024524705348 -0.00033040608389421633 0.0
0.001901309340848235 -0.0003163994536804245 0.0
0.0019255052974464166 -0.00030161373652726415 0.0
0.0019498319170706574 -0.00028622520057780467 0.0
0.0019742565030233146 -0.00027028985588903136 0.0
0.00199920235474531 -0.00025360796422733197 0.0
0.002024788115961626 -0.0002360189074518778 0.0
0.00205079203313683 -0.00021760399345602076 0.0
0.0020772118481185322 -0.00019841568436175955 0.0
0.0021043418046284347 -0.0001781599374503173 0.0
0.00213260476106648 -0.00015652159078012666 0.0
0.0021616317034014215 -0.00013333065139673652 0.0
0.0021917356289856017 -0.00010805565964199746 0.0
0.002224184421650823 -7.948669025465121e-5 0.0
0.0022580555789046605 -4.6320206882307154e-5 0.0
0.002299999997473588 -1.1285610880750777e-11 0.0
0.0022999999940496564 -1.3637251145787028e-11 0.0
0.0022999999971453737 -6.140455251365377e-12 0.0
0.0022999999967482847 -5.252973028377792e-12 0.0
0.0022999999971921614 -3.677758666992049e-12 0.0
0.0022999999972241557 -2.714458611359244e-12 0.0
0.0022999999972377876 -2.0683004143503992e-12 0.0
0.002299999997358058 -1.5729869836025637e-12 0.0
0.0022999999973593505 -1.1231440667442786e-12 0.0
0.002299999997459441 -7.824989376068595e-13 0.0
0.0022999999975377356 -5.334767274776731e-13 0.0
0.0022999999976542514 -2.2729579018616372e-13 0.0
0.002299999997709397 8.547906230400355e-15 0.0
0.0022999999977948377 3.241353551864702e-13 0.0
0.002299999997842525 6.480759531744459e-13 0.0
0.002299999997873041 1.042684593693279e-12 0.0
0.0022999999979067404 1.4503475192843372e-12 0.0
0.002299999997774771 1.962514970767136e-12 0.0
0.0022999999979823314 2.3525513791129416e-12 0.0
0.0022999999977588166 2.8646227911159683e-12 0.0
0.002299999997865096 3.1906819892722924e-12 0.0
0.0022999999978273837 3.3900306397534825e-12 0.0
0.0022999999980005625 3.3121132105292773e-12 0.0
0.0022999999984783578 3.664271810302595e-12 0.0
0.0022999999991575966 2.1210358471512187e-12 0.0
0.0021449272575559835 5.767090681125358e-5 0.0
0.0020078949774595452 8.35793338669555e-5 0.0
0.0018821881839349817 8.199645140863875e-5 0.0
0.0017694528759418411 7.029065945910297e-5 0.0
0.0016926184011847563 -3.773798410816712e-6 0.0
0.0016894306270833085 -4.587388304873534e-5 0.0
0.0016789316133835872 -8.38092531382224e-5 0.0
0.0016544848173372826 -0.00010134561097013088 0.0
0.001617370015041513 -0.00010190749768502732 0.0
0.0015750569328790605 -9.308433692886972e-5 0.0
0.0015300436485400414 -7.946023375961768e-5 0.0
0.00148423694671681 -6.191866383343634e-5 0.0
0.0014369819309702477 -4.427061658008111e-5 0.0
0.0013882929311672739 -2.75574638343613e-5 0.0
0.0013352335247846744 -1.1782837660798391e-5 0.0
0.0012726195779286201 2.5618566359237812e-6 0.0
0.0011277731155006452 5.816547453734405e-5 0.0
0.0010845149407464833 7.912354789530669e-5 0.0
0.0010481953950463726 9.438040370198918e-5 0.0
0.0010160326220062807 0.0001079423185743993 0.0
0.0009864124862707833 0.000120882336760291 0.0
0.0009594942121592667 0.00013386607342554612 0.0
0.0009349447069218136 0.00014774298396581952 0.0
0.0009136953468031568 0.0001624217945554339 0.0
0.000897285926967328 0.0001824866865219354 0.0
0.0008848408501888551 0.00020263890245554556 0.0
0.0008864755033821456 0.0002420389825954568 0.0
0.0008833349861258623 0.0002873657015947122 0.0
0.0008023992498882683 0.00037843722781012674 0.0
0.0006867521064893225 0.0003773504911799928 0.0
0.0005097448366310839 0.0003198724717492555 0.0
0.0002824826501510141 0.0002089876250698722 0.0
0.000594419116723031 -0.000329995790126096 0.0
0.0015537274367154593 -0.00042597480814117537 0.0
0.0007453720145824481 -0.0003810149258830031 0.0
0.0013936651860777583 -0.00045794486371459995 0.0
0.0009059052694416235 -0.00042070247429653804 0.0
0.001216154809167493 -0.00045580272266384906 0.0
0.0010477824028098791 -0.00044239367304791424 0.0
0.0016920528086712726 -0.000390379283759348 0.0
0.0004767572990168749 -0.00028435616727430485 0.0
0.001801252445684061 -0.00034281767609816376 0.0
0.0003790926159748063 -0.00023869408653147566 0.0
3.608622644975535e-5 -8.23502625570832e-6 0.0
0.002253891896126367 -1.6328261291271296e-6 0.0
0.0012710612200514146 2.6215828441613655e-5 0.0
0.0014492133648811498 -3.5272585657794204e-5 0.0
0.0010982012205894 5.2041535421454974e-5 0.0
0.0009773214013710397 0.00012461310982950756 0.0
0.0019208185076223456 -0.0002809357234494323 0.0
0.0002876531614761948 -0.00019036164287408353 0.0
2.950698691711269e-5 -1.0310223582496582e-5 0.0
0.0022664633972272713 -3.968125892913658e-6 0.0
0.002236090225412081 3.800945670324327e-6 0.0
4.452089769919907e-5 -1.0683277373857364e-6 0.0
0.00202060489530378 -0.0002164760489704671 0.0
0.00020833721320244223 -0.00014156026371520817 0.0
0.0015771377608144804 -7.364412606653441e-5 0.0
0.0008913385628991549 0.00016363143468083597 0.0
2.367773739264928e-5 -9.464561056908985e-6 0.0
0.0022736642513140385 -4.963046620534669e-6 0.0
0.0008379019271978674 -0.00040544488655414176 0.0
0.0009754179156665122 -0.0004327672882915378 0.0
0.0013185258698816366 -0.000459350553255785 0.0
0.0011225408794591344 -0.00044893798592526293 0.0
0.0014624850097958585 -0.0004482945267311986 0.0
0.0016181919931060676 -0.00041332171363316983 0.0
0.0006851185839420853 -0.0003624124950289732 0.0
0.0005361267651479757 -0.0003097712822664781 0.0
0.00209646388296341 -0.00016341957657143848 0.0
0.00014850296004086572 -0.00010363042785383938 0.0
0.0022202715964444613 1.1357966147944083e-5 0.0
6.240856418519265e-5 5.797198960933368e-6 0.0
0.0022788711911708322 -7.456494892788749e-6 0.0
2.2608760743825652e-5 -1.041364349554893e-5 0.0
0.0016637722488639756 -7.625861646412652e-5 0.0
0.0008520477722249935 0.00019592039542740087 0.0
0.0021904764637896827 1.6306168405681936e-5 0.0
9.849028109276164e-5 1.2859028136814308e-5 0.0
3.324860419800644e-5 -1.0105516309951828e-5 0.0
0.0022598752650095665 -3.306482062343286e-6 0.0
0.0013599684544122305 -2.805421689399434e-6 0.0
0.0010388575466266732 9.619330377220108e-5 0.0
8.380347955114056e-5 -5.8247586541353044e-5 0.0
0.0021897083608597104 -9.13192310729175e-5 0.0
0.0015060911947315614 -0.0004406333025858124 0.0
0.0011694772138675124 -0.0004536358595088103 0.0
0.0007944936128983737 -0.00039426503941468894 0.0
0.0006388742436509529 -0.00034781155529423676 0.0
0.0012686826467670624 -0.0004581456398407717 0.0
0.0017337001861336462 -0.0003748393170076273 0.0
0.0004377380831625786 -0.0002663986144567361 0.0
0.0018499263892316953 -0.00032058698959900223 0.0
0.0003387274244920699 -0.00021737380980436176 0.0
0.000246207800745669 -0.0001653445502849665 0.0
0.0019701174470200767 -0.0002497368943516895 0.0
0.0005818623213630326 0.000199505063609272 0.0
0.0019230322663401787 2.9852085205006853e-5 0.0
0.0022784515855746807 -1.2308027087054457e-5 0.0
1.958943570793541e-5 -1.0352066359439564e-5 0.0
0.0008420034981508695 0.00025777913750095124 0.0
0.001716467848449443 -2.511018392496901e-5 0.0
0.00012557125703761327 2.2430845924293013e-5 0.0
0.0021966977922848346 1.4828636057042134e-5 0.0
3.702346795439227e-5 -2.489078088161718e-5 0.0
0.0022515996416145045 -3.9632299031200297e-5 0.0
0.00181640421869721 1.884352681476377e-5 0.0
0.0018320579651278012 5.317249262412204e-6 0.0
0.0019659668091597878 1.8322243434403137e-5 0.0
0.001875752965722453 1.2882531264610484e-5 0.0
0.001770812402709118 -7.898823133161386e-6 0.0
0.0017964990889129653 1.2163765423985374e-5 0.0
0.0018998087705007587 2.5651805638300567e-5 0.0
0.001826067134513893 3.043647590837112e-5 0.0
0.001926904130568084 3.5644579832586384e-5 0.0
0.0018597691116056397 4.159359431282705e-5 0.0
0.0017657128709495803 3.7210054484166844e-5 0.0
0.0017980222015371464 4.63725545028385e-5 0.0
0.0017173111426067426 4.439123884763671e-5 0.0
0.0017450937604368453 4.918409978779544e-5 0.0
0.0016729544452134713 4.9396515752897766e-5 0.0
0.0016993297495532097 4.989786952187148e-5 0.0
0.0012434196679637747 8.567717057168292e-6 0.0
0.0011761794053986119 -4.1509546505898595e-6 0.0
0.0012221781550564512 -5.424496935015817e-6 0.0
0.0011662371590639524 -1.635383714513841e-5 0.0
0.0012073057481550612 -1.7570827299479295e-5 0.0
0.0011586211494311425 -2.6264401396499648e-5 0.0
0.0011957197961397041 -2.69209871234333e-5 0.0
0.0011515045373875503 -3.447799671468114e-5 0.0
0.0011859586140144217 -3.4673661797767356e-5 0.0
0.0011449216356363991 -4.154713940986819e-5 0.0
0.0011775340430157388 -4.1266796976766924e-5 0.0
0.0011388476269673458 -4.774850223875199e-5 0.0
0.001170132542948995 -4.751475612307621e-5 0.0
0.001134167183198957 -5.348924573413532e-5 0.0
0.0011635150177463675 -5.3205381895520764e-5 0.0
0.0011288683813147947 -5.903766066611161e-5 0.0
0.0011572679362452949 -5.868182553301736e-5 0.0
0.001122771031452985 -6.450512902155201e-5 0.0
0.001151309293473937 -6.418284536878308e-5 0.0
0.0011177519301513916 -6.98321358191668e-5 0.0
0.0011458882822618095 -6.97074993652999e-5 0.0
0.0011130730431771895 -7.523175274767266e-5 0.0
0.0011398001257858358 -7.528583589699704e-5 0.0
0.0011083291767375947 -8.076808223467664e-5 0.0
0.0011346995723768118 -8.096554701455063e-5 0.0
0.0011043612807674777 -8.62797686690754e-5 0.0
0.0011299166870983553 -8.682219155600519e-5 0.0
0.0010987435257935334 -9.192495816294589e-5 0.0
0.0011249407363457533 -9.289363679913247e-5 0.0
0.0010874557086029493 -9.86340664388291e-5 0.0
0.001121974661106641 -9.913577948135123e-5 0.0
0.0010899236656889725 -0.00010471192908142683 0.0
0.001117421000234973 -0.0001056844048036583 0.0
0.0010869315215722773 -0.00011128261824774705 0.0
0.0011134206585710872 -0.00011251742641392127 0.0
0.0010849043823216718 -0.00011794822553251065 0.0
0.0011094240645914471 -0.00011955452290084868 0.0
0.0010815949055793133 -0.00012507712739008692 0.0
0.0011123572456718605 -3.950295653300824e-5 0.0
0.0011054924658288078 -0.000126881153218702 0.0
0.001089072130019391 -6.943823335221869e-5 0.0
0.0010576320364210844 -0.00010574116076770566 0.0
0.0010762855980753572 -0.00013252289481262392 0.0
0.0011014590417797335 -0.00013449763345258387 0.0
0.0010710640607321435 -0.00014047724109416505 0.0
0.0010465806585833565 -0.0001376802077274902 0.0
0.001040651851977727 -0.00014594094428500363 0.0
0.0010963090082574565 -0.00014289383465518245 0.0
0.0011271970847318113 -0.0001365252749963804 0.0
0.0011468832297125689 -9.983405596702003e-5 0.0
0.001122209608344617 -0.00014528021633202862 0.0
0.001155204539030253 -0.00013787723247642505 0.0
0.0011490136043445412 -0.00014766145454803148 0.0
0.0010164959041412806 -0.00014284161431237007 0.0
0.0010118093441325692 -0.00015075588878986303 0.0
0.001183177675616326 -0.0001396411954668739 0.0
0.0009860746253099388 -0.00014740978513037278 0.0
0.000983087373312738 -0.0001555045410809454 0.0
0.001177546712353408 -0.00014966275645899197 0.0
0.0012106308414977303 -0.00014209201146400614 0.0
0.0009555608930603454 -0.00015182084318026158 0.0
0.000951971329235956 -0.0001600454417224754 0.0
0.0012057492982410344 -0.0001521644656349502 0.0
0.0012398988591172699 -0.00014412910188182584 0.0
0.000925294895886364 -0.00015596814869473747 0.0
0.000921459626624758 -0.00016456368557309992 0.0
0.0012348029680686688 -0.0001548689377921301 0.0
0.0012700945586197863 -0.0001461101977275807 0.0
0.0008954600113710477 -0.0001594534238104391 0.0
0.0008897968487997052 -0.0001682208641899821 0.0
0.0012653254386054587 -0.00015723175606611713 0.0
0.0013010146131692216 -0.0001480023832199169 0.0
0.0008628559484300082 -0.00016274202010765605 0.0
0.0008580450416683853 -0.00017180957357422624 0.0
0.0008293179847467879 -0.00016625949337435622 0.0
0.0008342310675568969 -0.00015683118519315887 0.0
0.0012271771310408595 -0.00016564851245942126 0.0
0.001295974778424229 -0.00015973219351414302 0.0
0.0013326078300053396 -0.00014987951051193785 0.0
0.0013383894456929328 -0.00013771737957699067 0.0
0.001170428501594376 -6.990523387863723e-5 0.0
0.0013715035634104529 -0.00013923857164739324 0.0
0.001377731641765934 -0.00012657123606211467 0.0
0.0014121511975827123 -0.0001275887674955142 0.0
0.0008271206176359328 -0.00017586914891830924 0.0
0.0007971695625744309 -0.00016912966691807178 0.0
0.000855415851144878 -0.00018157728072302855 0.0
0.0013264245951898589 -0.00016244730039599437 0.0
0.000795534044067442 -0.0001788879085355557 0.0
0.0007651807459110653 -0.00017142968285120217 0.0
0.0011999729014485784 -4.6179675750547925e-5 0.0
0.0007637362221566815 -0.00018083971239882325 0.0
0.0007333098825294497 -0.00017305191254700855 0.0
0.0007321780453685196 -0.00018257447720719617 0.0
0.000702161865400907 -0.00017388922096603154 0.0
0.0007026132621746378 -0.0001647255180884245 0.0
0.0006693887039959513 -0.0001655601610387853 0.0
0.0006703648830784663 -0.0001559386045193283 0.0
0.0006975712012281361 -0.0001831067106438365 0.0
0.0006345153085935778 -0.00015651137474311826 0.0
0.0006351946807636284 -0.00014671806366725387 0.0
0.0007315304676134927 -0.00019269101713928686 0.0
0.0007021668027438476 -0.00019404333458853247 0.0
0.0006001016181106377 -0.00014625278837075898 0.0
0.0005993746194270192 -0.00013656767775323457 0.0
0.0014193764141227569 -0.00011473747824839216 0.0
0.0014553369970102493 -0.00011550506817248815 0.0
0.0007310610478606156 -0.00020303084398090994 0.0
0.0007022833800066496 -0.00020421138693638694 0.0
0.0014629763036351012 -0.00010228622722313481 0.0
0.0015007359723605777 -0.00010309057224476101 0.0
0.0014912328589120785 -0.00011779655997635456 0.0
0.0015371133247842684 -0.00010467309094171669 0.0
0.001528273567998614 -0.00011979992346178032 0.0
0.0015744248729277132 -0.00010562510884122609 0.0
0.0015678169165547055 -0.0001206785334096557 0.0
0.0016157324702019502 -0.00010502142041353708 0.0
0.0016053392073351652 -0.00012072901847308979 0.0
0.001621930150840783 -9.082768514668542e-5 0.0
0.0016537578275161626 -0.00010539674608885203 0.0
0.0016411050429261773 -0.00012137770303306682 0.0
0.0007311744226509308 -0.00021365692134763084 0.0
0.0005622211207719952 -0.0001354758099483418 0.0
0.0005605304382886499 -0.00012537989825982916 0.0
0.0015961808186074618 -0.00013731818783647247 0.0
0.0016305945540447935 -0.00013801906674471367 0.0
0.0016748462688680077 -0.00012191294390058562 0.0
0.0015884859937539142 -0.00015464535574625274 0.0
0.0007032636741488507 -0.00021480966541292948 0.0
0.001664472577823509 -0.00013866396533727124 0.0
0.0017077880947454504 -0.00012216172067013847 0.0
0.0007314488072798291 -0.00022466384758714012 0.0
0.0007042302362416778 -0.00022582548387847516 0.0
0.0006764688010416493 -0.0002154787815900608 0.0
0.0016971291088124511 -0.00013915848844372133 0.0
0.0017398642016204508 -0.00012197138760441657 0.0
0.0007318466795497864 -0.00023612282444739443 0.0
0.0007587398455307358 -0.0002346394402129784 0.0
0.0006779080533451458 -0.00022652170638884578 0.0
0.0006503428770809843 -0.00021573626018122643 0.0
0.0017277203596915596 -0.0001394210905407035 0.0
0.001771227611797511 -0.00012130859809652783 0.0
0.0017828501679268299 -0.00010514048782315443 0.0
0.0016849861753872285 -0.00015766953944048735 0.0
0.0018142300531592498 -0.00010371821929970349 0.0
0.0018266549296774288 -8.888604760805778e-5 0.0
0.0005209216842288615 -0.00012381548009398921 0.0
0.0005209453373867949 -0.00011320749739564033 0.0
0.000569018125495767 -0.00011562314275106451 0.0
0.000519603425428148 -0.0001020194991046456 0.0
0.0005664846895521563 -0.00010250773868679291 0.0
0.0005176301007975112 -8.931855663743886e-5 0.0
0.0005639458722102661 -8.877848348444437e-5 0.0
0.0007590886103730426 -0.000246377529260701 0.0
0.0007853416445619522 -0.00024452591072290827 0.0
0.0006521178363820829 -0.00022682583643010833 0.0
0.0006247397213308794 -0.0002155665072465321 0.0
0.0018015594050187875 -0.00012011948734720958 0.0
0.000520470245823049 -7.559882535198676e-5 0.0
0.0005649726659425073 -7.40346334094994e-5 0.0
0.0007857600938211355 -0.00025647456353302664 0.0
0.0008113976767499865 -0.0002544396771057421 0.0
0.0009538389591620338 -0.00016785153088936188 0.0
0.001844211025334491 -0.0001017149300234789 0.0
0.0012400069432598865 -1.5935788830295906e-5 0.0
0.0012992233074808697 2.740858704074208e-5 0.0
0.0010767613040120463 -8.585032316421446e-5 0.0
0.0015065778053951866 -8.978079352028202e-5 0.0
0.0005166895032559627 -5.916380580747459e-5 0.0
0.0005695417956995004 -5.723939402713237e-5 0.0
0.00062690341992755 -0.00022671337542735538 0.0
0.0005998394232029631 -0.00021508303659940902 0.0
0.0008122377138490382 -0.00026664758953875924 0.0
0.0008376927666883979 -0.0002643858464454454 0.0
0.001830138144483118 -0.00011800799962208701 0.0
0.00047968019043016194 -0.00011131839213478506 0.0
0.00048139348544685084 -0.00012184616860302779 0.0
0.00046532761011968684 -7.459354026268834e-5 0.0
0.0018728712276695858 -9.897338734578509e-5 0.0
0.0005164887096506795 -4.176778907703357e-5 0.0
0.0005705029164619387 -3.789102122176731e-5 0.0
0.0007870822073147018 -0.00026893760479449244 0.0
0.000602489253325508 -0.0002264064482872973 0.0
0.0005754965060585039 -0.00021421046806330087 0.0
0.0014690186096999044 -8.934813674878206e-5 0.0
0.001514297026339218 -7.641860505260519e-5 0.0
0.0014745772203497716 -7.632510139377841e-5 0.0
0.0015220289482034016 -6.31929717766777e-5 0.0
0.0008382033690481539 -0.00027670053190308045 0.0
0.0008639127516484712 -0.0002738987636523798 0.0
0.0009303735897684339 -0.00014825560237096403 0.0
0.0005159789609274101 -2.300726666634526e-5 0.0
0.000569336595060277 -1.6990026228560124e-5 0.0
0.0018587141349676465 -0.00011510828238964176 0.0
0.0018201589220640181 -0.0001335249537019606 0.0
0.0005037314191941142 -5.980287555608157e-7 0.0
0.0005662945890211467 6.59784244279363e-6 0.0
0.0019006251076583967 -9.605876323111201e-5 0.0
0.0019094637691240823 -8.487650119248368e-5 0.0
0.000510705083233437 2.1081948645038138e-5 0.0
0.0006286835207304198 -0.00023928621358663342 0.0
0.0008640176576247051 -0.00028670609301428433 0.0
0.0008895602269731359 -0.0002832974311097991 0.0
0.0008899396025629978 -0.00027052114123854524 0.0
0.0009155379365111093 -0.00027955854536958484 0.0
0.000916290039979269 -0.00026684065910625396 0.0
0.0009419975192920275 -0.0002754791337068564 0.0
0.0009430468634799187 -0.0002626286457256826 0.0
0.0009691232352819259 -0.00027099215795188926 0.0
0.0009705480573660982 -0.00025807937269886096 0.0
0.0009968276617675984 -0.00026603845588521057 0.0
0.0009954073902783127 -0.0002794535770609405 0.0
0.0010229746051275666 -0.00027413132723230575 0.0
0.0010214509948711327 -0.00028793996587996403 0.0
0.0010489038684157292 -0.0002822462048577275 0.0
0.001047129792566655 -0.0002964940579587838 0.0
0.0010748207558191137 -0.0002904037807270984 0.0
0.0009987251365375896 -0.00025308356538632736 0.0
0.0010767822747063532 -0.00027602267961715173 0.0
0.0011030685857330565 -0.0002837349241610826 0.0
0.0011007891843959616 -0.00029883853354770607 0.0
0.0011293693666481698 -0.0002918080246700322 0.0
0.00043923396476715703 -0.0001086233449257773 0.0
0.00044123642331719923 -0.00011877448483837486 0.0
0.0005784743621168286 -0.0002255460507083351 0.0
0.0005519553578290072 -0.0002130488677934239 0.0
0.0011321984091558343 -0.0002765974650505468 0.0
0.0011584901913169485 -0.0002840968741069125 0.0
0.0011553314035386954 -0.00029989265214321227 0.0
0.0011849591419678138 -0.00029167644479947095 0.0
0.00040007000798397355 -0.00010515975234924149 0.0
0.00040251837137943186 -0.00011479244071345791 0.0
0.0014803991968766307 -6.295518405356843e-5 0.0
0.0015304599279184017 -4.968282390932345e-5 0.0
0.0014875356412432164 -4.954974677060554e-5 0.0
0.0018872758549972064 -0.00011138836196716827 0.0
0.0019279769493272762 -9.245602465333047e-5 0.0
0.0008895623628583469 -0.0002966453151702818 0.0
0.0006218622208669398 -7.518374545694699e-5 0.0
0.0011453224058831583 -0.00015659416858795653 0.0
0.001181436367716959 -0.00030805089574645106 0.0
0.001211194401371405 -0.0002993658576068953 0.0
0.001214519053992897 -0.0002826476208636195 0.0
0.0012414237517255605 -0.00028968756152276276 0.0
0.0012174551757580486 -0.0001313770620356778 0.0
0.0015412907808314055 -3.5652240073814456e-5 0.0
0.0015806390976380316 -3.8630207642148865e-5 0.0
0.0005686837655384058 3.1441972224112604e-5 0.0
0.0005549690808766506 -0.00022429630970363459 0.0
0.0005288826758976762 -0.00021145218094618498 0.0
0.0014958322388241912 -3.5661117192155675e-5 0.0
0.0012374596902387414 -0.00030723198484402305 0.0
0.0012683817055701466 -0.0002973881769322866 0.0
0.0012727420368041655 -0.0002793672561769055 0.0
0.001300649035003387 -0.00028669924901779154 0.0
0.001306060657154226 -0.00026870591527347176 0.0
0.0013339281113899952 -0.0002750787240138964 0.0
0.0013280487265223326 -0.0002938442602130439 0.0
0.0013614773217576694 -0.000281529857463551 0.0
0.0005105777121807779 4.257372928443906e-5 0.0
0.0003624494749071467 -0.00010096110927020775 0.0
0.00036505262128955023 -0.0001098808135196316 0.0
0.0008648947869065026 -0.0003001319402302183 0.0
0.0019130214277176278 -0.00010913182712931898 0.0
0.0019544918788041766 -8.887793286308137e-5 0.0
0.001355178380621945 -0.0003010502943318331 0.0
0.001388418347385348 -0.00028814517496097904 0.0
0.0005730293400391985 5.591639423952821e-5 0.0
0.0005323471588202194 -0.00022274996076961914 0.0
0.0005061465387906843 -0.00020935018566310733 0.0
0.0006249707182852428 -1.0840748829875201e-5 0.0
0.0017714143272727914 4.719494865024965e-5 0.0
0.0008897080438417117 -0.00031043176073136723 0.0
0.0005130334207390551 6.260890658151024e-5 0.0
0.0004676008528226257 -2.8718215297206284e-5 0.0
0.0019348100413038361 -0.00011057038491837295 0.0
0.001980603840866857 -8.582533001581409e-5 0.0
0.001996211503583774 -7.041165227073089e-5 0.0
0.0004516794186774516 3.0300284502653347e-5 0.0
0.0018925718734529018 -0.00013010643761425815 0.0
0.0003572799804076517 -9.12537196136627e-5 0.0
0.0005561929606177275 -0.00023503570894795349 0.0
0.0015515376238128579 -2.1377549600348148e-5 0.0
0.001504855137018652 -2.13610969293204e-5 0.0
0.001340553875922868 -0.0002569436601672012 0.0
0.0005100583790186498 -0.00022096112952035762 0.0
0.0004838383714898018 -0.00020705632157072275 0.0
0.0003262577535990681 -9.597707228739889e-5 0.0
0.00032889785736190205 -0.00010405604773491226 0.0
0.0005975599311827192 -0.00020456464643401755 0.0
0.0013817443066508172 -0.0003083767521987069 0.0
0.0014147465794261504 -0.0002946921691061841 0.0
0.0004798238899232038 -0.00019584608363328675 0.0
0.00045731789142385205 -0.00019304765207890453 0.0
0.0013510538825408755 -0.0003197845454090253 0.0
0.000866053382591577 -0.0003140129070888478 0.0
0.00046196720900610423 -0.00020450436274513346 0.0
0.000435429456185976 -0.00019002529614267426 0.0
0.0009166919722428116 -0.00025471827758951775 0.0
0.0020234007578123873 -6.622534163723326e-5 0.0
0.002037920382556288 -5.436929428506467e-5 0.0
0.002008182727002941 -8.180614028730481e-5 0.0
0.001407670296187273 -0.0003154196003633245 0.0
0.0014404703309340377 -0.00030108763523380773 0.0
0.0013117986130821574 -0.00025125627195286837 0.0
0.0013473690142499209 -0.0002394574026650699 0.0
0.0008902191190026158 -0.00032461257276460387 0.0
0.0014483221952927142 -0.00027999981627427437 0.0
0.0014741016144717743 -0.0002860529899117216 0.0
0.0002908789712708737 -8.986979935479342e-5 0.0
0.000295185910664528 -9.765021947942151e-5 0.0
0.001466087520550984 -0.00030821971598423716 0.0
0.0014989967736137098 -0.0002923966017069694 0.0
0.00044096944882745094 -0.0002018230018004192 0.0
0.00041427402371255797 -0.00018683682770890517 0.0
0.0015613829831223804 -6.993102900578821e-6 0.0
0.0015146394497845726 -6.700500320535204e-6 0.0
0.0004084565715425784 -0.0001756774767214211 0.0
0.00038708301109027554 -0.00017186895447707806 0.0
0.0003929171283063931 -0.00018324192865151498 0.0
0.0003657228148165097 -0.00016779034099395477 0.0
0.0020503660610832887 -6.20554292516406e-5 0.0
0.002034853667872402 -7.855326156362714e-5 0.0
0.0005766554623747824 7.79708072301747e-5 0.0
0.0005125479633051926 8.072483918227214e-5 0.0
0.0014448642522549738 -4.919209374550948e-5 0.0
0.0008672903235786778 -0.000328274713255074 0.0
0.0014907760692299279 -0.0003155534311842769 0.0
0.0015227190578827445 -0.00029868809461837485 0.0
0.0016295389830722894 5.106296583571175e-5 0.0
0.0014828403987403346 -0.00026457830356837396 0.0
0.0010202529990096499 -0.0003021854208020075 0.0
0.00035916338946088343 -0.000157025093251134 0.0
0.00033827797148503044 -0.00015234434620801034 0.0
0.00034509653716119934 -0.00016363802195669684 0.0
0.00031739255599221483 -0.0001475790124963993 0.0
0.0003105874092649615 -0.00013710073604036215 0.0
0.0002889091767430738 -0.000131680063105877 0.0
0.0002818636231333007 -0.00012162148420459437 0.0
0.00025967122681451606 -0.00011549496032498868 0.0
0.0002526610921278371 -0.00010637222607446002 0.0
0.00023153447043198754 -0.00010012362466345692 0.0
0.0002242025195083159 -9.192778405015756e-5 0.0
0.00023811704562547273 -0.00010905277031615639 0.0
0.00020719779734934698 -9.145607470263973e-5 0.0
0.00025811920287938133 -8.336043363953054e-5 0.0
0.0002555035922310381 -7.652211323340057e-5 0.0
0.0002166083397906905 -0.00010227126711915988 0.0
0.00018815239962124123 -8.595899614700731e-5 0.0
0.0006367636012848853 6.84869580233698e-5 0.0
0.0006656595165119252 -0.00014520533402652048 0.0
0.0013181262474345047 -0.00023450365857392367 0.0
0.0013540659056948854 -0.00022268127962421093 0.0
0.00040257807489211254 -0.0001231860078729956 0.0
0.0008908027135893582 -0.00033927591797021275 0.0
0.0009139423317900848 -0.0003353045559124429 0.0
0.0013838987781249954 -0.00022697370616525913 0.0
0.0013911517934984204 -0.00021000798829336485 0.0
0.002077114083726711 -5.7949013383699175e-5 0.0
0.00205970881646313 -7.587012006623487e-5 0.0
0.0020181749145308874 -0.00010009533152484779 0.0
0.0014580934446341523 -2.1923370417477277e-5 0.0
0.001467991264922423 -7.4841204711694e-6 0.0
0.0008433478541017948 -0.0003172938722431386 0.0
0.000844831844683862 -0.00033155464299501386 0.0
0.0008212733116603476 -0.0003203381846483192 0.0
0.0003254020332849667 -0.00015948999335732423 0.0
0.001524317303860012 7.813780935937148e-6 0.0
0.001478093758562461 7.4482447333194115e-6 0.0
0.0005992030644404861 -0.00015632480201820852 0.0
0.0015137057720219394 -0.00032242211178365953 0.0
0.0015452506591016315 -0.00030465781187540334 0.0
0.0015552207064941455 -0.00028148877736599995 0.0
0.001576989960478586 -0.0002864922803230333 0.0
0.0005995316240494316 0.00010061983251104054 0.0
0.0005237595216427575 9.857818850087733e-5 0.0
0.000810325339207086 -0.0002428249071594444 0.0
0.001483244553447054 -0.00033907808978881395 0.0
0.0018882833374093834 4.436007451530608e-5 0.0
0.0015662609649991527 -0.00031083796011306143 0.0
0.001597658194471604 -0.0002917580420820111 0.0
0.0016090890832156865 -0.0002676498649266892 0.0
0.0016298702021538048 -0.0002721193373971589 0.0
0.0016424285790583406 -0.00024804305184475514 0.0
0.001662677877828212 -0.00025185083454889085 0.0
0.0016497376556918206 -0.0002771068614588523 0.0
0.0016821302483233502 -0.00025623670451538653 0.0
0.00019570502088671926 -9.481455766679559e-5 0.0
0.000167671578149589 -7.841106216833891e-5 0.0
0.00015678634364362694 -6.890215395704403e-5 0.0
0.0009144752250846638 -0.00035040492150508655 0.0
0.0009367395537761784 -0.00034676035441277977 0.0
0.0008231941975685324 -0.00033461819928583665 0.0
0.0007997338734846229 -0.0003230310178723275 0.0
0.002041248541977345 -9.916758920188743e-5 0.0
0.002082886030415773 -7.385857851765186e-5 0.0
0.0016063768492953566 4.715125442577747e-5 0.0
0.0015659824232833572 5.029320513507943e-5 0.0
0.00044505967980236087 7.695031657052415e-5 0.0
0.00045682856300171854 9.110173937939471e-5 0.0
0.00022469805926729456 -0.00011299536409384592 0.0
0.000760755478664643 -0.00020135740779126998 0.0
0.0014260276313928062 -7.794526960212686e-5 0.0
0.0020014041810735056 -0.00012528692222358575 0.0
0.0006108957507546992 -9.980806915634159e-5 0.0
0.0014120391268339586 -2.3404237975167595e-5 0.0
0.0016683966497278596 -0.00028276963136340187 0.0
0.001700534185500359 -0.0002613559674766969 0.0
0.0017159384330666589 4.495374312115383e-5 0.0
0.001797145765435923 4.11638601655356e-5 0.0
0.0006042658106364299 0.0001209963144272533 0.0
0.0003311216302272951 -0.00011171308286162563 0.0
0.00021898471656492868 -6.883944643786938e-5 0.0
0.0002166503644857619 -6.250852017776836e-5 0.0
0.00035199660616897047 -0.0001758625693312568 0.0
0.001587972481054062 -0.00031719349210490295 0.0
0.001288983659499316 -0.0001718902482101435 0.0
0.0011529237874996665 -0.0003162067495860087 0.0
0.000733817403114721 -0.00024752035932353484 0.0
0.00017516503460312074 -8.734755495233349e-5 0.0
0.00014771501914721382 -7.083632608853974e-5 0.0
0.00046742471016056526 -0.00021682068863088715 0.0
0.0014217083476942985 -0.00021369420164400675 0.0
0.0014294566827798914 -0.000196699414457852 0.0
0.0008456256608081297 -0.0003464521168021545 0.0
0.0017534234955310349 3.709810917594195e-5 0.0
0.0018231458142277846 3.375117555991153e-5 0.0
0.0017821682252792369 2.8506108983418838e-5 0.0
0.0018498635174889427 2.549551209530079e-5 0.0
0.0018907730703187284 3.0166415382431575e-5 0.0
0.0019169642911820318 2.238512285789013e-5 0.0
0.0018753281515976373 1.6729185435641816e-5 0.0
0.0019402947302805374 1.4314098034095614e-5 0.0
0.0018988017920110577 7.848900534736359e-6 0.0
0.0019625470074402926 6.433222495957426e-6 0.0
0.0019218131366777287 -1.0490239993916828e-6 0.0
0.0019829802996384214 -1.0468339586931267e-6 0.0
0.001942933402701964 -9.52650383821949e-6 0.0
0.0020022250767760172 -8.003111577152412e-6 0.0
0.001880039097338296 -1.0938094421299809e-5 0.0
0.0019627156430918453 -1.733075887353113e-5 0.0
0.002018725324683693 -1.4593673918076779e-5 0.0
0.00196013647422075 2.597830013138656e-5 0.0
0.00045231039564570965 -0.0001820815530337324 0.0
0.0004470919853260832 -0.00021440819328374995 0.0
0.00047257624371191366 -0.00022954497403706906 0.0
0.0019813171479442183 -2.430018583058016e-5 0.0
0.0020347410812125368 -2.019690467940399e-5 0.0
0.001928613243506146 -2.7972468938935225e-5 0.0
0.0011782469923471057 -0.0003248389093659871 0.0
0.0011503173920583902 -0.00033274620872356797 0.0
0.0011752446479266732 -0.00034185221358981583 0.0
0.0011483110316601298 -0.00034963516250361874 0.0
0.001172650043836881 -0.00035917334031209525 0.0
0.0011469310647143236 -0.00036686639849067284 0.0
0.0011226054878512308 -0.00035713049117505727 0.0
0.0011218215421597807 -0.0003741404977753337 0.0
0.001098115993353184 -0.00036416424974093273 0.0
0.0011139998174210107 -8.042550411212436e-6 0.0
0.0011706579185822834 -0.00037692354112143193 0.0
0.0011961256380196386 -0.000368876510403717 0.0
0.0010055365806862636 -0.00015950086539857924 0.0
0.0009721057652380854 -0.0002456053499937449 0.0
0.0010008339079443903 -0.00024055794182642162 0.0
0.000973884566495604 -0.0002335393790275245 0.0
0.0010031453325966826 -0.00022846645214846318 0.0
0.0009759158848015769 -0.00022190012864900153 0.0
0.0010056783827526 -0.00021681726072347635 0.0
0.0010330462791095175 -0.0002229626089580403 0.0
0.0010360539771565604 -0.00021129012417170595 0.0
0.0010635959950148087 -0.00021701754388284578 0.0
0.0010669980859110792 -0.00020530649823743852 0.0
0.0010934663143676417 -0.00021061120007590488 0.0
0.0010394164351041776 -0.00019969688918832355 0.0
0.0009782132199348441 -0.00021067232062485814 0.0
0.0009483764222859931 -0.00021537171094846024 0.0
0.00108975948326781 -0.00022298444293162624 0.0
0.0011213353468260666 -0.00021538316803331652 0.0
0.0004531806923845162 -0.00022749066561259212 0.0
0.0010575487321122705 -0.0001167504597101652 0.0
0.0011025957542723816 -5.3399449089540195e-5 0.0
0.0011620221748831995 -0.000268905384453299 0.0
0.0020914925023036188 -4.5833497054078486e-5 0.0
0.0021175673095247 -4.1491307834891685e-5 0.0
0.0011856396176010634 -5.772429751745502e-5 0.0
0.0011614282563571848 -8.02837445947212e-5 0.0
0.0016206135600581263 -0.0002444619060356726 0.0
0.0014024417949703367 -0.0001410747119133332 0.0
0.00206519879058311 -9.714821798206683e-5 0.0
0.002105278346766045 -7.187504616537733e-5 0.0
0.0011397948429317558 -0.00011393322144924576 0.0
0.0008019859038275225 -0.0003373983725654185 0.0
0.0007786596725771058 -0.00032549361145713774 0.0
0.0012182579394192747 -3.311682489176718e-5 0.0
0.0010974065285463115 -0.00038105097955988705 0.0
0.001073608065043823 -0.000370124642813392 0.0
0.0007764452666238367 -0.00031145005271622506 0.0
0.0007551645800038831 -0.00031358884177539245 0.0
0.0007528608001901698 -0.00029983583930924605 0.0
0.0007314464007997302 -0.0003016180232337178 0.0
0.0007342552864943159 -0.0003155367495388089 0.0
0.0007105926258468465 -0.00030322345394169953 0.0
0.000713682629251898 -0.0003172546261606301 0.0
0.0006900239973814143 -0.0003046236676314679 0.0
0.00033363309582022655 -0.00017237359496898253 0.0
0.002130494895776333 -3.286395774964259e-5 0.0
0.0015324445996303386 2.1492974786018292e-5 0.0
0.0014854496050154735 2.1585079725601464e-5 0.0
0.000677200947228128 -0.00019529227411195973 0.0
0.0005516249523704329 -0.00020257062611637815 0.0
0.0020549944909490736 -7.356220816200967e-6 0.0
0.0020253979582033187 4.5701882278731805e-6 0.0
0.0009368702564831896 -0.0003619749744038401 0.0
0.0009597385248600336 -0.0003578762658601305 0.0
0.001505022500254125 -0.0003462943085041117 0.0
0.00030556460486867037 -0.00012759384616246077 0.0
0.0012754102303231016 -0.0001355015437803878 0.0
0.0014325554646137655 5.984403930367178e-6 0.0
0.0014402365439365877 2.018900507006681e-5 0.0
0.0016555925074978315 -0.0002250374902995684 0.0
0.001717590595038347 -0.00010629490279524391 0.0
0.0017150189763268599 -0.0002353149260694607 0.0
0.0017340479406685201 -0.00023928798092005027 0.0
0.0017182885446047384 -0.0002674242007238237 0.0
0.0017524745115952008 -0.00024447691250958 0.0
0.0009939963342736524 -0.00013956450252980803 0.0
0.0003588001797435573 -0.00018872308690714816 0.0
0.0010955245604356637 -0.00019863368146138725 0.0
0.0018347450907598463 8.464560750602518e-6 0.0
0.0009412734130496148 -0.0003322447142617699 0.0
0.0004774614307256076 -0.00024261406717715985 0.0
0.0004968898058402221 -0.00024451302447551495 0.0
0.001476096347904086 -0.00036256987480190976 0.0
0.0007287560827980963 -0.00028824313479053733 0.0
0.0013243785387030515 -0.00021846297692803806 0.0
0.001288979675506267 -0.00022954149204882908 0.0
0.002087575821301487 -9.57835712626335e-5 0.0
0.002128114369591277 -6.921462968858783e-5 0.0
0.002144338147956861 -5.015822970726413e-5 0.0
0.0006798515986039358 0.00012417763123727274 0.0
0.00015523020603164735 -7.947968666820553e-5 0.0
0.0001279286711798158 -6.257549393247282e-5 0.0
0.00012339841501945266 -5.6759356059364965e-5 0.0
0.001546512059303409 4.203924821414791e-5 0.0
0.0015852426099287559 3.445939963852362e-5 0.0
0.0015086695201589596 4.75467817321168e-5 0.0
0.0016087238088718047 -7.992635932460817e-6 0.0
0.0019991106520427437 -2.9785515824310806e-5 0.0
0.002051721448661373 -2.429435641090008e-5 0.0
0.0007812834007309398 -0.00033996502674658597 0.0
0.001566172078967426 -6.303051049932024e-5 0.0
0.00037737245507055015 6.84381594317578e-5 0.0
0.0003862768090428429 7.79232038025339e-5 0.0
0.00047364394858132427 0.00010337212198479782 0.0
0.00039578321395908187 8.408223847488131e-5 0.0
0.0005205881471748859 0.000120871450978201 0.0
0.0010720224557314974 -0.0003530730246666274 0.0
0.0006864741019970926 -0.0002909303066928708 0.0
0.0006664365871768651 -0.0002920466569121717 0.0
0.0006699961392378312 -0.0003058241155736092 0.0
0.000646646063285529 -0.00029297713890527274 0.0
0.0017678052566368243 -0.00021719019730816153 0.0
0.0017863343441168428 -0.00022188046211770512 0.0
0.001771147293964575 -0.0002507390882827733 0.0
0.0018044919031286503 -0.00022755534627656843 0.0
0.001398143050333147 -0.00019361132417038937 0.0
0.0014370632816201562 -0.00018057069865750304 0.0
0.0011941394628028448 -0.00038702425393554 0.0
0.0012191877527823229 -0.0003786711664004749 0.0
0.0009505777992619048 -0.0002044417575713131 0.0
0.0009205922967440019 -0.00020879799606719567 0.0
0.0009121300770655091 -0.0003662677848846657 0.0
0.0006503363828417721 -0.00030660029244725844 0.0
0.0006274294895455844 -0.00029364918071718546 0.0
0.0019783843244058023 -0.0001256272178538168 0.0
0.0019618661815545527 -0.00015242061522049565 0.0
0.0019401477893232618 -0.00015182761155350125 0.0
0.0019275474820221647 -0.00017745624232756358 0.0
0.0009597609528228543 -0.0003745348146325643 0.0
0.00018049773386251986 -9.638605090705877e-5 0.0
0.00024722572996528175 -9.865142903496055e-5 0.0
0.00021544490418271868 -8.379676469935367e-5 0.0
0.00017866097908004447 -5.435308458782743e-5 0.0
0.00017398366564203775 -4.8120616667386954e-5 0.0
0.00021452979578789555 -5.5446162213275314e-5 0.0
0.00017002056197055362 -4.134389128467488e-5 0.0
0.00021219217478752345 -4.727647106860576e-5 0.0
0.0001660770467565909 -3.373114123955845e-5 0.0
0.00021045752106039852 -3.791725772873859e-5 0.0
0.001984283146693694 -0.00015310668797430873 0.0
0.0006421580535147995 -0.0002796560629984066 0.0
0.0016324615985623611 -0.00022269498542349173 0.0
0.001453715108870826 -0.0003538953614191273 0.0
0.0014479648500681061 -0.0003777098688414096 0.0
0.001425759152522683 -0.0003686754197385101 0.0
0.0010735504052620305 -0.00038734407290044634 0.0
0.001569410588055333 1.8709247301533994e-5 0.0
0.0017895064910457702 -0.00025803443596198 0.0
0.002167843610111035 -4.6152295907794166e-5 0.0
0.0021506192182451324 -6.578677323834289e-5 0.0
0.000685524188554324 0.0001427261604992604 0.0
0.0015265208471976106 3.212983561461832e-5 0.0
0.0011352186721186597 -0.0002619866102753224 0.0
0.0011651481171272417 -0.00025423742461501956 0.0
0.0011221293333655005 -0.0003918629934707764 0.0
0.0010499486879635698 -0.00037606894259504576 0.0
0.00048641539097722826 -0.00013349289520508316 0.0
0.0020855836486508594 -1.626731936521284e-5 0.0
0.0021016228435103736 -1.900665533674595e-5 0.0
0.0020667921195063614 -2.7383162630185504e-5 0.0
0.0021150521324614525 -2.1186833217974055e-5 0.0
0.0017145609497866891 -0.0001578307205438403 0.0
0.0012612970123132268 -0.00031601671074322254 0.0
0.0012947526837923072 -0.00021425232222576615 0.0
0.0009422099528484754 -0.00028893304976139786 0.0
0.0013825094998393365 -0.00011423062730570992 0.0
0.0014604447491563522 -0.0001999087108985093 0.0
0.0014566893446182386 -0.0002599633904349668 0.0
0.0014921228687069421 -0.0002444106738611768 0.0
0.0015284094023468456 2.2290363977014705e-5 0.0
0.0015753250780485598 1.3360182557370441e-5 0.0
0.0005013297926894556 -0.0002576999490189494 0.0
0.0005198300755772376 -0.00025903429384276544 0.0
0.00016248331029606643 -2.5198534145502865e-5 0.0
0.00020720175603451704 -2.7227154420880687e-5 0.0
0.0002568551700710473 -4.0745159923806264e-5 0.0
0.00025543859331232476 -2.7731734274432553e-5 0.0
0.00020553852329198847 -1.589236630724105e-5 0.0
0.00025633306228306876 -1.386740237294832e-5 0.0
0.0002056526675893026 -4.375117370294466e-6 0.0
0.00025975831691078675 4.751923794434782e-7 0.0
0.00020716909142792984 6.771766905847608e-6 0.0
0.00013570223108236588 -7.131098110199486e-5 0.0
0.0012598229323983687 -0.00022458862858692674 0.0
0.00010885753560065866 -5.432807663843219e-5 0.0
0.0004590408754129125 -0.00024093558870158185 0.0
0.0021575403657434684 -2.8332619257047505e-5 0.0
0.0010275097085586965 -0.00024765140041647883 0.0
0.0013898737764760714 3.2896211938191096e-6 0.0
0.0014010150271554188 1.9216679450473952e-5 0.0
0.00026418304925694827 1.464261672951824e-5 0.0
0.00034142615194421614 -0.00018589774350177973 0.0
0.0003165010043960017 -0.0001691734861891452 0.0
0.0006740479175012906 -0.0003222275308087695 0.0
0.001494242716055599 -0.000371136834035963 0.0
0.0008042063886084007 -0.0003522133240032885 0.0
0.0018226295763844015 -0.00023393951264770004 0.0
0.002182836893085349 -3.2404728621941167e-5 0.0
0.0009187284871494918 -0.00021976745588632226 0.0
0.000891077193378498 -0.00021274652780735575 0.0
0.000889466560517065 -0.00022377822241167962 0.0
0.0007535089213189816 0.0001428938544364049 0.0
0.0008634743824637447 -0.00021635068319640093 0.0
0.00018643230134708554 -6.114344805571622e-5 0.0
0.0012171049309939537 -0.0003974013440184039 0.0
0.001242314036792185 -0.0003887211497009458 0.0
0.001244842387508494 -0.00036985697599844944 0.0
0.0012679064382608695 -0.000379589061951886 0.0
0.0015186737407398491 -0.00024866249779713747 0.0
0.0015288800268688984 -0.0002280957062105441 0.0
0.00216813758902804 -2.2587374004718077e-5 0.0
0.0021405937756348256 -2.688951189152414e-5 0.0
0.0014558866555962936 3.601367272972858e-5 0.0
0.0014110539586522947 3.52379020365276e-5 0.0
0.00043516386598314925 -0.00022562295655608827 0.0
0.0006313460244321805 -0.00030725049776769676 0.0
0.0006088439649309555 -0.0002941516642343783 0.0
0.0010898507616125387 -0.00015208904632285175 0.0
0.0017574519479997836 -0.00028156358784453783 0.0
0.00021126192686475592 1.6997373648881306e-5 0.0
0.0006043406258572958 -0.00028051368390663594 0.0
0.0012652654406974488 -0.0003990409645382739 0.0
0.0012907148840041662 -0.00038956175067218676 0.0
0.001264740853422599 -0.0002103117304208948 0.0
0.0012307715788137236 -0.0002196216705173712 0.0
0.001235338452502193 -0.0002060219513817558 0.0
0.0011579564041900889 -0.00012988051124578268 0.0
0.00018930029366602853 -7.578412916408664e-5 0.0
0.0001165367136265605 -6.295887958927136e-5 0.0
0.0012712961873022907 -0.0003604850691782727 0.0
0.0013208171004929462 -0.0001751724420642674 0.0
0.0010503146407136834 -0.00039341608761154454 0.0
0.00044020274822114124 -9.818828376639388e-5 0.0
0.0007679447698907121 -0.00016273911178503724 0.0
0.00036569389659247474 -0.0002028864894205634 0.0
0.0018381437957502274 -0.00020471749635339457 0.0
0.0004768800100867595 -0.00018536158428735923 0.0
0.0004477047148528242 -0.00017157817104295983 0.0
0.0004746447314139173 -0.0001752229950838249 0.0
0.0004443002633867298 -0.00016167138566785332 0.0
0.0004722056467352245 -0.00016537920425940974 0.0
0.0004170063613358778 -0.000157549344113077 0.0
0.0014208211392792 -0.00039194726015014624 0.0
0.0014002291843637769 -0.00038249415318004334 0.0
0.00030314538161649345 5.429287615361361e-5 0.0
0.0010744294211345853 -0.0004048483264082093 0.0
0.0010454664982211344 -0.0003111835786718123 0.0
0.001019125267981689 -0.00031678710964871314 0.0
0.0005245660393646546 -0.0002725466053647573 0.0
0.00014484999798891016 -4.605555120537614e-5 0.0
0.00015551368001363267 -5.3412873925889354e-5 0.0
0.002008466893394174 -5.9273404541381107e-5 0.0
0.0020504582853480766 -4.531169706474356e-5 0.0
0.00030609413213378924 -4.190884864407377e-5 0.0
0.0005426831683407025 -0.00027329303928712854 0.0
0.0005393684872359557 -0.00026095743025474544 0.0
0.000547379623690977 -0.00028703775503873127 0.0
0.0005068211247247519 -0.0002715915086390542 0.0
0.0004246466848353881 9.278395054184495e-5 0.0
0.0008194279957062096 -0.0003065586218639812 0.0
0.0012545894382870034 -0.00023985896998019314 0.0
0.0020185968347654127 -5.0195137890913744e-5 0.0
0.0011925842596743526 -0.00040574766337196416 0.0
0.000783621935968677 -0.00035484911040100633 0.0
0.0021892086073249427 -4.234339574529761e-5 0.0
0.0021717117074664975 -6.273441573160259e-5 0.0
0.0007533223348250853 0.00012213376241505144 0.0
0.000613481607222058 -0.00030812337879155367 0.0
0.0014049608476381244 -0.00017740695562253406 0.0
0.0014470920456920759 -0.00016433809971527053 0.0
0.000241953820040779 -9.139073381367588e-5 0.0
0.00032451887857193443 -0.00018291414927704253 0.0
0.00030020724957526083 -0.0001661952986988304 0.0
0.0002917293465011985 -0.00015293789753552305 0.0
0.00044132912903639915 -0.00023932806733003724 0.0
9.007324835779082e-5 -4.588396518606111e-5 0.0
8.414082918474657e-5 -3.994893748755212e-5 0.0
0.001287906192810053 -0.00040958030932650386 0.0
0.0013130651798238533 -0.0003998047959049648 0.0
0.0013154060130146955 -0.0003785026697172524 0.0
0.001802248058652088 -0.00019519068769042956 0.0
0.0017829623990540764 -0.0001919781109506783 0.0
0.0017750688995571873 -0.00029074805678354343 0.0
0.0004131190063882993 -0.0001480487666495898 0.0
0.00038637660623771434 -0.00014389170276282216 0.0
0.0014785864672992748 -0.00016685259499802806 0.0
0.002147900790361706 -1.4261001803868073e-5 0.0
0.0021600109634970343 -1.5612041503083863e-5 0.0
0.002173940529098975 -1.9085499622350495e-5 0.0
0.0021257252301635915 -9.688025559468242e-5 0.0
0.00014328697513615058 -8.170687294272052e-5 0.0
0.0014017291951360375 -3.5805951841885604e-5 0.0
0.0013596690602685005 -3.774555260418833e-5 0.0
0.001349395717322755 -4.863114283792167e-5 0.0
0.0013096742835250023 -5.080968060243619e-5 0.0
0.0013017829845708565 -6.0786873222996275e-5 0.0
0.0013164554216147518 -4.1289989497806775e-5 0.0
0.0011383843217669903 -0.00024786516163446026 0.0
0.0009226554308655076 -0.00019826243555772213 0.0
0.0009531361895442367 -0.00019388999022592802 0.0
0.0003082245551316082 -0.00018006384923807732 0.0
0.00028405472832010415 -0.0001628584997372372 0.0
0.001931520750533395 3.28800123619559e-5 0.0
0.0020036477293719004 2.7826865997785995e-5 0.0
0.002032549573519946 2.0712292251887178e-5 0.0
0.002076264355963125 2.1783325889172955e-5 0.0
0.0020578399992244407 2.748634163131326e-5 0.0
0.0010278254448797092 -0.00038240638777222374 0.0
0.0010272063535453207 -0.00036617911282770796 0.0
0.0010277181297290998 -0.00039931228000148904 0.0
0.0013485819358163456 -6.596620462882885e-7 0.0
0.00133728108570685 -1.3828449017287934e-5 0.0
0.0003088411532824916 -5.552293407985191e-5 0.0
0.00015321144532771158 8.505841979088492e-6 0.0
0.001394907555728277 -0.0004047998066007603 0.0
0.0003695912677047328 5.77873971071284e-5 0.0
0.0014136895260394961 -0.00023131585744399103 0.0
0.0013471565314240137 -5.848915197241151e-5 0.0
0.001294385153307971 -7.066385186056551e-5 0.0
0.0013314071642029962 -7.043510473810577e-5 0.0
0.001286951158469835 -8.052647607901654e-5 0.0
0.0013220389246431667 -8.088005125125882e-5 0.0
0.001279789034856539 -9.060368760900808e-5 0.0
0.0013139645975753533 -9.140614615782542e-5 0.0
0.001272933714225652 -0.00010102001061345508 0.0
0.0013077928037172305 -0.00010205837032473731 0.0
0.0012501816623700906 -8.049714457179529e-5 0.0
0.0012389155889122633 -9.996644065166968e-5 0.0
0.0014419890547122582 -0.00040132874733761606 0.0
0.0022014745520186688 -1.710042982717612e-5 0.0
0.0007509500413279983 -0.00028667457288526055 0.0
0.0007259310627762466 -0.0002756503416050576 0.0
0.002047132085976963 -0.0001245060357963631 0.0
0.0008662906264959383 -0.00020722093864146483 0.0
0.0012646287193601026 -6.192468539244893e-5 0.0
0.0005452500560736961 0.00013158574170623745 0.0
0.00013150284493741022 -3.4582165099576516e-5 0.0
0.0008297912066167813 0.0001393975376138667 0.0
0.0008205037826796991 0.00011555086260974965 0.0
0.0016834511065045303 3.8487125572347096e-5 0.0
0.0020689137472627906 -0.00012409237665583759 0.0
0.0020306655625728733 -0.0001544490841993179 0.0
0.0008612420963932734 -0.00022729892469945578 0.0
0.0008379914753509852 -0.0002180979124246362 0.0
0.0003819055249026954 -0.00019484103346412377 0.0
9.767585636892769e-5 -5.428235556709939e-5 0.0
0.000111110212997346 -3.670544517554159e-5 0.0
0.00011657950088177323 -4.10862463324581e-5 0.0
7.139059297383704e-5 -3.716154801664318e-5 0.0
0.0015011350652696846 -0.0002249238822847165 0.0
0.0015389671690666804 -0.00020889055593733652 0.0
0.0015671782185397811 -0.0002115574739474737 0.0
0.001577235600980105 -0.00019229705550526696 0.0
0.0012331239563081865 -0.00010974912343145718 0.0
0.0006335504655221793 0.00015652277239670313 0.0
0.0007749708847731528 0.00016067645048871228 0.0
0.0012019159450156096 -0.00021463077062975708 0.0
0.0012067413122534296 -0.00020135867447239504 0.0
0.000925584677333416 -0.00018851463417174824 0.0
0.0007933915956472586 -0.00018894476331863223 0.0
0.0008065741558504174 -0.0003673771959720516 0.0
0.0016376859061396755 -0.0003036604493067294 0.0
0.0016554090541745707 -0.00031060977946315965 0.0
0.0016264851924554186 -0.0003311556049142947 0.0
0.0016436703880435776 -0.0003395154559309642 0.0
0.0016161691067872945 -0.0003593735780779439 0.0
0.0015988371857639167 -0.000351040233621262 0.0
0.0015540592259245206 -0.00033993086731440216 0.0
0.0014022658583368755 -0.00035914070967650206 0.0
0.0015283646723742213 5.024974651066823e-5 0.0
0.0011252730659979389 -0.0003238419912093378 0.0
0.0003126379019360103 -9.704904949493371e-6 0.0
0.0021518256562169003 -8.912242078324599e-5 0.0
0.002191118832221336 -5.92542117355141e-5 0.0
0.0016723604149589508 -0.00031862082300220993 0.0
0.0016616333635307192 -0.0003487445884614063 0.0
0.001689177479154543 -0.00032827061615064995 0.0
0.0008264476930939092 -0.0003645573803571272 0.0
0.0009942243097731192 -0.00030752191007134115 0.0
0.000994033072168176 -0.0003217731642444076 0.0
0.0010183276953067565 -0.0003317444607279074 0.0
0.0006822996755855225 -0.0002400244298155314 0.0
0.0009692230861150609 -0.0003121840680155139 0.0
0.0012482312147176627 -0.0003517743551873266 0.0
0.0018193460007874696 -0.000169995250250792 0.0
0.0018560485834001428 -0.00020997469766763819 0.0
0.0018403007387491558 -0.00024147682745307979 0.0
0.0018767896203474338 -0.00017884098988548103 0.0
0.0002618215869838416 -6.227718227032546e-5 0.0
0.0007372903248771644 -0.0003299009995182751 0.0
0.000717319622192609 -0.00033176390611629143 0.0
0.000740244266285212 -0.0003445150508006873 0.0
0.0007212926931619898 -0.00034644875792504885 0.0
0.0016052280618860952 -0.0001941059035874372 0.0
0.0004652624352023737 -0.0002549891823751179 0.0
0.00041871550383622367 -0.00022415743088182133 0.0
0.002126382456525947 -2.3030090884389158e-5 0.0
0.00012059903051487729 -2.17704362181057e-5 0.0
0.00011761983143008364 -1.5041339250192287e-5 0.0
0.0013727906448726128 -0.0003920260741777815 0.0
0.0013720335022066057 -0.00041609945810976715 0.0
0.0011080972825231721 -0.00025516588316177983 0.0
0.0021048221478357203 1.51555976867967e-5 0.0
0.0004245622094970519 -0.0002377976691322742 0.0
0.001714860174685857 -6.068356754496103e-6 0.0
0.001953887161433599 -0.00012646408479081617 0.0
0.0020066349029870807 2.951130341510297e-5 0.0
0.00202549307083478 3.3391528626761376e-5 0.0
0.001549084783241264 -0.00019076577594343127 0.0
0.0016692240013559396 -0.0002036811949404965 0.0
0.0016919965877751038 -0.00020520724656279525 0.0
0.0015371746510724985 -6.340379290837704e-6 0.0
0.0015824696487103812 -1.5238379659793952e-5 0.0
0.0016215596221387752 7.691254066835426e-6 0.0
0.0012625289712785584 -0.0004189284691334195 0.0
0.0006343792471096465 -0.00032090243476754605 0.0
0.000945243782732684 -0.00023833568112655045 0.0
0.001366262025828618 -0.00019087820420469925 0.0
0.0011911535318726728 -0.0002602486845017238 0.0
0.001215238746353053 -0.0004167322737419648 0.0
0.0005646135944018174 -0.0002872905361550331 0.0
0.0007040389089131802 -0.0002765929985349837 0.0
0.0003001609698234271 -0.00010569813749339196 0.0
0.002136865538262956 1.551905762896534e-5 0.0
0.001597747376341298 -0.00024168046925424595 0.0
0.0002089827215794275 -7.711625028214809e-5 0.0
0.0006574547608064098 0.00017048100223708814 0.0
0.001202864137362276 -0.00033366343366221746 0.0
0.0015892386397693813 -0.00037851953772767035 0.0
0.0015710087993955357 -0.0003701145697877266 0.0
0.0013958120894180563 -0.0002684451675579353 0.0
0.001486471080930452 -0.00015132719050268503 0.0
0.0006491023894671544 -0.0002054982417990715 0.0
0.000993695603223915 -0.00033900179519637957 0.0
0.0013574204391165424 -0.00016502047014018589 0.0
0.0007010250928985838 -0.00026427304173308366 0.0
0.000678760338006211 -0.0002647605833110722 0.0
0.000569246559678057 -0.0003012330069610241 0.0
0.00035778852343096627 -5.733581301286466e-5 0.0
0.00035796279405334134 -4.246901712977994e-5 0.0
0.00015836166484692638 1.527752610734457e-5 0.0
0.00022137777636385263 2.6678794842308082e-5 0.0
0.0017446797131322907 -0.00031400552441577145 0.0
0.00027342903845843284 -0.000105867756032039 0.0
0.0003907577979047467 -0.00015340726703751375 0.0
0.0003600689872155577 -0.00013919289987751116 0.0
0.001855646934562887 -0.00017695096749920317 0.0
0.0009159170166822357 -0.0003067593383787871 0.0
0.0011684507055152943 -0.0002394569593897315 0.0
0.001469581428799265 4.913251807784133e-5 0.0
0.0014600933215740985 4.319508942979106e-5 0.0
0.0014236056578719699 4.570280027389486e-5 0.0
0.0014179052308735962 3.540531918389989e-5 0.0
0.0014529839366655651 2.7068404537945513e-5 0.0
0.0016202243007502068 6.707917072473074e-6 0.0
0.0016656371881473542 3.4095543807187977e-6 0.0
0.0016787813631606104 1.6230806059242443e-5 0.0
0.0017211053346895813 1.1907118628434151e-5 0.0
0.0017084757087583841 -9.081677784604503e-7 0.0
0.00010440951315241632 -3.194752306737601e-5 0.0
0.001616671082050007 -0.0001756944648600696 0.0
0.00030229750982165097 5.824971783316623e-5 0.0
0.0003348664509779535 6.68356510730981e-5 0.0
0.0013100588853971536 -0.0004201043367642536 0.0
7.584940777076575e-5 -1.1376691682525755e-5 0.0
0.0017920299394848403 -9.039274687035764e-5 0.0
0.0018373408848040593 -7.513108012095749e-5 0.0
0.0018059099714873483 -7.433618446477508e-5 0.0
0.0018726551643798218 -7.337452561893803e-5 0.0
0.0018833606019964498 -6.066286850852865e-5 0.0
0.0019193615904327542 -5.916845167399182e-5 0.0
0.0005030520498257127 -0.00017836900502721245 0.0
0.0005021271676689787 -0.0001688407494241852 0.0
0.0004696198936485645 -0.00015577975510390916 0.0
0.000500835029492535 -0.00015950585436481154 0.0
0.0005334192154288985 -0.0001719636617730046 0.0
0.0005327729012257789 -0.00016257204682173924 0.0
0.0005648451088822086 -0.00017435892313869033 0.0
0.0006181406897008566 -0.0003215750831159149 0.0
0.0005647089666449182 -0.00016465739022655156 0.0
0.0005965559672095483 -0.0001761500250111419 0.0
0.00015600456796380048 -7.524779115357123e-6 0.0
0.000358488652040902 -7.053662709349725e-5 0.0
0.000595357472947532 -0.0001855962564968073 0.0
0.00047080481068326977 -0.00014776141451704325 0.0
0.0017988602292278134 -0.00016858678028579675 0.0
0.0017633291294140456 -0.0001900531999174388 0.0
0.0010060622915625452 -0.00038876017554620776 0.0
0.0010057241011616658 -0.00040511014885224637 0.0
0.001383425891703855 4.11048387624316e-5 0.0
0.0007578661364097791 9.840354896892075e-5 0.0
0.0008205932670006016 8.907908123580152e-5 0.0
0.0008791594822659732 0.00010410704126713035 0.0
0.0008795543543542226 7.488160909899926e-5 0.0
0.0008252789774882051 6.063397662536106e-5 0.0
0.0008835108119891722 4.183461079537138e-5 0.0
0.0008323830337302175 3.091272208379043e-5 0.0
0.0008904396991559162 1.0148306811906029e-5 0.0
0.000839847437914429 3.4348383731991636e-6 0.0
0.0009055659440710511 -1.7070066413584055e-5 0.0
0.0008456126375189488 -1.96971601987831e-5 0.0
0.000899021855005019 -3.604382855531958e-5 0.0
0.0008478245767669966 -3.85011959243096e-5 0.0
0.0008982567586694717 -5.1909217159351035e-5 0.0
0.0008517623345361574 -5.500608866914969e-5 0.0
0.0008984309732016262 -6.562460080804461e-5 0.0
0.0008529406820339247 -6.863526962276267e-5 0.0
0.0008959182166100269 -7.711066721541252e-5 0.0
0.0008530805098787647 -8.029451757105082e-5 0.0
0.0008937322769663236 -8.726822712412989e-5 0.0
0.000852266228472224 -9.080294842585225e-5 0.0
0.0008908591038768513 -9.67991283140396e-5 0.0
0.0008499085929861531 -0.00010053646098672561 0.0
0.0008878255585024056 -0.00010565876372315725 0.0
0.0008474281968362244 -0.00011005348491533606 0.0
0.0008091594953172479 -0.0001037386514453168 0.0
0.0008073865872013184 -0.00011369075886107793 0.0
0.0008873556554162503 -0.00011520743116773152 0.0
0.0008109019474203367 -7.131053906153786e-5 0.0
0.0009275363814541567 -0.00010072611087110018 0.0
0.0009385078492024147 -8.374471009293743e-5 0.0
0.0007845226738567847 2.1446001663981914e-5 0.0
0.0009438061874295822 -6.197738354075171e-5 0.0
0.000768092831348609 -0.00010653193653000254 0.0
0.0007676095139501574 -0.00011669639260143638 0.0
0.0008057593476330869 -0.00012344495577083832 0.0
0.0007671033901663562 -0.0001265653239829881 0.0
0.0008011751973899153 -4.155183217158186e-5 0.0
0.0009542152241277862 -3.615273645539074e-5 0.0
0.0007692791827983602 -9.581511173722124e-5 0.0
0.0009432896796314191 1.8319076321105704e-5 0.0
0.000804473932490736 -0.00013296514879386853 0.0
0.0007664850161511742 -0.00013621091666466296 0.0
0.0007289645075127714 -0.0001291073596264999 0.0
0.0007263641499446437 -9.821348705538102e-5 0.0
0.0007252159843758284 -8.578572207738262e-5 0.0
0.0008428680018812773 -0.00012904815887039385 0.0
0.0008403134416860585 -0.0001383735311984331 0.0
0.0008774162760743428 -0.00013407817626940883 0.0
0.0009365461122992244 8.605643884465708e-5 0.0
0.0009426885126037332 0.00010993428112405057 0.0
0.0007301314409778925 -0.00013897927385966448 0.0
0.0006915687541332228 -0.00013120201784814676 0.0
0.0006909069041554836 -0.00012132072167758145 0.0
0.0006512177812191712 -0.0001225289081243097 0.0
0.001191441111619747 -0.00042483513850107 0.0
0.0011691629837092335 -0.0004137259244422242 0.0
0.002051693457675958 -0.00015460453842170113 0.0
0.001275100096470756 -0.00034184906907012665 0.0
0.00129863410679 -0.0003506160655692731 0.0
0.0007453908182703206 -0.0002734977066942582 0.0
0.0007706434181268021 -0.00028404834286194973 0.0
0.0018406478611342667 4.328117941767378e-5 0.0
0.0013001257017638647 -0.00019938458624804906 0.0
0.0007670171439621305 -0.00014554023355328765 0.0
0.0005834633985488356 -0.00028010718687791395 0.0
0.0005810586774715278 -0.0002673988021563209 0.0
0.0006001944968371776 -0.0002675811944919357 0.0
0.0014539086100531402 -0.00014934411395438568 0.0
0.0013620761447878948 -7.19047996073468e-5 0.0
0.0008888281000568797 -0.00023517786499602396 0.0
0.0008613474990747332 -0.00023881172860934418 0.0
0.0012961153244485627 -1.8243418859536798e-5 0.0
0.0012871024704512943 -2.8521638249410978e-5 0.0
0.0013227629208810772 -2.5262411011463782e-5 0.0
0.0012744566903905396 -3.914288484946623e-5 0.0
0.0013076080516255296 -6.232258793507467e-6 0.0
0.0013480928112747767 -9.265526952183584e-5 0.0
0.0013427128288269277 -0.00010337519829590165 0.0
0.0012985847407833353 -0.0001130857481502251 0.0
0.0009563199732811213 -0.00018395520015084395 0.0
0.0009841648934141999 -0.0001890778719509718 0.0
0.0009878357461563982 -0.0001793187631537669 0.0
0.0010153041745221462 -0.00018382023427445927 0.0
0.0010190900756681023 -0.00017413321219714428 0.0
0.001046564819645896 -0.00017824716789775844 0.0
0.0010506806598464652 -0.00016858758121440453 0.0
0.0010794577674933942 -0.0001721778692092221 0.0
0.0010745216155016873 -0.00018253810890757317 0.0
0.0011085011077472083 -0.00017464188116495877 0.0
0.0012417252419946966 -0.0001932352516336063 0.0
0.0012116074124631023 -0.00018897158955411626 0.0
0.0011780647467115207 -0.00019698066275253973 0.0
0.001182382394019964 -0.0001851098106474933 0.0
0.00023663139108688814 -8.458380514499156e-5 0.0
0.0002928136179682291 -0.00017722629731223706 0.0
0.0002688608287564595 -0.00015955313143080658 0.0
0.00026031325538207267 -0.0001453341642347275 0.0
0.0002442582828332431 -0.00014126106374284558 0.0
0.0011110266674678 -0.00024163173648946045 0.0
0.0015189899443089554 -0.00015261333556380456 0.0
0.0015077444879217769 -0.00016948098523459547 0.0
0.000615502836754828 0.00013696362789979085 0.0
0.0012011798837368252 -0.00010854582935403263 0.0
0.0012054443634524532 -0.00010016756883883724 0.0
0.0013196419912821545 2.7382575792139218e-5 0.0
0.002162510448226195 -3.470889954711947e-5 0.0
0.002196638839141235 -2.3152428238761087e-5 0.0
0.002219567422720247 -1.924509482931032e-5 0.0
8.089509396081006e-5 -2.7579670181482105e-5 0.0
8.434024905057172e-5 -3.0330631935574703e-5 0.0
0.00011860843448445867 -4.404411377186452e-5 0.0
8.987464868259207e-5 -3.391830898252956e-5 0.0
0.00012198865220555921 -4.7660159512750794e-5 0.0
9.379227420212464e-5 -3.725554390492076e-5 0.0
5.8635816837274236e-5 -2.245481070952308e-5 0.0
0.0010809599899317189 -0.000248486392994265 0.0
0.0005339086512645536 -0.00015367450414234505 0.0
0.0003331548912154102 -0.0001973402503468615 0.0
0.0008738192607204852 -0.00014273217232524724 0.0
0.0020208469832033982 -0.0001823059889665198 0.0
0.0019979477107370273 -0.0001872441897102602 0.0
0.0017061217696176323 -0.0001840190534780808 0.0
0.0017365180299789616 -0.00018126761956126187 0.0
0.0017480505776938475 -0.000160189541235223 0.0
0.00010011087580632627 6.876291177756366e-6 0.0
0.000787262398442761 -0.0003700540755510414 0.0
0.0005528157802001331 -0.0003014163425715899 0.0
7.920138030235435e-5 -4.5539688025600115e-5 0.0
0.00010751801298957525 -6.695393629334108e-5 0.0
0.00043842211516573356 -0.00014363625570318984 0.0
0.00141940231541788 1.543239328015723e-5 0.0
0.0014608348661379722 2.8055465268216466e-6 0.0
0.0016420903852307938 -0.0002025744227002097 0.0
0.0017124878082473863 -0.00020747882396203227 0.0
0.0007438586317346572 -0.00035890266574627026 0.0
0.0008279616137395526 -0.00037923783860345105 0.0
0.0008480504795637966 -0.0003767654384140255 0.0
0.0018731127996229637 -0.000217025923855796 0.0
0.0018575478311564579 -0.00025011836214083535 0.0
0.0018241612275710496 -0.000280247618471866 0.0
0.0020611729040626633 -3.794197059809743e-5 0.0
0.0020290248018962256 -4.2106904422747835e-5 0.0
0.001986191869608642 -5.43966868774814e-5 0.0
0.001993318818155293 -4.5800007667690574e-5 0.0
0.00037736057119041206 -0.00013460385924191003 0.0
0.0019282086770570223 -4.8058973891361124e-5 0.0
0.001885930417433623 -4.9053929789018205e-5 0.0
0.0013039255931035824 -0.00033251368444648673 0.0
0.00025131950487901415 -0.00015419692821073478 0.0
0.0002296702086759628 -0.00013864004127741499 0.0
0.00022076507634683734 -0.0001251257777188307 0.0
0.00020632283051096802 -0.00012157831043478604 0.0
0.0022269525994985037 -1.4811969268073966e-5 0.0
0.0021721166897943197 -1.5994611550950085e-5 0.0
0.002203611418469531 -1.0367532596134613e-5 0.0
0.0017612271030837548 -0.0003232446148662088 0.0
0.0008946380653969902 -0.00019210998622583314 0.0
0.001888791916864859 -0.00022563119969945436 0.0
0.0018750292790335914 -0.0002581370814752598 0.0
0.0019041968279707613 -0.0002341299229676006 0.0
0.0018926799363301711 -0.00026918350232779404 0.0
0.0019233009533905186 -0.00023929879402878913 0.0
0.0019351862377677848 -0.00020858895164795142 0.0
0.001951446021517162 -0.00021560065509717804 0.0
0.00102953532813454 -0.00041584824121600205 0.0
0.0010088974604079875 -0.00042300849382129755 0.0
0.000981213593474211 -0.0004102162222650657 0.0
0.000731821894430823 -0.00014888068493184686 0.0
6.80871269470684e-5 -2.7463000605851e-5 0.0
9.719062104310935e-5 -4.0663797253977666e-5 0.0
7.169052169944955e-5 -3.034648909673105e-5 0.0
0.0007280728053556625 -0.0003635045718341976 0.0
0.0007044317676814837 -0.0003488482263262818 0.0
0.002117532957598421 -0.00011972924695806854 0.0
0.00016988411227792912 2.1822108808687045e-5 0.0
0.0011498778829339684 -0.00019397919535811415 0.0
0.0011554240144798756 -0.00018182795873496023 0.0
0.002057853800014156 1.3940622689993056e-5 0.0
0.0021282565661117294 9.400709507933018e-6 0.0
0.0018913518222723647 -0.00015446109203847707 0.0
0.00040363793478945817 -0.00022241976965841275 0.0
0.0004120891420423655 -0.00023779085961761205 0.0
0.0015981951157988668 -0.00021326957471980634 0.0
0.0017034033160007163 -4.036681282457359e-5 0.0
0.002171925481381249 -8.433095404950341e-5 0.0
0.0022106605559515484 -5.403083528571674e-5 0.0
0.002227645865773093 -3.4706097638772274e-5 0.0
0.0016272575099505037 -2.1489673070723807e-5 0.0
0.001836136508617327 -0.0001480183717940921 0.0
0.0009836662611241924 -0.00036593820596928195 0.0
0.0019074819323972264 -7.123885284162321e-5 0.0
0.0017725676306008839 -0.00017136789706364376 0.0
0.0006775276357701486 -0.00025209261743002544 0.0
0.0004114151780318715 -0.00021059000179005986 0.0
0.002097422151408904 -3.1998699778955086e-5 0.0
0.0017399465172350049 1.839313354618417e-5 0.0
0.0007057592255719932 -0.0003621828734139488 0.0
0.00033715010217338004 -0.00012108771543841999 0.0
0.001190580385667832 -0.00011932546993843902 0.0
0.0017265066474756539 -0.0003088934190064228 0.0
0.001717969757581762 -0.00033826596200236587 0.0
5.4211310880894846e-5 -2.9057479144195616e-5 0.0
0.0013337530040138327 -0.00041242798981570866 0.0
0.0013269023046562456 -0.000429281068688238 0.0
0.0008484623327032208 -0.00039391474055753146 0.0
0.0008695791286166602 -0.0003895230465335163 0.0
0.0008679755381382483 -0.0003736679247741689 0.0
0.0008899018059319338 -0.0003857197167164539 0.0
0.0008706100930109344 -0.0004027201058940495 0.0
0.0007705413239136734 -8.441217678887642e-5 0.0
0.0007251839166307995 -7.341558461949547e-5 0.0
0.0003088291857234907 -6.682742189089666e-5 0.0
0.0007264270572503932 0.00018153777606708484 0.0
0.0007097476945864144 0.00016784563624417626 0.0
0.001389393396769893 4.154669494038102e-5 0.0
0.001676917782688291 -0.00035903804824087375 0.0
0.0016520901320966645 -0.00037874183359757295 0.0
0.00021304422889377263 -0.00013508621778714433 0.0
0.00019009432240786706 -0.00011684109573977338 0.0
0.002215402890616136 -1.0247230924924926e-5 0.0
0.00036984966676833033 -0.00014982833315793824 0.0
0.0003356895945797075 -0.00013591022719567833 0.0
0.002081997357614242 2.6045589868394285e-5 0.0
0.002086272643339268 -0.00012542607254125758 0.0
0.0020685156473637294 -0.00015837017135782034 0.0
0.001225931405494056 -0.0001200827079920089 0.0
0.001390907228417399 -0.00042593980879276726 0.0
0.00136320044679521 -0.00043904145594003593 0.0
0.0006244878586843033 -0.00018622482972217226 0.0
0.0006279417065675354 -0.00017680654909167897 0.0
0.0008895373600397672 -0.0003700810442700113 0.0
0.0018983706871255643 -0.00018306150017522872 0.0
0.0010835937970933372 -0.00016225344236438203 0.0
0.0010574023990905495 -0.00015878280585801958 0.0
6.554634658397864e-5 -3.9731338565928375e-5 0.0
0.0007413939824126398 0.000276031748040923 0.0
0.0009906543235500128 -0.000169470718584807 0.0
0.0006829395505173267 -8.845526657727612e-5 0.0
0.0006865135395306345 -0.00010048672586449832 0.0
0.00040883359778905436 -7.243309463661617e-5 0.0
0.0013864130762732117 -9.275764389397515e-5 0.0
0.0009089711265059722 -0.00013836951893306715 0.0
0.0009136444821520606 -0.00012988769728890755 0.0
0.0009441556995163623 -0.0001338899049706061 0.0
0.0009481288621832862 -0.00012585879743734274 0.0
0.0009775661462389392 -0.00012868852763923752 0.0
0.0009820118783756653 -0.00012103384381840404 0.0
0.0009520409215139905 -0.0001181763012814836 0.0
0.0009863439341483468 -0.00011342914774624413 0.0
0.0009564652747792945 -0.00011082498052522127 0.0
0.0009913744464258292 -0.0001061600755062848 0.0
0.0010093812709322234 -0.00012360932574102498 0.0
7.998941229425853e-5 -7.69176194401755e-6 0.0
0.001333663634162841 -0.00011609297446903479 0.0
0.0009028530101707718 -0.00018272223370384346 0.0
0.0009369571126743524 5.258396568570593e-5 0.0
0.0010047910685628877 2.1139925088864394e-5 0.0
0.0010016255750624663 -5.716483366129951e-6 0.0
0.0009935429610844057 6.0449125061752055e-5 0.0
0.0009519398143994946 -8.668778979397933e-6 0.0
0.0010069763417437656 -2.4425165374000383e-5 0.0
0.0010612165303439409 -2.4595366798064938e-5 0.0
0.0010506881932828805 3.654634064264361e-5 0.0
0.00015074206328868412 -5.799095083847707e-5 0.0
0.00015584616552496194 -6.313046135819518e-5 0.0
0.0022172941659914865 1.009957365060742e-5 0.0
0.0021381655763522264 2.0811355308789258e-5 0.0
0.002134041075661431 2.3309112784771773e-5 0.0
0.0016095170876553007 -0.0003901178030978586 0.0
0.0015804958301044191 -0.00040591827857284536 0.0
0.0005769228367994674 -0.0002548526854394442 0.0
0.000596834470176997 -0.0002547977211462941 0.0
0.0005566901151504914 -0.0002540628863436918 0.0
0.0006414422344669868 -9.255981590154529e-5 0.0
0.001053163018188464 -5.037975635613928e-6 0.0
0.0010224236960986995 -0.00010812075200355174 0.0
0.001025364509010337 -0.00010090754097956238 0.0
0.0009960545196301548 -9.907602095932485e-5 0.0
0.0010290123726072434 -9.448714620874087e-5 0.0
0.00100224717434014 -9.231905300556808e-5 0.0
0.0005971382241111544 -0.00030927913449251205 0.0
0.002211657618702622 1.3705534643861559e-5 0.0
0.0010031397874879977 9.093865655648869e-5 0.0
0.001348165620413786 3.6176728961634525e-5 0.0
0.0013488764359296794 2.4938843727398336e-5 0.0
0.0013059731915205795 1.5272282468039605e-5 0.0
0.000687359706366459 0.00010392035597510139 0.0
0.0009168164806289048 0.00015067571839422528 0.0
0.0008580386547598994 0.00016059651502529256 0.0
0.0008332085761160185 0.0001721513571295371 0.0
0.0015331796127859023 -6.217337127282718e-5 0.0
0.0017922143705296424 -0.0003007934914072952 0.0
0.0017778864865671538 -0.000337925934851975 0.0
0.0005728295335134191 -0.00031478783421663703 0.0
0.0009112932533558479 -0.00038210080879463 0.0
0.0009123341502018977 -0.00039756928401388556 0.0
0.0009326276401627023 -0.0003938876147927119 0.0
0.0009365415853062841 -0.00041152051588726993 0.0
0.0015871975352617842 4.986725056211528e-5 0.0
0.0015465167883570233 4.591427689306229e-5 0.0
0.0016031799711293067 4.512100535675365e-5 0.0
0.0016477257260190477 4.849047445586544e-5 0.0
0.001189514969814107 -0.00017381461577539096 0.0
0.0011658044932780446 -0.00016981314000027924 0.0
0.0009551555903943899 -0.0004050096885323808 0.0
0.0006583614399985032 -0.0001338268674040522 0.0
4.4361747613502136e-5 -2.1648284786259e-5 0.0
0.0009475050411456565 -4.866932656239307e-5 0.0
0.0009896275279232343 -5.841991451197604e-5 0.0
0.0009861221260649708 -6.846154161209925e-5 0.0
0.0010298344149523922 -6.445160921166204e-5 0.0
0.001023830971965819 -7.21003639954713e-5 0.0
0.0010334736752935464 -5.618799908153008e-5 0.0
0.0009873008934504406 -7.634610607169764e-5 0.0
0.0010193079234096488 -7.901576867098552e-5 0.0
0.0010700996253899453 -6.02986928380777e-5 0.0
0.0014930640883223183 4.568664711705837e-5 0.0
0.000985910624872343 -8.377196400977279e-5 0.0
0.0022454980570726546 1.4478819512871687e-6 0.0
0.000837334814139048 -0.00014742317764828943 0.0
0.0010179272958390252 -0.00034729603988092113 0.0
0.0010443775969884678 -0.00034201485000171536 0.0
0.0009962404654070079 -4.770701863011128e-5 0.0
0.0010435010168458778 -4.699430432038147e-5 0.0
0.0012503334321131772 -0.00018099961530301667 0.0
0.0015784523089933022 -0.0003437711806563541 0.0
0.00155081353575136 -0.00036449882293598617 0.0
0.0015444971083106197 -0.0003889297539115788 0.0
0.0015260257416529295 -0.0003834968282424711 0.0
0.001521677564265497 -0.00040523440756385417 0.0
0.001501707425317736 -0.0004012575542626065 0.0
0.0018589444979723961 -1.4944205351026262e-6 0.0
0.0018197975543663622 -1.329685448099095e-5 0.0
0.0018383021200608423 -2.306736226941928e-5 0.0
0.0017805678557707922 -2.7088360920225742e-5 0.0
0.0017966544444714225 -3.7289595219964044e-5 0.0
0.001739165600437668 -4.274760651559251e-5 0.0
0.0017557863241726393 -5.304111893401105e-5 0.0
0.0017223142519332748 -3.2197101412718125e-5 0.0
0.001682056586162078 -4.8586505366868625e-5 0.0
0.0018104607651960845 -4.726712774192994e-5 0.0
0.0016647084996392653 -3.833949262256984e-5 0.0
0.0017688991787160864 -6.323560553334168e-5 0.0
0.0017171650797934077 -6.946712791280736e-5 0.0
0.001727683928064962 -7.998877240803392e-5 0.0
0.0017050256614428174 -2.2488087401507847e-5 0.0
0.0017985440278496638 -3.2644739389736385e-6 0.0
0.0018227577720276928 -5.7716344739924705e-5 0.0
0.0018998033361319507 -2.145171246082193e-5 0.0
0.001860332552305086 -4.259920363594253e-5 0.0
0.001247798995295809 -3.266315476090862e-5 0.0
0.0008839867348740466 0.00014932669356874882 0.0
0.00013030046644941931 -5.400042474879694e-5 0.0
0.00012459925297835338 -7.363928804884841e-5 0.0
0.00014951767968268765 -9.237231953045123e-5 0.0
0.000953535467192714 -0.00038955096792634233 0.0
0.001283720394458008 -0.0001860438537539806 0.0
0.0012711813371870083 -5.3310755269708004e-5 0.0
0.0012277196592433667 -6.34860055443708e-5 0.0
0.0012389310424903068 -5.5504262949802803e-5 0.0
0.0012246599982521198 -7.100047846189116e-5 0.0
0.001257996954870647 -7.0775427125334e-5 0.0
0.001217749146115039 -7.93777123469653e-5 0.0
0.0012104252310955698 -8.756616576369465e-5 0.0
0.0011828882256585324 -8.656515532428578e-5 0.0
0.00016085733520394013 -8.859564202418046e-5 0.0
0.0014224914745435673 -9.102721878168717e-6 0.0
0.0017156554404713733 3.109172577667288e-5 0.0
0.0016474473874002631 3.201662630020431e-5 0.0
9.155269827768124e-5 1.0922514985142327e-5 0.0
0.00019664733422780344 3.131177667188956e-5 0.0
0.00017550369117364938 2.6795796880943885e-5 0.0
0.0014412799112004438 -3.715810176654349e-5 0.0
0.00020397064923750627 -0.00010688327118762264 0.0
0.00023482755290385617 -0.00012722329752932083 0.0
0.0002529150167216202 -0.0001331841064192866 0.0
0.00024928248870374466 -0.00012320190798863694 0.0
0.00026771124439079765 -0.00012683224567934577 0.0
0.0009318674618032253 -9.265670021499234e-5 0.0
9.761585627021972e-5 2.1950261322745324e-6 0.0
0.0004417880858473944 -0.00012835482438121738 0.0
0.00036539171956588015 -0.00011724850949224038 0.0
0.0010474169780376149 -3.642529064596106e-5 0.0
0.00032834810729737303 9.448754729923561e-5 0.0
0.0015216309879631398 -0.0003549286696959031 0.0
0.0013684489743724948 -2.560421464443167e-5 0.0
0.0021366482777318532 -0.00011607922475898405 0.0
0.0017012056870196405 -5.881025776923446e-5 0.0
0.0016445324969245928 -6.513757526166099e-5 0.0
0.0015624718635261286 -0.0003970227951017292 0.0
0.0022502189557662804 -3.2647883579463883e-7 0.0
0.002201937613686826 -2.6079330402190013e-6 0.0
0.0022113596989372197 -4.852680892731226e-6 0.0
0.0021940540690891424 3.952346302267185e-7 0.0
0.002156924580836792 -6.995810282644957e-6 0.0
0.0021880229995355892 3.6159255958931443e-6 0.0
0.0021324234796797088 2.1597319380668058e-6 0.0
0.0021435720793487115 -2.703394312977939e-6 0.0
2.9031562241564867e-5 -1.066182383956923e-5 0.0
0.002267964303783618 -4.353615902673389e-6 0.0
0.002233345325747073 -8.874913369572326e-6 0.0
0.002254271962589611 -4.541585745073922e-6 0.0
0.002236435711628815 -9.646607735079147e-6 0.0
0.001357811023449868 1.4209676905002061e-5 0.0
0.001635601823345785 -0.0003674782488435395 0.0
2.3565936772129084e-5 -9.88982431360353e-6 0.0
0.0022757362138870656 -5.453366193210726e-6 0.0
0.0007637092823215766 7.322294085542121e-5 0.0
0.0018093524019403195 1.8382465392949633e-5 0.0
0.0006258449365291106 -3.33452872246953e-5 0.0
0.0006807144315899578 -2.895688092292218e-5 0.0
0.0006802908946237804 -5.727327329502116e-6 0.0
0.0006793715435350466 -4.776396638884388e-5 0.0
0.0007264381719210737 -4.5639994927702875e-5 0.0
0.00074062989778282 -2.7931162600869707e-5 0.0
0.0007375844778390771 -3.4742911815346726e-6 0.0
0.0006834444227899864 1.796958902331349e-5 0.0
0.0006363852544279683 4.2807517535930654e-5 0.0
0.0006317620448593288 -5.591319834370999e-5 0.0
0.001848488780985442 -0.0002818920741851776 0.0
0.002244446975139709 4.882046330057338e-6 0.0
0.0008905930754191495 -0.0003546266454140086 0.0
0.00031986899303035435 -0.00019763285691716567 0.0
0.000977486798919333 -0.0003506706168360613 0.0
0.0007634538861409936 -0.00035716737536808983 0.0
0.0007657009194870735 -0.0003718031507202117 0.0
0.0010599270078329314 -9.554856805833537e-5 0.0
0.001436902576794705 -6.291552793031642e-5 0.0
0.0019542017628266673 3.981081025937168e-5 0.0
0.001981886797497028 3.836338227010981e-5 0.0
0.001915881940356061 4.1351706697414364e-5 0.0
0.00015002553037608837 -5.480514684811294e-5 0.0
0.0003006657119424897 -0.000191441733785491 0.0
0.0008430012785664843 0.00021374519329692365 0.0
0.0007647162514288104 0.000207241103039624 0.0
0.001699291734331314 -5.659282573238527e-5 0.0
0.0008903594264918989 0.00012814850095009463 0.0
0.002023783057420862 -0.00012485263587557805 0.0
0.0009686254074367796 -0.0002981996160498636 0.0
0.0016203444819939364 -7.873279235055318e-5 0.0
0.001649869168397227 -4.974754330625908e-5 0.0
0.0007015055908983477 5.6755875449125195e-5 0.0
0.0005572817717119626 -0.00031599651127611886 0.0
0.002003780228097812 -0.00015859842627844841 0.0
0.00034912549774566276 -0.00019991346677411943 0.0
0.00036902924113453193 -0.00021414361458170944 0.0
0.0003595295112403579 -0.00021715206962107957 0.0
0.0005246917858047541 -0.00013435002260431654 0.0
0.0012390405477219846 -9.051193174171057e-5 0.0
0.0013984789659878048 -5.143657812350728e-5 0.0
0.0008457142802152905 -0.00011947086607257605 0.0
0.0008809460166199416 -0.0001251388035572932 0.0
0.0021978136219367164 1.349984973853298e-5 0.0
0.0020887966028100575 1.8750155218110234e-5 0.0
0.00011449298422585906 1.5400007701751422e-5 0.0
2.918574325265682e-5 -1.1198746278639422e-5 0.0
0.0010152771791809162 -0.00011579845911249769 0.0
3.425035387898205e-5 -9.317669005456721e-6 0.0
8.155999927113978e-5 -2.0776034948106325e-5 0.0
0.000966095522937224 -0.00033781489358222766 0.0
0.0014918168272698507 -5.093011066669237e-5 0.0
0.0009453027562331242 0.00013787207414867622 0.0
0.001349994983288825 -0.00017744954685272802 0.0
0.0010389379607336014 -8.761572226357158e-5 0.0
0.0017898210101671868 -0.00013711515722935588 0.0
0.0021079411917875033 -9.503724380563426e-5 0.0
0.000653553624009288 -0.0002526723258237019 0.0
0.0006564954891043778 -0.0002654614700051314 0.0
0.0006310303700431962 -0.0002517226903903829 0.0
0.0006047400976430867 -0.00023818597248689299 0.0
2.4269972346737033e-5 -1.0669908264403516e-5 0.0
4.4667091960032306e-5 -2.049226890732769e-5 0.0
4.9793379922277506e-5 -2.17043784909339e-5 0.0
0.0005659070394343789 -0.00018392957534454964 0.0
0.0005368194893367494 -0.00018296985112456335 0.0
0.0022704082860640477 -4.6377794017466435e-6 0.0
0.0011687345850236305 -0.0004329287212144608 0.0
0.0011464195301249095 -0.00042141182925442035 0.0
0.0011460220275519785 -0.0004401852067849022 0.0
0.001123772419737277 -0.00042862045187088224 0.0
0.0011006070207959836 -0.00043487798820993876 0.0
0.0010988039869377871 -0.00041651104791847854 0.0
0.0011462721878433438 -0.00040270911197440215 0.0
0.0015966507750158595 -4.8776160102853706e-5 0.0
0.00025884519778477196 -5.190698314987085e-5 0.0
0.0003052911298426331 -7.626480545116463e-5 0.0
0.00026667947353177 -7.22230476009835e-5 0.0
0.0013890417314203125 -0.00016741829277428855 0.0
0.0005634842388249055 0.0001473803617784201 0.0
0.0011006358257069856 -0.00018625657352897826 0.0
3.7200867938350364e-5 -1.2248816613302273e-5 0.0
0.0006855439629300505 -0.00034846321958461484 0.0
0.000665090377354157 -0.0003459219957542267 0.0
0.0006681011390404851 -0.00033491852782962676 0.0
0.000760563284758152 -0.00034233321349441865 0.0
0.0006535606832230302 -0.00023885847404365738 0.0
0.00030206422428312197 -0.00011286180843489684 0.0
0.00018450911021124754 -7.771095240651823e-5 0.0
0.002257109909146075 -2.611663569005835e-6 0.0
0.0022212069885295138 -6.0071146759550555e-6 0.0
0.00044776350862508747 -0.0002536383278643587 0.0
0.0005301485863027275 -0.00028631687831601817 0.0
0.0005124306982081302 -0.00028600900884763665 0.0
0.000488948913695296 -0.0002704857391281556 0.0
0.0004936225311528257 -0.0002844768417255231 0.0
0.0014049548942755557 -1.9181321896821066e-5 0.0
0.0010089514573903668 0.00011033948656573714 0.0
0.001416435996379578 -0.00041449872502739426 0.0
0.0014363499341171117 -0.0004242230861399167 0.0
0.0014599765907178245 -0.0004112032387288183 0.0
0.0014094830689644925 -0.0004387935561036817 0.0
0.0007034225979080435 -0.0002538662279662855 0.0
0.0012307811558903356 -0.0003251775532707675 0.0
0.000926330139081419 0.00013595747920304698 0.0
0.0009398313867811575 -7.420112700868985e-5 0.0
0.0022770607455964856 -6.362740604250709e-6 0.0
0.0022549166508085946 -1.4782930776151876e-5 0.0
0.002245488915889061 -1.4138284240609205e-5 0.0
0.00047099949535178205 -0.0002692548560652077 0.0
0.0004537378269455166 -0.00026743309769244184 0.0
0.0006730772946467903 -7.278545052265582e-5 0.0
0.0005821152009125853 -0.0002389149384516136 0.0
0.002101445187538777 -5.47073152070763e-5 0.0
0.0017627817688270892 -1.9505746415522954e-5 0.0
0.0010024136650759042 -0.00013157670599264518 0.0
0.0010338766259549133 -0.00012573704798681792 0.0
0.0013830291744862235 2.7794978570511148e-5 0.0
0.0016182076209418914 -0.00029778360855695757 0.0
0.0009424186216546785 -0.0003026283797574323 0.0
0.00094352461333902 -0.0003169962073803981 0.0
0.0002423633935582628 3.8278813338360524e-5 0.0
0.0005370537293931909 -0.00023682654329629097 0.0
0.0005142681328006119 -0.00023362356485387127 0.0
0.0004882127510693587 -0.00021908485695528224 0.0
0.0004923511486608572 -0.0002315554793518795 0.0
0.00040946761014500153 -5.806866493484073e-5 0.0
0.0004101633875240749 -4.164499499615171e-5 0.0
0.0004618255747247933 -8.863875477840788e-5 0.0
0.0014303397127794267 -0.0004458829576215943 0.0
0.0013759060391350377 -0.0003288026324010731 0.0
0.0013436922967768005 -0.0003415928838137237 0.0
0.0013732438513303366 -0.0003535508139697978 0.0
0.0013417384011180289 -0.0003658183599996787 0.0
0.0013624640555941348 -0.0003749844597898246 0.0
0.0014034847124080967 -0.0003367254397768707 0.0
0.001429430327788398 -0.000342977409063268 0.0
2.0656973059575888e-5 -1.0054114886408013e-5 0.0
0.002280813322055813 -8.488543964194812e-6 0.0
0.00180853056399971 -0.0002666050494412767 0.0
0.001284519533546776 -0.0004288235460830553 0.0
0.002104811705565069 2.277377288306669e-5 0.0
0.0012398285475485726 -0.0004080427069856975 0.0
0.0012367943359794559 -0.0004271277614492207 0.0
0.0016669515025680133 -0.00017874053774252424 0.0
0.0014928877630550207 -0.00013641642713357278 0.0
0.0014616401742662455 -0.00013447295177093386 0.0
0.0006939138815737786 -0.0003192083478936905 0.0
0.0004202074866380865 -0.00019880093096621287 0.0
0.0016740078824379497 -8.785063174479258e-5 0.0
0.0017333438622007407 -0.0002792527425137298 0.0
0.0007601051783943108 -0.00021202155376107948 0.0
0.0007877170433414713 -0.0002098835330064911 0.0
0.0007858079599802774 -0.0002209471002586534 0.0
0.0007905672405833625 -0.00019930842089768548 0.0
0.0007585751271815329 -0.00022313572178925495 0.0
0.0008146416277246403 -0.00020859892108057411 0.0
0.0008192682137578501 -0.00019864165144753532 0.0
0.0008280099872642911 -0.00018770318509933915 0.0
0.0016791782316858735 2.755398280559659e-5 0.0
0.0002077089417600681 3.3949283832741845e-5 0.0
0.0016254361950236 -5.5269794320691784e-5 0.0
0.0017541160468257072 -0.00014270578875587075 0.0
0.00041700439648632945 0.00010098473394475498 0.0
0.00030830893956805284 -2.6388732352574782e-5 0.0
0.0004615408912039113 -5.8261812943284735e-5 0.0
0.0003720716889369353 -0.00017975411737627842 0.0
0.0007618202004743658 -0.0001909481399991044 0.0
0.0005973708021743059 -0.00016610874705800177 0.0
0.0006376897071867522 -0.00016771320398899068 0.0
0.0006621753437062539 -0.0001788251519753303 0.0
0.0010509871534142247 -0.00041072021877894613 0.0
0.0010759309193304992 -0.000422554693565791 0.0
0.0010763802027258318 -0.0004423583444490958 0.0
0.0010984414328305617 -0.00039856346608269755 0.0
0.0017009473795809118 -0.00029803539407515943 0.0
0.0008026252568964774 -0.0001421408347395115 0.0
0.0016209400062554427 -0.00015567813818903942 0.0
0.0007577671705426041 -0.0003277121958752868 0.0
0.001146229555814675 -0.0003845101791664466 0.0
0.0008058107439611851 -0.00038303657646742415 0.0
0.0020869694910965403 6.812755021088866e-6 0.0
0.0010706048356006774 -0.0001932704270842234 0.0
0.0002695108117342382 -9.8473344602816e-5 0.0
0.0008135414649879097 -0.00027906463329854526 0.0
0.0008392297128809249 -0.0002897152158792265 0.0
0.000760846234758737 -0.00025808015491033445 0.0
0.0008245048584427488 -0.00034944346409593113 0.0
0.001283054113554673 -0.0002455243862261014 0.0
0.0012493556368225645 -0.00025595043243110743 0.0
0.0012774205700268628 -0.0002621268474350523 0.0
0.001608102024979194 -4.544097044742596e-5 0.0
0.0009685866416823308 -0.00028436748763600606 0.0
0.0007069196594588544 -0.00023720840953242033 0.0
0.0012655617973596814 -0.00011135883750539926 0.0
0.0012558880378317184 -0.0001223954389263438 0.0
0.0002967187441543626 -0.00014263673128673323 0.0
0.0005928315905462962 -0.00029581212380640876 0.0
0.0014671264990409846 -0.00038681455662549204 0.0
0.0012769125665684118 -4.555449135164832e-5 0.0
0.0011269855678329506 -0.0003075796941756209 0.0
0.0010991169749928111 -0.00031449266035660423 0.0
0.0010979760724354976 -0.00033077209457315265 0.0
0.0010716349961048229 -0.0003207778050910825 0.0
0.0010713107560410091 -0.000336987452650489 0.0
0.0011238045440862404 -0.000340328031474327 0.0
0.0013796835637747212 -1.1341852032350188e-5 0.0
0.0008893224854327054 -0.00024678914165689235 0.0
0.0008633375464353318 -0.00025026691443740055 0.0
0.0012260825344843455 -0.0002346385998850384 0.0
0.0007345503548947013 -0.0002590924443130029 0.0
0.0012136008469964062 -0.00043539069660323974 0.0
0.0009157385013036424 -0.00029292333442884594 0.0
0.0010729944125170714 -0.0003053194453110416 0.0
0.0015383801157118268 -0.0004127031424580502 0.0
0.0009812999815778521 -0.00019959203447978598 0.0
0.002143875407440776 -2.306979620461052e-5 0.0
0.0010786143695067198 -0.0002620092652266286 0.0
0.0005021671230002672 -0.0001879429046558474 0.0
0.00106601833738642 7.911251935123625e-5 0.0
0.001534750579183658 -0.000329603309039924 0.0
0.0020483643724014417 3.315839142780498e-5 0.0
0.00031854272197784275 7.612521921492538e-6 0.0
0.00033174087997889793 2.4138179448844983e-5 0.0
0.00037092622108687016 -3.8052757008429923e-6 0.0
0.0003932131452396451 1.6075025435620825e-5 0.0
0.0004337673071847839 -2.772372540135308e-7 0.0
0.0015886667956645343 -7.206415431378386e-5 0.0
0.0008924550339128843 -0.0004030927732551993 0.0
0.0010118102198435723 -0.0001943774591465603 0.0
6.826464974825644e-5 -1.9898095981718536e-5 0.0
0.0008676522875032415 0.0001777919261673597 0.0
0.0008015802468250877 0.00018247425800588374 0.0
0.0015127634201303644 3.963111584117145e-5 0.0
0.0008674561342148888 -0.00034306926349808353 0.0
0.0009856563628543057 -0.0003949199390203755 0.0
0.0008729978012731374 -0.00015214010194315107 0.0
0.0011978674587370913 -0.000229282026031541 0.0
0.0011673295139285938 -0.00022325213101186567 0.0
0.0011744663397303282 -0.00020898696928853245 0.0
0.0013119548629271643 4.91002080043354e-6 0.0
0.0008168359668255374 -0.00029263749185489394 0.0
0.0005655086082098155 -0.00015521869407876816 0.0
0.0008353817657086951 -0.00022896026216120383 0.0
0.0001263519898902324 -5.502306036837387e-5 0.0
0.0011659117767464713 -0.00011561785861202658 0.0
0.00048303889787142535 -0.0002562399300234289 0.0
0.0011415446248757553 -0.00023395483891653395 0.0
0.0006992346753216777 -0.00033387982762236293 0.0
0.0015609968063914788 -0.00013715288068500453 0.0
0.001029908441547438 -0.0002350736019393972 0.0
0.0010448943508448135 -0.0003265106531457026 0.0
0.00196553136698412 -0.00010469696563069184 0.0
0.0004325172094364814 -0.00025211899945765326 0.0
0.002157987163184326 -0.0001126619151347763 0.0
0.0008641273749760236 -0.00019157063691358842 0.0
0.0010248307664773486 -0.0002607080786768426 0.0
0.00020198867323738707 -7.05092090396009e-5 0.0
0.00197851082353483 -6.366014063812868e-5 0.0
0.0011991381260659112 -0.0003511597277943616 0.0
6.991483310077564e-5 -2.2179146746417822e-5 0.0
0.0011165611467012712 -0.00015517084172558067 0.0
0.0011128883807940842 -0.00016425477137746366 0.0
0.0021319827547232233 -1.2416680961317332e-5 0.0
0.0011922731249422568 -0.0004437883526097278 0.0
0.000399608794864322 -0.00019572724720559392 0.0
0.0022057986218812866 -2.8152287160451546e-5 0.0
0.0011451873112060958 -0.00020475044105928107 0.0
0.0010592361842913008 -0.00022928826409526624 0.0
0.0013219279727613184 -0.00031355297227881717 0.0
0.0012933137697405533 -0.00030555678902059285 0.0
0.001206876020403201 -0.00031635516288386714 0.0
0.0010085782395651093 -0.00020547113373944837 0.0
0.0012439334038718821 -0.0004579986550008648 0.0
0.001344595900093355 -0.0004594086382901746 0.0
0.0009515700146502238 -0.00042907352660629685 0.0
0.001023278281115339 -0.0004402619338727786 0.0
0.0014836714624545137 -0.000443836399068923 0.0
0.001477417078660166 -0.0004219881545757766 0.0
0.0007692462294094657 -0.0003858674373914744 0.0
0.0006173929009911142 -0.00034005747694589223 0.0
0.0012937245715995231 -0.0004594927804566143 0.0
0.0008165219821333198 -0.0004001583527289536 0.0
0.0009191310960384162 -0.0001736478183910539 0.0
0.0019415420935008434 -3.643600007603514e-5 0.0
0.0015553904004700781 -0.0002321656618518268 0.0
0.0015424166823196578 -0.00025417688511327147 0.0
0.0007850344433300514 -0.0002330038726992442 0.0
0.0013305397664585268 -0.00020362554763133872 0.0
0.0010481878250523107 -0.000357612852186196 0.0
0.0005610978546100448 -0.00027400949542474135 0.0
0.00042332754946090444 -0.0001681062526959989 0.0
0.0009177916365658341 -0.00023105350134654414 0.0
0.0019847230558510546 1.8717034342101378e-5 0.0
0.0007923377588579516 -2.1904138129481095e-5 0.0
0.0010429038727243463 -0.0001886536357565928 0.0
0.0012218062059004796 -0.0002506744070429409 0.0
0.00016716649856339077 -9.983026597759936e-5 0.0
0.00017379048868300243 -0.00011210644678382446 0.0
0.0009156301280469173 -0.000321001768892483 0.0
0.0007741087764692223 -0.00029799226789633615 0.0
0.0011056888483744903 -0.0002692364382314343 0.0
0.0021176308750593055 2.5598373257468927e-5 0.0
0.0011697320014551543 -0.0003949713512691709 0.0
0.0022482458573741975 -2.8234398972875578e-5 0.0
0.00222651696700959 -5.1221100377632465e-5 0.0
0.0006171435966052309 -0.0001247983088135932 0.0
0.0009442113312850021 -0.00025032533411442756 0.0
0.0009946267701272712 -0.00029322464795594527 0.0
0.002178784236619318 9.4527377161051e-6 0.0
0.001110644385412989 -2.0825748866204194e-5 0.0
0.0014593332518761117 -0.00033020024882200673 0.0
0.001508281799884348 -0.0002701358064508809 0.0
0.0006059838920178059 -0.00032462402285509095 0.0
0.001376574721969522 -0.00024449162206264835 0.0
0.0009465090865141388 -0.00022665007728573945 0.0
0.001450779833346205 -0.00021763608728765118 0.0
0.0014414657893001383 -0.00023616693958967392 0.0
0.0014885921460445 -0.00020352606466654105 0.0
0.000514916892667592 -0.00030002716706640695 0.0
0.0017706241647376763 7.87426106718672e-6 0.0
0.0012583518427625887 -0.000439964095657163 0.0
0.0018038769279109146 -0.0003144071851944477 0.0
0.0016554267199431817 -0.0001566346719657221 0.0
0.0010641284405908246 -0.0001494077912787277 0.0
0.0013421208006790739 -0.00038987542061767484 0.0
0.0008414953001422921 -0.00030332068250776503 0.0
0.0008863997273138175 -0.00020128574338852662 0.0
0.0021054581845994184 -7.703624022383792e-6 0.0
0.0004786199495738326 -0.00014080454989079277 0.0
0.0016023684924829354 -8.19760337465079e-5 0.0
0.0010655638212584211 -0.00010994899955667998 0.0
0.001360639132759062 -0.0002067045170251592 0.0
0.0020118132712830133 -3.507847632222148e-5 0.0
0.00018179399567845367 -6.87277548073502e-5 0.0
0.0015877017703504527 -0.0002634949026036551 0.0
0.001240000490820201 -4.1158874077940386e-5 0.0
0.0012246877830971517 -4.9726383176669645e-5 0.0
0.0012933559964001928 -0.0003697972475530203 0.0
0.0011879149059100453 -0.00027580033284722757 0.0
0.0012219413349402865 -0.00036046102812559025 0.0
0.001608274689587986 -0.00032394667624592274 0.0
0.0016533963724924294 -1.1008562216760503e-5 0.0
0.0011139507424004149 -3.096048797785126e-5 0.0
0.0014983945387389659 3.415829913873361e-5 0.0
0.0019146596557476304 -0.00015310048938149532 0.0
0.001928266298149881 -0.00012958575794186296 0.0
0.0010808746992594111 -8.031853845765266e-5 0.0
0.0007071303036390989 -0.00028956143246957754 0.0
0.0015019549231046403 -2.600047927921705e-5 0.0
0.001106089977126332 -4.717571535784478e-5 0.0
0.0013682722507350339 -0.00026274102429359793 0.0
0.0022083771503533123 -3.917744075248305e-5 0.0
0.00038270093510490326 -0.00020526256849910313 0.0
0.0013427448127337287 -0.000125634498398657 0.0
0.0010955469676622311 -6.371447998331052e-5 0.0
0.0010839691295346596 -7.522998728913572e-5 0.0
0.00037016270113654265 -2.4903604048255512e-5 0.0
0.001988944655394182 2.2443288301851097e-5 0.0
0.0011439633350641182 -0.00010663399266477448 0.0
0.001993317174261916 -0.00010166286016053525 0.0
0.0006821824293315869 -0.0002774186463482352 0.0
0.0016685438357974198 -0.0003925912954564093 0.0
0.001713744841889673 -0.0003823913828974322 0.0
0.0006232897551298605 -0.0002803826313633247 0.0
0.0014221985443841454 -0.00027441052104837133 0.0
0.0009282885935715099 -0.00042504882505017133 0.0
0.001392173644936654 -7.510941941985086e-5 0.0
0.0004173295970310605 -0.0002577489775209184 0.0
0.001177726774718389 -6.373088605940428e-5 0.0
0.0011915037818274188 -0.0001285749162808884 0.0
0.0011920885190597832 -7.160063424720154e-5 0.0
0.0012452769145267798 -0.0002728389452211979 0.0
0.001532337479406693 -0.00027608400161311454 0.0
6.221037339355668e-5 -4.306205344277689e-5 0.0
0.00010639920668971922 -7.42111023788208e-5 0.0
0.0001269345619196868 -8.832332713233812e-5 0.0
0.0020725467686936038 -0.00018010698019051155 0.0
0.00016885330329236597 -0.00011713445543434004 0.0
0.0006365330292520389 -0.0002654298350869257 0.0
0.000279511409132488 2.811008785299164e-5 0.0
0.0018262463405702353 -0.0003341896418385428 0.0
0.000358286064418535 -0.00022748572440653195 0.0
0.0003983290220043551 -0.0002483904684061212 0.0
0.002046119973846686 -0.00019759771689476345 0.0
0.0019946220142931194 -0.00023490752769817692 0.0
0.001173082926899416 -0.00015919989624952135 0.0
0.0008462905461248985 -0.00036188679602364507 0.0
0.001644176857125486 -2.7208924684270984e-5 0.0
0.0018728995329634016 -0.00030711934297906454 0.0
0.0018964865163373845 -0.0002945169651513019 0.0
0.0003195642562204693 -0.00020802162963082653 0.0
0.00022778452024531566 -0.00015348733676761125 0.0
0.0019456291000681453 -0.00026497774953575313 0.0
0.001967588280172485 -0.00022336045715156444 0.0
0.0013065954834418118 -0.0004410295654374557 0.0
0.000267252165002874 -0.00017781170993421758 0.0
0.0015948585156410995 -0.00042051123663520843 0.0
0.00042887384136439235 -0.00021252674585464946 0.0
0.0018204873945507028 -0.00019946305090927987 0.0
0.0006405255169488813 -0.0003360822751652515 0.0
0.0016859048254589542 -0.0002892810249506563 0.0
0.0017622236316154278 -1.7067189355765925e-5 0.0
0.0006231356030041799 -0.00020532534068669938 0.0
0.0004297824193858891 -0.00017898010462538767 0.0
0.0007978290112969076 -0.0003093451553771355 0.0
0.0010507402250398647 -0.0002683987226569716 0.0
0.0018575123437378316 -8.724603256445082e-5 0.0
0.0011225326019878863 -0.00040980015088092867 0.0
0.001171805262597535 -0.00010757077209968947 0.0
0.0011923810079414697 -5.197207010486442e-5 0.0
0.0014688235523145853 -0.00018311637839692378 0.0
0.0016964402357198414 -0.00023153679949353785 0.0
0.00062357360835211 1.3323193328788362e-5 0.0
0.001428580208230892 4.492178010327638e-5 0.0
0.0006761542704030008 -0.00020531168727318063 0.0
0.0018548381771671613 -0.00014993836329882173 0.0
0.00044202944056013235 6.250018278440027e-5 0.0
0.00036856146528757523 4.2610547978432555e-5 0.0
0.00096524077039388 -9.656113116930221e-5 0.0
0.001963006836364043 -4.726229671472777e-5 0.0
0.0011128388681719394 9.730890259852415e-6 0.0
0.0011306718856570915 -0.00012868322691962208 0.0
0.0020797971586418527 -4.0657710057829185e-5 0.0
0.0005737490449835512 -0.00020383210382670015 0.0
0.0007057834835967202 -0.0001545875474110578 0.0
0.0015867216819604965 -0.00017408512724542731 0.0
0.0017486682412102665 -0.0002138592949162117 0.0
0.0005025008566496903 -0.00019858117581720525 0.0
0.0003083523517560893 -0.00015619116500199137 0.0
0.0016766153026524764 -0.00022805581035225704 0.0
0.0007294011118743277 -0.00011943419567409488 0.0
0.0016848414985882014 -0.00010651277566448991 0.0
0.0022564627801886783 -1.764552684802187e-5 0.0
0.0018509498753573074 -3.282929667573764e-5 0.0
0.0012289457530115565 -2.501941945748366e-5 0.0
0.0012617349325340292 -2.196901414182207e-5 0.0
0.0013638915068123687 -0.00015198390965265557 0.0
0.0020394966662524157 -1.3056840434746917e-6 0.0
0.002001644872388911 1.1670511200439257e-5 0.0
0.0001022899301215732 -4.776026653279445e-5 0.0
7.747899435503519e-5 -3.47125520352693e-5 0.0
0.00086776533619292 -0.00035821174047629377 0.0
0.0014041815493158632 -0.00024968634599406987 0.0
0.0008001588456788549 -0.00016017944683060725 0.0
0.0008018170284257805 -0.00015126266929381684 0.0
0.0008111713454472911 -9.381679203131458e-5 0.0
0.0010979183673632178 -0.000347341621717068 0.0
0.0013056105826514132 -0.00013693811857305838 0.0
0.0003546104075924553 -8.096093981353561e-5 0.0
0.0015514065489169002 -8.893306985612518e-5 0.0
0.0012553623220288874 -3.5812393266121357e-6 0.0
0.0009168672613348159 -0.0002427172083100343 0.0
3.595477559004366e-5 -6.325312525668985e-6 0.0
0.0010528956735949223 -0.00025483391970551795 0.0
0.0020645951582389027 -5.0279738876550354e-5 0.0
0.001750250470143129 -0.00010654919636104632 0.0
0.0016642457173603015 -7.528663559111678e-5 0.0
0.001968728058523174 -7.492183292464905e-5 0.0
0.0014230828825551906 -0.00010257552778327242 0.0
0.0008088753348998378 -5.841412288351959e-5 0.0
0.00026502341241648435 -9.13474594009947e-5 0.0
0.0009622577715724725 -0.00014389624550896095 0.0
0.0011992703070866188 -0.00016259909232256575 0.0
0.00033183322117639043 -0.00014199296515554077 0.0
0.000999402526731466 -0.0004369678266124817 0.0
0.0013753295720848203 -0.00010497855266178333 0.0
0.0006615799699651488 -0.00027839162160932734 0.0
0.0015497752588043221 -3.9935216098313455e-5 0.0
0.0018870426632822987 -8.512458212691002e-5 0.0
0.0007278488800566932 -0.0001090157303177012 0.0
0.0016489762283706819 4.0391911620697035e-5 0.0
0.0012472417927492352 -0.00013328288577985469 0.0
0.0010554450110735669 -0.00024175139611722277 0.0
0.0003988209701381807 -9.486194936936422e-5 0.0
0.0007353334288906021 -0.0001641619101204547 0.0
0.0010410730538167364 6.698003143886682e-5 0.0
0.0002948568218217412 4.1490694536038474e-5 0.0
0.0016437372832644106 -0.00017636749889842057 0.0
0.00044104374971416083 -0.0001523120009847268 0.0
0.0010849036469830007 -0.00023569361162568422 0.0
0.0018633228236110118 3.714793865860359e-5 0.0
0.0015575462264696028 -0.00017239953392458884 0.0
0.0007778859747784202 4.737490829005378e-5 0.0
0.00013847005545151162 -4.0493176836615867e-5 0.0
0.0005653133440933233 -0.0001456230915036351 0.0
4.6420120510474646e-5 1.3300111829396934e-6 0.0
9.731220603647718e-5 -3.5430344327669885e-6 0.0
0.0015516291460913201 -0.0001565688098069421 0.0
0.0013156918643644007 -3.384619424587504e-5 0.0
0.0007236908353112232 -0.0003759545350199373 0.0
0.0005157076639011245 -0.00024665818455537215 0.0
0.0018462901869305865 -6.238400525347875e-5 0.0
0.00027431370889810996 -0.00017308095269377697 0.0
0.001496114850095258 -0.00018661374269029384 0.0
0.0012251702897966717 -0.0003428280240745262 0.0
0.0018266165984996727 4.671203931036964e-5 0.0
0.0006520030193328763 -0.0003204620710420879 0.0
0.00196595812915401 -0.00018379025041809246 0.0
0.001134799905753841 -0.00012130136953591766 0.0
0.0003831720860660748 -0.00023030828000961863 0.0
0.001502023687049476 -0.000422572182212926 0.0
0.0003796631532378741 -0.00016116205578572265 0.0
0.002123441995314905 -5.201567760637268e-5 0.0
0.00027683146922958244 -0.00011313482398011652 0.0
0.0015704351475992156 7.209249820336494e-6 0.0
0.001428543459506552 -9.038391301440909e-5 0.0
0.0012029027356982487 -4.04461386930327e-5 0.0
4.9317062452650895e-5 3.232591322619214e-6 0.0
0.0009583063177713291 0.00012197797227207962 0.0
0.0006101589303329358 -0.00011282461401665973 0.0
0.0017327302736291463 -0.00034733287679986595 0.0
0.0017571200912904815 -0.00036910760930404003 0.0
0.00016063283058444174 -1.6400963927648976e-5 0.0
0.0012845945063831665 -0.00012430402245535484 0.0
0.0005358259910991648 -0.00024873712120929164 0.0
0.0008905860815968381 -0.00025863398324263664 0.0
6.562982433005194e-5 -3.1665779048680014e-5 0.0
0.0001239128916159125 -2.8081417138266956e-5 0.0
0.001220373773201061 -0.00017715843559384687 0.0
0.0011147740724373025 -0.00022867941713968659 0.0
7.938875946052193e-5 -1.6301465666472554e-5 0.0
0.0002273696491775814 -7.647011115975671e-5 0.0
0.00018865803743577377 -0.00012957579167144405 0.0
0.0018370570422305893 -0.00017336158993302777 0.0
0.0014310437586862682 -0.0002549756113247222 0.0
0.0002809046423450576 -0.0001403163495721468 0.0
0.0017380338882926492 -8.702137957660428e-6 0.0
0.0015973247464959803 -2.3245648811331516e-5 0.0
0.00013523717436957514 -8.731652966714503e-5 0.0
0.0009282447569170068 -0.00011505428910868708 0.0
1.7885873001877283e-5 -1.0305227203603879e-5 0.0
0.0022803560594509198 -1.4157832499539764e-5 0.0
0.002203713106951318 -1.4517889179530102e-5 0.0
0.0006613172365305025 -0.0003561357950871124 0.0
0.001740520204463506 2.2413273877204316e-5 0.0
0.0014331222129305428 -0.00032195743227626003 0.0
0.00030380928822856893 -0.00012009227270447684 0.0
0.0013689235118854149 -0.0004584636742027109 0.0
0.00032009997753878165 -8.711760648024471e-5 0.0
0.0019528782300835157 -5.7490695631657264e-5 0.0
0.0008634614881249739 -0.000261728943060488 0.0
9.59793216919043e-5 -4.231385011011149e-5 0.0
0.0010593550340606368 -6.829246841675873e-5 0.0
0.0010537447420855463 -7.454560800703874e-5 0.0
0.0020620887238584572 3.0367338477610932e-5 0.0
0.0012182100930472302 -0.0002663402510804537 0.0
0.00015053192821610231 5.765183399555642e-7 0.0
0.001938313136661981 -0.00024707404570774717 0.0
0.0020807538391309603 -2.95846204932691e-5 0.0
0.0015859167018706538 3.048227803897672e-5 0.0
0.0016268781762613534 2.1268567157074167e-5 0.0
0.000934199980084991 -0.0003779631689105799 0.0
0.002216222096610928 -7.246608967456795e-5 0.0
0.0009604655338573619 -0.00010379239879696412 0.0
0.0002524824163185092 4.272376338904578e-5 0.0
0.00027695013640274433 -0.00015062388572350445 0.0
0.0006956078002939438 8.2897510376524e-5 0.0
0.0019486210598003177 -0.0001794121761992097 0.0
0.00011001888599758177 1.1240816007897657e-5 0.0
0.001174114786749043 -0.00010033550634255165 0.0
0.0017614003580789287 -9.012148180694337e-5 0.0
0.0013942335701995316 -0.00015534970348868177 0.0
0.0022397380455742204 -1.0569837983103887e-5 0.0
5.7841244618298915e-5 -2.1017666656145108e-5 0.0
0.0020932954789754372 -1.738254398212669e-6 0.0
0.0022485411194706137 -1.1223591712880993e-5 0.0
0.001052714099622946 -0.0004271472045594482 0.0
0.0012579617548930985 -0.00016878369516760318 0.0
0.0008217042246148357 0.00015305859148104036 0.0
0.0005278138532295316 -0.00020040460738482579 0.0
0.0006970311622187692 -0.0001422220117081615 0.0
0.0009194015338057931 -0.00012249067608078546 0.0
0.0004447500789386199 4.6307581849575596e-5 0.0
0.000794845166244925 -0.00029503334679500357 0.0
0.00040420331979440396 -8.356184947509038e-5 0.0
0.0002849301226635963 5.3720675730410273e-5 0.0
0.0010249858422772913 -0.00016488494282304044 0.0
0.0015652383701290518 -0.00025913746367450916 0.0
0.0018728890651974757 -0.00015282708403444964 0.0
0.0007679466813782427 -6.023032136633634e-5 0.0
0.0005371441102171657 0.00011454087726256166 0.0
0.0012739304160074515 1.1753153181615649e-5 0.0
0.000651370058768999 -0.00011228858766043645 0.0
0.0017785696937656402 -0.00015458933177434425 0.0
0.0006949014750484928 0.00015626761496491233 0.0
0.0006296050885384852 0.00014828565930755862 0.0
0.001194958350654049 -0.00024472384789593946 0.0
0.0013171947978116321 1.1218898213170991e-5 0.0
0.0008580429008397456 -0.00041085878883968926 0.0
0.001641841410689856 -0.0004074493629961951 0.0
0.0005956245377009457 -0.00019487482440443482 0.0
0.00152826998386413 -0.00043614655277329274 0.0
0.00048417402768519623 -0.00010287984516805879 0.0
0.0018095381578905243 -0.00015048933547402924 0.0
0.000836433328840405 -0.00025280367997263084 0.0
0.0019401228244121118 -7.980806098526147e-5 0.0
0.0005289713012947829 -0.00019099994984014346 0.0
0.0009921468117698546 0.0001074506632214131 0.0
0.000812285619560345 -8.29287998109988e-5 0.0
0.0009707401542632792 -0.0003254535215287921 0.0
0.0010532035999725018 -0.00013022696638056937 0.0
0.0010486241558045426 -8.043426119454381e-5 0.0
0.0006106095556832305 -0.0002517383331547072 0.0
0.0006181282016731299 -0.00026645681232860633 0.0
0.0004058537633410719 -0.00013880889286926204 0.0
0.0006825800992119809 0.00020353769200281947 0.0
0.001005918675949366 -0.00037364604994183647 0.0
0.001970638013212514 3.429665829719957e-5 0.0
0.0017298914735865614 -0.00021075437087990115 0.0
0.0012715951789040241 -1.2038903033291562e-5 0.0
0.0005707909006647786 -0.00019409850544878455 0.0
0.0015261080094247286 -0.0001360920241125312 0.0
0.0012534044678674343 -0.0003338047043323579 0.0
0.0008354904664149218 -0.0002405532300677204 0.0
0.002103946023894373 -3.7314993823749874e-5 0.0
0.002223392260345164 -2.5761537026780087e-5 0.0
0.000767803143728176 -0.00015428257267123305 0.0
0.0014521952620164184 -0.00043331431819437825 0.0
0.0019940610277834215 -0.00021319560463113388 0.0
0.00010301363028047833 -2.894429742865659e-5 0.0
0.0005323376750465307 -0.00014458968504696897 0.0
0.0006227194184800937 -0.0001956892065659768 0.0
0.002039108397144221 -0.00018344509712816368 0.0
0.0007910971689901906 -0.00028066386144715943 0.0
0.0014642475290743222 -2.3351488630437958e-5 0.0
0.00023547760181605445 -0.00015012230251167758 0.0
0.00126513328476528 -0.00019899703238571585 0.0
0.0018724900025856195 -0.0001290904076638044 0.0
0.0014660330304647902 -0.00024074074741468687 0.0
0.002142942054597931 -3.704233130621234e-5 0.0
0.0014833275087414428 -0.00039680036088880587 0.0
3.5695925780938045e-5 -4.239024682895504e-6 0.0
0.0009769212190739974 -0.0001625095199364446 0.0
4.587549336115514e-5 -1.890094344953573e-5 0.0
0.0007312156972702614 3.64171263143524e-5 0.0
0.0004689333713304699 -4.425964108521192e-5 0.0
3.9435537629848434e-5 -2.238142774904212e-5 0.0
0.0005774516786772678 -0.00032724589569923775 0.0
0.0005366667258724747 -0.00029967061498384085 0.0
0.0009717105458474893 -9.007862105925153e-5 0.0
0.0010053562939704335 -3.7535331031777286e-5 0.0
0.00040325278401872185 -0.00024095098196041028 0.0
0.0006892664981326796 -0.0001111722987872024 0.0
0.0013084306696590734 -0.0001276966673750217 0.0
0.000400096522934698 -0.00016436394471929942 0.0
0.0015010362118917143 4.158243754293158e-6 0.0
0.001284611305713755 -0.00032383553629348804 0.0
0.0002915731829823995 -8.436950766302335e-5 0.0
0.0001841953736338598 -0.00010546586057070163 0.0
0.0011504735344474075 -9.32435855920893e-5 0.0
8.908081649950788e-5 -5.6802662872641417e-5 0.0
0.002177521468337144 -9.080492764826001e-6 0.0
0.0007899055479043018 -7.235050063068518e-7 0.0
0.0010342107207290444 -0.00015439987785442416 0.0
0.0019170209506575108 -0.00020385410432154522 0.0
0.0021239675409580193 -0.00014321799948922967 0.0
0.00177225481090232 -7.438455869942749e-5 0.0
0.0010024060996013048 -0.0003573430345044321 0.0
0.0013184287753006296 -0.00018590760412150897 0.0
0.0018636241305141888 -0.00028990402622110624 0.0
0.0010984457537718591 -0.000450305409216617 0.0
0.0018482726077401806 -0.00013049362631558595 0.0
0.0014755393601250848 -0.00022203224407182714 0.0
0.0007650800007977657 -0.00026985635156494015 0.0
0.0013885417997551882 4.8333294968884675e-6 0.0
0.0008069374853960174 -0.00023011020158930125 0.0
0.0006854019994098377 -0.0003366319130748839 0.0
0.001024319750485886 -0.00013459438796405352 0.0
0.001695513868709613 -0.00036226028415267783 0.0
0.00040149697639692755 -0.00013032326004395827 0.0
0.0003426953504944965 -0.00021133129361977263 0.0
0.0016213101156466255 3.878826396746107e-5 0.0
0.0005031180382209895 -0.00015160663255167688 0.0
0.0013431649741399568 3.556496442316687e-5 0.0
0.0008379160157291056 0.0003016726433489237 0.0
0.001741318206727748 1.4581831144255667e-5 0.0
0.0019400228582209212 -6.951670848831855e-5 0.0
0.0011061617046469008 -5.821548430425849e-5 0.0
0.001726781008881138 -9.149891503932774e-5 0.0
0.0013187996482842484 -0.0003577665579544199 0.0
0.0014119287679748719 -0.00045776794085034054 0.0
0.0006506472399727971 -0.00019549090974793146 0.0
0.0007640294689208227 0.00016946278565888091 0.0
0.00043857135143677417 -0.00013574667532900014 0.0
0.0004973223552270676 -0.0002958108373533759 0.0
0.0009563463149022582 -0.00017584947943519372 0.0
5.774235055137878e-5 -2.0060417615356892e-5 0.0
0.00038893065018618777 -0.00022181133232679706 0.0
0.001078618356335513 -9.003876562837924e-5 0.0
0.00014334230636436524 -6.525426491823822e-5 0.0
0.00012124615168308945 -9.854954062456436e-6 0.0
0.0011384913201142358 -0.00022289045597468927 0.0
0.00117775586657948 -9.364883844992494e-5 0.0
0.0020915766569248643 -0.0001484574287605042 0.0
0.0009264628037507534 -0.00010839559566196827 0.0
0.001578249056042476 -0.0002369646085188467 0.0
0.0012038459823460244 -6.28826600620229e-5 0.0
0.00030778365400979657 5.117817599022368e-5 0.0
0.000395892419500486 3.2421615938864704e-5 0.0
0.002182825052318695 -2.3748865535150462e-5 0.0
0.0014271191015457544 -1.066543605433415e-5 0.0
0.00033193164655377714 -0.00012645879940120802 0.0
0.0013526773305215921 -8.241063441790491e-5 0.0
0.0010673721577186812 -5.267290427902266e-5 0.0
0.0011559356047668398 -0.0001229282529201017 0.0
0.0004553519394071919 0.00010639488607974384 0.0
0.0011457082882970063 -0.0004560428866923908 0.0
0.002066770016675101 -1.275164468352834e-5 0.0
0.0011253828331558293 -0.00019021093597381946 0.0
0.0011596546564985016 -7.561321709114688e-5 0.0
0.0014434048649658274 -0.00012868820063607035 0.0
0.0010109700526130469 -8.57619428777896e-5 0.0
0.001133260801115355 -0.00017784285793283808 0.0
0.0005605939174110564 -0.0002645622573471745 0.0
0.0015121251922050446 -0.0002072521845005775 0.0
0.0009053018934456995 -0.00015218897998201246 0.0
0.0011518666131702807 -8.747646032731297e-5 0.0
0.0017767011628110933 -0.0003636259269268447 0.0
0.0009708383303274261 -0.0001357397088386255 0.0
0.0013703459930185459 -6.206508024489028e-5 0.0
0.0012127823896963175 -5.6764170489117955e-5 0.0
0.00019442884237456465 -0.00012637882650096125 0.0
0.001742908581870231 -0.000191987286251895 0.0
0.0011920889648842378 -7.839559284684796e-5 0.0
0.0006518935321114176 -0.00033276399193356797 0.0
0.0013497826734270488 1.9357814812816405e-5 0.0
0.0015742249816312595 -0.00042933614315828394 0.0
0.0022130375533740906 1.4796699291242705e-5 0.0
0.00013081833010014928 4.583821506015107e-5 0.0
0.0009319189702304431 -0.00018098190972016875 0.0
0.0012330448159823303 -0.00044344142118025434 0.0
0.0007840655193903037 -0.0003803707140429152 0.0
0.0008855843969237895 -0.0004174288227113038 0.0
0.00017941161262357392 -6.470395770800362e-5 0.0
0.0016098702442642941 -0.00022340597275626002 0.0
0.0006544170637092046 -0.0001859028590515995 0.0
0.0009369137468406962 -0.0001407357457734776 0.0
0.000768084694524247 -7.251301106255589e-5 0.0
0.0009150204784287384 -0.0004115071408991589 0.0
0.0016204080963947462 2.6065071368959528e-5 0.0
0.00209446835976808 2.5982362921030094e-5 0.0
0.001318105334352424 -0.0003415998477385596 0.0
0.0011192129736241323 -0.00020354228477083552 0.0
0.0007219752786519569 -0.0002652619457861119 0.0
0.0011946975299624754 -0.000460091803300166 0.0
0.0016869304917657695 -0.0001819073409539829 0.0
0.0001623966136681209 -6.875596918797072e-5 0.0
0.0020316865329786226 -3.647604253321662e-5 0.0
0.0009632456065405922 -0.00041915729606761267 0.0
0.000984728539759909 -0.00038032555068188875 0.0
0.0015094419883260437 -0.00037923871433938794 0.0
0.0022588542111175594 -2.6543536014371374e-5 0.0
0.0008273180722231422 -0.00039202575452184724 0.0
0.000724279256048678 -6.059177436859172e-5 0.0
0.0007403616563759259 -0.00015682770866380565 0.0
0.0014299070078625043 -0.00014481164185016452 0.0
0.002190882241626894 -1.0253207489668615e-5 0.0
0.00019910174068391487 -0.0001108936495007947 0.0
0.0011396876013683803 -0.00016706852706534786 0.0
0.001977214541391381 -0.00019230613888394484 0.0
0.002184048727599486 6.414836277564876e-6 0.0
0.0006297447906257648 -0.0001365680194638909 0.0
0.000985522938143811 -0.00042434763721381356 0.0
0.002114066306032395 -3.109903249646338e-5 0.0
0.00039956322738364845 -0.00021130992878303978 0.0
0.0022268489581443655 -6.649243378606427e-6 0.0
0.0007050034969789692 -0.00037250654594287987 0.0
0.0015223163925776534 -0.00018904781529429152 0.0
0.0004191036587649952 -1.734724166997314e-5 0.0
0.0014043276435933957 -6.0902032299992956e-5 0.0
0.002191269877566122 -7.708707414103968e-5 0.0
0.0017219829605328108 -0.00016554688751127026 0.0
0.000624300658363349 -0.00033403932137583334 0.0
0.0004580588749813479 -0.00027898073166683846 0.0
0.0005585735361059202 -0.00024519037924278464 0.0
0.0018237932012170432 -0.00031199448375743397 0.0
0.0016936103715704549 -9.382975547225218e-5 0.0
0.00035835824697491516 -0.00013299812810727593 0.0
0.0008836156177307538 -0.0001765706277891318 0.0
0.00142337572746677 -0.0001609808643035945 0.0
0.0008499213653745622 -0.00019901451654686297 0.0
0.002140118454067389 1.793765147543632e-5 0.0
0.001544998099595381 -7.815174217608055e-5 0.0
0.0009033156018886408 -0.00014536400872827983 0.0
0.0003660130641017195 -0.00012450889649326063 0.0
0.0016313512749227784 -0.0001929458896276248 0.0
0.001348616760185646 -0.0004256592889759024 0.0
0.0019151580572961532 -0.0002654576292808917 0.0
0.0007498550600677278 -0.0003717785854836959 0.0
0.0014526849104715062 4.353791904288707e-5 0.0
0.000809649640014923 -0.000218518034855311 0.0
0.0012814390697877198 -0.00044562251261334 0.0
0.001899145844285056 -0.00020124603149405916 0.0
0.0016909261315358767 -1.3610908581104166e-5 0.0
0.0021397014884844854 5.659407024716269e-6 0.0
0.000554811075736848 0.00012637711439332026 0.0
0.0020753941905202094 2.324895421029995e-6 0.0
0.000712353882866889 -0.00024727533906226403 0.0
0.0019048154035138795 3.813552680027825e-5 0.0
0.001346246513362145 -2.403732035321404e-5 0.0
0.0015617034562252403 -5.189112469093846e-5 0.0
0.0006739966072983138 -0.00017372417658102207 0.0
0.001577679199243507 -9.433624232969984e-5 0.0
0.0010324000268061308 -0.0004296835586587709 0.0
0.0005864837555948209 -0.0003129776206048082 0.0
0.0012021708429818092 -9.439608807010134e-5 0.0
0.0016824092948019504 2.5020840706382e-5 0.0
0.0009684880674051507 -0.0003984993238869367 0.0
4.303077377585441e-5 -1.695736806443226e-5 0.0
0.0022029299062783832 -1.3355929513986785e-5 0.0
0.0019011472841841976 -3.822756845252522e-5 0.0
0.000965283850238721 -2.5439262410793634e-5 0.0
0.0022367491771846403 -2.4055096596708167e-5 0.0
0.0006354731997755966 8.856093883323811e-5 0.0
0.001075196395951874 -4.375394015043685e-5 0.0
0.002278311837581146 -1.9417226443603598e-5 0.0
1.8150191172302707e-5 -1.2327017031061263e-5 0.0
6.386265548241e-5 -2.9120365913183497e-5 0.0
0.0006504304348903865 -0.00010297189369393469 0.0
0.0013388850735211804 -0.00019043168557141116 0.0
0.0015664785783292903 4.072623149181874e-5 0.0
0.0016991220097156928 -0.00033806818796701724 0.0
0.002211180937927986 -1.6922768836760246e-5 0.0
0.00017969047234116104 -7.8318835458102e-5 0.0
0.00046736754308595777 -1.3935386305024635e-5 0.0
0.0013556585023423526 -0.0004064069179976773 0.0
0.001969297990154629 -3.914408257614125e-5 0.0
0.0005749266230074223 -0.00024588247536353836 0.0
0.0001267085490213729 1.5444695150115764e-5 0.0
0.0013836686935460615 -8.436290352705445e-5 0.0
0.0006861968534717543 -6.247229994617992e-5 0.0
0.001668005342207496 -2.944632185177943e-7 0.0
0.0010556491226186822 -9.062871904332111e-5 0.0
0.0008418019829622387 -0.00020795724017549756 0.0
0.002000820675993192 3.473883771109277e-5 0.0
0.0020143678394339585 -0.00020535665554750117 0.0
0.0016330515752041594 -0.0003902003276110739 0.0
0.0005068780399229677 -0.00014450625949091278 0.0
0.0020918967828709154 -3.063665568749948e-5 0.0
0.0003540651518488412 -0.00014869506880246818 0.0
0.0021161659657359033 -1.0760859753852564e-5 0.0
0.0018424300963839325 -0.00030738002960132205 0.0
0.0013756971793504877 2.8032205047015234e-5 0.0
0.001520209204348144 -0.00042341770875875323 0.0
0.0016662811197282138 -2.5817296956314106e-5 0.0
0.0010303623146796167 -0.00011857343494864446 0.0
0.0005800113541596584 -0.00029873022169080323 0.0
0.0008830118721662587 0.0001381058918269792 0.0
4.770330052539488e-5 -3.203211824726929e-6 0.0
0.002179935461613127 -1.6519277839948936e-5 0.0
0.00025280423353109054 -0.0001627837413446317 0.0
0.0016547122751376388 4.36682737949855e-5 0.0
0.00041999141684621785 -0.00025076365735104543 0.0
0.001527255599320851 -0.0001747329103643547 0.0
0.00045767207717135015 1.3823868720439681e-5 0.0
0.00020816623582594693 -8.761396811299475e-5 0.0
0.0003046449549197189 -0.00020185060914772464 0.0
0.0002712852818697599 -0.00014084540323558922 0.0
0.0008005718697399926 0.00019867428549575565 0.0
0.0017623613832342983 1.526400094662845e-5 0.0
3.4053428347278086e-5 -1.7410927016690788e-5 0.0
0.0018867568981409985 -3.207150826449876e-5 0.0
0.0017699115500888424 -5.323737045911691e-6 0.0
0.0013754868640632432 -0.00017927850031709602 0.0
0.0010503888338232626 -0.00010146726113091843 0.0
0.0005970275800183149 -8.594904421766895e-5 0.0
0.0010635875570703828 -0.000122710927747383 0.0
0.0013846132610244423 -0.000373199388594148 0.0
0.0006793463873864567 -0.0001868807165206265 0.0
0.0005237457567129128 -0.0002979473274537885 0.0
0.0019041930650613328 -0.0001349809599873213 0.0
0.001486502845815413 1.8545750830576484e-5 0.0
0.00024012387347745434 4.080571936821845e-5 0.0
0.0006850639948703396 3.792200824686446e-5 0.0
0.0014935090058924422 -0.00012704596231212948 0.0
0.0013852587372917566 -0.00044391095775245975 0.0
0.0008793390279276553 -0.00018536767914984002 0.0
0.001752388974859082 -0.0003501751985993089 0.0
0.0001551914676019764 -0.00010228323556911677 0.0
0.00153316828714861 -0.0003638904092737448 0.0
0.0007690705012803807 -4.716817833773461e-5 0.0
0.002112226284047936 -0.00013687088145490154 0.0
0.0007448306011708267 1.457211253544687e-5 0.0
0.001386046211560735 -4.6308467742171165e-5 0.0
0.0011486078566536409 -0.00021422655624027997 0.0
0.0010838331596524752 -3.5057069362139594e-5 0.0
0.0012458421337860324 -4.968394243069896e-5 0.0
0.001333822471615438 -0.00044326339116101547 0.0
0.001713027344054431 -0.0003595932102926678 0.0
0.0005525510201013363 -0.00019468191685307758 0.0
0.0013126277065351989 2.7324531418378288e-5 0.0
0.0012774433134241706 -3.055816682763444e-6 0.0
0.0017093822176495253 -0.0003098051515463248 0.0
0.0010379767020371744 -0.00011168430049170725 0.0
0.0010680617689936207 7.591924822465837e-6 0.0
0.0005754262531766494 -0.0002855591058996573 0.0
0.0020967021412309546 -0.00013011922956951145 0.0
0.0014440907475029947 -0.0004536728151582141 0.0
0.0009703188486852298 -0.0003875489738225459 0.0
0.0022055924353327127 9.972357292472466e-6 0.0
0.0009559862434700345 -0.0003457231598071476 0.0
0.0017320678367048503 -3.473584570704985e-5 0.0
0.0005943960377576768 -0.00012801467729902483 0.0
0.0014825179897500261 3.1024122345503296e-5 0.0
0.0004286267966954588 -3.234079229039164e-5 0.0
0.0009633154775321403 -8.019321816964581e-5 0.0
0.0007803328831123194 0.00025415362367711876 0.0
0.0022474858176672096 -1.034942512680686e-5 0.0
0.001327085994952212 -0.0003287423007602313 0.0
SCALARS damage float 1
LOOKUP_TABLE damage
0.5955610587537046
0.4727493573867472
0.8498313327400142
0.3047741439082818
0.985763715137462
0.9958962669076525
0.2106015465896614
0.792042747472774
0.7936120472059702
0.8075400650626733
0.8312275644253696
0.8477739899174145
0.8671804730916618
0.8857194948685931
0.8935872070107755
0.8945408372049679
0.88799778930172
0.8798573836347078
0.8682773167148733
0.8549699415544092
0.842406988847073
0.8360465357643106
0.8239213444045614
0.8129480639709842
0.8053214043455506
0.7965390966215296
0.7836466846097907
0.7717164897392246
0.7550848189040854
0.7384257114553279
0.7119094392084345
0.6790233498704292
0.44092123591674204
0.5853628113149919
0.6033478602769488
0.6322337868747281
0.6511839361428934
0.663675284541934
0.6769763098837032
0.6849336687462317
0.6934024047932559
0.7020294744837314
0.7080255005070575
0.7141560748509925
0.7224635183827831
0.726468776125371
0.7248884046009744
0.7326330324682346
0.7397548968670636
0.7487067430947124
0.7532993204816233
0.7595166028734558
0.7641666277007554
0.773677966319378
0.7740228429046946
0.783276398214986
0.7856457732559873
0.7928412979722893
0.797854451048767
0.8069769852543897
0.8073430619187607
0.8160156289003194
0.8210666622247476
0.8286907248773795
0.8341364740137021
0.8373248710926972
0.834616557240176
0.8333928927465539
0.8383391582858424
0.8318806936863762
0.8487265884830867
0.8534225501761685
0.8531038015657206
0.8729554708120473
0.8781871447007511
0.8862740320644523
0.8968012009547198
0.8975078523576949
0.9118109713747033
0.9133503297730605
0.9208495681849544
0.9252207735551048
0.9256772366448063
0.921716106409601
0.932969181757531
0.9366917723257182
0.9542174457269826
0.9539608843259186
0.9682369368685445
0.9739148524436654
0.9777920966837101
0.9819977103409484
0.9841866332776215
0.986755189084289
0.9874608213130778
0.9902004860881076
0.9891072160635443
0.9897729878319239
0.9889052295338604
0.9865045903895235
0.9848208268359185
0.9830352422745854
0.9778960396355602
0.9710272411485394
0.9558905052197137
0.9431094367510361
0.9345647805692161
0.9228968776568671
0.9170642009597523
0.9027438018778661
0.8885867779910196
0.8701901872542744
0.8752530319475795
0.8540779265967777
0.848143820180734
0.8289920695333978
0.8152536189046663
0.8032047450688176
0.7838871174627691
0.7699605502845757
0.7605600475212185
0.7446836996920252
0.7237481999832328
0.699467041883561
0.6856899663886896
0.6677262944954172
0.6492546793271613
0.6032207474612272
0.5635765097506357
0.5524059796522268
0.39562282696073214
0.5245501818917562
0.6223306446039923
0.7107077353607324
0.7425132873532302
0.7592787083458357
0.7677608344833501
0.7737523657511363
0.7781157599882982
0.7817926361754598
0.7877786928007655
0.7924740129707785
0.7957848037389379
0.7985943248322124
0.8003165152794077
0.8001968614395032
0.798617334141257
0.7952977951583132
0.7936191345362821
0.7922811663363796
0.7940118428873173
0.799846583868453
0.8083321624217329
0.82637837775753
0.8559905579327453
0.8991552312834012
0.8898889952662747
0.9859390267151916
0.9973935075812517
0.9965489712655514
0.9933452130655908
0.9974410296999625
0.9678285029807144
0.9192655793280021
0.8572250179760615
0.7908088989198042
0.7188630200763932
0.6615896180830568
0.5935930290514986
0.5178832422377202
0.4378830482721366
0.39197786646950383
0.11618629435798905
0.2821878489635184
0.40651259738493195
0.5089621946105559
0.6004164291904533
0.6953304803084828
0.7711322994977956
0.8476133254058515
0.9180469218903846
0.9607984619822123
0.9965380216041362
0.9930363754413517
0.9961953972105344
0.9839374441206011
0.9041502577966096
0.7282412075552416
0.8101551254917916
0.9770600721952787
0.8456030690746215
0.9872188705811052
0.8816540387048749
0.957554387594029
0.9243630477452561
0.9283835112858639
0.7759893179439818
0.8720973562059067
0.745612787171981
0.8473385516412428
0.7968594169263886
0.6534093656797872
0.6736372612842587
0.2345225886395598
0.5770211710884136
0.8079154970046517
0.7218374502817473
0.8105296258792613
0.7896937783111135
0.7895620008802635
0.882866011228731
0.7517451928754472
0.6904032605322372
0.8391693453585225
0.785042917754463
0.7863867542212307
0.7698595237102991
0.8488534902675278
0.9084413226742464
0.9790778324188584
0.9256888982880899
0.987264965815771
0.9535436045508447
0.8383018961777188
0.7927351112463217
0.691127155916587
0.6605388885070039
0.7956441912360979
0.8764037404765336
0.738678120005012
0.7427734387686001
0.9424581357303196
0.9257925715922598
0.8281798905107172
0.8158378985374648
0.829544858280613
0.7972363053809904
0.5958636434681204
0.4315626445888812
0.6069854073378054
0.6114930586004248
0.9832725622808475
0.9424373542026069
0.8391517626068649
0.8230201679336909
0.9705737122907401
0.9062508906399633
0.7642927750280308
0.8505764164790168
0.7331727742211411
0.7059326924648751
0.7769733258839898
0.9143259348102579
0.9705201274510823
0.6808336378970532
0.6971301001086805
0.9923476544932011
0.9949361722363939
0.7543901693359479
0.8867799898556278
0.5545054656213876
0.553531293434788
0.9966533602363523
0.9677920450420905
0.9240278764394108
0.9253088642876027
0.9495437119404354
0.9121892538359558
0.8827242811223848
0.8653907248520145
0.8429747530247744
0.8248216553568225
0.8434012693894367
0.8066969280107774
0.8200205861820876
0.7918185708455067
0.8037100028816936
0.7852746286303367
0.7679839691981881
0.5170947655479761
0.7071724840837688
0.5574365799050431
0.7204171631290891
0.6224544289805993
0.7242825049415657
0.6644143926431039
0.7346132208559237
0.6885811484401516
0.7392120982288637
0.7112688941914911
0.7499657528723187
0.7233390014964322
0.7550698288733344
0.7370899748628227
0.7616150142553626
0.7422352746244668
0.7621010542414024
0.7486774946131258
0.7650058939190411
0.7563409366984565
0.7696807682002941
0.7641194707417812
0.7766995238551965
0.7720089498154021
0.7822083012460614
0.7773555130517971
0.7874205782210895
0.7800265325547318
0.7890254319423722
0.7869804587758678
0.7937505125519886
0.7941101074447472
0.7988289931634218
0.7975694002059637
0.8028511514264377
0.803547608150654
0.6304590398587829
0.8086167490725169
0.7300402242752858
0.7812167337990281
0.8087311331526976
0.813782374256069
0.8134426583226151
0.8084212358212196
0.813142707474852
0.8183985372449277
0.8181237647083758
0.7938089551149247
0.822863231031313
0.8220533780084018
0.8263545519303519
0.8074959365061907
0.8123907457030474
0.8251656787097277
0.8065250588871518
0.8113643397904295
0.8306737005333659
0.8294941148045093
0.8055752919768097
0.8110641676789615
0.8352553291972801
0.8339490899789945
0.8036952122854424
0.808379548367207
0.840087330970265
0.8387845079067294
0.8011446531350154
0.805678170575665
0.845215838041468
0.8435826692581372
0.797271023257023
0.8041630508749024
0.7939425307805783
0.786523821867953
0.8463435305492754
0.8502389346981155
0.8477115131602099
0.840187005375446
0.7766371176056802
0.8448227124636453
0.8356561297882801
0.8399975356352305
0.8018430928979458
0.7928207276631751
0.8086488289947675
0.8546764638284791
0.7983671801373479
0.7882779324684354
0.7774311915519264
0.794089716912633
0.7844134808827976
0.7909281790374739
0.7804136724030238
0.7737684589606487
0.7688782666563839
0.7630053656453303
0.7874573468202022
0.7613960548833756
0.7537518814736837
0.7973145764099261
0.7941052424795009
0.7517145617881091
0.744217672343042
0.8318330329713797
0.8351260313704394
0.8022513904980946
0.7976392881076154
0.8277394335120373
0.831488845718099
0.8403782089722993
0.834363642678587
0.8463747033831511
0.8385958674127231
0.8508810205952991
0.8422880820126831
0.8559785934980048
0.8310235069477362
0.8445559473525216
0.8606447348362319
0.8063428884921139
0.743005646815787
0.7357929080183818
0.8695266176398515
0.8757324511306323
0.8658052781979022
0.8860013536005462
0.8021179277700065
0.882298167836662
0.8721965572460781
0.8105961480963638
0.8068477488727526
0.7988554597121844
0.8896185019599814
0.8800704857922834
0.8157458125169665
0.820131957377621
0.8026405866532289
0.7939058143724121
0.89639039929415
0.8880633170257931
0.8640573125921769
0.9037853471304205
0.8717623066870641
0.8498510602202296
0.7353026826738784
0.7304607778267641
0.729341979111237
0.7269409800086887
0.7204979276772788
0.7207794185450688
0.7136038850269734
0.8249529212912813
0.8287931974545243
0.7977443003606363
0.7890791162371197
0.8950039403105449
0.7184033902017651
0.7086408882726284
0.8329766190682367
0.8368480383277122
0.8155050239780044
0.8777253073826936
0.7821043287294943
0.8543303919199853
0.7606089807838191
0.8240773616425489
0.7187162640054555
0.709091983332968
0.7937323915738957
0.7856868414205215
0.8408133629365321
0.8446493434111679
0.9003701969716664
0.7326562610029804
0.7370631712609496
0.7268751286635442
0.8807069801228847
0.726185808333682
0.7123573561471478
0.8366316537693084
0.7891544422102531
0.78097462774005
0.8213044419731215
0.8208645993006454
0.8176371717169323
0.8186260790172776
0.8484136255664053
0.8517474792065943
0.7970566554369616
0.7335615617667811
0.7272149742918325
0.9030069605402454
0.9145755997237488
0.7598994614621154
0.7495718821851626
0.8868085378819183
0.8626603180155217
0.7845963425278777
0.7976715629451616
0.8558059056696934
0.8585546510403343
0.8544277708441774
0.8611290070518447
0.856886341624738
0.8633968908150573
0.8590912460623973
0.8651267739969652
0.8606970427149153
0.8664735771130946
0.87076716090997
0.8723450239527626
0.8766077817920406
0.8783312148715489
0.8826175891948601
0.8844537333229238
0.8621386783495621
0.8797182782819429
0.8861302060633182
0.8911774512266744
0.8929653301771244
0.7337385170071874
0.7373010864350655
0.7850509211586145
0.7775694451460794
0.8876179379848465
0.8943360892345903
0.8999925208325835
0.9013294378688728
0.7354694200769009
0.737672585424518
0.8167750506141918
0.820186980191084
0.8193401172285292
0.9053366812389617
0.8898309805782492
0.8627018821644732
0.6994455322142887
0.831800287306634
0.9071830999535304
0.9082837955365842
0.9026075794971641
0.9098103448739192
0.8233838170525547
0.8250311189641838
0.8252124316613888
0.778472670730159
0.7815541750559001
0.7738320011471365
0.8254994562166876
0.9150067690419311
0.9169082810224314
0.9110086372342459
0.9190814567126531
0.9120144061459257
0.9198436374921533
0.9269142142935972
0.9274424539012787
0.8086304814594044
0.7373107705378
0.7374564501613156
0.8603016573883784
0.9066287803011819
0.8937506160702146
0.9335138061119134
0.9353303268334167
0.8010905333165931
0.7786706999908486
0.7702669509559751
0.7133838023913415
0.7789228820491231
0.866735407165912
0.8256504878612939
0.7447790656195036
0.9068364530679798
0.894415311160902
0.8679557934994943
0.8085702820788733
0.9107009831414236
0.7386002387526213
0.7833247397189331
0.8336669122062398
0.835191630160899
0.9123922603402758
0.774076644601604
0.7656833690324389
0.7392396648013656
0.7384537125242493
0.7813294991897144
0.9414027279984825
0.9417401071348936
0.7619462822364526
0.7579413658257069
0.9401209351123966
0.8638212996642571
0.7606890231522049
0.7534610929655113
0.8525768708969862
0.8698520604534459
0.840899327832309
0.8938788006835253
0.9478897395378751
0.947792084005313
0.904795382811406
0.9046765684064759
0.870129281564065
0.9409328641599279
0.9464259393848911
0.7416146029847569
0.7396354599810362
0.9540301268025919
0.9517732166157451
0.7558228842141133
0.7485110956328976
0.8429485179151416
0.8484904748128596
0.7467852775520479
0.7421506577438043
0.7430275952947112
0.7371262484721649
0.8701835298770589
0.8908057002175576
0.8227133946280871
0.8397158717293687
0.8184667263867917
0.8668290908856884
0.9592539573455676
0.9560892114285198
0.7959082865646107
0.9389269432279319
0.8805371838228037
0.736842148905731
0.7322461182266834
0.7328179714300295
0.7271106731646612
0.7270566727914377
0.7226677469357864
0.7248105300818661
0.7208535056939878
0.725763690896761
0.7218284052044215
0.728481245518312
0.7160507880118563
0.7197610402615453
0.7433772582760958
0.7469815507697438
0.7079986341453085
0.7131954994158669
0.8009300666047318
0.7555157966239915
0.8973515831296208
0.8969011995036633
0.7392016384827641
0.8719865736227924
0.8742509972691057
0.9036620348570596
0.8954505384607241
0.8706900903301817
0.8831020958747249
0.8858705005298126
0.8389983754441254
0.8558713200866093
0.859742190542712
0.861495533644446
0.8552599180434012
0.7263323063022795
0.8580036470983985
0.8694483119916735
0.7583755009854034
0.9630751720901737
0.9589182481034544
0.9524517410023773
0.9544462489983617
0.8287417539295168
0.8442022628646206
0.8324600117147378
0.9653078621236723
0.7991381475525295
0.9596102609373129
0.9541821379270801
0.9488711669873038
0.9487667708350274
0.9442946857055763
0.9438605021054705
0.9474012494583786
0.9417732340391499
0.703922341846085
0.707098365496471
0.7210056678627711
0.8740324331521448
0.8782617206972536
0.8561034541216925
0.8495343220232633
0.8722966307825757
0.8715324351369719
0.8213447680018823
0.8091217680135439
0.8520999179779737
0.8541708607511473
0.7016344990291302
0.8061597646229
0.8149447666011316
0.8721227243571648
0.7162479848361708
0.8404650940042775
0.9447934703010378
0.9385665902064554
0.7809122390994501
0.7746089636048549
0.8333751257543568
0.7384448510542003
0.7505928425463595
0.756563931504674
0.7331535435257124
0.9587048435303318
0.8575351298777463
0.905822091699025
0.8196228321981276
0.6965816577952172
0.701806358414429
0.7639109750839356
0.9018392698520663
0.8928292313016507
0.8611438903185593
0.77859679727803
0.7735143051540216
0.7789217582396198
0.7743564214450768
0.7724245991478743
0.7710669139465518
0.7757667188266908
0.7715301751190695
0.7792882768707384
0.7760713694947603
0.7837711684559122
0.7801322891914454
0.7893098288202463
0.7845985412458244
0.794071763017592
0.7926870938139619
0.7897851010718999
0.7709590720704429
0.7545629594803045
0.758898581190077
0.7666438107441439
0.7982820398026851
0.7942175557000243
0.8009950965439308
0.9130264601281597
0.9117678158357558
0.9186577936370518
0.9176327598446711
0.9238949687743148
0.9229680646238531
0.9163532432991579
0.9212168746649153
0.9138748017487687
0.4075315492870294
0.9291062651004987
0.9299443301640778
0.8174402305763491
0.8562668554021987
0.8577445873755233
0.8517428400963896
0.8530128932710749
0.8469193891273797
0.8480459541799495
0.8539324305887945
0.8489883167556913
0.8550947958039598
0.8492936770602486
0.8551640063701081
0.8440097981256766
0.8418084643212858
0.8405918392144613
0.8605635822157963
0.8610370870335826
0.7618275531648655
0.7918022395815868
0.6853983115518464
0.8888593661182279
0.8372474262221627
0.8337465358395845
0.7758583505026645
0.7849098394844674
0.9426037830954337
0.8498402066754889
0.8589854129029146
0.8594538047644071
0.8033552346667078
0.8508393483647998
0.8437364079564013
0.7824474504305071
0.9175300614315756
0.9098980991660043
0.8419684928170128
0.8375308953387721
0.834838693921817
0.8314012913384474
0.8345960318791693
0.8283934976538877
0.8331909787442237
0.826463329602507
0.7286880131206147
0.8094207287516911
0.8639880883527636
0.8771689794798013
0.7904871869622306
0.7743563634355601
0.7831181607765451
0.7748706810167614
0.8782940808833233
0.8817256456878757
0.968334416902364
0.7288849612654772
0.83218443796853
0.8773816245616813
0.8923803868220148
0.9382751626082286
0.8543723720124038
0.9357343910065277
0.9314266443353665
0.9342481875834916
0.92598572046427
0.8011977634769255
0.7359579285302272
0.849442196463932
0.7866685080308122
0.8761357316016051
0.769608256149559
0.7743705529670147
0.9704445077133671
0.8280811495785271
0.8892589671291925
0.8899013836427105
0.8421226437680055
0.8425574910141014
0.8521187462568945
0.8163603263597905
0.6868222856351526
0.6942302379466608
0.7130095570107854
0.8413183232244189
0.8612869133324206
0.8230697441981059
0.8339156916543891
0.8016262566076643
0.7982621641488651
0.8463542797088163
0.8203086758165605
0.8544838598782942
0.8521078327910193
0.8444368742058099
0.8321099983716272
0.8432456379642085
0.905291751614226
0.8220698557843807
0.8190828430003951
0.8239891014172894
0.8166791671234465
0.9264361131957481
0.9206701847782703
0.9208965143027101
0.9130520559953365
0.8863838116302428
0.8826795527197597
0.9345899710908842
0.9355741949383248
0.835065660623444
0.8342574643086995
0.8728421957500948
0.8202819939446376
0.8131590782193784
0.8850750724502687
0.876698988508554
0.8889342528522517
0.8789269190158573
0.8857415534907931
0.68453222465423
0.7308941053620032
0.7349937970632716
0.7624821709314286
0.7701830453935329
0.7619247594189924
0.7793789198465895
0.7701361894386787
0.7892456701171501
0.7810815879253434
0.8628008761594022
0.8116089399990357
0.9349757205810542
0.9664859845615087
0.9724647619576546
0.9679779557027107
0.9135847412446921
0.8463942517269821
0.912774339397462
0.8385701990942781
0.8196607132836516
0.8094670609015968
0.8462786685470403
0.8825118712842024
0.8831159565278434
0.9245033531009805
0.9060541646944319
0.7413948520819141
0.7911968578732848
0.7952427506222172
0.7998793672920288
0.7958651320768395
0.9116244116108877
0.9219949458722433
0.8822700472874969
0.8674736987803828
0.828269725449466
0.8989817218050652
0.9334361940385525
0.9307533628088379
0.8731087635307758
0.8872769251881013
0.7776757488607222
0.7827528048834336
0.8024255474148152
0.795270416266539
0.7727099734745594
0.7875403813866328
0.8114476338303367
0.8049367788387406
0.8283514198633763
0.8233020615896091
0.8435406149154909
0.6786206206516442
0.8833290045605269
0.6882709553975779
0.7651638630018366
0.8032979113816477
0.8633772089026808
0.8853352849801674
0.9077714518829574
0.8393742821919526
0.7312483571452447
0.7238807264057122
0.8280092494562381
0.973461638395956
0.8531464299336543
0.9032544363579255
0.8197936031277415
0.838673980396714
0.8321792122295278
0.8361928675654094
0.7718115285711634
0.8298453209333607
0.7553242260969179
0.9398857258251709
0.9412625063454504
0.937426990701313
0.9435421889063559
0.9361275206464993
0.9271948349592029
0.7924722746004137
0.8000650672713
0.884504856916544
0.9002131067280164
0.7574864512544371
0.8173699306761247
0.8097490512394275
0.8235222113135378
0.9208781552028029
0.8537922207936713
0.8058458218212466
0.9482500855758633
0.9512486364939408
0.8774375597215327
0.8770259764144969
0.8705461046160002
0.8176271644052049
0.7344685012462174
0.6683340938888626
0.9388459487327749
0.8614493670702198
0.9096763880495851
0.7311961682849667
0.7827773503508377
0.7373365595657274
0.9069978091360686
0.7590198798572324
0.7524088265492861
0.7567062904825935
0.7501693837237197
0.753480617006619
0.7463972901452625
0.973603890226062
0.9690282329289431
0.8503606461354184
0.916862421518536
0.886757621983029
0.8840640679934734
0.7846411713403249
0.7697125517477352
0.7599954723171907
0.8406204197273084
0.8233434940153157
0.7655737114169572
0.7899874061051779
0.7875773983727823
0.7923341173727196
0.7806481719185704
0.8290945130737004
0.8525977059133206
0.8900824453143632
0.8259619044738349
0.9379499884053735
0.8506214756513817
0.8184132276071181
0.7984604223795311
0.7902289955290337
0.8128338640227698
0.876192156976422
0.8727587194873263
0.7355781972065207
0.7255195642197654
0.7180937241235629
0.7180897906550766
0.7616049622061152
0.6794221951524592
0.7044452233783131
0.9562264247329194
0.957607570991227
0.9513314809983429
0.9208252488197318
0.9244856782103182
0.9114619659425914
0.7444544362796404
0.7421163220414387
0.8787087043643574
0.7925777517650551
0.7938534510257856
0.79034200876228
0.7873357368176549
0.6652630065870404
0.8286336196724
0.8253725833825073
0.8179288460206396
0.8129445070332535
0.806580122527201
0.8193808236776611
0.8770004773438626
0.8291959453542359
0.8298048779871571
0.7205261163135033
0.7123262481964887
0.7737399268494516
0.7730479655579128
0.7716705840740853
0.7763755954773137
0.7817475145671159
0.9021568844738511
0.8983193445018357
0.9066392686061471
0.8784097340576746
0.8603841011954578
0.7546727528257223
0.8622511022376168
0.9755919808959925
0.8550183455389129
0.9106821232682056
0.812198796002532
0.8039310303021902
0.8087694160669869
0.8048024374012261
0.808832861434005
0.8074675164219621
0.8108073100862445
0.8106572719957637
0.8143873604602849
0.8003523121830157
0.806778806168969
0.9773704908346013
0.7812987830041703
0.8321387669840786
0.8251140057057564
0.8439240198567948
0.8270122288147199
0.8020825637916812
0.8730540280494915
0.7886566577175292
0.7399344270930464
0.7668842896712246
0.7880553284235338
0.8189237301439619
0.8186887507379627
0.834262886708896
0.8270861094472511
0.7412298128351689
0.6544984641417965
0.7790321514630127
0.7691851722756509
0.6694486766367204
0.922424225548427
0.9175926372813492
0.9226018637744603
0.9115582541695619
0.8114134739103043
0.8746309106317516
0.7642823205149468
0.8707253600137767
0.8643583196605898
0.8253987036374136
0.8035065623155256
0.8552737449916319
0.9502378436953576
0.9471673375747234
0.9537717496305116
0.9518267165796137
0.957828999930764
0.9601589498549357
0.9648580599108888
0.9618258182262516
0.8103278637144755
0.9043440381669489
0.797317871631764
0.7537960783425002
0.7626021782397474
0.9458535170522507
0.9499809917367051
0.9418485817579371
0.8610599564595111
0.8778432524087046
0.8815628624915947
0.8866382960846004
0.807292151203976
0.8762060736072419
0.9330051320314132
0.9201021611009951
0.8988167103915935
0.8934246330337215
0.9013402493012777
0.7557163606173836
0.8393089144675906
0.8377631414772905
0.8433150749472876
0.843841565962329
0.9179716281782458
0.7685074939619914
0.754078835385862
0.7982813696580813
0.8137244800845244
0.8267245962525518
0.9681088699343865
0.975395782708279
0.8762110849192597
0.7766123588392116
0.7561727569441585
0.9385378977228337
0.8964345460306974
0.8574865711048822
0.82830241964969
0.9063102511460502
0.9313977480559043
0.9346853183151662
0.8724921628303297
0.8963343782884124
0.9025323437232899
0.9546155372893269
0.8199875399100338
0.8499560043447904
0.8813748838601674
0.8897628722760238
0.9436218775988315
0.7962058486679842
0.8208447694019277
0.7370990736217051
0.7774894085675528
0.9413719675255053
0.7413668486671405
0.9138356984911983
0.9197038340477883
0.9650338554694438
0.9665955431774406
0.9276848298847291
0.8672253857316254
0.790116759545656
0.8832983348265003
0.8604009163061749
0.8169785341841875
0.8128643329464498
0.8004741341317662
0.7470039143889274
0.7569981275815857
0.8661744594143671
0.8624572688350587
0.9186067809123847
0.732866956297838
0.7418585442165805
0.7376657730214099
0.9099311248245154
0.8686403225233355
0.8769505135929759
0.8340817647537759
0.8418864230274548
0.8430217753968441
0.8405544938884508
0.8567916404181866
0.8330921715676082
0.8230022758960392
0.814594249897968
0.8039079262472167
0.8167230156355186
0.7882060699078097
0.9064374311781809
0.8401716692412713
0.8501479696117256
0.9626411660238561
0.8387943610302403
0.8445198034025765
0.8354497548243034
0.8309503341700996
0.8382868488863814
0.8267663939514593
0.8267800406445601
0.759335604078629
0.7571171399076418
0.7502764252271988
0.7538657517391256
0.7605347840105551
0.7560429713562171
0.7642001018843048
0.8151707339773677
0.7607376254110769
0.7684508735902417
0.8351418936835846
0.7416960206516255
0.7725968075005499
0.7474869728377617
0.9232911855163974
0.9276535189335365
0.9032384453813879
0.9091824514789911
0.8513479928493818
0.79009105858789
0.7684931699564611
0.7393160273633862
0.7334422682593318
0.7348632683053613
0.6683737545553706
0.6726784514572283
0.6029288515575152
0.6267306906962278
0.5861274414529871
0.6154899656880934
0.6013362905496275
0.6236117403803455
0.6250419154132253
0.6391549314190126
0.6517627351107561
0.6569166275044271
0.672208305678537
0.6768924036728384
0.6930336374955671
0.6961929600246073
0.712150447570978
0.7138263329837756
0.729129467079783
0.7300040442650301
0.7141166568468379
0.7294468188863537
0.7471626053757854
0.6657443297076041
0.7301669283114519
0.695380473266287
0.6837333037533857
0.6434088805133553
0.7158228402219144
0.7298448958252118
0.7436148423518625
0.7430950723177342
0.644316479731346
0.5823395391834084
0.700655077054059
0.5768422857133563
0.7561437691624255
0.7546147796495424
0.7419076190063973
0.7052001062519299
0.6910352483186754
0.7577574655659839
0.7693026115401657
0.7717650895859269
0.7131089237764435
0.649544999851861
0.7529583246373558
0.7420784513793637
0.7315257128800157
0.7317560363809887
0.9411774894426329
0.9352413885404186
0.7908570595523506
0.9340348894778885
0.9413498563465642
0.830356541557762
0.8370212915587191
0.7771685149921823
0.8752344240750123
0.7651419361467025
0.80139731078194
0.7989555271888223
0.8013524715051145
0.8622431703873324
0.8101342496418368
0.8406998742310474
0.8388852601340224
0.8420979858931004
0.8291146734339359
0.8466352860140457
0.8193159300009013
0.8539500440198089
0.8135623749644028
0.8184293130306879
0.8192161358668083
0.8263117308950829
0.83282049013428
0.8276818897525152
0.8334310695021065
0.8282645461357625
0.8337925417269041
0.8287539122878145
0.8340703365232311
0.8390972009482753
0.8383920852178183
0.8637356591358233
0.8579817381871443
0.8579630684621052
0.8523047276898078
0.7398265684334763
0.7160329302200932
0.7087706931984812
0.7048025468863933
0.7002591486857074
0.8712230089537959
0.8718801703443253
0.8838910674521097
0.8252352822600674
0.807269418342718
0.8034743909161778
0.7892398291229352
0.8231789626994706
0.7889470745989454
0.7792855622210603
0.7871180023934318
0.7772017492199286
0.7603469596915944
0.7683203176365582
0.7503750535209833
0.7557902926274724
0.777248006671505
0.8698198495670456
0.7528885532563578
0.7295833325901455
0.7803747843124966
0.7920700780603998
0.8128794140689088
0.9294601553158143
0.930125108200534
0.9240752756976686
0.8757131071046885
0.8509981973675007
0.7963108952119574
0.633968077334586
0.6347105775140868
0.7437048268060241
0.8142832165016035
0.8296660866209665
0.9277594001704592
0.9371839781189049
0.8460810228893084
0.852534245146842
0.8596043864700159
0.887754164254463
0.8808244558735359
0.8870867158141977
0.8105777939409755
0.81728938651427
0.8265381867730076
0.8158565657547405
0.7406608851334705
0.8161461918084726
0.816402328357828
0.9376498101068217
0.7027687879349214
0.6932256328289471
0.6944756696568797
0.6875886407524837
0.7721814637649281
0.7931022620520753
0.792160998894868
0.9088729688165554
0.8225084589570706
0.872436462054833
0.8678347386708354
0.8584360835662141
0.8511302692695085
0.8463067472043505
0.852878063807866
0.8375401958011147
0.9114850055742201
0.9123405217830879
0.9015669270611653
0.763374677568119
0.7597545455030348
0.7417062142154779
0.7461618750718589
0.8450911382780038
0.8394191498578086
0.7421056375540809
0.8710097230454302
0.8532071324719349
0.8476083075280192
0.7716622548146829
0.7763070943850109
0.9054225592059049
0.749898433916617
0.7521435575955516
0.9282257880694872
0.9634611082327127
0.7146474205843999
0.7191866962279395
0.7609807765837779
0.9208656639567054
0.9183923457743332
0.8870136259376618
0.8395113361965697
0.9254909513898412
0.8096494778128527
0.7508078983518658
0.8045778102189346
0.8957611102096096
0.837515306076687
0.7369269549863928
0.8128233881263944
0.923799880438662
0.9292839088031761
0.6519732384626199
0.9660099451684053
0.9692636565814995
0.8521709388912658
0.8586794119029934
0.8623644209586001
0.866001683807972
0.8582733343973461
0.6861202368354365
0.6804846731651842
0.7483593377577664
0.8788330313576808
0.8396104868453848
0.8850956706740776
0.940045062411076
0.9492630037647007
0.6875281358137946
0.678367222113935
0.7881954530626298
0.7391137108415093
0.7342539821774611
0.921577816562803
0.7943366658281384
0.7656399497930262
0.8166780225985901
0.9790907805950249
0.9789324586268101
0.7773206588994206
0.7732761127592382
0.8686774026025257
0.8914415532899372
0.8286681075144466
0.8236372738257737
0.6087244543949758
0.9790065789579415
0.8219451888262413
0.7004036179826628
0.7111416975712005
0.7349544927082845
0.8167085521710621
0.782526244839202
0.7739455780181501
0.7846965984724255
0.7780874108308884
0.7872911956508296
0.7800931267996586
0.7704356821568435
0.7702788302483041
0.758011361552878
0.7619281579612285
0.7907174322148001
0.8477456217243564
0.8248053058713102
0.8187493244153731
0.6566773710249789
0.5056367456584525
0.506076286281209
0.6408044555966806
0.5594782228785441
0.5412647732726759
0.5293343053743071
0.4965560987209336
0.7448862246368457
0.7366525436436729
0.7908875157175643
0.78668429587769
0.7944600154285667
0.9635230515100073
0.9717933524152239
0.7958294391101537
0.7982646382715806
0.7921475957221822
0.7076990771122547
0.4470558501215459
0.773589495333267
0.7630731461238849
0.7504430518876691
0.7552687854994611
0.7381872909861732
0.8081295476629081
0.8058771628292946
0.5865432875435576
0.8916124133034156
0.9106557609878532
0.86935891326009
0.8094351000917821
0.7217929743567804
0.7257352846623968
0.7797485813181105
0.7835168366984882
0.9028875198403418
0.893426918360165
0.8026288430722119
0.87180773329486
0.8758579248489908
0.8851890817193949
0.8887841642920803
0.7970645262558701
0.8142856819628316
0.7980217612379156
0.7860660527389822
0.84696192143929
0.8416044523393953
0.8942386246706192
0.7445303930378908
0.7015395737567808
0.611144612318089
0.6379443148880265
0.6655731424678955
0.6735752308470623
0.6949389653155749
0.647768516441606
0.694418993024088
0.7163850959666966
0.6876155885405579
0.8429984234236588
0.7128218979062461
0.7922054877680211
0.7792647306399871
0.8907975990656911
0.8953841177029089
0.6060759607717244
0.6160818054343165
0.8581834892583148
0.9627629678925981
0.9680550792135353
0.9720762806657332
0.9734276264205459
0.9767215968161511
0.9782009107366426
0.7906584782922866
0.8013953739426924
0.8041109001990909
0.8110038707800793
0.8117970839799831
0.8157809904075364
0.8176509653449707
0.8152068345843659
0.8184471201739029
0.8150946122915931
0.8189880012040451
0.8227350870542645
0.8246860309582983
0.8295473311624955
0.8179296769704644
0.7994677893363665
0.8222772801523985
0.7994047732791858
0.8133706940888872
0.808658636607483
0.6832806099897177
0.7363703463683835
0.6514327733194588
0.65784852559684
0.8916938772549601
0.8652985827954178
0.8084849095213348
0.797120793953181
0.8009627531059704
0.7940165992110806
0.7996796465060266
0.7951349249216684
0.7979136733953397
0.7931412720372929
0.6759091783220789
0.8586006839554774
0.7888882171816133
0.8033441132181426
0.8497399120869827
0.8458558073856981
0.8687880969065357
0.8260885358351654
0.6951139365009092
0.6974010589096084
0.7057008073458472
0.7092173744054286
0.7159649056986063
0.7139055971830435
0.8694577851224357
0.7392862304395961
0.7379990041581841
0.5751890124339771
0.8183145954524161
0.9704984118822204
0.8386294292761451
0.7065166958793447
0.8201889041383698
0.8214950464942695
0.9707252485938171
0.794565042398436
0.7878766493396197
0.7903827803092913
0.7843912402099662
0.787181688315534
0.7820190560710671
0.7788606087575224
0.7827620190004144
0.8012440101591737
0.7836377830369676
0.7831660889937883
0.7939837946567155
0.7784511352324427
0.8971889453146574
0.9554565230861477
0.7733906087503879
0.7603372853051755
0.7730528482121808
0.7828205846367551
0.6977268745389165
0.6811403938470795
0.6961323391567993
0.6793836621216123
0.6642186872149718
0.6608395302374372
0.6739494930991937
0.7207529627012481
0.7722108066430025
0.6931148725760544
0.8717017218568135
0.7887985269716516
0.8717404987295303
0.7251222400226054
0.8840928988229321
0.8477756553534632
0.8540466282800445
0.766419519059254
0.8151503461152818
0.8142693147220841
0.7942772228820658
0.7849153059794385
0.754096080973031
0.7200161167308274
0.9649906670389023
0.9469529651913948
0.9807630338784581
0.6868410487245236
0.857546689458738
0.8730492583211621
0.8882944583813197
0.9266683200615174
0.7711849427608511
0.8003460450214346
0.8416971958758963
0.7337595238175776
0.7385841635655106
0.736160890311824
0.7406395329131741
0.8035497604534748
0.8151521232966923
0.7439750263447006
0.7599796422765283
0.8624052155099547
0.8851384063905681
0.7604455279543934
0.7953180054052137
0.7814246368471832
0.8384517052980986
0.8123315865078153
0.8799274154327834
0.7344620997485396
0.6407042103773977
0.8669696671496465
0.7479058778161193
0.911253723668806
0.8165575538806535
0.8050842272842619
0.8095232652324319
0.8011819365927867
0.7927243361867272
0.7603084564281579
0.7295974417857074
0.7459806274846275
0.7674465927449294
0.7648719155498767
0.7771697317992978
0.9390174237288504
0.9313674030785365
0.9307334416288757
0.9269759855353072
0.9205723562375142
0.9222138194369494
0.929144140607592
0.8940249170759809
0.7621539306245153
0.7437553685068362
0.7485240013007711
0.8658293260355846
0.8990441893135139
0.8440526561103561
0.8154824780918662
0.8352295972876541
0.8311358530551257
0.8293119162391976
0.844405353904306
0.8016091391287969
0.7348757978053004
0.7268190994294492
0.7978468581863821
0.7926076276598742
0.7642490428091625
0.7880601438831584
0.78395265252002
0.7757255761462144
0.7780892574171995
0.6333402165081539
0.5018622592929672
0.9788546286866325
0.9810990555293286
0.9790482599837171
0.9833980782916942
0.8164256603612802
0.9208639282041697
0.6319826748715535
0.6717498480897774
0.7564605292266875
0.7552883104427153
0.7657643073451813
0.7717621285463306
0.7661859597019809
0.6865431170355252
0.7909298158893995
0.8677127136532284
0.9825605561535563
0.7964009468139688
0.7982948984429018
0.8134936232193325
0.9524667974727202
0.8709806256945988
0.8740106248930221
0.8671765307091244
0.7822704418177265
0.775995963941487
0.7688990958631698
0.7715931481404464
0.7391328204358858
0.7435546006012572
0.7270400445298838
0.9858179155274823
0.9484385284509275
0.9461839058807349
0.9541547923785222
0.9503487584247646
0.9575372533014578
0.954385950584763
0.9613880259269543
0.726451346449641
0.7281806853309141
0.9038699908665924
0.9607550694154491
0.8526455657030748
0.9464029418628126
0.952132457814026
0.917336206169966
0.8570316202804945
0.8520001569579558
0.8307211496983065
0.7507696091277295
0.8324407076280195
0.9278953437679032
0.811185101610327
0.8140812130088598
0.8195427149867089
0.8086521045784593
0.8153601709852529
0.8176981985920868
0.8133464868416358
0.807960227894384
0.8680531179949772
0.8199606452201428
0.8192646350304456
0.9068241813767324
0.8846565936515524
0.7799279388915843
0.7284259248752968
0.7389872867457086
0.8001498396342717
0.7640040757128798
0.7685866867659482
0.778919070429541
0.9148503811066481
0.9203281808885561
0.9217976002823938
0.9207365796594003
0.9385734201772225
0.7671997598460792
0.8924924176679112
0.840225333707052
0.9272618731447029
0.8456229223949416
0.7727248880896171
0.8441954208530393
0.7364124207880083
0.8454167823726753
0.8530876320722259
0.8277874562397128
0.8575547113105358
0.8971719455431589
0.8969527623612724
0.9042055979160066
0.8203190721418986
0.8693129424677402
0.809938989572773
0.8155148085300739
0.821331127387726
0.7206707141571335
0.8070288515485612
0.9753587950847096
0.8150261052956778
0.8984955690204355
0.8965402441882241
0.9023183428485201
0.8940822970073417
0.8995902716352303
0.9103885372424062
0.8622864834000508
0.845593753663182
0.8431190798318201
0.8836524274430361
0.8243271461278693
0.9499644381578394
0.8650364931885112
0.8891321368364686
0.9763137917974348
0.8368669902448588
0.7952577024764996
0.8748310084629863
0.7626559480295849
0.4117538130446708
0.9645463766767285
0.8058080616568639
0.8177910253588361
0.8347283388325061
0.792529228183506
0.8090242137887511
0.7782629734541042
0.8218791828490866
0.8689933401104181
0.8385845462233786
0.8088159949972031
0.8625540960362799
0.8466899222834579
0.8417209869646963
0.8675255114325243
0.9017197517738786
0.7900852975571686
0.8769377531838882
0.8707738885873083
0.8641247161277373
0.8613470117955349
0.849342214634331
0.7559579932311224
0.8315970325470905
0.7267726360539069
0.8076585353259789
0.7729006013575719
0.8723280052851291
0.837019722384944
0.8649333699449375
0.8587480029803455
0.8911713912488225
0.901886153626611
0.7599449909100514
0.660245585509881
0.8161280764093639
0.8678573207688091
0.747390296236009
0.8411240841168359
0.9248850853781934
0.7999513900100892
0.8280229268523852
0.8331162620673662
0.7891921366162045
0.9474927893291945
0.7455054433853064
0.8112366578450637
0.8578925846410408
0.8597798478880789
0.9325304725582599
0.9245482949100954
0.9140229914681665
0.8430789971838362
0.9664181144353049
0.9832575319904513
0.8983445504563533
0.9218401759462223
0.9857546819219266
0.9819318837138311
0.8437654103673602
0.8164009528160092
0.9743227896235407
0.8483680096866234
0.8147924636449778
0.8073698191550127
0.9319244632731984
0.9404295789868624
0.8244047471557764
0.881846286260125
0.9010966846910388
0.7935780287120321
0.747954541386094
0.8431318133427481
0.7696527498827719
0.6406280929552537
0.8390121397992975
0.8901485903794684
0.6694132130063798
0.6697501378744676
0.8720357911183466
0.8398155340300477
0.8811304124726221
0.8113625515900009
0.9326834156238581
0.7205382910691283
0.653170082343613
0.7364994789794335
0.8544864778800938
0.8746874933410963
0.7810025916270166
0.5017474575768924
0.9607498724051808
0.9441592934526151
0.8115252631337811
0.9118183314145167
0.8454819271560718
0.9082498798000309
0.9180197172021746
0.9051775694310541
0.7859286662690007
0.7989104139411297
0.9603356776743094
0.8846178044300602
0.8970823589640328
0.8186725841746383
0.959240079819237
0.8567042776577489
0.8273773278733498
0.7839995174775718
0.7444991471714092
0.8251713756656606
0.7889086602507348
0.8886527836656711
0.8074693731992534
0.7432448088267921
0.9481233641773761
0.8007488686528375
0.794296664655872
0.9457292790589034
0.8956805952049453
0.9312511007378285
0.9565853059331164
0.82601345951596
0.5845274515907409
0.8521062817117678
0.8982698746709034
0.9036009449117485
0.750822793269609
0.8249030712405538
0.8326085761218618
0.6642463175706473
0.9198808737535121
0.7941408499479312
0.7436238046399072
0.8325156366154987
0.7199840355032542
0.7414458080953248
0.7693524765432278
0.8878600278936478
0.7983923541592193
0.896284276320504
0.8176421010500895
0.9349244150727426
0.9164800735066866
0.8086207488656217
0.9349360826134732
0.8905770105906864
0.8113559829663866
0.7571622789513514
0.7747831110924641
0.8191756979752415
0.788972566358721
0.9037218554591954
0.9483836130050265
0.5874548951651256
0.6233782396959755
0.646551249869209
0.7112637786708309
0.6706565529211718
0.806778403760175
0.8495620124588372
0.8624239800335397
0.7376904448988291
0.7532334714514971
0.7363302951246766
0.7632416098202333
0.8361646755924317
0.8616508171272635
0.8234874149214634
0.8387465468061607
0.8212688243671231
0.7265671121163628
0.6993643635532593
0.7950415596993465
0.810186282113402
0.9681543298887321
0.7129121280144501
0.9674594507783919
0.7538878968559405
0.9149220429812692
0.8218110198440431
0.9412153447301159
0.8095132264825673
0.7848593258280888
0.7508016915947878
0.847809991574897
0.8738095874340238
0.8541049149611041
0.9257485871282654
0.8028791541075831
0.7747384937265105
0.8895936932050114
0.9385651701708712
0.7424382648624317
0.8669240912616006
0.7946789056693884
0.9152950398829615
0.8422710374292333
0.8444599111369201
0.7332186653160451
0.8189213075115961
0.28818331455828927
0.8132116783472393
0.8167109659153834
0.7779964282103895
0.7664072607349507
0.9006707785096406
0.9306268382363011
0.7660011188640161
0.7217962374171668
0.9395670288843782
0.7309818539221326
0.849959133282817
0.7590034424774968
0.8095837883865038
0.7824086702416495
0.8174563202213353
0.8529605506703561
0.7786874889155626
0.7719234942173315
0.7087567554024882
0.725439081372816
0.8664902214255258
0.9193169920246383
0.7842781189721607
0.7763331451613795
0.6982244055229693
0.9083237847010772
0.8370078395292034
0.7388881056486362
0.8260114471623061
0.7924565774820328
0.8477556484365455
0.8621120394097854
0.8690424919585661
0.8378223624733157
0.8586931328703664
0.8245966700450006
0.8640736401909568
0.8245645839787238
0.6524356309062534
0.7397965751538874
0.799795390210399
0.8410252718198911
0.7323666257090611
0.9140541779339905
0.8215606600119354
0.8144259351538748
0.8652959725000973
0.8567141373650223
0.7181410288398399
0.8379326800902274
0.8277988349294805
0.8643937182797258
0.7335593148396501
0.7795606485914615
0.58187741572391
0.8559839658613179
0.9104350006366957
0.74664032510663
0.865081774471418
0.773540399012906
0.8975255030065035
0.7348254196328697
0.7774614494532474
0.7489022213535813
0.8883388727283031
0.8571074386860618
0.8803688163672276
0.8311113044010455
0.8389337679331161
0.7783337705958281
0.8247304538268068
0.712029374018156
0.8950804959280836
0.9262719094703087
0.7878043351066589
0.8221829689170125
0.8530138952490754
0.8071796584168675
0.7445412367836125
0.9813127913248244
0.7411785029783056
0.8602255324708097
0.7292934914717498
0.845065870400867
0.8186379133393578
0.77457063788148
0.8854924335786878
0.5878362592011211
0.7248314515433031
0.9192938021137697
0.8851514427753223
0.817520139690297
0.8251774401330262
0.783865788885854
0.8499188180635615
0.7021253461338108
0.7997334755059935
0.8523122977350012
0.8666007719628611
0.8259348841147494
0.7459322591382066
0.6825027369296471
0.9165529500192929
0.9268366747030631
0.715110575433359
0.8100222310603373
0.8289206738606975
0.6461671237155014
0.7592625125562701
0.6363032407685065
0.605119464548168
0.7824336752195657
0.8307305341862933
0.7911189486181367
0.9548267003191396
0.7318555916867131
0.984698144380705
0.741758670496369
0.8288438835254529
0.8476008559062422
0.7284215901864827
0.7067133694597342
0.7219424099100914
0.7898690170809999
0.8966827437132424
0.8494196366353284
0.8261432654760296
0.8035565296290162
0.8246608538512441
0.8227416456155432
0.8800879799269974
0.5643276366665142
0.7472607946537617
0.8133931475936045
0.7112434900631426
0.7985313306788905
0.8657415596447685
0.8721663348149624
0.7987577769547114
0.8428107500952357
0.8580965580547711
0.7728825831113533
0.7879227452176433
0.77788618579257
0.7608410414962903
0.9177390577491418
0.8520209606082643
0.7202131417976703
0.7706498171027917
0.7542210877643416
0.7660511796700418
0.8271123963946977
0.84489041543563
0.7329654553467072
0.853119829156564
0.8243521077879088
0.9451632645120519
0.9130811741175217
0.6619126620071166
0.8464989698956951
0.7989470352326298
0.7229392275109017
0.9215981195119275
0.8037077609670523
0.8379547658246652
0.8831210649252339
0.5548221201265391
0.8602291525548535
0.9462726471036185
0.77620062238785
0.9826391961091058
0.7288050138680114
0.9209755647149628
0.8402197270048828
0.8641286869462741
0.7676063567254291
0.5366077853449466
0.6824462611331058
0.8771384849520595
0.8040120504173977
0.7365694138146287
0.799252990017992
0.8039252555563703
0.7417465427803593
0.9505205168417401
0.8965629142933853
0.7803045219177638
0.9343876135674528
0.8204842898191208
0.7735307066548371
0.8598121152451493
0.9279525368539943
0.8356466890122236
0.8154273418494427
0.7884218182043098
0.7741143765578957
0.9829300038546406
0.7909812787184279
0.7922805316958749
0.7486829164912826
0.7812971854253916
0.7711345572215711
0.8412849019762932
0.789745539370866
0.6958944876213812
0.8716095237448155
0.9122768719508283
0.9251393887653345
0.8324393847008804
0.9777276328151375
0.8741958777575525
0.8155787066270175
0.7641959438499821
0.7260589481294455
0.7328316234111119
0.6166316391919933
0.8054548450961774
0.7928465018820203
0.7218662900225326
0.5756147652825935
0.7522811178251024
0.7212350161757123
0.8310715302505713
0.7442649380708178
0.8570072388883889
0.9284567795844921
0.7419887276434083
0.6784933164704736
0.7912701506397681
0.6142044711339794
0.7905409585767488
0.6502440715295456
0.8187704614229446
0.8670745225153137
0.6709847322327791
0.8311634663305647
0.890281900025741
0.8689697222658075
0.8642363422143517
0.9205038351265118
0.9141527535044147
0.9156494369416058
0.8325103382261141
0.7598034660913066
0.8276383589228083
0.8349631581807516
0.8031277093829688
0.9342698394659703
0.7404197338779824
0.7317392340797141
0.8042290514823818
0.7504055205333271
0.8439286492576941
0.9935146131517901
0.9958603086477864
0.8429364795944523
0.71379115937521
0.8396932480255127
0.9469339057217392
0.9887699067880061
0.7863567099414209
0.7925466108101928
0.7412588992699047
0.7825001590659002
0.8223146309536815
0.7928210906704418
0.7454978860203878
0.7655185259263739
0.7152101355886482
0.8370810286065403
0.8670896688952875
0.79590768740258
0.7339509673730142
0.7428583753158802
0.9381950112255867
0.7887058668615539
0.8544793970493659
0.8257289287497354
0.7925819985940716
0.7626970522507571
0.7357594773160562
0.8108191453177103
0.6577279325114356
0.8113944726560679
0.8448572760896541
0.9295312010240739
0.7888591390086734
0.8489858325741056
0.7798489826690536
0.8441229065879642
0.7309314303460688
0.8428536200389177
0.7923227477982672
0.9127164907180367
0.7967632038441866
0.787577181779392
0.8767977649197445
0.7934867775152885
0.812524035180725
0.7911959326836527
0.6801950674282582
0.9316848316808614
0.7906412054067768
0.8237032281611457
0.7584085351070808
0.9757534224859807
0.8709389058578763
0.6804294508001726
0.8229906524225854
0.9561292846566437
0.8488626539377909
0.8725543491336816
0.7474937113516241
0.9355982579096588
0.7823687995115426
0.7918267453152659
0.6745575593194298
0.883973899850741
0.8767560846034189
0.8405838606933483
0.9427185897552361
0.8544813786725117
0.823594053128056
0.9537539668919525
0.9243552554370349
0.7269223731384942
0.8087605489033555
0.9023085745880529
0.8951099993930088
0.9750273156490342
0.6642989393812037
0.8399146801937374
0.6721648149322712
0.7754270409695394
0.8547020300689325
0.7927101557335715
0.6870343750007433
0.837218272548164
0.8313672228578207
0.7820106432629936
0.7459754151101354
0.9063881719553858
0.8052931700459646
0.7498784629912846
0.7913295015681218
0.83825460899502
0.9023206304286571
0.7657879842494314
0.8119770596412584
0.682009071628372
0.9231235659342607
0.8166560934037413
0.769956913836664
0.788654867129008
0.8727253047790804
0.8386363530348423
0.7391034438405971
0.8100074347192895
0.8646551252741471
0.8193795701239994
0.7806432842046832
0.8216072873750904
0.7881133804516512
0.7381677322566825
0.9197744869708735
0.9720598951763295
0.8314697459705708
0.8513787687618952
0.8603048153466795
0.8227142773239142
0.9645575275167101
0.8787743227258281
0.8201893235539659
0.7769359517789998
0.8332756850757844
0.7760151929219474
0.8151015306463946
0.7769161035460055
0.8419254309739876
0.8214202959042471
0.7773427846748389
0.8311622603153944
0.9200860956608984
0.806422300971997
0.800631277219106
0.8002039777774321
0.8941436924009559
0.7746790003920822
0.786101174673276
0.8084629747343864
0.571197650959358
0.7831848195501484
0.8102618658840847
0.6246079873795108
0.4402217692904293
0.5220738970017845
0.7225544171921605
0.7167693179004484
0.8755699044746237
0.8192302148301743
0.9316954127969203
0.7843874954108576
0.7215603368142377
0.7571051920279516
0.9702556227053921
0.8104127131247464
0.7912891902154136
0.8656871363330286
0.8136323831977332
0.6841072582491928
0.9168979898735561
0.7607627349631907
0.8230095501332331
0.78234780048783
0.7740902273845588
0.9557942933316492
0.7478645173266824
0.8055937450131073
0.7381388382109128
0.7882180405392857
0.8649956148689512
0.9177207449448219
0.9801594875174481
0.9336129775573314
0.7898477716434206
0.8035257295199146
0.6797844368466628
0.8764946002624816
0.7908302528195957
0.7032170456844684
0.7895380037730796
0.7567377171574875
0.8938865854287619
0.7917235380570643
0.7256827887346774
0.7238188030461328
0.7144203138498351
0.8978008866521082
0.7945328947049142
0.6879939052479879
0.8064690305469436
0.994284618578394
0.8725632419407291
0.7707348456287916
0.7078722445576429
0.7987931203804318
0.9622451429828094
0.7871401432155984
0.7890576834632761
0.912340676685233
0.8623847116119172
0.864681979708864
0.7524053522066783
0.8489107849221554
0.9818075119585762
0.8132869932876589
0.9094717403846267
0.6579484428635007
0.9711242375188449
0.6519402250813414
0.7169831802477177
0.6937302695835569
0.8222991981995176
0.8639880140761856
0.5918901960386512
0.8047108284926028
0.9756583100313592
0.9306679652320523
0.7724481887639905
0.883893766231432
0.8169477520126548
0.9307394618310829
0.7845184065249721
0.39247746995319654
0.8011602743172054
0.7717653836309843
0.9877423864658212
0.8944136182497894
0.7869179107041595
0.8810802742958845
0.9881626140119104
0.7386769579017983
0.8747635451325394
0.7508007160355565
0.69409249517002
0.9747246936349259
0.7758674469233054
0.9399138997988422
CELL_DATA 4886
TENSORS stress float
-1.202338689889038e7 1.8794545360889588e6 0.0
1.8794545360889588e6 1.8602170075591587e7 0.0
0.0 0.0 0.0

-1.534895980927518e7 3.7236263896622756e6 0.0
3.7236263896622756e6 7.993629519217075e6 0.0
0.0 0.0 0.0

-6.732623397070489e6 1.6095813727761246e7 0.0
1.6095813727761246e7 3.0661323762709787e6 0.0
0.0 0.0 0.0

-5.755602261152223e6 1.5082164760934725e7 0.0
1.5082164760934725e7 7.938075352802049e6 0.0
0.0 0.0 0.0

-4.792466646059611e6 1.6380697678952804e7 0.0
1.6380697678952804e7 1.5726386237502657e6 0.0
0.0 0.0 0.0

1.9308781151350592e6 4.281161796997083e6 0.0
4.281161796997083e6 -5.1193972937994795e6 0.0
0.0 0.0 0.0

2.1084258487425607e7 1.4241288866460305e7 0.0
1.4241288866460305e7 4.216708627541114e6 0.0
0.0 0.0 0.0

5.857924634087379e6 4.818900524079767e6 0.0
4.818900524079767e6 -2.061640549724267e7 0.0
0.0 0.0 0.0

-1.2050627955210257e7 3.5506689521071166e6 0.0
3.5506689521071166e6 1.98020251596525e7 0.0
0.0 0.0 0.0

-2.0632764361269106e6 1.4301870723866357e7 0.0
1.4301870723866357e7 7.461596890104484e6 0.0
0.0 0.0 0.0

-2.2080090456587244e6 1.3829748165434778e7 0.0
1.3829748165434778e7 -3.2809485244743787e6 0.0
0.0 0.0 0.0

-5.436100154366815e6 1.94061824665811e7 0.0
1.94061824665811e7 3.258362465965998e6 0.0
0.0 0.0 0.0

4.293340305518202e6 8.101324879534874e6 0.0
8.101324879534874e6 -1.9618063070876643e7 0.0
0.0 0.0 0.0

3.48609150418512e7 1.6723303342366721e7 0.0
1.6723303342366721e7 4.221728389354311e6 0.0
0.0 0.0 0.0

-2.345071366452148e6 1.418181108670454e7 0.0
1.418181108670454e7 -3.3577801968622357e6 0.0
0.0 0.0 0.0

3.6131142802148415e6 5.046431172900405e6 0.0
5.046431172900405e6 -1.030538114480019e7 0.0
0.0 0.0 0.0

-62559.53744168533 1.1865184423620181e7 0.0
1.1865184423620181e7 -1.2204156469082449e7 0.0
0.0 0.0 0.0

2.105483175225295e6 1.0537832251422975e7 0.0
1.0537832251422975e7 -1.5183693609855097e7 0.0
0.0 0.0 0.0

-7.237544456930321e6 -1.732038075617861e6 0.0
-1.732038075617861e6 1.0397525146052033e7 0.0
0.0 0.0 0.0

-3.436598660338643e6 1.5676561901431825e7 0.0
1.5676561901431825e7 -2.492566834115594e6 0.0
0.0 0.0 0.0

2.5667967996534165e6 8.850003561862294e6 0.0
8.850003561862294e6 -1.0861011944017692e7 0.0
0.0 0.0 0.0

-4.807375423011855e6 1.9303629754455876e7 0.0
1.9303629754455876e7 3.0231715160977524e6 0.0
0.0 0.0 0.0

-4.320470273013119e6 5.807216814844558e6 0.0
5.807216814844558e6 5.006522529082496e6 0.0
0.0 0.0 0.0

-6.30747176157465e6 1.5508860127796058e7 0.0
1.5508860127796058e7 1.4459718894246598e6 0.0
0.0 0.0 0.0

2.6808679820996216e6 9.841363981858574e6 0.0
9.841363981858574e6 -1.844055184110784e7 0.0
0.0 0.0 0.0

2.634747584628211e6 2.42681429846201e7 0.0
2.42681429846201e7 -9.816437519828148e6 0.0
0.0 0.0 0.0

1.3788538026183276e7 1.3974698804430518e7 0.0
1.3974698804430518e7 2.9029323669617735e6 0.0
0.0 0.0 0.0

-1.1967870288152108e7 8.898960469261855e6 0.0
8.898960469261855e6 1.4448197322551165e7 0.0
0.0 0.0 0.0

3.8663481322328974e6 5.184503753648529e6 0.0
5.184503753648529e6 -1.0139198891015142e7 0.0
0.0 0.0 0.0

-1.4845774506603861e6 2.5533477777627413e6 0.0
2.5533477777627413e6 1.0674603874740324e6 0.0
0.0 0.0 0.0

-5.417246475732006e6 6.398586475869878e6 0.0
6.398586475869878e6 4.1797598782729018e6 0.0
0.0 0.0 0.0

1.3048704021537416e6 7.146198318221162e6 0.0
7.146198318221162e6 -6.0404872506222585e6 0.0
0.0 0.0 0.0

-1.4106822156417312e6 1.2501248323729225e7 0.0
1.2501248323729225e7 4.45757816117945e6 0.0
0.0 0.0 0.0

-171909.32226103276 1.326728245361188e7 0.0
1.326728245361188e7 -848037.1799892707 0.0
0.0 0.0 0.0

-6.050368518498124e6 1.5128456826573033e7 0.0
1.5128456826573033e7 4.4300843209354915e6 0.0
0.0 0.0 0.0

-4.042166613010317e6 5.574502052454141e6 0.0
5.574502052454141e6 2.252397488967657e6 0.0
0.0 0.0 0.0

100803.17696366971 9.224286575749626e6 0.0
9.224286575749626e6 -4.825472118321896e6 0.0
0.0 0.0 0.0

-5.451806920169482e6 1.504302770707886e7 0.0
1.504302770707886e7 4.467961084803164e6 0.0
0.0 0.0 0.0

138837.59528991673 1.1691850456467599e7 0.0
1.1691850456467599e7 -1.753913198666675e7 0.0
0.0 0.0 0.0

-5.536587552096954e6 1.76508622836965e7 0.0
1.76508622836965e7 3.916165794605813e6 0.0
0.0 0.0 0.0

3.7959651580406893e6 8.27607421224119e6 0.0
8.27607421224119e6 -2.1293096703920934e7 0.0
0.0 0.0 0.0

-8.1737158533319635e6 1.7016785020020183e7 0.0
1.7016785020020183e7 2.3359164965036307e6 0.0
0.0 0.0 0.0

-5.5080674135421775e6 1.7239473941792417e7 0.0
1.7239473941792417e7 3.6301405374455466e6 0.0
0.0 0.0 0.0

-9.19994722291859e6 1.4821472497807771e6 0.0
1.4821472497807771e6 1.2214278106921483e7 0.0
0.0 0.0 0.0

2.2931487352869557e6 8.83575316385324e6 0.0
8.83575316385324e6 -1.183859823687358e7 0.0
0.0 0.0 0.0

-1.0323524129903214e7 1.0419502052534053e7 0.0
1.0419502052534053e7 1.3805959573112058e7 0.0
0.0 0.0 0.0

-970908.0565572821 1.398182232613005e7 0.0
1.398182232613005e7 -6.6426936747941915e6 0.0
0.0 0.0 0.0

-163121.66627109307 8.943188082510341e6 0.0
8.943188082510341e6 -5.31482669881302e6 0.0
0.0 0.0 0.0

5.441568731433575e6 4.887791033239138e6 0.0
4.887791033239138e6 -1.7666810929187126e7 0.0
0.0 0.0 0.0

1.0508620803487583e6 1.2344332246111901e7 0.0
1.2344332246111901e7 3.502873886162561e6 0.0
0.0 0.0 0.0

-4.505472221249334e6 1.7079391673477877e7 0.0
1.7079391673477877e7 2.3915605408081394e6 0.0
0.0 0.0 0.0

-9.363106746354744e6 1.3071206239583252e6 0.0
1.3071206239583252e6 7.092876949821625e6 0.0
0.0 0.0 0.0

5.531576411204702e6 4.852360560814146e6 0.0
4.852360560814146e6 -1.801924928397165e7 0.0
0.0 0.0 0.0

-4.495989703616606e6 1.6026311421229396e7 0.0
1.6026311421229396e7 2.481321446603492e6 0.0
0.0 0.0 0.0

603898.5421906142 1.2926443369652433e7 0.0
1.2926443369652433e7 4.694499905781477e6 0.0
0.0 0.0 0.0

-5.635272425516225e6 1.606912213596984e7 0.0
1.606912213596984e7 4.685014750715367e6 0.0
0.0 0.0 0.0

5.789346874424613e6 5.096713415023695e6 0.0
5.096713415023695e6 -2.209220905226115e7 0.0
0.0 0.0 0.0

-5.2311308684293805e6 1.779283937507617e7 0.0
1.779283937507617e7 4.11216418010837e6 0.0
0.0 0.0 0.0

-1.8668965885641407e6 1.4227181880810695e7 0.0
1.4227181880810695e7 1.3784746223308286e7 0.0
0.0 0.0 0.0

3.239937011860001e6 8.327732011823966e6 0.0
8.327732011823966e6 -1.3016282522509266e7 0.0
0.0 0.0 0.0

259545.00836134003 1.0369413892269919e7 0.0
1.0369413892269919e7 -7.674210063381298e6 0.0
0.0 0.0 0.0

9.726738605567738e6 1.3553643256772984e7 0.0
1.3553643256772984e7 -8.27947149049953e6 0.0
0.0 0.0 0.0

-1.9782806074659806e6 1.343644750581674e7 0.0
1.343644750581674e7 -5.008326325594291e6 0.0
0.0 0.0 0.0

-2.0859423248806614e6 3.587010453162382e6 0.0
3.587010453162382e6 1.2521561960675148e6 0.0
0.0 0.0 0.0

778461.7838579135 5.765585321823184e6 0.0
5.765585321823184e6 -3.6544204981721006e6 0.0
0.0 0.0 0.0

5.081651659717772e6 5.489355145843571e6 0.0
5.489355145843571e6 -1.7411372869912207e7 0.0
0.0 0.0 0.0

4.746650317661178e6 7.359522512347968e6 0.0
7.359522512347968e6 -1.95158523062284e7 0.0
0.0 0.0 0.0

-4.994372783434151e6 1.569154970951312e7 0.0
1.569154970951312e7 1.89619413558272e6 0.0
0.0 0.0 0.0

-3.4279171505822977e6 1.4185460639690278e7 0.0
1.4185460639690278e7 1.1421857251907777e7 0.0
0.0 0.0 0.0

7.9560167990671545e6 1.3046983119046254e7 0.0
1.3046983119046254e7 3.211475064690357e6 0.0
0.0 0.0 0.0

-1.0146704939296208e7 2.0013586765649505e6 0.0
2.0013586765649505e6 1.143651017473498e7 0.0
0.0 0.0 0.0

3.065308625612776e6 9.707299162825413e6 0.0
9.707299162825413e6 -1.723212607932926e7 0.0
0.0 0.0 0.0

-55821.20598797593 1.1867828137509512e7 0.0
1.1867828137509512e7 -1.6894902014380522e7 0.0
0.0 0.0 0.0

-2.659083859697243e6 1.3555939255657256e7 0.0
1.3555939255657256e7 2.2015182839421123e7 0.0
0.0 0.0 0.0

-6.366046004658543e6 1.5190459651388394e7 0.0
1.5190459651388394e7 8.275670480482965e6 0.0
0.0 0.0 0.0

-1.0461526712434217e7 1.0313642209187046e7 0.0
1.0313642209187046e7 1.3173091209849346e7 0.0
0.0 0.0 0.0

-7.822577859138602e6 7.563080443296716e6 0.0
7.563080443296716e6 9.437617852035072e6 0.0
0.0 0.0 0.0

325659.8642170951 1.1639543018681206e7 0.0
1.1639543018681206e7 -1.1956534108991127e7 0.0
0.0 0.0 0.0

634628.403188175 1.1942285465716302e7 0.0
1.1942285465716302e7 -8.15927903928797e6 0.0
0.0 0.0 0.0

1.1005045149653056e6 1.0309474880708287e7 0.0
1.0309474880708287e7 -9.636940855127743e6 0.0
0.0 0.0 0.0

5.454822755452969e6 1.6715311196082069e7 0.0
1.6715311196082069e7 -7.035570606366398e6 0.0
0.0 0.0 0.0

-7.410222932115301e6 -6.285856903548223e6 0.0
-6.285856903548223e6 1.2607708360212823e7 0.0
0.0 0.0 0.0

1.4801631142725497e6 1.1461227721702017e7 0.0
1.1461227721702017e7 -3.565051999984795e6 0.0
0.0 0.0 0.0

-5.472596596234086e6 2.016808328629182e7 0.0
2.016808328629182e7 2.5595842566153463e6 0.0
0.0 0.0 0.0

-5.790329295825426e6 1.5097471251762345e7 0.0
1.5097471251762345e7 7.955716863022665e6 0.0
0.0 0.0 0.0

4.449799370218653e6 5.516140420177837e6 0.0
5.516140420177837e6 -1.2506907056027919e7 0.0
0.0 0.0 0.0

1.2061544532911312e6 6.6332792881687265e6 0.0
6.6332792881687265e6 -6.655940385206541e6 0.0
0.0 0.0 0.0

-948167.8727034638 1.1585868794447023e7 0.0
1.1585868794447023e7 3.963742392301986e6 0.0
0.0 0.0 0.0

-2.116016656635909e6 2.601739552592929e7 0.0
2.601739552592929e7 -1.2557257447274636e7 0.0
0.0 0.0 0.0

-1.284626184307204e7 3.42103048039036e6 0.0
3.42103048039036e6 2.411607741418369e7 0.0
0.0 0.0 0.0

1.1095504281470096e6 1.3125871130673112e7 0.0
1.3125871130673112e7 -6.503059982426378e6 0.0
0.0 0.0 0.0

481784.21833365085 1.2101834437691057e7 0.0
1.2101834437691057e7 -9.39846793702415e6 0.0
0.0 0.0 0.0

40138.77849072218 8.279106859918675e6 0.0
8.279106859918675e6 -5.189833171214651e6 0.0
0.0 0.0 0.0

478949.7193526246 5.220275787538197e6 0.0
5.220275787538197e6 -4.416928668297337e6 0.0
0.0 0.0 0.0

926314.3503233432 1.418331191578778e7 0.0
1.418331191578778e7 -5.079459456937324e6 0.0
0.0 0.0 0.0

-4598.019078868441 1.1908249166873125e7 0.0
1.1908249166873125e7 -1.4786220891615743e7 0.0
0.0 0.0 0.0

5.706777506696956e6 4.778925243537155e6 0.0
4.778925243537155e6 -2.0332218125070702e7 0.0
0.0 0.0 0.0

-6.585252871207148e6 1.541563093594711e7 0.0
1.541563093594711e7 7.742959331387576e6 0.0
0.0 0.0 0.0

3.9070798450831994e6 7.823796675049165e6 0.0
7.823796675049165e6 -1.6485675947638808e7 0.0
0.0 0.0 0.0

5.90068068607437e6 5.166076367550195e6 0.0
5.166076367550195e6 -2.2688361681740355e7 0.0
0.0 0.0 0.0

-3.943198481599676e6 1.4148265732165573e7 0.0
1.4148265732165573e7 6.457944770788061e6 0.0
0.0 0.0 0.0

-3.968007704234543e6 1.1628512772886524e7 0.0
1.1628512772886524e7 -3.2565412753904853e6 0.0
0.0 0.0 0.0

-5.521168754827172e6 5.113141686119567e6 0.0
5.113141686119567e6 6.880173338668113e6 0.0
0.0 0.0 0.0

-4.7738748230931945e6 1.685202270767344e7 0.0
1.685202270767344e7 3.086908727977211e6 0.0
0.0 0.0 0.0

232171.93548076483 8.391209197033048e6 0.0
8.391209197033048e6 -4.0890691801639525e6 0.0
0.0 0.0 0.0

-4.298642017878737e6 9.152599442585165e6 0.0
9.152599442585165e6 3.3535912422976135e6 0.0
0.0 0.0 0.0

-7.701015069077208e6 -5.37189460643141e6 0.0
-5.37189460643141e6 1.479468828236787e7 0.0
0.0 0.0 0.0

1.2887860822556135e6 1.0368508721850952e7 0.0
1.0368508721850952e7 -9.029345365846535e6 0.0
0.0 0.0 0.0

-4.92749560373314e6 1.9037291893331546e7 0.0
1.9037291893331546e7 2.974270672084678e6 0.0
0.0 0.0 0.0

-3.0430831479279427e6 5.966770159268501e6 0.0
5.966770159268501e6 2.6906486834375504e6 0.0
0.0 0.0 0.0

4.209206251111735e6 7.631767796541637e6 0.0
7.631767796541637e6 -2.1125261308874916e7 0.0
0.0 0.0 0.0

-1.0324759107897172e6 8.663133341494195e6 0.0
8.663133341494195e6 -3.4591072081332286e6 0.0
0.0 0.0 0.0

420816.13683733786 1.4043528358028077e7 0.0
1.4043528358028077e7 6.601737482182111e6 0.0
0.0 0.0 0.0

1.5777705258218547e7 1.5120866852546152e7 0.0
1.5120866852546152e7 2.6646658922871905e6 0.0
0.0 0.0 0.0

3.829628831285567e6 6.391886025638697e6 0.0
6.391886025638697e6 -1.1671791204211032e7 0.0
0.0 0.0 0.0

-884026.7326787375 1.21751434252883e7 0.0
1.21751434252883e7 -1.6790664230422854e7 0.0
0.0 0.0 0.0

3.8237448227669466e6 6.43138848172327e6 0.0
6.43138848172327e6 -1.2010930530514393e7 0.0
0.0 0.0 0.0

4.6053794655911885e6 5.4939981507360535e6 0.0
5.4939981507360535e6 -1.284263966847471e7 0.0
0.0 0.0 0.0

1.5139341932205055e7 1.1041103835802197e7 0.0
1.1041103835802197e7 -622572.1022093045 0.0
0.0 0.0 0.0

-1.2255782581536125e7 2.198809423326445e7 0.0
2.198809423326445e7 7.694445881681287e6 0.0
0.0 0.0 0.0

481826.145545071 1.1502864497443039e7 0.0
1.1502864497443039e7 -1.5924339549403729e7 0.0
0.0 0.0 0.0

-4.372652992825506e6 1.5154435618089514e7 0.0
1.5154435618089514e7 -552280.3447732083 0.0
0.0 0.0 0.0

5.275139002137375e6 5.174833465167126e6 0.0
5.174833465167126e6 -1.5334161654408317e7 0.0
0.0 0.0 0.0

-6.662572260082965e6 1.6036983207533205e7 0.0
1.6036983207533205e7 5.24859883649396e6 0.0
0.0 0.0 0.0

-1.6215166892698982e6 1.974812902447692e7 0.0
1.974812902447692e7 -2.6256533454982815e6 0.0
0.0 0.0 0.0

-1.273308123338117e7 4.391356931279361e6 0.0
4.391356931279361e6 1.8011653598206807e7 0.0
0.0 0.0 0.0

-4.4228210534081105e6 2.5342191581169978e7 0.0
2.5342191581169978e7 -6.659528035443553e6 0.0
0.0 0.0 0.0

-476794.2682147216 1.3618934248341445e7 0.0
1.3618934248341445e7 -1.2195580400210603e6 0.0
0.0 0.0 0.0

5.573589613882519e6 4.782455115433904e6 0.0
4.782455115433904e6 -1.8500489020041104e7 0.0
0.0 0.0 0.0

1.0853969689542213e7 1.1117082087148534e7 0.0
1.1117082087148534e7 -2.923671421191025e6 0.0
0.0 0.0 0.0

-4.0920938201170214e6 1.3895548795571633e7 0.0
1.3895548795571633e7 6.480323150576302e6 0.0
0.0 0.0 0.0

4.61171392737947e6 6.454867097286454e6 0.0
6.454867097286454e6 -1.7530974322255116e7 0.0
0.0 0.0 0.0

-2.978875168472547e6 1.596528454024386e7 0.0
1.596528454024386e7 -2.011797590010733e6 0.0
0.0 0.0 0.0

528858.4624553318 1.2992266555952301e7 0.0
1.2992266555952301e7 -6.730421125095766e6 0.0
0.0 0.0 0.0

-1.7388329319186006e6 1.2706553243805066e7 0.0
1.2706553243805066e7 -5.487985231112543e6 0.0
0.0 0.0 0.0

810491.9656633008 1.2186296156269897e7 0.0
1.2186296156269897e7 -7.763690085572296e6 0.0
0.0 0.0 0.0

1.0870981105014337e6 1.400033925972532e7 0.0
1.400033925972532e7 6.767729686155288e6 0.0
0.0 0.0 0.0

4.953802277696215e6 6.998443676896651e6 0.0
6.998443676896651e6 -2.737378799767276e7 0.0
0.0 0.0 0.0

-5.64299879169989e6 1.5793240197611123e7 0.0
1.5793240197611123e7 6.99974551824305e6 0.0
0.0 0.0 0.0

1.4318329549026545e6 5.086747101698948e6 0.0
5.086747101698948e6 -4.935622559752382e6 0.0
0.0 0.0 0.0

-1.1949456353586346e7 7.560811405332152e6 0.0
7.560811405332152e6 1.52129703879551e7 0.0
0.0 0.0 0.0

4.442682811452912e6 5.693778399466936e6 0.0
5.693778399466936e6 -1.17773442494492e7 0.0
0.0 0.0 0.0

-8.457029173104623e6 -7.294879479548853e6 0.0
-7.294879479548853e6 1.96044107988788e7 0.0
0.0 0.0 0.0

1.538743899876832e6 1.0951046172580695e7 0.0
1.0951046172580695e7 -1.1044499717240939e7 0.0
0.0 0.0 0.0

1.5919226801202476e6 4.0960177021907154e6 0.0
4.0960177021907154e6 -5.306229749306446e6 0.0
0.0 0.0 0.0

440845.3652519521 1.2999210866848672e7 0.0
1.2999210866848672e7 4.6014951471883105e6 0.0
0.0 0.0 0.0

-5.4663298451948725e6 1.7626150123033416e7 0.0
1.7626150123033416e7 5.002141983383546e6 0.0
0.0 0.0 0.0

-9.526490500215555e6 -6.173349533914441e6 0.0
-6.173349533914441e6 1.8059988882962015e7 0.0
0.0 0.0 0.0

-2.1402530025156727e6 1.3728741882031279e7 0.0
1.3728741882031279e7 2.8485563548812e6 0.0
0.0 0.0 0.0

1.162252859682439e6 1.4870526835173637e7 0.0
1.4870526835173637e7 -5.46504156464282e6 0.0
0.0 0.0 0.0

-4.801227003195199e6 1.5207004114901049e7 0.0
1.5207004114901049e7 1.4927963523658297e6 0.0
0.0 0.0 0.0

-1.7339867812933177e6 1.5210809014664965e7 0.0
1.5210809014664965e7 -2.6626543706324706e6 0.0
0.0 0.0 0.0

-4.468220748044142e6 1.5387313786382347e7 0.0
1.5387313786382347e7 2.4618846901607784e6 0.0
0.0 0.0 0.0

-1.8742884381990354e6 1.1198166580668839e7 0.0
1.1198166580668839e7 -1.0999001714735374e7 0.0
0.0 0.0 0.0

5.289528800278215e6 1.5967131853140263e7 0.0
1.5967131853140263e7 -8.850501531546943e6 0.0
0.0 0.0 0.0

401472.38972453866 1.1814452689881546e7 0.0
1.1814452689881546e7 -9.750285614078328e6 0.0
0.0 0.0 0.0

-7.217380079370727e6 1.3303021087992629e7 0.0
1.3303021087992629e7 1.1481596093451958e7 0.0
0.0 0.0 0.0

-3.3265556975905895e6 1.3635381631435826e7 0.0
1.3635381631435826e7 8.879454748195706e6 0.0
0.0 0.0 0.0

2.928713064560732e6 8.476814577753056e6 0.0
8.476814577753056e6 -1.2568384173629994e7 0.0
0.0 0.0 0.0

-4.470587461564122e6 8.478279246502455e6 0.0
8.478279246502455e6 2.6737678690280803e6 0.0
0.0 0.0 0.0

-6.202837319682787e6 1.96465125200454e7 0.0
1.96465125200454e7 4.968910989819967e6 0.0
0.0 0.0 0.0

-7.888080731430073e6 1.297703149978397e7 0.0
1.297703149978397e7 9.270446592412997e6 0.0
0.0 0.0 0.0

-4.647599281402775e6 2.0699383584360745e7 0.0
2.0699383584360745e7 2.4532714537750646e6 0.0
0.0 0.0 0.0

1.285412949349313e6 1.085340379234048e7 0.0
1.085340379234048e7 -1.1814158207965765e7 0.0
0.0 0.0 0.0

-8.769961211079834e6 1.671518448165706e7 0.0
1.671518448165706e7 -1.5550187686566329e6 0.0
0.0 0.0 0.0

5.726541349277098e6 5.509636747374208e6 0.0
5.509636747374208e6 -2.0279965522182032e7 0.0
0.0 0.0 0.0

-797695.4856712432 2.0847243047626983e7 0.0
2.0847243047626983e7 -2.9724417040579203e6 0.0
0.0 0.0 0.0

-1.3215893541370455e7 1.8087619267162986e7 0.0
1.8087619267162986e7 1.0243684805873718e7 0.0
0.0 0.0 0.0

-2.579547876002579e6 1.39679572811151e7 0.0
1.39679572811151e7 6.969609468070269e6 0.0
0.0 0.0 0.0

-2.0850342301948186e7 1.5711622121010272e7 0.0
1.5711622121010272e7 1.1599247043640941e7 0.0
0.0 0.0 0.0

5.748028486646481e6 4.739066966531677e6 0.0
4.739066966531677e6 -1.882154210643781e7 0.0
0.0 0.0 0.0

-7.521564115841532e6 1.2811919634611776e7 0.0
1.2811919634611776e7 1.034748166931265e7 0.0
0.0 0.0 0.0

-3.3237706826755414e6 5.899459069776765e6 0.0
5.899459069776765e6 1.6839074937132513e6 0.0
0.0 0.0 0.0

4.425575968365712e6 5.355509065687531e6 0.0
5.355509065687531e6 -1.2228884528588522e7 0.0
0.0 0.0 0.0

251164.23848173674 1.3203145997466829e7 0.0
1.3203145997466829e7 -7.4505869996793335e6 0.0
0.0 0.0 0.0

-1.0738370293918578e7 2.2620271373384938e7 0.0
2.2620271373384938e7 8.44148984102656e6 0.0
0.0 0.0 0.0

-1.2042048212734956e7 6.09118851033308e6 0.0
6.09118851033308e6 9.34984272748415e6 0.0
0.0 0.0 0.0

-1.7008713272005204e7 1.5420848494038347e7 0.0
1.5420848494038347e7 6.337676819218834e6 0.0
0.0 0.0 0.0

1.3471165607715053e7 1.2230471466662077e7 0.0
1.2230471466662077e7 3.7556966396922166e6 0.0
0.0 0.0 0.0

55029.26940417476 1.2903273047348363e7 0.0
1.2903273047348363e7 -3.4757271377779394e7 0.0
0.0 0.0 0.0

589052.7251613336 1.2351195463263694e7 0.0
1.2351195463263694e7 -8.691739301868422e6 0.0
0.0 0.0 0.0

-7.254162020774688e6 1.3307160559538616e7 0.0
1.3307160559538616e7 1.1345172639390627e7 0.0
0.0 0.0 0.0

-1.9485661948106347e6 1.5092245448723247e7 0.0
1.5092245448723247e7 -4.882325484096062e6 0.0
0.0 0.0 0.0

-4.386175858547375e6 1.6678878119485384e7 0.0
1.6678878119485384e7 2.0746034378545235e6 0.0
0.0 0.0 0.0

53726.33642153861 1.2187990889864527e7 0.0
1.2187990889864527e7 2.270767612471477e6 0.0
0.0 0.0 0.0

-4.716272398888685e6 2.0281018588176936e7 0.0
2.0281018588176936e7 2.5902885964823416e6 0.0
0.0 0.0 0.0

-4.243856777276839e6 5.666768824441935e6 0.0
5.666768824441935e6 3.198163914556156e6 0.0
0.0 0.0 0.0

1.930138339512975e7 1.6140783066913286e7 0.0
1.6140783066913286e7 1.7345707781184074e6 0.0
0.0 0.0 0.0

-3.781764910725031e6 1.683014133835748e7 0.0
1.683014133835748e7 -1.8465381945150215e6 0.0
0.0 0.0 0.0

419849.33997303376 1.2046940714519767e7 0.0
1.2046940714519767e7 3.083844616239301e6 0.0
0.0 0.0 0.0

-5.33746575540582e6 1.5889657643418755e7 0.0
1.5889657643418755e7 2.554354144207118e6 0.0
0.0 0.0 0.0

-5.737872067711341e6 1.2376521463984374e7 0.0
1.2376521463984374e7 1.0888523524303515e7 0.0
0.0 0.0 0.0

-3.1424478374329275e6 1.5848532657845913e7 0.0
1.5848532657845913e7 -1.7056963461008654e6 0.0
0.0 0.0 0.0

4.320478699302869e6 7.268472422802645e6 0.0
7.268472422802645e6 -1.6026918376802573e7 0.0
0.0 0.0 0.0

-5.785695619121996e6 1.4459365220770212e7 0.0
1.4459365220770212e7 4.397652963736711e6 0.0
0.0 0.0 0.0

-3.266944933840376e6 1.4874289264942117e7 0.0
1.4874289264942117e7 1.8217888883357833e6 0.0
0.0 0.0 0.0

1.4552299071456948e6 6.681307527734482e6 0.0
6.681307527734482e6 -7.548006076355157e6 0.0
0.0 0.0 0.0

-5.345907147687655e6 1.549199493362369e7 0.0
1.549199493362369e7 7.225875032398712e6 0.0
0.0 0.0 0.0

-1.1976486610463835e7 1.1072399475027635e6 0.0
1.1072399475027635e6 2.7409085514418345e7 0.0
0.0 0.0 0.0

-262078.4957554976 8.462066043591214e6 0.0
8.462066043591214e6 -3.16047179118782e6 0.0
0.0 0.0 0.0

-7.695381999648248e6 1.548914746331607e7 0.0
1.548914746331607e7 2.7619219762489474e6 0.0
0.0 0.0 0.0

1.2121136035463873e7 1.6436362263733849e7 0.0
1.6436362263733849e7 4.939783228404923e6 0.0
0.0 0.0 0.0

2.226446657857635e6 1.0596677318706166e7 0.0
1.0596677318706166e7 -1.4843076057135666e7 0.0
0.0 0.0 0.0

4.896266505285225e6 6.367944460070559e6 0.0
6.367944460070559e6 -1.6543785568684552e7 0.0
0.0 0.0 0.0

3.440494688029606e6 1.2811067894486666e7 0.0
1.2811067894486666e7 -1.1444260057243952e6 0.0
0.0 0.0 0.0

-6.57844206492579e6 6.06723060246879e6 0.0
6.06723060246879e6 1.2430063604939181e7 0.0
0.0 0.0 0.0

-4.333571544087838e6 1.613376429466926e7 0.0
1.613376429466926e7 2.060055539892169e6 0.0
0.0 0.0 0.0

-2.6968732707490786e6 1.4242022580066802e7 0.0
1.4242022580066802e7 -2.8985272204074464e6 0.0
0.0 0.0 0.0

-2.553257306118195e6 1.4449768522683455e7 0.0
1.4449768522683455e7 -4.007854606438636e6 0.0
0.0 0.0 0.0

-509376.97984690417 1.307545515666304e7 0.0
1.307545515666304e7 -3.959054672065001e6 0.0
0.0 0.0 0.0

1.7280905920388503e6 7.149864690923828e6 0.0
7.149864690923828e6 -6.8491591706429375e6 0.0
0.0 0.0 0.0

1.011132195732305e7 1.3999833748094985e7 0.0
1.3999833748094985e7 540920.6071580141 0.0
0.0 0.0 0.0

172910.6708105696 1.2358771604740744e7 0.0
1.2358771604740744e7 2.0250939972794093e6 0.0
0.0 0.0 0.0

-6.066906551252086e6 1.9483396241316292e7 0.0
1.9483396241316292e7 5.846380731294356e6 0.0
0.0 0.0 0.0

-2.405871649839124e7 1.1093871481508698e7 0.0
1.1093871481508698e7 1.1531867438141732e7 0.0
0.0 0.0 0.0

4.240444960576924e6 5.441742062625416e6 0.0
5.441742062625416e6 -1.143549720815932e7 0.0
0.0 0.0 0.0

-476720.9417222545 1.3314701980786715e7 0.0
1.3314701980786715e7 1.4794090495370876e6 0.0
0.0 0.0 0.0

-968611.9491281868 1.0772500097984167e7 0.0
1.0772500097984167e7 -1.047217707662671e7 0.0
0.0 0.0 0.0

712025.274632962 1.2074843170578735e7 0.0
1.2074843170578735e7 -1.1789609627543716e7 0.0
0.0 0.0 0.0

-5.479129100501398e6 -3.1906295617152634e6 0.0
-3.1906295617152634e6 8.390445142476512e6 0.0
0.0 0.0 0.0

1.4052349358173297e6 1.0030231706007093e7 0.0
1.0030231706007093e7 -1.030153653031335e7 0.0
0.0 0.0 0.0

-2.354825107603384e6 1.3181918324822435e7 0.0
1.3181918324822435e7 -1.8689014068506893e7 0.0
0.0 0.0 0.0

1.697958837422864e6 9.71249150630627e6 0.0
9.71249150630627e6 -1.0881221258455377e7 0.0
0.0 0.0 0.0

100702.2591653266 1.3616790769057855e7 0.0
1.3616790769057855e7 -6.945553407413224e6 0.0
0.0 0.0 0.0

1.170469876745505e7 1.4427433322574886e7 0.0
1.4427433322574886e7 3.4329995971798394e6 0.0
0.0 0.0 0.0

-1.1896199389200049e7 8.592228605924496e6 0.0
8.592228605924496e6 1.8910841636600494e7 0.0
0.0 0.0 0.0

-2.3689594698768915e6 1.5606976847580329e7 0.0
1.5606976847580329e7 -3.0371206253953953e6 0.0
0.0 0.0 0.0

-368574.8825408438 1.2384519546458973e7 0.0
1.2384519546458973e7 -1.0717625643330086e6 0.0
0.0 0.0 0.0

-4.558952047274052e6 1.3908055656794086e7 0.0
1.3908055656794086e7 -2.364695076338472e6 0.0
0.0 0.0 0.0

9.122628291280279e6 1.6121482933248613e7 0.0
1.6121482933248613e7 5.319244537221501e6 0.0
0.0 0.0 0.0

-5.603331065777612e6 1.5518668515348868e7 0.0
1.5518668515348868e7 7.484364262097617e6 0.0
0.0 0.0 0.0

1.6992706312175533e6 1.2205856500406781e7 0.0
1.2205856500406781e7 -4.6218383009992475e6 0.0
0.0 0.0 0.0

-4.520985759325108e6 1.7662062059092525e7 0.0
1.7662062059092525e7 2.048825398806949e6 0.0
0.0 0.0 0.0

-6.009640721149433e6 1.4652901909533048e7 0.0
1.4652901909533048e7 5.252442493450072e6 0.0
0.0 0.0 0.0

-1.0519691714249363e7 -1.145499807821938e6 0.0
-1.145499807821938e6 4.489652765442925e7 0.0
0.0 0.0 0.0

-1.198375621070148e6 1.3686999460535366e7 0.0
1.3686999460535366e7 -7.542496411494978e6 0.0
0.0 0.0 0.0

-5.173575904393848e6 1.7489215505485322e7 0.0
1.7489215505485322e7 4.103405246096153e6 0.0
0.0 0.0 0.0

887298.2399649867 4.641926766322479e6 0.0
4.641926766322479e6 -3.354664353241259e6 0.0
0.0 0.0 0.0

-1.0916930243061328e7 9.16150489525613e6 0.0
9.16150489525613e6 1.463312992349621e7 0.0
0.0 0.0 0.0

-3.0833822775844415e6 1.1426889227629058e7 0.0
1.1426889227629058e7 -380787.5467967602 0.0
0.0 0.0 0.0

4.629004338883319e6 5.465304780426628e6 0.0
5.465304780426628e6 -1.3951722278377112e7 0.0
0.0 0.0 0.0

-5.912905035203295e6 1.9922440754882585e7 0.0
1.9922440754882585e7 5.522560508755336e6 0.0
0.0 0.0 0.0

1.6765869460541923e6 1.0121318208557399e7 0.0
1.0121318208557399e7 -9.450200177565472e6 0.0
0.0 0.0 0.0

-7.949957763963985e6 1.2286663463926667e7 0.0
1.2286663463926667e7 1.0973890231429022e7 0.0
0.0 0.0 0.0

5.63461628756566e6 6.577703944223723e6 0.0
6.577703944223723e6 -2.5359922639531817e7 0.0
0.0 0.0 0.0

-6.238182553829033e6 1.919488218297176e7 0.0
1.919488218297176e7 5.558979176462688e6 0.0
0.0 0.0 0.0

-2.899741727302172e6 1.1879029288176766e7 0.0
1.1879029288176766e7 -1.3129869852317316e7 0.0
0.0 0.0 0.0

3.4438568531867517e6 4.540877369843303e6 0.0
4.540877369843303e6 -8.763641620991841e6 0.0
0.0 0.0 0.0

68322.50480652228 8.100476580520574e6 0.0
8.100476580520574e6 -3.7673237012031637e6 0.0
0.0 0.0 0.0

-1.3187302694077527e7 1.862518108511306e7 0.0
1.862518108511306e7 9.141876604334783e6 0.0
0.0 0.0 0.0

842822.2142127287 1.2188578226748915e7 0.0
1.2188578226748915e7 3.750752062481476e6 0.0
0.0 0.0 0.0

-1.0162079786737151e7 2.180267410473089e7 0.0
2.180267410473089e7 7.221449259655561e6 0.0
0.0 0.0 0.0

-9.648994573565697e6 1.8636670821074196e6 0.0
1.8636670821074196e6 1.3145016068988323e7 0.0
0.0 0.0 0.0

4.904264546128565e6 8.55371656013967e6 0.0
8.55371656013967e6 -2.75499662193338e7 0.0
0.0 0.0 0.0

2.714747018801131e7 1.0804432469140701e7 0.0
1.0804432469140701e7 -7.908159263654338e6 0.0
0.0 0.0 0.0

-4.5111584903311515e6 1.655350212758545e7 0.0
1.655350212758545e7 2.408098817953299e6 0.0
0.0 0.0 0.0

-6.284966403000042e6 1.775226658604052e7 0.0
1.775226658604052e7 6.457149638744064e6 0.0
0.0 0.0 0.0

-5.327814710064771e6 1.5739749654229108e7 0.0
1.5739749654229108e7 4.406611507279208e6 0.0
0.0 0.0 0.0

-1.6943200451496001e6 1.509225039205745e7 0.0
1.509225039205745e7 2.4989645208051436e7 0.0
0.0 0.0 0.0

4.826882185465335e6 5.455050846714288e6 0.0
5.455050846714288e6 -1.5752769738564678e7 0.0
0.0 0.0 0.0

197420.84068486956 9.495070585762518e6 0.0
9.495070585762518e6 -5.045559410191748e6 0.0
0.0 0.0 0.0

-3.1995375015453342e6 1.9884280665066503e7 0.0
1.9884280665066503e7 -1.7512337559261518e6 0.0
0.0 0.0 0.0

3.4356911921508163e6 8.806544350121293e6 0.0
8.806544350121293e6 -1.8177075525309004e7 0.0
0.0 0.0 0.0

-1.565704649681772e7 7.480695986013359e6 0.0
7.480695986013359e6 1.0223072249682838e7 0.0
0.0 0.0 0.0

-3.472473322354092e6 1.4757883020488884e7 0.0
1.4757883020488884e7 1.3029984344888746e6 0.0
0.0 0.0 0.0

-527775.6094935201 9.973040133608188e6 0.0
9.973040133608188e6 824207.3019904083 0.0
0.0 0.0 0.0

1.9632285486527034e6 9.83040537683967e6 0.0
9.83040537683967e6 -1.0026294184297683e7 0.0
0.0 0.0 0.0

-2.612066972032737e6 1.4817106999856658e7 0.0
1.4817106999856658e7 1.2604723506313764e7 0.0
0.0 0.0 0.0

-228863.55608217907 1.9750406908564337e7 0.0
1.9750406908564337e7 -4.0209612754538613e6 0.0
0.0 0.0 0.0

-2.591925305862201e7 -1.7839301187062066e6 0.0
-1.7839301187062066e6 9.919318179823486e6 0.0
0.0 0.0 0.0

1.0819618627083626e7 2.2902149011794213e7 0.0
2.2902149011794213e7 -1.246537514036199e7 0.0
0.0 0.0 0.0

-1.5376824315969273e6 2.0326439668842997e7 0.0
2.0326439668842997e7 -4.958300278688547e6 0.0
0.0 0.0 0.0

4.049381030284398e6 5.476599766887048e6 0.0
5.476599766887048e6 -1.0864335729805797e7 0.0
0.0 0.0 0.0

-5.711518920148376e6 1.7550530750151217e7 0.0
1.7550530750151217e7 4.22260744032136e6 0.0
0.0 0.0 0.0

1.5639204743384795e7 1.0997290462564819e7 0.0
1.0997290462564819e7 -482872.9145754464 0.0
0.0 0.0 0.0

-1.2477861675871737e7 3.6811577449615607e6 0.0
3.6811577449615607e6 2.9156357999616854e7 0.0
0.0 0.0 0.0

-1.3498154471985388e6 1.3766369582507351e7 0.0
1.3766369582507351e7 -7.03470085519892e6 0.0
0.0 0.0 0.0

8.0982177119416585e6 1.3350046026795644e7 0.0
1.3350046026795644e7 3.1522307602796913e6 0.0
0.0 0.0 0.0

513548.48152862303 1.3453259393891824e7 0.0
1.3453259393891824e7 -7.703590376662766e6 0.0
0.0 0.0 0.0

5.200463501175867e6 5.52741836430897e6 0.0
5.52741836430897e6 -1.665240814432466e7 0.0
0.0 0.0 0.0

-4.1583458630419914e6 1.63934007523867e7 0.0
1.63934007523867e7 1.3324717555844632e6 0.0
0.0 0.0 0.0

-494930.81536552636 1.0870387938484969e7 0.0
1.0870387938484969e7 -1.0149333191713046e7 0.0
0.0 0.0 0.0

-4.096359951615326e6 1.761726298949515e7 0.0
1.761726298949515e7 -655350.0814109893 0.0
0.0 0.0 0.0

-1.1350922270572603e7 6.098865575235473e6 0.0
6.098865575235473e6 3.0906314439786438e7 0.0
0.0 0.0 0.0

833506.4308578717 1.140479439501049e7 0.0
1.140479439501049e7 -7.515107440788612e6 0.0
0.0 0.0 0.0

3.1029184926384864e6 8.309124097077914e6 0.0
8.309124097077914e6 -1.3506306919818856e7 0.0
0.0 0.0 0.0

-98596.1040871935 1.5276020371413054e7 0.0
1.5276020371413054e7 -5.496014399172858e6 0.0
0.0 0.0 0.0

-463072.73000468453 1.0659501546292776e7 0.0
1.0659501546292776e7 -6.977290077669722e6 0.0
0.0 0.0 0.0

-1.1556480033049751e7 -1.6306201880977866e6 0.0
-1.6306201880977866e6 2.722746638663449e7 0.0
0.0 0.0 0.0

-4.470811769562773e6 1.462351137979389e7 0.0
1.462351137979389e7 1.1633846461788509e7 0.0
0.0 0.0 0.0

3.60441436699605e6 8.687487618691463e6 0.0
8.687487618691463e6 -1.9162580372537233e7 0.0
0.0 0.0 0.0

-3.442491567904096e6 1.7440618194586843e7 0.0
1.7440618194586843e7 -754306.410265736 0.0
0.0 0.0 0.0

-3.102711078793108e6 1.3554486961251281e7 0.0
1.3554486961251281e7 9.002303234060884e6 0.0
0.0 0.0 0.0

3.6868116245421097e6 7.751218568637032e6 0.0
7.751218568637032e6 -1.3207585968060395e7 0.0
0.0 0.0 0.0

2.0430420897070367e7 1.4392789484635476e7 0.0
1.4392789484635476e7 3.4239502898883354e6 0.0
0.0 0.0 0.0

-3.4544169257579786e6 1.708013174130651e7 0.0
1.708013174130651e7 -811488.8966546456 0.0
0.0 0.0 0.0

-6.286561937599357e6 -4.300788280745249e6 0.0
-4.300788280745249e6 1.1828823274284039e7 0.0
0.0 0.0 0.0

-1.2412429356164914e7 -1.5853107461779825e6 0.0
-1.5853107461779825e6 2.4357762124759898e7 0.0
0.0 0.0 0.0

5.103231496424744e6 4.750308146326644e6 0.0
4.750308146326644e6 -1.4379496454150295e7 0.0
0.0 0.0 0.0

-5.871220903785477e6 1.5377772312243516e7 0.0
1.5377772312243516e7 3.9165370866828584e6 0.0
0.0 0.0 0.0

-722731.3438526532 1.2837314643652596e7 0.0
1.2837314643652596e7 -4.244574126988694e6 0.0
0.0 0.0 0.0

-2.0197734817384225e6 1.4794476999111347e7 0.0
1.4794476999111347e7 -5.695697175736916e6 0.0
0.0 0.0 0.0

-6.563450608056306e6 892405.432414871 0.0
892405.432414871 8.856934290079124e6 0.0
0.0 0.0 0.0

-2.31866159408845e6 1.4659903432915483e7 0.0
1.4659903432915483e7 -3.1341401700572986e6 0.0
0.0 0.0 0.0

-1.171771775785804e7 -1.883504620087502e6 0.0
-1.883504620087502e6 2.6518967026664272e7 0.0
0.0 0.0 0.0

3.4229279768781327e6 1.2027741550659277e7 0.0
1.2027741550659277e7 698249.3539146386 0.0
0.0 0.0 0.0

3.0342556974839475e6 9.733409883143652e6 0.0
9.733409883143652e6 -1.8290314338989403e7 0.0
0.0 0.0 0.0

4.0342612303677453e6 8.551452518615264e6 0.0
8.551452518615264e6 -1.8990506721006587e7 0.0
0.0 0.0 0.0

-1.1728919179232365e7 8.926063032142185e6 0.0
8.926063032142185e6 1.5361364070506051e7 0.0
0.0 0.0 0.0

-4.447611199930192e6 1.295319977791801e7 0.0
1.295319977791801e7 2.812006204370015e6 0.0
0.0 0.0 0.0

1.147752434740031e6 5.045283333703984e6 0.0
5.045283333703984e6 -4.1495336800122466e6 0.0
0.0 0.0 0.0

743338.316412075 1.1692713570238192e7 0.0
1.1692713570238192e7 -7.060054821472446e6 0.0
0.0 0.0 0.0

-5.970666934263412e6 1.7148006564741753e7 0.0
1.7148006564741753e7 6.32950379959943e6 0.0
0.0 0.0 0.0

-588149.5966221867 1.505360347983493e7 0.0
1.505360347983493e7 1.5836409018627504e7 0.0
0.0 0.0 0.0

3.3311550436101463e6 1.4873223535543924e7 0.0
1.4873223535543924e7 -4.903005888018348e6 0.0
0.0 0.0 0.0

-9.716412306027919e6 -1.7464672906146257e6 0.0
-1.7464672906146257e6 4.346695507492148e7 0.0
0.0 0.0 0.0

-1.1736073982933171e7 5.050164850166803e6 0.0
5.050164850166803e6 2.37138597070968e7 0.0
0.0 0.0 0.0

-8.891635343619201e6 8.919456205048893e6 0.0
8.919456205048893e6 1.1779379339185975e7 0.0
0.0 0.0 0.0

-898706.4740919301 1.1156382246818928e7 0.0
1.1156382246818928e7 3.0218372466410613e6 0.0
0.0 0.0 0.0

-3.247475029254658e6 4.684339911306625e6 0.0
4.684339911306625e6 2.9068395822414206e6 0.0
0.0 0.0 0.0

-8.347163626099004e6 1.3178699263927747e7 0.0
1.3178699263927747e7 3.6423297186177187e6 0.0
0.0 0.0 0.0

5.019995501006024e6 5.809062389550572e6 0.0
5.809062389550572e6 -1.5173117736587338e7 0.0
0.0 0.0 0.0

-1.5903318759716935e6 1.2514668290183712e7 0.0
1.2514668290183712e7 -1.7095439875119656e7 0.0
0.0 0.0 0.0

-157448.3634787663 1.2427524465428568e7 0.0
1.2427524465428568e7 1.1438978822589577e6 0.0
0.0 0.0 0.0

2.3716511620425745e6 1.8280692647978026e7 0.0
1.8280692647978026e7 -8.121822095294723e6 0.0
0.0 0.0 0.0

748446.9867453557 1.3740231734442798e7 0.0
1.3740231734442798e7 -6.7527554254706e6 0.0
0.0 0.0 0.0

-8.423301720337497e6 1.6591880700651923e7 0.0
1.6591880700651923e7 -43473.090659011155 0.0
0.0 0.0 0.0

-4.768102704476071e6 1.691061933053319e7 0.0
1.691061933053319e7 1.6488905109827996e6 0.0
0.0 0.0 0.0

19644.433182867942 6.013814051619608e6 0.0
6.013814051619608e6 -4.0388797585800043e6 0.0
0.0 0.0 0.0

-9.439077037109125e6 2.2326702323151153e7 0.0
2.2326702323151153e7 8.098161148655573e6 0.0
0.0 0.0 0.0

-4.2746294995258525e6 1.325992607630289e7 0.0
1.325992607630289e7 2.290004075671331e6 0.0
0.0 0.0 0.0

-6.064501637030929e6 5.336332453834242e6 0.0
5.336332453834242e6 5.142744957756054e6 0.0
0.0 0.0 0.0

-4.554342483998275e6 1.3127166410670029e7 0.0
1.3127166410670029e7 1.1818808511338397e6 0.0
0.0 0.0 0.0

-322507.0635739755 3.989497600143697e6 0.0
3.989497600143697e6 -2.2872088562577697e6 0.0
0.0 0.0 0.0

-719129.5951754919 6.833075599658961e6 0.0
6.833075599658961e6 -5.397942510071999e6 0.0
0.0 0.0 0.0

2.836158668902035e6 9.9565310802205e6 0.0
9.9565310802205e6 -1.6488146951294608e7 0.0
0.0 0.0 0.0

-3.0145134229787537e6 1.551038555542519e7 0.0
1.551038555542519e7 -1.9415917558481246e6 0.0
0.0 0.0 0.0

-6.540844875192772e6 1.3317296061003173e7 0.0
1.3317296061003173e7 1.0909376192573154e7 0.0
0.0 0.0 0.0

-611107.7843883741 1.2774096825061776e7 0.0
1.2774096825061776e7 -3.4104648269521645e6 0.0
0.0 0.0 0.0

3.1992242742754463e6 5.03592937382248e6 0.0
5.03592937382248e6 -8.880372922125367e6 0.0
0.0 0.0 0.0

-3.6456664767320226e6 1.5461331234779054e7 0.0
1.5461331234779054e7 -1.2063538052925551e6 0.0
0.0 0.0 0.0

-4.744639253067552e6 1.7533505638770234e7 0.0
1.7533505638770234e7 1.4351510867224254e6 0.0
0.0 0.0 0.0

200380.41453816043 1.5057745090197e7 0.0
1.5057745090197e7 -5.190519684611199e6 0.0
0.0 0.0 0.0

-7.01776024226836e6 6.479238383267793e6 0.0
6.479238383267793e6 6.943893922338858e6 0.0
0.0 0.0 0.0

444888.86310700607 1.1694907594794853e7 0.0
1.1694907594794853e7 -1.1368566713323046e7 0.0
0.0 0.0 0.0

-7.183293550823107e6 1.9881522012551744e7 0.0
1.9881522012551744e7 6.297752267015949e6 0.0
0.0 0.0 0.0

-6.5931847598911505e6 1.9555370308142215e7 0.0
1.9555370308142215e7 5.880692252046549e6 0.0
0.0 0.0 0.0

729078.6391180046 1.1324788718626907e7 0.0
1.1324788718626907e7 -1.5201505760540804e7 0.0
0.0 0.0 0.0

-524053.3902927353 1.0909550443430554e7 0.0
1.0909550443430554e7 -8.216682966370924e6 0.0
0.0 0.0 0.0

-370600.88348281354 1.2827450914143873e7 0.0
1.2827450914143873e7 887221.2173080307 0.0
0.0 0.0 0.0

3.6431009077072022e6 8.12990535961475e6 0.0
8.12990535961475e6 -1.5868644180187225e7 0.0
0.0 0.0 0.0

-1.2192878796733923e7 5.3821152625979e6 0.0
5.3821152625979e6 1.9312337774477012e7 0.0
0.0 0.0 0.0

3.5666764737163614e6 1.064683823296426e7 0.0
1.064683823296426e7 -2.7880476107692543e7 0.0
0.0 0.0 0.0

-3.053949027974152e6 2.180547233471622e7 0.0
2.180547233471622e7 -4.417724327156831e6 0.0
0.0 0.0 0.0

1.183087960815197e6 1.320140940051837e7 0.0
1.320140940051837e7 7.606628188873027e6 0.0
0.0 0.0 0.0

-2.2434640216858312e6 1.4207686613772303e7 0.0
1.4207686613772303e7 1.3682054649233578e7 0.0
0.0 0.0 0.0

5.48326709687276e6 1.4741882879532441e7 0.0
1.4741882879532441e7 5.873217478653882e6 0.0
0.0 0.0 0.0

-633663.6916807893 1.0460031015639251e7 0.0
1.0460031015639251e7 217618.4925925042 0.0
0.0 0.0 0.0

-3.331322116384673e6 1.530886741645624e7 0.0
1.530886741645624e7 -1.0412524613538034e6 0.0
0.0 0.0 0.0

-1.247506067591246e7 1.4931637797623288e7 0.0
1.4931637797623288e7 -489322.9503495572 0.0
0.0 0.0 0.0

-39669.098007221124 9.929690579168938e6 0.0
9.929690579168938e6 -1.0958031814298797e6 0.0
0.0 0.0 0.0

-2.2344781962780524e6 1.4412051125317827e7 0.0
1.4412051125317827e7 2.031439671902656e6 0.0
0.0 0.0 0.0

4.815898777620218e6 5.526009685066072e6 0.0
5.526009685066072e6 -1.3242128549697692e7 0.0
0.0 0.0 0.0

-8.966575015925063e6 1.3955918671161998e7 0.0
1.3955918671161998e7 4.842137674830183e6 0.0
0.0 0.0 0.0

-1.4553653303474111e7 2.2398387875291575e7 0.0
2.2398387875291575e7 9.627583298536744e6 0.0
0.0 0.0 0.0

-8.126981565951085e6 352806.1936000637 0.0
352806.1936000637 1.1335840591074705e7 0.0
0.0 0.0 0.0

-595016.2448512348 1.9042211379979756e7 0.0
1.9042211379979756e7 -4.779876035432752e6 0.0
0.0 0.0 0.0

-9.964753188938582e6 6.855951064960549e6 0.0
6.855951064960549e6 4.681506425640053e7 0.0
0.0 0.0 0.0

-6.30228861522002e6 -4.181989143480534e6 0.0
-4.181989143480534e6 9.41194294566664e6 0.0
0.0 0.0 0.0

-4.126476927954207e6 1.4116796229511937e7 0.0
1.4116796229511937e7 -2.0387803063404057e7 0.0
0.0 0.0 0.0

850295.6328671654 1.2600306006138911e7 0.0
1.2600306006138911e7 -8.284565361710109e6 0.0
0.0 0.0 0.0

-4.816263226821742e6 1.8040691370351475e7 0.0
1.8040691370351475e7 2.355410026983755e6 0.0
0.0 0.0 0.0

-6.60186536271329e6 1.159380040692191e7 0.0
1.159380040692191e7 799178.6395707447 0.0
0.0 0.0 0.0

49216.37118472997 7.766668159390959e6 0.0
7.766668159390959e6 -3.4467966211077766e6 0.0
0.0 0.0 0.0

-4.411560211713195e6 1.6236559009751683e7 0.0
1.6236559009751683e7 652337.9742799972 0.0
0.0 0.0 0.0

-5.8751759297425e6 1.9152704259517934e7 0.0
1.9152704259517934e7 5.329059669575935e6 0.0
0.0 0.0 0.0

-4.701414904947814e6 1.8113016170471635e7 0.0
1.8113016170471635e7 2.300334698126814e6 0.0
0.0 0.0 0.0

2.4273136808578093e6 1.0139960053803628e7 0.0
1.0139960053803628e7 -3.1882248928506803e7 0.0
0.0 0.0 0.0

-2.6776982558664815e6 1.1693231838236995e7 0.0
1.1693231838236995e7 -3.5492738258396173e6 0.0
0.0 0.0 0.0

-1.1170596993702544e7 -1.7654232900130765e6 0.0
-1.7654232900130765e6 3.3484132190030456e7 0.0
0.0 0.0 0.0

3.361239602044694e6 1.7063436255166993e7 0.0
1.7063436255166993e7 2.8762537627292722e7 0.0
0.0 0.0 0.0

-3.045027751052222e7 -1.2431553929594816e6 0.0
-1.2431553929594816e6 1.0741623401110366e7 0.0
0.0 0.0 0.0

1.2745936249240741e7 1.4213905658794586e7 0.0
1.4213905658794586e7 -6.973895707745067e6 0.0
0.0 0.0 0.0

1.9388703362076152e6 1.1111338105496688e7 0.0
1.1111338105496688e7 -1.4440203690630257e7 0.0
0.0 0.0 0.0

2.0943690315089347e6 5.663983602576159e6 0.0
5.663983602576159e6 -6.461472391024687e6 0.0
0.0 0.0 0.0

1.8465077427849278e7 1.3584080051419664e7 0.0
1.3584080051419664e7 -1.0457786298801374e7 0.0
0.0 0.0 0.0

1.894365572518976e6 8.55829661936938e6 0.0
8.55829661936938e6 -5.259532411779706e6 0.0
0.0 0.0 0.0

7.7990439347638e6 1.438701993112528e7 0.0
1.438701993112528e7 5.016607900410568e6 0.0
0.0 0.0 0.0

-4.921698503466513e6 1.6792216180194452e7 0.0
1.6792216180194452e7 1.914259457372888e6 0.0
0.0 0.0 0.0

-6.135293350997973e6 1.7438514683234897e7 0.0
1.7438514683234897e7 6.4554800651123e6 0.0
0.0 0.0 0.0

-487974.2976570504 9.695282072692996e6 0.0
9.695282072692996e6 -5.358911741327085e6 0.0
0.0 0.0 0.0

-7.170792170055016e6 7.563918681145307e6 0.0
7.563918681145307e6 926801.1812136541 0.0
0.0 0.0 0.0

-1.3889478403695135e6 1.1330657448292177e7 0.0
1.1330657448292177e7 -1.0841132432538863e7 0.0
0.0 0.0 0.0

-1.82173228980873e6 1.395641568568599e7 0.0
1.395641568568599e7 2.8954708263125336e6 0.0
0.0 0.0 0.0

-1.492327697408249e6 1.2015039996637447e7 0.0
1.2015039996637447e7 5.552609613610191e6 0.0
0.0 0.0 0.0

-1.054650624847057e7 5.690823577593378e6 0.0
5.690823577593378e6 4.3143394472054094e7 0.0
0.0 0.0 0.0

-4.79714393658768e6 1.5834539731239295e7 0.0
1.5834539731239295e7 1.530036711646388e6 0.0
0.0 0.0 0.0

5.124614910369789e6 4.765278729598153e6 0.0
4.765278729598153e6 -1.452206751869229e7 0.0
0.0 0.0 0.0

-4.713093330086704e6 1.4332973046049764e7 0.0
1.4332973046049764e7 7.439533201650779e6 0.0
0.0 0.0 0.0

-2.2673142666085702e6 1.2164103341318768e7 0.0
1.2164103341318768e7 6.259025382083861e6 0.0
0.0 0.0 0.0

2.732454228044208e6 1.5907039567271167e7 0.0
1.5907039567271167e7 -6.198167330079075e6 0.0
0.0 0.0 0.0

-3.311024315396295e6 1.5670184426671997e7 0.0
1.5670184426671997e7 -3.0365162988140993e6 0.0
0.0 0.0 0.0

-7.27310089556421e6 2.0755179277758744e7 0.0
2.0755179277758744e7 5.937035530211445e6 0.0
0.0 0.0 0.0

-473157.18265663297 6.268684242815664e6 0.0
6.268684242815664e6 -3.457405829786041e6 0.0
0.0 0.0 0.0

-9.680593473964505e6 1.9364170330006756e7 0.0
1.9364170330006756e7 7.872684399332026e6 0.0
0.0 0.0 0.0

-5.238527057499628e6 1.7398636943859365e7 0.0
1.7398636943859365e7 4.422879124658512e6 0.0
0.0 0.0 0.0

-9.152725350839786e6 1.0114315281271411e7 0.0
1.0114315281271411e7 1.152923794585764e7 0.0
0.0 0.0 0.0

9.493966700389452e6 1.444470489306013e7 0.0
1.444470489306013e7 -7.412505133946559e6 0.0
0.0 0.0 0.0

-311930.85912773246 1.2805344132387914e7 0.0
1.2805344132387914e7 -7.526864453628797e6 0.0
0.0 0.0 0.0

-5.050026523585513e6 1.6676060854988705e7 0.0
1.6676060854988705e7 2.2451249987861877e6 0.0
0.0 0.0 0.0

-190034.21444569505 9.056486951458931e6 0.0
9.056486951458931e6 -5.668984821473368e6 0.0
0.0 0.0 0.0

-2.4024126379296607e6 1.3781638071739912e7 0.0
1.3781638071739912e7 5.069872174449847e6 0.0
0.0 0.0 0.0

-7.986941161615626e6 4.880109913839256e6 0.0
4.880109913839256e6 2.841767962219683e6 0.0
0.0 0.0 0.0

-8.222911134905249e6 1.3045262278774843e7 0.0
1.3045262278774843e7 4.868048350493474e6 0.0
0.0 0.0 0.0

465638.3864445598 1.2698917815957272e7 0.0
1.2698917815957272e7 -8.053000874025685e6 0.0
0.0 0.0 0.0

-201996.2965948491 1.2016153742021076e7 0.0
1.2016153742021076e7 4.851158242037218e6 0.0
0.0 0.0 0.0

146282.97535139555 1.2641388615122354e7 0.0
1.2641388615122354e7 -1.0339651562100485e7 0.0
0.0 0.0 0.0

-7.265287190031285e6 1.3198511072481932e7 0.0
1.3198511072481932e7 1.0666686778442247e7 0.0
0.0 0.0 0.0

-1.3886333020977415e7 8.916286861680249e6 0.0
8.916286861680249e6 7.454370025857884e6 0.0
0.0 0.0 0.0

-1.8091409914191426e6 1.3892317912152924e7 0.0
1.3892317912152924e7 754219.7940794963 0.0
0.0 0.0 0.0

-1.0878127955640998e7 2.3115527555713826e6 0.0
2.3115527555713826e6 1.24571743892829e7 0.0
0.0 0.0 0.0

-1.4155600434027575e6 1.3702249080935549e7 0.0
1.3702249080935549e7 5.964949464652122e6 0.0
0.0 0.0 0.0

-409102.3343251201 2.029643810623816e7 0.0
2.029643810623816e7 -6.681641103371166e6 0.0
0.0 0.0 0.0

-2.53432279278766e7 1.386843948535317e7 0.0
1.386843948535317e7 9.340332910826694e6 0.0
0.0 0.0 0.0

-3.9183191584473667e6 2.327940955223439e7 0.0
2.327940955223439e7 -929370.0680070379 0.0
0.0 0.0 0.0

-7.153072939254835e6 1.5086849334203888e7 0.0
1.5086849334203888e7 1.3118993986120722e6 0.0
0.0 0.0 0.0

-4.499525149754646e6 2.1656284558715105e7 0.0
2.1656284558715105e7 1.5868161176878593e6 0.0
0.0 0.0 0.0

-9.571747757271808e6 680013.4077655143 0.0
680013.4077655143 1.0824270333966393e7 0.0
0.0 0.0 0.0

3.509613887257782e6 1.551295684338615e7 0.0
1.551295684338615e7 -5.562895867505039e6 0.0
0.0 0.0 0.0

-6.440854357510192e6 1.9820933454198074e7 0.0
1.9820933454198074e7 6.288064397845352e6 0.0
0.0 0.0 0.0

-2.4916296959514865e6 1.4266666117400313e7 0.0
1.4266666117400313e7 72749.34017470165 0.0
0.0 0.0 0.0

964008.5025856607 1.19126704083066e7 0.0
1.19126704083066e7 -1.2592366428418346e7 0.0
0.0 0.0 0.0

-6.5995309252103055e6 1.8440074262798745e7 0.0
1.8440074262798745e7 6.556292525006451e6 0.0
0.0 0.0 0.0

-6.1170457707205685e6 1.1102429451256888e7 0.0
1.1102429451256888e7 4.22660771706065e6 0.0
0.0 0.0 0.0

-5.044423994946996e6 2.161561136446046e7 0.0
2.161561136446046e7 -291006.35673687863 0.0
0.0 0.0 0.0

-1.125398746917049e7 1.9173094956791095e7 0.0
1.9173094956791095e7 8.996462619078092e6 0.0
0.0 0.0 0.0

2.162952370468864e6 1.5620812256989276e7 0.0
1.5620812256989276e7 -5.86272291163822e6 0.0
0.0 0.0 0.0

3.68027154387852e6 6.1015501180231925e6 0.0
6.1015501180231925e6 -9.972237091687053e6 0.0
0.0 0.0 0.0

-1.1144462331766742e6 1.216444925308288e7 0.0
1.216444925308288e7 -1.5427395338944279e7 0.0
0.0 0.0 0.0

3.245294001732311e6 4.896378396696148e6 0.0
4.896378396696148e6 -9.367416870826945e6 0.0
0.0 0.0 0.0

-211734.21772633214 1.3798465061398273e7 0.0
1.3798465061398273e7 7.641976401221241e6 0.0
0.0 0.0 0.0

1.8289309328178028e6 1.3990330505362844e7 0.0
1.3990330505362844e7 -5.185598248212239e6 0.0
0.0 0.0 0.0

-1.9846197090532486e6 1.9127271683807187e7 0.0
1.9127271683807187e7 -3.5543710640800814e6 0.0
0.0 0.0 0.0

-1.1819896224811938e7 9.757437362063093e6 0.0
9.757437362063093e6 1.4135116061853696e7 0.0
0.0 0.0 0.0

-103971.19557826687 1.0091724881202238e7 0.0
1.0091724881202238e7 -4.76106369426372e6 0.0
0.0 0.0 0.0

-1.653640439392299e6 4.956515614890532e6 0.0
4.956515614890532e6 5.552427114684174e6 0.0
0.0 0.0 0.0

3.817450933871652e6 9.26158049841447e6 0.0
9.26158049841447e6 -2.4267645447131753e7 0.0
0.0 0.0 0.0

73628.91468319841 1.1513223344755005e7 0.0
1.1513223344755005e7 654219.505275238 0.0
0.0 0.0 0.0

-1.0522703242720693e7 1.7775431756937683e7 0.0
1.7775431756937683e7 7.2469219912187485e6 0.0
0.0 0.0 0.0

644992.3770554978 1.1647392235844573e7 0.0
1.1647392235844573e7 -8.7362196090552e6 0.0
0.0 0.0 0.0

7.828635361634383e6 1.291380407250017e7 0.0
1.291380407250017e7 -682706.0688876268 0.0
0.0 0.0 0.0

-1.1120779914496839e7 1.1751650598410896e6 0.0
1.1751650598410896e6 1.6071029703306112e7 0.0
0.0 0.0 0.0

-1.755705565491037e7 1.3668258360510936e7 0.0
1.3668258360510936e7 6.406626508201645e6 0.0
0.0 0.0 0.0

6.343845457865448e6 1.9811508938586105e7 0.0
1.9811508938586105e7 -1.4986446291885953e7 0.0
0.0 0.0 0.0

-6.092945368765985e6 1.7537451790680215e7 0.0
1.7537451790680215e7 6.793574423415974e6 0.0
0.0 0.0 0.0

-902169.4504791044 8.725789422407802e6 0.0
8.725789422407802e6 -386384.4505230758 0.0
0.0 0.0 0.0

-1.1712849015273519e7 1.004817215176061e7 0.0
1.004817215176061e7 1.6081585565402929e7 0.0
0.0 0.0 0.0

-8.2447960940176975e6 -4.787630412235488e6 0.0
-4.787630412235488e6 1.263528822117785e7 0.0
0.0 0.0 0.0

-579435.3653164813 1.2670180162605036e7 0.0
1.2670180162605036e7 -8.295116075359271e6 0.0
0.0 0.0 0.0

-4.88215732513695e6 1.741195148217346e7 0.0
1.741195148217346e7 -1.640070717984314e6 0.0
0.0 0.0 0.0

-978085.1446076706 1.265666043736021e7 0.0
1.265666043736021e7 -5.14191616546277e6 0.0
0.0 0.0 0.0

-1.1409426026876308e7 6.32443705354946e6 0.0
6.32443705354946e6 2.7941473372636154e7 0.0
0.0 0.0 0.0

1.9421628562078374e6 1.065187033121671e7 0.0
1.065187033121671e7 -1.4266888560556574e7 0.0
0.0 0.0 0.0

-5.977930994973489e6 1.7347465592605624e7 0.0
1.7347465592605624e7 -871975.9410342117 0.0
0.0 0.0 0.0

1.1380125336482124e6 1.171528383332263e7 0.0
1.171528383332263e7 -1.249160244185744e7 0.0
0.0 0.0 0.0

6.653885586239463e6 1.3079831209252944e7 0.0
1.3079831209252944e7 3.4570102934161546e6 0.0
0.0 0.0 0.0

-1.1888886680011727e7 4.4403775812038025e6 0.0
4.4403775812038025e6 2.5537546902533285e7 0.0
0.0 0.0 0.0

1.3453964655114037e6 1.1846709549370749e7 0.0
1.1846709549370749e7 -3.138115959236565e6 0.0
0.0 0.0 0.0

-4.538793791700595e6 1.389234966752953e7 0.0
1.389234966752953e7 7.990710159876859e6 0.0
0.0 0.0 0.0

-3.3201834793061404e6 1.7937794119301155e7 0.0
1.7937794119301155e7 -845966.798511208 0.0
0.0 0.0 0.0

3.757130209472185e6 8.182868587702104e6 0.0
8.182868587702104e6 -1.4013621193526395e7 0.0
0.0 0.0 0.0

1.779289096594174e6 7.4678108105600355e6 0.0
7.4678108105600355e6 -7.0127310880481005e6 0.0
0.0 0.0 0.0

3.470716996462957e6 9.34701163808402e6 0.0
9.34701163808402e6 -2.1723098126447722e7 0.0
0.0 0.0 0.0

-3.0225761794259013e6 1.5311451228470076e7 0.0
1.5311451228470076e7 -1.1361943589031373e6 0.0
0.0 0.0 0.0

-1.3062231369064802e7 3.7907433487560567e6 0.0
3.7907433487560567e6 2.2190633937384278e7 0.0
0.0 0.0 0.0

-2.467465864818837e6 1.5365386576379037e7 0.0
1.5365386576379037e7 -2.0747869501522887e6 0.0
0.0 0.0 0.0

-618891.7575873912 1.2147149227643576e7 0.0
1.2147149227643576e7 -5.433646791589996e6 0.0
0.0 0.0 0.0

4.144744203347996e6 7.824220928029968e6 0.0
7.824220928029968e6 -2.0237258422681384e7 0.0
0.0 0.0 0.0

-1.2094680470994717e7 8.761127322584858e6 0.0
8.761127322584858e6 1.7799654239424624e7 0.0
0.0 0.0 0.0

328861.49741153 1.2459882412272578e7 0.0
1.2459882412272578e7 2.7980451515145428e6 0.0
0.0 0.0 0.0

2.491774324004852e6 9.963249513783943e6 0.0
9.963249513783943e6 -1.764099705233431e7 0.0
0.0 0.0 0.0

5.093840739351248e6 4.948573043166882e6 0.0
4.948573043166882e6 -1.5735630744329697e7 0.0
0.0 0.0 0.0

-6.773668935507007e6 1.4141773148733703e7 0.0
1.4141773148733703e7 9.084153690396126e6 0.0
0.0 0.0 0.0

-3.7581495664006034e6 1.666829600685815e7 0.0
1.666829600685815e7 -172021.73156457953 0.0
0.0 0.0 0.0

1.1482969819781906e6 9.682525191117031e6 0.0
9.682525191117031e6 -7.312731837363927e6 0.0
0.0 0.0 0.0

-1.0369420106468303e7 -2.323860116729197e6 0.0
-2.323860116729197e6 1.9209252464813508e7 0.0
0.0 0.0 0.0

369672.24009770993 3.954093863167829e6 0.0
3.954093863167829e6 -2.257987814629483e6 0.0
0.0 0.0 0.0

-8.332898654074382e6 1.2445193665356405e7 0.0
1.2445193665356405e7 9.81229294930364e6 0.0
0.0 0.0 0.0

7.174606273211263e6 1.4471497677119875e7 0.0
1.4471497677119875e7 4.1364423332811175e6 0.0
0.0 0.0 0.0

4.434586350789984e6 1.3701555987815225e7 0.0
1.3701555987815225e7 4.766813577754081e6 0.0
0.0 0.0 0.0

-5.103250608168845e6 1.6006811908658372e7 0.0
1.6006811908658372e7 -1.4836772635376286e6 0.0
0.0 0.0 0.0

-864708.0785988092 1.0018201927917406e7 0.0
1.0018201927917406e7 -7.715568042816759e6 0.0
0.0 0.0 0.0

-2.800117766055298e6 1.6083223709458278e7 0.0
1.6083223709458278e7 -2.3300969288213095e6 0.0
0.0 0.0 0.0

-6.8751719693893725e6 1.4993291352718972e7 0.0
1.4993291352718972e7 2.173079493795753e6 0.0
0.0 0.0 0.0

3.1660737561073033e6 9.546037170538599e6 0.0
9.546037170538599e6 -1.999198229886055e7 0.0
0.0 0.0 0.0

660667.6655247044 4.672373623797935e6 0.0
4.672373623797935e6 -4.149274653291639e6 0.0
0.0 0.0 0.0

315325.6297844702 6.006824320298758e6 0.0
6.006824320298758e6 -3.052249056873943e6 0.0
0.0 0.0 0.0

-86482.52854197679 1.2060044895527968e7 0.0
1.2060044895527968e7 -746505.1112416299 0.0
0.0 0.0 0.0

3.4439675199225233e6 1.4495946420579296e7 0.0
1.4495946420579296e7 7.044926044731632e6 0.0
0.0 0.0 0.0

-1.1412507455561701e6 1.0278535302784357e7 0.0
1.0278535302784357e7 1.9168750034672352e6 0.0
0.0 0.0 0.0

-7.411310619866127e6 1.3350494010993952e7 0.0
1.3350494010993952e7 8.891391458912157e6 0.0
0.0 0.0 0.0

-1.8238221930859566e7 3.3339974923343696e6 0.0
3.3339974923343696e6 1.0364836482202917e7 0.0
0.0 0.0 0.0

-165455.3828512812 1.2534692272704715e7 0.0
1.2534692272704715e7 2.1598341831043754e6 0.0
0.0 0.0 0.0

3.081108710367203e6 6.190005286263483e6 0.0
6.190005286263483e6 -1.0121682239822239e7 0.0
0.0 0.0 0.0

-1.0273524351106565e7 1.8485997628896534e7 0.0
1.8485997628896534e7 8.298292404429925e6 0.0
0.0 0.0 0.0

-9.972777795182128e6 -4.559098818390169e6 0.0
-4.559098818390169e6 2.1115861186108526e7 0.0
0.0 0.0 0.0

-670773.5520740021 1.3596547032039525e7 0.0
1.3596547032039525e7 -3.9965455323448465e6 0.0
0.0 0.0 0.0

-2.451427710246053e6 1.4626109204022462e7 0.0
1.4626109204022462e7 1.0204634235242372e7 0.0
0.0 0.0 0.0

-4.515273680913455e6 1.6401257479794169e7 0.0
1.6401257479794169e7 236958.60146903107 0.0
0.0 0.0 0.0

420972.1014506761 1.1530137743651742e7 0.0
1.1530137743651742e7 -1.4144878402716402e7 0.0
0.0 0.0 0.0

4.818058456991575e6 1.462857264482836e7 0.0
1.462857264482836e7 5.6290476322975205e6 0.0
0.0 0.0 0.0

104935.65423846198 1.197456162411727e7 0.0
1.197456162411727e7 -1.1764586848875787e7 0.0
0.0 0.0 0.0

-515558.1038198862 1.2996805889226707e7 0.0
1.2996805889226707e7 3.08224848920616e6 0.0
0.0 0.0 0.0

-3.0437708257058384e6 1.3439769921004293e7 0.0
1.3439769921004293e7 8.333567125092168e6 0.0
0.0 0.0 0.0

-4.7779787754595205e6 1.4010954818257242e7 0.0
1.4010954818257242e7 7.6685240702199135e6 0.0
0.0 0.0 0.0

-2.80422380329981e6 1.396907926202232e7 0.0
1.396907926202232e7 4.181391014961959e6 0.0
0.0 0.0 0.0

4.5394761801172905e6 6.102129746661481e6 0.0
6.102129746661481e6 -1.5615259102238668e7 0.0
0.0 0.0 0.0

-4.901620690706836e6 1.8904417522931684e7 0.0
1.8904417522931684e7 2.352717995326477e6 0.0
0.0 0.0 0.0

-2.872651140185316e6 1.2236757295356669e7 0.0
1.2236757295356669e7 -2.226629596148098e6 0.0
0.0 0.0 0.0

9.60371853153971e6 1.172949437566599e7 0.0
1.172949437566599e7 1.5917293341844021e6 0.0
0.0 0.0 0.0

-7.496425907857783e6 1.7867664278331064e7 0.0
1.7867664278331064e7 6.636600524038903e6 0.0
0.0 0.0 0.0

5.204541027965191e6 5.572794386551893e6 0.0
5.572794386551893e6 -1.7419258892447866e7 0.0
0.0 0.0 0.0

-4.356913264738381e6 1.190676717596401e7 0.0
1.190676717596401e7 2.9647163115572e6 0.0
0.0 0.0 0.0

4.917769900117593e6 1.2268524083052438e7 0.0
1.2268524083052438e7 1.3690369808223594e6 0.0
0.0 0.0 0.0

1.3922875979634877e7 1.028470898591034e7 0.0
1.028470898591034e7 -2.233575086716391e6 0.0
0.0 0.0 0.0

-7.011725089479458e6 1.9739805113584295e7 0.0
1.9739805113584295e7 6.8673488490329925e6 0.0
0.0 0.0 0.0

525692.1437607799 1.2997085850734975e7 0.0
1.2997085850734975e7 -9.845130901841452e6 0.0
0.0 0.0 0.0

-5.69565240309599e6 6.106281623560689e6 0.0
6.106281623560689e6 7.476125419411924e6 0.0
0.0 0.0 0.0

-1.0126887329457842e7 -4.925867382599814e6 0.0
-4.925867382599814e6 1.876537121928218e7 0.0
0.0 0.0 0.0

31907.214832502825 1.2311297490370505e7 0.0
1.2311297490370505e7 1.0072372348998372e6 0.0
0.0 0.0 0.0

1.2449004964662758e6 1.2826716008206103e7 0.0
1.2826716008206103e7 8.939626268330967e6 0.0
0.0 0.0 0.0

-1.0517241315221656e7 -782975.8879882607 0.0
-782975.8879882607 1.5051060740531985e7 0.0
0.0 0.0 0.0

-1.537231805436988e6 8.878716685997164e6 0.0
8.878716685997164e6 -2.780210382492104e6 0.0
0.0 0.0 0.0

-2.1212037448765514e6 1.352967688028223e7 0.0
1.352967688028223e7 -3.987019268493925e6 0.0
0.0 0.0 0.0

-189375.4449267625 1.1547122825887663e7 0.0
1.1547122825887663e7 -1.3234903391215859e7 0.0
0.0 0.0 0.0

-4.970287181731996e6 1.8460890124871437e7 0.0
1.8460890124871437e7 2.6712923041571714e6 0.0
0.0 0.0 0.0

-3.71655858251634e6 1.845372190173638e7 0.0
1.845372190173638e7 -1.448342191759925e6 0.0
0.0 0.0 0.0

-6.392590444854133e6 2.306320438465675e7 0.0
2.306320438465675e7 -334823.942643594 0.0
0.0 0.0 0.0

-1.4542553573191717e7 2.0818486340464998e7 0.0
2.0818486340464998e7 9.934946698885955e6 0.0
0.0 0.0 0.0

1.6927724104547899e6 1.3596948038250001e7 0.0
1.3596948038250001e7 6.984582475964972e6 0.0
0.0 0.0 0.0

-25489.256290525198 1.3338921261134753e7 0.0
1.3338921261134753e7 -2.9895823421766452e7 0.0
0.0 0.0 0.0

-7.26944775123148e6 322153.55975997576 0.0
322153.55975997576 7.691933925189391e6 0.0
0.0 0.0 0.0

-3.247249747151754e6 1.168905327110078e7 0.0
1.168905327110078e7 -1.3150996367719267e7 0.0
0.0 0.0 0.0

-1.4136981904563361e6 9.600212770455549e6 0.0
9.600212770455549e6 -7.920423899084941e6 0.0
0.0 0.0 0.0

783836.5978560827 1.4077622713160442e7 0.0
1.4077622713160442e7 7.44445650616891e6 0.0
0.0 0.0 0.0

-2.616067474710799e6 1.2516379309704687e7 0.0
1.2516379309704687e7 -1.582417950812754e7 0.0
0.0 0.0 0.0

-1.980792417464124e6 1.1400434273968123e7 0.0
1.1400434273968123e7 -1.2278228714862404e7 0.0
0.0 0.0 0.0

3.244421328725177e6 1.5072194692783384e7 0.0
1.5072194692783384e7 6.233496105918379e6 0.0
0.0 0.0 0.0

-3.4003330885937368e6 1.3189560102748258e7 0.0
1.3189560102748258e7 -1.3931643303004128e6 0.0
0.0 0.0 0.0

4.1664865753293857e6 7.813316002018166e6 0.0
7.813316002018166e6 -1.5430456073459515e7 0.0
0.0 0.0 0.0

-117777.8370850173 1.23193369340634e7 0.0
1.23193369340634e7 -57936.73879069107 0.0
0.0 0.0 0.0

-5.996669035256056e6 1.6518268342797188e7 0.0
1.6518268342797188e7 -220146.65369309369 0.0
0.0 0.0 0.0

214164.75980451587 1.2806705058405044e7 0.0
1.2806705058405044e7 4.164714538030345e6 0.0
0.0 0.0 0.0

3.4573125311706797e6 5.005519859832165e6 0.0
5.005519859832165e6 -9.363464574484846e6 0.0
0.0 0.0 0.0

-5.177803637878746e6 1.6568844378625838e7 0.0
1.6568844378625838e7 2.598070446444659e6 0.0
0.0 0.0 0.0

-6.042625899082372e6 1.871868090906761e7 0.0
1.871868090906761e7 5.134589377616692e6 0.0
0.0 0.0 0.0

-1.223664571430555e7 8.438131121334178e6 0.0
8.438131121334178e6 1.6657880122947158e7 0.0
0.0 0.0 0.0

-600837.0946273142 1.0701962554742385e7 0.0
1.0701962554742385e7 3.379152758651751e6 0.0
0.0 0.0 0.0

-1.3967342763465596e6 1.405339285574445e7 0.0
1.405339285574445e7 9.197263108825324e6 0.0
0.0 0.0 0.0

-7.156703889674081e6 2.0485196150793165e7 0.0
2.0485196150793165e7 6.570675000166841e6 0.0
0.0 0.0 0.0

-7.212831993282614e6 1.3295303547359763e7 0.0
1.3295303547359763e7 9.60729774116914e6 0.0
0.0 0.0 0.0

-7.454943006717807e6 -1.5592883556687385e6 0.0
-1.5592883556687385e6 9.468027688299358e6 0.0
0.0 0.0 0.0

-5.866018967926158e6 1.8784516598349456e7 0.0
1.8784516598349456e7 5.821810515999033e6 0.0
0.0 0.0 0.0

-3.9012582125962777e6 1.6094237438445391e7 0.0
1.6094237438445391e7 580303.5387302907 0.0
0.0 0.0 0.0

-4.824763393704767e6 1.287519718818952e7 0.0
1.287519718818952e7 1.5421512045510076e6 0.0
0.0 0.0 0.0

-4.905945630108303e6 1.8663948173791777e7 0.0
1.8663948173791777e7 2.336638700209823e6 0.0
0.0 0.0 0.0

-4.711076279931786e6 1.8372539037629277e7 0.0
1.8372539037629277e7 2.3133198115485627e6 0.0
0.0 0.0 0.0

-912881.6332815251 1.3084289430210179e7 0.0
1.3084289430210179e7 -4.619872770369475e6 0.0
0.0 0.0 0.0

1.204440553896651e6 1.1778249021668015e7 0.0
1.1778249021668015e7 4.014802512422129e6 0.0
0.0 0.0 0.0

3.6016329540457446e6 7.763211035045516e6 0.0
7.763211035045516e6 -1.4708092048970953e7 0.0
0.0 0.0 0.0

-3.7425487307160543e6 1.292576581594017e7 0.0
1.292576581594017e7 -1.6792104103358556e7 0.0
0.0 0.0 0.0

-2.0978828691384927e6 1.4520611364359148e7 0.0
1.4520611364359148e7 1.121015489919062e6 0.0
0.0 0.0 0.0

-1.8725158111028142e7 2.0862577283209044e7 0.0
2.0862577283209044e7 -544899.2399418578 0.0
0.0 0.0 0.0

-2.649679949538866e6 1.1583528253477575e7 0.0
1.1583528253477575e7 -1.2095309644523036e7 0.0
0.0 0.0 0.0

-1.8856930283440422e7 1.917332147993215e7 0.0
1.917332147993215e7 1.2768794837623034e6 0.0
0.0 0.0 0.0

-4.80630640987316e6 1.4857518471462008e7 0.0
1.4857518471462008e7 6.215588271972334e6 0.0
0.0 0.0 0.0

-1.0160702467235161e7 -6.18090202549876e6 0.0
-6.18090202549876e6 2.3754137173114948e7 0.0
0.0 0.0 0.0

-3.992595185704e6 1.7857574105125297e7 0.0
1.7857574105125297e7 -643192.8838404036 0.0
0.0 0.0 0.0

-5.683877371558821e6 1.745065949000319e7 0.0
1.745065949000319e7 -1.9799220484845014e6 0.0
0.0 0.0 0.0

290562.3730051061 1.3254541926270004e7 0.0
1.3254541926270004e7 -9.29018639261354e6 0.0
0.0 0.0 0.0

-9.668782664806914e6 1.881793819909036e7 0.0
1.881793819909036e7 7.720458516835491e6 0.0
0.0 0.0 0.0

-8.53051630171023e6 2.9767727299170326e6 0.0
2.9767727299170326e6 1.1242300621607343e7 0.0
0.0 0.0 0.0

4.0116704504677225e6 8.289680436763457e6 0.0
8.289680436763457e6 -1.7635496048716e7 0.0
0.0 0.0 0.0

-1.1454145704838011e7 1.8205256043099955e7 0.0
1.8205256043099955e7 7.976830118983512e6 0.0
0.0 0.0 0.0

-160116.00382341025 1.274031116458675e7 0.0
1.274031116458675e7 770076.3815130836 0.0
0.0 0.0 0.0

-6.822091804853642e6 5.42724977344367e6 0.0
5.42724977344367e6 6.570172344015227e6 0.0
0.0 0.0 0.0

-1.1251844071391448e6 1.227237812190732e7 0.0
1.227237812190732e7 -5.578797141735099e6 0.0
0.0 0.0 0.0

-3.0671347470228295e6 1.7051486795788206e7 0.0
1.7051486795788206e7 -1.5005656798121328e6 0.0
0.0 0.0 0.0

-1.768488690863997e7 3.2498059672456407e6 0.0
3.2498059672456407e6 1.020174684536244e7 0.0
0.0 0.0 0.0

-6.597291537429411e6 1.81834366035941e7 0.0
1.81834366035941e7 6.709489696189458e6 0.0
0.0 0.0 0.0

685617.7423802959 1.269741675101749e7 0.0
1.269741675101749e7 -1.0609889262082657e7 0.0
0.0 0.0 0.0

3.2464507820379073e6 7.823819453469775e6 0.0
7.823819453469775e6 -1.3244521427248767e7 0.0
0.0 0.0 0.0

953066.7200295907 5.109472552661334e6 0.0
5.109472552661334e6 -4.818655053750169e6 0.0
0.0 0.0 0.0

1.0630775149786687e6 1.1854808340521233e7 0.0
1.1854808340521233e7 -1.0639721745582424e7 0.0
0.0 0.0 0.0

-7.982260854795224e6 1.6011078451872405e7 0.0
1.6011078451872405e7 463970.531218078 0.0
0.0 0.0 0.0

-4.424512523692317e6 2.280813877425447e7 0.0
2.280813877425447e7 305695.6471593487 0.0
0.0 0.0 0.0

-3.9386496515674875e6 1.4192886258288255e7 0.0
1.4192886258288255e7 1.1374711303488897e7 0.0
0.0 0.0 0.0

-555279.510568504 1.123808838335032e7 0.0
1.123808838335032e7 4.221782486828643e6 0.0
0.0 0.0 0.0

1.7830061703228583e6 1.2416207420608737e7 0.0
1.2416207420608737e7 6.270371173683348e6 0.0
0.0 0.0 0.0

-1.6834662455376596e6 1.2659729259500945e7 0.0
1.2659729259500945e7 -5.611554189840179e6 0.0
0.0 0.0 0.0

-1.2429676490007672e7 8.377060770735783e6 0.0
8.377060770735783e6 1.69846451289689e7 0.0
0.0 0.0 0.0

-325928.5916534662 1.0779014523020204e7 0.0
1.0779014523020204e7 -8.736458921797877e6 0.0
0.0 0.0 0.0

-1.901498289153813e7 1.659239460716362e7 0.0
1.659239460716362e7 1.1448151693569317e7 0.0
0.0 0.0 0.0

-1.078222106271284e7 -854565.1745970787 0.0
-854565.1745970787 1.8567911173845503e7 0.0
0.0 0.0 0.0

-1.0617697483928993e7 -5.855002836256993e6 0.0
-5.855002836256993e6 2.481140384543773e7 0.0
0.0 0.0 0.0

884203.4022200741 9.569815352557309e6 0.0
9.569815352557309e6 -8.255542713243799e6 0.0
0.0 0.0 0.0

-1.6694787401277479e6 1.1138052995725458e6 0.0
1.1138052995725458e6 884934.8983258217 0.0
0.0 0.0 0.0

3.9864453372492865e6 8.408911106182408e6 0.0
8.408911106182408e6 -2.1095879019464772e7 0.0
0.0 0.0 0.0

-1.2630779185888484e7 6.674200108337268e6 0.0
6.674200108337268e6 2.0473151244372968e7 0.0
0.0 0.0 0.0

2.8956870065509994e6 9.541920659350827e6 0.0
9.541920659350827e6 -1.7537655878837045e7 0.0
0.0 0.0 0.0

-8.34761368812256e6 -1.9919504338270584e6 0.0
-1.9919504338270584e6 1.252181758287222e7 0.0
0.0 0.0 0.0

-5.831724804968134e6 1.7340218617013752e7 0.0
1.7340218617013752e7 4.549652360471501e6 0.0
0.0 0.0 0.0

-2.9380106352390395e6 1.738555871935317e7 0.0
1.738555871935317e7 -1.6184284672886976e6 0.0
0.0 0.0 0.0

-6.250512128754463e6 1.9455364912118237e7 0.0
1.9455364912118237e7 5.2420952166209165e6 0.0
0.0 0.0 0.0

-6.082853868764085e6 2.2311725064742774e7 0.0
2.2311725064742774e7 1.4060915866426774e6 0.0
0.0 0.0 0.0

-5.57261798440041e6 2.0520514150999386e7 0.0
2.0520514150999386e7 2.2045548472493137e6 0.0
0.0 0.0 0.0

-9.782403954507884e6 -4.735209434727609e6 0.0
-4.735209434727609e6 1.815899338204521e7 0.0
0.0 0.0 0.0

5.067146715869187e6 5.739407621152958e6 0.0
5.739407621152958e6 -1.842055325354748e7 0.0
0.0 0.0 0.0

662224.484546335 1.3215110738284446e7 0.0
1.3215110738284446e7 -8.134261007370284e6 0.0
0.0 0.0 0.0

-2.0006574458935384e6 1.435780706575587e7 0.0
1.435780706575587e7 -3.954535359871207e6 0.0
0.0 0.0 0.0

2.4687871208148263e6 9.088868121132717e6 0.0
9.088868121132717e6 -1.1070009822709274e7 0.0
0.0 0.0 0.0

-2.2741761065990636e6 1.04797014411767e7 0.0
1.04797014411767e7 -1.015999134834735e7 0.0
0.0 0.0 0.0

66232.645721547 1.1782212345367162e7 0.0
1.1782212345367162e7 220775.53811615237 0.0
0.0 0.0 0.0

-6.407422607629698e6 1.5954810071878213e7 0.0
1.5954810071878213e7 6.671842001808438e6 0.0
0.0 0.0 0.0

-7.742674679823797e6 1.837814183078895e7 0.0
1.837814183078895e7 6.812262625541277e6 0.0
0.0 0.0 0.0

-865173.2876245616 1.0065413326705918e7 0.0
1.0065413326705918e7 -5.88084671361472e6 0.0
0.0 0.0 0.0

-696440.972360011 9.10529318148747e6 0.0
9.10529318148747e6 -2.8819707259205417e6 0.0
0.0 0.0 0.0

4.97254533657184e6 5.220647308760603e6 0.0
5.220647308760603e6 -1.5328961578540493e7 0.0
0.0 0.0 0.0

1.1553948422728523e6 1.2714845956889465e7 0.0
1.2714845956889465e7 -5.7486316983223995e6 0.0
0.0 0.0 0.0

3.3549428389125206e6 8.063788813257044e6 0.0
8.063788813257044e6 -1.4106152457621632e7 0.0
0.0 0.0 0.0

-976642.7224263173 6.519180639355206e6 0.0
6.519180639355206e6 -2.7883236234171563e6 0.0
0.0 0.0 0.0

-551033.1925817111 8.41490057126322e6 0.0
8.41490057126322e6 -4.228464752421432e6 0.0
0.0 0.0 0.0

312889.4417752973 4.336306858475545e6 0.0
4.336306858475545e6 -3.374882513338576e6 0.0
0.0 0.0 0.0

-5.138010968451304e6 1.5948471250899617e7 0.0
1.5948471250899617e7 3.9176244640624453e6 0.0
0.0 0.0 0.0

1.035733365283866e6 1.2125404768887177e7 0.0
1.2125404768887177e7 -1.1773042248557921e7 0.0
0.0 0.0 0.0

3.909748032554143e6 8.418388638693964e6 0.0
8.418388638693964e6 -2.3693681360893376e7 0.0
0.0 0.0 0.0

-2.1778334567962e6 1.4987296985672908e7 0.0
1.4987296985672908e7 -1.843170300219759e6 0.0
0.0 0.0 0.0

-1.2107885773213796e7 1.9305644786612965e7 0.0
1.9305644786612965e7 -1.219397894384286e6 0.0
0.0 0.0 0.0

-1.364255885868613e7 1.707077496827315e7 0.0
1.707077496827315e7 7.968399521261304e6 0.0
0.0 0.0 0.0

-4.328840780173801e6 1.7131558468500033e7 0.0
1.7131558468500033e7 -2.0894652710879892e6 0.0
0.0 0.0 0.0

-5397.9098066575825 1.1629297343287641e7 0.0
1.1629297343287641e7 -1.5957718433628308e7 0.0
0.0 0.0 0.0

-3.591340217027216e6 1.14088652580719e7 0.0
1.14088652580719e7 -1.1971134442939363e7 0.0
0.0 0.0 0.0

-8.11126523848026e6 1.8276392772167515e7 0.0
1.8276392772167515e7 -1.4266236624552072e6 0.0
0.0 0.0 0.0

-4.511119624698846e6 1.2540866349760054e7 0.0
1.2540866349760054e7 -1.503706601222201e7 0.0
0.0 0.0 0.0

-9.120239114645906e6 1.1924098646391364e7 0.0
1.1924098646391364e7 1.1492763714935211e7 0.0
0.0 0.0 0.0

-6.944191216491578e6 1.2779471670584423e6 0.0
1.2779471670584423e6 7.497932098942069e6 0.0
0.0 0.0 0.0

-3.788488278742214e6 1.5882633992296543e7 0.0
1.5882633992296543e7 -428224.483639312 0.0
0.0 0.0 0.0

-7.017637253319386e6 1.4384864478531925e7 0.0
1.4384864478531925e7 8.252253477029999e6 0.0
0.0 0.0 0.0

-8.008243253776866e6 -1.5989304268878696e6 0.0
-1.5989304268878696e6 1.023883456090353e7 0.0
0.0 0.0 0.0

2.3661257003579205e6 1.0448983732783942e7 0.0
1.0448983732783942e7 -1.3965396870802158e7 0.0
0.0 0.0 0.0

-4.936629881989101e6 1.623277143720582e7 0.0
1.623277143720582e7 1.8714401439160546e6 0.0
0.0 0.0 0.0

-213290.75511262123 1.2273812189790927e7 0.0
1.2273812189790927e7 -1.8913189013604969e6 0.0
0.0 0.0 0.0

-6.185494080613348e6 1.7385041022718646e7 0.0
1.7385041022718646e7 6.063615644949139e6 0.0
0.0 0.0 0.0

-8.58387061721152e6 1.894498501699456e7 0.0
1.894498501699456e7 -555621.4917645049 0.0
0.0 0.0 0.0

-3.8781750788298855e6 1.1791682399487186e7 0.0
1.1791682399487186e7 -1.2927250865542602e7 0.0
0.0 0.0 0.0

-2.084526717815891e6 1.4657378836165225e7 0.0
1.4657378836165225e7 9.82944195605641e6 0.0
0.0 0.0 0.0

-1.4205069262110703e7 1.5833623915970257e7 0.0
1.5833623915970257e7 8.46098382582586e6 0.0
0.0 0.0 0.0

-4.736599013796493e6 5.94600445644309e6 0.0
5.94600445644309e6 6.150060815806404e6 0.0
0.0 0.0 0.0

-1.3099843613374708e7 5.101552608292736e6 0.0
5.101552608292736e6 2.6386487489384387e7 0.0
0.0 0.0 0.0

-991268.5557131728 1.3468428803692326e7 0.0
1.3468428803692326e7 -4.198161166982607e6 0.0
0.0 0.0 0.0

-5.0982925090042455e6 2.051151592106832e7 0.0
2.051151592106832e7 1.0271294627311567e6 0.0
0.0 0.0 0.0

1.7095288397373292e6 1.2725748452146702e7 0.0
1.2725748452146702e7 5.6984294699151125e6 0.0
0.0 0.0 0.0

7.005934060186923e6 1.374091144964846e7 0.0
1.374091144964846e7 2.996000591391025e6 0.0
0.0 0.0 0.0

-6.236433878554294e6 1.805005178141992e7 0.0
1.805005178141992e7 -1.4673752660759045e6 0.0
0.0 0.0 0.0

-3.922614945727382e6 1.9343789007031757e7 0.0
1.9343789007031757e7 -868024.486482562 0.0
0.0 0.0 0.0

2.806812049699542e6 1.2271917574269366e7 0.0
1.2271917574269366e7 1.1640481624333918e7 0.0
0.0 0.0 0.0

5.362375175196896e6 6.724333574278344e6 0.0
6.724333574278344e6 -2.2558062373510618e7 0.0
0.0 0.0 0.0

-6.440376569908716e6 1.7765883899158042e7 0.0
1.7765883899158042e7 6.709578477498422e6 0.0
0.0 0.0 0.0

-176828.30128967162 1.15284638564367e7 0.0
1.15284638564367e7 -1.4231740308374786e6 0.0
0.0 0.0 0.0

-4.93166353357291e6 1.3087271247376285e7 0.0
1.3087271247376285e7 -1.64388793410399e7 0.0
0.0 0.0 0.0

-1.9165835559597972e6 1.492270365512443e7 0.0
1.492270365512443e7 -930358.6562701934 0.0
0.0 0.0 0.0

5.839231975395141e6 4.774269006723221e6 0.0
4.774269006723221e6 -1.956003334852488e7 0.0
0.0 0.0 0.0

-2.0771137788857515e6 1.3673967804425212e7 0.0
1.3673967804425212e7 -4.1233293619415546e6 0.0
0.0 0.0 0.0

-487750.3676968389 1.4977962236962236e7 0.0
1.4977962236962236e7 -5.578750890355349e6 0.0
0.0 0.0 0.0

7.595300106875004e6 1.3549432583372153e7 0.0
1.3549432583372153e7 -6.972550481106499e6 0.0
0.0 0.0 0.0

-9.62787242008337e6 1.0345895943514302e7 0.0
1.0345895943514302e7 1.1863896480101407e7 0.0
0.0 0.0 0.0

-2.7936349544098554e6 9.570159895234117e6 0.0
9.570159895234117e6 2.4891382182511585e6 0.0
0.0 0.0 0.0

-3.2853661174549377e6 1.6410425370493287e7 0.0
1.6410425370493287e7 -1.1167223361808269e6 0.0
0.0 0.0 0.0

-4.0501299911542023e6 1.603244848992531e7 0.0
1.603244848992531e7 99250.83791513229 0.0
0.0 0.0 0.0

-1.1195164426350143e7 -2.7605637989590634e6 0.0
-2.7605637989590634e6 2.6927624815496728e7 0.0
0.0 0.0 0.0

-1.0049469576737739e6 1.2148819854870945e7 0.0
1.2148819854870945e7 -4.523857775648226e6 0.0
0.0 0.0 0.0

-8.262083485616786e6 1.835352238458891e7 0.0
1.835352238458891e7 7.309964345717512e6 0.0
0.0 0.0 0.0

1.44248338130531e6 7.01432030806189e6 0.0
7.01432030806189e6 -7.696830992827274e6 0.0
0.0 0.0 0.0

-1.3216050421266505e6 1.4085984248217402e7 0.0
1.4085984248217402e7 1.0886607542006597e7 0.0
0.0 0.0 0.0

-2.2608180107119758e7 1.6081148934012346e7 0.0
1.6081148934012346e7 9.417195369687155e6 0.0
0.0 0.0 0.0

165896.1950867956 1.1639088593582043e7 0.0
1.1639088593582043e7 1.547232831851547e6 0.0
0.0 0.0 0.0

3.355028310750127e6 6.579940979912959e6 0.0
6.579940979912959e6 -9.51053516157322e6 0.0
0.0 0.0 0.0

-4.243604501900623e6 1.4184457362472344e7 0.0
1.4184457362472344e7 1.2826452248599503e7 0.0
0.0 0.0 0.0

-2.768539111088923e6 1.5940565471013173e7 0.0
1.5940565471013173e7 -2.5945915174440993e6 0.0
0.0 0.0 0.0

3.4548000213251514e6 1.9141989738480102e7 0.0
1.9141989738480102e7 -6.630792049903154e6 0.0
0.0 0.0 0.0

-2.272974846692555e6 9.747637492394682e6 0.0
9.747637492394682e6 -7.576583152956447e6 0.0
0.0 0.0 0.0

-4.273147897613401e6 1.0760131863470912e7 0.0
1.0760131863470912e7 3.0783106153367213e6 0.0
0.0 0.0 0.0

1.0048712913887547e6 7.019861668832309e6 0.0
7.019861668832309e6 -6.932932176243177e6 0.0
0.0 0.0 0.0

-790844.8387159058 1.1878425262725713e7 0.0
1.1878425262725713e7 -1.2850318023250366e7 0.0
0.0 0.0 0.0

-1.6544649078946863e6 1.3871395048316143e7 0.0
1.3871395048316143e7 -4.497457842130667e6 0.0
0.0 0.0 0.0

2.8041301183943683e6 1.4702557753265232e7 0.0
1.4702557753265232e7 6.423145552335456e6 0.0
0.0 0.0 0.0

-4.854316163495404e6 1.5760097293614142e7 0.0
1.5760097293614142e7 99869.69927763985 0.0
0.0 0.0 0.0

-344557.1365389279 1.5001056169348916e7 0.0
1.5001056169348916e7 -5.889750546327551e6 0.0
0.0 0.0 0.0

-5.253789054902038e6 234995.6292247627 0.0
234995.6292247627 1.0496628911407774e7 0.0
0.0 0.0 0.0

-1.8580784763325118e6 3.4382733067895984e6 0.0
3.4382733067895984e6 3.944669111827004e6 0.0
0.0 0.0 0.0

2.528148211517039e6 1.4477281812476085e7 0.0
1.4477281812476085e7 -4.598447295921603e6 0.0
0.0 0.0 0.0

-5504.377880338347 1.2048677098888256e7 0.0
1.2048677098888256e7 1.3602805662250044e6 0.0
0.0 0.0 0.0

1.8252226050441243e7 1.041460565781849e7 0.0
1.041460565781849e7 -675150.7644764474 0.0
0.0 0.0 0.0

-7.893170284055822e6 -3.0336824237883273e6 0.0
-3.0336824237883273e6 1.0622100794780303e7 0.0
0.0 0.0 0.0

-5.945773473515018e6 1.6672688170148497e7 0.0
1.6672688170148497e7 -1.3588519833833876e6 0.0
0.0 0.0 0.0

-9.92607442155761e6 1.4325635452658836e7 0.0
1.4325635452658836e7 5.816967225876169e6 0.0
0.0 0.0 0.0

-1.540182636134298e7 1.6612183385467773e7 0.0
1.6612183385467773e7 558827.256851756 0.0
0.0 0.0 0.0

1.6088425137107823e7 5.845032084736175e6 0.0
5.845032084736175e6 -3.602242192454662e6 0.0
0.0 0.0 0.0

-1.2042170814972429e7 4.1937399276422192e6 0.0
4.1937399276422192e6 3.208197467797101e7 0.0
0.0 0.0 0.0

-736827.2985236911 8.667896498176705e6 0.0
8.667896498176705e6 -2.4707453726494424e6 0.0
0.0 0.0 0.0

-6.421520772438477e6 1.7208566761374142e7 0.0
1.7208566761374142e7 139351.85725456942 0.0
0.0 0.0 0.0

-6.0562787608316485e6 1.756170959142055e7 0.0
1.756170959142055e7 6.674030267801307e6 0.0
0.0 0.0 0.0

-1.9019721903902022e6 1.36764359867082e7 0.0
1.36764359867082e7 -5.210913689402821e6 0.0
0.0 0.0 0.0

1.1223163935042475e6 1.0061282269486709e7 0.0
1.0061282269486709e7 -8.58604864936994e6 0.0
0.0 0.0 0.0

-226563.1595468591 1.2086186035976715e7 0.0
1.2086186035976715e7 -3.5151933485424025e6 0.0
0.0 0.0 0.0

-2.643144249337873e6 1.1267575956877496e7 0.0
1.1267575956877496e7 -1.2125498200201398e7 0.0
0.0 0.0 0.0

-1.8847085526867863e6 1.3733986349279488e7 0.0
1.3733986349279488e7 -2.37884904603109e7 0.0
0.0 0.0 0.0

4.0115139764081603e6 5.020118619249683e6 0.0
5.020118619249683e6 -952463.0001225965 0.0
0.0 0.0 0.0

-2.557765669230819e6 2.0132349482425265e7 0.0
2.0132349482425265e7 -3.231552238391932e6 0.0
0.0 0.0 0.0

-3.009811086659869e6 1.0664613971597526e7 0.0
1.0664613971597526e7 -1.0032704278392052e7 0.0
0.0 0.0 0.0

4.626339073611976e6 1.2602353930544572e7 0.0
1.2602353930544572e7 3.9143969601039807e6 0.0
0.0 0.0 0.0

1.037041619673322e6 1.113041538176934e7 0.0
1.113041538176934e7 -6.126008426234823e6 0.0
0.0 0.0 0.0

-3.475151418937514e6 1.5716756447134385e7 0.0
1.5716756447134385e7 -254360.66712641902 0.0
0.0 0.0 0.0

-1.1505088388997626e6 1.1108837829055352e7 0.0
1.1108837829055352e7 -9.786886047655232e6 0.0
0.0 0.0 0.0

-1.5698665345810704e7 7.546447741036056e6 0.0
7.546447741036056e6 7.468492803971461e6 0.0
0.0 0.0 0.0

-1.9631866542643614e6 2.3525108187410086e6 0.0
2.3525108187410086e6 1.0205928730786268e6 0.0
0.0 0.0 0.0

-8.309171146376987e6 1.1704393769467955e7 0.0
1.1704393769467955e7 1.1696106825606057e7 0.0
0.0 0.0 0.0

-733170.4849171771 9.382085271378823e6 0.0
9.382085271378823e6 -288016.3040260343 0.0
0.0 0.0 0.0

-3.620222399519123e6 1.1550284014134254e7 0.0
1.1550284014134254e7 -5.2348991201456e6 0.0
0.0 0.0 0.0

-1.2570419805651864e6 1.2480028000274984e7 0.0
1.2480028000274984e7 -3.763414090137605e6 0.0
0.0 0.0 0.0

-1.4429683847106658e6 9.295589985674206e6 0.0
9.295589985674206e6 -3.149526324264084e6 0.0
0.0 0.0 0.0

8.251423737957814e6 1.4023804390958449e7 0.0
1.4023804390958449e7 -6.207458840790059e6 0.0
0.0 0.0 0.0

-9.840241749845961e6 1.9498902368686054e7 0.0
1.9498902368686054e7 8.348200232959536e6 0.0
0.0 0.0 0.0

-143262.20049044956 1.5694129630257206e7 0.0
1.5694129630257206e7 -5.06939953574338e6 0.0
0.0 0.0 0.0

-1.4861398911375543e6 1.4498864016406447e7 0.0
1.4498864016406447e7 -1.4750683666637044e6 0.0
0.0 0.0 0.0

-5.977686008165725e6 1.972733481894497e7 0.0
1.972733481894497e7 5.671656131321283e6 0.0
0.0 0.0 0.0

-8.025846704161897e6 1.2864960132801974e7 0.0
1.2864960132801974e7 9.899483211762292e6 0.0
0.0 0.0 0.0

1.337440645939387e6 6.646913853454023e6 0.0
6.646913853454023e6 -6.078342882239048e6 0.0
0.0 0.0 0.0

-152492.2845553828 6.258918271735664e6 0.0
6.258918271735664e6 -2.388802549655732e6 0.0
0.0 0.0 0.0

-3.4053970550705446e6 1.2420635832923474e7 0.0
1.2420635832923474e7 -1.540523557060231e7 0.0
0.0 0.0 0.0

-2.6848064923309195e6 1.4032210060951348e7 0.0
1.4032210060951348e7 2.0089888717450236e6 0.0
0.0 0.0 0.0

1.831782480897409e6 5.554841701544362e6 0.0
5.554841701544362e6 -6.624661788161801e6 0.0
0.0 0.0 0.0

-2.9361975445664223e7 2.077841490354062e7 0.0
2.077841490354062e7 6.72636552921805e6 0.0
0.0 0.0 0.0

4.1221995649349466e6 8.272408184962399e6 0.0
8.272408184962399e6 -2.6762823139355518e7 0.0
0.0 0.0 0.0

-258055.2252840188 7.778767969138821e6 0.0
7.778767969138821e6 -4.471271238574847e6 0.0
0.0 0.0 0.0

-2.554510240154545e6 1.274550039889341e7 0.0
1.274550039889341e7 -1.6795683567281455e7 0.0
0.0 0.0 0.0

5.187237256587173e6 5.561679039611329e6 0.0
5.561679039611329e6 -1.7935484099788856e7 0.0
0.0 0.0 0.0

4.556603410320392e6 2.0670292680835973e7 0.0
2.0670292680835973e7 -9.562136829113076e6 0.0
0.0 0.0 0.0

3.600497464900526e6 8.1296449930338245e6 0.0
8.1296449930338245e6 -1.332165424060138e7 0.0
0.0 0.0 0.0

-1.2243624979206072e7 8.168592246991604e6 0.0
8.168592246991604e6 2.3560737860009693e7 0.0
0.0 0.0 0.0

-9.686603234225892e6 1.0603856909028832e7 0.0
1.0603856909028832e7 1.2102952838120664e7 0.0
0.0 0.0 0.0

-5.061168383699268e6 1.5370046117394352e7 0.0
1.5370046117394352e7 6.537311157878248e6 0.0
0.0 0.0 0.0

-6.49824348455631e6 1.4073612792777788e7 0.0
1.4073612792777788e7 2.374283703778797e6 0.0
0.0 0.0 0.0

-8.894912902830407e6 1.1455239746216694e7 0.0
1.1455239746216694e7 1.2857335518751144e7 0.0
0.0 0.0 0.0

-5.443352421149238e6 1.581422704890553e7 0.0
1.581422704890553e7 3.0202444163190513e6 0.0
0.0 0.0 0.0

3.10421822616249e6 1.3056725419644564e7 0.0
1.3056725419644564e7 1.0347394220346013e7 0.0
0.0 0.0 0.0

-3.6331356993238977e6 2.325885005111666e6 0.0
2.325885005111666e6 2.8715843738270067e6 0.0
0.0 0.0 0.0

-568161.9877032947 1.3641437106819523e7 0.0
1.3641437106819523e7 -7.49477185341697e6 0.0
0.0 0.0 0.0

2.466091633792691e6 1.0566704903670317e7 0.0
1.0566704903670317e7 -2.9357155695854254e7 0.0
0.0 0.0 0.0

-9.975819691369243e6 2.0259740507030062e7 0.0
2.0259740507030062e7 8.907978357367942e6 0.0
0.0 0.0 0.0

-3.2596436200230424e6 1.7068086278158087e7 0.0
1.7068086278158087e7 -2.7055064118517446e6 0.0
0.0 0.0 0.0

1.5937654982794425e6 1.2001919950231675e7 0.0
1.2001919950231675e7 -804787.9969931416 0.0
0.0 0.0 0.0

-9.39112499841984e6 1.0412910739814468e7 0.0
1.0412910739814468e7 1.3331689393234227e7 0.0
0.0 0.0 0.0

-1.4963504641848423e7 1.886807674280176e7 0.0
1.886807674280176e7 1.0880295551408658e7 0.0
0.0 0.0 0.0

-1.5905258754470146e6 1.4971493199932791e7 0.0
1.4971493199932791e7 -5.424493047843751e6 0.0
0.0 0.0 0.0

-390556.0845999513 1.1716051287541555e7 0.0
1.1716051287541555e7 -1.4731967067147056e7 0.0
0.0 0.0 0.0

-1.4034784879522711e7 2.0831829321093768e7 0.0
2.0831829321093768e7 9.867029287660614e6 0.0
0.0 0.0 0.0

1.0169522435768254e7 1.8302239788189393e7 0.0
1.8302239788189393e7 -1.3218597453595668e7 0.0
0.0 0.0 0.0

1.0898409887498992e6 1.1244541084389988e7 0.0
1.1244541084389988e7 422151.15906745533 0.0
0.0 0.0 0.0

2.4486271389268795e6 8.976534620062845e6 0.0
8.976534620062845e6 -1.198909344372532e7 0.0
0.0 0.0 0.0

-4.0079853999911267e6 1.352241262393013e7 0.0
1.352241262393013e7 -1.8216282111290645e7 0.0
0.0 0.0 0.0

1.4966736139171124e6 1.949733494967483e7 0.0
1.949733494967483e7 -5.4111994946452575e6 0.0
0.0 0.0 0.0

785873.5620584739 1.2152748690080535e7 0.0
1.2152748690080535e7 -9.336392539185027e6 0.0
0.0 0.0 0.0

-4.718625355400555e6 1.799418146782662e7 0.0
1.799418146782662e7 1.194318015224113e6 0.0
0.0 0.0 0.0

2.814327667887345e6 9.866153489525085e6 0.0
9.866153489525085e6 -2.512267445596129e7 0.0
0.0 0.0 0.0

-352866.386112413 1.303157799986607e7 0.0
1.303157799986607e7 1.7793942842956702e6 0.0
0.0 0.0 0.0

-1.4613290926776707e7 1.6741107005827814e7 0.0
1.6741107005827814e7 1.0475937457720313e7 0.0
0.0 0.0 0.0

-4.970611836194444e6 1.6159186805353068e7 0.0
1.6159186805353068e7 3.5204845629663393e6 0.0
0.0 0.0 0.0

7.875552789780772e6 1.1667086923112132e7 0.0
1.1667086923112132e7 197182.90613130853 0.0
0.0 0.0 0.0

-6.664922830645878e6 2.00498628224706e7 0.0
2.00498628224706e7 5.260926656995997e6 0.0
0.0 0.0 0.0

-1.0598003735374308e6 1.2116235295576988e7 0.0
1.2116235295576988e7 3.699180751095215e6 0.0
0.0 0.0 0.0

786088.2142501187 4.264222366050603e6 0.0
4.264222366050603e6 -3.98482669110718e6 0.0
0.0 0.0 0.0

-2.0569008082064623e6 2.0600412110951558e7 0.0
2.0600412110951558e7 -1.7308998504456198e6 0.0
0.0 0.0 0.0

901314.9730362268 1.243435577864326e7 0.0
1.243435577864326e7 -1.1222856656527784e7 0.0
0.0 0.0 0.0

5.915435358479908e6 5.068970743316126e6 0.0
5.068970743316126e6 -2.144645356854592e7 0.0
0.0 0.0 0.0

144422.94964660145 8.358513785837169e6 0.0
8.358513785837169e6 -4.910524804491518e6 0.0
0.0 0.0 0.0

1.8136100303252237e6 6.028415579812085e6 0.0
6.028415579812085e6 -6.617104286869423e6 0.0
0.0 0.0 0.0

980571.0605436335 1.0535705712176248e7 0.0
1.0535705712176248e7 -8.56042228770284e6 0.0
0.0 0.0 0.0

-1.1942510443255153e7 1.6504939010392796e7 0.0
1.6504939010392796e7 8.854635818557033e6 0.0
0.0 0.0 0.0

-1.4211166562997983e6 1.425486254014995e7 0.0
1.425486254014995e7 745772.365858929 0.0
0.0 0.0 0.0

-26525.23378497595 1.571268916598929e7 0.0
1.571268916598929e7 -5.1141165404827e6 0.0
0.0 0.0 0.0

5.303849917302941e6 6.107382409250921e6 0.0
6.107382409250921e6 -1.7768729121254563e7 0.0
0.0 0.0 0.0

-1.6595140630621684e6 1.3595070627864728e7 0.0
1.3595070627864728e7 -4.338306573107487e6 0.0
0.0 0.0 0.0

-519933.35118652857 1.1915062633454742e7 0.0
1.1915062633454742e7 -7.238420783912763e6 0.0
0.0 0.0 0.0

-4.59319281714279e6 1.6717285978678035e7 0.0
1.6717285978678035e7 -817035.0446115701 0.0
0.0 0.0 0.0

1.7672389901761627e6 1.8424426391157083e7 0.0
1.8424426391157083e7 -5.882030138946235e6 0.0
0.0 0.0 0.0

-5.796557163539527e6 1.6236927749320477e7 0.0
1.6236927749320477e7 7.076568286901326e6 0.0
0.0 0.0 0.0

-2.173973528317026e6 1.2356676561966192e7 0.0
1.2356676561966192e7 5.654658722118794e6 0.0
0.0 0.0 0.0

-4.586670595139889e6 1.3681744595171206e7 0.0
1.3681744595171206e7 4.1839798559114605e7 0.0
0.0 0.0 0.0

-8.329447553579569e6 2.1840755106545266e7 0.0
2.1840755106545266e7 7.194997213355661e6 0.0
0.0 0.0 0.0

896364.6185792894 1.325543456460895e7 0.0
1.325543456460895e7 -7.280595933006124e6 0.0
0.0 0.0 0.0

3.807885075261602e6 8.531139728093702e6 0.0
8.531139728093702e6 -1.5158109692448588e7 0.0
0.0 0.0 0.0

4.082105986877842e6 8.113385684658953e6 0.0
8.113385684658953e6 -1.5789871247954942e7 0.0
0.0 0.0 0.0

4.981711281303362e6 5.258116525337695e6 0.0
5.258116525337695e6 -1.3598079153977506e7 0.0
0.0 0.0 0.0

-6.208037596256881e6 1.5893542554088859e7 0.0
1.5893542554088859e7 7.456851990248745e6 0.0
0.0 0.0 0.0

4.684982903747232e6 5.404375855488278e6 0.0
5.404375855488278e6 -1.359560566228873e7 0.0
0.0 0.0 0.0

-1.088837822842935e7 -2.377093890015008e6 0.0
-2.377093890015008e6 1.7192156763827983e7 0.0
0.0 0.0 0.0

-5.416035448245078e6 1.44119932593516e7 0.0
1.44119932593516e7 8.2790986022654325e6 0.0
0.0 0.0 0.0

-683435.8599408129 7.9984476189540345e6 0.0
7.9984476189540345e6 -3.7712106594269257e6 0.0
0.0 0.0 0.0

-3.7841551719658393e6 1.7263420306588277e7 0.0
1.7263420306588277e7 -1.7956407630550293e6 0.0
0.0 0.0 0.0

-2.9872208257361874e6 1.9009464558593836e7 0.0
1.9009464558593836e7 -560538.4507566318 0.0
0.0 0.0 0.0

-41444.56177505193 1.147335128328774e7 0.0
1.147335128328774e7 -345436.2555648201 0.0
0.0 0.0 0.0

2.895316364931451e6 9.707057762347247e6 0.0
9.707057762347247e6 -2.2270596663104225e7 0.0
0.0 0.0 0.0

5.750763226246525e6 5.279665559261677e6 0.0
5.279665559261677e6 -1.8920297432966184e7 0.0
0.0 0.0 0.0

-2.7408115259883158e7 2.309860233454326e7 0.0
2.309860233454326e7 944309.7568312157 0.0
0.0 0.0 0.0

5.884151509591441e6 1.5556540557997372e7 0.0
1.5556540557997372e7 5.913023793911076e6 0.0
0.0 0.0 0.0

-3.3167029044434587e6 1.8731082715199202e7 0.0
1.8731082715199202e7 -221923.39220928168 0.0
0.0 0.0 0.0

-3.431825530895792e6 1.3673842018997231e7 0.0
1.3673842018997231e7 7.120600217760933e6 0.0
0.0 0.0 0.0

-124268.71865060698 1.2451395271274641e7 0.0
1.2451395271274641e7 62659.75596019354 0.0
0.0 0.0 0.0

-1.2886993474714382e7 2.338036849265592e6 0.0
2.338036849265592e6 2.1738710584314145e7 0.0
0.0 0.0 0.0

-9.047488095875949e6 1.8841577980126843e7 0.0
1.8841577980126843e7 7.693706772698093e6 0.0
0.0 0.0 0.0

-823519.2892609864 1.0268585504549867e7 0.0
1.0268585504549867e7 -5.0291839423647495e6 0.0
0.0 0.0 0.0

-9.649178987395238e6 -1.7667878411685394e6 0.0
-1.7667878411685394e6 1.222470316658885e7 0.0
0.0 0.0 0.0

-7.726910497369856e6 8.67965000091042e6 0.0
8.67965000091042e6 5.534161227168605e7 0.0
0.0 0.0 0.0

-286833.6803254299 1.392219034741596e7 0.0
1.392219034741596e7 -7.770295378361105e6 0.0
0.0 0.0 0.0

2.4568428458397305e6 5.287031433282046e6 0.0
5.287031433282046e6 -6.963930855992541e6 0.0
0.0 0.0 0.0

-1.224749787903802e7 4.562292219357842e6 0.0
4.562292219357842e6 3.36276788143762e7 0.0
0.0 0.0 0.0

5.375355002673811e6 5.080047019893809e6 0.0
5.080047019893809e6 -1.6125701882860126e7 0.0
0.0 0.0 0.0

-4.4256215694522e6 1.4275560095964165e7 0.0
1.4275560095964165e7 -481295.99967551825 0.0
0.0 0.0 0.0

-9.506413676596437e6 1.7389292420213442e7 0.0
1.7389292420213442e7 1.1829652957673422e6 0.0
0.0 0.0 0.0

-53804.525059686974 1.2925955387263019e7 0.0
1.2925955387263019e7 -9.738031143568132e6 0.0
0.0 0.0 0.0

-3.2945185357267093e6 4.751776979178466e6 0.0
4.751776979178466e6 3.7944701913238196e6 0.0
0.0 0.0 0.0

-2.0531466533272509e6 1.4761815693667946e7 0.0
1.4761815693667946e7 143417.67924159765 0.0
0.0 0.0 0.0

3.874864800119991e6 1.757483050668756e7 0.0
1.757483050668756e7 -6.962860966945425e6 0.0
0.0 0.0 0.0

-1.7445558118721165e6 1.3609952829730876e6 0.0
1.3609952829730876e6 2.0908678410990047e6 0.0
0.0 0.0 0.0

3.9882671757792924e6 1.2350975116358766e7 0.0
1.2350975116358766e7 780988.9533383751 0.0
0.0 0.0 0.0

-926489.333951174 2.2479543598669477e7 0.0
2.2479543598669477e7 -8.347298866519431e6 0.0
0.0 0.0 0.0

5.116818860696634e6 5.208426333880594e6 0.0
5.208426333880594e6 -1.4807269805603987e7 0.0
0.0 0.0 0.0

-4.757011482886231e6 1.181394898676211e7 0.0
1.181394898676211e7 1.6378517452482195e6 0.0
0.0 0.0 0.0

3.021111528839281e6 1.4604429758166078e7 0.0
1.4604429758166078e7 1.4246582846370222e7 0.0
0.0 0.0 0.0

2.6074447464060172e7 5.787510947667375e6 0.0
5.787510947667375e6 -3.5497495994995125e6 0.0
0.0 0.0 0.0

-1.453910350045312e7 1.8205923003395908e7 0.0
1.8205923003395908e7 3.3277662362787724e6 0.0
0.0 0.0 0.0

-5.64233606551967e6 1.560105563326092e7 0.0
1.560105563326092e7 3.4345429607458413e6 0.0
0.0 0.0 0.0

2.792447014725497e6 9.633321535927083e6 0.0
9.633321535927083e6 -2.00971948232329e7 0.0
0.0 0.0 0.0

-1.015665833793676e7 1.757049621540651e7 0.0
1.757049621540651e7 7.574289464818129e6 0.0
0.0 0.0 0.0

2.559447964167817e6 1.240493789219014e7 0.0
1.240493789219014e7 2.92782821410499e6 0.0
0.0 0.0 0.0

-9.805209262125744e6 4.702702215508356e6 0.0
4.702702215508356e6 4.270948833680632e7 0.0
0.0 0.0 0.0

-4.781315193306554e6 1.5163113799874233e7 0.0
1.5163113799874233e7 6.096260441741461e6 0.0
0.0 0.0 0.0

-18779.086706003407 1.2814175737336155e7 0.0
1.2814175737336155e7 4.095364858895008e6 0.0
0.0 0.0 0.0

-1.4720482616573777e6 1.2755751265629545e7 0.0
1.2755751265629545e7 -5.109048241070508e6 0.0
0.0 0.0 0.0

2.891589030840103e6 1.3667340411181508e7 0.0
1.3667340411181508e7 -4.502114788615963e6 0.0
0.0 0.0 0.0

1.0327224583974872e6 1.35224710325205e7 0.0
1.35224710325205e7 -6.145613242103698e6 0.0
0.0 0.0 0.0

-1.859837960493622e6 9.921318429666791e6 0.0
9.921318429666791e6 -2.740449666131899e6 0.0
0.0 0.0 0.0

-2.4917056394396196e6 1.4116057377811484e7 0.0
1.4116057377811484e7 7.367550614339759e6 0.0
0.0 0.0 0.0

-149575.09833777367 1.2792174311070636e7 0.0
1.2792174311070636e7 -322097.07238487195 0.0
0.0 0.0 0.0

-180858.49986051966 1.2450328622467633e7 0.0
1.2450328622467633e7 -2.605567368817876e6 0.0
0.0 0.0 0.0

-605012.3085847883 1.1628776051994802e7 0.0
1.1628776051994802e7 -1.3503420563885901e7 0.0
0.0 0.0 0.0

-5.578956351737312e6 1.743016332675293e7 0.0
1.743016332675293e7 5.338574237113701e6 0.0
0.0 0.0 0.0

-7.024339342332767e6 1.604325864551028e7 0.0
1.604325864551028e7 -1.505095262300861e6 0.0
0.0 0.0 0.0

-8.566088953067254e6 1.9384663857530206e7 0.0
1.9384663857530206e7 7.468337539011845e6 0.0
0.0 0.0 0.0

-2.7941648951939465e6 1.3661855561743995e7 0.0
1.3661855561743995e7 4.991638583603619e6 0.0
0.0 0.0 0.0

4.723568371122055e6 6.457142543883124e6 0.0
6.457142543883124e6 -1.5010183450819833e7 0.0
0.0 0.0 0.0

-765741.2084237367 1.3701791251337899e7 0.0
1.3701791251337899e7 -8.121579093005605e6 0.0
0.0 0.0 0.0

882369.1221266463 1.873918201715374e7 0.0
1.873918201715374e7 -6.371353206031142e6 0.0
0.0 0.0 0.0

-1.0213626130038312e7 -3.0275010395359797e6 0.0
-3.0275010395359797e6 1.4399025092558097e7 0.0
0.0 0.0 0.0

-3.1822864718036363e6 1.4656239113629447e7 0.0
1.4656239113629447e7 3.5551368076055655e6 0.0
0.0 0.0 0.0

991179.2232407326 1.183868712076661e7 0.0
1.183868712076661e7 -964651.7331496489 0.0
0.0 0.0 0.0

2.4450490419010418e6 1.46891365851544e7 0.0
1.46891365851544e7 -5.162732461751143e6 0.0
0.0 0.0 0.0

-1.1240085012592543e7 2.165184792771649e6 0.0
2.165184792771649e6 1.5914967968747187e7 0.0
0.0 0.0 0.0

625964.8160231863 1.3011470766111862e7 0.0
1.3011470766111862e7 5.355496557384044e6 0.0
0.0 0.0 0.0

-6.410405664577112e6 1.385508108934766e7 0.0
1.385508108934766e7 368009.75639868947 0.0
0.0 0.0 0.0

1.5205960050997622e6 1.1568490813767428e7 0.0
1.1568490813767428e7 -1.3515466739035055e7 0.0
0.0 0.0 0.0

-3.092085955284483e6 2.149678273375547e7 0.0
2.149678273375547e7 -541672.0781510365 0.0
0.0 0.0 0.0

-8.84177382574691e6 1.9877220419219345e7 0.0
1.9877220419219345e7 7.5239685665955e6 0.0
0.0 0.0 0.0

-1.0057211114504855e7 3.2373893249466983e6 0.0
3.2373893249466983e6 1.3718534139730435e7 0.0
0.0 0.0 0.0

-2.3921975177080883e6 1.5407358316434616e7 0.0
1.5407358316434616e7 -1.853263253895902e6 0.0
0.0 0.0 0.0

-7.985068243243341e6 2.0159393771904334e7 0.0
2.0159393771904334e7 6.897779798060749e6 0.0
0.0 0.0 0.0

-7.898142972520694e6 1.9729169721284684e7 0.0
1.9729169721284684e7 6.947719530532405e6 0.0
0.0 0.0 0.0

69673.94445576007 1.23533066162669e7 0.0
1.23533066162669e7 3.0353866445465144e6 0.0
0.0 0.0 0.0

2.2069777403246434e6 9.784403892351849e6 0.0
9.784403892351849e6 -1.0884489252294976e7 0.0
0.0 0.0 0.0

1.7618906609763447e7 1.6540244838709386e7 0.0
1.6540244838709386e7 4.257065752531566e6 0.0
0.0 0.0 0.0

-2.4415886799308266e7 -1.993734815298666e6 0.0
-1.993734815298666e6 1.0156567828737505e7 0.0
0.0 0.0 0.0

-1.1806077362438614e7 1.6926081865166128e7 0.0
1.6926081865166128e7 6.558794032424093e6 0.0
0.0 0.0 0.0

5.040554711101021e6 5.090886562488215e6 0.0
5.090886562488215e6 -1.6120494596054226e7 0.0
0.0 0.0 0.0

-1.5871968115613959e6 1.3370140646025069e7 0.0
1.3370140646025069e7 -5.991231883742153e6 0.0
0.0 0.0 0.0

-9.399587313641073e6 1.804219480944545e7 0.0
1.804219480944545e7 7.624663740459871e6 0.0
0.0 0.0 0.0

-1.1916320880871592e7 -162004.0343567816 0.0
-162004.0343567816 1.7296894438897736e7 0.0
0.0 0.0 0.0

3.1409302668388793e6 8.421017934321655e6 0.0
8.421017934321655e6 -1.4388741917881701e7 0.0
0.0 0.0 0.0

-1.882574895200938e6 1.1138014896475056e7 0.0
1.1138014896475056e7 -1.1226618074758485e7 0.0
0.0 0.0 0.0

2.5038236537198843e6 1.321686547288235e7 0.0
1.321686547288235e7 2.4683240449926755e6 0.0
0.0 0.0 0.0

-2.0609894290554855e7 1.9063339369569823e7 0.0
1.9063339369569823e7 5.069315240054539e6 0.0
0.0 0.0 0.0

-2.1935439499628735e6 8.652114512994858e6 0.0
8.652114512994858e6 -1.634961832674136e6 0.0
0.0 0.0 0.0

-7.709727225581743e6 1.7790821044672187e7 0.0
1.7790821044672187e7 6.745732220533757e6 0.0
0.0 0.0 0.0

-5.368843796597975e6 1.7836116139661297e7 0.0
1.7836116139661297e7 4.735916282518322e6 0.0
0.0 0.0 0.0

-9.258593101794712e6 1.9974882253340313e6 0.0
1.9974882253340313e6 1.5876871190657105e7 0.0
0.0 0.0 0.0

-2.381298917532981e6 2.304663839753448e6 0.0
2.304663839753448e6 2.3416725816530776e6 0.0
0.0 0.0 0.0

1.5900444573316253e6 1.0009510806956187e7 0.0
1.0009510806956187e7 -1.1236507266512606e7 0.0
0.0 0.0 0.0

-1.0681707834244944e7 -614444.0969145675 0.0
-614444.0969145675 1.7297400494917862e7 0.0
0.0 0.0 0.0

514895.73384611635 1.1904921991546025e7 0.0
1.1904921991546025e7 -1.068450581550471e7 0.0
0.0 0.0 0.0

3.1249859231411843e6 1.2787742614789838e7 0.0
1.2787742614789838e7 -3.22057192580832e6 0.0
0.0 0.0 0.0

995857.8483531079 7.3384476155800475e6 0.0
7.3384476155800475e6 -7.09756498097942e6 0.0
0.0 0.0 0.0

-1.0136543975167409e7 1.6756414249192756e7 0.0
1.6756414249192756e7 6.854175947705402e6 0.0
0.0 0.0 0.0

-4.725472391898929e6 1.706824218693326e7 0.0
1.706824218693326e7 82814.1306611565 0.0
0.0 0.0 0.0

-185617.60785596797 9.024548875601098e6 0.0
9.024548875601098e6 -618724.9433118772 0.0
0.0 0.0 0.0

-607757.4598428656 1.1922104714843048e7 0.0
1.1922104714843048e7 -2.0258583892179597e6 0.0
0.0 0.0 0.0

1.885845341093175e6 1.01374000501947e7 0.0
1.01374000501947e7 -1.0285920166435575e7 0.0
0.0 0.0 0.0

-1.985228161319887e6 1.1269263986827653e7 0.0
1.1269263986827653e7 -1.1197580030278236e7 0.0
0.0 0.0 0.0

-8.586836683673646e6 -369613.38707200123 0.0
-369613.38707200123 1.027134319532701e7 0.0
0.0 0.0 0.0

-2.917043191705509e6 9.042117882543474e6 0.0
9.042117882543474e6 1.1009150488430222e6 0.0
0.0 0.0 0.0

-1.2852670520986337e6 1.48374006860994e7 0.0
1.48374006860994e7 -5.999573261680085e6 0.0
0.0 0.0 0.0

3.320184454379258e6 6.8410146968941605e6 0.0
6.8410146968941605e6 -1.1485893863271337e7 0.0
0.0 0.0 0.0

-2.001858245604811e7 1.3099955304840581e7 0.0
1.3099955304840581e7 3.465542654920906e6 0.0
0.0 0.0 0.0

2.465870923913745e6 1.3476545840240806e7 0.0
1.3476545840240806e7 -4.39839277509949e6 0.0
0.0 0.0 0.0

8.531091179789985e6 1.187746272813844e7 0.0
1.187746272813844e7 -3.290732537307934e6 0.0
0.0 0.0 0.0

-1.1717487927120347e7 2.1326305556548208e7 0.0
2.1326305556548208e7 9.139813437229771e6 0.0
0.0 0.0 0.0

-5.312903710048321e6 2.7607263873281134e6 0.0
2.7607263873281134e6 7.514536357783958e6 0.0
0.0 0.0 0.0

-874591.5174818933 1.2236217446729213e7 0.0
1.2236217446729213e7 -6.517770980480162e6 0.0
0.0 0.0 0.0

-3.3696447847905774e6 1.510490602073529e7 0.0
1.510490602073529e7 -1.5651736775377821e6 0.0
0.0 0.0 0.0

-1.5179888524149086e7 1.7502232955560524e7 0.0
1.7502232955560524e7 9.340766362557445e6 0.0
0.0 0.0 0.0

-1.8683518880126905e6 1.2298265834329696e7 0.0
1.2298265834329696e7 -1.5641972839496609e7 0.0
0.0 0.0 0.0

-153578.2653533325 1.271403576538612e7 0.0
1.271403576538612e7 1.9678092041837703e6 0.0
0.0 0.0 0.0

-684468.667602594 1.1428220768511359e7 0.0
1.1428220768511359e7 -1.2350087898391137e7 0.0
0.0 0.0 0.0

-1.3794893682674658e7 1.954656032993612e7 0.0
1.954656032993612e7 9.822220058061793e6 0.0
0.0 0.0 0.0

-3.398554833438664e6 1.6054240789657164e7 0.0
1.6054240789657164e7 -2.7860778089075526e6 0.0
0.0 0.0 0.0

-2.887892904951541e6 1.504547194024532e7 0.0
1.504547194024532e7 -67290.57640255662 0.0
0.0 0.0 0.0

3.5915988769989647e6 8.937978226065116e6 0.0
8.937978226065116e6 -1.5434662995150883e7 0.0
0.0 0.0 0.0

-1.183576392647605e7 1.9162522651158914e6 0.0
1.9162522651158914e6 2.0207589863600742e7 0.0
0.0 0.0 0.0

-1.6404040910092294e6 1.212611793449776e7 0.0
1.212611793449776e7 -4.335895926034701e6 0.0
0.0 0.0 0.0

2.51037540457539e6 1.3862155900297998e7 0.0
1.3862155900297998e7 -4.252813126235688e6 0.0
0.0 0.0 0.0

-1.4568881966711348e6 1.2026959973729778e7 0.0
1.2026959973729778e7 -1.4126568643526783e7 0.0
0.0 0.0 0.0

-8.67940912221471e6 1.7656820131794114e7 0.0
1.7656820131794114e7 6.506985925036e6 0.0
0.0 0.0 0.0

3.017004283330246e6 2.110641625144167e7 0.0
2.110641625144167e7 -1.022070660017709e7 0.0
0.0 0.0 0.0

-2.0048837490782635e6 1.5107371116767505e7 0.0
1.5107371116767505e7 -1.4611246405668107e6 0.0
0.0 0.0 0.0

-9.210058123865457e6 1.8304481611976963e7 0.0
1.8304481611976963e7 7.16599804208331e6 0.0
0.0 0.0 0.0

-8.67460723528764e6 1.1934561075539697e7 0.0
1.1934561075539697e7 1.0373857606961962e7 0.0
0.0 0.0 0.0

1.1337324864364443e6 1.32107421471477e7 0.0
1.32107421471477e7 -5.564948706513328e6 0.0
0.0 0.0 0.0

-5.793703474110785e6 1.7589010841186535e7 0.0
1.7589010841186535e7 5.776551563462534e6 0.0
0.0 0.0 0.0

-992590.2172342651 1.1875420599916693e7 0.0
1.1875420599916693e7 -1.5021465432908922e7 0.0
0.0 0.0 0.0

4.446785813419383e6 5.947611050714037e6 0.0
5.947611050714037e6 -1.4450284696265005e7 0.0
0.0 0.0 0.0

-1.5020834512463775e6 1.1859433291702846e7 0.0
1.1859433291702846e7 -1.301204443151914e7 0.0
0.0 0.0 0.0

-6.280545260161426e6 1.8875086059810914e7 0.0
1.8875086059810914e7 5.685655319811361e6 0.0
0.0 0.0 0.0

-1.527303830538017e6 1.2507912070414595e7 0.0
1.2507912070414595e7 -5.091012651306663e6 0.0
0.0 0.0 0.0

868392.0455462937 1.0906580424637366e7 0.0
1.0906580424637366e7 2.894640299367129e6 0.0
0.0 0.0 0.0

-1.2308163175950084e7 9.65870318797179e6 0.0
9.65870318797179e6 1.4905684867326984e7 0.0
0.0 0.0 0.0

-1.1323598738997437e6 9.746642530266685e6 0.0
9.746642530266685e6 -2.496579061904055e6 0.0
0.0 0.0 0.0

3.1386291450645123e6 1.254242657490254e7 0.0
1.254242657490254e7 1.498922240878199e7 0.0
0.0 0.0 0.0

-1.1100849613757145e7 -2.735935008606701e6 0.0
-2.735935008606701e6 1.874641537613161e7 0.0
0.0 0.0 0.0

5.21896182947362e6 5.449824524518908e6 0.0
5.449824524518908e6 -1.8855334139389314e7 0.0
0.0 0.0 0.0

-212590.47673750762 1.1984220880799066e7 0.0
1.1984220880799066e7 -1.3663229713528007e7 0.0
0.0 0.0 0.0

-8.368721024458319e6 1.8485186566210438e7 0.0
1.8485186566210438e7 7.008039105798246e6 0.0
0.0 0.0 0.0

1.1190522634825435e7 1.0662911454158565e7 0.0
1.0662911454158565e7 -323864.5974531756 0.0
0.0 0.0 0.0

-1.1523189110444086e7 1.0815991046356915e6 0.0
1.0815991046356915e6 1.4665736264905952e7 0.0
0.0 0.0 0.0

-1.262988998762431e7 1.9830384517497398e7 0.0
1.9830384517497398e7 692723.7043951573 0.0
0.0 0.0 0.0

-3.6107828777636737e6 1.426250894655947e7 0.0
1.426250894655947e7 3.551413389373633e6 0.0
0.0 0.0 0.0

-1.6371206718724348e7 1.847067495093602e7 0.0
1.847067495093602e7 1.0290010350988783e7 0.0
0.0 0.0 0.0

5.207058393574835e6 5.706978114555266e6 0.0
5.706978114555266e6 -1.9562635749022722e7 0.0
0.0 0.0 0.0

-2.532033842725768e6 1.8495965309738442e7 0.0
1.8495965309738442e7 -1.413358193148085e6 0.0
0.0 0.0 0.0

-1.169070429553233e7 8.200675087507804e6 0.0
8.200675087507804e6 2.933197541599945e7 0.0
0.0 0.0 0.0

-5.939527200255122e6 1.7242379513699222e7 0.0
1.7242379513699222e7 6.672544158554751e6 0.0
0.0 0.0 0.0

-947072.1874040469 1.206127054421501e7 0.0
1.206127054421501e7 -3.7319851712828847e6 0.0
0.0 0.0 0.0

-1.0205072073559047e6 4.417619058377226e6 0.0
4.417619058377226e6 81043.03194708127 0.0
0.0 0.0 0.0

-345382.84698728914 1.3109213633945854e7 0.0
1.3109213633945854e7 4.459465557024865e6 0.0
0.0 0.0 0.0

-4.1147007711722935e6 1.490450502799673e7 0.0
1.490450502799673e7 4.949207543614529e6 0.0
0.0 0.0 0.0

1.3284892547265976e6 7.815264604400849e6 0.0
7.815264604400849e6 -6.361675522295325e6 0.0
0.0 0.0 0.0

-1.6619889015287291e6 1.4042582171217643e7 0.0
1.4042582171217643e7 -176487.5921302758 0.0
0.0 0.0 0.0

2.181963563566626e6 1.3520798699797893e7 0.0
1.3520798699797893e7 -4.339016255153807e6 0.0
0.0 0.0 0.0

-1.6104513633708803e6 9.554120529017348e6 0.0
9.554120529017348e6 -1.3609495242176722e6 0.0
0.0 0.0 0.0

114116.29219723493 1.1561769216629522e7 0.0
1.1561769216629522e7 -1.4469099320528347e7 0.0
0.0 0.0 0.0

-5.288909259887692e6 1.1022573070719171e7 0.0
1.1022573070719171e7 2.6950443743663407e6 0.0
0.0 0.0 0.0

-8.800946355587069e6 1.1665204135152204e7 0.0
1.1665204135152204e7 1.2812083694054963e7 0.0
0.0 0.0 0.0

-8.324382973702232e6 -664155.3324434687 0.0
-664155.3324434687 1.1366894921589317e7 0.0
0.0 0.0 0.0

-5.760359751386509e6 1.4917082263236929e7 0.0
1.4917082263236929e7 978438.2778199799 0.0
0.0 0.0 0.0

-6.657349162468564e6 1.7829002870995697e7 0.0
1.7829002870995697e7 6.613891074785827e6 0.0
0.0 0.0 0.0

82365.47930898215 1.8763419561864384e7 0.0
1.8763419561864384e7 -4.335589803310994e6 0.0
0.0 0.0 0.0

-1.1630278731702618e7 535192.3847176237 0.0
535192.3847176237 1.5650935906471564e7 0.0
0.0 0.0 0.0

-519594.2832400454 1.1903928371150136e7 0.0
1.1903928371150136e7 -1.4989049295067944e7 0.0
0.0 0.0 0.0

-6.057724602387189e6 1.7854929298680983e7 0.0
1.7854929298680983e7 6.558548280696128e6 0.0
0.0 0.0 0.0

1.0503649990431755e6 1.2008007118040662e7 0.0
1.2008007118040662e7 -6.555619486028615e6 0.0
0.0 0.0 0.0

-1.2680645613240795e6 1.0554079744770842e7 0.0
1.0554079744770842e7 -4.350656490123963e6 0.0
0.0 0.0 0.0

-3.466240433311994e6 3.0951408977791215e6 0.0
3.0951408977791215e6 3.8241376184080504e6 0.0
0.0 0.0 0.0

-8.600321857636834e6 1.897963242906728e7 0.0
1.897963242906728e7 7.461824155227525e6 0.0
0.0 0.0 0.0

-3.7841727198910494e6 1.4709361607970865e7 0.0
1.4709361607970865e7 944860.986226667 0.0
0.0 0.0 0.0

-259139.71895673033 1.2907816856415587e7 0.0
1.2907816856415587e7 6.444207744760942e6 0.0
0.0 0.0 0.0

578206.1903185464 4.282830609206231e6 0.0
4.282830609206231e6 -2.490945321289334e6 0.0
0.0 0.0 0.0

1.5654524915027514e6 1.1845226542550104e7 0.0
1.1845226542550104e7 736228.6024856034 0.0
0.0 0.0 0.0

4.086164456973605e6 8.3184237872529e6 0.0
8.3184237872529e6 -2.4973766099874612e7 0.0
0.0 0.0 0.0

-4.106010497702413e6 2.0817329518934373e7 0.0
2.0817329518934373e7 -1.3179172602139902e6 0.0
0.0 0.0 0.0

-5.342230711802438e6 1.5627256992185572e7 0.0
1.5627256992185572e7 6.363884613606373e6 0.0
0.0 0.0 0.0

-4.4685863845582055e6 6.838561607018565e6 0.0
6.838561607018565e6 2.4432755539580523e6 0.0
0.0 0.0 0.0

-527128.7601592788 1.3789869751577545e7 0.0
1.3789869751577545e7 -1.9869910275251418e6 0.0
0.0 0.0 0.0

3.5193247056102045e6 9.382652111754572e6 0.0
9.382652111754572e6 -2.3005268001862977e7 0.0
0.0 0.0 0.0

829110.6425866503 1.1849903392172366e7 0.0
1.1849903392172366e7 -1.2597665672860917e7 0.0
0.0 0.0 0.0

-1.0374871872784005e7 2.051437032891102e7 0.0
2.051437032891102e7 7.95507708129467e6 0.0
0.0 0.0 0.0

-1.2956921272399304e6 1.2378894037657663e7 0.0
1.2378894037657663e7 -4.318974026665449e6 0.0
0.0 0.0 0.0

-2.677709333306028e6 1.5334190746806698e7 0.0
1.5334190746806698e7 -3.360181991491846e6 0.0
0.0 0.0 0.0

-5.553047522267576e6 1.5490051246367207e7 0.0
1.5490051246367207e7 4.913251067238499e6 0.0
0.0 0.0 0.0

-222147.17111297091 1.2291020907184849e7 0.0
1.2291020907184849e7 -6.6406238997983625e6 0.0
0.0 0.0 0.0

2.121825508883159e6 1.3010588689604606e7 0.0
1.3010588689604606e7 1.7253191049729455e6 0.0
0.0 0.0 0.0

-5.557748498534485e6 1.5430329734815378e7 0.0
1.5430329734815378e7 -35808.24436712591 0.0
0.0 0.0 0.0

-1.5999934118750659e6 1.4142632644792495e7 0.0
1.4142632644792495e7 1.7678990961539147e6 0.0
0.0 0.0 0.0

-1.1724440483809728e7 5.066512806616633e6 0.0
5.066512806616633e6 3.44040197990966e7 0.0
0.0 0.0 0.0

-540723.6970306356 1.0380502952487487e7 0.0
1.0380502952487487e7 -4.0926709221759527e6 0.0
0.0 0.0 0.0

-2.4434676697484017e6 1.0898319781447742e7 0.0
1.0898319781447742e7 -1.1142131423904253e7 0.0
0.0 0.0 0.0

-362200.2839796315 1.3381854692315979e7 0.0
1.3381854692315979e7 -8.884842967502676e6 0.0
0.0 0.0 0.0

-3.8518550025733747e6 1.3041347154692624e7 0.0
1.3041347154692624e7 -3.474435085296059e6 0.0
0.0 0.0 0.0

-4.257946359096695e6 1.461006891457312e7 0.0
1.461006891457312e7 5.001693793098608e6 0.0
0.0 0.0 0.0

-268945.0610523244 1.1811077432853991e7 0.0
1.1811077432853991e7 -896483.4839025252 0.0
0.0 0.0 0.0

-5.511794073952006e6 1.8051032894345198e7 0.0
1.8051032894345198e7 5.270613555489911e6 0.0
0.0 0.0 0.0

-1.3266185962865832e6 1.4456541236937443e7 0.0
1.4456541236937443e7 -186547.56520755295 0.0
0.0 0.0 0.0

-1.1757028441154083e7 -1.3739331976601982e6 0.0
-1.3739331976601982e6 3.4083009560014226e7 0.0
0.0 0.0 0.0

-1.1197692857700732e7 3.806553510815402e6 0.0
3.806553510815402e6 1.2756123311680451e7 0.0
0.0 0.0 0.0

1.0547721527711102e6 1.2338638019399406e7 0.0
1.2338638019399406e7 -6.148497510468471e6 0.0
0.0 0.0 0.0

-1.5333177299848024e7 1.521111364766855e7 0.0
1.521111364766855e7 6.8226830910458015e6 0.0
0.0 0.0 0.0

-6.357826561951438e6 2.020610037298067e6 0.0
2.020610037298067e6 6.401871141299847e6 0.0
0.0 0.0 0.0

-1.285913560886242e7 2.632797679614544e6 0.0
2.632797679614544e6 2.634797150160335e7 0.0
0.0 0.0 0.0

-978424.8391972011 -1.2041919045483298e6 0.0
-1.2041919045483298e6 -76158.38882538598 0.0
0.0 0.0 0.0

-3.449918528949898e6 2.424464107193274e6 0.0
2.424464107193274e6 1.3064169704690923e6 0.0
0.0 0.0 0.0

2.0956064906801023e6 9.106223466959592e6 0.0
9.106223466959592e6 -1.1290241698488971e7 0.0
0.0 0.0 0.0

-4.466874417268635e6 1.4871449407727813e7 0.0
1.4871449407727813e7 773875.1841547058 0.0
0.0 0.0 0.0

-5.14177377922242e6 1.2725659222216792e7 0.0
1.2725659222216792e7 -1.776578746507946e6 0.0
0.0 0.0 0.0

-5.033440005470647e6 1.4549698858132673e7 0.0
1.4549698858132673e7 6.953746418817565e6 0.0
0.0 0.0 0.0

-283101.474617396 1.145208130035541e7 0.0
1.145208130035541e7 -1.2037991317232138e7 0.0
0.0 0.0 0.0

-1.6787353268199703e6 1.1997098976072093e7 0.0
1.1997098976072093e7 6.087591385852188e6 0.0
0.0 0.0 0.0

-3.3635901082400014e6 1.2005780705174392e7 0.0
1.2005780705174392e7 -1.419006375820814e7 0.0
0.0 0.0 0.0

-2.563118589920398e6 1.4160027449915845e7 0.0
1.4160027449915845e7 1.0302184193372446e6 0.0
0.0 0.0 0.0

2.9076430853032935e6 1.0057688690033393e7 0.0
1.0057688690033393e7 -2.674569286657942e7 0.0
0.0 0.0 0.0

3.329740816299813e6 9.451717068281086e6 0.0
9.451717068281086e6 -2.0743052993306473e7 0.0
0.0 0.0 0.0

-1.6714680987620987e6 1.4949439405132726e7 0.0
1.4949439405132726e7 -2.948173858649263e6 0.0
0.0 0.0 0.0

-6.83271211602261e6 1.7840383178877987e7 0.0
1.7840383178877987e7 1.7117279708765317e6 0.0
0.0 0.0 0.0

-8.253397400287238e6 1.746418677824967e7 0.0
1.746418677824967e7 6.814640710300213e6 0.0
0.0 0.0 0.0

-3.820968356457376e6 9.247542238873348e6 0.0
9.247542238873348e6 866312.1155592431 0.0
0.0 0.0 0.0

-2.7972286439676075e6 3.4847055726583046e6 0.0
3.4847055726583046e6 3.8888650129656815e6 0.0
0.0 0.0 0.0

1.2335858408388258e6 1.1415198687135609e7 0.0
1.1415198687135609e7 -5.712204892834486e6 0.0
0.0 0.0 0.0

3.4055794605860305e6 1.3990236843482042e7 0.0
1.3990236843482042e7 -4.851199499735517e6 0.0
0.0 0.0 0.0

-1.0522403641114578e7 8.80998835317359e6 0.0
8.80998835317359e6 3.021291079079983e7 0.0
0.0 0.0 0.0

-2.0114514060160825e6 1.3900307184389887e7 0.0
1.3900307184389887e7 3.8982541501090415e6 0.0
0.0 0.0 0.0

-6.922393258297022e6 1.784101979337228e7 0.0
1.784101979337228e7 6.658037512008509e6 0.0
0.0 0.0 0.0

-1.5077848126134272e6 1.0523081180211674e7 0.0
1.0523081180211674e7 -8.741219608839922e6 0.0
0.0 0.0 0.0

-1.270744296033326e7 5.676130816974639e6 0.0
5.676130816974639e6 2.4204444420931928e7 0.0
0.0 0.0 0.0

-2.003951204966633e6 1.372622186665013e7 0.0
1.372622186665013e7 1.855362746234251e6 0.0
0.0 0.0 0.0

-855401.2700942042 1.3385532433735628e7 0.0
1.3385532433735628e7 -8.28921961359665e6 0.0
0.0 0.0 0.0

1.2718696500209626e6 1.1337926658624893e7 0.0
1.1337926658624893e7 -1.4177693500237321e7 0.0
0.0 0.0 0.0

3.545808506755798e6 8.781440616463402e6 0.0
8.781440616463402e6 -2.0498990982314162e7 0.0
0.0 0.0 0.0

3.238630776694271e6 9.049444401062813e6 0.0
9.049444401062813e6 -1.7369737292045478e7 0.0
0.0 0.0 0.0

-2.6625461722483765e6 1.3506318604635552e7 0.0
1.3506318604635552e7 -2.002597743938315e7 0.0
0.0 0.0 0.0

-5.6454512270934e6 1.782129172321002e7 0.0
1.782129172321002e7 5.523921111700288e6 0.0
0.0 0.0 0.0

-2.976616606175848e6 1.5532969241139129e7 0.0
1.5532969241139129e7 -1.829243720109077e6 0.0
0.0 0.0 0.0

598801.9183243955 1.2346499074462414e7 0.0
1.2346499074462414e7 -8.851162242953984e6 0.0
0.0 0.0 0.0

6.825133741113281e6 1.4105922982761934e7 0.0
1.4105922982761934e7 -5.501539073587386e6 0.0
0.0 0.0 0.0

-1.159305064534671e7 752587.7266524327 0.0
752587.7266524327 2.990111699342852e7 0.0
0.0 0.0 0.0

2.88041383611436e6 9.76259191103264e6 0.0
9.76259191103264e6 -2.356107907092466e7 0.0
0.0 0.0 0.0

3.5808103037284045e6 9.174996297600007e6 0.0
9.174996297600007e6 -1.710301774428977e7 0.0
0.0 0.0 0.0

-1.0648722477117207e7 5.162909331837054e6 0.0
5.162909331837054e6 3.86280051136274e7 0.0
0.0 0.0 0.0

5.530471000269663e6 1.3422904326973494e7 0.0
1.3422904326973494e7 2.9529786768938918e6 0.0
0.0 0.0 0.0

-1.1631563087501192e7 3.8854560199236916e6 0.0
3.8854560199236916e6 2.78784701388392e7 0.0
0.0 0.0 0.0

-715734.216345863 3.2649051981544313e6 0.0
3.2649051981544313e6 -1.2667555451738625e6 0.0
0.0 0.0 0.0

-5.864811016136745e6 1.831351730735484e7 0.0
1.831351730735484e7 4.842998387156533e6 0.0
0.0 0.0 0.0

2.84530145717162e6 8.756193547836933e6 0.0
8.756193547836933e6 -1.3786447602005288e7 0.0
0.0 0.0 0.0

-7.773794017269198e6 1.947649138674884e7 0.0
1.947649138674884e7 7.359768572262995e6 0.0
0.0 0.0 0.0

-1.158393233142661e7 7.676174091346838e6 0.0
7.676174091346838e6 2.1790456554153208e7 0.0
0.0 0.0 0.0

-9.802978614971401e6 3.2597016165191373e6 0.0
3.2597016165191373e6 1.1128283273981474e7 0.0
0.0 0.0 0.0

-1.9202229266141374e6 1.86931724157157e7 0.0
1.86931724157157e7 -2.1135671038170247e6 0.0
0.0 0.0 0.0

-4.820024820390067e6 1.4940294314134507e7 0.0
1.4940294314134507e7 6.852152588375102e6 0.0
0.0 0.0 0.0

-2.7905592243222664e6 1.627382335210969e7 0.0
1.627382335210969e7 -2.4427158487094957e6 0.0
0.0 0.0 0.0

-5.726415499146025e6 1.6201349011121226e7 0.0
1.6201349011121226e7 5.5830791725007e6 0.0
0.0 0.0 0.0

-155574.2078500376 1.1949110324098686e7 0.0
1.1949110324098686e7 -1.2781923994836988e7 0.0
0.0 0.0 0.0

378811.1217738346 1.4658957761681553e7 0.0
1.4658957761681553e7 -5.551368403876332e6 0.0
0.0 0.0 0.0

-287543.0861764606 1.3603853780779768e7 0.0
1.3603853780779768e7 1.486011354920943e7 0.0
0.0 0.0 0.0

-5.06122820675628e6 457149.78706502565 0.0
457149.78706502565 9.978385099475961e6 0.0
0.0 0.0 0.0

-4.0429826895309156e6 4.827511636378607e6 0.0
4.827511636378607e6 -896286.6543807855 0.0
0.0 0.0 0.0

-1.6102516538991076e6 1.261816333895921e7 0.0
1.261816333895921e7 -5.367505353086457e6 0.0
0.0 0.0 0.0

1.4380875926212084e6 1.2850421846657207e7 0.0
1.2850421846657207e7 4.793625613118196e6 0.0
0.0 0.0 0.0

-3.788881921019901e6 2.1285093487042785e7 0.0
2.1285093487042785e7 -2.80984114490013e6 0.0
0.0 0.0 0.0

3.7097530674675084e6 5.783963211394715e6 0.0
5.783963211394715e6 -9.878871366580639e6 0.0
0.0 0.0 0.0

-7.012204114732195e6 2.01842966948993e7 0.0
2.01842966948993e7 6.820918164429398e6 0.0
0.0 0.0 0.0

-2.584077678438165e7 5.988596491118758e6 0.0
5.988596491118758e6 1.1454273362268684e7 0.0
0.0 0.0 0.0

-442866.2160935025 1.3522243987347782e7 0.0
1.3522243987347782e7 -8.435494201098839e6 0.0
0.0 0.0 0.0

-1.1973130570779322e7 9.163297341665778e6 0.0
9.163297341665778e6 1.840532127890905e7 0.0
0.0 0.0 0.0

1.1303600573636326e6 1.222003079082632e7 0.0
1.222003079082632e7 -6.2381834237372745e6 0.0
0.0 0.0 0.0

-4.727293046745314e6 1.5127723822645962e7 0.0
1.5127723822645962e7 5.534793009801979e6 0.0
0.0 0.0 0.0

-4.0601042431553863e6 1.4581210855332281e7 0.0
1.4581210855332281e7 52052.78732307046 0.0
0.0 0.0 0.0

1.0685204819873753e6 1.2760400255153587e7 0.0
1.2760400255153587e7 -6.8910777745714355e6 0.0
0.0 0.0 0.0

5.392297851002834e6 5.330538109720849e6 0.0
5.330538109720849e6 -2.0102603090761382e7 0.0
0.0 0.0 0.0

-898951.0874381601 8.831526765262235e6 0.0
8.831526765262235e6 -2.9965039652041253e6 0.0
0.0 0.0 0.0

2.9292941820970564e6 1.5093924446837066e7 0.0
1.5093924446837066e7 -5.1894324045937555e6 0.0
0.0 0.0 0.0

422622.4794276841 1.2413159958826613e7 0.0
1.2413159958826613e7 -9.573790961320326e6 0.0
0.0 0.0 0.0

-220462.14891221118 1.280234964072008e7 0.0
1.280234964072008e7 5.432211043951035e6 0.0
0.0 0.0 0.0

2.843418202957617e6 9.703383258374808e6 0.0
9.703383258374808e6 -2.1133747733990055e7 0.0
0.0 0.0 0.0

-2.5589662477794653e6 1.447470369773633e7 0.0
1.447470369773633e7 -3.5806497860209527e6 0.0
0.0 0.0 0.0

-2.4899185268161935e6 1.436001974185591e7 0.0
1.436001974185591e7 9.907069144981265e6 0.0
0.0 0.0 0.0

4.910727725083418e6 1.7927954221003775e7 0.0
1.7927954221003775e7 -8.422028720760746e6 0.0
0.0 0.0 0.0

3.193835583418371e6 9.428939755327001e6 0.0
9.428939755327001e6 -1.8794001406965345e7 0.0
0.0 0.0 0.0

-2.1807429561962888e7 4.629982542143784e6 0.0
4.629982542143784e6 1.0811004777968116e7 0.0
0.0 0.0 0.0

-1.5082542378446711e6 1.3485678968239048e7 0.0
1.3485678968239048e7 5.136090253141301e6 0.0
0.0 0.0 0.0

-7.819338863883983e6 1.998548633362749e7 0.0
1.998548633362749e7 7.422839527820181e6 0.0
0.0 0.0 0.0

-1.3055139067711246e6 1.3577687318127085e7 0.0
1.3577687318127085e7 -5.111449942171628e6 0.0
0.0 0.0 0.0

-6.459841210600359e6 1.8111207726235125e7 0.0
1.8111207726235125e7 6.533724717918481e6 0.0
0.0 0.0 0.0

-1.1747579100615526e7 8.149813630714715e6 0.0
8.149813630714715e6 3.2370633397986002e7 0.0
0.0 0.0 0.0

1.2153894793958976e6 1.0780565441212112e7 0.0
1.0780565441212112e7 -9.066519714111581e6 0.0
0.0 0.0 0.0

-3.4377925185918855e6 1.8848365454557035e7 0.0
1.8848365454557035e7 -1.968786291182152e6 0.0
0.0 0.0 0.0

-1.3511151043870035e6 8.427713438721249e6 0.0
8.427713438721249e6 -1.307170215397785e6 0.0
0.0 0.0 0.0

-2.1449506725101724e7 4.574088159729961e6 0.0
4.574088159729961e6 1.0692858093094597e7 0.0
0.0 0.0 0.0

-2.8021000826769066e6 1.0408491701953871e7 0.0
1.0408491701953871e7 -1.2423467353161492e6 0.0
0.0 0.0 0.0

-1.1211472124492146e7 -1.1022366115104533e6 0.0
-1.1022366115104533e6 1.501629881113315e7 0.0
0.0 0.0 0.0

-1.1007147816005832e7 9.991758659336e6 0.0
9.991758659336e6 1.9548819290218413e7 0.0
0.0 0.0 0.0

-6.599997469170017e6 1.918207142880284e7 0.0
1.918207142880284e7 6.012480949208648e6 0.0
0.0 0.0 0.0

-7.947778045512447e6 2.0448637797739334e7 0.0
2.0448637797739334e7 7.407844620235009e6 0.0
0.0 0.0 0.0

-1.1498800724493193e7 6.699965089512013e6 0.0
6.699965089512013e6 2.5495573214584418e7 0.0
0.0 0.0 0.0

1.1429827287199409e6 9.890161792734204e6 0.0
9.890161792734204e6 -7.619201833414265e6 0.0
0.0 0.0 0.0

2.7250502586424965e6 1.3000669501272753e7 0.0
1.3000669501272753e7 -2.9365510178711554e6 0.0
0.0 0.0 0.0

-1.0075636815975675e6 9.084981188968819e6 0.0
9.084981188968819e6 -6.511137185924845e6 0.0
0.0 0.0 0.0

-546934.968760898 6.692071872131877e6 0.0
6.692071872131877e6 64924.74927046092 0.0
0.0 0.0 0.0

-6.115860683739401e6 1.913958405908423e7 0.0
1.913958405908423e7 6.042256676202687e6 0.0
0.0 0.0 0.0

-1.146585935144819e7 1.059749670496256e7 0.0
1.059749670496256e7 1.376737000691495e7 0.0
0.0 0.0 0.0

2.7405780850271946e6 9.745844006630408e6 0.0
9.745844006630408e6 -1.927222151306614e7 0.0
0.0 0.0 0.0

-1.2761299149873875e7 1.58256944524507e7 0.0
1.58256944524507e7 5.412239746741149e6 0.0
0.0 0.0 0.0

-3.116191461715498e6 1.6681765351729402e7 0.0
1.6681765351729402e7 -1.629573311136333e6 0.0
0.0 0.0 0.0

5.201399275201306e6 6.259880309535132e6 0.0
6.259880309535132e6 -2.351715561817628e7 0.0
0.0 0.0 0.0

-4.50974924090267e6 1.3647668955487736e7 0.0
1.3647668955487736e7 8.217643937994853e6 0.0
0.0 0.0 0.0

-4.343420027259545e6 1.4854571727348598e7 0.0
1.4854571727348598e7 2.0667033564283324e6 0.0
0.0 0.0 0.0

-37092.27880684938 1.3591240441690693e7 0.0
1.3591240441690693e7 -8.503125033866154e6 0.0
0.0 0.0 0.0

-8.735725132618735e6 1.9534988242201816e7 0.0
1.9534988242201816e7 7.769736442316223e6 0.0
0.0 0.0 0.0

-3.65188260755614e6 1.490473138371639e7 0.0
1.490473138371639e7 582781.5523518987 0.0
0.0 0.0 0.0

-7.154733078332681e6 1.9468490548585374e7 0.0
1.9468490548585374e7 6.439210371403743e6 0.0
0.0 0.0 0.0

-654465.6879967973 6.50984745253339e6 0.0
6.50984745253339e6 -1.7146896478897603e6 0.0
0.0 0.0 0.0

1.080643039391505e6 1.3180087064559009e7 0.0
1.3180087064559009e7 5.1316771029850105e6 0.0
0.0 0.0 0.0

599081.8271949929 1.2089458368410667e7 0.0
1.2089458368410667e7 -1.1685729125314748e7 0.0
0.0 0.0 0.0

-2.013615149128636e6 1.0214964504121846e7 0.0
1.0214964504121846e7 -974335.6373084751 0.0
0.0 0.0 0.0

88299.8746431712 1.2861714609572725e7 0.0
1.2861714609572725e7 -9.773246976566758e6 0.0
0.0 0.0 0.0

2.948505629878793e6 7.096334871123257e6 0.0
7.096334871123257e6 -1.0897894549116034e7 0.0
0.0 0.0 0.0

702126.9746901209 1.4873396203236533e7 0.0
1.4873396203236533e7 7.55626490864655e6 0.0
0.0 0.0 0.0

-8.969366136985e6 -5.247221950101884e6 0.0
-5.247221950101884e6 1.9240927363275953e7 0.0
0.0 0.0 0.0

1.370431867337073e6 1.3375814492634026e7 0.0
1.3375814492634026e7 5.957535172368611e6 0.0
0.0 0.0 0.0

-5.955072800024074e6 1.8144210512736566e7 0.0
1.8144210512736566e7 5.15778336628643e6 0.0
0.0 0.0 0.0

1.1223925919473926e6 1.1960083866491787e7 0.0
1.1960083866491787e7 -1.2754638023241492e7 0.0
0.0 0.0 0.0

-2.9629847299573217e6 1.8217979223520104e7 0.0
1.8217979223520104e7 -1.0767732212892184e6 0.0
0.0 0.0 0.0

-222049.3060066761 1.3452669431221312e7 0.0
1.3452669431221312e7 -1.7146569505254684e6 0.0
0.0 0.0 0.0

3.4447793344646674e6 8.507449196177728e6 0.0
8.507449196177728e6 -1.3394154881679503e7 0.0
0.0 0.0 0.0

-3.4317563660135707e6 1.6405380009575173e7 0.0
1.6405380009575173e7 -2.653139096792251e6 0.0
0.0 0.0 0.0

461711.15138201555 1.2304231722313795e7 0.0
1.2304231722313795e7 -1.1079820647769388e7 0.0
0.0 0.0 0.0

-3.848182051382417e6 5.473675062100466e6 0.0
5.473675062100466e6 3.3207619737627357e6 0.0
0.0 0.0 0.0

-2.7952150008490747e6 1.4835953190590987e7 0.0
1.4835953190590987e7 7.000885662737529e6 0.0
0.0 0.0 0.0

-4.822321211611205e6 1.5366841260015005e7 0.0
1.5366841260015005e7 5.433139854250856e6 0.0
0.0 0.0 0.0

-6.084302062144391e6 1.852510004404637e7 0.0
1.852510004404637e7 5.400255596487062e6 0.0
0.0 0.0 0.0

-2.0750316059832086e6 1.3416719906077495e7 0.0
1.3416719906077495e7 3.737068353808554e6 0.0
0.0 0.0 0.0

-954786.0796203064 4.996552304165176e6 0.0
4.996552304165176e6 -156319.314004393 0.0
0.0 0.0 0.0

-1.273775562007353e7 4.743213105361177e6 0.0
4.743213105361177e6 2.0560606105534602e7 0.0
0.0 0.0 0.0

-170362.01145790378 1.3162779318897365e7 0.0
1.3162779318897365e7 -9.123626912626892e6 0.0
0.0 0.0 0.0

2.130559949962955e6 1.1639846888490504e7 0.0
1.1639846888490504e7 -2.5375618653961178e7 0.0
0.0 0.0 0.0

-1.00311362377464e6 5.568452599539443e6 0.0
5.568452599539443e6 -461507.7443089316 0.0
0.0 0.0 0.0

-8.603405296904631e6 201371.62671326395 0.0
201371.62671326395 9.753907979968714e6 0.0
0.0 0.0 0.0

-5.834099829948017e6 1.136805358876722e7 0.0
1.136805358876722e7 3.730646210125944e6 0.0
0.0 0.0 0.0

-3.4255734553183443e6 1.6752915622589853e7 0.0
1.6752915622589853e7 -987581.0239526591 0.0
0.0 0.0 0.0

100381.44237499591 1.1751680609515827e7 0.0
1.1751680609515827e7 -1.7852157206458673e7 0.0
0.0 0.0 0.0

3.2542172483687946e6 6.922690260682764e6 0.0
6.922690260682764e6 -9.788385683809726e6 0.0
0.0 0.0 0.0

-5.443939652602661e6 1.821827852522565e7 0.0
1.821827852522565e7 4.975905692171564e6 0.0
0.0 0.0 0.0

-2.764330849249978e6 1.659913373634767e7 0.0
1.659913373634767e7 -2.3618646061521303e6 0.0
0.0 0.0 0.0

-1.2694226309250478e7 2.2520979848580975e7 0.0
2.2520979848580975e7 7.845770085284041e6 0.0
0.0 0.0 0.0

-5.646202667719737e6 1.841336075008643e7 0.0
1.841336075008643e7 5.557132598544688e6 0.0
0.0 0.0 0.0

-1.4524053688933218e7 1.829128014256947e7 0.0
1.829128014256947e7 4.823395441284871e6 0.0
0.0 0.0 0.0

-1.3157627122863377e6 1.4634444379475806e7 0.0
1.4634444379475806e7 -910028.7678280536 0.0
0.0 0.0 0.0

1.6493526386904344e6 1.1496216813824592e7 0.0
1.1496216813824592e7 -2.3734834976316188e7 0.0
0.0 0.0 0.0

-2.419970469640577e6 9.761633468378939e6 0.0
9.761633468378939e6 -1.654415768478431e6 0.0
0.0 0.0 0.0

-1.209380576594659e7 -2.9137430952244634e6 0.0
-2.9137430952244634e6 2.3962478923771933e7 0.0
0.0 0.0 0.0

-1.2583213642614309e7 1.490417994555593e6 0.0
1.490417994555593e6 2.8979640551842947e7 0.0
0.0 0.0 0.0

4.701983247555571e6 6.581074705841835e6 0.0
6.581074705841835e6 -1.844504554468566e7 0.0
0.0 0.0 0.0

-5.497424415456748e6 1.6214100748332767e7 0.0
1.6214100748332767e7 6.464316866690274e6 0.0
0.0 0.0 0.0

-1.0816076754364906e7 8.940420407447385e6 0.0
8.940420407447385e6 2.7479779773315966e7 0.0
0.0 0.0 0.0

295997.6787226824 1.2578532383817563e7 0.0
1.2578532383817563e7 -1.0430304717475751e7 0.0
0.0 0.0 0.0

-9.827224753542637e6 1.0993842742336325e7 0.0
1.0993842742336325e7 2.40749979529483e7 0.0
0.0 0.0 0.0

-3.7501197472411147e6 1.6455542149536023e7 0.0
1.6455542149536023e7 -1.9822224699274423e6 0.0
0.0 0.0 0.0

-4.578980090201177e6 1.9475206136536226e7 0.0
1.9475206136536226e7 400781.93100270536 0.0
0.0 0.0 0.0

-137434.52651336743 1.335109233605147e7 0.0
1.335109233605147e7 -2.430684549288001e6 0.0
0.0 0.0 0.0

-8.375717041245779e6 1.7899368170796772e6 0.0
1.7899368170796772e6 1.0528344136035187e7 0.0
0.0 0.0 0.0

-1.869985806783145e6 1.3388135322699621e7 0.0
1.3388135322699621e7 4.60181385855259e6 0.0
0.0 0.0 0.0

-4.872150620031554e6 1.1125474764687717e7 0.0
1.1125474764687717e7 4.0663356511336425e6 0.0
0.0 0.0 0.0

4.886512153566896e6 5.701815125061449e6 0.0
5.701815125061449e6 -1.6889779836596917e7 0.0
0.0 0.0 0.0

1.128281502364981e6 1.4323033599211333e7 0.0
1.4323033599211333e7 -5.603386488397546e6 0.0
0.0 0.0 0.0

-1.1768289506516414e7 1.0133961999634642e7 0.0
1.0133961999634642e7 9.008350974855471e6 0.0
0.0 0.0 0.0

-9.781514076016068e6 1.5031020717212152e7 0.0
1.5031020717212152e7 -528623.376735569 0.0
0.0 0.0 0.0

-5.598754883138985e6 1.8316818450941358e7 0.0
1.8316818450941358e7 3.9843885866384637e6 0.0
0.0 0.0 0.0

469130.68727420224 9.614614920274092e6 0.0
9.614614920274092e6 -7.3111666187315e6 0.0
0.0 0.0 0.0

-2.3056390392577965e6 1.4439742412262714e7 0.0
1.4439742412262714e7 -543897.6321634155 0.0
0.0 0.0 0.0

-4.628666141785578e6 1.9373815577612936e7 0.0
1.9373815577612936e7 2.435583396689719e6 0.0
0.0 0.0 0.0

-5.256586782535614e6 1.348691880392122e7 0.0
1.348691880392122e7 9.339348038282432e6 0.0
0.0 0.0 0.0

-2.488521113438044e6 1.354157361486295e7 0.0
1.354157361486295e7 3.9678084712497145e6 0.0
0.0 0.0 0.0

1.158389878330667e6 9.396907548105367e6 0.0
9.396907548105367e6 -6.978228725719113e6 0.0
0.0 0.0 0.0

-6.157331573470416e6 2.0296037691287633e7 0.0
2.0296037691287633e7 5.560915988033756e6 0.0
0.0 0.0 0.0

-1.0763103131339636e7 -3.395748257096628e6 0.0
-3.395748257096628e6 1.6198654624531463e7 0.0
0.0 0.0 0.0

4.649885096309507e6 6.259850366150071e6 0.0
6.259850366150071e6 -1.395381880517959e7 0.0
0.0 0.0 0.0

-4.435714484367829e6 1.7766591768399227e7 0.0
1.7766591768399227e7 1.8485410474330487e6 0.0
0.0 0.0 0.0

817564.2597115091 1.2220654630541416e7 0.0
1.2220654630541416e7 -1.1892863770483341e7 0.0
0.0 0.0 0.0

-216347.44535293535 3.5360375302677862e6 0.0
3.5360375302677862e6 -1.1209113144424658e6 0.0
0.0 0.0 0.0

1.0175103144991789e6 7.679839075656998e6 0.0
7.679839075656998e6 -7.326481593585085e6 0.0
0.0 0.0 0.0

-6.111845863258064e6 1.699736427174848e7 0.0
1.699736427174848e7 2.9400500971399504e6 0.0
0.0 0.0 0.0

3.0401093470671205e6 9.160105106748702e6 0.0
9.160105106748702e6 -1.309611639654216e7 0.0
0.0 0.0 0.0

965354.4010460232 1.4630784274258085e7 0.0
1.4630784274258085e7 6.991106074719271e6 0.0
0.0 0.0 0.0

-1.4639397983261868e6 6.758641872081731e6 0.0
6.758641872081731e6 -2.0898813373658208e6 0.0
0.0 0.0 0.0

-1.306905425215559e6 4.962360123548685e6 0.0
4.962360123548685e6 -1.3362938016090523e6 0.0
0.0 0.0 0.0

-1.0609494945956739e6 1.8763009125572525e7 0.0
1.8763009125572525e7 -2.9900707191958753e6 0.0
0.0 0.0 0.0

-9.961855842925385e6 -2.275406253785053e6 0.0
-2.275406253785053e6 1.6301451728804516e7 0.0
0.0 0.0 0.0

521597.7491707336 1.1431573107939824e7 0.0
1.1431573107939824e7 -7.688969569682935e6 0.0
0.0 0.0 0.0

889723.3427111905 1.0913109596347254e7 0.0
1.0913109596347254e7 -341080.7113700256 0.0
0.0 0.0 0.0

3.438477553527009e6 1.634374437049192e7 0.0
1.634374437049192e7 -6.254460551451154e6 0.0
0.0 0.0 0.0

761846.7913043154 1.2114890734499082e7 0.0
1.2114890734499082e7 -9.844408245843062e6 0.0
0.0 0.0 0.0

2.185038186678298e6 1.3892033666417802e7 0.0
1.3892033666417802e7 8.856566262021612e6 0.0
0.0 0.0 0.0

-7.113607148949005e6 1.7876949807874713e7 0.0
1.7876949807874713e7 6.614940594676265e6 0.0
0.0 0.0 0.0

-1.0120139687742803e7 -3.1187347444466455e6 0.0
-3.1187347444466455e6 2.1954004014756378e7 0.0
0.0 0.0 0.0

-4.231370083504794e6 1.7832923361932e7 0.0
1.7832923361932e7 1.438295314829474e6 0.0
0.0 0.0 0.0

-3.0405747374271266e6 1.4168599936082883e7 0.0
1.4168599936082883e7 7.709394134808397e6 0.0
0.0 0.0 0.0

2.1590169838539115e6 8.785737391838664e6 0.0
8.785737391838664e6 -1.1010348257785449e7 0.0
0.0 0.0 0.0

5.537012541098326e6 5.668669342079197e6 0.0
5.668669342079197e6 -1.840232945055994e7 0.0
0.0 0.0 0.0

-3.929263764896553e6 1.475058187039075e7 0.0
1.475058187039075e7 -302092.32022645616 0.0
0.0 0.0 0.0

-4.933488425404709e6 7.7799053871585e6 0.0
7.7799053871585e6 4.802203880200095e6 0.0
0.0 0.0 0.0

-1.1667680247391324e7 9.958035281052867e6 0.0
9.958035281052867e6 1.6737468168101992e7 0.0
0.0 0.0 0.0

1.1625037699766532e6 1.1772297980049042e7 0.0
1.1772297980049042e7 -1.3366545933370853e7 0.0
0.0 0.0 0.0

1.7893195004887963e6 1.1066177621223615e7 0.0
1.1066177621223615e7 -2.259447465599392e7 0.0
0.0 0.0 0.0

-4.267676881933646e6 1.8215418082504757e7 0.0
1.8215418082504757e7 1.5489020539867252e6 0.0
0.0 0.0 0.0

-1.69690490079484e6 1.3472953463267956e7 0.0
1.3472953463267956e7 2.680453878810045e6 0.0
0.0 0.0 0.0

-2.496647650306628e7 5.801549535381199e6 0.0
5.801549535381199e6 1.1139896603084989e7 0.0
0.0 0.0 0.0

2.4934814630421577e6 1.4253369689471472e7 0.0
1.4253369689471472e7 1.071110744500852e7 0.0
0.0 0.0 0.0

-2.1983595848376267e7 1.5001101311774537e7 0.0
1.5001101311774537e7 9.926067201551411e6 0.0
0.0 0.0 0.0

3.2008664424362266e6 8.809048276456997e6 0.0
8.809048276456997e6 -1.5581258303298239e7 0.0
0.0 0.0 0.0

4.521002547197965e6 4.788193516307707e6 0.0
4.788193516307707e6 -575303.5961926116 0.0
0.0 0.0 0.0

-7.585215599124829e6 -3.079609730300086e6 0.0
-3.079609730300086e6 5.462799900506496e6 0.0
0.0 0.0 0.0

-3.7673559197971616e6 7.2555279129097825e6 0.0
7.2555279129097825e6 3.2807707342542186e6 0.0
0.0 0.0 0.0

-1.075374077294837e7 -1.4667408563649517e6 0.0
-1.4667408563649517e6 2.0688711853496384e7 0.0
0.0 0.0 0.0

-1.1455164782248113e7 -976743.3800278619 0.0
-976743.3800278619 1.6331738537049852e7 0.0
0.0 0.0 0.0

515867.88384947134 1.2952380151813976e7 0.0
1.2952380151813976e7 -9.947865609136706e6 0.0
0.0 0.0 0.0

-1.8235691679609034e6 9.322785031129612e6 0.0
9.322785031129612e6 -6.078564150852721e6 0.0
0.0 0.0 0.0

359294.1041416093 1.18367938800272e7 0.0
1.18367938800272e7 1.197647103233829e6 0.0
0.0 0.0 0.0

1.2961817418034484e6 1.092108670610048e7 0.0
1.092108670610048e7 -2.302812456229626e6 0.0
0.0 0.0 0.0

-4.280709590337989e6 1.8573905605886314e7 0.0
1.8573905605886314e7 1.6885640362155088e6 0.0
0.0 0.0 0.0

-6.505131805437948e6 6.226385462543496e6 0.0
6.226385462543496e6 8.753327999452561e6 0.0
0.0 0.0 0.0

-156304.0457867724 1.2496769926270103e7 0.0
1.2496769926270103e7 -9.25781877156082e6 0.0
0.0 0.0 0.0

-5.734620301706305e6 1.6070866107974842e7 0.0
1.6070866107974842e7 3.7595736117170244e6 0.0
0.0 0.0 0.0

3.9786905687338775e6 7.797549598639795e6 0.0
7.797549598639795e6 -1.761203533327083e7 0.0
0.0 0.0 0.0

-1.034317373397877e7 -1.7959994718331024e6 0.0
-1.7959994718331024e6 1.791589150722706e7 0.0
0.0 0.0 0.0

-3.9174179796832977e6 1.7486425580590982e7 0.0
1.7486425580590982e7 618945.4024194612 0.0
0.0 0.0 0.0

-1.4616407950126843e6 1.3484677608105682e7 0.0
1.3484677608105682e7 1.6394882356522586e6 0.0
0.0 0.0 0.0

-1.223068887270164e6 1.364825196619057e7 0.0
1.364825196619057e7 665958.1493914094 0.0
0.0 0.0 0.0

-3.9212035945874113e6 1.6323756790024823e7 0.0
1.6323756790024823e7 -2.3146375322862845e6 0.0
0.0 0.0 0.0

1.3498003669921898e6 1.2433829896392187e7 0.0
1.2433829896392187e7 5.249387392007095e6 0.0
0.0 0.0 0.0

-2.3410172071754755e6 1.55449959724693e7 0.0
1.55449959724693e7 -2.12270628823666e6 0.0
0.0 0.0 0.0

-1.1973709036040088e7 8.846777963110985e6 0.0
8.846777963110985e6 2.0004328535704e7 0.0
0.0 0.0 0.0

-1.1654833019242542e7 -3.409748637799179e6 0.0
-3.409748637799179e6 2.1386471705881294e7 0.0
0.0 0.0 0.0

2.6835869832974556e6 8.551311800635928e6 0.0
8.551311800635928e6 -1.0635167828455029e7 0.0
0.0 0.0 0.0

4.920596018071765e6 6.161358693402024e6 0.0
6.161358693402024e6 -1.9041750892354805e7 0.0
0.0 0.0 0.0

131215.38814337365 1.2705988414753698e7 0.0
1.2705988414753698e7 -8.44552663978003e6 0.0
0.0 0.0 0.0

1.093975578530728e6 1.3517231800107336e7 0.0
1.3517231800107336e7 4.0185233455840796e6 0.0
0.0 0.0 0.0

3.096150165304526e6 6.56150681852306e6 0.0
6.56150681852306e6 -1.0371428922256177e7 0.0
0.0 0.0 0.0

-2.047404177746777e6 1.2088579409398498e7 0.0
1.2088579409398498e7 -1.421930900796265e7 0.0
0.0 0.0 0.0

1.9363485808794918e6 1.076649015618383e7 0.0
1.076649015618383e7 -2.1433511818403322e7 0.0
0.0 0.0 0.0

-4.681627045266851e6 1.0683906880529653e7 0.0
1.0683906880529653e7 1.7275296067000106e6 0.0
0.0 0.0 0.0

-5.928219653277801e6 1.6373675360948479e7 0.0
1.6373675360948479e7 6.316325974522906e6 0.0
0.0 0.0 0.0

-3.398227906572136e6 1.6124611248766143e7 0.0
1.6124611248766143e7 -1.5792458759019861e6 0.0
0.0 0.0 0.0

-1.1343215353356525e7 -1.5337055290900213e6 0.0
-1.5337055290900213e6 2.9032159619783003e7 0.0
0.0 0.0 0.0

2.123103876731501e6 1.0579256835957276e7 0.0
1.0579256835957276e7 -2.0443093425272167e7 0.0
0.0 0.0 0.0

-1.1992681850813676e7 8.431773280701006e6 0.0
8.431773280701006e6 2.1629811785829026e7 0.0
0.0 0.0 0.0

-1.0494764985066338e6 1.3806418211115414e7 0.0
1.3806418211115414e7 -241481.4879719427 0.0
0.0 0.0 0.0

-4.775206612345377e6 1.835494863828225e7 0.0
1.835494863828225e7 1.345979236214513e6 0.0
0.0 0.0 0.0

-9.733216489098072e6 1.7104258193054434e7 0.0
1.7104258193054434e7 6.272309442585081e6 0.0
0.0 0.0 0.0

-1.1987920111659402e7 8.869436987067783e6 0.0
8.869436987067783e6 1.6978825355335146e7 0.0
0.0 0.0 0.0

-1.7019675596464789e6 1.0087049804197593e7 0.0
1.0087049804197593e7 -9.11449912198169e6 0.0
0.0 0.0 0.0

693305.6391873363 1.264702910363868e7 0.0
1.264702910363868e7 3.4212065016728756e6 0.0
0.0 0.0 0.0

4.429387003182327e6 6.897230463485802e6 0.0
6.897230463485802e6 -1.789083733250389e7 0.0
0.0 0.0 0.0

1.4805723590059467e6 7.330423793511004e6 0.0
7.330423793511004e6 -7.938565206136552e6 0.0
0.0 0.0 0.0

-1.1891016817320248e7 5.906571431308088e6 0.0
5.906571431308088e6 2.1988342416573152e7 0.0
0.0 0.0 0.0

-4.417768669044221e6 1.4402540547249638e7 0.0
1.4402540547249638e7 5.8418719285929e6 0.0
0.0 0.0 0.0

-1.7285696421352178e7 1.442800593045627e7 0.0
1.442800593045627e7 6.189880688164532e6 0.0
0.0 0.0 0.0

1.545746752050504e6 1.109609228443467e7 0.0
1.109609228443467e7 -1.4379794682453899e7 0.0
0.0 0.0 0.0

3.5100103608267438e6 8.571307831174832e6 0.0
8.571307831174832e6 -1.7221860773485057e7 0.0
0.0 0.0 0.0

2.2577777265845407e6 1.047106308329289e7 0.0
1.047106308329289e7 -1.951574396246496e7 0.0
0.0 0.0 0.0

2.6271835835667225e6 5.208219976900879e6 0.0
5.208219976900879e6 -7.521682733885102e6 0.0
0.0 0.0 0.0

-1.243210042467138e6 1.3720459834207287e7 0.0
1.3720459834207287e7 -5.434807980266382e6 0.0
0.0 0.0 0.0

-417602.8524161058 1.4713851794642698e7 0.0
1.4713851794642698e7 -6.381806392841144e6 0.0
0.0 0.0 0.0

-1.6331039645495828e7 2.0049873735565282e7 0.0
2.0049873735565282e7 1.1199359551872816e7 0.0
0.0 0.0 0.0

1.6871137424764484e6 5.2078458718841495e6 0.0
5.2078458718841495e6 -5.371575772474121e6 0.0
0.0 0.0 0.0

775248.7221460459 1.2443557598120023e7 0.0
1.2443557598120023e7 -1.1238954107525479e7 0.0
0.0 0.0 0.0

-1.0498643243780937e7 1.0957739842860727e7 0.0
1.0957739842860727e7 1.4314740783971353e7 0.0
0.0 0.0 0.0

-9.744782492304264e6 -312019.7804911225 0.0
-312019.7804911225 1.4003958262734227e7 0.0
0.0 0.0 0.0

4.666917346616382e6 6.0293237703540865e6 0.0
6.0293237703540865e6 -1.6362481987912772e7 0.0
0.0 0.0 0.0

-1.040564369225007e7 1.1701160643700443e6 0.0
1.1701160643700443e6 1.4616565365893567e7 0.0
0.0 0.0 0.0

-1.0960672342240991e7 496766.2670780381 0.0
496766.2670780381 1.8009046302076325e7 0.0
0.0 0.0 0.0

-4.7779681361151785e6 6.96125720042019e6 0.0
6.96125720042019e6 5.264796664156617e6 0.0
0.0 0.0 0.0

-5.267523429215251e6 1.532243164432142e7 0.0
1.532243164432142e7 6.964265094540389e6 0.0
0.0 0.0 0.0

-1.2184154031594992e6 8.891352665034382e6 0.0
8.891352665034382e6 -1.7157758540424267e6 0.0
0.0 0.0 0.0

1.0558197114399701e7 5.7488445715850415e6 0.0
5.7488445715850415e6 -2.8842895478625665e6 0.0
0.0 0.0 0.0

-2.005349113661265e7 -2.6364545538420533e6 0.0
-2.6364545538420533e6 8.997957422317553e6 0.0
0.0 0.0 0.0

2.6550209953428246e6 7.14344908649454e6 0.0
7.14344908649454e6 -8.428935129724756e6 0.0
0.0 0.0 0.0

4.108801212612573e6 8.252129503127198e6 0.0
8.252129503127198e6 -1.6737639917891061e7 0.0
0.0 0.0 0.0

4.585652115650975e6 7.376642511359998e6 0.0
7.376642511359998e6 -1.697562290640192e7 0.0
0.0 0.0 0.0

977700.9505936218 1.5009674338839531e6 0.0
1.5009674338839531e6 492726.2430742518 0.0
0.0 0.0 0.0

-548826.1066405785 -506405.84707750997 0.0
-506405.84707750997 980586.3376913138 0.0
0.0 0.0 0.0

-716182.5053344304 1.1925867628277427e7 0.0
1.1925867628277427e7 -1.389132940293727e7 0.0
0.0 0.0 0.0

4.812879569625906e6 6.159224781056787e6 0.0
6.159224781056787e6 -1.8090683182705972e7 0.0
0.0 0.0 0.0

-1.1842148578537209e7 1.675748484963524e7 0.0
1.675748484963524e7 174907.529357709 0.0
0.0 0.0 0.0

-7.678476128705313e6 1.3414918599200431e7 0.0
1.3414918599200431e7 9.258621783146545e6 0.0
0.0 0.0 0.0

-3.6834206972413394e6 1.710579948085708e7 0.0
1.710579948085708e7 -192627.26044235588 0.0
0.0 0.0 0.0

986490.8905507732 1.2345955663246932e7 0.0
1.2345955663246932e7 4.453466043824073e6 0.0
0.0 0.0 0.0

3.863710866216699e6 8.870239464365369e6 0.0
8.870239464365369e6 2.198801917850756e6 0.0
0.0 0.0 0.0

-7.785561447957461e6 1.798049024214259e7 0.0
1.798049024214259e7 942164.9090332687 0.0
0.0 0.0 0.0

-1.1625531290264059e7 952584.4966811341 0.0
952584.4966811341 2.469717172016874e7 0.0
0.0 0.0 0.0

-5.492472847068735e6 1.5856655791970262e7 0.0
1.5856655791970262e7 5.940862589217531e6 0.0
0.0 0.0 0.0

-46511.222724637715 1.4685604884991145e7 0.0
1.4685604884991145e7 -6.21445790998013e6 0.0
0.0 0.0 0.0

-9.73359420022689e6 1.1307314315992234e7 0.0
1.1307314315992234e7 1.3674283496980889e7 0.0
0.0 0.0 0.0

-7.866267010448277e6 -1.6516240496296294e6 0.0
-1.6516240496296294e6 1.0787555042892873e7 0.0
0.0 0.0 0.0

-4.7102402718974715e6 1.7597679986627508e7 0.0
1.7597679986627508e7 1.063519939016262e6 0.0
0.0 0.0 0.0

3.471981181429969e6 8.476074266328147e6 0.0
8.476074266328147e6 -1.6303005536092922e7 0.0
0.0 0.0 0.0

-2.6072829731240426e6 1.690175757985347e7 0.0
1.690175757985347e7 -2.4468430652745776e6 0.0
0.0 0.0 0.0

5.0188763393999655e6 6.575918827572003e6 0.0
6.575918827572003e6 -1.7379485680143297e7 0.0
0.0 0.0 0.0

592235.5038873008 1.3339957236415032e7 0.0
1.3339957236415032e7 5.844280252043645e6 0.0
0.0 0.0 0.0

-2.182178343157242e6 1.3976612159122683e7 0.0
1.3976612159122683e7 -4.361117813830989e6 0.0
0.0 0.0 0.0

-4.586684271347117e6 3.289563507097224e6 0.0
3.289563507097224e6 3.580888920736121e6 0.0
0.0 0.0 0.0

-296960.31307977065 9.657854762735441e6 0.0
9.657854762735441e6 -6.317636181582136e6 0.0
0.0 0.0 0.0

5.355234901095894e6 5.7227363653685255e6 0.0
5.7227363653685255e6 -1.7421189855157807e7 0.0
0.0 0.0 0.0

1.6451295607868743e6 1.7380757151028305e7 0.0
1.7380757151028305e7 -5.685936911299175e6 0.0
0.0 0.0 0.0

2.746324556729181e6 6.786521033576871e6 0.0
6.786521033576871e6 -9.833097404314209e6 0.0
0.0 0.0 0.0

-8.675669609375369e6 3.443434251633993e6 0.0
3.443434251633993e6 9.637052535451105e6 0.0
0.0 0.0 0.0

-5.866975131740384e6 1.7751598273908924e7 0.0
1.7751598273908924e7 4.826435869068645e6 0.0
0.0 0.0 0.0

2.202059200604831e6 1.0360217436697677e7 0.0
1.0360217436697677e7 -1.8564837032216035e7 0.0
0.0 0.0 0.0

-2.6534205453102225e6 1.0185162189292416e7 0.0
1.0185162189292416e7 -8.844735275358126e6 0.0
0.0 0.0 0.0

857795.7211963986 1.2144417192624988e7 0.0
1.2144417192624988e7 2.8593191941091497e6 0.0
0.0 0.0 0.0

-1.712140862286694e6 9.09797645204967e6 0.0
9.09797645204967e6 -939469.2257470617 0.0
0.0 0.0 0.0

-5.18311561270071e6 9.76573564130467e6 0.0
9.76573564130467e6 2.7712800171928396e6 0.0
0.0 0.0 0.0

-1.038266218874491e6 1.3829811755888194e7 0.0
1.3829811755888194e7 6.008354338246762e6 0.0
0.0 0.0 0.0

-7.478343901800407e6 -80626.33303464077 0.0
-80626.33303464077 1.0201818328827448e7 0.0
0.0 0.0 0.0

437270.5181179086 1.21045328280653e7 0.0
1.21045328280653e7 1.1834795412062807e6 0.0
0.0 0.0 0.0

-6.686260273387419e6 1.5030568197429422e7 0.0
1.5030568197429422e7 8.00318839867267e6 0.0
0.0 0.0 0.0

2.3485693443763154e6 6.760012582165296e6 0.0
6.760012582165296e6 -9.032489797849936e6 0.0
0.0 0.0 0.0

-1.0830435530146671e7 151887.5012634697 0.0
151887.5012634697 1.3257022722279947e7 0.0
0.0 0.0 0.0

-1.7073951245528148e6 1.5073058381379679e7 0.0
1.5073058381379679e7 -2.283483075438437e6 0.0
0.0 0.0 0.0

-1.0060154911383882e7 1.1481858476005312e7 0.0
1.1481858476005312e7 1.2580825414818365e7 0.0
0.0 0.0 0.0

-2.228995061667373e6 1.3831804193357678e7 0.0
1.3831804193357678e7 5.90936907747652e6 0.0
0.0 0.0 0.0

-1.0876029986548778e7 2.674917699178053e6 0.0
2.674917699178053e6 1.4986348905279487e7 0.0
0.0 0.0 0.0

-978721.0535871629 1.45685408950976e7 0.0
1.45685408950976e7 -6.505791914328525e6 0.0
0.0 0.0 0.0

-6.344915913128572e6 1.7701226368048545e7 0.0
1.7701226368048545e7 6.564454025835784e6 0.0
0.0 0.0 0.0

-1.1839045630453799e7 4.309058438144431e6 0.0
4.309058438144431e6 2.1692967322354663e7 0.0
0.0 0.0 0.0

-5.845688360982714e6 8.091556283269916e6 0.0
8.091556283269916e6 4.346669512885728e6 0.0
0.0 0.0 0.0

-1.1567276794831175e7 -1.9849379453526093e6 0.0
-1.9849379453526093e6 1.9775750992585406e7 0.0
0.0 0.0 0.0

193778.59217123268 1.2208224716353027e7 0.0
1.2208224716353027e7 -9.993523583140327e6 0.0
0.0 0.0 0.0

-5.738805991686864e6 1.6095696484685922e7 0.0
1.6095696484685922e7 6.612961887090957e6 0.0
0.0 0.0 0.0

-954449.4775305598 1.4015607201752003e7 0.0
1.4015607201752003e7 -1.0051872004987008e6 0.0
0.0 0.0 0.0

3.1943381564854425e6 7.436239838416909e6 0.0
7.436239838416909e6 -1.0313938072812188e7 0.0
0.0 0.0 0.0

-8.227803073852953e6 -3.222004361817905e6 0.0
-3.222004361817905e6 1.4549372340976078e7 0.0
0.0 0.0 0.0

-1.0338074428301936e7 1.1134101460490232e7 0.0
1.1134101460490232e7 2.1911335916578054e7 0.0
0.0 0.0 0.0

-1.161182009474509e7 7.217623263911835e6 0.0
7.217623263911835e6 2.342595789519214e7 0.0
0.0 0.0 0.0

-2.4409272643919424e6 1.1584757390986362e7 0.0
1.1584757390986362e7 5.347325301674434e6 0.0
0.0 0.0 0.0

-1.141687377765327e7 1.7080626942764244e6 0.0
1.7080626942764244e6 1.3682460892663948e7 0.0
0.0 0.0 0.0

-4.0825286686455137e6 9.567757813941795e6 0.0
9.567757813941795e6 2.9380930435482757e6 0.0
0.0 0.0 0.0

-1.955318660192179e6 1.3260734215551985e7 0.0
1.3260734215551985e7 -2.687825934525274e6 0.0
0.0 0.0 0.0

244117.868850647 1.1113910624624679e7 0.0
1.1113910624624679e7 -8.1930799547135895e6 0.0
0.0 0.0 0.0

-5.360504712383037e6 1.5014806602821553e7 0.0
1.5014806602821553e7 7.624652043516621e6 0.0
0.0 0.0 0.0

-6.446961876460951e6 1.943131274190373e7 0.0
1.943131274190373e7 6.398114568808371e6 0.0
0.0 0.0 0.0

-1.2667842614510778e7 6.557196522584781e6 0.0
6.557196522584781e6 1.7319437233224466e7 0.0
0.0 0.0 0.0

2.069046203710648e6 1.2414514550420823e7 0.0
1.2414514550420823e7 7.506433328334635e6 0.0
0.0 0.0 0.0

985470.0205427315 1.2453964769229058e7 0.0
1.2453964769229058e7 -7.3409243064443385e6 0.0
0.0 0.0 0.0

3.1285642951452928e6 8.8488269433468e6 0.0
8.8488269433468e6 -1.2855213391575314e7 0.0
0.0 0.0 0.0

5.487594018560083e6 4.8763194176431885e6 0.0
4.8763194176431885e6 -1.8371831150064893e7 0.0
0.0 0.0 0.0

-9.441204057911031e6 -5.190122801561056e6 0.0
-5.190122801561056e6 1.7242203191187166e7 0.0
0.0 0.0 0.0

-5.215328229044932e6 1.497775107743017e7 0.0
1.497775107743017e7 7.15069729893985e6 0.0
0.0 0.0 0.0

-8.072973615009592e6 1.0715422886366157e7 0.0
1.0715422886366157e7 1.3947559100211013e7 0.0
0.0 0.0 0.0

-7.841404759980524e6 1.2531517084145186e7 0.0
1.2531517084145186e7 3.4619255600850195e7 0.0
0.0 0.0 0.0

215308.7620657701 1.0639697340285063e7 0.0
1.0639697340285063e7 -7.631606064298036e6 0.0
0.0 0.0 0.0

1.4709347418028913e6 1.2627702313133227e7 0.0
1.2627702313133227e7 4.903116098273537e6 0.0
0.0 0.0 0.0

-8.713466953971341e6 -1.8230907747626954e6 0.0
-1.8230907747626954e6 1.133719898729359e7 0.0
0.0 0.0 0.0

-1.6122965575718418e7 -2.613644503331047e6 0.0
-2.613644503331047e6 7.24266493686479e6 0.0
0.0 0.0 0.0

3.4655350094348686e6 8.109585836555633e6 0.0
8.109585836555633e6 -1.4986570352132957e7 0.0
0.0 0.0 0.0

-9.572053759240255e6 1.2440136442501307e6 0.0
1.2440136442501307e6 1.0510485081953224e7 0.0
0.0 0.0 0.0

3.272037522172303e6 8.869995842429243e6 0.0
8.869995842429243e6 -1.6512679141606588e7 0.0
0.0 0.0 0.0

-1.114439248994999e7 1.074797121872342e7 0.0
1.074797121872342e7 1.7065456786164626e7 0.0
0.0 0.0 0.0

4.719991595478331e6 5.465498010773148e6 0.0
5.465498010773148e6 -1.2993216363226878e7 0.0
0.0 0.0 0.0

-80207.7519037486 1.801854312707782e7 0.0
1.801854312707782e7 -4.759533477871853e6 0.0
0.0 0.0 0.0

-1.5585685579783604e6 9.9845939192616e6 0.0
9.9845939192616e6 -1.7478980035814685e6 0.0
0.0 0.0 0.0

1.2048515496420593e6 6.022675488287258e6 0.0
6.022675488287258e6 -4.528733089550204e6 0.0
0.0 0.0 0.0

1.4711009572793078e7 5.801114937371176e6 0.0
5.801114937371176e6 -3.4824862327179452e6 0.0
0.0 0.0 0.0

-1.0268737727986671e7 1.1595179171457779e7 0.0
1.1595179171457779e7 1.5662726448215183e7 0.0
0.0 0.0 0.0

-185999.04747848003 8.101413241894304e6 0.0
8.101413241894304e6 -4.865894362035637e6 0.0
0.0 0.0 0.0

-1.1903383965960942e7 -458450.1830352698 0.0
-458450.1830352698 1.859271854313514e7 0.0
0.0 0.0 0.0

1.994745403378971e6 5.610507604962113e6 0.0
5.610507604962113e6 -7.242536806390685e6 0.0
0.0 0.0 0.0

-1.5384034733700985e6 1.4749404558161408e7 0.0
1.4749404558161408e7 -1.9966764775686194e6 0.0
0.0 0.0 0.0

-7.035145689143129e6 1.368299534139528e7 0.0
1.368299534139528e7 9.685786010193095e6 0.0
0.0 0.0 0.0

-7.544976150932732e6 4.0930880801236085e6 0.0
4.0930880801236085e6 1.0569418203000087e7 0.0
0.0 0.0 0.0

3.851104362747958e6 7.423205315441622e6 0.0
7.423205315441622e6 -1.5266088216014627e7 0.0
0.0 0.0 0.0

-832625.6315756207 1.200122760148313e7 0.0
1.200122760148313e7 -1.6355866041297117e7 0.0
0.0 0.0 0.0

-1.8334795701728943e6 5.8435724482660405e6 0.0
5.8435724482660405e6 -878687.9102154949 0.0
0.0 0.0 0.0

4.2700169744443875e6 5.602198618228151e6 0.0
5.602198618228151e6 -1.2249586028166596e7 0.0
0.0 0.0 0.0

-909007.0670411082 1.2421706728712317e7 0.0
1.2421706728712317e7 -6.802880160862478e6 0.0
0.0 0.0 0.0

6.518477138646126e6 1.2817461914793009e7 0.0
1.2817461914793009e7 -1.7569120905347182e6 0.0
0.0 0.0 0.0

5.413699738216496e6 6.133927228086058e6 0.0
6.133927228086058e6 -1.876064401402414e7 0.0
0.0 0.0 0.0

-4.594159462127275e6 -864814.4576514211 0.0
-864814.4576514211 668732.3802421798 0.0
0.0 0.0 0.0

-8.138080271805401e6 1.1938851025797173e7 0.0
1.1938851025797173e7 1.1761750115716303e7 0.0
0.0 0.0 0.0

-566235.0377608766 7.017423901374526e6 0.0
7.017423901374526e6 -2.0241114902327205e6 0.0
0.0 0.0 0.0

-9.440975101936188e6 2.836261176491409e6 0.0
2.836261176491409e6 1.2692481938216534e7 0.0
0.0 0.0 0.0

5.443029894196498e6 6.3869263223677715e6 0.0
6.3869263223677715e6 -2.1109974016871635e7 0.0
0.0 0.0 0.0

2.476891990446803e6 1.2857244423213972e7 0.0
1.2857244423213972e7 8.256306686740639e6 0.0
0.0 0.0 0.0

-625946.8084015273 1.467486152157411e7 0.0
1.467486152157411e7 8.173913023504921e6 0.0
0.0 0.0 0.0

-1.263807910840387e6 1.1647353217884883e7 0.0
1.1647353217884883e7 -1.1964751246205876e7 0.0
0.0 0.0 0.0

82145.5375546678 9.936666234706078e6 0.0
9.936666234706078e6 -6.689058079666356e6 0.0
0.0 0.0 0.0

-6.559635120312534e6 1.4248370573162058e7 0.0
1.4248370573162058e7 9.158537822562259e6 0.0
0.0 0.0 0.0

3.669476645961879e6 1.3006018701388262e7 0.0
1.3006018701388262e7 -3.2720074899139665e6 0.0
0.0 0.0 0.0

3.045351982241519e6 8.7628434447437e6 0.0
8.7628434447437e6 -1.4660877943234757e7 0.0
0.0 0.0 0.0

-4.8769601981627755e6 1.8731661941784434e7 0.0
1.8731661941784434e7 1.448325808619819e6 0.0
0.0 0.0 0.0

-789972.4350962052 9.974085176781638e6 0.0
9.974085176781638e6 861168.1137252691 0.0
0.0 0.0 0.0

-4.028538881503494e7 599233.0613027943 0.0
599233.0613027943 9.810763516948482e6 0.0
0.0 0.0 0.0

2.590585943548985e7 6.016572134051387e6 0.0
6.016572134051387e6 -3.9560295593196023e6 0.0
0.0 0.0 0.0

-352786.14244198473 1.2340108684026029e7 0.0
1.2340108684026029e7 4.254491174890499e6 0.0
0.0 0.0 0.0

-7.301864953179069e6 3.2718914750519614e6 0.0
3.2718914750519614e6 1.9988627768591486e7 0.0
0.0 0.0 0.0

-1.5721248865548086e6 1.3717853990035567e7 0.0
1.3717853990035567e7 5.577333073549778e6 0.0
0.0 0.0 0.0

-3.06918219614159e6 1.6316889719892105e7 0.0
1.6316889719892105e7 -3.3981820447348673e6 0.0
0.0 0.0 0.0

1.571816060120136e6 1.3633474174442967e7 0.0
1.3633474174442967e7 5.2393876696758e6 0.0
0.0 0.0 0.0

-6.673591193372283e6 4.105971677602669e6 0.0
4.105971677602669e6 9.358956220804399e6 0.0
0.0 0.0 0.0

-6.3700461662053885e6 1.3948426677386269e7 0.0
1.3948426677386269e7 6.813405869004701e6 0.0
0.0 0.0 0.0

-2.735035714041521e7 2.092351658659416e7 0.0
2.092351658659416e7 4.1363037486197185e6 0.0
0.0 0.0 0.0

4.527076915444778e6 5.686475097809757e6 0.0
5.686475097809757e6 -1.4233671203070287e7 0.0
0.0 0.0 0.0

-952582.463422667 1.42434520337675e7 0.0
1.42434520337675e7 -1.6124166197915787e6 0.0
0.0 0.0 0.0

2.319677502029947e6 1.2355739124933217e7 0.0
1.2355739124933217e7 9.149853798117291e6 0.0
0.0 0.0 0.0

-3.285975478232703e6 1.0971552337440424e7 0.0
1.0971552337440424e7 -1.0953251676740857e7 0.0
0.0 0.0 0.0

1.2646833400096027e6 1.246987995146412e7 0.0
1.246987995146412e7 4.215611342608845e6 0.0
0.0 0.0 0.0

2.308824520901881e6 1.043715152857427e7 0.0
1.043715152857427e7 -1.788271335193967e7 0.0
0.0 0.0 0.0

-9.120552934138585e6 -628345.2896374072 0.0
-628345.2896374072 1.2767831918138156e7 0.0
0.0 0.0 0.0

-1.1262360996468121e7 1.771363910901624e7 0.0
1.771363910901624e7 8.794293400346186e6 0.0
0.0 0.0 0.0

2.7209366176376077e6 7.105845456747252e6 0.0
7.105845456747252e6 -1.0074740138005778e7 0.0
0.0 0.0 0.0

-1.0097152154241327e7 1.1862747353612393e7 0.0
1.1862747353612393e7 1.4794016198140386e7 0.0
0.0 0.0 0.0

-6.772360066363143e6 3.293992796869787e6 0.0
3.293992796869787e6 6.706861678372247e6 0.0
0.0 0.0 0.0

-6.457984053385019e6 1.913222304984665e7 0.0
1.913222304984665e7 6.496761913578805e6 0.0
0.0 0.0 0.0

-1.1631783058986831e7 2.0180646697845098e7 0.0
2.0180646697845098e7 9.042408446513694e6 0.0
0.0 0.0 0.0

-2.450824626610903e6 -2.143876267545927e6 0.0
-2.143876267545927e6 2.889525847550379e6 0.0
0.0 0.0 0.0

-1.0214016270270913e6 1.0302008289531877e7 0.0
1.0302008289531877e7 -7.452256596354146e6 0.0
0.0 0.0 0.0

-2.449262118436371e6 1.5863890412314968e7 0.0
1.5863890412314968e7 -3.2634178648137776e6 0.0
0.0 0.0 0.0

-1.8348425854527592e6 4.668472118431428e6 0.0
4.668472118431428e6 -305688.163660852 0.0
0.0 0.0 0.0

-1.3909812804985638e6 1.8308740155629728e7 0.0
1.8308740155629728e7 -3.9176460926535004e6 0.0
0.0 0.0 0.0

-7.717371309222495e6 3.4284978207778875e6 0.0
3.4284978207778875e6 8.357128946820996e6 0.0
0.0 0.0 0.0

4.750367978676666e6 5.7352513686608635e6 0.0
5.7352513686608635e6 -1.608120687582868e7 0.0
0.0 0.0 0.0

4.395065430565876e6 6.176218543927143e6 0.0
6.176218543927143e6 -1.4832097688314104e7 0.0
0.0 0.0 0.0

900856.8802022412 9.83656605324939e6 0.0
9.83656605324939e6 -8.514982136338094e6 0.0
0.0 0.0 0.0

-1.190914235741494e6 1.4529465972396523e7 0.0
1.4529465972396523e7 -6.545078727094007e6 0.0
0.0 0.0 0.0

5.625104354275031e6 6.055447921131979e6 0.0
6.055447921131979e6 -2.1971065519921653e7 0.0
0.0 0.0 0.0

-4.149132657443741e6 1.576148630020325e7 0.0
1.576148630020325e7 -2.2394802953634467e6 0.0
0.0 0.0 0.0

1.215313042450123e6 1.1137382991975779e7 0.0
1.1137382991975779e7 -1.1946863971814409e7 0.0
0.0 0.0 0.0

-1.1202359369983137e7 1.0192138928788958e7 0.0
1.0192138928788958e7 1.352580334429662e7 0.0
0.0 0.0 0.0

-2.670260439196256e6 1.5834414842024608e7 0.0
1.5834414842024608e7 -1.7845959335227339e6 0.0
0.0 0.0 0.0

3.6390813076805724e6 8.522569464491978e6 0.0
8.522569464491978e6 -1.4284832420718882e7 0.0
0.0 0.0 0.0

-2.129984198034764e7 1.1370594432945937e7 0.0
1.1370594432945937e7 1.073467079376183e7 0.0
0.0 0.0 0.0

4.95106957007084e6 5.360465552364481e6 0.0
5.360465552364481e6 -1.6573362784752112e7 0.0
0.0 0.0 0.0

4.806470933084867e6 6.169158492108439e6 0.0
6.169158492108439e6 -1.4707904470925387e7 0.0
0.0 0.0 0.0

-642951.5755627828 1.341533032449645e7 0.0
1.341533032449645e7 -7.378904381293933e6 0.0
0.0 0.0 0.0

-1.104947605135141e7 -2.161290884639499e6 0.0
-2.161290884639499e6 4.1338136986729177e6 0.0
0.0 0.0 0.0

1.3889659462775197e6 8.152433548065489e6 0.0
8.152433548065489e6 -6.591325286929715e6 0.0
0.0 0.0 0.0

-6.770366336973439e6 1.1649419070163924e7 0.0
1.1649419070163924e7 1.6376173209995156e7 0.0
0.0 0.0 0.0

-5.898590065099391e6 1.850366392714948e7 0.0
1.850366392714948e7 6.025578537082057e6 0.0
0.0 0.0 0.0

-7.015578522119567e6 1.933578002840171e7 0.0
1.933578002840171e7 6.911184104350556e6 0.0
0.0 0.0 0.0

-8.012832454081213e6 4.565221403760154e6 0.0
4.565221403760154e6 8.659921648089182e6 0.0
0.0 0.0 0.0

-1.0027317705200896e7 9.19132548552956e6 0.0
9.19132548552956e6 3.37437487559966e7 0.0
0.0 0.0 0.0

-5.561552792319482e6 1.8601796205987126e7 0.0
1.8601796205987126e7 5.325506652376225e6 0.0
0.0 0.0 0.0

-1.5774146494441635e6 1.4266284222573185e7 0.0
1.4266284222573185e7 -889928.2119286183 0.0
0.0 0.0 0.0

1.0479515371601074e6 1.1724232616947738e7 0.0
1.1724232616947738e7 -5.2452145808128575e6 0.0
0.0 0.0 0.0

1.0158803177607661e7 1.3636097830950135e7 0.0
1.3636097830950135e7 4.598045414098862e6 0.0
0.0 0.0 0.0

-7.00644604197157e6 5.218220553839023e6 0.0
5.218220553839023e6 9.63706355446434e6 0.0
0.0 0.0 0.0

5.231209244997642e6 5.423342078213104e6 0.0
5.423342078213104e6 -1.5616215598097576e7 0.0
0.0 0.0 0.0

-621362.277281916 1.2788966713144185e7 0.0
1.2788966713144185e7 -6.220493257167448e6 0.0
0.0 0.0 0.0

-2.479686274006978e6 1.0429274809367936e7 0.0
1.0429274809367936e7 -170122.32835613168 0.0
0.0 0.0 0.0

-1.1606451482943445e7 8.455269178112319e6 0.0
8.455269178112319e6 7.050526904722017e6 0.0
0.0 0.0 0.0

-9.366628835632816e6 -2.60839386885563e6 0.0
-2.60839386885563e6 1.712269163668544e7 0.0
0.0 0.0 0.0

-4.149592511390223e7 2.8412129838866647e7 0.0
2.8412129838866647e7 -1.6807276482314933e6 0.0
0.0 0.0 0.0

-4.150881217478885e6 1.2115101988945292e7 0.0
1.2115101988945292e7 -1.383627086975246e7 0.0
0.0 0.0 0.0

2.0631426157873229e6 1.277242881764149e7 0.0
1.277242881764149e7 6.877142471866597e6 0.0
0.0 0.0 0.0

1.7957742968188385e6 1.0594989616908906e7 0.0
1.0594989616908906e7 -1.3370807528391857e7 0.0
0.0 0.0 0.0

-9.478428495227959e6 1.5691886563848143e7 0.0
1.5691886563848143e7 6.08530031077356e6 0.0
0.0 0.0 0.0

2.919119182974042e6 7.458005099970843e6 0.0
7.458005099970843e6 -9.496868223754035e6 0.0
0.0 0.0 0.0

4.028540725063055e6 7.838357811241468e6 0.0
7.838357811241468e6 -1.4562071566777026e7 0.0
0.0 0.0 0.0

-7.372161707028428e6 1.3143283396612782e7 0.0
1.3143283396612782e7 1.0332450203038108e7 0.0
0.0 0.0 0.0

2.75576193578465e6 9.07782116070767e6 0.0
9.07782116070767e6 -1.4036288581569154e7 0.0
0.0 0.0 0.0

-6.110535318860054e6 1.884355720730576e7 0.0
1.884355720730576e7 6.260913515253396e6 0.0
0.0 0.0 0.0

-1.2200254797657244e7 1.2703532980839277e6 0.0
1.2703532980839277e6 1.6575548739977542e7 0.0
0.0 0.0 0.0

-7.51705947122426e6 -596926.6919284652 0.0
-596926.6919284652 1.0567467928029694e7 0.0
0.0 0.0 0.0

3.964707613854929e6 7.092318178509957e6 0.0
7.092318178509957e6 -1.4944875187204935e7 0.0
0.0 0.0 0.0

-3.8022429248302313e6 1.577504814738504e7 0.0
1.577504814738504e7 -1.8156761750779687e6 0.0
0.0 0.0 0.0

-4.425818747444449e6 2.0383693911917195e7 0.0
2.0383693911917195e7 -295257.60272369743 0.0
0.0 0.0 0.0

-8.942674839609792e6 1.0935199117970753e7 0.0
1.0935199117970753e7 1.2631538760198954e7 0.0
0.0 0.0 0.0

4.452323243461172e6 6.386272009255416e6 0.0
6.386272009255416e6 -1.5939181450729294e7 0.0
0.0 0.0 0.0

5.296064770156377e6 6.318523250623067e6 0.0
6.318523250623067e6 -1.984185336061845e7 0.0
0.0 0.0 0.0

-1.2250882628612978e7 7.728653861133087e6 0.0
7.728653861133087e6 2.6013422207061183e7 0.0
0.0 0.0 0.0

-1.1497790350000575e7 1.7185981081184999e6 0.0
1.7185981081184999e6 1.7313287619235575e7 0.0
0.0 0.0 0.0

-2.266976498927749e6 1.8278015826534905e7 0.0
1.8278015826534905e7 -3.1864539552099924e6 0.0
0.0 0.0 0.0

-3.3066732481246274e6 1.4620329838015918e7 0.0
1.4620329838015918e7 -129067.06129161804 0.0
0.0 0.0 0.0

-1.1139589940421373e7 -90321.8713544886 0.0
-90321.8713544886 1.9902690832548726e7 0.0
0.0 0.0 0.0

3.513993633050718e6 5.709201954375541e6 0.0
5.709201954375541e6 -1.0533926070455015e7 0.0
0.0 0.0 0.0

-4.832596936050604e6 1.4531992570940154e7 0.0
1.4531992570940154e7 1.4262769363097926e6 0.0
0.0 0.0 0.0

-6.558673464894831e6 1.5337850124520388e7 0.0
1.5337850124520388e7 -1.3515624467373202e6 0.0
0.0 0.0 0.0

-5.234238197085172e6 7.0292194449751545e6 0.0
7.0292194449751545e6 3.7616004594368846e6 0.0
0.0 0.0 0.0

4.923620834289082e6 6.085224700512828e6 0.0
6.085224700512828e6 -1.5484403370925747e7 0.0
0.0 0.0 0.0

2.500450862393437e6 9.039710559536304e6 0.0
9.039710559536304e6 -1.3112061270727433e7 0.0
0.0 0.0 0.0

-5.031110003826654e6 2.0746176732523018e6 0.0
2.0746176732523018e6 4.361182104604769e6 0.0
0.0 0.0 0.0

-1.069920707517041e7 3.6565425553358463e6 0.0
3.6565425553358463e6 1.4515678663617758e7 0.0
0.0 0.0 0.0

2.2325178994537564e6 1.049501262115978e7 0.0
1.049501262115978e7 -1.7000588806714576e7 0.0
0.0 0.0 0.0

4.854646829941468e6 5.91506396404363e6 0.0
5.91506396404363e6 -1.4439608491357254e7 0.0
0.0 0.0 0.0

-3.5894676293716393e6 1.446123460360634e7 0.0
1.446123460360634e7 -1.0276333372788974e6 0.0
0.0 0.0 0.0

4.415961931806808e6 7.136576080382917e6 0.0
7.136576080382917e6 -1.4816033379090356e7 0.0
0.0 0.0 0.0

-4.0746666597276907e6 2.8589272688830188e6 0.0
2.8589272688830188e6 5.484357530008525e6 0.0
0.0 0.0 0.0

-5.402670569246555e6 1.3684522340005476e7 0.0
1.3684522340005476e7 -1.800890321198789e7 0.0
0.0 0.0 0.0

4.0429658312563593e6 1.3365567142852403e7 0.0
1.3365567142852403e7 1.3476554789001754e7 0.0
0.0 0.0 0.0

721300.4489759806 1.1493708522039823e7 0.0
1.1493708522039823e7 -1.4873965571911575e6 0.0
0.0 0.0 0.0

-1.4276665328645729e7 -3.202774226584512e6 0.0
-3.202774226584512e6 8.137813953919062e6 0.0
0.0 0.0 0.0

-3.355659547814921e6 1.7195431742616314e6 0.0
1.7195431742616314e6 4.8258952700238535e6 0.0
0.0 0.0 0.0

2.172008905715089e6 1.4185767188357105e7 0.0
1.4185767188357105e7 7.240027269701773e6 0.0
0.0 0.0 0.0

-1.3691467548470842e6 1.1127695171698816e7 0.0
1.1127695171698816e7 -4.56382199076703e6 0.0
0.0 0.0 0.0

-9.558097374145165e6 9.649641345194561e6 0.0
9.649641345194561e6 3.761181785985208e7 0.0
0.0 0.0 0.0

4.217785523847332e6 6.753001059621909e6 0.0
6.753001059621909e6 -1.5464125005442547e7 0.0
0.0 0.0 0.0

-2.722368512890066e6 1.5571111538545541e7 0.0
1.5571111538545541e7 -4.281959311848551e6 0.0
0.0 0.0 0.0

-1.7864349709574138e6 1.2200299557260474e7 0.0
1.2200299557260474e7 -1.5400033564253984e7 0.0
0.0 0.0 0.0

-6.01548617676675e6 1.7897846798091874e7 0.0
1.7897846798091874e7 5.432955146599247e6 0.0
0.0 0.0 0.0

-4.250902574085234e6 1.4746381435542516e7 0.0
1.4746381435542516e7 4.2106299178108685e6 0.0
0.0 0.0 0.0

-4.5505204941427335e6 1.7599082966153998e7 0.0
1.7599082966153998e7 456075.49147548666 0.0
0.0 0.0 0.0

-3.796347739921028e6 1.3419281049044445e7 0.0
1.3419281049044445e7 -1.843202898801671e7 0.0
0.0 0.0 0.0

-2.907523272265021e6 1.8134191819249563e7 0.0
1.8134191819249563e7 -2.5889862507178285e6 0.0
0.0 0.0 0.0

-1.1667780904672088e7 1.047831990751527e7 0.0
1.047831990751527e7 1.5403201098965723e7 0.0
0.0 0.0 0.0

2.3628270314802886e6 7.664355398253202e6 0.0
7.664355398253202e6 -9.820373204884375e6 0.0
0.0 0.0 0.0

4.299828627401917e6 6.449662184694215e6 0.0
6.449662184694215e6 -1.51439512022462e7 0.0
0.0 0.0 0.0

-1.9921529052147665e6 1.505591737809963e7 0.0
1.505591737809963e7 -5.562495014649713e6 0.0
0.0 0.0 0.0

-1.6786512242579097e6 1.0850421917773971e7 0.0
1.0850421917773971e7 -3.658867712275877e6 0.0
0.0 0.0 0.0

3.7627850991422385e6 8.077204191435392e6 0.0
8.077204191435392e6 -1.6938931377452515e7 0.0
0.0 0.0 0.0

-5.928310461151604e6 1.7239356050768334e7 0.0
1.7239356050768334e7 5.564702541593285e6 0.0
0.0 0.0 0.0

-2.655134028008685e6 1.1796670600645341e7 0.0
1.1796670600645341e7 -544701.0844847882 0.0
0.0 0.0 0.0

481012.6592791523 1.1023003736588057e7 0.0
1.1023003736588057e7 -7.053476988730666e6 0.0
0.0 0.0 0.0

3.2301723211494563e6 9.533611788575066e6 0.0
9.533611788575066e6 -1.6409807517707948e7 0.0
0.0 0.0 0.0

-3.5918003545912197e6 1.7562938915277503e7 0.0
1.7562938915277503e7 -1.8961160564010087e6 0.0
0.0 0.0 0.0

-238039.01429966465 1.2083526250027735e7 0.0
1.2083526250027735e7 -6.338779644065066e6 0.0
0.0 0.0 0.0

-86981.24644470937 9.360133309031837e6 0.0
9.360133309031837e6 -4.657789832014407e6 0.0
0.0 0.0 0.0

1.1768342321931507e7 5.822837659886312e6 0.0
5.822837659886312e6 -3.111836975124396e6 0.0
0.0 0.0 0.0

-4.907640064575726e6 1.227626119816209e7 0.0
1.227626119816209e7 3.887213421754999e6 0.0
0.0 0.0 0.0

-4.1044545182868047e6 6.9314378947175e6 0.0
6.9314378947175e6 3.7014309169289465e6 0.0
0.0 0.0 0.0

-9.090094238041282e6 -1.5690941966803798e6 0.0
-1.5690941966803798e6 1.403655187545074e7 0.0
0.0 0.0 0.0

4.940880624771426e6 5.459864352601838e6 0.0
5.459864352601838e6 -1.386994742126124e7 0.0
0.0 0.0 0.0

3.737004680085011e6 6.539978570125557e6 0.0
6.539978570125557e6 -1.1130108791740946e7 0.0
0.0 0.0 0.0

4.678808328374236e6 6.018699613386183e6 0.0
6.018699613386183e6 -1.3659481322739344e7 0.0
0.0 0.0 0.0

-750556.7786210794 1.173931518478027e7 0.0
1.173931518478027e7 -1.1766807778564984e7 0.0
0.0 0.0 0.0

-3.3112584800348952e6 1.7872039768360052e7 0.0
1.7872039768360052e7 -2.170135859630129e6 0.0
0.0 0.0 0.0

-1.1611379422342837e7 1.06032680071732e7 0.0
1.06032680071732e7 1.4473424231866786e7 0.0
0.0 0.0 0.0

-5.819853545426892e6 1.251355699414407e7 0.0
1.251355699414407e7 3.5517039127049185e6 0.0
0.0 0.0 0.0

4.253357954101407e6 6.284201727960888e6 0.0
6.284201727960888e6 -1.4090892635934394e7 0.0
0.0 0.0 0.0

-5.907023011843035e6 3.063291671036112e6 0.0
3.063291671036112e6 5.336384522722745e6 0.0
0.0 0.0 0.0

-1.0855123120256096e7 1.0956015323997412e7 0.0
1.0956015323997412e7 1.3120286431018833e7 0.0
0.0 0.0 0.0

-230416.72283161944 1.3297279181077166e7 0.0
1.3297279181077166e7 -8.236319116999354e6 0.0
0.0 0.0 0.0

1.3291656658531644e6 1.2514632731410095e7 0.0
1.2514632731410095e7 -5.883903559071395e6 0.0
0.0 0.0 0.0

-5.840423388924224e6 1.7876566740407277e7 0.0
1.7876566740407277e7 6.0491138262054585e6 0.0
0.0 0.0 0.0

1.7767910606122245e6 1.1006184404583987e7 0.0
1.1006184404583987e7 -1.1767283551477194e7 0.0
0.0 0.0 0.0

4.565326609560522e6 6.53402075334984e6 0.0
6.53402075334984e6 -1.4245591888996288e7 0.0
0.0 0.0 0.0

4.1889184084702274e6 6.5228725980075635e6 0.0
6.5228725980075635e6 -1.4369623524444032e7 0.0
0.0 0.0 0.0

1.947936140591186e6 7.036472058045626e6 0.0
7.036472058045626e6 -8.465173774631454e6 0.0
0.0 0.0 0.0

4.074438309126038e6 6.793433065996855e6 0.0
6.793433065996855e6 -1.4659627927844852e7 0.0
0.0 0.0 0.0

4.37177246194362e6 6.256404260889344e6 0.0
6.256404260889344e6 -1.2468950617838299e7 0.0
0.0 0.0 0.0

-8.828107662800439e6 2.012155353853994e7 0.0
2.012155353853994e7 8.053823318618145e6 0.0
0.0 0.0 0.0

-2.7442876275357166e6 1.9052950480192654e7 0.0
1.9052950480192654e7 -2.6905278759556417e6 0.0
0.0 0.0 0.0

-4.879181090318225e6 1.5285503471654555e7 0.0
1.5285503471654555e7 4.923864581556763e6 0.0
0.0 0.0 0.0

3.8183795984732173e6 6.472089141284486e6 0.0
6.472089141284486e6 -1.2808029140515873e7 0.0
0.0 0.0 0.0

-2.3367426189094265e6 1.291136322382955e7 0.0
1.291136322382955e7 -3.2425471818212094e6 0.0
0.0 0.0 0.0

-549941.1125269897 9.282409951775502e6 0.0
9.282409951775502e6 -1.6857034960592594e6 0.0
0.0 0.0 0.0

-6.93522964824067e6 1.5310980293047588e7 0.0
1.5310980293047588e7 -2.3117439603028733e7 0.0
0.0 0.0 0.0

7.966665250399573e6 1.6272364789871521e7 0.0
1.6272364789871521e7 2.655556763718758e7 0.0
0.0 0.0 0.0

4.0649513200811204e6 1.3408402723506095e7 0.0
1.3408402723506095e7 -3.6359284779126653e6 0.0
0.0 0.0 0.0

6.138212925657326e6 1.3669719450621314e7 0.0
1.3669719450621314e7 -6.1870854037026055e6 0.0
0.0 0.0 0.0

4.852632050109511e6 6.9751663099119235e6 0.0
6.9751663099119235e6 -2.4292607810899343e7 0.0
0.0 0.0 0.0

463314.58427379 1.2411204652764184e7 0.0
1.2411204652764184e7 -9.159951161091246e6 0.0
0.0 0.0 0.0

-1.8955347008354825e6 1.3722508061084721e7 0.0
1.3722508061084721e7 4.9439782793885525e6 0.0
0.0 0.0 0.0

-1.2213924221159555e7 889728.852881939 0.0
889728.852881939 1.7863880069057804e7 0.0
0.0 0.0 0.0

-1.1053374882345963e7 1.0408886593056928e7 0.0
1.0408886593056928e7 1.8181810426962335e7 0.0
0.0 0.0 0.0

-2.397557550428302e6 1.4312749752224145e7 0.0
1.4312749752224145e7 3.02581828149286e6 0.0
0.0 0.0 0.0

-986160.2335096095 1.068000412634012e7 0.0
1.068000412634012e7 -3.410353916968608e6 0.0
0.0 0.0 0.0

-6.97389865669909e6 1.829571008596554e7 0.0
1.829571008596554e7 -483896.8182766186 0.0
0.0 0.0 0.0

-6.4643933042129185e6 1.4742543209431976e7 0.0
1.4742543209431976e7 8.688884854762174e6 0.0
0.0 0.0 0.0

-5.57508252651484e6 8.920071313048683e6 0.0
8.920071313048683e6 4.0130891825912367e6 0.0
0.0 0.0 0.0

-5.683823250062997e6 1.4556786799953451e7 0.0
1.4556786799953451e7 4.134582797988627e6 0.0
0.0 0.0 0.0

5.111845298864795e6 6.599667426313429e6 0.0
6.599667426313429e6 -1.820354168263258e7 0.0
0.0 0.0 0.0

3.5574114531160267e6 6.927281877172299e6 0.0
6.927281877172299e6 -1.0631096960999483e7 0.0
0.0 0.0 0.0

-1.1817935716264858e6 1.3528754854855135e7 0.0
1.3528754854855135e7 -6.917411614849958e6 0.0
0.0 0.0 0.0

2.206141366800906e6 9.388162149907447e6 0.0
9.388162149907447e6 -1.2525657759299189e7 0.0
0.0 0.0 0.0

-1.1717782361328231e7 3.4096468241679687e6 0.0
3.4096468241679687e6 2.304724228544311e7 0.0
0.0 0.0 0.0

-1.2982338705631823e6 4.411104939183583e6 0.0
4.411104939183583e6 -889309.3060964433 0.0
0.0 0.0 0.0

-1.1400075530338518e7 3.1272040020550364e6 0.0
3.1272040020550364e6 3.087833317631597e7 0.0
0.0 0.0 0.0

-1.2553030097656138e6 1.2904272408902572e7 0.0
1.2904272408902572e7 -6.3820669883298315e6 0.0
0.0 0.0 0.0

-5.187019115495289e6 1.5678053450179117e7 0.0
1.5678053450179117e7 6.069356971075414e6 0.0
0.0 0.0 0.0

-5.400173856389988e6 8.074109998463071e6 0.0
8.074109998463071e6 5.848011910288855e6 0.0
0.0 0.0 0.0

-2.901742855466376e6 1.6593462750068642e7 0.0
1.6593462750068642e7 -3.423155460456695e6 0.0
0.0 0.0 0.0

-4.061709230962646e6 6.107318861786287e6 0.0
6.107318861786287e6 2.609217715978488e6 0.0
0.0 0.0 0.0

-7.061093032827268e6 1.4101120518334365e7 0.0
1.4101120518334365e7 8.92868506975001e6 0.0
0.0 0.0 0.0

6.881921791706829e6 1.636180948818334e7 0.0
1.636180948818334e7 -1.0737014112505727e7 0.0
0.0 0.0 0.0

-9.3184711446155e6 1.1653357285315739e7 0.0
1.1653357285315739e7 1.129574225885077e7 0.0
0.0 0.0 0.0

-400322.0243377489 4.738968474462076e6 0.0
4.738968474462076e6 -1.013556519863513e6 0.0
0.0 0.0 0.0

-2.0027934860509105e7 -2.7288513234953247e6 0.0
-2.7288513234953247e6 9.161086999278227e6 0.0
0.0 0.0 0.0

4.68518146075762e6 5.667669855151781e6 0.0
5.667669855151781e6 -1.4863500801284555e7 0.0
0.0 0.0 0.0

-7.510878264397144e6 1.8557970015018605e7 0.0
1.8557970015018605e7 7.274015100715587e6 0.0
0.0 0.0 0.0

-3.896484709531316e6 3.248319451581206e6 0.0
3.248319451581206e6 2.2815389245205107e6 0.0
0.0 0.0 0.0

-2.0391249144081313e6 9.107224527423015e6 0.0
9.107224527423015e6 -2.0326373368314498e6 0.0
0.0 0.0 0.0

-9.69467551082388e6 -1.140040314767118e6 0.0
-1.140040314767118e6 1.3251193883135766e7 0.0
0.0 0.0 0.0

-149938.534394457 1.3309641411700873e7 0.0
1.3309641411700873e7 -8.78888488786643e6 0.0
0.0 0.0 0.0

-9.199651436063837e6 -2.493400846866263e6 0.0
-2.493400846866263e6 1.3130335089461884e7 0.0
0.0 0.0 0.0

242258.71687036753 1.1256714120403389e7 0.0
1.1256714120403389e7 -8.667499912459314e6 0.0
0.0 0.0 0.0

-1.118862310385158e7 1.114885391722668e7 0.0
1.114885391722668e7 1.3847272893721525e7 0.0
0.0 0.0 0.0

-5.8131874409998e6 7.306540054719387e6 0.0
7.306540054719387e6 4.72906071242453e6 0.0
0.0 0.0 0.0

-1.0434872063688252e7 1.1336250960978638e7 0.0
1.1336250960978638e7 1.6797002378386326e7 0.0
0.0 0.0 0.0

-8.317802685771471e6 9.015990165508784e6 0.0
9.015990165508784e6 9.576806974925928e6 0.0
0.0 0.0 0.0

-4.9816678833481e6 1.5034306155303206e7 0.0
1.5034306155303206e7 1.7998025437053577e6 0.0
0.0 0.0 0.0

4.843204489571567e6 6.995661987400484e6 0.0
6.995661987400484e6 -1.7658676645799007e7 0.0
0.0 0.0 0.0

-1.0015607065257201e7 1.2088676151797721e7 0.0
1.2088676151797721e7 1.4174508215472791e7 0.0
0.0 0.0 0.0

4.0424899948467594e6 1.2799264925456692e7 0.0
1.2799264925456692e7 767044.551639041 0.0
0.0 0.0 0.0

-1.3831067669786632e7 2.7123051262364434e6 0.0
2.7123051262364434e6 1.0018607623742077e7 0.0
0.0 0.0 0.0

3.560574441567745e6 9.067386502631905e6 0.0
9.067386502631905e6 -1.6265201321418516e7 0.0
0.0 0.0 0.0

-5.185081043859699e6 8.802816242400121e6 0.0
8.802816242400121e6 5.317016973439014e6 0.0
0.0 0.0 0.0

2.6257714786743317e6 7.7282966934526395e6 0.0
7.7282966934526395e6 -8.951045740760941e6 0.0
0.0 0.0 0.0

-2.618519569103553e6 3.180555056335492e6 0.0
3.180555056335492e6 2.1939359685521265e6 0.0
0.0 0.0 0.0

-7.928226338111557e6 -725581.5531712355 0.0
-725581.5531712355 9.230240227547437e6 0.0
0.0 0.0 0.0

1.2611873235947243e6 1.032547273159517e7 0.0
1.032547273159517e7 -1.054748500499555e7 0.0
0.0 0.0 0.0

-5.696735442419289e6 4.060985804166704e6 0.0
4.060985804166704e6 7.836004496925477e6 0.0
0.0 0.0 0.0

-5.36774354207554e6 1.5900510080117147e7 0.0
1.5900510080117147e7 5.710530173585744e6 0.0
0.0 0.0 0.0

-4.005158543182027e6 1.2062915406489743e7 0.0
1.2062915406489743e7 7.341813901689583e6 0.0
0.0 0.0 0.0

421083.1208892474 6.49276255904746e6 0.0
6.49276255904746e6 -3.348220022385227e6 0.0
0.0 0.0 0.0

-986787.2498876494 1.3251805132443001e7 0.0
1.3251805132443001e7 -5.832336003235708e6 0.0
0.0 0.0 0.0

3.2602082709813453e6 7.028428944255451e6 0.0
7.028428944255451e6 -1.1749188639257994e7 0.0
0.0 0.0 0.0

-4.226754660929861e6 1.722096581506896e7 0.0
1.722096581506896e7 -336526.58907063573 0.0
0.0 0.0 0.0

724221.118689267 1.227387031626317e7 0.0
1.227387031626317e7 -2.6237008811935216e7 0.0
0.0 0.0 0.0

3.1086171090165763e6 5.871076683359022e6 0.0
5.871076683359022e6 -9.838545049980192e6 0.0
0.0 0.0 0.0

3.949326024425788e6 6.198678601858194e6 0.0
6.198678601858194e6 -1.2584087464001538e7 0.0
0.0 0.0 0.0

-337745.7981817289 1.180665965016595e7 0.0
1.180665965016595e7 -1.1272910288675545e7 0.0
0.0 0.0 0.0

-43142.2570617795 6.776704114945706e6 0.0
6.776704114945706e6 -2.701475630778033e6 0.0
0.0 0.0 0.0

-4.506379202057525e6 1.4026626354873521e7 0.0
1.4026626354873521e7 -2.1003411987908326e7 0.0
0.0 0.0 0.0

1.75381523923516e6 6.823360178502093e6 0.0
6.823360178502093e6 -6.65635362735882e6 0.0
0.0 0.0 0.0

2.97042140432483e6 7.15250280675295e6 0.0
7.15250280675295e6 -9.248522910045698e6 0.0
0.0 0.0 0.0

-490572.39587253897 1.3351138578622056e7 0.0
1.3351138578622056e7 -1.9803101241661804e6 0.0
0.0 0.0 0.0

-1.2458205675355967e7 7.33291138340089e6 0.0
7.33291138340089e6 1.906589599713189e7 0.0
0.0 0.0 0.0

-5.6478836039601015e6 1.8148996973101046e7 0.0
1.8148996973101046e7 4.341390161520515e6 0.0
0.0 0.0 0.0

-8.704331947220568e6 1.9291523732312266e6 0.0
1.9291523732312266e6 5.681063908207053e6 0.0
0.0 0.0 0.0

1.9144118675826197e6 9.658285483697308e6 0.0
9.658285483697308e6 -1.1848465151470194e7 0.0
0.0 0.0 0.0

-1.6988797394720917e6 1.4012397680052029e7 0.0
1.4012397680052029e7 6.417598025427232e6 0.0
0.0 0.0 0.0

-4.0014190533865876e6 1.6866037422501925e7 0.0
1.6866037422501925e7 -1.1461476239973311e6 0.0
0.0 0.0 0.0

-386842.9907824418 9.98911989466909e6 0.0
9.98911989466909e6 -5.687013785865863e6 0.0
0.0 0.0 0.0

-3.4144256037463914e6 1.6765410541997815e7 0.0
1.6765410541997815e7 -2.620335807643988e6 0.0
0.0 0.0 0.0

437849.639008631 1.0322125104410714e7 0.0
1.0322125104410714e7 -6.090436956796253e6 0.0
0.0 0.0 0.0

-4.640934195766427e6 1.4565168024704496e6 0.0
1.4565168024704496e6 4.383279328215828e6 0.0
0.0 0.0 0.0

-1.2561464898309307e6 1.3083006421320895e7 0.0
1.3083006421320895e7 -6.689904313893232e6 0.0
0.0 0.0 0.0

-2.6172397849165197e6 2.476865189234966e7 0.0
2.476865189234966e7 -5.83452302624717e6 0.0
0.0 0.0 0.0

690145.5766267318 1.4985786756030094e7 0.0
1.4985786756030094e7 -5.250067568749394e6 0.0
0.0 0.0 0.0

97442.76415738557 1.287797083981507e7 0.0
1.287797083981507e7 -8.709541683071015e6 0.0
0.0 0.0 0.0

-3.320677925611094e6 9.751080725997485e6 0.0
9.751080725997485e6 1.594550454257176e6 0.0
0.0 0.0 0.0

-3.390427157407024e6 1.1964711381025625e7 0.0
1.1964711381025625e7 -784721.3176193221 0.0
0.0 0.0 0.0

5.003855075557342e6 5.239007050274925e6 0.0
5.239007050274925e6 -1.4357195004215527e7 0.0
0.0 0.0 0.0

2.9848652620418877e6 5.042530774343387e6 0.0
5.042530774343387e6 -8.379988146516362e6 0.0
0.0 0.0 0.0

-1.4013439230617755e6 7.268284855773729e6 0.0
7.268284855773729e6 -2.404712745317586e6 0.0
0.0 0.0 0.0

-3.6477991093476084e6 1.479392303898618e7 0.0
1.479392303898618e7 -461859.0788457745 0.0
0.0 0.0 0.0

3.37589257805918e6 6.318714470091545e6 0.0
6.318714470091545e6 -1.0983983914954785e7 0.0
0.0 0.0 0.0

-168395.7605488603 1.1383360085519386e7 0.0
1.1383360085519386e7 -7.589294485793963e6 0.0
0.0 0.0 0.0

-1.5579675557973532e6 1.3704097015852548e7 0.0
1.3704097015852548e7 3.7457555002840674e6 0.0
0.0 0.0 0.0

2.787444662918634e6 9.154680377232717e6 0.0
9.154680377232717e6 -1.2157743395291198e7 0.0
0.0 0.0 0.0

-4.946020062635073e6 3.813104817001713e6 0.0
3.813104817001713e6 6.444669706985366e6 0.0
0.0 0.0 0.0

-1.7188898514225993e7 1.5440697189809334e7 0.0
1.5440697189809334e7 8.255767212180695e6 0.0
0.0 0.0 0.0

3.3355361390924836e6 8.84994896714379e6 0.0
8.84994896714379e6 -1.367737992125201e7 0.0
0.0 0.0 0.0

-3.2166923333220016e7 -625045.1144700102 0.0
-625045.1144700102 9.783998705810245e6 0.0
0.0 0.0 0.0

3.002511830069121e6 6.842096669127789e6 0.0
6.842096669127789e6 -1.0616012202812733e7 0.0
0.0 0.0 0.0

-6.114192035788225e6 1.3247890830147447e7 0.0
1.3247890830147447e7 1.0121210536804628e7 0.0
0.0 0.0 0.0

2.180025868732292e6 1.0566822452831915e7 0.0
1.0566822452831915e7 -1.6388183800390314e7 0.0
0.0 0.0 0.0

2.0116976987252822e6 1.1075597572201537e7 0.0
1.1075597572201537e7 -1.3439106128667172e7 0.0
0.0 0.0 0.0

-1.5174217634270545e6 4.682733762124755e6 0.0
4.682733762124755e6 772606.237560036 0.0
0.0 0.0 0.0

-1.177861340635543e7 3.254896358938206e6 0.0
3.254896358938206e6 1.39319037440036e7 0.0
0.0 0.0 0.0

-2.2559620268680947e6 1.052505145286595e7 0.0
1.052505145286595e7 -2.325395647999895e6 0.0
0.0 0.0 0.0

-3.4898639892831645e6 9.285499825000335e6 0.0
9.285499825000335e6 1.9847801335503692e6 0.0
0.0 0.0 0.0

-1.2356157310005972e7 2.432916561701264e6 0.0
2.432916561701264e6 1.590648910809682e7 0.0
0.0 0.0 0.0

-1.5410862637189291e6 1.0360464493253678e7 0.0
1.0360464493253678e7 -2.0983280573190413e6 0.0
0.0 0.0 0.0

-899817.9678544304 1.2602514393733833e7 0.0
1.2602514393733833e7 -7.114444355981041e6 0.0
0.0 0.0 0.0

-980442.8830810227 1.3096345331368836e7 0.0
1.3096345331368836e7 -5.517432117108007e6 0.0
0.0 0.0 0.0

-1.524207118926098e6 1.3507286854572855e7 0.0
1.3507286854572855e7 -6.325568529831582e6 0.0
0.0 0.0 0.0

622059.4013301446 1.0935824254088921e7 0.0
1.0935824254088921e7 -9.280505743549336e6 0.0
0.0 0.0 0.0

1.961602354759193e6 7.35639882158456e6 0.0
7.35639882158456e6 -8.749969386989392e6 0.0
0.0 0.0 0.0

760746.798957386 1.1456165250629885e7 0.0
1.1456165250629885e7 -5.660171315614248e6 0.0
0.0 0.0 0.0

-1.2653524878450357e6 1.2743870201486645e7 0.0
1.2743870201486645e7 -6.091383840493604e6 0.0
0.0 0.0 0.0

-19180.92452047416 1.0378109167085618e7 0.0
1.0378109167085618e7 -5.096172257095372e6 0.0
0.0 0.0 0.0

-3.868689512458092e6 3.9703671564643276e6 0.0
3.9703671564643276e6 4.596234434000474e6 0.0
0.0 0.0 0.0

941708.7411077986 1.0649399142503982e7 0.0
1.0649399142503982e7 -9.93726930193291e6 0.0
0.0 0.0 0.0

-6.031913730782904e6 1.4458560677693369e7 0.0
1.4458560677693369e7 -2.0106378841369104e7 0.0
0.0 0.0 0.0

-1.4557013380130907e6 5.250437287858747e6 0.0
5.250437287858747e6 511613.88468243263 0.0
0.0 0.0 0.0

2.6655283599533364e6 7.3832882620551465e6 0.0
7.3832882620551465e6 -1.0337598969615476e7 0.0
0.0 0.0 0.0

570166.1409457703 6.294725408728583e6 0.0
6.294725408728583e6 -4.961298819427977e6 0.0
0.0 0.0 0.0

1.2561460498104133e6 1.1660475357349686e7 0.0
1.1660475357349686e7 -2.3982622672522053e7 0.0
0.0 0.0 0.0

-4.754483641128992e6 9.845602291260447e6 0.0
9.845602291260447e6 4.1737144309611833e6 0.0
0.0 0.0 0.0

3.5665900670960755e6 6.687543570981574e6 0.0
6.687543570981574e6 -1.037755266538158e7 0.0
0.0 0.0 0.0

-1.0603385539604075e7 3.340323770026027e6 0.0
3.340323770026027e6 1.1877883921450302e7 0.0
0.0 0.0 0.0

-1.078352139610737e7 -3.110233885716161e6 0.0
-3.110233885716161e6 2.425374279322343e7 0.0
0.0 0.0 0.0

45797.15269288956 1.3096806663152993e7 0.0
1.3096806663152993e7 -1.6958592464749624e6 0.0
0.0 0.0 0.0

-17760.876054927503 1.2004470905131483e7 0.0
1.2004470905131483e7 355197.98565734795 0.0
0.0 0.0 0.0

-5.912206874300524e6 1.6063712334789466e7 0.0
1.6063712334789466e7 5.535594895315381e6 0.0
0.0 0.0 0.0

-5.280069807508865e6 1.3190900674380425e7 0.0
1.3190900674380425e7 2.458540938922543e6 0.0
0.0 0.0 0.0

5.144488906178911e6 5.750773700302356e6 0.0
5.750773700302356e6 -1.5931819131346878e7 0.0
0.0 0.0 0.0

5.164245505172802e6 6.032226999276646e6 0.0
6.032226999276646e6 -1.6201412854690742e7 0.0
0.0 0.0 0.0

-1.110460968003305e7 6.948982347955861e6 0.0
6.948982347955861e6 1.513785789844553e7 0.0
0.0 0.0 0.0

-505388.57924110047 1.2118125082046047e7 0.0
1.2118125082046047e7 -7.544891801964308e6 0.0
0.0 0.0 0.0

3.2938753698047735e6 1.3131896212648723e7 0.0
1.3131896212648723e7 -3.1582764497433603e6 0.0
0.0 0.0 0.0

-1.259463454020395e7 -336598.69061806746 0.0
-336598.69061806746 2.849532525262306e7 0.0
0.0 0.0 0.0

-5.151206826104391e6 1.188846200957012e7 0.0
1.188846200957012e7 4.49999012793567e6 0.0
0.0 0.0 0.0

-1.236555168738131e6 1.1827888321101751e7 0.0
1.1827888321101751e7 -5.013132995540803e6 0.0
0.0 0.0 0.0

-9.545876787550936e6 1.1428728469921563e7 0.0
1.1428728469921563e7 2.6974049344769225e7 0.0
0.0 0.0 0.0

775179.2389476988 5.218610554921867e6 0.0
5.218610554921867e6 -3.426365533314009e6 0.0
0.0 0.0 0.0

-2.8962478010490634e6 1.4782551742636397e7 0.0
1.4782551742636397e7 -2.920037161302277e6 0.0
0.0 0.0 0.0

-2.9403458783038533e6 1.4141358947897209e7 0.0
1.4141358947897209e7 8.984952588436449e6 0.0
0.0 0.0 0.0

3.2030776959891706e6 7.194684955432948e6 0.0
7.194684955432948e6 -1.0042755669854082e7 0.0
0.0 0.0 0.0

-1.927262333142397e6 9.52897979660586e6 0.0
9.52897979660586e6 -2.4145748258419274e6 0.0
0.0 0.0 0.0

-1.1021883994009525e7 9.692760055443509e6 0.0
9.692760055443509e6 2.114215404714116e7 0.0
0.0 0.0 0.0

4.304166801406681e6 7.809941740198458e6 0.0
7.809941740198458e6 -1.6521860057897247e7 0.0
0.0 0.0 0.0

440899.69364599884 1.2604381116034659e7 0.0
1.2604381116034659e7 -9.416406182216348e6 0.0
0.0 0.0 0.0

-9.255622893765666e6 -4.1006687090357314e6 0.0
-4.1006687090357314e6 1.7368589961148784e7 0.0
0.0 0.0 0.0

3.8599650581168868e6 8.571619160090372e6 0.0
8.571619160090372e6 -1.605114421108453e7 0.0
0.0 0.0 0.0

552737.0028612588 7.846806279000884e6 0.0
7.846806279000884e6 -4.740039409690738e6 0.0
0.0 0.0 0.0

4.1471142397665763e6 7.501281508324032e6 0.0
7.501281508324032e6 -1.4287653427512297e7 0.0
0.0 0.0 0.0

196663.58927589376 1.042613180111874e7 0.0
1.042613180111874e7 -7.325062216563232e6 0.0
0.0 0.0 0.0

-130931.05099951895 1.1602343070077868e7 0.0
1.1602343070077868e7 -7.94606495144503e6 0.0
0.0 0.0 0.0

-1.2050845775853777e7 1.5819069590516624e6 0.0
1.5819069590516624e6 1.5488613568770863e7 0.0
0.0 0.0 0.0

1.4512029753058797e6 1.188241256395317e7 0.0
1.188241256395317e7 690961.424680668 0.0
0.0 0.0 0.0

-3.380820493419916e6 3.8611823914710856e6 0.0
3.8611823914710856e6 3.2306819613375566e6 0.0
0.0 0.0 0.0

1.490905239297295e6 1.1301628599606948e7 0.0
1.1301628599606948e7 -1.118132284897805e7 0.0
0.0 0.0 0.0

-527243.9448318107 5.3469343407565635e6 0.0
5.3469343407565635e6 -1.2558153197823558e6 0.0
0.0 0.0 0.0

1.2355999067404557e6 5.534634168192933e6 0.0
5.534634168192933e6 -5.685216314655242e6 0.0
0.0 0.0 0.0

-153551.3711122987 1.1187173636811335e7 0.0
1.1187173636811335e7 -7.298767188921204e6 0.0
0.0 0.0 0.0

3.8852909113751636e6 6.122534432733476e6 0.0
6.122534432733476e6 -1.0679343934055666e7 0.0
0.0 0.0 0.0

-1.0253328240227826e7 -262017.16712089517 0.0
-262017.16712089517 1.2238188310881738e7 0.0
0.0 0.0 0.0

5.75553554167472e6 4.990098892758871e6 0.0
4.990098892758871e6 -2.1534976136076037e7 0.0
0.0 0.0 0.0

-906892.3803603575 1.2039500811709223e7 0.0
1.2039500811709223e7 -3.0229743280689805e6 0.0
0.0 0.0 0.0

-8.381054571639156e6 5.611398607212926e6 0.0
5.611398607212926e6 9.07914483187804e6 0.0
0.0 0.0 0.0

-5.895502375023314e6 1.5243177145899698e7 0.0
1.5243177145899698e7 3.8534656451012143e6 0.0
0.0 0.0 0.0

-281651.51096709445 1.247743311745052e7 0.0
1.247743311745052e7 4.1913626369541376e6 0.0
0.0 0.0 0.0

-1.0765884091815017e7 1.1577430575137505e7 0.0
1.1577430575137505e7 1.3344034512094527e7 0.0
0.0 0.0 0.0

-7.70722748336824e6 1.258469480142871e7 0.0
1.258469480142871e7 1.0953577456418931e7 0.0
0.0 0.0 0.0

-8.019788684427905e6 -6.972346641071637e6 0.0
-6.972346641071637e6 1.5251876192969766e7 0.0
0.0 0.0 0.0

-2.2327362104414213e6 9.299399540755987e6 0.0
9.299399540755987e6 -149323.82937184523 0.0
0.0 0.0 0.0

710010.67959376 1.4079655063988393e7 0.0
1.4079655063988393e7 7.392279616166376e6 0.0
0.0 0.0 0.0

-4.151771223190467e6 1.477306494086029e7 0.0
1.477306494086029e7 5.773310335379035e6 0.0
0.0 0.0 0.0

-1.137238694364326e7 2.750261244028628e6 0.0
2.750261244028628e6 1.325025450310604e7 0.0
0.0 0.0 0.0

1.5921266921493467e6 1.0567102795926956e7 0.0
1.0567102795926956e7 -1.2497879539576367e7 0.0
0.0 0.0 0.0

2.7794274218429313e6 6.50745994387797e6 0.0
6.50745994387797e6 -9.563113133654457e6 0.0
0.0 0.0 0.0

132350.44130556798 1.1979290557265516e7 0.0
1.1979290557265516e7 -7.341173905757692e6 0.0
0.0 0.0 0.0

-1.8705506551919396e6 8.635632642084712e6 0.0
8.635632642084712e6 -549386.3306146824 0.0
0.0 0.0 0.0

2.980077613153468e6 5.561402969467971e6 0.0
5.561402969467971e6 -8.243722179752057e6 0.0
0.0 0.0 0.0

-3.1427519809848126e6 1.5069905620271983e7 0.0
1.5069905620271983e7 -2.110239484852739e6 0.0
0.0 0.0 0.0

-1.0612724050490567e7 -1.8820361040650422e6 0.0
-1.8820361040650422e6 2.301360590238189e7 0.0
0.0 0.0 0.0

-9.970276285785906e6 -3.1322734615071523e6 0.0
-3.1322734615071523e6 1.869584110277408e7 0.0
0.0 0.0 0.0

-1.2760001307537485e7 5.570298231851487e6 0.0
5.570298231851487e6 1.9300944823912267e7 0.0
0.0 0.0 0.0

-2.275433587669098e6 1.4130348642603854e7 0.0
1.4130348642603854e7 -4.790566909630852e6 0.0
0.0 0.0 0.0

-376577.5578541027 6.788713628568924e6 0.0
6.788713628568924e6 -3.812319267066297e6 0.0
0.0 0.0 0.0

3.50923869418957e6 1.3811659985920923e7 0.0
1.3811659985920923e7 4.63236220070268e6 0.0
0.0 0.0 0.0

3.3628587564444784e6 1.5719149893312547e7 0.0
1.5719149893312547e7 1.8975168918005746e7 0.0
0.0 0.0 0.0

3.3536430886381743e6 6.275539516214587e6 0.0
6.275539516214587e6 -9.198435458597392e6 0.0
0.0 0.0 0.0

-6.262521634114902e6 3.011073634389597e6 0.0
3.011073634389597e6 8.87966321497617e6 0.0
0.0 0.0 0.0

-2.593716305102087e6 9.967751930945542e6 0.0
9.967751930945542e6 255761.2153765146 0.0
0.0 0.0 0.0

-7.292714555690793e6 1.3966918630604548e7 0.0
1.3966918630604548e7 8.86223228853783e6 0.0
0.0 0.0 0.0

5.109511170104124e6 6.212754218119313e6 0.0
6.212754218119313e6 -1.7118209183394056e7 0.0
0.0 0.0 0.0

4.6386356648886325e6 6.743608312243419e6 0.0
6.743608312243419e6 -1.5322074820178939e7 0.0
0.0 0.0 0.0

-1.3391584598284804e6 5.579492557581741e6 0.0
5.579492557581741e6 -1.5958411512321834e6 0.0
0.0 0.0 0.0

-5.412967308315633e6 1.2626884371608352e7 0.0
1.2626884371608352e7 4.874670280782655e6 0.0
0.0 0.0 0.0

-9.2379598366465e6 1.1764622015410444e7 0.0
1.1764622015410444e7 2.4985943877411343e7 0.0
0.0 0.0 0.0

-220536.51633392274 1.2487761221334292e7 0.0
1.2487761221334292e7 -6.952920275243218e6 0.0
0.0 0.0 0.0

-1.0985501519079763e6 6.154635489602783e6 0.0
6.154635489602783e6 -751195.1129787295 0.0
0.0 0.0 0.0

4.871549050098089e6 6.368548449432288e6 0.0
6.368548449432288e6 -1.5771695725935433e7 0.0
0.0 0.0 0.0

-6.796368490220822e6 1.424644005465505e7 0.0
1.424644005465505e7 6.327472864918396e6 0.0
0.0 0.0 0.0

2.913450257649719e6 7.3248798286517e6 0.0
7.3248798286517e6 -1.1260675980748666e7 0.0
0.0 0.0 0.0

-4.362266058157515e6 3.81778012430928e6 0.0
3.81778012430928e6 -163497.0255386841 0.0
0.0 0.0 0.0

208108.29159926064 1.0841185260638842e7 0.0
1.0841185260638842e7 -7.973995094246305e6 0.0
0.0 0.0 0.0

-281366.18369958026 4.479283801975985e6 0.0
4.479283801975985e6 -2.803022474170988e6 0.0
0.0 0.0 0.0

-1.493194039304913e6 7.967044969660891e6 0.0
7.967044969660891e6 -947560.4106594012 0.0
0.0 0.0 0.0

-1.0800212360748271e6 7.258120278658665e6 0.0
7.258120278658665e6 -1.3321695866475033e6 0.0
0.0 0.0 0.0

-142812.8903883323 1.094605657321322e7 0.0
1.094605657321322e7 -7.014808549866648e6 0.0
0.0 0.0 0.0

-2.325709205757098e6 1.0171990380782517e7 0.0
1.0171990380782517e7 -2.0082724688296095e6 0.0
0.0 0.0 0.0

-1.2235590345098577e7 2.680826655825086e6 0.0
2.680826655825086e6 1.5018616726034395e7 0.0
0.0 0.0 0.0

-1.0875789413600972e7 9.096317881236129e6 0.0
9.096317881236129e6 2.4777018392858993e7 0.0
0.0 0.0 0.0

-1.2657934516615696e7 6.1206228177746e6 0.0
6.1206228177746e6 2.21151326039286e7 0.0
0.0 0.0 0.0

-1.0992891837460997e7 9.382127765541023e6 0.0
9.382127765541023e6 2.2851901099907003e7 0.0
0.0 0.0 0.0

-1.1871522522810565e7 3.7205267795498604e6 0.0
3.7205267795498604e6 3.679624600113009e7 0.0
0.0 0.0 0.0

-1.292844472942845e6 1.373038185538491e7 0.0
1.373038185538491e7 2.6758393851016285e6 0.0
0.0 0.0 0.0

-1.2591711030172352e7 600064.2418870899 0.0
600064.2418870899 2.6432133528014332e7 0.0
0.0 0.0 0.0

-3.213803831213257e6 1.4162506400659442e7 0.0
1.4162506400659442e7 -1.7830714822010463e6 0.0
0.0 0.0 0.0

603600.7384549752 1.1934441936063735e7 0.0
1.1934441936063735e7 -8.3048378817497175e6 0.0
0.0 0.0 0.0

-2.9060975663614813e7 1.951537464439897e7 0.0
1.951537464439897e7 -858780.4804232065 0.0
0.0 0.0 0.0

3.0050297061730917e6 6.86916240591473e6 0.0
6.86916240591473e6 -8.990533772474086e6 0.0
0.0 0.0 0.0

2.491393224369388e6 9.498765340213157e6 0.0
9.498765340213157e6 -1.1640646190012544e7 0.0
0.0 0.0 0.0

-3.035928890931497e6 1.5114149135258595e7 0.0
1.5114149135258595e7 -1.645770446383365e6 0.0
0.0 0.0 0.0

-4.69709782145831e6 1.4486045972473143e7 0.0
1.4486045972473143e7 2.988976354095848e6 0.0
0.0 0.0 0.0

4.241404069351503e6 7.17621625413182e6 0.0
7.17621625413182e6 -1.4039252038453367e7 0.0
0.0 0.0 0.0

4.896346299232209e6 1.5349655314350866e7 0.0
1.5349655314350866e7 -7.348191229204062e6 0.0
0.0 0.0 0.0

-2.297193627731376e6 8.172479800858566e6 0.0
8.172479800858566e6 -1.2410788505435411e6 0.0
0.0 0.0 0.0

4.978385765437438e6 6.530832666983891e6 0.0
6.530832666983891e6 -2.2705104784832425e7 0.0
0.0 0.0 0.0

-1.8822287026181766e6 7.487797368467625e6 0.0
7.487797368467625e6 -1.6688952070285163e6 0.0
0.0 0.0 0.0

2.3927186966894576e6 7.061548539885002e6 0.0
7.061548539885002e6 -9.287645771782463e6 0.0
0.0 0.0 0.0

-1.0090702673321553e7 1.1714437183391593e7 0.0
1.1714437183391593e7 1.2791938996937871e7 0.0
0.0 0.0 0.0

-1.7126373021501966e7 1.4575202771654012e7 0.0
1.4575202771654012e7 5.799513524380754e6 0.0
0.0 0.0 0.0

-8.728010750910532e6 -2.9574694063826334e6 0.0
-2.9574694063826334e6 1.2524863943570761e7 0.0
0.0 0.0 0.0

-585613.3473103312 1.2967058364584746e7 0.0
1.2967058364584746e7 -6.534871517340176e6 0.0
0.0 0.0 0.0

-1.0086815393282559e7 1.6123516891007299e7 0.0
1.6123516891007299e7 5.992089340504039e6 0.0
0.0 0.0 0.0

3.3228673396674683e6 5.909724244101112e6 0.0
5.909724244101112e6 -9.12047122556811e6 0.0
0.0 0.0 0.0

-8.57566677952595e6 4.0088482949374225e6 0.0
4.0088482949374225e6 1.2202066433178881e7 0.0
0.0 0.0 0.0

113102.42531283107 1.1569210861104086e7 0.0
1.1569210861104086e7 -6.700743939395954e6 0.0
0.0 0.0 0.0

-859050.2715083751 1.0945834515254093e7 0.0
1.0945834515254093e7 -3.7421220753786997e6 0.0
0.0 0.0 0.0

-2.70210876125944e6 8.8397614806847e6 0.0
8.8397614806847e6 -837511.8790200668 0.0
0.0 0.0 0.0

-1.2580347937550314e7 4.0849926045565936e6 0.0
4.0849926045565936e6 1.9261542266862687e7 0.0
0.0 0.0 0.0

5.098370397983093e6 5.531912967823728e6 0.0
5.531912967823728e6 -1.4863697731613962e7 0.0
0.0 0.0 0.0

3.5007349500999996e6 6.112992809169869e6 0.0
6.112992809169869e6 -1.0580978806621987e7 0.0
0.0 0.0 0.0

-6.711579725742305e6 1.3945774639468271e7 0.0
1.3945774639468271e7 5.67471364843606e6 0.0
0.0 0.0 0.0

-2.3531563172343406e6 4.485292972021895e6 0.0
4.485292972021895e6 558495.536579047 0.0
0.0 0.0 0.0

152872.8451593034 1.0181585132647661e7 0.0
1.0181585132647661e7 -7.027676701125437e6 0.0
0.0 0.0 0.0

3.997452493504732e6 6.782508776359299e6 0.0
6.782508776359299e6 -1.2266097210146926e7 0.0
0.0 0.0 0.0

-1.1212983571165418e7 -567478.0325338917 0.0
-567478.0325338917 2.124751026501718e7 0.0
0.0 0.0 0.0

-1.073323795520557e6 1.3859292739195744e7 0.0
1.3859292739195744e7 1.6055019843606502e6 0.0
0.0 0.0 0.0

-9.526324937638171e6 -538425.2236544789 0.0
-538425.2236544789 1.1309633008261181e7 0.0
0.0 0.0 0.0

3.3162178552256264e6 9.336969028046118e6 0.0
9.336969028046118e6 -1.564076960807477e7 0.0
0.0 0.0 0.0

441154.32434533583 1.2335886570539933e7 0.0
1.2335886570539933e7 -1.1138074766835779e7 0.0
0.0 0.0 0.0

-7.803998067414375e6 6.600958496573412e6 0.0
6.600958496573412e6 8.224858151977949e6 0.0
0.0 0.0 0.0

1.9051569577811603e6 1.1021326764765633e7 0.0
1.1021326764765633e7 -1.2640150927025154e7 0.0
0.0 0.0 0.0

860613.458998376 1.1091195801864637e7 0.0
1.1091195801864637e7 -8.403293647633702e6 0.0
0.0 0.0 0.0

982413.4437418203 4.253177313730741e6 0.0
4.253177313730741e6 -3.3188637799975616e6 0.0
0.0 0.0 0.0

-7.969409788513909e6 194311.16125231533 0.0
194311.16125231533 8.63861752798904e6 0.0
0.0 0.0 0.0

315468.7044556439 9.072878657537213e6 0.0
9.072878657537213e6 -6.661150672734601e6 0.0
0.0 0.0 0.0

645987.2010438791 8.412962163250292e6 0.0
8.412962163250292e6 -6.995818129761441e6 0.0
0.0 0.0 0.0

162257.75531890942 1.1752106870015197e7 0.0
1.1752106870015197e7 -7.010320375398937e6 0.0
0.0 0.0 0.0

-1.0058929558109301e6 1.3963925160475122e7 0.0
1.3963925160475122e7 596808.7489235303 0.0
0.0 0.0 0.0

1.5495693260489167e6 7.689209502894759e6 0.0
7.689209502894759e6 -8.18823927831015e6 0.0
0.0 0.0 0.0

1.9112990100643523e6 1.0663898620264152e7 0.0
1.0663898620264152e7 -2.0571772239930302e7 0.0
0.0 0.0 0.0

-2.2072873959363922e6 4.924461448351185e6 0.0
4.924461448351185e6 400636.36327938666 0.0
0.0 0.0 0.0

-3.7172795417745556e6 1.3020159132037004e7 0.0
1.3020159132037004e7 -1.6503991034051148e7 0.0
0.0 0.0 0.0

-6.690346052941697e7 6.782177637478626e6 0.0
6.782177637478626e6 7.555851492114991e6 0.0
0.0 0.0 0.0

4.7098279073590286e7 9.050855107065314e6 0.0
9.050855107065314e6 -815629.9812145978 0.0
0.0 0.0 0.0

1.473775359841859e6 1.1152075485013956e7 0.0
1.1152075485013956e7 -2.273370801426646e7 0.0
0.0 0.0 0.0

-7.747103971282923e6 9.692500235982958e6 0.0
9.692500235982958e6 1.052132046361173e7 0.0
0.0 0.0 0.0

-4.1336619473282485e6 1.2809137320324427e7 0.0
1.2809137320324427e7 355887.8013579447 0.0
0.0 0.0 0.0

-5806.770620193798 9.676504452226881e6 0.0
9.676504452226881e6 -6.3503804612426525e6 0.0
0.0 0.0 0.0

490650.5280623047 5.816977433932971e6 0.0
5.816977433932971e6 -4.605684978516919e6 0.0
0.0 0.0 0.0

868360.042029209 6.265235416764431e6 0.0
6.265235416764431e6 -3.9626040672335066e6 0.0
0.0 0.0 0.0

-3.098500482223491e6 9.510935761284566e6 0.0
9.510935761284566e6 -446234.32594219234 0.0
0.0 0.0 0.0

1.720190623813455e6 1.0881580192308797e7 0.0
1.0881580192308797e7 -2.1602359593227535e7 0.0
0.0 0.0 0.0

1.034836668230556e6 8.844695345242696e6 0.0
8.844695345242696e6 -6.31152369345824e6 0.0
0.0 0.0 0.0

-1.0969348919384906e7 -1.6116134447036083e6 0.0
-1.6116134447036083e6 1.5528140661348678e7 0.0
0.0 0.0 0.0

3.445683628964544e7 1.0299669371707173e7 0.0
1.0299669371707173e7 -2.2909697742495183e6 0.0
0.0 0.0 0.0

686328.6717317912 9.468728806837251e6 0.0
9.468728806837251e6 -6.034731688094518e6 0.0
0.0 0.0 0.0

4.427936125112173e6 6.590067277145822e6 0.0
6.590067277145822e6 -1.3575832472414138e7 0.0
0.0 0.0 0.0

4.339577359930782e6 6.876969093611391e6 0.0
6.876969093611391e6 -1.3781169983002743e7 0.0
0.0 0.0 0.0

-9.469602839605942e6 1.2021087591468947e7 0.0
1.2021087591468947e7 1.217966962474284e7 0.0
0.0 0.0 0.0

1.5538127716523279e6 1.0434151521463316e7 0.0
1.0434151521463316e7 -9.60727159105815e6 0.0
0.0 0.0 0.0

-1.6217755635119989e6 1.446614934035509e7 0.0
1.446614934035509e7 -4.105055313458498e6 0.0
0.0 0.0 0.0

1.8995701775397828e6 1.4412599440698655e7 0.0
1.4412599440698655e7 -5.119911691044427e6 0.0
0.0 0.0 0.0

-1.1362285623017983e6 9.324767498180585e6 0.0
9.324767498180585e6 -2.127324786265691e6 0.0
0.0 0.0 0.0

1.565821593610652e6 5.821491588481865e6 0.0
5.821491588481865e6 -5.177128558293706e6 0.0
0.0 0.0 0.0

-889453.0210792376 7.036930343608403e6 0.0
7.036930343608403e6 -3.1001108834141768e6 0.0
0.0 0.0 0.0

-1.4985567796560898e6 5.853304362453218e6 0.0
5.853304362453218e6 244770.08582406922 0.0
0.0 0.0 0.0

-1.270484735205906e6 1.165620241620789e7 0.0
1.165620241620789e7 -1.3606638105220843e7 0.0
0.0 0.0 0.0

3.2040567160020107e6 9.186675946786193e6 0.0
9.186675946786193e6 -1.3938465909120077e7 0.0
0.0 0.0 0.0

2.675777129026321e6 6.104019547739894e6 0.0
6.104019547739894e6 -9.422407228716811e6 0.0
0.0 0.0 0.0

2.249283473595914e6 7.450142956071718e6 0.0
7.450142956071718e6 -7.823523988118157e6 0.0
0.0 0.0 0.0

-1.9559199725141807e6 1.0611920528635802e7 0.0
1.0611920528635802e7 -1.3447607809606572e6 0.0
0.0 0.0 0.0

2.3777138064817465e6 7.34923357367687e6 0.0
7.34923357367687e6 -9.555353187196463e6 0.0
0.0 0.0 0.0

109507.09729535598 6.535949323445796e6 0.0
6.535949323445796e6 -4.385177270066689e6 0.0
0.0 0.0 0.0

4.1905860186951407e6 5.891226823492336e6 0.0
5.891226823492336e6 -1.1204447626503712e7 0.0
0.0 0.0 0.0

476964.6148800673 1.0780891241100648e7 0.0
1.0780891241100648e7 -6.768204185022783e6 0.0
0.0 0.0 0.0

-2.3055046092734067e6 5.502874351935649e6 0.0
5.502874351935649e6 141893.08354581415 0.0
0.0 0.0 0.0

-2.9363335480896705e6 1.4800314245571246e7 0.0
1.4800314245571246e7 -3.3527875858555003e6 0.0
0.0 0.0 0.0

4.98431912651633e6 6.196225263897091e6 0.0
6.196225263897091e6 -2.0181352618160762e7 0.0
0.0 0.0 0.0

117208.49250669638 1.13309328609778e7 0.0
1.13309328609778e7 -6.429306775558797e6 0.0
0.0 0.0 0.0

3.4239370347536705e6 7.406022528060212e6 0.0
7.406022528060212e6 -1.1142901380710367e7 0.0
0.0 0.0 0.0

-24936.380572007154 5.084227171711215e6 0.0
5.084227171711215e6 -1.8813242966002328e6 0.0
0.0 0.0 0.0

3.7336008195187487e6 7.104615264984291e6 0.0
7.104615264984291e6 -1.1745804651078587e7 0.0
0.0 0.0 0.0

-4.917157459715874e6 1.3288837321135025e7 0.0
1.3288837321135025e7 3.6527376942596473e6 0.0
0.0 0.0 0.0

-3.1039452351194243e6 1.5986946785854628e7 0.0
1.5986946785854628e7 -3.470455836816824e6 0.0
0.0 0.0 0.0

625785.753363512 1.2416739443363514e7 0.0
1.2416739443363514e7 -1.1144646821755592e7 0.0
0.0 0.0 0.0

921932.0049205893 6.009713265942298e6 0.0
6.009713265942298e6 -5.475943452281002e6 0.0
0.0 0.0 0.0

-3.0741510527535984e6 1.6329870462201674e7 0.0
1.6329870462201674e7 -1.7679775346126067e6 0.0
0.0 0.0 0.0

-1.6168597050636965e6 1.4023008827818243e7 0.0
1.4023008827818243e7 -4.690779640000089e6 0.0
0.0 0.0 0.0

-7.226890671037177e6 4.443946750572912e6 0.0
4.443946750572912e6 7.336018406685776e6 0.0
0.0 0.0 0.0

-4.366712127152191e6 1.459324792137478e7 0.0
1.459324792137478e7 6.691169615148338e6 0.0
0.0 0.0 0.0

-702178.4696231554 4.784917933878012e6 0.0
4.784917933878012e6 -2.0583712610675897e6 0.0
0.0 0.0 0.0

-990371.2025394421 7.749976667801925e6 0.0
7.749976667801925e6 -1.6762642128921414e6 0.0
0.0 0.0 0.0

-1.1907246668670325e7 2.6511437704078536e6 0.0
2.6511437704078536e6 2.483621572968136e7 0.0
0.0 0.0 0.0

-3.995885881771631e6 8.755735591844695e6 0.0
8.755735591844695e6 1.2562011037758007e6 0.0
0.0 0.0 0.0

1.7007153275671192e6 1.1523077547154762e7 0.0
1.1523077547154762e7 -1.1548869559923029e6 0.0
0.0 0.0 0.0

374565.85735361045 1.007376106028377e7 0.0
1.007376106028377e7 -5.72818097412491e6 0.0
0.0 0.0 0.0

-180994.2713387136 1.0735824274086084e7 0.0
1.0735824274086084e7 -6.679988915826861e6 0.0
0.0 0.0 0.0

1.8588255720995534e6 1.0527145770150766e7 0.0
1.0527145770150766e7 -1.962584221087866e7 0.0
0.0 0.0 0.0

4.871369116978005e6 6.445634104980284e6 0.0
6.445634104980284e6 -2.123032951231887e7 0.0
0.0 0.0 0.0

-1.1657536975844476e7 4.263070934545239e6 0.0
4.263070934545239e6 1.3430856500262056e7 0.0
0.0 0.0 0.0

-5.810817795596046e6 1.5746335087020272e7 0.0
1.5746335087020272e7 5.513922742511742e6 0.0
0.0 0.0 0.0

-1.1588862790875502e7 -1.6678542143467611e6 0.0
-1.6678542143467611e6 1.799563311747151e7 0.0
0.0 0.0 0.0

-1.0053798426277664e6 1.3403612685012871e7 0.0
1.3403612685012871e7 -6.169960083511846e6 0.0
0.0 0.0 0.0

-884523.1768284233 1.3276202534880593e7 0.0
1.3276202534880593e7 -7.987832039631601e6 0.0
0.0 0.0 0.0

7.01163056733525e6 5.140386111845319e6 0.0
5.140386111845319e6 -1.2574639590791753e6 0.0
0.0 0.0 0.0

1.2921965144008375e6 7.487128519825989e6 0.0
7.487128519825989e6 -6.246267118199533e6 0.0
0.0 0.0 0.0

-6.416304133333985e6 8.291359432211939e6 0.0
8.291359432211939e6 5.5558712246599505e6 0.0
0.0 0.0 0.0

60236.17269423464 1.1959058225292122e7 0.0
1.1959058225292122e7 -1.0868240356891992e7 0.0
0.0 0.0 0.0

463876.67005143035 1.0572200566410193e7 0.0
1.0572200566410193e7 -6.438740600898973e6 0.0
0.0 0.0 0.0

484872.77193711605 1.1238385845468175e7 0.0
1.1238385845468175e7 -7.37892393997422e6 0.0
0.0 0.0 0.0

-1.2060080453391146e7 6.956266077415445e6 0.0
6.956266077415445e6 1.929023201295292e7 0.0
0.0 0.0 0.0

-9.840212884970356e6 4.634280719973563e6 0.0
4.634280719973563e6 1.1152615886246026e7 0.0
0.0 0.0 0.0

-233623.5579160247 1.0503318842651047e7 0.0
1.0503318842651047e7 -6.362136661513472e6 0.0
0.0 0.0 0.0

-1.529043843749982e6 1.2312289281825623e7 0.0
1.2312289281825623e7 -4.697800397451321e6 0.0
0.0 0.0 0.0

-4.421035383013307e6 1.2558358665590469e7 0.0
1.2558358665590469e7 1.332809892124993e6 0.0
0.0 0.0 0.0

-4.32596860542978e6 1.5636418575829607e7 0.0
1.5636418575829607e7 456686.0325817212 0.0
0.0 0.0 0.0

3.3222443346202783e6 9.261083155285934e6 0.0
9.261083155285934e6 -1.479522188048686e7 0.0
0.0 0.0 0.0

-5.356329780759349e6 1.8429490746820077e7 0.0
1.8429490746820077e7 4.745767632569263e6 0.0
0.0 0.0 0.0

-6.299733271381285e6 9.016671543351421e6 0.0
9.016671543351421e6 5.062254891064612e6 0.0
0.0 0.0 0.0

-3.055554411973476e6 1.6416638111746935e7 0.0
1.6416638111746935e7 -2.492842798540941e6 0.0
0.0 0.0 0.0

-347111.7540271095 1.2249537671317559e7 0.0
1.2249537671317559e7 -1.935879321913264e6 0.0
0.0 0.0 0.0

624011.889190542 1.2621750942070931e7 0.0
1.2621750942070931e7 -1.0566482541591596e7 0.0
0.0 0.0 0.0

-1.0094636307407949e6 1.3009642736465704e7 0.0
1.3009642736465704e7 -4.729770194899854e6 0.0
0.0 0.0 0.0

-6.51078458667236e6 1.5482134857081253e7 0.0
1.5482134857081253e7 6.661710317117546e6 0.0
0.0 0.0 0.0

-617568.5230733831 1.2596339225440808e7 0.0
1.2596339225440808e7 -5.922924489948337e6 0.0
0.0 0.0 0.0

-305071.5408757441 1.0268321182301885e7 0.0
1.0268321182301885e7 -6.022956550246023e6 0.0
0.0 0.0 0.0

1.0074087317761322e6 1.215024838289515e7 0.0
1.215024838289515e7 -1.1907843530925382e7 0.0
0.0 0.0 0.0

-518047.8706974229 8.79688602322349e6 0.0
8.79688602322349e6 -4.6814506229309e6 0.0
0.0 0.0 0.0

-4.978869185207495e6 1.440623332703457e7 0.0
1.440623332703457e7 2.0549835069281198e6 0.0
0.0 0.0 0.0

-3.989526402963426e6 1.5359903740558129e7 0.0
1.5359903740558129e7 -338639.41046844097 0.0
0.0 0.0 0.0

453339.39927210775 4.87018571723783e6 0.0
4.87018571723783e6 -2.6192707255786383e6 0.0
0.0 0.0 0.0

618596.5435913308 8.045327042196236e6 0.0
8.045327042196236e6 -6.715681165178645e6 0.0
0.0 0.0 0.0

-4.199599946057483e6 1.627131545327127e7 0.0
1.627131545327127e7 1.699868497461634e6 0.0
0.0 0.0 0.0

-5.541083884464338e6 1.2857230316291612e7 0.0
1.2857230316291612e7 2.962155562508887e6 0.0
0.0 0.0 0.0

-5.0590037436147444e7 2.731377497261222e6 0.0
2.731377497261222e6 8.601949040296108e6 0.0
0.0 0.0 0.0

1.7501932158690887e6 1.129266802477227e7 0.0
1.129266802477227e7 -1.2785430914904315e7 0.0
0.0 0.0 0.0

-6.079732363586575e6 1.2139436213446993e7 0.0
1.2139436213446993e7 4.1405267831031643e6 0.0
0.0 0.0 0.0

-2.92506102278731e6 1.4336290969791606e7 0.0
1.4336290969791606e7 -878120.5294419174 0.0
0.0 0.0 0.0

-6.259078420098964e6 1.2885155195502955e7 0.0
1.2885155195502955e7 4.4880726637517065e6 0.0
0.0 0.0 0.0

-870126.8511618886 1.4157739743992174e7 0.0
1.4157739743992174e7 -336943.25842857687 0.0
0.0 0.0 0.0

-1.3348011565418907e6 1.3383289133484473e7 0.0
1.3383289133484473e7 -4.942807217030054e6 0.0
0.0 0.0 0.0

-6.006115836384314e6 9.642877746866686e6 0.0
9.642877746866686e6 4.409211414845438e6 0.0
0.0 0.0 0.0

-1.0369722954329606e7 2.205885690224869e6 0.0
2.205885690224869e6 1.4181944969512494e7 0.0
0.0 0.0 0.0

-351652.2432314438 9.184472459735751e6 0.0
9.184472459735751e6 -3.8999690924062654e6 0.0
0.0 0.0 0.0

2.585204627873629e6 5.834865374042157e6 0.0
5.834865374042157e6 -7.64418017909887e6 0.0
0.0 0.0 0.0

-1.573012014568971e6 1.1116309226509498e7 0.0
1.1116309226509498e7 -3.9914609193516662e6 0.0
0.0 0.0 0.0

-1.900669664260444e6 1.383142560326576e7 0.0
1.383142560326576e7 -5.562608418429518e6 0.0
0.0 0.0 0.0

-5.314239338418536e6 1.21709097277367e7 0.0
1.21709097277367e7 2.5594407601562897e6 0.0
0.0 0.0 0.0

-1.8359712768157783e6 1.0248712614065975e7 0.0
1.0248712614065975e7 -3.049055765987656e6 0.0
0.0 0.0 0.0

-1.524185554897264e6 4.168613559067508e6 0.0
4.168613559067508e6 1.047352950721929e6 0.0
0.0 0.0 0.0

2.3513102376821134e6 5.69472568225894e6 0.0
5.69472568225894e6 -8.417575437570585e6 0.0
0.0 0.0 0.0

-1.1483416602254111e7 1.3569353635973737e6 0.0
1.3569353635973737e6 1.8990467018470302e7 0.0
0.0 0.0 0.0

-6.960849049572244e6 2.21139429794298e6 0.0
2.21139429794298e6 7.740968842292646e6 0.0
0.0 0.0 0.0

-5.787455969817203e6 1.379907766427889e7 0.0
1.379907766427889e7 1.01219473688486e7 0.0
0.0 0.0 0.0

-1.8258121335772816e6 1.2784477043567602e7 0.0
1.2784477043567602e7 -4.332546578484726e6 0.0
0.0 0.0 0.0

577865.4617630746 7.674542339690867e6 0.0
7.674542339690867e6 -6.498935415345872e6 0.0
0.0 0.0 0.0

-1.1428122597959738e7 1.1319944090522658e6 0.0
1.1319944090522658e6 2.0335637698633127e7 0.0
0.0 0.0 0.0

-2.805957881578384e6 1.4512196511550667e7 0.0
1.4512196511550667e7 -1.2378997895575045e6 0.0
0.0 0.0 0.0

-2.5609893028496816e6 9.317392767151607e6 0.0
9.317392767151607e6 -1.256717313588691e6 0.0
0.0 0.0 0.0

-472909.50446424104 7.512707654844428e6 0.0
7.512707654844428e6 -2.3740593691762267e6 0.0
0.0 0.0 0.0

-999461.1150737766 9.365859444495099e6 0.0
9.365859444495099e6 -4.162194506062838e6 0.0
0.0 0.0 0.0

356861.4969389923 1.180119442488991e7 0.0
1.180119442488991e7 -1.4179437611545675e7 0.0
0.0 0.0 0.0

-5.145358082931712e6 1.2973404613484e7 0.0
1.2973404613484e7 4.254145342487207e6 0.0
0.0 0.0 0.0

-230572.64909502165 1.3185855566069705e7 0.0
1.3185855566069705e7 -7.955354061049514e6 0.0
0.0 0.0 0.0

-8.070461759428348e6 1.2546161567346672e7 0.0
1.2546161567346672e7 3.062469569934947e7 0.0
0.0 0.0 0.0

-1.4677752065079152e6 1.3585901368467089e7 0.0
1.3585901368467089e7 6.685148613302762e6 0.0
0.0 0.0 0.0

-7.295301448195586e6 7.485285272721961e6 0.0
7.485285272721961e6 7.403393483893873e6 0.0
0.0 0.0 0.0

2.7104535107890517e6 9.485435977944566e6 0.0
9.485435977944566e6 -1.2390827495897688e7 0.0
0.0 0.0 0.0

-1.4794656816927893e6 1.0662805072624309e7 0.0
1.0662805072624309e7 -2.412836259936098e6 0.0
0.0 0.0 0.0

-1.6810821775580184e6 1.4701846482239714e7 0.0
1.4701846482239714e7 -6.154537714984906e6 0.0
0.0 0.0 0.0

-5.444552741726915e6 1.6193508321224404e7 0.0
1.6193508321224404e7 4.643844352839943e6 0.0
0.0 0.0 0.0

-3.7096275497868243e6 1.5054333994703744e7 0.0
1.5054333994703744e7 -953431.8061999942 0.0
0.0 0.0 0.0

535589.6383639099 1.2875524123063559e7 0.0
1.2875524123063559e7 -9.953640152084582e6 0.0
0.0 0.0 0.0

-1.1109295007877548e6 1.0081027496914927e7 0.0
1.0081027496914927e7 -2.8145296077559474e6 0.0
0.0 0.0 0.0

-5.977692772646338e6 1.3217148818115078e7 0.0
1.3217148818115078e7 3.8918128200190095e6 0.0
0.0 0.0 0.0

-6.328675064562755e6 4.325242181755688e6 0.0
4.325242181755688e6 5.648915924280493e6 0.0
0.0 0.0 0.0

2.73087971698791e6 5.720506619761123e6 0.0
5.720506619761123e6 -9.205830846657591e6 0.0
0.0 0.0 0.0

-1.2900510186472132e6 1.123844692859905e7 0.0
1.123844692859905e7 -3.058872978498573e6 0.0
0.0 0.0 0.0

2.878210313457269e6 7.743437192019591e6 0.0
7.743437192019591e6 -9.755778546824126e6 0.0
0.0 0.0 0.0

-3.790026749900067e6 1.2921623128600474e7 0.0
1.2921623128600474e7 1.487621437512277e6 0.0
0.0 0.0 0.0

61381.38680818491 7.278716583428531e6 0.0
7.278716583428531e6 -3.0796591550514563e6 0.0
0.0 0.0 0.0

-4.538052735243153e6 1.7219534394579276e7 0.0
1.7219534394579276e7 754890.6921348576 0.0
0.0 0.0 0.0

-3.554131794059849e7 -281077.23186427914 0.0
-281077.23186427914 1.0868909268212538e7 0.0
0.0 0.0 0.0

462605.90558512905 6.996412838790296e6 0.0
6.996412838790296e6 -3.690554626158081e6 0.0
0.0 0.0 0.0

437707.0225545559 1.1601057008195395e7 0.0
1.1601057008195395e7 -1.59760089500478e7 0.0
0.0 0.0 0.0

95407.91613499401 1.3874090182266727e7 0.0
1.3874090182266727e7 -7.190660697756546e6 0.0
0.0 0.0 0.0

742844.2365486389 9.730249244033393e6 0.0
9.730249244033393e6 -6.37114971174749e6 0.0
0.0 0.0 0.0

729319.1092901467 1.2317818672856273e7 0.0
1.2317818672856273e7 -1.0093993686208531e7 0.0
0.0 0.0 0.0

845158.2039008681 6.746919862796826e6 0.0
6.746919862796826e6 -4.2683847584253065e6 0.0
0.0 0.0 0.0

3.5069898639312526e6 7.116649061952742e6 0.0
7.116649061952742e6 -1.0935537347193437e7 0.0
0.0 0.0 0.0

-4.618171789484551e6 1.5933083864090644e7 0.0
1.5933083864090644e7 1.1659193708459002e6 0.0
0.0 0.0 0.0

881840.4563807105 5.638924565069387e6 0.0
5.638924565069387e6 -5.073829038038457e6 0.0
0.0 0.0 0.0

1.0646424638038464e6 8.023559678755929e6 0.0
8.023559678755929e6 -7.613353312712857e6 0.0
0.0 0.0 0.0

-4.780162104106178e6 1.790668977547748e7 0.0
1.790668977547748e7 1.6258330466867161e6 0.0
0.0 0.0 0.0

2.0281834218528976e6 1.2210099123159679e7 0.0
1.2210099123159679e7 -2.3152623042286523e6 0.0
0.0 0.0 0.0

-2.1295407511232025e6 1.5462520556024242e7 0.0
1.5462520556024242e7 -4.091423064391316e6 0.0
0.0 0.0 0.0

5.15399402592333e6 7.635398104328209e6 0.0
7.635398104328209e6 -2.4042809085205317e7 0.0
0.0 0.0 0.0

-1.1493503005438026e7 9.777842191294344e6 0.0
9.777842191294344e6 1.5232592472215064e7 0.0
0.0 0.0 0.0

-4.337095487882283e6 1.5543599498152982e7 0.0
1.5543599498152982e7 2.111598628763967e6 0.0
0.0 0.0 0.0

2.6405866037419685e6 7.438502918615442e6 0.0
7.438502918615442e6 -8.68667567599607e6 0.0
0.0 0.0 0.0

1.1199359205452327e6 6.431425414369849e6 0.0
6.431425414369849e6 -4.817349516079221e6 0.0
0.0 0.0 0.0

625605.2185766543 7.327763628260532e6 0.0
7.327763628260532e6 -6.269214615972597e6 0.0
0.0 0.0 0.0

-5.760024340444525e6 1.816508258292595e7 0.0
1.816508258292595e7 5.803834102477415e6 0.0
0.0 0.0 0.0

-4.464198391001126e6 1.6981070021083262e6 0.0
1.6981070021083262e6 6.604932082691791e6 0.0
0.0 0.0 0.0

-1.1608885138716483e7 7.58288507982884e6 0.0
7.58288507982884e6 1.3851647154166184e7 0.0
0.0 0.0 0.0

-3.44690724103459e6 1.5230760949954782e7 0.0
1.5230760949954782e7 -147591.11846710357 0.0
0.0 0.0 0.0

822459.839120199 1.0713629577208076e7 0.0
1.0713629577208076e7 -7.782854317466569e6 0.0
0.0 0.0 0.0

-5.340830665854763e6 1.3736110532564007e7 0.0
1.3736110532564007e7 8.871302208421879e6 0.0
0.0 0.0 0.0

-2.195861671798644e6 1.0831013947371377e7 0.0
1.0831013947371377e7 -2.6494416250661975e6 0.0
0.0 0.0 0.0

127653.43991317181 1.1106021965674382e7 0.0
1.1106021965674382e7 -6.129193581829433e6 0.0
0.0 0.0 0.0

1.3745595945617147e6 1.1216660051887184e7 0.0
1.1216660051887184e7 -1.4808310813224908e7 0.0
0.0 0.0 0.0

-2.439340143683456e6 1.6177088258880537e7 0.0
1.6177088258880537e7 -3.1822688800661173e6 0.0
0.0 0.0 0.0

2.0073399620928513e6 1.0556103696136119e7 0.0
1.0556103696136119e7 -1.8833902194086205e7 0.0
0.0 0.0 0.0

-5.504955777921372e6 4.1870192284165826e6 0.0
4.1870192284165826e6 4.4618248974753935e6 0.0
0.0 0.0 0.0

537992.4762282129 1.6314949891877685e7 0.0
1.6314949891877685e7 1.4246577487571117e7 0.0
0.0 0.0 0.0

-6.065050332260869e6 1.7642632716998957e7 0.0
1.7642632716998957e7 5.746521511070034e6 0.0
0.0 0.0 0.0

-2.1108189073311384e6 1.1121546459230784e7 0.0
1.1121546459230784e7 -2.96842138943625e6 0.0
0.0 0.0 0.0

162122.81820676452 1.4513687422504464e7 0.0
1.4513687422504464e7 -5.618564746813188e6 0.0
0.0 0.0 0.0

-3.076304895074097e6 1.4974297262656126e7 0.0
1.4974297262656126e7 -861232.2969773358 0.0
0.0 0.0 0.0

-1.8757457241573166e6 6.400284864200125e6 0.0
6.400284864200125e6 -1.1198044085501714e6 0.0
0.0 0.0 0.0

388303.80850849487 1.3129990217621902e7 0.0
1.3129990217621902e7 -9.344825898244916e6 0.0
0.0 0.0 0.0

1.8049810658725193e6 1.0428001066926688e7 0.0
1.0428001066926688e7 -1.0565981483872715e7 0.0
0.0 0.0 0.0

1.4614297350431192e6 1.072184831057209e7 0.0
1.072184831057209e7 -9.897239773119507e6 0.0
0.0 0.0 0.0

-709202.0509563645 1.0554931484327463e7 0.0
1.0554931484327463e7 -5.361008087421015e6 0.0
0.0 0.0 0.0

3.2972609517428293e6 1.6590543808042921e7 0.0
1.6590543808042921e7 -6.68260132645902e6 0.0
0.0 0.0 0.0

1.4594643007728616e6 8.473696136140546e6 0.0
8.473696136140546e6 -6.909115741364874e6 0.0
0.0 0.0 0.0

2.7252100514546824e6 5.436536879393462e6 0.0
5.436536879393462e6 -9.032250137970673e6 0.0
0.0 0.0 0.0

2.108824163793289e6 1.0092398691717267e7 0.0
1.0092398691717267e7 -1.116084371830194e7 0.0
0.0 0.0 0.0

4.738654781135333e6 6.616774004564588e6 0.0
6.616774004564588e6 -1.945474761874899e7 0.0
0.0 0.0 0.0

-2.3611583938276614e6 6.113943114631094e6 0.0
6.113943114631094e6 -139412.0108963726 0.0
0.0 0.0 0.0

-5.19561605319483e6 1.4048901031175096e7 0.0
1.4048901031175096e7 2.3545875286421617e6 0.0
0.0 0.0 0.0

4.307452099729512e6 5.911665081437843e6 0.0
5.911665081437843e6 -1.2680839118722085e7 0.0
0.0 0.0 0.0

1.9629470413205493e6 6.013745443177496e6 0.0
6.013745443177496e6 -7.922156844697304e6 0.0
0.0 0.0 0.0

-429054.8973566288 1.0662063706022318e7 0.0
1.0662063706022318e7 -4.437158353616003e6 0.0
0.0 0.0 0.0

-1.1637372676183373e7 8.1470106598964585e6 0.0
8.1470106598964585e6 2.023266452510028e7 0.0
0.0 0.0 0.0

-6.762695148705402e6 1.457500150911586e7 0.0
1.457500150911586e7 8.40185187123026e6 0.0
0.0 0.0 0.0

-1.9290221054015264e6 6.968476057468244e6 0.0
6.968476057468244e6 -1.3652225227389266e6 0.0
0.0 0.0 0.0

-8.40508634504861e6 1.2519486209270192e7 0.0
1.2519486209270192e7 1.0642675854668163e7 0.0
0.0 0.0 0.0

3.629240541913285e6 6.4093247332629375e6 0.0
6.4093247332629375e6 -1.0132238791885637e7 0.0
0.0 0.0 0.0

2.35619406062902e6 9.793429322724268e6 0.0
9.793429322724268e6 -1.1874236504082995e7 0.0
0.0 0.0 0.0

-1.3881411847523205e7 3.2473341090633843e7 0.0
3.2473341090633843e7 6.202863821948976e6 0.0
0.0 0.0 0.0

-3.385806067591036e6 8.536335328323262e6 0.0
8.536335328323262e6 368489.4507442708 0.0
0.0 0.0 0.0

-4.302982540794931e6 4.0840194023740236e6 0.0
4.0840194023740236e6 3.02570165525083e6 0.0
0.0 0.0 0.0

-560890.2858988964 1.2811547675130833e7 0.0
1.2811547675130833e7 -8.542032668570725e6 0.0
0.0 0.0 0.0

1.1663143868618999e6 1.1031093142720854e7 0.0
1.1031093142720854e7 -9.324932360521235e6 0.0
0.0 0.0 0.0

-14188.336437504622 984164.7942091756 0.0
984164.7942091756 1.2532005371159648e6 0.0
0.0 0.0 0.0

287439.32760734356 -288063.9616012541 0.0
-288063.9616012541 3.727477497864667e6 0.0
0.0 0.0 0.0

-6.114280829424432e6 1.8267449932344683e7 0.0
1.8267449932344683e7 5.652560875345631e6 0.0
0.0 0.0 0.0

-5.5760306425687745e6 1.177525423728186e7 0.0
1.177525423728186e7 3.1170395773178777e6 0.0
0.0 0.0 0.0

-5.740063384136887e6 1.7955250042425252e7 0.0
1.7955250042425252e7 4.548529559476851e6 0.0
0.0 0.0 0.0

3.1231210118949045e6 7.724108485658509e6 0.0
7.724108485658509e6 -1.060177146558792e7 0.0
0.0 0.0 0.0

-5.696095923615985e6 1.3505118829077113e7 0.0
1.3505118829077113e7 3.334998161251303e6 0.0
0.0 0.0 0.0

-1.0383724781392783e7 147208.5203754 0.0
147208.5203754 1.4798131970910024e7 0.0
0.0 0.0 0.0

-4.219069687907688e7 955632.3304116558 0.0
955632.3304116558 1.0903929325619765e7 0.0
0.0 0.0 0.0

-5.414969212116256e6 1.4653004453343298e7 0.0
1.4653004453343298e7 2.757424953811398e6 0.0
0.0 0.0 0.0

-7.752230158747234e6 1.3078717734848885e7 0.0
1.3078717734848885e7 1.0005007635355057e7 0.0
0.0 0.0 0.0

-3.582240045559315e6 1.6069880705630617e7 0.0
1.6069880705630617e7 -2.201489925032963e6 0.0
0.0 0.0 0.0

2.0408076717815609e6 5.8073933743590955e6 0.0
5.8073933743590955e6 -7.524482351691665e6 0.0
0.0 0.0 0.0

-4.43964008469613e6 9.502171344407087e6 0.0
9.502171344407087e6 1.7655554451283866e6 0.0
0.0 0.0 0.0

-4.335872201114909e6 1.6271573804872466e7 0.0
1.6271573804872466e7 -1.7091502483400176e6 0.0
0.0 0.0 0.0

-2.0085630001987293e6 1.559660278164004e7 0.0
1.559660278164004e7 -2.4530980608626218e6 0.0
0.0 0.0 0.0

3.0352537124851993e6 6.55245189319682e6 0.0
6.55245189319682e6 -8.71909034472347e6 0.0
0.0 0.0 0.0

-7.417589365536526e6 1.3610261086999746e7 0.0
1.3610261086999746e7 9.454065395542981e6 0.0
0.0 0.0 0.0

-898271.5752217714 1.2166802617972905e7 0.0
1.2166802617972905e7 -4.4676159611831345e6 0.0
0.0 0.0 0.0

5.197186116480925e6 5.754991561634458e6 0.0
5.754991561634458e6 -2.068184845599047e7 0.0
0.0 0.0 0.0

-1.1525620100351445e7 -3.978131043024022e6 0.0
-3.978131043024022e6 2.296988374882382e7 0.0
0.0 0.0 0.0

2.277544122282869e6 7.771380577682649e6 0.0
7.771380577682649e6 -8.09393663714513e6 0.0
0.0 0.0 0.0

4.495739645693601e6 6.828635554068096e6 0.0
6.828635554068096e6 -1.452719667343038e7 0.0
0.0 0.0 0.0

974129.6306856158 1.1966157620155048e7 0.0
1.1966157620155048e7 -6.620419807664556e6 0.0
0.0 0.0 0.0

3.1434486159371994e6 9.319355340713104e6 0.0
9.319355340713104e6 -1.8553935937468655e7 0.0
0.0 0.0 0.0

-4.929717454242829e6 1.91710885543047e7 0.0
1.91710885543047e7 1.4529547499289429e6 0.0
0.0 0.0 0.0

-9.50055762713759e6 1.2072974801771078e7 0.0
1.2072974801771078e7 1.7785024897897813e7 0.0
0.0 0.0 0.0

-1.1270064647735983e7 -4.339539788534222e6 0.0
-4.339539788534222e6 2.036001153427231e7 0.0
0.0 0.0 0.0

-1.2125023032725854e6 1.2654497072744306e7 0.0
1.2654497072744306e7 -4.142853739372105e6 0.0
0.0 0.0 0.0

4.311643261302476e6 7.2490336667436585e6 0.0
7.2490336667436585e6 -1.7213923027059533e7 0.0
0.0 0.0 0.0

-2.963108674706049e6 1.2368322083502678e7 0.0
1.2368322083502678e7 -152145.33529017284 0.0
0.0 0.0 0.0

-4.99132019485975e6 1.3472248052681176e7 0.0
1.3472248052681176e7 1.975652749264236e6 0.0
0.0 0.0 0.0

-7.381659049403856e6 2.95930069287394e6 0.0
2.95930069287394e6 1.0328137275420506e7 0.0
0.0 0.0 0.0

-2.306258933433019e6 1.6449999973456847e7 0.0
1.6449999973456847e7 -3.208760742812925e6 0.0
0.0 0.0 0.0

1.313177468804677e6 1.1958441886930013e7 0.0
1.1958441886930013e7 -4.897542114934345e6 0.0
0.0 0.0 0.0

-3.698423012608418e6 1.555056752288418e7 0.0
1.555056752288418e7 563339.5774913603 0.0
0.0 0.0 0.0

5.655013549357297e6 4.788124830613105e6 0.0
4.788124830613105e6 -1.9472080960498497e7 0.0
0.0 0.0 0.0

-5.439423452291977e6 1.3806954112849245e7 0.0
1.3806954112849245e7 2.7847610357462857e6 0.0
0.0 0.0 0.0

772389.0719668833 9.976882515675804e6 0.0
9.976882515675804e6 -6.7133555660624895e6 0.0
0.0 0.0 0.0

-1.8109290804887319e6 7.974856294123417e6 0.0
7.974856294123417e6 -2.010231080171878e6 0.0
0.0 0.0 0.0

-696472.1343199044 9.801332045238247e6 0.0
9.801332045238247e6 -3.5067030247361246e6 0.0
0.0 0.0 0.0

-1.7733534858442757e6 5.271764444893272e6 0.0
5.271764444893272e6 -575826.970915424 0.0
0.0 0.0 0.0

1.3620799598047857e6 1.169357000449171e7 0.0
1.169357000449171e7 -5.238576117643127e6 0.0
0.0 0.0 0.0

-1.1674499867832001e7 2.5927050141612124e6 0.0
2.5927050141612124e6 1.811112027129874e7 0.0
0.0 0.0 0.0

95201.22540024202 1.088611905169907e7 0.0
1.088611905169907e7 -5.783592304761354e6 0.0
0.0 0.0 0.0

-843804.0677977391 5.371316935719397e6 0.0
5.371316935719397e6 -2.3247779126427327e6 0.0
0.0 0.0 0.0

-6.271457654718863e6 1.8602550101123948e7 0.0
1.8602550101123948e7 5.886908724689914e6 0.0
0.0 0.0 0.0

-2.6409863190401597e6 1.4952383719047822e7 0.0
1.4952383719047822e7 -2.1914160459569413e6 0.0
0.0 0.0 0.0

1.357265584074026e6 1.1557791952189937e7 0.0
1.1557791952189937e7 -1.1282853981275484e7 0.0
0.0 0.0 0.0

1.8739717063192194e6 8.111169809167543e6 0.0
8.111169809167543e6 -7.51898942799007e6 0.0
0.0 0.0 0.0

-4.837067428208008e6 1.5002592990352938e7 0.0
1.5002592990352938e7 3.2857608926637005e6 0.0
0.0 0.0 0.0

-8.596336513237864e6 1.242186716770267e7 0.0
1.242186716770267e7 1.1239052450705003e7 0.0
0.0 0.0 0.0

-4.575639024811639e6 1.3769544672792826e7 0.0
1.3769544672792826e7 1.0449808149966588e7 0.0
0.0 0.0 0.0

4.208810011869187e6 7.385711168934783e6 0.0
7.385711168934783e6 -1.8241769281254653e7 0.0
0.0 0.0 0.0

-5.332502793428221e6 1.362829431265975e7 0.0
1.362829431265975e7 4.527097523296045e6 0.0
0.0 0.0 0.0

-4.872238040341868e6 1.420912755330476e7 0.0
1.420912755330476e7 3.39172602014618e6 0.0
0.0 0.0 0.0

-6.328734652675518e6 6.397851817399468e6 0.0
6.397851817399468e6 5.434909572301071e6 0.0
0.0 0.0 0.0

-4.91358542302116e6 1.958763361856293e7 0.0
1.958763361856293e7 1.4019253459130754e6 0.0
0.0 0.0 0.0

292132.74775670073 9.794509852908224e6 0.0
9.794509852908224e6 -5.388281266943705e6 0.0
0.0 0.0 0.0

-8.54028423891797e6 1.0149788390851028e7 0.0
1.0149788390851028e7 9.732139878114892e6 0.0
0.0 0.0 0.0

1.8432006772635914e6 7.775009063674953e6 0.0
7.775009063674953e6 -7.241847771582095e6 0.0
0.0 0.0 0.0

-1.1424502752376946e6 6.732818372365279e6 0.0
6.732818372365279e6 -1.0134773552268995e6 0.0
0.0 0.0 0.0

-4.652140948364028e6 1.5183775421564175e7 0.0
1.5183775421564175e7 2.8365649409918943e6 0.0
0.0 0.0 0.0

-4.829948901823119e6 1.5680635904494146e7 0.0
1.5680635904494146e7 3.132228050560229e6 0.0
0.0 0.0 0.0

55818.763725259574 1.0647905851281252e7 0.0
1.0647905851281252e7 -5.432738933107048e6 0.0
0.0 0.0 0.0

1.4412687762677562e6 1.2805629238942632e7 0.0
1.2805629238942632e7 -5.605648477392163e6 0.0
0.0 0.0 0.0

1.6007077392432373e6 1.7420131880015884e7 0.0
1.7420131880015884e7 -5.752637242648948e6 0.0
0.0 0.0 0.0

-4.1292601236600294e6 1.5047301544621732e7 0.0
1.5047301544621732e7 4.177963701130424e6 0.0
0.0 0.0 0.0

-2.4862167632520352e6 1.238952459746208e7 0.0
1.238952459746208e7 -1.5454672018109566e7 0.0
0.0 0.0 0.0

962173.6719987206 8.523101365283284e6 0.0
8.523101365283284e6 -5.971788042536052e6 0.0
0.0 0.0 0.0

-9.701638726366106e6 754538.846927794 0.0
754538.846927794 1.3663160061603233e7 0.0
0.0 0.0 0.0

-874094.587983945 1.43471943082895e7 0.0
1.43471943082895e7 -1.1067730917514958e6 0.0
0.0 0.0 0.0

-2.4184406795694106e6 1.4529120409065234e7 0.0
1.4529120409065234e7 -473108.3213271939 0.0
0.0 0.0 0.0

-5.097653744920695e6 1.3885157643828418e7 0.0
1.3885157643828418e7 3.9121275712357205e6 0.0
0.0 0.0 0.0

-9.398680136513185e6 -1.3570221146871257e6 0.0
-1.3570221146871257e6 1.4466978232792055e7 0.0
0.0 0.0 0.0

-6.560516620179448e6 1.8919435559379082e7 0.0
1.8919435559379082e7 6.17656236626385e6 0.0
0.0 0.0 0.0

-5.146124929957973e6 1.4865943125813548e7 0.0
1.4865943125813548e7 2.2800246070100535e6 0.0
0.0 0.0 0.0

1.592048355594426e6 1.1234807095205378e7 0.0
1.1234807095205378e7 -1.8179051699398006e6 0.0
0.0 0.0 0.0

624786.0409424107 1.1970652649868213e7 0.0
1.1970652649868213e7 2.0826203115406826e6 0.0
0.0 0.0 0.0

-5.584458813258324e6 1.3330823187632274e7 0.0
1.3330823187632274e7 5.175800128482906e6 0.0
0.0 0.0 0.0

-7.28520251360034e6 1.1897782870813943e7 0.0
1.1897782870813943e7 7.191523807231276e6 0.0
0.0 0.0 0.0

2.9650505332477125e6 6.214776386900128e6 0.0
6.214776386900128e6 -8.50269853308797e6 0.0
0.0 0.0 0.0

-3.6212189081894215e6 1.5702856159057695e7 0.0
1.5702856159057695e7 192599.0479135157 0.0
0.0 0.0 0.0

-7.530376413857752e6 8.5885359955026e6 0.0
8.5885359955026e6 1.032510416132858e7 0.0
0.0 0.0 0.0

3.96608345310665e6 5.795317056425997e6 0.0
5.795317056425997e6 -1.1885623048102183e7 0.0
0.0 0.0 0.0

-3.4714607428092323e6 1.4629765179635143e7 0.0
1.4629765179635143e7 -1.3928722660701466e6 0.0
0.0 0.0 0.0

-4.648480226472643e6 1.3586147546117343e7 0.0
1.3586147546117343e7 3.1095985051180855e6 0.0
0.0 0.0 0.0

-358247.49142153386 5.125355327401238e6 0.0
5.125355327401238e6 -3.0045762586810812e6 0.0
0.0 0.0 0.0

1.6376383081551003e6 8.590808764599722e6 0.0
8.590808764599722e6 -9.049170528228123e6 0.0
0.0 0.0 0.0

-1.0397075820428185e7 2.8971554968131177e7 0.0
2.8971554968131177e7 4.918152880541349e6 0.0
0.0 0.0 0.0

5.334246722718805e6 7.496351084452799e6 0.0
7.496351084452799e6 -2.8015131698549636e7 0.0
0.0 0.0 0.0

4.131468678897037e6 6.205494568953077e6 0.0
6.205494568953077e6 -1.3282384075715892e7 0.0
0.0 0.0 0.0

2.06120598366773e6 9.473944990520757e6 0.0
9.473944990520757e6 -9.801586956118122e6 0.0
0.0 0.0 0.0

-3.124667082072898e6 1.4761025408384152e7 0.0
1.4761025408384152e7 2.6236527631568993e6 0.0
0.0 0.0 0.0

1.668752716392354e6 1.089078675666375e7 0.0
1.089078675666375e7 -1.3509328261087283e7 0.0
0.0 0.0 0.0

917450.5097730209 8.186072353903354e6 0.0
8.186072353903354e6 -5.758206475543196e6 0.0
0.0 0.0 0.0

-1.3122424368313781e6 7.763582045632551e6 0.0
7.763582045632551e6 -2.7524251302659158e6 0.0
0.0 0.0 0.0

-232067.74362664763 1.3553415366772443e7 0.0
1.3553415366772443e7 5.250846188889403e6 0.0
0.0 0.0 0.0

-9.500308717935648e6 1.223889950133935e7 0.0
1.223889950133935e7 1.6542302522037946e7 0.0
0.0 0.0 0.0

1.875317974020547e6 1.095294630749831e7 0.0
1.095294630749831e7 6.736594145029086e6 0.0
0.0 0.0 0.0

-7.235407055450007e6 2.025831678219959e7 0.0
2.025831678219959e7 6.113011578937132e6 0.0
0.0 0.0 0.0

-1.1419395732437172e6 1.0831997304253945e7 0.0
1.0831997304253945e7 -4.686929304544029e6 0.0
0.0 0.0 0.0

-1.50323781065536e7 1.3931762629807273e7 0.0
1.3931762629807273e7 4.0102972038817666e6 0.0
0.0 0.0 0.0

-578089.2841625243 1.1694314153079212e7 0.0
1.1694314153079212e7 -4.804103808222334e6 0.0
0.0 0.0 0.0

-4.558075866173633e6 1.3874724498180322e7 0.0
1.3874724498180322e7 2.581843474555985e6 0.0
0.0 0.0 0.0

-215158.22681207117 9.80362608697093e6 0.0
9.80362608697093e6 -4.434011352572489e6 0.0
0.0 0.0 0.0

998171.5655244738 1.1547904164321627e7 0.0
1.1547904164321627e7 -1.3860521203005616e7 0.0
0.0 0.0 0.0

3.687560389020106e6 6.044330931375974e6 0.0
6.044330931375974e6 -1.143585746847843e7 0.0
0.0 0.0 0.0

3.79811135479525e6 8.73482859651888e6 0.0
8.73482859651888e6 -1.692574197810669e7 0.0
0.0 0.0 0.0

-3.467407591312323e6 1.389265369340949e7 0.0
1.389265369340949e7 7.0080768180055395e6 0.0
0.0 0.0 0.0

3.941471179074846e6 7.004839470240475e6 0.0
7.004839470240475e6 -1.2512398613131637e7 0.0
0.0 0.0 0.0

-3.3485036651104167e6 1.4757095990512004e7 0.0
1.4757095990512004e7 -1.6916000206858842e6 0.0
0.0 0.0 0.0

-1.5822556166327053e6 1.3222703419507904e7 0.0
1.3222703419507904e7 -5.665007827214793e6 0.0
0.0 0.0 0.0

-1.4294311966028886e6 9.645348271469055e6 0.0
9.645348271469055e6 -3.4769637642725203e6 0.0
0.0 0.0 0.0

-3.4712197724589524e6 1.0180257290742956e7 0.0
1.0180257290742956e7 -44169.63583200658 0.0
0.0 0.0 0.0

-8.667199721882124e6 1.0526875938794138e7 0.0
1.0526875938794138e7 1.0248843788613996e7 0.0
0.0 0.0 0.0

2.5876103442484317e6 8.039044337326628e6 0.0
8.039044337326628e6 -9.214364518466946e6 0.0
0.0 0.0 0.0

-8.930089963873208e6 2.1463270957223617e7 0.0
2.1463270957223617e7 6.631503059447104e6 0.0
0.0 0.0 0.0

-6.994022240248051e6 1.9114509235681895e7 0.0
1.9114509235681895e7 6.58556459959694e6 0.0
0.0 0.0 0.0

-9.149453514897065e6 1.1319997884012219e7 0.0
1.1319997884012219e7 1.1089581118189955e7 0.0
0.0 0.0 0.0

-1.3549332644788611e6 8.985441759050447e6 0.0
8.985441759050447e6 -4.516444189820318e6 0.0
0.0 0.0 0.0

848185.9506909274 1.1324838716179296e7 0.0
1.1324838716179296e7 -8.655708450311e6 0.0
0.0 0.0 0.0

3.7710527291231113e6 6.880295047315612e6 0.0
6.880295047315612e6 -1.156925361003703e7 0.0
0.0 0.0 0.0

-5.377594326195978e6 1.5839701389415944e7 0.0
1.5839701389415944e7 6.782868220656829e6 0.0
0.0 0.0 0.0

-9.0811185345537e6 4.489616206929014e6 0.0
4.489616206929014e6 1.0063600015366139e7 0.0
0.0 0.0 0.0

-2.6369915916702095e6 1.7652862350186396e7 0.0
1.7652862350186396e7 -1.827493137859278e6 0.0
0.0 0.0 0.0

-1.1907784565399142e7 -2.0445827757132947e6 0.0
-2.0445827757132947e6 3.0842428381763294e7 0.0
0.0 0.0 0.0

-2.2341888924929327e6 1.3104405630266715e7 0.0
1.3104405630266715e7 -3.6077311277988935e6 0.0
0.0 0.0 0.0

-5.610385188684121e6 -3.6672995950896554e6 0.0
-3.6672995950896554e6 9.894723028607737e6 0.0
0.0 0.0 0.0

-1.975820085326889e6 4.980471213467065e6 0.0
4.980471213467065e6 1.1501054635183648e6 0.0
0.0 0.0 0.0

2.9702736992134238e6 5.787332914547578e6 0.0
5.787332914547578e6 -8.443236306082865e6 0.0
0.0 0.0 0.0

-1.2380443846163366e7 7.881049579166274e6 0.0
7.881049579166274e6 1.7807608367189135e7 0.0
0.0 0.0 0.0

3.5052312864936916e6 8.882897442835677e6 0.0
8.882897442835677e6 -1.4548842265339874e7 0.0
0.0 0.0 0.0

-3.186712864218379e6 1.4807822211423505e7 0.0
1.4807822211423505e7 -485841.9124257767 0.0
0.0 0.0 0.0

-5.100995655591561e6 1.4777572710044557e7 0.0
1.4777572710044557e7 3.774943149151704e6 0.0
0.0 0.0 0.0

-1.8196916536994413e6 1.1239570097211253e7 0.0
1.1239570097211253e7 -2.0226916332121256e6 0.0
0.0 0.0 0.0

-5.7727943320219945e6 1.5246910998144852e7 0.0
1.5246910998144852e7 5.353101576869568e6 0.0
0.0 0.0 0.0

1.329659838474825e6 5.70473861151764e6 0.0
5.70473861151764e6 -6.03437132941815e6 0.0
0.0 0.0 0.0

-2.9835049535911563e6 1.275316127218107e7 0.0
1.275316127218107e7 -1.8151878163315514e6 0.0
0.0 0.0 0.0

240414.17258079187 1.789390287889344e7 0.0
1.789390287889344e7 -4.563015898497306e6 0.0
0.0 0.0 0.0

840517.2844854821 7.756591899436571e6 0.0
7.756591899436571e6 -5.651154663884815e6 0.0
0.0 0.0 0.0

-340390.2945044348 1.0929957967334531e7 0.0
1.0929957967334531e7 -4.780327846589943e6 0.0
0.0 0.0 0.0

-1.578037497539299e6 1.5150686046935238e7 0.0
1.5150686046935238e7 -2.1162887899792157e6 0.0
0.0 0.0 0.0

-1.9002004692533212e6 1.0942335467734417e7 0.0
1.0942335467734417e7 -1.6910649885623395e6 0.0
0.0 0.0 0.0

3.593745333264587e6 1.4476651059913224e7 0.0
1.4476651059913224e7 -5.611082457964219e6 0.0
0.0 0.0 0.0

133861.32562608155 4.861728995574744e6 0.0
4.861728995574744e6 -3.686583804817957e6 0.0
0.0 0.0 0.0

4.604255827699642e6 5.811823462628745e6 0.0
5.811823462628745e6 -1.5292326186305312e7 0.0
0.0 0.0 0.0

96190.81850082969 4.46053145873446e6 0.0
4.46053145873446e6 -1.5462263714493741e6 0.0
0.0 0.0 0.0

-790332.8736266425 7.525279603376856e6 0.0
7.525279603376856e6 -3.43845966539275e6 0.0
0.0 0.0 0.0

-1.9934913986698226e6 1.140418605110319e7 0.0
1.140418605110319e7 -3.295301032942068e6 0.0
0.0 0.0 0.0

-2.0264916203383706e6 5.42547449283859e6 0.0
5.42547449283859e6 1.1183707334850924e6 0.0
0.0 0.0 0.0

2.258918450348278e6 6.171855333903258e6 0.0
6.171855333903258e6 -6.994775334658631e6 0.0
0.0 0.0 0.0

235903.07655668538 1.3436526335707873e7 0.0
1.3436526335707873e7 -8.689940533731667e6 0.0
0.0 0.0 0.0

-262687.4756987754 7.29380357195907e6 0.0
7.29380357195907e6 -4.1642747476708735e6 0.0
0.0 0.0 0.0

-9.662255496509189e6 2.681480752523038e7 0.0
2.681480752523038e7 4.533416524764907e6 0.0
0.0 0.0 0.0

1.874774217391613e6 1.341041749263317e7 0.0
1.341041749263317e7 5.221393581298254e6 0.0
0.0 0.0 0.0

170543.14055383508 7.000717847036949e6 0.0
7.000717847036949e6 -4.665736959253299e6 0.0
0.0 0.0 0.0

-4.982614719098057e6 9.402175187565811e6 0.0
9.402175187565811e6 4.734856086057955e6 0.0
0.0 0.0 0.0

1.9112613384528882e6 5.1078235296949465e6 0.0
5.1078235296949465e6 -6.244229521954263e6 0.0
0.0 0.0 0.0

-1.1634662218025215e7 2.8506200906794127e6 0.0
2.8506200906794127e6 1.693550587354863e7 0.0
0.0 0.0 0.0

553326.6480861614 6.684446675488921e6 0.0
6.684446675488921e6 -5.222103885502351e6 0.0
0.0 0.0 0.0

-1.0162084635853121e7 2.1191493464308742e7 0.0
2.1191493464308742e7 8.128665856135168e6 0.0
0.0 0.0 0.0

-2.220339817979937e6 1.787692937642518e7 0.0
1.787692937642518e7 -2.185378378668483e6 0.0
0.0 0.0 0.0

4.067264833576221e6 6.562683752130589e6 0.0
6.562683752130589e6 -1.201096768347398e7 0.0
0.0 0.0 0.0

-1.850433742648014e6 1.349309226535545e7 0.0
1.349309226535545e7 -4.886185267812987e6 0.0
0.0 0.0 0.0

4.119415838799582e6 7.063056108837388e6 0.0
7.063056108837388e6 -1.5818536709548129e7 0.0
0.0 0.0 0.0

-2.42414850433918e6 1.1682659316086873e7 0.0
1.1682659316086873e7 -2.587401889647114e6 0.0
0.0 0.0 0.0

-2.525833636416143e6 1.2258645828110037e7 0.0
1.2258645828110037e7 6.119943518494826e6 0.0
0.0 0.0 0.0

-774189.5308218794 1.80646663627949e7 0.0
1.80646663627949e7 -3.5317546692478033e6 0.0
0.0 0.0 0.0

937610.9909686281 7.53173190023045e6 0.0
7.53173190023045e6 -5.311149640299193e6 0.0
0.0 0.0 0.0

2.214759156957746e6 7.10662740532859e6 0.0
7.10662740532859e6 -7.605837947450466e6 0.0
0.0 0.0 0.0

-196888.97467809438 8.841412121665537e6 0.0
8.841412121665537e6 -3.619892701841816e6 0.0
0.0 0.0 0.0

-7.737040585265065e6 1.9264922153333068e7 0.0
1.9264922153333068e7 6.950131030517705e6 0.0
0.0 0.0 0.0

-2.930844576033982e6 9.977050646231823e6 0.0
9.977050646231823e6 -872334.1919917915 0.0
0.0 0.0 0.0

-2.9283910176802916e6 2.0331952165094066e7 0.0
2.0331952165094066e7 -558495.6463721833 0.0
0.0 0.0 0.0

-1.7054876912189529e6 1.1517544983436067e7 0.0
1.1517544983436067e7 -2.359263469982404e6 0.0
0.0 0.0 0.0

696884.1299324397 1.3801797938634088e7 0.0
1.3801797938634088e7 6.37616224982126e6 0.0
0.0 0.0 0.0

-1.3930377876009855e6 1.4865384673446866e7 0.0
1.4865384673446866e7 -1.5916027188981515e6 0.0
0.0 0.0 0.0

-4.044632116145851e6 1.5825287034031853e7 0.0
1.5825287034031853e7 1.3259764293867925e6 0.0
0.0 0.0 0.0

453534.9213561029 1.2701338998503141e7 0.0
1.2701338998503141e7 -9.0668248824746e6 0.0
0.0 0.0 0.0

1.9276005638292106e6 1.052027704201924e7 0.0
1.052027704201924e7 -1.8021025150248762e7 0.0
0.0 0.0 0.0

-1.0981546045956522e7 1.1013921840087058e7 0.0
1.1013921840087058e7 1.6277480882436136e7 0.0
0.0 0.0 0.0

732698.5081340424 8.727509842073647e6 0.0
8.727509842073647e6 -7.303747435725178e6 0.0
0.0 0.0 0.0

-1.1371394864034705e7 3.092676293285608e6 0.0
3.092676293285608e6 1.5514188641317273e7 0.0
0.0 0.0 0.0

2.908275740597521e6 9.500457548310596e6 0.0
9.500457548310596e6 -1.3332508223968318e7 0.0
0.0 0.0 0.0

-998150.9655752043 9.016831689196324e6 0.0
9.016831689196324e6 -3.872758623489341e6 0.0
0.0 0.0 0.0

2.997842638457698e6 5.076279624160256e6 0.0
5.076279624160256e6 -8.581537034111004e6 0.0
0.0 0.0 0.0

-3.818503739600142e6 1.2214372138033904e7 0.0
1.2214372138033904e7 -12397.617416264955 0.0
0.0 0.0 0.0

-5.316166402464242e6 1.5341801872979853e7 0.0
1.5341801872979853e7 2.5986896285128053e6 0.0
0.0 0.0 0.0

-4.57367411418169e6 1.7987831027724024e7 0.0
1.7987831027724024e7 592417.8410866216 0.0
0.0 0.0 0.0

-2.705470949468159e6 1.22212489544119e7 0.0
1.22212489544119e7 -2.1962155694614546e6 0.0
0.0 0.0 0.0

2.266755326827107e6 5.879509412713301e6 0.0
5.879509412713301e6 -6.722254321045166e6 0.0
0.0 0.0 0.0

-1.599862073495347e6 1.8030542455428272e7 0.0
1.8030542455428272e7 -2.7986094154952033e6 0.0
0.0 0.0 0.0

-7.828844517659471e6 5.233337948235421e6 0.0
5.233337948235421e6 1.1164461068549013e7 0.0
0.0 0.0 0.0

4.48293539121126e6 7.044471405260267e6 0.0
7.044471405260267e6 -1.884744780374945e7 0.0
0.0 0.0 0.0

-2.2453677536001364e6 1.3446102515030984e7 0.0
1.3446102515030984e7 7.401262837642138e6 0.0
0.0 0.0 0.0

-5.916409186097808e6 1.7141353437089656e7 0.0
1.7141353437089656e7 4.889438727370061e6 0.0
0.0 0.0 0.0

-1.246951409762681e6 1.2440049402719209e7 0.0
1.2440049402719209e7 -5.280990534102292e6 0.0
0.0 0.0 0.0

-9.528739895845339e6 1.2445643645128598e7 0.0
1.2445643645128598e7 1.5580904665427357e7 0.0
0.0 0.0 0.0

-1.366068481814823e6 1.2063779571955558e7 0.0
1.2063779571955558e7 -4.553561202252624e6 0.0
0.0 0.0 0.0

-103305.3322840815 9.376809246578177e6 0.0
9.376809246578177e6 -6.0081014565037675e6 0.0
0.0 0.0 0.0

-1.006926547804307e6 1.356974264566645e7 0.0
1.356974264566645e7 5.183956027506274e6 0.0
0.0 0.0 0.0

-8.819219388753846e6 2.5352131846099794e7 0.0
2.5352131846099794e7 4.561056949677874e6 0.0
0.0 0.0 0.0

-1.1563911015573435e6 1.50733512369794e7 0.0
1.50733512369794e7 -3.040216176509613e6 0.0
0.0 0.0 0.0

2.4285246072366852e7 1.2552542469244346e7 0.0
1.2552542469244346e7 -265062.03495325707 0.0
0.0 0.0 0.0

-1.3992858420316365e6 9.969455817586163e6 0.0
9.969455817586163e6 -3.7470437728005718e6 0.0
0.0 0.0 0.0

-3.7138308344518277e6 1.2543285508293698e7 0.0
1.2543285508293698e7 -402530.9994940263 0.0
0.0 0.0 0.0

885920.7532988456 1.0473313186378432e7 0.0
1.0473313186378432e7 -8.6819459204035e6 0.0
0.0 0.0 0.0

-4.618785330556467e6 1.8354773637287185e7 0.0
1.8354773637287185e7 652927.2354033475 0.0
0.0 0.0 0.0

4.58979838052875e6 6.334080678101486e6 0.0
6.334080678101486e6 -1.6713973581419462e7 0.0
0.0 0.0 0.0

571581.4701735852 6.968199516359588e6 0.0
6.968199516359588e6 -5.568527026975445e6 0.0
0.0 0.0 0.0

1.908665808396862e6 8.839958053789215e6 0.0
8.839958053789215e6 -1.0104571987165578e7 0.0
0.0 0.0 0.0

-6.364192544511631e6 1.4634914183664279e7 0.0
1.4634914183664279e7 8.432416462201798e6 0.0
0.0 0.0 0.0

-3.2575336199249276e6 1.3276226648011822e7 0.0
1.3276226648011822e7 -1.4368846073705915e6 0.0
0.0 0.0 0.0

-948661.0615426627 1.058713109280669e7 0.0
1.058713109280669e7 1.882207229091519e6 0.0
0.0 0.0 0.0

-710985.8383403616 9.471786365115864e6 0.0
9.471786365115864e6 -3.22754025311114e6 0.0
0.0 0.0 0.0

-2.294890770077034e6 1.2602006353467744e7 0.0
1.2602006353467744e7 -1.607857308867795e6 0.0
0.0 0.0 0.0

1.4885306743165674e6 1.2015979532507366e7 0.0
1.2015979532507366e7 -4.891338707705466e6 0.0
0.0 0.0 0.0

-7.879870342565822e6 2.4345990230034124e7 0.0
2.4345990230034124e7 4.914342479802408e6 0.0
0.0 0.0 0.0

-2.5643728752738414e6 1.3126272789488837e7 0.0
1.3126272789488837e7 -1.2333746386523652e6 0.0
0.0 0.0 0.0

-600399.3384775708 5.933924094719515e6 0.0
5.933924094719515e6 -1.4739963006298172e6 0.0
0.0 0.0 0.0

1.1543961597039003e7 1.0298119358309558e7 0.0
1.0298119358309558e7 176983.9128381 0.0
0.0 0.0 0.0

3.841241050517031e6 8.557743754706543e6 0.0
8.557743754706543e6 -2.2423080084664512e7 0.0
0.0 0.0 0.0

-4.672379779832777e6 1.5888963418048289e7 0.0
1.5888963418048289e7 2.841490447245814e6 0.0
0.0 0.0 0.0

-1.5609829074760254e6 6.403711236420364e6 0.0
6.403711236420364e6 -65520.69624862145 0.0
0.0 0.0 0.0

-956952.0000774299 9.729006576414747e6 0.0
9.729006576414747e6 -4.3668859787043305e6 0.0
0.0 0.0 0.0

221758.84329742938 8.763912051827531e6 0.0
8.763912051827531e6 -6.339618686218614e6 0.0
0.0 0.0 0.0

-7.304241488202503e6 2.344060907975275e7 0.0
2.344060907975275e7 4.61483822749499e6 0.0
0.0 0.0 0.0

3.3493309354118463e6 8.455576932471676e6 0.0
8.455576932471676e6 -1.527475549330076e7 0.0
0.0 0.0 0.0

-1.0256578772452641e7 832266.5653624879 0.0
832266.5653624879 1.177444248099903e7 0.0
0.0 0.0 0.0

-3.3439100031765974e6 1.498856950277515e7 0.0
1.498856950277515e7 -2.2452940467780656e6 0.0
0.0 0.0 0.0

-2.0314755419391263e6 6.082552637824727e6 0.0
6.082552637824727e6 980923.385991931 0.0
0.0 0.0 0.0

-1.936075905472952e6 1.2621728024938831e7 0.0
1.2621728024938831e7 -3.986183155071179e6 0.0
0.0 0.0 0.0

-3.7980670292958594e6 1.3307315565351889e7 0.0
1.3307315565351889e7 -338129.04721130023 0.0
0.0 0.0 0.0

953148.548819162 1.1387849957061134e7 0.0
1.1387849957061134e7 -1.116466757118909e7 0.0
0.0 0.0 0.0

-7.000363479666149e6 2.2696622966601446e7 0.0
2.2696622966601446e7 4.701408250619199e6 0.0
0.0 0.0 0.0

-6.2857292648578305e6 1.5127980019407501e7 0.0
1.5127980019407501e7 8.066361709583504e6 0.0
0.0 0.0 0.0

-2.8180965729738204e6 1.3638370912283236e7 0.0
1.3638370912283236e7 -876597.1419549068 0.0
0.0 0.0 0.0

4.347258218705999e6 6.7042097257872885e6 0.0
6.7042097257872885e6 -1.630472018104897e7 0.0
0.0 0.0 0.0

-1.575811563490576e6 7.4591904752277285e6 0.0
7.4591904752277285e6 -631180.2565270715 0.0
0.0 0.0 0.0

-6.495093788174758e6 2.2087161537473127e7 0.0
2.2087161537473127e7 4.844524501768125e6 0.0
0.0 0.0 0.0

4.694884768713269e6 7.904572173937853e6 0.0
7.904572173937853e6 -2.287917957060652e7 0.0
0.0 0.0 0.0

-5.949022299141135e6 2.1540157086486094e7 0.0
2.1540157086486094e7 4.723369650403684e6 0.0
0.0 0.0 0.0

-5.69668818558526e6 2.1025717183301162e7 0.0
2.1025717183301162e7 4.476089817128615e6 0.0
0.0 0.0 0.0

-5.021551282622736e6 1.7170129824154675e7 0.0
1.7170129824154675e7 2.2767444090280505e6 0.0
0.0 0.0 0.0

-5.108158512260617e6 1.7536725584232274e7 0.0
1.7536725584232274e7 2.5833598391826735e6 0.0
0.0 0.0 0.0

-5.187063972433155e6 1.790567217617965e7 0.0
1.790567217617965e7 2.8567247265104353e6 0.0
0.0 0.0 0.0

-5.244541295292171e6 1.8247163043616615e7 0.0
1.8247163043616615e7 3.0821635686479714e6 0.0
0.0 0.0 0.0

-5.353003082517748e6 1.856290002065297e7 0.0
1.856290002065297e7 3.3518066039100713e6 0.0
0.0 0.0 0.0

-5.437156418831989e6 1.891071712895303e7 0.0
1.891071712895303e7 3.5136317470941395e6 0.0
0.0 0.0 0.0

-4.6697141967189405e6 9.040800054903826e6 0.0
9.040800054903826e6 2.1774001132229776e6 0.0
0.0 0.0 0.0

-5.581944132356154e6 1.924686559844469e7 0.0
1.924686559844469e7 3.7885195200940785e6 0.0
0.0 0.0 0.0

-5.837558052563529e6 1.962695906065603e7 0.0
1.962695906065603e7 3.929236515056815e6 0.0
0.0 0.0 0.0

-8.165815462126623e6 9.913259738907013e6 0.0
9.913259738907013e6 1.1243457730116207e7 0.0
0.0 0.0 0.0

-5.594535763739951e6 2.0606457092778694e7 0.0
2.0606457092778694e7 4.4672116198387975e6 0.0
0.0 0.0 0.0

-6.059989969181019e6 1.99686008801877e7 0.0
1.99686008801877e7 4.0130629236074043e6 0.0
0.0 0.0 0.0

-6.185540098230822e6 2.0398394634936906e7 0.0
2.0398394634936906e7 4.1417269041394573e6 0.0
0.0 0.0 0.0

-5.4460809789240975e6 2.0215787575967293e7 0.0
2.0215787575967293e7 4.399845465270839e6 0.0
0.0 0.0 0.0

-1.3965601808889704e6 1.0954521948239556e7 0.0
1.0954521948239556e7 -2.7310594938153494e6 0.0
0.0 0.0 0.0

-6.447860255495123e6 2.082292641788625e7 0.0
2.082292641788625e7 4.158447434268145e6 0.0
0.0 0.0 0.0

-5.463102169829698e6 1.9820860015785404e7 0.0
1.9820860015785404e7 4.210387223666806e6 0.0
0.0 0.0 0.0

-5.181850814126484e6 1.947990573268016e7 0.0
1.947990573268016e7 4.0937406756733763e6 0.0
0.0 0.0 0.0

-5.073896836583776e6 1.917258534838514e7 0.0
1.917258534838514e7 3.9043355362838646e6 0.0
0.0 0.0 0.0

-5.022621580713337e6 1.8787148774348486e7 0.0
1.8787148774348486e7 3.70200084482304e6 0.0
0.0 0.0 0.0

-4.9077256481660325e6 1.8481575891369928e7 0.0
1.8481575891369928e7 3.4618334096917096e6 0.0
0.0 0.0 0.0

-4.856645143422001e6 1.813683873756717e7 0.0
1.813683873756717e7 3.2423957584345643e6 0.0
0.0 0.0 0.0

-4.750665734197956e6 1.7798821273092225e7 0.0
1.7798821273092225e7 3.004849589679313e6 0.0
0.0 0.0 0.0

-4.627761202917099e6 1.744115950744583e7 0.0
1.744115950744583e7 2.7167981057827566e6 0.0
0.0 0.0 0.0

-3.8042640454273107e6 1.4921306370310936e7 0.0
1.4921306370310936e7 -628119.3382356352 0.0
0.0 0.0 0.0

-1.068331657856353e7 1.1326085490822157e7 0.0
1.1326085490822157e7 1.5451322824225307e7 0.0
0.0 0.0 0.0

-6.9205501073582545e6 2.1222007232962385e7 0.0
2.1222007232962385e7 4.225408936800703e6 0.0
0.0 0.0 0.0

3.15360740481924e6 7.293545046630855e6 0.0
7.293545046630855e6 -1.2040719699890755e7 0.0
0.0 0.0 0.0

-4.477219327801175e6 1.4713743230822839e7 0.0
1.4713743230822839e7 2.530305172943674e6 0.0
0.0 0.0 0.0

-7.629685273828227e6 2.180107125771852e7 0.0
2.180107125771852e7 4.396673868403637e6 0.0
0.0 0.0 0.0

-7.267898670595772e6 6.328319269428626e6 0.0
6.328319269428626e6 1.015023785372889e7 0.0
0.0 0.0 0.0

-8.456181270500505e6 2.246401414802912e7 0.0
2.246401414802912e7 4.354212690688139e6 0.0
0.0 0.0 0.0

-9.361398171282021e6 4.195402417043571e6 0.0
4.195402417043571e6 1.3087222719981795e7 0.0
0.0 0.0 0.0

-9.311945224209802e6 2.312609681273816e7 0.0
2.312609681273816e7 4.1457639312367844e6 0.0
0.0 0.0 0.0

-506102.9444015473 1.2954013460206022e7 0.0
1.2954013460206022e7 -8.750002465071013e6 0.0
0.0 0.0 0.0

2.4409086340163485e6 8.622928093484772e6 0.0
8.622928093484772e6 -9.762804391302455e6 0.0
0.0 0.0 0.0

1.9645744245337714e6 1.0567124165760627e7 0.0
1.0567124165760627e7 -1.7108111733140495e7 0.0
0.0 0.0 0.0

-2.963034135967798e6 1.341993331222407e7 0.0
1.341993331222407e7 -503695.77423960203 0.0
0.0 0.0 0.0

-1.0274449222972351e6 1.1094690318937182e7 0.0
1.1094690318937182e7 -5.019309384049814e6 0.0
0.0 0.0 0.0

-3.094750423224417e6 1.431940190983062e7 0.0
1.431940190983062e7 -2.151977844797533e6 0.0
0.0 0.0 0.0

-479116.80967051117 1.3094314351060092e7 0.0
1.3094314351060092e7 -8.95436209497364e6 0.0
0.0 0.0 0.0

5.046649950545045e6 4.842118721325733e6 0.0
4.842118721325733e6 -1.3926317218077768e7 0.0
0.0 0.0 0.0

-2.3817514892493854e6 8.820370621583432e6 0.0
8.820370621583432e6 248250.04622504662 0.0
0.0 0.0 0.0

-1.0346767379724141e7 2.3846491066508546e7 0.0
2.3846491066508546e7 4.1327692898689355e6 0.0
0.0 0.0 0.0

1.9326878837646963e6 8.995065122183844e6 0.0
8.995065122183844e6 -8.406885341869712e6 0.0
0.0 0.0 0.0

-1.1170816972186036e7 4.172612692255574e6 0.0
4.172612692255574e6 1.5159882807516221e7 0.0
0.0 0.0 0.0

-2.0001815832440017e6 1.2068161409581842e7 0.0
1.2068161409581842e7 -1.9931171336834193e6 0.0
0.0 0.0 0.0

-4.9669806979753785e6 1.866897801559132e7 0.0
1.866897801559132e7 2.6548105616840017e6 0.0
0.0 0.0 0.0

3.4776694947871286e6 6.992580049585222e6 0.0
6.992580049585222e6 -1.259532046487527e7 0.0
0.0 0.0 0.0

-1.1711949634362036e7 2.1100684501130447e7 0.0
2.1100684501130447e7 8.67898046476237e6 0.0
0.0 0.0 0.0

-5.8376843091062885e6 1.0094948557521414e7 0.0
1.0094948557521414e7 3.8393041746660396e6 0.0
0.0 0.0 0.0

-1.0680952315139495e7 1.6336147905480271e7 0.0
1.6336147905480271e7 5.385344750809001e6 0.0
0.0 0.0 0.0

-442859.2003143709 1.3147050912920058e7 0.0
1.3147050912920058e7 3.9838515018188497e6 0.0
0.0 0.0 0.0

-1.2126523357871572e7 2.5021800034864146e7 0.0
2.5021800034864146e7 4.044178789718004e6 0.0
0.0 0.0 0.0

2.91677351359044e6 9.113663402606582e6 0.0
9.113663402606582e6 -1.4910119526056703e7 0.0
0.0 0.0 0.0

-4.270075674288832e6 9.969198652131332e6 0.0
9.969198652131332e6 1.2960679185616376e6 0.0
0.0 0.0 0.0

230165.73023793582 9.372129761205317e6 0.0
9.372129761205317e6 767219.3158568774 0.0
0.0 0.0 0.0

2.6053048273361437e6 7.656861553784093e6 0.0
7.656861553784093e6 -1.0660011138195792e7 0.0
0.0 0.0 0.0

83137.64663293054 1.1648964890774062e7 0.0
1.1648964890774062e7 670861.8400303856 0.0
0.0 0.0 0.0

2.8579852876500655e6 7.62338691101972e6 0.0
7.62338691101972e6 -1.1484326711076375e7 0.0
0.0 0.0 0.0

-453824.6360101935 1.1650034351474691e7 0.0
1.1650034351474691e7 -2.503517492827079e6 0.0
0.0 0.0 0.0

-3.3739222739775036e6 1.3689394213649994e7 0.0
1.3689394213649994e7 246170.75940232677 0.0
0.0 0.0 0.0

-3.51058881660239e6 1.3775596934822077e7 0.0
1.3775596934822077e7 -1.0610954520341193e6 0.0
0.0 0.0 0.0

1.9922532489708546e6 7.660584208446321e6 0.0
7.660584208446321e6 -9.032651024674578e6 0.0
0.0 0.0 0.0

7.903418595254827e6 1.5015734247457622e7 0.0
1.5015734247457622e7 5.870634244567662e6 0.0
0.0 0.0 0.0

1.5364024853251008e6 9.575710666268403e6 0.0
9.575710666268403e6 -8.107442225063927e6 0.0
0.0 0.0 0.0

-739299.6609370174 1.1218156326118922e7 0.0
1.1218156326118922e7 -4.0926124415580006e6 0.0
0.0 0.0 0.0

-4.327426405926249e6 1.4886292818213532e7 0.0
1.4886292818213532e7 3.5065461271149665e6 0.0
0.0 0.0 0.0

518420.5577962436 8.885043646272402e6 0.0
8.885043646272402e6 -5.430755517616873e6 0.0
0.0 0.0 0.0

-6.267879170085557e6 1.553984054732523e7 0.0
1.553984054732523e7 7.653713972535564e6 0.0
0.0 0.0 0.0

-317212.660329639 1.3588911517426383e7 0.0
1.3588911517426383e7 6.651963288583074e6 0.0
0.0 0.0 0.0

-5.986635513906373e6 8.152070745676196e6 0.0
8.152070745676196e6 7.082807726342403e6 0.0
0.0 0.0 0.0

-1.4552901492620584e7 2.617612555019986e7 0.0
2.617612555019986e7 3.5424421063718023e6 0.0
0.0 0.0 0.0

-6.433843947887949e6 1.3559810748349525e7 0.0
1.3559810748349525e7 1.826341071440611e7 0.0
0.0 0.0 0.0

-2.710022434802227e6 1.0789618299350485e7 0.0
1.0789618299350485e7 -1.5897156630751283e6 0.0
0.0 0.0 0.0

4.321831799054006e6 1.2251292191806154e7 0.0
1.2251292191806154e7 -1.4166127452466148e6 0.0
0.0 0.0 0.0

3.9920934528280804e6 6.783280715530737e6 0.0
6.783280715530737e6 -1.3885548306929046e7 0.0
0.0 0.0 0.0

3.015573486507034e6 9.322165218566235e6 0.0
9.322165218566235e6 -1.6653376076568121e7 0.0
0.0 0.0 0.0

-7.00214174111736e6 1.2425760337560477e7 0.0
1.2425760337560477e7 6.576886766792457e6 0.0
0.0 0.0 0.0

-7.398870100574681e6 1.7953822916404262e7 0.0
1.7953822916404262e7 2.818980462318387e6 0.0
0.0 0.0 0.0

-3.0852822954056473e6 1.2047920466707734e7 0.0
1.2047920466707734e7 222031.98522245372 0.0
0.0 0.0 0.0

-478918.78794629266 1.1470231679608794e7 0.0
1.1470231679608794e7 -6.614255823173472e6 0.0
0.0 0.0 0.0

-1.2769385035609353e7 1.965192991344359e7 0.0
1.965192991344359e7 9.995530806231946e6 0.0
0.0 0.0 0.0

1.8485242216825825e6 9.111637867145503e6 0.0
9.111637867145503e6 -1.0393846820747288e7 0.0
0.0 0.0 0.0

-3.401326746296775e6 1.2624547667794269e7 0.0
1.2624547667794269e7 624715.2906878185 0.0
0.0 0.0 0.0

-1.620257063033345e6 6.939368106726734e6 0.0
6.939368106726734e6 -320362.0370079173 0.0
0.0 0.0 0.0

-5.661538384284198e6 1.2244192770272164e7 0.0
1.2244192770272164e7 5.5031798843290815e6 0.0
0.0 0.0 0.0

-1.9932882731067225e7 3.53556479283977e7 0.0
3.53556479283977e7 -559033.8443037849 0.0
0.0 0.0 0.0

-5.872983961370602e6 8.949695488804717e6 0.0
8.949695488804717e6 6.525571824107804e6 0.0
0.0 0.0 0.0

-921531.5145786921 5.9705202589295935e6 0.0
5.9705202589295935e6 -2.551147681778474e6 0.0
0.0 0.0 0.0

-3.4470014546014853e6 1.443175282145616e7 0.0
1.443175282145616e7 251172.89709470212 0.0
0.0 0.0 0.0

-5.497283421740049e6 1.434989085315397e7 0.0
1.434989085315397e7 3.2066262715714118e6 0.0
0.0 0.0 0.0

-1.523323099828855e6 1.31392758443295e7 0.0
1.31392758443295e7 -3.770026362077757e6 0.0
0.0 0.0 0.0

-3.8974864447894273e6 1.4071273580923188e7 0.0
1.4071273580923188e7 -305199.5736905916 0.0
0.0 0.0 0.0

-2.3655791909400146e6 4.239218399458806e6 0.0
4.239218399458806e6 1.2525477311025439e6 0.0
0.0 0.0 0.0

1.1512261597917678e6 1.0857698111696247e7 0.0
1.0857698111696247e7 -4.571794389937853e6 0.0
0.0 0.0 0.0

-5.74477298919982e6 1.4923453047316628e7 0.0
1.4923453047316628e7 3.5820481208500476e6 0.0
0.0 0.0 0.0

1.1557609536771136e6 8.35883599626231e6 0.0
8.35883599626231e6 -7.904074243740932e6 0.0
0.0 0.0 0.0

1.3288283524788606e6 1.1138668411294e7 0.0
1.1138668411294e7 -4.101155741029465e6 0.0
0.0 0.0 0.0

-1.0876256233795667e7 1.5411692242476579e7 0.0
1.5411692242476579e7 3.4467136561374897e6 0.0
0.0 0.0 0.0

-5.559766981926134e6 9.599368334839083e6 0.0
9.599368334839083e6 5.925410604331445e6 0.0
0.0 0.0 0.0

-159062.47096692026 1.2670409967378836e7 0.0
1.2670409967378836e7 -9.472038468346125e6 0.0
0.0 0.0 0.0

-6.183703704960547e6 1.54239077782197e7 0.0
1.54239077782197e7 5.069031227159511e6 0.0
0.0 0.0 0.0

3.66244523504653e6 4.406353555733969e6 0.0
4.406353555733969e6 -9.807943594601106e6 0.0
0.0 0.0 0.0

74034.03131551645 2.6513138182280967e6 0.0
2.6513138182280967e6 -2.308267150241233e6 0.0
0.0 0.0 0.0

649429.5599961494 3.0123890766664045e6 0.0
3.0123890766664045e6 -2.886698054143623e6 0.0
0.0 0.0 0.0

-4.292678287430653e6 -4.594133966318199e6 0.0
-4.594133966318199e6 6.956573572039226e6 0.0
0.0 0.0 0.0

891196.3678124663 3.359438258283417e6 0.0
3.359438258283417e6 -3.444091762057733e6 0.0
0.0 0.0 0.0

-5.672474519811387e6 -2.6587073245567656e6 0.0
-2.6587073245567656e6 6.728255458915003e6 0.0
0.0 0.0 0.0

3.3583488520837333e6 4.554638977877183e6 0.0
4.554638977877183e6 -8.46429904463639e6 0.0
0.0 0.0 0.0

-745540.5531333216 1.5126540672738873e6 0.0
1.5126540672738873e6 -226108.0351813388 0.0
0.0 0.0 0.0

-3.152857625108053e6 416115.6363807574 0.0
416115.6363807574 3.335454985608513e6 0.0
0.0 0.0 0.0

1.335784384338819e6 3.675718987199497e6 0.0
3.675718987199497e6 -4.46051823317338e6 0.0
0.0 0.0 0.0

-4.583377031390795e6 -1.4304737004909397e6 0.0
-1.4304737004909397e6 4.402552442295207e6 0.0
0.0 0.0 0.0

2.7130699915411784e6 4.639211409911604e6 0.0
4.639211409911604e6 -7.179198958934087e6 0.0
0.0 0.0 0.0

1.8938997435541837e6 4.318504554888538e6 0.0
4.318504554888538e6 -5.859603745785814e6 0.0
0.0 0.0 0.0

-42878.57646010164 2.246773846748852e6 0.0
2.246773846748852e6 -1.902385894472376e6 0.0
0.0 0.0 0.0

4.806705319834388e6 5.029271312819844e6 0.0
5.029271312819844e6 -1.300420099147685e7 0.0
0.0 0.0 0.0

5.01113273108859e6 4.853682552008811e6 0.0
4.853682552008811e6 -1.3712920605872206e7 0.0
0.0 0.0 0.0

4.711508846213773e6 5.163568397307321e6 0.0
5.163568397307321e6 -1.2553097854632448e7 0.0
0.0 0.0 0.0

4.532959618051737e6 4.918725743589146e6 0.0
4.918725743589146e6 -1.1883821946922462e7 0.0
0.0 0.0 0.0

-682402.1535706499 1.8614033605940943e6 0.0
1.8614033605940943e6 -904272.4831848855 0.0
0.0 0.0 0.0

-5.187230993404158e6 -2.220900100264848e6 0.0
-2.220900100264848e6 5.502559092708319e6 0.0
0.0 0.0 0.0

4.916864144543929e6 4.967470930991671e6 0.0
4.967470930991671e6 -1.3373931599483166e7 0.0
0.0 0.0 0.0

3.9532925346826343e6 4.557218498301301e6 0.0
4.557218498301301e6 -1.0763052884616923e7 0.0
0.0 0.0 0.0

4.1759992609746726e6 4.67930676662501e6 0.0
4.67930676662501e6 -1.131883646881757e7 0.0
0.0 0.0 0.0

3.993879788786564e6 4.540277393000055e6 0.0
4.540277393000055e6 -1.044074797471074e7 0.0
0.0 0.0 0.0

475166.6654052972 1.1644266284502884e7 0.0
1.1644266284502884e7 -8.044557634084347e6 0.0
0.0 0.0 0.0

-6.785746039297885e6 7.288322251540415e6 0.0
7.288322251540415e6 9.225746597005881e6 0.0
0.0 0.0 0.0

-1.1678642970217032e7 2.160154119635339e6 0.0
2.160154119635339e6 1.4345451101772944e7 0.0
0.0 0.0 0.0

-6.17294516525492e6 1.600682808971222e7 0.0
1.600682808971222e7 7.345387413795343e6 0.0
0.0 0.0 0.0

935091.1152649298 1.1684166191657428e7 0.0
1.1684166191657428e7 -1.3207033307308713e7 0.0
0.0 0.0 0.0

-5.053514360208532e6 1.2521060526959358e7 0.0
1.2521060526959358e7 2.0478932551040903e6 0.0
0.0 0.0 0.0

-1.788959951298187e7 2.788551253277583e7 0.0
2.788551253277583e7 3.249868764332272e6 0.0
0.0 0.0 0.0

-3.065608680661413e6 1.1386432607480135e7 0.0
1.1386432607480135e7 -1.1849588657310717e6 0.0
0.0 0.0 0.0

-2.250189808745914e6 1.31527040688356e7 0.0
1.31527040688356e7 -3.6425757936113984e6 0.0
0.0 0.0 0.0

1.2688607940323346e6 1.369056756778325e7 0.0
1.369056756778325e7 4.775636798924035e6 0.0
0.0 0.0 0.0

-2.927947525024974e6 1.3841496968081683e7 0.0
1.3841496968081683e7 3.279794681820807e6 0.0
0.0 0.0 0.0

-5.856771295061818e6 1.2975401547252052e7 0.0
1.2975401547252052e7 5.807036991989186e6 0.0
0.0 0.0 0.0

-7501.736522886436 1.376062909361669e7 0.0
1.376062909361669e7 -8.057212858099841e6 0.0
0.0 0.0 0.0

-5.9061300143500995e6 1.1838633799010195e7 0.0
1.1838633799010195e7 6.130178770770127e6 0.0
0.0 0.0 0.0

-4.217348217589005e6 1.438396465704317e7 0.0
1.438396465704317e7 381838.12549411575 0.0
0.0 0.0 0.0

-3.1058994074096736e6 1.3492134543605054e7 0.0
1.3492134543605054e7 -1.8008024007632448e6 0.0
0.0 0.0 0.0

-5.429955239312038e6 9.235334812418107e6 0.0
9.235334812418107e6 3.3137659945970713e6 0.0
0.0 0.0 0.0

-620110.0566213557 1.0815651154958703e7 0.0
1.0815651154958703e7 -5.681741621393004e6 0.0
0.0 0.0 0.0

-3.200396830976868e6 1.170107381276791e7 0.0
1.170107381276791e7 625438.2371958988 0.0
0.0 0.0 0.0

1.5856280721358121e6 8.011917598451625e6 0.0
8.011917598451625e6 -8.468629167142794e6 0.0
0.0 0.0 0.0

302331.58346793486 2.4737862798951245e6 0.0
2.4737862798951245e6 -999936.4408088838 0.0
0.0 0.0 0.0

547590.7814386408 2.946426653603671e6 0.0
2.946426653603671e6 -1.7399224819517378e6 0.0
0.0 0.0 0.0

-4.2411419233990945e6 -1.6299982989534389e6 0.0
-1.6299982989534389e6 6.762822816109486e6 0.0
0.0 0.0 0.0

-74305.68856757454 2.229299081403566e6 0.0
2.229299081403566e6 -266907.15002855996 0.0
0.0 0.0 0.0

-468707.49710050743 1.6874681565949032e6 0.0
1.6874681565949032e6 210572.8166799174 0.0
0.0 0.0 0.0

4.78556268747161e6 5.016767143478264e6 0.0
5.016767143478264e6 -1.3110547088930922e7 0.0
0.0 0.0 0.0

4.851117633838919e6 4.920138306828068e6 0.0
4.920138306828068e6 -1.3377381703873627e7 0.0
0.0 0.0 0.0

-5.198201929357665e6 -2.285512135551222e6 0.0
-2.285512135551222e6 8.461974672947638e6 0.0
0.0 0.0 0.0

4.46503978815783e6 4.876717836990115e6 0.0
4.876717836990115e6 -1.1118475667541698e7 0.0
0.0 0.0 0.0

4.005074184605418e6 4.58967396589907e6 0.0
4.58967396589907e6 -9.726177189590614e6 0.0
0.0 0.0 0.0

4.196178013560261e6 4.690821418280919e6 0.0
4.690821418280919e6 -1.0573607016762886e7 0.0
0.0 0.0 0.0

4.004735831589712e6 4.574136649166453e6 0.0
4.574136649166453e6 -1.0167645070501337e7 0.0
0.0 0.0 0.0

-3.3106091525447993e6 1.0634133984692749e7 0.0
1.0634133984692749e7 -457005.26976133336 0.0
0.0 0.0 0.0

-1.0389516489478327e7 1.1675982892382855e7 0.0
1.1675982892382855e7 1.457122432177763e7 0.0
0.0 0.0 0.0

-6.5731502846868085e6 1.1579383034799866e7 0.0
1.1579383034799866e7 7.711275950588024e6 0.0
0.0 0.0 0.0

4.1501131802192144e6 6.300151366941365e6 0.0
6.300151366941365e6 -1.2020082063750662e7 0.0
0.0 0.0 0.0

-3.7033291191873485e6 1.5805064065998744e7 0.0
1.5805064065998744e7 -1.0231356050711118e6 0.0
0.0 0.0 0.0

-4.419932352948539e6 1.4163987592055807e7 0.0
1.4163987592055807e7 8.979430478937078e6 0.0
0.0 0.0 0.0

-1.020084077561912e7 7.5484042182496665e6 0.0
7.5484042182496665e6 1.1921337724798542e7 0.0
0.0 0.0 0.0

2.3191503481902736e6 7.964170841661525e6 0.0
7.964170841661525e6 -1.010365064487107e7 0.0
0.0 0.0 0.0

1.809658540864083e6 9.363537751116551e6 0.0
9.363537751116551e6 -1.0633783477484887e7 0.0
0.0 0.0 0.0

-2.853771511760747e6 1.2991149766067928e7 0.0
1.2991149766067928e7 -2.165403203886974e6 0.0
0.0 0.0 0.0

-5.748023684452133e6 1.4012310079931894e7 0.0
1.4012310079931894e7 1.0435490132705895e7 0.0
0.0 0.0 0.0

-1.990208613967829e6 8.146759333753735e6 0.0
8.146759333753735e6 -198023.1613502971 0.0
0.0 0.0 0.0

-1.853315831643635e6 1.3457416122262487e7 0.0
1.3457416122262487e7 -3.051015141454705e6 0.0
0.0 0.0 0.0

-4.1832001656268276e6 1.569815229383835e7 0.0
1.569815229383835e7 1.7631069373772698e6 0.0
0.0 0.0 0.0

1.1085684914119109e6 1.010549756317299e7 0.0
1.010549756317299e7 -7.918466691974802e6 0.0
0.0 0.0 0.0

-3.2156280682443697e6 1.3932525259987101e7 0.0
1.3932525259987101e7 -118608.90129837918 0.0
0.0 0.0 0.0

365232.55222982145 2.265615090383834e6 0.0
2.265615090383834e6 2.945720967262483e6 0.0
0.0 0.0 0.0

-5.78282021729444e6 1.3910249624929558e7 0.0
1.3910249624929558e7 1.016315972821242e7 0.0
0.0 0.0 0.0

3.734669369198827e6 8.64847777663832e6 0.0
8.64847777663832e6 -1.8671164109585915e7 0.0
0.0 0.0 0.0

3.0196241345120724e6 9.185841509995695e6 0.0
9.185841509995695e6 -1.5816585751817465e7 0.0
0.0 0.0 0.0

-1.5459482057053016e6 1.297793003288646e7 0.0
1.297793003288646e7 -3.4158073952678493e6 0.0
0.0 0.0 0.0

-6.792259113328474e6 1.5632498924180614e7 0.0
1.5632498924180614e7 4.0106894206817998e6 0.0
0.0 0.0 0.0

2.6023931304926756e6 6.100728635611718e6 0.0
6.100728635611718e6 -7.782069458870493e6 0.0
0.0 0.0 0.0

-2.7551375718647903e6 1.1461229123319812e7 0.0
1.1461229123319812e7 -167281.74420437228 0.0
0.0 0.0 0.0

-3.6699444399845283e6 1.3566383996785969e7 0.0
1.3566383996785969e7 -682296.7559321355 0.0
0.0 0.0 0.0

-3.0581286842575567e6 1.4141309510884503e7 0.0
1.4141309510884503e7 -496236.71560337127 0.0
0.0 0.0 0.0

1.12638983345378e6 1.1637736825908585e7 0.0
1.1637736825908585e7 -1.4020939004107859e7 0.0
0.0 0.0 0.0

2.403199412933667e6 9.357763944902297e6 0.0
9.357763944902297e6 -1.3403002001317903e7 0.0
0.0 0.0 0.0

-2.8090008154760245e6 8.341233171205685e6 0.0
8.341233171205685e6 -456293.50451658596 0.0
0.0 0.0 0.0

-6.7020775469937995e6 1.2113384158730429e7 0.0
1.2113384158730429e7 5.707932931915633e6 0.0
0.0 0.0 0.0

1.7986223836309789e6 1.0976084504211335e7 0.0
1.0976084504211335e7 -1.4386326327404084e7 0.0
0.0 0.0 0.0

-2.7357676627105842e6 1.467977897012156e7 0.0
1.467977897012156e7 -1.5932755116431057e6 0.0
0.0 0.0 0.0

2.287984095313374e6 4.452042758762217e6 0.0
4.452042758762217e6 -6.507205560065912e6 0.0
0.0 0.0 0.0

-3.6760849788668826e6 2.0058947454642467e7 0.0
2.0058947454642467e7 218916.3554049735 0.0
0.0 0.0 0.0

2.181234124143106e6 6.473725907036967e6 0.0
6.473725907036967e6 -7.248265578099887e6 0.0
0.0 0.0 0.0

-1.0539986308162767e6 1.0376506872007515e7 0.0
1.0376506872007515e7 -3.112644102305363e6 0.0
0.0 0.0 0.0

-7.133007450357815e6 1.425415378246553e7 0.0
1.425415378246553e7 7.9064140569955725e6 0.0
0.0 0.0 0.0

-2.0938042533424387e6 9.763534994306974e6 0.0
9.763534994306974e6 -566389.4451726892 0.0
0.0 0.0 0.0

-2.619585970559156e6 1.110901690227098e7 0.0
1.110901690227098e7 -1.9241985006400496e6 0.0
0.0 0.0 0.0

-4.06525014972373e6 1.3837439520393288e7 0.0
1.3837439520393288e7 67783.15516314493 0.0
0.0 0.0 0.0

-2.366325691057716e6 7.660919173844689e6 0.0
7.660919173844689e6 -911413.0277400407 0.0
0.0 0.0 0.0

-1.8348808876645025e6 3.7091572651744843e6 0.0
3.7091572651744843e6 1.1683437121896571e6 0.0
0.0 0.0 0.0

-5.406126279531385e6 1.1473495126393436e7 0.0
1.1473495126393436e7 5.130776574538827e6 0.0
0.0 0.0 0.0

-4.668450310095933e6 1.2616976920642354e7 0.0
1.2616976920642354e7 3.3215441209661486e6 0.0
0.0 0.0 0.0

838970.1313847813 6.313998250138044e6 0.0
6.313998250138044e6 -5.698540817673008e6 0.0
0.0 0.0 0.0

-5.390939422277341e6 1.0232661522895865e7 0.0
1.0232661522895865e7 5.286990592259348e6 0.0
0.0 0.0 0.0

-3.736406475276754e6 1.4277717999952e7 0.0
1.4277717999952e7 -672546.6312955676 0.0
0.0 0.0 0.0

3.883838075255039e6 7.854297706243719e6 0.0
7.854297706243719e6 -1.3781622930783104e7 0.0
0.0 0.0 0.0

-5.111321575557387e6 1.5740514531683717e7 0.0
1.5740514531683717e7 3.4336946450276845e6 0.0
0.0 0.0 0.0

-2.5826426480325414e6 1.2470697575361192e7 0.0
1.2470697575361192e7 -2.5339244213217422e6 0.0
0.0 0.0 0.0

2.138849307183848e6 4.474079052518175e6 0.0
4.474079052518175e6 -5.458557428972873e6 0.0
0.0 0.0 0.0

-6.197799129391489e6 1.7087319020596027e7 0.0
1.7087319020596027e7 6.408386825104229e6 0.0
0.0 0.0 0.0

-7.50749532179156e6 5.544113390812052e6 0.0
5.544113390812052e6 7.824794464371367e6 0.0
0.0 0.0 0.0

-2.840741592233554e6 1.1968645900040071e7 0.0
1.1968645900040071e7 -1.8706119256892814e6 0.0
0.0 0.0 0.0

-3.5368931685567973e6 1.5079315900877278e7 0.0
1.5079315900877278e7 216479.2298420656 0.0
0.0 0.0 0.0

-4.655022984107535e6 1.5371487477057118e7 0.0
1.5371487477057118e7 1.1955169736367327e6 0.0
0.0 0.0 0.0

-3.350611927578208e6 1.3983332145224316e7 0.0
1.3983332145224316e7 -1.4293427513335655e6 0.0
0.0 0.0 0.0

-3.775295741864702e6 1.3964820178458126e7 0.0
1.3964820178458126e7 999726.8856273983 0.0
0.0 0.0 0.0

2.849469292821708e6 4.609468292100313e6 0.0
4.609468292100313e6 -7.4942279106309805e6 0.0
0.0 0.0 0.0

-4.309162542336655e6 1.689024079884191e7 0.0
1.689024079884191e7 -10577.64945856505 0.0
0.0 0.0 0.0

-4.371142099413322e6 1.4806262931656126e7 0.0
1.4806262931656126e7 -2.4301983016751546e7 0.0
0.0 0.0 0.0

4.6016341279765e6 1.4160753440397386e7 0.0
1.4160753440397386e7 3.0510503108302742e7 0.0
0.0 0.0 0.0

905866.8491458655 1.0902184232009456e7 0.0
1.0902184232009456e7 -1.0176085470874311e7 0.0
0.0 0.0 0.0

-2.254193141386028e6 1.373228475704067e7 0.0
1.373228475704067e7 -2.3443880278652776e6 0.0
0.0 0.0 0.0

-506824.59804642247 1.116828485783764e7 0.0
1.116828485783764e7 -1.1215149978846898e7 0.0
0.0 0.0 0.0

-2.2878289941972196e6 1.1943646349395782e7 0.0
1.1943646349395782e7 -2.9191053443420795e6 0.0
0.0 0.0 0.0

-770558.3312001096 1.3994643909229167e7 0.0
1.3994643909229167e7 -7.050636020038112e6 0.0
0.0 0.0 0.0

-1.4578129035384436e6 1.1379567097583566e7 0.0
1.1379567097583566e7 -4.321456467423937e6 0.0
0.0 0.0 0.0

-4.1722034789964e6 1.36198383114801e7 0.0
1.36198383114801e7 422372.6070503143 0.0
0.0 0.0 0.0

4.451392284285996e6 8.1418989750026995e6 0.0
8.1418989750026995e6 -2.1795953737853147e7 0.0
0.0 0.0 0.0

-5.563444999051031e6 1.5000292892128542e7 0.0
1.5000292892128542e7 2.432635839005556e6 0.0
0.0 0.0 0.0

-6.003616094326191e6 1.381870896466146e7 0.0
1.381870896466146e7 4.235747147128213e6 0.0
0.0 0.0 0.0

-1.1740752171146749e6 1.149851403894043e7 0.0
1.149851403894043e7 -3.405224005755546e6 0.0
0.0 0.0 0.0

2.100115921385359e6 9.694654063457502e6 0.0
9.694654063457502e6 -1.2716644011989366e7 0.0
0.0 0.0 0.0

5.3297311224049125e6 1.405461100851861e7 0.0
1.405461100851861e7 1.776576843541374e7 0.0
0.0 0.0 0.0

-2.0283064889619579e6 1.4054546986738143e7 0.0
1.4054546986738143e7 -3.933784290202901e6 0.0
0.0 0.0 0.0

-2.405316532466544e7 3.0503450106324308e7 0.0
3.0503450106324308e7 3.186496967270177e6 0.0
0.0 0.0 0.0

1.18827065205976e6 1.0582505728753578e7 0.0
1.0582505728753578e7 -1.0795664444281729e7 0.0
0.0 0.0 0.0

-2.682733923679063e6 1.384904245318567e7 0.0
1.384904245318567e7 -1.2479647462911708e6 0.0
0.0 0.0 0.0

2.7200763376841256e6 4.652066002485616e6 0.0
4.652066002485616e6 -6.95730870368873e6 0.0
0.0 0.0 0.0

3.6175495275210403e6 7.339174482980585e6 0.0
7.339174482980585e6 -1.3614863127473343e7 0.0
0.0 0.0 0.0

-3.9740603095569257e6 1.5231750061809234e7 0.0
1.5231750061809234e7 1.3998982123510938e6 0.0
0.0 0.0 0.0

-1.5286723423422207e6 1.2387251144560881e7 0.0
1.2387251144560881e7 -1.6985813669757426e7 0.0
0.0 0.0 0.0

-1.5870861971450173e6 1.1788215851847503e7 0.0
1.1788215851847503e7 -2.7031462987584816e6 0.0
0.0 0.0 0.0

1.101290790554081e6 9.135489238504268e6 0.0
9.135489238504268e6 -6.651839717693191e6 0.0
0.0 0.0 0.0

-3.118843458140966e6 1.0195048921487156e7 0.0
1.0195048921487156e7 1.1318867204680804e6 0.0
0.0 0.0 0.0

1.5312802629417852e6 1.0288102028971933e7 0.0
1.0288102028971933e7 -1.1464912984615099e7 0.0
0.0 0.0 0.0

-3.6783917917384948e6 9.714575647408156e6 0.0
9.714575647408156e6 407701.8311455236 0.0
0.0 0.0 0.0

186430.85376685066 1.2384525274910405e7 0.0
1.2384525274910405e7 -1.0167566057074592e7 0.0
0.0 0.0 0.0

-1.3672048336194508e7 1.905245175866083e7 0.0
1.905245175866083e7 3.3525028384110853e6 0.0
0.0 0.0 0.0

-1.3111102303475963e6 1.3164173153919824e6 0.0
1.3164173153919824e6 769236.0568679768 0.0
0.0 0.0 0.0

-3.8970073196941577e6 1.0018686710234609e7 0.0
1.0018686710234609e7 2.5297200549547924e6 0.0
0.0 0.0 0.0

-3.6016847009109003e6 1.4202209234422274e7 0.0
1.4202209234422274e7 647319.0373490332 0.0
0.0 0.0 0.0

-1.0680619723031025e7 -3.85759792137401e6 0.0
-3.85759792137401e6 2.5789054686616674e7 0.0
0.0 0.0 0.0

-1.419792894320627e6 1.3582892058803659e7 0.0
1.3582892058803659e7 4.617090306171711e6 0.0
0.0 0.0 0.0

-1.8749736670893095e6 1.1658961872069167e7 0.0
1.1658961872069167e7 -3.6309254483012324e6 0.0
0.0 0.0 0.0

-1.2445918084874677e6 1.3844914097434467e7 0.0
1.3844914097434467e7 -5.863009777856606e6 0.0
0.0 0.0 0.0

-1.4491630932269602e6 1.250407447010675e7 0.0
1.250407447010675e7 -4.93526433755531e6 0.0
0.0 0.0 0.0

-935395.633437384 9.977269935678065e6 0.0
9.977269935678065e6 -4.703320535968419e6 0.0
0.0 0.0 0.0

-2.6054704587190654e6 1.3391631077733357e7 0.0
1.3391631077733357e7 -2.87818845789375e6 0.0
0.0 0.0 0.0

-6.621243615368178e6 1.2360010005171759e7 0.0
1.2360010005171759e7 7.886217888788504e6 0.0
0.0 0.0 0.0

-3.5019707146087075e6 1.2299774601322824e7 0.0
1.2299774601322824e7 1.0257746125118905e6 0.0
0.0 0.0 0.0

-2.955671362644437e6 1.168689016602149e7 0.0
1.168689016602149e7 -1.5368988510262496e6 0.0
0.0 0.0 0.0

4.4599563125336245e6 7.223728557406156e6 0.0
7.223728557406156e6 -1.6590443938722232e7 0.0
0.0 0.0 0.0

-6.190340321471488e6 1.744743621291104e7 0.0
1.744743621291104e7 6.605426063085506e6 0.0
0.0 0.0 0.0

-558653.0840861576 4.287052040626603e6 0.0
4.287052040626603e6 -828252.9520595513 0.0
0.0 0.0 0.0

-6.299482521412854e6 1.2128238398371961e7 0.0
1.2128238398371961e7 7.052965084199807e6 0.0
0.0 0.0 0.0

606121.465812519 9.186619925196616e6 0.0
9.186619925196616e6 -5.718588894684862e6 0.0
0.0 0.0 0.0

4.224598570159161e6 5.455370111193058e6 0.0
5.455370111193058e6 -1.1614284666350065e7 0.0
0.0 0.0 0.0

1.810898390982925e6 9.961164615512831e6 0.0
9.961164615512831e6 -1.213260093109784e7 0.0
0.0 0.0 0.0

-1.4204310387091967e6 6.180122175724259e6 0.0
6.180122175724259e6 -1.8380199866228406e6 0.0
0.0 0.0 0.0

-1.265486617136533e7 6.888790145151397e6 0.0
6.888790145151397e6 1.5202679403832126e7 0.0
0.0 0.0 0.0

-2.456075960121618e6 1.2707271470593223e7 0.0
1.2707271470593223e7 -2.8862566411716617e6 0.0
0.0 0.0 0.0

-868368.4124494179 1.5287796159354835e6 0.0
1.5287796159354835e6 787309.73522266 0.0
0.0 0.0 0.0

-3.2524474623815035e6 9.02323312320353e6 0.0
9.02323312320353e6 -21689.051917899866 0.0
0.0 0.0 0.0

-1.5584031096141264e6 1.4157559749879945e7 0.0
1.4157559749879945e7 -5.055565053675795e6 0.0
0.0 0.0 0.0

329322.13767712563 1.2156307239181723e7 0.0
1.2156307239181723e7 -1.13302431220632e7 0.0
0.0 0.0 0.0

1.2352957244928037e6 9.225032061209148e6 0.0
9.225032061209148e6 -8.752600764696134e6 0.0
0.0 0.0 0.0

232292.3147544309 7.606102615268191e6 0.0
7.606102615268191e6 -5.275587979226589e6 0.0
0.0 0.0 0.0

-1.8829883635734254e6 1.2323336361086e7 0.0
1.2323336361086e7 -2.3312674726941385e6 0.0
0.0 0.0 0.0

-7.360643862659754e6 1.3537507675949654e7 0.0
1.3537507675949654e7 1.1927754214477345e7 0.0
0.0 0.0 0.0

-4.497462459314536e6 1.548773473986336e7 0.0
1.548773473986336e7 815671.8890591485 0.0
0.0 0.0 0.0

-8.44992563285824e6 1.2304397234770825e7 0.0
1.2304397234770825e7 1.051425401283767e7 0.0
0.0 0.0 0.0

-6.479908568952717e6 1.4240011081643447e7 0.0
1.4240011081643447e7 7.383382201901287e6 0.0
0.0 0.0 0.0

336268.1600364065 8.379886275631075e6 0.0
8.379886275631075e6 -6.040767568511771e6 0.0
0.0 0.0 0.0

-2.759385679669849e6 9.501681302846571e6 0.0
9.501681302846571e6 695079.524109586 0.0
0.0 0.0 0.0

-2.4802968923922046e6 1.3505568601701908e7 0.0
1.3505568601701908e7 4.916320305933729e6 0.0
0.0 0.0 0.0

-1.3306984634999381e6 1.0286451161041394e7 0.0
1.0286451161041394e7 -4.0266870864982824e6 0.0
0.0 0.0 0.0

1.5246794406866236e6 1.1130539023153689e7 0.0
1.1130539023153689e7 -1.3532252517914766e7 0.0
0.0 0.0 0.0

-2.169084647584087e6 1.2842069729256878e7 0.0
1.2842069729256878e7 -1.9576525797367138e6 0.0
0.0 0.0 0.0

571493.8462613714 1.1186682865695715e7 0.0
1.1186682865695715e7 -9.558423010222372e6 0.0
0.0 0.0 0.0

-2.9745991733829924e6 1.0645326575016594e7 0.0
1.0645326575016594e7 664360.4558494159 0.0
0.0 0.0 0.0

-2.5532311758880923e6 1.179099567764911e7 0.0
1.179099567764911e7 -1.3095326364072876e7 0.0
0.0 0.0 0.0

-2.4346445575781944e6 1.3351257742381545e7 0.0
1.3351257742381545e7 -1.6063577891233987e6 0.0
0.0 0.0 0.0

2.653906309146815e6 1.2543319308774859e7 0.0
1.2543319308774859e7 -3.3295638036099677e6 0.0
0.0 0.0 0.0

-1.1110222924652923e7 -1.666984509512169e6 0.0
-1.666984509512169e6 2.5307497999654036e7 0.0
0.0 0.0 0.0

-9.617204271040741e6 2.1000996756952334e7 0.0
2.1000996756952334e7 8.054520034789689e6 0.0
0.0 0.0 0.0

-3.7628719514475013e6 1.4182685321231524e7 0.0
1.4182685321231524e7 4.496444173745323e6 0.0
0.0 0.0 0.0

-1.2105083627192622e7 8.42319471750635e6 0.0
8.42319471750635e6 1.5957662974599812e7 0.0
0.0 0.0 0.0

-6.245953308712261e6 1.596748101761544e7 0.0
1.596748101761544e7 7.036566442739397e6 0.0
0.0 0.0 0.0

-2.4014502989716106e6 1.084999330703906e7 0.0
1.084999330703906e7 -573981.2108058787 0.0
0.0 0.0 0.0

-1.0669298192683049e6 1.174963177648803e7 0.0
1.174963177648803e7 -3.7406271915042964e6 0.0
0.0 0.0 0.0

-1.7551066791097042e6 1.2560650953476353e7 0.0
1.2560650953476353e7 -2.6755278970504133e6 0.0
0.0 0.0 0.0

-383373.86083227396 7.987884815395796e6 0.0
7.987884815395796e6 -2.7687008733297307e6 0.0
0.0 0.0 0.0

-1.9039520480466397e6 1.4468246044482384e7 0.0
1.4468246044482384e7 -4.292053288444385e6 0.0
0.0 0.0 0.0

3.31213656219479e6 6.582402943290148e6 0.0
6.582402943290148e6 -1.124062764314115e7 0.0
0.0 0.0 0.0

1.6229461782777854e6 6.112519541746988e6 0.0
6.112519541746988e6 -7.0864429735872345e6 0.0
0.0 0.0 0.0

-6.823272780851969e6 1.3944107750934219e7 0.0
1.3944107750934219e7 8.489599464690115e6 0.0
0.0 0.0 0.0

-4.123962659521347e6 1.5210852461315956e7 0.0
1.5210852461315956e7 36299.84379921411 0.0
0.0 0.0 0.0

1.8742253502091584e6 1.3121885828881804e7 0.0
1.3121885828881804e7 -4.422456398141847e6 0.0
0.0 0.0 0.0

-8.696091644983156e6 1.65888177069503e7 0.0
1.65888177069503e7 5.253526082315617e6 0.0
0.0 0.0 0.0

2.3063273024365334e6 5.984863654878527e6 0.0
5.984863654878527e6 -8.732993510080125e6 0.0
0.0 0.0 0.0

-1.7695763852095846e6 1.054782535511709e7 0.0
1.054782535511709e7 -3.356863327564729e6 0.0
0.0 0.0 0.0

1.791519881937517e7 1.1217638569809575e7 0.0
1.1217638569809575e7 -614895.7560965847 0.0
0.0 0.0 0.0

303791.98536092043 7.832662187600244e6 0.0
7.832662187600244e6 -5.72572029404642e6 0.0
0.0 0.0 0.0

3.7585477327177105e6 6.732357980647608e6 0.0
6.732357980647608e6 -1.3070198837352265e7 0.0
0.0 0.0 0.0

-9.762094118807048e6 1.187435713637402e7 0.0
1.187435713637402e7 1.3817741560473938e7 0.0
0.0 0.0 0.0

545662.6365713263 1.1816755455755558e7 0.0
1.1816755455755558e7 -1.0394421528800227e7 0.0
0.0 0.0 0.0

-5.271854193948707e6 7.066699629855402e6 0.0
7.066699629855402e6 6.521933290698867e6 0.0
0.0 0.0 0.0

-1.153464018693791e7 2.0080118194208335e7 0.0
2.0080118194208335e7 8.788637503100809e6 0.0
0.0 0.0 0.0

-9.160788828519717e6 1.1994729990647204e7 0.0
1.1994729990647204e7 1.3236873119064491e7 0.0
0.0 0.0 0.0

-6.140909349208908e6 1.6395945139550101e7 0.0
1.6395945139550101e7 7.025958122391848e6 0.0
0.0 0.0 0.0

-9.912909356011212e6 1.808711753454496e7 0.0
1.808711753454496e7 4.233279931749739e6 0.0
0.0 0.0 0.0

-3.516591633385585e6 1.1638686377632061e7 0.0
1.1638686377632061e7 -415225.93403856654 0.0
0.0 0.0 0.0

1.9494712869943604e7 5.8880314982015835e6 0.0
5.8880314982015835e6 -3.765374130529114e6 0.0
0.0 0.0 0.0

-1.2613954129445574e6 1.2876503353748713e7 0.0
1.2876503353748713e7 -4.480436991540211e6 0.0
0.0 0.0 0.0

-1.0248445460439905e6 8.591599115148494e6 0.0
8.591599115148494e6 -1.7970336564107058e6 0.0
0.0 0.0 0.0

-2.2767627818751424e6 1.476272571376435e7 0.0
1.476272571376435e7 -3.500771689301495e6 0.0
0.0 0.0 0.0

-4.879523183450167e6 1.5124787083979629e7 0.0
1.5124787083979629e7 -1.0561805672706536e6 0.0
0.0 0.0 0.0

485597.20728000207 7.439491687459787e6 0.0
7.439491687459787e6 -3.930026961273447e6 0.0
0.0 0.0 0.0

-5.407859364245288e6 1.4234828590851868e7 0.0
1.4234828590851868e7 7.795009079323472e6 0.0
0.0 0.0 0.0

-86054.80418739934 1.1292644316851845e7 0.0
1.1292644316851845e7 -1.107043965862741e7 0.0
0.0 0.0 0.0

-1.114599766588914e7 572952.5796889726 0.0
572952.5796889726 1.404017679095412e7 0.0
0.0 0.0 0.0

-4.291951391180946e6 1.5035363559080325e7 0.0
1.5035363559080325e7 398809.6716755731 0.0
0.0 0.0 0.0

-2.3176975651924475e6 1.1211602670668332e7 0.0
1.1211602670668332e7 -937521.6681318474 0.0
0.0 0.0 0.0

-3.8372153318692166e6 1.5383519003686672e7 0.0
1.5383519003686672e7 945555.0366776162 0.0
0.0 0.0 0.0

-267820.0556446407 1.1841831921153007e7 0.0
1.1841831921153007e7 -6.074658692585176e6 0.0
0.0 0.0 0.0

-2.0511661517952322e6 6.644737670740691e6 0.0
6.644737670740691e6 640650.3148204829 0.0
0.0 0.0 0.0

-6.214472342493774e6 1.5895041556932118e7 0.0
1.5895041556932118e7 5.282039576812978e6 0.0
0.0 0.0 0.0

-6.855851987149568e6 1.380289989436708e7 0.0
1.380289989436708e7 9.755639070291163e6 0.0
0.0 0.0 0.0

-6.504176392876385e6 1.3560781173347363e7 0.0
1.3560781173347363e7 7.373764489555974e6 0.0
0.0 0.0 0.0

-662141.2455027291 1.011654578289142e7 0.0
1.011654578289142e7 -3.778296022672399e6 0.0
0.0 0.0 0.0

2.6235057548336824e6 9.404799735184608e6 0.0
9.404799735184608e6 -1.4280636845302366e7 0.0
0.0 0.0 0.0

-4.277350122526457e6 1.2491830819101308e7 0.0
1.2491830819101308e7 753927.9382731821 0.0
0.0 0.0 0.0

-854320.9706379161 1.2756905832702368e7 0.0
1.2756905832702368e7 -7.386983137556255e6 0.0
0.0 0.0 0.0

-521713.6073529371 1.171537287865612e7 0.0
1.171537287865612e7 -6.898314082139363e6 0.0
0.0 0.0 0.0

-3.496983185557032e6 1.5428563214079896e7 0.0
1.5428563214079896e7 -1.775936760400477e6 0.0
0.0 0.0 0.0

-1.7649353093106847e6 1.3000740064430334e7 0.0
1.3000740064430334e7 -4.510451619674633e6 0.0
0.0 0.0 0.0

2.00453569853675e6 9.443629831814812e6 0.0
9.443629831814812e6 -1.1560014927376837e7 0.0
0.0 0.0 0.0

1.5279056559843144e6 6.137514175687146e6 0.0
6.137514175687146e6 -5.43784854854805e6 0.0
0.0 0.0 0.0

-125217.99091849115 5.696296678727771e6 0.0
5.696296678727771e6 -2.1286994847310814e6 0.0
0.0 0.0 0.0

-5.202382884060993e6 1.968734422130676e7 0.0
1.968734422130676e7 3.38690461698623e6 0.0
0.0 0.0 0.0

-3.9878624419075353e6 1.1882644951889088e7 0.0
1.1882644951889088e7 372141.8579371609 0.0
0.0 0.0 0.0

-2.5289814010404055e6 1.3586508648740241e7 0.0
1.3586508648740241e7 -3.228033733954839e6 0.0
0.0 0.0 0.0

3.2278654511254723e6 5.095133204472391e6 0.0
5.095133204472391e6 -8.66152513069122e6 0.0
0.0 0.0 0.0

-1.2291490245722825e7 554515.2895362999 0.0
554515.2895362999 2.488883508177426e7 0.0
0.0 0.0 0.0

2.0080646257189745e6 7.95497500689999e6 0.0
7.95497500689999e6 -9.306196383604493e6 0.0
0.0 0.0 0.0

-1.2363916730591548e6 1.6450466314506859e7 0.0
1.6450466314506859e7 -4.563866023986392e6 0.0
0.0 0.0 0.0

-3.3287646694582677e6 1.6409170543851292e7 0.0
1.6409170543851292e7 -1.2560242793139603e6 0.0
0.0 0.0 0.0

-6.095644329527328e6 1.6111757214002514e7 0.0
1.6111757214002514e7 4.858101424140905e6 0.0
0.0 0.0 0.0

4.881875785260963e6 5.315749431386067e6 0.0
5.315749431386067e6 -1.452111714103527e7 0.0
0.0 0.0 0.0

-2.572229563179785e6 1.4039892052592762e7 0.0
1.4039892052592762e7 -1.6237551415377748e6 0.0
0.0 0.0 0.0

-2.77123849658415e6 1.4773982767839773e7 0.0
1.4773982767839773e7 -1.9809290215880936e6 0.0
0.0 0.0 0.0

3.813481229336746e6 7.093560189695595e6 0.0
7.093560189695595e6 -1.412385332780645e7 0.0
0.0 0.0 0.0

-4.271694475798792e6 1.6382962210196484e7 0.0
1.6382962210196484e7 365568.26669773087 0.0
0.0 0.0 0.0

-81428.82296018302 1.4060480147424808e7 0.0
1.4060480147424808e7 -6.382992987814225e6 0.0
0.0 0.0 0.0

-2.9694561607269724e6 1.3688726444534015e7 0.0
1.3688726444534015e7 -2.168376021970487e6 0.0
0.0 0.0 0.0

1.5619738694984866e6 1.1390915025492419e7 0.0
1.1390915025492419e7 -1.4253729919672104e7 0.0
0.0 0.0 0.0

1.8866894665466533e6 6.344657700468881e6 0.0
6.344657700468881e6 -8.15960335003129e6 0.0
0.0 0.0 0.0

810463.6978684906 9.014059767705439e6 0.0
9.014059767705439e6 -7.624229297300043e6 0.0
0.0 0.0 0.0

-2.3602780384216993e6 1.4171776944106061e7 0.0
1.4171776944106061e7 -3.378910223181735e6 0.0
0.0 0.0 0.0

-545177.5656356739 1.4146481204932474e7 0.0
1.4146481204932474e7 -6.882768270823069e6 0.0
0.0 0.0 0.0

-2.121824109880694e6 1.3244748397687567e7 0.0
1.3244748397687567e7 -3.8913593085591025e6 0.0
0.0 0.0 0.0

2.606344533735825e6 6.843214177527576e6 0.0
6.843214177527576e6 -8.193567391425632e6 0.0
0.0 0.0 0.0

4.575296418016239e6 5.938796040515159e6 0.0
5.938796040515159e6 -1.2892490435346153e7 0.0
0.0 0.0 0.0

-146591.64329308458 1.1779170321914047e7 0.0
1.1779170321914047e7 -8.239696970179542e6 0.0
0.0 0.0 0.0

400507.72293401 9.349386302951543e6 0.0
9.349386302951543e6 -6.977449443081282e6 0.0
0.0 0.0 0.0

-3.171174447050247e6 1.1032180270133385e7 0.0
1.1032180270133385e7 -824575.8008767226 0.0
0.0 0.0 0.0

-7.930986887628356e6 1.7039419539829902e7 0.0
1.7039419539829902e7 5.925758366143235e6 0.0
0.0 0.0 0.0

-8.196396489618644e6 1.0645141637504974e7 0.0
1.0645141637504974e7 4.382656752283859e7 0.0
0.0 0.0 0.0

-1.090664002945834e7 1.259104806792367e6 0.0
1.259104806792367e6 1.2854972905112531e7 0.0
0.0 0.0 0.0

-3.055588646843156e6 1.5649789535489328e7 0.0
1.5649789535489328e7 -3.59411512231246e6 0.0
0.0 0.0 0.0

-3.6540894966147314e6 1.1270348394631444e7 0.0
1.1270348394631444e7 -37460.194174422184 0.0
0.0 0.0 0.0

-1.1715525928311137e7 2.413196465520923e6 0.0
2.413196465520923e6 1.958260972970108e7 0.0
0.0 0.0 0.0

4.221809180833136e6 5.989642971588946e6 0.0
5.989642971588946e6 -1.195225886163627e7 0.0
0.0 0.0 0.0

-3.6389910435360037e6 1.1960464356428938e7 0.0
1.1960464356428938e7 1.5233242461538515e6 0.0
0.0 0.0 0.0

797248.7854232686 1.1650234026058983e7 0.0
1.1650234026058983e7 -1.1413384918811932e7 0.0
0.0 0.0 0.0

-2.5748315131332194e6 1.5125147400535068e7 0.0
1.5125147400535068e7 -2.766813180125419e6 0.0
0.0 0.0 0.0

-2.4706118354582824e6 1.42003012308956e7 0.0
1.42003012308956e7 -1.9921319562572492e6 0.0
0.0 0.0 0.0

-4.926410054601043e6 1.0233430397097085e7 0.0
1.0233430397097085e7 2.2586837506324667e6 0.0
0.0 0.0 0.0

-2.132047805301374e6 1.1799562060303317e7 0.0
1.1799562060303317e7 -1.6395635400656657e6 0.0
0.0 0.0 0.0

-3.5226927808757103e6 7.062058551701001e6 0.0
7.062058551701001e6 1.2500040041093454e6 0.0
0.0 0.0 0.0

-2.8661826178659156e7 1.4242661699848473e7 0.0
1.4242661699848473e7 1.105391483639595e7 0.0
0.0 0.0 0.0

-1.4783226667001997e6 1.2615614139759922e7 0.0
1.2615614139759922e7 6.31003233957485e6 0.0
0.0 0.0 0.0

-6.558377957178705e6 1.4989731368410787e7 0.0
1.4989731368410787e7 7.873896265208567e6 0.0
0.0 0.0 0.0

-4.643350510586466e6 1.644092744325465e7 0.0
1.644092744325465e7 2.8146972942691455e6 0.0
0.0 0.0 0.0

2.5257397838410516e6 7.937972772708267e6 0.0
7.937972772708267e6 -1.0936307166535785e7 0.0
0.0 0.0 0.0

3.456283409991826e6 7.25134443111389e6 0.0
7.25134443111389e6 -1.28822762706937e7 0.0
0.0 0.0 0.0

3.9226766383936964e6 8.17415550775229e6 0.0
8.17415550775229e6 -1.4842061218569174e7 0.0
0.0 0.0 0.0

-4.052338672507012e6 1.0418943585138328e7 0.0
1.0418943585138328e7 818652.0757029911 0.0
0.0 0.0 0.0

-1.2055136719859451e7 6.203377555436598e6 0.0
6.203377555436598e6 1.412408509198746e7 0.0
0.0 0.0 0.0

-3.2152902989047337e6 7.658370236959009e6 0.0
7.658370236959009e6 2.117520156489488e6 0.0
0.0 0.0 0.0

1.007508150202505e6 1.3618865324699428e7 0.0
1.3618865324699428e7 -5.2079521677997885e6 0.0
0.0 0.0 0.0

237910.72006492596 1.141633077330284e7 0.0
1.141633077330284e7 -1.0698364042114722e7 0.0
0.0 0.0 0.0

-6.368526257586682e6 1.6271012190481056e7 0.0
1.6271012190481056e7 6.350930083996242e6 0.0
0.0 0.0 0.0

-3.3547130638288627e6 1.959518847025151e7 0.0
1.959518847025151e7 -717884.5657900753 0.0
0.0 0.0 0.0

-7.195704990613257e6 1.7295436989501514e7 0.0
1.7295436989501514e7 6.286336768402442e6 0.0
0.0 0.0 0.0

-7.473091699195171e6 1.2772837723419316e7 0.0
1.2772837723419316e7 1.1045953073088951e7 0.0
0.0 0.0 0.0

4.715329661062558e6 6.946067546276227e6 0.0
6.946067546276227e6 -2.1833474118807495e7 0.0
0.0 0.0 0.0

-251603.59790426865 1.1381394874722775e7 0.0
1.1381394874722775e7 -5.470784943305522e6 0.0
0.0 0.0 0.0

3.1032968500336492e6 4.710393157753999e6 0.0
4.710393157753999e6 -7.822914902917573e6 0.0
0.0 0.0 0.0

4.309826162254663e6 7.464682373174753e6 0.0
7.464682373174753e6 -1.5110119059387533e7 0.0
0.0 0.0 0.0

-5.943827375100314e6 1.6332566866446856e7 0.0
1.6332566866446856e7 4.432578853298388e6 0.0
0.0 0.0 0.0

-9.127185596604016e6 6.910293753968327e6 0.0
6.910293753968327e6 1.2993784703369208e7 0.0
0.0 0.0 0.0

-8.050965145145546e6 1.2228964292899348e7 0.0
1.2228964292899348e7 1.1982160395539572e7 0.0
0.0 0.0 0.0

-6.347857013926877e6 1.541993485785341e7 0.0
1.541993485785341e7 7.708346615044037e6 0.0
0.0 0.0 0.0

2.287632024490025e6 8.06210538570062e6 0.0
8.06210538570062e6 -8.390505676161014e6 0.0
0.0 0.0 0.0

-2.360778255458929e6 1.5893666715500113e7 0.0
1.5893666715500113e7 -1.909449340826395e6 0.0
0.0 0.0 0.0

-5.114915932846114e6 1.9537676387467496e7 0.0
1.9537676387467496e7 2.179079261752338e6 0.0
0.0 0.0 0.0

-6.091526060768177e6 1.7162013784639616e7 0.0
1.7162013784639616e7 5.757322957586744e6 0.0
0.0 0.0 0.0

-8.251029384007224e6 1.2201091873079535e7 0.0
1.2201091873079535e7 1.249421271073705e7 0.0
0.0 0.0 0.0

-1.867756360455687e7 3.446168306191838e7 0.0
3.446168306191838e7 -1.0123331982937608e7 0.0
0.0 0.0 0.0

-3.73768149139777e6 1.4874483799021767e7 0.0
1.4874483799021767e7 -2.294990483295638e6 0.0
0.0 0.0 0.0

-6.331693111242618e6 1.1737629238698317e7 0.0
1.1737629238698317e7 4.744099247292349e6 0.0
0.0 0.0 0.0

-2.6962307541945186e6 4.302672306563083e6 0.0
4.302672306563083e6 1.4628362731359228e6 0.0
0.0 0.0 0.0

-1.4675305284769214e6 1.2039766357253678e7 0.0
1.2039766357253678e7 -3.041040434976163e6 0.0
0.0 0.0 0.0

-3.266968801112776e6 1.5589663797053853e7 0.0
1.5589663797053853e7 -1.4744176332503813e6 0.0
0.0 0.0 0.0

-8.999765065655783e6 2.033070193138117e7 0.0
2.033070193138117e7 7.557577593770886e6 0.0
0.0 0.0 0.0

-1.861931534195971e6 1.3587861508466562e7 0.0
1.3587861508466562e7 -3.333025571530332e6 0.0
0.0 0.0 0.0

-3.023897291336081e6 1.4436996577465465e7 0.0
1.4436996577465465e7 -2.4594827964064926e6 0.0
0.0 0.0 0.0

-6.753474203670364e6 1.8389904788586532e6 0.0
1.8389904788586532e6 9.285520566012932e6 0.0
0.0 0.0 0.0

3.831229614136765e6 6.348934100528467e6 0.0
6.348934100528467e6 -1.0873786028537564e7 0.0
0.0 0.0 0.0

-4.584948368975693e6 1.9024403257691093e7 0.0
1.9024403257691093e7 2.4546851271401322e6 0.0
0.0 0.0 0.0

-7.170310637349789e6 1.3324313078468787e7 0.0
1.3324313078468787e7 1.0384716442652892e7 0.0
0.0 0.0 0.0

-5.470822810568229e6 1.5780965133756962e7 0.0
1.5780965133756962e7 52507.73815230909 0.0
0.0 0.0 0.0

60582.16876663966 5.470565622435981e6 0.0
5.470565622435981e6 -3.8199850953824515e6 0.0
0.0 0.0 0.0

-4.1470561299611237e6 1.6737683375850206e7 0.0
1.6737683375850206e7 -2.1248117335517392e6 0.0
0.0 0.0 0.0

-2.8543171581359752e6 1.385928480248049e7 0.0
1.385928480248049e7 -2.523546753967843e6 0.0
0.0 0.0 0.0

212628.30956539186 1.148762953685113e7 0.0
1.148762953685113e7 -8.899088863086963e6 0.0
0.0 0.0 0.0

-2.0551204995784175e6 1.3063477885929069e7 0.0
1.3063477885929069e7 -2.321209143361705e6 0.0
0.0 0.0 0.0

2.0037655831107232e6 8.269197094964933e6 0.0
8.269197094964933e6 -9.57733216216409e6 0.0
0.0 0.0 0.0

-3.4803499882001155e6 1.3453196352466414e7 0.0
1.3453196352466414e7 640805.1207706505 0.0
0.0 0.0 0.0

-2.837215479969034e6 5.110712363120358e6 0.0
5.110712363120358e6 1.220465378649268e6 0.0
0.0 0.0 0.0

-6.571700832816328e6 8.207966227688997e6 0.0
8.207966227688997e6 8.426478335940134e6 0.0
0.0 0.0 0.0

-4.517262768127952e6 1.033050708317276e7 0.0
1.033050708317276e7 3.6054483443096345e6 0.0
0.0 0.0 0.0

-2.0502995681208796e6 1.0896291049775327e7 0.0
1.0896291049775327e7 -9.897015411851395e6 0.0
0.0 0.0 0.0

-3.6796094101810744e6 1.04526063861112e7 0.0
1.04526063861112e7 2.0566686036953076e6 0.0
0.0 0.0 0.0

-2.1638178058162443e7 1.7949627665614337e7 0.0
1.7949627665614337e7 7.72195645107186e6 0.0
0.0 0.0 0.0

-4.20032966447615e6 1.1517723930322522e7 0.0
1.1517723930322522e7 785540.4576233083 0.0
0.0 0.0 0.0

-539280.8692022472 1.3926683941796001e7 0.0
1.3926683941796001e7 -1.7367321208723097e6 0.0
0.0 0.0 0.0

-3.1752000991581805e7 1.2764319598350799e7 0.0
1.2764319598350799e7 9.000293109173857e6 0.0
0.0 0.0 0.0

479493.17457316536 1.3925874667787317e7 0.0
1.3925874667787317e7 -5.903284138610579e6 0.0
0.0 0.0 0.0

-2.851738452327418e6 1.1078043168703623e7 0.0
1.1078043168703623e7 230581.46623684978 0.0
0.0 0.0 0.0

1.5051395467913547e6 8.76966129617789e6 0.0
8.76966129617789e6 -7.242995520317247e6 0.0
0.0 0.0 0.0

-4.912921851774415e6 1.6739234502705704e7 0.0
1.6739234502705704e7 3.4622270651216633e6 0.0
0.0 0.0 0.0

1.6301735679046172e6 9.14649123671791e6 0.0
9.14649123671791e6 -9.591690405562721e6 0.0
0.0 0.0 0.0

1.509086663458548e6 9.695543826046497e6 0.0
9.695543826046497e6 -1.0152696745253561e7 0.0
0.0 0.0 0.0

-2.357140477521063e6 6.620792840405824e6 0.0
6.620792840405824e6 -376215.5310722528 0.0
0.0 0.0 0.0

-6.851438381422594e6 1.3584226864515666e7 0.0
1.3584226864515666e7 6.2093407642979305e6 0.0
0.0 0.0 0.0

4.0643570977265174e6 7.141575030027705e6 0.0
7.141575030027705e6 -1.3302079403051242e7 0.0
0.0 0.0 0.0

-5.157624310408631e6 4.95400861547918e6 0.0
4.95400861547918e6 5.756592379026984e6 0.0
0.0 0.0 0.0

1.5837786576371551e6 9.40838835632521e6 0.0
9.40838835632521e6 -9.87802233079502e6 0.0
0.0 0.0 0.0

-5.127415896758042e7 3.962259284756775e6 0.0
3.962259284756775e6 1.109891070163298e7 0.0
0.0 0.0 0.0

4.694818951135843e6 6.820952134412175e6 0.0
6.820952134412175e6 -2.0603384357123863e7 0.0
0.0 0.0 0.0

-6.487642441498989e6 1.2511592281867286e7 0.0
1.2511592281867286e7 5.097176834048035e6 0.0
0.0 0.0 0.0

-6.396131799980385e6 1.3614049590311825e7 0.0
1.3614049590311825e7 4.736860048103067e6 0.0
0.0 0.0 0.0

-6.069357657695498e6 1.7103894228175297e7 0.0
1.7103894228175297e7 6.922815439175788e6 0.0
0.0 0.0 0.0

-2.169587234037247e6 1.2192523375080531e7 0.0
1.2192523375080531e7 -3.2582874973737393e6 0.0
0.0 0.0 0.0

-6.225563829988207e6 1.3931044117378099e7 0.0
1.3931044117378099e7 9.09587811738162e6 0.0
0.0 0.0 0.0

643458.2314992677 1.036707292044433e7 0.0
1.036707292044433e7 -8.283284986088112e6 0.0
0.0 0.0 0.0

2.9757320320073366e6 8.154344667746934e6 0.0
8.154344667746934e6 -1.2795083580969218e7 0.0
0.0 0.0 0.0

-5.081528052627746e6 1.6566052309532816e7 0.0
1.6566052309532816e7 3.8176684287406527e6 0.0
0.0 0.0 0.0

-4.066115086669797e6 1.7249681845126063e7 0.0
1.7249681845126063e7 -1.0454482759698622e6 0.0
0.0 0.0 0.0

4.358908713707728e6 7.846130968041488e6 0.0
7.846130968041488e6 -1.732636200992933e7 0.0
0.0 0.0 0.0

-3.6448452144714734e6 8.832821991786085e6 0.0
8.832821991786085e6 2.4176240497764344e6 0.0
0.0 0.0 0.0

-6.668804993369352e6 1.734300228514989e7 0.0
1.734300228514989e7 6.502435273637259e6 0.0
0.0 0.0 0.0

-3.62857353103631e7 3.61562148050386e7 0.0
3.61562148050386e7 1.3536944844088163e6 0.0
0.0 0.0 0.0

-1.187409989310589e7 3.6872678985611885e6 0.0
3.6872678985611885e6 1.7389032928231232e7 0.0
0.0 0.0 0.0

-945107.276960904 1.0325639139869874e7 0.0
1.0325639139869874e7 -8.977272537930181e6 0.0
0.0 0.0 0.0

360802.1345701488 5.440213926067884e6 0.0
5.440213926067884e6 -2.8236758262771266e6 0.0
0.0 0.0 0.0

-3.7379808135242006e6 -7.644477244250022e6 0.0
-7.644477244250022e6 8.886535400568848e6 0.0
0.0 0.0 0.0

5.28355711442086e6 4.6895997306563575e6 0.0
4.6895997306563575e6 -1.4776402164148804e7 0.0
0.0 0.0 0.0

-3.617534352114766e6 1.5174686995464332e7 0.0
1.5174686995464332e7 1.4916377295163183e6 0.0
0.0 0.0 0.0

566746.7965800809 1.2026794267966835e7 0.0
1.2026794267966835e7 -1.13526737306217e7 0.0
0.0 0.0 0.0

-1.1815042645388998e7 9.606449361678487e6 0.0
9.606449361678487e6 1.707779014539043e7 0.0
0.0 0.0 0.0

-2.6684205861206953e6 1.528688468027292e7 0.0
1.528688468027292e7 -4.345886294577462e6 0.0
0.0 0.0 0.0

1.6558006654276964e6 8.883719728030974e6 0.0
8.883719728030974e6 -9.307519220791666e6 0.0
0.0 0.0 0.0

-9.432804747859087e6 1.1508903087001365e7 0.0
1.1508903087001365e7 2.2457067376438063e7 0.0
0.0 0.0 0.0

-2.5451017852244205e6 1.2078331704284701e7 0.0
1.2078331704284701e7 -906363.4015205943 0.0
0.0 0.0 0.0

-7.277783170405853e6 1.3384284761332467e7 0.0
1.3384284761332467e7 1.3569999424869847e7 0.0
0.0 0.0 0.0

519349.86582739 1.2221566149442557e7 0.0
1.2221566149442557e7 -1.080616165751408e7 0.0
0.0 0.0 0.0

3.433027875756189e7 6.847425228876946e6 0.0
6.847425228876946e6 -2.6298250154944044e6 0.0
0.0 0.0 0.0

-2.905832220783215e6 1.545520224189693e7 0.0
1.545520224189693e7 -2.0666446005798457e6 0.0
0.0 0.0 0.0

-4.261361599571482e6 1.8951565421902362e7 0.0
1.8951565421902362e7 1.790829595429185e6 0.0
0.0 0.0 0.0

1.316692561918938e6 9.448861643294282e6 0.0
9.448861643294282e6 -9.016039689051742e6 0.0
0.0 0.0 0.0

2.163460162939003e6 8.928669298400017e6 0.0
8.928669298400017e6 -9.248066810303684e6 0.0
0.0 0.0 0.0

-1.7570215228329524e6 1.1905967424404496e7 0.0
1.1905967424404496e7 -3.9766549288384025e6 0.0
0.0 0.0 0.0

-1.0145654551682219e7 4.683195150991371e6 0.0
4.683195150991371e6 1.3968771417524764e7 0.0
0.0 0.0 0.0

594027.3026607232 1.1576431001368046e7 0.0
1.1576431001368046e7 -1.382794103627659e7 0.0
0.0 0.0 0.0

2.9333782934409548e6 4.659631567399479e6 0.0
4.659631567399479e6 -7.438596262776625e6 0.0
0.0 0.0 0.0

613939.2109507634 1.085778443553379e7 0.0
1.085778443553379e7 -8.88367734264528e6 0.0
0.0 0.0 0.0

-1.6708182310044419e7 1.709241131825513e7 0.0
1.709241131825513e7 1.1874503197226875e7 0.0
0.0 0.0 0.0

-1.6781569097844176e6 8.44734936442331e6 0.0
8.44734936442331e6 -2.4028117967516626e6 0.0
0.0 0.0 0.0

-8.491230275993643e6 1.1848667675694846e7 0.0
1.1848667675694846e7 2.7590985379884817e7 0.0
0.0 0.0 0.0

-4.790191196470879e6 1.4086782922384769e7 0.0
1.4086782922384769e7 6.914104282900598e6 0.0
0.0 0.0 0.0

2.693114770999874e6 1.2750604698623613e7 0.0
1.2750604698623613e7 -999055.1603510175 0.0
0.0 0.0 0.0

-6.26666764682661e6 1.727626318678009e7 0.0
1.727626318678009e7 6.702521693339827e6 0.0
0.0 0.0 0.0

-3.130648689799933e6 1.5790184385176165e7 0.0
1.5790184385176165e7 -1.253463608892247e6 0.0
0.0 0.0 0.0

-6.209528246265553e6 1.69909268948724e7 0.0
1.69909268948724e7 6.057520691662676e6 0.0
0.0 0.0 0.0

-8.591132203646522e6 5.329738949418179e6 0.0
5.329738949418179e6 1.2175150353089089e7 0.0
0.0 0.0 0.0

-7.367579841646267e6 9.4552390568967e6 0.0
9.4552390568967e6 9.727237093603633e6 0.0
0.0 0.0 0.0

-2.94624958347792e6 5.60289475828561e6 0.0
5.60289475828561e6 912105.7762248951 0.0
0.0 0.0 0.0

5.731821925478486e6 9.690890289592413e6 0.0
9.690890289592413e6 1.4299895250023492e6 0.0
0.0 0.0 0.0

413895.6286041015 1.2448811284148473e7 0.0
1.2448811284148473e7 -1.0264605937824758e7 0.0
0.0 0.0 0.0

-3.2018790282919025e6 1.569135939538615e7 0.0
1.569135939538615e7 -824418.2559408676 0.0
0.0 0.0 0.0

-5.747584384583356e6 1.6509093965765744e7 0.0
1.6509093965765744e7 4.017885156671417e6 0.0
0.0 0.0 0.0

-6.152210022016689e6 -591868.5763641841 0.0
-591868.5763641841 6.267652020503164e6 0.0
0.0 0.0 0.0

-5.970077374112029e6 1.7554852321838662e7 0.0
1.7554852321838662e7 5.155692428764148e6 0.0
0.0 0.0 0.0

-3.3173709171685744e6 1.1306941651826682e7 0.0
1.1306941651826682e7 1.0776194999661949e6 0.0
0.0 0.0 0.0

-6.130793417351108e6 1.7984070160688158e7 0.0
1.7984070160688158e7 5.881919500555406e6 0.0
0.0 0.0 0.0

3.022522357023987e6 1.2066537547824107e7 0.0
1.2066537547824107e7 -1.750988681461287e6 0.0
0.0 0.0 0.0

-4.06526390213166e6 1.7833802638037182e7 0.0
1.7833802638037182e7 824894.073554924 0.0
0.0 0.0 0.0

4.225706454140332e6 5.968473629792496e6 0.0
5.968473629792496e6 -1.2952228727814179e7 0.0
0.0 0.0 0.0

-1.1618644654617839e7 3.722956076602843e6 0.0
3.722956076602843e6 1.6321670283920089e7 0.0
0.0 0.0 0.0

913848.2722428534 1.2917831948621932e7 0.0
1.2917831948621932e7 -7.698014326258279e6 0.0
0.0 0.0 0.0

268330.1287713144 1.272303955451712e7 0.0
1.272303955451712e7 -9.671916121631633e6 0.0
0.0 0.0 0.0

-2.2400240362131842e6 1.151421780512586e7 0.0
1.151421780512586e7 -1.2929032647823938e6 0.0
0.0 0.0 0.0

-3.522661606440287e6 1.4392583950194713e7 0.0
1.4392583950194713e7 2.5454131104404298e6 0.0
0.0 0.0 0.0

-2.1015264052328793e6 1.5770262062627561e7 0.0
1.5770262062627561e7 -3.9790624071422913e6 0.0
0.0 0.0 0.0

936064.0682258075 1.170322043825068e7 0.0
1.170322043825068e7 -6.996003136199439e6 0.0
0.0 0.0 0.0

-7.834017997260494e6 7.738256529857375e6 0.0
7.738256529857375e6 8.500298346594691e6 0.0
0.0 0.0 0.0

3.065828502141695e6 7.980377590490004e6 0.0
7.980377590490004e6 -1.0885116005750095e7 0.0
0.0 0.0 0.0

712474.1739528696 1.2261643551330104e7 0.0
1.2261643551330104e7 -1.0169454456320174e7 0.0
0.0 0.0 0.0

-2.443843204567762e6 1.306280228292684e7 0.0
1.306280228292684e7 7.594787826678094e6 0.0
0.0 0.0 0.0

-2.7194537445087745e6 1.3204548624383602e7 0.0
1.3204548624383602e7 -2.5246269734343267e6 0.0
0.0 0.0 0.0

4.79486088806051e6 6.925304614571087e6 0.0
6.925304614571087e6 -1.6667203537769977e7 0.0
0.0 0.0 0.0

5.684920348762885e6 5.956710232737242e6 0.0
5.956710232737242e6 -2.060266389502789e7 0.0
0.0 0.0 0.0

-5.519195102431567e6 1.0578407032080453e7 0.0
1.0578407032080453e7 3.2689836111210953e6 0.0
0.0 0.0 0.0

-5.55147511689379e6 1.6685103483367097e7 0.0
1.6685103483367097e7 3.643783502730628e6 0.0
0.0 0.0 0.0

-9.069367870690793e6 373552.597483924 0.0
373552.597483924 1.2496521463476647e7 0.0
0.0 0.0 0.0

-6.632713997457208e6 9.888949811967822e6 0.0
9.888949811967822e6 5.51877170020538e6 0.0
0.0 0.0 0.0

-6.609027337651042e6 1.3240082871552803e7 0.0
1.3240082871552803e7 5.396780168542076e6 0.0
0.0 0.0 0.0

2.7956613495224654e6 8.043364281322667e6 0.0
8.043364281322667e6 -1.0027734504042355e7 0.0
0.0 0.0 0.0

5.304120415210825e6 4.580762908899671e6 0.0
4.580762908899671e6 -1.5112222663542815e7 0.0
0.0 0.0 0.0

-6.0824041334653795e6 1.2592535077734495e7 0.0
1.2592535077734495e7 6.427158023792447e6 0.0
0.0 0.0 0.0

-6.91669748552699e6 1.3284349315817615e7 0.0
1.3284349315817615e7 3.537428532525632e7 0.0
0.0 0.0 0.0

-5.684220072984343e6 1.3969617201105287e7 0.0
1.3969617201105287e7 5.281099232854075e6 0.0
0.0 0.0 0.0

-3.4509490592965665e6 1.6051232862751815e7 0.0
1.6051232862751815e7 -619608.0407655636 0.0
0.0 0.0 0.0

1.3056595096962391e6 9.912143752545798e6 0.0
9.912143752545798e6 -9.439177640187763e6 0.0
0.0 0.0 0.0

-4.4010892234472595e6 1.7182674052275468e7 0.0
1.7182674052275468e7 2.0728309088411243e6 0.0
0.0 0.0 0.0

-5.246395776912114e6 1.6381509041110018e7 0.0
1.6381509041110018e7 4.199860325463165e6 0.0
0.0 0.0 0.0

697704.5407815315 1.3140679992187718e7 0.0
1.3140679992187718e7 1.1183494629846808e7 0.0
0.0 0.0 0.0

2.9935693112204894e6 4.647495901027557e6 0.0
4.647495901027557e6 -7.8592504823236205e6 0.0
0.0 0.0 0.0

5020.638020094018 1.446526113188978e7 0.0
1.446526113188978e7 -5.918732541780103e6 0.0
0.0 0.0 0.0

3.80031733002395e6 5.18429396650641e6 0.0
5.18429396650641e6 -1.0815451489019778e7 0.0
0.0 0.0 0.0

-6.064085437442103e6 7.1672831635137005e6 0.0
7.1672831635137005e6 7.839694273091154e6 0.0
0.0 0.0 0.0

-6.077510373914236e6 1.5653749873588925e7 0.0
1.5653749873588925e7 4.665737859547101e6 0.0
0.0 0.0 0.0

-2.3256425330738113e6 1.3553757855309773e7 0.0
1.3553757855309773e7 -1.9783100207048093e6 0.0
0.0 0.0 0.0

2.279250790732877e6 8.349817842057408e6 0.0
8.349817842057408e6 -8.670961964400202e6 0.0
0.0 0.0 0.0

656716.4138095281 1.2232382680588217e7 0.0
1.2232382680588217e7 -7.67674544433042e6 0.0
0.0 0.0 0.0

-3.720948611673565e6 1.636980545948742e7 0.0
1.636980545948742e7 54757.81072020554 0.0
0.0 0.0 0.0

-1.0672921002285974e7 515230.1412210616 0.0
515230.1412210616 1.5805125766727686e7 0.0
0.0 0.0 0.0

-7.7872081377012655e6 1.070355685707607e7 0.0
1.070355685707607e7 1.0534744394663798e7 0.0
0.0 0.0 0.0

-6.2906035851539895e6 5.166822202611174e6 0.0
5.166822202611174e6 8.352584575571176e6 0.0
0.0 0.0 0.0

-3.840438353003768e6 1.085526753312231e7 0.0
1.085526753312231e7 367370.59241162264 0.0
0.0 0.0 0.0

-5.951598114647606e6 1.6794819570307184e7 0.0
1.6794819570307184e7 6.367846103067443e6 0.0
0.0 0.0 0.0

-3.3921722148471777e6 1.3041626930567684e7 0.0
1.3041626930567684e7 -1.0878373382845183e6 0.0
0.0 0.0 0.0

-5.180913978967742e6 1.7079529895154905e7 0.0
1.7079529895154905e7 2.6060258330747783e6 0.0
0.0 0.0 0.0

-2.916447376387448e6 6.818867774148794e6 0.0
6.818867774148794e6 427527.31090603734 0.0
0.0 0.0 0.0

-6.935204237231912e6 9.224549970463185e6 0.0
9.224549970463185e6 8.84213419378074e6 0.0
0.0 0.0 0.0

-5.422924634244289e6 1.6838868539632764e7 0.0
1.6838868539632764e7 3.306525160186367e6 0.0
0.0 0.0 0.0

-1.4265900830776663e6 1.5220440297869729e7 0.0
1.5220440297869729e7 -5.36207848616472e6 0.0
0.0 0.0 0.0

891242.7151962006 1.4536178917373577e7 0.0
1.4536178917373577e7 8.278437908783314e6 0.0
0.0 0.0 0.0

-3.477172031888361e6 1.0892935483096095e7 0.0
1.0892935483096095e7 1.5737591700788038e6 0.0
0.0 0.0 0.0

-989452.3653650794 1.6871330305261206e7 0.0
1.6871330305261206e7 -3.8433068555586194e6 0.0
0.0 0.0 0.0

-4.618490298837395e6 1.1517320997638077e7 0.0
1.1517320997638077e7 3.4904548219604613e6 0.0
0.0 0.0 0.0

-7.50860880349656e6 1.043956144015429e7 0.0
1.043956144015429e7 9.83345215272265e6 0.0
0.0 0.0 0.0

-2.640996270035854e6 7.385357396728441e6 0.0
7.385357396728441e6 1.2631712418183465e6 0.0
0.0 0.0 0.0

-5.304870442148862e6 1.6961200133285444e7 0.0
1.6961200133285444e7 2.9338315211753487e6 0.0
0.0 0.0 0.0

4.333097645236982e6 6.508088484347941e6 0.0
6.508088484347941e6 -1.2719396284971993e7 0.0
0.0 0.0 0.0

3.7103163220812185e6 7.330451517489366e6 0.0
7.330451517489366e6 -1.2025027768579623e7 0.0
0.0 0.0 0.0

-5.982383067990048e6 1.6857056733316157e7 0.0
1.6857056733316157e7 7.063447356010282e6 0.0
0.0 0.0 0.0

19710.39211694803 9.020325604544537e6 0.0
9.020325604544537e6 -4.774059871275215e6 0.0
0.0 0.0 0.0

2.2341668388512004e6 8.657086342153834e6 0.0
8.657086342153834e6 -8.950286337377902e6 0.0
0.0 0.0 0.0

-5.094096878499389e6 1.8308557729707234e7 0.0
1.8308557729707234e7 2.783413019960097e6 0.0
0.0 0.0 0.0

-4.151553320076189e6 1.6927165073223233e7 0.0
1.6927165073223233e7 1.4236281108652465e6 0.0
0.0 0.0 0.0

-2.7302506756022056e6 1.4002422075788053e7 0.0
1.4002422075788053e7 -2.813587320225818e6 0.0
0.0 0.0 0.0

776259.519794873 1.1928032440447422e7 0.0
1.1928032440447422e7 -1.3104279496446183e7 0.0
0.0 0.0 0.0

-5.791485511720202e6 1.8555224259085085e7 0.0
1.8555224259085085e7 4.556726168331145e6 0.0
0.0 0.0 0.0

-7.953146744822705e6 1.0956423877261681e7 0.0
1.0956423877261681e7 1.0927632872146634e7 0.0
0.0 0.0 0.0

2.315895408361931e6 6.424611530111338e6 0.0
6.424611530111338e6 -8.822808953414652e6 0.0
0.0 0.0 0.0

-5.022263477700263e6 1.9757609689022478e7 0.0
1.9757609689022478e7 3.083336645339279e6 0.0
0.0 0.0 0.0

-3.6021020872024726e6 1.4425428413622087e7 0.0
1.4425428413622087e7 5.50293413216456e6 0.0
0.0 0.0 0.0

-3.940325493446812e6 1.6653019035681905e7 0.0
1.6653019035681905e7 795244.2565971597 0.0
0.0 0.0 0.0

88675.74842765881 1.3000778788989885e7 0.0
1.3000778788989885e7 -9.1006661640006e6 0.0
0.0 0.0 0.0

-4.768023748831064e6 1.734784689876875e7 0.0
1.734784689876875e7 3.0409750411295537e6 0.0
0.0 0.0 0.0

-6.185428143118767e6 1.4754463419041624e7 0.0
1.4754463419041624e7 8.607406323382957e6 0.0
0.0 0.0 0.0

-4.876495800878983e6 1.7277181182517942e7 0.0
1.7277181182517942e7 1.9728446450305562e6 0.0
0.0 0.0 0.0

-3.516900711529158e6 2.10120263765632e7 0.0
2.10120263765632e7 550834.4797750874 0.0
0.0 0.0 0.0

-1.0423101479110742e7 7.7365280060325e6 0.0
7.7365280060325e6 1.4422542727253063e7 0.0
0.0 0.0 0.0

1.8907931047877828e6 9.255314095544493e6 0.0
9.255314095544493e6 -8.713226021886917e6 0.0
0.0 0.0 0.0

-1.0802573631956996e7 5.123918290243298e6 0.0
5.123918290243298e6 1.4628906276496567e7 0.0
0.0 0.0 0.0

-7.033933677332021e6 8.386657394408591e6 0.0
8.386657394408591e6 6.765492405736548e6 0.0
0.0 0.0 0.0

-430027.724525659 -1.1189679757599325e6 0.0
-1.1189679757599325e6 933102.2415883314 0.0
0.0 0.0 0.0

158708.62915396414 -661996.4087148764 0.0
-661996.4087148764 756693.8921195358 0.0
0.0 0.0 0.0

-1.0901978917218024e7 8.24010810773087e6 0.0
8.24010810773087e6 1.4722646657745937e7 0.0
0.0 0.0 0.0

2.8577684129327997e6 1.341979306234145e7 0.0
1.341979306234145e7 3.454079648575032e6 0.0
0.0 0.0 0.0

-4.108912065520206e6 1.749783443969796e7 0.0
1.749783443969796e7 1.142502538032343e6 0.0
0.0 0.0 0.0

-2.4898506271796646e6 1.4372266041080333e7 0.0
1.4372266041080333e7 -2.38926747372995e6 0.0
0.0 0.0 0.0

1.83119041976046e6 9.501820069410283e6 0.0
9.501820069410283e6 -9.041109247377276e6 0.0
0.0 0.0 0.0

701238.1229673619 1.3288672676366186e7 0.0
1.3288672676366186e7 8.982964316015935e6 0.0
0.0 0.0 0.0

-5.717384249720848e6 1.887944909298778e7 0.0
1.887944909298778e7 5.408700870626012e6 0.0
0.0 0.0 0.0

-5.231120020114899e6 1.8596502596321795e7 0.0
1.8596502596321795e7 2.9889189654158563e6 0.0
0.0 0.0 0.0

-5.220773751350062e6 1.8976625079673927e7 0.0
1.8976625079673927e7 3.043568086110168e6 0.0
0.0 0.0 0.0

-7.234466355676426e6 1.269916419439549e7 0.0
1.269916419439549e7 7.313491998035373e6 0.0
0.0 0.0 0.0

-6.114322585209629e6 1.092763321649865e7 0.0
1.092763321649865e7 4.311088857619336e6 0.0
0.0 0.0 0.0

-4.1547456978461146e6 7.844224470838591e6 0.0
7.844224470838591e6 1.9002821635718227e6 0.0
0.0 0.0 0.0

-6.286667222126497e6 1.5340277135396667e7 0.0
1.5340277135396667e7 6.955119150005046e6 0.0
0.0 0.0 0.0

-5.087145868577284e6 1.0660394817206915e7 0.0
1.0660394817206915e7 4.689000990973716e6 0.0
0.0 0.0 0.0

-1.2061975395947287e7 7.484725893325059e6 0.0
7.484725893325059e6 1.6087988804552654e7 0.0
0.0 0.0 0.0

1.7755973173069041e6 9.78572664789537e6 0.0
9.78572664789537e6 -9.301174852961848e6 0.0
0.0 0.0 0.0

-7.003171934836477e6 1.3885438053801771e7 0.0
1.3885438053801771e7 6.829648931453241e6 0.0
0.0 0.0 0.0

-1.1922210637967002e7 6.171588777744569e6 0.0
6.171588777744569e6 1.661821931676253e7 0.0
0.0 0.0 0.0

-2.281708821047077e6 1.322824175307185e7 0.0
1.322824175307185e7 6.059163137381492e6 0.0
0.0 0.0 0.0

-5.018527690616313e6 1.1432749987722222e7 0.0
1.1432749987722222e7 2.164510650616356e6 0.0
0.0 0.0 0.0

-4.874591189428828e6 1.769601203023432e7 0.0
1.769601203023432e7 3.325644853958482e6 0.0
0.0 0.0 0.0

-4.635576027672052e6 1.6977081280230425e7 0.0
1.6977081280230425e7 2.7425318718270045e6 0.0
0.0 0.0 0.0

-6.093471048990989e6 1.5209082178650105e7 0.0
1.5209082178650105e7 8.194656069463393e6 0.0
0.0 0.0 0.0

577287.0730053955 1.2226276469397236e7 0.0
1.2226276469397236e7 -1.1686104878653081e7 0.0
0.0 0.0 0.0

-6.352839956175422e6 1.5201064654461348e7 0.0
1.5201064654461348e7 5.593744028325951e6 0.0
0.0 0.0 0.0

-7.696572338749107e6 1.166650215231751e7 0.0
1.166650215231751e7 1.031651393352731e7 0.0
0.0 0.0 0.0

-2.2487961594811436e6 1.3926006953061866e7 0.0
1.3926006953061866e7 -2.6980210004436206e6 0.0
0.0 0.0 0.0

-4.1055850642003305e6 1.9347471194342043e7 0.0
1.9347471194342043e7 1.7271524440479798e6 0.0
0.0 0.0 0.0

-6.052430005633861e6 1.5666065752023933e7 0.0
1.5666065752023933e7 7.851735676329352e6 0.0
0.0 0.0 0.0

-2.392409149118555e6 1.3714499742016872e7 0.0
1.3714499742016872e7 -3.5365355530463755e6 0.0
0.0 0.0 0.0

3.5520316961432453e6 7.611870022538437e6 0.0
7.611870022538437e6 -1.2313000990013879e7 0.0
0.0 0.0 0.0

-6.418931580868842e6 1.2867163742263211e7 0.0
1.2867163742263211e7 7.243321546724312e6 0.0
0.0 0.0 0.0

-2.0193823946045116e6 1.6664357239416001e7 0.0
1.6664357239416001e7 -3.3322019833542514e6 0.0
0.0 0.0 0.0

2.5439406887675114e6 4.711082783108551e6 0.0
4.711082783108551e6 -6.50384510087205e6 0.0
0.0 0.0 0.0

3.7265595714852754e6 7.7719188241562825e6 0.0
7.7719188241562825e6 -1.558951620851396e7 0.0
0.0 0.0 0.0

-1.3141139305938194e6 1.3150577313367084e7 0.0
1.3150577313367084e7 -4.749828894145072e6 0.0
0.0 0.0 0.0

1.7577865853852415e6 1.4142844837302286e7 0.0
1.4142844837302286e7 5.578320611643388e6 0.0
0.0 0.0 0.0

3.0453057346645985e6 7.814513576111677e6 0.0
7.814513576111677e6 -1.2631573005457629e7 0.0
0.0 0.0 0.0

2.7072965546453437e6 8.390881660168497e6 0.0
8.390881660168497e6 -1.2325970772853136e7 0.0
0.0 0.0 0.0

102643.26094918704 1.1111421081032703e7 0.0
1.1111421081032703e7 1.827008897623313e6 0.0
0.0 0.0 0.0

-1.095737940674176e7 1.6275309822948969e6 0.0
1.6275309822948969e6 1.5361593299226664e7 0.0
0.0 0.0 0.0

-5.207840725467661e6 8.034681517588602e6 0.0
8.034681517588602e6 3.6417495876525166e6 0.0
0.0 0.0 0.0

-2.6162610053462996e6 1.3175669783669405e7 0.0
1.3175669783669405e7 -1.816067178273625e7 0.0
0.0 0.0 0.0

-6.823681775821472e6 1.0782354749363076e7 0.0
1.0782354749363076e7 5.977706278174401e6 0.0
0.0 0.0 0.0

-9.074775760330291e6 5.822050180130228e6 0.0
5.822050180130228e6 1.0193898399384344e7 0.0
0.0 0.0 0.0

-1.5625122812562145e6 1.2929336161880001e7 0.0
1.2929336161880001e7 5.869342888464824e6 0.0
0.0 0.0 0.0

-3.300132247262609e6 -6.665005353599891e6 0.0
-6.665005353599891e6 7.721073199634947e6 0.0
0.0 0.0 0.0

-6.791323952881065e6 1.2865712590640198e7 0.0
1.2865712590640198e7 5.997153484544706e6 0.0
0.0 0.0 0.0

-6.009290831364926e6 1.6897360621479284e7 0.0
1.6897360621479284e7 6.705695290868707e6 0.0
0.0 0.0 0.0

-492934.7129724778 1.2283878859097762e7 0.0
1.2283878859097762e7 -7.845788693790474e6 0.0
0.0 0.0 0.0

-1.2783191174510666e6 2.8487639811042803e6 0.0
2.8487639811042803e6 -36765.11568731826 0.0
0.0 0.0 0.0

-3.5622155003390606e6 7.594414799585896e6 0.0
7.594414799585896e6 981088.234546588 0.0
0.0 0.0 0.0

4.467772558987311e6 7.4045198892336935e6 0.0
7.4045198892336935e6 -2.3414985058933735e7 0.0
0.0 0.0 0.0

-3.4276886855806615e6 1.9581139533299264e7 0.0
1.9581139533299264e7 620612.7971735504 0.0
0.0 0.0 0.0

-1.1885074038176011e7 6.469212303194054e6 0.0
6.469212303194054e6 2.059405629675059e7 0.0
0.0 0.0 0.0

-2.784893593948113e6 1.2555893412113635e7 0.0
1.2555893412113635e7 -5.322998791119649e6 0.0
0.0 0.0 0.0

-1.0685404903466213e7 4.821138179047469e6 0.0
4.821138179047469e6 1.2049801421063717e7 0.0
0.0 0.0 0.0

-7.248237304321228e6 1.7207591834972173e7 0.0
1.7207591834972173e7 4.284996153416049e6 0.0
0.0 0.0 0.0

-617085.1571083936 1.3566561346437193e7 0.0
1.3566561346437193e7 -2.6572011075410484e6 0.0
0.0 0.0 0.0

-723578.3971898062 1.3261150897632785e7 0.0
1.3261150897632785e7 4.665118916064886e6 0.0
0.0 0.0 0.0

3.997586451615533e6 7.422291392993219e6 0.0
7.422291392993219e6 -1.6167923619991273e7 0.0
0.0 0.0 0.0

-4.5351315719745e6 1.063249328302594e7 0.0
1.063249328302594e7 -1.8798450902701172e6 0.0
0.0 0.0 0.0

-4.697239591365887e6 2.208062257539526e7 0.0
2.208062257539526e7 -1.4451719126801018e6 0.0
0.0 0.0 0.0

-6.663678385559841e6 1.3097185568855261e7 0.0
1.3097185568855261e7 7.913732907696892e6 0.0
0.0 0.0 0.0

-5.250456947014461e6 -8.882489762049679e6 0.0
-8.882489762049679e6 1.2097178099165933e7 0.0
0.0 0.0 0.0

-3.5043240803469596e6 1.3487598808404298e7 0.0
1.3487598808404298e7 6.47498108591436e6 0.0
0.0 0.0 0.0

-5.205827894681945e6 1.718118888796856e7 0.0
1.718118888796856e7 1.4134154784564832e6 0.0
0.0 0.0 0.0

-2.4098829536699676e6 7.150730800387324e6 0.0
7.150730800387324e6 -619012.3701283012 0.0
0.0 0.0 0.0

-2.897013738231467e6 1.4252974535369458e7 0.0
1.4252974535369458e7 1.3058946239181945e7 0.0
0.0 0.0 0.0

-8.155893462413661e6 9.891066325342106e6 0.0
9.891066325342106e6 8.995994883493062e6 0.0
0.0 0.0 0.0

-7.5220738458511e6 8.565514939877504e6 0.0
8.565514939877504e6 7.868600849928657e6 0.0
0.0 0.0 0.0

-1.197107667757022e7 4.783384937863026e6 0.0
4.783384937863026e6 2.0369853027062032e7 0.0
0.0 0.0 0.0

-4.468789276698687e6 1.3755075856213648e7 0.0
1.3755075856213648e7 8.468629970760664e6 0.0
0.0 0.0 0.0

-7.884938275250097e6 1.8806490917742856e7 0.0
1.8806490917742856e7 6.8429411623139605e6 0.0
0.0 0.0 0.0

-5.79083294386567e6 2.0107323470197454e7 0.0
2.0107323470197454e7 3.2603595585914096e6 0.0
0.0 0.0 0.0

-6.860467643121569e6 1.4483470268407244e7 0.0
1.4483470268407244e7 6.962580547366637e6 0.0
0.0 0.0 0.0

2.4083003817823753e6 4.538336227478129e6 0.0
4.538336227478129e6 -6.104176369018238e6 0.0
0.0 0.0 0.0

2.417334992774795e6 8.896564491716081e6 0.0
8.896564491716081e6 -1.005862334551468e7 0.0
0.0 0.0 0.0

1.917954845558579e6 8.704725233947152e6 0.0
8.704725233947152e6 -8.11899564393674e6 0.0
0.0 0.0 0.0

-6.561816992751272e6 1.1317827188959427e7 0.0
1.1317827188959427e7 5.363892425112028e6 0.0
0.0 0.0 0.0

-1.0160154945136964e7 2.554517169086086e7 0.0
2.554517169086086e7 50623.353996399324 0.0
0.0 0.0 0.0

-3.0702546423129225e6 6.324324075893918e6 0.0
6.324324075893918e6 664262.6511564511 0.0
0.0 0.0 0.0

-4.050015105610137e6 1.818751261388447e7 0.0
1.818751261388447e7 905161.599593498 0.0
0.0 0.0 0.0

-2.31317318213814e6 1.7150010290411416e7 0.0
1.7150010290411416e7 -2.6170955172939487e6 0.0
0.0 0.0 0.0

-2.0695542276291964e6 7.636187689285822e6 0.0
7.636187689285822e6 104193.3517735448 0.0
0.0 0.0 0.0

-569302.2689720133 9.905385598597698e6 0.0
9.905385598597698e6 -902160.0100503453 0.0
0.0 0.0 0.0

4.424838923408266e6 1.4583050916786615e7 0.0
1.4583050916786615e7 7.113435300596344e6 0.0
0.0 0.0 0.0

1.387838441081008e6 1.4610346471337967e7 0.0
1.4610346471337967e7 1.0762119915291443e7 0.0
0.0 0.0 0.0

-1.3231637513733804e6 1.3265498386769505e7 0.0
1.3265498386769505e7 4.295691332598634e6 0.0
0.0 0.0 0.0

-7.78608107824816e6 9.622244243495883e6 0.0
9.622244243495883e6 8.196634954281038e6 0.0
0.0 0.0 0.0

-9.029085600979218e6 2.4180661352706153e7 0.0
2.4180661352706153e7 1.108861450127223e6 0.0
0.0 0.0 0.0

-1.1020736241225284e7 1.769540595749058e7 0.0
1.769540595749058e7 5.374488418705016e6 0.0
0.0 0.0 0.0

-7.922363708282964e6 8.79365203633264e6 0.0
8.79365203633264e6 8.79377487756525e6 0.0
0.0 0.0 0.0

2.7111160961643104e6 9.757429424472572e6 0.0
9.757429424472572e6 -1.6743297366547428e7 0.0
0.0 0.0 0.0

5.659296296851578e6 4.351451965790609e6 0.0
4.351451965790609e6 -1.6962227372734997e7 0.0
0.0 0.0 0.0

454980.7775945775 1.184514073375951e7 0.0
1.184514073375951e7 -8.324218254887683e6 0.0
0.0 0.0 0.0

2.098805198031267e6 9.196817788618919e6 0.0
9.196817788618919e6 -9.544147053114468e6 0.0
0.0 0.0 0.0

-236515.41996749304 1.262900387902495e7 0.0
1.262900387902495e7 -7.246407278314312e6 0.0
0.0 0.0 0.0

-1.1594488070625655e7 2.7173340584427375e7 0.0
2.7173340584427375e7 -1.979267257791785e6 0.0
0.0 0.0 0.0

-5.203560339591911e6 1.527380209678103e7 0.0
1.527380209678103e7 4.0223014911716036e6 0.0
0.0 0.0 0.0

-1.96025057426101e6 1.4443851148831772e7 0.0
1.4443851148831772e7 -5.947627428011641e6 0.0
0.0 0.0 0.0

-1.8362549778587823e6 1.3922759789459659e7 0.0
1.3922759789459659e7 -5.921502192718648e6 0.0
0.0 0.0 0.0

2.5056292304441603e6 8.343473465991572e6 0.0
8.343473465991572e6 -9.484691073940035e6 0.0
0.0 0.0 0.0

-6.758816622087462e6 1.5240264192103922e7 0.0
1.5240264192103922e7 7.420838617758326e6 0.0
0.0 0.0 0.0

-2.439686465968572e6 1.4080349464929398e7 0.0
1.4080349464929398e7 6.848906490667964e6 0.0
0.0 0.0 0.0

-4.985630830809953e6 1.5522640287561538e7 0.0
1.5522640287561538e7 4.856694799539229e6 0.0
0.0 0.0 0.0

-1.0057840189861855e7 4.656217591724337e6 0.0
4.656217591724337e6 4.269151106740753e7 0.0
0.0 0.0 0.0

-4.364606021562493e6 986955.9433315333 0.0
986955.9433315333 5.931054996452713e6 0.0
0.0 0.0 0.0

-2.4985341733271018e7 3.969215400830913e7 0.0
3.969215400830913e7 -1.771357499097271e7 0.0
0.0 0.0 0.0

-135385.95459420816 1.3513439096804576e7 0.0
1.3513439096804576e7 5.782537932273882e6 0.0
0.0 0.0 0.0

-8.053937670836595e6 2.325269907565078e7 0.0
2.325269907565078e7 2.1100750820791787e6 0.0
0.0 0.0 0.0

-603485.757028027 1.234397550565635e7 0.0
1.234397550565635e7 -5.650327096370893e6 0.0
0.0 0.0 0.0

-751593.9623015358 1.411174236207657e7 0.0
1.411174236207657e7 -7.26180321860307e6 0.0
0.0 0.0 0.0

-5.840839686844306e6 1.6168310665421704e7 0.0
1.6168310665421704e7 5.704374234707345e6 0.0
0.0 0.0 0.0

4.599658719569639e6 4.943618387313286e6 0.0
4.943618387313286e6 -1.2166995082839333e7 0.0
0.0 0.0 0.0

3.651764982909812e6 1.2212332875619005e7 0.0
1.2212332875619005e7 -1.4967373876878594e6 0.0
0.0 0.0 0.0

2.345732548719024e6 9.190454558275035e6 0.0
9.190454558275035e6 -1.0391689774550227e7 0.0
0.0 0.0 0.0

-665264.5532499453 1.5873763086780477e7 0.0
1.5873763086780477e7 -4.895968723678166e6 0.0
0.0 0.0 0.0

4.519485945656562e6 7.0678404041883545e6 0.0
7.0678404041883545e6 -1.5625422236665603e7 0.0
0.0 0.0 0.0

-5.986950279111289e6 1.3683207838938277e7 0.0
1.3683207838938277e7 6.0857566990053e6 0.0
0.0 0.0 0.0

2.5764947470541834e6 6.488948369516305e6 0.0
6.488948369516305e6 -7.969821481109597e6 0.0
0.0 0.0 0.0

-840163.0897318723 8.209625889448949e6 0.0
8.209625889448949e6 -2.048827194548856e6 0.0
0.0 0.0 0.0

-6.69543340431712e6 1.5164622156825727e7 0.0
1.5164622156825727e7 -864167.5935627031 0.0
0.0 0.0 0.0

3.211502790582584e6 8.188594124369878e6 0.0
8.188594124369878e6 -1.200671545602804e7 0.0
0.0 0.0 0.0

-2.533689297741786e6 1.140454508729079e7 0.0
1.140454508729079e7 -2.251082406630482e6 0.0
0.0 0.0 0.0

-2.5517755163498186e6 1.4559739858670782e7 0.0
1.4559739858670782e7 -4.382408436471432e6 0.0
0.0 0.0 0.0

-5.514806545252148e6 1.4092423887865918e7 0.0
1.4092423887865918e7 1.0610244236784045e7 0.0
0.0 0.0 0.0

1.0198892204763363e6 1.1545965916130891e7 0.0
1.1545965916130891e7 -3.4934310477189953e6 0.0
0.0 0.0 0.0

-6.34853635185599e6 1.0484767951143356e7 0.0
1.0484767951143356e7 4.931735060498638e6 0.0
0.0 0.0 0.0

-1.2474197924569357e7 2.288540604869627e6 0.0
2.288540604869627e6 1.706096734185606e7 0.0
0.0 0.0 0.0

-5.132563923444295e6 1.4209807951916443e7 0.0
1.4209807951916443e7 1.079611282517607e7 0.0
0.0 0.0 0.0

-8.171092398970824e6 1.0856363759117972e7 0.0
1.0856363759117972e7 9.136211206697222e6 0.0
0.0 0.0 0.0

-1.027925032800445e7 -1.0465749175159776e6 0.0
-1.0465749175159776e6 1.4020278244352005e7 0.0
0.0 0.0 0.0

-6.905345462703947e6 1.2582369916584708e7 0.0
1.2582369916584708e7 8.516741780612571e6 0.0
0.0 0.0 0.0

-6.671788285478441e6 1.4229793254576692e7 0.0
1.4229793254576692e7 8.91027722066471e6 0.0
0.0 0.0 0.0

-2.63269091834121e6 5.716787148530546e6 0.0
5.716787148530546e6 1.9418054473355564e6 0.0
0.0 0.0 0.0

-2.1847003787749144e6 1.4254899148440734e7 0.0
1.4254899148440734e7 -5.1773592767851455e6 0.0
0.0 0.0 0.0

-5.895238816564285e6 1.5874938939255262e7 0.0
1.5874938939255262e7 4.215476108442771e6 0.0
0.0 0.0 0.0

-8.30588719416861e6 1.1225040208162244e7 0.0
1.1225040208162244e7 9.618726472550485e6 0.0
0.0 0.0 0.0

-1.2084078215057414e7 -1.9520493782719474e6 0.0
-1.9520493782719474e6 2.2171909531933755e7 0.0
0.0 0.0 0.0

-3.2792528754383773e6 1.388400729675341e7 0.0
1.388400729675341e7 5.30945710168154e6 0.0
0.0 0.0 0.0

-7.083410077200438e6 8.394924348212931e6 0.0
8.394924348212931e6 9.45297558702897e6 0.0
0.0 0.0 0.0

2.8292972442858163e6 9.55882369059879e6 0.0
9.55882369059879e6 -1.5983317018848855e7 0.0
0.0 0.0 0.0

-7.039602372718146e6 1.3703664493509954e7 0.0
1.3703664493509954e7 1.3984259907466412e7 0.0
0.0 0.0 0.0

-9.54046015785886e6 8.6246198522496e6 0.0
8.6246198522496e6 1.3241915123643264e7 0.0
0.0 0.0 0.0

1.9057204767111968e6 8.415394016903004e6 0.0
8.415394016903004e6 -7.825568773782922e6 0.0
0.0 0.0 0.0

4.731319050961965e6 5.358647504474162e6 0.0
5.358647504474162e6 -1.4548981523708973e7 0.0
0.0 0.0 0.0

-2.125858488704613e6 1.4107493048991306e7 0.0
1.4107493048991306e7 8.73208165078753e6 0.0
0.0 0.0 0.0

-4.36332526552948e6 1.4343576115918454e7 0.0
1.4343576115918454e7 1.112183543483173e7 0.0
0.0 0.0 0.0

-976437.9453242292 1.1972076465943536e7 0.0
1.1972076465943536e7 -4.095543345929352e6 0.0
0.0 0.0 0.0

-6.026363749541804e6 1.613392968920053e7 0.0
1.613392968920053e7 7.534558062959513e6 0.0
0.0 0.0 0.0

-6.474394024294206e6 2.141010177801432e7 0.0
2.141010177801432e7 2.9986220438723504e6 0.0
0.0 0.0 0.0

-154562.34678773908 1.3331603798234507e7 0.0
1.3331603798234507e7 -8.486801149775272e6 0.0
0.0 0.0 0.0

-5.670791127274137e6 1.2000332086740043e6 0.0
1.2000332086740043e6 7.208138174978691e6 0.0
0.0 0.0 0.0

2.1436609313537823e6 1.0607398328563426e7 0.0
1.0607398328563426e7 -1.4138860488496438e7 0.0
0.0 0.0 0.0

-6.651950548874194e6 1.4520768533478681e7 0.0
1.4520768533478681e7 8.335495482853504e6 0.0
0.0 0.0 0.0

-9.683248501632823e6 7.40357103195814e6 0.0
7.40357103195814e6 1.3786096994199982e7 0.0
0.0 0.0 0.0

315736.4524442162 1.1825678439403143e7 0.0
1.1825678439403143e7 2.3610259659440485e6 0.0
0.0 0.0 0.0

3.74667708389973e6 8.268074742665025e6 0.0
8.268074742665025e6 -1.7956997823236413e7 0.0
0.0 0.0 0.0

2.7609779075395428e6 9.460422646647077e6 0.0
9.460422646647077e6 -1.5107006410662312e7 0.0
0.0 0.0 0.0

-4.562835393309796e6 2.2912598754862797e7 0.0
2.2912598754862797e7 -2.8067843733083783e6 0.0
0.0 0.0 0.0

-4.99061473764097e6 1.5496586927012058e7 0.0
1.5496586927012058e7 3.5770103864728184e6 0.0
0.0 0.0 0.0

-5.683080900186022e6 1.6395142733387986e7 0.0
1.6395142733387986e7 5.298198192207311e6 0.0
0.0 0.0 0.0

-4.503407749303935e6 1.6086347282696547e7 0.0
1.6086347282696547e7 830049.723783883 0.0
0.0 0.0 0.0

4.094730954901119e6 5.461386338966301e6 0.0
5.461386338966301e6 -1.0194003767755337e7 0.0
0.0 0.0 0.0

277812.7158782813 9.983787475603988e6 0.0
9.983787475603988e6 -5.937823753449755e6 0.0
0.0 0.0 0.0

-6.594245991013328e6 1.440810943033813e7 0.0
1.440810943033813e7 7.924174255946191e6 0.0
0.0 0.0 0.0

-1.5704212804515795e6 1.4694744322210161e7 0.0
1.4694744322210161e7 -5.541566550444245e6 0.0
0.0 0.0 0.0

-6.087184355088262e6 2.0912304034501433e7 0.0
2.0912304034501433e7 3.195068083600119e6 0.0
0.0 0.0 0.0

-2.5951796185307633e6 6.8595351977934865e6 0.0
6.8595351977934865e6 1.4888128893786902e6 0.0
0.0 0.0 0.0

-1.2158784784934213e7 3.611274047177231e6 0.0
3.611274047177231e6 1.455803936799863e7 0.0
0.0 0.0 0.0

-5.938725769426101e6 2.0504513385572415e7 0.0
2.0504513385572415e7 3.3414908632676024e6 0.0
0.0 0.0 0.0

-2.859518505757683e6 1.4885505812719371e7 0.0
1.4885505812719371e7 -3.6631157671992127e6 0.0
0.0 0.0 0.0

1.9684353230879474e6 8.56323872965159e6 0.0
8.56323872965159e6 -9.83180100674465e6 0.0
0.0 0.0 0.0

-6.139717600867194e6 1.1337506573623879e7 0.0
1.1337506573623879e7 6.786275105385481e6 0.0
0.0 0.0 0.0

3.9931470847223913e6 7.888521344194276e6 0.0
7.888521344194276e6 -1.8538866623472635e7 0.0
0.0 0.0 0.0

-5.038140422817382e6 1.8365003457481917e7 0.0
1.8365003457481917e7 3.749768095223166e6 0.0
0.0 0.0 0.0

-3.3078775217970726e6 1.4536932004119802e7 0.0
1.4536932004119802e7 4.4864324946843255e6 0.0
0.0 0.0 0.0

2.3618720657332726e6 1.0200256037666501e7 0.0
1.0200256037666501e7 -1.685013359685643e7 0.0
0.0 0.0 0.0

-6.171566972058973e6 1.675488889666711e7 0.0
1.675488889666711e7 5.623308941314895e6 0.0
0.0 0.0 0.0

-1.2450866770354852e7 3.569979952194986e6 0.0
3.569979952194986e6 1.5503800532443311e7 0.0
0.0 0.0 0.0

1.6218890651323637e6 8.296370922791597e6 0.0
8.296370922791597e6 -8.754840180470053e6 0.0
0.0 0.0 0.0

-2.068888209147119e6 1.2287707911209026e7 0.0
1.2287707911209026e7 5.454237236753842e6 0.0
0.0 0.0 0.0

-5.910960986748739e6 1.5454300844645083e7 0.0
1.5454300844645083e7 5.974179304455683e6 0.0
0.0 0.0 0.0

1.8990275742513193e6 1.0682013837091584e7 0.0
1.0682013837091584e7 -1.6569044992294775e7 0.0
0.0 0.0 0.0

-1.3367211962950906e7 2.9411050683242746e7 0.0
2.9411050683242746e7 -5.064419949381061e6 0.0
0.0 0.0 0.0

-9.292317727434738e6 1.018518230280816e7 0.0
1.018518230280816e7 1.1656016461577598e7 0.0
0.0 0.0 0.0

-2.515969685449367e6 1.3663856032494793e7 0.0
1.3663856032494793e7 -2.042526148525477e7 0.0
0.0 0.0 0.0

-2.1004917445676043e6 7.157011450516339e6 0.0
7.157011450516339e6 418383.7655030523 0.0
0.0 0.0 0.0

-7.002491820317071e6 1.316377171499739e7 0.0
1.316377171499739e7 6.757161080332997e6 0.0
0.0 0.0 0.0

-9.360458163074754e6 1.2532286547130903e7 0.0
1.2532286547130903e7 1.4816350895809364e7 0.0
0.0 0.0 0.0

-5.906340004072426e6 1.049064965565898e7 0.0
1.049064965565898e7 6.414601039979112e6 0.0
0.0 0.0 0.0

-8.771456795272637e6 1.2285442467601787e7 0.0
1.2285442467601787e7 3.0229953938447356e7 0.0
0.0 0.0 0.0

-6.224168065970484e6 1.329750039673105e7 0.0
1.329750039673105e7 6.668203703180144e6 0.0
0.0 0.0 0.0

825307.4979359703 1.2068687423321752e7 0.0
1.2068687423321752e7 -1.2540380603042545e7 0.0
0.0 0.0 0.0

-269027.297901019 1.371350240656847e7 0.0
1.371350240656847e7 -8.098461107527691e6 0.0
0.0 0.0 0.0

6.826934583177476e7 1.348693784137179e7 0.0
1.348693784137179e7 3.1859585826448724e6 0.0
0.0 0.0 0.0

-5.526228268911875e6 -8.669993174578914e6 0.0
-8.669993174578914e6 1.3464415664582774e7 0.0
0.0 0.0 0.0

5.455355414628676e6 4.480615760626764e6 0.0
4.480615760626764e6 -1.5864248903453091e7 0.0
0.0 0.0 0.0

-1.7944107235743115e6 4.1602821063187215e6 0.0
4.1602821063187215e6 128625.81791930657 0.0
0.0 0.0 0.0

-4.1895967596109193e6 1.5757807514369732e7 0.0
1.5757807514369732e7 166751.6666282122 0.0
0.0 0.0 0.0

-9.337607684023459e6 -8.3319624342329465e6 0.0
-8.3319624342329465e6 2.433463811170328e7 0.0
0.0 0.0 0.0

-1.9945259556855476e6 1.2004455896225227e7 0.0
1.2004455896225227e7 -1.4189584324451132e7 0.0
0.0 0.0 0.0

-9.947369575442065e6 6.080636155854878e6 0.0
6.080636155854878e6 1.3944808567416722e7 0.0
0.0 0.0 0.0

-8.576650542502075e6 1.1470204049097132e7 0.0
1.1470204049097132e7 1.0047592619786227e7 0.0
0.0 0.0 0.0

5.688753865596724e6 4.305349803624288e6 0.0
4.305349803624288e6 -1.7348854677956693e7 0.0
0.0 0.0 0.0

121121.85018056771 1.2148337077914411e7 0.0
1.2148337077914411e7 -7.64911396075554e6 0.0
0.0 0.0 0.0

-7.032343480800047e6 2.2011154198403444e7 0.0
2.2011154198403444e7 3.072705480919386e6 0.0
0.0 0.0 0.0

1.2137434661249947e6 8.659653037289111e6 0.0
8.659653037289111e6 -8.206747211906451e6 0.0
0.0 0.0 0.0

-988064.1819673572 1.4560645940384246e7 0.0
1.4560645940384246e7 -1.7198249735992367e6 0.0
0.0 0.0 0.0

-6.223547997952737e6 5.696999287840151e6 0.0
5.696999287840151e6 6.446590234528208e7 0.0
0.0 0.0 0.0

3.8781274852014016e6 7.819846531472183e6 0.0
7.819846531472183e6 -3.819429222150942e7 0.0
0.0 0.0 0.0

1.419119799700778e6 1.3368805212653628e7 0.0
1.3368805212653628e7 -3.015673857020703e7 0.0
0.0 0.0 0.0

1.0870351512126625e6 1.1253877871566452e7 0.0
1.1253877871566452e7 -9.604025045968534e6 0.0
0.0 0.0 0.0

5.1258361835494945e6 6.682036672856517e6 0.0
6.682036672856517e6 -1.9227528896907303e7 0.0
0.0 0.0 0.0

-1.1875187326584995e7 1.544063312248981e7 0.0
1.544063312248981e7 6.447757004712289e6 0.0
0.0 0.0 0.0

-1.741293689141579e6 1.443465990613708e7 0.0
1.443465990613708e7 -6.384229102786173e6 0.0
0.0 0.0 0.0

-5.933543150910348e6 -9.083806645909997e6 0.0
-9.083806645909997e6 1.4588384542434314e7 0.0
0.0 0.0 0.0

-4.29273571208355e6 7.806717172417765e6 0.0
7.806717172417765e6 2.946644975052407e6 0.0
0.0 0.0 0.0

-5.491668665515631e6 1.6602547558838857e7 0.0
1.6602547558838857e7 4.854123829860469e6 0.0
0.0 0.0 0.0

-6.9168313301004935e6 1.4696795720069235e7 0.0
1.4696795720069235e7 7.407917161539673e6 0.0
0.0 0.0 0.0

-6.907222249139296e6 9.198481666906204e6 0.0
9.198481666906204e6 6.190306919419044e6 0.0
0.0 0.0 0.0

-2.697444318782072e6 6.201666377498437e6 0.0
6.201666377498437e6 1.9403976333064828e6 0.0
0.0 0.0 0.0

2.87505475058962e6 1.1952927464081932e7 0.0
1.1952927464081932e7 278391.01798950485 0.0
0.0 0.0 0.0

-3.209096366668438e6 1.5235861814027121e7 0.0
1.5235861814027121e7 -2.9243913118776944e6 0.0
0.0 0.0 0.0

-450442.18557038717 5.694772803436226e6 0.0
5.694772803436226e6 -3.2127913166469918e6 0.0
0.0 0.0 0.0

-4.0734298334963573e6 1.7047122285267718e7 0.0
1.7047122285267718e7 1.0914040430234037e6 0.0
0.0 0.0 0.0

-1.1343335575798634e7 8.529385398593022e6 0.0
8.529385398593022e6 1.297740721646006e7 0.0
0.0 0.0 0.0

-5.6656950823779665e6 1.1044317666322984e7 0.0
1.1044317666322984e7 5.765751110389495e6 0.0
0.0 0.0 0.0

-6.201004264157325e6 -9.00124003062405e6 0.0
-9.00124003062405e6 1.5897723097739527e7 0.0
0.0 0.0 0.0

5.555128585473512e6 4.403918361355757e6 0.0
4.403918361355757e6 -1.6589315658545246e7 0.0
0.0 0.0 0.0

5.19742723663808e6 6.895680197636998e6 0.0
6.895680197636998e6 -2.022153293630317e7 0.0
0.0 0.0 0.0

-1.1283612775918903e7 5.332608786039995e6 0.0
5.332608786039995e6 1.284089782304555e7 0.0
0.0 0.0 0.0

5.211879550698496e6 6.123122489905168e6 0.0
6.123122489905168e6 -3.2834684931620523e7 0.0
0.0 0.0 0.0

-1.0146477817485543e7 -4.434614745508079e6 0.0
-4.434614745508079e6 3.533267484312882e7 0.0
0.0 0.0 0.0

2.2437899654575093e6 8.260274776926691e6 0.0
8.260274776926691e6 -1.0368786003661597e7 0.0
0.0 0.0 0.0

3.3898837459690757e6 7.648777178581595e6 0.0
7.648777178581595e6 -1.1447817606590837e7 0.0
0.0 0.0 0.0

-3.994400713662472e6 2.058696305375819e7 0.0
2.058696305375819e7 1.077475121632797e6 0.0
0.0 0.0 0.0

-7.052078070365301e6 1.8774568679892987e7 0.0
1.8774568679892987e7 7.095066878686076e6 0.0
0.0 0.0 0.0

-6.128483766075857e6 1.5198384194942873e7 0.0
1.5198384194942873e7 6.356376248372376e6 0.0
0.0 0.0 0.0

-3.621131777404763e6 1.643066660835876e7 0.0
1.643066660835876e7 -289644.03542496485 0.0
0.0 0.0 0.0

-6.147924676591707e6 2.0841647219111446e7 0.0
2.0841647219111446e7 5.158241979227286e6 0.0
0.0 0.0 0.0

-6.104547576712774e6 1.608353623472623e7 0.0
1.608353623472623e7 6.67038727410031e6 0.0
0.0 0.0 0.0

-1.5925385750365132e6 1.3328267740886437e7 0.0
1.3328267740886437e7 3.628475985212955e6 0.0
0.0 0.0 0.0

6.057705094187753e6 4.57875293973087e6 0.0
4.57875293973087e6 -2.7123785249296263e7 0.0
0.0 0.0 0.0

5.904767656881286e6 4.0991638578148996e6 0.0
4.0991638578148996e6 -1.8991113514295746e7 0.0
0.0 0.0 0.0

6.263921104400733e6 4.175830181074718e6 0.0
4.175830181074718e6 -2.352413962239954e7 0.0
0.0 0.0 0.0

-5.340490171486579e6 1.642906684647283e7 0.0
1.642906684647283e7 2.986715310690315e6 0.0
0.0 0.0 0.0

-2.971609946196751e6 7.352414788767435e6 0.0
7.352414788767435e6 166208.87129648658 0.0
0.0 0.0 0.0

-9.314550699663283e6 -7.833087742795593e6 0.0
-7.833087742795593e6 2.5218895217672013e7 0.0
0.0 0.0 0.0

-9.783351180941857e6 5.934141996112425e6 0.0
5.934141996112425e6 1.1163193514415924e7 0.0
0.0 0.0 0.0

4.529950572003472e6 5.579343912457087e6 0.0
5.579343912457087e6 -1.2423573088184698e7 0.0
0.0 0.0 0.0

-8.669331038283687e6 1.700222812529096e7 0.0
1.700222812529096e7 6.415171111309309e6 0.0
0.0 0.0 0.0

-2.203217763045023e6 1.190910466342078e7 0.0
1.190910466342078e7 -1.3169502428828266e7 0.0
0.0 0.0 0.0

-2.9378055435694996e6 -7.1261936485574525e6 0.0
-7.1261936485574525e6 1.004692455301112e7 0.0
0.0 0.0 0.0

-7.870823662393989e6 2.0660517070223645e6 0.0
2.0660517070223645e6 9.126169703954952e6 0.0
0.0 0.0 0.0

-1.2709521566804487e7 3.369137834708385e6 0.0
3.369137834708385e6 1.757019039451008e7 0.0
0.0 0.0 0.0

-6.12493693373567e6 1.3616699368370589e7 0.0
1.3616699368370589e7 9.562990560755594e6 0.0
0.0 0.0 0.0

2.3125913265913324e6 9.69378619666932e6 0.0
9.69378619666932e6 -1.3632041964709083e7 0.0
0.0 0.0 0.0

6.405691209121762e6 4.36755793380232e6 0.0
4.36755793380232e6 -2.584310858485888e7 0.0
0.0 0.0 0.0

5.197024677346863e6 4.634688972425106e6 0.0
4.634688972425106e6 -1.4855310126315331e7 0.0
0.0 0.0 0.0

-2.364040248317939e6 2.218380706767965e7 0.0
2.218380706767965e7 -5.931380536932476e6 0.0
0.0 0.0 0.0

-1.0318900051663022e7 -4.923079670222936e6 0.0
-4.923079670222936e6 3.373415797615874e7 0.0
0.0 0.0 0.0

4.618513045601775e6 7.479443267625869e6 0.0
7.479443267625869e6 -1.7946732653681956e7 0.0
0.0 0.0 0.0

-9.882523596681885e6 -622041.5922080287 0.0
-622041.5922080287 4.758522643030567e7 0.0
0.0 0.0 0.0

6.018129893798064e6 5.034517549011949e6 0.0
5.034517549011949e6 -2.9356580950557884e7 0.0
0.0 0.0 0.0

-6.007688946146287e6 1.6922631133868e7 0.0
1.6922631133868e7 6.97133478252578e6 0.0
0.0 0.0 0.0

-569283.3476798431 9.12203701718622e6 0.0
9.12203701718622e6 -4.612592472540492e6 0.0
0.0 0.0 0.0

-1.2120108565237713e6 1.2552283877495637e7 0.0
1.2552283877495637e7 -5.857669514530417e6 0.0
0.0 0.0 0.0

477499.4883051398 1.2103700301118797e7 0.0
1.2103700301118797e7 -1.084899613636933e7 0.0
0.0 0.0 0.0

-1.0053325075144993e7 -3.8538593493487015e6 0.0
-3.8538593493487015e6 3.749549630010974e7 0.0
0.0 0.0 0.0

6.245234410726054e6 4.301222002771492e6 0.0
4.301222002771492e6 -2.4518162139782682e7 0.0
0.0 0.0 0.0

-1.1245777661992421e7 9.077857339285064e6 0.0
9.077857339285064e6 1.3514484753972344e7 0.0
0.0 0.0 0.0

-1.0855853082064934e7 8.145857103891733e6 0.0
8.145857103891733e6 1.2502216660129588e7 0.0
0.0 0.0 0.0

-1.2640427598578539e7 4.406705946507649e6 0.0
4.406705946507649e6 1.590661161824322e7 0.0
0.0 0.0 0.0

-6.169003778765075e6 9.820179445278876e6 0.0
9.820179445278876e6 7.116292160178282e6 0.0
0.0 0.0 0.0

-2.0927560511781508e6 1.4507604588593006e7 0.0
1.4507604588593006e7 1.3454922724639889e7 0.0
0.0 0.0 0.0

-2.74781739336269e6 1.5564096590492178e7 0.0
1.5564096590492178e7 -2.405570038319027e6 0.0
0.0 0.0 0.0

-5.423450713336973e6 1.7342571450722862e7 0.0
1.7342571450722862e7 3.2429568297469146e6 0.0
0.0 0.0 0.0

-3.710365912977508e6 1.625445468549577e7 0.0
1.625445468549577e7 -1.432132142526331e6 0.0
0.0 0.0 0.0

2.7577642444255566e6 8.315166144506931e6 0.0
8.315166144506931e6 -1.0307774179403141e7 0.0
0.0 0.0 0.0

-5.950625704209998e6 1.8204100241252962e7 0.0
1.8204100241252962e7 6.20427883908453e6 0.0
0.0 0.0 0.0

-685744.5093437146 1.4022652434466915e7 0.0
1.4022652434466915e7 -2.6005417265929785e6 0.0
0.0 0.0 0.0

1.7193560403454793e6 1.067711396415447e7 0.0
1.067711396415447e7 -1.0823617547243226e7 0.0
0.0 0.0 0.0

-1.208185088255294e7 7.906071396901977e6 0.0
7.906071396901977e6 1.6987854333101522e7 0.0
0.0 0.0 0.0

-1.1709938407066219e7 5.715415276535936e6 0.0
5.715415276535936e6 1.3562152628936969e7 0.0
0.0 0.0 0.0

2.7946085327686737e6 7.888410267921097e6 0.0
7.888410267921097e6 -1.1823203439659832e7 0.0
0.0 0.0 0.0

-7.819310113713582e6 -9.1173051569725e6 0.0
-9.1173051569725e6 1.985309073647702e7 0.0
0.0 0.0 0.0

5.722103463829075e6 4.267569133473428e6 0.0
4.267569133473428e6 -1.772898910742119e7 0.0
0.0 0.0 0.0

-4.118086881911573e6 1.412301666154604e7 0.0
1.412301666154604e7 8.806508177051285e6 0.0
0.0 0.0 0.0

-1.0252443840106802e7 -5.488795890564632e6 0.0
-5.488795890564632e6 3.210238039885179e7 0.0
0.0 0.0 0.0

6.167566400555591e6 4.185966471582684e6 0.0
4.185966471582684e6 -2.204414262852419e7 0.0
0.0 0.0 0.0

5.74307503004767e6 4.240526914142399e6 0.0
4.240526914142399e6 -1.812000208115761e7 0.0
0.0 0.0 0.0

-8.3413776718081795e6 -9.072769148776246e6 0.0
-9.072769148776246e6 2.122195657338065e7 0.0
0.0 0.0 0.0

-9.484704142823782e6 1.1867572954530047e7 0.0
1.1867572954530047e7 1.9428084383665167e7 0.0
0.0 0.0 0.0

6.202136290369243e6 4.145242509670301e6 0.0
4.145242509670301e6 -2.1534836122377098e7 0.0
0.0 0.0 0.0

-1.0076876327625303e7 -6.084320102997611e6 0.0
-6.084320102997611e6 3.0340720425073765e7 0.0
0.0 0.0 0.0

-6.656408972453758e6 1.3379823330952222e7 0.0
1.3379823330952222e7 1.012536516962486e7 0.0
0.0 0.0 0.0

-8.4527056980058e6 -5.448179954081329e6 0.0
-5.448179954081329e6 1.7450191550671857e7 0.0
0.0 0.0 0.0

-8.974836745239843e6 -8.71826493135664e6 0.0
-8.71826493135664e6 2.3095971616294146e7 0.0
0.0 0.0 0.0

5.921645037037056e6 4.1876106260365276e6 0.0
4.1876106260365276e6 -1.8635590081507076e7 0.0
0.0 0.0 0.0

6.143818932579099e6 4.1789811260485915e6 0.0
4.1789811260485915e6 -2.095046896634707e7 0.0
0.0 0.0 0.0

-9.981467412405577e6 -6.544773342662364e6 0.0
-6.544773342662364e6 2.8876249153698135e7 0.0
0.0 0.0 0.0

-1.6130376632696065e8 4.0498150744516686e7 0.0
4.0498150744516686e7 -1.2425548426029228e7 0.0
0.0 0.0 0.0

1.120276944603827e8 1.9203091697731093e7 0.0
1.9203091697731093e7 1.758425707021363e6 0.0
0.0 0.0 0.0

-7.37327759221082e6 9.390667175555866e6 0.0
9.390667175555866e6 7.261960930131204e6 0.0
0.0 0.0 0.0

6.006789556338757e6 4.1755070039374228e6 0.0
4.1755070039374228e6 -2.039110303064929e7 0.0
0.0 0.0 0.0

-9.93296987287787e6 -6.837754187021417e6 0.0
-6.837754187021417e6 2.7797180936985906e7 0.0
0.0 0.0 0.0

1.0517200950771896e6 1.0641063314866811e7 0.0
1.0641063314866811e7 -2.848669032524435e6 0.0
0.0 0.0 0.0

-1.1104331597706482e7 6.743714861692837e6 0.0
6.743714861692837e6 1.2793393605019737e7 0.0
0.0 0.0 0.0

-5.29845571551418e6 1.6797022902224608e7 0.0
1.6797022902224608e7 4.463638777069898e6 0.0
0.0 0.0 0.0

-3.6318399566594358e6 1.4447813351433977e7 0.0
1.4447813351433977e7 9.280120394660316e6 0.0
0.0 0.0 0.0

-9.732692186507735e6 -7.213826959466553e6 0.0
-7.213826959466553e6 2.665162665032502e7 0.0
0.0 0.0 0.0

6.053078152464752e6 4.139427654801054e6 0.0
4.139427654801054e6 -2.0043337515903525e7 0.0
0.0 0.0 0.0

-3.458512051299795e6 1.5543755535774576e7 0.0
1.5543755535774576e7 -2.1401527598354574e6 0.0
0.0 0.0 0.0

-1.2463705252563152e6 1.320785514975279e7 0.0
1.320785514975279e7 -2.2332091031414554e7 0.0
0.0 0.0 0.0

-4.655812827271408e6 1.702082511717137e7 0.0
1.702082511717137e7 1.332096564383353e6 0.0
0.0 0.0 0.0

813636.458594982 1.155984878889867e7 0.0
1.155984878889867e7 -8.95962769290999e6 0.0
0.0 0.0 0.0

1.3748096636699112e6 1.1124018401664816e7 0.0
1.1124018401664816e7 -1.2797297442198887e7 0.0
0.0 0.0 0.0

-1.0475522804828761e6 1.327013343747907e7 0.0
1.327013343747907e7 1.6375889026295727e6 0.0
0.0 0.0 0.0

-2.715786820863112e6 1.5873908855058435e7 0.0
1.5873908855058435e7 -4.139199847512166e6 0.0
0.0 0.0 0.0

-1.7023667301606843e6 1.459978990756546e7 0.0
1.459978990756546e7 -5.1733448012341615e6 0.0
0.0 0.0 0.0

-439441.1193013266 1.2131058149255896e7 0.0
1.2131058149255896e7 -1.823869545218998e7 0.0
0.0 0.0 0.0

-4.92164558503877e6 1.7242081835704055e7 0.0
1.7242081835704055e7 3.410083099739623e6 0.0
0.0 0.0 0.0

-6.611391071200142e6 1.4989462053009477e7 0.0
1.4989462053009477e7 6.743444377942628e6 0.0
0.0 0.0 0.0

-3.5689651980254995e6 1.6511781356801745e7 0.0
1.6511781356801745e7 -2.4149330608136626e6 0.0
0.0 0.0 0.0

1.2525990184190813e6 1.136455569781454e7 0.0
1.136455569781454e7 -1.290025816744093e7 0.0
0.0 0.0 0.0

-8.397298925592387e6 6.85564793464256e6 0.0
6.85564793464256e6 9.281487642824622e6 0.0
0.0 0.0 0.0

-100093.25018020032 1.2749032421626214e7 0.0
1.2749032421626214e7 2.9387309088923773e6 0.0
0.0 0.0 0.0

-8.33050253008773e6 7.955461828250917e6 0.0
7.955461828250917e6 9.42369120465663e6 0.0
0.0 0.0 0.0

-2.416488510247562e6 1.234501458144397e7 0.0
1.234501458144397e7 -1.275372948016136e6 0.0
0.0 0.0 0.0

-5.020283041836308e6 1.7129192773463e7 0.0
1.7129192773463e7 3.798166584784031e6 0.0
0.0 0.0 0.0

969786.1980037298 1.1441001693569018e7 0.0
1.1441001693569018e7 -1.5065409693974558e7 0.0
0.0 0.0 0.0

-5.709889246447131e6 1.366377595631319e7 0.0
1.366377595631319e7 9.425931313339693e6 0.0
0.0 0.0 0.0

-6.513509238607412e6 2.1262946736628585e7 0.0
2.1262946736628585e7 5.575796296307883e6 0.0
0.0 0.0 0.0

-3.1077110021621264e6 1.2506518133590054e7 0.0
1.2506518133590054e7 -1.4867160872979034e6 0.0
0.0 0.0 0.0

-3.981522638038649e6 1.614156905507506e7 0.0
1.614156905507506e7 -734487.1441126326 0.0
0.0 0.0 0.0

2.707938467326533e6 1.3968798212810172e7 0.0
1.3968798212810172e7 5.842026422103869e6 0.0
0.0 0.0 0.0

-5.169449813661902e6 1.6975239032429803e7 0.0
1.6975239032429803e7 4.1010653440205776e6 0.0
0.0 0.0 0.0

-9.810395402708752e6 6.580771001090883e6 0.0
6.580771001090883e6 4.992955783736495e6 0.0
0.0 0.0 0.0

-5.140690531342115e6 1.825142017046464e7 0.0
1.825142017046464e7 4.0287776879359316e6 0.0
0.0 0.0 0.0

4.705111873194168e6 5.064350184266604e6 0.0
5.064350184266604e6 -1.2747724840141602e7 0.0
0.0 0.0 0.0

4.6906210422233315e6 5.161594867256203e6 0.0
5.161594867256203e6 -1.2481634136510443e7 0.0
0.0 0.0 0.0

-3.676086335141083e6 1.5875116970368084e7 0.0
1.5875116970368084e7 -1.2944698262889832e6 0.0
0.0 0.0 0.0

-3.647522391307003e6 1.4612922791890427e7 0.0
1.4612922791890427e7 1.1532435663726503e7 0.0
0.0 0.0 0.0

-5.139576333813937e6 1.867149080431014e7 0.0
1.867149080431014e7 4.047855277473269e6 0.0
0.0 0.0 0.0

-1.2375840839534998e7 4.415746349699859e6 0.0
4.415746349699859e6 1.4986146495967504e7 0.0
0.0 0.0 0.0

-5.7678682928338675e6 2.0097200047660496e7 0.0
2.0097200047660496e7 4.961056160152972e6 0.0
0.0 0.0 0.0

-4.0059947853324893e6 1.400287511365262e7 0.0
1.400287511365262e7 5.621240101708647e6 0.0
0.0 0.0 0.0

-1.1202197842797255e6 9.647629569871737e6 0.0
9.647629569871737e6 1.2274167123885136e6 0.0
0.0 0.0 0.0

3.0335946774169235e6 9.54044461883683e6 0.0
9.54044461883683e6 -1.4173021171194447e7 0.0
0.0 0.0 0.0

-5.952504434915112e6 1.6750024869293327e7 0.0
1.6750024869293327e7 4.626114826801299e6 0.0
0.0 0.0 0.0

-6.601337540856706e6 -1.4498176237832361e6 0.0
-1.4498176237832361e6 8.63373161947146e6 0.0
0.0 0.0 0.0

-1.030671520019632e7 1.0968231082675518e7 0.0
1.0968231082675518e7 2.0015596322014883e7 0.0
0.0 0.0 0.0

143463.91769828647 1.2005713740952557e7 0.0
1.2005713740952557e7 -2.058842835704549e7 0.0
0.0 0.0 0.0

-1.2056248120515522e7 5.380795260300395e6 0.0
5.380795260300395e6 1.714253369954002e7 0.0
0.0 0.0 0.0

20201.841747188475 1.6265412442572365e7 0.0
1.6265412442572365e7 -4.643767303863171e6 0.0
0.0 0.0 0.0

2.5958387581870547e6 9.790602824945815e6 0.0
9.790602824945815e6 -1.2697148936130706e7 0.0
0.0 0.0 0.0

-3.269412936169941e6 1.2259201552783985e7 0.0
1.2259201552783985e7 -1.1572686177468994e6 0.0
0.0 0.0 0.0

-4.406429548636951e6 1.6754387470133003e7 0.0
1.6754387470133003e7 663059.2209225544 0.0
0.0 0.0 0.0

922873.4885434243 1.0586669426638717e7 0.0
1.0586669426638717e7 -5.061663859656612e6 0.0
0.0 0.0 0.0

-9.271386388015322e6 5.561691443134e6 0.0
5.561691443134e6 1.3150273012726784e7 0.0
0.0 0.0 0.0

-1.2153833891961077e7 6.934916971003508e6 0.0
6.934916971003508e6 1.688799737826389e7 0.0
0.0 0.0 0.0

-4.198084862787367e6 1.643819673534826e7 0.0
1.643819673534826e7 -31455.882722673938 0.0
0.0 0.0 0.0

-6.456210247256855e6 9.060079947449606e6 0.0
9.060079947449606e6 7.774276493405703e6 0.0
0.0 0.0 0.0

5.46304970127637e6 5.433010705386697e6 0.0
5.433010705386697e6 -1.7924830906368375e7 0.0
0.0 0.0 0.0

-7.206305281278484e6 1.1043496066136962e7 0.0
1.1043496066136962e7 6.964048126965139e6 0.0
0.0 0.0 0.0

641420.9708663761 1.1165946645032933e7 0.0
1.1165946645032933e7 -7.9295616655350365e6 0.0
0.0 0.0 0.0

680448.4221133816 1.0609081287353525e7 0.0
1.0609081287353525e7 -972055.1631985276 0.0
0.0 0.0 0.0

-1.6565401995623317e6 1.392514789811276e7 0.0
1.392514789811276e7 -4.616088964273935e6 0.0
0.0 0.0 0.0

-2.0440396548264455e6 1.2414656764514422e7 0.0
1.2414656764514422e7 -3.620734178208838e6 0.0
0.0 0.0 0.0

1.0960145231560227e6 1.1387739932453671e7 0.0
1.1387739932453671e7 -1.210181667473584e7 0.0
0.0 0.0 0.0

3.6979924992217235e6 7.415324741078445e6 0.0
7.415324741078445e6 -1.4423726149204686e7 0.0
0.0 0.0 0.0

788690.4813415743 1.0874514592204103e7 0.0
1.0874514592204103e7 -6.588819841048135e6 0.0
0.0 0.0 0.0

2.1838187117442116e6 8.53783829263733e6 0.0
8.53783829263733e6 -1.0657352273366481e7 0.0
0.0 0.0 0.0

4.0778318868758366e6 5.517179260599375e6 0.0
5.517179260599375e6 -1.1039876200763673e7 0.0
0.0 0.0 0.0

-5.643889503998671e6 1.7103052719992917e7 0.0
1.7103052719992917e7 3.922455618692787e6 0.0
0.0 0.0 0.0

-598373.8402326617 9.382001055571716e6 0.0
9.382001055571716e6 -5.098678020189489e6 0.0
0.0 0.0 0.0

-5.438441961398783e6 1.3708091943517799e7 0.0
1.3708091943517799e7 8.872815667465053e6 0.0
0.0 0.0 0.0

-1.3586315594612746e6 1.0320819183690259e6 0.0
1.0320819183690259e6 1.2728769818690335e6 0.0
0.0 0.0 0.0

1.868317548431971e6 1.2068476342999773e7 0.0
1.2068476342999773e7 -1.2424378262556484e6 0.0
0.0 0.0 0.0

-2.6487900855946513e6 1.3777408061731713e7 0.0
1.3777408061731713e7 -2.5768000200788677e6 0.0
0.0 0.0 0.0

3.119723242355258e6 7.545004218407434e6 0.0
7.545004218407434e6 -1.2361034941491986e7 0.0
0.0 0.0 0.0

-6.041563382858289e7 9.535412116300039e6 0.0
9.535412116300039e6 1.1960229771979585e7 0.0
0.0 0.0 0.0

-7.568808508289991e6 1.2628431546247827e7 0.0
1.2628431546247827e7 1.1578236505437706e7 0.0
0.0 0.0 0.0

-277451.6264187372 1.2983880798483359e7 0.0
1.2983880798483359e7 -7.760360365182408e6 0.0
0.0 0.0 0.0

-1.3488630329260668e6 1.1618853517274983e7 0.0
1.1618853517274983e7 -4.664524890058647e6 0.0
0.0 0.0 0.0

2.329720916573271e6 1.0436593636833085e7 0.0
1.0436593636833085e7 -1.3122715618853495e7 0.0
0.0 0.0 0.0

-1.108672901197465e6 1.3174878780324161e7 0.0
1.3174878780324161e7 3.4786135607048376e6 0.0
0.0 0.0 0.0

3.0050639194351723e6 9.805009815696958e6 0.0
9.805009815696958e6 -1.5739890263517138e7 0.0
0.0 0.0 0.0

-934843.3213251396 1.3371347711385828e7 0.0
1.3371347711385828e7 4.3291527620531395e6 0.0
0.0 0.0 0.0

-156007.81518900022 1.1973768424121333e7 0.0
1.1973768424121333e7 -8.515275329219894e6 0.0
0.0 0.0 0.0

3.842485754856443e6 7.496937371717104e6 0.0
7.496937371717104e6 -1.3038909349223558e7 0.0
0.0 0.0 0.0

5.7369231818162585e6 4.615076181220534e6 0.0
4.615076181220534e6 -1.9892340880949855e7 0.0
0.0 0.0 0.0

-2.9671556147647444e6 1.7324868787818648e7 0.0
1.7324868787818648e7 -2.878522757923916e6 0.0
0.0 0.0 0.0

3.1126153751854934e6 9.647033104069812e6 0.0
9.647033104069812e6 -1.4993983194502085e7 0.0
0.0 0.0 0.0

-5.980866925690955e6 1.788127429719544e7 0.0
1.788127429719544e7 6.376792935066097e6 0.0
0.0 0.0 0.0

-3.9139971084644375e6 1.4614915458379975e7 0.0
1.4614915458379975e7 1.078270630026139e6 0.0
0.0 0.0 0.0

2.1694389949578037e6 6.823282041426157e6 0.0
6.823282041426157e6 -7.430570805689236e6 0.0
0.0 0.0 0.0

-7.185175219730392e6 2.1729647090626385e7 0.0
2.1729647090626385e7 5.899396233334893e6 0.0
0.0 0.0 0.0

3.312965851354786e6 7.9296162839959925e6 0.0
7.9296162839959925e6 -1.1728704258112747e7 0.0
0.0 0.0 0.0

-6.433368303595091e6 1.3516681059120165e7 0.0
1.3516681059120165e7 1.821755710834837e7 0.0
0.0 0.0 0.0

-624774.8150570157 1.3471763681312975e7 0.0
1.3471763681312975e7 -166282.08557156238 0.0
0.0 0.0 0.0

-7.052227537569599e6 1.8352130926691353e7 0.0
1.8352130926691353e7 6.915054114511812e6 0.0
0.0 0.0 0.0

-7.382041174858931e6 7.490639148517052e6 0.0
7.490639148517052e6 1.0204408959627636e7 0.0
0.0 0.0 0.0

1.9232349638527874e6 1.0295560999862792e7 0.0
1.0295560999862792e7 -1.317629604547374e7 0.0
0.0 0.0 0.0

-1.1563652310077362e6 8.214025564697905e6 0.0
8.214025564697905e6 -3.10281032407217e6 0.0
0.0 0.0 0.0

-1.6484159378669516e6 1.2776905891271718e7 0.0
1.2776905891271718e7 -3.046869422802663e6 0.0
0.0 0.0 0.0

5.116749813349198e6 1.2472883901391532e7 0.0
1.2472883901391532e7 -2.229632301974209e6 0.0
0.0 0.0 0.0

135983.16596083343 1.3027384867390867e7 0.0
1.3027384867390867e7 -8.93425222923305e6 0.0
0.0 0.0 0.0

920408.7263089726 7.33990380378332e6 0.0
7.33990380378332e6 -4.882264777174144e6 0.0
0.0 0.0 0.0

1.487407887014079e6 1.0840402314527553e7 0.0
1.0840402314527553e7 -1.2661752141654082e7 0.0
0.0 0.0 0.0

-6.772881324647613e6 -4.982732076333778e6 0.0
-4.982732076333778e6 1.255179579429475e7 0.0
0.0 0.0 0.0

-6.281393090662938e6 1.4315290771496812e7 0.0
1.4315290771496812e7 9.048052854376713e6 0.0
0.0 0.0 0.0

-1.1538466625991236e7 7.048561984383992e6 0.0
7.048561984383992e6 1.345661090487812e7 0.0
0.0 0.0 0.0

-1.1230236620240565e7 1.7160847023378957e7 0.0
1.7160847023378957e7 5.09311716735318e6 0.0
0.0 0.0 0.0

-385215.57756652683 1.2067981687269635e7 0.0
1.2067981687269635e7 -1.810126022470242e7 0.0
0.0 0.0 0.0

-6.0626805067937765e6 1.6505847119279496e7 0.0
1.6505847119279496e7 6.728533816678837e6 0.0
0.0 0.0 0.0

-6.102002972012515e6 1.711744690054527e7 0.0
1.711744690054527e7 6.689322734315457e6 0.0
0.0 0.0 0.0

-1.4921541870723804e6 1.4880636254206406e7 0.0
1.4880636254206406e7 -6.073842807548306e6 0.0
0.0 0.0 0.0

949996.2062570592 1.13529043541465e7 0.0
1.13529043541465e7 -1.901777636808785e7 0.0
0.0 0.0 0.0

-5.028053250923663e6 1.3463305008682055e7 0.0
1.3463305008682055e7 8.582884016615564e6 0.0
0.0 0.0 0.0

-1.2258078093415327e7 471515.0181723915 0.0
471515.0181723915 2.3757802920940127e7 0.0
0.0 0.0 0.0

2.3517558123691794e6 4.599119723244568e6 0.0
4.599119723244568e6 -6.632959578974282e6 0.0
0.0 0.0 0.0

708108.3346383241 1.1914411889192445e7 0.0
1.1914411889192445e7 -1.2294249404526796e7 0.0
0.0 0.0 0.0

-2.333692611862607e6 1.5468133806015732e7 0.0
1.5468133806015732e7 -4.873613520392424e6 0.0
0.0 0.0 0.0

-2.6946553516026274e6 1.2882461679071292e7 0.0
1.2882461679071292e7 -881835.118462097 0.0
0.0 0.0 0.0

-553299.0742011836 1.1030064564360082e7 0.0
1.1030064564360082e7 -5.994460622339958e6 0.0
0.0 0.0 0.0

-2.646054647263403e6 1.2246142102823317e7 0.0
1.2246142102823317e7 -1.4529572543471487e7 0.0
0.0 0.0 0.0

-1.270707639969613e7 6.047682967174077e6 0.0
6.047682967174077e6 1.5748809758045323e7 0.0
0.0 0.0 0.0

-4.831643353537379e6 1.8503436013779875e7 0.0
1.8503436013779875e7 3.1078952734594517e6 0.0
0.0 0.0 0.0

-1.6658842839087417e7 1.517115470704097e7 0.0
1.517115470704097e7 8.884338407735195e6 0.0
0.0 0.0 0.0

2.0203167024836605e6 1.222433107217355e7 0.0
1.222433107217355e7 -1.1562399662099236e6 0.0
0.0 0.0 0.0

1.8927600529140881e6 6.690137791733453e6 0.0
6.690137791733453e6 -8.272534898828944e6 0.0
0.0 0.0 0.0

-2.82340298808952e6 1.262556163826102e7 0.0
1.262556163826102e7 -566348.4350857458 0.0
0.0 0.0 0.0

-1.2086780214776684e7 4.46410930856777e6 0.0
4.46410930856777e6 1.886971253454935e7 0.0
0.0 0.0 0.0

-6.492749975733112e6 1.8734047170070417e7 0.0
1.8734047170070417e7 6.512986815152815e6 0.0
0.0 0.0 0.0

-5.720472896355924e6 1.3375960753403148e7 0.0
1.3375960753403148e7 9.402860989273349e6 0.0
0.0 0.0 0.0

-5.232620106569584e6 1.7437821750018544e7 0.0
1.7437821750018544e7 2.918063186587102e6 0.0
0.0 0.0 0.0

193309.2700041989 1.1698893161813295e7 0.0
1.1698893161813295e7 -9.168848357267136e6 0.0
0.0 0.0 0.0

-1.2656236272082826e7 6.169822781440115e6 0.0
6.169822781440115e6 1.8039822131713524e7 0.0
0.0 0.0 0.0

410598.8233734765 1.2289938918919973e7 0.0
1.2289938918919973e7 -1.0964550927173989e7 0.0
0.0 0.0 0.0

-2.175431729078027e6 1.4745327661730666e7 0.0
1.4745327661730666e7 -1.363892896699211e6 0.0
0.0 0.0 0.0

-4.965291703602036e6 1.8744050122151513e7 0.0
1.8744050122151513e7 3.255117150051986e6 0.0
0.0 0.0 0.0

3.7154751401113914e6 5.913789122978386e6 0.0
5.913789122978386e6 -1.1153915046217589e7 0.0
0.0 0.0 0.0

184116.5226026657 1.425229085456458e7 0.0
1.425229085456458e7 -6.7114750499383025e6 0.0
0.0 0.0 0.0

-5.976205479114891e6 1.6369330698413283e7 0.0
1.6369330698413283e7 6.257875249709742e6 0.0
0.0 0.0 0.0

-7.904101041205001e6 6.509755953025967e6 0.0
6.509755953025967e6 1.1202486015684916e7 0.0
0.0 0.0 0.0

-2.12019139784124e6 1.5782909877986081e7 0.0
1.5782909877986081e7 -2.813311929972876e6 0.0
0.0 0.0 0.0

-1.2660318184798777e7 7.752092965336042e6 0.0
7.752092965336042e6 1.5137684109955657e7 0.0
0.0 0.0 0.0

-1.741705429566916e6 4.051547063399663e6 0.0
4.051547063399663e6 4.753059992560091e6 0.0
0.0 0.0 0.0

-5.9679017056783205e6 1.593689087267162e7 0.0
1.593689087267162e7 6.095847772792542e6 0.0
0.0 0.0 0.0

-1.208714974871017e7 4.770534092455853e6 0.0
4.770534092455853e6 1.4070755550869834e7 0.0
0.0 0.0 0.0

-7.1162317445102045e6 1.3406452061598485e7 0.0
1.3406452061598485e7 7.387748466471251e6 0.0
0.0 0.0 0.0

-1.0126655067059528e6 1.4199661987858223e7 0.0
1.4199661987858223e7 9.704068940841649e6 0.0
0.0 0.0 0.0

1.3268080374558596e6 1.1078053792788168e7 0.0
1.1078053792788168e7 -1.7567539481545124e7 0.0
0.0 0.0 0.0

-1.1745066302354946e6 1.222916399677538e6 0.0
1.222916399677538e6 1.2360701543451718e6 0.0
0.0 0.0 0.0

-975318.5918507075 1.7557554049643546e7 0.0
1.7557554049643546e7 -4.1939053471287596e6 0.0
0.0 0.0 0.0

-1.1809989069786998e7 4.566241722058687e6 0.0
4.566241722058687e6 1.679486483868256e7 0.0
0.0 0.0 0.0

531245.3841409348 9.87039181392075e6 0.0
9.87039181392075e6 -7.577989154597258e6 0.0
0.0 0.0 0.0

-4.151312760240787e6 1.3579578234188836e7 0.0
1.3579578234188836e7 7.076861075780627e6 0.0
0.0 0.0 0.0

-1.3594280074836581e6 1.226797683892422e7 0.0
1.226797683892422e7 -3.398208026319918e6 0.0
0.0 0.0 0.0

-6.934732092680285e6 1.3804744486059278e7 0.0
1.3804744486059278e7 9.411116548857218e6 0.0
0.0 0.0 0.0

210759.68757550186 8.502970227775032e6 0.0
8.502970227775032e6 -4.958316212243194e6 0.0
0.0 0.0 0.0

-5.1320803865454765e6 1.5407670609973269e7 0.0
1.5407670609973269e7 4.415034779608972e6 0.0
0.0 0.0 0.0

-7.128748595381165e6 1.35652214274113e7 0.0
1.35652214274113e7 7.916759300870039e6 0.0
0.0 0.0 0.0

-151895.8320597252 1.4229810123688536e7 0.0
1.4229810123688536e7 -7.046761604753091e6 0.0
0.0 0.0 0.0

-6.219398186071243e6 1.63278427019128e7 0.0
1.63278427019128e7 5.451782831828503e6 0.0
0.0 0.0 0.0

-5.188162869003094e6 1.9020561494440753e7 0.0
1.9020561494440753e7 4.315730980326077e6 0.0
0.0 0.0 0.0

1.401567458064476e6 1.1077532705136625e7 0.0
1.1077532705136625e7 -1.587270626749934e7 0.0
0.0 0.0 0.0

1.7343230418765896e6 4.1847106521940343e6 0.0
4.1847106521940343e6 -4.333208467847956e6 0.0
0.0 0.0 0.0

-1.3802952488734473e6 3.9732995550613757e6 0.0
3.9732995550613757e6 -614430.4768124023 0.0
0.0 0.0 0.0

5.992467097664285e6 5.42331553026205e6 0.0
5.42331553026205e6 -2.4332844961219277e7 0.0
0.0 0.0 0.0

-2.6346811569397603e6 1.5024270241430296e7 0.0
1.5024270241430296e7 -2.414830158799828e6 0.0
0.0 0.0 0.0

-6.361004036442387e6 1.3251833310089381e7 0.0
1.3251833310089381e7 1.0118185959290193e7 0.0
0.0 0.0 0.0

-1.0502780349474467e7 6.251848143837466e6 0.0
6.251848143837466e6 1.1968338642902484e7 0.0
0.0 0.0 0.0

-7.906153473211032e6 2.2255537438772574e7 0.0
2.2255537438772574e7 6.231658448165807e6 0.0
0.0 0.0 0.0

-1.248890354921375e7 3.4023784525297033e6 0.0
3.4023784525297033e6 1.6405289915784942e7 0.0
0.0 0.0 0.0

6.651904844882822e6 3.4995783732176915e7 0.0
3.4995783732176915e7 -9.385713363315016e6 0.0
0.0 0.0 0.0

-1.7076895100462073e6 1.4067622544168545e7 0.0
1.4067622544168545e7 -6.235369888146241e6 0.0
0.0 0.0 0.0

1.396860813684295e6 1.0963451509270394e7 0.0
1.0963451509270394e7 -1.0181529882408973e7 0.0
0.0 0.0 0.0

-5.459280715316938e6 1.3954991453174016e7 0.0
1.3954991453174016e7 8.333823642349334e6 0.0
0.0 0.0 0.0

-1.2834167947818732e7 5.3630578257013075e6 0.0
5.3630578257013075e6 1.7142695328362845e7 0.0
0.0 0.0 0.0

-2.170943303693591e6 1.485387142171215e7 0.0
1.485387142171215e7 -3.929222605773177e6 0.0
0.0 0.0 0.0

25237.232700367458 1.0779858320531884e7 0.0
1.0779858320531884e7 946949.4122158663 0.0
0.0 0.0 0.0

5.234806134541585e6 4.836792587799694e6 0.0
4.836792587799694e6 -1.6539781278631989e7 0.0
0.0 0.0 0.0

-3.251810740960409e6 6.536594121231207e6 0.0
6.536594121231207e6 2.88607999606594e6 0.0
0.0 0.0 0.0

-9.483216206764545e6 2.3636449185259324e7 0.0
2.3636449185259324e7 7.0599025946189575e6 0.0
0.0 0.0 0.0

-7.629092251827636e6 1.2966822186395561e7 0.0
1.2966822186395561e7 1.0812180462978115e7 0.0
0.0 0.0 0.0

461929.8167338427 1.1869035054147024e7 0.0
1.1869035054147024e7 -1.087371925023935e7 0.0
0.0 0.0 0.0

2.10194892632612e6 1.2211138132014059e7 0.0
1.2211138132014059e7 2.3044242520109927e6 0.0
0.0 0.0 0.0

-2.9823149566023964e6 4.651386109392869e6 0.0
4.651386109392869e6 1.6826686057270523e6 0.0
0.0 0.0 0.0

-2.8883348381985174e6 7.827359506339543e6 0.0
7.827359506339543e6 -140917.13166436646 0.0
0.0 0.0 0.0

481341.067918892 1.1393629411832865e7 0.0
1.1393629411832865e7 -9.127411244123975e6 0.0
0.0 0.0 0.0

-238842.62423180416 1.1630859758409685e7 0.0
1.1630859758409685e7 -5.806003352747872e6 0.0
0.0 0.0 0.0

-8.216246358046988e6 1.2165524036233556e7 0.0
1.2165524036233556e7 9.477201827906854e6 0.0
0.0 0.0 0.0

729520.2535789357 1.1771857602768995e7 0.0
1.1771857602768995e7 -1.2860037447796712e7 0.0
0.0 0.0 0.0

2.758816766100996e6 9.833721871518264e6 0.0
9.833721871518264e6 -1.3557834758175017e7 0.0
0.0 0.0 0.0

-6.063578816810282e6 1.6587865366935225e7 0.0
1.6587865366935225e7 7.003694638811309e6 0.0
0.0 0.0 0.0

984509.1937774201 1.2055426052006315e7 0.0
1.2055426052006315e7 -1.0804922515938496e7 0.0
0.0 0.0 0.0

-1.065595312923592e7 6.434141452431105e6 0.0
6.434141452431105e6 1.4585272644981613e7 0.0
0.0 0.0 0.0

3.3578158027956346e6 5.562942342559975e6 0.0
5.562942342559975e6 -9.094740713976871e6 0.0
0.0 0.0 0.0

-1.8406022228125237e7 2.038869575720866e7 0.0
2.038869575720866e7 2.3564857876018854e6 0.0
0.0 0.0 0.0

1.607414089201997e6 6.379571790071487e6 0.0
6.379571790071487e6 -7.307516471269456e6 0.0
0.0 0.0 0.0

3.6818364944541366e6 4.47808958462264e6 0.0
4.47808958462264e6 -9.34825634072439e6 0.0
0.0 0.0 0.0

-5.987619224723993e6 1.7028616664020054e7 0.0
1.7028616664020054e7 6.7687420451203445e6 0.0
0.0 0.0 0.0

560634.3322855883 9.978675005486038e6 0.0
9.978675005486038e6 1.8687814275429212e6 0.0
0.0 0.0 0.0

2.0717035778398418e6 1.3167583612987706e7 0.0
1.3167583612987706e7 -4.349180122536817e6 0.0
0.0 0.0 0.0

-9.872708883155154e6 1.2209018623792483e7 0.0
1.2209018623792483e7 1.3314034553385353e7 0.0
0.0 0.0 0.0

-7.360249711363856e6 1.3521310700290995e7 0.0
1.3521310700290995e7 1.3070769436142195e7 0.0
0.0 0.0 0.0

1.1610810625935178e6 1.2482867578121882e7 0.0
1.2482867578121882e7 2.0373304971512303e7 0.0
0.0 0.0 0.0

-86341.08795761969 1.2835524679199295e7 0.0
1.2835524679199295e7 -2.466848860439826e6 0.0
0.0 0.0 0.0

-6.519913945070851e6 1.3903455717774352e7 0.0
1.3903455717774352e7 9.562355898332076e6 0.0
0.0 0.0 0.0

-6.961537452314317e6 1.1635455967482477e7 0.0
1.1635455967482477e7 6.326970873597918e6 0.0
0.0 0.0 0.0

378935.6442608256 1.1580881780036166e7 0.0
1.1580881780036166e7 -1.026558637399353e7 0.0
0.0 0.0 0.0

-6.290545044697662e6 1.6551664781393126e7 0.0
1.6551664781393126e7 5.963776477795368e6 0.0
0.0 0.0 0.0

-1.27428539190134e7 5.237322527912447e6 0.0
5.237322527912447e6 1.6242524138157906e7 0.0
0.0 0.0 0.0

1.79465495908668e6 1.6573670147558266e7 0.0
1.6573670147558266e7 -5.2321465708096735e6 0.0
0.0 0.0 0.0

-1.4671853134102977e6 1.4241548670147866e7 0.0
1.4241548670147866e7 -5.457240642482791e6 0.0
0.0 0.0 0.0

3.5234751987480316e6 6.759216489109069e6 0.0
6.759216489109069e6 -1.2312008066408828e7 0.0
0.0 0.0 0.0

-662672.1800886733 1.5329478232347976e7 0.0
1.5329478232347976e7 -5.168569529620682e6 0.0
0.0 0.0 0.0

-4.273069344697541e6 1.6804999256767813e7 0.0
1.6804999256767813e7 1.734499672476531e6 0.0
0.0 0.0 0.0

-1.5062624484766254e6 1.032795837870223e7 0.0
1.032795837870223e7 -5.020875428583076e6 0.0
0.0 0.0 0.0

4.672475554506973e6 1.5557327371355299e7 0.0
1.5557327371355299e7 1.5574927629902847e7 0.0
0.0 0.0 0.0

-1.0370247253288355e7 -6.243712331656861e6 0.0
-6.243712331656861e6 2.22163596941716e7 0.0
0.0 0.0 0.0

-585588.5301244778 1.2010505428624658e7 0.0
1.2010505428624658e7 2.6465548380686752e6 0.0
0.0 0.0 0.0

-7.1629104107527565e6 -6.891224620524692e6 0.0
-6.891224620524692e6 1.3869850920897335e7 0.0
0.0 0.0 0.0

-3.9972839156270158e6 1.7115431195194937e7 0.0
1.7115431195194937e7 764071.9697862153 0.0
0.0 0.0 0.0

-2.6040266759537957e6 1.681368378653888e7 0.0
1.681368378653888e7 -3.5548407806825507e6 0.0
0.0 0.0 0.0

-8.651260097568272e6 2.2870654239585206e7 0.0
2.2870654239585206e7 6.394712291595839e6 0.0
0.0 0.0 0.0

-2.150720278407165e6 1.3732705483844552e7 0.0
1.3732705483844552e7 7.861690838974792e6 0.0
0.0 0.0 0.0

-1.2068532011834497e7 4.540622856744805e6 0.0
4.540622856744805e6 1.7755581306338437e7 0.0
0.0 0.0 0.0

-4.241481140236164e6 1.741794856498598e7 0.0
1.741794856498598e7 1.5241221529834943e6 0.0
0.0 0.0 0.0

-7.095583077526215e6 1.410249887374641e7 0.0
1.410249887374641e7 7.460420382281849e6 0.0
0.0 0.0 0.0

-6.349911452889619e6 1.565169917459723e7 0.0
1.565169917459723e7 5.6563901970371585e6 0.0
0.0 0.0 0.0

4.534387398056163e6 7.723520906688187e6 0.0
7.723520906688187e6 -1.896446622556374e7 0.0
0.0 0.0 0.0

-6.027631465364985e6 1.6558987639115773e7 0.0
1.6558987639115773e7 7.261299822324397e6 0.0
0.0 0.0 0.0

4.0492243437323743e6 1.2452997159406397e7 0.0
1.2452997159406397e7 3.8476221046375223e6 0.0
0.0 0.0 0.0

2.298567958752244e6 1.0109779855166854e7 0.0
1.0109779855166854e7 -1.2062327784531109e7 0.0
0.0 0.0 0.0

-1.1368159317160908e7 -1.2134757469009506e6 0.0
-1.2134757469009506e6 3.55514053282348e7 0.0
0.0 0.0 0.0

-4.965323051762821e6 1.8037158237702716e7 0.0
1.8037158237702716e7 3.5728992174118655e6 0.0
0.0 0.0 0.0

496824.73594641336 1.2348134961458674e7 0.0
1.2348134961458674e7 2.231440278448033e6 0.0
0.0 0.0 0.0

-5.210095192702887e7 4.382878689995141e7 0.0
4.382878689995141e7 -1.3351675897657653e7 0.0
0.0 0.0 0.0

3.8845594281940334e6 5.493354305244442e6 0.0
5.493354305244442e6 -1.0891651326786757e7 0.0
0.0 0.0 0.0

-3.1005822335696644e6 1.3162680795053666e7 0.0
1.3162680795053666e7 -168593.69257025153 0.0
0.0 0.0 0.0

-8.682238583710881e6 1.6477522358935805e7 0.0
1.6477522358935805e7 5.179756952735949e6 0.0
0.0 0.0 0.0

503882.2538622585 1.2965607195929285e7 0.0
1.2965607195929285e7 -9.28140716063996e6 0.0
0.0 0.0 0.0

-1.5884387487295337e6 1.4054435536233937e7 0.0
1.4054435536233937e7 -6.768563347481451e6 0.0
0.0 0.0 0.0

4.0497282821481163e6 1.3286253058179619e7 0.0
1.3286253058179619e7 -3.7430270307479063e6 0.0
0.0 0.0 0.0

-6.436532447463715e6 2.015874613584964e7 0.0
2.015874613584964e7 6.195451122975541e6 0.0
0.0 0.0 0.0

-1.9662103466752684e6 1.4632562539360913e7 0.0
1.4632562539360913e7 -3.3105832816949384e6 0.0
0.0 0.0 0.0

5.5439086725780545e6 5.693517624342484e6 0.0
5.693517624342484e6 -1.9475549287407108e7 0.0
0.0 0.0 0.0

-1.3321296039818848e7 1.81455726249233e7 0.0
1.81455726249233e7 140437.32060893718 0.0
0.0 0.0 0.0

-6.667079094100942e6 1.3796920736084543e7 0.0
1.3796920736084543e7 7.977837471434447e6 0.0
0.0 0.0 0.0

-2.264072638723276e6 1.631673223123424e7 0.0
1.631673223123424e7 -4.1718127175174393e6 0.0
0.0 0.0 0.0

-6.843250555530338e6 1.3403881916977052e7 0.0
1.3403881916977052e7 1.6903547214622755e7 0.0
0.0 0.0 0.0

4.310680653983055e6 1.478128423289577e7 0.0
1.478128423289577e7 -6.309634323504752e6 0.0
0.0 0.0 0.0

-5.850538146741582e6 1.5556803479254052e7 0.0
1.5556803479254052e7 7.6900050616691e6 0.0
0.0 0.0 0.0

-843126.6171224162 1.2010203756664516e7 0.0
1.2010203756664516e7 -6.292817108100432e6 0.0
0.0 0.0 0.0

-44161.787234616 8.246809751186941e6 0.0
8.246809751186941e6 3.727027174170679e6 0.0
0.0 0.0 0.0

616040.6705915076 1.4103671696809636e7 0.0
1.4103671696809636e7 -6.322537919503739e6 0.0
0.0 0.0 0.0

-8.908434770313855e6 1.2632568705205392e7 0.0
1.2632568705205392e7 1.2022062865971534e7 0.0
0.0 0.0 0.0

-1.118396178638747e7 2.4218237387111033e6 0.0
2.4218237387111033e6 3.761971328987389e7 0.0
0.0 0.0 0.0

-1.0830058754077338e7 -2.328007767357696e6 0.0
-2.328007767357696e6 3.9960847400721714e7 0.0
0.0 0.0 0.0

-1.5387024469012097e6 1.3035878847145347e7 0.0
1.3035878847145347e7 -5.388335324085259e6 0.0
0.0 0.0 0.0

295189.67990881857 1.352889432439622e7 0.0
1.352889432439622e7 -8.179575097521661e6 0.0
0.0 0.0 0.0

-1.4175699856296144e6 1.4077472189399252e7 0.0
1.4077472189399252e7 -7.106850269385825e6 0.0
0.0 0.0 0.0

-4.2924774227140155e6 1.5468493043913307e7 0.0
1.5468493043913307e7 -486432.4021137811 0.0
0.0 0.0 0.0

5.354415153387172e6 1.2532389123124575e7 0.0
1.2532389123124575e7 2.430077803672013e6 0.0
0.0 0.0 0.0

-7.8320168093705345e6 1.291237960850109e7 0.0
1.291237960850109e7 1.058129332479065e7 0.0
0.0 0.0 0.0

-1.1098173835307648e6 1.4042659705119625e7 0.0
1.4042659705119625e7 -7.431620935598562e6 0.0
0.0 0.0 0.0

-852676.1173287781 1.1530536011688007e7 0.0
1.1530536011688007e7 -5.701706004929841e6 0.0
0.0 0.0 0.0

-6.154014939317061e6 -415537.88170245674 0.0
-415537.88170245674 8.436327235279245e6 0.0
0.0 0.0 0.0

2.223163208443951e6 1.0394114192969859e7 0.0
1.0394114192969859e7 -1.602958944581239e7 0.0
0.0 0.0 0.0

-9.774136978177547e6 -3.8420230184053187e6 0.0
-3.8420230184053187e6 1.513434708097656e7 0.0
0.0 0.0 0.0

-3.5659033515805593e6 -4.119842379544669e6 0.0
-4.119842379544669e6 8.335849939940541e6 0.0
0.0 0.0 0.0

-4.8414489982564915e6 -3.235168223429781e6 0.0
-3.235168223429781e6 8.942631244318638e6 0.0
0.0 0.0 0.0

-2.5753570315832994e6 7.853969069552574e6 0.0
7.853969069552574e6 899452.998162976 0.0
0.0 0.0 0.0

542713.4637249783 1.1403931541663492e7 0.0
1.1403931541663492e7 -9.833072131357215e6 0.0
0.0 0.0 0.0

2.6737692087741364e6 1.024046895556151e7 0.0
1.024046895556151e7 -1.5788981946715478e7 0.0
0.0 0.0 0.0

-270412.38315367553 1.3762995972154655e7 0.0
1.3762995972154655e7 -2.380586507017635e6 0.0
0.0 0.0 0.0

-761438.3267844503 1.4586736249732379e7 0.0
1.4586736249732379e7 -6.22897470028754e6 0.0
0.0 0.0 0.0

2.3533770976358475e6 1.2805215904541755e7 0.0
1.2805215904541755e7 -2.924682106099346e6 0.0
0.0 0.0 0.0

-3.5348961044547777e6 1.6011091318857327e7 0.0
1.6011091318857327e7 -202073.0622667682 0.0
0.0 0.0 0.0

1.999390823013801e7 1.4930001079408802e7 0.0
1.4930001079408802e7 1.4771187825926868e6 0.0
0.0 0.0 0.0

-1.5550702220647628e6 1.078134902087077e7 0.0
1.078134902087077e7 9.639134548865167e6 0.0
0.0 0.0 0.0

1.5920257710961925e6 1.3573839545119885e7 0.0
1.3573839545119885e7 -5.239195042616665e6 0.0
0.0 0.0 0.0

-1.590832823231481e6 1.681126750924491e7 0.0
1.681126750924491e7 -3.5579274387896284e6 0.0
0.0 0.0 0.0

-4.681777002001373e6 1.7869121776766907e7 0.0
1.7869121776766907e7 2.678645850054289e6 0.0
0.0 0.0 0.0

659200.582093684 1.248639138363836e7 0.0
1.248639138363836e7 -1.0311983299960209e7 0.0
0.0 0.0 0.0

-7.756640455166726e6 1.590666763017079e7 0.0
1.590666763017079e7 3.182051234444765e6 0.0
0.0 0.0 0.0

-6.133271884581906e6 1.7262053968753137e7 0.0
1.7262053968753137e7 6.6595297082502395e6 0.0
0.0 0.0 0.0

4.720679520615991e6 5.021583891348284e6 0.0
5.021583891348284e6 -1.1958032519489642e7 0.0
0.0 0.0 0.0

-4.532996848962026e6 1.6646825615386155e7 0.0
1.6646825615386155e7 994289.4605852542 0.0
0.0 0.0 0.0

-1.1191081902549637e7 2.4275319919147145e7 0.0
2.4275319919147145e7 7.32010025529367e6 0.0
0.0 0.0 0.0

-699302.8983681018 8.645620643562082e6 0.0
8.645620643562082e6 -4.957660273866248e6 0.0
0.0 0.0 0.0

2.474146535427044e6 1.012813255629619e7 0.0
1.012813255629619e7 -1.2919021764910411e7 0.0
0.0 0.0 0.0

2.7737893914969107e6 1.0021406936523397e7 0.0
1.0021406936523397e7 -1.5169037561296934e7 0.0
0.0 0.0 0.0

2.140991026597648e6 1.0731488559724653e7 0.0
1.0731488559724653e7 -1.5737081974037644e7 0.0
0.0 0.0 0.0

-2.3132035906136762e6 2.1991353693106905e7 0.0
2.1991353693106905e7 -2.0059373480847464e6 0.0
0.0 0.0 0.0

-799842.5922832002 1.3907874380607316e7 0.0
1.3907874380607316e7 -7.748139293328704e6 0.0
0.0 0.0 0.0

153383.60820475128 1.459906061342469e7 0.0
1.459906061342469e7 1.0311137522051297e7 0.0
0.0 0.0 0.0

-1.802632074860099e7 9.551655066175185e6 0.0
9.551655066175185e6 9.810177544323344e6 0.0
0.0 0.0 0.0

-3.451792838285647e7 2.0811476972319398e7 0.0
2.0811476972319398e7 5.206458393860737e6 0.0
0.0 0.0 0.0

5.522807275032664e6 6.551577140524413e6 0.0
6.551577140524413e6 -2.362054053291323e7 0.0
0.0 0.0 0.0

1.0172890700733201e6 1.3935951318123661e7 0.0
1.3935951318123661e7 -5.9091242204852e6 0.0
0.0 0.0 0.0

-1.5033474785297771e6 1.5908813756528398e7 0.0
1.5908813756528398e7 -4.7943462367987605e6 0.0
0.0 0.0 0.0

4.512821105088699e6 4.874770752604165e6 0.0
4.874770752604165e6 -1.1490050384012941e7 0.0
0.0 0.0 0.0

-5.543017917571941e6 1.5867215771852445e7 0.0
1.5867215771852445e7 -550612.2070808182 0.0
0.0 0.0 0.0

-4.5912250289487885e6 1.3873743428583235e7 0.0
1.3873743428583235e7 8.5922923923694e6 0.0
0.0 0.0 0.0

-2.6326704304913864e6 1.3117514355136668e7 0.0
1.3117514355136668e7 1.1455191987419989e7 0.0
0.0 0.0 0.0

-4.0901919557429357e6 60825.23124436066 0.0
60825.23124436066 5.154892947550035e6 0.0
0.0 0.0 0.0

1.4852937148633907e6 1.1537050183910036e7 0.0
1.1537050183910036e7 -1.213453295323439e7 0.0
0.0 0.0 0.0

2.4929472809221502e6 8.214430923765264e6 0.0
8.214430923765264e6 -1.1249523770641906e7 0.0
0.0 0.0 0.0

897867.8390763754 7.095706338685555e6 0.0
7.095706338685555e6 -4.519656466070348e6 0.0
0.0 0.0 0.0

-4.301147724124215e6 436305.29058930906 0.0
436305.29058930906 4.1243332480495395e6 0.0
0.0 0.0 0.0

-3.912088524686247e6 1.4076929443096623e7 0.0
1.4076929443096623e7 4.433437546805817e7 0.0
0.0 0.0 0.0

-1.2191139868408885e7 -604099.1353102064 0.0
-604099.1353102064 2.3009813664032646e7 0.0
0.0 0.0 0.0

-4.011993440295659e6 1.8545644481074296e7 0.0
1.8545644481074296e7 951657.6129744786 0.0
0.0 0.0 0.0

-3.20862250322217e6 1.2909822611955034e7 0.0
1.2909822611955034e7 171619.30416749 0.0
0.0 0.0 0.0

407540.83702080837 1.0947957032790598e7 0.0
1.0947957032790598e7 -8.347615738212701e6 0.0
0.0 0.0 0.0

-1.6501221402286147e6 1.5620961667158758e7 0.0
1.5620961667158758e7 -4.652810100075937e6 0.0
0.0 0.0 0.0

-6.2364846075673625e6 1.6711047585986216e7 0.0
1.6711047585986216e7 6.395391058910254e6 0.0
0.0 0.0 0.0

-5.488517402962887e6 2.4649420463836074e7 0.0
2.4649420463836074e7 1.2782098377516281e6 0.0
0.0 0.0 0.0

2.7962149293531636e6 5.1986424089053795e6 0.0
5.1986424089053795e6 -7.735000303387043e6 0.0
0.0 0.0 0.0

-6.975156144943994e6 -851664.1403613928 0.0
-851664.1403613928 7.671170975910921e6 0.0
0.0 0.0 0.0

-436652.06227581913 1.299812196532043e7 0.0
1.299812196532043e7 -247870.68470475316 0.0
0.0 0.0 0.0

-7.015509750450848e6 1.7281925291648522e7 0.0
1.7281925291648522e7 6.299167188727693e6 0.0
0.0 0.0 0.0

-5.771896367291456e6 1.3927622816962382e7 0.0
1.3927622816962382e7 1.0380482578962378e7 0.0
0.0 0.0 0.0

-1.1259116064151261e7 5.631291563295607e6 0.0
5.631291563295607e6 1.5202924408187797e7 0.0
0.0 0.0 0.0

2.0547887154039722e6 1.072431327448598e7 0.0
1.072431327448598e7 -1.2493612390365217e7 0.0
0.0 0.0 0.0

-9.678106776004983e7 1.556899552467137e7 0.0
1.556899552467137e7 2.1992348663118556e6 0.0
0.0 0.0 0.0

-1.165917627081059e7 4.574516597104948e6 0.0
4.574516597104948e6 1.5775343374836396e7 0.0
0.0 0.0 0.0

-6.660853797717739e6 1.7388587371763464e7 0.0
1.7388587371763464e7 6.421778542541388e6 0.0
0.0 0.0 0.0

953101.833230583 1.2259487583353708e7 0.0
1.2259487583353708e7 -1.09370408927875e7 0.0
0.0 0.0 0.0

1.3924762265874576e6 1.1129096242450621e7 0.0
1.1129096242450621e7 -1.5442485143181542e7 0.0
0.0 0.0 0.0

-5.630883049371254e6 2.3580964834454194e7 0.0
2.3580964834454194e7 2.2028219508997668e6 0.0
0.0 0.0 0.0

1.0078412329219105e6 1.1450408517385406e7 0.0
1.1450408517385406e7 -1.4433997732605634e7 0.0
0.0 0.0 0.0

-406557.0142769241 1.3679563494810423e7 0.0
1.3679563494810423e7 -7.873695860551195e6 0.0
0.0 0.0 0.0

-301145.0762726703 1.3098135774013408e7 0.0
1.3098135774013408e7 533736.7042029495 0.0
0.0 0.0 0.0

-5.152668628019261e6 2.0324140615392443e7 0.0
2.0324140615392443e7 3.5995364954728247e6 0.0
0.0 0.0 0.0

-7.3585760920173125e6 1.702293459695553e7 0.0
1.702293459695553e7 5.9293892560348995e6 0.0
0.0 0.0 0.0

1.6325307996096085e6 1.1287802975209193e7 0.0
1.1287802975209193e7 -1.1964962338885017e7 0.0
0.0 0.0 0.0

-1.0347517280748056e6 1.3627011670786362e7 0.0
1.3627011670786362e7 -6.741684593436666e6 0.0
0.0 0.0 0.0

-5.505615803441438e6 1.6275065403334413e7 0.0
1.6275065403334413e7 3.392010170032454e6 0.0
0.0 0.0 0.0

-6.367432741590047e6 1.737430572205253e7 0.0
1.737430572205253e7 6.536871856703727e6 0.0
0.0 0.0 0.0

-5.340606539562115e6 -8.4887457709825e6 0.0
-8.4887457709825e6 1.4169979201759478e7 0.0
0.0 0.0 0.0

-7.857778962339502e6 1.1927461854290774e7 0.0
1.1927461854290774e7 1.0742747580819843e7 0.0
0.0 0.0 0.0

692476.2072080271 1.1652326977877365e7 0.0
1.1652326977877365e7 -1.3438586927817646e7 0.0
0.0 0.0 0.0

7.024312487411363e6 1.2373974620554285e7 0.0
1.2373974620554285e7 -3.2119313656185893e6 0.0
0.0 0.0 0.0

1.3253733408745504e6 1.1719884837175397e7 0.0
1.1719884837175397e7 -1.2267722021733062e7 0.0
0.0 0.0 0.0

698575.4868553209 1.1257436326386051e7 0.0
1.1257436326386051e7 -3.9938134224639656e6 0.0
0.0 0.0 0.0

-1.1849763503115874e7 3.5336760706794155e6 0.0
3.5336760706794155e6 1.850114285773654e7 0.0
0.0 0.0 0.0

-5.005128497914913e6 1.486873404570494e7 0.0
1.486873404570494e7 -926366.7318241234 0.0
0.0 0.0 0.0

629872.2639201877 1.0340925535513664e7 0.0
1.0340925535513664e7 -5.57435783200091e6 0.0
0.0 0.0 0.0

663488.8950655665 1.299531325036929e7 0.0
1.299531325036929e7 -8.572798496390551e6 0.0
0.0 0.0 0.0

-1.6290857500301305e7 2.55996454873318e7 0.0
2.55996454873318e7 8.992244466671448e6 0.0
0.0 0.0 0.0

-3.1886623675199285e7 7.666926816271438e6 0.0
7.666926816271438e6 1.0367528677850273e7 0.0
0.0 0.0 0.0

-4.520474290000297e6 1.9097477186634995e7 0.0
1.9097477186634995e7 506910.65687490604 0.0
0.0 0.0 0.0

-1.320884286481057e7 2.4963743779714275e7 0.0
2.4963743779714275e7 8.2681690035664225e6 0.0
0.0 0.0 0.0

1.4850918581796845e6 3.017877106294429e7 0.0
3.017877106294429e7 -3.376959880279096e6 0.0
0.0 0.0 0.0

1.699593884886235e6 1.0935382952263094e7 0.0
1.0935382952263094e7 -1.5097670859222908e7 0.0
0.0 0.0 0.0

-3.1838747305129496e6 1.2165979866677271e7 0.0
1.2165979866677271e7 -1.3836026308937756e7 0.0
0.0 0.0 0.0

-5.645325560308931e6 1.629509195058874e7 0.0
1.629509195058874e7 6.926425625536058e6 0.0
0.0 0.0 0.0

-1.2596846684657853e7 5.297219616092533e6 0.0
5.297219616092533e6 1.5359273125482246e7 0.0
0.0 0.0 0.0

-6.638834289954204e6 1.5211164530949779e7 0.0
1.5211164530949779e7 2.605388616666719e6 0.0
0.0 0.0 0.0

-1.5523456498971425e6 1.1040439890118923e7 0.0
1.1040439890118923e7 3.5081291834453996e6 0.0
0.0 0.0 0.0

-908181.3167795702 1.238644346185189e7 0.0
1.238644346185189e7 -4.862737949594322e6 0.0
0.0 0.0 0.0

-5.447559283161737e6 2.578460193368417e7 0.0
2.578460193368417e7 21913.100293148076 0.0
0.0 0.0 0.0

-1.8690336120806949e6 1.5267485663243359e7 0.0
1.5267485663243359e7 -5.444906624510886e6 0.0
0.0 0.0 0.0

1.4630851264192404e6 1.2475013506747592e7 0.0
1.2475013506747592e7 -4.824413183247458e6 0.0
0.0 0.0 0.0

5.630251169244791e6 4.3318692993573705e6 0.0
4.3318692993573705e6 -1.710550453089565e7 0.0
0.0 0.0 0.0

-6.177368545631092e6 1.6766417237191767e7 0.0
1.6766417237191767e7 6.710020220981165e6 0.0
0.0 0.0 0.0

-4.1470353680327823e6 1.227146887690271e7 0.0
1.227146887690271e7 2.4084236359407054e6 0.0
0.0 0.0 0.0

1.5046797106221714e6 9.300337604110813e6 0.0
9.300337604110813e6 -7.823720832089386e6 0.0
0.0 0.0 0.0

1.5391974317648811e6 1.1157673466636486e7 0.0
1.1157673466636486e7 -1.5494090066043288e7 0.0
0.0 0.0 0.0

-5.018237270899484e6 1.3869288681373231e7 0.0
1.3869288681373231e7 8.379253484685148e6 0.0
0.0 0.0 0.0

-7.414456206061776e6 1.3628624354604712e7 0.0
1.3628624354604712e7 1.233854146896197e7 0.0
0.0 0.0 0.0

-827169.2007677519 1.2237472504183894e7 0.0
1.2237472504183894e7 -2.9084625936259814e6 0.0
0.0 0.0 0.0

-782349.6989158826 1.6340767616540514e7 0.0
1.6340767616540514e7 -4.41279808314873e6 0.0
0.0 0.0 0.0

-6.155545559765363e6 1.6275761195867378e7 0.0
1.6275761195867378e7 7.292415611984016e6 0.0
0.0 0.0 0.0

-1.1311780115464486e7 -1.7725865496521092e6 0.0
-1.7725865496521092e6 3.1107507777061477e7 0.0
0.0 0.0 0.0

-2.4991555646413453e6 8.326765187099186e6 0.0
8.326765187099186e6 603198.322189755 0.0
0.0 0.0 0.0

-168123.35479308665 1.2887978542099735e7 0.0
1.2887978542099735e7 -3.228725489188764e6 0.0
0.0 0.0 0.0

-6.116043876738036e6 1.681235836973786e7 0.0
1.681235836973786e7 6.755976931565229e6 0.0
0.0 0.0 0.0

-6.884359801185805e6 1.4124719175910171e7 0.0
1.4124719175910171e7 8.864071362629173e6 0.0
0.0 0.0 0.0

2.272387998322642e6 9.521451544627726e6 0.0
9.521451544627726e6 -1.0599336380732665e7 0.0
0.0 0.0 0.0

-5.017272151784459e6 1.757948164796624e7 0.0
1.757948164796624e7 3.6281564184191227e6 0.0
0.0 0.0 0.0

-5.2453199481058875e6 2.1097847751825638e7 0.0
2.1097847751825638e7 3.4594260292492826e6 0.0
0.0 0.0 0.0

-5.207074100458756e6 1.4460980835659413e7 0.0
1.4460980835659413e7 4.1184305842352193e6 0.0
0.0 0.0 0.0

1.8855733665979719e6 1.0699918066325517e7 0.0
1.0699918066325517e7 -1.1616912279709542e7 0.0
0.0 0.0 0.0

-4.988097663076995e6 1.763250776318386e7 0.0
1.763250776318386e7 2.304871812898771e6 0.0
0.0 0.0 0.0

-2.563456894006421e6 1.6128464796718009e7 0.0
1.6128464796718009e7 -4.103699196674851e6 0.0
0.0 0.0 0.0

-4.267108525238983e6 1.443471539551473e7 0.0
1.443471539551473e7 1.1332262149647279e7 0.0
0.0 0.0 0.0

-5.539262847057672e6 1.4124484951009145e7 0.0
1.4124484951009145e7 4.735789944712176e6 0.0
0.0 0.0 0.0

-6.179936776164291e6 1.770039139941732e7 0.0
1.770039139941732e7 6.105964885646029e6 0.0
0.0 0.0 0.0

-1.0128175580744531e7 -5.393142024622468e6 0.0
-5.393142024622468e6 2.239879734464877e7 0.0
0.0 0.0 0.0

-5.157891862910237e6 2.0664151661037125e7 0.0
2.0664151661037125e7 3.590807913821904e6 0.0
0.0 0.0 0.0

5.551951687860327e6 4.397706982133661e6 0.0
4.397706982133661e6 -1.67412892367699e7 0.0
0.0 0.0 0.0

-4.1573658825074104e6 1.6510982153608404e7 0.0
1.6510982153608404e7 -380369.81304198 0.0
0.0 0.0 0.0

-7.861829460739537e6 -7.293833435245994e6 0.0
-7.293833435245994e6 1.7399722412408184e7 0.0
0.0 0.0 0.0

287159.3341755767 9.705447626959719e6 0.0
9.705447626959719e6 -4.3671131496170815e6 0.0
0.0 0.0 0.0

-6.060910586331754e6 1.61466831856732e7 0.0
1.61466831856732e7 4.1329098826234713e6 0.0
0.0 0.0 0.0

-682958.5209608016 1.422098408805692e7 0.0
1.422098408805692e7 -1.8807175652414057e6 0.0
0.0 0.0 0.0

-1.0099659342489166e6 1.4504593340378083e7 0.0
1.4504593340378083e7 -2.0987753941955273e6 0.0
0.0 0.0 0.0

503904.9548823312 1.2307414126561677e7 0.0
1.2307414126561677e7 -1.0874815935738858e7 0.0
0.0 0.0 0.0

-1.2696396773632739e7 6.860991100367866e6 0.0
6.860991100367866e6 1.5815341513656016e7 0.0
0.0 0.0 0.0

-2.312710561143848e6 1.1627245730616659e7 0.0
1.1627245730616659e7 5.342553478767105e6 0.0
0.0 0.0 0.0

3.9638337083768314e6 7.495056379385126e6 0.0
7.495056379385126e6 -1.3549685695044134e7 0.0
0.0 0.0 0.0

-1.6205407527604424e6 1.468598057505624e7 0.0
1.468598057505624e7 9.611958798795559e6 0.0
0.0 0.0 0.0

-2.2416737688826304e6 1.4404182376376694e7 0.0
1.4404182376376694e7 -2.4557614717618786e7 0.0
0.0 0.0 0.0

-6.813708701076707e6 1.3288005954590507e7 0.0
1.3288005954590507e7 8.450916771349294e6 0.0
0.0 0.0 0.0

-5.263244637392432e6 1.778812419338376e7 0.0
1.778812419338376e7 3.196410900860079e6 0.0
0.0 0.0 0.0

-4.783040678025557e6 1.3883027412134051e7 0.0
1.3883027412134051e7 1.8036426892345236e6 0.0
0.0 0.0 0.0

-1.2827553899305568e6 1.4329584143895388e7 0.0
1.4329584143895388e7 -5.828012056406421e6 0.0
0.0 0.0 0.0

460879.9493969758 1.3467043729600782e7 0.0
1.3467043729600782e7 -6.277620603317873e6 0.0
0.0 0.0 0.0

-6.034078141610825e6 1.6762753473377133e7 0.0
1.6762753473377133e7 6.900351987405041e6 0.0
0.0 0.0 0.0

-5.767286290535839e6 1.3807543821589552e7 0.0
1.3807543821589552e7 9.024631737086613e6 0.0
0.0 0.0 0.0

-7.5088290947248e6 1.3516005158456001e7 0.0
1.3516005158456001e7 1.2179715984674843e7 0.0
0.0 0.0 0.0

-789340.5549233849 1.1526528271073734e7 0.0
1.1526528271073734e7 -1.0631624735983413e7 0.0
0.0 0.0 0.0

837401.4340252588 1.1124152169180477e7 0.0
1.1124152169180477e7 -1.0423240850387406e7 0.0
0.0 0.0 0.0

-4.220852960916268e6 1.389003211419943e7 0.0
1.389003211419943e7 7.515856641992338e6 0.0
0.0 0.0 0.0

3.7602375186490035e6 8.552179907446807e6 0.0
8.552179907446807e6 -1.808098668446138e7 0.0
0.0 0.0 0.0

-1.3522098905731998e6 1.3720080703469532e7 0.0
1.3720080703469532e7 -4.364237229348519e6 0.0
0.0 0.0 0.0

-5.3460796828581225e6 2.1666587873265803e7 0.0
2.1666587873265803e7 3.401925807934806e6 0.0
0.0 0.0 0.0

-1.943816165181484e6 1.4085069454756934e7 0.0
1.4085069454756934e7 7.4328056407220345e6 0.0
0.0 0.0 0.0

1.1433613274833374e7 1.850811552282169e7 0.0
1.850811552282169e7 3.81120239445965e7 0.0
0.0 0.0 0.0

-8.2874228486708915e6 1.6781046192443904e7 0.0
1.6781046192443904e7 -2.7624727832572836e7 0.0
0.0 0.0 0.0

-4.51948402466752e6 1.2194488537870174e7 0.0
1.2194488537870174e7 1.177995774680989e6 0.0
0.0 0.0 0.0

-2.02827625453746e7 1.8844742325754248e7 0.0
1.8844742325754248e7 1.234183957549937e7 0.0
0.0 0.0 0.0

-3.883326714810714e6 1.5481887289360188e7 0.0
1.5481887289360188e7 -655111.5055081036 0.0
0.0 0.0 0.0

-3.3734684658867135e6 1.402765216956994e7 0.0
1.402765216956994e7 6.067540108074634e6 0.0
0.0 0.0 0.0

-2.8967158038599375e6 1.4327521589054942e7 0.0
1.4327521589054942e7 9.03379594268235e6 0.0
0.0 0.0 0.0

-22442.86712496262 1.5339847184762677e7 0.0
1.5339847184762677e7 1.858639020313641e7 0.0
0.0 0.0 0.0

1.0971175097878212e6 1.2694820043468285e7 0.0
1.2694820043468285e7 4.363494689357157e6 0.0
0.0 0.0 0.0

1.2981193100509436e6 1.3347042117835218e7 0.0
1.3347042117835218e7 7.691857107014293e6 0.0
0.0 0.0 0.0

-1.8294349993600273e6 1.6418672589946158e7 0.0
1.6418672589946158e7 -4.301040964156028e6 0.0
0.0 0.0 0.0

-2.1442254118685154e6 1.3647519486288399e7 0.0
1.3647519486288399e7 5.4846334695682665e6 0.0
0.0 0.0 0.0

-4.201600055706557e6 1.3585329949245796e7 0.0
1.3585329949245796e7 7.690330660921754e6 0.0
0.0 0.0 0.0

-4.1076303332380466e6 1.9755690182962302e7 0.0
1.9755690182962302e7 1.6792251837084803e6 0.0
0.0 0.0 0.0

-1.6618018051072452e6 1.2869884916537078e7 0.0
1.2869884916537078e7 6.937032689523233e6 0.0
0.0 0.0 0.0

4.973611029810938e6 4.859340332459282e6 0.0
4.859340332459282e6 -1.394549976320484e7 0.0
0.0 0.0 0.0

-8.609358009225626e6 9.25006290280627e6 0.0
9.25006290280627e6 1.039015127495275e7 0.0
0.0 0.0 0.0

-5.250507230300333e6 -8.79360413417911e6 0.0
-8.79360413417911e6 1.4383986137245145e7 0.0
0.0 0.0 0.0

-7.003658043322455e6 1.329437831591522e7 0.0
1.329437831591522e7 1.017269817821251e7 0.0
0.0 0.0 0.0

-4.435931382342713e6 1.8119779349883974e7 0.0
1.8119779349883974e7 2.072506823107333e6 0.0
0.0 0.0 0.0

1.4881053309071686e6 1.5546021128120936e7 0.0
1.5546021128120936e7 8.028637305201323e6 0.0
0.0 0.0 0.0

-98979.89810550539 1.3460243130916435e7 0.0
1.3460243130916435e7 5.833396502238586e6 0.0
0.0 0.0 0.0

-5.900312453412548e6 1.7557631349562816e7 0.0
1.7557631349562816e7 6.347393476526074e6 0.0
0.0 0.0 0.0

3.660976243636083e6 5.175630508278891e6 0.0
5.175630508278891e6 -9.409592365435112e6 0.0
0.0 0.0 0.0

-4.369271810472905e6 1.6830601970048055e7 0.0
1.6830601970048055e7 356428.6199316059 0.0
0.0 0.0 0.0

3.00151683273427e6 8.542690468553264e6 0.0
8.542690468553264e6 -1.137081689567794e7 0.0
0.0 0.0 0.0

-6.839814109439846e6 1.6786114918462902e7 0.0
1.6786114918462902e7 6.0617210721605085e6 0.0
0.0 0.0 0.0

-2.537035835030579e6 1.7539961580181707e7 0.0
1.7539961580181707e7 -3.1725639936224553e6 0.0
0.0 0.0 0.0

-4.857874608425975e6 1.4752661330455896e7 0.0
1.4752661330455896e7 830804.1682223845 0.0
0.0 0.0 0.0

6.3461378701601755e6 4.172519298477169e6 0.0
4.172519298477169e6 -2.280617147448338e7 0.0
0.0 0.0 0.0

2.289874557146687e6 1.2658852782928517e7 0.0
1.2658852782928517e7 -1.1009588004141932e6 0.0
0.0 0.0 0.0

-3.6882253294738038e6 1.747917073113886e7 0.0
1.747917073113886e7 51711.01100323722 0.0
0.0 0.0 0.0

-2.6187369520357517e6 1.5577398584687015e7 0.0
1.5577398584687015e7 -2.8882170712696253e6 0.0
0.0 0.0 0.0

289102.5566044152 1.1655450155850543e7 0.0
1.1655450155850543e7 -8.731740436291669e6 0.0
0.0 0.0 0.0

4.391760262216729e6 5.759896123494199e6 0.0
5.759896123494199e6 -1.330444601863545e7 0.0
0.0 0.0 0.0

-6.1732357102432195e6 1.4987530789190738e7 0.0
1.4987530789190738e7 4.934340299136716e6 0.0
0.0 0.0 0.0

2.5114565522575537e6 1.00061068366409e7 0.0
1.00061068366409e7 -1.6051980177986367e7 0.0
0.0 0.0 0.0

-7.364469832035516e6 -9.083650090774555e6 0.0
-9.083650090774555e6 1.7627696148823805e7 0.0
0.0 0.0 0.0

-7.521528155935787e6 1.252606268773783e7 0.0
1.252606268773783e7 1.0081135329815824e7 0.0
0.0 0.0 0.0

-9.249719602259506e6 1.593408072403446e7 0.0
1.593408072403446e7 4.301903226719578e6 0.0
0.0 0.0 0.0

5.811856773347611e6 6.481039922573948e6 0.0
6.481039922573948e6 -3.2915859307422616e7 0.0
0.0 0.0 0.0

-1.039016746127811e7 1.1051355488780675e7 0.0
1.1051355488780675e7 1.8331767639254548e7 0.0
0.0 0.0 0.0

-3.9520666004216224e6 1.430853099867432e7 0.0
1.430853099867432e7 9.22135262287857e6 0.0
0.0 0.0 0.0

-7.305913233241319e6 1.330801207710848e7 0.0
1.330801207710848e7 1.4248639878135543e7 0.0
0.0 0.0 0.0

-3.6676032461974383e6 1.3128078768466046e7 0.0
1.3128078768466046e7 874056.3596518359 0.0
0.0 0.0 0.0

-7.388326051848124e6 1.2931225734088954e7 0.0
1.2931225734088954e7 7.888738362725284e6 0.0
0.0 0.0 0.0

403191.1820742865 1.1435591080331018e7 0.0
1.1435591080331018e7 -7.5172411346481275e6 0.0
0.0 0.0 0.0

1.1354578215309563e6 1.083234283563176e7 0.0
1.083234283563176e7 -1.1010822917036893e7 0.0
0.0 0.0 0.0

4.1551598866556464e6 8.385629275503409e6 0.0
8.385629275503409e6 -2.1135713301782202e7 0.0
0.0 0.0 0.0

-6.013199411822407e6 -8.888792894454585e6 0.0
-8.888792894454585e6 1.5890860063910902e7 0.0
0.0 0.0 0.0

-9.723353001181124e6 -8.098788155442539e6 0.0
-8.098788155442539e6 2.404556697431723e7 0.0
0.0 0.0 0.0

-4.342233998400923e6 1.5470188572260303e7 0.0
1.5470188572260303e7 1.8407747450424947e6 0.0
0.0 0.0 0.0

-1.1491735283672558e6 1.4355761071007246e7 0.0
1.4355761071007246e7 -6.2854144585948335e6 0.0
0.0 0.0 0.0

-6.2358074535529455e6 1.371042231411201e7 0.0
1.371042231411201e7 1.7338732050443105e7 0.0
0.0 0.0 0.0

468738.16845662263 1.1200109354781708e7 0.0
1.1200109354781708e7 -6.089950431110566e6 0.0
0.0 0.0 0.0

-893148.6943453602 1.584358562179881e7 0.0
1.584358562179881e7 -4.836862300933241e6 0.0
0.0 0.0 0.0

-6.349432575152784e6 1.6097777393326567e7 0.0
1.6097777393326567e7 5.839473731822614e6 0.0
0.0 0.0 0.0

-6.523492540995531e6 -1.1108359437244448e6 0.0
-1.1108359437244448e6 8.843123769389372e6 0.0
0.0 0.0 0.0

-3.5186288349304176e6 2.7381163166053582e7 0.0
2.7381163166053582e7 -1.6965712186471804e6 0.0
0.0 0.0 0.0

633044.2528529777 1.2559043453294074e7 0.0
1.2559043453294074e7 -7.206159105782792e6 0.0
0.0 0.0 0.0

-515746.425396448 1.2603587920050742e7 0.0
1.2603587920050742e7 -2.1513583339208815e7 0.0
0.0 0.0 0.0

5.454393424433136e6 4.898063630248881e6 0.0
4.898063630248881e6 -1.5810937324518878e7 0.0
0.0 0.0 0.0

-202702.73997826828 1.3145370626521323e7 0.0
1.3145370626521323e7 -3.102790879531263e6 0.0
0.0 0.0 0.0

-8.218310644037697e6 1.1350767896544542e7 0.0
1.1350767896544542e7 1.1361369399685832e7 0.0
0.0 0.0 0.0

-1.8069041658070758e7 9.473538579547038e6 0.0
9.473538579547038e6 1.0441491000466961e7 0.0
0.0 0.0 0.0

-1.5279648936172985e6 1.5173561407929562e7 0.0
1.5173561407929562e7 -2.423329208938696e6 0.0
0.0 0.0 0.0

740629.18659137 1.3145532632809782e7 0.0
1.3145532632809782e7 6.249955324274004e6 0.0
0.0 0.0 0.0

-54923.036671269685 1.1455584838117596e7 0.0
1.1455584838117596e7 -9.127809892737467e6 0.0
0.0 0.0 0.0

-6.719619951624169e6 -25470.07211549913 0.0
-25470.07211549913 9.053558977509936e6 0.0
0.0 0.0 0.0

-1.8081392985647386e6 1.3254908191526994e7 0.0
1.3254908191526994e7 -4.658137083396774e6 0.0
0.0 0.0 0.0

-791516.0792869066 1.3414056082766823e7 0.0
1.3414056082766823e7 550629.0264599635 0.0
0.0 0.0 0.0

-2.658856978659779e6 1.391227493650279e7 0.0
1.391227493650279e7 6.090241734353724e6 0.0
0.0 0.0 0.0

-212890.28576162597 1.235734964240412e7 0.0
1.235734964240412e7 -9.003077658282127e6 0.0
0.0 0.0 0.0

-5.454670922556182e6 1.4175950364181666e7 0.0
1.4175950364181666e7 1.0739564970954943e7 0.0
0.0 0.0 0.0

504653.5273096913 1.0285664142862309e7 0.0
1.0285664142862309e7 -1.7605468607147522e6 0.0
0.0 0.0 0.0

-895633.8012771371 1.4322469942330815e7 0.0
1.4322469942330815e7 -6.731257513142988e6 0.0
0.0 0.0 0.0

2.168639267933715e6 1.244092502710224e7 0.0
1.244092502710224e7 -3.6499592215000233e6 0.0
0.0 0.0 0.0

2.4849741980718775e6 9.749792545346193e6 0.0
9.749792545346193e6 -1.4500547849454151e7 0.0
0.0 0.0 0.0

-7.25042879054754e6 1.333590826111876e7 0.0
1.333590826111876e7 9.927397679930301e6 0.0
0.0 0.0 0.0

-643614.4353525339 1.1469345494663823e7 0.0
1.1469345494663823e7 -4.440962755369089e6 0.0
0.0 0.0 0.0

-2.924000423189422e7 1.7464151176234078e7 0.0
1.7464151176234078e7 1.0118327496502196e7 0.0
0.0 0.0 0.0

-4.204663144844436e6 1.427488986758842e7 0.0
1.427488986758842e7 2.2551431060845274e7 0.0
0.0 0.0 0.0

5.6713491421344085e6 4.292155387935049e6 0.0
4.292155387935049e6 -1.746582311086845e7 0.0
0.0 0.0 0.0

-9.48974945130703e6 -8.403603524552224e6 0.0
-8.403603524552224e6 2.2828366539525494e7 0.0
0.0 0.0 0.0

600694.9849639414 1.164595372388648e7 0.0
1.164595372388648e7 -1.9733047643017534e7 0.0
0.0 0.0 0.0

1.0830869881221233e6 1.1537163759995075e7 0.0
1.1537163759995075e7 -1.456412255459193e7 0.0
0.0 0.0 0.0

-617712.2762794066 1.4188535576954829e7 0.0
1.4188535576954829e7 -2.2418027591961846e6 0.0
0.0 0.0 0.0

-9.270545518816719e6 1.9041785864073776e7 0.0
1.9041785864073776e7 1.1046613216900565e6 0.0
0.0 0.0 0.0

-9.598830634057287e6 1.2398300292827467e7 0.0
1.2398300292827467e7 1.2961301560750837e7 0.0
0.0 0.0 0.0

-624996.7149200041 1.422762728619698e7 0.0
1.422762728619698e7 -7.145266848142921e6 0.0
0.0 0.0 0.0

-1.0634860531502131e7 -4.74503201914766e6 0.0
-4.74503201914766e6 3.399477378635862e7 0.0
0.0 0.0 0.0

-9.392706460836587e6 9.923599470988296e6 0.0
9.923599470988296e6 1.2914108973515347e7 0.0
0.0 0.0 0.0

6.4016507983805705e6 5.3704905022406755e6 0.0
5.3704905022406755e6 -3.1064990726041775e7 0.0
0.0 0.0 0.0

-5.335338100262749e6 1.814375393693236e7 0.0
1.814375393693236e7 3.4206009458538727e6 0.0
0.0 0.0 0.0

6.386547854676332e6 4.381794928502947e6 0.0
4.381794928502947e6 -2.7115354244867988e7 0.0
0.0 0.0 0.0

-2.2053642751990378e7 2.516756881168787e7 0.0
2.516756881168787e7 1.0543879548776723e7 0.0
0.0 0.0 0.0

-1.0620348534702595e7 -4.1827200364007056e6 0.0
-4.1827200364007056e6 3.6012491783695444e7 0.0
0.0 0.0 0.0

2.825035188995896e6 9.881777898861624e6 0.0
9.881777898861624e6 -1.4384677041969933e7 0.0
0.0 0.0 0.0

-7.832338212722503e6 1.5975914844519787e7 0.0
1.5975914844519787e7 4.430141040974051e6 0.0
0.0 0.0 0.0

-2.6459801479059275e7 1.3658682872784486e7 0.0
1.3658682872784486e7 3.702893603068121e6 0.0
0.0 0.0 0.0

6.391351974558596e6 4.812683502963168e6 0.0
4.812683502963168e6 -2.904448469787604e7 0.0
0.0 0.0 0.0

-5.513578534156428e6 1.5139769075074075e7 0.0
1.5139769075074075e7 3.0989648284218833e6 0.0
0.0 0.0 0.0

-6.592447220951377e6 1.464190336424879e7 0.0
1.464190336424879e7 8.687345615223961e6 0.0
0.0 0.0 0.0

4.10301229149012e6 1.2600373623397684e7 0.0
1.2600373623397684e7 6.290949154461785e6 0.0
0.0 0.0 0.0

1.1805779805126525e6 1.1516513689069606e7 0.0
1.1516513689069606e7 -1.3412397184688296e7 0.0
0.0 0.0 0.0

597833.2021979485 1.1819550505379727e7 0.0
1.1819550505379727e7 -1.3682069084198572e7 0.0
0.0 0.0 0.0

-3.0845543121227454e6 1.5295831088270623e7 0.0
1.5295831088270623e7 -3.3438249168111086e6 0.0
0.0 0.0 0.0

-5.449879385106975e6 1.843217482526089e7 0.0
1.843217482526089e7 3.6740224794169455e6 0.0
0.0 0.0 0.0

-1.2153444394349758e7 5.418629041397986e6 0.0
5.418629041397986e6 1.8097451230156243e7 0.0
0.0 0.0 0.0

6.41544755629234e6 4.203700191115657e6 0.0
4.203700191115657e6 -2.4502253866639446e7 0.0
0.0 0.0 0.0

-1.0175513073622698e7 1.993382812317696e7 0.0
1.993382812317696e7 7.987483994119698e6 0.0
0.0 0.0 0.0

4.147467530580837e6 6.185530037685014e6 0.0
6.185530037685014e6 -1.1400961354705568e7 0.0
0.0 0.0 0.0

396114.0474707559 1.2155862271501455e7 0.0
1.2155862271501455e7 -1.0423547398861941e7 0.0
0.0 0.0 0.0

6.410867239106897e6 4.359072440473261e6 0.0
4.359072440473261e6 -2.5428634584586453e7 0.0
0.0 0.0 0.0

400141.68606609013 1.1981292967515387e7 0.0
1.1981292967515387e7 -1.275323341850856e7 0.0
0.0 0.0 0.0

-1.2605472476912957e7 3.1460005345240925e6 0.0
3.1460005345240925e6 2.0180543526992705e7 0.0
0.0 0.0 0.0

141847.8143827204 3.961713260985706e6 0.0
3.961713260985706e6 -3.033236909605681e6 0.0
0.0 0.0 0.0

-4.428110099616477e6 1.1124032415784042e7 0.0
1.1124032415784042e7 1.239535442842352e6 0.0
0.0 0.0 0.0

-995604.3467837255 1.447475546483842e7 0.0
1.447475546483842e7 8.036240848278833e6 0.0
0.0 0.0 0.0

5.815135791188704e6 4.1297334777325285e6 0.0
4.1297334777325285e6 -1.8964354649151396e7 0.0
0.0 0.0 0.0

-5.887756611284323e6 1.6332872922720663e7 0.0
1.6332872922720663e7 7.103404802292492e6 0.0
0.0 0.0 0.0

-7.1596862902665455e6 -6.48697013812901e6 0.0
-6.48697013812901e6 1.5295650284106545e7 0.0
0.0 0.0 0.0

485155.2050143026 1.1186236183365017e7 0.0
1.1186236183365017e7 -2.0809705778498454e6 0.0
0.0 0.0 0.0

2.2024060724701434e6 1.0017908742829336e7 0.0
1.0017908742829336e7 -1.3846050016815115e7 0.0
0.0 0.0 0.0

-6.143406011414345e6 1.3541067780128792e7 0.0
1.3541067780128792e7 9.591777465202589e6 0.0
0.0 0.0 0.0

-3.1095494711999157e6 1.4342496702069152e7 0.0
1.4342496702069152e7 1.2000517462058501e7 0.0
0.0 0.0 0.0

-602612.5997645741 1.3003498558154775e7 0.0
1.3003498558154775e7 -2.6723798940955447e6 0.0
0.0 0.0 0.0

-2.475058891150664e6 1.518147504306054e7 0.0
1.518147504306054e7 -3.199137112267104e6 0.0
0.0 0.0 0.0

-6.12539525088837e6 1.6558566969755983e7 0.0
1.6558566969755983e7 5.0420029862415455e6 0.0
0.0 0.0 0.0

-289775.29675971204 1.3649364697652346e7 0.0
1.3649364697652346e7 -2.9791011634490406e6 0.0
0.0 0.0 0.0

8.364002954037137e6 5.7518663041051105e6 0.0
5.7518663041051105e6 -2.52878249535861e6 0.0
0.0 0.0 0.0

-1.0771289309557598e7 -5.177975984753658e6 0.0
-5.177975984753658e6 3.2113955483797714e7 0.0
0.0 0.0 0.0

-31685.894564256072 1.3113577933274563e7 0.0
1.3113577933274563e7 6.470708756320197e6 0.0
0.0 0.0 0.0

-1.003903880571052e7 -7.429157881269258e6 0.0
-7.429157881269258e6 2.5587419775679164e7 0.0
0.0 0.0 0.0

-548064.6132734901 1.3737138385149937e7 0.0
1.3737138385149937e7 -1.0761720222305218e6 0.0
0.0 0.0 0.0

-1.1559951627701383e7 6.188230520654628e6 0.0
6.188230520654628e6 2.0121634737939518e7 0.0
0.0 0.0 0.0

-4.0400531868790584e6 1.1182993979920313e7 0.0
1.1182993979920313e7 2.524312417627082e6 0.0
0.0 0.0 0.0

1.2987457648006699e6 3.61981373166336e6 0.0
3.61981373166336e6 -3.613798985578163e6 0.0
0.0 0.0 0.0

1.2743894049951215e6 3.7966719750416703e6 0.0
3.7966719750416703e6 -3.515252726075252e6 0.0
0.0 0.0 0.0

-583782.5527565812 1.4012052454906382e7 0.0
1.4012052454906382e7 -7.407672627352742e6 0.0
0.0 0.0 0.0

-3.0572105712421634e6 1.4988175180468246e7 0.0
1.4988175180468246e7 -1.0962306086379192e6 0.0
0.0 0.0 0.0

-220724.5666724858 1.4121711696691507e7 0.0
1.4121711696691507e7 -7.41539217418926e6 0.0
0.0 0.0 0.0

-1.2716625428925216e7 4.323873667323036e6 0.0
4.323873667323036e6 1.6798053888638075e7 0.0
0.0 0.0 0.0

173592.51731146267 1.184487113350535e7 0.0
1.184487113350535e7 -9.85020469825949e6 0.0
0.0 0.0 0.0

2.5871826597547326e6 9.818659384622604e6 0.0
9.818659384622604e6 -1.5263536172691137e7 0.0
0.0 0.0 0.0

-5.628009370536272e6 1.5960218617442718e7 0.0
1.5960218617442718e7 7.1734876344062695e6 0.0
0.0 0.0 0.0

2.018969954815071e6 9.977674948612146e6 0.0
9.977674948612146e6 -1.2984594602179995e7 0.0
0.0 0.0 0.0

-5.8710418851575024e7 2.1500908351136845e7 0.0
2.1500908351136845e7 5.319389646142427e6 0.0
0.0 0.0 0.0

181063.64028795995 1.2064069742289249e7 0.0
1.2064069742289249e7 -9.67427847984515e6 0.0
0.0 0.0 0.0

-7.214020475928474e6 2.0993965471530113e7 0.0
2.0993965471530113e7 5.153723975897223e6 0.0
0.0 0.0 0.0

-832161.1030583822 1.0638331044541476e7 0.0
1.0638331044541476e7 1.8218572747163055e6 0.0
0.0 0.0 0.0

-8.292237506839436e6 1.2757502201067917e7 0.0
1.2757502201067917e7 1.1496712044498758e7 0.0
0.0 0.0 0.0

-2.69705769970716e6 1.4837534323389336e7 0.0
1.4837534323389336e7 -3.6152747239274466e6 0.0
0.0 0.0 0.0

-1.6315883888411806e6 2.2750943929106284e7 0.0
2.2750943929106284e7 -3.8032122940084245e6 0.0
0.0 0.0 0.0

-8.143024917948786e6 -8.993842739334922e6 0.0
-8.993842739334922e6 2.04381109599421e7 0.0
0.0 0.0 0.0

5.701217136151447e6 4.251434991514951e6 0.0
4.251434991514951e6 -1.7891632253960717e7 0.0
0.0 0.0 0.0

-2.912221098597229e6 1.5384353656247146e7 0.0
1.5384353656247146e7 -1.7504108315115399e6 0.0
0.0 0.0 0.0

-3.816219188954292e6 630028.010414629 0.0
630028.010414629 3.221433185522466e6 0.0
0.0 0.0 0.0

6.236980958710557e6 4.1355403150691246e6 0.0
4.1355403150691246e6 -2.2006696063306496e7 0.0
0.0 0.0 0.0

-1.0673157898409855e7 -5.769530074082671e6 0.0
-5.769530074082671e6 3.0819267371927068e7 0.0
0.0 0.0 0.0

-4.025494308871147e6 -7.735298750177007e6 0.0
-7.735298750177007e6 1.1704625276146881e7 0.0
0.0 0.0 0.0

84391.51109363488 1.0719292512449535e7 0.0
1.0719292512449535e7 -4.948190737252787e6 0.0
0.0 0.0 0.0

-8.971075821830079e6 -8.741993706619537e6 0.0
-8.741993706619537e6 2.192584113123302e7 0.0
0.0 0.0 0.0

5.743870847194693e6 4.258149891858446e6 0.0
4.258149891858446e6 -1.837512242455674e7 0.0
0.0 0.0 0.0

6.184550185936875e6 4.18738218550211e6 0.0
4.18738218550211e6 -2.1242750270904034e7 0.0
0.0 0.0 0.0

-1.039759357840792e7 -6.306611507444834e6 0.0
-6.306611507444834e6 2.9386437260009483e7 0.0
0.0 0.0 0.0

-3.1939032378645083e6 1.3555270224075852e7 0.0
1.3555270224075852e7 -4.284605607079269e6 0.0
0.0 0.0 0.0

-432219.2159117458 1.3700273789427489e7 0.0
1.3700273789427489e7 -7.800007538719763e6 0.0
0.0 0.0 0.0

-5.706929032435797e6 1.6806775767142516e7 0.0
1.6806775767142516e7 5.435011293446928e6 0.0
0.0 0.0 0.0

6.133357613065281e6 4.185604926512026e6 0.0
4.185604926512026e6 -2.0754661046799526e7 0.0
0.0 0.0 0.0

-1.0180045193299808e7 -6.688174297282689e6 0.0
-6.688174297282689e6 2.7780028017301515e7 0.0
0.0 0.0 0.0

407439.44244029536 1.098101953780448e7 0.0
1.098101953780448e7 -4.474319791482936e6 0.0
0.0 0.0 0.0

2.1925950135363936e6 1.0414070229618518e7 0.0
1.0414070229618518e7 -1.2315894289039502e7 0.0
0.0 0.0 0.0

-3.764598544468733e6 1.6301102140604682e7 0.0
1.6301102140604682e7 386331.56225245027 0.0
0.0 0.0 0.0

-3.9415157750273678e6 1.3047979983876571e7 0.0
1.3047979983876571e7 -14495.853679953609 0.0
0.0 0.0 0.0

-7.447401476102097e6 1.3512350358012479e7 0.0
1.3512350358012479e7 1.262399635949563e7 0.0
0.0 0.0 0.0

-1.0128752370656865e7 -6.981248453968324e6 0.0
-6.981248453968324e6 2.6511796818668008e7 0.0
0.0 0.0 0.0

6.085720159084372e6 4.138341482302889e6 0.0
4.138341482302889e6 -2.010365051465948e7 0.0
0.0 0.0 0.0

-3.8706316181606296e6 1.8122007990164243e7 0.0
1.8122007990164243e7 -1.1229620919701052e6 0.0
0.0 0.0 0.0

-5.500048886436298e6 1.4143953709091516e7 0.0
1.4143953709091516e7 2.060014254228971e7 0.0
0.0 0.0 0.0

2.466988997167091e7 3.82146136992114e7 0.0
3.82146136992114e7 -2.672158993490169e7 0.0
0.0 0.0 0.0

70993.1388891635 8.394578034453612e6 0.0
8.394578034453612e6 -5.43662800963069e6 0.0
0.0 0.0 0.0

-5.248797758560007e6 1.809386407734801e7 0.0
1.809386407734801e7 4.1434060599267143e6 0.0
0.0 0.0 0.0

-2.0587542163099982e6 3.8229181156911254e6 0.0
3.8229181156911254e6 420431.4964280679 0.0
0.0 0.0 0.0

-5.520179286974727e6 1.7025495571933355e7 0.0
1.7025495571933355e7 5.054623936058622e6 0.0
0.0 0.0 0.0

3.366881524668729e6 4.5113463534856e6 0.0
4.5113463534856e6 -8.773961452768018e6 0.0
0.0 0.0 0.0

195771.98290918465 1.7235700872417588e7 0.0
1.7235700872417588e7 -4.690550040077325e6 0.0
0.0 0.0 0.0

-1.9877463386228397e6 1.6015552717923712e7 0.0
1.6015552717923712e7 -3.9316181769099524e6 0.0
0.0 0.0 0.0

-7.913006055938549e6 1.0611528042474043e7 0.0
1.0611528042474043e7 8.391820470877713e6 0.0
0.0 0.0 0.0

-532154.7509634902 1.4032585100433208e7 0.0
1.4032585100433208e7 -1.1996246607265773e6 0.0
0.0 0.0 0.0

-9.669025880576607e6 -2.879832077690656e6 0.0
-2.879832077690656e6 4.0375985576182716e7 0.0
0.0 0.0 0.0

1.3289210580248337e6 4.564988381540645e6 0.0
4.564988381540645e6 -4.1157244659985723e6 0.0
0.0 0.0 0.0

-1.430314021761458e6 -126079.6098820669 0.0
-126079.6098820669 342211.2359010137 0.0
0.0 0.0 0.0

1.4572651038583508e6 -1.5325183891313737e6 0.0
-1.5325183891313737e6 -2.74118406775501e6 0.0
0.0 0.0 0.0

-1.7557737931726505e6 1.6213234062692702e7 0.0
1.6213234062692702e7 -4.015852852670245e6 0.0
0.0 0.0 0.0

-50678.9721090598 1.2309258435145073e7 0.0
1.2309258435145073e7 -2.10766077283736e7 0.0
0.0 0.0 0.0

-1.096166932134611e6 1.4209027058476523e7 0.0
1.4209027058476523e7 9.10033980958672e6 0.0
0.0 0.0 0.0

-1.3396760756844268e6 1.3235756618575348e7 0.0
1.3235756618575348e7 -5.047790535922483e6 0.0
0.0 0.0 0.0

4.807799945765312e6 5.117213665709186e6 0.0
5.117213665709186e6 -1.27814781787417e7 0.0
0.0 0.0 0.0

-844503.4700000312 9.80699315820194e6 0.0
9.80699315820194e6 -4.206561753351177e6 0.0
0.0 0.0 0.0

442393.8358469396 1.3225591929587532e7 0.0
1.3225591929587532e7 -8.746745723635497e6 0.0
0.0 0.0 0.0

666013.1382782506 1.1369876952856692e7 0.0
1.1369876952856692e7 -1.6754511467568032e7 0.0
0.0 0.0 0.0

-3.8493002427549097e6 1.6741047375788325e7 0.0
1.6741047375788325e7 424388.68228750513 0.0
0.0 0.0 0.0

-6.853147241757677e6 1.2988924639934966e7 0.0
1.2988924639934966e7 1.0886480677372282e7 0.0
0.0 0.0 0.0

-224590.16933443467 1.016219945491364e7 0.0
1.016219945491364e7 -3.8509675965415686e6 0.0
0.0 0.0 0.0

-64643.489703796775 1.1287465270412812e7 0.0
1.1287465270412812e7 -46015.81284463645 0.0
0.0 0.0 0.0

-1.2298679518271335e6 1.1440151644204486e7 0.0
1.1440151644204486e7 -1.2392608150398823e7 0.0
0.0 0.0 0.0

-1.3848096223988283e7 1.7171864299140923e7 0.0
1.7171864299140923e7 7.771624641409468e6 0.0
0.0 0.0 0.0

-3.0289380140318046e6 2.419309691168942e7 0.0
2.419309691168942e7 -2.4076288859219807e6 0.0
0.0 0.0 0.0

703860.4967281512 3.4414965861355877e6 0.0
3.4414965861355877e6 -2.5567832021348793e6 0.0
0.0 0.0 0.0

976685.3025565586 3.2763519600558914e6 0.0
3.2763519600558914e6 -2.696509780152354e6 0.0
0.0 0.0 0.0

-6.498498673177871e6 1.3611302653071051e7 0.0
1.3611302653071051e7 9.616464893568918e6 0.0
0.0 0.0 0.0

-3.3232941981593734e6 1.4833671269905198e7 0.0
1.4833671269905198e7 -1.91293037836874e6 0.0
0.0 0.0 0.0

-5.235927138249678e6 1.8567121555977006e7 0.0
1.8567121555977006e7 4.369592197601369e6 0.0
0.0 0.0 0.0

-5.385170321831465e6 1.7215061520337347e7 0.0
1.7215061520337347e7 4.735077961893242e6 0.0
0.0 0.0 0.0

2.923216354153841e6 1.2700369824489946e7 0.0
1.2700369824489946e7 3.378837028951673e6 0.0
0.0 0.0 0.0

1.69996926152715e6 1.3216145702407643e7 0.0
1.3216145702407643e7 -5.466321336937153e6 0.0
0.0 0.0 0.0

-4.472046467757889e6 1.3478766619853863e7 0.0
1.3478766619853863e7 2.2122272155242324e7 0.0
0.0 0.0 0.0

-2.1584112605796486e7 1.723467738147308e7 0.0
1.723467738147308e7 97471.59376763925 0.0
0.0 0.0 0.0

-6.810975353075194e7 2.4070841478518374e7 0.0
2.4070841478518374e7 1.4358333721237067e7 0.0
0.0 0.0 0.0

-7.128469134767262e6 1.0152656562358884e7 0.0
1.0152656562358884e7 6.612150180314126e6 0.0
0.0 0.0 0.0

-4.239059194857884e6 1.4117357532355273e7 0.0
1.4117357532355273e7 7.187481484448625e6 0.0
0.0 0.0 0.0

3.940727464723859e6 6.056024928456478e6 0.0
6.056024928456478e6 -1.1947829016769134e7 0.0
0.0 0.0 0.0

-8.276841233143031e6 1.0319820102275304e7 0.0
1.0319820102275304e7 1.1490700770567575e7 0.0
0.0 0.0 0.0

-1.4758265193544263e6 1.0915634068160653e6 0.0
1.0915634068160653e6 1.4711631291427384e6 0.0
0.0 0.0 0.0

-653295.1340351254 1.3782623927308908e7 0.0
1.3782623927308908e7 7.968457933742531e6 0.0
0.0 0.0 0.0

1.1040950028932225e6 1.1345647886468878e7 0.0
1.1345647886468878e7 -1.6919923755857605e7 0.0
0.0 0.0 0.0

4.895477678565201e6 5.720393739819118e6 0.0
5.720393739819118e6 -1.4086075227565382e7 0.0
0.0 0.0 0.0

1.7587018538317909e6 1.1941165889839297e7 0.0
1.1941165889839297e7 1.7447007379014294e6 0.0
0.0 0.0 0.0

-7.449967264377054e6 1.6629840699925083e6 0.0
1.6629840699925083e6 5.490294859500208e7 0.0
0.0 0.0 0.0

-6.103289994694717e6 1.81707727067181e7 0.0
1.81707727067181e7 6.459006731527485e6 0.0
0.0 0.0 0.0

-9.366535524318391e6 1.5223730958405288e7 0.0
1.5223730958405288e7 2.4338250041514602e6 0.0
0.0 0.0 0.0

-1.8618888385691321e6 1.5379639159731545e7 0.0
1.5379639159731545e7 -4.729737960968043e6 0.0
0.0 0.0 0.0

-3.955558919056972e6 -4.574252310298966e6 0.0
-4.574252310298966e6 9.873672649644267e6 0.0
0.0 0.0 0.0

-1.2845007786430265e6 1.030359334953747e7 0.0
1.030359334953747e7 2.3390000827684137e6 0.0
0.0 0.0 0.0

-6.572077189028187e6 -8.803201985812493e6 0.0
-8.803201985812493e6 1.6998381226412505e7 0.0
0.0 0.0 0.0

1.6835127098552622e6 1.273574786269341e7 0.0
1.273574786269341e7 1.3235833591418704e6 0.0
0.0 0.0 0.0

-4.171866347990233e6 1.4338159102873595e7 0.0
1.4338159102873595e7 1.7206283788313055e6 0.0
0.0 0.0 0.0

5.3110151774974065e6 5.042734888844397e6 0.0
5.042734888844397e6 -1.5033984243790843e7 0.0
0.0 0.0 0.0

-3.4200724649305833e6 1.4207219315581309e7 0.0
1.4207219315581309e7 -3.122120335501815e6 0.0
0.0 0.0 0.0

4.711634270334533e6 5.2268571780562345e6 0.0
5.2268571780562345e6 -1.2057678478854405e7 0.0
0.0 0.0 0.0

746940.0912670358 1.187535607545608e7 0.0
1.187535607545608e7 -1.1560386572517633e7 0.0
0.0 0.0 0.0

-8.063856351610311e6 2.063715361258489e7 0.0
2.063715361258489e7 6.829740139778789e6 0.0
0.0 0.0 0.0

-508777.8490842497 8.581583819952715e6 0.0
8.581583819952715e6 -1.642863852710348e6 0.0
0.0 0.0 0.0

-2.767851508343122e6 1.4964060669965902e7 0.0
1.4964060669965902e7 -4.081231234102237e6 0.0
0.0 0.0 0.0

-6.637219285399482e6 1.9867100052590746e7 0.0
1.9867100052590746e7 5.623574899889039e6 0.0
0.0 0.0 0.0

-5.875590389478523e6 1.6587911395261409e7 0.0
1.6587911395261409e7 5.876100340580579e6 0.0
0.0 0.0 0.0

-5.771269784519648e6 1.692597036229429e7 0.0
1.692597036229429e7 4.269041638413739e6 0.0
0.0 0.0 0.0

-5.6827399682057435e6 1.9779854808342114e7 0.0
1.9779854808342114e7 3.4924335849566725e6 0.0
0.0 0.0 0.0

-1.7921343136012878e6 1.4570110267837686e7 0.0
1.4570110267837686e7 -4.700113910899525e6 0.0
0.0 0.0 0.0

-7.829629120008092e6 2.1435911285501454e7 0.0
2.1435911285501454e7 5.440107539623947e6 0.0
0.0 0.0 0.0

-6.555930660222458e6 7.408991435890763e6 0.0
7.408991435890763e6 6.004186729622251e6 0.0
0.0 0.0 0.0

1.0149129415255846e6 9.992010582484208e6 0.0
9.992010582484208e6 -8.767234809883326e6 0.0
0.0 0.0 0.0

-7.3908639558703825e6 -475355.13972229883 0.0
-475355.13972229883 8.19025521262876e6 0.0
0.0 0.0 0.0

-7.200222066541304e6 1.6560775604863252e7 0.0
1.6560775604863252e7 5.268883312483106e6 0.0
0.0 0.0 0.0

-1.0797864460548727e7 -4.640433112726772e6 0.0
-4.640433112726772e6 2.7566474195502486e7 0.0
0.0 0.0 0.0

-4.234582117381128e6 1.8658949180732533e7 0.0
1.8658949180732533e7 -347495.7157968946 0.0
0.0 0.0 0.0

1.2532960728781796e6 1.1799342576691318e7 0.0
1.1799342576691318e7 -1.1463224737957558e7 0.0
0.0 0.0 0.0

-1.3281992460442479e6 1.1912549894264836e7 0.0
1.1912549894264836e7 3.7180959601845862e6 0.0
0.0 0.0 0.0

-929752.7626652811 1.1324956750892509e7 0.0
1.1324956750892509e7 -5.3534289467027895e6 0.0
0.0 0.0 0.0

2.4959817577568777e6 1.04758764038e7 0.0
1.04758764038e7 -1.5134051854358125e7 0.0
0.0 0.0 0.0

3.4376812131630406e6 5.005798216230793e6 0.0
5.005798216230793e6 -9.902776740821768e6 0.0
0.0 0.0 0.0

-1.3536181348938367e6 1.6330712470183708e7 0.0
1.6330712470183708e7 -4.1696016523949555e6 0.0
0.0 0.0 0.0

-688020.6287443796 1.3615143072626002e7 0.0
1.3615143072626002e7 1.4886942851808062e6 0.0
0.0 0.0 0.0

-3.5054588745289445e6 1.2774508842504775e7 0.0
1.2774508842504775e7 -755857.040974891 0.0
0.0 0.0 0.0

6.345638100452391e6 4.1297739599955366e6 0.0
4.1297739599955366e6 -2.358027165578456e7 0.0
0.0 0.0 0.0

-7.829571367485516e6 1.7396658398301874e6 0.0
1.7396658398301874e6 1.0228044741212076e7 0.0
0.0 0.0 0.0

5.809610981275434e6 5.338512828629519e6 0.0
5.338512828629519e6 -2.3599233551642355e7 0.0
0.0 0.0 0.0

-3.7340695682495413e6 -380119.9437208993 0.0
-380119.9437208993 3.513785391743374e6 0.0
0.0 0.0 0.0

-4.380436019942521e6 1.4144465933489162e7 0.0
1.4144465933489162e7 721332.5860691587 0.0
0.0 0.0 0.0

-572452.143672799 1.3662908423840914e7 0.0
1.3662908423840914e7 493328.88887732715 0.0
0.0 0.0 0.0

-722370.1357027163 1.1530271522284733e7 0.0
1.1530271522284733e7 2.0022588150506986e6 0.0
0.0 0.0 0.0

-6.709356295743699e6 9.997928970029077e6 0.0
9.997928970029077e6 8.161398337174616e6 0.0
0.0 0.0 0.0

-3.9702691614026865e6 -8.106763125147187e6 0.0
-8.106763125147187e6 1.1608649846104495e7 0.0
0.0 0.0 0.0

-1.8940649418367485e6 1.733607591417426e7 0.0
1.733607591417426e7 -2.8600058228347767e6 0.0
0.0 0.0 0.0

-3.576207656383951e6 1.431196906459948e7 0.0
1.431196906459948e7 9.90430527013528e6 0.0
0.0 0.0 0.0

3.3463640543784183e6 7.565086420564323e6 0.0
7.565086420564323e6 -1.2979734079869516e7 0.0
0.0 0.0 0.0

-6.609799315695343e6 -6.403502682497835e6 0.0
-6.403502682497835e6 1.5245663374379894e7 0.0
0.0 0.0 0.0

-2.3887398583173323e6 1.2616651859768102e7 0.0
1.2616651859768102e7 6.868249518656571e6 0.0
0.0 0.0 0.0

-9.383363950859549e6 1.1722740662988206e7 0.0
1.1722740662988206e7 2.0987313149791375e7 0.0
0.0 0.0 0.0

-1.2308619413481988e6 1.3202549770455407e7 0.0
1.3202549770455407e7 7.30382820928287e6 0.0
0.0 0.0 0.0

369284.5744535513 1.1866329866316544e7 0.0
1.1866329866316544e7 -2.0381723512673654e7 0.0
0.0 0.0 0.0

-7.414197131691903e6 1.3429150479471596e7 0.0
1.3429150479471596e7 1.1726514965692302e7 0.0
0.0 0.0 0.0

-2.374701112966801e6 1.3644748892567705e7 0.0
1.3644748892567705e7 6.6605789988832185e6 0.0
0.0 0.0 0.0

-540729.169982431 1.4350113550321301e7 0.0
1.4350113550321301e7 -6.951079714928012e6 0.0
0.0 0.0 0.0

-901944.9455144297 1.4466681425631253e7 0.0
1.4466681425631253e7 -2.3967782576968153e6 0.0
0.0 0.0 0.0

4.25560729620072e6 7.524811495041441e6 0.0
7.524811495041441e6 -1.9150168774788413e7 0.0
0.0 0.0 0.0

4.524189753098296e6 7.1054093761458015e6 0.0
7.1054093761458015e6 -1.9915013678500827e7 0.0
0.0 0.0 0.0

-288357.2662467323 1.1175181555246584e7 0.0
1.1175181555246584e7 -5.12283619797261e6 0.0
0.0 0.0 0.0

-1.1442531619456127e7 1.0327419692016596e7 0.0
1.0327419692016596e7 1.5700923219529111e7 0.0
0.0 0.0 0.0

-1.0284792915333214e6 1.3757151367851004e7 0.0
1.3757151367851004e7 -7.815102474207171e6 0.0
0.0 0.0 0.0

-1.055895117034775e7 -341004.78997746564 0.0
-341004.78997746564 3.805890764252084e7 0.0
0.0 0.0 0.0

736359.1357818474 9.27255120703806e6 0.0
9.27255120703806e6 -1.1314425848586818e7 0.0
0.0 0.0 0.0

-3.911603575333135e6 1.1074176483636439e7 0.0
1.1074176483636439e7 4.062821884424277e7 0.0
0.0 0.0 0.0

6.285185951206328e6 4.215027705296695e6 0.0
4.215027705296695e6 -2.270847416373808e7 0.0
0.0 0.0 0.0

-2.269084966908279e6 1.5205410712804083e7 0.0
1.5205410712804083e7 -4.195071515358894e6 0.0
0.0 0.0 0.0

-2.432562523935903e6 1.3128609646677328e7 0.0
1.3128609646677328e7 7.927582807344529e6 0.0
0.0 0.0 0.0

-856939.459616134 1.2382806043435445e7 0.0
1.2382806043435445e7 -1.8607865623467453e7 0.0
0.0 0.0 0.0

731000.6852434314 8.42245601735472e6 0.0
8.42245601735472e6 2.590593010485402e6 0.0
0.0 0.0 0.0

-849394.7531835154 1.39429555214182e7 0.0
1.39429555214182e7 -3.2221768895577523e6 0.0
0.0 0.0 0.0

-3.1024393969395887e6 1.3071956563454997e7 0.0
1.3071956563454997e7 8.071070909375007e6 0.0
0.0 0.0 0.0

-6.587608583315074e6 1.4825576706109978e7 0.0
1.4825576706109978e7 7.455138074435547e6 0.0
0.0 0.0 0.0

-4.880097773137923e6 1.4058784720754007e7 0.0
1.4058784720754007e7 7.731863891016141e6 0.0
0.0 0.0 0.0

874365.4702258194 9.285693131411277e6 0.0
9.285693131411277e6 -7.949755338775872e6 0.0
0.0 0.0 0.0

-1.2350653502630375e7 8.45641889050138e6 0.0
8.45641889050138e6 1.4640761474663105e7 0.0
0.0 0.0 0.0

815550.9965614304 1.1479629499837184e7 0.0
1.1479629499837184e7 -1.948198397377492e7 0.0
0.0 0.0 0.0

-1.0073762002735783e6 1.3692898613522513e7 0.0
1.3692898613522513e7 -4.486833338475169e6 0.0
0.0 0.0 0.0

-4.304823254991336e6 1.5047471329919012e7 0.0
1.5047471329919012e7 3.5134125653386307e6 0.0
0.0 0.0 0.0

483115.62051914237 8.397737566060843e6 0.0
8.397737566060843e6 -5.5130491687632045e6 0.0
0.0 0.0 0.0

-1.0286483284768771e7 3.3473667806061194e6 0.0
3.3473667806061194e6 5.145074683364969e7 0.0
0.0 0.0 0.0

-637538.1633026702 1.2809555055512672e7 0.0
1.2809555055512672e7 -2.1797479061527696e7 0.0
0.0 0.0 0.0

-7.257929383580718e6 1.3695367744026069e7 0.0
1.3695367744026069e7 1.286830953470603e7 0.0
0.0 0.0 0.0

-5.519594465318121e6 1.876989785342136e7 0.0
1.876989785342136e7 3.902915744654391e6 0.0
0.0 0.0 0.0

4.394123775432808e6 1.5043979501316935e7 0.0
1.5043979501316935e7 5.274400236462269e6 0.0
0.0 0.0 0.0

-6.500645155740386e6 1.37946306372681e7 0.0
1.37946306372681e7 1.6262585519842163e7 0.0
0.0 0.0 0.0

-6.737514618661176e6 1.3479398202619517e7 0.0
1.3479398202619517e7 1.0156140629619643e7 0.0
0.0 0.0 0.0

599701.8608335233 1.0600376766674316e7 0.0
1.0600376766674316e7 -8.488556085123843e6 0.0
0.0 0.0 0.0

-1.4166662173660416e6 1.3316064398358969e7 0.0
1.3316064398358969e7 -4.791042012611925e6 0.0
0.0 0.0 0.0

-7.549935928339696e6 1.216229319906651e7 0.0
1.216229319906651e7 7.885085521264292e6 0.0
0.0 0.0 0.0

-7.229696443840732e6 1.1088274255821088e7 0.0
1.1088274255821088e7 9.186935605413817e6 0.0
0.0 0.0 0.0

4.770922951962482e6 5.226261641723413e6 0.0
5.226261641723413e6 -1.4311886540473267e7 0.0
0.0 0.0 0.0

-5.918487319714116e6 1.6420375739438256e7 0.0
1.6420375739438256e7 7.235239706812871e6 0.0
0.0 0.0 0.0

-322037.8840132792 9.225324271687089e6 0.0
9.225324271687089e6 -3.1528278796990183e6 0.0
0.0 0.0 0.0

4.587357240469634e6 5.440069963270472e6 0.0
5.440069963270472e6 -1.1789424797258716e7 0.0
0.0 0.0 0.0

-4.379851620318082e6 1.7987535900865108e7 0.0
1.7987535900865108e7 -122662.4313527164 0.0
0.0 0.0 0.0

-3.057408101180399e6 1.3660484153548855e7 0.0
1.3660484153548855e7 9.21741510667325e6 0.0
0.0 0.0 0.0

-1.0850463513533808e7 -2.713941449015625e6 0.0
-2.713941449015625e6 3.249553535773459e7 0.0
0.0 0.0 0.0

450954.4761138975 1.4065192070593642e7 0.0
1.4065192070593642e7 5.631189335627632e6 0.0
0.0 0.0 0.0

859416.2837643585 1.312761440711199e7 0.0
1.312761440711199e7 3.5726439985493138e6 0.0
0.0 0.0 0.0

328261.2736964831 1.2766067826017598e7 0.0
1.2766067826017598e7 -8.947524137737561e6 0.0
0.0 0.0 0.0

5.399593042530315e6 4.851774210684071e6 0.0
4.851774210684071e6 -1.75637905669761e7 0.0
0.0 0.0 0.0

-209408.42466828623 1.262667169790135e7 0.0
1.262667169790135e7 3.0544103655520044e6 0.0
0.0 0.0 0.0

152408.89953665668 1.3082498051310893e7 0.0
1.3082498051310893e7 -8.348550706701104e6 0.0
0.0 0.0 0.0

-1.486011290461146e6 1.1760338674106756e7 0.0
1.1760338674106756e7 4.538891564992332e6 0.0
0.0 0.0 0.0

-4.1511055750387195e6 5.08057597511588e6 0.0
5.08057597511588e6 3.987951992763092e6 0.0
0.0 0.0 0.0

-3.235721974628237e6 264218.76987790107 0.0
264218.76987790107 3.376798026490842e6 0.0
0.0 0.0 0.0

-3.3774761592044467e6 1.4592926271795679e7 0.0
1.4592926271795679e7 1.6690194011936327e6 0.0
0.0 0.0 0.0

2.157545274102711e6 1.0760375279410128e7 0.0
1.0760375279410128e7 -1.3295920816838581e7 0.0
0.0 0.0 0.0

-227608.85556288902 1.1653073048338907e7 0.0
1.1653073048338907e7 -1.0265070792404486e7 0.0
0.0 0.0 0.0

-1.0298613261676483e7 -151384.2807958034 0.0
-151384.2807958034 5.02958247209406e7 0.0
0.0 0.0 0.0

-8.77138690397715e6 2.1916988676666405e7 0.0
2.1916988676666405e7 5.701705946735045e6 0.0
0.0 0.0 0.0

1.1303456352168375e6 5.592245664776492e6 0.0
5.592245664776492e6 -4.25409344834271e6 0.0
0.0 0.0 0.0

-676444.3926383925 1.3801336831158519e7 0.0
1.3801336831158519e7 -375278.6826251539 0.0
0.0 0.0 0.0

-2.6488457926989826e6 1.2753430125949068e7 0.0
1.2753430125949068e7 6.451405841949723e6 0.0
0.0 0.0 0.0

-1.088123830892611e7 1.0041996558422618e7 0.0
1.0041996558422618e7 1.4587119750164721e7 0.0
0.0 0.0 0.0

-6.912941816974619e6 1.6184479862176519e7 0.0
1.6184479862176519e7 3.9419594841459463e6 0.0
0.0 0.0 0.0

-323314.8977711308 1.3173853010476118e7 0.0
1.3173853010476118e7 4.930127292854129e6 0.0
0.0 0.0 0.0

-2.3820079185714396e6 1.2921103866410978e7 0.0
1.2921103866410978e7 6.269468529869621e6 0.0
0.0 0.0 0.0

391618.5230981312 1.2823675502389047e7 0.0
1.2823675502389047e7 -9.855990408058222e6 0.0
0.0 0.0 0.0

2.394773413389651e6 5.579324892652792e6 0.0
5.579324892652792e6 -8.11201349080774e6 0.0
0.0 0.0 0.0

569282.1734497598 1.2720551513965495e7 0.0
1.2720551513965495e7 -9.812815368868439e6 0.0
0.0 0.0 0.0

-2.0731473011426572e6 1.4333396468119405e7 0.0
1.4333396468119405e7 -5.54125366772356e6 0.0
0.0 0.0 0.0

-5.619506252079066e6 1.5959336606753439e7 0.0
1.5959336606753439e7 5.091689235854104e6 0.0
0.0 0.0 0.0

-962998.573796044 1.5014960875628289e7 0.0
1.5014960875628289e7 -5.936415356397453e6 0.0
0.0 0.0 0.0

-1.014998690335382e6 1.4591331632973783e7 0.0
1.4591331632973783e7 -6.531127795363564e6 0.0
0.0 0.0 0.0

5.282632277197697e6 5.333953596991029e6 0.0
5.333953596991029e6 -1.6331218737833438e7 0.0
0.0 0.0 0.0

-39124.590279660304 1.2290877107869895e7 0.0
1.2290877107869895e7 2.8545826481011068e6 0.0
0.0 0.0 0.0

-2.4480882026141295e6 1.4633618133231906e7 0.0
1.4633618133231906e7 -4.746560554247769e6 0.0
0.0 0.0 0.0

-9.662603076660331e6 7.207155250936299e6 0.0
7.207155250936299e6 1.1068562514755111e7 0.0
0.0 0.0 0.0

-4.701031740107112e7 2.0038140214166533e7 0.0
2.0038140214166533e7 4.6417583524127025e6 0.0
0.0 0.0 0.0

1.7611726228194952e7 2.2950130496508043e7 0.0
2.2950130496508043e7 5.8705906588689856e7 0.0
0.0 0.0 0.0

-1.118079588032594e7 1.9206309600306217e7 0.0
1.9206309600306217e7 -3.7269415740552716e7 0.0
0.0 0.0 0.0

-7.426318681958712e6 1.279366011592759e7 0.0
1.279366011592759e7 1.1633140660115471e7 0.0
0.0 0.0 0.0

1.4503510746138059e6 1.0548400747886445e7 0.0
1.0548400747886445e7 -1.163152114545968e7 0.0
0.0 0.0 0.0

-2.1293294488228224e6 1.4043067823332528e7 0.0
1.4043067823332528e7 -3.8429546164903846e6 0.0
0.0 0.0 0.0

-6.128068675241537e6 2.221760811431984e7 0.0
2.221760811431984e7 1.375038457731546e6 0.0
0.0 0.0 0.0

579298.5834486131 1.1868224293756792e7 0.0
1.1868224293756792e7 -1.1877394284984834e7 0.0
0.0 0.0 0.0

-1.1994853848149683e6 1.479973149754473e7 0.0
1.479973149754473e7 -2.428165621703761e6 0.0
0.0 0.0 0.0

-9.944489275203742e6 8.718548693686346e6 0.0
8.718548693686346e6 1.1883370129083956e7 0.0
0.0 0.0 0.0

-3.897808017521014e6 1.5972998528381487e7 0.0
1.5972998528381487e7 970924.9788864502 0.0
0.0 0.0 0.0

785038.3663928993 1.1581863798298389e7 0.0
1.1581863798298389e7 -1.5891566421404576e7 0.0
0.0 0.0 0.0

-439058.4301077066 1.4090949827806406e7 0.0
1.4090949827806406e7 -2.7986686476508756e6 0.0
0.0 0.0 0.0

-6.863982280745478e6 1.4839199089472603e7 0.0
1.4839199089472603e7 7.798314356171098e6 0.0
0.0 0.0 0.0

5.602141224754882e6 1.3918260165798675e7 0.0
1.3918260165798675e7 -4.851908062232748e6 0.0
0.0 0.0 0.0

-941305.2804460248 1.112931256694989e7 0.0
1.112931256694989e7 2.9019803480049176e6 0.0
0.0 0.0 0.0

-7.054065302908607e6 1.2995194193496972e7 0.0
1.2995194193496972e7 1.0721968734965663e7 0.0
0.0 0.0 0.0

-1.0237024229615577e7 1.4831984984645e7 0.0
1.4831984984645e7 1.4606154968278748e6 0.0
0.0 0.0 0.0

-1.0773892935391278e6 1.1329342570709113e7 0.0
1.1329342570709113e7 2.865253993188644e6 0.0
0.0 0.0 0.0

-4.331430551374709e6 1.8322453433344793e7 0.0
1.8322453433344793e7 -49215.62472307915 0.0
0.0 0.0 0.0

368519.88882231456 1.7230228148251116e7 0.0
1.7230228148251116e7 -4.692638458876715e6 0.0
0.0 0.0 0.0

1.4976647649980476e6 1.0022323743177721e7 0.0
1.0022323743177721e7 -8.922326370581036e6 0.0
0.0 0.0 0.0

-9.239608986405833e6 1.2680132694686858e7 0.0
1.2680132694686858e7 1.4002386686996436e7 0.0
0.0 0.0 0.0

189578.5575707159 1.2604366549864564e7 0.0
1.2604366549864564e7 -1.045643407854486e7 0.0
0.0 0.0 0.0

-3.837071251195019e6 1.157830374795781e7 0.0
1.157830374795781e7 1.98952763653364e6 0.0
0.0 0.0 0.0

-8.030941674313659e6 1.1819525210482461e7 0.0
1.1819525210482461e7 9.09055529432194e6 0.0
0.0 0.0 0.0

1.8687652032985645e6 6.48457715642159e6 0.0
6.48457715642159e6 -6.517684036547464e6 0.0
0.0 0.0 0.0

-887666.1868439233 1.3117210406437455e7 0.0
1.3117210406437455e7 2.6637327564645084e6 0.0
0.0 0.0 0.0

-2.201204418596102e6 1.6981543374739114e7 0.0
1.6981543374739114e7 -3.805912007036852e6 0.0
0.0 0.0 0.0

3.782042023201842e6 9.656505379464753e6 0.0
9.656505379464753e6 -2.6113133956820264e7 0.0
0.0 0.0 0.0

-9.095522876829986e6 7.088613837448064e6 0.0
7.088613837448064e6 1.0237561577177955e7 0.0
0.0 0.0 0.0

142466.3669955104 2.3129303928812075e7 0.0
2.3129303928812075e7 -5.765532199943036e6 0.0
0.0 0.0 0.0

4.936551597120257e6 7.0865722268049335e6 0.0
7.0865722268049335e6 -1.8539618786366414e7 0.0
0.0 0.0 0.0

-753678.9819369141 1.3002694702520007e7 0.0
1.3002694702520007e7 1.91373415444345e6 0.0
0.0 0.0 0.0

-2.2321450690140594e6 1.56914841623856e7 0.0
1.56914841623856e7 -4.760428346878413e6 0.0
0.0 0.0 0.0

4.219538389504846e6 1.7346798237318307e7 0.0
1.7346798237318307e7 9.390614326774001e7 0.0
0.0 0.0 0.0

-2.1900549334413502e6 1.6401988512105431e7 0.0
1.6401988512105431e7 -5.72703763465582e7 0.0
0.0 0.0 0.0

1.094279074679112e7 1.4152256905244587e7 0.0
1.4152256905244587e7 3.147896231407745e6 0.0
0.0 0.0 0.0

1.4776022359582838e6 1.6776530321650872e7 0.0
1.6776530321650872e7 -5.566698789141774e6 0.0
0.0 0.0 0.0

602884.6382943448 8.09771299595579e6 0.0
8.09771299595579e6 -5.129970041868516e6 0.0
0.0 0.0 0.0

2.2312976540046115e6 2.1283491202941313e7 0.0
2.1283491202941313e7 -6.59074414555345e6 0.0
0.0 0.0 0.0

-4.433610287225747e6 1.3926798493187279e7 0.0
1.3926798493187279e7 8.586463930378318e6 0.0
0.0 0.0 0.0

4.757053165412807e6 1.3707340588298637e7 0.0
1.3707340588298637e7 -4.276031232440939e6 0.0
0.0 0.0 0.0

-6.465868120193468e6 1.5801936038239155e7 0.0
1.5801936038239155e7 6.241623250785766e6 0.0
0.0 0.0 0.0

-6.401016217263245e6 1.0733640483859675e7 0.0
1.0733640483859675e7 7.448863606152574e6 0.0
0.0 0.0 0.0

1.1448221244455567e6 4.599573807056586e6 0.0
4.599573807056586e6 -4.830137424665689e6 0.0
0.0 0.0 0.0

-3.270907457462789e6 1.4280923898215156e7 0.0
1.4280923898215156e7 1.0445451249227192e7 0.0
0.0 0.0 0.0

-3.6335340585812656e6 1.5978442271643145e7 0.0
1.5978442271643145e7 -1.4222796555419394e6 0.0
0.0 0.0 0.0

-7.986229275417037e6 1.2885322921370773e7 0.0
1.2885322921370773e7 1.2432297436360393e7 0.0
0.0 0.0 0.0

-5.984706723687675e6 1.650144306246168e7 0.0
1.650144306246168e7 6.805187878538579e6 0.0
0.0 0.0 0.0

-6.088552047862256e6 1.562504431987444e7 0.0
1.562504431987444e7 6.536855087950371e6 0.0
0.0 0.0 0.0

-404704.612668392 1.0339911608211257e7 0.0
1.0339911608211257e7 -5.449584320960933e6 0.0
0.0 0.0 0.0

-7.149030713174638e6 1.3767329632440066e7 0.0
1.3767329632440066e7 1.3391329184517175e7 0.0
0.0 0.0 0.0

-6.169389628428078e6 1.6203470283250267e7 0.0
1.6203470283250267e7 7.085829913091146e6 0.0
0.0 0.0 0.0

-3.0635253489216426e6 8.554798177684296e6 0.0
8.554798177684296e6 1.4710949004227126e6 0.0
0.0 0.0 0.0

-2.4476628795757335e7 1.8339347166172806e7 0.0
1.8339347166172806e7 7.0852892938097585e6 0.0
0.0 0.0 0.0

-1.1382084120513627e7 8376.11288608734 0.0
8376.11288608734 3.2412946064057518e7 0.0
0.0 0.0 0.0

-6.507338277352601e6 1.647731641103084e7 0.0
1.647731641103084e7 6.131047654568188e6 0.0
0.0 0.0 0.0

-7.5756421920595e6 1.8996599663034394e7 0.0
1.8996599663034394e7 7.238656619407263e6 0.0
0.0 0.0 0.0

1.5565344669798743e6 1.1262728730550092e7 0.0
1.1262728730550092e7 -1.4884588869898207e7 0.0
0.0 0.0 0.0

-6.454355480699796e6 2.055269696010068e7 0.0
2.055269696010068e7 5.502639752084877e6 0.0
0.0 0.0 0.0

-1.0083562245199662e7 2.254958140337541e7 0.0
2.254958140337541e7 5.892215656517375e6 0.0
0.0 0.0 0.0

-1.1498455191301296e7 2.307077283008455e7 0.0
2.307077283008455e7 6.270586438327941e6 0.0
0.0 0.0 0.0

-4.600525720225848e6 1.7130413125932585e7 0.0
1.7130413125932585e7 1.0711350801367091e6 0.0
0.0 0.0 0.0

-1.21812482598908e7 6.179757466229817e6 0.0
6.179757466229817e6 1.7441578163833242e7 0.0
0.0 0.0 0.0

5.313938582549219e6 4.605598988207265e6 0.0
4.605598988207265e6 -1.5366185807921812e7 0.0
0.0 0.0 0.0

-7.542523774826736e6 1.3542748537984734e7 0.0
1.3542748537984734e7 1.1945814775772128e7 0.0
0.0 0.0 0.0

-4.618177466378835e6 1.872413390987972e7 0.0
1.872413390987972e7 677636.7322120627 0.0
0.0 0.0 0.0

1.0153795550412126e6 1.1610613123551333e7 0.0
1.1610613123551333e7 -1.2234530516631506e7 0.0
0.0 0.0 0.0

-9.761440352304116e6 -6.589646010219698e6 0.0
-6.589646010219698e6 2.2895871841571797e7 0.0
0.0 0.0 0.0

-170967.0342359279 1.3527673022751668e7 0.0
1.3527673022751668e7 -469830.59562836675 0.0
0.0 0.0 0.0

-122301.03120390279 1.344329232247679e7 0.0
1.344329232247679e7 -7.853499578976573e6 0.0
0.0 0.0 0.0

492308.855727884 1.2476850635106236e7 0.0
1.2476850635106236e7 -9.470562037828237e6 0.0
0.0 0.0 0.0

-475067.2564243125 1.0611030858961513e7 0.0
1.0611030858961513e7 -8.929407123159742e6 0.0
0.0 0.0 0.0

-4.661330349135031e6 235332.56970662158 0.0
235332.56970662158 4.900228270999373e6 0.0
0.0 0.0 0.0

828873.7793853409 1.0368502940733954e7 0.0
1.0368502940733954e7 -3.382804160100636e6 0.0
0.0 0.0 0.0

460007.28537906957 1.1494960645617621e7 0.0
1.1494960645617621e7 2.4019750297319717e6 0.0
0.0 0.0 0.0

6.844662163105287e6 1.1849597702471592e7 0.0
1.1849597702471592e7 -652304.6436658413 0.0
0.0 0.0 0.0

-1.2139289183867518e7 2.4008188853336923e7 0.0
2.4008188853336923e7 6.890991311302393e6 0.0
0.0 0.0 0.0

-6.845599017470043e6 1.0902110612266274e7 0.0
1.0902110612266274e7 8.384702746328127e6 0.0
0.0 0.0 0.0

-2.0457833823091835e6 1.3875811131601196e7 0.0
1.3875811131601196e7 -2.3935084729383077e7 0.0
0.0 0.0 0.0

4.791110025730174e6 6.721703102763107e6 0.0
6.721703102763107e6 -1.6032877005063273e7 0.0
0.0 0.0 0.0

-2.1307571419945224e6 -5.889643746946615e6 0.0
-5.889643746946615e6 8.751345223903673e6 0.0
0.0 0.0 0.0

-1.2377892010345116e7 1.7912867763133887e7 0.0
1.7912867763133887e7 5.021410377925926e6 0.0
0.0 0.0 0.0

-8.711491623149497e6 1.5289957458128024e7 0.0
1.5289957458128024e7 166431.58400209295 0.0
0.0 0.0 0.0

79849.41645728331 1.0960347170740152e7 0.0
1.0960347170740152e7 -6.550673238986799e6 0.0
0.0 0.0 0.0

-4.877997785481062e6 1.8324947124780566e7 0.0
1.8324947124780566e7 1.7833633077776853e6 0.0
0.0 0.0 0.0

4.929387419514524e6 6.902395011743953e6 0.0
6.902395011743953e6 -2.556100138724497e7 0.0
0.0 0.0 0.0

1.5768133786860502e6 1.4974529052581305e7 0.0
1.4974529052581305e7 -4.899253282423364e6 0.0
0.0 0.0 0.0

-271767.666770292 1.3575670140189413e7 0.0
1.3575670140189413e7 5.584742444250357e6 0.0
0.0 0.0 0.0

1.9784455231184717e6 1.0388157258969681e7 0.0
1.0388157258969681e7 -1.14378188951965e7 0.0
0.0 0.0 0.0

-4.1523115537471664e6 1.5022803073989872e7 0.0
1.5022803073989872e7 1.7622489368191294e6 0.0
0.0 0.0 0.0

1.5387836262386697e6 9.7597782586794e6 0.0
9.7597782586794e6 -8.442640801444985e6 0.0
0.0 0.0 0.0

1.692372769202616e6 1.0288982524065135e7 0.0
1.0288982524065135e7 -1.233555566920199e7 0.0
0.0 0.0 0.0

289717.89191762405 1.120346510396561e7 0.0
1.120346510396561e7 -9.554697502190577e6 0.0
0.0 0.0 0.0

-7.289589182320997e6 1.862312679321221e7 0.0
1.862312679321221e7 6.711551498014838e6 0.0
0.0 0.0 0.0

-4.839862209629096e6 1.5900346021923617e7 0.0
1.5900346021923617e7 -2.7380574197506756e7 0.0
0.0 0.0 0.0

639342.3188657742 2.1077607868293315e7 0.0
2.1077607868293315e7 -4.367212449530801e6 0.0
0.0 0.0 0.0

-1.5909836390906705e6 1.705801728926492e7 0.0
1.705801728926492e7 -4.0998211268466474e6 0.0
0.0 0.0 0.0

-5.80610191465131e6 1.9371856936576582e7 0.0
1.9371856936576582e7 5.2926166432135925e6 0.0
0.0 0.0 0.0

-6.389319556212644e6 1.5878571177031038e7 0.0
1.5878571177031038e7 7.541277246528103e6 0.0
0.0 0.0 0.0

5.1986623025621865e6 6.265491536417177e6 0.0
6.265491536417177e6 -2.6227624251196533e7 0.0
0.0 0.0 0.0

-5.895008436066113e6 1.4758440258210495e7 0.0
1.4758440258210495e7 8.431644207731154e6 0.0
0.0 0.0 0.0

5.269726000222711e6 5.988773058992027e6 0.0
5.988773058992027e6 -2.1989596205926135e7 0.0
0.0 0.0 0.0

-1.9329788503811685e6 1.376736112661192e7 0.0
1.376736112661192e7 -3.7846461990340324e6 0.0
0.0 0.0 0.0

-1.6109202842477371e6 1.3355121282089707e7 0.0
1.3355121282089707e7 -4.076042187352391e6 0.0
0.0 0.0 0.0

534676.7437692287 1.0108198806410136e7 0.0
1.0108198806410136e7 -3.9290530081503894e6 0.0
0.0 0.0 0.0

-4.841822266573428e6 1.3633694767558996e7 0.0
1.3633694767558996e7 8.017770231594076e6 0.0
0.0 0.0 0.0

-4.660648652823371e6 1.6501729653792743e7 0.0
1.6501729653792743e7 1.2947072505277537e6 0.0
0.0 0.0 0.0

-7.072391896996351e6 1.3639698631092532e7 0.0
1.3639698631092532e7 8.39407047738184e6 0.0
0.0 0.0 0.0

-4.250299101512883e6 -7.8938997768035475e6 0.0
-7.8938997768035475e6 1.0642260499121169e7 0.0
0.0 0.0 0.0

4.498878305578757e6 6.587438548240063e6 0.0
6.587438548240063e6 -1.696025903892862e7 0.0
0.0 0.0 0.0

3.4731080216462854e6 7.721708200387686e6 0.0
7.721708200387686e6 -1.3913446847245947e7 0.0
0.0 0.0 0.0

-5.203493721986967e6 1.9866857942680836e7 0.0
1.9866857942680836e7 2.7399250488276347e6 0.0
0.0 0.0 0.0

-1.1941664547977743e6 1.4219461236260332e7 0.0
1.4219461236260332e7 -3.8211493147863615e6 0.0
0.0 0.0 0.0

2.0604551114707952e6 1.0888320811128968e7 0.0
1.0888320811128968e7 -1.5022092711005703e7 0.0
0.0 0.0 0.0

-4.771455372514416e6 1.3898569940602943e7 0.0
1.3898569940602943e7 1.1399914835020518e7 0.0
0.0 0.0 0.0

-5.856125458392138e6 1.8068598165627962e6 0.0
1.8068598165627962e6 8.306888602305412e6 0.0
0.0 0.0 0.0

-1.0831896002453002e6 1.4169336046255782e7 0.0
1.4169336046255782e7 7.257339218035413e6 0.0
0.0 0.0 0.0

-1.201926572507944e7 1.8963822721530136e7 0.0
1.8963822721530136e7 9.635254704318453e6 0.0
0.0 0.0 0.0

641874.4995448224 1.201682711149107e7 0.0
1.201682711149107e7 2.550072473839146e6 0.0
0.0 0.0 0.0

-755221.6300686717 1.3032550863950903e7 0.0
1.3032550863950903e7 4.0483110702368044e6 0.0
0.0 0.0 0.0

-6.359829008911748e6 1.840462021034773e7 0.0
1.840462021034773e7 6.444547988183877e6 0.0
0.0 0.0 0.0

-5.463898425464265e6 1.4024330432567427e7 0.0
1.4024330432567427e7 8.477471568347553e6 0.0
0.0 0.0 0.0

-7.16434697527076e6 1.3020221776746344e7 0.0
1.3020221776746344e7 1.5261347462348234e7 0.0
0.0 0.0 0.0

-7.503256675197451e6 1.5981321595670614e7 0.0
1.5981321595670614e7 1.42013844452861e6 0.0
0.0 0.0 0.0

-7.928508579775859e6 1.5338000559270335e7 0.0
1.5338000559270335e7 2.837136874770297e6 0.0
0.0 0.0 0.0

-9.474193552891053e6 6.1755748044902785e6 0.0
6.1755748044902785e6 6.589740142494754e6 0.0
0.0 0.0 0.0

-4.349634957896059e7 2.2909232929355133e7 0.0
2.2909232929355133e7 9.216483888092661e6 0.0
0.0 0.0 0.0

4.195551418737717e6 1.2132558554445418e7 0.0
1.2132558554445418e7 967843.1056051044 0.0
0.0 0.0 0.0

1.0661995389374932e6 1.1415751629943544e7 0.0
1.1415751629943544e7 -1.502366174886913e7 0.0
0.0 0.0 0.0

-6.530398251272485e6 1.5336203502651704e7 0.0
1.5336203502651704e7 6.142802649675975e6 0.0
0.0 0.0 0.0

-681953.7734932159 1.3439019772361705e7 0.0
1.3439019772361705e7 -8.55431552517948e6 0.0
0.0 0.0 0.0

1.8805258698225375e7 1.1546986055679647e7 0.0
1.1546986055679647e7 -875820.697773573 0.0
0.0 0.0 0.0

-921678.1701645381 3.0638381012339764e6 0.0
3.0638381012339764e6 -154607.60442784854 0.0
0.0 0.0 0.0

3.6301708230019994e6 4.446291912790912e6 0.0
4.446291912790912e6 -9.186812735656293e6 0.0
0.0 0.0 0.0

-1.4915054520289502e6 1.3703607504095899e7 0.0
1.3703607504095899e7 -6.556468848594168e6 0.0
0.0 0.0 0.0

242415.06623803906 1.0844462237658614e7 0.0
1.0844462237658614e7 -2.6383526153823156e6 0.0
0.0 0.0 0.0

-1.1252886835442541e7 -505923.93268924044 0.0
-505923.93268924044 2.379782653116141e7 0.0
0.0 0.0 0.0

-580285.9461964811 1.7409803421374816e7 0.0
1.7409803421374816e7 -3.96252004920265e6 0.0
0.0 0.0 0.0

-1.538532823230433e7 2.447663799006753e7 0.0
2.447663799006753e7 7.495086478282276e6 0.0
0.0 0.0 0.0

3.882412990055241e6 1.2803055460305884e7 0.0
1.2803055460305884e7 546.5718793552369 0.0
0.0 0.0 0.0

-4.7431769223146625e6 -3.379646787959064e6 0.0
-3.379646787959064e6 6.51632161478527e6 0.0
0.0 0.0 0.0

-1.6031726168417618e7 1.4449647225405857e7 0.0
1.4449647225405857e7 9.016582186407879e6 0.0
0.0 0.0 0.0

-646562.4009647071 1.0245219059902238e7 0.0
1.0245219059902238e7 2.2293858496783157e6 0.0
0.0 0.0 0.0

-1.8565278950405218e7 2.5163308931267373e7 0.0
2.5163308931267373e7 8.342152006895207e6 0.0
0.0 0.0 0.0

-8.681425583228223e6 1.0759659467574308e7 0.0
1.0759659467574308e7 1.226719465162724e7 0.0
0.0 0.0 0.0

1.4596425574969342e6 1.212423926606757e7 0.0
1.212423926606757e7 -3.639993890728266e6 0.0
0.0 0.0 0.0

-2.131842218072047e6 1.1574477883323085e7 0.0
1.1574477883323085e7 -1.223615400301577e7 0.0
0.0 0.0 0.0

-23821.82334484812 1.1217890377868028e7 0.0
1.1217890377868028e7 -7.896158145227228e6 0.0
0.0 0.0 0.0

1.7235579033856327e6 1.4477910196918156e7 0.0
1.4477910196918156e7 -4.848215160093781e6 0.0
0.0 0.0 0.0

3.3112210653158044e6 2.479917714095391e7 0.0
2.479917714095391e7 -1.5448777016811986e7 0.0
0.0 0.0 0.0

-5.094402156800417e6 226547.7533456914 0.0
226547.7533456914 6.551505573435143e6 0.0
0.0 0.0 0.0

-5.9188006913764095e6 2.158489988283769e7 0.0
2.158489988283769e7 1.5142234799787616e6 0.0
0.0 0.0 0.0

-3.841906794545036e6 1.8858303348976083e7 0.0
1.8858303348976083e7 878808.6106802253 0.0
0.0 0.0 0.0

-9.038112340485398e6 -5.628502342289137e6 0.0
-5.628502342289137e6 1.5607050812110726e7 0.0
0.0 0.0 0.0

5.341612789917231e6 4.559515719776779e6 0.0
4.559515719776779e6 -1.5437952169588782e7 0.0
0.0 0.0 0.0

-5.993317700136823e6 1.7232891988782085e7 0.0
1.7232891988782085e7 6.897655670384251e6 0.0
0.0 0.0 0.0

-2.2487013880406865e6 1.396424080569853e7 0.0
1.396424080569853e7 8.365120106292227e6 0.0
0.0 0.0 0.0

-1.8511699370973422e6 2.1189416963027725e6 0.0
2.1189416963027725e6 4.214330135773446e6 0.0
0.0 0.0 0.0

-8.699619731093133e6 8.834236043187432e6 0.0
8.834236043187432e6 1.166813132200849e7 0.0
0.0 0.0 0.0

-2.906114012390192e6 1.3779738374407768e7 0.0
1.3779738374407768e7 8.974434128674429e6 0.0
0.0 0.0 0.0

-827734.500543901 1.177957602282855e7 0.0
1.177957602282855e7 -5.990024108840409e6 0.0
0.0 0.0 0.0

-15029.571602893993 1.104911445138156e7 0.0
1.104911445138156e7 -9.902192333607897e6 0.0
0.0 0.0 0.0

-4.355118680546181e6 1.759379085674832e7 0.0
1.759379085674832e7 -80594.01889935485 0.0
0.0 0.0 0.0

-1.3879936504284558e6 2.8936531326706163e6 0.0
2.8936531326706163e6 920877.0904170342 0.0
0.0 0.0 0.0

-3.9195785467828736e6 1.261816404696381e7 0.0
1.261816404696381e7 1.9335154866963634e6 0.0
0.0 0.0 0.0

-1.1105853600718297e7 1.0687607964970043e7 0.0
1.0687607964970043e7 1.4995546752381185e7 0.0
0.0 0.0 0.0

802085.177475031 1.0244905734724665e7 0.0
1.0244905734724665e7 -7.041415655086722e6 0.0
0.0 0.0 0.0

-2.3673781510059917e6 1.5179732282636885e7 0.0
1.5179732282636885e7 -5.0343750397576215e6 0.0
0.0 0.0 0.0

-6.037975132774417e6 2.2903040789770864e7 0.0
2.2903040789770864e7 2.7510178942849035e6 0.0
0.0 0.0 0.0

1.815689592644534e6 1.0787644042174008e7 0.0
1.0787644042174008e7 -1.5828157787174728e7 0.0
0.0 0.0 0.0

-3.3429168629308548e7 2.407712428875452e7 0.0
2.407712428875452e7 1.1643503599286092e7 0.0
0.0 0.0 0.0

1.6894955750238239e6 3.874817417275425e6 0.0
3.874817417275425e6 -4.377014266318082e6 0.0
0.0 0.0 0.0

1.5206030313221542e6 3.990329197329442e6 0.0
3.990329197329442e6 -5.034836893410675e6 0.0
0.0 0.0 0.0

53038.24833938759 1.4446317647507079e7 0.0
1.4446317647507079e7 7.920096531402346e6 0.0
0.0 0.0 0.0

-2.244094142877399e6 1.4806751237707945e7 0.0
1.4806751237707945e7 1.0672452702047927e7 0.0
0.0 0.0 0.0

-956801.2902467687 1.3494935858345125e7 0.0
1.3494935858345125e7 2.5558942098785248e6 0.0
0.0 0.0 0.0

-7.875624865100628e6 7.701059535968084e6 0.0
7.701059535968084e6 1.1168651763200145e7 0.0
0.0 0.0 0.0

751733.0826826016 4.304995967332874e6 0.0
4.304995967332874e6 -742551.1512455847 0.0
0.0 0.0 0.0

-2.7170202977741053e6 1.422115584475773e7 0.0
1.422115584475773e7 4.060412596562808e6 0.0
0.0 0.0 0.0

-4.806634285904339e6 1.8201670181424517e7 0.0
1.8201670181424517e7 2.9506274485851424e6 0.0
0.0 0.0 0.0

1.382846800722626e6 1.120860925198307e7 0.0
1.120860925198307e7 -1.6206926499582745e7 0.0
0.0 0.0 0.0

-892173.213761617 1.4996635877196694e7 0.0
1.4996635877196694e7 8.845893167283513e6 0.0
0.0 0.0 0.0

4.714124339080302e6 1.3003539540758237e7 0.0
1.3003539540758237e7 1.7148742578726327e6 0.0
0.0 0.0 0.0

-2.2020801732259367e7 2.5132570313487764e7 0.0
2.5132570313487764e7 1.0484251146217875e7 0.0
0.0 0.0 0.0

-1.659121177655854e6 1.151085545957523e7 0.0
1.151085545957523e7 4.732056160547999e6 0.0
0.0 0.0 0.0

-3.6809645669586295e6 6.52038985866269e6 0.0
6.52038985866269e6 1.4556645627817647e6 0.0
0.0 0.0 0.0

-1.2332264276842708e7 5.20544427809146e6 0.0
5.20544427809146e6 1.4522417169368051e7 0.0
0.0 0.0 0.0

-4.866695600244597e6 1.7761658773757584e7 0.0
1.7761658773757584e7 2.2034698760102442e6 0.0
0.0 0.0 0.0

-4.1919145284144683e6 1.4666196229822814e7 0.0
1.4666196229822814e7 1.1650091117767729e7 0.0
0.0 0.0 0.0

-1.2298998853971962e7 623039.7336414002 0.0
623039.7336414002 3.621311470916038e7 0.0
0.0 0.0 0.0

-2.7753242694890937e6 1.3640726228220582e7 0.0
1.3640726228220582e7 5.831108034275908e6 0.0
0.0 0.0 0.0

-3.5497724791871808e6 1.2563232883968633e7 0.0
1.2563232883968633e7 -1.496594850503845e7 0.0
0.0 0.0 0.0

-3.037298680915911e6 1.4369780649034243e7 0.0
1.4369780649034243e7 1.0213038123684024e7 0.0
0.0 0.0 0.0

-8.69868538529834e6 1.2567015729354037e7 0.0
1.2567015729354037e7 1.2713339235583853e7 0.0
0.0 0.0 0.0

-500993.25645106914 1.124820503762159e7 0.0
1.124820503762159e7 -6.321840712980964e6 0.0
0.0 0.0 0.0

-4.811646520073302e6 1.425349072170432e7 0.0
1.425349072170432e7 4.227099153502817e7 0.0
0.0 0.0 0.0

-722507.0737056365 1.6942630043393884e7 0.0
1.6942630043393884e7 -4.512598913232327e6 0.0
0.0 0.0 0.0

187631.4454455017 1.2509318976695642e7 0.0
1.2509318976695642e7 -1.0274736358023431e7 0.0
0.0 0.0 0.0

-305352.5480208242 9.529911132514495e6 0.0
9.529911132514495e6 -4.0648246246574344e6 0.0
0.0 0.0 0.0

5.626916404219103e6 4.816508137533054e6 0.0
4.816508137533054e6 -1.8391034300859045e7 0.0
0.0 0.0 0.0

-5.694751370973522e6 2.2115484144091103e7 0.0
2.2115484144091103e7 3.3006780488280943e6 0.0
0.0 0.0 0.0

-1.2473055018065918e7 5.993044513255471e6 0.0
5.993044513255471e6 1.4877107558135554e7 0.0
0.0 0.0 0.0

-585497.0807535206 1.3321927977369392e7 0.0
1.3321927977369392e7 5.360519284401719e6 0.0
0.0 0.0 0.0

-6.350432267458666e6 1.6459077222910808e7 0.0
1.6459077222910808e7 5.188581142407309e6 0.0
0.0 0.0 0.0

-4.365539717717748e6 1.3757094800680319e7 0.0
1.3757094800680319e7 1.4960345904854268e6 0.0
0.0 0.0 0.0

-1.0125888483100198e7 9.292402900456008e6 0.0
9.292402900456008e6 1.2102770508036308e7 0.0
0.0 0.0 0.0

2.426423552305471e6 8.494398491519812e6 0.0
8.494398491519812e6 -1.1541656196270173e7 0.0
0.0 0.0 0.0

-1.4757684299906341e7 2.2509924971917987e7 0.0
2.2509924971917987e7 9.75663175154077e6 0.0
0.0 0.0 0.0

8.64675261356802e6 9.838059254055182e6 0.0
9.838059254055182e6 84498.50902958168 0.0
0.0 0.0 0.0

-6.034827758480749e6 1.218655778276112e6 0.0
1.218655778276112e6 5.844376108421273e6 0.0
0.0 0.0 0.0

-7.076055308791086e6 1.8845427081795383e7 0.0
1.8845427081795383e7 6.713484612864838e6 0.0
0.0 0.0 0.0

-2.0107051605457537e7 1.0988590290708644e7 0.0
1.0988590290708644e7 1.051972821971096e7 0.0
0.0 0.0 0.0

-1.621028364415993e6 1.4786224890591132e7 0.0
1.4786224890591132e7 -3.60260876608761e6 0.0
0.0 0.0 0.0

-2.686170591295699e7 1.9893279748412997e7 0.0
1.9893279748412997e7 6.66905259037382e6 0.0
0.0 0.0 0.0

-1.1932923636194058e6 1.4827298322364742e7 0.0
1.4827298322364742e7 -2.231442046813457e6 0.0
0.0 0.0 0.0

-7.46908343608736e6 1.2191352761745432e7 0.0
1.2191352761745432e7 9.734572404902318e6 0.0
0.0 0.0 0.0

-8.621069119782122e6 6.586515742478836e6 0.0
6.586515742478836e6 1.2142817249937486e7 0.0
0.0 0.0 0.0

-7.543762133903973e6 1.0362004600882981e7 0.0
1.0362004600882981e7 7.572513532534671e6 0.0
0.0 0.0 0.0

-5.889114486243398e6 1.5827281329441754e7 0.0
1.5827281329441754e7 7.423418644394312e6 0.0
0.0 0.0 0.0

-1.0461615736561883e7 -4.249905175707331e6 0.0
-4.249905175707331e6 2.305475969943337e7 0.0
0.0 0.0 0.0

55739.00256290077 1.0023602398980582e7 0.0
1.0023602398980582e7 -2.4235116725841234e6 0.0
0.0 0.0 0.0

1.5153990237038503e6 9.043879061246082e6 0.0
9.043879061246082e6 -7.571294022075432e6 0.0
0.0 0.0 0.0

909064.890342236 1.1585214772900172e7 0.0
1.1585214772900172e7 -1.0121693709407052e7 0.0
0.0 0.0 0.0

-5.404943231825106e6 -3.424757095256681e6 0.0
-3.424757095256681e6 8.99109740235226e6 0.0
0.0 0.0 0.0

-415334.6233118015 1.0281027491455156e7 0.0
1.0281027491455156e7 -1.3856535954828293e6 0.0
0.0 0.0 0.0

-6.224910851156439e6 1.6744965756843712e7 0.0
1.6744965756843712e7 5.863148177049469e6 0.0
0.0 0.0 0.0

-2.636805528080552e6 1.4637720461109344e7 0.0
1.4637720461109344e7 9.595294680455413e6 0.0
0.0 0.0 0.0

-1.0098631908814777e6 1.3301007940328166e7 0.0
1.3301007940328166e7 -6.770247751823798e6 0.0
0.0 0.0 0.0

-488617.07487291674 1.3134024600996302e7 0.0
1.3134024600996302e7 654034.9044492878 0.0
0.0 0.0 0.0

-5.688768257504861e6 2.0974842035624444e7 0.0
2.0974842035624444e7 2.0152457387737965e6 0.0
0.0 0.0 0.0

-274714.21402193 1.373494951235488e7 0.0
1.373494951235488e7 -7.399394810965262e6 0.0
0.0 0.0 0.0

3.726973742969924e7 1.6297302602463638e7 0.0
1.6297302602463638e7 -307763.5323702451 0.0
0.0 0.0 0.0

1.654359387471427e6 1.2845182743567284e7 0.0
1.2845182743567284e7 -4.648618543111767e6 0.0
0.0 0.0 0.0

498338.155256222 1.208475105160184e7 0.0
1.208475105160184e7 -1.2216659980848394e7 0.0
0.0 0.0 0.0

-1.33962188690831e6 1.4995791870003482e7 0.0
1.4995791870003482e7 -5.903447418256456e6 0.0
0.0 0.0 0.0

-1.8187932567097887e7 1.6222413623262273e7 0.0
1.6222413623262273e7 8.230360786746036e6 0.0
0.0 0.0 0.0

-5.878397951564897e6 1.6397462154478941e7 0.0
1.6397462154478941e7 6.322060197058698e6 0.0
0.0 0.0 0.0

5.58538670094389e6 1.2888547544105336e7 0.0
1.2888547544105336e7 -2.32798690498325e6 0.0
0.0 0.0 0.0

1.0347936627211496e6 1.1278381730255077e7 0.0
1.1278381730255077e7 -1.8291914052888375e7 0.0
0.0 0.0 0.0

-222414.13322651805 1.3990964749088092e7 0.0
1.3990964749088092e7 9.849346920524728e6 0.0
0.0 0.0 0.0

4.587444481866612e6 6.079151146122174e6 0.0
6.079151146122174e6 -1.3092707415453516e7 0.0
0.0 0.0 0.0

-1.1385302197029088e6 1.5377563247727266e7 0.0
1.5377563247727266e7 -5.272360323852505e6 0.0
0.0 0.0 0.0

5.453957363070718e6 5.520854571978796e6 0.0
5.520854571978796e6 -2.1379691037811995e7 0.0
0.0 0.0 0.0

-2.241644059629824e6 1.4961627133424485e7 0.0
1.4961627133424485e7 -4.953934103108242e6 0.0
0.0 0.0 0.0

-1.3461046260042829e6 1.7430063574012075e7 0.0
1.7430063574012075e7 -3.338575033165755e6 0.0
0.0 0.0 0.0

-3.9157816105395565e6 1.3646092875427604e7 0.0
1.3646092875427604e7 1.2827605481712262e6 0.0
0.0 0.0 0.0

-1.0563025217700945e7 1.9136616296315722e7 0.0
1.9136616296315722e7 8.258791540316964e6 0.0
0.0 0.0 0.0

-9.264580804800622e6 1.2525637359400442e7 0.0
1.2525637359400442e7 1.2597352720791869e7 0.0
0.0 0.0 0.0

-1.7097886541902327e6 1.0867813259807033e7 0.0
1.0867813259807033e7 3.679457869143147e6 0.0
0.0 0.0 0.0

-2.5403925753496956e7 1.727223279441909e7 0.0
1.727223279441909e7 1.256932000492599e7 0.0
0.0 0.0 0.0

3.44071144656297e6 1.3012411150582409e7 0.0
1.3012411150582409e7 4.0835851769122723e6 0.0
0.0 0.0 0.0

-3.418674598681046e6 8.019542128304856e6 0.0
8.019542128304856e6 709548.5754974212 0.0
0.0 0.0 0.0

-6.375677670871932e6 1.855607866621727e7 0.0
1.855607866621727e7 6.2871943020590525e6 0.0
0.0 0.0 0.0

-1.4614958085727305e6 1.5173302066220596e7 0.0
1.5173302066220596e7 -2.623227321723785e6 0.0
0.0 0.0 0.0

863732.6278702719 1.0490116006829962e7 0.0
1.0490116006829962e7 -7.424852167583635e6 0.0
0.0 0.0 0.0

5.465016995255448e6 4.481385448479647e6 0.0
4.481385448479647e6 -1.6091938961258188e7 0.0
0.0 0.0 0.0

547317.8788978229 1.0642739106903344e7 0.0
1.0642739106903344e7 -7.064636081311422e6 0.0
0.0 0.0 0.0

2.102615047164827e7 5.843706525741791e6 0.0
5.843706525741791e6 -3.750607946715273e6 0.0
0.0 0.0 0.0

-9.040580082179748e6 1.2626951403440561e7 0.0
1.2626951403440561e7 1.3310455212602267e7 0.0
0.0 0.0 0.0

-6.936033517134903e6 1.826661351157363e7 0.0
1.826661351157363e7 6.65793289017031e6 0.0
0.0 0.0 0.0

-7.449840440821517e6 -8.620906814624773e6 0.0
-8.620906814624773e6 1.864134906216763e7 0.0
0.0 0.0 0.0

-6.545072370463889e6 2.0667496917679936e7 0.0
2.0667496917679936e7 4.8918682930429205e6 0.0
0.0 0.0 0.0

-1.5681471847285375e7 1.4221302496550536e7 0.0
1.4221302496550536e7 8.500847389101518e6 0.0
0.0 0.0 0.0

-122836.61449622782 1.2799849597176168e7 0.0
1.2799849597176168e7 -9.632739234041985e6 0.0
0.0 0.0 0.0

49671.799611067865 1.4114967352381725e7 0.0
1.4114967352381725e7 6.767968066237596e6 0.0
0.0 0.0 0.0

-667039.3207363791 1.1030183664856024e7 0.0
1.1030183664856024e7 1.161604287490583e6 0.0
0.0 0.0 0.0

-6.172779629925395e6 1.479232441375866e7 0.0
1.479232441375866e7 6.256834233577436e6 0.0
0.0 0.0 0.0

571107.8735392387 1.0104579798906097e7 0.0
1.0104579798906097e7 -7.95567882012557e6 0.0
0.0 0.0 0.0

3.010948466022145e6 8.261667257511022e6 0.0
8.261667257511022e6 -1.1173176394738462e7 0.0
0.0 0.0 0.0

177488.8169725074 7.375807401000794e6 0.0
7.375807401000794e6 -4.951880530743676e6 0.0
0.0 0.0 0.0

-6.236555335874967e6 1.8307831563804787e7 0.0
1.8307831563804787e7 6.045960111374248e6 0.0
0.0 0.0 0.0

-1.1339796443581725e6 1.2008537319859862e7 0.0
1.2008537319859862e7 -5.342048083339404e6 0.0
0.0 0.0 0.0

7.855105443987859e6 9.801889185915489e6 0.0
9.801889185915489e6 32639.805527400225 0.0
0.0 0.0 0.0

5.499737129737746e6 4.464344663254097e6 0.0
4.464344663254097e6 -1.6179589499631584e7 0.0
0.0 0.0 0.0

-1.3690409748362736e6 1.391941330191118e7 0.0
1.391941330191118e7 7.094192444762086e6 0.0
0.0 0.0 0.0

640315.1364328724 7.279725879354813e6 0.0
7.279725879354813e6 -5.814337789315073e6 0.0
0.0 0.0 0.0

-3.792095298469332e6 1.777304315008444e7 0.0
1.777304315008444e7 198719.78492419864 0.0
0.0 0.0 0.0

-1.2510527111107304e6 1.3482268842815887e7 0.0
1.3482268842815887e7 3.6354777256818577e6 0.0
0.0 0.0 0.0

-1.2106250237326348e7 2.295011005245107e6 0.0
2.295011005245107e6 2.118415850055896e7 0.0
0.0 0.0 0.0

-1.103934061399912e6 3.995179974786236e6 0.0
3.995179974786236e6 326090.26375340554 0.0
0.0 0.0 0.0

-1.8612737043440244e6 1.7631106840608265e7 0.0
1.7631106840608265e7 -3.6555373524979935e6 0.0
0.0 0.0 0.0

-3.19960948871478e7 7.503874468071989e6 0.0
7.503874468071989e6 1.172921370618572e7 0.0
0.0 0.0 0.0

723326.6816709326 1.2015321398881769e7 0.0
1.2015321398881769e7 -1.1656762500166582e7 0.0
0.0 0.0 0.0

-3.215524280776698e6 1.0012970174207678e7 0.0
1.0012970174207678e7 4.8843051229278e6 0.0
0.0 0.0 0.0

-7.247464732038027e6 1.198660999236033e7 0.0
1.198660999236033e7 9.265455539251946e6 0.0
0.0 0.0 0.0

-3.4162463679929495e7 7.6724705481767785e6 0.0
7.6724705481767785e6 1.1654159208881227e7 0.0
0.0 0.0 0.0

543088.1068248549 1.1763882059840387e7 0.0
1.1763882059840387e7 -1.242365282542421e7 0.0
0.0 0.0 0.0

-1.2746738324703146e6 1.4638045918609938e7 0.0
1.4638045918609938e7 -6.054238789154525e6 0.0
0.0 0.0 0.0

1.4574414245423612e6 5.540277986266543e6 0.0
5.540277986266543e6 -4.923492377656073e6 0.0
0.0 0.0 0.0

-3.2156981989116473e6 1.5938008171559913e7 0.0
1.5938008171559913e7 -1.840634607002261e6 0.0
0.0 0.0 0.0

-2.9312584950748896e6 1.955777770266496e7 0.0
1.955777770266496e7 -1.527436973441652e6 0.0
0.0 0.0 0.0

-5.692207355957173e6 1.9131456552004956e7 0.0
1.9131456552004956e7 4.1636399281735416e6 0.0
0.0 0.0 0.0

-5.856584062049104e6 1.4090060204558607e7 0.0
1.4090060204558607e7 3.6075797988501326e6 0.0
0.0 0.0 0.0

-1.1929635333791614e7 8.46200129621415e6 0.0
8.46200129621415e6 1.6047271994408902e7 0.0
0.0 0.0 0.0

-4.950967724296046e6 1.4732627513707468e7 0.0
1.4732627513707468e7 7.657115556687708e6 0.0
0.0 0.0 0.0

-6.347090780471055e6 2.0228874774753373e7 0.0
2.0228874774753373e7 4.742480503515927e6 0.0
0.0 0.0 0.0

1.2501342986692851e6 8.938229899989404e6 0.0
8.938229899989404e6 -8.480565344817152e6 0.0
0.0 0.0 0.0

-6.206831141099918e6 1.986323729778716e7 0.0
1.986323729778716e7 4.56017005855024e6 0.0
0.0 0.0 0.0

-3.0907811592108766e6 1.4891379404793646e7 0.0
1.4891379404793646e7 1.1038681439337794e7 0.0
0.0 0.0 0.0

-1.1770295031714197e7 5.928486551309788e6 0.0
5.928486551309788e6 1.5535614424124602e7 0.0
0.0 0.0 0.0

5.151165155728958e6 5.007046323780397e6 0.0
5.007046323780397e6 -1.686103551398857e7 0.0
0.0 0.0 0.0

-7.340126740344567e6 1.6456246504127635e7 0.0
1.6456246504127635e7 5.384237595829315e6 0.0
0.0 0.0 0.0

-4.05884458154112e6 1.6094499426640352e7 0.0
1.6094499426640352e7 -364857.79200255766 0.0
0.0 0.0 0.0

-3.4330504176738127e6 1.6107747018539254e7 0.0
1.6107747018539254e7 -959955.2648217202 0.0
0.0 0.0 0.0

-3.890590842151715e7 2.9529907018260606e7 0.0
2.9529907018260606e7 -9.245363538106598e6 0.0
0.0 0.0 0.0

184351.0197000876 1.3112394615305662e7 0.0
1.3112394615305662e7 -9.127519706276456e6 0.0
0.0 0.0 0.0

-4.547447891745485e6 1.7551474423388127e7 0.0
1.7551474423388127e7 2.385573199401605e6 0.0
0.0 0.0 0.0

-7.856452335997575e6 1.2643019938860606e7 0.0
1.2643019938860606e7 8.956892087235367e6 0.0
0.0 0.0 0.0

-2.13972799578247e7 1.2423716466656324e7 0.0
1.2423716466656324e7 1.1536158073366437e7 0.0
0.0 0.0 0.0

18122.882535525016 1.3040038327191534e7 0.0
1.3040038327191534e7 -962750.4409801712 0.0
0.0 0.0 0.0

-5.357550258791444e6 1.426871962586914e7 0.0
1.426871962586914e7 1.260205668807595e7 0.0
0.0 0.0 0.0

5.904407757723382e6 4.133157734705887e6 0.0
4.133157734705887e6 -1.941969856640889e7 0.0
0.0 0.0 0.0

-1.717536868849366e7 2.005045347860872e7 0.0
2.005045347860872e7 1.143143961015239e7 0.0
0.0 0.0 0.0

-8.734151081659628e6 -6.558668756225868e6 0.0
-6.558668756225868e6 2.0298837769329395e7 0.0
0.0 0.0 0.0

-1.109209954760112e7 -4.66661047302402e6 0.0
-4.66661047302402e6 2.5741487245856326e7 0.0
0.0 0.0 0.0

-733624.4851336431 3.346967476111735e6 0.0
3.346967476111735e6 28984.69729418782 0.0
0.0 0.0 0.0

-1.2128053014183383e7 7.098063460819385e6 0.0
7.098063460819385e6 1.7503939277055427e7 0.0
0.0 0.0 0.0

-6.215176420012178e6 1.1780757618523302e7 0.0
1.1780757618523302e7 9.382329941118073e6 0.0
0.0 0.0 0.0

1.1946000712061012e6 1.1568227566811576e7 0.0
1.1568227566811576e7 -1.3048543978685878e7 0.0
0.0 0.0 0.0

-2.7582580516237848e7 2.4556636197468333e7 0.0
2.4556636197468333e7 1.2154617741667053e7 0.0
0.0 0.0 0.0

-1.1738903689603217e7 6.706448196812215e6 0.0
6.706448196812215e6 1.5931071592637751e7 0.0
0.0 0.0 0.0

1.1008211923971605e6 1.1163446219751684e7 0.0
1.1163446219751684e7 -1.8704917504969347e7 0.0
0.0 0.0 0.0

-1.481328431707894e7 1.2827115924664088e7 0.0
1.2827115924664088e7 8.951938392139953e6 0.0
0.0 0.0 0.0

-1.0302228844226746e7 -5.127160083702574e6 0.0
-5.127160083702574e6 2.6629869056564342e7 0.0
0.0 0.0 0.0

-510757.2537244288 1.2462364941164438e7 0.0
1.2462364941164438e7 -8.069320241769908e6 0.0
0.0 0.0 0.0

-1.6115534841662636e6 1.2846872143726438e7 0.0
1.2846872143726438e7 -1.9376234661517456e7 0.0
0.0 0.0 0.0

-783656.986200756 1.448943290002453e7 0.0
1.448943290002453e7 -2.6048116052389583e6 0.0
0.0 0.0 0.0

-1.3233445720855417e7 1.0860416536659429e7 0.0
1.0860416536659429e7 8.326937022847487e6 0.0
0.0 0.0 0.0

1.7739264194300417e7 1.612262132248207e7 0.0
1.612262132248207e7 2.564540851275272e6 0.0
0.0 0.0 0.0

-604439.3202733259 8.366551873818807e6 0.0
8.366551873818807e6 -3.286204340636801e6 0.0
0.0 0.0 0.0

764663.1881510406 1.17802076002245e7 0.0
1.17802076002245e7 -9.243326889631417e6 0.0
0.0 0.0 0.0

173795.16237339424 1.0761100491031626e7 0.0
1.0761100491031626e7 -8.853153522903625e6 0.0
0.0 0.0 0.0

6.090934896626093e6 4.171934161692441e6 0.0
4.171934161692441e6 -1.953450957450846e7 0.0
0.0 0.0 0.0

-3.771744815434167e6 1.715610040120252e7 0.0
1.715610040120252e7 411983.63542814855 0.0
0.0 0.0 0.0

159733.83618788794 1.1629488210478542e7 0.0
1.1629488210478542e7 -1.2955233203861969e7 0.0
0.0 0.0 0.0

121237.16580641549 1.3857544265683778e7 0.0
1.3857544265683778e7 -7.59483360365248e6 0.0
0.0 0.0 0.0

-180934.7060642461 1.0928598913247205e7 0.0
1.0928598913247205e7 -695402.7033598026 0.0
0.0 0.0 0.0

-3.0962666220921394e6 8.086898038248863e6 0.0
8.086898038248863e6 1.7579896192271393e6 0.0
0.0 0.0 0.0

-6.550800684740216e6 1.4467102465699032e7 0.0
1.4467102465699032e7 5.755361846057821e6 0.0
0.0 0.0 0.0

-5.02148194852286e6 1.4360140693045741e7 0.0
1.4360140693045741e7 1.0944058262202073e7 0.0
0.0 0.0 0.0

5.047461303145534e6 4.835789654910546e6 0.0
4.835789654910546e6 -1.4028403633129124e7 0.0
0.0 0.0 0.0

-1.1042973613917124e7 5.174270859843519e6 0.0
5.174270859843519e6 4.279002416222026e6 0.0
0.0 0.0 0.0

-2.7874865553590627e6 1.439118725037069e7 0.0
1.439118725037069e7 9.847074557350669e6 0.0
0.0 0.0 0.0

442721.61190996366 1.2077843925123587e7 0.0
1.2077843925123587e7 -1.0383841709296964e7 0.0
0.0 0.0 0.0

3.1534792547217928e7 7.17228870974021e6 0.0
7.17228870974021e6 -2.919601082375167e6 0.0
0.0 0.0 0.0

1.1471269611630216e6 1.2012614952145968e7 0.0
1.2012614952145968e7 -1.1613794198194638e7 0.0
0.0 0.0 0.0

-4.0472193817611327e6 1.6548496591823794e7 0.0
1.6548496591823794e7 -758885.317841148 0.0
0.0 0.0 0.0

-4.65693033370867e6 1.4681848709164606e7 0.0
1.4681848709164606e7 1.110579895328675e6 0.0
0.0 0.0 0.0

-2.6432820404619053e6 1.4225376473558312e7 0.0
1.4225376473558312e7 2.8179255087165233e7 0.0
0.0 0.0 0.0

-1.217557741560049e7 6.302388393067804e6 0.0
6.302388393067804e6 1.830541807915763e7 0.0
0.0 0.0 0.0

-7.496875372002103e6 -9.061890524687223e6 0.0
-9.061890524687223e6 1.866725693152847e7 0.0
0.0 0.0 0.0

-1.2645255518607624e7 745545.788726359 0.0
745545.788726359 2.1376811350304e7 0.0
0.0 0.0 0.0

-5.639151696091746e6 1.866388632486629e7 0.0
1.866388632486629e7 4.228267092551567e6 0.0
0.0 0.0 0.0

2.495793005697581e6 9.017884057293937e6 0.0
9.017884057293937e6 -1.207277671417372e7 0.0
0.0 0.0 0.0

-6.224311878262638e6 1.5537349286262201e7 0.0
1.5537349286262201e7 7.657288187957244e6 0.0
0.0 0.0 0.0

-162650.4491816298 1.3384323382670324e7 0.0
1.3384323382670324e7 -8.494690297828149e6 0.0
0.0 0.0 0.0

-7.607746962712156e6 1.1266795658518264e7 0.0
1.1266795658518264e7 7.776387689632939e6 0.0
0.0 0.0 0.0

-5.80682972468978e6 1.6766041656718995e7 0.0
1.6766041656718995e7 6.701867202711702e6 0.0
0.0 0.0 0.0

333706.7104155016 1.6611513262512995e7 0.0
1.6611513262512995e7 -4.8726868039672235e6 0.0
0.0 0.0 0.0

-6.093493662215475e6 1.4335750094887914e7 0.0
1.4335750094887914e7 8.733291623035815e6 0.0
0.0 0.0 0.0

-6.513372877488646e6 1.5066560249595925e7 0.0
1.5066560249595925e7 8.22567184902619e6 0.0
0.0 0.0 0.0

-613866.4061104772 1.1244424615264602e7 0.0
1.1244424615264602e7 -9.572998474367004e6 0.0
0.0 0.0 0.0

-1.227431562984329e7 6.49610703291278e6 0.0
6.49610703291278e6 1.4307703778990783e7 0.0
0.0 0.0 0.0

-5.451010804422373e6 1.8761748999135435e7 0.0
1.8761748999135435e7 4.899004435336634e6 0.0
0.0 0.0 0.0

4.401515846442678e6 5.862816576215474e6 0.0
5.862816576215474e6 -1.3712710385626055e7 0.0
0.0 0.0 0.0

-1.1684143671012128e7 -1.0361748612549484e6 0.0
-1.0361748612549484e6 3.554472265973298e7 0.0
0.0 0.0 0.0

-519300.68187854066 1.40354025520485e7 0.0
1.40354025520485e7 -3.380584495073365e6 0.0
0.0 0.0 0.0

-5.773678014605719e6 1.900116753139153e7 0.0
1.900116753139153e7 4.492087410761254e6 0.0
0.0 0.0 0.0

2.5891613623487754e6 1.0170335682834327e7 0.0
1.0170335682834327e7 -1.3763068917795448e7 0.0
0.0 0.0 0.0

-4.458409488364339e6 1.724236312299379e7 0.0
1.724236312299379e7 225878.22537720622 0.0
0.0 0.0 0.0

2.7449699266339e6 8.167223170647123e6 0.0
8.167223170647123e6 -1.210580406441208e7 0.0
0.0 0.0 0.0

-1.180670405841649e7 5.33213365047282e6 0.0
5.33213365047282e6 1.6215535099375363e7 0.0
0.0 0.0 0.0

-3.613152830241392e7 2.4323359813134987e7 0.0
2.4323359813134987e7 1.1412881050407594e7 0.0
0.0 0.0 0.0

-6.299750058581384e6 1.545484135191857e7 0.0
1.545484135191857e7 1.5691547938173371e6 0.0
0.0 0.0 0.0

-5.808285852295763e6 1.5545993129760008e7 0.0
1.5545993129760008e7 7.669128649635892e6 0.0
0.0 0.0 0.0

-3.079542535001282e6 368297.229386192 0.0
368297.229386192 3.498586818225706e6 0.0
0.0 0.0 0.0

-7.551596793715837e6 1.4816465191033758e7 0.0
1.4816465191033758e7 581804.1495703459 0.0
0.0 0.0 0.0

-6.175168433824342e6 1.6900421643745873e7 0.0
1.6900421643745873e7 6.288597529068407e6 0.0
0.0 0.0 0.0

5.425830936325002e6 4.850476078949253e6 0.0
4.850476078949253e6 -1.717099393754666e7 0.0
0.0 0.0 0.0

-7.140572792218393e6 1.0196102638855191e7 0.0
1.0196102638855191e7 9.075855344742708e6 0.0
0.0 0.0 0.0

-8.575657318124931e6 7.768297016843823e6 0.0
7.768297016843823e6 1.1936157862360017e7 0.0
0.0 0.0 0.0

-4.538541461350453e6 2.1141504981586155e7 0.0
2.1141504981586155e7 2.198501562016233e6 0.0
0.0 0.0 0.0

-7.824522710974408e6 1.2275971432435187e6 0.0
1.2275971432435187e6 8.312540877168592e6 0.0
0.0 0.0 0.0

-1.2386488446726672e7 7.381152368854126e6 0.0
7.381152368854126e6 1.4942650766973175e7 0.0
0.0 0.0 0.0

-5.357473143103566e6 1.935895703249829e7 0.0
1.935895703249829e7 4.558627994366033e6 0.0
0.0 0.0 0.0

-1.1074816859297968e7 -4.397957341639991e6 0.0
-4.397957341639991e6 2.819401256153422e7 0.0
0.0 0.0 0.0

-3.5785949067942505e6 1.0084193309433579e6 0.0
1.0084193309433579e6 5.0637991906749625e6 0.0
0.0 0.0 0.0

3.8914714783183215e6 6.948160551313306e6 0.0
6.948160551313306e6 -1.3213525129568096e7 0.0
0.0 0.0 0.0

-6.366345441512525e6 1.4845796644265488e7 0.0
1.4845796644265488e7 6.439968021198481e6 0.0
0.0 0.0 0.0

-1.2465790237732034e7 7.7097988116909135e6 0.0
7.7097988116909135e6 1.5924668519264285e7 0.0
0.0 0.0 0.0

-847633.517194269 1.303798060009246e7 0.0
1.303798060009246e7 -7.770419738428188e6 0.0
0.0 0.0 0.0

89317.0838351897 1.2546762909708194e7 0.0
1.2546762909708194e7 -8.14201124503992e6 0.0
0.0 0.0 0.0

2.676567145533976e6 8.90101348044552e6 0.0
8.90101348044552e6 -1.283264688095215e7 0.0
0.0 0.0 0.0

989399.4660761799 1.1796340788569188e7 0.0
1.1796340788569188e7 -1.240184860627954e7 0.0
0.0 0.0 0.0

-1.0596636632343438e6 1.0944078011496058e7 0.0
1.0944078011496058e7 3.3204895011494136e6 0.0
0.0 0.0 0.0

-1.2591778198409807e7 8.678079400641054e6 0.0
8.678079400641054e6 1.508556681392157e7 0.0
0.0 0.0 0.0

-4.1865460004941947e6 1.6844407198992174e7 0.0
1.6844407198992174e7 -598133.9370393401 0.0
0.0 0.0 0.0

-6.293619835930477e6 1.824284878790599e7 0.0
1.824284878790599e7 6.354683265754061e6 0.0
0.0 0.0 0.0

-5.309623932801461e6 1.890675213055471e7 0.0
1.890675213055471e7 4.630775375462711e6 0.0
0.0 0.0 0.0

4.530813831842875e6 1.8552465536566764e7 0.0
1.8552465536566764e7 3.7596963715385556e7 0.0
0.0 0.0 0.0

-5.876224507297813e6 1.4987416014383158e7 0.0
1.4987416014383158e7 5.932661318935471e6 0.0
0.0 0.0 0.0

446238.67441963777 1.2066714724249247e7 0.0
1.2066714724249247e7 -8.576436249042822e6 0.0
0.0 0.0 0.0

621699.6148683145 1.2083415011090511e7 0.0
1.2083415011090511e7 -1.190853756362043e7 0.0
0.0 0.0 0.0

773009.3939175261 1.1967059198653739e7 0.0
1.1967059198653739e7 -9.51998641453225e6 0.0
0.0 0.0 0.0

-4.507698128114389e6 1.8520769230681255e7 0.0
1.8520769230681255e7 2.11730624580933e6 0.0
0.0 0.0 0.0

-6.313245354671543e6 1.4093100384798108e7 0.0
1.4093100384798108e7 5.128338686993735e6 0.0
0.0 0.0 0.0

-79640.63805724276 1.0353557771841092e7 0.0
1.0353557771841092e7 90222.20857842865 0.0
0.0 0.0 0.0

557375.5859075775 1.2255323741550889e7 0.0
1.2255323741550889e7 -1.0091756623354271e7 0.0
0.0 0.0 0.0

-3.9864962898118487e6 8.236493429463961e6 0.0
8.236493429463961e6 1.6128806260369061e6 0.0
0.0 0.0 0.0

-6.545242592797652e6 2.398299725593887e7 0.0
2.398299725593887e7 -1.9473353556574653e6 0.0
0.0 0.0 0.0

5.826670421667935e6 5.207801519804065e6 0.0
5.207801519804065e6 -2.273181912684136e7 0.0
0.0 0.0 0.0

3.792766032094696e7 1.6837099164073635e7 0.0
1.6837099164073635e7 3.1376571494029667e6 0.0
0.0 0.0 0.0

1.2550405474557133e7 2.1200275035396032e7 0.0
2.1200275035396032e7 -2.2511778457189225e7 0.0
0.0 0.0 0.0

-3.444298349664062e6 1.3836119449614706e7 0.0
1.3836119449614706e7 7.248368004745028e6 0.0
0.0 0.0 0.0

-1.128300354656585e6 1.1519997937944252e7 0.0
1.1519997937944252e7 4.819759790007378e6 0.0
0.0 0.0 0.0

-1.2597120004398972e7 1.51961068598486e7 0.0
1.51961068598486e7 4.1198699387924355e6 0.0
0.0 0.0 0.0

-3.667092735190811e7 1.6871108722703416e7 0.0
1.6871108722703416e7 8.115209018477162e6 0.0
0.0 0.0 0.0

-4.942582934221161e6 8.627984977051944e6 0.0
8.627984977051944e6 4.464690425945946e6 0.0
0.0 0.0 0.0

-4.015331369445294e6 1.6523272046709804e7 0.0
1.6523272046709804e7 1.1138918104071608e6 0.0
0.0 0.0 0.0

995117.9058306366 1.1460736163833914e7 0.0
1.1460736163833914e7 -9.859089257378273e6 0.0
0.0 0.0 0.0

5.028466366565892e6 7.131232428696346e6 0.0
7.131232428696346e6 -2.1446585231318258e7 0.0
0.0 0.0 0.0

500161.0931859007 1.1619421185969153e7 0.0
1.1619421185969153e7 -1.0107522360649649e7 0.0
0.0 0.0 0.0

1.256203915673242e6 1.096782105626726e7 0.0
1.096782105626726e7 -1.742851252168454e7 0.0
0.0 0.0 0.0

-8.86283766503692e6 8.241407309520557e6 0.0
8.241407309520557e6 1.0233303261702906e7 0.0
0.0 0.0 0.0

-3.484756854211857e6 1.4242743266301919e7 0.0
1.4242743266301919e7 8.981723133975197e6 0.0
0.0 0.0 0.0

-1.4572814773473316e6 1.0142782757969147e7 0.0
1.0142782757969147e7 2.4788070586205684e6 0.0
0.0 0.0 0.0

-3.548585127022187e6 1.4092565159628768e6 0.0
1.4092565159628768e6 2.6868554326430983e6 0.0
0.0 0.0 0.0

-1.2224142137994329e7 -733177.4666519077 0.0
-733177.4666519077 2.065726762739169e7 0.0
0.0 0.0 0.0

-5.8900302568583e6 1.6934736127344474e7 0.0
1.6934736127344474e7 5.954026338571152e6 0.0
0.0 0.0 0.0

-4.846301973543863e6 1.4451706697146574e7 0.0
1.4451706697146574e7 1.1078365840390047e7 0.0
0.0 0.0 0.0

-6.897693637615919e6 1.1771117134002581e7 0.0
1.1771117134002581e7 8.59034912203347e6 0.0
0.0 0.0 0.0

-831948.7255165466 4.234237559574504e6 0.0
4.234237559574504e6 -1.7424680769393248e6 0.0
0.0 0.0 0.0

-1.1612086469127351e7 8.523343387741048e6 0.0
8.523343387741048e6 3.615813430446505e7 0.0
0.0 0.0 0.0

-4.0280933845450454e6 1.3418129928589938e7 0.0
1.3418129928589938e7 1.7376029371446897e6 0.0
0.0 0.0 0.0

-3.896746004720184e6 1.6480183050155768e7 0.0
1.6480183050155768e7 -1.4259491322996274e6 0.0
0.0 0.0 0.0

-4.89114863549401e6 1.4300374587107068e7 0.0
1.4300374587107068e7 1.1102734600172807e7 0.0
0.0 0.0 0.0

-3.6624398065960244e6 8.363693182032187e6 0.0
8.363693182032187e6 2.598576019450673e6 0.0
0.0 0.0 0.0

-366421.24461214256 1.6787998035332374e7 0.0
1.6787998035332374e7 -4.262691555046533e6 0.0
0.0 0.0 0.0

-1.051298992404373e7 1.182585194590114e6 0.0
1.182585194590114e6 4.191588840758155e7 0.0
0.0 0.0 0.0

1.1145656222372865e6 1.5383645350872774e7 0.0
1.5383645350872774e7 -5.048177458145725e6 0.0
0.0 0.0 0.0

-5.576675347748572e6 1.9068097841540847e7 0.0
1.9068097841540847e7 5.151968758141911e6 0.0
0.0 0.0 0.0

-1.1031196500811018e6 1.1126558212768655e7 0.0
1.1126558212768655e7 -1.1511984428629005e7 0.0
0.0 0.0 0.0

-6.036902670958537e6 1.3916242668925453e7 0.0
1.3916242668925453e7 9.0415159794092e6 0.0
0.0 0.0 0.0

-1.2748329852842405e7 6.126215356189339e6 0.0
6.126215356189339e6 1.6496742247852843e7 0.0
0.0 0.0 0.0

-3.550125370752209e6 1.841530387643676e7 0.0
1.841530387643676e7 33781.27859221259 0.0
0.0 0.0 0.0

2.5986158597991457e6 5.7030280940475855e6 0.0
5.7030280940475855e6 -7.397608514820997e6 0.0
0.0 0.0 0.0

-7.613317620024588e6 2.2628940351020172e7 0.0
2.2628940351020172e7 2.666416731183135e6 0.0
0.0 0.0 0.0

531958.6848315952 1.2758693709871948e7 0.0
1.2758693709871948e7 2.994852827268881e6 0.0
0.0 0.0 0.0

-3.403177230676767e6 1.538075721120056e7 0.0
1.538075721120056e7 -475533.3576900308 0.0
0.0 0.0 0.0

4.835574096200845e6 6.013013788459582e6 0.0
6.013013788459582e6 -1.734868738180936e7 0.0
0.0 0.0 0.0

-763270.8885184608 1.4500276820899358e7 0.0
1.4500276820899358e7 -3.3579743843878545e6 0.0
0.0 0.0 0.0

-2.769443950392304e6 1.483145692748005e7 0.0
1.483145692748005e7 1.0654736829101339e7 0.0
0.0 0.0 0.0

-5.044747470877297e6 1.7903923248397008e7 0.0
1.7903923248397008e7 3.897909057141399e6 0.0
0.0 0.0 0.0

-956064.8243744122 1.468481959126323e7 0.0
1.468481959126323e7 9.48628281499598e6 0.0
0.0 0.0 0.0

6756.207275176246 3.902245633638768e6 0.0
3.902245633638768e6 -1.2322938067596722e6 0.0
0.0 0.0 0.0

-6.852083535063391e6 1.3636356974283295e7 0.0
1.3636356974283295e7 1.4716278911051678e7 0.0
0.0 0.0 0.0

-4.565930403030283e6 1.545531266731774e7 0.0
1.545531266731774e7 3.119160249503345e6 0.0
0.0 0.0 0.0

677122.9605318569 1.6020807769068984e7 0.0
1.6020807769068984e7 -4.9451900111911325e6 0.0
0.0 0.0 0.0

-1.6449379210510799e6 1.5408762041850002e7 0.0
1.5408762041850002e7 -5.300223730423029e6 0.0
0.0 0.0 0.0

-2.4428753054602854e6 1.94100001206032e7 0.0
1.94100001206032e7 -1.6734862943403863e6 0.0
0.0 0.0 0.0

-1.0491217008307492e6 9.348085964936886e6 0.0
9.348085964936886e6 873461.7043420145 0.0
0.0 0.0 0.0

-5.906915550814178e6 1.6002203113240972e7 0.0
1.6002203113240972e7 7.456492776509676e6 0.0
0.0 0.0 0.0

-4.718240310831753e6 1.989860045294594e7 0.0
1.989860045294594e7 143765.88580716145 0.0
0.0 0.0 0.0

-1.4063711360504022e6 1.277825164156558e7 0.0
1.277825164156558e7 -1.8662218113963276e7 0.0
0.0 0.0 0.0

-4.095446876679887e6 7.110160010675725e6 0.0
7.110160010675725e6 1.9859921185916667e6 0.0
0.0 0.0 0.0

-1.842484040615827e6 1.0872806630256077e7 0.0
1.0872806630256077e7 3.824655618792435e6 0.0
0.0 0.0 0.0

-4.1193180504784295e6 1.906051212307995e7 0.0
1.906051212307995e7 -747018.7729766353 0.0
0.0 0.0 0.0

562348.070546194 1.2486759410921745e7 0.0
1.2486759410921745e7 -1.0383058935529077e7 0.0
0.0 0.0 0.0

4.711438911776018e6 5.444952281761941e6 0.0
5.444952281761941e6 -1.3159265893028367e7 0.0
0.0 0.0 0.0

-1.0800554188116807e7 -3.5980566550532007e6 0.0
-3.5980566550532007e6 3.808108215839059e7 0.0
0.0 0.0 0.0

2.6427248086497393e6 1.0238479606792536e7 0.0
1.0238479606792536e7 -1.4537495116437087e7 0.0
0.0 0.0 0.0

-2.446071348378614e6 1.2172619073613925e7 0.0
1.2172619073613925e7 6.547927858745627e6 0.0
0.0 0.0 0.0

-7.953102376948359e6 8.848744471030097e6 0.0
8.848744471030097e6 1.1121904292613253e7 0.0
0.0 0.0 0.0

387036.80372276343 1.6089251685308525e7 0.0
1.6089251685308525e7 -5.029593450473591e6 0.0
0.0 0.0 0.0

3.622232323456366e6 6.325871516269275e6 0.0
6.325871516269275e6 -1.1590873045677058e7 0.0
0.0 0.0 0.0

1.8814559587276103e6 1.2954707147939797e7 0.0
1.2954707147939797e7 -4.481525529594269e6 0.0
0.0 0.0 0.0

-1.8751042355587082e6 1.45931255835125e7 0.0
1.45931255835125e7 9.024119588452352e6 0.0
0.0 0.0 0.0

-3.984640324500938e6 2.379472983110106e7 0.0
2.379472983110106e7 -5.264508973521904e6 0.0
0.0 0.0 0.0

-588985.9625575317 1.5051584427516997e7 0.0
1.5051584427516997e7 -5.795931886579894e6 0.0
0.0 0.0 0.0

-5.699175048732719e6 1.353423356564253e7 0.0
1.353423356564253e7 2.0066053565536775e7 0.0
0.0 0.0 0.0

5.408478943790997e6 4.581849276208483e6 0.0
4.581849276208483e6 -1.5493550699359579e7 0.0
0.0 0.0 0.0

-5.080312527408045e6 1.9207273326685455e7 0.0
1.9207273326685455e7 2.1745556279878262e6 0.0
0.0 0.0 0.0

2.2535936796098803e6 1.1770332936040137e7 0.0
1.1770332936040137e7 99931.78345278325 0.0
0.0 0.0 0.0

-3.988086219567025e7 9.773176353278715e6 0.0
9.773176353278715e6 9.606358761619162e6 0.0
0.0 0.0 0.0

-6.146411531775432e6 1.6943411760673866e7 0.0
1.6943411760673866e7 6.543574204290059e6 0.0
0.0 0.0 0.0

-3.274636234269174e6 6.939344520365772e6 0.0
6.939344520365772e6 2.2240396116443966e6 0.0
0.0 0.0 0.0

1.3781408264586544e6 1.1695193536710363e7 0.0
1.1695193536710363e7 -1.312327324283387e7 0.0
0.0 0.0 0.0

-3.4229358828723384e6 1.365044705413523e7 0.0
1.365044705413523e7 6.392781719670095e6 0.0
0.0 0.0 0.0

482353.7958357157 1.1620627761785759e7 0.0
1.1620627761785759e7 -1.5802824242589533e7 0.0
0.0 0.0 0.0

5.966741703789291e6 4.594974001600586e6 0.0
4.594974001600586e6 -1.910865680858449e7 0.0
0.0 0.0 0.0

2.1943236139643613e7 1.2147534869429741e7 0.0
1.2147534869429741e7 -175823.29058758263 0.0
0.0 0.0 0.0

-7.132462966910364e7 3.107114000458315e7 0.0
3.107114000458315e7 -2.128866155795548e6 0.0
0.0 0.0 0.0

1.3828605055721565e6 1.4573818155164873e7 0.0
1.4573818155164873e7 6.6910081539181145e6 0.0
0.0 0.0 0.0

-2.915323712589877e6 1.5320931558261309e7 0.0
1.5320931558261309e7 -3.8520362096516117e6 0.0
0.0 0.0 0.0

-5.426846217958718e6 1.4621137612669675e7 0.0
1.4621137612669675e7 7.705794005171603e6 0.0
0.0 0.0 0.0

4.561066016814322e6 5.479094125676678e6 0.0
5.479094125676678e6 -1.298895497963344e7 0.0
0.0 0.0 0.0

-5.085384798850606e6 1.558307893800534e7 0.0
1.558307893800534e7 4.360574490732232e6 0.0
0.0 0.0 0.0

-4.607950214232026e6 1.9669379352156993e7 0.0
1.9669379352156993e7 2.3871204426622307e6 0.0
0.0 0.0 0.0

82509.50775473658 1.1901245752739513e7 0.0
1.1901245752739513e7 -1.3298917700841488e7 0.0
0.0 0.0 0.0

-3.620834786077679e6 1.5151068239818282e7 0.0
1.5151068239818282e7 -1.3245738336638166e6 0.0
0.0 0.0 0.0

1.9413131530642728e6 5.721448305979476e6 0.0
5.721448305979476e6 -6.0218978761077495e6 0.0
0.0 0.0 0.0

-802478.0621835459 1.4279768640363034e7 0.0
1.4279768640363034e7 9.42169675776182e6 0.0
0.0 0.0 0.0

-4.2629180881354865e6 1.5216609014718784e7 0.0
1.5216609014718784e7 -271134.70709608914 0.0
0.0 0.0 0.0

-607165.8053422561 1.3088208339837411e7 0.0
1.3088208339837411e7 -6.79297767382532e6 0.0
0.0 0.0 0.0

-5.121837997816277e6 1.5556418736038268e7 0.0
1.5556418736038268e7 2.269189101048063e6 0.0
0.0 0.0 0.0

2.078803508226472e6 1.0339930731252719e7 0.0
1.0339930731252719e7 -1.4029026077257417e7 0.0
0.0 0.0 0.0

-1.097415140030822e7 -4.26568880951249e6 0.0
-4.26568880951249e6 2.8986218591398142e7 0.0
0.0 0.0 0.0

175154.88759479625 1.1892198410335962e7 0.0
1.1892198410335962e7 -9.408428193756493e6 0.0
0.0 0.0 0.0

2.124126687288208e6 1.1894567143170575e7 0.0
1.1894567143170575e7 -2.670277997664928e6 0.0
0.0 0.0 0.0

-4.74857054661297e6 1.4838873954288995e7 0.0
1.4838873954288995e7 -2.2476709923506457e7 0.0
0.0 0.0 0.0

4.242713145801777e6 6.625626993802784e6 0.0
6.625626993802784e6 -1.2914989215921909e7 0.0
0.0 0.0 0.0

458262.99671559036 1.275610207900177e7 0.0
1.275610207900177e7 -9.636145680743644e6 0.0
0.0 0.0 0.0

-5.902711985604793e6 1.6651996965272028e7 0.0
1.6651996965272028e7 6.918761804556366e6 0.0
0.0 0.0 0.0

-4.798603457866426e6 1.7392869729028136e7 0.0
1.7392869729028136e7 1.6840526395281325e6 0.0
0.0 0.0 0.0

-6.274826044515978e6 1.5330892353464188e7 0.0
1.5330892353464188e7 7.437989553523825e6 0.0
0.0 0.0 0.0

786264.5220084977 1.233141677357903e7 0.0
1.233141677357903e7 3.5389609872851204e6 0.0
0.0 0.0 0.0

-4.899064779644768e7 1.4520959549201418e7 0.0
1.4520959549201418e7 8.13757016300666e6 0.0
0.0 0.0 0.0

1.2125874830123447e6 3.704962818453978e6 0.0
3.704962818453978e6 -3.9750239632292977e6 0.0
0.0 0.0 0.0

-44204.50232798187 9.647259019429674e6 0.0
9.647259019429674e6 -2.726066140698479e6 0.0
0.0 0.0 0.0

4.680663833102837e6 1.2677811227189023e7 0.0
1.2677811227189023e7 -2.346521804774811e6 0.0
0.0 0.0 0.0

-5.879023254960239e6 2.0464032752235703e7 0.0
2.0464032752235703e7 5.149081882950876e6 0.0
0.0 0.0 0.0

1.2720317829758478e6 1.1160950500730366e7 0.0
1.1160950500730366e7 -1.8134228583241563e7 0.0
0.0 0.0 0.0

-990557.6072760683 1.434413009812874e7 0.0
1.434413009812874e7 -2.9902513425970282e6 0.0
0.0 0.0 0.0

-1.1434254041667138e6 1.5875810585211797e7 0.0
1.5875810585211797e7 -4.739381940051419e6 0.0
0.0 0.0 0.0

799310.3722731145 1.099361656540531e7 0.0
1.099361656540531e7 -8.010280436880803e6 0.0
0.0 0.0 0.0

-695678.6166028985 1.5481330460468132e7 0.0
1.5481330460468132e7 -5.311438280918891e6 0.0
0.0 0.0 0.0

-853796.9406169029 1.3309320759818021e7 0.0
1.3309320759818021e7 2.5008584997461257e6 0.0
0.0 0.0 0.0

-4.346475664309297e6 1.7292636996098045e7 0.0
1.7292636996098045e7 1.758579717537371e6 0.0
0.0 0.0 0.0

3.4479002147150626e6 7.989795438409097e6 0.0
7.989795438409097e6 -1.2537565228702465e7 0.0
0.0 0.0 0.0

5.425231930457296e6 4.850122011130252e6 0.0
4.850122011130252e6 -1.7183466833641853e7 0.0
0.0 0.0 0.0

-1.568959677320119e6 556183.6131357608 0.0
556183.6131357608 -734748.4181769893 0.0
0.0 0.0 0.0

-4.047388028470911e6 287151.3308996246 0.0
287151.3308996246 560226.5003362161 0.0
0.0 0.0 0.0

-2.65312781843001e6 1.3152566272061378e7 0.0
1.3152566272061378e7 8.566309090795975e6 0.0
0.0 0.0 0.0

-635737.9303410694 1.2921432711618679e7 0.0
1.2921432711618679e7 3.0989008225558093e6 0.0
0.0 0.0 0.0

-1.3278968771758548e6 1.3283898217912726e7 0.0
1.3283898217912726e7 2.621300916519181e6 0.0
0.0 0.0 0.0

3.1465730085751438e6 5.510966427252964e6 0.0
5.510966427252964e6 -9.781629019432554e6 0.0
0.0 0.0 0.0

542485.9884840345 1.450769940973106e7 0.0
1.450769940973106e7 -6.015922299263001e6 0.0
0.0 0.0 0.0

2.158478290527954e6 5.194287823871339e6 0.0
5.194287823871339e6 -6.416304290630419e6 0.0
0.0 0.0 0.0

-894352.3209137659 1.5444682470644807e7 0.0
1.5444682470644807e7 -5.2264701406067405e6 0.0
0.0 0.0 0.0

-1.1772029068550248e7 9.413504216746863e6 0.0
9.413504216746863e6 1.5976470937303666e7 0.0
0.0 0.0 0.0

-3.5169088569621737e6 1.6764580504448572e7 0.0
1.6764580504448572e7 -417711.7733684239 0.0
0.0 0.0 0.0

-3.6312166531205266e6 1.924108656511502e7 0.0
1.924108656511502e7 758917.3509013944 0.0
0.0 0.0 0.0

3.789021147332185e6 6.888665196002747e6 0.0
6.888665196002747e6 -1.3319375392631728e7 0.0
0.0 0.0 0.0

4.0801361276675574e6 6.379682962368016e6 0.0
6.379682962368016e6 -1.356110817390072e7 0.0
0.0 0.0 0.0

5.433470513014186e6 1.3642744197868967e7 0.0
1.3642744197868967e7 -5.21027031163721e6 0.0
0.0 0.0 0.0

-3.283910035835342e6 1.4558955555706795e7 0.0
1.4558955555706795e7 9.329739942907901e6 0.0
0.0 0.0 0.0

-203363.40720565058 1.2192373827637793e7 0.0
1.2192373827637793e7 -8.744941689597923e6 0.0
0.0 0.0 0.0

-6.922757988749644e6 -8.783285982819878e6 0.0
-8.783285982819878e6 1.860157221794e7 0.0
0.0 0.0 0.0

-5.584548947339521e6 1.969960817668412e7 0.0
1.969960817668412e7 4.753439918080503e6 0.0
0.0 0.0 0.0

-1.1591572926389975e7 7.341818005660455e6 0.0
7.341818005660455e6 1.5105885253040293e7 0.0
0.0 0.0 0.0

-2.194915716485068e6 1.6570747379961677e6 0.0
1.6570747379961677e6 998698.7947302107 0.0
0.0 0.0 0.0

-589305.697054324 1.1886232714774298e7 0.0
1.1886232714774298e7 -5.185369322276777e6 0.0
0.0 0.0 0.0

5.40601757006412e6 4.891340844923356e6 0.0
4.891340844923356e6 -1.6678494715939876e7 0.0
0.0 0.0 0.0

-6.150743506133295e6 1.8502650601931006e7 0.0
1.8502650601931006e7 6.333523518924709e6 0.0
0.0 0.0 0.0

-2.9966933401673036e6 1.5089516633980067e7 0.0
1.5089516633980067e7 -1.1667933080405851e6 0.0
0.0 0.0 0.0

2.353099729078939e6 1.008920009466328e7 0.0
1.008920009466328e7 -1.4694636413415149e7 0.0
0.0 0.0 0.0

6.0717276337824445e6 1.1897813803808158e7 0.0
1.1897813803808158e7 -785432.3387050794 0.0
0.0 0.0 0.0

-6.283264209887695e6 1.807397446559515e7 0.0
1.807397446559515e7 6.530222437346076e6 0.0
0.0 0.0 0.0

-8.768250241115738e6 -7.49192179156825e6 0.0
-7.49192179156825e6 1.77967442253239e7 0.0
0.0 0.0 0.0

-3.615660817842359e6 -5.000398451987613e6 0.0
-5.000398451987613e6 6.862937691912282e6 0.0
0.0 0.0 0.0

2.679417223622985e6 1.2095242645017888e7 0.0
1.2095242645017888e7 -2.5799112188826697e6 0.0
0.0 0.0 0.0

-2.360999755039563e6 1.521741905062479e7 0.0
1.521741905062479e7 -3.678321484098066e6 0.0
0.0 0.0 0.0

-2.434719837433084e6 1.5572189420345282e7 0.0
1.5572189420345282e7 -3.442630303978741e6 0.0
0.0 0.0 0.0

-1.1149879832190435e7 2.3769037527171415e6 0.0
2.3769037527171415e6 3.287683942804113e7 0.0
0.0 0.0 0.0

3.349241844137474e6 4.559245723518255e6 0.0
4.559245723518255e6 -8.346157250047444e6 0.0
0.0 0.0 0.0

-2.7400167527185036e6 1.5191380081499461e7 0.0
1.5191380081499461e7 -609959.0989351466 0.0
0.0 0.0 0.0

-4.72658965785063e6 1.549451466620544e7 0.0
1.549451466620544e7 -1.7117718388613893e6 0.0
0.0 0.0 0.0

-1.963891077098799e7 1.6684541624643588e7 0.0
1.6684541624643588e7 7.6206254512742795e6 0.0
0.0 0.0 0.0

-5.22716940876849e6 1.9861623753746994e7 0.0
1.9861623753746994e7 3.648946620770245e6 0.0
0.0 0.0 0.0

-194796.9587709962 1.2486176915532557e7 0.0
1.2486176915532557e7 -934714.5936627623 0.0
0.0 0.0 0.0

-9.20724489991263e6 -6.899106301617196e6 0.0
-6.899106301617196e6 1.9542728526167966e7 0.0
0.0 0.0 0.0

4.663603746325854e6 1.343175966519878e7 0.0
1.343175966519878e7 -4.566140135539771e6 0.0
0.0 0.0 0.0

-1.0017593130969518e6 1.2885046658816507e7 0.0
1.2885046658816507e7 -5.284392173649561e6 0.0
0.0 0.0 0.0

-7.290219325568628e6 -3.169589605351436e6 0.0
-3.169589605351436e6 1.2573926210171463e7 0.0
0.0 0.0 0.0

-6.583646366636777e6 1.5568262117365465e7 0.0
1.5568262117365465e7 6.886295582467721e6 0.0
0.0 0.0 0.0

-6.260270590702743e6 1.6411387838978643e7 0.0
1.6411387838978643e7 6.731150585781096e6 0.0
0.0 0.0 0.0

-240632.11980644305 3.596988190310437e6 0.0
3.596988190310437e6 -2.0562215569674373e6 0.0
0.0 0.0 0.0

4.347057688983621e6 6.032310052221443e6 0.0
6.032310052221443e6 -1.3954142100846307e7 0.0
0.0 0.0 0.0

4.1586334620706e6 7.758685553570279e6 0.0
7.758685553570279e6 -2.2308757325220536e7 0.0
0.0 0.0 0.0

-2.019939583222005e6 1.3689677854053501e7 0.0
1.3689677854053501e7 8.884785011742648e6 0.0
0.0 0.0 0.0

2.6706349883612515e6 5.248498177011293e6 0.0
5.248498177011293e6 -7.684844002643682e6 0.0
0.0 0.0 0.0

3.8744494674568456e6 1.8543949073136125e7 0.0
1.8543949073136125e7 -9.300188868629515e6 0.0
0.0 0.0 0.0

4.77643854263802e6 5.720772568896667e6 0.0
5.720772568896667e6 -1.3411000358608687e7 0.0
0.0 0.0 0.0

3.9048167852727557e6 5.975581626621942e6 0.0
5.975581626621942e6 -1.0367516572895307e7 0.0
0.0 0.0 0.0

4.132657743535063e6 5.964160919950771e6 0.0
5.964160919950771e6 -1.2288009834318073e7 0.0
0.0 0.0 0.0

-111539.32659338026 1.3009884914244235e7 0.0
1.3009884914244235e7 -150260.81349743786 0.0
0.0 0.0 0.0

-467775.62041490735 1.275295026624879e7 0.0
1.275295026624879e7 2.165111457853065e6 0.0
0.0 0.0 0.0

1.7845394081775537e6 1.1225537425936233e7 0.0
1.1225537425936233e7 -1.363118007406704e7 0.0
0.0 0.0 0.0

1.5747483735452727e6 1.984350813088755e7 0.0
1.984350813088755e7 -7.707181229742899e6 0.0
0.0 0.0 0.0

-6.711353371043511e6 -4.6241263155213585e6 0.0
-4.6241263155213585e6 1.070957230250476e7 0.0
0.0 0.0 0.0

-6.300759463379909e6 1.5821104832486171e7 0.0
1.5821104832486171e7 7.759516919108354e6 0.0
0.0 0.0 0.0

-5.880548175707011e6 1.948207507330443e7 0.0
1.948207507330443e7 4.379885601402424e6 0.0
0.0 0.0 0.0

-3.7176344848699598e6 1.6810576781261757e7 0.0
1.6810576781261757e7 79125.87581394939 0.0
0.0 0.0 0.0

-4.635088771765742e6 220535.20780545266 0.0
220535.20780545266 5.0606970491716955e6 0.0
0.0 0.0 0.0

-2.48847518708587e6 2.577607345745812e6 0.0
2.577607345745812e6 1.3209652588353688e6 0.0
0.0 0.0 0.0

-1.768306881323683e6 1.451643571729018e7 0.0
1.451643571729018e7 8.127480764646893e6 0.0
0.0 0.0 0.0

839230.8511628944 3.4010949884076626e6 0.0
3.4010949884076626e6 -3.136992841346953e6 0.0
0.0 0.0 0.0

-471249.4710196734 1.6355314186048487e7 0.0
1.6355314186048487e7 -4.751162910803608e6 0.0
0.0 0.0 0.0

-2.2928947463095784e6 1.4694209921488503e7 0.0
1.4694209921488503e7 -5.025178643838009e6 0.0
0.0 0.0 0.0

721429.6371853906 1.2657796641658267e7 0.0
1.2657796641658267e7 -1.0418556677350076e7 0.0
0.0 0.0 0.0

-3.92831590161516e6 1.4484334932568295e7 0.0
1.4484334932568295e7 1.3625732805012206e6 0.0
0.0 0.0 0.0

-6.83084321113892e6 1.5055343522655096e7 0.0
1.5055343522655096e7 6.962215359080184e6 0.0
0.0 0.0 0.0

-9.033596036907755e6 8.090030935707514e6 0.0
8.090030935707514e6 1.2766190336235661e7 0.0
0.0 0.0 0.0

-1.7839131129404243e7 2.2182757492017224e7 0.0
2.2182757492017224e7 1.0609394370444313e7 0.0
0.0 0.0 0.0

2.8357444133079113e6 5.200051939225833e6 0.0
5.200051939225833e6 -7.915660354036569e6 0.0
0.0 0.0 0.0

67525.37503370689 1.2335261481388377e7 0.0
1.2335261481388377e7 -7.940566024363629e6 0.0
0.0 0.0 0.0

5.969529858486318e6 5.254032326367954e6 0.0
5.254032326367954e6 -2.2922240277466796e7 0.0
0.0 0.0 0.0

-1.9325267228265011e6 1.584540031793796e7 0.0
1.584540031793796e7 -4.749642520105137e6 0.0
0.0 0.0 0.0

-4.879230080731088e6 8.173739904777345e6 0.0
8.173739904777345e6 3.032742642410933e6 0.0
0.0 0.0 0.0

-2.518678101792643e6 1.2082023489880307e7 0.0
1.2082023489880307e7 -1.4164501459885305e7 0.0
0.0 0.0 0.0

1.092184654675243e7 1.4247513057110235e7 0.0
1.4247513057110235e7 2.8687024253874603e6 0.0
0.0 0.0 0.0

-2.591410184681341e6 4.1917210474399147e6 0.0
4.1917210474399147e6 2.141637714220272e6 0.0
0.0 0.0 0.0

-814587.640817245 1.4838196320885686e7 0.0
1.4838196320885686e7 8.642388602600846e6 0.0
0.0 0.0 0.0

60113.803816796746 1.2328383549977561e7 0.0
1.2328383549977561e7 1.102302738841695e7 0.0
0.0 0.0 0.0

-3.504893757589886e6 1.0504470520562671e7 0.0
1.0504470520562671e7 -5.453897639779739e6 0.0
0.0 0.0 0.0

-5.0781896402589455e6 2.098763181662675e7 0.0
2.098763181662675e7 461646.55448768963 0.0
0.0 0.0 0.0

-3.242417094253224e6 1.5128571906325517e7 0.0
1.5128571906325517e7 -2.5722494792449716e6 0.0
0.0 0.0 0.0

-7.539665701838097e6 1.1337424444819054e7 0.0
1.1337424444819054e7 9.868924103050083e6 0.0
0.0 0.0 0.0

4.332698681259451e6 8.137525900917006e6 0.0
8.137525900917006e6 -2.964514276779342e7 0.0
0.0 0.0 0.0

-2.460025923377773e6 3.6607193606720064e6 0.0
3.6607193606720064e6 1.4711906173692527e6 0.0
0.0 0.0 0.0

-527122.2363422508 1.3289199295903027e7 0.0
1.3289199295903027e7 -3.6713657390049477e6 0.0
0.0 0.0 0.0

1.409838696020664e6 1.3032862634541716e7 0.0
1.3032862634541716e7 5.115696292968862e6 0.0
0.0 0.0 0.0

-5.6239245106729735e6 8.63516866882134e6 0.0
8.63516866882134e6 6.8693367666822765e6 0.0
0.0 0.0 0.0

-5.931835896649503e6 1.4632779021842226e7 0.0
1.4632779021842226e7 8.286303110656507e6 0.0
0.0 0.0 0.0

-5.710803070791669e6 1.719680978596388e7 0.0
1.719680978596388e7 5.545848799874939e6 0.0
0.0 0.0 0.0

-1.7681467181973256e7 2.232026777617485e7 0.0
2.232026777617485e7 1.0852841787880138e7 0.0
0.0 0.0 0.0

1.172502269661336e6 6.652679383812648e6 0.0
6.652679383812648e6 -5.111411490518255e6 0.0
0.0 0.0 0.0

-6.119327692239301e6 1.695995397498823e7 0.0
1.695995397498823e7 5.194831156022282e6 0.0
0.0 0.0 0.0

-2.6249720440311204e6 1.460537948732823e7 0.0
1.460537948732823e7 -2.8100493662937437e6 0.0
0.0 0.0 0.0

2.0193716760614922e6 1.4664336751932215e7 0.0
1.4664336751932215e7 8.796325950219993e6 0.0
0.0 0.0 0.0

-3.9056376917920513e6 1.6227910612988394e7 0.0
1.6227910612988394e7 -1.0926295879915536e6 0.0
0.0 0.0 0.0

2.2538046516448576e6 5.187951780920283e6 0.0
5.187951780920283e6 -7.078842557976866e6 0.0
0.0 0.0 0.0

-1.1756791695986027e6 1.3207074042115109e7 0.0
1.3207074042115109e7 -6.954543536945185e6 0.0
0.0 0.0 0.0

-7.443688745673492e6 954839.9860238384 0.0
954839.9860238384 9.92816177543111e6 0.0
0.0 0.0 0.0

4.502523127742775e6 6.292042765583298e6 0.0
6.292042765583298e6 -1.3260560533514494e7 0.0
0.0 0.0 0.0

6.022212293731235e6 5.7391906013846e6 0.0
5.7391906013846e6 -2.451288142729342e7 0.0
0.0 0.0 0.0

-2.6431898704063687e6 1.337413571565159e7 0.0
1.337413571565159e7 7.723131838659661e6 0.0
0.0 0.0 0.0

184397.32891147258 1.3146198293644663e7 0.0
1.3146198293644663e7 -9.372434855390674e6 0.0
0.0 0.0 0.0

-7.876794590558138e6 1.149462381277372e7 0.0
1.149462381277372e7 8.509621200930806e6 0.0
0.0 0.0 0.0

4.668554006486212e6 5.134567473719512e6 0.0
5.134567473719512e6 -1.2496141288110394e7 0.0
0.0 0.0 0.0

1.3601150095322523e6 1.1216084875375764e7 0.0
1.1216084875375764e7 -1.040177323775269e7 0.0
0.0 0.0 0.0

454128.7135256091 1.233077989636727e7 0.0
1.233077989636727e7 -1.1062561221567774e7 0.0
0.0 0.0 0.0

-7.804829565721685e6 1.240201705564846e7 0.0
1.240201705564846e7 8.468032060830023e6 0.0
0.0 0.0 0.0

-5.092245844253046e6 3.7345914877276826e6 0.0
3.7345914877276826e6 4.254920133797588e6 0.0
0.0 0.0 0.0

-7.034743687949439e6 -718536.6670499883 0.0
-718536.6670499883 9.141088552515022e6 0.0
0.0 0.0 0.0

-57644.83717908198 1.2897546728594383e7 0.0
1.2897546728594383e7 -9.654745568654772e6 0.0
0.0 0.0 0.0

-3.8816919430182623e6 7.641508804958907e6 0.0
7.641508804958907e6 3.0038576261143717e6 0.0
0.0 0.0 0.0

1.6163909096013228e6 1.4250201350178106e7 0.0
1.4250201350178106e7 8.981344761445042e6 0.0
0.0 0.0 0.0

-2.606838867481294e6 1.5000220576588968e7 0.0
1.5000220576588968e7 -4.552897670123803e6 0.0
0.0 0.0 0.0

2.318265175673153e6 5.223164439967098e6 0.0
5.223164439967098e6 -6.61468646272563e6 0.0
0.0 0.0 0.0

-1.101442773541663e7 582949.8172383216 0.0
582949.8172383216 2.2172238072171837e7 0.0
0.0 0.0 0.0

-5.397635729044926e6 1.802460221455496e7 0.0
1.802460221455496e7 3.718298914636595e6 0.0
0.0 0.0 0.0

-8.067237760236619e6 1.8870475493694123e7 0.0
1.8870475493694123e7 7.336159047893139e6 0.0
0.0 0.0 0.0

-3.7692966238260646e6 4.358807370362318e6 0.0
4.358807370362318e6 2.1915854214932974e6 0.0
0.0 0.0 0.0

-8.972306318200702e6 -2.9631879899604614e6 0.0
-2.9631879899604614e6 1.4933884392355975e7 0.0
0.0 0.0 0.0

2.149490622802426e6 1.0422454665561758e7 0.0
1.0422454665561758e7 -1.481362102316837e7 0.0
0.0 0.0 0.0

-7.239112096534137e6 1.2885570095574252e7 0.0
1.2885570095574252e7 9.315824865826113e6 0.0
0.0 0.0 0.0

-1.168803200855181e7 1.8006346108602413e6 0.0
1.8006346108602413e6 2.2676289435686074e7 0.0
0.0 0.0 0.0

-3.8339452534830466e7 1.1159603500040041e7 0.0
1.1159603500040041e7 1.1759927210071733e7 0.0
0.0 0.0 0.0

1.309405181071029e6 9.669965800861504e6 0.0
9.669965800861504e6 -9.30055376383596e6 0.0
0.0 0.0 0.0

-76977.85507906548 1.2824965378139429e7 0.0
1.2824965378139429e7 -1.110076292136335e6 0.0
0.0 0.0 0.0

5.54129271582384e6 4.472038491035235e6 0.0
4.472038491035235e6 -1.6235460905441042e7 0.0
0.0 0.0 0.0

-5.929862612385302e6 1.3939487811461903e7 0.0
1.3939487811461903e7 1.1973972106638754e7 0.0
0.0 0.0 0.0

-1.2430918709762927e7 1.7097573318194307e6 0.0
1.7097573318194307e6 2.0190638232546132e7 0.0
0.0 0.0 0.0

1.36221873511778e6 6.135853061819429e6 0.0
6.135853061819429e6 -6.1194527609724775e6 0.0
0.0 0.0 0.0

-2.520555317865275e6 1.4667102767688982e7 0.0
1.4667102767688982e7 -2.737939713383034e6 0.0
0.0 0.0 0.0

-5.094133862100545e6 1.6144121308457123e7 0.0
1.6144121308457123e7 2.3046917625433677e6 0.0
0.0 0.0 0.0

-6.298195492926445e6 1.4466450108995318e7 0.0
1.4466450108995318e7 6.682587128585033e6 0.0
0.0 0.0 0.0

-6.774232063502923e6 1.873767632619641e7 0.0
1.873767632619641e7 6.63907682395232e6 0.0
0.0 0.0 0.0

-4.24338523290775e6 1.3266367798384188e7 0.0
1.3266367798384188e7 665075.4391712758 0.0
0.0 0.0 0.0

-1.0899187727962524e7 -5.435853223567334e6 0.0
-5.435853223567334e6 2.481292141555913e7 0.0
0.0 0.0 0.0

-914129.3812838872 1.399714888410213e7 0.0
1.399714888410213e7 6.505473438637232e6 0.0
0.0 0.0 0.0

451013.31111786794 1.2245022137717545e7 0.0
1.2245022137717545e7 -8.858749228831608e6 0.0
0.0 0.0 0.0

-1.067622215588906e7 1.6821825251166478e7 0.0
1.6821825251166478e7 6.362109080786072e6 0.0
0.0 0.0 0.0

-945776.5375211423 3.144935404446939e6 0.0
3.144935404446939e6 -657721.9372007608 0.0
0.0 0.0 0.0

-5.478790822781864e6 1.924746543041991e7 0.0
1.924746543041991e7 4.88256970735275e6 0.0
0.0 0.0 0.0

-187852.4405048638 1.2603233497346686e7 0.0
1.2603233497346686e7 -1.7837679577943857e6 0.0
0.0 0.0 0.0

-1.1873942735177863e7 1.0192994011951355e7 0.0
1.0192994011951355e7 1.43261307265842e7 0.0
0.0 0.0 0.0

2.907787287692137e6 8.967066339232467e6 0.0
8.967066339232467e6 -1.208418549685638e7 0.0
0.0 0.0 0.0

-9.824103216700476e6 9.068120443530312e6 0.0
9.068120443530312e6 1.3819120450826745e7 0.0
0.0 0.0 0.0

2.111804755476849e6 5.2460296612343555e6 0.0
5.2460296612343555e6 -6.335933948868542e6 0.0
0.0 0.0 0.0

4.199260676740193e6 6.850750988639482e6 0.0
6.850750988639482e6 -1.3218264232750954e7 0.0
0.0 0.0 0.0

-694686.365812413 1.4488139313061621e7 0.0
1.4488139313061621e7 -3.0365140303628165e6 0.0
0.0 0.0 0.0

-4.5304258052445715e6 1.4265694773877535e7 0.0
1.4265694773877535e7 2.273611230195892e6 0.0
0.0 0.0 0.0

-4.815396500629566e6 1.6315000947483063e7 0.0
1.6315000947483063e7 3.155888812168641e6 0.0
0.0 0.0 0.0

-1.2372470631463986e6 1.5456410850746416e7 0.0
1.5456410850746416e7 -5.2610841398078585e6 0.0
0.0 0.0 0.0

4.390797904764675e6 6.039837425930834e6 0.0
6.039837425930834e6 -1.2344685822205724e7 0.0
0.0 0.0 0.0

1.5739214773653632e6 5.137025063055273e6 0.0
5.137025063055273e6 -5.538878066270962e6 0.0
0.0 0.0 0.0

3.972632593410547e6 6.590655570088427e6 0.0
6.590655570088427e6 -1.3819519606922034e7 0.0
0.0 0.0 0.0

1.8385099793051821e6 6.115033569878094e6 0.0
6.115033569878094e6 -6.367927203488152e6 0.0
0.0 0.0 0.0

5.278594023606254e6 1.422704666724042e7 0.0
1.422704666724042e7 7.050351671481435e6 0.0
0.0 0.0 0.0

-6.874573218082139e6 2.097745433876868e7 0.0
2.097745433876868e7 6.306040727947634e6 0.0
0.0 0.0 0.0

-7.762217511999261e6 -6.835958516453883e6 0.0
-6.835958516453883e6 1.7102645275246747e7 0.0
0.0 0.0 0.0

4.745607374848776e6 7.499758004405007e6 0.0
7.499758004405007e6 -2.049623239664582e7 0.0
0.0 0.0 0.0

-1.4849437520518329e6 1.5773860694165569e7 0.0
1.5773860694165569e7 -4.640009659997353e6 0.0
0.0 0.0 0.0

-791747.0779209535 1.4194517771033337e7 0.0
1.4194517771033337e7 -3.9062818837362155e6 0.0
0.0 0.0 0.0

4.2325704039125405e6 7.071450179755973e6 0.0
7.071450179755973e6 -1.659674836917114e7 0.0
0.0 0.0 0.0

-8.824828100488907e6 2.064956890053858e7 0.0
2.064956890053858e7 8.2506078428732585e6 0.0
0.0 0.0 0.0

-2.2517974461034625e6 1.4750732481331805e7 0.0
1.4750732481331805e7 9.945678128406618e6 0.0
0.0 0.0 0.0

-2.773466206164307e7 1.8773931344941445e7 0.0
1.8773931344941445e7 1.247948869506296e7 0.0
0.0 0.0 0.0

-5.63252867676341e6 1.3577570211626174e7 0.0
1.3577570211626174e7 9.749269937223822e6 0.0
0.0 0.0 0.0

2.9727418112628907e6 8.449400418193944e6 0.0
8.449400418193944e6 -1.2316817070133561e7 0.0
0.0 0.0 0.0

3.1216176915442415e7 1.4350123025282849e7 0.0
1.4350123025282849e7 1.7230165604980215e6 0.0
0.0 0.0 0.0

-4.0469719219151614e6 1.437202320070488e7 0.0
1.437202320070488e7 1.1928889620196281e7 0.0
0.0 0.0 0.0

-8.443581006599419e6 906668.7611537302 0.0
906668.7611537302 1.1036231921573542e7 0.0
0.0 0.0 0.0

-550650.2452577314 1.3009972352556102e7 0.0
1.3009972352556102e7 2.3617542378998483e6 0.0
0.0 0.0 0.0

396592.7061941968 1.1682503515094258e7 0.0
1.1682503515094258e7 -1.2963036490092188e7 0.0
0.0 0.0 0.0

1.6512441700468813e6 1.5642123656647895e7 0.0
1.5642123656647895e7 -5.2258775736174565e6 0.0
0.0 0.0 0.0

-6.094384416220391e6 1.4550449734995164e7 0.0
1.4550449734995164e7 5.566325353485334e6 0.0
0.0 0.0 0.0

-1.1894242290949076e7 200364.63255506588 0.0
200364.63255506588 1.942480434325978e7 0.0
0.0 0.0 0.0

-8.883009317485005e6 2.1045060182447016e7 0.0
2.1045060182447016e7 7.382520798664389e6 0.0
0.0 0.0 0.0

-4.780336443051461e6 1.516274259123335e7 0.0
1.516274259123335e7 2.9462118693341017e6 0.0
0.0 0.0 0.0

-5.261446814237867e6 1.6012966661475701e7 0.0
1.6012966661475701e7 2.6560553640326364e6 0.0
0.0 0.0 0.0

-3.8570879805787364e6 1.8180914744921755e7 0.0
1.8180914744921755e7 174171.78389989748 0.0
0.0 0.0 0.0

-5.348040689356312e6 1.767087714996899e7 0.0
1.767087714996899e7 3.48321471337031e6 0.0
0.0 0.0 0.0

-293620.36700522463 1.306768527325823e7 0.0
1.306768527325823e7 -1.0506190087525933e6 0.0
0.0 0.0 0.0

-3.3811902884137733e6 1.4109813487967556e7 0.0
1.4109813487967556e7 7.5385018889309075e6 0.0
0.0 0.0 0.0

1.5434249988338193e6 1.2045076923505167e7 0.0
1.2045076923505167e7 -2.4228981659919135e6 0.0
0.0 0.0 0.0

-1.8738256652140436e6 1.2714194983666273e7 0.0
1.2714194983666273e7 -1.7270264750400644e7 0.0
0.0 0.0 0.0

-347028.81529843964 1.3185232366256537e7 0.0
1.3185232366256537e7 -155008.08591154177 0.0
0.0 0.0 0.0

-4.664910720102951e6 1.408670602184031e7 0.0
1.408670602184031e7 1.361349044563279e6 0.0
0.0 0.0 0.0

-3.858016269784337e6 9.77601447921165e6 0.0
9.77601447921165e6 1.2628252206136527e7 0.0
0.0 0.0 0.0

-1.1936231502898433e6 1.4016242865533682e7 0.0
1.4016242865533682e7 -6.148774607123993e6 0.0
0.0 0.0 0.0

1.1072646459437488e6 1.1046577775079515e7 0.0
1.1046577775079515e7 -1.108079162928934e7 0.0
0.0 0.0 0.0

4.544860992705639e6 5.809533328882175e6 0.0
5.809533328882175e6 -1.2693969592879461e7 0.0
0.0 0.0 0.0

-4.195805614437135e6 1.4442986862276495e7 0.0
1.4442986862276495e7 1.134207964844055e7 0.0
0.0 0.0 0.0

-2.7107637408869797e6 1.4054842649783539e7 0.0
1.4054842649783539e7 5.093791242427474e6 0.0
0.0 0.0 0.0

-1.0380022342633849e7 9.36524253934634e6 0.0
9.36524253934634e6 1.3948376741532084e7 0.0
0.0 0.0 0.0

-5.99364902670297e6 1.4220810750941893e7 0.0
1.4220810750941893e7 6.1042500426815525e6 0.0
0.0 0.0 0.0

-1.384879586447252e6 1.4612497990324844e7 0.0
1.4612497990324844e7 -3.1734465782460733e6 0.0
0.0 0.0 0.0

-1.0561239050530393e7 9.755778630152654e6 0.0
9.755778630152654e6 1.240691012499432e7 0.0
0.0 0.0 0.0

-1.2189812005481575e7 9.313426748981347e6 0.0
9.313426748981347e6 1.4595346745871875e7 0.0
0.0 0.0 0.0

-9.419724242800303e6 8.269382916224754e6 0.0
8.269382916224754e6 1.101331305615658e7 0.0
0.0 0.0 0.0

-6.721602312462736e6 -1.2903703054044074e6 0.0
-1.2903703054044074e6 8.253838450737397e6 0.0
0.0 0.0 0.0

-6.216639033373854e6 1.5767003403804213e7 0.0
1.5767003403804213e7 7.093949332033707e6 0.0
0.0 0.0 0.0

469910.59518937394 1.1630471370183725e7 0.0
1.1630471370183725e7 -1.6819381817746334e7 0.0
0.0 0.0 0.0

1.3588815816284781e6 1.1235179016710207e7 0.0
1.1235179016710207e7 -1.3674778567422496e7 0.0
0.0 0.0 0.0

-1.7427287980515704e7 1.898648835334963e7 0.0
1.898648835334963e7 4.573837006997514e6 0.0
0.0 0.0 0.0

-1.1260027265193548e7 -390709.8975896498 0.0
-390709.8975896498 2.602198798909246e7 0.0
0.0 0.0 0.0

1.6357055183330914e6 1.1490712406993808e7 0.0
1.1490712406993808e7 -1.2890690285184374e7 0.0
0.0 0.0 0.0

-5.0703785159628205e6 1.799590243614966e7 0.0
1.799590243614966e7 2.5347363236416196e6 0.0
0.0 0.0 0.0

-451647.0234019174 1.3302325005271284e7 0.0
1.3302325005271284e7 4.701084971355246e6 0.0
0.0 0.0 0.0

-3.1620129500780012e6 -672881.9142130377 0.0
-672881.9142130377 5.0968318020808855e6 0.0
0.0 0.0 0.0

-487937.8070467559 1.2861521753547514e7 0.0
1.2861521753547514e7 -1.9163017671641954e6 0.0
0.0 0.0 0.0

-2.0984355153281325e6 1.3471901131336292e7 0.0
1.3471901131336292e7 -4.053641636024881e6 0.0
0.0 0.0 0.0

-5.626320342713951e6 5.254275234893313e6 0.0
5.254275234893313e6 4.355390693298388e6 0.0
0.0 0.0 0.0

5.9656057998261815e6 4.129433821092282e6 0.0
4.129433821092282e6 -1.953217076622866e7 0.0
0.0 0.0 0.0

447806.40762951993 7.918825253230256e6 0.0
7.918825253230256e6 -5.909955295230158e6 0.0
0.0 0.0 0.0

-1.06883006668258e7 -2.1882998668743097e6 0.0
-2.1882998668743097e6 1.371932580058106e7 0.0
0.0 0.0 0.0

-1.3936244386569175e6 1.4377174262050848e7 0.0
1.4377174262050848e7 -6.760491950135491e6 0.0
0.0 0.0 0.0

614468.8834206744 1.3849969426618112e7 0.0
1.3849969426618112e7 8.135387529136221e6 0.0
0.0 0.0 0.0

491934.00647800975 7.706642198765606e6 0.0
7.706642198765606e6 -4.300146959030785e6 0.0
0.0 0.0 0.0

-2.317934892844175e6 1.4130918744438201e7 0.0
1.4130918744438201e7 1.0317847529703483e7 0.0
0.0 0.0 0.0

-7.509561835979381e6 2.1393245387331475e7 0.0
2.1393245387331475e7 6.5515869614224965e6 0.0
0.0 0.0 0.0

-8.814412047013342e6 1.237583494655724e6 0.0
1.237583494655724e6 9.466930528107505e6 0.0
0.0 0.0 0.0

-3.0570845290481593e6 1.4201912461390376e7 0.0
1.4201912461390376e7 7.479336488691945e6 0.0
0.0 0.0 0.0

2.54557487216069e6 8.640037946049811e6 0.0
8.640037946049811e6 -1.261387301279246e7 0.0
0.0 0.0 0.0

-1.0216868505346987e7 1.6017931048951125e7 0.0
1.6017931048951125e7 5.404412224487249e6 0.0
0.0 0.0 0.0

-1.6973347381415798e6 2.6987291000542655e6 0.0
2.6987291000542655e6 462560.4608566377 0.0
0.0 0.0 0.0

-3.612512557416522e6 1.5393328975011392e7 0.0
1.5393328975011392e7 -1.8240457768508238e6 0.0
0.0 0.0 0.0

1.1074239999453003e7 1.4683319767980801e7 0.0
1.4683319767980801e7 3.1811470828562244e6 0.0
0.0 0.0 0.0

-2.953363151247057e6 1.4711684444920529e7 0.0
1.4711684444920529e7 -2.549422270528787e6 0.0
0.0 0.0 0.0

2.8224333278099513e6 8.728376824833404e6 0.0
8.728376824833404e6 -1.1719872378925318e7 0.0
0.0 0.0 0.0

-5.957825652061814e6 1.5922870734559987e7 0.0
1.5922870734559987e7 7.364974330260508e6 0.0
0.0 0.0 0.0

-1.1199109333651695e7 -3.963026145707117e6 0.0
-3.963026145707117e6 2.9924904738114048e7 0.0
0.0 0.0 0.0

-2.6075766170359254e6 1.4093722422523506e7 0.0
1.4093722422523506e7 -3.992497115868524e6 0.0
0.0 0.0 0.0

-5.676508936913298e6 1.9566230325637676e7 0.0
1.9566230325637676e7 5.125403820658279e6 0.0
0.0 0.0 0.0

1.5119913596288245e6 1.0864084619310625e7 0.0
1.0864084619310625e7 -1.6663763311072674e7 0.0
0.0 0.0 0.0

722741.7685381453 1.2688939647926724e7 0.0
1.2688939647926724e7 -1.0544217496467661e7 0.0
0.0 0.0 0.0

900041.5460707806 1.2387248231695045e7 0.0
1.2387248231695045e7 -1.108880922390255e7 0.0
0.0 0.0 0.0

-1.2307159503714358e7 7.065764181642253e6 0.0
7.065764181642253e6 1.8181113044192236e7 0.0
0.0 0.0 0.0

-6.379258765286345e6 1.4932382993637424e7 0.0
1.4932382993637424e7 6.033146626297096e6 0.0
0.0 0.0 0.0

-1.0677100090564527e7 8.492892429953022e6 0.0
8.492892429953022e6 5.854622249403797e7 0.0
0.0 0.0 0.0

7.405247626523973e6 1.0181936031983174e7 0.0
1.0181936031983174e7 -3.757750671660943e7 0.0
0.0 0.0 0.0

-9.733312251741497e6 1.839569897241378e7 0.0
1.839569897241378e7 2.378937867954052e6 0.0
0.0 0.0 0.0

-3.4060992463657614e6 1.360403393573309e7 0.0
1.360403393573309e7 5.588465474863576e6 0.0
0.0 0.0 0.0

-1.0115040575655561e7 1.6274854580788495e7 0.0
1.6274854580788495e7 1.980740896551913e6 0.0
0.0 0.0 0.0

-1.5503860979223135e6 2.080547793009061e6 0.0
2.080547793009061e6 1.9216889742941158e6 0.0
0.0 0.0 0.0

-9.053105017963678e6 1.0921949992656061e7 0.0
1.0921949992656061e7 1.067860372890931e7 0.0
0.0 0.0 0.0

-4.0526701680896822e6 1.5787503967580954e7 0.0
1.5787503967580954e7 -1.3011183468635222e6 0.0
0.0 0.0 0.0

-9.839782764874782e6 -1.1409077818562642e6 0.0
-1.1409077818562642e6 1.5658576274218278e7 0.0
0.0 0.0 0.0

1.1340025217284575e7 1.3974269816829666e7 0.0
1.3974269816829666e7 3.1214306121686883e6 0.0
0.0 0.0 0.0

-3.6296488644734616e6 1.4482430108895037e7 0.0
1.4482430108895037e7 9.198989149551012e6 0.0
0.0 0.0 0.0

-7.049425403661521e6 1.2755983627593081e7 0.0
1.2755983627593081e7 9.050774505867543e6 0.0
0.0 0.0 0.0

-1.990979938252496e7 1.9154090176529296e7 0.0
1.9154090176529296e7 1.311055770918591e7 0.0
0.0 0.0 0.0

1.4555710692040175e6 1.2504621036531098e7 0.0
1.2504621036531098e7 847496.7224244564 0.0
0.0 0.0 0.0

2.132304740418952e6 1.1742291319015967e7 0.0
1.1742291319015967e7 -3.3229900575850657e6 0.0
0.0 0.0 0.0

-5.9437526046595825e6 1.6671965437227512e7 0.0
1.6671965437227512e7 6.969295871851161e6 0.0
0.0 0.0 0.0

-3.0305999965699078e6 1.4873612144178344e7 0.0
1.4873612144178344e7 -154167.4236451065 0.0
0.0 0.0 0.0

73924.84704903304 1.0534595911049502e7 0.0
1.0534595911049502e7 -3.2825377460357687e6 0.0
0.0 0.0 0.0

2.0682001388780382e6 1.252769500506801e7 0.0
1.252769500506801e7 -4.641413287283244e6 0.0
0.0 0.0 0.0

-2.8620961549583618e6 1.3006285432585312e7 0.0
1.3006285432585312e7 7.605016493782107e6 0.0
0.0 0.0 0.0

-4.21846360351222e6 2.0165578337990083e7 0.0
2.0165578337990083e7 1.5681046819992063e6 0.0
0.0 0.0 0.0

-6.331294228767119e6 1.5597427150628375e7 0.0
1.5597427150628375e7 7.351121031251248e6 0.0
0.0 0.0 0.0

-8.183196482458295e6 2.1138627028610997e7 0.0
2.1138627028610997e7 6.1557132557767285e6 0.0
0.0 0.0 0.0

-993745.3987579318 1.2551564025989518e7 0.0
1.2551564025989518e7 -1.8901992818306852e7 0.0
0.0 0.0 0.0

-3.7494917811918687e6 1.5209361850390317e7 0.0
1.5209361850390317e7 -3.178429616383587e7 0.0
0.0 0.0 0.0

3.890262171582427e6 1.4816512801009748e7 0.0
1.4816512801009748e7 4.77450806948667e7 0.0
0.0 0.0 0.0

835420.691905316 1.4052937877892576e7 0.0
1.4052937877892576e7 8.074729448057703e6 0.0
0.0 0.0 0.0

3.658846722631975e6 8.400235212476019e6 0.0
8.400235212476019e6 -1.878249533830856e7 0.0
0.0 0.0 0.0

-5.169855478703465e6 2.0000953376707025e7 0.0
2.0000953376707025e7 1.3541010451716478e6 0.0
0.0 0.0 0.0

-2.0378318287229694e6 1.488617044448536e7 0.0
1.488617044448536e7 -4.379406487474448e6 0.0
0.0 0.0 0.0

-490826.4663819409 1.3435053543532263e7 0.0
1.3435053543532263e7 -3.4079257230863553e6 0.0
0.0 0.0 0.0

-953047.459104846 1.4525466314056054e7 0.0
1.4525466314056054e7 -6.528464835472898e6 0.0
0.0 0.0 0.0

-2.3097284022731274e7 1.9727355388685126e7 0.0
1.9727355388685126e7 1.4088410608658748e7 0.0
0.0 0.0 0.0

-5.969006533235741e6 1.934303538241627e7 0.0
1.934303538241627e7 4.75437490127283e6 0.0
0.0 0.0 0.0

-6.4072639604090955e6 1.687890960264596e7 0.0
1.687890960264596e7 6.460482494730027e6 0.0
0.0 0.0 0.0

5.828535054488665e6 4.863551089732224e6 0.0
4.863551089732224e6 -2.0848578800458126e7 0.0
0.0 0.0 0.0

1.421758882638779e6 1.6163253511339853e7 0.0
1.6163253511339853e7 -5.38414584805172e6 0.0
0.0 0.0 0.0

1.3712466457199566e6 1.1143916737783758e7 0.0
1.1143916737783758e7 -1.6070782520072745e7 0.0
0.0 0.0 0.0

496044.86463898164 1.6554456153556388e7 0.0
1.6554456153556388e7 -4.78563037367686e6 0.0
0.0 0.0 0.0

394217.63539713994 1.0006919185212657e7 0.0
1.0006919185212657e7 -2.5588118119119527e6 0.0
0.0 0.0 0.0

-2.875387447463551e6 1.463906285622495e7 0.0
1.463906285622495e7 7.985302710780574e6 0.0
0.0 0.0 0.0

-6.221960520955162e6 1.7990127419218317e7 0.0
1.7990127419218317e7 6.206144615108507e6 0.0
0.0 0.0 0.0

-6.813552750365275e6 -4.698304198275639e6 0.0
-4.698304198275639e6 1.1572826620051393e7 0.0
0.0 0.0 0.0

6.057848940317582e6 1.252382474169227e7 0.0
1.252382474169227e7 -3.0270702851322647e6 0.0
0.0 0.0 0.0

-4.183291714236829e7 1.6221097816413378e7 0.0
1.6221097816413378e7 1.0867034612919044e7 0.0
0.0 0.0 0.0

-1.279189985491263e7 7.143602707641994e6 0.0
7.143602707641994e6 1.6492015725230116e7 0.0
0.0 0.0 0.0

-4.4977849228053875e6 1.4920712043726996e7 0.0
1.4920712043726996e7 2.9759358261741092e6 0.0
0.0 0.0 0.0

2.0741929581954067e6 1.2670752944447057e7 0.0
1.2670752944447057e7 -3.233657995423901e6 0.0
0.0 0.0 0.0

5.164461734105824e6 5.160923761088102e6 0.0
5.160923761088102e6 -1.4984004020147441e7 0.0
0.0 0.0 0.0

-3.410920650457451e6 1.3853280108706364e7 0.0
1.3853280108706364e7 4.414611611156522e6 0.0
0.0 0.0 0.0

-1.0439317901951741e7 -5.707000258669916e6 0.0
-5.707000258669916e6 2.534554314583168e7 0.0
0.0 0.0 0.0

-4.88691848643188e6 1.700218398528411e7 0.0
1.700218398528411e7 -3.7473001179621026e7 0.0
0.0 0.0 0.0

4.826533435147189e6 1.948951417901554e7 0.0
1.948951417901554e7 5.530232322310915e7 0.0
0.0 0.0 0.0

2.4359035939871874e6 1.0099100340247387e7 0.0
1.0099100340247387e7 -1.5280782423576968e7 0.0
0.0 0.0 0.0

1.3857351063513062e6 5.132902799130165e6 0.0
5.132902799130165e6 -5.297881823308479e6 0.0
0.0 0.0 0.0

522391.26695955894 1.3668803204719014e7 0.0
1.3668803204719014e7 5.860825306830666e6 0.0
0.0 0.0 0.0

-1.1725124775467131e7 -3.1605566809824756e6 0.0
-3.1605566809824756e6 2.991008122420265e7 0.0
0.0 0.0 0.0

1.0823609564929425e6 6.841108722738296e6 0.0
6.841108722738296e6 -5.4856992102715215e6 0.0
0.0 0.0 0.0

-3.8856450846554325e6 1.9662530681809146e7 0.0
1.9662530681809146e7 -572286.8957441194 0.0
0.0 0.0 0.0

-871012.6144536971 1.294444122819665e7 0.0
1.294444122819665e7 -7.570404562277054e6 0.0
0.0 0.0 0.0

90622.46352608665 1.3719599193083815e7 0.0
1.3719599193083815e7 5.961384732509887e6 0.0
0.0 0.0 0.0

-2.620209553173917e6 1.5100762116421716e7 0.0
1.5100762116421716e7 148545.7608767395 0.0
0.0 0.0 0.0

-1.1768998520252828e7 1.562106239129804e7 0.0
1.562106239129804e7 951565.3766009253 0.0
0.0 0.0 0.0

-5.955849306205848e6 1.916417720742775e7 0.0
1.916417720742775e7 5.027780307476973e6 0.0
0.0 0.0 0.0

-890828.0195818904 1.3332000110453026e7 0.0
1.3332000110453026e7 3.467249144231078e6 0.0
0.0 0.0 0.0

-3.4403386076157177e6 1.390482792499133e7 0.0
1.390482792499133e7 6.580999525510814e6 0.0
0.0 0.0 0.0

1.0829409226357671e6 1.1442896162445595e7 0.0
1.1442896162445595e7 -1.0753922540096883e7 0.0
0.0 0.0 0.0

-1.039240755190904e6 1.4252497525233572e7 0.0
1.4252497525233572e7 -7.1369278143661795e6 0.0
0.0 0.0 0.0

-1.2065898146517072e7 -1.9172127236695264e6 0.0
-1.9172127236695264e6 2.834255141667388e7 0.0
0.0 0.0 0.0

-2.139775553508134e7 2.1541505419857197e7 0.0
2.1541505419857197e7 1.177918451822628e7 0.0
0.0 0.0 0.0

-1.133648457977808e7 1.917160744628463e7 0.0
1.917160744628463e7 8.948661066176964e6 0.0
0.0 0.0 0.0

-1.860796308726541e7 1.5355916964260481e7 0.0
1.5355916964260481e7 9.322552086691137e6 0.0
0.0 0.0 0.0

-450545.4608906808 1.338282934815594e7 0.0
1.338282934815594e7 498483.9253797106 0.0
0.0 0.0 0.0

-3.5206862490136363e6 1.5299342121184748e7 0.0
1.5299342121184748e7 -39551.33102926146 0.0
0.0 0.0 0.0

-1.0882739927490424e7 1.7016630704896536e7 0.0
1.7016630704896536e7 6.303322367506372e6 0.0
0.0 0.0 0.0

1.6085024885044491e6 6.484361135588424e6 0.0
6.484361135588424e6 -5.617270911108928e6 0.0
0.0 0.0 0.0

-770288.0067431694 1.4165245971477972e7 0.0
1.4165245971477972e7 6.611029358033066e6 0.0
0.0 0.0 0.0

4.391266428453565e6 7.889169861655313e6 0.0
7.889169861655313e6 -1.8248020441542722e7 0.0
0.0 0.0 0.0

-1.1861677786488505e7 8.027766373824637e6 0.0
8.027766373824637e6 1.755169338707354e7 0.0
0.0 0.0 0.0

-1.0850281544979926e7 -3.6792788477053815e6 0.0
-3.6792788477053815e6 3.1000165591037884e7 0.0
0.0 0.0 0.0

5.977845803640112e6 4.935908299118126e6 0.0
4.935908299118126e6 -2.075809485606582e7 0.0
0.0 0.0 0.0

-2.131764003602334e7 1.6492461423236987e7 0.0
1.6492461423236987e7 8.455845069255143e6 0.0
0.0 0.0 0.0

-9.793377243645353e6 -6.951391850330127e6 0.0
-6.951391850330127e6 2.1856318982911184e7 0.0
0.0 0.0 0.0

-7.970696809564235e6 -7.206522610779691e6 0.0
-7.206522610779691e6 1.611729845784768e7 0.0
0.0 0.0 0.0

1.2582687597503406e6 6.250206190499081e6 0.0
6.250206190499081e6 -6.512089554253221e6 0.0
0.0 0.0 0.0

-8.323239891755655e6 -4.450357520420981e6 0.0
-4.450357520420981e6 1.6108302220827106e7 0.0
0.0 0.0 0.0

-6.347882566157502e6 2.493473377751694e7 0.0
2.493473377751694e7 -3.2302666753461817e6 0.0
0.0 0.0 0.0

-6.894442322958534e6 1.3480222756905612e7 0.0
1.3480222756905612e7 8.825688676797865e6 0.0
0.0 0.0 0.0

5.726422566386687e6 5.58969711139694e6 0.0
5.58969711139694e6 -2.4732506886690028e7 0.0
0.0 0.0 0.0

5.040463986231949e6 5.365000728564775e6 0.0
5.365000728564775e6 -1.717636073040063e7 0.0
0.0 0.0 0.0

-6.450574205264775e6 1.4658690232653042e7 0.0
1.4658690232653042e7 5.466402644238875e6 0.0
0.0 0.0 0.0

-7.964201903246508e6 2.0869906244858086e7 0.0
2.0869906244858086e7 7.154530728999833e6 0.0
0.0 0.0 0.0

479537.7449744854 8.239166752438042e6 0.0
8.239166752438042e6 2.9719807814955893e6 0.0
0.0 0.0 0.0

-488000.60492405156 1.467923765615385e7 0.0
1.467923765615385e7 9.85296327958929e6 0.0
0.0 0.0 0.0

1.369284151482611e6 1.571521292958817e7 0.0
1.571521292958817e7 -5.262502580607311e6 0.0
0.0 0.0 0.0

-1.0175573246822275e7 -6.725433401004614e6 0.0
-6.725433401004614e6 2.1384472125063118e7 0.0
0.0 0.0 0.0

-1.3915251655990425e7 1.2309555198869327e7 0.0
1.2309555198869327e7 8.259841866989645e6 0.0
0.0 0.0 0.0

-5.851975982941221e6 1.883358847669614e7 0.0
1.883358847669614e7 4.772273687381533e6 0.0
0.0 0.0 0.0

-4.8937585856197225e6 1.3997689042449e7 0.0
1.3997689042449e7 2.21376012667005e7 0.0
0.0 0.0 0.0

1.864058859643422e6 1.5895786233785687e7 0.0
1.5895786233785687e7 -4.925486100467362e6 0.0
0.0 0.0 0.0

-1.1147762822831993e6 1.4790659072207235e7 0.0
1.4790659072207235e7 -2.832264246590165e6 0.0
0.0 0.0 0.0

-5.896268347742925e6 1.428632397549571e7 0.0
1.428632397549571e7 8.610368301247753e6 0.0
0.0 0.0 0.0

-1.292288779274336e6 1.4165594243332177e7 0.0
1.4165594243332177e7 -3.5834397430851557e6 0.0
0.0 0.0 0.0

-4.0259715625774264e7 2.2092929283747304e7 0.0
2.2092929283747304e7 4.920608527611528e6 0.0
0.0 0.0 0.0

-7.5613746588250585e6 1.3166304013627792e7 0.0
1.3166304013627792e7 8.325781438055841e6 0.0
0.0 0.0 0.0

-1.1649358011027726e6 1.478945437982111e7 0.0
1.478945437982111e7 -2.7643746042613653e6 0.0
0.0 0.0 0.0

-5.468058186568285e6 1.4737901503888208e7 0.0
1.4737901503888208e7 8.168111381632473e6 0.0
0.0 0.0 0.0

619313.0868275741 1.5429288287082471e7 0.0
1.5429288287082471e7 -5.044884696365084e6 0.0
0.0 0.0 0.0

4.910604066818667e6 5.202859279485464e6 0.0
5.202859279485464e6 -1.4644990507559143e7 0.0
0.0 0.0 0.0

-1.0269783344948362e6 1.5106429079162732e7 0.0
1.5106429079162732e7 -5.7011451598561555e6 0.0
0.0 0.0 0.0

-2.21792182606582e7 2.10015341247118e7 0.0
2.10015341247118e7 1.0815382647491211e7 0.0
0.0 0.0 0.0

-6.743009978679283e6 1.856809351981041e7 0.0
1.856809351981041e7 6.817436763715866e6 0.0
0.0 0.0 0.0

-6.576623712093659e6 -1.392264631956472e6 0.0
-1.392264631956472e6 8.542200010808859e6 0.0
0.0 0.0 0.0

-360280.65681158984 1.3140434714364424e7 0.0
1.3140434714364424e7 -9.132650768765666e6 0.0
0.0 0.0 0.0

4.86525481601784e6 1.2928782786388885e7 0.0
1.2928782786388885e7 -2.3928608716278328e6 0.0
0.0 0.0 0.0

-3.692940635918562e7 1.706016911487845e7 0.0
1.706016911487845e7 1.0785305969485933e7 0.0
0.0 0.0 0.0

-51157.361918743234 1.2753364290708406e7 0.0
1.2753364290708406e7 3.7238542186400886e6 0.0
0.0 0.0 0.0

4.098670452561764e6 7.890659507291907e6 0.0
7.890659507291907e6 -1.9224658929166317e7 0.0
0.0 0.0 0.0

769739.9975698777 1.1369795430887012e7 0.0
1.1369795430887012e7 -1.0622859955531066e7 0.0
0.0 0.0 0.0

-3.0994537043348057e6 1.4078679163633134e7 0.0
1.4078679163633134e7 5.293314838836245e6 0.0
0.0 0.0 0.0

-9.113012959563468e6 2.092344478551599e7 0.0
2.092344478551599e7 7.203561448308721e6 0.0
0.0 0.0 0.0

-3.559926579685051e6 1.6483959628795993e7 0.0
1.6483959628795993e7 -636240.0605750331 0.0
0.0 0.0 0.0

5.391509133678006e6 4.891365233643999e6 0.0
4.891365233643999e6 -1.6811854387346998e7 0.0
0.0 0.0 0.0

-1.7435566136648702e6 1.4156142464319035e7 0.0
1.4156142464319035e7 1.5455809727256987e7 0.0
0.0 0.0 0.0

-302672.3152436671 9.67187927590734e6 0.0
9.67187927590734e6 -2.7049728608517703e6 0.0
0.0 0.0 0.0

-2.7878399750308e7 1.871137453837392e7 0.0
1.871137453837392e7 1.2573837150791928e7 0.0
0.0 0.0 0.0

-9.25789671710355e6 -4.004886770218313e6 0.0
-4.004886770218313e6 1.3050096296091419e7 0.0
0.0 0.0 0.0

-8.567405340022326e6 -3.927412177040085e6 0.0
-3.927412177040085e6 1.5523040636846606e7 0.0
0.0 0.0 0.0

4.517522569845717e6 1.248053876762027e7 0.0
1.248053876762027e7 215039.69727229956 0.0
0.0 0.0 0.0

-9.227193393679854e6 -6.716988292706313e6 0.0
-6.716988292706313e6 2.1658180295748632e7 0.0
0.0 0.0 0.0

12506.030661419732 1.2847835547563288e7 0.0
1.2847835547563288e7 3.6938691515981983e6 0.0
0.0 0.0 0.0

1.3795824456978862e6 1.4120237576230267e7 0.0
1.4120237576230267e7 8.47892452742379e6 0.0
0.0 0.0 0.0

-5.419801899799908e6 1.9849751753730915e7 0.0
1.9849751753730915e7 2.92423705949072e6 0.0
0.0 0.0 0.0

-1.2530090893742612e7 1.603737709146035e6 0.0
1.603737709146035e6 3.155100990540789e7 0.0
0.0 0.0 0.0

1.1240760558695719e6 1.1226307787813338e7 0.0
1.1226307787813338e7 -1.5991069753157668e7 0.0
0.0 0.0 0.0

933187.8904018123 6.675644754840653e6 0.0
6.675644754840653e6 -5.91241974038866e6 0.0
0.0 0.0 0.0

-2.941935902720462e6 1.3865873518609533e7 0.0
1.3865873518609533e7 4.158438536221924e6 0.0
0.0 0.0 0.0

-989239.9974394217 1.467100904127683e7 0.0
1.467100904127683e7 9.327257531107696e6 0.0
0.0 0.0 0.0

-1.0805190735960532e7 -5.000980126638167e6 0.0
-5.000980126638167e6 2.0315612804347746e7 0.0
0.0 0.0 0.0

-8.647851636678899e6 4.391415058871961e6 0.0
4.391415058871961e6 8.01174667380755e6 0.0
0.0 0.0 0.0

-4.354993326898773e6 1.3772414105223572e7 0.0
1.3772414105223572e7 1.468807078043958e6 0.0
0.0 0.0 0.0

-3.480897460934144e6 6.452622875121675e6 0.0
6.452622875121675e6 1.1003384260013167e7 0.0
0.0 0.0 0.0

1.9627236352137767e6 1.218265785863973e7 0.0
1.218265785863973e7 -3.9346720770399403e6 0.0
0.0 0.0 0.0

-9.009389127062917e6 -4.71925907707735e6 0.0
-4.71925907707735e6 1.3838635705214135e7 0.0
0.0 0.0 0.0

-1.1847381544001263e7 1.6724094142453994e6 0.0
1.6724094142453994e6 3.41527253947037e7 0.0
0.0 0.0 0.0

1.8372047155445241e6 1.2444813710887192e7 0.0
1.2444813710887192e7 -3.481470189461679e6 0.0
0.0 0.0 0.0

-581629.0529481752 1.32257159305384e7 0.0
1.32257159305384e7 -7.230064253295147e6 0.0
0.0 0.0 0.0

-1.1881957359251669e7 1.5907276966903305e6 0.0
1.5907276966903305e6 3.3930777248041615e7 0.0
0.0 0.0 0.0

1.4157126064585263e6 1.5203768833358347e7 0.0
1.5203768833358347e7 -5.317912495502113e6 0.0
0.0 0.0 0.0

-1.064263286595534e6 1.3687047205362955e7 0.0
1.3687047205362955e7 6.094481977922305e6 0.0
0.0 0.0 0.0

-4.318324219074729e6 7.761083906087299e6 0.0
7.761083906087299e6 3.0469835206527645e6 0.0
0.0 0.0 0.0

-5.376687856861534e6 2.901365967647878e6 0.0
2.901365967647878e6 7.278714763309589e6 0.0
0.0 0.0 0.0

-6.355395786981759e6 2.0610288280948508e6 0.0
2.0610288280948508e6 2.920426868113129e6 0.0
0.0 0.0 0.0

