# vtk DataFile Version 2.0
phase field modeling fracture
ASCII
DATASET UNSTRUCTURED_GRID
POINTS 2538 float
0.0 0.0 0.0
10.0 0.0 0.0
0.0 10.0 0.0
10.0 10.0 0.0
0.0 4.9995 0.0
0.0 5.0005 0.0
5.0 5.0 0.0
0.9416964895726688 0.0 0.0
1.803581725054446 0.0 0.0
2.592419885431098 0.0 0.0
3.314401822861676 0.0 0.0
3.975193910351406 0.0 0.0
4.579982132660152 0.0 0.0
5.133512780936812 0.0 0.0
5.640130319506143 0.0 0.0
6.103810708661955 0.0 0.0
6.528192895506818 0.0 0.0
6.916607540127679 0.0 0.0
7.272102969376355 0.0 0.0
7.597469242948583 0.0 0.0
7.895259826292669 0.0 0.0
8.167811885738017 0.0 0.0
8.417264413845215 0.0 0.0
8.645575169389538 0.0 0.0
8.854535961159101 0.0 0.0
9.045786767735546 0.0 0.0
9.220828555767493 0.0 0.0
9.38103509633881 0.0 0.0
9.527663687265145 0.0 0.0
9.661865124984566 0.0 0.0
9.784692609918062 0.0 0.0
9.897110148790482 0.0 0.0
10.0 0.09999999999992584 0.0
10.0 0.199999999999856 0.0
10.0 0.2999999999997771 0.0
10.0 0.3999999999996677 0.0
10.0 0.4999999999995511 0.0
10.0 0.5999999999994683 0.0
10.0 0.6999999999993983 0.0
10.0 0.7999999999993286 0.0
10.0 0.8999999999992587 0.0
10.0 0.9999999999991888 0.0
10.0 1.099999999999119 0.0
10.0 1.199999999999033 0.0
10.0 1.299999999998852 0.0
10.0 1.399999999998576 0.0
10.0 1.499999999998284 0.0
10.0 1.599999999997992 0.0
10.0 1.6999999999977 0.0
10.0 1.799999999997408 0.0
10.0 1.899999999997116 0.0
10.0 1.999999999996825 0.0
10.0 2.099999999996533 0.0
10.0 2.199999999996241 0.0
10.0 2.299999999995949 0.0
10.0 2.399999999995657 0.0
10.0 2.499999999995365 0.0
10.0 2.599999999995073 0.0
10.0 2.699999999994782 0.0
10.0 2.79999999999449 0.0
10.0 2.899999999994198 0.0
10.0 2.999999999993906 0.0
10.0 3.099999999993614 0.0
10.0 3.199999999993322 0.0
10.0 3.299999999993029 0.0
10.0 3.399999999992738 0.0
10.0 3.499999999992446 0.0
10.0 3.599999999992154 0.0
10.0 3.699999999991863 0.0
10.0 3.799999999991571 0.0
10.0 3.899999999991278 0.0
10.0 3.999999999991022 0.0
10.0 4.099999999991035 0.0
10.0 4.199999999991187 0.0
10.0 4.299999999991338 0.0
10.0 4.399999999991491 0.0
10.0 4.499999999991642 0.0
10.0 4.599999999991795 0.0
10.0 4.699999999991947 0.0
10.0 4.799999999992099 0.0
10.0 4.89999999999225 0.0
10.0 4.999999999992403 0.0
10.0 5.099999999992555 0.0
10.0 5.199999999992706 0.0
10.0 5.299999999992858 0.0
10.0 5.39999999999301 0.0
10.0 5.499999999993161 0.0
10.0 5.599999999993313 0.0
10.0 5.699999999993466 0.0
10.0 5.799999999993618 0.0
10.0 5.899999999993771 0.0
10.0 5.999999999993922 0.0
10.0 6.099999999994074 0.0
10.0 6.199999999994227 0.0
10.0 6.299999999994378 0.0
10.0 6.39999999999453 0.0
10.0 6.499999999994682 0.0
10.0 6.599999999994833 0.0
10.0 6.699999999994986 0.0
10.0 6.799999999995138 0.0
10.0 6.899999999995289 0.0
10.0 6.999999999995442 0.0
10.0 7.099999999995594 0.0
10.0 7.199999999995747 0.0
10.0 7.299999999995897 0.0
10.0 7.39999999999605 0.0
10.0 7.499999999996202 0.0
10.0 7.599999999996353 0.0
10.0 7.699999999996505 0.0
10.0 7.799999999996658 0.0
10.0 7.899999999996808 0.0
10.0 7.999999999996962 0.0
10.0 8.099999999997113 0.0
10.0 8.199999999997265 0.0
10.0 8.299999999997418 0.0
10.0 8.399999999997569 0.0
10.0 8.499999999997721 0.0
10.0 8.599999999997873 0.0
10.0 8.699999999998024 0.0
10.0 8.799999999998176 0.0
10.0 8.899999999998329 0.0
10.0 8.99999999999848 0.0
10.0 9.099999999998634 0.0
10.0 9.199999999998786 0.0
10.0 9.299999999998937 0.0
10.0 9.399999999999089 0.0
10.0 9.499999999999241 0.0
10.0 9.599999999999392 0.0
10.0 9.699999999999545 0.0
10.0 9.799999999999697 0.0
10.0 9.899999999999848 0.0
9.897110148790565 10.0 0.0
9.784692609918244 10.0 0.0
9.66186512498486 10.0 0.0
9.527663687265571 10.0 0.0
9.381035096339392 10.0 0.0
9.220828555768257 10.0 0.0
9.045786767736512 10.0 0.0
8.854535961160305 10.0 0.0
8.645575169391027 10.0 0.0
8.417264413847017 10.0 0.0
8.167811885740178 10.0 0.0
7.895259826295246 10.0 0.0
7.597469242951631 10.0 0.0
7.272102969379938 10.0 0.0
6.916607540131873 10.0 0.0
6.528192895511704 10.0 0.0
6.103810708667616 10.0 0.0
5.640130319512691 10.0 0.0
5.13351278094435 10.0 0.0
4.579982132668816 10.0 0.0
3.975193910361222 10.0 0.0
3.314401822869852 10.0 0.0
2.592419885437257 10.0 0.0
1.803581725058137 10.0 0.0
0.9416964895740705 10.0 0.0
0.0 9.00010000000243 0.0
0.0 8.000200000005481 0.0
0.0 7.000300000005135 0.0
0.0 6.000400000002569 0.0
0.901790731451151 5.000409820926855 0.0
1.657200899774397 5.000334279910023 0.0
2.289991063707192 5.000271000893629 0.0
2.820065163538221 5.000217993483646 0.0
3.264096435579811 5.000173590356442 0.0
3.636051481595835 5.00013639485184 0.0
3.947629914072366 5.000105237008593 0.0
4.208632181002628 5.0000791367819 0.0
4.427267949625672 5.000057273205037 0.0
4.610414277633563 5.000038958572237 0.0
4.763831845154243 5.000023616815485 0.0
4.892346298799659 5.00001076537012 0.0
4.892346298799748 4.99998923462988 0.0
4.763831845154455 4.999976383184515 0.0
4.610414277633943 4.999961041427763 0.0
4.427267949626277 4.999942726794963 0.0
4.208632181003523 4.9999208632181 0.0
3.94762991407365 4.999894762991407 0.0
3.636051481597624 4.99986360514816 0.0
3.264096435582253 4.999826409643559 0.0
2.820065163541503 4.999782006516354 0.0
2.289991063711534 4.999728999106371 0.0
1.657200899778495 4.999665720089978 0.0
0.9017907314530094 4.999590179073145 0.0
0.0 3.999600000002013 0.0
0.0 2.999700000005187 0.0
0.0 1.99980000000512 0.0
0.0 0.9999000000025537 0.0
9.897889398521345 2.93573355845387 0.0
9.906568249974548 7.060009441434234 0.0
9.913122631074113 3.64016132281653 0.0
9.922462129543863 6.354535290629151 0.0
9.917693659967533 4.354211663134567 0.0
9.909873057440208 5.637584487339942 0.0
9.914183254994697 4.950672966925282 0.0
9.913885043715895 7.666887930262611 0.0
9.91009668007573 2.351889069770817 0.0
9.905135696074536 8.138152454502785 0.0
9.913397459621809 1.849999999997262 0.0
7.099302372137626 0.297750452375005 0.0
7.095143729410097 9.700359990366296 0.0
4.942912558701401 5.095838627899509 0.0
4.315009232304429 5.165022115481685 0.0
4.946182472483878 4.906763777264103 0.0
4.317967462990024 4.825955043772673 0.0
9.916390871492647 8.64999999999792 0.0
9.921504649680616 1.368376469890358 0.0
8.292538149791614 0.206877570318844 0.0
8.292538149793597 9.793122429681448 0.0
5.884594439766573 9.587645267048616 0.0
5.794826292691579 0.3794853783929359 0.0
9.913397459621425 9.049999999998557 0.0
9.908526577714177 0.9568239351922434 0.0
3.456851160380649 5.315740054130451 0.0
3.457889657868442 4.707121019609468 0.0
8.945214200703926 0.1503383337970344 0.0
8.950161364448409 9.8413906539257 0.0
9.913862335499305 4.055887885208452 0.0
9.916697353372683 4.650158482607802 0.0
9.919076340414442 6.049999999994006 0.0
9.906994308667635 5.25749687748192 0.0
9.917490342358025 6.655979201891897 0.0
9.915757520293784 7.343848891656911 0.0
9.910049507471042 3.363474386285078 0.0
9.914471988502868 2.647400064832979 0.0
9.91474124160965 9.337490423485129 0.0
9.916971008170838 0.6499999999994355 0.0
4.307157269264427 9.509674045029644 0.0
4.331527375865619 0.4401616696422582 0.0
9.45434939180249 9.878397030523757 0.0
9.457696120412969 0.1270877537061785 0.0
2.555070293622606 5.422044496190925 0.0
2.566232917480916 4.608001224030952 0.0
3.026511860837692 9.332320638257093 0.0
2.945561971800619 0.5895662714727601 0.0
7.7395404387124 0.2511088946967771 0.0
7.736379255744154 9.745848826372828 0.0
4.687135269408529 5.122111433928926 0.0
4.688420821504113 4.871895064967488 0.0
9.910554884115975 0.3448356354522978 0.0
9.911230082250466 9.65764729394159 0.0
9.921953841410854 6.851023993342036 0.0
9.912065178606017 5.448170483544033 0.0
9.911660025326261 3.861846960030188 0.0
9.914847467973438 3.14501593945607 0.0
9.913397459621425 5.849999999993703 0.0
9.913397459621425 7.849999999996735 0.0
9.906916878988277 2.15455769998631 0.0
9.913397459621425 8.349999999997479 0.0
9.909472363117661 1.640528221515488 0.0
9.913987325695956 1.152857110636247 0.0
9.913397459621425 8.849999999998241 0.0
0.9100099990995943 2.614215977520411 0.0
0.8395284981715456 7.451196254860987 0.0
9.723278867451556 9.898135916635193 0.0
9.723316350887044 0.09841820909386662 0.0
1.385819164827588 4.454539963646463 0.0
1.338343629665047 5.523111536005823 0.0
1.377179700550677 0.6809168304959698 0.0
1.418060461092743 9.285896715136046 0.0
9.91268220142518 0.1457914080939694 0.0
9.906737126737994 9.845745933882352 0.0
0.7108351382691361 6.537941170074089 0.0
1.527735020267026 6.915620208855231 0.0
1.630993885659103 7.838271825205868 0.0
2.232760943566823 7.370850737296832 0.0
2.243414218068206 6.688299277952821 0.0
2.779655053105118 7.021588754814074 0.0
2.80227799359795 7.632420170547022 0.0
3.282022065908813 7.305859666021318 0.0
3.327597298795347 7.857554136825748 0.0
3.743210251018715 7.549183328204379 0.0
3.716353232200752 7.062036086888612 0.0
4.111978858674101 7.27497101169417 0.0
4.104192177581432 6.879858986267289 0.0
4.436230765617037 7.045693351607117 0.0
4.430360014817357 6.703971783962796 0.0
4.732390145036301 6.849841042423394 0.0
5.056161327708878 5.095276573498806 0.0
5.111586796021131 4.999081142133581 0.0
5.169267363407189 5.09444870412406 0.0
5.223795108752053 4.996986220359468 0.0
5.281480803887719 5.092780870372803 0.0
5.335670761900611 4.994887492556936 0.0
5.393485214772442 5.090486192743301 0.0
5.447323082877892 4.992601527033996 0.0
5.505243219343024 5.087953380710069 0.0
5.558739102026105 4.990287787962959 0.0
5.616491581184779 5.085335255235766 0.0
5.669852346908056 4.9879269227514 0.0
5.727502713908907 5.082679981817038 0.0
5.780766004135139 4.988313988715834 0.0
5.838244881129535 5.080480568766611 0.0
5.891357695677371 4.986433849408193 0.0
5.948696036767613 5.077969900389505 0.0
6.001601341641615 4.981313698556656 0.0
6.058851024265095 5.074871552128682 0.0
6.111614020704875 4.978360695880202 0.0
6.168801161530775 5.072044953270978 0.0
6.221368818778567 4.975825765213497 0.0
6.278268309066882 5.066182320461055 0.0
6.330814273567539 4.972837984645718 0.0
6.387565032421376 5.062889771971895 0.0
6.437476667631405 4.971693683589553 0.0
6.496181111585419 5.060210690175857 0.0
6.539454812256072 4.964658165361536 0.0
6.604198202576491 5.056387520850258 0.0
6.648506025747331 4.939374587506267 0.0
6.714026758992516 5.05873885840664 0.0
6.764418045981209 4.959246676066148 0.0
6.8219334571197 5.055299567406268 0.0
6.873708540948134 4.960426349093742 0.0
6.930181428849307 5.053461390218819 0.0
6.981893615341967 4.96435459462232 0.0
7.037791764774784 5.051219747103022 0.0
7.090993561518408 4.96392420322464 0.0
5.504417457283294 4.900897920552702 0.0
7.145434864123609 5.048960634292441 0.0
6.054532384032612 4.883956083938546 0.0
6.738027949040956 4.850032323068674 0.0
7.198432914526514 4.956325226333323 0.0
7.252637187936749 5.046012229327236 0.0
7.30926729605109 4.948903216650376 0.0
7.248106275544042 4.860306312845646 0.0
7.363100274863074 4.849952416808486 0.0
7.365733472701664 5.039519554615095 0.0
7.308483293090149 5.137557220352172 0.0
6.768399513646964 5.145609705119954 0.0
7.422800035311104 5.132251445551834 0.0
7.358273518796229 5.235980394389298 0.0
7.480824155801127 5.227946127939927 0.0
7.302193400058628 4.761917474298247 0.0
7.413570879789824 4.754555110721153 0.0
7.414392998903179 5.334729114426734 0.0
7.352769630272076 4.660405502266205 0.0
7.467556835255426 4.658352623795039 0.0
7.536246869015014 5.328986926716081 0.0
7.478865844607288 5.432598185493195 0.0
7.406396991826072 4.556956233957538 0.0
7.523581002009154 4.552005631348623 0.0
7.597792398573263 5.429506106314967 0.0
7.540511043402902 5.53619421580439 0.0
7.46214474876342 4.452580994318881 0.0
7.5852185078634 4.446021810672608 0.0
7.663329342323453 5.533453399066901 0.0
7.603478967594521 5.643227430483237 0.0
7.513450346818673 4.347641323140766 0.0
7.640744971722214 4.333388343316237 0.0
7.727671715775243 5.642390483050116 0.0
7.667774597993788 5.753188858425915 0.0
7.570065256728661 4.230515669344811 0.0
7.702881065467917 4.218307808529532 0.0
7.638288257073729 4.107994211855027 0.0
7.493362356301017 4.120843902105771 0.0
7.779018500630071 5.521233457321821 0.0
7.794641287388929 5.752364621610818 0.0
7.73369774483611 5.865894287356292 0.0
7.600834531784728 5.867752110500446 0.0
6.233038857278689 5.15645045634683 0.0
7.669727996028819 5.985665563643058 0.0
7.528582452554481 5.987393423295551 0.0
7.598722674572824 6.11001923494443 0.0
7.778305000222867 4.104318908265786 0.0
7.704329019832056 3.987744174608892 0.0
7.838453459801382 4.213322728668484 0.0
7.864495721576461 5.862306066517277 0.0
7.846552353360407 3.98481756181946 0.0
7.769730409703277 3.86544808681145 0.0
5.785249360396857 5.177248808588045 0.0
7.908837087876153 3.861484036275285 0.0
7.834824606222196 3.740586825753288 0.0
7.97685993406276 3.736209527152902 0.0
7.89665098770825 3.615501862931453 0.0
7.753228010315262 3.617800245018972 0.0
7.826063013090472 3.483173292579822 0.0
7.66789744383048 3.48859328808356 0.0
8.042515855796823 3.595394268381807 0.0
7.75200750488492 3.341279823834038 0.0
7.582870318332553 3.346584916806707 0.0
8.120807847415062 3.732493963388337 0.0
8.189783970303546 3.61159165475499 0.0
7.657801000286734 3.200439907646711 0.0
7.486781956172036 3.201402473247712 0.0
7.452595103886905 6.11418616185016 0.0
7.527098033550077 6.243191052852112 0.0
8.260502906807751 3.728437634721859 0.0
8.327629317451398 3.608173631356984 0.0
7.372763970891452 6.247552889754036 0.0
7.456170570815929 6.384992468962936 0.0
7.621837793616884 6.376077080857113 0.0
7.548039512904141 6.520750676893614 0.0
7.717475944451644 6.514856553988943 0.0
7.636658166268699 6.661648164052906 0.0
7.807468267259438 6.664076174524672 0.0
7.718022764310774 6.817938967122142 0.0
7.887785766941087 6.807440365887151 0.0
7.545993589083432 6.815070675854734 0.0
7.809874785067209 6.967537287475282 0.0
7.975643812145337 6.948729406725126 0.0
8.396477808021062 3.725446935061211 0.0
7.565651643157136 3.044354774611752 0.0
7.384328725505071 3.043048915147076 0.0
8.056405351948353 6.802790889114673 0.0
8.14128318237188 6.940027831915737 0.0
8.064621760266059 7.086348792208953 0.0
8.225003598857908 6.805225152373254 0.0
8.463085452993242 3.606998510553562 0.0
8.230426869720718 7.079551841000411 0.0
8.155262284174286 7.224761758176069 0.0
8.530696760758996 3.721683301125054 0.0
8.596669886994064 3.604516769862316 0.0
8.528531058025589 3.490411531312337 0.0
8.320451770844851 7.218191678954744 0.0
8.245273958732774 7.363444652121271 0.0
8.66324687389452 3.717094013035765 0.0
8.600103125209296 3.831913857228569 0.0
8.662131102573216 3.488322280861316 0.0
8.594166125380536 3.374071873435548 0.0
8.411074336066186 7.353871649576861 0.0
8.339644223432472 7.505172120620427 0.0
8.165883718619623 7.513159193685373 0.0
8.483453820080417 7.2082285366806 0.0
8.261200365730348 7.657400951288149 0.0
8.081570576666843 7.670933304838066 0.0
7.471613195794025 2.872548423100142 0.0
7.268733678357991 2.881209199257603 0.0
7.184255506995786 3.084448584600423 0.0
7.065899603697895 2.883902449336828 0.0
6.960163891183182 3.081014635802978 0.0
6.847612128388715 2.885646860602812 0.0
6.739800729737967 3.078895733381448 0.0
8.729373804596847 3.827689165637365 0.0
8.668550856907444 3.938702277545298 0.0
8.72770789162863 3.371798381178293 0.0
8.659764090070603 3.257493349874974 0.0
8.436453928793245 7.648724489148887 0.0
6.619080287792762 2.90880017416788 0.0
6.511740956842646 3.09340654756684 0.0
8.793527829963288 3.935174834810256 0.0
8.736430500996828 4.042719556852617 0.0
7.631260330584174 4.565300771328012 0.0
8.359058396840432 7.801678182761817 0.0
5.339436215072359 5.184870243702279 0.0
4.994031736761993 5.193306795607908 0.0
6.383387675268097 4.87760645722207 0.0
7.29117392392962 6.382172868329505 0.0
6.378196825372041 2.907113079755629 0.0
6.269817199014261 3.12412150658573 0.0
8.793149127377946 3.255386294257182 0.0
8.725774239201558 3.141596687892195 0.0
8.857434600673502 4.041295940541356 0.0
8.802868937128341 4.1471119953668 0.0
8.532045262478793 7.7905977476835 0.0
7.364542641624493 2.699128473342751 0.0
7.571677611088925 2.695732556686516 0.0
6.723058333614999 2.672341359410618 0.0
8.456744924757372 7.94483904450548 0.0
6.140831279784704 2.921247401137864 0.0
6.02419219050745 3.14358702955763 0.0
8.916255604212301 3.934279868822481 0.0
8.859287250884009 3.140226640574265 0.0
8.791092798057303 3.025929352146465 0.0
7.210445465986021 6.245773134960393 0.0
7.120884161792869 6.385155584680196 0.0
7.036931702064287 6.240721609143972 0.0
6.943722280007011 6.3869279517155 0.0
8.920094519678617 4.144837222494242 0.0
8.864374107136287 4.250930406527029 0.0
7.347569838739255 4.463467417508182 0.0
5.90383431757064 2.935113219563906 0.0
5.783476009580765 3.156456199832474 0.0
8.626013191558314 7.935092223505354 0.0
8.687240186957197 7.796697889991163 0.0
5.642059327424706 2.903018174330269 0.0
5.52647853955939 3.162549070310043 0.0
8.555300051897738 8.086169516016518 0.0
8.405624441178524 8.083972416481254 0.0
5.374124307190728 2.945480555950917 0.0
8.935805220807357 3.249260758206028 0.0
8.981625171409894 4.247375537584228 0.0
8.924725364486765 4.352101286657735 0.0
8.807208588134106 4.356163101450244 0.0
8.868277832430604 4.45657124153171 0.0
8.75099635287701 4.460644845248524 0.0
8.812385950597063 4.560891222623518 0.0
8.693833206943118 4.564602972998703 0.0
8.756474732548273 4.665720853686476 0.0
8.63721608225855 4.669394550615355 0.0
8.700108119351134 4.770682016274914 0.0
8.81920502916846 4.767536120893284 0.0
8.76355311338807 4.871451945248518 0.0
8.881442328033694 4.868382238751069 0.0
8.826433523510634 4.97132552240372 0.0
8.943387824985514 4.967694248194483 0.0
8.888718468126953 5.071044784833541 0.0
8.580377663835254 4.774669738817985 0.0
8.770572242937233 5.073880380431421 0.0
8.832915096600454 5.174518948293615 0.0
8.952224483821848 5.170970838320107 0.0
8.897282771771884 5.275476392171722 0.0
7.463928467290875 2.513944501591933 0.0
7.675935950092034 2.509420347143072 0.0
8.924252417741767 3.024418701372628 0.0
8.857265893102921 2.911213535286156 0.0
8.776981063213334 5.27944309004916 0.0
8.840710910770163 5.380165700477552 0.0
8.960876896785969 5.375521424256389 0.0
8.904555918255223 5.482125846038813 0.0
7.567193097677677 2.32750151280277 0.0
7.780880844888839 2.323064027160363 0.0
6.851602118390116 6.234522818184622 0.0
6.758680682687229 6.389359516748128 0.0
6.66345977321418 6.231254850996584 0.0
8.715764716958308 8.079994249772627 0.0
8.65189989696114 8.227534663647639 0.0
9.042229096541828 4.348551764001607 0.0
6.436774206993324 3.316782326998922 0.0
7.590527613340588 5.22651784724799 0.0
9.024366884701616 5.476726561488805 0.0
8.968734351641839 5.583879050892151 0.0
8.845941080047659 5.586406316932274 0.0
8.909881305857882 5.690482454668167 0.0
7.348726871578975 5.44047403999932 0.0
6.567070253986433 6.398115757512583 0.0
6.697077150072261 6.553426749743366 0.0
5.252377383990728 3.187782967482479 0.0
8.988440431820699 2.908621158637298 0.0
8.922541972760119 2.796420836075996 0.0
6.466806010659505 6.229115583261771 0.0
9.033851153821296 5.686506775615425 0.0
8.978340519963718 5.795772485582058 0.0
8.85111463793018 5.798672910287243 0.0
8.922171984280597 5.907237880910408 0.0
8.795190680908043 5.911854068712683 0.0
8.864373398892472 6.019728357749566 0.0
8.991346995940626 6.014539153309398 0.0
8.93374019140187 6.12698887312768 0.0
5.095192648098848 2.952353430985476 0.0
7.672651464908932 2.141715359830917 0.0
7.886266921042761 2.136211284120189 0.0
9.098474286589756 4.245971410451114 0.0
8.813172564986438 8.216887361735234 0.0
8.74802978243154 8.366104673219047 0.0
9.059985162956899 6.120982589539211 0.0
9.00342813739303 6.233245043891739 0.0
4.961413514304496 3.214209167276753 0.0
9.05248113004685 2.794651022570942 0.0
8.986028039118027 2.681341972594222 0.0
5.671890458441996 3.377122473800023 0.0
4.755829262593116 7.184480462344647 0.0
9.158258644940048 4.34465968221255 0.0
4.799687186662534 2.961354824469195 0.0
6.030554747591715 2.726787502996874 0.0
8.938327180212585 8.34758372042188 0.0
8.847392320655468 8.503370672816716 0.0
8.67342124373679 8.518117686968314 0.0
5.234423106934083 2.694925204361751 0.0
8.964923046453565 8.185313058214797 0.0
7.456650986668838 2.134076476407834 0.0
9.111732084821366 2.897226832609386 0.0
6.368055837513985 6.402805870976705 0.0
6.265629899005033 6.226581076317183 0.0
8.736327196352686 6.026404178766982 0.0
9.117473097358854 2.67987006607594 0.0
9.052137415465204 2.565428515518978 0.0
7.781001557847192 1.955874236406257 0.0
7.992134447300669 1.949184538864554 0.0
8.593074792993455 3.143159483125708 0.0
9.1291360203536 6.226877897052981 0.0
9.072154326613617 6.338696745620542 0.0
8.916532550320525 2.566986282201109 0.0
8.984021113721658 2.449252898983242 0.0
9.178032243215632 6.120533546076094 0.0
9.213703592343162 4.244823670856978 0.0
9.11972142641474 2.449071238668887 0.0
9.052853896812186 2.33190758581705 0.0
8.635035926402708 4.462329956179506 0.0
8.773614475966344 8.657865377672689 0.0
8.596400917257634 8.67759750279447 0.0
8.942023339420883 8.644678093589654 0.0
9.19471670675691 6.33096438039349 0.0
9.138460613363325 6.443043552768813 0.0
8.66620319432524 5.916297234509582 0.0
8.606669825267202 6.032658196729024 0.0
9.27222540210304 4.341341907533128 0.0
9.013782808177437 6.451040569407859 0.0
9.08360982569773 6.55729980456602 0.0
7.885622149776354 1.768093045890686 0.0
8.095672144455353 1.768790621151345 0.0
9.208772072925791 6.549717411809656 0.0
9.154272208194383 6.662613503537815 0.0
9.187669783927937 2.334640996932141 0.0
9.122379015831417 2.215832190697178 0.0
6.164077036161143 6.404611236428829 0.0
6.062367614988677 6.224307160647549 0.0
8.987075041759633 2.211477580983978 0.0
9.056972755801603 2.093573581203428 0.0
9.194557288902232 2.096029761809264 0.0
9.131223008370409 1.972713028695079 0.0
8.87381302587057 8.795793668920256 0.0
9.039169086943392 8.781606667490083 0.0
4.662813350519927 3.228118291851354 0.0
4.474181267994617 2.945703616023359 0.0
6.562627723301209 6.075544382232434 0.0
9.326886053211574 4.243083624343211 0.0
9.280374192897945 6.656072830232892 0.0
9.224718905178564 6.766740750539347 0.0
4.703284910421452 6.528907865005451 0.0
8.955136474970331 6.565989985649191 0.0
8.998148826814893 4.865480736169776 0.0
8.99429836796776 1.965972383552685 0.0
9.065669391141741 1.847195105148808 0.0
9.207236162050343 1.853010386995843 0.0
9.143218073349985 1.725630086781897 0.0
8.998867447699345 1.719378449325465 0.0
9.082595782768397 1.592017827427701 0.0
8.92804562738841 1.585238202229766 0.0
9.01637794607019 1.453847302675876 0.0
8.854253119154375 1.446306868730686 0.0
8.941620273019874 1.320083886766936 0.0
8.775393064215876 1.308487027359826 0.0
9.102170347200483 1.324733726345249 0.0
9.013857060361985 1.178821526410403 0.0
7.991031819452564 1.587689878441685 0.0
7.767218744640202 1.595993197647291 0.0
9.191539171305216 1.194087248761656 0.0
9.123965901037613 1.057102462689568 0.0
4.853921953226772 3.470213116851758 0.0
7.496563223334782 3.470157221608763 0.0
8.536691379028115 5.921845852206257 0.0
8.475496498707471 6.037633662010236 0.0
7.978668526342969 2.307231488316941 0.0
9.384721922092124 4.337357165846226 0.0
9.331039180200886 4.435926256444196 0.0
8.546261775564837 6.150267290476958 0.0
8.411727261785726 6.155319300628062 0.0
8.972203609044218 8.930944433074036 0.0
9.133480321468399 8.90955269607895 0.0
9.197778815538276 8.768743880012563 0.0
6.162231825784922 6.05277753404107 0.0
5.962111081146334 6.046949845237622 0.0
9.268727788642101 4.146883230687689 0.0
9.380694211527906 4.144811697563401 0.0
9.323823335199954 4.049557759546529 0.0
9.283324894520613 1.736313094621396 0.0
5.858151623803662 6.22041808248046 0.0
5.759668475561988 6.038806123495502 0.0
7.836860473863919 3.191674397465999 0.0
9.348591928839294 6.75855034547469 0.0
9.293979592221298 6.870213350675044 0.0
9.170543172728557 6.879819332293818 0.0
9.240028263813034 6.983394994050525 0.0
4.347372565145963 3.312731475520695 0.0
4.114183445909965 2.96879678229065 0.0
8.616264880152233 4.042035981070631 0.0
9.403174760076901 6.650407069150438 0.0
4.173860112179449 7.723461240865885 0.0
9.365302975518428 6.973476802087294 0.0
9.312420275675276 7.088420778208979 0.0
9.184876614539778 7.0978133687822 0.0
9.25921281729617 7.204979813006656 0.0
9.12816413817609 7.21569648263899 0.0
9.203944409919862 7.322703303071253 0.0
9.334311975087337 7.311477957762272 0.0
9.280415785210538 7.428795599957155 0.0
9.274060219641907 1.066603180421249 0.0
9.211820491509728 0.9316562593680151 0.0
9.050684011148748 0.9017681241401576 0.0
9.441953732403995 4.432092590771756 0.0
9.394725873909666 4.526051349391942 0.0
9.43453556160865 4.048003950509361 0.0
9.378043599351757 3.952631412328806 0.0
9.289691247910705 8.890746792319852 0.0
9.228148443138926 9.030109127390128 0.0
4.440757888677695 6.389562448928118 0.0
4.689874463978985 6.239329075084555 0.0
4.291519540095677 2.622920583112654 0.0
3.886073352912894 2.632778677714434 0.0
9.344015622314338 1.202401041544343 0.0
8.193292196814806 3.849649660906171 0.0
6.960946604527747 6.07044529864598 0.0
9.347708267319902 8.756364147482309 0.0
6.826423138602714 3.261415861395883 0.0
6.06309517882478 5.884563187328262 0.0
9.4085057714426 7.414123963607981 0.0
9.356416821537886 7.532359471354527 0.0
5.042074134251055 6.938947182785697 0.0
5.063988238156824 7.311205832605263 0.0
3.946666851334923 3.30681624613374 0.0
8.189857914071878 1.939951128540477 0.0
7.880690277686857 1.38928908049477 0.0
7.63766396748483 1.399736360041063 0.0
9.345004233592562 1.857695941115052 0.0
9.440465164139875 7.085860901905448 0.0
7.918332480761888 5.744468010879592 0.0
9.08007135068879 5.372457017512481 0.0
8.78639561093144 3.718391405525285 0.0
9.356843485085705 0.9414458825132457 0.0
9.29705128845331 0.8103081541678832 0.0
9.251825423225316 2.451701826351773 0.0
8.483895366325516 6.270717564685176 0.0
8.346386886249478 6.275973306650227 0.0
9.493299170161215 4.138582531223591 0.0
5.321115649032961 7.117073603021904 0.0
5.354076009109965 7.436189411362466 0.0
5.597984079819928 7.254284331170681 0.0
5.644042313435943 7.564172740776336 0.0
5.383963016128051 7.753854027984002 0.0
5.681168258142109 7.880444993178456 0.0
5.935548099874979 7.687258900444162 0.0
5.979508404301389 7.994332725561488 0.0
6.21936843555201 7.802335560754011 0.0
6.267092590637372 8.104873033518185 0.0
6.498845418385807 7.917606504106031 0.0
6.544600005636809 8.209910620392591 0.0
6.77336078689533 8.027284686082275 0.0
6.814840179123049 8.311778392637773 0.0
6.721304148677048 7.737863326704131 0.0
7.031320924898797 8.1335673274533 0.0
7.077388928622946 8.403901803728003 0.0
5.417471987089176 8.090112295667405 0.0
8.845427688507666 2.446352368201366 0.0
9.318512319918124 2.339233739859646 0.0
9.380241452597096 2.451895615249572 0.0
7.283805558009199 8.237518806365102 0.0
7.329200330160381 8.497045124353782 0.0
7.233272584416691 7.991590926766813 0.0
9.142592248414191 5.471315142785471 0.0
9.196303265878848 5.36738298742727 0.0
9.25795832955665 5.465260877691205 0.0
9.310581303233182 5.36341558704714 0.0
9.371094700882272 5.459458038195667 0.0
9.422767107822985 5.360687090455724 0.0
9.36402660964156 5.264821436196721 0.0
9.474220736978928 5.262802348886269 0.0
9.41680330511366 5.169477108906666 0.0
5.168675939028436 4.895496152382537 0.0
9.482591449057548 5.454699312257291 0.0
9.431567605310825 5.552723344040521 0.0
7.531449703396948 4.741663470323411 0.0
8.517293123442691 4.672601123164268 0.0
8.459978676626639 4.778466809901586 0.0
8.396595115309985 4.67568709170855 0.0
8.338966609235166 4.782101664607259 0.0
8.275355646032752 4.678829956447008 0.0
8.217675280223542 4.785699596769931 0.0
8.28149024865807 4.888803783902183 0.0
8.16019781596952 4.892696417098926 0.0
8.22433278506531 4.995725219088695 0.0
8.102825704443651 4.999629142625341 0.0
8.166887930010795 5.098242831115916 0.0
8.034904900788316 4.896825406879729 0.0
8.15353539905931 4.682103688185489 0.0
8.211891449058882 4.574219757233394 0.0
8.290305306104333 5.094007100958221 0.0
8.225684228618732 5.201525567655179 0.0
9.444618942559746 2.343141375196729 0.0
6.929446520625337 4.868116916840016 0.0
5.737810725167649 4.893891407574175 0.0
8.720389971487277 5.38508368411851 0.0
8.805734920311323 8.951818172412821 0.0
8.905272694453211 9.083303226359831 0.0
6.006155038818204 5.171375272745409 0.0
6.431496448228514 5.152985998213245 0.0
9.052675024457304 7.106590131831544 0.0
7.740007013494393 6.09727525827826 0.0
9.375852260355511 9.013078430361404 0.0
9.32035844773103 9.14584923943073 0.0
6.989707597683965 5.146377438798643 0.0
9.488190206836386 3.951168069367155 0.0
9.432429152094464 3.855725756072153 0.0
5.568386402814275 5.185723849666124 0.0
9.525561551078322 5.166162126187324 0.0
9.465026391994275 5.072601962964018 0.0
9.320357339516937 3.857795423728873 0.0
9.375955927831914 3.759314274140895 0.0
9.261783786753899 3.761412578759438 0.0
9.31820665563318 3.661845422072752 0.0
9.431798673168924 3.660830894813109 0.0
9.374584413615914 3.563138564686839 0.0
9.48759661134647 3.562294297118573 0.0
9.431339678707085 3.464016717943268 0.0
9.417896212887529 1.746970678437863 0.0
8.731705369070733 9.110902182838881 0.0
5.652297951447118 6.21188565774667 0.0
5.569122518069258 6.024400786163834 0.0
8.257007204149394 3.505875091031567 0.0
8.717428603143034 2.925525757227976 0.0
6.882852832747376 8.57686572931064 0.0
6.337330066435714 8.416819098143066 0.0
9.50188906539997 4.521022403818629 0.0
9.453500859905136 4.617181635748691 0.0
9.46806769570129 6.749352117850711 0.0
8.836822104875719 1.72282859852854 0.0
7.481071063421426 5.64593758994851 0.0
5.668814988976305 5.86611128457842 0.0
5.487644760735084 5.847591822776978 0.0
8.993992818065195 7.228173913870249 0.0
7.98322414937693 7.229980191466666 0.0
9.22810751684646 7.54864871395298 0.0
9.304103360459063 7.654622011545798 0.0
9.432787371848761 7.633691049023619 0.0
9.382619818023882 7.759136995934441 0.0
7.239096822516492 4.679179578301165 0.0
9.47692479956498 1.861231395362419 0.0
8.041243110813022 5.095895152648969 0.0
6.190208781188077 7.509864122823853 0.0
9.283062812782122 4.549418667685757 0.0
9.503847665760087 2.450295046295932 0.0
9.443345385250678 2.557904120404248 0.0
9.52009568463353 6.644015937008899 0.0
9.203119005973903 3.662458522935253 0.0
8.406198651282708 5.92630414760378 0.0
8.467263597743843 5.811987729136874 0.0
9.461423029059445 9.128120577356565 0.0
9.408445330070542 9.26024300250086 0.0
9.266505293379728 9.277952925446408 0.0
4.14874709022218 3.631681332690154 0.0
9.437448107949258 0.8198473430736303 0.0
9.376993771693973 0.6910550697058979 0.0
9.22882356848217 0.6931820370818127 0.0
4.451823867195988 6.103664366188579 0.0
4.200031743909027 6.232039028149317 0.0
4.687154754667774 5.975132870483986 0.0
6.268889397098538 6.592235545990395 0.0
7.509366161722768 8.340075462391164 0.0
7.564775703413765 8.59800936579159 0.0
9.542148732924264 3.854614593058991 0.0
7.036231103929761 6.550562550831048 0.0
4.089373665437328 2.268193930262139 0.0
3.642558884866483 2.250386188148396 0.0
3.442182385618804 2.651948803899947 0.0
3.146832503011753 2.222630466765926 0.0
2.948870467975985 2.805088883766417 0.0
9.352005315330274 5.067356449300542 0.0
9.31729677031493 3.462944187594675 0.0
9.37428383619102 3.365546369736205 0.0
9.4883538239391 3.365384871181599 0.0
9.432147665178338 3.267287636377487 0.0
9.25034519267688 7.775848812012313 0.0
9.332091350002502 7.881724023243533 0.0
9.462101000264603 7.86490055671988 0.0
9.413353271651825 7.98561007219363 0.0
8.273592814723814 6.158623919352561 0.0
8.207135014732339 6.280394934566054 0.0
9.541483811580331 5.548224291759592 0.0
9.491365919893726 5.644847811894615 0.0
8.088095771120983 4.577581369371366 0.0
8.14760102783746 4.468303741922308 0.0
9.556217963323956 4.414867468889523 0.0
9.543667331547693 3.266908751519594 0.0
9.489307652535885 3.169908976697059 0.0
9.26285575842982 8.635341362685686 0.0
9.403220742003983 8.621447866627538 0.0
9.326013417886902 8.506778946171965 0.0
9.455477927154853 8.503896705359047 0.0
9.566646674069602 4.611465258087684 0.0
9.499341049870914 0.9352184973273918 0.0
8.683891958597638 1.444705608998412 0.0
8.599973456173778 1.287265568270043 0.0
7.760988189317371 1.175381292562583 0.0
7.50927661322749 1.171223823957793 0.0
7.380927152434357 1.411062577009695 0.0
7.242417847270241 1.170759311509981 0.0
7.107236746116019 1.421234419770886 0.0
6.960799033544566 1.169618322344823 0.0
6.817786081200392 1.434174581170586 0.0
9.48095050141868 8.738557748483624 0.0
9.319762046171894 3.263060331456388 0.0
8.920653400180534 7.117307656029475 0.0
9.452431221190624 6.544166520883111 0.0
9.571407933653493 6.540336592280795 0.0
9.507586285214174 6.443281357841339 0.0
9.575252974749443 5.070210512157044 0.0
5.755172844377253 6.370710487467459 0.0
9.541351959064952 7.969072511059531 0.0
9.354607289792183 9.3921968735401 0.0
9.495213435762107 9.37218405175897 0.0
3.77688136092967 3.643094492921176 0.0
5.460967180339239 6.159077196937325 0.0
8.656589552918996 5.283032675040985 0.0
8.599307076390474 5.387421722684671 0.0
9.584017606465821 5.263931993965828 0.0
9.51536593891754 4.977534386249715 0.0
7.788544970111893 2.70578432810479 0.0
7.381746833264364 8.755477463411431 0.0
7.615969996822885 8.852710176548548 0.0
7.783643411970649 8.691528137204457 0.0
7.845017394185501 8.938777577473743 0.0
8.570520580943368 7.342304222498308 0.0
9.103648004226827 5.781084627507008 0.0
8.338082930126799 5.815990105349368 0.0
8.930848895071895 4.561111316304916 0.0
7.381089602119859 5.983657236035151 0.0
8.42066837692862 6.393608568217351 0.0
8.888256157021065 6.459558428285236 0.0
8.826495664731354 6.575679897210801 0.0
4.22522220414496 5.921354747981145 0.0
3.943296448343383 6.075578573904587 0.0
9.563175937841836 2.554860696349795 0.0
9.505342423182917 2.656889632284623 0.0
6.660863480070611 1.168750929063519 0.0
6.518316961679488 1.436478598119306 0.0
6.683474168246802 1.694104067636375 0.0
6.376799057174731 1.707382100972048 0.0
6.205091481342603 1.443621641108414 0.0
6.058670988071357 1.728841803855816 0.0
5.877457486049096 1.454297236926778 0.0
5.724979192982589 1.756666409586195 0.0
5.529885788012015 1.462283739157555 0.0
9.514953777019835 0.7018468683209754 0.0
8.398665270372675 5.702731562702358 0.0
9.456442249775696 0.5772068858285652 0.0
9.565795671866349 2.345573662774494 0.0
8.830758563027459 9.247271599108435 0.0
8.523580738257648 4.88015211128435 0.0
5.580123316488715 5.701889892660689 0.0
5.398591029446707 5.685938459654249 0.0
5.367686360823392 1.778740548277203 0.0
9.546603444041448 1.754984055696778 0.0
9.489649223089446 1.641312329051244 0.0
9.617973952467912 3.363804764345866 0.0
9.584322830999731 6.729956156156573 0.0
9.597221861144487 3.948534024289882 0.0
9.49401963819799 8.089507968561776 0.0
9.207321074262563 9.416906871900888 0.0
8.27185428346661 4.464932191097996 0.0
8.207416067213774 4.35878753684812 0.0
8.332747746635944 4.354903699457511 0.0
3.990181919126853 3.930792395858886 0.0
8.267392138262498 4.254008221702929 0.0
7.997788712685495 1.196805377512679 0.0
9.600316638269724 5.639973985281733 0.0
9.550939606739425 5.737313319038155 0.0
9.44084303195315 5.74233753256161 0.0
9.50112296154558 5.834555019909565 0.0
8.897429225733994 6.685415510921676 0.0
8.762930941408914 6.695907295903629 0.0
8.654628175336732 9.278157371342388 0.0
8.544676900803436 9.133790942553834 0.0
5.294904777716057 5.855935872688884 0.0
5.216749389964556 5.66865685845661 0.0
9.508453581298625 2.239460033375932 0.0
9.599691370793206 3.169496930704394 0.0
9.546615051106684 3.073514534194011 0.0
7.484714626923596 5.028675123117963 0.0
9.588496050271255 7.850836295555126 0.0
5.153197381012662 1.471340286561097 0.0
9.433168304679345 3.071871997104804 0.0
9.610464706874994 5.829217654498672 0.0
9.561407772947403 5.926179534044419 0.0
8.273381980676042 5.705233340662362 0.0
8.330794188929296 5.594351887246082 0.0
8.207319603076424 5.596747949305344 0.0
7.251338559467102 5.233758892662348 0.0
8.708518799790543 1.130513882092466 0.0
9.590155250193266 0.5878623138195824 0.0
9.389919385420015 5.841079912164009 0.0
7.991397852194216 5.859910582924319 0.0
9.624951589233206 4.975554514425905 0.0
7.240016788025947 2.531866266726309 0.0
7.635666783493215 3.873554782053258 0.0
9.608476620993713 1.863530872936442 0.0
9.365330459496413 8.10677840682376 0.0
8.775076110585598 2.572737931759856 0.0
8.699389445914996 2.444602334375113 0.0
8.625078713232146 2.580891022578613 0.0
8.54447196848446 2.447624719286678 0.0
8.468898498943965 2.586757328881282 0.0
8.62282309213608 2.307826916202421 0.0
9.622102662978762 6.439307895185218 0.0
9.561995355724862 6.35103962032292 0.0
3.898245450818314 1.856155797593496 0.0
9.681759177700954 5.07069253017652 0.0
9.059254996454502 4.963357716933865 0.0
9.113144532326562 4.861710138088372 0.0
9.62140874877204 2.656009146517733 0.0
7.884510615470827 0.9666888912541309 0.0
8.14902661050739 1.005010215149227 0.0
8.491263206618079 8.527197931363634 0.0
8.408859203395778 8.697060715788105 0.0
6.54422152733529 1.954566069381189 0.0
9.563546573097593 2.755667904356369 0.0
9.453065492925557 2.761122255953964 0.0
9.676889098520615 2.755084315170127 0.0
9.678287124781653 2.556838324720633 0.0
2.60254317790297 2.278874965850319 0.0
9.211706272534968 4.050470567310489 0.0
8.526711683538949 5.698821878547752 0.0
8.296604023060945 8.533761944401608 0.0
9.649704314258118 5.543946557831669 0.0
9.651176136337964 3.85122804518279 0.0
9.44590154800397 9.498503704959054 0.0
9.580491248736612 9.476376347552954 0.0
4.3239388803087 3.921156392977062 0.0
9.65737873521736 3.075324100817917 0.0
8.128000846282253 6.160273991836929 0.0
8.06242981852327 6.292371360998262 0.0
8.500465019503922 1.442700595221201 0.0
9.615253212967009 1.649819368149096 0.0
9.561768620580791 1.538553925606111 0.0
9.435477757657937 1.527391516499924 0.0
9.627993450010088 2.242685831452484 0.0
9.5338252733548 0.4673994795805215 0.0
9.398055066504014 0.4589059948533885 0.0
9.669486082509058 5.920177035588319 0.0
9.621072177439727 6.016493814615133 0.0
9.506185962103057 6.018397021409126 0.0
9.196884440497488 7.898824858961557 0.0
9.112591143666748 7.789491461180181 0.0
9.664357762385308 7.950712034233033 0.0
8.46233617997115 2.308903464128035 0.0
8.547917980328803 2.169381684694277 0.0
8.139931430059324 6.410762600521521 0.0
7.672499127532963 9.099143622036436 0.0
7.91372855627271 9.178704612763656 0.0
8.463425076318451 9.290653726808348 0.0
9.643938029094286 9.335632419679458 0.0
9.647017668702574 0.7068996148634754 0.0
6.241662276606473 5.884018212993202 0.0
6.157742245066693 5.73500474100449 0.0
6.318815619949124 5.730068085823802 0.0
6.247706374231452 5.593094310939028 0.0
6.406948541886973 5.593272398468375 0.0
6.092564106310554 5.587409338401505 0.0
8.535507922245372 5.286142900439676 0.0
8.022959839404006 4.471630490587016 0.0
7.963561162854596 4.581393556789843 0.0
9.683487139413305 1.546750704925431 0.0
9.630761777960082 1.435922217091829 0.0
5.121714348989337 7.950140247572198 0.0
5.136464096196084 8.310254432483559 0.0
5.47349124035624 8.455234262268478 0.0
5.176273618280354 8.687190323573228 0.0
4.796664658962938 8.592678692862421 0.0
9.568705729418735 4.887269869750176 0.0
9.462711651199594 4.88832222094458 0.0
9.674903475028225 4.882285174433025 0.0
5.4996067353406 5.546583260717527 0.0
5.663632234555963 5.557613452957074 0.0
6.829408195405585 1.947174574944512 0.0
5.336529198289861 1.127585641139875 0.0
9.672387559812332 6.34138351957329 0.0
4.463988917379896 2.271060678869338 0.0
8.618048281355405 6.263841736419089 0.0
6.480949808711781 5.74815588680617 0.0
6.562207427719153 5.592185077216444 0.0
6.643040463857446 5.721233693378952 0.0
6.712825900331884 5.588664360236 0.0
6.79240375630333 5.711383948285569 0.0
6.86115931532141 5.584697050428064 0.0
6.939210100691576 5.704407337029545 0.0
7.007668476576536 5.580801046893123 0.0
7.084627386867475 5.702817970154801 0.0
6.633257976075473 5.460881327825488 0.0
6.931430743764456 5.461960451448691 0.0
9.682652370938209 6.533133024505995 0.0
8.761108695241376 9.450742747770144 0.0
9.146031326900015 3.764292700000154 0.0
9.089378801805193 3.661317181076136 0.0
9.514354521818781 8.994988681611192 0.0
8.157650730500988 4.262987189670279 0.0
6.329633198899328 5.4647789391701 0.0
2.340685767996258 2.811285337457589 0.0
7.379572471323651 0.9290892725587991 0.0
4.171878172186605 4.222320767259098 0.0
4.4876601621649 4.16473354200826 0.0
5.336389369563535 6.806464508860387 0.0
9.595468321212476 9.108133206829102 0.0
9.645038675267227 8.982113951305912 0.0
8.393140678816192 4.246338342095281 0.0
8.309440721624494 4.155300532283633 0.0
9.418269339704423 1.9925512363779 0.0
9.662781807969623 0.477809346089035 0.0
8.011297869803792 0.7518828483803571 0.0
8.250149975885678 0.7646904662196189 0.0
9.608674873602773 0.3618049194050078 0.0
8.692696069692623 6.582927327365709 0.0
8.628225948401226 6.705702462696891 0.0
8.701883181418305 6.822086652299242 0.0
8.559276855155542 6.829564723911442 0.0
7.069268463354993 5.459534423493629 0.0
2.654575201159115 3.323490466195074 0.0
3.610801136544596 4.044075244426243 0.0
8.263757217166944 5.48730323490738 0.0
8.138838162809126 5.491254533497952 0.0
7.90196833683664 4.477386962763833 0.0
7.987943097943191 3.978756490171551 0.0
9.704623491880403 3.945605151832784 0.0
9.461009573830147 7.301728818091931 0.0
9.532468631193666 7.399916015174975 0.0
9.582688928417856 7.292330983701011 0.0
9.652579613269625 7.387768793572397 0.0
9.699264016151023 7.282867433965265 0.0
9.633305589700536 7.188543855060478 0.0
9.505576100168666 6.961225778216469 0.0
9.43876966151099 6.342441564206569 0.0
4.908483672172518 6.098703904450545 0.0
9.135448256237908 5.269827196966999 0.0
5.905650502271389 2.025036080946255 0.0
9.709890722072377 9.452748507541063 0.0
9.663337613522643 9.572126259365891 0.0
9.603900123387826 7.495180532331903 0.0
9.720147629525837 7.483400774981126 0.0
9.674588415444239 7.588303295299578 0.0
9.653186673863587 4.039274180923234 0.0
9.053164539680804 4.764545162185531 0.0
9.164908495749003 4.763017269285045 0.0
9.226019227262443 4.858029410614327 0.0
8.809947621994619 3.4964384919072 0.0
9.10538997155458 4.665865142902959 0.0
9.331074106432244 5.748993480915537 0.0
9.055854333858068 7.918554535314415 0.0
9.446431573964945 8.209836764658437 0.0
9.573844810886287 8.191100251691205 0.0
9.309704769895653 8.244395007943949 0.0
7.240329561730736 1.676197957122907 0.0
9.543389817573933 3.660019800390455 0.0
9.598599341122098 3.563130123982772 0.0
9.652615161407017 3.658119804270645 0.0
9.706336063693934 3.564815526226687 0.0
8.632284427755456 6.946688912416058 0.0
9.682863230715835 2.349655023034811 0.0
9.571538455120994 2.142369886250143 0.0
8.090821900439733 9.017409120951333 0.0
6.812258669899192 0.9007667548831626 0.0
6.50135254578461 0.8974046495177885 0.0
9.598335906230732 6.246437748035812 0.0
9.719677442549804 6.253968775436637 0.0
8.593026822691716 5.180101360605356 0.0
5.537586126848265 8.836083861509138 0.0
9.688689404995035 2.143487155934306 0.0
2.821389253975936 6.507820864074362 0.0
9.176571289960709 8.507736431357309 0.0
2.918303740542162 8.256728920338826 0.0
3.428955230180972 8.401446814887457 0.0
8.490587404589881 6.715350139132777 0.0
8.86049054904785 7.243279881821806 0.0
8.93696309213556 7.356650230611625 0.0
3.951931175165697 5.78308550088855 0.0
3.65055612573298 5.91672400098539 0.0
3.668142216548471 6.247526235973777 0.0
9.717269848920886 5.821831227352286 0.0
9.708364917734201 3.164198601626433 0.0
8.45581975650687 4.569560863828342 0.0
8.204448312099833 6.040774355519757 0.0
8.65969449127868 5.485991799508151 0.0
9.707534571012967 5.634423933296901 0.0
9.62102991883279 2.849662850313935 0.0
9.144093558002634 3.560383427867003 0.0
8.29763273805118 1.77155302934031 0.0
5.280452715709455 9.01633391004168 0.0
8.984558945859158 6.99932633710603 0.0
8.4157550875812 1.275784953143711 0.0
2.068078118650995 3.355462780535101 0.0
9.205703884756806 5.568274778556933 0.0
9.745857863753141 7.178456670302003 0.0
9.681628895748586 7.081494416756802 0.0
8.875818787971069 6.240744812097083 0.0
7.993733797566922 6.414830952863579 0.0
8.462810157069566 3.377071044664789 0.0
9.29428363519789 4.759591981903337 0.0
7.933956818298286 5.97437536746848 0.0
9.028281726378319 3.558713145763133 0.0
9.083461773461467 3.455531762175701 0.0
9.73231939683535 2.849247643393067 0.0
6.70072305037728 2.192432536215492 0.0
6.423245125077639 2.212870246546939 0.0
4.931537051605536 1.135086496804522 0.0
4.746426561586179 1.500381091957315 0.0
9.707706579932626 7.836419656220658 0.0
8.590593344701457 1.595639668013959 0.0
8.708946574109854 2.1688179918246 0.0
8.634728854549891 2.028564483452208 0.0
9.230357659411311 8.129337203173913 0.0
9.102841374461482 4.452881308250647 0.0
8.472081531214734 5.388993924853032 0.0
4.925996806199801 5.844046944846857 0.0
4.702806345752284 5.745688656289065 0.0
4.884357002239844 5.633237011762874 0.0
4.709628434300812 5.536404116679045 0.0
4.530800966746534 5.627044171217377 0.0
6.040296145349247 6.603808099703576 0.0
6.162203578696918 6.795213950202512 0.0
5.923135943221574 6.824060069869489 0.0
6.046693245732212 7.010423490915212 0.0
6.297337598588478 6.979895528204233 0.0
7.760448385794147 0.7294020304851334 0.0
8.492228348169641 6.958778476405878 0.0
2.89219822877093 1.704113597264478 0.0
2.26178643438086 1.7814602252425 0.0
9.726968895980871 6.009547057102511 0.0
6.63195110828313 0.6072886418835157 0.0
7.984023036954866 7.515675826210831 0.0
7.893857204140559 7.681876703427663 0.0
7.778465117872411 7.537836322197895 0.0
7.998204230811618 7.844922503023499 0.0
7.798554315988981 7.858161805718108 0.0
7.917846202023782 8.03040048103727 0.0
8.547520504556728 2.721261126162116 0.0
8.39253850806587 2.732073315877738 0.0
8.306047241032278 2.59069854402512 0.0
8.233011054235162 2.739783364361515 0.0
8.318836035587811 2.879838477099622 0.0
8.159530874574331 2.888511553151382 0.0
8.245490421394788 3.024568439743106 0.0
9.759103003747676 3.077839427881478 0.0
8.083610090773394 3.033523757291178 0.0
8.174562583800352 3.166768504406541 0.0
6.046769434852523 1.155662270344939 0.0
6.968371001421964 2.176347877216873 0.0
8.324858098380334 3.152966249334499 0.0
8.145556596142626 2.609897633546475 0.0
8.970652052821418 7.804556541250797 0.0
9.033737629244714 7.681328986528639 0.0
9.62347010002576 4.796939565664328 0.0
9.72520380348743 4.790261082613535 0.0
4.882631186210167 5.455006233451049 0.0
4.618356368594037 3.933076284395493 0.0
4.748083507220199 4.151025177732873 0.0
4.641724290430313 4.358202249373887 0.0
4.87055838101999 4.337900676660481 0.0
4.974114446887331 4.149149057174687 0.0
5.081577844806959 4.3240148266423 0.0
5.179521650033781 4.148725180298481 0.0
5.276261408871418 4.316673822529601 0.0
5.369189110897883 4.148362797753505 0.0
5.463892033849439 4.338819369807593 0.0
5.550828466075906 4.146274465971151 0.0
5.646554822352869 4.303571429647391 0.0
5.728109623160046 4.138582010823754 0.0
5.821689108984419 4.291959598724587 0.0
5.906082534948073 4.141649907302701 0.0
5.99655838673762 4.288752711512514 0.0
6.077312859438928 4.141011188943332 0.0
6.164215275138099 4.281164574562373 0.0
6.241782344986693 4.140701084167517 0.0
6.324316420613108 4.277393447415522 0.0
6.40284165425941 4.140026953305852 0.0
6.483655157361099 4.273418937894759 0.0
6.561170698911611 4.136221843106807 0.0
6.63512300179586 4.269917278694155 0.0
6.720306110251473 4.133393659385058 0.0
6.63777078218551 3.99617001426095 0.0
6.802492763973074 3.994355399489989 0.0
6.798834760478153 4.276914787769972 0.0
6.15377608509923 4.000134206628027 0.0
6.548727135071258 4.400510710520637 0.0
6.251479300130713 4.421887359316258 0.0
5.275876048175579 3.979624500657822 0.0
5.910905077162284 4.431174408784691 0.0
6.717070288412452 3.851239795555301 0.0
6.883499045994213 3.852555480300214 0.0
6.96664848901999 3.994033961856844 0.0
7.048208567116626 3.854750001965969 0.0
5.810004974283072 3.982497501655442 0.0
5.586615391658107 4.471070246359201 0.0
6.547331954052155 3.853872077215347 0.0
5.179081233207816 4.485638492900557 0.0
7.126615227065496 3.995337770596979 0.0
7.209459742762513 3.856893463870469 0.0
7.130226097876905 3.713620439679428 0.0
6.63075064074106 3.699684148676045 0.0
6.446985573861992 3.697358756862005 0.0
7.043151422977365 4.131713936060725 0.0
7.198322215260019 4.129850614748363 0.0
7.119378405252723 4.26005098890218 0.0
4.797146270976422 4.525762781577414 0.0
4.608329098388589 4.573584257851931 0.0
7.294442092743627 3.720853338661503 0.0
7.215753312764997 3.571378507508807 0.0
7.049631633956289 3.568047985538775 0.0
7.133765707749521 3.414282375958479 0.0
9.755079417839903 5.539705890434435 0.0
9.698955703441971 5.450920012703194 0.0
9.717604099406742 9.09084770432896 0.0
9.276716006673976 5.847248422342224 0.0
9.339081208926798 5.941174203394446 0.0
9.031261921742963 3.750271483819014 0.0
9.08721978689863 3.853416037308712 0.0
4.801461566647803 7.510704110489921 0.0
8.206553504932042 5.818005960412773 0.0
7.362361315389098 3.863102442315545 0.0
9.492826845316191 2.963845037486267 0.0
9.376710375304633 2.97229517374228 0.0
9.3192743723601 3.070687802230453 0.0
7.915389082113898 6.293241865913004 0.0
6.735006382384437 5.832450056405368 0.0
8.456481836836168 4.35369289249905 0.0
8.517718268476031 4.246675068616396 0.0
5.583512022030555 5.411069060406398 0.0
5.73625200174779 5.422617752052123 0.0
5.81006929286229 5.548584937688919 0.0
5.903438861894402 5.420604003204523 0.0
5.43801870974416 5.402925156167655 0.0
7.022641548594327 5.825217331839047 0.0
7.165095795605366 5.826005223633447 0.0
7.223078558430726 5.690146755650336 0.0
7.841396000338385 4.586693006493787 0.0
7.904793170875705 4.690826189066096 0.0
7.785999820520073 4.696719777099973 0.0
7.846448506395101 4.798518978096564 0.0
7.728149182067156 4.803800941124008 0.0
7.788983823826226 4.904802634695232 0.0
7.672018889153144 4.910077510508749 0.0
7.731996012352178 5.014717724244488 0.0
7.852072803124419 5.00743796185411 0.0
7.779278698005006 5.118909346425974 0.0
8.088113864063853 5.605434545811022 0.0
8.016457362785575 5.494849890158723 0.0
8.072290383394757 5.385594956317259 0.0
7.95068657972964 5.38825563681957 0.0
8.309366678475389 1.438342408757099 0.0
9.748160780780179 1.447794693754379 0.0
9.696454228162398 1.337889922375316 0.0
9.568813761940916 1.329560834053294 0.0
9.638326779791626 1.226729570935787 0.0
8.472132467407484 5.182856496818138 0.0
8.066211547412054 6.53691730655352 0.0
8.217035586462373 6.522976700918602 0.0
3.544839338670893 3.324491119989469 0.0
6.999740002965287 5.347729916247808 0.0
6.874544698914502 5.347027470386579 0.0
4.880451234715014 5.193043717957879 0.0
9.104510033763066 9.313204713465637 0.0
9.0466357104558 9.45359399494339 0.0
9.146803165140184 9.569652364413551 0.0
8.134107047896672 0.5527712356100052 0.0
8.369770412730738 0.5571215815175228 0.0
8.47386979744655 0.7564607169846485 0.0
8.585193608569258 0.5749174254532757 0.0
8.683868132726584 0.75505070091701 0.0
8.787381435061018 0.5813987798627239 0.0
8.697570280442534 0.3771156480326233 0.0
8.530048434259976 5.077280516000916 0.0
7.995091351438729 2.90367515012593 0.0
9.731083608815164 1.662638626153251 0.0
7.260488865351954 4.255073962371814 0.0
9.760728358076392 8.990038509880067 0.0
9.716710396257366 8.884160310398862 0.0
8.794627466210242 7.369659405098349 0.0
8.868068657550866 7.515048014893154 0.0
8.702594597629135 7.510501129643432 0.0
5.132320689147051 0.7610757801158905 0.0
9.755852887652699 3.853180024615871 0.0
9.787424819067885 2.757921105725315 0.0
9.731193479931608 0.3736343090103709 0.0
9.796526908308536 0.489684029254899 0.0
8.226019692057042 2.453349105940535 0.0
4.560989821496479 5.428206018250252 0.0
4.348810639659689 5.517048281386008 0.0
8.785190163106925 7.119142251269924 0.0
9.015515413043023 7.464769766852701 0.0
9.754861440190705 3.659036930324926 0.0
9.7543610723378 4.033687839160082 0.0
9.707881226943384 4.127219992296752 0.0
9.52841017383273 8.309020665649431 0.0
9.65186044414544 8.289498614805698 0.0
9.714051275521857 8.173576484362068 0.0
8.209758892476394 8.715513071423135 0.0
8.097084883671858 8.548851201381087 0.0
8.177989947800599 8.367872862579052 0.0
7.974142434808908 8.36779470623567 0.0
8.409012054919861 2.142624252464372 0.0
7.707002321497132 8.039129945341395 0.0
7.574653123518228 7.83895791570255 0.0
9.229858094382692 5.951357214361815 0.0
9.75307989876696 1.229893222503321 0.0
9.715811155868643 1.128779429890018 0.0
9.597960915003707 1.117058287635912 0.0
9.672063923518955 1.020806103150243 0.0
8.99090422125785 9.593878510105375 0.0
8.133165456134304 9.257620998029804 0.0
7.976779931497633 9.420725324095141 0.0
9.77231778617502 7.927819487779705 0.0
7.957213679655531 4.364530256281665 0.0
9.609903116082736 8.403725680286847 0.0
9.724891358972584 8.388392708395173 0.0
9.687487059868507 8.495935345161797 0.0
9.810055520269009 8.494090598382963 0.0
9.755967487162335 8.599790818513082 0.0
9.645698986824481 8.606121319182705 0.0
9.721376049217765 8.699989876681524 0.0
9.773009257015609 4.884557953188837 0.0
9.830105798750992 4.796546393900876 0.0
9.775335108731761 4.686093304257503 0.0
7.455611517737074 3.730099283949135 0.0
8.906943567829634 0.4197477661467797 0.0
8.980613334153533 0.5814185917581446 0.0
9.081059111759728 0.4263421860552371 0.0
9.821654809259165 3.576985724143072 0.0
9.761309244784803 3.4792267780002 0.0
9.763329553045937 9.353068233045157 0.0
4.463051839136694 1.164440352584939 0.0
8.0213168204867 5.283436382300235 0.0
7.89385412333227 5.290429544753158 0.0
5.806940001023414 8.583716119232427 0.0
5.88977793877374 8.96065112858812 0.0
9.177759062826041 8.25539130897928 0.0
9.626582559276994 2.05283181283147 0.0
9.747673294325121 2.064954301745188 0.0
8.775905508647185 6.951821187702613 0.0
2.3581644273991 6.029034686663493 0.0
9.777798009058461 9.548066962498762 0.0
9.737129197219856 9.662299853506903 0.0
9.615080366030512 9.683349544763068 0.0
3.315839678697904 6.042943273456425 0.0
8.915083018115329 7.937748428923896 0.0
9.489832173860055 4.712364754630572 0.0
8.118313727862493 8.013944064029838 0.0
8.902248750797776 7.67372145952523 0.0
8.954075939212636 3.463080912810881 0.0
9.45247551997678 2.133243108303608 0.0
8.311151553157742 8.899233004613622 0.0
3.28672004268868 6.826745674539142 0.0
9.86008383798735 3.468233656255824 0.0
8.389990589860254 1.947086063498656 0.0
7.144231739553659 5.329544660076687 0.0
9.654500729007207 7.743301971143119 0.0
9.761920842881946 7.740144345898896 0.0
9.692820773976567 0.2651585113981998 0.0
9.690951720399688 6.100517071814821 0.0
9.775704281989471 6.077882312279847 0.0
9.823117117198079 4.115168542267924 0.0
9.764391943581737 4.214465954230587 0.0
9.659455011849253 4.218716850797838 0.0
9.713462125022623 4.30742830316693 0.0
9.849638067150842 4.208845651573708 0.0
6.376241713254513 3.858766051594979 0.0
6.274931849158213 3.701528298009006 0.0
7.097780104117746 1.926449727602711 0.0
2.457742027508782 3.810157622192786 0.0
2.963634206580268 3.740748099915693 0.0
5.065585416063965 5.544355730437482 0.0
9.783560252464587 7.566507987677117 0.0
9.825819294611026 7.470942204664841 0.0
9.799976114123012 1.01659516618323 0.0
9.745559590633832 0.9150866860898854 0.0
8.20473400632469 9.495828670767946 0.0
8.784586030320169 2.054461500762216 0.0
8.758471587067168 1.888286802854785 0.0
0.9188935087347281 8.510730800272478 0.0
9.674192026048217 9.20389587377276 0.0
9.796314981283475 9.185916994648775 0.0
7.206882433199502 5.452024361489832 0.0
9.773927048949279 6.334665846819535 0.0
9.830288393591173 6.225300227041885 0.0
8.25177349297509 3.282767705830209 0.0
8.099233469407428 3.304040153764131 0.0
9.607860512870598 4.315652630490023 0.0
9.403674738018715 8.367349042046314 0.0
7.611756786273919 5.018691202305147 0.0
7.549513964643336 4.923310232561835 0.0
9.80986724662116 0.2915868356190958 0.0
0.7757562810577034 3.504187313079081 0.0
7.659562100664981 4.698467529240196 0.0
6.539424975891206 3.541729955691742 0.0
6.717348880400739 3.55221857686142 0.0
6.836337579501807 2.417476958454302 0.0
7.096480496160066 5.959124656438389 0.0
7.189742782777612 4.377051328076039 0.0
7.051723187622053 4.38470822973091 0.0
7.125489805519186 4.497018383456762 0.0
6.994915621927777 4.501504591168814 0.0
7.056755276274058 4.607929817497045 0.0
6.932937068803914 4.613249390039674 0.0
6.86629288290367 4.50541343988659 0.0
6.80427099775847 4.617607827251794 0.0
6.739195362053689 4.511124964201849 0.0
6.677260697693361 4.624288827143181 0.0
6.996760608675822 4.711715831373894 0.0
6.316045249462968 0.6456945497683586 0.0
7.321834163850416 5.816449323512759 0.0
7.833101485370825 4.390058096386987 0.0
4.996572652976738 4.498711166259074 0.0
5.112334577457371 4.663858846723513 0.0
5.271923064784868 4.629759173373871 0.0
4.93773508827367 4.668006487116195 0.0
5.348137647919096 4.485934621930562 0.0
5.413454827497575 4.62999925573761 0.0
5.356581113747675 4.770594395332836 0.0
5.013422223730484 4.793321773780133 0.0
8.58674425943957 0.9312335381466886 0.0
8.776450596582496 0.9362399987293505 0.0
4.783496233934828 9.486061758876032 0.0
4.544176394620909 9.034071856445296 0.0
4.082330493623582 9.015765881393772 0.0
9.820867469965414 7.285959215547852 0.0
9.852697883440127 7.166089674802766 0.0
9.260999083164238 2.971390964911171 0.0
9.197701900169713 3.073162109379564 0.0
9.31960210441945 2.867465579641856 0.0
6.660951583415121 3.383363199709994 0.0
5.210469976037585 4.761678854423166 0.0
6.740780285297665 4.733615686805694 0.0
6.611362405615225 4.731958642073806 0.0
6.549091884465382 4.629620704100811 0.0
6.491761716522486 4.733409494449344 0.0
6.425259228542098 4.640546096196947 0.0
9.715556659367534 2.986725573570596 0.0
3.710524324925069 9.463213827486557 0.0
4.768537031214573 4.727001037865238 0.0
5.039413681704655 5.378508462165627 0.0
5.188746429211535 5.440476671296013 0.0
5.172214816037712 5.298914527247826 0.0
4.469063601436893 3.667917323494335 0.0
3.799121596584382 4.741629285988305 0.0
3.661085664896249 4.442847704416992 0.0
3.316563386321876 4.380147387454913 0.0
3.802087298647255 5.26743535640985 0.0
9.738116341343215 8.047178982429934 0.0
9.85106076399546 8.021725551312715 0.0
9.837581050304836 2.844176011307251 0.0
9.664579962075123 4.402853107737106 0.0
9.76433159763034 4.39807801415352 0.0
9.718924973226878 4.487825491046641 0.0
9.826405563645343 4.494594135148365 0.0
4.931068003413168 6.359330991212394 0.0
5.130175746947236 6.201075257041828 0.0
5.143884286052002 6.445382329515047 0.0
4.953395875296406 6.628748468717369 0.0
7.833019185167153 5.400347121613631 0.0
7.766636138801143 5.313240048256084 0.0
9.767038723422333 4.578090619166644 0.0
7.315369355237483 3.441501197259575 0.0
9.556068971301514 0.2347811136726856 0.0
5.733871280791703 4.444861510772459 0.0
5.828809543126846 4.569791247698539 0.0
5.986701526182213 4.562881783985375 0.0
5.912543327921148 4.692966271273211 0.0
6.052130330528581 4.682477327897978 0.0
5.773525984744635 4.697697018456535 0.0
6.121646311546238 4.572302645403103 0.0
6.182349700936326 4.67713231096357 0.0
5.846371383601797 4.808939734754761 0.0
5.117807918383606 5.974361363083184 0.0
6.256132501905665 4.575863546153224 0.0
6.324770064521816 9.645040261272253 0.0
7.345522892050965 4.12581088034536 0.0
9.338523512844539 4.854480276600515 0.0
9.286984287289403 4.959628690044808 0.0
5.676298026114105 4.589279806918992 0.0
5.631257891894775 4.722749088404111 0.0
7.970415275563177 5.621040275419208 0.0
9.565118337557308 7.081391220827488 0.0
9.626201005045262 6.980441083020495 0.0
9.733729506193331 6.979928568877979 0.0
9.684556253529976 6.887102896543928 0.0
9.780785815410074 6.890287441101827 0.0
9.740054813822885 6.794211367612523 0.0
6.462628988057306 7.629921412015864 0.0
6.692564520952154 7.473594130811262 0.0
6.927983108788191 7.570982428592125 0.0
6.899878641134941 7.329306734748538 0.0
7.117542472438434 7.416951094809493 0.0
7.089537168123128 7.186691566729968 0.0
7.296585396514727 7.275888419524222 0.0
6.879678873774065 7.097443005287856 0.0
7.063454637059129 6.967740076426161 0.0
7.329105042924355 7.496317641003757 0.0
6.867084781778411 6.878842928865059 0.0
7.494278796275744 7.351949197351029 0.0
7.462564159480594 7.150140034494138 0.0
7.644835001206406 7.21506678718646 0.0
6.682478929414216 7.008358327294905 0.0
6.449199855715812 7.365660640952548 0.0
7.548139855358765 7.57299228324251 0.0
7.008502809092701 7.844601794812628 0.0
7.371739019901781 7.707688433423657 0.0
5.665345294602155 5.290628720253272 0.0
3.987583013016546 4.486920698115711 0.0
8.893480480320447 0.7785000884179994 0.0
9.715485963651112 0.5955299613117169 0.0
9.761785841543585 0.7048670948649375 0.0
9.670304314877074 4.578896619304786 0.0
8.058509626083154 5.744161686650483 0.0
6.181795443628869 5.462040811515966 0.0
6.256771804808641 5.338464817889848 0.0
6.124070400983443 5.352376180901929 0.0
6.399679261813415 5.349186390888865 0.0
6.477776305607503 5.46505688468465 0.0
6.541624525938461 5.346017118512589 0.0
6.673064575428321 5.339051516933525 0.0
6.599301548842115 5.241958624987057 0.0
9.573774011620444 0.815274945835158 0.0
5.86493292693426 5.877588788523632 0.0
5.552663040119136 6.957487930464628 0.0
5.535080960199246 6.663033131707637 0.0
3.708603689392072 0.5979254716153909 0.0
3.31896983256719 1.188583855309964 0.0
3.895664898001925 1.128137111173669 0.0
6.363360407965353 6.032416442205533 0.0
9.445959758065749 1.070139246426051 0.0
9.50632172780449 1.214052376665338 0.0
9.441030033980638 1.325047485624912 0.0
9.295799464644857 1.341410624832976 0.0
9.184164107767781 1.461677744200096 0.0
6.407191016756832 4.407273313799791 0.0
5.544591888593027 0.7652641669375747 0.0
7.883090151006535 2.497506182548758 0.0
8.073420508370992 2.120510489750234 0.0
5.494822040671399 4.732314720081375 0.0
0.8986976806403217 1.464611451578306 0.0
9.536325549598013 6.83286654168725 0.0
5.972289519322897 5.727532110854501 0.0
9.82203607053145 9.443411729566549 0.0
7.263199949874008 7.064207941227515 0.0
7.233659553805083 6.853135694774254 0.0
9.793310082768443 7.072747972018893 0.0
6.734168931095253 9.67499220075154 0.0
6.941134861034159 9.382328333169653 0.0
7.285822522704258 9.443989747444657 0.0
6.576263515512108 9.333035011158342 0.0
7.160560566479093 9.127732577621245 0.0
6.218711947378506 9.298064908857533 0.0
6.432383355119106 8.980985203293491 0.0
6.795390278360442 9.046043538032663 0.0
8.54677014121837 0.1957422484480979 0.0
8.528696320820908 9.804850950580938 0.0
8.42644965647489 9.604735484095604 0.0
8.010239224104339 9.715048083583248 0.0
8.644359648763341 9.628432815860457 0.0
5.344212921686536 5.526744195650314 0.0
9.760936589662048 7.38409687515441 0.0
9.128187788393989 0.1445485608215519 0.0
9.133307661752394 9.854833215426817 0.0
4.867351616228264 3.944459575003425 0.0
5.905323253270366 7.385600364255367 0.0
5.909045412185362 3.361969954191194 0.0
5.80580919758911 3.569999290452344 0.0
5.578230704221431 3.587842862412673 0.0
6.013352753603037 3.550699073477782 0.0
5.936624955014758 3.721630401607248 0.0
5.735413275357409 3.78528948606432 0.0
5.512538847486775 3.794760621907932 0.0
5.360571639388366 3.618649018042938 0.0
5.134141179590394 3.459385929220745 0.0
6.167399567008798 3.367365990358096 0.0
9.766756262206602 8.291756450136036 0.0
5.486063578307141 9.64505925252771 0.0
9.497624614180321 4.328873442170357 0.0
9.811387324954623 1.570516917365688 0.0
9.389210081887331 4.69150887571586 0.0
9.704395728912932 3.754226393630331 0.0
9.808172776193384 3.748784464356272 0.0
6.549660911932182 4.839747932361234 0.0
6.757415124099031 6.077939876843736 0.0
3.805578542126494 8.040840085419626 0.0
4.232580149691158 8.198659880701744 0.0
4.559765382564095 7.87091698350757 0.0
8.3829075948167 0.9495097054886067 0.0
9.8571301061408 1.456307792614791 0.0
2.005900212453279 4.535525273813588 0.0
1.85904408608185 3.956445706785572 0.0
1.979307922430775 5.474327285927505 0.0
4.387923194305381 4.427191306527721 0.0
9.429258370703248 8.873693567695483 0.0
8.99196583083892 4.664567567015693 0.0
3.050357122593155 5.368999067452741 0.0
2.861107385476722 5.785089447130829 0.0
5.005058958272409 3.711196438448062 0.0
9.8972295764837 2.755337284632969 0.0
9.581048890980513 8.853909321617065 0.0
9.668838904423916 1.762418716497425 0.0
9.716576458425756 1.852218615166234 0.0
9.799043132681442 1.780583141193779 0.0
7.661868217848455 2.880323287492419 0.0
6.780136552904057 5.443858690999834 0.0
6.489544866845868 5.913957888434588 0.0
6.880149522020364 4.134257616716107 0.0
6.970134365280068 4.264072319341612 0.0
2.225481516813409 9.348422240784 0.0
1.843418032490818 8.641605249943353 0.0
2.198000805242772 0.6459947140825729 0.0
8.740020306282506 0.1903932731609072 0.0
6.86957996016679 4.720776242956433 0.0
7.430920333506809 0.2702852342693345 0.0
7.302066064947383 0.6134316505458445 0.0
9.305398039877746 4.64854361125207 0.0
4.078151380865065 5.203425462519088 0.0
4.080704120371218 4.778853303303787 0.0
8.052525541571825 5.965483159581719 0.0
6.367194027835946 4.754896037842673 0.0
8.604191121620719 7.648182513679963 0.0
9.546446695207845 9.234701521982952 0.0
9.018652854946867 3.351011585453845 0.0
9.143853648154607 3.350173119015413 0.0
9.067079866763024 3.245174561579149 0.0
8.991492136849105 3.135578770028028 0.0
9.29603967712795 0.1426516429033488 0.0
9.392428271030795 0.2506306237151588 0.0
9.223973843394301 0.2912279164401488 0.0
8.39375191941536 3.018777714002827 0.0
8.4836475746111 2.88135207267795 0.0
8.741089053946197 9.821127577434911 0.0
9.803966507713174 5.448064463539533 0.0
9.748132240148552 5.359371181503531 0.0
9.850258990973547 5.355211921626304 0.0
9.7965346514158 5.266762244994661 0.0
9.84142096963129 5.171050273734619 0.0
9.738843612428232 5.167483913244169 0.0
9.64168976006725 5.359875132194057 0.0
3.335917453809221 5.671837672982919 0.0
6.962669142802881 1.683222554707996 0.0
7.365210844496719 1.887492842536114 0.0
7.517378971174123 1.677983072937792 0.0
8.00383870208024 6.089394601875145 0.0
1.725435941000569 2.759295503019395 0.0
7.907977929549089 5.102827208603365 0.0
8.052861051278896 0.2683271125209605 0.0
9.80169732768395 3.385443381464333 0.0
9.831597648680848 3.28491948963525 0.0
9.736335895866404 3.316207814499244 0.0
9.597256128490281 3.756160701977744 0.0
8.865819925321706 3.366235906378775 0.0
8.489614436807788 1.757152185195495 0.0
8.88089641144391 1.078983279100314 0.0
7.430923851187758 9.724389499796425 0.0
7.584252919312249 9.509430586267927 0.0
9.744026095940516 2.247117754488748 0.0
9.729961521243718 2.659836747108116 0.0
9.790866569780063 2.558993767350471 0.0
9.736606445116795 2.455104424879619 0.0
9.846806182714698 2.452157456754448 0.0
4.518102112052724 5.141350889745285 0.0
4.519880229178207 4.85678334497067 0.0
9.7302407894617 6.434012603549242 0.0
9.787537474544765 6.523591663056312 0.0
9.744262337067932 6.617499601377625 0.0
9.8406238811518 6.41591236129004 0.0
8.914967252734657 3.579360039684312 0.0
9.154797282599406 5.670753066089419 0.0
4.228839454580575 4.612979739018002 0.0
6.095037541675208 4.42126627187728 0.0
9.304166983880842 9.864854494751789 0.0
9.406445527105628 9.759007358529582 0.0
9.256225114941945 9.700832989525724 0.0
9.796206564635622 2.351215649506205 0.0
9.849373673349081 2.25090453834006 0.0
6.332048155295931 3.511675163099286 0.0
9.069679774213784 3.022879178706259 0.0
9.070599961450037 9.055284879641471 0.0
1.808685691036764 6.331557276533421 0.0
7.120156826652838 4.698481230214924 0.0
7.052894345811342 4.799848851879358 0.0
4.739957520484086 5.369107149361242 0.0
9.389197839958292 7.197139943834638 0.0
9.046688232613976 4.560364044038737 0.0
9.162685461967492 4.562194096410666 0.0
4.227377821420887 1.564128177298305 0.0
9.201090975245227 2.794301402811909 0.0
9.251941624303948 2.677556975242327 0.0
9.186758273070138 2.563916005021366 0.0
9.317609833868786 2.560335260954038 0.0
6.57599191748324 2.437689779955877 0.0
6.305556560534859 2.459112595979303 0.0
6.981058048792093 2.642476994448363 0.0
9.886113463139504 6.510498309609482 0.0
9.250462794607717 6.221362629571698 0.0
9.305373999084068 6.108271307139882 0.0
9.390477915810829 6.228015172491477 0.0
9.44452571968143 6.114582165110393 0.0
9.502105740270528 6.197677857389309 0.0
9.31559697209813 6.331647407124485 0.0
9.370938253597153 6.437386206819511 0.0
9.594764406124872 0.1099001288712305 0.0
9.602872681151728 9.894988341116305 0.0
9.622661196143387 8.076680696281343 0.0
9.769069277144705 5.9102532189237 0.0
2.615076109785583 8.807551523115547 0.0
9.658920005405456 5.730890135691177 0.0
9.76063135061807 5.720703211793342 0.0
8.63963723169499 7.177334225227945 0.0
7.841904391869763 6.41346852896409 0.0
7.764520718520185 6.297267738834625 0.0
9.546492996136271 3.465225175657335 0.0
9.25600964352143 2.219157062786616 0.0
7.625057159226293 7.012987957636062 0.0
9.529121062829038 7.730283486008674 0.0
8.329887090625894 3.845190321147069 0.0
8.265841850823831 3.95687001944245 0.0
8.402006523775544 3.947660780406651 0.0
8.128436391670505 3.968543393650448 0.0
8.46705122470662 3.835767362024195 0.0
8.218867047074696 4.063481375518748 0.0
8.089763413611255 4.08062363292928 0.0
7.939578083855268 4.111915744184436 0.0
3.74991304509639 6.615676756107112 0.0
2.627714335615619 1.170993030860914 0.0
7.046129971268607 6.759930788612616 0.0
8.534603732661887 7.486325780553722 0.0
1.569381386467569 2.042794535871475 0.0
6.228703743210918 1.986421863690014 0.0
6.467030855792859 2.67190498312861 0.0
9.272246093269825 1.975478263632296 0.0
8.05269609263041 3.854522845257449 0.0
8.008595521536957 3.177870309354594 0.0
7.929796740504207 3.350600835935766 0.0
8.048703574664067 3.449582532910417 0.0
9.72947480375618 4.973926800124758 0.0
9.784850360535604 5.072865219810449 0.0
9.896036387646596 5.069261557893528 0.0
9.633140953203334 5.168645132864771 0.0
9.558102991128836 7.602453108835212 0.0
7.278758746505716 3.994295887299482 0.0
8.306681733482405 6.936428510427854 0.0
9.487163072013963 3.757777670075558 0.0
9.532950522284125 5.359403698944497 0.0
9.816036650072329 3.927268437107025 0.0
6.173882586235392 8.734645960664665 0.0
7.972518459433741 5.003005338485466 0.0
8.398453459336153 1.601072016988848 0.0
8.97460527296194 4.040886705742754 0.0
9.037941657530773 4.143578781749325 0.0
8.849604200183613 3.828506169652706 0.0
9.545296177100065 4.042698359132156 0.0
8.595941796785514 5.806754902023664 0.0
8.65588412428292 5.694192853853139 0.0
8.723710665131787 5.801528918332044 0.0
6.861288985046249 6.673713222735126 0.0
8.87477249219366 4.664500928777609 0.0
8.72385765226959 3.608276264790996 0.0
7.145228858696953 5.573648565429618 0.0
7.282945121585866 5.558559688509987 0.0
9.224761401603633 1.602363370249125 0.0
9.609115686587552 2.986868833620756 0.0
9.633989947851914 6.628120633848649 0.0
6.046214325132457 5.45615093027661 0.0
9.017014346798927 5.271996636983457 0.0
9.070824864071271 5.168510834798647 0.0
9.189021391555556 5.166867900487267 0.0
9.123328759137758 5.064718588163964 0.0
9.240587446378079 5.06459430516883 0.0
9.250848280531756 5.267364371053135 0.0
5.773050603406019 5.7192906317521 0.0
8.576466432793914 4.3559007860436 0.0
8.634627802680399 4.253467736542067 0.0
8.461790117175607 5.591735227444779 0.0
8.907610717370224 3.713397213891439 0.0
9.80665594564509 5.628066492225966 0.0
8.985935132601089 4.455263493464225 0.0
9.00640209566022 5.067597672073404 0.0
9.833659276096986 6.976519563917422 0.0
8.0283368553477 4.687271895436317 0.0
8.326580191759327 9.127498457128247 0.0
8.650637373791266 5.07513089931925 0.0
8.701067313435203 2.700069743477523 0.0
4.825307249916392 4.884175191874744 0.0
9.418335984190309 6.858444798015129 0.0
3.91434687300816 8.542956908935874 0.0
5.569239724399552 2.064135034637056 0.0
5.234271567762738 2.128974435011933 0.0
5.757920427527626 2.312422707096966 0.0
5.43365689737979 2.427455772745759 0.0
5.673210219624612 2.602111218343444 0.0
7.214258468265766 6.652783071431555 0.0
9.823626269633962 4.30685540664529 0.0
7.96996639420014 4.794005510174826 0.0
7.616003332725032 0.502676560965646 0.0
3.050634530589821 4.659174799474146 0.0
2.870894249800723 4.246924313393336 0.0
5.285393339952368 6.079037173753393 0.0
9.439954241218905 4.23581687956071 0.0
9.67709722097145 4.710772408106511 0.0
7.40767785509217 4.259947873553335 0.0
8.396202587439676 5.486075637998701 0.0
8.323689688705493 5.372061002264632 0.0
8.191312386254125 5.384662546230823 0.0
5.304380054816289 5.369675374029755 0.0
9.093848379546637 4.047647920840374 0.0
7.916313220758624 3.045043876114836 0.0
8.435854831444637 4.144861908356168 0.0
9.060262453079693 0.7340576053322918 0.0
7.053195520344596 5.238809779682351 0.0
9.621762679347093 2.45205452967588 0.0
8.410730269104743 5.287995309529392 0.0
9.655094569234972 3.472720279371932 0.0
7.982140513923982 6.667914768024983 0.0
8.402690325256646 4.883576657130221 0.0
9.17488654147479 4.962006474835693 0.0
9.013188196102961 8.49700148123058 0.0
9.795977244531603 2.156818021002043 0.0
9.893813711206834 9.545820400859157 0.0
7.965349232662289 4.250048884270795 0.0
8.644264557989125 4.874751532150782 0.0
8.215430976121077 1.26077208565765 0.0
8.379717637669398 8.37324652769609 0.0
9.320026533461409 5.559861899725609 0.0
7.885778178744864 0.4977439426642278 0.0
7.547066983926719 5.125166613071239 0.0
7.657542898944819 5.122996245335209 0.0
7.423918840193691 9.000935553397358 0.0
9.854133000712425 5.541931969512857 0.0
9.328508174398952 2.101486405523264 0.0
9.300749600926641 9.530012105354274 0.0
8.130307182491519 5.277079344947874 0.0
8.346752967392757 4.987627363826086 0.0
9.118404185029991 6.007087846617186 0.0
9.048232213728614 5.89431792713258 0.0
9.088340967655858 5.576242562571367 0.0
8.094762487139027 4.789727191449318 0.0
9.915265904493378 5.749591413470928 0.0
9.92169805280126 6.154216704502091 0.0
9.918022441582268 4.549125436287157 0.0
9.919332362905616 4.849536560132457 0.0
9.914800786693318 6.750595509794719 0.0
9.811792900437824 6.703950687575952 0.0
9.900643083988882 3.749855087409844 0.0
9.912423171222734 3.043228996968949 0.0
9.91892875832665 5.949999999993851 0.0
9.913300070218703 3.960831593817277 0.0
7.709347001661226 4.444236534782706 0.0
7.479443107717332 8.071637285053104 0.0
8.839057072155848 6.807845119358974 0.0
8.972330068019902 6.78765448182788 0.0
8.542093772125282 3.941452413628317 0.0
8.279144752968262 5.930387616620717 0.0
9.393455876855919 4.973162505621418 0.0
9.507123333872533 2.855087674515822 0.0
8.77504684283825 2.317347145885344 0.0
8.394133129040345 4.464046960801843 0.0
5.725509852450801 8.210843960481027 0.0
5.62632390239664 3.967637659758752 0.0
7.910815814627989 4.900765971697654 0.0
8.595808444085467 5.590040244353608 0.0
9.705160502006024 0.8106158419444889 0.0
9.82021247904746 0.808810893177099 0.0
9.218352146075844 4.447736986422823 0.0
9.20781892622228 3.858281726888132 0.0
8.713609974387523 5.178241668554946 0.0
3.55755059259364 8.921522400238844 0.0
9.59122926011489 5.452844834281716 0.0
9.70565100407009 9.77887811062354 0.0
9.826938454219809 9.74303055702321 0.0
7.238962096855633 3.278078153406256 0.0
8.575609105166194 4.567807831727537 0.0
8.936449841121737 4.765835458965493 0.0
5.59323463391086 9.248527978398117 0.0
5.280809113285124 4.886132326418428 0.0
9.328132730893216 6.544753806716806 0.0
9.026944889277736 6.67247283515637 0.0
9.81946239021469 3.007926663525007 0.0
8.677633568960493 6.144049349297466 0.0
8.33427489656924 4.571212803519522 0.0
8.55734024448315 6.382535186588269 0.0
8.692399379422756 6.372347713955898 0.0
8.495817478252626 6.503308565233578 0.0
9.905494734661673 2.544078755559835 0.0
6.177101405266569 7.228490244483556 0.0
9.825373011845263 5.807482724503027 0.0
9.808678508609606 8.118683092442964 0.0
8.397717712407108 7.08010313863416 0.0
7.428555529689225 4.935946611338556 0.0
9.575504958128711 6.125633853639113 0.0
9.154066996197898 4.146562596982661 0.0
8.074381802159323 4.337569667261167 0.0
7.018337246891919 8.843475095716133 0.0
7.970627172560641 2.658650028065857 0.0
7.382546388883145 6.723381543491632 0.0
6.822972334933889 4.884555620881615 0.0
8.343732976791593 6.041576709398377 0.0
7.743680217306919 8.423336160305476 0.0
8.505717922983454 1.115022897794028 0.0
9.113973198216474 6.992972408167606 0.0
5.818882632841168 5.300437503812764 0.0
5.951991891717714 5.279516346785062 0.0
9.450183479138845 5.92934813870612 0.0
8.783346541536119 5.48419035750989 0.0
9.38074895894124 5.65076274999803 0.0
9.513658728876734 7.193620441323493 0.0
6.396040948797887 6.776064256962667 0.0
5.389661780244388 4.89715084345563 0.0
4.473247649068957 5.85935163892416 0.0
9.249586607512612 8.37680799459232 0.0
9.103796366487646 8.379197231055114 0.0
6.274057301184156 4.87985402946409 0.0
9.259628836118232 3.561431822636308 0.0
4.037922477011971 5.489409780163391 0.0
5.62712958624254 4.893925433488392 0.0
8.806426003347967 6.133410188141932 0.0
9.53304466499349 9.59279975429444 0.0
9.542890959420024 1.966631379116419 0.0
7.459736176874619 5.863847835420528 0.0
5.937613117200432 4.89232797168023 0.0
6.171611131472617 4.879541833448487 0.0
6.100695199816815 2.291172318314745 0.0
2.315194906726768 8.081958163666464 0.0
6.878489987598286 5.148099521847569 0.0
9.105264414399338 8.639184652727645 0.0
9.20047261316883 3.457820810661327 0.0
9.895329010385955 7.55944047105717 0.0
9.912742873006831 7.76210330502246 0.0
9.37761459375249 3.168397068877758 0.0
8.946121261512507 6.345629828835438 0.0
9.918632496443566 4.449809517365367 0.0
6.848211525651934 5.945010613369067 0.0
9.915721525903255 2.047407395915179 0.0
6.117255841708726 5.163321965161054 0.0
7.276595248786602 5.347247322210079 0.0
6.32682869954104 5.23674259421017 0.0
8.785886448438022 5.692775375342819 0.0
9.099994401883361 6.776698531382792 0.0
9.913397459621638 0.2499999999998165 0.0
9.910352525643928 0.4481571029410266 0.0
9.907850422008579 0.5479735220323012 0.0
9.911983631350465 9.24778487019403 0.0
9.917634740384067 0.7514684821956668 0.0
9.195214232985496 3.254172408378337 0.0
5.000896927376288 1.846006038077654 0.0
9.917172478547403 8.250155740683276 0.0
9.908120476950126 1.742986232208194 0.0
9.914524635720774 1.949567899316728 0.0
9.907358878377153 9.145625165175748 0.0
9.917695944922635 8.949999999998397 0.0
7.648387553139914 5.325741673607362 0.0
9.605343588986079 4.130627398479715 0.0
6.648113233057817 6.774798386229164 0.0
9.910347203087213 8.446729917003672 0.0
9.913623694530468 8.548470085896316 0.0
9.9201245863254 1.536225488581779 0.0
9.906538426683255 1.059019360781604 0.0
9.912867352010919 8.74999999999809 0.0
9.799662981388353 8.79550485462418 0.0
9.831828680383174 5.99966894118311 0.0
9.91414179906643 1.263025320602998 0.0
9.920690092699912 7.240982963665807 0.0
9.385889285950551 2.235126904097426 0.0
9.28133998925606 8.00415195851526 0.0
9.817074723108401 3.172398890123306 0.0
9.482030285089927 7.512954023388035 0.0
6.682432918504054 7.233889573028878 0.0
8.528699633246763 3.260502457553277 0.0
8.91699963742029 2.327016692708648 0.0
9.267676068834481 3.954520684561369 0.0
8.70811637467455 4.974101624783084 0.0
8.18184214270768 7.816666208279135 0.0
9.690393137288163 5.264344933127836 0.0
6.937111790104696 5.245184991960528 0.0
5.895846026722989 5.174232967273284 0.0
8.281683356622615 6.400073017261236 0.0
9.150883172924027 7.444273543454419 0.0
5.430406600793122 3.390815886517273 0.0
5.049583827974758 5.697634876048387 0.0
8.3966710383105 3.495813899905868 0.0
9.007538428392454 8.046563579784266 0.0
4.645155158868719 2.637132843684674 0.0
4.887444326771336 2.30020425915506 0.0
6.483736782775559 4.522536327482678 0.0
7.843169154548308 8.2116075844056 0.0
5.06295551628385 4.901632590583318 0.0
7.201400991012747 5.138239336380897 0.0
8.519791031104612 8.848807089071627 0.0
8.658623737989732 3.031313729049854 0.0
7.585566208322493 3.629882964874684 0.0
8.411818469596405 6.834326722716643 0.0
9.172363528634236 7.669230647622864 0.0
8.85455683341768 2.682483055215344 0.0
9.359398739738925 1.631421337140716 0.0
9.071793864444992 7.337030604117359 0.0
6.968394563521436 3.712808894519514 0.0
7.899236117684646 7.094583340182754 0.0
9.54362864504834 9.781852543872333 0.0
7.151298729743687 7.644795130415299 0.0
5.452218361466201 5.186873761308322 0.0
5.517642289161902 5.293540933999446 0.0
7.802500357665464 5.978295671754199 0.0
6.594850839687122 8.491429270558893 0.0
6.029132431949566 8.294997405201931 0.0
9.31286590869111 0.5672913838331921 0.0
9.25238720319541 0.4415953739444106 0.0
9.550589523211062 4.228044955453704 0.0
8.748611832783206 6.250900951984038 0.0
7.566980108995873 3.995148257893202 0.0
7.426142759241261 3.996743578498081 0.0
6.478912513785404 4.000296412419969 0.0
9.30435638148753 5.168210982711592 0.0
7.542154188520517 5.752525075248498 0.0
7.219033852073297 2.139582470800704 0.0
7.370913620388047 6.545121498197235 0.0
5.226731036024996 5.187572666585561 0.0
8.515591031124366 4.462223215179979 0.0
6.762864307079274 0.3078036604979366 0.0
8.587432696997471 4.977010533175154 0.0
8.703948448756302 8.815629076400704 0.0
8.081003990931544 7.370949680119862 0.0
7.424404567669909 6.949730915714445 0.0
8.578903262311433 8.377992954045473 0.0
7.301258690263783 6.106184350645308 0.0
5.991600556904204 3.99820087171043 0.0
8.203048538477193 1.601044215405025 0.0
7.289972483120081 4.572350254111052 0.0
7.714697186439165 5.420586967696794 0.0
8.918853780709807 1.841796898567452 0.0
9.919941345877513 4.749808449067644 0.0
7.245589454939737 5.94251251443003 0.0
9.258480524497795 3.358952871140391 0.0
3.705877615124628 5.574038727593425 0.0
8.287096858129765 7.962370605242409 0.0
6.799629860952143 3.705385600481528 0.0
4.146753450763018 6.544154457143895 0.0
7.413973555029582 5.545687501585183 0.0
8.466524978378082 4.980481756569235 0.0
7.336312153537934 2.337983522449311 0.0
7.695505222753409 3.747498713679684 0.0
4.898236813123799 4.795853653580084 0.0
4.59779105899602 1.896916774247134 0.0
8.560170375862322 7.072369101894893 0.0
8.386150468360862 2.449771437140704 0.0
8.41200018115259 5.084601315536367 0.0
5.102189912301071 7.621598618277815 0.0
8.336320418935243 6.71651223072348 0.0
5.081745734883095 3.977838926197614 0.0
7.63590698378166 0.9500570055008507 0.0
7.743369677149255 3.051233984704873 0.0
5.357527459690566 0.3809996753407537 0.0
5.967373112873382 0.7731113464301924 0.0
8.169449265206127 6.666271947462212 0.0
5.95122726745053 5.55758205410881 0.0
9.922289489207834 3.53923011719877 0.0
9.39154684476555 2.659037023454942 0.0
7.701415639167884 7.690060291860976 0.0
9.819179654793023 1.329863870021845 0.0
8.358229579054417 6.506108206863729 0.0
9.269720555169467 5.657096143475924 0.0
4.473187658045934 7.435037860084884 0.0
9.65807158077373 3.255496360750368 0.0
9.605155446454205 8.713645566904637 0.0
7.097383547728313 5.141197376985936 0.0
9.812212483832656 1.89920712759492 0.0
9.83875570675407 6.81603549325055 0.0
8.926246869879279 2.079976511571457 0.0
9.166785856141402 9.169070814302419 0.0
8.763479010228052 1.587152667342957 0.0
5.957377924852992 6.404530806530254 0.0
7.14506854375872 6.10342416684208 0.0
5.672595070581394 5.164323323112049 0.0
4.899782787268781 0.3801727265981219 0.0
4.447133848117348 4.673614099606824 0.0
7.044865074789195 3.253639989243549 0.0
9.818461337102992 7.819456450952447 0.0
9.925334577033155 7.954012377173311 0.0
6.352907898232792 1.173665225954276 0.0
7.351721385581032 5.660361289755705 0.0
9.337367583861807 2.76534436379692 0.0
8.693118347802024 4.360254099729149 0.0
9.476812970101324 0.3524826622168163 0.0
7.109868985890334 0.9024224571333925 0.0
7.899106846231403 5.511805431542581 0.0
8.352799544476607 5.187887629361129 0.0
6.957483547582747 0.6176251309213842 0.0
8.099559500483094 1.412323841044818 0.0
9.913030944540278 0.8542404645334569 0.0
9.143075088381442 8.022165366829135 0.0
8.819861450593166 6.356592599428041 0.0
9.319444417409162 1.49938505915629 0.0
6.490262520326714 7.118204362551877 0.0
6.490874470087819 6.582907761235813 0.0
9.82506653058937 0.6146757679104559 0.0
6.803129818897624 4.419048038171804 0.0
9.840901379354312 0.08198751964190581 0.0
9.839740374244226 9.918356239418472 0.0
8.551927134544655 9.449788917425456 0.0
9.92097857388158 3.249999999993177 0.0
5.797087413057367 7.077351493358238 0.0
9.255412859987286 6.433984412022419 0.0
8.668174522249984 1.740767926084485 0.0
9.920991430240607 6.25262219124529 0.0
7.57275248448898 1.94367954756322 0.0
8.052865444445507 8.19900054463639 0.0
8.748697149245206 4.25201068974208 0.0
9.158270227735827 0.5542256343091421 0.0
5.997487767477439 4.787924707603557 0.0
6.119759900601896 4.78043793682227 0.0
4.353034750397793 8.619182743639561 0.0
8.721093521611476 5.588932824583312 0.0
5.717101151444983 1.123034066822819 0.0
9.825602081347064 8.68753399402474 0.0
8.005502510832988 8.7824052910506 0.0
5.548184234622668 6.408009287230429 0.0
5.77830300433981 6.598697187164234 0.0
9.613093825495433 4.50282172481406 0.0
9.928981132641653 9.74928475696928 0.0
6.613628176297015 4.515513362596662 0.0
1.822126723816303 1.297795131355289 0.0
9.514164594137375 1.43081427463862 0.0
4.735494753432723 3.698541604583975 0.0
9.52844959749262 8.615213629960298 0.0
4.660704511759056 0.7947595073298008 0.0
6.82340845160293 5.239926830264399 0.0
7.885938077030673 7.380147032865134 0.0
7.884599891021201 6.09005968568029 0.0
8.846834820720167 9.653276456345532 0.0
8.457777199486827 0.3851010632068662 0.0
6.66485224572131 8.771510767670392 0.0
9.091499342133352 9.708315832477556 0.0
9.824286725109655 4.976315293637262 0.0
7.848197684391786 5.632217046637356 0.0
3.88430598115417 4.225391362015386 0.0
8.776890759183289 2.809688928468134 0.0
7.393884285023409 3.59397875231041 0.0
6.927568893329758 4.396788356869783 0.0
4.96854327720728 2.662368428358774 0.0
9.1480130720193 3.951479613991279 0.0
7.071049729490975 2.38092990636632 0.0
3.40193058782919 1.686321186206593 0.0
7.612042194200681 4.815904436723407 0.0
9.043395868401339 6.888481825015849 0.0
9.098933057562759 8.152197681006806 0.0
6.058682303253315 3.857501492181965 0.0
3.707092669281355 2.986685502034343 0.0
5.113272509841263 5.189455016444592 0.0
6.960565857079232 3.416349532571279 0.0
8.755151527375476 7.649255597361291 0.0
3.393680865444538 3.679982303262531 0.0
3.117424600120088 3.35605258976247 0.0
8.530814041264104 5.488376426140491 0.0
4.820719767306654 5.106646490188182 0.0
9.918899263509473 4.144927088739744 0.0
9.918194630017027 7.447268230913605 0.0
8.461970084137805 3.144844565847669 0.0
9.924415919486059 6.949999999995354 0.0
7.184050152099684 2.72771667662237 0.0
8.834356715215904 7.801565642745232 0.0
8.689015446783005 4.145232831954543 0.0
8.490778532265319 8.234414357968106 0.0
8.63666290918932 2.83060276219705 0.0
4.61028976098935 4.741894230894578 0.0
6.314735925012879 4.003132559161639 0.0
9.20786580425652 4.67001723737971 0.0
7.141401229301469 4.873205425098625 0.0
6.235177809922153 4.774126344778935 0.0
9.12491895896937 3.145675090615719 0.0
9.255747684068178 3.162525801823036 0.0
8.312852272796098 2.290855459722148 0.0
1.449266720542303 3.363629101350872 0.0
9.525687840398492 4.800807314407045 0.0
4.829905263804087 8.14474456977717 0.0
9.09338914689732 7.563794106183232 0.0
5.389401689694107 5.283808684471545 0.0
8.530979415204587 3.029374286908943 0.0
7.901489077080633 6.535344047486632 0.0
9.218572924671975 5.760893551533255 0.0
8.562382833959296 4.143913974026883 0.0
8.62959127904665 8.974877485888243 0.0
9.408442441596518 9.62276529745719 0.0
7.5034765601713 3.869833107932387 0.0
9.842813436634783 6.600620949014236 0.0
9.826116984327193 8.911617279149695 0.0
7.529907780698261 0.7369111006685982 0.0
7.832164962480427 2.905293639437395 0.0
8.39517908433056 3.267417602291069 0.0
9.823014010107707 9.085319632577246 0.0
9.022314123618541 3.944559746338292 0.0
4.243701230676532 5.332574856090426 0.0
9.816740542566388 1.127839952679595 0.0
8.166775715766304 5.693916696568397 0.0
8.865374421689054 8.068986769641638 0.0
8.761145809863661 6.470583506581853 0.0
8.998345275919851 9.209303502026401 0.0
9.698477487436316 6.706902829754045 0.0
6.439032098063426 0.3109134377713525 0.0
7.562681994382136 4.643158005207056 0.0
9.03999088074715 0.2799354672273258 0.0
5.180741540467516 3.805018725608906 0.0
6.243990330956698 2.718077286244967 0.0
9.79416634023361 0.1815240178579244 0.0
9.926540005061975 2.847049370876555 0.0
9.826476210374608 2.670192168078066 0.0
6.365816673179121 4.536333049275508 0.0
5.546353765219417 4.618331215552614 0.0
9.820703096450293 2.000649418331399 0.0
6.884388790679166 3.561583980715254 0.0
7.431303395649604 5.747824222777201 0.0
8.849816832721245 2.19318290395604 0.0
4.185147517585975 5.697469360586313 0.0
9.165905238119013 5.873664931582344 0.0
7.70479478158537 1.788324620089049 0.0
9.627376046933474 0.9196091445437269 0.0
6.657687963328663 5.144792385996769 0.0
9.83245016645186 0.3925568446109945 0.0
7.483092985762584 9.253837199159435 0.0
5.445348362202234 3.977855663863651 0.0
7.476680532833337 4.837183287808616 0.0
9.572749890969304 8.505160319814301 0.0
9.915853314998252 9.437014513917465 0.0
7.679469018350979 7.390484878021194 0.0
9.418139053434402 4.790576000488359 0.0
8.096967733471567 5.865447162201908 0.0
9.829153508938724 8.378494945652118 0.0
9.926595955569645 5.157718300415699 0.0
8.774484245600224 7.939747459426853 0.0
8.629764448155779 6.481031318922794 0.0
8.961169458302376 3.839036702328818 0.0
4.617199205561317 5.256318959792646 0.0
8.480815774219478 4.031210317621497 0.0
9.708341592512763 3.401018043990571 0.0
7.183974816647467 4.77882314543966 0.0
9.821437962294304 7.659391965474772 0.0
8.150320284869602 2.286501016204562 0.0
9.828114434347311 1.684891358832554 0.0
5.349187766238684 6.538177907133678 0.0
8.076053471314525 2.76180604769483 0.0
4.907713691134565 5.29818629967416 0.0
0.6874399366049438 4.328593906714074 0.0
0.6980011780697519 5.702671170050627 0.0
8.263861466707834 8.182284285231713 0.0
5.838783785156478 4.913981390426639 0.0
7.807619472656604 7.235706382002089 0.0
9.388504256318683 6.022122644748753 0.0
9.929839894767033 6.436189192303577 0.0
8.3205848711706 3.39107920408397 0.0
3.240770542267401 4.019899919523968 0.0
8.059047070496568 2.468855909103855 0.0
9.932479519490421 2.449625056415224 0.0
7.737639000139152 4.580708137963557 0.0
8.26141077223695 0.3940397126348397 0.0
9.69568953371801 1.959951226402445 0.0
6.469120930453264 4.892267070266994 0.0
9.167223997255698 0.8102256463122337 0.0
6.236889648241256 0.9291076084031108 0.0
8.306379082772498 5.268830342852036 0.0
6.716089118890225 5.239344620507032 0.0
9.82511981852641 9.282822358664017 0.0
6.68375719572285 4.404998642130821 0.0
8.913754712375674 6.908138360584365 0.0
6.173250048857013 5.251634416326969 0.0
4.235907497612446 1.924052997345291 0.0
5.151007663981651 2.438629730660893 0.0
8.924254300637541 9.3764975797567 0.0
4.438612423541503 5.287968640901957 0.0
8.571203234299599 1.897009944569934 0.0
6.878800676380218 5.821332862798138 0.0
5.710626178601224 4.792560699857408 0.0
7.149510071621283 5.216310009157644 0.0
2.099966541549645 2.334742113488256 0.0
9.93396330620579 5.350566393301629 0.0
7.143046479323961 8.646955109387985 0.0
7.965747313080266 5.193641450105844 0.0
6.3314394693073 5.135050228240639 0.0
7.665821333021348 6.222698255001823 0.0
6.305321657053551 4.659816230868476 0.0
7.833020917089713 5.208837056143474 0.0
9.41455902676429 2.869725681199307 0.0
8.567151507735133 6.598605357295113 0.0
7.405527786978573 4.377085529441429 0.0
6.552969697053132 5.137148974085434 0.0
9.93630620742063 8.042778076596578 0.0
7.166743296019233 4.593171678848165 0.0
6.595561806063966 5.839366735225723 0.0
6.066152182102007 5.262519562574559 0.0
9.834694151277489 0.9093455747994099 0.0
8.98259191950674 7.579732466796592 0.0
6.465071238839505 5.25485771955322 0.0
9.759759896588413 3.236659507608532 0.0
4.775529448101694 5.224235675150505 0.0
9.935991245222917 7.153416415978829 0.0
0.6530736820718381 9.352299998916202 0.0
0.6449439415299687 0.6468300344151556 0.0
7.804690364869245 4.495816547678174 0.0
9.84503784553893 5.70620404704573 0.0
9.83525329400959 3.826992990746767 0.0
9.922964894244684 4.265000406933376 0.0
8.333767638401964 1.121219971446645 0.0
8.876012546033895 7.019147158538482 0.0
8.172413577824324 3.413096916572049 0.0
7.232233017296214 4.478957103028363 0.0
6.214597295185415 3.852860083673202 0.0
9.85013791746415 4.400709747289421 0.0
3.941627380932058 6.342995010255737 0.0
3.097271569675528 8.77391871286929 0.0
9.292917152323044 6.010976049411984 0.0
8.104342196673183 5.184165973282902 0.0
8.994300084006271 3.652611812846807 0.0
9.937157897030163 5.549999999993244 0.0
8.721368888525245 7.274540720770752 0.0
8.920003648712827 0.9516585309368178 0.0
7.910527456030004 8.536826514867816 0.0
9.846441288756814 4.60515911863952 0.0
9.584942233925151 4.712073182517884 0.0
9.642357858573972 6.805672051759494 0.0
9.797024725252207 9.838837222258014 0.0
9.842451438022124 4.018973836958878 0.0
6.112723137676118 3.704473949316424 0.0
7.574641969193845 3.765362276156904 0.0
7.826594968121701 6.200366572362263 0.0
7.762805366733504 9.34009502796868 0.0
9.56854033867856 1.012566255816665 0.0
7.71256563655353 5.219373702836014 0.0
9.68039392238282 8.786964504862018 0.0
5.910362452777086 9.277662068919813 0.0
7.418090653922814 3.326443419100716 0.0
9.857704179097952 4.697553149694669 0.0
8.452469674653342 8.996585816905599 0.0
9.522351366699843 2.057525484575908 0.0
7.802315574700843 9.548878971475935 0.0
9.938875656926385 3.449999999992592 0.0
8.425189037911712 6.608575180629274 0.0
5.925965231566842 2.523669697740033 0.0
6.654918072256329 5.95749128982984 0.0
9.826748589235729 9.631118448471485 0.0
8.6684585637523 7.39633999085442 0.0
9.844673843931567 3.090088625379724 0.0
9.93613850661301 2.250382721159617 0.0
9.218291993658738 2.892108990205171 0.0
9.83502846611296 8.212781989607324 0.0
7.754136409732265 7.104288507262783 0.0
8.510570542791681 2.036933285735889 0.0
7.757745059307245 4.315798612475442 0.0
7.989231770559189 6.201656630465583 0.0
8.068934521422738 4.198631572122605 0.0
4.957478134450373 9.038766150325067 0.0
7.208661142641733 6.501402463831379 0.0
7.299506095906239 4.363561999234681 0.0
8.250303873550486 2.105322217421675 0.0
8.678637541413377 7.053471135702286 0.0
9.761528395137384 6.163503990672834 0.0
9.84494857233395 8.59999999999775 0.0
9.83825138794677 3.672838954969637 0.0
5.121008544047756 5.808127183024784 0.0
8.343911550360986 4.043535893276861 0.0
9.85324441775315 5.899999999993774 0.0
9.51114465213134 8.41035540646284 0.0
6.505812179224195 6.93390566262983 0.0
6.15572847138365 9.023097246950844 0.0
3.352081892333425 3.024853379890529 0.0
6.433163283162099 8.675072413910678 0.0
8.825744236698243 3.624446391299867 0.0
4.883007294861279 7.819620905924936 0.0
5.876659170760434 5.638247433601083 0.0
6.859400040348503 6.510797998354633 0.0
7.946400945409184 3.500317276373196 0.0
7.496830255505493 6.653194511698024 0.0
9.852183479755313 4.891525833556942 0.0
9.77998778436291 2.922486526124376 0.0
6.774672660492365 5.324728659740495 0.0
5.717254072187427 6.824125962512845 0.0
9.713440940838062 4.63793103997539 0.0
8.859858662536796 0.2721395536350836 0.0
8.37556017530946 9.436653414116012 0.0
7.395237381047616 7.885576562773319 0.0
5.4709157802033 4.511152089197594 0.0
9.489749416979361 9.691840729914848 0.0
4.599216022837964 3.46438688931078 0.0
5.572287492757569 4.807021644849729 0.0
9.926499336309957 9.92730688390086 0.0
9.926499336310107 0.07269311609890093 0.0
9.338127766332573 0.3585313952168247 0.0
6.810761948165162 3.414693294319008 0.0
8.166274345037138 5.943611545564389 0.0
5.2892644736731 6.301081312912763 0.0
9.731911074791544 7.649313380659622 0.0
8.90251102352767 9.50983415326544 0.0
8.997881406541017 1.033666784655452 0.0
5.835124768755703 2.738139962594905 0.0
9.665357480775825 6.185331297099201 0.0
7.656532192558493 8.217157287499347 0.0
9.170463887605525 2.975444721032631 0.0
4.208158615905443 0.8648302238584886 0.0
6.97015686031129 5.933674629077266 0.0
6.181941366523793 3.565885175921835 0.0
3.30313590337911 6.393402837735046 0.0
6.447482061767014 4.816169316820496 0.0
8.185341428749446 4.169172087371246 0.0
4.552595724340015 8.298301336212145 0.0
9.84850676569699 8.999999999998423 0.0
9.846941514449377 7.393642828194986 0.0
7.924592433490734 2.788309934035703 0.0
8.154308714226714 8.853640122009672 0.0
8.876629743004642 1.96110242719995 0.0
7.228849192966834 8.90811350348676 0.0
9.852301635085423 8.296637825215246 0.0
5.219795195341889 5.547413133147649 0.0
9.861497117995457 6.901363010201344 0.0
2.953911258021604 6.136007283255669 0.0
6.93158841067062 4.77708273647784 0.0
9.67540418457871 2.912802891506324 0.0
4.194055958522277 4.437353127730132 0.0
6.133959559341536 0.406856611599261 0.0
8.29952795189331 9.309744645643846 0.0
9.843692337952948 1.209647690818311 0.0
5.164986286280336 6.671544079402435 0.0
9.838533350075606 2.081705440779448 0.0
8.301244777513975 6.604088853319459 0.0
5.471494771710784 2.714598185146428 0.0
8.86534684892311 1.208599471795828 0.0
9.940610684232212 1.451558535868664 0.0
9.40896208432968 1.428353940655538 0.0
2.329177605337097 4.238803555614174 0.0
5.980761651517799 7.182207186682233 0.0
9.66541573964336 0.1719254072074424 0.0
7.220979380229172 7.806128737674462 0.0
1.251721227904697 6.151932667911503 0.0
8.104967286191181 6.057912607875576 0.0
6.650768762224724 4.817922869198292 0.0
6.634976350437587 3.213339182992986 0.0
7.034320437500567 4.898219100342838 0.0
9.502772020064167 6.283064492634301 0.0
8.13187938667684 3.518506862055515 0.0
9.855471943454193 2.599999999994991 0.0
9.056747742708522 8.263936599935574 0.0
4.352645795441222 5.724453640019 0.0
3.744263984699181 1.488951698361357 0.0
5.175860134287045 3.6375726667098 0.0
7.736434712114619 6.400417475661193 0.0
9.857658576695343 6.316607183405179 0.0
7.876525261950537 4.304285002335559 0.0
9.856114384785611 7.914602773442983 0.0
9.848334119947063 0.7059644476295188 0.0
9.59694321995579 6.895814046141667 0.0
5.906465212962551 3.869023950643881 0.0
9.840676994268005 9.364956386459765 0.0
5.355015287544095 3.83518170601625 0.0
6.374090407153147 5.855743754257685 0.0
8.227401290513832 5.297819733684674 0.0
5.451235131977493 4.825706629991923 0.0
6.022070213762754 5.355923882747634 0.0
9.845674433677614 6.108401449483281 0.0
9.835067400944396 7.739582406783081 0.0
8.602026805792988 2.941372356914139 0.0
5.059869081004962 5.269480960018243 0.0
5.284714507903736 5.26496663762182 0.0
9.627110479149561 7.660076105040499 0.0
6.820001127809743 4.792514421153957 0.0
5.120512795059439 4.806607659110254 0.0
9.56933817216883 2.911464407429096 0.0
9.74091654291531 9.267545397628387 0.0
9.93006767325302 6.576784040838644 0.0
9.642486276936268 4.650227701598451 0.0
5.185183328569137 9.410919109238325 0.0
9.37052946854105 4.605636695802024 0.0
1.677077220416309 5.871167715901136 0.0
7.345783833404538 3.184020711886284 0.0
5.419239942654976 5.982692039856376 0.0
6.133318300188262 2.551919945731369 0.0
6.187291396343277 4.499077117404439 0.0
1.231465237822878 3.921479198315213 0.0
8.969849937139944 9.699215363213542 0.0
9.218303154263054 6.037447959776716 0.0
CELLS 4886 19544
3 1113 1356 1450
3 1402 231 1659
3 272 269 1414
3 396 394 1777
3 1451 945 1452
3 194 81 1801
3 1847 1501 2104
3 2024 2121 2479
3 1115 1113 1450
3 1124 1413 1844
3 1061 1955 2409
3 307 305 1645
3 1592 1369 1593
3 238 1501 1847
3 1955 1883 2409
3 1808 243 1910
3 1885 978 2362
3 1440 793 2092
3 189 1488 1608
3 353 350 1864
3 2007 2231 2232
3 307 1645 2493
3 1096 1760 2496
3 2178 874 2179
3 621 625 1595
3 1493 1480 1938
3 1655 1268 2137
3 1341 1410 2212
3 243 1808 2360
3 1902 1446 2516
3 1760 1096 1763
3 856 790 2180
3 2008 2046 2105
3 789 1809 2067
3 694 1543 1575
3 1127 1762 1953
3 1748 807 2228
3 1543 1308 1575
3 820 1872 2170
3 1417 954 1998
3 1369 1592 2386
3 272 1414 1787
3 329 333 1998
3 1544 1095 1545
3 2231 1490 2232
3 1342 1683 1790
3 374 377 1797
3 807 1678 2228
3 1665 198 2128
3 141 142 1620
3 325 322 1952
3 231 1402 1654
3 198 1665 2010
3 1890 1307 2387
3 208 1438 1619
3 2016 1970 2156
3 1436 212 2020
3 954 1417 2333
3 1736 1894 2244
3 1491 1750 2143
3 1677 1064 2146
3 1474 1258 1475
3 1500 233 1930
3 1446 2415 2516
3 1700 973 1800
3 2128 2270 2316
3 1316 1315 1593
3 1307 2341 2387
3 2258 1324 2328
3 1083 1507 1508
3 693 1095 1544
3 621 1595 1596
3 667 1571 1872
3 1932 1766 2061
3 393 391 2240
3 1342 1790 2400
3 252 1707 2234
3 931 978 1885
3 1430 1116 1704
3 1411 1109 1714
3 1478 1227 2440
3 1990 195 2297
3 1792 1167 1985
3 1682 444 1975
3 394 397 1777
3 1711 2028 2162
3 1574 856 2180
3 2008 1851 2046
3 736 1493 1938
3 1069 1060 1662
3 1458 455 1754
3 862 691 1705
3 1161 1642 2286
3 1699 1700 1800
3 447 516 1637
3 955 1482 1483
3 2024 206 2121
3 391 1773 2240
3 1072 1412 1893
3 212 1436 2350
3 1566 1365 1568
3 259 1441 1672
3 872 870 1764
3 330 328 1889
3 1539 1161 2286
3 1897 1898 2275
3 1434 1990 2297
3 1109 1411 1730
3 319 307 2493
3 1762 1761 1953
3 1369 1316 1593
3 1540 834 1832
3 1505 652 2442
3 1732 1655 2137
3 921 1712 2295
3 1872 1388 2170
3 1712 921 2125
3 2028 244 2162
3 1506 1570 1680
3 1569 368 1964
3 1571 667 2375
3 1587 2178 2179
3 196 1723 1737
3 524 2016 2156
3 1528 1250 1733
3 1115 1450 1973
3 1938 1480 1971
3 1809 1396 2067
3 1641 249 2299
3 1223 1258 1474
3 1365 1566 2120
3 1981 962 2316
3 1538 353 1864
3 455 1458 1756
3 152 233 1500
3 1116 1430 1703
3 817 652 1505
3 1347 2003 2004
3 1607 1958 2085
3 194 1801 2195
3 1410 1341 2351
3 223 1415 1710
3 197 1511 2346
3 2198 787 2225
3 81 82 1801
3 1438 208 1620
3 1444 522 1823
3 1511 197 1950
3 726 718 1567
3 1637 516 1739
3 1708 2337 2341
3 1280 1649 2124
3 2337 1395 2341
3 1327 1709 2315
3 1225 1227 1478
3 691 624 1705
3 476 2224 2305
3 830 832 2204
3 1750 1491 2403
3 1366 1897 2275
3 2345 1583 2352
3 2054 405 2110
3 1984 2172 2230
3 1846 2198 2225
3 1177 2042 2418
3 2121 1367 2479
3 1527 1531 1541
3 916 1039 1834
3 1413 1124 2467
3 1622 1503 1868
3 249 1641 2019
3 1805 405 2054
3 1761 1007 1953
3 1415 223 2395
3 960 1756 2203
3 368 1569 2135
3 1402 1659 2473
3 941 1433 2471
3 1267 1477 1501
3 260 2002 2265
3 1704 558 2077
3 2224 1886 2305
3 2053 1386 2199
3 1452 945 1952
3 1717 1611 1718
3 1682 1975 2230
3 1760 1762 2496
3 1481 203 2104
3 1264 1266 1670
3 142 236 1620
3 2133 1182 2179
3 1791 1602 2183
3 350 346 1864
3 1412 1072 2393
3 1281 1575 2255
3 1565 1948 2155
3 849 1449 1513
3 1958 396 2085
3 1339 1069 1662
3 834 1540 1917
3 269 267 1414
3 1268 1267 1501
3 1440 2092 2468
3 1399 1981 2316
3 1635 1636 2041
3 1454 252 2234
3 1451 1305 1890
3 1375 1883 1955
3 362 366 1786
3 1484 2410 2528
3 1449 849 1640
3 1267 1474 1477
3 200 1611 1717
3 1054 1581 1582
3 1350 1977 2253
3 190 1390 2118
3 788 1956 2193
3 1709 1327 1888
3 2233 2298 2413
3 1488 189 2355
3 478 1685 1714
3 230 1525 1690
3 1687 478 1688
3 427 429 1756
3 1570 1065 2476
3 1880 1133 1988
3 1649 656 2124
3 1537 209 1614
3 1134 1769 1986
3 1220 1268 1655
3 396 1777 2085
3 1167 1755 1985
3 2229 1744 2296
3 1575 1281 2287
3 127 240 1882
3 377 647 1797
3 954 329 1998
3 220 1697 1698
3 1342 1341 2212
3 1441 264 1672
3 1512 188 2433
3 763 2345 2352
3 1685 1411 1714
3 1805 1188 1951
3 1347 2004 2157
3 1054 1582 1667
3 1333 1617 1674
3 2217 73 2361
3 1539 1036 1917
3 1039 1292 1834
3 208 141 1620
3 1965 1964 2038
3 693 1544 1969
3 1453 239 2279
3 203 1481 2049
3 945 1451 1889
3 680 1459 2134
3 354 2147 2196
3 1405 1932 2061
3 1723 1722 1737
3 1748 1175 1927
3 1532 1528 1733
3 2057 1824 2154
3 1406 1659 1702
3 1948 1186 2155
3 210 1598 2114
3 1685 478 1687
3 1324 1325 2328
3 1526 1250 1527
3 165 166 1509
3 1493 736 2523
3 1526 1527 1541
3 1390 190 2417
3 522 1444 1998
3 1680 1570 1732
3 1017 1442 2525
3 374 1797 2430
3 1507 1083 2197
3 1756 960 2221
3 2270 1400 2316
3 2205 1452 2282
3 1074 1187 1888
3 2158 1245 2200
3 1442 1017 1684
3 864 1116 1703
3 1750 1751 2143
3 1456 516 1492
3 1677 2146 2149
3 2022 1339 2388
3 1602 258 2183
3 678 1594 1595
3 1245 1670 2200
3 972 830 2204
3 2143 983 2342
3 1268 1501 2226
3 1266 1461 1670
3 1487 222 2465
3 1382 2022 2388
3 58 59 1661
3 2147 1543 2196
3 1484 1485 2410
3 628 2053 2199
3 1906 1549 2259
3 364 362 1786
3 1339 2022 2247
3 1636 525 2041
3 625 678 1595
3 678 1593 1594
3 2212 1410 2222
3 1837 1865 2215
3 1699 1800 1801
3 866 864 1703
3 893 1472 1982
3 1735 1736 2244
3 1633 1255 1922
3 126 127 1882
3 681 867 1656
3 1351 1401 2363
3 11 228 1588
3 1127 1953 2454
3 265 266 267
3 1722 1122 1737
3 1389 1691 2069
3 1613 1610 1616
3 1227 1256 2440
3 429 455 1756
3 1535 1177 2418
3 322 324 1952
3 973 1700 1802
3 1964 368 2038
3 1176 1865 1866
3 1096 872 1764
3 1176 1866 1875
3 193 1839 1892
3 156 157 1441
3 615 617 1596
3 686 1520 2480
3 1409 2097 2305
3 2410 1151 2528
3 1427 2217 2361
3 440 1911 2314
3 1744 1743 2296
3 516 1456 1739
3 1939 589 2164
3 690 931 2150
3 1062 1579 1580
3 1054 1580 1581
3 955 1483 1716
3 1064 1677 2248
3 1956 1616 2193
3 1776 1893 2026
3 1398 1115 1973
3 2002 1453 2265
3 1541 1531 1542
3 216 2191 2536
3 1736 1326 1894
3 1065 994 1066
3 1598 2115 2175
3 2314 1911 2358
3 1433 941 2042
3 2115 1209 2175
3 717 1550 1551
3 188 1941 2433
3 267 1132 1414
3 771 1569 2064
3 1157 1545 1546
3 1231 1250 1526
3 1933 240 2181
3 222 1487 2025
3 1525 230 1765
3 1430 1704 2077
3 757 1744 2495
3 264 263 265
3 883 773 1917
3 739 2205 2282
3 1667 1582 2434
3 1744 757 2474
3 239 1453 2002
3 1441 259 2356
3 2005 1443 2012
3 254 1766 1932
3 1509 166 1679
3 1477 1475 1481
3 793 1440 2165
3 1385 1523 2377
3 1481 1475 2523
3 156 1441 2356
3 1066 1220 1655
3 945 325 1952
3 2094 2087 2134
3 1747 1175 1748
3 253 262 263
3 1327 1074 1888
3 718 715 1567
3 2046 1043 2105
3 240 1933 2399
3 1305 1307 1890
3 224 58 1661
3 1195 1566 2285
3 1590 1393 1749
3 1255 1230 1922
3 353 1538 2073
3 358 1999 2325
3 882 1802 2036
3 1024 1020 1604
3 333 522 1998
3 1401 1351 2414
3 1475 1258 1476
3 2310 786 2364
3 328 945 1889
3 807 1748 1927
3 825 724 1912
3 1742 263 2491
3 267 266 1132
3 2077 2102 2203
3 1431 1432 1860
3 1212 1957 2312
3 2097 476 2305
3 1132 1402 2473
3 717 713 1550
3 1746 693 1969
3 1372 1124 1844
3 1256 1541 2269
3 1977 1350 2274
3 2332 1978 2443
3 874 2133 2179
3 1983 1534 2171
3 1157 1544 1545
3 1230 1228 1922
3 1580 1579 1581
3 1565 806 1948
3 1416 1363 2413
3 1287 1995 2398
3 265 263 266
3 1534 1529 2171
3 1604 1834 2428
3 1255 1633 2509
3 1344 1643 1644
3 1332 1388 1571
3 1423 217 2217
3 2191 1057 2451
3 458 447 1637
3 1250 1233 1733
3 472 2212 2222
3 1175 1747 1840
3 1652 256 1653
3 1073 1347 1572
3 200 145 1609
3 683 640 1585
3 1116 862 1705
3 1221 1223 1474
3 1778 801 1803
3 1503 1622 2471
3 1475 1493 2523
3 464 680 2134
3 14 210 2114
3 579 1880 1988
3 1434 1435 1990
3 1447 2310 2364
3 275 274 276
3 2294 1871 2419
3 814 1068 1684
3 1172 1439 2273
3 273 272 274
3 1363 1416 2406
3 1220 1219 1221
3 1060 1656 1662
3 1099 1792 1985
3 2048 1198 2168
3 1241 1245 2323
3 699 723 1753
3 1640 1862 2070
3 910 1018 1584
3 1586 1067 1587
3 1656 867 1662
3 1067 686 2480
3 654 2242 2294
3 1593 1315 1594
3 1880 553 1974
3 236 1717 1718
3 617 621 1596
3 1723 196 2313
3 402 1877 2116
3 273 274 275
3 2202 1869 2252
3 1510 1358 1767
3 193 1892 2373
3 1188 1805 2054
3 1220 1221 1267
3 1066 1218 1219
3 1517 1097 1518
3 1677 1676 1858
3 686 277 1520
3 268 267 269
3 697 857 1592
3 220 1698 1699
3 1802 1700 2036
3 1612 1537 1614
3 929 817 994
3 228 12 2136
3 2110 2116 2482
3 1659 1658 1702
3 1611 1613 2280
3 1344 991 1643
3 683 1585 1604
3 1638 1358 2404
3 1485 1034 2410
3 2214 833 2424
3 271 272 273
3 1482 955 1962
3 1066 1219 1220
3 931 1885 2150
3 1613 1891 2280
3 1189 1589 2204
3 1566 1195 2120
3 726 1567 2490
3 1122 1722 1874
3 1494 319 2493
3 1671 259 1672
3 1267 1221 1474
3 603 528 1591
3 1664 2128 2316
3 1817 1924 2174
3 1626 1660 2111
3 1474 1475 1477
3 1023 1062 1580
3 1957 1599 2312
3 1764 1939 2164
3 1358 1950 2404
3 200 1609 1610
3 1431 1082 1432
3 1778 1803 2521
3 1830 1832 2075
3 1930 233 2369
3 1329 1482 1650
3 757 1959 2522
3 1239 1247 1597
3 758 1978 2332
3 1569 1290 2064
3 216 1694 2191
3 1453 1420 2265
3 1549 1906 2129
3 24 215 1674
3 19 235 1676
3 1621 1057 2191
3 1691 1389 2262
3 1617 1333 2192
3 929 994 1065
3 1769 1672 1986
3 1893 1412 2026
3 1609 1537 1612
3 271 269 272
3 1373 1438 1620
3 217 1423 2381
3 517 330 1889
3 1322 1055 1667
3 1974 553 2499
3 228 2136 2187
3 1589 1189 1788
3 1999 1577 2325
3 2110 405 2116
3 189 1608 1842
3 1055 1050 1667
3 739 1455 2205
3 1865 1176 2215
3 319 1494 2522
3 2474 757 2522
3 1484 227 1485
3 10 11 1588
3 723 809 1753
3 27 230 1689
3 1550 806 1565
3 1179 1180 1217
3 207 1617 2192
3 1433 1217 1502
3 1562 1556 1606
3 1379 2017 2018
3 1245 2158 2323
3 675 1097 1517
3 884 501 1599
3 1020 683 1604
3 1603 1095 1848
3 1001 2057 2154
3 1604 1585 1834
3 1610 1612 1616
3 1764 870 1939
3 2242 1871 2294
3 1669 1264 1670
3 1658 213 1702
3 1995 1646 2398
3 631 539 1600
3 1491 2143 2342
3 1801 1800 2195
3 1200 1199 1693
3 1535 940 1861
3 1534 758 2332
3 914 2258 2328
3 1588 228 2457
3 216 138 1694
3 151 152 1500
3 1133 1880 1974
3 1677 1858 2248
3 1294 1622 1868
3 875 1010 1767
3 1379 2018 2416
3 1279 2202 2252
3 182 256 1652
3 1592 857 2386
3 672 681 1656
3 615 1596 1824
3 1093 1487 1623
3 1823 522 2100
3 1245 1242 1669
3 1582 1581 1583
3 758 1534 2306
3 1975 1984 2230
3 1358 1510 1950
3 1663 1336 1665
3 2102 960 2203
3 366 1087 1786
3 1740 1490 2231
3 21 207 1709
3 145 146 1609
3 2339 765 2384
3 603 1591 1668
3 2081 199 2149
3 1540 1832 1879
3 1721 1723 1947
3 1754 455 1793
3 1751 1753 2119
3 882 1701 1807
3 1540 1539 1917
3 242 1695 1697
3 1521 354 2091
3 1363 2233 2413
3 1584 1018 1925
3 703 1067 1586
3 1177 1178 1179
3 795 916 1834
3 277 276 607
3 1571 1388 1872
3 22 23 1617
3 1097 823 1177
3 25 26 1624
3 419 418 1790
3 1728 1906 2259
3 440 1455 2261
3 1877 1318 2116
3 1488 1156 1608
3 1439 2130 2273
3 1889 1451 1890
3 1614 209 2389
3 1472 893 2094
3 675 821 823
3 23 24 1674
3 1788 1190 2183
3 917 941 1622
3 1763 1096 1764
3 1068 1442 1684
3 1034 1485 2173
3 2172 1533 2230
3 138 139 1694
3 1065 1570 2197
3 607 674 675
3 1536 1248 2268
3 229 135 1734
3 1437 1925 1926
3 680 510 1646
3 147 209 1537
3 26 27 1689
3 1627 705 2163
3 206 1651 2121
3 2409 1785 2462
3 1492 682 2447
3 1223 1225 1258
3 889 1772 2374
3 253 263 264
3 275 276 277
3 1455 739 2261
3 2022 1382 2176
3 150 227 1484
3 639 1019 1591
3 1449 1640 2070
3 1082 833 2214
3 1503 1502 1504
3 144 200 1717
3 1643 991 1713
3 1190 1791 2183
3 1538 1804 2073
3 1256 2269 2440
3 18 19 1676
3 521 531 2000
3 790 849 2180
3 1075 1329 1650
3 1087 1782 1785
3 1066 994 1218
3 270 269 271
3 682 1492 2494
3 185 252 1454
3 253 158 262
3 1629 1632 1633
3 200 1610 1611
3 1477 1481 2104
3 1623 1487 2465
3 1518 1097 1535
3 1414 1132 2460
3 1179 1217 1433
3 177 1506 1680
3 1392 1017 2525
3 1832 834 2075
3 675 823 1097
3 1459 2094 2134
3 1782 1087 1795
3 1838 1730 2372
3 1639 149 2528
3 1617 23 1674
3 2265 1420 2489
3 180 232 1859
3 1527 1250 1528
3 20 21 1709
3 1083 1508 2311
3 903 866 1703
3 1455 440 2314
3 1187 1858 1888
3 1659 1406 2473
3 1446 1902 2166
3 421 1951 2106
3 1598 210 2115
3 154 259 1671
3 1288 1835 2080
3 1832 1831 1879
3 1258 1225 1478
3 1024 1604 2117
3 1263 1429 1739
3 706 705 1627
3 1583 1581 2352
3 407 1805 1951
3 856 1574 2527
3 1701 882 2036
3 1624 26 1689
3 717 1551 1552
3 1385 2377 2391
3 2302 1745 2354
3 1572 1347 2157
3 1036 883 1917
3 1689 1690 1691
3 1664 1665 2128
3 1476 1479 1480
3 1751 2119 2143
3 815 814 1684
3 1790 889 2400
3 1606 1607 2085
3 265 267 268
3 418 889 1790
3 1522 1521 2091
3 135 136 1734
3 1726 1445 1729
3 647 1796 1797
3 1346 1453 2279
3 1293 1827 2117
3 1242 1244 1669
3 1853 1852 1854
3 889 2374 2400
3 1039 1038 1290
3 1524 628 2199
3 1331 1332 1571
3 1291 1290 1569
3 1475 1476 1493
3 1850 1852 1853
3 1490 1740 2456
3 1689 230 1690
3 1256 1526 1541
3 1704 1705 2167
3 1465 1470 1675
3 956 1073 1572
3 1613 1616 1956
3 916 917 1038
3 2014 1522 2091
3 1221 1222 1223
3 1999 763 2352
3 234 10 1588
3 1697 220 2335
3 1527 1528 1529
3 2298 1600 2413
3 1436 2020 2254
3 1642 1161 1678
3 1523 1385 2436
3 1730 1838 2426
3 795 796 916
3 713 711 1550
3 1456 1263 1739
3 999 1336 1663
3 1785 1784 2462
3 409 415 1783
3 607 675 1517
3 1229 1231 1526
3 1958 1855 2078
3 1589 1588 1590
3 1933 261 2380
3 762 1965 2038
3 1756 1458 2203
3 1776 597 1893
3 1794 1072 1893
3 188 1512 2266
3 1774 2339 2384
3 188 1908 1941
3 1010 1510 1767
3 2189 2285 2307
3 773 834 1917
3 1245 1669 1670
3 1248 1597 2268
3 146 1537 1609
3 818 910 1584
3 1641 1313 1651
3 1217 1745 2302
3 1065 1066 1655
3 1597 1247 2047
3 1360 2177 2376
3 1612 1615 1616
3 2126 867 2186
3 1019 683 1020
3 1747 892 1840
3 1092 1093 1623
3 261 1933 2181
3 400 424 1666
3 1516 1903 2377
3 1100 1392 1605
3 247 1738 1881
3 268 1134 1986
3 1177 823 1178
3 884 1599 1957
3 263 262 2491
3 806 1627 1948
3 1227 1229 1256
3 191 1729 2504
3 1636 1635 2502
3 1480 1479 1601
3 1721 1947 2498
3 1924 1146 2174
3 229 1734 1735
3 175 204 1725
3 1179 1178 1180
3 354 1521 2147
3 665 697 1592
3 640 646 1585
3 627 545 1636
3 1882 240 2399
3 1556 1555 1606
3 1373 1620 2394
3 1871 1071 2419
3 548 1628 1629
3 455 436 1793
3 974 1831 1841
3 1844 1413 2392
3 1612 1614 1615
3 209 1639 1937
3 1329 1330 1331
3 1823 2100 2142
3 1097 1177 1535
3 1021 1020 1022
3 825 1912 2455
3 913 1122 1874
3 400 1666 2113
3 1256 1229 1526
3 1419 1418 2450
3 1552 1551 1553
3 1850 1099 1852
3 1629 1631 1632
3 801 685 2029
3 1618 1619 1621
3 265 268 1986
3 1715 2165 2330
3 1531 1529 1534
3 1022 1024 1576
3 658 693 1746
3 703 686 1067
3 1062 1576 1577
3 1023 1022 1062
3 236 1718 2394
3 1688 502 1740
3 1501 1477 2104
3 213 165 1509
3 646 795 1585
3 196 1737 1738
3 379 679 1795
3 639 640 683
3 924 875 1767
3 1752 699 1753
3 207 2192 2315
3 627 1636 1660
3 1217 1180 1745
3 730 728 1833
3 528 561 1591
3 1444 1417 1998
3 252 186 1602
3 1729 1445 2504
3 460 502 1688
3 1418 946 1778
3 1203 1200 1693
3 548 470 1628
3 849 668 1640
3 646 785 795
3 607 276 674
3 14 15 210
3 147 148 209
3 478 460 1688
3 1709 207 2315
3 1157 1546 1608
3 1155 1731 1899
3 1524 1934 2390
3 1775 921 1876
3 1433 1502 1503
3 470 458 1628
3 1223 1224 1225
3 1291 1569 1964
3 871 1056 1826
3 1781 1783 1915
3 1587 1067 2300
3 916 1038 1039
3 1388 1387 1389
3 1611 1610 1613
3 1075 1328 1329
3 1039 1290 1291
3 1538 1265 1804
3 1184 1185 2163
3 597 598 1794
3 1450 1356 2421
3 1835 576 2080
3 1629 1628 1631
3 1331 1330 1332
3 561 639 1591
3 1476 1480 1493
3 705 703 1586
3 639 683 1019
3 1951 1188 2106
3 436 446 1793
3 1472 1297 2142
3 1332 1387 1388
3 1345 984 1720
3 1329 1328 1330
3 1050 1048 1667
3 150 151 227
3 11 12 228
3 557 541 2256
3 1831 974 1879
3 134 229 1766
3 1357 1358 1638
3 1336 1641 2299
3 1650 1482 1962
3 1591 1019 2512
3 1506 1507 1570
3 1803 801 2029
3 1178 823 1972
3 1552 1553 1554
3 1290 1038 1294
3 1028 1313 1641
3 1237 1239 1597
3 993 1017 1100
3 893 2087 2094
3 149 1484 2528
3 1768 1142 1949
3 9 234 1673
3 1554 1553 1555
3 668 632 1640
3 711 806 1550
3 1628 458 1637
3 1098 1829 1830
3 1482 1331 1483
3 531 1818 2000
3 435 419 1790
3 1156 1157 1608
3 1182 1184 2179
3 510 512 1646
3 1231 1233 1250
3 946 841 1778
3 1483 1331 1571
3 1459 680 2458
3 1166 1040 1210
3 892 1657 1820
3 1042 1445 1726
3 1019 1020 1021
3 749 805 1810
3 234 1588 1589
3 1695 242 1892
3 556 1853 2483
3 1018 1572 1573
3 1529 1528 1530
3 1606 1558 1607
3 1761 1759 2308
3 1396 1032 1921
3 1018 956 1572
3 689 1150 1416
3 1827 1293 2515
3 149 150 1484
3 1647 656 1648
3 1543 694 2196
3 399 409 1783
3 545 525 1636
3 268 269 270
3 715 713 717
3 1100 1017 1392
3 1657 892 1747
3 207 22 1617
3 1666 884 2249
3 1671 1672 1769
3 1554 1555 1556
3 146 147 1537
3 1081 1444 1822
3 711 709 806
3 1443 2005 2322
3 660 658 1746
3 1166 1458 1754
3 916 796 917
3 1056 1728 1826
3 1068 1069 1275
3 184 185 1454
3 158 159 262
3 2007 1687 2231
3 805 1708 1810
3 1672 264 1986
3 1561 1562 1563
3 978 1075 1650
3 1590 1588 2457
3 215 25 1624
3 1551 1550 1565
3 1073 1346 1347
3 857 818 1584
3 1648 656 1649
3 675 674 821
3 561 594 639
3 1731 529 1899
3 2303 1454 2535
3 981 903 1040
3 1630 1629 1633
3 993 877 1017
3 724 718 726
3 512 603 1646
3 1676 235 1858
3 814 1060 1068
3 715 717 1567
3 1796 647 1870
3 1715 1171 2165
3 678 1592 1593
3 644 613 1824
3 1690 1525 2145
3 1297 1822 1823
3 271 656 1647
3 1704 1116 1705
3 1225 1226 1227
3 1275 1069 1338
3 910 956 1018
3 1824 1596 2154
3 1403 1100 1605
3 1221 1219 1222
3 1068 1060 1069
3 1901 245 1949
3 1081 1055 1321
3 1751 563 1752
3 1021 1022 1023
3 672 638 681
3 1095 657 1848
3 1235 1237 1248
3 1561 1556 1562
3 1265 1259 1804
3 524 1819 2016
3 978 1650 2362
3 1492 516 2494
3 229 1735 2061
3 185 186 252
3 157 158 253
3 152 153 233
3 9 10 234
3 1527 1529 1531
3 1808 1344 2360
3 1062 1577 1579
3 1509 1679 1977
3 424 454 1666
3 637 638 672
3 981 1040 1166
3 1555 1558 1606
3 751 749 1810
3 1166 1210 1458
3 1651 1313 2121
3 15 16 2260
3 1633 1632 2509
3 2167 1705 2276
3 551 602 2045
3 697 818 857
3 364 1786 1883
3 832 1189 2204
3 1476 1478 1479
3 678 665 1592
3 213 1509 2096
3 1015 888 1124
3 1062 1022 1576
3 679 1782 1795
3 680 1646 1995
3 1101 1100 1403
3 1109 433 1714
3 1248 1237 1597
3 733 730 1833
3 1702 213 2096
3 499 498 1828
3 1418 1778 2521
3 637 600 638
3 1048 1046 1054
3 1577 1576 1578
3 814 766 1060
3 1279 2252 2292
3 474 470 548
3 199 18 1676
3 157 253 1441
3 1048 1054 1667
3 471 472 2290
3 625 665 678
3 795 785 796
3 1264 1265 1266
3 1437 1926 2350
3 1362 2048 2168
3 1394 2337 2371
3 454 884 1666
3 1022 1020 1024
3 751 1810 1923
3 1046 1023 1580
3 1807 1701 1931
3 1618 208 1619
3 566 588 689
3 1828 498 1829
3 501 509 1599
3 1118 780 1775
3 878 817 929
3 1510 1511 1950
3 1618 1621 1694
3 1052 1081 1822
3 1416 1150 1715
3 1239 1241 1247
3 1396 1921 2067
3 1751 1752 1753
3 1264 1259 1265
3 539 566 1600
3 1762 1127 2496
3 1673 1788 2183
3 1555 1557 1558
3 1052 1050 1055
3 725 724 825
3 1142 1770 1771
3 681 853 867
3 454 501 884
3 1346 1420 1453
3 932 1147 1770
3 1546 1545 1547
3 533 582 1818
3 1266 1337 1460
3 1872 820 2318
3 1117 1119 1713
3 1081 1321 1417
3 1253 1259 1264
3 1569 771 2135
3 1052 1055 1081
3 1181 1178 1972
3 709 706 1627
3 1073 1076 1346
3 1098 1828 1829
3 1382 1380 2176
3 1442 1275 1443
3 919 999 1663
3 1789 828 1855
3 877 815 1684
3 509 539 631
3 992 877 993
3 1266 1265 1337
3 2268 1498 2340
3 1130 1032 1396
3 1095 1603 2508
3 886 826 887
3 531 533 1818
3 1131 1400 1881
3 447 437 516
3 2460 1132 2473
3 940 1535 2418
3 768 1873 2037
3 1813 1869 1954
3 1627 2163 2488
3 1497 1495 1645
3 1198 1409 2168
3 724 726 1912
3 1869 987 1954
3 763 1999 2338
3 1010 1170 1374
3 984 976 1720
3 1470 1743 1744
3 689 588 1150
3 1901 1949 2359
3 1640 632 1862
3 274 272 1787
3 563 564 1752
3 994 817 1505
3 737 1807 1931
3 1770 1147 1771
3 1233 1235 1733
3 2450 1418 2521
3 414 410 1821
3 908 1099 1850
3 1227 1228 1229
3 1692 1203 1693
3 1625 216 2194
3 512 528 603
3 1377 1357 1638
3 1465 1464 1470
3 1360 1359 2177
3 1686 2007 2095
3 1336 1028 1641
3 1857 751 1923
3 1758 572 1759
3 553 541 557
3 1171 1715 1811
3 956 1003 1073
3 1467 1465 1675
3 719 718 724
3 1509 1977 2096
3 1734 1625 1736
3 1503 1504 1868
3 592 597 1776
3 180 181 232
3 162 163 231
3 2308 1759 2370
3 1357 1114 1358
3 875 946 1010
3 509 631 1599
3 17 18 199
3 144 145 200
3 1099 906 1792
3 1469 1467 1494
3 605 589 1939
3 1208 1205 1211
3 354 344 2091
3 692 782 804
3 1010 946 1170
3 1463 1462 1464
3 716 715 718
3 714 713 715
3 271 273 656
3 139 1618 1694
3 549 277 686
3 673 672 766
3 1378 1377 1379
3 2007 868 2095
3 999 1028 1336
3 1208 1211 1447
3 601 545 627
3 1119 1643 1713
3 1332 1333 1387
3 910 912 956
3 520 521 2000
3 828 1789 1819
3 277 607 1520
3 1338 1339 2247
3 818 819 910
3 767 766 814
3 712 711 713
3 1494 1467 1675
3 639 594 640
3 2044 557 2256
3 235 20 1709
3 1620 236 2394
3 804 919 962
3 1862 702 2070
3 681 852 853
3 1559 1556 1561
3 1622 941 2471
3 2165 1440 2330
3 612 644 692
3 697 698 818
3 1903 1516 1994
3 371 379 1795
3 428 426 2138
3 1290 1294 2064
3 1384 1904 2432
3 566 689 1600
3 471 452 472
3 1092 1091 1093
3 1002 1131 1719
3 1090 1089 1091
3 875 841 946
3 1758 1760 1763
3 1562 1606 2085
3 1833 1830 2075
3 178 179 214
3 164 165 213
3 769 923 1815
3 692 644 782
3 804 782 919
3 182 183 256
3 160 161 257
3 1329 1331 1482
3 962 1663 1664
3 1177 1179 2042
3 403 405 1805
3 1461 1460 1462
3 140 208 1618
3 1859 232 1860
3 274 1787 2099
3 1381 2126 2186
3 1558 1560 1789
3 430 428 682
3 452 435 1683
3 1487 1156 1488
3 1470 1464 1743
3 597 1794 1893
3 1244 1253 1669
3 962 919 1663
3 258 8 1673
3 1087 1785 1786
3 970 1042 1726
3 199 1677 2149
3 1664 1663 1665
3 1229 1230 1231
3 991 827 1713
3 792 1603 1848
3 1822 1444 1823
3 665 666 697
3 19 20 235
3 142 143 236
3 728 1098 1833
3 532 530 1898
3 1015 1124 1372
3 1546 1547 1548
3 1851 1850 1853
3 1877 393 2240
3 923 1105 1815
3 1090 1091 1092
3 687 686 703
3 1683 435 1790
3 887 826 1961
3 684 663 1089
3 426 1934 2138
3 464 510 680
3 853 854 855
3 568 572 1758
3 1376 1357 1377
3 1205 1203 1692
3 1607 1789 1855
3 710 709 711
3 780 781 1775
3 1434 1103 1435
3 876 815 877
3 766 672 1656
3 1393 1590 2457
3 684 1089 1090
3 530 890 1898
3 926 1920 1943
3 696 414 1821
3 1563 1562 1777
3 1054 1046 1580
3 1398 1973 1974
3 137 216 1625
3 1210 1040 1430
3 1750 563 1751
3 2010 1665 2299
3 1510 1374 1511
3 1777 1562 2085
3 1707 252 1791
3 1932 1404 1933
3 459 438 1814
3 139 140 1618
3 1093 1156 1487
3 231 163 1658
3 699 722 723
3 1545 1095 2508
3 598 612 1794
3 579 554 1880
3 1941 1908 2401
3 1231 1232 1233
3 1831 1829 1841
3 1037 1383 1799
3 177 178 1506
3 636 600 637
3 1036 1539 2286
3 1356 1114 1357
3 1523 1516 2377
3 704 703 705
3 403 402 405
3 648 792 1848
3 723 756 808
3 1388 1389 2170
3 933 932 1770
3 223 1710 1711
3 1779 399 1783
3 1223 1222 1224
3 1028 1029 1313
3 257 161 1654
3 418 412 421
3 734 882 1807
3 693 657 1095
3 1368 1370 1436
3 136 137 1625
3 688 652 817
3 1075 1327 1328
3 540 479 1813
3 398 395 402
3 548 1629 1630
3 574 591 699
3 1469 1494 1495
3 1041 1598 2175
3 167 168 202
3 175 176 204
3 2045 2046 2201
3 186 187 1602
3 886 887 888
3 1253 1254 1259
3 8 9 1673
3 792 655 810
3 843 1145 1960
3 1180 1349 1745
3 1165 1345 1512
3 708 706 709
3 136 1625 1734
3 21 22 207
3 140 141 208
3 625 626 665
3 1093 1094 1156
3 1585 795 1834
3 1117 1713 1806
3 599 579 600
3 810 871 1826
3 1047 1046 1048
3 1292 1291 1293
3 161 162 1654
3 199 1676 1677
3 1260 1282 1804
3 1005 1142 1768
3 1233 1234 1235
3 792 810 922
3 1122 1719 1737
3 976 985 1720
3 1278 1279 2292
3 2390 1934 2531
3 1436 1437 2350
3 270 271 1647
3 1199 966 1846
3 1683 1342 2212
3 656 273 2124
3 699 591 722
3 1977 1139 2096
3 1738 1719 1881
3 1722 985 1874
3 1797 1448 1798
3 162 231 1654
3 632 604 1862
3 252 1602 1791
3 1051 1050 1052
3 1045 1023 1046
3 648 655 792
3 993 1100 1101
3 1321 1055 1322
3 806 709 1627
3 904 903 981
3 1220 1267 1268
3 648 605 655
3 1737 1719 1738
3 385 399 1779
3 506 499 1828
3 1132 266 1402
3 1170 1418 1419
3 1323 2302 2354
3 24 25 215
3 137 138 216
3 721 965 1919
3 1787 1414 2460
3 778 1117 1806
3 723 722 756
3 407 403 1805
3 564 574 1752
3 1049 1048 1050
3 842 841 875
3 1608 1546 1842
3 809 808 899
3 1517 1519 1520
3 1530 1532 1533
3 889 421 1772
3 913 1002 1122
3 1314 1316 1367
3 1017 877 1684
3 841 802 1778
3 1235 1236 1237
3 751 1857 1900
3 1114 924 1767
3 1344 1644 2360
3 1895 1394 2371
3 1518 1535 1861
3 1758 1759 1760
3 1122 1002 1719
3 546 563 1750
3 1056 1726 1727
3 663 660 1746
3 621 622 625
3 1720 985 1721
3 1857 1843 1900
3 808 756 913
3 1056 970 1726
3 27 28 230
3 134 135 229
3 908 906 1099
3 163 164 1658
3 1727 1726 1729
3 7 8 258
3 154 155 259
3 1101 1403 1404
3 808 913 1874
3 1260 1269 1282
3 1389 1387 2262
3 1297 1053 1822
3 1555 1553 1557
3 1463 1464 1465
3 230 28 1765
3 1237 1238 1239
3 554 553 1880
3 775 778 1806
3 985 899 1874
3 1270 1524 2199
3 489 1820 1936
3 692 1072 1794
3 1472 2142 2272
3 1845 496 1929
3 438 431 1814
3 613 615 1824
3 1241 1242 1245
3 1783 415 1915
3 1192 2081 2149
3 178 214 1506
3 1816 988 1817
3 1760 1759 1761
3 1103 1092 1623
3 1512 1345 1661
3 1876 921 2295
3 1165 984 1345
3 978 1074 1075
3 1239 1240 1241
3 542 541 553
3 813 988 1816
3 1148 984 1165
3 871 970 1056
3 472 452 1683
3 1207 1796 1870
3 1167 1166 1754
3 1296 1053 1297
3 966 964 1846
3 976 899 985
3 982 976 984
3 702 1815 2015
3 900 899 976
3 1143 995 1206
3 1576 1024 1827
3 1235 1248 1733
3 1558 1557 1560
3 943 995 1143
3 1920 1144 1943
3 1471 2115 2477
3 29 30 255
3 132 133 254
3 1630 1633 1634
3 1225 1224 1226
3 1925 1573 1926
3 1211 1205 1692
3 725 825 826
3 1113 924 1114
3 600 579 1988
3 717 1552 1567
3 1820 1657 1936
3 674 276 2099
3 395 393 1877
3 572 543 1897
3 1575 1308 2255
3 999 1000 1028
3 1118 1775 1876
3 1797 1798 2430
3 526 546 559
3 867 853 2186
3 1142 1771 1949
3 1068 1275 1442
3 679 385 1779
3 1607 1558 1789
3 580 568 1758
3 1244 1252 1253
3 1760 1761 1762
3 398 402 403
3 1476 1258 1478
3 418 421 889
3 1771 1147 1839
3 164 213 1658
3 1720 1721 2267
3 1668 1591 2512
3 1042 1128 1445
3 1098 1830 1833
3 1102 1092 1103
3 2249 884 2466
3 1104 1103 1434
3 410 416 1821
3 514 513 541
3 580 1758 1763
3 637 673 1741
3 1913 936 1914
3 1394 1395 2337
3 919 920 999
3 577 554 579
3 2111 1660 2263
3 231 1658 1659
3 612 613 644
3 568 543 572
3 770 775 1806
3 1445 1128 1446
3 1546 1548 1842
3 448 460 478
3 810 870 871
3 1789 1560 1819
3 1154 1082 1431
3 873 973 1802
3 379 385 679
3 837 850 921
3 1461 1462 1463
3 1346 1076 1420
3 1088 1344 1808
3 2125 1143 2353
3 931 977 978
3 882 772 1802
3 29 255 1765
3 849 1513 2180
3 1713 827 1806
3 1130 1396 1397
3 681 638 852
3 1417 1321 1873
3 1654 1402 2530
3 502 526 1740
3 1124 888 2177
3 1266 1460 1461
3 515 1175 1840
3 1253 1264 1669
3 479 466 1813
3 1727 1729 1757
3 379 380 385
3 1971 1480 2514
3 1637 1739 2459
3 1207 1205 1208
3 529 519 1899
3 1129 1845 1929
3 224 1661 2267
3 192 1856 2361
3 732 734 1807
3 1184 2163 2435
3 1119 1120 1353
3 415 414 431
3 719 724 725
3 559 546 1750
3 871 872 970
3 1038 917 1622
3 574 699 1752
3 166 167 1679
3 1117 1118 1119
3 1409 1196 2035
3 617 619 621
3 1172 1173 1439
3 1191 1005 1768
3 664 663 684
3 494 493 1841
3 890 529 1731
3 840 802 841
3 493 974 1841
3 385 386 399
3 679 1779 1780
3 371 376 379
3 416 433 1109
3 670 769 1815
3 902 866 903
3 1780 1779 1781
3 480 515 1840
3 970 971 1042
3 433 448 1714
3 28 29 1765
3 1005 949 1142
3 778 780 1117
3 959 1037 1799
3 1073 1003 1076
3 535 532 1898
3 1119 1118 1120
3 658 657 693
3 1378 1379 1380
3 1397 1396 1809
3 1610 1609 1612
3 1819 1560 2016
3 1837 952 1865
3 1719 1131 1881
3 1131 1399 1400
3 1352 1138 2058
3 399 406 409
3 548 1630 2041
3 1275 1338 2251
3 582 1816 1818
3 1835 1836 2144
3 993 1101 1980
3 1699 1698 1700
3 2407 364 2505
3 1189 1190 1788
3 1117 780 1118
3 1830 1829 1831
3 637 672 673
3 692 804 1072
3 1204 1203 1205
3 1374 1170 2139
3 612 692 1794
3 1642 1408 2286
3 723 808 809
3 450 459 1812
3 409 410 414
3 802 801 1778
3 1853 1854 2483
3 1042 1127 1128
3 1199 1846 2225
3 1147 990 1273
3 1383 1384 2432
3 432 431 438
3 1353 1120 1390
3 1093 1091 1094
3 2020 250 2254
3 148 149 1639
3 606 605 648
3 1970 2016 2422
3 2201 2046 2327
3 475 471 513
3 412 407 1951
3 1991 246 2139
3 727 695 728
3 1673 234 1788
3 1554 1556 1559
3 1089 663 1746
3 1846 964 2056
3 923 991 1088
3 409 406 410
3 729 728 730
3 1424 1427 1856
3 1473 1911 2407
3 1376 1377 1378
3 1010 1374 1510
3 853 852 854
3 366 369 1087
3 772 873 1802
3 1219 1218 1626
3 1766 229 2061
3 1088 991 1344
3 922 810 1826
3 518 506 695
3 405 402 2116
3 962 1664 2316
3 913 942 1002
3 932 990 1147
3 629 813 1816
3 876 877 992
3 399 386 406
3 932 845 990
3 1002 1123 1131
3 843 996 1145
3 781 837 1775
3 262 2304 2491
3 431 696 1814
3 1273 1695 1892
3 731 730 732
3 737 732 1807
3 439 438 450
3 1829 498 1841
3 800 685 801
3 767 814 815
3 1060 766 1656
3 673 766 767
3 1403 1605 1882
3 716 718 719
3 1338 1069 1339
3 847 752 1843
3 864 862 1116
3 2302 443 2519
3 923 827 991
3 526 559 1740
3 1911 1473 2358
3 1085 1310 1867
3 809 899 900
3 1227 1226 1228
3 729 730 731
3 1436 1370 1437
3 731 732 737
3 769 827 923
3 456 452 471
3 1433 1503 2471
3 1435 1103 1623
3 385 380 386
3 1141 1787 2460
3 1354 1088 1808
3 657 649 1848
3 415 431 432
3 484 892 1820
3 727 728 729
3 855 854 1450
3 1721 1722 1723
3 1643 1353 1644
3 1145 1916 1960
3 1421 1191 1422
3 466 1812 1813
3 943 944 995
3 1356 1357 1376
3 714 715 716
3 1156 1094 1157
3 598 611 612
3 631 1600 2298
3 590 589 605
3 965 969 1919
3 416 1109 1821
3 242 1697 2335
3 1548 1547 1549
3 550 573 584
3 584 604 632
3 409 414 415
3 712 713 714
3 642 670 702
3 818 698 819
3 1006 1005 1191
3 1624 1689 1691
3 169 170 237
3 173 174 238
3 956 912 1003
3 937 936 1913
3 1317 1025 1875
3 515 540 550
3 973 1799 1800
3 973 959 1799
3 518 695 727
3 910 819 912
3 584 573 604
3 1170 946 1418
3 173 238 1847
3 550 540 573
3 982 984 1148
3 900 976 982
3 441 435 452
3 448 478 1714
3 1849 1648 2173
3 1631 1628 1637
3 1830 1831 1832
3 1383 1216 1384
3 734 772 882
3 949 933 1770
3 1332 1330 1333
3 574 575 591
3 1105 1088 1354
3 702 670 1815
3 498 494 1841
3 827 770 1806
3 873 959 973
3 1390 1391 1415
3 450 438 459
3 950 949 1005
3 351 362 364
3 1313 1029 1314
3 432 438 439
3 837 838 850
3 1273 1274 1695
3 850 851 943
3 911 952 1837
3 1259 1260 1804
3 566 587 588
3 1037 1216 1383
3 1337 1265 1538
3 1087 369 1795
3 810 655 870
3 1559 1561 1566
3 1147 1273 1839
3 732 733 734
3 1662 867 2126
3 890 1731 2241
3 1854 1852 2397
3 515 479 540
3 451 450 466
3 697 666 698
3 1367 1316 1368
3 662 660 663
3 365 355 694
3 1358 1114 1767
3 379 376 380
3 1796 1448 1797
3 179 180 1859
3 790 668 849
3 569 568 580
3 690 860 931
3 466 450 1812
3 431 414 696
3 1973 1133 1974
3 651 649 657
3 467 466 479
3 1288 1289 1835
3 264 265 1986
3 1302 1303 1304
3 592 596 597
3 1873 1321 2037
3 544 543 568
3 275 277 549
3 209 1937 2389
3 539 565 566
3 1485 227 1486
3 2384 2190 2408
3 1781 1779 1783
3 480 479 515
3 689 1416 2413
3 1108 1161 1539
3 1867 1310 1895
3 1300 1301 1302
3 1695 1696 1697
3 633 632 668
3 1304 1451 1452
3 988 911 1837
3 168 169 1724
3 969 1012 1172
3 582 629 1816
3 1843 752 1900
3 629 812 813
3 710 711 712
3 1782 1780 1784
3 536 535 543
3 1089 1746 1969
3 1108 1107 1161
3 1514 1426 1856
3 486 484 1820
3 369 371 1795
3 1817 988 1924
3 493 609 974
3 1422 1191 2023
3 1426 1424 1856
3 842 875 924
3 922 1826 2259
3 989 1361 1886
3 928 1070 1288
3 669 668 790
3 1113 1114 1356
3 1027 847 1843
3 728 695 1098
3 734 735 772
3 975 1107 1108
3 955 859 1962
3 813 911 988
3 1208 1448 1796
3 1101 1405 1980
3 602 676 2045
3 586 581 589
3 546 547 563
3 493 491 609
3 628 1524 2390
3 348 344 354
3 1298 1299 1300
3 509 538 539
3 974 609 975
3 813 891 911
3 871 870 872
3 1355 1354 1423
3 489 486 1820
3 778 779 780
3 1025 1176 1875
3 772 773 873
3 803 1743 2347
3 167 202 1679
3 873 883 959
3 1483 1571 2375
3 427 1756 2221
3 540 1813 1954
3 1202 1200 1203
3 959 1035 1037
3 837 921 1775
3 1304 1305 1451
3 1799 1383 2195
3 604 642 1862
3 1470 1744 2474
3 1854 2397 2453
3 1282 1269 1386
3 1573 1572 2157
3 472 2222 2290
3 1307 1708 2341
3 769 770 827
3 1037 1215 1216
3 791 790 856
3 1053 1052 1822
3 1056 1727 1728
3 1341 1138 1352
3 1300 1299 1301
3 1814 696 1838
3 1198 1196 1409
3 492 491 493
3 439 450 451
3 1171 858 2132
3 1259 1254 1260
3 665 626 666
3 970 872 971
3 258 1602 2357
3 1296 1297 1472
3 490 489 491
3 516 437 2494
3 1298 1027 1299
3 846 845 932
3 501 508 509
3 460 461 502
3 448 449 460
3 482 480 1840
3 1229 1228 1230
3 604 641 642
3 1424 1423 1427
3 502 503 526
3 1028 1000 1029
3 935 933 949
3 1084 1085 1867
3 2028 1711 2353
3 1513 1426 1514
3 892 482 1840
3 852 638 1988
3 402 395 1877
3 738 737 845
3 413 412 418
3 1119 1353 1643
3 526 527 546
3 280 279 281
3 1731 1155 2123
3 1042 971 1127
3 1208 1447 1448
3 433 434 448
3 262 159 2304
3 184 1454 2303
3 1051 1052 1053
3 1816 1817 1818
3 1081 1417 1444
3 781 836 837
3 911 951 952
3 1090 1092 1102
3 202 168 1724
3 1085 1309 1310
3 408 407 412
3 1337 1538 1864
3 1515 1514 1516
3 530 529 890
3 1517 1518 1519
3 549 686 687
3 923 1088 1105
3 404 403 407
3 1835 1289 1836
3 1314 1367 2121
3 1380 1379 2416
3 670 671 769
3 899 808 1874
3 1040 903 1703
3 1596 1595 2154
3 1496 1495 1497
3 636 637 1741
3 1377 1638 2288
3 1288 1070 1289
3 1072 804 1981
3 1129 1334 1845
3 1865 1084 1866
3 792 922 1603
3 1253 1252 1254
3 981 1167 1792
3 1302 1301 1303
3 1641 1651 2019
3 952 953 1084
3 1813 1812 1869
3 732 730 733
3 975 1106 1107
3 1142 949 1770
3 981 1166 1167
3 840 841 842
3 451 466 467
3 1273 990 1274
3 1049 1050 1051
3 1473 2407 2505
3 968 966 1199
3 642 643 670
3 1310 1309 1311
3 422 419 435
3 1063 833 1082
3 919 782 920
3 911 891 951
3 1084 953 1085
3 1763 1764 2164
3 1498 1497 1682
3 515 550 1175
3 1079 937 1913
3 642 702 1862
3 845 737 1931
3 1394 1311 1395
3 1395 1521 1522
3 467 479 480
3 1755 1754 1793
3 1231 1230 1232
3 1557 1553 2030
3 1624 1691 2262
3 584 632 633
3 1094 1091 1969
3 708 709 710
3 1948 1627 2488
3 952 951 953
3 1102 1103 1104
3 1047 1048 1049
3 1310 1311 1394
3 1852 1099 1985
3 143 144 1717
3 813 812 891
3 1944 1044 1945
3 1105 1354 1355
3 1300 1302 1455
3 1914 936 1940
3 1415 1391 1710
3 1299 1027 1843
3 952 1084 1865
3 1695 1274 1696
3 776 774 1928
3 282 281 283
3 2003 1347 2279
3 1206 995 1499
3 1164 1685 1686
3 1551 1565 2030
3 969 1172 1919
3 633 668 669
3 734 733 735
3 1373 1372 1438
3 599 600 636
3 1431 1860 2487
3 1579 1577 1999
3 484 482 892
3 917 940 941
3 2144 1836 2169
3 1866 1084 1867
3 1110 1747 1748
3 998 1171 1811
3 1390 1120 1391
3 644 1824 2057
3 1362 1961 2048
3 944 1283 1825
3 1086 1027 1298
3 679 1780 1782
3 974 975 1879
3 507 506 518
3 1121 1079 1401
3 775 777 778
3 1965 762 2349
3 1045 1046 1047
3 1772 421 2106
3 16 17 2081
3 416 417 433
3 921 850 2125
3 1607 1855 1958
3 649 648 1848
3 1241 1240 1242
3 2012 1443 2251
3 926 928 1920
3 1487 1488 2025
3 1006 1191 1421
3 1355 1423 1424
3 1133 852 1988
3 591 592 1776
3 1299 1843 1857
3 1085 1308 1309
3 490 491 492
3 958 694 1575
3 1384 1216 1385
3 741 915 1878
3 1233 1232 1234
3 669 790 791
3 481 480 482
3 687 703 704
3 492 493 494
3 1634 1633 1922
3 1697 1696 1698
3 1721 985 1722
3 1839 1273 1892
3 772 735 773
3 488 486 489
3 950 1005 1006
3 1513 1514 1515
3 454 500 501
3 873 773 883
3 284 283 285
3 2185 1505 2442
3 959 883 1035
3 543 535 1897
3 1904 1384 2093
3 800 801 802
3 1037 1035 1215
3 1293 1964 1965
3 1239 1238 1240
3 943 1143 2125
3 1782 1784 1785
3 913 756 942
3 488 490 1884
3 1590 1749 2501
3 1235 1234 1236
3 791 856 1408
3 702 2015 2070
3 1108 1539 1540
3 1021 1023 1045
3 695 506 1828
3 1530 1528 1532
3 488 489 490
3 1621 1619 2161
3 704 705 706
3 1304 1303 1305
3 558 1704 2167
3 625 622 626
3 542 553 554
3 604 573 641
3 664 684 685
3 564 571 574
3 1108 1540 1879
3 1856 1427 2361
3 880 1025 1129
3 1395 1311 1521
3 1466 1465 1467
3 915 495 1884
3 1515 1516 1523
3 1237 1236 1238
3 606 648 649
3 999 920 1000
3 676 829 1043
3 2100 794 2142
3 227 151 1500
3 577 579 599
3 153 154 1671
3 1175 550 1927
3 1014 888 1015
3 286 285 287
3 1649 1280 2427
3 1725 204 2137
3 975 609 1106
3 1129 1317 1334
3 1109 1730 2426
3 1468 1467 1469
3 1131 1123 1399
3 1215 2235 2378
3 1976 1149 1989
3 397 395 398
3 746 743 1878
3 1041 1343 1598
3 975 1108 1879
3 741 495 915
3 1167 1754 1755
3 288 287 289
3 743 741 1878
3 1274 990 1931
3 1506 214 1507
3 857 1584 2277
3 2341 1522 2387
3 846 932 933
3 1107 1106 1110
3 584 633 1927
3 290 289 291
3 722 591 1776
3 1544 1094 1969
3 1135 270 1647
3 935 949 950
3 1920 1288 2080
3 754 1896 2108
3 1693 1199 2225
3 292 291 293
3 394 393 395
3 745 743 746
3 1002 942 1123
3 731 737 738
3 294 293 295
3 1018 1573 1925
3 296 295 297
3 298 297 299
3 321 322 325
3 317 320 321
3 314 315 317
3 312 313 314
3 310 311 312
3 308 309 310
3 1898 890 2275
3 306 307 308
3 304 305 306
3 1401 1079 1913
3 300 299 301
3 302 303 304
3 300 301 302
3 302 301 303
3 491 489 1936
3 298 299 300
3 304 303 305
3 306 305 307
3 308 307 309
3 310 309 311
3 312 311 313
3 314 313 315
3 317 315 320
3 321 320 322
3 1301 1299 1857
3 514 541 542
3 296 297 298
3 850 838 851
3 1310 1394 1895
3 294 295 296
3 590 605 606
3 292 293 294
3 651 657 658
3 290 291 292
3 1207 1208 1796
3 835 1976 1989
3 621 619 622
3 746 1878 1896
3 481 482 483
3 1026 847 1027
3 1335 1207 1870
3 1661 59 2266
3 727 729 1155
3 288 289 290
3 1058 776 1928
3 662 663 664
3 495 488 1884
3 1959 319 2522
3 943 851 944
3 1293 1291 1964
3 534 532 535
3 640 645 646
3 2280 1014 2385
3 286 287 288
3 591 575 592
3 521 519 529
3 13 14 2114
3 780 779 781
3 918 908 1850
3 837 836 838
3 209 148 1639
3 754 748 1896
3 745 746 747
3 769 671 770
3 929 1065 2197
3 1278 1058 1279
3 483 482 484
3 1564 1557 2030
3 633 807 1927
3 392 391 393
3 1057 1621 2161
3 569 580 581
3 284 285 286
3 876 992 1894
3 497 494 498
3 1630 1635 2041
3 982 1148 1918
3 612 611 613
3 700 634 1044
3 822 674 2099
3 880 1129 1929
3 432 439 654
3 1039 1291 1292
3 1164 1686 1989
3 1129 1025 1317
3 738 845 846
3 582 583 629
3 278 6 279
3 544 568 569
3 1701 1274 1931
3 747 749 751
3 1085 953 1308
3 928 930 1070
3 747 748 749
3 1421 1422 2415
3 902 903 904
3 1309 1308 1543
3 642 641 643
3 904 981 1792
3 646 784 785
3 536 543 544
3 1204 1205 1207
3 365 694 958
3 71 72 217
3 88 89 1901
3 87 88 193
3 101 102 189
3 85 86 242
3 99 100 241
3 74 75 192
3 91 92 219
3 94 95 191
3 83 84 220
3 97 98 221
3 77 78 218
3 80 81 194
3 89 90 245
3 62 63 244
3 60 61 188
3 64 65 223
3 67 68 190
3 90 91 1909
3 98 99 1905
3 61 62 1908
3 69 70 243
3 68 69 1907
3 70 71 1910
3 410 411 416
3 586 589 590
3 685 684 2029
3 390 389 391
3 1715 1150 1811
3 1924 1837 2215
3 282 283 284
3 496 497 1929
3 233 1671 1769
3 627 2185 2442
3 1567 1552 2062
3 629 630 812
3 424 453 454
3 583 562 1942
3 749 750 805
3 744 743 745
3 1897 535 1898
3 467 480 481
3 504 759 880
3 670 643 671
3 89 245 1901
3 193 88 1901
3 221 98 1905
3 245 90 1909
3 91 219 1909
3 62 244 1908
3 188 61 1908
3 99 241 1905
3 190 68 1907
3 71 217 1910
3 69 243 1907
3 243 70 1910
3 505 499 506
3 475 513 514
3 1945 1044 2071
3 1712 2125 2353
3 339 343 440
3 989 1360 1361
3 764 869 1152
3 778 777 779
3 1686 1685 1687
3 742 741 743
3 979 989 1886
3 729 731 1887
3 926 927 928
3 1305 1306 1307
3 1838 1278 2292
3 747 746 748
3 181 182 1652
3 1886 1361 2305
3 1595 1594 2486
3 597 596 598
3 928 1288 1920
3 1970 824 2156
3 1425 1424 1426
3 497 504 1929
3 748 746 1896
3 745 747 1900
3 998 858 1171
3 563 547 564
3 1155 729 1887
3 634 583 1942
3 1439 1173 1440
3 1026 1027 1086
3 79 80 1904
3 1533 1532 1536
3 1449 1426 1513
3 1106 609 1936
3 1318 1013 1319
3 1098 695 1828
3 492 494 496
3 750 748 754
3 731 738 1887
3 2415 1422 2516
3 533 562 582
3 988 1837 1924
3 1216 1215 1863
3 534 535 536
3 747 751 1900
3 1753 809 2119
3 1183 824 1970
3 740 495 741
3 80 194 1904
3 893 383 2087
3 655 605 1939
3 1884 2034 2082
3 1301 1857 1923
3 1307 1306 1708
3 752 745 1900
3 750 754 755
3 76 77 1903
3 2090 2347 2365
3 255 30 2159
3 132 254 2160
3 448 434 449
3 753 848 926
3 1075 1074 1327
3 487 488 495
3 377 381 647
3 483 484 485
3 755 754 2148
3 1584 1925 2277
3 1186 1183 1970
3 951 891 1281
3 485 484 486
3 546 527 547
3 133 134 1766
3 1786 1785 2409
3 280 281 282
3 460 449 461
3 744 745 752
3 77 218 1903
3 983 1918 2342
3 1708 1306 1810
3 1389 2069 2170
3 487 486 488
3 641 573 1954
3 507 518 519
3 502 461 503
3 519 518 1899
3 1202 1203 1204
3 821 897 1972
3 92 93 1902
3 521 529 530
3 749 748 750
3 2176 1380 2416
3 885 826 886
3 485 486 487
3 371 372 376
3 1289 1070 1871
3 1110 1657 1747
3 753 926 1943
3 700 1044 1944
3 880 881 1025
3 496 1845 2034
3 1072 1981 2393
3 462 464 2134
3 1949 1771 2359
3 1044 634 1942
3 550 584 1927
3 1390 1415 2118
3 526 503 527
3 990 845 1931
3 1009 1213 1214
3 740 742 1144
3 219 92 1902
3 727 1155 1899
3 369 370 371
3 623 690 2150
3 1279 1058 1928
3 1408 2235 2286
3 487 495 740
3 979 1886 2086
3 1305 1303 1306
3 421 412 1951
3 843 844 996
3 633 669 807
3 518 727 1899
3 826 825 1961
3 1657 1106 1936
3 1172 1012 1173
3 740 741 742
3 433 417 434
3 505 506 507
3 1333 1674 2437
3 742 743 744
3 469 458 470
3 1381 1380 1382
3 1293 1965 2515
3 1554 1559 2062
3 553 557 2499
3 1774 389 2339
3 497 498 499
3 483 485 576
3 740 1144 1935
3 773 735 834
3 366 367 369
3 1120 1118 1876
3 1515 1523 1574
3 1319 1013 2039
3 1303 1301 1923
3 457 447 458
3 561 593 594
3 1355 1424 1425
3 609 491 1936
3 204 1732 2137
3 791 1408 1642
3 995 944 1825
3 456 471 475
3 1692 1693 2239
3 580 1763 2164
3 1292 1293 2117
3 441 452 456
3 388 384 389
3 823 821 1972
3 504 880 1929
3 176 177 1680
3 1070 1071 1871
3 15 2260 2477
3 362 363 366
3 2178 2300 2449
3 1035 883 1036
3 2285 1563 2307
3 978 977 1074
3 1090 1102 2029
3 1810 1306 1923
3 496 494 497
3 1306 1303 1923
3 432 654 1915
3 934 933 935
3 356 355 365
3 398 403 404
3 635 701 843
3 1110 1106 1657
3 574 571 575
3 1025 881 1176
3 386 380 786
3 415 432 1915
3 343 347 1911
3 1070 930 1071
3 1688 1740 2231
3 1385 1216 1863
3 1696 1274 1701
3 1645 305 2317
3 880 759 881
3 926 848 927
3 1427 1423 2217
3 1339 1662 2388
3 770 774 775
3 1263 1257 1428
3 1337 1864 2412
3 349 348 355
3 2267 1721 2498
3 753 752 847
3 1375 1086 1473
3 900 982 983
3 332 335 739
3 429 428 430
3 744 752 753
3 1171 2132 2165
3 1425 1426 1449
3 987 641 1954
3 1883 1786 2409
3 427 426 428
3 928 927 930
3 1815 1105 2015
3 1206 1499 1941
3 410 406 411
3 573 540 1954
3 497 499 504
3 528 560 561
3 1933 1404 2399
3 1091 1089 1969
3 1804 1282 2073
3 504 505 759
3 963 924 1113
3 1711 1710 1712
3 881 759 1146
3 968 1199 1200
3 351 352 362
3 848 847 1026
3 521 530 531
3 1884 490 2034
3 1277 957 1966
3 1349 1350 2329
3 676 1043 2045
3 997 1159 1286
3 517 1889 1890
3 781 835 836
3 944 948 1283
3 722 1776 2026
3 507 519 520
3 2040 1352 2058
3 1276 957 1277
3 446 437 447
3 931 860 977
3 361 359 765
3 1248 1536 2534
3 512 523 528
3 408 412 413
3 1368 1369 1370
3 451 2169 2223
3 192 75 1994
3 942 756 2026
3 345 344 348
3 764 1152 1963
3 413 418 419
3 1286 1773 1774
3 770 671 774
3 275 549 2124
3 1497 1645 2461
3 1982 1472 2272
3 422 435 441
3 281 279 736
3 1134 270 1135
3 582 562 583
3 1421 2415 2454
3 485 487 1935
3 2300 1067 2480
3 1578 1576 1827
3 930 927 1061
3 1026 1086 1375
3 922 2259 2379
3 1391 1120 1876
3 1495 1494 2493
3 404 407 408
3 879 2178 2449
3 1700 1698 2036
3 607 1517 1520
3 753 847 848
3 416 411 417
3 1144 742 1943
3 775 776 777
3 754 2108 2148
3 1006 1421 1953
3 585 581 586
3 531 530 532
3 235 1709 1888
3 520 519 521
3 1180 1181 1349
3 1146 759 1967
3 708 710 1921
3 1350 2253 2329
3 436 430 437
3 504 499 505
3 643 641 987
3 336 330 517
3 811 1059 1149
3 1164 1411 1685
3 846 933 934
3 635 843 1960
3 983 982 1918
3 971 872 1096
3 1149 1163 1164
3 169 237 1724
3 1314 1315 1316
3 629 583 630
3 891 812 1916
3 462 463 464
3 487 740 1935
3 798 2084 2189
3 1814 1838 2292
3 1284 1489 1491
3 340 336 2014
3 1670 1461 2200
3 920 782 2057
3 890 2241 2275
3 510 511 512
3 278 279 280
3 839 802 840
3 1858 235 1888
3 1698 1696 2036
3 104 105 222
3 57 58 224
3 1185 1183 1186
3 588 587 623
3 638 600 1988
3 1282 1386 2245
3 811 776 1058
3 816 815 876
3 2034 1845 2082
3 761 636 1741
3 566 565 587
3 174 175 1725
3 347 350 351
3 1469 1495 1496
3 1059 1058 1278
3 811 1149 1976
3 576 485 1935
3 659 658 660
3 859 1153 1962
3 76 1903 1994
3 1821 1109 2426
3 1294 1038 1622
3 733 1833 2075
3 992 993 1980
3 1566 1561 2285
3 525 474 2041
3 464 465 510
3 343 346 347
3 360 893 1982
3 650 649 651
3 896 608 936
3 950 1006 1007
3 1508 1859 1860
3 539 538 565
3 440 343 1911
3 341 340 344
3 221 1905 1906
3 1297 1823 2142
3 759 505 1967
3 1295 1053 1296
3 473 470 474
3 1463 1465 1466
3 1143 1206 2028
3 799 685 800
3 1210 2077 2203
3 509 508 538
3 492 496 2034
3 1553 1551 2030
3 1260 1261 1269
3 1430 1040 1703
3 586 590 1940
3 838 836 868
3 1705 624 2276
3 1749 972 2501
3 742 744 1943
3 804 962 1981
3 1367 1368 2254
3 531 532 533
3 337 336 340
3 1157 1094 1544
3 536 544 1158
3 812 630 1960
3 781 779 835
3 56 57 1947
3 630 583 634
3 1405 1404 1932
3 1281 891 1916
3 339 342 343
3 1411 1163 1730
3 322 323 324
3 344 340 2091
3 1735 1734 1736
3 75 76 1994
3 430 682 2494
3 1907 243 2360
3 589 581 2164
3 694 355 2196
3 744 753 1943
3 775 774 776
3 1210 1430 2077
3 335 338 339
3 1102 1803 2029
3 1078 937 1079
3 870 655 1939
3 505 507 1967
3 357 360 1982
3 1896 1878 2101
3 326 325 328
3 934 935 957
3 585 608 895
3 333 330 336
3 1270 1272 1524
3 688 817 878
3 507 520 1967
3 1428 1257 2074
3 1818 1817 2000
3 896 937 1077
3 934 957 1111
3 329 328 330
3 1499 995 1825
3 944 851 948
3 387 445 462
3 1678 1161 2228
3 777 776 811
3 313 311 757
3 324 331 332
3 848 1026 1955
3 1312 998 1811
3 1321 1322 2037
3 1080 1079 1121
3 1105 1355 2015
3 1645 2317 2461
3 1559 1568 2062
3 332 334 335
3 501 500 508
3 321 325 326
3 394 395 397
3 322 320 323
3 1529 1530 2171
3 1137 797 1138
3 811 1058 1059
3 661 660 662
3 569 581 585
3 183 4 2303
3 5 160 2304
3 1340 1138 1341
3 1660 1626 2185
3 1743 1464 2347
3 1026 1375 1955
3 1149 1059 1163
3 1736 1625 2194
3 1322 1667 2434
3 311 309 1959
3 309 307 319
3 894 700 1944
3 533 534 562
3 1276 1277 1366
3 2190 1706 2408
3 533 532 534
3 1214 1213 1410
3 1164 1163 1411
3 843 701 844
3 1009 1214 2055
3 234 1589 1788
3 2000 1817 2174
3 317 321 2050
3 328 325 945
3 392 393 394
3 588 623 2089
3 1162 958 1681
3 1078 1080 1136
3 927 848 1955
3 1496 1497 1498
3 390 391 392
3 1061 927 1955
3 1283 948 1284
3 635 634 700
3 1244 1251 1252
3 218 78 2093
3 756 722 2026
3 1071 1784 2419
3 1218 1505 2185
3 1284 948 1285
3 1489 1285 1490
3 918 1850 1851
3 684 1090 2029
3 1759 572 2537
3 1691 1690 2446
3 1979 1158 2071
3 606 649 650
3 2045 1043 2046
3 103 104 2025
3 630 634 635
3 360 383 893
3 406 386 2043
3 1909 219 2023
3 1111 957 1276
3 1925 1437 2277
3 1536 2268 2340
3 854 852 1133
3 233 153 1671
3 651 658 659
3 2099 1787 2368
3 1033 1032 1130
3 1015 1372 1373
3 1412 942 2026
3 253 264 1441
3 1531 1534 2332
3 701 700 894
3 106 107 1990
3 2048 1961 2455
3 276 274 2099
3 738 846 1968
3 1325 925 1326
3 896 936 937
3 585 586 608
3 1450 854 1973
3 1361 1360 1362
3 1045 1668 2512
3 303 301 444
3 996 844 997
3 79 1904 2093
3 1989 1686 2095
3 1928 774 2033
3 1942 562 1979
3 287 285 316
3 935 950 1966
3 1466 1467 1468
3 1242 1243 1244
3 1887 738 1968
3 2115 210 2477
3 878 929 1083
3 1326 1736 2194
3 886 888 1014
3 895 608 896
3 289 287 1978
3 821 822 897
3 936 608 1940
3 613 614 615
3 51 52 1996
3 417 411 1160
3 1149 1164 1989
3 386 786 2043
3 285 283 1971
3 1309 1543 2147
3 375 373 2053
3 371 370 372
3 779 777 1976
3 1286 1159 1773
3 2177 887 2376
3 1560 1557 1564
3 1403 1882 2399
3 1727 1757 2246
3 279 6 2049
3 1619 1438 2438
3 291 289 758
3 1781 1915 2294
3 425 401 426
3 349 355 356
3 66 67 2118
3 474 548 2041
3 1686 1687 2007
3 1262 1456 1457
3 1123 942 1412
3 1916 812 1960
3 1355 1425 2015
3 735 733 2075
3 1861 879 2449
3 1284 1285 1489
3 490 492 2034
3 366 363 367
3 980 578 2051
3 906 904 1792
3 534 536 1979
3 842 924 963
3 2051 578 2083
3 1077 937 1078
3 1102 1104 1803
3 894 1944 1946
3 398 404 2060
3 1007 1006 1953
3 369 367 370
3 348 354 2196
3 1078 1079 1080
3 1378 1380 1381
3 1568 1365 2439
3 608 586 1940
3 598 610 611
3 760 636 761
3 869 1137 1351
3 671 643 2033
3 1661 1345 2267
3 938 914 1057
3 783 761 914
3 576 1835 2144
3 388 389 390
3 297 295 318
3 454 453 500
3 1906 1728 2246
3 1439 1440 2468
3 1159 1013 1318
3 764 797 869
3 236 143 1717
3 782 644 2057
3 592 595 596
3 1542 2332 2443
3 1521 1311 2147
3 345 348 349
3 1304 1452 2205
3 1644 1907 2360
3 2146 1125 2149
3 997 844 1013
3 628 375 2053
3 299 297 1984
3 957 935 1966
3 664 685 799
3 301 299 1975
3 362 352 363
3 777 811 1976
3 1942 1979 2071
3 1001 920 2057
3 312 314 768
3 1552 1554 2062
3 615 616 617
3 357 1982 2076
3 800 802 839
3 774 671 2033
3 1749 1169 2105
3 365 958 1162
3 617 618 619
3 283 281 1938
3 1351 1772 2414
3 1525 1765 2489
3 846 934 1968
3 635 700 701
3 555 554 577
3 536 1158 1979
3 1101 1404 1405
3 630 635 1960
3 1811 1150 2089
3 2113 1666 2249
3 172 173 1847
3 107 108 195
3 54 55 196
3 1191 1768 2023
3 1455 1302 2205
3 115 116 2017
3 1387 1333 2437
3 659 661 764
3 1080 1121 1188
3 50 51 2011
3 411 406 2043
3 295 293 1983
3 643 987 2033
3 707 706 708
3 129 130 261
3 32 33 260
3 2159 260 2265
3 449 434 567
3 1314 1029 1315
3 917 796 940
3 378 375 628
3 108 109 1991
3 2370 1759 2537
3 341 344 345
3 997 1013 1159
3 544 569 1993
3 950 1007 1966
3 477 474 525
3 351 350 352
3 1696 1701 2036
3 334 331 803
3 1137 1138 1340
3 562 534 1979
3 109 110 246
3 52 53 247
3 1368 1316 1369
3 659 660 661
3 33 34 2002
3 123 124 2005
3 835 779 1976
3 851 838 1992
3 1530 1533 2172
3 1668 1045 2348
3 1162 1681 1706
3 342 338 468
3 298 300 358
3 765 359 2065
3 725 826 885
3 35 36 2003
3 46 47 2019
3 38 39 2006
3 336 517 2014
3 934 1111 1968
3 116 117 2018
3 650 651 1963
3 223 1711 2162
3 640 594 645
3 1333 1330 2192
3 104 222 2025
3 1603 922 2379
3 963 1113 1115
3 2084 1193 2189
3 564 570 571
3 36 37 2004
3 57 224 1947
3 1542 1601 2269
3 122 123 2012
3 1000 920 1001
3 127 128 240
3 34 35 239
3 383 387 2087
3 1161 1107 2228
3 1781 2294 2419
3 1201 1200 1202
3 124 125 225
3 37 38 226
3 1340 1341 1342
3 869 797 1137
3 839 840 1008
3 1158 544 1993
3 1326 925 1894
3 352 350 353
3 326 329 954
3 1864 2344 2412
3 836 835 2095
3 1051 1053 1295
3 1031 720 1032
3 503 461 787
3 1407 1112 2044
3 661 662 2058
3 838 868 1992
3 112 113 197
3 49 50 198
3 1359 980 1413
3 121 122 211
3 40 41 212
3 48 49 2010
3 113 114 2009
3 1741 673 2131
3 41 42 2020
3 120 121 2013
3 1409 2035 2097
3 1511 1374 2506
3 114 115 248
3 47 48 249
3 42 43 250
3 119 120 251
3 171 6 201
3 6 172 203
3 585 895 1993
3 43 44 2024
3 118 119 2021
3 905 904 906
3 764 661 797
3 337 340 341
3 1413 980 2051
3 117 118 205
3 44 45 206
3 347 346 350
3 1420 1076 1525
3 324 323 331
3 434 417 2031
3 965 967 969
3 716 719 788
3 1260 1254 1261
3 2053 373 2103
3 2069 2068 2170
3 326 328 329
3 1706 996 2408
3 273 275 2124
3 969 1011 1012
3 590 606 2001
3 1718 1611 2280
3 1914 1940 2001
3 915 1884 2082
3 329 330 333
3 620 859 955
3 2168 1409 2305
3 296 298 1997
3 915 2082 2101
3 339 338 342
3 1218 994 1505
3 333 336 337
3 266 263 1742
3 1873 768 2127
3 244 63 2162
3 64 223 2162
3 343 342 346
3 914 761 2258
3 310 312 1987
3 799 800 2055
3 302 304 763
3 1559 1566 1568
3 1598 1343 2114
3 592 575 595
3 341 345 794
3 189 1842 2220
3 767 815 816
3 1003 912 1004
3 839 1008 1009
3 1263 1428 1429
3 564 547 570
3 1845 1334 2082
3 332 331 334
3 901 866 902
3 651 659 1963
3 1009 1112 1213
3 335 334 338
3 569 585 1993
3 1665 1336 2299
3 1945 2071 2153
3 863 862 864
3 907 906 908
3 1849 1486 1930
3 1935 1144 2080
3 967 966 968
3 809 900 2119
3 865 864 866
3 835 1989 2095
3 190 1907 2417
3 333 337 522
3 1110 1748 2228
3 1193 1194 1195
3 94 191 2166
3 473 1854 2453
3 1769 1134 2369
3 948 851 1992
3 237 170 2216
3 420 419 422
3 1448 1447 2364
3 483 576 2144
3 721 1919 2032
3 885 886 1891
3 613 611 614
3 886 1014 1891
3 1160 411 2043
3 1918 1283 2342
3 1651 206 2485
3 1242 1240 1243
3 598 596 610
3 1295 1296 1459
3 1185 1186 1948
3 1425 1449 2070
3 294 296 762
3 1285 948 1992
3 925 876 1894
3 712 714 789
3 603 1668 2398
3 1940 590 2001
3 721 570 964
3 834 735 2075
3 1144 1920 2080
3 2263 1635 2511
3 1204 1207 1335
3 2235 1408 2378
3 965 964 966
3 1990 1435 2218
3 397 398 2060
3 1138 797 2058
3 1787 1141 2368
3 2068 820 2170
3 360 359 361
3 387 462 2087
3 1524 1272 1934
3 819 698 820
3 1197 1196 1198
3 1662 2126 2388
3 78 79 2093
3 1150 588 2089
3 1269 1261 1270
3 1878 915 2101
3 451 467 2169
3 2262 1387 2437
3 1009 1008 1112
3 757 311 1959
3 897 898 1139
3 1854 473 2483
3 2015 1425 2070
3 2082 1334 2101
3 963 1115 1174
3 1047 1049 1287
3 1194 423 1196
3 321 326 2050
3 417 1160 2031
3 854 1133 1973
3 1201 1212 1348
3 705 1586 2163
3 309 319 1959
3 1353 1390 2417
3 427 428 429
3 357 356 359
3 606 650 2001
3 549 1280 2124
3 1213 1112 1407
3 256 2303 2535
3 356 365 2065
3 662 664 2040
3 701 894 2039
3 1325 1371 2451
3 666 626 667
3 1902 93 2166
3 1236 1234 1246
3 800 839 2055
3 1869 1812 2252
3 1197 1364 1365
3 576 1935 2080
3 404 408 798
3 1678 807 2529
3 1560 1564 2016
3 1319 2039 2122
3 425 426 427
3 349 356 357
3 308 310 327
3 1716 622 2484
3 1801 82 2289
3 1768 1949 2420
3 2006 1926 2507
3 351 364 2407
3 420 423 1193
3 659 764 1963
3 292 294 2038
3 840 842 2027
3 736 279 2049
3 372 373 374
3 461 449 2052
3 2189 1195 2285
3 1174 1115 1398
3 367 363 961
3 909 908 918
3 1738 247 2402
3 1007 1761 2308
3 288 290 2135
3 422 441 2035
3 623 624 690
3 537 525 545
3 1953 1421 2454
3 1887 1968 2123
3 861 691 862
3 654 439 2223
3 1136 1080 2054
3 1312 1811 2089
3 575 571 2032
3 383 361 384
3 968 1200 1201
3 797 661 2058
3 1423 1354 2381
3 1180 1178 1181
3 1513 1515 2180
3 72 73 2217
3 462 445 463
3 12 13 2136
3 457 458 469
3 542 554 555
3 599 636 760
3 254 133 1766
3 1130 1397 1937
3 404 798 2060
3 1044 1942 2071
3 690 691 860
3 357 359 360
3 1008 2027 2152
3 1232 1230 1255
3 372 370 373
3 850 943 2125
3 1457 1456 1492
3 1952 324 2282
3 155 2 2356
3 0 7 2357
3 2017 1379 2288
3 918 1851 2008
3 195 1991 2517
3 2090 803 2347
3 1244 1243 1251
3 290 292 368
3 1432 1082 2214
3 1008 840 2027
3 1743 803 2296
3 1013 844 2039
3 365 1162 2065
3 1594 1315 2184
3 387 384 388
3 1508 1860 2311
3 547 527 2056
3 2005 225 2322
3 314 317 2127
3 1853 556 2327
3 201 6 278
3 1907 1644 2417
3 1896 2101 2108
3 646 645 784
3 538 508 558
3 374 375 377
3 1630 1634 1635
3 1579 1999 2352
3 1647 1648 1849
3 1313 1314 2121
3 1179 1433 2042
3 844 701 2039
3 1252 1251 2098
3 816 876 925
3 1922 1228 2281
3 392 394 396
3 1915 654 2294
3 1652 1653 2487
3 429 430 436
3 456 475 476
3 1605 1392 2510
3 126 1882 2284
3 1784 1780 2419
3 500 453 960
3 377 378 381
3 2178 1587 2300
3 1222 1219 1626
3 413 419 420
3 381 382 400
3 2169 1836 2223
3 1906 1905 2129
3 616 614 793
3 1170 1419 2139
3 101 189 2220
3 241 100 2220
3 1968 1111 2123
3 567 434 2031
3 615 614 616
3 1032 720 1921
3 682 428 2138
3 469 470 473
3 339 440 2261
3 1501 238 2226
3 1154 1431 1653
3 446 447 457
3 1251 1243 1257
3 2229 315 2495
3 1201 1202 1212
3 785 784 879
3 464 463 465
3 66 2118 2395
3 324 332 2282
3 286 288 771
3 17 199 2081
3 571 570 721
3 611 610 2092
3 617 616 618
3 1542 1531 2332
3 400 401 424
3 1325 1326 1371
3 1140 1406 1702
3 1323 443 2302
3 1926 1573 2507
3 436 437 446
3 1262 1457 2098
3 67 190 2118
3 1518 1861 2449
3 989 1359 1360
3 1063 1082 1154
3 1757 96 2526
3 969 967 1011
3 868 836 2095
3 1215 1035 2235
3 96 1757 2309
3 261 2160 2380
3 1381 1382 2126
3 1468 1469 2182
3 1334 1317 2108
3 861 863 1064
3 1270 1261 1271
3 360 361 383
3 287 316 1978
3 1856 192 2367
3 1905 241 2129
3 1615 1809 2425
3 528 523 560
3 979 980 989
3 662 2040 2058
3 721 964 965
3 170 171 2216
3 664 799 2040
3 512 511 523
3 1201 1348 2107
3 620 618 858
3 758 289 1978
3 859 858 998
3 424 425 453
3 1616 1615 2193
3 444 301 1975
3 561 560 593
3 965 966 967
3 1798 376 2430
3 340 2014 2091
3 510 465 511
3 107 195 1990
3 1080 1188 2054
3 1153 998 1312
3 1226 1224 1249
3 1012 1011 1363
3 902 904 905
3 842 963 2027
3 268 270 1134
3 865 901 1125
3 2077 558 2102
3 282 284 442
3 1977 1679 2253
3 1496 1498 2047
3 284 286 2063
3 281 736 1938
3 2132 793 2165
3 1674 215 2437
3 2078 1855 2411
3 839 1009 2055
3 1182 824 1183
3 1168 947 1169
3 1289 1871 2242
3 316 285 1971
3 1270 1271 1272
3 1755 1793 2264
3 51 1996 2011
3 383 384 387
3 1146 1924 2215
3 1279 1928 2202
3 619 618 620
3 1194 1196 1197
3 555 578 979
3 1937 1639 2528
3 1262 1257 1263
3 389 384 2339
3 2251 1338 2464
3 1155 1887 2123
3 1151 1937 2528
3 465 463 828
3 1318 1319 2116
3 1687 1688 2231
3 326 954 2050
3 297 318 1984
3 1308 953 2255
3 1846 2056 2198
3 320 315 2229
3 1254 1252 2059
3 760 761 783
3 951 1281 2255
3 1459 1296 2094
3 2288 1638 2470
3 1975 299 1984
3 52 247 1996
3 468 338 2090
3 2140 1511 2506
3 1125 1126 1192
3 593 824 1182
3 720 708 1921
3 704 706 707
3 623 587 624
3 2044 1112 2152
3 1393 1169 1749
3 900 983 2119
3 783 914 938
3 255 2265 2489
3 2039 894 2122
3 317 2050 2127
3 1866 1867 2513
3 374 373 375
3 429 436 455
3 387 388 445
3 1193 423 1194
3 555 577 578
3 1074 977 1187
3 449 567 2052
3 1197 1198 1364
3 2154 1595 2486
3 1486 1849 2173
3 318 295 1983
3 939 1016 1844
3 131 132 2160
3 30 31 2159
3 881 1146 2215
3 1294 1868 2238
3 1300 1455 2314
3 1365 1364 1912
3 783 938 939
3 2061 1735 2441
3 551 545 601
3 2194 216 2536
3 1251 1257 1262
3 888 887 2177
3 1364 1198 2048
3 1498 1682 2340
3 1589 1590 2501
3 60 188 2266
3 1401 1913 2324
3 195 108 1991
3 420 422 423
3 1675 1470 2474
3 258 1673 2183
3 2161 1619 2438
3 1296 1472 2094
3 1808 1910 2381
3 334 803 2090
3 1490 1285 2232
3 523 511 524
3 1240 1238 2074
3 1184 1183 1185
3 39 40 2151
3 473 474 477
3 1461 1463 2200
3 2072 353 2073
3 861 862 863
3 1206 1941 2401
3 958 1575 2287
3 614 611 2092
3 110 111 2140
3 1136 2054 2110
3 645 594 2133
3 260 33 2002
3 673 767 2131
3 989 980 1359
3 1741 2131 2258
3 1317 1875 2148
3 894 1946 2122
3 863 864 865
3 787 461 2052
3 857 2277 2386
3 109 246 1991
3 2017 116 2018
3 1182 1183 1184
3 377 375 378
3 816 925 1324
3 865 866 901
3 1262 1263 1456
3 359 356 2065
3 2129 241 2472
3 283 1938 1971
3 1458 1210 2203
3 1076 1003 2145
3 196 1738 2402
3 1033 1130 1151
3 1188 1121 2106
3 1140 1702 2096
3 549 687 1280
3 1694 1621 2191
3 861 1064 2112
3 1548 1549 2129
3 1784 1071 2462
3 714 716 2066
3 1961 825 2455
3 1447 1211 2250
3 979 578 980
3 905 907 1209
3 381 378 382
3 457 469 552
3 595 575 2032
3 408 413 2084
3 481 483 2144
3 1745 1349 2293
3 1980 1405 2441
3 198 50 2011
3 248 115 2017
3 912 819 2068
3 620 858 859
3 707 708 720
3 821 674 822
3 514 542 2086
3 400 382 401
3 123 2005 2012
3 1772 1351 2374
3 34 239 2002
3 768 314 2127
3 2003 36 2004
3 280 282 2079
3 124 225 2005
3 596 595 2130
3 593 560 824
3 1504 1502 2519
3 239 35 2003
3 1311 1309 2147
3 1318 1877 2240
3 1860 1432 2311
3 1416 1715 2330
3 859 998 1153
3 352 353 2072
3 312 768 1987
3 2027 1174 2152
3 226 38 2006
3 1827 1024 2117
3 1710 1391 2295
3 690 624 691
3 37 226 2004
3 1153 1312 1885
3 853 855 2186
3 1892 242 2373
3 1967 520 2174
3 939 938 1016
3 47 249 2019
3 388 390 2078
3 1991 2139 2517
3 905 906 907
3 571 721 2032
3 1196 423 2035
3 1324 925 1325
3 1151 1130 1937
3 363 352 2072
3 345 349 2076
3 1031 1032 1033
3 214 179 1859
3 211 122 2012
3 602 601 652
3 117 205 2018
3 710 712 2067
3 1602 187 2357
3 520 2000 2174
3 85 242 2335
3 220 84 2335
3 381 400 2113
3 1586 1587 2435
3 424 401 425
3 963 1174 2027
3 860 691 861
3 610 596 2130
3 1958 2078 2431
3 570 547 2056
3 237 2216 2354
3 1211 1692 2219
3 298 358 1997
3 909 947 1041
3 441 456 2097
3 1135 1647 1849
3 1601 1542 2443
3 197 113 2009
3 49 198 2010
3 1911 347 2407
3 1729 191 2309
3 212 41 2020
3 121 211 2013
3 222 105 2218
3 1125 901 1126
3 114 248 2009
3 249 48 2010
3 42 250 2020
3 251 120 2013
3 233 1769 2369
3 1870 647 2113
3 794 345 2076
3 250 43 2024
3 119 251 2021
3 901 902 2141
3 964 570 2056
3 739 335 2261
3 2108 1317 2148
3 577 599 2083
3 205 118 2021
3 44 206 2024
3 1247 1241 2323
3 1894 992 2244
3 6 203 2049
3 1642 1678 2529
3 1417 1873 2333
3 1422 2023 2516
3 341 794 2100
3 73 74 2361
3 1234 1232 2088
3 1261 1254 2059
3 896 1077 2257
3 1921 710 2067
3 125 126 2284
3 220 1699 2289
3 159 5 2304
3 4 184 2303
3 2059 1252 2098
3 1003 1004 2145
3 2328 1325 2451
3 1486 227 1500
3 63 64 2162
3 2081 1192 2260
3 508 500 2102
3 667 1872 2318
3 338 334 2090
3 423 422 2035
3 1192 1126 1471
3 907 908 909
3 1330 1328 2192
3 1972 897 2500
3 2443 316 2514
3 242 86 2373
3 87 193 2373
3 420 1193 2084
3 1473 1086 2358
3 1987 768 2037
3 522 337 2100
3 627 1660 2185
3 1793 446 2264
3 1405 2061 2441
3 1502 1217 2302
3 171 201 2216
3 1158 1993 2153
3 1197 1365 2120
3 1712 1710 2295
3 1121 1401 2414
3 93 94 2166
3 653 652 688
3 622 1716 2452
3 1345 1720 2267
3 477 537 556
3 128 129 2181
3 2331 1295 2458
3 784 645 874
3 1269 1270 2199
3 189 102 2355
3 1041 1168 1343
3 246 110 2140
3 477 525 537
3 755 1895 2371
3 1947 1723 2313
3 1134 1135 2369
3 223 65 2395
3 968 1201 2107
3 1577 1578 2325
3 210 15 2477
3 961 363 2072
3 1581 1579 2352
3 349 357 2076
3 337 341 2100
3 305 303 2317
3 370 367 2103
3 762 296 1997
3 581 580 2164
3 1278 1838 2372
3 1548 2129 2472
3 594 593 2133
3 2021 251 2022
3 2047 1247 2182
3 967 968 2107
3 1169 947 2008
3 481 2144 2169
3 793 614 2092
3 1910 217 2381
3 1251 1262 2098
3 716 788 2066
3 2101 1334 2108
3 2006 39 2151
3 1603 2379 2508
3 1926 2006 2151
3 96 97 2526
3 750 755 2371
3 789 714 2066
3 909 918 947
3 1993 895 2153
3 106 1990 2218
3 1243 1240 2074
3 832 986 1189
3 1283 1284 2342
3 2297 195 2517
3 1043 829 2326
3 767 816 2131
3 602 653 676
3 1004 912 2068
3 2086 1886 2224
3 1124 2177 2467
3 426 401 2531
3 707 720 1030
3 1000 1001 2184
3 1315 1029 2184
3 467 481 2169
3 541 513 2256
3 647 381 2113
3 225 2284 2510
3 2 156 2356
3 187 0 2357
3 40 212 2151
3 2245 1386 2383
3 676 677 829
3 1004 2068 2069
3 1860 232 2487
3 1031 1033 1034
3 829 830 972
3 996 997 2408
3 1195 1194 2120
3 987 1869 2202
3 1410 1213 2222
3 819 820 2068
3 1485 1486 2173
3 1564 2030 2155
3 807 669 2529
3 129 261 2181
3 1525 1076 2145
3 578 577 2083
3 327 310 1987
3 1083 929 2197
3 2131 1324 2258
3 798 408 2084
3 1838 696 2426
3 1486 1500 1930
3 1946 1944 2291
3 2257 1077 2291
3 1512 1661 2266
3 445 388 2078
3 1192 1471 2260
3 2118 1415 2395
3 1466 1468 2158
3 830 677 831
3 211 2012 2251
3 652 601 2442
3 537 545 551
3 558 508 2102
3 198 2011 2128
3 1718 2280 2385
3 500 960 2102
3 1168 1169 1393
3 1127 971 2496
3 95 96 2309
3 2030 1565 2155
3 1919 1172 2273
3 977 860 2112
3 240 128 2181
3 294 762 2038
3 1800 1799 2195
3 712 789 2067
3 972 1749 2326
3 472 1683 2212
3 874 645 2133
3 551 2045 2201
3 2105 1043 2326
3 1957 1212 2301
3 1514 1856 2367
3 565 538 2167
3 373 370 2103
3 355 348 2196
3 1934 1272 2138
3 1934 426 2531
3 1881 1400 2481
3 2046 1851 2327
3 367 961 2103
3 1963 1152 2206
3 201 278 443
3 3 131 2444
3 31 1 2445
3 2035 441 2097
3 503 787 2198
3 1135 1849 1930
3 1534 1983 2306
3 2089 623 2150
3 687 704 2109
3 869 1351 2363
3 1302 1304 2205
3 955 1716 2484
3 1030 720 1031
3 1159 1318 2240
3 1228 1226 2281
3 947 918 2008
3 413 420 2084
3 785 879 2532
3 1041 947 1168
3 1468 2182 2323
3 1246 1234 2088
3 1730 1163 2372
3 542 555 2086
3 1599 631 2312
3 1146 1967 2174
3 1078 1136 2343
3 1515 1574 2180
3 2336 885 2469
3 1257 1243 2074
3 1347 1346 2279
3 2001 650 2206
3 1480 1601 2514
3 1029 1000 2184
3 1956 788 2336
3 1271 1261 2059
3 130 3 2444
3 1 32 2445
3 1570 1507 2197
3 1232 1255 2088
3 791 1642 2529
3 1601 1479 2269
3 1361 1362 2168
3 1634 1922 2281
3 765 2065 2190
3 2071 1158 2153
3 1699 1801 2289
3 832 831 833
3 1864 346 2344
3 456 476 2097
3 1855 828 2411
3 2065 1162 2190
3 1125 1192 2149
3 599 760 2083
3 361 765 2339
3 1731 2123 2241
3 1349 1181 1350
3 1443 1275 2251
3 1819 524 2429
3 1021 1045 2512
3 858 618 2132
3 1999 358 2338
3 368 292 2038
3 290 368 2135
3 803 331 2296
3 1112 1008 2152
3 56 1947 2313
3 555 979 2086
3 1469 1496 2182
3 1011 967 2107
3 248 2017 2288
3 1809 789 2425
3 960 453 2221
3 538 558 2167
3 1858 1187 2248
3 2246 1757 2526
3 902 905 2141
3 1851 1853 2327
3 1224 1222 2111
3 771 288 2135
3 1945 2153 2257
3 1420 1525 2489
3 1399 1123 2393
3 103 2025 2355
3 897 822 898
3 1861 940 2532
3 865 1125 2146
3 1675 2474 2522
3 1573 2157 2507
3 1632 1631 2382
3 551 601 602
3 527 503 2198
3 1708 805 2337
3 1059 1278 2372
3 2056 527 2198
3 860 861 2112
3 1668 2348 2398
3 255 2159 2265
3 1541 1542 2269
3 1428 2074 2227
3 1582 1583 2321
3 389 1774 2503
3 2004 226 2157
3 1777 397 2405
3 1368 1436 2254
3 1061 2409 2462
3 1071 930 2462
3 1126 901 2141
3 1194 1197 2120
3 1452 1952 2282
3 2116 1319 2482
3 105 106 2218
3 1981 1399 2393
3 2119 983 2143
3 444 1682 2461
3 2173 1648 2463
3 616 793 2132
3 1791 1190 2334
3 1826 1728 2259
3 602 652 653
3 1834 1292 2428
3 556 2201 2327
3 1014 1015 2385
3 1995 1287 2331
3 1193 1195 2189
3 816 1324 2131
3 879 1861 2532
3 593 1182 2133
3 1402 266 1742
3 2216 1323 2354
3 1660 1636 2502
3 620 955 2484
3 1162 1706 2190
3 1870 2113 2249
3 204 1680 1732
3 1909 2023 2420
3 217 72 2217
3 376 372 2430
3 905 1209 2141
3 1378 1381 2283
3 1236 1246 2227
3 286 771 2063
3 1635 2263 2502
3 100 101 2220
3 1139 898 1140
3 2114 1343 2136
3 442 284 2063
3 1772 2106 2414
3 1985 1755 2533
3 2192 1328 2315
3 1064 863 2146
3 1631 1637 2459
3 736 2049 2523
3 221 1906 2246
3 318 1983 2171
3 1496 2047 2182
3 1374 2139 2506
3 196 55 2313
3 2087 462 2134
3 676 653 677
3 2304 257 2491
3 1401 2324 2363
3 829 677 830
3 654 2223 2242
3 1187 977 2112
3 1463 1466 2200
3 2023 219 2516
3 1176 881 2215
3 513 471 2290
3 1812 459 2252
3 1386 1269 2199
3 291 758 2306
3 618 616 2132
3 278 280 2210
3 83 220 2289
3 82 83 2289
3 938 1057 2161
3 1189 986 1190
3 788 719 2336
3 1914 2001 2206
3 232 181 1652
3 1567 2062 2490
3 313 757 2495
3 622 619 2484
3 688 878 1320
3 1222 1626 2111
3 282 442 2079
3 1169 2008 2105
3 1966 1007 2308
3 2040 799 2237
3 1744 2229 2495
3 986 833 1063
3 2284 1605 2510
3 887 1961 2376
3 215 1624 2262
3 830 831 832
3 476 475 2224
3 439 451 2223
3 1932 1933 2380
3 2227 1246 2366
3 1212 1202 2301
3 1107 1110 2228
3 249 2010 2299
3 1983 293 2306
3 2055 1214 2237
3 1438 1372 2478
3 824 560 2156
3 2320 1866 2513
3 1351 1137 2374
3 868 2007 2232
3 2063 771 2064
3 1507 214 1508
3 1728 1727 2246
3 1045 1047 2348
3 1139 1140 2096
3 1648 1649 2463
3 1502 2302 2519
3 704 707 2109
3 2343 1136 2396
3 650 1963 2206
3 2153 895 2257
3 396 1958 2431
3 1379 1377 2288
3 2115 1471 2319
3 2033 987 2202
3 2239 1693 2518
3 2025 1488 2355
3 1209 2115 2319
3 523 524 2156
3 783 939 2243
3 376 1798 2497
3 2066 788 2193
3 1984 318 2172
3 425 427 2221
3 203 172 1847
3 446 457 2264
3 1312 2089 2150
3 2138 1272 2211
3 897 1139 2274
3 828 1819 2429
3 1249 1224 2111
3 666 667 2318
3 1371 1326 2194
3 2433 1499 2475
3 1272 1271 2211
3 1367 2254 2479
3 1386 2053 2383
3 2074 1238 2227
3 755 2148 2320
3 2117 1604 2428
3 475 514 2224
3 228 2187 2457
3 1868 1504 2520
3 1626 1218 2185
3 2123 1111 2241
3 1287 1049 2331
3 1280 687 2109
3 459 1814 2292
3 54 196 2402
3 863 865 2146
3 204 176 1680
3 514 2086 2224
3 1646 603 2398
3 112 197 2346
3 358 300 2338
3 1140 898 1141
3 1204 1335 2301
3 1016 2161 2438
3 909 1041 2175
3 1681 2448 2492
3 2252 459 2292
3 1992 868 2232
3 1035 1036 2235
3 1051 1295 2331
3 1836 1289 2242
3 1508 214 1859
3 247 53 2402
3 1016 938 2161
3 1408 856 2378
3 1466 2158 2200
3 725 885 2336
3 855 1450 2421
3 2023 1768 2420
3 1238 1236 2227
3 1679 202 2253
3 2107 1348 2233
3 1653 1431 2487
3 1946 2291 2343
3 2253 202 2329
3 1885 1312 2150
3 378 628 2390
3 2195 1383 2432
3 1520 1519 2480
3 1532 1733 2534
3 308 327 2278
3 953 951 2255
3 1213 1407 2222
3 1561 1563 2285
3 302 763 2338
3 1928 2033 2202
3 763 304 2345
3 832 833 986
3 1352 2040 2237
3 247 1881 2481
3 560 523 2156
3 335 339 2261
3 346 342 2344
3 201 443 1323
3 2301 1335 2466
3 323 320 2229
3 1136 2110 2396
3 1139 1977 2274
3 1809 1615 2423
3 1707 1791 2334
3 46 2019 2485
3 2064 1294 2238
3 1950 197 2404
3 2021 2022 2176
3 1949 245 2420
3 2044 2152 2207
3 1063 1154 1707
3 1012 1363 2406
3 280 2079 2210
3 2237 1214 2351
3 820 698 2318
3 1140 1141 1406
3 205 2021 2176
3 2043 786 2310
3 2145 1004 2446
3 707 1030 2109
3 1406 2460 2473
3 2137 1268 2226
3 16 2081 2260
3 567 2031 2219
3 2112 1064 2248
3 206 45 2485
3 2347 1462 2365
3 1650 1962 2362
3 453 425 2221
3 1209 907 2175
3 1111 1276 2241
3 2448 1145 2492
3 2051 2083 2243
3 59 60 2266
3 1402 1742 2530
3 831 677 2209
3 624 587 2276
3 238 174 1725
3 1011 2107 2233
3 468 2365 2412
3 2337 805 2371
3 254 1932 2380
3 1174 1398 2207
3 2140 111 2346
3 1381 2186 2283
3 1987 2037 2188
3 1740 559 2456
3 1773 391 2503
3 1335 1870 2249
3 1945 2257 2291
3 828 463 2411
3 1246 2088 2208
3 2060 798 2307
3 1773 1159 2240
3 1187 2112 2248
3 1352 2237 2351
3 2037 1322 2188
3 1941 1499 2433
3 2322 225 2510
3 1031 1034 2236
3 327 2188 2321
3 595 2032 2273
3 1464 1462 2347
3 1285 1992 2232
3 799 2055 2237
3 443 278 2210
3 784 874 2178
3 392 396 2431
3 191 95 2309
3 879 784 2178
3 524 511 2429
3 2128 2011 2270
3 895 896 2257
3 2206 1152 2324
3 318 2171 2172
3 2259 1549 2379
3 1214 1410 2351
3 306 308 2278
3 2022 251 2247
3 1757 1729 2309
3 1283 1918 2524
3 996 1706 2492
3 557 2044 2207
3 1798 1448 2364
3 1447 2250 2310
3 559 1750 2403
3 1363 1011 2233
3 1343 1168 2187
3 1407 2044 2256
3 1462 1460 2365
3 1995 2331 2458
3 327 1987 2188
3 2160 254 2380
3 1681 958 2287
3 2031 1160 2250
3 1600 689 2413
3 2219 1692 2239
3 1494 1675 2522
3 1281 1916 2448
3 907 909 2175
3 565 2167 2276
3 2241 1276 2275
3 1978 316 2443
3 2151 212 2350
3 203 1847 2104
3 2049 1481 2523
3 1961 1362 2376
3 2187 1393 2457
3 940 796 2532
3 2293 1349 2329
3 572 1897 2537
3 332 739 2282
3 2052 567 2239
3 1437 1370 2277
3 567 2219 2239
3 667 626 2452
3 1914 2206 2324
3 2243 939 2392
3 2136 1343 2187
3 257 1654 2530
3 1376 1378 2283
3 2076 1982 2272
3 2083 760 2243
3 1944 1945 2291
3 1771 1839 2359
3 1404 1403 2399
3 1875 1866 2320
3 1460 1337 2412
3 760 783 2243
3 1276 1366 2275
3 1428 2227 2366
3 1882 1605 2284
3 1739 1429 2459
3 2321 2188 2434
3 1328 1327 2315
3 798 2189 2307
3 2152 1174 2207
3 2182 1247 2323
3 1516 1514 2367
3 293 291 2306
3 556 537 2201
3 1298 1300 2314
3 1400 1399 2316
3 1649 2236 2463
3 833 831 2424
3 2127 2050 2333
3 1057 914 2328
3 1839 193 2359
3 761 1741 2258
3 1186 1970 2422
3 1429 2366 2382
3 2211 1271 2271
3 1733 1248 2534
3 13 2114 2136
3 2078 390 2431
3 1533 1536 2340
3 1690 2145 2446
3 1277 2308 2370
3 1168 1393 2187
3 1597 2047 2268
3 587 565 2276
3 1908 244 2401
3 225 125 2284
3 610 2130 2468
3 1749 2105 2326
3 1913 1914 2324
3 2366 2208 2382
3 1391 1876 2295
3 457 552 2264
3 653 688 2209
3 1601 2443 2514
3 682 2138 2211
3 992 1980 2244
3 55 56 2313
3 1645 1495 2493
3 473 477 2483
3 202 1724 2329
3 465 828 2429
3 1277 1966 2308
3 1416 2330 2406
3 1912 1364 2455
3 1716 1483 2375
3 2019 1651 2485
3 1725 2137 2226
3 201 1323 2216
3 878 1083 2213
3 2072 2073 2245
3 1563 1777 2405
3 244 2028 2401
3 2016 1564 2422
3 1682 1497 2461
3 1962 1153 2362
3 1298 2314 2358
3 1384 1385 2391
3 688 1320 2209
3 1587 2179 2435
3 786 380 2497
3 1395 1522 2341
3 2032 1919 2273
3 251 2013 2247
3 2219 2031 2250
3 2397 552 2453
3 1765 255 2489
3 2475 1825 2524
3 1202 1204 2301
3 445 2078 2411
3 323 2229 2296
3 1286 2384 2408
3 537 551 2201
3 1724 237 2293
3 84 85 2335
3 1471 1126 2319
3 1635 1634 2511
3 300 302 2338
3 698 666 2318
3 1030 1031 2236
3 2098 1457 2271
3 696 1821 2426
3 1457 1492 2447
3 1956 2336 2469
3 331 323 2296
3 1284 1491 2342
3 2011 1996 2270
3 256 183 2303
3 160 257 2304
3 2204 1589 2501
3 1891 1014 2280
3 719 725 2336
3 1354 1808 2381
3 437 430 2494
3 2377 218 2391
3 2211 2271 2447
3 1407 2256 2290
3 2365 1460 2412
3 2047 1498 2268
3 1825 1283 2524
3 1499 1825 2475
3 1226 1249 2281
3 2051 2243 2392
3 2250 1160 2310
3 111 112 2346
3 304 306 2345
3 1341 1352 2351
3 2166 191 2504
3 2223 1836 2242
3 1996 247 2481
3 1049 1051 2331
3 1086 1298 2358
3 2130 595 2273
3 1249 2111 2263
3 680 1995 2458
3 1511 2140 2346
3 102 103 2355
3 469 473 2453
3 961 2072 2245
3 2073 1282 2245
3 1442 1443 2525
3 74 192 2361
3 2163 1586 2435
3 1519 1518 2449
3 897 2274 2500
3 303 444 2317
3 1615 1614 2423
3 197 2009 2404
3 1634 2281 2511
3 1780 1781 2419
3 1435 1623 2465
3 1286 1774 2384
3 384 361 2339
3 193 1901 2359
3 1165 2433 2475
3 2277 1370 2386
3 677 653 2209
3 1994 1516 2367
3 1479 1478 2440
3 1165 1512 2433
3 1644 1353 2417
3 1711 1712 2353
3 2193 1615 2425
3 1613 1956 2469
3 1440 1173 2330
3 2269 1479 2440
3 222 2218 2465
3 391 389 2503
3 306 2278 2345
3 468 2090 2365
3 221 2246 2526
3 1445 1446 2504
3 939 1844 2392
3 86 87 2373
3 1429 1428 2366
3 2053 2103 2383
3 1348 1212 2312
3 805 750 2371
3 997 1286 2408
3 1152 869 2363
3 2063 2064 2238
3 192 1994 2367
3 1160 2043 2310
3 1926 2151 2350
3 2059 2098 2271
3 1897 1366 2537
3 215 2262 2437
3 1655 1732 2476
3 2415 1128 2454
3 1320 2213 2214
3 7 258 2357
3 259 155 2356
3 2171 1530 2172
3 347 351 2407
3 1077 1078 2343
3 239 2003 2279
3 1446 1128 2415
3 1034 1033 2410
3 601 627 2442
3 1154 1653 2234
3 397 2060 2405
3 2142 794 2272
3 442 2063 2238
3 1863 1215 2378
3 794 2076 2272
3 1883 1375 2505
3 1320 878 2213
3 342 468 2344
3 1903 218 2377
3 380 376 2497
3 1549 1547 2379
3 1148 1165 2475
3 2157 226 2507
3 829 972 2326
3 884 1957 2466
3 2291 1077 2343
3 65 66 2395
3 787 2052 2518
3 2298 1348 2312
3 1946 2343 2396
3 1653 256 2535
3 1842 1548 2472
3 1957 2301 2466
3 1366 1277 2370
3 2213 1432 2214
3 961 2245 2383
3 218 2093 2391
3 1376 2283 2421
3 1873 2127 2333
3 1019 1021 2512
3 1128 1127 2454
3 1104 1434 2450
3 2130 1439 2468
3 2396 2110 2482
3 2186 855 2283
3 1724 2293 2329
3 1163 1059 2372
3 1614 2389 2423
3 53 54 2402
3 1063 1707 2334
3 2283 855 2421
3 1385 1863 2436
3 364 1883 2505
3 517 1890 2387
3 1145 996 2492
3 1047 1287 2348
3 2148 1875 2320
3 205 2176 2416
3 1372 1844 2478
3 1211 2219 2250
3 1141 898 2368
3 245 1909 2420
3 2278 327 2321
3 2389 1397 2423
3 2256 513 2290
3 559 2403 2456
3 1137 1340 2374
3 2093 1384 2391
3 1918 1148 2524
3 1030 2236 2427
3 1867 1895 2513
3 2014 517 2387
3 2271 1457 2447
3 1143 2028 2353
3 1904 194 2432
3 1148 2475 2524
3 1574 1523 2436
3 2213 1083 2311
3 1997 358 2325
3 2139 246 2506
3 1370 1369 2386
3 1271 2059 2271
3 1034 2173 2463
3 1123 1412 2393
3 1578 1827 2515
3 2209 1320 2424
3 2079 1504 2210
3 1361 2168 2305
3 1491 1489 2403
3 238 1725 2226
3 1190 986 2334
3 1547 1545 2508
3 1891 1613 2469
3 1153 1885 2362
3 2208 1632 2382
3 2287 1281 2448
3 1356 1376 2421
3 1965 2349 2515
3 2155 1186 2422
3 1522 2014 2387
3 2158 1468 2323
3 2050 954 2333
3 1397 1809 2423
3 1362 1360 2376
3 1852 1985 2397
3 2069 1691 2446
3 789 2066 2425
3 1895 755 2513
3 1707 1154 2234
3 372 374 2430
3 2225 787 2518
3 2028 1206 2401
3 986 1063 2334
3 1912 726 2439
3 1340 1342 2400
3 1916 1145 2448
3 2236 1649 2427
3 2374 1340 2400
3 2222 1407 2290
3 2324 1152 2363
3 241 2220 2472
3 765 2190 2384
3 2375 667 2452
3 2330 1173 2406
3 1181 1972 2500
3 2126 1382 2388
3 1173 1012 2406
3 315 313 2495
3 1015 1373 2385
3 97 221 2526
3 1937 1397 2389
3 930 1061 2462
3 971 1096 2496
3 45 46 2485
3 669 791 2529
3 1104 2450 2521
3 382 378 2390
3 2191 1371 2536
3 2235 1036 2286
3 831 2209 2424
3 762 1997 2349
3 2379 1547 2508
3 2177 1359 2467
3 2403 1489 2456
3 796 785 2532
3 219 1902 2516
3 1519 2300 2480
3 1065 1655 2476
3 1375 1473 2505
3 1489 1490 2456
3 390 392 2431
3 2247 2013 2464
3 1135 1930 2369
3 2278 1583 2345
3 626 622 2452
3 631 2298 2312
3 2233 1348 2298
3 1398 1974 2499
3 1706 1681 2492
3 261 130 2444
3 32 260 2445
3 822 2099 2368
3 1365 1912 2439
3 941 940 2418
3 1446 2166 2504
3 2106 1121 2414
3 2300 1519 2449
3 1803 1104 2521
3 1732 1570 2476
3 1413 2051 2392
3 2122 1946 2396
3 2238 1868 2520
3 477 556 2483
3 2397 1985 2533
3 463 445 2411
3 2163 1185 2488
3 1126 2141 2319
3 1755 2264 2533
3 972 2204 2501
3 2230 1533 2340
3 1774 1773 2503
3 1997 2325 2349
3 1004 2069 2446
3 2159 31 2445
3 131 2160 2444
3 1371 2191 2451
3 1001 2154 2486
3 1682 2230 2340
3 2103 961 2383
3 1033 1151 2410
3 382 2390 2531
3 1504 2079 2520
3 1583 2278 2321
3 511 465 2429
3 250 2024 2479
3 2208 2088 2509
3 619 620 2484
3 1246 2208 2366
3 2141 1209 2319
3 1359 1413 2467
3 1295 1459 2458
3 2218 1435 2465
3 2281 1249 2511
3 2293 237 2354
3 2207 1398 2499
3 1564 2155 2422
3 552 469 2453
3 1947 224 2498
3 2062 1568 2490
3 2018 205 2416
3 260 2159 2445
3 2160 261 2444
3 2092 610 2468
3 194 2195 2432
3 1432 2213 2311
3 211 2251 2464
3 2378 856 2527
3 1536 1532 2534
3 2364 786 2497
3 2438 1438 2478
3 1185 1948 2488
3 2042 941 2418
3 1582 2321 2434
3 885 1891 2469
3 1364 2048 2455
3 1693 2225 2518
3 401 382 2531
3 1338 2247 2464
3 442 2238 2520
3 1292 2117 2428
3 2274 1350 2500
3 2066 2193 2425
3 2179 1184 2435
3 898 822 2368
3 2436 1863 2527
3 1844 1016 2478
3 2184 1001 2486
3 557 2207 2499
3 2013 211 2464
3 2254 250 2479
3 1350 1181 2500
3 2009 248 2470
3 246 2140 2506
3 1574 2436 2527
3 2139 1419 2517
3 316 1971 2514
3 1319 2122 2482
3 226 2006 2507
3 1400 2270 2481
3 1681 2287 2448
3 2325 1578 2349
3 232 1652 2487
3 1320 2214 2424
3 1632 2208 2509
3 248 2288 2470
3 1406 1141 2460
3 2188 1322 2434
3 2244 1980 2441
3 2088 1255 2509
3 1280 2109 2427
3 2060 2307 2405
3 2236 1034 2463
3 1745 2293 2354
3 2122 2396 2482
3 2109 1030 2427
3 2307 1563 2405
3 1429 2382 2459
3 224 2267 2498
3 682 2211 2447
3 2079 442 2520
3 2348 1287 2398
3 2220 1842 2472
3 1335 2249 2466
3 1249 2263 2511
3 443 2210 2519
3 2385 1373 2394
3 1594 2184 2486
3 2052 2239 2518
3 1568 2439 2490
3 2349 1578 2515
3 2344 468 2412
3 2270 1996 2481
3 1735 2244 2441
3 2260 1471 2477
3 2210 1504 2519
3 1434 2297 2450
3 2297 1419 2450
3 2263 1660 2502
3 2404 2009 2470
3 1718 2385 2394
3 1371 2194 2536
3 2317 444 2461
3 1443 2322 2525
3 1716 2375 2452
3 1863 2378 2527
3 2439 726 2490
3 1057 2328 2451
3 1638 2404 2470
3 1454 2234 2535
3 755 2320 2513
3 2234 1653 2535
3 2264 552 2533
3 1419 2297 2517
3 1392 2322 2510
3 552 2397 2533
3 1798 2364 2497
3 2322 1392 2525
3 2382 1631 2459
3 1016 2438 2478
3 1366 2370 2537
3 1742 2491 2530
3 2491 257 2530
CELL_TYPES 4886
5
5
5
5
5
5
5
5
5
5
5
5
5
5
5
5
5
5
5
5
5
5
5
5
5
5
5
5
5
5
5
5
5
5
5
5
5
5
5
5
5
5
5
5
5
5
5
5
5
5
5
5
5
5
5
5
5
5
5
5
5
5
5
5
5
5
5
5
5
5
5
5
5
5
5
5
5
5
5
5
5
5
5
5
5
5
5
5
5
5
5
5
5
5
5
5
5
5
5
5
5
5
5
5
5
5
5
5
5
5
5
5
5
5
5
5
5
5
5
5
5
5
5
5
5
5
5
5
5
5
5
5
5
5
5
5
5
5
5
5
5
5
5
5
5
5
5
5
5
5
5
5
5
5
5
5
5
5
5
5
5
5
5
5
5
5
5
5
5
5
5
5
5
5
5
5
5
5
5
5
5
5
5
5
5
5
5
5
5
5
5
5
5
5
5
5
5
5
5
5
5
5
5
5
5
5
5
5
5
5
5
5
5
5
5
5
5
5
5
5
5
5
5
5
5
5
5
5
5
5
5
5
5
5
5
5
5
5
5
5
5
5
5
5
5
5
5
5
5
5
5
5
5
5
5
5
5
5
5
5
5
5
5
5
5
5
5
5
5
5
5
5
5
5
5
5
5
5
5
5
5
5
5
5
5
5
5
5
5
5
5
5
5
5
5
5
5
5
5
5
5
5
5
5
5
5
5
5
5
5
5
5
5
5
5
5
5
5
5
5
5
5
5
5
5
5
5
5
5
5
5
5
5
5
5
5
5
5
5
5
5
5
5
5
5
5
5
5
5
5
5
5
5
5
5
5
5
5
5
5
5
5
5
5
5
5
5
5
5
5
5
5
5
5
5
5
5
5
5
5
5
5
5
5
5
5
5
5
5
5
5
5
5
5
5
5
5
5
5
5
5
5
5
5
5
5
5
5
5
5
5
5
5
5
5
5
5
5
5
5
5
5
5
5
5
5
5
5
5
5
5
5
5
5
5
5
5
5
5
5
5
5
5
5
5
5
5
5
5
5
5
5
5
5
5
5
5
5
5
5
5
5
5
5
5
5
5
5
5
5
5
5
5
5
5
5
5
5
5
5
5
5
5
5
5
5
5
5
5
5
5
5
5
5
5
5
5
5
5
5
5
5
5
5
5
5
5
5
5
5
5
5
5
5
5
5
5
5
5
5
5
5
5
5
5
5
5
5
5
5
5
5
5
5
5
5
5
5
5
5
5
5
5
5
5
5
5
5
5
5
5
5
5
5
5
5
5
5
5
5
5
5
5
5
5
5
5
5
5
5
5
5
5
5
5
5
5
5
5
5
5
5
5
5
5
5
5
5
5
5
5
5
5
5
5
5
5
5
5
5
5
5
5
5
5
5
5
5
5
5
5
5
5
5
5
5
5
5
5
5
5
5
5
5
5
5
5
5
5
5
5
5
5
5
5
5
5
5
5
5
5
5
5
5
5
5
5
5
5
5
5
5
5
5
5
5
5
5
5
5
5
5
5
5
5
5
5
5
5
5
5
5
5
5
5
5
5
5
5
5
5
5
5
5
5
5
5
5
5
5
5
5
5
5
5
5
5
5
5
5
5
5
5
5
5
5
5
5
5
5
5
5
5
5
5
5
5
5
5
5
5
5
5
5
5
5
5
5
5
5
5
5
5
5
5
5
5
5
5
5
5
5
5
5
5
5
5
5
5
5
5
5
5
5
5
5
5
5
5
5
5
5
5
5
5
5
5
5
5
5
5
5
5
5
5
5
5
5
5
5
5
5
5
5
5
5
5
5
5
5
5
5
5
5
5
5
5
5
5
5
5
5
5
5
5
5
5
5
5
5
5
5
5
5
5
5
5
5
5
5
5
5
5
5
5
5
5
5
5
5
5
5
5
5
5
5
5
5
5
5
5
5
5
5
5
5
5
5
5
5
5
5
5
5
5
5
5
5
5
5
5
5
5
5
5
5
5
5
5
5
5
5
5
5
5
5
5
5
5
5
5
5
5
5
5
5
5
5
5
5
5
5
5
5
5
5
5
5
5
5
5
5
5
5
5
5
5
5
5
5
5
5
5
5
5
5
5
5
5
5
5
5
5
5
5
5
5
5
5
5
5
5
5
5
5
5
5
5
5
5
5
5
5
5
5
5
5
5
5
5
5
5
5
5
5
5
5
5
5
5
5
5
5
5
5
5
5
5
5
5
5
5
5
5
5
5
5
5
5
5
5
5
5
5
5
5
5
5
5
5
5
5
5
5
5
5
5
5
5
5
5
5
5
5
5
5
5
5
5
5
5
5
5
5
5
5
5
5
5
5
5
5
5
5
5
5
5
5
5
5
5
5
5
5
5
5
5
5
5
5
5
5
5
5
5
5
5
5
5
5
5
5
5
5
5
5
5
5
5
5
5
5
5
5
5
5
5
5
5
5
5
5
5
5
5
5
5
5
5
5
5
5
5
5
5
5
5
5
5
5
5
5
5
5
5
5
5
5
5
5
5
5
5
5
5
5
5
5
5
5
5
5
5
5
5
5
5
5
5
5
5
5
5
5
5
5
5
5
5
5
5
5
5
5
5
5
5
5
5
5
5
5
5
5
5
5
5
5
5
5
5
5
5
5
5
5
5
5
5
5
5
5
5
5
5
5
5
5
5
5
5
5
5
5
5
5
5
5
5
5
5
5
5
5
5
5
5
5
5
5
5
5
5
5
5
5
5
5
5
5
5
5
5
5
5
5
5
5
5
5
5
5
5
5
5
5
5
5
5
5
5
5
5
5
5
5
5
5
5
5
5
5
5
5
5
5
5
5
5
5
5
5
5
5
5
5
5
5
5
5
5
5
5
5
5
5
5
5
5
5
5
5
5
5
5
5
5
5
5
5
5
5
5
5
5
5
5
5
5
5
5
5
5
5
5
5
5
5
5
5
5
5
5
5
5
5
5
5
5
5
5
5
5
5
5
5
5
5
5
5
5
5
5
5
5
5
5
5
5
5
5
5
5
5
5
5
5
5
5
5
5
5
5
5
5
5
5
5
5
5
5
5
5
5
5
5
5
5
5
5
5
5
5
5
5
5
5
5
5
5
5
5
5
5
5
5
5
5
5
5
5
5
5
5
5
5
5
5
5
5
5
5
5
5
5
5
5
5
5
5
5
5
5
5
5
5
5
5
5
5
5
5
5
5
5
5
5
5
5
5
5
5
5
5
5
5
5
5
5
5
5
5
5
5
5
5
5
5
5
5
5
5
5
5
5
5
5
5
5
5
5
5
5
5
5
5
5
5
5
5
5
5
5
5
5
5
5
5
5
5
5
5
5
5
5
5
5
5
5
5
5
5
5
5
5
5
5
5
5
5
5
5
5
5
5
5
5
5
5
5
5
5
5
5
5
5
5
5
5
5
5
5
5
5
5
5
5
5
5
5
5
5
5
5
5
5
5
5
5
5
5
5
5
5
5
5
5
5
5
5
5
5
5
5
5
5
5
5
5
5
5
5
5
5
5
5
5
5
5
5
5
5
5
5
5
5
5
5
5
5
5
5
5
5
5
5
5
5
5
5
5
5
5
5
5
5
5
5
5
5
5
5
5
5
5
5
5
5
5
5
5
5
5
5
5
5
5
5
5
5
5
5
5
5
5
5
5
5
5
5
5
5
5
5
5
5
5
5
5
5
5
5
5
5
5
5
5
5
5
5
5
5
5
5
5
5
5
5
5
5
5
5
5
5
5
5
5
5
5
5
5
5
5
5
5
5
5
5
5
5
5
5
5
5
5
5
5
5
5
5
5
5
5
5
5
5
5
5
5
5
5
5
5
5
5
5
5
5
5
5
5
5
5
5
5
5
5
5
5
5
5
5
5
5
5
5
5
5
5
5
5
5
5
5
5
5
5
5
5
5
5
5
5
5
5
5
5
5
5
5
5
5
5
5
5
5
5
5
5
5
5
5
5
5
5
5
5
5
5
5
5
5
5
5
5
5
5
5
5
5
5
5
5
5
5
5
5
5
5
5
5
5
5
5
5
5
5
5
5
5
5
5
5
5
5
5
5
5
5
5
5
5
5
5
5
5
5
5
5
5
5
5
5
5
5
5
5
5
5
5
5
5
5
5
5
5
5
5
5
5
5
5
5
5
5
5
5
5
5
5
5
5
5
5
5
5
5
5
5
5
5
5
5
5
5
5
5
5
5
5
5
5
5
5
5
5
5
5
5
5
5
5
5
5
5
5
5
5
5
5
5
5
5
5
5
5
5
5
5
5
5
5
5
5
5
5
5
5
5
5
5
5
5
5
5
5
5
5
5
5
5
5
5
5
5
5
5
5
5
5
5
5
5
5
5
5
5
5
5
5
5
5
5
5
5
5
5
5
5
5
5
5
5
5
5
5
5
5
5
5
5
5
5
5
5
5
5
5
5
5
5
5
5
5
5
5
5
5
5
5
5
5
5
5
5
5
5
5
5
5
5
5
5
5
5
5
5
5
5
5
5
5
5
5
5
5
5
5
5
5
5
5
5
5
5
5
5
5
5
5
5
5
5
5
5
5
5
5
5
5
5
5
5
5
5
5
5
5
5
5
5
5
5
5
5
5
5
5
5
5
5
5
5
5
5
5
5
5
5
5
5
5
5
5
5
5
5
5
5
5
5
5
5
5
5
5
5
5
5
5
5
5
5
5
5
5
5
5
5
5
5
5
5
5
5
5
5
5
5
5
5
5
5
5
5
5
5
5
5
5
5
5
5
5
5
5
5
5
5
5
5
5
5
5
5
5
5
5
5
5
5
5
5
5
5
5
5
5
5
5
5
5
5
5
5
5
5
5
5
5
5
5
5
5
5
5
5
5
5
5
5
5
5
5
5
5
5
5
5
5
5
5
5
5
5
5
5
5
5
5
5
5
5
5
5
5
5
5
5
5
5
5
5
5
5
5
5
5
5
5
5
5
5
5
5
5
5
5
5
5
5
5
5
5
5
5
5
5
5
5
5
5
5
5
5
5
5
5
5
5
5
5
5
5
5
5
5
5
5
5
5
5
5
5
5
5
5
5
5
5
5
5
5
5
5
5
5
5
5
5
5
5
5
5
5
5
5
5
5
5
5
5
5
5
5
5
5
5
5
5
5
5
5
5
5
5
5
5
5
5
5
5
5
5
5
5
5
5
5
5
5
5
5
5
5
5
5
5
5
5
5
5
5
5
5
5
5
5
5
5
5
5
5
5
5
5
5
5
5
5
5
5
5
5
5
5
5
5
5
5
5
5
5
5
5
5
5
5
5
5
5
5
5
5
5
5
5
5
5
5
5
5
5
5
5
5
5
5
5
5
5
5
5
5
5
5
5
5
5
5
5
5
5
5
5
5
5
5
5
5
5
5
5
5
5
5
5
5
5
5
5
5
5
5
5
5
5
5
5
5
5
5
5
5
5
5
5
5
5
5
5
5
5
5
5
5
5
5
5
5
5
5
5
5
5
5
5
5
5
5
5
5
5
5
5
5
5
5
5
5
5
5
5
5
5
5
5
5
5
5
5
5
5
5
5
5
5
5
5
5
5
5
5
5
5
5
5
5
5
5
5
5
5
5
5
5
5
5
5
5
5
5
5
5
5
5
5
5
5
5
5
5
5
5
5
5
5
5
5
5
5
5
5
5
5
5
5
5
5
5
5
5
5
5
5
5
5
5
5
5
5
5
5
5
5
5
5
5
5
5
5
5
5
5
5
5
5
5
5
5
5
5
5
5
5
5
5
5
5
5
5
5
5
5
5
5
5
5
5
5
5
5
5
5
5
5
5
5
5
5
5
5
5
5
5
5
5
5
5
5
5
5
5
5
5
5
5
5
5
5
5
5
5
5
5
5
5
5
5
5
5
5
5
5
5
5
5
5
5
5
5
5
5
5
5
5
5
5
5
5
5
5
5
5
5
5
5
5
5
5
5
5
5
5
5
5
5
5
5
5
5
5
5
5
5
5
5
5
5
5
5
5
5
5
5
5
5
5
5
5
5
5
5
5
5
5
5
5
5
5
5
5
5
5
5
5
5
5
5
5
5
5
5
5
5
5
5
5
5
5
5
5
5
5
5
5
5
5
5
5
5
5
5
5
5
5
5
5
5
5
5
5
5
5
5
5
5
5
5
5
5
5
5
5
5
5
5
5
5
5
5
5
5
5
5
5
5
5
5
5
5
5
5
5
5
5
5
5
5
5
5
5
5
5
5
5
5
5
5
5
5
5
5
5
5
5
5
5
5
5
5
5
5
5
5
5
5
5
5
5
5
5
5
5
5
5
5
5
5
5
5
5
5
5
5
5
5
5
5
5
5
5
5
5
5
5
5
5
5
5
5
5
5
5
5
5
5
5
5
5
5
5
5
5
5
5
5
5
5
5
5
5
5
5
5
5
5
5
5
5
5
5
5
5
5
5
5
5
5
5
5
5
5
5
5
5
5
5
5
5
5
5
5
5
5
5
5
5
5
5
5
5
5
5
5
5
5
5
5
5
5
5
5
5
5
5
5
5
5
5
5
5
5
5
5
5
5
5
5
5
5
5
5
5
5
5
5
5
5
5
5
5
5
5
5
5
5
5
5
5
5
5
5
5
5
5
5
5
5
5
5
5
5
5
5
5
5
5
5
5
5
5
5
5
5
5
5
5
5
5
5
5
5
5
5
5
5
5
5
5
5
5
5
5
5
5
5
5
5
5
5
5
5
5
5
5
5
5
5
5
5
5
5
5
5
5
5
5
5
5
5
5
5
5
5
5
5
5
5
5
5
5
5
5
5
5
5
5
5
5
5
5
5
5
5
5
5
5
5
5
5
5
5
5
5
5
5
5
5
5
5
5
5
5
5
5
5
5
5
5
5
5
5
5
5
5
5
5
5
5
5
5
5
5
5
5
5
5
5
5
5
5
5
5
5
5
5
5
5
5
5
5
5
5
5
5
5
5
5
5
5
5
5
5
5
5
5
5
5
5
5
5
5
5
5
5
5
5
5
5
5
5
5
5
5
5
5
5
5
5
5
5
5
5
5
5
5
5
5
5
5
5
5
5
5
5
5
5
5
5
5
5
5
5
5
5
5
5
5
5
5
5
5
5
5
5
5
5
5
5
5
5
5
5
5
5
5
5
5
5
5
5
5
5
5
5
5
5
5
5
5
5
5
5
5
5
5
5
5
5
5
5
5
5
5
5
5
5
5
5
5
5
5
5
5
5
5
5
5
5
5
5
5
5
5
5
5
5
5
5
5
5
5
5
5
5
5
5
5
5
5
5
5
5
5
5
5
5
5
5
5
5
5
5
5
5
5
5
5
5
5
5
5
5
5
5
5
5
5
5
5
5
5
5
5
5
5
5
5
5
5
5
5
5
5
5
5
5
5
5
5
5
5
5
5
5
5
5
5
5
5
5
5
5
5
5
5
5
5
5
5
5
5
5
5
5
5
5
5
5
5
5
5
5
5
5
5
5
5
5
5
5
5
5
5
5
5
5
5
5
5
5
5
5
5
5
5
5
5
5
5
5
5
5
5
5
5
5
5
5
5
5
5
5
5
5
5
5
5
5
5
5
5
5
5
5
5
5
5
5
5
5
5
5
5
5
5
5
5
5
5
5
5
5
5
5
5
5
5
5
5
5
5
5
5
5
5
5
5
5
5
5
5
5
5
5
5
5
5
5
5
5
5
5
5
5
5
5
5
5
5
5
5
5
5
5
5
5
5
5
5
5
5
5
5
5
5
5
5
5
5
5
5
5
5
5
5
5
5
5
5
5
5
5
5
5
5
5
5
5
5
5
5
5
5
5
5
5
5
5
5
5
5
5
5
5
5
5
5
5
5
5
5
5
5
5
5
5
5
5
5
5
5
5
5
5
5
5
5
5
5
5
5
5
5
5
5
5
5
5
5
5
5
5
5
5
5
5
5
5
5
5
5
5
5
5
5
5
5
5
5
5
5
5
5
5
5
5
5
5
5
5
5
5
5
5
5
5
5
5
5
5
5
5
5
5
5
5
5
5
5
5
5
5
5
5
5
5
5
5
5
5
5
5
5
5
5
5
5
5
5
5
5
5
5
5
5
5
5
5
5
5
5
5
5
5
5
5
5
5
5
5
5
5
5
5
5
5
5
5
5
5
5
5
5
5
5
5
5
5
5
5
5
5
5
5
5
5
5
5
5
5
5
5
5
5
5
5
5
5
5
5
5
5
5
5
5
5
5
5
5
5
5
5
5
5
5
5
5
5
5
5
5
5
5
5
5
5
5
5
5
5
5
5
5
5
5
5
5
5
5
5
5
5
5
5
5
5
5
5
5
5
5
5
5
5
5
5
5
5
5
5
5
5
5
5
5
5
5
5
5
5
5
5
5
5
5
5
5
5
5
5
5
5
5
5
5
5
5
5
5
5
5
5
5
5
5
5
5
5
5
5
5
5
5
5
5
5
5
5
5
5
5
5
5
5
5
5
5
5
5
5
5
5
5
5
5
5
5
5
5
5
5
5
5
5
5
5
5
5
5
5
5
5
5
5
5
5
5
5
5
5
5
5
5
5
5
5
5
5
5
5
5
5
5
5
5
5
5
5
5
5
5
5
5
5
5
5
5
5
5
5
5
5
5
5
5
5
5
5
5
5
5
5
5
5
5
5
5
5
5
5
5
5
5
5
5
5
5
5
5
5
5
5
5
5
5
5
5
5
5
5
5
5
5
5
5
5
5
5
5
5
5
5
5
5
5
5
5
5
5
5
5
5
5
5
5
5
5
5
5
5
5
5
5
5
5
5
5
5
5
5
5
5
5
5
5
5
5
5
5
5
5
5
5
5
5
5
5
5
5
5
5
5
5
5
5
5
5
5
5
5
5
5
5
5
5
5
5
5
5
5
5
5
5
5
5
5
5
5
5
5
5
5
5
5
5
5
5
5
5
5
5
5
5
5
5
5
5
5
5
5
5
5
5
5
5
5
5
5
5
5
5
5
5
5
5
5
5
5
5
5
5
5
5
5
5
5
5
5
5
5
5
5
5
5
5
5
5
5
5
5
5
5
5
5
5
5
5
5
5
5
5
5
5
5
5
5
5
5
5
5
5
5
5
5
5
5
5
5
5
5
5
5
5
5
5
5
5
5
5
5
5
5
5
5
5
5
5
5
5
5
5
5
5
5
5
5
5
5
5
5
5
5
5
5
5
5
5
5
5
5
5
5
5
5
5
5
5
5
5
5
5
5
5
5
5
5
5
5
5
5
5
5
5
5
5
5
5
5
5
5
5
5
5
5
5
5
5
5
5
5
5
5
5
5
5
5
5
5
5
5
5
5
5
5
5
5
5
5
5
5
5
5
5
5
5
5
5
5
5
5
5
5
5
5
5
5
5
5
5
5
5
5
5
5
5
5
5
5
5
5
5
5
5
5
5
5
5
5
5
5
5
5
5
5
5
5
5
5
5
5
5
5
5
5
5
5
5
5
5
5
5
5
5
5
5
5
5
5
5
5
5
5
5
5
5
5
5
5
5
5
5
5
5
5
5
5
5
5
5
5
5
5
5
5
5
5
5
5
5
5
5
5
5
5
5
5
5
5
5
5
5
5
5
5
5
5
5
5
5
5
5
5
5
5
5
5
5
5
5
5
5
5
5
5
5
5
5
5
5
5
5
5
5
5
5
5
5
5
5
5
5
5
5
5
5
5
5
5
5
5
5
5
5
5
5
5
5
5
5
5
5
5
5
5
5
5
5
5
5
5
5
5
5
5
5
5
5
5
5
5
5
5
5
5
5
5
5
5
5
5
5
5
5
5
5
5
5
5
5
5
5
5
5
5
5
5
5
5
5
5
5
5
5
5
5
5
5
5
5
5
5
5
5
5
5
5
5
5
5
5
5
5
5
5
5
5
5
5
5
5
5
5
5
5
5
5
5
5
5
5
5
5
5
5
5
5
5
5
5
5
5
5
5
5
5
5
5
5
5
5
5
5
5
5
5
5
5
5
5
5
5
5
5
5
5
5
5
5
5
5
5
5
5
5
5
5
5
5
5
5
5
5
5
5
5
5
5
5
5
5
5
5
5
5
5
5
5
5
5
5
5
5
5
5
5
5
5
5
5
5
5
5
5
5
5
5
5
5
5
5
5
5
5
5
5
5
5
5
5
5
5
5
5
5
5
5
5
5
5
5
5
5
5
5
5
5
5
5
5
5
5
5
5
5
5
5
5
5
5
5
5
5
5
5
5
5
5
5
5
5
5
5
5
5
5
5
5
5
5
5
5
5
5
5
5
5
5
5
5
5
5
5
5
5
5
5
5
5
5
5
5
5
5
5
5
5
5
5
5
5
5
5
5
5
5
5
5
5
5
5
5
5
5
5
5
5
5
5
5
5
5
5
5
5
5
5
5
5
5
5
5
5
5
5
5
5
5
5
5
5
5
5
5
5
5
5
5
5
5
5
5
5
5
5
5
5
5
5
5
5
5
5
5
5
5
5
5
5
5
5
5
5
5
5
5
5
5
5
5
5
5
5
5
5
5
5
5
5
5
5
5
5
5
5
5
5
5
5
5
5
5
5
5
5
5
5
5
5
5
5
5
5
5
5
5
5
5
5
5
5
5
5
5
5
5
5
5
5
5
5
5
5
5
5
5
5
5
5
5
5
5
5
5
5
5
5
5
5
5
5
5
5
5
5
5
5
5
5
5
5
5
5
5
5
5
5
5
5
5
5
5
5
5
5
5
5
5
5
5
5
5
5
5
5
5
5
5
5
5
5
5
5
5
5
5
5
5
5
5
5
5
5
5
5
5
5
5
5
5
5
5
5
5
5
5
5
5
5
5
5
5
5
5
5
5
5
5
5
5
5
5
5
5
5
5
5
5
5
5
5
5
5
5
5
5
5
5
5
5
5
5
5
5
5
5
5
5
5
5
5
5
5
5
5
5
5
5
5
5
5
5
5
5
5
5
5
5
5
5
5
5
5
5
5
5
5
5
5
5
5
5
5
5
5
5
5
5
5
5
5
5
5
5
5
5
5
5
5
5
5
5
5
5
5
5
5
5
5
5
5
5
5
5
5
POINT_DATA 2538
VECTORS disp float
1.4953941580355263e-11 3.4528489684763094e-11 0.0
2.74991713326762e-11 -7.306457448895571e-11 0.0
0.003199999992610941 1.8979051512478272e-11 0.0
0.0031999999687837132 -8.452591498095557e-11 0.0
0.0011129169849481736 0.0004486106504455062 0.0
0.0023180214982860565 0.00018388810105413132 0.0
0.0015828158481664067 7.529924661949348e-5 0.0
2.7499092062288496e-12 2.522928498529264e-13 0.0
6.067875590354949e-12 6.226731266920852e-12 0.0
5.122526935185899e-12 3.0102065746472507e-12 0.0
4.71743777437188e-12 2.765781684726985e-12 0.0
4.051095422744524e-12 1.846253704250701e-12 0.0
3.635907488097418e-12 1.0770781599930812e-12 0.0
3.2260873485385234e-12 4.1301994521448183e-13 0.0
2.9245520459444418e-12 -3.54476921794617e-13 0.0
2.4296602227531025e-12 -1.2046222520249546e-12 0.0
2.6577062993198668e-12 -2.061636682889223e-12 0.0
2.5854283964381737e-12 -3.0887917297664643e-12 0.0
2.700779769739631e-12 -4.2040069047746265e-12 0.0
2.9060499838792682e-12 -5.327775982132169e-12 0.0
2.96152398735921e-12 -6.31834361302014e-12 0.0
3.281714345295129e-12 -7.532543822858653e-12 0.0
3.345619057469517e-12 -8.450864124311956e-12 0.0
3.603388464980355e-12 -9.611840229045225e-12 0.0
3.792722440758517e-12 -1.0847565855255772e-11 0.0
3.988850371871656e-12 -1.2021133315805422e-11 0.0
4.271671307271276e-12 -1.3459150735598867e-11 0.0
4.641841673593311e-12 -1.5089650060744662e-11 0.0
5.230070604534291e-12 -1.7173626321482398e-11 0.0
5.3470339838394305e-12 -1.9390420506193154e-11 0.0
7.604849167035634e-12 -2.5173610467062397e-11 0.0
3.6037712202699454e-12 -2.20497406298115e-11 0.0
4.1667250120796185e-5 -4.952699733480657e-5 0.0
7.26127845829119e-5 -8.446941111506005e-5 0.0
0.00010248146276443286 -0.0001147529424585887 0.0
0.00013085778102517174 -0.00014212784690701585 0.0
0.0001581636253034874 -0.00016752168509548757 0.0
0.00018494595687871626 -0.00019166958438870664 0.0
0.00021166003255210003 -0.00021462356485444278 0.0
0.00023805562371433797 -0.00023660428601350228 0.0
0.0002643845736016805 -0.0002578324895822925 0.0
0.00029072971628185944 -0.00027828849141092163 0.0
0.0003170988738481662 -0.00029817083103728006 0.0
0.0003437226669628986 -0.00031746112030773556 0.0
0.0003704040639831885 -0.0003361626868092076 0.0
0.0003972689569223006 -0.00035443391733925553 0.0
0.0004244907402744413 -0.00037220333309777483 0.0
0.00045178273248881024 -0.00038946699027161134 0.0
0.0004793476496478977 -0.00040633766374074655 0.0
0.0005071871255305518 -0.0004227094299419092 0.0
0.0005352712847530798 -0.00043868981133019934 0.0
0.0005636203286926136 -0.0004542691595186079 0.0
0.0005922692055024029 -0.00046944498732422874 0.0
0.0006211580784600259 -0.00048421091955116416 0.0
0.0006504699993520859 -0.000498624853347454 0.0
0.0006799051309000692 -0.0005126154474390497 0.0
0.0007098177076405511 -0.0005262415297528518 0.0
0.0007398276228652729 -0.0005394388255455535 0.0
0.0007702019103325516 -0.0005522832560412125 0.0
0.0008007991129035997 -0.000564687996939844 0.0
0.0008318141388230414 -0.0005767497713763986 0.0
0.0008629078189238607 -0.0005884146128586407 0.0
0.000894432697254334 -0.0005997198936131138 0.0
0.0009261695258772726 -0.0006105899571087636 0.0
0.000958213430582702 -0.0006211049118219707 0.0
0.000990433772717293 -0.0006312041112213317 0.0
0.0010230337649304085 -0.0006409402543503513 0.0
0.0010556987400712776 -0.0006502256515752805 0.0
0.0010886789632798934 -0.0006591148443461495 0.0
0.0011217872299145615 -0.0006674963564062682 0.0
0.0011551116428622906 -0.0006753913311430447 0.0
0.0011886232592774066 -0.0006829254816611918 0.0
0.0012222626371742732 -0.0006899177510055239 0.0
0.0012561828128970845 -0.0006965315837074922 0.0
0.0012902993610906098 -0.0007026489892630482 0.0
0.0013245357080355874 -0.000708394298900913 0.0
0.001358984451587272 -0.0007135946614539013 0.0
0.0013934228076186435 -0.000718397457429842 0.0
0.0014280873950471278 -0.0007227675927209171 0.0
0.0014627805176879447 -0.0007266508665438731 0.0
0.0014975699145559514 -0.0007301630630114314 0.0
0.001532519005131816 -0.000733183450800407 0.0
0.0015672245234930836 -0.0007356456046175662 0.0
0.0016022598123072045 -0.0007377516399025827 0.0
0.0016367647492097862 -0.0007392878667924959 0.0
0.0016717162571364122 -0.000740401957905137 0.0
0.0017057928590149007 -0.0007409532314259266 0.0
0.0017404366714842113 -0.0007411062885332374 0.0
0.0017738207870561782 -0.0007407215345715696 0.0
0.0018066476060693032 -0.0007390672427144553 0.0
0.0018397101251005094 -0.0007370765596804383 0.0
0.0018726936888496513 -0.0007342407563194376 0.0
0.0019050531401579274 -0.0007312228470100256 0.0
0.0019371304936934976 -0.0007273808050285456 0.0
0.001969410354877712 -0.0007230268715831616 0.0
0.002001034533675396 -0.0007171812072987061 0.0
0.00203324019527704 -0.0007106107408939603 0.0
0.002066072733359195 -0.000703344113020865 0.0
0.0020979879602174294 -0.0006950502135671566 0.0
0.002130203487305185 -0.0006860296558268587 0.0
0.002162870155980132 -0.0006760841894983053 0.0
0.0021957414075996252 -0.000665441169383435 0.0
0.002228321395709727 -0.000654102601468401 0.0
0.0022613284517075003 -0.0006418669565803636 0.0
0.0022940079753098353 -0.0006289731780408487 0.0
0.0023267434165592077 -0.0006156285512293886 0.0
0.0023597770675495566 -0.0006015323360634245 0.0
0.0023925355670169858 -0.0005869630716813252 0.0
0.002425355638763761 -0.0005718324786252396 0.0
0.0024580452952197756 -0.0005562104180264463 0.0
0.0024908659602047405 -0.000540071540646111 0.0
0.002523624749885448 -0.0005233686103024074 0.0
0.002556274761729493 -0.0005061533156069454 0.0
0.0025886361803449075 -0.0004884427052530362 0.0
0.002620960009736547 -0.0004702328301931786 0.0
0.0026532708095281625 -0.00045142944883995407 0.0
0.002685369720605869 -0.00043209455006928374 0.0
0.0027174414914030165 -0.0004122640646465881 0.0
0.002749632703367395 -0.00039173929028936145 0.0
0.0027816658851501407 -0.0003705579839657061 0.0
0.002813589425651647 -0.00034877042941332606 0.0
0.002845714954245073 -0.0003262171303472724 0.0
0.00287804596332979 -0.0003027581390442142 0.0
0.00291038579778685 -0.00027835949319740435 0.0
0.002942815156589086 -0.000253001027337784 0.0
0.0029755939391052856 -0.0002264082631985688 0.0
0.0030091427268732042 -0.0001982429870303151 0.0
0.003043036068419387 -0.0001682963109311064 0.0
0.0030776536979591515 -0.00013586405505812738 0.0
0.003114465257973888 -9.966280374239833e-5 0.0
0.0031523679705069856 -5.7882711150583536e-5 0.0
0.0031999999956749707 -2.2120747696921688e-11 0.0
0.0031999999910507335 -2.466526771778294e-11 0.0
0.003199999994243562 -1.5232868879293282e-11 0.0
0.0031999999942408214 -1.3223737408891262e-11 0.0
0.0031999999947427615 -1.0758838435730336e-11 0.0
0.0031999999949690787 -9.063917953899197e-12 0.0
0.00319999999506291 -7.834035127183502e-12 0.0
0.00319999999525063 -6.754335837248823e-12 0.0
0.0031999999953122287 -5.78013603919901e-12 0.0
0.0031999999954709065 -4.871065278956529e-12 0.0
0.0031999999956515623 -4.1494612369875296e-12 0.0
0.0031999999957621336 -3.2312680133623377e-12 0.0
0.0031999999958815134 -2.546599032529288e-12 0.0
0.0031999999960154687 -1.7241423521708506e-12 0.0
0.0031999999960956914 -9.284520570530475e-13 0.0
0.0031999999961336836 -4.16354656943391e-14 0.0
0.0031999999961967673 8.642238365399185e-13 0.0
0.0031999999958643114 1.936377308556525e-12 0.0
0.0031999999961862505 2.814814685157169e-12 0.0
0.003199999995596929 3.973081649581416e-12 0.0
0.003199999995636529 4.74960082012313e-12 0.0
0.0031999999954562897 5.569154489995003e-12 0.0
0.003199999995621075 5.770781972761567e-12 0.0
0.0031999999957692737 7.380989417495888e-12 0.0
0.003199999997793826 3.3355307091684635e-12 0.0
0.0029596924560499637 0.00013151111416789883 0.0
0.0027577709975985837 0.00019074717670939121 0.0
0.0025768376568380364 0.00020266974396385547 0.0
0.0024202120831277566 0.00019374666857313147 0.0
0.0023178627078412205 8.537462831514155e-5 0.0
0.002307753544326481 3.0884406647207895e-5 0.0
0.0022723242397974294 3.435306518931085e-6 0.0
0.0022246135128712076 2.2720559685960124e-6 0.0
0.0021679389088637394 1.4073232419011399e-5 0.0
0.0021084876932666308 2.7631969241010138e-5 0.0
0.0020473666473289263 4.040031519999755e-5 0.0
0.0019854700467205563 5.3122256562367045e-5 0.0
0.0019215632607740007 6.350152848432518e-5 0.0
0.0018551126127217194 7.114470743170888e-5 0.0
0.001782674444207526 7.609048456703474e-5 0.0
0.0016973408322086474 7.896267729478951e-5 0.0
0.001484018008511109 0.00011379218972247152 0.0
0.0014141242523652755 0.0001288825565179855 0.0
0.0013564570037152453 0.00013748914907941613 0.0
0.0013062426955931556 0.00014426960016461913 0.0
0.0012607668936535689 0.00015059425436942845 0.0
0.0012197356174945646 0.0001573337380086836 0.0
0.0011828982647255476 0.00016564231183830404 0.0
0.0011516226798149141 0.00017662962013586468 0.0
0.0011274196368275045 0.00019453162838360246 0.0
0.0011107238964857425 0.000220493642666275 0.0
0.001109199054084025 0.0002698368891021419 0.0
0.001108802052846953 0.00033910498233760504 0.0
0.0009941927521193053 0.0004623714872202465 0.0
0.000825093587717096 0.00044610534430277474 0.0
0.0005826166903560309 0.00036621937040626565 0.0
0.0003108043739475195 0.00023765746780158537 0.0
0.0008370816896522026 -0.000552926623673741 0.0
0.002221935663074801 -0.000619664927948715 0.0
0.0010648178687985193 -0.000628627835354719 0.0
0.0019899408533046296 -0.0006886824139655193 0.0
0.0013060934806180726 -0.0006811343622556902 0.0
0.0017534354026066802 -0.0007114020505960277 0.0
0.001513744487861141 -0.0007052732450123266 0.0
0.0024220174447775102 -0.0005426041619953055 0.0
0.0006599821045297587 -0.0004823410814211033 0.0
0.0025776221620467336 -0.00046344396358254905 0.0
0.0005152325308935743 -0.0004090224488392264 0.0
5.2213593509606136e-5 -9.363239469689106e-6 0.0
0.0031432129510383933 -6.959314517298565e-6 0.0
0.0017092379822249656 9.747256995307607e-5 0.0
0.00195511077277423 7.743699819809286e-5 0.0
0.0014565460346749298 0.00011419389895027606 0.0
0.0012639562500404824 0.00015987326146208586 0.0
0.00274205018028795 -0.00037167118612030077 0.0
0.0003828695414525985 -0.0003297353297562084 0.0
3.809061399677231e-5 -1.6151414245626796e-5 0.0
0.0031591827516059376 -1.1783927834075096e-5 0.0
0.0031203500375097783 2.884664290286389e-6 0.0
6.9033292044803e-5 2.2172021817841457e-6 0.0
0.002871269977443708 -0.00028403695122863545 0.0
0.0002720383939230077 -0.00024805761788270235 0.0
0.002130000388178625 4.798946107312848e-5 0.0
0.0011373160883516946 0.00018220878544781082 0.0
2.9339057597603056e-5 -1.6939181053628997e-5 0.0
0.0031675206446961546 -1.355581432903446e-5 0.0
0.0012041267162171292 -0.0006613888617660309 0.0
0.0014086292608665421 -0.0006953810630699359 0.0
0.0018910009616083534 -0.0007028995599504661 0.0
0.0016213770594547606 -0.0007094739683676368 0.0
0.0020883977872219787 -0.0006643958527403804 0.0
0.002315045618805906 -0.0005887033380918218 0.0
0.000974028733405034 -0.0006019896530078551 0.0
0.000749011829643117 -0.0005225710570492052 0.0
0.002964880050863619 -0.00021370611781402956 0.0
0.00019119350444528124 -0.00018367076966628232 0.0
0.003098444415089064 1.870159586913061e-5 0.0
8.947038813539971e-5 1.3434901548767363e-5 0.0
0.0031731496499089284 -1.6283874300213566e-5 0.0
2.769934038023703e-5 -2.0380950012045175e-5 0.0
0.0022441448152633104 2.7873255995035488e-5 0.0
0.0010732209684788472 0.00021273340077921632 0.0
0.003056382726836724 3.402582465860525e-5 0.0
0.00012970604676093602 2.7111770473065904e-5 0.0
4.500089628714502e-5 -1.3917909635746971e-5 0.0
0.0031509250574225894 -1.0257666732125976e-5 0.0
0.0018319890668116127 9.221006801527894e-5 0.0
0.0013590577537354708 0.0001459767056298035 0.0
0.00010676051818739833 -0.0001058753050369928 0.0
0.0030744231948397188 -0.00012040658171428007 0.0
0.0021518236049558343 -0.0006481851721768705 0.0
0.0016880215832084818 -0.000712560874581634 0.0
0.0011386865699133917 -0.0006465125848216753 0.0
0.0009040995054539084 -0.000580833193951237 0.0
0.0018249253687421874 -0.000708319725014911 0.0
0.00248224628204555 -0.0005142846938392595 0.0
0.0006018882324523146 -0.0004535755179063923 0.0
0.002645578530852767 -0.0004285949295484223 0.0
0.0004564194514629616 -0.0003740653675530654 0.0
0.00032449200103584134 -0.0002879842201786076 0.0
0.0028066752675624503 -0.0003288432657242715 0.0
0.000685557109331802 0.00023578416821053933 0.0
0.0026476362132048853 0.00012437155039129522 0.0
0.003173424409956769 -2.1088737386366315e-5 0.0
2.4168435803356144e-5 -2.09559664492126e-5 0.0
0.0010476877870039978 0.00029187109092496886 0.0
0.002338959490707537 6.275466306448619e-5 0.0
0.00015311092071132023 4.317756407239399e-5 0.0
0.0030527006263688585 3.947356828838797e-5 0.0
4.693204083121815e-5 -4.725896991230828e-5 0.0
0.0031444890072596953 -5.42859042663457e-5 0.0
0.0024880590584073375 0.00012310852791792455 0.0
0.0025265633979866266 0.00010658227373285068 0.0
0.0027249838996212835 9.616983644369604e-5 0.0
0.002606414389544667 0.00010344674734362227 0.0
0.0024515666055462374 9.905030798670201e-5 0.0
0.0025041331510844917 0.00011073904930840535 0.0
0.002654340313052428 0.0001031256732035171 0.0
0.002559647780056781 0.00011292366929245165 0.0
0.0027023435986315513 9.745357361019673e-5 0.0
0.002615974413496478 0.00010519728142697058 0.0
0.0024824418446021557 0.00011858584359593522 0.0
0.002534984663221388 0.00010844832927015536 0.0
0.0024206402228427217 0.00011958183106102397 0.0
0.002463850778359099 0.00010705935667926634 0.0
0.0023605977846410295 0.00011704532466671727 0.0
0.0023998839447062093 0.00010108878292344643 0.0
0.0016697580154286364 6.211712695674403e-5 0.0
0.0015757889148711327 4.684779181402417e-5 0.0
0.001646612923172524 3.9654366422576373e-5 0.0
0.001570361414412475 2.859762315494906e-5 0.0
0.0016326073043889107 2.25185598327084e-5 0.0
0.0015669021130330263 1.4036319955100902e-5 0.0
0.0016232948313146941 8.313879409702616e-6 0.0
0.0015636975184000756 8.66058105387615e-7 0.0
0.0016163362334512845 -4.468151062154604e-6 0.0
0.0015608958807400417 -1.1337095230068462e-5 0.0
0.0016109071162762128 -1.629703185388304e-5 0.0
0.0015584962677255953 -2.284531630558007e-5 0.0
0.0016065321216299278 -2.7898311471529595e-5 0.0
0.0015577227393739632 -3.410176875304857e-5 0.0
0.0016029512834710338 -3.913633700017972e-5 0.0
0.0015558149364499135 -4.5223298656083985e-5 0.0
0.0015996399533284428 -5.017644163444195e-5 0.0
0.0015525002588658598 -5.622803889968679e-5 0.0
0.0015963858204870735 -6.118756515639274e-5 0.0
0.0015503660781503354 -6.714706899796979e-5 0.0
0.0015935411517130707 -7.222398591473405e-5 0.0
0.0015484636870538217 -7.811806564049227e-5 0.0
0.001589473322039741 -8.325519429330612e-5 0.0
0.001546325170824755 -8.919926067280677e-5 0.0
0.0015866810686754643 -9.440439859843234e-5 0.0
0.00154502451176281 -0.00010011594032563555 0.0
0.0015841600191774698 -0.00010567119932906211 0.0
0.0015410372223041671 -0.00011075443482116599 0.0
0.001581191788030301 -0.000117055739555858 0.0
0.001529012683611586 -0.00012242211632833758 0.0
0.001580983291495297 -0.0001288205465670975 0.0
0.0015367760479316614 -0.00013484374083062379 0.0
0.0015782070264132233 -0.00014069634797708017 0.0
0.001536284655031446 -0.00014699149863511423 0.0
0.00157610493247347 -0.0001529179962211812 0.0
0.001536960553921979 -0.00015926733038654217 0.0
0.0015738319555734471 -0.00016535856089815328 0.0
0.0015356543158707632 -0.0001720218495404029 0.0
0.001511458027302281 -4.539976075205919e-6 0.0
0.0015715220231829936 -0.0001781530250012638 0.0
0.0015063569456050141 -6.145401485595444e-5 0.0
0.0014893419236058929 -0.00013214162838158828 0.0
0.0015312820450258558 -0.0001849412201065365 0.0
0.001568910727330662 -0.00019127540503971764 0.0
0.0015269459244093109 -0.00019866228491897974 0.0
0.0014900324139063249 -0.00019104944279663776 0.0
0.0014846432923216134 -0.00020541441072588186 0.0
0.0015647016004173757 -0.00020555241661900762 0.0
0.0016072354202111882 -0.00019764723496779412 0.0
0.0016185063477305887 -0.00013394868388428723 0.0
0.0016032751413032982 -0.00021235050134943076 0.0
0.0016484741607436383 -0.00020299205885933812 0.0
0.0016430007003365968 -0.00021908877742673864 0.0
0.001448153147473003 -0.00019740742260285384 0.0
0.0014442911550696547 -0.0002114445018321456 0.0
0.0016896380920753632 -0.0002089082324019911 0.0
0.00140547366729922 -0.0002029806613620843 0.0
0.0014040017968551522 -0.000217647923177701 0.0
0.0016849283855438766 -0.00022521132839344664 0.0
0.0017300963792037545 -0.00021577621557279387 0.0
0.001362507780427561 -0.00020858160817469003 0.0
0.001360041189739736 -0.00022363954516179952 0.0
0.0017263613448628445 -0.00023198516865556798 0.0
0.0017728319329366128 -0.00022197451633422958 0.0
0.0013197408333868064 -0.00021408819176505585 0.0
0.001316873127506434 -0.0002299887521849612 0.0
0.0017689300790224578 -0.00023903625457203924 0.0
0.0018167008315590925 -0.0002280396160037473 0.0
0.001277363840061272 -0.00021868137185418395 0.0
0.0012717141555858658 -0.00023501425322329885 0.0
0.0018133346321744695 -0.0002455399121558667 0.0
0.0018614157703323825 -0.00023391130801439711 0.0
0.0012308439530869892 -0.00022318792114178767 0.0
0.001226325348688556 -0.00024036598149682487 0.0
0.0011830288286811604 -0.00022859477422514503 0.0
0.001187434788475113 -0.0002104366921709712 0.0
0.0017611751271204158 -0.00025587739213206467 0.0
0.0018577658520312545 -0.0002521172825395326 0.0
0.0019068551863406552 -0.0002396411618879979 0.0
0.0019113058281022665 -0.0002209110738553852 0.0
0.0016317603902799573 -7.768305298676395e-5 0.0
0.0019586399385504395 -0.00022624919888088405 0.0
0.0019635121851387704 -0.00020677457685571392 0.0
0.0020124413133814764 -0.0002114352655559392 0.0
0.0011822189962155591 -0.0002470691772379481 0.0
0.0011370340567792125 -0.0002332713601792073 0.0
0.001224743077316855 -0.0002587837239442786 0.0
0.0019017228602894378 -0.0002588295013464004 0.0
0.001136852311308086 -0.0002521575133683473 0.0
0.001091149304877127 -0.00023727107308353475 0.0
0.0016527505586728477 -3.1953653772044805e-5 0.0
0.0010909237309344518 -0.00025568700405658454 0.0
0.001045275257661432 -0.0002405128525357295 0.0
0.001045283118517618 -0.0002593034449947483 0.0
0.0010002655896509025 -0.0002427184813178706 0.0
0.0009992889346415682 -0.0002244131657703352 0.0
0.0009515612458256722 -0.00022704901674621973 0.0
0.0009513386402365688 -0.00020773341936267313 0.0
0.000994977391414299 -0.0002611553617732977 0.0
0.0009000613808753088 -0.00021047774319707556 0.0
0.0008994876522976801 -0.00019070523908508216 0.0
0.0010457820274951434 -0.0002791412011134573 0.0
0.0010030485089373591 -0.00028255367789822524 0.0
0.0008494102383894726 -0.00019185641693518802 0.0
0.0008471213858069795 -0.0001725311677307418 0.0
0.0020187039742908886 -0.00019167028162508272 0.0
0.0020696688806927724 -0.00019599553364949517 0.0
0.0010462942059338847 -0.000299207649570217 0.0
0.0010041792301420933 -0.00030243569802818613 0.0
0.0020765486601473666 -0.00017557113213507956 0.0
0.0021300291359521153 -0.00017997494527123204 0.0
0.0021207246639336355 -0.00020239597804992974 0.0
0.0021815597769614292 -0.00018510246825412499 0.0
0.002173068099143693 -0.00020801430985553236 0.0
0.0022340273176497173 -0.00018891634549527615 0.0
0.0022283829008115704 -0.0002115553774268868 0.0
0.002291462417111185 -0.00019003464122844778 0.0
0.0022804467486553623 -0.0002132269853976184 0.0
0.00229705799139789 -0.00016832438546664395 0.0
0.002344397125158876 -0.00019196788502795487 0.0
0.0023299611765766727 -0.00021508903322622251 0.0
0.0010473997463954698 -0.00031964348733750026 0.0
0.0007943356323419635 -0.00017309601923119606 0.0
0.0007910209414154348 -0.00015338972699097337 0.0
0.002271188675496281 -0.00023695993777589317 0.0
0.002318556106807061 -0.0002384172019088993 0.0
0.0023763562856771877 -0.00021614001716089198 0.0
0.002263852646327719 -0.0002610734482505781 0.0
0.0010063499275347837 -0.00032295298550294395 0.0
0.0023648080718480955 -0.00023901479044403823 0.0
0.002421380327066329 -0.00021610179753633877 0.0
0.0010484991791839086 -0.0003406476399052347 0.0
0.0010082921941829829 -0.00034406325419294976 0.0
0.0009667902758674161 -0.0003256565807819341 0.0
0.0024090784560129737 -0.00023857424032161344 0.0
0.0024650516523854094 -0.00021476031926675538 0.0
0.001049561630538022 -0.00036229943355822226 0.0
0.0010893435735353214 -0.00035852252967402736 0.0
0.0009692559193868279 -0.0003469084313355885 0.0
0.0009281018759252387 -0.00032788485370997307 0.0
0.002450666018797702 -0.00023721334308871324 0.0
0.00250798119249262 -0.00021233572542955016 0.0
0.0025217390735818596 -0.00019083387059421294 0.0
0.0023945580128159312 -0.00026211718066580726 0.0
0.002564960333119697 -0.00018758187841569913 0.0
0.0025800319516402995 -0.00016684293277100196 0.0
0.0007350037587336701 -0.00015374613908034 0.0
0.0007345970908776634 -0.0001333456068178833 0.0
0.000802038231536694 -0.00013417529121753768 0.0
0.0007322711428831373 -0.00011295487703185067 0.0
0.0007974389928971943 -0.00011055580677919095 0.0
0.000729373493435053 -9.116366932598307e-5 0.0
0.0007931526990671648 -8.742409189106498e-5 0.0
0.0010903084999237414 -0.00038042918089263876 0.0
0.0011291348549457977 -0.00037617267032971364 0.0
0.0009308840596006522 -0.0003492851997000241 0.0
0.0008900814146587609 -0.0003295900094817401 0.0
0.0025501429303375666 -0.0002090036100155787 0.0
0.0007333774148281769 -6.894144163187701e-5 0.0
0.0007941150258174395 -6.396203009509979e-5 0.0
0.0011301367499203046 -0.0003981578647800954 0.0
0.0011680540328579063 -0.000393725654582016 0.0
0.0013650665143039205 -0.00023816844273645953 0.0
0.0026068545176691263 -0.00018353532694334013 0.0
0.001683762079424112 1.9371597901604405e-5 0.0
0.001755176376712101 9.03806525672954e-5 0.0
0.0015030482630783856 -9.468165303259821e-5 0.0
0.0021345920189391214 -0.00015906184662763042 0.0
0.0007286944026584329 -4.447147130795586e-5 0.0
0.0008000107777772341 -3.8941903134733535e-5 0.0
0.000893279864061189 -0.0003511298864741222 0.0
0.0008530281613224579 -0.00033091766221326585 0.0
0.0011696131654089378 -0.0004158788372527716 0.0
0.0012072311459345073 -0.0004111656841903694 0.0
0.002590740027742034 -0.00020472763046137547 0.0
0.0006763249728211914 -0.000133686408751142 0.0
0.0006787622883834428 -0.0001540793119538023 0.0
0.0006575048678806019 -7.09631354210068e-5 0.0
0.0026474411047797226 -0.00017870384630009172 0.0
0.0007291070504114412 -2.0335576849224028e-5 0.0
0.0008014229404325352 -1.24348707458977e-5 0.0
0.0011323041642143775 -0.00042087014468133885 0.0
0.0008568070831434057 -0.0003527566746925067 0.0
0.0008167380909344807 -0.0003316884551672358 0.0
0.0020812177834397616 -0.00015509313419818935 0.0
0.0021417940608025633 -0.00013787332252110937 0.0
0.002085155796840412 -0.0001340679531509952 0.0
0.0021491465948789406 -0.00011653348838876944 0.0
0.001208256423957222 -0.0004332700341267491 0.0
0.0012462229288826095 -0.00042768769979638127 0.0
0.0013243691465406585 -0.00019981411225473137 0.0
0.000729365973651588 3.938092537191687e-6 0.0
0.0008003801518892919 1.4072822155629441e-5 0.0
0.0026316151562970802 -0.00019938953236459342 0.0
0.002580347443944249 -0.0002237603054519518 0.0
0.0007143563476669552 3.047485360451262e-5 0.0
0.0007970171887031013 4.1926061222834485e-5 0.0
0.002686768479975967 -0.00017358730244527098 0.0
0.002696094667113319 -0.0001584306288275976 0.0
0.0007243493129548032 5.563143330407913e-5 0.0
0.0008957417278014775 -0.00037517075409922146 0.0
0.0012466109138343654 -0.00045043518806789915 0.0
0.0012843039925108139 -0.0004438691236664066 0.0
0.0012845363970746323 -0.00042129931591851295 0.0
0.0013225556419782466 -0.00043691042447673413 0.0
0.0013232439270400736 -0.0004145744248265034 0.0
0.0013614356172929035 -0.0004295483681336928 0.0
0.001362454167638539 -0.0004071334480639676 0.0
0.0014012060048298285 -0.000421672232817915 0.0
0.001402670951762939 -0.00039930605266386653 0.0
0.0014417231504658219 -0.00041317648769413737 0.0
0.0014401957591485385 -0.00043616407107447704 0.0
0.0014805089926428652 -0.0004270403751930497 0.0
0.0014787300029804984 -0.0004504375081983902 0.0
0.0015188493579974102 -0.00044066199816680124 0.0
0.001516567270565458 -0.00046452178669801757 0.0
0.0015570024612968187 -0.00045402900501091757 0.0
0.001443770674484729 -0.00039091778768988734 0.0
0.001559480352115884 -0.00043016765567744947 0.0
0.0015981712311595728 -0.0004427400334173661 0.0
0.0015950633713890025 -0.0004674923776270499 0.0
0.0016367639316994082 -0.0004555269163379406 0.0
0.0006188784415117185 -0.00013312923893950504 0.0
0.0006212761315877552 -0.0001531358854891848 0.0
0.0008208405505946983 -0.0003535887554966423 0.0
0.0007815421180574821 -0.00033214092461188643 0.0
0.0016405444720892102 -0.0004308758867371297 0.0
0.0016791875836955571 -0.00044266490284763444 0.0
0.0016747650003685352 -0.0004679398951601287 0.0
0.0017180078682016674 -0.0004541786207290727 0.0
0.0005629032533954089 -0.00013170018965310236 0.0
0.0005655623727284806 -0.00015101201066098117 0.0
0.002089408213224817 -0.0001121669032185147 0.0
0.002157589474401185 -9.449453396175809e-5 0.0
0.0020957367645286157 -9.011638540313083e-5 0.0
0.002672342104684391 -0.00019298733343181708 0.0
0.0027255896921868027 -0.00016758225652858247 0.0
0.0012845108168609907 -0.00046734714574137964 0.0
0.0008709067477726146 -6.2929413718817e-5 0.0
0.0016405582409503411 -0.00023390912465740874 0.0
0.001712891266917224 -0.00048004846232680044 0.0
0.0017563594830381838 -0.00046543864216883627 0.0
0.001760902580288892 -0.00043947819899530925 0.0
0.0018001651777027631 -0.0004496513328935955 0.0
0.0017361231022238036 -0.0001985732196243388 0.0
0.002169736292446058 -7.164293702064806e-5 0.0
0.0022271258196814294 -8.00820933408225e-5 0.0
0.0008003424569238711 6.982351913744795e-5 0.0
0.0007855532164277041 -0.0003538588881691217 0.0
0.0007469777921492541 -0.00033195062640483666 0.0
0.00210387432770004 -6.713519549072215e-5 0.0
0.0017945287698337327 -0.0004765056432005608 0.0
0.0018391606436300436 -0.0004603137120455151 0.0
0.0018449406717732965 -0.00043339526589219004 0.0
0.0018849658435421198 -0.00044341072306912474 0.0
0.001891772353711623 -0.0004171736637197544 0.0
0.0019312498553566953 -0.0004257665523930033 0.0
0.0019235689242337174 -0.0004525416765371721 0.0
0.001969468051189991 -0.0004338277018583099 0.0
0.000723960067486132 7.914191073534531e-5 0.0
0.0005088355604841979 -0.00012931324693825092 0.0
0.000511406078061073 -0.00014758494061498795 0.0
0.001248024542138156 -0.0004741310347247948 0.0
0.0027092584737137943 -0.0001881770376092917 0.0
0.0027629549835940714 -0.00016134382559653286 0.0
0.0019608447878971666 -0.00046108382003730156 0.0
0.00200598936421748 -0.00044138111351901566 0.0
0.0008049111549130919 9.616846730611782e-5 0.0
0.0007515140693579255 -0.0003537541339119891 0.0
0.0007128751769159665 -0.00033098899047922847 0.0
0.0008733362083729294 2.417983477755631e-5 0.0
0.0025018170481097652 9.056857278786165e-5 0.0
0.0012848215962525703 -0.0004914634997769195 0.0
0.0007253399858733583 0.00010041226133345436 0.0
0.0006641044480400118 -5.864006093627097e-6 0.0
0.0027412460063216 -0.00018757240417250173 0.0
0.0027992904710263094 -0.0001553796178137865 0.0
0.0028163859963555257 -0.0001355251952214233 0.0
0.0006460781511513554 6.295583358610148e-5 0.0
0.002685477422834159 -0.00021350856214872772 0.0
0.0005027821248371546 -0.00011077715408553552 0.0
0.0007867802102159962 -0.0003746100715174242 0.0
0.0021815660496285988 -4.7975802373441174e-5 0.0
0.0021133585875818543 -4.3243563350580065e-5 0.0
0.0019392677962731819 -0.0003999591465699178 0.0
0.0007179021877841456 -0.0003533583973749185 0.0
0.0006793108312988452 -0.0003298850226496628 0.0
0.0004565633549488584 -0.00012585527462611066 0.0
0.00045893802608354043 -0.00014280960173625507 0.0
0.0008496552695171049 -0.0003103583259218829 0.0
0.0019963383318030814 -0.00046901776527330996 0.0
0.0020408286118378917 -0.0004480350669930637 0.0
0.0006741948158412055 -0.00030804887066740384 0.0
0.000640449736977306 -0.0003062432955308 0.0
0.0019544192982738134 -0.0004874439083634589 0.0
0.001249751348776573 -0.0004984838637496673 0.0
0.0006463289189715696 -0.00032849348221906667 0.0
0.0006075586027042729 -0.0003041689384248532 0.0
0.0013232745113421433 -0.0003932031452261128 0.0
0.0028533373911312685 -0.00012834131761745173 0.0
0.0028696316444527326 -0.00011142535943318493 0.0
0.0028368877259519086 -0.00014783602382705685 0.0
0.002029997304506241 -0.0004757398724476387 0.0
0.0020739509066395917 -0.0004536342345495894 0.0
0.001898386950373483 -0.00039176457690915745 0.0
0.0019469284127871386 -0.0003750385320413618 0.0
0.0012855790479225015 -0.0005161348278008306 0.0
0.002085527913090015 -0.0004264681500144796 0.0
0.0021184919837467313 -0.00043138030940273535 0.0
0.00040527586414833614 -0.00012061987573733186 0.0
0.0004098801369053769 -0.00013697586368446703 0.0
0.002106110137617165 -0.0004594517399588538 0.0
0.002149823645691493 -0.00043614563186237517 0.0
0.0006146125139883786 -0.0003269068434993598 0.0
0.0005757376310610055 -0.0003018350880332999 0.0
0.002193603974666773 -2.3497180252432618e-5 0.0
0.002124690342703172 -1.8401285391106928e-5 0.0
0.0005683117920082188 -0.0002801910427899821 0.0
0.0005363115972901914 -0.0002768970296002132 0.0
0.0005436037287800748 -0.00029892217526555865 0.0
0.0005043291362904301 -0.00027326648239334416 0.0
0.002889402403473579 -0.00012082044564570508 0.0
0.0028726488164900845 -0.00014076867564732297 0.0
0.0008065440013409742 0.00011860429435421485 0.0
0.0007203727014379366 0.0001184267549659989 0.0
0.002033738645630049 -8.48029650099562e-5 0.0
0.0012514898341765429 -0.000523379273142707 0.0
0.0021369967846980005 -0.00046548388049179665 0.0
0.0021798782692559124 -0.00044096271905718384 0.0
0.002298924475072788 0.00011095437863174528 0.0
0.0021310273493186016 -0.0004044990735095488 0.0
0.0014772356620173094 -0.0004744865997556265 0.0
0.0004959927227334122 -0.0002523489489081021 0.0
0.0004648916644909629 -0.0002476512060370656 0.0
0.00047346158138217314 -0.0002694440939957141 0.0
0.00043384221498577174 -0.00024285870953257845 0.0
0.0004253109099286646 -0.0002223928526923207 0.0
0.0003932592692706632 -0.00021670366987217344 0.0
0.0003844727318869476 -0.00019678091401038254 0.0
0.0003518872255541106 -0.00019001868612406015 0.0
0.00034316276528040046 -0.00017150285876127387 0.0
0.00031234117526032817 -0.00016436797121981177 0.0
0.0003031355717849466 -0.0001474184947334624 0.0
0.0003204532859567821 -0.0001823668515986248 0.0
0.00027736220950689465 -0.00015274962400396692 0.0
0.0003577009129001934 -0.00011460095208865011 0.0
0.00035591267135834143 -0.00010006031208343349 0.0
0.0002893487021856366 -0.00017391862631179053 0.0
0.0002498947630233332 -0.00014658852474014553 0.0
0.0008857708009234879 0.00011178567659337947 0.0
0.0009425289182370701 -0.00018645067797884584 0.0
0.0019052626719710452 -0.0003673314905141282 0.0
0.0019538948774008172 -0.0003510015930509862 0.0
0.0005649315919857717 -0.00016883307304882254 0.0
0.0012863493796513752 -0.0005414947486942973 0.0
0.001320700101499248 -0.0005337796936791426 0.0
0.001995919462752318 -0.0003578171257328801 0.0
0.0020033079740553214 -0.0003338742965952847 0.0
0.00292448081608636 -0.00011290395737463687 0.0
0.0029055114909909236 -0.0001341626525180906 0.0
0.00285458136588517 -0.00016528707098708616 0.0
0.002044385835590739 -3.850135487337813e-5 0.0
0.002054969053679184 -1.384077365405821e-5 0.0
0.0012159385244499385 -0.0005051453456689735 0.0
0.001217927230987029 -0.0005301170656249452 0.0
0.001182907517030323 -0.0005115519452198775 0.0
0.0004440687441837844 -0.00026543755491979646 0.0
0.0021368957050124527 7.1332412423364974e-6 0.0
0.0020668768892613348 1.2303180860583717e-5 0.0
0.0008493303476882885 -0.00021237672136588712 0.0
0.00216626281119471 -0.0004715502483870281 0.0
0.002209271457889613 -0.00044595768955136585 0.0
0.0022235760201415556 -0.00041668955816359394 0.0
0.0022528133331888448 -0.0004206030072239615 0.0
0.0008301504092584991 0.00014042948720822794 0.0
0.0007271697012040644 0.00013534759444260567 0.0
0.0011659827184323788 -0.0003725029692484882 0.0
0.0021247177876200724 -0.0004967680017677893 0.0
0.002660009433261724 9.183120098664059e-5 0.0
0.0022380713007658223 -0.00045210822727232786 0.0
0.0022819986454842723 -0.0004256386152727612 0.0
0.0022969944487325512 -0.0003950412795203308 0.0
0.0023267281212937833 -0.00039908327155204973 0.0
0.002342659380815382 -0.00036903201611887293 0.0
0.002372083468418116 -0.00037220255757012773 0.0
0.0023559213071227144 -0.00040417494152195413 0.0
0.0024009217196703596 -0.00037633904987253986 0.0
0.00025946022390198033 -0.00016388735257954012 0.0
0.00022090800490494992 -0.00013627369800734942 0.0
0.00020663388086402903 -0.00011779092460160384 0.0
0.0013213464499843006 -0.0005595734522026347 0.0
0.0013543047070666361 -0.0005524658232494736 0.0
0.0011854197541613203 -0.0005366577065405577 0.0
0.0011505245416262285 -0.0005175121592585193 0.0
0.002885406288793804 -0.00016063306301201694 0.0
0.0029358452758032733 -0.00012821949516847884 0.0
0.0022624877436617737 0.00012428193801908695 0.0
0.002204279857270924 0.00011838256065247561 0.0
0.0006273849492408009 0.00011197236458152123 0.0
0.0006326108623809793 0.00012585842092157902 0.0
0.00029953495723556404 -0.0001943156798831996 0.0
0.0010896325389468193 -0.00029543757621608695 0.0
0.002016176239941852 -0.0001318656220293931 0.0
0.0028360935951558066 -0.00019399992504704952 0.0
0.0008583474012478106 -0.00010347456211156269 0.0
0.001975575200036123 -3.428240691750358e-5 0.0
0.002383732205731331 -0.00041033238004839923 0.0
0.002428673107981819 -0.0003815028384596496 0.0
0.002423095887631634 8.203427392911518e-5 0.0
0.0025374339507839845 7.17191074129882e-5 0.0
0.000824724826289579 0.00015699930412085874 0.0
0.0004608960188423553 -0.00015940609822404176 0.0
0.0003030125370220183 -9.260141368224835e-5 0.0
0.00030205477662682655 -7.93312743655164e-5 0.0
0.00048209649501528896 -0.00029260521280864997 0.0
0.0022694390176529844 -0.00045920192166940655 0.0
0.0018512133311971131 -0.00027073524342225504 0.0
0.0016711034275877774 -0.0004940487798710753 0.0
0.0010527705533213598 -0.00038363136930976674 0.0
0.0002304756758381323 -0.00015333576306404679 0.0
0.00019310434382163592 -0.00012533817747157862 0.0
0.0006533164263192696 -0.0003520642842376083 0.0
0.002045962333860963 -0.0003398482443730579 0.0
0.0020537985916612967 -0.0003161367324127083 0.0
0.0012187484866134535 -0.0005561393900596782 0.0
0.002475209538079032 6.0602415810309165e-5 0.0
0.002572929316771256 5.279682260531697e-5 0.0
0.0025146859218061397 3.986694042852571e-5 0.0
0.002609263225235425 3.3567856624896836e-5 0.0
0.0026660371149699303 4.5205592487667745e-5 0.0
0.0027014074858590946 2.7773729435286055e-5 0.0
0.002643760006019365 1.4447710369239564e-5 0.0
0.002732699608791213 1.0733751971462851e-5 0.0
0.0026754456014433225 -3.789175463155087e-6 0.0
0.0027624563571855987 -5.080894899329341e-6 0.0
0.0027065130025427007 -2.1011532955069534e-5 0.0
0.0027897217440034125 -1.942130263991689e-5 0.0
0.0027350693186138243 -3.675104788797699e-5 0.0
0.0028153757372757393 -3.221568409337899e-5 0.0
0.002648618269825162 -4.0518155480100556e-5 0.0
0.002761813044909243 -5.042878392604557e-5 0.0
0.0028373258232188498 -4.3738533249162756e-5 0.0
0.002760042364464735 3.715343957779248e-5 0.0
0.0006339280066803164 -0.0002847721681184224 0.0
0.0006224595213811993 -0.0003508672048623859 0.0
0.000659770979471469 -0.0003763106887861876 0.0
0.0027869469736401076 -6.215985574427272e-5 0.0
0.0028587011076070916 -5.318176765551374e-5 0.0
0.0027153509192126136 -6.998999715772284e-5 0.0
0.0017078979842834036 -0.0005066712635634423 0.0
0.001666881564465317 -0.0005205898218037247 0.0
0.0017028927066136278 -0.0005337883423839709 0.0
0.001663335282000269 -0.0005477509278120283 0.0
0.0016982802688590513 -0.0005615306768387978 0.0
0.0016605655484290985 -0.0005755165338257362 0.0
0.0016256513360189742 -0.0005612285793685013 0.0
0.0016238231619430882 -0.0005887819442962478 0.0
0.0015897967748846448 -0.0005739411995649482 0.0
0.0014932386119506076 4.2170728062067514e-5 0.0
0.0016944105867770752 -0.0005900585839335729 0.0
0.0017317416408064075 -0.0005752751878441258 0.0
0.0014380611458218516 -0.00022674809132784904 0.0
0.0014041519793798383 -0.00037762331427003204 0.0
0.0014459234934243545 -0.00036934261334782136 0.0
0.0014057578796441079 -0.00035658416314991124 0.0
0.0014481546780005163 -0.0003484520413808525 0.0
0.0014075253217442668 -0.0003362209004140442 0.0
0.001450487409697707 -0.0003282740077938783 0.0
0.0014913186073021757 -0.000339848855305118 0.0
0.0014941421620291585 -0.0003198714974060714 0.0
0.0015351997659310687 -0.00033080737060673824 0.0
0.0015383634265705728 -0.0003110250629353086 0.0
0.0015778191600453776 -0.0003212704723137527 0.0
0.001497166461948461 -0.0003000159291684751 0.0
0.0014094605254910137 -0.00031650969735232554 0.0
0.0013663935791250988 -0.0003238718860472618 0.0
0.0015742170139219807 -0.0003418867645919308 0.0
0.0016191638556480403 -0.0003304728300075489 0.0
0.0006302193188115592 -0.0003755950433412328 0.0
0.0014959375208810125 -0.00015343495620580186 0.0
0.0015101804777815423 -2.9488939146264292e-5 0.0
0.001683790420860425 -0.00041836417686199777 0.0
0.002940453876298603 -9.657203566054033e-5 0.0
0.0029740530943913046 -8.84227466405288e-5 0.0
0.0016434218073738713 -5.4451303848841166e-5 0.0
0.001626903878628251 -9.797498017007357e-5 0.0
0.00231212130938856 -0.00036670082831573444 0.0
0.002002765929443745 -0.0002316770564861469 0.0
0.002916762773953816 -0.00015446186020020742 0.0
0.002964775171051018 -0.0001221265330096107 0.0
0.0016156583319404145 -0.00015900654599355465 0.0
0.0011534071827920172 -0.0005428984682337302 0.0
0.0011186830117259387 -0.0005232420754055529 0.0
0.0016666655572445135 -8.476584308180508e-6 0.0
0.0015881227199993832 -0.0006014358012802439 0.0
0.00155395454320734 -0.0005849667627612389 0.0
0.0011158509957495846 -0.0004982205631040139 0.0
0.0010836880324011197 -0.0005034554109931512 0.0
0.001080712580252184 -0.0004787449755634914 0.0
0.0010483834329728433 -0.0004834200991262906 0.0
0.0010520309982746468 -0.0005084912240730133 0.0
0.0010168471280627455 -0.000487884313201073 0.0
0.0010208395497712144 -0.0005132756414440725 0.0
0.0009856816760051839 -0.0004921365547173212 0.0
0.0004545793505461105 -0.00028941971428791133 0.0
0.002989011040750675 -7.503417207044817e-5 0.0
0.0021482330633173542 3.2878281428637846e-5 0.0
0.002076617970960156 3.780532975406885e-5 0.0
0.0009666059888791402 -0.0002860552273849642 0.0
0.0007814096970546605 -0.0003113434439628844 0.0
0.0028858865475706696 -2.9063228186968604e-5 0.0
0.0028469314841678864 -6.774703039902915e-6 0.0
0.0013542748155804787 -0.0005781650398303077 0.0
0.0013880277089634379 -0.0005702365254202876 0.0
0.002152858485082548 -0.0005040781874449396 0.0
0.00041942532126793935 -0.00020297351586716255 0.0
0.0018208037256091396 -0.00021131831210717734 0.0
0.0019973651229597987 1.6311271706316656e-5 0.0
0.002006509577802407 4.163464308240444e-5 0.0
0.002359334100400075 -0.00034127181950682 0.0
0.0024324554104660284 -0.0001939818994247727 0.0
0.0024465749540591966 -0.0003488686441701969 0.0
0.0024750347396835766 -0.0003523342948279001 0.0
0.0024554427233126376 -0.000387923323586682 0.0
0.0025026016326099086 -0.0003573212660365096 0.0
0.001413874090829019 -0.00018907861607889848 0.0
0.0004905889025802029 -0.0003166854877068416 0.0
0.0015787395515723037 -0.00030115804558825945 0.0
0.002586541363363903 -3.538055984857612e-6 0.0
0.001361114844436437 -0.0005275976372931177 0.0
0.0006657719854380388 -0.0004010903353671526 0.0
0.0006954416919621454 -0.0004016180201201448 0.0
0.0021128409911823974 -0.000529553251105444 0.0
0.0010447959059967388 -0.00045919684828546665 0.0
0.0019115452000432478 -0.00034381688362755935 0.0
0.0018632361685372444 -0.0003591703943253296 0.0
0.002945773761493068 -0.00014891842585957934 0.0
0.0029937378963194585 -0.00011496466153298584 0.0
0.0030108494155203724 -9.346093486770536e-5 0.0
0.0009240433209075639 0.00016237384354876347 0.0
0.00020273081600524995 -0.0001417077261209801 0.0
0.00016592781943018482 -0.00011277941275618822 0.0
0.00016023467891131262 -0.00010087294469627758 0.0
0.002170174029760635 0.0001288995114398609 0.0
0.00222398163011725 0.0001296904138167309 0.0
0.0021145652576438057 0.00012359829579268951 0.0
0.002262947596254083 -2.8935548194073506e-5 0.0
0.002811121436796732 -7.091372147926892e-5 0.0
0.002881500399725348 -5.984310067594055e-5 0.0
0.0011220109516624545 -0.00054898420663161 0.0
0.0022121145786834755 -0.00012002430185298751 0.0
0.0005312502319838111 0.0001008976875816557 0.0
0.0005311630726243864 0.00011075005360682671 0.0
0.0006399331909125675 0.00013762071858466668 0.0
0.0005286534103270814 0.00011777116698659845 0.0
0.0006820422639361526 0.00015556671313584982 0.0
0.0015522173357553051 -0.0005571439241736853 0.0
0.0009809603954327901 -0.00046720995810543495 0.0
0.0009506028204155171 -0.00047097982901972955 0.0
0.0009552276216947728 -0.0004962305867161175 0.0
0.0009205037974132567 -0.0004746265414525606 0.0
0.0025211788754540333 -0.00032348894157980916 0.0
0.0025487353941134627 -0.00032759275338651623 0.0
0.002530273388184151 -0.0003633585807976837 0.0
0.002575462656047959 -0.00033268778660413623 0.0
0.00200987634043765 -0.00031043851829288865 0.0
0.002061065839852029 -0.00029322740844354235 0.0
0.0017276155911734377 -0.0006043527970729809 0.0
0.001764276645245618 -0.0005888142080650818 0.0
0.0013681061438537262 -0.0003044137246809 0.0
0.001324832073272716 -0.0003112663030184017 0.0
0.0013175957704435516 -0.0005866883551369503 0.0
0.000925225517912848 -0.0004997743777759488 0.0
0.0008911542268268612 -0.00047798922086969645 0.0
0.002804977898873056 -0.00019778553584908704 0.0
0.0027863040921415764 -0.00022876549822281332 0.0
0.0027565267895862037 -0.0002311660187533759 0.0
0.002742388726960769 -0.00026095868534413793 0.0
0.001387692290918721 -0.0005980958651990025 0.0
0.0002369545975830083 -0.00017028381207198666 0.0
0.0003366798223542265 -0.0001550804123757882 0.0
0.00029197443919664197 -0.0001307276322620461 0.0
0.00024709279091720795 -7.137776943473693e-5 0.0
0.00024311612549860587 -5.923592308809208e-5 0.0
0.0003016935097850775 -6.567103423519682e-5 0.0
0.00024041570661230592 -4.706472801326473e-5 0.0
0.00030140074254035094 -5.128853581946712e-5 0.0
0.00023801413380223572 -3.459611166420039e-5 0.0
0.00030222467508293885 -3.6291438621750366e-5 0.0
0.00281666161667512 -0.00022604239677161809 0.0
0.0009144605083960946 -0.00045015475461276743 0.0
0.0023275962026161824 -0.0003408259355848677 0.0
0.002084499690126262 -0.0005203987153468735 0.0
0.0020738563248863416 -0.0005544957548205796 0.0
0.002045993727727241 -0.0005448656194739618 0.0
0.0015532269875592518 -0.0006131170949543082 0.0
0.002204108400486773 2.424946395736105e-5 0.0
0.002557215446119518 -0.0003701588135130847 0.0
0.00303995483419957 -8.461478882358553e-5 0.0
0.0030219921447215753 -0.00010676960665400433 0.0
0.0009177897342412701 0.00017518797787410134 0.0
0.002140000505272409 5.513067773317743e-5 0.0
0.0016442729514671614 -0.00040717558906660606 0.0
0.0016874153220058426 -0.0003949110284506659 0.0
0.0016235085923743838 -0.0006174085407851555 0.0
0.0015193249457506647 -0.0005960033399704422 0.0
0.0006860122425266809 -0.00017710566032905803 0.0
0.0029262084221124383 -4.424382635752531e-5 0.0
0.002947533566923809 -4.8751231222522006e-5 0.0
0.0029019100034803308 -6.487544210902263e-5 0.0
0.0029655543667614537 -5.253527669041167e-5 0.0
0.0024347978565350055 -0.00026017780229473905 0.0
0.00182880737351566 -0.000488588646758858 0.0
0.0018688818323667497 -0.0003362902395307089 0.0
0.0013621335976278287 -0.0004529222683812305 0.0
0.0019662832867603313 -0.00018739457256697608 0.0
0.002096788935037828 -0.0003213940639888048 0.0
0.002096854231341216 -0.0004007022882726538 0.0
0.0021433694510290726 -0.0003791173505349269 0.0
0.0021286840730404986 0.00012877770146525432 0.0
0.00219473196130057 0.00012454026964320468 0.0
0.0007008256981721107 -0.0004266246184785488 0.0
0.0007291693820601541 -0.00042629177950501124 0.0
0.0002362035177610085 -2.1775075896911237e-5 0.0
0.0003009281345035144 -2.081707964662188e-5 0.0
0.0003688486288338222 -3.619857074530881e-5 0.0
0.0003701528023858998 -1.778859651405127e-5 0.0
0.0003016802633660429 -5.503767749534289e-6 0.0
0.00037443287572067253 4.927230716693155e-7 0.0
0.00030432858592258983 9.158271356885785e-6 0.0
0.00038156399171044924 1.843227954330932e-5 0.0
0.00030779656146846237 2.2869851511955938e-5 0.0
0.00017593421907097773 -0.00012907771355738946 0.0
0.0018208302228871537 -0.00035067126923779535 0.0
0.0001400961174444465 -9.976762344593872e-5 0.0
0.000637612518675708 -0.0004008915426591099 0.0
0.0030233134510661208 -6.61127348528156e-5 0.0
0.0014856334663252775 -0.0003820061455067124 0.0
0.0019292560300644337 1.948767941886435e-5 0.0
0.0019421709670343252 4.6549673140478556e-5 0.0
0.000388730511720729 3.55991659296973e-5 0.0
0.00046447640133920646 -0.0003142932955696074 0.0
0.00042898196714825996 -0.00028641076306500595 0.0
0.0009603203914098938 -0.0005264499743749167 0.0
0.0021365625576125428 -0.0005399405803993921 0.0
0.0011561083100458164 -0.0005691445696540899 0.0
0.002601935022104473 -0.0003382728125414659 0.0
0.0030562231811973473 -6.770127557677294e-5 0.0
0.0013234674541080637 -0.0003309677012783705 0.0
0.001282122246299723 -0.0003176661647587043 0.0
0.0012809881150416523 -0.0003376671455199785 0.0
0.0010056870398737145 0.00017693154417984394 0.0
0.0012420595522805173 -0.0003237680650582064 0.0
0.00025578438719119816 -8.478996211362175e-5 0.0
0.0017596808115878716 -0.0006187334509734618 0.0
0.0017964533619612357 -0.0006023275959455097 0.0
0.0018018491951895144 -0.000572439100004077 0.0
0.0018336654193927087 -0.000585102102344553 0.0
0.002178017810015265 -0.0003822522478421553 0.0
0.0021913952345805885 -0.00035680716346503193 0.0
0.003036094293639813 -5.585376700037763e-5 0.0
0.0030008482721829055 -6.435229055096745e-5 0.0
0.002030154247385229 7.043175786229612e-5 0.0
0.0019563333391543775 7.569422535711289e-5 0.0
0.0006027440149652388 -0.00037507408518370024 0.0
0.0008960962530290633 -0.0005033141834734611 0.0
0.0008626565862152735 -0.00048124143392164057 0.0
0.001558579542650013 -0.00022106315608316738 0.0
0.0025132747695978865 -0.0004018770853197842 0.0
0.0003131608444964306 3.551370770013349e-5 0.0
0.000856857467201766 -0.0004558632895439028 0.0
0.0018276972672784588 -0.0006157944345013755 0.0
0.0018641821662895074 -0.0005975855321003699 0.0
0.0018253987073881582 -0.00032892073202790684 0.0
0.0017783063248564535 -0.00034187759082440246 0.0
0.001782464173169185 -0.00032081022009333444 0.0
0.0016493293450024497 -0.00018949712723346742 0.0
0.00025416035194281286 -0.0001212719794438807 0.0
0.00015004747293695736 -0.0001155998491518047 0.0
0.0018404007435357367 -0.0005551471783144193 0.0
0.0018971674813351666 -0.00027816183214694827 0.0
0.0015192511242250243 -0.0006244234157799543 0.0
0.0006208322429261152 -0.00011325203216876713 0.0
0.0010931188828474752 -0.00022026178301020423 0.0
0.0004991593419073517 -0.0003428581440952766 0.0
0.002620597125734037 -0.0003026860347937036 0.0
0.0006705629019509071 -0.00028721259994006135 0.0
0.000627918788995975 -0.00026386287119503974 0.0
0.0006678679752951136 -0.00026672421480564845 0.0
0.0006235835116819465 -0.00024367042033576018 0.0
0.000664748672860449 -0.0002465547738119849 0.0
0.0005832428226036605 -0.00024028240003964963 0.0
0.0020361255862674735 -0.0005790050571558455 0.0
0.0020106058552511845 -0.0005685520548347019 0.0
0.00042548001467878206 8.359417708302222e-5 0.0
0.0015538222378142258 -0.0006415953122947281 0.0
0.0015142356167383143 -0.0004890434260873978 0.0
0.0014756567263346642 -0.0004990511625717587 0.0
0.0007350321084733285 -0.0004518271959530594 0.0
0.00019827282992901176 -6.266274800425313e-5 0.0
0.00021083561644342358 -7.699798362525527e-5 0.0
0.0028297728303535033 -0.00011930622878592618 0.0
0.0028839709852463416 -9.688742845472817e-5 0.0
0.0004389716010005 -3.383372688626267e-5 0.0
0.0007628793682365908 -0.0004504740558037445 0.0
0.0007590088316968168 -0.00042707103879959966 0.0
0.000768697310138995 -0.00047642267615352065 0.0
0.0007077660134562763 -0.0004527734082506434 0.0
0.0005474528001613583 0.00013013565154003525 0.0
0.0011803844213186066 -0.00048719787171480687 0.0
0.001815496582066932 -0.000373897436201892 0.0
0.0028409738835784943 -0.00010483505614085699 0.0
0.0017240234947476286 -0.0006343437794515188 0.0
0.0011247797445792956 -0.0005756418517319672 0.0
0.0030663848310852233 -7.602600296531158e-5 0.0
0.0030481834094457845 -9.886133838881308e-5 0.0
0.001017780361529128 0.00016336231134238 0.0
0.0008685771156949306 -0.0005073759939421852 0.0
0.002015790473892141 -0.0002869283220719203 0.0
0.0020712794941108448 -0.00026997864948400004 0.0
0.0003305465380014152 -0.00013931844823222137 0.0
0.0004391717453295932 -0.0003114207960637775 0.0
0.0004047332963176033 -0.000283523836660149 0.0
0.00039390287023108463 -0.0002594723608573899 0.0
0.0006105468930084993 -0.00040071221492707436 0.0
0.0001150769219059067 -8.585707124573079e-5 0.0
0.00010726783717980691 -7.4226188675719e-5 0.0
0.0018574920915524638 -0.00062910268848866 0.0
0.0018928959488536035 -0.0006099310834712721 0.0
0.0018994966831637331 -0.0005769311636963089 0.0
0.0025678007295983217 -0.0002949869358300901 0.0
0.0025391814419854267 -0.0002929272630238825 0.0
0.0025390850632221003 -0.00041057092427924485 0.0
0.0005783214975722601 -0.00022070499116531495 0.0
0.0005389012387870065 -0.000217530813679333 0.0
0.002115447830237211 -0.0002752363817868643 0.0
0.0030080948611492042 -3.8267045180521865e-5 0.0
0.0030241274744899896 -4.0760328491361055e-5 0.0
0.0030430067239966743 -4.863746238573661e-5 0.0
0.002995179278837464 -0.00014192793534243493 0.0
0.00018556629128706342 -0.0001474465029447792 0.0
0.0019651210769353494 -5.5466847819913e-5 0.0
0.0019021592389432268 -5.209549741336957e-5 0.0
0.0018922196986919985 -7.054912410782926e-5 0.0
0.001833010392172918 -6.772870552174523e-5 0.0
0.0018269985354610267 -8.519713374702572e-5 0.0
0.001837381325738951 -5.076821211963691e-5 0.0
0.0016478701505478572 -0.000384259199298409 0.0
0.0013262592595448702 -0.00029223320727315917 0.0
0.0013700911677261489 -0.00028555158658143457 0.0
0.0004149153251299124 -0.00030847970251659433 0.0
0.00038085527031987324 -0.00027972803717539864 0.0
0.0027214189737219206 5.285631494719587e-5 0.0
0.002818021816106966 4.302587599421198e-5 0.0
0.00285664253582706 2.789163471989444e-5 0.0
0.002913693338670858 3.2081834340243914e-5 0.0
0.0028888838353103292 4.4760872478142506e-5 0.0
0.0014869136416184967 -0.0006076179691117446 0.0
0.0014865162997994273 -0.0005808924865034261 0.0
0.0014861989448072296 -0.0006354571748773776 0.0
0.0018614062144381182 2.118209553953749e-5 0.0
0.0018508801541218868 -1.0927360713023478e-6 0.0
0.00043992563415281514 -5.402644168323294e-5 0.0
0.00023001081740720066 2.1717289088874596e-5 0.0
0.0019998120607874824 -0.0006027518709930429 0.0
0.0005281552744125197 8.921062158366443e-5 0.0
0.0020373031362154095 -0.0003641296242341329 0.0
0.0018937319017673935 -8.819610728677179e-5 0.0
0.0018213257261537718 -0.00010232864476501353 0.0
0.0018760213526739387 -0.00010737845219792414 0.0
0.0018153566717856368 -0.00011919021370920012 0.0
0.0018669837264268633 -0.00012465107794793078 0.0
0.0018096529449212965 -0.00013615342395862393 0.0
0.0018597046602394603 -0.00014190236799003884 0.0
0.0018042485465568972 -0.00015338373889350895 0.0
0.0018550567589796967 -0.0001593223680515391 0.0
0.0017608798288743282 -0.00011363529683097213 0.0
0.0017542527530779901 -0.0001472061194625158 0.0
0.0020630915389737363 -0.0005898926592324847 0.0
0.0030780483490058397 -4.400522884539852e-5 0.0
0.0010782044275128681 -0.00045491633555385026 0.0
0.0010408852442709816 -0.0004362349946363247 0.0
0.0028968890574668695 -0.0001854931531072005 0.0
0.0012450453555670653 -0.000306976832910121 0.0
0.0017712573875139383 -8.076113349041177e-5 0.0
0.0006873233313672351 0.00016809673990445288 0.0
0.00018466979540093627 -4.1255212314801025e-5 0.0
0.0010998186475581996 0.00017586068360493293 0.0
0.0011026310043777538 0.00016028834873861778 0.0
0.0023749164913811137 6.443669956916343e-5 0.0
0.002925353740867665 -0.00018088871971417092 0.0
0.0028787367289879085 -0.00021927288975589256 0.0
0.0012398683594242016 -0.0003437983494641558 0.0
0.0012048321629318372 -0.0003267575104050107 0.0
0.0005250912569374384 -0.00032429994944838613 0.0
0.00012498665866855714 -0.00010103015333831772 0.0
0.0001500475908373787 -5.1885416314707075e-5 0.0
0.00015575668500171052 -6.1129867680079e-5 0.0
9.061970478808642e-5 -7.088477978632284e-5 0.0
0.002154558833479304 -0.00035431743920252585 0.0
0.0022038391508806465 -0.00033266948703572263 0.0
0.0022412695242563997 -0.0003343824148984329 0.0
0.0022535362143438183 -0.00031031665246143844 0.0
0.0017501818624215185 -0.00016352921018367714 0.0
0.0008127512218725802 0.00018772399163003255 0.0
0.0010165128421622284 0.0001877542168942057 0.0
0.0017359165857971052 -0.0003328142991454637 0.0
0.0017404610624335518 -0.0003119240095049229 0.0
0.001328765626027529 -0.0002745151056190553 0.0
0.0011356087420451564 -0.00027151415630172736 0.0
0.0011589083940128342 -0.0005962219477656989 0.0
0.002340741498232785 -0.0004388473564726661 0.0
0.002367325806989236 -0.00044709197872041113 0.0
0.0023264273828065567 -0.0004760311955995942 0.0
0.0023522731725277566 -0.00048642000271752835 0.0
0.0023129680194191584 -0.0005154159559789031 0.0
0.002287064840271885 -0.0005047905831243552 0.0
0.0022213688628270724 -0.0004917101903754747 0.0
0.0020170701672031204 -0.0005351914112845286 0.0
0.0021468856917610693 0.00010818605889463037 0.0
0.0016305813475076991 -0.0005073550555745785 0.0
0.00045406067324541097 9.183079101179193e-6 0.0
0.0030272036146149874 -0.00012831137934859533 0.0
0.0030721227241843857 -9.054657783425383e-5 0.0
0.002392796620703162 -0.00045656317743541857 0.0
0.0023783609132939647 -0.0004968549224077775 0.0
0.002417462749671812 -0.0004670795079333047 0.0
0.001189182494397051 -0.0005894190163822748 0.0
0.0014390566569465095 -0.00048399121467000765 0.0
0.001438819389797343 -0.000508123155479511 0.0
0.0014743840432680946 -0.0005241196297918669 0.0
0.0009759329392179909 -0.00037243286085446027 0.0
0.001402316281540544 -0.0004924693201516205 0.0
0.0018082187020688869 -0.0005440058224478295 0.0
0.0025880832957636732 -0.0002648788865175204 0.0
0.0026465695529626636 -0.00030679552557196134 0.0
0.0026275015122151166 -0.00034468385062805403 0.0
0.002671841799039354 -0.00026897576794257077 0.0
0.0003698886266273313 -7.070982440169012e-5 0.0
0.001055913534698616 -0.0005343599122324549 0.0
0.0010255434737964824 -0.0005395947749305537 0.0
0.0010595783918442377 -0.0005608585788691668 0.0
0.0010306435232703005 -0.0005664862874836446 0.0
0.0022908445573996046 -0.0003109166698362518 0.0
0.0006455476428544484 -0.00042720606486397266 0.0
0.0005776617657150354 -0.0003750319549948673 0.0
0.0029809697930259413 -5.626725843251074e-5 0.0
0.00017514855133070613 -2.0825738343898514e-5 0.0
0.00017379001978178168 -1.1115145336949604e-5 0.0
0.001973141085072218 -0.0005874830452384646 0.0
0.001967664783375403 -0.0006245268290221689 0.0
0.0016041920060915346 -0.00039579158922843855 0.0
0.002951447596696935 1.8954314825243293e-5 0.0
0.0005849628047619 -0.00040048232658052675 0.0
0.002378413633961696 0.0001039151036769362 0.0
0.002771542780848224 -0.00020204846632637443 0.0
0.0028057899560639202 8.319301630707017e-5 0.0
0.002838287336428989 7.54076169302537e-5 0.0
0.002215701288471067 -0.00030923590443510774 0.0
0.002376548780352161 -0.0003159275046119338 0.0
0.002408623611644801 -0.000315597569778145 0.0
0.0021198705845943957 0.00011285917442535452 0.0
0.002181900084245431 0.00010551563358301209 0.0
0.0022604181313933 0.00011970689419468552 0.0
0.0018214504171620736 -0.00064742738435187 0.0
0.0008996089255209258 -0.0005290327879052798 0.0
0.0013641458755869265 -0.0003644915083882406 0.0
0.0019647802436877477 -0.00030479808766437706 0.0
0.0017257256539960637 -0.00040466960216892564 0.0
0.001755295379398341 -0.0006496043292611418 0.0
0.0007952640847718053 -0.0004742560472994694 0.0
0.0010079480176940305 -0.0004394543394914035 0.0
0.00041559214634921823 -0.0001541499527780093 0.0
0.0029926451081968655 2.1496923736977825e-5 0.0
0.002281238998323462 -0.00036586817738400146 0.0
0.0002841963965467915 -0.0001163513228957814 0.0
0.000820460929572174 0.00020456199119597005 0.0
0.001743504251512074 -0.0005192164128882662 0.0
0.0022741379474093128 -0.0005445690411485399 0.0
0.002246908260510426 -0.0005334685448458895 0.0
0.0020157492308225658 -0.00041468226633676507 0.0
0.0021227918973825716 -0.00025292339885760743 0.0
0.0009259338646437654 -0.00030789008749583513 0.0
0.0014381976716765184 -0.0005371940130609339 0.0
0.0019461333353724894 -0.00026512586234167366 0.0
0.0010037248928684592 -0.0004167805915287115 0.0
0.0009702624374781988 -0.00041929802017585694 0.0
0.0008010124986134598 -0.000500658658170856 0.0
0.000509184117376556 -5.2520903950911125e-5 0.0
0.0005118924350997029 -3.085877961299892e-5 0.0
0.0002357326865253074 3.063358369485018e-5 0.0
0.0003248318339201249 4.789955896223351e-5 0.0
0.0024969886625012126 -0.0004422928969642707 0.0
0.000374989184174525 -0.00016310400084021707 0.0
0.0005443353029709062 -0.00023712586487525621 0.0
0.0005000416252914109 -0.0002135566356440396 0.0
0.0026415730933175424 -0.00026912648759596513 0.0
0.001323577704946487 -0.0004843770181495937 0.0
0.0016908515751890122 -0.0003712623626573677 0.0
0.0020534554505663937 0.00011085261977211716 0.0
0.002032950995418859 0.0001255432212512827 0.0
0.001975094855757921 0.00011571814044956544 0.0
0.001956115800223776 0.00012430336495365584 0.0
0.002008708244785542 0.00012678188235080312 0.0
0.0022789157474303063 -2.579294312011272e-6 0.0
0.0023450753457380158 -1.1100543510137716e-5 0.0
0.0023647035459977124 1.3691676708907948e-5 0.0
0.0024254718593537004 3.9461731688650075e-6 0.0
0.0024068456535410597 -2.0716371940996864e-5 0.0
0.0001429091680186904 -4.267580467085625e-5 0.0
0.0023047900844677927 -0.00028791123011027194 0.0
0.00039783997833887366 9.023416188550937e-5 0.0
0.00042314650657407365 0.00010331364883976384 0.0
0.0018856463112603466 -0.0006421040289530607 0.0
0.00011250583007513007 -9.71348323590875e-6 0.0
0.0025325501565320115 -0.0001700775238317289 0.0
0.002593151254835446 -0.00014672814001823623 0.0
0.0025498437996324366 -0.00014624508045088354 0.0
0.0026417538411399183 -0.00014307693105753251 0.0
0.0026551198400804575 -0.00012381081065632508 0.0
0.002704641969102373 -0.00012047589315535153 0.0
0.0007099202848717205 -0.0002687581278600739 0.0
0.0007088009460486243 -0.00024909043502013525 0.0
0.0006613097172880503 -0.00022668211652861206 0.0
0.0007070173015775401 -0.0002297196873554071 0.0
0.0007547863382690543 -0.00025130729790390986 0.0
0.0007536961051692388 -0.00023184314249413349 0.0
0.0008008687897418243 -0.0002525442905377522 0.0
0.0008745224646744625 -0.0005327201095504826 0.0
0.000800230400612339 -0.00023256091331193623 0.0
0.0008472547709546652 -0.00025311133684135 0.0
0.00023239838200738347 1.8757751990495722e-6 0.0
0.0005079638440162465 -7.342837438934483e-5 0.0
0.0008459757694374707 -0.0002723905142197508 0.0
0.0006632580507293851 -0.0002094369466786302 0.0
0.002557781943660256 -0.0002651318502261939 0.0
0.002510116139110193 -0.0002923112194330163 0.0
0.0014550084627556984 -0.0006192963762975646 0.0
0.0014540277032366533 -0.0006463341482366838 0.0
0.0019022863957958843 0.0001152615093369342 0.0
0.001032329274948355 0.00014456537708757466 0.0
0.001111620343154906 0.00013862565222710424 0.0
0.0011771416901022367 0.00015316381468602773 0.0
0.0011861289030709178 0.0001276973264816008 0.0
0.0011226251181347929 0.00011170703180906427 0.0
0.0011962311303557699 9.475125267751609e-5 0.0
0.0011346428532040197 8.100558987639883e-5 0.0
0.0012087074927032166 6.017565076170099e-5 0.0
0.0011465659376221366 5.042073634773931e-5 0.0
0.001231971391628962 2.7751816219921928e-5 0.0
0.0011567545947606937 2.236176984900749e-5 0.0
0.0012280492479493975 2.151362263214285e-6 0.0
0.0011628633308831797 -2.539855925781314e-6 0.0
0.0012316748227408788 -2.0848751105033446e-5 0.0
0.0011718674816270278 -2.6127840721071674e-5 0.0
0.0012369700256906599 -4.2378365870755845e-5 0.0
0.0011775992695731176 -4.7202006525563604e-5 0.0
0.001238645489166123 -6.169017099580557e-5 0.0
0.0011820351417402128 -6.646831383204165e-5 0.0
0.0012406306031148883 -7.965607636607995e-5 0.0
0.0011852707273916395 -8.477437754248028e-5 0.0
0.0012416608913625522 -9.720160469162444e-5 0.0
0.001186396334943642 -0.00010240102255617256 0.0
0.001242138029590754 -0.00011385188408276543 0.0
0.0011873326782843453 -0.00012009960998285356 0.0
0.001131253311075367 -0.00010716099609351878 0.0
0.001132731246761091 -0.00012560813222308503 0.0
0.0012465239106713981 -0.0001322143837344981 0.0
0.001122585304905553 -5.178683990944907e-5 0.0
0.0012957315720456832 -0.00010706714990539601 0.0
0.0013006926897641603 -7.518398979215488e-5 0.0
0.001075903741058305 6.861190284045693e-5 0.0
0.0012959493480216228 -3.6873830105635906e-5 0.0
0.0010755188297851142 -0.0001117745965003144 0.0
0.0010782671613803947 -0.0001305362734281441 0.0
0.0011343430395838903 -0.00014417257578596226 0.0
0.0010809493131222995 -0.00014928732658215017 0.0
0.0011033313246727944 -8.07182054579681e-6 0.0
0.0012989445452818316 3.0472480327739967e-6 0.0
0.00107374911003276 -9.272638577312294e-5 0.0
0.0012724545675747534 7.134593835108809e-5 0.0
0.0011362186603783694 -0.0001625972158614313 0.0
0.001083302969039283 -0.00016796519337534908 0.0
0.0010280648630756266 -0.00015392238270903948 0.0
0.0010159045706016228 -9.726014003864134e-5 0.0
0.0010114759787125001 -7.634473230752853e-5 0.0
0.001189496243843311 -0.000156602879634247 0.0
0.0011896764668001085 -0.00017468615249701327 0.0
0.0012414296211372892 -0.0001684755854050263 0.0
0.0012512196176491979 0.0001399114597296113 0.0
0.0012476660114258313 0.0001583423513780382 0.0
0.0010325224851564236 -0.00017312240070263297 0.0
0.0009760377721018936 -0.00015836689984101898 0.0
0.0009727412480728702 -0.00013952958616821664 0.0
0.0009176548825612119 -0.00014291556835294354 0.0
0.001721018444840696 -0.0006647248498220543 0.0
0.0016900943868475378 -0.0006490426346748135 0.0
0.0029063659109569203 -0.00021514179013003791 0.0
0.0018473497784018225 -0.0005264465945442251 0.0
0.0018797876790095458 -0.0005372665040455739 0.0
0.001070093203838947 -0.00043113520524977033 0.0
0.0011077439462462702 -0.00044907959533601525 0.0
0.002597672715748046 7.882721049919709e-5 0.0
0.0018736234066748002 -0.00031399826661084843 0.0
0.0010869858785447612 -0.00018625475948812968 0.0
0.0008249457405570898 -0.0004577232775678047 0.0
0.0008222995624391397 -0.0004337479088005865 0.0
0.0008514640963266594 -0.00043179923524044585 0.0
0.002076977697558239 -0.00024797647535083423 0.0
0.0019216042734222847 -0.00011411795373803136 0.0
0.001281050096137944 -0.00035824637257761286 0.0
0.0012409154030548091 -0.00036473185265945555 0.0
0.001783784845865732 7.709158542704371e-7 0.0
0.0017782104556591195 -1.7354240820054162e-5 0.0
0.001835218563333056 -1.995275717585745e-5 0.0
0.0017676800763252439 -3.635187881326161e-5 0.0
0.0017937683890395775 2.0396711117406164e-5 0.0
0.0019094741237896105 -0.00014806459653164106 0.0
0.0019057134570778064 -0.00016544578271866659 0.0
0.0018460145248470538 -0.00017677604789881492 0.0
0.0013727476468619621 -0.00026775314679261606 0.0
0.001414501315610199 -0.00027847069884180036 0.0
0.001417721489666722 -0.0002612686023931123 0.0
0.0014588437194687947 -0.0002709597339277351 0.0
0.0014620680106786149 -0.0002540413998990549 0.0
0.001503138799379518 -0.0002631821941176189 0.0
0.0015066337600953175 -0.00024659857966264677 0.0
0.00154948040052621 -0.00025504462096046914 0.0
0.0015448545420783959 -0.00027249886720969515 0.0
0.0015922995410440877 -0.00026143538032534844 0.0
0.0017890168528185931 -0.0003010880231525998 0.0
0.0017447755027613402 -0.0002923217866874218 0.0
0.0016981355673491608 -0.0003031732804833891 0.0
0.0017017639291608147 -0.0002841069536848237 0.0
0.0003244366879216446 -0.00012442118819306058 0.0
0.00039208263863518676 -0.0003052439866256792 0.0
0.00035855075417712604 -0.00027564975240070765 0.0
0.0003477344518233907 -0.0002504000579957634 0.0
0.00032439534788914235 -0.00024506034076167844 0.0
0.0016073386586818847 -0.00037349354523346474 0.0
0.0021680775854848516 -0.00025638302773307755 0.0
0.002156145216038819 -0.0002801046443242564 0.0
0.0008244815693486628 0.00016902364135776578 0.0
0.001703063459212316 -0.00015740200548126118 0.0
0.00170521775745152 -0.00014299007320177885 0.0
0.0017850584442450105 0.00010522749805342949 0.0
0.00303102802378218 -7.399731992408281e-5 0.0
0.003072320746848334 -5.406848502769773e-5 0.0
0.0031005115543468443 -4.5058767012551456e-5 0.0
0.00010760299694898883 -4.046449054228399e-5 0.0
0.00011073946553631228 -4.6885709427785224e-5 0.0
0.00015702244714997467 -6.873685971861549e-5 0.0
0.0001170522948189355 -5.477868752576074e-5 0.0
0.00016040604342555583 -7.752693219677637e-5 0.0
0.00012149120358791551 -6.243423593339491e-5 0.0
7.48470852594465e-5 -3.7560160840994785e-5 0.0
0.0015640006330012184 -0.0003843027509999927 0.0
0.0007550501376030993 -0.00021314348824600084 0.0
0.0004503412469545432 -0.00033735657208443514 0.0
0.0012398749298945001 -0.00018512741147050268 0.0
0.0028686149032704253 -0.00024956034848919975 0.0
0.002838857336305182 -0.0002592574534818753 0.0
0.0024258581429889335 -0.00029045350538371944 0.0
0.0024690999343162383 -0.000284668687465508 0.0
0.002481965455239376 -0.0002599491961710299 0.0
0.00015094001121229605 1.6391135552960074e-5 0.0
0.001129423161327502 -0.0006029499675685857 0.0
0.000775626777238364 -0.0005035759403642254 0.0
0.00010082476525357528 -8.57353485341235e-5 0.0
0.00013768410395008295 -0.00012240177904528432 0.0
0.000616027750909474 -0.0002061631542379641 0.0
0.0019431487507720403 0.00011785139832140922 0.0
0.0020035513479378124 0.00011443867117960275 0.0
0.0023399065610742505 -0.0003174495441051425 0.0
0.002438422776597774 -0.0003164438369167061 0.0
0.0010641527443244168 -0.0005871655248991616 0.0
0.0011907300443991901 -0.0006155418180627031 0.0
0.0012212662209732628 -0.0006093173605792176 0.0
0.0026710573059564786 -0.0003125338628334556 0.0
0.0026520513466578143 -0.00035172880853049016 0.0
0.002607675144190403 -0.00039075947048562167 0.0
0.0028964480540926226 -8.402743649142439e-5 0.0
0.002853177147839998 -9.11632379845264e-5 0.0
0.002796731077286997 -0.00011165699304467797 0.0
0.002804843910718722 -9.779372797726323e-5 0.0
0.0005265286298998785 -0.0001992617723235197 0.0
0.002715683674060018 -0.00010301046467455021 0.0
0.0026577417264873836 -0.00010566056814829656 0.0
0.0018886240478284333 -0.0005099918174770431 0.0
0.00033321567647019544 -0.00026778184512251605 0.0
0.0003032593020223803 -0.0002418506556370552 0.0
0.0002919165602266356 -0.00021830911427985584 0.0
0.00027124183655243277 -0.00021345587537611576 0.0
0.0031095979034615486 -3.730756837994792e-5 0.0
0.003040130653014313 -4.1719463787265745e-5 0.0
0.003080172366265835 -2.8736789307784108e-5 0.0
0.002521086537941828 -0.00045037307745020695 0.0
0.001284139820526372 -0.00027988602525003424 0.0
0.0026936444330417568 -0.0003195995910437145 0.0
0.002676964319747578 -0.00035733336696877285 0.0
0.002715729719362194 -0.00032618208925412715 0.0
0.0027025280654921994 -0.0003656243400850936 0.0
0.0027424359383955753 -0.0003280760536130369 0.0
0.0027560340660314512 -0.00029343219882675757 0.0
0.0027787227135979 -0.0002978634411768614 0.0
0.0014882728959979498 -0.000662558254525675 0.0
0.0014580555492913776 -0.0006758670162515708 0.0
0.0014180606032419172 -0.0006564513248574026 0.0
0.001037591973352044 -0.00019259121464079295 0.0
8.670734003884462e-5 -4.7648663209624e-5 0.0
0.00012541419676201756 -7.047644726421441e-5 0.0
9.109962154677325e-5 -5.420887383130035e-5 0.0
0.0010397763946037887 -0.0005977731377528349 0.0
0.0010047537880122307 -0.0005730440751851297 0.0
0.0029876126818588933 -0.00016586670567377462 0.0
0.00024800479874562847 3.99968127613106e-5 0.0
0.0016567374687262708 -0.00029655989870964805 0.0
0.001662036358707938 -0.00027684950828472347 0.0
0.0028902136113242867 1.4177441061447813e-5 0.0
0.002982252980991544 7.959722494662872e-6 0.0
0.002688572217007765 -0.00024016902128743347 0.0
0.0005547388287725364 -0.0003741922645078842 0.0
0.0005657925962434461 -0.00040250675696537944 0.0
0.002282048215061576 -0.00033387067144189763 0.0
0.0023203114718379214 6.93599139950023e-5 0.0
0.0030519085905541133 -0.00011854643238062093 0.0
0.0030956832778218347 -8.028632629955546e-5 0.0
0.0031130340928880967 -5.8712564838054546e-5 0.0
0.0022412886004892583 9.800038340058339e-5 0.0
0.002607696738329094 -0.00023878048359846906 0.0
0.0014229137196085978 -0.0005825914155837059 0.0
0.0026900188559621824 -0.00013889942377145594 0.0
0.0025198643724167456 -0.00027055032733944276 0.0
0.00096869868114195 -0.0003956189031172082 0.0
0.0005681960425677356 -0.0003498367141661658 0.0
0.0029443450205761806 -7.379951246361533e-5 0.0
0.002433152294769565 0.0001177843481520434 0.0
0.001005728923071681 -0.0005983683896206034 0.0
0.00046834593026710554 -0.00017906524553831248 0.0
0.0016924275256188556 -0.00017496459514949013 0.0
0.0024709382618584744 -0.0004385056875337365 0.0
0.0024598785074140183 -0.00047539175812119893 0.0
6.841493604177493e-5 -5.65472557830729e-5 0.0
0.0019182442726231718 -0.0006260477289177367 0.0
0.0019063081718917038 -0.0006537307074014325 0.0
0.0012209596967105551 -0.0006396377605084601 0.0
0.001253134000491399 -0.0006298702409331862 0.0
0.0012514407294266048 -0.000602279538044747 0.0
0.0012838434719071566 -0.0006215418690790819 0.0
0.0012539557763388159 -0.0006530280264128613 0.0
0.0010721899978325643 -7.337483692285008e-5 0.0
0.0010091031399981929 -5.66772114709646e-5 0.0
0.0004373506577481747 -7.259086492266048e-5 0.0
0.0009213282348400387 0.0002085932901868427 0.0
0.000917591346647963 0.00019441105195300428 0.0
0.0019186230238602258 9.518455943479753e-5 0.0
0.002400333764784179 -0.0005079218412325894 0.0
0.0023648768952895336 -0.0005367348399769687 0.0
0.0002794359563143571 -0.00023680281558966608 0.0
0.00024833965669747476 -0.00020625027067233063 0.0
0.0030953406158304 -2.8452961006554104e-5 0.0
0.0005132569743234531 -0.00023442987776555902 0.0
0.00046369864459058714 -0.0002128381828615264 0.0
0.0028796747698374174 8.491507677041638e-5 0.0
0.0029481989342839245 -0.00017858744805209008 0.0
0.0029287239329249767 -0.00021519972308061867 0.0
0.001744039787652364 -0.00018042619923982917 0.0
0.0019909544484994542 -0.000636499168120335 0.0
0.001951908231929493 -0.000662862710737944 0.0
0.0008886830741174117 -0.0002712207377003505 0.0
0.0008929793439199462 -0.0002520112634748199 0.0
0.001283870336784853 -0.0005945601980601365 0.0
0.002702815449709603 -0.0002710771176649487 0.0
0.0015527153184808698 -0.00023821053565476936 0.0
0.0015135171829810264 -0.0002298778660750093 0.0
8.319574160009511e-5 -7.505824067669667e-5 0.0
0.0008999806440279196 0.0003239172567645111 0.0
0.0014193014014768452 -0.00024365354941685563 0.0
0.0009548962870210553 -8.178194762214886e-5 0.0
0.0009620217889267255 -0.00010200521486818658 0.0
0.0005789008725293089 -7.190348854673968e-5 0.0
0.0019645177692503278 -0.0001524731358618067 0.0
0.001289109382467459 -0.00017913010223560995 0.0
0.0012920130330992396 -0.00016302395707790452 0.0
0.0013383795136625474 -0.0001734474371641001 0.0
0.0013402264722873938 -0.00015828490825619908 0.0
0.0013847014398574065 -0.00016672377828546756 0.0
0.0013871622745620356 -0.00015249939981311863 0.0
0.0013417104575879492 -0.00014371610184564192 0.0
0.001389067233263544 -0.00013810586642931078 0.0
0.0013437686127860712 -0.00012966000329773646 0.0
0.0013917956800015888 -0.00012425749723734932 0.0
0.001428733609543429 -0.0001605791958280263 0.0
0.00012060993301472659 -3.952794062920509e-6 0.0
0.0018973410251338192 -0.00018551517871698064 0.0
0.0012942520788741252 -0.0002627368831522655 0.0
0.0012593948781663854 0.00010798209917737096 0.0
0.0013470625351013957 7.651340101280539e-5 0.0
0.0013493865289107537 4.4596433162477686e-5 0.0
0.0013259802016437267 0.00011823096742370527 0.0
0.0012882988781490908 3.965805716797043e-5 0.0
0.0013623798087811024 2.0098640975217832e-5 0.0
0.0014321449968746748 2.0125725268757087e-5 0.0
0.0014000542807332955 9.51881114139791e-5 0.0
0.00020089087947378846 -9.167535261410812e-5 0.0
0.0002068167411843407 -0.00010329112768826351 0.0
0.0030952800924132252 1.5392808084446818e-5 0.0
0.0029931208492883924 3.42381817256294e-5 0.0
0.0029866474085832057 4.135362410782842e-5 0.0
0.0023037493771436096 -0.000559057334003654 0.0
0.0022613625519179725 -0.0005860024384862756 0.0
0.0008169120623200992 -0.00041026225387125453 0.0
0.0008471737417817437 -0.00040783563207798327 0.0
0.0007861862829003794 -0.0004112543468317824 0.0
0.0008992517575338084 -8.993519397937754e-5 0.0
0.0014135150117973445 4.610498893548342e-5 0.0
0.0014388186286876394 -0.000132032673019214 0.0
0.0014382611194512713 -0.00011804467571391536 0.0
0.001393731684874771 -0.00011055334335128108 0.0
0.0014388677803977758 -0.00010540193760831692 0.0
0.0013978461901650375 -9.756027423231059e-5 0.0
0.0008432882233448465 -0.0005120009116673076 0.0
0.003086291607327071 2.46793508187538e-5 0.0
0.0013268357059432567 0.00014556361179301824 0.0
0.0018437557126203803 9.305758723508773e-5 0.0
0.0018497066977233628 6.6882442043572e-5 0.0
0.001775841355453632 5.7946568522361604e-5 0.0
0.0009421950618083792 0.00014667630692235623 0.0
0.0011758206988644634 0.00017386199700528286 0.0
0.0011102278385960202 0.00018462744089898695 0.0
0.0010715774933688087 0.00019285923119911072 0.0
0.0020714728667422513 6.008444770504754e-5 0.0
0.002563788542145135 -0.0004194920061750295 0.0
0.0025446433678717405 -0.0004632956704434173 0.0
0.0008051913870079932 -0.000526549936206708 0.0
0.0013158998004002573 -0.0006137473042089344 0.0
0.0013168294280616825 -0.0006402049174620685 0.0
0.0013470920693589344 -0.00063233694893445 0.0
0.001352162993764133 -0.0006622383169852758 0.0
0.002236121225272202 0.00010171006507718674 0.0
0.0021733880738051136 8.884719666915203e-5 0.0
0.0022585451855071433 8.436741563194524e-5 0.0
0.0023251436459610494 9.447590832751226e-5 0.0
0.0017092439660514242 -0.0002661600475690309 0.0
0.0016739748089033757 -0.0002577299102821752 0.0
0.0013799466369050135 -0.00064961038411403 0.0
0.0009298906422197614 -0.0001643422119640444 0.0
5.5423952756043765e-5 -4.220839683780838e-5 0.0
0.0012948841019559 -1.556164635049534e-5 0.0
0.0013557483101409135 -3.179437425020553e-5 0.0
0.001357180864342985 -4.948823249854593e-5 0.0
0.0014153569248716755 -4.453520290350748e-5 0.0
0.0014129659541412367 -5.9055271500286706e-5 0.0
0.0014142760626007817 -2.9427848221383043e-5 0.0
0.0013642614664495481 -6.437169019021875e-5 0.0
0.0014121522374001116 -7.256283349812932e-5 0.0
0.0014693359819137567 -3.971831890466573e-5 0.0
0.0020904735227806758 9.194671814238797e-5 0.0
0.0013678154368288327 -7.874709178562941e-5 0.0
0.0031323629183147975 -1.2991195328738008e-6 0.0
0.0011887880524110708 -0.00019224307161558118 0.0
0.0014734865601460944 -0.0005500442330712489 0.0
0.0015122470959647613 -0.0005401683230080562 0.0
0.0013587354691621208 -1.4170324741485037e-5 0.0
0.0014217022153087445 -1.3917185176616173e-5 0.0
0.0017984370227757433 -0.000282227736113677 0.0
0.00225687888015175 -0.0004958021018508557 0.0
0.0022173925737353386 -0.0005265653007493773 0.0
0.0022084645283669334 -0.0005630185464110875 0.0
0.002181329590997726 -0.0005560889427474134 0.0
0.002174875446273639 -0.0005896398315612362 0.0
0.0021458784173003704 -0.000584788408632634 0.0
0.002619677408837025 -2.29394802972884e-5 0.0
0.0025646863641753228 -4.529512343945078e-5 0.0
0.002590656802007126 -6.274242260517678e-5 0.0
0.0025100288677218376 -6.947268033710631e-5 0.0
0.0025332617078227685 -8.698259591218012e-5 0.0
0.0024531971462037924 -9.519265376836e-5 0.0
0.002477721520761432 -0.00011255301197076499 0.0
0.0024283366817202693 -7.696514108538584e-5 0.0
0.002373485785365541 -0.00010301343913187717 0.0
0.002553294995903049 -0.00010361840426583554 0.0
0.002347371180169912 -8.512450054113174e-5 0.0
0.00249725578947539 -0.00012912482579089226 0.0
0.0024260983631470014 -0.00013814376653489464 0.0
0.0024423889508662137 -0.00015483638595615624 0.0
0.002402963578844731 -5.963906194218539e-5 0.0
0.002534985831907859 -2.664380838933129e-5 0.0
0.0025713553364842224 -0.00012042844425842218 0.0
0.0026758296378702594 -5.922860666751089e-5 0.0
0.0026221022799146365 -9.573864031698155e-5 0.0
0.0017158951468570376 -1.5269780015829368e-5 0.0
0.0011511862280040128 0.00017902970094138104 0.0
0.0001707836603478164 -9.09705307253044e-5 0.0
0.0001603738911272842 -0.000134052757096546 0.0
0.00019334173390078214 -0.0001655143663255116 0.0
0.0013780930419167276 -0.0006235808488732889 0.0
0.0018473287713733572 -0.0002924711689160573 0.0
0.0017751352255991318 -6.504509354102334e-5 0.0
0.0017154343983117348 -7.648177086781793e-5 0.0
0.0017260324580168744 -6.228536001793254e-5 0.0
0.001716547478008464 -9.114417322259395e-5 0.0
0.0017668973947635976 -9.664275223653466e-5 0.0
0.001711719906162293 -0.00010628361200151447 0.0
0.0017057539487916366 -0.00012061922712796692 0.0
0.0016639870723758486 -0.00011431629344717512 0.0
0.00020967644086352134 -0.00015835339228563347 0.0
0.0019861792557108464 -9.716761167078206e-6 0.0
0.002420124534726439 4.601199486923554e-5 0.0
0.002321146288191783 4.925233731319527e-5 0.0
0.00012693708170509138 2.304927609992283e-5 0.0
0.00026671478146948394 5.518431171800376e-5 0.0
0.0002468372575103583 4.658303595220776e-5 0.0
0.0020244410029582926 -6.33944456127427e-5 0.0
0.0002697548846775593 -0.00018647881498678963 0.0
0.00031236349969627873 -0.0002202100812346884 0.0
0.0003384979227861842 -0.00022838382122327902 0.0
0.00033467611356423636 -0.00020933677193665963 0.0
0.0003619265853494326 -0.00021211320947640006 0.0
0.001296917821127686 -9.17824866583262e-5 0.0
0.00014851591202100055 1.0247429672388308e-5 0.0
0.000621689228214108 -0.0001729689654942605 0.0
0.0005109332102311732 -0.00016355925277621063 0.0
0.0014205172810789718 2.8014414367630945e-6 0.0
0.0003773680480095854 0.00012687353545035656 0.0
0.002175246724640966 -0.0005147246186553425 0.0
0.0019092920208049632 -3.07719413255661e-5 0.0
0.003011280113735655 -0.0001577883583543684 0.0
0.0024020386784049264 -0.00012052635613055737 0.0
0.0023234749475200944 -0.00012840624446282552 0.0
0.0022348840786147977 -0.0005741976524234946 0.0
0.0031384692644686484 -4.539814994963534e-6 0.0
0.003077535219811762 -1.2328306560016424e-5 0.0
0.0030896299332403157 -1.628517349794172e-5 0.0
0.003067386303151117 -6.8144599672102385e-6 0.0
0.0030196301327943503 -2.3542995055202056e-5 0.0
0.00305945865151529 -6.370019178649929e-7 0.0
0.002987974819991531 -6.762417682000408e-6 0.0
0.0030023871460215677 -1.5876120143258306e-5 0.0
3.673331799079364e-5 -1.75888717330878e-5 0.0
0.003160959155771789 -1.2789132891132644e-5 0.0
0.003117912598301064 -2.5043120839375016e-5 0.0
0.0031441172094465513 -1.3694582944150093e-5 0.0
0.0031217084263703465 -2.68047416917621e-5 0.0
0.0018704571954149284 4.529641076173395e-5 0.0
0.0023415367606098043 -0.0005245273936475308 0.0
2.8987403842566588e-5 -1.827156272511679e-5 0.0
0.0031698047900507622 -1.4172949346427817e-5 0.0
0.001045003978546765 0.00012165147499921905 0.0
0.00255181360702234 1.7224892992149647e-5 0.0
0.0008745956213470701 -3.879215085450051e-6 0.0
0.0009461804719091758 4.160111440423486e-6 0.0
0.0009448701947843459 3.2856732271817875e-5 0.0
0.0009454775217601558 -2.0896445160846137e-5 0.0
0.0010068687817168982 -1.6205040546993143e-5 0.0
0.0010236012109240832 7.982921264094815e-6 0.0
0.0010181006167068927 3.8011921241184126e-5 0.0
0.000948358313390173 6.0282895688303816e-5 0.0
0.0008875086149722064 8.524011202113566e-5 0.0
0.000883048102566923 -3.411625453124431e-5 0.0
0.0026412907888700055 -0.0003880719735116335 0.0
0.0031304351163942107 5.807104130093463e-6 0.0
0.00128581652947854 -0.0005678957149359257 0.0
0.0004302218763803349 -0.00033965643345915434 0.0
0.0014141983571663464 -0.0005574048097308714 0.0
0.0010940092704844408 -0.0005817898614636052 0.0
0.0010964293826947595 -0.000608677374802061 0.0
0.001485612789230843 -0.00011199079486549953 0.0
0.0020267610644177404 -0.00010749660309539226 0.0
0.0027460810489419833 8.647444672779919e-5 0.0
0.002786587999010349 7.252853386837904e-5 0.0
0.0026995695598925223 7.606186373030514e-5 0.0
0.0002013440454146011 -8.316121910459379e-5 0.0
0.0004021172983103215 -0.0003304599713723539 0.0
0.0010549044285513259 0.00023820515239964774 0.0
0.0009506372432432015 0.0002358417354056951 0.0
0.002297736318312396 3.859161744927534e-5 0.0
0.001177481942083369 0.00016951826571467784 0.0
0.0028660693631291814 -0.00018991011724835868 0.0
0.0014012671523547587 -0.00046853401450324143 0.0
0.00218660298133606 3.688343578955534e-5 0.0
0.0022424712099778253 6.473822227463624e-5 0.0
0.0009692755077540991 0.00010263209272401314 0.0
0.0007810627089232809 -0.0005313952978830217 0.0
0.002843682687196863 -0.00022856492288333483 0.0
0.00047427321601071245 -0.00033987375416283925 0.0
0.0005027986236135211 -0.0003639164094481696 0.0
0.0004879450729628565 -0.0003710211636496116 0.0
0.000740853983809643 -0.00017433932332685287 0.0
0.0017497840335973197 -0.00013034378194677808 0.0
0.001966701161916288 -8.292307982734437e-5 0.0
0.0011892739161559196 -0.00013808716877022998 0.0
0.001242385347807965 -0.00015126099842758533 0.0
0.0030613390594780503 3.43227684784645e-5 0.0
0.0029043453409721364 6.629348770513832e-5 0.0
0.0001448036286592742 3.356333368544738e-5 0.0
3.654443470062921e-5 -1.9181594362980716e-5 0.0
0.0014330212668960795 -0.00014620392787355487 0.0
4.781985261604127e-5 -1.1831032801745363e-5 0.0
0.00011512466120580693 -2.4649623911788814e-5 0.0
0.001397629911783998 -0.0005362302920109305 0.0
0.002013876385708503 6.784458847752819e-5 0.0
0.001217736838597551 0.00016677551239476152 0.0
0.0019388728430276049 -0.00028365453036218206 0.0
0.0014480582604348027 -9.259003007500251e-5 0.0
0.0025370696924177567 -0.00023024542915768586 0.0
0.0029720453999600347 -0.0001440639696107158 0.0
0.0009327247539221988 -0.0003985566178463348 0.0
0.0009367562141372814 -0.00042233746288204596 0.0
0.0008989039458804156 -0.0003986553541377287 0.0
0.0008598305008825512 -0.00037528469314878054 0.0
2.978165671479169e-5 -2.027383953843255e-5 0.0
5.571723463036272e-5 -3.903225734750816e-5 0.0
6.229333635535882e-5 -4.0166817992818156e-5 0.0
0.0008026494164351475 -0.00027200288058149973 0.0
0.0007597732061668448 -0.00027352099880826523 0.0
0.003163780915641172 -1.3322776666155006e-5 0.0
0.0016883003868553878 -0.0006796416142135393 0.0
0.0016571171712017657 -0.0006631799878594371 0.0
0.001655493861342506 -0.0006932963615440969 0.0
0.0016241956001377062 -0.0006766090392972343 0.0
0.0015905090579934286 -0.0006886040965558549 0.0
0.0015886970345861688 -0.0006589078366483393 0.0
0.0016578694248828615 -0.0006332038074165814 0.0
0.002174742296776116 7.266953756397584e-5 0.0
0.0003686033793820099 -5.335062081573541e-5 0.0
0.00043000560494213037 -9.004428480678422e-5 0.0
0.0003740434437660004 -8.8747254737288e-5 0.0
0.0019911363254795237 -0.0002709533965345432 0.0
0.0006868584252445673 0.0001843760509045941 0.0
0.001583643251654573 -0.00028056328670575896 0.0
4.897853834352456e-5 -1.8184092684881428e-5 0.0
0.0009758772737150232 -0.0005748475084645399 0.0
0.0009447030660713873 -0.000572931057134324 0.0
0.0009502458580554474 -0.0005512650085542045 0.0
0.0010904901171758692 -0.0005549831218166147 0.0
0.00093299553770935 -0.00037230982520962684 0.0
0.0004169854263284407 -0.00017029850711276616 0.0
0.0002463092745651597 -0.00012813130551392592 0.0
0.0031473651378222485 -8.831012591515474e-6 0.0
0.00310228231392107 -1.8273592670631684e-5 0.0
0.0006187607601578181 -0.0004274064532657542 0.0
0.0007421809507199902 -0.0004777064836507095 0.0
0.0007148589759813636 -0.0004799187191239325 0.0
0.000680305008045488 -0.0004534870693343976 0.0
0.0006859779928339899 -0.00047993451435302106 0.0
0.0018941790547288807 8.554249212281428e-5 0.0
0.0013115141453185295 0.0001525492094070681 0.0
0.002026858233435498 -0.0006139444304283322 0.0
0.0020527739249707683 -0.0006262794361443154 0.0
0.002086730391884701 -0.0006030531260621319 0.0
0.0020139174830465885 -0.0006536761123145065 0.0
0.0010074716414669531 -0.00039719101589194127 0.0
0.0017844488886180902 -0.0005043381459499084 0.0
0.0012074142417243213 0.00017089195678025496 0.0
0.0012970038003127032 -5.781779273535211e-5 0.0
0.0031711124465081757 -1.5326205063583002e-5 0.0
0.0031437796682335724 -3.163974968940882e-5 0.0
0.003132238306264518 -3.337162569555137e-5 0.0
0.0006527654800140495 -0.00045395544293455126 0.0
0.0006263772885067718 -0.00045312602942269517 0.0
0.0009394214086770406 -5.72743193317919e-5 0.0
0.000825738383666561 -0.00037904918541139024 0.0
0.002956015624876745 -0.00010581168786085873 0.0
0.002412071504786026 8.853788070900176e-5 0.0
0.00142256608062754 -0.00017492019936554974 0.0
0.0014658721666952722 -0.00016751443374773658 0.0
0.0018904574684455147 0.00011818848432557955 0.0
0.002311944508790661 -0.0004322055982438341 0.0
0.0013626844543914837 -0.0004766253462526115 0.0
0.001364435634731753 -0.000501369324909659 0.0
0.0003474854451651945 6.254892135554749e-5 0.0
0.0007576481326622507 -0.0003805613424297939 0.0
0.0007231922730302459 -0.0003776235689118645 0.0
0.0006848179042074408 -0.00035308206191659664 0.0
0.0006898776676763509 -0.0003769824753208653 0.0
0.000581452927273481 -4.9680927825257744e-5 0.0
0.0005843839809489089 -2.6332471638824022e-5 0.0
0.000651840345789686 -9.422756891674774e-5 0.0
0.0020425211276733934 -0.0006632778738016866 0.0
0.0019869222238819255 -0.0004973070440385857 0.0
0.0019425897815712409 -0.0005189396813105667 0.0
0.0019804097917504367 -0.000531824897007508 0.0
0.0019366439591902412 -0.000554122560624317 0.0
0.001962782232664255 -0.0005642174485961373 0.0
0.0020220621754263347 -0.0005045184450536163 0.0
0.002054568152008971 -0.0005090805411322362 0.0
2.5352601512773348e-5 -2.0099855313208068e-5 0.0
0.0031755925812336086 -1.6963734442702195e-5 0.0
0.002584845141836068 -0.00037776014144999466 0.0
0.0018501817427478274 -0.0006599287887666012 0.0
0.0029371053882378657 5.9845514253390645e-5 0.0
0.0017909228141714014 -0.0006331196124887686 0.0
0.001784632972131566 -0.0006636657776839009 0.0
0.002372006523070093 -0.0002881982468405027 0.0
0.002127958000710714 -0.00023100244202853263 0.0
0.0020838462934815445 -0.00022597621666241538 0.0
0.0009907607162951883 -0.0005186832445536044 0.0
0.00058324102510986 -0.00032477966959730054 0.0
0.0023691130531935905 -0.0001658274827034122 0.0
0.0024786122159482647 -0.0004014707561507124 0.0
0.0010898050744029481 -0.0003158109980697609 0.0
0.0011301349005114287 -0.00031141586561702896 0.0
0.001128384854264546 -0.0003322662696937259 0.0
0.0011330404305021605 -0.00029132264747937177 0.0
0.0010884463155041687 -0.0003368959880408419 0.0
0.0011694975334103103 -0.00030892655728174354 0.0
0.001174959013162666 -0.0002902104683376085 0.0
0.0011859434352205483 -0.0002696574432847465 0.0
0.002355961957494841 0.0001250310116025822 0.0
0.0002683537753102996 6.076223376687654e-5 0.0
0.0022945646486323677 -0.00011117746128514059 0.0
0.002487423393370669 -0.00023938118153733745 0.0
0.0005031560411637799 0.00013961304530961982 0.0
0.00044518394215805305 -1.2345243851419532e-5 0.0
0.0006533779837325867 -4.6521753998659214e-5 0.0
0.0005122259753122426 -0.0002962402415620273 0.0
0.0010898012156618038 -0.00027534534440319935 0.0
0.000847679979443793 -0.00023255509915996836 0.0
0.0009061411072277915 -0.00023293915164199425 0.0
0.0009429952961489521 -0.00025401300807246244 0.0
0.0015195953544789294 -0.0006527186148146077 0.0
0.001555312238947372 -0.0006703791161893477 0.0
0.0015551505052917999 -0.0007028165112890332 0.0
0.0015889112600787627 -0.0006298121546511196 0.0
0.0024329611863834 -0.0004278338493607201 0.0
0.0011369075754973168 -0.00018046729937113017 0.0
0.0023081698407121094 -0.00026228050284878403 0.0
0.0010870023923630439 -0.0005287346189269029 0.0
0.0016587034233830167 -0.0006039519950848251 0.0
0.001156816755954005 -0.000624636436213182 0.0
0.002928624260093542 4.559518648492626e-7 0.0
0.001541436040351483 -0.0002906452598451067 0.0
0.0003708110857256016 -0.00014675164886505815 0.0
0.001171709663779926 -0.0004382599825826565 0.0
0.0012099129234405398 -0.000456472991618611 0.0
0.0010931572441512873 -0.0004020223242712995 0.0
0.001186885046307126 -0.000562720537002743 0.0
0.001856951192851341 -0.00038299553822066467 0.0
0.0018097142555193676 -0.00039835780680843046 0.0
0.0018505538251630455 -0.0004077149372024507 0.0
0.002268003878985649 -9.374840434593613e-5 0.0
0.0014008888912288415 -0.0004447564650179301 0.0
0.0010125780830284254 -0.00036555265348428887 0.0
0.0017978264671860392 -0.00017015579183160437 0.0
0.0017881485104665772 -0.00018766344184559895 0.0
0.0004031853240822786 -0.00023769149615804848 0.0
0.0008379332320162021 -0.0004865750545702914 0.0
0.002098444824640866 -0.0005654390221167236 0.0
0.0017779197961286409 -5.06375687849054e-5 0.0
0.001633320681026663 -0.0004810600406906908 0.0
0.0015925748158044503 -0.000493084347505501 0.0
0.001590625502192141 -0.0005196288219721582 0.0
0.0015524013450736835 -0.000504204669367418 0.0
0.0015516227871405501 -0.000530820388101491 0.0
0.0016279927179425938 -0.0005340203049982757 0.0
0.0019198654002267404 -6.141315133957834e-6 0.0
0.001282568961045696 -0.00037908293720310016 0.0
0.0012445172154466062 -0.0003854051764693332 0.0
0.0017737608883462565 -0.0003651326476448959 0.0
0.0010539529618052957 -0.0004051771726787157 0.0
0.0017513884879439541 -0.0006792162029130793 0.0
0.0013231439268095448 -0.00046028076428030894 0.0
0.0015544755964321635 -0.0004787100271092558 0.0
0.0021996184771637885 -0.0006002454382296389 0.0
0.0014122678862708545 -0.0002970196040297457 0.0
0.003004318058164109 -5.6696325751809655e-5 0.0
0.001561501830015508 -0.0004068535290365109 0.0
0.0007081958485799411 -0.00028852554013134675 0.0
0.0014038025359773118 0.00013557704612117375 0.0
0.002194169264125941 -0.00047892296851101933 0.0
0.002873103329362636 6.399781838832681e-5 0.0
0.00046431590841332625 3.033559673497875e-5 0.0
0.0004830789370951686 5.0252820174790875e-5 0.0
0.0005352330926785006 1.9736910868710402e-5 0.0
0.0005672400707082836 4.414572539758615e-5 0.0
0.0006208454948532185 2.7265583108222878e-5 0.0
0.00224612880612226 -0.0001364112802584193 0.0
0.0012868600491799636 -0.0006515203688233056 0.0
0.001455902289110261 -0.00028931978780545267 0.0
9.401370451425639e-5 -2.599400520260791e-5 0.0
0.0011014863255476926 0.0001941397834108205 0.0
0.0010225536240131758 0.00020341631614024744 0.0
0.0021200645964798114 7.400151658878873e-5 0.0
0.0012515282918867403 -0.0005490808937307093 0.0
0.001425041431397561 -0.0006306286415782457 0.0
0.001242181098636476 -0.0002032855675766378 0.0
0.0017322681155208857 -0.000355868866915315 0.0
0.0016871835566802762 -0.0003451855264923229 0.0
0.0016952442348533575 -0.0003225060154506481 0.0
0.0017931848680175432 3.9177488574657187e-5 0.0
0.001176638558497813 -0.00046247097987746957 0.0
0.0008007443548985105 -0.00021300981677976484 0.0
0.001201986733188651 -0.0003467925713932229 0.0
0.00016474806451839645 -9.53609077182318e-5 0.0
0.0016547651502050096 -0.0001653938230329609 0.0
0.0006727991378682164 -0.0004267432935861715 0.0
0.0016510682743533056 -0.00036164120027681293 0.0
0.0009978975864452777 -0.0005454682113732143 0.0
0.002222679573910529 -0.00023564360403527574 0.0
0.001488055777659363 -0.0003605480137707789 0.0
0.0015132971438764915 -0.000514514640874608 0.0
0.0027832505936933177 -0.00017759993979524593 0.0
0.0005954920166553261 -0.00042688670996193567 0.0
0.003037530908251939 -0.000149142653064606 0.0
0.0012394036576744314 -0.0002778639036475648 0.0
0.001482573261586107 -0.00040422739818352386 0.0
0.0002758999580054265 -0.00010222737041994703 0.0
0.0027886449788307875 -0.00012625901078399773 0.0
0.0017372090414535233 -0.0005469822716025922 0.0
9.431293398215473e-5 -3.101123619173116e-5 0.0
0.0015984277078049806 -0.00022888581332038344 0.0
0.0015958535665761987 -0.00024409652075292176 0.0
0.0029871835833213357 -3.525181912989556e-5 0.0
0.0017208233367477287 -0.0006946485203056629 0.0
0.000552095095404897 -0.00032263047196415316 0.0
0.0030843956321738248 -5.832195514571465e-5 0.0
0.0016520340802950876 -0.000314044003593172 0.0
0.0015303827931958081 -0.0003514939969978538 0.0
0.0019147934148123684 -0.00048097489863757186 0.0
0.0018747465737057544 -0.00047120124816289787 0.0
0.0017499123070115578 -0.0004919791439573862 0.0
0.00145309842884239 -0.0003085848680312358 0.0
0.001791635465506803 -0.0007116566835355111 0.0
0.00192491004590857 -0.0006991549636883628 0.0
0.0013735714235303261 -0.0006912838652536602 0.0
0.0014783082478659704 -0.0007037473854894314 0.0
0.0021191804088364417 -0.0006549377202711065 0.0
0.002110711264512305 -0.0006191856882854776 0.0
0.0011007593879355617 -0.000634377815539157 0.0
0.0008716400928419731 -0.0005690302779565091 0.0
0.0018584385885986883 -0.0007067874440678229 0.0
0.0011719230667595634 -0.0006544542314241116 0.0
0.0013159315734599828 -0.0002467144655251835 0.0
0.0027331975691109603 -8.381783799891199e-5 0.0
0.002226061263903093 -0.00035956992537521587 0.0
0.0022084531364924133 -0.0003862763891945619 0.0
0.0011281003335602885 -0.0003548010225579195 0.0
0.0019173956830977159 -0.00032191648071226215 0.0
0.001517376063568267 -0.0005657257721278246 0.0
0.0007911677118104759 -0.0004491334812207205 0.0
0.0005916677581538037 -0.0002613388597648274 0.0
0.001323228024588953 -0.0003511579440682579 0.0
0.002792972117742344 2.162956803330312e-5 0.0
0.0010892953306595658 1.7608784805825834e-5 0.0
0.0015001330137416407 -0.0002810765748873079 0.0
0.0017694189983785515 -0.0003899719064697081 0.0
0.0002174335470569716 -0.0001778600300349804 0.0
0.000225648040468069 -0.00019856591180160565 0.0
0.0013232186567084718 -0.000509059756069478 0.0
0.0011127072929746939 -0.00047412541195987495 0.0
0.0016014903302957787 -0.00041893289892598964 0.0
0.002962951004988517 5.0866414801792365e-5 0.0
0.0016920215792244335 -0.0006190443666186423 0.0
0.0031378918920809684 -4.627488287426375e-5 0.0
0.0031151690670315536 -7.291543129161329e-5 0.0
0.0008704477908959864 -0.00014870708577116714 0.0
0.001363488853571461 -0.00038558311005211727 0.0
0.0014394327744680446 -0.00045967639266224474 0.0
0.003047079050120754 1.0935005195669478e-5 0.0
0.0014957454671750564 2.4594042129263682e-5 0.0
0.0020947965984096303 -0.00048816104857525485 0.0
0.00216354776796243 -0.00040861239195095106 0.0
0.0008554659650124561 -0.000540529997908936 0.0
0.0019879187533419222 -0.0003823252472245088 0.0
0.0013649349334985844 -0.00034385821886206026 0.0
0.002086107601659347 -0.0003455642755084149 0.0
0.0020754306605835307 -0.0003704820532339247 0.0
0.0021355359045088095 -0.0003265841568716249 0.0
0.0007172105214886981 -0.0005068882942692825 0.0
0.002496043938365554 -4.9473178601126e-6 0.0
0.0018132441803540703 -0.0006813173225468448 0.0
0.0025804848170245444 -0.0004321263714564283 0.0
0.002354808943648732 -0.00026247184475147836 0.0
0.001520169995058167 -0.0002138905394414412 0.0
0.0019333314894970663 -0.0005897115396523019 0.0
0.001213291776677976 -0.00048053479231118494 0.0
0.001273652457066011 -0.0002965596817192773 0.0
0.0029524787758078035 -2.749311806287865e-5 0.0
0.0006747341585550051 -0.00019349726547181054 0.0
0.002267693648535683 -0.00015322793665289414 0.0
0.0015037960862387286 -0.00014146596554696211 0.0
0.001960245324199492 -0.0003279139669596451 0.0
0.0028286521646891647 -7.958007735016034e-5 0.0
0.00024499962401184 -0.00010611089304128766 0.0
0.0022675312558821086 -0.0003920585380955491 0.0
0.0017128743368408235 -3.1585958584762874e-5 0.0
0.001697232162819948 -4.6308643858945046e-5 0.0
0.0018704433610721837 -0.0005668551421253249 0.0
0.0017218856610658189 -0.0004291556180455093 0.0
0.0017696637521426716 -0.0005598467537773501 0.0
0.0022993290294573954 -0.00046719274949564405 0.0
0.002327883098955212 -3.696068401688122e-5 0.0
0.0015069811582158054 9.387068633453682e-6 0.0
0.002089760104669924 0.00012924162398147236 0.0
0.0027214148865641074 -0.00023585441600262896 0.0
0.002736357856253252 -0.00020866702476369354 0.0
0.0015043087406375214 -8.357291779355215e-5 0.0
0.0010121772155323018 -0.0004631192724693313 0.0
0.0020498264989481188 9.414332159569396e-5 0.0
0.0015093177527242434 -1.785710060231169e-5 0.0
0.001978002750854027 -0.0004077294085056115 0.0
0.0030898300017911558 -6.817329205127468e-5 0.0
0.0005248546950277713 -0.00034456862629940135 0.0
0.001913545451946564 -0.00020194754736112944 0.0
0.0015101471131722638 -4.986855076009399e-5 0.0
0.0015043010794750374 -7.319235210506525e-5 0.0
0.0005315302738298181 -6.490358253790055e-6 0.0
0.00277105855390634 8.782022498134544e-5 0.0
0.0016180185423674159 -0.00014622837064507812 0.0
0.0028210990984892013 -0.00017063003342615023 0.0
0.0009750176852660417 -0.000442576313352214 0.0
0.0023881895971705055 -0.0005509823162099724 0.0
0.0024533867629034575 -0.0005277682621109308 0.0
0.0008857617597294209 -0.00045344850200134166 0.0
0.0020512027748541936 -0.0004212431871160286 0.0
0.001339233980807813 -0.000686544606484468 0.0
0.0019664473281582216 -0.00012327043124257128 0.0
0.0005715222572842461 -0.0004399666601175061 0.0
0.0016371775490178007 -6.583073393498917e-5 0.0
0.0016975613324070277 -0.0001910277624798881 0.0
0.001666913304542374 -8.590221461557098e-5 0.0
0.0018050755600700818 -0.0004240154085597896 0.0
0.0021940486750747063 -0.00041285910282423644 0.0
7.912166922368209e-5 -7.938509139251615e-5 0.0
0.00013595626661496837 -0.00013336836250910688 0.0
0.00016280499588579417 -0.0001576025823769622 0.0
0.002935773132788995 -0.00023584182031097605 0.0
0.0002183545134418912 -0.00020667915570293379 0.0
0.0009066422186237023 -0.0004240355276026583 0.0
0.0004091717281599509 5.225478238259332e-5 0.0
0.002612796304741358 -0.00044820567346135414 0.0
0.00048487589968362313 -0.0003906137101162204 0.0
0.0005434843205111733 -0.00042480552678424437 0.0
0.0029030687526793554 -0.00025938409404092883 0.0
0.0028383838543466857 -0.00030835009415539636 0.0
0.0016814596831776628 -0.00024071416578537338 0.0
0.0012192378359885696 -0.0005831765011874818 0.0
0.0023164796121394153 -6.50203286153101e-5 0.0
0.002677156376549923 -0.0004093799388202165 0.0
0.002709517312051297 -0.00039095056103160744 0.0
0.0004285577059346395 -0.0003589275546390822 0.0
0.0002988961424955645 -0.00026807042368300716 0.0
0.002774673436709831 -0.0003498545558054553 0.0
0.002801287049738993 -0.0003026515317030225 0.0
0.0018778480927770244 -0.0006756612804437702 0.0
0.00035404277087329087 -0.0003087963645791198 0.0
0.0022808986009818354 -0.0006038302791570684 0.0
0.0005947457539555361 -0.0003504481565200119 0.0
0.0025947490676314776 -0.00029831416313095866 0.0
0.0009077125565666859 -0.0005575247623814111 0.0
0.0024101662667446316 -0.0004176952245048578 0.0
0.0024836989371665942 -5.164664006623468e-5 0.0
0.000887561257457392 -0.0003095321939615186 0.0
0.0006002414175956514 -0.0002826609637996499 0.0
0.0011480316520385639 -0.0004932249017858413 0.0
0.001520997672995549 -0.0004174020171334594 0.0
0.0026227761985459837 -0.00016342437439737252 0.0
0.0016232936308615137 -0.0006463438346129192 0.0
0.0016595114735396307 -0.00015175203505262148 0.0
0.0016476748720277799 -4.32513177018743e-5 0.0
0.002105375805626715 -0.0002981486651102656 0.0
0.0024185974629842466 -0.00034566423301729483 0.0
0.0008715736381714716 5.2341133188611824e-5 0.0
0.0019858796365644963 9.884672919820842e-5 0.0
0.0009658107021728272 -0.0003058437687424766 0.0
0.0026354778202632317 -0.0002391633210739161 0.0
0.0006293993798088488 9.719031724482428e-5 0.0
0.0005322319505258507 7.27645770573773e-5 0.0
0.001347117728986471 -0.00010216605038091653 0.0
0.002763322026791907 -0.00010074745112946402 0.0
0.0014840958260446701 6.548536433919303e-5 0.0
0.001609102347005519 -0.00018430309298663938 0.0
0.002923043851570684 -8.913712748324709e-5 0.0
0.0008143122890892045 -0.00031133181211815656 0.0
0.0010017568317235582 -0.0002041405573806228 0.0
0.002264384045490927 -0.00028683375297345205 0.0
0.0024927405491714685 -0.00032102502356053136 0.0
0.0007081121341784105 -0.00030999145461391516 0.0
0.0004186118345261689 -0.0002625508188001693 0.0
0.002389418443859448 -0.0003429986670408364 0.0
0.0010258684045942876 -0.00013555054496858552 0.0
0.002387457785870558 -0.0001941837964084461 0.0
0.0031460853916022253 -3.416839171129419e-5 0.0
0.002608519231554832 -7.941690174365636e-5 0.0
0.0016748728234088604 5.028039743058544e-6 0.0
0.001727823715298825 2.521585034067331e-6 0.0
0.0019516584201401314 -0.00024549704298947457 0.0
0.0028654949553399006 -1.7931358708773376e-5 0.0
0.002815468896971267 7.090092726002912e-6 0.0
0.0001315373417297419 -8.679392661695235e-5 0.0
9.854718671870658e-5 -6.341503673715165e-5 0.0
0.0012516387979581943 -0.0005753472149526032 0.0
0.002026085069534347 -0.00038922102238542666 0.0
0.0011390333605393135 -0.00021584625249705837 0.0
0.0011387874213986634 -0.00019836175198984104 0.0
0.0011302398318763709 -8.939346583523694e-5 0.0
0.001590082467053707 -0.0005465873539898733 0.0
0.0018644017392111507 -0.0002165803255583783 0.0
0.0005006505583662381 -9.190611226309899e-5 0.0
0.002197641420015774 -0.00016113345566375417 0.0
0.0016994030824517815 3.69433607871189e-5 0.0
0.0013227956832449607 -0.0003719344586942347 0.0
5.3749783327239536e-5 -6.100645014299957e-6 0.0
0.0015233700816418352 -0.00039455640110873955 0.0
0.002905269167038129 -0.00010443353165609352 0.0
0.002477259015586318 -0.0001938427264971941 0.0
0.0023531048152337568 -0.00014560977201297332 0.0
0.0027785807429683263 -0.00014278479442967758 0.0
0.002020118580740806 -0.00017238264999911568 0.0
0.0011166649154536158 -3.198100768095645e-5 0.0
0.00036586419227028924 -0.0001311731367798587 0.0
0.0013692411463914547 -0.00019422835329263837 0.0
0.0017201900555838731 -0.000248575805413483 0.0
0.00045681051341953213 -0.00022720435688627924 0.0
0.0014435313384710557 -0.0007003881939778613 0.0
0.00195292180058878 -0.00017155989074519896 0.0
0.0009439089013852347 -0.00044604139844631934 0.0
0.0021135782284875102 8.338748817299749e-5 0.0
0.0026641167544199976 -0.00015943913967334867 0.0
0.0010207734689037184 -0.00011637286376198738 0.0
0.0023205385904422108 0.00012583651768933028 0.0
0.0017796857956573486 -0.00020485871823284232 0.0
0.0015260886854925814 -0.0003725054398028467 0.0
0.0005621750000827484 -0.00011189646387446231 0.0
0.0010463823357165372 -0.00022286918969856897 0.0
0.0013810118532879903 0.0001261839551138527 0.0
0.0004268001517967473 6.83312183712878e-5 0.0
0.002340920240947785 -0.0002871865449924887 0.0
0.0006193743914773662 -0.00022433102612635691 0.0
0.0015686086079579424 -0.0003630117572475218 0.0
0.0026287070403580156 6.202934368148553e-5 0.0
0.002224645296087785 -0.000284847459607703 0.0
0.0010656325838675367 9.615077677998772e-5 0.0
0.00019177959129158863 -5.188888477539401e-5 0.0
0.0007996661572450034 -0.0001933166286997562 0.0
7.114523566408926e-5 5.642732625966917e-6 0.0
0.00014768109446048255 2.7865564680364057e-6 0.0
0.002213783654764191 -0.00026316624729519523 0.0
0.001830968256368721 -3.590696724811811e-5 0.0
0.0010320490663409284 -0.0006221906726214014 0.0
0.0007241093482607901 -0.000402834445002244 0.0
0.0026042210124068836 -0.00012734636662175942 0.0
0.0003649992018052017 -0.0002996758658092421 0.0
0.0021432634372992856 -0.0003036353361586725 0.0
0.0017754909705027379 -0.0005320252276273038 0.0
0.0025774891856383403 9.348231296440402e-5 0.0
0.0009267194483218989 -0.0005258267094464579 0.0
0.002795414896496737 -0.00026178578925477693 0.0
0.001611870498616188 -0.00017169235227208976 0.0
0.0005224142150644835 -0.00039258778674125674 0.0
0.0021459503322277342 -0.0006187284145860282 0.0
0.0005265327755715343 -0.00025624836580225566 0.0
0.002984276846214155 -9.93032239343421e-5 0.0
0.0003785533446626181 -0.00017904990575043144 0.0
0.0022056986751637785 1.568140807291773e-6 0.0
0.0020239168923072673 -0.00015290385619532568 0.0
0.0016505436410712505 -2.024694591922328e-5 0.0
7.352383818007506e-5 8.491314221275868e-6 0.0
0.001254378744334916 0.00016369004802900338 0.0
0.0008589872046677942 -0.00012664300949402735 0.0
0.002480945362314152 -0.00048351471966016246 0.0
0.002515453950455942 -0.0005021088953350032 0.0
0.00023657043924305783 -9.503391914631616e-6 0.0
0.001830067089213224 -0.00019391197972496523 0.0
0.0007547427795916555 -0.00040385020002379313 0.0
0.0012850429316347385 -0.0004001995512420426 0.0
8.293718827157077e-5 -6.014191029403316e-5 0.0
0.0001768057660952223 -3.078296166078838e-5 0.0
0.0017545110524965846 -0.00027391295596445155 0.0
0.0016114154490187397 -0.0003522259029944641 0.0
0.00011500861948235012 -1.698086632576568e-5 0.0
0.0003129594333557151 -0.00010786429579499627 0.0
0.00024514911972584074 -0.00022780055039607397 0.0
0.002614373271293594 -0.00026694075188252853 0.0
0.002062606533081692 -0.00039553553517775603 0.0
0.0003795411658262327 -0.0002367182393364382 0.0
0.002449231745463632 -3.6178549704641024e-5 0.0
0.0022483471149626877 -5.49688746110216e-5 0.0
0.0001740432502448448 -0.00015679774796798556 0.0
0.0013053501546493413 -0.0001353176792250954 0.0
2.222137842110935e-5 -2.1088424184623948e-5 0.0
0.003176484623836825 -2.192429724200213e-5 0.0
0.0030807517178852977 -3.8633553539334785e-5 0.0
0.000937968270111146 -0.0005935660691069374 0.0
0.0024545661517659423 2.5991842896901127e-5 0.0
0.002062212605180179 -0.00048108515840199727 0.0
0.00041819684125618534 -0.00018646111877629402 0.0
0.001956581435266937 -0.00069377139844718 0.0
0.00044929048256720134 -0.00010870845615068002 0.0
0.0027509597565465492 -0.00011710456812864569 0.0
0.0012451910562052847 -0.0004059811393684226 0.0
0.0001233144639618753 -7.551744564573858e-5 0.0
0.0014610956881233117 -5.4951107230918565e-5 0.0
0.0014585901140951472 -6.735946379920224e-5 0.0
0.0028931683134747073 5.342148363906025e-5 0.0
0.0017654758340266486 -0.00041422191491871077 0.0
0.00022607566244232184 1.1705769113017081e-5 0.0
0.002763577178634853 -0.00033314978376948327 0.0
0.0029210835117531963 -6.891394834673951e-5 0.0
0.0022296689772768738 4.7792407194551493e-5 0.0
0.00228927443759074 2.5821344288010958e-5 0.0
0.0013499581777621703 -0.0006052596422461273 0.0
0.003104814072041233 -9.51028530147951e-5 0.0
0.001345043727862695 -0.00011604765925669493 0.0
0.00030778420714476566 7.587773998098346e-5 0.0
0.00037194989656377813 -0.00025768140074808457 0.0
0.0009581461046720536 0.00012819440929323384 0.0
0.0027713396587371675 -0.00025987500838163985 0.0
0.00016249969192634348 2.317807122326239e-5 0.0
0.0016591408118924367 -0.00013887882645717436 0.0
0.002490404137103781 -0.00017026081237794143 0.0
0.001995247559379443 -0.0002529899009531352 0.0
0.0031256509824878352 -2.8424641377022477e-5 0.0
7.468213989610238e-5 -3.3503620730151505e-5 0.0
0.0029366949426140377 -1.6481288548785696e-5 0.0
0.0031361542134386673 -2.8302037550073474e-5 0.0
0.0015215029268279686 -0.0006795888065493992 0.0
0.0018061281345860445 -0.0002634056153309583 0.0
0.001078882049964057 0.0001829953613945944 0.0
0.0007459171528057266 -0.0003100681081202491 0.0
0.0009864249573014454 -0.00017978750245921398 0.0
0.001296619063591501 -0.00014900113517055835 0.0
0.0006359506641687339 8.014296233073405e-5 0.0
0.001143814128263381 -0.0004677385571678823 0.0
0.0005711358631472288 -9.091965911615406e-5 0.0
0.0003883164056491861 8.246550957587431e-5 0.0
0.0014681207418523144 -0.00023802063009337852 0.0
0.002237765633476155 -0.00038942684856434987 0.0
0.002661997884673433 -0.00024041648773938523 0.0
0.0010632427686691438 -3.56519591913636e-5 0.0
0.0007319147580092445 0.00014918144994683955 0.0
0.0017211964968106978 5.919294051447224e-5 0.0
0.0009159647016368272 -0.0001239262737197294 0.0
0.0025247539710368553 -0.0002510604524350622 0.0
0.0009151410435987877 0.0001845809594382853 0.0
0.0008257974717849213 0.00017878445794718828 0.0
0.0017299001937270322 -0.0003802175566656646 0.0
0.001772300754734694 9.575935204891698e-5 0.0
0.0012344636147970565 -0.0006688030218103303 0.0
0.0023491162506737336 -0.0005757321009496831 0.0
0.0008466570860461199 -0.00029111564762333755 0.0
0.0021843019430233643 -0.0006389915606555775 0.0
0.000682753181115607 -0.00011747797352903363 0.0
0.0025692453531790693 -0.0002439257783897709 0.0
0.0012049634056352267 -0.00039028949089936623 0.0
0.0027388483288279726 -0.00015042703188919624 0.0
0.0007479788779308432 -0.0002909294501980292 0.0
0.0013021959791784804 0.00015513150170222938 0.0
0.001127950778270601 -7.072413286187211e-5 0.0
0.001404568015827673 -0.0005150401832657533 0.0
0.001496428044420193 -0.0001781256520154616 0.0
0.0014563168197721185 -7.907185197504141e-5 0.0
0.0008681171683099948 -0.0004006383671990138 0.0
0.0008787646432073986 -0.0004277209805212844 0.0
0.0005683779190446247 -0.00020211271355048316 0.0
0.0008341130416268697 0.0002371366423518623 0.0
0.001455246255973264 -0.0005942963049265444 0.0
0.0027735778391768003 5.800182208924335e-5 0.0
0.0024646545404340505 -0.00031884109461593335 0.0
0.0017348130868398523 1.8912512266503974e-5 0.0
0.0008099424167370134 -0.00029215353185580014 0.0
0.002174111276754661 -0.0002324694512647677 0.0
0.0018167896166101914 -0.000516030818301062 0.0
0.0012029531545115048 -0.00036803111722065197 0.0
0.0029547017390146113 -8.316159871345055e-5 0.0
0.0031061185353944113 -5.162660436252153e-5 0.0
0.0010906798263194094 -0.00020358427381754663 0.0
0.0020744599249866544 -0.0006398381314608207 0.0
0.0028359228337876616 -0.000286559397720933 0.0
0.00014305619619320024 -3.6403764656533855e-5 0.0
0.0007523256561990664 -0.00019451630653431406 0.0
0.0008866199334237081 -0.0002903588893510623 0.0
0.0028927615717034114 -0.00024677320848870475 0.0
0.0011383246631503753 -0.0004419870910558794 0.0
0.001989427520124095 9.191507847320217e-5 0.0
0.00031042800965413124 -0.00026182272710093105 0.0
0.001823670707767261 -0.0003114577068207813 0.0
0.002655941607268218 -0.00021431602162332467 0.0
0.002108685841261744 -0.00037579537088905065 0.0
0.003006191520185097 -7.975070755042964e-5 0.0
0.0021199248179585065 -0.0005789650037290047 0.0
5.460276223338995e-5 -2.952531460938151e-6 0.0
0.0013972172279990479 -0.00022999690433776773 0.0
5.7452706200820564e-5 -3.397283803868191e-5 0.0
0.0010081544992014415 8.258058344890011e-5 0.0
0.000664667866986881 -2.6331957636277845e-5 0.0
4.9639797260184944e-5 -4.415775736054878e-5 0.0
0.0008111156372553523 -0.0005502821583343709 0.0
0.0007508616764113314 -0.0005027276631382655 0.0
0.001351909072102662 -8.98191197804739e-5 0.0
0.001365787327617062 1.3906336297231296e-6 0.0
0.0005518763025929871 -0.0004099041629799189 0.0
0.0009680979955801658 -0.00012086658909405036 0.0
0.0018653016489433654 -0.0002018860462669436 0.0
0.0005570672012125094 -0.00025837829346358153 0.0
0.002070899289284707 0.00011843100482592038 0.0
0.001861874109168578 -0.0004987614480105967 0.0
0.00040770924779212446 -0.0001086646262232459 0.0
0.0002411425692624563 -0.0001865861511972658 0.0
0.0016197463583073233 -0.0001219214532559972 0.0
0.00011363190250742049 -0.00010456795004009635 0.0
0.0030462896350566472 -2.6697436628071317e-5 0.0
0.0010842383734572208 4.346204960382034e-5 0.0
0.0014782526729517791 -0.00022002326394526302 0.0
0.002730639237899214 -0.00029127824633736355 0.0
0.002997822757877967 -0.00018723548735537384 0.0
0.002503290481630311 -0.00014652691078874912 0.0
0.0014505564893046413 -0.000567428667763498 0.0
0.0018964100786131915 -0.00029450889063471205 0.0
0.002663172291921826 -0.00039357145925358834 0.0
0.0015866066912416468 -0.0007139004910299648 0.0
0.002620866738718319 -0.00021805253524835987 0.0
0.0021200395415641154 -0.00035127893935271124 0.0
0.001099517547571755 -0.0004234994701271984 0.0
0.0018843471917628202 0.0001047128133478296 0.0
0.001160206786454927 -0.00034909726118111415 0.0
0.000976594993595787 -0.0005522910683817419 0.0
0.0014560943601686837 -0.00018297908970142754 0.0
0.0024277360181182623 -0.0005086714056837834 0.0
0.0005627145568990013 -0.0001844913736916576 0.0
0.0004631062135801853 -0.0003623425632961657 0.0
0.0022839192652212422 6.638858611290353e-5 0.0
0.0007103368704648998 -0.0002127418693348695 0.0
0.0018289383316607503 0.00010964368264441645 0.0
0.001039472013353649 0.0003608297105358622 0.0
0.0023775029312043975 0.00011155112075061447 0.0
0.0027355915303754943 -0.00013555503366070168 0.0
0.001520491329813503 -3.986623154186451e-5 0.0
0.002442842122273246 -0.0001723488383774384 0.0
0.001906965180371746 -0.0005455590389210032 0.0
0.0020156344500224664 -0.00068623202015785 0.0
0.0009276529982780158 -0.0002879643450127338 0.0
0.0009909504529774708 0.00019369026604680888 0.0
0.0006166714126287734 -0.00018919818155995036 0.0
0.000690487597009819 -0.0005014539813200698 0.0
0.0013708519692313082 -0.000252991200622769 0.0
7.546402143284295e-5 -3.072210935889105e-5 0.0
0.0005322450000644943 -0.00037547446675230894 0.0
0.0015092621773757223 -0.00010359090999548778 0.0
0.00018762937842013697 -0.0001139945376739433 0.0
0.00018098471274762828 -3.72678995942572e-6 0.0
0.0016452242120054215 -0.0003435423392896503 0.0
0.001660725868382694 -0.00012698891221629284 0.0
0.002957370468222558 -0.00020016125176008072 0.0
0.0012987882031600612 -0.00012193676687948336 0.0
0.002255614201131982 -0.0003626902242237551 0.0
0.0016773650973562347 -6.986127253163703e-5 0.0
0.0004387795848576215 7.959885988520855e-5 0.0
0.0005707173723156228 6.262134931830529e-5 0.0
0.003055133764151057 -5.683542706186544e-5 0.0
0.0019376454694202839 9.799694905648492e-5 0.0
0.00045959898544004524 -0.00019273258985978665 0.0
0.0019121374507092156 -0.0001311367851249677 0.0
0.0014589096940311756 -2.498556446042623e-5 0.0
0.0016434803579432622 -0.00017715080410008296 0.0
0.0005680268287027363 0.00014445365240527616 0.0
0.0016540858859950267 -0.0007187709449575201 0.0
0.0029013398643546007 -3.8547879877126435e-5 0.0
0.001620428725175041 -0.0002887899729405966 0.0
0.0016203101913927613 -8.787748498730743e-5 0.0
0.002056713503203637 -0.0002157090112170393 0.0
0.0014054684349402615 -8.52318387160328e-5 0.0
0.001629006927942353 -0.0002686419581821621 0.0
0.0007912785827305685 -0.0004309476202518293 0.0
0.0021677700449731743 -0.0003313555750494325 0.0
0.0012892371780720033 -0.00020550554714347113 0.0
0.0016178770014705474 -0.00011085299599388944 0.0
0.0025434789283467485 -0.0004915082060177175 0.0
0.0013782506279954238 -0.00017953664610160903 0.0
0.001929637244350553 -9.791176192444388e-5 0.0
0.0016854234702819281 -5.8647102077034775e-5 0.0
0.0002536006525434889 -0.0002224663864017884 0.0
0.00248050605303342 -0.00029620894591055963 0.0
0.001672288548773037 -9.989458512906365e-5 0.0
0.000925524921016711 -0.0005493832333801641 0.0
0.0018295796948032917 0.00010791115611074857 0.0
0.0022508050163395407 -0.0006208238306466428 0.0
0.0030695869043694014 4.226751506338443e-5 0.0
0.00015172847500782323 6.591142215713104e-5 0.0
0.0013363885866919147 -0.00026097088089046476 0.0
0.0017778902231727948 -0.0006899119679514318 0.0
0.0011238153838877393 -0.0006223249673536956 0.0
0.0012756937501964688 -0.000677504042689059 0.0
0.00024295639496063598 -9.65792717996001e-5 0.0
0.002297450937162976 -0.00034401932577689996 0.0
0.0009324038807062093 -0.0002685840062300603 0.0
0.001330854076722695 -0.00018594758156093765 0.0
0.0010659473773803193 -5.4328696381439945e-5 0.0
0.0013201664852054453 -0.0006641700251097885 0.0
0.0022702972432780987 0.0001272851862983044 0.0
0.0029279873951099317 6.027563103002267e-5 0.0
0.0019075923686992541 -0.0005218674365886812 0.0
0.0016141108425160799 -0.0003106885844906545 0.0
0.0010351216696567742 -0.00041725867404033575 0.0
0.0017231728374021065 -0.0007204367076032362 0.0
0.00239923540523883 -0.00028994379193206525 0.0
0.0002151466572742541 -0.00011492734783159845 0.0
0.002855732708194256 -8.15269055402565e-5 0.0
0.001391296505481424 -0.0006730737766285173 0.0
0.0014240940751745817 -0.0006064766181361203 0.0
0.0021573667794902267 -0.000550644371074938 0.0
0.0031513611867813253 -4.0707265291924925e-5 0.0
0.0011889350476328596 -0.0006385182171858182 0.0
0.0010058571623106044 -3.744624670098278e-5 0.0
0.0010519118992623647 -0.00020842205586365516 0.0
0.0020422896647668614 -0.0002394990444387271 0.0
0.003063662861208241 -2.8734476233242267e-5 0.0
0.0002620864884173466 -0.00019476466372954357 0.0
0.0016354792427037712 -0.00025105901271181715 0.0
0.0028113693619721434 -0.00026863722346376904 0.0
0.003054011384114783 4.913406965618057e-6 0.0
0.0008900770220058444 -0.00017083027747854547 0.0
0.0014237893773162064 -0.0006801132801413535 0.0
0.0029665371212403433 -7.228322407939017e-5 0.0
0.0005499424547041235 -0.0003533234037675815 0.0
0.0031094999808024193 -1.955358675388306e-5 0.0
0.0010036637775955903 -0.0006185221883154141 0.0
0.002179234871290229 -0.0003071748842681655 0.0
0.0005994813346528517 5.8093618961096675e-6 0.0
0.0019788396838946536 -0.00010024867554818107 0.0
0.00307504731530117 -0.00010660914641899033 0.0
0.002445726381130787 -0.00026828018099226797 0.0
0.0008828611065990594 -0.0005560887658810763 0.0
0.0006317563481679448 -0.00047482474801817354 0.0
0.000789688087717836 -0.00039395175834157044 0.0
0.0026085964825399953 -0.00042525566375659546 0.0
0.0023974023556486445 -0.00017546463330262986 0.0
0.0004983551020534129 -0.00020030932119012525 0.0
0.001264798672440635 -0.0002504389153298252 0.0
0.002037386000505199 -0.00026350674212020025 0.0
0.0012198781690905564 -0.000291411715997849 0.0
0.002996428064063534 2.717572043712369e-5 0.0
0.0021858423133609304 -0.0001431743244853164 0.0
0.0012837385848262148 -0.0001921696353250486 0.0
0.0005109097364426364 -0.00017947206429388545 0.0
0.002325386526872378 -0.00030750382632368053 0.0
0.001935255931853327 -0.0006441562258529207 0.0
0.002733241770020004 -0.00035703561590408957 0.0
0.0010723668875741652 -0.0006105820656838581 0.0
0.0020251682058193875 9.103124863585109e-5 0.0
0.0011632286107890074 -0.00032751997151373813 0.0
0.0018437071438850668 -0.0006867431047694089 0.0
0.002705831155340866 -0.00029114140601370976 0.0
0.0023821451859483652 -4.347981967915032e-5 0.0
0.0029972045164801922 7.864997915122803e-7 0.0
0.0007412554869087562 0.00015950864229036777 0.0
0.0029131899419266565 -9.1757454398718e-6 0.0
0.0010207906835388672 -0.0003843109740542625 0.0
0.002685054313774697 6.59800312175721e-5 0.0
0.0018734879757538805 -2.3507871621049568e-5 0.0
0.002202997104904121 -0.00010095697061771458 0.0
0.0009594656082505805 -0.0002433173004038778 0.0
0.0022358903503402645 -0.0001713905833617915 0.0
0.001491938973312718 -0.000685307179496036 0.0
0.0008264731054249071 -0.0005208490531779596 0.0
0.0016973679129529276 -0.00013205348885758625 0.0
0.0023710229859245043 3.262851273349092e-5 0.0
0.0013998077672105421 -0.0006376664727575105 0.0
5.413830917109232e-5 -2.956268527450813e-5 0.0
0.003079637890385446 -3.5731511468999566e-5 0.0
0.002678082127848514 -8.77884260610273e-5 0.0
0.0013097076091342034 1.7995656492056066e-5 0.0
0.0031224110495042543 -4.629438041848174e-5 0.0
0.00088031153561264 0.00013099763409535684 0.0
0.0014628436492382453 -9.747151906202108e-6 0.0
0.003174861232875637 -2.682485555268525e-5 0.0
2.2846327005584924e-5 -2.4200647040618156e-5 0.0
8.05716462974296e-5 -5.437625179991558e-5 0.0
0.0009131297193326313 -0.00010744984476780056 0.0
0.0019263495660876758 -0.00030265319525651154 0.0
0.002202316124381566 7.343013598542266e-5 0.0
0.0024324997450757015 -0.00047806477946977187 0.0
0.00309011367048376 -4.2830981138454107e-5 0.0
0.00023884187970779733 -0.00013173321357254198 0.0
0.0006649602463368805 1.2557491895015165e-5 0.0
0.00194811346173208 -0.000612636075747201 0.0
0.002771164536588512 -8.749299143123097e-5 0.0
0.0008144584333621493 -0.0003932446248795093 0.0
0.00018252911958714494 3.056050495032897e-5 0.0
0.0019575851307950835 -0.00013804902222805756 0.0
0.0009557862813263093 -4.151129138815271e-5 0.0
0.0023214332951283305 0.00011243062336683662 0.0
0.0014753952587991549 -0.00010124527782863795 0.0
0.0012092498039128962 -0.0003079387476494326 0.0
0.002812951865860834 6.0950800283540125e-5 0.0
0.0028621385704565984 -0.0002742243025622386 0.0
0.0023373291854176474 -0.0005551526963430041 0.0
0.0007156839571770494 -0.00019733365066640832 0.0
0.0029361945656986395 -7.071289208614437e-5 0.0
0.0004895392913009013 -0.00023585711710850826 0.0
0.002966425026544405 -3.2714115157604344e-5 0.0
0.0026342912595392763 -0.00041649781180985544 0.0
0.0018978205092996898 6.801414671029297e-5 0.0
0.00217261921708252 -0.0006189958608734971 0.0
0.002291837681428809 8.94136001766845e-5 0.0
0.001456849214205698 -0.0001534649017615463 0.0
0.0008178908491708256 -0.0004941201154872659 0.0
0.0011595695791743728 0.00017349665640737212 0.0
7.350502425330749e-5 -4.1299401029198013e-7 0.0
0.003050306749396657 -4.277940560790323e-5 0.0
0.0003344226710255785 -0.00028304482160870683 0.0
0.00233416596721116 7.90237458155868e-5 0.0
0.0005764027753835715 -0.0004261983193167764 0.0
0.002183687454360659 -0.0002877480386355913 0.0
0.0006536446993661847 4.477108706729554e-5 0.0
0.0002797465193062834 -0.0001431139260776762 0.0
0.00040690698260610836 -0.00034910087450736976 0.0
0.0003649381575480459 -0.0002397682591105186 0.0
0.0010058774845293876 0.0002210328715735692 0.0
0.002484822474936772 1.074985837651011e-5 0.0
4.241738677300596e-5 -3.462897868720912e-5 0.0
0.002658087821829621 -7.773728617911553e-5 0.0
0.002413565553351686 9.261085363581906e-5 0.0
0.001975046512884197 -0.00028802743031456 0.0
0.0014757089452439012 -0.0001226246593785356 0.0
0.0008381567609011339 -8.112708614778321e-5 0.0
0.0015080238208155523 -0.00016546621418474052 0.0
0.0019919939466975563 -0.0005578402193296592 0.0
0.0009688998423042738 -0.0002692478710686772 0.0
0.0007310844643849592 -0.000501383676944658 0.0
0.002703040295037964 -0.00021743689063281812 0.0
0.0020585487748028763 0.00012534767418055296 0.0
0.0003353624959682 6.657067571004988e-5 0.0
0.0009494973497706824 8.209603405128666e-5 0.0
0.002126400475308777 -0.0002167809225474321 0.0
0.0019804666484687056 -0.000666649515918409 0.0
0.0012604387534415457 -0.0002667267789836377 0.0
0.0025088639986034418 -0.00048249358203675486 0.0
0.0002004783897590363 -0.00018195781102624647 0.0
0.002191556537286563 -0.0005267288046514119 0.0
0.0010626117445612724 -1.689097677713039e-5 0.0
0.002982614332801939 -0.0001838524939793098 0.0
0.001026375756269469 5.90983782350937e-5 0.0
0.001946109609622551 -7.196130886234305e-5 0.0
0.0016586410366066743 -0.0003298071567894467 0.0
0.001468497272058219 4.122574244727949e-6 0.0
0.001731417814095988 -5.147488357724214e-5 0.0
0.0019130779705981073 -0.0006747623658482441 0.0
0.0024529289221968367 -0.0005018526469396476 0.0
0.0007829518820274187 -0.0002953793084250225 0.0
0.0017821271514555082 8.15118720659941e-5 0.0
0.0017373219530320203 3.346046927524216e-5 0.0
0.00244590214379037 -0.00044162163869654905 0.0
0.0014640167262704375 -0.00014104674994499505 0.0
0.0014281862065239806 6.188014101213972e-5 0.0
0.0008120987901917707 -0.00046930323634589036 0.0
0.002961986106599937 -0.00018092302691829817 0.0
0.0020618423839808054 -0.0006758141378956868 0.0
0.0014028216495314625 -0.0006192365616082341 0.0
0.0030807723683034405 1.3878568567613184e-5 0.0
0.0013826836957072685 -0.0005499397127596528 0.0
0.0023550708272213586 6.604264587055723e-5 0.0
0.0008390119788959575 -0.0001561215269387206 0.0
0.002071790618070141 5.6891867598275505e-5 0.0
0.0006108039972691422 -1.278167975051787e-5 0.0
0.001333197641052118 -6.99390644112149e-5 0.0
0.000959443128894406 0.0002915050244801066 0.0
0.0031349856190417682 -2.68832244901027e-5 0.0
0.0019210279703115766 -0.0005024216584520757 0.0
SCALARS damage float 1
LOOKUP_TABLE damage
0.44144438113769385
0.1963301005660536
0.6154785746784139
0.18724422154507328
0.974355930241681
0.9886978176278667
0.06884562355280947
0.632552409756019
0.6293869523723242
0.6397971736870471
0.6682630224547818
0.6907587411772023
0.7196252512640948
0.7478788103507675
0.7638618058374518
0.7736053309078494
0.7679801253777377
0.7592913885170245
0.7436155604398876
0.7236041526657518
0.7043826416712023
0.6932065354266725
0.6735487619850696
0.6537122027036463
0.6401475711516202
0.6227292023145806
0.5982099488775101
0.5753808212040462
0.5427700264333398
0.5087488975486413
0.46134796772898107
0.4036488670040662
0.1737165503122059
0.2945122672907648
0.3167115278281318
0.35121472409656346
0.37374282450355606
0.3898909451130905
0.40786148855063703
0.4199812816168266
0.4325011188342087
0.4448550014505866
0.4543140220187011
0.4648812322796623
0.47610357723202096
0.4832918477698482
0.48936525410917603
0.49882937276580985
0.5090637471144829
0.5211809372078703
0.527962106559198
0.536891112530664
0.5451597288079859
0.5574920271133487
0.5608960030230787
0.5747184515385467
0.5800079773678165
0.5920373706378694
0.5998744791014603
0.6139912139742539
0.6169406779056416
0.6314271954106985
0.6401440704789069
0.6524813986007582
0.6608515368668171
0.6712016772070681
0.6756551228427726
0.6833801195068145
0.6956508082628274
0.7048691538159311
0.7244269140851238
0.7353327022250842
0.7454369633466916
0.7680661897137562
0.7788828032704996
0.7935049503708428
0.8114609698561579
0.8193571789540333
0.8390904043761954
0.8488928957185174
0.862680482476105
0.8771468445298467
0.8868627841620926
0.889504043497281
0.9094424074806373
0.917455226159793
0.9422031313652289
0.943353738593324
0.9626132766043943
0.9694490343860693
0.9719757807971842
0.9723164914047989
0.9672292527410653
0.9596603824135733
0.9505094131968801
0.9388490143139683
0.9282770916226246
0.9158997163830698
0.8903813075663077
0.870550125373887
0.853784232637561
0.8439032680393752
0.822774303018044
0.8169245545934926
0.7975738071144488
0.7824470163137441
0.7714936237569374
0.7515734984753631
0.7446805874123326
0.7312278700235804
0.7183679262584032
0.7010247863290119
0.7028622250486994
0.6804482742124596
0.6740061369590999
0.6574351920705873
0.6464019742762529
0.6365109481728418
0.6198049693599951
0.6078549373021309
0.5988113216441407
0.5841338312328681
0.5657856925235814
0.5458401511081162
0.5329646696976205
0.5151002859275039
0.49830966709966257
0.45526247797060837
0.4197245454490517
0.40490187971346775
0.27060292604215175
0.3581441720619054
0.44820555878674406
0.5418487505636219
0.5852989983766358
0.6080066643270632
0.6218119354370958
0.6310950096194893
0.6370952158030727
0.641774844941972
0.6497863614199464
0.6554426206170211
0.6609159509901692
0.6662498769291615
0.6709944227651373
0.6727594889929475
0.671324318640882
0.6666407635783297
0.6629243478126119
0.6518903388006392
0.6485580211791673
0.644107478634959
0.6418747124111056
0.6548059332320126
0.6795173317280506
0.7546348325508686
0.6801093024036973
0.9374509775837568
1.0055234570642095
0.9924483507156854
0.9885860523150425
0.9734399633024722
0.8813743823801213
0.79474439383216
0.7004462266165917
0.619527843545139
0.5346846186762476
0.4732763771927612
0.39898289173997126
0.3227265197777251
0.24626218598250077
0.2080877790929337
0.03257966937051325
0.11940686392747114
0.2046549421555766
0.29604826591961253
0.3908949982349321
0.49914141548143875
0.6043805676184745
0.7205764821623802
0.8364932431822999
0.935465116337047
1.0040769932332085
0.9938682340583749
1.0008575896107639
0.9674864246927151
0.8644617224226339
0.6477873695251453
0.6240230441365836
0.8462734761238334
0.6971255807352982
0.9435619576907667
0.7846998514354079
0.9468903296458183
0.868013039930524
0.7638545305361784
0.5683028572214918
0.7052091636353742
0.5229819278013123
0.7181111639977104
0.6676947662893052
0.4984014772250585
0.5113267224783647
0.08658757429976169
0.35093507710856164
0.6431663419121877
0.4806754843806651
0.6584583081445274
0.6496051191101055
0.6540981264876591
0.7555958431290998
0.5912225750621009
0.4344042656288547
0.7190745396102772
0.6078027363321234
0.6112882533957641
0.6238932111690372
0.7370773867360008
0.8304148496615505
0.9661198121415145
0.8947548266859194
0.909473379728424
0.800534796516302
0.6694806253905172
0.5950305206174985
0.5361969371656577
0.3930931521172324
0.6348718269181735
0.7280942255885472
0.5837352584209146
0.5271133267474916
0.8526965558028003
0.8348337266914716
0.6468240886256588
0.6536179847843343
0.6906134294958258
0.6639394682955032
0.4321946585833619
0.2088009374217529
0.3304253628847668
0.46327106137146734
0.8701778314779983
0.9233418671718101
0.7126009193595396
0.6447619211620584
0.9648751524552949
0.7376239481325605
0.5503410619460112
0.6797838015477304
0.5036126829468771
0.457807870661105
0.6149487604701752
0.8380081920442184
0.8860492721941438
0.505339622764777
0.44686449551346635
0.9890594644569863
0.9783292795948612
0.5846971344194023
0.7123107700918246
0.27369041360333807
0.398786908419524
0.9839197757058096
0.8666145309259412
0.7480119305615578
0.7514627198954321
0.8283921523262359
0.7228432749535355
0.6843011346968246
0.6598460601567253
0.636866860362067
0.616373807466103
0.6290245252414719
0.5992787051029604
0.6074720734549124
0.5880298034727153
0.5968552406723185
0.5911800055427693
0.49555594041377243
0.2402392123980008
0.43383635415130345
0.28091047341264336
0.42559865229000987
0.3366577791190019
0.4276383510696873
0.3751208445427486
0.437614924270762
0.39946834124751346
0.44258964543034895
0.42292573735951866
0.45848976171600875
0.43874869727417815
0.46747871074423475
0.4546178171134083
0.4771955930429251
0.46425687596654597
0.4832760613856948
0.474978113295889
0.4904604566967898
0.48580088738844507
0.4977768897498783
0.49558768433388095
0.5077026794821395
0.506940876459354
0.5167853184788992
0.5150666112726823
0.5247014713458633
0.5216572070239991
0.5314435320022455
0.5324120418999353
0.540402165805747
0.5423945248346739
0.5489173994595242
0.5503916461412586
0.5571945089478881
0.5601046866495304
0.35640336759235514
0.566712522046787
0.45977552298412927
0.5281165485189944
0.5694220002754419
0.5763248979336979
0.5789919250825888
0.572143663497809
0.5817021490725958
0.5859647475322921
0.5831195138323922
0.5386318870190104
0.5931868787748089
0.5900314265948535
0.5996679464666196
0.5745508811066434
0.5843105949582631
0.5963075791735555
0.5773038105747558
0.586902878062161
0.6076459771979424
0.6045419851772695
0.5807205668295486
0.5902112069587392
0.6162156182570621
0.6134058131661031
0.5831753244677893
0.5918541789761227
0.6256498726944771
0.6229331066739122
0.5844372125169228
0.5936424461784274
0.6355123515509301
0.6328465568285225
0.585277291983163
0.5963555342508823
0.5866190029806564
0.5762946693325675
0.6382471321021698
0.6456913114000877
0.6423368190873844
0.628739182605111
0.5028328782886538
0.6392094094255205
0.6245446079182354
0.6352493028384563
0.5980910394399993
0.589417739740931
0.6044380889741479
0.6559419965203781
0.5980506101748069
0.5884816431554544
0.4889523719586696
0.5967828833840191
0.5876012864224595
0.5957141798940865
0.5861029118467898
0.5782700037599171
0.5759493940394332
0.5700317077853949
0.5942322309200491
0.5707995454891401
0.5630311408395015
0.6042780637948283
0.6021378919237769
0.5632655204461389
0.5568154579803377
0.6227461997549444
0.6328845748223506
0.6115398956707736
0.6077953822310774
0.6216094152980148
0.6329187093415177
0.6455045947385745
0.6438201728363669
0.6607602360173754
0.6564696972143326
0.6737844974957042
0.6677171829722784
0.6867018731075757
0.6531486981817977
0.6782617735999593
0.6998594718190652
0.6181712552699422
0.557895503033326
0.5522361131032459
0.7073511455680173
0.7218002534439685
0.7120898881282239
0.7331648709517287
0.6143900727917776
0.7354786853457135
0.7237552873690545
0.6249398098475255
0.6216255107355251
0.6115189388247422
0.7480727581522941
0.7356013054139059
0.6332161654504767
0.6373474630212876
0.6175351820219543
0.6067853726438002
0.7573287447721319
0.7453151687797479
0.7177504908063006
0.7693966261624796
0.7258418038099819
0.7023331455246757
0.5537257982841757
0.5505240328876779
0.5467776502782894
0.5496179918175208
0.540862646989109
0.5458894916100039
0.5358404344968376
0.6458010329127839
0.649571820196456
0.6122039406748397
0.6017237934658716
0.7516107660627439
0.5464540831817118
0.5341623191791047
0.6580090082438218
0.661932085025039
0.5981838880910016
0.7318857489758007
0.5124834035241703
0.7606409711764249
0.49731044591663776
0.6223605794530181
0.5489129740427724
0.536082479309013
0.6080376236640189
0.5981426475430404
0.6704539633929005
0.6751548003018871
0.757037401618204
0.5547979704541502
0.5564761290436667
0.5574480009821652
0.733929964510328
0.5582362799411881
0.5411968878584162
0.6658084320406237
0.6025468754525943
0.5924418626090587
0.6116343902621899
0.6161675594317343
0.6049232348450555
0.6136217676653521
0.6837305184803294
0.6881080748043251
0.5727580099621936
0.5667354462765366
0.5580353405050997
0.7597131753553653
0.7761447742337888
0.593165359757395
0.5781820015841475
0.7398010973101435
0.7138106118957463
0.6134183495650377
0.6136309684603323
0.6977625908331869
0.7016651907901476
0.6916486567317018
0.705520442361464
0.6948683716351666
0.7089105367604461
0.6975996728662953
0.7112814981805159
0.699190856714475
0.7127641303801884
0.7254269733869183
0.7271883968075907
0.7403938232373446
0.7420350936500753
0.755673984678186
0.7571868813529307
0.7002727552737811
0.7424343426352995
0.7577221486649621
0.7734340452407373
0.7740481105176571
0.5566237530186626
0.5570789030841304
0.5971337235984936
0.5875614102475031
0.7572029764744975
0.7733087418702332
0.7913347770424712
0.790310726616982
0.5591957034874692
0.5577201961852565
0.6031422774802436
0.6158293027323923
0.6065186994292111
0.7627508487663327
0.742905091023916
0.7122296015901165
0.520022617494067
0.6110366082164083
0.809435915883786
0.8077653092988759
0.7878772141152801
0.8054193951252943
0.5928866768571541
0.6239828006735069
0.6322644041648243
0.6021157749045625
0.5917103103741052
0.582158400359498
0.6143135927010973
0.825077711546252
0.8228931286752552
0.8011108016388485
0.8198280972921514
0.7965566923106505
0.8140540042495953
0.837708938991811
0.8312399812499708
0.6312420457794489
0.5607716284722426
0.5574054631440198
0.7084745221209398
0.765882029385615
0.747890122123189
0.8523014858252891
0.8486146400666333
0.6151696773014422
0.5873051078337238
0.576892190399912
0.5404843402550742
0.5868673472419583
0.7230516510128864
0.6385788210331946
0.5807413414263889
0.7686001760480138
0.7475244071067424
0.7164319838513872
0.6372020080620777
0.7773663432884886
0.5664657334466185
0.5931784512559722
0.6398148441231934
0.6312550135232488
0.7909486641023774
0.5800988395094758
0.570157141758611
0.562321784446406
0.5574369932847469
0.5928395520830934
0.8695500060901361
0.8624764121431255
0.5672485362105231
0.5613179252995525
0.8739327915878004
0.7179931930457435
0.5630625534923973
0.5546250539716794
0.6843970293582201
0.7174601602446385
0.6867085415393477
0.7474652694125538
0.8828230066450357
0.8752393432649076
0.774275581993401
0.7685555125616407
0.7330109030634117
0.855186195387635
0.8659049623368795
0.5645837641517761
0.5572604674863076
0.8832011090449517
0.8721423524427498
0.5557083648930433
0.5472079740687831
0.6594653479010274
0.655566755973678
0.5470422246634927
0.5400692474355193
0.5386605256058868
0.5317826016069302
0.7172809408067491
0.7446820127388286
0.6257149793209908
0.643651373854188
0.5958443548587562
0.7278184907510674
0.8859080542940693
0.8744604872404457
0.5997140436802374
0.8461942918221587
0.7532182364430198
0.5341038891969074
0.5265921625544258
0.524222298705483
0.5181393368186435
0.5216847148492954
0.513745413676201
0.5199132273974046
0.5122892774913579
0.5226739437359905
0.5148333806442725
0.5281776820405881
0.5035845137731398
0.5101069559471821
0.5656119488024083
0.5751591365371331
0.4896703303371486
0.4980172059790386
0.6068971006158121
0.5621727452141018
0.752771526509837
0.7473165590638001
0.5560698475718963
0.7426428770038472
0.7467872967634444
0.7624415321104423
0.7414173993226344
0.7171925935896537
0.7367296813483538
0.7471557376783811
0.6234924055672869
0.6521972940345981
0.7123897604063469
0.7209437968186442
0.7066606703656569
0.5141908458531673
0.6796687375766606
0.6837977268566963
0.5689462684568208
0.8855008765594652
0.8737240765790735
0.8637539615156071
0.8637501848609485
0.6182807996201951
0.6376750915038639
0.6531887045922947
0.8954417604226157
0.597874748808403
0.8705879568801647
0.8607746370509226
0.8519852454571892
0.8502155640807058
0.8413159754844339
0.840270192408129
0.8460592006626685
0.8362216525945454
0.48136520395180643
0.48586102250153396
0.5099532672717253
0.7551079267394025
0.7618279853701485
0.7138893304484488
0.6997526724710695
0.7315142406586549
0.7240183004430926
0.6080335649826847
0.6080096700269508
0.6596669108268807
0.6546560935384071
0.47767760163240275
0.613999576801294
0.593711208929535
0.7357601966623574
0.533235332479966
0.6115262606099741
0.839462347642888
0.8303327910575156
0.5970769645694747
0.590439316648251
0.6138938374901428
0.5535523610278597
0.5780625398774749
0.5899549175059968
0.5215298392935231
0.8660388607958878
0.6603607863952324
0.8094033558827833
0.6403165359726402
0.46798724753759874
0.4753779192312483
0.5654848166962751
0.7563923692211011
0.7351428113921084
0.7275517120548616
0.6011448087243643
0.5966411020586114
0.6063729542905447
0.6036697428422939
0.5974173955388664
0.6031099244780571
0.611093458936045
0.6087913182693246
0.6196415351605036
0.6203561353134165
0.6287765365708814
0.6285306593472191
0.638817598166376
0.636261617546419
0.6395536524284426
0.6445699991248289
0.6442327125894786
0.6004147475841931
0.5591396011509074
0.5578705283800439
0.5675684652153005
0.6525316253222626
0.6497643602529588
0.652856325666396
0.8281987141805733
0.8272330663843239
0.8459212695321678
0.844376118153099
0.8623823068870818
0.8602191105606051
0.8416877198546002
0.8565478185476701
0.8373199923046005
0.19456513990173863
0.8780988036438624
0.8801117784491448
0.5949108162131627
0.6872889403479933
0.6877665569762454
0.675317246933538
0.675031741296082
0.6631931265055354
0.6623821181709482
0.67395351615563
0.6608804320155942
0.6728171951320602
0.6580774397836834
0.6696933562740947
0.6478583252040407
0.6510206075372375
0.6521226500024242
0.6841467078548712
0.681370675018625
0.5600102164709112
0.5435695288073852
0.41140239753056485
0.7556844141821194
0.6802603537849017
0.6756402567356168
0.49340521254077635
0.5172517571967801
0.8403464270829056
0.6506786880062762
0.7152569881893848
0.7096112445619628
0.5560227668238619
0.7067009309925345
0.6926462449786165
0.4901273025623942
0.850165939727556
0.8304860547247485
0.6855777640558695
0.6797289756462289
0.6721103870700097
0.6673641373926033
0.674461774124731
0.6622612394685989
0.6701952420141029
0.65751462845052
0.5133699370710504
0.6513442851833349
0.7033105968630378
0.7126410865642727
0.5998859942733802
0.5846743937783596
0.6380335565604245
0.6229979344158467
0.7700816386743847
0.7753312196220048
0.8920151092579514
0.5276622590217578
0.6106984007810782
0.682032397015507
0.7268121364480092
0.8290021795008403
0.7009706894165556
0.8263756725859474
0.8200001722413255
0.8210097904613708
0.8104500970248197
0.5673403005959994
0.522318692644908
0.6553340154255798
0.6246983146951274
0.7524071330976286
0.570229738545099
0.577657695381155
0.9023433006652652
0.659853814604478
0.7317433082719874
0.7371107399734216
0.6939498721640746
0.6892278474800997
0.6959175423045695
0.5890950270244381
0.45175264925744474
0.4620779408846354
0.4917091407012389
0.6310037057574417
0.6408357188770496
0.6250547809697952
0.6560060127935992
0.6552664718917598
0.6533153950719228
0.6997429028035518
0.6244041876580938
0.6703464300972407
0.6646593243034336
0.6428379952626684
0.6436008659341894
0.6457661651981513
0.8165599883716145
0.6506403935267052
0.6449808972058089
0.6521089867550296
0.6401977132755801
0.812400069980622
0.8041064287254953
0.800682681569599
0.7917056753123158
0.7203091542474217
0.7139885090358818
0.8950177198792976
0.8962898109184254
0.6401244297591799
0.6416047909661233
0.7608110939957523
0.6454775977622207
0.633842058622784
0.7512908604004112
0.742631416460614
0.7581615512086135
0.7452726636352711
0.7864062534636054
0.44829078675646467
0.5335626738158874
0.5411150336100028
0.5967921611598858
0.6104025756622472
0.6002569546234792
0.6256170531431189
0.6143281659734362
0.6412121084048971
0.6305565046127877
0.7234386301863808
0.6331220329816141
0.8255343554891231
0.9054952494441104
0.9131439165225377
0.9147602510753137
0.8436115918104845
0.6851048529502924
0.7843414505532484
0.6787674931644304
0.6625206042831036
0.5828641784230966
0.6859607520158125
0.7408846728900516
0.7379274326276661
0.8692626870207812
0.8244296900920935
0.5580417165465462
0.6478267168566638
0.6510668036875652
0.6517876410847424
0.6486960935154931
0.7787332796881093
0.8429857699015136
0.7170249098784153
0.7203656912693199
0.6125150448714077
0.7501202966140706
0.8336919657411843
0.8246449438225889
0.6849857753667161
0.698303174941462
0.5805644084590347
0.5886666098024581
0.6591899936696415
0.6490795953720124
0.6192744075303154
0.6376740761628963
0.6677762435343564
0.6567027855473888
0.6849038181962895
0.6743283613700188
0.6986744766338837
0.43709417806254103
0.7225897352393125
0.44978319109880577
0.5624894657998575
0.6458215092338601
0.7004937088631537
0.6790478321858685
0.7427889313939691
0.6873387678236558
0.5128528843257188
0.5043016207906731
0.6580997150224013
0.8985970106528494
0.7132177051750781
0.7749550254776989
0.6601945401430944
0.6519680075247637
0.6412467983261169
0.6509443714251888
0.5360799052256406
0.6410310311874368
0.5822840182379833
0.9104449711219219
0.9113968267789709
0.8976503115853254
0.9127512011920939
0.8364336886190056
0.8150222879017204
0.6360584902190167
0.6436476599038253
0.7355207947798997
0.7603835492226927
0.5524268728468023
0.6394162158103265
0.627802606824346
0.5969539206564728
0.7927027161528541
0.7043828175487044
0.622565657496683
0.9265889081532098
0.9280991898474131
0.706110250769796
0.7091967116323604
0.6919409047950924
0.5807485032722532
0.538159359417167
0.41940686765152996
0.8964520932380621
0.6697390704553702
0.8371684776316389
0.5577103241496406
0.5807176899716985
0.5205187235562945
0.7849229477778074
0.5655706845571647
0.5585571119579813
0.5646215268573672
0.5582069328077592
0.5628949250738933
0.55273292169994
0.9238980341123938
0.9236301199181379
0.6722967528629306
0.8561014990994523
0.7689390667053422
0.7653621766796768
0.5902099737258029
0.6047694394757019
0.5859651873123459
0.6874198594040203
0.6690278154333726
0.6095768278242486
0.5985216355404251
0.5959459296648407
0.6009569020082535
0.5830706985867364
0.640149131735069
0.6979425837174464
0.741941573803934
0.673688474666357
0.9071045936669276
0.7079761776540487
0.6543019479728374
0.6348726964370967
0.5534944132060636
0.6314601215660849
0.6998428591805668
0.6956759813879596
0.5444699720534818
0.5028021305361446
0.4941727164968066
0.49759520878825103
0.5556892753679793
0.4339706399958781
0.4728553072232064
0.940669698185195
0.937756377728836
0.9229519790370245
0.8031023377514923
0.806516483313534
0.7720023058998724
0.5531630687775124
0.549092254590689
0.7091078382118989
0.6495005855402647
0.6478810857006692
0.6374178383269364
0.629788541860855
0.41572245166853616
0.5934702677465314
0.5794121832302501
0.5699607372542947
0.55523064713806
0.5528197498382701
0.5619041674606631
0.7241729138369629
0.6306734685511949
0.6285090850327875
0.4931727541311753
0.48368405306789525
0.5945825739106896
0.5989208117856724
0.607034342450386
0.6106380955320336
0.6069528455301938
0.8194613180599817
0.8074625473038115
0.8318729473561711
0.6574958083877566
0.6144224458075723
0.5951884208553302
0.7216903450373416
0.9338513161018281
0.6778121528994001
0.7785645538158156
0.5675304566109939
0.5525432346075126
0.5650997252726305
0.5563730426417096
0.5672589101532335
0.562982055383546
0.5733083390830821
0.5710816172264143
0.5813320702222752
0.5457711640431062
0.5618427322968961
0.919068830590284
0.6259923671965427
0.6649107227152975
0.6531473861219163
0.6974063390030997
0.6340818310125853
0.538845204124091
0.6902666526294948
0.6375627831834098
0.49075189228157906
0.5199653479130262
0.6108144661786987
0.667320414994193
0.6674700063188813
0.6501230014173361
0.6388297891517727
0.5311213223590799
0.3983031543331202
0.6150675022566651
0.5970529502233253
0.4178073238170355
0.8034299725840883
0.792994855958817
0.8043231682219951
0.7826245878988319
0.5709917301759329
0.6832209431805139
0.5446971328583063
0.6966969671398215
0.6798782118916442
0.6216943649120967
0.6064063551273499
0.7212977662271911
0.8472192472452595
0.8366801523257483
0.8453612371879281
0.8328211545515509
0.8391093202849906
0.8540524070024664
0.8761160963716639
0.9125755704238512
0.6246646222325246
0.8082104570944559
0.6435994991349578
0.591846546729234
0.5941610015655688
0.8266976331647684
0.8202334660820633
0.814264628501479
0.7295778415986015
0.749055402564422
0.761919941455925
0.7758633796472469
0.6250482664173828
0.746363542082598
0.8814728825577662
0.7974159265125832
0.7714091587145205
0.7576278574105512
0.7768081047659978
0.5939900230060116
0.6823534086652314
0.6764179166116764
0.688286391394743
0.6840146720192852
0.7944682457969116
0.5647902522454875
0.5459992908231461
0.6482377935990398
0.6751225832759776
0.6926277945161953
0.9318875111709795
0.940719990512183
0.7264969534746862
0.6195107449894564
0.5468550080683803
0.7929775277244729
0.7645199097438583
0.6553649172988251
0.6290096353355276
0.7698187164273763
0.8153693236085713
0.818462641868098
0.7465323997513792
0.7719152096017797
0.7140885288783653
0.9406576056778108
0.6424921924299212
0.6747223383879541
0.7088224497634533
0.7524196902036022
0.9217292374170012
0.606869272861427
0.6478828967706544
0.5494767050779878
0.6182940359296435
0.8402918975174004
0.5543166856639294
0.7656399040119709
0.8463768555441984
0.8485939942571032
0.8645068837545621
0.8249892207457088
0.6893822485154014
0.6014956328567537
0.771695349146376
0.6678183177352368
0.640207198362677
0.6356584864912551
0.6117099687733308
0.5856884425657845
0.5991255807946517
0.718706635476499
0.7056834721571233
0.7777590911121972
0.5382865020755205
0.5461240851297452
0.5421877143941476
0.7878148547654608
0.7270704809927352
0.7193585472570976
0.6547182971836155
0.650388896965867
0.6764879765108852
0.6819919687815011
0.6944763716618534
0.6636411916935048
0.6552669865646372
0.6491352286464016
0.6374101161351313
0.6511586864049983
0.632915134869767
0.772588804713892
0.6508322397591485
0.659944215059806
0.9484958664430729
0.7082725894088766
0.6954177882337909
0.686590177015225
0.6790593056239194
0.6907006762381168
0.6789895851220655
0.6787434429499558
0.5686235274153962
0.5674154933376058
0.5614090579908922
0.5653192980607138
0.5717042583301235
0.5676902487014492
0.57523211333732
0.6350103366683569
0.5721065302342828
0.578929267805469
0.6984882012620285
0.5768399417318135
0.5834017402227252
0.5606794297697034
0.7991360683553851
0.808930991710345
0.8194183371204651
0.8315503174511278
0.7083313540490049
0.5681858895435453
0.5441010452784597
0.4849767044096131
0.5109673445249359
0.5315415537593722
0.47016428198799515
0.48300333851452043
0.4125834321169871
0.439680307768434
0.3893991566972871
0.4258792890418972
0.39904358426031283
0.4278515296502305
0.41564934201566106
0.4367641908609961
0.43623090899588957
0.450209660982676
0.4533133896665935
0.46592617370101613
0.4714084331506485
0.4820572401137617
0.4887434247779299
0.4978313270955532
0.504678036241835
0.512753374874831
0.5054021951205354
0.5194364166937305
0.5218669388304379
0.4651476768239556
0.497492069408442
0.46358977944245433
0.5000676263383762
0.41882651641410734
0.5135614649089587
0.5260796737225549
0.533130260688573
0.538616730290735
0.45235634699006916
0.36958798885771776
0.5003164939126958
0.37997516999608916
0.5459473506270834
0.5502568570290409
0.5428898889596235
0.510010622310363
0.4995538964660586
0.5411589430082807
0.5539361501975226
0.5500062788070983
0.45878774379022214
0.3834220896412896
0.553677844669847
0.5474159128108704
0.5377383582615765
0.5420153422000877
0.9175868723005315
0.9021173762675517
0.635535959358174
0.8782222347904816
0.8962479094319782
0.6588510572992495
0.6705517404980328
0.5873813342836931
0.6989759769670609
0.5611682839154557
0.6156632132870181
0.6127199853169859
0.6169927503903256
0.6770919725802469
0.5742132122374587
0.6609991145735267
0.659709124498195
0.5833191221223794
0.5555115334545266
0.5867704784458022
0.5430345166344428
0.6201650979121464
0.5831385884734818
0.591443944167926
0.5895547578007821
0.6192620034337426
0.6285019068341604
0.6172583147924703
0.6259957995469577
0.6143150785512385
0.6233205660870852
0.6116685064799238
0.6202191647500083
0.6323115124930062
0.627605261678725
0.6757619903603705
0.664629918908136
0.667530957139679
0.653794570188591
0.5541097820645688
0.4833640840867462
0.47476903765897166
0.4748767329174944
0.46532561922049887
0.7113645931580351
0.7022964698941462
0.7221545268476757
0.6064784901465223
0.5627142342318405
0.5544865908603813
0.7092392432412419
0.6639143815771007
0.6317335226227824
0.6206084374889693
0.6259543436986944
0.6076309526338423
0.5808983382255674
0.5890566711504291
0.5611682860482209
0.5658463740456953
0.6007188561363849
0.7124242094175548
0.5655948958535091
0.5044333216944253
0.561260678921302
0.6356572451241917
0.6589590818750334
0.8058029818390778
0.8061301423767274
0.7921282925873968
0.7365111471324225
0.711785439443298
0.6044994764869722
0.3708933705354683
0.37099175873036055
0.5562544858295211
0.6997691707538282
0.7261582583720144
0.8109758949606017
0.8228296703684952
0.6932379651287178
0.7284557926366341
0.7395222842080951
0.7555577145159561
0.73873031215821
0.7407300090689106
0.6559919843657533
0.6673638300224365
0.6753379309342648
0.6655796575410904
0.5501585251249775
0.6682597165631988
0.6676913012193906
0.8805944585399164
0.4632931588449598
0.4519270747324578
0.4589078988418654
0.4454447490335851
0.6166672150427389
0.6443529987451643
0.6488137894752368
0.758412654583052
0.6212901594079223
0.7319446287022315
0.7157983309521596
0.7089136136926414
0.6895186220540532
0.6891381550539675
0.7052863370973838
0.682599742074195
0.8427826654053265
0.8391269490356107
0.8182105277336943
0.5636508496715896
0.5688725271198469
0.540191339511138
0.54307828151356
0.6891312995841051
0.676916583261308
0.5831532826148577
0.7138460516203983
0.6584708514370933
0.6444522095326521
0.6138121337363432
0.6260326157065041
0.7799211210545921
0.5382829006645442
0.5386376232723626
0.8145515599930528
0.90442508229229
0.553074363448155
0.5468636238455947
0.5864123628666333
0.8107811025366733
0.788424662476326
0.7879275123625515
0.6910632398094034
0.7997919869484221
0.629432870776019
0.543739337127861
0.6498319889885039
0.6921878328408269
0.6754966600683955
0.5468414529964789
0.5727759113014628
0.7912388495930314
0.785345844558713
0.3919900216271862
0.9460066896730116
0.9528389180014256
0.7389977628313842
0.7482288436814579
0.7454976239182628
0.7585060932329516
0.7512165057166238
0.4878780649012535
0.49052700802079746
0.5851233760240238
0.7205856212017567
0.6446010874239777
0.754460970949923
0.7986666080550716
0.8065519565074283
0.43961782270394517
0.4294690088333652
0.6418670154836188
0.5406420716897046
0.5358550458680906
0.7658454047305244
0.6378390759220095
0.6062873188204466
0.581051582751923
0.9403706438648857
0.9514728682980201
0.5874721402969697
0.5829296681731209
0.7535830802365437
0.7625967167030614
0.6082076990922817
0.6003535502526804
0.3394759139572392
0.9542801098405429
0.6052618603594697
0.5132143938897092
0.5204242456074701
0.5679768987824195
0.59355851803773
0.557094034635492
0.5459098675365572
0.5532706663759895
0.5433330034565573
0.5501151307659551
0.5392451786094646
0.532304970562602
0.5272094249797027
0.518804699584952
0.5159057078320723
0.54799749176939
0.7192998085149066
0.6021319752773995
0.612278755731695
0.44306065940731904
0.3113291099333844
0.3028763747117377
0.40083787774615426
0.3576808715986231
0.32353024968278565
0.29428573371358807
0.2814393704474215
0.5555927711578242
0.5388621738097423
0.6382856214831599
0.61588805022968
0.6166961673481689
0.8315776720429578
0.8465190066934203
0.6089270359247868
0.6131507990664693
0.6032155281864569
0.5221263089133124
0.24339127423915283
0.5239172211134097
0.5114706175375853
0.5025562824580684
0.499781931771809
0.4886130567450388
0.6238155613739621
0.6354023796042005
0.3140092954491583
0.7861510269234939
0.774133103765734
0.6989136156961998
0.5916448779530621
0.5189121679554731
0.5077364591792919
0.5867443954268015
0.6512353843702456
0.7535285728201196
0.733914791837346
0.613037148600984
0.7661871382910438
0.7744245058096549
0.7859026008353659
0.7951622749330195
0.6129876579496829
0.6393777207875113
0.6183555860850274
0.6012176671719602
0.6409428154833078
0.6309815333297938
0.8016078504100993
0.5524773082160263
0.46143640879062575
0.39322396913116336
0.40238654569146504
0.42695180950360473
0.42175353932459786
0.4427247921091675
0.3965351121368611
0.4516250848564078
0.4621357841244578
0.42110284359145556
0.6785651460080853
0.46829828570139037
0.662618360546931
0.5659363865270296
0.7890030887591999
0.794641632049723
0.3749508680980645
0.3674587448473281
0.6627214210302796
0.8673223234688938
0.8736434591475728
0.8733033444867195
0.8827490987138376
0.8821234063004505
0.8948738147287968
0.6330748816751876
0.6432658464602556
0.6489135861584584
0.6502412292478968
0.653498086938827
0.64978821578048
0.6551903595755414
0.6467845592187307
0.6433230870070578
0.6589847234660159
0.6414173047012671
0.663995689900031
0.6589545166862828
0.668258629757642
0.648067677841376
0.638927372482412
0.669900827631872
0.6485684094632461
0.6620529833404584
0.5249603387536911
0.45621010789636673
0.5351385655172203
0.39447815108785383
0.40227230974052136
0.7949457470359641
0.6767807438965805
0.5406536004048537
0.5264991328313597
0.5262036899227471
0.5286395489947401
0.5414434841346981
0.5344096648971479
0.5412031383088741
0.5326535708360243
0.43344190946837097
0.64243620497888
0.6149785236413153
0.633873664670377
0.6911007886639066
0.6705951770389124
0.7028280228254615
0.6030306282097533
0.4647388537076945
0.4674619020098658
0.4808577748491443
0.49013748547814173
0.5024069548460974
0.48134008608263507
0.7362212822125882
0.5562701591863881
0.5541267743163675
0.33271334808083264
0.7043682447876299
0.8890394825023564
0.5961292813380319
0.548785663399729
0.6490292330289776
0.6411275453278081
0.8574346041132457
0.6654501662878551
0.6523174676978001
0.6540942990551281
0.6465144558214375
0.6487252235562809
0.6396699550319651
0.636592842438226
0.6435952865460387
0.6409602703074552
0.6413429613122279
0.6363944413236865
0.6561722806692087
0.6295253763480548
0.7117337932704724
0.8261786817491216
0.5857068672860091
0.6137334064381211
0.5679529251675003
0.615903589998403
0.5238888820973848
0.5044977762451675
0.5201568461890386
0.49990322606967724
0.4809277527767917
0.4787730651851548
0.4951725349186815
0.542192447838217
0.5892725389584362
0.5165512934494234
0.7172936401211409
0.6487217749311236
0.7496759994784481
0.49516183898309013
0.7774800548897164
0.7004136022221117
0.7076647019418336
0.5085285003217714
0.5926861815025461
0.6123690859993524
0.6017931779534726
0.59327138856756
0.573579495514239
0.4850095551176718
0.9240788647169199
0.8659117537274974
0.9302741740667292
0.4308464181245661
0.7172281156424771
0.735146955065799
0.7758015856153557
0.8535384066411033
0.5774388135224816
0.6069878009702165
0.6954857189541058
0.5127395684592766
0.5195194983998207
0.5139004975907012
0.5566480217892977
0.5529143309226746
0.5830987399035826
0.5268327225876316
0.5361752728905887
0.6835032169583901
0.7029884231929038
0.5987712350243604
0.6284704536699357
0.5354312094531617
0.7045090297309591
0.6702262211579264
0.7639769959178716
0.5852063566102345
0.421188697754853
0.6815210367345838
0.48861155400126793
0.7722837485135887
0.6638383508816087
0.624123562076658
0.631140038308135
0.618716462081093
0.6068105633731313
0.5603543628873062
0.5094608184894177
0.5400836108275741
0.5780526919789395
0.5753064612421284
0.6335537142162837
0.9137359921116953
0.8965153602354736
0.9019224816839961
0.8894883846512263
0.8785300595510845
0.8736072578714462
0.8855612560547085
0.8152132978041923
0.6045182654110601
0.575574727768669
0.5804715343942267
0.6794664287103406
0.7673748269146392
0.6412093906647343
0.6674441629648485
0.6684819611847258
0.6592222986039071
0.6585888950268215
0.6941804703509379
0.6183712906948754
0.5428831305314984
0.5230304171875045
0.6668176834767942
0.6551222449319221
0.5569036306921715
0.593054680304071
0.585370417182777
0.5745759113917376
0.5751031192666048
0.46672170074713526
0.27402958391707344
0.9298768069370031
0.9248512996217438
0.912432936390093
0.9357069826691763
0.6378782826638166
0.8452176705295473
0.3977063853139399
0.44229851391445174
0.6069810342681837
0.5973013868144348
0.6101409415487783
0.5665969737419442
0.5567519958087164
0.5023293605909729
0.6038034040690115
0.7139157223393129
0.9489401573752951
0.5580406732825908
0.5549397125811658
0.690230467699652
0.8548352051858193
0.7312480700162765
0.7425174295376177
0.6996914964238896
0.590630550056903
0.5821195460657742
0.5729263389229876
0.5752786413007872
0.5751701040430169
0.5824916836974718
0.554935267198891
0.9246643444140642
0.8918531203544998
0.8964450918588107
0.909727838721122
0.9143576392143026
0.9237854629469112
0.9011574081810827
0.9055596028305516
0.4970634541259833
0.5628374197413656
0.7666798466910063
0.9500684276438957
0.6571914893575012
0.9255823115922502
0.9376046895273801
0.7906040592991906
0.6720544820476974
0.6602941949130146
0.6635622398450669
0.5478750402430039
0.6634596917739957
0.8078330101470483
0.622023927025457
0.6237309059295039
0.6327670882927128
0.6147891924100924
0.6292557382950119
0.6260418848798252
0.6180461678069777
0.608409558902218
0.6504558036510952
0.6393836021150862
0.6340922070404896
0.7689383412750641
0.7163375838089692
0.6262759725596411
0.5619418004224286
0.5314029999569354
0.6051496062707642
0.5745646339596177
0.5776716608770799
0.5867426894646712
0.8506168612993189
0.8680855331233162
0.8755300829682984
0.8630033036584923
0.8197604118267331
0.5580246948158104
0.7476443991705006
0.6867464509048417
0.8744232428570934
0.7182148441747593
0.6207817804355967
0.6450504965364676
0.5471803636099767
0.6801799137693878
0.6941268492817712
0.6519544961049903
0.7210791726683701
0.7575821613928321
0.7626221927087129
0.778994662166039
0.6319990171072511
0.7233298500106863
0.6268867769785508
0.580247899319665
0.590516047417721
0.5078699889143458
0.6227614924059127
0.9079865700501102
0.5453606563197891
0.7910722844231709
0.7894579322937436
0.8056527209905963
0.7864139400124719
0.801443909950642
0.8251908502948794
0.6317313538371426
0.6716187411270831
0.6690251992627309
0.727974814176636
0.6481929539508499
0.933920843303137
0.7161611753356553
0.7717174588210696
0.869342766023961
0.6392318540351241
0.6415946267074308
0.7274295634313914
0.570903717986079
0.1716798186056619
0.8817325473840371
0.613769422355928
0.6624366750146033
0.6743342306985001
0.6357782423602163
0.6466337101063051
0.6156835896926145
0.6321862120482734
0.7662986728937646
0.637995665810936
0.6635412540975829
0.71768413961637
0.6808408284822896
0.677273312344721
0.7358887228963549
0.8158354145727473
0.5738635069039818
0.7139448793717589
0.7006277449676308
0.6833207621396356
0.6623575734988391
0.6891300588971107
0.568001591897222
0.6475667490818393
0.5162683278903418
0.5631318050042539
0.5726855003254727
0.709048682289028
0.6724039577876021
0.6951527352721579
0.6871309310638485
0.7825688782226945
0.7635284694252108
0.5488595951462001
0.504675418398113
0.6164604476438936
0.7137836574690173
0.567005163003114
0.6896908843821902
0.8640148281839796
0.6464698369602289
0.6041478199696436
0.6155094339908527
0.6469043929324512
0.929612521418406
0.5393791241526801
0.6499385110803859
0.6716810680875986
0.6861392936709978
0.8594663494788692
0.8413496245729043
0.8272917546634094
0.6498450083818427
0.9600904992076946
0.9607207502681121
0.8144156755401031
0.8584253481168156
0.8884784474327968
0.9053159569070062
0.7047747895332157
0.6344428009010736
0.9667464057201284
0.7276124434566446
0.6031730872106791
0.6608170045172459
0.8253451678084506
0.8445293769930573
0.6413855887151668
0.7130137517824043
0.810096821109573
0.6045047915193602
0.5522356791926756
0.6624815312315916
0.6066148314564594
0.4544426064909838
0.6353608892163137
0.7475307034584183
0.4199232901086324
0.4140854509472369
0.7381253685394915
0.6784420437181277
0.7419893873045434
0.623381702751701
0.8912553322975254
0.5419847228069864
0.4828221609472946
0.5491464885906212
0.6860053025935224
0.7378098911243736
0.6314837823843396
0.2595927511177661
0.8957160412411913
0.8558638755317324
0.6283573832439511
0.7845719215093014
0.6636105538872892
0.7717805758968098
0.7952027720897469
0.765070130689924
0.5840201302671552
0.6348891775128584
0.9510496130659805
0.7294083850551545
0.7582147396329513
0.589564103507315
0.9316777822054286
0.7033427922572972
0.6310295865970672
0.6425368734914211
0.559449408912765
0.6411855732685137
0.5372732852462536
0.726553533298391
0.6610772013684189
0.5555420507074466
0.8528670462777345
0.5183138740218035
0.5120988123123767
0.9124598915733612
0.7714466811354354
0.8813061663489711
0.857370833167806
0.6526825384667616
0.3193203582831908
0.6510062673580381
0.7712743052261583
0.7725626210654774
0.48439845569438167
0.6554943616874199
0.7404952104560184
0.3886173219659683
0.8075787183410604
0.6268614010746951
0.5307388137539679
0.6161679343302601
0.44537809371742104
0.4735516755096828
0.6121119017375969
0.6990295567436293
0.5474174680225389
0.758026183718206
0.6434145359529928
0.7775137771412045
0.7495956529181586
0.6279228765659933
0.8411983031096895
0.7987036013807551
0.5825060081489792
0.5399498449119394
0.4974329498068578
0.5848351771512037
0.5180018006147951
0.7841330718455479
0.8610099313023802
0.3069946215580491
0.34904730670078205
0.37642268388455025
0.5548067007413138
0.4066174132038901
0.626325315369952
0.6909761821464402
0.6918066241710483
0.5113493582932134
0.5328636516036669
0.5781334237896933
0.6015913841368593
0.6189025897117795
0.7342512022386141
0.6440935938155902
0.6702030813625144
0.653904983057077
0.49253168293464583
0.44778462222580645
0.6326299768382189
0.6512193430565668
0.9569046816881829
0.46804686033202764
0.8224228008612453
0.5500096163912107
0.796191467359626
0.6450960721294148
0.8296518762337626
0.6465096328885195
0.5964559465129762
0.5533689331367712
0.6923349838246042
0.7280358848764051
0.7071805109236189
0.8796774448209993
0.5544397382326252
0.4885810188315136
0.7294471060508992
0.8299071838554297
0.5674848432133908
0.7172523449582827
0.6054583344816852
0.7878251299374358
0.6577562963283932
0.6740560843238195
0.49205654290393236
0.6715634506240409
0.13671140351491634
0.5737099700800428
0.6600569031681945
0.5891001034112195
0.5699249584579902
0.7604737648792146
0.8174384222406021
0.5732335038707521
0.5056187176642548
0.8304657034378665
0.532585992799409
0.6911256876526363
0.5913421093875578
0.6566114494343265
0.4968164647717091
0.5455669550340002
0.6533767012127091
0.6302214805818058
0.6158625154986552
0.4822049392858639
0.5079888909599297
0.7417261178721758
0.8012694982184684
0.5786421954201234
0.5687053703921213
0.4912613731418378
0.8217318519108368
0.620727321269211
0.570370158017639
0.6326358286912053
0.5552432268829701
0.6732221568259847
0.7379298210203709
0.7136760865066237
0.6817152981603483
0.709684827300999
0.6494405376597366
0.7132434843044739
0.6109061567049662
0.4554969904187175
0.556172845733996
0.5701942271353185
0.6281610552099343
0.5298540188132926
0.8421873600967859
0.6012905983041759
0.6381024735525895
0.7802023721800972
0.7092066074444928
0.5211452948909834
0.6193025814707159
0.6017733923163832
0.6997545684643905
0.5607372320959736
0.5809051580693875
0.2983348284089399
0.6894654921291294
0.7803370642235713
0.5569031710709234
0.6982309902538366
0.5926492039272911
0.7499927667153801
0.5435268899487657
0.6188826591577693
0.5621957955240244
0.7571894620930084
0.7255044183173219
0.7195834192648323
0.5695135747699046
0.6832327563178577
0.5841207068351756
0.6747473326406367
0.473848512435982
0.7432659282156827
0.8643162905279594
0.5897613728557675
0.6480130516074865
0.7057097301830305
0.5636970008412686
0.5254033891108468
0.8906209703269669
0.5407995411930466
0.7053458406700649
0.5295610814169055
0.6711484631206425
0.6017488501947834
0.4785141672755632
0.7462540625255334
0.33942330730745474
0.5394612516519613
0.7634349044505291
0.7184700974050401
0.6775733311260689
0.598986483413402
0.5914159187041542
0.6814384315086864
0.4654704451401894
0.6541178541158675
0.6512133001327853
0.6966183371648245
0.6906469626779147
0.5672538475746522
0.4230465566743599
0.7949409237447884
0.8181927945409824
0.497395412718456
0.6451600849733368
0.6424363821354486
0.38398955624944536
0.5261885622890133
0.3631745987158628
0.4291073041387133
0.630120289513694
0.6571718353420322
0.6229182522846726
0.8928990770267657
0.5348180632634787
0.9549190602715499
0.5692902574849684
0.6802105578282938
0.6787629466805778
0.5150485365461569
0.4423082713484748
0.459592766661252
0.6076904577822336
0.7678881832586817
0.7111044674048668
0.6635960156353743
0.6531393235651116
0.6583639835086247
0.6575023565020784
0.7760484021616376
0.4149975978447362
0.5066110323444368
0.6400336614212034
0.4861889689342836
0.5928505963049538
0.7263769105053036
0.7253014163662862
0.5462814792026982
0.6900156348598345
0.6653964619033452
0.6209866006610384
0.6213196426102614
0.6321686296750287
0.6075062112345843
0.8595153723686292
0.649019763446405
0.4888668856080734
0.5796151174148655
0.5585791776369281
0.5347204790557338
0.6510088380050977
0.6837544010757513
0.5633909741756307
0.6708078452022527
0.6044542769291429
0.8505115724436598
0.7874413186437008
0.47032656924615013
0.6358893892624888
0.6103890264830854
0.5341460776977986
0.7882684585342445
0.5893563918507725
0.6281396086750662
0.7326997411508651
0.4152491342216551
0.7532479664173946
0.7917595485420836
0.5871628914589072
0.8625670522758184
0.5518957228662212
0.7887657010841826
0.6659002694244123
0.7149089092153121
0.5772519337618531
0.2861630974150946
0.47809306742016366
0.7541097198787456
0.5629284923207315
0.474958037612481
0.6154007521017956
0.6217110573791631
0.553085514261014
0.8753860468599244
0.805239543108298
0.599238464232401
0.8214848636999528
0.5686243004286872
0.5845421189796642
0.682130085067351
0.8633757749768388
0.6563620545814945
0.658232242263984
0.623771998922497
0.571154898291791
0.9200975617115099
0.6320582968194091
0.6409007703119526
0.5629730083541566
0.5920645196774702
0.6114919324174564
0.6750342074754607
0.6849676706486441
0.45091699268478164
0.6907415301105578
0.7770886653837494
0.8115475259606808
0.67510519961779
0.9031308849312699
0.7533950834959294
0.595218740536426
0.5739060134430726
0.5414299467451424
0.5674845614420979
0.34537628673411763
0.6155509994507214
0.5976201612364719
0.47902304110374794
0.3480467366056369
0.5366136574653645
0.5287712889624244
0.6104162814974119
0.5462583259206529
0.7287070510507462
0.8589721254939284
0.5682183815980238
0.43551576685361704
0.5311921294528147
0.3466349728556738
0.6514611333304783
0.4670881225240851
0.5928699768320469
0.7273307698038859
0.5162994720661848
0.6755078720670731
0.790962232590094
0.6853541518396693
0.6995688254338089
0.8821120057466503
0.7766828581139513
0.7881747812118776
0.6609656092085874
0.6534070460378482
0.6437337368611388
0.6686505664776314
0.5651137836660798
0.7840832061683385
0.5544499261940754
0.5061689897941494
0.6329572259738772
0.5632032254478849
0.731843612005471
0.9862185085565489
0.9901881257046126
0.6934351947231139
0.4371493359614143
0.6821233753837797
0.9092086252095092
0.9331044098648534
0.5964692979647542
0.589874758587316
0.5561642073353322
0.5774124709216137
0.6110822708608356
0.6321474045624915
0.5300416058595446
0.5037942336404351
0.4981088079908829
0.70318294793282
0.6937779200162052
0.5389929767988406
0.5761109303928206
0.5103482695886937
0.8355870586360518
0.5128197532311073
0.6818124838068478
0.6576705614205249
0.6338353686222105
0.6576796566103774
0.54185211717418
0.5767418104822402
0.3927607906315325
0.5699163276657401
0.6577914380938527
0.90513535951909
0.6462899856969585
0.650330768473675
0.5074807575096079
0.6456861139060248
0.47830750166232644
0.6355637636180811
0.6032678169332378
0.7807650238530064
0.5771466352629003
0.5240324352282332
0.708124006756794
0.5599881699197019
0.575286560467953
0.511560745298698
0.42699782308001943
0.8130497091479507
0.5255770249597989
0.6485950291646159
0.655744388599855
0.8335264336549576
0.6690520670370685
0.5481273764186427
0.6144871986320968
0.9451740112580754
0.7107129258602665
0.7700976392892204
0.5650476582554765
0.8288310893672922
0.5914679936977048
0.5637475558024616
0.4791773013523429
0.7853615355727134
0.6556708496855934
0.6436295776940993
0.8933868220076777
0.6650741126762337
0.6484302923149805
0.9401174781208552
0.7995749783644067
0.522052681006091
0.6602424310564504
0.8180535642497844
0.8029332363244405
0.8937436491688604
0.4845570686961086
0.7225266985235247
0.48538662340253885
0.5752619755475255
0.6621769860405782
0.6512759749291683
0.44869481781316956
0.6228055102550826
0.6809556262635829
0.6395328424083471
0.5562356479211288
0.8269452563610373
0.6502752006101674
0.5403620581529137
0.6505076231546935
0.6749147799858014
0.759075539154033
0.6053117218786371
0.5824886760230206
0.5171120850139563
0.7926634500306801
0.637283182127127
0.5581526300662948
0.599578415206903
0.7124561281095987
0.6768699986763977
0.5466629621433753
0.601962776086425
0.6801207198108802
0.6225589564717467
0.6146024662578343
0.6240884402435481
0.5656329522991727
0.5505066562446158
0.7971231710471874
0.9484626284559747
0.6681111158797555
0.7015444962594005
0.696010351327124
0.6346942393934399
0.956836030206275
0.744382091794629
0.650743644405427
0.6312010380651983
0.6238603906442687
0.6281802497316226
0.6353593496603477
0.5911402149597813
0.5914796694804962
0.6239727597388122
0.5853105792520639
0.6463267558887574
0.8558996626836574
0.6198561653624739
0.5464415482262789
0.630784326265826
0.8033745107484929
0.594244436046433
0.6359570357662319
0.6599905572539628
0.3577071052366692
0.6172255314739142
0.6056782567909993
0.36183956138639367
0.29522487927804897
0.24011097163834003
0.5014053397195803
0.5293544615955453
0.6981495963603629
0.6493443026994759
0.7948083403963521
0.6318163786349277
0.5122565509866056
0.5942757444868763
0.9410088912356289
0.6639659097328842
0.6032474715279875
0.7099058846468069
0.5855778125194072
0.500560830225439
0.7423476028746816
0.5001424159284399
0.6305213491673507
0.5959245642729124
0.6140330498296973
0.8141063518901785
0.5618061305364416
0.654279459008556
0.5378876039780741
0.6466042900835306
0.6992059526075431
0.7817558139740323
0.8786321829626681
0.8365557977642469
0.542844058687255
0.6168517718685316
0.43135528295767284
0.7539469788972251
0.6397605497227319
0.46005169133359414
0.6116115697981938
0.5427288140943385
0.7402206684611036
0.6252985199457015
0.5219269010478849
0.4858898102227198
0.4935876946957151
0.7732903049148363
0.6294515228804106
0.4379780680860868
0.6561063249272868
0.9711339488305681
0.6917245538972832
0.5157761824876554
0.5291840658836412
0.5544491894468784
0.9204940726488178
0.5955581090828875
0.591200492351502
0.7838138582975801
0.703972412368981
0.6855692530387878
0.5712600747258607
0.6593145504824562
0.9487966809091007
0.6092757815990502
0.7488915118516527
0.3978977039709004
0.8839943635801597
0.46235773798725177
0.5594137518349492
0.512424817936338
0.5833995057003961
0.685944783107384
0.3287572821292892
0.5293244672620433
0.9580499811862421
0.7745104764327506
0.5828410952462122
0.7581446767683968
0.5950366634674803
0.804496256156924
0.534182971224164
0.20216166206149094
0.6142467257442659
0.6148968364702927
0.9221381641977671
0.8024266312597591
0.6379907277071871
0.7675342868106536
0.9564206406291196
0.5515891509138305
0.7205851275238846
0.5893225615260258
0.45576752134698645
0.9486343780474733
0.6272365657852107
0.8812918680867337
CELL_DATA 4886
TENSORS stress float
-1.1745683565786913e7 5.432550617746302e6 0.0
5.432550617746302e6 2.7756249904197875e7 0.0
0.0 0.0 0.0

-1.9377750104727402e7 9.059059911730504e6 0.0
9.059059911730504e6 9.701234357104013e6 0.0
0.0 0.0 0.0

-7.193189222977311e6 2.085463294435702e7 0.0
2.085463294435702e7 -4.172508146571489e6 0.0
0.0 0.0 0.0

-4.356037276820783e6 1.940997165480417e7 0.0
1.940997165480417e7 1.1383795744476836e7 0.0
0.0 0.0 0.0

-2.853161069299778e6 2.189607395536802e7 0.0
2.189607395536802e7 -719343.1484168959 0.0
0.0 0.0 0.0

1.8919366969879188e6 3.216792169427073e6 0.0
3.216792169427073e6 -4.772979504553908e6 0.0
0.0 0.0 0.0

4.211350664591715e7 2.1235656973581027e7 0.0
2.1235656973581027e7 1.0266243727170039e7 0.0
0.0 0.0 0.0

4.173804739356771e6 3.3594470756501593e6 0.0
3.3594470756501593e6 -3.562579646675865e7 0.0
0.0 0.0 0.0

-1.158089384874547e7 7.236698336525833e6 0.0
7.236698336525833e6 2.909648821093738e7 0.0
0.0 0.0 0.0

-257823.34019109514 1.741363260389466e7 0.0
1.741363260389466e7 1.5421788800882434e7 0.0
0.0 0.0 0.0

-1.3869471979113063e6 1.8000029136577286e7 0.0
1.8000029136577286e7 -6.627440753076633e6 0.0
0.0 0.0 0.0

-1.5777924886682308e6 2.5875318875289276e7 0.0
2.5875318875289276e7 -237696.4070671737 0.0
0.0 0.0 0.0

2.636567639418505e6 8.64721309690999e6 0.0
8.64721309690999e6 -3.2878928871225514e7 0.0
0.0 0.0 0.0

6.1808399628631406e7 2.3957317425683826e7 0.0
2.3957317425683826e7 1.1081289513466612e7 0.0
0.0 0.0 0.0

-1.2843648438027725e6 1.850504158252814e7 0.0
1.850504158252814e7 -6.648312800502906e6 0.0
0.0 0.0 0.0

3.7357809588970803e6 4.202433990408139e6 0.0
4.202433990408139e6 -1.3996032369905194e7 0.0
0.0 0.0 0.0

-1.9681870621188395e6 1.5198348364762105e7 0.0
1.5198348364762105e7 -1.7592102319278885e7 0.0
0.0 0.0 0.0

1.0199929898627345e6 1.2517046806200925e7 0.0
1.2517046806200925e7 -2.3348314803939052e7 0.0
0.0 0.0 0.0

-8.970425747960184e6 -4.254094068239986e6 0.0
-4.254094068239986e6 2.1376424662411023e7 0.0
0.0 0.0 0.0

-1.4124065858464404e6 2.0549278144333333e7 0.0
2.0549278144333333e7 -5.846304299575149e6 0.0
0.0 0.0 0.0

2.6839066196985254e6 1.0332752997753808e7 0.0
1.0332752997753808e7 -1.6984794941044398e7 0.0
0.0 0.0 0.0

-728800.1128638232 2.566088008599793e7 0.0
2.566088008599793e7 -277231.0686253735 0.0
0.0 0.0 0.0

-9.254250180425156e6 5.780448934062836e6 0.0
5.780448934062836e6 1.446025185082822e7 0.0
0.0 0.0 0.0

-1.0930640500435626e7 2.066735578673473e7 0.0
2.066735578673473e7 341420.66743112495 0.0
0.0 0.0 0.0

1.0305550578792989e6 1.1231462638781136e7 0.0
1.1231462638781136e7 -2.9899804671681337e7 0.0
0.0 0.0 0.0

1.4905964903245887e7 3.357403958078205e7 0.0
3.357403958078205e7 -1.051522874371834e7 0.0
0.0 0.0 0.0

2.817226773705651e7 1.8355824128272116e7 0.0
1.8355824128272116e7 5.722618328638882e6 0.0
0.0 0.0 0.0

-1.167025321622286e7 1.434431573321775e7 0.0
1.434431573321775e7 2.0876062837349005e7 0.0
0.0 0.0 0.0

3.91895728578912e6 4.269627659593758e6 0.0
4.269627659593758e6 -1.422170743476081e7 0.0
0.0 0.0 0.0

-5.431696415471207e6 -2.105803485844874e6 0.0
-2.105803485844874e6 9.407819488213215e6 0.0
0.0 0.0 0.0

-1.0475900654342525e7 7.2722291086644055e6 0.0
7.2722291086644055e6 1.2573627974342085e7 0.0
0.0 0.0 0.0

1.5504172880207608e6 8.094978282894619e6 0.0
8.094978282894619e6 -7.755030020037404e6 0.0
0.0 0.0 0.0

237239.0099722743 1.7938010188842088e7 0.0
1.7938010188842088e7 7.339300166906748e6 0.0
0.0 0.0 0.0

67864.14288895053 1.6337178020816319e7 0.0
1.6337178020816319e7 -43604.129607418596 0.0
0.0 0.0 0.0

-4.063816610780172e6 2.0098398318603873e7 0.0
2.0098398318603873e7 4.322018908289835e6 0.0
0.0 0.0 0.0

-9.743881342688445e6 4.940596594604133e6 0.0
4.940596594604133e6 1.126333019559361e7 0.0
0.0 0.0 0.0

266736.53226836957 1.1225783679031914e7 0.0
1.1225783679031914e7 -6.716011435593685e6 0.0
0.0 0.0 0.0

-3.6026887246965356e6 1.9889623589688797e7 0.0
1.9889623589688797e7 4.665409923509099e6 0.0
0.0 0.0 0.0

-2.368913146563745e6 1.3858476128066082e7 0.0
1.3858476128066082e7 -3.0247484869112235e7 0.0
0.0 0.0 0.0

-3.170893902403634e6 2.3531981824251685e7 0.0
2.3531981824251685e7 1.8357990429095498e6 0.0
0.0 0.0 0.0

1.8704548882194683e6 8.809429427311266e6 0.0
8.809429427311266e6 -3.587828446813306e7 0.0
0.0 0.0 0.0

-9.445725669998689e6 2.229416667276816e7 0.0
2.229416667276816e7 -5.580449890948402e6 0.0
0.0 0.0 0.0

-3.235284251842344e6 2.299226828267638e7 0.0
2.299226828267638e7 1.6598693019298043e6 0.0
0.0 0.0 0.0

-1.1286605616742305e7 2.364574347925281e6 0.0
2.364574347925281e6 2.0309409109396927e7 0.0
0.0 0.0 0.0

2.2629016426893054e6 1.0266507334251493e7 0.0
1.0266507334251493e7 -1.8541172853117455e7 0.0
0.0 0.0 0.0

-1.0286057753767684e7 1.5590782012009656e7 0.0
1.5590782012009656e7 2.016947174222107e7 0.0
0.0 0.0 0.0

-19690.63029546896 1.7785544814618696e7 0.0
1.7785544814618696e7 -1.0462038000525352e7 0.0
0.0 0.0 0.0

-308225.9855206497 1.0844036302714944e7 0.0
1.0844036302714944e7 -7.358816755696183e6 0.0
0.0 0.0 0.0

4.420835024611596e6 3.475317382799041e6 0.0
3.475317382799041e6 -2.9750909823579453e7 0.0
0.0 0.0 0.0

3.168742579929017e6 1.5085618117802419e7 0.0
1.5085618117802419e7 1.0562475536889637e7 0.0
0.0 0.0 0.0

-2.1601513325938415e6 2.277629438992549e7 0.0
2.277629438992549e7 9946.632314736373 0.0
0.0 0.0 0.0

-1.4264558893377393e7 6.56875769434785e6 0.0
6.56875769434785e6 8.560704372916397e6 0.0
0.0 0.0 0.0

4.4709951820446495e6 3.490243303904224e6 0.0
3.490243303904224e6 -3.074628620807167e7 0.0
0.0 0.0 0.0

-2.732171314872135e6 2.1357028551170934e7 0.0
2.1357028551170934e7 960776.9915197458 0.0
0.0 0.0 0.0

3.0287614931861414e6 1.5522208861166928e7 0.0
1.5522208861166928e7 1.296276956229254e7 0.0
0.0 0.0 0.0

-6.961673305081155e6 2.1492308949389935e7 0.0
2.1492308949389935e7 5.64629681930816e6 0.0
0.0 0.0 0.0

3.82285840777649e6 3.8854610208275127e6 0.0
3.8854610208275127e6 -3.8850778387419894e7 0.0
0.0 0.0 0.0

-2.733025705677307e6 2.368665076427933e7 0.0
2.368665076427933e7 1.889471684365841e6 0.0
0.0 0.0 0.0

1.6458505810981235e6 1.6900140106397618e7 0.0
1.6900140106397618e7 2.69971937804789e7 0.0
0.0 0.0 0.0

3.066353802325284e6 9.416929673489839e6 0.0
9.416929673489839e6 -2.0311524674452923e7 0.0
0.0 0.0 0.0

-1.2495709420444954e6 1.415373158698241e7 0.0
1.415373158698241e7 -9.20368084257558e6 0.0
0.0 0.0 0.0

1.9802998829688612e7 1.950532568957699e7 0.0
1.950532568957699e7 -3.5506406889806995e6 0.0
0.0 0.0 0.0

-3.0648888176687136e6 1.7152624911173802e7 0.0
1.7152624911173802e7 -1.03245971193918e7 0.0
0.0 0.0 0.0

-7.183820417797731e6 34766.07380907441 0.0
34766.07380907441 9.646294601956138e6 0.0
0.0 0.0 0.0

578733.2271264323 5.94678191392543e6 0.0
5.94678191392543e6 -2.7014959676537793e6 0.0
0.0 0.0 0.0

4.109347686348511e6 4.543239415625594e6 0.0
4.543239415625594e6 -2.912445962092369e7 0.0
0.0 0.0 0.0

3.218521482355807e6 7.60722488039389e6 0.0
7.60722488039389e6 -3.2686550764046535e7 0.0
0.0 0.0 0.0

-3.3203592692920044e6 2.1003436326178785e7 0.0
2.1003436326178785e7 352770.509752322 0.0
0.0 0.0 0.0

-647047.25466095 1.6978972530079596e7 0.0
1.6978972530079596e7 2.2275549426265232e7 0.0
0.0 0.0 0.0

1.5288701775203053e7 1.561968296170196e7 0.0
1.561968296170196e7 3.5983116752757067e6 0.0
0.0 0.0 0.0

-1.2251355990510145e7 3.824314437737761e6 0.0
3.824314437737761e6 1.822254917871623e7 0.0
0.0 0.0 0.0

1.674125968513647e6 1.1216138284916494e7 0.0
1.1216138284916494e7 -2.771680242845475e7 0.0
0.0 0.0 0.0

-2.2788818434313918e6 1.4507040842274548e7 0.0
1.4507040842274548e7 -2.8150865891430456e7 0.0
0.0 0.0 0.0

2.5202812215493824e6 1.6408723392631393e7 0.0
1.6408723392631393e7 3.863174895244684e7 0.0
0.0 0.0 0.0

-4.400361333821366e6 1.9544500306008372e7 0.0
1.9544500306008372e7 1.0775874799248222e7 0.0
0.0 0.0 0.0

-1.0402770029282482e7 1.5611442264120402e7 0.0
1.5611442264120402e7 1.9781857621423572e7 0.0
0.0 0.0 0.0

-4.920489409934579e6 1.1796016372740634e7 0.0
1.1796016372740634e7 9.342921175381385e6 0.0
0.0 0.0 0.0

-1.3553239354735846e6 1.4929244155949954e7 0.0
1.4929244155949954e7 -1.7261206506886225e7 0.0
0.0 0.0 0.0

-384287.43146778084 1.5734328179330852e7 0.0
1.5734328179330852e7 -9.862521415104285e6 0.0
0.0 0.0 0.0

1.253650383397012e6 1.2566993396881027e7 0.0
1.2566993396881027e7 -1.5162676505122215e7 0.0
0.0 0.0 0.0

1.4826270461224083e7 2.1655722666107677e7 0.0
2.1655722666107677e7 -5.519837630062313e6 0.0
0.0 0.0 0.0

-1.0025326027333258e7 -3.733727917030226e6 0.0
-3.733727917030226e6 2.5666645330097686e7 0.0
0.0 0.0 0.0

1.0138135489803886e6 1.6007304380976526e7 0.0
1.6007304380976526e7 -2.484614968847838e6 0.0
0.0 0.0 0.0

-746889.2933187719 2.6673194199278515e7 0.0
2.6673194199278515e7 -949395.7767627916 0.0
0.0 0.0 0.0

-4.685359276672406e6 1.947070569540482e7 0.0
1.947070569540482e7 1.1438826174285427e7 0.0
0.0 0.0 0.0

4.383026820327476e6 3.962616989259078e6 0.0
3.962616989259078e6 -1.9081052610132996e7 0.0
0.0 0.0 0.0

1.2109420564866588e6 7.338867421042475e6 0.0
7.338867421042475e6 -8.686345685439678e6 0.0
0.0 0.0 0.0

181694.88316086796 1.6927968773876764e7 0.0
1.6927968773876764e7 6.657371838487254e6 0.0
0.0 0.0 0.0

1.09671991237991e7 3.5032396362380564e7 0.0
3.5032396362380564e7 -1.280073003241749e7 0.0
0.0 0.0 0.0

-1.0791827261563748e7 6.701868603047109e6 0.0
6.701868603047109e6 3.517237230419017e7 0.0
0.0 0.0 0.0

880378.6105201202 1.7447186438166182e7 0.0
1.7447186438166182e7 -6.830567629264854e6 0.0
0.0 0.0 0.0

-948088.8111347067 1.6046852981030071e7 0.0
1.6046852981030071e7 -1.1873781559700288e7 0.0
0.0 0.0 0.0

-236212.02010211372 9.880740032709429e6 0.0
9.880740032709429e6 -6.521760187597988e6 0.0
0.0 0.0 0.0

-99568.16751769278 5.121735547231588e6 0.0
5.121735547231588e6 -3.8705678639188535e6 0.0
0.0 0.0 0.0

2.737796212682698e6 1.830568761369726e7 0.0
1.830568761369726e7 -4.650917125830096e6 0.0
0.0 0.0 0.0

-2.0434719079621984e6 1.4926116372841742e7 0.0
1.4926116372841742e7 -2.3197541828346495e7 0.0
0.0 0.0 0.0

4.105821058217598e6 3.3545080386110637e6 0.0
3.3545080386110637e6 -3.537583506327006e7 0.0
0.0 0.0 0.0

-4.790964490124328e6 1.9879117671197996e7 0.0
1.9879117671197996e7 9.759593148656404e6 0.0
0.0 0.0 0.0

3.035353756778104e6 8.353637726109406e6 0.0
8.353637726109406e6 -2.6421878317868937e7 0.0
0.0 0.0 0.0

3.8303307542412337e6 3.888638160233593e6 0.0
3.888638160233593e6 -3.955332756605092e7 0.0
0.0 0.0 0.0

-3.8443708427078603e6 1.829327943403042e7 0.0
1.829327943403042e7 1.1759405896792416e7 0.0
0.0 0.0 0.0

-4.499937078392914e6 1.6435466634140857e7 0.0
1.6435466634140857e7 -1.1396016721783705e7 0.0
0.0 0.0 0.0

-1.0608937673467e7 5.638963341017851e6 0.0
5.638963341017851e6 1.622962241135859e7 0.0
0.0 0.0 0.0

-2.604506154178777e6 2.2432464957954995e7 0.0
2.2432464957954995e7 1.203597138619226e6 0.0
0.0 0.0 0.0

66007.27645385265 1.0026548641259745e7 0.0
1.0026548641259745e7 -4.87326818795065e6 0.0
0.0 0.0 0.0

-5.814054733086806e6 1.2050698570739543e7 0.0
1.2050698570739543e7 8.90658621416525e6 0.0
0.0 0.0 0.0

-9.703152312959488e6 -3.483218738412971e6 0.0
-3.483218738412971e6 2.614757880205886e7 0.0
0.0 0.0 0.0

1.5951834868225595e6 1.272647660328678e7 0.0
1.272647660328678e7 -1.4188479351822574e7 0.0
0.0 0.0 0.0

-1.1732836669360881e6 2.5373729021900147e7 0.0
2.5373729021900147e7 -424346.7542647765 0.0
0.0 0.0 0.0

-7.421323333883416e6 5.7693725069550555e6 0.0
5.7693725069550555e6 1.196236449289738e7 0.0
0.0 0.0 0.0

2.3503846552067827e6 7.796493387346688e6 0.0
7.796493387346688e6 -3.550133812175585e7 0.0
0.0 0.0 0.0

-1.8643685962310252e6 1.0577991961623281e7 0.0
1.0577991961623281e7 -3.6008210042513716e6 0.0
0.0 0.0 0.0

5.078877379034996e6 1.9303467224587906e7 0.0
1.9303467224587906e7 9.188849322561339e6 0.0
0.0 0.0 0.0

2.914255444021053e7 1.9281929986003134e7 0.0
1.9281929986003134e7 5.373064493423016e6 0.0
0.0 0.0 0.0

3.909888503347218e6 6.037483104870346e6 0.0
6.037483104870346e6 -1.7575922532783702e7 0.0
0.0 0.0 0.0

-3.4277715709249796e6 1.4996853684843762e7 0.0
1.4996853684843762e7 -2.8480082077732425e7 0.0
0.0 0.0 0.0

3.776935354887615e6 6.03315231673225e6 0.0
6.03315231673225e6 -1.845794077713907e7 0.0
0.0 0.0 0.0

4.582217013324016e6 3.9662908104366413e6 0.0
3.9662908104366413e6 -1.975210452444394e7 0.0
0.0 0.0 0.0

2.4904813116838433e7 1.2918980553558605e7 0.0
1.2918980553558605e7 382853.02877510805 0.0
0.0 0.0 0.0

-9.228043344045183e6 3.0295726065991413e7 0.0
3.0295726065991413e7 3.7448900003333245e6 0.0
0.0 0.0 0.0

-1.6259073360131914e6 1.3912928505722333e7 0.0
1.3912928505722333e7 -2.5995268993924774e7 0.0
0.0 0.0 0.0

-8.004564965163826e6 2.0053043443390824e7 0.0
2.0053043443390824e7 -2.244256078639204e6 0.0
0.0 0.0 0.0

4.781240134650379e6 3.822703490950102e6 0.0
3.822703490950102e6 -2.5130459723444562e7 0.0
0.0 0.0 0.0

-7.46148489894465e6 2.135312845007539e7 0.0
2.135312845007539e7 6.25009916556589e6 0.0
0.0 0.0 0.0

4.614872843280863e6 2.5570648262700595e7 0.0
2.5570648262700595e7 -4.496869310777976e6 0.0
0.0 0.0 0.0

-1.2167346546435826e7 8.415011281126004e6 0.0
8.415011281126004e6 2.645961308035881e7 0.0
0.0 0.0 0.0

6.515698066460114e6 3.423131123014777e7 0.0
3.423131123014777e7 -7.975190256422307e6 0.0
0.0 0.0 0.0

-513345.0682592564 1.7058154620726362e7 0.0
1.7058154620726362e7 -796626.7303668266 0.0
0.0 0.0 0.0

4.356856342294641e6 3.3689354141879356e6 0.0
3.3689354141879356e6 -3.152966951870494e7 0.0
0.0 0.0 0.0

2.0693216902922902e7 1.602544950884405e7 0.0
1.602544950884405e7 1.6615382193594696e6 0.0
0.0 0.0 0.0

-3.722211776978296e6 1.797513661228622e7 0.0
1.797513661228622e7 1.1877650260309145e7 0.0
0.0 0.0 0.0

3.5458080319972374e6 6.09276289771573e6 0.0
6.09276289771573e6 -2.88189386650796e7 0.0
0.0 0.0 0.0

-729293.8310525916 2.094023396088219e7 0.0
2.094023396088219e7 -5.200975208502571e6 0.0
0.0 0.0 0.0

655209.439815064 1.6941722069610536e7 0.0
1.6941722069610536e7 -7.476012441627507e6 0.0
0.0 0.0 0.0

-2.624648744321877e6 1.6125395006264456e7 0.0
1.6125395006264456e7 -1.0611946313166933e7 0.0
0.0 0.0 0.0

-332225.3905680827 1.6351303451893331e7 0.0
1.6351303451893331e7 -8.851640292199442e6 0.0
0.0 0.0 0.0

7.155478868335241e6 1.960944803629212e7 0.0
1.960944803629212e7 9.299399455923904e6 0.0
0.0 0.0 0.0

2.0831401666864231e6 6.49625154500124e6 0.0
6.49625154500124e6 -4.886828493496094e7 0.0
0.0 0.0 0.0

-5.007815196537661e6 2.0486267496301e7 0.0
2.0486267496301e7 9.604939141634597e6 0.0
0.0 0.0 0.0

1.4682848974450165e6 4.516232775306391e6 0.0
4.516232775306391e6 -4.370328517907915e6 0.0
0.0 0.0 0.0

-1.1985670152526494e7 1.2913669680104319e7 0.0
1.2913669680104319e7 2.160751809463819e7 0.0
0.0 0.0 0.0

4.579186733987061e6 4.340749025388635e6 0.0
4.340749025388635e6 -1.7426299957061067e7 0.0
0.0 0.0 0.0

-9.404444112677878e6 -3.5659568711429294e6 0.0
-3.5659568711429294e6 3.16169161859714e7 0.0
0.0 0.0 0.0

1.588317382492138e6 1.3388823341920944e7 0.0
1.3388823341920944e7 -1.708172203401386e7 0.0
0.0 0.0 0.0

1.3490758194385641e6 2.9661598237495334e6 0.0
2.9661598237495334e6 -4.51958488847178e6 0.0
0.0 0.0 0.0

2.4405373984862e6 1.5935819064786388e7 0.0
1.5935819064786388e7 1.2508104580182642e7 0.0
0.0 0.0 0.0

-3.131246739985821e6 2.3292695166549936e7 0.0
2.3292695166549936e7 3.485250341458516e6 0.0
0.0 0.0 0.0

-1.0184340485735342e7 -2.324027678173985e6 0.0
-2.324027678173985e6 2.9943136368994616e7 0.0
0.0 0.0 0.0

-1.9670369230537033e6 1.7510328695042297e7 0.0
1.7510328695042297e7 6.629394946598763e6 0.0
0.0 0.0 0.0

3.032177186252621e6 1.9319965693438888e7 0.0
1.9319965693438888e7 -5.421252205359628e6 0.0
0.0 0.0 0.0

-3.3725752355888085e6 2.0363399043702465e7 0.0
2.0363399043702465e7 102423.91685934085 0.0
0.0 0.0 0.0

-2.856771510994995e6 1.873750181698177e7 0.0
1.873750181698177e7 -7.375238647682276e6 0.0
0.0 0.0 0.0

-2.9379465021893e6 2.053052347373809e7 0.0
2.053052347373809e7 1.4380179357411307e6 0.0
0.0 0.0 0.0

-4.137918216242792e6 1.4581687730255062e7 0.0
1.4581687730255062e7 -1.6016865429667143e7 0.0
0.0 0.0 0.0

1.2525998736916095e7 2.0980672967042703e7 0.0
2.0980672967042703e7 -6.314379667861658e6 0.0
0.0 0.0 0.0

-944881.6563616833 1.5325232271058733e7 0.0
1.5325232271058733e7 -1.2732650509790014e7 0.0
0.0 0.0 0.0

-6.024029838145709e6 1.7534030486686364e7 0.0
1.7534030486686364e7 1.89516695235616e7 0.0
0.0 0.0 0.0

1.7425540893818869e6 1.844947666884943e7 0.0
1.844947666884943e7 1.2034963291561322e7 0.0
0.0 0.0 0.0

2.751977011896287e6 9.558042089408936e6 0.0
9.558042089408936e6 -1.967153208048873e7 0.0
0.0 0.0 0.0

-6.493717838017894e6 1.1168664673004638e7 0.0
1.1168664673004638e7 7.935453529615162e6 0.0
0.0 0.0 0.0

-3.211453142828397e6 2.6317760584573813e7 0.0
2.6317760584573813e7 1.8089792588428317e6 0.0
0.0 0.0 0.0

-6.896766312229834e6 1.7108708947961688e7 0.0
1.7108708947961688e7 1.3817835549986616e7 0.0
0.0 0.0 0.0

811475.8461948656 2.7434404138457064e7 0.0
2.7434404138457064e7 -877075.898164026 0.0
0.0 0.0 0.0

1.1921229269583197e6 1.3143338558534354e7 0.0
1.3143338558534354e7 -1.8155897100228317e7 0.0
0.0 0.0 0.0

-1.592146258021264e7 2.300496876964858e7 0.0
2.300496876964858e7 -5.675333893175872e6 0.0
0.0 0.0 0.0

4.223688197810942e6 4.651128768714522e6 0.0
4.651128768714522e6 -3.4919304231053196e7 0.0
0.0 0.0 0.0

6.851425258998383e6 2.7350985159486275e7 0.0
2.7350985159486275e7 -4.601191768631637e6 0.0
0.0 0.0 0.0

-1.6280636484096754e7 2.700207126313628e7 0.0
2.700207126313628e7 7.614275538680658e6 0.0
0.0 0.0 0.0

-659170.5012665801 1.716070558125372e7 0.0
1.716070558125372e7 1.4285770753006104e7 0.0
0.0 0.0 0.0

-2.9993373515133474e7 2.6645996584322765e7 0.0
2.6645996584322765e7 8.265015884001544e6 0.0
0.0 0.0 0.0

4.534122134672478e6 3.383193819944167e6 0.0
3.383193819944167e6 -3.2372848522074487e7 0.0
0.0 0.0 0.0

-6.517920914768549e6 1.6998023782067835e7 0.0
1.6998023782067835e7 1.5019204609093381e7 0.0
0.0 0.0 0.0

-8.130094548091059e6 5.711836088574099e6 0.0
5.711836088574099e6 9.504434032284338e6 0.0
0.0 0.0 0.0

4.344820887008884e6 3.6586944797876463e6 0.0
3.6586944797876463e6 -1.8352298171668503e7 0.0
0.0 0.0 0.0

175387.41907254793 1.6998018460371625e7 0.0
1.6998018460371625e7 -8.839179147983892e6 0.0
0.0 0.0 0.0

-6.494114320225906e6 3.133935793357983e7 0.0
3.133935793357983e7 4.696225309839513e6 0.0
0.0 0.0 0.0

-1.2605398174134202e7 1.408043161177895e7 0.0
1.408043161177895e7 9.11364714132732e6 0.0
0.0 0.0 0.0

-2.7852142190246783e7 2.3201450996168364e7 0.0
2.3201450996168364e7 3.4220856978418976e6 0.0
0.0 0.0 0.0

2.9482255118093617e7 1.807164418290598e7 0.0
1.807164418290598e7 9.92230193940886e6 0.0
0.0 0.0 0.0

-4.857410279001888e6 1.4580382422925923e7 0.0
1.4580382422925923e7 -6.2951382742712304e7 0.0
0.0 0.0 0.0

-126290.23063735105 1.6050285150138069e7 0.0
1.6050285150138069e7 -1.0870823698801104e7 0.0
0.0 0.0 0.0

-5.858111792460209e6 1.719609149712295e7 0.0
1.719609149712295e7 1.8795693813553937e7 0.0
0.0 0.0 0.0

-326109.7750792536 1.9350814272813015e7 0.0
1.9350814272813015e7 -8.064077795960904e6 0.0
0.0 0.0 0.0

-2.2570457244686875e6 2.2229867307157796e7 0.0
2.2229867307157796e7 -169894.34356483922 0.0
0.0 0.0 0.0

1.5506543250002984e6 1.4878446035027308e7 0.0
1.4878446035027308e7 7.240408647437611e6 0.0
0.0 0.0 0.0

435674.6713067783 2.689219433394268e7 0.0
2.689219433394268e7 -802745.7435429837 0.0
0.0 0.0 0.0

-9.178822899682181e6 5.638619727250404e6 0.0
5.638619727250404e6 1.2603951346346058e7 0.0
0.0 0.0 0.0

3.9788128416890234e7 2.5763002282127704e7 0.0
2.5763002282127704e7 1.3565339971076664e7 0.0
0.0 0.0 0.0

-584213.8139087306 2.2003970908926178e7 0.0
2.2003970908926178e7 -4.8999589752217885e6 0.0
0.0 0.0 0.0

2.3244683928518463e6 1.4418783637884699e7 0.0
1.4418783637884699e7 9.705197028857857e6 0.0
0.0 0.0 0.0

-8.734078292553097e6 2.1394302896685332e7 0.0
2.1394302896685332e7 2.278178392156841e6 0.0
0.0 0.0 0.0

-1.8578038043217277e6 1.6135854869454717e7 0.0
1.6135854869454717e7 1.3678226852471657e7 0.0
0.0 0.0 0.0

-977438.7564105681 2.0895686703843534e7 0.0
2.0895686703843534e7 -4.8452210353181325e6 0.0
0.0 0.0 0.0

3.470193262556171e6 7.507381319014104e6 0.0
7.507381319014104e6 -2.5770634489886165e7 0.0
0.0 0.0 0.0

-4.0127749608271383e6 1.926690207985808e7 0.0
1.926690207985808e7 5.018896476667631e6 0.0
0.0 0.0 0.0

-4.8659881355050625e6 1.9246089457670443e7 0.0
1.9246089457670443e7 3.2094872214172236e6 0.0
0.0 0.0 0.0

1.5969096668059384e6 7.417669296698205e6 0.0
7.417669296698205e6 -1.0268186709725076e7 0.0
0.0 0.0 0.0

-4.119786148427229e6 1.9986923899525143e7 0.0
1.9986923899525143e7 1.008600428587731e7 0.0
0.0 0.0 0.0

-1.011942601874056e7 4.2214239778527245e6 0.0
4.2214239778527245e6 3.868826641926122e7 0.0
0.0 0.0 0.0

-666439.7383540884 1.0159853373470148e7 0.0
1.0159853373470148e7 -2.950604833115101e6 0.0
0.0 0.0 0.0

-9.163126289617296e6 2.1051852372747667e7 0.0
2.1051852372747667e7 -4.75828875851425e6 0.0
0.0 0.0 0.0

2.6959727714587793e7 2.2975794952711694e7 0.0
2.2975794952711694e7 1.1036008967852699e7 0.0
0.0 0.0 0.0

1.298621404150621e6 1.273147143496345e7 0.0
1.273147143496345e7 -2.2838991085556533e7 0.0
0.0 0.0 0.0

4.0771226117537543e6 6.08285933877729e6 0.0
6.08285933877729e6 -2.7033779781729627e7 0.0
0.0 0.0 0.0

5.787012032938903e6 1.8013076033967067e7 0.0
1.8013076033967067e7 1.9126950953830483e6 0.0
0.0 0.0 0.0

-5.364101194718614e6 9.37187868717141e6 0.0
9.37187868717141e6 1.4826634587196732e7 0.0
0.0 0.0 0.0

-2.540893318959865e6 2.1497226379698236e7 0.0
2.1497226379698236e7 228671.51361670124 0.0
0.0 0.0 0.0

-1.7701336390823782e6 1.8615313749416977e7 0.0
1.8615313749416977e7 -6.178624843090806e6 0.0
0.0 0.0 0.0

-1.286656377275533e6 1.8783480012600828e7 0.0
1.8783480012600828e7 -7.671980098145483e6 0.0
0.0 0.0 0.0

-739005.259980011 1.6447001725947205e7 0.0
1.6447001725947205e7 -6.219914926816989e6 0.0
0.0 0.0 0.0

2.14346831973423e6 8.070227611741866e6 0.0
8.070227611741866e6 -9.289635214836173e6 0.0
0.0 0.0 0.0

2.209975299051135e7 2.0639292708562694e7 0.0
2.0639292708562694e7 7.657264065845364e6 0.0
0.0 0.0 0.0

1.4769516910771811e6 1.5339405341349725e7 0.0
1.5339405341349725e7 6.563453643213011e6 0.0
0.0 0.0 0.0

-3.33317214276914e6 2.5959058163646787e7 0.0
2.5959058163646787e7 3.414323714085175e6 0.0
0.0 0.0 0.0

-3.0138681990665518e7 1.7485813814591747e7 0.0
1.7485813814591747e7 8.844475169320265e6 0.0
0.0 0.0 0.0

4.385875886325206e6 4.0716323962752926e6 0.0
4.0716323962752926e6 -1.645259613824612e7 0.0
0.0 0.0 0.0

77867.24266599934 1.670796495893249e7 0.0
1.670796495893249e7 4.8686301376765035e6 0.0
0.0 0.0 0.0

-2.9068647807485475e6 1.396915555011766e7 0.0
1.396915555011766e7 -1.5274934797403939e7 0.0
0.0 0.0 0.0

200101.26471909788 1.4969871466704248e7 0.0
1.4969871466704248e7 -1.71916980618146e7 0.0
0.0 0.0 0.0

-9.215772272607293e6 -5.207933661050177e6 0.0
-5.207933661050177e6 2.000021923145029e7 0.0
0.0 0.0 0.0

1.5111413833105313e6 1.2115721129483627e7 0.0
1.2115721129483627e7 -1.6197035209063735e7 0.0
0.0 0.0 0.0

-6.5306362702434845e6 1.5550181009363398e7 0.0
1.5550181009363398e7 -3.594295155269725e7 0.0
0.0 0.0 0.0

1.770372719809753e6 1.1625429470632218e7 0.0
1.1625429470632218e7 -1.706314944264418e7 0.0
0.0 0.0 0.0

699202.7877383595 1.749216871466313e7 0.0
1.749216871466313e7 -8.264090359963008e6 0.0
0.0 0.0 0.0

2.2485304744141787e7 1.833410105758063e7 0.0
1.833410105758063e7 5.139368384473525e6 0.0
0.0 0.0 0.0

-1.041483769622786e7 1.283380777520999e7 0.0
1.283380777520999e7 2.735760124307967e7 0.0
0.0 0.0 0.0

-3.344217470494909e6 1.948871283289507e7 0.0
1.948871283289507e7 -7.896358828201227e6 0.0
0.0 0.0 0.0

44237.60033240153 1.5423628284506937e7 0.0
1.5423628284506937e7 220954.31548449714 0.0
0.0 0.0 0.0

-4.829506132968336e6 1.8224378827265542e7 0.0
1.8224378827265542e7 -9.488379357868962e6 0.0
0.0 0.0 0.0

2.108203655106962e7 2.1629127377888255e7 0.0
2.1629127377888255e7 9.258736423997223e6 0.0
0.0 0.0 0.0

-4.81101882956543e6 2.001784068371693e7 0.0
2.001784068371693e7 1.0653591485616649e7 0.0
0.0 0.0 0.0

1.3090782915917756e6 1.6899667166309644e7 0.0
1.6899667166309644e7 -3.617874322999589e6 0.0
0.0 0.0 0.0

-1.5601057650095501e6 2.3547309824751556e7 0.0
2.3547309824751556e7 -854820.7051738212 0.0
0.0 0.0 0.0

-4.0326470885674683e6 1.931005370507185e7 0.0
1.931005370507185e7 5.7527753484602e6 0.0
0.0 0.0 0.0

-7.393017611003712e6 863976.5541895289 0.0
863976.5541895289 5.971611730497459e7 0.0
0.0 0.0 0.0

-271177.53748414665 1.729282600475194e7 0.0
1.729282600475194e7 -1.1533328366858508e7 0.0
0.0 0.0 0.0

-2.748274131169308e6 2.3250350947825853e7 0.0
2.3250350947825853e7 2.108666923173222e6 0.0
0.0 0.0 0.0

372484.8684794634 4.0987565787819177e6 0.0
4.0987565787819177e6 -1.4003322136561736e6 0.0
0.0 0.0 0.0

-1.1111151488328254e7 1.451097474795666e7 0.0
1.451097474795666e7 2.1049394253129642e7 0.0
0.0 0.0 0.0

-3.3063410701322234e6 1.6089825909849873e7 0.0
1.6089825909849873e7 -7.612611071156812e6 0.0
0.0 0.0 0.0

4.314998408768423e6 4.0986220171772707e6 0.0
4.0986220171772707e6 -2.2221373263431553e7 0.0
0.0 0.0 0.0

-2.4021890508393236e6 2.6664097557241358e7 0.0
2.6664097557241358e7 2.3661191809564624e6 0.0
0.0 0.0 0.0

1.9540921714431988e6 1.2310644409210874e7 0.0
1.2310644409210874e7 -1.484860827060607e7 0.0
0.0 0.0 0.0

-7.485179270874534e6 1.6504426265178854e7 0.0
1.6504426265178854e7 1.6417900141822971e7 0.0
0.0 0.0 0.0

3.107341621040171e6 5.875842000386685e6 0.0
5.875842000386685e6 -4.5177859408688486e7 0.0
0.0 0.0 0.0

-3.8961464770710785e6 2.5639057999255247e7 0.0
2.5639057999255247e7 3.021092207202988e6 0.0
0.0 0.0 0.0

-5.6155220057546515e6 1.5013180956315685e7 0.0
1.5013180956315685e7 -2.1871875266335975e7 0.0
0.0 0.0 0.0

3.6811665245888745e6 3.276279107378475e6 0.0
3.276279107378475e6 -1.1359747266456716e7 0.0
0.0 0.0 0.0

-252129.37147121842 9.581743850223096e6 0.0
9.581743850223096e6 -4.0025872576649375e6 0.0
0.0 0.0 0.0

-1.3473596544971138e7 2.7199570195622474e7 0.0
2.7199570195622474e7 6.697176994075558e6 0.0
0.0 0.0 0.0

3.2235625619379054e6 1.4536956276027136e7 0.0
1.4536956276027136e7 1.1430637216370162e7 0.0
0.0 0.0 0.0

-7.005831801077324e6 2.9681534362942267e7 0.0
2.9681534362942267e7 3.424146876435731e6 0.0
0.0 0.0 0.0

-1.1420995015723247e7 3.720284948453513e6 0.0
3.720284948453513e6 2.1033727661492437e7 0.0
0.0 0.0 0.0

1.864607877217438e6 8.513970938696103e6 0.0
8.513970938696103e6 -5.020689088078592e7 0.0
0.0 0.0 0.0

5.2780808266834736e7 1.8012089757770468e7 0.0
1.8012089757770468e7 -532062.2634575181 0.0
0.0 0.0 0.0

-2.4807818900875296e6 2.2068077544905413e7 0.0
2.2068077544905413e7 426050.61646331556 0.0
0.0 0.0 0.0

-4.921556491792873e6 2.3228136778530277e7 0.0
2.3228136778530277e7 6.076920180334723e6 0.0
0.0 0.0 0.0

-3.3437689545550332e6 2.0835829933219e7 0.0
2.0835829933219e7 3.9129246935095578e6 0.0
0.0 0.0 0.0

3.136475800333822e6 1.7830268009956572e7 0.0
1.7830268009956572e7 4.0461405083911285e7 0.0
0.0 0.0 0.0

4.155080740208596e6 4.276752677372991e6 0.0
4.276752677372991e6 -2.580347115177893e7 0.0
0.0 0.0 0.0

428768.9456307511 1.1629248315131724e7 0.0
1.1629248315131724e7 -7.381090817504449e6 0.0
0.0 0.0 0.0

3.1583207790279426e6 2.560727448746188e7 0.0
2.560727448746188e7 -3.9045863166184374e6 0.0
0.0 0.0 0.0

2.0648298296768926e6 9.778906875851007e6 0.0
9.778906875851007e6 -2.9288941901821353e7 0.0
0.0 0.0 0.0

-1.7617356762612537e7 1.5943175842769064e7 0.0
1.5943175842769064e7 8.727931040523488e6 0.0
0.0 0.0 0.0

-4.916954643674194e6 1.9388734404279903e7 0.0
1.9388734404279903e7 2.188431143809287e6 0.0
0.0 0.0 0.0

133110.24497517827 1.504437959567268e7 0.0
1.504437959567268e7 3.193921870111176e6 0.0
0.0 0.0 0.0

2.1756832906560926e6 1.183860512129868e7 0.0
1.183860512129868e7 -1.5765824982815048e7 0.0
0.0 0.0 0.0

92036.9368946664 1.7416067298783664e7 0.0
1.7416067298783664e7 2.4045176925139226e7 0.0
0.0 0.0 0.0

6.673459610506169e6 2.5587741131555557e7 0.0
2.5587741131555557e7 -5.261302864640394e6 0.0
0.0 0.0 0.0

-3.6787493190206006e7 1.8741225473165782e6 0.0
1.8741225473165782e6 8.1533598869865e6 0.0
0.0 0.0 0.0

2.8438404762720298e7 3.2334662793048657e7 0.0
3.2334662793048657e7 -1.1413660658803726e7 0.0
0.0 0.0 0.0

6.016429289116469e6 2.593599685548708e7 0.0
2.593599685548708e7 -5.873056898752879e6 0.0
0.0 0.0 0.0

4.086557899464708e6 4.1562630124108135e6 0.0
4.1562630124108135e6 -1.5862344429203942e7 0.0
0.0 0.0 0.0

-3.4559526785097583e6 2.3322223335144214e7 0.0
2.3322223335144214e7 2.359325776233974e6 0.0
0.0 0.0 0.0

2.7582693186470665e7 1.3091615339587575e7 0.0
1.3091615339587575e7 782777.4609261323 0.0
0.0 0.0 0.0

-9.46282011400511e6 6.538324433826868e6 0.0
6.538324433826868e6 4.149657746625647e7 0.0
0.0 0.0 0.0

-302556.2624917752 1.7473969238394227e7 0.0
1.7473969238394227e7 -1.1130337268434765e7 0.0
0.0 0.0 0.0

1.6919245750407167e7 1.6288749693095392e7 0.0
1.6288749693095392e7 3.843359624646605e6 0.0
0.0 0.0 0.0

634002.031818036 1.745914158353778e7 0.0
1.745914158353778e7 -9.507717077467758e6 0.0
0.0 0.0 0.0

4.373888457558233e6 4.599087364207578e6 0.0
4.599087364207578e6 -2.756067373534306e7 0.0
0.0 0.0 0.0

-2.14955748031466e6 2.184937653030333e7 0.0
2.184937653030333e7 -995036.9074103929 0.0
0.0 0.0 0.0

-2.391176217674316e6 1.415743286399106e7 0.0
1.415743286399106e7 -1.4110978954424772e7 0.0
0.0 0.0 0.0

-367627.01617348846 2.3116159639191095e7 0.0
2.3116159639191095e7 -3.7925521185387205e6 0.0
0.0 0.0 0.0

-8.331361179290334e6 9.007098957357844e6 0.0
9.007098957357844e6 4.3278651697483525e7 0.0
0.0 0.0 0.0

-354973.5217925776 1.5317358837561836e7 0.0
1.5317358837561836e7 -8.700427443796705e6 0.0
0.0 0.0 0.0

2.788534796660197e6 9.291664820251314e6 0.0
9.291664820251314e6 -2.1115338163766973e7 0.0
0.0 0.0 0.0

1.7534670539020742e6 1.9585181900905643e7 0.0
1.9585181900905643e7 -6.1453417653612755e6 0.0
0.0 0.0 0.0

-1.7444708890853245e6 1.4823568179405892e7 0.0
1.4823568179405892e7 -7.787013908553284e6 0.0
0.0 0.0 0.0

-9.905950947781451e6 1.7622179302341926e6 0.0
1.7622179302341926e6 3.875723677027213e7 0.0
0.0 0.0 0.0

-428972.5200198842 1.765623546674807e7 0.0
1.765623546674807e7 1.6299128514524827e7 0.0
0.0 0.0 0.0

1.9975455229895841e6 9.494026598476341e6 0.0
9.494026598476341e6 -3.1359308070280068e7 0.0
0.0 0.0 0.0

199664.21615906712 2.293483886613504e7 0.0
2.293483886613504e7 -3.758587119176143e6 0.0
0.0 0.0 0.0

765107.19902361 1.8592297486039817e7 0.0
1.8592297486039817e7 1.1745390399926523e7 0.0
0.0 0.0 0.0

3.486589497043033e6 8.432364420302086e6 0.0
8.432364420302086e6 -2.0605348606574975e7 0.0
0.0 0.0 0.0

3.966717745253961e7 1.9971527895706818e7 0.0
1.9971527895706818e7 8.2296419300069455e6 0.0
0.0 0.0 0.0

-252190.78587264405 2.249336612999461e7 0.0
2.249336612999461e7 -3.9053333348624636e6 0.0
0.0 0.0 0.0

-9.702410971748771e6 -4.651201331770713e6 0.0
-4.651201331770713e6 2.335047312481151e7 0.0
0.0 0.0 0.0

-1.0825222446299335e7 1.955155669377294e6 0.0
1.955155669377294e6 3.576632734569399e7 0.0
0.0 0.0 0.0

4.8039242711531045e6 2.7637925703656184e6 0.0
2.7637925703656184e6 -2.3368304515972547e7 0.0
0.0 0.0 0.0

-3.9054669782024147e6 2.04875856571471e7 0.0
2.04875856571471e7 3.4364584369497984e6 0.0
0.0 0.0 0.0

-963856.6023380936 1.587778380150081e7 0.0
1.587778380150081e7 -6.857965435433951e6 0.0
0.0 0.0 0.0

-357769.3334763162 1.888973381389483e7 0.0
1.888973381389483e7 -9.029963139522815e6 0.0
0.0 0.0 0.0

-9.305570807217784e6 -1.572714147071772e6 0.0
-1.572714147071772e6 1.7423431012383755e7 0.0
0.0 0.0 0.0

-978702.3825788703 1.914157252206064e7 0.0
1.914157252206064e7 -6.491226606315958e6 0.0
0.0 0.0 0.0

-1.0035188740210224e7 1.638227337436656e6 0.0
1.638227337436656e6 3.844902150351467e7 0.0
0.0 0.0 0.0

5.625988233078642e6 1.70749697307355e7 0.0
1.70749697307355e7 3.5605476743113752e6 0.0
0.0 0.0 0.0

1.4418429308578633e6 1.1179982406954248e7 0.0
1.1179982406954248e7 -2.9885537772249788e7 0.0
0.0 0.0 0.0

2.5073427701465115e6 9.424743015404608e6 0.0
9.424743015404608e6 -3.1388297843194738e7 0.0
0.0 0.0 0.0

-1.1332320360901862e7 1.4240040577431671e7 0.0
1.4240040577431671e7 2.194105237447562e7 0.0
0.0 0.0 0.0

-3.7588539004361816e6 1.743413061739397e7 0.0
1.743413061739397e7 3.8461532990066553e6 0.0
0.0 0.0 0.0

1.0583130289160227e6 4.648308402655568e6 0.0
4.648308402655568e6 -3.124025483699563e6 0.0
0.0 0.0 0.0

-522209.5759588396 1.5992627272315e7 0.0
1.5992627272315e7 -7.633393008221021e6 0.0
0.0 0.0 0.0

-3.73243273116045e6 2.236894720044719e7 0.0
2.236894720044719e7 5.937514775294717e6 0.0
0.0 0.0 0.0

3.0248013681709254e6 1.776620506481154e7 0.0
1.776620506481154e7 3.011565918599836e7 0.0
0.0 0.0 0.0

7.968902638481334e6 1.9216210699294366e7 0.0
1.9216210699294366e7 -3.4950954810228213e6 0.0
0.0 0.0 0.0

-6.868164368982926e6 442933.1840564747 0.0
442933.1840564747 5.783290288765735e7 0.0
0.0 0.0 0.0

-1.0275261347861625e7 8.518402365937136e6 0.0
8.518402365937136e6 3.388479335073284e7 0.0
0.0 0.0 0.0

-1.085945170411472e7 1.3573673080251154e7 0.0
1.3573673080251154e7 1.8300068858599033e7 0.0
0.0 0.0 0.0

773105.4654222482 1.55920049502162e7 0.0
1.55920049502162e7 7.3715867702889675e6 0.0
0.0 0.0 0.0

-8.653676437660292e6 2.731954148583401e6 0.0
2.731954148583401e6 1.2651607674116794e7 0.0
0.0 0.0 0.0

-8.911718881689925e6 1.875576779325942e7 0.0
1.875576779325942e7 -1.3302662355638715e6 0.0
0.0 0.0 0.0

4.528147966345888e6 5.003159103060606e6 0.0
5.003159103060606e6 -2.4613317357716404e7 0.0
0.0 0.0 0.0

-4.768618239396712e6 1.5093793042618223e7 0.0
1.5093793042618223e7 -3.0816095820513364e7 0.0
0.0 0.0 0.0

760380.9263613253 1.5302490094032554e7 0.0
1.5302490094032554e7 4.579890528753232e6 0.0
0.0 0.0 0.0

1.0367594946537208e7 2.321538386566092e7 0.0
2.321538386566092e7 -7.016053549560297e6 0.0
0.0 0.0 0.0

912075.9330504076 1.791337177725424e7 0.0
1.791337177725424e7 -7.603690914222458e6 0.0
0.0 0.0 0.0

-1.5798584804314334e7 2.2343154639010184e7 0.0
2.2343154639010184e7 -4.027023944684831e6 0.0
0.0 0.0 0.0

-2.5069724768831087e6 2.2593632764545593e7 0.0
2.2593632764545593e7 -1.0102030048922738e6 0.0
0.0 0.0 0.0

-660759.8102191659 6.441306657716506e6 0.0
6.441306657716506e6 -3.481957785011849e6 0.0
0.0 0.0 0.0

-5.087923270906018e6 3.0428988211400475e7 0.0
3.0428988211400475e7 4.6029064400024265e6 0.0
0.0 0.0 0.0

-3.5511340857293117e6 1.780523087333982e7 0.0
1.780523087333982e7 2.829716459028885e6 0.0
0.0 0.0 0.0

-1.1387757191449422e7 5.699294916016856e6 0.0
5.699294916016856e6 1.364150792441807e7 0.0
0.0 0.0 0.0

-3.963387502376159e6 1.7689613595158074e7 0.0
1.7689613595158074e7 1.279272375819984e6 0.0
0.0 0.0 0.0

-2.2389125080578476e6 2.7404358714831444e6 0.0
2.7404358714831444e6 715328.9077898595 0.0
0.0 0.0 0.0

592020.1024624123 9.206359575925412e6 0.0
9.206359575925412e6 -1.1670791317330716e7 0.0
0.0 0.0 0.0

1.5407335112293083e6 1.1651572533241045e7 0.0
1.1651572533241045e7 -2.6137156711760376e7 0.0
0.0 0.0 0.0

-6.297323475103354e6 1.9485607194254387e7 0.0
1.9485607194254387e7 -5.971535303787211e6 0.0
0.0 0.0 0.0

-5.77501493011543e6 1.751081743087802e7 0.0
1.751081743087802e7 1.8056171542641044e7 0.0
0.0 0.0 0.0

-730131.260466935 1.5771381224145293e7 0.0
1.5771381224145293e7 -5.009873410499375e6 0.0
0.0 0.0 0.0

3.416783334986715e6 4.346361977940768e6 0.0
4.346361977940768e6 -1.1533023327536335e7 0.0
0.0 0.0 0.0

-2.0466336519196406e6 2.0498412035508614e7 0.0
2.0498412035508614e7 -4.1411804923742637e6 0.0
0.0 0.0 0.0

-1.8778087975794654e6 2.336896310016943e7 0.0
2.336896310016943e7 -1.733046094144102e6 0.0
0.0 0.0 0.0

2.717216218313171e6 1.921612661729289e7 0.0
1.921612661729289e7 -5.583966551067898e6 0.0
0.0 0.0 0.0

-1.1626395614900883e7 8.476606869047852e6 0.0
8.476606869047852e6 1.4817370030631445e7 0.0
0.0 0.0 0.0

-1.0902081707571018e6 1.5004367611103097e7 0.0
1.5004367611103097e7 -1.592934102494632e7 0.0
0.0 0.0 0.0

-5.018594149639558e6 2.6745909719483465e7 0.0
2.6745909719483465e7 3.4610356530232187e6 0.0
0.0 0.0 0.0

-4.3580736508906e6 2.619643074747865e7 0.0
2.619643074747865e7 3.2319433632930852e6 0.0
0.0 0.0 0.0

-1.1378454523057882e6 1.3770909213892305e7 0.0
1.3770909213892305e7 -2.41206942311383e7 0.0
0.0 0.0 0.0

-2.2289104878048673e6 1.4830258511911374e7 0.0
1.4830258511911374e7 -9.882615062099807e6 0.0
0.0 0.0 0.0

253504.08398668387 1.5879887722373867e7 0.0
1.5879887722373867e7 3.8442128114961227e6 0.0
0.0 0.0 0.0

2.865477763387846e6 8.857847468250493e6 0.0
8.857847468250493e6 -2.5173918659091435e7 0.0
0.0 0.0 0.0

-1.1488028577182526e7 9.54078785706957e6 0.0
9.54078785706957e6 2.79441047484482e7 0.0
0.0 0.0 0.0

140871.59897571802 1.1344204811107997e7 0.0
1.1344204811107997e7 -5.1937417211046346e7 0.0
0.0 0.0 0.0

4.768540564355094e6 2.8253089480039947e7 0.0
2.8253089480039947e7 -5.989213959116107e6 0.0
0.0 0.0 0.0

3.984507920290472e6 1.5861999161360512e7 0.0
1.5861999161360512e7 1.9351324315861963e7 0.0
0.0 0.0 0.0

1.0634394154354362e6 1.6841417238617532e7 0.0
1.6841417238617532e7 2.6818602683316797e7 0.0
0.0 0.0 0.0

1.538664641651853e7 1.9923329669221424e7 0.0
1.9923329669221424e7 8.272976692359922e6 0.0
0.0 0.0 0.0

-492927.72300541075 1.552478817925121e7 0.0
1.552478817925121e7 2.3919065725876363e6 0.0
0.0 0.0 0.0

-1.893416381722923e6 2.0213543283190366e7 0.0
2.0213543283190366e7 -3.945733930442581e6 0.0
0.0 0.0 0.0

-2.1903108943758674e7 2.2403485387603674e7 0.0
2.2403485387603674e7 -4.649481491509771e6 0.0
0.0 0.0 0.0

-358247.2804166446 1.475626001656873e7 0.0
1.475626001656873e7 670040.0077021711 0.0
0.0 0.0 0.0

-2.995147326861363e6 1.852798780828831e7 0.0
1.852798780828831e7 4.436882686905136e6 0.0
0.0 0.0 0.0

4.742343954771738e6 4.18448835933797e6 0.0
4.18448835933797e6 -2.065265827695379e7 0.0
0.0 0.0 0.0

-9.444813204055075e6 2.003521518315204e7 0.0
2.003521518315204e7 141580.0105139739 0.0
0.0 0.0 0.0

-1.241888251709034e7 3.1895023718076114e7 0.0
3.1895023718076114e7 5.422458259832404e6 0.0
0.0 0.0 0.0

-1.015960283870352e7 -131468.53671493742 0.0
-131468.53671493742 2.0417694458019294e7 0.0
0.0 0.0 0.0

6.349952922988202e6 2.4080190083985653e7 0.0
2.4080190083985653e7 -5.328937306446614e6 0.0
0.0 0.0 0.0

-5.856174993769497e6 9.10368932286764e6 0.0
9.10368932286764e6 6.265739282232131e7 0.0
0.0 0.0 0.0

-9.363316843722718e6 -4.818561301954885e6 0.0
-4.818561301954885e6 2.2854975099344753e7 0.0
0.0 0.0 0.0

-9.111461106398188e6 1.723474913647405e7 0.0
1.723474913647405e7 -3.943994368978465e7 0.0
0.0 0.0 0.0

-50790.71760345856 1.6633659590138221e7 0.0
1.6633659590138221e7 -9.895676893383984e6 0.0
0.0 0.0 0.0

-1.6676789056353844e6 2.4047683225781303e7 0.0
2.4047683225781303e7 -659608.6032206948 0.0
0.0 0.0 0.0

-6.831219481202735e6 1.701564884744147e7 0.0
1.701564884744147e7 -4.37494057053048e6 0.0
0.0 0.0 0.0

-367133.64606636076 9.07420983984883e6 0.0
9.07420983984883e6 -3.1362649761061748e6 0.0
0.0 0.0 0.0

-2.5257236266635144e6 2.1639569078371476e7 0.0
2.1639569078371476e7 -2.039850898578314e6 0.0
0.0 0.0 0.0

-3.2007101983121014e6 2.547118812630106e7 0.0
2.547118812630106e7 2.917302507743627e6 0.0
0.0 0.0 0.0

-1.5144374976251074e6 2.4143382663696777e7 0.0
2.4143382663696777e7 -931442.285802527 0.0
0.0 0.0 0.0

-1.4366176157332063e6 1.0609611261310764e7 0.0
1.0609611261310764e7 -5.723092657526172e7 0.0
0.0 0.0 0.0

-4.075369634023241e6 1.6659921202986753e7 0.0
1.6659921202986753e7 -1.1880806765986273e7 0.0
0.0 0.0 0.0

-8.722857015508004e6 1.2339770356324771e6 0.0
1.2339770356324771e6 4.627182987998966e7 0.0
0.0 0.0 0.0

8.622446280194424e6 2.0141591518151462e7 0.0
2.0141591518151462e7 4.60054424262893e7 0.0
0.0 0.0 0.0

-4.050811317155469e7 1.916534489931124e6 0.0
1.916534489931124e6 8.2045704287966695e6 0.0
0.0 0.0 0.0

2.663274113292793e7 2.0844987845963914e7 0.0
2.0844987845963914e7 187791.38189545274 0.0
0.0 0.0 0.0

914613.8343949812 1.3509477425112238e7 0.0
1.3509477425112238e7 -2.204687348263558e7 0.0
0.0 0.0 0.0

2.357263309913172e6 5.372365145504394e6 0.0
5.372365145504394e6 -7.639651559355309e6 0.0
0.0 0.0 0.0

3.6917620920747116e7 1.975101598589264e7 0.0
1.975101598589264e7 -5.984279933223626e6 0.0
0.0 0.0 0.0

3.4593058618372576e6 1.114026366928762e7 0.0
1.114026366928762e7 -1.4998414092493102e7 0.0
0.0 0.0 0.0

1.9457168506144553e7 1.9713569390168324e7 0.0
1.9713569390168324e7 8.219216847127149e6 0.0
0.0 0.0 0.0

-2.75360032292688e6 2.245029810992321e7 0.0
2.245029810992321e7 -522644.58129394223 0.0
0.0 0.0 0.0

-4.501020602971349e6 2.2768095283620402e7 0.0
2.2768095283620402e7 6.173129337603227e6 0.0
0.0 0.0 0.0

-532027.7604683202 1.1999266831690006e7 0.0
1.1999266831690006e7 -7.960111625933602e6 0.0
0.0 0.0 0.0

-7.612557289935783e6 1.2114047452069957e7 0.0
1.2114047452069957e7 -1.377993803053725e6 0.0
0.0 0.0 0.0

-3.4745810009581945e6 1.4943858833246807e7 0.0
1.4943858833246807e7 -1.52661370199011e7 0.0
0.0 0.0 0.0

-1.9379452433168776e6 1.7794291332722433e7 0.0
1.7794291332722433e7 6.579547841402131e6 0.0
0.0 0.0 0.0

763194.969739597 1.7392176885123473e7 0.0
1.7392176885123473e7 8.41089457073322e6 0.0
0.0 0.0 0.0

-6.500650188735485e6 7.747353843678172e6 0.0
7.747353843678172e6 5.8351948470199555e7 0.0
0.0 0.0 0.0

-3.119077045075695e6 2.1194372104066864e7 0.0
2.1194372104066864e7 -285830.1787390155 0.0
0.0 0.0 0.0

4.795407730677816e6 2.7595845998098147e6 0.0
2.7595845998098147e6 -2.3555539742266342e7 0.0
0.0 0.0 0.0

-4.387090465712238e6 1.8620194087056164e7 0.0
1.8620194087056164e7 1.2690952229220904e7 0.0
0.0 0.0 0.0

213167.9308917583 1.7411642959971126e7 0.0
1.7411642959971126e7 9.619390483489487e6 0.0
0.0 0.0 0.0

7.207166442630136e6 2.0574705616799563e7 0.0
2.0574705616799563e7 -5.112016864349691e6 0.0
0.0 0.0 0.0

-1.1172723568381905e6 2.0445325243216116e7 0.0
2.0445325243216116e7 -6.354032453883376e6 0.0
0.0 0.0 0.0

-3.891163682606045e6 2.7841469664831735e7 0.0
2.7841469664831735e7 2.3610912769214637e6 0.0
0.0 0.0 0.0

-1.4142840024898096e6 6.873028615285477e6 0.0
6.873028615285477e6 -2.4320183698669397e6 0.0
0.0 0.0 0.0

-9.758507849907735e6 2.672588407738703e7 0.0
2.672588407738703e7 5.580422555895323e6 0.0
0.0 0.0 0.0

-2.89216982196078e6 2.3071501853437454e7 0.0
2.3071501853437454e7 2.768878131187371e6 0.0
0.0 0.0 0.0

-1.043453445898252e7 1.468712162821445e7 0.0
1.468712162821445e7 1.826556194910029e7 0.0
0.0 0.0 0.0

2.1558026732761413e7 1.9254809938136958e7 0.0
1.9254809938136958e7 -3.5126380553363143e6 0.0
0.0 0.0 0.0

387052.043403829 1.619768473729579e7 0.0
1.619768473729579e7 -1.2046644054695802e7 0.0
0.0 0.0 0.0

-2.9653523251091065e6 2.229350223573352e7 0.0
2.229350223573352e7 58202.45696680923 0.0
0.0 0.0 0.0

-232284.8220877922 1.1025910579759274e7 0.0
1.1025910579759274e7 -8.247452982013853e6 0.0
0.0 0.0 0.0

-2.104808849508366e6 1.7638033823338468e7 0.0
1.7638033823338468e7 1.0407485192296557e7 0.0
0.0 0.0 0.0

-1.097617160792388e7 1.1817455234169742e7 0.0
1.1817455234169742e7 1.4471914905474135e6 0.0
0.0 0.0 0.0

-1.0365706404341815e7 1.949323405104007e7 0.0
1.949323405104007e7 -243841.95751197496 0.0
0.0 0.0 0.0

44356.63669755729 1.647539703955043e7 0.0
1.647539703955043e7 -9.845581302464008e6 0.0
0.0 0.0 0.0

5.604687740953146e6 1.423605968415991e7 0.0
1.423605968415991e7 4.277557794745595e6 0.0
0.0 0.0 0.0

31751.82011922449 1.5728997698269729e7 0.0
1.5728997698269729e7 -1.4953639427538358e7 0.0
0.0 0.0 0.0

-6.106816753881743e6 1.739194296306942e7 0.0
1.739194296306942e7 1.7927247503971823e7 0.0
0.0 0.0 0.0

-1.5348576679020979e7 1.7529712599875845e7 0.0
1.7529712599875845e7 4.981846159852146e6 0.0
0.0 0.0 0.0

-2.202989495026473e6 1.7618199650969595e7 0.0
1.7618199650969595e7 2.5595987472882206e6 0.0
0.0 0.0 0.0

-1.2610995796494268e7 4.756176469150048e6 0.0
4.756176469150048e6 1.913332836566327e7 0.0
0.0 0.0 0.0

549468.756725336 1.665799934559751e7 0.0
1.665799934559751e7 1.3433676668696467e7 0.0
0.0 0.0 0.0

7.962270135562254e6 2.5956068016982794e7 0.0
2.5956068016982794e7 -6.982065665875227e6 0.0
0.0 0.0 0.0

-3.2058569673468187e7 2.1466807921456665e7 0.0
2.1466807921456665e7 5.437551371320896e6 0.0
0.0 0.0 0.0

4.1900692297548205e6 3.123304011202111e7 0.0
3.123304011202111e7 -3.209747659168398e6 0.0
0.0 0.0 0.0

-1.0984896690003242e7 2.0301108866826024e7 0.0
2.0301108866826024e7 422561.56544926716 0.0
0.0 0.0 0.0

1.9270743525924697e6 2.879849876190372e7 0.0
2.879849876190372e7 -1.4055203343729214e6 0.0
0.0 0.0 0.0

-1.1683123613867745e7 1.215364712819697e6 0.0
1.215364712819697e6 1.8307844634785723e7 0.0
0.0 0.0 0.0

9.183155545943467e6 1.9816212117349282e7 0.0
1.9816212117349282e7 -3.918611794080521e6 0.0
0.0 0.0 0.0

-3.676165291200131e6 2.6504420248307552e7 0.0
2.6504420248307552e7 3.7112084043171667e6 0.0
0.0 0.0 0.0

-3.6921825861456213e6 1.8330272982780907e7 0.0
1.8330272982780907e7 678892.0171741254 0.0
0.0 0.0 0.0

254247.78235484846 1.4765429914236806e7 0.0
1.4765429914236806e7 -1.858173583139364e7 0.0
0.0 0.0 0.0

-5.540474821709862e6 2.445186479292449e7 0.0
2.445186479292449e7 5.563267274266226e6 0.0
0.0 0.0 0.0

-6.813691635160031e6 1.6756317069432557e7 0.0
1.6756317069432557e7 -782468.5238549083 0.0
0.0 0.0 0.0

1.2898677454641035e6 2.834980654780927e7 0.0
2.834980654780927e7 -3.084686678183728e6 0.0
0.0 0.0 0.0

-1.2496779718987163e7 2.717251189645203e7 0.0
2.717251189645203e7 6.934551513211842e6 0.0
0.0 0.0 0.0

5.995172018650904e6 2.0057462652407445e7 0.0
2.0057462652407445e7 -4.683138384164002e6 0.0
0.0 0.0 0.0

3.926891842402568e6 5.65009904382463e6 0.0
5.65009904382463e6 -1.4223721531779706e7 0.0
0.0 0.0 0.0

-3.6126176664084606e6 1.5197282400121087e7 0.0
1.5197282400121087e7 -2.5560374617097482e7 0.0
0.0 0.0 0.0

3.4264637912630048e6 4.237029726850806e6 0.0
4.237029726850806e6 -1.2417010768927447e7 0.0
0.0 0.0 0.0

2.4377619986033337e6 1.6361427064958576e7 0.0
1.6361427064958576e7 1.8569212818159472e7 0.0
0.0 0.0 0.0

3.0977448889517784e6 1.8510635697471753e7 0.0
1.8510635697471753e7 -4.367298875637282e6 0.0
0.0 0.0 0.0

4.334366003322041e6 2.431751262528056e7 0.0
2.431751262528056e7 -4.850086886862937e6 0.0
0.0 0.0 0.0

-1.1112692182829194e7 1.5085164100609187e7 0.0
1.5085164100609187e7 2.0704569714912325e7 0.0
0.0 0.0 0.0

101207.96795457043 1.2528308497700373e7 0.0
1.2528308497700373e7 -7.158740461377608e6 0.0
0.0 0.0 0.0

-924929.9413674045 7.162270203663774e6 0.0
7.162270203663774e6 5.106816849607037e6 0.0
0.0 0.0 0.0

1.271512420496637e6 9.870158383048678e6 0.0
9.870158383048678e6 -4.314392495575216e7 0.0
0.0 0.0 0.0

1.1796997882374052e6 1.3955103169636887e7 0.0
1.3955103169636887e7 4.045701202169938e6 0.0
0.0 0.0 0.0

-1.2061838468290966e7 2.46333869703157e7 0.0
2.46333869703157e7 5.93051954494079e6 0.0
0.0 0.0 0.0

-595623.0180063746 1.5345887302706001e7 0.0
1.5345887302706001e7 -1.0848054288140845e7 0.0
0.0 0.0 0.0

1.625576128488947e7 1.8572631167582627e7 0.0
1.8572631167582627e7 4.82840869074695e6 0.0
0.0 0.0 0.0

-1.1686747937939111e7 4.025763219417068e6 0.0
4.025763219417068e6 2.4905392227370426e7 0.0
0.0 0.0 0.0

-2.644047025923652e7 2.443311349767225e7 0.0
2.443311349767225e7 4.202223534253184e6 0.0
0.0 0.0 0.0

1.987178536955094e7 2.6254814961128224e7 0.0
2.6254814961128224e7 -1.2016805142225582e7 0.0
0.0 0.0 0.0

-4.563039479820998e6 2.2941140842866562e7 0.0
2.2941140842866562e7 6.903341672986234e6 0.0
0.0 0.0 0.0

-326750.09349739435 1.3524638680660944e7 0.0
1.3524638680660944e7 1.706609542227881e6 0.0
0.0 0.0 0.0

-9.878734728722643e6 1.4367325637224222e7 0.0
1.4367325637224222e7 2.4330764548111748e7 0.0
0.0 0.0 0.0

-1.036741233578227e7 -3.4206800311765075e6 0.0
-3.4206800311765075e6 2.387142507832354e7 0.0
0.0 0.0 0.0

-9345.520458089188 1.5912909630392047e7 0.0
1.5912909630392047e7 -1.3067619914365713e7 0.0
0.0 0.0 0.0

-6.505182413162219e6 2.147663654707904e7 0.0
2.147663654707904e7 -7.715936500700302e6 0.0
0.0 0.0 0.0

-364083.0428673192 1.620001291131915e7 0.0
1.620001291131915e7 -8.83437270580766e6 0.0
0.0 0.0 0.0

-8.807110004453296e6 9.370551289740618e6 0.0
9.370551289740618e6 3.950641114137287e7 0.0
0.0 0.0 0.0

1.255611338425829e6 1.275331589175394e7 0.0
1.275331589175394e7 -2.1763075847675744e7 0.0
0.0 0.0 0.0

-6.94242402305848e6 2.148343509585914e7 0.0
2.148343509585914e7 -7.676683196075393e6 0.0
0.0 0.0 0.0

311790.3788042143 1.4440638009301985e7 0.0
1.4440638009301985e7 -1.8482589257399768e7 0.0
0.0 0.0 0.0

1.6405106929910952e7 1.8645959892755218e7 0.0
1.8645959892755218e7 7.654051742007391e6 0.0
0.0 0.0 0.0

-1.0036949969804952e7 7.5866690940151e6 0.0
7.5866690940151e6 3.639997420294702e7 0.0
0.0 0.0 0.0

868935.7551302233 1.6801155686104063e7 0.0
1.6801155686104063e7 -1.5880862753848378e6 0.0
0.0 0.0 0.0

-3.7109767611341923e6 1.798996520580961e7 0.0
1.798996520580961e7 1.4621816855534343e7 0.0
0.0 0.0 0.0

675035.4983514817 2.3447552362372346e7 0.0
2.3447552362372346e7 -3.752143942247365e6 0.0
0.0 0.0 0.0

3.353066384253363e6 9.058550221656721e6 0.0
9.058550221656721e6 -2.202341427153652e7 0.0
0.0 0.0 0.0

2.183381171805277e6 8.567824871346764e6 0.0
8.567824871346764e6 -9.896331737913739e6 0.0
0.0 0.0 0.0

1.29203943255171e6 1.023692723146394e7 0.0
1.023692723146394e7 -3.7559524576932736e7 0.0
0.0 0.0 0.0

-6.300040663043359e6 1.9758631480468806e7 0.0
1.9758631480468806e7 -3.1250489792128964e6 0.0
0.0 0.0 0.0

-1.129740782710056e7 7.237032424302641e6 0.0
7.237032424302641e6 3.2387601485063918e7 0.0
0.0 0.0 0.0

-5.227929188024461e6 1.965043349130114e7 0.0
1.965043349130114e7 -5.659923928616973e6 0.0
0.0 0.0 0.0

-128679.16289167572 1.543476055689304e7 0.0
1.543476055689304e7 -9.152942612632804e6 0.0
0.0 0.0 0.0

2.46938799222989e6 8.1599315369084785e6 0.0
8.1599315369084785e6 -3.354484842807523e7 0.0
0.0 0.0 0.0

-1.0710105872026524e7 1.324365663091376e7 0.0
1.324365663091376e7 2.5674924928516008e7 0.0
0.0 0.0 0.0

1.9043747568634897e6 1.5403790563541017e7 0.0
1.5403790563541017e7 8.303038286677091e6 0.0
0.0 0.0 0.0

947122.7396512162 1.151230629228832e7 0.0
1.151230629228832e7 -2.8185767873242904e7 0.0
0.0 0.0 0.0

4.465005096646043e6 3.2935448131366777e6 0.0
3.2935448131366777e6 -2.6081429077915132e7 0.0
0.0 0.0 0.0

-5.029561477582155e6 1.827975007059596e7 0.0
1.827975007059596e7 1.2652011710446263e7 0.0
0.0 0.0 0.0

-5.023263289842012e6 2.044681338119574e7 0.0
2.044681338119574e7 -7.048491105700886e6 0.0
0.0 0.0 0.0

1.4277693821462789e6 1.1791181071095195e7 0.0
1.1791181071095195e7 -1.1329469808314456e7 0.0
0.0 0.0 0.0

-1.0651754356205916e7 737251.7148473364 0.0
737251.7148473364 3.0125688849778607e7 0.0
0.0 0.0 0.0

-716884.1562155251 2.5167426329158493e6 0.0
2.5167426329158493e6 1.0256174860986574e6 0.0
0.0 0.0 0.0

-7.899473479578242e6 1.6628614326225942e7 0.0
1.6628614326225942e7 1.5109285112780938e7 0.0
0.0 0.0 0.0

1.7410450728589125e7 2.042413736324877e7 0.0
2.042413736324877e7 9.683311510995802e6 0.0
0.0 0.0 0.0

1.2859968729498392e7 1.9291174728330836e7 0.0
1.9291174728330836e7 8.174541056460567e6 0.0
0.0 0.0 0.0

-1.0015266296358898e7 2.0534738797087528e7 0.0
2.0534738797087528e7 -6.606439575944205e6 0.0
0.0 0.0 0.0

-2.4670410290891244e6 1.3604387764742928e7 0.0
1.3604387764742928e7 -9.722948003223058e6 0.0
0.0 0.0 0.0

-5.426605086725555e6 2.0481388222396348e7 0.0
2.0481388222396348e7 -6.535445627656516e6 0.0
0.0 0.0 0.0

-7.280165806404417e6 1.9895017950019427e7 0.0
1.9895017950019427e7 -4.763103076025658e6 0.0
0.0 0.0 0.0

1.3338399534891192e6 1.0717258891826393e7 0.0
1.0717258891826393e7 -3.3605885368062064e7 0.0
0.0 0.0 0.0

-58743.0320786502 4.241813174908999e6 0.0
4.241813174908999e6 -2.975667220273316e6 0.0
0.0 0.0 0.0

-109460.74462338688 6.36800992087814e6 0.0
6.36800992087814e6 -1.6366398704366472e6 0.0
0.0 0.0 0.0

596705.005243578 1.4768112174789961e7 0.0
1.4768112174789961e7 874348.315449247 0.0
0.0 0.0 0.0

1.1661928539228855e7 1.975716128962037e7 0.0
1.975716128962037e7 9.006326910598073e6 0.0
0.0 0.0 0.0

252308.29863847164 1.4882976143623412e7 0.0
1.4882976143623412e7 5.522682490440686e6 0.0
0.0 0.0 0.0

-5.990094717942079e6 1.7515636670359593e7 0.0
1.7515636670359593e7 1.2845926906177992e7 0.0
0.0 0.0 0.0

-2.1757220035987187e7 8.80632231628493e6 0.0
8.80632231628493e6 1.019530719205412e7 0.0
0.0 0.0 0.0

1.0829142399284076e6 1.5459130302371442e7 0.0
1.5459130302371442e7 6.67241397499368e6 0.0
0.0 0.0 0.0

3.158684398538367e6 6.052794739873784e6 0.0
6.052794739873784e6 -1.4840982958344826e7 0.0
0.0 0.0 0.0

-1.2017955799121486e7 2.59014545582179e7 0.0
2.59014545582179e7 6.465745273759393e6 0.0
0.0 0.0 0.0

-1.0171807791415172e7 -1.0311741193753302e6 0.0
-1.0311741193753302e6 3.1995309777933493e7 0.0
0.0 0.0 0.0

-1.0404154694928594e6 1.711302700620105e7 0.0
1.711302700620105e7 -6.991616525410026e6 0.0
0.0 0.0 0.0

4.323135866511994e6 1.8721462269918073e7 0.0
1.8721462269918073e7 1.0693631543786101e7 0.0
0.0 0.0 0.0

-5.106451887511131e6 2.0291149056080382e7 0.0
2.0291149056080382e7 -6.90557132581225e6 0.0
0.0 0.0 0.0

-1.4058048084950624e6 1.4224938830830181e7 0.0
1.4224938830830181e7 -2.1995697284905273e7 0.0
0.0 0.0 0.0

1.341894552258884e7 2.0119828991416376e7 0.0
2.0119828991416376e7 9.672045062643424e6 0.0
0.0 0.0 0.0

-1.6116388566018003e6 1.5451716315576809e7 0.0
1.5451716315576809e7 -1.6560988046024166e7 0.0
0.0 0.0 0.0

511301.6433402896 1.62027528904239e7 0.0
1.62027528904239e7 8.103336310562893e6 0.0
0.0 0.0 0.0

1.5403622575528147e6 1.790318301970813e7 0.0
1.790318301970813e7 1.1865898456957398e7 0.0
0.0 0.0 0.0

-4.441357270297844e6 1.807383101824713e7 0.0
1.807383101824713e7 1.3279812177003473e7 0.0
0.0 0.0 0.0

-2.8947500241475585e6 1.7843391906676605e7 0.0
1.7843391906676605e7 8.52816473854148e6 0.0
0.0 0.0 0.0

3.885691934534041e6 5.462371089827018e6 0.0
5.462371089827018e6 -2.530129355556346e7 0.0
0.0 0.0 0.0

-984071.6666845037 2.5086331783140976e7 0.0
2.5086331783140976e7 -992049.1051501194 0.0
0.0 0.0 0.0

-4.366620823485622e6 1.7136858473279502e7 0.0
1.7136858473279502e7 -1.0031805742980577e7 0.0
0.0 0.0 0.0

2.059227874927732e7 1.7156673704749815e7 0.0
1.7156673704749815e7 6.695281841433173e6 0.0
0.0 0.0 0.0

-7.315785107545173e6 2.3955381310820308e7 0.0
2.3955381310820308e7 6.264956549412216e6 0.0
0.0 0.0 0.0

4.252242338904634e6 4.635994851288518e6 0.0
4.635994851288518e6 -2.892883534177628e7 0.0
0.0 0.0 0.0

-4.0922740686518475e6 1.6130866559221566e7 0.0
1.6130866559221566e7 4.966727040548856e6 0.0
0.0 0.0 0.0

9.876513685027212e6 1.759884462267673e7 0.0
1.759884462267673e7 5.035992831522567e6 0.0
0.0 0.0 0.0

2.7333255798913073e7 1.5340396660523575e7 0.0
1.5340396660523575e7 3.6622554751693895e6 0.0
0.0 0.0 0.0

-4.67562990465261e6 2.6520271927418713e7 0.0
2.6520271927418713e7 4.600593013848951e6 0.0
0.0 0.0 0.0

382627.2412332287 1.637417267679416e7 0.0
1.637417267679416e7 -1.4086595116965558e7 0.0
0.0 0.0 0.0

-1.0369701113833366e7 7.62053803542549e6 0.0
7.62053803542549e6 1.6306517504738618e7 0.0
0.0 0.0 0.0

-1.0476135474803042e7 -1.0317359234548162e6 0.0
-1.0317359234548162e6 3.0481215490961075e7 0.0
0.0 0.0 0.0

1.061799125789784e6 1.5310289286109172e7 0.0
1.5310289286109172e7 4.48591357070897e6 0.0
0.0 0.0 0.0

7.605938101506563e6 1.6122759297276136e7 0.0
1.6122759297276136e7 8.961159580533264e6 0.0
0.0 0.0 0.0

-1.153035992231959e7 1.7868177778244393e6 0.0
1.7868177778244393e6 2.360440160324027e7 0.0
0.0 0.0 0.0

-2.5512661308436287e6 1.1009763836740712e7 0.0
1.1009763836740712e7 -2.4403251022105264e6 0.0
0.0 0.0 0.0

-2.672453900582751e6 1.731128500362996e7 0.0
1.731128500362996e7 -1.033421668442548e7 0.0
0.0 0.0 0.0

-2.2851436639399547e6 1.4462622015620977e7 0.0
1.4462622015620977e7 -2.039831918752925e7 0.0
0.0 0.0 0.0

-1.6092158573329342e6 2.460491324501919e7 0.0
2.460491324501919e7 -667015.4120415893 0.0
0.0 0.0 0.0

1.1255814087597672e6 2.3880186910089463e7 0.0
2.3880186910089463e7 -4.0222651035877317e6 0.0
0.0 0.0 0.0

675925.4317082849 3.0672606752775844e7 0.0
3.0672606752775844e7 -3.046636296585343e6 0.0
0.0 0.0 0.0

-1.2083678091190025e7 3.048365109346395e7 0.0
3.048365109346395e7 6.782611008492977e6 0.0
0.0 0.0 0.0

4.6918724882720765e6 1.6572672389578797e7 0.0
1.6572672389578797e7 1.823407107883636e7 0.0
0.0 0.0 0.0

-4.54554921542196e6 1.526927887425484e7 0.0
1.526927887425484e7 -5.472077855109245e7 0.0
0.0 0.0 0.0

-9.923189897271113e6 -2.4818690382132772e6 0.0
-2.4818690382132772e6 1.5358189903355595e7 0.0
0.0 0.0 0.0

-6.4493377520191185e6 1.4126528383029647e7 0.0
1.4126528383029647e7 -2.3275209003716443e7 0.0
0.0 0.0 0.0

-2.8617702278402583e6 1.2942740173080582e7 0.0
1.2942740173080582e7 -1.0828058138109095e7 0.0
0.0 0.0 0.0

3.4141070131175118e6 1.6986356996642668e7 0.0
1.6986356996642668e7 1.7967102463965736e7 0.0
0.0 0.0 0.0

-5.910061199626666e6 1.5439304722567359e7 0.0
1.5439304722567359e7 -2.7979076785785146e7 0.0
0.0 0.0 0.0

-4.51842759864452e6 1.4145584234009178e7 0.0
1.4145584234009178e7 -2.004723767362884e7 0.0
0.0 0.0 0.0

1.123862924136786e7 1.961209837295236e7 0.0
1.961209837295236e7 7.628150180001918e6 0.0
0.0 0.0 0.0

-4.170480240049095e6 1.7833657148601312e7 0.0
1.7833657148601312e7 -8.956111995135967e6 0.0
0.0 0.0 0.0

3.4444764690405894e6 8.404205819882289e6 0.0
8.404205819882289e6 -2.4566965727267556e7 0.0
0.0 0.0 0.0

636792.8893425697 1.5331891890718836e7 0.0
1.5331891890718836e7 2.3245325179073256e6 0.0
0.0 0.0 0.0

-6.894125503259617e6 2.1005224516709264e7 0.0
2.1005224516709264e7 -7.539374190700439e6 0.0
0.0 0.0 0.0

2.340495546827198e6 1.5512010907805217e7 0.0
1.5512010907805217e7 1.1292051488226252e7 0.0
0.0 0.0 0.0

3.5521012830230985e6 4.280001253991637e6 0.0
4.280001253991637e6 -1.270548815861105e7 0.0
0.0 0.0 0.0

-3.134612596531975e6 2.2145261370848965e7 0.0
2.2145261370848965e7 723686.8596778007 0.0
0.0 0.0 0.0

-3.729596647566539e6 2.4934738336645387e7 0.0
2.4934738336645387e7 2.810080822019685e6 0.0
0.0 0.0 0.0

-1.1043706016725525e7 1.327370298901163e7 0.0
1.327370298901163e7 2.4479389107158586e7 0.0
0.0 0.0 0.0

869703.362754189 1.584709719463181e7 0.0
1.584709719463181e7 6.736800748838261e6 0.0
0.0 0.0 0.0

2.0553290007563333e6 1.827562864545237e7 0.0
1.827562864545237e7 1.2625228659144126e7 0.0
0.0 0.0 0.0

-3.673966083840398e6 2.758509353084477e7 0.0
2.758509353084477e7 3.3288208093496766e6 0.0
0.0 0.0 0.0

-5.819938773213841e6 1.7476252050835706e7 0.0
1.7476252050835706e7 1.348932556212137e7 0.0
0.0 0.0 0.0

-9.779986141046356e6 -4.235341512665238e6 0.0
-4.235341512665238e6 1.855069777824439e7 0.0
0.0 0.0 0.0

-3.413725763291158e6 2.4913179550396323e7 0.0
2.4913179550396323e7 3.8875194666084945e6 0.0
0.0 0.0 0.0

-2.0095973104083694e6 2.1437859372252263e7 0.0
2.1437859372252263e7 -1.860516468057758e6 0.0
0.0 0.0 0.0

-4.278408729440477e6 1.7404028071665827e7 0.0
1.7404028071665827e7 2.1083042127344236e6 0.0
0.0 0.0 0.0

-1.225107741006703e6 2.4826577411312833e7 0.0
2.4826577411312833e7 -1.0802069585796867e6 0.0
0.0 0.0 0.0

-1.2213498692346134e6 2.4435532684856977e7 0.0
2.4435532684856977e7 -825788.7494568117 0.0
0.0 0.0 0.0

-1.4656969982396965e6 1.652964120729356e7 0.0
1.652964120729356e7 -7.848515974892736e6 0.0
0.0 0.0 0.0

2.5416749804823343e6 1.633044746815378e7 0.0
1.633044746815378e7 8.472250607207388e6 0.0
0.0 0.0 0.0

3.0699238232404087e6 8.33483342962279e6 0.0
8.33483342962279e6 -2.322049880946239e7 0.0
0.0 0.0 0.0

-8.2853682684269985e6 1.5239705731020082e7 0.0
1.5239705731020082e7 -3.2723386916765556e7 0.0
0.0 0.0 0.0

-3.217742075843675e6 1.8641109681126956e7 0.0
1.8641109681126956e7 2.642859977641077e6 0.0
0.0 0.0 0.0

-2.5821843588590212e7 2.760199629724058e7 0.0
2.760199629724058e7 -7.135716301282567e6 0.0
0.0 0.0 0.0

-5.0651057578438055e6 1.4809664364152696e7 0.0
1.4809664364152696e7 -1.9224527430022705e7 0.0
0.0 0.0 0.0

-2.908212184429345e7 2.6781812649918538e7 0.0
2.6781812649918538e7 -2.1928107583019035e6 0.0
0.0 0.0 0.0

-4.231534731317315e6 1.930434530937795e7 0.0
1.930434530937795e7 9.804116787103873e6 0.0
0.0 0.0 0.0

-9.572526402814234e6 -1.8580236023880872e6 0.0
-1.8580236023880872e6 3.5581823028582156e7 0.0
0.0 0.0 0.0

159965.72622899478 2.3367404225831974e7 0.0
2.3367404225831974e7 -3.6544580735435495e6 0.0
0.0 0.0 0.0

-1.010395833973742e7 2.204148969338549e7 0.0
2.204148969338549e7 -6.972677074241824e6 0.0
0.0 0.0 0.0

171440.0608238168 1.6812354867153052e7 0.0
1.6812354867153052e7 -1.2952392713285364e7 0.0
0.0 0.0 0.0

-9.502587731290977e6 2.601091147391863e7 0.0
2.601091147391863e7 6.186676307984311e6 0.0
0.0 0.0 0.0

-1.1706243922615997e7 4.571228840854274e6 0.0
4.571228840854274e6 1.8977629530103877e7 0.0
0.0 0.0 0.0

2.716612310336793e6 9.093199916366128e6 0.0
9.093199916366128e6 -2.8594524639827438e7 0.0
0.0 0.0 0.0

-1.2530876000047565e7 2.5775110278440677e7 0.0
2.5775110278440677e7 6.316468882521589e6 0.0
0.0 0.0 0.0

643190.4322437807 1.5922555865347153e7 0.0
1.5922555865347153e7 3.825528538462045e6 0.0
0.0 0.0 0.0

-1.1810859809160039e7 6.41334285963303e6 0.0
6.41334285963303e6 1.4779056455063118e7 0.0
0.0 0.0 0.0

-759542.7646122589 1.5656505334046885e7 0.0
1.5656505334046885e7 -9.48049082373356e6 0.0
0.0 0.0 0.0

201317.42143639852 2.2298144750571094e7 0.0
2.2298144750571094e7 -4.439369857490034e6 0.0
0.0 0.0 0.0

-2.2819326774133578e7 9.238629728742596e6 0.0
9.238629728742596e6 9.603244181871163e6 0.0
0.0 0.0 0.0

-5.431116317692351e6 2.402064373855398e7 0.0
2.402064373855398e7 6.177179960368337e6 0.0
0.0 0.0 0.0

61349.98605147563 1.6083723671929475e7 0.0
1.6083723671929475e7 -1.4929442014084013e7 0.0
0.0 0.0 0.0

3.003882167903737e6 8.5466914829171e6 0.0
8.5466914829171e6 -2.0725752084345255e7 0.0
0.0 0.0 0.0

615273.7440531412 4.749960923297069e6 0.0
4.749960923297069e6 -4.634199530505331e6 0.0
0.0 0.0 0.0

1.0924726763485726e6 1.466248294420041e7 0.0
1.466248294420041e7 -1.6209091703194357e7 0.0
0.0 0.0 0.0

-1.5352981256105168e7 2.198795034650864e7 0.0
2.198795034650864e7 -2.3781262446251833e6 0.0
0.0 0.0 0.0

2.534586629973028e6 3.0383452122403897e7 0.0
3.0383452122403897e7 -2.407315037580787e6 0.0
0.0 0.0 0.0

-1.355732301500422e6 1.6855755208128586e7 0.0
1.6855755208128586e7 2.2046660594197594e7 0.0
0.0 0.0 0.0

1.448253840279105e6 1.631072915217959e7 0.0
1.631072915217959e7 8.172441116863124e6 0.0
0.0 0.0 0.0

4.875338141211649e6 1.498311700220206e7 0.0
1.498311700220206e7 1.748528449905646e7 0.0
0.0 0.0 0.0

-3.0313924993470274e6 1.629475476800487e7 0.0
1.629475476800487e7 -1.010464184633248e7 0.0
0.0 0.0 0.0

-1.1135166643998383e7 1.2885301385415962e7 0.0
1.2885301385415962e7 2.495435372603858e7 0.0
0.0 0.0 0.0

-1.8143591002735656e6 1.4556465990394963e7 0.0
1.4556465990394963e7 -1.1118641427548204e7 0.0
0.0 0.0 0.0

-2.2439428707482763e7 2.796700109865202e7 0.0
2.796700109865202e7 9.19224540797246e6 0.0
0.0 0.0 0.0

-1.1018207436769372e7 2.0082546785087085e6 0.0
2.0082546785087085e6 2.861552828615391e7 0.0
0.0 0.0 0.0

-9.642702891957048e6 -1.7998214399011203e6 0.0
-1.7998214399011203e6 3.620219343963632e7 0.0
0.0 0.0 0.0

1.0106251200476894e6 1.1656225392704079e7 0.0
1.1656225392704079e7 -1.2797909438308794e7 0.0
0.0 0.0 0.0

-540501.9851229045 2.120751833864933e6 0.0
2.120751833864933e6 408000.3572695822 0.0
0.0 0.0 0.0

2.0489588879909217e6 8.917489145329872e6 0.0
8.917489145329872e6 -3.5440868333583966e7 0.0
0.0 0.0 0.0

-1.0763872357836109e7 1.0370897070113903e7 0.0
1.0370897070113903e7 3.007429289167981e7 0.0
0.0 0.0 0.0

1.5076324999490697e6 1.0899841660905028e7 0.0
1.0899841660905028e7 -2.7987040506452046e7 0.0
0.0 0.0 0.0

-9.910338538900752e6 -2.2026559022852355e6 0.0
-2.2026559022852355e6 2.3158945471135963e7 0.0
0.0 0.0 0.0

-3.6085156847469136e6 2.2983758668021623e7 0.0
2.2983758668021623e7 2.9972940427744044e6 0.0
0.0 0.0 0.0

675409.7502774538 2.265936513321799e7 0.0
2.265936513321799e7 -4.378557068534678e6 0.0
0.0 0.0 0.0

-3.6359338093545204e6 2.6040161691762686e7 0.0
2.6040161691762686e7 2.3588379226939734e6 0.0
0.0 0.0 0.0

556798.4873845475 2.9717823274762083e7 0.0
2.9717823274762083e7 -1.5743036090141973e6 0.0
0.0 0.0 0.0

-638475.6778410461 2.7160845527536906e7 0.0
2.7160845527536906e7 -1.2549398072507295e6 0.0
0.0 0.0 0.0

-1.0549195716688162e7 -1.1055608185829222e6 0.0
-1.1055608185829222e6 2.9230779582995206e7 0.0
0.0 0.0 0.0

3.8830906870250683e6 4.9287451458981065e6 0.0
4.9287451458981065e6 -3.0933078898998294e7 0.0
0.0 0.0 0.0

315511.7068487038 1.7194172435798537e7 0.0
1.7194172435798537e7 -9.968089665696174e6 0.0
0.0 0.0 0.0

-742420.513410663 1.8636722189173605e7 0.0
1.8636722189173605e7 -7.492067173706116e6 0.0
0.0 0.0 0.0

2.5321313448546752e6 1.0650598092369035e7 0.0
1.0650598092369035e7 -1.7377617739981666e7 0.0
0.0 0.0 0.0

-4.411913553062822e6 1.3323198008489387e7 0.0
1.3323198008489387e7 -1.5733290273667417e7 0.0
0.0 0.0 0.0

920988.4229217827 1.4563137122610297e7 0.0
1.4563137122610297e7 3.0699614749475312e6 0.0
0.0 0.0 0.0

-4.318088606394522e6 2.0681601064164344e7 0.0
2.0681601064164344e7 7.374986339457674e6 0.0
0.0 0.0 0.0

-7.807100775436527e6 2.4630191141879946e7 0.0
2.4630191141879946e7 5.851461753107795e6 0.0
0.0 0.0 0.0

-1.5889978105962437e6 1.4334355610022204e7 0.0
1.4334355610022204e7 -6.174960730069497e6 0.0
0.0 0.0 0.0

-1.11816722830141e6 1.1183857092343891e7 0.0
1.1183857092343891e7 -2.778248956245617e6 0.0
0.0 0.0 0.0

4.428177092935041e6 3.7815720520642153e6 0.0
3.7815720520642153e6 -2.507958157995036e7 0.0
0.0 0.0 0.0

1.3875933969962506e6 1.6840610413583864e7 0.0
1.6840610413583864e7 -5.763453776626746e6 0.0
0.0 0.0 0.0

2.9157331266653435e6 8.855763219368868e6 0.0
8.855763219368868e6 -2.2164427194866054e7 0.0
0.0 0.0 0.0

-2.225775163109236e6 7.284579200706257e6 0.0
7.284579200706257e6 -1.254921262751718e6 0.0
0.0 0.0 0.0

-1.2009685856548408e6 1.0156432602123808e7 0.0
1.0156432602123808e7 -4.828647461424113e6 0.0
0.0 0.0 0.0

-956891.5730107503 3.64119759672398e6 0.0
3.64119759672398e6 -1.2401362647346174e6 0.0
0.0 0.0 0.0

-3.194633142922529e6 2.117147016679003e7 0.0
2.117147016679003e7 3.0853975500820335e6 0.0
0.0 0.0 0.0

385137.9417089792 1.5084257843721945e7 0.0
1.5084257843721945e7 -1.7259802887621634e7 0.0
0.0 0.0 0.0

1.4941726472456157e6 8.695629699872894e6 0.0
8.695629699872894e6 -4.073458946124529e7 0.0
0.0 0.0 0.0

-4.547763867083246e6 1.9083098425569028e7 0.0
1.9083098425569028e7 -4.561267351860326e6 0.0
0.0 0.0 0.0

-1.8046621166422408e7 2.5101631608080868e7 0.0
2.5101631608080868e7 -7.621982722231882e6 0.0
0.0 0.0 0.0

-1.6255642202522729e7 2.506146447049622e7 0.0
2.506146447049622e7 6.14049998110028e6 0.0
0.0 0.0 0.0

-6.813123808679929e6 2.1302272539019015e7 0.0
2.1302272539019015e7 -7.471488563120717e6 0.0
0.0 0.0 0.0

-2.3749858708601277e6 1.3966421651308926e7 0.0
1.3966421651308926e7 -2.692595394335127e7 0.0
0.0 0.0 0.0

-5.924654429782907e6 1.4435511611208685e7 0.0
1.4435511611208685e7 -1.974884885196219e7 0.0
0.0 0.0 0.0

-1.3416086981324669e7 2.3197055466621652e7 0.0
2.3197055466621652e7 -6.963991414779341e6 0.0
0.0 0.0 0.0

-8.334344707570729e6 1.542595702431139e7 0.0
1.542595702431139e7 -2.778115010239164e7 0.0
0.0 0.0 0.0

-9.0152122341749e6 1.6620521244843403e7 0.0
1.6620521244843403e7 1.8028200550689917e7 0.0
0.0 0.0 0.0

-1.009915747934569e7 -1.424846451197465e6 0.0
-1.424846451197465e6 1.4739221182278454e7 0.0
0.0 0.0 0.0

-1.9833050117928386e6 2.1131239604363013e7 0.0
2.1131239604363013e7 -3.1513143306056634e6 0.0
0.0 0.0 0.0

-5.444283146231923e6 1.862702588096133e7 0.0
1.862702588096133e7 1.1242879478177615e7 0.0
0.0 0.0 0.0

-1.0369921230974423e7 -3.059014181225339e6 0.0
-3.059014181225339e6 1.9293170941703543e7 0.0
0.0 0.0 0.0

1.62540609610751e6 1.2507113970546285e7 0.0
1.2507113970546285e7 -2.1409441227229573e7 0.0
0.0 0.0 0.0

-3.0447807695306395e6 2.173668418272119e7 0.0
2.173668418272119e7 -118780.66174871672 0.0
0.0 0.0 0.0

238943.69982813054 1.5140448054976158e7 0.0
1.5140448054976158e7 -1.5277208203103512e6 0.0
0.0 0.0 0.0

-4.319525410626499e6 2.274970972577674e7 0.0
2.274970972577674e7 5.466541718536584e6 0.0
0.0 0.0 0.0

-1.2388834190226613e7 2.361331572170057e7 0.0
2.361331572170057e7 -7.596835018069541e6 0.0
0.0 0.0 0.0

-6.642670604717259e6 1.4764754786453303e7 0.0
1.4764754786453303e7 -2.214223595310698e7 0.0
0.0 0.0 0.0

2.063347036492282e6 1.8383170170051247e7 0.0
1.8383170170051247e7 1.3528171337736918e7 0.0
0.0 0.0 0.0

-2.3149102325767435e7 2.5128085711633097e7 0.0
2.5128085711633097e7 5.999390000221216e6 0.0
0.0 0.0 0.0

-9.516090107340852e6 6.722670570996571e6 0.0
6.722670570996571e6 1.5421130905576736e7 0.0
0.0 0.0 0.0

-1.0140137462572854e7 8.188972695049291e6 0.0
8.188972695049291e6 3.8051111412274405e7 0.0
0.0 0.0 0.0

-1.3769742352765808e6 1.6700240424136963e7 0.0
1.6700240424136963e7 -7.662209578443257e6 0.0
0.0 0.0 0.0

352666.38828456297 2.6959550676783364e7 0.0
2.6959550676783364e7 -2.1931381290552267e6 0.0
0.0 0.0 0.0

4.910899066931877e6 1.5575810655183248e7 0.0
1.5575810655183248e7 1.63696637529641e7 0.0
0.0 0.0 0.0

1.6227596693670206e7 1.706225098632852e7 0.0
1.706225098632852e7 3.7995953832985805e6 0.0
0.0 0.0 0.0

-9.390668999384016e6 2.2338092018843085e7 0.0
2.2338092018843085e7 -7.594772188038554e6 0.0
0.0 0.0 0.0

1.318286634402598e6 2.518929495562696e7 0.0
2.518929495562696e7 -3.5792295692903385e6 0.0
0.0 0.0 0.0

6.810787494127305e6 1.53595583854046e7 0.0
1.53595583854046e7 2.6715048902634185e7 0.0
0.0 0.0 0.0

3.3624093876161985e6 6.4219555843849685e6 0.0
6.4219555843849685e6 -3.917908741666895e7 0.0
0.0 0.0 0.0

-5.292744224019857e6 2.337023092520703e7 0.0
2.337023092520703e7 6.668035444520848e6 0.0
0.0 0.0 0.0

359448.4584144284 1.4055679625877406e7 0.0
1.4055679625877406e7 -309630.88947310206 0.0
0.0 0.0 0.0

-9.370629284946632e6 1.605937492274969e7 0.0
1.605937492274969e7 -3.1235432490210176e7 0.0
0.0 0.0 0.0

-3.8176029642742714e6 1.91450792214014e7 0.0
1.91450792214014e7 -1.7506819049111758e6 0.0
0.0 0.0 0.0

4.35311859569237e6 3.3824816289450503e6 0.0
3.3824816289450503e6 -3.3707529196511e7 0.0
0.0 0.0 0.0

-1.275444561945898e6 1.771251702775123e7 0.0
1.771251702775123e7 -7.759926413313909e6 0.0
0.0 0.0 0.0

1.4046341936878483e6 1.923387213167268e7 0.0
1.923387213167268e7 -6.996260898309123e6 0.0
0.0 0.0 0.0

1.516421124508452e7 1.879477166362522e7 0.0
1.879477166362522e7 -2.8177089066611743e6 0.0
0.0 0.0 0.0

-1.0454086765553948e7 1.5239561516912652e7 0.0
1.5239561516912652e7 1.8342105935148906e7 0.0
0.0 0.0 0.0

-2.240684951607698e6 1.415998040697689e7 0.0
1.415998040697689e7 -2.21622340420178e6 0.0
0.0 0.0 0.0

-5.3965456817642525e6 2.026065445092356e7 0.0
2.026065445092356e7 -7.329323212354305e6 0.0
0.0 0.0 0.0

-2.2850486902968273e6 2.1306220019681074e7 0.0
2.1306220019681074e7 -2.6691239567124313e6 0.0
0.0 0.0 0.0

-9.7831254108872e6 756364.3509737978 0.0
756364.3509737978 3.848057656221062e7 0.0
0.0 0.0 0.0

-1.424213767419661e6 1.511972770434567e7 0.0
1.511972770434567e7 -7.098484729927614e6 0.0
0.0 0.0 0.0

-8.984746112157905e6 2.499295820423623e7 0.0
2.499295820423623e7 6.18299652272583e6 0.0
0.0 0.0 0.0

1.6537931034900122e6 7.936345259427939e6 0.0
7.936345259427939e6 -1.0850521510779241e7 0.0
0.0 0.0 0.0

5.445930724793375e6 1.808257095468223e7 0.0
1.808257095468223e7 1.1454941309838343e7 0.0
0.0 0.0 0.0

-3.501470470315733e7 2.551805161042228e7 0.0
2.551805161042228e7 7.065543271379273e6 0.0
0.0 0.0 0.0

1.550946648103864e6 1.405383765386272e7 0.0
1.405383765386272e7 6.002826182238838e6 0.0
0.0 0.0 0.0

3.641697536164578e6 6.695357024419915e6 0.0
6.695357024419915e6 -1.383392887513576e7 0.0
0.0 0.0 0.0

946546.5994675173 1.7900238260511145e7 0.0
1.7900238260511145e7 1.5827270444479968e7 0.0
0.0 0.0 0.0

-480448.99051409285 2.0796998901820175e7 0.0
2.0796998901820175e7 -5.772216422125976e6 0.0
0.0 0.0 0.0

1.219923079016705e7 2.5098437599144526e7 0.0
2.5098437599144526e7 -6.629424786726607e6 0.0
0.0 0.0 0.0

-2.8860908665466877e6 1.3609511166632855e7 0.0
1.3609511166632855e7 -9.620303309082057e6 0.0
0.0 0.0 0.0

-4.565141246602295e6 1.463748961699789e7 0.0
1.463748961699789e7 6.297910418056078e6 0.0
0.0 0.0 0.0

1.058557686658844e6 7.988585690003346e6 0.0
7.988585690003346e6 -9.375133581019469e6 0.0
0.0 0.0 0.0

-2.9340739912644373e6 1.5303900644569188e7 0.0
1.5303900644569188e7 -1.934835207255237e7 0.0
0.0 0.0 0.0

-611003.6078607447 1.7944435032145694e7 0.0
1.7944435032145694e7 -8.127770394651338e6 0.0
0.0 0.0 0.0

1.0031308941931138e7 1.9911355078166366e7 0.0
1.9911355078166366e7 9.237525585175589e6 0.0
0.0 0.0 0.0

-5.130792420792795e6 1.9833837617059574e7 0.0
1.9833837617059574e7 -7.113612531367308e6 0.0
0.0 0.0 0.0

1.1508562330540596e6 1.9158037941573914e7 0.0
1.9158037941573914e7 -6.720182572055398e6 0.0
0.0 0.0 0.0

-7.519060882676649e6 2.3527875245726337e6 0.0
2.3527875245726337e6 1.1453165861057706e7 0.0
0.0 0.0 0.0

-1.2264188211545274e6 5.729267403394623e6 0.0
5.729267403394623e6 2.775060994375976e6 0.0
0.0 0.0 0.0

5.920084154363652e6 1.868925781147174e7 0.0
1.868925781147174e7 -3.0313820519707883e6 0.0
0.0 0.0 0.0

1.1737511719100613e6 1.4740118462613182e7 0.0
1.4740118462613182e7 5.26600979738831e6 0.0
0.0 0.0 0.0

3.728673319588867e7 1.655831590523538e7 0.0
1.655831590523538e7 6.971448534403286e6 0.0
0.0 0.0 0.0

-1.056747126980522e7 -2.8796103690853715e6 0.0
-2.8796103690853715e6 2.2002656650269415e7 0.0
0.0 0.0 0.0

-1.1725922909125976e7 2.1959478370328337e7 0.0
2.1959478370328337e7 -5.346386389945372e6 0.0
0.0 0.0 0.0

-1.1785251779289987e7 2.12634202405675e7 0.0
2.12634202405675e7 -907108.1640255 0.0
0.0 0.0 0.0

-2.4096764789587464e7 2.2927905287595145e7 0.0
2.2927905287595145e7 -6.500662058916705e6 0.0
0.0 0.0 0.0

2.6527045112161238e7 5.638966271678173e6 0.0
5.638966271678173e6 -2.7619360431223903e6 0.0
0.0 0.0 0.0

-8.811338235413805e6 7.20165713275361e6 0.0
7.20165713275361e6 4.489545427184399e7 0.0
0.0 0.0 0.0

-1.315660223389187e6 1.0576863509711906e7 0.0
1.0576863509711906e7 -1.7686192881867622e6 0.0
0.0 0.0 0.0

-1.0890811982627572e7 2.1621157323738333e7 0.0
2.1621157323738333e7 -7.094250759675078e6 0.0
0.0 0.0 0.0

-4.209792617559304e6 2.294581567242855e7 0.0
2.294581567242855e7 6.470292615316065e6 0.0
0.0 0.0 0.0

-975764.6029896108 1.762487253871196e7 0.0
1.762487253871196e7 -9.158539207212614e6 0.0
0.0 0.0 0.0

1.3167158278419478e6 1.229738301658705e7 0.0
1.229738301658705e7 -1.3589284470003337e7 0.0
0.0 0.0 0.0

-44632.53478493192 1.5005134222234514e7 0.0
1.5005134222234514e7 -4.864789520692313e6 0.0
0.0 0.0 0.0

-5.346869376152969e6 1.3764571417631516e7 0.0
1.3764571417631516e7 -2.067399070776803e7 0.0
0.0 0.0 0.0

-6.447507842872287e6 1.6191163906300792e7 0.0
1.6191163906300792e7 -4.5557546059287384e7 0.0
0.0 0.0 0.0

8.79058970805381e6 5.537256229323969e6 0.0
5.537256229323969e6 -1.9980561776244538e6 0.0
0.0 0.0 0.0

4.294529256544978e6 2.576873786562657e7 0.0
2.576873786562657e7 -4.814870364819659e6 0.0
0.0 0.0 0.0

-4.4682425961531885e6 1.4040994602364907e7 0.0
1.4040994602364907e7 -1.4894142770367999e7 0.0
0.0 0.0 0.0

1.2207367264589524e7 1.5083064754191862e7 0.0
1.5083064754191862e7 3.8788397357231327e6 0.0
0.0 0.0 0.0

-68357.89851247473 1.5264456388993997e7 0.0
1.5264456388993997e7 -6.426955865457345e6 0.0
0.0 0.0 0.0

-1.8309556391796877e6 2.082075354582622e7 0.0
2.082075354582622e7 -2.9380340558835818e6 0.0
0.0 0.0 0.0

-2.9255303336917823e6 1.4828006249011056e7 0.0
1.4828006249011056e7 -1.3081211642448904e7 0.0
0.0 0.0 0.0

-1.734371080026771e7 1.580378822244084e7 0.0
1.580378822244084e7 6.789814554604802e6 0.0
0.0 0.0 0.0

-6.523793055130875e6 -2.688921670975273e6 0.0
-2.688921670975273e6 8.472506285883736e6 0.0
0.0 0.0 0.0

-8.382001388976914e6 1.6060775099393755e7 0.0
1.6060775099393755e7 1.775376066011143e7 0.0
0.0 0.0 0.0

-648901.3031493811 1.419200583078956e7 0.0
1.419200583078956e7 1.6568119079461198e6 0.0
0.0 0.0 0.0

-4.77650915594841e6 1.5927177799266277e7 0.0
1.5927177799266277e7 -1.2251877516335862e7 0.0
0.0 0.0 0.0

-861716.9720082267 1.6038472537448142e7 0.0
1.6038472537448142e7 -6.630592916220027e6 0.0
0.0 0.0 0.0

-2.2658434906980423e6 1.1583636086180361e7 0.0
1.1583636086180361e7 -3.393173319568015e6 0.0
0.0 0.0 0.0

1.7686004965926543e7 1.8721854988601673e7 0.0
1.8721854988601673e7 -3.024985466754131e6 0.0
0.0 0.0 0.0

-8.781539284486003e6 2.7149766772603694e7 0.0
2.7149766772603694e7 6.247042730102362e6 0.0
0.0 0.0 0.0

2.9473070014939224e6 1.9910123987324666e7 0.0
1.9910123987324666e7 -5.4106123045731755e6 0.0
0.0 0.0 0.0

-2.9125929193228567e6 1.8256018053262692e7 0.0
1.8256018053262692e7 -2.87641456783888e6 0.0
0.0 0.0 0.0

-2.8952137262733793e6 2.6358616852443952e7 0.0
2.6358616852443952e7 2.858468971962507e6 0.0
0.0 0.0 0.0

-7.617362839319123e6 1.7133910276675854e7 0.0
1.7133910276675854e7 1.525411324731563e7 0.0
0.0 0.0 0.0

1.4588237153743436e6 7.3495609851263845e6 0.0
7.3495609851263845e6 -7.534702854912772e6 0.0
0.0 0.0 0.0

-825698.8961327211 6.783556005297014e6 0.0
6.783556005297014e6 -472988.620659931 0.0
0.0 0.0 0.0

-7.353622950711071e6 1.473849871719762e7 0.0
1.473849871719762e7 -2.9211560520206254e7 0.0
0.0 0.0 0.0

-3.044312928933668e6 1.8043553842262022e7 0.0
1.8043553842262022e7 4.560127143587187e6 0.0
0.0 0.0 0.0

1.8490146910781246e6 5.2061150666216165e6 0.0
5.2061150666216165e6 -7.821746203585608e6 0.0
0.0 0.0 0.0

-4.206671698814221e7 2.654215525132354e7 0.0
2.654215525132354e7 420490.80353386514 0.0
0.0 0.0 0.0

1.2774231326869782e6 8.246347887603355e6 0.0
8.246347887603355e6 -4.7068281157430135e7 0.0
0.0 0.0 0.0

-907306.1084869028 9.119080831908347e6 0.0
9.119080831908347e6 -4.929888221305414e6 0.0
0.0 0.0 0.0

-6.343584112981865e6 1.5187149294090547e7 0.0
1.5187149294090547e7 -3.1485923824515928e7 0.0
0.0 0.0 0.0

4.133709678243179e6 4.66474387154947e6 0.0
4.66474387154947e6 -3.0178412247979563e7 0.0
0.0 0.0 0.0

1.5377388148190985e7 2.7693271455241807e7 0.0
2.7693271455241807e7 -9.342427834958807e6 0.0
0.0 0.0 0.0

3.37521435159232e6 9.046439450333828e6 0.0
9.046439450333828e6 -2.0778852409969695e7 0.0
0.0 0.0 0.0

-9.08516487585875e6 1.1358292684422145e7 0.0
1.1358292684422145e7 3.4526363702192366e7 0.0
0.0 0.0 0.0

-1.0217728010264426e7 1.5608411842229845e7 0.0
1.5608411842229845e7 1.8694246091915056e7 0.0
0.0 0.0 0.0

-4.297565245296011e6 1.9983673787722692e7 0.0
1.9983673787722692e7 9.463908192222964e6 0.0
0.0 0.0 0.0

-7.271270182938483e6 1.9403136778737277e7 0.0
1.9403136778737277e7 -4.713060595459255e6 0.0
0.0 0.0 0.0

-9.057758513218788e6 1.6218894841891825e7 0.0
1.6218894841891825e7 1.9378703649530496e7 0.0
0.0 0.0 0.0

-3.559642470058134e6 2.111153827772028e7 0.0
2.111153827772028e7 1.8474891719584058e6 0.0
0.0 0.0 0.0

7.477261752896758e6 1.6442418778615208e7 0.0
1.6442418778615208e7 2.4924206784761317e7 0.0
0.0 0.0 0.0

-8.846407906523831e6 -1.0668923891234219e6 0.0
-1.0668923891234219e6 1.2164716834195394e7 0.0
0.0 0.0 0.0

193333.7329204888 1.7279219837555796e7 0.0
1.7279219837555796e7 -1.153199664290745e7 0.0
0.0 0.0 0.0

-1.1580795269548334e6 1.1381644098214904e7 0.0
1.1381644098214904e7 -5.26670058534265e7 0.0
0.0 0.0 0.0

-7.66986665651062e6 2.8316895532876804e7 0.0
2.8316895532876804e7 6.056047345280963e6 0.0
0.0 0.0 0.0

427646.801502896 2.2017365625719246e7 0.0
2.2017365625719246e7 -5.234583212235173e6 0.0
0.0 0.0 0.0

1.796759995774322e6 1.7217962766743824e7 0.0
1.7217962766743824e7 1.4265298244825774e6 0.0
0.0 0.0 0.0

-1.000514223348536e7 1.5470057476538552e7 0.0
1.5470057476538552e7 1.9895548444579635e7 0.0
0.0 0.0 0.0

-1.7455730626546115e7 2.8588732116811015e7 0.0
2.8588732116811015e7 7.538819081586083e6 0.0
0.0 0.0 0.0

-102359.40517267352 1.9165345057751674e7 0.0
1.9165345057751674e7 -8.406026963818893e6 0.0
0.0 0.0 0.0

-2.700053676930771e6 1.4364858796373654e7 0.0
1.4364858796373654e7 -2.4274189431934528e7 0.0
0.0 0.0 0.0

-1.3242572183834111e7 3.000800946636643e7 0.0
3.000800946636643e7 6.024731676351318e6 0.0
0.0 0.0 0.0

2.2921878932029307e7 2.5230543174212087e7 0.0
2.5230543174212087e7 -1.1276287316354578e7 0.0
0.0 0.0 0.0

1.207310107787871e6 1.6372213302216066e7 0.0
1.6372213302216066e7 2.6489478144119317e6 0.0
0.0 0.0 0.0

2.454584541306371e6 1.0531120543444004e7 0.0
1.0531120543444004e7 -1.872231630061688e7 0.0
0.0 0.0 0.0

-8.438613282825619e6 1.6596792505889827e7 0.0
1.6596792505889827e7 -3.44174881054189e7 0.0
0.0 0.0 0.0

9.200702040826552e6 2.5375794914090503e7 0.0
2.5375794914090503e7 -6.011074547479124e6 0.0
0.0 0.0 0.0

-155201.27153856168 1.5835828348450312e7 0.0
1.5835828348450312e7 -1.1998013662498793e7 0.0
0.0 0.0 0.0

-1.3180632879066374e6 2.390859102048806e7 0.0
2.390859102048806e7 -2.0763707234230938e6 0.0
0.0 0.0 0.0

-85232.31013068557 1.0569792628542865e7 0.0
1.0569792628542865e7 -4.415414708791063e7 0.0
0.0 0.0 0.0

419086.233047073 1.6327890649298178e7 0.0
1.6327890649298178e7 5.620969534238493e6 0.0
0.0 0.0 0.0

-2.0636833327227734e7 2.6245104621649012e7 0.0
2.6245104621649012e7 7.717760942574192e6 0.0
0.0 0.0 0.0

-3.0310902968069566e6 2.1484688526809584e7 0.0
2.1484688526809584e7 2.3898270278591956e6 0.0
0.0 0.0 0.0

1.5899278843421519e7 1.6930669129693195e7 0.0
1.6930669129693195e7 4.57441958349362e6 0.0
0.0 0.0 0.0

-3.4780062971729976e6 2.684765687959837e7 0.0
2.684765687959837e7 1.9907053138424356e6 0.0
0.0 0.0 0.0

1.4750646154481354e6 1.6189379633039063e7 0.0
1.6189379633039063e7 8.915477868600747e6 0.0
0.0 0.0 0.0

-178857.38285803213 3.5154034244212816e6 0.0
3.5154034244212816e6 -2.357286008689023e6 0.0
0.0 0.0 0.0

4.711114884073351e6 2.6980226977457162e7 0.0
2.6980226977457162e7 -3.880553952160968e6 0.0
0.0 0.0 0.0

280167.01885974687 1.562644832589229e7 0.0
1.562644832589229e7 -1.6155311818674821e7 0.0
0.0 0.0 0.0

4.0912147369873524e6 3.861844342473311e6 0.0
3.861844342473311e6 -3.721724468835285e7 0.0
0.0 0.0 0.0

46276.55389068648 1.0017389078648824e7 0.0
1.0017389078648824e7 -6.447486543975904e6 0.0
0.0 0.0 0.0

1.9382814538462418e6 6.220514894603339e6 0.0
6.220514894603339e6 -7.93278758625082e6 0.0
0.0 0.0 0.0

1.2897771167708226e6 1.2984779813377606e7 0.0
1.2984779813377606e7 -1.3499112504772726e7 0.0
0.0 0.0 0.0

-1.7685217665874254e7 2.476732161522369e7 0.0
2.476732161522369e7 6.580105751380165e6 0.0
0.0 0.0 0.0

-2.0852440096583925e6 1.8130692456298646e7 0.0
1.8130692456298646e7 2.424669913563664e6 0.0
0.0 0.0 0.0

2.297809896732703e6 2.015968360346119e7 0.0
2.015968360346119e7 -5.803389872262855e6 0.0
0.0 0.0 0.0

4.196637180728471e6 5.675991286588462e6 0.0
5.675991286588462e6 -2.9592551435259726e7 0.0
0.0 0.0 0.0

-769556.9199755231 1.7584600995217375e7 0.0
1.7584600995217375e7 -7.880832627952421e6 0.0
0.0 0.0 0.0

-101270.1836508303 1.5037410416498791e7 0.0
1.5037410416498791e7 -1.1779110967660155e7 0.0
0.0 0.0 0.0

-8.398107500460433e6 2.081493215471717e7 0.0
2.081493215471717e7 -7.115425704721402e6 0.0
0.0 0.0 0.0

8.192473328840099e6 2.369073150887813e7 0.0
2.369073150887813e7 -6.035459662495455e6 0.0
0.0 0.0 0.0

-4.848057223032754e6 2.104403245738011e7 0.0
2.104403245738011e7 9.005794998726541e6 0.0
0.0 0.0 0.0

875100.951631119 1.6915582288165946e7 0.0
1.6915582288165946e7 9.837955684778253e6 0.0
0.0 0.0 0.0

610930.0473016538 1.6088989768786535e7 0.0
1.6088989768786535e7 5.854291410625927e7 0.0
0.0 0.0 0.0

-4.082003915476284e6 2.951378959609441e7 0.0
2.951378959609441e7 3.728320267880922e6 0.0
0.0 0.0 0.0

651722.6378354644 1.7409195545313846e7 0.0
1.7409195545313846e7 -8.368103372565037e6 0.0
0.0 0.0 0.0

3.0907122456814917e6 9.567215573838484e6 0.0
9.567215573838484e6 -2.391178163377273e7 0.0
0.0 0.0 0.0

3.251153323101042e6 8.878131585970776e6 0.0
8.878131585970776e6 -2.5113499708647285e7 0.0
0.0 0.0 0.0

4.858473226856742e6 3.6916925285547785e6 0.0
3.6916925285547785e6 -2.1503825186084777e7 0.0
0.0 0.0 0.0

-4.033080668885118e6 2.0500817891043972e7 0.0
2.0500817891043972e7 8.617020646428494e6 0.0
0.0 0.0 0.0

4.493429880222818e6 3.91400944718258e6 0.0
3.91400944718258e6 -2.1496198427560005e7 0.0
0.0 0.0 0.0

-1.1358144530755214e7 672046.6959450931 0.0
672046.6959450931 2.7359542207109224e7 0.0
0.0 0.0 0.0

-4.897871619861701e6 1.8639956838221952e7 0.0
1.8639956838221952e7 1.348170956034148e7 0.0
0.0 0.0 0.0

-1.4997267643128848e6 9.517177911171658e6 0.0
9.517177911171658e6 -3.825357790680799e6 0.0
0.0 0.0 0.0

-169056.89558617352 2.245480503076912e7 0.0
2.245480503076912e7 -4.691156602240891e6 0.0
0.0 0.0 0.0

2.27940034470779e6 2.483569894296056e7 0.0
2.483569894296056e7 -3.2259184162681084e6 0.0
0.0 0.0 0.0

787663.7576577973 1.3955685965234058e7 0.0
1.3955685965234058e7 1.9473001929638064e6 0.0
0.0 0.0 0.0

538301.9416855089 1.0607635010613821e7 0.0
1.0607635010613821e7 -3.812868982718163e7 0.0
0.0 0.0 0.0

4.45423839576746e6 4.314893742557913e6 0.0
4.314893742557913e6 -3.2253619240356628e7 0.0
0.0 0.0 0.0

-3.787534841373632e7 3.0795907645283043e7 0.0
3.0795907645283043e7 -5.425870221369475e6 0.0
0.0 0.0 0.0

1.5548515507482389e7 2.030535087539355e7 0.0
2.030535087539355e7 8.194700265942492e6 0.0
0.0 0.0 0.0

1.4735494212260789e6 2.451409645349188e7 0.0
2.451409645349188e7 -3.118788871461315e6 0.0
0.0 0.0 0.0

-2.129976218510786e6 1.7075118172846317e7 0.0
1.7075118172846317e7 1.3993060800595637e7 0.0
0.0 0.0 0.0

547789.2438787823 1.5294333638963943e7 0.0
1.5294333638963943e7 2.3467647530475603e6 0.0
0.0 0.0 0.0

-1.150885568752085e7 5.735874819058307e6 0.0
5.735874819058307e6 3.197865140417675e7 0.0
0.0 0.0 0.0

-9.653447362539005e6 2.5862489394578442e7 0.0
2.5862489394578442e7 5.9263456984053925e6 0.0
0.0 0.0 0.0

-873175.5402778513 1.2863101070917103e7 0.0
1.2863101070917103e7 -7.680995412015598e6 0.0
0.0 0.0 0.0

-1.1250153823961224e7 -915775.1623794342 0.0
-915775.1623794342 2.097238833412792e7 0.0
0.0 0.0 0.0

-3.2041383712073714e6 1.0963262154209716e7 0.0
1.0963262154209716e7 7.259981584523085e7 0.0
0.0 0.0 0.0

139961.5885887174 1.7693728225604534e7 0.0
1.7693728225604534e7 -1.0878446372616958e7 0.0
0.0 0.0 0.0

2.670149043214149e6 4.560782302685379e6 0.0
4.560782302685379e6 -8.289590296543026e6 0.0
0.0 0.0 0.0

-8.780629594140012e6 7.212641412564785e6 0.0
7.212641412564785e6 4.673858013907291e7 0.0
0.0 0.0 0.0

4.700920703340022e6 3.7483013273798474e6 0.0
3.7483013273798474e6 -2.6735332030371748e7 0.0
0.0 0.0 0.0

-5.07810914196535e6 1.898108717098155e7 0.0
1.898108717098155e7 -7.971008139416579e6 0.0
0.0 0.0 0.0

-1.4674520821823036e7 2.2394902220083732e7 0.0
2.2394902220083732e7 -6.920005043619762e6 0.0
0.0 0.0 0.0

-52850.430298817344 1.6173694511707911e7 0.0
1.6173694511707911e7 -1.3778287995940438e7 0.0
0.0 0.0 0.0

-3.5864550766975204e6 9.442346423333893e6 0.0
9.442346423333893e6 5.0727808430343345e6 0.0
0.0 0.0 0.0

-3.5598338074556617e6 1.89136969986389e7 0.0
1.89136969986389e7 647626.4945336496 0.0
0.0 0.0 0.0

1.1039600586198762e7 2.2843197608668163e7 0.0
2.2843197608668163e7 -6.313712499797986e6 0.0
0.0 0.0 0.0

-5.843166160505242e6 -3.8118634329383266e6 0.0
-3.8118634329383266e6 1.1391272574229117e7 0.0
0.0 0.0 0.0

6.970301007463667e6 1.723500696401336e7 0.0
1.723500696401336e7 4.0450867748622466e6 0.0
0.0 0.0 0.0

9.440238063429493e6 2.9186374801882792e7 0.0
2.9186374801882792e7 -8.54237862053347e6 0.0
0.0 0.0 0.0

4.7726654640952535e6 3.8285225213068626e6 0.0
3.8285225213068626e6 -2.3924900586080402e7 0.0
0.0 0.0 0.0

-4.64894032912046e6 1.611034583928136e7 0.0
1.611034583928136e7 3.11230538831775e6 0.0
0.0 0.0 0.0

7.008636892921556e6 1.776454578093164e7 0.0
1.776454578093164e7 2.9323144238661543e7 0.0
0.0 0.0 0.0

4.33588235152269e7 6.168253703477335e6 0.0
6.168253703477335e6 -1.7908277603625488e6 0.0
0.0 0.0 0.0

-2.0194397535541713e7 2.40467931475501e7 0.0
2.40467931475501e7 -5.209137749839985e6 0.0
0.0 0.0 0.0

-3.729741635492403e6 2.0829724484448515e7 0.0
2.0829724484448515e7 2.6060314332254203e6 0.0
0.0 0.0 0.0

813906.9987600222 1.0739147418452423e7 0.0
1.0739147418452423e7 -3.3542897351086214e7 0.0
0.0 0.0 0.0

-1.3551215210098196e7 2.4548195413463358e7 0.0
2.4548195413463358e7 6.119861791524629e6 0.0
0.0 0.0 0.0

5.5346174959977e6 1.767777560300011e7 0.0
1.767777560300011e7 5.975943759730882e6 0.0
0.0 0.0 0.0

-6.0688600486518815e6 7.039954126943669e6 0.0
7.039954126943669e6 5.756472388593538e7 0.0
0.0 0.0 0.0

-4.789437724571316e6 1.970651747261985e7 0.0
1.970651747261985e7 9.483313861822603e6 0.0
0.0 0.0 0.0

1.7478290464830042e6 1.5709404797539808e7 0.0
1.5709404797539808e7 1.1062677151004406e7 0.0
0.0 0.0 0.0

-989757.8651347295 1.6368889285236707e7 0.0
1.6368889285236707e7 -8.928606845880013e6 0.0
0.0 0.0 0.0

4.829104441228608e6 1.8343046240155127e7 0.0
1.8343046240155127e7 -2.696654274525768e6 0.0
0.0 0.0 0.0

1.2174339220632669e6 1.7869647599499468e7 0.0
1.7869647599499468e7 -6.315456382656296e6 0.0
0.0 0.0 0.0

-2.5952777935684933e6 1.2575375492733039e7 0.0
1.2575375492733039e7 -3.091858516425185e6 0.0
0.0 0.0 0.0

-391419.3306021914 1.70422051800899e7 0.0
1.70422051800899e7 1.5447628928303326e7 0.0
0.0 0.0 0.0

500074.8614995158 1.596465163907829e7 0.0
1.596465163907829e7 1.5902306009571415e6 0.0
0.0 0.0 0.0

115342.82924014528 1.5541887434356693e7 0.0
1.5541887434356693e7 -3.0690012330040555e6 0.0
0.0 0.0 0.0

-2.907648246903745e6 1.4496220697765274e7 0.0
1.4496220697765274e7 -2.1467841988520417e7 0.0
0.0 0.0 0.0

-3.2874918932603393e6 2.2949075013198316e7 0.0
2.2949075013198316e7 4.130252538637412e6 0.0
0.0 0.0 0.0

-1.2900853439657792e7 2.121698225023149e7 0.0
2.121698225023149e7 -7.166193683461863e6 0.0
0.0 0.0 0.0

-7.959962095120389e6 2.643366563404533e7 0.0
2.643366563404533e7 5.267352765816383e6 0.0
0.0 0.0 0.0

-2.1841734582389644e6 1.7455239240656953e7 0.0
1.7455239240656953e7 1.0437753141558072e7 0.0
0.0 0.0 0.0

4.224839496274249e6 6.1517147965429155e6 0.0
6.1517147965429155e6 -2.4125243123348653e7 0.0
0.0 0.0 0.0

-80483.69862514874 1.7266894787499674e7 0.0
1.7266894787499674e7 -1.1593500145053491e7 0.0
0.0 0.0 0.0

8.40237699580593e6 2.365850798602689e7 0.0
2.365850798602689e7 -5.996403141192511e6 0.0
0.0 0.0 0.0

-1.115188768852003e7 -538959.1881306127 0.0
-538959.1881306127 2.4955335477172613e7 0.0
0.0 0.0 0.0

-3.8688709678311534e6 1.9003395005855557e7 0.0
1.9003395005855557e7 6.5012852088895645e6 0.0
0.0 0.0 0.0

856374.2016626982 1.7030639788107585e7 0.0
1.7030639788107585e7 1.1931974966491126e6 0.0
0.0 0.0 0.0

5.043102256500816e6 1.9222421995018017e7 0.0
1.9222421995018017e7 -4.0694685396584384e6 0.0
0.0 0.0 0.0

-1.1886967868747655e7 5.326342150038745e6 0.0
5.326342150038745e6 2.39842027162715e7 0.0
0.0 0.0 0.0

3.1732612419761997e6 1.5594577460461177e7 0.0
1.5594577460461177e7 1.4794117836406384e7 0.0
0.0 0.0 0.0

-6.676270773849182e6 1.879334361891169e7 0.0
1.879334361891169e7 -6.631212535190883e6 0.0
0.0 0.0 0.0

513528.62298506964 1.4274333251973009e7 0.0
1.4274333251973009e7 -2.0272893856483717e7 0.0
0.0 0.0 0.0

3.916142332758691e6 2.8446208891016476e7 0.0
2.8446208891016476e7 -3.0005861146580614e6 0.0
0.0 0.0 0.0

-7.61389343759484e6 2.7210109105667878e7 0.0
2.7210109105667878e7 4.746267242361501e6 0.0
0.0 0.0 0.0

-1.1956228370996129e7 6.173075289065656e6 0.0
6.173075289065656e6 2.1007336519570537e7 0.0
0.0 0.0 0.0

-5.155741617344259e6 1.9626236771855276e7 0.0
1.9626236771855276e7 -4.672830735299201e6 0.0
0.0 0.0 0.0

-5.8166783291465985e6 2.7321869799063057e7 0.0
2.7321869799063057e7 3.8025504632303556e6 0.0
0.0 0.0 0.0

-6.332469513270958e6 2.669972548334923e7 0.0
2.669972548334923e7 4.400975783038048e6 0.0
0.0 0.0 0.0

1.7866887692800707e6 1.5012721292632336e7 0.0
1.5012721292632336e7 9.0654174918704e6 0.0
0.0 0.0 0.0

2.316786880603929e6 1.1712963435558822e7 0.0
1.1712963435558822e7 -1.704680575089951e7 0.0
0.0 0.0 0.0

3.663140567544585e7 2.4917558052740335e7 0.0
2.4917558052740335e7 1.3746102659292245e7 0.0
0.0 0.0 0.0

-3.2152850552786e7 1.3339722032348472e6 0.0
1.3339722032348472e6 8.689983932248771e6 0.0
0.0 0.0 0.0

-1.5104444955718666e7 2.3902118445510533e7 0.0
2.3902118445510533e7 5.087196884916429e6 0.0
0.0 0.0 0.0

4.315806838073207e6 3.6393684897373137e6 0.0
3.6393684897373137e6 -2.669146471215286e7 0.0
0.0 0.0 0.0

-738312.8620687015 1.7117993070695907e7 0.0
1.7117993070695907e7 -1.0145312420789748e7 0.0
0.0 0.0 0.0

-1.1300182993518649e7 2.4867882005419686e7 0.0
2.4867882005419686e7 6.28470349971121e6 0.0
0.0 0.0 0.0

-1.2029204233726535e7 3.0861921206683e6 0.0
3.0861921206683e6 2.6390686150892306e7 0.0
0.0 0.0 0.0

2.647676301991035e6 9.398892649426503e6 0.0
9.398892649426503e6 -2.2572638218985416e7 0.0
0.0 0.0 0.0

-4.197488910603726e6 1.4053605865608696e7 0.0
1.4053605865608696e7 -1.7422905365407772e7 0.0
0.0 0.0 0.0

5.58314169013687e6 1.8507514397766773e7 0.0
1.8507514397766773e7 5.859187078825025e6 0.0
0.0 0.0 0.0

-2.844121056179299e7 2.5312212836719092e7 0.0
2.5312212836719092e7 -2.61216498678868e6 0.0
0.0 0.0 0.0

-3.614447443386489e6 1.0889160014237475e7 0.0
1.0889160014237475e7 -133583.8721649791 0.0
0.0 0.0 0.0

-8.672846809972921e6 2.4013319672349166e7 0.0
2.4013319672349166e7 6.143906150177788e6 0.0
0.0 0.0 0.0

-2.908308812153045e6 2.3628981408609457e7 0.0
2.3628981408609457e7 2.881145899577898e6 0.0
0.0 0.0 0.0

-8.637218830740623e6 4.62080536755831e6 0.0
4.62080536755831e6 1.676702884590622e7 0.0
0.0 0.0 0.0

-7.290312971860462e6 -1.3215772617276427e6 0.0
-1.3215772617276427e6 1.2116786373705901e7 0.0
0.0 0.0 0.0

1.6290360970328879e6 1.202561521865074e7 0.0
1.202561521865074e7 -1.7548241963610295e7 0.0
0.0 0.0 0.0

-1.1216957311571267e7 1.8356388067233083e6 0.0
1.8356388067233083e6 2.6589150054558616e7 0.0
0.0 0.0 0.0

597502.0072685545 1.4675344205733627e7 0.0
1.4675344205733627e7 -1.6191667761612467e7 0.0
0.0 0.0 0.0

5.048050048087407e6 1.7322261173846025e7 0.0
1.7322261173846025e7 -1.3846277244497887e6 0.0
0.0 0.0 0.0

1.1621169606205118e6 8.487700190353878e6 0.0
8.487700190353878e6 -9.961603303145355e6 0.0
0.0 0.0 0.0

-1.5424804260896998e7 2.381842998996334e7 0.0
2.381842998996334e7 5.20392033376667e6 0.0
0.0 0.0 0.0

-7.396633407937773e6 2.102221352754962e7 0.0
2.102221352754962e7 -7.072874192590426e6 0.0
0.0 0.0 0.0

385229.8829472129 1.3993300587542135e7 0.0
1.3993300587542135e7 1.284100321365635e6 0.0
0.0 0.0 0.0

-461247.2585677267 1.4858371503855795e7 0.0
1.4858371503855795e7 -1.537491339887959e6 0.0
0.0 0.0 0.0

2.0650488395629162e6 1.2267205769468738e7 0.0
1.2267205769468738e7 -1.616330950429245e7 0.0
0.0 0.0 0.0

-3.9401924708419084e6 1.4515131341976259e7 0.0
1.4515131341976259e7 -1.7151007795179445e7 0.0
0.0 0.0 0.0

-1.0730314928554261e7 -1.4925963783329087e6 0.0
-1.4925963783329087e6 1.84238832076272e7 0.0
0.0 0.0 0.0

-4.209095274582247e6 1.1957161357212653e7 0.0
1.1957161357212653e7 4.925781017911367e6 0.0
0.0 0.0 0.0

-1702.614772179164 1.891284616197609e7 0.0
1.891284616197609e7 -8.682293245218366e6 0.0
0.0 0.0 0.0

3.317206731275833e6 6.934712238998655e6 0.0
6.934712238998655e6 -1.7552368491292145e7 0.0
0.0 0.0 0.0

-3.1826986523493323e7 2.1774506286479916e7 0.0
2.1774506286479916e7 -883655.8910862766 0.0
0.0 0.0 0.0

3.749565364293159e6 1.815203044436399e7 0.0
1.815203044436399e7 -2.761838064334718e6 0.0
0.0 0.0 0.0

1.5960154411291126e7 1.6699328497912224e7 0.0
1.6699328497912224e7 534978.1542929625 0.0
0.0 0.0 0.0

-8.52275821114239e6 3.0065307588424742e7 0.0
3.0065307588424742e7 5.996010742919756e6 0.0
0.0 0.0 0.0

-1.0078741802128918e7 1.678327814519536e6 0.0
1.678327814519536e6 1.6510493597660694e7 0.0
0.0 0.0 0.0

-417992.39497951325 1.5532819417737948e7 0.0
1.5532819417737948e7 -1.0828045887544686e7 0.0
0.0 0.0 0.0

-6.612610144296781e6 1.9486088248896487e7 0.0
1.9486088248896487e7 -4.245885811552942e6 0.0
0.0 0.0 0.0

-1.7239179151061047e7 2.670636899547347e7 0.0
2.670636899547347e7 7.156868624273587e6 0.0
0.0 0.0 0.0

-4.707741197399076e6 1.5309842057317512e7 0.0
1.5309842057317512e7 -2.665403757345603e7 0.0
0.0 0.0 0.0

885210.9379886896 1.5883523462864323e7 0.0
1.5883523462864323e7 6.184097001907769e6 0.0
0.0 0.0 0.0

-2.8808150345278983e6 1.4429930079053467e7 0.0
1.4429930079053467e7 -1.8890195656423077e7 0.0
0.0 0.0 0.0

-1.271590131567867e7 2.889428403332303e7 0.0
2.889428403332303e7 7.067347933511252e6 0.0
0.0 0.0 0.0

-846761.2311562722 2.092523773732131e7 0.0
2.092523773732131e7 -5.972450141020457e6 0.0
0.0 0.0 0.0

-5.085039821405637e6 1.9659668052203227e7 0.0
1.9659668052203227e7 -461866.1661237576 0.0
0.0 0.0 0.0

2.7614392956625298e6 1.0171493909827491e7 0.0
1.0171493909827491e7 -2.430048731059544e7 0.0
0.0 0.0 0.0

-1.1413447221956385e7 5.527985561072752e6 0.0
5.527985561072752e6 3.0146519714142688e7 0.0
0.0 0.0 0.0

-1.4815135081308263e6 1.5570413426060086e7 0.0
1.5570413426060086e7 -7.384241454695569e6 0.0
0.0 0.0 0.0

5.12270782890084e6 1.8168708751235414e7 0.0
1.8168708751235414e7 -2.922508570408609e6 0.0
0.0 0.0 0.0

-3.8979202763999943e6 1.5255134535734825e7 0.0
1.5255134535734825e7 -2.2655572080370367e7 0.0
0.0 0.0 0.0

-9.346287761472248e6 2.389247167710841e7 0.0
2.389247167710841e7 5.938745250739067e6 0.0
0.0 0.0 0.0

1.6332543339451533e7 2.745138087495649e7 0.0
2.745138087495649e7 -8.984124779067375e6 0.0
0.0 0.0 0.0

-4.302354408737445e6 1.9324093507992532e7 0.0
1.9324093507992532e7 -3.2961518307511727e6 0.0
0.0 0.0 0.0

-9.618965798322069e6 2.494405369831579e7 0.0
2.494405369831579e7 6.065580929166352e6 0.0
0.0 0.0 0.0

-8.791019740409207e6 1.625847609340338e7 0.0
1.625847609340338e7 1.6298728500954598e7 0.0
0.0 0.0 0.0

1.8201027767910606e6 1.7331773216269027e7 0.0
1.7331773216269027e7 -5.36827125619628e6 0.0
0.0 0.0 0.0

-3.6078237923770896e6 2.3061903380428657e7 0.0
2.3061903380428657e7 4.838033837043837e6 0.0
0.0 0.0 0.0

-3.6029769766996847e6 1.4505410720743379e7 0.0
1.4505410720743379e7 -2.55288537709818e7 0.0
0.0 0.0 0.0

4.0140822954536024e6 5.106042628302978e6 0.0
5.106042628302978e6 -2.3127745889053497e7 0.0
0.0 0.0 0.0

-3.9095772087956e6 1.5217624323446043e7 0.0
1.5217624323446043e7 -2.0085578515830237e7 0.0
0.0 0.0 0.0

-4.2686092283980455e6 2.5132423252957214e7 0.0
2.5132423252957214e7 3.5528189052451123e6 0.0
0.0 0.0 0.0

-2.5148005415712413e6 1.593219287115443e7 0.0
1.593219287115443e7 -8.382668428252135e6 0.0
0.0 0.0 0.0

2.0124822022605068e6 1.5635930358505106e7 0.0
1.5635930358505106e7 6.708274465202594e6 0.0
0.0 0.0 0.0

-1.099668271418237e7 1.4530402785307022e7 0.0
1.4530402785307022e7 2.213168125163184e7 0.0
0.0 0.0 0.0

-1.4868639261180633e6 1.2189690619260687e7 0.0
1.2189690619260687e7 -2.4970536128488025e6 0.0
0.0 0.0 0.0

7.7254600440643225e6 1.5782177450976698e7 0.0
1.5782177450976698e7 3.1625449305707388e7 0.0
0.0 0.0 0.0

-1.1108822013011942e7 733432.3798259438 0.0
733432.3798259438 2.971861458131618e7 0.0
0.0 0.0 0.0

3.9594292409294676e6 4.477724548407442e6 0.0
4.477724548407442e6 -3.2065448310378086e7 0.0
0.0 0.0 0.0

-2.2407729900533454e6 1.5233249040094199e7 0.0
1.5233249040094199e7 -2.086202340428636e7 0.0
0.0 0.0 0.0

-8.154081524518615e6 2.4973847360611547e7 0.0
2.4973847360611547e7 5.846384602897039e6 0.0
0.0 0.0 0.0

2.0481800012937147e7 1.2248227259396523e7 0.0
1.2248227259396523e7 148546.85241574515 0.0
0.0 0.0 0.0

-1.245624847178318e7 3.8378124490806255e6 0.0
3.8378124490806255e6 2.2242748864954866e7 0.0
0.0 0.0 0.0

-1.6882621252212238e7 2.53576167765343e7 0.0
2.53576167765343e7 -7.0468713789496375e6 0.0
0.0 0.0 0.0

-3.79002078025337e6 1.8525116437204767e7 0.0
1.8525116437204767e7 6.66916447767844e6 0.0
0.0 0.0 0.0

-1.7110315740965087e7 2.8770813056308854e7 0.0
2.8770813056308854e7 7.837492535159532e6 0.0
0.0 0.0 0.0

3.7624355311285593e6 4.888524263622399e6 0.0
4.888524263622399e6 -3.311447338966503e7 0.0
0.0 0.0 0.0

2.2380120115384227e6 2.3988170503063217e7 0.0
2.3988170503063217e7 -3.8769407844575974e6 0.0
0.0 0.0 0.0

-7.747044258281812e6 1.1047369468250738e7 0.0
1.1047369468250738e7 4.200385901280731e7 0.0
0.0 0.0 0.0

-3.833599988027214e6 2.244795530938771e7 0.0
2.244795530938771e7 6.593855243936408e6 0.0
0.0 0.0 0.0

-1.2116037762237377e6 1.4941403756267088e7 0.0
1.4941403756267088e7 -5.221259433567525e6 0.0
0.0 0.0 0.0

-4.09927812236445e6 2.6509811785303922e6 0.0
2.6509811785303922e6 6.614137525261845e6 0.0
0.0 0.0 0.0

2.472251020001451e6 1.6701814161715452e7 0.0
1.6701814161715452e7 1.0530162245723221e7 0.0
0.0 0.0 0.0

-4.539052695215339e6 1.9406613553283624e7 0.0
1.9406613553283624e7 8.194223398704096e6 0.0
0.0 0.0 0.0

1.7174861410239954e6 9.131065057550121e6 0.0
9.131065057550121e6 -8.967611318436641e6 0.0
0.0 0.0 0.0

-2.4035573428992317e6 1.7781952728291642e7 0.0
1.7781952728291642e7 584698.135797618 0.0
0.0 0.0 0.0

4.1213221658979617e6 1.7839007700995818e7 0.0
1.7839007700995818e7 -3.221091715168668e6 0.0
0.0 0.0 0.0

-2.3005343992561405e6 1.2131640800078891e7 0.0
1.2131640800078891e7 -215946.88090891275 0.0
0.0 0.0 0.0

-1.9594306779817557e6 1.4246410753555752e7 0.0
1.4246410753555752e7 -2.3072634112406358e7 0.0
0.0 0.0 0.0

-5.407697306746229e6 1.5177800209513e7 0.0
1.5177800209513e7 5.396965417568784e6 0.0
0.0 0.0 0.0

-8.671060979022574e6 1.6489260920549462e7 0.0
1.6489260920549462e7 1.9322438067376148e7 0.0
0.0 0.0 0.0

-9.933883612316549e6 -1.573029004799803e6 0.0
-1.573029004799803e6 2.1184808706922233e7 0.0
0.0 0.0 0.0

-9.195333975465491e6 1.9689784278700426e7 0.0
1.9689784278700426e7 450337.31069078203 0.0
0.0 0.0 0.0

-6.30429989400574e6 2.3603476402915757e7 0.0
2.3603476402915757e7 6.3289859374556e6 0.0
0.0 0.0 0.0

6.0573454888285585e6 2.4105796502230585e7 0.0
2.4105796502230585e7 -5.340658407630052e6 0.0
0.0 0.0 0.0

-1.2184259410722129e7 3.547610061114718e6 0.0
3.547610061114718e6 2.4164905286963604e7 0.0
0.0 0.0 0.0

-2.7910665092894128e6 1.4899311763231367e7 0.0
1.4899311763231367e7 -2.4048851477349907e7 0.0
0.0 0.0 0.0

-4.3736460574269835e6 2.343535924216493e7 0.0
2.343535924216493e7 6.091610511782872e6 0.0
0.0 0.0 0.0

444101.13658957 1.6064350388002511e7 0.0
1.6064350388002511e7 -7.063312676493044e6 0.0
0.0 0.0 0.0

-1.3851750030878475e6 1.3354430370497663e7 0.0
1.3354430370497663e7 -6.62631218949169e6 0.0
0.0 0.0 0.0

-8.8416584920139e6 451814.9710683317 0.0
451814.9710683317 1.4008538941221265e7 0.0
0.0 0.0 0.0

-7.818801075282548e6 2.5862580464667678e7 0.0
2.5862580464667678e7 5.891402630833572e6 0.0
0.0 0.0 0.0

-2.676999697765466e6 1.9601483172804616e7 0.0
1.9601483172804616e7 -305335.5032834556 0.0
0.0 0.0 0.0

1.97401222852152e6 1.74380868514146e7 0.0
1.74380868514146e7 1.0697847264269982e7 0.0
0.0 0.0 0.0

-451918.28324756725 3.3465736145655266e6 0.0
3.3465736145655266e6 440608.63033887814 0.0
0.0 0.0 0.0

2.3624821308999695e6 1.7096169964014214e7 0.0
1.7096169964014214e7 3.1930481545138955e6 0.0
0.0 0.0 0.0

1.475517645538114e6 8.422258107034594e6 0.0
8.422258107034594e6 -4.344495064326444e7 0.0
0.0 0.0 0.0

2.3211391051691333e6 2.702636081953788e7 0.0
2.702636081953788e7 -3.738615107999531e6 0.0
0.0 0.0 0.0

-5.17015190518927e6 2.0336113317581885e7 0.0
2.0336113317581885e7 9.088773506305661e6 0.0
0.0 0.0 0.0

-8.839369495137194e6 7.770765799506499e6 0.0
7.770765799506499e6 9.805754939049846e6 0.0
0.0 0.0 0.0

-745962.3146394436 1.7249665277866215e7 0.0
1.7249665277866215e7 -2.626767712388567e6 0.0
0.0 0.0 0.0

1.1268529942398649e6 1.0155218985976277e7 0.0
1.0155218985976277e7 -4.0290004568293475e7 0.0
0.0 0.0 0.0

-126850.2483293945 1.4720625827384222e7 0.0
1.4720625827384222e7 -1.8434354374892257e7 0.0
0.0 0.0 0.0

-7.9628185067332145e6 2.819507171247312e7 0.0
2.819507171247312e7 4.516791767019827e6 0.0
0.0 0.0 0.0

-1.9747704836880988e6 1.567382315101193e7 0.0
1.567382315101193e7 -6.582568988733427e6 0.0
0.0 0.0 0.0

-3.3535818186138743e6 1.9103292989362754e7 0.0
1.9103292989362754e7 -8.673121714399321e6 0.0
0.0 0.0 0.0

-3.51797142908408e6 2.0446254427556165e7 0.0
2.0446254427556165e7 4.795513495441579e6 0.0
0.0 0.0 0.0

376064.7756579886 1.5563117771164304e7 0.0
1.5563117771164304e7 -1.0943958803079033e7 0.0
0.0 0.0 0.0

4.267560800949905e6 1.8317167808833834e7 0.0
1.8317167808833834e7 4.8921434627927e6 0.0
0.0 0.0 0.0

-6.291782628056663e6 2.0121711840187304e7 0.0
2.0121711840187304e7 -7.516642745571149e6 0.0
0.0 0.0 0.0

-1.9698952204024612e6 1.802258326220244e7 0.0
1.802258326220244e7 4.436009107933639e6 0.0
0.0 0.0 0.0

-8.275238993802745e6 7.681325585192121e6 0.0
7.681325585192121e6 4.746047081910189e7 0.0
0.0 0.0 0.0

-396545.3151117633 1.3016464572795874e7 0.0
1.3016464572795874e7 -6.100602870103725e6 0.0
0.0 0.0 0.0

-4.902799674225855e6 1.3576124348268034e7 0.0
1.3576124348268034e7 -1.820907481794303e7 0.0
0.0 0.0 0.0

49315.1830798802 1.6845352023056194e7 0.0
1.6845352023056194e7 -1.2664277195903527e7 0.0
0.0 0.0 0.0

-4.358609116544379e6 1.745493453111343e7 0.0
1.745493453111343e7 -1.0521712135242196e7 0.0
0.0 0.0 0.0

-4.080268000104217e6 1.90034629678971e7 0.0
1.90034629678971e7 8.453709966679696e6 0.0
0.0 0.0 0.0

241312.5711988729 1.465758370965171e7 0.0
1.465758370965171e7 804375.3364285461 0.0
0.0 0.0 0.0

-3.1278064474215712e6 2.3846977714520898e7 0.0
2.3846977714520898e7 3.6283035151633294e6 0.0
0.0 0.0 0.0

-2.277766836846905e6 1.8352528571029153e7 0.0
1.8352528571029153e7 472945.6943120919 0.0
0.0 0.0 0.0

-9.068665530741394e6 1.4665751674485719e6 0.0
1.4665751674485719e6 4.679922326647196e7 0.0
0.0 0.0 0.0

-1.2912798028856775e7 7.178932755483073e6 0.0
7.178932755483073e6 1.905905457882396e7 0.0
0.0 0.0 0.0

806675.203873605 1.6435180966202183e7 0.0
1.6435180966202183e7 -6.385923173412406e6 0.0
0.0 0.0 0.0

-2.0925260670220356e7 2.3506557997784056e7 0.0
2.3506557997784056e7 4.592590935200879e6 0.0
0.0 0.0 0.0

-1.0536634992057864e7 118097.31854085258 0.0
118097.31854085258 1.4236009908064451e7 0.0
0.0 0.0 0.0

-1.0433460247285632e7 5.8180212220658865e6 0.0
5.8180212220658865e6 3.801510954579991e7 0.0
0.0 0.0 0.0

-1.8822925205343992e6 79117.55586110541 0.0
79117.55586110541 2.6888661827382524e6 0.0
0.0 0.0 0.0

-4.468076110509411e6 3.886106667348197e6 0.0
3.886106667348197e6 444370.7243431483 0.0
0.0 0.0 0.0

2.132874204918124e6 1.0719958244608909e7 0.0
1.0719958244608909e7 -1.7655523827177744e7 0.0
0.0 0.0 0.0

-3.2927582856455953e6 1.9880006223746307e7 0.0
1.9880006223746307e7 -764118.4142447494 0.0
0.0 0.0 0.0

-5.427423557451544e6 1.753675639376887e7 0.0
1.753675639376887e7 -9.127180005510125e6 0.0
0.0 0.0 0.0

-4.306664657425057e6 1.8827112743227754e7 0.0
1.8827112743227754e7 1.122522421858703e7 0.0
0.0 0.0 0.0

-2.278228540622333e6 1.4535462053536873e7 0.0
1.4535462053536873e7 -1.781796283225339e7 0.0
0.0 0.0 0.0

592055.2803117856 1.6891429754455816e7 0.0
1.6891429754455816e7 9.809360165729452e6 0.0
0.0 0.0 0.0

-6.96282018627239e6 1.438297632748613e7 0.0
1.438297632748613e7 -2.610625205037531e7 0.0
0.0 0.0 0.0

-3.3101484349693097e6 1.821252708867448e7 0.0
1.821252708867448e7 2.672026244870674e6 0.0
0.0 0.0 0.0

-245340.7896033693 1.072270685153336e7 0.0
1.072270685153336e7 -4.765054580753674e7 0.0
0.0 0.0 0.0

1.3477762598470747e6 1.0495676014676116e7 0.0
1.0495676014676116e7 -3.5388533203315824e7 0.0
0.0 0.0 0.0

-2.2927656559844883e6 1.8436686972348843e7 0.0
1.8436686972348843e7 -8.1545317623519525e6 0.0
0.0 0.0 0.0

-9.913570334723795e6 2.2086705820582222e7 0.0
2.2086705820582222e7 -6.4691995870946925e6 0.0
0.0 0.0 0.0

-1.0301903110011e7 2.385853081475753e7 0.0
2.385853081475753e7 6.0551302550642025e6 0.0
0.0 0.0 0.0

-5.321420343287555e6 1.2464006407436505e7 0.0
1.2464006407436505e7 4.0917150743936365e6 0.0
0.0 0.0 0.0

-2.663569500105957e6 4.9775398208158035e6 0.0
4.9775398208158035e6 5.968126958107755e6 0.0
0.0 0.0 0.0

376735.2312452083 1.5635420211018179e7 0.0
1.5635420211018179e7 -5.722986493639823e6 0.0
0.0 0.0 0.0

6.070108888120958e6 1.869390932374662e7 0.0
1.869390932374662e7 -2.9973693642496523e6 0.0
0.0 0.0 0.0

-6.896358876278637e6 1.1603390835449995e7 0.0
1.1603390835449995e7 4.2785541867797345e7 0.0
0.0 0.0 0.0

-1.8963690645065177e6 1.773920227293897e7 0.0
1.773920227293897e7 8.473294865782607e6 0.0
0.0 0.0 0.0

-6.27460141389751e6 2.3671159797707666e7 0.0
2.3671159797707666e7 6.447993332856165e6 0.0
0.0 0.0 0.0

-2.8168008047591485e6 1.4329495046198674e7 0.0
1.4329495046198674e7 -1.143289873122774e7 0.0
0.0 0.0 0.0

-1.0189917401921783e7 8.919827876584386e6 0.0
8.919827876584386e6 3.5190390335881576e7 0.0
0.0 0.0 0.0

-2.0835502937785427e6 1.7449184441619672e7 0.0
1.7449184441619672e7 4.676068023362173e6 0.0
0.0 0.0 0.0

-179401.55863500433 1.6808427141584955e7 0.0
1.6808427141584955e7 -1.24641473633303e7 0.0
0.0 0.0 0.0

70461.9087082902 1.3844735725656798e7 0.0
1.3844735725656798e7 -2.1437095500388775e7 0.0
0.0 0.0 0.0

1.7095894268257674e6 9.533611521555452e6 0.0
9.533611521555452e6 -3.40208531932497e7 0.0
0.0 0.0 0.0

1.981333347192442e6 1.0181110580610739e7 0.0
1.0181110580610739e7 -2.768437337683505e7 0.0
0.0 0.0 0.0

-6.76704751219143e6 1.632475073694732e7 0.0
1.632475073694732e7 -3.742530985243983e7 0.0
0.0 0.0 0.0

-3.382362708830872e6 2.3455300455286935e7 0.0
2.3455300455286935e7 4.226770324450236e6 0.0
0.0 0.0 0.0

-3.494170750285198e6 1.9138798041596353e7 0.0
1.9138798041596353e7 -8.246575070207392e6 0.0
0.0 0.0 0.0

-605426.886799166 1.6303442846868364e7 0.0
1.6303442846868364e7 -1.0827258712556975e7 0.0
0.0 0.0 0.0

1.4273306606174208e7 1.8633105407387882e7 0.0
1.8633105407387882e7 -2.750194194118932e6 0.0
0.0 0.0 0.0

-9.461952834792923e6 3.876165170532579e6 0.0
3.876165170532579e6 4.174114717800243e7 0.0
0.0 0.0 0.0

266565.2955703195 1.0553621501177922e7 0.0
1.0553621501177922e7 -4.0887497851099476e7 0.0
0.0 0.0 0.0

2.3101707607687414e6 1.0413825806903277e7 0.0
1.0413825806903277e7 -2.743466244589093e7 0.0
0.0 0.0 0.0

-6.95040645294131e6 7.699014370140928e6 0.0
7.699014370140928e6 5.26113866019464e7 0.0
0.0 0.0 0.0

1.2649433620170474e7 1.8914056917666778e7 0.0
1.8914056917666778e7 7.688054234072516e6 0.0
0.0 0.0 0.0

-9.50789524053406e6 6.946544872777968e6 0.0
6.946544872777968e6 3.9366463944673344e7 0.0
0.0 0.0 0.0

-4.177814578439476e6 853944.5193537333 0.0
853944.5193537333 4.202710345588338e6 0.0
0.0 0.0 0.0

-3.579296555260189e6 2.4380452013102688e7 0.0
2.4380452013102688e7 2.653652781714474e6 0.0
0.0 0.0 0.0

2.4840964388869554e6 9.974512541835029e6 0.0
9.974512541835029e6 -2.152518633785036e7 0.0
0.0 0.0 0.0

-6.0098610417773435e6 2.633778966164911e7 0.0
2.633778966164911e7 5.472833423702138e6 0.0
0.0 0.0 0.0

-9.873929647685874e6 1.138378607004622e7 0.0
1.138378607004622e7 3.1385694407014757e7 0.0
0.0 0.0 0.0

-1.2561594306217466e7 5.193263142172606e6 0.0
5.193263142172606e6 1.76851689712828e7 0.0
0.0 0.0 0.0

3.2262725074981623e6 2.416658448820544e7 0.0
2.416658448820544e7 -4.216943446673899e6 0.0
0.0 0.0 0.0

-4.558876865619363e6 1.9326142753981244e7 0.0
1.9326142753981244e7 1.0949848317460455e7 0.0
0.0 0.0 0.0

-203177.41534690792 2.1225064185618676e7 0.0
2.1225064185618676e7 -5.492738739687034e6 0.0
0.0 0.0 0.0

-6.022718422002344e6 2.1556323779855657e7 0.0
2.1556323779855657e7 6.735315873310572e6 0.0
0.0 0.0 0.0

-2.0703662300838167e6 1.533617459688657e7 0.0
1.533617459688657e7 -1.9006688927953657e7 0.0
0.0 0.0 0.0

2.232740412537772e6 1.8930880742292065e7 0.0
1.8930880742292065e7 -6.327891946649015e6 0.0
0.0 0.0 0.0

3.9203345921698855e6 1.6437188185398376e7 0.0
1.6437188185398376e7 3.0327066621590246e7 0.0
0.0 0.0 0.0

-5.855477009946351e6 3.478840831584911e6 0.0
3.478840831584911e6 1.4222149555582698e7 0.0
0.0 0.0 0.0

-3.611359698561883e6 7.237768891171327e6 0.0
7.237768891171327e6 -3.468159835653195e6 0.0
0.0 0.0 0.0

-3.360086826167098e6 1.6546089073920077e7 0.0
1.6546089073920077e7 -1.1200289268396879e7 0.0
0.0 0.0 0.0

3.0320408157011154e6 1.6923267664724626e7 0.0
1.6923267664724626e7 1.0106803093056623e7 0.0
0.0 0.0 0.0

3.302657756448825e6 2.755159711547691e7 0.0
2.755159711547691e7 -4.787879279777618e6 0.0
0.0 0.0 0.0

3.981772012744588e6 5.2514152088717455e6 0.0
5.2514152088717455e6 -1.3710350216870306e7 0.0
0.0 0.0 0.0

-4.0835690730303368e6 2.712671785827167e7 0.0
2.712671785827167e7 4.0646705547494874e6 0.0
0.0 0.0 0.0

-3.424064994743733e7 1.159275526886685e7 0.0
1.159275526886685e7 9.557127451534145e6 0.0
0.0 0.0 0.0

-12990.408267829102 1.7079186233445738e7 0.0
1.7079186233445738e7 -1.160975268520189e7 0.0
0.0 0.0 0.0

-9.782389610599427e6 1.303039596957405e7 0.0
1.303039596957405e7 2.746904221147413e7 0.0
0.0 0.0 0.0

303151.64573766873 1.6649451571416201e7 0.0
1.6649451571416201e7 -6.197052432114515e6 0.0
0.0 0.0 0.0

-4.4373771221668925e6 1.976022513836716e7 0.0
1.976022513836716e7 8.465120716362419e6 0.0
0.0 0.0 0.0

-3.095294450844198e6 1.944711933925632e7 0.0
1.944711933925632e7 -1.6677569527083621e6 0.0
0.0 0.0 0.0

496679.3856221265 1.7018079494533572e7 0.0
1.7018079494533572e7 -7.388896646584326e6 0.0
0.0 0.0 0.0

3.8149897507189848e6 4.216622053147036e6 0.0
4.216622053147036e6 -3.449263512844458e7 0.0
0.0 0.0 0.0

-626130.0400322244 1.3509265667472282e7 0.0
1.3509265667472282e7 -2.0871004916808496e6 0.0
0.0 0.0 0.0

6.513510181567644e6 1.9697602281008463e7 0.0
1.9697602281008463e7 -4.30119984097826e6 0.0
0.0 0.0 0.0

-751794.4515623976 1.6109585895181157e7 0.0
1.6109585895181157e7 -1.2303397393377429e7 0.0
0.0 0.0 0.0

2.682715922141161e6 1.8328974214204982e7 0.0
1.8328974214204982e7 8.238229752881023e6 0.0
0.0 0.0 0.0

701287.8456260357 1.0709615235802213e7 0.0
1.0709615235802213e7 -3.572377203859601e7 0.0
0.0 0.0 0.0

-1.3674342479585102e6 1.888903596359825e7 0.0
1.888903596359825e7 -7.039657062080033e6 0.0
0.0 0.0 0.0

1.7934530541137988e6 1.876087731758826e7 0.0
1.876087731758826e7 1.245214292816934e7 0.0
0.0 0.0 0.0

1.622017758864051e7 2.307442628031166e7 0.0
2.307442628031166e7 -6.601009280738752e6 0.0
0.0 0.0 0.0

1.534144029182585e6 1.0685681111042978e7 0.0
1.0685681111042978e7 -3.1148566702282272e7 0.0
0.0 0.0 0.0

-2.855367016112113e7 1.0443110285953583e7 0.0
1.0443110285953583e7 9.632351130669096e6 0.0
0.0 0.0 0.0

156358.09899152908 1.6537019542241652e7 0.0
1.6537019542241652e7 1.1809572858970052e7 0.0
0.0 0.0 0.0

-5.438208507612448e6 2.7089268091049533e7 0.0
2.7089268091049533e7 5.028051524625806e6 0.0
0.0 0.0 0.0

-346911.2250024122 1.7463726376897547e7 0.0
1.7463726376897547e7 -8.940140606078928e6 0.0
0.0 0.0 0.0

-5.463517488487626e6 2.389676070275948e7 0.0
2.389676070275948e7 5.927644964480521e6 0.0
0.0 0.0 0.0

-7.475538117463347e6 1.0832421474804725e7 0.0
1.0832421474804725e7 4.5893441014296025e7 0.0
0.0 0.0 0.0

1.5263526226888048e6 1.3274528198290745e7 0.0
1.3274528198290745e7 -1.4293674000498114e7 0.0
0.0 0.0 0.0

1.8303823326533914e6 2.4203439011304088e7 0.0
2.4203439011304088e7 -4.2340122686914e6 0.0
0.0 0.0 0.0

-2.266063280447308e6 1.0408945694973065e7 0.0
1.0408945694973065e7 612474.024081982 0.0
0.0 0.0 0.0

-2.616625633860734e7 9.869992067473e6 0.0
9.869992067473e6 9.540489395593448e6 0.0
0.0 0.0 0.0

-3.6706898790175165e6 1.3590949336836329e7 0.0
1.3590949336836329e7 -617335.2364961804 0.0
0.0 0.0 0.0

-1.1843191423073374e7 1.7278824133053313e6 0.0
1.7278824133053313e6 2.433030994311043e7 0.0
0.0 0.0 0.0

-9.002209216193331e6 1.3821323435074927e7 0.0
1.3821323435074927e7 2.8546872356741942e7 0.0
0.0 0.0 0.0

-4.721153895989667e6 2.5629643416690286e7 0.0
2.5629643416690286e7 3.7557410745770726e6 0.0
0.0 0.0 0.0

-4.9116006782063935e6 2.771483719699375e7 0.0
2.771483719699375e7 4.430104365956199e6 0.0
0.0 0.0 0.0

-9.235087153394522e6 9.896452125771808e6 0.0
9.896452125771808e6 3.639247186951254e7 0.0
0.0 0.0 0.0

1.418422813266329e6 1.2107533283297345e7 0.0
1.2107533283297345e7 -1.1911984384899583e7 0.0
0.0 0.0 0.0

4.0536640916221645e6 1.790236631290645e7 0.0
1.790236631290645e7 -606264.1115429711 0.0
0.0 0.0 0.0

-2.183030772433901e6 1.273720769201113e7 0.0
1.273720769201113e7 -8.169167585593543e6 0.0
0.0 0.0 0.0

551486.9390111403 9.196562658390509e6 0.0
9.196562658390509e6 -5.805509873147401e6 0.0
0.0 0.0 0.0

-3.674607005564619e6 2.5438610905785717e7 0.0
2.5438610905785717e7 4.0018272434773687e6 0.0
0.0 0.0 0.0

-1.0375559490694895e7 1.5720098422601916e7 0.0
1.5720098422601916e7 2.0654670940697804e7 0.0
0.0 0.0 0.0

942302.8548111897 1.1012161247965448e7 0.0
1.1012161247965448e7 -3.164593571908744e7 0.0
0.0 0.0 0.0

-1.803203137922436e7 2.2782226049843077e7 0.0
2.2782226049843077e7 3.563998653185932e6 0.0
0.0 0.0 0.0

-211069.56275099027 2.1869046211967293e7 0.0
2.1869046211967293e7 -4.688961799245478e6 0.0
0.0 0.0 0.0

2.9339259241840653e6 5.51015680018245e6 0.0
5.51015680018245e6 -4.103641371256133e7 0.0
0.0 0.0 0.0

-3.6978604129991913e6 1.745949813277633e7 0.0
1.745949813277633e7 1.494579065066669e7 0.0
0.0 0.0 0.0

-3.071178293020038e6 1.9825931413273856e7 0.0
1.9825931413273856e7 1.2375535004071097e6 0.0
0.0 0.0 0.0

107012.84436813556 1.723264465434283e7 0.0
1.723264465434283e7 -1.1811817904313855e7 0.0
0.0 0.0 0.0

-7.253859618197473e6 2.6766770759502944e7 0.0
2.6766770759502944e7 5.809862547390485e6 0.0
0.0 0.0 0.0

-2.4845570640594815e6 1.9836174780473653e7 0.0
1.9836174780473653e7 -1.0355638635189595e6 0.0
0.0 0.0 0.0

-5.463018214575153e6 2.616666431777134e7 0.0
2.616666431777134e7 4.046007777317023e6 0.0
0.0 0.0 0.0

-1.6169027920179223e6 7.176590139612689e6 0.0
7.176590139612689e6 770711.2086805191 0.0
0.0 0.0 0.0

3.576872253024139e6 1.6098315481046114e7 0.0
1.6098315481046114e7 1.4085123058872456e7 0.0
0.0 0.0 0.0

-350559.3884461913 1.519055475577982e7 0.0
1.519055475577982e7 -1.6651729654039899e7 0.0
0.0 0.0 0.0

-2.5814477619570647e6 1.3176743786643947e7 0.0
1.3176743786643947e7 32252.021170881926 0.0
0.0 0.0 0.0

-92014.78560901806 1.6192958634623663e7 0.0
1.6192958634623663e7 -1.3527304768478626e7 0.0
0.0 0.0 0.0

2.974868932849386e6 7.508710611723531e6 0.0
7.508710611723531e6 -1.6657958000299996e7 0.0
0.0 0.0 0.0

7.666477722234614e6 1.9463146885468844e7 0.0
1.9463146885468844e7 8.480993149503972e6 0.0
0.0 0.0 0.0

-9.902783294429693e6 -1.691286829247565e6 0.0
-1.691286829247565e6 3.0738518813068297e7 0.0
0.0 0.0 0.0

4.096345582312241e6 1.6303654579965781e7 0.0
1.6303654579965781e7 1.6044163608024595e7 0.0
0.0 0.0 0.0

-3.83424987978621e6 2.406323555850798e7 0.0
2.406323555850798e7 3.3132324148787656e6 0.0
0.0 0.0 0.0

104875.5725847492 1.4945074996392924e7 0.0
1.4945074996392924e7 -1.8763360476556607e7 0.0
0.0 0.0 0.0

1.4298736855743616e6 2.372778482472173e7 0.0
2.372778482472173e7 -3.7895668038420286e6 0.0
0.0 0.0 0.0

-244636.66493567574 1.6561027278139422e7 0.0
1.6561027278139422e7 -2.101756210572011e6 0.0
0.0 0.0 0.0

3.1488158969565984e6 9.613616250639856e6 0.0
9.613616250639856e6 -2.09494208497682e7 0.0
0.0 0.0 0.0

-522030.81024163775 2.13389116752083e7 0.0
2.13389116752083e7 -5.670754706758528e6 0.0
0.0 0.0 0.0

-264428.57927687746 1.5474176455592496e7 0.0
1.5474176455592496e7 -1.558528082545472e7 0.0
0.0 0.0 0.0

-9.428349846622376e6 4.761680402899114e6 0.0
4.761680402899114e6 1.2546898793345146e7 0.0
0.0 0.0 0.0

1.6054391577106952e6 1.8043675695429992e7 0.0
1.8043675695429992e7 1.2381590588473206e7 0.0
0.0 0.0 0.0

-5.219215331561829e6 2.008690674104425e7 0.0
2.008690674104425e7 8.139094914686859e6 0.0
0.0 0.0 0.0

-4.03265548418298e6 2.4608821981932253e7 0.0
2.4608821981932253e7 3.404121841555382e6 0.0
0.0 0.0 0.0

-1.4610708407826307e6 1.6980961722877156e7 0.0
1.6980961722877156e7 8.553255920164082e6 0.0
0.0 0.0 0.0

-3.6367317701873994e6 4.284944597265222e6 0.0
4.284944597265222e6 5.55457938328005e6 0.0
0.0 0.0 0.0

-1.1372852672663486e7 8.383014218905595e6 0.0
8.383014218905595e6 3.0182140919279885e7 0.0
0.0 0.0 0.0

-45961.76206380688 1.6593637277822152e7 0.0
1.6593637277822152e7 -1.2583620001151692e7 0.0
0.0 0.0 0.0

-1.222667608972989e6 1.3100864519796725e7 0.0
1.3100864519796725e7 -4.669297115736432e7 0.0
0.0 0.0 0.0

-3.1703869751168326e6 5.499789889175857e6 0.0
5.499789889175857e6 4.343839584431466e6 0.0
0.0 0.0 0.0

-1.0995511651352167e7 -234832.39402429928 0.0
-234832.39402429928 1.7635409804715976e7 0.0
0.0 0.0 0.0

-5.555782976576693e6 1.5567380087412383e7 0.0
1.5567380087412383e7 6.529277638160834e6 0.0
0.0 0.0 0.0

-575209.1705641347 2.2064787114278592e7 0.0
2.2064787114278592e7 -4.108089585125178e6 0.0
0.0 0.0 0.0

-2.220494349121944e6 1.4115041948012078e7 0.0
1.4115041948012078e7 -3.0313664819317743e7 0.0
0.0 0.0 0.0

3.5336171782268174e6 7.199722400893445e6 0.0
7.199722400893445e6 -1.450462369186407e7 0.0
0.0 0.0 0.0

-2.921545716665725e6 2.416746221696157e7 0.0
2.416746221696157e7 2.9786958952150233e6 0.0
0.0 0.0 0.0

126882.67593041621 2.1608065968780134e7 0.0
2.1608065968780134e7 -5.242757088499259e6 0.0
0.0 0.0 0.0

-8.579154429184232e6 3.1422014534896888e7 0.0
3.1422014534896888e7 4.089318243385354e6 0.0
0.0 0.0 0.0

-3.245397244513572e6 2.4363769957056712e7 0.0
2.4363769957056712e7 3.77024470451751e6 0.0
0.0 0.0 0.0

-1.8221856174614843e7 2.4262449145125326e7 0.0
2.4262449145125326e7 -3.9627059463500204e6 0.0
0.0 0.0 0.0

-2.559069434855842e6 1.8573648292187255e7 0.0
1.8573648292187255e7 -1.317887566832316e6 0.0
0.0 0.0 0.0

-1.4519021879032217e6 1.29916052028329e7 0.0
1.29916052028329e7 -4.301901143930298e7 0.0
0.0 0.0 0.0

-3.4823272861510245e6 1.2566822152705336e7 0.0
1.2566822152705336e7 -894159.535354106 0.0
0.0 0.0 0.0

-1.0691793913086321e7 758954.3125119017 0.0
758954.3125119017 3.531108531430678e7 0.0
0.0 0.0 0.0

-9.906175102758152e6 4.615745493461981e6 0.0
4.615745493461981e6 4.116862458548514e7 0.0
0.0 0.0 0.0

3.452999024157131e6 6.312991021680521e6 0.0
6.312991021680521e6 -3.0496846370701723e7 0.0
0.0 0.0 0.0

-4.760502861441119e6 2.1227112495285835e7 0.0
2.1227112495285835e7 8.153342645187162e6 0.0
0.0 0.0 0.0

-7.588194062767854e6 1.1902596047345893e7 0.0
1.1902596047345893e7 3.911596121102021e7 0.0
0.0 0.0 0.0

-169457.73241817113 1.5827273627097426e7 0.0
1.5827273627097426e7 -1.4536654598078243e7 0.0
0.0 0.0 0.0

-5.710473222205903e6 1.3890354406313034e7 0.0
1.3890354406313034e7 3.614586954335664e7 0.0
0.0 0.0 0.0

-932666.2377682781 2.1575640796414033e7 0.0
2.1575640796414033e7 -5.153984647964106e6 0.0
0.0 0.0 0.0

518513.0224413017 2.5531316386316363e7 0.0
2.5531316386316363e7 -2.711845920093181e6 0.0
0.0 0.0 0.0

-47262.0867744484 1.644324122900954e7 0.0
1.644324122900954e7 -3.5526593327961164e6 0.0
0.0 0.0 0.0

-1.1354286925859127e7 2.436674207358503e6 0.0
2.436674207358503e6 1.7711716464885924e7 0.0
0.0 0.0 0.0

-739302.0416040602 1.6738670895096203e7 0.0
1.6738670895096203e7 1.0317363302830763e7 0.0
0.0 0.0 0.0

-4.814605295161727e6 1.5063277102488512e7 0.0
1.5063277102488512e7 7.399244268829213e6 0.0
0.0 0.0 0.0

4.038306694726566e6 4.819714499285215e6 0.0
4.819714499285215e6 -2.788636196990019e7 0.0
0.0 0.0 0.0

2.3530853052846543e6 1.8701848959503297e7 0.0
1.8701848959503297e7 -5.579145082374499e6 0.0
0.0 0.0 0.0

-1.1857636851973085e7 1.828900541003419e7 0.0
1.828900541003419e7 6.341087723426731e6 0.0
0.0 0.0 0.0

-1.713235428876718e7 2.0922388779192608e7 0.0
2.0922388779192608e7 -4.49783577153858e6 0.0
0.0 0.0 0.0

-3.0004485174351884e6 2.4451323740986727e7 0.0
2.4451323740986727e7 1.338462048901601e6 0.0
0.0 0.0 0.0

587846.1281336951 1.1747379076226125e7 0.0
1.1747379076226125e7 -1.1298102103900405e7 0.0
0.0 0.0 0.0

-4.168714541836815e6 1.836569608675256e7 0.0
1.836569608675256e7 -1.0762485811691117e6 0.0
0.0 0.0 0.0

-231752.24233327626 2.56681089626995e7 0.0
2.56681089626995e7 -944808.1570987538 0.0
0.0 0.0 0.0

-4.601870425687179e6 1.753023918366297e7 0.0
1.753023918366297e7 1.6183595795945149e7 0.0
0.0 0.0 0.0

-2.1556667081692456e6 1.7286104087572265e7 0.0
1.7286104087572265e7 8.65076688850252e6 0.0
0.0 0.0 0.0

1.4363634551135683e6 1.137943621208628e7 0.0
1.137943621208628e7 -1.0710268774588456e7 0.0
0.0 0.0 0.0

-2.571319920729879e6 2.7229768711957745e7 0.0
2.7229768711957745e7 2.1743314061316e6 0.0
0.0 0.0 0.0

-1.1304148966321798e7 -395727.8051502708 0.0
-395727.8051502708 2.6561731630469177e7 0.0
0.0 0.0 0.0

4.360801620784599e6 5.74944291649275e6 0.0
5.74944291649275e6 -2.2103898949496157e7 0.0
0.0 0.0 0.0

-1.2727175602554504e6 2.36582804915792e7 0.0
2.36582804915792e7 -1.2557553819628293e6 0.0
0.0 0.0 0.0

-237008.77526573092 1.54432341635146e7 0.0
1.54432341635146e7 -1.704971571727842e7 0.0
0.0 0.0 0.0

-2.4561401225378495e6 1.7185235988548903e6 0.0
1.7185235988548903e6 3.6815169846503343e6 0.0
0.0 0.0 0.0

1.2152639549699798e6 8.993538404145794e6 0.0
8.993538404145794e6 -1.057962790544919e7 0.0
0.0 0.0 0.0

-6.953762110544758e6 2.1303413122661773e7 0.0
2.1303413122661773e7 -5.039705716085615e6 0.0
0.0 0.0 0.0

2.768108776213074e6 1.064261483620186e7 0.0
1.064261483620186e7 -2.0380881827345356e7 0.0
0.0 0.0 0.0

7.068131181262875e6 1.982902904314805e7 0.0
1.982902904314805e7 9.221309126326513e6 0.0
0.0 0.0 0.0

-3.1394246437956668e6 7.665729573054929e6 0.0
7.665729573054929e6 26124.423222166137 0.0
0.0 0.0 0.0

-4.395261671694249e6 4.451934866422657e6 0.0
4.451934866422657e6 2.7965869480169206e6 0.0
0.0 0.0 0.0

4.513032276534993e6 2.419780291184302e7 0.0
2.419780291184302e7 -4.62687319816559e6 0.0
0.0 0.0 0.0

-1.0932989758136125e7 -73201.70452568488 0.0
-73201.70452568488 2.6103554258564662e7 0.0
0.0 0.0 0.0

948686.0325372452 1.428741199742854e7 0.0
1.428741199742854e7 -1.2349881462706858e7 0.0
0.0 0.0 0.0

666898.2933133094 1.5964511898926781e7 0.0
1.5964511898926781e7 1.659027486837723e6 0.0
0.0 0.0 0.0

1.0430498631554367e7 2.074608629490015e7 0.0
2.074608629490015e7 -4.601701293251628e6 0.0
0.0 0.0 0.0

929964.6020233929 1.5056073739748085e7 0.0
1.5056073739748085e7 -1.505286362147296e7 0.0
0.0 0.0 0.0

5.574495840318257e6 1.694435402495709e7 0.0
1.694435402495709e7 2.156791128862406e7 0.0
0.0 0.0 0.0

-7.3586939752399195e6 2.3896725006823953e7 0.0
2.3896725006823953e7 6.1615549791688975e6 0.0
0.0 0.0 0.0

-1.0153932523354612e7 458748.4321030737 0.0
458748.4321030737 3.2858471082505386e7 0.0
0.0 0.0 0.0

-858334.4458571321 2.3698784261704203e7 0.0
2.3698784261704203e7 -1.734993462872752e6 0.0
0.0 0.0 0.0

-1.39111263464305e6 1.770989424177368e7 0.0
1.770989424177368e7 1.4784802605980096e7 0.0
0.0 0.0 0.0

2.214617893569311e6 1.0265656234556066e7 0.0
1.0265656234556066e7 -1.7193087285971187e7 0.0
0.0 0.0 0.0

4.319353348468479e6 4.920345903449184e6 0.0
4.920345903449184e6 -3.098044822322695e7 0.0
0.0 0.0 0.0

-2.89833594126745e6 1.9643942167756483e7 0.0
1.9643942167756483e7 -2.3659757556973416e6 0.0
0.0 0.0 0.0

-7.7906645640494935e6 9.521106355403699e6 0.0
9.521106355403699e6 1.2599771257615395e7 0.0
0.0 0.0 0.0

-1.0344352861416109e7 1.4678943439155264e7 0.0
1.4678943439155264e7 2.4326785616517883e7 0.0
0.0 0.0 0.0

-51367.11638545431 1.466286416169444e7 0.0
1.466286416169444e7 -1.991798252491404e7 0.0
0.0 0.0 0.0

-948802.7095034346 1.2521759227071632e7 0.0
1.2521759227071632e7 -4.016703084794178e7 0.0
0.0 0.0 0.0

-576018.8699557283 2.4165476143920902e7 0.0
2.4165476143920902e7 -1.676155788557933e6 0.0
0.0 0.0 0.0

-1.337433019500406e6 1.7018281084030036e7 0.0
1.7018281084030036e7 6.624882498421526e6 0.0
0.0 0.0 0.0

-3.1328791931887038e7 1.0772736679184973e7 0.0
1.0772736679184973e7 9.33315881178212e6 0.0
0.0 0.0 0.0

6.115815980319643e6 1.7340880520435713e7 0.0
1.7340880520435713e7 2.4623728570846315e7 0.0
0.0 0.0 0.0

-2.9123095176838163e7 2.713131499390476e7 0.0
2.713131499390476e7 8.267766128586201e6 0.0
0.0 0.0 0.0

2.414004858559044e6 9.92482766085161e6 0.0
9.92482766085161e6 -2.44505446595936e7 0.0
0.0 0.0 0.0

5.948783845006791e6 5.304892483208743e6 0.0
5.304892483208743e6 -1.1608533324314242e6 0.0
0.0 0.0 0.0

-1.5871154469594944e7 -956232.4445592673 0.0
-956232.4445592673 7.1019382131752875e6 0.0
0.0 0.0 0.0

-6.684360946926966e6 8.52580380804044e6 0.0
8.52580380804044e6 1.0546993728056358e7 0.0
0.0 0.0 0.0

-1.0705717613834003e7 1.6821700882316057e6 0.0
1.6821700882316057e6 3.117241920322158e7 0.0
0.0 0.0 0.0

-1.1858074305742726e7 1.993101725041131e6 0.0
1.993101725041131e6 2.5632766106763955e7 0.0
0.0 0.0 0.0

135046.67594014294 1.6417784686586514e7 0.0
1.6417784686586514e7 -1.3920089289260682e7 0.0
0.0 0.0 0.0

-2.0734013364127427e6 1.3489249009169713e7 0.0
1.3489249009169713e7 -6.911338004362883e6 0.0
0.0 0.0 0.0

1.5313569118317487e6 1.4578274062357476e7 0.0
1.4578274062357476e7 5.104523189881321e6 0.0
0.0 0.0 0.0

733141.5456314774 1.5700909791147886e7 0.0
1.5700909791147886e7 -864572.8643507857 0.0
0.0 0.0 0.0

-253378.45499003673 2.4618396254017733e7 0.0
2.4618396254017733e7 -1.5838349415021632e6 0.0
0.0 0.0 0.0

-1.0934278039526004e7 8.331187752832956e6 0.0
8.331187752832956e6 1.7189313911212847e7 0.0
0.0 0.0 0.0

243139.9657672951 1.558433543584666e7 0.0
1.558433543584666e7 -1.4173613685990512e7 0.0
0.0 0.0 0.0

-3.679850152141339e6 2.13886460455353e7 0.0
2.13886460455353e7 2.734101855015413e6 0.0
0.0 0.0 0.0

2.8150126601959188e6 8.249171246451718e6 0.0
8.249171246451718e6 -2.8426179524946213e7 0.0
0.0 0.0 0.0

-1.0914777062394707e7 890276.8804978816 0.0
890276.8804978816 2.7950635655676194e7 0.0
0.0 0.0 0.0

-718163.1891540881 2.3173634455756757e7 0.0
2.3173634455756757e7 -2.5331460047316053e6 0.0
0.0 0.0 0.0

-1.292214847473107e6 1.6987523995307937e7 0.0
1.6987523995307937e7 4.64944755158037e6 0.0
0.0 0.0 0.0

-1.2623023656045003e6 1.713899191869349e7 0.0
1.713899191869349e7 2.6966639708171566e6 0.0
0.0 0.0 0.0

-4.746733739528542e6 2.025536983559598e7 0.0
2.025536983559598e7 -8.365381532579982e6 0.0
0.0 0.0 0.0

4.1616316825058423e6 1.488026081468859e7 0.0
1.488026081468859e7 1.5301491640448693e7 0.0
0.0 0.0 0.0

-4.672109515807507e6 1.938078605584624e7 0.0
1.938078605584624e7 -6.938784239196924e6 0.0
0.0 0.0 0.0

-9.546614953731103e6 1.2483584411559308e7 0.0
1.2483584411559308e7 2.9614939306286573e7 0.0
0.0 0.0 0.0

-1.0817296184649374e7 430359.94054369826 0.0
430359.94054369826 3.2489935181302138e7 0.0
0.0 0.0 0.0

2.84206610947436e6 9.890528447187563e6 0.0
9.890528447187563e6 -1.6577355398810301e7 0.0
0.0 0.0 0.0

3.55344500526092e6 5.6210490650679385e6 0.0
5.6210490650679385e6 -3.187451405949608e7 0.0
0.0 0.0 0.0

635362.407699164 1.5962384885841988e7 0.0
1.5962384885841988e7 -1.3141383538880065e7 0.0
0.0 0.0 0.0

4.0531219521693997e6 1.892883642107655e7 0.0
1.892883642107655e7 7.224497073743445e6 0.0
0.0 0.0 0.0

3.1383462969477717e6 6.583974388495146e6 0.0
6.583974388495146e6 -1.5495980183641199e7 0.0
0.0 0.0 0.0

-4.832470616769344e6 1.5210502361275613e7 0.0
1.5210502361275613e7 -2.3543324088897873e7 0.0
0.0 0.0 0.0

-539298.2831676342 1.2221052379010543e7 0.0
1.2221052379010543e7 -3.747229009669186e7 0.0
0.0 0.0 0.0

-5.181537189388175e6 1.4680976507163946e7 0.0
1.4680976507163946e7 4.234146258346395e6 0.0
0.0 0.0 0.0

-5.838100593440262e6 2.147423757477675e7 0.0
2.147423757477675e7 7.801858047167242e6 0.0
0.0 0.0 0.0

-6.425018446790424e6 2.006967013507849e7 0.0
2.006967013507849e7 -7.066611670073297e6 0.0
0.0 0.0 0.0

-9.510054724619754e6 1.6897652544621928e6 0.0
1.6897652544621928e6 4.076463051988598e7 0.0
0.0 0.0 0.0

-129920.1713263914 1.20694109695172e7 0.0
1.20694109695172e7 -3.516035254526535e7 0.0
0.0 0.0 0.0

-9.279733609969277e6 1.1853405944104424e7 0.0
1.1853405944104424e7 3.1868218933392808e7 0.0
0.0 0.0 0.0

-1.3692192238993573e6 1.7294887140122242e7 0.0
1.7294887140122242e7 755358.1470579682 0.0
0.0 0.0 0.0

-1.0737230763682108e6 2.4361503730757948e7 0.0
2.4361503730757948e7 -1.9858976025459736e6 0.0
0.0 0.0 0.0

-1.142956473525289e7 2.3504350213016685e7 0.0
2.3504350213016685e7 5.507213714999133e6 0.0
0.0 0.0 0.0

-1.1026678781045409e7 1.3785719859786361e7 0.0
1.3785719859786361e7 2.4271752194537267e7 0.0
0.0 0.0 0.0

-3.4673214374817302e6 1.3130316109269584e7 0.0
1.3130316109269584e7 -1.3393115149005419e7 0.0
0.0 0.0 0.0

2.670368585871591e6 1.556670710739585e7 0.0
1.556670710739585e7 9.736213613461278e6 0.0
0.0 0.0 0.0

3.249609252145216e6 6.83980744773498e6 0.0
6.83980744773498e6 -2.9276709508445024e7 0.0
0.0 0.0 0.0

1.6878344043145273e6 8.42912815074993e6 0.0
8.42912815074993e6 -1.1487440600450914e7 0.0
0.0 0.0 0.0

-1.0641898583480077e7 9.550196980983337e6 0.0
9.550196980983337e6 3.159824449798011e7 0.0
0.0 0.0 0.0

-4.0138770961572044e6 1.8663092573930286e7 0.0
1.8663092573930286e7 1.0012391359625116e7 0.0
0.0 0.0 0.0

-2.6954448759799775e7 2.3560685681015633e7 0.0
2.3560685681015633e7 3.7143461323546506e6 0.0
0.0 0.0 0.0

498619.76189600676 1.3414131761067456e7 0.0
1.3414131761067456e7 -2.1840920495866124e7 0.0
0.0 0.0 0.0

2.3493339913166463e6 9.466241003985373e6 0.0
9.466241003985373e6 -2.746020611066499e7 0.0
0.0 0.0 0.0

250088.78167725354 1.203642755420599e7 0.0
1.203642755420599e7 -3.3017387697872322e7 0.0
0.0 0.0 0.0

2.8436210830711033e6 4.487060082146123e6 0.0
4.487060082146123e6 -9.04401265898328e6 0.0
0.0 0.0 0.0

-215762.1345243142 1.7611658497570217e7 0.0
1.7611658497570217e7 -9.361688251248002e6 0.0
0.0 0.0 0.0

579713.0905288341 1.879507188691029e7 0.0
1.879507188691029e7 -8.183898724200712e6 0.0
0.0 0.0 0.0

-1.7484610907615136e7 3.022125736523784e7 0.0
3.022125736523784e7 7.288912906630818e6 0.0
0.0 0.0 0.0

1.8072702049558223e6 4.510664230687584e6 0.0
4.510664230687584e6 -5.6668807082693055e6 0.0
0.0 0.0 0.0

-66906.34332105983 1.5743104598537516e7 0.0
1.5743104598537516e7 -1.5925185352796651e7 0.0
0.0 0.0 0.0

-9.715318340567194e6 1.5973145681911035e7 0.0
1.5973145681911035e7 2.1037040074992236e7 0.0
0.0 0.0 0.0

-1.076748828896746e7 630083.774390331 0.0
630083.774390331 2.292637782487689e7 0.0
0.0 0.0 0.0

3.868702261721514e6 5.355710680369944e6 0.0
5.355710680369944e6 -2.680215443678196e7 0.0
0.0 0.0 0.0

-1.1485486152210351e7 3.225781329455324e6 0.0
3.225781329455324e6 2.2767729213963844e7 0.0
0.0 0.0 0.0

-1.1294550466557331e7 3.470411136762798e6 0.0
3.470411136762798e6 2.7324432424562342e7 0.0
0.0 0.0 0.0

-8.499603029144838e6 8.126244236142388e6 0.0
8.126244236142388e6 1.3955554995556176e7 0.0
0.0 0.0 0.0

-4.8090006987236785e6 1.9845553772867076e7 0.0
1.9845553772867076e7 1.0340320639666088e7 0.0
0.0 0.0 0.0

-1.96111380364578e6 1.1052200226077348e7 0.0
1.1052200226077348e7 -468056.3519085218 0.0
0.0 0.0 0.0

1.5931699746889222e7 5.76960824374949e6 0.0
5.76960824374949e6 -2.943574200470927e6 0.0
0.0 0.0 0.0

-2.9510957294464495e7 1.0668645086180922e6 0.0
1.0668645086180922e6 8.187922297113946e6 0.0
0.0 0.0 0.0

2.9655880716180447e6 7.907651795698984e6 0.0
7.907651795698984e6 -1.2188627748546159e7 0.0
0.0 0.0 0.0

3.0489702812137306e6 9.065908087282995e6 0.0
9.065908087282995e6 -2.6855195600883126e7 0.0
0.0 0.0 0.0

3.55107913455401e6 7.711668213286108e6 0.0
7.711668213286108e6 -2.7614878576535508e7 0.0
0.0 0.0 0.0

457810.8973199957 1.606624501999342e6 0.0
1.606624501999342e6 1.1831792065893242e6 0.0
0.0 0.0 0.0

-1.8212628806515208e6 -1.584470545519603e6 0.0
-1.584470545519603e6 2.8472550521385036e6 0.0
0.0 0.0 0.0

-2.9468784219731647e6 1.5154094382656042e7 0.0
1.5154094382656042e7 -2.1636915600868527e7 0.0
0.0 0.0 0.0

3.6755120767495763e6 5.606349725207341e6 0.0
5.606349725207341e6 -3.000262376716366e7 0.0
0.0 0.0 0.0

-1.9162502710056886e7 2.2143512500732515e7 0.0
2.2143512500732515e7 -6.379497090611285e6 0.0
0.0 0.0 0.0

-6.778432842833534e6 1.763715351871033e7 0.0
1.763715351871033e7 1.3874433342097383e7 0.0
0.0 0.0 0.0

-632705.5110170192 2.2623176645116195e7 0.0
2.2623176645116195e7 -3.3088377255944805e6 0.0
0.0 0.0 0.0

3.5302020851417803e6 1.4724024491167787e7 0.0
1.4724024491167787e7 1.333195644969296e7 0.0
0.0 0.0 0.0

8.384869518116883e6 1.0484401349083781e7 0.0
1.0484401349083781e7 1.3064692886376192e6 0.0
0.0 0.0 0.0

-9.229416621261954e6 2.247812840597961e7 0.0
2.247812840597961e7 -6.529594147588022e6 0.0
0.0 0.0 0.0

-1.0463472047134828e7 4.251160431138714e6 0.0
4.251160431138714e6 3.526421779546707e7 0.0
0.0 0.0 0.0

-5.681423288277203e6 2.0768977265640274e7 0.0
2.0768977265640274e7 8.039479500947436e6 0.0
0.0 0.0 0.0

1.0113209262789804e6 1.884254420375019e7 0.0
1.884254420375019e7 -7.3555245304392055e6 0.0
0.0 0.0 0.0

-9.292882617691755e6 1.6281779396906856e7 0.0
1.6281779396906856e7 2.0255014135692913e7 0.0
0.0 0.0 0.0

-9.546561309331812e6 -3.169135598990084e6 0.0
-3.169135598990084e6 2.2270100559846662e7 0.0
0.0 0.0 0.0

-1.610090582785569e6 2.3412917607061546e7 0.0
2.3412917607061546e7 -2.183971786953654e6 0.0
0.0 0.0 0.0

2.547603397442259e6 9.373260882368512e6 0.0
9.373260882368512e6 -2.5800163748876616e7 0.0
0.0 0.0 0.0

588991.7455901422 2.1933333239904176e7 0.0
2.1933333239904176e7 -5.102397772908623e6 0.0
0.0 0.0 0.0

3.9962042996377107e6 6.420240436339344e6 0.0
6.420240436339344e6 -2.8608349977244344e7 0.0
0.0 0.0 0.0

3.673442236200683e6 1.65570517662691e7 0.0
1.65570517662691e7 1.2624227038790021e7 0.0
0.0 0.0 0.0

-1.2146092299415132e6 1.8099984572951533e7 0.0
1.8099984572951533e7 -8.102457183929981e6 0.0
0.0 0.0 0.0

-1.0046938356275324e7 1.2309879927378702e6 0.0
1.2309879927378702e6 1.2698530615435533e7 0.0
0.0 0.0 0.0

-1.6304695646971036e6 1.345069798852191e7 0.0
1.345069798852191e7 -7.261969049122552e6 0.0
0.0 0.0 0.0

4.395877553803502e6 4.982351540761975e6 0.0
4.982351540761975e6 -2.90465701611511e7 0.0
0.0 0.0 0.0

8.169371736760402e6 2.1940702542068962e7 0.0
2.1940702542068962e7 -5.092948759064736e6 0.0
0.0 0.0 0.0

2.8098624488030802e6 7.183458879241311e6 0.0
7.183458879241311e6 -1.4610627764170218e7 0.0
0.0 0.0 0.0

-1.2341686812711623e7 4.449163577223734e6 0.0
4.449163577223734e6 1.6773388238310829e7 0.0
0.0 0.0 0.0

-3.681613836173951e6 2.3516649935603466e7 0.0
2.3516649935603466e7 3.130746398465931e6 0.0
0.0 0.0 0.0

358316.788544666 1.2021870809552267e7 0.0
1.2021870809552267e7 -3.093159126484388e7 0.0
0.0 0.0 0.0

-3.6544463308384065e6 1.3785282759706939e7 0.0
1.3785282759706939e7 -1.2181487893651545e7 0.0
0.0 0.0 0.0

2.661130592612336e6 1.4853345601208076e7 0.0
1.4853345601208076e7 8.870435575963913e6 0.0
0.0 0.0 0.0

-2.5914022048348375e6 1.1548307708031178e7 0.0
1.1548307708031178e7 895496.7026089629 0.0
0.0 0.0 0.0

-6.207002799108239e6 1.339761513251203e7 0.0
1.339761513251203e7 6.690445685627518e6 0.0
0.0 0.0 0.0

646715.2829921623 1.7023799351670682e7 0.0
1.7023799351670682e7 1.3290844947503366e7 0.0
0.0 0.0 0.0

-9.78271350662576e6 -1.4354019793989707e6 0.0
-1.4354019793989707e6 1.9466642633225113e7 0.0
0.0 0.0 0.0

845174.5406482421 1.743493797582348e7 0.0
1.743493797582348e7 3.664275637470642e6 0.0
0.0 0.0 0.0

-5.0603007026548935e6 1.9401122500620045e7 0.0
1.9401122500620045e7 1.0635133973994307e7 0.0
0.0 0.0 0.0

2.5045841141966432e6 7.303925171493138e6 0.0
7.303925171493138e6 -1.313903040558659e7 0.0
0.0 0.0 0.0

-1.2002482907244554e7 1.7295452776028446e6 0.0
1.7295452776028446e6 2.077936717739597e7 0.0
0.0 0.0 0.0

-3.714183578438071e6 1.894547230977422e7 0.0
1.894547230977422e7 -5.9329971846326655e6 0.0
0.0 0.0 0.0

-9.586913153583072e6 1.642204566523646e7 0.0
1.642204566523646e7 1.927095331741195e7 0.0
0.0 0.0 0.0

-1.4053761409945223e6 1.748553373661291e7 0.0
1.748553373661291e7 1.2021619348884562e7 0.0
0.0 0.0 0.0

-1.1995902832716977e7 5.775856458768019e6 0.0
5.775856458768019e6 2.2512863420906544e7 0.0
0.0 0.0 0.0

383496.86833548406 1.8535724679285742e7 0.0
1.8535724679285742e7 -8.788156483798573e6 0.0
0.0 0.0 0.0

-5.478394224415315e6 2.3239320147229325e7 0.0
2.3239320147229325e7 6.437208335305358e6 0.0
0.0 0.0 0.0

-1.0969589365880882e7 7.847925681436346e6 0.0
7.847925681436346e6 3.1365075443982136e7 0.0
0.0 0.0 0.0

-8.9502558795378e6 1.046553482557642e7 0.0
1.046553482557642e7 1.080915386463162e7 0.0
0.0 0.0 0.0

-1.1158281442685965e7 1.633616239359037e6 0.0
1.633616239359037e6 3.0456048460543454e7 0.0
0.0 0.0 0.0

432396.1734602228 1.5138919079174472e7 0.0
1.5138919079174472e7 -1.5185154130614826e7 0.0
0.0 0.0 0.0

-5.322804956487168e6 2.0962035905772783e7 0.0
2.0962035905772783e7 8.667390989347294e6 0.0
0.0 0.0 0.0

-1.554818602961952e6 1.750062653048348e7 0.0
1.750062653048348e7 -1.0813378240696709e6 0.0
0.0 0.0 0.0

3.4079456936280886e6 8.065095092403711e6 0.0
8.065095092403711e6 -1.5704439861081881e7 0.0
0.0 0.0 0.0

-1.008056338393815e7 -2.2117306481126184e6 0.0
-2.2117306481126184e6 2.5379823338384133e7 0.0
0.0 0.0 0.0

-6.5764395735446215e6 1.415245739716493e7 0.0
1.415245739716493e7 3.3213536572520107e7 0.0
0.0 0.0 0.0

-9.667416357726753e6 1.064544526278454e7 0.0
1.064544526278454e7 3.3597370363178656e7 0.0
0.0 0.0 0.0

113039.69820370618 1.652753764648251e7 0.0
1.652753764648251e7 8.784389908726007e6 0.0
0.0 0.0 0.0

-1.2529229848426923e7 4.324771488822207e6 0.0
4.324771488822207e6 2.0580311774885833e7 0.0
0.0 0.0 0.0

-5.159988250659974e6 1.2862709701687878e7 0.0
1.2862709701687878e7 7.6017823368213605e6 0.0
0.0 0.0 0.0

-1.406531356642149e6 1.725933089785903e7 0.0
1.725933089785903e7 -5.263691009529663e6 0.0
0.0 0.0 0.0

546392.9377770908 1.3829979857627518e7 0.0
1.3829979857627518e7 -1.3075766745365828e7 0.0
0.0 0.0 0.0

-4.732880745757003e6 1.9360133232553378e7 0.0
1.9360133232553378e7 1.1708508394980544e7 0.0
0.0 0.0 0.0

-4.0696961751832752e6 2.594876757026282e7 0.0
2.594876757026282e7 4.253091841734138e6 0.0
0.0 0.0 0.0

-1.182099475029556e7 1.1064243727363076e7 0.0
1.1064243727363076e7 2.5344583575710975e7 0.0
0.0 0.0 0.0

5.44789792949013e6 1.5100037552535862e7 0.0
1.5100037552535862e7 1.994424492893767e7 0.0
0.0 0.0 0.0

108603.27347867703 1.6679815045683566e7 0.0
1.6679815045683566e7 -8.128400820229726e6 0.0
0.0 0.0 0.0

2.9425590345251616e6 1.0183194978385814e7 0.0
1.0183194978385814e7 -2.0026746103882857e7 0.0
0.0 0.0 0.0

4.35815126233924e6 3.449035152081019e6 0.0
3.449035152081019e6 -3.1143054791069992e7 0.0
0.0 0.0 0.0

-1.0480357147389997e7 -1.6725659944365867e6 0.0
-1.6725659944365867e6 2.841221215719426e7 0.0
0.0 0.0 0.0

-4.234614428365361e6 1.9356331364508234e7 0.0
1.9356331364508234e7 1.0738336414187737e7 0.0
0.0 0.0 0.0

-4.837730104733875e6 1.4554838204457838e7 0.0
1.4554838204457838e7 1.4404216554276934e7 0.0
0.0 0.0 0.0

-2.5327947027127296e6 1.4884493034857862e7 0.0
1.4884493034857862e7 4.975970540049657e7 0.0
0.0 0.0 0.0

412677.14445904363 1.3217010629869243e7 0.0
1.3217010629869243e7 -1.2135140062940447e7 0.0
0.0 0.0 0.0

4.321000556044556e6 1.5388962736577952e7 0.0
1.5388962736577952e7 1.4403335650154045e7 0.0
0.0 0.0 0.0

-1.0767059393709913e7 -2.123199976787909e6 0.0
-2.123199976787909e6 2.0315143504943613e7 0.0
0.0 0.0 0.0

-2.110903655453789e7 -164187.6594087591 0.0
-164187.6594087591 9.131666941552069e6 0.0
0.0 0.0 0.0

2.869850973486104e6 8.866605474987257e6 0.0
8.866605474987257e6 -2.363665382450249e7 0.0
0.0 0.0 0.0

-1.1873071893776897e7 2.232749842242233e6 0.0
2.232749842242233e6 1.799133170709795e7 0.0
0.0 0.0 0.0

2.2415277688664086e6 9.96407332812358e6 0.0
9.96407332812358e6 -2.6070843689523805e7 0.0
0.0 0.0 0.0

-9.338348503712967e6 1.4915052880310267e7 0.0
1.4915052880310267e7 2.510778717811355e7 0.0
0.0 0.0 0.0

4.671893717686481e6 3.9502504801501366e6 0.0
3.9502504801501366e6 -2.017049678066694e7 0.0
0.0 0.0 0.0

6.079364563843502e6 2.2727980910423897e7 0.0
2.2727980910423897e7 -5.0479562760594245e6 0.0
0.0 0.0 0.0

-2.0377292652377277e6 1.267178378199666e7 0.0
1.267178378199666e7 -1.2505536888428018e6 0.0
0.0 0.0 0.0

1.2345720521418743e6 6.236468466536138e6 0.0
6.236468466536138e6 -4.468156624453958e6 0.0
0.0 0.0 0.0

2.2773200747715324e7 5.799904309883094e6 0.0
5.799904309883094e6 -2.901317297423466e6 0.0
0.0 0.0 0.0

-7.790629857314469e6 1.5316406915118314e7 0.0
1.5316406915118314e7 2.4771277507848635e7 0.0
0.0 0.0 0.0

-671095.0458286873 9.590362110101812e6 0.0
9.590362110101812e6 -5.790150386551354e6 0.0
0.0 0.0 0.0

-1.1807993600802828e7 2.9215159633956864e6 0.0
2.9215159633956864e6 2.847023954167615e7 0.0
0.0 0.0 0.0

2.095537139693527e6 5.406953765626573e6 0.0
5.406953765626573e6 -8.847273945688987e6 0.0
0.0 0.0 0.0

-3.287546408921088e6 1.8543223690445777e7 0.0
1.8543223690445777e7 -4.511644853531948e6 0.0
0.0 0.0 0.0

-5.575910699301742e6 1.778897653417726e7 0.0
1.778897653417726e7 1.403510925613681e7 0.0
0.0 0.0 0.0

-1.1638623919404607e7 5.8218546254827e6 0.0
5.8218546254827e6 1.8577673961834643e7 0.0
0.0 0.0 0.0

3.2098191022722805e6 7.744757302453185e6 0.0
7.744757302453185e6 -2.428072281338314e7 0.0
0.0 0.0 0.0

-3.6432803814316746e6 1.4446788420597803e7 0.0
1.4446788420597803e7 -2.846231422532506e7 0.0
0.0 0.0 0.0

-4.890284069283428e6 6.080266443211298e6 0.0
6.080266443211298e6 3.4593947213144656e6 0.0
0.0 0.0 0.0

4.150345047290993e6 4.1485051061846013e6 0.0
4.1485051061846013e6 -1.8670876503485657e7 0.0
0.0 0.0 0.0

-370553.7718234691 1.5764099951945232e7 0.0
1.5764099951945232e7 -1.1232057854460876e7 0.0
0.0 0.0 0.0

1.2696513055575503e7 1.8077615339357283e7 0.0
1.8077615339357283e7 2.788173841425102e6 0.0
0.0 0.0 0.0

4.09762004509555e6 5.714704037780678e6 0.0
5.714704037780678e6 -3.155312450927619e7 0.0
0.0 0.0 0.0

-1.1150597081008375e7 -1.0158148875244892e6 0.0
-1.0158148875244892e6 4.618567179492844e6 0.0
0.0 0.0 0.0

-8.107830099436925e6 1.642118848318836e7 0.0
1.642118848318836e7 1.803205699355947e7 0.0
0.0 0.0 0.0

-1.3575933160550492e6 8.027791753656421e6 0.0
8.027791753656421e6 -111082.36457189522 0.0
0.0 0.0 0.0

-1.1833118852196023e7 5.153797852827737e6 0.0
5.153797852827737e6 2.0201721280830324e7 0.0
0.0 0.0 0.0

3.7118768478180226e6 6.0269516819887115e6 0.0
6.0269516819887115e6 -3.6194254566074125e7 0.0
0.0 0.0 0.0

6.437282504110165e6 1.6000271705551475e7 0.0
1.6000271705551475e7 2.1457608704400796e7 0.0
0.0 0.0 0.0

4.814962987025579e6 1.98518271295499e7 0.0
1.98518271295499e7 9.976111699022632e6 0.0
0.0 0.0 0.0

-3.477803486219896e6 1.5113659360040532e7 0.0
1.5113659360040532e7 -1.7731061936357893e7 0.0
0.0 0.0 0.0

174595.6159763583 1.2235852316797398e7 0.0
1.2235852316797398e7 -1.0387152820532544e7 0.0
0.0 0.0 0.0

-4.9565626684816815e6 1.8413327686940726e7 0.0
1.8413327686940726e7 1.3130971949934896e7 0.0
0.0 0.0 0.0

6.356384902102354e6 1.746763213273232e7 0.0
1.746763213273232e7 -1.1742359096915997e6 0.0
0.0 0.0 0.0

2.4828175701919906e6 9.915550463262843e6 0.0
9.915550463262843e6 -2.293801739752433e7 0.0
0.0 0.0 0.0

-818313.3112585528 2.483375391296232e7 0.0
2.483375391296232e7 -1.9222005462281022e6 0.0
0.0 0.0 0.0

-594195.7313191579 1.4953360426667182e7 0.0
1.4953360426667182e7 3.154651148994611e6 0.0
0.0 0.0 0.0

-5.65408561164344e7 3.9951888491172604e6 0.0
3.9951888491172604e6 6.395479646764789e6 0.0
0.0 0.0 0.0

4.0996142484285295e7 6.420239203870023e6 0.0
6.420239203870023e6 -2.0040307812799253e6 0.0
0.0 0.0 0.0

1.6918441892535593e6 1.7814749096076027e7 0.0
1.7814749096076027e7 7.057490081143083e6 0.0
0.0 0.0 0.0

-6.137893420324318e6 6.314045340097689e6 0.0
6.314045340097689e6 2.387358398997438e7 0.0
0.0 0.0 0.0

-447075.24108244525 1.7188196904783856e7 0.0
1.7188196904783856e7 1.1779225093729373e7 0.0
0.0 0.0 0.0

-134779.50551599008 2.1032922307181638e7 0.0
2.1032922307181638e7 -6.155775953667406e6 0.0
0.0 0.0 0.0

3.4256728937259875e6 1.7242772719736323e7 0.0
1.7242772719736323e7 1.1418910444690855e7 0.0
0.0 0.0 0.0

-1.1250905629848838e7 4.944612964063102e6 0.0
4.944612964063102e6 1.786758564258614e7 0.0
0.0 0.0 0.0

-4.390566293715658e6 1.8221215431316238e7 0.0
1.8221215431316238e7 8.618677138288422e6 0.0
0.0 0.0 0.0

-3.5942875987430274e7 2.888657468904422e7 0.0
2.888657468904422e7 -2.93451592407218e6 0.0
0.0 0.0 0.0

4.108678638272711e6 4.554682736473288e6 0.0
4.554682736473288e6 -2.2759401922842365e7 0.0
0.0 0.0 0.0

-1.8185760328417383e6 1.777307038773948e7 0.0
1.777307038773948e7 -2.780465829338463e6 0.0
0.0 0.0 0.0

5.915555138815256e6 1.5223973289851462e7 0.0
1.5223973289851462e7 2.286059887786482e7 0.0
0.0 0.0 0.0

-5.147623648058418e6 1.4163192812657375e7 0.0
1.4163192812657375e7 -1.715874566431463e7 0.0
0.0 0.0 0.0

3.7556606222211304e6 1.517703415451205e7 0.0
1.517703415451205e7 1.2518869223543026e7 0.0
0.0 0.0 0.0

612772.778078286 1.222442676036154e7 0.0
1.222442676036154e7 -2.9267517053786762e7 0.0
0.0 0.0 0.0

-1.0318719109813489e7 -621344.2349202778 0.0
-621344.2349202778 2.2216503063554626e7 0.0
0.0 0.0 0.0

-1.4837853823306777e7 2.553105464101765e7 0.0
2.553105464101765e7 6.820916310608869e6 0.0
0.0 0.0 0.0

2.7649493542361483e6 7.654207752581398e6 0.0
7.654207752581398e6 -1.5223712633375112e7 0.0
0.0 0.0 0.0

-7.820785597864507e6 1.5722790372237207e7 0.0
1.5722790372237207e7 2.3519640652570248e7 0.0
0.0 0.0 0.0

-1.1457657760736208e7 2.6400747467158954e6 0.0
2.6400747467158954e6 1.4745933821822256e7 0.0
0.0 0.0 0.0

-4.424391926824999e6 2.5457818051876068e7 0.0
2.5457818051876068e7 4.781462705141954e6 0.0
0.0 0.0 0.0

-9.547263713320993e6 2.8689300459627476e7 0.0
2.8689300459627476e7 6.2633584601938315e6 0.0
0.0 0.0 0.0

-9.289415535662884e6 -2.0354016191484523e6 0.0
-2.0354016191484523e6 6.360170907658653e6 0.0
0.0 0.0 0.0

-2.0528197119476793e6 1.4340562748250041e7 0.0
1.4340562748250041e7 -8.903690079305004e6 0.0
0.0 0.0 0.0

-213941.18563927384 2.057983919055786e7 0.0
2.057983919055786e7 -6.324449013672148e6 0.0
0.0 0.0 0.0

-6.03062043706274e6 3.2196078052607337e6 0.0
3.2196078052607337e6 5.741618978103876e6 0.0
0.0 0.0 0.0

4.3015986810555495e6 2.315822409238876e7 0.0
2.315822409238876e7 -4.925480170151301e6 0.0
0.0 0.0 0.0

-1.1963217086917747e7 3.5659173919405034e6 0.0
3.5659173919405034e6 1.5914180431292713e7 0.0
0.0 0.0 0.0

4.019321591606142e6 4.821621541738055e6 0.0
4.821621541738055e6 -2.6332058118987665e7 0.0
0.0 0.0 0.0

3.878439655518731e6 5.577392902465235e6 0.0
5.577392902465235e6 -2.377065657962764e7 0.0
0.0 0.0 0.0

1.0445833404987361e6 1.2015380771241562e7 0.0
1.2015380771241562e7 -1.3304774848803474e7 0.0
0.0 0.0 0.0

153183.1660027965 1.847854609238511e7 0.0
1.847854609238511e7 -9.357700241581835e6 0.0
0.0 0.0 0.0

3.7639366453658175e6 5.456673386679654e6 0.0
5.456673386679654e6 -3.820413290609383e7 0.0
0.0 0.0 0.0

-4.740455539189406e6 1.9781789969648756e7 0.0
1.9781789969648756e7 -8.815221458057348e6 0.0
0.0 0.0 0.0

1.05375711416459e6 1.35433722790788e7 0.0
1.35433722790788e7 -1.822172338844806e7 0.0
0.0 0.0 0.0

-1.0773636827464046e7 1.5498493086185137e7 0.0
1.5498493086185137e7 2.0088332664687797e7 0.0
0.0 0.0 0.0

-3.5725556890355367e6 1.9460477770555537e7 0.0
1.9460477770555537e7 -7.746789341185616e6 0.0
0.0 0.0 0.0

3.1379675643955646e6 9.582993267412797e6 0.0
9.582993267412797e6 -2.2417475734730765e7 0.0
0.0 0.0 0.0

-2.594597033025863e7 1.9196052117591795e7 0.0
1.9196052117591795e7 8.0400445470844675e6 0.0
0.0 0.0 0.0

4.128291653636284e6 4.171059880723172e6 0.0
4.171059880723172e6 -2.741186340487715e7 0.0
0.0 0.0 0.0

4.3827271906625535e6 5.6326168358102e6 0.0
5.6326168358102e6 -2.36016805587492e7 0.0
0.0 0.0 0.0

219885.9678086862 1.7036249113535743e7 0.0
1.7036249113535743e7 -1.1615126157222167e7 0.0
0.0 0.0 0.0

-1.6270111036450097e7 -1.5767242662804578e6 0.0
-1.5767242662804578e6 8.295157638551376e6 0.0
0.0 0.0 0.0

1.7535107160476823e6 9.61334307868398e6 0.0
9.61334307868398e6 -9.615243844357979e6 0.0
0.0 0.0 0.0

-3.3673990960340044e6 1.5792479527582973e7 0.0
1.5792479527582973e7 1.8061680686219297e7 0.0
0.0 0.0 0.0

-3.709951399233926e6 2.444350595820208e7 0.0
2.444350595820208e7 4.5203046442902945e6 0.0
0.0 0.0 0.0

-5.150504205413302e6 2.5901162287065845e7 0.0
2.5901162287065845e7 5.103993447483944e6 0.0
0.0 0.0 0.0

-1.2321527515685108e7 5.861373848048438e6 0.0
5.861373848048438e6 1.6232677090062713e7 0.0
0.0 0.0 0.0

-5.950475098855061e6 1.1861944704260094e7 0.0
1.1861944704260094e7 4.722356442417784e7 0.0
0.0 0.0 0.0

-2.9781953053261363e6 2.4702983999022197e7 0.0
2.4702983999022197e7 3.1766005216802405e6 0.0
0.0 0.0 0.0

-2.6710055084305448e6 1.799595820256065e7 0.0
1.799595820256065e7 -1.1994949208197126e6 0.0
0.0 0.0 0.0

112351.23344792379 1.6325123315771231e7 0.0
1.6325123315771231e7 -4.678433298867583e6 0.0
0.0 0.0 0.0

2.3888143989015084e7 1.9122751362375382e7 0.0
1.9122751362375382e7 9.020991124719188e6 0.0
0.0 0.0 0.0

-1.1450116355844174e7 7.064626864858768e6 0.0
7.064626864858768e6 1.7985050983601682e7 0.0
0.0 0.0 0.0

4.646124841014277e6 4.343450312931444e6 0.0
4.343450312931444e6 -2.5625021445624895e7 0.0
0.0 0.0 0.0

99598.17239222117 1.6281389586365238e7 0.0
1.6281389586365238e7 -1.041242313744353e7 0.0
0.0 0.0 0.0

-3.080320194945849e6 1.3690228238188326e7 0.0
1.3690228238188326e7 1.3305430650062857e6 0.0
0.0 0.0 0.0

-1.1724881371984389e7 1.6231668543032562e7 0.0
1.6231668543032562e7 6.317195288006199e6 0.0
0.0 0.0 0.0

-1.0391428393572e7 -453212.47831314104 0.0
-453212.47831314104 2.747495518988004e7 0.0
0.0 0.0 0.0

-5.82910252066913e7 3.6728093737738654e7 0.0
3.6728093737738654e7 -8.456642524617769e6 0.0
0.0 0.0 0.0

-7.429032013693289e6 1.5011808083585687e7 0.0
1.5011808083585687e7 -2.4763440729311764e7 0.0
0.0 0.0 0.0

5.6351625092183985e6 1.5751981625624547e7 0.0
1.5751981625624547e7 1.8783875685086507e7 0.0
0.0 0.0 0.0

1.3633134981829524e6 1.270896190783453e7 0.0
1.270896190783453e7 -2.0434030521485616e7 0.0
0.0 0.0 0.0

-1.0127764161302399e7 2.1350806593281124e7 0.0
2.1350806593281124e7 -403416.6503487574 0.0
0.0 0.0 0.0

3.170886265513654e6 8.23689078263783e6 0.0
8.23689078263783e6 -1.4270235319984797e7 0.0
0.0 0.0 0.0

3.521606079613747e6 8.480674211912207e6 0.0
8.480674211912207e6 -2.3032598476830103e7 0.0
0.0 0.0 0.0

-6.33221422063556e6 1.724092254957182e7 0.0
1.724092254957182e7 1.5438815930835126e7 0.0
0.0 0.0 0.0

2.318281754258774e6 1.0434730654876983e7 0.0
1.0434730654876983e7 -2.1860628805631034e7 0.0
0.0 0.0 0.0

-3.9540745287038e6 2.4957668481850665e7 0.0
2.4957668481850665e7 4.644152926588484e6 0.0
0.0 0.0 0.0

-1.238936288048697e7 4.615899936010075e6 0.0
4.615899936010075e6 2.495190961218855e7 0.0
0.0 0.0 0.0

-9.292451974989582e6 -2.648374210898773e6 0.0
-2.648374210898773e6 2.0441055065388523e7 0.0
0.0 0.0 0.0

3.4030064965039035e6 7.192832569620166e6 0.0
7.192832569620166e6 -2.378003607705396e7 0.0
0.0 0.0 0.0

-7.792491895444915e6 1.9981837505963728e7 0.0
1.9981837505963728e7 -6.496622137365605e6 0.0
0.0 0.0 0.0

1.520233374644943e6 2.656291771143583e7 0.0
2.656291771143583e7 -3.0743083994043167e6 0.0
0.0 0.0 0.0

-9.378142415750153e6 1.5662313471419781e7 0.0
1.5662313471419781e7 1.8969576729227617e7 0.0
0.0 0.0 0.0

3.728689036079515e6 5.975260960366508e6 0.0
5.975260960366508e6 -2.5838732405521765e7 0.0
0.0 0.0 0.0

3.768483847179465e6 5.982599312230981e6 0.0
5.982599312230981e6 -3.370034174813364e7 0.0
0.0 0.0 0.0

-8.72135802661231e6 1.070172784157732e7 0.0
1.070172784157732e7 3.771133846887011e7 0.0
0.0 0.0 0.0

-1.1755244961522773e7 4.8306598932613e6 0.0
4.8306598932613e6 2.5983302875687487e7 0.0
0.0 0.0 0.0

3.007669437632643e6 2.32608487263237e7 0.0
2.32608487263237e7 -4.761609163931637e6 0.0
0.0 0.0 0.0

-2.294959323883398e6 1.9393622666505724e7 0.0
1.9393622666505724e7 -1.9668291148706283e6 0.0
0.0 0.0 0.0

-1.107319487055228e7 3.0526587586063407e6 0.0
3.0526587586063407e6 2.9706760470634222e7 0.0
0.0 0.0 0.0

3.5227464658103744e6 5.043463936055419e6 0.0
5.043463936055419e6 -1.509995108106985e7 0.0
0.0 0.0 0.0

-3.6185781999833127e6 1.950449607196774e7 0.0
1.950449607196774e7 629711.6842404497 0.0
0.0 0.0 0.0

-1.233479220737064e7 2.0510353043096393e7 0.0
2.0510353043096393e7 -5.321673952813293e6 0.0
0.0 0.0 0.0

-9.379839633056972e6 8.556733038681412e6 0.0
8.556733038681412e6 1.117979916394636e7 0.0
0.0 0.0 0.0

4.3468748485189695e6 5.515356158046171e6 0.0
5.515356158046171e6 -2.514805250029449e7 0.0
0.0 0.0 0.0

2.2643417103910856e6 1.0461020609593596e7 0.0
1.0461020609593596e7 -2.0466322497608334e7 0.0
0.0 0.0 0.0

-9.718730161310386e6 -524964.66900848 0.0
-524964.66900848 1.299803303404237e7 0.0
0.0 0.0 0.0

-1.2150577203825284e7 7.129113533171862e6 0.0
7.129113533171862e6 2.165453150442005e7 0.0
0.0 0.0 0.0

655240.1045331825 1.239785515736719e7 0.0
1.239785515736719e7 -2.741325771182253e7 0.0
0.0 0.0 0.0

4.499556336819976e6 5.128870454034583e6 0.0
5.128870454034583e6 -2.3105358951429583e7 0.0
0.0 0.0 0.0

-2.7184651339963013e6 1.917720247337063e7 0.0
1.917720247337063e7 -3.3190131236723796e6 0.0
0.0 0.0 0.0

3.9091234860589337e6 7.318598483030309e6 0.0
7.318598483030309e6 -2.3610728525722027e7 0.0
0.0 0.0 0.0

-9.34951986520432e6 1.0387436805484467e6 0.0
1.0387436805484467e6 1.5122547567301717e7 0.0
0.0 0.0 0.0

-1.0573778227185288e7 1.6765722180042533e7 0.0
1.6765722180042533e7 -3.524593009841314e7 0.0
0.0 0.0 0.0

8.829234715820976e6 1.6984872765872464e7 0.0
1.6984872765872464e7 2.9430784668207362e7 0.0
0.0 0.0 0.0

348215.7005694092 1.65982210339453e7 0.0
1.65982210339453e7 431766.62919809786 0.0
0.0 0.0 0.0

-2.2958960910283003e7 247748.3504436069 0.0
247748.3504436069 8.562697761900095e6 0.0
0.0 0.0 0.0

-8.36192759167807e6 -1.2693217775931421e6 0.0
-1.2693217775931421e6 1.4240335947373396e7 0.0
0.0 0.0 0.0

4.180940445822501e6 1.7296918840510648e7 0.0
1.7296918840510648e7 1.393646558630069e7 0.0
0.0 0.0 0.0

-3.6446448443227913e6 1.5867061937348682e7 0.0
1.5867061937348682e7 -1.2148814581755137e7 0.0
0.0 0.0 0.0

-5.155659207750469e6 1.2148217642625896e7 0.0
1.2148217642625896e7 5.203075260842325e7 0.0
0.0 0.0 0.0

3.5739005257894993e6 6.605242686861464e6 0.0
6.605242686861464e6 -2.4817880382427074e7 0.0
0.0 0.0 0.0

-453350.16773077706 2.0042837797032e7 0.0
2.0042837797032e7 -7.3165258774892e6 0.0
0.0 0.0 0.0

-4.836567734935146e6 1.4795606338887325e7 0.0
1.4795606338887325e7 -2.7254940334945202e7 0.0
0.0 0.0 0.0

-3.9825542916815802e6 2.363282590926465e7 0.0
2.363282590926465e7 3.9721850683874027e6 0.0
0.0 0.0 0.0

-4.430275113372559e6 1.9284428466235403e7 0.0
1.9284428466235403e7 6.953988455904566e6 0.0
0.0 0.0 0.0

-1.2185339771856049e6 2.335235874359538e7 0.0
2.335235874359538e7 -2.8126346249413043e6 0.0
0.0 0.0 0.0

-8.867706745882742e6 1.5738011024870014e7 0.0
1.5738011024870014e7 -3.686997794471239e7 0.0
0.0 0.0 0.0

1.9648526903221004e6 2.321718057749145e7 0.0
2.321718057749145e7 -4.622175370621899e6 0.0
0.0 0.0 0.0

-9.871170415613841e6 1.4953304368153784e7 0.0
1.4953304368153784e7 2.3310925880881853e7 0.0
0.0 0.0 0.0

2.4182374119377285e6 8.662870127118954e6 0.0
8.662870127118954e6 -1.4949526151492342e7 0.0
0.0 0.0 0.0

3.7259198565928973e6 6.07846368748148e6 0.0
6.07846368748148e6 -2.4293290402356144e7 0.0
0.0 0.0 0.0

-127358.48732529161 1.92042257733975e7 0.0
1.92042257733975e7 -8.463525908674259e6 0.0
0.0 0.0 0.0

-1.8611432498143483e6 1.3850608808646604e7 0.0
1.3850608808646604e7 -5.5493397171554975e6 0.0
0.0 0.0 0.0

2.7314884257185627e6 8.729562060828289e6 0.0
8.729562060828289e6 -2.707870718035105e7 0.0
0.0 0.0 0.0

-3.73188036441724e6 2.2652530827699646e7 0.0
2.2652530827699646e7 4.598933533294192e6 0.0
0.0 0.0 0.0

-2.694964996465098e6 1.54785972188673e7 0.0
1.54785972188673e7 -496508.2837595278 0.0
0.0 0.0 0.0

850175.7738631214 1.374231162189517e7 0.0
1.374231162189517e7 -1.1340954365167178e7 0.0
0.0 0.0 0.0

2.0650554149798136e6 1.1031438815593958e7 0.0
1.1031438815593958e7 -2.6014093359463103e7 0.0
0.0 0.0 0.0

506391.7085382994 2.2779485177184533e7 0.0
2.2779485177184533e7 -4.566418167044201e6 0.0
0.0 0.0 0.0

303499.06980439555 1.5298615595694872e7 0.0
1.5298615595694872e7 -1.0492185808017377e7 0.0
0.0 0.0 0.0

-1.1029140737739732e6 1.3475234283907037e7 0.0
1.3475234283907037e7 -4.635567072029916e6 0.0
0.0 0.0 0.0

1.9808686756052457e7 5.598048680847735e6 0.0
5.598048680847735e6 -2.9451810492292168e6 0.0
0.0 0.0 0.0

-4.264771478511743e6 1.6573425275669608e7 0.0
1.6573425275669608e7 5.986789257198075e6 0.0
0.0 0.0 0.0

-8.045310866694551e6 7.809496520881082e6 0.0
7.809496520881082e6 1.248457333974819e7 0.0
0.0 0.0 0.0

-1.0309280198730951e7 -945179.493811433 0.0
-945179.493811433 2.4128269174662124e7 0.0
0.0 0.0 0.0

4.740071995689341e6 4.124436291178113e6 0.0
4.124436291178113e6 -2.2062284921201184e7 0.0
0.0 0.0 0.0

3.801962754820521e6 6.226481368279306e6 0.0
6.226481368279306e6 -1.6809786483279504e7 0.0
0.0 0.0 0.0

4.474040056263338e6 5.251116032788533e6 0.0
5.251116032788533e6 -2.155914503966739e7 0.0
0.0 0.0 0.0

-2.8116949006521786e6 1.5352434734602919e7 0.0
1.5352434734602919e7 -1.6943279240863986e7 0.0
0.0 0.0 0.0

1.1578263386245528e6 2.303480728489435e7 0.0
2.303480728489435e7 -4.558773016263678e6 0.0
0.0 0.0 0.0

-9.90648814095617e6 1.5241769009953644e7 0.0
1.5241769009953644e7 2.2021013026949637e7 0.0
0.0 0.0 0.0

-4.901555728557334e6 1.700452087867241e7 0.0
1.700452087867241e7 5.247567259371798e6 0.0
0.0 0.0 0.0

3.862971870667996e6 5.72384408736839e6 0.0
5.72384408736839e6 -2.2334878908328444e7 0.0
0.0 0.0 0.0

-1.0836315939861659e7 1.7831890720269247e6 0.0
1.7831890720269247e6 1.3892989282440815e7 0.0
0.0 0.0 0.0

-1.0055150360017154e7 1.6083926661249138e7 0.0
1.6083926661249138e7 1.9936863927741744e7 0.0
0.0 0.0 0.0

309066.3186926544 1.6774231624638438e7 0.0
1.6774231624638438e7 -1.2496266533602532e7 0.0
0.0 0.0 0.0

800556.2800001586 1.6981208287282e7 0.0
1.6981208287282e7 -5.603455648439954e6 0.0
0.0 0.0 0.0

-3.7086310045264116e6 2.3463838856169365e7 0.0
2.3463838856169365e7 5.047015752734131e6 0.0
0.0 0.0 0.0

1.615994505737775e6 1.3411455497609347e7 0.0
1.3411455497609347e7 -1.8040879133267924e7 0.0
0.0 0.0 0.0

4.210241464229734e6 6.261047054817434e6 0.0
6.261047054817434e6 -2.2650225754197154e7 0.0
0.0 0.0 0.0

3.739911232912263e6 6.199987988848854e6 0.0
6.199987988848854e6 -2.2818682709649913e7 0.0
0.0 0.0 0.0

2.124651015036e6 7.860039381573347e6 0.0
7.860039381573347e6 -1.2305318295391362e7 0.0
0.0 0.0 0.0

3.5726488537755227e6 6.678714923843361e6 0.0
6.678714923843361e6 -2.3322180974710718e7 0.0
0.0 0.0 0.0

4.366981435332557e6 5.658342672603699e6 0.0
5.658342672603699e6 -1.9129227230916105e7 0.0
0.0 0.0 0.0

-6.530730072334118e6 2.765826698756158e7 0.0
2.765826698756158e7 5.460362694157547e6 0.0
0.0 0.0 0.0

3.021461568118739e6 2.4342156370795965e7 0.0
2.4342156370795965e7 -4.517358665662106e6 0.0
0.0 0.0 0.0

-4.9452039734795615e6 2.0118928626875643e7 0.0
2.0118928626875643e7 7.259243288661365e6 0.0
0.0 0.0 0.0

3.628945932722478e6 6.142148801955045e6 0.0
6.142148801955045e6 -1.9906079365223695e7 0.0
0.0 0.0 0.0

-2.0404545752368886e6 1.679845055148557e7 0.0
1.679845055148557e7 -5.993734502161026e6 0.0
0.0 0.0 0.0

-961444.3986094395 1.3937870378106436e7 0.0
1.3937870378106436e7 -301751.4278565065 0.0
0.0 0.0 0.0

-1.4039172419676688e7 1.8889894551750127e7 0.0
1.8889894551750127e7 -4.679725365359089e7 0.0
0.0 0.0 0.0

1.3650192080324551e7 2.006865346744624e7 0.0
2.006865346744624e7 4.550065759735847e7 0.0
0.0 0.0 0.0

7.655245305740127e6 1.7783763479527142e7 0.0
1.7783763479527142e7 -1.3245276773102665e6 0.0
0.0 0.0 0.0

1.1934833565959245e7 1.8694349810930643e7 0.0
1.8694349810930643e7 -2.6409825877806516e6 0.0
0.0 0.0 0.0

2.4464992390989847e6 6.5357909882537e6 0.0
6.5357909882537e6 -4.224989256124913e7 0.0
0.0 0.0 0.0

793808.5107707689 1.5517700306604387e7 0.0
1.5517700306604387e7 -1.4103715457173645e7 0.0
0.0 0.0 0.0

-1.3223349561635554e6 1.7401699001291767e7 0.0
1.7401699001291767e7 1.039593445269703e7 0.0
0.0 0.0 0.0

-1.211333078967378e7 4.31677789983416e6 0.0
4.31677789983416e6 2.6942376985438127e7 0.0
0.0 0.0 0.0

-9.1716389352124e6 1.4416417527370585e7 0.0
1.4416417527370585e7 2.66815058178864e7 0.0
0.0 0.0 0.0

-2.7977687711610356e6 1.8438035944326535e7 0.0
1.8438035944326535e7 6.349624070660623e6 0.0
0.0 0.0 0.0

-904022.2719211275 1.3511624462210277e7 0.0
1.3511624462210277e7 -5.021693522449749e6 0.0
0.0 0.0 0.0

-9.02014828619548e6 2.2555741277869456e7 0.0
2.2555741277869456e7 -7.426408703779817e6 0.0
0.0 0.0 0.0

-4.662353912760269e6 1.8987728386355728e7 0.0
1.8987728386355728e7 1.1884708253485028e7 0.0
0.0 0.0 0.0

-7.676742225248288e6 1.1852084580572743e7 0.0
1.1852084580572743e7 9.742147391876694e6 0.0
0.0 0.0 0.0

-3.912334177776753e6 1.9394682866340563e7 0.0
1.9394682866340563e7 4.307110615044694e6 0.0
0.0 0.0 0.0

3.897226762257535e6 6.451931631400029e6 0.0
6.451931631400029e6 -3.0282570833807915e7 0.0
0.0 0.0 0.0

3.764406696347857e6 7.059401689732856e6 0.0
7.059401689732856e6 -1.5964034204306709e7 0.0
0.0 0.0 0.0

-349649.00747338915 1.714168648323687e7 0.0
1.714168648323687e7 -1.1047767013048444e7 0.0
0.0 0.0 0.0

2.0645741661273083e6 1.102358548133982e7 0.0
1.102358548133982e7 -1.9525487470071457e7 0.0
0.0 0.0 0.0

-1.0669530601963427e7 6.796417695019483e6 0.0
6.796417695019483e6 3.322321165020646e7 0.0
0.0 0.0 0.0

-4.600942521052247e6 3.2083740080720456e6 0.0
3.2083740080720456e6 4.165802415862254e6 0.0
0.0 0.0 0.0

-8.92389429452341e6 6.154287565262402e6 0.0
6.154287565262402e6 4.2932630955645576e7 0.0
0.0 0.0 0.0

-569526.4020068347 1.6459894847196227e7 0.0
1.6459894847196227e7 -1.068112885298304e7 0.0
0.0 0.0 0.0

-4.7018502090320885e6 2.05055167189937e7 0.0
2.05055167189937e7 8.384369210803614e6 0.0
0.0 0.0 0.0

-8.164307293984471e6 1.0183104358975533e7 0.0
1.0183104358975533e7 1.3557558469019473e7 0.0
0.0 0.0 0.0

355436.341176199 2.130674456592112e7 0.0
2.130674456592112e7 -5.870291228821518e6 0.0
0.0 0.0 0.0

-8.978966286365705e6 6.523794368193285e6 0.0
6.523794368193285e6 1.0702286171107518e7 0.0
0.0 0.0 0.0

-5.912765685306616e6 1.835299999901988e7 0.0
1.835299999901988e7 1.3041965298447644e7 0.0
0.0 0.0 0.0

1.6134654140937332e7 2.2048921318104744e7 0.0
2.2048921318104744e7 -8.145694181135628e6 0.0
0.0 0.0 0.0

-9.51837200133292e6 1.6292293331717705e7 0.0
1.6292293331717705e7 1.777140252198878e7 0.0
0.0 0.0 0.0

-2.3986387483561295e6 4.076809665892851e6 0.0
4.076809665892851e6 3.2964140201772763e6 0.0
0.0 0.0 0.0

-2.5998651824131496e7 444003.0334456754 0.0
444003.0334456754 9.0126659272118e6 0.0
0.0 0.0 0.0

4.227395922960339e6 4.598620319775469e6 0.0
4.598620319775469e6 -2.4020527531640984e7 0.0
0.0 0.0 0.0

-6.906228928733248e6 2.498922235436632e7 0.0
2.498922235436632e7 6.218977698072728e6 0.0
0.0 0.0 0.0

-9.599170054200117e6 373978.251722643 0.0
373978.251722643 1.1494770161035888e7 0.0
0.0 0.0 0.0

-3.212905939774058e6 1.150299538172907e7 0.0
1.150299538172907e7 -1.1706552027889544e6 0.0
0.0 0.0 0.0

-1.1445480633883243e7 206154.36069382261 0.0
206154.36069382261 2.190692093921009e7 0.0
0.0 0.0 0.0

12414.7179751792 1.675706356493529e7 0.0
1.675706356493529e7 -1.2622800649897944e7 0.0
0.0 0.0 0.0

-1.1147635703121874e7 -1.1413692000811403e6 0.0
-1.1413692000811403e6 2.317186638874475e7 0.0
0.0 0.0 0.0

552716.9511556467 1.401725006698206e7 0.0
1.401725006698206e7 -1.374269749348466e7 0.0
0.0 0.0 0.0

-9.58461981256868e6 1.589536775148539e7 0.0
1.589536775148539e7 2.1195157271498166e7 0.0
0.0 0.0 0.0

-9.896648327322483e6 9.238006620683456e6 0.0
9.238006620683456e6 1.2125012263523303e7 0.0
0.0 0.0 0.0

-7.718097989319993e6 1.4885815654424349e7 0.0
1.4885815654424349e7 2.629163086089052e7 0.0
0.0 0.0 0.0

-1.083831694243009e7 1.302570759496043e7 0.0
1.302570759496043e7 1.609093134705726e7 0.0
0.0 0.0 0.0

-3.53651229350357e6 2.0138899297441207e7 0.0
2.0138899297441207e7 712242.3365250665 0.0
0.0 0.0 0.0

3.7129226452596355e6 7.094711543115451e6 0.0
7.094711543115451e6 -2.901319812814408e7 0.0
0.0 0.0 0.0

-7.845904146897543e6 1.6072668097243715e7 0.0
1.6072668097243715e7 2.2522800379359905e7 0.0
0.0 0.0 0.0

8.0156142129761735e6 1.786473240287057e7 0.0
1.786473240287057e7 4.417477215684167e6 0.0
0.0 0.0 0.0

-1.8305556722992945e7 8.635227342291852e6 0.0
8.635227342291852e6 1.0322317689956095e7 0.0
0.0 0.0 0.0

2.5047908570711315e6 1.0327134944487687e7 0.0
1.0327134944487687e7 -2.5809731809421055e7 0.0
0.0 0.0 0.0

-6.990947626280967e6 1.1289937354794275e7 0.0
1.1289937354794275e7 1.2046763178618276e7 0.0
0.0 0.0 0.0

2.876669159883282e6 8.803027620808888e6 0.0
8.803027620808888e6 -1.3437329558874957e7 0.0
0.0 0.0 0.0

-7.9093979978264095e6 -43625.52494479396 0.0
-43625.52494479396 1.204217112431292e7 0.0
0.0 0.0 0.0

-1.014073170520179e7 -2.6758052343988507e6 0.0
-2.6758052343988507e6 1.7611577112422206e7 0.0
0.0 0.0 0.0

1.3653194254564764e6 1.251709809087268e7 0.0
1.251709809087268e7 -1.6540271003733888e7 0.0
0.0 0.0 0.0

-1.0660378875903275e7 4.1348407347520376e6 0.0
4.1348407347520376e6 1.6869285803657014e7 0.0
0.0 0.0 0.0

-5.203842707512822e6 2.0964818380262513e7 0.0
2.0964818380262513e7 7.49933176256859e6 0.0
0.0 0.0 0.0

1.8873399446959696e6 1.5056179129864024e7 0.0
1.5056179129864024e7 6.961304625272822e6 0.0
0.0 0.0 0.0

52937.19856413349 7.143074510298358e6 0.0
7.143074510298358e6 -2.462715836453718e6 0.0
0.0 0.0 0.0

-115155.47767622164 1.69524068867262e7 0.0
1.69524068867262e7 -9.902674666118335e6 0.0
0.0 0.0 0.0

3.2118974459195836e6 7.283201509525835e6 0.0
7.283201509525835e6 -1.8160599728752777e7 0.0
0.0 0.0 0.0

-1.0579887771294913e6 2.278001661715639e7 0.0
2.278001661715639e7 -3.55230124307399e6 0.0
0.0 0.0 0.0

-3.052019854712518e6 1.3864211534770586e7 0.0
1.3864211534770586e7 -4.775479955780347e7 0.0
0.0 0.0 0.0

3.1828510226951297e6 5.548908067227232e6 0.0
5.548908067227232e6 -1.4135279412684992e7 0.0
0.0 0.0 0.0

3.7964600973284757e6 5.596129998205115e6 0.0
5.596129998205115e6 -1.946228836399085e7 0.0
0.0 0.0 0.0

-2.261835334812243e6 1.5429661933759654e7 0.0
1.5429661933759654e7 -1.5641381726643004e7 0.0
0.0 0.0 0.0

-606787.9490726694 7.608631170890819e6 0.0
7.608631170890819e6 -1.3305717632456406e6 0.0
0.0 0.0 0.0

-1.0389559936242118e7 1.644026350097495e7 0.0
1.644026350097495e7 -4.266517368670033e7 0.0
0.0 0.0 0.0

2.100488775379103e6 7.532804707379121e6 0.0
7.532804707379121e6 -8.639684034203315e6 0.0
0.0 0.0 0.0

3.241179614501157e6 7.784321885776509e6 0.0
7.784321885776509e6 -1.36518130841783e7 0.0
0.0 0.0 0.0

-425763.3062280396 1.6645590508374464e7 0.0
1.6645590508374464e7 -2.217107257376601e6 0.0
0.0 0.0 0.0

-1.088929886187166e7 1.124411366275522e7 0.0
1.124411366275522e7 2.803178221118412e7 0.0
0.0 0.0 0.0

-3.2056202035095147e6 2.418541653128464e7 0.0
2.418541653128464e7 1.9630721973060942e6 0.0
0.0 0.0 0.0

-1.1704790807314858e7 6.175050327740597e6 0.0
6.175050327740597e6 8.878136846072339e6 0.0
0.0 0.0 0.0

1.8771982133901818e6 1.1479141739014592e7 0.0
1.1479141739014592e7 -1.8491139138738565e7 0.0
0.0 0.0 0.0

-250357.08247826155 1.7376964602165006e7 0.0
1.7376964602165006e7 1.3349407168038124e7 0.0
0.0 0.0 0.0

-998583.7529753966 2.2214516984650303e7 0.0
2.2214516984650303e7 -4.341415436888737e6 0.0
0.0 0.0 0.0

-370250.65392806847 1.2381023841419633e7 0.0
1.2381023841419633e7 -8.706204800512934e6 0.0
0.0 0.0 0.0

-116458.53717994504 2.1721731231636126e7 0.0
2.1721731231636126e7 -5.421385622918723e6 0.0
0.0 0.0 0.0

715117.2150525255 1.2759587607220767e7 0.0
1.2759587607220767e7 -9.573434262430936e6 0.0
0.0 0.0 0.0

-8.29291794691252e6 -2.6305843742214153e6 0.0
-2.6305843742214153e6 1.2362454832577683e7 0.0
0.0 0.0 0.0

-488993.0307185296 1.6638836951562718e7 0.0
1.6638836951562718e7 -1.1072862258234624e7 0.0
0.0 0.0 0.0

7.143733367403609e6 3.368639466886655e7 0.0
3.368639466886655e7 -7.448561854520539e6 0.0
0.0 0.0 0.0

3.090763728728094e6 1.917914783356621e7 0.0
1.917914783356621e7 -4.832153972644971e6 0.0
0.0 0.0 0.0

524592.2060495792 1.6177411408524198e7 0.0
1.6177411408524198e7 -1.3326870663486054e7 0.0
0.0 0.0 0.0

-4.281543370755013e6 1.3110272044106863e7 0.0
1.3110272044106863e7 5.050318372203272e6 0.0
0.0 0.0 0.0

-3.572294583739858e6 1.583438218620195e7 0.0
1.583438218620195e7 -1.060534088889058e6 0.0
0.0 0.0 0.0

4.712924089728684e6 3.7636214582806462e6 0.0
3.7636214582806462e6 -2.3158124367642753e7 0.0
0.0 0.0 0.0

3.228532697490418e6 4.370895796185695e6 0.0
4.370895796185695e6 -1.0547894888649354e7 0.0
0.0 0.0 0.0

-2.7794860652544294e6 8.512482490438411e6 0.0
8.512482490438411e6 -861449.6170061047 0.0
0.0 0.0 0.0

-6.53826402089819e6 1.904465129109522e7 0.0
1.904465129109522e7 -1.4036678460878432e6 0.0
0.0 0.0 0.0

3.413231926612746e6 5.972283960837471e6 0.0
5.972283960837471e6 -1.6450131880811583e7 0.0
0.0 0.0 0.0

156082.84251797944 1.4271044435610168e7 0.0
1.4271044435610168e7 -1.2233916868347995e7 0.0
0.0 0.0 0.0

-1.1834519867240568e6 1.738117059834922e7 0.0
1.738117059834922e7 8.445049192181263e6 0.0
0.0 0.0 0.0

2.710057064074587e6 1.0685351691882875e7 0.0
1.0685351691882875e7 -1.8985153727069896e7 0.0
0.0 0.0 0.0

-1.0135166129871204e7 3.1725245232901904e6 0.0
3.1725245232901904e6 1.5890244075358588e7 0.0
0.0 0.0 0.0

-2.2404290416614912e7 2.5270363113593727e7 0.0
2.5270363113593727e7 6.009939886240629e6 0.0
0.0 0.0 0.0

2.9429201706593772e6 1.0125495628181642e7 0.0
1.0125495628181642e7 -2.1366214753721207e7 0.0
0.0 0.0 0.0

-4.528480356050759e7 2.7904059843632253e6 0.0
2.7904059843632253e6 7.151264442185383e6 0.0
0.0 0.0 0.0

3.0504802483546557e6 7.062582233810564e6 0.0
7.062582233810564e6 -1.6095863897972034e7 0.0
0.0 0.0 0.0

-5.620273826241235e6 1.747351745185669e7 0.0
1.747351745185669e7 1.6965244908194784e7 0.0
0.0 0.0 0.0

722124.2679962646 1.2576602496964999e7 0.0
1.2576602496964999e7 -2.602962032514034e7 0.0
0.0 0.0 0.0

1.2840725300547872e6 1.3453255127842238e7 0.0
1.3453255127842238e7 -2.038201825609134e7 0.0
0.0 0.0 0.0

-5.355188221917185e6 2.7613286721075885e6 0.0
2.7613286721075885e6 8.472552663750445e6 0.0
0.0 0.0 0.0

-1.2912003807614649e7 6.797458924483778e6 0.0
6.797458924483778e6 2.047777269746753e7 0.0
0.0 0.0 0.0

-2.8652827955345083e6 1.352772691975725e7 0.0
1.352772691975725e7 -2.7714762903048997e6 0.0
0.0 0.0 0.0

-4.714311040553313e6 1.2433928837198256e7 0.0
1.2433928837198256e7 6.261791780513735e6 0.0
0.0 0.0 0.0

-1.2669482245261693e7 6.019719715895257e6 0.0
6.019719715895257e6 2.3477501832076676e7 0.0
0.0 0.0 0.0

-1.8209486785922088e6 1.3165475390525367e7 0.0
1.3165475390525367e7 -2.212919906241605e6 0.0
0.0 0.0 0.0

-285000.25522878673 1.5967167181933805e7 0.0
1.5967167181933805e7 -1.1636308636938134e7 0.0
0.0 0.0 0.0

-179522.371659243 1.6773844200644193e7 0.0
1.6773844200644193e7 -9.466041887970243e6 0.0
0.0 0.0 0.0

-588219.3120154999 1.7237427513779227e7 0.0
1.7237427513779227e7 -1.0521823980152406e7 0.0
0.0 0.0 0.0

864606.451862908 1.350047222092061e7 0.0
1.350047222092061e7 -1.4636487426607423e7 0.0
0.0 0.0 0.0

2.0963578896162985e6 8.352080787161548e6 0.0
8.352080787161548e6 -1.2917034777551066e7 0.0
0.0 0.0 0.0

-353382.71226651594 1.5977576048643665e7 0.0
1.5977576048643665e7 -5.395690377219227e6 0.0
0.0 0.0 0.0

-678267.4078331441 1.6268306430468343e7 0.0
1.6268306430468343e7 -1.0286346248377673e7 0.0
0.0 0.0 0.0

210109.50394176831 1.2909937214081766e7 0.0
1.2909937214081766e7 -7.900925029847588e6 0.0
0.0 0.0 0.0

-9.2771652195127e6 2.5798991768525164e6 0.0
2.5798991768525164e6 1.4684546302824236e7 0.0
0.0 0.0 0.0

1.1102095997519456e6 1.3029556137799846e7 0.0
1.3029556137799846e7 -1.5601707160899272e7 0.0
0.0 0.0 0.0

-1.2058802593212515e7 1.7745198208059106e7 0.0
1.7745198208059106e7 -4.019600922507563e7 0.0
0.0 0.0 0.0

-4.642981905805658e6 4.359786895791836e6 0.0
4.359786895791836e6 7.387230176468574e6 0.0
0.0 0.0 0.0

2.7097807088910956e6 8.093689741768523e6 0.0
8.093689741768523e6 -1.5798477912898432e7 0.0
0.0 0.0 0.0

178944.54595416016 6.769707554922257e6 0.0
6.769707554922257e6 -5.327531602721157e6 0.0
0.0 0.0 0.0

-1.9560033158335183e6 1.3087365586695999e7 0.0
1.3087365586695999e7 -4.318771363381832e7 0.0
0.0 0.0 0.0

-5.584103364537677e6 1.3193606690059187e7 0.0
1.3193606690059187e7 9.023121244013648e6 0.0
0.0 0.0 0.0

3.8048154804206137e6 6.618910742151734e6 0.0
6.618910742151734e6 -1.538894654422551e7 0.0
0.0 0.0 0.0

-1.2763819518397857e7 6.173546825907547e6 0.0
6.173546825907547e6 1.83120162123854e7 0.0
0.0 0.0 0.0

-9.934989648622107e6 464369.44108426175 0.0
464369.44108426175 3.5428539802240215e7 0.0
0.0 0.0 0.0

425136.97795738967 1.6115552408869253e7 0.0
1.6115552408869253e7 -1.6924710967961876e6 0.0
0.0 0.0 0.0

895688.2370429882 1.4686707677029354e7 0.0
1.4686707677029354e7 3.176078073854246e6 0.0
0.0 0.0 0.0

-6.544044427830915e6 2.1140663796804335e7 0.0
2.1140663796804335e7 7.085324172787216e6 0.0
0.0 0.0 0.0

-4.363095298558398e6 1.785288402802075e7 0.0
1.785288402802075e7 3.1402708224283704e6 0.0
0.0 0.0 0.0

4.495751998098191e6 4.935809410433091e6 0.0
4.935809410433091e6 -2.6154459832885176e7 0.0
0.0 0.0 0.0

4.475413368072981e6 5.455676913834376e6 0.0
5.455676913834376e6 -2.653043870421303e7 0.0
0.0 0.0 0.0

-1.2002896640138775e7 1.215601428900729e7 0.0
1.215601428900729e7 2.1689979708591353e7 0.0
0.0 0.0 0.0

-24290.266699557193 1.5276334222984254e7 0.0
1.5276334222984254e7 -1.2211789069801087e7 0.0
0.0 0.0 0.0

5.265003162423116e6 1.8026250902528066e7 0.0
1.8026250902528066e7 -606854.9353612459 0.0
0.0 0.0 0.0

-1.0230833100048179e7 2.918958083762557e6 0.0
2.918958083762557e6 4.051948238891549e7 0.0
0.0 0.0 0.0

-4.5800104528404195e6 1.6013266375355218e7 0.0
1.6013266375355218e7 7.209122224781538e6 0.0
0.0 0.0 0.0

-1.070528773031421e6 1.5080101947715774e7 0.0
1.5080101947715774e7 -8.363472938525695e6 0.0
0.0 0.0 0.0

-4.949005709184667e6 1.4181616950539129e7 0.0
1.4181616950539129e7 3.991430848340905e7 0.0
0.0 0.0 0.0

496338.44517621107 5.024498081438848e6 0.0
5.024498081438848e6 -1.9063177668505202e6 0.0
0.0 0.0 0.0

-1.6149511540836412e6 1.9382523444988154e7 0.0
1.9382523444988154e7 -6.2369243270540945e6 0.0
0.0 0.0 0.0

1.9328001369260852e6 1.8042821705396377e7 0.0
1.8042821705396377e7 1.2942332049806997e7 0.0
0.0 0.0 0.0

3.434361843542414e6 7.6660775068903845e6 0.0
7.6660775068903845e6 -1.51157800846502e7 0.0
0.0 0.0 0.0

-2.8887457294498165e6 1.205584931982774e7 0.0
1.205584931982774e7 -2.168664924357867e6 0.0
0.0 0.0 0.0

-8.77594108978361e6 1.3294284430550393e7 0.0
1.3294284430550393e7 3.0689537542716555e7 0.0
0.0 0.0 0.0

3.361762760850791e6 8.399982735434508e6 0.0
8.399982735434508e6 -2.6564586710532248e7 0.0
0.0 0.0 0.0

686835.4677629638 1.5759764947333645e7 0.0
1.5759764947333645e7 -1.4286925709104897e7 0.0
0.0 0.0 0.0

-1.0324649829419337e7 -1.3658317187453911e6 0.0
-1.3658317187453911e6 2.842906057595923e7 0.0
0.0 0.0 0.0

2.919536728805527e6 9.6026533285166e6 0.0
9.6026533285166e6 -2.551247147408078e7 0.0
0.0 0.0 0.0

495776.39052532637 9.20116903338646e6 0.0
9.20116903338646e6 -5.830955169192333e6 0.0
0.0 0.0 0.0

3.7269881916924603e6 7.940734616187342e6 0.0
7.940734616187342e6 -2.2577954239645034e7 0.0
0.0 0.0 0.0

353563.7487406959 1.291820225281514e7 0.0
1.291820225281514e7 -1.1586176766746381e7 0.0
0.0 0.0 0.0

235202.88734686188 1.4540048780061906e7 0.0
1.4540048780061906e7 -1.2744224706682902e7 0.0
0.0 0.0 0.0

-1.2568072184802223e7 4.770417276199932e6 0.0
4.770417276199932e6 2.3025841131792e7 0.0
0.0 0.0 0.0

1.9013564051389704e6 1.69663288746847e7 0.0
1.69663288746847e7 3.106753184705367e6 0.0
0.0 0.0 0.0

-9.095145365619194e6 1.6816124605629393e6 0.0
1.6816124605629393e6 1.3515112119486926e7 0.0
0.0 0.0 0.0

1.4743142239012467e6 1.3863425894976513e7 0.0
1.3863425894976513e7 -1.714215214126372e7 0.0
0.0 0.0 0.0

-2.1264117915799995e6 5.156467477801411e6 0.0
5.156467477801411e6 2.406528668645389e6 0.0
0.0 0.0 0.0

1.150329441401733e6 5.292998553417928e6 0.0
5.292998553417928e6 -6.311733298749897e6 0.0
0.0 0.0 0.0

106348.70272215409 1.4009422714624178e7 0.0
1.4009422714624178e7 -1.1758227781773755e7 0.0
0.0 0.0 0.0

4.1228876157075213e6 5.426536824055443e6 0.0
5.426536824055443e6 -1.5629379443414845e7 0.0
0.0 0.0 0.0

-1.166366116571353e7 608755.9220732994 0.0
608755.9220732994 1.9893420549802035e7 0.0
0.0 0.0 0.0

3.857474994497232e6 3.679651830430599e6 0.0
3.679651830430599e6 -3.7810536450815186e7 0.0
0.0 0.0 0.0

-1.078731854856164e6 1.507616291710804e7 0.0
1.507616291710804e7 -3.5957724258756316e6 0.0
0.0 0.0 0.0

-1.2521085516112458e7 7.951024612763715e6 0.0
7.951024612763715e6 1.639246572433293e7 0.0
0.0 0.0 0.0

-7.157120290917695e6 2.0215112927821584e7 0.0
2.0215112927821584e7 5.0503487846584935e6 0.0
0.0 0.0 0.0

1.072225100886771e6 1.782768762666756e7 0.0
1.782768762666756e7 6.892662026160996e6 0.0
0.0 0.0 0.0

-9.309343924803726e6 1.6345197990051778e7 0.0
1.6345197990051778e7 2.0466218328314804e7 0.0
0.0 0.0 0.0

-7.170327991353367e6 1.679775691717879e7 0.0
1.679775691717879e7 1.6734677435173329e7 0.0
0.0 0.0 0.0

-9.954893360448053e6 -3.4878717244864665e6 0.0
-3.4878717244864665e6 2.825161521779889e7 0.0
0.0 0.0 0.0

-3.2200716121871024e6 1.2070426132547094e7 0.0
1.2070426132547094e7 2.2900619059622623e6 0.0
0.0 0.0 0.0

3.152372730063018e6 1.7904937488497637e7 0.0
1.7904937488497637e7 1.2034867130245656e7 0.0
0.0 0.0 0.0

-4.254147565141352e6 1.913912528665353e7 0.0
1.913912528665353e7 9.761306077308893e6 0.0
0.0 0.0 0.0

-1.2797705296742823e7 5.775587486369712e6 0.0
5.775587486369712e6 1.979140273884277e7 0.0
0.0 0.0 0.0

1.3749138722491432e6 1.2707765961035138e7 0.0
1.2707765961035138e7 -1.921407069789923e7 0.0
0.0 0.0 0.0

2.888733399178067e6 6.726545390268838e6 0.0
6.726545390268838e6 -1.3961647166152596e7 0.0
0.0 0.0 0.0

658730.6270594895 1.5069953474161103e7 0.0
1.5069953474161103e7 -1.1894888215709925e7 0.0
0.0 0.0 0.0

-2.9676621546508996e6 1.0923393566599071e7 0.0
1.0923393566599071e7 2.0199392620556348e6 0.0
0.0 0.0 0.0

3.3016982394753643e6 5.295678083670656e6 0.0
5.295678083670656e6 -1.055456688519124e7 0.0
0.0 0.0 0.0

-1.7971281976052723e6 1.983594595113696e7 0.0
1.983594595113696e7 -5.278762025295815e6 0.0
0.0 0.0 0.0

-1.0217733662750447e7 1.6523316618856792e6 0.0
1.6523316618856792e6 3.374796294352713e7 0.0
0.0 0.0 0.0

-1.0513126348965535e7 -313236.5134059981 0.0
-313236.5134059981 2.9443177572531193e7 0.0
0.0 0.0 0.0

-1.1635961424243486e7 9.41974279242782e6 0.0
9.41974279242782e6 2.8298590475729674e7 0.0
0.0 0.0 0.0

-1.1204098920299225e6 1.8262794105617125e7 0.0
1.8262794105617125e7 -8.61932083660615e6 0.0
0.0 0.0 0.0

-1.1993479700869587e6 7.669508209220911e6 0.0
7.669508209220911e6 -3.296770203661768e6 0.0
0.0 0.0 0.0

9.608278042204227e6 1.9193643375512503e7 0.0
1.9193643375512503e7 8.540936802440263e6 0.0
0.0 0.0 0.0

7.855934054399196e6 1.884334396485629e7 0.0
1.884334396485629e7 3.516980346772184e7 0.0
0.0 0.0 0.0

3.669475380680835e6 6.194987466372257e6 0.0
6.194987466372257e6 -1.3113541422505194e7 0.0
0.0 0.0 0.0

-1.0646658912266135e7 2.6846145132174147e6 0.0
2.6846145132174147e6 1.756245769215789e7 0.0
0.0 0.0 0.0

-3.396344449544727e6 1.316260496009356e7 0.0
1.316260496009356e7 2.4789730135257994e6 0.0
0.0 0.0 0.0

-5.9777096479043765e6 1.8142051659640078e7 0.0
1.8142051659640078e7 1.2739143464458492e7 0.0
0.0 0.0 0.0

4.206875265969403e6 5.796416452472153e6 0.0
5.796416452472153e6 -2.8349257621464234e7 0.0
0.0 0.0 0.0

4.0561677390352096e6 6.667595058529225e6 0.0
6.667595058529225e6 -2.4640634641821623e7 0.0
0.0 0.0 0.0

-3.9146022431867435e6 5.59325018892872e6 0.0
5.59325018892872e6 1.800470908807622e6 0.0
0.0 0.0 0.0

-4.385808172015415e6 1.6892480505601443e7 0.0
1.6892480505601443e7 7.015103619603273e6 0.0
0.0 0.0 0.0

-5.392092073546512e6 1.4549544319731034e7 0.0
1.4549544319731034e7 3.689622910079197e7 0.0
0.0 0.0 0.0

411020.70661663637 1.579617850098197e7 0.0
1.579617850098197e7 -1.1379881421239192e7 0.0
0.0 0.0 0.0

-2.805422576800268e6 6.560324030359441e6 0.0
6.560324030359441e6 3.24786051671543e6 0.0
0.0 0.0 0.0

4.214887369191043e6 6.027724292584238e6 0.0
6.027724292584238e6 -2.5626830465913486e7 0.0
0.0 0.0 0.0

-4.851216138296218e6 1.8681081326529738e7 0.0
1.8681081326529738e7 7.859102551682894e6 0.0
0.0 0.0 0.0

2.9144054248665078e6 7.8976143251377335e6 0.0
7.8976143251377335e6 -1.7365361996659443e7 0.0
0.0 0.0 0.0

-8.446767331801213e6 6.693218511368688e6 0.0
6.693218511368688e6 374691.4156397162 0.0
0.0 0.0 0.0

446790.26658697426 1.349147245409073e7 0.0
1.349147245409073e7 -1.2700535978715014e7 0.0
0.0 0.0 0.0

-2.0649529624429848e6 3.817155058241263e6 0.0
3.817155058241263e6 -299925.49307019485 0.0
0.0 0.0 0.0

-2.6192518413027986e6 9.729287341429083e6 0.0
9.729287341429083e6 1.6694800790270958e6 0.0
0.0 0.0 0.0

-2.147685647908547e6 8.466905091866547e6 0.0
8.466905091866547e6 1.2500218584189513e6 0.0
0.0 0.0 0.0

52421.91573867155 1.3687030730133556e7 0.0
1.3687030730133556e7 -1.1251952776317066e7 0.0
0.0 0.0 0.0

-3.157692552710068e6 1.3073210357745843e7 0.0
1.3073210357745843e7 -1.8724359941177885e6 0.0
0.0 0.0 0.0

-1.2873894793398228e7 6.307995112262357e6 0.0
6.307995112262357e6 2.1984339817455377e7 0.0
0.0 0.0 0.0

-8.060279035190355e6 1.2263200493740004e7 0.0
1.2263200493740004e7 3.566748534881839e7 0.0
0.0 0.0 0.0

-1.0514342509216052e7 9.545566092769308e6 0.0
9.545566092769308e6 3.2315464962586157e7 0.0
0.0 0.0 0.0

-8.477529698826825e6 1.2771817188178599e7 0.0
1.2771817188178599e7 3.3027547607132815e7 0.0
0.0 0.0 0.0

-8.279932877811998e6 6.155276569440502e6 0.0
6.155276569440502e6 5.064824444479952e7 0.0
0.0 0.0 0.0

-1.108004470994459e6 1.7386686120642114e7 0.0
1.7386686120642114e7 6.522931443618409e6 0.0
0.0 0.0 0.0

-1.0545255750094406e7 3.9078795929253143e6 0.0
3.9078795929253143e6 3.809705370601082e7 0.0
0.0 0.0 0.0

-2.4786369611565406e6 1.868923964389556e7 0.0
1.868923964389556e7 -4.303920333884805e6 0.0
0.0 0.0 0.0

-769536.4232721142 1.6048548068279272e7 0.0
1.6048548068279272e7 -9.793577480705455e6 0.0
0.0 0.0 0.0

-4.3064634490441985e7 2.7305765741945315e7 0.0
2.7305765741945315e7 -5.461174549847053e6 0.0
0.0 0.0 0.0

3.2998159317465806e6 7.327000045734064e6 0.0
7.327000045734064e6 -1.3011420237365687e7 0.0
0.0 0.0 0.0

2.519393520492263e6 1.1256089781441515e7 0.0
1.1256089781441515e7 -1.816067632523718e7 0.0
0.0 0.0 0.0

-1.5395488359702292e6 1.998085041147238e7 0.0
1.998085041147238e7 -4.560366413281516e6 0.0
0.0 0.0 0.0

-3.3481429843361494e6 1.935106100266017e7 0.0
1.935106100266017e7 2.873131373391524e6 0.0
0.0 0.0 0.0

3.8973629650189253e6 7.388542262584527e6 0.0
7.388542262584527e6 -2.217212118471504e7 0.0
0.0 0.0 0.0

1.0617271939994391e7 2.0244914375109572e7 0.0
2.0244914375109572e7 -5.209244347050376e6 0.0
0.0 0.0 0.0

-4.0023873352074753e6 1.0206033317985907e7 0.0
1.0206033317985907e7 935178.326483754 0.0
0.0 0.0 0.0

2.8516371887622625e6 6.0145211392179495e6 0.0
6.0145211392179495e6 -3.90676213732801e7 0.0
0.0 0.0 0.0

-3.61627489481459e6 8.958777719051234e6 0.0
8.958777719051234e6 499105.1263403604 0.0
0.0 0.0 0.0

2.49092499937209e6 7.78329493797574e6 0.0
7.78329493797574e6 -1.3747556687520225e7 0.0
0.0 0.0 0.0

-8.957357693300592e6 1.6579687537189113e7 0.0
1.6579687537189113e7 1.97557439282896e7 0.0
0.0 0.0 0.0

-2.769702104018397e7 2.419273453392641e7 0.0
2.419273453392641e7 4.1103268354353365e6 0.0
0.0 0.0 0.0

-1.080647566294969e7 -2.1123182673501354e6 0.0
-2.1123182673501354e6 2.2746621123051338e7 0.0
0.0 0.0 0.0

175355.8070851313 1.647396349825983e7 0.0
1.647396349825983e7 -1.083087461220736e7 0.0
0.0 0.0 0.0

-1.219882895086284e7 2.2775695481329147e7 0.0
2.2775695481329147e7 -1.81645373562875e6 0.0
0.0 0.0 0.0

3.637216780435642e6 5.682282514305662e6 0.0
5.682282514305662e6 -1.2693057014007103e7 0.0
0.0 0.0 0.0

-1.1963005619555507e7 6.6465352854228e6 0.0
6.6465352854228e6 1.960172363119391e7 0.0
0.0 0.0 0.0

569081.5984416753 1.453917676990398e7 0.0
1.453917676990398e7 -1.0928994214018095e7 0.0
0.0 0.0 0.0

-705932.6641453253 1.387726327205828e7 0.0
1.387726327205828e7 -5.813314803749096e6 0.0
0.0 0.0 0.0

-4.278991248685037e6 1.1401534232919145e7 0.0
1.1401534232919145e7 1.2751161196532378e6 0.0
0.0 0.0 0.0

-1.184077525215453e7 7.839177041600533e6 0.0
7.839177041600533e6 2.8458440207499873e7 0.0
0.0 0.0 0.0

4.6929753955248855e6 4.469679255241397e6 0.0
4.469679255241397e6 -2.405141062464816e7 0.0
0.0 0.0 0.0

3.504505137705611e6 5.529839864740832e6 0.0
5.529839864740832e6 -1.5588370163481358e7 0.0
0.0 0.0 0.0

-4.86001125734359e6 1.841843819310441e7 0.0
1.841843819310441e7 7.063550425407123e6 0.0
0.0 0.0 0.0

-7.6139141865993785e6 1.985533812170903e6 0.0
1.985533812170903e6 8.267402261616919e6 0.0
0.0 0.0 0.0

273479.56742760865 1.2575943214479323e7 0.0
1.2575943214479323e7 -1.1029066816381875e7 0.0
0.0 0.0 0.0

3.9727272923658593e6 6.725693246495759e6 0.0
6.725693246495759e6 -1.8887931183838405e7 0.0
0.0 0.0 0.0

-1.0961634868428787e7 2.822403981306287e6 0.0
2.822403981306287e6 3.1673087043380056e7 0.0
0.0 0.0 0.0

-1.0748621212276807e6 1.750708400885043e7 0.0
1.750708400885043e7 4.512201845731815e6 0.0
0.0 0.0 0.0

-1.1160601029054064e7 -491946.8382570039 0.0
-491946.8382570039 1.9236705269036375e7 0.0
0.0 0.0 0.0

2.364114355940556e6 1.0771420080651252e7 0.0
1.0771420080651252e7 -2.456883208004336e7 0.0
0.0 0.0 0.0

-82031.85718196072 1.540619277998928e7 0.0
1.540619277998928e7 -1.590480120816241e7 0.0
0.0 0.0 0.0

-1.2036994805946136e7 9.164083788777005e6 0.0
9.164083788777005e6 1.5697550097741887e7 0.0
0.0 0.0 0.0

1.4637532617022423e6 1.3400827338172814e7 0.0
1.3400827338172814e7 -1.9243701979712218e7 0.0
0.0 0.0 0.0

1.2144102506828224e6 1.3755572414942412e7 0.0
1.3755572414942412e7 -1.3337078207347037e7 0.0
0.0 0.0 0.0

240105.34900764306 3.3575285093562435e6 0.0
3.3575285093562435e6 -870835.4820110311 0.0
0.0 0.0 0.0

-1.0669200470640086e7 -1.3057251479622994e6 0.0
-1.3057251479622994e6 1.653916238878959e7 0.0
0.0 0.0 0.0

424724.37134168344 1.0988301337025614e7 0.0
1.0988301337025614e7 -1.001749449767404e7 0.0
0.0 0.0 0.0

814624.0660466403 1.0038347431419179e7 0.0
1.0038347431419179e7 -1.0298614533039525e7 0.0
0.0 0.0 0.0

656522.8436086369 1.4794905238102157e7 0.0
1.4794905238102157e7 -1.1411478307093028e7 0.0
0.0 0.0 0.0

-1.2701950347264842e6 1.7625064454424314e7 0.0
1.7625064454424314e7 2.49518678773103e6 0.0
0.0 0.0 0.0

1.7187748118783645e6 8.928070180196516e6 0.0
8.928070180196516e6 -1.2064166340936817e7 0.0
0.0 0.0 0.0

-411873.02118890174 1.209627772940353e7 0.0
1.209627772940353e7 -3.521951493907667e7 0.0
0.0 0.0 0.0

-6.919685256777647e6 3.3734579853467867e6 0.0
3.3734579853467867e6 7.5069236270301845e6 0.0
0.0 0.0 0.0

-7.6680109763465095e6 1.6063025916577894e7 0.0
1.6063025916577894e7 -3.0389710479937017e7 0.0
0.0 0.0 0.0

-9.372846391108929e7 1.0736139379467875e7 0.0
1.0736139379467875e7 2.3402681745059043e6 0.0
0.0 0.0 0.0

7.598496019664788e7 1.1734306477229835e7 0.0
1.1734306477229835e7 2.70760381255782e6 0.0
0.0 0.0 0.0

-1.4088837048041392e6 1.2526094737572687e7 0.0
1.2526094737572687e7 -4.0212721304727994e7 0.0
0.0 0.0 0.0

-9.206128147346942e6 1.360304059430688e7 0.0
1.360304059430688e7 1.6986298867812004e7 0.0
0.0 0.0 0.0

-3.8565699196961755e6 1.7176712729259446e7 0.0
1.7176712729259446e7 228823.98098665592 0.0
0.0 0.0 0.0

58281.47035616217 1.1874169859545225e7 0.0
1.1874169859545225e7 -9.727886469485302e6 0.0
0.0 0.0 0.0

39244.79852284957 6.030088033729229e6 0.0
6.030088033729229e6 -4.486978484635763e6 0.0
0.0 0.0 0.0

717754.2591354325 6.698783943323145e6 0.0
6.698783943323145e6 -3.5205970980121624e6 0.0
0.0 0.0 0.0

-4.438431575410835e6 1.25501841663501e7 0.0
1.25501841663501e7 1.5320269356096901e6 0.0
0.0 0.0 0.0

-883089.0281925555 1.2277048929331014e7 0.0
1.2277048929331014e7 -3.7574786699753e7 0.0
0.0 0.0 0.0

1.3530626701558498e6 1.0602582879564907e7 0.0
1.0602582879564907e7 -9.404620413164489e6 0.0
0.0 0.0 0.0

-1.169121925834152e7 998010.338810121 0.0
998010.338810121 2.5123091718707882e7 0.0
0.0 0.0 0.0

6.072062201699977e7 1.4088625578629004e7 0.0
1.4088625578629004e7 -519905.3986637406 0.0
0.0 0.0 0.0

965579.6753309136 1.152213289509549e7 0.0
1.152213289509549e7 -9.17310285826505e6 0.0
0.0 0.0 0.0

4.207309266552872e6 6.357102170095805e6 0.0
6.357102170095805e6 -2.126757561339952e7 0.0
0.0 0.0 0.0

4.058289939107254e6 6.8648015425051e6 0.0
6.8648015425051e6 -2.1715331485562965e7 0.0
0.0 0.0 0.0

-8.642512283318453e6 1.6837804923747428e7 0.0
1.6837804923747428e7 1.9011443263515897e7 0.0
0.0 0.0 0.0

1.809539075736112e6 1.2737075144652897e7 0.0
1.2737075144652897e7 -1.5133574614243094e7 0.0
0.0 0.0 0.0

-2.2803530714740166e6 1.8143951517940003e7 0.0
1.8143951517940003e7 -8.793865017272703e6 0.0
0.0 0.0 0.0

3.8304584267474255e6 1.8859157520242453e7 0.0
1.8859157520242453e7 -4.006992300266184e6 0.0
0.0 0.0 0.0

-1.702093238345514e6 1.1632525099197097e7 0.0
1.1632525099197097e7 -1.5144484964136784e6 0.0
0.0 0.0 0.0

1.7767387189788339e6 5.74992864498103e6 0.0
5.74992864498103e6 -5.516298108165095e6 0.0
0.0 0.0 0.0

-1.9536610982933184e6 8.09601863083476e6 0.0
8.09601863083476e6 -2.0925274316566268e6 0.0
0.0 0.0 0.0

-4.136480865032444e6 5.870367845662017e6 0.0
5.870367845662017e6 6.10886458603869e6 0.0
0.0 0.0 0.0

-3.7673645499027106e6 1.4412220961243972e7 0.0
1.4412220961243972e7 -2.245400796359058e7 0.0
0.0 0.0 0.0

2.7142458986421134e6 1.063041702466759e7 0.0
1.063041702466759e7 -2.1717412623742186e7 0.0
0.0 0.0 0.0

2.809244602457702e6 6.14133907675903e6 0.0
6.14133907675903e6 -1.3421043781029884e7 0.0
0.0 0.0 0.0

2.5851760021393965e6 8.487077321441447e6 0.0
8.487077321441447e6 -1.1332688056419991e7 0.0
0.0 0.0 0.0

-2.3192865497260424e6 1.3658556531090302e7 0.0
1.3658556531090302e7 -980046.0643379876 0.0
0.0 0.0 0.0

2.4530231606982173e6 8.226764046047783e6 0.0
8.226764046047783e6 -1.4355386833838418e7 0.0
0.0 0.0 0.0

-508342.0690720404 7.209692685690398e6 0.0
7.209692685690398e6 -4.331149835216625e6 0.0
0.0 0.0 0.0

4.387688390771645e6 4.867346923091895e6 0.0
4.867346923091895e6 -1.6405371123989653e7 0.0
0.0 0.0 0.0

811874.4959370326 1.340872029604931e7 0.0
1.340872029604931e7 -1.0816385707360884e7 0.0
0.0 0.0 0.0

-6.541091308990417e6 5.047898976732275e6 0.0
5.047898976732275e6 6.321459364161396e6 0.0
0.0 0.0 0.0

-1.5246794997256268e6 1.9357405044317026e7 0.0
1.9357405044317026e7 -6.829311957926035e6 0.0
0.0 0.0 0.0

3.3862138117898274e6 5.65312543017699e6 0.0
5.65312543017699e6 -3.405651547146478e7 0.0
0.0 0.0 0.0

516083.8779206937 1.4219046220032752e7 0.0
1.4219046220032752e7 -1.0440548170627397e7 0.0
0.0 0.0 0.0

3.561060855347001e6 7.94336566340978e6 0.0
7.94336566340978e6 -1.7101677039480858e7 0.0
0.0 0.0 0.0

-1.1545216810869942e6 4.757191084766064e6 0.0
4.757191084766064e6 1.1409546146246588e6 0.0
0.0 0.0 0.0

3.7893228164001256e6 7.361212170556297e6 0.0
7.361212170556297e6 -1.8026458275731035e7 0.0
0.0 0.0 0.0

-3.8748794124900624e6 1.7849368489841674e7 0.0
1.7849368489841674e7 4.770238798033039e6 0.0
0.0 0.0 0.0

-509318.3456277221 2.0679827750398815e7 0.0
2.0679827750398815e7 -6.480989074356771e6 0.0
0.0 0.0 0.0

-459024.9777825605 1.587512205903902e7 0.0
1.587512205903902e7 -1.5514593631050877e7 0.0
0.0 0.0 0.0

694879.3927713446 6.241675825945266e6 0.0
6.241675825945266e6 -6.26901868145474e6 0.0
0.0 0.0 0.0

-495378.38093081233 2.1424065089919753e7 0.0
2.1424065089919753e7 -4.917433859223132e6 0.0
0.0 0.0 0.0

-468224.63697236683 1.8110300337681074e7 0.0
1.8110300337681074e7 -8.426675398381285e6 0.0
0.0 0.0 0.0

-1.1987428645255635e7 4.989080145249793e6 0.0
4.989080145249793e6 1.53687560421804e7 0.0
0.0 0.0 0.0

-4.200325415775839e6 1.888947273708108e7 0.0
1.888947273708108e7 1.1431021141578881e7 0.0
0.0 0.0 0.0

-3.0205315274334583e6 4.259771994067344e6 0.0
4.259771994067344e6 1.0940957742861665e6 0.0
0.0 0.0 0.0

-1.8835347072536722e6 9.249253378004378e6 0.0
9.249253378004378e6 259652.53831252537 0.0
0.0 0.0 0.0

-1.0430833054918546e7 5.931332137311929e6 0.0
5.931332137311929e6 3.5686090837810926e7 0.0
0.0 0.0 0.0

-5.819189247891596e6 1.1712783181785243e7 0.0
1.1712783181785243e7 5.2321712151032295e6 0.0
0.0 0.0 0.0

1.822999991063097e6 1.6411854989183689e7 0.0
1.6411854989183689e7 803296.9526379562 0.0
0.0 0.0 0.0

631538.7429407812 1.2414310262932854e7 0.0
1.2414310262932854e7 -8.88193581811506e6 0.0
0.0 0.0 0.0

-36289.657773375046 1.3389012059302544e7 0.0
1.3389012059302544e7 -1.065623666625193e7 0.0
0.0 0.0 0.0

-276661.87218474783 1.2036488168955354e7 0.0
1.2036488168955354e7 -3.306921056862183e7 0.0
0.0 0.0 0.0

3.031521285966277e6 5.98390992855545e6 0.0
5.98390992855545e6 -3.616224765968505e7 0.0
0.0 0.0 0.0

-1.3018598912700498e7 8.135045635831178e6 0.0
8.135045635831178e6 1.9688094355153322e7 0.0
0.0 0.0 0.0

-3.606324723952494e6 2.0629629727693573e7 0.0
2.0629629727693573e7 5.565331058134285e6 0.0
0.0 0.0 0.0

-1.164311386252087e7 1.6234449381528369e6 0.0
1.6234449381528369e6 2.795867649708184e7 0.0
0.0 0.0 0.0

-97352.81165732956 1.710485980777348e7 0.0
1.710485980777348e7 -1.0317854484541642e7 0.0
0.0 0.0 0.0

-187410.50441148458 1.6696376858547444e7 0.0
1.6696376858547444e7 -1.2306661256627172e7 0.0
0.0 0.0 0.0

1.0253684546746792e7 5.593426818546102e6 0.0
5.593426818546102e6 -2.151862233682987e6 0.0
0.0 0.0 0.0

1.646975053521858e6 8.629480860588375e6 0.0
8.629480860588375e6 -8.425286188720383e6 0.0
0.0 0.0 0.0

-9.431703815150611e6 1.1018540046795402e7 0.0
1.1018540046795402e7 1.2143485780896224e7 0.0
0.0 0.0 0.0

-1.6677880261286749e6 1.5655513791304342e7 0.0
1.5655513791304342e7 -1.4725231240641534e7 0.0
0.0 0.0 0.0

764445.5999703701 1.3109831042565355e7 0.0
1.3109831042565355e7 -1.0222320665407192e7 0.0
0.0 0.0 0.0

899893.5960186478 1.4039100415297883e7 0.0
1.4039100415297883e7 -1.1877933589185875e7 0.0
0.0 0.0 0.0

-1.1081576681753011e7 1.1136693081517257e7 0.0
1.1136693081517257e7 2.7801020942384064e7 0.0
0.0 0.0 0.0

-1.2785440880470648e7 7.583121514825688e6 0.0
7.583121514825688e6 1.7808822683173526e7 0.0
0.0 0.0 0.0

-139337.84217808256 1.3068594522639278e7 0.0
1.3068594522639278e7 -1.0056371356983041e7 0.0
0.0 0.0 0.0

-1.2772360636192982e6 1.5794926753593802e7 0.0
1.5794926753593802e7 -8.055965240003789e6 0.0
0.0 0.0 0.0

-4.8806657768439725e6 1.759963389462898e7 0.0
1.759963389462898e7 -5.753336659356473e6 0.0
0.0 0.0 0.0

-2.797241539008389e6 2.0876604705594692e7 0.0
2.0876604705594692e7 -1.8329323603972243e6 0.0
0.0 0.0 0.0

2.6058716125312047e6 1.0693121052744403e7 0.0
1.0693121052744403e7 -2.3113551302172422e7 0.0
0.0 0.0 0.0

-2.6708409359355452e6 2.4496801750934724e7 0.0
2.4496801750934724e7 2.42544205246914e6 0.0
0.0 0.0 0.0

-8.340500006056958e6 1.2037749567809662e7 0.0
1.2037749567809662e7 1.0786498977707995e7 0.0
0.0 0.0 0.0

-4.948271020759967e6 2.0495599614362817e7 0.0
2.0495599614362817e7 -7.223717638064897e6 0.0
0.0 0.0 0.0

-51852.36536957265 1.5072412524029948e7 0.0
1.5072412524029948e7 -1.6278623568881834e6 0.0
0.0 0.0 0.0

-259687.35610546824 1.6119382766204719e7 0.0
1.6119382766204719e7 -1.4534822882746942e7 0.0
0.0 0.0 0.0

-1.4795046593316318e6 1.6167302367058499e7 0.0
1.6167302367058499e7 -8.356574801638062e6 0.0
0.0 0.0 0.0

-4.405799588640009e6 2.007206643586614e7 0.0
2.007206643586614e7 7.577005593861919e6 0.0
0.0 0.0 0.0

50301.2097951239 1.6048342756354492e7 0.0
1.6048342756354492e7 -9.98074324925659e6 0.0
0.0 0.0 0.0

-251582.0372504606 1.274498236899007e7 0.0
1.274498236899007e7 -9.400852603038948e6 0.0
0.0 0.0 0.0

180948.47414288204 1.5191984942328954e7 0.0
1.5191984942328954e7 -1.7258128142710026e7 0.0
0.0 0.0 0.0

-1.0054680636717537e6 1.0682437727138696e7 0.0
1.0682437727138696e7 -5.818512756505603e6 0.0
0.0 0.0 0.0

-3.7439810599598307e6 1.9327451379415486e7 0.0
1.9327451379415486e7 1.5550287254232771e6 0.0
0.0 0.0 0.0

-2.633955803566313e6 2.0448259292651284e7 0.0
2.0448259292651284e7 -2.7924939463575277e6 0.0
0.0 0.0 0.0

-335261.1637117673 4.435521098481421e6 0.0
4.435521098481421e6 -92973.47343052358 0.0
0.0 0.0 0.0

752112.857876197 9.550373659714477e6 0.0
9.550373659714477e6 -9.636779269586785e6 0.0
0.0 0.0 0.0

-2.316955138145767e6 2.1679832431385648e7 0.0
2.1679832431385648e7 -376076.49674392206 0.0
0.0 0.0 0.0

-4.600134896779314e6 1.7454039135068394e7 0.0
1.7454039135068394e7 4.141692236825644e6 0.0
0.0 0.0 0.0

-7.122575167785957e7 6.245047243439871e6 0.0
6.245047243439871e6 4.463648778736725e6 0.0
0.0 0.0 0.0

1.166500942912451e6 1.380173339386205e7 0.0
1.380173339386205e7 -1.931247616828635e7 0.0
0.0 0.0 0.0

-5.261512743624706e6 1.6487672332738219e7 0.0
1.6487672332738219e7 6.39319276692036e6 0.0
0.0 0.0 0.0

-2.0458891566160787e6 1.8933669429659232e7 0.0
1.8933669429659232e7 -2.9418758456123173e6 0.0
0.0 0.0 0.0

-4.990403554518493e6 1.7336614159021724e7 0.0
1.7336614159021724e7 6.254260577769114e6 0.0
0.0 0.0 0.0

-1.3464012736017324e6 1.784597488070078e7 0.0
1.784597488070078e7 533959.6776888232 0.0
0.0 0.0 0.0

-480328.94957171706 1.7233533412490238e7 0.0
1.7233533412490238e7 -8.680320326412447e6 0.0
0.0 0.0 0.0

-7.240390185607324e6 1.3025262715523189e7 0.0
1.3025262715523189e7 9.270415482788553e6 0.0
0.0 0.0 0.0

-1.179782340338642e7 4.680296675729885e6 0.0
4.680296675729885e6 2.1869141319880903e7 0.0
0.0 0.0 0.0

-442196.8848587901 1.1212772643303799e7 0.0
1.1212772643303799e7 -4.820160553258062e6 0.0
0.0 0.0 0.0

2.9195852517078724e6 5.77707864933859e6 0.0
5.77707864933859e6 -9.727864156343011e6 0.0
0.0 0.0 0.0

-1.646761264419003e6 1.4200376672003353e7 0.0
1.4200376672003353e7 -6.314853811352468e6 0.0
0.0 0.0 0.0

-851614.3781928103 1.7761665853008933e7 0.0
1.7761665853008933e7 -9.56643201530475e6 0.0
0.0 0.0 0.0

-4.799065797238756e6 1.661498359836061e7 0.0
1.661498359836061e7 4.1858779964630473e6 0.0
0.0 0.0 0.0

-2.3526529282479873e6 1.3032888808916917e7 0.0
1.3032888808916917e7 -3.9496251817826224e6 0.0
0.0 0.0 0.0

-5.860682514376793e6 1.39475312589196e6 0.0
1.39475312589196e6 9.128489717689667e6 0.0
0.0 0.0 0.0

2.479923564834109e6 5.6842654818575755e6 0.0
5.6842654818575755e6 -1.1189339875938967e7 0.0
0.0 0.0 0.0

-1.1500952278617041e7 4.598938414712545e6 0.0
4.598938414712545e6 2.8092174461316444e7 0.0
0.0 0.0 0.0

-1.0985056822178435e7 1.0181989798342779e6 0.0
1.0181989798342779e6 1.5264304112365661e7 0.0
0.0 0.0 0.0

-4.329640083758226e6 1.7399241087494325e7 0.0
1.7399241087494325e7 1.7637810468239002e7 0.0
0.0 0.0 0.0

-1.459867896044095e6 1.6495091073259862e7 0.0
1.6495091073259862e7 -7.68641665263578e6 0.0
0.0 0.0 0.0

610822.5660597272 9.010189038949292e6 0.0
9.010189038949292e6 -9.012638102518547e6 0.0
0.0 0.0 0.0

-1.1164131677403506e7 4.438490937758165e6 0.0
4.438490937758165e6 3.0162869235503525e7 0.0
0.0 0.0 0.0

-1.82095584782648e6 1.912836921586668e7 0.0
1.912836921586668e7 -3.6188004652805612e6 0.0
0.0 0.0 0.0

-3.8609661706035766e6 1.2017900895203106e7 0.0
1.2017900895203106e7 161317.83354782616 0.0
0.0 0.0 0.0

-1.1488231926545613e6 8.79041085055694e6 0.0
8.79041085055694e6 -1.029040916544472e6 0.0
0.0 0.0 0.0

-1.4474172236986626e6 1.1601877940308565e7 0.0
1.1601877940308565e7 -5.4325780978138605e6 0.0
0.0 0.0 0.0

-1.4367224486848498e6 1.478447257175659e7 0.0
1.478447257175659e7 -2.1722855041726056e7 0.0
0.0 0.0 0.0

-4.091631587715158e6 1.7398945232365068e7 0.0
1.7398945232365068e7 5.856136101559507e6 0.0
0.0 0.0 0.0

395411.51180635067 1.663911191379874e7 0.0
1.663911191379874e7 -1.2329108309241233e7 0.0
0.0 0.0 0.0

-3.310529447942579e6 1.5081662648630934e7 0.0
1.5081662648630934e7 4.4480124840251e7 0.0
0.0 0.0 0.0

1.6223572121744095e6 1.906858893457636e7 0.0
1.906858893457636e7 9.420006657053355e6 0.0
0.0 0.0 0.0

-1.1132399061206445e7 1.0288651971218657e7 0.0
1.0288651971218657e7 1.4602533026052875e7 0.0
0.0 0.0 0.0

2.561469092717274e6 1.1168552600737907e7 0.0
1.1168552600737907e7 -1.932063016605875e7 0.0
0.0 0.0 0.0

-1.583810263634603e6 1.3588505976119583e7 0.0
1.3588505976119583e7 -3.091841482722173e6 0.0
0.0 0.0 0.0

-142187.6964825103 1.869629521218056e7 0.0
1.869629521218056e7 -9.251152253153851e6 0.0
0.0 0.0 0.0

-3.3292945554252407e6 2.1383632756710496e7 0.0
2.1383632756710496e7 3.9484612633937937e6 0.0
0.0 0.0 0.0

-2.483932652936071e6 1.9977684530754942e7 0.0
1.9977684530754942e7 -3.6110014243563926e6 0.0
0.0 0.0 0.0

-105650.75587199256 1.6439907622547936e7 0.0
1.6439907622547936e7 -1.354477794077675e7 0.0
0.0 0.0 0.0

-1.2802644963835909e6 1.2671961211943263e7 0.0
1.2671961211943263e7 -3.3951988242615196e6 0.0
0.0 0.0 0.0

-4.668213905492584e6 1.7810877931592323e7 0.0
1.7810877931592323e7 5.155089402527976e6 0.0
0.0 0.0 0.0

-1.1503154805246338e7 4.227849687210892e6 0.0
4.227849687210892e6 1.4025133904609922e7 0.0
0.0 0.0 0.0

2.833437977908777e6 5.598639152378214e6 0.0
5.598639152378214e6 -1.269467514688237e7 0.0
0.0 0.0 0.0

-1.1714040450704265e6 1.4369712597488282e7 0.0
1.4369712597488282e7 -4.744957942439141e6 0.0
0.0 0.0 0.0

3.109933540544371e6 8.670254062954053e6 0.0
8.670254062954053e6 -1.4868402329568693e7 0.0
0.0 0.0 0.0

-3.3387000522775305e6 1.7289320096277736e7 0.0
1.7289320096277736e7 1.94171275416201e6 0.0
0.0 0.0 0.0

-414673.7897967328 8.364555192563818e6 0.0
8.364555192563818e6 -2.2518725046763457e6 0.0
0.0 0.0 0.0

-1.7607120527039482e6 2.291907591680835e7 0.0
2.291907591680835e7 -2.429253219102043e6 0.0
0.0 0.0 0.0

-4.8064071612739295e7 2.810105535466509e6 0.0
2.810105535466509e6 7.54307579795167e6 0.0
0.0 0.0 0.0

176513.1576525767 7.874973271260989e6 0.0
7.874973271260989e6 -3.3229214511882165e6 0.0
0.0 0.0 0.0

-1.6248609140812913e6 1.4164725285558086e7 0.0
1.4164725285558086e7 -2.60959662886608e7 0.0
0.0 0.0 0.0

308194.0086660292 1.7837418895974144e7 0.0
1.7837418895974144e7 -8.66334882203032e6 0.0
0.0 0.0 0.0

1.014369007012235e6 1.1891007649822934e7 0.0
1.1891007649822934e7 -9.841450688505344e6 0.0
0.0 0.0 0.0

799785.3718633614 1.5341505512487283e7 0.0
1.5341505512487283e7 -1.5246895921351723e7 0.0
0.0 0.0 0.0

738312.290714964 7.431188199796076e6 0.0
7.431188199796076e6 -4.311656986181721e6 0.0
0.0 0.0 0.0

3.686177783449306e6 7.419669157018219e6 0.0
7.419669157018219e6 -1.659337712979751e7 0.0
0.0 0.0 0.0

-2.914670129215292e6 2.1305272650520526e7 0.0
2.1305272650520526e7 -966216.6379658512 0.0
0.0 0.0 0.0

630468.4273531819 5.63144694692705e6 0.0
5.63144694692705e6 -5.333957390582214e6 0.0
0.0 0.0 0.0

1.2573750548116565e6 9.472549996987943e6 0.0
9.472549996987943e6 -1.1210523170809343e7 0.0
0.0 0.0 0.0

-1.5426333586256336e6 2.384804633916827e7 0.0
2.384804633916827e7 -1.5810767042920836e6 0.0
0.0 0.0 0.0

2.246441274155507e6 1.721519025912981e7 0.0
1.721519025912981e7 -360286.2288235461 0.0
0.0 0.0 0.0

-204064.947426124 1.9958528415344007e7 0.0
1.9958528415344007e7 -7.184906410069592e6 0.0
0.0 0.0 0.0

2.8728576754333563e6 7.593531947855705e6 0.0
7.593531947855705e6 -4.2302431045317784e7 0.0
0.0 0.0 0.0

-1.0718989998910919e7 1.4986010262247734e7 0.0
1.4986010262247734e7 2.1992746892096117e7 0.0
0.0 0.0 0.0

-2.791154871861619e6 2.0739279737912443e7 0.0
2.0739279737912443e7 778601.0290940674 0.0
0.0 0.0 0.0

2.91734875579709e6 8.365865340522156e6 0.0
8.365865340522156e6 -1.2819366257232165e7 0.0
0.0 0.0 0.0

1.182548637977915e6 6.8867745231739795e6 0.0
6.8867745231739795e6 -5.26130931794261e6 0.0
0.0 0.0 0.0

526373.7671504784 8.481727658798821e6 0.0
8.481727658798821e6 -8.34850738314334e6 0.0
0.0 0.0 0.0

-3.525151085171568e6 2.3937516354598816e7 0.0
2.3937516354598816e7 4.409255321822884e6 0.0
0.0 0.0 0.0

-9.001145234450508e6 -655099.4958872701 0.0
-655099.4958872701 1.5557238703826543e7 0.0
0.0 0.0 0.0

-1.223327769814514e7 1.2860206246767882e7 0.0
1.2860206246767882e7 2.0171863957762126e7 0.0
0.0 0.0 0.0

-2.098582299132852e6 2.0213803962983754e7 0.0
2.0213803962983754e7 -2.4191951558572734e6 0.0
0.0 0.0 0.0

1.153089024089295e6 1.3266242697308322e7 0.0
1.3266242697308322e7 -1.2350639817858884e7 0.0
0.0 0.0 0.0

-4.671803844941243e6 1.79903421962725e7 0.0
1.79903421962725e7 1.5610748482447391e7 0.0
0.0 0.0 0.0

-2.5988534667334165e6 1.3941693954523738e7 0.0
1.3941693954523738e7 -3.6379637083402136e6 0.0
0.0 0.0 0.0

466054.50654097926 1.3899241388495373e7 0.0
1.3899241388495373e7 -9.894246052832924e6 0.0
0.0 0.0 0.0

5355.085462454706 1.3622225382362556e7 0.0
1.3622225382362556e7 -2.2722575973743808e7 0.0
0.0 0.0 0.0

77137.87294658623 2.095672484162528e7 0.0
2.095672484162528e7 -6.0364954760807995e6 0.0
0.0 0.0 0.0

46521.82429167628 1.2201647372208303e7 0.0
1.2201647372208303e7 -3.1190936286599785e7 0.0
0.0 0.0 0.0

-1.0899700155793365e7 3.424335611107016e6 0.0
3.424335611107016e6 1.3256424831337128e7 0.0
0.0 0.0 0.0

3.188352325633408e6 1.8795612454961915e7 0.0
1.8795612454961915e7 1.8039165939634513e7 0.0
0.0 0.0 0.0

-4.0620488695014957e6 2.319294789638392e7 0.0
2.319294789638392e7 4.684988143480965e6 0.0
0.0 0.0 0.0

-2.3482889812579574e6 1.4328948923797261e7 0.0
1.4328948923797261e7 -4.454738119617324e6 0.0
0.0 0.0 0.0

1.686065339334796e6 1.85510999364028e7 0.0
1.85510999364028e7 -5.844634328859545e6 0.0
0.0 0.0 0.0

-1.8454146547917388e6 1.9788644655357692e7 0.0
1.9788644655357692e7 -3.3250877152691092e6 0.0
0.0 0.0 0.0

-4.43176729997344e6 7.097228484242923e6 0.0
7.097228484242923e6 2.4330344943225035e6 0.0
0.0 0.0 0.0

-7729.969282071106 1.6762224258560799e7 0.0
1.6762224258560799e7 -1.2607765099166296e7 0.0
0.0 0.0 0.0

1.948444932737765e6 1.2655022209365861e7 0.0
1.2655022209365861e7 -1.6539712436352383e7 0.0
0.0 0.0 0.0

1.6822193466983838e6 1.3119088495385436e7 0.0
1.3119088495385436e7 -1.5553142644216651e7 0.0
0.0 0.0 0.0

-695349.313411958 1.3230312877794744e7 0.0
1.3230312877794744e7 -8.400830333063297e6 0.0
0.0 0.0 0.0

8.827110172726866e6 2.1451948205845192e7 0.0
2.1451948205845192e7 -5.731266734936181e6 0.0
0.0 0.0 0.0

1.7793046961982097e6 1.0062941336868415e7 0.0
1.0062941336868415e7 -1.0286856240499e7 0.0
0.0 0.0 0.0

2.8163012782028187e6 5.166699227246174e6 0.0
5.166699227246174e6 -1.2119422574450854e7 0.0
0.0 0.0 0.0

2.170605919087964e6 1.2145643062232267e7 0.0
1.2145643062232267e7 -1.7435381753460046e7 0.0
0.0 0.0 0.0

3.2675792013935484e6 6.354861364324233e6 0.0
6.354861364324233e6 -3.2468233491729584e7 0.0
0.0 0.0 0.0

-5.838565484315984e6 6.521496777557442e6 0.0
6.521496777557442e6 5.087191685661279e6 0.0
0.0 0.0 0.0

-3.9910422716840515e6 1.8925867472476628e7 0.0
1.8925867472476628e7 2.2462630198833644e6 0.0
0.0 0.0 0.0

4.267498196650988e6 4.925307696744861e6 0.0
4.925307696744861e6 -1.943863295263293e7 0.0
0.0 0.0 0.0

2.0603400039600683e6 6.2598155487753255e6 0.0
6.2598155487753255e6 -1.0491528163021281e7 0.0
0.0 0.0 0.0

-234724.84101108136 1.3392867167296462e7 0.0
1.3392867167296462e7 -6.88050495807468e6 0.0
0.0 0.0 0.0

-1.0090078498132985e7 1.2109845366882063e7 0.0
1.2109845366882063e7 2.9267629384770997e7 0.0
0.0 0.0 0.0

-5.340109314994381e6 1.8857592498017855e7 0.0
1.8857592498017855e7 1.1743090201299675e7 0.0
0.0 0.0 0.0

-4.04576948607573e6 8.089734806636864e6 0.0
8.089734806636864e6 1.4659307143018944e6 0.0
0.0 0.0 0.0

-8.236900595227754e6 1.7007260156782907e7 0.0
1.7007260156782907e7 1.6878815491301447e7 0.0
0.0 0.0 0.0

3.9254308293353226e6 6.092240907438238e6 0.0
6.092240907438238e6 -1.4733057695212418e7 0.0
0.0 0.0 0.0

2.307089019111897e6 1.1664158150886122e7 0.0
1.1664158150886122e7 -1.849593200521284e7 0.0
0.0 0.0 0.0

-6.002930673115477e6 4.6235151072208665e7 0.0
4.6235151072208665e7 2.7365615293525634e6 0.0
0.0 0.0 0.0

-5.328814045392788e6 1.1212596123744344e7 0.0
1.1212596123744344e7 3.822872531999886e6 0.0
0.0 0.0 0.0

-1.0073743307590205e7 2.39777115750124e6 0.0
2.39777115750124e6 1.210772978996187e7 0.0
0.0 0.0 0.0

-9668.693266695365 1.6061998369952254e7 0.0
1.6061998369952254e7 -1.3233788466766123e7 0.0
0.0 0.0 0.0

1.4639340808243044e6 1.3603128479183074e7 0.0
1.3603128479183074e7 -1.4681833973735748e7 0.0
0.0 0.0 0.0

-7989.691865031375 1.6387538940551425e6 0.0
1.6387538940551425e6 3.106447303638466e6 0.0
0.0 0.0 0.0

-1.3431708404974425e6 520986.92727007385 0.0
520986.92727007385 5.104834627795238e6 0.0
0.0 0.0 0.0

-4.222672233067481e6 2.41594046069907e7 0.0
2.41594046069907e7 4.0735462105512666e6 0.0
0.0 0.0 0.0

-5.138328463220349e6 1.6128330905283144e7 0.0
1.6128330905283144e7 5.297547875812621e6 0.0
0.0 0.0 0.0

-3.457582859281373e6 2.3872506891939446e7 0.0
2.3872506891939446e7 2.5068229261145433e6 0.0
0.0 0.0 0.0

3.309446893816757e6 8.53759554145813e6 0.0
8.53759554145813e6 -1.6311345015882894e7 0.0
0.0 0.0 0.0

-4.418414523067979e6 1.8230876380742237e7 0.0
1.8230876380742237e7 4.1230149820547346e6 0.0
0.0 0.0 0.0

-1.1124388247807859e7 1.7055703755137292e6 0.0
1.7055703755137292e6 2.382211901691393e7 0.0
0.0 0.0 0.0

-5.7965940426810175e7 4.090149284216395e6 0.0
4.090149284216395e6 6.860500952655114e6 0.0
0.0 0.0 0.0

-3.8986095327014844e6 1.9650302796736997e7 0.0
1.9650302796736997e7 2.3773233543215194e6 0.0
0.0 0.0 0.0

-7.3522284110067915e6 1.737906987778137e7 0.0
1.737906987778137e7 1.5636460118128337e7 0.0
0.0 0.0 0.0

-1.1294474377449998e6 2.1104452676573195e7 0.0
2.1104452676573195e7 -5.44891891452862e6 0.0
0.0 0.0 0.0

2.1340153084346554e6 5.765855950521055e6 0.0
5.765855950521055e6 -9.649014256317286e6 0.0
0.0 0.0 0.0

-5.767183026074108e6 1.294151692140514e7 0.0
1.294151692140514e7 5.4055009344628025e6 0.0
0.0 0.0 0.0

-8.92842562513099e6 2.1139367878537476e7 0.0
2.1139367878537476e7 -5.495246169028915e6 0.0
0.0 0.0 0.0

-4.0456659772037184e6 1.9752805062947214e7 0.0
1.9752805062947214e7 -6.155091734247219e6 0.0
0.0 0.0 0.0

3.378061842930585e6 6.824248035198643e6 0.0
6.824248035198643e6 -1.2350012459921366e7 0.0
0.0 0.0 0.0

-6.618146098292205e6 1.782998648043272e7 0.0
1.782998648043272e7 1.4358979190658785e7 0.0
0.0 0.0 0.0

-506450.29312191554 1.5530294361073688e7 0.0
1.5530294361073688e7 -7.641686869258295e6 0.0
0.0 0.0 0.0

3.467275352247471e6 4.907158144775729e6 0.0
4.907158144775729e6 -3.530645976566018e7 0.0
0.0 0.0 0.0

-1.0450460405339435e7 -123636.86338532226 0.0
-123636.86338532226 3.455819088460197e7 0.0
0.0 0.0 0.0

2.5653009814169956e6 8.947816070599252e6 0.0
8.947816070599252e6 -1.1975372639669118e7 0.0
0.0 0.0 0.0

4.0708273087308994e6 6.788846044338313e6 0.0
6.788846044338313e6 -2.31365768604822e7 0.0
0.0 0.0 0.0

-94172.07581583178 1.6339351449569754e7 0.0
1.6339351449569754e7 -6.8783273104590345e6 0.0
0.0 0.0 0.0

1.6548103385348842e6 1.051112402322881e7 0.0
1.051112402322881e7 -2.9996760809715003e7 0.0
0.0 0.0 0.0

-536318.9920720821 2.5321708451128513e7 0.0
2.5321708451128513e7 -1.9240478338997476e6 0.0
0.0 0.0 0.0

-7.075939281698871e6 1.5485726357746564e7 0.0
1.5485726357746564e7 2.7081868606239706e7 0.0
0.0 0.0 0.0

-1.0769128426191084e7 -443275.62404956995 0.0
-443275.62404956995 3.170861276574914e7 0.0
0.0 0.0 0.0

-718404.9954615636 1.6254683753900722e7 0.0
1.6254683753900722e7 -7.314454338492399e6 0.0
0.0 0.0 0.0

3.2851263485276587e6 7.393441176566102e6 0.0
7.393441176566102e6 -2.781610974878494e7 0.0
0.0 0.0 0.0

-2.807168307491435e6 1.6328058161188887e7 0.0
1.6328058161188887e7 -287122.08589993056 0.0
0.0 0.0 0.0

-4.103336762056155e6 1.8201214353171438e7 0.0
1.8201214353171438e7 2.150159878935237e6 0.0
0.0 0.0 0.0

-1.122809366073078e7 3.58053329805351e6 0.0
3.58053329805351e6 1.856935562745488e7 0.0
0.0 0.0 0.0

478529.9611879827 2.1260850783904906e7 0.0
2.1260850783904906e7 -5.798291573628509e6 0.0
0.0 0.0 0.0

622699.0622472537 1.6644107811637934e7 0.0
1.6644107811637934e7 -4.091467803324839e6 0.0
0.0 0.0 0.0

-2.227636974111041e6 2.0674555530738972e7 0.0
2.0674555530738972e7 -1.518006110865971e6 0.0
0.0 0.0 0.0

4.238111214710154e6 3.286669429004531e6 0.0
3.286669429004531e6 -3.3410183792475432e7 0.0
0.0 0.0 0.0

-4.198360162062317e6 1.8605375912824437e7 0.0
1.8605375912824437e7 3.1237705298390803e6 0.0
0.0 0.0 0.0

1.0481438489406598e6 1.2238866899340926e7 0.0
1.2238866899340926e7 -1.0489209436379576e7 0.0
0.0 0.0 0.0

-3.2587572732872413e6 9.717164222064264e6 0.0
9.717164222064264e6 -463476.6905539393 0.0
0.0 0.0 0.0

-757951.5834155461 1.219809360100434e7 0.0
1.219809360100434e7 -4.527674548263411e6 0.0
0.0 0.0 0.0

-5.358353763694113e6 4.872839567034266e6 0.0
4.872839567034266e6 4.65501182079047e6 0.0
0.0 0.0 0.0

801065.6542712254 1.5975331713842127e7 0.0
1.5975331713842127e7 -4.947807049248694e6 0.0
0.0 0.0 0.0

-1.1749071254885836e7 6.070629118847942e6 0.0
6.070629118847942e6 2.665011494187149e7 0.0
0.0 0.0 0.0

392046.2140653599 1.3593310012035718e7 0.0
1.3593310012035718e7 -9.261219011841904e6 0.0
0.0 0.0 0.0

-2.7465544825536595e6 5.318865582291623e6 0.0
5.318865582291623e6 272227.9600971566 0.0
0.0 0.0 0.0

-4.505550115686357e6 2.4669634000270285e7 0.0
2.4669634000270285e7 4.19502018644631e6 0.0
0.0 0.0 0.0

-1.2399444964703848e6 1.9658426532566197e7 0.0
1.9658426532566197e7 -5.189397794034219e6 0.0
0.0 0.0 0.0

1.2280934704659572e6 1.4212704504643682e7 0.0
1.4212704504643682e7 -1.7164253855177887e7 0.0
0.0 0.0 0.0

2.1790621795358253e6 9.504713030299256e6 0.0
9.504713030299256e6 -1.1149756688444426e7 0.0
0.0 0.0 0.0

-3.275755353140164e6 1.9994760606434748e7 0.0
1.9994760606434748e7 2.9001572076605237e6 0.0
0.0 0.0 0.0

-8.148711779804145e6 1.7093703121178076e7 0.0
1.7093703121178076e7 1.80015252108144e7 0.0
0.0 0.0 0.0

1.9864963578044681e6 1.758158238157017e7 0.0
1.758158238157017e7 1.0721656049678518e7 0.0
0.0 0.0 0.0

2.9302441469202526e6 7.6018064927146e6 0.0
7.6018064927146e6 -2.9769036733644135e7 0.0
0.0 0.0 0.0

-3.94544549308624e6 1.8169782002301894e7 0.0
1.8169782002301894e7 5.71207525264444e6 0.0
0.0 0.0 0.0

-3.5508647693991577e6 1.8985501576493956e7 0.0
1.8985501576493956e7 3.701586772448618e6 0.0
0.0 0.0 0.0

-1.118732249990077e7 7.890031946856198e6 0.0
7.890031946856198e6 1.3642898399213795e7 0.0
0.0 0.0 0.0

-160400.56472879654 2.582259734199564e7 0.0
2.582259734199564e7 -1.9685195893733487e6 0.0
0.0 0.0 0.0

537974.2364769289 1.2040617292807836e7 0.0
1.2040617292807836e7 -8.172003314035363e6 0.0
0.0 0.0 0.0

-9.988882833777636e6 1.429162625007898e7 0.0
1.429162625007898e7 1.5720283842503008e7 0.0
0.0 0.0 0.0

2.1952384280620525e6 9.047243916297557e6 0.0
9.047243916297557e6 -1.0518783966900392e7 0.0
0.0 0.0 0.0

-2.474166443467116e6 7.56986891617446e6 0.0
7.56986891617446e6 2.259809375884777e6 0.0
0.0 0.0 0.0

-3.1089476402612785e6 2.0243139977396645e7 0.0
2.0243139977396645e7 2.100534963421209e6 0.0
0.0 0.0 0.0

-3.0777808575491044e6 2.08960328369237e7 0.0
2.08960328369237e7 2.2007518642612905e6 0.0
0.0 0.0 0.0

314668.93740227213 1.3265743276459096e7 0.0
1.3265743276459096e7 -8.590744798392167e6 0.0
0.0 0.0 0.0

1.2516328495476164e6 1.7313383121233325e7 0.0
1.7313383121233325e7 -5.16404815311358e6 0.0
0.0 0.0 0.0

6.953784038322172e6 2.23344342074946e7 0.0
2.23344342074946e7 -5.697184364609124e6 0.0
0.0 0.0 0.0

-4.954399233430611e6 1.9644877601836905e7 0.0
1.9644877601836905e7 6.718547864237575e6 0.0
0.0 0.0 0.0

-5.91006753811554e6 1.485549749465883e7 0.0
1.485549749465883e7 -2.8293597862222824e7 0.0
0.0 0.0 0.0

1.3089616787595577e6 1.0162751712781355e7 0.0
1.0162751712781355e7 -8.682875325251432e6 0.0
0.0 0.0 0.0

-1.10545670124109e7 2.1042355709594754e6 0.0
2.1042355709594754e6 2.1976176866402283e7 0.0
0.0 0.0 0.0

-1.5932214203620432e6 1.807398946770301e7 0.0
1.807398946770301e7 -1.306871272207454e6 0.0
0.0 0.0 0.0

-4.0085875439657243e6 1.8612112184611607e7 0.0
1.8612112184611607e7 -801261.3853583876 0.0
0.0 0.0 0.0

-3.7474090359181142e6 1.8565009658143308e7 0.0
1.8565009658143308e7 4.635457405576881e6 0.0
0.0 0.0 0.0

-1.0671079789357914e7 78210.15885163647 0.0
78210.15885163647 2.4687855108580556e7 0.0
0.0 0.0 0.0

-4.977988806773912e6 2.518100889391217e7 0.0
2.518100889391217e7 4.354430875265777e6 0.0
0.0 0.0 0.0

-3.6789821098257117e6 1.9929701841966216e7 0.0
1.9929701841966216e7 1.566469625962856e6 0.0
0.0 0.0 0.0

1.3451756566413357e6 1.6102336511922587e7 0.0
1.6102336511922587e7 -135338.61511913443 0.0
0.0 0.0 0.0

2.1126350445816386e6 1.4690424290871963e7 0.0
1.4690424290871963e7 7.042117089743548e6 0.0
0.0 0.0 0.0

-4.179493805046435e6 1.769976899888356e7 0.0
1.769976899888356e7 6.818845596759347e6 0.0
0.0 0.0 0.0

-6.726175190127111e6 1.584596437372368e7 0.0
1.584596437372368e7 1.089026305274058e7 0.0
0.0 0.0 0.0

3.34331012476317e6 6.292479418177856e6 0.0
6.292479418177856e6 -1.1697261112856973e7 0.0
0.0 0.0 0.0

-2.015728411818719e6 2.0848271161964938e7 0.0
2.0848271161964938e7 -2.17118880052836e6 0.0
0.0 0.0 0.0

-1.0045258647398114e7 1.2333664680643646e7 0.0
1.2333664680643646e7 1.743834260526755e7 0.0
0.0 0.0 0.0

3.874922214916895e6 4.67913709659765e6 0.0
4.67913709659765e6 -1.7992219982075665e7 0.0
0.0 0.0 0.0

-2.495666064314184e6 1.9363357605264816e7 0.0
1.9363357605264816e7 -3.983402989468866e6 0.0
0.0 0.0 0.0

-3.6216670818483625e6 1.82313492002835e7 0.0
1.82313492002835e7 3.7537226057352247e6 0.0
0.0 0.0 0.0

-1.7660862805780973e6 4.984189804159913e6 0.0
4.984189804159913e6 -955807.2375630303 0.0
0.0 0.0 0.0

1.7372433954395112e6 1.0174496499680258e7 0.0
1.0174496499680258e7 -1.383091294736864e7 0.0
0.0 0.0 0.0

-3.098160445365791e6 4.0850681507660925e7 0.0
4.0850681507660925e7 2.020864137262047e6 0.0
0.0 0.0 0.0

2.3859118226380125e6 6.9971506144189965e6 0.0
6.9971506144189965e6 -4.99734349602911e7 0.0
0.0 0.0 0.0

3.8859175728324205e6 5.554022132814974e6 0.0
5.554022132814974e6 -2.0758155053479806e7 0.0
0.0 0.0 0.0

2.277261807075248e6 1.1330363298367184e7 0.0
1.1330363298367184e7 -1.5383809708103694e7 0.0
0.0 0.0 0.0

-4.229163963492648e6 1.9152421049765944e7 0.0
1.9152421049765944e7 4.792185072105202e6 0.0
0.0 0.0 0.0

1.1253408092685519e6 1.3127964046799535e7 0.0
1.3127964046799535e7 -2.0535155686082758e7 0.0
0.0 0.0 0.0

1.247548377710179e6 9.68849289564519e6 0.0
9.68849289564519e6 -8.020858824552493e6 0.0
0.0 0.0 0.0

-2.4917660548008243e6 9.268558574898984e6 0.0
9.268558574898984e6 -1.7729214067202252e6 0.0
0.0 0.0 0.0

1.6526291531254263e6 1.6620317292828005e7 0.0
1.6620317292828005e7 1.277506251956003e7 0.0
0.0 0.0 0.0

-7.266889447209941e6 1.5761532055740098e7 0.0
1.5761532055740098e7 2.537869204671038e7 0.0
0.0 0.0 0.0

7.353105975358654e6 1.3288363063573183e7 0.0
1.3288363063573183e7 6.042065887946648e6 0.0
0.0 0.0 0.0

-4.475003590564732e6 2.7268830280403085e7 0.0
2.7268830280403085e7 2.831355630609801e6 0.0
0.0 0.0 0.0

-1.1731000017938795e6 1.3710587628113214e7 0.0
1.3710587628113214e7 -7.373239393341405e6 0.0
0.0 0.0 0.0

-2.3734349226137783e7 2.155283066591286e7 0.0
2.155283066591286e7 957294.1135906726 0.0
0.0 0.0 0.0

-254799.31390676135 1.4828277439937593e7 0.0
1.4828277439937593e7 -7.969388729808142e6 0.0
0.0 0.0 0.0

-3.505669680580722e6 1.8622057239631627e7 0.0
1.8622057239631627e7 2.7886637984765517e6 0.0
0.0 0.0 0.0

-61232.34649893921 1.213012145672664e7 0.0
1.213012145672664e7 -6.371700964718846e6 0.0
0.0 0.0 0.0

-356651.0000855811 1.4245145999662349e7 0.0
1.4245145999662349e7 -2.0835441848374464e7 0.0
0.0 0.0 0.0

3.701102018565247e6 5.328350840223149e6 0.0
5.328350840223149e6 -1.7177929408553667e7 0.0
0.0 0.0 0.0

2.6165182481081057e6 9.783694632998211e6 0.0
9.783694632998211e6 -2.7131788862662468e7 0.0
0.0 0.0 0.0

-2.5015102488126177e6 1.778966009865765e7 0.0
1.778966009865765e7 1.3422165615136126e7 0.0
0.0 0.0 0.0

3.839843919095356e6 7.10845735494244e6 0.0
7.10845735494244e6 -1.939552442645421e7 0.0
0.0 0.0 0.0

-2.241143024901904e6 1.949296542329642e7 0.0
1.949296542329642e7 -4.539895590020837e6 0.0
0.0 0.0 0.0

-847224.3059760178 1.6960673372556657e7 0.0
1.6960673372556657e7 -9.72488507787924e6 0.0
0.0 0.0 0.0

-2.0300091628769985e6 1.208288377788167e7 0.0
1.208288377788167e7 -4.297466065106499e6 0.0
0.0 0.0 0.0

-4.485238723766178e6 1.3630023223109785e7 0.0
1.3630023223109785e7 1.7300203093122493e6 0.0
0.0 0.0 0.0

-9.857877648914348e6 1.4865029733676849e7 0.0
1.4865029733676849e7 1.6465567828724843e7 0.0
0.0 0.0 0.0

2.82247381781057e6 9.231209371467449e6 0.0
9.231209371467449e6 -1.4031821389870487e7 0.0
0.0 0.0 0.0

-5.463681070982948e6 2.900241525494467e7 0.0
2.900241525494467e7 2.9347754948496004e6 0.0
0.0 0.0 0.0

-5.647146446755296e6 2.5600770514567636e7 0.0
2.5600770514567636e7 4.645577562518741e6 0.0
0.0 0.0 0.0

-9.705413836008199e6 1.5827908084094873e7 0.0
1.5827908084094873e7 1.7403310064536057e7 0.0
0.0 0.0 0.0

-1.3068076113884142e6 1.3432583768164618e7 0.0
1.3432583768164618e7 -4.356025247238453e6 0.0
0.0 0.0 0.0

1.2212567338574464e6 1.406743883951129e7 0.0
1.406743883951129e7 -1.3726380909266382e7 0.0
0.0 0.0 0.0

3.8766666550147645e6 6.930776596697683e6 0.0
6.930776596697683e6 -1.753992199037681e7 0.0
0.0 0.0 0.0

-4.334306640097175e6 2.0602484400936e7 0.0
2.0602484400936e7 9.046261531057393e6 0.0
0.0 0.0 0.0

-1.2704256771834327e7 6.643819736449413e6 0.0
6.643819736449413e6 1.7063993289122988e7 0.0
0.0 0.0 0.0

1.3177374667282077e6 2.292360778649409e7 0.0
2.292360778649409e7 -4.38373718447017e6 0.0
0.0 0.0 0.0

-9.447533733920457e6 1.034442537290117e6 0.0
1.034442537290117e6 4.32552869967092e7 0.0
0.0 0.0 0.0

-1.8339185806152525e6 1.7015600762880147e7 0.0
1.7015600762880147e7 -6.673246867849493e6 0.0
0.0 0.0 0.0

-9.458252671727013e6 -4.755321654871191e6 0.0
-4.755321654871191e6 2.1172019716429632e7 0.0
0.0 0.0 0.0

-6.337948188224835e6 3.0797319369081003e6 0.0
3.0797319369081003e6 9.64114912294894e6 0.0
0.0 0.0 0.0

3.292318601757649e6 5.708262978266002e6 0.0
5.708262978266002e6 -1.12155257551857e7 0.0
0.0 0.0 0.0

-1.101182179482292e7 1.2084665081017848e7 0.0
1.2084665081017848e7 2.61949303251224e7 0.0
0.0 0.0 0.0

2.898650062793726e6 1.0130622520214617e7 0.0
1.0130622520214617e7 -2.2787552236914933e7 0.0
0.0 0.0 0.0

-2.078213568025968e6 1.960572831317859e7 0.0
1.960572831317859e7 -2.648990329874554e6 0.0
0.0 0.0 0.0

-3.4821892201108793e6 1.96572401997575e7 0.0
1.96572401997575e7 3.767264125092816e6 0.0
0.0 0.0 0.0

-1.8432810236013592e6 1.448342881147494e7 0.0
1.448342881147494e7 -2.802848822496955e6 0.0
0.0 0.0 0.0

-3.665108643759077e6 2.0003685556540895e7 0.0
2.0003685556540895e7 5.652858506934396e6 0.0
0.0 0.0 0.0

1.3243427529250118e6 5.713066691084951e6 0.0
5.713066691084951e6 -7.060277918097232e6 0.0
0.0 0.0 0.0

-2.8136224162703045e6 1.6781329913357615e7 0.0
1.6781329913357615e7 -3.4997291093727173e6 0.0
0.0 0.0 0.0

5.414625542983812e6 2.2908179376497332e7 0.0
2.2908179376497332e7 -5.314303116487935e6 0.0
0.0 0.0 0.0

1.0637751767250733e6 9.054236764115317e6 0.0
9.054236764115317e6 -7.510682660275351e6 0.0
0.0 0.0 0.0

-105478.10636354191 1.374339111060753e7 0.0
1.374339111060753e7 -7.605642100230668e6 0.0
0.0 0.0 0.0

-3.4250162429720885e6 1.9232092029813025e7 0.0
1.9232092029813025e7 -4.737133028774572e6 0.0
0.0 0.0 0.0

-2.0739988581945458e6 1.408238700098781e7 0.0
1.408238700098781e7 -1.921296847159014e6 0.0
0.0 0.0 0.0

7.1363663012311645e6 1.9143653210353505e7 0.0
1.9143653210353505e7 -3.567527527322187e6 0.0
0.0 0.0 0.0

-932529.3976246399 4.573988941158101e6 0.0
4.573988941158101e6 -2.143085579475435e6 0.0
0.0 0.0 0.0

4.0160067356571574e6 4.929843326708951e6 0.0
4.929843326708951e6 -2.4752050700767193e7 0.0
0.0 0.0 0.0

-1.3349324354953105e6 3.6202093921474363e6 0.0
3.6202093921474363e6 2.098786707629348e6 0.0
0.0 0.0 0.0

-1.7238248079916202e6 8.825123613956643e6 0.0
8.825123613956643e6 -2.9603294397033174e6 0.0
0.0 0.0 0.0

-2.104997360616863e6 1.4689560680482032e7 0.0
1.4689560680482032e7 -5.239305881424512e6 0.0
0.0 0.0 0.0

-5.820864854020966e6 4.42377481899575e6 0.0
4.42377481899575e6 9.048442270629285e6 0.0
0.0 0.0 0.0

2.591034459219161e6 6.375524623323387e6 0.0
6.375524623323387e6 -8.758529842507623e6 0.0
0.0 0.0 0.0

118445.69388969569 1.7158777074634597e7 0.0
1.7158777074634597e7 -1.167851243220073e7 0.0
0.0 0.0 0.0

-986964.6701403081 8.396502004945083e6 0.0
8.396502004945083e6 -4.16825319430168e6 0.0
0.0 0.0 0.0

-2.8614798051432655e6 3.708423288207179e7 0.0
3.708423288207179e7 1.4089622593896086e6 0.0
0.0 0.0 0.0

7.108950649987351e6 1.8925286179606352e7 0.0
1.8925286179606352e7 8.220099024350039e6 0.0
0.0 0.0 0.0

-346544.7507764229 7.90405496784206e6 0.0
7.90405496784206e6 -5.072734553068631e6 0.0
0.0 0.0 0.0

-6.208004088706462e6 1.2321863114649164e7 0.0
1.2321863114649164e7 1.0481185216265297e7 0.0
0.0 0.0 0.0

2.0159410929213446e6 4.417839145540863e6 0.0
4.417839145540863e6 -6.487807594215364e6 0.0
0.0 0.0 0.0

-1.2011863975532666e7 6.430689712849977e6 0.0
6.430689712849977e6 2.4920987283018973e7 0.0
0.0 0.0 0.0

216151.07940006652 7.367266182878467e6 0.0
7.367266182878467e6 -6.037716776144141e6 0.0
0.0 0.0 0.0

-6.803547756744426e6 2.922420084798925e7 0.0
2.922420084798925e7 4.83235097649322e6 0.0
0.0 0.0 0.0

2.069676767291681e6 2.3114608379873216e7 0.0
2.3114608379873216e7 -4.448511372504133e6 0.0
0.0 0.0 0.0

4.1160398266902594e6 6.308264224513404e6 0.0
6.308264224513404e6 -1.8341383547947038e7 0.0
0.0 0.0 0.0

-1.0762316678612242e6 1.7393550400015924e7 0.0
1.7393550400015924e7 -8.727584802245151e6 0.0
0.0 0.0 0.0

3.392558977743676e6 7.135291450568134e6 0.0
7.135291450568134e6 -2.5366648240468517e7 0.0
0.0 0.0 0.0

-2.551259690960547e6 1.5177427801039282e7 0.0
1.5177427801039282e7 -4.1412277959601823e6 0.0
0.0 0.0 0.0

512882.3138466901 1.7252936261436533e7 0.0
1.7252936261436533e7 9.898170531827362e6 0.0
0.0 0.0 0.0

4.076603211826995e6 2.3165752808296606e7 0.0
2.3165752808296606e7 -4.917718016885404e6 0.0
0.0 0.0 0.0

1.0365923499720236e6 8.66847080492483e6 0.0
8.66847080492483e6 -6.716966651828988e6 0.0
0.0 0.0 0.0

2.6105553742700275e6 7.9681773275906695e6 0.0
7.9681773275906695e6 -1.072812527592963e7 0.0
0.0 0.0 0.0

-458896.45982517686 1.072332139299716e7 0.0
1.072332139299716e7 -4.002304208212022e6 0.0
0.0 0.0 0.0

-6.720467253840834e6 2.5978866027770415e7 0.0
2.5978866027770415e7 4.8794941357119195e6 0.0
0.0 0.0 0.0

-4.021009300968309e6 1.309706778623133e7 0.0
1.309706778623133e7 407207.75348703586 0.0
0.0 0.0 0.0

3.2013333600172177e6 2.6635286428119615e7 0.0
2.6635286428119615e7 -3.126792662586483e6 0.0
0.0 0.0 0.0

-1.615950985510625e6 1.4854469412530389e7 0.0
1.4854469412530389e7 -3.643533085686535e6 0.0
0.0 0.0 0.0

3.168696503863429e6 1.6706718755364932e7 0.0
1.6706718755364932e7 1.5869525625235073e7 0.0
0.0 0.0 0.0

-2.9503539598256373e6 1.8871150706714902e7 0.0
1.8871150706714902e7 -3.1262727154215463e6 0.0
0.0 0.0 0.0

-2.4100029379383195e6 2.1083484134889096e7 0.0
2.1083484134889096e7 -615529.8803995578 0.0
0.0 0.0 0.0

-537634.3298653373 1.6546930493933719e7 0.0
1.6546930493933719e7 -1.143998386435319e7 0.0
0.0 0.0 0.0

113065.25418817438 1.226929243027669e7 0.0
1.226929243027669e7 -2.9360136785381943e7 0.0
0.0 0.0 0.0

-9.311050692161184e6 1.535558733837293e7 0.0
1.535558733837293e7 2.3965557561926693e7 0.0
0.0 0.0 0.0

886725.3705035038 1.0471643246651867e7 0.0
1.0471643246651867e7 -1.09427332920362e7 0.0
0.0 0.0 0.0

-1.2171881188953232e7 6.765833699584451e6 0.0
6.765833699584451e6 2.3080349521908686e7 0.0
0.0 0.0 0.0

2.539448651894044e6 1.1134546816209149e7 0.0
1.1134546816209149e7 -2.0693980406896997e7 0.0
0.0 0.0 0.0

-1.6609669684177083e6 1.1096433305846034e7 0.0
1.1096433305846034e7 -4.573958847736985e6 0.0
0.0 0.0 0.0

3.176146997493633e6 4.400232814452436e6 0.0
4.400232814452436e6 -1.12152428865459e7 0.0
0.0 0.0 0.0

-3.8560380053664185e6 1.6328389164503122e7 0.0
1.6328389164503122e7 79052.43425718648 0.0
0.0 0.0 0.0

-3.631917541198483e6 2.0534796699200403e7 0.0
2.0534796699200403e7 1.6321872661757513e6 0.0
0.0 0.0 0.0

-908958.6858997005 2.3810305936124902e7 0.0
2.3810305936124902e7 -2.6851633865812607e6 0.0
0.0 0.0 0.0

-2.701356796445544e6 1.5990630984022457e7 0.0
1.5990630984022457e7 -3.814570606166409e6 0.0
0.0 0.0 0.0

2.577967560746745e6 5.78488199514265e6 0.0
5.78488199514265e6 -8.14060922979624e6 0.0
0.0 0.0 0.0

2.965818851517221e6 2.3208469847471748e7 0.0
2.3208469847471748e7 -4.666249695821745e6 0.0
0.0 0.0 0.0

-1.179223063780605e7 7.920371224822719e6 0.0
7.920371224822719e6 1.8872501532487325e7 0.0
0.0 0.0 0.0

3.103258863315992e6 7.027441720841189e6 0.0
7.027441720841189e6 -3.111422675363117e7 0.0
0.0 0.0 0.0

963318.4219136043 1.887325084473854e7 0.0
1.887325084473854e7 1.0131647931258231e7 0.0
0.0 0.0 0.0

-3.7200332722518444e6 2.2643312894282274e7 0.0
2.2643312894282274e7 3.6543165353299067e6 0.0
0.0 0.0 0.0

-1.9283965499060322e6 1.5626894006405417e7 0.0
1.5626894006405417e7 -9.11342742506599e6 0.0
0.0 0.0 0.0

-7.406352917553512e6 1.608106773876337e7 0.0
1.608106773876337e7 2.4009971868630588e7 0.0
0.0 0.0 0.0

-3.473168389984753e6 1.6369843214082142e7 0.0
1.6369843214082142e7 -1.1577227841369387e7 0.0
0.0 0.0 0.0

-76795.35934210848 1.147390243955907e7 0.0
1.147390243955907e7 -9.016152968374448e6 0.0
0.0 0.0 0.0

377646.9631222654 1.6868102611977685e7 0.0
1.6868102611977685e7 1.1606285002064222e7 0.0
0.0 0.0 0.0

-2.2800153668406582e6 3.468796811230172e7 0.0
3.468796811230172e7 1.407363970633685e6 0.0
0.0 0.0 0.0

-2.114309100655599e6 1.8969130633131072e7 0.0
1.8969130633131072e7 -7.036995228465815e6 0.0
0.0 0.0 0.0

4.070719006380445e7 1.5673123284902755e7 0.0
1.5673123284902755e7 2.329588822404634e6 0.0
0.0 0.0 0.0

-1.7919708440255618e6 1.2550618230059754e7 0.0
1.2550618230059754e7 -5.071862992474482e6 0.0
0.0 0.0 0.0

-3.6304792035232475e6 1.6678038143585583e7 0.0
1.6678038143585583e7 -845424.0312794305 0.0
0.0 0.0 0.0

1.0981786356639639e6 1.285986593817221e7 0.0
1.285986593817221e7 -1.3785890981738023e7 0.0
0.0 0.0 0.0

-619526.3979073791 2.42459833767713e7 0.0
2.42459833767713e7 -2.643309582006635e6 0.0
0.0 0.0 0.0

3.714690886513628e6 5.901637137582206e6 0.0
5.901637137582206e6 -2.730503699913661e7 0.0
0.0 0.0 0.0

319617.57236404903 7.83843126789252e6 0.0
7.83843126789252e6 -6.778278304947635e6 0.0
0.0 0.0 0.0

1.9780719099269202e6 1.0416700433090672e7 0.0
1.0416700433090672e7 -1.5756100857169036e7 0.0
0.0 0.0 0.0

-5.185289610824824e6 1.8942524778784286e7 0.0
1.8942524778784286e7 1.2185537759075873e7 0.0
0.0 0.0 0.0

-2.899158655005641e6 1.753965354546755e7 0.0
1.753965354546755e7 -3.197281019639963e6 0.0
0.0 0.0 0.0

-269901.9344456913 1.577902960047118e7 0.0
1.577902960047118e7 4.512047733047757e6 0.0
0.0 0.0 0.0

-921104.4701139457 1.1697063296463972e7 0.0
1.1697063296463972e7 -3.699519543176911e6 0.0
0.0 0.0 0.0

-2.0045156605208484e6 1.648840117463451e7 0.0
1.648840117463451e7 -3.043634523934064e6 0.0
0.0 0.0 0.0

1.283223733712102e6 1.6336233400937056e7 0.0
1.6336233400937056e7 -4.371514465118854e6 0.0
0.0 0.0 0.0

-1.5604780548705799e6 3.3005622888172876e7 0.0
3.3005622888172876e7 1.6541269507783838e6 0.0
0.0 0.0 0.0

-2.127915847406946e6 1.725732596021564e7 0.0
1.725732596021564e7 -2.7569952774478537e6 0.0
0.0 0.0 0.0

-1.8193476150320568e6 6.182310085551262e6 0.0
6.182310085551262e6 1.5898477931836846e6 0.0
0.0 0.0 0.0

1.9186452176624473e7 1.1828473923312772e7 0.0
1.1828473923312772e7 567448.7335761236 0.0
0.0 0.0 0.0

1.6385720927025303e6 9.010111842354305e6 0.0
9.010111842354305e6 -3.812652077490617e7 0.0
0.0 0.0 0.0

-2.9195576606077948e6 2.1155171702135812e7 0.0
2.1155171702135812e7 1.6025541420978468e6 0.0
0.0 0.0 0.0

-3.713009571320764e6 7.029201430200787e6 0.0
7.029201430200787e6 4.870085469188695e6 0.0
0.0 0.0 0.0

-1.227789837845957e6 1.2119378516054709e7 0.0
1.2119378516054709e7 -6.08535715389712e6 0.0
0.0 0.0 0.0

314519.7910262123 1.0565058719110943e7 0.0
1.0565058719110943e7 -9.321158785018995e6 0.0
0.0 0.0 0.0

-1.3693333534943578e6 3.159780554940222e7 0.0
3.159780554940222e7 1.276844682574594e6 0.0
0.0 0.0 0.0

2.67015559157041e6 9.394508871155592e6 0.0
9.394508871155592e6 -2.404027650956106e7 0.0
0.0 0.0 0.0

-1.1925310213905852e7 2.182550646411626e6 0.0
2.182550646411626e6 1.9028781583830465e7 0.0
0.0 0.0 0.0

-3.601365742847894e6 1.8678338870120987e7 0.0
1.8678338870120987e7 -8.889030231731674e6 0.0
0.0 0.0 0.0

-5.066214576344945e6 6.083418165175506e6 0.0
6.083418165175506e6 7.867265007510301e6 0.0
0.0 0.0 0.0

-1.6723193448686865e6 1.6299775704620397e7 0.0
1.6299775704620397e7 -7.039756307483261e6 0.0
0.0 0.0 0.0

-3.3868660534011903e6 1.7726237933453213e7 0.0
1.7726237933453213e7 -1.3915025290667291e6 0.0
0.0 0.0 0.0

926690.4326307336 1.391998305964106e7 0.0
1.391998305964106e7 -1.7042463232192878e7 0.0
0.0 0.0 0.0

-1.4094159395123376e6 3.0445809418233097e7 0.0
3.0445809418233097e7 1.1784221031247433e6 0.0
0.0 0.0 0.0

-4.8786056304360535e6 1.949187907530482e7 0.0
1.949187907530482e7 1.107733457853391e7 0.0
0.0 0.0 0.0

-2.217380753408986e6 1.7995171699638963e7 0.0
1.7995171699638963e7 -2.4911398978804415e6 0.0
0.0 0.0 0.0

3.5349765181609355e6 6.523342608135036e6 0.0
6.523342608135036e6 -2.6415604080097962e7 0.0
0.0 0.0 0.0

-2.9587241404935876e6 8.916848163101556e6 0.0
8.916848163101556e6 2.7187304658730756e6 0.0
0.0 0.0 0.0

-1.1330855454933953e6 2.95459758714541e7 0.0
2.95459758714541e7 1.2959384526770408e6 0.0
0.0 0.0 0.0

2.5451464667557646e6 8.123355306530262e6 0.0
8.123355306530262e6 -3.983020060934825e7 0.0
0.0 0.0 0.0

-971109.3470863905 2.8778798724418472e7 0.0
2.8778798724418472e7 1.2285144861453057e6 0.0
0.0 0.0 0.0

-1.0058817601553551e6 2.808307398972293e7 0.0
2.808307398972293e7 1.0443978237514873e6 0.0
0.0 0.0 0.0

-2.6544337430548607e6 2.2966323251977134e7 0.0
2.2966323251977134e7 -289123.48498549184 0.0
0.0 0.0 0.0

-2.5538558115642057e6 2.34507502109966e7 0.0
2.34507502109966e7 -106280.00628854393 0.0
0.0 0.0 0.0

-2.474119161199429e6 2.392146658966534e7 0.0
2.392146658966534e7 46170.88722262974 0.0
0.0 0.0 0.0

-2.385346893188081e6 2.4365016645976145e7 0.0
2.4365016645976145e7 127331.3743273092 0.0
0.0 0.0 0.0

-2.3279882443491737e6 2.4807024677137557e7 0.0
2.4807024677137557e7 258105.66219464305 0.0
0.0 0.0 0.0

-2.262256348360402e6 2.526720929557502e7 0.0
2.526720929557502e7 296580.5231331701 0.0
0.0 0.0 0.0

-6.372944322791519e6 1.219423953898803e7 0.0
1.219423953898803e7 6.606300626320393e6 0.0
0.0 0.0 0.0

-2.1485977452662196e6 2.572266702131264e7 0.0
2.572266702131264e7 406838.1138077454 0.0
0.0 0.0 0.0

-2.2036464458385594e6 2.621574133634378e7 0.0
2.621574133634378e7 450089.31429309445 0.0
0.0 0.0 0.0

-9.466036177149836e6 1.4115692192754276e7 0.0
1.4115692192754276e7 1.768641448232045e7 0.0
0.0 0.0 0.0

-1.0971945219601647e6 2.7479023347427882e7 0.0
2.7479023347427882e7 1.028395476269051e6 0.0
0.0 0.0 0.0

-2.269456968438777e6 2.665920700847572e7 0.0
2.665920700847572e7 506697.3538383092 0.0
0.0 0.0 0.0

-2.1788481524473936e6 2.7213451429692194e7 0.0
2.7213451429692194e7 619052.4170412262 0.0
0.0 0.0 0.0

-1.1738068172827992e6 2.6960620137797568e7 0.0
2.6960620137797568e7 978506.4570652104 0.0
0.0 0.0 0.0

-1.3716677433160185e6 1.3992593708890874e7 0.0
1.3992593708890874e7 -3.934574379290605e6 0.0
0.0 0.0 0.0

-2.311449041464141e6 2.7789585708990473e7 0.0
2.7789585708990473e7 584326.0078537824 0.0
0.0 0.0 0.0

-1.4016100243983185e6 2.6436842986894373e7 0.0
2.6436842986894373e7 808606.5435409469 0.0
0.0 0.0 0.0

-1.270329204098531e6 2.5956761468395203e7 0.0
2.5956761468395203e7 791401.1893048631 0.0
0.0 0.0 0.0

-1.480498685353322e6 2.55299541494676e7 0.0
2.55299541494676e7 708245.2198302482 0.0
0.0 0.0 0.0

-1.6512257184773264e6 2.504912430197884e7 0.0
2.504912430197884e7 636942.5304351015 0.0
0.0 0.0 0.0

-1.7396716424045041e6 2.4624572004621085e7 0.0
2.4624572004621085e7 536560.8253270164 0.0
0.0 0.0 0.0

-1.9217581760656089e6 2.4168519173483208e7 0.0
2.4168519173483208e7 442331.29908729787 0.0
0.0 0.0 0.0

-1.9759383589009976e6 2.3732909587629173e7 0.0
2.3732909587629173e7 341627.6460780436 0.0
0.0 0.0 0.0

-2.0634541741816825e6 2.3264063398953825e7 0.0
2.3264063398953825e7 187229.9294502819 0.0
0.0 0.0 0.0

-2.6914845974119464e6 1.9835221436938863e7 0.0
1.9835221436938863e7 -3.0081743213603455e6 0.0
0.0 0.0 0.0

-9.11635654117366e6 1.582666742443493e7 0.0
1.582666742443493e7 2.2816864429452203e7 0.0
0.0 0.0 0.0

-2.5750784299525395e6 2.8391432023961615e7 0.0
2.8391432023961615e7 621702.2167321732 0.0
0.0 0.0 0.0

3.0860421173272384e6 7.774365420299176e6 0.0
7.774365420299176e6 -1.8680151913268246e7 0.0
0.0 0.0 0.0

-3.187706633309621e6 1.962661310096091e7 0.0
1.962661310096091e7 2.0185034643594963e6 0.0
0.0 0.0 0.0

-3.003367432482565e6 2.9167192000504985e7 0.0
2.9167192000504985e7 702821.1225472616 0.0
0.0 0.0 0.0

-1.1339517236091219e7 9.095893739063889e6 0.0
9.095893739063889e6 1.8072550177837484e7 0.0
0.0 0.0 0.0

-3.5856311864358243e6 3.0061819122668494e7 0.0
3.0061819122668494e7 600516.4937446003 0.0
0.0 0.0 0.0

-1.2099497601229988e7 7.565212761346977e6 0.0
7.565212761346977e6 2.0152251935047578e7 0.0
0.0 0.0 0.0

-4.339695507451676e6 3.1025518998923793e7 0.0
3.1025518998923793e7 409285.26827422343 0.0
0.0 0.0 0.0

29301.04310035892 1.6220303686589247e7 0.0
1.6220303686589247e7 -1.3319820232923845e7 0.0
0.0 0.0 0.0

2.654673406902032e6 1.0054494766825926e7 0.0
1.0054494766825926e7 -1.517962313563605e7 0.0
0.0 0.0 0.0

321206.1770173684 1.2410752903740246e7 0.0
1.2410752903740246e7 -2.7411169260839336e7 0.0
0.0 0.0 0.0

-2.433630475969945e6 1.774113102314393e7 0.0
1.774113102314393e7 -1.7124880358443605e6 0.0
0.0 0.0 0.0

-992263.0710853552 1.4039440540923597e7 0.0
1.4039440540923597e7 -8.06249479612947e6 0.0
0.0 0.0 0.0

-2.2443345058053755e6 1.8859235528201584e7 0.0
1.8859235528201584e7 -4.962461899575433e6 0.0
0.0 0.0 0.0

-15510.676670728251 1.6375740066048536e7 0.0
1.6375740066048536e7 -1.3352366540097177e7 0.0
0.0 0.0 0.0

4.827275144747227e6 2.845828322440937e6 0.0
2.845828322440937e6 -2.2336016535033848e7 0.0
0.0 0.0 0.0

-3.61940913543778e6 1.1427018763331985e7 0.0
1.1427018763331985e7 3.4805620175708197e6 0.0
0.0 0.0 0.0

-5.244053298460964e6 3.223516118517003e7 0.0
3.223516118517003e7 448562.9060410112 0.0
0.0 0.0 0.0

2.1815451426030723e6 1.0740188652677216e7 0.0
1.0740188652677216e7 -1.293249614520387e7 0.0
0.0 0.0 0.0

-1.2257451891816158e7 8.153743632150575e6 0.0
8.153743632150575e6 2.2269449561450314e7 0.0
0.0 0.0 0.0

-1.8254650106450561e6 1.5688692991241794e7 0.0
1.5688692991241794e7 -3.350909575100376e6 0.0
0.0 0.0 0.0

-1.2905677684561792e6 2.4847457406903602e7 0.0
2.4847457406903602e7 -592086.6672203415 0.0
0.0 0.0 0.0

3.321127386246333e6 7.1660589392853e6 0.0
7.1660589392853e6 -1.958086190773121e7 0.0
0.0 0.0 0.0

-9.89487145211367e6 2.9465133341296624e7 0.0
2.9465133341296624e7 5.0231281391143e6 0.0
0.0 0.0 0.0

-6.538691690621151e6 1.382141413809948e7 0.0
1.382141413809948e7 7.946997334403065e6 0.0
0.0 0.0 0.0

-1.3899024593785418e7 2.2761151444632024e7 0.0
2.2761151444632024e7 4.32836736728652e6 0.0
0.0 0.0 0.0

914512.9612782919 1.6339021248962622e7 0.0
1.6339021248962622e7 9.838037363789098e6 0.0
0.0 0.0 0.0

-7.083724776849052e6 3.399596569336589e7 0.0
3.399596569336589e7 324512.5625797757 0.0
0.0 0.0 0.0

2.2639708545573074e6 1.0429393826134264e7 0.0
1.0429393826134264e7 -2.325557540971631e7 0.0
0.0 0.0 0.0

-5.310890026123747e6 1.362203282353308e7 0.0
1.362203282353308e7 4.210202440699229e6 0.0
0.0 0.0 0.0

976505.4261024736 1.436408088406071e7 0.0
1.436408088406071e7 3.255018483803697e6 0.0
0.0 0.0 0.0

2.638121989282972e6 8.51998659759739e6 0.0
8.51998659759739e6 -1.643164290047551e7 0.0
0.0 0.0 0.0

200369.3121441094 1.693967215530706e7 0.0
1.693967215530706e7 3.028406406891512e6 0.0
0.0 0.0 0.0

2.8603452750808233e6 8.38318229163414e6 0.0
8.38318229163414e6 -1.780646482966443e7 0.0
0.0 0.0 0.0

-211775.1940575546 1.4282586285614684e7 0.0
1.4282586285614684e7 -2.543976144928428e6 0.0
0.0 0.0 0.0

-2.709978668631642e6 1.8189896019556146e7 0.0
1.8189896019556146e7 -679179.8909911022 0.0
0.0 0.0 0.0

-2.9450497881368026e6 1.8261872984050617e7 0.0
1.8261872984050617e7 -2.9077468539037416e6 0.0
0.0 0.0 0.0

2.0970130883473093e6 8.802445824574701e6 0.0
8.802445824574701e6 -1.3520420680212142e7 0.0
0.0 0.0 0.0

1.742017662750992e7 1.930727919716301e7 0.0
1.930727919716301e7 7.568404104021317e6 0.0
0.0 0.0 0.0

1.7915610797032695e6 1.1594055367749033e7 0.0
1.1594055367749033e7 -1.2648268701314872e7 0.0
0.0 0.0 0.0

-529186.5584958578 1.423085415712226e7 0.0
1.423085415712226e7 -6.571087672969611e6 0.0
0.0 0.0 0.0

-4.927708418196037e6 1.954706317279949e7 0.0
1.954706317279949e7 5.605090180348104e6 0.0
0.0 0.0 0.0

803601.6403431133 1.070457968579416e7 0.0
1.070457968579416e7 -7.766049292229025e6 0.0
0.0 0.0 0.0

-4.75586401482922e6 2.005042471481082e7 0.0
2.005042471481082e7 9.910835183927167e6 0.0
0.0 0.0 0.0

2.1768827600146597e6 1.618972833040312e7 0.0
1.618972833040312e7 1.6590937554291524e7 0.0
0.0 0.0 0.0

-8.738404099367063e6 1.0661035268060056e7 0.0
1.0661035268060056e7 1.468086404581026e7 0.0
0.0 0.0 0.0

-9.90629997125454e6 3.59837657206199e7 0.0
3.59837657206199e7 -302336.59600734664 0.0
0.0 0.0 0.0

-2.677352285402585e6 1.6257622980670812e7 0.0
1.6257622980670812e7 3.0473669993144702e7 0.0
0.0 0.0 0.0

-3.362116097461906e6 1.4040423271781359e7 0.0
1.4040423271781359e7 -1.5747453795848142e6 0.0
0.0 0.0 0.0

7.017603929349898e6 1.696987834936375e7 0.0
1.696987834936375e7 1.3181227626040722e6 0.0
0.0 0.0 0.0

3.6159204297769973e6 6.722634982759353e6 0.0
6.722634982759353e6 -2.1872950233198207e7 0.0
0.0 0.0 0.0

1.8754227419013344e6 1.0622437244543519e7 0.0
1.0622437244543519e7 -2.6259528427491367e7 0.0
0.0 0.0 0.0

-6.008644874335634e6 1.6490880016719231e7 0.0
1.6490880016719231e7 9.59269023176549e6 0.0
0.0 0.0 0.0

-9.357769550996775e6 2.229988950022327e7 0.0
2.229988950022327e7 -5.718698537885966e6 0.0
0.0 0.0 0.0

-3.053543560821982e6 1.59719973397637e7 0.0
1.59719973397637e7 651476.1024747312 0.0
0.0 0.0 0.0

-207459.39081526967 1.445829352793224e7 0.0
1.445829352793224e7 -1.0801534202235673e7 0.0
0.0 0.0 0.0

-1.3277443696612816e7 2.859549331962685e7 0.0
2.859549331962685e7 6.603186104865182e6 0.0
0.0 0.0 0.0

1.9261969779521152e6 1.078746317259975e7 0.0
1.078746317259975e7 -1.6270257493947074e7 0.0
0.0 0.0 0.0

-3.121797374850026e6 1.6808896866303947e7 0.0
1.6808896866303947e7 826967.2433971432 0.0
0.0 0.0 0.0

-3.352056137783246e6 8.0155565050547505e6 0.0
8.0155565050547505e6 3.816588020950308e6 0.0
0.0 0.0 0.0

-4.730211654240407e6 1.6319545213864122e7 0.0
1.6319545213864122e7 8.236927661747506e6 0.0
0.0 0.0 0.0

-1.1346514414637895e7 5.30909925384613e7 0.0
5.30909925384613e7 -1.0278715326464833e6 0.0
0.0 0.0 0.0

-7.656027000490229e6 1.1718741512090283e7 0.0
1.1718741512090283e7 1.3227226452433787e7 0.0
0.0 0.0 0.0

-2.436379600224485e6 6.361033538825296e6 0.0
6.361033538825296e6 -496624.78597163653 0.0
0.0 0.0 0.0

-2.5054928876013947e6 1.9173265360328928e7 0.0
1.9173265360328928e7 -1.2190934301664678e6 0.0
0.0 0.0 0.0

-3.988419458632619e6 1.9262443898096822e7 0.0
1.9262443898096822e7 3.2273270050196094e6 0.0
0.0 0.0 0.0

-901758.3153775719 1.6977476447849005e7 0.0
1.6977476447849005e7 -6.923142299913998e6 0.0
0.0 0.0 0.0

-3.161423422895903e6 1.8740245503496133e7 0.0
1.8740245503496133e7 -1.8889522441017258e6 0.0
0.0 0.0 0.0

-7.638484774161922e6 1.4489506369391403e6 0.0
1.4489506369391403e6 9.791609912533835e6 0.0
0.0 0.0 0.0

170215.64790373342 1.5249856590411838e7 0.0
1.5249856590411838e7 -4.078429748566831e6 0.0
0.0 0.0 0.0

-3.971450278957308e6 1.991772349838477e7 0.0
1.991772349838477e7 3.3322745901522767e6 0.0
0.0 0.0 0.0

1.3131038558484414e6 9.921692309535362e6 0.0
9.921692309535362e6 -1.1819799940093614e7 0.0
0.0 0.0 0.0

572964.7789695386 1.5630216162422571e7 0.0
1.5630216162422571e7 -3.3441768987035016e6 0.0
0.0 0.0 0.0

-1.5934640695493767e7 2.1713413368338015e7 0.0
2.1713413368338015e7 2.0684312064459706e6 0.0
0.0 0.0 0.0

-6.564467626986649e6 1.262361366429733e7 0.0
1.262361366429733e7 1.170594847525037e7 0.0
0.0 0.0 0.0

186081.3427938735 1.578365138617962e7 0.0
1.578365138617962e7 -1.4275090888708025e7 0.0
0.0 0.0 0.0

-4.0736245356497383e6 2.031377794108191e7 0.0
2.031377794108191e7 5.119579434137825e6 0.0
0.0 0.0 0.0

3.8017005624497514e6 3.1539165849099974e6 0.0
3.1539165849099974e6 -1.2844028519919742e7 0.0
0.0 0.0 0.0

-2.8917096555768442e6 -389413.80651730887 0.0
-389413.80651730887 2.441070817556113e6 0.0
0.0 0.0 0.0

-847284.3787858401 451032.6617926119 0.0
451032.6617926119 515322.60970108816 0.0
0.0 0.0 0.0

-8.150839750160624e6 -7.024442243110694e6 0.0
-7.024442243110694e6 2.023188390495959e7 0.0
0.0 0.0 0.0

-89703.26642816205 1.625823558266345e6 0.0
1.625823558266345e6 -1.1294580215054636e6 0.0
0.0 0.0 0.0

-7.388308729438133e6 -7.170144973672743e6 0.0
-7.170144973672743e6 1.7674440038235772e7 0.0
0.0 0.0 0.0

3.5977822738462863e6 3.3172780680071986e6 0.0
3.3172780680071986e6 -1.0411284593564952e7 0.0
0.0 0.0 0.0

-3.78836573690763e6 -3.4655544140843917e6 0.0
-3.4655544140843917e6 4.899308897753284e6 0.0
0.0 0.0 0.0

-5.454632082009057e6 -6.583177983383149e6 0.0
-6.583177983383149e6 1.0054938944273517e7 0.0
0.0 0.0 0.0

693282.9168212701 2.423839329055171e6 0.0
2.423839329055171e6 -2.8644689047818864e6 0.0
0.0 0.0 0.0

-6.40933074940687e6 -7.432469931996953e6 0.0
-7.432469931996953e6 1.4664999682551034e7 0.0
0.0 0.0 0.0

2.872212751682413e6 3.3872142572173313e6 0.0
3.3872142572173313e6 -7.878606756652787e6 0.0
0.0 0.0 0.0

1.9401635261075783e6 3.201664767657806e6 0.0
3.201664767657806e6 -5.458726520116851e6 0.0
0.0 0.0 0.0

-3.1197433533583516e6 -994103.7113204026 0.0
-994103.7113204026 3.045443062007582e6 0.0
0.0 0.0 0.0

4.756772520073142e6 2.931167450650188e6 0.0
2.931167450650188e6 -2.0313095235332076e7 0.0
0.0 0.0 0.0

4.885922885992895e6 2.8314193444734225e6 0.0
2.8314193444734225e6 -2.1863906098747525e7 0.0
0.0 0.0 0.0

4.669425051219167e6 2.9560643640151913e6 0.0
2.9560643640151913e6 -1.879757128342052e7 0.0
0.0 0.0 0.0

4.577264435932058e6 3.0852653457935746e6 0.0
3.0852653457935746e6 -1.6405206210999677e7 0.0
0.0 0.0 0.0

-4.193775373986816e6 -2.021991075251401e6 0.0
-2.021991075251401e6 4.413474109783185e6 0.0
0.0 0.0 0.0

-6.673964490243286e6 -7.3141885893310355e6 0.0
-7.3141885893310355e6 1.6038926133480845e7 0.0
0.0 0.0 0.0

4.831858822309374e6 2.9310478115446744e6 0.0
2.9310478115446744e6 -2.116100386233049e7 0.0
0.0 0.0 0.0

4.0265786763372924e6 3.1105392863883274e6 0.0
3.1105392863883274e6 -1.4581975870671403e7 0.0
0.0 0.0 0.0

4.263565666959131e6 3.0811325017282697e6 0.0
3.0811325017282697e6 -1.5483954420192882e7 0.0
0.0 0.0 0.0

4.09292325426792e6 3.135752996742146e6 0.0
3.135752996742146e6 -1.3840424060066715e7 0.0
0.0 0.0 0.0

924637.1179511296 1.456415136924329e7 0.0
1.456415136924329e7 -1.2864452501835484e7 0.0
0.0 0.0 0.0

-1.0418741065757934e7 1.0116708100392342e7 0.0
1.0116708100392342e7 1.7099597167348634e7 0.0
0.0 0.0 0.0

-1.262710569094612e7 5.34306781100988e6 0.0
5.34306781100988e6 2.1298709388173588e7 0.0
0.0 0.0 0.0

-4.547154682384827e6 2.066426529200641e7 0.0
2.066426529200641e7 8.929864578919033e6 0.0
0.0 0.0 0.0

-225712.0359802181 1.4456407363248633e7 0.0
1.4456407363248633e7 -1.956073149138184e7 0.0
0.0 0.0 0.0

-4.516967361181048e6 1.70068598750907e7 0.0
1.70068598750907e7 3.1174488132215673e6 0.0
0.0 0.0 0.0

-1.432948389954397e7 3.891198510257995e7 0.0
3.891198510257995e7 -972371.2000084259 0.0
0.0 0.0 0.0

-3.4966737866745023e6 1.4960154271626215e7 0.0
1.4960154271626215e7 -1.306288547200963e6 0.0
0.0 0.0 0.0

-3.5250982095548674e6 1.74773529416732e7 0.0
1.74773529416732e7 -1.0688025013314283e7 0.0
0.0 0.0 0.0

5.214099315021118e6 1.9083130411979727e7 0.0
1.9083130411979727e7 8.035914068805814e6 0.0
0.0 0.0 0.0

-3.0326756194990394e6 1.7794805304082494e7 0.0
1.7794805304082494e7 6.803431960922334e6 0.0
0.0 0.0 0.0

-4.488969752819903e6 1.7170530605147805e7 0.0
1.7170530605147805e7 7.981016733877244e6 0.0
0.0 0.0 0.0

184557.27106604213 1.757204267027512e7 0.0
1.757204267027512e7 -1.0811908631289188e7 0.0
0.0 0.0 0.0

-5.165320478280779e6 1.569217398235374e7 0.0
1.569217398235374e7 9.516593770927943e6 0.0
0.0 0.0 0.0

-3.2867339806076763e6 1.921246706699808e7 0.0
1.921246706699808e7 -966997.0243577198 0.0
0.0 0.0 0.0

-2.6659957680138852e6 1.7782397623867832e7 0.0
1.7782397623867832e7 -3.935664607214378e6 0.0
0.0 0.0 0.0

-6.884328629740274e6 1.2559519910626696e7 0.0
1.2559519910626696e7 8.080786135774909e6 0.0
0.0 0.0 0.0

-555609.8864743244 1.3566354820724864e7 0.0
1.3566354820724864e7 -9.058296738895526e6 0.0
0.0 0.0 0.0

-3.321183755103097e6 1.5591296684778402e7 0.0
1.5591296684778402e7 1.6417066159681946e6 0.0
0.0 0.0 0.0

1.7217804198781354e6 9.372775960588932e6 0.0
9.372775960588932e6 -1.2658881996965375e7 0.0
0.0 0.0 0.0

-2.5878186192917433e6 -640511.7411348465 0.0
-640511.7411348465 4.606895937307007e6 0.0
0.0 0.0 0.0

-1.360864434864717e6 511026.53238931415 0.0
511026.53238931415 2.362038230043588e6 0.0
0.0 0.0 0.0

-6.608713112143378e6 -7.290321422637511e6 0.0
-7.290321422637511e6 1.5630684806986447e7 0.0
0.0 0.0 0.0

-2.874675047628133e6 -1.2088164948569068e6 0.0
-1.2088164948569068e6 6.097828509851089e6 0.0
0.0 0.0 0.0

-2.898869216257212e6 -2.8676801593440576e6 0.0
-2.8676801593440576e6 7.0132344999412205e6 0.0
0.0 0.0 0.0

4.744355502497572e6 2.9247316850952934e6 0.0
2.9247316850952934e6 -2.0436340928275973e7 0.0
0.0 0.0 0.0

4.741913432184567e6 2.86137707843602e6 0.0
2.86137707843602e6 -2.105373794550033e7 0.0
0.0 0.0 0.0

-7.136870283199045e6 -7.068642745253953e6 0.0
-7.068642745253953e6 1.7308182374415543e7 0.0
0.0 0.0 0.0

4.335398673242561e6 3.1446649013215643e6 0.0
3.1446649013215643e6 -1.5825698966095805e7 0.0
0.0 0.0 0.0

4.0249609258414386e6 3.2560232903941446e6 0.0
3.2560232903941446e6 -1.3032652719148962e7 0.0
0.0 0.0 0.0

4.1743684877907513e6 3.1726951871123402e6 0.0
3.1726951871123402e6 -1.464991571592198e7 0.0
0.0 0.0 0.0

4.0883066022070516e6 3.1331877594395215e6 0.0
3.1331877594395215e6 -1.3844297355085531e7 0.0
0.0 0.0 0.0

-4.126278504275413e6 1.4122655025834346e7 0.0
1.4122655025834346e7 641142.3821570035 0.0
0.0 0.0 0.0

-8.953003529993476e6 1.6248604223471694e7 0.0
1.6248604223471694e7 2.1691758389081426e7 0.0
0.0 0.0 0.0

-5.999272772188215e6 1.5290812399854321e7 0.0
1.5290812399854321e7 1.189803473707142e7 0.0
0.0 0.0 0.0

4.244482905987837e6 5.798691949992464e6 0.0
5.798691949992464e6 -1.8160556970068328e7 0.0
0.0 0.0 0.0

-1.8844197012812146e6 2.0965714199207712e7 0.0
2.0965714199207712e7 -4.029208523497159e6 0.0
0.0 0.0 0.0

-2.910199084098801e6 1.788081012045766e7 0.0
1.788081012045766e7 1.6226173770067153e7 0.0
0.0 0.0 0.0

-1.2296438527668172e7 1.2123125558835598e7 0.0
1.2123125558835598e7 1.850633743166035e7 0.0
0.0 0.0 0.0

2.3667797676289137e6 9.086905932920724e6 0.0
9.086905932920724e6 -1.5539996442065384e7 0.0
0.0 0.0 0.0

1.8842033781888448e6 1.1138255875087557e7 0.0
1.1138255875087557e7 -1.6683031074468726e7 0.0
0.0 0.0 0.0

-2.5896679649311677e6 1.7053553747827552e7 0.0
1.7053553747827552e7 -4.247187704914718e6 0.0
0.0 0.0 0.0

-4.038832129916515e6 1.772254350504992e7 0.0
1.772254350504992e7 1.812121515639277e7 0.0
0.0 0.0 0.0

-3.346433334876449e6 1.0205170730641473e7 0.0
1.0205170730641473e7 3.139680977861972e6 0.0
0.0 0.0 0.0

-1.188396221597008e6 1.7482143177326586e7 0.0
1.7482143177326586e7 -5.938469551182881e6 0.0
0.0 0.0 0.0

-2.613932944765032e6 2.0914600934033785e7 0.0
2.0914600934033785e7 116650.17858226993 0.0
0.0 0.0 0.0

1.3792858969072662e6 1.2388507927680613e7 0.0
1.2388507927680613e7 -1.2495655210036702e7 0.0
0.0 0.0 0.0

-2.4940323132899087e6 1.846846871238246e7 0.0
1.846846871238246e7 -1.4573024703814783e6 0.0
0.0 0.0 0.0

1.157837902087829e6 3.1386226006955104e6 0.0
3.1386226006955104e6 2.2609033257246437e6 0.0
0.0 0.0 0.0

-4.402187625290922e6 1.7862457344969753e7 0.0
1.7862457344969753e7 1.750265732389475e7 0.0
0.0 0.0 0.0

2.2498248535401896e6 9.608500580755625e6 0.0
9.608500580755625e6 -3.060128452355042e7 0.0
0.0 0.0 0.0

2.122017602973884e6 1.0472502825420942e7 0.0
1.0472502825420942e7 -2.47621288957014e7 0.0
0.0 0.0 0.0

-1.0341254678325802e6 1.6769550903519062e7 0.0
1.6769550903519062e7 -6.290146749906994e6 0.0
0.0 0.0 0.0

-8.476857711825749e6 2.0901986662761826e7 0.0
2.0901986662761826e7 4.737716062576461e6 0.0
0.0 0.0 0.0

2.9626613305409946e6 6.2845470240656985e6 0.0
6.2845470240656985e6 -1.02497523009466e7 0.0
0.0 0.0 0.0

-2.952407045371458e6 1.5096949179025408e7 0.0
1.5096949179025408e7 476195.72598930995 0.0
0.0 0.0 0.0

-3.174119606266154e6 1.8020640287992764e7 0.0
1.8020640287992764e7 -2.1486871072108704e6 0.0
0.0 0.0 0.0

-2.2662043117643697e6 1.871202870271374e7 0.0
1.871202870271374e7 -2.2109367463736455e6 0.0
0.0 0.0 0.0

-266384.70840307605 1.4451183162369145e7 0.0
1.4451183162369145e7 -2.1192612743342914e7 0.0
0.0 0.0 0.0

2.1038845801749444e6 1.0922719234389609e7 0.0
1.0922719234389609e7 -2.082262457623405e7 0.0
0.0 0.0 0.0

-4.697756159298583e6 1.0694456570906945e7 0.0
1.0694456570906945e7 2.383705356198105e6 0.0
0.0 0.0 0.0

-5.8572998019005805e6 1.6213592748168888e7 0.0
1.6213592748168888e7 8.616597081095267e6 0.0
0.0 0.0 0.0

956829.6846392946 1.3247317973154368e7 0.0
1.3247317973154368e7 -2.192509347018301e7 0.0
0.0 0.0 0.0

-1.6305924098345232e6 1.9310823322936915e7 0.0
1.9310823322936915e7 -4.261067819417879e6 0.0
0.0 0.0 0.0

2.3315818512864844e6 3.261704603972786e6 0.0
3.261704603972786e6 -6.324918379726026e6 0.0
0.0 0.0 0.0

2.1110329325985387e6 2.6304756581354752e7 0.0
2.6304756581354752e7 -2.665354977715956e6 0.0
0.0 0.0 0.0

2.551884110335775e6 6.943128604251754e6 0.0
6.943128604251754e6 -9.483619685718263e6 0.0
0.0 0.0 0.0

-1.0738199125194857e6 1.3094966066332586e7 0.0
1.3094966066332586e7 -4.2226629934868645e6 0.0
0.0 0.0 0.0

-5.411622307694792e6 1.849804379140794e7 0.0
1.849804379140794e7 1.054114563362065e7 0.0
0.0 0.0 0.0

-2.8725286530703465e6 1.2641040918926435e7 0.0
1.2641040918926435e7 1.1287780471200766e6 0.0
0.0 0.0 0.0

-3.066102775861092e6 1.4439177036907073e7 0.0
1.4439177036907073e7 -2.4762456066074884e6 0.0
0.0 0.0 0.0

-3.3818310680344626e6 1.8472198096562404e7 0.0
1.8472198096562404e7 -1.131897693348387e6 0.0
0.0 0.0 0.0

-4.415842770045687e6 9.414875117080353e6 0.0
9.414875117080353e6 1.9587520091875526e6 0.0
0.0 0.0 0.0

-6.578884102814435e6 341005.2205957137 0.0
341005.2205957137 9.601951283916265e6 0.0
0.0 0.0 0.0

-4.98549926798832e6 1.5384799305290455e7 0.0
1.5384799305290455e7 8.49181586848721e6 0.0
0.0 0.0 0.0

-3.9943371797407786e6 1.7023425759410992e7 0.0
1.7023425759410992e7 4.858578371298116e6 0.0
0.0 0.0 0.0

692689.9513263511 6.788223865071071e6 0.0
6.788223865071071e6 -6.858941268268778e6 0.0
0.0 0.0 0.0

-5.902220786782992e6 1.360128826955283e7 0.0
1.360128826955283e7 1.0157779249342276e7 0.0
0.0 0.0 0.0

-2.943492031496931e6 1.8976117431221537e7 0.0
1.8976117431221537e7 -2.627406153610418e6 0.0
0.0 0.0 0.0

3.5557599948063362e6 8.543547816012584e6 0.0
8.543547816012584e6 -2.1634224642786827e7 0.0
0.0 0.0 0.0

-7.226466270164077e6 2.1106588342197645e7 0.0
2.1106588342197645e7 4.047609492947519e6 0.0
0.0 0.0 0.0

-2.476545361744071e6 1.6290447312073067e7 0.0
1.6290447312073067e7 -4.567544115199775e6 0.0
0.0 0.0 0.0

2.143159929777516e6 3.3183437173182466e6 0.0
3.3183437173182466e6 -5.512816838251899e6 0.0
0.0 0.0 0.0

-4.405286229897248e6 2.2260631352259777e7 0.0
2.2260631352259777e7 6.311782301161634e6 0.0
0.0 0.0 0.0

-1.2147196740744442e7 7.128566854285675e6 0.0
7.128566854285675e6 1.5620588932017662e7 0.0
0.0 0.0 0.0

-2.9475840968849426e6 1.5672132739044342e7 0.0
1.5672132739044342e7 -3.0398418819904514e6 0.0
0.0 0.0 0.0

-2.292095368339844e6 2.0042953471529055e7 0.0
2.0042953471529055e7 -1.7375412105164498e6 0.0
0.0 0.0 0.0

-3.2106062452433943e6 2.056084593344148e7 0.0
2.056084593344148e7 -485580.2414898606 0.0
0.0 0.0 0.0

-2.7099317741827955e6 1.8491860612058267e7 0.0
1.8491860612058267e7 -3.6321131935549644e6 0.0
0.0 0.0 0.0

-2.9423461930515394e6 1.8622167544408824e7 0.0
1.8622167544408824e7 293523.4519877719 0.0
0.0 0.0 0.0

3.082741955484598e6 3.3419397141445605e6 0.0
3.3419397141445605e6 -8.68076936523071e6 0.0
0.0 0.0 0.0

-1.621732411836302e6 2.2428142633936398e7 0.0
2.2428142633936398e7 -3.1950668756752443e6 0.0
0.0 0.0 0.0

-1.1155232822976362e7 1.722084720840061e7 0.0
1.722084720840061e7 -5.015123006276932e7 0.0
0.0 0.0 0.0

1.0895659306594636e7 1.7349227692580704e7 0.0
1.7349227692580704e7 5.048147435820899e7 0.0
0.0 0.0 0.0

1.0807598365114816e6 1.335565949229159e7 0.0
1.335565949229159e7 -1.5926140975035653e7 0.0
0.0 0.0 0.0

-1.54947225071429e6 1.7956487522845473e7 0.0
1.7956487522845473e7 -4.945215014802894e6 0.0
0.0 0.0 0.0

-2.5311585305152163e6 1.4317585012877077e7 0.0
1.4317585012877077e7 -1.6485492469605269e7 0.0
0.0 0.0 0.0

-2.3065531339414427e6 1.5503148719590506e7 0.0
1.5503148719590506e7 -4.906196356310404e6 0.0
0.0 0.0 0.0

104450.92662663432 1.7791419776870623e7 0.0
1.7791419776870623e7 -1.0728551057281302e7 0.0
0.0 0.0 0.0

-1.453347783210406e6 1.4528494603380717e7 0.0
1.4528494603380717e7 -7.026951097943617e6 0.0
0.0 0.0 0.0

-3.5506169996037963e6 1.8226305046984926e7 0.0
1.8226305046984926e7 -358489.0713663965 0.0
0.0 0.0 0.0

2.468865190971749e6 8.551458354438243e6 0.0
8.551458354438243e6 -3.742867477437769e7 0.0
0.0 0.0 0.0

-7.770727601133548e6 1.9842689956040233e7 0.0
1.9842689956040233e7 3.113207305221666e6 0.0
0.0 0.0 0.0

-4.4201316907575e6 1.853838625212734e7 0.0
1.853838625212734e7 5.110186484519839e6 0.0
0.0 0.0 0.0

-989325.9449772971 1.4713376293601578e7 0.0
1.4713376293601578e7 -5.525928353260164e6 0.0
0.0 0.0 0.0

1.9197472951838747e6 1.144670307828899e7 0.0
1.144670307828899e7 -1.9762113197294675e7 0.0
0.0 0.0 0.0

1.0651074856481265e7 1.7878902279945485e7 0.0
1.7878902279945485e7 3.550358284132344e7 0.0
0.0 0.0 0.0

-942212.7165533428 1.8269077113228038e7 0.0
1.8269077113228038e7 -7.411672001734877e6 0.0
0.0 0.0 0.0

-2.32218544181785e7 4.355583659672206e7 0.0
4.355583659672206e7 -1.3175063312458694e6 0.0
0.0 0.0 0.0

1.2846230054827211e6 1.2861053609735603e7 0.0
1.2861053609735603e7 -1.6855931313359056e7 0.0
0.0 0.0 0.0

-2.001229306565071e6 1.8235520464237403e7 0.0
1.8235520464237403e7 -3.2325783840395045e6 0.0
0.0 0.0 0.0

2.909881866178869e6 3.4025007941782675e6 0.0
3.4025007941782675e6 -8.032726416380233e6 0.0
0.0 0.0 0.0

3.30260550353364e6 7.708937145565176e6 0.0
7.708937145565176e6 -2.13317047405129e7 0.0
0.0 0.0 0.0

-2.644152832558576e6 2.0292952756883815e7 0.0
2.0292952756883815e7 -57930.5741892138 0.0
0.0 0.0 0.0

-4.462327746475819e6 1.5182471422026101e7 0.0
1.5182471422026101e7 -2.969963467729109e7 0.0
0.0 0.0 0.0

-1.4134193917769806e6 1.5203318423419533e7 0.0
1.5203318423419533e7 -4.445238265453174e6 0.0
0.0 0.0 0.0

1.3926830759491078e6 1.1011854937454171e7 0.0
1.1011854937454171e7 -1.007984151707865e7 0.0
0.0 0.0 0.0

-3.8599419344601296e6 1.3682977886484565e7 0.0
1.3682977886484565e7 3.806447308670044e6 0.0
0.0 0.0 0.0

1.5510466339559145e6 1.240115986127635e7 0.0
1.240115986127635e7 -1.7839920234627217e7 0.0
0.0 0.0 0.0

-4.923899232006678e6 1.3086717634179404e7 0.0
1.3086717634179404e7 2.8955045992411994e6 0.0
0.0 0.0 0.0

347413.22943460476 1.5357342510997826e7 0.0
1.5357342510997826e7 -1.523683308484172e7 0.0
0.0 0.0 0.0

-1.685851334407788e7 2.4923444452207554e7 0.0
2.4923444452207554e7 -5.310352676231887e6 0.0
0.0 0.0 0.0

-4.387365568355105e6 -4.781944490818264e6 0.0
-4.781944490818264e6 6.367874292441164e6 0.0
0.0 0.0 0.0

-4.675034444927385e6 1.356762335942803e7 0.0
1.356762335942803e7 6.3515304782779375e6 0.0
0.0 0.0 0.0

-2.717085473534652e6 1.890332522911741e7 0.0
1.890332522911741e7 -448738.7582080155 0.0
0.0 0.0 0.0

-9.634319076766076e6 -183005.87842784004 0.0
-183005.87842784004 3.7277497975666426e7 0.0
0.0 0.0 0.0

-564470.4946029275 1.7090267956278615e7 0.0
1.7090267956278615e7 1.017730951867648e7 0.0
0.0 0.0 0.0

-1.888840770771579e6 1.5011338404342346e7 0.0
1.5011338404342346e7 -5.983136237007485e6 0.0
0.0 0.0 0.0

-174271.53020776995 1.7736822745128468e7 0.0
1.7736822745128468e7 -9.837606766442109e6 0.0
0.0 0.0 0.0

-1.091404406103763e6 1.6037663307868829e7 0.0
1.6037663307868829e7 -8.562897205352185e6 0.0
0.0 0.0 0.0

-1.0786338268009797e6 1.2479428409528675e7 0.0
1.2479428409528675e7 -6.918012633627999e6 0.0
0.0 0.0 0.0

-2.1544309687370644e6 1.7507411090137664e7 0.0
1.7507411090137664e7 -5.648750613708e6 0.0
0.0 0.0 0.0

-5.489138291138561e6 1.620842878314807e7 0.0
1.620842878314807e7 1.1464872206205565e7 0.0
0.0 0.0 0.0

-3.3445438565268647e6 1.6442220540759591e7 0.0
1.6442220540759591e7 1.7620558178210892e6 0.0
0.0 0.0 0.0

-3.2124731755998367e6 1.532355729303228e7 0.0
1.532355729303228e7 -2.208089461074305e6 0.0
0.0 0.0 0.0

3.5947818553480487e6 7.499153895489788e6 0.0
7.499153895489788e6 -2.6848321988290194e7 0.0
0.0 0.0 0.0

-4.9749374599480275e6 2.2784370455458563e7 0.0
2.2784370455458563e7 6.671017239788113e6 0.0
0.0 0.0 0.0

-2.8591073012949983e6 2.9596889161042124e6 0.0
2.9596889161042124e6 4.208355526526233e6 0.0
0.0 0.0 0.0

-5.325215230954198e6 1.595965330000379e7 0.0
1.595965330000379e7 1.0507305135325996e7 0.0
0.0 0.0 0.0

894597.6580360429 1.1132955648866367e7 0.0
1.1132955648866367e7 -8.483812375627805e6 0.0
0.0 0.0 0.0

4.203957968664755e6 4.0224191546644624e6 0.0
4.0224191546644624e6 -1.724528516981012e7 0.0
0.0 0.0 0.0

1.730955660988547e6 1.1894604698833747e7 0.0
1.1894604698833747e7 -1.8859567784247898e7 0.0
0.0 0.0 0.0

-3.4990650452756323e6 6.6628806646944415e6 0.0
6.6628806646944415e6 889385.957074452 0.0
0.0 0.0 0.0

-1.2526193805945907e7 1.1982378984601038e7 0.0
1.1982378984601038e7 2.168678707885017e7 0.0
0.0 0.0 0.0

-2.2542129453244004e6 1.6564563858986907e7 0.0
1.6564563858986907e7 -5.295696105575818e6 0.0
0.0 0.0 0.0

-3.118290956859419e6 -4.0004857577112955e6 0.0
-4.0004857577112955e6 8.152893879205635e6 0.0
0.0 0.0 0.0

-4.876088672451195e6 1.192725298280683e7 0.0
1.192725298280683e7 2.6887730122265774e6 0.0
0.0 0.0 0.0

-359157.51735791145 1.8224143805204768e7 0.0
1.8224143805204768e7 -8.84737363108646e6 0.0
0.0 0.0 0.0

-1.21243231726423e6 1.5712396427328521e7 0.0
1.5712396427328521e7 -1.568040403582226e7 0.0
0.0 0.0 0.0

1.3523543190587386e6 1.1110585344734427e7 0.0
1.1110585344734427e7 -1.3533977483370556e7 0.0
0.0 0.0 0.0

-112382.8841264667 8.854604089399677e6 0.0
8.854604089399677e6 -6.496007642011212e6 0.0
0.0 0.0 0.0

-1.6262087932114224e6 1.6004895994203161e7 0.0
1.6004895994203161e7 -4.128034167692629e6 0.0
0.0 0.0 0.0

-5.660388798678756e6 1.7198058960490257e7 0.0
1.7198058960490257e7 1.9726953829064194e7 0.0
0.0 0.0 0.0

-3.032084327068757e6 2.0710088622663934e7 0.0
2.0710088622663934e7 -1.1841318336475822e6 0.0
0.0 0.0 0.0

-8.50781026150227e6 1.667054211137997e7 0.0
1.667054211137997e7 1.654973392383452e7 0.0
0.0 0.0 0.0

-4.3994736077799555e6 1.8446980995210096e7 0.0
1.8446980995210096e7 9.388502069615906e6 0.0
0.0 0.0 0.0

392913.97532707965 1.0043136149000505e7 0.0
1.0043136149000505e7 -8.586856444403041e6 0.0
0.0 0.0 0.0

-3.7885531979414527e6 1.2590125720996203e7 0.0
1.2590125720996203e7 3.6961958844877724e6 0.0
0.0 0.0 0.0

-1.6369007419234752e6 1.7034709998923708e7 0.0
1.7034709998923708e7 1.0522813610510996e7 0.0
0.0 0.0 0.0

-1.5650820913612088e6 1.2982617145180369e7 0.0
1.2982617145180369e7 -5.850042240368551e6 0.0
0.0 0.0 0.0

823774.3687834963 1.3488798952363437e7 0.0
1.3488798952363437e7 -2.0445446252897687e7 0.0
0.0 0.0 0.0

-1.796820188660801e6 1.677490401647304e7 0.0
1.677490401647304e7 -3.8147340952175274e6 0.0
0.0 0.0 0.0

826001.4733989388 1.3813562967533574e7 0.0
1.3813562967533574e7 -1.500756320469458e7 0.0
0.0 0.0 0.0

-3.5308309704190725e6 1.4201477849951925e7 0.0
1.4201477849951925e7 2.608471375159513e6 0.0
0.0 0.0 0.0

-5.432463862982726e6 1.4585992639338482e7 0.0
1.4585992639338482e7 -2.2082187660539094e7 0.0
0.0 0.0 0.0

-1.9196328189826352e6 1.7518144352336895e7 0.0
1.7518144352336895e7 -3.5249857747921892e6 0.0
0.0 0.0 0.0

3.9062713982675113e6 1.7074568384070348e7 0.0
1.7074568384070348e7 -1.7308818283267242e6 0.0
0.0 0.0 0.0

-1.000230864938461e7 1.7820373354516227e6 0.0
1.7820373354516227e6 3.6392740651183486e7 0.0
0.0 0.0 0.0

-6.877776231084863e6 2.8892247881882068e7 0.0
2.8892247881882068e7 4.510421313253291e6 0.0
0.0 0.0 0.0

-3.6681913920288696e6 1.834122543065729e7 0.0
1.834122543065729e7 8.398589678959887e6 0.0
0.0 0.0 0.0

-1.1015890799004493e7 1.3180279396823607e7 0.0
1.3180279396823607e7 2.349805130418403e7 0.0
0.0 0.0 0.0

-4.21182965824102e6 2.0647359493281003e7 0.0
2.0647359493281003e7 8.10108993265103e6 0.0
0.0 0.0 0.0

-2.803019882882967e6 1.4165631914842045e7 0.0
1.4165631914842045e7 261556.84483596357 0.0
0.0 0.0 0.0

-822300.6490020277 1.5025482433119236e7 0.0
1.5025482433119236e7 -6.247186205070207e6 0.0
0.0 0.0 0.0

-1.4211675532668247e6 1.6287929354062302e7 0.0
1.6287929354062302e7 -4.867457648127616e6 0.0
0.0 0.0 0.0

-949473.6119670791 9.486895351689614e6 0.0
9.486895351689614e6 -1.9913783006417174e6 0.0
0.0 0.0 0.0

-553353.2223821103 1.873131526251434e7 0.0
1.873131526251434e7 -7.925562413973758e6 0.0
0.0 0.0 0.0

3.319671347898187e6 6.455690578403118e6 0.0
6.455690578403118e6 -1.7029442363606073e7 0.0
0.0 0.0 0.0

1.709739973451835e6 6.363114876612911e6 0.0
6.363114876612911e6 -9.031707374379296e6 0.0
0.0 0.0 0.0

-4.889601660613328e6 1.803404692973958e7 0.0
1.803404692973958e7 1.1402177926503863e7 0.0
0.0 0.0 0.0

-2.8496406704349825e6 2.0284194490942e7 0.0
2.0284194490942e7 -2.124737668789712e6 0.0
0.0 0.0 0.0

3.142254985060706e6 1.7427049375013825e7 0.0
1.7427049375013825e7 -3.45589827053362e6 0.0
0.0 0.0 0.0

-1.0576890233343143e7 2.258517260185266e7 0.0
2.258517260185266e7 5.014648581966316e6 0.0
0.0 0.0 0.0

2.430938340556707e6 6.172102588432875e6 0.0
6.172102588432875e6 -1.1991339279658418e7 0.0
0.0 0.0 0.0

-2.095973590635275e6 1.3450101006063476e7 0.0
1.3450101006063476e7 -4.7723767943326775e6 0.0
0.0 0.0 0.0

3.233475598655917e7 1.3650615248008756e7 0.0
1.3650615248008756e7 1.116575247557573e6 0.0
0.0 0.0 0.0

88293.88338775234 9.192558276226943e6 0.0
9.192558276226943e6 -7.413868665866796e6 0.0
0.0 0.0 0.0

3.5184886343316995e6 6.6098582314591585e6 0.0
6.6098582314591585e6 -2.0419702545168094e7 0.0
0.0 0.0 0.0

-8.672966320222901e6 1.6516927838835215e7 0.0
1.6516927838835215e7 2.0745025983805075e7 0.0
0.0 0.0 0.0

742902.5776766371 1.4576479230512163e7 0.0
1.4576479230512163e7 -1.5961221784953197e7 0.0
0.0 0.0 0.0

-9.018453502154417e6 8.767876007065034e6 0.0
8.767876007065034e6 1.5029586904713431e7 0.0
0.0 0.0 0.0

-1.0509611383775562e7 2.8267457536354776e7 0.0
2.8267457536354776e7 5.577119030317191e6 0.0
0.0 0.0 0.0

-8.379300506417879e6 1.670976179601666e7 0.0
1.670976179601666e7 1.9971952829698343e7 0.0
0.0 0.0 0.0

-4.442872236369887e6 2.121073571357033e7 0.0
2.121073571357033e7 7.9745980172536075e6 0.0
0.0 0.0 0.0

-1.3283136305251641e7 2.3036443286935788e7 0.0
2.3036443286935788e7 -4.694035715025254e6 0.0
0.0 0.0 0.0

-3.858872971159097e6 1.5474094560661748e7 0.0
1.5474094560661748e7 -125062.65248717042 0.0
0.0 0.0 0.0

3.0707508305057768e7 5.989546534506667e6 0.0
5.989546534506667e6 -2.4391197981908917e6 0.0
0.0 0.0 0.0

-647734.3011094781 1.6558546879783163e7 0.0
1.6558546879783163e7 -7.903284381435734e6 0.0
0.0 0.0 0.0

-1.1299906741462627e6 1.327624987987602e7 0.0
1.327624987987602e7 -416829.3766424472 0.0
0.0 0.0 0.0

-765783.4601226833 1.922496110623237e7 0.0
1.922496110623237e7 -6.960443740334365e6 0.0
0.0 0.0 0.0

-9.29966889785931e6 1.981632809799104e7 0.0
1.981632809799104e7 -3.833521512206807e6 0.0
0.0 0.0 0.0

268944.03225790244 8.544106945896469e6 0.0
8.544106945896469e6 -4.00810089144946e6 0.0
0.0 0.0 0.0

-4.655516933144045e6 1.838666414285854e7 0.0
1.838666414285854e7 1.2677657226686886e7 0.0
0.0 0.0 0.0

-1.9597722883778182e6 1.4570461275825553e7 0.0
1.4570461275825553e7 -1.5725516758487035e7 0.0
0.0 0.0 0.0

-1.220723885163607e7 2.8297335013471334e6 0.0
2.8297335013471334e6 2.1527434678327776e7 0.0
0.0 0.0 0.0

-3.077681461376269e6 2.009279258708397e7 0.0
2.009279258708397e7 -1.4448592893423468e6 0.0
0.0 0.0 0.0

-2.5316484663290367e6 1.4589484950547615e7 0.0
1.4589484950547615e7 -722937.5461521398 0.0
0.0 0.0 0.0

-2.4451139805077305e6 2.0484829987710338e7 0.0
2.0484829987710338e7 -829633.3189808403 0.0
0.0 0.0 0.0

207888.52728863573 1.4972413825850604e7 0.0
1.4972413825850604e7 -1.0049112812153205e7 0.0
0.0 0.0 0.0

-4.529459283050929e6 7.4177810804283805e6 0.0
7.4177810804283805e6 6.436406647185173e6 0.0
0.0 0.0 0.0

-4.0227438303778563e6 2.089550010112158e7 0.0
2.089550010112158e7 5.114729346997805e6 0.0
0.0 0.0 0.0

-5.551664500915218e6 1.7885297142725293e7 0.0
1.7885297142725293e7 1.4470722290044788e7 0.0
0.0 0.0 0.0

-4.675853822549356e6 1.765809331851183e7 0.0
1.765809331851183e7 9.768494662440684e6 0.0
0.0 0.0 0.0

-598579.6253012109 1.2631666352104697e7 0.0
1.2631666352104697e7 -5.302095920781803e6 0.0
0.0 0.0 0.0

2.098993335757795e6 1.0909938298416913e7 0.0
1.0909938298416913e7 -2.215956686084749e7 0.0
0.0 0.0 0.0

-4.058145311821639e6 1.6814715817045204e7 0.0
1.6814715817045204e7 1.1479549027106008e6 0.0
0.0 0.0 0.0

-184816.81633829558 1.614082038638445e7 0.0
1.614082038638445e7 -1.1961954479982745e7 0.0
0.0 0.0 0.0

-173947.75968274195 1.4776840690242445e7 0.0
1.4776840690242445e7 -1.1286809661603259e7 0.0
0.0 0.0 0.0

-1.8508231940618928e6 2.0382561127717853e7 0.0
2.0382561127717853e7 -4.9481903656095145e6 0.0
0.0 0.0 0.0

-1.284449613384075e6 1.6765118792181402e7 0.0
1.6765118792181402e7 -8.09969143591285e6 0.0
0.0 0.0 0.0

2.0230457018875415e6 1.1185492063835653e7 0.0
1.1185492063835653e7 -1.80965825377222e7 0.0
0.0 0.0 0.0

1.716704356395193e6 6.3546447384017045e6 0.0
6.3546447384017045e6 -6.1687116755218e6 0.0
0.0 0.0 0.0

-973238.121654615 5.824873759206174e6 0.0
5.824873759206174e6 339520.4570544891 0.0
0.0 0.0 0.0

-901186.5732947651 2.6153603916044988e7 0.0
2.6153603916044988e7 20403.919505105587 0.0
0.0 0.0 0.0

-4.1309928867373494e6 1.5971562186584584e7 0.0
1.5971562186584584e7 1.0248370013784205e6 0.0
0.0 0.0 0.0

-1.974181772275704e6 1.772540407262387e7 0.0
1.772540407262387e7 -6.309606393721658e6 0.0
0.0 0.0 0.0

3.501479491594076e6 4.405332815354129e6 0.0
4.405332815354129e6 -1.1390836292984355e7 0.0
0.0 0.0 0.0

-1.0626274636533225e7 4.056238569697262e6 0.0
4.056238569697262e6 3.631066138526934e7 0.0
0.0 0.0 0.0

2.0952431615153495e6 9.21723219324907e6 0.0
9.21723219324907e6 -1.4102977085349955e7 0.0
0.0 0.0 0.0

2.3415072224075412e6 2.0843416897601932e7 0.0
2.0843416897601932e7 -5.611555229529578e6 0.0
0.0 0.0 0.0

-863806.5730436714 2.1600794151509468e7 0.0
2.1600794151509468e7 -4.417529968845497e6 0.0
0.0 0.0 0.0

-3.912190305339423e6 2.1272865808424484e7 0.0
2.1272865808424484e7 4.320597791879883e6 0.0
0.0 0.0 0.0

4.421370585974433e6 3.986379967010473e6 0.0
3.986379967010473e6 -2.345507268073823e7 0.0
0.0 0.0 0.0

-1.7905920683902006e6 1.845472638242871e7 0.0
1.845472638242871e7 -3.9430228683775538e6 0.0
0.0 0.0 0.0

-1.5053745416941503e6 1.942932064722231e7 0.0
1.942932064722231e7 -4.910174693239554e6 0.0
0.0 0.0 0.0

3.3920608926580017e6 7.2290578701656135e6 0.0
7.2290578701656135e6 -2.230316159762747e7 0.0
0.0 0.0 0.0

-2.2387228995857905e6 2.1829429886478297e7 0.0
2.1829429886478297e7 -2.4552413765197843e6 0.0
0.0 0.0 0.0

986855.5789808827 1.8036414729986317e7 0.0
1.8036414729986317e7 -7.504297553186853e6 0.0
0.0 0.0 0.0

-2.4403826835820973e6 1.800264998117719e7 0.0
1.800264998117719e7 -4.645270252909969e6 0.0
0.0 0.0 0.0

372668.9674585946 1.398421625846053e7 0.0
1.398421625846053e7 -2.1644429557459492e7 0.0
0.0 0.0 0.0

2.0389017705226126e6 6.830004742610288e6 0.0
6.830004742610288e6 -1.1147739805562148e7 0.0
0.0 0.0 0.0

944281.9538060795 1.0864160282166664e7 0.0
1.0864160282166664e7 -1.1578126878725639e7 0.0
0.0 0.0 0.0

-1.3863291880388444e6 1.8439181349305e7 0.0
1.8439181349305e7 -6.824204654769393e6 0.0
0.0 0.0 0.0

468040.3863074947 1.8008506329059355e7 0.0
1.8008506329059355e7 -8.660949505057639e6 0.0
0.0 0.0 0.0

-1.5961793568976729e6 1.718119046805098e7 0.0
1.718119046805098e7 -7.2206333283898365e6 0.0
0.0 0.0 0.0

2.985149168829305e6 7.420515603158028e6 0.0
7.420515603158028e6 -1.1564413265351674e7 0.0
0.0 0.0 0.0

4.481231817836652e6 4.996702176928948e6 0.0
4.996702176928948e6 -1.9968918756743245e7 0.0
0.0 0.0 0.0

263748.1887206463 1.4759900389966916e7 0.0
1.4759900389966916e7 -1.3162897216055565e7 0.0
0.0 0.0 0.0

515969.3194782934 1.1376686948252462e7 0.0
1.1376686948252462e7 -1.0659695556789469e7 0.0
0.0 0.0 0.0

-3.793737861204503e6 1.455680562466724e7 0.0
1.455680562466724e7 -356783.51123576926 0.0
0.0 0.0 0.0

-8.716245698169332e6 2.293934228636211e7 0.0
2.293934228636211e7 5.881847538157125e6 0.0
0.0 0.0 0.0

-3.306511233818352e6 1.3064348410217473e7 0.0
1.3064348410217473e7 5.9286728286638886e7 0.0
0.0 0.0 0.0

-1.2341297850407504e7 3.2320263421006906e6 0.0
3.2320263421006906e6 1.985809364726747e7 0.0
0.0 0.0 0.0

-770252.0186089945 2.0285412925177686e7 0.0
2.0285412925177686e7 -6.812736969540343e6 0.0
0.0 0.0 0.0

-4.1454534027516926e6 1.5080266734653976e7 0.0
1.5080266734653976e7 851139.3631235212 0.0
0.0 0.0 0.0

-1.1504455692547482e7 5.861896929491316e6 0.0
5.861896929491316e6 2.8701110613778025e7 0.0
0.0 0.0 0.0

4.300952178622877e6 5.039389411639972e6 0.0
5.039389411639972e6 -1.793039374584781e7 0.0
0.0 0.0 0.0

-3.591295927609736e6 1.6071031300053608e7 0.0
1.6071031300053608e7 2.8091973442365164e6 0.0
0.0 0.0 0.0

714348.4325856455 1.42790709231667e7 0.0
1.42790709231667e7 -1.7252778072019484e7 0.0
0.0 0.0 0.0

-934206.8273211727 1.978265650893853e7 0.0
1.978265650893853e7 -6.080787688356169e6 0.0
0.0 0.0 0.0

-1.5642760107361835e6 1.8635204637994803e7 0.0
1.8635204637994803e7 -4.618361270056785e6 0.0
0.0 0.0 0.0

-5.651909013072398e6 1.4099697138269309e7 0.0
1.4099697138269309e7 5.458741177437481e6 0.0
0.0 0.0 0.0

-2.05494814228102e6 1.534032467177628e7 0.0
1.534032467177628e7 -2.522156907883245e6 0.0
0.0 0.0 0.0

-6.786256034457679e6 8.41466940290776e6 0.0
8.41466940290776e6 7.134743006267e6 0.0
0.0 0.0 0.0

-3.701936792495012e7 2.0452303540787853e7 0.0
2.0452303540787853e7 7.576303938683853e6 0.0
0.0 0.0 0.0

1.642952147087484e6 1.8135576535722945e7 0.0
1.8135576535722945e7 9.162262979811024e6 0.0
0.0 0.0 0.0

-4.335799414570494e6 1.9302606271325096e7 0.0
1.9302606271325096e7 9.802717774679411e6 0.0
0.0 0.0 0.0

-2.678738632499747e6 2.1894230535882983e7 0.0
2.1894230535882983e7 1.0759313571806017e6 0.0
0.0 0.0 0.0

2.5604052261138977e6 8.94866479405882e6 0.0
8.94866479405882e6 -1.6970217281036798e7 0.0
0.0 0.0 0.0

3.258300662050004e6 7.607246727930907e6 0.0
7.607246727930907e6 -2.0118308175748117e7 0.0
0.0 0.0 0.0

3.311893333127465e6 9.006029640004965e6 0.0
9.006029640004965e6 -2.3447712582243428e7 0.0
0.0 0.0 0.0

-4.867576764285564e6 1.416613299700005e7 0.0
1.416613299700005e7 3.018672557001761e6 0.0
0.0 0.0 0.0

-1.2842431119043456e7 1.1103820054944644e7 0.0
1.1103820054944644e7 2.0315776900444146e7 0.0
0.0 0.0 0.0

-5.646998998997036e6 9.376695570716718e6 0.0
9.376695570716718e6 8.563612100620765e6 0.0
0.0 0.0 0.0

2.2298237699172134e6 1.7762965781383645e7 0.0
1.7762965781383645e7 -4.919504455676336e6 0.0
0.0 0.0 0.0

-1.4697711130578378e6 1.4806819519209234e7 0.0
1.4806819519209234e7 -1.4732454371384954e7 0.0
0.0 0.0 0.0

-4.231125422455024e6 2.116881553061916e7 0.0
2.116881553061916e7 6.600185666050001e6 0.0
0.0 0.0 0.0

2.4656682183329067e6 2.53623691669448e7 0.0
2.53623691669448e7 -3.249571545599181e6 0.0
0.0 0.0 0.0

-7.260513821522286e6 2.3048314643307205e7 0.0
2.3048314643307205e7 6.408920834110111e6 0.0
0.0 0.0 0.0

-6.975077208631884e6 1.7065632202808402e7 0.0
1.7065632202808402e7 1.7008309620484423e7 0.0
0.0 0.0 0.0

2.7804942282987516e6 6.727434614822571e6 0.0
6.727434614822571e6 -3.7103462790976726e7 0.0
0.0 0.0 0.0

79619.16088496894 1.4337964303527603e7 0.0
1.4337964303527603e7 -8.952910785104796e6 0.0
0.0 0.0 0.0

3.361236612959606e6 3.46108823697436e6 0.0
3.46108823697436e6 -9.71846664555029e6 0.0
0.0 0.0 0.0

3.7148170600425648e6 7.861992617265024e6 0.0
7.861992617265024e6 -2.4082853176400818e7 0.0
0.0 0.0 0.0

-3.7870190589729324e6 2.1630120637007307e7 0.0
2.1630120637007307e7 3.5506701056718454e6 0.0
0.0 0.0 0.0

-1.1841748141193293e7 1.1369832059986738e7 0.0
1.1369832059986738e7 1.986785178317416e7 0.0
0.0 0.0 0.0

-7.850287928243636e6 1.6758833601227306e7 0.0
1.6758833601227306e7 1.8306411330396675e7 0.0
0.0 0.0 0.0

-4.1547703918065084e6 1.9874243250195745e7 0.0
1.9874243250195745e7 9.336830944847666e6 0.0
0.0 0.0 0.0

2.5509001123694293e6 9.37356563780798e6 0.0
9.37356563780798e6 -1.2607597225096079e7 0.0
0.0 0.0 0.0

-3.884250626713389e6 1.958737141933332e7 0.0
1.958737141933332e7 -7.417756701782235e6 0.0
0.0 0.0 0.0

-716962.9574115528 2.5889385686621487e7 0.0
2.5889385686621487e7 -1.2905236467262479e6 0.0
0.0 0.0 0.0

-4.0344532381258467e6 2.2514589985972658e7 0.0
2.2514589985972658e7 5.051334596309653e6 0.0
0.0 0.0 0.0

-7.843569605595353e6 1.6884910882114254e7 0.0
1.6884910882114254e7 1.9116614767211534e7 0.0
0.0 0.0 0.0

-1.0400952724673428e7 4.729218618807516e7 0.0
4.729218618807516e7 -1.2110264045409516e7 0.0
0.0 0.0 0.0

-4.293333931181135e6 1.903023942510088e7 0.0
1.903023942510088e7 -9.246822483458396e6 0.0
0.0 0.0 0.0

-5.710109522489718e6 1.5905117523217471e7 0.0
1.5905117523217471e7 7.598000266256988e6 0.0
0.0 0.0 0.0

-8.493101714242972e6 1.6487284198452022e6 0.0
1.6487284198452022e6 1.0167945951662648e7 0.0
0.0 0.0 0.0

-1.223477862817484e6 1.5518934256065493e7 0.0
1.5518934256065493e7 -5.195760562696539e6 0.0
0.0 0.0 0.0

-6.913932693233601e6 2.0102359001803e7 0.0
2.0102359001803e7 -4.259169305862109e6 0.0
0.0 0.0 0.0

-6.918231908172177e6 2.7820230392539762e7 0.0
2.7820230392539762e7 4.222613427731074e6 0.0
0.0 0.0 0.0

-1.0900888523772722e6 1.763651231416421e7 0.0
1.763651231416421e7 -6.484649462201372e6 0.0
0.0 0.0 0.0

-2.0545685084602293e6 1.898862672125712e7 0.0
1.898862672125712e7 -5.550235048382705e6 0.0
0.0 0.0 0.0

-1.0288903746393092e7 1.0708056108880127e6 0.0
1.0708056108880127e6 1.7810487288526274e7 0.0
0.0 0.0 0.0

4.013496895129665e6 5.893714456810224e6 0.0
5.893714456810224e6 -1.6140561814527323e7 0.0
0.0 0.0 0.0

-528219.2527634781 2.5243896328706883e7 0.0
2.5243896328706883e7 -909202.2604746779 0.0
0.0 0.0 0.0

-6.23444779183815e6 1.7450580102416206e7 0.0
1.7450580102416206e7 1.5780083939578848e7 0.0
0.0 0.0 0.0

-1.0677578378451344e7 2.125690252497347e7 0.0
2.125690252497347e7 -1.984194236134312e6 0.0
0.0 0.0 0.0

-763147.0208611141 5.577547044933456e6 0.0
5.577547044933456e6 -2.7832840084890993e6 0.0
0.0 0.0 0.0

-7.611846593262104e6 2.1207097521712508e7 0.0
2.1207097521712508e7 -6.70811673265314e6 0.0
0.0 0.0 0.0

-2.218525512290544e6 1.819140200847612e7 0.0
1.819140200847612e7 -5.3105428156913975e6 0.0
0.0 0.0 0.0

549685.3403531676 1.429440031325987e7 0.0
1.429440031325987e7 -1.4078630416214993e7 0.0
0.0 0.0 0.0

-1.601315655208105e6 1.7031510772654224e7 0.0
1.7031510772654224e7 -4.556586560806839e6 0.0
0.0 0.0 0.0

2.0700345604835711e6 9.630825851811271e6 0.0
9.630825851811271e6 -1.467695316056007e7 0.0
0.0 0.0 0.0

-2.8916294002278983e6 1.7909924751989976e7 0.0
1.7909924751989976e7 164265.17010794987 0.0
0.0 0.0 0.0

-8.200895826147568e6 3.5105258231594246e6 0.0
3.5105258231594246e6 9.386441106817665e6 0.0
0.0 0.0 0.0

-9.251886938291607e6 1.1100317037709119e7 0.0
1.1100317037709119e7 1.5831355804234624e7 0.0
0.0 0.0 0.0

-5.014772817531317e6 1.400086915553586e7 0.0
1.400086915553586e7 7.60544254964694e6 0.0
0.0 0.0 0.0

-3.7853590514024924e6 1.4519612407684484e7 0.0
1.4519612407684484e7 -1.379464481062519e7 0.0
0.0 0.0 0.0

-4.252183338000428e6 1.417091112331066e7 0.0
1.417091112331066e7 5.071769964112428e6 0.0
0.0 0.0 0.0

-2.717611987048479e7 2.4498010708109144e7 0.0
2.4498010708109144e7 1.1227711738359537e6 0.0
0.0 0.0 0.0

-4.438748093004115e6 1.5586799701560238e7 0.0
1.5586799701560238e7 2.0184585870107785e6 0.0
0.0 0.0 0.0

-969266.665495639 1.727258830879117e7 0.0
1.727258830879117e7 -2.5950039532187223e6 0.0
0.0 0.0 0.0

-4.216217996556444e7 1.9535837750807572e7 0.0
1.9535837750807572e7 5.808167600761469e6 0.0
0.0 0.0 0.0

1.5658639279894177e6 1.800434879480412e7 0.0
1.800434879480412e7 -6.3515143104886655e6 0.0
0.0 0.0 0.0

-3.227794209204094e6 1.4676359263339221e7 0.0
1.4676359263339221e7 1.501650798371675e6 0.0
0.0 0.0 0.0

1.793985216054468e6 1.0466891119201107e7 0.0
1.0466891119201107e7 -1.0942884396544449e7 0.0
0.0 0.0 0.0

-2.7953253944983482e6 2.224779277641604e7 0.0
2.224779277641604e7 1.8436503208333836e6 0.0
0.0 0.0 0.0

1.7149957108418513e6 1.092239474993094e7 0.0
1.092239474993094e7 -1.4909713871223848e7 0.0
0.0 0.0 0.0

1.6015948587083593e6 1.1659622620433176e7 0.0
1.1659622620433176e7 -1.591931754000203e7 0.0
0.0 0.0 0.0

-5.231144207294764e6 7.57854831999645e6 0.0
7.57854831999645e6 4.0185506564430026e6 0.0
0.0 0.0 0.0

-5.154337402716201e6 1.7906219395547893e7 0.0
1.7906219395547893e7 8.1192318059701985e6 0.0
0.0 0.0 0.0

3.8576460411758544e6 7.380178659878764e6 0.0
7.380178659878764e6 -2.0804832288173124e7 0.0
0.0 0.0 0.0

-1.057545117988474e7 4.732482052627329e6 0.0
4.732482052627329e6 1.5479077537178695e7 0.0
0.0 0.0 0.0

1.6787503678367883e6 1.1272709381742654e7 0.0
1.1272709381742654e7 -1.5434044563089518e7 0.0
0.0 0.0 0.0

-7.079181399233955e7 7.242844091717248e6 0.0
7.242844091717248e6 6.344101133762512e6 0.0
0.0 0.0 0.0

2.9963344813031014e6 6.617212417165082e6 0.0
6.617212417165082e6 -3.466259231952179e7 0.0
0.0 0.0 0.0

-5.365093305012032e6 1.680195758399425e7 0.0
1.680195758399425e7 7.408456724688018e6 0.0
0.0 0.0 0.0

-4.774687655441642e6 1.8148580675967794e7 0.0
1.8148580675967794e7 6.059871661630079e6 0.0
0.0 0.0 0.0

-4.66946155801823e6 2.229461090612326e7 0.0
2.229461090612326e7 7.567972433140338e6 0.0
0.0 0.0 0.0

-2.090888535830561e6 1.5803198707101384e7 0.0
1.5803198707101384e7 -5.633481932419947e6 0.0
0.0 0.0 0.0

-5.735586637722433e6 1.8154080403137866e7 0.0
1.8154080403137866e7 1.4710141890732123e7 0.0
0.0 0.0 0.0

835354.722254701 1.2792919403053308e7 0.0
1.2792919403053308e7 -1.3037774775435464e7 0.0
0.0 0.0 0.0

2.7959492874903874e6 9.1033383969842e6 0.0
9.1033383969842e6 -2.005042718580874e7 0.0
0.0 0.0 0.0

-2.985926984159125e6 2.1989877538097244e7 0.0
2.1989877538097244e7 2.49520708781117e6 0.0
0.0 0.0 0.0

-702704.708561989 2.26654735109479e7 0.0
2.26654735109479e7 -4.173912636489218e6 0.0
0.0 0.0 0.0

3.209365909287771e6 8.43509666756404e6 0.0
8.43509666756404e6 -2.8113684655506004e7 0.0
0.0 0.0 0.0

-5.230780233553546e6 1.16539169424382e7 0.0
1.16539169424382e7 7.498148780026641e6 0.0
0.0 0.0 0.0

-6.122034151219942e6 2.2912913903584287e7 0.0
2.2912913903584287e7 6.833035136625752e6 0.0
0.0 0.0 0.0

-4.065286400323805e7 5.1101276468051285e7 0.0
5.1101276468051285e7 -3.297443139459474e6 0.0
0.0 0.0 0.0

-1.200369534708961e7 7.57213266729678e6 0.0
7.57213266729678e6 2.5321815097760554e7 0.0
0.0 0.0 0.0

-2.765351314453614e6 1.365325596775041e7 0.0
1.365325596775041e7 -1.2360377277031973e7 0.0
0.0 0.0 0.0

-174778.44801775832 5.434468325521466e6 0.0
5.434468325521466e6 -847254.013975605 0.0
0.0 0.0 0.0

-8.637969246833894e6 -6.246822422221353e6 0.0
-6.246822422221353e6 2.4097862848864224e7 0.0
0.0 0.0 0.0

4.927501720775101e6 2.718396127220947e6 0.0
2.718396127220947e6 -2.4210610475175083e7 0.0
0.0 0.0 0.0

-5.56882384345855e6 2.0066075964896705e7 0.0
2.0066075964896705e7 1.9893752306173497e6 0.0
0.0 0.0 0.0

-573473.1901199445 1.5260088189089924e7 0.0
1.5260088189089924e7 -1.591380297147484e7 0.0
0.0 0.0 0.0

-9.861134134735977e6 1.3708761355980493e7 0.0
1.3708761355980493e7 2.57062787129307e7 0.0
0.0 0.0 0.0

-653686.5066341164 1.969898993506723e7 0.0
1.969898993506723e7 -7.638826830664325e6 0.0
0.0 0.0 0.0

1.7430882676261067e6 1.0562894484991835e7 0.0
1.0562894484991835e7 -1.4358458319658946e7 0.0
0.0 0.0 0.0

-6.112548172890471e6 1.444801992839224e7 0.0
1.444801992839224e7 3.3608755605231486e7 0.0
0.0 0.0 0.0

-2.447089237256932e6 1.5828285061404819e7 0.0
1.5828285061404819e7 -1.40126303348627e6 0.0
0.0 0.0 0.0

-4.658546157928257e6 1.6579670279283471e7 0.0
1.6579670279283471e7 2.3339353495464236e7 0.0
0.0 0.0 0.0

-421676.44459024724 1.5520515620105043e7 0.0
1.5520515620105043e7 -1.4911434452057278e7 0.0
0.0 0.0 0.0

5.48632737560604e7 7.963378947591642e6 0.0
7.963378947591642e6 103019.37531879172 0.0
0.0 0.0 0.0

-1.1026591416182248e6 2.0314049916410524e7 0.0
2.0314049916410524e7 -5.240398408279211e6 0.0
0.0 0.0 0.0

118671.34798141057 2.5083875712254044e7 0.0
2.5083875712254044e7 -1.5525306624821322e6 0.0
0.0 0.0 0.0

1.4545859299030174e6 1.1420013249374721e7 0.0
1.1420013249374721e7 -1.4018957114288952e7 0.0
0.0 0.0 0.0

2.3947719772923877e6 1.0574509520685099e7 0.0
1.0574509520685099e7 -1.4354339554703057e7 0.0
0.0 0.0 0.0

-1.6858887604318373e6 1.5310941763895316e7 0.0
1.5310941763895316e7 -6.691588973661284e6 0.0
0.0 0.0 0.0

-1.2239658225081991e7 8.513865769996349e6 0.0
8.513865769996349e6 2.0814871118079804e7 0.0
0.0 0.0 0.0

-1.1009866327468148e6 1.4373815840103023e7 0.0
1.4373815840103023e7 -2.108070735571956e7 0.0
0.0 0.0 0.0

3.183195411419999e6 3.3888861311784526e6 0.0
3.3888861311784526e6 -8.959690801945223e6 0.0
0.0 0.0 0.0

889505.7803799249 1.342441458099693e7 0.0
1.342441458099693e7 -1.4027553956617318e7 0.0
0.0 0.0 0.0

-2.24965536508613e7 2.766135907256155e7 0.0
2.766135907256155e7 8.483877850789659e6 0.0
0.0 0.0 0.0

-2.890825429102121e6 1.0404721720887028e7 0.0
1.0404721720887028e7 -1.4724369645624212e6 0.0
0.0 0.0 0.0

-4.261824339738952e6 1.4533173151934631e7 0.0
1.4533173151934631e7 4.040319729468277e7 0.0
0.0 0.0 0.0

-4.2826400863111755e6 1.8242758197613176e7 0.0
1.8242758197613176e7 1.1828002131276602e7 0.0
0.0 0.0 0.0

4.292587535227989e6 1.792020888561653e7 0.0
1.792020888561653e7 1.8684513061997613e6 0.0
0.0 0.0 0.0

-5.209087473571158e6 2.266002160196661e7 0.0
2.266002160196661e7 7.169401091618588e6 0.0
0.0 0.0 0.0

-1.1819527483512668e6 2.0822086822230827e7 0.0
2.0822086822230827e7 -4.299419564370197e6 0.0
0.0 0.0 0.0

-4.188343346626621e6 2.21981827480728e7 0.0
2.21981827480728e7 5.671338235993484e6 0.0
0.0 0.0 0.0

-1.2017235069944188e7 8.77072651613714e6 0.0
8.77072651613714e6 1.9448370251166508e7 0.0
0.0 0.0 0.0

-8.900087206932798e6 1.3078779562297694e7 0.0
1.3078779562297694e7 1.6205378104150433e7 0.0
0.0 0.0 0.0

-7.884789505448476e6 5.051145052777522e6 0.0
5.051145052777522e6 8.132510797922485e6 0.0
0.0 0.0 0.0

1.2411761025049675e7 1.1193146736779999e7 0.0
1.1193146736779999e7 923795.917672935 0.0
0.0 0.0 0.0

-281633.3515252322 1.579688442442867e7 0.0
1.579688442442867e7 -1.3988659999213165e7 0.0
0.0 0.0 0.0

-1.4739125631325073e6 2.074909905939456e7 0.0
2.074909905939456e7 -3.736752538883959e6 0.0
0.0 0.0 0.0

-3.620420248970858e6 2.1931427138290823e7 0.0
2.1931427138290823e7 2.8095458792076726e6 0.0
0.0 0.0 0.0

-8.262045151880152e6 -4.911229905281382e6 0.0
-4.911229905281382e6 1.5311776289001837e7 0.0
0.0 0.0 0.0

-3.809368737424971e6 2.3155016292354215e7 0.0
2.3155016292354215e7 3.805703249350539e6 0.0
0.0 0.0 0.0

-3.581806777714701e6 1.516550876244104e7 0.0
1.516550876244104e7 2.709170832546981e6 0.0
0.0 0.0 0.0

-4.3400001386840325e6 2.3679705180698697e7 0.0
2.3679705180698697e7 4.71830928493548e6 0.0
0.0 0.0 0.0

4.307794867644172e6 1.6870055434307493e7 0.0
1.6870055434307493e7 454790.9142033969 0.0
0.0 0.0 0.0

-466670.90563856316 2.3623826296992425e7 0.0
2.3623826296992425e7 -2.387675897674892e6 0.0
0.0 0.0 0.0

4.0501459813902816e6 5.080471332841468e6 0.0
5.080471332841468e6 -2.00979635162211e7 0.0
0.0 0.0 0.0

-1.219121239108089e7 7.763798972182591e6 0.0
7.763798972182591e6 2.3782477043799065e7 0.0
0.0 0.0 0.0

320291.40809308644 1.699315813400736e7 0.0
1.699315813400736e7 -8.938852834395403e6 0.0
0.0 0.0 0.0

-168306.7638865551 1.6147563013378583e7 0.0
1.6147563013378583e7 -1.3032940045957765e7 0.0
0.0 0.0 0.0

-2.290210225439274e6 1.496888973595577e7 0.0
1.496888973595577e7 -1.6499484676170237e6 0.0
0.0 0.0 0.0

-4.071455120113394e6 1.8742937012835924e7 0.0
1.8742937012835924e7 4.884265292944622e6 0.0
0.0 0.0 0.0

35381.21478056023 2.0336140693468098e7 0.0
2.0336140693468098e7 -6.826930875790449e6 0.0
0.0 0.0 0.0

6093.521407927852 1.5688038260443503e7 0.0
1.5688038260443503e7 -7.799169871254053e6 0.0
0.0 0.0 0.0

-1.144842936450205e7 1.0974850844205054e7 0.0
1.0974850844205054e7 1.554759356733502e7 0.0
0.0 0.0 0.0

3.2070980174849415e6 8.94389879111509e6 0.0
8.94389879111509e6 -1.686635943159994e7 0.0
0.0 0.0 0.0

-497028.39615012566 1.5995475583733937e7 0.0
1.5995475583733937e7 -1.3452839909419544e7 0.0
0.0 0.0 0.0

437303.477476486 1.805128163544236e7 0.0
1.805128163544236e7 1.0797294305349793e7 0.0
0.0 0.0 0.0

-2.366652244355318e6 1.7296062385420658e7 0.0
1.7296062385420658e7 -4.968088785536714e6 0.0
0.0 0.0 0.0

3.879289012367634e6 6.999580255724533e6 0.0
6.999580255724533e6 -2.7151601022980332e7 0.0
0.0 0.0 0.0

4.102124749453075e6 5.352093191061973e6 0.0
5.352093191061973e6 -3.5347840653263755e7 0.0
0.0 0.0 0.0

-5.861593559603832e6 1.4559969262798086e7 0.0
1.4559969262798086e7 6.638448544796422e6 0.0
0.0 0.0 0.0

-3.4334845125616887e6 2.221353203765034e7 0.0
2.221353203765034e7 2.131812404742767e6 0.0
0.0 0.0 0.0

-1.0835571368525784e7 997011.8760961705 0.0
997011.8760961705 2.1131349372490987e7 0.0
0.0 0.0 0.0

-7.712078331586788e6 1.3367054018394697e7 0.0
1.3367054018394697e7 1.0421878490959125e7 0.0
0.0 0.0 0.0

-5.060207880359893e6 1.7614037734514963e7 0.0
1.7614037734514963e7 7.225373467024403e6 0.0
0.0 0.0 0.0

3.009483757399846e6 9.115865500548745e6 0.0
9.115865500548745e6 -1.5459255116014913e7 0.0
0.0 0.0 0.0

4.868712985199384e6 2.596933671382738e6 0.0
2.596933671382738e6 -2.4933977689913053e7 0.0
0.0 0.0 0.0

-4.845209906733361e6 1.6599421339751704e7 0.0
1.6599421339751704e7 9.215901323031746e6 0.0
0.0 0.0 0.0

-1.5012615085313395e6 1.591260027671736e7 0.0
1.591260027671736e7 5.0737114062260866e7 0.0
0.0 0.0 0.0

-3.9988772624174827e6 1.8449633006455723e7 0.0
1.8449633006455723e7 6.5271673164583165e6 0.0
0.0 0.0 0.0

-1.3976416217639456e6 2.1255290144479692e7 0.0
2.1255290144479692e7 -3.5626059479757226e6 0.0
0.0 0.0 0.0

1.4498358437632388e6 1.2044666912307613e7 0.0
1.2044666912307613e7 -1.4833762269124387e7 0.0
0.0 0.0 0.0

-1.9155702672114081e6 2.290995978995722e7 0.0
2.290995978995722e7 -516546.5155063932 0.0
0.0 0.0 0.0

-3.15636312421037e6 2.1703242646937717e7 0.0
2.1703242646937717e7 3.182868611234204e6 0.0
0.0 0.0 0.0

4.223339270639231e6 1.5914726774107793e7 0.0
1.5914726774107793e7 2.5319305974629715e7 0.0
0.0 0.0 0.0

3.217145719143534e6 3.394016768017443e6 0.0
3.394016768017443e6 -9.435581390229594e6 0.0
0.0 0.0 0.0

1.4977541831882424e6 1.855734412587354e7 0.0
1.855734412587354e7 -6.939100114901727e6 0.0
0.0 0.0 0.0

3.908035385187774e6 4.21828091317054e6 0.0
4.21828091317054e6 -1.4995670470575508e7 0.0
0.0 0.0 0.0

-9.820380665819012e6 9.417955651635628e6 0.0
9.417955651635628e6 1.6115457387948563e7 0.0
0.0 0.0 0.0

-3.9540728100690143e6 2.0716496072199427e7 0.0
2.0716496072199427e7 4.342918321783576e6 0.0
0.0 0.0 0.0

-1.7215426984101834e6 1.7751682245539587e7 0.0
1.7751682245539587e7 -4.255261928490933e6 0.0
0.0 0.0 0.0

2.521429716060389e6 9.782162748973798e6 0.0
9.782162748973798e6 -1.319489136997326e7 0.0
0.0 0.0 0.0

-44766.993689939845 1.6087462285389153e7 0.0
1.6087462285389153e7 -9.001031839616481e6 0.0
0.0 0.0 0.0

-1.5715622569373471e6 2.172683945505377e7 0.0
2.172683945505377e7 -2.793803430599427e6 0.0
0.0 0.0 0.0

-1.1349301540691124e7 2.7641404508486525e6 0.0
2.7641404508486525e6 2.4675042004656114e7 0.0
0.0 0.0 0.0

-8.275570172136308e6 1.4694222362721376e7 0.0
1.4694222362721376e7 1.6386442685269885e7 0.0
0.0 0.0 0.0

-1.1100671749513052e7 6.309489980865458e6 0.0
6.309489980865458e6 1.7150763215625145e7 0.0
0.0 0.0 0.0

-4.480447946466727e6 1.4644191262205813e7 0.0
1.4644191262205813e7 1.8907385717559557e6 0.0
0.0 0.0 0.0

-3.642260430989706e6 2.187316528323052e7 0.0
2.187316528323052e7 6.1842769952159505e6 0.0
0.0 0.0 0.0

-3.1269834450471355e6 1.7267734957550578e7 0.0
1.7267734957550578e7 -2.445338530604367e6 0.0
0.0 0.0 0.0

-2.9026157119068657e6 2.2829955952931315e7 0.0
2.2829955952931315e7 265170.9083320999 0.0
0.0 0.0 0.0

-6.073634750488981e6 7.93985165356452e6 0.0
7.93985165356452e6 5.644115727959333e6 0.0
0.0 0.0 0.0

-8.526449382271849e6 1.2549322009574374e7 0.0
1.2549322009574374e7 1.5340994939657029e7 0.0
0.0 0.0 0.0

-3.268990530221895e6 2.245877606410858e7 0.0
2.245877606410858e7 1.5133574275886565e6 0.0
0.0 0.0 0.0

152835.28448959207 1.9463265039490234e7 0.0
1.9463265039490234e7 -7.934330001305297e6 0.0
0.0 0.0 0.0

8.107539484162069e6 1.972422141874454e7 0.0
1.972422141874454e7 9.885750113345707e6 0.0
0.0 0.0 0.0

-3.884956838362822e6 1.470337210504622e7 0.0
1.470337210504622e7 3.868712904970855e6 0.0
0.0 0.0 0.0

2.477444780697749e6 2.1643395640724517e7 0.0
2.1643395640724517e7 -5.356164926194489e6 0.0
0.0 0.0 0.0

-4.424749570946418e6 1.563974673365086e7 0.0
1.563974673365086e7 6.129011754536426e6 0.0
0.0 0.0 0.0

-8.081904217602269e6 1.424991549723381e7 0.0
1.424991549723381e7 1.5605914672938716e7 0.0
0.0 0.0 0.0

-4.96679373146905e6 8.900657683434943e6 0.0
8.900657683434943e6 7.085081618615203e6 0.0
0.0 0.0 0.0

-3.10286345589106e6 2.2656717114917964e7 0.0
2.2656717114917964e7 844132.5242115827 0.0
0.0 0.0 0.0

4.244938207656047e6 6.1335286777552655e6 0.0
6.1335286777552655e6 -1.967587344104225e7 0.0
0.0 0.0 0.0

3.7176859782461505e6 7.766697537037475e6 0.0
7.766697537037475e6 -1.8566027502838705e7 0.0
0.0 0.0 0.0

-4.288107159518102e6 2.187208210516752e7 0.0
2.187208210516752e7 7.887396685133632e6 0.0
0.0 0.0 0.0

37742.426583023276 1.0935041009241587e7 0.0
1.0935041009241587e7 -6.210453906069651e6 0.0
0.0 0.0 0.0

2.470372328708225e6 1.0195020720123436e7 0.0
1.0195020720123436e7 -1.3766423620770514e7 0.0
0.0 0.0 0.0

-1.9865445971791134e6 2.445256611972601e7 0.0
2.445256611972601e7 -344022.1257241248 0.0
0.0 0.0 0.0

-1.7659881397532271e6 2.254157161936841e7 0.0
2.254157161936841e7 -1.2484471941675006e6 0.0
0.0 0.0 0.0

-1.9688914951290586e6 1.835531731329738e7 0.0
1.835531731329738e7 -5.90510370612894e6 0.0
0.0 0.0 0.0

-643430.8063596729 1.5006472314212047e7 0.0
1.5006472314212047e7 -1.9341522147421177e7 0.0
0.0 0.0 0.0

-3.3142228450373393e6 2.473198968694223e7 0.0
2.473198968694223e7 2.0578123567074372e6 0.0
0.0 0.0 0.0

-8.362601833902776e6 1.513075282468155e7 0.0
1.513075282468155e7 1.6871528972114664e7 0.0
0.0 0.0 0.0

2.49626021898345e6 6.786817662679629e6 0.0
6.786817662679629e6 -1.2518363939909551e7 0.0
0.0 0.0 0.0

-700293.39241175 2.622541311584553e7 0.0
2.622541311584553e7 -406999.36993077374 0.0
0.0 0.0 0.0

-3.6365118243066426e6 1.864388357898403e7 0.0
1.864388357898403e7 9.98942986359512e6 0.0
0.0 0.0 0.0

-1.6649247452301038e6 2.2143557056980647e7 0.0
2.2143557056980647e7 -1.9585486506613633e6 0.0
0.0 0.0 0.0

-58582.72546268022 1.649959545724349e7 0.0
1.649959545724349e7 -1.214732702923542e7 0.0
0.0 0.0 0.0

-2.32761278483851e6 2.31220599229938e7 0.0
2.31220599229938e7 732945.6691658426 0.0
0.0 0.0 0.0

-4.5986417645644285e6 1.8992038188150153e7 0.0
1.8992038188150153e7 1.2292872620223723e7 0.0
0.0 0.0 0.0

-2.386708153456917e6 2.3094032063248634e7 0.0
2.3094032063248634e7 -804985.2923309604 0.0
0.0 0.0 0.0

2.898369166245867e6 2.7730606061497442e7 0.0
2.7730606061497442e7 -2.2483557327219686e6 0.0
0.0 0.0 0.0

-1.1770648748158762e7 1.2891995159467835e7 0.0
1.2891995159467835e7 2.080451729215658e7 0.0
0.0 0.0 0.0

2.1306055258044917e6 1.1094575433660178e7 0.0
1.1094575433660178e7 -1.3508945492655922e7 0.0
0.0 0.0 0.0

-1.2309382264565136e7 9.403799824287439e6 0.0
9.403799824287439e6 2.1406883335830048e7 0.0
0.0 0.0 0.0

-9.9369842360016e6 1.1463327950870538e7 0.0
1.1463327950870538e7 1.3314201982392179e7 0.0
0.0 0.0 0.0

-582220.2138981738 -1.2805335955025398e6 0.0
-1.2805335955025398e6 1.1082967148767682e6 0.0
0.0 0.0 0.0

330664.57098223537 -1.874166654747794e6 0.0
-1.874166654747794e6 1.2139457305445657e6 0.0
0.0 0.0 0.0

-1.15950370471991e7 1.3644610535460217e7 0.0
1.3644610535460217e7 2.1187273593773946e7 0.0
0.0 0.0 0.0

7.209446350924558e6 1.8739556135649905e7 0.0
1.8739556135649905e7 7.1358295083943475e6 0.0
0.0 0.0 0.0

-1.0502448630402319e6 2.3245544734389134e7 0.0
2.3245544734389134e7 -1.9516097843976535e6 0.0
0.0 0.0 0.0

-1.423752647270063e6 1.883113559502973e7 0.0
1.883113559502973e7 -5.32147943325199e6 0.0
0.0 0.0 0.0

2.0692469236195954e6 1.1437627237448404e7 0.0
1.1437627237448404e7 -1.4110939493288212e7 0.0
0.0 0.0 0.0

3.9542610617628447e6 1.5951503346387833e7 0.0
1.5951503346387833e7 2.195993980374571e7 0.0
0.0 0.0 0.0

-3.0703827723788554e6 2.515572715120476e7 0.0
2.515572715120476e7 2.993793212483947e6 0.0
0.0 0.0 0.0

-1.918925527067079e6 2.486030891973162e7 0.0
2.486030891973162e7 -273375.681918933 0.0
0.0 0.0 0.0

-1.6366319526257038e6 2.5295186173604276e7 0.0
2.5295186173604276e7 -250350.66521027946 0.0
0.0 0.0 0.0

-6.166861387282183e6 1.6752142469864585e7 0.0
1.6752142469864585e7 1.0500611283890376e7 0.0
0.0 0.0 0.0

-6.094572637037921e6 1.4917831191026505e7 0.0
1.4917831191026505e7 7.770955401616506e6 0.0
0.0 0.0 0.0

-6.937730756131731e6 1.0041404995906765e7 0.0
1.0041404995906765e7 7.450723658630425e6 0.0
0.0 0.0 0.0

-3.9945076487017917e6 1.979991090237766e7 0.0
1.979991090237766e7 8.154604682520047e6 0.0
0.0 0.0 0.0

-5.249487273661083e6 1.434388157174028e7 0.0
1.434388157174028e7 8.755400484400596e6 0.0
0.0 0.0 0.0

-1.1903610820714153e7 1.2745561214110477e7 0.0
1.2745561214110477e7 2.2814929222037606e7 0.0
0.0 0.0 0.0

2.033967376159084e6 1.184517024059667e7 0.0
1.184517024059667e7 -1.4557924327008648e7 0.0
0.0 0.0 0.0

-5.2277001120213885e6 1.8150208848421626e7 0.0
1.8150208848421626e7 8.924116377368005e6 0.0
0.0 0.0 0.0

-1.204606020126579e7 1.1026722018066846e7 0.0
1.1026722018066846e7 2.3709593083132572e7 0.0
0.0 0.0 0.0

1.6474166892268662e6 1.7269220243619014e7 0.0
1.7269220243619014e7 1.1040404490438264e7 0.0
0.0 0.0 0.0

-4.993155126911854e6 1.5679226267742269e7 0.0
1.5679226267742269e7 4.229910862367876e6 0.0
0.0 0.0 0.0

-2.252882787262239e6 2.358568012185051e7 0.0
2.358568012185051e7 867027.8433173128 0.0
0.0 0.0 0.0

-2.386224217315676e6 2.26225163327365e7 0.0
2.26225163327365e7 593767.0517437577 0.0
0.0 0.0 0.0

-4.365361999991836e6 1.954884292397258e7 0.0
1.954884292397258e7 1.1151473460017422e7 0.0
0.0 0.0 0.0

-720922.390344603 1.5605890066974582e7 0.0
1.5605890066974582e7 -1.6485570081072778e7 0.0
0.0 0.0 0.0

-4.227790233431824e6 1.9928761667759832e7 0.0
1.9928761667759832e7 6.10240544864559e6 0.0
0.0 0.0 0.0

-7.399026368546984e6 1.5660978667056454e7 0.0
1.5660978667056454e7 1.5614453142771237e7 0.0
0.0 0.0 0.0

-1.414792509719542e6 1.816986718535361e7 0.0
1.816986718535361e7 -5.615368321188705e6 0.0
0.0 0.0 0.0

611109.7853306944 2.555181648796944e7 0.0
2.555181648796944e7 -1.5667377091225854e6 0.0
0.0 0.0 0.0

-4.251765561276624e6 2.0154203792343903e7 0.0
2.0154203792343903e7 1.0072522123971533e7 0.0
0.0 0.0 0.0

-1.6318171372449654e6 1.7872388737330694e7 0.0
1.7872388737330694e7 -6.849063905848249e6 0.0
0.0 0.0 0.0

3.49048050217049e6 8.23613222102737e6 0.0
8.23613222102737e6 -1.9125646274923485e7 0.0
0.0 0.0 0.0

-4.977589972661224e6 1.6839982226683598e7 0.0
1.6839982226683598e7 1.013953837893069e7 0.0
0.0 0.0 0.0

1.002816603005935e6 2.1481379222738825e7 0.0
2.1481379222738825e7 -5.601664601502262e6 0.0
0.0 0.0 0.0

2.725853363713172e6 3.4476999910391294e6 0.0
3.4476999910391294e6 -7.248311161045563e6 0.0
0.0 0.0 0.0

3.017634309269974e6 8.300238359782713e6 0.0
8.300238359782713e6 -2.4766024864959825e7 0.0
0.0 0.0 0.0

-570912.0116923172 1.6922835854470585e7 0.0
1.6922835854470585e7 -8.383015790169719e6 0.0
0.0 0.0 0.0

7.079259558785895e6 1.9555036525660094e7 0.0
1.9555036525660094e7 8.773217689052772e6 0.0
0.0 0.0 0.0

2.8864760502229957e6 8.60636485017499e6 0.0
8.60636485017499e6 -1.9715326221924122e7 0.0
0.0 0.0 0.0

2.608110621557857e6 9.557209173258757e6 0.0
9.557209173258757e6 -1.9221215620587807e7 0.0
0.0 0.0 0.0

447832.7966747227 1.6334285486305412e7 0.0
1.6334285486305412e7 4.277764606510537e6 0.0
0.0 0.0 0.0

-1.1717541833104743e7 4.313363434220932e6 0.0
4.313363434220932e6 2.341053856017916e7 0.0
0.0 0.0 0.0

-8.317783342992651e6 1.0238721025286505e7 0.0
1.0238721025286505e7 1.0173727749175755e7 0.0
0.0 0.0 0.0

-6.2952777268874515e6 1.6034138136044977e7 0.0
1.6034138136044977e7 -3.348351104590352e7 0.0
0.0 0.0 0.0

-7.061303553299693e6 1.4547079752204075e7 0.0
1.4547079752204075e7 1.0172257261158526e7 0.0
0.0 0.0 0.0

-1.2669202045065964e7 8.82999965312176e6 0.0
8.82999965312176e6 1.7193601149045907e7 0.0
0.0 0.0 0.0

659472.363603353 1.84329314165616e7 0.0
1.84329314165616e7 8.69084087028793e6 0.0
0.0 0.0 0.0

-8.616355852089724e6 -6.628646074167832e6 0.0
-6.628646074167832e6 2.3202650323375836e7 0.0
0.0 0.0 0.0

-5.47894443631748e6 1.7087091268666133e7 0.0
1.7087091268666133e7 8.380373613162182e6 0.0
0.0 0.0 0.0

-3.8320779512109333e6 2.194514143146841e7 0.0
2.194514143146841e7 6.80553470850979e6 0.0
0.0 0.0 0.0

36515.25811644085 1.5476446678213624e7 0.0
1.5476446678213624e7 -1.2604472643780526e7 0.0
0.0 0.0 0.0

-5.562823927139128e6 -709986.9614884102 0.0
-709986.9614884102 6.205774002750035e6 0.0
0.0 0.0 0.0

-6.378987673081755e6 9.557899658226436e6 0.0
9.557899658226436e6 6.015025103314681e6 0.0
0.0 0.0 0.0

2.1646319089324083e6 7.23905611898906e6 0.0
7.23905611898906e6 -4.022789136655685e7 0.0
0.0 0.0 0.0

2.031028414882497e6 2.5702429327308655e7 0.0
2.5702429327308655e7 -2.379198424571639e6 0.0
0.0 0.0 0.0

-1.0778508263510339e7 1.0365568203714274e7 0.0
1.0365568203714274e7 2.9655192460591193e7 0.0
0.0 0.0 0.0

-3.8357131237902655e6 1.6342912620592164e7 0.0
1.6342912620592164e7 -1.1526781774478044e7 0.0
0.0 0.0 0.0

-1.2944446362960812e7 8.455450293766644e6 0.0
8.455450293766644e6 1.8464188315569002e7 0.0
0.0 0.0 0.0

-8.731746856043331e6 2.219184541483609e7 0.0
2.219184541483609e7 -4.1859285844386127e6 0.0
0.0 0.0 0.0

-778285.4782660068 1.6918132211970918e7 0.0
1.6918132211970918e7 -3.9625402565044803e6 0.0
0.0 0.0 0.0

1.1867667596952668e6 1.6154625346078534e7 0.0
1.6154625346078534e7 1.1570422121956874e7 0.0
0.0 0.0 0.0

3.190141752061939e6 7.708581669555371e6 0.0
7.708581669555371e6 -2.5885631277011443e7 0.0
0.0 0.0 0.0

-4.50542552822586e6 1.5511331248149905e7 0.0
1.5511331248149905e7 -8.528622814315742e6 0.0
0.0 0.0 0.0

2.5430079432763555e6 2.9006146284034252e7 0.0
2.9006146284034252e7 -3.8916800665906826e6 0.0
0.0 0.0 0.0

-5.099132492046487e6 1.7072172986842986e7 0.0
1.7072172986842986e7 1.1006576645552466e7 0.0
0.0 0.0 0.0

-9.16694537866942e6 -5.586247644572316e6 0.0
-5.586247644572316e6 2.6388445150612053e7 0.0
0.0 0.0 0.0

-2.8673112158660823e6 1.722269394066204e7 0.0
1.722269394066204e7 1.2649332029775165e7 0.0
0.0 0.0 0.0

-6.882177212552052e6 2.12217536129002e7 0.0
2.12217536129002e7 -6.276071208466483e6 0.0
0.0 0.0 0.0

-4.8664472463822e6 8.552758085588373e6 0.0
8.552758085588373e6 2.9891271366953477e6 0.0
0.0 0.0 0.0

98155.26863417309 1.6852167150265742e7 0.0
1.6852167150265742e7 2.5233933979339555e7 0.0
0.0 0.0 0.0

-9.774133120621208e6 1.3812939058854112e7 0.0
1.3812939058854112e7 1.4912436213472143e7 0.0
0.0 0.0 0.0

-1.0354464486438936e7 1.1929603882140072e7 0.0
1.1929603882140072e7 1.437058116887848e7 0.0
0.0 0.0 0.0

-1.1237435070129015e7 8.519939363285976e6 0.0
8.519939363285976e6 2.953866640666248e7 0.0
0.0 0.0 0.0

-3.310917163716037e6 1.7385557462217715e7 0.0
1.7385557462217715e7 1.557113041549874e7 0.0
0.0 0.0 0.0

-7.342638372224845e6 2.5266017084232416e7 0.0
2.5266017084232416e7 5.339350404109018e6 0.0
0.0 0.0 0.0

-1.5473477798078046e6 2.6772147380165722e7 0.0
2.6772147380165722e7 -249534.3763714674 0.0
0.0 0.0 0.0

-4.869952997592093e6 1.884996614257166e7 0.0
1.884996614257166e7 8.667408053495036e6 0.0
0.0 0.0 0.0

2.432340990840451e6 3.314993634938873e6 0.0
3.314993634938873e6 -6.380411524551165e6 0.0
0.0 0.0 0.0

2.611198980283615e6 1.0437450230762286e7 0.0
1.0437450230762286e7 -1.5730842265451362e7 0.0
0.0 0.0 0.0

2.177165905466946e6 1.0334578242484407e7 0.0
1.0334578242484407e7 -1.2370417041474964e7 0.0
0.0 0.0 0.0

-6.2776489869278455e6 1.5264580116433665e7 0.0
1.5264580116433665e7 8.85576060348937e6 0.0
0.0 0.0 0.0

-3.5821467399982302e6 3.47334271167599e7 0.0
3.47334271167599e7 -2.946953394069247e6 0.0
0.0 0.0 0.0

-7.150000750546966e6 6.790274002605168e6 0.0
6.790274002605168e6 6.795858858770708e6 0.0
0.0 0.0 0.0

-127323.56571076345 2.404328364348827e7 0.0
2.404328364348827e7 -2.321322225422891e6 0.0
0.0 0.0 0.0

1.1779369096642905e6 2.2179697785913225e7 0.0
2.2179697785913225e7 -4.997295860558802e6 0.0
0.0 0.0 0.0

-3.749727258614982e6 9.373555933175849e6 0.0
9.373555933175849e6 4.23034096141425e6 0.0
0.0 0.0 0.0

-338662.4536698597 1.4844492662259635e7 0.0
1.4844492662259635e7 903176.8955277151 0.0
0.0 0.0 0.0

1.2750028272789491e7 1.8891460695269372e7 0.0
1.8891460695269372e7 8.280713041704357e6 0.0
0.0 0.0 0.0

4.583089983579606e6 1.741369958022726e7 0.0
1.741369958022726e7 2.348960455731191e7 0.0
0.0 0.0 0.0

56074.19994762307 1.6431420935440594e7 0.0
1.6431420935440594e7 1.0157587650271371e7 0.0
0.0 0.0 0.0

-9.49838470143869e6 1.3321424629847743e7 0.0
1.3321424629847743e7 1.4014610335930355e7 0.0
0.0 0.0 0.0

-2.6726550903122355e6 3.2629758879132707e7 0.0
3.2629758879132707e7 -1.9888968141372253e6 0.0
0.0 0.0 0.0

-1.295463199708522e7 2.3090229672995146e7 0.0
2.3090229672995146e7 -3.326636871233354e6 0.0
0.0 0.0 0.0

-1.0628273605608257e7 1.2493404867766354e7 0.0
1.2493404867766354e7 1.5290953704535726e7 0.0
0.0 0.0 0.0

1.4614913964079972e6 1.126916239317728e7 0.0
1.126916239317728e7 -2.6373546593797978e7 0.0
0.0 0.0 0.0

4.805552387422655e6 2.416779224403228e6 0.0
2.416779224403228e6 -2.8909989895131283e7 0.0
0.0 0.0 0.0

908555.9106308203 1.481215380455019e7 0.0
1.481215380455019e7 -1.3246253049750665e7 0.0
0.0 0.0 0.0

2.322832214758654e6 1.0949802101539249e7 0.0
1.0949802101539249e7 -1.4919044635091726e7 0.0
0.0 0.0 0.0

433754.17738508666 1.597470649476026e7 0.0
1.597470649476026e7 -1.1741506708047582e7 0.0
0.0 0.0 0.0

-4.763087676330089e6 3.7364662876555264e7 0.0
3.7364662876555264e7 -4.987631119860981e6 0.0
0.0 0.0 0.0

-3.408987952331101e6 2.0273394472835977e7 0.0
2.0273394472835977e7 3.781480138654144e6 0.0
0.0 0.0 0.0

-576268.8783406895 1.8402349586563986e7 0.0
1.8402349586563986e7 -9.573415103493374e6 0.0
0.0 0.0 0.0

-710235.6637089434 1.7818215906518463e7 0.0
1.7818215906518463e7 -9.912251634639308e6 0.0
0.0 0.0 0.0

2.731611640906276e6 9.656147921523836e6 0.0
9.656147921523836e6 -1.4613557431728097e7 0.0
0.0 0.0 0.0

-4.797804770429607e6 1.9706686916146237e7 0.0
1.9706686916146237e7 9.090238007942978e6 0.0
0.0 0.0 0.0

-1.3216262011846276e6 1.7681428326814216e7 0.0
1.7681428326814216e7 1.3482075935871983e7 0.0
0.0 0.0 0.0

-5.85257586546185e6 2.0395974067299984e7 0.0
2.0395974067299984e7 6.948234464759802e6 0.0
0.0 0.0 0.0

-6.2542903632089235e6 6.898886183035447e6 0.0
6.898886183035447e6 5.728312423324735e7 0.0
0.0 0.0 0.0

-7.749385609105225e6 -2.987767907679186e6 0.0
-2.987767907679186e6 1.4714108419738796e7 0.0
0.0 0.0 0.0

-1.6290987740578378e7 5.4837601537112206e7 0.0
5.4837601537112206e7 -1.763751558218271e7 0.0
0.0 0.0 0.0

1.9706000704209395e6 1.6358578682872958e7 0.0
1.6358578682872958e7 1.4437124111657737e7 0.0
0.0 0.0 0.0

-2.0992173016097047e6 3.1231120399226e7 0.0
3.1231120399226e7 -1.1672824959909534e6 0.0
0.0 0.0 0.0

-13832.574840353802 1.5727221203598542e7 0.0
1.5727221203598542e7 -9.54792687737493e6 0.0
0.0 0.0 0.0

95411.05821071798 1.7847388223165542e7 0.0
1.7847388223165542e7 -9.599678961398764e6 0.0
0.0 0.0 0.0

-3.5514895143992743e6 2.1162848338157516e7 0.0
2.1162848338157516e7 5.529283265800787e6 0.0
0.0 0.0 0.0

4.622644618150629e6 2.961548779222561e6 0.0
2.961548779222561e6 -1.7184001064445455e7 0.0
0.0 0.0 0.0

5.5801058767031785e6 1.699492435224556e7 0.0
1.699492435224556e7 966175.6198099939 0.0
0.0 0.0 0.0

2.5163587184286052e6 1.0874394573322525e7 0.0
1.0874394573322525e7 -1.6262243199806279e7 0.0
0.0 0.0 0.0

1.7285400861828262e6 2.032343626545349e7 0.0
2.032343626545349e7 -6.164108659859657e6 0.0
0.0 0.0 0.0

3.835268104730405e6 7.211364685224683e6 0.0
7.211364685224683e6 -2.5126732513647772e7 0.0
0.0 0.0 0.0

-4.272943995346125e6 1.7973668313379716e7 0.0
1.7973668313379716e7 7.786498094854005e6 0.0
0.0 0.0 0.0

2.9837639533595606e6 6.880565225494721e6 0.0
6.880565225494721e6 -1.0914987195905127e7 0.0
0.0 0.0 0.0

-1.5662641623753407e6 9.929320675314294e6 0.0
9.929320675314294e6 -732217.9192726064 0.0
0.0 0.0 0.0

-1.2302727144882398e7 2.032626489485338e7 0.0
2.032626489485338e7 -3.8318277729169433e6 0.0
0.0 0.0 0.0

3.2031536655230485e6 9.224557090478467e6 0.0
9.224557090478467e6 -1.8684616656028707e7 0.0
0.0 0.0 0.0

-2.8013938564895676e6 1.4821857280122088e7 0.0
1.4821857280122088e7 -3.326790867294159e6 0.0
0.0 0.0 0.0

-1.1222634386376096e6 1.885295320073418e7 0.0
1.885295320073418e7 -8.083801414178642e6 0.0
0.0 0.0 0.0

-3.557445103685297e6 1.7242947543726284e7 0.0
1.7242947543726284e7 1.896175288505193e7 0.0
0.0 0.0 0.0

316160.13324340654 1.6402671175128475e7 0.0
1.6402671175128475e7 -2.1850170825474e6 0.0
0.0 0.0 0.0

-6.776884025731314e6 1.42195297051366e7 0.0
1.42195297051366e7 9.087343894249367e6 0.0
0.0 0.0 0.0

-1.2447936320015918e7 5.82648177992836e6 0.0
5.82648177992836e6 2.541721114864534e7 0.0
0.0 0.0 0.0

-2.9666130682637533e6 1.7501094145058896e7 0.0
1.7501094145058896e7 1.93439928777914e7 0.0
0.0 0.0 0.0

-8.802800361634493e6 1.4916494245620226e7 0.0
1.4916494245620226e7 1.4457726062333833e7 0.0
0.0 0.0 0.0

-1.1677044980884507e7 1.073461529880225e6 0.0
1.073461529880225e6 2.2649020420114268e7 0.0
0.0 0.0 0.0

-5.702088504531734e6 1.6475182018581333e7 0.0
1.6475182018581333e7 1.228022236146516e7 0.0
0.0 0.0 0.0

-5.723465754367461e6 1.8436347189239975e7 0.0
1.8436347189239975e7 1.3434746499806384e7 0.0
0.0 0.0 0.0

-7.019106815227135e6 4.828269394257159e6 0.0
4.828269394257159e6 1.105255211131914e7 0.0
0.0 0.0 0.0

-907629.3578333433 1.834230486369477e7 0.0
1.834230486369477e7 -9.013065164203946e6 0.0
0.0 0.0 0.0

-3.807076100997957e6 2.107246124695174e7 0.0
2.107246124695174e7 3.5252610889066486e6 0.0
0.0 0.0 0.0

-8.83377829114163e6 1.537594727137315e7 0.0
1.537594727137315e7 1.5175255430970998e7 0.0
0.0 0.0 0.0

-1.0985806412501771e7 1.7223091679988357e6 0.0
1.7223091679988357e6 3.311132348870029e7 0.0
0.0 0.0 0.0

-3.0272817737105987e6 1.7972859057857614e7 0.0
1.7972859057857614e7 1.0278012091693215e7 0.0
0.0 0.0 0.0

-9.704939753443755e6 1.1723346554724095e7 0.0
1.1723346554724095e7 1.668896458569837e7 0.0
0.0 0.0 0.0

1.8335236280454174e6 1.1028191045462368e7 0.0
1.1028191045462368e7 -2.4964312945448093e7 0.0
0.0 0.0 0.0

-4.623828070735771e6 1.6709156524507198e7 0.0
1.6709156524507198e7 2.3500281773421355e7 0.0
0.0 0.0 0.0

-1.129123422561811e7 1.357297164422477e7 0.0
1.357297164422477e7 1.98095732709288e7 0.0
0.0 0.0 0.0

2.180001434109887e6 9.92027113809415e6 0.0
9.92027113809415e6 -1.1786625138233008e7 0.0
0.0 0.0 0.0

4.3120282928887205e6 3.9449648509376436e6 0.0
3.9449648509376436e6 -2.3454829829314508e7 0.0
0.0 0.0 0.0

285616.9783507511 1.6774010233729044e7 0.0
1.6774010233729044e7 1.8961438163679767e7 0.0
0.0 0.0 0.0

-1.9203613379065245e6 1.706050723471213e7 0.0
1.706050723471213e7 2.11990440800441e7 0.0
0.0 0.0 0.0

-668897.7214783176 1.5292816182884447e7 0.0
1.5292816182884447e7 -6.949901722399815e6 0.0
0.0 0.0 0.0

-4.1546816952040857e6 2.0797443841622524e7 0.0
2.0797443841622524e7 9.138391341683293e6 0.0
0.0 0.0 0.0

-1.5082078362416313e6 2.8539436917812794e7 0.0
2.8539436917812794e7 -509918.3442600782 0.0
0.0 0.0 0.0

21867.551841881592 1.692017108243247e7 0.0
1.692017108243247e7 -1.1261944412596641e7 0.0
0.0 0.0 0.0

-8.822476905530425e6 -2.0738608769758807e6 0.0
-2.0738608769758807e6 1.586796757585986e7 0.0
0.0 0.0 0.0

1.2444230638730424e6 1.2700771743547978e7 0.0
1.2700771743547978e7 -2.1620346017703556e7 0.0
0.0 0.0 0.0

-4.590371125859658e6 1.871715695291817e7 0.0
1.871715695291817e7 1.087409778812869e7 0.0
0.0 0.0 0.0

-1.1740274266736483e7 1.2227568514436586e7 0.0
1.2227568514436586e7 2.0322977885700144e7 0.0
0.0 0.0 0.0

1.9961590312844145e6 1.4219932775211848e7 0.0
1.4219932775211848e7 7.880777370893314e6 0.0
0.0 0.0 0.0

2.4634152181023564e6 8.970229002451187e6 0.0
8.970229002451187e6 -2.891204696077889e7 0.0
0.0 0.0 0.0

2.0091660916398792e6 1.093583730332581e7 0.0
1.093583730332581e7 -2.3491872790603947e7 0.0
0.0 0.0 0.0

3.394685378355017e6 3.0152962870802224e7 0.0
3.0152962870802224e7 -4.936741529146685e6 0.0
0.0 0.0 0.0

-3.2258292882535914e6 2.06028993459738e7 0.0
2.06028993459738e7 2.9678903416926772e6 0.0
0.0 0.0 0.0

-3.4294890361466464e6 2.1547261667309847e7 0.0
2.1547261667309847e7 4.74744120692285e6 0.0
0.0 0.0 0.0

-2.727082695890845e6 2.147756765668179e7 0.0
2.147756765668179e7 -1.5964975567264648e6 0.0
0.0 0.0 0.0

4.257048158883875e6 4.482668017660649e6 0.0
4.482668017660649e6 -1.4439057273777802e7 0.0
0.0 0.0 0.0

-1.0596525564800322e6 1.3950704423561994e7 0.0
1.3950704423561994e7 -6.448348959641552e6 0.0
0.0 0.0 0.0

-4.477497765760247e6 1.860268917472774e7 0.0
1.860268917472774e7 1.0184922922709212e7 0.0
0.0 0.0 0.0

-220301.28002249217 1.880916543501395e7 0.0
1.880916543501395e7 -8.902838747359328e6 0.0
0.0 0.0 0.0

-1.4312414869493637e6 2.785881424072305e7 0.0
2.785881424072305e7 -330796.6784314809 0.0
0.0 0.0 0.0

-5.32862284954768e6 7.732902293008082e6 0.0
7.732902293008082e6 8.2601831898904815e6 0.0
0.0 0.0 0.0

-1.2960799417599343e7 7.718052789082174e6 0.0
7.718052789082174e6 2.1137844153226897e7 0.0
0.0 0.0 0.0

-1.4734776516949865e6 2.7306065028103538e7 0.0
2.7306065028103538e7 -187701.34683962679 0.0
0.0 0.0 0.0

-1.2968393297378984e6 1.9386623273360115e7 0.0
1.9386623273360115e7 -7.201793228331995e6 0.0
0.0 0.0 0.0

2.032535021435936e6 1.003286268749085e7 0.0
1.003286268749085e7 -1.5218519494902473e7 0.0
0.0 0.0 0.0

-5.737597566499929e6 1.5003876120450838e7 0.0
1.5003876120450838e7 1.0885050998434527e7 0.0
0.0 0.0 0.0

2.6053103845335077e6 8.366556641086992e6 0.0
8.366556641086992e6 -3.0209106362638358e7 0.0
0.0 0.0 0.0

-2.102475478082384e6 2.4461931037296064e7 0.0
2.4461931037296064e7 1.0539570948870834e6 0.0
0.0 0.0 0.0

-3.6761746568648284e6 1.883051385483141e7 0.0
1.883051385483141e7 8.206630379352618e6 0.0
0.0 0.0 0.0

968000.5989128165 1.1923365882767348e7 0.0
1.1923365882767348e7 -2.654414123111412e7 0.0
0.0 0.0 0.0

-3.9854943842244437e6 2.1985345400574334e7 0.0
2.1985345400574334e7 5.064470759085596e6 0.0
0.0 0.0 0.0

-1.2804572089494819e7 7.550067924743151e6 0.0
7.550067924743151e6 2.254122133890645e7 0.0
0.0 0.0 0.0

1.7349580369469188e6 9.77031120597888e6 0.0
9.77031120597888e6 -1.3249153784388531e7 0.0
0.0 0.0 0.0

50931.98763869237 1.7650473680371784e7 0.0
1.7650473680371784e7 8.599717583886167e6 0.0
0.0 0.0 0.0

-3.681071272963568e6 2.0158372781292032e7 0.0
2.0158372781292032e7 6.454960418655412e6 0.0
0.0 0.0 0.0

379717.77596238814 1.2658125058170076e7 0.0
1.2658125058170076e7 -2.6155662857899744e7 0.0
0.0 0.0 0.0

-6.112072059188139e6 4.098931903496093e7 0.0
4.098931903496093e7 -8.058811287729211e6 0.0
0.0 0.0 0.0

-1.0631738445220117e7 1.4809692141309252e7 0.0
1.4809692141309252e7 1.7994058425356224e7 0.0
0.0 0.0 0.0

-7.272661863236373e6 1.6050596783272585e7 0.0
1.6050596783272585e7 -4.0036011342944376e7 0.0
0.0 0.0 0.0

-4.162750903654576e6 8.486836886575988e6 0.0
8.486836886575988e6 5.386165180843863e6 0.0
0.0 0.0 0.0

-5.589165980875442e6 1.7343216862065356e7 0.0
1.7343216862065356e7 9.275635226497358e6 0.0
0.0 0.0 0.0

-7.434784084926215e6 1.6323393861275569e7 0.0
1.6323393861275569e7 2.2888719663918376e7 0.0
0.0 0.0 0.0

-6.166823877518021e6 1.3911927812960805e7 0.0
1.3911927812960805e7 1.1272311868764553e7 0.0
0.0 0.0 0.0

-3.769129348348532e6 1.4862148734710546e7 0.0
1.4862148734710546e7 4.416335722754885e7 0.0
0.0 0.0 0.0

-4.569521949510625e6 1.7428234434084613e7 0.0
1.7428234434084613e7 8.913782191443413e6 0.0
0.0 0.0 0.0

-414181.2130889213 1.5223978862599647e7 0.0
1.5223978862599647e7 -1.823168118708862e7 0.0
0.0 0.0 0.0

128885.94140147511 1.735067973892271e7 0.0
1.735067973892271e7 -1.1688673731216341e7 0.0
0.0 0.0 0.0

1.115998895423218e8 2.0032468223887503e7 0.0
2.0032468223887503e7 9.452081806151088e6 0.0
0.0 0.0 0.0

-9.239629900320264e6 -5.337568948567769e6 0.0
-5.337568948567769e6 2.7489297142009687e7 0.0
0.0 0.0 0.0

4.860186003197446e6 2.4982387334498926e6 0.0
2.4982387334498926e6 -2.6523132382270195e7 0.0
0.0 0.0 0.0

-6.312240089115551e6 1.804909815382903e6 0.0
1.804909815382903e6 7.236474910293667e6 0.0
0.0 0.0 0.0

-2.5598435537157487e6 2.1011694482370917e7 0.0
2.1011694482370917e7 -2.410885059662563e6 0.0
0.0 0.0 0.0

-9.034828435549546e6 -3.635183093719235e6 0.0
-3.635183093719235e6 3.5959349010724865e7 0.0
0.0 0.0 0.0

-4.801500121613968e6 1.4753657209666248e7 0.0
1.4753657209666248e7 -2.436049554127324e7 0.0
0.0 0.0 0.0

-1.2135788606901426e7 1.0536674531221434e7 0.0
1.0536674531221434e7 2.0635254791749883e7 0.0
0.0 0.0 0.0

-8.946229544585757e6 1.5759851050752645e7 0.0
1.5759851050752645e7 1.577594013114093e7 0.0
0.0 0.0 0.0

4.741520221169556e6 2.362181672542271e6 0.0
2.362181672542271e6 -2.973624031055689e7 0.0
0.0 0.0 0.0

671236.5303765801 1.5288408450305615e7 0.0
1.5288408450305615e7 -1.2317808489906373e7 0.0
0.0 0.0 0.0

-1.673223519702652e6 2.9360504243088964e7 0.0
2.9360504243088964e7 -441191.5862546293 0.0
0.0 0.0 0.0

1.3428122868134063e6 1.032616200872188e7 0.0
1.032616200872188e7 -1.2437164543876965e7 0.0
0.0 0.0 0.0

-1.9700071703267347e6 1.834210899206289e7 0.0
1.834210899206289e7 -2.9983820375820613e6 0.0
0.0 0.0 0.0

-2.345267441958327e6 7.493255347769005e6 0.0
7.493255347769005e6 8.28566049510166e7 0.0
0.0 0.0 0.0

-623410.9903228357 7.710392715652739e6 0.0
7.710392715652739e6 -7.007185085765144e7 0.0
0.0 0.0 0.0

-3.331292613613652e6 1.511587633976134e7 0.0
1.511587633976134e7 -5.7859378436827525e7 0.0
0.0 0.0 0.0

1.3600030932281986e6 1.3892381608987456e7 0.0
1.3892381608987456e7 -1.5053190199851006e7 0.0
0.0 0.0 0.0

3.715553546722276e6 6.574315116010001e6 0.0
6.574315116010001e6 -3.225839339750799e7 0.0
0.0 0.0 0.0

-1.9292663152376946e7 2.365581263432498e7 0.0
2.365581263432498e7 4.351140587248956e6 0.0
0.0 0.0 0.0

-359590.22546105273 1.8337147428127345e7 0.0
1.8337147428127345e7 -9.841951791807054e6 0.0
0.0 0.0 0.0

-9.169209017353885e6 -5.146897647914009e6 0.0
-5.146897647914009e6 2.84933584923308e7 0.0
0.0 0.0 0.0

-7.024497468316816e6 9.772642730466912e6 0.0
9.772642730466912e6 1.00329506961249e7 0.0
0.0 0.0 0.0

-3.2766850780424788e6 2.1894811264637064e7 0.0
2.1894811264637064e7 3.9641569891942116e6 0.0
0.0 0.0 0.0

-5.008126540600313e6 1.9045161637018126e7 0.0
1.9045161637018126e7 9.398989403940316e6 0.0
0.0 0.0 0.0

-8.806352977578718e6 1.2474147601127265e7 0.0
1.2474147601127265e7 1.1924724285412153e7 0.0
0.0 0.0 0.0

-6.221821949857559e6 6.207987319520338e6 0.0
6.207987319520338e6 1.0041581934824152e7 0.0
0.0 0.0 0.0

4.37169653867751e6 1.7029892971605215e7 0.0
1.7029892971605215e7 2.870120752222238e6 0.0
0.0 0.0 0.0

-1.509609301009123e6 1.9946567602866e7 0.0
1.9946567602866e7 -6.331449145391218e6 0.0
0.0 0.0 0.0

-1.5778116740811511e6 5.965580695238559e6 0.0
5.965580695238559e6 -1.6816357023531336e6 0.0
0.0 0.0 0.0

-1.5016134117061659e6 2.2663995842611186e7 0.0
2.2663995842611186e7 -1.7647386654521553e6 0.0
0.0 0.0 0.0

-1.2132153136096481e7 1.3636882384773917e7 0.0
1.3636882384773917e7 1.93565171984991e7 0.0
0.0 0.0 0.0

-5.508519058762355e6 1.4703613628484821e7 0.0
1.4703613628484821e7 9.83839979496042e6 0.0
0.0 0.0 0.0

-9.130130854654927e6 -4.825543158422587e6 0.0
-4.825543158422587e6 2.953871550419852e7 0.0
0.0 0.0 0.0

4.766389857638283e6 2.450450174155293e6 0.0
2.450450174155293e6 -2.8101947496692088e7 0.0
0.0 0.0 0.0

3.575595063863974e6 6.80476372992987e6 0.0
6.80476372992987e6 -3.4301962737388924e7 0.0
0.0 0.0 0.0

-1.2993573470683627e7 9.41812393741744e6 0.0
9.41812393741744e6 1.9068545193107143e7 0.0
0.0 0.0 0.0

1.414983266894769e6 5.010466528776893e6 0.0
5.010466528776893e6 -6.014256770703669e7 0.0
0.0 0.0 0.0

-7.97835551471781e6 -1.6229663836719717e6 0.0
-1.6229663836719717e6 4.8323425064629935e7 0.0
0.0 0.0 0.0

2.2955249022696204e6 9.509659306627147e6 0.0
9.509659306627147e6 -1.6087015664931506e7 0.0
0.0 0.0 0.0

3.4600004788894337e6 8.360686681293682e6 0.0
8.360686681293682e6 -1.770075310189805e7 0.0
0.0 0.0 0.0

1.9065187922442718e6 2.7142027820429083e7 0.0
2.7142027820429083e7 -1.9872454821697888e6 0.0
0.0 0.0 0.0

-5.984026474084688e6 2.5175462585257452e7 0.0
2.5175462585257452e7 5.755823848219259e6 0.0
0.0 0.0 0.0

-3.9113493027601326e6 1.9746386970532514e7 0.0
1.9746386970532514e7 7.296350576224387e6 0.0
0.0 0.0 0.0

-1.2962296988568273e6 2.176586086335814e7 0.0
2.176586086335814e7 -3.2929068346188883e6 0.0
0.0 0.0 0.0

-1.9649143508704742e6 2.785322494265821e7 0.0
2.785322494265821e7 1.7197651277491385e6 0.0
0.0 0.0 0.0

-3.788764486292203e6 2.0870682406755723e7 0.0
2.0870682406755723e7 7.105729472534204e6 0.0
0.0 0.0 0.0

-739813.6493088403 1.6721860854422858e7 0.0
1.6721860854422858e7 8.615085626997894e6 0.0
0.0 0.0 0.0

2.9952182664107457e6 2.995132259917972e6 0.0
2.995132259917972e6 -4.988911089707456e7 0.0
0.0 0.0 0.0

4.630471026337737e6 2.186066987218431e6 0.0
2.186066987218431e6 -3.313817303987461e7 0.0
0.0 0.0 0.0

3.8947014410950206e6 2.319167171332425e6 0.0
2.319167171332425e6 -4.279303188582278e7 0.0
0.0 0.0 0.0

-3.3269862840881837e6 2.1939136830782946e7 0.0
2.1939136830782946e7 1.3682083402098378e6 0.0
0.0 0.0 0.0

-5.70127719720402e6 9.038683751468847e6 0.0
9.038683751468847e6 4.535725272160384e6 0.0
0.0 0.0 0.0

-8.81327470388913e6 -3.410590782167142e6 0.0
-3.410590782167142e6 3.70169884342065e7 0.0
0.0 0.0 0.0

-1.2771425998206176e7 9.609661349825364e6 0.0
9.609661349825364e6 1.7887489205155354e7 0.0
0.0 0.0 0.0

4.536135683304928e6 4.049317657428766e6 0.0
4.049317657428766e6 -1.868727657275379e7 0.0
0.0 0.0 0.0

-1.194467198719668e7 2.3510779958971698e7 0.0
2.3510779958971698e7 5.5078949714712845e6 0.0
0.0 0.0 0.0

-4.750244965144952e6 1.520664948261056e7 0.0
1.520664948261056e7 -2.1129942607015796e7 0.0
0.0 0.0 0.0

-8.94891510144656e6 -6.429547876607433e6 0.0
-6.429547876607433e6 2.277744143595102e7 0.0
0.0 0.0 0.0

-1.1510879265118642e7 1.864129527273848e6 0.0
1.864129527273848e6 1.6317721169303333e7 0.0
0.0 0.0 0.0

-1.2428835167734627e7 7.1081986189141115e6 0.0
7.1081986189141115e6 2.5931742486389663e7 0.0
0.0 0.0 0.0

-5.541100216854097e6 1.7771762131016042e7 0.0
1.7771762131016042e7 1.5520228563377045e7 0.0
0.0 0.0 0.0

1.930787296983758e6 1.1386165703417849e7 0.0
1.1386165703417849e7 -2.109195866841878e7 0.0
0.0 0.0 0.0

3.6524490821498837e6 2.651295598102001e6 0.0
2.651295598102001e6 -4.720006386182948e7 0.0
0.0 0.0 0.0

4.78107556313611e6 2.6259027234897995e6 0.0
2.6259027234897995e6 -2.4258602443908766e7 0.0
0.0 0.0 0.0

6.682698985728549e6 2.879046588366734e7 0.0
2.879046588366734e7 -6.881264820046904e6 0.0
0.0 0.0 0.0

-8.2718653183610365e6 -1.8949361735429813e6 0.0
-1.8949361735429813e6 4.631573209803661e7 0.0
0.0 0.0 0.0

3.3884824334251527e6 7.837172840551354e6 0.0
7.837172840551354e6 -2.9444901043372452e7 0.0
0.0 0.0 0.0

-6.917435213389233e6 1.3315580899134572e6 0.0
1.3315580899134572e6 6.278928118172578e7 0.0
0.0 0.0 0.0

2.6979346080188975e6 3.637710742914187e6 0.0
3.637710742914187e6 -5.394042851449868e7 0.0
0.0 0.0 0.0

-4.0377074778053677e6 2.194393776990683e7 0.0
2.194393776990683e7 7.401044999357645e6 0.0
0.0 0.0 0.0

-863112.0208948639 1.1162792209196538e7 0.0
1.1162792209196538e7 -6.214706077870443e6 0.0
0.0 0.0 0.0

-732707.3347809743 1.602028444090326e7 0.0
1.602028444090326e7 -9.950040049019413e6 0.0
0.0 0.0 0.0

459243.56353232265 1.4942619367590662e7 0.0
1.4942619367590662e7 -1.6221750857686229e7 0.0
0.0 0.0 0.0

-7.666878172921687e6 -1.2436228692055629e6 0.0
-1.2436228692055629e6 5.088546482625016e7 0.0
0.0 0.0 0.0

3.6845403479326684e6 2.5057260058096256e6 0.0
2.5057260058096256e6 -4.4802598827122e7 0.0
0.0 0.0 0.0

-1.1443966648214903e7 1.4526013533090262e7 0.0
1.4526013533090262e7 1.9941053582208e7 0.0
0.0 0.0 0.0

-1.2286164195759714e7 1.2973167650044212e7 0.0
1.2973167650044212e7 1.893327127451648e7 0.0
0.0 0.0 0.0

-1.2786314181249028e7 8.626000930555671e6 0.0
8.626000930555671e6 2.3027699340601474e7 0.0
0.0 0.0 0.0

-7.043589996822516e6 1.305406805552895e7 0.0
1.305406805552895e7 1.2835068143318776e7 0.0
0.0 0.0 0.0

1.0292860964412931e6 1.7174252654640675e7 0.0
1.7174252654640675e7 2.5721874677163426e7 0.0
0.0 0.0 0.0

-806953.0717806478 2.0387411259822454e7 0.0
2.0387411259822454e7 -5.635555122966654e6 0.0
0.0 0.0 0.0

-3.074221079590882e6 2.31642417224382e7 0.0
2.31642417224382e7 1.005226920018164e6 0.0
0.0 0.0 0.0

-1.2620858051850153e6 2.143448298820625e7 0.0
2.143448298820625e7 -4.620828121124227e6 0.0
0.0 0.0 0.0

2.949876978841083e6 9.525143435339805e6 0.0
9.525143435339805e6 -1.6011251775348753e7 0.0
0.0 0.0 0.0

-3.9140538948194208e6 2.3949033451464493e7 0.0
2.3949033451464493e7 5.122582063627489e6 0.0
0.0 0.0 0.0

-1.1203805942253815e6 1.754199180023341e7 0.0
1.754199180023341e7 -4.292582734578369e6 0.0
0.0 0.0 0.0

1.8205478455271386e6 1.3000934943665579e7 0.0
1.3000934943665579e7 -1.685043194194138e7 0.0
0.0 0.0 0.0

-1.1486201177529115e7 1.2947093076608717e7 0.0
1.2947093076608717e7 2.4157215818686754e7 0.0
0.0 0.0 0.0

-1.2920677241691332e7 1.026341250070514e7 0.0
1.026341250070514e7 1.9688793610642206e7 0.0
0.0 0.0 0.0

2.7682871984499143e6 8.7956760554763e6 0.0
8.7956760554763e6 -1.8383917497508965e7 0.0
0.0 0.0 0.0

-9.1754209249611e6 -4.259432229651089e6 0.0
-4.259432229651089e6 3.2668594430293646e7 0.0
0.0 0.0 0.0

4.681864981204249e6 2.348859444768865e6 0.0
2.348859444768865e6 -3.0556203282304317e7 0.0
0.0 0.0 0.0

-2.322930121018476e6 1.726029757621018e7 0.0
1.726029757621018e7 1.6678017524765536e7 0.0
0.0 0.0 0.0

-8.361285399130514e6 -2.177239622128905e6 0.0
-2.177239622128905e6 4.4409596986344464e7 0.0
0.0 0.0 0.0

4.0917067326702233e6 2.270543244999695e6 0.0
2.270543244999695e6 -3.96844916374826e7 0.0
0.0 0.0 0.0

4.607566252788547e6 2.358622638385676e6 0.0
2.358622638385676e6 -3.136126252657657e7 0.0
0.0 0.0 0.0

-9.082907337055001e6 -4.0219884534307034e6 0.0
-4.0219884534307034e6 3.3694877918584615e7 0.0
0.0 0.0 0.0

-6.797973502432145e6 1.5146860603792092e7 0.0
1.5146860603792092e7 2.9223221938996952e7 0.0
0.0 0.0 0.0

4.284014387171643e6 2.2160749331088597e6 0.0
2.2160749331088597e6 -3.8479474936583504e7 0.0
0.0 0.0 0.0

-8.446249060475253e6 -2.5263480685461983e6 0.0
-2.5263480685461983e6 4.257272341391413e7 0.0
0.0 0.0 0.0

-5.795337850224753e6 1.7722875138674997e7 0.0
1.7722875138674997e7 1.714525860700778e7 0.0
0.0 0.0 0.0

-9.92884427364233e6 -2.1642971103243358e6 0.0
-2.1642971103243358e6 2.9489098087234564e7 0.0
0.0 0.0 0.0

-9.079903788132912e6 -3.7787455491462117e6 0.0
-3.7787455491462117e6 3.4882791569859385e7 0.0
0.0 0.0 0.0

4.74159155635678e6 2.306870096110008e6 0.0
2.306870096110008e6 -3.231886947147861e7 0.0
0.0 0.0 0.0

4.348483826495113e6 2.250952753322432e6 0.0
2.250952753322432e6 -3.7276033392997466e7 0.0
0.0 0.0 0.0

-8.595640150044255e6 -2.819551249542566e6 0.0
-2.819551249542566e6 4.099641705957341e7 0.0
0.0 0.0 0.0

-2.198743069451729e8 5.011268725026324e7 0.0
5.011268725026324e7 -2.3741620892093137e7 0.0
0.0 0.0 0.0

1.8778462110971564e8 3.592864234213832e7 0.0
3.592864234213832e7 1.4178704791196741e7 0.0
0.0 0.0 0.0

-9.156743953610756e6 1.289408680748475e7 0.0
1.289408680748475e7 1.3004296266264727e7 0.0
0.0 0.0 0.0

4.297613849069318e6 2.2010257922051963e6 0.0
2.2010257922051963e6 -3.611384884830143e7 0.0
0.0 0.0 0.0

-8.79647197519048e6 -2.9863590193778896e6 0.0
-2.9863590193778896e6 3.972367105465772e7 0.0
0.0 0.0 0.0

275379.8835826594 1.5308705836178852e7 0.0
1.5308705836178852e7 -1.6734521547741126e6 0.0
0.0 0.0 0.0

-1.274368957216385e7 1.1346234349030517e7 0.0
1.1346234349030517e7 1.906157157830129e7 0.0
0.0 0.0 0.0

-3.0948679872131553e6 2.2222353578064423e7 0.0
2.2222353578064423e7 3.260861578554051e6 0.0
0.0 0.0 0.0

-1.5725411049365764e6 1.7713080410778392e7 0.0
1.7713080410778392e7 1.7343438464266762e7 0.0
0.0 0.0 0.0

-8.845207500903726e6 -3.1425530361689916e6 0.0
-3.1425530361689916e6 3.839598646412203e7 0.0
0.0 0.0 0.0

4.4831325938868e6 2.1237047520393543e6 0.0
2.1237047520393543e6 -3.519752128201835e7 0.0
0.0 0.0 0.0

-1.6205255668367182e6 2.047153788184724e7 0.0
2.047153788184724e7 -5.46434217605777e6 0.0
0.0 0.0 0.0

-5.143992528507404e6 1.550593888952092e7 0.0
1.550593888952092e7 -4.170420565800134e7 0.0
0.0 0.0 0.0

-2.255511617419799e6 2.2723752506580684e7 0.0
2.2723752506580684e7 -1.52898377237918e6 0.0
0.0 0.0 0.0

1.1734296887432188e6 1.4358867183471303e7 0.0
1.4358867183471303e7 -1.4132430864998877e7 0.0
0.0 0.0 0.0

983947.3132319981 1.3488458311748397e7 0.0
1.3488458311748397e7 -1.9377399501167253e7 0.0
0.0 0.0 0.0

-671820.6830909504 1.6609047168902159e7 0.0
1.6609047168902159e7 4.887043375374716e6 0.0
0.0 0.0 0.0

-158479.5771740498 2.0376272046127178e7 0.0
2.0376272046127178e7 -6.889217670533655e6 0.0
0.0 0.0 0.0

-255447.11529199267 1.8794521872210506e7 0.0
1.8794521872210506e7 -8.73612033516515e6 0.0
0.0 0.0 0.0

-3.2674272999727353e6 1.440463895025383e7 0.0
1.440463895025383e7 -3.243941017095103e7 0.0
0.0 0.0 0.0

-2.5699874384650374e6 2.2951897755669706e7 0.0
2.2951897755669706e7 1.331823895453896e6 0.0
0.0 0.0 0.0

-4.447990577324504e6 1.9425374244867466e7 0.0
1.9425374244867466e7 7.898230064075698e6 0.0
0.0 0.0 0.0

-4.806345275194035e6 2.0454331564549863e7 0.0
2.0454331564549863e7 -7.901344827233627e6 0.0
0.0 0.0 0.0

725442.5231616516 1.3842179214789463e7 0.0
1.3842179214789463e7 -1.937836486706128e7 0.0
0.0 0.0 0.0

-1.2243159872593416e7 9.960405567484474e6 0.0
9.960405567484474e6 1.6475012432490475e7 0.0
0.0 0.0 0.0

1.212161407835726e6 1.5869568741063012e7 0.0
1.5869568741063012e7 8.159233896837198e6 0.0
0.0 0.0 0.0

-1.1642246116483072e7 1.1609644741287766e7 0.0
1.1609644741287766e7 1.6352467897653975e7 0.0
0.0 0.0 0.0

-2.2158624112293394e6 1.616885248365021e7 0.0
1.616885248365021e7 -2.255944100420971e6 0.0
0.0 0.0 0.0

-2.7363125326421717e6 2.2764343385809273e7 0.0
2.2764343385809273e7 2.0200902288136168e6 0.0
0.0 0.0 0.0

-693767.1671602717 1.4013979601153653e7 0.0
1.4013979601153653e7 -2.349892206416587e7 0.0
0.0 0.0 0.0

-4.678901493440969e6 1.784112623362279e7 0.0
1.784112623362279e7 1.6466612331600683e7 0.0
0.0 0.0 0.0

-2.1353390343156746e6 2.8481107169199333e7 0.0
2.8481107169199333e7 2.0704212468453173e6 0.0
0.0 0.0 0.0

-3.041911595043839e6 1.6482677062588373e7 0.0
1.6482677062588373e7 -2.7466402967642075e6 0.0
0.0 0.0 0.0

-1.9115006147280303e6 2.1424225501491267e7 0.0
2.1424225501491267e7 -3.8216416897625965e6 0.0
0.0 0.0 0.0

9.906979348599643e6 1.956760786293278e7 0.0
1.956760786293278e7 8.699744437016632e6 0.0
0.0 0.0 0.0

-2.9376358201656416e6 2.2513002500422057e7 0.0
2.2513002500422057e7 2.6030570739944675e6 0.0
0.0 0.0 0.0

-9.021857358346725e6 1.3157014159356264e7 0.0
1.3157014159356264e7 3.391605275822356e6 0.0
0.0 0.0 0.0

-2.399477534854054e6 2.4282935563665736e7 0.0
2.4282935563665736e7 1.5685016099337847e6 0.0
0.0 0.0 0.0

4.706497206945318e6 2.904478313768955e6 0.0
2.904478313768955e6 -1.955381487394777e7 0.0
0.0 0.0 0.0

4.71976470203571e6 2.967776276520115e6 0.0
2.967776276520115e6 -1.8905331145191625e7 0.0
0.0 0.0 0.0

-1.7144492677117763e6 2.0974822462938026e7 0.0
2.0974822462938026e7 -4.497033961237311e6 0.0
0.0 0.0 0.0

-1.0729764210656667e6 1.7445723788035396e7 0.0
1.7445723788035396e7 2.1768705589082383e7 0.0
0.0 0.0 0.0

-2.03939439460347e6 2.4890263952491708e7 0.0
2.4890263952491708e7 1.2086652850465649e6 0.0
0.0 0.0 0.0

-1.2887503578168815e7 8.810954778067626e6 0.0
8.810954778067626e6 2.165027054473597e7 0.0
0.0 0.0 0.0

-1.9358864195271283e6 2.6835128528621398e7 0.0
2.6835128528621398e7 1.582972400111963e6 0.0
0.0 0.0 0.0

-3.7059872029396584e6 1.8134401580473114e7 0.0
1.8134401580473114e7 1.0241678109573914e7 0.0
0.0 0.0 0.0

-475785.3266414541 1.4625100136201905e7 0.0
1.4625100136201905e7 3.723919526711869e6 0.0
0.0 0.0 0.0

2.433009748726478e6 1.1146238059197493e7 0.0
1.1146238059197493e7 -2.2015716444462273e7 0.0
0.0 0.0 0.0

-3.7607239388159867e6 2.215174437826806e7 0.0
2.215174437826806e7 3.550521932596083e6 0.0
0.0 0.0 0.0

-8.508240312368773e6 -4.915556132484182e6 0.0
-4.915556132484182e6 1.979044524945627e7 0.0
0.0 0.0 0.0

-7.055091184555959e6 1.4199464511574233e7 0.0
1.4199464511574233e7 3.0593947569920864e7 0.0
0.0 0.0 0.0

-2.7053663538514078e6 1.4045284917014008e7 0.0
1.4045284917014008e7 -3.6642300132306755e7 0.0
0.0 0.0 0.0

-1.2067621273759762e7 9.919160843289334e6 0.0
9.919160843289334e6 2.466176819483664e7 0.0
0.0 0.0 0.0

2.975895323148208e6 2.0862695909640573e7 0.0
2.0862695909640573e7 -5.515606579433848e6 0.0
0.0 0.0 0.0

2.354911515849312e6 1.1610208562504245e7 0.0
1.1610208562504245e7 -1.969996034723501e7 0.0
0.0 0.0 0.0

-3.314484346394374e6 1.617812938063385e7 0.0
1.617812938063385e7 -1.9566199271225356e6 0.0
0.0 0.0 0.0

-2.102151988926711e6 2.233238853997147e7 0.0
2.233238853997147e7 -2.2624546593848024e6 0.0
0.0 0.0 0.0

-218633.99957696674 1.4862069470389236e7 0.0
1.4862069470389236e7 -4.872052371925147e6 0.0
0.0 0.0 0.0

-1.2123856193438813e7 9.61255290198013e6 0.0
9.61255290198013e6 2.008265277441633e7 0.0
0.0 0.0 0.0

-1.1863239465317933e7 1.1984594672000417e7 0.0
1.1984594672000417e7 2.3972976368536137e7 0.0
0.0 0.0 0.0

-2.0018218188350452e6 2.1885689220917717e7 0.0
2.1885689220917717e7 -3.0426183134556497e6 0.0
0.0 0.0 0.0

-8.137939106478191e6 1.2122926020619787e7 0.0
1.2122926020619787e7 1.4342582967460314e7 0.0
0.0 0.0 0.0

4.386541110465983e6 4.518414565269296e6 0.0
4.518414565269296e6 -3.0268250560467504e7 0.0
0.0 0.0 0.0

-7.318059109093593e6 1.4870932017913127e7 0.0
1.4870932017913127e7 1.1237160207449827e7 0.0
0.0 0.0 0.0

-773466.2684654207 1.4983446198786357e7 0.0
1.4983446198786357e7 -9.462074771676844e6 0.0
0.0 0.0 0.0

228738.86915052682 1.553428646342286e7 0.0
1.553428646342286e7 812019.8646016193 0.0
0.0 0.0 0.0

-2.4434145764974677e6 1.7630992381066695e7 0.0
1.7630992381066695e7 -9.588555551415136e6 0.0
0.0 0.0 0.0

-1.8743210165895703e6 1.606343028090778e7 0.0
1.606343028090778e7 -6.3504574871176565e6 0.0
0.0 0.0 0.0

857566.2449074797 1.3883073305407342e7 0.0
1.3883073305407342e7 -1.829684339703845e7 0.0
0.0 0.0 0.0

3.2252393049437786e6 7.757842236416022e6 0.0
7.757842236416022e6 -2.2783420803934343e7 0.0
0.0 0.0 0.0

-522733.2497568736 1.4904253627737688e7 0.0
1.4904253627737688e7 -7.2106291669415245e6 0.0
0.0 0.0 0.0

2.243172199770172e6 9.906465444278968e6 0.0
9.906465444278968e6 -1.6615973915239995e7 0.0
0.0 0.0 0.0

4.215050988134926e6 4.231684598653514e6 0.0
4.231684598653514e6 -1.5537592381143935e7 0.0
0.0 0.0 0.0

-3.428140803442264e6 2.2744239824951187e7 0.0
2.2744239824951187e7 2.2232640036375667e6 0.0
0.0 0.0 0.0

-772883.0977345884 1.1571856447107362e7 0.0
1.1571856447107362e7 -7.250549230119343e6 0.0
0.0 0.0 0.0

-5.029128027923005e6 1.7826396349780418e7 0.0
1.7826396349780418e7 1.497323762317764e7 0.0
0.0 0.0 0.0

-3.8417645280092596e6 -5.837976096750025e6 0.0
-5.837976096750025e6 9.999588017185848e6 0.0
0.0 0.0 0.0

2.376762614481082e6 1.692563720971393e7 0.0
1.692563720971393e7 945124.7452956644 0.0
0.0 0.0 0.0

-3.3940223819601927e6 1.8072766758298e7 0.0
1.8072766758298e7 -9.731899122970786e6 0.0
0.0 0.0 0.0

3.0083772691248814e6 8.180937091048181e6 0.0
8.180937091048181e6 -1.922810111710245e7 0.0
0.0 0.0 0.0

-8.424589859751302e7 1.3694906557129571e7 0.0
1.3694906557129571e7 6.80393162372645e6 0.0
0.0 0.0 0.0

-7.275425183637388e6 1.7115351026877943e7 0.0
1.7115351026877943e7 1.806574084415376e7 0.0
0.0 0.0 0.0

404019.3572037015 1.6409173613870824e7 0.0
1.6409173613870824e7 -1.2216528183328656e7 0.0
0.0 0.0 0.0

-1.2674004755157025e6 1.48216934949505e7 0.0
1.48216934949505e7 -7.706119657838617e6 0.0
0.0 0.0 0.0

1.8657606232471596e6 1.252726353532513e7 0.0
1.252726353532513e7 -2.0149725550920468e7 0.0
0.0 0.0 0.0

-22575.2710533035 1.6426960494534142e7 0.0
1.6426960494534142e7 8.594686099080747e6 0.0
0.0 0.0 0.0

1.9418630783876525e6 1.1456170044487555e7 0.0
1.1456170044487555e7 -2.4692506723506458e7 0.0
0.0 0.0 0.0

152341.8689644239 1.6707732397265317e7 0.0
1.6707732397265317e7 1.0014345892861787e7 0.0
0.0 0.0 0.0

281179.34356668126 1.4989185557948789e7 0.0
1.4989185557948789e7 -1.3517811387790611e7 0.0
0.0 0.0 0.0

3.697737970322815e6 7.970831984529619e6 0.0
7.970831984529619e6 -2.0297176426552765e7 0.0
0.0 0.0 0.0

4.199760762011113e6 2.980630442784432e6 0.0
2.980630442784432e6 -3.457587088231312e7 0.0
0.0 0.0 0.0

1.071700545887186e6 2.224220336026163e7 0.0
2.224220336026163e7 -5.099582491422711e6 0.0
0.0 0.0 0.0

2.2802425931633664e6 1.1254862935441157e7 0.0
1.1254862935441157e7 -2.3366716922655493e7 0.0
0.0 0.0 0.0

-4.0486877825241154e6 2.343951663633824e7 0.0
2.343951663633824e7 5.6779262234140355e6 0.0
0.0 0.0 0.0

-6.038907994182946e6 1.897935443585623e7 0.0
1.897935443585623e7 1.5550482775120153e6 0.0
0.0 0.0 0.0

2.586947303074727e6 7.496623204254159e6 0.0
7.496623204254159e6 -1.0129541888904223e7 0.0
0.0 0.0 0.0

-2.5147319458152982e6 2.9161169211598027e7 0.0
2.9161169211598027e7 2.3369971964524933e6 0.0
0.0 0.0 0.0

3.335072291959053e6 8.805599564115986e6 0.0
8.805599564115986e6 -1.8201555314929605e7 0.0
0.0 0.0 0.0

-2.9593677896182183e6 1.617384312989196e7 0.0
1.617384312989196e7 3.0340927203313563e7 0.0
0.0 0.0 0.0

-573324.2797105125 1.6738663345691258e7 0.0
1.6738663345691258e7 1.1847176450934296e6 0.0
0.0 0.0 0.0

-6.258572648484755e6 2.444667814835613e7 0.0
2.444667814835613e7 6.238824410345674e6 0.0
0.0 0.0 0.0

-1.0815705130722495e7 1.0856422238485955e7 0.0
1.0856422238485955e7 1.777691199216765e7 0.0
0.0 0.0 0.0

1.5899666884417161e6 1.228377079684177e7 0.0
1.228377079684177e7 -2.025255141518334e7 0.0
0.0 0.0 0.0

-2.152358206255217e6 9.93209037432103e6 0.0
9.93209037432103e6 -2.686345975605983e6 0.0
0.0 0.0 0.0

-1.2298779319193165e6 1.6540950271112183e7 0.0
1.6540950271112183e7 -5.5953508113157125e6 0.0
0.0 0.0 0.0

8.646510165066004e6 1.7552034298299115e7 0.0
1.7552034298299115e7 816253.551518725 0.0
0.0 0.0 0.0

464452.6855535535 1.6360164884846212e7 0.0
1.6360164884846212e7 -1.3412158376832474e7 0.0
0.0 0.0 0.0

959550.2348131847 8.374774329745317e6 0.0
8.374774329745317e6 -5.8110616780382935e6 0.0
0.0 0.0 0.0

1.1908770010910062e6 1.3094634019663913e7 0.0
1.3094634019663913e7 -1.932003193439836e7 0.0
0.0 0.0 0.0

-9.500376848342583e6 -4.22538991669755e6 0.0
-4.22538991669755e6 2.5550781433937613e7 0.0
0.0 0.0 0.0

-4.97246266591059e6 1.8431679624981135e7 0.0
1.8431679624981135e7 1.3448741411650319e7 0.0
0.0 0.0 0.0

-1.2623208535531033e7 1.2028643739879576e7 0.0
1.2028643739879576e7 1.9652210554695915e7 0.0
0.0 0.0 0.0

-1.238440126019506e7 2.2862013549060505e7 0.0
2.2862013549060505e7 -1.9142660874280385e6 0.0
0.0 0.0 0.0

-2.961505028714711e6 1.456098694576503e7 0.0
1.456098694576503e7 -3.1279722691895224e7 0.0
0.0 0.0 0.0

-3.7890625516471914e6 2.141279459974608e7 0.0
2.141279459974608e7 6.988905493284643e6 0.0
0.0 0.0 0.0

-4.589085627198501e6 2.226251301685221e7 0.0
2.226251301685221e7 6.920885230432892e6 0.0
0.0 0.0 0.0

166972.60478921747 1.890877247684375e7 0.0
1.890877247684375e7 -8.662299243393198e6 0.0
0.0 0.0 0.0

-1.3447256034561526e6 1.3342103727963263e7 0.0
1.3342103727963263e7 -3.2548704022919457e7 0.0
0.0 0.0 0.0

-4.627415267151697e6 1.7553217782849457e7 0.0
1.7553217782849457e7 1.5094251632013109e7 0.0
0.0 0.0 0.0

-1.0717479138144301e7 3.8676360151847755e6 0.0
3.8676360151847755e6 3.4677460751528054e7 0.0
0.0 0.0 0.0

2.4803075181729263e6 3.3256865420121453e6 0.0
3.3256865420121453e6 -7.022455390444139e6 0.0
0.0 0.0 0.0

-438760.21048194915 1.4941199892780365e7 0.0
1.4941199892780365e7 -1.778215181076579e7 0.0
0.0 0.0 0.0

-145972.1945094047 1.9768083860916678e7 0.0
1.9768083860916678e7 -7.653274726747354e6 0.0
0.0 0.0 0.0

-2.3429949665337093e6 1.6966392045593575e7 0.0
1.6966392045593575e7 -1.972697987988667e6 0.0
0.0 0.0 0.0

-429441.45747876726 1.3858542739753252e7 0.0
1.3858542739753252e7 -9.671038485336252e6 0.0
0.0 0.0 0.0

-5.697252671021014e6 1.5256451001349133e7 0.0
1.5256451001349133e7 -2.497379661931862e7 0.0
0.0 0.0 0.0

-1.2591643291181946e7 1.0867759258863054e7 0.0
1.0867759258863054e7 2.2535360773043424e7 0.0
0.0 0.0 0.0

-1.3929304663470592e6 2.4676142260821495e7 0.0
2.4676142260821495e7 7028.356244311377 0.0
0.0 0.0 0.0

-1.8351320274893582e7 2.2353553247798063e7 0.0
2.2353553247798063e7 2.7031704803204285e6 0.0
0.0 0.0 0.0

2.612521095701324e6 1.7396180106316697e7 0.0
1.7396180106316697e7 1.14060578690489e6 0.0
0.0 0.0 0.0

2.0955414629931906e6 7.359968582518195e6 0.0
7.359968582518195e6 -1.1700930119468205e7 0.0
0.0 0.0 0.0

-2.5665086128471475e6 1.6650565735123876e7 0.0
1.6650565735123876e7 -1.1998794433488217e6 0.0
0.0 0.0 0.0

-1.174635316884784e7 8.402846454651799e6 0.0
8.402846454651799e6 2.746051056799916e7 0.0
0.0 0.0 0.0

-4.787608194725297e6 2.4819985356353045e7 0.0
2.4819985356353045e7 5.206895133446143e6 0.0
0.0 0.0 0.0

-5.343488556518954e6 1.757273204673615e7 0.0
1.757273204673615e7 1.593707031716406e7 0.0
0.0 0.0 0.0

-2.8116103355858284e6 2.3310942835821643e7 0.0
2.3310942835821643e7 435015.23246757826 0.0
0.0 0.0 0.0

542163.4086930985 1.4542880532438163e7 0.0
1.4542880532438163e7 -1.4416119294451859e7 0.0
0.0 0.0 0.0

-1.1726329035133239e7 1.0317038995227525e7 0.0
1.0317038995227525e7 2.649809151986702e7 0.0
0.0 0.0 0.0

259732.74525620975 1.520434784184924e7 0.0
1.520434784184924e7 -1.6147971726277184e7 0.0
0.0 0.0 0.0

-4.226879325704044e6 1.8736593339775614e7 0.0
1.8736593339775614e7 -3.040228451060256e6 0.0
0.0 0.0 0.0

-1.4190784164379942e6 2.5034723349935673e7 0.0
2.5034723349935673e7 -30295.96507112088 0.0
0.0 0.0 0.0

3.7842943999050558e6 5.08879555376027e6 0.0
5.08879555376027e6 -1.636831893585324e7 0.0
0.0 0.0 0.0

773158.3630308751 1.838674038844631e7 0.0
1.838674038844631e7 -8.079493763667285e6 0.0
0.0 0.0 0.0

-3.6528577167229597e6 2.1317919641297806e7 0.0
2.1317919641297806e7 6.262978340062335e6 0.0
0.0 0.0 0.0

-1.1597425582304027e7 9.903206331800945e6 0.0
9.903206331800945e6 1.8710417953584567e7 0.0
0.0 0.0 0.0

-3.444760791087134e6 1.9782992204465486e7 0.0
1.9782992204465486e7 -7.181058028513476e6 0.0
0.0 0.0 0.0

-1.2137012670954006e7 1.2904002365064887e7 0.0
1.2904002365064887e7 2.1911710446407586e7 0.0
0.0 0.0 0.0

-2.1581059566213116e6 5.135248443331274e6 0.0
5.135248443331274e6 5.530858392412887e6 0.0
0.0 0.0 0.0

-3.6731427989511294e6 2.0765723659859378e7 0.0
2.0765723659859378e7 6.3136657286464395e6 0.0
0.0 0.0 0.0

-1.3044882990921857e7 9.11570134593483e6 0.0
9.11570134593483e6 2.033859057060022e7 0.0
0.0 0.0 0.0

-5.659871131271444e6 1.7571447820036408e7 0.0
1.7571447820036408e7 1.0138386064880315e7 0.0
0.0 0.0 0.0

1.7652185263378127e6 1.6871819789330736e7 0.0
1.6871819789330736e7 2.1477435987272028e7 0.0
0.0 0.0 0.0

-591727.538915012 1.3184050194956467e7 0.0
1.3184050194956467e7 -2.8950937846479982e7 0.0
0.0 0.0 0.0

-3.6067734826149503e6 -5.323474331653468e6 0.0
-5.323474331653468e6 9.298287739048894e6 0.0
0.0 0.0 0.0

4.047295294176367e6 2.218183269397466e7 0.0
2.218183269397466e7 -4.999333826572646e6 0.0
0.0 0.0 0.0

-1.2117601542543612e7 8.880473219141463e6 0.0
8.880473219141463e6 2.424675963688547e7 0.0
0.0 0.0 0.0

667558.075269287 1.210763611389338e7 0.0
1.210763611389338e7 -1.1835521189664336e7 0.0
0.0 0.0 0.0

-3.841110254391214e6 1.753304922163278e7 0.0
1.753304922163278e7 1.3018595237478845e7 0.0
0.0 0.0 0.0

-1.0446392862604958e6 1.5791265655512253e7 0.0
1.5791265655512253e7 -5.926280038040272e6 0.0
0.0 0.0 0.0

-6.28535231196433e6 1.8017293327612046e7 0.0
1.8017293327612046e7 1.4680247363638276e7 0.0
0.0 0.0 0.0

248691.98380476562 1.0195837603626383e7 0.0
1.0195837603626383e7 -6.832254119828059e6 0.0
0.0 0.0 0.0

-5.647879621424688e6 2.0409084695757564e7 0.0
2.0409084695757564e7 6.1649575163611e6 0.0
0.0 0.0 0.0

-5.66067239169827e6 1.7727742350753218e7 0.0
1.7727742350753218e7 1.0925745639512666e7 0.0
0.0 0.0 0.0

466952.02065201476 1.825569429255516e7 0.0
1.825569429255516e7 -9.0844416926587e6 0.0
0.0 0.0 0.0

-4.005707148060007e6 2.144610087808275e7 0.0
2.144610087808275e7 5.070571668837387e6 0.0
0.0 0.0 0.0

-1.9404915185618838e6 2.5348657544500507e7 0.0
2.5348657544500507e7 1.3498712529045055e6 0.0
0.0 0.0 0.0

-302109.6708891941 1.3240434954349814e7 0.0
1.3240434954349814e7 -2.5373991236774784e7 0.0
0.0 0.0 0.0

1.5009137517396936e6 3.1495371237310097e6 0.0
3.1495371237310097e6 -3.1609393425056133e6 0.0
0.0 0.0 0.0

-5.43031834942503e6 1.9842992411744546e6 0.0
1.9842992411744546e6 5.5707399347820915e6 0.0
0.0 0.0 0.0

3.642403505929863e6 4.210896715204645e6 0.0
4.210896715204645e6 -4.282693924310499e7 0.0
0.0 0.0 0.0

-1.1242139660922806e6 1.971153077488276e7 0.0
1.971153077488276e7 -5.602290515389598e6 0.0
0.0 0.0 0.0

-5.981409327986432e6 1.748882936544264e7 0.0
1.748882936544264e7 1.6554658915366512e7 0.0
0.0 0.0 0.0

-1.2789864124694087e7 1.0464702452927915e7 0.0
1.0464702452927915e7 1.846744782157299e7 0.0
0.0 0.0 0.0

-3.0086438431747844e6 2.992868892586278e7 0.0
2.992868892586278e7 2.5530994533480937e6 0.0
0.0 0.0 0.0

-1.2588360565905862e7 7.227791326211163e6 0.0
7.227791326211163e6 2.408818441966991e7 0.0
0.0 0.0 0.0

2.493411862724013e7 4.979964865709086e7 0.0
4.979964865709086e7 -8.302674632606987e6 0.0
0.0 0.0 0.0

-521139.16415504133 1.7915652965877306e7 0.0
1.7915652965877306e7 -1.013718233233998e7 0.0
0.0 0.0 0.0

1.5813709826487657e6 1.3438161194561236e7 0.0
1.3438161194561236e7 -1.5925155876869185e7 0.0
0.0 0.0 0.0

-4.858943662562057e6 1.808470214147618e7 0.0
1.808470214147618e7 1.3855440753460033e7 0.0
0.0 0.0 0.0

-1.2327088953417476e7 9.624076066420801e6 0.0
9.624076066420801e6 2.502533309602177e7 0.0
0.0 0.0 0.0

-578532.9388470475 1.9272471094376814e7 0.0
1.9272471094376814e7 -7.4374170148064345e6 0.0
0.0 0.0 0.0

95837.84033458075 1.5880393153670894e7 0.0
1.5880393153670894e7 3.250372611043697e6 0.0
0.0 0.0 0.0

4.4367711253431775e6 3.176376997580756e6 0.0
3.176376997580756e6 -2.771309944829759e7 0.0
0.0 0.0 0.0

-7.036429037447953e6 6.787353281186508e6 0.0
6.787353281186508e6 1.141072496989708e7 0.0
0.0 0.0 0.0

-4.352713510104346e6 3.207769334625355e7 0.0
3.207769334625355e7 3.4575666760477005e6 0.0
0.0 0.0 0.0

-7.021309702263563e6 1.74744961929454e7 0.0
1.74744961929454e7 1.775775337730992e7 0.0
0.0 0.0 0.0

-906457.7809740207 1.5233443350718647e7 0.0
1.5233443350718647e7 -1.4920137885836378e7 0.0
0.0 0.0 0.0

4.149664114095269e6 1.7462879951819584e7 0.0
1.7462879951819584e7 5.180493064437703e6 0.0
0.0 0.0 0.0

-8.261377009817198e6 2.6669426084215986e6 0.0
2.6669426084215986e6 1.1039047620935112e7 0.0
0.0 0.0 0.0

-5.156805396537379e6 9.88789641455192e6 0.0
9.88789641455192e6 3.436517738053471e6 0.0
0.0 0.0 0.0

-992559.1353152622 1.5015945760301696e7 0.0
1.5015945760301696e7 -1.1626166806345597e7 0.0
0.0 0.0 0.0

161878.15147477807 1.4670232491715664e7 0.0
1.4670232491715664e7 -9.559838204006782e6 0.0
0.0 0.0 0.0

-7.971332472438568e6 1.6294901240677869e7 0.0
1.6294901240677869e7 1.4542170388812082e7 0.0
0.0 0.0 0.0

-615025.451943431 1.4725310921624105e7 0.0
1.4725310921624105e7 -1.8901776914635986e7 0.0
0.0 0.0 0.0

2.282941214336276e6 1.1616767606290178e7 0.0
1.1616767606290178e7 -2.0966528291199833e7 0.0
0.0 0.0 0.0

-3.9386615054952875e6 2.1461819774825875e7 0.0
2.1461819774825875e7 7.591257440583448e6 0.0
0.0 0.0 0.0

886415.7223059572 1.4943338063061118e7 0.0
1.4943338063061118e7 -1.6258784180619216e7 0.0
0.0 0.0 0.0

-1.2153729757741664e7 1.1310828830304021e7 0.0
1.1310828830304021e7 2.111060677785687e7 0.0
0.0 0.0 0.0

3.6414353109616973e6 5.257087447533954e6 0.0
5.257087447533954e6 -1.2165144532514576e7 0.0
0.0 0.0 0.0

-2.3770830437907137e7 2.7116398726396155e7 0.0
2.7116398726396155e7 -6.0183679790526945e6 0.0
0.0 0.0 0.0

1.6912582824770203e6 6.880581216170518e6 0.0
6.880581216170518e6 -9.6040072182149e6 0.0
0.0 0.0 0.0

3.8731094145788075e6 3.247035529555418e6 0.0
3.247035529555418e6 -1.2065732579567537e7 0.0
0.0 0.0 0.0

-4.801907387833308e6 2.2185600210051417e7 0.0
2.2185600210051417e7 7.377170711538298e6 0.0
0.0 0.0 0.0

1.472664199666973e6 1.4876605205372844e7 0.0
1.4876605205372844e7 4.908881159139773e6 0.0
0.0 0.0 0.0

2.829219826316878e6 1.7802846500494353e7 0.0
1.7802846500494353e7 -2.9056611089015817e6 0.0
0.0 0.0 0.0

-7.870783413441078e6 1.633599482256467e7 0.0
1.633599482256467e7 2.1393450197088566e7 0.0
0.0 0.0 0.0

-4.915549352673541e6 1.682143487583546e7 0.0
1.682143487583546e7 2.2350171213547688e7 0.0
0.0 0.0 0.0

6.725815532087065e6 1.5930848166519793e7 0.0
1.5930848166519793e7 3.871404931110462e7 0.0
0.0 0.0 0.0

205278.08234983985 1.581010412714419e7 0.0
1.581010412714419e7 -3.137351284876219e6 0.0
0.0 0.0 0.0

-5.420533098896188e6 1.8004957349564824e7 0.0
1.8004957349564824e7 1.4639880020647507e7 0.0
0.0 0.0 0.0

-6.51212866240816e6 1.5566651171238836e7 0.0
1.5566651171238836e7 9.890883240434773e6 0.0
0.0 0.0 0.0

-1.1631875028202794e6 1.5049172739374556e7 0.0
1.5049172739374556e7 -1.3758886391032498e7 0.0
0.0 0.0 0.0

-4.146614957356954e6 2.1619974508968677e7 0.0
2.1619974508968677e7 5.774530431913623e6 0.0
0.0 0.0 0.0

-1.2634515025002282e7 9.655702794652041e6 0.0
9.655702794652041e6 2.3436319166670915e7 0.0
0.0 0.0 0.0

7.35951229144626e6 2.094946466328362e7 0.0
2.094946466328362e7 -4.550650651002452e6 0.0
0.0 0.0 0.0

-234744.83624505857 1.8287117364941895e7 0.0
1.8287117364941895e7 -9.233425345521636e6 0.0
0.0 0.0 0.0

3.380604096303791e6 6.727960681188621e6 0.0
6.727960681188621e6 -1.9063729390855774e7 0.0
0.0 0.0 0.0

1.8111566553257406e6 1.9531784260921344e7 0.0
1.9531784260921344e7 -6.294978431404819e6 0.0
0.0 0.0 0.0

-2.0284340425417454e6 2.2409535367654666e7 0.0
2.2409535367654666e7 -731036.0253883913 0.0
0.0 0.0 0.0

-4.302713912104007e6 1.5488305466450011e7 0.0
1.5488305466450011e7 -1.4342383376196371e7 0.0
0.0 0.0 0.0

6.718620428767278e6 1.804402735657848e7 0.0
1.804402735657848e7 2.2395410068973556e7 0.0
0.0 0.0 0.0

-9.84444823806007e6 -1.9564270240812325e6 0.0
-1.9564270240812325e6 3.385569454924716e7 0.0
0.0 0.0 0.0

244627.025527491 1.7401938326521996e7 0.0
1.7401938326521996e7 5.350408642992602e6 0.0
0.0 0.0 0.0

-9.655071090910353e6 -3.7782875037723463e6 0.0
-3.7782875037723463e6 2.7360624259442076e7 0.0
0.0 0.0 0.0

-1.2166440292140422e6 2.2745734701267935e7 0.0
2.2745734701267935e7 -2.229522484197665e6 0.0
0.0 0.0 0.0

967579.8204482002 2.1501232886388082e7 0.0
2.1501232886388082e7 -5.633942431891422e6 0.0
0.0 0.0 0.0

-3.6704930055108583e6 3.086733739708849e7 0.0
3.086733739708849e7 2.669895734893337e6 0.0
0.0 0.0 0.0

4.546800435929826e6 1.7037056555580743e7 0.0
1.7037056555580743e7 7.763933896445556e6 0.0
0.0 0.0 0.0

-1.199553550490839e7 8.64410622936047e6 0.0
8.64410622936047e6 2.5777774703663945e7 0.0
0.0 0.0 0.0

-1.378635344698294e6 2.3171023679382022e7 0.0
2.3171023679382022e7 -1.4325824631021563e6 0.0
0.0 0.0 0.0

-5.303522517866043e6 1.8350728057461184e7 0.0
1.8350728057461184e7 9.787213262268448e6 0.0
0.0 0.0 0.0

-4.16529127657587e6 2.049302818277199e7 0.0
2.049302818277199e7 5.891476677764081e6 0.0
0.0 0.0 0.0

3.0979767148945276e6 8.1837252538149515e6 0.0
8.1837252538149515e6 -3.1434276819258936e7 0.0
0.0 0.0 0.0

-4.12679145037315e6 2.1396676795051806e7 0.0
2.1396676795051806e7 8.253057235348472e6 0.0
0.0 0.0 0.0

1.0295997050620845e7 1.4584017285724346e7 0.0
1.4584017285724346e7 3.6601171489582835e6 0.0
0.0 0.0 0.0

2.177729012609164e6 1.2099718377726385e7 0.0
1.2099718377726385e7 -1.8732579305467088e7 0.0
0.0 0.0 0.0

-8.67031906688752e6 1.5867625459724814e6 0.0
1.5867625459724814e6 4.864087199240738e7 0.0
0.0 0.0 0.0

-2.1868609321369757e6 2.4022289870931357e7 0.0
2.4022289870931357e7 986614.0062602981 0.0
0.0 0.0 0.0

1.3226559450153226e6 1.767477029765061e7 0.0
1.767477029765061e7 4.8553203414841965e6 0.0
0.0 0.0 0.0

-7.239999078814833e7 6.175291974846541e7 0.0
6.175291974846541e7 -1.261314758600007e7 0.0
0.0 0.0 0.0

3.863282992574699e6 4.3770361637217095e6 0.0
4.3770361637217095e6 -1.5762745914299162e7 0.0
0.0 0.0 0.0

-2.6531560682254997e6 1.7438050244741287e7 0.0
1.7438050244741287e7 -937776.3008603854 0.0
0.0 0.0 0.0

-1.3321274698051155e7 2.2940353353521395e7 0.0
2.2940353353521395e7 4.0550279523011046e6 0.0
0.0 0.0 0.0

-158288.95875605755 1.670831327715381e7 0.0
1.670831327715381e7 -1.211704947463225e7 0.0
0.0 0.0 0.0

-446970.0796868461 1.7841538106077336e7 0.0
1.7841538106077336e7 -1.0557627674725741e7 0.0
0.0 0.0 0.0

6.797272196291491e6 1.823023609006894e7 0.0
1.823023609006894e7 -1.1207427879411848e6 0.0
0.0 0.0 0.0

-3.187576638051071e6 2.6992735581852496e7 0.0
2.6992735581852496e7 3.1870541394716045e6 0.0
0.0 0.0 0.0

-2.3752242096695486e6 1.808725168942314e7 0.0
1.808725168942314e7 -8.906369772884045e6 0.0
0.0 0.0 0.0

4.125040780455934e6 4.999869094975129e6 0.0
4.999869094975129e6 -3.3138359317707054e7 0.0
0.0 0.0 0.0

-2.1493828438254703e7 2.4700853919996507e7 0.0
2.4700853919996507e7 -3.905155938656456e6 0.0
0.0 0.0 0.0

-4.74658413761456e6 1.7871762791634843e7 0.0
1.7871762791634843e7 1.060964158132313e7 0.0
0.0 0.0 0.0

844820.2207555752 2.0807676642686415e7 0.0
2.0807676642686415e7 -6.174586343322883e6 0.0
0.0 0.0 0.0

-3.486408202319162e6 1.6217296467355866e7 0.0
1.6217296467355866e7 2.8348883678291623e7 0.0
0.0 0.0 0.0

8.811194559187043e6 1.9550345698439114e7 0.0
1.9550345698439114e7 -4.27499808262786e6 0.0
0.0 0.0 0.0

-4.675910993133056e6 2.004634046131358e7 0.0
2.004634046131358e7 1.0408691790425066e7 0.0
0.0 0.0 0.0

-473875.104964287 1.524021903863455e7 0.0
1.524021903863455e7 -1.0464062617593229e7 0.0
0.0 0.0 0.0

3.3651995376122394e6 1.0554329034413198e7 0.0
1.0554329034413198e7 3.8572173193014036e6 0.0
0.0 0.0 0.0

1.269013153084225e6 1.8343229524297897e7 0.0
1.8343229524297897e7 -7.0169236638822565e6 0.0
0.0 0.0 0.0

-7.627246998585427e6 1.709196833093486e7 0.0
1.709196833093486e7 1.929628691581841e7 0.0
0.0 0.0 0.0

-7.99162557595272e6 4.929926091699258e6 0.0
4.929926091699258e6 5.1044236013170995e7 0.0
0.0 0.0 0.0

-7.931776994868714e6 -45083.5750054228 0.0
-45083.5750054228 5.3819871438901424e7 0.0
0.0 0.0 0.0

-919888.3210240968 1.6726027706211183e7 0.0
1.6726027706211183e7 -9.34708600642452e6 0.0
0.0 0.0 0.0

208515.42933398858 1.74027023165979e7 0.0
1.74027023165979e7 -1.0522497907921033e7 0.0
0.0 0.0 0.0

-330245.0887768334 1.780476982583529e7 0.0
1.780476982583529e7 -1.0681352556444021e7 0.0
0.0 0.0 0.0

-8.575468470139772e6 2.0296659969402026e7 0.0
2.0296659969402026e7 -2.381584112177174e6 0.0
0.0 0.0 0.0

1.2231606026131408e7 1.7947210974410146e7 0.0
1.7947210974410146e7 6.364571252079152e6 0.0
0.0 0.0 0.0

-7.549813929591071e6 1.7365793500847515e7 0.0
1.7365793500847515e7 1.7044731324172523e7 0.0
0.0 0.0 0.0

-147744.48182263877 1.773118268910129e7 0.0
1.773118268910129e7 -1.0704944130334767e7 0.0
0.0 0.0 0.0

-681060.916505605 1.4602013195388468e7 0.0
1.4602013195388468e7 -9.36590272763548e6 0.0
0.0 0.0 0.0

-8.355759053948447e6 -4.688378276396072e6 0.0
-4.688378276396072e6 1.7148860411155544e7 0.0
0.0 0.0 0.0

978834.2128256988 1.227460486648671e7 0.0
1.227460486648671e7 -2.4955099973765604e7 0.0
0.0 0.0 0.0

-1.0957155909468863e7 -1.3171217429844283e6 0.0
-1.3171217429844283e6 2.608781769136747e7 0.0
0.0 0.0 0.0

-7.79645815687173e6 -6.912209950460273e6 0.0
-6.912209950460273e6 1.913786796833827e7 0.0
0.0 0.0 0.0

-7.556669858457474e6 -7.121525747810028e6 0.0
-7.121525747810028e6 1.84116891432419e7 0.0
0.0 0.0 0.0

-4.465397186776971e6 9.867048883919356e6 0.0
9.867048883919356e6 5.77462840389007e6 0.0
0.0 0.0 0.0

794574.6610324625 1.4077973802037364e7 0.0
1.4077973802037364e7 -1.5341313744604042e7 0.0
0.0 0.0 0.0

1.4928045595629262e6 1.2118773450502744e7 0.0
1.2118773450502744e7 -2.470974828618555e7 0.0
0.0 0.0 0.0

-487197.98734479095 1.7000297149337925e7 0.0
1.7000297149337925e7 -3.8986646979174744e6 0.0
0.0 0.0 0.0

707562.6193191549 1.8577476523154657e7 0.0
1.8577476523154657e7 -7.876531512257068e6 0.0
0.0 0.0 0.0

3.132156542878766e6 1.76700632628316e7 0.0
1.76700632628316e7 -810700.904643263 0.0
0.0 0.0 0.0

-1.6817754854647247e6 2.124112278167969e7 0.0
2.124112278167969e7 -3.0103352899165438e6 0.0
0.0 0.0 0.0

3.882458420105192e7 2.014715572963599e7 0.0
2.014715572963599e7 5.195632620588513e6 0.0
0.0 0.0 0.0

3.5637208451428777e6 1.4021076987389332e7 0.0
1.4021076987389332e7 8.985371251174347e6 0.0
0.0 0.0 0.0

2.319537904082763e6 1.804437961178476e7 0.0
1.804437961178476e7 -4.519627411096705e6 0.0
0.0 0.0 0.0

1.6666971140720956e6 2.1609374687749535e7 0.0
2.1609374687749535e7 -5.46444236532772e6 0.0
0.0 0.0 0.0

-1.7190976982512942e6 2.38420873620116e7 0.0
2.38420873620116e7 -149785.59013612417 0.0
0.0 0.0 0.0

614423.9362660386 1.5586553039585656e7 0.0
1.5586553039585656e7 -1.5327882821670381e7 0.0
0.0 0.0 0.0

-1.3725805307095656e7 2.2250613181168534e7 0.0
2.2250613181168534e7 1.652132261464159e6 0.0
0.0 0.0 0.0

-5.348802071175255e6 2.2602796473326366e7 0.0
2.2602796473326366e7 7.078310959501863e6 0.0
0.0 0.0 0.0

4.557688908307084e6 2.930334040679145e6 0.0
2.930334040679145e6 -1.760521257529995e7 0.0
0.0 0.0 0.0

-2.374731772083328e6 2.222235020689903e7 0.0
2.222235020689903e7 -1.7411598296236051e6 0.0
0.0 0.0 0.0

-6.145187683354041e6 3.326323489839346e7 0.0
3.326323489839346e7 3.6079606662355848e6 0.0
0.0 0.0 0.0

-1.505358803547134e6 1.26545040114935e7 0.0
1.26545040114935e7 -5.459074667733849e6 0.0
0.0 0.0 0.0

2.131647312382756e6 1.208550998667744e7 0.0
1.208550998667744e7 -1.9942039675911315e7 0.0
0.0 0.0 0.0

1.8158731088885758e6 1.1823623272668334e7 0.0
1.1823623272668334e7 -2.3569450829862848e7 0.0
0.0 0.0 0.0

810822.7381625688 1.2857111233934505e7 0.0
1.2857111233934505e7 -2.462835730089703e7 0.0
0.0 0.0 0.0

5.726786539822685e6 2.9185675382077668e7 0.0
2.9185675382077668e7 -4.0472941873441e6 0.0
0.0 0.0 0.0

-32740.166688457597 1.756664038478457e7 0.0
1.756664038478457e7 -1.0679802388240175e7 0.0
0.0 0.0 0.0

3.028019685289757e6 1.7332965585176297e7 0.0
1.7332965585176297e7 2.216589321150531e7 0.0
0.0 0.0 0.0

-1.9960546791997854e7 1.711155048420357e7 0.0
1.711155048420357e7 8.195716862093794e6 0.0
0.0 0.0 0.0

-5.3062538946369834e7 2.730411259273978e7 0.0
2.730411259273978e7 -730561.7032021694 0.0
0.0 0.0 0.0

3.3565770534937344e6 6.081471822131607e6 0.0
6.081471822131607e6 -4.153244042754374e7 0.0
0.0 0.0 0.0

1.6435831441991967e6 1.827498003093566e7 0.0
1.827498003093566e7 -5.89949613260772e6 0.0
0.0 0.0 0.0

1.3382733943819688e6 2.0219342125255514e7 0.0
2.0219342125255514e7 -6.321857786431192e6 0.0
0.0 0.0 0.0

4.407527962661512e6 2.9746909054892757e6 0.0
2.9746909054892757e6 -1.6705937116333388e7 0.0
0.0 0.0 0.0

-1.1396854750957152e7 2.1152403672747046e7 0.0
2.1152403672747046e7 -3.5977677549781236e6 0.0
0.0 0.0 0.0

-3.0914053114722203e6 1.7248662253295828e7 0.0
1.7248662253295828e7 1.6033860241371704e7 0.0
0.0 0.0 0.0

3.6107590986004933e6 1.6845950755797416e7 0.0
1.6845950755797416e7 1.1904292113615476e7 0.0
0.0 0.0 0.0

-5.940631719390559e6 -6.344907802748846e6 0.0
-6.344907802748846e6 1.451560223993634e7 0.0
0.0 0.0 0.0

1.0631956184870554e6 1.4176443141856702e7 0.0
1.4176443141856702e7 -1.8271803237989686e7 0.0
0.0 0.0 0.0

2.5236744250573926e6 9.370169255025323e6 0.0
9.370169255025323e6 -1.752335792854004e7 0.0
0.0 0.0 0.0

860920.6908639134 7.973863074676425e6 0.0
7.973863074676425e6 -5.011996922441988e6 0.0
0.0 0.0 0.0

-6.701579394680987e6 -5.959465603311073e6 0.0
-5.959465603311073e6 1.1594912618666457e7 0.0
0.0 0.0 0.0

1.882119900478892e6 1.679505353139086e7 0.0
1.679505353139086e7 6.322235920776074e7 0.0
0.0 0.0 0.0

-1.0902944320919242e7 2.917958313646103e6 0.0
2.917958313646103e6 3.3826509111317195e7 0.0
0.0 0.0 0.0

268939.33930927236 2.447637841276777e7 0.0
2.447637841276777e7 -2.282641032990969e6 0.0
0.0 0.0 0.0

-2.8541995175379827e6 1.7126403517711487e7 0.0
1.7126403517711487e7 -143258.37534540624 0.0
0.0 0.0 0.0

-1.1547477827263204e6 1.466591303265626e7 0.0
1.466591303265626e7 -1.0321273735652642e7 0.0
0.0 0.0 0.0

310585.72665171744 2.0041136801726352e7 0.0
2.0041136801726352e7 -7.205985365234984e6 0.0
0.0 0.0 0.0

-4.254097859215862e6 2.173648929104908e7 0.0
2.173648929104908e7 6.469137245165391e6 0.0
0.0 0.0 0.0

2.32760016649104e6 3.352056811088555e7 0.0
3.352056811088555e7 -1.2523909096856138e6 0.0
0.0 0.0 0.0

3.088752464239566e6 4.4974543455982115e6 0.0
4.4974543455982115e6 -9.763903261055706e6 0.0
0.0 0.0 0.0

-8.691788594000453e6 -4.941923519232001e6 0.0
-4.941923519232001e6 1.6454457283930773e7 0.0
0.0 0.0 0.0

-224268.6388652369 1.608463544874605e7 0.0
1.608463544874605e7 1.4924794475827257e6 0.0
0.0 0.0 0.0

-8.039935876280516e6 2.317069563895907e7 0.0
2.317069563895907e7 6.243155519248908e6 0.0
0.0 0.0 0.0

-4.023494485983422e6 1.7303433566485893e7 0.0
1.7303433566485893e7 1.8295466306117453e7 0.0
0.0 0.0 0.0

-1.2259726845871866e7 1.0337929528476179e7 0.0
1.0337929528476179e7 2.1900844969901547e7 0.0
0.0 0.0 0.0

1.7405529932270246e6 1.297694045988738e7 0.0
1.297694045988738e7 -1.914817300294697e7 0.0
0.0 0.0 0.0

-1.3455231781081966e8 2.1487097545295615e7 0.0
2.1487097545295615e7 -5.85811376271034e6 0.0
0.0 0.0 0.0

-1.2332932408421865e7 9.083756761399413e6 0.0
9.083756761399413e6 2.28544118624627e7 0.0
0.0 0.0 0.0

-6.903415575702024e6 2.3122617610993683e7 0.0
2.3122617610993683e7 6.519561904466445e6 0.0
0.0 0.0 0.0

711487.6839429075 1.5241055939279223e7 0.0
1.5241055939279223e7 -1.6229749010638079e7 0.0
0.0 0.0 0.0

-122396.6160619678 1.3449375726641018e7 0.0
1.3449375726641018e7 -2.4084854045128483e7 0.0
0.0 0.0 0.0

1.398725956462358e6 3.1881333808982085e7 0.0
3.1881333808982085e7 -640520.9740875175 0.0
0.0 0.0 0.0

-515039.56672925595 1.4073493122034771e7 0.0
1.4073493122034771e7 -2.20575571761829e7 0.0
0.0 0.0 0.0

79757.95412180712 1.7360284461190965e7 0.0
1.7360284461190965e7 -1.0418482702621385e7 0.0
0.0 0.0 0.0

254677.22351520357 1.6389596769936284e7 0.0
1.6389596769936284e7 3.168312572569377e6 0.0
0.0 0.0 0.0

-387714.2338907096 2.7049336657374997e7 0.0
2.7049336657374997e7 182281.03205323726 0.0
0.0 0.0 0.0

-9.341155156837592e6 2.3043448669200785e7 0.0
2.3043448669200785e7 5.73308148848344e6 0.0
0.0 0.0 0.0

1.3515213573274948e6 1.3810549128247514e7 0.0
1.3810549128247514e7 -1.820526571645406e7 0.0
0.0 0.0 0.0

-50051.49033810012 1.735190386051947e7 0.0
1.735190386051947e7 -1.0928718850033116e7 0.0
0.0 0.0 0.0

-3.4918464634558065e6 2.1690714948947355e7 0.0
2.1690714948947355e7 2.0529028140436024e6 0.0
0.0 0.0 0.0

-5.99072549834154e6 2.290046021752579e7 0.0
2.290046021752579e7 6.8023944699761765e6 0.0
0.0 0.0 0.0

-9.250600046519823e6 -5.466155439095533e6 0.0
-5.466155439095533e6 2.6662758340273306e7 0.0
0.0 0.0 0.0

-7.49408302800418e6 1.6025107603303844e7 0.0
1.6025107603303844e7 1.6213825188187294e7 0.0
0.0 0.0 0.0

-838484.7499941932 1.4525200234640041e7 0.0
1.4525200234640041e7 -2.0088019057642035e7 0.0
0.0 0.0 0.0

1.2749949424022093e7 1.710064538105548e7 0.0
1.710064538105548e7 102490.37163341651 0.0
0.0 0.0 0.0

711364.9340915447 1.4449310985299572e7 0.0
1.4449310985299572e7 -1.828568636694929e7 0.0
0.0 0.0 0.0

-196160.64928235242 1.6009492597400742e7 0.0
1.6009492597400742e7 -2.9654940975908954e6 0.0
0.0 0.0 0.0

-1.1742411250999404e7 7.248841748031016e6 0.0
7.248841748031016e6 2.7061203889401983e7 0.0
0.0 0.0 0.0

-5.148972885327729e6 1.9097268938634355e7 0.0
1.9097268938634355e7 -8.0467436554364115e6 0.0
0.0 0.0 0.0

-642822.9833822933 1.447674351687787e7 0.0
1.447674351687787e7 -5.722104277065771e6 0.0
0.0 0.0 0.0

2724.2305087326095 1.6925563276880365e7 0.0
1.6925563276880365e7 -1.0616163610665949e7 0.0
0.0 0.0 0.0

-1.2600358048417075e7 3.647536080520812e7 0.0
3.647536080520812e7 5.231976978857244e6 0.0
0.0 0.0 0.0

-4.199109480002015e7 1.2379242075870795e7 0.0
1.2379242075870795e7 7.66175245188698e6 0.0
0.0 0.0 0.0

186198.26918205048 2.509087117646635e7 0.0
2.509087117646635e7 -2.6555995767111564e6 0.0
0.0 0.0 0.0

-8.553701044680726e6 3.474374549099559e7 0.0
3.474374549099559e7 4.457340332820225e6 0.0
0.0 0.0 0.0

1.4975842032106923e7 4.2668510145700835e7 0.0
4.2668510145700835e7 -4.807152697102912e6 0.0
0.0 0.0 0.0

479707.2646511076 1.3139984499520788e7 0.0
1.3139984499520788e7 -2.3194286380221467e7 0.0
0.0 0.0 0.0

-6.152618799734959e6 1.5121976775270905e7 0.0
1.5121976775270905e7 -2.4084299768950928e7 0.0
0.0 0.0 0.0

-4.430082797970204e6 2.119822744898531e7 0.0
2.119822744898531e7 8.522811024568737e6 0.0
0.0 0.0 0.0

-1.2813113454169918e7 9.910605732768157e6 0.0
9.910605732768157e6 2.2107954912021324e7 0.0
0.0 0.0 0.0

-9.300359041379213e6 2.0313475538117196e7 0.0
2.0313475538117196e7 2.81213717297863e6 0.0
0.0 0.0 0.0

-393897.01514285104 1.6145362362131173e7 0.0
1.6145362362131173e7 6.48802424579321e6 0.0
0.0 0.0 0.0

-407889.4989940752 1.5830491488974717e7 0.0
1.5830491488974717e7 -8.31941265419286e6 0.0
0.0 0.0 0.0

3.323376008487861e6 3.54830471659365e7 0.0
3.54830471659365e7 -2.2585618433172395e6 0.0
0.0 0.0 0.0

142240.9738310743 1.942313197165801e7 0.0
1.942313197165801e7 -7.875345326437312e6 0.0
0.0 0.0 0.0

1.642208745631405e6 1.6784870263585694e7 0.0
1.6784870263585694e7 -4.033789178928497e6 0.0
0.0 0.0 0.0

4.709111175436366e6 2.356592554416191e6 0.0
2.356592554416191e6 -2.8954936957759343e7 0.0
0.0 0.0 0.0

-4.442145957573814e6 2.176169385789203e7 0.0
2.176169385789203e7 7.109675870766044e6 0.0
0.0 0.0 0.0

-3.8217192290530615e6 1.6567583344614651e7 0.0
1.6567583344614651e7 3.8635080512791434e6 0.0
0.0 0.0 0.0

1.7712294895725083e6 1.1227675008286716e7 0.0
1.1227675008286716e7 -1.208962957062258e7 0.0
0.0 0.0 0.0

44696.58773027081 1.353805741703307e7 0.0
1.353805741703307e7 -2.423623579166907e7 0.0
0.0 0.0 0.0

-4.624471876625424e6 1.814696237783354e7 0.0
1.814696237783354e7 1.4757889212483723e7 0.0
0.0 0.0 0.0

-5.497843106145887e6 1.709412492364883e7 0.0
1.709412492364883e7 2.0506974612954874e7 0.0
0.0 0.0 0.0

-831841.338451206 1.5130179227366805e7 0.0
1.5130179227366805e7 -3.5845758360745874e6 0.0
0.0 0.0 0.0

2.1174022691331455e6 2.093407651597274e7 0.0
2.093407651597274e7 -5.755549425767444e6 0.0
0.0 0.0 0.0

-4.113732319282019e6 2.0987143662692808e7 0.0
2.0987143662692808e7 8.382739078434978e6 0.0
0.0 0.0 0.0

-9.17790962196917e6 1.4421192127606596e6 0.0
1.4421192127606596e6 4.3244888514688045e7 0.0
0.0 0.0 0.0

-4.030762654890611e6 1.0688977373674398e7 0.0
1.0688977373674398e7 4.647768326811818e6 0.0
0.0 0.0 0.0

-804.3024953063577 1.6042029475339536e7 0.0
1.6042029475339536e7 -4.657529833542266e6 0.0
0.0 0.0 0.0

-5.162632044143507e6 2.1998943195592243e7 0.0
2.1998943195592243e7 7.751439702578747e6 0.0
0.0 0.0 0.0

-5.020770043467805e6 1.822148501544196e7 0.0
1.822148501544196e7 1.2106771602409046e7 0.0
0.0 0.0 0.0

2.4282619772320166e6 1.1346417703626314e7 0.0
1.1346417703626314e7 -1.6614356618221123e7 0.0
0.0 0.0 0.0

-2.523492039733383e6 2.3406012543148465e7 0.0
2.3406012543148465e7 1.3902785718187713e6 0.0
0.0 0.0 0.0

24038.27194683724 2.814748673975854e7 0.0
2.814748673975854e7 69271.32481832584 0.0
0.0 0.0 0.0

-3.604532959872663e6 1.9254903632133927e7 0.0
1.9254903632133927e7 4.532779262380805e6 0.0
0.0 0.0 0.0

1.8219460500025628e6 1.2980443126568133e7 0.0
1.2980443126568133e7 -1.7945072874730293e7 0.0
0.0 0.0 0.0

-2.281463000315506e6 2.3563961209502432e7 0.0
2.3563961209502432e7 -587185.9005405881 0.0
0.0 0.0 0.0

284498.5412259558 2.064267603286337e7 0.0
2.064267603286337e7 -6.516835022385096e6 0.0
0.0 0.0 0.0

-1.8507149017122025e6 1.740449284636092e7 0.0
1.740449284636092e7 2.093297081035716e7 0.0
0.0 0.0 0.0

-3.847976068725066e6 1.8771320239274293e7 0.0
1.8771320239274293e7 5.478616638951316e6 0.0
0.0 0.0 0.0

-4.456521935817442e6 2.3218515381410286e7 0.0
2.3218515381410286e7 5.340891952107567e6 0.0
0.0 0.0 0.0

-9.97572264469275e6 -1.4070780964072898e6 0.0
-1.4070780964072898e6 3.363829570182965e7 0.0
0.0 0.0 0.0

-211603.956749737 2.754035767245193e7 0.0
2.754035767245193e7 178029.59356407326 0.0
0.0 0.0 0.0

4.724379662792468e6 2.4225515690947725e6 0.0
2.4225515690947725e6 -2.8212992297130775e7 0.0
0.0 0.0 0.0

-1.7765995698174776e6 2.1919146011838887e7 0.0
2.1919146011838887e7 -3.525187560703377e6 0.0
0.0 0.0 0.0

-9.675083140104776e6 -3.514385727118116e6 0.0
-3.514385727118116e6 2.93990029909647e7 0.0
0.0 0.0 0.0

-783468.9096759278 1.393419551574153e7 0.0
1.393419551574153e7 -3.9950003857894796e6 0.0
0.0 0.0 0.0

-8.659849509927554e6 2.18321935316295e7 0.0
2.18321935316295e7 4.291829703299884e6 0.0
0.0 0.0 0.0

-1.2219147159269203e6 1.7836616771279123e7 0.0
1.7836616771279123e7 -2.864514038192538e6 0.0
0.0 0.0 0.0

-2.146347513760356e6 1.81012816204287e7 0.0
1.81012816204287e7 -4.328489234258503e6 0.0
0.0 0.0 0.0

-814087.9774092943 1.589671492802245e7 0.0
1.589671492802245e7 -1.4825190241898527e7 0.0
0.0 0.0 0.0

-1.2262257812514972e7 1.1776289176010327e7 0.0
1.1776289176010327e7 2.282923592779947e7 0.0
0.0 0.0 0.0

-270474.45615036367 1.6740569281909715e7 0.0
1.6740569281909715e7 8.496523207867723e6 0.0
0.0 0.0 0.0

3.6853686363273365e6 7.944587480683471e6 0.0
7.944587480683471e6 -2.12785752609675e7 0.0
0.0 0.0 0.0

753183.1539071873 1.7568011088438917e7 0.0
1.7568011088438917e7 1.9337462906689905e7 0.0
0.0 0.0 0.0

-7.411754232532833e6 1.687842703619937e7 0.0
1.687842703619937e7 -4.837447729173612e7 0.0
0.0 0.0 0.0

-5.202320492834243e6 1.728535819668188e7 0.0
1.728535819668188e7 1.1789797099208977e7 0.0
0.0 0.0 0.0

-2.7008350685344986e6 2.3762497691145863e7 0.0
2.3762497691145863e7 587534.5261577212 0.0
0.0 0.0 0.0

-3.8685557744519217e6 1.8650249169009008e7 0.0
1.8650249169009008e7 1.520774756994851e6 0.0
0.0 0.0 0.0

-87630.36703284737 1.8326515970192317e7 0.0
1.8326515970192317e7 -9.500143967116142e6 0.0
0.0 0.0 0.0

1.0869948795281337e6 1.7453967922379673e7 0.0
1.7453967922379673e7 -6.834734548456396e6 0.0
0.0 0.0 0.0

-4.6284259725786075e6 2.1740940853184685e7 0.0
2.1740940853184685e7 7.680902276536727e6 0.0
0.0 0.0 0.0

-5.430307342275901e6 1.8090846807324566e7 0.0
1.8090846807324566e7 1.5379877829334255e7 0.0
0.0 0.0 0.0

-5.404233268680962e6 1.7139855319776025e7 0.0
1.7139855319776025e7 2.057543652098546e7 0.0
0.0 0.0 0.0

-2.75861465280591e6 1.5275452121303195e7 0.0
1.5275452121303195e7 -1.4474185389823165e7 0.0
0.0 0.0 0.0

998129.3302540211 1.3637571048233109e7 0.0
1.3637571048233109e7 -1.6233924032960258e7 0.0
0.0 0.0 0.0

-3.7271546620585015e6 1.8078281248807125e7 0.0
1.8078281248807125e7 1.3800845541142724e7 0.0
0.0 0.0 0.0

2.308939814381147e6 9.406860133137122e6 0.0
9.406860133137122e6 -2.9381307797116216e7 0.0
0.0 0.0 0.0

-1.8241105547782178e6 1.706178252796734e7 0.0
1.706178252796734e7 -8.930200059324404e6 0.0
0.0 0.0 0.0

334314.48411009164 2.890099854382946e7 0.0
2.890099854382946e7 59829.17876652637 0.0
0.0 0.0 0.0

202709.8406381635 1.6865288310953423e7 0.0
1.6865288310953423e7 1.6219145657082548e7 0.0
0.0 0.0 0.0

1.7705667200963356e7 2.2155700625791553e7 0.0
2.2155700625791553e7 5.9018863246890366e7 0.0
0.0 0.0 0.0

-1.6959223077127058e7 2.084874079909869e7 0.0
2.084874079909869e7 -5.6530719862940036e7 0.0
0.0 0.0 0.0

-4.3528686654024795e6 1.6501125554832384e7 0.0
1.6501125554832384e7 2.10183833653237e6 0.0
0.0 0.0 0.0

-2.3931394408833325e7 2.992516249069273e7 0.0
2.992516249069273e7 8.362563644612068e6 0.0
0.0 0.0 0.0

-2.3803475199265447e6 2.0567001463300817e7 0.0
2.0567001463300817e7 -3.3535732516564815e6 0.0
0.0 0.0 0.0

-2.994711521704599e6 1.8126247662795372e7 0.0
1.8126247662795372e7 1.1711317809073154e7 0.0
0.0 0.0 0.0

-543361.4569714852 1.7058960787521675e7 0.0
1.7058960787521675e7 1.8564681221512694e7 0.0
0.0 0.0 0.0

4.0846299261241686e6 1.8120615339397166e7 0.0
1.8120615339397166e7 3.360258695205366e7 0.0
0.0 0.0 0.0

3.9637894600034035e6 1.8097043253499977e7 0.0
1.8097043253499977e7 7.26299164966374e6 0.0
0.0 0.0 0.0

4.377595145185418e6 1.6101808418409875e7 0.0
1.6101808418409875e7 1.9549194071226183e7 0.0
0.0 0.0 0.0

1.5184834256961488e6 2.086985388099397e7 0.0
2.086985388099397e7 -5.859376149386734e6 0.0
0.0 0.0 0.0

-657811.3487840048 1.6895632517130364e7 0.0
1.6895632517130364e7 1.1920417220718626e7 0.0
0.0 0.0 0.0

-3.698555627852693e6 1.7523504855511084e7 0.0
1.7523504855511084e7 1.4096883965256002e7 0.0
0.0 0.0 0.0

1.0481301213896542e6 2.60508322056142e7 0.0
2.60508322056142e7 -1.5867158304196645e6 0.0
0.0 0.0 0.0

1.376962522224505e6 1.784458751247662e7 0.0
1.784458751247662e7 1.0692704303539796e7 0.0
0.0 0.0 0.0

4.786964846782945e6 2.80862195634084e6 0.0
2.80862195634084e6 -2.228399010620944e7 0.0
0.0 0.0 0.0

-1.0847447374465726e7 1.3602150122127447e7 0.0
1.3602150122127447e7 1.6907128595596544e7 0.0
0.0 0.0 0.0

-9.274175209136456e6 -5.314036732584508e6 0.0
-5.314036732584508e6 2.7426943054090444e7 0.0
0.0 0.0 0.0

-6.632156619450471e6 1.7683803021559544e7 0.0
1.7683803021559544e7 1.6840674930667814e7 0.0
0.0 0.0 0.0

-1.0003655501539148e6 2.4115200388510574e7 0.0
2.4115200388510574e7 -1.130554183613457e6 0.0
0.0 0.0 0.0

4.04811997174973e6 1.8552053372259848e7 0.0
1.8552053372259848e7 1.313997689787481e7 0.0
0.0 0.0 0.0

2.2321542061543562e6 1.6102459650118524e7 0.0
1.6102459650118524e7 1.4700471061063383e7 0.0
0.0 0.0 0.0

-3.778671649162399e6 2.2945651192271754e7 0.0
2.2945651192271754e7 5.772669167959859e6 0.0
0.0 0.0 0.0

3.7912591993665015e6 4.370122127470064e6 0.0
4.370122127470064e6 -1.2868785695949137e7 0.0
0.0 0.0 0.0

-1.886492298613374e6 2.2397491098197084e7 0.0
2.2397491098197084e7 -2.744814216435316e6 0.0
0.0 0.0 0.0

3.0669607335218797e6 9.789352042938903e6 0.0
9.789352042938903e6 -1.7730794764469124e7 0.0
0.0 0.0 0.0

-6.955752807343003e6 2.228853491132355e7 0.0
2.228853491132355e7 6.676646167333362e6 0.0
0.0 0.0 0.0

1.8503189044776624e6 2.238296847031824e7 0.0
2.238296847031824e7 -5.028303929352614e6 0.0
0.0 0.0 0.0

-7.696439101681593e6 1.9266033371573955e7 0.0
1.9266033371573955e7 739537.8350745109 0.0
0.0 0.0 0.0

4.1668433894006982e6 2.2820028169477484e6 0.0
2.2820028169477484e6 -4.1206354120791525e7 0.0
0.0 0.0 0.0

3.2804412582970685e6 1.779379934052143e7 0.0
1.779379934052143e7 1.4810015893672733e6 0.0
0.0 0.0 0.0

-286557.09952255304 2.3073157309736874e7 0.0
2.3073157309736874e7 -3.100606884321004e6 0.0
0.0 0.0 0.0

-618166.9432222659 2.0321893992694538e7 0.0
2.0321893992694538e7 -6.159809995650295e6 0.0
0.0 0.0 0.0

-1.2466307020704877e6 1.568457636985447e7 0.0
1.568457636985447e7 -1.0612185454899957e7 0.0
0.0 0.0 0.0

4.1486813366818493e6 4.629722332158214e6 0.0
4.629722332158214e6 -2.0839175138348825e7 0.0
0.0 0.0 0.0

-4.1811629899260798e6 1.9789558859719343e7 0.0
1.9789558859719343e7 5.3146195611053305e6 0.0
0.0 0.0 0.0

1.3913090891847853e6 1.1678088154426342e7 0.0
1.1678088154426342e7 -2.5037080441260155e7 0.0
0.0 0.0 0.0

-9.2803600365688e6 -4.617013752196459e6 0.0
-4.617013752196459e6 3.0621752676379465e7 0.0
0.0 0.0 0.0

-6.583981415235471e6 1.655340572096445e7 0.0
1.655340572096445e7 1.4833569798814598e7 0.0
0.0 0.0 0.0

-1.2376544979316201e7 2.1874511070763286e7 0.0
2.1874511070763286e7 3.796343722477298e6 0.0
0.0 0.0 0.0

2.3681992754322067e6 5.571299375536668e6 0.0
5.571299375536668e6 -6.062323432386285e7 0.0
0.0 0.0 0.0

-7.429680168068143e6 1.4449331362009257e7 0.0
1.4449331362009257e7 2.830217107418818e7 0.0
0.0 0.0 0.0

-2.1371593716578335e6 1.7811560642684843e7 0.0
1.7811560642684843e7 1.685802870351457e7 0.0
0.0 0.0 0.0

-4.4218159678566065e6 1.6379959414074754e7 0.0
1.6379959414074754e7 2.4519674532199766e7 0.0
0.0 0.0 0.0

-3.162131910162582e6 1.7547653929707095e7 0.0
1.7547653929707095e7 824502.0207757037 0.0
0.0 0.0 0.0

-6.262703778923809e6 1.698833539999994e7 0.0
1.698833539999994e7 1.1326934105850052e7 0.0
0.0 0.0 0.0

-1.0276839096410198e6 1.5648349792579671e7 0.0
1.5648349792579671e7 -8.442167033607783e6 0.0
0.0 0.0 0.0

1.2053966413451666e6 1.318535824192887e7 0.0
1.318535824192887e7 -1.7095171516580097e7 0.0
0.0 0.0 0.0

2.287855609464716e6 8.998755176741999e6 0.0
8.998755176741999e6 -3.584695458125335e7 0.0
0.0 0.0 0.0

-9.362506900361558e6 -4.988855647894526e6 0.0
-4.988855647894526e6 2.8458364977101408e7 0.0
0.0 0.0 0.0

-9.095126357560938e6 -3.597226852149994e6 0.0
-3.597226852149994e6 3.587026411379441e7 0.0
0.0 0.0 0.0

-6.926493896974908e6 2.0634784394842893e7 0.0
2.0634784394842893e7 1.9207977662835978e6 0.0
0.0 0.0 0.0

-28033.65889512282 1.8304853425784003e7 0.0
1.8304853425784003e7 -9.807352715052176e6 0.0
0.0 0.0 0.0

-3.207781556536764e6 1.642000291002268e7 0.0
1.642000291002268e7 2.862122608756121e7 0.0
0.0 0.0 0.0

-772400.8499670182 1.5609919960202275e7 0.0
1.5609919960202275e7 -6.125639396500086e6 0.0
0.0 0.0 0.0

2.115686413930246e6 2.0126538116123293e7 0.0
2.0126538116123293e7 -5.849881231452922e6 0.0
0.0 0.0 0.0

-4.1375117502481015e6 2.104840532152388e7 0.0
2.104840532152388e7 5.845877364928812e6 0.0
0.0 0.0 0.0

-8.286518684882302e6 -5.111762851517483e6 0.0
-5.111762851517483e6 1.806285810980453e7 0.0
0.0 0.0 0.0

6.7185760165057145e6 3.82888296456196e7 0.0
3.82888296456196e7 -3.5917318477230445e6 0.0
0.0 0.0 0.0

315472.8731018561 1.6485363460846232e7 0.0
1.6485363460846232e7 -8.222299792682618e6 0.0
0.0 0.0 0.0

-3.761944115622049e6 1.4757843117237495e7 0.0
1.4757843117237495e7 -3.913210707769229e7 0.0
0.0 0.0 0.0

4.887901892293952e6 3.3468752652313774e6 0.0
3.3468752652313774e6 -2.6218053115892787e7 0.0
0.0 0.0 0.0

-140036.41121161543 1.6251812820892569e7 0.0
1.6251812820892569e7 -4.793577628503633e6 0.0
0.0 0.0 0.0

-8.511473789119264e6 1.5647631305558354e7 0.0
1.5647631305558354e7 1.7344804001660485e7 0.0
0.0 0.0 0.0

-2.1086056742657077e7 1.7574854507348526e7 0.0
1.7574854507348526e7 8.141514721005262e6 0.0
0.0 0.0 0.0

-3.1447595164393634e6 1.8878244803805783e7 0.0
1.8878244803805783e7 -6.7654411938207e6 0.0
0.0 0.0 0.0

3.4841159120732145e6 1.5736798349134032e7 0.0
1.5736798349134032e7 1.681270167009071e7 0.0
0.0 0.0 0.0

-1.75131922486556e6 1.5374646402117576e7 0.0
1.5374646402117576e7 -1.140985372792796e7 0.0
0.0 0.0 0.0

-9.075062126384057e6 -2.648048146911264e6 0.0
-2.648048146911264e6 1.8305727242012504e7 0.0
0.0 0.0 0.0

-1.1808922668489744e6 1.7084928019827124e7 0.0
1.7084928019827124e7 -8.390321093477836e6 0.0
0.0 0.0 0.0

-567113.174948589 1.6731504098590525e7 0.0
1.6731504098590525e7 2.7768504841152076e6 0.0
0.0 0.0 0.0

-2.0834514580200287e6 1.7793820098103665e7 0.0
1.7793820098103665e7 1.2086634518250193e7 0.0
0.0 0.0 0.0

232155.49086126965 1.5424188695862947e7 0.0
1.5424188695862947e7 -1.4004487067279443e7 0.0
0.0 0.0 0.0

-3.479192902342953e6 1.7670965996170685e7 0.0
1.7670965996170685e7 1.8832122984700136e7 0.0
0.0 0.0 0.0

-118828.50728098297 1.5072585295835666e7 0.0
1.5072585295835666e7 -236543.30778772975 0.0
0.0 0.0 0.0

64845.03153170599 1.824969481619926e7 0.0
1.824969481619926e7 -1.0021539786434945e7 0.0
0.0 0.0 0.0

2.885262782842729e6 1.6983903159497738e7 0.0
1.6983903159497738e7 -2.296847467910451e6 0.0
0.0 0.0 0.0

1.8695650268572047e6 1.140281519031906e7 0.0
1.140281519031906e7 -2.2416934323633872e7 0.0
0.0 0.0 0.0

-6.879467424139313e6 1.7648836180422228e7 0.0
1.7648836180422228e7 1.5868499091793008e7 0.0
0.0 0.0 0.0

-380087.4536989273 1.4546139518895732e7 0.0
1.4546139518895732e7 -7.27924043471722e6 0.0
0.0 0.0 0.0

-3.901169485715543e7 2.353709746636286e7 0.0
2.353709746636286e7 5.572745535625618e6 0.0
0.0 0.0 0.0

169428.43639437482 1.681671553968055e7 0.0
1.681671553968055e7 3.665367944020479e7 0.0
0.0 0.0 0.0

4.684832357308108e6 2.328634914328136e6 0.0
2.328634914328136e6 -2.972554466570587e7 0.0
0.0 0.0 0.0

-9.185732182309443e6 -3.70967967804993e6 0.0
-3.70967967804993e6 3.462989266799021e7 0.0
0.0 0.0 0.0

-1.9422053205237668e6 1.3651879058374977e7 0.0
1.3651879058374977e7 -3.4421580475325145e7 0.0
0.0 0.0 0.0

-449893.8165096259 1.4274490459602935e7 0.0
1.4274490459602935e7 -2.2360931284713596e7 0.0
0.0 0.0 0.0

-1.2616470618966562e6 1.7612984978703618e7 0.0
1.7612984978703618e7 -4.159262992625471e6 0.0
0.0 0.0 0.0

-1.209734288094871e7 2.379599286169305e7 0.0
2.379599286169305e7 -6.9492602390248375e6 0.0
0.0 0.0 0.0

-7.7732333684733035e6 1.6662354091036893e7 0.0
1.6662354091036893e7 2.0770664926162586e7 0.0
0.0 0.0 0.0

123744.44729195163 1.81334060101117e7 0.0
1.81334060101117e7 -1.0122723576725356e7 0.0
0.0 0.0 0.0

-8.353628490527561e6 -1.8594484184737157e6 0.0
-1.8594484184737157e6 4.6746234458046846e7 0.0
0.0 0.0 0.0

-1.0402791811423592e7 1.4818502114638371e7 0.0
1.4818502114638371e7 1.9483854210392714e7 0.0
0.0 0.0 0.0

3.0250984273247756e6 3.9623216954395003e6 0.0
3.9623216954395003e6 -5.641423430781567e7 0.0
0.0 0.0 0.0

-2.6729998748987415e6 2.4217075130923036e7 0.0
2.4217075130923036e7 677983.0660480654 0.0
0.0 0.0 0.0

3.5672640975321326e6 2.6250739432723015e6 0.0
2.6250739432723015e6 -4.8676245568521336e7 0.0
0.0 0.0 0.0

-2.109251060967879e7 3.740753662975424e7 0.0
3.740753662975424e7 6.57763116285459e6 0.0
0.0 0.0 0.0

-8.20609851805808e6 -1.5146182607868533e6 0.0
-1.5146182607868533e6 4.902768942735344e7 0.0
0.0 0.0 0.0

2.090972050059733e6 1.164410761484858e7 0.0
1.164410761484858e7 -2.2276196876019053e7 0.0
0.0 0.0 0.0

-9.694587362790963e6 2.160802233055649e7 0.0
2.160802233055649e7 4.664829415586475e6 0.0
0.0 0.0 0.0

-3.8561621541925125e7 2.3261135361016847e7 0.0
2.3261135361016847e7 1.1166534065207727e6 0.0
0.0 0.0 0.0

3.3079023043219224e6 3.219533783628494e6 0.0
3.219533783628494e6 -5.23204734428717e7 0.0
0.0 0.0 0.0

-3.782004619650533e6 2.0248002375665322e7 0.0
2.0248002375665322e7 2.4876394994085585e6 0.0
0.0 0.0 0.0

-4.601596755485427e6 1.8855363041682232e7 0.0
1.8855363041682232e7 1.1570034328318514e7 0.0
0.0 0.0 0.0

1.1322921782756366e7 1.5282694178834783e7 0.0
1.5282694178834783e7 6.320225396331022e6 0.0
0.0 0.0 0.0

190600.72238274664 1.4116776946126489e7 0.0
1.4116776946126489e7 -1.9992244758135367e7 0.0
0.0 0.0 0.0

-1.017076435034981e6 1.4838066915017746e7 0.0
1.4838066915017746e7 -2.054363162767468e7 0.0
0.0 0.0 0.0

-1.2432765018053376e6 1.9942231092267875e7 0.0
1.9942231092267875e7 -6.7742908214142965e6 0.0
0.0 0.0 0.0

-2.6564359502151613e6 2.463082712221298e7 0.0
2.463082712221298e7 802888.8785442929 0.0
0.0 0.0 0.0

-1.1831639877027208e7 9.723881835306775e6 0.0
9.723881835306775e6 2.6177023817705315e7 0.0
0.0 0.0 0.0

3.973381182793895e6 2.303144551804261e6 0.0
2.303144551804261e6 -4.384850016277816e7 0.0
0.0 0.0 0.0

-9.353615561248489e6 2.7599099075880792e7 0.0
2.7599099075880792e7 5.002692431017444e6 0.0
0.0 0.0 0.0

4.317518867559886e6 5.485297378998147e6 0.0
5.485297378998147e6 -1.69827021784426e7 0.0
0.0 0.0 0.0

-1.0974072993139047e6 1.590853554234442e7 0.0
1.590853554234442e7 -1.3860535235956116e7 0.0
0.0 0.0 0.0

3.805433397501923e6 2.5380581074392954e6 0.0
2.5380581074392954e6 -4.571438228058542e7 0.0
0.0 0.0 0.0

-1.2303482323227208e6 1.5242009343301123e7 0.0
1.5242009343301123e7 -1.863074421408697e7 0.0
0.0 0.0 0.0

-1.1657907053887257e7 6.739580795072289e6 0.0
6.739580795072289e6 2.9928376424313627e7 0.0
0.0 0.0 0.0

-1.2355734605466917e6 2.7687459464542596e6 0.0
2.7687459464542596e6 -535348.4806204634 0.0
0.0 0.0 0.0

-4.784228520528449e6 1.518123091879323e7 0.0
1.518123091879323e7 3.087431145587261e6 0.0
0.0 0.0 0.0

1.2745081586940978e6 1.742368569593311e7 0.0
1.742368569593311e7 1.7073942283865206e7 0.0
0.0 0.0 0.0

4.517992171196643e6 2.159231634173422e6 0.0
2.159231634173422e6 -3.2703555982881688e7 0.0
0.0 0.0 0.0

-4.508729186365652e6 2.1146319142315872e7 0.0
2.1146319142315872e7 8.491628127565838e6 0.0
0.0 0.0 0.0

-9.895117359045995e6 -3.49846384421946e6 0.0
-3.49846384421946e6 2.7253869773621883e7 0.0
0.0 0.0 0.0

-79718.00075393743 1.6182963956579098e7 0.0
1.6182963956579098e7 -420431.38568691333 0.0
0.0 0.0 0.0

1.7292824261654653e6 1.1847841371888552e7 0.0
1.1847841371888552e7 -2.1328211609533288e7 0.0
0.0 0.0 0.0

-5.625013738985466e6 1.789178397364133e7 0.0
1.789178397364133e7 1.6342648679548629e7 0.0
0.0 0.0 0.0

-226170.12022586167 1.7017096846717525e7 0.0
1.7017096846717525e7 2.3550967775941312e7 0.0
0.0 0.0 0.0

-625276.0633962405 1.6161040531620573e7 0.0
1.6161040531620573e7 -3.496468132578937e6 0.0
0.0 0.0 0.0

-718560.3500493886 1.979587529720978e7 0.0
1.979587529720978e7 -6.560308741449908e6 0.0
0.0 0.0 0.0

-3.9103795785529865e6 2.1825858766629677e7 0.0
2.1825858766629677e7 4.297944337901035e6 0.0
0.0 0.0 0.0

-432599.4732984982 1.6865938342264853e7 0.0
1.6865938342264853e7 -5.219336586180494e6 0.0
0.0 0.0 0.0

1.4412279662353994e7 5.714110620600199e6 0.0
5.714110620600199e6 -2.8115412277441053e6 0.0
0.0 0.0 0.0

-8.588063405756075e6 -2.0441051354310007e6 0.0
-2.0441051354310007e6 4.4537115090168186e7 0.0
0.0 0.0 0.0

3.9256789515441535e6 1.8663009020610057e7 0.0
1.8663009020610057e7 9.122680133497028e6 0.0
0.0 0.0 0.0

-9.033462998856992e6 -3.292644594950425e6 0.0
-3.292644594950425e6 3.726265477219196e7 0.0
0.0 0.0 0.0

-763878.1105288283 1.7073677143258728e7 0.0
1.7073677143258728e7 -878877.4695446191 0.0
0.0 0.0 0.0

-9.10203263999523e6 8.348386799459427e6 0.0
8.348386799459427e6 2.414011888904222e7 0.0
0.0 0.0 0.0

-4.197475387003355e6 1.519234302557123e7 0.0
1.519234302557123e7 5.043756286987277e6 0.0
0.0 0.0 0.0

705256.3381837737 2.13370696734756e6 0.0
2.13370696734756e6 -1.4777575080885314e6 0.0
0.0 0.0 0.0

693937.6817299805 2.5351927118281564e6 0.0
2.5351927118281564e6 -1.406278803242401e6 0.0
0.0 0.0 0.0

96672.09852383798 1.7792384840197217e7 0.0
1.7792384840197217e7 -1.082311017129172e7 0.0
0.0 0.0 0.0

-5.829411444161735e6 1.9350250634480376e7 0.0
1.9350250634480376e7 -2.921920752120207e6 0.0
0.0 0.0 0.0

272732.3192284424 1.801729183441432e7 0.0
1.801729183441432e7 -1.0016218269918852e7 0.0
0.0 0.0 0.0

-1.2575734222527938e7 8.342975048588736e6 0.0
8.342975048588736e6 2.4533226642521422e7 0.0
0.0 0.0 0.0

-1.489215167833141e6 1.570436221443309e7 0.0
1.570436221443309e7 -1.2728394027824298e7 0.0
0.0 0.0 0.0

1.736913202127601e6 1.1453600127772007e7 0.0
1.1453600127772007e7 -2.3674726681491606e7 0.0
0.0 0.0 0.0

-4.336465605655295e6 2.0667714901260708e7 0.0
2.0667714901260708e7 9.221218490523519e6 0.0
0.0 0.0 0.0

1.7711682640076755e6 1.1843391369805984e7 0.0
1.1843391369805984e7 -2.0068805555625424e7 0.0
0.0 0.0 0.0

-8.19683155187103e7 2.849287895948761e7 0.0
2.849287895948761e7 -822635.2780010067 0.0
0.0 0.0 0.0

497102.1182726212 1.4969757404898407e7 0.0
1.4969757404898407e7 -1.4909683281218743e7 0.0
0.0 0.0 0.0

-3.352920273429139e6 2.8130037686968803e7 0.0
2.8130037686968803e7 1.5258788921686604e6 0.0
0.0 0.0 0.0

-390748.3483562516 1.5716289228595054e7 0.0
1.5716289228595054e7 4.387154809585163e6 0.0
0.0 0.0 0.0

-7.314477430761623e6 1.7281871112127144e7 0.0
1.7281871112127144e7 1.8587189828392725e7 0.0
0.0 0.0 0.0

-3.266815688376696e6 1.8636970162536405e7 0.0
1.8636970162536405e7 -9.449259950956836e6 0.0
0.0 0.0 0.0

7.403510659039861e6 3.035081168652198e7 0.0
3.035081168652198e7 -5.406039329658023e6 0.0
0.0 0.0 0.0

-9.295226697663348e6 -4.189959786374104e6 0.0
-4.189959786374104e6 3.2562769425491482e7 0.0
0.0 0.0 0.0

4.617583622675315e6 2.3104289205455408e6 0.0
2.3104289205455408e6 -3.0551260735444248e7 0.0
0.0 0.0 0.0

-1.2716972742024048e6 2.0252400751298983e7 0.0
2.0252400751298983e7 -4.765878002374437e6 0.0
0.0 0.0 0.0

-7.489416681533545e6 -4.618359552225369e6 0.0
-4.618359552225369e6 1.0613410859344767e7 0.0
0.0 0.0 0.0

4.271028637749139e6 2.1896935464586415e6 0.0
2.1896935464586415e6 -3.880226580647294e7 0.0
0.0 0.0 0.0

-8.689774368604388e6 -2.406308127360368e6 0.0
-2.406308127360368e6 4.296308363588591e7 0.0
0.0 0.0 0.0

-9.119320182216695e6 -6.021222405855235e6 0.0
-6.021222405855235e6 2.4279653425601393e7 0.0
0.0 0.0 0.0

-972164.8730419714 1.5222705907443734e7 0.0
1.5222705907443734e7 -4.5034033300258e6 0.0
0.0 0.0 0.0

-9.265150659567127e6 -3.9168987424428225e6 0.0
-3.9168987424428225e6 3.3662959998039514e7 0.0
0.0 0.0 0.0

4.564629783543043e6 2.3407861533240443e6 0.0
2.3407861533240443e6 -3.158835883362082e7 0.0
0.0 0.0 0.0

4.363967541978234e6 2.2551283357233605e6 0.0
2.2551283357233605e6 -3.736693480048464e7 0.0
0.0 0.0 0.0

-8.74111641574778e6 -2.742081627816974e6 0.0
-2.742081627816974e6 4.1435561890153185e7 0.0
0.0 0.0 0.0

-3.756354671577585e6 1.7473714538637348e7 0.0
1.7473714538637348e7 -1.0589697642255357e7 0.0
0.0 0.0 0.0

197029.1660150569 1.7337157809431203e7 0.0
1.7337157809431203e7 -1.1644669312688755e7 0.0
0.0 0.0 0.0

-3.4262143769113095e6 2.2069778247066777e7 0.0
2.2069778247066777e7 4.682968178850532e6 0.0
0.0 0.0 0.0

4.406312506595904e6 2.2137785648493175e6 0.0
2.2137785648493175e6 -3.6393472099016964e7 0.0
0.0 0.0 0.0

-8.8127903462807e6 -2.9772083744626106e6 0.0
-2.9772083744626106e6 3.975964844381911e7 0.0
0.0 0.0 0.0

-581899.4185285404 1.5619577796514312e7 0.0
1.5619577796514312e7 -3.7325054774453416e6 0.0
0.0 0.0 0.0

1.9901655449719792e6 1.253974486274478e7 0.0
1.253974486274478e7 -1.900253051599932e7 0.0
0.0 0.0 0.0

-1.746778396426337e6 2.16723971574351e7 0.0
2.16723971574351e7 -2.247166797885435e6 0.0
0.0 0.0 0.0

-3.605164180598821e6 1.7424813783754718e7 0.0
1.7424813783754718e7 -615129.9118207109 0.0
0.0 0.0 0.0

-5.1646502053609975e6 1.6963332551572196e7 0.0
1.6963332551572196e7 2.142357233319182e7 0.0
0.0 0.0 0.0

-8.93072240928865e6 -3.0934948705523415e6 0.0
-3.0934948705523415e6 3.839705945445096e7 0.0
0.0 0.0 0.0

4.482626671112908e6 2.1542173824010133e6 0.0
2.1542173824010133e6 -3.5046045174563624e7 0.0
0.0 0.0 0.0

586502.6161247736 2.3597500595792517e7 0.0
2.3597500595792517e7 -3.9138830122628366e6 0.0
0.0 0.0 0.0

-1.5981363189669792e6 1.67093777922824e7 0.0
1.67093777922824e7 3.367280101437931e7 0.0
0.0 0.0 0.0

5.198221287019398e7 5.871592282937533e7 0.0
5.871592282937533e7 -1.881125691482719e7 0.0
0.0 0.0 0.0

-10340.40600790456 1.0035506386536187e7 0.0
1.0035506386536187e7 -7.200282618701849e6 0.0
0.0 0.0 0.0

-2.688886539280111e6 2.4049827177269068e7 0.0
2.4049827177269068e7 1.9466705855159345e6 0.0
0.0 0.0 0.0

-7.122413370555765e6 610718.1531840028 0.0
610718.1531840028 7.719175793493327e6 0.0
0.0 0.0 0.0

-3.2572182568565262e6 2.24356799863745e7 0.0
2.24356799863745e7 3.9926201793503584e6 0.0
0.0 0.0 0.0

3.569638152436561e6 3.273072636499464e6 0.0
3.273072636499464e6 -1.1163919665381365e7 0.0
0.0 0.0 0.0

5.537360687991569e6 2.1729598220422294e7 0.0
2.1729598220422294e7 -4.86706558612317e6 0.0
0.0 0.0 0.0

384304.91529547935 2.0626135157546695e7 0.0
2.0626135157546695e7 -6.49190288953691e6 0.0
0.0 0.0 0.0

-8.64485106406156e6 1.4507852475481106e7 0.0
1.4507852475481106e7 1.359027772813369e7 0.0
0.0 0.0 0.0

-799195.3670784861 1.7615904899471264e7 0.0
1.7615904899471264e7 -1.1231901759007878e6 0.0
0.0 0.0 0.0

-7.054280598305631e6 -472931.47932091856 0.0
-472931.47932091856 5.4214268156982444e7 0.0
0.0 0.0 0.0

1.0282462270822473e6 3.9225728512549e6 0.0
3.9225728512549e6 -2.5764966630910095e6 0.0
0.0 0.0 0.0

-3.216856522138728e6 -873239.904561043 0.0
-873239.904561043 1.0068537382228333e6 0.0
0.0 0.0 0.0

1.0798457125085916e6 -1.7221253884433098e6 0.0
-1.7221253884433098e6 -2.428488885460947e6 0.0
0.0 0.0 0.0

802973.3144610324 2.0834182873438437e7 0.0
2.0834182873438437e7 -6.216951655287534e6 0.0
0.0 0.0 0.0

-3.2572666176714897e6 1.424803342902101e7 0.0
1.424803342902101e7 -3.839271823811315e7 0.0
0.0 0.0 0.0

1.5516787179331733e6 1.6859378476627387e7 0.0
1.6859378476627387e7 2.018343086202644e7 0.0
0.0 0.0 0.0

-2.198323778791869e6 1.679789751265346e7 0.0
1.679789751265346e7 -9.22348664807151e6 0.0
0.0 0.0 0.0

4.81296079524042e6 2.95945550002628e6 0.0
2.95945550002628e6 -1.95860211878846e7 0.0
0.0 0.0 0.0

-1.2456450476478436e6 1.4306332462102534e7 0.0
1.4306332462102534e7 -3.6500493984773788e6 0.0
0.0 0.0 0.0

52482.73139091022 1.7032228415582787e7 0.0
1.7032228415582787e7 -1.1303390375562482e7 0.0
0.0 0.0 0.0

-1.485902541541312e6 1.3526675599108899e7 0.0
1.3526675599108899e7 -2.8061048843737587e7 0.0
0.0 0.0 0.0

-1.3799034231520179e6 2.223374173192779e7 0.0
2.223374173192779e7 -2.5112178536420283e6 0.0
0.0 0.0 0.0

-6.464687482031168e6 1.735786922959098e7 0.0
1.735786922959098e7 1.762560642872082e7 0.0
0.0 0.0 0.0

-903119.8523410482 1.4718531675524406e7 0.0
1.4718531675524406e7 -3.029983554226021e6 0.0
0.0 0.0 0.0

-194584.84553842118 1.6472229633707345e7 0.0
1.6472229633707345e7 2.1224004076676965e6 0.0
0.0 0.0 0.0

-3.5790484096091627e6 1.4346731372163115e7 0.0
1.4346731372163115e7 -1.95985011062316e7 0.0
0.0 0.0 0.0

-1.6335465840629688e7 2.393901935321808e7 0.0
2.393901935321808e7 -455395.5560948178 0.0
0.0 0.0 0.0

6.189467044083786e6 3.2735881717679586e7 0.0
3.2735881717679586e7 -4.304099237762879e6 0.0
0.0 0.0 0.0

-179976.32944669112 1.6292553600315177e6 0.0
1.6292553600315177e6 465524.24984737637 0.0
0.0 0.0 0.0

1695.6945167685408 1.240232157898249e6 0.0
1.240232157898249e6 110890.65315655198 0.0
0.0 0.0 0.0

-6.17641042082339e6 1.788456786183961e7 0.0
1.788456786183961e7 1.5856785654274408e7 0.0
0.0 0.0 0.0

-2.105395856338145e6 1.9557049967979047e7 0.0
1.9557049967979047e7 -4.994698933378817e6 0.0
0.0 0.0 0.0

-2.3647146667817826e6 2.472461618875654e7 0.0
2.472461618875654e7 1.763404916475479e6 0.0
0.0 0.0 0.0

-3.088935952937469e6 2.2757799514396314e7 0.0
2.2757799514396314e7 3.3594636856338084e6 0.0
0.0 0.0 0.0

7.125381429478671e6 1.8037041762998518e7 0.0
1.8037041762998518e7 6.565784798191566e6 0.0
0.0 0.0 0.0

1.914185334691088e6 1.772240199685337e7 0.0
1.772240199685337e7 -4.952068432803284e6 0.0
0.0 0.0 0.0

255367.05861344375 1.6103985692739453e7 0.0
1.6103985692739453e7 3.7369186355240434e7 0.0
0.0 0.0 0.0

-3.3650390143347695e7 2.368425713671621e7 0.0
2.368425713671621e7 -7.237795411760501e6 0.0
0.0 0.0 0.0

-9.436149877373955e7 3.1424646823148977e7 0.0
3.1424646823148977e7 7.186764207798947e6 0.0
0.0 0.0 0.0

-8.057160708871735e6 1.3776834809765719e7 0.0
1.3776834809765719e7 1.1554134339051966e7 0.0
0.0 0.0 0.0

-4.0044475122208362e6 1.834664585143618e7 0.0
1.834664585143618e7 1.308166103361387e7 0.0
0.0 0.0 0.0

3.858203939008856e6 5.2514368769350555e6 0.0
5.2514368769350555e6 -1.8283519921022184e7 0.0
0.0 0.0 0.0

-9.466591918951686e6 1.4775486418360977e7 0.0
1.4775486418360977e7 1.7747077063285917e7 0.0
0.0 0.0 0.0

-3.9850375192520334e6 -5.660938741388322e6 0.0
-5.660938741388322e6 7.512355635002982e6 0.0
0.0 0.0 0.0

4.875993489600755e6 1.9321804811504528e7 0.0
1.9321804811504528e7 1.0111822211567476e7 0.0
0.0 0.0 0.0

-727929.7679678751 1.3687541835583786e7 0.0
1.3687541835583786e7 -2.7341531803208232e7 0.0
0.0 0.0 0.0

4.642656802083718e6 4.707309769166676e6 0.0
4.707309769166676e6 -2.2480958931905676e7 0.0
0.0 0.0 0.0

3.126663772088348e6 1.7194902964816857e7 0.0
1.7194902964816857e7 4.442502688136522e6 0.0
0.0 0.0 0.0

-4.038458159632962e6 3.4916503251527175e6 0.0
3.4916503251527175e6 7.119096518309012e7 0.0
0.0 0.0 0.0

-4.312086452610696e6 2.3876868522564363e7 0.0
2.3876868522564363e7 5.694246863726897e6 0.0
0.0 0.0 0.0

-1.39239888144846e7 2.092053495421033e7 0.0
2.092053495421033e7 1.3057035022327527e6 0.0
0.0 0.0 0.0

-60153.47998495586 1.9738573522586774e7 0.0
1.9738573522586774e7 -7.607080031193212e6 0.0
0.0 0.0 0.0

-8.340439028238059e6 -6.733571796376759e6 0.0
-6.733571796376759e6 2.1469181247581728e7 0.0
0.0 0.0 0.0

-455303.2230208686 1.5369473387294102e7 0.0
1.5369473387294102e7 5.168412459392006e6 0.0
0.0 0.0 0.0

-9.280169540642608e6 -4.737150101135164e6 0.0
-4.737150101135164e6 2.9609127102183096e7 0.0
0.0 0.0 0.0

3.113167577497163e6 1.8029845017902724e7 0.0
1.8029845017902724e7 4.218771722760861e6 0.0
0.0 0.0 0.0

-3.185487136132509e6 1.912146454733798e7 0.0
1.912146454733798e7 1.013102122400614e6 0.0
0.0 0.0 0.0

4.923242223760897e6 3.4970621172783435e6 0.0
3.4970621172783435e6 -2.4602200532505915e7 0.0
0.0 0.0 0.0

-3.662649472054611e6 1.8043477598134223e7 0.0
1.8043477598134223e7 -9.754791921105573e6 0.0
0.0 0.0 0.0

4.687045554300236e6 3.0729184379563606e6 0.0
3.0729184379563606e6 -1.7760513809057977e7 0.0
0.0 0.0 0.0

558281.4437627066 1.4595957999340706e7 0.0
1.4595957999340706e7 -1.728150848343633e7 0.0
0.0 0.0 0.0

-5.171872930051423e6 2.797034520839875e7 0.0
2.797034520839875e7 3.29154164642708e6 0.0
0.0 0.0 0.0

-337791.2456646763 1.3311525018004794e7 0.0
1.3311525018004794e7 -189942.11379823473 0.0
0.0 0.0 0.0

-1.0895104034189137e6 1.9396324649540607e7 0.0
1.9396324649540607e7 -7.619321107894547e6 0.0
0.0 0.0 0.0

-3.992799805145669e6 2.6646003650479317e7 0.0
2.6646003650479317e7 2.626718755074537e6 0.0
0.0 0.0 0.0

-3.552056232596262e6 2.1704441311059672e7 0.0
2.1704441311059672e7 5.486895829069029e6 0.0
0.0 0.0 0.0

-3.5805427763834735e6 2.2458950403533157e7 0.0
2.2458950403533157e7 2.8806995284562046e6 0.0
0.0 0.0 0.0

-1.667733438595625e6 2.6369084622734744e7 0.0
2.6369084622734744e7 -50318.31141720124 0.0
0.0 0.0 0.0

-391841.69401679654 1.878617603084268e7 0.0
1.878617603084268e7 -8.342158989157621e6 0.0
0.0 0.0 0.0

-3.824183837394218e6 2.878121093488837e7 0.0
2.878121093488837e7 1.7419348222003123e6 0.0
0.0 0.0 0.0

-1.0556658268121943e7 9.791952683822101e6 0.0
9.791952683822101e6 1.3359422796306293e7 0.0
0.0 0.0 0.0

1.2264880143757295e6 1.2237941973011356e7 0.0
1.2237941973011356e7 -1.3753358034526449e7 0.0
0.0 0.0 0.0

-9.741451118029684e6 -3.4563069476166014e6 0.0
-3.4563069476166014e6 1.6550347038688788e7 0.0
0.0 0.0 0.0

-1.024829349677869e7 2.2617389894491974e7 0.0
2.2617389894491974e7 4.955795417476302e6 0.0
0.0 0.0 0.0

-9.377489629976459e6 -863385.796306979 0.0
-863385.796306979 3.956111846449688e7 0.0
0.0 0.0 0.0

401677.0198122766 2.4387363761722513e7 0.0
2.4387363761722513e7 -3.329750233950131e6 0.0
0.0 0.0 0.0

990430.8578112703 1.4559308741001707e7 0.0
1.4559308741001707e7 -1.724836297442457e7 0.0
0.0 0.0 0.0

-159605.08997998573 1.7217769291568317e7 0.0
1.7217769291568317e7 6.606266800123387e6 0.0
0.0 0.0 0.0

-828891.3884726956 1.4330414163153723e7 0.0
1.4330414163153723e7 -8.713784771099774e6 0.0
0.0 0.0 0.0

1.4508894184971917e6 1.251060962419207e7 0.0
1.251060962419207e7 -2.342303016240694e7 0.0
0.0 0.0 0.0

3.5916728311691517e6 4.241396216988485e6 0.0
4.241396216988485e6 -1.3177779758407155e7 0.0
0.0 0.0 0.0

1.3798857927350723e6 2.0940155546906892e7 0.0
2.0940155546906892e7 -5.97096037478955e6 0.0
0.0 0.0 0.0

-371212.2455320433 1.7122032026106082e7 0.0
1.7122032026106082e7 4.60976323197653e6 0.0
0.0 0.0 0.0

-3.3368694864414115e6 1.695291872045051e7 0.0
1.695291872045051e7 -1.6767182215805487e6 0.0
0.0 0.0 0.0

4.07541361077331e6 2.188919131144982e6 0.0
2.188919131144982e6 -4.199514661881402e7 0.0
0.0 0.0 0.0

-1.0842508692035263e7 2.0859986089305503e6 0.0
2.0859986089305503e6 1.848333108585198e7 0.0
0.0 0.0 0.0

3.5708360532387514e6 4.196772195518796e6 0.0
4.196772195518796e6 -4.19116020881364e7 0.0
0.0 0.0 0.0

-5.869167545169395e6 -6.881856046071883e6 0.0
-6.881856046071883e6 1.277250548260147e7 0.0
0.0 0.0 0.0

-3.4719258795812773e6 1.8951223209863342e7 0.0
1.8951223209863342e7 -231845.24218597135 0.0
0.0 0.0 0.0

-460969.61578174133 1.7151208256031513e7 0.0
1.7151208256031513e7 2.608922711101038e6 0.0
0.0 0.0 0.0

-263829.7450601107 1.681121358766873e7 0.0
1.681121358766873e7 4.582371625926457e6 0.0
0.0 0.0 0.0

-7.463981514363029e6 1.3428647913789751e7 0.0
1.3428647913789751e7 1.3846545329891672e7 0.0
0.0 0.0 0.0

-9.190449669320686e6 -5.623577103303719e6 0.0
-5.623577103303719e6 2.4881507656468973e7 0.0
0.0 0.0 0.0

1.8842365806333246e6 2.233734589059736e7 0.0
2.233734589059736e7 -4.95018255445766e6 0.0
0.0 0.0 0.0

2.260977605172857e6 1.8449642752394117e7 0.0
1.8449642752394117e7 1.2910177854078682e7 0.0
0.0 0.0 0.0

3.1055114448667783e6 8.093035425827618e6 0.0
8.093035425827618e6 -2.033798820842714e7 0.0
0.0 0.0 0.0

-9.606280101552999e6 -3.8428307760170517e6 0.0
-3.8428307760170517e6 2.7013558547218245e7 0.0
0.0 0.0 0.0

934075.5428262339 1.790404660537635e7 0.0
1.790404660537635e7 9.969862437680336e6 0.0
0.0 0.0 0.0

-6.400320457415782e6 1.4854235551536784e7 0.0
1.4854235551536784e7 3.1416577531410433e7 0.0
0.0 0.0 0.0

2.8795549172730283e6 1.8783215447589587e7 0.0
1.8783215447589587e7 9.85636281013037e6 0.0
0.0 0.0 0.0

-2.4902368571294714e6 1.3747547367195165e7 0.0
1.3747547367195165e7 -3.621702232257271e7 0.0
0.0 0.0 0.0

-5.77150106311763e6 1.744798519288403e7 0.0
1.744798519288403e7 1.940765296081417e7 0.0
0.0 0.0 0.0

-792760.8119334737 1.6769273382449102e7 0.0
1.6769273382449102e7 1.3851666933437536e7 0.0
0.0 0.0 0.0

392600.4705650029 1.8372289806514397e7 0.0
1.8372289806514397e7 -9.557002761560656e6 0.0
0.0 0.0 0.0

-1.6867541625358234e6 1.8147259560715728e7 0.0
1.8147259560715728e7 -4.421784295721546e6 0.0
0.0 0.0 0.0

2.7786889344916213e6 7.7765684840274835e6 0.0
7.7765684840274835e6 -3.157466650084225e7 0.0
0.0 0.0 0.0

2.9436940963739846e6 7.097277715756087e6 0.0
7.097277715756087e6 -3.3106342373518806e7 0.0
0.0 0.0 0.0

-10656.789142110385 1.4059627734807936e7 0.0
1.4059627734807936e7 -8.290999980429399e6 0.0
0.0 0.0 0.0

-1.0193077006267847e7 1.5182008259501725e7 0.0
1.5182008259501725e7 2.289930430283571e7 0.0
0.0 0.0 0.0

-204971.72376601258 1.7333933559583988e7 0.0
1.7333933559583988e7 -1.15718617053662e7 0.0
0.0 0.0 0.0

-7.781590462003145e6 2.2394502863598485e6 0.0
2.2394502863598485e6 5.153750041061376e7 0.0
0.0 0.0 0.0

-174605.50243788213 1.3431570062386582e7 0.0
1.3431570062386582e7 -2.6357231173517015e7 0.0
0.0 0.0 0.0

-1.1388415243121237e6 1.3435095335792698e7 0.0
1.3435095335792698e7 4.719458782123196e7 0.0
0.0 0.0 0.0

4.182292894834617e6 2.286797398280066e6 0.0
2.286797398280066e6 -4.0311353925754346e7 0.0
0.0 0.0 0.0

-533659.3527877235 1.9606577603007827e7 0.0
1.9606577603007827e7 -7.53079560922512e6 0.0
0.0 0.0 0.0

1.9339420703664124e6 1.85784356184945e7 0.0
1.85784356184945e7 1.0588998519214308e7 0.0
0.0 0.0 0.0

-3.825021078025013e6 1.4811520959263774e7 0.0
1.4811520959263774e7 -3.302744827328113e7 0.0
0.0 0.0 0.0

6.118162088893501e6 1.0132628778819012e7 0.0
1.0132628778819012e7 1.5124773376433675e6 0.0
0.0 0.0 0.0

-1.2389214233017648e6 1.743852411699841e7 0.0
1.743852411699841e7 -5.610778413185194e6 0.0
0.0 0.0 0.0

1.2609526444765064e6 1.8251702456612702e7 0.0
1.8251702456612702e7 1.101964422395473e7 0.0
0.0 0.0 0.0

-4.384144001050806e6 1.9167873116064847e7 0.0
1.9167873116064847e7 9.13856673050689e6 0.0
0.0 0.0 0.0

-4.577673454135708e6 1.8291188940950498e7 0.0
1.8291188940950498e7 1.35832052842832e7 0.0
0.0 0.0 0.0

995515.6772053912 1.1241389330999572e7 0.0
1.1241389330999572e7 -1.221103129653844e7 0.0
0.0 0.0 0.0

-1.1925589947979052e7 1.3795737376277098e7 0.0
1.3795737376277098e7 2.1259232024815485e7 0.0
0.0 0.0 0.0

-1.7638822895143256e6 1.333105089803721e7 0.0
1.333105089803721e7 -3.3945390882855095e7 0.0
0.0 0.0 0.0

-1.62849205676773e6 1.730700487948543e7 0.0
1.730700487948543e7 -8.462010688575195e6 0.0
0.0 0.0 0.0

-5.607351660329958e6 1.9704511169764187e7 0.0
1.9704511169764187e7 5.401280748475997e6 0.0
0.0 0.0 0.0

667144.2545423605 1.0020477054341817e7 0.0
1.0020477054341817e7 -7.482454565504972e6 0.0
0.0 0.0 0.0

-6.664928240279105e6 5.0369882095483085e6 0.0
5.0369882095483085e6 6.812099532050897e7 0.0
0.0 0.0 0.0

-4.286285966573231e6 1.4853425221982801e7 0.0
1.4853425221982801e7 -4.084730424544448e7 0.0
0.0 0.0 0.0

-5.19556696900594e6 1.698841752969628e7 0.0
1.698841752969628e7 2.145071432979635e7 0.0
0.0 0.0 0.0

-2.5903060211572545e6 2.5077220470371477e7 0.0
2.5077220470371477e7 919555.308620544 0.0
0.0 0.0 0.0

1.2002971406809727e7 1.859728319452179e7 0.0
1.859728319452179e7 5.915455982925558e6 0.0
0.0 0.0 0.0

-3.6769307201483697e6 1.6640578319294086e7 0.0
1.6640578319294086e7 2.6867027741108473e7 0.0
0.0 0.0 0.0

-5.959031630359106e6 1.7623951650453415e7 0.0
1.7623951650453415e7 1.58747502600915e7 0.0
0.0 0.0 0.0

808518.8938156143 1.3075313865592249e7 0.0
1.3075313865592249e7 -1.3436590688327346e7 0.0
0.0 0.0 0.0

-2.015007986125365e6 1.6652063821813898e7 0.0
1.6652063821813898e7 -9.711151897351587e6 0.0
0.0 0.0 0.0

-6.880032807013471e6 1.6145242856304705e7 0.0
1.6145242856304705e7 1.1754600683408387e7 0.0
0.0 0.0 0.0

-7.091136004814741e6 1.4896501062346214e7 0.0
1.4896501062346214e7 1.4158571538112214e7 0.0
0.0 0.0 0.0

4.39883024956687e6 3.597050260391684e6 0.0
3.597050260391684e6 -2.3067419851315204e7 0.0
0.0 0.0 0.0

-4.315874546776804e6 2.124919829627406e7 0.0
2.124919829627406e7 8.650764511044301e6 0.0
0.0 0.0 0.0

-1.0558289387182272e6 1.361920267150211e7 0.0
1.361920267150211e7 -2.3446969518848434e6 0.0
0.0 0.0 0.0

4.778923920771565e6 3.8535983443764253e6 0.0
3.8535983443764253e6 -1.7094992891834613e7 0.0
0.0 0.0 0.0

-464435.5348455112 2.3674659951005273e7 0.0
2.3674659951005273e7 -3.30742031727764e6 0.0
0.0 0.0 0.0

2.540439175075425e6 1.8791690976709217e7 0.0
1.8791690976709217e7 1.1737218792994043e7 0.0
0.0 0.0 0.0

-8.631466034018736e6 471618.72505715134 0.0
471618.72505715134 4.493779329948184e7 0.0
0.0 0.0 0.0

4.515442710587148e6 1.9645847800381273e7 0.0
1.9645847800381273e7 8.647269504828991e6 0.0
0.0 0.0 0.0

2.9518449185660323e6 1.850015288625968e7 0.0
1.850015288625968e7 6.624691290972671e6 0.0
0.0 0.0 0.0

-102763.13752562925 1.6370306855207285e7 0.0
1.6370306855207285e7 -1.1561888203502767e7 0.0
0.0 0.0 0.0

4.373338737992721e6 3.4454870062712715e6 0.0
3.4454870062712715e6 -2.9851830845302068e7 0.0
0.0 0.0 0.0

1.3283808878200469e6 1.5511746596250271e7 0.0
1.5511746596250271e7 8.56308629154896e6 0.0
0.0 0.0 0.0

37695.04573966982 1.6732380285158435e7 0.0
1.6732380285158435e7 -1.0628073635227872e7 0.0
0.0 0.0 0.0

51932.29635776952 1.697048016916116e7 0.0
1.697048016916116e7 7.686754236084962e6 0.0
0.0 0.0 0.0

-9.645012056486927e6 4.330720988754982e6 0.0
4.330720988754982e6 1.3999094469747234e7 0.0
0.0 0.0 0.0

-4.89302739635687e6 -6.551896088312732e6 0.0
-6.551896088312732e6 1.1673024590602115e7 0.0
0.0 0.0 0.0

-4.337340134413007e6 1.9066020318179972e7 0.0
1.9066020318179972e7 3.2763882264899686e6 0.0
0.0 0.0 0.0

1.5474220404484877e6 1.2982594837114785e7 0.0
1.2982594837114785e7 -2.0310578178682633e7 0.0
0.0 0.0 0.0

-2.0622627428691834e6 1.5453335011780687e7 0.0
1.5453335011780687e7 -1.3587357385417305e7 0.0
0.0 0.0 0.0

-6.993399408280756e6 1.5866910100904957e6 0.0
1.5866910100904957e6 6.618449975493434e7 0.0
0.0 0.0 0.0

-4.630668033679404e6 2.9508886295591343e7 0.0
2.9508886295591343e7 1.8968116993487591e6 0.0
0.0 0.0 0.0

1.1283449536264497e6 5.526528054591862e6 0.0
5.526528054591862e6 -3.694122895640836e6 0.0
0.0 0.0 0.0

-855016.5313867622 1.730762444135702e7 0.0
1.730762444135702e7 775184.7241825794 0.0
0.0 0.0 0.0

591612.1525823427 1.7881885315903425e7 0.0
1.7881885315903425e7 9.753363709765306e6 0.0
0.0 0.0 0.0

-1.046417548497017e7 1.5355546940606736e7 0.0
1.5355546940606736e7 2.11112207889183e7 0.0
0.0 0.0 0.0

-1.1008007693269921e7 2.2179915222909387e7 0.0
2.2179915222909387e7 3.341847758952311e6 0.0
0.0 0.0 0.0

1.75442023199075e6 1.8596620593851596e7 0.0
1.8596620593851596e7 7.809747451650078e6 0.0
0.0 0.0 0.0

138185.44352096086 1.8346528414064903e7 0.0
1.8346528414064903e7 9.22181258971869e6 0.0
0.0 0.0 0.0

436929.66583803296 1.6109192473152395e7 0.0
1.6109192473152395e7 -1.4412806041697465e7 0.0
0.0 0.0 0.0

2.492051584523646e6 5.333031088753026e6 0.0
5.333031088753026e6 -1.052725410743601e7 0.0
0.0 0.0 0.0

-325301.21513454756 1.6393147465900648e7 0.0
1.6393147465900648e7 -1.2980226357400117e7 0.0
0.0 0.0 0.0

-734850.8242927329 1.8367974501707863e7 0.0
1.8367974501707863e7 -9.312828567761485e6 0.0
0.0 0.0 0.0

-3.4600089850964844e6 2.100833682846547e7 0.0
2.100833682846547e7 4.755813263729752e6 0.0
0.0 0.0 0.0

365512.7980709998 1.9150428694245294e7 0.0
1.9150428694245294e7 -8.142964048505493e6 0.0
0.0 0.0 0.0

29930.82861292828 1.853848551461249e7 0.0
1.853848551461249e7 -8.869990861291789e6 0.0
0.0 0.0 0.0

4.547491090365076e6 4.2655341742859585e6 0.0
4.2655341742859585e6 -2.7047139378684662e7 0.0
0.0 0.0 0.0

1.204432429545169e6 1.7715091311678413e7 0.0
1.7715091311678413e7 5.547792514740877e6 0.0
0.0 0.0 0.0

-935568.5864217344 1.8861569586509325e7 0.0
1.8861569586509325e7 -8.42290276238933e6 0.0
0.0 0.0 0.0

-1.2440845353852054e7 1.1376212931490723e7 0.0
1.1376212931490723e7 1.785340351207193e7 0.0
0.0 0.0 0.0

-6.992376467919192e7 2.6208715240268506e7 0.0
2.6208715240268506e7 -2.8294651741355956e6 0.0
0.0 0.0 0.0

2.4330570488397513e7 2.660151477793238e7 0.0
2.660151477793238e7 8.110207586777173e7 0.0
0.0 0.0 0.0

-2.1950371895241223e7 2.4175689380396694e7 0.0
2.4175689380396694e7 -7.316806114582898e7 0.0
0.0 0.0 0.0

-6.845097597062721e6 1.721450662546264e7 0.0
1.721450662546264e7 1.855340485685402e7 0.0
0.0 0.0 0.0

1.4150867428131988e6 1.2749387042718789e7 0.0
1.2749387042718789e7 -1.801526560778172e7 0.0
0.0 0.0 0.0

-2.5029666493054926e6 1.759265882206498e7 0.0
1.759265882206498e7 -9.668856478859907e6 0.0
0.0 0.0 0.0

-129907.16113136744 2.9538527907743588e7 0.0
2.9538527907743588e7 -1.810775646295058e6 0.0
0.0 0.0 0.0

-762254.0739732226 1.504545809505852e7 0.0
1.504545809505852e7 -1.693505629357717e7 0.0
0.0 0.0 0.0

-2.6201927493821764e6 1.8456999488294773e7 0.0
1.8456999488294773e7 -5.683684219676681e6 0.0
0.0 0.0 0.0

-1.1667388999690207e7 1.3478839386153793e7 0.0
1.3478839386153793e7 1.856608141608327e7 0.0
0.0 0.0 0.0

-2.1560984415979893e6 2.125665025176724e7 0.0
2.125665025176724e7 -1.2486618394097476e6 0.0
0.0 0.0 0.0

-1.034374716157373e6 1.4214353306005768e7 0.0
1.4214353306005768e7 -2.527894475680968e7 0.0
0.0 0.0 0.0

-874582.1370116113 1.747197850216385e7 0.0
1.747197850216385e7 -5.386395193008397e6 0.0
0.0 0.0 0.0

-5.043564927012075e6 1.9168124861567628e7 0.0
1.9168124861567628e7 1.0122296070476487e7 0.0
0.0 0.0 0.0

1.1452069550481832e7 1.8293158039746307e7 0.0
1.8293158039746307e7 -2.230907148444503e6 0.0
0.0 0.0 0.0

-206107.89957842603 1.632369478805746e7 0.0
1.632369478805746e7 5.605447485587419e6 0.0
0.0 0.0 0.0

-6.605518718287173e6 1.7279793572708264e7 0.0
1.7279793572708264e7 1.693463188448096e7 0.0
0.0 0.0 0.0

-1.6318775872346122e7 2.0958653312336262e7 0.0
2.0958653312336262e7 -583660.2539541302 0.0
0.0 0.0 0.0

-250934.90773621155 1.6554296471878976e7 0.0
1.6554296471878976e7 5.6599499348161165e6 0.0
0.0 0.0 0.0

-40068.18445056246 2.4037534584269203e7 0.0
2.4037534584269203e7 -3.183034001658163e6 0.0
0.0 0.0 0.0

4.744779188793445e6 2.199698035748615e7 0.0
2.199698035748615e7 -5.281350003859749e6 0.0
0.0 0.0 0.0

1.7795958612609748e6 1.2237480068282014e7 0.0
1.2237480068282014e7 -1.3952458726472203e7 0.0
0.0 0.0 0.0

-7.486394860688719e6 1.6599451964892415e7 0.0
1.6599451964892415e7 2.178032504733355e7 0.0
0.0 0.0 0.0

-88020.08970240038 1.5766055657664381e7 0.0
1.5766055657664381e7 -1.4852478773743898e7 0.0
0.0 0.0 0.0

-3.8858317737318734e6 1.5655681271782946e7 0.0
1.5655681271782946e7 3.853997152453495e6 0.0
0.0 0.0 0.0

-7.846657457854286e6 1.588963271855887e7 0.0
1.588963271855887e7 1.3958525433359548e7 0.0
0.0 0.0 0.0

2.144349740324868e6 6.966687860231057e6 0.0
6.966687860231057e6 -8.108447575823791e6 0.0
0.0 0.0 0.0

-17356.233014065772 1.6365254474328384e7 0.0
1.6365254474328384e7 7.090220830899147e6 0.0
0.0 0.0 0.0

1.6799965196691153e6 2.161065225275878e7 0.0
2.161065225275878e7 -5.468417479859552e6 0.0
0.0 0.0 0.0

921710.8169751726 1.0270207154806888e7 0.0
1.0270207154806888e7 -4.694046016986404e7 0.0
0.0 0.0 0.0

-1.2437410239148518e7 1.0711358823795782e7 0.0
1.0711358823795782e7 1.7202306930064097e7 0.0
0.0 0.0 0.0

1.1318934873792531e7 3.1191888413444962e7 0.0
3.1191888413444962e7 -6.788854229931643e6 0.0
0.0 0.0 0.0

3.6201110481873676e6 7.213541051077442e6 0.0
7.213541051077442e6 -3.079398249773092e7 0.0
0.0 0.0 0.0

-144414.70766879315 1.6180693187371405e7 0.0
1.6180693187371405e7 5.613735056342378e6 0.0
0.0 0.0 0.0

189763.56793937786 2.0017026613219086e7 0.0
2.0017026613219086e7 -7.166898320548648e6 0.0
0.0 0.0 0.0

9.798181748141233e6 2.067790947888509e7 0.0
2.067790947888509e7 1.187047077734018e8 0.0
0.0 0.0 0.0

-1.0399494654220734e7 1.9700078087336246e7 0.0
1.9700078087336246e7 -1.021736969368061e8 0.0
0.0 0.0 0.0

1.9874941245860267e7 1.721211791449403e7 0.0
1.721211791449403e7 4.1893822326021995e6 0.0
0.0 0.0 0.0

6.02790846827308e6 2.1463211481985845e7 0.0
2.1463211481985845e7 -5.359665302208058e6 0.0
0.0 0.0 0.0

731536.0581525178 9.555041485042531e6 0.0
9.555041485042531e6 -6.7344620512152435e6 0.0
0.0 0.0 0.0

1.1996329433083385e7 2.8201429643518146e7 0.0
2.8201429643518146e7 -7.077671714796354e6 0.0
0.0 0.0 0.0

-3.3213628257716205e6 1.7890389785245318e7 0.0
1.7890389785245318e7 1.553798901004312e7 0.0
0.0 0.0 0.0

9.322939851885114e6 1.809025801306419e7 0.0
1.809025801306419e7 -1.8303763033696027e6 0.0
0.0 0.0 0.0

-4.274920377154475e6 2.0588488334973022e7 0.0
2.0588488334973022e7 6.672798738735825e6 0.0
0.0 0.0 0.0

-6.48774657295222e6 1.426277504352181e7 0.0
1.426277504352181e7 1.2322876243897002e7 0.0
0.0 0.0 0.0

632993.1540752247 4.001524212649922e6 0.0
4.001524212649922e6 -4.1172523633924564e6 0.0
0.0 0.0 0.0

2.985133982805244e6 1.8755893304954495e7 0.0
1.8755893304954495e7 1.2639762023035731e7 0.0
0.0 0.0 0.0

-1.4967208297784815e6 2.10624137015643e7 0.0
2.10624137015643e7 -4.708904795948537e6 0.0
0.0 0.0 0.0

-7.07342065315157e6 1.7197219688447632e7 0.0
1.7197219688447632e7 1.9496316429871947e7 0.0
0.0 0.0 0.0

-5.205050310392447e6 2.1493260011854295e7 0.0
2.1493260011854295e7 8.26291058507573e6 0.0
0.0 0.0 0.0

-3.786414856566539e6 2.0291432138423875e7 0.0
2.0291432138423875e7 7.21007423610989e6 0.0
0.0 0.0 0.0

-1.4197229208617727e6 1.4718163740132665e7 0.0
1.4718163740132665e7 -5.351643345598615e6 0.0
0.0 0.0 0.0

-4.910410278363556e6 1.6868900576502804e7 0.0
1.6868900576502804e7 2.2407878274138827e7 0.0
0.0 0.0 0.0

-3.926512606231422e6 2.0951113627759267e7 0.0
2.0951113627759267e7 7.816250395385944e6 0.0
0.0 0.0 0.0

-4.681166820911374e6 1.1182646731392603e7 0.0
1.1182646731392603e7 6.111109001135306e6 0.0
0.0 0.0 0.0

-3.1077992632420313e7 2.6399930156179477e7 0.0
2.6399930156179477e7 790634.8764004242 0.0
0.0 0.0 0.0

-8.926033832110787e6 3.0902774326384915e6 0.0
3.0902774326384915e6 4.4826847024089925e7 0.0
0.0 0.0 0.0

-6.602947751079168e6 2.1761794595172595e7 0.0
2.1761794595172595e7 7.139031676852476e6 0.0
0.0 0.0 0.0

-6.36049998320419e6 2.565180844317825e7 0.0
2.565180844317825e7 5.79673908971858e6 0.0
0.0 0.0 0.0

213851.17406826094 1.3755383860326314e7 0.0
1.3755383860326314e7 -2.2938792929371707e7 0.0
0.0 0.0 0.0

-2.7255691127596623e6 2.7472630456082445e7 0.0
2.7472630456082445e7 2.156992802193097e6 0.0
0.0 0.0 0.0

-5.884797180832907e6 3.0405020712426875e7 0.0
3.0405020712426875e7 1.9463321913523115e6 0.0
0.0 0.0 0.0

-7.164050243741617e6 3.124843658107726e7 0.0
3.124843658107726e7 2.2752811064650547e6 0.0
0.0 0.0 0.0

-2.0219975801488734e6 2.282559233522823e7 0.0
2.282559233522823e7 -1.9753738166925483e6 0.0
0.0 0.0 0.0

-1.1871304852863306e7 1.0910082561001765e7 0.0
1.0910082561001765e7 2.5034086333461016e7 0.0
0.0 0.0 0.0

4.797618588228289e6 2.5695105826376765e6 0.0
2.5695105826376765e6 -2.533660446331373e7 0.0
0.0 0.0 0.0

-5.630746498159887e6 1.733355975012044e7 0.0
1.733355975012044e7 1.9956292334963743e7 0.0
0.0 0.0 0.0

-236676.18339369306 2.467461697469813e7 0.0
2.467461697469813e7 -2.594867427594638e6 0.0
0.0 0.0 0.0

663342.6845028717 1.4204544944029236e7 0.0
1.4204544944029236e7 -1.8297550257732496e7 0.0
0.0 0.0 0.0

-9.499442095078541e6 -2.2299339436876373e6 0.0
-2.2299339436876373e6 3.465742085602532e7 0.0
0.0 0.0 0.0

155560.40172267408 1.6966449147664107e7 0.0
1.6966449147664107e7 873682.8334773126 0.0
0.0 0.0 0.0

66921.26828912878 1.7142701537579637e7 0.0
1.7142701537579637e7 -9.87565639937558e6 0.0
0.0 0.0 0.0

-186930.48748513218 1.600911123765993e7 0.0
1.600911123765993e7 -1.2428085956190716e7 0.0
0.0 0.0 0.0

-2.2579226858646395e6 1.4051743679068223e7 0.0
1.4051743679068223e7 -1.1697592195736984e7 0.0
0.0 0.0 0.0

-7.385612238600777e6 -4.9889913300308585e6 0.0
-4.9889913300308585e6 1.205523295679444e7 0.0
0.0 0.0 0.0

-108420.00927008258 1.4903046022510393e7 0.0
1.4903046022510393e7 -2.4535035502417097e6 0.0
0.0 0.0 0.0

1.2431064143624166e6 1.678802997508621e7 0.0
1.678802997508621e7 4.894296602266669e6 0.0
0.0 0.0 0.0

1.2821797100205297e7 1.6957859328982707e7 0.0
1.6957859328982707e7 3.2258192484817384e6 0.0
0.0 0.0 0.0

-8.16900706195134e6 3.2791524991727136e7 0.0
3.2791524991727136e7 2.823812172471536e6 0.0
0.0 0.0 0.0

-6.822622088701038e6 1.4562698048876463e7 0.0
1.4562698048876463e7 1.3317176314440986e7 0.0
0.0 0.0 0.0

-6.636768564242368e6 1.6318596752879374e7 0.0
1.6318596752879374e7 -4.569902932936346e7 0.0
0.0 0.0 0.0

4.0249381292095073e6 6.618847033856684e6 0.0
6.618847033856684e6 -2.6039347941951297e7 0.0
0.0 0.0 0.0

-8.71913616511932e6 -6.660304641310788e6 0.0
-6.660304641310788e6 2.1625323968028735e7 0.0
0.0 0.0 0.0

-1.500211945313746e7 2.4500279290576924e7 0.0
2.4500279290576924e7 -3.6307707719035717e6 0.0
0.0 0.0 0.0

-1.5285116394821383e7 2.1530999196974915e7 0.0
2.1530999196974915e7 -2.4085576304541603e6 0.0
0.0 0.0 0.0

-1.2241373674505013e6 1.5245416667196207e7 0.0
1.5245416667196207e7 -6.934251550154141e6 0.0
0.0 0.0 0.0

-1.4550667879156135e6 2.4352696566474427e7 0.0
2.4352696566474427e7 -1.5470749142492346e6 0.0
0.0 0.0 0.0

2.344190820913501e6 6.333027740460613e6 0.0
6.333027740460613e6 -4.488105053319503e7 0.0
0.0 0.0 0.0

4.8809070643239515e6 1.9195735207206775e7 0.0
1.9195735207206775e7 -4.1196233967837347e6 0.0
0.0 0.0 0.0

2.6947080230936073e6 1.903893621762596e7 0.0
1.903893621762596e7 8.576636770060085e6 0.0
0.0 0.0 0.0

1.9896282982828189e6 1.2562499921540879e7 0.0
1.2562499921540879e7 -1.7772712588618748e7 0.0
0.0 0.0 0.0

-2.853016403253866e6 2.0045796763742376e7 0.0
2.0045796763742376e7 638407.0127054777 0.0
0.0 0.0 0.0

1.7908784339482514e6 1.1839310478944438e7 0.0
1.1839310478944438e7 -1.3251031558079153e7 0.0
0.0 0.0 0.0

1.5489043976456374e6 1.2327771012352932e7 0.0
1.2327771012352932e7 -1.908923524542615e7 0.0
0.0 0.0 0.0

-1.3687474369767439e6 1.4743181803455383e7 0.0
1.4743181803455383e7 -1.246421626788669e7 0.0
0.0 0.0 0.0

-6.684121529742371e6 2.4829641709077418e7 0.0
2.4829641709077418e7 5.568745009763168e6 0.0
0.0 0.0 0.0

-1.1232858400990685e7 1.9278191950230032e7 0.0
1.9278191950230032e7 -5.30913371768866e7 0.0
0.0 0.0 0.0

9.425403092545949e6 2.7799587625729185e7 0.0
2.7799587625729185e7 -5.503778671456172e6 0.0
0.0 0.0 0.0

2.5659553203305174e6 2.1604149892313223e7 0.0
2.1604149892313223e7 -5.292045349287884e6 0.0
0.0 0.0 0.0

-2.817963510421077e6 2.5824402358047664e7 0.0
2.5824402358047664e7 2.6000735936508477e6 0.0
0.0 0.0 0.0

-4.489124812303966e6 2.0475280062490325e7 0.0
2.0475280062490325e7 9.04550313422035e6 0.0
0.0 0.0 0.0

2.4703155910525173e6 5.366551694828364e6 0.0
5.366551694828364e6 -4.676417819629974e7 0.0
0.0 0.0 0.0

-4.763592700933725e6 1.8922459838923357e7 0.0
1.8922459838923357e7 1.2581651839910388e7 0.0
0.0 0.0 0.0

3.312658063701628e6 5.216875345671176e6 0.0
5.216875345671176e6 -3.796917670378443e7 0.0
0.0 0.0 0.0

-1.0066661264825622e6 1.789214342497541e7 0.0
1.789214342497541e7 -7.143612443896551e6 0.0
0.0 0.0 0.0

-861836.7047669783 1.7262439522347663e7 0.0
1.7262439522347663e7 -7.464180109388341e6 0.0
0.0 0.0 0.0

-496225.0625916242 1.4497755324077906e7 0.0
1.4497755324077906e7 -3.2914225002689203e6 0.0
0.0 0.0 0.0

-4.478374410689456e6 1.7733868232816916e7 0.0
1.7733868232816916e7 1.412267523514599e7 0.0
0.0 0.0 0.0

-2.6293901770372903e6 2.2040133117877044e7 0.0
2.2040133117877044e7 -1.2754119927218473e6 0.0
0.0 0.0 0.0

-5.653842766277015e6 1.7847002235055543e7 0.0
1.7847002235055543e7 1.1648155581191447e7 0.0
0.0 0.0 0.0

-8.86309905439173e6 -5.8394871916638855e6 0.0
-5.8394871916638855e6 2.5533500615517728e7 0.0
0.0 0.0 0.0

3.547576606565872e6 6.361268594815459e6 0.0
6.361268594815459e6 -2.7539197525856305e7 0.0
0.0 0.0 0.0

3.098348176541727e6 8.300531615662963e6 0.0
8.300531615662963e6 -2.1862856853853974e7 0.0
0.0 0.0 0.0

-575870.6745194211 2.6379974181480262e7 0.0
2.6379974181480262e7 -799678.835139806 0.0
0.0 0.0 0.0

-1.7019837376509449e6 1.7551352427139718e7 0.0
1.7551352427139718e7 -8.212155055044857e6 0.0
0.0 0.0 0.0

884203.6186491335 1.3148685082858417e7 0.0
1.3148685082858417e7 -2.3204241565197937e7 0.0
0.0 0.0 0.0

243667.45117287943 1.7613496579913296e7 0.0
1.7613496579913296e7 1.3342570983816216e7 0.0
0.0 0.0 0.0

-9.720340945719685e6 140375.2407681813 0.0
140375.2407681813 1.7016811260022085e7 0.0
0.0 0.0 0.0

3.0159956217624624e6 1.962092297416238e7 0.0
1.962092297416238e7 9.844720551508507e6 0.0
0.0 0.0 0.0

-1.2277304183267616e7 2.7278184698669724e7 0.0
2.7278184698669724e7 7.049096755406533e6 0.0
0.0 0.0 0.0

2.011794226882463e6 1.7372279889094647e7 0.0
1.7372279889094647e7 5.257824518894644e6 0.0
0.0 0.0 0.0

860504.9653844577 1.6003246956681477e7 0.0
1.6003246956681477e7 1.0170633896591531e7 0.0
0.0 0.0 0.0

-4.836782431270797e6 2.426420034452723e7 0.0
2.426420034452723e7 5.548989098592597e6 0.0
0.0 0.0 0.0

-5.102331184313304e6 1.827185519687084e7 0.0
1.827185519687084e7 1.4287301376514934e7 0.0
0.0 0.0 0.0

-4.0952200523317456e6 1.6013007793200998e7 0.0
1.6013007793200998e7 2.606999042900151e7 0.0
0.0 0.0 0.0

-1.4315860785248052e7 2.2152023601335004e7 0.0
2.2152023601335004e7 -833083.2930804505 0.0
0.0 0.0 0.0

-1.0938683386177773e7 2.081133300882763e7 0.0
2.081133300882763e7 2.6484040931383613e6 0.0
0.0 0.0 0.0

-1.1106813907204127e7 1.3605279513984924e7 0.0
1.3605279513984924e7 5.285943812848508e6 0.0
0.0 0.0 0.0

-6.2395114992864504e7 2.8587918663098507e7 0.0
2.8587918663098507e7 2.3961035669652447e6 0.0
0.0 0.0 0.0

7.4486107849847665e6 1.7269325381730683e7 0.0
1.7269325381730683e7 4.1430807025516275e6 0.0
0.0 0.0 0.0

-605999.9254655298 1.3981597507573282e7 0.0
1.3981597507573282e7 -2.3451332008652646e7 0.0
0.0 0.0 0.0

-4.388882786657641e6 2.003051849801743e7 0.0
2.003051849801743e7 6.8287479834405705e6 0.0
0.0 0.0 0.0

-106466.90004649432 1.6875143626780402e7 0.0
1.6875143626780402e7 -1.2516338220937744e7 0.0
0.0 0.0 0.0

3.1215026913734153e7 1.3854331779976932e7 0.0
1.3854331779976932e7 735055.1956433244 0.0
0.0 0.0 0.0

-4.304403802121585e6 61813.07458994564 0.0
61813.07458994564 6.549544647532737e6 0.0
0.0 0.0 0.0

3.7803704323297357e6 3.1881372135718237e6 0.0
3.1881372135718237e6 -1.2157449533416664e7 0.0
0.0 0.0 0.0

-524317.5315692625 1.7411679194031306e7 0.0
1.7411679194031306e7 -1.0661512036407787e7 0.0
0.0 0.0 0.0

-471925.12897232303 1.5695175443788446e7 0.0
1.5695175443788446e7 -1.2144055742347501e6 0.0
0.0 0.0 0.0

-1.0423231063363826e7 2.871653061571944e6 0.0
2.871653061571944e6 3.438756078660424e7 0.0
0.0 0.0 0.0

3.6070039249417093e6 2.2287045995176792e7 0.0
2.2287045995176792e7 -5.1475312946511265e6 0.0
0.0 0.0 0.0

-1.2083284735692544e7 3.3917134569193825e7 0.0
3.3917134569193825e7 3.147702782168925e6 0.0
0.0 0.0 0.0

6.929412937241118e6 1.7845775769183174e7 0.0
1.7845775769183174e7 3.3423352115083095e6 0.0
0.0 0.0 0.0

-7.5102522261268385e6 -7.04837625171036e6 0.0
-7.04837625171036e6 1.903296456190046e7 0.0
0.0 0.0 0.0

-1.7845160563598067e7 2.275495269221772e7 0.0
2.275495269221772e7 2.8854343219184903e6 0.0
0.0 0.0 0.0

395629.4350268971 1.5413580349684013e7 0.0
1.5413580349684013e7 5.031877746790913e6 0.0
0.0 0.0 0.0

-1.6731017556732455e7 3.550462449010403e7 0.0
3.550462449010403e7 3.756902581487122e6 0.0
0.0 0.0 0.0

-9.37712867333889e6 1.5263504893809855e7 0.0
1.5263504893809855e7 1.8636686428244572e7 0.0
0.0 0.0 0.0

1.2642895644465548e6 1.6685928712460157e7 0.0
1.6685928712460157e7 -2.297221638631536e6 0.0
0.0 0.0 0.0

-4.489688460565876e6 1.4953429616680115e7 0.0
1.4953429616680115e7 -1.876052575602682e7 0.0
0.0 0.0 0.0

-1.554929313871176e6 1.5351315652563104e7 0.0
1.5351315652563104e7 -9.191949289666373e6 0.0
0.0 0.0 0.0

4.348337400753749e6 1.8816552865516078e7 0.0
1.8816552865516078e7 -4.391863472945815e6 0.0
0.0 0.0 0.0

2.0943076643208414e7 3.367796644130597e7 0.0
3.367796644130597e7 -1.3541553542914264e7 0.0
0.0 0.0 0.0

-7.745881160392547e6 -4.414082603918757e6 0.0
-4.414082603918757e6 1.4222790027094733e7 0.0
0.0 0.0 0.0

-279401.0229655981 2.8527786158601772e7 0.0
2.8527786158601772e7 -1.782627298987694e6 0.0
0.0 0.0 0.0

774201.3350731801 2.4867150954858188e7 0.0
2.4867150954858188e7 -2.3039183943684506e6 0.0
0.0 0.0 0.0

-1.051956020351892e7 -2.206269459192195e6 0.0
-2.206269459192195e6 2.742058744540695e7 0.0
0.0 0.0 0.0

4.770298719586194e6 2.5666749603185924e6 0.0
2.5666749603185924e6 -2.556492255499519e7 0.0
0.0 0.0 0.0

-4.179638350536989e6 2.2433359507584613e7 0.0
2.2433359507584613e7 7.194098885228471e6 0.0
0.0 0.0 0.0

2.0324001317484549e6 1.9417783697109967e7 0.0
1.9417783697109967e7 1.0740562612867527e7 0.0
0.0 0.0 0.0

-3.6184429789458937e6 3.797683373714015e6 0.0
3.797683373714015e6 6.6081129108141055e6 0.0
0.0 0.0 0.0

-1.0640597024650846e7 1.3441506188615315e7 0.0
1.3441506188615315e7 1.8575493343156118e7 0.0
0.0 0.0 0.0

1.2825057120444505e6 1.906451154092242e7 0.0
1.906451154092242e7 1.1374081611858273e7 0.0
0.0 0.0 0.0

-573871.0783074908 1.4922176665173687e7 0.0
1.4922176665173687e7 -9.932223291356659e6 0.0
0.0 0.0 0.0

-1.8133930151306312e6 1.450436344157308e7 0.0
1.450436344157308e7 -1.330491542392245e7 0.0
0.0 0.0 0.0

-781441.9676206927 2.322999118198906e7 0.0
2.322999118198906e7 -3.3358125234478908e6 0.0
0.0 0.0 0.0

-5.159430940665593e6 -1.009184947658416e6 0.0
-1.009184947658416e6 8.817900199885502e6 0.0
0.0 0.0 0.0

-3.541418302443847e6 1.69440074703892e7 0.0
1.69440074703892e7 2.857322453597419e6 0.0
0.0 0.0 0.0

-9.995034886327527e6 1.5596689485438894e7 0.0
1.5596689485438894e7 2.18932359672655e7 0.0
0.0 0.0 0.0

1.0898048373116194e6 1.2612831874010634e7 0.0
1.2612831874010634e7 -1.110835767323886e7 0.0
0.0 0.0 0.0

-427565.3285714681 1.9446676639388703e7 0.0
1.9446676639388703e7 -8.194736835306527e6 0.0
0.0 0.0 0.0

315569.8908361555 3.0786410500763517e7 0.0
3.0786410500763517e7 -366905.49245743064 0.0
0.0 0.0 0.0

439683.15339255426 1.2872429650938168e7 0.0
1.2872429650938168e7 -2.465871964582148e7 0.0
0.0 0.0 0.0

-3.8033139237733826e7 3.610485072718015e7 0.0
3.610485072718015e7 6.387858472433275e6 0.0
0.0 0.0 0.0

1.318656831611994e6 2.756135865787363e6 0.0
2.756135865787363e6 -3.102456324666336e6 0.0
0.0 0.0 0.0

1.125281530521652e6 2.8887924137457674e6 0.0
2.8887924137457674e6 -3.874486110860488e6 0.0
0.0 0.0 0.0

2.4942738933140025e6 1.7362117654545225e7 0.0
1.7362117654545225e7 1.7695308940677762e7 0.0
0.0 0.0 0.0

2.221890040371905e6 1.8681578654162664e7 0.0
1.8681578654162664e7 1.3237197925868968e7 0.0
0.0 0.0 0.0

-519964.69701787643 1.7017196288784284e7 0.0
1.7017196288784284e7 6.574388176257581e6 0.0
0.0 0.0 0.0

-1.1031012032204878e7 1.1557885611738505e7 0.0
1.1557885611738505e7 1.8476041901991107e7 0.0
0.0 0.0 0.0

3.3497781257137186e6 4.988685066236052e6 0.0
4.988685066236052e6 -1.2396058988626818e6 0.0
0.0 0.0 0.0

-2.7431958315045247e6 1.841256272009218e7 0.0
1.841256272009218e7 8.086977463189335e6 0.0
0.0 0.0 0.0

-1.701731367366595e6 2.4268136526295442e7 0.0
2.4268136526295442e7 -56197.4030995568 0.0
0.0 0.0 0.0

-252840.6546984855 1.3545272061160699e7 0.0
1.3545272061160699e7 -2.579834693703387e7 0.0
0.0 0.0 0.0

5.500718610831936e6 1.962903620077996e7 0.0
1.962903620077996e7 9.62320321317729e6 0.0
0.0 0.0 0.0

9.858711072961522e6 1.822197851845832e7 0.0
1.822197851845832e7 5.886624135186855e6 0.0
0.0 0.0 0.0

-2.3009826481927037e7 3.683647289448655e7 0.0
3.683647289448655e7 5.696273113578136e6 0.0
0.0 0.0 0.0

-65003.8030909081 1.6745169408183046e7 0.0
1.6745169408183046e7 7.659303558745809e6 0.0
0.0 0.0 0.0

-7.926545549014132e6 7.241049017887216e6 0.0
7.241049017887216e6 8.309719959767832e6 0.0
0.0 0.0 0.0

-1.2946261088555459e7 1.0013098749604736e7 0.0
1.0013098749604736e7 2.089694855801386e7 0.0
0.0 0.0 0.0

-1.9874958961424136e6 2.371472732009811e7 0.0
2.371472732009811e7 -910288.3757479796 0.0
0.0 0.0 0.0

2.72653022695245e6 1.844359280174179e7 0.0
1.844359280174179e7 1.3113070895084772e7 0.0
0.0 0.0 0.0

-9.212139224570993e6 3.1331371592414784e6 0.0
3.1331371592414784e6 4.9612760114875525e7 0.0
0.0 0.0 0.0

-1.595430683253773e6 1.712034333392163e7 0.0
1.712034333392163e7 1.2110901589555489e7 0.0
0.0 0.0 0.0

-7.0652166989172045e6 1.5555104217440687e7 0.0
1.5555104217440687e7 -2.677113051031841e7 0.0
0.0 0.0 0.0

1.6786206983184824e6 1.9118432994181808e7 0.0
1.9118432994181808e7 1.2147840778055483e7 0.0
0.0 0.0 0.0

-7.385634915641459e6 1.6864074465348665e7 0.0
1.6864074465348665e7 2.0073174113934033e7 0.0
0.0 0.0 0.0

-307849.4238520507 1.4149218195624387e7 0.0
1.4149218195624387e7 -1.027256454555208e7 0.0
0.0 0.0 0.0

1.109741412582621e6 1.686217238127055e7 0.0
1.686217238127055e7 5.929355131129739e7 0.0
0.0 0.0 0.0

3.6579695870441315e6 2.140208101417743e7 0.0
2.140208101417743e7 -5.120502932105091e6 0.0
0.0 0.0 0.0

225648.28742032684 1.5537320960872024e7 0.0
1.5537320960872024e7 -1.5159121203990247e7 0.0
0.0 0.0 0.0

-249697.35584996245 1.171722889941748e7 0.0
1.171722889941748e7 -5.446535406210754e6 0.0
0.0 0.0 0.0

4.4788071920147855e6 3.4473679073025514e6 0.0
3.4473679073025514e6 -3.1576127858455904e7 0.0
0.0 0.0 0.0

379786.36542806134 2.9607062908740185e7 0.0
2.9607062908740185e7 27795.387912855964 0.0
0.0 0.0 0.0

-1.2741579553339185e7 1.092598161947004e7 0.0
1.092598161947004e7 2.1414417974891663e7 0.0
0.0 0.0 0.0

1.415176087153866e6 1.6097979200234424e7 0.0
1.6097979200234424e7 1.3143261382088223e7 0.0
0.0 0.0 0.0

-8.086460662767795e6 2.2190449290367786e7 0.0
2.2190449290367786e7 5.574050226238977e6 0.0
0.0 0.0 0.0

-3.4600841673907405e6 1.8492130713234667e7 0.0
1.8492130713234667e7 1.4574596693566458e6 0.0
0.0 0.0 0.0

-1.1426779145308433e7 1.4221311508455541e7 0.0
1.4221311508455541e7 1.8670535804319642e7 0.0
0.0 0.0 0.0

2.429498072878616e6 9.775084982811447e6 0.0
9.775084982811447e6 -1.804682319044189e7 0.0
0.0 0.0 0.0

-1.1227414847043056e7 3.2362117640878595e7 0.0
3.2362117640878595e7 6.134897030361627e6 0.0
0.0 0.0 0.0

1.6440934814076036e7 1.1237579293416234e7 0.0
1.1237579293416234e7 103329.95996323414 0.0
0.0 0.0 0.0

-9.540249828683887e6 -2.22832700082334e6 0.0
-2.22832700082334e6 1.349356381048934e7 0.0
0.0 0.0 0.0

-5.677509467114514e6 2.5132566784915034e7 0.0
2.5132566784915034e7 5.277260904684193e6 0.0
0.0 0.0 0.0

-2.2929854295191474e7 1.815711788330129e7 0.0
1.815711788330129e7 7.878767433853885e6 0.0
0.0 0.0 0.0

-2.4070070481124315e6 1.8480840974767327e7 0.0
1.8480840974767327e7 -7.877527409751375e6 0.0
0.0 0.0 0.0

-4.0932511041433804e7 2.7322927343152218e7 0.0
2.7322927343152218e7 2.4846459986444376e6 0.0
0.0 0.0 0.0

-2.431200119527e6 1.8682417336656686e7 0.0
1.8682417336656686e7 -4.554178676580304e6 0.0
0.0 0.0 0.0

-6.588598926314326e6 1.6173762579332147e7 0.0
1.6173762579332147e7 1.4326852817696452e7 0.0
0.0 0.0 0.0

-1.1829219630207634e7 1.059764084876469e7 0.0
1.059764084876469e7 1.9326801931618877e7 0.0
0.0 0.0 0.0

-8.36185610501293e6 1.4120438939832475e7 0.0
1.4120438939832475e7 1.261566698474386e7 0.0
0.0 0.0 0.0

-4.826199750206035e6 2.0427599937045768e7 0.0
2.0427599937045768e7 9.880860052030101e6 0.0
0.0 0.0 0.0

-9.971507570651975e6 -469676.46279283613 0.0
-469676.46279283613 3.446467380444005e7 0.0
0.0 0.0 0.0

-287210.8389795191 1.4760829818800159e7 0.0
1.4760829818800159e7 -1.1109424335866305e6 0.0
0.0 0.0 0.0

1.7864045498700188e6 1.0851638661037806e7 0.0
1.0851638661037806e7 -1.1569495630645199e7 0.0
0.0 0.0 0.0

1.0247414663174702e6 1.427566457765048e7 0.0
1.427566457765048e7 -1.5645718173770454e7 0.0
0.0 0.0 0.0

-8.615333420306772e6 -5.2956234866551785e6 0.0
-5.2956234866551785e6 2.227928384745677e7 0.0
0.0 0.0 0.0

-953927.0767516693 1.5126218423081566e7 0.0
1.5126218423081566e7 312742.3314886788 0.0
0.0 0.0 0.0

-7.027571801946023e6 2.2403657177316736e7 0.0
2.2403657177316736e7 6.395845604323557e6 0.0
0.0 0.0 0.0

-329216.1071600728 1.760842070508177e7 0.0
1.760842070508177e7 1.8699231707927067e7 0.0
0.0 0.0 0.0

-212633.41991029587 1.6879050429066498e7 0.0
1.6879050429066498e7 -1.1029427112429924e7 0.0
0.0 0.0 0.0

-37392.1870283226 1.6311510344466629e7 0.0
1.6311510344466629e7 3.193966623546157e6 0.0
0.0 0.0 0.0

-450315.748648947 2.775637848366005e7 0.0
2.775637848366005e7 -1.3903516317327665e6 0.0
0.0 0.0 0.0

344250.44994087005 1.7528012522752892e7 0.0
1.7528012522752892e7 -9.409877245776068e6 0.0
0.0 0.0 0.0

6.92989046645212e7 2.5728717406449653e7 0.0
2.5728717406449653e7 1.5702981416398399e6 0.0
0.0 0.0 0.0

2.3826816094304505e6 1.716204211504818e7 0.0
1.716204211504818e7 -3.8460624833158525e6 0.0
0.0 0.0 0.0

-974274.8316741744 1.5412583941793695e7 0.0
1.5412583941793695e7 -1.7510230169766653e7 0.0
0.0 0.0 0.0

421532.1622437872 1.902504909541617e7 0.0
1.902504909541617e7 -7.944694648358158e6 0.0
0.0 0.0 0.0

-2.1169325931818254e7 2.4291674738534946e7 0.0
2.4291674738534946e7 1.5195891192840682e6 0.0
0.0 0.0 0.0

-5.403034193995982e6 2.164460998206461e7 0.0
2.164460998206461e7 7.502391744462503e6 0.0
0.0 0.0 0.0

1.0374587764301285e7 1.7980958166676216e7 0.0
1.7980958166676216e7 1.6123511302578289e6 0.0
0.0 0.0 0.0

-1.0972865900234692e6 1.3277535932010999e7 0.0
1.3277535932010999e7 -3.0665033945380248e7 0.0
0.0 0.0 0.0

2.8033323791304287e6 1.6635508911319222e7 0.0
1.6635508911319222e7 2.2378813295833863e7 0.0
0.0 0.0 0.0

4.473354680813767e6 5.330836660140912e6 0.0
5.330836660140912e6 -2.0362565448835686e7 0.0
0.0 0.0 0.0

584834.1407682751 1.9683399107945018e7 0.0
1.9683399107945018e7 -7.4682498263315195e6 0.0
0.0 0.0 0.0

3.6187895383140203e6 4.479049891672999e6 0.0
4.479049891672999e6 -3.690218049520653e7 0.0
0.0 0.0 0.0

-443711.60406621546 1.9253109865359057e7 0.0
1.9253109865359057e7 -8.400967386603937e6 0.0
0.0 0.0 0.0

2.6825837707369537e6 2.2386109473046318e7 0.0
2.2386109473046318e7 -5.020120379375828e6 0.0
0.0 0.0 0.0

-3.1384609911758834e6 1.828759375876796e7 0.0
1.828759375876796e7 1.0059856073906675e6 0.0
0.0 0.0 0.0

-1.0933982849220682e7 2.69919107870603e7 0.0
2.69919107870603e7 5.682633560578426e6 0.0
0.0 0.0 0.0

-7.686286447484589e6 1.6905802880184628e7 0.0
1.6905802880184628e7 2.0087993893304266e7 0.0
0.0 0.0 0.0

79789.50525280833 1.5803629543088337e7 0.0
1.5803629543088337e7 7.476758004259888e6 0.0
0.0 0.0 0.0

-3.17731752935051e7 2.8873956698218282e7 0.0
2.8873956698218282e7 8.539356783040741e6 0.0
0.0 0.0 0.0

9.367451179245455e6 1.8538736767283436e7 0.0
1.8538736767283436e7 7.471752560578655e6 0.0
0.0 0.0 0.0

-5.711030100099344e6 1.0385280209001876e7 0.0
1.0385280209001876e7 4.945752152176812e6 0.0
0.0 0.0 0.0

-4.947904739573427e6 2.461942846092836e7 0.0
2.461942846092836e7 4.92887038913372e6 0.0
0.0 0.0 0.0

-2.8870848928312454e6 1.9098309344194334e7 0.0
1.9098309344194334e7 -5.966209363174836e6 0.0
0.0 0.0 0.0

1.1709199334255583e6 1.2962415276290694e7 0.0
1.2962415276290694e7 -1.1745172460559238e7 0.0
0.0 0.0 0.0

4.781171701824581e6 2.443449104137369e6 0.0
2.443449104137369e6 -2.6858310678612806e7 0.0
0.0 0.0 0.0

-897314.4892373043 1.4553063834161704e7 0.0
1.4553063834161704e7 -8.04604189552215e6 0.0
0.0 0.0 0.0

3.4577146169277094e7 5.853861024347515e6 0.0
5.853861024347515e6 -2.3621925994866267e6 0.0
0.0 0.0 0.0

-7.474531536998475e6 1.671842471179368e7 0.0
1.671842471179368e7 2.0867535554727502e7 0.0
0.0 0.0 0.0

-6.446459245216453e6 2.4298568073210053e7 0.0
2.4298568073210053e7 5.9417755080870185e6 0.0
0.0 0.0 0.0

-9.342293508110387e6 -4.200246716425745e6 0.0
-4.200246716425745e6 3.107249670937678e7 0.0
0.0 0.0 0.0

-2.845546129185443e6 2.762401038485283e7 0.0
2.762401038485283e7 1.350223513978034e6 0.0
0.0 0.0 0.0

-1.6550791629098998e7 2.191964781421832e7 0.0
2.191964781421832e7 3.158031220222152e6 0.0
0.0 0.0 0.0

118504.72045342904 1.5954607549862897e7 0.0
1.5954607549862897e7 -1.4262359227974663e7 0.0
0.0 0.0 0.0

2.3511507518796697e6 1.705563774502659e7 0.0
1.705563774502659e7 1.5730772128917856e7 0.0
0.0 0.0 0.0

-429621.2920333762 1.6204492721181886e7 0.0
1.6204492721181886e7 3.5737267392350906e6 0.0
0.0 0.0 0.0

-4.0837703526976523e6 1.926107789936069e7 0.0
1.926107789936069e7 7.331987017574011e6 0.0
0.0 0.0 0.0

738519.3513620282 1.244853542722977e7 0.0
1.244853542722977e7 -1.2456232682553641e7 0.0
0.0 0.0 0.0

3.1048099742755955e6 9.375345347383471e6 0.0
9.375345347383471e6 -1.7374468634114232e7 0.0
0.0 0.0 0.0

-263043.1305521929 8.475012340965364e6 0.0
8.475012340965364e6 -5.775974555627238e6 0.0
0.0 0.0 0.0

-4.604882516138824e6 2.417744365368653e7 0.0
2.417744365368653e7 4.786615548041224e6 0.0
0.0 0.0 0.0

-874928.629052456 1.5314477586989032e7 0.0
1.5314477586989032e7 -8.992579886817697e6 0.0
0.0 0.0 0.0

1.3508430162185181e7 1.1149162044669969e7 0.0
1.1149162044669969e7 -143019.4979706956 0.0
0.0 0.0 0.0

4.760461542887758e6 2.50368552010728e6 0.0
2.50368552010728e6 -2.7095510850032005e7 0.0
0.0 0.0 0.0

955527.0135278236 1.6601284738652697e7 0.0
1.6601284738652697e7 1.646925104059366e7 0.0
0.0 0.0 0.0

489794.5443005827 8.3164263226616e6 0.0
8.3164263226616e6 -7.375408335702341e6 0.0
0.0 0.0 0.0

19235.86706775229 2.3465774924880967e7 0.0
2.3465774924880967e7 -2.9696206014455548e6 0.0
0.0 0.0 0.0

-664912.4615121032 1.6989699195001617e7 0.0
1.6989699195001617e7 8.491331100006795e6 0.0
0.0 0.0 0.0

-1.1513859169476895e7 5.696969636995575e6 0.0
5.696969636995575e6 3.0720156794275064e7 0.0
0.0 0.0 0.0

-5.049040890991016e6 1.659253440883673e6 0.0
1.659253440883673e6 7.262835729341824e6 0.0
0.0 0.0 0.0

2.848801535929772e6 2.237794438657866e7 0.0
2.237794438657866e7 -5.026198861937771e6 0.0
0.0 0.0 0.0

-4.339058519037282e7 1.2701886148715282e7 0.0
1.2701886148715282e7 9.248138658717819e6 0.0
0.0 0.0 0.0

396945.53923948016 1.48228133983324e7 0.0
1.48228133983324e7 -1.719869285614061e7 0.0
0.0 0.0 0.0

913668.73574991 1.1964731898645481e7 0.0
1.1964731898645481e7 3.5911791406447827e6 0.0
0.0 0.0 0.0

-6.460381318805314e6 1.5881332496313775e7 0.0
1.5881332496313775e7 1.3701758362632496e7 0.0
0.0 0.0 0.0

-4.599429142060797e7 1.2163513068142189e7 0.0
1.2163513068142189e7 8.290881665457189e6 0.0
0.0 0.0 0.0

-979708.306773101 1.4899314911311712e7 0.0
1.4899314911311712e7 -1.81106850158725e7 0.0
0.0 0.0 0.0

-82617.36778480094 1.8665876423772104e7 0.0
1.8665876423772104e7 -9.203604050726296e6 0.0
0.0 0.0 0.0

1.5999312604911716e6 5.281430601683458e6 0.0
5.281430601683458e6 -4.785974905100688e6 0.0
0.0 0.0 0.0

-6.727264232759658e6 2.0552280749728423e7 0.0
2.0552280749728423e7 -5.445603069742892e6 0.0
0.0 0.0 0.0

2.7526821515335618e6 2.5423835643258426e7 0.0
2.5423835643258426e7 -3.929898712647771e6 0.0
0.0 0.0 0.0

-2.583370079180416e6 2.5560501903893504e7 0.0
2.5560501903893504e7 1.0260572010639607e6 0.0
0.0 0.0 0.0

-4.301222227879629e6 1.8916685650910478e7 0.0
1.8916685650910478e7 4.053094020098244e6 0.0
0.0 0.0 0.0

-1.142319673276334e7 1.370052595562104e7 0.0
1.370052595562104e7 2.2918189412517376e7 0.0
0.0 0.0 0.0

-4.556501071530566e6 1.9005423527930763e7 0.0
1.9005423527930763e7 1.2382418014043737e7 0.0
0.0 0.0 0.0

-2.71051621323758e6 2.7014835022217654e7 0.0
2.7014835022217654e7 1.2857298510769617e6 0.0
0.0 0.0 0.0

1.3666198475692514e6 1.0722291053423084e7 0.0
1.0722291053423084e7 -1.3000075658475365e7 0.0
0.0 0.0 0.0

-2.788162798867196e6 2.654467743930885e7 0.0
2.654467743930885e7 1.1522595810518756e6 0.0
0.0 0.0 0.0

2.2378252038328988e6 1.8782505340577975e7 0.0
1.8782505340577975e7 1.2521305132419767e7 0.0
0.0 0.0 0.0

-1.231052824336141e7 1.1036017690506436e7 0.0
1.1036017690506436e7 2.2318618055234592e7 0.0
0.0 0.0 0.0

4.267692083472921e6 3.583650750679216e6 0.0
3.583650750679216e6 -2.8152134441252705e7 0.0
0.0 0.0 0.0

-8.224432421288848e6 2.2068029475727502e7 0.0
2.2068029475727502e7 5.852760542218389e6 0.0
0.0 0.0 0.0

-2.137785840653537e6 2.1415757427547153e7 0.0
2.1415757427547153e7 -3.2724694853747897e6 0.0
0.0 0.0 0.0

-1.1714423977351729e6 2.1293328804758478e7 0.0
2.1293328804758478e7 -4.0252223561830036e6 0.0
0.0 0.0 0.0

-5.841041284829871e7 3.687192040178325e7 0.0
3.687192040178325e7 -1.8365031267306566e7 0.0
0.0 0.0 0.0

386288.6335135503 1.6476094369387481e7 0.0
1.6476094369387481e7 -1.3412426076659853e7 0.0
0.0 0.0 0.0

-1.8093868110178255e6 2.339907657621045e7 0.0
2.339907657621045e7 -338545.3525921411 0.0
0.0 0.0 0.0

-7.032733310509756e6 1.6753361603409301e7 0.0
1.6753361603409301e7 1.3324415849935904e7 0.0
0.0 0.0 0.0

-2.4921996959454015e7 1.9332796312055733e7 0.0
1.9332796312055733e7 8.372088139995465e6 0.0
0.0 0.0 0.0

589675.6810465006 1.6196836211744584e7 0.0
1.6196836211744584e7 61523.210320824975 0.0
0.0 0.0 0.0

-166131.76216586865 1.7873248548533272e7 0.0
1.7873248548533272e7 1.369483588558136e7 0.0
0.0 0.0 0.0

4.486607482585883e6 2.121508154557222e6 0.0
2.121508154557222e6 -3.376226014112866e7 0.0
0.0 0.0 0.0

-1.6483102315624626e7 3.0833803354048755e7 0.0
3.0833803354048755e7 8.393603643789675e6 0.0
0.0 0.0 0.0

-9.503792131695412e6 -2.638355222005709e6 0.0
-2.638355222005709e6 3.1899763094669826e7 0.0
0.0 0.0 0.0

-9.734152520253502e6 -906598.7354442737 0.0
-906598.7354442737 3.743561470324665e7 0.0
0.0 0.0 0.0

-4.1687465921484353e6 977352.4486085218 0.0
977352.4486085218 6.652887709426038e6 0.0
0.0 0.0 0.0

-1.1577439743191937e7 1.18935798188297e7 0.0
1.18935798188297e7 2.5158365562939085e7 0.0
0.0 0.0 0.0

-799570.6384048625 1.5712911276897715e7 0.0
1.5712911276897715e7 1.0074463684026206e7 0.0
0.0 0.0 0.0

516174.1344939545 1.4197079661306579e7 0.0
1.4197079661306579e7 -1.950041642775076e7 0.0
0.0 0.0 0.0

-3.37443577109523e7 3.722065151477315e7 0.0
3.722065151477315e7 8.069821759855252e6 0.0
0.0 0.0 0.0

-1.2047046202599293e7 1.1815390739778629e7 0.0
1.1815390739778629e7 2.271825942361892e7 0.0
0.0 0.0 0.0

-1.1876652699318621e6 1.2991530956197869e7 0.0
1.2991530956197869e7 -3.1964448564537264e7 0.0
0.0 0.0 0.0

-1.6248350934299637e7 2.152379342604524e7 0.0
2.152379342604524e7 3.3027467850280656e6 0.0
0.0 0.0 0.0

-9.205417676793028e6 -1.2664831103242154e6 0.0
-1.2664831103242154e6 3.848239899875161e7 0.0
0.0 0.0 0.0

45338.49759639148 1.5677917633788131e7 0.0
1.5677917633788131e7 -1.286840807935274e7 0.0
0.0 0.0 0.0

-4.974702017837158e6 1.5412740831674872e7 0.0
1.5412740831674872e7 -3.520212988312124e7 0.0
0.0 0.0 0.0

-1.6461606937580362e6 1.801934937038898e7 0.0
1.801934937038898e7 -5.508158275584804e6 0.0
0.0 0.0 0.0

-1.5141767022987949e7 2.002778684778352e7 0.0
2.002778684778352e7 3.9436077776637245e6 0.0
0.0 0.0 0.0

3.3559321497809194e7 2.1342406995045885e7 0.0
2.1342406995045885e7 6.356516954092797e6 0.0
0.0 0.0 0.0

-1.0210009336972896e6 1.2731404494209375e7 0.0
1.2731404494209375e7 -2.7699101975302603e6 0.0
0.0 0.0 0.0

1.1014849097382873e6 1.4633868577396078e7 0.0
1.4633868577396078e7 -1.4470026008359455e7 0.0
0.0 0.0 0.0

-1.5047469670204497e6 1.4373732496243456e7 0.0
1.4373732496243456e7 -1.129663759829538e7 0.0
0.0 0.0 0.0

4.568319150289273e6 2.2023123241611514e6 0.0
2.2023123241611514e6 -3.4011001604963206e7 0.0
0.0 0.0 0.0

-873712.8919788583 2.27406301256507e7 0.0
2.27406301256507e7 -2.702109168753767e6 0.0
0.0 0.0 0.0

-1.6845285863090856e6 1.4572790722582903e7 0.0
1.4572790722582903e7 -1.9502733356001638e7 0.0
0.0 0.0 0.0

350347.2064685845 1.777275031362565e7 0.0
1.777275031362565e7 -9.796249616960874e6 0.0
0.0 0.0 0.0

-502713.4495258603 1.5987912216774223e7 0.0
1.5987912216774223e7 1.2658223588191303e6 0.0
0.0 0.0 0.0

-5.069368155375026e6 1.0323499083886314e7 0.0
1.0323499083886314e7 7.218861007184886e6 0.0
0.0 0.0 0.0

-4.489631226256677e6 1.899792082435283e7 0.0
1.899792082435283e7 6.924867540956106e6 0.0
0.0 0.0 0.0

-2.917226057156048e6 1.733085429448821e7 0.0
1.733085429448821e7 1.9824850871121563e7 0.0
0.0 0.0 0.0

4.839822125233482e6 2.8302258284615064e6 0.0
2.8302258284615064e6 -2.2671602235662263e7 0.0
0.0 0.0 0.0

-1.5415212519725338e7 1.0869751004321186e7 0.0
1.0869751004321186e7 5.542925987268688e6 0.0
0.0 0.0 0.0

2.5552144587114328e6 1.954997259742447e7 0.0
1.954997259742447e7 1.1501162286167257e7 0.0
0.0 0.0 0.0

-726221.7204558072 1.5471183387444993e7 0.0
1.5471183387444993e7 -1.3955781811855469e7 0.0
0.0 0.0 0.0

5.353810900172891e7 8.640586268370518e6 0.0
8.640586268370518e6 -1.0117574451681562e6 0.0
0.0 0.0 0.0

707950.7170668095 1.4884629194598863e7 0.0
1.4884629194598863e7 -1.724888932240845e7 0.0
0.0 0.0 0.0

-1.488616939161474e6 2.19103291466585e7 0.0
2.19103291466585e7 -3.9553100340194693e6 0.0
0.0 0.0 0.0

-3.4984455147889913e6 1.9648441724335175e7 0.0
1.9648441724335175e7 -100352.01352652663 0.0
0.0 0.0 0.0

3.0550618136131577e6 1.691001555116124e7 0.0
1.691001555116124e7 4.56967839921798e7 0.0
0.0 0.0 0.0

-1.1608576330411162e7 1.074173669284469e7 0.0
1.074173669284469e7 2.6400148317818396e7 0.0
0.0 0.0 0.0

-9.191813267228086e6 -4.6705844928605165e6 0.0
-4.6705844928605165e6 3.0713968481874537e7 0.0
0.0 0.0 0.0

-1.152876275563531e7 4.22434707847579e6 0.0
4.22434707847579e6 3.166553988931386e7 0.0
0.0 0.0 0.0

-2.9536946327257818e6 2.491341543022488e7 0.0
2.491341543022488e7 1.4733205005510352e6 0.0
0.0 0.0 0.0

2.416455697672596e6 1.05103601773296e7 0.0
1.05103601773296e7 -1.885215730083046e7 0.0
0.0 0.0 0.0

-4.1810818298417367e6 2.004460858152496e7 0.0
2.004460858152496e7 9.380963317403998e6 0.0
0.0 0.0 0.0

243922.6310722581 1.6880076889870472e7 0.0
1.6880076889870472e7 -1.2549601396589108e7 0.0
0.0 0.0 0.0

-7.60892454656525e6 1.5163371139207035e7 0.0
1.5163371139207035e7 1.2210901912325906e7 0.0
0.0 0.0 0.0

-4.991666894750807e6 2.194564496918701e7 0.0
2.194564496918701e7 7.681535172019416e6 0.0
0.0 0.0 0.0

4.881919027905073e6 2.1008148017786104e7 0.0
2.1008148017786104e7 -4.92623215003972e6 0.0
0.0 0.0 0.0

-5.372372547606331e6 1.853929515150604e7 0.0
1.853929515150604e7 1.366101813021651e7 0.0
0.0 0.0 0.0

-4.38384465078607e6 1.9397110641323883e7 0.0
1.9397110641323883e7 1.0446360186530551e7 0.0
0.0 0.0 0.0

-2.3635524309002026e6 1.5089182245523153e7 0.0
1.5089182245523153e7 -1.2344723155884948e7 0.0
0.0 0.0 0.0

-1.2642869676810358e7 1.1724653052186128e7 0.0
1.1724653052186128e7 2.0719784620092116e7 0.0
0.0 0.0 0.0

-2.682182855401036e6 2.495266122655404e7 0.0
2.495266122655404e7 2.400114974963055e6 0.0
0.0 0.0 0.0

4.1040927252389695e6 4.893697654545717e6 0.0
4.893697654545717e6 -2.16218904966058e7 0.0
0.0 0.0 0.0

-8.829060227949295e6 1.6718650265942556e6 0.0
1.6718650265942556e6 4.872481963174508e7 0.0
0.0 0.0 0.0

-836199.4861860999 1.7401532718153533e7 0.0
1.7401532718153533e7 -6.632242888191528e6 0.0
0.0 0.0 0.0

-2.9551583978338717e6 2.5383057997004982e7 0.0
2.5383057997004982e7 1.5901946822955946e6 0.0
0.0 0.0 0.0

1.984629343764158e6 1.2096864553137148e7 0.0
1.2096864553137148e7 -2.1195487101692002e7 0.0
0.0 0.0 0.0

-1.4579145224948728e6 2.2899741459240794e7 0.0
2.2899741459240794e7 -2.9616546871757084e6 0.0
0.0 0.0 0.0

2.6814224063340398e6 9.211007002786325e6 0.0
9.211007002786325e6 -1.8864927276839163e7 0.0
0.0 0.0 0.0

-1.2240604070546173e7 1.0051968045055544e7 0.0
1.0051968045055544e7 2.3303745550643235e7 0.0
0.0 0.0 0.0

-4.93751478559624e7 3.443581562674175e7 0.0
3.443581562674175e7 1.0209265470881693e7 0.0
0.0 0.0 0.0

-1.0684867621511836e7 2.123397135217542e7 0.0
2.123397135217542e7 258857.250397468 0.0
0.0 0.0 0.0

-4.268767784435023e6 2.0016000185581755e7 0.0
2.0016000185581755e7 1.033423574264008e7 0.0
0.0 0.0 0.0

-5.213609774442955e6 -6.7747453200855525e6 0.0
-6.7747453200855525e6 1.1787027523872048e7 0.0
0.0 0.0 0.0

-1.2898318740818452e7 2.017993663265029e7 0.0
2.017993663265029e7 -1.3742867552146502e6 0.0
0.0 0.0 0.0

-6.2112594336836785e6 2.2399816235361487e7 0.0
2.2399816235361487e7 6.913696529313979e6 0.0
0.0 0.0 0.0

4.510547538059821e6 3.395468659342958e6 0.0
3.395468659342958e6 -2.8756361941502564e7 0.0
0.0 0.0 0.0

-7.796457609381734e6 1.3809596104789704e7 0.0
1.3809596104789704e7 1.478411893778272e7 0.0
0.0 0.0 0.0

-1.1303112427038504e7 1.213944548555438e7 0.0
1.213944548555438e7 1.902666709676052e7 0.0
0.0 0.0 0.0

1.3014218320737265e6 2.80462186405152e7 0.0
2.80462186405152e7 -1.0442706113692372e6 0.0
0.0 0.0 0.0

-1.0990604381059635e7 -295205.72936508356 0.0
-295205.72936508356 1.5593827836808804e7 0.0
0.0 0.0 0.0

-1.2336442233019475e7 1.276045783092009e7 0.0
1.276045783092009e7 2.1364896745790858e7 0.0
0.0 0.0 0.0

-1.8487660113435772e6 2.582069602409531e7 0.0
2.582069602409531e7 1.425885638720019e6 0.0
0.0 0.0 0.0

-9.432672509007502e6 -793700.4203774142 0.0
-793700.4203774142 4.0064231595828205e7 0.0
0.0 0.0 0.0

-6.733976039407484e6 -4.20465399184963e6 0.0
-4.20465399184963e6 1.4592564451340226e7 0.0
0.0 0.0 0.0

3.6362422020278024e6 7.023471008398648e6 0.0
7.023471008398648e6 -2.0640127471609645e7 0.0
0.0 0.0 0.0

-4.22516906240687e6 1.929093715128746e7 0.0
1.929093715128746e7 7.840257508976721e6 0.0
0.0 0.0 0.0

-1.1698869860069651e7 1.260651453328024e7 0.0
1.260651453328024e7 2.3160385593128122e7 0.0
0.0 0.0 0.0

-160591.34838269092 1.6461590994962769e7 0.0
1.6461590994962769e7 -1.2224161837615024e7 0.0
0.0 0.0 0.0

655405.8745727558 1.576869129380459e7 0.0
1.576869129380459e7 -1.2874950433656324e7 0.0
0.0 0.0 0.0

2.512059027364523e6 1.0274530377656244e7 0.0
1.0274530377656244e7 -2.0067375196301118e7 0.0
0.0 0.0 0.0

500870.440480968 1.4511295017074374e7 0.0
1.4511295017074374e7 -1.8381835399934568e7 0.0
0.0 0.0 0.0

180056.85443059937 1.6148594087651785e7 0.0
1.6148594087651785e7 6.367025501123715e6 0.0
0.0 0.0 0.0

-1.166353274085004e7 1.3720820040712336e7 0.0
1.3720820040712336e7 2.2070961338181563e7 0.0
0.0 0.0 0.0

-1.3569456893368359e6 2.2318587952286687e7 0.0
2.2318587952286687e7 -3.7833408417925485e6 0.0
0.0 0.0 0.0

-4.895823644609135e6 2.4082310156812016e7 0.0
2.4082310156812016e7 5.415472474427746e6 0.0
0.0 0.0 0.0

-2.30283946678561e6 2.518237940533e7 0.0
2.518237940533e7 1.8999133911337343e6 0.0
0.0 0.0 0.0

1.0529344624805389e7 2.1517788307764962e7 0.0
2.1517788307764962e7 5.610953567759943e7 0.0
0.0 0.0 0.0

-3.7633383580671553e6 1.9601093694278665e7 0.0
1.9601093694278665e7 6.63264165252617e6 0.0
0.0 0.0 0.0

899879.901054414 1.5080011822918225e7 0.0
1.5080011822918225e7 -1.355076656939029e7 0.0
0.0 0.0 0.0

-149347.25200517103 1.507312969174225e7 0.0
1.507312969174225e7 -1.7197713552134383e7 0.0
0.0 0.0 0.0

1.0424649981694967e6 1.486654662427829e7 0.0
1.486654662427829e7 -1.4746194576731697e7 0.0
0.0 0.0 0.0

-751901.0486426686 2.4627198933653027e7 0.0
2.4627198933653027e7 -1.1171229874836723e6 0.0
0.0 0.0 0.0

-4.446125334068466e6 1.8722772058133233e7 0.0
1.8722772058133233e7 6.062749978582574e6 0.0
0.0 0.0 0.0

-245146.95391702838 1.532412301196726e7 0.0
1.532412301196726e7 2.1826297511488204e6 0.0
0.0 0.0 0.0

-382859.90870596 1.5755440956497153e7 0.0
1.5755440956497153e7 -1.3501488232497863e7 0.0
0.0 0.0 0.0

-6.141148284634421e6 1.0840512031609895e7 0.0
1.0840512031609895e7 6.361529684774864e6 0.0
0.0 0.0 0.0

1.1656400970284396e6 3.2077293947330166e7 0.0
3.2077293947330166e7 -4.445478384694546e6 0.0
0.0 0.0 0.0

3.710448321931036e6 3.9991870812061517e6 0.0
3.9991870812061517e6 -4.025647232927509e7 0.0
0.0 0.0 0.0

7.16300355421939e7 2.8093338018215448e7 0.0
2.8093338018215448e7 1.4606553041178372e7 0.0
0.0 0.0 0.0

2.955150777258435e7 3.089026176967054e7 0.0
3.089026176967054e7 -1.912164949125146e7 0.0
0.0 0.0 0.0

-2.611180525556124e6 1.745577505930288e7 0.0
1.745577505930288e7 1.3841534485844258e7 0.0
0.0 0.0 0.0

619513.4271237266 1.6635801995361859e7 0.0
1.6635801995361859e7 8.204334965564717e6 0.0
0.0 0.0 0.0

-2.035224742705408e7 2.175140853959412e7 0.0
2.175140853959412e7 1.5180026346758995e6 0.0
0.0 0.0 0.0

-4.9272543347735934e7 2.4141469647994064e7 0.0
2.4141469647994064e7 4.056994754193917e6 0.0
0.0 0.0 0.0

-7.062024482998034e6 1.0906525119207628e7 0.0
1.0906525119207628e7 1.1167015525386874e7 0.0
0.0 0.0 0.0

-1.8865252205377277e6 2.2022285216481857e7 0.0
2.2022285216481857e7 -1.4272700096238311e6 0.0
0.0 0.0 0.0

1.22602385742822e6 1.4157109038255472e7 0.0
1.4157109038255472e7 -1.5362367845376996e7 0.0
0.0 0.0 0.0

3.169733119517252e6 7.110148550466408e6 0.0
7.110148550466408e6 -3.681963873052555e7 0.0
0.0 0.0 0.0

739005.5157243274 1.4338373312076055e7 0.0
1.4338373312076055e7 -1.564596243039561e7 0.0
0.0 0.0 0.0

-733683.0540324189 1.296657742601923e7 0.0
1.296657742601923e7 -2.8676879416184023e7 0.0
0.0 0.0 0.0

-1.1787094142630529e7 1.2285861551192e7 0.0
1.2285861551192e7 1.7083189808993258e7 0.0
0.0 0.0 0.0

-1.309273150527957e6 1.7102484286389578e7 0.0
1.7102484286389578e7 1.7914972169514578e7 0.0
0.0 0.0 0.0

-239485.5222968564 1.513233562374141e7 0.0
1.513233562374141e7 5.586472494079735e6 0.0
0.0 0.0 0.0

-9.607208940117206e6 5.1495017334659705e6 0.0
5.1495017334659705e6 5.708495338925928e6 0.0
0.0 0.0 0.0

-1.1387300145566672e7 2.802643061337019e6 0.0
2.802643061337019e6 3.115874234241169e7 0.0
0.0 0.0 0.0

-3.5900591627901825e6 2.2173748069078434e7 0.0
2.2173748069078434e7 5.381075400789527e6 0.0
0.0 0.0 0.0

-2.5381425775761586e6 1.7532990416879777e7 0.0
1.7532990416879777e7 2.012067130188233e7 0.0
0.0 0.0 0.0

-6.200327912691199e6 1.5578778859081728e7 0.0
1.5578778859081728e7 1.2851965696396701e7 0.0
0.0 0.0 0.0

-3.418260537418539e6 3.1172828882009755e6 0.0
3.1172828882009755e6 1.8992758687453475e6 0.0
0.0 0.0 0.0

-6.979809962790236e6 1.089084796829165e7 0.0
1.089084796829165e7 5.049234167612532e7 0.0
0.0 0.0 0.0

-3.3326085162492534e6 1.7980873374308344e7 0.0
1.7980873374308344e7 1.7172123355765862e6 0.0
0.0 0.0 0.0

-1.2415021289170065e6 2.174221016015411e7 0.0
2.174221016015411e7 -4.62216107957024e6 0.0
0.0 0.0 0.0

-2.56086418667748e6 1.7134514537419394e7 0.0
1.7134514537419394e7 2.0520247373221043e7 0.0
0.0 0.0 0.0

-5.633116545639062e6 1.0796620112186976e7 0.0
1.0796620112186976e7 8.527002041033179e6 0.0
0.0 0.0 0.0

3.23662500354167e6 2.1526435415122338e7 0.0
2.1526435415122338e7 -5.299042784852894e6 0.0
0.0 0.0 0.0

-7.265464634339627e6 3.578999912015975e6 0.0
3.578999912015975e6 5.5926998179573044e7 0.0
0.0 0.0 0.0

3.69718144296782e6 1.9879467041943602e7 0.0
1.9879467041943602e7 -5.273783793004045e6 0.0
0.0 0.0 0.0

-2.6665644861680446e6 2.5387523783410985e7 0.0
2.5387523783410985e7 2.5524702635175046e6 0.0
0.0 0.0 0.0

-3.334649377642546e6 1.4177288077899074e7 0.0
1.4177288077899074e7 -1.7403365051447146e7 0.0
0.0 0.0 0.0

-5.190626199488144e6 1.8037621296294052e7 0.0
1.8037621296294052e7 1.4411080714682704e7 0.0
0.0 0.0 0.0

-1.2322393739428263e7 1.067038336380973e7 0.0
1.067038336380973e7 2.389751859234796e7 0.0
0.0 0.0 0.0

806792.2658250122 2.418370492885134e7 0.0
2.418370492885134e7 -3.007634364788775e6 0.0
0.0 0.0 0.0

2.9290002425435814e6 5.397714833998284e6 0.0
5.397714833998284e6 -9.049341717059243e6 0.0
0.0 0.0 0.0

-2.0086873274955384e6 3.0260449303117316e7 0.0
3.0260449303117316e7 -793564.9357855254 0.0
0.0 0.0 0.0

1.9415514374171395e6 1.8093859497147992e7 0.0
1.8093859497147992e7 5.818517592230257e6 0.0
0.0 0.0 0.0

-1.9469758075413064e6 2.035341735073243e7 0.0
2.035341735073243e7 -3.0516387319244314e6 0.0
0.0 0.0 0.0

3.883921338885868e6 5.361354243870416e6 0.0
5.361354243870416e6 -2.8648754723763753e7 0.0
0.0 0.0 0.0

-1.274127622409752e6 1.806774706479766e7 0.0
1.806774706479766e7 -7.555973061470455e6 0.0
0.0 0.0 0.0

3.3168827916516373e6 1.9370526200475812e7 0.0
1.9370526200475812e7 1.1785633516163306e7 0.0
0.0 0.0 0.0

-2.4150049474796616e6 2.3837093229102965e7 0.0
2.3837093229102965e7 1.5242104874849906e6 0.0
0.0 0.0 0.0

1.68834143721034e6 1.7469921612961352e7 0.0
1.7469921612961352e7 1.9869162319041885e7 0.0
0.0 0.0 0.0

-1.5097289865497574e6 2.435092747521352e6 0.0
2.435092747521352e6 2.9593197851985693e6 0.0
0.0 0.0 0.0

-4.281515522605596e6 1.655397555144446e7 0.0
1.655397555144446e7 2.475893820271717e7 0.0
0.0 0.0 0.0

-6.145861888042067e6 2.0532469912520807e7 0.0
2.0532469912520807e7 4.1618747586472775e6 0.0
0.0 0.0 0.0

3.8316529418169046e6 2.0558824462903876e7 0.0
2.0558824462903876e7 -5.24652025763196e6 0.0
0.0 0.0 0.0

561219.9430247783 1.9592701099102486e7 0.0
1.9592701099102486e7 -7.312650200318716e6 0.0
0.0 0.0 0.0

3.1982053696405133e6 2.5257800420781955e7 0.0
2.5257800420781955e7 -3.896677884210556e6 0.0
0.0 0.0 0.0

1559.4734072575811 1.4133358096323054e7 0.0
1.4133358096323054e7 3.698253599647948e6 0.0
0.0 0.0 0.0

-4.407686308981771e6 2.063906316600626e7 0.0
2.063906316600626e7 9.4946998525524e6 0.0
0.0 0.0 0.0

759108.6832866383 2.603990067587176e7 0.0
2.603990067587176e7 -2.89092804784838e6 0.0
0.0 0.0 0.0

-4.906494383725964e6 1.5034053794388006e7 0.0
1.5034053794388006e7 -3.4829395485662796e7 0.0
0.0 0.0 0.0

-7.346600158670904e6 8.599734810653724e6 0.0
8.599734810653724e6 8.322417270698283e6 0.0
0.0 0.0 0.0

-286576.03866481315 1.593006463782167e7 0.0
1.593006463782167e7 7.117242908644863e6 0.0
0.0 0.0 0.0

848214.778497994 2.4786590922820356e7 0.0
2.4786590922820356e7 -3.5594005136026046e6 0.0
0.0 0.0 0.0

-542266.5346393804 1.6111439407564864e7 0.0
1.6111439407564864e7 -1.396616167795143e7 0.0
0.0 0.0 0.0

4.653075367712269e6 3.906173816574883e6 0.0
3.906173816574883e6 -2.0524464135303214e7 0.0
0.0 0.0 0.0

-8.138840658673063e6 -1.1160135920550898e6 0.0
-1.1160135920550898e6 5.152785310268622e7 0.0
0.0 0.0 0.0

1.8010958044862375e6 1.2152381857697856e7 0.0
1.2152381857697856e7 -2.2464464629591122e7 0.0
0.0 0.0 0.0

76711.82007885678 1.7418918635486003e7 0.0
1.7418918635486003e7 9.627687807115115e6 0.0
0.0 0.0 0.0

-1.0277380897452882e7 1.299282436164425e7 0.0
1.299282436164425e7 1.8148429502353936e7 0.0
0.0 0.0 0.0

4.29502000164738e6 2.0343775778095733e7 0.0
2.0343775778095733e7 -4.891906118792355e6 0.0
0.0 0.0 0.0

3.585756560126816e6 5.855263546570374e6 0.0
5.855263546570374e6 -1.760347026245787e7 0.0
0.0 0.0 0.0

2.206151247914101e6 1.7580896072366394e7 0.0
1.7580896072366394e7 -3.2548371838546414e6 0.0
0.0 0.0 0.0

3.4128546739715906e6 1.978973591558312e7 0.0
1.978973591558312e7 1.0676794449383527e7 0.0
0.0 0.0 0.0

4.925657230342543e6 3.146343154716913e7 0.0
3.146343154716913e7 -6.998461169646066e6 0.0
0.0 0.0 0.0

877316.7111069323 1.9296553424798418e7 0.0
1.9296553424798418e7 -7.531281713085234e6 0.0
0.0 0.0 0.0

-1.6418110592339225e6 1.615391003738578e7 0.0
1.615391003738578e7 3.3215845671503134e7 0.0
0.0 0.0 0.0

4.887562537934512e6 2.590323336961336e6 0.0
2.590323336961336e6 -2.5785895866304226e7 0.0
0.0 0.0 0.0

-1.087988650008784e6 2.5468295444233358e7 0.0
2.5468295444233358e7 -1.2483356247504915e6 0.0
0.0 0.0 0.0

3.1721729006536626e6 1.6822139846483923e7 0.0
1.6822139846483923e7 2.5466078107598815e6 0.0
0.0 0.0 0.0

-5.4778049683628015e7 1.5076919271046922e7 0.0
1.5076919271046922e7 6.320977408367325e6 0.0
0.0 0.0 0.0

-5.81253747429893e6 2.2263296338560592e7 0.0
2.2263296338560592e7 7.335759029248683e6 0.0
0.0 0.0 0.0

-6.2572814939290825e6 7.935500353418733e6 0.0
7.935500353418733e6 9.42035557262474e6 0.0
0.0 0.0 0.0

554855.24154884 1.447830044540766e7 0.0
1.447830044540766e7 -1.9562253185459502e7 0.0
0.0 0.0 0.0

-3.0852598264032034e6 1.7471690081393942e7 0.0
1.7471690081393942e7 1.2258967133572418e7 0.0
0.0 0.0 0.0

-1.4554676353194537e6 1.4346074126789626e7 0.0
1.4346074126789626e7 -2.5335212522657268e7 0.0
0.0 0.0 0.0

4.656439207753494e6 3.0964425795027353e6 0.0
3.0964425795027353e6 -3.309622572023552e7 0.0
0.0 0.0 0.0

3.968096384246834e7 1.5547860194117628e7 0.0
1.5547860194117628e7 2.312108398289144e6 0.0
0.0 0.0 0.0

-9.79785173515598e7 3.828804560307324e7 0.0
3.828804560307324e7 -1.056582066075747e7 0.0
0.0 0.0 0.0

8.462254223270696e6 1.8232458310331397e7 0.0
1.8232458310331397e7 6.951890451642217e6 0.0
0.0 0.0 0.0

-953711.9746187925 1.9864084505928874e7 0.0
1.9864084505928874e7 -7.2337661981326705e6 0.0
0.0 0.0 0.0

-4.441718729846179e6 1.8845259055558294e7 0.0
1.8845259055558294e7 1.192470774691928e7 0.0
0.0 0.0 0.0

4.460938183168774e6 3.926692453693326e6 0.0
3.926692453693326e6 -2.0156462337750092e7 0.0
0.0 0.0 0.0

-6.387304365586182e6 2.064722634630088e7 0.0
2.064722634630088e7 5.866093787395006e6 0.0
0.0 0.0 0.0

220545.14707183355 2.607614112599965e7 0.0
2.607614112599965e7 -992235.4500943336 0.0
0.0 0.0 0.0

-1.737447779171952e6 1.5131321833059076e7 0.0
1.5131321833059076e7 -1.985504220064176e7 0.0
0.0 0.0 0.0

-2.240665906202659e6 2.0063154987409044e7 0.0
2.0063154987409044e7 -4.1873282099892753e6 0.0
0.0 0.0 0.0

2.1651371422519395e6 5.353960995994462e6 0.0
5.353960995994462e6 -6.51130216915709e6 0.0
0.0 0.0 0.0

5.830499186067389e6 1.940805659278298e7 0.0
1.940805659278298e7 1.0813752443711327e7 0.0
0.0 0.0 0.0

-8.02192893484457e6 1.9786638680458013e7 0.0
1.9786638680458013e7 -1.5216701886982247e6 0.0
0.0 0.0 0.0

183299.47578576114 1.661126931474009e7 0.0
1.661126931474009e7 -1.112050518824943e7 0.0
0.0 0.0 0.0

-3.4548448398799216e6 2.0793335392930828e7 0.0
2.0793335392930828e7 985331.4317833965 0.0
0.0 0.0 0.0

1.5046448657635767e6 1.2299853226136182e7 0.0
1.2299853226136182e7 -2.150701532595926e7 0.0
0.0 0.0 0.0

-9.282935371387273e6 -619227.8157975235 0.0
-619227.8157975235 4.103654468857345e7 0.0
0.0 0.0 0.0

523208.4972089315 1.4770389062133292e7 0.0
1.4770389062133292e7 -1.467641651927441e7 0.0
0.0 0.0 0.0

2.4375002592494306e6 1.66415226466717e7 0.0
1.66415226466717e7 -1.0036200567052476e6 0.0
0.0 0.0 0.0

-1.0500049510199739e7 1.8016073546388894e7 0.0
1.8016073546388894e7 -4.429576027892502e7 0.0
0.0 0.0 0.0

4.114428164686134e6 6.405682465059684e6 0.0
6.405682465059684e6 -2.003291122628299e7 0.0
0.0 0.0 0.0

607283.5288870875 1.597118565310154e7 0.0
1.597118565310154e7 -1.437034236497788e7 0.0
0.0 0.0 0.0

-4.8358561510706525e6 2.1627165436294094e7 0.0
2.1627165436294094e7 8.098734901437954e6 0.0
0.0 0.0 0.0

-2.148042539834815e6 2.322055708917161e7 0.0
2.322055708917161e7 -1.3233913114994378e6 0.0
0.0 0.0 0.0

-4.021313568633899e6 1.979822949562692e7 0.0
1.979822949562692e7 8.840041383030446e6 0.0
0.0 0.0 0.0

2.813232151644888e6 1.772201296051627e7 0.0
1.772201296051627e7 6.367406938483542e6 0.0
0.0 0.0 0.0

-6.761404460010998e7 2.031693361159861e7 0.0
2.031693361159861e7 3.892766357992694e6 0.0
0.0 0.0 0.0

438875.211717224 2.3303393009731756e6 0.0
2.3303393009731756e6 -2.0965196617590648e6 0.0
0.0 0.0 0.0

-857148.8425979604 1.4133806472992873e7 0.0
1.4133806472992873e7 -1.706730299451045e6 0.0
0.0 0.0 0.0

8.241240809112432e6 1.732092210747113e7 0.0
1.732092210747113e7 679493.36234473 0.0
0.0 0.0 0.0

-1.8399504543838026e6 2.7323145250585634e7 0.0
2.7323145250585634e7 1.7231045473406068e6 0.0
0.0 0.0 0.0

-751377.0232287254 1.3180667649126561e7 0.0
1.3180667649126561e7 -3.0509110890937313e7 0.0
0.0 0.0 0.0

-1.6727196232919951e6 1.7951148823770136e7 0.0
1.7951148823770136e7 -5.675670959045408e6 0.0
0.0 0.0 0.0

1.1162403379833167e6 2.0334143493567847e7 0.0
2.0334143493567847e7 -6.500175541105573e6 0.0
0.0 0.0 0.0

1.1573087670383789e6 1.362606015016652e7 0.0
1.362606015016652e7 -1.2757645694341032e7 0.0
0.0 0.0 0.0

1.2203309599720966e6 1.9751544115995992e7 0.0
1.9751544115995992e7 -6.60761792471146e6 0.0
0.0 0.0 0.0

-275687.5647556707 1.6750663590473106e7 0.0
1.6750663590473106e7 6.698703338708734e6 0.0
0.0 0.0 0.0

-1.6807273063343442e6 2.303519357469531e7 0.0
2.303519357469531e7 -1.0408542908263573e6 0.0
0.0 0.0 0.0

3.3290148494865233e6 8.806165938742539e6 0.0
8.806165938742539e6 -1.958648540498516e7 0.0
0.0 0.0 0.0

4.513564693690984e6 3.3981426817783276e6 0.0
3.3981426817783276e6 -2.9046703636556156e7 0.0
0.0 0.0 0.0

-1.660406174139046e6 543944.3140317188 0.0
543944.3140317188 -675092.9972493714 0.0
0.0 0.0 0.0

-7.615131232356761e6 142971.54838436196 0.0
142971.54838436196 1.0162533345809891e6 0.0
0.0 0.0 0.0

989292.5171057722 1.7913987634553485e7 0.0
1.7913987634553485e7 1.1709904352137478e7 0.0
0.0 0.0 0.0

675144.661501368 1.5979898452992124e7 0.0
1.5979898452992124e7 8.282027694421021e6 0.0
0.0 0.0 0.0

-754122.5473817973 1.666889032982789e7 0.0
1.666889032982789e7 6.770148107754428e6 0.0
0.0 0.0 0.0

3.197856817468527e6 5.136758333684178e6 0.0
5.136758333684178e6 -1.3589652255531386e7 0.0
0.0 0.0 0.0

1.634216994969002e6 1.874183372897148e7 0.0
1.874183372897148e7 -6.533073379998038e6 0.0
0.0 0.0 0.0

2.4344388748511723e6 4.412966087360596e6 0.0
4.412966087360596e6 -7.401563135774715e6 0.0
0.0 0.0 0.0

867355.1481005019 1.9782677821212158e7 0.0
1.9782677821212158e7 -7.021962901243328e6 0.0
0.0 0.0 0.0

-1.0887724778014174e7 1.449014739798686e7 0.0
1.449014739798686e7 2.2989566201654457e7 0.0
0.0 0.0 0.0

-794069.028537149 2.2173311620791268e7 0.0
2.2173311620791268e7 -3.5422700597335794e6 0.0
0.0 0.0 0.0

1.3544963964745523e6 2.5280518254982784e7 0.0
2.5280518254982784e7 -2.3231602919194805e6 0.0
0.0 0.0 0.0

3.533311427668403e6 6.952468954717179e6 0.0
6.952468954717179e6 -2.086494391907514e7 0.0
0.0 0.0 0.0

3.762267550513683e6 5.921963379117344e6 0.0
5.921963379117344e6 -2.128231664122067e7 0.0
0.0 0.0 0.0

1.0014407203446519e7 1.8512004431513723e7 0.0
1.8512004431513723e7 -2.1142467700451706e6 0.0
0.0 0.0 0.0

-1.14720467300394e6 1.7633249411319528e7 0.0
1.7633249411319528e7 1.7887616591061458e7 0.0
0.0 0.0 0.0

245420.11247591767 1.5238701232927244e7 0.0
1.5238701232927244e7 -1.377862213014411e7 0.0
0.0 0.0 0.0

-8.963245681560753e6 -4.468496683820801e6 0.0
-4.468496683820801e6 3.1741615686401095e7 0.0
0.0 0.0 0.0

-1.8924120020399275e6 2.6292894639452673e7 0.0
2.6292894639452673e7 1.4677303419818368e6 0.0
0.0 0.0 0.0

-1.1920868550681546e7 1.2871831654389087e7 0.0
1.2871831654389087e7 2.1756874513345487e7 0.0
0.0 0.0 0.0

-6.41221020541938e6 -3.413337779722115e6 0.0
-3.413337779722115e6 9.13796243192201e6 0.0
0.0 0.0 0.0

-194717.14057850325 1.5088714415727504e7 0.0
1.5088714415727504e7 -8.652923395328311e6 0.0
0.0 0.0 0.0

4.607117521330198e6 3.4643371652329303e6 0.0
3.4643371652329303e6 -2.802442536310278e7 0.0
0.0 0.0 0.0

-4.250322732123968e6 2.4420904916273482e7 0.0
2.4420904916273482e7 5.154869523743499e6 0.0
0.0 0.0 0.0

-1.650069586435638e6 1.9891215603405166e7 0.0
1.9891215603405166e7 -3.912484692574207e6 0.0
0.0 0.0 0.0

1.6414292208861643e6 1.1900138548019562e7 0.0
1.1900138548019562e7 -2.264656826530311e7 0.0
0.0 0.0 0.0

1.0718949679742973e7 1.6858591635532837e7 0.0
1.6858591635532837e7 2.67102483551351e6 0.0
0.0 0.0 0.0

-4.807226200882651e6 2.3726058246585526e7 0.0
2.3726058246585526e7 6.014294883225605e6 0.0
0.0 0.0 0.0

-9.868669692524275e6 -3.4152347736774636e6 0.0
-3.4152347736774636e6 3.011508120283255e7 0.0
0.0 0.0 0.0

-8.593841983505242e6 -6.748502711723675e6 0.0
-6.748502711723675e6 2.1893137181019835e7 0.0
0.0 0.0 0.0

3.38186075155396e6 1.6953429714844074e7 0.0
1.6953429714844074e7 -740047.9058677019 0.0
0.0 0.0 0.0

-576805.7641859548 1.975080232532317e7 0.0
1.975080232532317e7 -7.054409894800289e6 0.0
0.0 0.0 0.0

-428712.99224869185 2.0201439436935097e7 0.0
2.0201439436935097e7 -6.67441747941457e6 0.0
0.0 0.0 0.0

-8.435455415459622e6 5.236785110644041e6 0.0
5.236785110644041e6 4.556433089095528e7 0.0
0.0 0.0 0.0

3.5923000350104463e6 3.2993777709192573e6 0.0
3.2993777709192573e6 -1.0604707724579249e7 0.0
0.0 0.0 0.0

-5.458033191983968e6 1.9693748126173172e7 0.0
1.9693748126173172e7 -1.7287164906795132e6 0.0
0.0 0.0 0.0

-9.374299830912858e6 2.0171582857395623e7 0.0
2.0171582857395623e7 -5.486405104799865e6 0.0
0.0 0.0 0.0

-2.3460861569378946e7 2.4169818988786478e7 0.0
2.4169818988786478e7 956850.1345224809 0.0
0.0 0.0 0.0

-784112.8142740899 2.6482902869872563e7 0.0
2.6482902869872563e7 204547.67555903614 0.0
0.0 0.0 0.0

302274.4989600998 1.5310228670321943e7 0.0
1.5310228670321943e7 298087.64238844777 0.0
0.0 0.0 0.0

-9.689881414191643e6 -2.6477109813108034e6 0.0
-2.6477109813108034e6 3.201610624268712e7 0.0
0.0 0.0 0.0

8.334436871662027e6 1.831876716177982e7 0.0
1.831876716177982e7 -1.77348370190622e6 0.0
0.0 0.0 0.0

-288054.79564582556 1.6512283297571477e7 0.0
1.6512283297571477e7 -9.112532701455144e6 0.0
0.0 0.0 0.0

-9.85248430895703e6 -2.950888947639285e6 0.0
-2.950888947639285e6 2.4407319764516134e7 0.0
0.0 0.0 0.0

-4.526066124985218e6 2.0159310414314806e7 0.0
2.0159310414314806e7 8.030415343193267e6 0.0
0.0 0.0 0.0

-4.310947323871534e6 2.1268189070585545e7 0.0
2.1268189070585545e7 7.290383888944926e6 0.0
0.0 0.0 0.0

-2.534791926228198e6 1.8553280990520592e6 0.0
1.8553280990520592e6 1.8439368636172754e6 0.0
0.0 0.0 0.0

3.9927547005109666e6 5.25337859797502e6 0.0
5.25337859797502e6 -2.2071438317333587e7 0.0
0.0 0.0 0.0

2.0561596661846265e6 7.889824071002315e6 0.0
7.889824071002315e6 -3.789462535899217e7 0.0
0.0 0.0 0.0

3.436546001000178e6 1.91653149779748e7 0.0
1.91653149779748e7 1.0995574764835794e7 0.0
0.0 0.0 0.0

2.879313322283953e6 4.543322250503673e6 0.0
4.543322250503673e6 -9.633813858708203e6 0.0
0.0 0.0 0.0

1.2607165105479626e7 2.4311068290877376e7 0.0
2.4311068290877376e7 -8.518214846491158e6 0.0
0.0 0.0 0.0

4.639964567442456e6 4.664899647448795e6 0.0
4.664899647448795e6 -2.102226334361809e7 0.0
0.0 0.0 0.0

4.1708781445244905e6 5.117809344972447e6 0.0
5.117809344972447e6 -1.4916067402154148e7 0.0
0.0 0.0 0.0

4.0625377230842356e6 4.9755519310618965e6 0.0
4.9755519310618965e6 -1.8847429896091163e7 0.0
0.0 0.0 0.0

447240.054309456 1.6129649806065535e7 0.0
1.6129649806065535e7 1.6942264720971705e6 0.0
0.0 0.0 0.0

416582.79022226925 1.5815873407794092e7 0.0
1.5815873407794092e7 6.340983482648776e6 0.0
0.0 0.0 0.0

919392.3666470852 1.3700596238893898e7 0.0
1.3700596238893898e7 -2.054553531175034e7 0.0
0.0 0.0 0.0

1.1347890911740089e7 2.541530940093481e7 0.0
2.541530940093481e7 -7.115134362909509e6 0.0
0.0 0.0 0.0

-9.586491107342396e6 -4.516427492728131e6 0.0
-4.516427492728131e6 2.4047524379539765e7 0.0
0.0 0.0 0.0

-4.319279023318715e6 2.037552014967903e7 0.0
2.037552014967903e7 9.486702519800518e6 0.0
0.0 0.0 0.0

-2.599786006254936e6 2.604503569911238e7 0.0
2.604503569911238e7 1.0851849289263529e6 0.0
0.0 0.0 0.0

-1.0808868414567967e6 2.2277514002977766e7 0.0
2.2277514002977766e7 -2.9718118689668174e6 0.0
0.0 0.0 0.0

-6.752889063081472e6 -4.870860186911051e6 0.0
-4.870860186911051e6 1.4427574326766975e7 0.0
0.0 0.0 0.0

-7.815291806641462e6 -1.3516949745917602e6 0.0
-1.3516949745917602e6 1.0141267056457829e7 0.0
0.0 0.0 0.0

289998.395172406 1.7570876057068907e7 0.0
1.7570876057068907e7 1.668776669535956e7 0.0
0.0 0.0 0.0

-304014.8539527765 1.4417672628357934e6 0.0
1.4417672628357934e6 -397318.6708078854 0.0
0.0 0.0 0.0

3.3485771676634047e6 2.067038653752909e7 0.0
2.067038653752909e7 -5.196632381198392e6 0.0
0.0 0.0 0.0

-757760.112431627 1.88641887578428e7 0.0
1.88641887578428e7 -8.575016227140035e6 0.0
0.0 0.0 0.0

513172.86552766804 1.5846463884937573e7 0.0
1.5846463884937573e7 -1.520615752126085e7 0.0
0.0 0.0 0.0

-2.8681093034775625e6 1.9326870503718585e7 0.0
1.9326870503718585e7 448445.8107251922 0.0
0.0 0.0 0.0

-4.751324763324738e6 1.9509974120018173e7 0.0
1.9509974120018173e7 8.406845122262543e6 0.0
0.0 0.0 0.0

-1.1375328248345865e7 1.2761709394842302e7 0.0
1.2761709394842302e7 1.949913127788916e7 0.0
0.0 0.0 0.0

-1.7451006261370093e7 3.2578779559545774e7 0.0
3.2578779559545774e7 6.279956477616346e6 0.0
0.0 0.0 0.0

3.067630478051463e6 4.480663410382133e6 0.0
4.480663410382133e6 -9.832557080956396e6 0.0
0.0 0.0 0.0

639116.2063297005 1.551988297521214e7 0.0
1.551988297521214e7 -1.2674433686912159e7 0.0
0.0 0.0 0.0

3.8552836357325185e6 4.06897570858791e6 0.0
4.06897570858791e6 -4.023437893971568e7 0.0
0.0 0.0 0.0

719469.8224200304 2.0176186906318232e7 0.0
2.0176186906318232e7 -6.749405282804624e6 0.0
0.0 0.0 0.0

-7.231375344823694e6 1.0595587294618648e7 0.0
1.0595587294618648e7 9.190759269636557e6 0.0
0.0 0.0 0.0

-5.684972922462682e6 1.4670523486960348e7 0.0
1.4670523486960348e7 -2.5153782489349365e7 0.0
0.0 0.0 0.0

2.250144663008884e7 1.772559082783646e7 0.0
1.772559082783646e7 4.619240005141873e6 0.0
0.0 0.0 0.0

-8.048980666653049e6 1.5379727833509734e6 0.0
1.5379727833509734e6 1.2190644372630792e7 0.0
0.0 0.0 0.0

5.892440173396747e6 1.8592354152882367e7 0.0
1.8592354152882367e7 8.798985874100804e6 0.0
0.0 0.0 0.0

3.7151259262944013e6 1.50363918602548e7 0.0
1.50363918602548e7 1.827901973885781e7 0.0
0.0 0.0 0.0

-5.011727922116581e6 1.494999796975112e7 0.0
1.494999796975112e7 -1.37556694431567e7 0.0
0.0 0.0 0.0

761759.2528590573 2.754447635234019e7 0.0
2.754447635234019e7 -2.594236561167934e6 0.0
0.0 0.0 0.0

-1.7257577891865564e6 1.989595633804442e7 0.0
1.989595633804442e7 -5.889367515311684e6 0.0
0.0 0.0 0.0

-7.296433177117301e6 1.5250035911375074e7 0.0
1.5250035911375074e7 1.4994013875593051e7 0.0
0.0 0.0 0.0

1.0638110722089931e6 7.938833138922486e6 0.0
7.938833138922486e6 -5.296966140616194e7 0.0
0.0 0.0 0.0

-8.141964429451832e6 175098.13040493857 0.0
175098.13040493857 1.0430340951507024e7 0.0
0.0 0.0 0.0

-695711.6442879371 1.6389236954966664e7 0.0
1.6389236954966664e7 -6.224698341223383e6 0.0
0.0 0.0 0.0

5.228721062306022e6 1.8452573848410193e7 0.0
1.8452573848410193e7 7.959508136883561e6 0.0
0.0 0.0 0.0

-2.005223379089863e6 1.2130936931031242e7 0.0
1.2130936931031242e7 6.1771778412376605e6 0.0
0.0 0.0 0.0

-5.011652853947289e6 1.887864549486958e7 0.0
1.887864549486958e7 1.2497835016167216e7 0.0
0.0 0.0 0.0

-3.454279489384709e6 2.2576913511525083e7 0.0
2.2576913511525083e7 4.641963097950632e6 0.0
0.0 0.0 0.0

-1.5547827120195264e7 3.3275059594279908e7 0.0
3.3275059594279908e7 7.3610271414599735e6 0.0
0.0 0.0 0.0

1.2662384037568588e6 7.291098893184188e6 0.0
7.291098893184188e6 -5.994908584170974e6 0.0
0.0 0.0 0.0

-3.938461470941645e6 2.2328948885580696e7 0.0
2.2328948885580696e7 4.270745608698891e6 0.0
0.0 0.0 0.0

-1.4206241675799217e6 1.911993172481896e7 0.0
1.911993172481896e7 -5.982002179680178e6 0.0
0.0 0.0 0.0

9.501779034804441e6 1.9062235763239723e7 0.0
1.9062235763239723e7 9.80314856027708e6 0.0
0.0 0.0 0.0

-1.6579422129247105e6 2.1466937880781215e7 0.0
2.1466937880781215e7 -4.278866364428217e6 0.0
0.0 0.0 0.0

2.40656316563816e6 4.47699429824155e6 0.0
4.47699429824155e6 -8.147001091241224e6 0.0
0.0 0.0 0.0

-309073.73422326427 1.677732260842809e7 0.0
1.677732260842809e7 -1.1375904870469578e7 0.0
0.0 0.0 0.0

-1.0109979716663165e7 -153972.25274232286 0.0
-153972.25274232286 1.8507174479674704e7 0.0
0.0 0.0 0.0

4.359755031121021e6 5.7860403931547785e6 0.0
5.7860403931547785e6 -2.0680876282467604e7 0.0
0.0 0.0 0.0

3.6506702158692908e6 4.73678892596046e6 0.0
4.73678892596046e6 -4.348904612507122e7 0.0
0.0 0.0 0.0

488394.27320530405 1.8507249616472192e7 0.0
1.8507249616472192e7 1.0620116535734512e7 0.0
0.0 0.0 0.0

326903.9666770417 1.6615650888849968e7 0.0
1.6615650888849968e7 -1.3457825898634803e7 0.0
0.0 0.0 0.0

-7.750326409647748e6 1.55070169117692e7 0.0
1.55070169117692e7 1.3112160232344877e7 0.0
0.0 0.0 0.0

4.619102366613493e6 2.9907971099350727e6 0.0
2.9907971099350727e6 -1.8086555548100267e7 0.0
0.0 0.0 0.0

1.501191367276785e6 1.3764112199219443e7 0.0
1.3764112199219443e7 -1.617618529244439e7 0.0
0.0 0.0 0.0

143957.7421965059 1.5324607927656485e7 0.0
1.5324607927656485e7 -1.6037563337859862e7 0.0
0.0 0.0 0.0

-7.052370430334967e6 1.6432639343989193e7 0.0
1.6432639343989193e7 1.2597235168261133e7 0.0
0.0 0.0 0.0

-3.4276459210234336e6 6.32299371238596e6 0.0
6.32299371238596e6 4.332082316672093e6 0.0
0.0 0.0 0.0

-8.956077130123338e6 -3.59173729405157e6 0.0
-3.59173729405157e6 1.9155957199557997e7 0.0
0.0 0.0 0.0

58627.53477896843 1.6107035853656895e7 0.0
1.6107035853656895e7 -1.3994285771690387e7 0.0
0.0 0.0 0.0

-6.353642565851715e6 9.483577135837551e6 0.0
9.483577135837551e6 9.914725687695839e6 0.0
0.0 0.0 0.0

8.726653459066728e6 1.7872510695379753e7 0.0
1.7872510695379753e7 9.291491988765754e6 0.0
0.0 0.0 0.0

-838179.7320819586 1.933614096303185e7 0.0
1.933614096303185e7 -8.029202491073991e6 0.0
0.0 0.0 0.0

2.539753416634343e6 4.455649460004636e6 0.0
4.455649460004636e6 -7.389301666897354e6 0.0
0.0 0.0 0.0

-1.0548873984789334e7 3.9510964139870047e6 0.0
3.9510964139870047e6 3.244318014011542e7 0.0
0.0 0.0 0.0

-2.882882956741021e6 2.4034266337759774e7 0.0
2.4034266337759774e7 1.2076787944262426e6 0.0
0.0 0.0 0.0

-7.824511246612099e6 2.5665930085067693e7 0.0
2.5665930085067693e7 5.613983209053856e6 0.0
0.0 0.0 0.0

-9.777202928688506e6 2.1059780020405725e6 0.0
2.1059780020405725e6 1.1445909200979462e7 0.0
0.0 0.0 0.0

-1.0409788956987549e7 -1.0785320093921789e6 0.0
-1.0785320093921789e6 2.585003683309756e7 0.0
0.0 0.0 0.0

1.304504584949674e6 1.2389880021597195e7 0.0
1.2389880021597195e7 -2.280232361161716e7 0.0
0.0 0.0 0.0

-5.935237203166537e6 1.694937696584043e7 0.0
1.694937696584043e7 1.3330540087786768e7 0.0
0.0 0.0 0.0

-1.0896201581347443e7 5.19894213615948e6 0.0
5.19894213615948e6 3.282938871425045e7 0.0
0.0 0.0 0.0

-5.210654305975408e7 1.5940618002910275e7 0.0
1.5940618002910275e7 7.673966135252722e6 0.0
0.0 0.0 0.0

1.4482902895821314e6 1.170353620761096e7 0.0
1.170353620761096e7 -1.4533701946037441e7 0.0
0.0 0.0 0.0

528664.8450200405 1.5988554200156284e7 0.0
1.5988554200156284e7 -55414.47045213252 0.0
0.0 0.0 0.0

4.846985729498303e6 2.4942523216365282e6 0.0
2.4942523216365282e6 -2.7373771873827398e7 0.0
0.0 0.0 0.0

-345405.91505584586 1.7621671924894694e7 0.0
1.7621671924894694e7 1.3053901494716074e7 0.0
0.0 0.0 0.0

-1.1739771938664524e7 5.287377554862293e6 0.0
5.287377554862293e6 3.0024758503670827e7 0.0
0.0 0.0 0.0

1.4087454399536778e6 6.365389727393682e6 0.0
6.365389727393682e6 -7.473735294229675e6 0.0
0.0 0.0 0.0

-1.3402430543531443e6 1.9166261125822566e7 0.0
1.9166261125822566e7 -5.952338819287782e6 0.0
0.0 0.0 0.0

-3.2226368556368193e6 2.1597637742124468e7 0.0
2.1597637742124468e7 579017.9767587115 0.0
0.0 0.0 0.0

-4.236558860505417e6 1.884859078319893e7 0.0
1.884859078319893e7 8.100163271308476e6 0.0
0.0 0.0 0.0

-5.62125601858061e6 2.499543217640672e7 0.0
2.499543217640672e7 5.134848713634916e6 0.0
0.0 0.0 0.0

-3.6515352961746077e6 1.7861798974078428e7 0.0
1.7861798974078428e7 318032.97683500545 0.0
0.0 0.0 0.0

-9.701361360705392e6 -1.4675063813521024e6 0.0
-1.4675063813521024e6 3.651130155626559e7 0.0
0.0 0.0 0.0

993512.7767647449 1.6988851205547653e7 0.0
1.6988851205547653e7 1.4711242596980521e7 0.0
0.0 0.0 0.0

864912.9314876404 1.530461436675569e7 0.0
1.530461436675569e7 -1.3844380930959359e7 0.0
0.0 0.0 0.0

-1.3023864669120673e7 2.3558490853783544e7 0.0
2.3558490853783544e7 -1.8241920666718702e6 0.0
0.0 0.0 0.0

-4.857519634620609e6 473893.03617695865 0.0
473893.03617695865 5.266281662166998e6 0.0
0.0 0.0 0.0

-2.28475866111381e6 2.5661936369995702e7 0.0
2.5661936369995702e7 2.028084231135137e6 0.0
0.0 0.0 0.0

158866.15090053063 1.546605158163635e7 0.0
1.546605158163635e7 -1.5482967140851368e6 0.0
0.0 0.0 0.0

-1.0637018067082226e7 1.5216758253168106e7 0.0
1.5216758253168106e7 2.1372190310348317e7 0.0
0.0 0.0 0.0

2.9060707583207227e6 1.0425420515760772e7 0.0
1.0425420515760772e7 -1.8808035369409915e7 0.0
0.0 0.0 0.0

-1.0985157170982383e7 1.4263117092917029e7 0.0
1.4263117092917029e7 2.031580065327362e7 0.0
0.0 0.0 0.0

2.1722403036566232e6 4.537614786634365e6 0.0
4.537614786634365e6 -7.115545571229562e6 0.0
0.0 0.0 0.0

4.036707188792699e6 6.8691354215795575e6 0.0
6.8691354215795575e6 -2.0521532993592013e7 0.0
0.0 0.0 0.0

-1.3295613561517384e6 1.8049417649495866e7 0.0
1.8049417649495866e7 -6.552987270450473e6 0.0
0.0 0.0 0.0

-3.4327950482469355e6 1.903756378721836e7 0.0
1.903756378721836e7 2.0206282087988104e6 0.0
0.0 0.0 0.0

-2.864422994688346e6 2.1715527976448227e7 0.0
2.1715527976448227e7 1.725117205690229e6 0.0
0.0 0.0 0.0

1.124469234566241e6 1.9643177894226268e7 0.0
1.9643177894226268e7 -6.811785944926609e6 0.0
0.0 0.0 0.0

4.430332291463507e6 5.1912604933914235e6 0.0
5.1912604933914235e6 -1.873455066400208e7 0.0
0.0 0.0 0.0

1.6765585595377232e6 4.448933191726862e6 0.0
4.448933191726862e6 -5.501920333683108e6 0.0
0.0 0.0 0.0

3.5890332966672434e6 6.324571546611714e6 0.0
6.324571546611714e6 -2.1793949505130842e7 0.0
0.0 0.0 0.0

2.104168184205551e6 6.327596281091158e6 0.0
6.327596281091158e6 -7.714104294347071e6 0.0
0.0 0.0 0.0

1.2892655890891526e7 1.765841607480374e7 0.0
1.765841607480374e7 7.67240614454094e6 0.0
0.0 0.0 0.0

-2.965428740655621e6 2.8144841168262158e7 0.0
2.8144841168262158e7 2.823776530141101e6 0.0
0.0 0.0 0.0

-9.822476684000565e6 -3.4870189362309896e6 0.0
-3.4870189362309896e6 2.8908224543705318e7 0.0
0.0 0.0 0.0

3.0055585786223747e6 7.708190487113362e6 0.0
7.708190487113362e6 -3.4795832158377804e7 0.0
0.0 0.0 0.0

639777.8152376842 2.022901571601811e7 0.0
2.022901571601811e7 -6.832736648124139e6 0.0
0.0 0.0 0.0

-1.2335889301130215e6 1.782039477452996e7 0.0
1.782039477452996e7 -7.7659963611493455e6 0.0
0.0 0.0 0.0

3.3356615898204595e6 7.133805171216071e6 0.0
7.133805171216071e6 -2.6874919221613128e7 0.0
0.0 0.0 0.0

-5.774594849494648e6 2.83006267339985e7 0.0
2.83006267339985e7 4.988374291787366e6 0.0
0.0 0.0 0.0

3.8422758448979785e6 1.9354176728303105e7 0.0
1.9354176728303105e7 1.0593440521027418e7 0.0
0.0 0.0 0.0

-3.388117725804661e7 3.0982128439905923e7 0.0
3.0982128439905923e7 8.511208825997455e6 0.0
0.0 0.0 0.0

-4.618606954125246e6 1.744660622103093e7 0.0
1.744660622103093e7 1.6948176720232263e7 0.0
0.0 0.0 0.0

2.8842491616350785e6 9.601175360969309e6 0.0
9.601175360969309e6 -1.924532038988886e7 0.0
0.0 0.0 0.0

5.314445939966196e7 1.912081059396335e7 0.0
1.912081059396335e7 6.011337581671402e6 0.0
0.0 0.0 0.0

1.8124250506059546e6 1.8259782167245142e7 0.0
1.8259782167245142e7 1.4192265624422332e7 0.0
0.0 0.0 0.0

-1.0844242532784503e7 797927.9944840384 0.0
797927.9944840384 1.952162564737722e7 0.0
0.0 0.0 0.0

469599.7846198722 1.6247577896774454e7 0.0
1.6247577896774454e7 6.71152050449029e6 0.0
0.0 0.0 0.0

-1.3131223354768595e6 1.4733895354940526e7 0.0
1.4733895354940526e7 -1.924776715470317e7 0.0
0.0 0.0 0.0

4.900162519474885e6 2.019433689476411e7 0.0
2.019433689476411e7 -4.924252653499694e6 0.0
0.0 0.0 0.0

-4.139630362135188e6 1.914663381426556e7 0.0
1.914663381426556e7 6.489755331008282e6 0.0
0.0 0.0 0.0

-1.1507407660773186e7 3.746359372825019e6 0.0
3.746359372825019e6 2.93246577177624e7 0.0
0.0 0.0 0.0

-5.293164475312746e6 2.87059986121952e7 0.0
2.87059986121952e7 3.957425235395882e6 0.0
0.0 0.0 0.0

-6.507832808674483e6 1.9874715591553412e7 0.0
1.9874715591553412e7 4.243750864858593e6 0.0
0.0 0.0 0.0

-3.3959961138552977e6 2.1401315788337205e7 0.0
2.1401315788337205e7 1.2099862614638223e6 0.0
0.0 0.0 0.0

192414.4005908029 2.3899711931886874e7 0.0
2.3899711931886874e7 -2.972287794210229e6 0.0
0.0 0.0 0.0

-2.9021102239772873e6 2.358863846504005e7 0.0
2.358863846504005e7 1.108862318696415e6 0.0
0.0 0.0 0.0

49475.76463254053 1.6225644522237316e7 0.0
1.6225644522237316e7 -93867.63694997737 0.0
0.0 0.0 0.0

-2.15967973269126e6 1.7877762999261405e7 0.0
1.7877762999261405e7 1.4347450419194855e7 0.0
0.0 0.0 0.0

1.36845364887799e6 1.7016889695099182e7 0.0
1.7016889695099182e7 -554587.7444177517 0.0
0.0 0.0 0.0

-5.282266024229375e6 1.5367857547050586e7 0.0
1.5367857547050586e7 -3.10894242596763e7 0.0
0.0 0.0 0.0

-52649.843406292435 1.6305713758531157e7 0.0
1.6305713758531157e7 1.5033909804186865e6 0.0
0.0 0.0 0.0

-3.6587065375694837e6 1.8912432339965444e7 0.0
1.8912432339965444e7 871454.3526998917 0.0
0.0 0.0 0.0

28333.456250553485 1.4092221083140876e7 0.0
1.4092221083140876e7 1.2734837049932187e7 0.0
0.0 0.0 0.0

-152344.1475980212 1.7873654295344114e7 0.0
1.7873654295344114e7 -1.006726640926392e7 0.0
0.0 0.0 0.0

1.1396470126174511e6 1.3478519828896668e7 0.0
1.3478519828896668e7 -1.7092213662226573e7 0.0
0.0 0.0 0.0

4.5137165702165505e6 4.697947564655701e6 0.0
4.697947564655701e6 -1.945037020731077e7 0.0
0.0 0.0 0.0

1.2677470850385982e6 1.8065730393516243e7 0.0
1.8065730393516243e7 1.2500676435406154e7 0.0
0.0 0.0 0.0

-2.524466669512907e6 1.806651835458449e7 0.0
1.806651835458449e7 1.0208859786849167e7 0.0
0.0 0.0 0.0

-1.0891093093474852e7 1.477452743538448e7 0.0
1.477452743538448e7 2.0344774157544862e7 0.0
0.0 0.0 0.0

-4.096140406949081e6 1.863765774512736e7 0.0
1.863765774512736e7 7.37083818554419e6 0.0
0.0 0.0 0.0

-2.3887088710790174e6 1.8151884602968104e7 0.0
1.8151884602968104e7 -6.800948756282957e6 0.0
0.0 0.0 0.0

-1.1205198621259823e7 1.4837072472453834e7 0.0
1.4837072472453834e7 1.8996146609433666e7 0.0
0.0 0.0 0.0

-1.135578753153561e7 1.456862373275941e7 0.0
1.456862373275941e7 2.1418723101804882e7 0.0
0.0 0.0 0.0

-1.1859114202483911e7 1.2755332621137608e7 0.0
1.2755332621137608e7 1.7714365846373215e7 0.0
0.0 0.0 0.0

-8.457502790497798e6 -5.182733225091429e6 0.0
-5.182733225091429e6 1.8016529385964423e7 0.0
0.0 0.0 0.0

-3.8994934149608067e6 2.0367344844923485e7 0.0
2.0367344844923485e7 8.030197022464826e6 0.0
0.0 0.0 0.0

-1.6241687806759877e6 1.4150469747734617e7 0.0
1.4150469747734617e7 -2.751310707481863e7 0.0
0.0 0.0 0.0

484069.0621324014 1.367007772374936e7 0.0
1.367007772374936e7 -2.05356148814655e7 0.0
0.0 0.0 0.0

-2.166369493584446e7 2.6108089423652023e7 0.0
2.6108089423652023e7 -3.5882572171177245e6 0.0
0.0 0.0 0.0

-9.90971491191415e6 2.9919459405152854e6 0.0
2.9919459405152854e6 3.7203631438363045e7 0.0
0.0 0.0 0.0

913745.5822916031 1.4103961920976734e7 0.0
1.4103961920976734e7 -1.9340677638762753e7 0.0
0.0 0.0 0.0

-2.189269128757901e6 2.4037402822707072e7 0.0
2.4037402822707072e7 -444930.95415059495 0.0
0.0 0.0 0.0

1.1698531653508022e6 1.6439951660545876e7 0.0
1.6439951660545876e7 1.1369130654155195e7 0.0
0.0 0.0 0.0

-5.496482555802647e6 -7.059142226726621e6 0.0
-7.059142226726621e6 1.3864970442741003e7 0.0
0.0 0.0 0.0

-320270.86367544957 1.6005853634239709e7 0.0
1.6005853634239709e7 -1.781445237449326e6 0.0
0.0 0.0 0.0

-1.4553048606650094e6 1.7448712821082912e7 0.0
1.7448712821082912e7 -7.591112848010704e6 0.0
0.0 0.0 0.0

-1.1250449971413672e7 4.895870212246765e6 0.0
4.895870212246765e6 1.3295738993410975e7 0.0
0.0 0.0 0.0

4.556215681807099e6 2.165809716629503e6 0.0
2.165809716629503e6 -3.417196681261341e7 0.0
0.0 0.0 0.0

422049.27871177625 9.382086855033135e6 0.0
9.382086855033135e6 -8.053806514519819e6 0.0
0.0 0.0 0.0

-1.1740561809656776e7 27612.52944296547 0.0
27612.52944296547 2.3229392582690574e7 0.0
0.0 0.0 0.0

-139600.16618575063 1.8210143592497006e7 0.0
1.8210143592497006e7 -9.91069182356512e6 0.0
0.0 0.0 0.0

3.3371135899790484e6 1.6589095504790053e7 0.0
1.6589095504790053e7 1.9884911730381697e7 0.0
0.0 0.0 0.0

335551.0550364547 8.94903153219247e6 0.0
8.94903153219247e6 -4.8803560044531515e6 0.0
0.0 0.0 0.0

4.15207766221691e6 1.9157221205194343e7 0.0
1.9157221205194343e7 1.1854642795082876e7 0.0
0.0 0.0 0.0

-3.4367922973461417e6 2.8785096094679944e7 0.0
2.8785096094679944e7 3.051703455108595e6 0.0
0.0 0.0 0.0

-1.1585618725812206e7 951192.5329125263 0.0
951192.5329125263 1.6837171643554937e7 0.0
0.0 0.0 0.0

-1.6111219023146713e6 1.743973636448191e7 0.0
1.743973636448191e7 1.487353444535092e7 0.0
0.0 0.0 0.0

2.38940293478401e6 9.884987845387556e6 0.0
9.884987845387556e6 -1.9686044348121487e7 0.0
0.0 0.0 0.0

-1.6898214360451624e7 2.2973953479190752e7 0.0
2.2973953479190752e7 3.4247823881997466e6 0.0
0.0 0.0 0.0

-6.080222189266365e6 -1.6444237693753908e6 0.0
-1.6444237693753908e6 7.111889486106585e6 0.0
0.0 0.0 0.0

-7.382735379140456e6 1.9751571798835184e7 0.0
1.9751571798835184e7 -5.4422831534713805e6 0.0
0.0 0.0 0.0

2.2799101877702527e7 1.891640414996099e7 0.0
1.891640414996099e7 5.073812249288155e6 0.0
0.0 0.0 0.0

-1.8211198806791184e6 1.9264718816173922e7 0.0
1.9264718816173922e7 -5.778306794139001e6 0.0
0.0 0.0 0.0

2.8251344509639833e6 1.0073356216570796e7 0.0
1.0073356216570796e7 -1.8298302637487818e7 0.0
0.0 0.0 0.0

-4.639677456255306e6 2.0555429890125457e7 0.0
2.0555429890125457e7 9.370121898299955e6 0.0
0.0 0.0 0.0

-9.218874628365288e6 -570625.6163225868 0.0
-570625.6163225868 4.19505714251122e7 0.0
0.0 0.0 0.0

-3.2337424707918246e6 1.8013778641080398e7 0.0
1.8013778641080398e7 -1.0122461184503267e7 0.0
0.0 0.0 0.0

-2.3064911605182188e6 2.6132746965042595e7 0.0
2.6132746965042595e7 2.135406900431916e6 0.0
0.0 0.0 0.0

-271273.91355824657 1.29430611410616e7 0.0
1.29430611410616e7 -2.699577350872889e7 0.0
0.0 0.0 0.0

322310.8804334346 1.597210654571524e7 0.0
1.597210654571524e7 -1.5116913177075762e7 0.0
0.0 0.0 0.0

461425.1394315809 1.5479269340562522e7 0.0
1.5479269340562522e7 -1.620015596271075e7 0.0
0.0 0.0 0.0

-1.138977587522446e7 1.1618032043488152e7 0.0
1.1618032043488152e7 2.6280426667415135e7 0.0
0.0 0.0 0.0

-4.244502436894104e6 1.948676317881206e7 0.0
1.948676317881206e7 6.967374213549759e6 0.0
0.0 0.0 0.0

-7.249778273649618e6 1.0520168919314407e7 0.0
1.0520168919314407e7 7.838841585382996e7 0.0
0.0 0.0 0.0

3.9999339379182532e6 1.0818655658080973e7 0.0
1.0818655658080973e7 -6.992045987794144e7 0.0
0.0 0.0 0.0

-1.1769846876814358e7 2.3472225294387322e7 0.0
2.3472225294387322e7 -5.8529021786304945e6 0.0
0.0 0.0 0.0

-3.2397311416209056e6 1.744564134942577e7 0.0
1.744564134942577e7 1.0914731299875489e7 0.0
0.0 0.0 0.0

-1.819684306911183e7 2.358932903451679e7 0.0
2.358932903451679e7 -638912.4735438768 0.0
0.0 0.0 0.0

-5.91677435583945e6 -2.6167139489060277e6 0.0
-2.6167139489060277e6 1.1564521085227342e7 0.0
0.0 0.0 0.0

-9.783686923873525e6 1.5395211256683398e7 0.0
1.5395211256683398e7 1.6968228817926146e7 0.0
0.0 0.0 0.0

-8.496315737957502e6 2.0737577821715392e7 0.0
2.0737577821715392e7 -4.257322417892127e6 0.0
0.0 0.0 0.0

-1.0842363763728935e7 1.2045078647810544e6 0.0
1.2045078647810544e6 2.541716658226884e7 0.0
0.0 0.0 0.0

2.16404397511253e7 1.7184682891312756e7 0.0
1.7184682891312756e7 4.673889141296062e6 0.0
0.0 0.0 0.0

-1.6782817858014451e6 1.7448428445927277e7 0.0
1.7448428445927277e7 1.760180371837137e7 0.0
0.0 0.0 0.0

-5.78797290776863e6 1.6720671839510022e7 0.0
1.6720671839510022e7 1.2958628092653923e7 0.0
0.0 0.0 0.0

-2.1786733497735955e7 3.09871307622099e7 0.0
3.09871307622099e7 1.0168386821807053e7 0.0
0.0 0.0 0.0

2.3169297019638764e6 1.776948962892886e7 0.0
1.776948962892886e7 3.5335806398099274e6 0.0
0.0 0.0 0.0

2.081987419363486e6 1.6498238936824359e7 0.0
1.6498238936824359e7 -2.0022723116152436e6 0.0
0.0 0.0 0.0

-4.587740330074629e6 2.1684725611045253e7 0.0
2.1684725611045253e7 8.16783718979083e6 0.0
0.0 0.0 0.0

-5.4410731156097455e6 1.912660317294073e7 0.0
1.912660317294073e7 -359840.93083276437 0.0
0.0 0.0 0.0

-638039.965301601 1.5242996766693544e7 0.0
1.5242996766693544e7 -2.1532797742060004e6 0.0
0.0 0.0 0.0

2.027867466371185e6 1.719304021676975e7 0.0
1.719304021676975e7 -3.6816181522727655e6 0.0
0.0 0.0 0.0

1.160338229751496e6 1.800030583605442e7 0.0
1.800030583605442e7 1.095073697323836e7 0.0
0.0 0.0 0.0

1.319886281386329e6 2.6610148136970066e7 0.0
2.6610148136970066e7 -1.6464552258144412e6 0.0
0.0 0.0 0.0

-4.369893322565364e6 2.0144182672541074e7 0.0
2.0144182672541074e7 8.833317176231008e6 0.0
0.0 0.0 0.0

-4.700702313734925e6 2.8430932379193045e7 0.0
2.8430932379193045e7 2.488769850486869e6 0.0
0.0 0.0 0.0

-4.204700245744017e6 1.4862658686202146e7 0.0
1.4862658686202146e7 -3.4294668692876965e7 0.0
0.0 0.0 0.0

-1.137704538083644e7 1.7598643027550228e7 0.0
1.7598643027550228e7 -6.437984498079152e7 0.0
0.0 0.0 0.0

1.043611186421328e7 1.799561938031635e7 0.0
1.799561938031635e7 6.95943734100444e7 0.0
0.0 0.0 0.0

3.5759750277468353e6 1.687297293534424e7 0.0
1.687297293534424e7 1.9287920313088227e7 0.0
0.0 0.0 0.0

2.1724756710388493e6 9.148508437287753e6 0.0
9.148508437287753e6 -3.06624996851358e7 0.0
0.0 0.0 0.0

-107259.51453536563 2.634680948215893e7 0.0
2.634680948215893e7 -1.9969549874728792e6 0.0
0.0 0.0 0.0

-418257.590366567 1.9239590953162093e7 0.0
1.9239590953162093e7 -7.881093353582643e6 0.0
0.0 0.0 0.0

-651771.0751900531 1.6842148225637246e7 0.0
1.6842148225637246e7 -5.399864101543874e6 0.0
0.0 0.0 0.0

13427.826957620215 1.852031960157881e7 0.0
1.852031960157881e7 -9.42386170293217e6 0.0
0.0 0.0 0.0

-2.852482916103807e7 3.2325322102101915e7 0.0
3.2325322102101915e7 1.0701458604090374e7 0.0
0.0 0.0 0.0

-3.0772584048748845e6 2.5868842221048716e7 0.0
2.5868842221048716e7 1.7258066750865062e6 0.0
0.0 0.0 0.0

-5.879555319063842e6 2.221595369516942e7 0.0
2.221595369516942e7 7.251156239779617e6 0.0
0.0 0.0 0.0

4.1243855295819603e6 3.4994344516751794e6 0.0
3.4994344516751794e6 -3.6482736695521034e7 0.0
0.0 0.0 0.0

5.26369694237029e6 2.077996141041187e7 0.0
2.077996141041187e7 -5.200014887948817e6 0.0
0.0 0.0 0.0

-296110.3229304971 1.339437408996167e7 0.0
1.339437408996167e7 -2.5477615469930537e7 0.0
0.0 0.0 0.0

4.257138805399705e6 2.1219684387154657e7 0.0
2.1219684387154657e7 -5.245168178029675e6 0.0
0.0 0.0 0.0

-346895.1056442768 1.4642718772032151e7 0.0
1.4642718772032151e7 -1.335863223957052e6 0.0
0.0 0.0 0.0

-1.0103861887621023e6 1.7972943049777336e7 0.0
1.7972943049777336e7 1.5545989609171197e7 0.0
0.0 0.0 0.0

-4.678498980013985e6 2.3645697696238145e7 0.0
2.3645697696238145e7 5.355471497801968e6 0.0
0.0 0.0 0.0

-1.0022737630561488e7 -4.2467895284524495e6 0.0
-4.2467895284524495e6 2.342630142813646e7 0.0
0.0 0.0 0.0

1.0637860636173531e7 1.718456213378792e7 0.0
1.718456213378792e7 84738.07749215001 0.0
0.0 0.0 0.0

-5.792957442027009e7 2.1411086151091028e7 0.0
2.1411086151091028e7 5.806644929364786e6 0.0
0.0 0.0 0.0

-1.2012998443154734e7 1.1762787940519819e7 0.0
1.1762787940519819e7 2.408097589520976e7 0.0
0.0 0.0 0.0

-5.517026033776037e6 1.9743326074192703e7 0.0
1.9743326074192703e7 4.505676497296931e6 0.0
0.0 0.0 0.0

2.445269501524689e6 1.746918814627693e7 0.0
1.746918814627693e7 -1.3988776119218199e6 0.0
0.0 0.0 0.0

4.820488638464496e6 3.6572423032295564e6 0.0
3.6572423032295564e6 -2.448056412287058e7 0.0
0.0 0.0 0.0

-3.339917698274419e6 1.786425520281499e7 0.0
1.786425520281499e7 8.667482872465847e6 0.0
0.0 0.0 0.0

-9.481910026140671e6 -1.622410260682666e6 0.0
-1.622410260682666e6 3.7010040562714435e7 0.0
0.0 0.0 0.0

-1.2030672231994703e7 2.0440106640776854e7 0.0
2.0440106640776854e7 -6.942303749197151e7 0.0
0.0 0.0 0.0

1.0816421585755775e7 2.254039532331453e7 0.0
2.254039532331453e7 7.511751440159358e7 0.0
0.0 0.0 0.0

1.484153735085263e6 1.187106815596922e7 0.0
1.187106815596922e7 -2.362794209183867e7 0.0
0.0 0.0 0.0

1.257519161372704e6 4.567582619278869e6 0.0
4.567582619278869e6 -5.484980721944214e6 0.0
0.0 0.0 0.0

7.221730766730998e6 1.6542926122547539e7 0.0
1.6542926122547539e7 5.693916215466528e6 0.0
0.0 0.0 0.0

-9.445201511092698e6 114815.55489476149 0.0
114815.55489476149 4.212751190755671e7 0.0
0.0 0.0 0.0

1.1580693786021816e6 7.578329465332224e6 0.0
7.578329465332224e6 -6.842761322781563e6 0.0
0.0 0.0 0.0

1.9869623358887585e6 2.5472851471980736e7 0.0
2.5472851471980736e7 -3.271153288580898e6 0.0
0.0 0.0 0.0

-174893.95589616988 1.6343856927105522e7 0.0
1.6343856927105522e7 -1.2110502132654268e7 0.0
0.0 0.0 0.0

2.2673947127259513e6 1.6742378094658557e7 0.0
1.6742378094658557e7 1.4106234131847473e7 0.0
0.0 0.0 0.0

-4.356198877158989e6 1.9620720825341295e7 0.0
1.9620720825341295e7 329346.118121736 0.0
0.0 0.0 0.0

-2.1635126741115004e7 2.2070660348097086e7 0.0
2.2070660348097086e7 -3.110036580294499e6 0.0
0.0 0.0 0.0

-3.3409529852382364e6 2.5592287983852673e7 0.0
2.5592287983852673e7 2.261213856447514e6 0.0
0.0 0.0 0.0

-30779.554246626794 1.6728335940495681e7 0.0
1.6728335940495681e7 8.456618580395823e6 0.0
0.0 0.0 0.0

-2.802587916976141e6 1.794390299390918e7 0.0
1.794390299390918e7 1.267924754863621e7 0.0
0.0 0.0 0.0

1.2043260587739162e6 1.4120788473264989e7 0.0
1.4120788473264989e7 -1.6540806124477843e7 0.0
0.0 0.0 0.0

39822.930813943036 1.802048965263695e7 0.0
1.802048965263695e7 -9.894117593005622e6 0.0
0.0 0.0 0.0

-1.0006004792698728e7 1.4642935772230611e6 0.0
1.4642935772230611e6 4.039468874240041e7 0.0
0.0 0.0 0.0

-2.349201788450758e7 3.299606991118409e7 0.0
3.299606991118409e7 7.370947798564231e6 0.0
0.0 0.0 0.0

-1.015723687617612e7 2.7346950171465755e7 0.0
2.7346950171465755e7 6.25090950133778e6 0.0
0.0 0.0 0.0

-2.2243001909718003e7 2.3095928553130038e7 0.0
2.3095928553130038e7 3.724859219540948e6 0.0
0.0 0.0 0.0

-109187.87804070755 1.6756194219370136e7 0.0
1.6756194219370136e7 2.8821022083419017e6 0.0
0.0 0.0 0.0

-6.372464677631985e6 2.0182818259867515e7 0.0
2.0182818259867515e7 -854160.2146979333 0.0
0.0 0.0 0.0

-1.2077519873092018e7 2.2766561122632917e7 0.0
2.2766561122632917e7 -1.553173588077404e6 0.0
0.0 0.0 0.0

1.8443061237088824e6 6.9239697136725e6 0.0
6.9239697136725e6 -6.666598365723756e6 0.0
0.0 0.0 0.0

1.3799766149343313e6 1.713354342310203e7 0.0
1.713354342310203e7 1.4875595172328953e7 0.0
0.0 0.0 0.0

3.0520340281435344e6 8.437243930228041e6 0.0
8.437243930228041e6 -2.9951269217658468e7 0.0
0.0 0.0 0.0

-1.1025800779834572e7 1.2826513533428358e7 0.0
1.2826513533428358e7 2.5334155676561985e7 0.0
0.0 0.0 0.0

-8.868268086107386e6 -271565.40768101637 0.0
-271565.40768101637 4.3148548293225974e7 0.0
0.0 0.0 0.0

4.306110599283047e6 3.6453610764305443e6 0.0
3.6453610764305443e6 -3.602800156917738e7 0.0
0.0 0.0 0.0

-2.5900514184712112e7 2.339049710019928e7 0.0
2.339049710019928e7 2.61458028953992e6 0.0
0.0 0.0 0.0

-9.647828675767891e6 -2.5492411121388623e6 0.0
-2.5492411121388623e6 3.368315795934373e7 0.0
0.0 0.0 0.0

-9.803779016201023e6 -3.430482761034453e6 0.0
-3.430482761034453e6 2.9066898689840432e7 0.0
0.0 0.0 0.0

1.2930507679840298e6 6.675905407303408e6 0.0
6.675905407303408e6 -8.276110571272432e6 0.0
0.0 0.0 0.0

-1.0126398760943558e7 -2.2330147546488806e6 0.0
-2.2330147546488806e6 2.7886724645878267e7 0.0
0.0 0.0 0.0

2.5974928004428744e6 3.355644614594606e7 0.0
3.355644614594606e7 -5.233178483978567e6 0.0
0.0 0.0 0.0

-5.285485078747192e6 1.7544162815867037e7 0.0
1.7544162815867037e7 1.243279617252418e7 0.0
0.0 0.0 0.0

3.2802904323862996e6 4.4928780296090925e6 0.0
4.4928780296090925e6 -4.409364230768861e7 0.0
0.0 0.0 0.0

4.09802392063497e6 4.266281230671128e6 0.0
4.266281230671128e6 -2.8718222567573898e7 0.0
0.0 0.0 0.0

-4.370511287202701e6 1.9294636439746283e7 0.0
1.9294636439746283e7 6.19014309578447e6 0.0
0.0 0.0 0.0

-4.374788452476568e6 2.8271359460599292e7 0.0
2.8271359460599292e7 3.7559784898656467e6 0.0
0.0 0.0 0.0

2.6624499968535504e6 9.97164266519471e6 0.0
9.97164266519471e6 2.261889849016422e6 0.0
0.0 0.0 0.0

6.580858849888321e6 1.9037522407607883e7 0.0
1.9037522407607883e7 1.0842203736655215e7 0.0
0.0 0.0 0.0

5.315662934856619e6 1.995804585866763e7 0.0
1.995804585866763e7 -4.47401191004514e6 0.0
0.0 0.0 0.0

-9.903192007583309e6 -2.3170013607203746e6 0.0
-2.3170013607203746e6 3.2969184874542784e7 0.0
0.0 0.0 0.0

-1.4093774329185182e7 2.0217167872125644e7 0.0
2.0217167872125644e7 4.274607641787484e6 0.0
0.0 0.0 0.0

-3.2690884241794995e6 2.5120914119451612e7 0.0
2.5120914119451612e7 2.1305337743487097e6 0.0
0.0 0.0 0.0

-676514.9436530452 1.6517187571020227e7 0.0
1.6517187571020227e7 3.6194809620904036e7 0.0
0.0 0.0 0.0

6.578643074877515e6 2.0269963273808185e7 0.0
2.0269963273808185e7 -4.3983125460472815e6 0.0
0.0 0.0 0.0

-2.230981546031644e6 1.8330592218999695e7 0.0
1.8330592218999695e7 -6.616835642088636e6 0.0
0.0 0.0 0.0

-4.823779656181757e6 1.8439184791097257e7 0.0
1.8439184791097257e7 1.3391309210824607e7 0.0
0.0 0.0 0.0

-1.9593963690990224e6 1.7638493589290407e7 0.0
1.7638493589290407e7 -6.917768451806729e6 0.0
0.0 0.0 0.0

-5.504312913327647e7 2.9940499603486054e7 0.0
2.9940499603486054e7 -537884.5058849603 0.0
0.0 0.0 0.0

-6.362939809575909e6 1.7257516507986844e7 0.0
1.7257516507986844e7 1.1996261818375483e7 0.0
0.0 0.0 0.0

-2.12439539976005e6 1.8558974083497882e7 0.0
1.8558974083497882e7 -5.733556891075801e6 0.0
0.0 0.0 0.0

-4.822171323535332e6 1.898305252931736e7 0.0
1.898305252931736e7 1.2785970025018912e7 0.0
0.0 0.0 0.0

3.9052109040934993e6 1.9659953429037172e7 0.0
1.9659953429037172e7 -4.859458345562279e6 0.0
0.0 0.0 0.0

4.495738585835447e6 3.6704796955253775e6 0.0
3.6704796955253775e6 -2.3802528310210936e7 0.0
0.0 0.0 0.0

838871.9422026812 1.9181409797847357e7 0.0
1.9181409797847357e7 -7.174578540208683e6 0.0
0.0 0.0 0.0

-2.2775205509441175e7 3.301689818930848e7 0.0
3.301689818930848e7 7.274970466230933e6 0.0
0.0 0.0 0.0

-5.438441992748109e6 2.4637925564973652e7 0.0
2.4637925564973652e7 5.903770238162028e6 0.0
0.0 0.0 0.0

-8.96774433487547e6 -4.941991230013427e6 0.0
-4.941991230013427e6 1.779781706928211e7 0.0
0.0 0.0 0.0

-8936.996897706762 1.6463286877429344e7 0.0
1.6463286877429344e7 -1.3356824475850694e7 0.0
0.0 0.0 0.0

8.595902478207389e6 1.7848416471645795e7 0.0
1.7848416471645795e7 1.1244257981541404e6 0.0
0.0 0.0 0.0

-5.145361702947568e7 2.505358694599452e7 0.0
2.505358694599452e7 5.894801821434375e6 0.0
0.0 0.0 0.0

1.8033732562674058e6 1.5601905573395621e7 0.0
1.5601905573395621e7 1.0011381624797802e7 0.0
0.0 0.0 0.0

2.5632671417276543e6 8.319089306557563e6 0.0
8.319089306557563e6 -3.1607191874559004e7 0.0
0.0 0.0 0.0

907790.0558979223 1.3947234058389254e7 0.0
1.3947234058389254e7 -1.6451548701738361e7 0.0
0.0 0.0 0.0

-3.0498676177516277e6 1.812864148294622e7 0.0
1.812864148294622e7 1.0217811782982405e7 0.0
0.0 0.0 0.0

-6.176146340828461e6 2.8482166565431e7 0.0
2.8482166565431e7 3.5899931313392827e6 0.0
0.0 0.0 0.0

-1.12698845399015e6 2.177588411302483e7 0.0
2.177588411302483e7 -3.7479532939400584e6 0.0
0.0 0.0 0.0

4.542341956482349e6 3.4194823553492706e6 0.0
3.4194823553492706e6 -2.8113333510522656e7 0.0
0.0 0.0 0.0

2.1356542913218876e6 1.6738846384112842e7 0.0
1.6738846384112842e7 2.98099352991369e7 0.0
0.0 0.0 0.0

-438981.3733474164 1.4362354984537344e7 0.0
1.4362354984537344e7 -1.4988224743151558e6 0.0
0.0 0.0 0.0

-3.998711914896557e7 2.8889446811254818e7 0.0
2.8889446811254818e7 1.1653140608512916e7 0.0
0.0 0.0 0.0

-1.0831002367346862e7 -1.9549425740762737e6 0.0
-1.9549425740762737e6 2.4283395174341492e7 0.0
0.0 0.0 0.0

-1.01419232468077e7 -2.0914964453797354e6 0.0
-2.0914964453797354e6 2.6533413634474088e7 0.0
0.0 0.0 0.0

8.057426367298524e6 1.7829348993805796e7 0.0
1.7829348993805796e7 3.681112051159306e6 0.0
0.0 0.0 0.0

-9.624731448510306e6 -2.632964058028661e6 0.0
-2.632964058028661e6 3.2860765835319817e7 0.0
0.0 0.0 0.0

1.5720594779306448e6 1.5886548000187773e7 0.0
1.5886548000187773e7 9.808035903924702e6 0.0
0.0 0.0 0.0

4.453287758154794e6 1.6966935727736417e7 0.0
1.6966935727736417e7 2.0377430215101283e7 0.0
0.0 0.0 0.0

-925546.7878465009 2.6341449610837314e7 0.0
2.6341449610837314e7 -545510.5004107592 0.0
0.0 0.0 0.0

-9.64506630643408e6 4.49455064078796e6 0.0
4.49455064078796e6 4.4270043142177574e7 0.0
0.0 0.0 0.0

-741281.7386241099 1.3461866501170455e7 0.0
1.3461866501170455e7 -2.5910729199538913e7 0.0
0.0 0.0 0.0

863039.8849612884 7.354875030655853e6 0.0
7.354875030655853e6 -7.347523386351541e6 0.0
0.0 0.0 0.0

-2.79910542241813e6 1.7801719075423386e7 0.0
1.7801719075423386e7 8.563666535767484e6 0.0
0.0 0.0 0.0

1.5657682264620978e6 1.7331929629304864e7 0.0
1.7331929629304864e7 2.0389279162051044e7 0.0
0.0 0.0 0.0

-1.0550630119280385e7 -1.165912489208479e6 0.0
-1.165912489208479e6 3.1823376171247616e7 0.0
0.0 0.0 0.0

-8.796873224718025e6 6.530116796665255e6 0.0
6.530116796665255e6 7.6284066770112235e6 0.0
0.0 0.0 0.0

-3.5801419782087742e6 1.8465227406284068e7 0.0
1.8465227406284068e7 915736.1436310846 0.0
0.0 0.0 0.0

-1.656228176864006e6 9.415373022008086e6 0.0
9.415373022008086e6 1.1801841678554181e7 0.0
0.0 0.0 0.0

2.2607838128924863e6 1.6714139039931415e7 0.0
1.6714139039931415e7 -2.76353494282273e6 0.0
0.0 0.0 0.0

-1.0676291066386715e7 -2.3651365880815564e6 0.0
-2.3651365880815564e6 2.6062220560260154e7 0.0
0.0 0.0 0.0

-8.846312047005605e6 4.47954043322282e6 0.0
4.47954043322282e6 4.732246967983628e7 0.0
0.0 0.0 0.0

1.859773550601014e6 1.722446578876054e7 0.0
1.722446578876054e7 -1.8733815266261883e6 0.0
0.0 0.0 0.0

253060.39172856836 1.6803011650262684e7 0.0
1.6803011650262684e7 -1.1562002381733965e7 0.0
0.0 0.0 0.0

-8.861358643968366e6 4.328677374312114e6 0.0
4.328677374312114e6 4.688242392145825e7 0.0
0.0 0.0 0.0

4.0130633378306804e6 1.964760464610866e7 0.0
1.964760464610866e7 -4.870898381001748e6 0.0
0.0 0.0 0.0

1.122831931975341e6 1.643255610069686e7 0.0
1.643255610069686e7 1.4722667567500768e7 0.0
0.0 0.0 0.0

-7.07167766173291e6 9.918691514227076e6 0.0
9.918691514227076e6 8.998538460918624e6 0.0
0.0 0.0 0.0

-6.61571538771411e6 8.601080204814918e6 0.0
8.601080204814918e6 9.240524510891315e6 0.0
0.0 0.0 0.0

-1.1494193304627908e7 5.80298008948301e6 0.0
5.80298008948301e6 5.1044947581252195e6 0.0
0.0 0.0 0.0

