# vtk DataFile Version 2.0
phase field modeling fracture
ASCII
DATASET UNSTRUCTURED_GRID
POINTS 2538 float
0.0 0.0 0.0
10.0 0.0 0.0
0.0 10.0 0.0
10.0 10.0 0.0
0.0 4.9995 0.0
0.0 5.0005 0.0
5.0 5.0 0.0
0.9416964895726688 0.0 0.0
1.803581725054446 0.0 0.0
2.592419885431098 0.0 0.0
3.314401822861676 0.0 0.0
3.975193910351406 0.0 0.0
4.579982132660152 0.0 0.0
5.133512780936812 0.0 0.0
5.640130319506143 0.0 0.0
6.103810708661955 0.0 0.0
6.528192895506818 0.0 0.0
6.916607540127679 0.0 0.0
7.272102969376355 0.0 0.0
7.597469242948583 0.0 0.0
7.895259826292669 0.0 0.0
8.167811885738017 0.0 0.0
8.417264413845215 0.0 0.0
8.645575169389538 0.0 0.0
8.854535961159101 0.0 0.0
9.045786767735546 0.0 0.0
9.220828555767493 0.0 0.0
9.38103509633881 0.0 0.0
9.527663687265145 0.0 0.0
9.661865124984566 0.0 0.0
9.784692609918062 0.0 0.0
9.897110148790482 0.0 0.0
10.0 0.09999999999992584 0.0
10.0 0.199999999999856 0.0
10.0 0.2999999999997771 0.0
10.0 0.3999999999996677 0.0
10.0 0.4999999999995511 0.0
10.0 0.5999999999994683 0.0
10.0 0.6999999999993983 0.0
10.0 0.7999999999993286 0.0
10.0 0.8999999999992587 0.0
10.0 0.9999999999991888 0.0
10.0 1.099999999999119 0.0
10.0 1.199999999999033 0.0
10.0 1.299999999998852 0.0
10.0 1.399999999998576 0.0
10.0 1.499999999998284 0.0
10.0 1.599999999997992 0.0
10.0 1.6999999999977 0.0
10.0 1.799999999997408 0.0
10.0 1.899999999997116 0.0
10.0 1.999999999996825 0.0
10.0 2.099999999996533 0.0
10.0 2.199999999996241 0.0
10.0 2.299999999995949 0.0
10.0 2.399999999995657 0.0
10.0 2.499999999995365 0.0
10.0 2.599999999995073 0.0
10.0 2.699999999994782 0.0
10.0 2.79999999999449 0.0
10.0 2.899999999994198 0.0
10.0 2.999999999993906 0.0
10.0 3.099999999993614 0.0
10.0 3.199999999993322 0.0
10.0 3.299999999993029 0.0
10.0 3.399999999992738 0.0
10.0 3.499999999992446 0.0
10.0 3.599999999992154 0.0
10.0 3.699999999991863 0.0
10.0 3.799999999991571 0.0
10.0 3.899999999991278 0.0
10.0 3.999999999991022 0.0
10.0 4.099999999991035 0.0
10.0 4.199999999991187 0.0
10.0 4.299999999991338 0.0
10.0 4.399999999991491 0.0
10.0 4.499999999991642 0.0
10.0 4.599999999991795 0.0
10.0 4.699999999991947 0.0
10.0 4.799999999992099 0.0
10.0 4.89999999999225 0.0
10.0 4.999999999992403 0.0
10.0 5.099999999992555 0.0
10.0 5.199999999992706 0.0
10.0 5.299999999992858 0.0
10.0 5.39999999999301 0.0
10.0 5.499999999993161 0.0
10.0 5.599999999993313 0.0
10.0 5.699999999993466 0.0
10.0 5.799999999993618 0.0
10.0 5.899999999993771 0.0
10.0 5.999999999993922 0.0
10.0 6.099999999994074 0.0
10.0 6.199999999994227 0.0
10.0 6.299999999994378 0.0
10.0 6.39999999999453 0.0
10.0 6.499999999994682 0.0
10.0 6.599999999994833 0.0
10.0 6.699999999994986 0.0
10.0 6.799999999995138 0.0
10.0 6.899999999995289 0.0
10.0 6.999999999995442 0.0
10.0 7.099999999995594 0.0
10.0 7.199999999995747 0.0
10.0 7.299999999995897 0.0
10.0 7.39999999999605 0.0
10.0 7.499999999996202 0.0
10.0 7.599999999996353 0.0
10.0 7.699999999996505 0.0
10.0 7.799999999996658 0.0
10.0 7.899999999996808 0.0
10.0 7.999999999996962 0.0
10.0 8.099999999997113 0.0
10.0 8.199999999997265 0.0
10.0 8.299999999997418 0.0
10.0 8.399999999997569 0.0
10.0 8.499999999997721 0.0
10.0 8.599999999997873 0.0
10.0 8.699999999998024 0.0
10.0 8.799999999998176 0.0
10.0 8.899999999998329 0.0
10.0 8.99999999999848 0.0
10.0 9.099999999998634 0.0
10.0 9.199999999998786 0.0
10.0 9.299999999998937 0.0
10.0 9.399999999999089 0.0
10.0 9.499999999999241 0.0
10.0 9.599999999999392 0.0
10.0 9.699999999999545 0.0
10.0 9.799999999999697 0.0
10.0 9.899999999999848 0.0
9.897110148790565 10.0 0.0
9.784692609918244 10.0 0.0
9.66186512498486 10.0 0.0
9.527663687265571 10.0 0.0
9.381035096339392 10.0 0.0
9.220828555768257 10.0 0.0
9.045786767736512 10.0 0.0
8.854535961160305 10.0 0.0
8.645575169391027 10.0 0.0
8.417264413847017 10.0 0.0
8.167811885740178 10.0 0.0
7.895259826295246 10.0 0.0
7.597469242951631 10.0 0.0
7.272102969379938 10.0 0.0
6.916607540131873 10.0 0.0
6.528192895511704 10.0 0.0
6.103810708667616 10.0 0.0
5.640130319512691 10.0 0.0
5.13351278094435 10.0 0.0
4.579982132668816 10.0 0.0
3.975193910361222 10.0 0.0
3.314401822869852 10.0 0.0
2.592419885437257 10.0 0.0
1.803581725058137 10.0 0.0
0.9416964895740705 10.0 0.0
0.0 9.00010000000243 0.0
0.0 8.000200000005481 0.0
0.0 7.000300000005135 0.0
0.0 6.000400000002569 0.0
0.901790731451151 5.000409820926855 0.0
1.657200899774397 5.000334279910023 0.0
2.289991063707192 5.000271000893629 0.0
2.820065163538221 5.000217993483646 0.0
3.264096435579811 5.000173590356442 0.0
3.636051481595835 5.00013639485184 0.0
3.947629914072366 5.000105237008593 0.0
4.208632181002628 5.0000791367819 0.0
4.427267949625672 5.000057273205037 0.0
4.610414277633563 5.000038958572237 0.0
4.763831845154243 5.000023616815485 0.0
4.892346298799659 5.00001076537012 0.0
4.892346298799748 4.99998923462988 0.0
4.763831845154455 4.999976383184515 0.0
4.610414277633943 4.999961041427763 0.0
4.427267949626277 4.999942726794963 0.0
4.208632181003523 4.9999208632181 0.0
3.94762991407365 4.999894762991407 0.0
3.636051481597624 4.99986360514816 0.0
3.264096435582253 4.999826409643559 0.0
2.820065163541503 4.999782006516354 0.0
2.289991063711534 4.999728999106371 0.0
1.657200899778495 4.999665720089978 0.0
0.9017907314530094 4.999590179073145 0.0
0.0 3.999600000002013 0.0
0.0 2.999700000005187 0.0
0.0 1.99980000000512 0.0
0.0 0.9999000000025537 0.0
9.897889398521345 2.93573355845387 0.0
9.906568249974548 7.060009441434234 0.0
9.913122631074113 3.64016132281653 0.0
9.922462129543863 6.354535290629151 0.0
9.917693659967533 4.354211663134567 0.0
9.909873057440208 5.637584487339942 0.0
9.914183254994697 4.950672966925282 0.0
9.913885043715895 7.666887930262611 0.0
9.91009668007573 2.351889069770817 0.0
9.905135696074536 8.138152454502785 0.0
9.913397459621809 1.849999999997262 0.0
7.099302372137626 0.297750452375005 0.0
7.095143729410097 9.700359990366296 0.0
4.942912558701401 5.095838627899509 0.0
4.315009232304429 5.165022115481685 0.0
4.946182472483878 4.906763777264103 0.0
4.317967462990024 4.825955043772673 0.0
9.916390871492647 8.64999999999792 0.0
9.921504649680616 1.368376469890358 0.0
8.292538149791614 0.206877570318844 0.0
8.292538149793597 9.793122429681448 0.0
5.884594439766573 9.587645267048616 0.0
5.794826292691579 0.3794853783929359 0.0
9.913397459621425 9.049999999998557 0.0
9.908526577714177 0.9568239351922434 0.0
3.456851160380649 5.315740054130451 0.0
3.457889657868442 4.707121019609468 0.0
8.945214200703926 0.1503383337970344 0.0
8.950161364448409 9.8413906539257 0.0
9.913862335499305 4.055887885208452 0.0
9.916697353372683 4.650158482607802 0.0
9.919076340414442 6.049999999994006 0.0
9.906994308667635 5.25749687748192 0.0
9.917490342358025 6.655979201891897 0.0
9.915757520293784 7.343848891656911 0.0
9.910049507471042 3.363474386285078 0.0
9.914471988502868 2.647400064832979 0.0
9.91474124160965 9.337490423485129 0.0
9.916971008170838 0.6499999999994355 0.0
4.307157269264427 9.509674045029644 0.0
4.331527375865619 0.4401616696422582 0.0
9.45434939180249 9.878397030523757 0.0
9.457696120412969 0.1270877537061785 0.0
2.555070293622606 5.422044496190925 0.0
2.566232917480916 4.608001224030952 0.0
3.026511860837692 9.332320638257093 0.0
2.945561971800619 0.5895662714727601 0.0
7.7395404387124 0.2511088946967771 0.0
7.736379255744154 9.745848826372828 0.0
4.687135269408529 5.122111433928926 0.0
4.688420821504113 4.871895064967488 0.0
9.910554884115975 0.3448356354522978 0.0
9.911230082250466 9.65764729394159 0.0
9.921953841410854 6.851023993342036 0.0
9.912065178606017 5.448170483544033 0.0
9.911660025326261 3.861846960030188 0.0
9.914847467973438 3.14501593945607 0.0
9.913397459621425 5.849999999993703 0.0
9.913397459621425 7.849999999996735 0.0
9.906916878988277 2.15455769998631 0.0
9.913397459621425 8.349999999997479 0.0
9.909472363117661 1.640528221515488 0.0
9.913987325695956 1.152857110636247 0.0
9.913397459621425 8.849999999998241 0.0
0.9100099990995943 2.614215977520411 0.0
0.8395284981715456 7.451196254860987 0.0
9.723278867451556 9.898135916635193 0.0
9.723316350887044 0.09841820909386662 0.0
1.385819164827588 4.454539963646463 0.0
1.338343629665047 5.523111536005823 0.0
1.377179700550677 0.6809168304959698 0.0
1.418060461092743 9.285896715136046 0.0
9.91268220142518 0.1457914080939694 0.0
9.906737126737994 9.845745933882352 0.0
0.7108351382691361 6.537941170074089 0.0
1.527735020267026 6.915620208855231 0.0
1.630993885659103 7.838271825205868 0.0
2.232760943566823 7.370850737296832 0.0
2.243414218068206 6.688299277952821 0.0
2.779655053105118 7.021588754814074 0.0
2.80227799359795 7.632420170547022 0.0
3.282022065908813 7.305859666021318 0.0
3.327597298795347 7.857554136825748 0.0
3.743210251018715 7.549183328204379 0.0
3.716353232200752 7.062036086888612 0.0
4.111978858674101 7.27497101169417 0.0
4.104192177581432 6.879858986267289 0.0
4.436230765617037 7.045693351607117 0.0
4.430360014817357 6.703971783962796 0.0
4.732390145036301 6.849841042423394 0.0
5.056161327708878 5.095276573498806 0.0
5.111586796021131 4.999081142133581 0.0
5.169267363407189 5.09444870412406 0.0
5.223795108752053 4.996986220359468 0.0
5.281480803887719 5.092780870372803 0.0
5.335670761900611 4.994887492556936 0.0
5.393485214772442 5.090486192743301 0.0
5.447323082877892 4.992601527033996 0.0
5.505243219343024 5.087953380710069 0.0
5.558739102026105 4.990287787962959 0.0
5.616491581184779 5.085335255235766 0.0
5.669852346908056 4.9879269227514 0.0
5.727502713908907 5.082679981817038 0.0
5.780766004135139 4.988313988715834 0.0
5.838244881129535 5.080480568766611 0.0
5.891357695677371 4.986433849408193 0.0
5.948696036767613 5.077969900389505 0.0
6.001601341641615 4.981313698556656 0.0
6.058851024265095 5.074871552128682 0.0
6.111614020704875 4.978360695880202 0.0
6.168801161530775 5.072044953270978 0.0
6.221368818778567 4.975825765213497 0.0
6.278268309066882 5.066182320461055 0.0
6.330814273567539 4.972837984645718 0.0
6.387565032421376 5.062889771971895 0.0
6.437476667631405 4.971693683589553 0.0
6.496181111585419 5.060210690175857 0.0
6.539454812256072 4.964658165361536 0.0
6.604198202576491 5.056387520850258 0.0
6.648506025747331 4.939374587506267 0.0
6.714026758992516 5.05873885840664 0.0
6.764418045981209 4.959246676066148 0.0
6.8219334571197 5.055299567406268 0.0
6.873708540948134 4.960426349093742 0.0
6.930181428849307 5.053461390218819 0.0
6.981893615341967 4.96435459462232 0.0
7.037791764774784 5.051219747103022 0.0
7.090993561518408 4.96392420322464 0.0
5.504417457283294 4.900897920552702 0.0
7.145434864123609 5.048960634292441 0.0
6.054532384032612 4.883956083938546 0.0
6.738027949040956 4.850032323068674 0.0
7.198432914526514 4.956325226333323 0.0
7.252637187936749 5.046012229327236 0.0
7.30926729605109 4.948903216650376 0.0
7.248106275544042 4.860306312845646 0.0
7.363100274863074 4.849952416808486 0.0
7.365733472701664 5.039519554615095 0.0
7.308483293090149 5.137557220352172 0.0
6.768399513646964 5.145609705119954 0.0
7.422800035311104 5.132251445551834 0.0
7.358273518796229 5.235980394389298 0.0
7.480824155801127 5.227946127939927 0.0
7.302193400058628 4.761917474298247 0.0
7.413570879789824 4.754555110721153 0.0
7.414392998903179 5.334729114426734 0.0
7.352769630272076 4.660405502266205 0.0
7.467556835255426 4.658352623795039 0.0
7.536246869015014 5.328986926716081 0.0
7.478865844607288 5.432598185493195 0.0
7.406396991826072 4.556956233957538 0.0
7.523581002009154 4.552005631348623 0.0
7.597792398573263 5.429506106314967 0.0
7.540511043402902 5.53619421580439 0.0
7.46214474876342 4.452580994318881 0.0
7.5852185078634 4.446021810672608 0.0
7.663329342323453 5.533453399066901 0.0
7.603478967594521 5.643227430483237 0.0
7.513450346818673 4.347641323140766 0.0
7.640744971722214 4.333388343316237 0.0
7.727671715775243 5.642390483050116 0.0
7.667774597993788 5.753188858425915 0.0
7.570065256728661 4.230515669344811 0.0
7.702881065467917 4.218307808529532 0.0
7.638288257073729 4.107994211855027 0.0
7.493362356301017 4.120843902105771 0.0
7.779018500630071 5.521233457321821 0.0
7.794641287388929 5.752364621610818 0.0
7.73369774483611 5.865894287356292 0.0
7.600834531784728 5.867752110500446 0.0
6.233038857278689 5.15645045634683 0.0
7.669727996028819 5.985665563643058 0.0
7.528582452554481 5.987393423295551 0.0
7.598722674572824 6.11001923494443 0.0
7.778305000222867 4.104318908265786 0.0
7.704329019832056 3.987744174608892 0.0
7.838453459801382 4.213322728668484 0.0
7.864495721576461 5.862306066517277 0.0
7.846552353360407 3.98481756181946 0.0
7.769730409703277 3.86544808681145 0.0
5.785249360396857 5.177248808588045 0.0
7.908837087876153 3.861484036275285 0.0
7.834824606222196 3.740586825753288 0.0
7.97685993406276 3.736209527152902 0.0
7.89665098770825 3.615501862931453 0.0
7.753228010315262 3.617800245018972 0.0
7.826063013090472 3.483173292579822 0.0
7.66789744383048 3.48859328808356 0.0
8.042515855796823 3.595394268381807 0.0
7.75200750488492 3.341279823834038 0.0
7.582870318332553 3.346584916806707 0.0
8.120807847415062 3.732493963388337 0.0
8.189783970303546 3.61159165475499 0.0
7.657801000286734 3.200439907646711 0.0
7.486781956172036 3.201402473247712 0.0
7.452595103886905 6.11418616185016 0.0
7.527098033550077 6.243191052852112 0.0
8.260502906807751 3.728437634721859 0.0
8.327629317451398 3.608173631356984 0.0
7.372763970891452 6.247552889754036 0.0
7.456170570815929 6.384992468962936 0.0
7.621837793616884 6.376077080857113 0.0
7.548039512904141 6.520750676893614 0.0
7.717475944451644 6.514856553988943 0.0
7.636658166268699 6.661648164052906 0.0
7.807468267259438 6.664076174524672 0.0
7.718022764310774 6.817938967122142 0.0
7.887785766941087 6.807440365887151 0.0
7.545993589083432 6.815070675854734 0.0
7.809874785067209 6.967537287475282 0.0
7.975643812145337 6.948729406725126 0.0
8.396477808021062 3.725446935061211 0.0
7.565651643157136 3.044354774611752 0.0
7.384328725505071 3.043048915147076 0.0
8.056405351948353 6.802790889114673 0.0
8.14128318237188 6.940027831915737 0.0
8.064621760266059 7.086348792208953 0.0
8.225003598857908 6.805225152373254 0.0
8.463085452993242 3.606998510553562 0.0
8.230426869720718 7.079551841000411 0.0
8.155262284174286 7.224761758176069 0.0
8.530696760758996 3.721683301125054 0.0
8.596669886994064 3.604516769862316 0.0
8.528531058025589 3.490411531312337 0.0
8.320451770844851 7.218191678954744 0.0
8.245273958732774 7.363444652121271 0.0
8.66324687389452 3.717094013035765 0.0
8.600103125209296 3.831913857228569 0.0
8.662131102573216 3.488322280861316 0.0
8.594166125380536 3.374071873435548 0.0
8.411074336066186 7.353871649576861 0.0
8.339644223432472 7.505172120620427 0.0
8.165883718619623 7.513159193685373 0.0
8.483453820080417 7.2082285366806 0.0
8.261200365730348 7.657400951288149 0.0
8.081570576666843 7.670933304838066 0.0
7.471613195794025 2.872548423100142 0.0
7.268733678357991 2.881209199257603 0.0
7.184255506995786 3.084448584600423 0.0
7.065899603697895 2.883902449336828 0.0
6.960163891183182 3.081014635802978 0.0
6.847612128388715 2.885646860602812 0.0
6.739800729737967 3.078895733381448 0.0
8.729373804596847 3.827689165637365 0.0
8.668550856907444 3.938702277545298 0.0
8.72770789162863 3.371798381178293 0.0
8.659764090070603 3.257493349874974 0.0
8.436453928793245 7.648724489148887 0.0
6.619080287792762 2.90880017416788 0.0
6.511740956842646 3.09340654756684 0.0
8.793527829963288 3.935174834810256 0.0
8.736430500996828 4.042719556852617 0.0
7.631260330584174 4.565300771328012 0.0
8.359058396840432 7.801678182761817 0.0
5.339436215072359 5.184870243702279 0.0
4.994031736761993 5.193306795607908 0.0
6.383387675268097 4.87760645722207 0.0
7.29117392392962 6.382172868329505 0.0
6.378196825372041 2.907113079755629 0.0
6.269817199014261 3.12412150658573 0.0
8.793149127377946 3.255386294257182 0.0
8.725774239201558 3.141596687892195 0.0
8.857434600673502 4.041295940541356 0.0
8.802868937128341 4.1471119953668 0.0
8.532045262478793 7.7905977476835 0.0
7.364542641624493 2.699128473342751 0.0
7.571677611088925 2.695732556686516 0.0
6.723058333614999 2.672341359410618 0.0
8.456744924757372 7.94483904450548 0.0
6.140831279784704 2.921247401137864 0.0
6.02419219050745 3.14358702955763 0.0
8.916255604212301 3.934279868822481 0.0
8.859287250884009 3.140226640574265 0.0
8.791092798057303 3.025929352146465 0.0
7.210445465986021 6.245773134960393 0.0
7.120884161792869 6.385155584680196 0.0
7.036931702064287 6.240721609143972 0.0
6.943722280007011 6.3869279517155 0.0
8.920094519678617 4.144837222494242 0.0
8.864374107136287 4.250930406527029 0.0
7.347569838739255 4.463467417508182 0.0
5.90383431757064 2.935113219563906 0.0
5.783476009580765 3.156456199832474 0.0
8.626013191558314 7.935092223505354 0.0
8.687240186957197 7.796697889991163 0.0
5.642059327424706 2.903018174330269 0.0
5.52647853955939 3.162549070310043 0.0
8.555300051897738 8.086169516016518 0.0
8.405624441178524 8.083972416481254 0.0
5.374124307190728 2.945480555950917 0.0
8.935805220807357 3.249260758206028 0.0
8.981625171409894 4.247375537584228 0.0
8.924725364486765 4.352101286657735 0.0
8.807208588134106 4.356163101450244 0.0
8.868277832430604 4.45657124153171 0.0
8.75099635287701 4.460644845248524 0.0
8.812385950597063 4.560891222623518 0.0
8.693833206943118 4.564602972998703 0.0
8.756474732548273 4.665720853686476 0.0
8.63721608225855 4.669394550615355 0.0
8.700108119351134 4.770682016274914 0.0
8.81920502916846 4.767536120893284 0.0
8.76355311338807 4.871451945248518 0.0
8.881442328033694 4.868382238751069 0.0
8.826433523510634 4.97132552240372 0.0
8.943387824985514 4.967694248194483 0.0
8.888718468126953 5.071044784833541 0.0
8.580377663835254 4.774669738817985 0.0
8.770572242937233 5.073880380431421 0.0
8.832915096600454 5.174518948293615 0.0
8.952224483821848 5.170970838320107 0.0
8.897282771771884 5.275476392171722 0.0
7.463928467290875 2.513944501591933 0.0
7.675935950092034 2.509420347143072 0.0
8.924252417741767 3.024418701372628 0.0
8.857265893102921 2.911213535286156 0.0
8.776981063213334 5.27944309004916 0.0
8.840710910770163 5.380165700477552 0.0
8.960876896785969 5.375521424256389 0.0
8.904555918255223 5.482125846038813 0.0
7.567193097677677 2.32750151280277 0.0
7.780880844888839 2.323064027160363 0.0
6.851602118390116 6.234522818184622 0.0
6.758680682687229 6.389359516748128 0.0
6.66345977321418 6.231254850996584 0.0
8.715764716958308 8.079994249772627 0.0
8.65189989696114 8.227534663647639 0.0
9.042229096541828 4.348551764001607 0.0
6.436774206993324 3.316782326998922 0.0
7.590527613340588 5.22651784724799 0.0
9.024366884701616 5.476726561488805 0.0
8.968734351641839 5.583879050892151 0.0
8.845941080047659 5.586406316932274 0.0
8.909881305857882 5.690482454668167 0.0
7.348726871578975 5.44047403999932 0.0
6.567070253986433 6.398115757512583 0.0
6.697077150072261 6.553426749743366 0.0
5.252377383990728 3.187782967482479 0.0
8.988440431820699 2.908621158637298 0.0
8.922541972760119 2.796420836075996 0.0
6.466806010659505 6.229115583261771 0.0
9.033851153821296 5.686506775615425 0.0
8.978340519963718 5.795772485582058 0.0
8.85111463793018 5.798672910287243 0.0
8.922171984280597 5.907237880910408 0.0
8.795190680908043 5.911854068712683 0.0
8.864373398892472 6.019728357749566 0.0
8.991346995940626 6.014539153309398 0.0
8.93374019140187 6.12698887312768 0.0
5.095192648098848 2.952353430985476 0.0
7.672651464908932 2.141715359830917 0.0
7.886266921042761 2.136211284120189 0.0
9.098474286589756 4.245971410451114 0.0
8.813172564986438 8.216887361735234 0.0
8.74802978243154 8.366104673219047 0.0
9.059985162956899 6.120982589539211 0.0
9.00342813739303 6.233245043891739 0.0
4.961413514304496 3.214209167276753 0.0
9.05248113004685 2.794651022570942 0.0
8.986028039118027 2.681341972594222 0.0
5.671890458441996 3.377122473800023 0.0
4.755829262593116 7.184480462344647 0.0
9.158258644940048 4.34465968221255 0.0
4.799687186662534 2.961354824469195 0.0
6.030554747591715 2.726787502996874 0.0
8.938327180212585 8.34758372042188 0.0
8.847392320655468 8.503370672816716 0.0
8.67342124373679 8.518117686968314 0.0
5.234423106934083 2.694925204361751 0.0
8.964923046453565 8.185313058214797 0.0
7.456650986668838 2.134076476407834 0.0
9.111732084821366 2.897226832609386 0.0
6.368055837513985 6.402805870976705 0.0
6.265629899005033 6.226581076317183 0.0
8.736327196352686 6.026404178766982 0.0
9.117473097358854 2.67987006607594 0.0
9.052137415465204 2.565428515518978 0.0
7.781001557847192 1.955874236406257 0.0
7.992134447300669 1.949184538864554 0.0
8.593074792993455 3.143159483125708 0.0
9.1291360203536 6.226877897052981 0.0
9.072154326613617 6.338696745620542 0.0
8.916532550320525 2.566986282201109 0.0
8.984021113721658 2.449252898983242 0.0
9.178032243215632 6.120533546076094 0.0
9.213703592343162 4.244823670856978 0.0
9.11972142641474 2.449071238668887 0.0
9.052853896812186 2.33190758581705 0.0
8.635035926402708 4.462329956179506 0.0
8.773614475966344 8.657865377672689 0.0
8.596400917257634 8.67759750279447 0.0
8.942023339420883 8.644678093589654 0.0
9.19471670675691 6.33096438039349 0.0
9.138460613363325 6.443043552768813 0.0
8.66620319432524 5.916297234509582 0.0
8.606669825267202 6.032658196729024 0.0
9.27222540210304 4.341341907533128 0.0
9.013782808177437 6.451040569407859 0.0
9.08360982569773 6.55729980456602 0.0
7.885622149776354 1.768093045890686 0.0
8.095672144455353 1.768790621151345 0.0
9.208772072925791 6.549717411809656 0.0
9.154272208194383 6.662613503537815 0.0
9.187669783927937 2.334640996932141 0.0
9.122379015831417 2.215832190697178 0.0
6.164077036161143 6.404611236428829 0.0
6.062367614988677 6.224307160647549 0.0
8.987075041759633 2.211477580983978 0.0
9.056972755801603 2.093573581203428 0.0
9.194557288902232 2.096029761809264 0.0
9.131223008370409 1.972713028695079 0.0
8.87381302587057 8.795793668920256 0.0
9.039169086943392 8.781606667490083 0.0
4.662813350519927 3.228118291851354 0.0
4.474181267994617 2.945703616023359 0.0
6.562627723301209 6.075544382232434 0.0
9.326886053211574 4.243083624343211 0.0
9.280374192897945 6.656072830232892 0.0
9.224718905178564 6.766740750539347 0.0
4.703284910421452 6.528907865005451 0.0
8.955136474970331 6.565989985649191 0.0
8.998148826814893 4.865480736169776 0.0
8.99429836796776 1.965972383552685 0.0
9.065669391141741 1.847195105148808 0.0
9.207236162050343 1.853010386995843 0.0
9.143218073349985 1.725630086781897 0.0
8.998867447699345 1.719378449325465 0.0
9.082595782768397 1.592017827427701 0.0
8.92804562738841 1.585238202229766 0.0
9.01637794607019 1.453847302675876 0.0
8.854253119154375 1.446306868730686 0.0
8.941620273019874 1.320083886766936 0.0
8.775393064215876 1.308487027359826 0.0
9.102170347200483 1.324733726345249 0.0
9.013857060361985 1.178821526410403 0.0
7.991031819452564 1.587689878441685 0.0
7.767218744640202 1.595993197647291 0.0
9.191539171305216 1.194087248761656 0.0
9.123965901037613 1.057102462689568 0.0
4.853921953226772 3.470213116851758 0.0
7.496563223334782 3.470157221608763 0.0
8.536691379028115 5.921845852206257 0.0
8.475496498707471 6.037633662010236 0.0
7.978668526342969 2.307231488316941 0.0
9.384721922092124 4.337357165846226 0.0
9.331039180200886 4.435926256444196 0.0
8.546261775564837 6.150267290476958 0.0
8.411727261785726 6.155319300628062 0.0
8.972203609044218 8.930944433074036 0.0
9.133480321468399 8.90955269607895 0.0
9.197778815538276 8.768743880012563 0.0
6.162231825784922 6.05277753404107 0.0
5.962111081146334 6.046949845237622 0.0
9.268727788642101 4.146883230687689 0.0
9.380694211527906 4.144811697563401 0.0
9.323823335199954 4.049557759546529 0.0
9.283324894520613 1.736313094621396 0.0
5.858151623803662 6.22041808248046 0.0
5.759668475561988 6.038806123495502 0.0
7.836860473863919 3.191674397465999 0.0
9.348591928839294 6.75855034547469 0.0
9.293979592221298 6.870213350675044 0.0
9.170543172728557 6.879819332293818 0.0
9.240028263813034 6.983394994050525 0.0
4.347372565145963 3.312731475520695 0.0
4.114183445909965 2.96879678229065 0.0
8.616264880152233 4.042035981070631 0.0
9.403174760076901 6.650407069150438 0.0
4.173860112179449 7.723461240865885 0.0
9.365302975518428 6.973476802087294 0.0
9.312420275675276 7.088420778208979 0.0
9.184876614539778 7.0978133687822 0.0
9.25921281729617 7.204979813006656 0.0
9.12816413817609 7.21569648263899 0.0
9.203944409919862 7.322703303071253 0.0
9.334311975087337 7.311477957762272 0.0
9.280415785210538 7.428795599957155 0.0
9.274060219641907 1.066603180421249 0.0
9.211820491509728 0.9316562593680151 0.0
9.050684011148748 0.9017681241401576 0.0
9.441953732403995 4.432092590771756 0.0
9.394725873909666 4.526051349391942 0.0
9.43453556160865 4.048003950509361 0.0
9.378043599351757 3.952631412328806 0.0
9.289691247910705 8.890746792319852 0.0
9.228148443138926 9.030109127390128 0.0
4.440757888677695 6.389562448928118 0.0
4.689874463978985 6.239329075084555 0.0
4.291519540095677 2.622920583112654 0.0
3.886073352912894 2.632778677714434 0.0
9.344015622314338 1.202401041544343 0.0
8.193292196814806 3.849649660906171 0.0
6.960946604527747 6.07044529864598 0.0
9.347708267319902 8.756364147482309 0.0
6.826423138602714 3.261415861395883 0.0
6.06309517882478 5.884563187328262 0.0
9.4085057714426 7.414123963607981 0.0
9.356416821537886 7.532359471354527 0.0
5.042074134251055 6.938947182785697 0.0
5.063988238156824 7.311205832605263 0.0
3.946666851334923 3.30681624613374 0.0
8.189857914071878 1.939951128540477 0.0
7.880690277686857 1.38928908049477 0.0
7.63766396748483 1.399736360041063 0.0
9.345004233592562 1.857695941115052 0.0
9.440465164139875 7.085860901905448 0.0
7.918332480761888 5.744468010879592 0.0
9.08007135068879 5.372457017512481 0.0
8.78639561093144 3.718391405525285 0.0
9.356843485085705 0.9414458825132457 0.0
9.29705128845331 0.8103081541678832 0.0
9.251825423225316 2.451701826351773 0.0
8.483895366325516 6.270717564685176 0.0
8.346386886249478 6.275973306650227 0.0
9.493299170161215 4.138582531223591 0.0
5.321115649032961 7.117073603021904 0.0
5.354076009109965 7.436189411362466 0.0
5.597984079819928 7.254284331170681 0.0
5.644042313435943 7.564172740776336 0.0
5.383963016128051 7.753854027984002 0.0
5.681168258142109 7.880444993178456 0.0
5.935548099874979 7.687258900444162 0.0
5.979508404301389 7.994332725561488 0.0
6.21936843555201 7.802335560754011 0.0
6.267092590637372 8.104873033518185 0.0
6.498845418385807 7.917606504106031 0.0
6.544600005636809 8.209910620392591 0.0
6.77336078689533 8.027284686082275 0.0
6.814840179123049 8.311778392637773 0.0
6.721304148677048 7.737863326704131 0.0
7.031320924898797 8.1335673274533 0.0
7.077388928622946 8.403901803728003 0.0
5.417471987089176 8.090112295667405 0.0
8.845427688507666 2.446352368201366 0.0
9.318512319918124 2.339233739859646 0.0
9.380241452597096 2.451895615249572 0.0
7.283805558009199 8.237518806365102 0.0
7.329200330160381 8.497045124353782 0.0
7.233272584416691 7.991590926766813 0.0
9.142592248414191 5.471315142785471 0.0
9.196303265878848 5.36738298742727 0.0
9.25795832955665 5.465260877691205 0.0
9.310581303233182 5.36341558704714 0.0
9.371094700882272 5.459458038195667 0.0
9.422767107822985 5.360687090455724 0.0
9.36402660964156 5.264821436196721 0.0
9.474220736978928 5.262802348886269 0.0
9.41680330511366 5.169477108906666 0.0
5.168675939028436 4.895496152382537 0.0
9.482591449057548 5.454699312257291 0.0
9.431567605310825 5.552723344040521 0.0
7.531449703396948 4.741663470323411 0.0
8.517293123442691 4.672601123164268 0.0
8.459978676626639 4.778466809901586 0.0
8.396595115309985 4.67568709170855 0.0
8.338966609235166 4.782101664607259 0.0
8.275355646032752 4.678829956447008 0.0
8.217675280223542 4.785699596769931 0.0
8.28149024865807 4.888803783902183 0.0
8.16019781596952 4.892696417098926 0.0
8.22433278506531 4.995725219088695 0.0
8.102825704443651 4.999629142625341 0.0
8.166887930010795 5.098242831115916 0.0
8.034904900788316 4.896825406879729 0.0
8.15353539905931 4.682103688185489 0.0
8.211891449058882 4.574219757233394 0.0
8.290305306104333 5.094007100958221 0.0
8.225684228618732 5.201525567655179 0.0
9.444618942559746 2.343141375196729 0.0
6.929446520625337 4.868116916840016 0.0
5.737810725167649 4.893891407574175 0.0
8.720389971487277 5.38508368411851 0.0
8.805734920311323 8.951818172412821 0.0
8.905272694453211 9.083303226359831 0.0
6.006155038818204 5.171375272745409 0.0
6.431496448228514 5.152985998213245 0.0
9.052675024457304 7.106590131831544 0.0
7.740007013494393 6.09727525827826 0.0
9.375852260355511 9.013078430361404 0.0
9.32035844773103 9.14584923943073 0.0
6.989707597683965 5.146377438798643 0.0
9.488190206836386 3.951168069367155 0.0
9.432429152094464 3.855725756072153 0.0
5.568386402814275 5.185723849666124 0.0
9.525561551078322 5.166162126187324 0.0
9.465026391994275 5.072601962964018 0.0
9.320357339516937 3.857795423728873 0.0
9.375955927831914 3.759314274140895 0.0
9.261783786753899 3.761412578759438 0.0
9.31820665563318 3.661845422072752 0.0
9.431798673168924 3.660830894813109 0.0
9.374584413615914 3.563138564686839 0.0
9.48759661134647 3.562294297118573 0.0
9.431339678707085 3.464016717943268 0.0
9.417896212887529 1.746970678437863 0.0
8.731705369070733 9.110902182838881 0.0
5.652297951447118 6.21188565774667 0.0
5.569122518069258 6.024400786163834 0.0
8.257007204149394 3.505875091031567 0.0
8.717428603143034 2.925525757227976 0.0
6.882852832747376 8.57686572931064 0.0
6.337330066435714 8.416819098143066 0.0
9.50188906539997 4.521022403818629 0.0
9.453500859905136 4.617181635748691 0.0
9.46806769570129 6.749352117850711 0.0
8.836822104875719 1.72282859852854 0.0
7.481071063421426 5.64593758994851 0.0
5.668814988976305 5.86611128457842 0.0
5.487644760735084 5.847591822776978 0.0
8.993992818065195 7.228173913870249 0.0
7.98322414937693 7.229980191466666 0.0
9.22810751684646 7.54864871395298 0.0
9.304103360459063 7.654622011545798 0.0
9.432787371848761 7.633691049023619 0.0
9.382619818023882 7.759136995934441 0.0
7.239096822516492 4.679179578301165 0.0
9.47692479956498 1.861231395362419 0.0
8.041243110813022 5.095895152648969 0.0
6.190208781188077 7.509864122823853 0.0
9.283062812782122 4.549418667685757 0.0
9.503847665760087 2.450295046295932 0.0
9.443345385250678 2.557904120404248 0.0
9.52009568463353 6.644015937008899 0.0
9.203119005973903 3.662458522935253 0.0
8.406198651282708 5.92630414760378 0.0
8.467263597743843 5.811987729136874 0.0
9.461423029059445 9.128120577356565 0.0
9.408445330070542 9.26024300250086 0.0
9.266505293379728 9.277952925446408 0.0
4.14874709022218 3.631681332690154 0.0
9.437448107949258 0.8198473430736303 0.0
9.376993771693973 0.6910550697058979 0.0
9.22882356848217 0.6931820370818127 0.0
4.451823867195988 6.103664366188579 0.0
4.200031743909027 6.232039028149317 0.0
4.687154754667774 5.975132870483986 0.0
6.268889397098538 6.592235545990395 0.0
7.509366161722768 8.340075462391164 0.0
7.564775703413765 8.59800936579159 0.0
9.542148732924264 3.854614593058991 0.0
7.036231103929761 6.550562550831048 0.0
4.089373665437328 2.268193930262139 0.0
3.642558884866483 2.250386188148396 0.0
3.442182385618804 2.651948803899947 0.0
3.146832503011753 2.222630466765926 0.0
2.948870467975985 2.805088883766417 0.0
9.352005315330274 5.067356449300542 0.0
9.31729677031493 3.462944187594675 0.0
9.37428383619102 3.365546369736205 0.0
9.4883538239391 3.365384871181599 0.0
9.432147665178338 3.267287636377487 0.0
9.25034519267688 7.775848812012313 0.0
9.332091350002502 7.881724023243533 0.0
9.462101000264603 7.86490055671988 0.0
9.413353271651825 7.98561007219363 0.0
8.273592814723814 6.158623919352561 0.0
8.207135014732339 6.280394934566054 0.0
9.541483811580331 5.548224291759592 0.0
9.491365919893726 5.644847811894615 0.0
8.088095771120983 4.577581369371366 0.0
8.14760102783746 4.468303741922308 0.0
9.556217963323956 4.414867468889523 0.0
9.543667331547693 3.266908751519594 0.0
9.489307652535885 3.169908976697059 0.0
9.26285575842982 8.635341362685686 0.0
9.403220742003983 8.621447866627538 0.0
9.326013417886902 8.506778946171965 0.0
9.455477927154853 8.503896705359047 0.0
9.566646674069602 4.611465258087684 0.0
9.499341049870914 0.9352184973273918 0.0
8.683891958597638 1.444705608998412 0.0
8.599973456173778 1.287265568270043 0.0
7.760988189317371 1.175381292562583 0.0
7.50927661322749 1.171223823957793 0.0
7.380927152434357 1.411062577009695 0.0
7.242417847270241 1.170759311509981 0.0
7.107236746116019 1.421234419770886 0.0
6.960799033544566 1.169618322344823 0.0
6.817786081200392 1.434174581170586 0.0
9.48095050141868 8.738557748483624 0.0
9.319762046171894 3.263060331456388 0.0
8.920653400180534 7.117307656029475 0.0
9.452431221190624 6.544166520883111 0.0
9.571407933653493 6.540336592280795 0.0
9.507586285214174 6.443281357841339 0.0
9.575252974749443 5.070210512157044 0.0
5.755172844377253 6.370710487467459 0.0
9.541351959064952 7.969072511059531 0.0
9.354607289792183 9.3921968735401 0.0
9.495213435762107 9.37218405175897 0.0
3.77688136092967 3.643094492921176 0.0
5.460967180339239 6.159077196937325 0.0
8.656589552918996 5.283032675040985 0.0
8.599307076390474 5.387421722684671 0.0
9.584017606465821 5.263931993965828 0.0
9.51536593891754 4.977534386249715 0.0
7.788544970111893 2.70578432810479 0.0
7.381746833264364 8.755477463411431 0.0
7.615969996822885 8.852710176548548 0.0
7.783643411970649 8.691528137204457 0.0
7.845017394185501 8.938777577473743 0.0
8.570520580943368 7.342304222498308 0.0
9.103648004226827 5.781084627507008 0.0
8.338082930126799 5.815990105349368 0.0
8.930848895071895 4.561111316304916 0.0
7.381089602119859 5.983657236035151 0.0
8.42066837692862 6.393608568217351 0.0
8.888256157021065 6.459558428285236 0.0
8.826495664731354 6.575679897210801 0.0
4.22522220414496 5.921354747981145 0.0
3.943296448343383 6.075578573904587 0.0
9.563175937841836 2.554860696349795 0.0
9.505342423182917 2.656889632284623 0.0
6.660863480070611 1.168750929063519 0.0
6.518316961679488 1.436478598119306 0.0
6.683474168246802 1.694104067636375 0.0
6.376799057174731 1.707382100972048 0.0
6.205091481342603 1.443621641108414 0.0
6.058670988071357 1.728841803855816 0.0
5.877457486049096 1.454297236926778 0.0
5.724979192982589 1.756666409586195 0.0
5.529885788012015 1.462283739157555 0.0
9.514953777019835 0.7018468683209754 0.0
8.398665270372675 5.702731562702358 0.0
9.456442249775696 0.5772068858285652 0.0
9.565795671866349 2.345573662774494 0.0
8.830758563027459 9.247271599108435 0.0
8.523580738257648 4.88015211128435 0.0
5.580123316488715 5.701889892660689 0.0
5.398591029446707 5.685938459654249 0.0
5.367686360823392 1.778740548277203 0.0
9.546603444041448 1.754984055696778 0.0
9.489649223089446 1.641312329051244 0.0
9.617973952467912 3.363804764345866 0.0
9.584322830999731 6.729956156156573 0.0
9.597221861144487 3.948534024289882 0.0
9.49401963819799 8.089507968561776 0.0
9.207321074262563 9.416906871900888 0.0
8.27185428346661 4.464932191097996 0.0
8.207416067213774 4.35878753684812 0.0
8.332747746635944 4.354903699457511 0.0
3.990181919126853 3.930792395858886 0.0
8.267392138262498 4.254008221702929 0.0
7.997788712685495 1.196805377512679 0.0
9.600316638269724 5.639973985281733 0.0
9.550939606739425 5.737313319038155 0.0
9.44084303195315 5.74233753256161 0.0
9.50112296154558 5.834555019909565 0.0
8.897429225733994 6.685415510921676 0.0
8.762930941408914 6.695907295903629 0.0
8.654628175336732 9.278157371342388 0.0
8.544676900803436 9.133790942553834 0.0
5.294904777716057 5.855935872688884 0.0
5.216749389964556 5.66865685845661 0.0
9.508453581298625 2.239460033375932 0.0
9.599691370793206 3.169496930704394 0.0
9.546615051106684 3.073514534194011 0.0
7.484714626923596 5.028675123117963 0.0
9.588496050271255 7.850836295555126 0.0
5.153197381012662 1.471340286561097 0.0
9.433168304679345 3.071871997104804 0.0
9.610464706874994 5.829217654498672 0.0
9.561407772947403 5.926179534044419 0.0
8.273381980676042 5.705233340662362 0.0
8.330794188929296 5.594351887246082 0.0
8.207319603076424 5.596747949305344 0.0
7.251338559467102 5.233758892662348 0.0
8.708518799790543 1.130513882092466 0.0
9.590155250193266 0.5878623138195824 0.0
9.389919385420015 5.841079912164009 0.0
7.991397852194216 5.859910582924319 0.0
9.624951589233206 4.975554514425905 0.0
7.240016788025947 2.531866266726309 0.0
7.635666783493215 3.873554782053258 0.0
9.608476620993713 1.863530872936442 0.0
9.365330459496413 8.10677840682376 0.0
8.775076110585598 2.572737931759856 0.0
8.699389445914996 2.444602334375113 0.0
8.625078713232146 2.580891022578613 0.0
8.54447196848446 2.447624719286678 0.0
8.468898498943965 2.586757328881282 0.0
8.62282309213608 2.307826916202421 0.0
9.622102662978762 6.439307895185218 0.0
9.561995355724862 6.35103962032292 0.0
3.898245450818314 1.856155797593496 0.0
9.681759177700954 5.07069253017652 0.0
9.059254996454502 4.963357716933865 0.0
9.113144532326562 4.861710138088372 0.0
9.62140874877204 2.656009146517733 0.0
7.884510615470827 0.9666888912541309 0.0
8.14902661050739 1.005010215149227 0.0
8.491263206618079 8.527197931363634 0.0
8.408859203395778 8.697060715788105 0.0
6.54422152733529 1.954566069381189 0.0
9.563546573097593 2.755667904356369 0.0
9.453065492925557 2.761122255953964 0.0
9.676889098520615 2.755084315170127 0.0
9.678287124781653 2.556838324720633 0.0
2.60254317790297 2.278874965850319 0.0
9.211706272534968 4.050470567310489 0.0
8.526711683538949 5.698821878547752 0.0
8.296604023060945 8.533761944401608 0.0
9.649704314258118 5.543946557831669 0.0
9.651176136337964 3.85122804518279 0.0
9.44590154800397 9.498503704959054 0.0
9.580491248736612 9.476376347552954 0.0
4.3239388803087 3.921156392977062 0.0
9.65737873521736 3.075324100817917 0.0
8.128000846282253 6.160273991836929 0.0
8.06242981852327 6.292371360998262 0.0
8.500465019503922 1.442700595221201 0.0
9.615253212967009 1.649819368149096 0.0
9.561768620580791 1.538553925606111 0.0
9.435477757657937 1.527391516499924 0.0
9.627993450010088 2.242685831452484 0.0
9.5338252733548 0.4673994795805215 0.0
9.398055066504014 0.4589059948533885 0.0
9.669486082509058 5.920177035588319 0.0
9.621072177439727 6.016493814615133 0.0
9.506185962103057 6.018397021409126 0.0
9.196884440497488 7.898824858961557 0.0
9.112591143666748 7.789491461180181 0.0
9.664357762385308 7.950712034233033 0.0
8.46233617997115 2.308903464128035 0.0
8.547917980328803 2.169381684694277 0.0
8.139931430059324 6.410762600521521 0.0
7.672499127532963 9.099143622036436 0.0
7.91372855627271 9.178704612763656 0.0
8.463425076318451 9.290653726808348 0.0
9.643938029094286 9.335632419679458 0.0
9.647017668702574 0.7068996148634754 0.0
6.241662276606473 5.884018212993202 0.0
6.157742245066693 5.73500474100449 0.0
6.318815619949124 5.730068085823802 0.0
6.247706374231452 5.593094310939028 0.0
6.406948541886973 5.593272398468375 0.0
6.092564106310554 5.587409338401505 0.0
8.535507922245372 5.286142900439676 0.0
8.022959839404006 4.471630490587016 0.0
7.963561162854596 4.581393556789843 0.0
9.683487139413305 1.546750704925431 0.0
9.630761777960082 1.435922217091829 0.0
5.121714348989337 7.950140247572198 0.0
5.136464096196084 8.310254432483559 0.0
5.47349124035624 8.455234262268478 0.0
5.176273618280354 8.687190323573228 0.0
4.796664658962938 8.592678692862421 0.0
9.568705729418735 4.887269869750176 0.0
9.462711651199594 4.88832222094458 0.0
9.674903475028225 4.882285174433025 0.0
5.4996067353406 5.546583260717527 0.0
5.663632234555963 5.557613452957074 0.0
6.829408195405585 1.947174574944512 0.0
5.336529198289861 1.127585641139875 0.0
9.672387559812332 6.34138351957329 0.0
4.463988917379896 2.271060678869338 0.0
8.618048281355405 6.263841736419089 0.0
6.480949808711781 5.74815588680617 0.0
6.562207427719153 5.592185077216444 0.0
6.643040463857446 5.721233693378952 0.0
6.712825900331884 5.588664360236 0.0
6.79240375630333 5.711383948285569 0.0
6.86115931532141 5.584697050428064 0.0
6.939210100691576 5.704407337029545 0.0
7.007668476576536 5.580801046893123 0.0
7.084627386867475 5.702817970154801 0.0
6.633257976075473 5.460881327825488 0.0
6.931430743764456 5.461960451448691 0.0
9.682652370938209 6.533133024505995 0.0
8.761108695241376 9.450742747770144 0.0
9.146031326900015 3.764292700000154 0.0
9.089378801805193 3.661317181076136 0.0
9.514354521818781 8.994988681611192 0.0
8.157650730500988 4.262987189670279 0.0
6.329633198899328 5.4647789391701 0.0
2.340685767996258 2.811285337457589 0.0
7.379572471323651 0.9290892725587991 0.0
4.171878172186605 4.222320767259098 0.0
4.4876601621649 4.16473354200826 0.0
5.336389369563535 6.806464508860387 0.0
9.595468321212476 9.108133206829102 0.0
9.645038675267227 8.982113951305912 0.0
8.393140678816192 4.246338342095281 0.0
8.309440721624494 4.155300532283633 0.0
9.418269339704423 1.9925512363779 0.0
9.662781807969623 0.477809346089035 0.0
8.011297869803792 0.7518828483803571 0.0
8.250149975885678 0.7646904662196189 0.0
9.608674873602773 0.3618049194050078 0.0
8.692696069692623 6.582927327365709 0.0
8.628225948401226 6.705702462696891 0.0
8.701883181418305 6.822086652299242 0.0
8.559276855155542 6.829564723911442 0.0
7.069268463354993 5.459534423493629 0.0
2.654575201159115 3.323490466195074 0.0
3.610801136544596 4.044075244426243 0.0
8.263757217166944 5.48730323490738 0.0
8.138838162809126 5.491254533497952 0.0
7.90196833683664 4.477386962763833 0.0
7.987943097943191 3.978756490171551 0.0
9.704623491880403 3.945605151832784 0.0
9.461009573830147 7.301728818091931 0.0
9.532468631193666 7.399916015174975 0.0
9.582688928417856 7.292330983701011 0.0
9.652579613269625 7.387768793572397 0.0
9.699264016151023 7.282867433965265 0.0
9.633305589700536 7.188543855060478 0.0
9.505576100168666 6.961225778216469 0.0
9.43876966151099 6.342441564206569 0.0
4.908483672172518 6.098703904450545 0.0
9.135448256237908 5.269827196966999 0.0
5.905650502271389 2.025036080946255 0.0
9.709890722072377 9.452748507541063 0.0
9.663337613522643 9.572126259365891 0.0
9.603900123387826 7.495180532331903 0.0
9.720147629525837 7.483400774981126 0.0
9.674588415444239 7.588303295299578 0.0
9.653186673863587 4.039274180923234 0.0
9.053164539680804 4.764545162185531 0.0
9.164908495749003 4.763017269285045 0.0
9.226019227262443 4.858029410614327 0.0
8.809947621994619 3.4964384919072 0.0
9.10538997155458 4.665865142902959 0.0
9.331074106432244 5.748993480915537 0.0
9.055854333858068 7.918554535314415 0.0
9.446431573964945 8.209836764658437 0.0
9.573844810886287 8.191100251691205 0.0
9.309704769895653 8.244395007943949 0.0
7.240329561730736 1.676197957122907 0.0
9.543389817573933 3.660019800390455 0.0
9.598599341122098 3.563130123982772 0.0
9.652615161407017 3.658119804270645 0.0
9.706336063693934 3.564815526226687 0.0
8.632284427755456 6.946688912416058 0.0
9.682863230715835 2.349655023034811 0.0
9.571538455120994 2.142369886250143 0.0
8.090821900439733 9.017409120951333 0.0
6.812258669899192 0.9007667548831626 0.0
6.50135254578461 0.8974046495177885 0.0
9.598335906230732 6.246437748035812 0.0
9.719677442549804 6.253968775436637 0.0
8.593026822691716 5.180101360605356 0.0
5.537586126848265 8.836083861509138 0.0
9.688689404995035 2.143487155934306 0.0
2.821389253975936 6.507820864074362 0.0
9.176571289960709 8.507736431357309 0.0
2.918303740542162 8.256728920338826 0.0
3.428955230180972 8.401446814887457 0.0
8.490587404589881 6.715350139132777 0.0
8.86049054904785 7.243279881821806 0.0
8.93696309213556 7.356650230611625 0.0
3.951931175165697 5.78308550088855 0.0
3.65055612573298 5.91672400098539 0.0
3.668142216548471 6.247526235973777 0.0
9.717269848920886 5.821831227352286 0.0
9.708364917734201 3.164198601626433 0.0
8.45581975650687 4.569560863828342 0.0
8.204448312099833 6.040774355519757 0.0
8.65969449127868 5.485991799508151 0.0
9.707534571012967 5.634423933296901 0.0
9.62102991883279 2.849662850313935 0.0
9.144093558002634 3.560383427867003 0.0
8.29763273805118 1.77155302934031 0.0
5.280452715709455 9.01633391004168 0.0
8.984558945859158 6.99932633710603 0.0
8.4157550875812 1.275784953143711 0.0
2.068078118650995 3.355462780535101 0.0
9.205703884756806 5.568274778556933 0.0
9.745857863753141 7.178456670302003 0.0
9.681628895748586 7.081494416756802 0.0
8.875818787971069 6.240744812097083 0.0
7.993733797566922 6.414830952863579 0.0
8.462810157069566 3.377071044664789 0.0
9.29428363519789 4.759591981903337 0.0
7.933956818298286 5.97437536746848 0.0
9.028281726378319 3.558713145763133 0.0
9.083461773461467 3.455531762175701 0.0
9.73231939683535 2.849247643393067 0.0
6.70072305037728 2.192432536215492 0.0
6.423245125077639 2.212870246546939 0.0
4.931537051605536 1.135086496804522 0.0
4.746426561586179 1.500381091957315 0.0
9.707706579932626 7.836419656220658 0.0
8.590593344701457 1.595639668013959 0.0
8.708946574109854 2.1688179918246 0.0
8.634728854549891 2.028564483452208 0.0
9.230357659411311 8.129337203173913 0.0
9.102841374461482 4.452881308250647 0.0
8.472081531214734 5.388993924853032 0.0
4.925996806199801 5.844046944846857 0.0
4.702806345752284 5.745688656289065 0.0
4.884357002239844 5.633237011762874 0.0
4.709628434300812 5.536404116679045 0.0
4.530800966746534 5.627044171217377 0.0
6.040296145349247 6.603808099703576 0.0
6.162203578696918 6.795213950202512 0.0
5.923135943221574 6.824060069869489 0.0
6.046693245732212 7.010423490915212 0.0
6.297337598588478 6.979895528204233 0.0
7.760448385794147 0.7294020304851334 0.0
8.492228348169641 6.958778476405878 0.0
2.89219822877093 1.704113597264478 0.0
2.26178643438086 1.7814602252425 0.0
9.726968895980871 6.009547057102511 0.0
6.63195110828313 0.6072886418835157 0.0
7.984023036954866 7.515675826210831 0.0
7.893857204140559 7.681876703427663 0.0
7.778465117872411 7.537836322197895 0.0
7.998204230811618 7.844922503023499 0.0
7.798554315988981 7.858161805718108 0.0
7.917846202023782 8.03040048103727 0.0
8.547520504556728 2.721261126162116 0.0
8.39253850806587 2.732073315877738 0.0
8.306047241032278 2.59069854402512 0.0
8.233011054235162 2.739783364361515 0.0
8.318836035587811 2.879838477099622 0.0
8.159530874574331 2.888511553151382 0.0
8.245490421394788 3.024568439743106 0.0
9.759103003747676 3.077839427881478 0.0
8.083610090773394 3.033523757291178 0.0
8.174562583800352 3.166768504406541 0.0
6.046769434852523 1.155662270344939 0.0
6.968371001421964 2.176347877216873 0.0
8.324858098380334 3.152966249334499 0.0
8.145556596142626 2.609897633546475 0.0
8.970652052821418 7.804556541250797 0.0
9.033737629244714 7.681328986528639 0.0
9.62347010002576 4.796939565664328 0.0
9.72520380348743 4.790261082613535 0.0
4.882631186210167 5.455006233451049 0.0
4.618356368594037 3.933076284395493 0.0
4.748083507220199 4.151025177732873 0.0
4.641724290430313 4.358202249373887 0.0
4.87055838101999 4.337900676660481 0.0
4.974114446887331 4.149149057174687 0.0
5.081577844806959 4.3240148266423 0.0
5.179521650033781 4.148725180298481 0.0
5.276261408871418 4.316673822529601 0.0
5.369189110897883 4.148362797753505 0.0
5.463892033849439 4.338819369807593 0.0
5.550828466075906 4.146274465971151 0.0
5.646554822352869 4.303571429647391 0.0
5.728109623160046 4.138582010823754 0.0
5.821689108984419 4.291959598724587 0.0
5.906082534948073 4.141649907302701 0.0
5.99655838673762 4.288752711512514 0.0
6.077312859438928 4.141011188943332 0.0
6.164215275138099 4.281164574562373 0.0
6.241782344986693 4.140701084167517 0.0
6.324316420613108 4.277393447415522 0.0
6.40284165425941 4.140026953305852 0.0
6.483655157361099 4.273418937894759 0.0
6.561170698911611 4.136221843106807 0.0
6.63512300179586 4.269917278694155 0.0
6.720306110251473 4.133393659385058 0.0
6.63777078218551 3.99617001426095 0.0
6.802492763973074 3.994355399489989 0.0
6.798834760478153 4.276914787769972 0.0
6.15377608509923 4.000134206628027 0.0
6.548727135071258 4.400510710520637 0.0
6.251479300130713 4.421887359316258 0.0
5.275876048175579 3.979624500657822 0.0
5.910905077162284 4.431174408784691 0.0
6.717070288412452 3.851239795555301 0.0
6.883499045994213 3.852555480300214 0.0
6.96664848901999 3.994033961856844 0.0
7.048208567116626 3.854750001965969 0.0
5.810004974283072 3.982497501655442 0.0
5.586615391658107 4.471070246359201 0.0
6.547331954052155 3.853872077215347 0.0
5.179081233207816 4.485638492900557 0.0
7.126615227065496 3.995337770596979 0.0
7.209459742762513 3.856893463870469 0.0
7.130226097876905 3.713620439679428 0.0
6.63075064074106 3.699684148676045 0.0
6.446985573861992 3.697358756862005 0.0
7.043151422977365 4.131713936060725 0.0
7.198322215260019 4.129850614748363 0.0
7.119378405252723 4.26005098890218 0.0
4.797146270976422 4.525762781577414 0.0
4.608329098388589 4.573584257851931 0.0
7.294442092743627 3.720853338661503 0.0
7.215753312764997 3.571378507508807 0.0
7.049631633956289 3.568047985538775 0.0
7.133765707749521 3.414282375958479 0.0
9.755079417839903 5.539705890434435 0.0
9.698955703441971 5.450920012703194 0.0
9.717604099406742 9.09084770432896 0.0
9.276716006673976 5.847248422342224 0.0
9.339081208926798 5.941174203394446 0.0
9.031261921742963 3.750271483819014 0.0
9.08721978689863 3.853416037308712 0.0
4.801461566647803 7.510704110489921 0.0
8.206553504932042 5.818005960412773 0.0
7.362361315389098 3.863102442315545 0.0
9.492826845316191 2.963845037486267 0.0
9.376710375304633 2.97229517374228 0.0
9.3192743723601 3.070687802230453 0.0
7.915389082113898 6.293241865913004 0.0
6.735006382384437 5.832450056405368 0.0
8.456481836836168 4.35369289249905 0.0
8.517718268476031 4.246675068616396 0.0
5.583512022030555 5.411069060406398 0.0
5.73625200174779 5.422617752052123 0.0
5.81006929286229 5.548584937688919 0.0
5.903438861894402 5.420604003204523 0.0
5.43801870974416 5.402925156167655 0.0
7.022641548594327 5.825217331839047 0.0
7.165095795605366 5.826005223633447 0.0
7.223078558430726 5.690146755650336 0.0
7.841396000338385 4.586693006493787 0.0
7.904793170875705 4.690826189066096 0.0
7.785999820520073 4.696719777099973 0.0
7.846448506395101 4.798518978096564 0.0
7.728149182067156 4.803800941124008 0.0
7.788983823826226 4.904802634695232 0.0
7.672018889153144 4.910077510508749 0.0
7.731996012352178 5.014717724244488 0.0
7.852072803124419 5.00743796185411 0.0
7.779278698005006 5.118909346425974 0.0
8.088113864063853 5.605434545811022 0.0
8.016457362785575 5.494849890158723 0.0
8.072290383394757 5.385594956317259 0.0
7.95068657972964 5.38825563681957 0.0
8.309366678475389 1.438342408757099 0.0
9.748160780780179 1.447794693754379 0.0
9.696454228162398 1.337889922375316 0.0
9.568813761940916 1.329560834053294 0.0
9.638326779791626 1.226729570935787 0.0
8.472132467407484 5.182856496818138 0.0
8.066211547412054 6.53691730655352 0.0
8.217035586462373 6.522976700918602 0.0
3.544839338670893 3.324491119989469 0.0
6.999740002965287 5.347729916247808 0.0
6.874544698914502 5.347027470386579 0.0
4.880451234715014 5.193043717957879 0.0
9.104510033763066 9.313204713465637 0.0
9.0466357104558 9.45359399494339 0.0
9.146803165140184 9.569652364413551 0.0
8.134107047896672 0.5527712356100052 0.0
8.369770412730738 0.5571215815175228 0.0
8.47386979744655 0.7564607169846485 0.0
8.585193608569258 0.5749174254532757 0.0
8.683868132726584 0.75505070091701 0.0
8.787381435061018 0.5813987798627239 0.0
8.697570280442534 0.3771156480326233 0.0
8.530048434259976 5.077280516000916 0.0
7.995091351438729 2.90367515012593 0.0
9.731083608815164 1.662638626153251 0.0
7.260488865351954 4.255073962371814 0.0
9.760728358076392 8.990038509880067 0.0
9.716710396257366 8.884160310398862 0.0
8.794627466210242 7.369659405098349 0.0
8.868068657550866 7.515048014893154 0.0
8.702594597629135 7.510501129643432 0.0
5.132320689147051 0.7610757801158905 0.0
9.755852887652699 3.853180024615871 0.0
9.787424819067885 2.757921105725315 0.0
9.731193479931608 0.3736343090103709 0.0
9.796526908308536 0.489684029254899 0.0
8.226019692057042 2.453349105940535 0.0
4.560989821496479 5.428206018250252 0.0
4.348810639659689 5.517048281386008 0.0
8.785190163106925 7.119142251269924 0.0
9.015515413043023 7.464769766852701 0.0
9.754861440190705 3.659036930324926 0.0
9.7543610723378 4.033687839160082 0.0
9.707881226943384 4.127219992296752 0.0
9.52841017383273 8.309020665649431 0.0
9.65186044414544 8.289498614805698 0.0
9.714051275521857 8.173576484362068 0.0
8.209758892476394 8.715513071423135 0.0
8.097084883671858 8.548851201381087 0.0
8.177989947800599 8.367872862579052 0.0
7.974142434808908 8.36779470623567 0.0
8.409012054919861 2.142624252464372 0.0
7.707002321497132 8.039129945341395 0.0
7.574653123518228 7.83895791570255 0.0
9.229858094382692 5.951357214361815 0.0
9.75307989876696 1.229893222503321 0.0
9.715811155868643 1.128779429890018 0.0
9.597960915003707 1.117058287635912 0.0
9.672063923518955 1.020806103150243 0.0
8.99090422125785 9.593878510105375 0.0
8.133165456134304 9.257620998029804 0.0
7.976779931497633 9.420725324095141 0.0
9.77231778617502 7.927819487779705 0.0
7.957213679655531 4.364530256281665 0.0
9.609903116082736 8.403725680286847 0.0
9.724891358972584 8.388392708395173 0.0
9.687487059868507 8.495935345161797 0.0
9.810055520269009 8.494090598382963 0.0
9.755967487162335 8.599790818513082 0.0
9.645698986824481 8.606121319182705 0.0
9.721376049217765 8.699989876681524 0.0
9.773009257015609 4.884557953188837 0.0
9.830105798750992 4.796546393900876 0.0
9.775335108731761 4.686093304257503 0.0
7.455611517737074 3.730099283949135 0.0
8.906943567829634 0.4197477661467797 0.0
8.980613334153533 0.5814185917581446 0.0
9.081059111759728 0.4263421860552371 0.0
9.821654809259165 3.576985724143072 0.0
9.761309244784803 3.4792267780002 0.0
9.763329553045937 9.353068233045157 0.0
4.463051839136694 1.164440352584939 0.0
8.0213168204867 5.283436382300235 0.0
7.89385412333227 5.290429544753158 0.0
5.806940001023414 8.583716119232427 0.0
5.88977793877374 8.96065112858812 0.0
9.177759062826041 8.25539130897928 0.0
9.626582559276994 2.05283181283147 0.0
9.747673294325121 2.064954301745188 0.0
8.775905508647185 6.951821187702613 0.0
2.3581644273991 6.029034686663493 0.0
9.777798009058461 9.548066962498762 0.0
9.737129197219856 9.662299853506903 0.0
9.615080366030512 9.683349544763068 0.0
3.315839678697904 6.042943273456425 0.0
8.915083018115329 7.937748428923896 0.0
9.489832173860055 4.712364754630572 0.0
8.118313727862493 8.013944064029838 0.0
8.902248750797776 7.67372145952523 0.0
8.954075939212636 3.463080912810881 0.0
9.45247551997678 2.133243108303608 0.0
8.311151553157742 8.899233004613622 0.0
3.28672004268868 6.826745674539142 0.0
9.86008383798735 3.468233656255824 0.0
8.389990589860254 1.947086063498656 0.0
7.144231739553659 5.329544660076687 0.0
9.654500729007207 7.743301971143119 0.0
9.761920842881946 7.740144345898896 0.0
9.692820773976567 0.2651585113981998 0.0
9.690951720399688 6.100517071814821 0.0
9.775704281989471 6.077882312279847 0.0
9.823117117198079 4.115168542267924 0.0
9.764391943581737 4.214465954230587 0.0
9.659455011849253 4.218716850797838 0.0
9.713462125022623 4.30742830316693 0.0
9.849638067150842 4.208845651573708 0.0
6.376241713254513 3.858766051594979 0.0
6.274931849158213 3.701528298009006 0.0
7.097780104117746 1.926449727602711 0.0
2.457742027508782 3.810157622192786 0.0
2.963634206580268 3.740748099915693 0.0
5.065585416063965 5.544355730437482 0.0
9.783560252464587 7.566507987677117 0.0
9.825819294611026 7.470942204664841 0.0
9.799976114123012 1.01659516618323 0.0
9.745559590633832 0.9150866860898854 0.0
8.20473400632469 9.495828670767946 0.0
8.784586030320169 2.054461500762216 0.0
8.758471587067168 1.888286802854785 0.0
0.9188935087347281 8.510730800272478 0.0
9.674192026048217 9.20389587377276 0.0
9.796314981283475 9.185916994648775 0.0
7.206882433199502 5.452024361489832 0.0
9.773927048949279 6.334665846819535 0.0
9.830288393591173 6.225300227041885 0.0
8.25177349297509 3.282767705830209 0.0
8.099233469407428 3.304040153764131 0.0
9.607860512870598 4.315652630490023 0.0
9.403674738018715 8.367349042046314 0.0
7.611756786273919 5.018691202305147 0.0
7.549513964643336 4.923310232561835 0.0
9.80986724662116 0.2915868356190958 0.0
0.7757562810577034 3.504187313079081 0.0
7.659562100664981 4.698467529240196 0.0
6.539424975891206 3.541729955691742 0.0
6.717348880400739 3.55221857686142 0.0
6.836337579501807 2.417476958454302 0.0
7.096480496160066 5.959124656438389 0.0
7.189742782777612 4.377051328076039 0.0
7.051723187622053 4.38470822973091 0.0
7.125489805519186 4.497018383456762 0.0
6.994915621927777 4.501504591168814 0.0
7.056755276274058 4.607929817497045 0.0
6.932937068803914 4.613249390039674 0.0
6.86629288290367 4.50541343988659 0.0
6.80427099775847 4.617607827251794 0.0
6.739195362053689 4.511124964201849 0.0
6.677260697693361 4.624288827143181 0.0
6.996760608675822 4.711715831373894 0.0
6.316045249462968 0.6456945497683586 0.0
7.321834163850416 5.816449323512759 0.0
7.833101485370825 4.390058096386987 0.0
4.996572652976738 4.498711166259074 0.0
5.112334577457371 4.663858846723513 0.0
5.271923064784868 4.629759173373871 0.0
4.93773508827367 4.668006487116195 0.0
5.348137647919096 4.485934621930562 0.0
5.413454827497575 4.62999925573761 0.0
5.356581113747675 4.770594395332836 0.0
5.013422223730484 4.793321773780133 0.0
8.58674425943957 0.9312335381466886 0.0
8.776450596582496 0.9362399987293505 0.0
4.783496233934828 9.486061758876032 0.0
4.544176394620909 9.034071856445296 0.0
4.082330493623582 9.015765881393772 0.0
9.820867469965414 7.285959215547852 0.0
9.852697883440127 7.166089674802766 0.0
9.260999083164238 2.971390964911171 0.0
9.197701900169713 3.073162109379564 0.0
9.31960210441945 2.867465579641856 0.0
6.660951583415121 3.383363199709994 0.0
5.210469976037585 4.761678854423166 0.0
6.740780285297665 4.733615686805694 0.0
6.611362405615225 4.731958642073806 0.0
6.549091884465382 4.629620704100811 0.0
6.491761716522486 4.733409494449344 0.0
6.425259228542098 4.640546096196947 0.0
9.715556659367534 2.986725573570596 0.0
3.710524324925069 9.463213827486557 0.0
4.768537031214573 4.727001037865238 0.0
5.039413681704655 5.378508462165627 0.0
5.188746429211535 5.440476671296013 0.0
5.172214816037712 5.298914527247826 0.0
4.469063601436893 3.667917323494335 0.0
3.799121596584382 4.741629285988305 0.0
3.661085664896249 4.442847704416992 0.0
3.316563386321876 4.380147387454913 0.0
3.802087298647255 5.26743535640985 0.0
9.738116341343215 8.047178982429934 0.0
9.85106076399546 8.021725551312715 0.0
9.837581050304836 2.844176011307251 0.0
9.664579962075123 4.402853107737106 0.0
9.76433159763034 4.39807801415352 0.0
9.718924973226878 4.487825491046641 0.0
9.826405563645343 4.494594135148365 0.0
4.931068003413168 6.359330991212394 0.0
5.130175746947236 6.201075257041828 0.0
5.143884286052002 6.445382329515047 0.0
4.953395875296406 6.628748468717369 0.0
7.833019185167153 5.400347121613631 0.0
7.766636138801143 5.313240048256084 0.0
9.767038723422333 4.578090619166644 0.0
7.315369355237483 3.441501197259575 0.0
9.556068971301514 0.2347811136726856 0.0
5.733871280791703 4.444861510772459 0.0
5.828809543126846 4.569791247698539 0.0
5.986701526182213 4.562881783985375 0.0
5.912543327921148 4.692966271273211 0.0
6.052130330528581 4.682477327897978 0.0
5.773525984744635 4.697697018456535 0.0
6.121646311546238 4.572302645403103 0.0
6.182349700936326 4.67713231096357 0.0
5.846371383601797 4.808939734754761 0.0
5.117807918383606 5.974361363083184 0.0
6.256132501905665 4.575863546153224 0.0
6.324770064521816 9.645040261272253 0.0
7.345522892050965 4.12581088034536 0.0
9.338523512844539 4.854480276600515 0.0
9.286984287289403 4.959628690044808 0.0
5.676298026114105 4.589279806918992 0.0
5.631257891894775 4.722749088404111 0.0
7.970415275563177 5.621040275419208 0.0
9.565118337557308 7.081391220827488 0.0
9.626201005045262 6.980441083020495 0.0
9.733729506193331 6.979928568877979 0.0
9.684556253529976 6.887102896543928 0.0
9.780785815410074 6.890287441101827 0.0
9.740054813822885 6.794211367612523 0.0
6.462628988057306 7.629921412015864 0.0
6.692564520952154 7.473594130811262 0.0
6.927983108788191 7.570982428592125 0.0
6.899878641134941 7.329306734748538 0.0
7.117542472438434 7.416951094809493 0.0
7.089537168123128 7.186691566729968 0.0
7.296585396514727 7.275888419524222 0.0
6.879678873774065 7.097443005287856 0.0
7.063454637059129 6.967740076426161 0.0
7.329105042924355 7.496317641003757 0.0
6.867084781778411 6.878842928865059 0.0
7.494278796275744 7.351949197351029 0.0
7.462564159480594 7.150140034494138 0.0
7.644835001206406 7.21506678718646 0.0
6.682478929414216 7.008358327294905 0.0
6.449199855715812 7.365660640952548 0.0
7.548139855358765 7.57299228324251 0.0
7.008502809092701 7.844601794812628 0.0
7.371739019901781 7.707688433423657 0.0
5.665345294602155 5.290628720253272 0.0
3.987583013016546 4.486920698115711 0.0
8.893480480320447 0.7785000884179994 0.0
9.715485963651112 0.5955299613117169 0.0
9.761785841543585 0.7048670948649375 0.0
9.670304314877074 4.578896619304786 0.0
8.058509626083154 5.744161686650483 0.0
6.181795443628869 5.462040811515966 0.0
6.256771804808641 5.338464817889848 0.0
6.124070400983443 5.352376180901929 0.0
6.399679261813415 5.349186390888865 0.0
6.477776305607503 5.46505688468465 0.0
6.541624525938461 5.346017118512589 0.0
6.673064575428321 5.339051516933525 0.0
6.599301548842115 5.241958624987057 0.0
9.573774011620444 0.815274945835158 0.0
5.86493292693426 5.877588788523632 0.0
5.552663040119136 6.957487930464628 0.0
5.535080960199246 6.663033131707637 0.0
3.708603689392072 0.5979254716153909 0.0
3.31896983256719 1.188583855309964 0.0
3.895664898001925 1.128137111173669 0.0
6.363360407965353 6.032416442205533 0.0
9.445959758065749 1.070139246426051 0.0
9.50632172780449 1.214052376665338 0.0
9.441030033980638 1.325047485624912 0.0
9.295799464644857 1.341410624832976 0.0
9.184164107767781 1.461677744200096 0.0
6.407191016756832 4.407273313799791 0.0
5.544591888593027 0.7652641669375747 0.0
7.883090151006535 2.497506182548758 0.0
8.073420508370992 2.120510489750234 0.0
5.494822040671399 4.732314720081375 0.0
0.8986976806403217 1.464611451578306 0.0
9.536325549598013 6.83286654168725 0.0
5.972289519322897 5.727532110854501 0.0
9.82203607053145 9.443411729566549 0.0
7.263199949874008 7.064207941227515 0.0
7.233659553805083 6.853135694774254 0.0
9.793310082768443 7.072747972018893 0.0
6.734168931095253 9.67499220075154 0.0
6.941134861034159 9.382328333169653 0.0
7.285822522704258 9.443989747444657 0.0
6.576263515512108 9.333035011158342 0.0
7.160560566479093 9.127732577621245 0.0
6.218711947378506 9.298064908857533 0.0
6.432383355119106 8.980985203293491 0.0
6.795390278360442 9.046043538032663 0.0
8.54677014121837 0.1957422484480979 0.0
8.528696320820908 9.804850950580938 0.0
8.42644965647489 9.604735484095604 0.0
8.010239224104339 9.715048083583248 0.0
8.644359648763341 9.628432815860457 0.0
5.344212921686536 5.526744195650314 0.0
9.760936589662048 7.38409687515441 0.0
9.128187788393989 0.1445485608215519 0.0
9.133307661752394 9.854833215426817 0.0
4.867351616228264 3.944459575003425 0.0
5.905323253270366 7.385600364255367 0.0
5.909045412185362 3.361969954191194 0.0
5.80580919758911 3.569999290452344 0.0
5.578230704221431 3.587842862412673 0.0
6.013352753603037 3.550699073477782 0.0
5.936624955014758 3.721630401607248 0.0
5.735413275357409 3.78528948606432 0.0
5.512538847486775 3.794760621907932 0.0
5.360571639388366 3.618649018042938 0.0
5.134141179590394 3.459385929220745 0.0
6.167399567008798 3.367365990358096 0.0
9.766756262206602 8.291756450136036 0.0
5.486063578307141 9.64505925252771 0.0
9.497624614180321 4.328873442170357 0.0
9.811387324954623 1.570516917365688 0.0
9.389210081887331 4.69150887571586 0.0
9.704395728912932 3.754226393630331 0.0
9.808172776193384 3.748784464356272 0.0
6.549660911932182 4.839747932361234 0.0
6.757415124099031 6.077939876843736 0.0
3.805578542126494 8.040840085419626 0.0
4.232580149691158 8.198659880701744 0.0
4.559765382564095 7.87091698350757 0.0
8.3829075948167 0.9495097054886067 0.0
9.8571301061408 1.456307792614791 0.0
2.005900212453279 4.535525273813588 0.0
1.85904408608185 3.956445706785572 0.0
1.979307922430775 5.474327285927505 0.0
4.387923194305381 4.427191306527721 0.0
9.429258370703248 8.873693567695483 0.0
8.99196583083892 4.664567567015693 0.0
3.050357122593155 5.368999067452741 0.0
2.861107385476722 5.785089447130829 0.0
5.005058958272409 3.711196438448062 0.0
9.8972295764837 2.755337284632969 0.0
9.581048890980513 8.853909321617065 0.0
9.668838904423916 1.762418716497425 0.0
9.716576458425756 1.852218615166234 0.0
9.799043132681442 1.780583141193779 0.0
7.661868217848455 2.880323287492419 0.0
6.780136552904057 5.443858690999834 0.0
6.489544866845868 5.913957888434588 0.0
6.880149522020364 4.134257616716107 0.0
6.970134365280068 4.264072319341612 0.0
2.225481516813409 9.348422240784 0.0
1.843418032490818 8.641605249943353 0.0
2.198000805242772 0.6459947140825729 0.0
8.740020306282506 0.1903932731609072 0.0
6.86957996016679 4.720776242956433 0.0
7.430920333506809 0.2702852342693345 0.0
7.302066064947383 0.6134316505458445 0.0
9.305398039877746 4.64854361125207 0.0
4.078151380865065 5.203425462519088 0.0
4.080704120371218 4.778853303303787 0.0
8.052525541571825 5.965483159581719 0.0
6.367194027835946 4.754896037842673 0.0
8.604191121620719 7.648182513679963 0.0
9.546446695207845 9.234701521982952 0.0
9.018652854946867 3.351011585453845 0.0
9.143853648154607 3.350173119015413 0.0
9.067079866763024 3.245174561579149 0.0
8.991492136849105 3.135578770028028 0.0
9.29603967712795 0.1426516429033488 0.0
9.392428271030795 0.2506306237151588 0.0
9.223973843394301 0.2912279164401488 0.0
8.39375191941536 3.018777714002827 0.0
8.4836475746111 2.88135207267795 0.0
8.741089053946197 9.821127577434911 0.0
9.803966507713174 5.448064463539533 0.0
9.748132240148552 5.359371181503531 0.0
9.850258990973547 5.355211921626304 0.0
9.7965346514158 5.266762244994661 0.0
9.84142096963129 5.171050273734619 0.0
9.738843612428232 5.167483913244169 0.0
9.64168976006725 5.359875132194057 0.0
3.335917453809221 5.671837672982919 0.0
6.962669142802881 1.683222554707996 0.0
7.365210844496719 1.887492842536114 0.0
7.517378971174123 1.677983072937792 0.0
8.00383870208024 6.089394601875145 0.0
1.725435941000569 2.759295503019395 0.0
7.907977929549089 5.102827208603365 0.0
8.052861051278896 0.2683271125209605 0.0
9.80169732768395 3.385443381464333 0.0
9.831597648680848 3.28491948963525 0.0
9.736335895866404 3.316207814499244 0.0
9.597256128490281 3.756160701977744 0.0
8.865819925321706 3.366235906378775 0.0
8.489614436807788 1.757152185195495 0.0
8.88089641144391 1.078983279100314 0.0
7.430923851187758 9.724389499796425 0.0
7.584252919312249 9.509430586267927 0.0
9.744026095940516 2.247117754488748 0.0
9.729961521243718 2.659836747108116 0.0
9.790866569780063 2.558993767350471 0.0
9.736606445116795 2.455104424879619 0.0
9.846806182714698 2.452157456754448 0.0
4.518102112052724 5.141350889745285 0.0
4.519880229178207 4.85678334497067 0.0
9.7302407894617 6.434012603549242 0.0
9.787537474544765 6.523591663056312 0.0
9.744262337067932 6.617499601377625 0.0
9.8406238811518 6.41591236129004 0.0
8.914967252734657 3.579360039684312 0.0
9.154797282599406 5.670753066089419 0.0
4.228839454580575 4.612979739018002 0.0
6.095037541675208 4.42126627187728 0.0
9.304166983880842 9.864854494751789 0.0
9.406445527105628 9.759007358529582 0.0
9.256225114941945 9.700832989525724 0.0
9.796206564635622 2.351215649506205 0.0
9.849373673349081 2.25090453834006 0.0
6.332048155295931 3.511675163099286 0.0
9.069679774213784 3.022879178706259 0.0
9.070599961450037 9.055284879641471 0.0
1.808685691036764 6.331557276533421 0.0
7.120156826652838 4.698481230214924 0.0
7.052894345811342 4.799848851879358 0.0
4.739957520484086 5.369107149361242 0.0
9.389197839958292 7.197139943834638 0.0
9.046688232613976 4.560364044038737 0.0
9.162685461967492 4.562194096410666 0.0
4.227377821420887 1.564128177298305 0.0
9.201090975245227 2.794301402811909 0.0
9.251941624303948 2.677556975242327 0.0
9.186758273070138 2.563916005021366 0.0
9.317609833868786 2.560335260954038 0.0
6.57599191748324 2.437689779955877 0.0
6.305556560534859 2.459112595979303 0.0
6.981058048792093 2.642476994448363 0.0
9.886113463139504 6.510498309609482 0.0
9.250462794607717 6.221362629571698 0.0
9.305373999084068 6.108271307139882 0.0
9.390477915810829 6.228015172491477 0.0
9.44452571968143 6.114582165110393 0.0
9.502105740270528 6.197677857389309 0.0
9.31559697209813 6.331647407124485 0.0
9.370938253597153 6.437386206819511 0.0
9.594764406124872 0.1099001288712305 0.0
9.602872681151728 9.894988341116305 0.0
9.622661196143387 8.076680696281343 0.0
9.769069277144705 5.9102532189237 0.0
2.615076109785583 8.807551523115547 0.0
9.658920005405456 5.730890135691177 0.0
9.76063135061807 5.720703211793342 0.0
8.63963723169499 7.177334225227945 0.0
7.841904391869763 6.41346852896409 0.0
7.764520718520185 6.297267738834625 0.0
9.546492996136271 3.465225175657335 0.0
9.25600964352143 2.219157062786616 0.0
7.625057159226293 7.012987957636062 0.0
9.529121062829038 7.730283486008674 0.0
8.329887090625894 3.845190321147069 0.0
8.265841850823831 3.95687001944245 0.0
8.402006523775544 3.947660780406651 0.0
8.128436391670505 3.968543393650448 0.0
8.46705122470662 3.835767362024195 0.0
8.218867047074696 4.063481375518748 0.0
8.089763413611255 4.08062363292928 0.0
7.939578083855268 4.111915744184436 0.0
3.74991304509639 6.615676756107112 0.0
2.627714335615619 1.170993030860914 0.0
7.046129971268607 6.759930788612616 0.0
8.534603732661887 7.486325780553722 0.0
1.569381386467569 2.042794535871475 0.0
6.228703743210918 1.986421863690014 0.0
6.467030855792859 2.67190498312861 0.0
9.272246093269825 1.975478263632296 0.0
8.05269609263041 3.854522845257449 0.0
8.008595521536957 3.177870309354594 0.0
7.929796740504207 3.350600835935766 0.0
8.048703574664067 3.449582532910417 0.0
9.72947480375618 4.973926800124758 0.0
9.784850360535604 5.072865219810449 0.0
9.896036387646596 5.069261557893528 0.0
9.633140953203334 5.168645132864771 0.0
9.558102991128836 7.602453108835212 0.0
7.278758746505716 3.994295887299482 0.0
8.306681733482405 6.936428510427854 0.0
9.487163072013963 3.757777670075558 0.0
9.532950522284125 5.359403698944497 0.0
9.816036650072329 3.927268437107025 0.0
6.173882586235392 8.734645960664665 0.0
7.972518459433741 5.003005338485466 0.0
8.398453459336153 1.601072016988848 0.0
8.97460527296194 4.040886705742754 0.0
9.037941657530773 4.143578781749325 0.0
8.849604200183613 3.828506169652706 0.0
9.545296177100065 4.042698359132156 0.0
8.595941796785514 5.806754902023664 0.0
8.65588412428292 5.694192853853139 0.0
8.723710665131787 5.801528918332044 0.0
6.861288985046249 6.673713222735126 0.0
8.87477249219366 4.664500928777609 0.0
8.72385765226959 3.608276264790996 0.0
7.145228858696953 5.573648565429618 0.0
7.282945121585866 5.558559688509987 0.0
9.224761401603633 1.602363370249125 0.0
9.609115686587552 2.986868833620756 0.0
9.633989947851914 6.628120633848649 0.0
6.046214325132457 5.45615093027661 0.0
9.017014346798927 5.271996636983457 0.0
9.070824864071271 5.168510834798647 0.0
9.189021391555556 5.166867900487267 0.0
9.123328759137758 5.064718588163964 0.0
9.240587446378079 5.06459430516883 0.0
9.250848280531756 5.267364371053135 0.0
5.773050603406019 5.7192906317521 0.0
8.576466432793914 4.3559007860436 0.0
8.634627802680399 4.253467736542067 0.0
8.461790117175607 5.591735227444779 0.0
8.907610717370224 3.713397213891439 0.0
9.80665594564509 5.628066492225966 0.0
8.985935132601089 4.455263493464225 0.0
9.00640209566022 5.067597672073404 0.0
9.833659276096986 6.976519563917422 0.0
8.0283368553477 4.687271895436317 0.0
8.326580191759327 9.127498457128247 0.0
8.650637373791266 5.07513089931925 0.0
8.701067313435203 2.700069743477523 0.0
4.825307249916392 4.884175191874744 0.0
9.418335984190309 6.858444798015129 0.0
3.91434687300816 8.542956908935874 0.0
5.569239724399552 2.064135034637056 0.0
5.234271567762738 2.128974435011933 0.0
5.757920427527626 2.312422707096966 0.0
5.43365689737979 2.427455772745759 0.0
5.673210219624612 2.602111218343444 0.0
7.214258468265766 6.652783071431555 0.0
9.823626269633962 4.30685540664529 0.0
7.96996639420014 4.794005510174826 0.0
7.616003332725032 0.502676560965646 0.0
3.050634530589821 4.659174799474146 0.0
2.870894249800723 4.246924313393336 0.0
5.285393339952368 6.079037173753393 0.0
9.439954241218905 4.23581687956071 0.0
9.67709722097145 4.710772408106511 0.0
7.40767785509217 4.259947873553335 0.0
8.396202587439676 5.486075637998701 0.0
8.323689688705493 5.372061002264632 0.0
8.191312386254125 5.384662546230823 0.0
5.304380054816289 5.369675374029755 0.0
9.093848379546637 4.047647920840374 0.0
7.916313220758624 3.045043876114836 0.0
8.435854831444637 4.144861908356168 0.0
9.060262453079693 0.7340576053322918 0.0
7.053195520344596 5.238809779682351 0.0
9.621762679347093 2.45205452967588 0.0
8.410730269104743 5.287995309529392 0.0
9.655094569234972 3.472720279371932 0.0
7.982140513923982 6.667914768024983 0.0
8.402690325256646 4.883576657130221 0.0
9.17488654147479 4.962006474835693 0.0
9.013188196102961 8.49700148123058 0.0
9.795977244531603 2.156818021002043 0.0
9.893813711206834 9.545820400859157 0.0
7.965349232662289 4.250048884270795 0.0
8.644264557989125 4.874751532150782 0.0
8.215430976121077 1.26077208565765 0.0
8.379717637669398 8.37324652769609 0.0
9.320026533461409 5.559861899725609 0.0
7.885778178744864 0.4977439426642278 0.0
7.547066983926719 5.125166613071239 0.0
7.657542898944819 5.122996245335209 0.0
7.423918840193691 9.000935553397358 0.0
9.854133000712425 5.541931969512857 0.0
9.328508174398952 2.101486405523264 0.0
9.300749600926641 9.530012105354274 0.0
8.130307182491519 5.277079344947874 0.0
8.346752967392757 4.987627363826086 0.0
9.118404185029991 6.007087846617186 0.0
9.048232213728614 5.89431792713258 0.0
9.088340967655858 5.576242562571367 0.0
8.094762487139027 4.789727191449318 0.0
9.915265904493378 5.749591413470928 0.0
9.92169805280126 6.154216704502091 0.0
9.918022441582268 4.549125436287157 0.0
9.919332362905616 4.849536560132457 0.0
9.914800786693318 6.750595509794719 0.0
9.811792900437824 6.703950687575952 0.0
9.900643083988882 3.749855087409844 0.0
9.912423171222734 3.043228996968949 0.0
9.91892875832665 5.949999999993851 0.0
9.913300070218703 3.960831593817277 0.0
7.709347001661226 4.444236534782706 0.0
7.479443107717332 8.071637285053104 0.0
8.839057072155848 6.807845119358974 0.0
8.972330068019902 6.78765448182788 0.0
8.542093772125282 3.941452413628317 0.0
8.279144752968262 5.930387616620717 0.0
9.393455876855919 4.973162505621418 0.0
9.507123333872533 2.855087674515822 0.0
8.77504684283825 2.317347145885344 0.0
8.394133129040345 4.464046960801843 0.0
5.725509852450801 8.210843960481027 0.0
5.62632390239664 3.967637659758752 0.0
7.910815814627989 4.900765971697654 0.0
8.595808444085467 5.590040244353608 0.0
9.705160502006024 0.8106158419444889 0.0
9.82021247904746 0.808810893177099 0.0
9.218352146075844 4.447736986422823 0.0
9.20781892622228 3.858281726888132 0.0
8.713609974387523 5.178241668554946 0.0
3.55755059259364 8.921522400238844 0.0
9.59122926011489 5.452844834281716 0.0
9.70565100407009 9.77887811062354 0.0
9.826938454219809 9.74303055702321 0.0
7.238962096855633 3.278078153406256 0.0
8.575609105166194 4.567807831727537 0.0
8.936449841121737 4.765835458965493 0.0
5.59323463391086 9.248527978398117 0.0
5.280809113285124 4.886132326418428 0.0
9.328132730893216 6.544753806716806 0.0
9.026944889277736 6.67247283515637 0.0
9.81946239021469 3.007926663525007 0.0
8.677633568960493 6.144049349297466 0.0
8.33427489656924 4.571212803519522 0.0
8.55734024448315 6.382535186588269 0.0
8.692399379422756 6.372347713955898 0.0
8.495817478252626 6.503308565233578 0.0
9.905494734661673 2.544078755559835 0.0
6.177101405266569 7.228490244483556 0.0
9.825373011845263 5.807482724503027 0.0
9.808678508609606 8.118683092442964 0.0
8.397717712407108 7.08010313863416 0.0
7.428555529689225 4.935946611338556 0.0
9.575504958128711 6.125633853639113 0.0
9.154066996197898 4.146562596982661 0.0
8.074381802159323 4.337569667261167 0.0
7.018337246891919 8.843475095716133 0.0
7.970627172560641 2.658650028065857 0.0
7.382546388883145 6.723381543491632 0.0
6.822972334933889 4.884555620881615 0.0
8.343732976791593 6.041576709398377 0.0
7.743680217306919 8.423336160305476 0.0
8.505717922983454 1.115022897794028 0.0
9.113973198216474 6.992972408167606 0.0
5.818882632841168 5.300437503812764 0.0
5.951991891717714 5.279516346785062 0.0
9.450183479138845 5.92934813870612 0.0
8.783346541536119 5.48419035750989 0.0
9.38074895894124 5.65076274999803 0.0
9.513658728876734 7.193620441323493 0.0
6.396040948797887 6.776064256962667 0.0
5.389661780244388 4.89715084345563 0.0
4.473247649068957 5.85935163892416 0.0
9.249586607512612 8.37680799459232 0.0
9.103796366487646 8.379197231055114 0.0
6.274057301184156 4.87985402946409 0.0
9.259628836118232 3.561431822636308 0.0
4.037922477011971 5.489409780163391 0.0
5.62712958624254 4.893925433488392 0.0
8.806426003347967 6.133410188141932 0.0
9.53304466499349 9.59279975429444 0.0
9.542890959420024 1.966631379116419 0.0
7.459736176874619 5.863847835420528 0.0
5.937613117200432 4.89232797168023 0.0
6.171611131472617 4.879541833448487 0.0
6.100695199816815 2.291172318314745 0.0
2.315194906726768 8.081958163666464 0.0
6.878489987598286 5.148099521847569 0.0
9.105264414399338 8.639184652727645 0.0
9.20047261316883 3.457820810661327 0.0
9.895329010385955 7.55944047105717 0.0
9.912742873006831 7.76210330502246 0.0
9.37761459375249 3.168397068877758 0.0
8.946121261512507 6.345629828835438 0.0
9.918632496443566 4.449809517365367 0.0
6.848211525651934 5.945010613369067 0.0
9.915721525903255 2.047407395915179 0.0
6.117255841708726 5.163321965161054 0.0
7.276595248786602 5.347247322210079 0.0
6.32682869954104 5.23674259421017 0.0
8.785886448438022 5.692775375342819 0.0
9.099994401883361 6.776698531382792 0.0
9.913397459621638 0.2499999999998165 0.0
9.910352525643928 0.4481571029410266 0.0
9.907850422008579 0.5479735220323012 0.0
9.911983631350465 9.24778487019403 0.0
9.917634740384067 0.7514684821956668 0.0
9.195214232985496 3.254172408378337 0.0
5.000896927376288 1.846006038077654 0.0
9.917172478547403 8.250155740683276 0.0
9.908120476950126 1.742986232208194 0.0
9.914524635720774 1.949567899316728 0.0
9.907358878377153 9.145625165175748 0.0
9.917695944922635 8.949999999998397 0.0
7.648387553139914 5.325741673607362 0.0
9.605343588986079 4.130627398479715 0.0
6.648113233057817 6.774798386229164 0.0
9.910347203087213 8.446729917003672 0.0
9.913623694530468 8.548470085896316 0.0
9.9201245863254 1.536225488581779 0.0
9.906538426683255 1.059019360781604 0.0
9.912867352010919 8.74999999999809 0.0
9.799662981388353 8.79550485462418 0.0
9.831828680383174 5.99966894118311 0.0
9.91414179906643 1.263025320602998 0.0
9.920690092699912 7.240982963665807 0.0
9.385889285950551 2.235126904097426 0.0
9.28133998925606 8.00415195851526 0.0
9.817074723108401 3.172398890123306 0.0
9.482030285089927 7.512954023388035 0.0
6.682432918504054 7.233889573028878 0.0
8.528699633246763 3.260502457553277 0.0
8.91699963742029 2.327016692708648 0.0
9.267676068834481 3.954520684561369 0.0
8.70811637467455 4.974101624783084 0.0
8.18184214270768 7.816666208279135 0.0
9.690393137288163 5.264344933127836 0.0
6.937111790104696 5.245184991960528 0.0
5.895846026722989 5.174232967273284 0.0
8.281683356622615 6.400073017261236 0.0
9.150883172924027 7.444273543454419 0.0
5.430406600793122 3.390815886517273 0.0
5.049583827974758 5.697634876048387 0.0
8.3966710383105 3.495813899905868 0.0
9.007538428392454 8.046563579784266 0.0
4.645155158868719 2.637132843684674 0.0
4.887444326771336 2.30020425915506 0.0
6.483736782775559 4.522536327482678 0.0
7.843169154548308 8.2116075844056 0.0
5.06295551628385 4.901632590583318 0.0
7.201400991012747 5.138239336380897 0.0
8.519791031104612 8.848807089071627 0.0
8.658623737989732 3.031313729049854 0.0
7.585566208322493 3.629882964874684 0.0
8.411818469596405 6.834326722716643 0.0
9.172363528634236 7.669230647622864 0.0
8.85455683341768 2.682483055215344 0.0
9.359398739738925 1.631421337140716 0.0
9.071793864444992 7.337030604117359 0.0
6.968394563521436 3.712808894519514 0.0
7.899236117684646 7.094583340182754 0.0
9.54362864504834 9.781852543872333 0.0
7.151298729743687 7.644795130415299 0.0
5.452218361466201 5.186873761308322 0.0
5.517642289161902 5.293540933999446 0.0
7.802500357665464 5.978295671754199 0.0
6.594850839687122 8.491429270558893 0.0
6.029132431949566 8.294997405201931 0.0
9.31286590869111 0.5672913838331921 0.0
9.25238720319541 0.4415953739444106 0.0
9.550589523211062 4.228044955453704 0.0
8.748611832783206 6.250900951984038 0.0
7.566980108995873 3.995148257893202 0.0
7.426142759241261 3.996743578498081 0.0
6.478912513785404 4.000296412419969 0.0
9.30435638148753 5.168210982711592 0.0
7.542154188520517 5.752525075248498 0.0
7.219033852073297 2.139582470800704 0.0
7.370913620388047 6.545121498197235 0.0
5.226731036024996 5.187572666585561 0.0
8.515591031124366 4.462223215179979 0.0
6.762864307079274 0.3078036604979366 0.0
8.587432696997471 4.977010533175154 0.0
8.703948448756302 8.815629076400704 0.0
8.081003990931544 7.370949680119862 0.0
7.424404567669909 6.949730915714445 0.0
8.578903262311433 8.377992954045473 0.0
7.301258690263783 6.106184350645308 0.0
5.991600556904204 3.99820087171043 0.0
8.203048538477193 1.601044215405025 0.0
7.289972483120081 4.572350254111052 0.0
7.714697186439165 5.420586967696794 0.0
8.918853780709807 1.841796898567452 0.0
9.919941345877513 4.749808449067644 0.0
7.245589454939737 5.94251251443003 0.0
9.258480524497795 3.358952871140391 0.0
3.705877615124628 5.574038727593425 0.0
8.287096858129765 7.962370605242409 0.0
6.799629860952143 3.705385600481528 0.0
4.146753450763018 6.544154457143895 0.0
7.413973555029582 5.545687501585183 0.0
8.466524978378082 4.980481756569235 0.0
7.336312153537934 2.337983522449311 0.0
7.695505222753409 3.747498713679684 0.0
4.898236813123799 4.795853653580084 0.0
4.59779105899602 1.896916774247134 0.0
8.560170375862322 7.072369101894893 0.0
8.386150468360862 2.449771437140704 0.0
8.41200018115259 5.084601315536367 0.0
5.102189912301071 7.621598618277815 0.0
8.336320418935243 6.71651223072348 0.0
5.081745734883095 3.977838926197614 0.0
7.63590698378166 0.9500570055008507 0.0
7.743369677149255 3.051233984704873 0.0
5.357527459690566 0.3809996753407537 0.0
5.967373112873382 0.7731113464301924 0.0
8.169449265206127 6.666271947462212 0.0
5.95122726745053 5.55758205410881 0.0
9.922289489207834 3.53923011719877 0.0
9.39154684476555 2.659037023454942 0.0
7.701415639167884 7.690060291860976 0.0
9.819179654793023 1.329863870021845 0.0
8.358229579054417 6.506108206863729 0.0
9.269720555169467 5.657096143475924 0.0
4.473187658045934 7.435037860084884 0.0
9.65807158077373 3.255496360750368 0.0
9.605155446454205 8.713645566904637 0.0
7.097383547728313 5.141197376985936 0.0
9.812212483832656 1.89920712759492 0.0
9.83875570675407 6.81603549325055 0.0
8.926246869879279 2.079976511571457 0.0
9.166785856141402 9.169070814302419 0.0
8.763479010228052 1.587152667342957 0.0
5.957377924852992 6.404530806530254 0.0
7.14506854375872 6.10342416684208 0.0
5.672595070581394 5.164323323112049 0.0
4.899782787268781 0.3801727265981219 0.0
4.447133848117348 4.673614099606824 0.0
7.044865074789195 3.253639989243549 0.0
9.818461337102992 7.819456450952447 0.0
9.925334577033155 7.954012377173311 0.0
6.352907898232792 1.173665225954276 0.0
7.351721385581032 5.660361289755705 0.0
9.337367583861807 2.76534436379692 0.0
8.693118347802024 4.360254099729149 0.0
9.476812970101324 0.3524826622168163 0.0
7.109868985890334 0.9024224571333925 0.0
7.899106846231403 5.511805431542581 0.0
8.352799544476607 5.187887629361129 0.0
6.957483547582747 0.6176251309213842 0.0
8.099559500483094 1.412323841044818 0.0
9.913030944540278 0.8542404645334569 0.0
9.143075088381442 8.022165366829135 0.0
8.819861450593166 6.356592599428041 0.0
9.319444417409162 1.49938505915629 0.0
6.490262520326714 7.118204362551877 0.0
6.490874470087819 6.582907761235813 0.0
9.82506653058937 0.6146757679104559 0.0
6.803129818897624 4.419048038171804 0.0
9.840901379354312 0.08198751964190581 0.0
9.839740374244226 9.918356239418472 0.0
8.551927134544655 9.449788917425456 0.0
9.92097857388158 3.249999999993177 0.0
5.797087413057367 7.077351493358238 0.0
9.255412859987286 6.433984412022419 0.0
8.668174522249984 1.740767926084485 0.0
9.920991430240607 6.25262219124529 0.0
7.57275248448898 1.94367954756322 0.0
8.052865444445507 8.19900054463639 0.0
8.748697149245206 4.25201068974208 0.0
9.158270227735827 0.5542256343091421 0.0
5.997487767477439 4.787924707603557 0.0
6.119759900601896 4.78043793682227 0.0
4.353034750397793 8.619182743639561 0.0
8.721093521611476 5.588932824583312 0.0
5.717101151444983 1.123034066822819 0.0
9.825602081347064 8.68753399402474 0.0
8.005502510832988 8.7824052910506 0.0
5.548184234622668 6.408009287230429 0.0
5.77830300433981 6.598697187164234 0.0
9.613093825495433 4.50282172481406 0.0
9.928981132641653 9.74928475696928 0.0
6.613628176297015 4.515513362596662 0.0
1.822126723816303 1.297795131355289 0.0
9.514164594137375 1.43081427463862 0.0
4.735494753432723 3.698541604583975 0.0
9.52844959749262 8.615213629960298 0.0
4.660704511759056 0.7947595073298008 0.0
6.82340845160293 5.239926830264399 0.0
7.885938077030673 7.380147032865134 0.0
7.884599891021201 6.09005968568029 0.0
8.846834820720167 9.653276456345532 0.0
8.457777199486827 0.3851010632068662 0.0
6.66485224572131 8.771510767670392 0.0
9.091499342133352 9.708315832477556 0.0
9.824286725109655 4.976315293637262 0.0
7.848197684391786 5.632217046637356 0.0
3.88430598115417 4.225391362015386 0.0
8.776890759183289 2.809688928468134 0.0
7.393884285023409 3.59397875231041 0.0
6.927568893329758 4.396788356869783 0.0
4.96854327720728 2.662368428358774 0.0
9.1480130720193 3.951479613991279 0.0
7.071049729490975 2.38092990636632 0.0
3.40193058782919 1.686321186206593 0.0
7.612042194200681 4.815904436723407 0.0
9.043395868401339 6.888481825015849 0.0
9.098933057562759 8.152197681006806 0.0
6.058682303253315 3.857501492181965 0.0
3.707092669281355 2.986685502034343 0.0
5.113272509841263 5.189455016444592 0.0
6.960565857079232 3.416349532571279 0.0
8.755151527375476 7.649255597361291 0.0
3.393680865444538 3.679982303262531 0.0
3.117424600120088 3.35605258976247 0.0
8.530814041264104 5.488376426140491 0.0
4.820719767306654 5.106646490188182 0.0
9.918899263509473 4.144927088739744 0.0
9.918194630017027 7.447268230913605 0.0
8.461970084137805 3.144844565847669 0.0
9.924415919486059 6.949999999995354 0.0
7.184050152099684 2.72771667662237 0.0
8.834356715215904 7.801565642745232 0.0
8.689015446783005 4.145232831954543 0.0
8.490778532265319 8.234414357968106 0.0
8.63666290918932 2.83060276219705 0.0
4.61028976098935 4.741894230894578 0.0
6.314735925012879 4.003132559161639 0.0
9.20786580425652 4.67001723737971 0.0
7.141401229301469 4.873205425098625 0.0
6.235177809922153 4.774126344778935 0.0
9.12491895896937 3.145675090615719 0.0
9.255747684068178 3.162525801823036 0.0
8.312852272796098 2.290855459722148 0.0
1.449266720542303 3.363629101350872 0.0
9.525687840398492 4.800807314407045 0.0
4.829905263804087 8.14474456977717 0.0
9.09338914689732 7.563794106183232 0.0
5.389401689694107 5.283808684471545 0.0
8.530979415204587 3.029374286908943 0.0
7.901489077080633 6.535344047486632 0.0
9.218572924671975 5.760893551533255 0.0
8.562382833959296 4.143913974026883 0.0
8.62959127904665 8.974877485888243 0.0
9.408442441596518 9.62276529745719 0.0
7.5034765601713 3.869833107932387 0.0
9.842813436634783 6.600620949014236 0.0
9.826116984327193 8.911617279149695 0.0
7.529907780698261 0.7369111006685982 0.0
7.832164962480427 2.905293639437395 0.0
8.39517908433056 3.267417602291069 0.0
9.823014010107707 9.085319632577246 0.0
9.022314123618541 3.944559746338292 0.0
4.243701230676532 5.332574856090426 0.0
9.816740542566388 1.127839952679595 0.0
8.166775715766304 5.693916696568397 0.0
8.865374421689054 8.068986769641638 0.0
8.761145809863661 6.470583506581853 0.0
8.998345275919851 9.209303502026401 0.0
9.698477487436316 6.706902829754045 0.0
6.439032098063426 0.3109134377713525 0.0
7.562681994382136 4.643158005207056 0.0
9.03999088074715 0.2799354672273258 0.0
5.180741540467516 3.805018725608906 0.0
6.243990330956698 2.718077286244967 0.0
9.79416634023361 0.1815240178579244 0.0
9.926540005061975 2.847049370876555 0.0
9.826476210374608 2.670192168078066 0.0
6.365816673179121 4.536333049275508 0.0
5.546353765219417 4.618331215552614 0.0
9.820703096450293 2.000649418331399 0.0
6.884388790679166 3.561583980715254 0.0
7.431303395649604 5.747824222777201 0.0
8.849816832721245 2.19318290395604 0.0
4.185147517585975 5.697469360586313 0.0
9.165905238119013 5.873664931582344 0.0
7.70479478158537 1.788324620089049 0.0
9.627376046933474 0.9196091445437269 0.0
6.657687963328663 5.144792385996769 0.0
9.83245016645186 0.3925568446109945 0.0
7.483092985762584 9.253837199159435 0.0
5.445348362202234 3.977855663863651 0.0
7.476680532833337 4.837183287808616 0.0
9.572749890969304 8.505160319814301 0.0
9.915853314998252 9.437014513917465 0.0
7.679469018350979 7.390484878021194 0.0
9.418139053434402 4.790576000488359 0.0
8.096967733471567 5.865447162201908 0.0
9.829153508938724 8.378494945652118 0.0
9.926595955569645 5.157718300415699 0.0
8.774484245600224 7.939747459426853 0.0
8.629764448155779 6.481031318922794 0.0
8.961169458302376 3.839036702328818 0.0
4.617199205561317 5.256318959792646 0.0
8.480815774219478 4.031210317621497 0.0
9.708341592512763 3.401018043990571 0.0
7.183974816647467 4.77882314543966 0.0
9.821437962294304 7.659391965474772 0.0
8.150320284869602 2.286501016204562 0.0
9.828114434347311 1.684891358832554 0.0
5.349187766238684 6.538177907133678 0.0
8.076053471314525 2.76180604769483 0.0
4.907713691134565 5.29818629967416 0.0
0.6874399366049438 4.328593906714074 0.0
0.6980011780697519 5.702671170050627 0.0
8.263861466707834 8.182284285231713 0.0
5.838783785156478 4.913981390426639 0.0
7.807619472656604 7.235706382002089 0.0
9.388504256318683 6.022122644748753 0.0
9.929839894767033 6.436189192303577 0.0
8.3205848711706 3.39107920408397 0.0
3.240770542267401 4.019899919523968 0.0
8.059047070496568 2.468855909103855 0.0
9.932479519490421 2.449625056415224 0.0
7.737639000139152 4.580708137963557 0.0
8.26141077223695 0.3940397126348397 0.0
9.69568953371801 1.959951226402445 0.0
6.469120930453264 4.892267070266994 0.0
9.167223997255698 0.8102256463122337 0.0
6.236889648241256 0.9291076084031108 0.0
8.306379082772498 5.268830342852036 0.0
6.716089118890225 5.239344620507032 0.0
9.82511981852641 9.282822358664017 0.0
6.68375719572285 4.404998642130821 0.0
8.913754712375674 6.908138360584365 0.0
6.173250048857013 5.251634416326969 0.0
4.235907497612446 1.924052997345291 0.0
5.151007663981651 2.438629730660893 0.0
8.924254300637541 9.3764975797567 0.0
4.438612423541503 5.287968640901957 0.0
8.571203234299599 1.897009944569934 0.0
6.878800676380218 5.821332862798138 0.0
5.710626178601224 4.792560699857408 0.0
7.149510071621283 5.216310009157644 0.0
2.099966541549645 2.334742113488256 0.0
9.93396330620579 5.350566393301629 0.0
7.143046479323961 8.646955109387985 0.0
7.965747313080266 5.193641450105844 0.0
6.3314394693073 5.135050228240639 0.0
7.665821333021348 6.222698255001823 0.0
6.305321657053551 4.659816230868476 0.0
7.833020917089713 5.208837056143474 0.0
9.41455902676429 2.869725681199307 0.0
8.567151507735133 6.598605357295113 0.0
7.405527786978573 4.377085529441429 0.0
6.552969697053132 5.137148974085434 0.0
9.93630620742063 8.042778076596578 0.0
7.166743296019233 4.593171678848165 0.0
6.595561806063966 5.839366735225723 0.0
6.066152182102007 5.262519562574559 0.0
9.834694151277489 0.9093455747994099 0.0
8.98259191950674 7.579732466796592 0.0
6.465071238839505 5.25485771955322 0.0
9.759759896588413 3.236659507608532 0.0
4.775529448101694 5.224235675150505 0.0
9.935991245222917 7.153416415978829 0.0
0.6530736820718381 9.352299998916202 0.0
0.6449439415299687 0.6468300344151556 0.0
7.804690364869245 4.495816547678174 0.0
9.84503784553893 5.70620404704573 0.0
9.83525329400959 3.826992990746767 0.0
9.922964894244684 4.265000406933376 0.0
8.333767638401964 1.121219971446645 0.0
8.876012546033895 7.019147158538482 0.0
8.172413577824324 3.413096916572049 0.0
7.232233017296214 4.478957103028363 0.0
6.214597295185415 3.852860083673202 0.0
9.85013791746415 4.400709747289421 0.0
3.941627380932058 6.342995010255737 0.0
3.097271569675528 8.77391871286929 0.0
9.292917152323044 6.010976049411984 0.0
8.104342196673183 5.184165973282902 0.0
8.994300084006271 3.652611812846807 0.0
9.937157897030163 5.549999999993244 0.0
8.721368888525245 7.274540720770752 0.0
8.920003648712827 0.9516585309368178 0.0
7.910527456030004 8.536826514867816 0.0
9.846441288756814 4.60515911863952 0.0
9.584942233925151 4.712073182517884 0.0
9.642357858573972 6.805672051759494 0.0
9.797024725252207 9.838837222258014 0.0
9.842451438022124 4.018973836958878 0.0
6.112723137676118 3.704473949316424 0.0
7.574641969193845 3.765362276156904 0.0
7.826594968121701 6.200366572362263 0.0
7.762805366733504 9.34009502796868 0.0
9.56854033867856 1.012566255816665 0.0
7.71256563655353 5.219373702836014 0.0
9.68039392238282 8.786964504862018 0.0
5.910362452777086 9.277662068919813 0.0
7.418090653922814 3.326443419100716 0.0
9.857704179097952 4.697553149694669 0.0
8.452469674653342 8.996585816905599 0.0
9.522351366699843 2.057525484575908 0.0
7.802315574700843 9.548878971475935 0.0
9.938875656926385 3.449999999992592 0.0
8.425189037911712 6.608575180629274 0.0
5.925965231566842 2.523669697740033 0.0
6.654918072256329 5.95749128982984 0.0
9.826748589235729 9.631118448471485 0.0
8.6684585637523 7.39633999085442 0.0
9.844673843931567 3.090088625379724 0.0
9.93613850661301 2.250382721159617 0.0
9.218291993658738 2.892108990205171 0.0
9.83502846611296 8.212781989607324 0.0
7.754136409732265 7.104288507262783 0.0
8.510570542791681 2.036933285735889 0.0
7.757745059307245 4.315798612475442 0.0
7.989231770559189 6.201656630465583 0.0
8.068934521422738 4.198631572122605 0.0
4.957478134450373 9.038766150325067 0.0
7.208661142641733 6.501402463831379 0.0
7.299506095906239 4.363561999234681 0.0
8.250303873550486 2.105322217421675 0.0
8.678637541413377 7.053471135702286 0.0
9.761528395137384 6.163503990672834 0.0
9.84494857233395 8.59999999999775 0.0
9.83825138794677 3.672838954969637 0.0
5.121008544047756 5.808127183024784 0.0
8.343911550360986 4.043535893276861 0.0
9.85324441775315 5.899999999993774 0.0
9.51114465213134 8.41035540646284 0.0
6.505812179224195 6.93390566262983 0.0
6.15572847138365 9.023097246950844 0.0
3.352081892333425 3.024853379890529 0.0
6.433163283162099 8.675072413910678 0.0
8.825744236698243 3.624446391299867 0.0
4.883007294861279 7.819620905924936 0.0
5.876659170760434 5.638247433601083 0.0
6.859400040348503 6.510797998354633 0.0
7.946400945409184 3.500317276373196 0.0
7.496830255505493 6.653194511698024 0.0
9.852183479755313 4.891525833556942 0.0
9.77998778436291 2.922486526124376 0.0
6.774672660492365 5.324728659740495 0.0
5.717254072187427 6.824125962512845 0.0
9.713440940838062 4.63793103997539 0.0
8.859858662536796 0.2721395536350836 0.0
8.37556017530946 9.436653414116012 0.0
7.395237381047616 7.885576562773319 0.0
5.4709157802033 4.511152089197594 0.0
9.489749416979361 9.691840729914848 0.0
4.599216022837964 3.46438688931078 0.0
5.572287492757569 4.807021644849729 0.0
9.926499336309957 9.92730688390086 0.0
9.926499336310107 0.07269311609890093 0.0
9.338127766332573 0.3585313952168247 0.0
6.810761948165162 3.414693294319008 0.0
8.166274345037138 5.943611545564389 0.0
5.2892644736731 6.301081312912763 0.0
9.731911074791544 7.649313380659622 0.0
8.90251102352767 9.50983415326544 0.0
8.997881406541017 1.033666784655452 0.0
5.835124768755703 2.738139962594905 0.0
9.665357480775825 6.185331297099201 0.0
7.656532192558493 8.217157287499347 0.0
9.170463887605525 2.975444721032631 0.0
4.208158615905443 0.8648302238584886 0.0
6.97015686031129 5.933674629077266 0.0
6.181941366523793 3.565885175921835 0.0
3.30313590337911 6.393402837735046 0.0
6.447482061767014 4.816169316820496 0.0
8.185341428749446 4.169172087371246 0.0
4.552595724340015 8.298301336212145 0.0
9.84850676569699 8.999999999998423 0.0
9.846941514449377 7.393642828194986 0.0
7.924592433490734 2.788309934035703 0.0
8.154308714226714 8.853640122009672 0.0
8.876629743004642 1.96110242719995 0.0
7.228849192966834 8.90811350348676 0.0
9.852301635085423 8.296637825215246 0.0
5.219795195341889 5.547413133147649 0.0
9.861497117995457 6.901363010201344 0.0
2.953911258021604 6.136007283255669 0.0
6.93158841067062 4.77708273647784 0.0
9.67540418457871 2.912802891506324 0.0
4.194055958522277 4.437353127730132 0.0
6.133959559341536 0.406856611599261 0.0
8.29952795189331 9.309744645643846 0.0
9.843692337952948 1.209647690818311 0.0
5.164986286280336 6.671544079402435 0.0
9.838533350075606 2.081705440779448 0.0
8.301244777513975 6.604088853319459 0.0
5.471494771710784 2.714598185146428 0.0
8.86534684892311 1.208599471795828 0.0
9.940610684232212 1.451558535868664 0.0
9.40896208432968 1.428353940655538 0.0
2.329177605337097 4.238803555614174 0.0
5.980761651517799 7.182207186682233 0.0
9.66541573964336 0.1719254072074424 0.0
7.220979380229172 7.806128737674462 0.0
1.251721227904697 6.151932667911503 0.0
8.104967286191181 6.057912607875576 0.0
6.650768762224724 4.817922869198292 0.0
6.634976350437587 3.213339182992986 0.0
7.034320437500567 4.898219100342838 0.0
9.502772020064167 6.283064492634301 0.0
8.13187938667684 3.518506862055515 0.0
9.855471943454193 2.599999999994991 0.0
9.056747742708522 8.263936599935574 0.0
4.352645795441222 5.724453640019 0.0
3.744263984699181 1.488951698361357 0.0
5.175860134287045 3.6375726667098 0.0
7.736434712114619 6.400417475661193 0.0
9.857658576695343 6.316607183405179 0.0
7.876525261950537 4.304285002335559 0.0
9.856114384785611 7.914602773442983 0.0
9.848334119947063 0.7059644476295188 0.0
9.59694321995579 6.895814046141667 0.0
5.906465212962551 3.869023950643881 0.0
9.840676994268005 9.364956386459765 0.0
5.355015287544095 3.83518170601625 0.0
6.374090407153147 5.855743754257685 0.0
8.227401290513832 5.297819733684674 0.0
5.451235131977493 4.825706629991923 0.0
6.022070213762754 5.355923882747634 0.0
9.845674433677614 6.108401449483281 0.0
9.835067400944396 7.739582406783081 0.0
8.602026805792988 2.941372356914139 0.0
5.059869081004962 5.269480960018243 0.0
5.284714507903736 5.26496663762182 0.0
9.627110479149561 7.660076105040499 0.0
6.820001127809743 4.792514421153957 0.0
5.120512795059439 4.806607659110254 0.0
9.56933817216883 2.911464407429096 0.0
9.74091654291531 9.267545397628387 0.0
9.93006767325302 6.576784040838644 0.0
9.642486276936268 4.650227701598451 0.0
5.185183328569137 9.410919109238325 0.0
9.37052946854105 4.605636695802024 0.0
1.677077220416309 5.871167715901136 0.0
7.345783833404538 3.184020711886284 0.0
5.419239942654976 5.982692039856376 0.0
6.133318300188262 2.551919945731369 0.0
6.187291396343277 4.499077117404439 0.0
1.231465237822878 3.921479198315213 0.0
8.969849937139944 9.699215363213542 0.0
9.218303154263054 6.037447959776716 0.0
CELLS 4886 19544
3 1113 1356 1450
3 1402 231 1659
3 272 269 1414
3 396 394 1777
3 1451 945 1452
3 194 81 1801
3 1847 1501 2104
3 2024 2121 2479
3 1115 1113 1450
3 1124 1413 1844
3 1061 1955 2409
3 307 305 1645
3 1592 1369 1593
3 238 1501 1847
3 1955 1883 2409
3 1808 243 1910
3 1885 978 2362
3 1440 793 2092
3 189 1488 1608
3 353 350 1864
3 2007 2231 2232
3 307 1645 2493
3 1096 1760 2496
3 2178 874 2179
3 621 625 1595
3 1493 1480 1938
3 1655 1268 2137
3 1341 1410 2212
3 243 1808 2360
3 1902 1446 2516
3 1760 1096 1763
3 856 790 2180
3 2008 2046 2105
3 789 1809 2067
3 694 1543 1575
3 1127 1762 1953
3 1748 807 2228
3 1543 1308 1575
3 820 1872 2170
3 1417 954 1998
3 1369 1592 2386
3 272 1414 1787
3 329 333 1998
3 1544 1095 1545
3 2231 1490 2232
3 1342 1683 1790
3 374 377 1797
3 807 1678 2228
3 1665 198 2128
3 141 142 1620
3 325 322 1952
3 231 1402 1654
3 198 1665 2010
3 1890 1307 2387
3 208 1438 1619
3 2016 1970 2156
3 1436 212 2020
3 954 1417 2333
3 1736 1894 2244
3 1491 1750 2143
3 1677 1064 2146
3 1474 1258 1475
3 1500 233 1930
3 1446 2415 2516
3 1700 973 1800
3 2128 2270 2316
3 1316 1315 1593
3 1307 2341 2387
3 2258 1324 2328
3 1083 1507 1508
3 693 1095 1544
3 621 1595 1596
3 667 1571 1872
3 1932 1766 2061
3 393 391 2240
3 1342 1790 2400
3 252 1707 2234
3 931 978 1885
3 1430 1116 1704
3 1411 1109 1714
3 1478 1227 2440
3 1990 195 2297
3 1792 1167 1985
3 1682 444 1975
3 394 397 1777
3 1711 2028 2162
3 1574 856 2180
3 2008 1851 2046
3 736 1493 1938
3 1069 1060 1662
3 1458 455 1754
3 862 691 1705
3 1161 1642 2286
3 1699 1700 1800
3 447 516 1637
3 955 1482 1483
3 2024 206 2121
3 391 1773 2240
3 1072 1412 1893
3 212 1436 2350
3 1566 1365 1568
3 259 1441 1672
3 872 870 1764
3 330 328 1889
3 1539 1161 2286
3 1897 1898 2275
3 1434 1990 2297
3 1109 1411 1730
3 319 307 2493
3 1762 1761 1953
3 1369 1316 1593
3 1540 834 1832
3 1505 652 2442
3 1732 1655 2137
3 921 1712 2295
3 1872 1388 2170
3 1712 921 2125
3 2028 244 2162
3 1506 1570 1680
3 1569 368 1964
3 1571 667 2375
3 1587 2178 2179
3 196 1723 1737
3 524 2016 2156
3 1528 1250 1733
3 1115 1450 1973
3 1938 1480 1971
3 1809 1396 2067
3 1641 249 2299
3 1223 1258 1474
3 1365 1566 2120
3 1981 962 2316
3 1538 353 1864
3 455 1458 1756
3 152 233 1500
3 1116 1430 1703
3 817 652 1505
3 1347 2003 2004
3 1607 1958 2085
3 194 1801 2195
3 1410 1341 2351
3 223 1415 1710
3 197 1511 2346
3 2198 787 2225
3 81 82 1801
3 1438 208 1620
3 1444 522 1823
3 1511 197 1950
3 726 718 1567
3 1637 516 1739
3 1708 2337 2341
3 1280 1649 2124
3 2337 1395 2341
3 1327 1709 2315
3 1225 1227 1478
3 691 624 1705
3 476 2224 2305
3 830 832 2204
3 1750 1491 2403
3 1366 1897 2275
3 2345 1583 2352
3 2054 405 2110
3 1984 2172 2230
3 1846 2198 2225
3 1177 2042 2418
3 2121 1367 2479
3 1527 1531 1541
3 916 1039 1834
3 1413 1124 2467
3 1622 1503 1868
3 249 1641 2019
3 1805 405 2054
3 1761 1007 1953
3 1415 223 2395
3 960 1756 2203
3 368 1569 2135
3 1402 1659 2473
3 941 1433 2471
3 1267 1477 1501
3 260 2002 2265
3 1704 558 2077
3 2224 1886 2305
3 2053 1386 2199
3 1452 945 1952
3 1717 1611 1718
3 1682 1975 2230
3 1760 1762 2496
3 1481 203 2104
3 1264 1266 1670
3 142 236 1620
3 2133 1182 2179
3 1791 1602 2183
3 350 346 1864
3 1412 1072 2393
3 1281 1575 2255
3 1565 1948 2155
3 849 1449 1513
3 1958 396 2085
3 1339 1069 1662
3 834 1540 1917
3 269 267 1414
3 1268 1267 1501
3 1440 2092 2468
3 1399 1981 2316
3 1635 1636 2041
3 1454 252 2234
3 1451 1305 1890
3 1375 1883 1955
3 362 366 1786
3 1484 2410 2528
3 1449 849 1640
3 1267 1474 1477
3 200 1611 1717
3 1054 1581 1582
3 1350 1977 2253
3 190 1390 2118
3 788 1956 2193
3 1709 1327 1888
3 2233 2298 2413
3 1488 189 2355
3 478 1685 1714
3 230 1525 1690
3 1687 478 1688
3 427 429 1756
3 1570 1065 2476
3 1880 1133 1988
3 1649 656 2124
3 1537 209 1614
3 1134 1769 1986
3 1220 1268 1655
3 396 1777 2085
3 1167 1755 1985
3 2229 1744 2296
3 1575 1281 2287
3 127 240 1882
3 377 647 1797
3 954 329 1998
3 220 1697 1698
3 1342 1341 2212
3 1441 264 1672
3 1512 188 2433
3 763 2345 2352
3 1685 1411 1714
3 1805 1188 1951
3 1347 2004 2157
3 1054 1582 1667
3 1333 1617 1674
3 2217 73 2361
3 1539 1036 1917
3 1039 1292 1834
3 208 141 1620
3 1965 1964 2038
3 693 1544 1969
3 1453 239 2279
3 203 1481 2049
3 945 1451 1889
3 680 1459 2134
3 354 2147 2196
3 1405 1932 2061
3 1723 1722 1737
3 1748 1175 1927
3 1532 1528 1733
3 2057 1824 2154
3 1406 1659 1702
3 1948 1186 2155
3 210 1598 2114
3 1685 478 1687
3 1324 1325 2328
3 1526 1250 1527
3 165 166 1509
3 1493 736 2523
3 1526 1527 1541
3 1390 190 2417
3 522 1444 1998
3 1680 1570 1732
3 1017 1442 2525
3 374 1797 2430
3 1507 1083 2197
3 1756 960 2221
3 2270 1400 2316
3 2205 1452 2282
3 1074 1187 1888
3 2158 1245 2200
3 1442 1017 1684
3 864 1116 1703
3 1750 1751 2143
3 1456 516 1492
3 1677 2146 2149
3 2022 1339 2388
3 1602 258 2183
3 678 1594 1595
3 1245 1670 2200
3 972 830 2204
3 2143 983 2342
3 1268 1501 2226
3 1266 1461 1670
3 1487 222 2465
3 1382 2022 2388
3 58 59 1661
3 2147 1543 2196
3 1484 1485 2410
3 628 2053 2199
3 1906 1549 2259
3 364 362 1786
3 1339 2022 2247
3 1636 525 2041
3 625 678 1595
3 678 1593 1594
3 2212 1410 2222
3 1837 1865 2215
3 1699 1800 1801
3 866 864 1703
3 893 1472 1982
3 1735 1736 2244
3 1633 1255 1922
3 126 127 1882
3 681 867 1656
3 1351 1401 2363
3 11 228 1588
3 1127 1953 2454
3 265 266 267
3 1722 1122 1737
3 1389 1691 2069
3 1613 1610 1616
3 1227 1256 2440
3 429 455 1756
3 1535 1177 2418
3 322 324 1952
3 973 1700 1802
3 1964 368 2038
3 1176 1865 1866
3 1096 872 1764
3 1176 1866 1875
3 193 1839 1892
3 156 157 1441
3 615 617 1596
3 686 1520 2480
3 1409 2097 2305
3 2410 1151 2528
3 1427 2217 2361
3 440 1911 2314
3 1744 1743 2296
3 516 1456 1739
3 1939 589 2164
3 690 931 2150
3 1062 1579 1580
3 1054 1580 1581
3 955 1483 1716
3 1064 1677 2248
3 1956 1616 2193
3 1776 1893 2026
3 1398 1115 1973
3 2002 1453 2265
3 1541 1531 1542
3 216 2191 2536
3 1736 1326 1894
3 1065 994 1066
3 1598 2115 2175
3 2314 1911 2358
3 1433 941 2042
3 2115 1209 2175
3 717 1550 1551
3 188 1941 2433
3 267 1132 1414
3 771 1569 2064
3 1157 1545 1546
3 1231 1250 1526
3 1933 240 2181
3 222 1487 2025
3 1525 230 1765
3 1430 1704 2077
3 757 1744 2495
3 264 263 265
3 883 773 1917
3 739 2205 2282
3 1667 1582 2434
3 1744 757 2474
3 239 1453 2002
3 1441 259 2356
3 2005 1443 2012
3 254 1766 1932
3 1509 166 1679
3 1477 1475 1481
3 793 1440 2165
3 1385 1523 2377
3 1481 1475 2523
3 156 1441 2356
3 1066 1220 1655
3 945 325 1952
3 2094 2087 2134
3 1747 1175 1748
3 253 262 263
3 1327 1074 1888
3 718 715 1567
3 2046 1043 2105
3 240 1933 2399
3 1305 1307 1890
3 224 58 1661
3 1195 1566 2285
3 1590 1393 1749
3 1255 1230 1922
3 353 1538 2073
3 358 1999 2325
3 882 1802 2036
3 1024 1020 1604
3 333 522 1998
3 1401 1351 2414
3 1475 1258 1476
3 2310 786 2364
3 328 945 1889
3 807 1748 1927
3 825 724 1912
3 1742 263 2491
3 267 266 1132
3 2077 2102 2203
3 1431 1432 1860
3 1212 1957 2312
3 2097 476 2305
3 1132 1402 2473
3 717 713 1550
3 1746 693 1969
3 1372 1124 1844
3 1256 1541 2269
3 1977 1350 2274
3 2332 1978 2443
3 874 2133 2179
3 1983 1534 2171
3 1157 1544 1545
3 1230 1228 1922
3 1580 1579 1581
3 1565 806 1948
3 1416 1363 2413
3 1287 1995 2398
3 265 263 266
3 1534 1529 2171
3 1604 1834 2428
3 1255 1633 2509
3 1344 1643 1644
3 1332 1388 1571
3 1423 217 2217
3 2191 1057 2451
3 458 447 1637
3 1250 1233 1733
3 472 2212 2222
3 1175 1747 1840
3 1652 256 1653
3 1073 1347 1572
3 200 145 1609
3 683 640 1585
3 1116 862 1705
3 1221 1223 1474
3 1778 801 1803
3 1503 1622 2471
3 1475 1493 2523
3 464 680 2134
3 14 210 2114
3 579 1880 1988
3 1434 1435 1990
3 1447 2310 2364
3 275 274 276
3 2294 1871 2419
3 814 1068 1684
3 1172 1439 2273
3 273 272 274
3 1363 1416 2406
3 1220 1219 1221
3 1060 1656 1662
3 1099 1792 1985
3 2048 1198 2168
3 1241 1245 2323
3 699 723 1753
3 1640 1862 2070
3 910 1018 1584
3 1586 1067 1587
3 1656 867 1662
3 1067 686 2480
3 654 2242 2294
3 1593 1315 1594
3 1880 553 1974
3 236 1717 1718
3 617 621 1596
3 1723 196 2313
3 402 1877 2116
3 273 274 275
3 2202 1869 2252
3 1510 1358 1767
3 193 1892 2373
3 1188 1805 2054
3 1220 1221 1267
3 1066 1218 1219
3 1517 1097 1518
3 1677 1676 1858
3 686 277 1520
3 268 267 269
3 697 857 1592
3 220 1698 1699
3 1802 1700 2036
3 1612 1537 1614
3 929 817 994
3 228 12 2136
3 2110 2116 2482
3 1659 1658 1702
3 1611 1613 2280
3 1344 991 1643
3 683 1585 1604
3 1638 1358 2404
3 1485 1034 2410
3 2214 833 2424
3 271 272 273
3 1482 955 1962
3 1066 1219 1220
3 931 1885 2150
3 1613 1891 2280
3 1189 1589 2204
3 1566 1195 2120
3 726 1567 2490
3 1122 1722 1874
3 1494 319 2493
3 1671 259 1672
3 1267 1221 1474
3 603 528 1591
3 1664 2128 2316
3 1817 1924 2174
3 1626 1660 2111
3 1474 1475 1477
3 1023 1062 1580
3 1957 1599 2312
3 1764 1939 2164
3 1358 1950 2404
3 200 1609 1610
3 1431 1082 1432
3 1778 1803 2521
3 1830 1832 2075
3 1930 233 2369
3 1329 1482 1650
3 757 1959 2522
3 1239 1247 1597
3 758 1978 2332
3 1569 1290 2064
3 216 1694 2191
3 1453 1420 2265
3 1549 1906 2129
3 24 215 1674
3 19 235 1676
3 1621 1057 2191
3 1691 1389 2262
3 1617 1333 2192
3 929 994 1065
3 1769 1672 1986
3 1893 1412 2026
3 1609 1537 1612
3 271 269 272
3 1373 1438 1620
3 217 1423 2381
3 517 330 1889
3 1322 1055 1667
3 1974 553 2499
3 228 2136 2187
3 1589 1189 1788
3 1999 1577 2325
3 2110 405 2116
3 189 1608 1842
3 1055 1050 1667
3 739 1455 2205
3 1865 1176 2215
3 319 1494 2522
3 2474 757 2522
3 1484 227 1485
3 10 11 1588
3 723 809 1753
3 27 230 1689
3 1550 806 1565
3 1179 1180 1217
3 207 1617 2192
3 1433 1217 1502
3 1562 1556 1606
3 1379 2017 2018
3 1245 2158 2323
3 675 1097 1517
3 884 501 1599
3 1020 683 1604
3 1603 1095 1848
3 1001 2057 2154
3 1604 1585 1834
3 1610 1612 1616
3 1764 870 1939
3 2242 1871 2294
3 1669 1264 1670
3 1658 213 1702
3 1995 1646 2398
3 631 539 1600
3 1491 2143 2342
3 1801 1800 2195
3 1200 1199 1693
3 1535 940 1861
3 1534 758 2332
3 914 2258 2328
3 1588 228 2457
3 216 138 1694
3 151 152 1500
3 1133 1880 1974
3 1677 1858 2248
3 1294 1622 1868
3 875 1010 1767
3 1379 2018 2416
3 1279 2202 2252
3 182 256 1652
3 1592 857 2386
3 672 681 1656
3 615 1596 1824
3 1093 1487 1623
3 1823 522 2100
3 1245 1242 1669
3 1582 1581 1583
3 758 1534 2306
3 1975 1984 2230
3 1358 1510 1950
3 1663 1336 1665
3 2102 960 2203
3 366 1087 1786
3 1740 1490 2231
3 21 207 1709
3 145 146 1609
3 2339 765 2384
3 603 1591 1668
3 2081 199 2149
3 1540 1832 1879
3 1721 1723 1947
3 1754 455 1793
3 1751 1753 2119
3 882 1701 1807
3 1540 1539 1917
3 242 1695 1697
3 1521 354 2091
3 1363 2233 2413
3 1584 1018 1925
3 703 1067 1586
3 1177 1178 1179
3 795 916 1834
3 277 276 607
3 1571 1388 1872
3 22 23 1617
3 1097 823 1177
3 25 26 1624
3 419 418 1790
3 1728 1906 2259
3 440 1455 2261
3 1877 1318 2116
3 1488 1156 1608
3 1439 2130 2273
3 1889 1451 1890
3 1614 209 2389
3 1472 893 2094
3 675 821 823
3 23 24 1674
3 1788 1190 2183
3 917 941 1622
3 1763 1096 1764
3 1068 1442 1684
3 1034 1485 2173
3 2172 1533 2230
3 138 139 1694
3 1065 1570 2197
3 607 674 675
3 1536 1248 2268
3 229 135 1734
3 1437 1925 1926
3 680 510 1646
3 147 209 1537
3 26 27 1689
3 1627 705 2163
3 206 1651 2121
3 2409 1785 2462
3 1492 682 2447
3 1223 1225 1258
3 889 1772 2374
3 253 263 264
3 275 276 277
3 1455 739 2261
3 2022 1382 2176
3 150 227 1484
3 639 1019 1591
3 1449 1640 2070
3 1082 833 2214
3 1503 1502 1504
3 144 200 1717
3 1643 991 1713
3 1190 1791 2183
3 1538 1804 2073
3 1256 2269 2440
3 18 19 1676
3 521 531 2000
3 790 849 2180
3 1075 1329 1650
3 1087 1782 1785
3 1066 994 1218
3 270 269 271
3 682 1492 2494
3 185 252 1454
3 253 158 262
3 1629 1632 1633
3 200 1610 1611
3 1477 1481 2104
3 1623 1487 2465
3 1518 1097 1535
3 1414 1132 2460
3 1179 1217 1433
3 177 1506 1680
3 1392 1017 2525
3 1832 834 2075
3 675 823 1097
3 1459 2094 2134
3 1782 1087 1795
3 1838 1730 2372
3 1639 149 2528
3 1617 23 1674
3 2265 1420 2489
3 180 232 1859
3 1527 1250 1528
3 20 21 1709
3 1083 1508 2311
3 903 866 1703
3 1455 440 2314
3 1187 1858 1888
3 1659 1406 2473
3 1446 1902 2166
3 421 1951 2106
3 1598 210 2115
3 154 259 1671
3 1288 1835 2080
3 1832 1831 1879
3 1258 1225 1478
3 1024 1604 2117
3 1263 1429 1739
3 706 705 1627
3 1583 1581 2352
3 407 1805 1951
3 856 1574 2527
3 1701 882 2036
3 1624 26 1689
3 717 1551 1552
3 1385 2377 2391
3 2302 1745 2354
3 1572 1347 2157
3 1036 883 1917
3 1689 1690 1691
3 1664 1665 2128
3 1476 1479 1480
3 1751 2119 2143
3 815 814 1684
3 1790 889 2400
3 1606 1607 2085
3 265 267 268
3 418 889 1790
3 1522 1521 2091
3 135 136 1734
3 1726 1445 1729
3 647 1796 1797
3 1346 1453 2279
3 1293 1827 2117
3 1242 1244 1669
3 1853 1852 1854
3 889 2374 2400
3 1039 1038 1290
3 1524 628 2199
3 1331 1332 1571
3 1291 1290 1569
3 1475 1476 1493
3 1850 1852 1853
3 1490 1740 2456
3 1689 230 1690
3 1256 1526 1541
3 1704 1705 2167
3 1465 1470 1675
3 956 1073 1572
3 1613 1616 1956
3 916 917 1038
3 2014 1522 2091
3 1221 1222 1223
3 1999 763 2352
3 234 10 1588
3 1697 220 2335
3 1527 1528 1529
3 2298 1600 2413
3 1436 2020 2254
3 1642 1161 1678
3 1523 1385 2436
3 1730 1838 2426
3 795 796 916
3 713 711 1550
3 1456 1263 1739
3 999 1336 1663
3 1785 1784 2462
3 409 415 1783
3 607 675 1517
3 1229 1231 1526
3 1958 1855 2078
3 1589 1588 1590
3 1933 261 2380
3 762 1965 2038
3 1756 1458 2203
3 1776 597 1893
3 1794 1072 1893
3 188 1512 2266
3 1774 2339 2384
3 188 1908 1941
3 1010 1510 1767
3 2189 2285 2307
3 773 834 1917
3 1245 1669 1670
3 1248 1597 2268
3 146 1537 1609
3 818 910 1584
3 1641 1313 1651
3 1217 1745 2302
3 1065 1066 1655
3 1597 1247 2047
3 1360 2177 2376
3 1612 1615 1616
3 2126 867 2186
3 1019 683 1020
3 1747 892 1840
3 1092 1093 1623
3 261 1933 2181
3 400 424 1666
3 1516 1903 2377
3 1100 1392 1605
3 247 1738 1881
3 268 1134 1986
3 1177 823 1178
3 884 1599 1957
3 263 262 2491
3 806 1627 1948
3 1227 1229 1256
3 191 1729 2504
3 1636 1635 2502
3 1480 1479 1601
3 1721 1947 2498
3 1924 1146 2174
3 229 1734 1735
3 175 204 1725
3 1179 1178 1180
3 354 1521 2147
3 665 697 1592
3 640 646 1585
3 627 545 1636
3 1882 240 2399
3 1556 1555 1606
3 1373 1620 2394
3 1871 1071 2419
3 548 1628 1629
3 455 436 1793
3 974 1831 1841
3 1844 1413 2392
3 1612 1614 1615
3 209 1639 1937
3 1329 1330 1331
3 1823 2100 2142
3 1097 1177 1535
3 1021 1020 1022
3 825 1912 2455
3 913 1122 1874
3 400 1666 2113
3 1256 1229 1526
3 1419 1418 2450
3 1552 1551 1553
3 1850 1099 1852
3 1629 1631 1632
3 801 685 2029
3 1618 1619 1621
3 265 268 1986
3 1715 2165 2330
3 1531 1529 1534
3 1022 1024 1576
3 658 693 1746
3 703 686 1067
3 1062 1576 1577
3 1023 1022 1062
3 236 1718 2394
3 1688 502 1740
3 1501 1477 2104
3 213 165 1509
3 646 795 1585
3 196 1737 1738
3 379 679 1795
3 639 640 683
3 924 875 1767
3 1752 699 1753
3 207 2192 2315
3 627 1636 1660
3 1217 1180 1745
3 730 728 1833
3 528 561 1591
3 1444 1417 1998
3 252 186 1602
3 1729 1445 2504
3 460 502 1688
3 1418 946 1778
3 1203 1200 1693
3 548 470 1628
3 849 668 1640
3 646 785 795
3 607 276 674
3 14 15 210
3 147 148 209
3 478 460 1688
3 1709 207 2315
3 1157 1546 1608
3 1155 1731 1899
3 1524 1934 2390
3 1775 921 1876
3 1433 1502 1503
3 470 458 1628
3 1223 1224 1225
3 1291 1569 1964
3 871 1056 1826
3 1781 1783 1915
3 1587 1067 2300
3 916 1038 1039
3 1388 1387 1389
3 1611 1610 1613
3 1075 1328 1329
3 1039 1290 1291
3 1538 1265 1804
3 1184 1185 2163
3 597 598 1794
3 1450 1356 2421
3 1835 576 2080
3 1629 1628 1631
3 1331 1330 1332
3 561 639 1591
3 1476 1480 1493
3 705 703 1586
3 639 683 1019
3 1951 1188 2106
3 436 446 1793
3 1472 1297 2142
3 1332 1387 1388
3 1345 984 1720
3 1329 1328 1330
3 1050 1048 1667
3 150 151 227
3 11 12 228
3 557 541 2256
3 1831 974 1879
3 134 229 1766
3 1357 1358 1638
3 1336 1641 2299
3 1650 1482 1962
3 1591 1019 2512
3 1506 1507 1570
3 1803 801 2029
3 1178 823 1972
3 1552 1553 1554
3 1290 1038 1294
3 1028 1313 1641
3 1237 1239 1597
3 993 1017 1100
3 893 2087 2094
3 149 1484 2528
3 1768 1142 1949
3 9 234 1673
3 1554 1553 1555
3 668 632 1640
3 711 806 1550
3 1628 458 1637
3 1098 1829 1830
3 1482 1331 1483
3 531 1818 2000
3 435 419 1790
3 1156 1157 1608
3 1182 1184 2179
3 510 512 1646
3 1231 1233 1250
3 946 841 1778
3 1483 1331 1571
3 1459 680 2458
3 1166 1040 1210
3 892 1657 1820
3 1042 1445 1726
3 1019 1020 1021
3 749 805 1810
3 234 1588 1589
3 1695 242 1892
3 556 1853 2483
3 1018 1572 1573
3 1529 1528 1530
3 1606 1558 1607
3 1761 1759 2308
3 1396 1032 1921
3 1018 956 1572
3 689 1150 1416
3 1827 1293 2515
3 149 150 1484
3 1647 656 1648
3 1543 694 2196
3 399 409 1783
3 545 525 1636
3 268 269 270
3 715 713 717
3 1100 1017 1392
3 1657 892 1747
3 207 22 1617
3 1666 884 2249
3 1671 1672 1769
3 1554 1555 1556
3 146 147 1537
3 1081 1444 1822
3 711 709 806
3 1443 2005 2322
3 660 658 1746
3 1166 1458 1754
3 916 796 917
3 1056 1728 1826
3 1068 1069 1275
3 184 185 1454
3 158 159 262
3 2007 1687 2231
3 805 1708 1810
3 1672 264 1986
3 1561 1562 1563
3 978 1075 1650
3 1590 1588 2457
3 215 25 1624
3 1551 1550 1565
3 1073 1346 1347
3 857 818 1584
3 1648 656 1649
3 675 674 821
3 561 594 639
3 1731 529 1899
3 2303 1454 2535
3 981 903 1040
3 1630 1629 1633
3 993 877 1017
3 724 718 726
3 512 603 1646
3 1676 235 1858
3 814 1060 1068
3 715 717 1567
3 1796 647 1870
3 1715 1171 2165
3 678 1592 1593
3 644 613 1824
3 1690 1525 2145
3 1297 1822 1823
3 271 656 1647
3 1704 1116 1705
3 1225 1226 1227
3 1275 1069 1338
3 910 956 1018
3 1824 1596 2154
3 1403 1100 1605
3 1221 1219 1222
3 1068 1060 1069
3 1901 245 1949
3 1081 1055 1321
3 1751 563 1752
3 1021 1022 1023
3 672 638 681
3 1095 657 1848
3 1235 1237 1248
3 1561 1556 1562
3 1265 1259 1804
3 524 1819 2016
3 978 1650 2362
3 1492 516 2494
3 229 1735 2061
3 185 186 252
3 157 158 253
3 152 153 233
3 9 10 234
3 1527 1529 1531
3 1808 1344 2360
3 1062 1577 1579
3 1509 1679 1977
3 424 454 1666
3 637 638 672
3 981 1040 1166
3 1555 1558 1606
3 751 749 1810
3 1166 1210 1458
3 1651 1313 2121
3 15 16 2260
3 1633 1632 2509
3 2167 1705 2276
3 551 602 2045
3 697 818 857
3 364 1786 1883
3 832 1189 2204
3 1476 1478 1479
3 678 665 1592
3 213 1509 2096
3 1015 888 1124
3 1062 1022 1576
3 679 1782 1795
3 680 1646 1995
3 1101 1100 1403
3 1109 433 1714
3 1248 1237 1597
3 733 730 1833
3 1702 213 2096
3 499 498 1828
3 1418 1778 2521
3 637 600 638
3 1048 1046 1054
3 1577 1576 1578
3 814 766 1060
3 1279 2252 2292
3 474 470 548
3 199 18 1676
3 157 253 1441
3 1048 1054 1667
3 471 472 2290
3 625 665 678
3 795 785 796
3 1264 1265 1266
3 1437 1926 2350
3 1362 2048 2168
3 1394 2337 2371
3 454 884 1666
3 1022 1020 1024
3 751 1810 1923
3 1046 1023 1580
3 1807 1701 1931
3 1618 208 1619
3 566 588 689
3 1828 498 1829
3 501 509 1599
3 1118 780 1775
3 878 817 929
3 1510 1511 1950
3 1618 1621 1694
3 1052 1081 1822
3 1416 1150 1715
3 1239 1241 1247
3 1396 1921 2067
3 1751 1752 1753
3 1264 1259 1265
3 539 566 1600
3 1762 1127 2496
3 1673 1788 2183
3 1555 1557 1558
3 1052 1050 1055
3 725 724 825
3 1142 1770 1771
3 681 853 867
3 454 501 884
3 1346 1420 1453
3 932 1147 1770
3 1546 1545 1547
3 533 582 1818
3 1266 1337 1460
3 1872 820 2318
3 1117 1119 1713
3 1081 1321 1417
3 1253 1259 1264
3 1569 771 2135
3 1052 1055 1081
3 1181 1178 1972
3 709 706 1627
3 1073 1076 1346
3 1098 1828 1829
3 1382 1380 2176
3 1442 1275 1443
3 919 999 1663
3 1789 828 1855
3 877 815 1684
3 509 539 631
3 992 877 993
3 1266 1265 1337
3 2268 1498 2340
3 1130 1032 1396
3 1095 1603 2508
3 886 826 887
3 531 533 1818
3 1131 1400 1881
3 447 437 516
3 2460 1132 2473
3 940 1535 2418
3 768 1873 2037
3 1813 1869 1954
3 1627 2163 2488
3 1497 1495 1645
3 1198 1409 2168
3 724 726 1912
3 1869 987 1954
3 763 1999 2338
3 1010 1170 1374
3 984 976 1720
3 1470 1743 1744
3 689 588 1150
3 1901 1949 2359
3 1640 632 1862
3 274 272 1787
3 563 564 1752
3 994 817 1505
3 737 1807 1931
3 1770 1147 1771
3 1233 1235 1733
3 2450 1418 2521
3 414 410 1821
3 908 1099 1850
3 1227 1228 1229
3 1692 1203 1693
3 1625 216 2194
3 512 528 603
3 1377 1357 1638
3 1465 1464 1470
3 1360 1359 2177
3 1686 2007 2095
3 1336 1028 1641
3 1857 751 1923
3 1758 572 1759
3 553 541 557
3 1171 1715 1811
3 956 1003 1073
3 1467 1465 1675
3 719 718 724
3 1509 1977 2096
3 1734 1625 1736
3 1503 1504 1868
3 592 597 1776
3 180 181 232
3 162 163 231
3 2308 1759 2370
3 1357 1114 1358
3 875 946 1010
3 509 631 1599
3 17 18 199
3 144 145 200
3 1099 906 1792
3 1469 1467 1494
3 605 589 1939
3 1208 1205 1211
3 354 344 2091
3 692 782 804
3 1010 946 1170
3 1463 1462 1464
3 716 715 718
3 714 713 715
3 271 273 656
3 139 1618 1694
3 549 277 686
3 673 672 766
3 1378 1377 1379
3 2007 868 2095
3 999 1028 1336
3 1208 1211 1447
3 601 545 627
3 1119 1643 1713
3 1332 1333 1387
3 910 912 956
3 520 521 2000
3 828 1789 1819
3 277 607 1520
3 1338 1339 2247
3 818 819 910
3 767 766 814
3 712 711 713
3 1494 1467 1675
3 639 594 640
3 2044 557 2256
3 235 20 1709
3 1620 236 2394
3 804 919 962
3 1862 702 2070
3 681 852 853
3 1559 1556 1561
3 1622 941 2471
3 2165 1440 2330
3 612 644 692
3 697 698 818
3 1903 1516 1994
3 371 379 1795
3 428 426 2138
3 1290 1294 2064
3 1384 1904 2432
3 566 689 1600
3 471 452 472
3 1092 1091 1093
3 1002 1131 1719
3 1090 1089 1091
3 875 841 946
3 1758 1760 1763
3 1562 1606 2085
3 1833 1830 2075
3 178 179 214
3 164 165 213
3 769 923 1815
3 692 644 782
3 804 782 919
3 182 183 256
3 160 161 257
3 1329 1331 1482
3 962 1663 1664
3 1177 1179 2042
3 403 405 1805
3 1461 1460 1462
3 140 208 1618
3 1859 232 1860
3 274 1787 2099
3 1381 2126 2186
3 1558 1560 1789
3 430 428 682
3 452 435 1683
3 1487 1156 1488
3 1470 1464 1743
3 597 1794 1893
3 1244 1253 1669
3 962 919 1663
3 258 8 1673
3 1087 1785 1786
3 970 1042 1726
3 199 1677 2149
3 1664 1663 1665
3 1229 1230 1231
3 991 827 1713
3 792 1603 1848
3 1822 1444 1823
3 665 666 697
3 19 20 235
3 142 143 236
3 728 1098 1833
3 532 530 1898
3 1015 1124 1372
3 1546 1547 1548
3 1851 1850 1853
3 1877 393 2240
3 923 1105 1815
3 1090 1091 1092
3 687 686 703
3 1683 435 1790
3 887 826 1961
3 684 663 1089
3 426 1934 2138
3 464 510 680
3 853 854 855
3 568 572 1758
3 1376 1357 1377
3 1205 1203 1692
3 1607 1789 1855
3 710 709 711
3 780 781 1775
3 1434 1103 1435
3 876 815 877
3 766 672 1656
3 1393 1590 2457
3 684 1089 1090
3 530 890 1898
3 926 1920 1943
3 696 414 1821
3 1563 1562 1777
3 1054 1046 1580
3 1398 1973 1974
3 137 216 1625
3 1210 1040 1430
3 1750 563 1751
3 2010 1665 2299
3 1510 1374 1511
3 1777 1562 2085
3 1707 252 1791
3 1932 1404 1933
3 459 438 1814
3 139 140 1618
3 1093 1156 1487
3 231 163 1658
3 699 722 723
3 1545 1095 2508
3 598 612 1794
3 579 554 1880
3 1941 1908 2401
3 1231 1232 1233
3 1831 1829 1841
3 1037 1383 1799
3 177 178 1506
3 636 600 637
3 1036 1539 2286
3 1356 1114 1357
3 1523 1516 2377
3 704 703 705
3 403 402 405
3 648 792 1848
3 723 756 808
3 1388 1389 2170
3 933 932 1770
3 223 1710 1711
3 1779 399 1783
3 1223 1222 1224
3 1028 1029 1313
3 257 161 1654
3 418 412 421
3 734 882 1807
3 693 657 1095
3 1368 1370 1436
3 136 137 1625
3 688 652 817
3 1075 1327 1328
3 540 479 1813
3 398 395 402
3 548 1629 1630
3 574 591 699
3 1469 1494 1495
3 1041 1598 2175
3 167 168 202
3 175 176 204
3 2045 2046 2201
3 186 187 1602
3 886 887 888
3 1253 1254 1259
3 8 9 1673
3 792 655 810
3 843 1145 1960
3 1180 1349 1745
3 1165 1345 1512
3 708 706 709
3 136 1625 1734
3 21 22 207
3 140 141 208
3 625 626 665
3 1093 1094 1156
3 1585 795 1834
3 1117 1713 1806
3 599 579 600
3 810 871 1826
3 1047 1046 1048
3 1292 1291 1293
3 161 162 1654
3 199 1676 1677
3 1260 1282 1804
3 1005 1142 1768
3 1233 1234 1235
3 792 810 922
3 1122 1719 1737
3 976 985 1720
3 1278 1279 2292
3 2390 1934 2531
3 1436 1437 2350
3 270 271 1647
3 1199 966 1846
3 1683 1342 2212
3 656 273 2124
3 699 591 722
3 1977 1139 2096
3 1738 1719 1881
3 1722 985 1874
3 1797 1448 1798
3 162 231 1654
3 632 604 1862
3 252 1602 1791
3 1051 1050 1052
3 1045 1023 1046
3 648 655 792
3 993 1100 1101
3 1321 1055 1322
3 806 709 1627
3 904 903 981
3 1220 1267 1268
3 648 605 655
3 1737 1719 1738
3 385 399 1779
3 506 499 1828
3 1132 266 1402
3 1170 1418 1419
3 1323 2302 2354
3 24 25 215
3 137 138 216
3 721 965 1919
3 1787 1414 2460
3 778 1117 1806
3 723 722 756
3 407 403 1805
3 564 574 1752
3 1049 1048 1050
3 842 841 875
3 1608 1546 1842
3 809 808 899
3 1517 1519 1520
3 1530 1532 1533
3 889 421 1772
3 913 1002 1122
3 1314 1316 1367
3 1017 877 1684
3 841 802 1778
3 1235 1236 1237
3 751 1857 1900
3 1114 924 1767
3 1344 1644 2360
3 1895 1394 2371
3 1518 1535 1861
3 1758 1759 1760
3 1122 1002 1719
3 546 563 1750
3 1056 1726 1727
3 663 660 1746
3 621 622 625
3 1720 985 1721
3 1857 1843 1900
3 808 756 913
3 1056 970 1726
3 27 28 230
3 134 135 229
3 908 906 1099
3 163 164 1658
3 1727 1726 1729
3 7 8 258
3 154 155 259
3 1101 1403 1404
3 808 913 1874
3 1260 1269 1282
3 1389 1387 2262
3 1297 1053 1822
3 1555 1553 1557
3 1463 1464 1465
3 230 28 1765
3 1237 1238 1239
3 554 553 1880
3 775 778 1806
3 985 899 1874
3 1270 1524 2199
3 489 1820 1936
3 692 1072 1794
3 1472 2142 2272
3 1845 496 1929
3 438 431 1814
3 613 615 1824
3 1241 1242 1245
3 1783 415 1915
3 1192 2081 2149
3 178 214 1506
3 1816 988 1817
3 1760 1759 1761
3 1103 1092 1623
3 1512 1345 1661
3 1876 921 2295
3 1165 984 1345
3 978 1074 1075
3 1239 1240 1241
3 542 541 553
3 813 988 1816
3 1148 984 1165
3 871 970 1056
3 472 452 1683
3 1207 1796 1870
3 1167 1166 1754
3 1296 1053 1297
3 966 964 1846
3 976 899 985
3 982 976 984
3 702 1815 2015
3 900 899 976
3 1143 995 1206
3 1576 1024 1827
3 1235 1248 1733
3 1558 1557 1560
3 943 995 1143
3 1920 1144 1943
3 1471 2115 2477
3 29 30 255
3 132 133 254
3 1630 1633 1634
3 1225 1224 1226
3 1925 1573 1926
3 1211 1205 1692
3 725 825 826
3 1113 924 1114
3 600 579 1988
3 717 1552 1567
3 1820 1657 1936
3 674 276 2099
3 395 393 1877
3 572 543 1897
3 1575 1308 2255
3 999 1000 1028
3 1118 1775 1876
3 1797 1798 2430
3 526 546 559
3 867 853 2186
3 1142 1771 1949
3 1068 1275 1442
3 679 385 1779
3 1607 1558 1789
3 580 568 1758
3 1244 1252 1253
3 1760 1761 1762
3 398 402 403
3 1476 1258 1478
3 418 421 889
3 1771 1147 1839
3 164 213 1658
3 1720 1721 2267
3 1668 1591 2512
3 1042 1128 1445
3 1098 1830 1833
3 1102 1092 1103
3 2249 884 2466
3 1104 1103 1434
3 410 416 1821
3 514 513 541
3 580 1758 1763
3 637 673 1741
3 1913 936 1914
3 1394 1395 2337
3 919 920 999
3 577 554 579
3 2111 1660 2263
3 231 1658 1659
3 612 613 644
3 568 543 572
3 770 775 1806
3 1445 1128 1446
3 1546 1548 1842
3 448 460 478
3 810 870 871
3 1789 1560 1819
3 1154 1082 1431
3 873 973 1802
3 379 385 679
3 837 850 921
3 1461 1462 1463
3 1346 1076 1420
3 1088 1344 1808
3 2125 1143 2353
3 931 977 978
3 882 772 1802
3 29 255 1765
3 849 1513 2180
3 1713 827 1806
3 1130 1396 1397
3 681 638 852
3 1417 1321 1873
3 1654 1402 2530
3 502 526 1740
3 1124 888 2177
3 1266 1460 1461
3 515 1175 1840
3 1253 1264 1669
3 479 466 1813
3 1727 1729 1757
3 379 380 385
3 1971 1480 2514
3 1637 1739 2459
3 1207 1205 1208
3 529 519 1899
3 1129 1845 1929
3 224 1661 2267
3 192 1856 2361
3 732 734 1807
3 1184 2163 2435
3 1119 1120 1353
3 415 414 431
3 719 724 725
3 559 546 1750
3 871 872 970
3 1038 917 1622
3 574 699 1752
3 166 167 1679
3 1117 1118 1119
3 1409 1196 2035
3 617 619 621
3 1172 1173 1439
3 1191 1005 1768
3 664 663 684
3 494 493 1841
3 890 529 1731
3 840 802 841
3 493 974 1841
3 385 386 399
3 679 1779 1780
3 371 376 379
3 416 433 1109
3 670 769 1815
3 902 866 903
3 1780 1779 1781
3 480 515 1840
3 970 971 1042
3 433 448 1714
3 28 29 1765
3 1005 949 1142
3 778 780 1117
3 959 1037 1799
3 1073 1003 1076
3 535 532 1898
3 1119 1118 1120
3 658 657 693
3 1378 1379 1380
3 1397 1396 1809
3 1610 1609 1612
3 1819 1560 2016
3 1837 952 1865
3 1719 1131 1881
3 1131 1399 1400
3 1352 1138 2058
3 399 406 409
3 548 1630 2041
3 1275 1338 2251
3 582 1816 1818
3 1835 1836 2144
3 993 1101 1980
3 1699 1698 1700
3 2407 364 2505
3 1189 1190 1788
3 1117 780 1118
3 1830 1829 1831
3 637 672 673
3 692 804 1072
3 1204 1203 1205
3 1374 1170 2139
3 612 692 1794
3 1642 1408 2286
3 723 808 809
3 450 459 1812
3 409 410 414
3 802 801 1778
3 1853 1854 2483
3 1042 1127 1128
3 1199 1846 2225
3 1147 990 1273
3 1383 1384 2432
3 432 431 438
3 1353 1120 1390
3 1093 1091 1094
3 2020 250 2254
3 148 149 1639
3 606 605 648
3 1970 2016 2422
3 2201 2046 2327
3 475 471 513
3 412 407 1951
3 1991 246 2139
3 727 695 728
3 1673 234 1788
3 1554 1556 1559
3 1089 663 1746
3 1846 964 2056
3 923 991 1088
3 409 406 410
3 729 728 730
3 1424 1427 1856
3 1473 1911 2407
3 1376 1377 1378
3 1010 1374 1510
3 853 852 854
3 366 369 1087
3 772 873 1802
3 1219 1218 1626
3 1766 229 2061
3 1088 991 1344
3 922 810 1826
3 518 506 695
3 405 402 2116
3 962 1664 2316
3 913 942 1002
3 932 990 1147
3 629 813 1816
3 876 877 992
3 399 386 406
3 932 845 990
3 1002 1123 1131
3 843 996 1145
3 781 837 1775
3 262 2304 2491
3 431 696 1814
3 1273 1695 1892
3 731 730 732
3 737 732 1807
3 439 438 450
3 1829 498 1841
3 800 685 801
3 767 814 815
3 1060 766 1656
3 673 766 767
3 1403 1605 1882
3 716 718 719
3 1338 1069 1339
3 847 752 1843
3 864 862 1116
3 2302 443 2519
3 923 827 991
3 526 559 1740
3 1911 1473 2358
3 1085 1310 1867
3 809 899 900
3 1227 1226 1228
3 729 730 731
3 1436 1370 1437
3 731 732 737
3 769 827 923
3 456 452 471
3 1433 1503 2471
3 1435 1103 1623
3 385 380 386
3 1141 1787 2460
3 1354 1088 1808
3 657 649 1848
3 415 431 432
3 484 892 1820
3 727 728 729
3 855 854 1450
3 1721 1722 1723
3 1643 1353 1644
3 1145 1916 1960
3 1421 1191 1422
3 466 1812 1813
3 943 944 995
3 1356 1357 1376
3 714 715 716
3 1156 1094 1157
3 598 611 612
3 631 1600 2298
3 590 589 605
3 965 969 1919
3 416 1109 1821
3 242 1697 2335
3 1548 1547 1549
3 550 573 584
3 584 604 632
3 409 414 415
3 712 713 714
3 642 670 702
3 818 698 819
3 1006 1005 1191
3 1624 1689 1691
3 169 170 237
3 173 174 238
3 956 912 1003
3 937 936 1913
3 1317 1025 1875
3 515 540 550
3 973 1799 1800
3 973 959 1799
3 518 695 727
3 910 819 912
3 584 573 604
3 1170 946 1418
3 173 238 1847
3 550 540 573
3 982 984 1148
3 900 976 982
3 441 435 452
3 448 478 1714
3 1849 1648 2173
3 1631 1628 1637
3 1830 1831 1832
3 1383 1216 1384
3 734 772 882
3 949 933 1770
3 1332 1330 1333
3 574 575 591
3 1105 1088 1354
3 702 670 1815
3 498 494 1841
3 827 770 1806
3 873 959 973
3 1390 1391 1415
3 450 438 459
3 950 949 1005
3 351 362 364
3 1313 1029 1314
3 432 438 439
3 837 838 850
3 1273 1274 1695
3 850 851 943
3 911 952 1837
3 1259 1260 1804
3 566 587 588
3 1037 1216 1383
3 1337 1265 1538
3 1087 369 1795
3 810 655 870
3 1559 1561 1566
3 1147 1273 1839
3 732 733 734
3 1662 867 2126
3 890 1731 2241
3 1854 1852 2397
3 515 479 540
3 451 450 466
3 697 666 698
3 1367 1316 1368
3 662 660 663
3 365 355 694
3 1358 1114 1767
3 379 376 380
3 1796 1448 1797
3 179 180 1859
3 790 668 849
3 569 568 580
3 690 860 931
3 466 450 1812
3 431 414 696
3 1973 1133 1974
3 651 649 657
3 467 466 479
3 1288 1289 1835
3 264 265 1986
3 1302 1303 1304
3 592 596 597
3 1873 1321 2037
3 544 543 568
3 275 277 549
3 209 1937 2389
3 539 565 566
3 1485 227 1486
3 2384 2190 2408
3 1781 1779 1783
3 480 479 515
3 689 1416 2413
3 1108 1161 1539
3 1867 1310 1895
3 1300 1301 1302
3 1695 1696 1697
3 633 632 668
3 1304 1451 1452
3 988 911 1837
3 168 169 1724
3 969 1012 1172
3 582 629 1816
3 1843 752 1900
3 629 812 813
3 710 711 712
3 1782 1780 1784
3 536 535 543
3 1089 1746 1969
3 1108 1107 1161
3 1514 1426 1856
3 486 484 1820
3 369 371 1795
3 1817 988 1924
3 493 609 974
3 1422 1191 2023
3 1426 1424 1856
3 842 875 924
3 922 1826 2259
3 989 1361 1886
3 928 1070 1288
3 669 668 790
3 1113 1114 1356
3 1027 847 1843
3 728 695 1098
3 734 735 772
3 975 1107 1108
3 955 859 1962
3 813 911 988
3 1208 1448 1796
3 1101 1405 1980
3 602 676 2045
3 586 581 589
3 546 547 563
3 493 491 609
3 628 1524 2390
3 348 344 354
3 1298 1299 1300
3 509 538 539
3 974 609 975
3 813 891 911
3 871 870 872
3 1355 1354 1423
3 489 486 1820
3 778 779 780
3 1025 1176 1875
3 772 773 873
3 803 1743 2347
3 167 202 1679
3 873 883 959
3 1483 1571 2375
3 427 1756 2221
3 540 1813 1954
3 1202 1200 1203
3 959 1035 1037
3 837 921 1775
3 1304 1305 1451
3 1799 1383 2195
3 604 642 1862
3 1470 1744 2474
3 1854 2397 2453
3 1282 1269 1386
3 1573 1572 2157
3 472 2222 2290
3 1307 1708 2341
3 769 770 827
3 1037 1215 1216
3 791 790 856
3 1053 1052 1822
3 1056 1727 1728
3 1341 1138 1352
3 1300 1299 1301
3 1814 696 1838
3 1198 1196 1409
3 492 491 493
3 439 450 451
3 1171 858 2132
3 1259 1254 1260
3 665 626 666
3 970 872 971
3 258 1602 2357
3 1296 1297 1472
3 490 489 491
3 516 437 2494
3 1298 1027 1299
3 846 845 932
3 501 508 509
3 460 461 502
3 448 449 460
3 482 480 1840
3 1229 1228 1230
3 604 641 642
3 1424 1423 1427
3 502 503 526
3 1028 1000 1029
3 935 933 949
3 1084 1085 1867
3 2028 1711 2353
3 1513 1426 1514
3 892 482 1840
3 852 638 1988
3 402 395 1877
3 738 737 845
3 413 412 418
3 1119 1353 1643
3 526 527 546
3 280 279 281
3 1731 1155 2123
3 1042 971 1127
3 1208 1447 1448
3 433 434 448
3 262 159 2304
3 184 1454 2303
3 1051 1052 1053
3 1816 1817 1818
3 1081 1417 1444
3 781 836 837
3 911 951 952
3 1090 1092 1102
3 202 168 1724
3 1085 1309 1310
3 408 407 412
3 1337 1538 1864
3 1515 1514 1516
3 530 529 890
3 1517 1518 1519
3 549 686 687
3 923 1088 1105
3 404 403 407
3 1835 1289 1836
3 1314 1367 2121
3 1380 1379 2416
3 670 671 769
3 899 808 1874
3 1040 903 1703
3 1596 1595 2154
3 1496 1495 1497
3 636 637 1741
3 1377 1638 2288
3 1288 1070 1289
3 1072 804 1981
3 1129 1334 1845
3 1865 1084 1866
3 792 922 1603
3 1253 1252 1254
3 981 1167 1792
3 1302 1301 1303
3 1641 1651 2019
3 952 953 1084
3 1813 1812 1869
3 732 730 733
3 975 1106 1107
3 1142 949 1770
3 981 1166 1167
3 840 841 842
3 451 466 467
3 1273 990 1274
3 1049 1050 1051
3 1473 2407 2505
3 968 966 1199
3 642 643 670
3 1310 1309 1311
3 422 419 435
3 1063 833 1082
3 919 782 920
3 911 891 951
3 1084 953 1085
3 1763 1764 2164
3 1498 1497 1682
3 515 550 1175
3 1079 937 1913
3 642 702 1862
3 845 737 1931
3 1394 1311 1395
3 1395 1521 1522
3 467 479 480
3 1755 1754 1793
3 1231 1230 1232
3 1557 1553 2030
3 1624 1691 2262
3 584 632 633
3 1094 1091 1969
3 708 709 710
3 1948 1627 2488
3 952 951 953
3 1102 1103 1104
3 1047 1048 1049
3 1310 1311 1394
3 1852 1099 1985
3 143 144 1717
3 813 812 891
3 1944 1044 1945
3 1105 1354 1355
3 1300 1302 1455
3 1914 936 1940
3 1415 1391 1710
3 1299 1027 1843
3 952 1084 1865
3 1695 1274 1696
3 776 774 1928
3 282 281 283
3 2003 1347 2279
3 1206 995 1499
3 1164 1685 1686
3 1551 1565 2030
3 969 1172 1919
3 633 668 669
3 734 733 735
3 1373 1372 1438
3 599 600 636
3 1431 1860 2487
3 1579 1577 1999
3 484 482 892
3 917 940 941
3 2144 1836 2169
3 1866 1084 1867
3 1110 1747 1748
3 998 1171 1811
3 1390 1120 1391
3 644 1824 2057
3 1362 1961 2048
3 944 1283 1825
3 1086 1027 1298
3 679 1780 1782
3 974 975 1879
3 507 506 518
3 1121 1079 1401
3 775 777 778
3 1965 762 2349
3 1045 1046 1047
3 1772 421 2106
3 16 17 2081
3 416 417 433
3 921 850 2125
3 1607 1855 1958
3 649 648 1848
3 1241 1240 1242
3 2012 1443 2251
3 926 928 1920
3 1487 1488 2025
3 1006 1191 1421
3 1355 1423 1424
3 1133 852 1988
3 591 592 1776
3 1299 1843 1857
3 1085 1308 1309
3 490 491 492
3 958 694 1575
3 1384 1216 1385
3 741 915 1878
3 1233 1232 1234
3 669 790 791
3 481 480 482
3 687 703 704
3 492 493 494
3 1634 1633 1922
3 1697 1696 1698
3 1721 985 1722
3 1839 1273 1892
3 772 735 773
3 488 486 489
3 950 1005 1006
3 1513 1514 1515
3 454 500 501
3 873 773 883
3 284 283 285
3 2185 1505 2442
3 959 883 1035
3 543 535 1897
3 1904 1384 2093
3 800 801 802
3 1037 1035 1215
3 1293 1964 1965
3 1239 1238 1240
3 943 1143 2125
3 1782 1784 1785
3 913 756 942
3 488 490 1884
3 1590 1749 2501
3 1235 1234 1236
3 791 856 1408
3 702 2015 2070
3 1108 1539 1540
3 1021 1023 1045
3 695 506 1828
3 1530 1528 1532
3 488 489 490
3 1621 1619 2161
3 704 705 706
3 1304 1303 1305
3 558 1704 2167
3 625 622 626
3 542 553 554
3 604 573 641
3 664 684 685
3 564 571 574
3 1108 1540 1879
3 1856 1427 2361
3 880 1025 1129
3 1395 1311 1521
3 1466 1465 1467
3 915 495 1884
3 1515 1516 1523
3 1237 1236 1238
3 606 648 649
3 999 920 1000
3 676 829 1043
3 2100 794 2142
3 227 151 1500
3 577 579 599
3 153 154 1671
3 1175 550 1927
3 1014 888 1015
3 286 285 287
3 1649 1280 2427
3 1725 204 2137
3 975 609 1106
3 1129 1317 1334
3 1109 1730 2426
3 1468 1467 1469
3 1131 1123 1399
3 1215 2235 2378
3 1976 1149 1989
3 397 395 398
3 746 743 1878
3 1041 1343 1598
3 975 1108 1879
3 741 495 915
3 1167 1754 1755
3 288 287 289
3 743 741 1878
3 1274 990 1931
3 1506 214 1507
3 857 1584 2277
3 2341 1522 2387
3 846 932 933
3 1107 1106 1110
3 584 633 1927
3 290 289 291
3 722 591 1776
3 1544 1094 1969
3 1135 270 1647
3 935 949 950
3 1920 1288 2080
3 754 1896 2108
3 1693 1199 2225
3 292 291 293
3 394 393 395
3 745 743 746
3 1002 942 1123
3 731 737 738
3 294 293 295
3 1018 1573 1925
3 296 295 297
3 298 297 299
3 321 322 325
3 317 320 321
3 314 315 317
3 312 313 314
3 310 311 312
3 308 309 310
3 1898 890 2275
3 306 307 308
3 304 305 306
3 1401 1079 1913
3 300 299 301
3 302 303 304
3 300 301 302
3 302 301 303
3 491 489 1936
3 298 299 300
3 304 303 305
3 306 305 307
3 308 307 309
3 310 309 311
3 312 311 313
3 314 313 315
3 317 315 320
3 321 320 322
3 1301 1299 1857
3 514 541 542
3 296 297 298
3 850 838 851
3 1310 1394 1895
3 294 295 296
3 590 605 606
3 292 293 294
3 651 657 658
3 290 291 292
3 1207 1208 1796
3 835 1976 1989
3 621 619 622
3 746 1878 1896
3 481 482 483
3 1026 847 1027
3 1335 1207 1870
3 1661 59 2266
3 727 729 1155
3 288 289 290
3 1058 776 1928
3 662 663 664
3 495 488 1884
3 1959 319 2522
3 943 851 944
3 1293 1291 1964
3 534 532 535
3 640 645 646
3 2280 1014 2385
3 286 287 288
3 591 575 592
3 521 519 529
3 13 14 2114
3 780 779 781
3 918 908 1850
3 837 836 838
3 209 148 1639
3 754 748 1896
3 745 746 747
3 769 671 770
3 929 1065 2197
3 1278 1058 1279
3 483 482 484
3 1564 1557 2030
3 633 807 1927
3 392 391 393
3 1057 1621 2161
3 569 580 581
3 284 285 286
3 876 992 1894
3 497 494 498
3 1630 1635 2041
3 982 1148 1918
3 612 611 613
3 700 634 1044
3 822 674 2099
3 880 1129 1929
3 432 439 654
3 1039 1291 1292
3 1164 1686 1989
3 1129 1025 1317
3 738 845 846
3 582 583 629
3 278 6 279
3 544 568 569
3 1701 1274 1931
3 747 749 751
3 1085 953 1308
3 928 930 1070
3 747 748 749
3 1421 1422 2415
3 902 903 904
3 1309 1308 1543
3 642 641 643
3 904 981 1792
3 646 784 785
3 536 543 544
3 1204 1205 1207
3 365 694 958
3 71 72 217
3 88 89 1901
3 87 88 193
3 101 102 189
3 85 86 242
3 99 100 241
3 74 75 192
3 91 92 219
3 94 95 191
3 83 84 220
3 97 98 221
3 77 78 218
3 80 81 194
3 89 90 245
3 62 63 244
3 60 61 188
3 64 65 223
3 67 68 190
3 90 91 1909
3 98 99 1905
3 61 62 1908
3 69 70 243
3 68 69 1907
3 70 71 1910
3 410 411 416
3 586 589 590
3 685 684 2029
3 390 389 391
3 1715 1150 1811
3 1924 1837 2215
3 282 283 284
3 496 497 1929
3 233 1671 1769
3 627 2185 2442
3 1567 1552 2062
3 629 630 812
3 424 453 454
3 583 562 1942
3 749 750 805
3 744 743 745
3 1897 535 1898
3 467 480 481
3 504 759 880
3 670 643 671
3 89 245 1901
3 193 88 1901
3 221 98 1905
3 245 90 1909
3 91 219 1909
3 62 244 1908
3 188 61 1908
3 99 241 1905
3 190 68 1907
3 71 217 1910
3 69 243 1907
3 243 70 1910
3 505 499 506
3 475 513 514
3 1945 1044 2071
3 1712 2125 2353
3 339 343 440
3 989 1360 1361
3 764 869 1152
3 778 777 779
3 1686 1685 1687
3 742 741 743
3 979 989 1886
3 729 731 1887
3 926 927 928
3 1305 1306 1307
3 1838 1278 2292
3 747 746 748
3 181 182 1652
3 1886 1361 2305
3 1595 1594 2486
3 597 596 598
3 928 1288 1920
3 1970 824 2156
3 1425 1424 1426
3 497 504 1929
3 748 746 1896
3 745 747 1900
3 998 858 1171
3 563 547 564
3 1155 729 1887
3 634 583 1942
3 1439 1173 1440
3 1026 1027 1086
3 79 80 1904
3 1533 1532 1536
3 1449 1426 1513
3 1106 609 1936
3 1318 1013 1319
3 1098 695 1828
3 492 494 496
3 750 748 754
3 731 738 1887
3 2415 1422 2516
3 533 562 582
3 988 1837 1924
3 1216 1215 1863
3 534 535 536
3 747 751 1900
3 1753 809 2119
3 1183 824 1970
3 740 495 741
3 80 194 1904
3 893 383 2087
3 655 605 1939
3 1884 2034 2082
3 1301 1857 1923
3 1307 1306 1708
3 752 745 1900
3 750 754 755
3 76 77 1903
3 2090 2347 2365
3 255 30 2159
3 132 254 2160
3 448 434 449
3 753 848 926
3 1075 1074 1327
3 487 488 495
3 377 381 647
3 483 484 485
3 755 754 2148
3 1584 1925 2277
3 1186 1183 1970
3 951 891 1281
3 485 484 486
3 546 527 547
3 133 134 1766
3 1786 1785 2409
3 280 281 282
3 460 449 461
3 744 745 752
3 77 218 1903
3 983 1918 2342
3 1708 1306 1810
3 1389 2069 2170
3 487 486 488
3 641 573 1954
3 507 518 519
3 502 461 503
3 519 518 1899
3 1202 1203 1204
3 821 897 1972
3 92 93 1902
3 521 529 530
3 749 748 750
3 2176 1380 2416
3 885 826 886
3 485 486 487
3 371 372 376
3 1289 1070 1871
3 1110 1657 1747
3 753 926 1943
3 700 1044 1944
3 880 881 1025
3 496 1845 2034
3 1072 1981 2393
3 462 464 2134
3 1949 1771 2359
3 1044 634 1942
3 550 584 1927
3 1390 1415 2118
3 526 503 527
3 990 845 1931
3 1009 1213 1214
3 740 742 1144
3 219 92 1902
3 727 1155 1899
3 369 370 371
3 623 690 2150
3 1279 1058 1928
3 1408 2235 2286
3 487 495 740
3 979 1886 2086
3 1305 1303 1306
3 421 412 1951
3 843 844 996
3 633 669 807
3 518 727 1899
3 826 825 1961
3 1657 1106 1936
3 1172 1012 1173
3 740 741 742
3 433 417 434
3 505 506 507
3 1333 1674 2437
3 742 743 744
3 469 458 470
3 1381 1380 1382
3 1293 1965 2515
3 1554 1559 2062
3 553 557 2499
3 1774 389 2339
3 497 498 499
3 483 485 576
3 740 1144 1935
3 773 735 834
3 366 367 369
3 1120 1118 1876
3 1515 1523 1574
3 1319 1013 2039
3 1303 1301 1923
3 457 447 458
3 561 593 594
3 1355 1424 1425
3 609 491 1936
3 204 1732 2137
3 791 1408 1642
3 995 944 1825
3 456 471 475
3 1692 1693 2239
3 580 1763 2164
3 1292 1293 2117
3 441 452 456
3 388 384 389
3 823 821 1972
3 504 880 1929
3 176 177 1680
3 1070 1071 1871
3 15 2260 2477
3 362 363 366
3 2178 2300 2449
3 1035 883 1036
3 2285 1563 2307
3 978 977 1074
3 1090 1102 2029
3 1810 1306 1923
3 496 494 497
3 1306 1303 1923
3 432 654 1915
3 934 933 935
3 356 355 365
3 398 403 404
3 635 701 843
3 1110 1106 1657
3 574 571 575
3 1025 881 1176
3 386 380 786
3 415 432 1915
3 343 347 1911
3 1070 930 1071
3 1688 1740 2231
3 1385 1216 1863
3 1696 1274 1701
3 1645 305 2317
3 880 759 881
3 926 848 927
3 1427 1423 2217
3 1339 1662 2388
3 770 774 775
3 1263 1257 1428
3 1337 1864 2412
3 349 348 355
3 2267 1721 2498
3 753 752 847
3 1375 1086 1473
3 900 982 983
3 332 335 739
3 429 428 430
3 744 752 753
3 1171 2132 2165
3 1425 1426 1449
3 987 641 1954
3 1883 1786 2409
3 427 426 428
3 928 927 930
3 1815 1105 2015
3 1206 1499 1941
3 410 406 411
3 573 540 1954
3 497 499 504
3 528 560 561
3 1933 1404 2399
3 1091 1089 1969
3 1804 1282 2073
3 504 505 759
3 963 924 1113
3 1711 1710 1712
3 881 759 1146
3 968 1199 1200
3 351 352 362
3 848 847 1026
3 521 530 531
3 1884 490 2034
3 1277 957 1966
3 1349 1350 2329
3 676 1043 2045
3 997 1159 1286
3 517 1889 1890
3 781 835 836
3 944 948 1283
3 722 1776 2026
3 507 519 520
3 2040 1352 2058
3 1276 957 1277
3 446 437 447
3 931 860 977
3 361 359 765
3 1248 1536 2534
3 512 523 528
3 408 412 413
3 1368 1369 1370
3 451 2169 2223
3 192 75 1994
3 942 756 2026
3 345 344 348
3 764 1152 1963
3 413 418 419
3 1286 1773 1774
3 770 671 774
3 275 549 2124
3 1497 1645 2461
3 1982 1472 2272
3 422 435 441
3 281 279 736
3 1134 270 1135
3 582 562 583
3 1421 2415 2454
3 485 487 1935
3 2300 1067 2480
3 1578 1576 1827
3 930 927 1061
3 1026 1086 1375
3 922 2259 2379
3 1391 1120 1876
3 1495 1494 2493
3 404 407 408
3 879 2178 2449
3 1700 1698 2036
3 607 1517 1520
3 753 847 848
3 416 411 417
3 1144 742 1943
3 775 776 777
3 754 2108 2148
3 1006 1421 1953
3 585 581 586
3 531 530 532
3 235 1709 1888
3 520 519 521
3 1180 1181 1349
3 1146 759 1967
3 708 710 1921
3 1350 2253 2329
3 436 430 437
3 504 499 505
3 643 641 987
3 336 330 517
3 811 1059 1149
3 1164 1411 1685
3 846 933 934
3 635 843 1960
3 983 982 1918
3 971 872 1096
3 1149 1163 1164
3 169 237 1724
3 1314 1315 1316
3 629 583 630
3 891 812 1916
3 462 463 464
3 487 740 1935
3 798 2084 2189
3 1814 1838 2292
3 1284 1489 1491
3 340 336 2014
3 1670 1461 2200
3 920 782 2057
3 890 2241 2275
3 510 511 512
3 278 279 280
3 839 802 840
3 1858 235 1888
3 1698 1696 2036
3 104 105 222
3 57 58 224
3 1185 1183 1186
3 588 587 623
3 638 600 1988
3 1282 1386 2245
3 811 776 1058
3 816 815 876
3 2034 1845 2082
3 761 636 1741
3 566 565 587
3 174 175 1725
3 347 350 351
3 1469 1495 1496
3 1059 1058 1278
3 811 1149 1976
3 576 485 1935
3 659 658 660
3 859 1153 1962
3 76 1903 1994
3 1821 1109 2426
3 1294 1038 1622
3 733 1833 2075
3 992 993 1980
3 1566 1561 2285
3 525 474 2041
3 464 465 510
3 343 346 347
3 360 893 1982
3 650 649 651
3 896 608 936
3 950 1006 1007
3 1508 1859 1860
3 539 538 565
3 440 343 1911
3 341 340 344
3 221 1905 1906
3 1297 1823 2142
3 759 505 1967
3 1295 1053 1296
3 473 470 474
3 1463 1465 1466
3 1143 1206 2028
3 799 685 800
3 1210 2077 2203
3 509 508 538
3 492 496 2034
3 1553 1551 2030
3 1260 1261 1269
3 1430 1040 1703
3 586 590 1940
3 838 836 868
3 1705 624 2276
3 1749 972 2501
3 742 744 1943
3 804 962 1981
3 1367 1368 2254
3 531 532 533
3 337 336 340
3 1157 1094 1544
3 536 544 1158
3 812 630 1960
3 781 779 835
3 56 57 1947
3 630 583 634
3 1405 1404 1932
3 1281 891 1916
3 339 342 343
3 1411 1163 1730
3 322 323 324
3 344 340 2091
3 1735 1734 1736
3 75 76 1994
3 430 682 2494
3 1907 243 2360
3 589 581 2164
3 694 355 2196
3 744 753 1943
3 775 774 776
3 1210 1430 2077
3 335 338 339
3 1102 1803 2029
3 1078 937 1079
3 870 655 1939
3 505 507 1967
3 357 360 1982
3 1896 1878 2101
3 326 325 328
3 934 935 957
3 585 608 895
3 333 330 336
3 1270 1272 1524
3 688 817 878
3 507 520 1967
3 1428 1257 2074
3 1818 1817 2000
3 896 937 1077
3 934 957 1111
3 329 328 330
3 1499 995 1825
3 944 851 948
3 387 445 462
3 1678 1161 2228
3 777 776 811
3 313 311 757
3 324 331 332
3 848 1026 1955
3 1312 998 1811
3 1321 1322 2037
3 1080 1079 1121
3 1105 1355 2015
3 1645 2317 2461
3 1559 1568 2062
3 332 334 335
3 501 500 508
3 321 325 326
3 394 395 397
3 322 320 323
3 1529 1530 2171
3 1137 797 1138
3 811 1058 1059
3 661 660 662
3 569 581 585
3 183 4 2303
3 5 160 2304
3 1340 1138 1341
3 1660 1626 2185
3 1743 1464 2347
3 1026 1375 1955
3 1149 1059 1163
3 1736 1625 2194
3 1322 1667 2434
3 311 309 1959
3 309 307 319
3 894 700 1944
3 533 534 562
3 1276 1277 1366
3 2190 1706 2408
3 533 532 534
3 1214 1213 1410
3 1164 1163 1411
3 843 701 844
3 1009 1214 2055
3 234 1589 1788
3 2000 1817 2174
3 317 321 2050
3 328 325 945
3 392 393 394
3 588 623 2089
3 1162 958 1681
3 1078 1080 1136
3 927 848 1955
3 1496 1497 1498
3 390 391 392
3 1061 927 1955
3 1283 948 1284
3 635 634 700
3 1244 1251 1252
3 218 78 2093
3 756 722 2026
3 1071 1784 2419
3 1218 1505 2185
3 1284 948 1285
3 1489 1285 1490
3 918 1850 1851
3 684 1090 2029
3 1759 572 2537
3 1691 1690 2446
3 1979 1158 2071
3 606 649 650
3 2045 1043 2046
3 103 104 2025
3 630 634 635
3 360 383 893
3 406 386 2043
3 1909 219 2023
3 1111 957 1276
3 1925 1437 2277
3 1536 2268 2340
3 854 852 1133
3 233 153 1671
3 651 658 659
3 2099 1787 2368
3 1033 1032 1130
3 1015 1372 1373
3 1412 942 2026
3 253 264 1441
3 1531 1534 2332
3 701 700 894
3 106 107 1990
3 2048 1961 2455
3 276 274 2099
3 738 846 1968
3 1325 925 1326
3 896 936 937
3 585 586 608
3 1450 854 1973
3 1361 1360 1362
3 1045 1668 2512
3 303 301 444
3 996 844 997
3 79 1904 2093
3 1989 1686 2095
3 1928 774 2033
3 1942 562 1979
3 287 285 316
3 935 950 1966
3 1466 1467 1468
3 1242 1243 1244
3 1887 738 1968
3 2115 210 2477
3 878 929 1083
3 1326 1736 2194
3 886 888 1014
3 895 608 896
3 289 287 1978
3 821 822 897
3 936 608 1940
3 613 614 615
3 51 52 1996
3 417 411 1160
3 1149 1164 1989
3 386 786 2043
3 285 283 1971
3 1309 1543 2147
3 375 373 2053
3 371 370 372
3 779 777 1976
3 1286 1159 1773
3 2177 887 2376
3 1560 1557 1564
3 1403 1882 2399
3 1727 1757 2246
3 279 6 2049
3 1619 1438 2438
3 291 289 758
3 1781 1915 2294
3 425 401 426
3 349 355 356
3 66 67 2118
3 474 548 2041
3 1686 1687 2007
3 1262 1456 1457
3 1123 942 1412
3 1916 812 1960
3 1355 1425 2015
3 735 733 2075
3 1861 879 2449
3 1284 1285 1489
3 490 492 2034
3 366 363 367
3 980 578 2051
3 906 904 1792
3 534 536 1979
3 842 924 963
3 2051 578 2083
3 1077 937 1078
3 1102 1104 1803
3 894 1944 1946
3 398 404 2060
3 1007 1006 1953
3 369 367 370
3 348 354 2196
3 1078 1079 1080
3 1378 1380 1381
3 1568 1365 2439
3 608 586 1940
3 598 610 611
3 760 636 761
3 869 1137 1351
3 671 643 2033
3 1661 1345 2267
3 938 914 1057
3 783 761 914
3 576 1835 2144
3 388 389 390
3 297 295 318
3 454 453 500
3 1906 1728 2246
3 1439 1440 2468
3 1159 1013 1318
3 764 797 869
3 236 143 1717
3 782 644 2057
3 592 595 596
3 1542 2332 2443
3 1521 1311 2147
3 345 348 349
3 1304 1452 2205
3 1644 1907 2360
3 2146 1125 2149
3 997 844 1013
3 628 375 2053
3 299 297 1984
3 957 935 1966
3 664 685 799
3 301 299 1975
3 362 352 363
3 777 811 1976
3 1942 1979 2071
3 1001 920 2057
3 312 314 768
3 1552 1554 2062
3 615 616 617
3 357 1982 2076
3 800 802 839
3 774 671 2033
3 1749 1169 2105
3 365 958 1162
3 617 618 619
3 283 281 1938
3 1351 1772 2414
3 1525 1765 2489
3 846 934 1968
3 635 700 701
3 555 554 577
3 536 1158 1979
3 1101 1404 1405
3 630 635 1960
3 1811 1150 2089
3 2113 1666 2249
3 172 173 1847
3 107 108 195
3 54 55 196
3 1191 1768 2023
3 1455 1302 2205
3 115 116 2017
3 1387 1333 2437
3 659 661 764
3 1080 1121 1188
3 50 51 2011
3 411 406 2043
3 295 293 1983
3 643 987 2033
3 707 706 708
3 129 130 261
3 32 33 260
3 2159 260 2265
3 449 434 567
3 1314 1029 1315
3 917 796 940
3 378 375 628
3 108 109 1991
3 2370 1759 2537
3 341 344 345
3 997 1013 1159
3 544 569 1993
3 950 1007 1966
3 477 474 525
3 351 350 352
3 1696 1701 2036
3 334 331 803
3 1137 1138 1340
3 562 534 1979
3 109 110 246
3 52 53 247
3 1368 1316 1369
3 659 660 661
3 33 34 2002
3 123 124 2005
3 835 779 1976
3 851 838 1992
3 1530 1533 2172
3 1668 1045 2348
3 1162 1681 1706
3 342 338 468
3 298 300 358
3 765 359 2065
3 725 826 885
3 35 36 2003
3 46 47 2019
3 38 39 2006
3 336 517 2014
3 934 1111 1968
3 116 117 2018
3 650 651 1963
3 223 1711 2162
3 640 594 645
3 1333 1330 2192
3 104 222 2025
3 1603 922 2379
3 963 1113 1115
3 2084 1193 2189
3 564 570 571
3 36 37 2004
3 57 224 1947
3 1542 1601 2269
3 122 123 2012
3 1000 920 1001
3 127 128 240
3 34 35 239
3 383 387 2087
3 1161 1107 2228
3 1781 2294 2419
3 1201 1200 1202
3 124 125 225
3 37 38 226
3 1340 1341 1342
3 869 797 1137
3 839 840 1008
3 1158 544 1993
3 1326 925 1894
3 352 350 353
3 326 329 954
3 1864 2344 2412
3 836 835 2095
3 1051 1053 1295
3 1031 720 1032
3 503 461 787
3 1407 1112 2044
3 661 662 2058
3 838 868 1992
3 112 113 197
3 49 50 198
3 1359 980 1413
3 121 122 211
3 40 41 212
3 48 49 2010
3 113 114 2009
3 1741 673 2131
3 41 42 2020
3 120 121 2013
3 1409 2035 2097
3 1511 1374 2506
3 114 115 248
3 47 48 249
3 42 43 250
3 119 120 251
3 171 6 201
3 6 172 203
3 585 895 1993
3 43 44 2024
3 118 119 2021
3 905 904 906
3 764 661 797
3 337 340 341
3 1413 980 2051
3 117 118 205
3 44 45 206
3 347 346 350
3 1420 1076 1525
3 324 323 331
3 434 417 2031
3 965 967 969
3 716 719 788
3 1260 1254 1261
3 2053 373 2103
3 2069 2068 2170
3 326 328 329
3 1706 996 2408
3 273 275 2124
3 969 1011 1012
3 590 606 2001
3 1718 1611 2280
3 1914 1940 2001
3 915 1884 2082
3 329 330 333
3 620 859 955
3 2168 1409 2305
3 296 298 1997
3 915 2082 2101
3 339 338 342
3 1218 994 1505
3 333 336 337
3 266 263 1742
3 1873 768 2127
3 244 63 2162
3 64 223 2162
3 343 342 346
3 914 761 2258
3 310 312 1987
3 799 800 2055
3 302 304 763
3 1559 1566 1568
3 1598 1343 2114
3 592 575 595
3 341 345 794
3 189 1842 2220
3 767 815 816
3 1003 912 1004
3 839 1008 1009
3 1263 1428 1429
3 564 547 570
3 1845 1334 2082
3 332 331 334
3 901 866 902
3 651 659 1963
3 1009 1112 1213
3 335 334 338
3 569 585 1993
3 1665 1336 2299
3 1945 2071 2153
3 863 862 864
3 907 906 908
3 1849 1486 1930
3 1935 1144 2080
3 967 966 968
3 809 900 2119
3 865 864 866
3 835 1989 2095
3 190 1907 2417
3 333 337 522
3 1110 1748 2228
3 1193 1194 1195
3 94 191 2166
3 473 1854 2453
3 1769 1134 2369
3 948 851 1992
3 237 170 2216
3 420 419 422
3 1448 1447 2364
3 483 576 2144
3 721 1919 2032
3 885 886 1891
3 613 611 614
3 886 1014 1891
3 1160 411 2043
3 1918 1283 2342
3 1651 206 2485
3 1242 1240 1243
3 598 596 610
3 1295 1296 1459
3 1185 1186 1948
3 1425 1449 2070
3 294 296 762
3 1285 948 1992
3 925 876 1894
3 712 714 789
3 603 1668 2398
3 1940 590 2001
3 721 570 964
3 834 735 2075
3 1144 1920 2080
3 2263 1635 2511
3 1204 1207 1335
3 2235 1408 2378
3 965 964 966
3 1990 1435 2218
3 397 398 2060
3 1138 797 2058
3 1787 1141 2368
3 2068 820 2170
3 360 359 361
3 387 462 2087
3 1524 1272 1934
3 819 698 820
3 1197 1196 1198
3 1662 2126 2388
3 78 79 2093
3 1150 588 2089
3 1269 1261 1270
3 1878 915 2101
3 451 467 2169
3 2262 1387 2437
3 1009 1008 1112
3 757 311 1959
3 897 898 1139
3 1854 473 2483
3 2015 1425 2070
3 2082 1334 2101
3 963 1115 1174
3 1047 1049 1287
3 1194 423 1196
3 321 326 2050
3 417 1160 2031
3 854 1133 1973
3 1201 1212 1348
3 705 1586 2163
3 309 319 1959
3 1353 1390 2417
3 427 428 429
3 357 356 359
3 606 650 2001
3 549 1280 2124
3 1213 1112 1407
3 256 2303 2535
3 356 365 2065
3 662 664 2040
3 701 894 2039
3 1325 1371 2451
3 666 626 667
3 1902 93 2166
3 1236 1234 1246
3 800 839 2055
3 1869 1812 2252
3 1197 1364 1365
3 576 1935 2080
3 404 408 798
3 1678 807 2529
3 1560 1564 2016
3 1319 2039 2122
3 425 426 427
3 349 356 357
3 308 310 327
3 1716 622 2484
3 1801 82 2289
3 1768 1949 2420
3 2006 1926 2507
3 351 364 2407
3 420 423 1193
3 659 764 1963
3 292 294 2038
3 840 842 2027
3 736 279 2049
3 372 373 374
3 461 449 2052
3 2189 1195 2285
3 1174 1115 1398
3 367 363 961
3 909 908 918
3 1738 247 2402
3 1007 1761 2308
3 288 290 2135
3 422 441 2035
3 623 624 690
3 537 525 545
3 1953 1421 2454
3 1887 1968 2123
3 861 691 862
3 654 439 2223
3 1136 1080 2054
3 1312 1811 2089
3 575 571 2032
3 383 361 384
3 968 1200 1201
3 797 661 2058
3 1423 1354 2381
3 1180 1178 1181
3 1513 1515 2180
3 72 73 2217
3 462 445 463
3 12 13 2136
3 457 458 469
3 542 554 555
3 599 636 760
3 254 133 1766
3 1130 1397 1937
3 404 798 2060
3 1044 1942 2071
3 690 691 860
3 357 359 360
3 1008 2027 2152
3 1232 1230 1255
3 372 370 373
3 850 943 2125
3 1457 1456 1492
3 1952 324 2282
3 155 2 2356
3 0 7 2357
3 2017 1379 2288
3 918 1851 2008
3 195 1991 2517
3 2090 803 2347
3 1244 1243 1251
3 290 292 368
3 1432 1082 2214
3 1008 840 2027
3 1743 803 2296
3 1013 844 2039
3 365 1162 2065
3 1594 1315 2184
3 387 384 388
3 1508 1860 2311
3 547 527 2056
3 2005 225 2322
3 314 317 2127
3 1853 556 2327
3 201 6 278
3 1907 1644 2417
3 1896 2101 2108
3 646 645 784
3 538 508 558
3 374 375 377
3 1630 1634 1635
3 1579 1999 2352
3 1647 1648 1849
3 1313 1314 2121
3 1179 1433 2042
3 844 701 2039
3 1252 1251 2098
3 816 876 925
3 1922 1228 2281
3 392 394 396
3 1915 654 2294
3 1652 1653 2487
3 429 430 436
3 456 475 476
3 1605 1392 2510
3 126 1882 2284
3 1784 1780 2419
3 500 453 960
3 377 378 381
3 2178 1587 2300
3 1222 1219 1626
3 413 419 420
3 381 382 400
3 2169 1836 2223
3 1906 1905 2129
3 616 614 793
3 1170 1419 2139
3 101 189 2220
3 241 100 2220
3 1968 1111 2123
3 567 434 2031
3 615 614 616
3 1032 720 1921
3 682 428 2138
3 469 470 473
3 339 440 2261
3 1501 238 2226
3 1154 1431 1653
3 446 447 457
3 1251 1243 1257
3 2229 315 2495
3 1201 1202 1212
3 785 784 879
3 464 463 465
3 66 2118 2395
3 324 332 2282
3 286 288 771
3 17 199 2081
3 571 570 721
3 611 610 2092
3 617 616 618
3 1542 1531 2332
3 400 401 424
3 1325 1326 1371
3 1140 1406 1702
3 1323 443 2302
3 1926 1573 2507
3 436 437 446
3 1262 1457 2098
3 67 190 2118
3 1518 1861 2449
3 989 1359 1360
3 1063 1082 1154
3 1757 96 2526
3 969 967 1011
3 868 836 2095
3 1215 1035 2235
3 96 1757 2309
3 261 2160 2380
3 1381 1382 2126
3 1468 1469 2182
3 1334 1317 2108
3 861 863 1064
3 1270 1261 1271
3 360 361 383
3 287 316 1978
3 1856 192 2367
3 1905 241 2129
3 1615 1809 2425
3 528 523 560
3 979 980 989
3 662 2040 2058
3 721 964 965
3 170 171 2216
3 664 799 2040
3 512 511 523
3 1201 1348 2107
3 620 618 858
3 758 289 1978
3 859 858 998
3 424 425 453
3 1616 1615 2193
3 444 301 1975
3 561 560 593
3 965 966 967
3 1798 376 2430
3 340 2014 2091
3 510 465 511
3 107 195 1990
3 1080 1188 2054
3 1153 998 1312
3 1226 1224 1249
3 1012 1011 1363
3 902 904 905
3 842 963 2027
3 268 270 1134
3 865 901 1125
3 2077 558 2102
3 282 284 442
3 1977 1679 2253
3 1496 1498 2047
3 284 286 2063
3 281 736 1938
3 2132 793 2165
3 1674 215 2437
3 2078 1855 2411
3 839 1009 2055
3 1182 824 1183
3 1168 947 1169
3 1289 1871 2242
3 316 285 1971
3 1270 1271 1272
3 1755 1793 2264
3 51 1996 2011
3 383 384 387
3 1146 1924 2215
3 1279 1928 2202
3 619 618 620
3 1194 1196 1197
3 555 578 979
3 1937 1639 2528
3 1262 1257 1263
3 389 384 2339
3 2251 1338 2464
3 1155 1887 2123
3 1151 1937 2528
3 465 463 828
3 1318 1319 2116
3 1687 1688 2231
3 326 954 2050
3 297 318 1984
3 1308 953 2255
3 1846 2056 2198
3 320 315 2229
3 1254 1252 2059
3 760 761 783
3 951 1281 2255
3 1459 1296 2094
3 2288 1638 2470
3 1975 299 1984
3 52 247 1996
3 468 338 2090
3 2140 1511 2506
3 1125 1126 1192
3 593 824 1182
3 720 708 1921
3 704 706 707
3 623 587 624
3 2044 1112 2152
3 1393 1169 1749
3 900 983 2119
3 783 914 938
3 255 2265 2489
3 2039 894 2122
3 317 2050 2127
3 1866 1867 2513
3 374 373 375
3 429 436 455
3 387 388 445
3 1193 423 1194
3 555 577 578
3 1074 977 1187
3 449 567 2052
3 1197 1198 1364
3 2154 1595 2486
3 1486 1849 2173
3 318 295 1983
3 939 1016 1844
3 131 132 2160
3 30 31 2159
3 881 1146 2215
3 1294 1868 2238
3 1300 1455 2314
3 1365 1364 1912
3 783 938 939
3 2061 1735 2441
3 551 545 601
3 2194 216 2536
3 1251 1257 1262
3 888 887 2177
3 1364 1198 2048
3 1498 1682 2340
3 1589 1590 2501
3 60 188 2266
3 1401 1913 2324
3 195 108 1991
3 420 422 423
3 1675 1470 2474
3 258 1673 2183
3 2161 1619 2438
3 1296 1472 2094
3 1808 1910 2381
3 334 803 2090
3 1490 1285 2232
3 523 511 524
3 1240 1238 2074
3 1184 1183 1185
3 39 40 2151
3 473 474 477
3 1461 1463 2200
3 2072 353 2073
3 861 862 863
3 1206 1941 2401
3 958 1575 2287
3 614 611 2092
3 110 111 2140
3 1136 2054 2110
3 645 594 2133
3 260 33 2002
3 673 767 2131
3 989 980 1359
3 1741 2131 2258
3 1317 1875 2148
3 894 1946 2122
3 863 864 865
3 787 461 2052
3 857 2277 2386
3 109 246 1991
3 2017 116 2018
3 1182 1183 1184
3 377 375 378
3 816 925 1324
3 865 866 901
3 1262 1263 1456
3 359 356 2065
3 2129 241 2472
3 283 1938 1971
3 1458 1210 2203
3 1076 1003 2145
3 196 1738 2402
3 1033 1130 1151
3 1188 1121 2106
3 1140 1702 2096
3 549 687 1280
3 1694 1621 2191
3 861 1064 2112
3 1548 1549 2129
3 1784 1071 2462
3 714 716 2066
3 1961 825 2455
3 1447 1211 2250
3 979 578 980
3 905 907 1209
3 381 378 382
3 457 469 552
3 595 575 2032
3 408 413 2084
3 481 483 2144
3 1745 1349 2293
3 1980 1405 2441
3 198 50 2011
3 248 115 2017
3 912 819 2068
3 620 858 859
3 707 708 720
3 821 674 822
3 514 542 2086
3 400 382 401
3 123 2005 2012
3 1772 1351 2374
3 34 239 2002
3 768 314 2127
3 2003 36 2004
3 280 282 2079
3 124 225 2005
3 596 595 2130
3 593 560 824
3 1504 1502 2519
3 239 35 2003
3 1311 1309 2147
3 1318 1877 2240
3 1860 1432 2311
3 1416 1715 2330
3 859 998 1153
3 352 353 2072
3 312 768 1987
3 2027 1174 2152
3 226 38 2006
3 1827 1024 2117
3 1710 1391 2295
3 690 624 691
3 37 226 2004
3 1153 1312 1885
3 853 855 2186
3 1892 242 2373
3 1967 520 2174
3 939 938 1016
3 47 249 2019
3 388 390 2078
3 1991 2139 2517
3 905 906 907
3 571 721 2032
3 1196 423 2035
3 1324 925 1325
3 1151 1130 1937
3 363 352 2072
3 345 349 2076
3 1031 1032 1033
3 214 179 1859
3 211 122 2012
3 602 601 652
3 117 205 2018
3 710 712 2067
3 1602 187 2357
3 520 2000 2174
3 85 242 2335
3 220 84 2335
3 381 400 2113
3 1586 1587 2435
3 424 401 425
3 963 1174 2027
3 860 691 861
3 610 596 2130
3 1958 2078 2431
3 570 547 2056
3 237 2216 2354
3 1211 1692 2219
3 298 358 1997
3 909 947 1041
3 441 456 2097
3 1135 1647 1849
3 1601 1542 2443
3 197 113 2009
3 49 198 2010
3 1911 347 2407
3 1729 191 2309
3 212 41 2020
3 121 211 2013
3 222 105 2218
3 1125 901 1126
3 114 248 2009
3 249 48 2010
3 42 250 2020
3 251 120 2013
3 233 1769 2369
3 1870 647 2113
3 794 345 2076
3 250 43 2024
3 119 251 2021
3 901 902 2141
3 964 570 2056
3 739 335 2261
3 2108 1317 2148
3 577 599 2083
3 205 118 2021
3 44 206 2024
3 1247 1241 2323
3 1894 992 2244
3 6 203 2049
3 1642 1678 2529
3 1417 1873 2333
3 1422 2023 2516
3 341 794 2100
3 73 74 2361
3 1234 1232 2088
3 1261 1254 2059
3 896 1077 2257
3 1921 710 2067
3 125 126 2284
3 220 1699 2289
3 159 5 2304
3 4 184 2303
3 2059 1252 2098
3 1003 1004 2145
3 2328 1325 2451
3 1486 227 1500
3 63 64 2162
3 2081 1192 2260
3 508 500 2102
3 667 1872 2318
3 338 334 2090
3 423 422 2035
3 1192 1126 1471
3 907 908 909
3 1330 1328 2192
3 1972 897 2500
3 2443 316 2514
3 242 86 2373
3 87 193 2373
3 420 1193 2084
3 1473 1086 2358
3 1987 768 2037
3 522 337 2100
3 627 1660 2185
3 1793 446 2264
3 1405 2061 2441
3 1502 1217 2302
3 171 201 2216
3 1158 1993 2153
3 1197 1365 2120
3 1712 1710 2295
3 1121 1401 2414
3 93 94 2166
3 653 652 688
3 622 1716 2452
3 1345 1720 2267
3 477 537 556
3 128 129 2181
3 2331 1295 2458
3 784 645 874
3 1269 1270 2199
3 189 102 2355
3 1041 1168 1343
3 246 110 2140
3 477 525 537
3 755 1895 2371
3 1947 1723 2313
3 1134 1135 2369
3 223 65 2395
3 968 1201 2107
3 1577 1578 2325
3 210 15 2477
3 961 363 2072
3 1581 1579 2352
3 349 357 2076
3 337 341 2100
3 305 303 2317
3 370 367 2103
3 762 296 1997
3 581 580 2164
3 1278 1838 2372
3 1548 2129 2472
3 594 593 2133
3 2021 251 2022
3 2047 1247 2182
3 967 968 2107
3 1169 947 2008
3 481 2144 2169
3 793 614 2092
3 1910 217 2381
3 1251 1262 2098
3 716 788 2066
3 2101 1334 2108
3 2006 39 2151
3 1603 2379 2508
3 1926 2006 2151
3 96 97 2526
3 750 755 2371
3 789 714 2066
3 909 918 947
3 1993 895 2153
3 106 1990 2218
3 1243 1240 2074
3 832 986 1189
3 1283 1284 2342
3 2297 195 2517
3 1043 829 2326
3 767 816 2131
3 602 653 676
3 1004 912 2068
3 2086 1886 2224
3 1124 2177 2467
3 426 401 2531
3 707 720 1030
3 1000 1001 2184
3 1315 1029 2184
3 467 481 2169
3 541 513 2256
3 647 381 2113
3 225 2284 2510
3 2 156 2356
3 187 0 2357
3 40 212 2151
3 2245 1386 2383
3 676 677 829
3 1004 2068 2069
3 1860 232 2487
3 1031 1033 1034
3 829 830 972
3 996 997 2408
3 1195 1194 2120
3 987 1869 2202
3 1410 1213 2222
3 819 820 2068
3 1485 1486 2173
3 1564 2030 2155
3 807 669 2529
3 129 261 2181
3 1525 1076 2145
3 578 577 2083
3 327 310 1987
3 1083 929 2197
3 2131 1324 2258
3 798 408 2084
3 1838 696 2426
3 1486 1500 1930
3 1946 1944 2291
3 2257 1077 2291
3 1512 1661 2266
3 445 388 2078
3 1192 1471 2260
3 2118 1415 2395
3 1466 1468 2158
3 830 677 831
3 211 2012 2251
3 652 601 2442
3 537 545 551
3 558 508 2102
3 198 2011 2128
3 1718 2280 2385
3 500 960 2102
3 1168 1169 1393
3 1127 971 2496
3 95 96 2309
3 2030 1565 2155
3 1919 1172 2273
3 977 860 2112
3 240 128 2181
3 294 762 2038
3 1800 1799 2195
3 712 789 2067
3 972 1749 2326
3 472 1683 2212
3 874 645 2133
3 551 2045 2201
3 2105 1043 2326
3 1957 1212 2301
3 1514 1856 2367
3 565 538 2167
3 373 370 2103
3 355 348 2196
3 1934 1272 2138
3 1934 426 2531
3 1881 1400 2481
3 2046 1851 2327
3 367 961 2103
3 1963 1152 2206
3 201 278 443
3 3 131 2444
3 31 1 2445
3 2035 441 2097
3 503 787 2198
3 1135 1849 1930
3 1534 1983 2306
3 2089 623 2150
3 687 704 2109
3 869 1351 2363
3 1302 1304 2205
3 955 1716 2484
3 1030 720 1031
3 1159 1318 2240
3 1228 1226 2281
3 947 918 2008
3 413 420 2084
3 785 879 2532
3 1041 947 1168
3 1468 2182 2323
3 1246 1234 2088
3 1730 1163 2372
3 542 555 2086
3 1599 631 2312
3 1146 1967 2174
3 1078 1136 2343
3 1515 1574 2180
3 2336 885 2469
3 1257 1243 2074
3 1347 1346 2279
3 2001 650 2206
3 1480 1601 2514
3 1029 1000 2184
3 1956 788 2336
3 1271 1261 2059
3 130 3 2444
3 1 32 2445
3 1570 1507 2197
3 1232 1255 2088
3 791 1642 2529
3 1601 1479 2269
3 1361 1362 2168
3 1634 1922 2281
3 765 2065 2190
3 2071 1158 2153
3 1699 1801 2289
3 832 831 833
3 1864 346 2344
3 456 476 2097
3 1855 828 2411
3 2065 1162 2190
3 1125 1192 2149
3 599 760 2083
3 361 765 2339
3 1731 2123 2241
3 1349 1181 1350
3 1443 1275 2251
3 1819 524 2429
3 1021 1045 2512
3 858 618 2132
3 1999 358 2338
3 368 292 2038
3 290 368 2135
3 803 331 2296
3 1112 1008 2152
3 56 1947 2313
3 555 979 2086
3 1469 1496 2182
3 1011 967 2107
3 248 2017 2288
3 1809 789 2425
3 960 453 2221
3 538 558 2167
3 1858 1187 2248
3 2246 1757 2526
3 902 905 2141
3 1851 1853 2327
3 1224 1222 2111
3 771 288 2135
3 1945 2153 2257
3 1420 1525 2489
3 1399 1123 2393
3 103 2025 2355
3 897 822 898
3 1861 940 2532
3 865 1125 2146
3 1675 2474 2522
3 1573 2157 2507
3 1632 1631 2382
3 551 601 602
3 527 503 2198
3 1708 805 2337
3 1059 1278 2372
3 2056 527 2198
3 860 861 2112
3 1668 2348 2398
3 255 2159 2265
3 1541 1542 2269
3 1428 2074 2227
3 1582 1583 2321
3 389 1774 2503
3 2004 226 2157
3 1777 397 2405
3 1368 1436 2254
3 1061 2409 2462
3 1071 930 2462
3 1126 901 2141
3 1194 1197 2120
3 1452 1952 2282
3 2116 1319 2482
3 105 106 2218
3 1981 1399 2393
3 2119 983 2143
3 444 1682 2461
3 2173 1648 2463
3 616 793 2132
3 1791 1190 2334
3 1826 1728 2259
3 602 652 653
3 1834 1292 2428
3 556 2201 2327
3 1014 1015 2385
3 1995 1287 2331
3 1193 1195 2189
3 816 1324 2131
3 879 1861 2532
3 593 1182 2133
3 1402 266 1742
3 2216 1323 2354
3 1660 1636 2502
3 620 955 2484
3 1162 1706 2190
3 1870 2113 2249
3 204 1680 1732
3 1909 2023 2420
3 217 72 2217
3 376 372 2430
3 905 1209 2141
3 1378 1381 2283
3 1236 1246 2227
3 286 771 2063
3 1635 2263 2502
3 100 101 2220
3 1139 898 1140
3 2114 1343 2136
3 442 284 2063
3 1772 2106 2414
3 1985 1755 2533
3 2192 1328 2315
3 1064 863 2146
3 1631 1637 2459
3 736 2049 2523
3 221 1906 2246
3 318 1983 2171
3 1496 2047 2182
3 1374 2139 2506
3 196 55 2313
3 2087 462 2134
3 676 653 677
3 2304 257 2491
3 1401 2324 2363
3 829 677 830
3 654 2223 2242
3 1187 977 2112
3 1463 1466 2200
3 2023 219 2516
3 1176 881 2215
3 513 471 2290
3 1812 459 2252
3 1386 1269 2199
3 291 758 2306
3 618 616 2132
3 278 280 2210
3 83 220 2289
3 82 83 2289
3 938 1057 2161
3 1189 986 1190
3 788 719 2336
3 1914 2001 2206
3 232 181 1652
3 1567 2062 2490
3 313 757 2495
3 622 619 2484
3 688 878 1320
3 1222 1626 2111
3 282 442 2079
3 1169 2008 2105
3 1966 1007 2308
3 2040 799 2237
3 1744 2229 2495
3 986 833 1063
3 2284 1605 2510
3 887 1961 2376
3 215 1624 2262
3 830 831 832
3 476 475 2224
3 439 451 2223
3 1932 1933 2380
3 2227 1246 2366
3 1212 1202 2301
3 1107 1110 2228
3 249 2010 2299
3 1983 293 2306
3 2055 1214 2237
3 1438 1372 2478
3 824 560 2156
3 2320 1866 2513
3 1351 1137 2374
3 868 2007 2232
3 2063 771 2064
3 1507 214 1508
3 1728 1727 2246
3 1045 1047 2348
3 1139 1140 2096
3 1648 1649 2463
3 1502 2302 2519
3 704 707 2109
3 2343 1136 2396
3 650 1963 2206
3 2153 895 2257
3 396 1958 2431
3 1379 1377 2288
3 2115 1471 2319
3 2033 987 2202
3 2239 1693 2518
3 2025 1488 2355
3 1209 2115 2319
3 523 524 2156
3 783 939 2243
3 376 1798 2497
3 2066 788 2193
3 1984 318 2172
3 425 427 2221
3 203 172 1847
3 446 457 2264
3 1312 2089 2150
3 2138 1272 2211
3 897 1139 2274
3 828 1819 2429
3 1249 1224 2111
3 666 667 2318
3 1371 1326 2194
3 2433 1499 2475
3 1272 1271 2211
3 1367 2254 2479
3 1386 2053 2383
3 2074 1238 2227
3 755 2148 2320
3 2117 1604 2428
3 475 514 2224
3 228 2187 2457
3 1868 1504 2520
3 1626 1218 2185
3 2123 1111 2241
3 1287 1049 2331
3 1280 687 2109
3 459 1814 2292
3 54 196 2402
3 863 865 2146
3 204 176 1680
3 514 2086 2224
3 1646 603 2398
3 112 197 2346
3 358 300 2338
3 1140 898 1141
3 1204 1335 2301
3 1016 2161 2438
3 909 1041 2175
3 1681 2448 2492
3 2252 459 2292
3 1992 868 2232
3 1035 1036 2235
3 1051 1295 2331
3 1836 1289 2242
3 1508 214 1859
3 247 53 2402
3 1016 938 2161
3 1408 856 2378
3 1466 2158 2200
3 725 885 2336
3 855 1450 2421
3 2023 1768 2420
3 1238 1236 2227
3 1679 202 2253
3 2107 1348 2233
3 1653 1431 2487
3 1946 2291 2343
3 2253 202 2329
3 1885 1312 2150
3 378 628 2390
3 2195 1383 2432
3 1520 1519 2480
3 1532 1733 2534
3 308 327 2278
3 953 951 2255
3 1213 1407 2222
3 1561 1563 2285
3 302 763 2338
3 1928 2033 2202
3 763 304 2345
3 832 833 986
3 1352 2040 2237
3 247 1881 2481
3 560 523 2156
3 335 339 2261
3 346 342 2344
3 201 443 1323
3 2301 1335 2466
3 323 320 2229
3 1136 2110 2396
3 1139 1977 2274
3 1809 1615 2423
3 1707 1791 2334
3 46 2019 2485
3 2064 1294 2238
3 1950 197 2404
3 2021 2022 2176
3 1949 245 2420
3 2044 2152 2207
3 1063 1154 1707
3 1012 1363 2406
3 280 2079 2210
3 2237 1214 2351
3 820 698 2318
3 1140 1141 1406
3 205 2021 2176
3 2043 786 2310
3 2145 1004 2446
3 707 1030 2109
3 1406 2460 2473
3 2137 1268 2226
3 16 2081 2260
3 567 2031 2219
3 2112 1064 2248
3 206 45 2485
3 2347 1462 2365
3 1650 1962 2362
3 453 425 2221
3 1209 907 2175
3 1111 1276 2241
3 2448 1145 2492
3 2051 2083 2243
3 59 60 2266
3 1402 1742 2530
3 831 677 2209
3 624 587 2276
3 238 174 1725
3 1011 2107 2233
3 468 2365 2412
3 2337 805 2371
3 254 1932 2380
3 1174 1398 2207
3 2140 111 2346
3 1381 2186 2283
3 1987 2037 2188
3 1740 559 2456
3 1773 391 2503
3 1335 1870 2249
3 1945 2257 2291
3 828 463 2411
3 1246 2088 2208
3 2060 798 2307
3 1773 1159 2240
3 1187 2112 2248
3 1352 2237 2351
3 2037 1322 2188
3 1941 1499 2433
3 2322 225 2510
3 1031 1034 2236
3 327 2188 2321
3 595 2032 2273
3 1464 1462 2347
3 1285 1992 2232
3 799 2055 2237
3 443 278 2210
3 784 874 2178
3 392 396 2431
3 191 95 2309
3 879 784 2178
3 524 511 2429
3 2128 2011 2270
3 895 896 2257
3 2206 1152 2324
3 318 2171 2172
3 2259 1549 2379
3 1214 1410 2351
3 306 308 2278
3 2022 251 2247
3 1757 1729 2309
3 1283 1918 2524
3 996 1706 2492
3 557 2044 2207
3 1798 1448 2364
3 1447 2250 2310
3 559 1750 2403
3 1363 1011 2233
3 1343 1168 2187
3 1407 2044 2256
3 1462 1460 2365
3 1995 2331 2458
3 327 1987 2188
3 2160 254 2380
3 1681 958 2287
3 2031 1160 2250
3 1600 689 2413
3 2219 1692 2239
3 1494 1675 2522
3 1281 1916 2448
3 907 909 2175
3 565 2167 2276
3 2241 1276 2275
3 1978 316 2443
3 2151 212 2350
3 203 1847 2104
3 2049 1481 2523
3 1961 1362 2376
3 2187 1393 2457
3 940 796 2532
3 2293 1349 2329
3 572 1897 2537
3 332 739 2282
3 2052 567 2239
3 1437 1370 2277
3 567 2219 2239
3 667 626 2452
3 1914 2206 2324
3 2243 939 2392
3 2136 1343 2187
3 257 1654 2530
3 1376 1378 2283
3 2076 1982 2272
3 2083 760 2243
3 1944 1945 2291
3 1771 1839 2359
3 1404 1403 2399
3 1875 1866 2320
3 1460 1337 2412
3 760 783 2243
3 1276 1366 2275
3 1428 2227 2366
3 1882 1605 2284
3 1739 1429 2459
3 2321 2188 2434
3 1328 1327 2315
3 798 2189 2307
3 2152 1174 2207
3 2182 1247 2323
3 1516 1514 2367
3 293 291 2306
3 556 537 2201
3 1298 1300 2314
3 1400 1399 2316
3 1649 2236 2463
3 833 831 2424
3 2127 2050 2333
3 1057 914 2328
3 1839 193 2359
3 761 1741 2258
3 1186 1970 2422
3 1429 2366 2382
3 2211 1271 2271
3 1733 1248 2534
3 13 2114 2136
3 2078 390 2431
3 1533 1536 2340
3 1690 2145 2446
3 1277 2308 2370
3 1168 1393 2187
3 1597 2047 2268
3 587 565 2276
3 1908 244 2401
3 225 125 2284
3 610 2130 2468
3 1749 2105 2326
3 1913 1914 2324
3 2366 2208 2382
3 1391 1876 2295
3 457 552 2264
3 653 688 2209
3 1601 2443 2514
3 682 2138 2211
3 992 1980 2244
3 55 56 2313
3 1645 1495 2493
3 473 477 2483
3 202 1724 2329
3 465 828 2429
3 1277 1966 2308
3 1416 2330 2406
3 1912 1364 2455
3 1716 1483 2375
3 2019 1651 2485
3 1725 2137 2226
3 201 1323 2216
3 878 1083 2213
3 2072 2073 2245
3 1563 1777 2405
3 244 2028 2401
3 2016 1564 2422
3 1682 1497 2461
3 1962 1153 2362
3 1298 2314 2358
3 1384 1385 2391
3 688 1320 2209
3 1587 2179 2435
3 786 380 2497
3 1395 1522 2341
3 2032 1919 2273
3 251 2013 2247
3 2219 2031 2250
3 2397 552 2453
3 1765 255 2489
3 2475 1825 2524
3 1202 1204 2301
3 445 2078 2411
3 323 2229 2296
3 1286 2384 2408
3 537 551 2201
3 1724 237 2293
3 84 85 2335
3 1471 1126 2319
3 1635 1634 2511
3 300 302 2338
3 698 666 2318
3 1030 1031 2236
3 2098 1457 2271
3 696 1821 2426
3 1457 1492 2447
3 1956 2336 2469
3 331 323 2296
3 1284 1491 2342
3 2011 1996 2270
3 256 183 2303
3 160 257 2304
3 2204 1589 2501
3 1891 1014 2280
3 719 725 2336
3 1354 1808 2381
3 437 430 2494
3 2377 218 2391
3 2211 2271 2447
3 1407 2256 2290
3 2365 1460 2412
3 2047 1498 2268
3 1825 1283 2524
3 1499 1825 2475
3 1226 1249 2281
3 2051 2243 2392
3 2250 1160 2310
3 111 112 2346
3 304 306 2345
3 1341 1352 2351
3 2166 191 2504
3 2223 1836 2242
3 1996 247 2481
3 1049 1051 2331
3 1086 1298 2358
3 2130 595 2273
3 1249 2111 2263
3 680 1995 2458
3 1511 2140 2346
3 102 103 2355
3 469 473 2453
3 961 2072 2245
3 2073 1282 2245
3 1442 1443 2525
3 74 192 2361
3 2163 1586 2435
3 1519 1518 2449
3 897 2274 2500
3 303 444 2317
3 1615 1614 2423
3 197 2009 2404
3 1634 2281 2511
3 1780 1781 2419
3 1435 1623 2465
3 1286 1774 2384
3 384 361 2339
3 193 1901 2359
3 1165 2433 2475
3 2277 1370 2386
3 677 653 2209
3 1994 1516 2367
3 1479 1478 2440
3 1165 1512 2433
3 1644 1353 2417
3 1711 1712 2353
3 2193 1615 2425
3 1613 1956 2469
3 1440 1173 2330
3 2269 1479 2440
3 222 2218 2465
3 391 389 2503
3 306 2278 2345
3 468 2090 2365
3 221 2246 2526
3 1445 1446 2504
3 939 1844 2392
3 86 87 2373
3 1429 1428 2366
3 2053 2103 2383
3 1348 1212 2312
3 805 750 2371
3 997 1286 2408
3 1152 869 2363
3 2063 2064 2238
3 192 1994 2367
3 1160 2043 2310
3 1926 2151 2350
3 2059 2098 2271
3 1897 1366 2537
3 215 2262 2437
3 1655 1732 2476
3 2415 1128 2454
3 1320 2213 2214
3 7 258 2357
3 259 155 2356
3 2171 1530 2172
3 347 351 2407
3 1077 1078 2343
3 239 2003 2279
3 1446 1128 2415
3 1034 1033 2410
3 601 627 2442
3 1154 1653 2234
3 397 2060 2405
3 2142 794 2272
3 442 2063 2238
3 1863 1215 2378
3 794 2076 2272
3 1883 1375 2505
3 1320 878 2213
3 342 468 2344
3 1903 218 2377
3 380 376 2497
3 1549 1547 2379
3 1148 1165 2475
3 2157 226 2507
3 829 972 2326
3 884 1957 2466
3 2291 1077 2343
3 65 66 2395
3 787 2052 2518
3 2298 1348 2312
3 1946 2343 2396
3 1653 256 2535
3 1842 1548 2472
3 1957 2301 2466
3 1366 1277 2370
3 2213 1432 2214
3 961 2245 2383
3 218 2093 2391
3 1376 2283 2421
3 1873 2127 2333
3 1019 1021 2512
3 1128 1127 2454
3 1104 1434 2450
3 2130 1439 2468
3 2396 2110 2482
3 2186 855 2283
3 1724 2293 2329
3 1163 1059 2372
3 1614 2389 2423
3 53 54 2402
3 1063 1707 2334
3 2283 855 2421
3 1385 1863 2436
3 364 1883 2505
3 517 1890 2387
3 1145 996 2492
3 1047 1287 2348
3 2148 1875 2320
3 205 2176 2416
3 1372 1844 2478
3 1211 2219 2250
3 1141 898 2368
3 245 1909 2420
3 2278 327 2321
3 2389 1397 2423
3 2256 513 2290
3 559 2403 2456
3 1137 1340 2374
3 2093 1384 2391
3 1918 1148 2524
3 1030 2236 2427
3 1867 1895 2513
3 2014 517 2387
3 2271 1457 2447
3 1143 2028 2353
3 1904 194 2432
3 1148 2475 2524
3 1574 1523 2436
3 2213 1083 2311
3 1997 358 2325
3 2139 246 2506
3 1370 1369 2386
3 1271 2059 2271
3 1034 2173 2463
3 1123 1412 2393
3 1578 1827 2515
3 2209 1320 2424
3 2079 1504 2210
3 1361 2168 2305
3 1491 1489 2403
3 238 1725 2226
3 1190 986 2334
3 1547 1545 2508
3 1891 1613 2469
3 1153 1885 2362
3 2208 1632 2382
3 2287 1281 2448
3 1356 1376 2421
3 1965 2349 2515
3 2155 1186 2422
3 1522 2014 2387
3 2158 1468 2323
3 2050 954 2333
3 1397 1809 2423
3 1362 1360 2376
3 1852 1985 2397
3 2069 1691 2446
3 789 2066 2425
3 1895 755 2513
3 1707 1154 2234
3 372 374 2430
3 2225 787 2518
3 2028 1206 2401
3 986 1063 2334
3 1912 726 2439
3 1340 1342 2400
3 1916 1145 2448
3 2236 1649 2427
3 2374 1340 2400
3 2222 1407 2290
3 2324 1152 2363
3 241 2220 2472
3 765 2190 2384
3 2375 667 2452
3 2330 1173 2406
3 1181 1972 2500
3 2126 1382 2388
3 1173 1012 2406
3 315 313 2495
3 1015 1373 2385
3 97 221 2526
3 1937 1397 2389
3 930 1061 2462
3 971 1096 2496
3 45 46 2485
3 669 791 2529
3 1104 2450 2521
3 382 378 2390
3 2191 1371 2536
3 2235 1036 2286
3 831 2209 2424
3 762 1997 2349
3 2379 1547 2508
3 2177 1359 2467
3 2403 1489 2456
3 796 785 2532
3 219 1902 2516
3 1519 2300 2480
3 1065 1655 2476
3 1375 1473 2505
3 1489 1490 2456
3 390 392 2431
3 2247 2013 2464
3 1135 1930 2369
3 2278 1583 2345
3 626 622 2452
3 631 2298 2312
3 2233 1348 2298
3 1398 1974 2499
3 1706 1681 2492
3 261 130 2444
3 32 260 2445
3 822 2099 2368
3 1365 1912 2439
3 941 940 2418
3 1446 2166 2504
3 2106 1121 2414
3 2300 1519 2449
3 1803 1104 2521
3 1732 1570 2476
3 1413 2051 2392
3 2122 1946 2396
3 2238 1868 2520
3 477 556 2483
3 2397 1985 2533
3 463 445 2411
3 2163 1185 2488
3 1126 2141 2319
3 1755 2264 2533
3 972 2204 2501
3 2230 1533 2340
3 1774 1773 2503
3 1997 2325 2349
3 1004 2069 2446
3 2159 31 2445
3 131 2160 2444
3 1371 2191 2451
3 1001 2154 2486
3 1682 2230 2340
3 2103 961 2383
3 1033 1151 2410
3 382 2390 2531
3 1504 2079 2520
3 1583 2278 2321
3 511 465 2429
3 250 2024 2479
3 2208 2088 2509
3 619 620 2484
3 1246 2208 2366
3 2141 1209 2319
3 1359 1413 2467
3 1295 1459 2458
3 2218 1435 2465
3 2281 1249 2511
3 2293 237 2354
3 2207 1398 2499
3 1564 2155 2422
3 552 469 2453
3 1947 224 2498
3 2062 1568 2490
3 2018 205 2416
3 260 2159 2445
3 2160 261 2444
3 2092 610 2468
3 194 2195 2432
3 1432 2213 2311
3 211 2251 2464
3 2378 856 2527
3 1536 1532 2534
3 2364 786 2497
3 2438 1438 2478
3 1185 1948 2488
3 2042 941 2418
3 1582 2321 2434
3 885 1891 2469
3 1364 2048 2455
3 1693 2225 2518
3 401 382 2531
3 1338 2247 2464
3 442 2238 2520
3 1292 2117 2428
3 2274 1350 2500
3 2066 2193 2425
3 2179 1184 2435
3 898 822 2368
3 2436 1863 2527
3 1844 1016 2478
3 2184 1001 2486
3 557 2207 2499
3 2013 211 2464
3 2254 250 2479
3 1350 1181 2500
3 2009 248 2470
3 246 2140 2506
3 1574 2436 2527
3 2139 1419 2517
3 316 1971 2514
3 1319 2122 2482
3 226 2006 2507
3 1400 2270 2481
3 1681 2287 2448
3 2325 1578 2349
3 232 1652 2487
3 1320 2214 2424
3 1632 2208 2509
3 248 2288 2470
3 1406 1141 2460
3 2188 1322 2434
3 2244 1980 2441
3 2088 1255 2509
3 1280 2109 2427
3 2060 2307 2405
3 2236 1034 2463
3 1745 2293 2354
3 2122 2396 2482
3 2109 1030 2427
3 2307 1563 2405
3 1429 2382 2459
3 224 2267 2498
3 682 2211 2447
3 2079 442 2520
3 2348 1287 2398
3 2220 1842 2472
3 1335 2249 2466
3 1249 2263 2511
3 443 2210 2519
3 2385 1373 2394
3 1594 2184 2486
3 2052 2239 2518
3 1568 2439 2490
3 2349 1578 2515
3 2344 468 2412
3 2270 1996 2481
3 1735 2244 2441
3 2260 1471 2477
3 2210 1504 2519
3 1434 2297 2450
3 2297 1419 2450
3 2263 1660 2502
3 2404 2009 2470
3 1718 2385 2394
3 1371 2194 2536
3 2317 444 2461
3 1443 2322 2525
3 1716 2375 2452
3 1863 2378 2527
3 2439 726 2490
3 1057 2328 2451
3 1638 2404 2470
3 1454 2234 2535
3 755 2320 2513
3 2234 1653 2535
3 2264 552 2533
3 1419 2297 2517
3 1392 2322 2510
3 552 2397 2533
3 1798 2364 2497
3 2322 1392 2525
3 2382 1631 2459
3 1016 2438 2478
3 1366 2370 2537
3 1742 2491 2530
3 2491 257 2530
CELL_TYPES 4886
5
5
5
5
5
5
5
5
5
5
5
5
5
5
5
5
5
5
5
5
5
5
5
5
5
5
5
5
5
5
5
5
5
5
5
5
5
5
5
5
5
5
5
5
5
5
5
5
5
5
5
5
5
5
5
5
5
5
5
5
5
5
5
5
5
5
5
5
5
5
5
5
5
5
5
5
5
5
5
5
5
5
5
5
5
5
5
5
5
5
5
5
5
5
5
5
5
5
5
5
5
5
5
5
5
5
5
5
5
5
5
5
5
5
5
5
5
5
5
5
5
5
5
5
5
5
5
5
5
5
5
5
5
5
5
5
5
5
5
5
5
5
5
5
5
5
5
5
5
5
5
5
5
5
5
5
5
5
5
5
5
5
5
5
5
5
5
5
5
5
5
5
5
5
5
5
5
5
5
5
5
5
5
5
5
5
5
5
5
5
5
5
5
5
5
5
5
5
5
5
5
5
5
5
5
5
5
5
5
5
5
5
5
5
5
5
5
5
5
5
5
5
5
5
5
5
5
5
5
5
5
5
5
5
5
5
5
5
5
5
5
5
5
5
5
5
5
5
5
5
5
5
5
5
5
5
5
5
5
5
5
5
5
5
5
5
5
5
5
5
5
5
5
5
5
5
5
5
5
5
5
5
5
5
5
5
5
5
5
5
5
5
5
5
5
5
5
5
5
5
5
5
5
5
5
5
5
5
5
5
5
5
5
5
5
5
5
5
5
5
5
5
5
5
5
5
5
5
5
5
5
5
5
5
5
5
5
5
5
5
5
5
5
5
5
5
5
5
5
5
5
5
5
5
5
5
5
5
5
5
5
5
5
5
5
5
5
5
5
5
5
5
5
5
5
5
5
5
5
5
5
5
5
5
5
5
5
5
5
5
5
5
5
5
5
5
5
5
5
5
5
5
5
5
5
5
5
5
5
5
5
5
5
5
5
5
5
5
5
5
5
5
5
5
5
5
5
5
5
5
5
5
5
5
5
5
5
5
5
5
5
5
5
5
5
5
5
5
5
5
5
5
5
5
5
5
5
5
5
5
5
5
5
5
5
5
5
5
5
5
5
5
5
5
5
5
5
5
5
5
5
5
5
5
5
5
5
5
5
5
5
5
5
5
5
5
5
5
5
5
5
5
5
5
5
5
5
5
5
5
5
5
5
5
5
5
5
5
5
5
5
5
5
5
5
5
5
5
5
5
5
5
5
5
5
5
5
5
5
5
5
5
5
5
5
5
5
5
5
5
5
5
5
5
5
5
5
5
5
5
5
5
5
5
5
5
5
5
5
5
5
5
5
5
5
5
5
5
5
5
5
5
5
5
5
5
5
5
5
5
5
5
5
5
5
5
5
5
5
5
5
5
5
5
5
5
5
5
5
5
5
5
5
5
5
5
5
5
5
5
5
5
5
5
5
5
5
5
5
5
5
5
5
5
5
5
5
5
5
5
5
5
5
5
5
5
5
5
5
5
5
5
5
5
5
5
5
5
5
5
5
5
5
5
5
5
5
5
5
5
5
5
5
5
5
5
5
5
5
5
5
5
5
5
5
5
5
5
5
5
5
5
5
5
5
5
5
5
5
5
5
5
5
5
5
5
5
5
5
5
5
5
5
5
5
5
5
5
5
5
5
5
5
5
5
5
5
5
5
5
5
5
5
5
5
5
5
5
5
5
5
5
5
5
5
5
5
5
5
5
5
5
5
5
5
5
5
5
5
5
5
5
5
5
5
5
5
5
5
5
5
5
5
5
5
5
5
5
5
5
5
5
5
5
5
5
5
5
5
5
5
5
5
5
5
5
5
5
5
5
5
5
5
5
5
5
5
5
5
5
5
5
5
5
5
5
5
5
5
5
5
5
5
5
5
5
5
5
5
5
5
5
5
5
5
5
5
5
5
5
5
5
5
5
5
5
5
5
5
5
5
5
5
5
5
5
5
5
5
5
5
5
5
5
5
5
5
5
5
5
5
5
5
5
5
5
5
5
5
5
5
5
5
5
5
5
5
5
5
5
5
5
5
5
5
5
5
5
5
5
5
5
5
5
5
5
5
5
5
5
5
5
5
5
5
5
5
5
5
5
5
5
5
5
5
5
5
5
5
5
5
5
5
5
5
5
5
5
5
5
5
5
5
5
5
5
5
5
5
5
5
5
5
5
5
5
5
5
5
5
5
5
5
5
5
5
5
5
5
5
5
5
5
5
5
5
5
5
5
5
5
5
5
5
5
5
5
5
5
5
5
5
5
5
5
5
5
5
5
5
5
5
5
5
5
5
5
5
5
5
5
5
5
5
5
5
5
5
5
5
5
5
5
5
5
5
5
5
5
5
5
5
5
5
5
5
5
5
5
5
5
5
5
5
5
5
5
5
5
5
5
5
5
5
5
5
5
5
5
5
5
5
5
5
5
5
5
5
5
5
5
5
5
5
5
5
5
5
5
5
5
5
5
5
5
5
5
5
5
5
5
5
5
5
5
5
5
5
5
5
5
5
5
5
5
5
5
5
5
5
5
5
5
5
5
5
5
5
5
5
5
5
5
5
5
5
5
5
5
5
5
5
5
5
5
5
5
5
5
5
5
5
5
5
5
5
5
5
5
5
5
5
5
5
5
5
5
5
5
5
5
5
5
5
5
5
5
5
5
5
5
5
5
5
5
5
5
5
5
5
5
5
5
5
5
5
5
5
5
5
5
5
5
5
5
5
5
5
5
5
5
5
5
5
5
5
5
5
5
5
5
5
5
5
5
5
5
5
5
5
5
5
5
5
5
5
5
5
5
5
5
5
5
5
5
5
5
5
5
5
5
5
5
5
5
5
5
5
5
5
5
5
5
5
5
5
5
5
5
5
5
5
5
5
5
5
5
5
5
5
5
5
5
5
5
5
5
5
5
5
5
5
5
5
5
5
5
5
5
5
5
5
5
5
5
5
5
5
5
5
5
5
5
5
5
5
5
5
5
5
5
5
5
5
5
5
5
5
5
5
5
5
5
5
5
5
5
5
5
5
5
5
5
5
5
5
5
5
5
5
5
5
5
5
5
5
5
5
5
5
5
5
5
5
5
5
5
5
5
5
5
5
5
5
5
5
5
5
5
5
5
5
5
5
5
5
5
5
5
5
5
5
5
5
5
5
5
5
5
5
5
5
5
5
5
5
5
5
5
5
5
5
5
5
5
5
5
5
5
5
5
5
5
5
5
5
5
5
5
5
5
5
5
5
5
5
5
5
5
5
5
5
5
5
5
5
5
5
5
5
5
5
5
5
5
5
5
5
5
5
5
5
5
5
5
5
5
5
5
5
5
5
5
5
5
5
5
5
5
5
5
5
5
5
5
5
5
5
5
5
5
5
5
5
5
5
5
5
5
5
5
5
5
5
5
5
5
5
5
5
5
5
5
5
5
5
5
5
5
5
5
5
5
5
5
5
5
5
5
5
5
5
5
5
5
5
5
5
5
5
5
5
5
5
5
5
5
5
5
5
5
5
5
5
5
5
5
5
5
5
5
5
5
5
5
5
5
5
5
5
5
5
5
5
5
5
5
5
5
5
5
5
5
5
5
5
5
5
5
5
5
5
5
5
5
5
5
5
5
5
5
5
5
5
5
5
5
5
5
5
5
5
5
5
5
5
5
5
5
5
5
5
5
5
5
5
5
5
5
5
5
5
5
5
5
5
5
5
5
5
5
5
5
5
5
5
5
5
5
5
5
5
5
5
5
5
5
5
5
5
5
5
5
5
5
5
5
5
5
5
5
5
5
5
5
5
5
5
5
5
5
5
5
5
5
5
5
5
5
5
5
5
5
5
5
5
5
5
5
5
5
5
5
5
5
5
5
5
5
5
5
5
5
5
5
5
5
5
5
5
5
5
5
5
5
5
5
5
5
5
5
5
5
5
5
5
5
5
5
5
5
5
5
5
5
5
5
5
5
5
5
5
5
5
5
5
5
5
5
5
5
5
5
5
5
5
5
5
5
5
5
5
5
5
5
5
5
5
5
5
5
5
5
5
5
5
5
5
5
5
5
5
5
5
5
5
5
5
5
5
5
5
5
5
5
5
5
5
5
5
5
5
5
5
5
5
5
5
5
5
5
5
5
5
5
5
5
5
5
5
5
5
5
5
5
5
5
5
5
5
5
5
5
5
5
5
5
5
5
5
5
5
5
5
5
5
5
5
5
5
5
5
5
5
5
5
5
5
5
5
5
5
5
5
5
5
5
5
5
5
5
5
5
5
5
5
5
5
5
5
5
5
5
5
5
5
5
5
5
5
5
5
5
5
5
5
5
5
5
5
5
5
5
5
5
5
5
5
5
5
5
5
5
5
5
5
5
5
5
5
5
5
5
5
5
5
5
5
5
5
5
5
5
5
5
5
5
5
5
5
5
5
5
5
5
5
5
5
5
5
5
5
5
5
5
5
5
5
5
5
5
5
5
5
5
5
5
5
5
5
5
5
5
5
5
5
5
5
5
5
5
5
5
5
5
5
5
5
5
5
5
5
5
5
5
5
5
5
5
5
5
5
5
5
5
5
5
5
5
5
5
5
5
5
5
5
5
5
5
5
5
5
5
5
5
5
5
5
5
5
5
5
5
5
5
5
5
5
5
5
5
5
5
5
5
5
5
5
5
5
5
5
5
5
5
5
5
5
5
5
5
5
5
5
5
5
5
5
5
5
5
5
5
5
5
5
5
5
5
5
5
5
5
5
5
5
5
5
5
5
5
5
5
5
5
5
5
5
5
5
5
5
5
5
5
5
5
5
5
5
5
5
5
5
5
5
5
5
5
5
5
5
5
5
5
5
5
5
5
5
5
5
5
5
5
5
5
5
5
5
5
5
5
5
5
5
5
5
5
5
5
5
5
5
5
5
5
5
5
5
5
5
5
5
5
5
5
5
5
5
5
5
5
5
5
5
5
5
5
5
5
5
5
5
5
5
5
5
5
5
5
5
5
5
5
5
5
5
5
5
5
5
5
5
5
5
5
5
5
5
5
5
5
5
5
5
5
5
5
5
5
5
5
5
5
5
5
5
5
5
5
5
5
5
5
5
5
5
5
5
5
5
5
5
5
5
5
5
5
5
5
5
5
5
5
5
5
5
5
5
5
5
5
5
5
5
5
5
5
5
5
5
5
5
5
5
5
5
5
5
5
5
5
5
5
5
5
5
5
5
5
5
5
5
5
5
5
5
5
5
5
5
5
5
5
5
5
5
5
5
5
5
5
5
5
5
5
5
5
5
5
5
5
5
5
5
5
5
5
5
5
5
5
5
5
5
5
5
5
5
5
5
5
5
5
5
5
5
5
5
5
5
5
5
5
5
5
5
5
5
5
5
5
5
5
5
5
5
5
5
5
5
5
5
5
5
5
5
5
5
5
5
5
5
5
5
5
5
5
5
5
5
5
5
5
5
5
5
5
5
5
5
5
5
5
5
5
5
5
5
5
5
5
5
5
5
5
5
5
5
5
5
5
5
5
5
5
5
5
5
5
5
5
5
5
5
5
5
5
5
5
5
5
5
5
5
5
5
5
5
5
5
5
5
5
5
5
5
5
5
5
5
5
5
5
5
5
5
5
5
5
5
5
5
5
5
5
5
5
5
5
5
5
5
5
5
5
5
5
5
5
5
5
5
5
5
5
5
5
5
5
5
5
5
5
5
5
5
5
5
5
5
5
5
5
5
5
5
5
5
5
5
5
5
5
5
5
5
5
5
5
5
5
5
5
5
5
5
5
5
5
5
5
5
5
5
5
5
5
5
5
5
5
5
5
5
5
5
5
5
5
5
5
5
5
5
5
5
5
5
5
5
5
5
5
5
5
5
5
5
5
5
5
5
5
5
5
5
5
5
5
5
5
5
5
5
5
5
5
5
5
5
5
5
5
5
5
5
5
5
5
5
5
5
5
5
5
5
5
5
5
5
5
5
5
5
5
5
5
5
5
5
5
5
5
5
5
5
5
5
5
5
5
5
5
5
5
5
5
5
5
5
5
5
5
5
5
5
5
5
5
5
5
5
5
5
5
5
5
5
5
5
5
5
5
5
5
5
5
5
5
5
5
5
5
5
5
5
5
5
5
5
5
5
5
5
5
5
5
5
5
5
5
5
5
5
5
5
5
5
5
5
5
5
5
5
5
5
5
5
5
5
5
5
5
5
5
5
5
5
5
5
5
5
5
5
5
5
5
5
5
5
5
5
5
5
5
5
5
5
5
5
5
5
5
5
5
5
5
5
5
5
5
5
5
5
5
5
5
5
5
5
5
5
5
5
5
5
5
5
5
5
5
5
5
5
5
5
5
5
5
5
5
5
5
5
5
5
5
5
5
5
5
5
5
5
5
5
5
5
5
5
5
5
5
5
5
5
5
5
5
5
5
5
5
5
5
5
5
5
5
5
5
5
5
5
5
5
5
5
5
5
5
5
5
5
5
5
5
5
5
5
5
5
5
5
5
5
5
5
5
5
5
5
5
5
5
5
5
5
5
5
5
5
5
5
5
5
5
5
5
5
5
5
5
5
5
5
5
5
5
5
5
5
5
5
5
5
5
5
5
5
5
5
5
5
5
5
5
5
5
5
5
5
5
5
5
5
5
5
5
5
5
5
5
5
5
5
5
5
5
5
5
5
5
5
5
5
5
5
5
5
5
5
5
5
5
5
5
5
5
5
5
5
5
5
5
5
5
5
5
5
5
5
5
5
5
5
5
5
5
5
5
5
5
5
5
5
5
5
5
5
5
5
5
5
5
5
5
5
5
5
5
5
5
5
5
5
5
5
5
5
5
5
5
5
5
5
5
5
5
5
5
5
5
5
5
5
5
5
5
5
5
5
5
5
5
5
5
5
5
5
5
5
5
5
5
5
5
5
5
5
5
5
5
5
5
5
5
5
5
5
5
5
5
5
5
5
5
5
5
5
5
5
5
5
5
5
5
5
5
5
5
5
5
5
5
5
5
5
5
5
5
5
5
5
5
5
5
5
5
5
5
5
5
5
5
5
5
5
5
5
5
5
5
5
5
5
5
5
5
5
5
5
5
5
5
5
5
5
5
5
5
5
5
5
5
5
5
5
5
5
5
5
5
5
5
5
5
5
5
5
5
5
5
5
5
5
5
5
5
5
5
5
5
5
5
5
5
5
5
5
5
5
5
5
5
5
5
5
5
5
5
5
5
5
5
5
5
5
5
5
5
5
5
5
5
5
5
5
5
5
5
5
5
5
5
5
5
5
5
5
5
5
5
5
5
5
5
5
5
5
5
5
5
5
5
5
5
5
5
5
5
5
5
5
5
5
5
5
5
5
5
5
5
5
5
5
5
5
5
5
5
5
5
5
5
5
5
5
5
5
5
5
5
5
5
5
5
5
5
5
5
5
5
5
5
5
5
5
5
5
5
5
5
5
5
5
5
5
5
5
5
5
5
5
5
5
5
5
5
5
5
5
5
5
5
5
5
5
5
5
5
5
5
5
5
5
5
5
5
5
5
5
5
5
5
5
5
5
5
5
5
5
5
5
5
5
5
5
5
5
5
5
5
5
5
5
5
5
5
5
5
5
5
5
5
5
5
5
5
5
5
5
5
5
5
5
5
5
5
5
5
5
5
5
5
5
5
5
5
5
5
5
5
5
5
5
5
5
5
5
5
5
5
5
5
5
5
5
5
5
5
5
5
5
5
5
5
5
5
5
5
5
5
5
5
5
5
5
5
5
5
5
5
5
5
5
5
5
5
5
5
5
5
5
5
5
5
5
5
5
5
5
5
5
5
5
5
5
5
5
5
5
5
5
5
5
5
5
5
5
5
5
5
5
5
5
5
5
5
5
5
5
5
5
5
5
5
5
5
5
5
5
5
5
5
5
5
5
5
5
5
5
5
5
5
5
5
5
5
5
5
5
5
5
5
5
5
5
5
5
5
5
5
5
5
5
5
5
5
5
5
5
5
5
5
5
5
5
5
5
5
5
5
5
5
5
5
5
5
5
5
5
5
5
5
5
5
5
5
5
5
5
5
5
5
5
5
5
5
5
5
5
5
5
5
5
5
5
5
5
5
5
5
5
5
5
5
5
5
5
5
5
5
5
5
5
5
5
5
5
5
5
5
5
5
5
5
5
5
5
5
5
5
5
5
5
5
5
5
5
5
5
5
5
5
5
5
5
5
5
5
5
5
5
5
5
5
5
5
5
5
5
5
5
5
5
5
5
5
5
5
5
5
5
5
5
5
5
5
5
5
5
5
5
5
5
5
5
5
5
5
5
5
5
5
5
5
5
5
5
5
5
5
5
5
5
5
5
5
5
5
5
5
5
5
5
5
5
5
5
5
5
5
5
5
5
5
5
5
5
5
5
5
5
5
5
5
5
5
5
5
5
5
5
5
5
5
5
5
5
5
5
5
5
5
5
5
5
5
5
5
5
5
5
5
5
5
5
5
5
5
5
5
5
5
5
5
5
5
5
5
5
5
5
5
5
5
5
5
5
5
5
5
5
5
5
5
5
5
5
5
5
5
5
5
5
5
5
5
5
5
5
5
5
5
5
5
5
5
5
5
5
5
5
5
5
5
5
5
5
5
5
5
5
5
5
5
5
5
5
5
5
5
5
5
5
5
5
5
5
5
5
5
5
5
5
5
5
5
5
5
5
5
5
5
5
5
5
5
5
5
5
5
5
5
5
5
5
5
5
5
5
5
5
5
5
5
5
5
5
5
5
5
5
5
5
5
5
5
5
5
5
5
5
5
5
5
5
5
5
5
5
5
5
5
5
5
5
5
5
5
5
5
5
5
5
5
5
5
5
5
5
5
5
5
5
5
5
5
5
5
5
5
5
5
5
5
5
5
5
5
5
5
5
5
5
5
5
5
5
5
5
5
5
5
5
5
5
5
5
5
5
5
5
5
5
5
5
5
5
5
5
5
5
5
5
5
5
5
5
5
5
5
5
5
5
5
5
5
5
5
5
5
5
5
5
5
5
5
5
5
5
5
5
5
5
5
5
5
5
5
5
5
5
5
5
5
5
5
5
5
5
5
5
5
5
5
5
5
5
5
5
5
5
5
5
5
5
5
5
5
5
5
5
5
5
5
5
5
5
5
5
5
5
5
5
5
5
5
5
5
5
5
5
5
5
5
5
5
5
5
5
5
5
5
5
5
5
5
5
5
5
5
5
5
5
5
5
5
5
5
5
5
5
5
5
5
5
5
5
5
5
5
5
5
5
5
5
5
5
5
5
5
5
5
5
5
5
5
5
5
5
5
5
5
5
5
5
5
5
5
5
5
5
5
5
5
5
5
5
5
5
5
5
5
5
5
5
5
5
5
5
5
5
5
5
5
5
5
5
5
5
5
5
5
5
5
5
5
5
5
5
5
5
5
5
5
5
5
5
5
5
5
5
5
5
5
5
5
5
5
5
5
5
5
5
5
5
5
5
5
5
5
5
5
5
5
5
5
5
5
5
5
5
5
5
5
5
5
5
5
5
5
5
5
5
5
5
5
5
5
5
5
5
5
5
5
5
5
5
5
5
5
5
5
5
5
5
5
5
5
5
5
5
5
5
5
5
5
5
5
5
5
5
5
5
5
5
5
5
5
5
5
5
5
5
5
5
5
5
5
5
5
5
5
5
5
5
5
5
5
5
5
5
5
5
5
5
5
5
5
5
5
5
5
5
5
5
5
5
5
5
5
5
5
5
5
5
5
5
5
5
5
5
5
5
5
5
5
5
5
5
5
5
5
5
5
5
5
5
5
5
5
5
5
5
5
5
5
5
5
5
5
5
5
5
5
5
5
5
5
5
5
5
5
5
5
5
5
5
5
5
5
5
5
5
5
5
5
5
5
5
5
5
5
5
5
5
5
5
5
5
5
5
5
5
5
5
5
5
5
5
5
5
5
5
5
5
5
5
5
5
5
5
5
5
5
5
5
5
5
5
5
5
5
5
5
5
5
5
5
5
5
5
5
5
5
5
5
5
5
5
5
5
5
5
5
5
5
5
5
5
5
5
5
5
5
5
5
5
5
5
5
5
5
5
5
5
5
5
5
5
5
5
5
5
5
5
5
5
5
5
5
5
5
5
5
5
5
5
5
5
5
5
5
5
5
5
5
5
5
5
5
5
5
5
5
5
5
5
5
5
5
5
5
5
5
5
5
5
5
5
5
5
5
5
5
5
5
5
5
5
5
5
5
5
5
5
5
5
5
5
5
5
5
5
5
5
5
5
5
5
5
5
5
5
5
5
5
5
5
5
5
5
5
5
5
5
5
5
5
5
5
5
5
5
5
5
5
5
5
5
5
5
5
5
5
5
5
5
5
5
5
5
5
5
5
5
5
5
5
5
5
5
5
5
5
5
5
5
5
5
5
5
5
5
5
5
5
5
5
5
5
5
5
5
5
5
5
5
5
5
5
5
5
5
5
5
5
5
5
5
5
5
5
5
5
5
5
5
5
5
5
5
5
5
5
5
5
5
5
5
5
5
5
5
5
5
5
5
5
5
5
5
5
5
5
5
5
5
5
5
5
5
5
5
5
5
5
5
5
5
5
5
5
5
5
5
5
5
5
5
5
5
5
5
5
5
5
5
5
5
5
5
5
5
5
5
5
5
5
5
5
5
5
5
5
5
5
5
5
5
5
5
5
5
5
5
5
5
5
5
5
5
5
5
5
5
5
5
5
5
5
5
5
5
5
5
5
5
5
5
5
5
5
5
5
5
5
5
5
5
5
5
5
5
5
5
5
5
5
5
5
5
5
5
5
5
5
5
5
5
5
5
5
5
5
5
5
5
5
5
5
5
5
5
5
5
5
5
5
5
5
5
5
5
5
5
5
5
5
5
5
5
5
5
5
5
5
5
5
5
5
5
5
5
5
5
5
5
5
5
5
5
5
5
5
5
5
5
5
5
5
5
5
5
5
5
5
5
5
5
5
5
5
5
5
5
5
5
5
5
5
5
5
5
5
5
5
5
5
5
5
5
5
5
5
5
5
5
5
5
5
5
5
5
5
5
5
5
5
5
5
5
5
5
5
5
5
5
5
5
5
5
POINT_DATA 2538
VECTORS disp float
1.3606068724959882e-11 2.8855554079170003e-11 0.0
2.051730924767016e-11 -5.146490404954744e-11 0.0
0.00259999999688405 9.7460189389868e-12 0.0
0.002599999972458544 -7.191187491295981e-11 0.0
0.0009639857303740895 0.0003885135552955529 0.0
0.001919335866134551 7.987085428109963e-5 0.0
0.0013128904690179184 3.9772811769909754e-5 0.0
1.1793980566152615e-12 -1.8432862101987974e-12 0.0
4.305078862076565e-12 3.591834404315081e-12 0.0
3.3310064473627195e-12 9.164260269819256e-13 0.0
2.929289011607685e-12 9.148601829785416e-13 0.0
2.2478833843975237e-12 5.01285919035896e-13 0.0
1.999731540807645e-12 2.0294007591421414e-14 0.0
1.6781056352311832e-12 -2.73083639484413e-13 0.0
1.4624165325118694e-12 -7.653110448278996e-13 0.0
1.1093009585776685e-12 -1.3048459490910417e-12 0.0
1.3316235119991526e-12 -1.9620367624392714e-12 0.0
1.3068929694207665e-12 -2.69633293955749e-12 0.0
1.4477735579820795e-12 -3.481508101412677e-12 0.0
1.632962164452891e-12 -4.263505815568191e-12 0.0
1.7002592265083865e-12 -4.864890784739055e-12 0.0
1.991484224206975e-12 -5.669468503886983e-12 0.0
2.0419219210456075e-12 -6.154719075069255e-12 0.0
2.21850992927019e-12 -6.876188351689923e-12 0.0
2.4157447591322564e-12 -7.5589866447611e-12 0.0
2.5103709375871925e-12 -8.196792068625792e-12 0.0
2.714844228206493e-12 -8.999370393944366e-12 0.0
2.991061466316164e-12 -9.897196721307869e-12 0.0
3.390455579047175e-12 -1.108062375264451e-11 0.0
3.4063502008347408e-12 -1.2318969610572157e-11 0.0
5.116979979571659e-12 -1.6100244940102056e-11 0.0
2.1711324017939734e-12 -1.2804595542589157e-11 0.0
3.569080703640163e-5 -3.569037050725502e-5 0.0
6.239841921657322e-5 -6.041659502256559e-5 0.0
8.809143158068687e-5 -8.191257110893575e-5 0.0
0.00011226801856751579 -0.00010132794716513545 0.0
0.0001353524502649319 -0.00011934340471314001 0.0
0.00015781676382752106 -0.00013655731928300825 0.0
0.00018006246994179632 -0.00015292751303127818 0.0
0.0002018622214337276 -0.00016865279011405568 0.0
0.00022345423322667185 -0.00018390505755807392 0.0
0.00024493056415347787 -0.00019863874800052142 0.0
0.0002662798610327436 -0.0002130235409856579 0.0
0.00028772650050242057 -0.00022701752674467678 0.0
0.00030912475372284605 -0.00024062415798296877 0.0
0.00033056533548722774 -0.00025398122432592244 0.0
0.00035218122845542853 -0.0002669945612424638 0.0
0.0003737743423277915 -0.0002796674896659869 0.0
0.0003955135238071391 -0.0002921013610236985 0.0
0.00041742143316957786 -0.0003041896635471429 0.0
0.0004394604704401531 -0.00031602694350430654 0.0
0.0004616582661130115 -0.00032760936199960095 0.0
0.0004840320324188018 -0.0003389314180355762 0.0
0.0005065607765411838 -0.0003499898750688705 0.0
0.0005293843167975021 -0.00036082025962198025 0.0
0.0005522647034549404 -0.00037138169259779216 0.0
0.0005755045436063431 -0.0003817030140404195 0.0
0.0005987815284868596 -0.0003917472558855252 0.0
0.0006223323709932062 -0.00040156551995548947 0.0
0.0006460528069902219 -0.00041109110582262365 0.0
0.0006700879153603498 -0.00042039354260388156 0.0
0.0006941622769431803 -0.00042945259502783845 0.0
0.0007185816769355404 -0.0004382744799460902 0.0
0.0007431761335039231 -0.0004468163190046212 0.0
0.0007680359711376384 -0.00045515808417514444 0.0
0.0007930672301686826 -0.0004632533851132874 0.0
0.000818386708494396 -0.0004711617935688852 0.0
0.0008437427183897473 -0.00047878153026709023 0.0
0.0008694256922203583 -0.00048614706702555295 0.0
0.0008951558176829126 -0.0004931179972455454 0.0
0.0009210215586604005 -0.0004997085993963293 0.0
0.0009470819975490427 -0.0005060728262106229 0.0
0.0009732022379985703 -0.0005120175341574246 0.0
0.000999632403967575 -0.0005176912207716496 0.0
0.001026289757776825 -0.0005230042936686325 0.0
0.0010531200982587838 -0.0005280828109543603 0.0
0.0010802056235015795 -0.0005327654792539382 0.0
0.001107337043997222 -0.0005371783594428561 0.0
0.0011347477275911021 -0.0005413091499056391 0.0
0.0011622498211652128 -0.0005451126476154631 0.0
0.0011899049145114617 -0.0005487176204862985 0.0
0.0012177436771027025 -0.0005519799811139937 0.0
0.0012454807795368695 -0.0005548402029837304 0.0
0.0012734639970471947 -0.0005574914945224939 0.0
0.0013011507917232979 -0.0005597162106511762 0.0
0.0013292577496152684 -0.0005616267007010049 0.0
0.0013569524921992326 -0.0005631266973590032 0.0
0.0013852236004288625 -0.0005643298430025099 0.0
0.0014130375081553295 -0.0005652525226089937 0.0
0.0014406181777034876 -0.0005657215511905338 0.0
0.0014679102264586472 -0.0005659515820798846 0.0
0.0014944145180146667 -0.0005655176154892664 0.0
0.0015200795100153096 -0.0005644298771410296 0.0
0.0015457297569390293 -0.0005624525447822816 0.0
0.0015721439732473688 -0.0005603467208090155 0.0
0.0015981002886360188 -0.0005575821566450521 0.0
0.0016241093648081796 -0.0005547168254949922 0.0
0.001651148837537573 -0.0005517116601177289 0.0
0.0016768265572082793 -0.0005479157791400568 0.0
0.0017019939936502632 -0.000543418760292262 0.0
0.0017275825637188063 -0.0005377794982294404 0.0
0.0017536362944929214 -0.0005315962791202106 0.0
0.0017787317705577302 -0.0005246734397252697 0.0
0.001805326074208963 -0.0005169595450698608 0.0
0.0018308822910076748 -0.0005089580991802579 0.0
0.001856487363120085 -0.000500432151390401 0.0
0.0018828738476498838 -0.0004910358095859264 0.0
0.0019085200364161664 -0.0004810529200796176 0.0
0.001934480823322319 -0.00047029483614890945 0.0
0.0019602148700651914 -0.00045893511762295743 0.0
0.001986377662452212 -0.0004469869367625631 0.0
0.0020126556217676004 -0.0004343066641994239 0.0
0.002039119224859206 -0.00042114988613043455 0.0
0.002065388179961223 -0.0004073878390552973 0.0
0.0020917485882683347 -0.0003930625562058812 0.0
0.002118335488712921 -0.0003780378620518254 0.0
0.0021448878420942882 -0.0003624593092002908 0.0
0.0021716065714621133 -0.0003464239278607825 0.0
0.002198760867105718 -0.0003296957421983402 0.0
0.0022259889459723572 -0.0003123580415622296 0.0
0.002253279925444696 -0.0002944655962343021 0.0
0.0022809718133475023 -0.00027585834994102475 0.0
0.00230911389782581 -0.00025639621168830305 0.0
0.0023374987376123253 -0.00023609719286502498 0.0
0.0023661611839467175 -0.00021497274411277562 0.0
0.0023953517163821554 -0.00019274062597937196 0.0
0.0024254793060498984 -0.00016908631781936058 0.0
0.0024561582370918543 -0.00014382786553424298 0.0
0.0024877255736458106 -0.00011638123905544346 0.0
0.0025214881724825037 -8.55222839859959e-5 0.0
0.0025565031242007694 -4.97837604793788e-5 0.0
0.0025999999967400264 -1.4833068980115114e-11 0.0
0.002599999993036607 -1.7090288686903832e-11 0.0
0.002599999996203014 -8.887267362127901e-12 0.0
0.0025999999959861824 -7.603741936000055e-12 0.0
0.0025999999964468035 -5.736287002545982e-12 0.0
0.002599999996534589 -4.542529939277104e-12 0.0
0.0025999999965695838 -3.716278109659791e-12 0.0
0.002599999996699081 -3.0427009953388366e-12 0.0
0.0025999999967139076 -2.438959095481354e-12 0.0
0.0025999999968309324 -1.9320585821835403e-12 0.0
0.002599999996933471 -1.5502121954130482e-12 0.0
0.002599999997050397 -1.072757810499124e-12 0.0
0.0025999999971287424 -7.194071480887677e-13 0.0
0.0025999999972359618 -2.6690290324670906e-13 0.0
0.0025999999973029975 1.835050936335499e-13 0.0
0.002599999997344761 7.17359624412817e-13 0.0
0.002599999997398023 1.2748129754983115e-12 0.0
0.002599999997206774 1.9627553980006004e-12 0.0
0.0025999999974644786 2.511177148201044e-12 0.0
0.002599999997123346 3.239389166135298e-12 0.0
0.002599999997215134 3.720091320334936e-12 0.0
0.002599999997147831 4.1355634502637965e-12 0.0
0.0025999999972808894 4.154154584118044e-12 0.0
0.0025999999976860024 4.8228188078191715e-12 0.0
0.0025999999987452406 2.5155165482175803e-12 0.0
0.002414775683581759 7.84154392522739e-5 0.0
0.002256531008715485 0.00011328594986951877 0.0
0.0021173905978060176 0.000112627236334025 0.0
0.002000255711886604 9.31492910994067e-5 0.0
0.0019149678364087052 3.5898632924306366e-6 0.0
0.001903625405593999 -3.6792054326924994e-5 0.0
0.0018814261311251676 -6.813065722686294e-5 0.0
0.001845986674580293 -7.657880383087048e-5 0.0
0.0017993420496396342 -6.804291983929322e-5 0.0
0.0017493508712506426 -5.333814147063217e-5 0.0
0.0016976379519427968 -3.6635184135856144e-5 0.0
0.0016454509931931227 -1.8499902554277775e-5 0.0
0.0015919145016033284 -2.0908292316976208e-6 0.0
0.0015367950599890893 1.1940493987521787e-5 0.0
0.0014770306107254746 2.3778288189272815e-5 0.0
0.0014069041693022112 3.334590972011586e-5 0.0
0.0012410863952394106 8.02883038995956e-5 0.0
0.0011897772319628566 9.901101251360558e-5 0.0
0.0011470569619562866 0.0001117122216807533 0.0
0.0011095209812830708 0.00012253884208198777 0.0
0.001075218929363214 0.00013269686735203678 0.0
0.0010441410188989464 0.00014292395685818832 0.0
0.001016007560153382 0.00015414247796170774 0.0
0.0009918967893081101 0.00016670680259208115 0.0
0.0009732807252059498 0.00018481620508359754 0.0
0.0009597953104674874 0.00020573350672687253 0.0
0.000961185263611925 0.0002489336520590311 0.0
0.0009598178075304468 0.0003027194444912689 0.0
0.0008699643971462568 0.0004020839398402674 0.0
0.0007378959955912644 0.00039811993243739027 0.0
0.0005353827621562906 0.0003324598870777782 0.0
0.00029016139510702754 0.00021597154538561725 0.0
0.0006734409126316577 -0.00040439126878672073 0.0
0.0017731561587686988 -0.0004936791743064916 0.0
0.0008502836752417524 -0.0004641200337159407 0.0
0.0015884450751773357 -0.000537185892151782 0.0
0.0010382749544159463 -0.0005081524871692283 0.0
0.0013952952011614468 -0.0005426735237905232 0.0
0.0012023655355185637 -0.0005310482642247948 0.0
0.0019317173450154165 -0.0004425482521852566 0.0
0.0005361020446810175 -0.00035004023161809225 0.0
0.0020570045176448414 -0.00038235132204367755 0.0
0.0004230993518375177 -0.0002949483682624769 0.0
4.10982558397104e-5 -8.322511641389521e-6 0.0
0.002550475362067413 -3.2860331691147203e-6 0.0
0.0014104225956483659 5.439548971171162e-5 0.0
0.0016113327499812416 8.163115643399258e-6 0.0
0.0012127459878079733 7.626907584385691e-5 0.0
0.0010707156203023625 0.0001384300137744733 0.0
0.0021930619975977102 -0.0003094982838832333 0.0
0.0003185382753241168 -0.00023626976818072478 0.0
3.215002119563241e-5 -1.2082036077617702e-5 0.0
0.0025640717605911758 -6.22499532003178e-6 0.0
0.0025312924424062523 3.518496821790612e-6 0.0
5.249048161121525e-5 3.937739055363631e-7 0.0
0.0023039100859876707 -0.0002373170582336035 0.0
0.00022920204775893374 -0.00017659833495894137 0.0
0.0017562448969630688 -3.451317046844012e-5 0.0
0.0009729911021136239 0.00016986779354629674 0.0
2.5469014355797017e-5 -1.1787298560170748e-5 0.0
0.002571728745273244 -7.488649918320077e-6 0.0
0.0009586716269770884 -0.0004913565997659141 0.0
0.001118981780040796 -0.0005210611479088682 0.0
0.0015082411096773256 -0.0005444446919137927 0.0
0.0012882490640443215 -0.0005371280883745582 0.0
0.001668177305202507 -0.0005229051293382314 0.0
0.0018465631132394305 -0.0004744396609689442 0.0
0.0007797091331906005 -0.0004426962922391141 0.0
0.0006052707118867327 -0.0003805953515876621 0.0
0.002386373066797434 -0.00017879698964267591 0.0
0.00016272586757282823 -0.00013002022879943605 0.0
0.0025132836703223235 1.3990450279059019e-5 0.0
7.162485724842789e-5 8.328691704403176e-6 0.0
0.002577077704605887 -1.0174861516473713e-5 0.0
2.434895037361005e-5 -1.3539051005505184e-5 0.0
0.0018560765511913796 -5.0685694229676065e-5 0.0
0.0009265606420926986 0.00019913335960888162 0.0
0.0024782917819951202 2.2764040717682726e-5 0.0
0.0001092410114700382 1.71698878281368e-5 0.0
3.687046870850534e-5 -1.1166450923222016e-5 0.0
0.002556917316318914 -5.3629359835012645e-6 0.0
0.0015104516101056011 3.529345230314223e-5 0.0
0.0011420563067922197 0.00011569676802465341 0.0
9.167735230516776e-5 -7.403001467546482e-5 0.0
0.002485209129341009 -0.00010021062605990282 0.0
0.0017184631876714705 -0.0005132322423587842 0.0
0.001341927530720004 -0.0005414100781063204 0.0
0.0009077761955895572 -0.0004789435181966989 0.0
0.0007254874723936829 -0.00042577156602869166 0.0
0.0014543417057342094 -0.0005441495679876865 0.0
0.001979652845529379 -0.00042179453782254547 0.0
0.0004908332764121836 -0.00032837407745440626 0.0
0.002112694705138833 -0.00035528033704195107 0.0
0.0003767801033029769 -0.0002690395673196096 0.0
0.0002717009857981345 -0.00020570548795911304 0.0
0.0022480954064259054 -0.00027434418277027893 0.0
0.0006192961854019728 0.00020787485010514292 0.0
0.0021627086728954747 5.3977869373117185e-5 0.0
0.0025768210775724567 -1.5112530406789682e-5 0.0
2.1265369863050042e-5 -1.374527454783929e-5 0.0
0.0009126147243534494 0.00026697201230117384 0.0
0.001930553473256563 -1.0462913331351849e-5 0.0
0.00013482180972387283 2.8372655863951957e-5 0.0
0.002480107275863466 2.2118306370910433e-5 0.0
4.055768796699372e-5 -3.2348372408381655e-5 0.0
0.002549516038859699 -4.420894618977663e-5 0.0
0.002042623938699901 4.1721053644425716e-5 0.0
0.0020604565196514005 3.219740394871483e-5 0.0
0.0022153923868889866 4.1042197585258584e-5 0.0
0.002114897589658762 4.1431019506804094e-5 0.0
0.0019931287398212085 2.3619088406546764e-5 0.0
0.0020272714144026283 4.555203668279057e-5 0.0
0.002147014702277916 5.307519258801232e-5 0.0
0.002066200122053106 6.0978245442960435e-5 0.0
0.0021822357632820095 5.899310721217964e-5 0.0
0.0021090276112834807 6.601861752715813e-5 0.0
0.002000533043085709 6.83280418146709e-5 0.0
0.002041394162680195 7.024858469597256e-5 0.0
0.0019484510504685414 7.349068034023887e-5 0.0
0.001983069970379894 7.139552443260055e-5 0.0
0.0018998457848031687 7.569520554272848e-5 0.0
0.0019319790217264192 6.954179928818912e-5 0.0
0.0013785086960703139 2.9775379012482652e-5 0.0
0.001302769756394097 1.640003919272935e-5 0.0
0.0013566216036497083 1.2480759544534648e-5 0.0
0.001294526597747065 1.9756663840547e-6 0.0
0.001342172372220549 -1.4337833895966681e-6 0.0
0.0012885355690443034 -9.494143579261115e-6 0.0
0.0013316409381789417 -1.2329204088196535e-5 0.0
0.0012830321264830087 -1.9289567574486045e-5 0.0
0.001323213329923039 -2.1640065892328103e-5 0.0
0.0012780620360042492 -2.79913616193166e-5 0.0
0.00131623509696453 -2.9872630840073658e-5 0.0
0.0012735699760349772 -3.5933632990851e-5 0.0
0.001310284221387908 -3.7836786208986865e-5 0.0
0.0012705260363078399 -4.3554663494611646e-5 0.0
0.0013051236091490275 -4.542604165241865e-5 0.0
0.0012667155917528683 -5.105754648818622e-5 0.0
0.0013002902968505634 -5.284538911227807e-5 0.0
0.0012618998018347578 -5.850462208669712e-5 0.0
0.001295639613374993 -6.031538681284295e-5 0.0
0.0012581651701171063 -6.588873771796167e-5 0.0
0.001291454807958925 -6.786027178254557e-5 0.0
0.001254717122697627 -7.336710134962042e-5 0.0
0.0012863959030092612 -7.547115614069056e-5 0.0
0.001251141424117278 -8.098520706109356e-5 0.0
0.0012823989931197378 -8.318873489508138e-5 0.0
0.0012483339285355324 -8.852543916071978e-5 0.0
0.001278685023904989 -9.106587263647912e-5 0.0
0.0012435057671645589 -9.603639831527536e-5 0.0
0.0012746645968546944 -9.911586236930432e-5 0.0
0.0012321820110223326 -0.00010457880056226256 0.0
0.0012728889965144133 -0.00010741765282046081 0.0
0.0012366896957048492 -0.00011306575864075004 0.0
0.0012691497994773222 -0.0001159457851918333 0.0
0.0012347361810046103 -0.00012170806806838855 0.0
0.0012659821658942 -0.0001247606010292207 0.0
0.0012337935874272626 -0.000130451838656456 0.0
0.0012627319957618807 -0.0001337810606177588 0.0
0.0012313044932356974 -0.00013965146794207866 0.0
0.0012402311529523353 -2.402859786307502e-5 0.0
0.0012594872199214616 -0.0001430996867825762 0.0
0.0012242935137945403 -6.339038675947091e-5 0.0
0.0011990780621525647 -0.00011261009130251661 0.0
0.001226415272984381 -0.00014908732097285827 0.0
0.0012560435641412065 -0.00015270108491953073 0.0
0.0012215738703626597 -0.00015912700297007943 0.0
0.001192649804718126 -0.00015453456068140883 0.0
0.0011869638685674025 -0.0001650096790928887 0.0
0.001251291879980267 -0.00016320629067005253 0.0
0.0012862900018722212 -0.00015635347967414006 0.0
0.0013023069867893987 -0.00010986891568174901 0.0
0.0012817290561702363 -0.00016722412801784833 0.0
0.0013190388734673902 -0.0001591994966194502 0.0
0.0013131603697502628 -0.00017120456706560454 0.0
0.0011584115188322806 -0.00016008877941925845 0.0
0.0011540569292003932 -0.00017022715185588045 0.0
0.001351739810277973 -0.0001625002433990586 0.0
0.001123673991593328 -0.0001649872441798423 0.0
0.0011212573776969079 -0.00017546909812480747 0.0
0.0013464844691720703 -0.00017470795811932934 0.0
0.001383854923963909 -0.00016656048842642347 0.0
0.0010887785292854166 -0.00016980096184267835 0.0
0.0010856162163756459 -0.00018050292617608372 0.0
0.0013794161611611544 -0.00017874080771692404 0.0
0.0014179394710166066 -0.0001700974364419364 0.0
0.0010541243017215573 -0.00017441637878411764 0.0
0.0010506636540867054 -0.00018564620492352732 0.0
0.0014132928505538945 -0.00018297804280980126 0.0
0.001453011710057849 -0.00017352849165198372 0.0
0.0010199048550526009 -0.00017827290556011338 0.0
0.001014282021417275 -0.0001897605507777656 0.0
0.0014487557118489543 -0.00018677959825729525 0.0
0.0014888358137563798 -0.00017681173741337098 0.0
0.0009824509177982091 -0.00018197445242634818 0.0
0.0009777833093966462 -0.00019394498938153407 0.0
0.0009439689887571004 -0.00018614213109779214 0.0
0.0009486692939809912 -0.00017357932144351467 0.0
0.0014056047885009795 -0.0001958036091225187 0.0
0.0014842934837575276 -0.00019067006650704931 0.0
0.0015253214803558413 -0.00018001432896296127 0.0
0.001530594623337515 -0.00016571606464223527 0.0
0.0013207985582127406 -7.018756386187822e-5 0.0
0.0015687121399566462 -0.00016856216066227803 0.0
0.0015743937949006294 -0.00015368895176450407 0.0
0.0016139003286855208 -0.00015598314036160006 0.0
0.0009423010681029394 -0.00019890475367953782 0.0
0.000907052132077709 -0.00018962367643614094 0.0
0.0009755693797296433 -0.00020678237554947647 0.0
0.0015195024486030755 -0.00019472258302671107 0.0
0.0009059715326919741 -0.00020260957441209026 0.0
0.000870305709215939 -0.00019248873727501512 0.0
0.0013456341526911835 -3.8711334013507366e-5 0.0
0.0008693333629863735 -0.00020507156469414025 0.0
0.0008336657731449778 -0.00019464880717432023 0.0
0.0008329814139007729 -0.00020741866529209486 0.0
0.000797821763049156 -0.000195933000907737 0.0
0.0007977454773618008 -0.00018356033036487672 0.0
0.0007596461954368674 -0.00018500501703537376 0.0
0.0007601955934756632 -0.00017198234441280169 0.0
0.0007930569331536919 -0.00020835530546675082 0.0
0.0007191904892912103 -0.00017331266968006537 0.0
0.0007194475459521891 -0.00016001311747707058 0.0
0.0008328012772374766 -0.00022091580141809359 0.0
0.0007989209347528383 -0.00022291686235434693 0.0
0.0006793730430400942 -0.00016012927509928012 0.0
0.0006781534334077724 -0.00014705369972701777 0.0
0.0016207000535998304 -0.0001408798620866391 0.0
0.0016619032492284041 -0.00014289737353624218 0.0
0.0008327567065117368 -0.00023461281156574411 0.0
0.0007994753961142173 -0.00023642578376412203 0.0
0.001669184280373263 -0.00012730964541803023 0.0
0.0017124241065373082 -0.00012937410527374607 0.0
0.0017030652632907374 -0.00014658997802947062 0.0
0.0017540465341386012 -0.00013217013679014093 0.0
0.001745368483769219 -0.0001497940603376686 0.0
0.0017965295839424665 -0.00013407578545424276 0.0
0.001790257710135613 -0.00015153127608555703 0.0
0.0018432613202141455 -0.0001340203875045381 0.0
0.001832642178652342 -0.0001520827175882128 0.0
0.001849278023560965 -0.00011737615152670662 0.0
0.0018862224100764512 -0.00013485809334477195 0.0
0.0018729079535509255 -0.00015305268187737638 0.0
0.0008333076026350277 -0.000248607731956574 0.0
0.0006358336582261301 -0.00014657744804874917 0.0
0.0006336634381203933 -0.00013310154313694663 0.0
0.00182341501652711 -0.00017081811664120078 0.0
0.0018620122457685036 -0.00017166528322473893 0.0
0.0019106324452358267 -0.0001536290854428883 0.0
0.0018157746466918325 -0.00019009480189558897 0.0
0.0008009641381621054 -0.0002504212868452078 0.0
0.0018996991383785273 -0.00017212571218484798 0.0
0.001947227606365314 -0.00015357756373482963 0.0
0.0008339716163961548 -0.00026303152116359497 0.0
0.0008023761046557449 -0.000264876980827856 0.0
0.0007698823678782545 -0.0002517081657862436 0.0
0.0019357333748123416 -0.00017205049137034524 0.0
0.001982642396954748 -0.00015269062192321456 0.0
0.0008347131888909959 -0.00027795677780203485 0.0
0.0008659688625037424 -0.00027578156110293967 0.0
0.0007717888408114877 -0.00026622105169308045 0.0
0.0007395582690089216 -0.0002525613737575782 0.0
0.0019692921931260335 -0.00017136268567744328 0.0
0.0020171780522013783 -0.00015096409011158265 0.0
0.002030056157732367 -0.000133442571091118 0.0
0.0019224427520387393 -0.000191759474521296 0.0
0.0020647994509486903 -0.00013090928881847704 0.0
0.0020786724164347397 -0.00011447947228250451 0.0
0.0005886650150211615 -0.00013226839998888585 0.0
0.000588637097701372 -0.00011820285228613425 0.0
0.0006430747970576027 -0.00011996866537181999 0.0
0.0005870954403786517 -0.00010373350061618615 0.0
0.000640023698637477 -0.0001030712769089083 0.0
0.0005849991257707622 -8.774727892107983e-5 0.0
0.0006371194526426323 -8.591650585927757e-5 0.0
0.000866645890995713 -0.0002909729603783455 0.0
0.0008971675641857729 -0.00028839376634146686 0.0
0.0007417976955183595 -0.0002671463390899583 0.0
0.0007098279291773412 -0.0002529549628736928 0.0
0.0020507542565137656 -0.00014846275463679481 0.0
0.0005884509683580703 -7.089736725976054e-5 0.0
0.0006383878240960975 -6.793633754587155e-5 0.0
0.0008978993493142392 -0.0003037458049460088 0.0
0.0009277147350858354 -0.0003009859438550358 0.0
0.0010886243123537046 -0.00019073274268611285 0.0
0.0020982303803861995 -0.0001276544960154416 0.0
0.001381066250996125 -1.7982030172329978e-6 0.0
0.001444626000921846 5.250509505006102e-5 0.0
0.0012157340836568486 -8.611705656705925e-5 0.0
0.0017177414810108454 -0.00011351935877734149 0.0
0.0005846688815484328 -5.1467285739489606e-5 0.0
0.0006437141260994241 -4.8040960337583016e-5 0.0
0.0007124696267292343 -0.0002676136001660568 0.0
0.000680911550333729 -0.0002530108614296096 0.0
0.0009289091063490287 -0.00031656240047474776 0.0
0.0009585076680282568 -0.00031355698636884683 0.0
0.002082834239987738 -0.00014505223903630662 0.0
0.0005417996187074839 -0.00011718073018177247 0.0
0.000543674293924129 -0.00013115841852035138 0.0
0.0005264602342640199 -7.115867832737811e-5 0.0
0.002130521253364105 -0.00012369507604949865 0.0
0.0005849954621298473 -3.152667608829467e-5 0.0
0.000645207633033074 -2.5974601885326368e-5 0.0
0.0008996290623292842 -0.00031967571772308675 0.0
0.0006840735623460629 -0.0002678789916707115 0.0
0.0006526406821694984 -0.0002526212741632153 0.0
0.0016746301317456312 -0.00011182546344426797 0.0
0.0017251828021375847 -9.747234759148641e-5 0.0
0.0016794872808578044 -9.604061412168945e-5 0.0
0.0017326854516324418 -8.14016587384162e-5 0.0
0.000959296728201169 -0.00032918263968188073 0.0
0.0009891830689020902 -0.00032552572368893767 0.0
0.0010590130941445669 -0.00016431679983600018 0.0
0.000585106903712242 -1.0667850135312664e-5 0.0
0.0006445077224378905 -2.936955490959707e-6 0.0
0.002115262925293073 -0.00014090057414288125 0.0
0.00207217143853854 -0.0001612552976735427 0.0
0.0005724039637337121 1.3267517904840294e-5 0.0
0.0006418573155145727 2.2231895296527894e-5 0.0
0.0021619806742963583 -0.00011965145106699088 0.0
0.002171398769102171 -0.00010748623025475434 0.0
0.0005808982344796512 3.61828129328803e-5 0.0
0.00071463254004473 -0.00028404786931219406 0.0
0.0009894849187203592 -0.00034169170613296225 0.0
0.001019165431667937 -0.0003372981866134084 0.0
0.001019404605456818 -0.0003212089011103058 0.0
0.0010493309651921142 -0.00033254649754057024 0.0
0.0010499833459069335 -0.00031657020418404116 0.0
0.0010800357053136528 -0.00032742418023861563 0.0
0.0010810105100107178 -0.0003113273093076087 0.0
0.0011114880843139453 -0.00032184789121675686 0.0
0.0011128796244615927 -0.00030571988406215397 0.0
0.0011435789273248542 -0.00031574064029687255 0.0
0.001142156922698847 -0.0003324089383828235 0.0
0.001174066589211989 -0.0003258373441397997 0.0
0.001172475349591038 -0.0003429036339899561 0.0
0.001204218722633301 -0.0003358576445314298 0.0
0.00120227654664782 -0.00035337379156005733 0.0
0.0012342609748251508 -0.00034581662996266584 0.0
0.0011455023415835107 -0.0002996136437063245 0.0
0.0012364236714641345 -0.00032819855985717665 0.0
0.0012668800063733744 -0.00033758495976399976 0.0
0.0012642813417899387 -0.0003559962546218839 0.0
0.0012972968049536951 -0.00034728959432362425 0.0
0.0004958201532403415 -0.00011531243489439993 0.0
0.0004978915232143038 -0.00012887892079864417 0.0
0.0006561315250479187 -0.00026751084787223796 0.0
0.0006252878838898092 -0.00025193496430393346 0.0
0.0013005315784185513 -0.0003288164931888017 0.0
0.0013309704944409158 -0.00033778797829682233 0.0
0.0013272856700156442 -0.0003568921268444276 0.0
0.0013615834067458939 -0.00034673361594942265 0.0
0.00045122356377909085 -0.00011263203688431616 0.0
0.000453695545951824 -0.0001255911402165894 0.0
0.0016846071833968915 -7.96549894683202e-5 0.0
0.001741026791037569 -6.481537641453363e-5 0.0
0.0016913275516977106 -6.312087793785892e-5 0.0
0.00214784736201766 -0.0001360204145055257 0.0
0.002193159724984573 -0.0001150055341259894 0.0
0.0010193361917796423 -0.0003540677521907797 0.0
0.0007018844676180911 -6.811574981806031e-5 0.0
0.0013099343383141016 -0.0001822065140694048 0.0
0.00135741037865044 -0.0003664703452998043 0.0
0.0013918774694572653 -0.0003556909718908501 0.0
0.0013958124351409803 -0.00033564498944565915 0.0
0.0014268734859053489 -0.0003437523188249012 0.0
0.0013903122046178555 -0.0001536111433258789 0.0
0.001752246659023473 -4.7553338821306004e-5 0.0
0.0017980248548237201 -5.253327374158604e-5 0.0
0.0006451510614293851 4.80879319684332e-5 0.0
0.0006287740607605573 -0.0002666952455980951 0.0
0.0005984756192869216 -0.0002507437569905276 0.0
0.0016994463887675274 -4.5887944502467485e-5 0.0
0.00142210878930121 -0.00036473210179065017 0.0
0.0014578433783814485 -0.00035248572829865254 0.0
0.0014630219273031651 -0.00033113288164772725 0.0
0.0014949812608718903 -0.00033931654599425284 0.0
0.001501259152784444 -0.00031824941246233495 0.0
0.0015330246657747364 -0.00032523519610066473 0.0
0.001526102254193673 -0.00034707450708810225 0.0
0.0015641982667688934 -0.0003320972947264664 0.0
0.0005812696746013857 5.820521096151256e-5 0.0
0.00040831962445721725 -0.00010913374396873903 0.0
0.00041088481649374396 -0.00012124347040584628 0.0
0.0009906547733347488 -0.0003585822214188316 0.0
0.002177379508448091 -0.00013278806242067947 0.0
0.0022233697628241014 -0.00011043439736744228 0.0
0.001556690104251992 -0.0003546884573015621 0.0
0.001594467973212984 -0.0003389352557797299 0.0
0.0006502459728425776 7.296645856435391e-5 0.0
0.0006024375303544309 -0.00026556571123613655 0.0
0.0005720555837012666 -0.0002489650654008912 0.0
0.0007060687919213683 4.844512125635805e-6 0.0
0.0020144957350303858 6.362944493371387e-5 0.0
0.0010196449060907084 -0.0003713374517646412 0.0
0.0005839948366805018 7.833450477938563e-5 0.0
0.0005309783605775558 -1.807140394575631e-5 0.0
0.0022026304879880308 -0.00013353429146615716 0.0
0.002253008172226071 -0.0001064125822056923 0.0
0.002269417751896738 -8.962430280640634e-5 0.0
0.0005156846565483753 4.4365070267846e-5 0.0
0.002155475198816156 -0.00015513986070033454 0.0
0.00040292773891992506 -9.638836537248152e-5 0.0
0.0006301426685628934 -0.0002807889057852591 0.0
0.001762992930015777 -2.976949988634672e-5 0.0
0.001708528301047306 -2.798677636792652e-5 0.0
0.00154053485334746 -0.00030430455149762825 0.0
0.0005764788346143391 -0.0002641890269199301 0.0
0.0005461132058253387 -0.0002470243989009392 0.0
0.00036699526478581156 -0.00010474835588406216 0.0
0.0003695398001443804 -0.00011583302344998501 0.0
0.0006781467101409476 -0.00023909916267343898 0.0
0.0015863917882377168 -0.0003621930849746794 0.0
0.0016238689066115817 -0.0003454687710731974 0.0
0.0005416040705639127 -0.0002322493557765529 0.0
0.0005154846219318311 -0.00022974794702677008 0.0
0.0015514068409102043 -0.0003765495465346314 0.0
0.0009921267701543356 -0.0003759862159612992 0.0
0.0005206644407056859 -0.00024483698425316124 0.0
0.0004900681519966285 -0.00022702659715816338 0.0
0.0010501888116551837 -0.00030130399977726705 0.0
0.002299968310525866 -8.445700145649392e-5 0.0
0.002315296527951552 -7.106066742471437e-5 0.0
0.0022840808134502047 -0.00010129895700237286 0.0
0.0016152089131060742 -0.00036916155601448045 0.0
0.0016523278835146177 -0.0003516037726031672 0.0
0.0015076748420382153 -0.0002979555211316115 0.0
0.0015480045157353715 -0.00028424859799920215 0.0
0.001020356561110657 -0.00038904368745068703 0.0
0.0016617078702097447 -0.00032801158808811126 0.0
0.0016899748329105943 -0.00033364912650371526 0.0
0.00032656590317102393 -9.901690188923811e-5 0.0
0.00033097187615270605 -0.00010967586406688573 0.0
0.0016801455741860965 -0.00035824355208237196 0.0
0.0017167598890058316 -0.0003393085040654281 0.0
0.0004962248229934199 -0.0002425196483296083 0.0
0.000465503149007565 -0.00022412686928388788 0.0
0.0017735463704650599 -1.1561389218311442e-5 0.0
0.001718781838076734 -9.45275110624148e-6 0.0
0.0004590543702890057 -0.00020943435585431963 0.0
0.0004342972361515575 -0.0002058070664774232 0.0
0.0004407109904205065 -0.0002207819976811917 0.0
0.00040956780228261 -0.0002019054453600603 0.0
0.0023300774823452417 -7.926928688632529e-5 0.0
0.002313908089842696 -9.68938014819235e-5 0.0
0.0006539065413452622 9.472302526957965e-5 0.0
0.0005826851964216066 9.586274749725162e-5 0.0
0.0016416433313389868 -6.091481729564791e-5 0.0
0.0009936630877285784 -0.00039381238258322194 0.0
0.001706409031043806 -0.0003648361014897512 0.0
0.001741861849815195 -0.00034471556957436244 0.0
0.0018511306044089854 7.435109693777411e-5 0.0
0.0017002543802554378 -0.0003100851307097806 0.0
0.001171205665260351 -0.0003604741611076201 0.0
0.0004023411853065453 -0.0001877161692935554 0.0
0.0003782272424868322 -0.00018306112423501682 0.0
0.0003857084554722116 -0.0001979012218052596 0.0
0.0003541481250890702 -0.00017832842684867704 0.0
0.000346700825141441 -0.00016448557241838962 0.0
0.00032177789971927064 -0.00015902451027813486 0.0
0.0003140944332762516 -0.00014565291249319306 0.0
0.0002886645509954121 -0.00013936903067179272 0.0
0.0002810308082498534 -0.00012709907856835303 0.0
0.00025689404160561904 -0.00012061139596381637 0.0
0.00024889738381454757 -0.0001094943294682155 0.0
0.00026404788216197216 -0.0001325798276197314 0.0
0.0002292553623714214 -0.00011102315706400592 0.0
0.00028913445179152447 -9.274892385130004e-5 0.0
0.0002867892163785427 -8.331579255273049e-5 0.0
0.0002395846254677502 -0.00012530088231106943 0.0
0.0002076433095571038 -0.00010536417210725011 0.0
0.0007199445213496594 8.666135822446995e-5 0.0
0.000754114214449996 -0.0001575202917316888 0.0
0.0015145301572273397 -0.00027856518940816964 0.0
0.0015551020554918783 -0.0002650759584431419 0.0
0.00045352720524705574 -0.0001371999815971462 0.0
0.001021128578091714 -0.0004072858072512447 0.0
0.0010480401740153651 -0.00040215352598683637 0.0
0.0015890988249475557 -0.0002700097170524066 0.0
0.0015966608180893497 -0.00025084441391047606 0.0
0.0023596963190761315 -7.403700413181576e-5 0.0
0.0023415448015303964 -9.306228779872406e-5 0.0
0.0022965135200369267 -0.0001194738351054327 0.0
0.0016536225296686022 -2.656181885684734e-5 0.0
0.0016636496963578391 -8.237430964361268e-6 0.0
0.0009656692384431958 -0.00038030791674474596 0.0
0.0009674611661906536 -0.0003981497057331315 0.0
0.0009399019119245944 -0.0003843821984634816 0.0
0.00036297105685057255 -0.00019384296155607611 0.0
0.0017292439581403968 9.242350477945198e-6 0.0
0.001674285548654075 1.0941137490561751e-5 0.0
0.0006787557447874252 -0.00017384486708970617 0.0
0.0017305195557582183 -0.0003709078685874314 0.0
0.0017656327526014244 -0.000349863450828425 0.0
0.0017777900099560315 -0.0003245985797870175 0.0
0.0018010031942401721 -0.00032881169611771933 0.0
0.000677766219774354 0.00011654440922101448 0.0
0.0005931274307209364 0.00011268563494299087 0.0
0.0009261980927755251 -0.00028610406891539365 0.0
0.0016964632085248884 -0.0003913081576692907 0.0
0.0021442888739307497 6.240985072127314e-5 0.0
0.0017883323984753323 -0.0003557845093785149 0.0
0.0018237630664751884 -0.00033387424936996517 0.0
0.0018368541016879742 -0.0003074089950230353 0.0
0.0018599975322130188 -0.00031167955202823826 0.0
0.0018740653967325716 -0.0002854772966368851 0.0
0.0018968573061760123 -0.0002890453639581618 0.0
0.001882603567646963 -0.00031685572704042916 0.0
0.0019191450920997377 -0.00029348817977673994 0.0
0.000215929379198785 -0.00011704315221890574 0.0
0.00018456436578158353 -9.695197268070151e-5 0.0
0.00017251092300801606 -8.446357993597143e-5 0.0
0.0010487261696716234 -0.00042082496290256615 0.0
0.0010745771756215932 -0.0004161069613497778 0.0
0.0009421631959670923 -0.0004022822393292167 0.0
0.0009147122680491837 -0.00038807640906866685 0.0
0.0023223216776970842 -0.00011750578692242508 0.0
0.0023672306682692764 -8.9956201101522e-5 0.0
0.0018218624307986253 7.751491227219444e-5 0.0
0.0017763562935479919 7.715085324270437e-5 0.0
0.0005067361671400551 9.048197997894362e-5 0.0
0.0005169349699536913 0.00010371130478397834 0.0
0.00024844481414036977 -0.00013927015022243406 0.0
0.0008670860705085046 -0.00023228792651625802 0.0
0.0016236696187574414 -9.623645228920373e-5 0.0
0.0022789557125893036 -0.00014598475283296526 0.0
0.0006899514069145964 -9.866934873890964e-5 0.0
0.0015990556426265159 -2.590471153274903e-5 0.0
0.0019040971640251825 -0.00032297380362415507 0.0
0.0019405466881272655 -0.0002988854081013589 0.0
0.0019517941808539496 5.92021481844844e-5 0.0
0.0020443760633957566 5.2754768713909e-5 0.0
0.0006798428839302996 0.0001346585481501294 0.0
0.0003716978999284421 -0.00012649117466109202 0.0
0.0002451118371243215 -7.581687144561507e-5 0.0
0.00024322668957485135 -6.712979184025203e-5 0.0
0.00039328126598550694 -0.00021383337788823988 0.0
0.0018127562250698844 -0.0003625071621246982 0.0
0.0014774186090250978 -0.00020494457063168663 0.0
0.0013244084802809801 -0.00037662163665681033 0.0
0.0008372252691005066 -0.0002927260516183688 0.0
0.00019281836005575117 -0.00010860100023527529 0.0
0.00016222591829467462 -8.83107039184995e-5 0.0
0.0005267571623069317 -0.0002609645885069629 0.0
0.001631352132958276 -0.0002551001185840836 0.0
0.0016393322302519745 -0.0002360859033513303 0.0
0.0009684050772052103 -0.0004167597816991131 0.0
0.0019949225062578825 4.631730699205369e-5 0.0
0.002074166164056548 4.111778829269472e-5 0.0
0.0020278301694386493 3.3306316566108514e-5 0.0
0.0021045803711295646 2.888046826374022e-5 0.0
0.0021503867268943 3.588480308894643e-5 0.0
0.0021800103198413565 2.462026804105904e-5 0.0
0.0021334061716527003 1.639841948328416e-5 0.0
0.0022062351761373247 1.3359355844439253e-5 0.0
0.0021598268213145902 4.199662358635493e-6 0.0
0.0022311023878403948 2.6998841697431323e-6 0.0
0.002185598733941748 -7.60804805526032e-6 0.0
0.0022538105067607746 -7.1288964509916605e-6 0.0
0.0022091471842214257 -1.855026936948015e-5 0.0
0.0022750890947248123 -1.6008803621016215e-5 0.0
0.0021386878467625947 -2.0741769229353314e-5 0.0
0.002231083590058771 -2.8271687384665193e-5 0.0
0.002293225988963194 -2.414383830675357e-5 0.0
0.0022279977798599256 3.015274599587724e-5 0.0
0.000509862804548759 -0.00021526025854358516 0.0
0.0005030407800185894 -0.00025897248985659973 0.0
0.0005324752191120357 -0.0002776175436925317 0.0
0.0022516098820186178 -3.667661007641513e-5 0.0
0.002310778356376261 -3.08300702487104e-5 0.0
0.0021929228202241862 -4.187593207987639e-5 0.0
0.0013535678731267015 -0.0003867327064012222 0.0
0.0013212664007556051 -0.000396638068395673 0.0
0.0013499180145558312 -0.0004072979341821713 0.0
0.0013188014495750947 -0.00041708633417205325 0.0
0.0013467351174785514 -0.00042825364649438577 0.0
0.0013170564230047138 -0.00043794701446304724 0.0
0.0012891240635678823 -0.0004265132753069266 0.0
0.0012880896626994763 -0.00044712225399388494 0.0
0.0012608606376337786 -0.0004353754168735145 0.0
0.0012349929955425248 1.2558118486558815e-5 0.0
0.0013442518563050172 -0.00044971783957748173 0.0
0.0013736040833125039 -0.00043957184312645974 0.0
0.001147828733541323 -0.000181337565358907 0.0
0.0011143729444972003 -0.00029010224557327936 0.0
0.0011476102369413722 -0.0002839915986903898 0.0
0.001116061787570667 -0.0002749595449907986 0.0
0.0011498848221067756 -0.0002688762467584073 0.0
0.001117977534305984 -0.0002603137691716848 0.0
0.001152344744068758 -0.0002542796399165646 0.0
0.001184409799108434 -0.0002623322031609956 0.0
0.0011873742785229126 -0.00024778125950253055 0.0
0.0012196316518044634 -0.0002553290884616831 0.0
0.0012229953811970556 -0.00024081648882276225 0.0
0.0012539965889033073 -0.00024783707209192595 0.0
0.001190640363021598 -0.00023330836159208445 0.0
0.0011201297457196844 -0.00024614475053047296 0.0
0.0010856785111238011 -0.0002517210288085782 0.0
0.0012502523414743502 -0.00026306000675621025 0.0
0.001286555471866464 -0.0002541249829613585 0.0
0.0005098141215647007 -0.00027603794518925865 0.0
0.00120157236352851 -0.00012746746049784296 0.0
0.001233817805842113 -4.1632789272501045e-5 0.0
0.0013350049479729767 -0.0003194199330220027 0.0
0.0023747560971888377 -6.0588251636496284e-5 0.0
0.0024034038333358024 -5.514839832568348e-5 0.0
0.0013339256636921766 -5.402112775209839e-5 0.0
0.0013138673916668075 -8.424678155965904e-5 0.0
0.001850181422297761 -0.00028260363237996787 0.0
0.0016042607703695899 -0.0001716173758319972 0.0
0.0023489279086951025 -0.00011436022539850094 0.0
0.0023919299643623245 -8.687127993532995e-5 0.0
0.0012970814082614059 -0.00012798506363869604 0.0
0.0009173178018680724 -0.0004061391754859351 0.0
0.0008900179532909944 -0.00039154984276308836 0.0
0.0013615055177790712 -2.235967935522662e-5 0.0
0.0012599229264384105 -0.00045585184837251775 0.0
0.0012325839771076131 -0.00044295096003321325 0.0
0.0008874521499955478 -0.00037382613614061154 0.0
0.0008625190671830038 -0.0003769174390586865 0.0
0.000859843775429178 -0.0003594902176740964 0.0
0.0008347762153447414 -0.00036215636642659006 0.0
0.0008380157941217056 -0.0003798231358488992 0.0
0.0008103594795196935 -0.00036463941410080767 0.0
0.0008139042231574329 -0.0003825010121615193 0.0
0.0007862701637132419 -0.0003669209053512023 0.0
0.0003720515203189967 -0.0002104882593060687 0.0
0.0024170374835640837 -4.506878594829195e-5 0.0
0.0017382978948953806 2.7405982258911367e-5 0.0
0.0016823408651003352 2.929747309261164e-5 0.0
0.0007700997403846432 -0.00022488681199700218 0.0
0.0006248902378842097 -0.0002379931525230333 0.0
0.0023334031846410706 -1.449377038488978e-5 0.0
0.0023008622183786362 8.156541909903483e-7 0.0
0.001074749569999445 -0.0004348094990247249 0.0
0.0011012503468645527 -0.0004295174475780237 0.0
0.0017193712025054654 -0.0003980072038184181 0.0
0.00034131698397483784 -0.00015165110816549134 0.0
0.0014578420909633128 -0.00016087216285599383 0.0
0.0016197873736290098 1.1435487024497115e-5 0.0
0.0016278465406651024 2.9750185373572346e-5 0.0
0.001888895266957719 -0.0002610601042271567 0.0
0.0019576998417956022 -0.0001358711925347438 0.0
0.0019563072963958202 -0.0002702993565531461 0.0
0.0019784036317760465 -0.0002743304548876401 0.0
0.0019612367852802856 -0.0003053898651295767 0.0
0.0019998805412054224 -0.00027971975916571477 0.0
0.0011317188120570755 -0.00015493081444801118 0.0
0.00040076113366489455 -0.00023051159849030335 0.0
0.0012557225188297536 -0.00023303448123149765 0.0
0.002087636530508305 4.859129048002515e-6 0.0
0.0010797869946883778 -0.0003981398235997827 0.0
0.0005378685847308749 -0.0002947017501847951 0.0
0.0005606049143150279 -0.0002961155480559686 0.0
0.0016867854605653878 -0.00041824317054208236 0.0
0.000831636337249291 -0.0003451406488052736 0.0
0.001521075819148863 -0.0002600403277005389 0.0
0.001480961493183953 -0.00027269594774130047 0.0
0.002373687715183925 -0.00011187110443764767 0.0
0.002416929778852187 -8.299470519587882e-5 0.0
0.0024335287276736886 -6.303388001270311e-5 0.0
0.0007630019701253602 0.00013919511566841384 0.0
0.00017051683847962813 -9.953813480365853e-5 0.0
0.0001401971218626954 -7.867759652683802e-5 0.0
0.00013518193391665533 -7.082703651712378e-5 0.0
0.0017498255215128505 7.667723520072693e-5 0.0
0.0017927086797605424 7.19222986198958e-5 0.0
0.0017070520450398212 7.804241212380628e-5 0.0
0.0018287144563190628 -1.4257174103174456e-5 0.0
0.0022712159126897272 -4.301140560301648e-5 0.0
0.0023293979520579424 -3.549193614964782e-5 0.0
0.0008930200354162804 -0.0004098191161725719 0.0
0.0017834586561675857 -8.25498343227463e-5 0.0
0.00042962296074333623 8.033201974226436e-5 0.0
0.00043609059439335917 8.906551269216417e-5 0.0
0.0005310533881711417 0.00011486200538590397 0.0
0.00044196102995807014 9.463733493923719e-5 0.0
0.0005767014461471402 0.00013153470147205377 0.0
0.0012308757721868021 -0.0004222496956550889 0.0
0.0007821701576458265 -0.000349444308973733 0.0
0.0007587150845892453 -0.0003513732249342742 0.0
0.0007627910395917782 -0.00036902894558410215 0.0
0.0007355205881015445 -0.0003531491241274679 0.0
0.0020164296857111794 -0.0002499162568002073 0.0
0.0020380308706275147 -0.0002546389680505647 0.0
0.0020215970054171277 -0.0002861563180604855 0.0
0.0020591085665175464 -0.00026033269098390394 0.0
0.0016037015190718802 -0.00023228244299234379 0.0
0.0016469563182490994 -0.0002179349987120838 0.0
0.001371084159342272 -0.0004614745962943883 0.0
0.0013998733661259174 -0.0004509396795430976 0.0
0.00108767836562493 -0.00023782427199070495 0.0
0.0010530620162183702 -0.00024299765326292797 0.0
0.0010460246481880813 -0.00044040721497230886 0.0
0.000739710410786176 -0.000370691963228653 0.0
0.0007129618958056813 -0.00035467977107854227 0.0
0.0022530774747568797 -0.00014728555814814574 0.0
0.00223562839669771 -0.000175666747986234 0.0
0.0022110660016075112 -0.0001759019106130393 0.0
0.0021977768512547314 -0.00020315176504328252 0.0
0.0011012406923294408 -0.0004498835442238378 0.0
0.00019863136860694735 -0.00012029925985355181 0.0
0.0002751936275466698 -0.00011647367402449993 0.0
0.0002393214376495892 -9.852429250717254e-5 0.0
0.00019990257274933034 -5.9184575804821474e-5 0.0
0.00019546874598595283 -5.0938177279970034e-5 0.0
0.00024170322082757136 -5.779085828200165e-5 0.0
0.0001919461659760221 -4.228931135693243e-5 0.0
0.0002400854250634185 -4.743391361230735e-5 0.0
0.0001885614405298381 -3.29560892096611e-5 0.0
0.00023926925455881884 -3.604092093184817e-5 0.0
0.002260885409722144 -0.00017543041342389377 0.0
0.0007303548161508675 -0.0003360614264702143 0.0
0.0018638447561457857 -0.00025979459658409185 0.0
0.0016634066503296392 -0.0004100237131327644 0.0
0.0016550790537550935 -0.0004375980874930868 0.0
0.0016318024318270803 -0.000428982892036377 0.0
0.0012323946410839855 -0.00046384204246388956 0.0
0.0017820618365168575 2.2384259633736027e-5 0.0
0.002042869457579199 -0.0002935504790846444 0.0
0.00245894790825204 -5.7712574901318336e-5 0.0
0.0024414419582945114 -7.825998183221393e-5 0.0
0.0007651810128319132 0.00015475362369022283 0.0
0.0017312049545208188 4.2240072891676875e-5 0.0
0.001303906238205979 -0.00031106400657334083 0.0
0.0013384659649584567 -0.0003016985530464162 0.0
0.0012883128224007796 -0.000468533411163745 0.0
0.0012052827620831024 -0.00045051899418647215 0.0
0.0005493813721565095 -0.0001467368318096808 0.0
0.0023667946051893133 -2.5145607746708208e-5 0.0
0.0023843336985193636 -2.820050867025918e-5 0.0
0.0023459689528440293 -3.889119951121663e-5 0.0
0.002399076707041563 -3.06179604106939e-5 0.0
0.001954694281629716 -0.00019070653896622984 0.0
0.001449374322021128 -0.0003747781165115945 0.0
0.0014869457957320305 -0.00025486656676433834 0.0
0.0010804880063118483 -0.000344239828135817 0.0
0.001578357973621508 -0.00013902160255831503 0.0
0.0016744134198365414 -0.00023980432401916158 0.0
0.0016713291442124812 -0.00030582015465702763 0.0
0.001710789193981619 -0.0002880989742745427 0.0
0.0017214871283436671 6.403498639254767e-5 0.0
0.0017743429758151916 5.541174587987726e-5 0.0
0.000565501493915968 -0.0003133681570432071 0.0
0.0005871914804612873 -0.0003141173577232249 0.0
0.00018563693325747118 -2.2868035543807445e-5 0.0
0.00023677767373956568 -2.359685715970039e-5 0.0
0.00029217922045283946 -3.7618754208875886e-5 0.0
0.00029182336731086074 -2.2601630392667675e-5 0.0
0.00023607615052651033 -1.0792414634764729e-5 0.0
0.00029404877351640684 -7.0971687199175604e-6 0.0
0.00023725642150593644 1.8291180845612897e-6 0.0
0.0002989978404554067 8.521594604724058e-6 0.0
0.00023974986705915148 1.3760333200949327e-5 0.0
0.00014878477380595977 -8.995119458072486e-5 0.0
0.0014472145292761817 -0.0002666898808272348 0.0
0.00011906864470004967 -6.891120866297923e-5 0.0
0.0005163230320898004 -0.000293551382457038 0.0
0.002446524738203509 -3.928545405924829e-5 0.0
0.0011787949729725098 -0.000293025578223336 0.0
0.0015673383269412579 1.0746884520595138e-5 0.0
0.0015790043823925523 3.0773668499290177e-5 0.0
0.0003047429619426846 2.3611236533033707e-5 0.0
0.00038065862851795716 -0.00022786996162864082 0.0
0.0003522878104391584 -0.00020739262927556445 0.0
0.0007673694466131217 -0.0003901464603336985 0.0
0.0017059782791403852 -0.0004271321503171402 0.0
0.0009198373919830779 -0.0004248124577585131 0.0
0.0020800996438977166 -0.00026667637379453583 0.0
0.002474404729472802 -4.2864788794010315e-5 0.0
0.0010514167883804986 -0.0002569950254575125 0.0
0.0010189642703191798 -0.00024773786683968954 0.0
0.0010175797851880559 -0.0002618691006223748 0.0
0.0008391698718421528 0.00015594192803698278 0.0
0.0009870551036148326 -0.00025214348363231283 0.0
0.00020795947948307373 -6.818636585992775e-5 0.0
0.0013971871647232988 -0.0004734828546380111 0.0
0.001426001711541286 -0.0004625287397488818 0.0
0.001429288209746655 -0.00043977892412885237 0.0
0.0014551416748985995 -0.000450916653131559 0.0
0.0017399701281694696 -0.00029185682025615657 0.0
0.0017514655700156512 -0.00026974739876859104 0.0
0.0024577901156743903 -3.220062890236415e-5 0.0
0.0024276842443806583 -3.770520016110296e-5 0.0
0.0016460876722274222 5.037748201617693e-5 0.0
0.001590153434513863 5.183273975131225e-5 0.0
0.0004887746593697274 -0.0002746544049243394 0.0
0.0007173686717787731 -0.00037230029093931224 0.0
0.0006911150788349283 -0.0003560880687331891 0.0
0.0012449945289027555 -0.00017465863031158082 0.0
0.002006632381024696 -0.0003200722810312923 0.0
0.00024468915252183764 2.4588282030208848e-5 0.0
0.0006860294863135005 -0.00033843855763422806 0.0
0.0014516031001992385 -0.0004743209179875244 0.0
0.001480318999467767 -0.0004621703684353198 0.0
0.001452236039350564 -0.0002499031956514199 0.0
0.0014134672138479251 -0.0002605492841085164 0.0
0.0014180824212002994 -0.000244421510967935 0.0
0.0013210335706230656 -0.00014925639431635171 0.0
0.0002095541418186598 -9.010384569927106e-5 0.0
0.00012757503508479336 -7.996729811974412e-5 0.0
0.001459565418894263 -0.00042780642860688043 0.0
0.0015142163120331195 -0.0002095839184930678 0.0
0.001205590999428664 -0.0004715597862021423 0.0
0.0004972091886551442 -0.00010155715726148566 0.0
0.0008727581203912016 -0.0001808544614308128 0.0
0.0004083532712597262 -0.000248770954635643 0.0
0.0020968470598437313 -0.00023500027278210498 0.0
0.0005383101227274606 -0.00021830010928723765 0.0
0.0005046878912102296 -0.00020127496702162988 0.0
0.0005358098325075113 -0.0002046986066596142 0.0
0.0005008788273491629 -0.0001879263989363207 0.0
0.0005330497422896073 -0.00019138751916677305 0.0
0.00046941284710202405 -0.00018402346886739292 0.0
0.001624410375010878 -0.0004562338473433708 0.0
0.001602689033651855 -0.0004470211551765976 0.0
0.00034495831484385175 6.440253117156094e-5 0.0
0.0012332884208017638 -0.00048499936684761203 0.0
0.0012004038132047083 -0.00037140081364466014 0.0
0.0011699619921496007 -0.00037844959480392036 0.0
0.0005924469262769412 -0.00033177663998727 0.0
0.00016139673928514068 -5.0882124184448476e-5 0.0
0.00017266406181754986 -6.0539156558977944e-5 0.0
0.0022823129185688064 -7.700981236230352e-5 0.0
0.002328598431206799 -6.042560862838572e-5 0.0
0.0003482118089904773 -3.730824204186841e-5 0.0
0.0006137264285079518 -0.00033178938585618964 0.0
0.0006100917946450471 -0.0003156475538087774 0.0
0.0006189417149425044 -0.0003497545794464847 0.0
0.0005716252643214215 -0.00033148897658224325 0.0
0.0004675234823862696 0.00010380211908305469 0.0
0.0009376908587241643 -0.00036706138617857085 0.0
0.001441676921147659 -0.0002846828656600326 0.0
0.0022930512879510354 -6.64486280315869e-5 0.0
0.0013690604842105038 -0.00048395697783187045 0.0
0.0008956388877808165 -0.0004287045065581367 0.0
0.0024820082069971594 -5.260450533197007e-5 0.0
0.002464282376006552 -7.383032186304134e-5 0.0
0.0008426399996098234 0.0001385993017339016 0.0
0.0006963274292971721 -0.00037425749201890903 0.0
0.001610346392366894 -0.00021385161461808937 0.0
0.0016571316840624857 -0.00019960829619802955 0.0
0.00026959133790690945 -0.00010638641597622686 0.0
0.0003611457704778015 -0.00022496191363922466 0.0
0.0003335404026168328 -0.00020448554605247496 0.0
0.0003241810426123412 -0.00018757318484863533 0.0
0.0004956304898144129 -0.0002924532397671868 0.0
9.837797778066517e-5 -5.8721299062583694e-5 0.0
9.173168034289784e-5 -5.087159993950226e-5 0.0
0.0014764644211179001 -0.0004862760633686768 0.0
0.0015046568834992963 -0.0004736061962335184 0.0
0.001508383522626741 -0.0004478102466354743 0.0
0.0020551571180866214 -0.00022570946978157005 0.0
0.0020327053886902407 -0.00022271823187666428 0.0
0.0020270152197244457 -0.00032944940829071693 0.0
0.00046510501518821337 -0.00017115400272537266 0.0
0.0004343298334443201 -0.0001673145080101235 0.0
0.0016929557015588725 -0.00020293945991791323 0.0
0.0024350742567167084 -2.1552960425119876e-5 0.0
0.0024483440279860777 -2.3054521047021613e-5 0.0
0.0024638962809066783 -2.7612612688855284e-5 0.0
0.0024158738377813363 -0.00011073162446842964 0.0
0.00015712247595700508 -0.00010304287629923072 0.0
0.0015888768740655215 -4.15982987111642e-5 0.0
0.0015389018178633166 -4.150862478362566e-5 0.0
0.0015290406453151188 -5.5145721803381545e-5 0.0
0.0014819940848578197 -5.535589676896899e-5 0.0
0.0014751886186811932 -6.804140505351133e-5 0.0
0.0014875076201292996 -4.314803391918558e-5 0.0
0.0013073522437450345 -0.00029390437401393885 0.0
0.0010548620908984664 -0.00022949558674710492 0.0
0.0010900091569054715 -0.00022435889975137816 0.0
0.0003423990266806676 -0.00022212171182822186 0.0
0.0003150138696120678 -0.00020103844476725223 0.0
0.002195671393403808 4.027032652177069e-5 0.0
0.002276018684841717 3.335653885904035e-5 0.0
0.0023084117962257258 2.3348600528926697e-5 0.0
0.0023562887568424995 2.547387657327918e-5 0.0
0.002335458097413723 3.37299705617839e-5 0.0
0.001179749718601709 -0.00045853889093718956 0.0
0.0011791306455979772 -0.00043880478815197743 0.0
0.0011795288793727432 -0.00047907071160520787 0.0
0.00151554759394722 8.622331995669606e-6 0.0
0.0015046856089870717 -7.760221328414818e-6 0.0
0.0003501923247492585 -5.3336366883827625e-5 0.0
0.00017829594583020672 1.4002270491813007e-5 0.0
0.0015948903579123784 -0.00047370107566830727 0.0
0.0004228351318744601 6.997789656875768e-5 0.0
0.0016228553248020215 -0.0002748041835230828 0.0
0.001528492597448415 -6.78631385728429e-5 0.0
0.0014687926361079298 -8.054878536400929e-5 0.0
0.001512359602210554 -8.239765974431062e-5 0.0
0.0014622400095667626 -9.29228035751312e-5 0.0
0.0015033959920893868 -9.526159222485577e-5 0.0
0.0014559134291480887 -0.00010543715471258478 0.0
0.0014958664000417 -0.00010814313994646297 0.0
0.0014498403821478615 -0.00011824913937984469 0.0
0.0014904609002774041 -0.00012115106856431021 0.0
0.0014189851739557855 -9.069540376876645e-5 0.0
0.0014100329263977932 -0.00011521774914226553 0.0
0.0016465929310377748 -0.00046536106441866525 0.0
0.0024939695246777326 -2.490368768768264e-5 0.0
0.0008575895397284702 -0.0003427508479298267 0.0
0.0008283044338683011 -0.00032906167110339964 0.0
0.0023301273777071073 -0.00014313559463781963 0.0
0.000989872930081985 -0.00024036136592590576 0.0
0.001431116821560768 -6.694266389582313e-5 0.0
0.0005948239156462151 0.00014128090804305487 0.0
0.00014800775853951112 -3.6043037222370484e-5 0.0
0.0009204524944615639 0.00015356169842263968 0.0
0.0009149427305825214 0.00013345378782582895 0.0
0.0019146604042520172 4.8872150111164766e-5 0.0
0.0023543369046557607 -0.00014154192918097475 0.0
0.0023129886769433926 -0.00017452224561386923 0.0
0.0009849082776958442 -0.00026621939625339223 0.0
0.0009575153199003426 -0.00025425785429760523 0.0
0.0004274793979343559 -0.00023709651696092422 0.0
0.0001068144638013472 -6.941475987791655e-5 0.0
0.000123143308809878 -4.119392180606119e-5 0.0
0.00012870657929707775 -4.717320854610773e-5 0.0
7.791074842569005e-5 -4.8001788158520894e-5 0.0
0.0017207278722336599 -0.00026694034247211644 0.0
0.001762513460086048 -0.00024912179605988743 0.0
0.0017935958097778208 -0.00025129613360471234 0.0
0.0018045639960225439 -0.00023078212569352122 0.0
0.0014050850625042283 -0.0001273150339711637 0.0
0.0006961606411027733 0.00016510863138433063 0.0
0.0008571336070888409 0.00017036153434475012 0.0
0.0013798859819475413 -0.00025426643391932566 0.0
0.0013847839978365095 -0.00023840312275745938 0.0
0.0010576075191481432 -0.00021694344956816613 0.0
0.0009042046846873256 -0.00021593486218573964 0.0
0.0009224787469500696 -0.00044403586338733777 0.0
0.0018693220234473507 -0.00034668617635340206 0.0
0.00188982454345957 -0.0003544871488766502 0.0
0.0018569169735306416 -0.0003782549633621155 0.0
0.001876764349201179 -0.0003877756841702135 0.0
0.001845352247052593 -0.00041122743009489266 0.0
0.0018254122551042832 -0.00040159232773369976 0.0
0.0017741324288825782 -0.00038901139028828436 0.0
0.001606772153936505 -0.00041973149492644283 0.0
0.001732823073033292 7.315481758196522e-5 0.0
0.0012924464937905565 -0.00038615137316676783 0.0
0.0003580910023069508 -1.0445064875063273e-6 0.0
0.0024440513935235645 -0.00010121066969991271 0.0
0.002485217044009437 -6.893753308005503e-5 0.0
0.0019094721419452864 -0.0003633723724358246 0.0
0.0018971788306305698 -0.0003977707207608255 0.0
0.0019287080833626893 -0.0003736312978412864 0.0
0.0009458583858922288 -0.00043990687977408876 0.0
0.0011410820649724698 -0.00036717331458607175 0.0
0.0011409290347741917 -0.0003847665840854384 0.0
0.0011690478591459084 -0.00039682704103594167 0.0
0.0007771004460973341 -0.0002838031154083561 0.0
0.0011121185033106263 -0.00037307073417464727 0.0
0.001433587719706003 -0.00041792652467147624 0.0
0.0020735177547620957 -0.00019874905222685234 0.0
0.0021175485130078306 -0.00024006864867600505 0.0
0.002100497187558451 -0.00027407177068527176 0.0
0.002140043379763606 -0.0002064219628641141 0.0
0.0002956426004033943 -6.381698011905686e-5 0.0
0.0008414836089230301 -0.00039807582343495934 0.0
0.0008180495524927844 -0.00040102403749476986 0.0
0.0008448218849628024 -0.00041674554605552095 0.0
0.0008225474082980334 -0.0004199069421340852 0.0
0.0018352977022951958 -0.00023198433419268448 0.0
0.0005232676899703837 -0.00031182081093719314 0.0
0.00046958907428545205 -0.00027369770323542973 0.0
0.0024116167101332895 -3.278269778440339e-5 0.0
0.00013765492426839817 -2.0563856174697626e-5 0.0
0.00013529807043016369 -1.2752829856994706e-5 0.0
0.0015716794729750412 -0.00046054842141870047 0.0
0.0015686979071120111 -0.000489445045973115 0.0
0.0012723961943086443 -0.00030270104834206706 0.0
0.002388028576585648 1.6529771078603674e-5 0.0
0.0004760719766966165 -0.00029138725549622096 0.0
0.001929898727024708 2.9403114133992655e-5 0.0
0.0022254436681120923 -0.0001491148783487073 0.0
0.0022699703655896628 4.92311859696279e-5 0.0
0.0022946132545089235 4.9362920090933326e-5 0.0
0.001773340710987104 -0.00022954273109403634 0.0
0.0019042625811625654 -0.00023874968113467775 0.0
0.0019292907483789488 -0.00023925019101845275 0.0
0.0017234572578982337 3.786112092710088e-5 0.0
0.0017742136843430054 2.717011207229157e-5 0.0
0.00182726440632478 4.845962477592116e-5 0.0
0.0014480518304344824 -0.0004981475156394468 0.0
0.0007207045133491204 -0.0003901287216750473 0.0
0.0010829298249864679 -0.0002807714789108944 0.0
0.0015672658958305117 -0.00022871645053837845 0.0
0.0013686629831093486 -0.0003089383768221227 0.0
0.001394760653572462 -0.0004965800286734862 0.0
0.0006392156181111033 -0.00034916258843204016 0.0
0.0008027142786642187 -0.00033068325466189305 0.0
0.00033621111069218946 -0.00012076783528707129 0.0
0.002422940959770554 1.764917689302802e-5 0.0
0.0018256680505077548 -0.0002809349536878126 0.0
0.00023239727671741625 -8.929432151060505e-5 0.0
0.0007149841684564154 0.00017861228558604248 0.0
0.0013818522990052577 -0.0003970010653341259 0.0
0.0018144988812573888 -0.00043440071030742474 0.0
0.0017935272319231368 -0.0004244551891259649 0.0
0.0016030501261210543 -0.0003165442520560982 0.0
0.0017006966039707326 -0.00018539693326986175 0.0
0.0007378948378340684 -0.0002390043580844257 0.0
0.0011405626478302225 -0.0004059918959422918 0.0
0.0015551865198088757 -0.00019851874685208464 0.0
0.0007991501665439811 -0.0003148777239353902 0.0
0.0007731453526383365 -0.0003159625852558717 0.0
0.0006443705693906089 -0.000367431246224381 0.0
0.0004057572030932081 -5.377852301246479e-5 0.0
0.00040698684343143626 -3.6389951607551195e-5 0.0
0.00018400475435903223 2.122363074673967e-5 0.0
0.0002558231913014918 3.4846343697152456e-5 0.0
0.0019925233131751377 -0.00035588180844857605 0.0
0.0003051810558440217 -0.00012390622756328572 0.0
0.0004391368720492418 -0.00018019630123036163 0.0
0.0004040422538184136 -0.00016285765918356665 0.0
0.0021157203578747543 -0.00020506154788844374 0.0
0.0010501128110086448 -0.00036659877842769225 0.0
0.0013419974409196614 -0.0002838491762593804 0.0
0.001661494374708163 7.389436222796067e-5 0.0
0.0016462008123188274 7.652909547366523e-5 0.0
0.0016030423309383757 7.40488194827467e-5 0.0
0.0015912302066010305 7.140086748477497e-5 0.0
0.0016315650775227332 6.709954041594083e-5 0.0
0.0018416012433188893 4.776346965277229e-6 0.0
0.0018942849533682526 -5.61524422853886e-7 0.0
0.0019093336976374804 1.6559990548558615e-5 0.0
0.0019580662090644568 1.0123793049610425e-5 0.0
0.0019436886652071808 -6.923291530345357e-6 0.0
0.00011630831426081754 -3.4962996446188625e-5 0.0
0.0018477672641130087 -0.00021243947430170355 0.0
0.0003355338869256086 6.798439373644197e-5 0.0
0.000365549558747021 7.737676806794674e-5 0.0
0.0015005013451959415 -0.0004981551815574145 0.0
8.735994681607086e-5 -1.0179169596097903e-5 0.0
0.0020402444975751634 -0.00011697824025209909 0.0
0.0020906512812434237 -9.885363041017126e-5 0.0
0.0020556544731159224 -9.847399277910798e-5 0.0
0.0021299708274580107 -9.602565744834455e-5 0.0
0.0021420335790132174 -8.13932183068583e-5 0.0
0.0021821513939811552 -7.884942401087713e-5 0.0
0.0005686266840003524 -0.00020751635038604037 0.0
0.0005675449821622723 -0.00019457010798980894 0.0
0.0005301066259389817 -0.00017832498466182917 0.0
0.0005660199792258167 -0.00018183780706425965 0.0
0.0006036257930370302 -0.00019742240718143537 0.0
0.000602766066385648 -0.00018460372112660757 0.0
0.00063985561572232 -0.0001994598159920906 0.0
0.0007015531935348979 -0.0003918512311655624 0.0
0.0006394878061759137 -0.0001862443652212406 0.0
0.0006764047568999797 -0.00020087236108305806 0.0
0.00018034582244663122 -3.0455272639993627e-6 0.0
0.00040564967506742867 -6.978203548735004e-5 0.0
0.0006752576315980801 -0.00021367340479492102 0.0
0.0005314855381915001 -0.00016718426213149985 0.0
0.0020497356436019044 -0.00019785210756505134 0.0
0.0020099771847095736 -0.00022115862993458868 0.0
0.001154636219007811 -0.00046657874204985157 0.0
0.0011541808603684582 -0.0004864537559059148 0.0
0.0015508008656890404 7.110466596520616e-5 0.0
0.0008498704164781021 0.00011725235998079877 0.0
0.0009174304543638511 0.00010930788865322535 0.0
0.0009779997332233273 0.00012368488171631757 0.0
0.0009807464299688147 9.640878991917119e-5 0.0
0.000923619480535387 8.190762250932024e-5 0.0
0.000986233539055716 6.386917063824402e-5 0.0
0.0009318301601401228 5.216358544485754e-5 0.0
0.0009945586466844198 3.1431492623935965e-5 0.0
0.000940326016778934 2.3741646539840646e-5 0.0
0.0010119266787675361 2.516387658141069e-6 0.0
0.0009471757629462639 -1.0690198460507615e-6 0.0
0.0010060236360965157 -1.8756793375003384e-5 0.0
0.0009503597380224174 -2.2051977872926672e-5 0.0
0.001006489135555911 -3.717958626495874e-5 0.0
0.0009556902646419737 -4.1133407132322166e-5 0.0
0.0010081840741870247 -5.375691854443188e-5 0.0
0.0009581623351332107 -5.751852530324898e-5 0.0
0.0010069480224330477 -6.816315079619998e-5 0.0
0.0009595663728287056 -7.202699443931412e-5 0.0
0.00100607949375423 -8.125720672062644e-5 0.0
0.0009599815892313203 -8.547127652301868e-5 0.0
0.0010044725138948747 -9.381898859423057e-5 0.0
0.0009587074724910598 -9.818154732114335e-5 0.0
0.001002604014925296 -0.00010562088809550712 0.0
0.0009573202627218922 -0.00011077011548227278 0.0
0.0009131057932049775 -0.00010204960218752368 0.0
0.0009123391419007416 -0.00011517420756754082 0.0
0.0010037817719748831 -0.00011847660490248464 0.0
0.0009118301202981985 -6.100238798679627e-5 0.0
0.0010470017979353188 -9.994034997324344e-5 0.0
0.0010558965292143745 -7.731196152703964e-5 0.0
0.0008803988502643158 4.1740139300001015e-5 0.0
0.0010579190852505157 -4.9388459545605015e-5 0.0
0.0008670912097689769 -0.00010561078829567514 0.0
0.000867587838302117 -0.00011896417231483512 0.0
0.0009117496907366986 -0.00012819889532697534 0.0
0.0008680859225722098 -0.0001321044917461374 0.0
0.0008994908297591879 -2.607485070445849e-5 0.0
0.0010660549630702985 -1.852953953297679e-5 0.0
0.0008674307723957265 -9.178163957057653e-5 0.0
0.0010506319693153558 4.0426303084067415e-5 0.0
0.0009115079057463248 -0.00014099822617785388 0.0
0.0008684322348243205 -0.00014505019999380976 0.0
0.0008249559340009832 -0.00013546108894276198 0.0
0.0008194959284788941 -9.508455773462297e-5 0.0
0.0008174588087191854 -7.948591582572685e-5 0.0
0.0009549975381235348 -0.00013628536822645292 0.0
0.0009533825056308746 -0.00014883438938700303 0.0
0.000995538711877073 -0.0001438217750084229 0.0
0.0010398990409214363 0.00010750137173477507 0.0
0.0010429430456760115 0.00012888717908878688 0.0
0.0008271839728515196 -0.00014871513752054698 0.0
0.0007826281575644129 -0.00013845717927131782 0.0
0.0007811651023378149 -0.00012532569223952744 0.0
0.000736314141884695 -0.00012739370355653354 0.0
0.001367499804571512 -0.0005066959240812944 0.0
0.001342148200114496 -0.0004939467814229193 0.0
0.0023364501635392003 -0.00017336493684481086 0.0
0.0014644937163827373 -0.00040531313314559104 0.0
0.001490878366732104 -0.0004150615417487759 0.0
0.0008510254771168963 -0.0003259973983279095 0.0
0.0008805842597091027 -0.0003391268082435971 0.0
0.0020930250735736906 5.660206622873386e-5 0.0
0.0014923064119204868 -0.00023757188049962493 0.0
0.0008700193401707507 -0.00015762645573867663 0.0
0.0006615279591597089 -0.00033876603010479995 0.0
0.0006588954744963678 -0.0003222228944519292 0.0
0.0006813165166805831 -0.00032173736028285086 0.0
0.001663588441327939 -0.0001824789792142595 0.0
0.0015485404989620392 -8.586920896542758e-5 0.0
0.0010172493873200075 -0.0002764250565384802 0.0
0.0009854179018357824 -0.00028096192876363754 0.0
0.001453414807717623 -9.97493699882051e-6 0.0
0.0014459924281396829 -2.285890191758214e-5 0.0
0.001489943332087954 -2.176995348808158e-5 0.0
0.0014346186579415974 -3.63203417435181e-5 0.0
0.0014642076997349732 4.634407325067131e-6 0.0
0.0015356588767718373 -0.00011124360156753909 0.0
0.0015310435225165473 -0.00012426550818794992 0.0
0.0014814971627887042 -0.0001343805560001072 0.0
0.0010929825460860743 -0.0002116507797788676 0.0
0.0011257340263676734 -0.0002187907092052206 0.0
0.00112923317904344 -0.0002063999721955678 0.0
0.001161529080951814 -0.00021277401165093084 0.0
0.0011651130151771952 -0.00020052295462270973 0.0
0.001197404934910636 -0.0002064505455512679 0.0
0.0012013030413018837 -0.00019433597395839474 0.0
0.0012350773176455284 -0.0001996784160914362 0.0
0.0012302313060487367 -0.00021253668718455184 0.0
0.0012690123449751926 -0.00020354750234361077 0.0
0.001424683440882654 -0.0002293091829479136 0.0
0.001389585384505707 -0.00022356747328648068 0.0
0.0013513113900876746 -0.0002325836939903297 0.0
0.0013554904502387007 -0.00021824877600002375 0.0
0.0002639770888034354 -9.689369747032269e-5 0.0
0.0003247137145981532 -0.00021919498393879912 0.0
0.0002976500247184903 -0.00019751892361041383 0.0
0.00028822986147128307 -0.00017955946566757376 0.0
0.0002699561946003561 -0.00017510849544339285 0.0
0.0012755001136631372 -0.0002861511977686779 0.0
0.001737549010787931 -0.00018734647982574632 0.0
0.0017260252355700745 -0.00020621026024731493 0.0
0.0006877026342610689 0.000148190545012132 0.0
0.001367663538967617 -0.000124213538004039 0.0
0.001370956524370565 -0.00011366483521440545 0.0
0.0014682076596347377 5.8548370339757046e-5 0.0
0.0024524406546323975 -4.6236657173661744e-5 0.0
0.0024889338913640286 -3.2211663539915525e-5 0.0
0.0025135913090580603 -2.6887868888223417e-5 0.0
8.914310277459482e-5 -3.143161501722465e-5 0.0
9.250699694254021e-5 -3.5395717110411636e-5 0.0
0.00013053409567532676 -5.167488566750256e-5 0.0
9.831866844999908e-5 -4.038802060999272e-5 0.0
0.0001339689481977726 -5.6996060596475586e-5 0.0
0.0001024580043433926 -4.513358113376998e-5 0.0
6.368160633631685e-5 -2.7143304734155252e-5 0.0
0.0012408198662325995 -0.0002943840648333439 0.0
0.0006039275596607648 -0.00017235308097208622 0.0
0.0003707509169148738 -0.00024330548920150898 0.0
0.000992673468458592 -0.0001554183354562891 0.0
0.0023030378684214528 -0.00020322440798948777 0.0
0.0022776142689700314 -0.00020970799957626684 0.0
0.0019449861335670226 -0.00021720287440647046 0.0
0.0019789328715454986 -0.0002130170994743112 0.0
0.00199155769060546 -0.00019134553793390238 0.0
0.00011694796618544395 1.0610970779254296e-5 0.0
0.0008997431737258508 -0.00044806875886619144 0.0
0.0006250359502090947 -0.000368567895288964 0.0
8.657154209333112e-5 -5.8590750553343305e-5 0.0
0.00011765731743653205 -8.507109489520339e-5 0.0
0.0004943180844133241 -0.00016334426854884232 0.0
0.0015871269839670115 5.633894033160402e-5 0.0
0.00163452985918135 4.643251895518992e-5 0.0
0.0018750045668054576 -0.00023906987910695377 0.0
0.0019523484719502773 -0.00024082906909747505 0.0
0.000848891565234586 -0.00043525046605199396 0.0
0.0009474843267707783 -0.00045847919419581045 0.0
0.0009711022469501994 -0.00045476842426688094 0.0
0.0021371966964425625 -0.00024688254958548365 0.0
0.0021202677216730394 -0.00028238222594899006 0.0
0.0020828903728912734 -0.00031581054364684274 0.0
0.002340033593813522 -5.1556714004327477e-5 0.0
0.002304325363822224 -5.6890751600953423e-5 0.0
0.002256819569362066 -7.181068537810791e-5 0.0
0.0022646179864752227 -6.188360873010121e-5 0.0
0.0004241772689770825 -0.00015502824014651127 0.0
0.002192151086391186 -6.590947865810585e-5 0.0
0.0021450422613464174 -6.781581849776562e-5 0.0
0.0014975725064408567 -0.0003933044860862484 0.0
0.0002777188375452509 -0.00019137251201033033 0.0
0.0002533981964870749 -0.0001723502476264654 0.0
0.00024359101468685393 -0.00015543788619428904 0.0
0.00022727175911147564 -0.0001515134464336439 0.0
0.0025214694674387974 -2.1403071028903372e-5 0.0
0.002461682771695396 -2.3481995376833235e-5 0.0
0.002495935585313544 -1.5746584422004695e-5 0.0
0.0020115938940348604 -0.00036504188080667665 0.0
0.0010218822630288819 -0.0002211153700713976 0.0
0.0021552842273314388 -0.000255167172122188 0.0
0.0021403622676082817 -0.00028971656989435775 0.0
0.0021730643081315213 -0.0002632048885948343 0.0
0.002160849515102613 -0.00029991254962239154 0.0
0.002194914396057413 -0.00026736175558943307 0.0
0.0022074844272727445 -0.00023518473392266257 0.0
0.002226050826312239 -0.00024145360973020795 0.0
0.001181524094270323 -0.0004990992572425247 0.0
0.0011577481949944324 -0.0005081840666559526 0.0
0.0011258716699773005 -0.0004931083295313948 0.0
0.0008299991019451623 -0.00016205566275638868 0.0
7.395022128621718e-5 -3.377813634925897e-5 0.0
0.00010610659007456339 -5.005686195246761e-5 0.0
7.78840107544286e-5 -3.785116791793681e-5 0.0
0.0008302721498023488 -0.00044192075293163414 0.0
0.0008026943317266503 -0.0004237226764818477 0.0
0.0024079389382334333 -0.00013394493460298497 0.0
0.00019616965928537572 2.830951114395154e-5 0.0
0.0013184699697378962 -0.00022837082897747243 0.0
0.0013240143002071132 -0.00021360983879083773 0.0
0.00233658650661418 1.4117385562750733e-5 0.0
0.002413922474406004 8.94347480310977e-6 0.0
0.0021555216306171315 -0.00018039011220496014 0.0
0.000452031790718856 -0.00027228934758624624 0.0
0.0004615077151719406 -0.00029209137523679 0.0
0.001827344471725352 -0.00025198048790577883 0.0
0.0019053027332295064 -1.045621019598373e-5 0.0
0.0024657592830480816 -9.489829588092554e-5 0.0
0.002506064130464675 -6.220194408727076e-5 0.0
0.002523067941040975 -4.221315836012781e-5 0.0
0.001824387464822224 1.8285139700054034e-5 0.0
0.0020915095187948305 -0.000175431592565313 0.0
0.0011288845654356691 -0.0004390800266037657 0.0
0.0021688529377025425 -9.266434323583693e-5 0.0
0.0020196593190444224 -0.0002015860003255425 0.0
0.0007716496150270193 -0.00029959481430162687 0.0
0.0004614385064145174 -0.00025615144294534857 0.0
0.002380117783238494 -4.417875711773966e-5 0.0
0.0019654688169257204 5.418963199591264e-5 0.0
0.0008040244263680273 -0.0004412704080422045 0.0
0.00037822418650185945 -0.00013929744781159968 0.0
0.0013572636353847661 -0.0001373898025397002 0.0
0.001971696231093162 -0.00035091610858158204 0.0
0.001962173644640749 -0.00038365871102183884 0.0
5.914856364312723e-5 -3.7924521885347646e-5 0.0
0.0015269289951063063 -0.0004878782020912444 0.0
0.001518528895732125 -0.0005084702799399211 0.0
0.0009713441290437378 -0.0004763617552212355 0.0
0.0009961985295034324 -0.00047018249926089064 0.0
0.0009944858163844022 -0.0004503890888726167 0.0
0.0010200243693772352 -0.0004648996191186666 0.0
0.0009971998868559895 -0.00048673241317640696 0.0
0.0008679307305731475 -7.739182856527923e-5 0.0
0.0008168788390055268 -6.437120629279479e-5 0.0
0.0003492134427505948 -6.726077653931927e-5 0.0
0.0007941555179789272 0.00018802312143728056 0.0
0.0007816251054874067 0.00017571493123728034 0.0
0.0015616604051129795 6.3282738417846e-5 0.0
0.0019145406053307009 -0.0004088139948855552 0.0
0.0018860375711278183 -0.0004322201592116082 0.0
0.00023460823533475158 -0.00016838878838468105 0.0
0.00020902852021906378 -0.00014603264516061378 0.0
0.002508827122385713 -1.5515092369196764e-5 0.0
0.000415005656731992 -0.00017691382027882835 0.0
0.00037590309145059506 -0.00016044643059387988 0.0
0.002345097083824584 4.173367287466146e-5 0.0
0.0023737119185045764 -0.0001418282536417177 0.0
0.002355335398237165 -0.00017594120254407864 0.0
0.0013984488128308463 -0.00013994445863036752 0.0
0.0015883446817628716 -0.000499266490102336 0.0
0.0015569861426366406 -0.0005176299384223017 0.0
0.0007088822597243389 -0.00021373828843948027 0.0
0.0007125409114804481 -0.0002009682937734464 0.0
0.0010197044266868046 -0.0004454843219642385 0.0
0.0021649085020140923 -0.00021012961998357542 0.0
0.0012388958158526663 -0.00018730694658845452 0.0
0.0012080719316011667 -0.0001820671288156756 0.0
7.165754570641792e-5 -5.1286676548531156e-5 0.0
0.0007994521442878044 0.0002900103728090248 0.0
0.0011315967341882498 -0.00019378354079967126 0.0
0.0007703628217112416 -8.330585887720051e-5 0.0
0.000774923763172759 -9.837316268730167e-5 0.0
0.0004627126922969461 -7.029066598166705e-5 0.0
0.001579976409017469 -0.00011297068443787164 0.0
0.0010327138218768058 -0.00015045828476673178 0.0
0.001036736470948793 -0.00013915588669857903 0.0
0.0010728052968667057 -0.00014554260515944057 0.0
0.0010759875325817353 -0.000134864443691564 0.0
0.0011107107945516437 -0.00013979467834540694 0.0
0.0011143904980658304 -0.0001297036534410099 0.0
0.0010789948222412692 -0.00012461836141750265 0.0
0.0011177924535742995 -0.00011955885627641724 0.0
0.0010825351518897652 -0.00011474759058271902 0.0
0.001121926873987518 -0.0001098081512227463 0.0
0.001146771242978856 -0.00013435675886615725 0.0
9.28684035993964e-5 -5.704412347748604e-6 0.0
0.0015224161961216592 -0.00013947655736104496 0.0
0.0010307177262492714 -0.00020899562140494713 0.0
0.0010424710935140616 7.515199546102032e-5 0.0
0.0011156684667204921 4.376146467055151e-5 0.0
0.0011141799961751951 1.5433201739888625e-5 0.0
0.0011016164797778164 8.344983074439987e-5 0.0
0.0010613051527501368 1.2003436164212061e-5 0.0
0.0011218873044219902 -5.15069998331776e-6 0.0
0.0011804376005239774 -5.5164902639073396e-6 0.0
0.0011631658499631325 5.9889479952585686e-5 0.0
0.00016635745495727526 -6.849608391979885e-5 0.0
0.00017178407517703787 -7.577751533268445e-5 0.0
0.0025104042891453634 1.1971990446033904e-5 0.0
0.002423620524161904 2.5651930930896676e-5 0.0
0.0024183360682833886 2.9954737636250283e-5 0.0
0.0018374199441858223 -0.0004476056019301555 0.0
0.0018040539347145203 -0.0004679323693193659 0.0
0.0006541925891022835 -0.0003059798072060096 0.0
0.0006774881903127665 -0.0003051902228527449 0.0
0.000630533572515342 -0.00030573835942036766 0.0
0.0007240737586156887 -8.902290714744046e-5 0.0
0.0011690497626972254 1.6159446593592293e-5 0.0
0.0011585619153006725 -0.0001139916404211769 0.0
0.0011601493775931493 -0.00010421883093555544 0.0
0.0011255482941560564 -0.00010021231513408978 0.0
0.0011625987166840426 -9.543197417974363e-5 0.0
0.0011309149185961189 -9.108484921321957e-5 0.0
0.0006770531611926625 -0.0003766179501042812 0.0
0.0025031398859404527 1.771978553318867e-5 0.0
0.0011083380254580247 0.00011222526931092879 0.0
0.0015078191044946554 5.909352268709228e-5 0.0
0.001510952466748805 4.173884970972314e-5 0.0
0.0014564038071917392 3.2105420545931614e-5 0.0
0.0007733607068003008 0.00012127581928192005 0.0
0.0010022965132819096 0.000159261829721232 0.0
0.0009424420396726402 0.00016922174362014585 0.0
0.0009134604945812922 0.00017882311498674175 0.0
0.001706712648112507 -1.9439498205575923e-5 0.0
0.00204666317448607 -0.0003394080436278003 0.0
0.002030409350766339 -0.00037924426451335235 0.0
0.0006483109847251202 -0.0003852812778925677 0.0
0.001044996669770614 -0.0004599447716351241 0.0
0.0010460714617964322 -0.00047906640959468954 0.0
0.0010697052910120838 -0.0004740413330833909 0.0
0.0010740924461903503 -0.000495768756465003 0.0
0.0018025361865728722 7.011267015330032e-5 0.0
0.0017549043464889216 6.299599270185956e-5 0.0
0.0018215027537362314 6.0599025244812216e-5 0.0
0.0018730684575326447 6.628727143540304e-5 0.0
0.001362822294249675 -0.00020467463139954678 0.0
0.0013350095530751463 -0.00019914010226625573 0.0
0.001095762193338611 -0.0004872703225904243 0.0
0.000745070162602401 -0.00014232609539219552 0.0
4.81661679953981e-5 -2.8181715282209073e-5 0.0
0.0010601368760764641 -3.3184069443138366e-5 0.0
0.0011081189399160367 -4.5281861982724757e-5 0.0
0.0011062822737490294 -5.812407547525253e-5 0.0
0.0011545312018157007 -5.380759106380268e-5 0.0
0.0011498800327176084 -6.399751106191127e-5 0.0
0.0011564789462663577 -4.307923807906758e-5 0.0
0.0011094652992845787 -6.86215866302249e-5 0.0
0.0011467501081837423 -7.338695327318362e-5 0.0
0.0011990114735245863 -4.9530503429546736e-5 0.0
0.0016909732827661156 6.426600819633899e-5 0.0
0.001109828685641852 -7.865136242125153e-5 0.0
0.002541463167407673 5.582609900354859e-7 0.0
0.0009511399464171586 -0.0001609902541389523 0.0
0.0011685304548883979 -0.00041587661454686763 0.0
0.0011990796521117804 -0.0004091105297339991 0.0
0.0011135069941422173 -3.2115836271667244e-5 0.0
0.0011654703005961338 -3.170668685024068e-5 0.0
0.001433694550348779 -0.00021484814024550587 0.0
0.0018019932772035093 -0.0003932303517895508 0.0
0.0017703588456191167 -0.0004179451210967899 0.0
0.0017629828929320943 -0.00044757800338173236 0.0
0.0017416346279644447 -0.0004411926788578177 0.0
0.0017364383982076618 -0.00046800362349451425 0.0
0.0017134229649616406 -0.00046330046188277263 0.0
0.0021149629811433876 -8.460035001489266e-6 0.0
0.0020707242735909185 -2.3881766203461047e-5 0.0
0.002091668568978606 -3.633275062183302e-5 0.0
0.0020263966590864687 -4.1310976039265384e-5 0.0
0.0020447678570309578 -5.4071376451077225e-5 0.0
0.001979778730421664 -6.055514024733657e-5 0.0
0.001998924433902629 -7.329526205695205e-5 0.0
0.0019602874195309514 -4.7275901364952435e-5 0.0
0.0019150298939255303 -6.714581978351358e-5 0.0
0.00206046418323189 -6.631035242981964e-5 0.0
0.001894709551687209 -5.416406289862198e-5 0.0
0.0020139845949651344 -8.562183166492806e-5 0.0
0.0019558652791204466 -9.293182210526178e-5 0.0
0.0019681407171171085 -0.00010547960775133706 0.0
0.001940258430849544 -3.4808284325982805e-5 0.0
0.0020465921172897416 -1.077994435843171e-5 0.0
0.002074383627960695 -7.882267887193822e-5 0.0
0.002160818796116865 -3.403425831607977e-5 0.0
0.0021164649154509934 -6.0387454968553374e-5 0.0
0.0013981402186175002 -2.4618826791202488e-5 0.0
0.0009729124618013363 0.0001605675893789185 0.0
0.00014300905596900513 -6.566580083922203e-5 0.0
0.00013645056930294318 -9.329144404925337e-5 0.0
0.00016393966838876942 -0.00011624304748990683 0.0
0.0010939718314734322 -0.0004683215023109105 0.0
0.0014725490830872913 -0.00022159318589738304 0.0
0.0014362343329108196 -5.576672624870352e-5 0.0
0.0013872619852560643 -6.611606056917447e-5 0.0
0.0013977559357882408 -5.591818040377365e-5 0.0
0.0013861589714595907 -7.626072699915782e-5 0.0
0.001425736600590422 -7.83490139704984e-5 0.0
0.0013804121975808132 -8.710502563385521e-5 0.0
0.0013739178740562322 -9.751965321300345e-5 0.0
0.0013412163113982773 -9.441053511954194e-5 0.0
0.0001766732219111629 -0.00011119601441162456 0.0
0.001609410140061138 -7.729359624536019e-6 0.0
0.0019517713390038043 3.7440076152325765e-5 0.0
0.001873079099272088 3.95197133403769e-5 0.0
0.0001037076005359651 1.4673000772289605e-5 0.0
0.00022077621850422012 3.866554801587355e-5 0.0
0.00019988672730898995 3.325131496111493e-5 0.0
0.0016358137437548787 -4.5422418592616325e-5 0.0
0.00022496817614927074 -0.0001326400787870697 0.0
0.00025956476081160425 -0.0001574206958485965 0.0
0.00028012220930501885 -0.0001640751307374821 0.0
0.0002763077687908876 -0.00015103155114035114 0.0
0.0002974382638517365 -0.00015431992867232866 0.0
0.001050240840459707 -8.913554557648939e-5 0.0
0.00011419625834136301 5.624668269016171e-6 0.0
0.0004983793567932054 -0.00014197997241457505 0.0
0.0004109698050803103 -0.00013152493300265758 0.0
0.0011675914482501674 -1.907222418347241e-5 0.0
0.00034416852613891136 0.00010220256587468574 0.0
0.0017372145433255442 -0.00040722446517788875 0.0
0.0015467825001001091 -2.596364151390551e-5 0.0
0.002428686264421015 -0.00012891777019295256 0.0
0.001937300146932664 -7.991422287300145e-5 0.0
0.0018732123706538227 -8.683547054892366e-5 0.0
0.0017836228741786309 -0.000457397001861729 0.0
0.0025465435388285795 -1.6668177698443045e-6 0.0
0.002494241389388053 -5.716680389020179e-6 0.0
0.0025043813788564106 -8.402612897332675e-6 0.0
0.0024857548509068564 -1.9633521386426277e-6 0.0
0.0024451202979587578 -1.2265180550147026e-5 0.0
0.0024791876279720176 2.2047637276777647e-6 0.0
0.0024186043647884 -8.070039247666958e-7 0.0
0.0024306948250552365 -7.011275486037746e-6 0.0
3.141208195309975e-5 -1.2792891017814234e-5 0.0
0.002565694577922116 -6.801402722397408e-6 0.0
0.002528313189646746 -1.354631717000618e-5 0.0
0.0025509108013550773 -7.206944204680818e-6 0.0
0.0025316872728086137 -1.4626070784321736e-5 0.0
0.0015245582827359866 2.691018443006087e-5 0.0
0.0018675024109290298 -0.0004200692001657818 0.0
2.531590654373317e-5 -1.2499432306870328e-5 0.0
0.0025738888502414565 -8.05362146672988e-6 0.0
0.0008573318523710613 9.338846714407748e-5 0.0
0.002058829400575983 1.866360221187348e-5 0.0
0.0007066156874556775 -1.975618251150397e-5 0.0
0.0007671545770344467 -1.3858157580262299e-5 0.0
0.0007668970030621948 1.1404975447379562e-5 0.0
0.0007656435793136924 -3.50290406800924e-5 0.0
0.0008175157325500138 -3.182451536185991e-5 0.0
0.0008328962364559661 -1.166543454987819e-5 0.0
0.0008294955431943138 1.48167641616354e-5 0.0
0.0007706294976706847 3.642636545091883e-5 0.0
0.0007195831596372966 6.10381749775813e-5 0.0
0.0007129196918164881 -4.5221438393628236e-5 0.0
0.0021104423862688916 -0.0003160179773024315 0.0
0.0025401637952050067 5.2205298087536035e-6 0.0
0.0010209407254930232 -0.0004263107766978817 0.0
0.00035539928140952015 -0.0002443184918676206 0.0
0.0011217887572280314 -0.0004204881248105291 0.0
0.000871908100879957 -0.00043229101277991467 0.0
0.0008743273286351695 -0.0004511663702546466 0.0
0.0011990132603180096 -9.864178882640074e-5 0.0
0.0016342230438854519 -7.789975176947086e-5 0.0
0.0022165243750633164 5.764133886911354e-5 0.0
0.002249696128903714 5.114835788859513e-5 0.0
0.0021769866038608737 5.4273980710263263e-5 0.0
0.0001659609891803801 -6.354040339199116e-5 0.0
0.00033342819125632456 -0.00023716298367203867 0.0
0.0009152234775366081 0.0002186283546599597 0.0
0.0008297730220992515 0.00021325400792698395 0.0
0.0019012322518290466 -3.661176172379899e-5 0.0
0.000985728244242004 0.00014432284194542715 0.0
0.0023040677389386927 -0.00014456793406921392 0.0
0.0011112998377612185 -0.0003557185460274093 0.0
0.001805178440291293 -4.5334589010662025e-5 0.0
0.0018419863633629852 -1.62729285728356e-5 0.0
0.0007904680758264904 7.620279600436365e-5 0.0
0.0006300096328110737 -0.00038774102645715107 0.0
0.0022831196465617648 -0.00018022146301898846 0.0
0.00038918937052712804 -0.00024582552558903033 0.0
0.0004119419915900876 -0.00026338087070942206 0.0
0.0004008439891023721 -0.0002678082858713227 0.0
0.0005930659393119522 -0.00014630935165723055 0.0
0.0014082210201403053 -0.00010309191976052828 0.0
0.0015877216787387426 -6.158619582547231e-5 0.0
0.000956811945863284 -0.0001233884864401443 0.0
0.0009981626906927239 -0.00013181606266526253 0.0
0.0024840922336538513 2.057239932729951e-5 0.0
0.00235737787548166 3.3724563180472266e-5 0.0
0.00012492202369416582 2.086177377892266e-5 0.0
3.148120853614346e-5 -1.3670289743139181e-5 0.0
0.0011520040069811738 -0.00012410218228955166 0.0
3.844483210549375e-5 -9.913577834145041e-6 0.0
9.196895430127869e-5 -2.1529136261617346e-5 0.0
0.0011085938589238955 -0.00040480611639695974 0.0
0.0016596363628017291 -6.952550661409839e-6 0.0
0.0010346674255977694 0.00014903108881746642 0.0
0.0015477556922872488 -0.0002128872586303994 0.0
0.0011720921492606813 -8.632233679275364e-5 0.0
0.0020378802443326216 -0.00016626237974380162 0.0
0.0023961792031057553 -0.00010999979035220023 0.0
0.0007436860335181418 -0.0003008787451480956 0.0
0.0007471481147220548 -0.00031736151754815835 0.0
0.0007174078375414756 -0.00030019767831450167 0.0
0.0006867296768572842 -0.0002832719092603437 0.0
2.6096549059102216e-5 -1.3668195520319489e-5 0.0
4.8359327426370924e-5 -2.633645897548617e-5 0.0
5.386234882385348e-5 -2.7502291470287225e-5 0.0
0.0006412347326460011 -0.00021239349917867223 0.0
0.0006076412332899261 -0.00021222607724540783 0.0
0.002568289169579333 -7.172390948215434e-6 0.0
0.0013414156362529333 -0.0005168132258265156 0.0
0.0013159894155275716 -0.0005035909449542216 0.0
0.0013152974549285078 -0.0005260342967014822 0.0
0.0012899087954828857 -0.0005127174619865486 0.0
0.0012632195842976913 -0.0005207623206184528 0.0
0.001261291669401082 -0.0004986518896175295 0.0
0.0013159960855307225 -0.00048118534626265225 0.0
0.0017826807309079327 -9.82989794270438e-6 0.0
0.0002933143409359772 -5.096113230308224e-5 0.0
0.0003443520514529556 -7.954103935879163e-5 0.0
0.0003001989499372527 -7.657468054373077e-5 0.0
0.00159145754741731 -0.00020201224448921596 0.0
0.0006071362588587237 0.00015601444250335842 0.0
0.001260823448900927 -0.00021778922442835814 0.0
4.082540383129046e-5 -1.4004441012745965e-5 0.0
0.0007804718506653452 -0.0004240908649182595 0.0
0.0007564369772739086 -0.00042176182279792 0.0
0.000760178827385773 -0.00040702603521560084 0.0
0.0008686746287653367 -0.0004133566759974452 0.0
0.0007436098675884476 -0.00028288877539297993 0.0
0.00033800672419994406 -0.00013092452056985617 0.0
0.00020387853105401774 -9.369759856731193e-5 0.0
0.002553926735448204 -4.492371614162465e-6 0.0
0.00251503449192693 -9.70248250439742e-6 0.0
0.0005028180600198202 -0.0003110152214040455 0.0
0.0005986983911080449 -0.00034973527095356666 0.0
0.0005778944133492395 -0.00035030009465065684 0.0
0.0005506741318280393 -0.0003310190410571989 0.0
0.0005558560490553426 -0.00034929843009713147 0.0
0.0015612866690664397 2.2262798505038036e-5 0.0
0.001106948070907762 0.00012696142639880698 0.0
0.0016174324657712148 -0.0004829908308339734 0.0
0.0016386880837332086 -0.0004929901476320196 0.0
0.0016658912226225247 -0.00047616050847628337 0.0
0.001607389262756748 -0.000512607925244605 0.0
0.0008018786117911718 -0.0003013964290289334 0.0
0.0014141381959540094 -0.0003863241171628511 0.0
0.001019017623001036 0.00014945869011344414 0.0
0.0010555697127118027 -6.483652705356316e-5 0.0
0.002575211453569918 -9.07145408642403e-6 0.0
0.0025514419569118273 -1.9934841956502574e-5 0.0
0.002541365900664312 -1.9910785298747966e-5 0.0
0.0005296663152984614 -0.0003303778211471799 0.0
0.0005095030187603958 -0.0003288992663069228 0.0
0.0007589234554031354 -6.434754984325621e-5 0.0
0.0006603589258204473 -0.000284937861857334 0.0
0.002386510249074799 -6.969026814345315e-5 0.0
0.001977173789552411 8.64805949229868e-6 0.0
0.0011401705178662306 -0.0001446776490469086 0.0
0.0011757635253026074 -0.00013830657988901765 0.0
0.0015456728879249327 6.426449279722667e-5 0.0
0.001847003476954661 -0.0003402410138871494 0.0
0.0010808933451898037 -0.0003613209611325622 0.0
0.0010823066288760366 -0.00037919659281899034 0.0
0.00027802506442991794 4.690770549733611e-5 0.0
0.0006077913198145016 -0.0002839222326844038 0.0
0.0005811984473991594 -0.0002807685483277217 0.0
0.0005510014933253805 -0.0002628180824014223 0.0
0.0005555870253420839 -0.0002791686792465538 0.0
0.00046419598515703037 -5.303860488493672e-5 0.0
0.00046589705360960927 -3.4020416356661844e-5 0.0
0.0005220332544864078 -8.856904702437955e-5 0.0
0.0016308567494902973 -0.0005204400168649469 0.0
0.0015789994263971847 -0.0003859761246186033 0.0
0.00154210207244501 -0.0004024777286810244 0.0
0.0015747433268941628 -0.00041499329827208477 0.0
0.0015385210721871648 -0.0004312939704191937 0.0
0.0015613487472968099 -0.000441013032979024 0.0
0.001609509513219674 -0.00039374326106788405 0.0
0.0016378216187930544 -0.0003993397946984646 0.0
2.231898533458154e-5 -1.3228400830312903e-5 0.0
0.002579138800019547 -1.1160508988928035e-5 0.0
0.002064823183613087 -0.00030209106002988465 0.0
0.00147217487522209 -0.0005094032685130285 0.0
0.002379750492499148 3.595796442868709e-5 0.0
0.0014227872468996106 -0.00048571055478542077 0.0
0.0014190261473566107 -0.0005084311349366084 0.0
0.0019025476899059554 -0.00021393690458782334 0.0
0.0017066843499913239 -0.00016835330216551024 0.0
0.0016710101899840223 -0.00016540904875438442 0.0
0.000790717850876756 -0.0003855603960013581 0.0
0.0004720657367952236 -0.00023981350775504335 0.0
0.001908024977807315 -0.00011450742120059969 0.0
0.00197893721261302 -0.0003181544478275219 0.0
0.0008668105792260306 -0.0002462971824854425 0.0
0.0008987588686434965 -0.00024345450174364993 0.0
0.0008970000870434304 -0.0002578796505788268 0.0
0.0009015437385191516 -0.0002295885875387112 0.0
0.0008654426438918431 -0.00026082472899789243 0.0
0.000929953844458103 -0.00024181892975651216 0.0
0.0009347961378158494 -0.00022882778445231623 0.0
0.0009442414052409352 -0.00021454023379175932 0.0
0.0018992724693598195 6.449783233571977e-5 0.0
0.00022847681670051928 4.203082022603056e-5 0.0
0.0018507635615684196 -7.439031581060432e-5 0.0
0.0019982060113574495 -0.00017359107881336597 0.0
0.00044684165819443625 0.00011047398029827947 0.0
0.00035196654830150576 -1.954580893339112e-5 0.0
0.0005228290971295564 -5.183485629899816e-5 0.0
0.0004165284012362173 -0.000217599581179832 0.0
0.0008677608412718813 -0.0002185185231934501 0.0
0.000677025204446157 -0.00018722321132232605 0.0
0.0007233690691743968 -0.00018843843348087096 0.0
0.0007520563185205043 -0.00020302661733566472 0.0
0.001206252765148258 -0.0004925046072378887 0.0
0.0012349095469779863 -0.0005063793341301392 0.0
0.0012352807343528872 -0.0005303594774337391 0.0
0.0012609920220952968 -0.00047700886976351177 0.0
0.0019419833525019718 -0.0003396845408156439 0.0
0.0009105169782850413 -0.0001533495237901599 0.0
0.0018519887840150143 -0.0001910462829797981 0.0
0.0008655047825518487 -0.00039479359253224484 0.0
0.001316097671737118 -0.00045927228716813074 0.0
0.0009213636927120457 -0.00046406353281111 0.0
0.002368786312860087 4.7047246044189085e-6 0.0
0.0012264574221922762 -0.00022586964264525362 0.0
0.00030112311308179304 -0.00011353115067583797 0.0
0.0009305956305887932 -0.00033234567573855827 0.0
0.0009606497167220125 -0.00034563567047281584 0.0
0.0008688940756491296 -0.0003060279514472433 0.0
0.00094366476338728 -0.00042087605917032775 0.0
0.001474606196156267 -0.00029136546921526075 0.0
0.0014359507592878221 -0.0003036938282142552 0.0
0.0014683706782616856 -0.0003108289552582172 0.0
0.0018302194465194582 -6.184051409922772e-5 0.0
0.0011110823612658974 -0.0003385174350023835 0.0
0.0008057269082517232 -0.0002796946554500032 0.0
0.0014430131185471406 -0.00013082542049666401 0.0
0.0014335050041292987 -0.0001440863698830766 0.0
0.0003303553852817718 -0.00017335919665513818 0.0
0.0006722574664907725 -0.00035899975146189974 0.0
0.0016751399869325582 -0.00044682695252327265 0.0
0.0014404393412797963 -4.561805386386912e-5 0.0
0.0012945097360707665 -0.0003664307072210638 0.0
0.001262323406179242 -0.000375052776654146 0.0
0.0012609286147411774 -0.00039484297379354955 0.0
0.0012306024642994796 -0.0003829355792231772 0.0
0.0012301559755080761 -0.0004026853778252865 0.0
0.0012906359581240328 -0.00040614003398889496 0.0
0.0015575907041868492 -7.891852346783622e-6 0.0
0.0010181679700556323 -0.0002911930741537328 0.0
0.000988044948587038 -0.0002955666325260623 0.0
0.001408586755063717 -0.0002783808971225385 0.0
0.0008382359889658302 -0.0003076683803933407 0.0
0.0013926219743832567 -0.0005186736578872388 0.0
0.0010497517440164405 -0.0003492965901356302 0.0
0.0012321907019283151 -0.00036406024648011185 0.0
0.0017558204516166676 -0.0004772550132273962 0.0
0.0011231039061053258 -0.00023212833167705486 0.0
0.002430991902878366 -3.279606849459239e-5 0.0
0.0012383640368210152 -0.00031100278154125375 0.0
0.0005675788241918421 -0.00022050747619243677 0.0
0.0011744607037847143 0.00010111597866087365 0.0
0.001752860799142133 -0.0003777430218353142 0.0
0.0023227004195257657 4.4759157314052175e-5 0.0
0.00036582719212946814 1.763256611516805e-5 0.0
0.00038134637695106223 3.525414444190238e-5 0.0
0.0004240787090383545 6.794012243743605e-6 0.0
0.00045005679173880196 2.8338910652360383e-5 0.0
0.0004945653987912036 1.2029612933245442e-5 0.0
0.0018099832890027942 -9.415542908901957e-5 0.0
0.001022803929279214 -0.00048649032556227203 0.0
0.00115822878221944 -0.00022607799523266452 0.0
7.622425737627473e-5 -2.1519651250097505e-5 0.0
0.0009458173778067168 0.00018223394340376097 0.0
0.0008766990949277299 0.00018799239130939697 0.0
0.0017148098107798281 5.381283520176049e-5 0.0
0.0009939220802996052 -0.0004122426570998957 0.0
0.0011310728178170863 -0.00047436582335944505 0.0
0.000992967869786582 -0.0001680174561966694 0.0
0.0013757707733484375 -0.00027179452253581833 0.0
0.001340190928996469 -0.00026426023228672327 0.0
0.0013478326635193952 -0.00024709909029053696 0.0
0.0014666636883395303 1.8505425863543926e-5 0.0
0.0009345726682303101 -0.00034950809863036294 0.0
0.0006401478747179108 -0.0001733313760365294 0.0
0.0009549061780994473 -0.0002682681932246468 0.0
0.00013850423008385378 -6.7821667175888e-5 0.0
0.0013278735353457463 -0.00013147873861250764 0.0
0.0005440735557579461 -0.0003124674266139037 0.0
0.0013106715951268781 -0.00027699220942270557 0.0
0.0007967974507775746 -0.00040438008832912746 0.0
0.0017838113262608826 -0.00017032749465340896 0.0
0.0011812118464722926 -0.00027740200610454075 0.0
0.0011997366397075756 -0.0003901693443884349 0.0
0.002237334349640398 -0.00012638194981829943 0.0
0.0004850350735012926 -0.0003098488684883821 0.0
0.0024517813223862046 -0.00012383298856302502 0.0
0.000986404934222877 -0.00021999969752653818 0.0
0.0011759845553594285 -0.0003092149087411012 0.0
0.0002249611794778527 -8.020070807272218e-5 0.0
0.0022486341382016634 -8.244383478504171e-5 0.0
0.0013773130179661123 -0.0004181490152146932 0.0
7.744682518526912e-5 -2.4727687355123427e-5 0.0
0.0012763996433596929 -0.00017947080064824187 0.0
0.0012731231911856872 -0.0001907173991170513 0.0
0.0024177121414571496 -1.9555271224596498e-5 0.0
0.0013681651230252482 -0.0005290794576818916 0.0
0.0004481056440017438 -0.00023708093730257393 0.0
0.0024990840555835516 -3.719856006347816e-5 0.0
0.0013136786387214913 -0.00024146202844050794 0.0
0.001215066109971239 -0.0002705065678381364 0.0
0.001518656742316655 -0.0003702787663081198 0.0
0.0014862761091622592 -0.00036163627866713215 0.0
0.001386711541292502 -0.0003761254671996561 0.0
0.0011551447147502706 -0.00024003165764063065 0.0
0.0014266991297988572 -0.0005445426808732905 0.0
0.0015357003020945983 -0.0005429650789098761 0.0
0.001091333543032973 -0.0005171954648808483 0.0
0.0011741942046639773 -0.0005289847861364821 0.0
0.0016926296054121518 -0.0005170715491031464 0.0
0.0016854526039591056 -0.0004892531307556235 0.0
0.0008782229336022291 -0.0004692732285975505 0.0
0.0007003147516494409 -0.0004165806045030278 0.0
0.0014817235397077623 -0.0005452791872182208 0.0
0.000933609409819791 -0.00048552552949177654 0.0
0.0010488552956892726 -0.00019747222030796764 0.0
0.0022071859888050283 -5.1954077036433226e-5 0.0
0.001780423532019697 -0.0002731876457151107 0.0
0.0017655913919155872 -0.00029668328481739835 0.0
0.0008965034688703087 -0.00027351752673436416 0.0
0.0015273448867452713 -0.0002429107655778643 0.0
0.0012033808718973581 -0.0004280814939401029 0.0
0.0006353650030864144 -0.00033179761877214414 0.0
0.00047651449048923363 -0.00019809220721658382 0.0
0.001050772561052749 -0.0002713510969549639 0.0
0.0022556099354812337 1.993478956980749e-5 0.0
0.0008892965685881277 -4.241031913515546e-6 0.0
0.0011939628019610837 -0.00021949768825864683 0.0
0.001404018840068001 -0.0002974678728584775 0.0
0.00018355521773968635 -0.00012524294900434027 0.0
0.0001908005462540173 -0.0001404189774756667 0.0
0.001049902482256377 -0.0003843609470906385 0.0
0.0008847023621526713 -0.0003568027153204451 0.0
0.0012698022258430058 -0.00031989024554876104 0.0
0.0023987462070163773 3.506586984905442e-5 0.0
0.001343002210451974 -0.0004714723571232326 0.0
0.002544986852392764 -3.394731719474046e-5 0.0
0.002523109704005836 -5.799831207180667e-5 0.0
0.0006978444761527695 -0.00013098405935575155 0.0
0.0010820751046149329 -0.00029587502597676595 0.0
0.0011414251600799195 -0.00034948335665866586 0.0
0.002468954791737986 9.99127651498962e-6 0.0
0.001233662075735897 -1.8633910193050322e-6 0.0
0.0016713584653893882 -0.00038301074088395443 0.0
0.0017279299791313815 -0.0003150567277573275 0.0
0.0006871614703900164 -0.0003965694138309581 0.0
0.0015812243575827646 -0.00028983111537301957 0.0
0.0010839886408843525 -0.00026600953060302283 0.0
0.0016642092340936568 -0.0002594475964832304 0.0
0.0016541864241180612 -0.0002799727426779844 0.0
0.0017061533569086241 -0.00024378178101385498 0.0
0.0005805364076636028 -0.0003687850620024428 0.0
0.0020147889434603307 4.183304581268594e-6 0.0
0.0014430626133288492 -0.0005231640693454825 0.0
0.002059944845627972 -0.000352810814393228 0.0
0.0018901020732087512 -0.00019152270965422234 0.0
0.001214742682782073 -0.00017032376761701203 0.0
0.0015375779484989465 -0.0004600959779385067 0.0
0.0009634160736804524 -0.00036276382887215434 0.0
0.0010129044960263 -0.00023290869247336894 0.0
0.0023888421144266404 -1.4128422369673037e-5 0.0
0.000540458566094462 -0.0001571674684083864 0.0
0.0018263992187843386 -0.00010642715531316251 0.0
0.001209402326310978 -0.00011875551744373586 0.0
0.0015618377310496988 -0.0002468230237665949 0.0
0.002285182992416158 -4.905359754211175e-5 0.0
0.00020146700735778096 -8.036555452401619e-5 0.0
0.0018137264086641551 -0.00030398828076323774 0.0
0.0013925808420040399 -3.5698181782793316e-5 0.0
0.0013776909884225031 -4.630393579918221e-5 0.0
0.0014841422674776031 -0.00043830728920759204 0.0
0.0013650170824221273 -0.0003276266436293414 0.0
0.001403341316507278 -0.0004289465185707133 0.0
0.0018359565327547053 -0.00037003431219425384 0.0
0.0018805027431168487 -1.9180309535704667e-5 0.0
0.0012396202826774284 -1.3723680630369279e-5 0.0
0.0016897244292073505 7.228874936497564e-5 0.0
0.002182189127132201 -0.00017816383435775756 0.0
0.00219645161511247 -0.0001532922424931002 0.0
0.0012186520349156003 -7.847796711664046e-5 0.0
0.0008063378113355132 -0.00034724537787427857 0.0
0.0016774086009261743 1.854137779358554e-5 0.0
0.0012356234648007785 -3.356025398725787e-5 0.0
0.001571993899914072 -0.00031058455065871495 0.0
0.0025025686719950136 -4.813011536678011e-5 0.0
0.000428083812424741 -0.00025088942626003103 0.0
0.0015341191603152004 -0.00015136608048313028 0.0
0.001229584310909465 -5.551236456314351e-5 0.0
0.0012204794879217206 -7.140027092530534e-5 0.0
0.0004219339408808439 -1.6220026039879573e-5 0.0
0.0022457834646055727 4.4345595648941144e-5 0.0
0.0013004391500189738 -0.00011868687429824422 0.0
0.002268643310605713 -0.00012215117772774022 0.0
0.0007771657539572105 -0.00033219191882162384 0.0
0.0019047239896219342 -0.00044704273757040745 0.0
0.0019566500771717433 -0.00043176561294954135 0.0
0.0007082515454441962 -0.000337587007898267 0.0
0.0016326341326881643 -0.00032260164514903727 0.0
0.0010643064902646296 -0.0005128915949171933 0.0
0.0015840545134788485 -9.128325907059783e-5 0.0
0.0004671964444626063 -0.00031803345270820947 0.0
0.0013270231338070298 -6.193877000987017e-5 0.0
0.001359822727012215 -0.00014906376911439989 0.0
0.0013474019978342725 -7.447301410656125e-5 0.0
0.001431369128335184 -0.0003237048075346542 0.0
0.0017536168753154416 -0.0003201735259566016 0.0
6.809563222759535e-5 -5.5137335988359365e-5 0.0
0.00011641487551761156 -9.376035654805239e-5 0.0
0.00013897694413014328 -0.00011117079785009428 0.0
0.0023605467299437134 -0.00019718845356754945 0.0
0.00018523687292473561 -0.00014663354712901214 0.0
0.000723824751782707 -0.00031783160707078424 0.0
0.0003222583601505111 3.798162206303499e-5 0.0
0.00208566874082297 -0.0003710874173494915 0.0
0.0003992021501766127 -0.00028131118725106076 0.0
0.0004452568166861703 -0.0003067043880142677 0.0
0.0023317759058118065 -0.0002166062303229345 0.0
0.0022753284241507866 -0.0002576346146421935 0.0
0.0013423850939440736 -0.00018631432499361503 0.0
0.0009691448251061027 -0.00043608692447101523 0.0
0.0018705942078529206 -3.975870616916019e-5 0.0
0.0021388603404378045 -0.00033974262747309646 0.0
0.002165726415397384 -0.0003250553138530968 0.0
0.0003548424199182442 -0.00025776413055885833 0.0
0.0002509903648069158 -0.00019118062562445854 0.0
0.002220771537945647 -0.00029153710457667834 0.0
0.002244532694019312 -0.0002482373195830636 0.0
0.001496004668697549 -0.0005233524041433639 0.0
0.00029544738588943754 -0.0002209299246166135 0.0
0.0018197475843026634 -0.00048471817407632614 0.0
0.00048178740709082087 -0.0002576096608865242 0.0
0.002076380374084918 -0.0002298542408795373 0.0
0.0007276534157902266 -0.00040996146800020025 0.0
0.0019244911503461884 -0.0003301366959459656 0.0
0.0020053961337003342 -2.850124545532214e-5 0.0
0.0007078026433095458 -0.00023938403992867428 0.0
0.00048376357874563964 -0.00021246583968903497 0.0
0.0009124703006789493 -0.0003708422552856341 0.0
0.0012061702458910203 -0.00031880246014205524 0.0
0.002113017572144796 -0.00011174381508442975 0.0
0.0012886466586812051 -0.0004901350886024094 0.0
0.0013331814780371185 -0.00012141816555519753 0.0
0.0013393677658824284 -4.6379315672559406e-5 0.0
0.001683004960095605 -0.0002211455662491653 0.0
0.0019347734824624275 -0.0002665925514551644 0.0
0.0007050594811841669 3.0463148608706862e-5 0.0
0.001611323731520443 6.6688224769873e-5 0.0
0.0007692365634566367 -0.0002382515159704962 0.0
0.0021132893991311127 -0.00017685483985851167 0.0
0.0005047802154962508 7.654612871265567e-5 0.0
0.00042282532925454647 5.501434837418415e-5 0.0
0.0010893076321166202 -9.546872738340729e-5 0.0
0.0022308783101476384 -6.422477130539384e-5 0.0
0.0012312478556917913 3.220828768844388e-5 0.0
0.0012891105285004285 -0.0001465459802122249 0.0
0.0023611937740356703 -5.474066169818363e-5 0.0
0.0006505447521693013 -0.00023888157354633597 0.0
0.0008006525567097178 -0.000169844430614709 0.0
0.0018146397474969917 -0.00021119243672761134 0.0
0.0019941960002928883 -0.0002466819396520011 0.0
0.0005679106743515564 -0.0002347673216152215 0.0
0.00034330416063814054 -0.0001907262234656362 0.0
0.0019122309567957655 -0.00026340349700865157 0.0
0.0008245841324525877 -0.00012260738013686274 0.0
0.0019211320393499385 -0.000136237345224836 0.0
0.00255319932879263 -2.2795450991731032e-5 0.0
0.002105917908977504 -4.846029156700661e-5 0.0
0.0013709682296583635 -1.2592005519527985e-5 0.0
0.0014109752994773237 -1.168986749463456e-5 0.0
0.0015613476919509213 -0.0001833832651048706 0.0
0.002316406373634233 -6.824049208006684e-6 0.0
0.0022745363330149366 1.0257572267822372e-5 0.0
0.00011175182001511262 -6.0199813855303114e-5 0.0
8.430461989646451e-5 -4.379329781456589e-5 0.0
0.00099429849978449 -0.0004310919280803735 0.0
0.0016124458344770076 -0.0002954043275405243 0.0
0.0009096623380790158 -0.0001776530842890978 0.0
0.0009106415151860812 -0.00016565217830784494 0.0
0.0009142173705012132 -8.91812629802382e-5 0.0
0.0012607530599665333 -0.00041496301904443754 0.0
0.001492814861817533 -0.00016367520218476918 0.0
0.00040052829640137495 -8.309451351959916e-5 0.0
0.0017688968888169105 -0.00011370074202210159 0.0
0.001396487172325885 1.2365825293624979e-5 0.0
0.001050075112554607 -0.00028613964420096783 0.0
4.15268389556751e-5 -5.929730946433983e-6 0.0
0.0012084209571271542 -0.00030206603636637565 0.0
0.0023450242125426656 -6.604571957440849e-5 0.0
0.0019939989790354364 -0.0001357373279136484 0.0
0.0018962479607512533 -9.938533031505952e-5 0.0
0.002238410847051484 -9.512780676854926e-5 0.0
0.0016234861769726778 -0.00012634205092520044 0.0
0.0009087418916762809 -4.552687280519425e-5 0.0
0.0002964516378873501 -0.00010359543341620012 0.0
0.0010954502810919973 -0.00015953236788764983 0.0
0.001373043194067361 -0.00019128189317948422 0.0
0.00037116752492805913 -0.00016931308720186995 0.0
0.0011466211531251755 -0.0005256078733378464 0.0
0.0015688827574023602 -0.00012752150954161776 0.0
0.0007530805128741103 -0.0003339176864743583 0.0
0.0017306568164249675 2.8320908979421707e-6 0.0
0.0021460900367244913 -0.00010846510585509253 0.0
0.0008219596415220602 -0.00010896596114429943 0.0
0.0018686867577693458 7.37186239139299e-5 0.0
0.0014250405732783653 -0.00015712485866718805 0.0
0.0012110597072790498 -0.0002859082234457942 0.0
0.00045022778832516777 -9.902560500702512e-5 0.0
0.0008353367760348321 -0.00018267043133712158 0.0
0.0011507606655606663 9.013365647582868e-5 0.0
0.000338963337324422 5.186374183073415e-5 0.0
0.001877389166917079 -0.00021241556207095042 0.0
0.0004972319635732284 -0.0001752172139136712 0.0
0.0012450578724574007 -0.0002786676093179696 0.0
0.002119148568131017 4.647981201932683e-5 0.0
0.0017820651985623586 -0.00020953852229252067 0.0
0.0008730420091277256 6.803943142075413e-5 0.0
0.00015499286903206995 -4.3567942794739066e-5 0.0
0.0006396452693189076 -0.00016023927221756328 0.0
5.4598595325386855e-5 3.051436598525893e-6 0.0
0.00011343996881203245 -5.57149644279338e-7 0.0
0.0017745694793999322 -0.00019212311339007808 0.0
0.0014843040544791411 -3.295784439374444e-5 0.0
0.0008248639627009447 -0.0004585868322166419 0.0
0.0005826233398340086 -0.0002979408840857045 0.0
0.0021006944172375632 -8.404276725576454e-5 0.0
0.00030359278238256416 -0.0002146332425536098 0.0
0.0017138718656855006 -0.00022515375174055041 0.0
0.001407366161317164 -0.0004076405409642628 0.0
0.00207604421522744 6.442652947173216e-5 0.0
0.000741465584198282 -0.0003887440806454773 0.0
0.00224141972236061 -0.0002080691417036755 0.0
0.0012926505803441833 -0.00013728484719645998 0.0
0.00042800515444850983 -0.0002838067063855816 0.0
0.001713646483324854 -0.0004899597386022345 0.0
0.00042602339552116273 -0.00019175794667905 0.0
0.0024106682811584545 -6.594658956740773e-5 0.0
0.0003087026998865564 -0.00013406959297206905 0.0
0.001783539367501993 6.7420113418203755e-6 0.0
0.0016282149245715931 -0.00011167386820882788 0.0
0.0013463523690598806 -3.095384361752956e-5 0.0
5.7452405163268514e-5 5.13362515469973e-6 0.0
0.0010553327873483698 0.0001382139015669755 0.0
0.0006894947806296505 -0.00011538596528880213 0.0
0.0019789520618365463 -0.0003927259808806306 0.0
0.00200641850319614 -0.00041340773105801867 0.0
0.00018463392294496754 -1.2796044737464292e-5 0.0
0.0014669537598047304 -0.00014758980224860267 0.0
0.0006061692524334932 -0.00029967287914123384 0.0
0.001019923745106174 -0.00030619811952010376 0.0
7.141805628736928e-5 -4.073214683936318e-5 0.0
0.0001403775737974664 -2.8175742247421926e-5 0.0
0.0013987928076754225 -0.0002095166553376004 0.0
0.0012794664080669827 -0.00027032968184369596 0.0
9.049270072737563e-5 -1.592565172786553e-5 0.0
0.00025399155090363745 -8.598686208400241e-5 0.0
0.00020724914713651682 -0.00016190733024680495 0.0
0.00209416390916728 -0.00020179615250872214 0.0
0.0016426592943487531 -0.0003008773885049194 0.0
0.0003121312023765348 -0.00017153891278672706 0.0
0.0019776982043487722 -1.754502859569005e-5 0.0
0.001816265626417694 -3.3547995202479646e-5 0.0
0.00014813570982832508 -0.00011007558220533824 0.0
0.0010508283272549128 -0.00011952414546847589 0.0
1.9511285941244068e-5 -1.3834429086410363e-5 0.0
0.0025791137942598797 -1.6661616601358858e-5 0.0
0.002496285195553991 -2.1485264818732415e-5 0.0
0.000751788446461778 -0.00043565716938631134 0.0
0.0019803377308102673 2.4641289588405413e-5 0.0
0.0016432000469473061 -0.0003753232945847521 0.0
0.0003396500486668674 -0.00014113349950553374 0.0
0.0015613406617945266 -0.0005398944257230227 0.0
0.00036052144693293796 -9.306218157227746e-5 0.0
0.0022195816969084077 -7.611257622949783e-5 0.0
0.000988441290808398 -0.00031012514841139777 0.0
0.00010472126437284262 -5.282934890255454e-5 0.0
0.0011893910891655009 -6.014558681310377e-5 0.0
0.0011850346729543762 -6.869391094738697e-5 0.0
0.002339259062853226 3.8845630448581705e-5 0.0
0.0014000470402440162 -0.00031614951600653595 0.0
0.00017486370292465914 5.531758428326206e-6 0.0
0.002212122936353028 -0.0002742143722933092 0.0
0.0023614302933318704 -4.133621386881606e-5 0.0
0.001801336844165529 3.832626033728217e-5 0.0
0.0018491682917474992 2.4383970536408083e-5 0.0
0.0010716237762070265 -0.0004544482774021493 0.0
0.0025129370085320967 -7.938899317465563e-5 0.0
0.0010855262972406462 -0.00010522218187862047 0.0
0.00027101961530565756 5.214430901426574e-5 0.0
0.000307206216139897 -0.00018547646466908005 0.0
0.0007835176068565577 0.00010167273384577017 0.0
0.0022216562346852767 -0.00020428892314280832 0.0
0.00012768932125609625 1.552107926694706e-5 0.0
0.0013343371871814302 -0.00011212348925326958 0.0
0.0020061583449912878 -0.00011713308729910491 0.0
0.0015963065364194738 -0.00018810186046070373 0.0
0.002535251208964547 -1.578175722650066e-5 0.0
6.3043257908564e-5 -2.4852986375294457e-5 0.0
0.002375650443987682 -6.615692016986046e-6 0.0
0.0025446554548868424 -1.6278706388847402e-5 0.0
0.0012081463945365458 -0.0005123947762618124 0.0
0.0014414191633459338 -0.00020043085481592397 0.0
0.0009083275607134435 0.0001642847072107983 0.0
0.0005972648379720555 -0.00023606770272512138 0.0
0.0007896953855372632 -0.0001532126697092855 0.0
0.0010420630643045426 -0.000129288540764576 0.0
0.0005081827065810408 6.05293706178056e-5 0.0
0.0009089233972943546 -0.00035277991925166866 0.0
0.0004569053676286093 -8.427847528763353e-5 0.0
0.00032071165900515936 6.278547405580191e-5 0.0
0.0011710532151729695 -0.00018886247806787485 0.0
0.0017898659142860183 -0.0003006848290981855 0.0
0.0021342470844034297 -0.00017928022318406203 0.0
0.0008636612280652706 -4.8134437905692526e-5 0.0
0.0006042358701613851 0.00012695908192905236 0.0
0.0014162570358205134 3.0436685642275866e-5 0.0
0.0007359669894303921 -0.00011397080107531753 0.0
0.002025717232038015 -0.00018430081887218502 0.0
0.000770799945201886 0.00016588472573286105 0.0
0.0006977605052821867 0.00015797673192186385 0.0
0.0013728202384255756 -0.00029030612616910646 0.0
0.0014620585193223718 4.5189557069608904e-5 0.0
0.0009822981709468677 -0.0004974429670581477 0.0
0.0018736868239201904 -0.0004658652936750586 0.0
0.0006757535073830273 -0.00022616645242846733 0.0
0.001743882901439604 -0.0005074014798824092 0.0
0.0005470185811601666 -0.00010597786265835857 0.0
0.0020609677614127444 -0.000178910039437885 0.0
0.000956808643233124 -0.0002988199831650098 0.0
0.0022060607124264452 -0.00010111885921121558 0.0
0.0005986008282578343 -0.00022339978517939806 0.0
0.0010930705101258082 0.00012603993699324812 0.0
0.0009143472005946967 -7.536639720053084e-5 0.0
0.0011139501148402073 -0.0003894875077469485 0.0
0.0011991243163213575 -0.00014508853623019228 0.0
0.0011810689606299239 -7.677088603238648e-5 0.0
0.0006935728552943916 -0.0003007961590500206 0.0
0.0007023116717542703 -0.00031967933119922745 0.0
0.00045691824073405975 -0.00015877814620712054 0.0
0.00073697941990112 0.00021108258358099006 0.0
0.0011545414931656765 -0.0004481861857848459 0.0
0.0022387950825954075 4.29960818978751e-5 0.0
0.001972443604788877 -0.00024378675273336236 0.0
0.0014196395676145286 3.826377310864466e-7 0.0
0.0006470119763472757 -0.00022595523834204859 0.0
0.001744312247978447 -0.00016861177096943992 0.0
0.0014399317466221718 -0.0003962079218823727 0.0
0.0009554014910487683 -0.00028315955489004646 0.0
0.0023878635350767187 -5.0585928262137205e-5 0.0
0.0025180024622931912 -3.363852023110285e-5 0.0
0.0008718063229710811 -0.00016946325535619215 0.0
0.0016564509420586568 -0.0005038293413095144 0.0
0.002274048737123207 -0.0002360671271945129 0.0
0.00011540776578564086 -3.083370106455436e-5 0.0
0.0006019558962320629 -0.0001599883968149892 0.0
0.0007071080943283437 -0.0002265028960072661 0.0
0.002323502822930441 -0.0002030664682519155 0.0
0.0009044403922554035 -0.00033457753932831976 0.0
0.001632509808376917 2.0692492474864194e-5 0.0
0.0002597681390485772 -0.0001867395200717378 0.0
0.0014520219953959267 -0.00023655339710513957 0.0
0.0021321695775198793 -0.00015472994901849095 0.0
0.0016817518818432432 -0.00028465644149892525 0.0
0.0024310838959460414 -4.949810008643453e-5 0.0
0.001692618504357455 -0.0004580751798246218 0.0
4.166961265365001e-5 -3.4788866619239343e-6 0.0
0.001114894347117555 -0.00018440035884034403 0.0
4.956864104043245e-5 -2.3609664918569206e-5 0.0
0.000822703336290322 5.622435515548543e-5 0.0
0.0005317687202268417 -3.54729474242359e-5 0.0
4.308500899353032e-5 -2.9470232021800828e-5 0.0
0.0006535232209203971 -0.0004016592205222357 0.0
0.0006060876255695079 -0.00036712846968729544 0.0
0.0010951395277309086 -8.675276025079947e-5 0.0
0.0011218863152458458 -2.0111616210698696e-5 0.0
0.00045113981617676444 -0.000296710459534206 0.0
0.0007786344682800213 -0.00011206431122804509 0.0
0.0014948830813254809 -0.00015261479073544023 0.0
0.0004496606595233676 -0.0001945988949370676 0.0
0.0016834028289422342 4.801429613574833e-5 0.0
0.00147585235352442 -0.00038353948424344364 0.0
0.00032783072283405984 -9.131809032897417e-5 0.0
0.00020259867147891862 -0.00013182835295095428 0.0
0.001304837162981815 -0.00010126979787344214 0.0
9.744205841806045e-5 -7.24686029421151e-5 0.0
0.0024674784334744416 -1.4495677708227147e-5 0.0
0.0008863700413207218 1.8594386548034384e-5 0.0
0.0011805750417104189 -0.0001756856853846843 0.0
0.002186712049009881 -0.00023111583059611633 0.0
0.0024158249976771167 -0.00015665504492435795 0.0
0.002017988096325404 -9.881295405744752e-5 0.0
0.0011505661019819793 -0.0004283488565499285 0.0
0.0015123186538780833 -0.00022212589761452613 0.0
0.0021279713548059136 -0.00032319285161800765 0.0
0.0012605439465381307 -0.0005394121678532344 0.0
0.002104308818806791 -0.0001570406421344649 0.0
0.0016920930220111104 -0.0002641264197315187 0.0
0.0008739712080801397 -0.0003210898925544001 0.0
0.0015470491218985167 4.474335149224054e-5 0.0
0.0009218801606551357 -0.0002697306578314575 0.0
0.0007805027025251578 -0.00040851898194722315 0.0
0.0011662170498490118 -0.00014958517916607492 0.0
0.00193624738218778 -0.0004115671549258637 0.0
0.00045210053543710675 -0.0001472202909945918 0.0
0.000381482713556264 -0.0002610408705659839 0.0
0.0018427015286029873 5.0057861197943814e-5 0.0
0.0005685941733647307 -0.00017084960852285606 0.0
0.0014988199915294145 6.534161737486427e-5 0.0
0.000907312062620321 0.0003191412406787981 0.0
0.0019631061098128112 2.7661026307119635e-5 0.0
0.002205390914907525 -8.983113420026263e-5 0.0
0.001239813656454224 -4.845347604449996e-5 0.0
0.0019674994134645084 -0.00011893300560789552 0.0
0.0015132930757305034 -0.00042284881612966014 0.0
0.0016092684010712496 -0.0005363318267538675 0.0
0.0007393937484427839 -0.00022561505863725797 0.0
0.0008415449824579143 0.00017724092201179377 0.0
0.0004945920992874055 -0.00015238410334290233 0.0
0.0005599811518038638 -0.00036413633599917356 0.0
0.0010923113563346863 -0.00020117868158157852 0.0
6.320568046134217e-5 -2.3289451811272806e-5 0.0
0.0004348968771009592 -0.000272351309174643 0.0
0.0012192477676603076 -9.208710014982845e-5 0.0
0.00015740834086892772 -8.080892994506255e-5 0.0
0.00014017521586539262 -6.7503394083157055e-6 0.0
0.0013067560350566694 -0.00026351512810812087 0.0
0.0013370272490977732 -0.00010353956275317173 0.0
0.0023804560061787858 -0.00016439176852846288 0.0
0.0010473657793183323 -0.00011032923185575793 0.0
0.0018049638781571994 -0.0002771342948074336 0.0
0.0013581225111612897 -6.310332508972263e-5 0.0
0.00035208266846962274 6.158219688413307e-5 0.0
0.00045346488646563776 4.52666722416542e-5 0.0
0.002473991548941644 -3.33787624590365e-5 0.0
0.0015904905470015991 3.19949967033564e-5 0.0
0.0003719501779622729 -0.0001474395396184612 0.0
0.0015393474672071564 -9.86640055041589e-5 0.0
0.001193575151597574 -3.937412161197237e-5 0.0
0.0013175508414127197 -0.00014036778717690116 0.0
0.0004946510149308669 0.00011643142386533654 0.0
0.0013146725036486254 -0.000545012349387642 0.0
0.0023462286888368965 -2.1115051848196875e-5 0.0
0.0012898145652508874 -0.00022323020591389565 0.0
0.0013101284707532671 -7.752851948819966e-5 0.0
0.0016496837353667392 -0.00015817291153056323 0.0
0.0011391295270371737 -8.23477348293325e-5 0.0
0.0012980089792540108 -0.00020815981161979226 0.0
0.0006349527812188906 -0.00031936252807720605 0.0
0.001732616312461347 -0.0002477145283937478 0.0
0.001030427938502283 -0.0001688762508173905 0.0
0.0013048388031106932 -9.352880533427205e-5 0.0
0.002028992292793615 -0.00040593804733199396 0.0
0.001104133275242353 -0.00014897683943903707 0.0
0.0015565041118324623 -7.375713826850864e-5 0.0
0.0013663117429916836 -5.5167810821601404e-5 0.0
0.00021376240533274525 -0.00015787818157584024 0.0
0.00198662746844567 -0.00022377739689327403 0.0
0.00134972437006696 -8.396661359082376e-5 0.0
0.0007411211662383179 -0.00040495681624226073 0.0
0.0015030435715741944 5.496192526416531e-5 0.0
0.0017961651888248366 -0.0004968603762715603 0.0
0.0024973445428446523 2.1896948211590573e-5 0.0
0.00013723784015876348 5.143932139613443e-5 0.0
0.0010643676161389984 -0.00020729037616889373 0.0
0.0014145954266594303 -0.0005277595450102825 0.0
0.0008957964072362644 -0.00046151005990201433 0.0
0.0010145065617692003 -0.0005047448921891324 0.0
0.00019915540290732048 -7.451591493067845e-5 0.0
0.0018395438730606632 -0.0002617224800052123 0.0
0.000743402751868786 -0.00021267449521997602 0.0
0.0010654987792996895 -0.0001544722790493626 0.0
0.0008644217847543474 -6.281559287601682e-5 0.0
0.0010490348904966212 -0.0004963669042045042 0.0
0.0018309205386853827 6.486271380934494e-5 0.0
0.0023705486929521576 3.876475040772874e-5 0.0
0.0015132249678913516 -0.00040357215052185967 0.0
0.0012834972064056107 -0.00023953816363689784 0.0
0.0008236215325363907 -0.00031577556868116766 0.0
0.0013707005477118792 -0.0005484151371892667 0.0
0.0019241103395351655 -0.0002161132061442197 0.0
0.00017896019873835076 -8.33892865800173e-5 0.0
0.002307172807164672 -5.0291570259185566e-5 0.0
0.0011050154723888572 -0.0005045312943356622 0.0
0.0011300578191582311 -0.0004566144462626199 0.0
0.0017226695744299815 -0.0004362691534983368 0.0
0.0025565168050211847 -3.1052268154399287e-5 0.0
0.0009464956291612447 -0.00047472637040736425 0.0
0.0008154429169977649 -4.914442464498133e-5 0.0
0.0008405146100490279 -0.00017282016647276303 0.0
0.0016359039985013402 -0.00017669306019823015 0.0
0.002482019413802397 -1.576439521125274e-5 0.0
0.00021933777305737542 -0.00013812159059745273 0.0
0.0013044890546303914 -0.00019501225205606094 0.0
0.002254374785931053 -0.000216158266100459 0.0
0.0024747525519764266 5.9329469586385755e-6 0.0
0.000712707640882693 -0.00014642582425914704 0.0
0.0011307308851370083 -0.0005104167754680492 0.0
0.002398563800208875 -4.3019427254790184e-5 0.0
0.00044758886557108476 -0.0002578366859708441 0.0
0.002521154551051875 -1.0464875092544105e-5 0.0
0.0008029228151265346 -0.00045507085990669963 0.0
0.0017433534865717777 -0.00022782872599672667 0.0
0.0004773283161856809 -6.731369846515544e-6 0.0
0.0015960380122252654 -7.393775449724007e-5 0.0
0.002486379286328602 -8.620958970838492e-5 0.0
0.001962639264121616 -0.00019801836006826302 0.0
0.0007085628517595519 -0.0004081362703039627 0.0
0.0005143308756856643 -0.0003439255178855974 0.0
0.0006328285638138293 -0.00029403107791198247 0.0
0.0020828053779772897 -0.00034875704433246115 0.0
0.0019303985860975774 -0.00012163102167830133 0.0
0.0004022836634128882 -0.00015431085860694336 0.0
0.001007879456094925 -0.0002006327259824696 0.0
0.0016299199048800267 -0.00019528391517849875 0.0
0.0009703941309366974 -0.00022955461799597935 0.0
0.002426249340594546 2.1231162048336498e-5 0.0
0.0017605704012882738 -0.00010046110078180953 0.0
0.0010271833682902944 -0.0001596703111596104 0.0
0.00041141479951067704 -0.000141692295394135 0.0
0.001863716873850114 -0.00022985901675750276 0.0
0.0015423787942323997 -0.0005029003247812287 0.0
0.0021863079639401666 -0.00029446583671310385 0.0
0.0008557344914198163 -0.00045179444178071 0.0
0.0016414760339528499 6.273142806758555e-5 0.0
0.0009246009477295133 -0.00025472117016258104 0.0
0.0014684851032980904 -0.0005293318576277598 0.0
0.00216638487984032 -0.00022918160675871002 0.0
0.0019238177890689688 -2.32586029730576e-5 0.0
0.002426491775790486 4.041460619344971e-6 0.0
0.0006193968690523167 0.00013742460821490517 0.0
0.0023560090244297087 -1.49912874896091e-6 0.0
0.0008122103526146767 -0.0002927191768630434 0.0
0.00216531048235111 4.847682410886998e-5 0.0
0.0015192679435214048 -2.2331296517885698e-5 0.0
0.0017773066085332056 -6.856848572692216e-5 0.0
0.000765403762430429 -0.00019600259946600827 0.0
0.0017992950190389642 -0.00012073874646923188 0.0
0.0011847473732969484 -0.0005158823743803908 0.0
0.0006644250826705068 -0.00038211551279768033 0.0
0.001365857278901635 -0.00010599579079443291 0.0
0.0019134944317007478 2.8945650530888924e-5 0.0
0.0011112355552259667 -0.0004790201535930899 0.0
4.652255162857688e-5 -2.0880454694773068e-5 0.0
0.0024953469451421137 -1.981343449149608e-5 0.0
0.0021621423854660403 -5.465725350699137e-5 0.0
0.0010770273954016551 -6.407138893354278e-6 0.0
0.002532264950620993 -3.091654124984866e-5 0.0
0.0007178748270703732 0.00010598526838445632 0.0
0.0011998626890537384 -2.831976663021222e-5 0.0
0.0025772764798210916 -2.1761248684895634e-5 0.0
1.98714613079315e-5 -1.6345998211246134e-5 0.0
6.935232043644258e-5 -3.7109916345435024e-5 0.0
0.0007345293755653081 -0.00010203420862784114 0.0
0.0015360513975243538 -0.00022778419922391932 0.0
0.001778493355634379 5.406732029375152e-5 0.0
0.001940349394326173 -0.00038423351725662256 0.0
0.0025044784697849233 -2.4474680870368613e-5 0.0
0.00019829564770014796 -9.532348606106724e-5 0.0
0.0005313989014564434 -1.915157590232318e-6 0.0
0.0015515508717856067 -0.0004792051956248232 0.0
0.002237972625038162 -5.467331172196663e-5 0.0
0.0006519283029384062 -0.0002943010326963595 0.0
0.00014570385082423454 2.0504598451474393e-5 0.0
0.0015755894924743856 -0.00010245710419232795 0.0
0.0007733340417204766 -5.194592328993292e-5 0.0
0.0018789256281524116 3.885357269754955e-5 0.0
0.0011925388795814987 -9.150596473297378e-5 0.0
0.0009614635826548444 -0.0002411206586942639 0.0
0.0022717225845762454 4.4378977166221475e-5 0.0
0.0022965663196942883 -0.00022673173885945217 0.0
0.0018641232495164198 -0.00044648860230268167 0.0
0.0005728497277731758 -0.00016090537156235562 0.0
0.002373783104802257 -4.242269027340149e-5 0.0
0.0003967340015799275 -0.00017664638887213342 0.0
0.0024004623649331947 -1.7767728656270278e-5 0.0
0.0021039155201044266 -0.0003426159685911055 0.0
0.001545809276701584 4.42236017805392e-5 0.0
0.0017346989345644061 -0.0004910900392991916 0.0
0.0018683661290274777 1.033933259261245e-5 0.0
0.0011702062988897884 -0.00012857618319988079 0.0
0.0006571026194191565 -0.00036352150144124715 0.0
0.0009750392562417588 0.00015178843803199555 0.0
5.595484502581622e-5 -1.794820199245822e-6 0.0
0.0024702798057108693 -2.4103521879305212e-5 0.0
0.00027924652984903273 -0.00020226417699168068 0.0
0.001881376318569902 5.7527423550557576e-5 0.0
0.0004704420687569273 -0.00030872894672542714 0.0
0.0017482050825042626 -0.00021209733530837862 0.0
0.0005217707552469305 2.7432829273654538e-5 0.0
0.00023059184369871494 -0.00010523117548159677 0.0
0.00033780858609527354 -0.00025039814983395637 0.0
0.00030101277185473597 -0.00017294784643372743 0.0
0.0008709238388795719 0.00020319766029700906 0.0
0.0020052716175560643 1.453568244555801e-5 0.0
3.701628209904519e-5 -2.2917166923162268e-5 0.0
0.002146118699278183 -4.72984800541722e-5 0.0
0.001985829372421815 1.5952832874275426e-5 0.0
0.0015769488688185242 -0.00021550549274356254 0.0
0.0011894993338963128 -0.00010633973835475796 0.0
0.0006742138568665277 -8.171695875483568e-5 0.0
0.0012098461976003427 -0.00013570014229171519 0.0
0.0015862235038795456 -0.0004373886873351914 0.0
0.0007722202611744358 -0.0002135876973069976 0.0
0.0005909439271434899 -0.0003655296795691148 0.0
0.002169100440022448 -0.00015974667453829558 0.0
0.001670053984480008 6.070127380967406e-5 0.0
0.0002728652547451605 4.927148315424105e-5 0.0
0.0007725220638324343 5.692357941507581e-5 0.0
0.0017065406355348 -0.00015746890999899547 0.0
0.0015803838631747056 -0.0005211031280099189 0.0
0.0010036149195752993 -0.00021207963690913798 0.0
0.00200133147910958 -0.00039418429186702475 0.0
0.00017016134258028142 -0.00012842015661907602 0.0
0.0017500319288241677 -0.00041748605118033363 0.0
0.0008644537557059053 -3.293948665417356e-5 0.0
0.002402788254121881 -0.0001513164347446671 0.0
0.000837406422336416 3.3925586767416676e-5 0.0
0.0015721481248374073 -5.428008879216273e-5 0.0
0.0013181218381501049 -0.0002530989826000023 0.0
0.0012072833302490715 -1.794280323736733e-5 0.0
0.0014037265380368994 -4.8319069305620436e-5 0.0
0.0015253143843813022 -0.000524809202996694 0.0
0.0019563550326711413 -0.000407426249348111 0.0
0.0006259250947453475 -0.00022738941201210481 0.0
0.0014628895521965255 4.8915202474054404e-5 0.0
0.0014242389893332835 1.135895673502383e-5 0.0
0.00195183738727917 -0.00035244660017686716 0.0
0.0011775537733238197 -0.00011962397431253529 0.0
0.0011836466444819312 2.971273869846032e-5 0.0
0.0006519778193055899 -0.00034631863886489043 0.0
0.0023853580595450193 -0.0001457881444099315 0.0
0.001646741072546195 -0.00053032491167552 0.0
0.0011133959004208504 -0.00046561147238602277 0.0
0.002497889438461289 1.1364953947062665e-5 0.0
0.00109689395494581 -0.00041463445324257654 0.0
0.001941163091643694 -1.1840457118754367e-5 0.0
0.0006721888575168597 -0.00013572373246243413 0.0
0.0016784699597670867 4.226480984547306e-5 0.0
0.0004871718747882344 -2.304795043684999e-5 0.0
0.001083220251013112 -7.309965887768703e-5 0.0
0.0008438041375712615 0.0002644759551464589 0.0
0.0025435293707972663 -1.5201385154991356e-5 0.0
0.0015239129387111141 -0.0003880372245067571 0.0
SCALARS damage float 1
LOOKUP_TABLE damage
0.5397303613481069
0.35319895224874953
0.783259171477662
0.2578165361931993
0.9818488528209885
0.9952899744525056
0.14684484983499305
0.7384764667564078
0.7390959764214926
0.7529642705369042
0.7802209785745395
0.8001377044916732
0.8241322908197737
0.8473105472145945
0.8584158390129298
0.8620970328890575
0.8552610607047046
0.8460883134224965
0.8320958421293388
0.8156252675934279
0.7999915896090467
0.7917351259732959
0.7764724465374663
0.7622428386308779
0.7524177084021092
0.7407136760139588
0.7236966844733279
0.7078600962259861
0.685363683847355
0.6622892342947061
0.6268316118469651
0.5828666164235117
0.32346064026603355
0.4728116766151603
0.493996672672108
0.5281394263768238
0.5500039704484065
0.5648260696380032
0.5809480120636411
0.5909969131337812
0.6014891616239383
0.6119345586955489
0.6195251083039937
0.6276364234155571
0.6372358544110678
0.6425860281845046
0.6443922365415435
0.652865065076709
0.6612528370855772
0.6715162585653173
0.676952649295755
0.6841273309564144
0.6901380771326702
0.7006183350164039
0.7020739516463768
0.7129490464781387
0.7163349720527737
0.7252148797650011
0.7311420443880485
0.7419303937083903
0.7431712979783098
0.7536882178084056
0.7598384636149595
0.768773800369769
0.7748152570236986
0.7798579373595067
0.7795753234210369
0.7815139532507165
0.7890009036101534
0.7883556773281301
0.8060862088868758
0.8126667932234726
0.8160643101582988
0.8365229774793471
0.8433686346276308
0.8532995441280035
0.8660797706727615
0.8688637403036897
0.8845548303320507
0.8885414044998068
0.8980474133539839
0.905872897340448
0.9092698180961999
0.9075994746336606
0.9216779730971767
0.9268150869555103
0.9468524882963066
0.946936661442108
0.9638454034862186
0.9713864456719795
0.9765270021627795
0.9818127905879395
0.9833702652412515
0.9848387175822823
0.9843776694097366
0.9847720815741561
0.9812501235547119
0.9786396534991628
0.9692717157084826
0.9580302725714456
0.9501754326011611
0.9459183288515445
0.9358629773743329
0.9314821776122008
0.9116751761125036
0.8957826679658756
0.8848959325168793
0.8670718694794063
0.8599166376752878
0.8442585161186725
0.8295707443394822
0.8100001857083614
0.8136161744280116
0.7901898817957904
0.7830360897283037
0.7643234680198964
0.7516981110556218
0.7407977901390762
0.7227293638066866
0.7097311049969051
0.700569968664969
0.685240684117285
0.665523630341625
0.6431987329181494
0.6300009967929158
0.6121112954816899
0.5943767014196938
0.5492422886125309
0.5110899958572127
0.4984947223183491
0.348669653158516
0.4634665791003941
0.5621969672089735
0.6563811154597368
0.6930057585903653
0.7117342751931471
0.7214465400113788
0.7279904766714869
0.7323876243904446
0.7359839629211306
0.7424366836116212
0.7473300292955173
0.7513995037253752
0.755161708584571
0.7580055850876867
0.7586356596306746
0.757213224000344
0.7534837380345368
0.7511921343501528
0.7467265029666297
0.7469531888830453
0.7494414986322344
0.7545370450121511
0.7716829303490017
0.8022974961285948
0.8577554331102829
0.8337846479720556
0.976908469536129
0.9993228894524586
0.9950130637474482
0.992412310323584
0.9946338250426073
0.9467469411550223
0.8789903162712239
0.8020553524635775
0.7287424783512146
0.6507493682772583
0.5910691093625052
0.5193590295272752
0.4418981936532128
0.3616357562719702
0.31873238113426117
0.07275834241329283
0.21184536508204474
0.32635113480130246
0.4294687694786887
0.5259865432988751
0.6287736472061123
0.7168439220937801
0.8078900107370712
0.8943626710551321
0.9534377932229174
0.9985769849465415
0.9931127348914465
0.9974733367401244
0.9796102627477943
0.8900151766842347
0.7015800529156146
0.7471322584568207
0.9424839458709903
0.7944460709719219
0.9824864769657325
0.847665994638832
0.9510387476313865
0.9026670255796382
0.8751734654860183
0.7056940635005332
0.8123215881404023
0.6698347507825764
0.8081730500431351
0.7547441476443033
0.5981286502041903
0.6138525574415074
0.1683784281338839
0.49529498334786454
0.746968546699706
0.6382697636102078
0.7613486053596914
0.7434166300686446
0.7452941358856662
0.8480987517688442
0.6930037894450025
0.5997032680128461
0.7948782877217363
0.7279503459285642
0.7291368809746406
0.7220132710390422
0.8106536420542422
0.8799355482840097
0.9784703742019278
0.9123002841548088
0.9733195978506715
0.910294826829032
0.7803521088689468
0.7259340633942549
0.6350491483926332
0.563553576417365
0.7429762003291869
0.8342793485058588
0.688736210149586
0.6707476252103124
0.9127574567776245
0.9010414906790675
0.76988016482995
0.7653420976707669
0.7856856780095334
0.7534677563106997
0.5358596950484069
0.3431478823436563
0.5020826491683289
0.5583797793024412
0.9548544287838514
0.9327673827208707
0.7959531800101286
0.7625015987842316
0.9683565075220221
0.8486608260715548
0.6917431779831336
0.7871228888506792
0.6546208770727838
0.6191216036571978
0.7173839276090119
0.8911880398791945
0.950975403452103
0.6218674870043863
0.6107566808144883
0.9916182575634646
0.991595850081069
0.697178428484539
0.8367242261909063
0.44338598710112936
0.4977916374695108
0.9940664064113406
0.943986368120696
0.8765488727255776
0.8760478911595104
0.9188670894044587
0.855292709909697
0.8218702835397954
0.7996982896933041
0.7760442442287634
0.7550702323220722
0.7720354104023649
0.7356661801931575
0.7467790903034685
0.7208425253861286
0.7313316042864335
0.7175385463070848
0.6805381388792204
0.4132979816182384
0.6158039031915146
0.4556018976177229
0.6210065792411221
0.5203872462798771
0.6224316924926189
0.562468377895867
0.6321736184066306
0.587296874828454
0.6362283727598397
0.6111677974370027
0.6495664421939776
0.6251080255231938
0.6564120234918838
0.6401376839640562
0.6644748053345269
0.6472705763840861
0.6672082461936152
0.6557319159451696
0.6719061205371776
0.6648921241801731
0.6776824707994111
0.6737810837279915
0.6861470301063954
0.6834009767422696
0.6933706480113503
0.6900274580761792
0.6998259533414248
0.6943351497046423
0.7034664982214408
0.702937000780487
0.7100244674042944
0.7114023131905454
0.7166178494661912
0.7166513766336403
0.7224026462971079
0.7242705343407267
0.5333666258048507
0.7298614592861495
0.6381126397789284
0.6979504634960936
0.7311931807888682
0.7369228114530407
0.7378493716820526
0.7321437165472552
0.7387442980321721
0.7435740189082964
0.7421407932084871
0.7089967923579642
0.7490540803927532
0.7471580032576001
0.75362399581095
0.732496637213137
0.7392439091649504
0.7513577824757036
0.7329465735961089
0.7395308726139453
0.759317610967088
0.7571074928978122
0.7336153606972042
0.7404892856483268
0.765394794893715
0.7632078896523243
0.7332344530253577
0.7391940211442752
0.7719775298182845
0.7697902623193477
0.7319528190884089
0.7379926015398166
0.7788577767115215
0.7764880636940733
0.7295716886270183
0.7378150913082445
0.7275864494625666
0.7192182807895057
0.7809172954599739
0.7857495113388374
0.782493182099503
0.7723552650662876
0.6837477092043877
0.7790593557650783
0.7674266892487012
0.7740764254490586
0.7366939901308622
0.7276610717702866
0.7433524959611615
0.7922060025545308
0.7341686804804402
0.7240138335137487
0.6794165819248184
0.7305828794047486
0.7208076788097938
0.727801045906002
0.7172916260738174
0.7102880704658379
0.7058283548956569
0.6999610313359057
0.7246753913378452
0.6987896813588128
0.6910186316083694
0.7348451685953499
0.7316896714034864
0.68935751679977
0.6820784694333039
0.7639380256163087
0.7697068622330144
0.740443698488909
0.7357556329905031
0.7606014731640062
0.7671940324608963
0.7777332310983902
0.7730749015962382
0.7872453189133981
0.7804923734521348
0.7949497979407989
0.7870729042107673
0.8030692034201706
0.774284414564108
0.7924483021590498
0.8109796679567174
0.7452332043615422
0.6813064637830392
0.6745150360291533
0.819463439441915
0.8289296150713478
0.8189391776178395
0.8397043006376234
0.7408287771268289
0.8384458653149146
0.8277161887002156
0.7501781113300895
0.7462942163763512
0.7374153317062181
0.8483126598314107
0.8377214903457875
0.7562874157142595
0.7608639350584142
0.7418106894764016
0.7321772742753097
0.8566835650629463
0.8469957422790383
0.8206662687906121
0.8655085521146547
0.8291450057818879
0.8056442540628879
0.6743393453845906
0.6700546003797658
0.6684067430735758
0.6674791885405191
0.6603885804840738
0.6620653792671648
0.6540392066880091
0.7667929383189388
0.7708224612660273
0.7364342129632874
0.7269227674760913
0.8541589763680993
0.6607904487992097
0.6501258182078092
0.7762915040433153
0.7803731542145258
0.7461010193955585
0.8354407490335419
0.6961292779394255
0.8182454303332516
0.6726375927833479
0.7584361602109563
0.6620502978888918
0.651318690162783
0.7320882554910637
0.7232116837115945
0.7857281390777513
0.7900646087556252
0.8596578291483286
0.6726695691509404
0.6761102657512004
0.670076254858924
0.8380213843286599
0.6706687411476988
0.6555877206715874
0.7811922063614639
0.7269122439897019
0.7178316776519691
0.7526697463942205
0.754087911628392
0.7477248244110587
0.7516882599590432
0.7952988396094136
0.7991931559488065
0.7252297631278559
0.6790440758171483
0.6719563241654045
0.8621199482092237
0.8756347573413636
0.7068397513723732
0.6947630623584856
0.8440926533696441
0.8185343893154087
0.7313606323098417
0.7365185785415821
0.8049854060760329
0.8083439617244057
0.8023964228982129
0.8116260406099579
0.8053864829983793
0.8145637153685227
0.8080685068566669
0.8167949567904447
0.8099692233873966
0.8184867082987615
0.8253385938636539
0.8272838757257421
0.8341935839029918
0.8361809634058294
0.8431204092107694
0.8451765961221277
0.8116259910801826
0.8375989497457238
0.8469310424878427
0.8549281988272531
0.8569110781865141
0.6737100077156369
0.6761195854615678
0.7220341765518151
0.7136052711970235
0.8483335643586316
0.8583029244981574
0.8673794813632808
0.868784441943569
0.6754686987595201
0.6762688063894332
0.7465660002331205
0.7536532869526262
0.7496000990673811
0.864487684011472
0.8470871651516414
0.814500751967546
0.6393722607309982
0.7614954294631486
0.8782324428860016
0.8793580666432715
0.8696976195625846
0.8804771627041992
0.7485327541964618
0.7599044284342572
0.7632010568150512
0.7235337884471472
0.7175651311703299
0.7089463488550685
0.7566536285516097
0.8896041581196622
0.8909316090650666
0.8804225194786979
0.8917728973770315
0.8797053190217315
0.8902779411776301
0.9023827389158182
0.9004243569639304
0.7546110633259316
0.6769742769921547
0.6757369960947486
0.811461489833961
0.8661887749239098
0.8512283603017703
0.9109311564079503
0.9110428679625472
0.7440422164951795
0.7138292603676634
0.7044284277867083
0.6566169821595843
0.7123443754160853
0.8206766452374857
0.7692056078497985
0.691319013892972
0.8667051515170421
0.8512992586034034
0.8223531423913383
0.7563994610854521
0.872053104923355
0.6800292174263651
0.7190149570715023
0.7714472335620133
0.7693535935344148
0.8777982303052551
0.7079589177363276
0.6987142748807388
0.6786046322037932
0.6761921394243793
0.7185820658257319
0.9215371514334506
0.9198638812808252
0.695332913702485
0.690295645614531
0.9219580737084475
0.8168240738580743
0.6926645622682481
0.6847342277094389
0.7991460632849061
0.8238191263346879
0.7929086291178072
0.8506848701541548
0.9303917054550249
0.9284933316091115
0.8675623794305435
0.8651469286750334
0.826096040131111
0.9172990785908782
0.9250583516457932
0.6808166555129314
0.676743485936151
0.9360815701641526
0.9312915680791163
0.6866841774021297
0.6786633615539984
0.7844591545697288
0.78696179990877
0.6774628235380049
0.6717596568292342
0.6718676312394068
0.6653563526577343
0.8238427941737408
0.8474159951016712
0.7632377673423971
0.7812013945084565
0.7450867414733485
0.8219584861258945
0.9408432461588536
0.9349176636417734
0.7267057704015147
0.9134212914631747
0.8406691417205766
0.6659884748549947
0.6601809618390554
0.6597524641567826
0.6537254520196988
0.6549423911016232
0.6491679072044821
0.6528355328070269
0.6474763707824384
0.6546008812772425
0.6492212981571717
0.658549293698173
0.641201783015853
0.6462587166148139
0.6822452094555747
0.6882119122111434
0.6308282650459694
0.6375778180548725
0.741464286946909
0.6922931952172023
0.8552973595231679
0.852669597252963
0.676564887585657
0.8303500703974566
0.8333949979645189
0.8619024565980942
0.8491849210098766
0.8241138722889617
0.8391503202155205
0.8440166055103955
0.7691656921331766
0.7908211646682803
0.8119967721532821
0.8158375855198238
0.8068269253500832
0.6518282583904382
0.8014419525072074
0.8107217996748917
0.6957005256932052
0.9429512936974483
0.9359313502511526
0.9289208366530528
0.9294389066885662
0.7650905865851951
0.7826033980075137
0.7746735114918911
0.9480988168908732
0.730680170341397
0.9345580619367435
0.9274147333332609
0.9217659249550633
0.9202309064202695
0.9152351222775925
0.9137879283957809
0.917188426726143
0.9101957170971062
0.6251965720473245
0.6292637289645417
0.6475774396674328
0.835685382332295
0.8408286160087143
0.8095516997704084
0.8004317594415468
0.8290687196185667
0.8266355618955236
0.7457296699898716
0.7373252035249637
0.7956606299840758
0.7954992453700752
0.622201496074227
0.7441576992096369
0.7417698432010486
0.8297128717748243
0.6552310788764915
0.7658785580410282
0.9124614758406103
0.9053211716938822
0.7172010282452186
0.7110831023997635
0.7664562868445298
0.6746292538176434
0.6915788681152368
0.6999804429741942
0.6591445662327696
0.9319108908965831
0.7960911972326766
0.8764565925123003
0.7610923472476328
0.6154493045735596
0.6219662900502553
0.6956601716053846
0.8582520141869024
0.8448884263671645
0.8174785186440205
0.7173923916345458
0.712773813693444
0.7198516363524105
0.7160893381465001
0.7126397140231356
0.7139748497042717
0.7199503367616598
0.7165274411011804
0.7256650393896211
0.7239095929861097
0.7322916630447541
0.7297744616015371
0.7399173781355662
0.735786136418908
0.7435209711335635
0.7445470087273502
0.7423648212316521
0.7130959608867128
0.687389538863754
0.6895452913799862
0.698244176255696
0.7514372078043328
0.7475593356534322
0.7535033083424573
0.8873882124703452
0.8854704791025524
0.8960008976387127
0.8941928591611021
0.9039477357028906
0.9021746884727084
0.8920216892605067
0.8994951256861625
0.888609340043227
0.3241924938570738
0.9117127595985238
0.9134352264893761
0.7463499902677708
0.8031838833591624
0.804673367488875
0.7962758112822457
0.7973444078917205
0.7890671314607494
0.7898429735530711
0.7979224708433834
0.7902766825412523
0.7986653338732735
0.7897771497983569
0.797913409433424
0.782549234296658
0.7816216520158255
0.7809496873533125
0.8063711116488324
0.8060616945201541
0.6923762196658059
0.7105889353099963
0.5905192274655764
0.8493184966524859
0.7877159723141257
0.7836378059133432
0.6796666639978939
0.6948576328822277
0.9146713164799977
0.7863905614486205
0.8140872596292942
0.8132292729898523
0.7220035454181544
0.8033128200683137
0.7939470559774651
0.6844137580446511
0.8946577235539933
0.8834265180576891
0.790629609082877
0.7854732893385835
0.7812949997834592
0.7772131997596717
0.7814878442474524
0.7732936420321009
0.778846742410744
0.7701547387609914
0.6532815993042513
0.7579638755705526
0.8129636114019461
0.8254561172461361
0.7281928309702902
0.7105791472031262
0.7354294263595993
0.7241424905221621
0.8431094561257448
0.8471661517178498
0.9487327803739835
0.6583676926644191
0.7606810072705349
0.8162607328415894
0.8418981286947373
0.9080634985261027
0.8074596920289452
0.9031263694205821
0.8973461818911566
0.898823589374395
0.8898563646194476
0.725874399087434
0.6614853692105352
0.7891519459271488
0.7323678849493588
0.8365554556633157
0.7012562165756954
0.7070147615375697
0.9540822600504943
0.7726326026513382
0.8425374172630512
0.8451604065286944
0.7949472888451674
0.7944162554488889
0.8039532158202657
0.7464552066615373
0.6028964115608637
0.6120615723242906
0.635922073228122
0.767980833752631
0.7861455382617353
0.7529036334214331
0.7769933671597032
0.7549303509213027
0.751671638442794
0.7976504685344072
0.7568729017844159
0.8008912565122741
0.7970220053128889
0.7836767924503921
0.7743440751849767
0.7823519708372343
0.8763712205436629
0.7651722871856312
0.7610064157052692
0.766363189975647
0.7574875456318342
0.8919523100032011
0.8846627260139714
0.8830427650749472
0.8749316626637337
0.8357704169108092
0.8306897528500388
0.9205008436909407
0.9222410174274485
0.7732766843967197
0.7730505147977604
0.836221380819162
0.7613644944057091
0.7526839463209437
0.8441699293574021
0.8345153032919571
0.8485169712925462
0.8362591612603562
0.8529713231256489
0.5999512955766305
0.6620565593707958
0.6676925468839494
0.706307698536541
0.7165171964430913
0.7075123520557073
0.7284666619259074
0.7183843245470186
0.7410869715151981
0.7320560711378917
0.8179095857611863
0.7519615977761157
0.9054121742773381
0.9524830423450958
0.9594589036370386
0.9567000732981366
0.8896048911844924
0.7943220057560091
0.8714961894972627
0.7886786519256841
0.7693438354835943
0.7385231920248381
0.7934152521150621
0.8399692577214714
0.839919403222819
0.9052347976953429
0.8786657156724115
0.6794359054236969
0.7447089846908268
0.7486338494014769
0.7522473131152496
0.748103482536559
0.8745924330832598
0.9000512694966144
0.8330055401309331
0.820919880631416
0.7579823606215749
0.8539778151396432
0.9052500379593404
0.9007472241285247
0.8138766338823167
0.8300247934288257
0.7103292243568005
0.716500263993972
0.7570773705514557
0.7488960960198321
0.7226245170548553
0.7398648665911343
0.7672822028166035
0.7592511511095402
0.7856757101219737
0.7788536797460244
0.8016187644877958
0.5919384934166169
0.835839581287115
0.6036509356012383
0.6956426025089404
0.7517776933718365
0.8128769504146318
0.8224834146290394
0.859794010129122
0.7951643570855967
0.6550837304599288
0.6468999933638961
0.7706069309104507
0.9550608192661831
0.8065443628635075
0.8620215175768634
0.769057319045431
0.7793595996594611
0.771335493321854
0.77710544830293
0.6957262107579358
0.7695013624328872
0.6962716528614538
0.9288731248019824
0.9309236113798955
0.9248293989715647
0.9338398529416501
0.9087998370025482
0.8955043664209914
0.7407526717663563
0.7486906168122529
0.8373168728181863
0.8570776135106887
0.6868541647460684
0.7571502897059234
0.7481209232133672
0.7510241541883829
0.8799290519470079
0.8111493275822926
0.7439538879132488
0.9407815375599843
0.944465166886913
0.8261474203307263
0.8269303360053827
0.8165230377293962
0.7406892228630324
0.6664264469507606
0.5783721022561161
0.9264274911875838
0.8018007686055265
0.884685756790687
0.6725699508645581
0.7177994171442031
0.6621479605058713
0.8689986458702788
0.6929247690095379
0.6858849991654107
0.6911895206288832
0.6844022697309582
0.6885679290174207
0.6796687098058974
0.9639180029753482
0.9601843381397487
0.7981760882181099
0.8952961515505223
0.8497628786431425
0.8465779215193071
0.7183499602773555
0.7140292140164076
0.7007797647514038
0.793210425459695
0.7743633578418256
0.7146269861014864
0.7247505280807344
0.7222878925354665
0.7271969500661266
0.7133059826078186
0.7696579354676819
0.8023179160084524
0.84699222915148
0.7781948464848345
0.9259727393817611
0.8028120787737788
0.7663447600602904
0.7451976870879906
0.7162462891107669
0.7512316634613833
0.8216499321869792
0.8175713083240956
0.6691731485356729
0.6477700221904802
0.6395255415931964
0.6405194838397267
0.6910112967495432
0.5919013818989547
0.6237534567769676
0.9513838741241106
0.9524945145945529
0.9438528813690381
0.8854830249378538
0.8897813468581028
0.8656065740878031
0.6786363056773594
0.6753760925881261
0.8261390255546803
0.746045684976106
0.7462125585141653
0.7397176993355181
0.7348219199389562
0.5747600302999546
0.7510792528091093
0.7440254020606664
0.7352436336645563
0.7265854580319184
0.7212356583677315
0.7337496306769942
0.8310416576436122
0.7660844248846171
0.7659045867423009
0.6411161700154518
0.6319739383984208
0.7127609503783408
0.7142218171284472
0.7162820011044886
0.7208966546100979
0.7231354279278484
0.8742747599940562
0.8682911596790134
0.8807982612097303
0.8118395064295031
0.7831140224785904
0.7016509327424749
0.8227645350176148
0.9687073268046371
0.8038288188314032
0.8717057873442703
0.7303508951278995
0.7193032189047343
0.7270420489274734
0.7213232459818935
0.7279164831305928
0.7257499197686113
0.7316756529452341
0.7310916137761455
0.7372479546251549
0.7146809445941251
0.7253542708444085
0.9654819484504543
0.7295787055352323
0.7772503967230626
0.7685416362813121
0.7965576373738704
0.7654618172272377
0.7131806275520726
0.8179233597041042
0.7387594224304814
0.6574011308704681
0.6885819359825365
0.7268808110214717
0.7687713737144346
0.7676848723751541
0.7753476228132902
0.7667510082201504
0.668144493697802
0.561020365397761
0.724113674265221
0.7111408965052334
0.579234509067684
0.8880701378337527
0.8814981363713317
0.8892174267965121
0.8741890291907146
0.7320266316637657
0.816837562711115
0.6926869400638951
0.8183172870424559
0.8081295139748413
0.760628741656214
0.7402229568776703
0.8102802417947238
0.9188384742031388
0.9125883541875348
0.9203499344427397
0.9149190041904806
0.9217435686115832
0.9283332767637308
0.9400194281642981
0.9506920380858099
0.7446604448719167
0.8744106217115641
0.7497050327690985
0.6988355484658284
0.7064709074441116
0.9088078467257727
0.9107435036606571
0.9024248465255197
0.8172103054896812
0.8372508217606047
0.8435661133830403
0.8511979672899572
0.7473067293012312
0.8350736328784861
0.9177737326372781
0.8842669940521373
0.8584890752122492
0.8489442793855824
0.8628969412806864
0.7012742934282551
0.7869268881887344
0.7835279650250307
0.791092114668214
0.7896797383447464
0.8831931391539185
0.6988940581139588
0.6824141965606885
0.7493924485603154
0.770114668512674
0.7858459319579797
0.9615012288553645
0.9705078651070868
0.8308117758974793
0.7242325663787602
0.6843868212157385
0.9007974320355847
0.8567977723332829
0.7937282833808038
0.7631699326220965
0.8658869395040646
0.8998090431210025
0.902469682963639
0.8353987350579463
0.8620438873387475
0.8469681113444659
0.9491901309599139
0.759707281758546
0.7945709754566725
0.8287813428868223
0.8494956818944702
0.9344159197003611
0.7317552634768061
0.7637639634069834
0.6721101407899921
0.724586544672611
0.9144814922638866
0.6767446124947809
0.8730722798315722
0.8977058024398272
0.9314192095969677
0.9375730729518228
0.8984391237727056
0.8114688453329996
0.7280132113121635
0.8474080462752597
0.8000999306612775
0.7586949192586422
0.7542592714147266
0.7363165592618999
0.6933602895927247
0.7054053681033191
0.8247433893830547
0.8179633943925078
0.8726862755364013
0.6650428861472318
0.6740072777089147
0.6697070638456832
0.8729079099425097
0.8234861491922623
0.8298155769398956
0.7715168216472585
0.7766626232808725
0.7863513535425587
0.788206588115456
0.8047467126592147
0.7782495566494169
0.7684802030186171
0.7596137166741641
0.7484820601981652
0.7629032237535528
0.7366703305518171
0.867617162030804
0.78115703583075
0.7900283673158688
0.9592216750194228
0.7994166584655613
0.7992329462239489
0.7900006168106787
0.7840214627887848
0.7936214134286829
0.7813010362865191
0.7813304497131324
0.6946383387529258
0.6929170526241087
0.6860391122646817
0.6901335368895914
0.6970216386253606
0.6927459276309721
0.701054566296824
0.7539054933581502
0.6978279205612637
0.7055516687856326
0.7946276893225809
0.6863037846090687
0.7097212449895749
0.6840668551687916
0.887721397898418
0.8934288269686207
0.8748828792640941
0.882303211941802
0.803714739648919
0.7218995830508234
0.6991845603454653
0.6578514288887599
0.664032280380401
0.6710557652041682
0.6041477956744972
0.6106629049963421
0.5381363244799178
0.5633837907501174
0.5178656173795723
0.5504288137077885
0.5313395740508031
0.5564549723845398
0.5531578269374068
0.5701645998025145
0.5787280173293164
0.5871077564857151
0.598774966402141
0.6063380793139421
0.6194348481246643
0.6253088166022533
0.638684659293299
0.6429708175287183
0.6558949589977713
0.6592578345665762
0.6456253182741915
0.66099981464309
0.6742018422789725
0.5982165509777145
0.6539638517906561
0.6181234979451742
0.6235022990125657
0.5667699059433766
0.649378080569088
0.6633338756573862
0.6754246577012858
0.6767254768478272
0.5789672379228382
0.507877226069075
0.6343690350759661
0.5094894064998239
0.6883547816023674
0.6885255673450502
0.6770600767155619
0.6405722870124855
0.6271558571464265
0.6879949429289484
0.7001769636691059
0.7005920049780334
0.6320441905913744
0.5573492330887369
0.6882558507023675
0.6783839604207609
0.6678846664387699
0.6690912284002293
0.9309627151337281
0.9222716338309382
0.7373142584365323
0.9183884590379189
0.9289081292329039
0.7742555295151649
0.7827042595238011
0.7118225970978286
0.8218800100137682
0.6993472869322424
0.7383972426536285
0.7359822060330793
0.7392365959934196
0.8038958777402347
0.7313226907394351
0.7833433546963284
0.7815102338704446
0.7610581883223562
0.7398896051337227
0.7629929852792847
0.7274914052936444
0.7839661536867963
0.7371143370061413
0.7436211379022634
0.7437086413772278
0.7605676005887744
0.7681595658652504
0.7609285786911053
0.7678362673879168
0.760340010307275
0.7672784419937858
0.7598210554751382
0.7664444280389898
0.7740707034703824
0.7719999365121293
0.8060798180277228
0.7983948187747414
0.7994286427370524
0.7907328167620742
0.6755954644315245
0.6347679154885882
0.6264907064007033
0.623538703196091
0.61709951636518
0.822708686626112
0.8190734551311073
0.834148612930649
0.7569864951877076
0.7264599602006184
0.7207232732517064
0.7562212120830448
0.7724706371834145
0.7373361952252996
0.7271139092636881
0.7335074091535709
0.7204975909857605
0.6995041564755298
0.7082158506116343
0.6859408043947482
0.6916719256145074
0.7187023263342527
0.8216652027713407
0.6900643815307396
0.6515695769985225
0.7101954242974531
0.7372943669035392
0.759641971890125
0.8956405638825335
0.8957144336507118
0.8876553489340939
0.8375032714040325
0.8038450889428435
0.7311971692091003
0.5365404592239686
0.5369911793610316
0.6796375119681979
0.7758440898587069
0.7958547372184865
0.8961167642020238
0.905036457993557
0.7940632865534667
0.8107708924691458
0.819391893221664
0.8450178025276884
0.8334654715506364
0.8376402473223059
0.7609640201317401
0.7699919654584576
0.7795239312220569
0.7686785382572885
0.6748863612570888
0.7700020737785721
0.7698753104609676
0.9222289014666235
0.6183761057045202
0.6075088308712695
0.6107156218818516
0.6011425138356324
0.7205691904607356
0.744214895991768
0.7451454370069237
0.8584219491076802
0.7583964344491869
0.825674277922229
0.8151912165193924
0.8069926909798307
0.7931054598253765
0.7909921745077816
0.8026814225389008
0.7835458020577593
0.8870315389211679
0.8859491528151976
0.872416114589193
0.6986843270741251
0.6957835499155278
0.6731064244166889
0.6776170081700593
0.79189932925811
0.7841300646916455
0.6869801038939716
0.826645512771916
0.7929885357192841
0.7842496405618602
0.7187890327198136
0.726365939152112
0.8676993140024176
0.6769681725388228
0.6789790555660179
0.8972495348565253
0.9485525311036866
0.6588877927181482
0.6603459963778655
0.7034881393310962
0.8936336072775504
0.8812666735583797
0.8544694851068944
0.7946805190315881
0.8899270956709603
0.7501475584097221
0.6791838701166947
0.7543218677446
0.8323750915466326
0.7820509178712728
0.6710655950404608
0.7340936789518111
0.8813552627641934
0.8833971311055026
0.5576436019282773
0.9624288039330313
0.9667486283521914
0.8138332788990962
0.8214042981350794
0.8235654805872736
0.82992498100378
0.8217011197031298
0.6199895109036034
0.6167622059460203
0.6934447005294346
0.8321808999971909
0.7792429833590372
0.8441867038671541
0.8960790224542097
0.9071229327089435
0.5992692148090167
0.5890507296337142
0.7399241041082977
0.6700145398266691
0.6649914912999145
0.8805520128161156
0.7414432705219268
0.709555121943675
0.7394528248127031
0.9734883947592589
0.9759556178608418
0.7146500279688317
0.7105644204925075
0.8307579296161567
0.8509607656171088
0.7585397790266334
0.7523904838429929
0.5070965378352333
0.9712630518424228
0.7529640392313314
0.6380280147313733
0.6479170029058513
0.6789595516193333
0.7430517334394798
0.7102088178926969
0.7005550748122679
0.7102148134331746
0.702315862779145
0.7107001435949107
0.7019974197937419
0.693293981627255
0.6910828526453238
0.6801035855502819
0.6814402262691591
0.7119862560027296
0.8100824551527985
0.7520098631314645
0.7529454963912288
0.5876515462957886
0.43715755618593527
0.43349432702368984
0.5623255779767755
0.4888655940561624
0.46366798703900675
0.4442424524922475
0.4204606499151234
0.6799193075627048
0.6684782066050784
0.7408908239160635
0.7299623528874221
0.7354936272278487
0.9268470509230955
0.938880347991222
0.7327961860175721
0.7361367846734312
0.7281450950215522
0.6457870337132186
0.37186501623919205
0.691734675073799
0.6801395389291824
0.6688357571129007
0.6705284749420319
0.6554338163513783
0.7454243463934415
0.7500356338687726
0.4884377720907775
0.857702194729952
0.8730171809224834
0.8191077737924102
0.7429827854997211
0.6538728652065723
0.6523060642091574
0.7174697902023521
0.7348010189268537
0.8526652599191901
0.8381942737757743
0.7383146231694794
0.8365525368850946
0.8412404418758522
0.8514537240769917
0.8561016569212448
0.7321562798760644
0.7535717739649612
0.735566180160481
0.7215324336345718
0.7825087465068946
0.7753092589992707
0.8622737356773642
0.6814660428789955
0.6183785430957015
0.535755759949712
0.5569206446102045
0.5845360396859739
0.5874375090961507
0.6095511138246159
0.5607838109122708
0.6129459273265282
0.6310632575723096
0.5958566698192008
0.7867685308206043
0.6313689346253776
0.7499028806448476
0.7109531705099452
0.8577345865124331
0.8628800074120273
0.5255946040543868
0.5288794412316602
0.7976923997620377
0.9352222288870258
0.9419672665835596
0.9457259416532924
0.9498732721979306
0.953117130307012
0.9583577123444987
0.7385016065732487
0.7499756836350663
0.7541670763758875
0.7595736952383368
0.7614434995912336
0.7629743525508789
0.7662342313069755
0.7613651663896941
0.7625375123705775
0.7657825063108327
0.7621628710122491
0.7728802166659762
0.7723832750643851
0.7789255220413188
0.7635519866066142
0.7466342794810485
0.7746917074387318
0.7507007863822897
0.7656545130196097
0.7152958212366556
0.6052765483169512
0.6672886281662029
0.5573164465203042
0.5647830211932948
0.8591485430096839
0.8073150488437358
0.7183752842661555
0.7056624699870884
0.7083652678739475
0.7042256017088484
0.7125382765762471
0.7072025404898455
0.7117553989917966
0.7058130468290865
0.588632062498102
0.7894004666579089
0.7293071941896527
0.7455038833742293
0.8026272134596801
0.7930251293233477
0.8211957110204772
0.7529330892303061
0.613162455188973
0.615703535235351
0.6261349418202007
0.6317424234253343
0.6406428883602145
0.6371100390317148
0.8325330724906427
0.6769847660327671
0.6747891457711283
0.48872184459792184
0.7819616446910537
0.9491656006652817
0.7595160436488059
0.651151197148143
0.7657702525185832
0.7637546687481017
0.9398430908735687
0.7524671899824835
0.7436222022102175
0.7459924144587706
0.739204129518613
0.7420081393390099
0.735271926789908
0.7318824073252124
0.73707987698127
0.7490766333554835
0.7366265812088955
0.7344603963004569
0.7486497750120445
0.7290304785242441
0.8434873243350192
0.9172267280288819
0.7117124166145307
0.7126117338516865
0.709691814747032
0.7262165425609539
0.6398369757050736
0.6220007287401913
0.6380052253315126
0.6190643831477993
0.6023240170994273
0.5993498716728791
0.6143436069174901
0.6630903328807607
0.7149681181689861
0.6339142542756189
0.8178874112776575
0.7431348095285488
0.8321261254608787
0.6455156461255438
0.8495749854024245
0.7979346409609145
0.8039754050346364
0.6807624746654226
0.7415783808393768
0.7467395072743754
0.7292669266439196
0.719565571912631
0.6924719026048827
0.6384976523075625
0.9545616569464471
0.9260027652931965
0.9679406789503134
0.59946729340701
0.812931381248745
0.8295628886403975
0.8473936054598056
0.9032876764313809
0.7108029191044408
0.734951920278264
0.7932224197844308
0.6570917467182406
0.6630123068589087
0.6597971046306864
0.6788430298851795
0.7196872537441225
0.7380676240909223
0.6736458994056437
0.6878339837729465
0.807866002192244
0.8325257589360676
0.7066436294221123
0.7409727177654343
0.7011729864182898
0.7969633845378552
0.7668051198121629
0.8427213767601581
0.6797114866083208
0.5637487110022043
0.8094661041768272
0.6614066656808493
0.8722453675971813
0.7668435067187743
0.7451019877021574
0.7503075384747029
0.7404343245307072
0.7306046967056219
0.6941829270055582
0.6549741546568429
0.6767891184796719
0.7040511317678436
0.7010612011260996
0.7298327967508967
0.92782692898357
0.9175541003208375
0.9181693623082845
0.9120685525670593
0.9040511056529482
0.9042008418438624
0.9132487175286741
0.867629231329322
0.7097544163740807
0.6866846265105268
0.6913590319127231
0.8075926158308594
0.8615091156433882
0.7806241994588983
0.7678513957204832
0.7783571276321075
0.7724792537019485
0.7713255026408984
0.7941630099680296
0.7409482071610638
0.6680905177783334
0.6558698865388012
0.7550314713611603
0.7477528618588821
0.6934554602359129
0.7217415313694213
0.7164830630114728
0.7072050352148039
0.7091934409495472
0.5720128535825717
0.4158044292065641
0.970184956917039
0.9707098741554725
0.9652261501471291
0.9760259525736183
0.7577768294499255
0.8991359027544646
0.549516865454454
0.5944403783789145
0.7082867683817312
0.7039546609026062
0.714861674063621
0.7019571557982738
0.6949979838451082
0.6246833702970045
0.7281390405058612
0.8209086254625539
0.9772080166544163
0.7193885279306428
0.7193074123643806
0.7707402953402748
0.923604571548851
0.8266626421903206
0.8321648512041016
0.8192842481508713
0.717184401837722
0.7097678735797717
0.7017413942625568
0.7043260822468501
0.6846515130076395
0.6905898428479206
0.6690370849510823
0.9759326439875117
0.9332464032082902
0.932880794275233
0.9429477534560194
0.9408860432538678
0.9495638566711638
0.9408899435613548
0.9484557140599118
0.6489964295267521
0.6747919844732355
0.858856620607146
0.9573704120930393
0.7918228767327447
0.9383090265078642
0.9455366719597097
0.8821561315476024
0.7984645240161958
0.790941585046943
0.7745978772123778
0.6804525334140002
0.7790501870055261
0.8899151664197318
0.7500732781127708
0.7527901062882753
0.7593449173006335
0.7462896676758133
0.755110047987236
0.7561432186364484
0.7507387396141529
0.7440693356057351
0.7957873218535483
0.7626235591395195
0.7597364860133903
0.8681087939355562
0.8342829994425126
0.7309516214435214
0.672982016646015
0.6665521638439887
0.7372949535830441
0.7012222586157051
0.7058539458694385
0.7160426187767387
0.8919710118568251
0.9009272888615825
0.9035290790694012
0.9003984854266807
0.9012626226634374
0.6999500175703677
0.8493899016446284
0.7893164242097191
0.9090089070896987
0.8024162759111206
0.7220896356917473
0.7819040625191966
0.6707181289470736
0.7919423226717511
0.8017909424128024
0.7705409767856984
0.8125337406127793
0.8570365112584044
0.8584675875464443
0.8688316979362265
0.7597693805593678
0.8233999567312713
0.7499541662275666
0.7379410241484733
0.745880119033663
0.6457459551853347
0.7443986600024228
0.9600166135428367
0.7250787850098235
0.8655623814087358
0.8631732465274078
0.8717282084459491
0.8601271550242255
0.8681642288535227
0.8833185484236318
0.7893608465453416
0.7900578337229626
0.7873185065051094
0.8377967444350395
0.7667503693831007
0.9422240000360353
0.8176096646303469
0.8525618455042201
0.9491351084509563
0.7744076963233046
0.7446321207451225
0.8297331199283751
0.697518500516762
0.3125836793306211
0.9421172692368538
0.7418637216400413
0.7711514976615295
0.7876782151292091
0.7439762232787965
0.7597526505495649
0.7272510538822359
0.760734682727915
0.8338045751432204
0.7753788520967742
0.7617709292651011
0.8194284894543495
0.7968379545500082
0.7861267169798983
0.8248704641806164
0.8725187432011045
0.7209711804978252
0.8283252159096149
0.8195045381404336
0.8091089193690632
0.8034081000949157
0.7973858951061873
0.6933427349473525
0.7725542704476295
0.6541963853290439
0.7272356886610158
0.7044622021527074
0.8231169649722441
0.7813451826074524
0.8119569441032218
0.8054651281513507
0.8566382033804802
0.861201353214987
0.6879319874876118
0.6045016331375159
0.7523514633132352
0.8200866960693479
0.6853450489930553
0.7946672892664319
0.9058302670449643
0.7496978281950518
0.7565640995579149
0.764117874323037
0.7429278876312595
0.9385364282859575
0.673894893618272
0.7599171329418446
0.8007291736089678
0.8061816196919122
0.9125836640478877
0.9018377431364223
0.8887180575301441
0.7823522034214354
0.9625203150530949
0.9815619795319414
0.8681808343286238
0.8977001318973851
0.9644116137419154
0.965791532718474
0.7960226326964809
0.7547691554627882
0.9734153790919046
0.8069557419403657
0.7473132283726236
0.7609729008867208
0.9027706105159973
0.9149758695707867
0.7653220378022895
0.8309623499807839
0.8712259495215896
0.7292041866326627
0.6803949612037309
0.7857330857673944
0.7145771489584075
0.5773249892330585
0.7749469278532624
0.8486462108187486
0.579237439578605
0.5775451451124698
0.8292491960267037
0.7870084103850263
0.8388613152122937
0.7496830516877185
0.9176735960069801
0.6605900848772207
0.593196565866369
0.6744982809005251
0.8012438090258582
0.8317757651196582
0.7317083991922452
0.41230403094183493
0.9450560046887816
0.9207594011788757
0.7493030817459697
0.8748209945973224
0.7879841562741731
0.8676099511104304
0.8820889132411286
0.8632343397030003
0.717646270902405
0.7444325276805565
0.9562012148362329
0.8307026233164679
0.8565214958752029
0.7451983938439753
0.9530617297711824
0.8071166963816784
0.7648552876479386
0.7376824603631357
0.6817953742018575
0.7661305864848231
0.7063823122869712
0.8399047777657291
0.7610322560248022
0.6785787649949293
0.9224566700536284
0.7059841648613224
0.6988911932975033
0.9363139688408437
0.859367736774104
0.9155151167553416
0.9269727780204441
0.7704564751026494
0.4894677822107574
0.7849126791458707
0.8595442399404135
0.8647300018296059
0.6612038894977134
0.7689015728701575
0.8006711637946892
0.5679345506502745
0.8878171535709335
0.7402012710934246
0.6698622967927892
0.7624504694354888
0.6259371679368899
0.6509286138337137
0.7190040419920112
0.8317494216767845
0.7154283226838154
0.855204444223627
0.7599588217779708
0.8857375731812301
0.8606724732566308
0.7478757042618287
0.9085218817933307
0.858049476217855
0.7352072062132611
0.6834307005045281
0.6805651160593131
0.7429615324294494
0.6973319077102728
0.8698996442637326
0.9256189987961122
0.4789934490165446
0.520804057292619
0.5474170849430414
0.6545331260585151
0.5756774460031646
0.746633365942639
0.8039475065552223
0.799933139238492
0.6604573466930631
0.6783315342053183
0.6788788290986133
0.703823345671397
0.7672075536401832
0.8195717730302937
0.7661359690366711
0.7761037937910941
0.7590204121952068
0.6461731872004695
0.6108337308735806
0.7353506771804945
0.753455685205214
0.9663587932497892
0.6276396809119361
0.9293301991876
0.6834041625585269
0.8786388156244956
0.7616645901022913
0.9062921908443311
0.7569396918645662
0.7224394058764002
0.6825770904964831
0.797021347235972
0.8288787014419717
0.8104988956170368
0.9087865389290066
0.7206990322822383
0.6771075233379219
0.8405467476349233
0.9069854659846629
0.6864543675775823
0.8168048206054064
0.7327246991995057
0.8782641421357034
0.7877794873163787
0.7948043985460428
0.6537599600162731
0.7730933918452809
0.22691543469467387
0.73530477873332
0.7663610563172122
0.7148222382169737
0.7026159159481692
0.859126991627514
0.8972063707720356
0.7004365359580154
0.6457826540590995
0.908675895107076
0.6660807380611623
0.8007885592030498
0.7049092305658505
0.760906020550957
0.6885291310427252
0.7309889151872253
0.7898099475857604
0.729438601952587
0.719516873250774
0.6298540290373846
0.6509678277884935
0.8256528128789501
0.8850820312408526
0.7183136153639145
0.7096915644601645
0.6297711280255072
0.8803966082051599
0.7674905618288574
0.6818225824402605
0.7635010908374252
0.7197953960810416
0.7922942273207332
0.8258571071218058
0.8211987795112003
0.7887654189323905
0.8137890744457372
0.7687871138380267
0.8188354423581286
0.7546752301893789
0.5857112606035861
0.6763406986896212
0.7261063741410044
0.7737626972425702
0.661472423946981
0.8873135197090521
0.7492613129731769
0.7557857941883036
0.8364070677667813
0.8129143499751442
0.6532919108829577
0.762253933091912
0.754615783050297
0.8136624619926979
0.6749329776970647
0.7154166043515852
0.48043507585290735
0.8083912978540195
0.8734736050777205
0.6817084103272268
0.8139686510003983
0.711456658003702
0.8532247743672906
0.6744418967918376
0.7244078471612432
0.686668657852221
0.8527790023535595
0.8195491284428228
0.8309587602652586
0.745180351215613
0.7854720133648455
0.7119597484324587
0.7782305301343339
0.628827633917128
0.8489648336229586
0.9078164399614449
0.7196256672396318
0.7631576523665703
0.8036994312856091
0.727463737828107
0.6695431086363467
0.9604032442459083
0.6714047168165124
0.8128268913320399
0.6594118093646515
0.7892900171665824
0.7472908982561465
0.6737789562243107
0.8470986528540433
0.49755633002560207
0.6632039296569863
0.8676043477649727
0.8265765160423427
0.7745549130134801
0.7514129772832492
0.718326132334128
0.7961028536915906
0.6198511998356534
0.7526606227788488
0.7897316491122235
0.814889956375027
0.7837660760959738
0.684482755001921
0.5900424179590369
0.8803870326661973
0.8956287842354075
0.6382980449745409
0.7564452834281131
0.7691958807917528
0.5499075173764559
0.6838550050879305
0.5365292139757188
0.5430686036234488
0.7317237676357449
0.7714550952800262
0.7340017285178004
0.9392780991273882
0.6630580721093391
0.9820918725441242
0.6828878542254588
0.7831692504299271
0.7934451209787629
0.6552231762821825
0.6165443933274319
0.6332201350370341
0.7288843991338789
0.8595680393212418
0.8096775382069231
0.7675898128988988
0.755077071317243
0.7689374905747464
0.7678254694983296
0.8455834504339533
0.5101166185212758
0.6685360212954177
0.7578779402493936
0.631879759411071
0.7356020136548844
0.8202487945156801
0.8313326449740234
0.7147969556333629
0.7959086104696255
0.7973198023567286
0.7223962849376646
0.7329791537987755
0.7297950027532009
0.7100831621469637
0.8961711086175267
0.7884953456623737
0.6420737166452953
0.7060851516437507
0.6904890014580524
0.6913750858656879
0.774448801551264
0.7924048006856336
0.6756644271612186
0.7991050262768307
0.7543794571343008
0.9202378051366862
0.8760687449637901
0.5971699893460074
0.7832994770525751
0.7372687544498191
0.660363261470329
0.8842880447344071
0.7353660765097576
0.7726810381277678
0.8386679980183991
0.5028286156186066
0.8235157837358773
0.9015806014321629
0.7132867332189724
0.9519491673990875
0.6691747931142416
0.8836604701861887
0.7841453748254396
0.8197043485566904
0.7033800574078066
0.44299380099978314
0.6142619560855721
0.8378598938963944
0.7258662058170181
0.6487125557466606
0.737821348010196
0.7428802707548076
0.6769053366228355
0.9308106568244183
0.8662223369651771
0.7188823324923307
0.9017722587566975
0.7430333110934404
0.7103315072389023
0.803882675111058
0.9096755063615026
0.7780378801666566
0.7646296672642949
0.7354215861181257
0.7087490008432569
0.9715865839675508
0.7340935333080751
0.7424189174675634
0.6864495171334932
0.718729717824562
0.714246309848141
0.7872557372968298
0.7525498069560591
0.6093300807492962
0.8167513476899324
0.8735408526998407
0.8923960342130312
0.7827016831163164
0.9606115138187987
0.8402403081183643
0.7451987660499007
0.7009074176598225
0.6670083365161846
0.6781988233787879
0.5152260269422584
0.741244305888494
0.7266816989077866
0.6413775353235859
0.4954366963377901
0.6786799825286118
0.6577480330476677
0.7595586057098997
0.6755558918505226
0.8176493506181064
0.9093026401205846
0.6824869796086613
0.5911910575075584
0.7044506394353423
0.5135691064511899
0.7452108814811688
0.5886314009584834
0.7465198265575749
0.8209246013812452
0.6150542927901742
0.7827605417501603
0.8578131560110576
0.8125526217265966
0.8048342035880153
0.9045736629161828
0.8751508044291146
0.8781913956510483
0.7765967734104852
0.7218521216800783
0.7684472418101767
0.7785089137163522
0.7262167358132497
0.8864540011425488
0.6766412334684944
0.6542526415316298
0.7452944407556414
0.6872102392577539
0.8043553946602154
0.9917642787538319
0.9943703319238386
0.7976414482639725
0.6188937140063876
0.7907781802090659
0.9367857201715818
0.9814584845682538
0.7239767171160583
0.7278652642444601
0.6781021743860078
0.7131738364901806
0.755197645477742
0.7399082070860473
0.6713373103463313
0.6782740500340788
0.639501069398731
0.7973353042665812
0.8144847609390955
0.7100785008265149
0.6779978121533838
0.667121652113601
0.9110101293689661
0.6952647964926691
0.8045337572698039
0.7756518485494238
0.7402943928299339
0.7250425632234423
0.6683064496049971
0.7327801115661394
0.5654703338686746
0.7323636417182252
0.7859472278060727
0.9180686926879434
0.7424165419360655
0.7872273608280309
0.6876837487305022
0.7804963176014558
0.6467985560549718
0.7778488023045955
0.7280909088869186
0.873825849383951
0.7266227746663967
0.6993260275647306
0.8167905722284786
0.7183028688702945
0.7333874141225515
0.696509737921632
0.5896177764069174
0.8980772906716036
0.7013484402671634
0.7641670735921998
0.7206685199529965
0.9392847425031251
0.8138760702243306
0.6348203875232197
0.7567101741302829
0.950221930086844
0.8016965073385612
0.8370769407374437
0.6847993192664892
0.9072243377884378
0.7197636912120267
0.71863764736178
0.6089601501914379
0.8497009965453381
0.8027779194794038
0.7774667293914098
0.9293024660327116
0.7960557695552058
0.7661335986013167
0.9458571669880372
0.8903303674428557
0.6557948464313584
0.7614711849072431
0.8724088709414658
0.8643982044375277
0.9547079289921236
0.6019640737602863
0.8000454440405631
0.6092414953667105
0.7108803915360015
0.7936211244298489
0.7465448729830805
0.6018457779648183
0.7694621257269154
0.7796814536831728
0.7350808744402078
0.6834166150767987
0.8777090018635516
0.7546946416841821
0.6774428015888203
0.7452569787194145
0.7819162837999643
0.8593688632610195
0.7145716332984775
0.7356743153243142
0.6241854488946162
0.887417787994149
0.7556853008092903
0.6982208189930893
0.7246872980877043
0.8160859854248944
0.7880416859801489
0.6724126094314379
0.7435177705725295
0.8067578156131893
0.756461018326268
0.7253526219527692
0.7575001193984592
0.7168103243709807
0.6734534703530163
0.8857566611943722
0.9689396999042235
0.7720688152167542
0.8000563324181559
0.8051635485003467
0.7622723029339397
0.9621454864404507
0.8353019936743866
0.7658134164660356
0.7287310599400594
0.7688718443932536
0.726935184318871
0.7562142154736157
0.7133849287804834
0.7605677760304219
0.7575574194503857
0.7147225840906053
0.771935894986901
0.8964183106221858
0.74302812961556
0.7156909836954346
0.7426359224954392
0.8631907149082052
0.7149895883439396
0.7363660909787793
0.7614323990457819
0.4962205350925303
0.7298655514640203
0.7476780257824414
0.531833329818533
0.3860909384718001
0.40734734105691894
0.6468782217840356
0.6545969906476982
0.8214272837060715
0.7610375391206637
0.8883520311695786
0.7338306029983076
0.6485462786121735
0.7049522178866044
0.9657166116583482
0.7642857583282908
0.7279337797393396
0.8217295091770318
0.7379732006332519
0.6225581641375497
0.8673806806301595
0.6740255302882486
0.7614019127448504
0.7193198671837027
0.7164867582808934
0.9159787639631423
0.6851489971579844
0.7566193472672331
0.6682774413272742
0.7420999141864896
0.8049709251799614
0.8795849500997268
0.9554777592210937
0.9118342001588123
0.7092440996800569
0.7400179097813145
0.5937753403714122
0.8425067542213179
0.7408526020501021
0.6178007425878004
0.7277516154730947
0.6838715937900673
0.8472727500359287
0.740226356397883
0.6545330345346844
0.6418311605419289
0.6365752216302661
0.8628509683472086
0.7388955355208247
0.6008057240118522
0.7585642316702674
0.9896042677622076
0.8166206292495005
0.6863967133151222
0.6481031833753497
0.7192218442259364
0.9531531628117641
0.7246425164983127
0.722008159531805
0.8748489662661703
0.8135496486588453
0.8120045333709205
0.6953943629002438
0.7884488496071947
0.978136139220203
0.7480461017870842
0.8549617016355511
0.5634108160893878
0.9477258806554707
0.5875107033919651
0.6612206422805055
0.6342834936606178
0.7431227295652403
0.8098477786618672
0.49741208976489465
0.7123612008932982
0.974006510359779
0.8804223714103403
0.7088240532302793
0.8427448294987604
0.7502200587411817
0.8904771513541383
0.7024689766302212
0.3199658152113763
0.7376077056316122
0.717871228335749
0.9778470091548735
0.8635439086146302
0.7379727721462103
0.8445671514546115
0.9791355485794775
0.6765557991322618
0.8253729823106117
0.6982574172154398
0.614329862989621
0.9668562659341866
0.726727808596764
0.9240083118164311
CELL_DATA 4886
TENSORS stress float
-1.2218271235535856e7 3.0487609817287726e6 0.0
3.0487609817287726e6 2.1554190109155983e7 0.0
0.0 0.0 0.0

-1.7683069272624962e7 5.553980633116615e6 0.0
5.553980633116615e6 9.53511653206016e6 0.0
0.0 0.0 0.0

-6.378858993733976e6 1.8071690173563443e7 0.0
1.8071690173563443e7 969217.2636604682 0.0
0.0 0.0 0.0

-5.305768509825415e6 1.6556694340138506e7 0.0
1.6556694340138506e7 9.108546600678673e6 0.0
0.0 0.0 0.0

-4.0972102272677626e6 1.8337699689526215e7 0.0
1.8337699689526215e7 679789.5232127954 0.0
0.0 0.0 0.0

2.0612767830132064e6 4.0816803601705087e6 0.0
4.0816803601705087e6 -5.1752428320441805e6 0.0
0.0 0.0 0.0

2.7464800436999828e7 1.6155366812929891e7 0.0
1.6155366812929891e7 5.972879950521593e6 0.0
0.0 0.0 0.0

5.605489025714608e6 4.1587497414068114e6 0.0
4.1587497414068114e6 -2.5501759865237817e7 0.0
0.0 0.0 0.0

-1.2163152281530077e7 4.787694760003221e6 0.0
4.787694760003221e6 2.2821980650107376e7 0.0
0.0 0.0 0.0

-1.5724571693444466e6 1.5407506319064133e7 0.0
1.5407506319064133e7 9.827291464731783e6 0.0
0.0 0.0 0.0

-1.8543643923069309e6 1.5285290245075068e7 0.0
1.5285290245075068e7 -4.542671858026905e6 0.0
0.0 0.0 0.0

-3.789906766189417e6 2.1500656117723603e7 0.0
2.1500656117723603e7 1.8103908437095673e6 0.0
0.0 0.0 0.0

3.920182388680049e6 8.145153084230655e6 0.0
8.145153084230655e6 -2.3931149202106327e7 0.0
0.0 0.0 0.0

4.300250137017703e7 1.8683632095356397e7 0.0
1.8683632095356397e7 6.243424294266196e6 0.0
0.0 0.0 0.0

-1.9077512395633557e6 1.5679569077914346e7 0.0
1.5679569077914346e7 -4.598823336260503e6 0.0
0.0 0.0 0.0

3.7560859202315924e6 4.733479656848916e6 0.0
4.733479656848916e6 -1.151329605023066e7 0.0
0.0 0.0 0.0

-629402.9164136783 1.2866457443798643e7 0.0
1.2866457443798643e7 -1.38694723081957e7 0.0
0.0 0.0 0.0

1.8505743093302688e6 1.1087893062776728e7 0.0
1.1087893062776728e7 -1.7836689394428853e7 0.0
0.0 0.0 0.0

-8.3088931679804595e6 -3.9741799194221804e6 0.0
-3.9741799194221804e6 1.4482668320036784e7 0.0
0.0 0.0 0.0

-2.704821767301488e6 1.730606013732226e7 0.0
1.730606013732226e7 -3.7289092406176487e6 0.0
0.0 0.0 0.0

2.837600795367169e6 9.35257213919506e6 0.0
9.35257213919506e6 -1.300460579954787e7 0.0
0.0 0.0 0.0

-3.158111879424112e6 2.1368864495566454e7 0.0
2.1368864495566454e7 1.6792511003416982e6 0.0
0.0 0.0 0.0

-6.139832053876658e6 5.589116720585008e6 0.0
5.589116720585008e6 8.940935040728908e6 0.0
0.0 0.0 0.0

-7.577002853618258e6 1.725025409637105e7 0.0
1.725025409637105e7 984353.463954932 0.0
0.0 0.0 0.0

2.2662189952279152e6 1.0174685161765078e7 0.0
1.0174685161765078e7 -2.2154970858344786e7 0.0
0.0 0.0 0.0

6.366743541259496e6 2.673766336561334e7 0.0
2.673766336561334e7 -1.071941505337221e7 0.0
0.0 0.0 0.0

1.8199064190970708e7 1.5241588364289353e7 0.0
1.5241588364289353e7 3.56470037474228e6 0.0
0.0 0.0 0.0

-1.2461177896616567e7 1.0854177470054323e7 0.0
1.0854177470054323e7 1.6456048674995057e7 0.0
0.0 0.0 0.0

3.9865333379294034e6 4.843297980420355e6 0.0
4.843297980420355e6 -1.1529608539425954e7 0.0
0.0 0.0 0.0

-3.5976609352245587e6 932511.8359772769 0.0
932511.8359772769 4.476312636090489e6 0.0
0.0 0.0 0.0

-7.408570644132441e6 6.54398117204013e6 0.0
6.54398117204013e6 7.670655604598254e6 0.0
0.0 0.0 0.0

1.5273704627235355e6 7.515559043185414e6 0.0
7.515559043185414e6 -6.742467983980609e6 0.0
0.0 0.0 0.0

-1.0909108256675145e6 1.440548510756237e7 0.0
1.440548510756237e7 5.640703286402788e6 0.0
0.0 0.0 0.0

-20420.575730849116 1.4202877709657276e7 0.0
1.4202877709657276e7 -590957.2989037377 0.0
0.0 0.0 0.0

-5.48371946234981e6 1.7015431483292703e7 0.0
1.7015431483292703e7 4.384664717368193e6 0.0
0.0 0.0 0.0

-6.148076621053829e6 5.179885338364506e6 0.0
5.179885338364506e6 5.8131591990086045e6 0.0
0.0 0.0 0.0

287029.7025241798 9.924200497901632e6 0.0
9.924200497901632e6 -5.563237765001698e6 0.0
0.0 0.0 0.0

-4.9742305909672985e6 1.6878025110324696e7 0.0
1.6878025110324696e7 4.559086249613621e6 0.0
0.0 0.0 0.0

-526827.9970485298 1.2326856424728656e7 0.0
1.2326856424728656e7 -2.161027993734272e7 0.0
0.0 0.0 0.0

-4.526028785425211e6 1.974647367914756e7 0.0
1.974647367914756e7 3.03808476151894e6 0.0
0.0 0.0 0.0

3.327767636156911e6 8.321632951731294e6 0.0
8.321632951731294e6 -2.6050371919564795e7 0.0
0.0 0.0 0.0

-8.297743388003097e6 1.9297988975553676e7 0.0
1.9297988975553676e7 -365720.6196108493 0.0
0.0 0.0 0.0

-4.593108685597702e6 1.93065848183744e7 0.0
1.93065848183744e7 2.8039717599445684e6 0.0
0.0 0.0 0.0

-1.0282920944055667e7 1.0926081450945926e6 0.0
1.0926081450945926e6 1.5099279895483088e7 0.0
0.0 0.0 0.0

2.5189914154129187e6 9.313109905480959e6 0.0
9.313109905480959e6 -1.4169836709772307e7 0.0
0.0 0.0 0.0

-1.1159729654527426e7 1.229379291442138e7 0.0
1.229379291442138e7 1.5992100987559706e7 0.0
0.0 0.0 0.0

-642792.9367010086 1.519183734518965e7 0.0
1.519183734518965e7 -8.006612018157379e6 0.0
0.0 0.0 0.0

-103113.92691021413 9.609232334045865e6 0.0
9.609232334045865e6 -6.10206437425694e6 0.0
0.0 0.0 0.0

5.436843989512401e6 4.280621914885845e6 0.0
4.280621914885845e6 -2.1640978521209143e7 0.0
0.0 0.0 0.0

1.6675902007301324e6 1.3251681132226923e7 0.0
1.3251681132226923e7 5.558634288436479e6 0.0
0.0 0.0 0.0

-3.6236454664967204e6 1.908419023319185e7 0.0
1.908419023319185e7 1.4365446390496925e6 0.0
0.0 0.0 0.0

-1.2128518161142576e7 2.9508839630617807e6 0.0
2.9508839630617807e6 8.385115157105805e6 0.0
0.0 0.0 0.0

5.514986855842761e6 4.261097194168374e6 0.0
4.261097194168374e6 -2.2205868442552157e7 0.0
0.0 0.0 0.0

-3.9162786843262287e6 1.7951157998066578e7 0.0
1.7951157998066578e7 1.8878079983435317e6 0.0
0.0 0.0 0.0

1.336323150552506e6 1.3802193275649883e7 0.0
1.3802193275649883e7 7.097682399359009e6 0.0
0.0 0.0 0.0

-6.025280227396639e6 1.789047177575225e7 0.0
1.789047177575225e7 5.069895072251896e6 0.0
0.0 0.0 0.0

5.4082489447688665e6 4.512576142319869e6 0.0
4.512576142319869e6 -2.752203952075977e7 0.0
0.0 0.0 0.0

-4.191909194216624e6 1.988044669176414e7 0.0
1.988044669176414e7 3.153253347509864e6 0.0
0.0 0.0 0.0

-819894.355822986 1.502681409654163e7 0.0
1.502681409654163e7 1.7691355737801436e7 0.0
0.0 0.0 0.0

3.410122501644631e6 8.651539703597395e6 0.0
8.651539703597395e6 -1.5487578476723228e7 0.0
0.0 0.0 0.0

-204404.1730537191 1.1507044627874898e7 0.0
1.1507044627874898e7 -8.017981456514973e6 0.0
0.0 0.0 0.0

1.244143255498488e7 1.523484048227311e7 0.0
1.523484048227311e7 -7.066320205618075e6 0.0
0.0 0.0 0.0

-2.214984408526869e6 1.4735747868661858e7 0.0
1.4735747868661858e7 -6.994472220259332e6 0.0
0.0 0.0 0.0

-4.144603874799978e6 2.0279511510443427e6 0.0
2.0279511510443427e6 4.697723524213729e6 0.0
0.0 0.0 0.0

891477.1346620161 5.890534063897121e6 0.0
5.890534063897121e6 -3.527674883677772e6 0.0
0.0 0.0 0.0

5.064842041885933e6 5.040520613692907e6 0.0
5.040520613692907e6 -2.1280604950538576e7 0.0
0.0 0.0 0.0

4.436214829503845e6 7.301589018681575e6 0.0
7.301589018681575e6 -2.3809543953521676e7 0.0
0.0 0.0 0.0

-4.471570147894059e6 1.7614437938508306e7 0.0
1.7614437938508306e7 1.3080287604650557e6 0.0
0.0 0.0 0.0

-2.604282852785756e6 1.5138102332011731e7 0.0
1.5138102332011731e7 1.4567104352427313e7 0.0
0.0 0.0 0.0

1.0208925505395183e7 1.385421656171488e7 0.0
1.385421656171488e7 3.1969472257361743e6 0.0
0.0 0.0 0.0

-1.1212785518439397e7 2.0337885997064789e6 0.0
2.0337885997064789e6 1.3735654871972844e7 0.0
0.0 0.0 0.0

2.7361642396630514e6 1.0080924112842055e7 0.0
1.0080924112842055e7 -2.0624106694254085e7 0.0
0.0 0.0 0.0

-662491.2722808784 1.2643139900568975e7 0.0
1.2643139900568975e7 -2.0501380383081324e7 0.0
0.0 0.0 0.0

-1.047781206509918e6 1.4390788249877438e7 0.0
1.4390788249877438e7 2.7197820267309178e7 0.0
0.0 0.0 0.0

-5.707114112854863e6 1.6765883964809118e7 0.0
1.6765883964809118e7 9.014374488735639e6 0.0
0.0 0.0 0.0

-1.12565637861446e7 1.2141493356171055e7 0.0
1.2141493356171055e7 1.544350576011858e7 0.0
0.0 0.0 0.0

-7.016604127943145e6 9.121971252517244e6 0.0
9.121971252517244e6 9.373449835368652e6 0.0
0.0 0.0 0.0

-176543.4459643159 1.2623724514916858e7 0.0
1.2623724514916858e7 -1.3594729242679015e7 0.0
0.0 0.0 0.0

246828.81194109237 1.3068136224124685e7 0.0
1.3068136224124685e7 -8.63198483990363e6 0.0
0.0 0.0 0.0

1.3422087836687597e6 1.1085413201770095e7 0.0
1.1085413201770095e7 -1.1597029617245741e7 0.0
0.0 0.0 0.0

8.148343063666579e6 1.80920685000283e7 0.0
1.80920685000283e7 -6.766464526311473e6 0.0
0.0 0.0 0.0

-8.795727798801575e6 -6.149805675143085e6 0.0
-6.149805675143085e6 1.7585446336749956e7 0.0
0.0 0.0 0.0

1.1719255828566074e6 1.2869247273075234e7 0.0
1.2869247273075234e7 -3.0677608402740145e6 0.0
0.0 0.0 0.0

-3.5310605875190985e6 2.2196295254129272e7 0.0
2.2196295254129272e7 1.1135042861536841e6 0.0
0.0 0.0 0.0

-5.488361391227156e6 1.6582213634358361e7 0.0
1.6582213634358361e7 9.128213573812772e6 0.0
0.0 0.0 0.0

4.705325324261318e6 4.83948288977578e6 0.0
4.83948288977578e6 -1.4735676699371815e7 0.0
0.0 0.0 0.0

1.3504117355496422e6 6.926966381469953e6 0.0
6.926966381469953e6 -7.456620109087827e6 0.0
0.0 0.0 0.0

-827438.1134755183 1.3432077175995499e7 0.0
1.3432077175995499e7 5.0602666451726975e6 0.0
0.0 0.0 0.0

2.0665471772142379e6 2.8293351717377793e7 0.0
2.8293351717377793e7 -1.3155333782462917e7 0.0
0.0 0.0 0.0

-1.2337213472406434e7 4.592991244152842e6 0.0
4.592991244152842e6 2.7624318136148937e7 0.0
0.0 0.0 0.0

879606.0896274797 1.4425536360269133e7 0.0
1.4425536360269133e7 -6.542788739173782e6 0.0
0.0 0.0 0.0

14819.801997513045 1.328777608026874e7 0.0
1.328777608026874e7 -1.0122546422340464e7 0.0
0.0 0.0 0.0

25633.806994862854 8.816302687677437e6 0.0
8.816302687677437e6 -5.739452186138282e6 0.0
0.0 0.0 0.0

466694.95304035605 5.2630301372153815e6 0.0
5.2630301372153815e6 -4.410598756773929e6 0.0
0.0 0.0 0.0

1.2413659966958761e6 1.5406391273637414e7 0.0
1.5406391273637414e7 -4.881777921364208e6 0.0
0.0 0.0 0.0

-582463.1107659526 1.2803580330490626e7 0.0
1.2803580330490626e7 -1.744818463404789e7 0.0
0.0 0.0 0.0

5.488631588364925e6 4.133821074051245e6 0.0
4.133821074051245e6 -2.522605968263021e7 0.0
0.0 0.0 0.0

-5.985514256500897e6 1.7044704131309327e7 0.0
1.7044704131309327e7 8.330611716320949e6 0.0
0.0 0.0 0.0

3.822329073532562e6 7.881940010696132e6 0.0
7.881940010696132e6 -1.9762718003192466e7 0.0
0.0 0.0 0.0

5.476425903996332e6 4.554426412431886e6 0.0
4.554426412431886e6 -2.8167305077589694e7 0.0
0.0 0.0 0.0

-4.1163735081270374e6 1.5478836435880903e7 0.0
1.5478836435880903e7 8.392751047569662e6 0.0
0.0 0.0 0.0

-4.1810653630262883e6 1.3587408682351066e7 0.0
1.3587408682351066e7 -5.595273546676772e6 0.0
0.0 0.0 0.0

-7.893949120484847e6 4.820873748419768e6 0.0
4.820873748419768e6 1.1178323488257343e7 0.0
0.0 0.0 0.0

-3.9751813198864516e6 1.8851063792571936e7 0.0
1.8851063792571936e7 2.318285270601931e6 0.0
0.0 0.0 0.0

256021.6126223239 8.937822275230272e6 0.0
8.937822275230272e6 -4.454373376536662e6 0.0
0.0 0.0 0.0

-5.236892480416521e6 9.894253895437269e6 0.0
9.894253895437269e6 5.494561909336468e6 0.0
0.0 0.0 0.0

-8.591724676625585e6 -5.578773983599907e6 0.0
-5.578773983599907e6 1.8838118096410025e7 0.0
0.0 0.0 0.0

1.5838207442542287e6 1.1185842112251887e7 0.0
1.1185842112251887e7 -1.087758359273021e7 0.0
0.0 0.0 0.0

-3.405188176752761e6 2.11082331025105e7 0.0
2.11082331025105e7 1.5925799763647665e6 0.0
0.0 0.0 0.0

-4.611736516479019e6 5.692565033364364e6 0.0
5.692565033364364e6 6.138830879188433e6 0.0
0.0 0.0 0.0

3.7866548903595693e6 7.548317238583342e6 0.0
7.548317238583342e6 -2.5825371034892697e7 0.0
0.0 0.0 0.0

-1.2610171958204475e6 9.268128497859031e6 0.0
9.268128497859031e6 -3.623548577610524e6 0.0
0.0 0.0 0.0

1.521663074772954e6 1.5955352144200515e7 0.0
1.5955352144200515e7 7.433013116881734e6 0.0
0.0 0.0 0.0

1.982360517870672e7 1.6308524962333452e7 0.0
1.6308524962333452e7 3.286911376523168e6 0.0
0.0 0.0 0.0

4.1084968215572014e6 6.199684795008761e6 0.0
6.199684795008761e6 -1.368246237294884e7 0.0
0.0 0.0 0.0

-1.5838568214633074e6 1.3028539483706519e7 0.0
1.3028539483706519e7 -2.0522195232006073e7 0.0
0.0 0.0 0.0

4.0546499342016736e6 6.223432858498756e6 0.0
6.223432858498756e6 -1.4232491951247275e7 0.0
0.0 0.0 0.0

4.885971988438963e6 4.824382488576629e6 0.0
4.824382488576629e6 -1.5205416561191536e7 0.0
0.0 0.0 0.0

1.8039304964952976e7 1.1545236505571695e7 0.0
1.1545236505571695e7 -419737.50910607725 0.0
0.0 0.0 0.0

-1.0581647952137375e7 2.4837703690455306e7 0.0
2.4837703690455306e7 5.814517857950255e6 0.0
0.0 0.0 0.0

-86389.81291445252 1.2200563599967081e7 0.0
1.2200563599967081e7 -1.912787402298712e7 0.0
0.0 0.0 0.0

-5.225192459272511e6 1.6787578156423714e7 0.0
1.6787578156423714e7 -1.2670031075898567e6 0.0
0.0 0.0 0.0

5.445697425462527e6 4.597645164804707e6 0.0
4.597645164804707e6 -1.860603446613831e7 0.0
0.0 0.0 0.0

-6.897128958511818e6 1.782762304638117e7 0.0
1.782762304638117e7 5.643102706438748e6 0.0
0.0 0.0 0.0

338240.3909023991 2.1419703551511403e7 0.0
2.1419703551511403e7 -3.39897774078931e6 0.0
0.0 0.0 0.0

-1.2850984534044847e7 5.778115939252542e6 0.0
5.778115939252542e6 2.0672712229082063e7 0.0
0.0 0.0 0.0

-792567.9817190918 2.7728922342266098e7 0.0
2.7728922342266098e7 -7.709388222666204e6 0.0
0.0 0.0 0.0

-427122.5003266152 1.4682826209410619e7 0.0
1.4682826209410619e7 -1.096158886856416e6 0.0
0.0 0.0 0.0

5.49647829308678e6 4.165294733090182e6 0.0
4.165294733090182e6 -2.2769532744163677e7 0.0
0.0 0.0 0.0

1.3520455383437015e7 1.259522488684068e7 0.0
1.259522488684068e7 -1.745514634947992e6 0.0
0.0 0.0 0.0

-4.239264266619569e6 1.522798024060937e7 0.0
1.522798024060937e7 8.422211216737578e6 0.0
0.0 0.0 0.0

4.518102132076769e6 6.201641706024889e6 0.0
6.201641706024889e6 -2.125294096523696e7 0.0
0.0 0.0 0.0

-2.1888568889123276e6 1.7622566617887948e7 0.0
1.7622566617887948e7 -3.203147677769083e6 0.0
0.0 0.0 0.0

411026.67233934766 1.4160902796124982e7 0.0
1.4160902796124982e7 -6.918899512377268e6 0.0
0.0 0.0 0.0

-1.8755611161335865e6 1.389844790306263e7 0.0
1.389844790306263e7 -7.301609663273728e6 0.0
0.0 0.0 0.0

392568.6210513711 1.3439483107345074e7 0.0
1.3439483107345074e7 -8.026654337167066e6 0.0
0.0 0.0 0.0

2.661112939769581e6 1.6053767450019347e7 0.0
1.6053767450019347e7 7.557823455452009e6 0.0
0.0 0.0 0.0

4.1362149211383127e6 6.660018035935621e6 0.0
6.660018035935621e6 -3.435228213878377e7 0.0
0.0 0.0 0.0

-5.46147120700351e6 1.7373694663718656e7 0.0
1.7373694663718656e7 7.91139473887212e6 0.0
0.0 0.0 0.0

1.6276181821504587e6 4.976833737493159e6 0.0
4.976833737493159e6 -4.937367485456507e6 0.0
0.0 0.0 0.0

-1.253566794139218e7 9.418874110304523e6 0.0
9.418874110304523e6 1.7252110256354727e7 0.0
0.0 0.0 0.0

4.753066591522414e6 5.092140898738767e6 0.0
5.092140898738767e6 -1.36939449187722e7 0.0
0.0 0.0 0.0

-9.287490764672255e6 -6.117102724791475e6 0.0
-6.117102724791475e6 2.4041473061328266e7 0.0
0.0 0.0 0.0

1.699888336377916e6 1.172684383652409e7 0.0
1.172684383652409e7 -1.3133574454817127e7 0.0
0.0 0.0 0.0

1.6531883502183422e6 3.8733639051568666e6 0.0
3.8733639051568666e6 -5.224487234390298e6 0.0
0.0 0.0 0.0

1.0277212509706155e6 1.3979739806898935e7 0.0
1.3979739806898935e7 6.8902553243551785e6 0.0
0.0 0.0 0.0

-4.48523165549602e6 1.9664188880899202e7 0.0
1.9664188880899202e7 4.308188179405595e6 0.0
0.0 0.0 0.0

-1.0167172973718707e7 -4.947038766003433e6 0.0
-4.947038766003433e6 2.245148893099888e7 0.0
0.0 0.0 0.0

-2.1727630959385308e6 1.492067860153447e7 0.0
1.492067860153447e7 4.1347389434547676e6 0.0
0.0 0.0 0.0

1.4889685753897198e6 1.6195376171775185e7 0.0
1.6195376171775185e7 -5.4114525300079e6 0.0
0.0 0.0 0.0

-4.403634952175157e6 1.7072409936558977e7 0.0
1.7072409936558977e7 974821.9915569876 0.0
0.0 0.0 0.0

-1.6627143383951732e6 1.6351910542509498e7 0.0
1.6351910542509498e7 -4.38845279979502e6 0.0
0.0 0.0 0.0

-4.0278631213520365e6 1.7261984470167298e7 0.0
1.7261984470167298e7 2.082776112058135e6 0.0
0.0 0.0 0.0

-2.5610053606755016e6 1.223085527428147e7 0.0
1.223085527428147e7 -1.249802091506916e7 0.0
0.0 0.0 0.0

7.223523878003033e6 1.7368552766280442e7 0.0
1.7368552766280442e7 -8.221786792655524e6 0.0
0.0 0.0 0.0

-41391.17927412642 1.2857106242938265e7 0.0
1.2857106242938265e7 -1.0642092889409008e7 0.0
0.0 0.0 0.0

-7.284470488406109e6 1.496636604093388e7 0.0
1.496636604093388e7 1.4017769868616782e7 0.0
0.0 0.0 0.0

-1.7740677337888367e6 1.5426344461931733e7 0.0
1.5426344461931733e7 9.996308932380838e6 0.0
0.0 0.0 0.0

3.0992812622953597e6 8.798166219871767e6 0.0
8.798166219871767e6 -1.499526825325851e7 0.0
0.0 0.0 0.0

-5.616047361498292e6 9.037402367171833e6 0.0
9.037402367171833e6 4.601781848109536e6 0.0
0.0 0.0 0.0

-4.687893703832408e6 2.18773091390503e7 0.0
2.18773091390503e7 3.578284977598192e6 0.0
0.0 0.0 0.0

-7.726565287862569e6 1.4496048331340592e7 0.0
1.4496048331340592e7 1.0642149505599542e7 0.0
0.0 0.0 0.0

-2.5661024479761515e6 2.274586651640133e7 0.0
2.274586651640133e7 1.0394851134345728e6 0.0
0.0 0.0 0.0

1.399271978973833e6 1.1567589932283232e7 0.0
1.1567589932283232e7 -1.3986323114399474e7 0.0
0.0 0.0 0.0

-1.0218459184423044e7 1.8931209142530825e7 0.0
1.8931209142530825e7 -2.8524762900486435e6 0.0
0.0 0.0 0.0

5.500919034884831e6 5.058863671610984e6 0.0
5.058863671610984e6 -2.504589893275402e7 0.0
0.0 0.0 0.0

1.6185270186753229e6 2.26912186584738e7 0.0
2.26912186584738e7 -3.767784114609512e6 0.0
0.0 0.0 0.0

-1.4200390908210887e7 2.1700259173250064e7 0.0
2.1700259173250064e7 9.493136047252389e6 0.0
0.0 0.0 0.0

-2.0560839715562142e6 1.5096323351199947e7 0.0
1.5096323351199947e7 9.183385885948155e6 0.0
0.0 0.0 0.0

-2.396721354366209e7 1.981318497984361e7 0.0
1.981318497984361e7 1.0894549214824686e7 0.0
0.0 0.0 0.0

5.674687187950425e6 4.1378898906764495e6 0.0
4.1378898906764495e6 -2.324742875414645e7 0.0
0.0 0.0 0.0

-7.339500809581927e6 1.4310342206205564e7 0.0
1.4310342206205564e7 1.1762912161175048e7 0.0
0.0 0.0 0.0

-5.090476265590167e6 5.424019728751118e6 0.0
5.424019728751118e6 4.306578070205175e6 0.0
0.0 0.0 0.0

4.632954116568335e6 4.620520337254705e6 0.0
4.620520337254705e6 -1.433098105867271e7 0.0
0.0 0.0 0.0

103507.06179412408 1.4325773636639288e7 0.0
1.4325773636639288e7 -7.861181630027156e6 0.0
0.0 0.0 0.0

-8.637261258695107e6 2.5603626501763638e7 0.0
2.5603626501763638e7 6.589123684277098e6 0.0
0.0 0.0 0.0

-1.280990377483867e7 9.114332301246451e6 0.0
9.114332301246451e6 1.0142077000900399e7 0.0
0.0 0.0 0.0

-2.024144648298803e7 1.832358035546425e7 0.0
1.832358035546425e7 5.852470888233191e6 0.0
0.0 0.0 0.0

1.8185482012789614e7 1.3965883970037322e7 0.0
1.3965883970037322e7 5.307510225218528e6 0.0
0.0 0.0 0.0

-1.580602104255693e6 1.3371209158313125e7 0.0
1.3371209158313125e7 -4.40877957188193e7 0.0
0.0 0.0 0.0

289691.49453224055 1.3444070286333669e7 0.0
1.3444070286333669e7 -9.34731233059953e6 0.0
0.0 0.0 0.0

-7.255577426180819e6 1.4839648636923216e7 0.0
1.4839648636923216e7 1.3826634730561677e7 0.0
0.0 0.0 0.0

-1.43693698646235e6 1.6440084214697592e7 0.0
1.6440084214697592e7 -6.030186171109244e6 0.0
0.0 0.0 0.0

-3.607382286693465e6 1.8641440779057145e7 0.0
1.8641440779057145e7 1.1844128319935065e6 0.0
0.0 0.0 0.0

448852.29411981744 1.3085595186778754e7 0.0
1.3085595186778754e7 3.789198376867745e6 0.0
0.0 0.0 0.0

-2.7285343955264064e6 2.2325126832204316e7 0.0
2.2325126832204316e7 1.1670072180713518e6 0.0
0.0 0.0 0.0

-6.040221622495869e6 5.426759914772816e6 0.0
5.426759914772816e6 7.022226626744192e6 0.0
0.0 0.0 0.0

2.537037011414647e7 1.882151499176804e7 0.0
1.882151499176804e7 5.332678098342585e6 0.0
0.0 0.0 0.0

-2.672201331247694e6 1.8497290680056613e7 0.0
1.8497290680056613e7 -2.9558615771364328e6 0.0
0.0 0.0 0.0

970386.6417648465 1.2855159881408043e7 0.0
1.2855159881408043e7 5.020719596612624e6 0.0
0.0 0.0 0.0

-6.244858113392085e6 1.773878264564929e7 0.0
1.773878264564929e7 2.416696188386106e6 0.0
0.0 0.0 0.0

-4.357035705117491e6 1.3853960245020162e7 0.0
1.3853960245020162e7 1.1455921027220897e7 0.0
0.0 0.0 0.0

-2.357956882222108e6 1.7557397394235548e7 0.0
1.7557397394235548e7 -2.886662487020029e6 0.0
0.0 0.0 0.0

4.257617428705601e6 7.225811539407783e6 0.0
7.225811539407783e6 -1.923372016037739e7 0.0
0.0 0.0 0.0

-5.378069171272184e6 1.6300339617158588e7 0.0
1.6300339617158588e7 4.669319836292767e6 0.0
0.0 0.0 0.0

-3.6519331740045864e6 1.6257657641463477e7 0.0
1.6257657641463477e7 2.265859623664559e6 0.0
0.0 0.0 0.0

1.6615594317702963e6 6.9978469886912955e6 0.0
6.9978469886912955e6 -8.559254112146521e6 0.0
0.0 0.0 0.0

-4.924678216342818e6 1.7016215727421142e7 0.0
1.7016215727421142e7 8.229215795275031e6 0.0
0.0 0.0 0.0

-1.1537132104239456e7 2.247711869935955e6 0.0
2.247711869935955e6 3.095765835353846e7 0.0
0.0 0.0 0.0

-344363.8300744629 9.005895329973452e6 0.0
9.005895329973452e6 -3.2277069017158034e6 0.0
0.0 0.0 0.0

-8.1172065284389015e6 1.7877274257985257e7 0.0
1.7877274257985257e7 442908.4385813987 0.0
0.0 0.0 0.0

1.6466336652527655e7 1.839149216340793e7 0.0
1.839149216340793e7 6.469402265531062e6 0.0
0.0 0.0 0.0

2.028005815587462e6 1.1206800827805927e7 0.0
1.1206800827805927e7 -1.745079950110543e7 0.0
0.0 0.0 0.0

4.884587038836378e6 6.140468831813347e6 0.0
6.140468831813347e6 -2.0000869925658643e7 0.0
0.0 0.0 0.0

3.7731752578083845e6 1.4541502369549697e7 0.0
1.4541502369549697e7 -43323.91275050328 0.0
0.0 0.0 0.0

-6.382787515388466e6 7.188478043335542e6 0.0
7.188478043335542e6 1.349261363003107e7 0.0
0.0 0.0 0.0

-3.7203064983756742e6 1.805473315347675e7 0.0
1.805473315347675e7 1.341902695531904e6 0.0
0.0 0.0 0.0

-2.3203176150985043e6 1.5762008647342619e7 0.0
1.5762008647342619e7 -4.1319379104260392e6 0.0
0.0 0.0 0.0

-2.0543918320290558e6 1.5915671066376304e7 0.0
1.5915671066376304e7 -5.3618753120085355e6 0.0
0.0 0.0 0.0

-556289.7993686188 1.4156165830294585e7 0.0
1.4156165830294585e7 -4.758623545870307e6 0.0
0.0 0.0 0.0

2.0611732882642737e6 7.519643464750134e6 0.0
7.519643464750134e6 -7.777972093198407e6 0.0
0.0 0.0 0.0

1.3396078616772672e7 1.6007012363547524e7 0.0
1.6007012363547524e7 2.4736018500032453e6 0.0
0.0 0.0 0.0

542070.5692226959 1.3323065398214402e7 0.0
1.3323065398214402e7 3.4450499492211025e6 0.0
0.0 0.0 0.0

-4.64474103465026e6 2.1723060032958772e7 0.0
2.1723060032958772e7 4.737838079547513e6 0.0
0.0 0.0 0.0

-2.6015008339394014e7 1.3519123991876492e7 0.0
1.3519123991876492e7 1.0821994317073844e7 0.0
0.0 0.0 0.0

4.502637044713529e6 4.841400202787663e6 0.0
4.841400202787663e6 -1.3114641813154979e7 0.0
0.0 0.0 0.0

-334256.2351863425 1.4366621421519842e7 0.0
1.4366621421519842e7 2.61476816778532e6 0.0
0.0 0.0 0.0

-1.5504233511112477e6 1.1742776307572264e7 0.0
1.1742776307572264e7 -1.190019554566177e7 0.0
0.0 0.0 0.0

584561.6140461853 1.29337868004423e7 0.0
1.29337868004423e7 -1.35721868524637e7 0.0
0.0 0.0 0.0

-7.262468630953564e6 -5.602269943774582e6 0.0
-5.602269943774582e6 1.2200527125828892e7 0.0
0.0 0.0 0.0

1.6406733585800435e6 1.0739869072250923e7 0.0
1.0739869072250923e7 -1.2378060953554884e7 0.0
0.0 0.0 0.0

-3.525417161106906e6 1.3977986186120745e7 0.0
1.3977986186120745e7 -2.4147940280922174e7 0.0
0.0 0.0 0.0

1.931582019170059e6 1.0355361457994297e7 0.0
1.0355361457994297e7 -1.3045946093949415e7 0.0
0.0 0.0 0.0

139003.28285608487 1.475704303854494e7 0.0
1.475704303854494e7 -7.352746406909104e6 0.0
0.0 0.0 0.0

1.5031006461033428e7 1.5635332036499545e7 0.0
1.5635332036499545e7 3.755732902931299e6 0.0
0.0 0.0 0.0

-1.1773005120833285e7 1.014214625594283e7 0.0
1.014214625594283e7 2.150552439842038e7 0.0
0.0 0.0 0.0

-2.2570752373222103e6 1.6862175237004027e7 0.0
1.6862175237004027e7 -4.811840111488815e6 0.0
0.0 0.0 0.0

-252615.3836895919 1.3324288953361692e7 0.0
1.3324288953361692e7 -636048.1772634774 0.0
0.0 0.0 0.0

-4.462224878138314e6 1.5686975880975353e7 0.0
1.5686975880975353e7 -4.725858101446449e6 0.0
0.0 0.0 0.0

1.261394586317213e7 1.7832723897971272e7 0.0
1.7832723897971272e7 6.194942622820891e6 0.0
0.0 0.0 0.0

-5.406709027937494e6 1.70244000676309e7 0.0
1.70244000676309e7 8.583455157309735e6 0.0
0.0 0.0 0.0

1.4065778375023396e6 1.3652664923997704e7 0.0
1.3652664923997704e7 -4.1627631396812173e6 0.0
0.0 0.0 0.0

-3.377060106383371e6 1.9686441405275773e7 0.0
1.9686441405275773e7 890795.5127774607 0.0
0.0 0.0 0.0

-5.522026990975905e6 1.6433114948171165e7 0.0
1.6433114948171165e7 5.430685479635687e6 0.0
0.0 0.0 0.0

-9.34274316227758e6 -298873.42330090364 0.0
-298873.42330090364 4.9463995774538815e7 0.0
0.0 0.0 0.0

-869909.0560992397 1.4816564155236743e7 0.0
1.4816564155236743e7 -8.94212564139986e6 0.0
0.0 0.0 0.0

-4.203316829541387e6 1.954596950414038e7 0.0
1.954596950414038e7 3.237901047075793e6 0.0
0.0 0.0 0.0

868472.0757747946 4.578072013748537e6 0.0
4.578072013748537e6 -2.84677863632141e6 0.0
0.0 0.0 0.0

-1.1758895574417777e7 1.1094242549961906e7 0.0
1.1094242549961906e7 1.6759106567806784e7 0.0
0.0 0.0 0.0

-3.1468000636822535e6 1.3254563751092386e7 0.0
1.3254563751092386e7 -2.360741715152312e6 0.0
0.0 0.0 0.0

4.829791652933605e6 4.869441555686139e6 0.0
4.869441555686139e6 -1.6752263235005632e7 0.0
0.0 0.0 0.0

-4.226326185677563e6 2.215748635146759e7 0.0
2.215748635146759e7 4.0887399443066968e6 0.0
0.0 0.0 0.0

1.968584738708037e6 1.0873259199719565e7 0.0
1.0873259199719565e7 -1.1370095522753766e7 0.0
0.0 0.0 0.0

-8.038455608800015e6 1.3723779882814517e7 0.0
1.3723779882814517e7 1.2688968312134866e7 0.0
0.0 0.0 0.0

4.962045248378873e6 6.151852701281709e6 0.0
6.151852701281709e6 -3.179386906428915e7 0.0
0.0 0.0 0.0

-4.998615844796555e6 2.1432109496677663e7 0.0
2.1432109496677663e7 4.411845047302067e6 0.0
0.0 0.0 0.0

-3.721281561066064e6 1.284967178338741e7 0.0
1.284967178338741e7 -1.5846580168298833e7 0.0
0.0 0.0 0.0

3.5715109486998874e6 4.1437393665882414e6 0.0
4.1437393665882414e6 -9.646703143472861e6 0.0
0.0 0.0 0.0

30504.060167740332 8.585734262941636e6 0.0
8.585734262941636e6 -3.969176741343836e6 0.0
0.0 0.0 0.0

-1.29367334048886e7 2.2125888915095087e7 0.0
2.2125888915095087e7 8.393406113932114e6 0.0
0.0 0.0 0.0

1.5532799688837302e6 1.2983765782279933e7 0.0
1.2983765782279933e7 5.983462443372591e6 0.0
0.0 0.0 0.0

-8.453827933619088e6 2.44215253587177e7 0.0
2.44215253587177e7 5.436855848054159e6 0.0
0.0 0.0 0.0

-1.0589522258530978e7 1.8750927162732342e6 0.0
1.8750927162732342e6 1.587086502377446e7 0.0
0.0 0.0 0.0

3.9881880527769756e6 8.37196631241514e6 0.0
8.37196631241514e6 -3.492942275853008e7 0.0
0.0 0.0 0.0

3.472193113583163e7 1.2636059833329761e7 0.0
1.2636059833329761e7 -5.859120117458263e6 0.0
0.0 0.0 0.0

-3.7833463712824523e6 1.8521862819057494e7 0.0
1.8521862819057494e7 1.6179455159457752e6 0.0
0.0 0.0 0.0

-5.619105898585956e6 1.9689727988159955e7 0.0
1.9689727988159955e7 6.235707564706376e6 0.0
0.0 0.0 0.0

-4.72361224051337e6 1.764374347379576e7 0.0
1.764374347379576e7 4.204910782159255e6 0.0
0.0 0.0 0.0

-203001.0190072935 1.5897505805683555e7 0.0
1.5897505805683555e7 2.9776641643554688e7 0.0
0.0 0.0 0.0

4.917328688736669e6 4.933460499801319e6 0.0
4.933460499801319e6 -1.9107233483406797e7 0.0
0.0 0.0 0.0

424058.49537952244 1.0257948855419077e7 0.0
1.0257948855419077e7 -5.937455694674328e6 0.0
0.0 0.0 0.0

-1.052722106826066e6 2.1545088556170493e7 0.0
2.1545088556170493e7 -2.61524953023213e6 0.0
0.0 0.0 0.0

3.1355030534053333e6 9.000355106022071e6 0.0
9.000355106022071e6 -2.180174423484085e7 0.0
0.0 0.0 0.0

-1.6732294099651452e7 1.0697079281017598e7 0.0
1.0697079281017598e7 1.0479190858608818e7 0.0
0.0 0.0 0.0

-3.80939107755721e6 1.6232064978605e7 0.0
1.6232064978605e7 1.537548201009549e6 0.0
0.0 0.0 0.0

-304358.4486717022 1.1625629832205877e7 0.0
1.1625629832205877e7 1.8364599566022516e6 0.0
0.0 0.0 0.0

2.2411394760601716e6 1.0514310874049721e7 0.0
1.0514310874049721e7 -1.2054063872556627e7 0.0
0.0 0.0 0.0

-1.833655731150805e6 1.5686205823157728e7 0.0
1.5686205823157728e7 1.5935126335430581e7 0.0
0.0 0.0 0.0

1.8647444928857428e6 2.1402020693161618e7 0.0
2.1402020693161618e7 -4.593429024477297e6 0.0
0.0 0.0 0.0

-3.03125489006188e7 -215387.58840673955 0.0
-215387.58840673955 9.609126340571335e6 0.0
0.0 0.0 0.0

1.6057509406887691e7 2.533701627957612e7 0.0
2.533701627957612e7 -1.2710422658489618e7 0.0
0.0 0.0 0.0

877348.5649636232 2.1890968054535475e7 0.0
2.1890968054535475e7 -5.430530726982986e6 0.0
0.0 0.0 0.0

4.247066219845479e6 4.910623038117955e6 0.0
4.910623038117955e6 -1.2579839760217894e7 0.0
0.0 0.0 0.0

-4.7554495340673635e6 1.9618410252035826e7 0.0
1.9618410252035826e7 3.421973059742213e6 0.0
0.0 0.0 0.0

1.92856492214774e7 1.1555329081524933e7 0.0
1.1555329081524933e7 -173502.82104785834 0.0
0.0 0.0 0.0

-1.1543741122269258e7 4.771054292879989e6 0.0
4.771054292879989e6 3.3027321253213547e7 0.0
0.0 0.0 0.0

-953575.8587167375 1.4948844430141633e7 0.0
1.4948844430141633e7 -8.493312716575671e6 0.0
0.0 0.0 0.0

1.0873906890866065e7 1.426991859905985e7 0.0
1.426991859905985e7 3.249829951190739e6 0.0
0.0 0.0 0.0

425206.84411021275 1.4643868058335263e7 0.0
1.4643868058335263e7 -8.279450407421135e6 0.0
0.0 0.0 0.0

5.231390891599745e6 5.085369925417514e6 0.0
5.085369925417514e6 -2.025381237198371e7 0.0
0.0 0.0 0.0

-3.431313649281357e6 1.831548460729238e7 0.0
1.831548460729238e7 422870.2061828666 0.0
0.0 0.0 0.0

-1.0633522473624377e6 1.185704584844957e7 0.0
1.185704584844957e7 -1.1310330131460441e7 0.0
0.0 0.0 0.0

-2.782318344303381e6 1.9383381187538117e7 0.0
1.9383381187538117e7 -1.8291130202023082e6 0.0
0.0 0.0 0.0

-1.048088532705123e7 7.119232600091907e6 0.0
7.119232600091907e6 3.47189939447914e7 0.0
0.0 0.0 0.0

406037.1253672829 1.2572349611299494e7 0.0
1.2572349611299494e7 -7.79113770744059e6 0.0
0.0 0.0 0.0

3.219316304113133e6 8.585717745948335e6 0.0
8.585717745948335e6 -1.6083449477787621e7 0.0
0.0 0.0 0.0

273943.42421307135 1.6554841982565487e7 0.0
1.6554841982565487e7 -5.694551483860888e6 0.0
0.0 0.0 0.0

-846764.4651231417 1.1928614671361517e7 0.0
1.1928614671361517e7 -7.072091795910096e6 0.0
0.0 0.0 0.0

-1.1196940031961909e7 -299009.1409366178 0.0
-299009.1409366178 3.0930306889596224e7 0.0
0.0 0.0 0.0

-3.118702928975082e6 1.5698642340600617e7 0.0
1.5698642340600617e7 1.2801591000278898e7 0.0
0.0 0.0 0.0

3.229512405785245e6 8.821946237439534e6 0.0
8.821946237439534e6 -2.312485454473844e7 0.0
0.0 0.0 0.0

-2.2030372221250893e6 1.921741345914852e7 0.0
1.921741345914852e7 -1.8763383545986437e6 0.0
0.0 0.0 0.0

-1.9510383390035857e6 1.5404353309844783e7 0.0
1.5404353309844783e7 1.0000017711736742e7 0.0
0.0 0.0 0.0

3.8539276519392114e6 7.919039844394005e6 0.0
7.919039844394005e6 -1.5694193684681173e7 0.0
0.0 0.0 0.0

2.628735112903859e7 1.596820776178142e7 0.0
1.596820776178142e7 4.709745289076338e6 0.0
0.0 0.0 0.0

-2.3521352330779764e6 1.8853489022239834e7 0.0
1.8853489022239834e7 -1.9700007092248967e6 0.0
0.0 0.0 0.0

-8.065128668170554e6 -5.818882070073615e6 0.0
-5.818882070073615e6 1.6083015110391565e7 0.0
0.0 0.0 0.0

-1.203539261627349e7 -224331.30675532483 0.0
-224331.30675532483 2.8138390398608096e7 0.0
0.0 0.0 0.0

5.372345445070705e6 3.9534709353500274e6 0.0
3.9534709353500274e6 -1.74394681007899e7 0.0
0.0 0.0 0.0

-5.293806318161033e6 1.7301218126036476e7 0.0
1.7301218126036476e7 3.733998864669627e6 0.0
0.0 0.0 0.0

-707780.7104867415 1.37970915092262e7 0.0
1.37970915092262e7 -5.162622134775161e6 0.0
0.0 0.0 0.0

-1.4859230531331387e6 1.6077838783290911e7 0.0
1.6077838783290911e7 -6.87909230801282e6 0.0
0.0 0.0 0.0

-7.7450626100611305e6 -630689.8875830866 0.0
-630689.8875830866 1.1737596207814943e7 0.0
0.0 0.0 0.0

-1.799954091624279e6 1.6191491535086606e7 0.0
1.6191491535086606e7 -4.394556544788752e6 0.0
0.0 0.0 0.0

-1.1299615136870414e7 -457324.9406881869 0.0
-457324.9406881869 3.0488111067082025e7 0.0
0.0 0.0 0.0

3.7226671316426317e6 1.373296256328828e7 0.0
1.373296256328828e7 1.7293951535117822e6 0.0
0.0 0.0 0.0

2.6453147708530417e6 1.0085545423197713e7 0.0
1.0085545423197713e7 -2.2051549175972678e7 0.0
0.0 0.0 0.0

3.689521137363091e6 8.70817065116811e6 0.0
8.70817065116811e6 -2.302123290283417e7 0.0
0.0 0.0 0.0

-1.2204331311268058e7 1.0901370037746163e7 0.0
1.0901370037746163e7 1.746628203903889e7 0.0
0.0 0.0 0.0

-4.513591884041309e6 1.4596000959357059e7 0.0
1.4596000959357059e7 3.3009373368593515e6 0.0
0.0 0.0 0.0

1.2980506384206684e6 4.982816574426062e6 0.0
4.982816574426062e6 -3.973916677679551e6 0.0
0.0 0.0 0.0

303731.3793504019 1.2994906046821015e7 0.0
1.2994906046821015e7 -7.123441105383489e6 0.0
0.0 0.0 0.0

-5.042013538968474e6 1.9037075462455053e7 0.0
1.9037075462455053e7 6.065370289993741e6 0.0
0.0 0.0 0.0

480707.12114469334 1.585713670825529e7 0.0
1.585713670825529e7 2.0146868553174127e7 0.0
0.0 0.0 0.0

4.477414816626889e6 1.6166847918540653e7 0.0
1.6166847918540653e7 -4.4555314165695645e6 0.0
0.0 0.0 0.0

-8.689897466523506e6 -799021.6396107717 0.0
-799021.6396107717 4.790993533022319e7 0.0
0.0 0.0 0.0

-1.1525850150364522e7 6.258190602536329e6 0.0
6.258190602536329e6 2.686151969339603e7 0.0
0.0 0.0 0.0

-1.0258878110215914e7 1.0297411926275032e7 0.0
1.0297411926275032e7 1.4074595737488832e7 0.0
0.0 0.0 0.0

-390555.1194653895 1.2704836778429283e7 0.0
1.2704836778429283e7 4.391759812206553e6 0.0
0.0 0.0 0.0

-5.304913245413699e6 3.7574554148539975e6 0.0
3.7574554148539975e6 6.74492825121511e6 0.0
0.0 0.0 0.0

-8.530786630018234e6 1.5547485662165577e7 0.0
1.5547485662165577e7 2.736290572389079e6 0.0
0.0 0.0 0.0

5.154759494935162e6 5.415872246501056e6 0.0
5.415872246501056e6 -1.8316510111114863e7 0.0
0.0 0.0 0.0

-2.477938788690717e6 1.3326806572083237e7 0.0
1.3326806572083237e7 -2.144924782911633e7 0.0
0.0 0.0 0.0

62532.201389357564 1.3339185527986301e7 0.0
1.3339185527986301e7 2.252350893260659e6 0.0
0.0 0.0 0.0

4.720044732854654e6 1.9639151358170968e7 0.0
1.9639151358170968e7 -7.9537920439805e6 0.0
0.0 0.0 0.0

637914.2936030626 1.4985003196520416e7 0.0
1.4985003196520416e7 -6.995817780353202e6 0.0
0.0 0.0 0.0

-1.0006617633898364e7 1.8545593694204126e7 0.0
1.8545593694204126e7 -1.3703373661549643e6 0.0
0.0 0.0 0.0

-3.9148543995261025e6 1.890226261898745e7 0.0
1.890226261898745e7 607955.0572495037 0.0
0.0 0.0 0.0

-16377.203248226782 6.216667965317533e6 0.0
6.216667965317533e6 -4.037552968836361e6 0.0
0.0 0.0 0.0

-7.253920206570016e6 2.5036625198463425e7 0.0
2.5036625198463425e7 6.437508754378342e6 0.0
0.0 0.0 0.0

-4.282920543474907e6 1.4917503371504843e7 0.0
1.4917503371504843e7 2.569870601453308e6 0.0
0.0 0.0 0.0

-8.575108320513379e6 5.175951675691001e6 0.0
5.175951675691001e6 9.028483287261592e6 0.0
0.0 0.0 0.0

-4.611879853228407e6 1.4753820729049988e7 0.0
1.4753820729049988e7 1.2588463725130963e6 0.0
0.0 0.0 0.0

-520817.8478104608 3.993545679109749e6 0.0
3.993545679109749e6 -1.5560152883407904e6 0.0
0.0 0.0 0.0

-441149.82787252194 7.674491049163494e6 0.0
7.674491049163494e6 -7.107144551792356e6 0.0
0.0 0.0 0.0

2.5271157682740605e6 1.0396167801290497e7 0.0
1.0396167801290497e7 -1.960756922881844e7 0.0
0.0 0.0 0.0

-3.5850329081218657e6 1.6801165397900652e7 0.0
1.6801165397900652e7 -3.4116537734160027e6 0.0
0.0 0.0 0.0

-6.817053177198778e6 1.491865640056316e7 0.0
1.491865640056316e7 1.3422647707771871e7 0.0
0.0 0.0 0.0

-588363.3446312569 1.371244782826785e7 0.0
1.371244782826785e7 -3.9607457485582875e6 0.0
0.0 0.0 0.0

3.3508453642611816e6 4.830815687983242e6 0.0
4.830815687983242e6 -9.773180012963755e6 0.0
0.0 0.0 0.0

-3.058936472482062e6 1.7207291392534487e7 0.0
1.7207291392534487e7 -2.3202316880611405e6 0.0
0.0 0.0 0.0

-3.63527372768197e6 1.9527700921069e7 0.0
1.9527700921069e7 197983.4980645203 0.0
0.0 0.0 0.0

776722.2297470588 1.627758950772349e7 0.0
1.627758950772349e7 -5.294472540688992e6 0.0
0.0 0.0 0.0

-9.199469537475005e6 6.9003063831951115e6 0.0
6.9003063831951115e6 1.0249409125804385e7 0.0
0.0 0.0 0.0

-23962.284356279764 1.268065979689521e7 0.0
1.268065979689521e7 -1.2771954163379377e7 0.0
0.0 0.0 0.0

-5.89686384576693e6 2.226541585898261e7 0.0
2.226541585898261e7 5.01403461771684e6 0.0
0.0 0.0 0.0

-5.3313120539768245e6 2.1855420922332358e7 0.0
2.1855420922332358e7 4.683990346110489e6 0.0
0.0 0.0 0.0

216869.54597414285 1.2027267482824722e7 0.0
1.2027267482824722e7 -1.803336256601398e7 0.0
0.0 0.0 0.0

-1.0459074833595403e6 1.2098581900611512e7 0.0
1.2098581900611512e7 -8.60800924298361e6 0.0
0.0 0.0 0.0

-219222.71464954037 1.3779876785519343e7 0.0
1.3779876785519343e7 1.8529383009724817e6 0.0
0.0 0.0 0.0

3.579759146643876e6 8.264090607013943e6 0.0
8.264090607013943e6 -1.8938467485767633e7 0.0
0.0 0.0 0.0

-1.2250619697561713e7 6.8374329006041745e6 0.0
6.8374329006041745e6 2.2065680673965834e7 0.0
0.0 0.0 0.0

2.4945817792072967e6 1.0745388800653787e7 0.0
1.0745388800653787e7 -3.574304005164197e7 0.0
0.0 0.0 0.0

-424360.0853992654 2.3602767464333642e7 0.0
2.3602767464333642e7 -5.211412251286139e6 0.0
0.0 0.0 0.0

2.0260174535236298e6 1.4051828447027026e7 0.0
1.4051828447027026e7 1.1048168930187149e7 0.0
0.0 0.0 0.0

-1.2666380159668783e6 1.5010731624096906e7 0.0
1.5010731624096906e7 1.7574401076753452e7 0.0
0.0 0.0 0.0

8.455245855689092e6 1.651666473635551e7 0.0
1.651666473635551e7 6.398342291565148e6 0.0
0.0 0.0 0.0

-642905.0233103312 1.2094138417257765e7 0.0
1.2094138417257765e7 1.1775197041849918e6 0.0
0.0 0.0 0.0

-2.799604881379399e6 1.7017184104587056e7 0.0
1.7017184104587056e7 -2.1488994116064124e6 0.0
0.0 0.0 0.0

-1.4905895853212653e7 1.7686953009828433e7 0.0
1.7686953009828433e7 -1.8360143041048916e6 0.0
0.0 0.0 0.0

-227081.97301373893 1.1471684580620795e7 0.0
1.1471684580620795e7 -293722.61392146174 0.0
0.0 0.0 0.0

-2.4141108748147488e6 1.5694027704323867e7 0.0
1.5694027704323867e7 2.8468772540645376e6 0.0
0.0 0.0 0.0

5.101351719277683e6 4.937165119239659e6 0.0
4.937165119239659e6 -1.5742034346510451e7 0.0
0.0 0.0 0.0

-8.89553455617364e6 1.6574144400634706e7 0.0
1.6574144400634706e7 4.106017174396665e6 0.0
0.0 0.0 0.0

-1.342611110606385e7 2.580483374378955e7 0.0
2.580483374378955e7 7.6332826949893795e6 0.0
0.0 0.0 0.0

-9.093176249867395e6 -690133.0111115122 0.0
-690133.0111115122 1.4573776960304437e7 0.0
0.0 0.0 0.0

1.5333801196322644e6 2.045894668187416e7 0.0
2.045894668187416e7 -5.0736575663583735e6 0.0
0.0 0.0 0.0

-8.42724767081159e6 7.655688388233811e6 0.0
7.655688388233811e6 5.168017370123858e7 0.0
0.0 0.0 0.0

-7.852091665241107e6 -5.862769584994197e6 0.0
-5.862769584994197e6 1.4425696266128115e7 0.0
0.0 0.0 0.0

-5.617809372763069e6 1.517717452408067e7 0.0
1.517717452408067e7 -2.6455426799373727e7 0.0
0.0 0.0 0.0

496110.88512771437 1.3806929817275846e7 0.0
1.3806929817275846e7 -8.747196880634464e6 0.0
0.0 0.0 0.0

-3.555365922012642e6 2.0085564683532387e7 0.0
2.0085564683532387e7 1.1481530127074718e6 0.0
0.0 0.0 0.0

-6.816318913625589e6 1.3779574138533983e7 0.0
1.3779574138533983e7 -294283.4533646533 0.0
0.0 0.0 0.0

-11385.37263461668 8.193134916687086e6 0.0
8.193134916687086e6 -3.5068544841863317e6 0.0
0.0 0.0 0.0

-3.730967882088335e6 1.8129907497455794e7 0.0
1.8129907497455794e7 -382045.11665335216 0.0
0.0 0.0 0.0

-4.529491859815659e6 2.1343842354483765e7 0.0
2.1343842354483765e7 4.245259165420738e6 0.0
0.0 0.0 0.0

-3.449548344458764e6 2.0151866609379113e7 0.0
2.0151866609379113e7 1.0144643348435531e6 0.0
0.0 0.0 0.0

1.1967684444264509e6 1.0153930059775446e7 0.0
1.0153930059775446e7 -4.019520632728815e7 0.0
0.0 0.0 0.0

-3.135010518319033e6 1.3606529883503018e7 0.0
1.3606529883503018e7 -5.768828760902159e6 0.0
0.0 0.0 0.0

-1.037500314727482e7 -454766.59686840896 0.0
-454766.59686840896 3.754975716162389e7 0.0
0.0 0.0 0.0

4.988114880667962e6 1.7979510482733507e7 0.0
1.7979510482733507e7 3.417971320021686e7 0.0
0.0 0.0 0.0

-3.4201101498857066e7 110251.65534484734 0.0
110251.65534484734 1.009971685344425e7 0.0
0.0 0.0 0.0

1.6669216181430211e7 1.5983787110898223e7 0.0
1.5983787110898223e7 -4.9995151432679435e6 0.0
0.0 0.0 0.0

1.6923877714558449e6 1.180168694956486e7 0.0
1.180168694956486e7 -1.690733587623253e7 0.0
0.0 0.0 0.0

2.3226711218595486e6 5.598472851862387e6 0.0
5.598472851862387e6 -6.975201271487292e6 0.0
0.0 0.0 0.0

2.379249897911492e7 1.515960877208826e7 0.0
1.515960877208826e7 -9.43441050418522e6 0.0
0.0 0.0 0.0

2.5531511296885707e6 9.662737926707445e6 0.0
9.662737926707445e6 -7.933476719394131e6 0.0
0.0 0.0 0.0

1.1277908230373526e7 1.613362832339719e7 0.0
1.613362832339719e7 5.727905966534903e6 0.0
0.0 0.0 0.0

-4.109124853427437e6 1.8792010635891855e7 0.0
1.8792010635891855e7 955658.6791339146 0.0
0.0 0.0 0.0

-5.400968938437402e6 1.933723815548206e7 0.0
1.933723815548206e7 6.256731481173592e6 0.0
0.0 0.0 0.0

-382802.1731464965 1.0518164425014695e7 0.0
1.0518164425014695e7 -6.344694021220929e6 0.0
0.0 0.0 0.0

-8.097612950202117e6 9.096609609158691e6 0.0
9.096609609158691e6 793454.0107977614 0.0
0.0 0.0 0.0

-2.0191498565351781e6 1.2430219944881985e7 0.0
1.2430219944881985e7 -1.21623002889451e7 0.0
0.0 0.0 0.0

-1.8790169724415198e6 1.515002534906943e7 0.0
1.515002534906943e7 4.174017765495751e6 0.0
0.0 0.0 0.0

-1.0120000786186601e6 1.3925918666680448e7 0.0
1.3925918666680448e7 6.680058643988429e6 0.0
0.0 0.0 0.0

-9.060889905061768e6 6.414401087806389e6 0.0
6.414401087806389e6 4.7781716494709834e7 0.0
0.0 0.0 0.0

-4.24872595933273e6 1.775889583286715e7 0.0
1.775889583286715e7 831998.4098936855 0.0
0.0 0.0 0.0

5.386936691178047e6 3.963943942859297e6 0.0
3.963943942859297e6 -1.757258636111395e7 0.0
0.0 0.0 0.0

-4.866344334836564e6 1.5717818251988363e7 0.0
1.5717818251988363e7 9.355304810800029e6 0.0
0.0 0.0 0.0

-1.5325165768148848e6 1.4028320646413548e7 0.0
1.4028320646413548e7 7.51847380476477e6 0.0
0.0 0.0 0.0

3.8277391460114755e6 1.7272445418521676e7 0.0
1.7272445418521676e7 -5.872606582408436e6 0.0
0.0 0.0 0.0

-2.534650891363373e6 1.7238598813262347e7 0.0
1.7238598813262347e7 -4.247531785394275e6 0.0
0.0 0.0 0.0

-5.477542243746452e6 2.305519780985883e7 0.0
2.305519780985883e7 4.303879533152609e6 0.0
0.0 0.0 0.0

-591647.7109659361 6.5195838229460865e6 0.0
6.5195838229460865e6 -3.319633242212736e6 0.0
0.0 0.0 0.0

-9.417711492765907e6 2.214059087456174e7 0.0
2.214059087456174e7 6.973682324807972e6 0.0
0.0 0.0 0.0

-4.301443842824034e6 1.944059276653495e7 0.0
1.944059276653495e7 3.692722382519868e6 0.0
0.0 0.0 0.0

-1.0247817756003698e7 1.154590301457263e7 0.0
1.154590301457263e7 1.389759130964202e7 0.0
0.0 0.0 0.0

1.2976203286834685e7 1.5712714995421e7 0.0
1.5712714995421e7 -6.491376425890255e6 0.0
0.0 0.0 0.0

19865.49709187867 1.3923239840361767e7 0.0
1.3923239840361767e7 -9.152822872810718e6 0.0
0.0 0.0 0.0

-4.279093945549842e6 1.8680171601210155e7 0.0
1.8680171601210155e7 1.3805103168934647e6 0.0
0.0 0.0 0.0

-71716.42080743797 9.761940105664747e6 0.0
9.761940105664747e6 -6.646441865835583e6 0.0
0.0 0.0 0.0

-2.4535375875175917e6 1.5039708713197714e7 0.0
1.5039708713197714e7 6.941950100592898e6 0.0
0.0 0.0 0.0

-9.765129190268734e6 7.258415718186308e6 0.0
7.258415718186308e6 2.959131076177784e6 0.0
0.0 0.0 0.0

-9.142694677677775e6 1.5821502122497492e7 0.0
1.5821502122497492e7 3.874081184126702e6 0.0
0.0 0.0 0.0

231173.01854903623 1.3815219122904753e7 0.0
1.3815219122904753e7 -8.588935205625929e6 0.0
0.0 0.0 0.0

1.564778425389331e6 1.2805594147857547e7 0.0
1.2805594147857547e7 4.531075058576888e6 0.0
0.0 0.0 0.0

124318.98133800132 1.356788356568975e7 0.0
1.356788356568975e7 -1.188684059669817e7 0.0
0.0 0.0 0.0

-7.424132192459099e6 1.4819981708679542e7 0.0
1.4819981708679542e7 1.3219514042410932e7 0.0
0.0 0.0 0.0

-1.4996785382663209e7 1.222492885294256e7 0.0
1.222492885294256e7 7.4772675744505795e6 0.0
0.0 0.0 0.0

-1.8693666531396485e6 1.5041722745609714e7 0.0
1.5041722745609714e7 1.3260428606923306e6 0.0
0.0 0.0 0.0

-1.1827245642999025e7 2.5834820061836434e6 0.0
2.5834820061836434e6 1.4650680638119068e7 0.0
0.0 0.0 0.0

-844111.2076023542 1.4736140917591933e7 0.0
1.4736140917591933e7 8.187283669848938e6 0.0
0.0 0.0 0.0

2.2186535868681883e6 2.1852673756297234e7 0.0
2.1852673756297234e7 -7.003210286546351e6 0.0
0.0 0.0 0.0

-2.74481605287811e7 1.6706919076107966e7 0.0
1.6706919076107966e7 8.449789558444161e6 0.0
0.0 0.0 0.0

-1.112887598126825e6 2.554337279682199e7 0.0
2.554337279682199e7 -2.1866339097068706e6 0.0
0.0 0.0 0.0

-8.258436584981361e6 1.6806497364878666e7 0.0
1.6806497364878666e7 903742.6805283693 0.0
0.0 0.0 0.0

-2.1247736589415907e6 2.377269169181163e7 0.0
2.377269169181163e7 252193.6584116111 0.0
0.0 0.0 0.0

-1.0575139758128744e7 90953.86485635792 0.0
90953.86485635792 1.335074532827735e7 0.0
0.0 0.0 0.0

5.001540749654859e6 1.6769507152064878e7 0.0
1.6769507152064878e7 -5.0729629621323515e6 0.0
0.0 0.0 0.0

-4.940725827151658e6 2.2132716713481393e7 0.0
2.2132716713481393e7 5.112481483576799e6 0.0
0.0 0.0 0.0

-2.7337330759784426e6 1.5538123580330234e7 0.0
1.5538123580330234e7 196472.29474627483 0.0
0.0 0.0 0.0

786566.6654291833 1.2758308149548363e7 0.0
1.2758308149548363e7 -1.4557186448270697e7 0.0
0.0 0.0 0.0

-5.980619140053283e6 2.05876430702184e7 0.0
2.05876430702184e7 6.122051694870975e6 0.0
0.0 0.0 0.0

-6.546023995587039e6 1.3392297320440827e7 0.0
1.3392297320440827e7 3.243813585641034e6 0.0
0.0 0.0 0.0

-2.694046324640095e6 2.3570110718395524e7 0.0
2.3570110718395524e7 -1.5033869838829509e6 0.0
0.0 0.0 0.0

-1.1510939897614952e7 2.2315471166593768e7 0.0
2.2315471166593768e7 8.363859031689511e6 0.0
0.0 0.0 0.0

3.068519751886427e6 1.69265320099202e7 0.0
1.69265320099202e7 -5.467143771071965e6 0.0
0.0 0.0 0.0

3.980099329285403e6 5.910131096926047e6 0.0
5.910131096926047e6 -1.143440281829598e7 0.0
0.0 0.0 0.0

-1.81898882811693e6 1.3085729604374273e7 0.0
1.3085729604374273e7 -1.863786189449087e7 0.0
0.0 0.0 0.0

3.389463543007579e6 4.699712814503105e6 0.0
4.699712814503105e6 -1.0364249077893842e7 0.0
0.0 0.0 0.0

605537.6897642743 1.463305224857273e7 0.0
1.463305224857273e7 1.0813162485412365e7 0.0
0.0 0.0 0.0

1.954517850318597e6 1.5361115698449079e7 0.0
1.5361115698449079e7 -4.841693445808373e6 0.0
0.0 0.0 0.0

21988.404579932103 2.061244204924044e7 0.0
2.061244204924044e7 -4.082363211423484e6 0.0
0.0 0.0 0.0

-1.218172438274841e7 1.1729961788971301e7 0.0
1.1729961788971301e7 1.62477840180263e7 0.0
0.0 0.0 0.0

101914.16794378217 1.0962093889019566e7 0.0
1.0962093889019566e7 -5.673622073890973e6 0.0
0.0 0.0 0.0

-1.443282055756212e6 5.355859501645894e6 0.0
5.355859501645894e6 5.576578395038682e6 0.0
0.0 0.0 0.0

3.1114543690429814e6 9.324539366644904e6 0.0
9.324539366644904e6 -3.0395103599271685e7 0.0
0.0 0.0 0.0

372361.3759966832 1.2293990611327702e7 0.0
1.2293990611327702e7 1.7038181954122721e6 0.0
0.0 0.0 0.0

-1.0909518787875654e7 2.0304517971955493e7 0.0
2.0304517971955493e7 6.857339264848248e6 0.0
0.0 0.0 0.0

217049.49602510594 1.274567765214398e7 0.0
1.274567765214398e7 -9.33224228261772e6 0.0
0.0 0.0 0.0

1.0001981521858294e7 1.4671040849249618e7 0.0
1.4671040849249618e7 841972.2048795377 0.0
0.0 0.0 0.0

-1.1568953941965614e7 1.8401344600348677e6 0.0
1.8401344600348677e6 1.9079966857821476e7 0.0
0.0 0.0 0.0

-2.045552019785738e7 1.7630756102199327e7 0.0
1.7630756102199327e7 6.005533540758127e6 0.0
0.0 0.0 0.0

1.0392871490337249e7 2.136463564792233e7 0.0
2.136463564792233e7 -1.4339426796487913e7 0.0
0.0 0.0 0.0

-5.364837715511125e6 1.9458427308296226e7 0.0
1.9458427308296226e7 6.773576829283129e6 0.0
0.0 0.0 0.0

-721453.8871204138 1.0309406621144345e7 0.0
1.0309406621144345e7 485594.4055019505 0.0
0.0 0.0 0.0

-1.148918827483967e7 1.1646631504599052e7 0.0
1.1646631504599052e7 1.8569055825358048e7 0.0
0.0 0.0 0.0

-9.240236437749933e6 -5.312350658653928e6 0.0
-5.312350658653928e6 1.6501861153583225e7 0.0
0.0 0.0 0.0

-290677.80761864735 1.3724444800098144e7 0.0
1.3724444800098144e7 -9.986452516262073e6 0.0
0.0 0.0 0.0

-4.681209988075672e6 1.8755301707074296e7 0.0
1.8755301707074296e7 -3.920755792144007e6 0.0
0.0 0.0 0.0

-652433.2104889401 1.3898993453892268e7 0.0
1.3898993453892268e7 -6.521839751561141e6 0.0
0.0 0.0 0.0

-1.0734797292346528e7 7.387261909741749e6 0.0
7.387261909741749e6 3.1479303204420634e7 0.0
0.0 0.0 0.0

1.8359438074227534e6 1.1261981374124182e7 0.0
1.1261981374124182e7 -1.6737270484042274e7 0.0
0.0 0.0 0.0

-5.734578686336068e6 1.8851318996918906e7 0.0
1.8851318996918906e7 -3.3984084113721875e6 0.0
0.0 0.0 0.0

928782.8237813823 1.2525821244909508e7 0.0
1.2525821244909508e7 -1.4456781409216553e7 0.0
0.0 0.0 0.0

9.303004869946724e6 1.4948343656719271e7 0.0
1.4948343656719271e7 4.509721713754497e6 0.0
0.0 0.0 0.0

-1.148295318490425e7 5.519728314700653e6 0.0
5.519728314700653e6 2.891532057427926e7 0.0
0.0 0.0 0.0

1.0509333439907555e6 1.341671285872364e7 0.0
1.341671285872364e7 -2.4522358641422046e6 0.0
0.0 0.0 0.0

-4.620310822494665e6 1.5370239492538374e7 0.0
1.5370239492538374e7 1.0374109658421012e7 0.0
0.0 0.0 0.0

-1.9965555927861207e6 1.9667436753914338e7 0.0
1.9667436753914338e7 -1.936187360669428e6 0.0
0.0 0.0 0.0

3.8307140568192704e6 8.391940575853469e6 0.0
8.391940575853469e6 -1.667593215631752e7 0.0
0.0 0.0 0.0

2.1316016279510087e6 7.905441493978219e6 0.0
7.905441493978219e6 -8.098524052600056e6 0.0
0.0 0.0 0.0

2.9059079717730787e6 9.508995074234134e6 0.0
9.508995074234134e6 -2.6856624237771846e7 0.0
0.0 0.0 0.0

-3.714807265392242e6 1.6782363415739648e7 0.0
1.6782363415739648e7 -1.9297174961992828e6 0.0
0.0 0.0 0.0

-1.2675316278665794e7 4.990179054707815e6 0.0
4.990179054707815e6 2.535775877860427e7 0.0
0.0 0.0 0.0

-2.9351505817485917e6 1.678590894591112e7 0.0
1.678590894591112e7 -3.369560551544153e6 0.0
0.0 0.0 0.0

-324938.4991971329 1.330811064768089e7 0.0
1.330811064768089e7 -6.8195119268482e6 0.0
0.0 0.0 0.0

3.7757599911617488e6 7.797574673207951e6 0.0
7.797574673207951e6 -2.4579665188429378e7 0.0
0.0 0.0 0.0

-1.2008371645279452e7 1.0413605558680773e7 0.0
1.0413605558680773e7 2.0215916048428066e7 0.0
0.0 0.0 0.0

782985.8434533477 1.3431500653925948e7 0.0
1.3431500653925948e7 4.46392808174134e6 0.0
0.0 0.0 0.0

2.100888414221923e6 1.0352214767347975e7 0.0
1.0352214767347975e7 -2.1055689674118217e7 0.0
0.0 0.0 0.0

5.2397245442852825e6 4.266576562639344e6 0.0
4.266576562639344e6 -1.9200101553094488e7 0.0
0.0 0.0 0.0

-6.263142192049766e6 1.5647791827623878e7 0.0
1.5647791827623878e7 1.0149588657748971e7 0.0
0.0 0.0 0.0

-3.4732523165505603e6 1.794320896734655e7 0.0
1.794320896734655e7 -2.6742732273489526e6 0.0
0.0 0.0 0.0

1.432538050763547e6 1.0454114457007993e7 0.0
1.0454114457007993e7 -8.792075782478418e6 0.0
0.0 0.0 0.0

-1.0744051148513371e7 -1.5237595840681558e6 0.0
-1.5237595840681558e6 2.3087814258010443e7 0.0
0.0 0.0 0.0

245578.66923547216 3.812545169310809e6 0.0
3.812545169310809e6 -1.284447735804262e6 0.0
0.0 0.0 0.0

-8.454171872260902e6 1.3913349769020917e7 0.0
1.3913349769020917e7 1.1447117513305811e7 0.0
0.0 0.0 0.0

9.944297097315542e6 1.6383814067433411e7 0.0
1.6383814067433411e7 5.566325174929149e6 0.0
0.0 0.0 0.0

6.710736581410669e6 1.5637633055445474e7 0.0
1.5637633055445474e7 5.646638046439523e6 0.0
0.0 0.0 0.0

-6.003551687699992e6 1.7501639063865367e7 0.0
1.7501639063865367e7 -3.405586901789194e6 0.0
0.0 0.0 0.0

-1.3364053469723938e6 1.1104638176890003e7 0.0
1.1104638176890003e7 -8.20216793811969e6 0.0
0.0 0.0 0.0

-3.1198446468909136e6 1.7491357449148227e7 0.0
1.7491357449148227e7 -3.833460036966351e6 0.0
0.0 0.0 0.0

-6.753338923714702e6 1.7041850685467623e7 0.0
1.7041850685467623e7 257653.97364917397 0.0
0.0 0.0 0.0

2.7150920927653397e6 9.804161129570698e6 0.0
9.804161129570698e6 -2.441119412429802e7 0.0
0.0 0.0 0.0

569291.384047424 4.633151988531283e6 0.0
4.633151988531283e6 -3.906845242245774e6 0.0
0.0 0.0 0.0

351388.0557116481 6.19132938458472e6 0.0
6.19132938458472e6 -2.808806372981573e6 0.0
0.0 0.0 0.0

103885.80558009863 1.289897963092536e7 0.0
1.289897963092536e7 -212529.81786695978 0.0
0.0 0.0 0.0

5.866031418922513e6 1.639039402052368e7 0.0
1.639039402052368e7 7.536732104232624e6 0.0
0.0 0.0 0.0

-709902.0216176461 1.1862324103448065e7 0.0
1.1862324103448065e7 3.1362339278303157e6 0.0
0.0 0.0 0.0

-7.073784603834353e6 1.4937971159595173e7 0.0
1.4937971159595173e7 1.0089280044224517e7 0.0
0.0 0.0 0.0

-1.99682844406141e7 5.339278711529188e6 0.0
5.339278711529188e6 1.1062853384025536e7 0.0
0.0 0.0 0.0

141199.49173718202 1.3492107884323934e7 0.0
1.3492107884323934e7 3.580815745434166e6 0.0
0.0 0.0 0.0

3.3265891347929435e6 6.127665140768186e6 0.0
6.127665140768186e6 -1.177552443476549e7 0.0
0.0 0.0 0.0

-1.0756176615740033e7 2.130806768693251e7 0.0
2.130806768693251e7 7.677787081678229e6 0.0
0.0 0.0 0.0

-1.0365336006761096e7 -3.4455321231779433e6 0.0
-3.4455321231779433e6 2.487477454366144e7 0.0
0.0 0.0 0.0

-706184.4584255266 1.4741664722621704e7 0.0
1.4741664722621704e7 -5.064278950577358e6 0.0
0.0 0.0 0.0

-213907.77542811912 1.622713011470237e7 0.0
1.622713011470237e7 1.0382397160281584e7 0.0
0.0 0.0 0.0

-4.097437818628164e6 1.7791466484931443e7 0.0
1.7791466484931443e7 -2.26153116940694e6 0.0
0.0 0.0 0.0

-93618.04618493654 1.2317960640016906e7 0.0
1.2317960640016906e7 -1.6619717231635e7 0.0
0.0 0.0 0.0

7.110969194438797e6 1.645973262866812e7 0.0
1.645973262866812e7 6.613524048829192e6 0.0
0.0 0.0 0.0

-412233.246231874 1.3020285908502707e7 0.0
1.3020285908502707e7 -1.3250872028970083e7 0.0
0.0 0.0 0.0

-273406.6672080222 1.4040106770815365e7 0.0
1.4040106770815365e7 4.678322789125101e6 0.0
0.0 0.0 0.0

-1.5344632291339017e6 1.5075241888992907e7 0.0
1.5075241888992907e7 9.513459513016991e6 0.0
0.0 0.0 0.0

-4.922989098431931e6 1.5328151557728522e7 0.0
1.5328151557728522e7 9.710892604592402e6 0.0
0.0 0.0 0.0

-2.926671354133855e6 1.5188322032304514e7 0.0
1.5188322032304514e7 5.7180185381723065e6 0.0
0.0 0.0 0.0

4.601324028527592e6 5.763091855894994e6 0.0
5.763091855894994e6 -1.883965640486684e7 0.0
0.0 0.0 0.0

-3.321104377979993e6 2.0925381065930393e7 0.0
2.0925381065930393e7 1.0198056826959283e6 0.0
0.0 0.0 0.0

-3.26161579963512e6 1.414061271188973e7 0.0
1.414061271188973e7 -4.64655800477213e6 0.0
0.0 0.0 0.0

1.260349231477371e7 1.3460413581295907e7 0.0
1.3460413581295907e7 2.8639773859514478e6 0.0
0.0 0.0 0.0

-7.243134172421014e6 2.0041358235757787e7 0.0
2.0041358235757787e7 6.520805200978528e6 0.0
0.0 0.0 0.0

5.191406601004555e6 5.124788261494119e6 0.0
5.124788261494119e6 -2.1208720202745847e7 0.0
0.0 0.0 0.0

-4.618771478030468e6 1.3411027799659107e7 0.0
1.3411027799659107e7 3.83412265571755e6 0.0
0.0 0.0 0.0

6.0003708772570845e6 1.4103565313547794e7 0.0
1.4103565313547794e7 2.509760579015192e6 0.0
0.0 0.0 0.0

1.7681017992333222e7 1.1726538417534413e7 0.0
1.1726538417534413e7 -742932.2516033594 0.0
0.0 0.0 0.0

-5.638876341688551e6 2.2168242538507532e7 0.0
2.2168242538507532e7 5.872422054790023e6 0.0
0.0 0.0 0.0

475761.136286221 1.4017499225538094e7 0.0
1.4017499225538094e7 -1.1273118314773e7 0.0
0.0 0.0 0.0

-7.601491179421654e6 6.190899536239368e6 0.0
6.190899536239368e6 1.1399702758381225e7 0.0
0.0 0.0 0.0

-1.0546361948033992e7 -3.6512892466865126e6 0.0
-3.6512892466865126e6 2.308639619794642e7 0.0
0.0 0.0 0.0

320957.22207931336 1.3260615333273364e7 0.0
1.3260615333273364e7 2.128444624415858e6 0.0
0.0 0.0 0.0

3.264977608809797e6 1.4127962893339528e7 0.0
1.4127962893339528e7 8.865998955756502e6 0.0
0.0 0.0 0.0

-1.1207353662268717e7 -266340.92733040533 0.0
-266340.92733040533 1.791010149119828e7 0.0
0.0 0.0 0.0

-1.8372864502690462e6 9.542152419484422e6 0.0
9.542152419484422e6 -2.7932082419892903e6 0.0
0.0 0.0 0.0

-2.0096597749868408e6 1.492169833032833e7 0.0
1.492169833032833e7 -6.305715322030298e6 0.0
0.0 0.0 0.0

-797857.4967151303 1.241736696601375e7 0.0
1.241736696601375e7 -1.5466514632188896e7 0.0
0.0 0.0 0.0

-3.6066951712633753e6 2.051571485880883e7 0.0
2.051571485880883e7 1.321382099830326e6 0.0
0.0 0.0 0.0

-2.0637117051526578e6 2.0101384468267385e7 0.0
2.0101384468267385e7 -2.391444383748181e6 0.0
0.0 0.0 0.0

-3.737929742402406e6 2.5273030961742852e7 0.0
2.5273030961742852e7 -1.666008342372147e6 0.0
0.0 0.0 0.0

-1.3191155766617913e7 2.4540952178262696e7 0.0
2.4540952178262696e7 8.633641594793253e6 0.0
0.0 0.0 0.0

2.5843470338705443e6 1.455075064545304e7 0.0
1.455075064545304e7 1.026369499867782e7 0.0
0.0 0.0 0.0

-1.4362146515041683e6 1.390572456922687e7 0.0
1.390572456922687e7 -3.802840906404287e7 0.0
0.0 0.0 0.0

-8.299308621526493e6 -1.4389940525676638e6 0.0
-1.4389940525676638e6 9.903550898112478e6 0.0
0.0 0.0 0.0

-4.210241954675781e6 1.245338915672161e7 0.0
1.245338915672161e7 -1.6282677816009266e7 0.0
0.0 0.0 0.0

-1.8321595152379205e6 1.0618559499040153e7 0.0
1.0618559499040153e7 -8.69755405850829e6 0.0
0.0 0.0 0.0

1.5830802473965758e6 1.5021839494172907e7 0.0
1.5021839494172907e7 1.0485840386321304e7 0.0
0.0 0.0 0.0

-3.563474697041279e6 1.3436617826365555e7 0.0
1.3436617826365555e7 -1.9656807847122077e7 0.0
0.0 0.0 0.0

-2.730319428368115e6 1.2239441451811196e7 0.0
1.2239441451811196e7 -1.4671474755217912e7 0.0
0.0 0.0 0.0

5.551354453700447e6 1.6634358189691627e7 0.0
1.6634358189691627e7 6.423935023970138e6 0.0
0.0 0.0 0.0

-3.5070982479409673e6 1.5030401027265927e7 0.0
1.5030401027265927e7 -3.8521675471012346e6 0.0
0.0 0.0 0.0

4.1289555987825403e6 7.896993321510406e6 0.0
7.896993321510406e6 -1.8437433713192783e7 0.0
0.0 0.0 0.0

94816.3700812635 1.3258555002163984e7 0.0
1.3258555002163984e7 727435.3950287593 0.0
0.0 0.0 0.0

-5.94069938573893e6 1.830353585894105e7 0.0
1.830353585894105e7 -2.8828743155884417e6 0.0
0.0 0.0 0.0

841016.0308366988 1.3730625368781457e7 0.0
1.3730625368781457e7 6.257028314359287e6 0.0
0.0 0.0 0.0

3.5507797308632107e6 4.772754547875546e6 0.0
4.772754547875546e6 -1.0495233382614838e7 0.0
0.0 0.0 0.0

-4.43574276404758e6 1.85767919054704e7 0.0
1.85767919054704e7 1.8539622133344975e6 0.0
0.0 0.0 0.0

-4.872161607622288e6 2.0893817450970955e7 0.0
2.0893817450970955e7 4.099142203558416e6 0.0
0.0 0.0 0.0

-1.2218022092945777e7 1.0214830868105462e7 0.0
1.0214830868105462e7 1.9054262294445425e7 0.0
0.0 0.0 0.0

-119815.33324261103 1.2454697392097734e7 0.0
1.2454697392097734e7 4.60936726343937e6 0.0
0.0 0.0 0.0

-204991.80523539893 1.559936353699002e7 0.0
1.559936353699002e7 1.0288687402038489e7 0.0
0.0 0.0 0.0

-5.289064056276955e6 2.289104731532151e7 0.0
2.289104731532151e7 5.093048042554826e6 0.0
0.0 0.0 0.0

-6.862020909845324e6 1.4850809980463188e7 0.0
1.4850809980463188e7 1.0747377992823813e7 0.0
0.0 0.0 0.0

-8.835846242216775e6 -3.7917298545606527e6 0.0
-3.7917298545606527e6 1.2470112894930577e7 0.0
0.0 0.0 0.0

-4.650470998423599e6 2.0948652212432563e7 0.0
2.0948652212432563e7 4.931515954148763e6 0.0
0.0 0.0 0.0

-3.216925168616521e6 1.796589432504951e7 0.0
1.796589432504951e7 -364458.9627504054 0.0
0.0 0.0 0.0

-4.957786469499713e6 1.4507175867536353e7 0.0
1.4507175867536353e7 1.8058047585373425e6 0.0
0.0 0.0 0.0

-3.4472148358426867e6 2.069585843581465e7 0.0
2.069585843581465e7 967925.6903228853 0.0
0.0 0.0 0.0

-3.3314034280756917e6 2.040960923548599e7 0.0
2.040960923548599e7 1.0656180184821032e6 0.0
0.0 0.0 0.0

-1.0566273818332194e6 1.4201613794156136e7 0.0
1.4201613794156136e7 -5.7781296140648965e6 0.0
0.0 0.0 0.0

1.6180117200766073e6 1.3341976365609193e7 0.0
1.3341976365609193e7 5.393373087718822e6 0.0
0.0 0.0 0.0

3.641580604608861e6 7.86646850417823e6 0.0
7.86646850417823e6 -1.7545718263063908e7 0.0
0.0 0.0 0.0

-5.082638821803521e6 1.3715377345391935e7 0.0
1.3715377345391935e7 -2.1753001538206927e7 0.0
0.0 0.0 0.0

-2.322960679770258e6 1.5805244663945232e7 0.0
1.5805244663945232e7 1.607406774312063e6 0.0
0.0 0.0 0.0

-1.9870406214310292e7 2.3082085136165336e7 0.0
2.3082085136165336e7 -2.6690501102803973e6 0.0
0.0 0.0 0.0

-3.385535151158671e6 1.2573731718025848e7 0.0
1.2573731718025848e7 -1.4289536520948462e7 0.0
0.0 0.0 0.0

-2.1333852014929798e7 2.168570203325463e7 0.0
2.168570203325463e7 535619.1329819355 0.0
0.0 0.0 0.0

-4.690193229508348e6 1.6313562749983536e7 0.0
1.6313562749983536e7 7.512672337386575e6 0.0
0.0 0.0 0.0

-1.0263142720118402e7 -4.382914038584828e6 0.0
-4.382914038584828e6 2.7880387067950077e7 0.0
0.0 0.0 0.0

-2.5284411821387922e6 1.9605656217374906e7 0.0
1.9605656217374906e7 -1.7706294267639946e6 0.0
0.0 0.0 0.0

-6.26607820033941e6 1.886754217625755e7 0.0
1.886754217625755e7 -3.7909795941734044e6 0.0
0.0 0.0 0.0

219878.56468216376 1.4326884678102745e7 0.0
1.4326884678102745e7 -1.0519869622958481e7 0.0
0.0 0.0 0.0

-9.283015796362676e6 2.15498254759149e7 0.0
2.15498254759149e7 7.217464754766302e6 0.0
0.0 0.0 0.0

-1.0581783033926943e7 2.9810986870773975e6 0.0
2.9810986870773975e6 1.4131057791862544e7 0.0
0.0 0.0 0.0

3.749037599254243e6 8.427646464876175e6 0.0
8.427646464876175e6 -2.120693831330442e7 0.0
0.0 0.0 0.0

-1.1639003081033956e7 2.1129947598823197e7 0.0
2.1129947598823197e7 7.507311310033668e6 0.0
0.0 0.0 0.0

51919.66934516514 1.373327623140822e7 0.0
1.373327623140822e7 1.7804983950620885e6 0.0
0.0 0.0 0.0

-9.438649194010817e6 5.413692747403431e6 0.0
5.413692747403431e6 1.0281620177278595e7 0.0
0.0 0.0 0.0

-885199.2348486513 1.346628452034242e7 0.0
1.346628452034242e7 -7.023883255292755e6 0.0
0.0 0.0 0.0

-1.9966143689742736e6 1.8729587295074064e7 0.0
1.8729587295074064e7 -2.5924173549780454e6 0.0
0.0 0.0 0.0

-2.0044827318591125e7 5.559600279699678e6 0.0
5.559600279699678e6 1.0387702760263743e7 0.0
0.0 0.0 0.0

-5.934591851070689e6 2.0264957078435607e7 0.0
2.0264957078435607e7 6.460561521251889e6 0.0
0.0 0.0 0.0

480616.5411707582 1.3711764243015327e7 0.0
1.3711764243015327e7 -1.2028123093181264e7 0.0
0.0 0.0 0.0

3.4043747499279324e6 8.014111184465645e6 0.0
8.014111184465645e6 -1.5780098718247458e7 0.0
0.0 0.0 0.0

1.0213467039276534e6 5.059442990522436e6 0.0
5.059442990522436e6 -4.920812174333046e6 0.0
0.0 0.0 0.0

1.1658644635929177e6 1.2731358825468102e7 0.0
1.2731358825468102e7 -1.2559013835164048e7 0.0
0.0 0.0 0.0

-9.921095623544704e6 1.8140169789835326e7 0.0
1.8140169789835326e7 -494624.68313516723 0.0
0.0 0.0 0.0

-1.9389265930683056e6 2.4983164642585278e7 0.0
2.4983164642585278e7 -1.0400836417093057e6 0.0
0.0 0.0 0.0

-3.218079373482164e6 1.5109867202913975e7 0.0
1.5109867202913975e7 1.4464950486748783e7 0.0
0.0 0.0 0.0

92408.28382754046 1.299902924715745e7 0.0
1.299902924715745e7 5.578698578854195e6 0.0
0.0 0.0 0.0

2.71333327427604e6 1.3232527357496655e7 0.0
1.3232527357496655e7 9.563244926085118e6 0.0
0.0 0.0 0.0

-2.176541236044401e6 1.3880345925151672e7 0.0
1.3880345925151672e7 -7.255137521382461e6 0.0
0.0 0.0 0.0

-1.2375771904167145e7 1.0025305949838424e7 0.0
1.0025305949838424e7 1.9402102357176293e7 0.0
0.0 0.0 0.0

-773159.599279393 1.1918685916298795e7 0.0
1.1918685916298795e7 -9.367062661879428e6 0.0
0.0 0.0 0.0

-2.020581104291627e7 2.1030498317254655e7 0.0
2.1030498317254655e7 1.098005823139185e7 0.0
0.0 0.0 0.0

-1.1078351391046029e7 -158219.7232415735 0.0
-158219.7232415735 2.2045963027400807e7 0.0
0.0 0.0 0.0

-1.055084465235619e7 -4.176530179609849e6 0.0
-4.176530179609849e6 2.8614130957072444e7 0.0
0.0 0.0 0.0

1.1193477647178485e6 1.0332065005435912e7 0.0
1.0332065005435912e7 -9.90456366371444e6 0.0
0.0 0.0 0.0

-1.3429053787552344e6 1.0994498990967625e6 0.0
1.0994498990967625e6 821223.1612265378 0.0
0.0 0.0 0.0

3.509605469617991e6 8.44193080869652e6 0.0
8.44193080869652e6 -2.5761955702051677e7 0.0
0.0 0.0 0.0

-1.2272894901720827e7 7.9771945045567155e6 0.0
7.9771945045567155e6 2.33884823270777e7 0.0
0.0 0.0 0.0

2.5675649898448465e6 9.867459179024322e6 0.0
9.867459179024322e6 -2.0932574554452516e7 0.0
0.0 0.0 0.0

-9.447611034259085e6 -2.998829143666969e6 0.0
-2.998829143666969e6 1.6446666604399044e7 0.0
0.0 0.0 0.0

-4.905452395506264e6 1.9384188104298055e7 0.0
1.9384188104298055e7 3.8657944625374745e6 0.0
0.0 0.0 0.0

-1.7811955415675822e6 1.9042013349591695e7 0.0
1.9042013349591695e7 -2.641010831971603e6 0.0
0.0 0.0 0.0

-4.8821098537234925e6 2.1696629310725328e7 0.0
2.1696629310725328e7 3.952058576345944e6 0.0
0.0 0.0 0.0

-3.529979235391211e6 2.4504575980320707e7 0.0
2.4504575980320707e7 567.7825658649672 0.0
0.0 0.0 0.0

-3.552023230558524e6 2.2563163066152744e7 0.0
2.2563163066152744e7 788370.5571789325 0.0
0.0 0.0 0.0

-1.0511349147650462e7 -3.6547028728499035e6 0.0
-3.6547028728499035e6 2.2083409474767268e7 0.0
0.0 0.0 0.0

4.965152339514825e6 5.32996196057161e6 0.0
5.32996196057161e6 -2.2535072442495503e7 0.0
0.0 0.0 0.0

443945.1299602259 1.4396678808083622e7 0.0
1.4396678808083622e7 -8.711887877998412e6 0.0
0.0 0.0 0.0

-1.5035206362484512e6 1.5810300067148862e7 0.0
1.5810300067148862e7 -5.277665925892833e6 0.0
0.0 0.0 0.0

2.7145763948219204e6 9.606648549733827e6 0.0
9.606648549733827e6 -1.327028466088492e7 0.0
0.0 0.0 0.0

-2.9169548896095515e6 1.13445830002101e7 0.0
1.13445830002101e7 -1.1829355965495799e7 0.0
0.0 0.0 0.0

338146.0197050579 1.2652112484436443e7 0.0
1.2652112484436443e7 1.1271534706985247e6 0.0
0.0 0.0 0.0

-5.672016685117564e6 1.7696864551291205e7 0.0
1.7696864551291205e7 6.809144008410267e6 0.0
0.0 0.0 0.0

-7.594691231140576e6 2.0620331906144835e7 0.0
2.0620331906144835e7 6.4385879802331235e6 0.0
0.0 0.0 0.0

-1.0549355661603953e6 1.138396808874904e7 0.0
1.138396808874904e7 -5.773237003285309e6 0.0
0.0 0.0 0.0

-803959.18398742 9.768472120387798e6 0.0
9.768472120387798e6 -2.9619312731795413e6 0.0
0.0 0.0 0.0

5.128639401386458e6 4.611860888691548e6 0.0
4.611860888691548e6 -1.8595473908354312e7 0.0
0.0 0.0 0.0

1.0462041896053555e6 1.3946809482286729e7 0.0
1.3946809482286729e7 -5.676004874823541e6 0.0
0.0 0.0 0.0

3.4245762403247375e6 8.25899712131167e6 0.0
8.25899712131167e6 -1.6809620707381323e7 0.0
0.0 0.0 0.0

-1.1911142767447208e6 6.798653839951365e6 0.0
6.798653839951365e6 -2.5098006732408046e6 0.0
0.0 0.0 0.0

-709387.223350662 8.977381255780442e6 0.0
8.977381255780442e6 -4.540680232907598e6 0.0
0.0 0.0 0.0

48203.285114070284 4.306310419149915e6 0.0
4.306310419149915e6 -2.8109090231511514e6 0.0
0.0 0.0 0.0

-4.520697000991016e6 1.7880373258655887e7 0.0
1.7880373258655887e7 3.5856006074940446e6 0.0
0.0 0.0 0.0

869270.5228535188 1.3012955761825223e7 0.0
1.3012955761825223e7 -1.358910374076889e7 0.0
0.0 0.0 0.0

3.2720673371653836e6 8.371211143826479e6 0.0
8.371211143826479e6 -2.9239859048171822e7 0.0
0.0 0.0 0.0

-2.5703404767835336e6 1.6340777950355273e7 0.0
1.6340777950355273e7 -2.864140432109659e6 0.0
0.0 0.0 0.0

-1.2804755758359838e7 2.12545175988175e7 0.0
2.12545175988175e7 -3.491124625356797e6 0.0
0.0 0.0 0.0

-1.4421117063625118e7 2.0189521713829573e7 0.0
2.0189521713829573e7 7.524901512701525e6 0.0
0.0 0.0 0.0

-4.416934106304305e6 1.8432893985439613e7 0.0
1.8432893985439613e7 -4.0729761800110526e6 0.0
0.0 0.0 0.0

-645165.8509417735 1.231832433144985e7 0.0
1.231832433144985e7 -1.944459823947651e7 0.0
0.0 0.0 0.0

-4.309171170150586e6 1.2344365118887609e7 0.0
1.2344365118887609e7 -1.436390441613837e7 0.0
0.0 0.0 0.0

-8.735221438661672e6 1.982667376221332e7 0.0
1.982667376221332e7 -3.47241066133309e6 0.0
0.0 0.0 0.0

-5.701459680444748e6 1.3472131191630647e7 0.0
1.3472131191630647e7 -1.9004866380242404e7 0.0
0.0 0.0 0.0

-9.835482413505517e6 1.3502857126479473e7 0.0
1.3502857126479473e7 1.3820548052346127e7 0.0
0.0 0.0 0.0

-8.2495918750215685e6 -257772.71751100585 0.0
-257772.71751100585 9.967970645641355e6 0.0
0.0 0.0 0.0

-3.132757355607176e6 1.7708796797247e7 0.0
1.7708796797247e7 -1.4691387475867853e6 0.0
0.0 0.0 0.0

-6.557957944848301e6 1.5956463973123472e7 0.0
1.5956463973123472e7 9.143171205195135e6 0.0
0.0 0.0 0.0

-9.494520003803622e6 -3.2834906530075646e6 0.0
-3.2834906530075646e6 1.332361197843846e7 0.0
0.0 0.0 0.0

2.236984061052923e6 1.1044703097035237e7 0.0
1.1044703097035237e7 -1.6418870223552192e7 0.0
0.0 0.0 0.0

-4.273893290636701e6 1.820620946390887e7 0.0
1.820620946390887e7 1.0953644764058802e6 0.0
0.0 0.0 0.0

-70762.21652884485 1.3159684706297169e7 0.0
1.3159684706297169e7 -1.7704159434015837e6 0.0
0.0 0.0 0.0

-5.3747670750429295e6 1.931589018350962e7 0.0
1.931589018350962e7 5.738105734866283e6 0.0
0.0 0.0 0.0

-8.636346866163714e6 2.0511611606712822e7 0.0
2.0511611606712822e7 -3.2739291885948014e6 0.0
0.0 0.0 0.0

-4.734081499196697e6 1.2719100629373198e7 0.0
1.2719100629373198e7 -1.5780272293245252e7 0.0
0.0 0.0 0.0

-571348.0897147246 1.6090594452346439e7 0.0
1.6090594452346439e7 1.0953121238877157e7 0.0
0.0 0.0 0.0

-1.6960940841200292e7 1.9465535420957062e7 0.0
1.9465535420957062e7 8.105576595159831e6 0.0
0.0 0.0 0.0

-6.550653876104608e6 5.888109531162552e6 0.0
5.888109531162552e6 1.0087526726785084e7 0.0
0.0 0.0 0.0

-1.2203865697132014e7 6.228925500907031e6 0.0
6.228925500907031e6 3.002714558103489e7 0.0
0.0 0.0 0.0

-933922.00278305 1.4512177656391812e7 0.0
1.4512177656391812e7 -5.435866496567813e6 0.0
0.0 0.0 0.0

-2.997052272110307e6 2.245805330509849e7 0.0
2.245805330509849e7 -272398.04880822473 0.0
0.0 0.0 0.0

2.6438100916168457e6 1.363706221290467e7 0.0
1.363706221290467e7 8.812700352691928e6 0.0
0.0 0.0 0.0

9.838411583649442e6 1.477316980469372e7 0.0
1.477316980469372e7 3.0534776658256846e6 0.0
0.0 0.0 0.0

-6.377587846091346e6 1.9410587310130436e7 0.0
1.9410587310130436e7 -3.7812470526452074e6 0.0
0.0 0.0 0.0

-2.0929208167368728e6 2.1102009744872183e7 0.0
2.1102009744872183e7 -1.9072717455707479e6 0.0
0.0 0.0 0.0

4.0025391995060137e6 1.3212524357473066e7 0.0
1.3212524357473066e7 1.6232204071808225e7 0.0
0.0 0.0 0.0

4.89385738771148e6 6.45710267822821e6 0.0
6.45710267822821e6 -2.7951707912191257e7 0.0
0.0 0.0 0.0

-5.828758824297635e6 1.9751506396852013e7 0.0
1.9751506396852013e7 6.661586758520455e6 0.0
0.0 0.0 0.0

-25331.722632217745 1.2292585890664127e7 0.0
1.2292585890664127e7 -1.0729429234547617e6 0.0
0.0 0.0 0.0

-6.317480900209193e6 1.40722288894728e7 0.0
1.40722288894728e7 -2.1058270816785373e7 0.0
0.0 0.0 0.0

-2.258371211146824e6 1.627774081729263e7 0.0
1.627774081729263e7 -1.3041853238572003e6 0.0
0.0 0.0 0.0

5.657961618511278e6 4.1393970684766816e6 0.0
4.1393970684766816e6 -2.416764914992677e7 0.0
0.0 0.0 0.0

-1.7221562818884314e6 1.5073225909689689e7 0.0
1.5073225909689689e7 -5.477525558325544e6 0.0
0.0 0.0 0.0

-59795.04961408535 1.624534271608935e7 0.0
1.624534271608935e7 -6.054325136532158e6 0.0
0.0 0.0 0.0

9.547137092662375e6 1.5084751890567446e7 0.0
1.5084751890567446e7 -5.843772600708237e6 0.0
0.0 0.0 0.0

-1.0741323803786907e7 1.1937966966276472e7 0.0
1.1937966966276472e7 1.4085293506502748e7 0.0
0.0 0.0 0.0

-2.8217190603791308e6 1.1347447974322427e7 0.0
1.1347447974322427e7 1.568764157321227e6 0.0
0.0 0.0 0.0

-3.3024469306658125e6 1.764016589026833e7 0.0
1.764016589026833e7 -3.457682145412295e6 0.0
0.0 0.0 0.0

-3.416614680806226e6 1.787243366720468e7 0.0
1.787243366720468e7 -959939.6298975184 0.0
0.0 0.0 0.0

-1.0914412216547268e7 -1.3862484874791128e6 0.0
-1.3862484874791128e6 3.071749421076842e7 0.0
0.0 0.0 0.0

-1.0973447373227836e6 1.3067727186410066e7 0.0
1.3067727186410066e7 -5.423722606240787e6 0.0
0.0 0.0 0.0

-8.357816288248876e6 2.0776704017417442e7 0.0
2.0776704017417442e7 6.935243888913542e6 0.0
0.0 0.0 0.0

1.71010819029892e6 7.396515239246492e6 0.0
7.396515239246492e6 -8.867391573544e6 0.0
0.0 0.0 0.0

855924.961837213 1.571357141480436e7 0.0
1.571357141480436e7 1.1029888837820021e7 0.0
0.0 0.0 0.0

-2.6430655196824983e7 1.9274796818842158e7 0.0
1.9274796818842158e7 9.22666073490293e6 0.0
0.0 0.0 0.0

545508.7661573272 1.2435784589754753e7 0.0
1.2435784589754753e7 2.896829789357312e6 0.0
0.0 0.0 0.0

3.685052424338784e6 6.6149802366310535e6 0.0
6.6149802366310535e6 -1.1011772367843358e7 0.0
0.0 0.0 0.0

-2.4467837940472364e6 1.5696204671926519e7 0.0
1.5696204671926519e7 1.3504863012529954e7 0.0
0.0 0.0 0.0

-1.9951688190485197e6 1.752832813266196e7 0.0
1.752832813266196e7 -3.7697121595515944e6 0.0
0.0 0.0 0.0

5.9942397366238e6 2.079303962910914e7 0.0
2.079303962910914e7 -6.903766230111821e6 0.0
0.0 0.0 0.0

-2.4183422664501234e6 1.0941384264106346e7 0.0
1.0941384264106346e7 -8.061141267613509e6 0.0
0.0 0.0 0.0

-4.758164958992924e6 1.2036399169684343e7 0.0
1.2036399169684343e7 4.395001839149708e6 0.0
0.0 0.0 0.0

1.1715629606833528e6 7.408151628799274e6 0.0
7.408151628799274e6 -7.867021416227233e6 0.0
0.0 0.0 0.0

-1.4233600986627974e6 1.2914504122424215e7 0.0
1.2914504122424215e7 -1.4866278055345533e7 0.0
0.0 0.0 0.0

-1.2165040043087522e6 1.5264254284415515e7 0.0
1.5264254284415515e7 -5.851595335364347e6 0.0
0.0 0.0 0.0

4.704639497317711e6 1.650133311837124e7 0.0
1.650133311837124e7 7.0879038193767425e6 0.0
0.0 0.0 0.0

-4.470739215358058e6 1.7330909285916597e7 0.0
1.7330909285916597e7 -2.2824667975092083e6 0.0
0.0 0.0 0.0

-62099.620299064554 1.6233213861095378e7 0.0
1.6233213861095378e7 -6.141981493281954e6 0.0
0.0 0.0 0.0

-6.1870778125989605e6 1.0522366384257355e6 0.0
1.0522366384257355e6 1.1123979672626927e7 0.0
0.0 0.0 0.0

-2.297263960819428e6 3.896108355700908e6 0.0
3.896108355700908e6 4.344918832073613e6 0.0
0.0 0.0 0.0

3.284502838041975e6 1.5735756148828909e7 0.0
1.5735756148828909e7 -4.050575983026226e6 0.0
0.0 0.0 0.0

291531.3772365458 1.292030246210634e7 0.0
1.292030246210634e7 2.5872731212741234e6 0.0
0.0 0.0 0.0

2.3786744425861824e7 1.210146079355703e7 0.0
1.210146079355703e7 1.328420304223652e6 0.0
0.0 0.0 0.0

-9.34754951747018e6 -4.0190293956348356e6 0.0
-4.0190293956348356e6 1.4614545798546221e7 0.0
0.0 0.0 0.0

-7.111580451737206e6 1.8411429738498952e7 0.0
1.8411429738498952e7 -2.7699111540911007e6 0.0
0.0 0.0 0.0

-1.0542400384736145e7 1.736585091611797e7 0.0
1.736585091611797e7 4.1295423628166984e6 0.0
0.0 0.0 0.0

-1.7381227188344285e7 1.8681872110565484e7 0.0
1.8681872110565484e7 -1.8117263176958826e6 0.0
0.0 0.0 0.0

1.922676561439259e7 5.656611542161795e6 0.0
5.656611542161795e6 -3.402625256567181e6 0.0
0.0 0.0 0.0

-1.1012684756594306e7 5.34272658444011e6 0.0
5.34272658444011e6 3.609082267241883e7 0.0
0.0 0.0 0.0

-889986.4857947009 9.269005636231516e6 0.0
9.269005636231516e6 -2.384280326315748e6 0.0
0.0 0.0 0.0

-6.844626409317515e6 1.863971830221237e7 0.0
1.863971830221237e7 -2.686482791513689e6 0.0
0.0 0.0 0.0

-5.211621864620918e6 1.9481640868051346e7 0.0
1.9481640868051346e7 6.503017780333232e6 0.0
0.0 0.0 0.0

-1.5013660841605598e6 1.5015467957888952e7 0.0
1.5015467957888952e7 -6.657078612732422e6 0.0
0.0 0.0 0.0

1.379212020984347e6 1.0853494917454379e7 0.0
1.0853494917454379e7 -1.038697407210325e7 0.0
0.0 0.0 0.0

-146555.48251194647 1.2979766571490547e7 0.0
1.2979766571490547e7 -3.9913167437148155e6 0.0
0.0 0.0 0.0

-3.4536856305923047e6 1.2038044421397949e7 0.0
1.2038044421397949e7 -1.4757319932670793e7 0.0
0.0 0.0 0.0

-3.227574117610637e6 1.4520856179377295e7 0.0
1.4520856179377295e7 -3.0823542432495352e7 0.0
0.0 0.0 0.0

5.420102849949922e6 5.158277357656247e6 0.0
5.158277357656247e6 -1.366943718413862e6 0.0
0.0 0.0 0.0

-304173.7889493437 2.1734057413312867e7 0.0
2.1734057413312867e7 -3.8989800268547963e6 0.0
0.0 0.0 0.0

-3.441207688549975e6 1.1703683035051506e7 0.0
1.1703683035051506e7 -1.1470693007507553e7 0.0
0.0 0.0 0.0

7.036634018864126e6 1.3406307824359113e7 0.0
1.3406307824359113e7 3.794820595801781e6 0.0
0.0 0.0 0.0

621306.9402289153 1.2374644054196043e7 0.0
1.2374644054196043e7 -6.092835799233727e6 0.0
0.0 0.0 0.0

-2.8776312021681345e6 1.749645077193753e7 0.0
1.749645077193753e7 -1.2842825874139373e6 0.0
0.0 0.0 0.0

-1.6838735848125594e6 1.2236895483719703e7 0.0
1.2236895483719703e7 -1.0729558952159697e7 0.0
0.0 0.0 0.0

-1.6704365388099466e7 1.0714681251327928e7 0.0
1.0714681251327928e7 8.102934374480064e6 0.0
0.0 0.0 0.0

-4.746989614115789e6 463444.1620380377 0.0
463444.1620380377 4.451486910114735e6 0.0
0.0 0.0 0.0

-8.72759596796406e6 1.3126673452665085e7 0.0
1.3126673452665085e7 1.3704077674657669e7 0.0
0.0 0.0 0.0

-767723.2908438393 1.0938871323377822e7 0.0
1.0938871323377822e7 574972.7900288742 0.0
0.0 0.0 0.0

-3.9102707929893793e6 1.330325125054354e7 0.0
1.330325125054354e7 -7.422318386114401e6 0.0
0.0 0.0 0.0

-1.0328705309039961e6 1.3741689536735741e7 0.0
1.3741689536735741e7 -4.850467896856646e6 0.0
0.0 0.0 0.0

-1.6986125197041743e6 1.0023958540905999e7 0.0
1.0023958540905999e7 -3.334660317299174e6 0.0
0.0 0.0 0.0

1.0871150462095045e7 1.5365743076585762e7 0.0
1.5365743076585762e7 -5.422556951863291e6 0.0
0.0 0.0 0.0

-9.002487946595374e6 2.243567133031973e7 0.0
2.243567133031973e7 7.586259434990837e6 0.0
0.0 0.0 0.0

620477.7122167372 1.69254440784997e7 0.0
1.69254440784997e7 -5.163547798257975e6 0.0
0.0 0.0 0.0

-1.6706033060399853e6 1.5699938380353583e7 0.0
1.5699938380353583e7 -2.039018245275037e6 0.0
0.0 0.0 0.0

-4.425419475999599e6 2.1976725852449533e7 0.0
2.1976725852449533e7 4.393057455645375e6 0.0
0.0 0.0 0.0

-8.192115782493828e6 1.431356150566452e7 0.0
1.431356150566452e7 1.1602022847326832e7 0.0
0.0 0.0 0.0

1.508174357026219e6 6.927685988771184e6 0.0
6.927685988771184e6 -6.698963667093085e6 0.0
0.0 0.0 0.0

-203210.2732386173 6.48387600847166e6 0.0
6.48387600847166e6 -2.0259839786403952e6 0.0
0.0 0.0 0.0

-4.571658340280901e6 1.3186127393896889e7 0.0
1.3186127393896889e7 -1.969113359274261e7 0.0
0.0 0.0 0.0

-2.7920939584933063e6 1.5279424439535053e7 0.0
1.5279424439535053e7 2.855212765783135e6 0.0
0.0 0.0 0.0

1.977558450085111e6 5.466683010343173e6 0.0
5.466683010343173e6 -7.155036960714851e6 0.0
0.0 0.0 0.0

-3.3144968001262467e7 2.2251850884050693e7 0.0
2.2251850884050693e7 4.738392407783093e6 0.0
0.0 0.0 0.0

3.321120536511995e6 8.114512775533243e6 0.0
8.114512775533243e6 -3.3390731384767007e7 0.0
0.0 0.0 0.0

-385172.3468433758 8.219878040314749e6 0.0
8.219878040314749e6 -4.749344942074443e6 0.0
0.0 0.0 0.0

-3.6226720005463394e6 1.354616438524292e7 0.0
1.354616438524292e7 -2.141375499020525e7 0.0
0.0 0.0 0.0

5.141178207091104e6 5.126277165122912e6 0.0
5.126277165122912e6 -2.1971350562349066e7 0.0
0.0 0.0 0.0

7.75726706255261e6 2.2526284214590307e7 0.0
2.2526284214590307e7 -9.951179427871196e6 0.0
0.0 0.0 0.0

3.746610197762415e6 8.375748455625771e6 0.0
8.375748455625771e6 -1.5817895970289646e7 0.0
0.0 0.0 0.0

-1.1338709811197458e7 9.2860062287941e6 0.0
9.2860062287941e6 2.6862882186334036e7 0.0
0.0 0.0 0.0

-1.0722625348214e7 1.2315107548546212e7 0.0
1.2315107548546212e7 1.440303344564751e7 0.0
0.0 0.0 0.0

-4.824338901486726e6 1.6916502616575062e7 0.0
1.6916502616575062e7 7.593241115651302e6 0.0
0.0 0.0 0.0

-6.7462786931533385e6 1.633428891107084e7 0.0
1.633428891107084e7 327925.51279981434 0.0
0.0 0.0 0.0

-9.638216309104152e6 1.3050728299121758e7 0.0
1.3050728299121758e7 1.5151862753269982e7 0.0
0.0 0.0 0.0

-4.850689852450786e6 1.7766074522941757e7 0.0
1.7766074522941757e7 2.56520287723326e6 0.0
0.0 0.0 0.0

4.425729838568838e6 1.4109318048021276e7 0.0
1.4109318048021276e7 1.4752433160529843e7 0.0
0.0 0.0 0.0

-6.921503224915521e6 939519.2943714074 0.0
939519.2943714074 7.804124651279179e6 0.0
0.0 0.0 0.0

-292647.0374833341 1.4791462900174897e7 0.0
1.4791462900174897e7 -8.926590796120958e6 0.0
0.0 0.0 0.0

1.3520103635741137e6 1.0717536464260073e7 0.0
1.0717536464260073e7 -3.698321084042151e7 0.0
0.0 0.0 0.0

-8.510623506195556e6 2.335721945646598e7 0.0
2.335721945646598e7 7.799434856711056e6 0.0
0.0 0.0 0.0

-2.064848657593449e6 1.8596207163140737e7 0.0
1.8596207163140737e7 -3.6074901856461195e6 0.0
0.0 0.0 0.0

1.421521076706701e6 1.372028769046837e7 0.0
1.372028769046837e7 123909.62434074376 0.0
0.0 0.0 0.0

-1.0383600025598945e7 1.2096611147095973e7 0.0
1.2096611147095973e7 1.5620628680467304e7 0.0
0.0 0.0 0.0

-1.570552909883754e7 2.277392728180326e7 0.0
2.277392728180326e7 9.764422426617641e6 0.0
0.0 0.0 0.0

-1.1574354583206195e6 1.6279698345594412e7 0.0
1.6279698345594412e7 -6.491190227247109e6 0.0
0.0 0.0 0.0

-1.0430453302015793e6 1.2508186666762576e7 0.0
1.2508186666762576e7 -1.7743894219183844e7 0.0
0.0 0.0 0.0

-1.3381406719373863e7 2.431795526050551e7 0.0
2.431795526050551e7 8.212070282576888e6 0.0
0.0 0.0 0.0

1.376364295598422e7 2.009703931144836e7 0.0
2.009703931144836e7 -1.3014236461223263e7 0.0
0.0 0.0 0.0

894429.9024720578 1.2939734324821666e7 0.0
1.2939734324821666e7 1.3455837680821307e6 0.0
0.0 0.0 0.0

2.6805559460858246e6 9.488672891911065e6 0.0
9.488672891911065e6 -1.4319610994990911e7 0.0
0.0 0.0 0.0

-5.337086419517603e6 1.4544646774102971e7 0.0
1.4544646774102971e7 -2.3339776694615144e7 0.0
0.0 0.0 0.0

3.761668271819231e6 2.1140752018295277e7 0.0
2.1140752018295277e7 -5.81979337252613e6 0.0
0.0 0.0 0.0

443051.2052883706 1.3243273475426905e7 0.0
1.3243273475426905e7 -1.0142064463509507e7 0.0
0.0 0.0 0.0

-3.406412268069747e6 1.996448184310593e7 0.0
1.996448184310593e7 -64790.52544991416 0.0
0.0 0.0 0.0

1.999033922711771e6 9.976424994278442e6 0.0
9.976424994278442e6 -3.132030750060826e7 0.0
0.0 0.0 0.0

-163250.72116822703 1.4063644210029928e7 0.0
1.4063644210029928e7 3.048359944302009e6 0.0
0.0 0.0 0.0

-1.6649663920617994e7 2.057323981478471e7 0.0
2.057323981478471e7 9.85646597599316e6 0.0
0.0 0.0 0.0

-4.3308956031042375e6 1.8111210458169863e7 0.0
1.8111210458169863e7 3.06901629910894e6 0.0
0.0 0.0 0.0

9.938250799037216e6 1.3389256538237704e7 0.0
1.3389256538237704e7 1.3684102549501953e6 0.0
0.0 0.0 0.0

-4.986544124787302e6 2.2302507436009828e7 0.0
2.2302507436009828e7 3.8098952255786997e6 0.0
0.0 0.0 0.0

-252977.46443116223 1.3535107247440306e7 0.0
1.3535107247440306e7 5.302392582151733e6 0.0
0.0 0.0 0.0

559435.7449550119 4.136964284145858e6 0.0
4.136964284145858e6 -3.5748423082236154e6 0.0
0.0 0.0 0.0

144940.20899922994 2.2435845574109398e7 0.0
2.2435845574109398e7 -2.661051068487853e6 0.0
0.0 0.0 0.0

721748.2285023183 1.3392213890767468e7 0.0
1.3392213890767468e7 -1.2848979915436557e7 0.0
0.0 0.0 0.0

5.581966668336019e6 4.483572701095318e6 0.0
4.483572701095318e6 -2.6564917024284158e7 0.0
0.0 0.0 0.0

216099.3478723797 8.926856584191578e6 0.0
8.926856584191578e6 -5.5291714485823e6 0.0
0.0 0.0 0.0

2.0023372134510386e6 6.1412630274216635e6 0.0
6.1412630274216635e6 -7.178178132531188e6 0.0
0.0 0.0 0.0

1.2730891851306767e6 1.1392435477478355e7 0.0
1.1392435477478355e7 -1.0341543831611153e7 0.0
0.0 0.0 0.0

-1.38397603177769e7 1.9693773595767286e7 0.0
1.9693773595767286e7 8.293082939506533e6 0.0
0.0 0.0 0.0

-1.523310157893566e6 1.5452486759574154e7 0.0
1.5452486759574154e7 1.2897550521850944e6 0.0
0.0 0.0 0.0

481146.97659788234 1.702697966749239e7 0.0
1.702697966749239e7 -5.33509019152056e6 0.0
0.0 0.0 0.0

5.192846011487206e6 5.824776762917936e6 0.0
5.824776762917936e6 -2.1649421489416476e7 0.0
0.0 0.0 0.0

-1.265399786962519e6 1.4975805962248066e7 0.0
1.4975805962248066e7 -5.664663473311466e6 0.0
0.0 0.0 0.0

-238243.4435844291 1.299546616199958e7 0.0
1.299546616199958e7 -8.887927266778877e6 0.0
0.0 0.0 0.0

-5.044565264590521e6 1.8016701022992168e7 0.0
1.8016701022992168e7 -3.216002518130539e6 0.0
0.0 0.0 0.0

3.5724270481378343e6 1.990654706026323e7 0.0
1.990654706026323e7 -6.056735332514821e6 0.0
0.0 0.0 0.0

-5.4476916654722765e6 1.788749909782445e7 0.0
1.788749909782445e7 7.734548018128905e6 0.0
0.0 0.0 0.0

-1.208905269402254e6 1.3980061486019256e7 0.0
1.3980061486019256e7 7.0341374281628225e6 0.0
0.0 0.0 0.0

-2.7210473529510517e6 1.4419477541317677e7 0.0
1.4419477541317677e7 4.700579876449131e7 0.0
0.0 0.0 0.0

-6.201616751705334e6 2.4359798078190178e7 0.0
2.4359798078190178e7 5.568859862224193e6 0.0
0.0 0.0 0.0

686935.055854897 1.4495617143127618e7 0.0
1.4495617143127618e7 -7.593785868914495e6 0.0
0.0 0.0 0.0

3.7418073026342224e6 8.772108800167833e6 0.0
8.772108800167833e6 -1.803464747164864e7 0.0
0.0 0.0 0.0

3.9881486891534757e6 8.251434242751484e6 0.0
8.251434242751484e6 -1.8847558637974214e7 0.0
0.0 0.0 0.0

5.275027748083291e6 4.598804721429472e6 0.0
4.598804721429472e6 -1.6287938799932554e7 0.0
0.0 0.0 0.0

-5.449673213660728e6 1.7593537875877827e7 0.0
1.7593537875877827e7 7.729580091509396e6 0.0
0.0 0.0 0.0

4.927104737020778e6 4.757058661814253e6 0.0
4.757058661814253e6 -1.6292148716787318e7 0.0
0.0 0.0 0.0

-1.141343369738951e7 -1.650932892573763e6 0.0
-1.650932892573763e6 2.065166374328834e7 0.0
0.0 0.0 0.0

-5.503920660514729e6 1.5772251989805391e7 0.0
1.5772251989805391e7 1.0143186772405047e7 0.0
0.0 0.0 0.0

-870175.9543340397 8.48149573771005e6 0.0
8.48149573771005e6 -3.92407147528054e6 0.0
0.0 0.0 0.0

-2.5496787181400633e6 1.890490048072305e7 0.0
1.890490048072305e7 -2.8449547360805213e6 0.0
0.0 0.0 0.0

-1.2315320765111262e6 2.0782762648073602e7 0.0
2.0782762648073602e7 -1.581943412865984e6 0.0
0.0 0.0 0.0

185103.29060986626 1.224249885604633e7 0.0
1.224249885604633e7 377423.0992650304 0.0
0.0 0.0 0.0

2.2725765558292437e6 9.878493875357876e6 0.0
9.878493875357876e6 -2.7419944923213348e7 0.0
0.0 0.0 0.0

5.612179798837013e6 4.80431378854057e6 0.0
4.80431378854057e6 -2.3274259687194362e7 0.0
0.0 0.0 0.0

-3.0131176006910164e7 2.5472764857477773e7 0.0
2.5472764857477773e7 -936139.6977238357 0.0
0.0 0.0 0.0

8.713855517012449e6 1.710439081706136e7 0.0
1.710439081706136e7 6.313472401176076e6 0.0
0.0 0.0 0.0

-1.6967395173776415e6 2.051586611064307e7 0.0
2.051586611064307e7 -1.3326183761645602e6 0.0
0.0 0.0 0.0

-3.2592126819555084e6 1.4919295560004745e7 0.0
1.4919295560004745e7 9.307964044632783e6 0.0
0.0 0.0 0.0

54962.1006947929 1.333244984708154e7 0.0
1.333244984708154e7 815079.4702608684 0.0
0.0 0.0 0.0

-1.264698407464489e7 3.4878709498295523e6 0.0
3.4878709498295523e6 2.498302636175342e7 0.0
0.0 0.0 0.0

-9.06376277678628e6 2.1469776843105923e7 0.0
2.1469776843105923e7 7.042726068518259e6 0.0
0.0 0.0 0.0

-731566.5662458285 1.1195701220794072e7 0.0
1.1195701220794072e7 -6.032207081394879e6 0.0
0.0 0.0 0.0

-1.0722251820737869e7 -2.268715343556407e6 0.0
-2.268715343556407e6 1.5247323540419044e7 0.0
0.0 0.0 0.0

-6.072900549227629e6 9.423991483789157e6 0.0
9.423991483789157e6 6.056975270475358e7 0.0
0.0 0.0 0.0

-214696.71259471215 1.506678393668751e7 0.0
1.506678393668751e7 -8.838873929629315e6 0.0
0.0 0.0 0.0

2.625085550939439e6 5.076729310067825e6 0.0
5.076729310067825e6 -7.478378641230661e6 0.0
0.0 0.0 0.0

-1.1057571238011478e7 5.564317686155129e6 0.0
5.564317686155129e6 3.770174216527482e7 0.0
0.0 0.0 0.0

5.486043187002044e6 4.508378687260258e6 0.0
4.508378687260258e6 -1.9649858206822973e7 0.0
0.0 0.0 0.0

-4.475533044601322e6 1.620980436271198e7 0.0
1.620980436271198e7 -2.9624342718527787e6 0.0
0.0 0.0 0.0

-9.946493708420988e6 1.905593008150786e7 0.0
1.905593008150786e7 -1.8596848428451181e6 0.0
0.0 0.0 0.0

-66805.74263016041 1.389701853468253e7 0.0
1.389701853468253e7 -1.108934864170071e7 0.0
0.0 0.0 0.0

-4.1438113196871188e6 6.311302774005283e6 0.0
6.311302774005283e6 4.876368059136546e6 0.0
0.0 0.0 0.0

-2.3360375631154915e6 1.6071583451134475e7 0.0
1.6071583451134475e7 250341.9183060571 0.0
0.0 0.0 0.0

5.842304361749061e6 1.9057055389539048e7 0.0
1.9057055389539048e7 -6.909240119287346e6 0.0
0.0 0.0 0.0

-4.369188202502254e6 -346981.4147469061 0.0
-346981.4147469061 6.499943896068499e6 0.0
0.0 0.0 0.0

4.5198161547917705e6 1.3984730065962149e7 0.0
1.3984730065962149e7 1.92034734555399e6 0.0
0.0 0.0 0.0

2.4032215051672272e6 2.426203166980529e7 0.0
2.426203166980529e7 -8.799134482673768e6 0.0
0.0 0.0 0.0

5.336076944074621e6 4.617597383176875e6 0.0
4.617597383176875e6 -1.7873237395034276e7 0.0
0.0 0.0 0.0

-5.10301278460952e6 1.3318287910419608e7 0.0
1.3318287910419608e7 2.226708638131867e6 0.0
0.0 0.0 0.0

4.212454087456312e6 1.55645750467551e7 0.0
1.55645750467551e7 1.8839014344871e7 0.0
0.0 0.0 0.0

3.1285827813549742e7 5.739002939436853e6 0.0
5.739002939436853e6 -2.925711774302069e6 0.0
0.0 0.0 0.0

-1.5211245203338034e7 2.013157650261076e7 0.0
2.013157650261076e7 347435.49042166304 0.0
0.0 0.0 0.0

-5.062805998136303e6 1.7549102974544004e7 0.0
1.7549102974544004e7 3.1184277073870976e6 0.0
0.0 0.0 0.0

2.2861615542824697e6 9.87259091094196e6 0.0
9.87259091094196e6 -2.4465160658122875e7 0.0
0.0 0.0 0.0

-1.125161712601283e7 2.0141088854973953e7 0.0
2.0141088854973953e7 7.138972487060808e6 0.0
0.0 0.0 0.0

3.0740926963368775e6 1.42575745206972e7 0.0
1.42575745206972e7 3.9922180910104476e6 0.0
0.0 0.0 0.0

-8.458443518509045e6 5.582168371239196e6 0.0
5.582168371239196e6 4.731073030605967e7 0.0
0.0 0.0 0.0

-4.870044064515956e6 1.6632604608109303e7 0.0
1.6632604608109303e7 7.331008128954057e6 0.0
0.0 0.0 0.0

484833.9678582896 1.3791218116298703e7 0.0
1.3791218116298703e7 6.136399542676153e6 0.0
0.0 0.0 0.0

-1.2026320626876918e6 1.4022102409003438e7 0.0
1.4022102409003438e7 -6.525137298400447e6 0.0
0.0 0.0 0.0

3.1689990620548325e6 1.511261356802006e7 0.0
1.511261356802006e7 -3.826002367560517e6 0.0
0.0 0.0 0.0

902760.7932631946 1.4829038189193085e7 0.0
1.4829038189193085e7 -6.141121713516387e6 0.0
0.0 0.0 0.0

-2.115094177448894e6 1.0777445910188189e7 0.0
1.0777445910188189e7 -2.949334291971081e6 0.0
0.0 0.0 0.0

-1.8932570865603439e6 1.5159847854028936e7 0.0
1.5159847854028936e7 9.775969239227347e6 0.0
0.0 0.0 0.0

35658.81110254477 1.3773536340460801e7 0.0
1.3773536340460801e7 318953.50698667474 0.0
0.0 0.0 0.0

-78845.95658097684 1.3411381732242202e7 0.0
1.3411381732242202e7 -2.767585731700808e6 0.0
0.0 0.0 0.0

-1.2722514028733773e6 1.2491936956827816e7 0.0
1.2491936956827816e7 -1.5987914212395882e7 0.0
0.0 0.0 0.0

-4.632672600307183e6 1.9427631928012602e7 0.0
1.9427631928012602e7 4.76434580426145e6 0.0
0.0 0.0 0.0

-8.086931328673866e6 1.7816962297709532e7 0.0
1.7816962297709532e7 -3.6405764512809333e6 0.0
0.0 0.0 0.0

-8.015015540602222e6 2.2006571790551767e7 0.0
2.2006571790551767e7 6.550461821520686e6 0.0
0.0 0.0 0.0

-2.818671755671949e6 1.4939057596624589e7 0.0
1.4939057596624589e7 6.865834335843679e6 0.0
0.0 0.0 0.0

4.824525278553102e6 6.235001197911229e6 0.0
6.235001197911229e6 -1.8033995625904523e7 0.0
0.0 0.0 0.0

-572248.9985635658 1.4779723099735174e7 0.0
1.4779723099735174e7 -9.309488298247399e6 0.0
0.0 0.0 0.0

3.1271442823792445e6 2.010683362455871e7 0.0
2.010683362455871e7 -6.379000119340012e6 0.0
0.0 0.0 0.0

-1.0769008551037226e7 -2.671061884554135e6 0.0
-2.671061884554135e6 1.797030111913953e7 0.0
0.0 0.0 0.0

-3.4024420735917194e6 1.6026741304352619e7 0.0
1.6026741304352619e7 4.5994814773193225e6 0.0
0.0 0.0 0.0

773941.2594564229 1.3535046468393736e7 0.0
1.3535046468393736e7 -36679.99675856548 0.0
0.0 0.0 0.0

2.942088800311501e6 1.6049671162839932e7 0.0
1.6049671162839932e7 -4.761270409011774e6 0.0
0.0 0.0 0.0

-1.1669703324584419e7 2.880624583580478e6 0.0
2.880624583580478e6 1.8590049247013368e7 0.0
0.0 0.0 0.0

1.4057604284740228e6 1.386805137513406e7 0.0
1.386805137513406e7 8.095476670780707e6 0.0
0.0 0.0 0.0

-6.412418849969172e6 1.5931701904779168e7 0.0
1.5931701904779168e7 -1.5585828611159255e6 0.0
0.0 0.0 0.0

1.262844804173367e6 1.2362986715623273e7 0.0
1.2362986715623273e7 -1.570630164637295e7 0.0
0.0 0.0 0.0

-695929.1955716858 2.3504562444491e7 0.0
2.3504562444491e7 -1.6677524330742355e6 0.0
0.0 0.0 0.0

-7.953274536618281e6 2.2588512005304676e7 0.0
2.2588512005304676e7 6.316311375946043e6 0.0
0.0 0.0 0.0

-1.1243519330423102e7 3.7686503474114877e6 0.0
3.7686503474114877e6 1.6221577033649389e7 0.0
0.0 0.0 0.0

-2.8855333096742057e6 1.678673757292228e7 0.0
1.678673757292228e7 -2.9009464667900787e6 0.0
0.0 0.0 0.0

-6.648510235671792e6 2.2679312339077752e7 0.0
2.2679312339077752e7 5.497844596110944e6 0.0
0.0 0.0 0.0

-6.884974273329753e6 2.2249690759639483e7 0.0
2.2249690759639483e7 5.816218039339077e6 0.0
0.0 0.0 0.0

546959.0532246045 1.32570037741635e7 0.0
1.32570037741635e7 4.828002302672782e6 0.0
0.0 0.0 0.0

2.4442297112539094e6 1.0421306576051578e7 0.0
1.0421306576051578e7 -1.3038763688142711e7 0.0
0.0 0.0 0.0

2.320860202570551e7 1.8990590262583315e7 0.0
1.8990590262583315e7 6.903622300479925e6 0.0
0.0 0.0 0.0

-2.747640281837503e7 -636148.8134965207 0.0
-636148.8134965207 1.0102289688475013e7 0.0
0.0 0.0 0.0

-1.2884035477672774e7 1.9512993992445618e7 0.0
1.9512993992445618e7 6.152781944441813e6 0.0
0.0 0.0 0.0

5.136933266781728e6 4.47840187513907e6 0.0
4.47840187513907e6 -1.9641468836761717e7 0.0
0.0 0.0 0.0

-1.20465605596011e6 1.4633270076693788e7 0.0
1.4633270076693788e7 -7.503329549819518e6 0.0
0.0 0.0 0.0

-9.958742942920487e6 2.054222104427636e7 0.0
2.054222104427636e7 7.198836320133535e6 0.0
0.0 0.0 0.0

-1.22249723820011e7 753509.9876106071 0.0
753509.9876106071 2.0259475791844316e7 0.0
0.0 0.0 0.0

3.1855613482767288e6 8.6735371838171e6 0.0
8.6735371838171e6 -1.712574469655183e7 0.0
0.0 0.0 0.0

-2.57676199628146e6 1.2022051478650754e7 0.0
1.2022051478650754e7 -1.310741056761338e7 0.0
0.0 0.0 0.0

3.047568707611062e6 1.5046252453309488e7 0.0
1.5046252453309488e7 3.637980893869356e6 0.0
0.0 0.0 0.0

-2.231288699772759e7 2.0881614541181937e7 0.0
2.0881614541181937e7 2.5652087548981598e6 0.0
0.0 0.0 0.0

-2.62366095445174e6 9.318598634927966e6 0.0
9.318598634927966e6 -1.3129804898285968e6 0.0
0.0 0.0 0.0

-7.940686040648242e6 2.0001079086053003e7 0.0
2.0001079086053003e7 6.563049043393521e6 0.0
0.0 0.0 0.0

-4.331918553578872e6 1.989695553644826e7 0.0
1.989695553644826e7 3.9079346346921083e6 0.0
0.0 0.0 0.0

-9.158329019289173e6 3.0548171643643966e6 0.0
3.0548171643643966e6 1.6030806421270624e7 0.0
0.0 0.0 0.0

-5.518784716875263e6 1.061659534644964e6 0.0
1.061659534644964e6 6.819972860465435e6 0.0
0.0 0.0 0.0

1.799252476439206e6 1.0672444256147658e7 0.0
1.0672444256147658e7 -1.3434692849121828e7 0.0
0.0 0.0 0.0

-1.106479141864033e7 -119063.78334794144 0.0
-119063.78334794144 2.045378749240899e7 0.0
0.0 0.0 0.0

632281.289302038 1.2763411212988894e7 0.0
1.2763411212988894e7 -1.257272311438739e7 0.0
0.0 0.0 0.0

3.400717362456097e6 1.4202308665935293e7 0.0
1.4202308665935293e7 -2.5328867728282823e6 0.0
0.0 0.0 0.0

1.2324415296886996e6 7.793010140956246e6 0.0
7.793010140956246e6 -8.182465211746366e6 0.0
0.0 0.0 0.0

-1.1853159260434855e7 1.9362121520381294e7 0.0
1.9362121520381294e7 6.403950157503456e6 0.0
0.0 0.0 0.0

-4.75625711946922e6 1.835011197545606e7 0.0
1.835011197545606e7 -2.642784027296193e6 0.0
0.0 0.0 0.0

68416.63721879548 1.0640012625545772e7 0.0
1.0640012625545772e7 228055.96509565943 0.0
0.0 0.0 0.0

-562594.8728615191 1.2817111242993418e7 0.0
1.2817111242993418e7 -1.8753165178439051e6 0.0
0.0 0.0 0.0

2.138364425135335e6 1.0849605253466878e7 0.0
1.0849605253466878e7 -1.235426675938518e7 0.0
0.0 0.0 0.0

-2.5754137424875516e6 1.2259482386016542e7 0.0
1.2259482386016542e7 -1.3003513244435042e7 0.0
0.0 0.0 0.0

-9.668725033187062e6 -1.7544491740903952e6 0.0
-1.7544491740903952e6 1.3009568541719915e7 0.0
0.0 0.0 0.0

-3.472298091910883e6 9.84627791361832e6 0.0
9.84627791361832e6 2.234503703669955e6 0.0
0.0 0.0 0.0

-950713.5079680765 1.608587279500212e7 0.0
1.608587279500212e7 -6.945706775013639e6 0.0
0.0 0.0 0.0

3.5666287192337224e6 6.840890194753659e6 0.0
6.840890194753659e6 -1.3599848376766153e7 0.0
0.0 0.0 0.0

-2.367201918545466e7 1.6021141576596627e7 0.0
1.6021141576596627e7 2.2291961778415283e6 0.0
0.0 0.0 0.0

2.5656493939807555e6 1.4924174355022833e7 0.0
1.4924174355022833e7 -3.755326477438651e6 0.0
0.0 0.0 0.0

1.0455299624953412e7 1.3370704923186824e7 0.0
1.3370704923186824e7 -2.240632721564121e6 0.0
0.0 0.0 0.0

-9.954867327880662e6 2.4612893970607586e7 0.0
2.4612893970607586e7 7.803820838197527e6 0.0
0.0 0.0 0.0

-8.3296089873368265e6 1.9510209377745201e6 0.0
1.9510209377745201e6 1.14161964027995e7 0.0
0.0 0.0 0.0

-590445.9302895502 1.3383830944276452e7 0.0
1.3383830944276452e7 -8.095308944219425e6 0.0
0.0 0.0 0.0

-4.018649551044741e6 1.656845443084911e7 0.0
1.656845443084911e7 -2.5861383897977136e6 0.0
0.0 0.0 0.0

-1.5714527388228588e7 2.128096704388593e7 0.0
2.128096704388593e7 8.850588114182394e6 0.0
0.0 0.0 0.0

-2.672370672105993e6 1.3230331099924525e7 0.0
1.3230331099924525e7 -1.9124130519494195e7 0.0
0.0 0.0 0.0

115155.63309773093 1.3722582342571933e7 0.0
1.3722582342571933e7 3.327840292804656e6 0.0
0.0 0.0 0.0

-1.3285419094308885e6 1.2330346543812137e7 0.0
1.2330346543812137e7 -1.436183408043958e7 0.0
0.0 0.0 0.0

-1.2994072461894717e7 2.334493520046534e7 0.0
2.334493520046534e7 8.876014173302684e6 0.0
0.0 0.0 0.0

-2.5166823960655928e6 1.7634624494005997e7 0.0
1.7634624494005997e7 -3.9456701577807367e6 0.0
0.0 0.0 0.0

-3.341053615383386e6 1.6538834184005894e7 0.0
1.6538834184005894e7 -318829.7787320273 0.0
0.0 0.0 0.0

3.4702468973615654e6 9.240008945576487e6 0.0
9.240008945576487e6 -1.8337570132328607e7 0.0
0.0 0.0 0.0

-1.1971596476134526e7 3.1109254478861378e6 0.0
3.1109254478861378e6 2.3458831210877705e7 0.0
0.0 0.0 0.0

-1.5078940232431076e6 1.3350366623059882e7 0.0
1.3350366623059882e7 -5.481890753658556e6 0.0
0.0 0.0 0.0

3.0186092357928096e6 1.516346514688261e7 0.0
1.516346514688261e7 -3.763880556787381e6 0.0
0.0 0.0 0.0

-2.1641491402848624e6 1.3011587881038768e7 0.0
1.3011587881038768e7 -1.6801172020860367e7 0.0
0.0 0.0 0.0

-8.765930897180744e6 1.9878168005760893e7 0.0
1.9878168005760893e7 6.347301892885208e6 0.0
0.0 0.0 0.0

7.154635342693495e6 2.270477089601248e7 0.0
2.270477089601248e7 -1.022259295049523e7 0.0
0.0 0.0 0.0

-2.418036890505466e6 1.6479855060308013e7 0.0
1.6479855060308013e7 -2.186370224027805e6 0.0
0.0 0.0 0.0

-9.136475795834646e6 2.073847815137918e7 0.0
2.073847815137918e7 6.819685986919047e6 0.0
0.0 0.0 0.0

-9.124855886769425e6 1.3386966029771114e7 0.0
1.3386966029771114e7 1.2262489790632823e7 0.0
0.0 0.0 0.0

1.1374216654505094e6 1.4436617245457986e7 0.0
1.4436617245457986e7 -5.423883925615363e6 0.0
0.0 0.0 0.0

-4.849285718485023e6 1.9562217913742952e7 0.0
1.9562217913742952e7 5.308563322869282e6 0.0
0.0 0.0 0.0

-1.7281354668818507e6 1.2679662308421975e7 0.0
1.2679662308421975e7 -1.833537817297122e7 0.0
0.0 0.0 0.0

4.5865541401764e6 5.540649967511695e6 0.0
5.540649967511695e6 -1.7363990039316013e7 0.0
0.0 0.0 0.0

-2.2165112163688163e6 1.2882625004633e7 0.0
1.2882625004633e7 -1.520490906235357e7 0.0
0.0 0.0 0.0

-5.2011009188111285e6 2.1087625069980446e7 0.0
2.1087625069980446e7 4.719658457954811e6 0.0
0.0 0.0 0.0

-1.8812935563931628e6 1.360418836202749e7 0.0
1.360418836202749e7 -6.27097842013164e6 0.0
0.0 0.0 0.0

1.2475971712152115e6 1.251722854379361e7 0.0
1.251722854379361e7 4.158657510925349e6 0.0
0.0 0.0 0.0

-1.2294591626789676e7 1.148214981271034e7 0.0
1.148214981271034e7 1.7112859402701482e7 0.0
0.0 0.0 0.0

-1.2319529087846403e6 1.0532678363435332e7 0.0
1.0532678363435332e7 -2.5921884565318758e6 0.0
0.0 0.0 0.0

4.506170521954888e6 1.3538844260183435e7 0.0
1.3538844260183435e7 2.0152830717032477e7 0.0
0.0 0.0 0.0

-1.1408913395641463e7 -1.6639708280159065e6 0.0
-1.6639708280159065e6 2.2565714175761886e7 0.0
0.0 0.0 0.0

5.107175343994188e6 4.984679640539304e6 0.0
4.984679640539304e6 -2.3192277809766315e7 0.0
0.0 0.0 0.0

-804781.8285182016 1.2957294100773796e7 0.0
1.2957294100773796e7 -1.5921282567370653e7 0.0
0.0 0.0 0.0

-8.035560541767826e6 2.085722302594833e7 0.0
2.085722302594833e7 6.5697753843461815e6 0.0
0.0 0.0 0.0

1.4053702573910195e7 1.109224664614532e7 0.0
1.109224664614532e7 -282308.6541916169 0.0
0.0 0.0 0.0

-1.2176304757617922e7 1.6362001247891746e6 0.0
1.6362001247891746e6 1.7129862262450773e7 0.0
0.0 0.0 0.0

-1.2720692861619757e7 2.1814933594913475e7 0.0
2.1814933594913475e7 -2.190160907282088e6 0.0
0.0 0.0 0.0

-3.717797033947668e6 1.560347169693103e7 0.0
1.560347169693103e7 4.637270223254643e6 0.0
0.0 0.0 0.0

-1.6425564758952517e7 2.263641277697882e7 0.0
2.263641277697882e7 9.582103953127412e6 0.0
0.0 0.0 0.0

5.004254383514851e6 5.288326473343229e6 0.0
5.288326473343229e6 -2.400153230749631e7 0.0
0.0 0.0 0.0

-1.0189812171790705e6 2.014870424486843e7 0.0
2.014870424486843e7 -2.3440230432367534e6 0.0
0.0 0.0 0.0

-1.0418299101844506e7 9.199285139803395e6 0.0
9.199285139803395e6 3.3227046721967027e7 0.0
0.0 0.0 0.0

-5.037357359045865e6 1.91099246570856e7 0.0
1.91099246570856e7 6.5344072935245065e6 0.0
0.0 0.0 0.0

-1.0182953244554251e6 1.2942029921654824e7 0.0
1.2942029921654824e7 -4.255347257663094e6 0.0
0.0 0.0 0.0

-1.5212907673527957e6 3.67891330358395e6 0.0
3.67891330358395e6 1.0784825541414823e6 0.0
0.0 0.0 0.0

553951.4945111345 1.4359573155830188e7 0.0
1.4359573155830188e7 6.30484516280769e6 0.0
0.0 0.0 0.0

-4.3121543294573035e6 1.633982933305385e7 0.0
1.633982933305385e7 6.127531629261482e6 0.0
0.0 0.0 0.0

1.658990689620228e6 8.3200671207572315e6 0.0
8.3200671207572315e6 -7.368451213616592e6 0.0
0.0 0.0 0.0

-1.7661786002754099e6 1.5200930082701413e7 0.0
1.5200930082701413e7 18179.461517355987 0.0
0.0 0.0 0.0

2.4952753625992597e6 1.4828859822730426e7 0.0
1.4828859822730426e7 -3.8995712465218366e6 0.0
0.0 0.0 0.0

-1.8500255694081914e6 1.0360958879894946e7 0.0
1.0360958879894946e7 -1.0997435183405108e6 0.0
0.0 0.0 0.0

-471347.79086632 1.2354402768842999e7 0.0
1.2354402768842999e7 -1.7179990158879165e7 0.0
0.0 0.0 0.0

-5.826484335669055e6 1.2429964846018218e7 0.0
1.2429964846018218e7 3.779479440104881e6 0.0
0.0 0.0 0.0

-9.489998312749734e6 1.3370362230452826e7 0.0
1.3370362230452826e7 1.512042593508431e7 0.0
0.0 0.0 0.0

-9.172643790900692e6 -2.0449659556241727e6 0.0
-2.0449659556241727e6 1.4895880629498795e7 0.0
0.0 0.0 0.0

-6.694178404060916e6 1.6465670988097878e7 0.0
1.6465670988097878e7 701715.3492058194 0.0
0.0 0.0 0.0

-6.399404479530085e6 1.9867001016066704e7 0.0
1.9867001016066704e7 6.49853958212825e6 0.0
0.0 0.0 0.0

1.8211351569107191e6 2.028548166510106e7 0.0
2.028548166510106e7 -4.780340881802347e6 0.0
0.0 0.0 0.0

-1.2076014680959517e7 1.3085978613433097e6 0.0
1.3085978613433097e6 1.84194724724309e7 0.0
0.0 0.0 0.0

-1.1601297015879229e6 1.2801235536947852e7 0.0
1.2801235536947852e7 -1.7853144431729324e7 0.0
0.0 0.0 0.0

-5.232829022098592e6 1.984509645090646e7 0.0
1.984509645090646e7 6.298946068666521e6 0.0
0.0 0.0 0.0

739975.7832739186 1.3220294447208853e7 0.0
1.3220294447208853e7 -6.629213789539941e6 0.0
0.0 0.0 0.0

-1.2283253455718886e6 1.1543575409771856e7 0.0
1.1543575409771856e7 -5.219034569768711e6 0.0
0.0 0.0 0.0

-6.600936867642203e6 1.8621492011091772e6 0.0
1.8621492011091772e6 8.960226428316021e6 0.0
0.0 0.0 0.0

-7.954876188676089e6 2.1563849983028222e7 0.0
2.1563849983028222e7 6.869464529226009e6 0.0
0.0 0.0 0.0

-3.46887651501054e6 1.6454217155427802e7 0.0
1.6454217155427802e7 476596.5656557714 0.0
0.0 0.0 0.0

461574.2008449272 1.4487551684438303e7 0.0
1.4487551684438303e7 7.775564191108558e6 0.0
0.0 0.0 0.0

381554.42927320104 4.235088330679579e6 0.0
4.235088330679579e6 -1.7003406910151914e6 0.0
0.0 0.0 0.0

1.5162943353828692e6 1.3626468017181205e7 0.0
1.3626468017181205e7 1.7199423718695024e6 0.0
0.0 0.0 0.0

3.378796922459636e6 8.209896326985964e6 0.0
8.209896326985964e6 -3.098861871964499e7 0.0
0.0 0.0 0.0

-1.8324053191832798e6 2.261506855317075e7 0.0
2.261506855317075e7 -2.3119617975688144e6 0.0
0.0 0.0 0.0

-5.332945911178816e6 1.7181780964998927e7 0.0
1.7181780964998927e7 7.352678011635626e6 0.0
0.0 0.0 0.0

-6.298068668578904e6 6.763112375261514e6 0.0
6.763112375261514e6 5.130363937493948e6 0.0
0.0 0.0 0.0

-491950.9261038572 1.4870095810867747e7 0.0
1.4870095810867747e7 -2.2343362933065183e6 0.0
0.0 0.0 0.0

2.877632892094476e6 9.50386906732653e6 0.0
9.50386906732653e6 -2.8611698150156274e7 0.0
0.0 0.0 0.0

561913.2374843899 1.2696806151274182e7 0.0
1.2696806151274182e7 -1.4485055415867755e7 0.0
0.0 0.0 0.0

-8.79989674144198e6 2.3292754747919686e7 0.0
2.3292754747919686e7 6.431346646940418e6 0.0
0.0 0.0 0.0

-1.5359077778682606e6 1.341012779927239e7 0.0
1.341012779927239e7 -5.119693003750737e6 0.0
0.0 0.0 0.0

-2.4973982656078027e6 1.6586019499799535e7 0.0
1.6586019499799535e7 -5.3219624528942e6 0.0
0.0 0.0 0.0

-4.953731479389396e6 1.7358446278203398e7 0.0
1.7358446278203398e7 4.850505285348037e6 0.0
0.0 0.0 0.0

111603.74288610043 1.3417279428586982e7 0.0
1.3417279428586982e7 -8.217413137395769e6 0.0
0.0 0.0 0.0

2.4065626738312785e6 1.4836712844023235e7 0.0
1.4836712844023235e7 2.899800767200478e6 0.0
0.0 0.0 0.0

-5.570907455666575e6 1.7352387477031287e7 0.0
1.7352387477031287e7 -2.6102936998435194e6 0.0
0.0 0.0 0.0

-1.67220803859694e6 1.5343743514914626e7 0.0
1.5343743514914626e7 2.6748975064968965e6 0.0
0.0 0.0 0.0

-1.0623462907186372e7 6.0112618585135825e6 0.0
6.0112618585135825e6 3.838948846006518e7 0.0
0.0 0.0 0.0

-379318.12799936556 1.1309707217213288e7 0.0
1.1309707217213288e7 -4.864272129799511e6 0.0
0.0 0.0 0.0

-3.1879509293472082e6 1.1717258565231401e7 0.0
1.1717258565231401e7 -1.3299856679324806e7 0.0
0.0 0.0 0.0

-248478.03976613423 1.4425547231811415e7 0.0
1.4425547231811415e7 -1.0169959550198913e7 0.0
0.0 0.0 0.0

-3.882529690876714e6 1.4840390260413216e7 0.0
1.4840390260413216e7 -5.729837825863229e6 0.0
0.0 0.0 0.0

-4.274153595437757e6 1.6018820580292106e7 0.0
1.6018820580292106e7 6.240381476221907e6 0.0
0.0 0.0 0.0

-103697.28671692617 1.2685475412847236e7 0.0
1.2685475412847236e7 -345657.538719993 0.0
0.0 0.0 0.0

-4.450801127576631e6 2.011665403876176e7 0.0
2.011665403876176e7 4.517690307938739e6 0.0
0.0 0.0 0.0

-1.4611861636836226e6 1.5670475265052285e7 0.0
1.5670475265052285e7 -15170.518496597011 0.0
0.0 0.0 0.0

-1.083589178238627e7 -146523.80498951403 0.0
-146523.80498951403 3.807666521491429e7 0.0
0.0 0.0 0.0

-1.2245343822186448e7 4.508027703628943e6 0.0
4.508027703628943e6 1.485924565553151e7 0.0
0.0 0.0 0.0

822973.9564278452 1.3562125266758736e7 0.0
1.3562125266758736e7 -6.142212505063554e6 0.0
0.0 0.0 0.0

-1.7202106324089963e7 1.8412832548686944e7 0.0
1.8412832548686944e7 6.282002018584319e6 0.0
0.0 0.0 0.0

-8.616943980681112e6 837482.5791345655 0.0
837482.5791345655 9.79450302987349e6 0.0
0.0 0.0 0.0

-1.2159973864979314e7 3.8275506037952467e6 0.0
3.8275506037952467e6 3.007287996613406e7 0.0
0.0 0.0 0.0

-1.177078743823116e6 -758209.2576288783 0.0
-758209.2576288783 439757.1455078758 0.0
0.0 0.0 0.0

-5.08573625473533e6 2.312819951372877e6 0.0
2.312819951372877e6 2.3702577683575405e6 0.0
0.0 0.0 0.0

2.336023420314634e6 9.65341855354428e6 0.0
9.65341855354428e6 -1.3515677510586757e7 0.0
0.0 0.0 0.0

-4.1558981152081303e6 1.6663371755662672e7 0.0
1.6663371755662672e7 198562.22372269002 0.0
0.0 0.0 0.0

-5.2523229466171535e6 1.4697453842821036e7 0.0
1.4697453842821036e7 -3.868816685267247e6 0.0
0.0 0.0 0.0

-4.9184132003131155e6 1.5943546444653582e7 0.0
1.5943546444653582e7 8.490533119629422e6 0.0
0.0 0.0 0.0

-869146.7764791204 1.2375950606635174e7 0.0
1.2375950606635174e7 -1.3817882759437907e7 0.0
0.0 0.0 0.0

-968068.0641261986 1.3715389562523784e7 0.0
1.3715389562523784e7 7.330250101626812e6 0.0
0.0 0.0 0.0

-4.440990382873128e6 1.276863957776215e7 0.0
1.276863957776215e7 -1.788442315633916e7 0.0
0.0 0.0 0.0

-2.7276256022901973e6 1.542111620623124e7 0.0
1.542111620623124e7 1.5377517506808368e6 0.0
0.0 0.0 0.0

1.9906720838851053e6 1.0155548931366505e7 0.0
1.0155548931366505e7 -3.356608814313872e7 0.0
0.0 0.0 0.0

2.830434344439989e6 9.665380818607599e6 0.0
9.665380818607599e6 -2.5491868528412424e7 0.0
0.0 0.0 0.0

-1.465965216144746e6 1.6092113130216943e7 0.0
1.6092113130216943e7 -4.867517653530125e6 0.0
0.0 0.0 0.0

-6.718495658303499e6 1.9312507234578688e7 0.0
1.9312507234578688e7 -1.4271296998823392e6 0.0
0.0 0.0 0.0

-8.886567065862097e6 1.9733358048646163e7 0.0
1.9733358048646163e7 6.605175419404855e6 0.0
0.0 0.0 0.0

-4.5937512146840785e6 1.0144353689005425e7 0.0
1.0144353689005425e7 1.8506739556105067e6 0.0
0.0 0.0 0.0

-2.737757174343193e6 3.7036534353324263e6 0.0
3.7036534353324263e6 4.5211882398814075e6 0.0
0.0 0.0 0.0

861083.274566541 1.2688843386430157e7 0.0
1.2688843386430157e7 -5.593894447393249e6 0.0
0.0 0.0 0.0

3.888784116561142e6 1.5435984748867594e7 0.0
1.5435984748867594e7 -4.193329601097913e6 0.0
0.0 0.0 0.0

-9.455445169786612e6 9.73654283714213e6 0.0
9.73654283714213e6 3.3996870272193916e7 0.0
0.0 0.0 0.0

-2.0546461854993168e6 1.51204976988182e7 0.0
1.51204976988182e7 5.497165724563291e6 0.0
0.0 0.0 0.0

-6.497675546363071e6 1.9906693851386227e7 0.0
1.9906693851386227e7 6.578181966559937e6 0.0
0.0 0.0 0.0

-1.8873979667849694e6 1.1688364992095185e7 0.0
1.1688364992095185e7 -9.467478217138508e6 0.0
0.0 0.0 0.0

-1.2037203235436875e7 6.82527596196692e6 0.0
6.82527596196692e6 2.7606099808427513e7 0.0
0.0 0.0 0.0

-2.0376955426552156e6 1.4878559030108364e7 0.0
1.4878559030108364e7 2.7957910471237614e6 0.0
0.0 0.0 0.0

-603569.7776117935 1.4449142878747206e7 0.0
1.4449142878747206e7 -9.740040284207726e6 0.0
0.0 0.0 0.0

954123.38032878 1.206375876525782e7 0.0
1.206375876525782e7 -1.6517586410980206e7 0.0
0.0 0.0 0.0

3.0974079192782715e6 8.898281036942955e6 0.0
8.898281036942955e6 -2.4905991205207832e7 0.0
0.0 0.0 0.0

2.9680598827786986e6 9.301327859815972e6 0.0
9.301327859815972e6 -2.073199647892106e7 0.0
0.0 0.0 0.0

-3.835490236092969e6 1.4413151905033456e7 0.0
1.4413151905033456e7 -2.5588953402230017e7 0.0
0.0 0.0 0.0

-4.648358247308294e6 1.984269661818356e7 0.0
1.984269661818356e7 4.909936788644262e6 0.0
0.0 0.0 0.0

-2.6398835887666037e6 1.6766150610939374e7 0.0
1.6766150610939374e7 -4.1600415420285575e6 0.0
0.0 0.0 0.0

176522.84908354096 1.3531475555600477e7 0.0
1.3531475555600477e7 -9.423461490236131e6 0.0
0.0 0.0 0.0

8.813693771019671e6 1.5441783013413474e7 0.0
1.5441783013413474e7 -4.75320945005366e6 0.0
0.0 0.0 0.0

-1.1038305999374917e7 1.9625721531444245e6 0.0
1.9625721531444245e6 3.361975379070523e7 0.0
0.0 0.0 0.0

2.1687776215169616e6 9.899948040825993e6 0.0
9.899948040825993e6 -2.9194419065039963e7 0.0
0.0 0.0 0.0

3.301388882009266e6 9.458706994686e6 0.0
9.458706994686e6 -2.0454924720700845e7 0.0
0.0 0.0 0.0

-9.414845829203263e6 6.085219716590499e6 0.0
6.085219716590499e6 4.291060063528439e7 0.0
0.0 0.0 0.0

7.28353574933514e6 1.5230379785018595e7 0.0
1.5230379785018595e7 4.258311110577812e6 0.0
0.0 0.0 0.0

-1.1123486169139942e7 4.97227117357517e6 0.0
4.97227117357517e6 3.1458503998785615e7 0.0
0.0 0.0 0.0

-1.0881076748095995e6 2.8504493896161523e6 0.0
2.8504493896161523e6 -429746.4834492437 0.0
0.0 0.0 0.0

-4.772767570483174e6 2.0451157814681184e7 0.0
2.0451157814681184e7 3.877723473048342e6 0.0
0.0 0.0 0.0

2.9376906046229536e6 9.108329283099577e6 0.0
9.108329283099577e6 -1.639541411566993e7 0.0
0.0 0.0 0.0

-6.653001008579608e6 2.201234343344208e7 0.0
2.201234343344208e7 6.587164733998254e6 0.0
0.0 0.0 0.0

-1.134641256350387e7 8.999468582125077e6 0.0
8.999468582125077e6 2.471543964920021e7 0.0
0.0 0.0 0.0

-1.1402818073510762e7 3.32556607289349e6 0.0
3.32556607289349e6 1.3601646131260496e7 0.0
0.0 0.0 0.0

-329389.618747607 2.0309724168102957e7 0.0
2.0309724168102957e7 -2.916924230030047e6 0.0
0.0 0.0 0.0

-4.869469905985446e6 1.6352696503624199e7 0.0
1.6352696503624199e7 8.335683750562761e6 0.0
0.0 0.0 0.0

-1.9434439222929683e6 1.787296966927687e7 0.0
1.787296966927687e7 -3.5679170866943584e6 0.0
0.0 0.0 0.0

-5.772856125297945e6 1.802118400680426e7 0.0
1.802118400680426e7 6.042557903057291e6 0.0
0.0 0.0 0.0

-722255.1780424463 1.2966245020910593e7 0.0
1.2966245020910593e7 -1.4719830283404034e7 0.0
0.0 0.0 0.0

752422.6199184186 1.5924954350077089e7 0.0
1.5924954350077089e7 -5.791738852245318e6 0.0
0.0 0.0 0.0

962592.8739427971 1.4435078690573163e7 0.0
1.4435078690573163e7 1.9602450561011344e7 0.0
0.0 0.0 0.0

-5.458025995523766e6 1.6378387690811006e6 0.0
1.6378387690811006e6 1.1495914605504815e7 0.0
0.0 0.0 0.0

-4.5185410922156e6 5.303124551722512e6 0.0
5.303124551722512e6 -1.2238064449777037e6 0.0
0.0 0.0 0.0

-2.24797350567833e6 1.4021955650511827e7 0.0
1.4021955650511827e7 -7.493244896063665e6 0.0
0.0 0.0 0.0

1.9201919079308559e6 1.4253112659002984e7 0.0
1.4253112659002984e7 6.4006400640423605e6 0.0
0.0 0.0 0.0

-1.3350002041917827e6 2.306606396670707e7 0.0
2.306606396670707e7 -3.6756753368471786e6 0.0
0.0 0.0 0.0

3.9913516409743107e6 5.564075861432623e6 0.0
5.564075861432623e6 -1.1165189978161259e7 0.0
0.0 0.0 0.0

-5.385824523040064e6 2.260472157537122e7 0.0
2.260472157537122e7 5.5762072620821e6 0.0
0.0 0.0 0.0

-2.895889944520466e7 8.274344126034981e6 0.0
8.274344126034981e6 1.1057794202502046e7 0.0
0.0 0.0 0.0

-360768.9959568279 1.4585471111674946e7 0.0
1.4585471111674946e7 -9.499681462682627e6 0.0
0.0 0.0 0.0

-1.156386673344132e7 1.0558509062937224e7 0.0
1.0558509062937224e7 2.110514967819552e7 0.0
0.0 0.0 0.0

764023.1382142603 1.356537839242617e7 0.0
1.356537839242617e7 -6.115421149219113e6 0.0
0.0 0.0 0.0

-4.666804457856199e6 1.6648577912152894e7 0.0
1.6648577912152894e7 6.603613836184392e6 0.0
0.0 0.0 0.0

-3.800635927216776e6 1.6311732418356355e7 0.0
1.6311732418356355e7 -599458.4836218839 0.0
0.0 0.0 0.0

764731.7086836295 1.4039639045461757e7 0.0
1.4039639045461757e7 -6.977722199452119e6 0.0
0.0 0.0 0.0

5.160768898330208e6 4.803776463761348e6 0.0
4.803776463761348e6 -2.4807769779621273e7 0.0
0.0 0.0 0.0

-737751.9226239339 1.0309476189294368e7 0.0
1.0309476189294368e7 -2.459173424662069e6 0.0
0.0 0.0 0.0

3.734742341842586e6 1.6468511731446197e7 0.0
1.6468511731446197e7 -4.881142432738175e6 0.0
0.0 0.0 0.0

17607.328082231805 1.3518421177469844e7 0.0
1.3518421177469844e7 -1.0403720640986752e7 0.0
0.0 0.0 0.0

366700.1556786285 1.4823569939811321e7 0.0
1.4823569939811321e7 6.49263171097271e6 0.0
0.0 0.0 0.0

2.291420994860964e6 9.909562744862346e6 0.0
9.909562744862346e6 -2.587184129378654e7 0.0
0.0 0.0 0.0

-2.0862288638012188e6 1.5985249447872492e7 0.0
1.5985249447872492e7 -4.8733240517425705e6 0.0
0.0 0.0 0.0

-1.0783778156960588e6 1.596690523486127e7 0.0
1.596690523486127e7 1.0768545646784257e7 0.0
0.0 0.0 0.0

8.314761238120871e6 1.9291461863130745e7 0.0
1.9291461863130745e7 -8.140406134324886e6 0.0
0.0 0.0 0.0

2.7934365911196163e6 9.717348012040157e6 0.0
9.717348012040157e6 -2.2799785919008117e7 0.0
0.0 0.0 0.0

-2.451467294423633e7 6.991549040816411e6 0.0
6.991549040816411e6 1.0706671448276086e7 0.0
0.0 0.0 0.0

-1.0786248527076351e6 1.4551709115687843e7 0.0
1.4551709115687843e7 7.172337804653125e6 0.0
0.0 0.0 0.0

-6.375077695010973e6 2.258916917764466e7 0.0
2.258916917764466e7 6.395749817745406e6 0.0
0.0 0.0 0.0

-889311.7401704907 1.4901130681428542e7 0.0
1.4901130681428542e7 -6.529123173867125e6 0.0
0.0 0.0 0.0

-5.909313889542909e6 2.016925104458326e7 0.0
2.016925104458326e7 6.258040320251059e6 0.0
0.0 0.0 0.0

-1.0280736748545192e7 9.096289251070049e6 0.0
9.096289251070049e6 3.654339102918696e7 0.0
0.0 0.0 0.0

1.4984577784495847e6 1.1630511478259372e7 0.0
1.1630511478259372e7 -1.0934136795927282e7 0.0
0.0 0.0 0.0

-1.6738262983516618e6 2.043525280590989e7 0.0
2.043525280590989e7 -2.8056280798694952e6 0.0
0.0 0.0 0.0

-1.5985808292541082e6 9.02549819310407e6 0.0
9.02549819310407e6 -877452.3199119833 0.0
0.0 0.0 0.0

-2.335224817293433e7 6.678887895754245e6 0.0
6.678887895754245e6 1.0778775421100825e7 0.0
0.0 0.0 0.0

-3.1952450127271856e6 1.1423570301297927e7 0.0
1.1423570301297927e7 -1.1076367497935654e6 0.0
0.0 0.0 0.0

-1.1653779482004143e7 -445092.24589611066 0.0
-445092.24589611066 1.8119571463552833e7 0.0
0.0 0.0 0.0

-1.0718933868228821e7 1.1389042135979539e7 0.0
1.1389042135979539e7 2.2239458585807174e7 0.0
0.0 0.0 0.0

-5.518532502612779e6 2.145916381523126e7 0.0
2.145916381523126e7 4.992670649637418e6 0.0
0.0 0.0 0.0

-6.195892645734193e6 2.3021598502341375e7 0.0
2.3021598502341375e7 6.070168857651725e6 0.0
0.0 0.0 0.0

-1.097333864638526e7 7.800365665122494e6 0.0
7.800365665122494e6 2.8822761117562164e7 0.0
0.0 0.0 0.0

1.4247042362661413e6 1.0694002712565877e7 0.0
1.0694002712565877e7 -9.188775933392128e6 0.0
0.0 0.0 0.0

2.813759701314089e6 1.4566551021177582e7 0.0
1.4566551021177582e7 -2.0423653312443788e6 0.0
0.0 0.0 0.0

-1.3368597263266668e6 1.0203733635677345e7 0.0
1.0203733635677345e7 -6.858597784850786e6 0.0
0.0 0.0 0.0

-223245.93645447414 7.502473113875543e6 0.0
7.502473113875543e6 -1.2613748381035153e6 0.0
0.0 0.0 0.0

-4.820917660352165e6 2.1359778610922437e7 0.0
2.1359778610922437e7 5.105493631476192e6 0.0
0.0 0.0 0.0

-1.1672582682336025e7 1.2549506051421374e7 0.0
1.2549506051421374e7 1.6024174623324161e7 0.0
0.0 0.0 0.0

2.2858684367383663e6 1.00368647846949e7 0.0
1.00368647846949e7 -2.328385112357754e7 0.0
0.0 0.0 0.0

-1.4480397168703761e7 1.8395788977114454e7 0.0
1.8395788977114454e7 4.896093298429158e6 0.0
0.0 0.0 0.0

-2.1432539474553955e6 1.83690313121425e7 0.0
1.83690313121425e7 -2.7655739242475536e6 0.0
0.0 0.0 0.0

4.674052440384747e6 5.84321750607038e6 0.0
5.84321750607038e6 -2.9217779479722776e7 0.0
0.0 0.0 0.0

-4.629367158757212e6 1.5042122152746484e7 0.0
1.5042122152746484e7 1.0516635387352776e7 0.0
0.0 0.0 0.0

-4.02593200041069e6 1.6660354539703622e7 0.0
1.6660354539703622e7 1.779672066485159e6 0.0
0.0 0.0 0.0

-40527.51027129823 1.469324008979038e7 0.0
1.469324008979038e7 -9.626011859715274e6 0.0
0.0 0.0 0.0

-7.716381513751171e6 2.2268706403916497e7 0.0
2.2268706403916497e7 7.007165649966799e6 0.0
0.0 0.0 0.0

-3.2839274355216064e6 1.6658587318209281e7 0.0
1.6658587318209281e7 -34437.41907053895 0.0
0.0 0.0 0.0

-6.117516200548282e6 2.1849324545607068e7 0.0
2.1849324545607068e7 5.370928107630086e6 0.0
0.0 0.0 0.0

-803454.704602175 6.75362589694922e6 0.0
6.75362589694922e6 -1.2192204007421625e6 0.0
0.0 0.0 0.0

1.822112845784559e6 1.4141407185752496e7 0.0
1.4141407185752496e7 7.719074745991072e6 0.0
0.0 0.0 0.0

311136.62961091567 1.3007457794951512e7 0.0
1.3007457794951512e7 -1.3279143033840802e7 0.0
0.0 0.0 0.0

-2.2500707743093953e6 1.1157821726596642e7 0.0
1.1157821726596642e7 -722143.8001536083 0.0
0.0 0.0 0.0

3996.230985905044 1.3850671078638336e7 0.0
1.3850671078638336e7 -1.1006762940518593e7 0.0
0.0 0.0 0.0

3.200041945350061e6 7.229725562549967e6 0.0
7.229725562549967e6 -1.2922615681039413e7 0.0
0.0 0.0 0.0

2.7029757367898747e6 1.6532097931376807e7 0.0
1.6532097931376807e7 7.684495181896649e6 0.0
0.0 0.0 0.0

-9.684417388591712e6 -4.227980728888668e6 0.0
-4.227980728888668e6 2.337418573582429e7 0.0
0.0 0.0 0.0

2.1775920396835357e6 1.432845755127613e7 0.0
1.432845755127613e7 8.88142735151937e6 0.0
0.0 0.0 0.0

-4.9540517199788485e6 2.0251637144303303e7 0.0
2.0251637144303303e7 4.331312529579105e6 0.0
0.0 0.0 0.0

843405.2226779098 1.2846937599194448e7 0.0
1.2846937599194448e7 -1.4701928949638668e7 0.0
0.0 0.0 0.0

-1.5380721687692832e6 1.9912014754632346e7 0.0
1.9912014754632346e7 -2.0962406993637984e6 0.0
0.0 0.0 0.0

-105001.45191484701 1.4411409073867641e7 0.0
1.4411409073867641e7 -1.8710641798655472e6 0.0
0.0 0.0 0.0

3.5551599958887612e6 8.811223813305223e6 0.0
8.811223813305223e6 -1.5923679600698663e7 0.0
0.0 0.0 0.0

-2.448732655461546e6 1.7983506397941735e7 0.0
1.7983506397941735e7 -3.7441406128657814e6 0.0
0.0 0.0 0.0

228922.9478041036 1.3241011023468044e7 0.0
1.3241011023468044e7 -1.2534950411670927e7 0.0
0.0 0.0 0.0

-5.968241783608748e6 5.094521358234988e6 0.0
5.094521358234988e6 7.0505571822553985e6 0.0
0.0 0.0 0.0

-1.281660369798033e6 1.5963728184735214e7 0.0
1.5963728184735214e7 8.58010007883403e6 0.0
0.0 0.0 0.0

-4.999358479784755e6 1.690080307115376e7 0.0
1.690080307115376e7 6.429706199109997e6 0.0
0.0 0.0 0.0

-5.04942856826861e6 2.068030362156467e7 0.0
2.068030362156467e7 4.500785269467182e6 0.0
0.0 0.0 0.0

-2.0310254747171667e6 1.4579089923132716e7 0.0
1.4579089923132716e7 5.352886058801259e6 0.0
0.0 0.0 0.0

-1.4833699914693837e6 4.6589625673819035e6 0.0
4.6589625673819035e6 789474.4815559894 0.0
0.0 0.0 0.0

-1.2554207112006202e7 6.002998291960525e6 0.0
6.002998291960525e6 2.355048355977688e7 0.0
0.0 0.0 0.0

-172089.61397105316 1.4185222134222066e7 0.0
1.4185222134222066e7 -1.0272972665901985e7 0.0
0.0 0.0 0.0

1.1349345311273616e6 1.20262049508372e7 0.0
1.20262049508372e7 -3.2292150796732187e7 0.0
0.0 0.0 0.0

-1.4348797629137908e6 5.492309384039191e6 0.0
5.492309384039191e6 414230.66406755155 0.0
0.0 0.0 0.0

-9.720483437053444e6 -735808.2159923674 0.0
-735808.2159923674 1.24844957938855e7 0.0
0.0 0.0 0.0

-6.248959602961695e6 1.2842745243967853e7 0.0
1.2842745243967853e7 4.9091459566223845e6 0.0
0.0 0.0 0.0

-2.429312401958747e6 1.8512335716167513e7 0.0
1.8512335716167513e7 -2.1581522336115064e6 0.0
0.0 0.0 0.0

-518999.6412660256 1.2434210384076832e7 0.0
1.2434210384076832e7 -2.1859022817152884e7 0.0
0.0 0.0 0.0

3.5980999547102274e6 7.009168266088958e6 0.0
7.009168266088958e6 -1.1433334653474042e7 0.0
0.0 0.0 0.0

-4.313041101005685e6 2.0316298147338804e7 0.0
2.0316298147338804e7 4.0792885499476967e6 0.0
0.0 0.0 0.0

-1.844393693089537e6 1.8191986923975304e7 0.0
1.8191986923975304e7 -3.4211667939857645e6 0.0
0.0 0.0 0.0

-1.0582321804252539e7 2.5648791849362433e7 0.0
2.5648791849362433e7 6.01818978673066e6 0.0
0.0 0.0 0.0

-4.512233304307888e6 2.0520564366828408e7 0.0
2.0520564366828408e7 4.73638980163662e6 0.0
0.0 0.0 0.0

-1.4420016055831524e7 2.0421631715757262e7 0.0
2.0421631715757262e7 1.8094123857323108e6 0.0
0.0 0.0 0.0

-1.48425352552008e6 1.5876772917080503e7 0.0
1.5876772917080503e7 -1.1174746826192338e6 0.0
0.0 0.0 0.0

770971.110181978 1.1887990858057851e7 0.0
1.1887990858057851e7 -2.9984640836237006e7 0.0
0.0 0.0 0.0

-2.8188835818954613e6 1.0638040052058138e7 0.0
1.0638040052058138e7 -1.505228976238865e6 0.0
0.0 0.0 0.0

-1.18009020720159e7 -1.5092535601298558e6 0.0
-1.5092535601298558e6 2.7761880913571738e7 0.0
0.0 0.0 0.0

-1.175019962617536e7 2.736339897175487e6 0.0
2.736339897175487e6 3.2872465808554385e7 0.0
0.0 0.0 0.0

4.5324680464047e6 6.354748392443535e6 0.0
6.354748392443535e6 -2.24050658197996e7 0.0
0.0 0.0 0.0

-5.189890088657282e6 1.7937353245351426e7 0.0
1.7937353245351426e7 7.0885870035889195e6 0.0
0.0 0.0 0.0

-9.92620697732455e6 9.933852305956343e6 0.0
9.933852305956343e6 3.0950397076438356e7 0.0
0.0 0.0 0.0

132968.6172647844 1.354045545331529e7 0.0
1.354045545331529e7 -1.1767454070202626e7 0.0
0.0 0.0 0.0

-8.559223704909457e6 1.1952457735540746e7 0.0
1.1952457735540746e7 2.76805070800803e7 0.0
0.0 0.0 0.0

-2.758741820603605e6 1.8129646792106993e7 0.0
1.8129646792106993e7 -3.1429448783905935e6 0.0
0.0 0.0 0.0

-2.685775765564151e6 2.1339127385602027e7 0.0
2.1339127385602027e7 -809013.5200934509 0.0
0.0 0.0 0.0

-6665.263859965256 1.4316447619961306e7 0.0
1.4316447619961306e7 -2.834727088838476e6 0.0
0.0 0.0 0.0

-1.0000275040744565e7 1.3329258617115393e6 0.0
1.3329258617115393e6 1.3230062104426645e7 0.0
0.0 0.0 0.0

-1.6644206045028497e6 1.4533251269567285e7 0.0
1.4533251269567285e7 6.44708267787911e6 0.0
0.0 0.0 0.0

-5.307907930763269e6 1.2467487780056143e7 0.0
1.2467487780056143e7 5.503404585023912e6 0.0
0.0 0.0 0.0

4.908235662435206e6 5.277579559477345e6 0.0
5.277579559477345e6 -2.052931684738349e7 0.0
0.0 0.0 0.0

1.2746607155225193e6 1.562983876352032e7 0.0
1.562983876352032e7 -5.5510217368942e6 0.0
0.0 0.0 0.0

-1.1770920432961062e7 1.3410227032593604e7 0.0
1.3410227032593604e7 9.199261761641843e6 0.0
0.0 0.0 0.0

-1.1583191467460154e7 1.71925874615894e7 0.0
1.71925874615894e7 -1.9105161792568269e6 0.0
0.0 0.0 0.0

-4.428697934648573e6 2.0443892734891817e7 0.0
2.0443892734891817e7 2.859510987959232e6 0.0
0.0 0.0 0.0

684256.1937793791 1.0396656283123689e7 0.0
1.0396656283123689e7 -8.778543563831832e6 0.0
0.0 0.0 0.0

-2.649426092451913e6 1.5684135227589993e7 0.0
1.5684135227589993e7 -813199.636998738 0.0
0.0 0.0 0.0

-2.921383432576521e6 2.1378504480975606e7 0.0
2.1378504480975606e7 1.0741301095316166e6 0.0
0.0 0.0 0.0

-5.503376610756383e6 1.4980566554048374e7 0.0
1.4980566554048374e7 1.1751970869996097e7 0.0
0.0 0.0 0.0

-2.54116723917205e6 1.4748125691771585e7 0.0
1.4748125691771585e7 5.571632178250459e6 0.0
0.0 0.0 0.0

1.443329376684186e6 1.0129644331492955e7 0.0
1.0129644331492955e7 -8.363348068041004e6 0.0
0.0 0.0 0.0

-4.411258913238972e6 2.2562477375140626e7 0.0
2.2562477375140626e7 4.033525164647693e6 0.0
0.0 0.0 0.0

-1.1228709611820316e7 -2.763220232914748e6 0.0
-2.763220232914748e6 1.9735153565596353e7 0.0
0.0 0.0 0.0

4.823837457688734e6 5.97439043528847e6 0.0
5.97439043528847e6 -1.6673817072424332e7 0.0
0.0 0.0 0.0

-3.224451390769913e6 1.977122528533822e7 0.0
1.977122528533822e7 615650.7134277269 0.0
0.0 0.0 0.0

505133.29829228297 1.3182886113052946e7 0.0
1.3182886113052946e7 -1.3555809081405023e7 0.0
0.0 0.0 0.0

-316216.3839975209 3.264462756469113e6 0.0
3.264462756469113e6 -278304.8777236087 0.0
0.0 0.0 0.0

1.2870758505526627e6 8.196029746005583e6 0.0
8.196029746005583e6 -8.547481101929117e6 0.0
0.0 0.0 0.0

-5.661977101283729e6 1.866729033974122e7 0.0
1.866729033974122e7 287927.43922264315 0.0
0.0 0.0 0.0

3.1425976599557493e6 9.600114196792413e6 0.0
9.600114196792413e6 -1.5552835223595602e7 0.0
0.0 0.0 0.0

2.537791317709879e6 1.6501325864548715e7 0.0
1.6501325864548715e7 7.588431218101852e6 0.0
0.0 0.0 0.0

-1.8025614286435023e6 7.05014988602523e6 0.0
7.05014988602523e6 -1.6629302596845622e6 0.0
0.0 0.0 0.0

-1.8168197538327894e6 4.8444928141804645e6 0.0
4.8444928141804645e6 -523628.4570038169 0.0
0.0 0.0 0.0

613642.060886964 2.0343336650303576e7 0.0
2.0343336650303576e7 -3.6380419766622502e6 0.0
0.0 0.0 0.0

-1.0555217899576552e7 -1.9889440459716474e6 0.0
-1.9889440459716474e6 1.9702634138423044e7 0.0
0.0 0.0 0.0

820666.2384692803 1.2416673882164882e7 0.0
1.2416673882164882e7 -9.379428450771015e6 0.0
0.0 0.0 0.0

634876.2153714724 1.2556966989446571e7 0.0
1.2556966989446571e7 511525.53586077516 0.0
0.0 0.0 0.0

5.389949298170425e6 1.7597055978609074e7 0.0
1.7597055978609074e7 -5.823847802723959e6 0.0
0.0 0.0 0.0

901520.8586938158 1.3042822321387967e7 0.0
1.3042822321387967e7 -1.1652782818543712e7 0.0
0.0 0.0 0.0

3.2000306767155793e6 1.4845618262432145e7 0.0
1.4845618262432145e7 1.260745308952694e7 0.0
0.0 0.0 0.0

-7.07896995364544e6 2.0013180731529985e7 0.0
2.0013180731529985e7 6.452445695803912e6 0.0
0.0 0.0 0.0

-1.0459606017664235e7 -1.9474242847440967e6 0.0
-1.9474242847440967e6 2.5685446354075406e7 0.0
0.0 0.0 0.0

-2.976315221182243e6 1.9801239052119024e7 0.0
1.9801239052119024e7 190870.60742893664 0.0
0.0 0.0 0.0

-2.669803267375521e6 1.5462633568668423e7 0.0
1.5462633568668423e7 9.97906144264617e6 0.0
0.0 0.0 0.0

2.4137272223355044e6 9.298061853811834e6 0.0
9.298061853811834e6 -1.3181356852613982e7 0.0
0.0 0.0 0.0

5.407927896080614e6 5.273381096140839e6 0.0
5.273381096140839e6 -2.2523891584879693e7 0.0
0.0 0.0 0.0

-3.613868870224324e6 1.6485319519083912e7 0.0
1.6485319519083912e7 -1.0897705067574037e6 0.0
0.0 0.0 0.0

-6.348911484156391e6 8.168264806754819e6 0.0
8.168264806754819e6 7.96711859572323e6 0.0
0.0 0.0 0.0

-1.1645343124768486e7 1.1734699975958094e7 0.0
1.1734699975958094e7 1.9076931422632456e7 0.0
0.0 0.0 0.0

828249.1486597368 1.262448733604922e7 0.0
1.262448733604922e7 -1.5472054436805282e7 0.0
0.0 0.0 0.0

1.0455403438361976e6 1.1439222504500017e7 0.0
1.1439222504500017e7 -2.8284628921540916e7 0.0
0.0 0.0 0.0

-2.8929202157233628e6 2.0183250173115402e7 0.0
2.0183250173115402e7 282278.5302329629 0.0
0.0 0.0 0.0

-1.6691516336482826e6 1.4596635712053943e7 0.0
1.4596635712053943e7 4.003732563542475e6 0.0
0.0 0.0 0.0

-2.7284230325245507e7 7.825755788025346e6 0.0
7.825755788025346e6 1.0832831822744308e7 0.0
0.0 0.0 0.0

3.5746701434753877e6 1.5203135869848983e7 0.0
1.5203135869848983e7 1.4874218067040034e7 0.0
0.0 0.0 0.0

-2.453556951029553e7 1.9441100994964927e7 0.0
1.9441100994964927e7 9.720869500702448e6 0.0
0.0 0.0 0.0

3.1111436555635575e6 9.082033305577748e6 0.0
9.082033305577748e6 -1.8503997799740028e7 0.0
0.0 0.0 0.0

4.865268116661183e6 4.870340416236433e6 0.0
4.870340416236433e6 -736002.565324638 0.0
0.0 0.0 0.0

-1.1307043858726354e7 -2.6165105964914593e6 0.0
-2.6165105964914593e6 6.882760424511557e6 0.0
0.0 0.0 0.0

-5.081879432064045e6 7.3192602981988825e6 0.0
7.3192602981988825e6 6.001405473181725e6 0.0
0.0 0.0 0.0

-1.0996803217949739e7 -543288.1647546295 0.0
-543288.1647546295 2.428214589405533e7 0.0
0.0 0.0 0.0

-1.1862040281074252e7 -268049.713694282 0.0
-268049.713694282 1.939643452886233e7 0.0
0.0 0.0 0.0

374806.4427431626 1.3992738252396245e7 0.0
1.3992738252396245e7 -1.1265937195726456e7 0.0
0.0 0.0 0.0

-1.842941955602634e6 1.0617630010159776e7 0.0
1.0617630010159776e7 -6.143140116204561e6 0.0
0.0 0.0 0.0

723072.7053615204 1.2713880561806364e7 0.0
1.2713880561806364e7 2.410242476918744e6 0.0
0.0 0.0 0.0

969888.2390534735 1.2428658345924968e7 0.0
1.2428658345924968e7 -1.6599536396058141e6 0.0
0.0 0.0 0.0

-2.7774319492102414e6 2.0543338792311914e7 0.0
2.0543338792311914e7 396881.8624486112 0.0
0.0 0.0 0.0

-8.559560668735547e6 6.467119046252674e6 0.0
6.467119046252674e6 1.2550719574473634e7 0.0
0.0 0.0 0.0

56735.66471221065 1.3473670977656856e7 0.0
1.3473670977656856e7 -1.0969551331044411e7 0.0
0.0 0.0 0.0

-5.04502909430056e6 1.8042541655636773e7 0.0
1.8042541655636773e7 3.3433022449256284e6 0.0
0.0 0.0 0.0

3.7858690124143567e6 7.819217093901888e6 0.0
7.819217093901888e6 -2.115872911447945e7 0.0
0.0 0.0 0.0

-1.0747083393292908e7 -1.2515034146083998e6 0.0
-1.2515034146083998e6 2.137173253057788e7 0.0
0.0 0.0 0.0

-2.7588822820786284e6 1.938681534236905e7 0.0
1.938681534236905e7 -593818.6492076846 0.0
0.0 0.0 0.0

-1.4339677877373006e6 1.4569189497349469e7 0.0
1.4569189497349469e7 2.6398099413770433e6 0.0
0.0 0.0 0.0

-1.1931501994351225e6 1.4721959050758405e7 0.0
1.4721959050758405e7 1.3228852215043844e6 0.0
0.0 0.0 0.0

-3.692385377215866e6 1.766485872731412e7 0.0
1.766485872731412e7 -4.565134029690296e6 0.0
0.0 0.0 0.0

2.191553952408077e6 1.3226842549900237e7 0.0
1.3226842549900237e7 8.182548089843869e6 0.0
0.0 0.0 0.0

-2.5937901288275267e6 1.6784273049873084e7 0.0
1.6784273049873084e7 -3.9070481115683583e6 0.0
0.0 0.0 0.0

-1.1426476367598567e7 1.013900347332775e7 0.0
1.013900347332775e7 2.2854370741979413e7 0.0
0.0 0.0 0.0

-1.1571063092196096e7 -2.0378835799550344e6 0.0
-2.0378835799550344e6 2.515015507348954e7 0.0
0.0 0.0 0.0

2.977030584323411e6 9.014599156868046e6 0.0
9.014599156868046e6 -1.2722548855788829e7 0.0
0.0 0.0 0.0

4.725203648459755e6 5.83894047670826e6 0.0
5.83894047670826e6 -2.325444632217231e7 0.0
0.0 0.0 0.0

375457.56226570066 1.3751899198534356e7 0.0
1.3751899198534356e7 -1.0107026553986771e7 0.0
0.0 0.0 0.0

1.634902212663792e6 1.5435618417132614e7 0.0
1.5435618417132614e7 5.162133120296384e6 0.0
0.0 0.0 0.0

3.331900242022087e6 6.54621285732822e6 0.0
6.54621285732822e6 -1.2179339812035978e7 0.0
0.0 0.0 0.0

-2.8594110630106097e6 1.3052912734570699e7 0.0
1.3052912734570699e7 -1.7142314575195204e7 0.0
0.0 0.0 0.0

1.2833337846647073e6 1.1133250180828603e7 0.0
1.1133250180828603e7 -2.662336109990617e7 0.0
0.0 0.0 0.0

-5.282465074588389e6 1.1986853813360846e7 0.0
1.1986853813360846e7 2.6534693450461747e6 0.0
0.0 0.0 0.0

-5.875966018657969e6 1.8102166285541628e7 0.0
1.8102166285541628e7 6.863887163367985e6 0.0
0.0 0.0 0.0

-3.755144512034625e6 1.7375408306443922e7 0.0
1.7375408306443922e7 -3.6294407623913707e6 0.0
0.0 0.0 0.0

-1.090261746910312e7 -225538.61026382612 0.0
-225538.61026382612 3.2769534305661656e7 0.0
0.0 0.0 0.0

1.5396674658750799e6 1.0952192185414989e7 0.0
1.0952192185414989e7 -2.520310771940308e7 0.0
0.0 0.0 0.0

-1.1302152670012044e7 9.63121481456577e6 0.0
9.63121481456577e6 2.4677215627997156e7 0.0
0.0 0.0 0.0

-1.0446014060369511e6 1.4878937458241563e7 0.0
1.4878937458241563e7 51850.695879959734 0.0
0.0 0.0 0.0

-3.341414084308318e6 2.032884848869051e7 0.0
2.032884848869051e7 61244.92608993966 0.0
0.0 0.0 0.0

-1.0208794672177032e7 1.938135793466515e7 0.0
1.938135793466515e7 6.0693703134153765e6 0.0
0.0 0.0 0.0

-1.2065405325687382e7 1.06957612443805e7 0.0
1.06957612443805e7 1.9228246689859815e7 0.0
0.0 0.0 0.0

-2.2256766985998834e6 1.1012716977490423e7 0.0
1.1012716977490423e7 -1.0354688684252977e7 0.0
0.0 0.0 0.0

1.2748138220367024e6 1.3620684871099714e7 0.0
1.3620684871099714e7 5.2970985300755035e6 0.0
0.0 0.0 0.0

4.267103672008614e6 6.744848421798028e6 0.0
6.744848421798028e6 -2.1635198141422793e7 0.0
0.0 0.0 0.0

1.7677095837751976e6 7.775421791008099e6 0.0
7.775421791008099e6 -9.24947595333964e6 0.0
0.0 0.0 0.0

-1.1795276393057993e7 7.182794484804142e6 0.0
7.182794484804142e6 2.4984655152470227e7 0.0
0.0 0.0 0.0

-4.419479044884821e6 1.5772096241156172e7 0.0
1.5772096241156172e7 7.34352733493075e6 0.0
0.0 0.0 0.0

-2.0363063306428175e7 1.7976825407076363e7 0.0
1.7976825407076363e7 5.793402937143475e6 0.0
0.0 0.0 0.0

1.2894814438774278e6 1.1762858323725043e7 0.0
1.1762858323725043e7 -1.6803819625082135e7 0.0
0.0 0.0 0.0

3.2870355831967145e6 8.745964531619994e6 0.0
8.745964531619994e6 -2.0571524373671986e7 0.0
0.0 0.0 0.0

1.7518809907803359e6 1.0867661421362733e7 0.0
1.0867661421362733e7 -2.3883227862912726e7 0.0
0.0 0.0 0.0

2.7984640243868507e6 4.997778841005084e6 0.0
4.997778841005084e6 -8.08218744908698e6 0.0
0.0 0.0 0.0

-816987.8156732759 1.5026532091776336e7 0.0
1.5026532091776336e7 -6.878717381320802e6 0.0
0.0 0.0 0.0

-238717.19911600114 1.5934367414204795e7 0.0
1.5934367414204795e7 -6.991566237490805e6 0.0
0.0 0.0 0.0

-1.6593788490834823e7 2.393925860008652e7 0.0
2.393925860008652e7 9.654668810278678e6 0.0
0.0 0.0 0.0

1.8967916704036552e6 5.036191165600906e6 0.0
5.036191165600906e6 -5.664185559243113e6 0.0
0.0 0.0 0.0

516600.4966844339 1.3430112396810947e7 0.0
1.3430112396810947e7 -1.2762009699541215e7 0.0
0.0 0.0 0.0

-1.0947676910297396e7 1.2912808881129751e7 0.0
1.2912808881129751e7 1.6548441669660512e7 0.0
0.0 0.0 0.0

-1.0395223885348514e7 -750127.4741270901 0.0
-750127.4741270901 1.7150895803080812e7 0.0
0.0 0.0 0.0

4.68727073344756e6 5.675431729863856e6 0.0
5.675431729863856e6 -1.9823056724514384e7 0.0
0.0 0.0 0.0

-1.1030715301964015e7 1.2693009718971674e6 0.0
1.2693009718971674e6 1.7400306691397216e7 0.0
0.0 0.0 0.0

-1.1291492544736179e7 1.2798115192305509e6 0.0
1.2798115192305509e6 2.1165944673221e7 0.0
0.0 0.0 0.0

-6.320411078908771e6 7.178675883989313e6 0.0
7.178675883989313e6 8.797919389557352e6 0.0
0.0 0.0 0.0

-5.198075147531154e6 1.6808039860508557e7 0.0
1.6808039860508557e7 8.165630556324317e6 0.0
0.0 0.0 0.0

-1.4369329567046287e6 9.561002382224303e6 0.0
9.561002382224303e6 -1.456244137407036e6 0.0
0.0 0.0 0.0

1.205770676992074e7 5.671033889966749e6 0.0
5.671033889966749e6 -3.014966443520899e6 0.0
0.0 0.0 0.0

-2.4126753056531813e7 -1.1484921710219139e6 0.0
-1.1484921710219139e6 9.181874447776178e6 0.0
0.0 0.0 0.0

2.991593059562271e6 7.447559611360358e6 0.0
7.447559611360358e6 -9.772306434312917e6 0.0
0.0 0.0 0.0

3.9272748225103207e6 8.39726653555174e6 0.0
8.39726653555174e6 -2.0043150816771407e7 0.0
0.0 0.0 0.0

4.447962858286405e6 7.358104397089441e6 0.0
7.358104397089441e6 -2.0461628135544904e7 0.0
0.0 0.0 0.0

551249.3325174361 1.3078374251430728e6 0.0
1.3078374251430728e6 636566.8532889626 0.0
0.0 0.0 0.0

-2.1280586186989034e6 -853922.5129487216 0.0
-853922.5129487216 2.9136010069358256e6 0.0
0.0 0.0 0.0

-1.3636516532636168e6 1.2899599029824244e7 0.0
1.2899599029824244e7 -1.6316349458160251e7 0.0
0.0 0.0 0.0

4.709086335462775e6 5.837730780236928e6 0.0
5.837730780236928e6 -2.2013535311155815e7 0.0
0.0 0.0 0.0

-1.3221655488276804e7 1.8593812896405745e7 0.0
1.8593812896405745e7 -2.218603961862212e6 0.0
0.0 0.0 0.0

-7.564978404662772e6 1.490625239102931e7 0.0
1.490625239102931e7 1.069382774459043e7 0.0
0.0 0.0 0.0

-2.598302997194861e6 1.8944490312259715e7 0.0
1.8944490312259715e7 -1.3739529287368418e6 0.0
0.0 0.0 0.0

1.7479861604591592e6 1.3130935142055424e7 0.0
1.3130935142055424e7 7.031589061138112e6 0.0
0.0 0.0 0.0

5.164055691545374e6 9.427850119188972e6 0.0
9.427850119188972e6 1.8096980355862249e6 0.0
0.0 0.0 0.0

-7.550560657221804e6 1.975480440900418e7 0.0
1.975480440900418e7 -1.801197890618667e6 0.0
0.0 0.0 0.0

-1.1444040996054428e7 2.0666904132655074e6 0.0
2.0666904132655074e6 2.8051990253512554e7 0.0
0.0 0.0 0.0

-5.575114057902042e6 1.7486006592463672e7 0.0
1.7486006592463672e7 6.718684174672225e6 0.0
0.0 0.0 0.0

114491.63724261476 1.5920926861934388e7 0.0
1.5920926861934388e7 -6.5808515777062895e6 0.0
0.0 0.0 0.0

-1.038597280259848e7 1.318606648458076e7 0.0
1.318606648458076e7 1.5950317959320355e7 0.0
0.0 0.0 0.0

-8.995692325274982e6 -3.319571894909392e6 0.0
-3.319571894909392e6 1.509499737596243e7 0.0
0.0 0.0 0.0

-3.5176994648753833e6 1.9559394866927605e7 0.0
1.9559394866927605e7 -192557.79929712357 0.0
0.0 0.0 0.0

3.3383798513803976e6 8.662786204144515e6 0.0
8.662786204144515e6 -1.9425022946543187e7 0.0
0.0 0.0 0.0

-1.618045262897388e6 1.8473738575857542e7 0.0
1.8473738575857542e7 -3.4167354305813876e6 0.0
0.0 0.0 0.0

4.923370146197036e6 6.388998670441282e6 0.0
6.388998670441282e6 -2.1068974981229626e7 0.0
0.0 0.0 0.0

1.6132230401133457e6 1.4467770309019428e7 0.0
1.4467770309019428e7 7.868333234715184e6 0.0
0.0 0.0 0.0

-1.775835056214162e6 1.5385465346255625e7 0.0
1.5385465346255625e7 -5.743047054895513e6 0.0
0.0 0.0 0.0

-7.748981310465595e6 2.337472487337675e6 0.0
2.337472487337675e6 8.203188978000727e6 0.0
0.0 0.0 0.0

-691698.3434581743 1.0809601532422869e7 0.0
1.0809601532422869e7 -6.436890561300158e6 0.0
0.0 0.0 0.0

5.327052841731917e6 5.336248833006299e6 0.0
5.336248833006299e6 -2.124445165212947e7 0.0
0.0 0.0 0.0

3.5037376527950247e6 1.8675464099868294e7 0.0
1.8675464099868294e7 -5.570872160493876e6 0.0
0.0 0.0 0.0

2.9958105345019735e6 6.937627945925354e6 0.0
6.937627945925354e6 -1.152184406387886e7 0.0
0.0 0.0 0.0

-1.0853716352316257e7 3.1527254284052355e6 0.0
3.1527254284052355e6 1.2689049309461378e7 0.0
0.0 0.0 0.0

-4.89753661954521e6 1.9818788814073194e7 0.0
1.9818788814073194e7 4.0714848369115405e6 0.0
0.0 0.0 0.0

1.741033835994687e6 1.0789726317761574e7 0.0
1.0789726317761574e7 -2.256337948643299e7 0.0
0.0 0.0 0.0

-2.9319917154300087e6 1.1294660577389186e7 0.0
1.1294660577389186e7 -9.773305868758615e6 0.0
0.0 0.0 0.0

1.391298323329144e6 1.3039689318287892e7 0.0
1.3039689318287892e7 4.637661253155921e6 0.0
0.0 0.0 0.0

-1.9993280295112166e6 9.845892114116065e6 0.0
9.845892114116065e6 -490307.4611419275 0.0
0.0 0.0 0.0

-6.078835663982411e6 1.0823086295840882e7 0.0
1.0823086295840882e7 4.276512292735936e6 0.0
0.0 0.0 0.0

-575173.2004316375 1.4934198523353439e7 0.0
1.4934198523353439e7 8.168661502584779e6 0.0
0.0 0.0 0.0

-8.493481402974255e6 -1.3898068218708094e6 0.0
-1.3898068218708094e6 1.349402550716123e7 0.0
0.0 0.0 0.0

354431.366831287 1.3899462930272633e7 0.0
1.3899462930272633e7 2.2267855965437605e6 0.0
0.0 0.0 0.0

-6.169578175312844e6 1.6612501502555812e7 0.0
1.6612501502555812e7 8.796138181068627e6 0.0
0.0 0.0 0.0

2.6224792060023383e6 6.982875880091273e6 0.0
6.982875880091273e6 -1.0503759873427784e7 0.0
0.0 0.0 0.0

-1.1610857767652541e7 25231.554689737008 0.0
25231.554689737008 1.5733850369293742e7 0.0
0.0 0.0 0.0

-1.959678268395875e6 1.634380406992182e7 0.0
1.634380406992182e7 -3.622202508014157e6 0.0
0.0 0.0 0.0

-1.0685943982862525e7 1.3223733842674501e7 0.0
1.3223733842674501e7 1.4949327528677694e7 0.0
0.0 0.0 0.0

-2.1289683901987006e6 1.5087304804270398e7 0.0
1.5087304804270398e7 7.949418369244486e6 0.0
0.0 0.0 0.0

-1.1563909232320145e7 3.2889476149643906e6 0.0
3.2889476149643906e6 1.7481501693949006e7 0.0
0.0 0.0 0.0

-649672.1302092408 1.5753023648063302e7 0.0
1.5753023648063302e7 -7.283887153620743e6 0.0
0.0 0.0 0.0

-5.892103749258356e6 1.9653531844118778e7 0.0
1.9653531844118778e7 6.476264795401366e6 0.0
0.0 0.0 0.0

-1.1854728920358932e7 5.523362924153002e6 0.0
5.523362924153002e6 2.477277471519372e7 0.0
0.0 0.0 0.0

-7.298458005954137e6 8.726652368469708e6 0.0
8.726652368469708e6 6.975889951033121e6 0.0
0.0 0.0 0.0

-1.1676415959639382e7 -793083.2761165057 0.0
-793083.2761165057 2.3392468137503747e7 0.0
0.0 0.0 0.0

357228.1448625764 1.3125614540122364e7 0.0
1.3125614540122364e7 -1.1785465983855145e7 0.0
0.0 0.0 0.0

-5.600458144935348e6 1.7736293027435817e7 0.0
1.7736293027435817e7 7.346642426475725e6 0.0
0.0 0.0 0.0

-979071.5292837779 1.5097612733738586e7 0.0
1.5097612733738586e7 -1.0886225384105933e6 0.0
0.0 0.0 0.0

3.5180295023598783e6 7.651440825777202e6 0.0
7.651440825777202e6 -1.2199103978588168e7 0.0
0.0 0.0 0.0

-9.283972419168133e6 -3.6921059396129698e6 0.0
-3.6921059396129698e6 1.8475915405820474e7 0.0
0.0 0.0 0.0

-9.237109823770499e6 1.2149261270179663e7 0.0
1.2149261270179663e7 2.525107341338758e7 0.0
0.0 0.0 0.0

-1.1237401169200731e7 8.41802319595426e6 0.0
8.41802319595426e6 2.651336331795545e7 0.0
0.0 0.0 0.0

-1.694527265924641e6 1.3311937846184159e7 0.0
1.3311937846184159e7 6.568893833309751e6 0.0
0.0 0.0 0.0

-1.2077046410370044e7 2.0790881406370662e6 0.0
2.0790881406370662e6 1.5864221641623296e7 0.0
0.0 0.0 0.0

-4.823563642441615e6 1.0487591040860347e7 0.0
1.0487591040860347e7 4.704991822701218e6 0.0
0.0 0.0 0.0

-1.7090155104488665e6 1.4671939902251936e7 0.0
1.4671939902251936e7 -3.6721022232091525e6 0.0
0.0 0.0 0.0

512045.41789773665 1.205525295231254e7 0.0
1.205525295231254e7 -9.953060717760717e6 0.0
0.0 0.0 0.0

-5.282365550667743e6 1.642972380025914e7 0.0
1.642972380025914e7 9.069187883818517e6 0.0
0.0 0.0 0.0

-5.116843233578607e6 2.17390911795855e7 0.0
2.17390911795855e7 5.4275950185586745e6 0.0
0.0 0.0 0.0

-1.2723220977134414e7 8.167864397130026e6 0.0
8.167864397130026e6 1.9805673689261828e7 0.0
0.0 0.0 0.0

3.089210178816427e6 1.3246441042647792e7 0.0
1.3246441042647792e7 1.1196041560954748e7 0.0
0.0 0.0 0.0

619355.0514097903 1.3724560072631765e7 0.0
1.3724560072631765e7 -7.513601858279077e6 0.0
0.0 0.0 0.0

3.2775556811920283e6 9.247252878900133e6 0.0
9.247252878900133e6 -1.5282244094698207e7 0.0
0.0 0.0 0.0

5.446942622217462e6 4.26065609710325e6 0.0
4.26065609710325e6 -2.2565833003683187e7 0.0
0.0 0.0 0.0

-1.0240802133859541e7 -4.254023620247995e6 0.0
-4.254023620247995e6 2.12368558036558e7 0.0
0.0 0.0 0.0

-4.938845192227922e6 1.643141300892678e7 0.0
1.643141300892678e7 8.423256804848362e6 0.0
0.0 0.0 0.0

-7.200484725202061e6 1.2168376859644711e7 0.0
1.2168376859644711e7 1.3946288938077072e7 0.0
0.0 0.0 0.0

-5.982407254288057e6 1.3250385005747542e7 0.0
1.3250385005747542e7 3.92449641326891e7 0.0
0.0 0.0 0.0

446641.9187464514 1.1558607467377335e7 0.0
1.1558607467377335e7 -9.270315667514814e6 0.0
0.0 0.0 0.0

2.297956209333333e6 1.3522373528004386e7 0.0
1.3522373528004386e7 7.659854372822722e6 0.0
0.0 0.0 0.0

-1.0042261915520262e7 -2.9212254117664224e6 0.0
-2.9212254117664224e6 1.4477738840837885e7 0.0
0.0 0.0 0.0

-1.8792277265642602e7 -1.918299565404492e6 0.0
-1.918299565404492e6 8.979910684353232e6 0.0
0.0 0.0 0.0

3.475547227510009e6 8.271162997588916e6 0.0
8.271162997588916e6 -1.7861409380906306e7 0.0
0.0 0.0 0.0

-1.0767771823591772e7 977569.2901809975 0.0
977569.2901809975 1.3173717198224608e7 0.0
0.0 0.0 0.0

3.0853633099763375e6 9.119758534609947e6 0.0
9.119758534609947e6 -1.9642475119554557e7 0.0
0.0 0.0 0.0

-1.0935164922785906e7 1.2310092039481424e7 0.0
1.2310092039481424e7 1.9502936438852496e7 0.0
0.0 0.0 0.0

5.014396643415167e6 4.811289621148776e6 0.0
4.811289621148776e6 -1.5412346183451831e7 0.0
0.0 0.0 0.0

1.7352268227172287e6 1.93599089086808e7 0.0
1.93599089086808e7 -4.919722529391555e6 0.0
0.0 0.0 0.0

-1.7295566300150538e6 1.0841942520072788e7 0.0
1.0841942520072788e7 -1.6756322932997863e6 0.0
0.0 0.0 0.0

1.3538906362076837e6 6.142102704023951e6 0.0
6.142102704023951e6 -4.668154170591513e6 0.0
0.0 0.0 0.0

1.7036214930950075e7 5.700444137197148e6 0.0
5.700444137197148e6 -3.400839439348886e6 0.0
0.0 0.0 0.0

-9.775611321107447e6 1.2961226905143948e7 0.0
1.2961226905143948e7 1.836531280711254e7 0.0
0.0 0.0 0.0

-279342.33120210236 8.593607289192874e6 0.0
8.593607289192874e6 -5.286464449352745e6 0.0
0.0 0.0 0.0

-1.2166262035427194e7 596774.152158654 0.0
596774.152158654 2.1859407903787717e7 0.0
0.0 0.0 0.0

2.163143873895079e6 5.591236791101653e6 0.0
5.591236791101653e6 -7.847842789197296e6 0.0
0.0 0.0 0.0

-1.769516520110035e6 1.5981717277184935e7 0.0
1.5981717277184935e7 -2.9422319900224777e6 0.0
0.0 0.0 0.0

-6.656263251247662e6 1.5137232504526185e7 0.0
1.5137232504526185e7 1.102752765013878e7 0.0
0.0 0.0 0.0

-1.0243151964939307e7 4.139739529597241e6 0.0
4.139739529597241e6 1.3996722171318445e7 0.0
0.0 0.0 0.0

3.8601917452771356e6 7.425836393087607e6 0.0
7.425836393087607e6 -1.8259028102197155e7 0.0
0.0 0.0 0.0

-1.6067910108338874e6 1.2747472031430833e7 0.0
1.2747472031430833e7 -2.0200098331716817e7 0.0
0.0 0.0 0.0

-2.5087662568577263e6 5.784509710299539e6 0.0
5.784509710299539e6 -3521.6733652423136 0.0
0.0 0.0 0.0

4.482551905105286e6 4.960070037494668e6 0.0
4.960070037494668e6 -1.4457030582838114e7 0.0
0.0 0.0 0.0

-601679.8778113476 1.356882130851468e7 0.0
1.356882130851468e7 -8.415922807518298e6 0.0
0.0 0.0 0.0

8.003418106123068e6 1.4480561631439246e7 0.0
1.4480561631439246e7 -428633.467154284 0.0
0.0 0.0 0.0

5.226671047070699e6 5.848252765339512e6 0.0
5.848252765339512e6 -2.2942667981464762e7 0.0
0.0 0.0 0.0

-7.877948889916356e6 -1.0772990685161483e6 0.0
-1.0772990685161483e6 2.980956450197903e6 0.0
0.0 0.0 0.0

-8.587863822857646e6 1.3391362823157085e7 0.0
1.3391362823157085e7 1.3916038007976362e7 0.0
0.0 0.0 0.0

-689156.8141820065 7.352552405301122e6 0.0
7.352552405301122e6 -1.659529223692365e6 0.0
0.0 0.0 0.0

-1.0936987935350444e7 3.120090925654845e6 0.0
3.120090925654845e6 1.5350863532518364e7 0.0
0.0 0.0 0.0

5.088845153887063e6 6.107041027392475e6 0.0
6.107041027392475e6 -2.6011568685109295e7 0.0
0.0 0.0 0.0

3.6579148026906378e6 1.3836151771222169e7 0.0
1.3836151771222169e7 1.2193049475583244e7 0.0
0.0 0.0 0.0

812735.0264220836 1.659798144485788e7 0.0
1.659798144485788e7 8.738688495806692e6 0.0
0.0 0.0 0.0

-1.9301120123477513e6 1.269954364986433e7 0.0
1.269954364986433e7 -1.372597159455767e7 0.0
0.0 0.0 0.0

270052.8013426913 1.0773567865118688e7 0.0
1.0773567865118688e7 -8.058183210626994e6 0.0
0.0 0.0 0.0

-6.09234800330865e6 1.570885642787576e7 0.0
1.570885642787576e7 1.0407887045697989e7 0.0
0.0 0.0 0.0

4.1679095433026226e6 1.4394214444817444e7 0.0
1.4394214444817444e7 -2.5224843808752927e6 0.0
0.0 0.0 0.0

3.050669057343969e6 9.068425883975301e6 0.0
9.068425883975301e6 -1.7416718952117704e7 0.0
0.0 0.0 0.0

-3.2935776756913825e6 2.07078568975548e7 0.0
2.07078568975548e7 141929.709995043 0.0
0.0 0.0 0.0

-841062.7304482025 1.1599210102069294e7 0.0
1.1599210102069294e7 1.8301379486126574e6 0.0
0.0 0.0 0.0

-4.6351490590513684e7 2.0107635128295552e6 0.0
2.0107635128295552e6 8.742370595239813e6 0.0
0.0 0.0 0.0

3.038094997478642e7 6.002137377870108e6 0.0
6.002137377870108e6 -3.316073874642592e6 0.0
0.0 0.0 0.0

5629.517097498057 1.4297112179095393e7 0.0
1.4297112179095393e7 5.359044055610519e6 0.0
0.0 0.0 0.0

-6.982499814219442e6 4.493173020852252e6 0.0
4.493173020852252e6 2.1205248393940397e7 0.0
0.0 0.0 0.0

-1.3381503846493587e6 1.4904763341366624e7 0.0
1.4904763341366624e7 7.557077815190772e6 0.0
0.0 0.0 0.0

-2.123969090931211e6 1.7789048838755246e7 0.0
1.7789048838755246e7 -4.38174152240965e6 0.0
0.0 0.0 0.0

2.1292763143655183e6 1.4875332206750482e7 0.0
1.4875332206750482e7 7.097588537764451e6 0.0
0.0 0.0 0.0

-9.56934510804574e6 3.842086496337231e6 0.0
3.842086496337231e6 1.3228575145271469e7 0.0
0.0 0.0 0.0

-5.942922774649493e6 1.56076333702194e7 0.0
1.56076333702194e7 7.45087356108604e6 0.0
0.0 0.0 0.0

-2.957246696690188e7 2.3621277181851033e7 0.0
2.3621277181851033e7 1.9108168647560552e6 0.0
0.0 0.0 0.0

4.679392398624423e6 5.174918493796629e6 0.0
5.174918493796629e6 -1.7109467208205357e7 0.0
0.0 0.0 0.0

-1.0060832518974876e6 1.5357952181558248e7 0.0
1.5357952181558248e7 -2.0786254464119428e6 0.0
0.0 0.0 0.0

3.397524308574039e6 1.3236677307303261e7 0.0
1.3236677307303261e7 1.3266314809996327e7 0.0
0.0 0.0 0.0

-3.8506705348965973e6 1.1954308838852763e7 0.0
1.1954308838852763e7 -1.2835568584451037e7 0.0
0.0 0.0 0.0

1.9839710885449147e6 1.3359159503420133e7 0.0
1.3359159503420133e7 6.613237235852963e6 0.0
0.0 0.0 0.0

1.8828242102650646e6 1.0905375309933193e7 0.0
1.0905375309933193e7 -2.1557141589672603e7 0.0
0.0 0.0 0.0

-9.826095662610551e6 -1.552380325737934e6 0.0
-1.552380325737934e6 1.6190061095656242e7 0.0
0.0 0.0 0.0

-1.245536988133221e7 2.0725980383412957e7 0.0
2.0725980383412957e7 8.219019536061096e6 0.0
0.0 0.0 0.0

2.9657094185106354e6 7.304934992495464e6 0.0
7.304934992495464e6 -1.1899267337808605e7 0.0
0.0 0.0 0.0

-9.687117158077043e6 1.3296850218967326e7 0.0
1.3296850218967326e7 1.7414829701869488e7 0.0
0.0 0.0 0.0

-9.638572361997208e6 2.5032117008991856e6 0.0
2.5032117008991856e6 1.0530157408382565e7 0.0
0.0 0.0 0.0

-5.301173364550751e6 2.1406722602166794e7 0.0
2.1406722602166794e7 5.7290472646511635e6 0.0
0.0 0.0 0.0

-1.0274571759761564e7 2.355377872435097e7 0.0
2.355377872435097e7 8.005007354758395e6 0.0
0.0 0.0 0.0

-5.465892356598645e6 -2.363939655038225e6 0.0
-2.363939655038225e6 5.1668216339452285e6 0.0
0.0 0.0 0.0

-1.310741988603052e6 1.1541592155658627e7 0.0
1.1541592155658627e7 -7.752456575214307e6 0.0
0.0 0.0 0.0

-1.7351546906336376e6 1.737549017896949e7 0.0
1.737549017896949e7 -4.383339514696286e6 0.0
0.0 0.0 0.0

-2.753796109825326e6 3.861198582783599e6 0.0
3.861198582783599e6 828307.512689394 0.0
0.0 0.0 0.0

337926.3122311516 1.970057942810809e7 0.0
1.970057942810809e7 -4.308987828452511e6 0.0
0.0 0.0 0.0

-1.031860110649351e7 2.848063979230107e6 0.0
2.848063979230107e6 1.1805943137852766e7 0.0
0.0 0.0 0.0

4.807194574121965e6 5.302185492623095e6 0.0
5.302185492623095e6 -1.9489301512982935e7 0.0
0.0 0.0 0.0

4.491678453161767e6 5.854873929573956e6 0.0
5.854873929573956e6 -1.78218816328593e7 0.0
0.0 0.0 0.0

1.1418423914067298e6 1.0622136689811774e7 0.0
1.0622136689811774e7 -1.0244828130449373e7 0.0
0.0 0.0 0.0

-828623.7028287267 1.5729653604636008e7 0.0
1.5729653604636008e7 -7.52100429126024e6 0.0
0.0 0.0 0.0

5.234904263186073e6 5.684085897422078e6 0.0
5.684085897422078e6 -2.723434223160375e7 0.0
0.0 0.0 0.0

-3.952204623134273e6 1.7242376369574975e7 0.0
1.7242376369574975e7 -4.692257706731257e6 0.0
0.0 0.0 0.0

1.2835798829840822e6 1.1878080512451362e7 0.0
1.1878080512451362e7 -1.408240297283978e7 0.0
0.0 0.0 0.0

-1.1792497567216787e7 1.2098206989112731e7 0.0
1.2098206989112731e7 1.5720417040803362e7 0.0
0.0 0.0 0.0

-2.414890235910142e6 1.7026913565007687e7 0.0
1.7026913565007687e7 -3.973973377775383e6 0.0
0.0 0.0 0.0

3.6620904944286495e6 8.789105768195916e6 0.0
8.789105768195916e6 -1.6979532069449533e7 0.0
0.0 0.0 0.0

-2.2921279647886805e7 1.4457603510045027e7 0.0
1.4457603510045027e7 1.0335969569940865e7 0.0
0.0 0.0 0.0

4.996058002369788e6 4.834065537141654e6 0.0
4.834065537141654e6 -2.0169853856303655e7 0.0
0.0 0.0 0.0

4.944252701406785e6 5.870077404384851e6 0.0
5.870077404384851e6 -1.766942781905827e7 0.0
0.0 0.0 0.0

-302051.26700723404 1.4582020712895637e7 0.0
1.4582020712895637e7 -8.89381904672491e6 0.0
0.0 0.0 0.0

-1.3902868341751106e7 -2.2922371728632725e6 0.0
-2.2922371728632725e6 6.561386911185266e6 0.0
0.0 0.0 0.0

1.720919241063632e6 8.713845907301407e6 0.0
8.713845907301407e6 -7.741857564641876e6 0.0
0.0 0.0 0.0

-5.694287060383857e6 1.3259190823219223e7 0.0
1.3259190823219223e7 1.680863264297809e7 0.0
0.0 0.0 0.0

-4.807436052119413e6 2.062124430177584e7 0.0
2.062124430177584e7 5.322804650428446e6 0.0
0.0 0.0 0.0

-5.89088128814631e6 2.1718702819796115e7 0.0
2.1718702819796115e7 6.13441961695957e6 0.0
0.0 0.0 0.0

-1.0705581118333124e7 4.443983047183327e6 0.0
4.443983047183327e6 1.2219927105454348e7 0.0
0.0 0.0 0.0

-8.762549248452911e6 1.0073813946622308e7 0.0
1.0073813946622308e7 3.781720676634981e7 0.0
0.0 0.0 0.0

-4.35336948931911e6 2.0736766626885936e7 0.0
2.0736766626885936e7 4.348088182352332e6 0.0
0.0 0.0 0.0

-1.7267886343739247e6 1.5436970856535204e7 0.0
1.5436970856535204e7 -1.0730945489469236e6 0.0
0.0 0.0 0.0

670099.8693911973 1.3137345607407613e7 0.0
1.3137345607407613e7 -4.914934491265085e6 0.0
0.0 0.0 0.0

1.4234459128071496e7 1.5363466439484067e7 0.0
1.5363466439484067e7 5.642717305228259e6 0.0
0.0 0.0 0.0

-9.565770448258288e6 5.290437679139401e6 0.0
5.290437679139401e6 1.3478483311682966e7 0.0
0.0 0.0 0.0

5.3520196780961985e6 4.937345756260825e6 0.0
4.937345756260825e6 -1.894633045451006e7 0.0
0.0 0.0 0.0

-261870.62146383524 1.3982131155758785e7 0.0
1.3982131155758785e7 -7.760676096960789e6 0.0
0.0 0.0 0.0

-2.7782327273296174e6 1.1472201849325532e7 0.0
1.1472201849325532e7 273691.8595888703 0.0
0.0 0.0 0.0

-1.2032421486796398e7 1.1414506350009954e7 0.0
1.1414506350009954e7 7.690177854346837e6 0.0
0.0 0.0 0.0

-9.904593428458747e6 -2.4254423027391154e6 0.0
-2.4254423027391154e6 2.0796504645157423e7 0.0
0.0 0.0 0.0

-4.667433152504078e7 3.075465872490731e7 0.0
3.075465872490731e7 -3.6508727106477097e6 0.0
0.0 0.0 0.0

-5.16956631179992e6 1.3031637860551236e7 0.0
1.3031637860551236e7 -1.7231888035849944e7 0.0
0.0 0.0 0.0

3.1130378080839715e6 1.3711118884327447e7 0.0
1.3711118884327447e7 1.0376793145017197e7 0.0
0.0 0.0 0.0

1.789116876952527e6 1.1227359964479368e7 0.0
1.1227359964479368e7 -1.5736533934197614e7 0.0
0.0 0.0 0.0

-9.177880137349663e6 1.8212710401157524e7 0.0
1.8212710401157524e7 4.620561419950291e6 0.0
0.0 0.0 0.0

3.246804941578389e6 7.745569592598622e6 0.0
7.745569592598622e6 -1.1177346609620016e7 0.0
0.0 0.0 0.0

4.071520877940925e6 7.953254882576896e6 0.0
7.953254882576896e6 -1.7363836806855157e7 0.0
0.0 0.0 0.0

-7.208345149324014e6 1.4534864218262065e7 0.0
1.4534864218262065e7 1.1954470056501877e7 0.0
0.0 0.0 0.0

2.8064848645935403e6 9.467337146756941e6 0.0
9.467337146756941e6 -1.6660706057603158e7 0.0
0.0 0.0 0.0

-4.965859885504492e6 2.1031182476859692e7 0.0
2.1031182476859692e7 5.5186153172728345e6 0.0
0.0 0.0 0.0

-1.251696195148604e7 2.2437821265418804e6 0.0
2.2437821265418804e6 1.9271982153400555e7 0.0
0.0 0.0 0.0

-8.309414817084219e6 -2.424786331397767e6 0.0
-2.424786331397767e6 1.4112343786292514e7 0.0
0.0 0.0 0.0

4.0139375615947424e6 7.019641321790246e6 0.0
7.019641321790246e6 -1.7885819928167652e7 0.0
0.0 0.0 0.0

-4.521234804992895e6 1.7147471376496937e7 0.0
1.7147471376496937e7 -3.5279369532552827e6 0.0
0.0 0.0 0.0

-2.264473816999194e6 2.221190442070487e7 0.0
2.221190442070487e7 -1.4030765586566906e6 0.0
0.0 0.0 0.0

-9.69556449844702e6 1.2462596673385188e7 0.0
1.2462596673385188e7 1.4825943524841538e7 0.0
0.0 0.0 0.0

4.478362683829842e6 6.124158398154181e6 0.0
6.124158398154181e6 -1.9225769654362675e7 0.0
0.0 0.0 0.0

5.024211000639571e6 6.055628571696898e6 0.0
6.055628571696898e6 -2.4363998977951203e7 0.0
0.0 0.0 0.0

-1.1166083546998957e7 8.76975377731282e6 0.0
8.76975377731282e6 2.956500705154735e7 0.0
0.0 0.0 0.0

-1.1798225628852293e7 2.5747230508247213e6 0.0
2.5747230508247213e6 2.0205684407148294e7 0.0
0.0 0.0 0.0

-618201.602100557 1.973279928471237e7 0.0
1.973279928471237e7 -3.763262183714172e6 0.0
0.0 0.0 0.0

-2.9723585186598296e6 1.6309355569125433e7 0.0
1.6309355569125433e7 -833603.5867055533 0.0
0.0 0.0 0.0

-1.1347553700692156e7 822541.6649083883 0.0
822541.6649083883 2.3213736338490713e7 0.0
0.0 0.0 0.0

3.695917890551187e6 5.441458652825047e6 0.0
5.441458652825047e6 -1.2109876400664626e7 0.0
0.0 0.0 0.0

-4.575216421794658e6 1.6333623273139615e7 0.0
1.6333623273139615e7 1.1582084849111373e6 0.0
0.0 0.0 0.0

-7.863303182448169e6 1.7150110401257623e7 0.0
1.7150110401257623e7 -2.8143291213495336e6 0.0
0.0 0.0 0.0

-6.941579240189701e6 7.317812570309256e6 0.0
7.317812570309256e6 6.770800794462943e6 0.0
0.0 0.0 0.0

5.016077992741253e6 5.769591072328255e6 0.0
5.769591072328255e6 -1.8690836922076408e7 0.0
0.0 0.0 0.0

2.6358901573170545e6 9.474738373650083e6 0.0
9.474738373650083e6 -1.5618120066734686e7 0.0
0.0 0.0 0.0

-7.626912030628625e6 865965.9281738513 0.0
865965.9281738513 8.459560630524606e6 0.0
0.0 0.0 0.0

-1.1649678157529421e7 4.434426480439914e6 0.0
4.434426480439914e6 1.690592123525601e7 0.0
0.0 0.0 0.0

1.8352648059704183e6 1.1002981260276131e7 0.0
1.1002981260276131e7 -2.0357065898068164e7 0.0
0.0 0.0 0.0

5.027992970281383e6 5.53095633967437e6 0.0
5.53095633967437e6 -1.7336827355697982e7 0.0
0.0 0.0 0.0

-3.308004928514147e6 1.6125861574452654e7 0.0
1.6125861574452654e7 -1.9016960834493032e6 0.0
0.0 0.0 0.0

4.483096278167712e6 7.085771442648901e6 0.0
7.085771442648901e6 -1.772478285036613e7 0.0
0.0 0.0 0.0

-7.292659292165679e6 1.9290603808274812e6 0.0
1.9290603808274812e6 9.91013674493796e6 0.0
0.0 0.0 0.0

-7.024153675004826e6 1.4737815430040225e7 0.0
1.4737815430040225e7 -2.3413847399248626e7 0.0
0.0 0.0 0.0

5.516883915305671e6 1.4500082434436502e7 0.0
1.4500082434436502e7 1.8389615145295046e7 0.0
0.0 0.0 0.0

476332.9513529077 1.3139308432818733e7 0.0
1.3139308432818733e7 -640072.314512566 0.0
0.0 0.0 0.0

-1.8294155733179916e7 -1.9864792677614565e6 0.0
-1.9864792677614565e6 9.054526415281724e6 0.0
0.0 0.0 0.0

-6.778768178014673e6 617079.8532742654 0.0
617079.8532742654 8.825875979792407e6 0.0
0.0 0.0 0.0

2.7473620299353437e6 1.5230800729124632e7 0.0
1.5230800729124632e7 9.157871015409378e6 0.0
0.0 0.0 0.0

-2.042211322175725e6 1.2914822606547136e7 0.0
1.2914822606547136e7 -6.807370254600222e6 0.0
0.0 0.0 0.0

-8.12168797617065e6 1.0448277849937476e7 0.0
1.0448277849937476e7 4.198302412563211e7 0.0
0.0 0.0 0.0

4.252372296979427e6 6.585662256981583e6 0.0
6.585662256981583e6 -1.8571314746188834e7 0.0
0.0 0.0 0.0

-1.9858478134053599e6 1.6980496042810198e7 0.0
1.6980496042810198e7 -5.362966064042278e6 0.0
0.0 0.0 0.0

-2.653556356889425e6 1.3011777237054419e7 0.0
1.3011777237054419e7 -1.913322466715239e7 0.0
0.0 0.0 0.0

-5.076099311327103e6 1.9953385979794372e7 0.0
1.9953385979794372e7 4.760255648046137e6 0.0
0.0 0.0 0.0

-4.337929030119565e6 1.6201151535830634e7 0.0
1.6201151535830634e7 5.186735769056497e6 0.0
0.0 0.0 0.0

-3.3005020282120313e6 1.9516515223130256e7 0.0
1.9516515223130256e7 -789168.350435803 0.0
0.0 0.0 0.0

-5.281276698146589e6 1.4240467506816337e7 0.0
1.4240467506816337e7 -2.4202913002659164e7 0.0
0.0 0.0 0.0

-1.3447596154176418e6 1.9645224871155676e7 0.0
1.9645224871155676e7 -3.3229367227816586e6 0.0
0.0 0.0 0.0

-1.1460805380332049e7 1.2152160627632037e7 0.0
1.2152160627632037e7 1.779576055014854e7 0.0
0.0 0.0 0.0

2.61237203257243e6 8.039223499304449e6 0.0
8.039223499304449e6 -1.1642275637936879e7 0.0
0.0 0.0 0.0

4.369628648660169e6 6.20673478868588e6 0.0
6.20673478868588e6 -1.8192436232039385e7 0.0
0.0 0.0 0.0

-1.4298516939817974e6 1.6333349955856947e7 0.0
1.6333349955856947e7 -6.579541080809235e6 0.0
0.0 0.0 0.0

-1.6929820985086448e6 1.1897317041098231e7 0.0
1.1897317041098231e7 -4.389017083821651e6 0.0
0.0 0.0 0.0

3.603763628094353e6 8.172782926676181e6 0.0
8.172782926676181e6 -2.026801131467217e7 0.0
0.0 0.0 0.0

-5.011165559686475e6 1.920844990440462e7 0.0
1.920844990440462e7 5.087381989716906e6 0.0
0.0 0.0 0.0

-2.7491624317445755e6 1.303264207263467e7 0.0
1.303264207263467e7 -552420.8153399464 0.0
0.0 0.0 0.0

771151.1750786942 1.198689258435267e7 0.0
1.198689258435267e7 -8.623634664020069e6 0.0
0.0 0.0 0.0

2.974182555416858e6 9.910123662899159e6 0.0
9.910123662899159e6 -1.9527627975477725e7 0.0
0.0 0.0 0.0

-2.21931562629286e6 1.9183901597631663e7 0.0
1.9183901597631663e7 -2.863078313853753e6 0.0
0.0 0.0 0.0

82483.67031680234 1.3205332855173018e7 0.0
1.3205332855173018e7 -7.868934883892249e6 0.0
0.0 0.0 0.0

-391836.3779312754 1.0625171184080461e7 0.0
1.0625171184080461e7 -4.438689834197084e6 0.0
0.0 0.0 0.0

1.418764293341029e7 5.657996323364747e6 0.0
5.657996323364747e6 -3.160421996610159e6 0.0
0.0 0.0 0.0

-5.0811192672782885e6 1.3845581375962105e7 0.0
1.3845581375962105e7 4.826932016062946e6 0.0
0.0 0.0 0.0

-5.7455091693124585e6 7.037401078197965e6 0.0
7.037401078197965e6 7.092354248379238e6 0.0
0.0 0.0 0.0

-9.96492261105682e6 -2.0816222997381133e6 0.0
-2.0816222997381133e6 1.7725423033164844e7 0.0
0.0 0.0 0.0

5.198195948778842e6 4.881706445579368e6 0.0
4.881706445579368e6 -1.6638139210406123e7 0.0
0.0 0.0 0.0

4.000870528954642e6 6.368107405439295e6 0.0
6.368107405439295e6 -1.30830595700266e7 0.0
0.0 0.0 0.0

4.896671559571524e6 5.639973427582855e6 0.0
5.639973427582855e6 -1.6306055226941274e7 0.0
0.0 0.0 0.0

-1.3673201914047352e6 1.2838189176507875e7 0.0
1.2838189176507875e7 -1.3348483661235735e7 0.0
0.0 0.0 0.0

-1.846497869037302e6 1.9440073699916236e7 0.0
1.9440073699916236e7 -3.03127037089586e6 0.0
0.0 0.0 0.0

-1.1463518499574084e7 1.2357636403125009e7 0.0
1.2357636403125009e7 1.6782627979098674e7 0.0
0.0 0.0 0.0

-5.91991932705588e6 1.418119131936229e7 0.0
1.418119131936229e7 4.295048601365006e6 0.0
0.0 0.0 0.0

4.385990513985015e6 5.981388482556975e6 0.0
5.981388482556975e6 -1.6862707243694864e7 0.0
0.0 0.0 0.0

-8.826856962283446e6 2.199413088558423e6 0.0
2.199413088558423e6 9.595947471355824e6 0.0
0.0 0.0 0.0

-1.1270224728134949e7 1.2866139371502986e7 0.0
1.2866139371502986e7 1.54522370079653e7 0.0
0.0 0.0 0.0

-24252.207014591433 1.438772677861459e7 0.0
1.438772677861459e7 -9.734070719937386e6 0.0
0.0 0.0 0.0

1.0189796326801467e6 1.3871732077147685e7 0.0
1.3871732077147685e7 -5.689597078492854e6 0.0
0.0 0.0 0.0

-4.86347839836142e6 1.9877978020096008e7 0.0
1.9877978020096008e7 5.5490468200259665e6 0.0
0.0 0.0 0.0

1.8498503610015549e6 1.1750422477128943e7 0.0
1.1750422477128943e7 -1.3910088716819724e7 0.0
0.0 0.0 0.0

4.708644181404011e6 6.329844955380466e6 0.0
6.329844955380466e6 -1.7043023206918053e7 0.0
0.0 0.0 0.0

4.291125104378412e6 6.306160972440398e6 0.0
6.306160972440398e6 -1.7199034776739594e7 0.0
0.0 0.0 0.0

2.225927062819451e6 7.372785790743185e6 0.0
7.372785790743185e6 -9.86012970894395e6 0.0
0.0 0.0 0.0

4.153379239259365e6 6.647723734320654e6 0.0
6.647723734320654e6 -1.7551990355158474e7 0.0
0.0 0.0 0.0

4.633237884259342e6 5.951795890489364e6 0.0
5.951795890489364e6 -1.4710021362936476e7 0.0
0.0 0.0 0.0

-7.369662746696686e6 2.295784678095338e7 0.0
2.295784678095338e7 6.980097386465471e6 0.0
0.0 0.0 0.0

-872592.8701244578 2.059332484859498e7 0.0
2.059332484859498e7 -3.3818886074641505e6 0.0
0.0 0.0 0.0

-4.90387062852463e6 1.6875116781418066e7 0.0
1.6875116781418066e7 5.781810033659374e6 0.0
0.0 0.0 0.0

4.004372826946388e6 6.279379565843559e6 0.0
6.279379565843559e6 -1.523185335767946e7 0.0
0.0 0.0 0.0

-2.1918079976604586e6 1.4286086603088187e7 0.0
1.4286086603088187e7 -4.28393526311082e6 0.0
0.0 0.0 0.0

-696926.055587772 1.0756400489466378e7 0.0
1.0756400489466378e7 -1.0091066075224924e6 0.0
0.0 0.0 0.0

-9.208464657522783e6 1.6620878757187823e7 0.0
1.6620878757187823e7 -3.0694891476471134e7 0.0
0.0 0.0 0.0

9.781947766196985e6 1.7503648359841153e7 0.0
1.7503648359841153e7 3.26065097401938e7 0.0
0.0 0.0 0.0

4.844270087259657e6 1.475696185724898e7 0.0
1.475696185724898e7 -2.8516979475771016e6 0.0
0.0 0.0 0.0

7.545281922519995e6 1.5184010771466834e7 0.0
1.5184010771466834e7 -5.1537394179345155e6 0.0
0.0 0.0 0.0

4.247320915681183e6 6.669252315570868e6 0.0
6.669252315570868e6 -3.0137308050195612e7 0.0
0.0 0.0 0.0

651983.1693845326 1.3400487063157318e7 0.0
1.3400487063157318e7 -1.0891899052133355e7 0.0
0.0 0.0 0.0

-1.8435684808890321e6 1.4937318460403003e7 0.0
1.4937318460403003e7 6.805164410368944e6 0.0
0.0 0.0 0.0

-1.2457806819245175e7 1.9551843261599033e6 0.0
1.9551843261599033e6 2.0806320049082715e7 0.0
0.0 0.0 0.0

-1.0818430446571529e7 1.1890554794114606e7 0.0
1.1890554794114606e7 2.0741214311475527e7 0.0
0.0 0.0 0.0

-2.5322931721346006e6 1.5601949795863856e7 0.0
1.5601949795863856e7 4.1852087598168254e6 0.0
0.0 0.0 0.0

-874711.765933811 1.1664693348042212e7 0.0
1.1664693348042212e7 -4.039724609056838e6 0.0
0.0 0.0 0.0

-6.811544095625751e6 1.9777246569679897e7 0.0
1.9777246569679897e7 -3.134571511456702e6 0.0
0.0 0.0 0.0

-5.890270382643407e6 1.6261261101399101e7 0.0
1.6261261101399101e7 9.661525665509937e6 0.0
0.0 0.0 0.0

-6.8081291178507265e6 9.735098021222448e6 0.0
9.735098021222448e6 6.3531080583297815e6 0.0
0.0 0.0 0.0

-5.2769890909314e6 1.641035588623887e7 0.0
1.641035588623887e7 4.217904507143175e6 0.0
0.0 0.0 0.0

4.941729087657062e6 6.408928513686058e6 0.0
6.408928513686058e6 -2.215929398190902e7 0.0
0.0 0.0 0.0

3.87849820970508e6 6.946003798665237e6 0.0
6.946003798665237e6 -1.2481136010703396e7 0.0
0.0 0.0 0.0

-855168.7740470953 1.469314745841859e7 0.0
1.469314745841859e7 -8.390892493987096e6 0.0
0.0 0.0 0.0

2.367724825022242e6 9.906179415077142e6 0.0
9.906179415077142e6 -1.493058462181076e7 0.0
0.0 0.0 0.0

-1.1641770788645476e7 4.562001492405847e6 0.0
4.562001492405847e6 2.6268162013221778e7 0.0
0.0 0.0 0.0

-1.7052244768030231e6 4.022262384010512e6 0.0
4.022262384010512e6 10958.601067779586 0.0
0.0 0.0 0.0

-1.072065689188422e7 4.254111634328661e6 0.0
4.254111634328661e6 3.46223171208114e7 0.0
0.0 0.0 0.0

-912634.682179728 1.4114322814205505e7 0.0
1.4114322814205505e7 -7.950432403889066e6 0.0
0.0 0.0 0.0

-5.016331778559009e6 1.7300400424788553e7 0.0
1.7300400424788553e7 6.923092842060564e6 0.0
0.0 0.0 0.0

-6.703918565408053e6 8.687982271752728e6 0.0
8.687982271752728e6 8.985536955557033e6 0.0
0.0 0.0 0.0

-1.8817911177273581e6 1.8039581591344338e7 0.0
1.8039581591344338e7 -4.288530581435784e6 0.0
0.0 0.0 0.0

-5.912156585121245e6 6.01899458605567e6 0.0
6.01899458605567e6 5.72546401731669e6 0.0
0.0 0.0 0.0

-6.813301663925e6 1.558858505664403e7 0.0
1.558858505664403e7 1.02222884906755e7 0.0
0.0 0.0 0.0

9.4233826711852e6 1.7900425164274227e7 0.0
1.7900425164274227e7 -1.0210015009483535e7 0.0
0.0 0.0 0.0

-1.0098301289125688e7 1.3168217016644139e7 0.0
1.3168217016644139e7 1.351813540976021e7 0.0
0.0 0.0 0.0

-759899.8912359109 4.648613809630919e6 0.0
4.648613809630919e6 -263907.87767814414 0.0
0.0 0.0 0.0

-2.2643964003910974e7 -1.60236311881732e6 0.0
-1.60236311881732e6 9.871474622546777e6 0.0
0.0 0.0 0.0

4.840995663034405e6 5.181635145299538e6 0.0
5.181635145299538e6 -1.7939167186691243e7 0.0
0.0 0.0 0.0

-7.020684486864019e6 2.0897794331836507e7 0.0
2.0897794331836507e7 6.877241499029106e6 0.0
0.0 0.0 0.0

-7.173531462308772e6 1.986291977758172e6 0.0
1.986291977758172e6 6.953628396382948e6 0.0
0.0 0.0 0.0

-2.4156467342834366e6 9.84360832454725e6 0.0
9.84360832454725e6 -1.879533595724886e6 0.0
0.0 0.0 0.0

-1.0819490421157282e7 -1.3143725703258086e6 0.0
-1.3143725703258086e6 1.6267935372899808e7 0.0
0.0 0.0 0.0

-112322.57240780769 1.4362540155259531e7 0.0
1.4362540155259531e7 -1.0098784037743118e7 0.0
0.0 0.0 0.0

-1.0332221894693837e7 -2.7581921378067406e6 0.0
-2.7581921378067406e6 1.6589499868207242e7 0.0
0.0 0.0 0.0

506745.7674700245 1.2199916844082355e7 0.0
1.2199916844082355e7 -1.0484301219106523e7 0.0
0.0 0.0 0.0

-1.1122304959272757e7 1.2978858305209052e7 0.0
1.2978858305209052e7 1.6161652928315809e7 0.0
0.0 0.0 0.0

-7.455681214360205e6 7.836661427719466e6 0.0
7.836661427719466e6 7.731344826497707e6 0.0
0.0 0.0 0.0

-9.821125369003607e6 1.2619491881322837e7 0.0
1.2619491881322837e7 1.9581770987412475e7 0.0
0.0 0.0 0.0

-9.642161167879045e6 1.0294746703523032e7 0.0
1.0294746703523032e7 1.1859716912465163e7 0.0
0.0 0.0 0.0

-4.604939308634074e6 1.689496488212312e7 0.0
1.689496488212312e7 1.407460697158706e6 0.0
0.0 0.0 0.0

4.686700803610836e6 6.89340968920494e6 0.0
6.89340968920494e6 -2.1379129172909178e7 0.0
0.0 0.0 0.0

-9.64204513434444e6 1.3587352739224382e7 0.0
1.3587352739224382e7 1.671143583992831e7 0.0
0.0 0.0 0.0

4.863444914164759e6 1.449933060026356e7 0.0
1.449933060026356e7 1.95296772985164e6 0.0
0.0 0.0 0.0

-1.6371816003969379e7 4.852159603033949e6 0.0
4.852159603033949e6 1.080579882115151e7 0.0
0.0 0.0 0.0

3.3548777566885687e6 9.366515117705837e6 0.0
9.366515117705837e6 -1.937548635888538e7 0.0
0.0 0.0 0.0

-6.285454626367239e6 9.533881303039897e6 0.0
9.533881303039897e6 8.102066757948745e6 0.0
0.0 0.0 0.0

2.9444070969887534e6 8.138303921980212e6 0.0
8.138303921980212e6 -1.0546723302830553e7 0.0
0.0 0.0 0.0

-5.2225729618356675e6 1.8531445296518458e6 0.0
1.8531445296518458e6 6.879941687157171e6 0.0
0.0 0.0 0.0

-8.947894155677645e6 -2.4054513439441184e6 0.0
-2.4054513439441184e6 1.1970798361540452e7 0.0
0.0 0.0 0.0

1.485491270489011e6 1.1056077705852475e7 0.0
1.1056077705852475e7 -1.2648851736737426e7 0.0
0.0 0.0 0.0

-8.610985446153741e6 3.5502581714089313e6 0.0
3.5502581714089313e6 1.2045391228903232e7 0.0
0.0 0.0 0.0

-5.277507545785274e6 1.7608690477785543e7 0.0
1.7608690477785543e7 6.389977868532995e6 0.0
0.0 0.0 0.0

-2.199312850236586e6 1.3208206830643486e7 0.0
1.3208206830643486e7 7.06499103426237e6 0.0
0.0 0.0 0.0

439648.984687397 6.752054633797179e6 0.0
6.752054633797179e6 -3.2650856707307915e6 0.0
0.0 0.0 0.0

-592249.9378499333 1.4506499305717431e7 0.0
1.4506499305717431e7 -7.3302261800345015e6 0.0
0.0 0.0 0.0

3.4946957397409556e6 7.087400761997411e6 0.0
7.087400761997411e6 -1.3979070767121289e7 0.0
0.0 0.0 0.0

-3.069879302044253e6 1.906429841033423e7 0.0
1.906429841033423e7 -1.5377882366057907e6 0.0
0.0 0.0 0.0

-387150.2849140633 1.2724112705817891e7 0.0
1.2724112705817891e7 -3.323561878995212e7 0.0
0.0 0.0 0.0

3.3075163695552237e6 5.744232676262373e6 0.0
5.744232676262373e6 -1.1332771736083541e7 0.0
0.0 0.0 0.0

4.145691549357541e6 5.902944254345791e6 0.0
5.902944254345791e6 -1.4940229292635009e7 0.0
0.0 0.0 0.0

-919674.6151088723 1.2901761126932455e7 0.0
1.2901761126932455e7 -1.2600011221703073e7 0.0
0.0 0.0 0.0

-89469.14993349416 7.079425481841645e6 0.0
7.079425481841645e6 -2.4855400438360837e6 0.0
0.0 0.0 0.0

-6.253966911398118e6 1.4913960297015997e7 0.0
1.4913960297015997e7 -2.78574999207739e7 0.0
0.0 0.0 0.0

2.0237112052192572e6 7.119287673090752e6 0.0
7.119287673090752e6 -7.426822930016508e6 0.0
0.0 0.0 0.0

3.2997490141173285e6 7.392172926564789e6 0.0
7.392172926564789e6 -1.0796185400399413e7 0.0
0.0 0.0 0.0

-415285.95550713595 1.4373180690215277e7 0.0
1.4373180690215277e7 -2.0746498447000398e6 0.0
0.0 0.0 0.0

-1.2264486661379287e7 8.725729824906196e6 0.0
8.725729824906196e6 2.1790877899556093e7 0.0
0.0 0.0 0.0

-4.547768136617024e6 2.0266749599186495e7 0.0
2.0266749599186495e7 3.3142339790236447e6 0.0
0.0 0.0 0.0

-1.0607435873694131e7 3.143984994356734e6 0.0
3.143984994356734e6 7.692009714588966e6 0.0
0.0 0.0 0.0

2.106720690118692e6 1.0249225144351915e7 0.0
1.0249225144351915e7 -1.4148382480037464e7 0.0
0.0 0.0 0.0

-1.3479245483523333e6 1.5194181560400285e7 0.0
1.5194181560400285e7 8.555109011423878e6 0.0
0.0 0.0 0.0

-2.9266488452877575e6 1.8626743354940053e7 0.0
1.8626743354940053e7 -2.3244064880693574e6 0.0
0.0 0.0 0.0

-247246.8600157583 1.0852442646466253e7 0.0
1.0852442646466253e7 -6.819568871927747e6 0.0
0.0 0.0 0.0

-2.322760051545613e6 1.8323131214729562e7 0.0
1.8323131214729562e7 -3.6253574352471973e6 0.0
0.0 0.0 0.0

690095.4847947131 1.120538465156545e7 0.0
1.120538465156545e7 -7.387434846681968e6 0.0
0.0 0.0 0.0

-6.435931913578877e6 -227565.65534429226 0.0
-227565.65534429226 7.679104074222112e6 0.0
0.0 0.0 0.0

-893527.1129465215 1.4273241538635222e7 0.0
1.4273241538635222e7 -8.278193369792609e6 0.0
0.0 0.0 0.0

564353.7303946172 2.7217836211209837e7 0.0
2.7217836211209837e7 -7.03383417826976e6 0.0
0.0 0.0 0.0

1.189674850775016e6 1.6225049700076772e7 0.0
1.6225049700076772e7 -5.063951727316756e6 0.0
0.0 0.0 0.0

292687.873340535 1.3920481845866555e7 0.0
1.3920481845866555e7 -1.0330309793442408e7 0.0
0.0 0.0 0.0

-3.8636626057639816e6 1.0756918863721741e7 0.0
1.0756918863721741e7 2.743904211506609e6 0.0
0.0 0.0 0.0

-3.6033626553001045e6 1.3271553294317976e7 0.0
1.3271553294317976e7 -909382.1218180784 0.0
0.0 0.0 0.0

5.247176983718167e6 4.616149659936708e6 0.0
4.616149659936708e6 -1.733826914240275e7 0.0
0.0 0.0 0.0

3.158501751716884e6 4.8624447644175785e6 0.0
4.8624447644175785e6 -9.113899408477526e6 0.0
0.0 0.0 0.0

-1.6928062223259606e6 7.6546898638126105e6 0.0
7.6546898638126105e6 -2.1180950977881183e6 0.0
0.0 0.0 0.0

-4.292853855954971e6 1.6165619927972347e7 0.0
1.6165619927972347e7 -894303.7534175373 0.0
0.0 0.0 0.0

3.6219934034862584e6 6.1496661891348045e6 0.0
6.1496661891348045e6 -1.290527060446922e7 0.0
0.0 0.0 0.0

96000.15114687197 1.2391789947567679e7 0.0
1.2391789947567679e7 -9.274803185350677e6 0.0
0.0 0.0 0.0

-1.5214145068658958e6 1.48787014575293e7 0.0
1.48787014575293e7 5.353931239428601e6 0.0
0.0 0.0 0.0

2.9725385685631065e6 9.634133292712823e6 0.0
9.634133292712823e6 -1.4499189852993682e7 0.0
0.0 0.0 0.0

-7.717108482828553e6 3.1007916451376686e6 0.0
3.1007916451376686e6 1.0925885396120144e7 0.0
0.0 0.0 0.0

-1.891494199742819e7 1.9386357833251253e7 0.0
1.9386357833251253e7 7.807243655274657e6 0.0
0.0 0.0 0.0

3.3951523656050107e6 9.204741305471437e6 0.0
9.204741305471437e6 -1.6243501912861131e7 0.0
0.0 0.0 0.0

-3.726168450633077e7 842221.256851479 0.0
842221.256851479 9.097152519568235e6 0.0
0.0 0.0 0.0

3.2585782459869618e6 6.905338374828482e6 0.0
6.905338374828482e6 -1.2550444486909643e7 0.0
0.0 0.0 0.0

-6.480259425756249e6 1.477746312716296e7 0.0
1.477746312716296e7 1.2607036965641335e7 0.0
0.0 0.0 0.0

1.8115761754464647e6 1.1112552866218755e7 0.0
1.1112552866218755e7 -1.949435377922404e7 0.0
0.0 0.0 0.0

1.8677045218782444e6 1.1774911872281529e7 0.0
1.1774911872281529e7 -1.5726927566763101e7 0.0
0.0 0.0 0.0

-2.3412222352403104e6 3.6997333163302382e6 0.0
3.6997333163302382e6 2.390625303712244e6 0.0
0.0 0.0 0.0

-1.2474812427023463e7 4.0699029664825425e6 0.0
4.0699029664825425e6 1.598135069691396e7 0.0
0.0 0.0 0.0

-2.4982924922100324e6 1.1508227869825723e7 0.0
1.1508227869825723e7 -2.553574187744793e6 0.0
0.0 0.0 0.0

-4.149015748700454e6 1.0144814058993284e7 0.0
1.0144814058993284e7 3.4134405087909563e6 0.0
0.0 0.0 0.0

-1.270676150284187e7 3.5070480197690665e6 0.0
3.5070480197690665e6 1.8302025253045138e7 0.0
0.0 0.0 0.0

-1.6331005230089393e6 1.1275244422407087e7 0.0
1.1275244422407087e7 -2.215838898782422e6 0.0
0.0 0.0 0.0

-572654.5465032686 1.3738313289079092e7 0.0
1.3738313289079092e7 -8.751593737255959e6 0.0
0.0 0.0 0.0

-601637.4185287829 1.435995712055947e7 0.0
1.435995712055947e7 -6.980158068405069e6 0.0
0.0 0.0 0.0

-1.1240915230087612e6 1.474265860638115e7 0.0
1.474265860638115e7 -7.8408251893490255e6 0.0
0.0 0.0 0.0

874518.5573987919 1.1806210932068625e7 0.0
1.1806210932068625e7 -1.1183691596789286e7 0.0
0.0 0.0 0.0

2.2331940920645157e6 7.753298352205288e6 0.0
7.753298352205288e6 -1.0257192238888375e7 0.0
0.0 0.0 0.0

358227.86052734475 1.283979616283144e7 0.0
1.283979616283144e7 -5.422932023619501e6 0.0
0.0 0.0 0.0

-950834.7200891806 1.3960380769603107e7 0.0
1.3960380769603107e7 -7.629967211118367e6 0.0
0.0 0.0 0.0

198848.05812456552 1.1289712295138534e7 0.0
1.1289712295138534e7 -6.154616666064503e6 0.0
0.0 0.0 0.0

-6.442301826142472e6 3.1491457094135187e6 0.0
3.1491457094135187e6 9.431481809629904e6 0.0
0.0 0.0 0.0

1.1803698315774957e6 1.145061690247704e7 0.0
1.145061690247704e7 -1.193654158864877e7 0.0
0.0 0.0 0.0

-7.9363098772536125e6 1.5621862357640838e7 0.0
1.5621862357640838e7 -2.6454366336471066e7 0.0
0.0 0.0 0.0

-2.1773162750676568e6 4.617704610687934e6 0.0
4.617704610687934e6 1.8964852231453657e6 0.0
0.0 0.0 0.0

2.917668898520205e6 7.640982995923039e6 0.0
7.640982995923039e6 -1.2268053193402935e7 0.0
0.0 0.0 0.0

586397.8343642699 6.49176419061126e6 0.0
6.49176419061126e6 -5.2270728946063025e6 0.0
0.0 0.0 0.0

350521.36476351693 1.2039795691020863e7 0.0
1.2039795691020863e7 -3.021867455760149e7 0.0
0.0 0.0 0.0

-5.520244970746828e6 1.082955112219902e7 0.0
1.082955112219902e7 6.194011032223006e6 0.0
0.0 0.0 0.0

3.9000130145112677e6 6.630096547759628e6 0.0
6.630096547759628e6 -1.211637990712317e7 0.0
0.0 0.0 0.0

-1.186236607527437e7 3.7956215256207134e6 0.0
3.7956215256207134e6 1.41515709456889e7 0.0
0.0 0.0 0.0

-1.0718927545150153e7 -1.8271043857440907e6 0.0
-1.8271043857440907e6 2.7965045347583447e7 0.0
0.0 0.0 0.0

225854.7394923519 1.402804376911203e7 0.0
1.402804376911203e7 -1.7107917733262372e6 0.0
0.0 0.0 0.0

217582.3706668946 1.284951173093114e7 0.0
1.284951173093114e7 1.2634754759510495e6 0.0
0.0 0.0 0.0

-6.118823144485755e6 1.7754320650987048e7 0.0
1.7754320650987048e7 6.127493787883384e6 0.0
0.0 0.0 0.0

-5.297840151635158e6 1.4918127186267776e7 0.0
1.4918127186267776e7 2.788754488886367e6 0.0
0.0 0.0 0.0

5.230191810437276e6 5.350290640169036e6 0.0
5.350290640169036e6 -1.9320596262437463e7 0.0
0.0 0.0 0.0

5.218916146137295e6 5.709278530650042e6 0.0
5.709278530650042e6 -1.9613340081974722e7 0.0
0.0 0.0 0.0

-1.2091216289286407e7 8.621239094585132e6 0.0
8.621239094585132e6 1.7272394160673603e7 0.0
0.0 0.0 0.0

-208103.57441379363 1.3193126353969673e7 0.0
1.3193126353969673e7 -9.231035373760266e6 0.0
0.0 0.0 0.0

3.549371331442889e6 1.469362010619831e7 0.0
1.469362010619831e7 -2.222039690407018e6 0.0
0.0 0.0 0.0

-1.1859051707491321e7 996133.0626835042 0.0
996133.0626835042 3.2380803494098216e7 0.0
0.0 0.0 0.0

-5.394990080641487e6 1.3371403008990364e7 0.0
1.3371403008990364e7 5.699164122199269e6 0.0
0.0 0.0 0.0

-1.0814938491596056e6 1.2986141029586032e7 0.0
1.2986141029586032e7 -6.266488996337034e6 0.0
0.0 0.0 0.0

-8.058505453728208e6 1.2328725934071686e7 0.0
1.2328725934071686e7 3.086791710263264e7 0.0
0.0 0.0 0.0

862792.3265815072 5.23709503345915e6 0.0
5.23709503345915e6 -3.093259787718286e6 0.0
0.0 0.0 0.0

-2.405005506596581e6 1.6361738766074616e7 0.0
1.6361738766074616e7 -4.162000409912189e6 0.0
0.0 0.0 0.0

-1.2746336198523482e6 1.5626331985688664e7 0.0
1.5626331985688664e7 1.0188901845296383e7 0.0
0.0 0.0 0.0

3.5290564153413186e6 7.356413320937867e6 0.0
7.356413320937867e6 -1.1817443157599473e7 0.0
0.0 0.0 0.0

-2.2526433977077054e6 1.0324222001967413e7 0.0
1.0324222001967413e7 -2.4381615683399234e6 0.0
0.0 0.0 0.0

-1.0605485474379953e7 1.0985919552237721e7 0.0
1.0985919552237721e7 2.3978745850696065e7 0.0
0.0 0.0 0.0

4.183537974897473e6 7.882768013271523e6 0.0
7.882768013271523e6 -1.9815474936855532e7 0.0
0.0 0.0 0.0

580552.223302634 1.3592668148798278e7 0.0
1.3592668148798278e7 -1.1108248401045667e7 0.0
0.0 0.0 0.0

-9.9341951089281e6 -3.6608490776971886e6 0.0
-3.6608490776971886e6 2.137177559018571e7 0.0
0.0 0.0 0.0

3.709096515709915e6 8.797625760024985e6 0.0
8.797625760024985e6 -1.914441276257476e7 0.0
0.0 0.0 0.0

630096.6499632869 8.316219739980017e6 0.0
8.316219739980017e6 -5.216600781196202e6 0.0
0.0 0.0 0.0

4.231881753065084e6 7.54988795312735e6 0.0
7.54988795312735e6 -1.703336026294904e7 0.0
0.0 0.0 0.0

410722.7825459209 1.1322810391965613e7 0.0
1.1322810391965613e7 -8.883500010784108e6 0.0
0.0 0.0 0.0

142502.27926600678 1.2611868107253294e7 0.0
1.2611868107253294e7 -9.67705654363029e6 0.0
0.0 0.0 0.0

-1.2494396497878272e7 2.407490508733167e6 0.0
2.407490508733167e6 1.7899365592477232e7 0.0
0.0 0.0 0.0

1.3258458225318128e6 1.3572060662199061e7 0.0
1.3572060662199061e7 1.68457119485603e6 0.0
0.0 0.0 0.0

-5.908388257820373e6 2.755201287508014e6 0.0
2.755201287508014e6 8.149413482701633e6 0.0
0.0 0.0 0.0

1.6047661631664513e6 1.2102937742231568e7 0.0
1.2102937742231568e7 -1.323291840552246e7 0.0
0.0 0.0 0.0

-826306.4288145261 5.407985438201534e6 0.0
5.407985438201534e6 -557856.596590389 0.0
0.0 0.0 0.0

1.3822065289608645e6 5.493639421843109e6 0.0
5.493639421843109e6 -6.073862270120521e6 0.0
0.0 0.0 0.0

88112.76452224469 1.2185550050889645e7 0.0
1.2185550050889645e7 -8.925795606083076e6 0.0
0.0 0.0 0.0

4.211084684952767e6 5.807193961645124e6 0.0
5.807193961645124e6 -1.2384795342618873e7 0.0
0.0 0.0 0.0

-1.1095771634229634e7 -754442.3356915583 0.0
-754442.3356915583 1.4771111856499987e7 0.0
0.0 0.0 0.0

5.415526809345173e6 4.378374742487603e6 0.0
4.378374742487603e6 -2.681724243333297e7 0.0
0.0 0.0 0.0

-969769.344164625 1.296775526230103e7 0.0
1.296775526230103e7 -3.232564141431127e6 0.0
0.0 0.0 0.0

-1.0853246097924273e7 5.958259927654338e6 0.0
5.958259927654338e6 1.2357949200200835e7 0.0
0.0 0.0 0.0

-6.274614170349143e6 1.6863546367325954e7 0.0
1.6863546367325954e7 4.283416723549861e6 0.0
0.0 0.0 0.0

-119666.6977050046 1.4355486116686238e7 0.0
1.4355486116686238e7 5.292754687390368e6 0.0
0.0 0.0 0.0

-1.0811416182676747e7 1.3427111977382911e7 0.0
1.3427111977382911e7 1.5678213252563953e7 0.0
0.0 0.0 0.0

-7.813273910037981e6 1.396945289372215e7 0.0
1.396945289372215e7 1.2855042414191611e7 0.0
0.0 0.0 0.0

-9.274711856064493e6 -6.248847072193868e6 0.0
-6.248847072193868e6 2.0417395433724444e7 0.0
0.0 0.0 0.0

-2.6021303693001154e6 1.0134238592606593e7 0.0
1.0134238592606593e7 510319.61429710337 0.0
0.0 0.0 0.0

1.4948969061254999e6 1.539659614122928e7 0.0
1.539659614122928e7 8.80504423479284e6 0.0
0.0 0.0 0.0

-4.2981736232029665e6 1.6163652972117076e7 0.0
1.6163652972117076e7 7.226322230248418e6 0.0
0.0 0.0 0.0

-1.2190605919632316e7 3.3011023594407933e6 0.0
3.3011023594407933e6 1.5345969249248436e7 0.0
0.0 0.0 0.0

1.671569158154794e6 1.1226709854000865e7 0.0
1.1226709854000865e7 -1.478327067033646e7 0.0
0.0 0.0 0.0

3.0351370120686525e6 6.593993910254229e6 0.0
6.593993910254229e6 -1.1120641692027748e7 0.0
0.0 0.0 0.0

449813.01917013386 1.303587072732536e7 0.0
1.303587072732536e7 -8.996866033508398e6 0.0
0.0 0.0 0.0

-2.20794690075508e6 9.304216395309433e6 0.0
9.304216395309433e6 82164.43653527985 0.0
0.0 0.0 0.0

3.1884592127440944e6 5.510063387929491e6 0.0
5.510063387929491e6 -9.029284771888219e6 0.0
0.0 0.0 0.0

-2.6414713500845344e6 1.6716347634568386e7 0.0
1.6716347634568386e7 -3.302620434117271e6 0.0
0.0 0.0 0.0

-1.0743481106432306e7 -696822.6350451027 0.0
-696822.6350451027 2.656229047401236e7 0.0
0.0 0.0 0.0

-1.0401876080614682e7 -2.560228593729691e6 0.0
-2.560228593729691e6 2.2494630555558644e7 0.0
0.0 0.0 0.0

-1.2703492039358208e7 6.916747542415229e6 0.0
6.916747542415229e6 2.210019305109793e7 0.0
0.0 0.0 0.0

-1.8087038261856812e6 1.5517970223171683e7 0.0
1.5517970223171683e7 -6.191373285117689e6 0.0
0.0 0.0 0.0

-490109.6479131323 7.104152124551235e6 0.0
7.104152124551235e6 -3.818215274234949e6 0.0
0.0 0.0 0.0

4.964391626838806e6 1.565447143970561e7 0.0
1.565447143970561e7 5.723554324730023e6 0.0
0.0 0.0 0.0

4.705993539329362e6 1.6657969885423092e7 0.0
1.6657969885423092e7 2.3996025964782808e7 0.0
0.0 0.0 0.0

3.6874338177400352e6 6.236866549973079e6 0.0
6.236866549973079e6 -1.0553769742300492e7 0.0
0.0 0.0 0.0

-9.123517830092888e6 2.3920074339750092e6 0.0
2.3920074339750092e6 1.2499328121728916e7 0.0
0.0 0.0 0.0

-2.968951434470418e6 1.0965156143882211e7 0.0
1.0965156143882211e7 919707.5814159166 0.0
0.0 0.0 0.0

-6.964567453588491e6 1.5482613265852118e7 0.0
1.5482613265852118e7 1.0042444740555327e7 0.0
0.0 0.0 0.0

5.082206829712213e6 5.9392390371648725e6 0.0
5.9392390371648725e6 -2.0822470443204388e7 0.0
0.0 0.0 0.0

4.696951886417815e6 6.598610485455544e6 0.0
6.598610485455544e6 -1.8404292481196903e7 0.0
0.0 0.0 0.0

-1.8030583818277873e6 5.649358208913184e6 0.0
5.649358208913184e6 -894187.0948203157 0.0
0.0 0.0 0.0

-5.460382057388216e6 1.4212959914588345e7 0.0
1.4212959914588345e7 5.823307463173112e6 0.0
0.0 0.0 0.0

-8.139990281013263e6 1.264977702220058e7 0.0
1.264977702220058e7 2.8487020738668885e7 0.0
0.0 0.0 0.0

115373.80534438696 1.360880421391697e7 0.0
1.360880421391697e7 -8.5653844707129e6 0.0
0.0 0.0 0.0

-1.4476876818249389e6 6.2698224363623215e6 0.0
6.2698224363623215e6 20709.903340835182 0.0
0.0 0.0 0.0

4.920054697182442e6 6.128000459710404e6 0.0
6.128000459710404e6 -1.9031503019131448e7 0.0
0.0 0.0 0.0

-6.316639931103237e6 1.5971747611706557e7 0.0
1.5971747611706557e7 6.849898034167632e6 0.0
0.0 0.0 0.0

3.1605226604306707e6 7.514699779144784e6 0.0
7.514699779144784e6 -1.3403632990094846e7 0.0
0.0 0.0 0.0

-6.911651817728181e6 4.655545247885657e6 0.0
4.655545247885657e6 1.401384052104697e6 0.0
0.0 0.0 0.0

456282.92214767076 1.1774200375991426e7 0.0
1.1774200375991426e7 -9.685870502407152e6 0.0
0.0 0.0 0.0

-591614.5045049082 4.542538586165991e6 0.0
4.542538586165991e6 -2.1828935281490143e6 0.0
0.0 0.0 0.0

-1.7783522276158582e6 8.47566853697462e6 0.0
8.47566853697462e6 -359155.0964740196 0.0
0.0 0.0 0.0

-1.2970631152032507e6 7.621269321434668e6 0.0
7.621269321434668e6 -795033.0464933277 0.0
0.0 0.0 0.0

72536.72401049733 1.1924695630319567e7 0.0
1.1924695630319567e7 -8.56804193427008e6 0.0
0.0 0.0 0.0

-2.650889746432586e6 1.1099303253272912e7 0.0
1.1099303253272912e7 -2.0494185443353415e6 0.0
0.0 0.0 0.0

-1.2701600099528138e7 3.626337271043388e6 0.0
3.626337271043388e6 1.7162016884238023e7 0.0
0.0 0.0 0.0

-1.0168885498533156e7 1.0180716423618471e7 0.0
1.0180716423618471e7 2.8014034581256967e7 0.0
0.0 0.0 0.0

-1.2162667110202312e7 7.318447936216178e6 0.0
7.318447936216178e6 2.5219220713450752e7 0.0
0.0 0.0 0.0

-1.0431477899928922e7 1.0566059329072151e7 0.0
1.0566059329072151e7 2.5864444430225067e7 0.0
0.0 0.0 0.0

-1.0577147051342089e7 4.669158284155828e6 0.0
4.669158284155828e6 4.111716317801186e7 0.0
0.0 0.0 0.0

-1.26530005677177e6 1.4870526389484378e7 0.0
1.4870526389484378e7 3.9917029518668097e6 0.0
0.0 0.0 0.0

-1.2023000556723768e7 1.8677758210577185e6 0.0
1.8677758210577185e6 3.023281056085735e7 0.0
0.0 0.0 0.0

-2.955050502024336e6 1.5754860391702296e7 0.0
1.5754860391702296e7 -2.7411078922706535e6 0.0
0.0 0.0 0.0

142004.88279614504 1.3174171935550895e7 0.0
1.3174171935550895e7 -8.68856809085326e6 0.0
0.0 0.0 0.0

-3.34578758777647e7 2.1627999797875255e7 0.0
2.1627999797875255e7 -2.096081395718934e6 0.0
0.0 0.0 0.0

3.338917368258675e6 7.046659473629686e6 0.0
7.046659473629686e6 -1.0404242589365218e7 0.0
0.0 0.0 0.0

2.70835217089907e6 1.0067300823914144e7 0.0
1.0067300823914144e7 -1.3897714223498829e7 0.0
0.0 0.0 0.0

-2.4741817277258555e6 1.6802970151334055e7 0.0
1.6802970151334055e7 -2.757370694461638e6 0.0
0.0 0.0 0.0

-4.42334412507478e6 1.6290250085411515e7 0.0
1.6290250085411515e7 2.9985270397114404e6 0.0
0.0 0.0 0.0

4.3652250385704795e6 7.148088341219846e6 0.0
7.148088341219846e6 -1.6740899461985653e7 0.0
0.0 0.0 0.0

6.332073382512279e6 1.6774607716040099e7 0.0
1.6774607716040099e7 -6.755769553065953e6 0.0
0.0 0.0 0.0

-2.7861250823772103e6 8.746865309995646e6 0.0
8.746865309995646e6 -752532.8932755255 0.0
0.0 0.0 0.0

4.491495720770381e6 6.203539110360217e6 0.0
6.203539110360217e6 -2.803693477752704e7 0.0
0.0 0.0 0.0

-2.2972556349986945e6 7.907905777353468e6 0.0
7.907905777353468e6 -1.215380536798996e6 0.0
0.0 0.0 0.0

2.653185862309205e6 7.346967866321765e6 0.0
7.346967866321765e6 -1.0881228978360366e7 0.0
0.0 0.0 0.0

-1.0331629857040178e7 1.3573156271709945e7 0.0
1.3573156271709945e7 1.5182927778977117e7 0.0
0.0 0.0 0.0

-2.0229806524630535e7 1.793012733874465e7 0.0
1.793012733874465e7 5.8236223026939e6 0.0
0.0 0.0 0.0

-9.933071777536519e6 -3.5562570471495027e6 0.0
-3.5562570471495027e6 1.6071037198841231e7 0.0
0.0 0.0 0.0

-223574.6957280268 1.4146073882542048e7 0.0
1.4146073882542048e7 -8.10328242266104e6 0.0
0.0 0.0 0.0

-1.0506749351713493e7 1.9129517676284935e7 0.0
1.9129517676284935e7 3.7766890677601104e6 0.0
0.0 0.0 0.0

3.6144092563532977e6 5.827014726226964e6 0.0
5.827014726226964e6 -1.0347198299609743e7 0.0
0.0 0.0 0.0

-1.0861274834317103e7 4.4147187485690685e6 0.0
4.4147187485690685e6 1.5046685883759098e7 0.0
0.0 0.0 0.0

419984.75862961914 1.2614335644206606e7 0.0
1.2614335644206606e7 -8.254601201326417e6 0.0
0.0 0.0 0.0

-707933.8037826811 1.1982745425754767e7 0.0
1.1982745425754767e7 -4.536452160764555e6 0.0
0.0 0.0 0.0

-3.246793290226305e6 9.58178535928244e6 0.0
9.58178535928244e6 -319716.93574298057 0.0
0.0 0.0 0.0

-1.2640926561478963e7 5.3630237121633245e6 0.0
5.3630237121633245e6 2.2179157159521546e7 0.0
0.0 0.0 0.0

5.2762814054027e6 5.053613147928052e6 0.0
5.053613147928052e6 -1.7936036359308697e7 0.0
0.0 0.0 0.0

3.705218152441267e6 5.84738331455157e6 0.0
5.84738331455157e6 -1.2329606125086084e7 0.0
0.0 0.0 0.0

-6.320141367233336e6 1.5672583981298443e7 0.0
1.5672583981298443e7 6.196594665591542e6 0.0
0.0 0.0 0.0

-4.0538887127730437e6 3.3093249448779137e6 0.0
3.3093249448779137e6 2.535463491884577e6 0.0
0.0 0.0 0.0

352335.8199933269 1.1049222296306651e7 0.0
1.1049222296306651e7 -8.499232009479709e6 0.0
0.0 0.0 0.0

4.242734759309441e6 6.693124537029116e6 0.0
6.693124537029116e6 -1.4509508767414108e7 0.0
0.0 0.0 0.0

-1.1402176849435953e7 514117.14384677616 0.0
514117.14384677616 2.4740712770883195e7 0.0
0.0 0.0 0.0

-1.0502247600739696e6 1.4983480993108386e7 0.0
1.4983480993108386e7 2.589403421060493e6 0.0
0.0 0.0 0.0

-1.0460958453707356e7 -1.4646818367915202e6 0.0
-1.4646818367915202e6 1.395088206134279e7 0.0
0.0 0.0 0.0

3.1384597429296626e6 9.70277396679402e6 0.0
9.70277396679402e6 -1.855365489941961e7 0.0
0.0 0.0 0.0

283231.7703780476 1.3246891460964594e7 0.0
1.3246891460964594e7 -1.270190337429236e7 0.0
0.0 0.0 0.0

-9.977866858614564e6 7.176366382409718e6 0.0
7.176366382409718e6 1.136542566709144e7 0.0
0.0 0.0 0.0

1.8687545458681453e6 1.1738325825562162e7 0.0
1.1738325825562162e7 -1.4857762865915505e7 0.0
0.0 0.0 0.0

1.1454128448499967e6 1.2005114406206492e7 0.0
1.2005114406206492e7 -1.0176757349346071e7 0.0
0.0 0.0 0.0

855316.2063421531 4.1194909747838764e6 0.0
4.1194909747838764e6 -2.570771892755459e6 0.0
0.0 0.0 0.0

-9.178540296740353e6 -1.1349895505612746e6 0.0
-1.1349895505612746e6 1.127623355940329e7 0.0
0.0 0.0 0.0

525648.1095159072 9.7807194001178e6 0.0
9.7807194001178e6 -7.916549074655059e6 0.0
0.0 0.0 0.0

892926.6757083433 9.02756800003165e6 0.0
9.02756800003165e6 -8.23467866362794e6 0.0
0.0 0.0 0.0

476302.874233671 1.280901980719152e7 0.0
1.280901980719152e7 -8.619721680498064e6 0.0
0.0 0.0 0.0

-1.0147060482811164e6 1.5087074862551287e7 0.0
1.5087074862551287e7 1.222715112628249e6 0.0
0.0 0.0 0.0

1.82987441917424e6 8.180657358063841e6 0.0
8.180657358063841e6 -9.609391634456048e6 0.0
0.0 0.0 0.0

1.3004389696923364e6 1.1023255848280257e7 0.0
1.1023255848280257e7 -2.531638205165775e7 0.0
0.0 0.0 0.0

-3.53059626997078e6 3.9605884839663194e6 0.0
3.9605884839663194e6 2.046981031046573e6 0.0
0.0 0.0 0.0

-4.902434880792452e6 1.4009068148981843e7 0.0
1.4009068148981843e7 -2.0874785190545943e7 0.0
0.0 0.0 0.0

-7.620023287093942e7 8.169319998570955e6 0.0
8.169319998570955e6 5.700051665615059e6 0.0
0.0 0.0 0.0

5.581887858086384e7 9.682021893644655e6 0.0
9.682021893644655e6 438515.04455753043 0.0
0.0 0.0 0.0

682753.5915039089 1.1505299108338987e7 0.0
1.1505299108338987e7 -2.8402184302724045e7 0.0
0.0 0.0 0.0

-8.55095603097629e6 1.0960128090133347e7 0.0
1.0960128090133347e7 1.2830024138537003e7 0.0
0.0 0.0 0.0

-4.2674758965340685e6 1.433529965843115e7 0.0
1.433529965843115e7 325157.0343499952 0.0
0.0 0.0 0.0

170067.6295436835 1.047698777324469e7 0.0
1.047698777324469e7 -7.6098340861251885e6 0.0
0.0 0.0 0.0

527659.3789717003 5.947689120486239e6 0.0
5.947689120486239e6 -4.731582038009036e6 0.0
0.0 0.0 0.0

953993.1539635486 6.460246870984725e6 0.0
6.460246870984725e6 -3.996595929764523e6 0.0
0.0 0.0 0.0

-3.6667922005251762e6 1.0424981831414178e7 0.0
1.0424981831414178e7 88003.45929604955 0.0
0.0 0.0 0.0

1.0185266996648964e6 1.123425816241276e7 0.0
1.123425816241276e7 -2.6777951919228677e7 0.0
0.0 0.0 0.0

1.3356368838351355e6 9.501584191394411e6 0.0
9.501584191394411e6 -7.483530532989313e6 0.0
0.0 0.0 0.0

-1.1473669224631704e7 -1.118726024275694e6 0.0
-1.118726024275694e6 1.8690533197434843e7 0.0
0.0 0.0 0.0

4.2470081369471274e7 1.1237811372157307e7 0.0
1.1237811372157307e7 -1.524456796035355e6 0.0
0.0 0.0 0.0

955838.536407854 1.0222214773821091e7 0.0
1.0222214773821091e7 -7.218051928628597e6 0.0
0.0 0.0 0.0

4.609795506510569e6 6.409127757933928e6 0.0
6.409127757933928e6 -1.6141309847715514e7 0.0
0.0 0.0 0.0

4.494477387717808e6 6.773217522118889e6 0.0
6.773217522118889e6 -1.6423050287758015e7 0.0
0.0 0.0 0.0

-9.897517620205067e6 1.379332077650731e7 0.0
1.379332077650731e7 1.4631715919218477e7 0.0
0.0 0.0 0.0

1.8258174419031236e6 1.1212409742067693e7 0.0
1.1212409742067693e7 -1.1566584469768412e7 0.0
0.0 0.0 0.0

-1.5912065175329878e6 1.5686220858177697e7 0.0
1.5686220858177697e7 -5.822300475927225e6 0.0
0.0 0.0 0.0

2.2087169695912628e6 1.5751232257724883e7 0.0
1.5751232257724883e7 -4.68882648208762e6 0.0
0.0 0.0 0.0

-1.310831622248665e6 1.0052880312806468e7 0.0
1.0052880312806468e7 -2.0423185927488562e6 0.0
0.0 0.0 0.0

1.792218991835581e6 5.840151463919009e6 0.0
5.840151463919009e6 -5.461650969197987e6 0.0
0.0 0.0 0.0

-1.0812567269226194e6 7.390617124310268e6 0.0
7.390617124310268e6 -2.9635534282698636e6 0.0
0.0 0.0 0.0

-2.1113510044506565e6 5.594364524247651e6 0.0
5.594364524247651e6 1.4347803996271715e6 0.0
0.0 0.0 0.0

-1.992038841359478e6 1.2496755647403905e7 0.0
1.2496755647403905e7 -1.6369198718038509e7 0.0
0.0 0.0 0.0

3.2118518554972056e6 9.59100560366647e6 0.0
9.59100560366647e6 -1.6523965667748567e7 0.0
0.0 0.0 0.0

2.9091996953550423e6 6.131280950170411e6 0.0
6.131280950170411e6 -1.082645284993396e7 0.0
0.0 0.0 0.0

2.59139160200524e6 7.862480373632072e6 0.0
7.862480373632072e6 -9.10050195296033e6 0.0
0.0 0.0 0.0

-2.113835593599337e6 1.1599414124748074e7 0.0
1.1599414124748074e7 -1.2919211889324929e6 0.0
0.0 0.0 0.0

2.6340810816071806e6 7.6883776747259805e6 0.0
7.6883776747259805e6 -1.1263786599493865e7 0.0
0.0 0.0 0.0

61573.7098110416 6.795950634551724e6 0.0
6.795950634551724e6 -4.52369304189181e6 0.0
0.0 0.0 0.0

4.507018214069253e6 5.428274357625323e6 0.0
5.428274357625323e6 -1.296216973356409e7 0.0
0.0 0.0 0.0

753280.4001711123 1.1721151700372944e7 0.0
1.1721151700372944e7 -8.258297078332047e6 0.0
0.0 0.0 0.0

-3.499695632232453e6 4.909719907216962e6 0.0
4.909719907216962e6 1.515809916845215e6 0.0
0.0 0.0 0.0

-2.3939397900932515e6 1.6350295093723472e7 0.0
1.6350295093723472e7 -4.642361354046268e6 0.0
0.0 0.0 0.0

4.703021329381751e6 5.868764367832102e6 0.0
5.868764367832102e6 -2.4725615599643342e7 0.0
0.0 0.0 0.0

404713.6845928952 1.2356795673012745e7 0.0
1.2356795673012745e7 -7.909902915188798e6 0.0
0.0 0.0 0.0

3.7269442762604915e6 7.570692117351757e6 0.0
7.570692117351757e6 -1.3203457179386416e7 0.0
0.0 0.0 0.0

-215127.04764205756 5.164170119090499e6 0.0
5.164170119090499e6 -1.2338642802383415e6 0.0
0.0 0.0 0.0

4.0062971469003484e6 7.149638574243794e6 0.0
7.149638574243794e6 -1.3889818247213572e7 0.0
0.0 0.0 0.0

-4.875411597852513e6 1.5001320447020745e7 0.0
1.5001320447020745e7 4.1841347696124106e6 0.0
0.0 0.0 0.0

-2.2456226502477787e6 1.7476377893072046e7 0.0
1.7476377893072046e7 -4.551781579812897e6 0.0
0.0 0.0 0.0

282697.15618509613 1.345174268082617e7 0.0
1.345174268082617e7 -1.2542510367625419e7 0.0
0.0 0.0 0.0

987078.1181027777 6.119055500076899e6 0.0
6.119055500076899e6 -5.897492307871777e6 0.0
0.0 0.0 0.0

-2.1895247587741083e6 1.8009033788913026e7 0.0
1.8009033788913026e7 -2.941922766182237e6 0.0
0.0 0.0 0.0

-1.1528335387082892e6 1.5402701630527813e7 0.0
1.5402701630527813e7 -6.074996682538586e6 0.0
0.0 0.0 0.0

-1.0137596551200625e7 4.1065757431198275e6 0.0
4.1065757431198275e6 1.1190504383234277e7 0.0
0.0 0.0 0.0

-4.492856928300182e6 1.5967219386644479e7 0.0
1.5967219386644479e7 8.421194303362114e6 0.0
0.0 0.0 0.0

-1.0541943095178127e6 4.8432538153953515e6 0.0
4.8432538153953515e6 -1.3669974998875705e6 0.0
0.0 0.0 0.0

-1.1844526987078744e6 8.208761721766258e6 0.0
8.208761721766258e6 -1.2792681645503915e6 0.0
0.0 0.0 0.0

-1.1627220431944635e7 3.776445343755002e6 0.0
3.776445343755002e6 2.8281968443078756e7 0.0
0.0 0.0 0.0

-4.927281221167589e6 9.479229653913278e6 0.0
9.479229653913278e6 2.485109234162215e6 0.0
0.0 0.0 0.0

1.5050981339114641e6 1.3092789655957105e7 0.0
1.3092789655957105e7 -347331.2040889362 0.0
0.0 0.0 0.0

618818.6235053656 1.0923356543130646e7 0.0
1.0923356543130646e7 -6.910728079958194e6 0.0
0.0 0.0 0.0

13090.341567971278 1.1689562810348695e7 0.0
1.1689562810348695e7 -8.144339813438351e6 0.0
0.0 0.0 0.0

1.3009649690985773e6 1.0909117963394646e7 0.0
1.0909117963394646e7 -2.397993872814295e7 0.0
0.0 0.0 0.0

4.496000329446185e6 6.143206862953637e6 0.0
6.143206862953637e6 -2.610779235708442e7 0.0
0.0 0.0 0.0

-1.2537665223344002e7 5.211185628189259e6 0.0
5.211185628189259e6 1.5437958971918447e7 0.0
0.0 0.0 0.0

-5.110546929676048e6 1.757992271476791e7 0.0
1.757992271476791e7 5.475496333622474e6 0.0
0.0 0.0 0.0

-1.1897693778312322e7 -721792.5110754628 0.0
-721792.5110754628 2.1333044421168935e7 0.0
0.0 0.0 0.0

-612265.3231534429 1.463895364602664e7 0.0
1.463895364602664e7 -7.684963461750084e6 0.0
0.0 0.0 0.0

-605505.763196331 1.4358819505802466e7 0.0
1.4358819505802466e7 -9.504586055807728e6 0.0
0.0 0.0 0.0

7.891552823779635e6 5.247826138284175e6 0.0
5.247826138284175e6 -1.6376366070328774e6 0.0
0.0 0.0 0.0

1.5850758875056375e6 7.924165278035346e6 0.0
7.924165278035346e6 -7.104745791080671e6 0.0
0.0 0.0 0.0

-7.765252904249515e6 9.161992841721414e6 0.0
9.161992841721414e6 8.220893922080679e6 0.0
0.0 0.0 0.0

-472718.1199144381 1.3071809138387334e7 0.0
1.3071809138387334e7 -1.2040607768604808e7 0.0
0.0 0.0 0.0

725588.9012227566 1.1486761105068581e7 0.0
1.1486761105068581e7 -7.838870357879781e6 0.0
0.0 0.0 0.0

787779.6661656774 1.2219111417281395e7 0.0
1.2219111417281395e7 -9.018670407110104e6 0.0
0.0 0.0 0.0

-1.20653192959499e7 8.450215430304594e6 0.0
8.450215430304594e6 2.196032897013329e7 0.0
0.0 0.0 0.0

-1.173798992152889e7 5.093270738836482e6 0.0
5.093270738836482e6 1.3805773211714705e7 0.0
0.0 0.0 0.0

-59842.4445526842 1.142978144624315e7 0.0
1.142978144624315e7 -7.729417211081473e6 0.0
0.0 0.0 0.0

-1.3545458166351302e6 1.3546515005894965e7 0.0
1.3546515005894965e7 -5.954982934194497e6 0.0
0.0 0.0 0.0

-4.602062219476566e6 1.462525708147221e7 0.0
1.462525708147221e7 -642346.6403028893 0.0
0.0 0.0 0.0

-3.808575663174007e6 1.7491709173772678e7 0.0
1.7491709173772678e7 -422886.65905742894 0.0
0.0 0.0 0.0

3.234245964024922e6 9.641255665979976e6 0.0
9.641255665979976e6 -1.7529662472541355e7 0.0
0.0 0.0 0.0

-4.1586810199156757e6 2.054366940577614e7 0.0
2.054366940577614e7 3.7199129385251906e6 0.0
0.0 0.0 0.0

-7.457648451337189e6 9.965045918296643e6 0.0
9.965045918296643e6 7.432569074239065e6 0.0
0.0 0.0 0.0

-3.0694213395375246e6 1.7697492686152037e7 0.0
1.7697492686152037e7 -4.21416388715382e6 0.0
0.0 0.0 0.0

-246525.97279002843 1.3117882280983036e7 0.0
1.3117882280983036e7 -1.8310910839355476e6 0.0
0.0 0.0 0.0

327199.41286766157 1.3665810307656387e7 0.0
1.3665810307656387e7 -1.1845485897672381e7 0.0
0.0 0.0 0.0

-1.030021592425799e6 1.402172271718015e7 0.0
1.402172271718015e7 -6.028499497625757e6 0.0
0.0 0.0 0.0

-5.831970987474659e6 1.7197325045507517e7 0.0
1.7197325045507517e7 6.878094346761503e6 0.0
0.0 0.0 0.0

-268373.2423127312 1.3791411213148244e7 0.0
1.3791411213148244e7 -7.423386540085312e6 0.0
0.0 0.0 0.0

-147886.80478699552 1.1164271788620595e7 0.0
1.1164271788620595e7 -7.280667865036331e6 0.0
0.0 0.0 0.0

776689.0605509318 1.3057621510869557e7 0.0
1.3057621510869557e7 -1.3654406692215033e7 0.0
0.0 0.0 0.0

-621476.3546117718 9.421380207098251e6 0.0
9.421380207098251e6 -5.15899876684454e6 0.0
0.0 0.0 0.0

-4.751033457624475e6 1.6210577204540115e7 0.0
1.6210577204540115e7 1.9114363064023368e6 0.0
0.0 0.0 0.0

-3.5255173380025905e6 1.71518043336061e7 0.0
1.71518043336061e7 -1.2758107200297478e6 0.0
0.0 0.0 0.0

359823.4058262465 4.8832589955128e6 0.0
4.8832589955128e6 -1.9854551571534795e6 0.0
0.0 0.0 0.0

837190.4186728289 8.612120426585427e6 0.0
8.612120426585427e6 -7.823635019197747e6 0.0
0.0 0.0 0.0

-3.5355253708891887e6 1.81900489877316e7 0.0
1.81900489877316e7 885957.8256927114 0.0
0.0 0.0 0.0

-5.590944806461345e6 1.4569239430148317e7 0.0
1.4569239430148317e7 3.4951536436179634e6 0.0
0.0 0.0 0.0

-5.802864756301007e7 4.1029165650756583e6 0.0
4.1029165650756583e6 7.211718000198316e6 0.0
0.0 0.0 0.0

1.6489040671266178e6 1.2041534353861e7 0.0
1.2041534353861e7 -1.4957681787347779e7 0.0
0.0 0.0 0.0

-6.253938982607025e6 1.3740497312783435e7 0.0
1.3740497312783435e7 5.106138530793979e6 0.0
0.0 0.0 0.0

-2.6141491289674705e6 1.5957044011859398e7 0.0
1.5957044011859398e7 -1.671609349351372e6 0.0
0.0 0.0 0.0

-6.203295078528896e6 1.4568390997118022e7 0.0
1.4568390997118022e7 5.243675588388242e6 0.0
0.0 0.0 0.0

-893698.4488683192 1.5296092116278393e7 0.0
1.5296092116278393e7 -78699.97823760548 0.0
0.0 0.0 0.0

-946598.8185916677 1.4709492214805141e7 0.0
1.4709492214805141e7 -6.334945356296684e6 0.0
0.0 0.0 0.0

-6.960777281261967e6 1.0699623453055639e7 0.0
1.0699623453055639e7 6.42272960491799e6 0.0
0.0 0.0 0.0

-1.1190037660986822e7 2.506267288970213e6 0.0
2.506267288970213e6 1.6798847061454676e7 0.0
0.0 0.0 0.0

-307036.5688416334 9.859064194315745e6 0.0
9.859064194315745e6 -4.303258689200967e6 0.0
0.0 0.0 0.0

2.812768924515613e6 5.858259737128317e6 0.0
5.858259737128317e6 -8.38915676682182e6 0.0
0.0 0.0 0.0

-1.5302201245495996e6 1.220875464628306e7 0.0
1.220875464628306e7 -4.875739041191345e6 0.0
0.0 0.0 0.0

-1.4660744064686047e6 1.5142190911560271e7 0.0
1.5142190911560271e7 -7.016497157941788e6 0.0
0.0 0.0 0.0

-5.557329320796829e6 1.3779786577490462e7 0.0
1.3779786577490462e7 3.2538773699899227e6 0.0
0.0 0.0 0.0

-2.0077680278161177e6 1.1173061133909872e7 0.0
1.1173061133909872e7 -3.4367618041178854e6 0.0
0.0 0.0 0.0

-2.451459402498436e6 2.8745177824286437e6 0.0
2.8745177824286437e6 3.0923829572018003e6 0.0
0.0 0.0 0.0

2.5128120288735116e6 5.741540695426011e6 0.0
5.741540695426011e6 -9.383834107883323e6 0.0
0.0 0.0 0.0

-1.1712276121241108e7 2.3162522977212467e6 0.0
2.3162522977212467e6 2.2012159528801575e7 0.0
0.0 0.0 0.0

-9.14674625855491e6 1.1723736427861876e6 0.0
1.1723736427861876e6 1.083234740344922e7 0.0
0.0 0.0 0.0

-5.688797752041959e6 1.5201148277882036e7 0.0
1.5201148277882036e7 1.2567674870328203e7 0.0
0.0 0.0 0.0

-1.621194103860435e6 1.4092583701465003e7 0.0
1.4092583701465003e7 -5.588066933008915e6 0.0
0.0 0.0 0.0

735383.327090356 8.17534374403346e6 0.0
8.17534374403346e6 -7.462607265321681e6 0.0
0.0 0.0 0.0

-1.1587684080521246e7 2.1766301540337554e6 0.0
2.1766301540337554e6 2.360761208775544e7 0.0
0.0 0.0 0.0

-2.4414744837821946e6 1.6132629041975724e7 0.0
1.6132629041975724e7 -2.151905180994994e6 0.0
0.0 0.0 0.0

-3.0290204214829695e6 1.0137705441571817e7 0.0
1.0137705441571817e7 -922245.4874347989 0.0
0.0 0.0 0.0

-591029.2032365185 7.925086453635088e6 0.0
7.925086453635088e6 -2.14750319572919e6 0.0
0.0 0.0 0.0

-1.1006549732296094e6 1.011151642832463e7 0.0
1.011151642832463e7 -4.68223863037736e6 0.0
0.0 0.0 0.0

-150163.75690172892 1.2682910503297819e7 0.0
1.2682910503297819e7 -1.65652143412805e7 0.0
0.0 0.0 0.0

-5.14084256682295e6 1.4629902422451645e7 0.0
1.4629902422451645e7 4.9836477088344395e6 0.0
0.0 0.0 0.0

27806.882007801905 1.428651698285255e7 0.0
1.428651698285255e7 -9.506709017389748e6 0.0
0.0 0.0 0.0

-6.580526051935071e6 1.329699974988849e7 0.0
1.329699974988849e7 3.47517279701931e7 0.0
0.0 0.0 0.0

-741276.7784922621 1.5612534839084905e7 0.0
1.5612534839084905e7 7.753083128662719e6 0.0
0.0 0.0 0.0

-8.992988319973975e6 8.304159064546534e6 0.0
8.304159064546534e6 1.0240405994960938e7 0.0
0.0 0.0 0.0

2.8557240509722196e6 1.0006394671860667e7 0.0
1.0006394671860667e7 -1.4757141380621841e7 0.0
0.0 0.0 0.0

-1.4878980647319052e6 1.1641638703412808e7 0.0
1.1641638703412808e7 -2.7151774881631923e6 0.0
0.0 0.0 0.0

-1.2209559450769252e6 1.5930855518288359e7 0.0
1.5930855518288359e7 -7.242079208749016e6 0.0
0.0 0.0 0.0

-4.736219047842475e6 1.8118654757489204e7 0.0
1.8118654757489204e7 4.3364837517321315e6 0.0
0.0 0.0 0.0

-3.279219765707645e6 1.678095929649423e7 0.0
1.678095929649423e7 -1.966795363092089e6 0.0
0.0 0.0 0.0

298754.86287312023 1.394095971618077e7 0.0
1.394095971618077e7 -1.1121506171090245e7 0.0
0.0 0.0 0.0

-1.1302011253804958e6 1.0937056371815193e7 0.0
1.0937056371815193e7 -3.092158530528756e6 0.0
0.0 0.0 0.0

-5.8746361498872675e6 1.495847949838185e7 0.0
1.495847949838185e7 4.453725168691043e6 0.0
0.0 0.0 0.0

-9.293868437319528e6 3.8594401272669174e6 0.0
3.8594401272669174e6 9.675378815206807e6 0.0
0.0 0.0 0.0

2.8916914499791963e6 5.70573691911235e6 0.0
5.70573691911235e6 -1.0407390351222971e7 0.0
0.0 0.0 0.0

-1.1784782068598967e6 1.233333860151547e7 0.0
1.233333860151547e7 -3.714026085442667e6 0.0
0.0 0.0 0.0

3.1997899609012413e6 8.081183820154403e6 0.0
8.081183820154403e6 -1.1557415585683512e7 0.0
0.0 0.0 0.0

-3.847802298327422e6 1.446754815914292e7 0.0
1.446754815914292e7 1.7079769893398301e6 0.0
0.0 0.0 0.0

9513.928970884881 7.64638689490024e6 0.0
7.64638689490024e6 -3.0069392656620946e6 0.0
0.0 0.0 0.0

-3.485099858547804e6 1.9159175291684642e7 0.0
1.9159175291684642e7 -466036.0780212323 0.0
0.0 0.0 0.0

-4.005849337981802e7 1.0238892943532036e6 0.0
1.0238892943532036e6 9.799499534505311e6 0.0
0.0 0.0 0.0

476179.9310550487 7.309002083417521e6 0.0
7.309002083417521e6 -3.7491782060283707e6 0.0
0.0 0.0 0.0

-129621.13940878492 1.2351849488518137e7 0.0
1.2351849488518137e7 -1.92005904586082e7 0.0
0.0 0.0 0.0

30680.977087188512 1.5056634455174431e7 0.0
1.5056634455174431e7 -7.656866733816156e6 0.0
0.0 0.0 0.0

1.0086817648466541e6 1.052196159371449e7 0.0
1.052196159371449e7 -7.666988941819289e6 0.0
0.0 0.0 0.0

816859.1620455519 1.3258009103855122e7 0.0
1.3258009103855122e7 -1.1869364680835962e7 0.0
0.0 0.0 0.0

931522.6052052695 7.003676385579707e6 0.0
7.003676385579707e6 -4.442163897153853e6 0.0
0.0 0.0 0.0

3.823221503933126e6 7.1957855520350505e6 0.0
7.1957855520350505e6 -1.2894947455982044e7 0.0
0.0 0.0 0.0

-4.036853045781565e6 1.7845873288545016e7 0.0
1.7845873288545016e7 343275.9818008996 0.0
0.0 0.0 0.0

972941.9335633435 5.683198979944417e6 0.0
5.683198979944417e6 -5.31964117141778e6 0.0
0.0 0.0 0.0

1.3421777458025152e6 8.588064068996714e6 0.0
8.588064068996714e6 -8.949329675942613e6 0.0
0.0 0.0 0.0

-3.5056656685464587e6 1.991772455135685e7 0.0
1.991772455135685e7 373265.8563651133 0.0
0.0 0.0 0.0

1.8599785272438165e6 1.3813488416730143e7 0.0
1.3813488416730143e7 -1.510425818378402e6 0.0
0.0 0.0 0.0

-1.524292467749221e6 1.689429092722786e7 0.0
1.689429092722786e7 -5.212409177146015e6 0.0
0.0 0.0 0.0

4.554859875393627e6 7.457063456858234e6 0.0
7.457063456858234e6 -2.9962630250075273e7 0.0
0.0 0.0 0.0

-1.1841786253933229e7 1.1785917555991389e7 0.0
1.1785917555991389e7 1.7400792552669287e7 0.0
0.0 0.0 0.0

-3.8617553352754842e6 1.7422115674960237e7 0.0
1.7422115674960237e7 1.6036897767319353e6 0.0
0.0 0.0 0.0

2.968009656425012e6 7.799440778945901e6 0.0
7.799440778945901e6 -1.0160096275939636e7 0.0
0.0 0.0 0.0

1.2856056130369147e6 6.614811255700709e6 0.0
6.614811255700709e6 -5.123174635944043e6 0.0
0.0 0.0 0.0

716096.7810414028 7.7612770161959315e6 0.0
7.7612770161959315e6 -7.079153270476361e6 0.0
0.0 0.0 0.0

-4.715115942171781e6 2.0225334983029347e7 0.0
2.0225334983029347e7 5.146316121951328e6 0.0
0.0 0.0 0.0

-7.264531738766968e6 628549.2917905849 0.0
628549.2917905849 9.891166965396069e6 0.0
0.0 0.0 0.0

-1.247903229865558e7 9.287580125828836e6 0.0
9.287580125828836e6 1.5881851361030772e7 0.0
0.0 0.0 0.0

-2.9716794968914054e6 1.6986548777657747e7 0.0
1.6986548777657747e7 -1.0230729277431001e6 0.0
0.0 0.0 0.0

1.1112341834268542e6 1.1614809160516037e7 0.0
1.1614809160516037e7 -9.443333633176103e6 0.0
0.0 0.0 0.0

-5.564538484410694e6 1.5256308573542869e7 0.0
1.5256308573542869e7 1.134315073485365e7 0.0
0.0 0.0 0.0

-2.348365137811606e6 1.1877064114202209e7 0.0
1.1877064114202209e7 -3.060668646451102e6 0.0
0.0 0.0 0.0

390963.71411572816 1.2105322243773032e7 0.0
1.2105322243773032e7 -7.52459861044601e6 0.0
0.0 0.0 0.0

1.0082515634061787e6 1.1904817558435136e7 0.0
1.1904817558435136e7 -1.734960635189993e7 0.0
0.0 0.0 0.0

-1.6615432870588938e6 1.7686547826312557e7 0.0
1.7686547826312557e7 -4.223443873936252e6 0.0
0.0 0.0 0.0

1.4931130542723425e6 1.0980257433828972e7 0.0
1.0980257433828972e7 -2.2830545144203994e7 0.0
0.0 0.0 0.0

-8.311206539078761e6 3.6410776183420494e6 0.0
3.6410776183420494e6 8.775171181634694e6 0.0
0.0 0.0 0.0

1.4441199683682155e6 1.714547665127247e7 0.0
1.714547665127247e7 1.5013681235310687e7 0.0
0.0 0.0 0.0

-5.167064322504865e6 1.964115345331669e7 0.0
1.964115345331669e7 5.233218255548602e6 0.0
0.0 0.0 0.0

-2.181790617795648e6 1.222624682853327e7 0.0
1.222624682853327e7 -3.552810373063226e6 0.0
0.0 0.0 0.0

426026.37170223985 1.5701213615939641e7 0.0
1.5701213615939641e7 -5.651130189371639e6 0.0
0.0 0.0 0.0

-2.626458731522898e6 1.6662617207626173e7 0.0
1.6662617207626173e7 -1.8079217119498877e6 0.0
0.0 0.0 0.0

-2.433254061418588e6 6.546487330270591e6 0.0
6.546487330270591e6 -380458.5247108477 0.0
0.0 0.0 0.0

212336.80174306314 1.4217149804013573e7 0.0
1.4217149804013573e7 -1.0417703232383855e7 0.0
0.0 0.0 0.0

2.0307353231319608e6 1.1158068390980072e7 0.0
1.1158068390980072e7 -1.2656310921327896e7 0.0
0.0 0.0 0.0

1.706296642403144e6 1.1517442589910317e7 0.0
1.1517442589910317e7 -1.1891586714974495e7 0.0
0.0 0.0 0.0

-585011.91849416 1.151708484337086e7 0.0
1.151708484337086e7 -6.501182758915905e6 0.0
0.0 0.0 0.0

4.725365164138624e6 1.7982868700856794e7 0.0
1.7982868700856794e7 -6.458014816738149e6 0.0
0.0 0.0 0.0

1.7768271608889932e6 9.080978254997825e6 0.0
9.080978254997825e6 -8.178165938289472e6 0.0
0.0 0.0 0.0

2.8525255439007687e6 5.379747441627622e6 0.0
5.379747441627622e6 -1.0088488600097591e7 0.0
0.0 0.0 0.0

2.315609769500114e6 1.0757937084007807e7 0.0
1.0757937084007807e7 -1.3342447598684534e7 0.0
0.0 0.0 0.0

4.484113461147821e6 6.388401548586516e6 0.0
6.388401548586516e6 -2.37181487832454e7 0.0
0.0 0.0 0.0

-3.337767147873153e6 5.906804460083117e6 0.0
5.906804460083117e6 1.0005409020914217e6 0.0
0.0 0.0 0.0

-5.028716600666232e6 1.5858540288600322e7 0.0
1.5858540288600322e7 2.364997260029895e6 0.0
0.0 0.0 0.0

4.559557436145215e6 5.458876824805723e6 0.0
5.458876824805723e6 -1.4986086109428206e7 0.0
0.0 0.0 0.0

2.122471339350521e6 6.151511526428833e6 0.0
6.151511526428833e6 -8.850294526803147e6 0.0
0.0 0.0 0.0

-241166.6437464233 1.1637350271500211e7 0.0
1.1637350271500211e7 -5.366191984859167e6 0.0
0.0 0.0 0.0

-1.1483845567112606e7 9.576299392479079e6 0.0
9.576299392479079e6 2.300477479664321e7 0.0
0.0 0.0 0.0

-6.356854746395024e6 1.610547716598364e7 0.0
1.610547716598364e7 9.429136990088684e6 0.0
0.0 0.0 0.0

-2.4106687938032798e6 7.268283466883891e6 0.0
7.268283466883891e6 -767833.0778856545 0.0
0.0 0.0 0.0

-8.920265861172978e6 1.3983305364795746e7 0.0
1.3983305364795746e7 1.2785324955959707e7 0.0
0.0 0.0 0.0

3.9757637033511866e6 6.249991148136692e6 0.0
6.249991148136692e6 -1.1717947241005853e7 0.0
0.0 0.0 0.0

2.5327723673848333e6 1.0388133172571925e7 0.0
1.0388133172571925e7 -1.4155665365387952e7 0.0
0.0 0.0 0.0

-1.1284545748665586e7 3.64949536467887e7 0.0
3.64949536467887e7 3.8634808759548008e6 0.0
0.0 0.0 0.0

-4.1746191750793443e6 9.211151624837607e6 0.0
9.211151624837607e6 1.3082393593887964e6 0.0
0.0 0.0 0.0

-7.051021967163276e6 3.2954265557479686e6 0.0
3.2954265557479686e6 7.240295735667625e6 0.0
0.0 0.0 0.0

-301199.062441478 1.38499347545783e7 0.0
1.38499347545783e7 -1.019106481980487e7 0.0
0.0 0.0 0.0

1.431455635843718e6 1.1892754238507112e7 0.0
1.1892754238507112e7 -1.1227076967916382e7 0.0
0.0 0.0 0.0

-1.5575609322649464e6 716484.4828510709 0.0
716484.4828510709 3.1638341135323467e6 0.0
0.0 0.0 0.0

-326629.9669373457 -66720.10848039582 0.0
-66720.10848039582 4.1654664939088384e6 0.0
0.0 0.0 0.0

-5.182455343576182e6 2.0370495012141243e7 0.0
2.0370495012141243e7 4.927917929946677e6 0.0
0.0 0.0 0.0

-5.894508044560521e6 1.3334420404661098e7 0.0
1.3334420404661098e7 4.0387904732973124e6 0.0
0.0 0.0 0.0

-4.713860062238899e6 2.0056725014731877e7 0.0
2.0056725014731877e7 3.6614549538330096e6 0.0
0.0 0.0 0.0

3.440133167504116e6 8.002977333930274e6 0.0
8.002977333930274e6 -1.2598637545612711e7 0.0
0.0 0.0 0.0

-5.575994985763925e6 1.5297889139982915e7 0.0
1.5297889139982915e7 3.7100554190773517e6 0.0
0.0 0.0 0.0

-1.0932198056544222e7 85324.51892865205 0.0
85324.51892865205 1.801418097473525e7 0.0
0.0 0.0 0.0

-4.771395908503092e7 2.23013061139026e6 0.0
2.23013061139026e6 9.451158555990156e6 0.0
0.0 0.0 0.0

-5.080466601814428e6 1.6514700877294827e7 0.0
1.6514700877294827e7 2.6534435908984905e6 0.0
0.0 0.0 0.0

-7.990824758130768e6 1.4493991178415023e7 0.0
1.4493991178415023e7 1.1865952250150722e7 0.0
0.0 0.0 0.0

-2.7103666264779195e6 1.7736728693821795e7 0.0
1.7736728693821795e7 -3.397696102461175e6 0.0
0.0 0.0 0.0

2.2042358739878037e6 5.837861466554665e6 0.0
5.837861466554665e6 -8.30990252967052e6 0.0
0.0 0.0 0.0

-5.314803342037009e6 1.046492573344669e7 0.0
1.046492573344669e7 3.0201381158942683e6 0.0
0.0 0.0 0.0

-5.238457743788991e6 1.785621151410163e7 0.0
1.785621151410163e7 -3.0660225572622353e6 0.0
0.0 0.0 0.0

-2.226149303990633e6 1.6935227939412978e7 0.0
1.6935227939412978e7 -3.7919181914516874e6 0.0
0.0 0.0 0.0

3.3775763782990566e6 6.66279863321134e6 0.0
6.66279863321134e6 -9.992897716385307e6 0.0
0.0 0.0 0.0

-7.383635351579013e6 1.50331166400741e7 0.0
1.50331166400741e7 1.10328957684675e7 0.0
0.0 0.0 0.0

-656560.7418512814 1.3361524562757142e7 0.0
1.3361524562757142e7 -5.663516846892815e6 0.0
0.0 0.0 0.0

4.889246877052536e6 5.318461553342002e6 0.0
5.318461553342002e6 -2.5462966874797817e7 0.0
0.0 0.0 0.0

-1.1382894852119036e7 -2.5004137922172025e6 0.0
-2.5004137922172025e6 2.696538126793939e7 0.0
0.0 0.0 0.0

2.602449087526187e6 8.231341146354458e6 0.0
8.231341146354458e6 -9.50150900082094e6 0.0
0.0 0.0 0.0

4.603868987812432e6 6.703332813752249e6 0.0
6.703332813752249e6 -1.7383638657109383e7 0.0
0.0 0.0 0.0

566409.0069077392 1.3292262993349796e7 0.0
1.3292262993349796e7 -6.588206997488557e6 0.0
0.0 0.0 0.0

2.7921395255146585e6 9.585351508204276e6 0.0
9.585351508204276e6 -2.2279425516105596e7 0.0
0.0 0.0 0.0

-3.2096242145629614e6 2.1122866386626724e7 0.0
2.1122866386626724e7 139787.76398077165 0.0
0.0 0.0 0.0

-9.04050653992442e6 1.3323413087130921e7 0.0
1.3323413087130921e7 2.051228765059895e7 0.0
0.0 0.0 0.0

-1.1352693315352058e7 -2.9772797400073614e6 0.0
-2.9772797400073614e6 2.4349936329993226e7 0.0
0.0 0.0 0.0

-945705.4251114173 1.392669233411616e7 0.0
1.392669233411616e7 -5.340201057993589e6 0.0
0.0 0.0 0.0

4.1899684057921367e6 7.167227616438282e6 0.0
7.167227616438282e6 -2.069865941692911e7 0.0
0.0 0.0 0.0

-3.0075969848038694e6 1.3720916090129286e7 0.0
1.3720916090129286e7 -205258.908374405 0.0
0.0 0.0 0.0

-4.971218423518516e6 1.5208069967167737e7 0.0
1.5208069967167737e7 2.104889342476416e6 0.0
0.0 0.0 0.0

-9.909970138189264e6 2.631438566684839e6 0.0
2.631438566684839e6 1.3640080134916048e7 0.0
0.0 0.0 0.0

-1.4731963154038053e6 1.794505895459619e7 0.0
1.794505895459619e7 -4.1480966729759257e6 0.0
0.0 0.0 0.0

975778.5706588991 1.3405532224061184e7 0.0
1.3405532224061184e7 -4.495932897040984e6 0.0
0.0 0.0 0.0

-3.1920006731414776e6 1.7362593825787887e7 0.0
1.7362593825787887e7 -239433.43479956698 0.0
0.0 0.0 0.0

5.507326941759966e6 4.130490602541357e6 0.0
4.130490602541357e6 -2.4026794020041104e7 0.0
0.0 0.0 0.0

-5.289373790796892e6 1.560670218652381e7 0.0
1.560670218652381e7 2.978523871558492e6 0.0
0.0 0.0 0.0

1.0394290709927324e6 1.0800933958560241e7 0.0
1.0800933958560241e7 -8.112146889561102e6 0.0
0.0 0.0 0.0

-2.1801900523922713e6 8.492857257754669e6 0.0
8.492857257754669e6 -1.7046528959369902e6 0.0
0.0 0.0 0.0

-646084.891644699 1.060598557723461e7 0.0
1.060598557723461e7 -3.9349427021552194e6 0.0
0.0 0.0 0.0

-2.551339694370074e6 4.905693996192538e6 0.0
4.905693996192538e6 455951.3695005309 0.0
0.0 0.0 0.0

1.0447805913638119e6 1.2991370758539446e7 0.0
1.2991370758539446e7 -5.02982800932503e6 0.0
0.0 0.0 0.0

-1.19156390125424e7 3.6500636899924567e6 0.0
3.6500636899924567e6 2.0911091224573724e7 0.0
0.0 0.0 0.0

341066.23699286394 1.1859906542195225e7 0.0
1.1859906542195225e7 -7.078520495530196e6 0.0
0.0 0.0 0.0

-1.1736723026615141e6 5.500790248106832e6 0.0
5.500790248106832e6 -1.7540058683797051e6 0.0
0.0 0.0 0.0

-5.339442504975859e6 2.0769412145993423e7 0.0
2.0769412145993423e7 5.111199833806338e6 0.0
0.0 0.0 0.0

-2.1087385742854243e6 1.657662735155557e7 0.0
1.657662735155557e7 -3.331747760700657e6 0.0
0.0 0.0 0.0

1.4149302457034532e6 1.2377612481727842e7 0.0
1.2377612481727842e7 -1.3293205939897154e7 0.0
0.0 0.0 0.0

2.197895129830644e6 8.652130010278469e6 0.0
8.652130010278469e6 -8.861669829336707e6 0.0
0.0 0.0 0.0

-4.448960682114336e6 1.6856120833240505e7 0.0
1.6856120833240505e7 3.1722625977819455e6 0.0
0.0 0.0 0.0

-9.160323211307846e6 1.4042252601590386e7 0.0
1.4042252601590386e7 1.3697101565862022e7 0.0
0.0 0.0 0.0

-2.3763296900200564e6 1.5331467513146874e7 0.0
1.5331467513146874e7 1.0485257089256302e7 0.0
0.0 0.0 0.0

3.990488072605716e6 7.32438002130348e6 0.0
7.32438002130348e6 -2.2023144841731608e7 0.0
0.0 0.0 0.0

-5.167258466033855e6 1.535296955489156e7 0.0
1.535296955489156e7 5.06461551880681e6 0.0
0.0 0.0 0.0

-4.6538507444362985e6 1.6002516177868914e7 0.0
1.6002516177868914e7 3.57875426635371e6 0.0
0.0 0.0 0.0

-8.410417985913586e6 6.702587367413244e6 0.0
6.702587367413244e6 8.827129377707131e6 0.0
0.0 0.0 0.0

-3.0696990989307268e6 2.1536599021709055e7 0.0
2.1536599021709055e7 68607.65978164936 0.0
0.0 0.0 0.0

531215.443588451 1.0607192087657295e7 0.0
1.0607192087657295e7 -6.439878490686269e6 0.0
0.0 0.0 0.0

-9.407872250218224e6 1.1583772425435685e7 0.0
1.1583772425435685e7 1.1711330390653972e7 0.0
0.0 0.0 0.0

2.183967786200757e6 8.27640306632808e6 0.0
8.27640306632808e6 -8.464387615788953e6 0.0
0.0 0.0 0.0

-1.4109591245217198e6 6.982573739941569e6 0.0
6.982573739941569e6 -346427.23788554984 0.0
0.0 0.0 0.0

-4.235832624252424e6 1.7042805491146572e7 0.0
1.7042805491146572e7 2.578154691119841e6 0.0
0.0 0.0 0.0

-4.299449380098857e6 1.7597523754162308e7 0.0
1.7597523754162308e7 2.782208285496998e6 0.0
0.0 0.0 0.0

285947.8708086279 1.1591522419079715e7 0.0
1.1591522419079715e7 -6.616188742316185e6 0.0
0.0 0.0 0.0

1.2020417926167187e6 1.4175892455299683e7 0.0
1.4175892455299683e7 -5.365745554461216e6 0.0
0.0 0.0 0.0

3.038210371754613e6 1.8826188566578414e7 0.0
1.8826188566578414e7 -5.802164374495688e6 0.0
0.0 0.0 0.0

-4.405340588188348e6 1.6516676985881865e7 0.0
1.6516676985881865e7 5.095346260735107e6 0.0
0.0 0.0 0.0

-3.4681816971235587e6 1.3182069476993656e7 0.0
1.3182069476993656e7 -1.947261496308668e7 0.0
0.0 0.0 0.0

1.2683014618630074e6 9.133680654051928e6 0.0
9.133680654051928e6 -7.011358912649728e6 0.0
0.0 0.0 0.0

-1.040918869328029e7 498971.27351522626 0.0
498971.27351522626 1.6528527057998285e7 0.0
0.0 0.0 0.0

-925896.0111000942 1.5510705343414847e7 0.0
1.5510705343414847e7 -1.2283772771182156e6 0.0
0.0 0.0 0.0

-2.70365343793655e6 1.5830471222374352e7 0.0
1.5830471222374352e7 -675195.144610527 0.0
0.0 0.0 0.0

-4.90156482306817e6 1.5660091218404964e7 0.0
1.5660091218404964e7 4.263708653423431e6 0.0
0.0 0.0 0.0

-1.0302740495524598e7 -1.4449890386781644e6 0.0
-1.4449890386781644e6 1.8164764334747575e7 0.0
0.0 0.0 0.0

-5.661091970993671e6 2.116414307945947e7 0.0
2.116414307945947e7 5.357948259584779e6 0.0
0.0 0.0 0.0

-4.795595575516989e6 1.6727991883023e7 0.0
1.6727991883023e7 2.0394677873441412e6 0.0
0.0 0.0 0.0

1.3181365750191773e6 1.2788081767585896e7 0.0
1.2788081767585896e7 -1.099835075925356e6 0.0
0.0 0.0 0.0

1.0747060575228704e6 1.2859078389490625e7 0.0
1.2859078389490625e7 3.5823537447662414e6 0.0
0.0 0.0 0.0

-5.44367881928627e6 1.498425808456821e7 0.0
1.498425808456821e7 5.887501677386835e6 0.0
0.0 0.0 0.0

-7.414551014335543e6 1.346090047476319e7 0.0
1.346090047476319e7 8.520466283120168e6 0.0
0.0 0.0 0.0

3.2877100528271967e6 6.257911779530646e6 0.0
6.257911779530646e6 -9.614182776763687e6 0.0
0.0 0.0 0.0

-3.0489376916216235e6 1.7511324165754203e7 0.0
1.7511324165754203e7 -718102.941780718 0.0
0.0 0.0 0.0

-8.747119066910196e6 9.666263857628375e6 0.0
9.666263857628375e6 1.3034052383653453e7 0.0
0.0 0.0 0.0

4.169860116301734e6 5.295113406969958e6 0.0
5.295113406969958e6 -1.3996102137336409e7 0.0
0.0 0.0 0.0

-3.130846200144437e6 1.6292312130201641e7 0.0
1.6292312130201641e7 -2.380343572486043e6 0.0
0.0 0.0 0.0

-4.5686309948473275e6 1.5316649778380001e7 0.0
1.5316649778380001e7 3.4384726587409694e6 0.0
0.0 0.0 0.0

-600724.1306234424 5.238046718037249e6 0.0
5.238046718037249e6 -2.5395316661215634e6 0.0
0.0 0.0 0.0

1.891432005824373e6 9.182456726899296e6 0.0
9.182456726899296e6 -1.0765071006135017e7 0.0
0.0 0.0 0.0

-7.905528305032937e6 3.2435953555144295e7 0.0
3.2435953555144295e7 2.799139023711066e6 0.0
0.0 0.0 0.0

4.476890852093259e6 7.15098301863709e6 0.0
7.15098301863709e6 -3.518293295385186e7 0.0
0.0 0.0 0.0

4.306803661977971e6 5.87880381353052e6 0.0
5.87880381353052e6 -1.581583175995721e7 0.0
0.0 0.0 0.0

2.3495212914682636e6 1.0118726603179533e7 0.0
1.0118726603179533e7 -1.178001877565635e7 0.0
0.0 0.0 0.0

-3.4149092914258465e6 1.6145868832734117e7 0.0
1.6145868832734117e7 3.3672630351686906e6 0.0
0.0 0.0 0.0

1.6067000538484622e6 1.1552599281696726e7 0.0
1.1552599281696726e7 -1.5843776338678662e7 0.0
0.0 0.0 0.0

1.2019763384029851e6 8.739142742948867e6 0.0
8.739142742948867e6 -6.641460300077837e6 0.0
0.0 0.0 0.0

-1.582725003447345e6 8.231023209632636e6 0.0
8.231023209632636e6 -2.6117350852754097e6 0.0
0.0 0.0 0.0

314543.49443878746 1.4591957487724619e7 0.0
1.4591957487724619e7 7.450548109159794e6 0.0
0.0 0.0 0.0

-9.120417051519524e6 1.3544661093396854e7 0.0
1.3544661093396854e7 1.9158169659135047e7 0.0
0.0 0.0 0.0

3.5162737132452237e6 1.176963198006545e7 0.0
1.176963198006545e7 6.4272115307613e6 0.0
0.0 0.0 0.0

-5.671230154586495e6 2.2629526356111847e7 0.0
2.2629526356111847e7 4.624738266872042e6 0.0
0.0 0.0 0.0

-1.0569387451012696e6 1.1860356330260925e7 0.0
1.1860356330260925e7 -5.701784865974118e6 0.0
0.0 0.0 0.0

-1.7742914717984427e7 1.6755551156171624e7 0.0
1.6755551156171624e7 3.1240034027447803e6 0.0
0.0 0.0 0.0

-350904.6305403337 1.2812301780133734e7 0.0
1.2812301780133734e7 -5.994447519237059e6 0.0
0.0 0.0 0.0

-4.427352073779952e6 1.5623031610901562e7 0.0
1.5623031610901562e7 2.7330090687244167e6 0.0
0.0 0.0 0.0

-38479.79288286972 1.061967923544744e7 0.0
1.061967923544744e7 -5.182193700096685e6 0.0
0.0 0.0 0.0

622395.6834859978 1.2334706287182765e7 0.0
1.2334706287182765e7 -1.6088705647891335e7 0.0
0.0 0.0 0.0

3.9308032442061296e6 5.7187672415406415e6 0.0
5.7187672415406415e6 -1.3435844567211593e7 0.0
0.0 0.0 0.0

3.559162344202862e6 8.957239182831202e6 0.0
8.957239182831202e6 -2.0248808813752297e7 0.0
0.0 0.0 0.0

-3.413587431370051e6 1.5280439729116494e7 0.0
1.5280439729116494e7 9.236865520927114e6 0.0
0.0 0.0 0.0

4.1548464877858665e6 6.969733825495393e6 0.0
6.969733825495393e6 -1.4837434213732414e7 0.0
0.0 0.0 0.0

-2.942717484862919e6 1.6411563145095088e7 0.0
1.6411563145095088e7 -2.7731922081550546e6 0.0
0.0 0.0 0.0

-1.2326752327169068e6 1.4501231410701128e7 0.0
1.4501231410701128e7 -7.152806137110539e6 0.0
0.0 0.0 0.0

-1.6104521199590294e6 1.0443327185498817e7 0.0
1.0443327185498817e7 -3.8453220408640355e6 0.0
0.0 0.0 0.0

-4.0194687530762707e6 1.1259594986571137e7 0.0
1.1259594986571137e7 486598.889305684 0.0
0.0 0.0 0.0

-9.517825615130257e6 1.1990027075987402e7 0.0
1.1990027075987402e7 1.2286228935470458e7 0.0
0.0 0.0 0.0

2.9017946223672666e6 8.482396725694323e6 0.0
8.482396725694323e6 -1.0926063869544351e7 0.0
0.0 0.0 0.0

-7.048923103607001e6 2.391921758943043e7 0.0
2.391921758943043e7 4.903404922996871e6 0.0
0.0 0.0 0.0

-6.1523366889758995e6 2.145247035334841e7 0.0
2.145247035334841e7 5.733693228916066e6 0.0
0.0 0.0 0.0

-9.953120409604194e6 1.279604152869516e7 0.0
1.279604152869516e7 1.3192868988276763e7 0.0
0.0 0.0 0.0

-1.2701964500741404e6 1.0377953517989969e7 0.0
1.0377953517989969e7 -4.2339881244668225e6 0.0
0.0 0.0 0.0

1.1304390625551855e6 1.2251074365025537e7 0.0
1.2251074365025537e7 -1.046914578651075e7 0.0
0.0 0.0 0.0

4.0599080138000585e6 6.850170836428622e6 0.0
6.850170836428622e6 -1.3602453355569353e7 0.0
0.0 0.0 0.0

-4.986537829592512e6 1.7470884275468517e7 0.0
1.7470884275468517e7 7.592575665151791e6 0.0
0.0 0.0 0.0

-1.136118974141306e7 4.667613564713325e6 0.0
4.667613564713325e6 1.3119839577764412e7 0.0
0.0 0.0 0.0

-1.4033803818584033e6 1.9276599633176606e7 0.0
1.9276599633176606e7 -2.7753167774217753e6 0.0
0.0 0.0 0.0

-1.1092817094179831e7 -701570.1869602674 0.0
-701570.1869602674 3.483726854224232e7 0.0
0.0 0.0 0.0

-2.040115921195895e6 1.448341421353336e7 0.0
1.448341421353336e7 -4.764115236389439e6 0.0
0.0 0.0 0.0

-7.581271493822052e6 -5.595619683531384e6 0.0
-5.595619683531384e6 1.3821239173787002e7 0.0
0.0 0.0 0.0

-3.1201095865105675e6 3.993221617039302e6 0.0
3.993221617039302e6 3.4145677067063157e6 0.0
0.0 0.0 0.0

3.2092056942340923e6 5.794403753034816e6 0.0
5.794403753034816e6 -9.395973539189285e6 0.0
0.0 0.0 0.0

-1.2289160739750795e7 9.399255460544491e6 0.0
9.399255460544491e6 2.035303270519322e7 0.0
0.0 0.0 0.0

3.473020048656082e6 9.207158953153448e6 0.0
9.207158953153448e6 -1.726843594956024e7 0.0
0.0 0.0 0.0

-2.797306254220368e6 1.6499496607860817e7 0.0
1.6499496607860817e7 -1.3175461433924455e6 0.0
0.0 0.0 0.0

-4.727552940221433e6 1.6611308041383376e7 0.0
1.6611308041383376e7 3.808242742585639e6 0.0
0.0 0.0 0.0

-1.8146837532919983e6 1.2337978148465754e7 0.0
1.2337978148465754e7 -2.351869975380803e6 0.0
0.0 0.0 0.0

-5.1680080939799575e6 1.70443912542951e7 0.0
1.70443912542951e7 5.436502712668419e6 0.0
0.0 0.0 0.0

1.491241209390873e6 5.768642603047709e6 0.0
5.768642603047709e6 -6.513549803869452e6 0.0
0.0 0.0 0.0

-2.9600599456372554e6 1.4166641272196285e7 0.0
1.4166641272196285e7 -2.461567263768744e6 0.0
0.0 0.0 0.0

1.6841246528467098e6 1.9337250510924585e7 0.0
1.9337250510924585e7 -4.874337360387184e6 0.0
0.0 0.0 0.0

1.0591582324160165e6 8.229797412864727e6 0.0
8.229797412864727e6 -6.398405328085377e6 0.0
0.0 0.0 0.0

-134973.59235747135 1.1939145351151727e7 0.0
1.1939145351151727e7 -5.847367800362784e6 0.0
0.0 0.0 0.0

-1.8265086571325124e6 1.647309312300619e7 0.0
1.647309312300619e7 -3.091154748072916e6 0.0
0.0 0.0 0.0

-1.9726230101741191e6 1.1980781429677885e7 0.0
1.1980781429677885e7 -1.8325197037482362e6 0.0
0.0 0.0 0.0

4.350488292769194e6 1.589151042622871e7 0.0
1.589151042622871e7 -4.927085144795096e6 0.0
0.0 0.0 0.0

-44658.73833646416 4.899168827148824e6 0.0
4.899168827148824e6 -3.3461969397295467e6 0.0
0.0 0.0 0.0

4.700480206127162e6 5.391553771408426e6 0.0
5.391553771408426e6 -1.845291156043461e7 0.0
0.0 0.0 0.0

-171184.43076511065 4.479215986899647e6 0.0
4.479215986899647e6 -791663.4747443958 0.0
0.0 0.0 0.0

-977826.1150866573 7.943957836511467e6 0.0
7.943957836511467e6 -3.445471577085615e6 0.0
0.0 0.0 0.0

-1.9966774274221242e6 1.255574931122848e7 0.0
1.255574931122848e7 -4.0425948281606315e6 0.0
0.0 0.0 0.0

-3.0699980420310395e6 4.6723781195644075e6 0.0
4.6723781195644075e6 3.077103013453655e6 0.0
0.0 0.0 0.0

2.4961990071886824e6 6.288936549638049e6 0.0
6.288936549638049e6 -7.653262398819314e6 0.0
0.0 0.0 0.0

133704.76223901985 1.4554346377330052e7 0.0
1.4554346377330052e7 -9.6846740519178e6 0.0
0.0 0.0 0.0

-380741.05976208474 7.662333245738189e6 0.0
7.662333245738189e6 -4.3126526179019315e6 0.0
0.0 0.0 0.0

-7.172500179268693e6 2.9813142777829885e7 0.0
2.9813142777829885e7 2.4711721663402235e6 0.0
0.0 0.0 0.0

3.1138951400939957e6 1.539054972121217e7 0.0
1.539054972121217e7 6.164954181940237e6 0.0
0.0 0.0 0.0

119957.15248885611 7.319163921209694e6 0.0
7.319163921209694e6 -4.939357294361321e6 0.0
0.0 0.0 0.0

-5.903552431036154e6 1.0252744880059466e7 0.0
1.0252744880059466e7 7.138844310722287e6 0.0
0.0 0.0 0.0

2.0877712355110603e6 4.950881067176842e6 0.0
4.950881067176842e6 -6.405116944649669e6 0.0
0.0 0.0 0.0

-1.195696060861466e7 3.8359406742867045e6 0.0
3.8359406742867045e6 1.9538558727902815e7 0.0
0.0 0.0 0.0

567266.392610519 6.935815087568067e6 0.0
6.935815087568067e6 -5.636715774038639e6 0.0
0.0 0.0 0.0

-8.234716645687131e6 2.410705122542425e7 0.0
2.410705122542425e7 6.693671096271312e6 0.0
0.0 0.0 0.0

-913091.0619791456 1.9457391322400197e7 0.0
1.9457391322400197e7 -3.022975117576075e6 0.0
0.0 0.0 0.0

4.340905196134732e6 6.402225106664115e6 0.0
6.402225106664115e6 -1.4154247560961738e7 0.0
0.0 0.0 0.0

-1.4956451785335045e6 1.4834873326444909e7 0.0
1.4834873326444909e7 -6.303450305350118e6 0.0
0.0 0.0 0.0

4.112441348495826e6 6.970389135651759e6 0.0
6.970389135651759e6 -1.8981910078466643e7 0.0
0.0 0.0 0.0

-2.473101194469312e6 1.2894842111908324e7 0.0
1.2894842111908324e7 -3.191814124346684e6 0.0
0.0 0.0 0.0

-1.6688338423282458e6 1.4076296240994552e7 0.0
1.4076296240994552e7 7.449628383952506e6 0.0
0.0 0.0 0.0

618457.4461893279 1.9549270974109985e7 0.0
1.9549270974109985e7 -4.0600394949124116e6 0.0
0.0 0.0 0.0

1.0899071685178138e6 7.945625263455315e6 0.0
7.945625263455315e6 -5.904799605693959e6 0.0
0.0 0.0 0.0

2.5710394009792455e6 7.45605286608194e6 0.0
7.45605286608194e6 -8.743976832507238e6 0.0
0.0 0.0 0.0

-229410.480736161 9.452838888661064e6 0.0
9.452838888661064e6 -3.8567837974199126e6 0.0
0.0 0.0 0.0

-7.0078625799812e6 2.171144900656868e7 0.0
2.171144900656868e7 6.058093750170734e6 0.0
0.0 0.0 0.0

-3.406776671084765e6 1.094922326561441e7 0.0
1.094922326561441e7 -539084.4688445709 0.0
0.0 0.0 0.0

-874705.3991899053 2.217592312273031e7 0.0
2.217592312273031e7 -1.6249574353697083e6 0.0
0.0 0.0 0.0

-1.6369459393857187e6 1.2670982540738022e7 0.0
1.2670982540738022e7 -2.86738753278708e6 0.0
0.0 0.0 0.0

1.4487662601176193e6 1.4755581430044979e7 0.0
1.4755581430044979e7 9.114994532082988e6 0.0
0.0 0.0 0.0

-1.6062934078690314e6 1.6150411999592926e7 0.0
1.6150411999592926e7 -2.19626631844887e6 0.0
0.0 0.0 0.0

-3.4873948624484716e6 1.7695747139719613e7 0.0
1.7695747139719613e7 574073.6172435824 0.0
0.0 0.0 0.0

85401.10505840043 1.3852684328834195e7 0.0
1.3852684328834195e7 -9.792853632057715e6 0.0
0.0 0.0 0.0

1.452711812118222e6 1.0976449865568722e7 0.0
1.0976449865568722e7 -2.168176862389767e7 0.0
0.0 0.0 0.0

-1.0844398630861625e7 1.2667010640926568e7 0.0
1.2667010640926568e7 1.863812756020375e7 0.0
0.0 0.0 0.0

979686.2669793726 9.384435535627963e6 0.0
9.384435535627963e6 -8.655262747173136e6 0.0
0.0 0.0 0.0

-1.1913877316613603e7 4.0233644088598257e6 0.0
4.0233644088598257e6 1.79772599447465e7 0.0
0.0 0.0 0.0

2.9580345110215032e6 9.981932661646884e6 0.0
9.981932661646884e6 -1.5802374326304883e7 0.0
0.0 0.0 0.0

-1.1814192719737438e6 9.689945421765672e6 0.0
9.689945421765672e6 -4.207393722865633e6 0.0
0.0 0.0 0.0

3.131174647705057e6 4.880488343571185e6 0.0
4.880488343571185e6 -9.486529392671213e6 0.0
0.0 0.0 0.0

-4.0492738262265986e6 1.362201750551439e7 0.0
1.362201750551439e7 19145.609894612106 0.0
0.0 0.0 0.0

-4.846214924749096e6 1.7256151160416797e7 0.0
1.7256151160416797e7 2.2450684460457177e6 0.0
0.0 0.0 0.0

-3.1969039606115795e6 1.9901325843600884e7 0.0
1.9901325843600884e7 -651457.3025134867 0.0
0.0 0.0 0.0

-2.724049647986413e6 1.3536307144691413e7 0.0
1.3536307144691413e7 -2.820410509835773e6 0.0
0.0 0.0 0.0

2.5010016422388684e6 5.889307905681961e6 0.0
5.889307905681961e6 -7.280168630620652e6 0.0
0.0 0.0 0.0

-248817.17380229698 1.956306582870869e7 0.0
1.956306582870869e7 -3.490861221270799e6 0.0
0.0 0.0 0.0

-1.0279043480732799e7 5.619490161651628e6 0.0
5.619490161651628e6 1.4494712515004605e7 0.0
0.0 0.0 0.0

4.243923068461e6 6.900797766488374e6 0.0
6.900797766488374e6 -2.2871506713505074e7 0.0
0.0 0.0 0.0

-1.4290426922553382e6 1.544079693216456e7 0.0
1.544079693216456e7 8.482977269807247e6 0.0
0.0 0.0 0.0

-5.021329223751583e6 1.9147142442077704e7 0.0
1.9147142442077704e7 4.327795364840674e6 0.0
0.0 0.0 0.0

-1.377800970463282e6 1.3469591898324719e7 0.0
1.3469591898324719e7 -6.638125376936339e6 0.0
0.0 0.0 0.0

-9.184493975032788e6 1.3811813635519326e7 0.0
1.3811813635519326e7 1.811005802482794e7 0.0
0.0 0.0 0.0

-2.0817495588480735e6 1.3683680364109479e7 0.0
1.3683680364109479e7 -6.939164853789149e6 0.0
0.0 0.0 0.0

51917.80663218768 1.0137298603141684e7 0.0
1.0137298603141684e7 -7.138559641175498e6 0.0
0.0 0.0 0.0

-661178.823643072 1.4693006991700271e7 0.0
1.4693006991700271e7 7.157765996170091e6 0.0
0.0 0.0 0.0

-6.298574730789366e6 2.8098043939219423e7 0.0
2.8098043939219423e7 2.6118567314760243e6 0.0
0.0 0.0 0.0

-1.1515205416138633e6 1.6347736310206737e7 0.0
1.6347736310206737e7 -4.48565287539447e6 0.0
0.0 0.0 0.0

2.9189746556758072e7 1.3356219981247986e7 0.0
1.3356219981247986e7 480265.74396151677 0.0
0.0 0.0 0.0

-1.4944289666256038e6 1.084077132970104e7 0.0
1.084077132970104e7 -4.282765088065901e6 0.0
0.0 0.0 0.0

-3.855552875793422e6 1.3965654321140403e7 0.0
1.3965654321140403e7 -572618.9675029345 0.0
0.0 0.0 0.0

1.1393275270379237e6 1.1304204034580272e7 0.0
1.1304204034580272e7 -1.0511602910446884e7 0.0
0.0 0.0 0.0

-3.1119752513173516e6 2.0260505866536535e7 0.0
2.0260505866536535e7 -597569.7931703579 0.0
0.0 0.0 0.0

4.566876703378287e6 6.061295634131672e6 0.0
6.061295634131672e6 -2.0214602995692734e7 0.0
0.0 0.0 0.0

608558.9864845076 7.286982387073443e6 0.0
7.286982387073443e6 -6.108221562466514e6 0.0
0.0 0.0 0.0

2.159619722697407e6 9.403660917070579e6 0.0
9.403660917070579e6 -1.2106695425986273e7 0.0
0.0 0.0 0.0

-6.070417982103067e6 1.6123688124463558e7 0.0
1.6123688124463558e7 9.647041682723813e6 0.0
0.0 0.0 0.0

-3.1782085266497126e6 1.4778553959642027e7 0.0
1.4778553959642027e7 -2.1095677019680296e6 0.0
0.0 0.0 0.0

-790735.9957889428 1.2293771187435744e7 0.0
1.2293771187435744e7 2.979341501057444e6 0.0
0.0 0.0 0.0

-733718.39956294 1.0197529185803602e7 0.0
1.0197529185803602e7 -3.4795521538343118e6 0.0
0.0 0.0 0.0

-2.1857350361971688e6 1.3961169078892281e7 0.0
1.3961169078892281e7 -2.163016068153485e6 0.0
0.0 0.0 0.0

1.2483403063981188e6 1.3325137900783602e7 0.0
1.3325137900783602e7 -4.611862394999473e6 0.0
0.0 0.0 0.0

-5.381659377020327e6 2.6905413752132658e7 0.0
2.6905413752132658e7 3.0530371033469187e6 0.0
0.0 0.0 0.0

-2.415364926960357e6 1.4578009962312358e7 0.0
1.4578009962312358e7 -1.8198311276899937e6 0.0
0.0 0.0 0.0

-816175.3163051524 6.087858068866935e6 0.0
6.087858068866935e6 -864008.188156781 0.0
0.0 0.0 0.0

1.3816879537745226e7 1.0727464856128456e7 0.0
1.0727464856128456e7 163938.39616395812 0.0
0.0 0.0 0.0

3.2746319676781334e6 8.571596854564723e6 0.0
8.571596854564723e6 -2.7529919956393845e7 0.0
0.0 0.0 0.0

-4.1188859742487497e6 1.78059961562325e7 0.0
1.78059961562325e7 2.3626208356048055e6 0.0
0.0 0.0 0.0

-2.055463719338003e6 6.425608062246194e6 0.0
6.425608062246194e6 933717.3056225603 0.0
0.0 0.0 0.0

-979582.6194829757 1.0550157829484453e7 0.0
1.0550157829484453e7 -5.040612854122398e6 0.0
0.0 0.0 0.0

417381.7316543753 9.427325828406742e6 0.0
9.427325828406742e6 -7.464984180454653e6 0.0
0.0 0.0 0.0

-4.907184598762317e6 2.5864877489368267e7 0.0
2.5864877489368267e7 2.8811864652740825e6 0.0
0.0 0.0 0.0

3.314898540036048e6 8.673887709004901e6 0.0
8.673887709004901e6 -1.8176376885134585e7 0.0
0.0 0.0 0.0

-1.1109459773872882e7 566804.0205869422 0.0
566804.0205869422 1.415637187348131e7 0.0
0.0 0.0 0.0

-2.993341270468644e6 1.6337472135191469e7 0.0
1.6337472135191469e7 -4.598222448538742e6 0.0
0.0 0.0 0.0

-2.884592839278576e6 5.667122080318809e6 0.0
5.667122080318809e6 2.624337164741505e6 0.0
0.0 0.0 0.0

-1.7788065565498837e6 1.3923176215302652e7 0.0
1.3923176215302652e7 -5.135327781891817e6 0.0
0.0 0.0 0.0

-3.78971807615688e6 1.4860988401446646e7 0.0
1.4860988401446646e7 -731022.6970325445 0.0
0.0 0.0 0.0

1.0584996926713372e6 1.2176624638839094e7 0.0
1.2176624638839094e7 -1.3179200674544653e7 0.0
0.0 0.0 0.0

-4.669544059495114e6 2.5017844672516935e7 0.0
2.5017844672516935e7 2.954054125396128e6 0.0
0.0 0.0 0.0

-5.850309977589513e6 1.6657561809190832e7 0.0
1.6657561809190832e7 9.023655780324649e6 0.0
0.0 0.0 0.0

-2.6201850718793655e6 1.5174417159109348e7 0.0
1.5174417159109348e7 -1.4962749185633694e6 0.0
0.0 0.0 0.0

4.328450100647903e6 6.519679888976818e6 0.0
6.519679888976818e6 -1.9653856102501344e7 0.0
0.0 0.0 0.0

-1.9110404832749064e6 7.847732177941602e6 0.0
7.847732177941602e6 101554.29012901965 0.0
0.0 0.0 0.0

-4.231427263835333e6 2.43453590328145e7 0.0
2.43453590328145e7 3.1582659074141653e6 0.0
0.0 0.0 0.0

4.1440159147011004e6 7.82618781146332e6 0.0
7.82618781146332e6 -2.8376504461842515e7 0.0
0.0 0.0 0.0

-3.838440958105079e6 2.374560801859757e7 0.0
2.374560801859757e7 3.121829612023622e6 0.0
0.0 0.0 0.0

-3.6939635378795424e6 2.3203072793785907e7 0.0
2.3203072793785907e7 2.944282376580218e6 0.0
0.0 0.0 0.0

-4.101186318211877e6 1.9209973038631372e7 0.0
1.9209973038631372e7 1.2536134557828e6 0.0
0.0 0.0 0.0

-4.0829636630150536e6 1.9604499755238384e7 0.0
1.9604499755238384e7 1.4971592462789721e6 0.0
0.0 0.0 0.0

-4.061129888817704e6 1.9985107186145782e7 0.0
1.9985107186145782e7 1.7168218603010278e6 0.0
0.0 0.0 0.0

-4.029228937256081e6 2.033920198005577e7 0.0
2.033920198005577e7 1.8730421390615823e6 0.0
0.0 0.0 0.0

-4.0405260131088533e6 2.0681103872823294e7 0.0
2.0681103872823294e7 2.0777325204635877e6 0.0
0.0 0.0 0.0

-4.0283988627423514e6 2.1037050059902396e7 0.0
2.1037050059902396e7 2.194534902489057e6 0.0
0.0 0.0 0.0

-5.745084206223757e6 9.826638667385742e6 0.0
9.826638667385742e6 3.738811003016347e6 0.0
0.0 0.0 0.0

-4.0377027897199616e6 2.1391887215780888e7 0.0
2.1391887215780888e7 2.372519353929555e6 0.0
0.0 0.0 0.0

-4.1788460459374506e6 2.1781950098091375e7 0.0
2.1781950098091375e7 2.4594501714248788e6 0.0
0.0 0.0 0.0

-8.980971686015116e6 1.1240933007663084e7 0.0
1.1240933007663084e7 1.3502569637827266e7 0.0
0.0 0.0 0.0

-3.659299728373423e6 2.2757170751162525e7 0.0
2.2757170751162525e7 2.942069422396894e6 0.0
0.0 0.0 0.0

-4.306901135968076e6 2.21250600559838e7 0.0
2.21250600559838e7 2.5249140620553372e6 0.0
0.0 0.0 0.0

-4.336116589184739e6 2.2556709173574395e7 0.0
2.2556709173574395e7 2.630479332326202e6 0.0
0.0 0.0 0.0

-3.6179988080308996e6 2.23671843711215e7 0.0
2.23671843711215e7 2.9038198014718844e6 0.0
0.0 0.0 0.0

-1.3369522530534053e6 1.199663394856281e7 0.0
1.199663394856281e7 -3.2139870669354396e6 0.0
0.0 0.0 0.0

-4.526120519989012e6 2.298822106526948e7 0.0
2.298822106526948e7 2.6076875855825916e6 0.0
0.0 0.0 0.0

-3.7084282583424873e6 2.196801255583419e7 0.0
2.196801255583419e7 2.7404699885827815e6 0.0
0.0 0.0 0.0

-3.50701355435934e6 2.1606910669122778e7 0.0
2.1606910669122778e7 2.6805787392715467e6 0.0
0.0 0.0 0.0

-3.5556292721303143e6 2.1274649437310766e7 0.0
2.1274649437310766e7 2.5557731286173263e6 0.0
0.0 0.0 0.0

-3.608443220205006e6 2.0895832665202886e7 0.0
2.0895832665202886e7 2.413337069692677e6 0.0
0.0 0.0 0.0

-3.603145457226095e6 2.0569483271303914e7 0.0
2.0569483271303914e7 2.2421236103794575e6 0.0
0.0 0.0 0.0

-3.66537974427778e6 2.0206322970628917e7 0.0
2.0206322970628917e7 2.079496810302711e6 0.0
0.0 0.0 0.0

-3.6507667466826704e6 1.985925294949536e7 0.0
1.985925294949536e7 1.9042750813516255e6 0.0
0.0 0.0 0.0

-3.6381763957672166e6 1.9478663087922834e7 0.0
1.9478663087922834e7 1.6866275190864676e6 0.0
0.0 0.0 0.0

-3.434801842178287e6 1.6655735603774376e7 0.0
1.6655735603774376e7 -1.5373440624982354e6 0.0
0.0 0.0 0.0

-1.0636042204659365e7 1.3078455305736722e7 0.0
1.3078455305736722e7 1.774644763768955e7 0.0
0.0 0.0 0.0

-4.906055497767547e6 2.343303887194858e7 0.0
2.343303887194858e7 2.6324653369656596e6 0.0
0.0 0.0 0.0

3.3851472314993897e6 7.434751659401594e6 0.0
7.434751659401594e6 -1.4338817667908845e7 0.0
0.0 0.0 0.0

-4.18637197202091e6 1.6511115805258581e7 0.0
1.6511115805258581e7 2.3771344146361845e6 0.0
0.0 0.0 0.0

-5.495178814911074e6 2.4055761684882756e7 0.0
2.4055761684882756e7 2.704874349969685e6 0.0
0.0 0.0 0.0

-9.357464435228512e6 6.797877024171394e6 0.0
6.797877024171394e6 1.3622142123234028e7 0.0
0.0 0.0 0.0

-6.210131065413285e6 2.4769333873977616e7 0.0
2.4769333873977616e7 2.5828139493718194e6 0.0
0.0 0.0 0.0

-1.1238457437277302e7 4.908906177663137e6 0.0
4.908906177663137e6 1.5632418231260598e7 0.0
0.0 0.0 0.0

-7.036934081822276e6 2.5492605113679003e7 0.0
2.5492605113679003e7 2.320898064702161e6 0.0
0.0 0.0 0.0

-273052.5951712816 1.397934477953902e7 0.0
1.397934477953902e7 -1.0342619193519304e7 0.0
0.0 0.0 0.0

2.7496847495027767e6 9.135626248821322e6 0.0
9.135626248821322e6 -1.1682671487682594e7 0.0
0.0 0.0 0.0

1.5361498591127396e6 1.1056251363098511e7 0.0
1.1056251363098511e7 -2.042895546686808e7 0.0
0.0 0.0 0.0

-2.818223540452283e6 1.4938519358323438e7 0.0
1.4938519358323438e7 -962969.6431256166 0.0
0.0 0.0 0.0

-910302.4785012568 1.214998875030655e7 0.0
1.214998875030655e7 -6.161426531894804e6 0.0
0.0 0.0 0.0

-2.777512223731694e6 1.5908710159948517e7 0.0
1.5908710159948517e7 -3.2156331433275524e6 0.0
0.0 0.0 0.0

-293086.24493701756 1.4106728621728731e7 0.0
1.4106728621728731e7 -1.047289031270113e7 0.0
0.0 0.0 0.0

5.344859342582307e6 4.0413815972486255e6 0.0
4.0413815972486255e6 -1.677896887504802e7 0.0
0.0 0.0 0.0

-2.8244410921318615e6 9.557227118238393e6 0.0
9.557227118238393e6 1.1112665399810341e6 0.0
0.0 0.0 0.0

-8.073461935939539e6 2.637508650450277e7 0.0
2.637508650450277e7 2.223233993391139e6 0.0
0.0 0.0 0.0

2.231823291914904e6 9.637136930198323e6 0.0
9.637136930198323e6 -1.0042769532169325e7 0.0
0.0 0.0 0.0

-1.1936151675819632e7 5.211864543483168e6 0.0
5.211864543483168e6 1.7488719829970464e7 0.0
0.0 0.0 0.0

-1.9166681787481853e6 1.3327299290928122e7 0.0
1.3327299290928122e7 -2.5240769605071037e6 0.0
0.0 0.0 0.0

-3.4651415731895845e6 2.0727337567408618e7 0.0
2.0727337567408618e7 1.3459465771582788e6 0.0
0.0 0.0 0.0

3.674278346367755e6 7.000060532961183e6 0.0
7.000060532961183e6 -1.4991755082288325e7 0.0
0.0 0.0 0.0

-1.0542045834312279e7 2.4188846711317953e7 0.0
2.4188846711317953e7 7.0467082877946785e6 0.0
0.0 0.0 0.0

-6.657613217342738e6 1.125928471308805e7 0.0
1.125928471308805e7 5.521326309067902e6 0.0
0.0 0.0 0.0

-1.1707112569083216e7 1.861724549147719e7 0.0
1.861724549147719e7 5.079012044867989e6 0.0
0.0 0.0 0.0

-94411.53766454663 1.4212198877162427e7 0.0
1.4212198877162427e7 5.78875425057755e6 0.0
0.0 0.0 0.0

-9.907407509672737e6 2.7701364315873574e7 0.0
2.7701364315873574e7 1.9911525574055524e6 0.0
0.0 0.0 0.0

2.8732537156299697e6 9.46727775679411e6 0.0
9.46727775679411e6 -1.767580647278919e7 0.0
0.0 0.0 0.0

-4.997888312276958e6 1.1074716587659676e7 0.0
1.1074716587659676e7 2.2799576116906805e6 0.0
0.0 0.0 0.0

528067.6903646347 1.1023347445444798e7 0.0
1.1023347445444798e7 1.7602259183777545e6 0.0
0.0 0.0 0.0

2.855675918468425e6 7.965508482665697e6 0.0
7.965508482665697e6 -1.2697165808355689e7 0.0
0.0 0.0 0.0

-40632.9068482765 1.3404572050019246e7 0.0
1.3404572050019246e7 1.6890778947344064e6 0.0
0.0 0.0 0.0

3.1111180964298416e6 7.8791480379439145e6 0.0
7.8791480379439145e6 -1.3693841705107523e7 0.0
0.0 0.0 0.0

-378530.06008920446 1.244149251851661e7 0.0
1.244149251851661e7 -2.533132686928062e6 0.0
0.0 0.0 0.0

-3.2231825897208164e6 1.527645508408016e7 0.0
1.527645508408016e7 -93542.52632995276 0.0
0.0 0.0 0.0

-3.3650170409082323e6 1.536039771049333e7 0.0
1.536039771049333e7 -1.764505090412942e6 0.0
0.0 0.0 0.0

2.254951023044206e6 8.105975886773872e6 0.0
8.105975886773872e6 -1.0646013321715645e7 0.0
0.0 0.0 0.0

1.0842737795168795e7 1.6441500496250248e7 0.0
1.6441500496250248e7 6.2479445379867125e6 0.0
0.0 0.0 0.0

1.8250732257743827e6 1.0308122322936907e7 0.0
1.0308122322936907e7 -9.754746028291725e6 0.0
0.0 0.0 0.0

-560748.6811553119 1.229305342057915e7 0.0
1.229305342057915e7 -5.03520586116552e6 0.0
0.0 0.0 0.0

-4.509644702076623e6 1.638181471324239e7 0.0
1.638181471324239e7 4.237062824742399e6 0.0
0.0 0.0 0.0

776733.4773130352 9.542249821875429e6 0.0
9.542249821875429e6 -6.334073459504153e6 0.0
0.0 0.0 0.0

-5.7632317292025015e6 1.7142654190078348e7 0.0
1.7142654190078348e7 8.355244666238863e6 0.0
0.0 0.0 0.0

458586.5769070345 1.444809246213701e7 0.0
1.444809246213701e7 9.530015200065704e6 0.0
0.0 0.0 0.0

-7.234793525682261e6 8.92024627314424e6 0.0
8.92024627314424e6 1.0144684945804073e7 0.0
0.0 0.0 0.0

-1.2589805372420486e7 2.9086829766763862e7 0.0
2.9086829766763862e7 1.3438307895572577e6 0.0
0.0 0.0 0.0

-5.334003567954095e6 1.4409496252827909e7 0.0
1.4409496252827909e7 2.186513476984188e7 0.0
0.0 0.0 0.0

-3.016919983616671e6 1.1847102494150613e7 0.0
1.1847102494150613e7 -1.650859313516777e6 0.0
0.0 0.0 0.0

4.793927603849454e6 1.3773678073598616e7 0.0
1.3773678073598616e7 -456564.0053928441 0.0
0.0 0.0 0.0

4.1088819177103164e6 6.671130417588081e6 0.0
6.671130417588081e6 -1.6568803323952736e7 0.0
0.0 0.0 0.0

2.777411861790085e6 9.636638094707247e6 0.0
9.636638094707247e6 -1.9787020885103013e7 0.0
0.0 0.0 0.0

-7.007400567419603e6 1.402345711823752e7 0.0
1.402345711823752e7 7.70448703351761e6 0.0
0.0 0.0 0.0

-6.972483789254027e6 1.9621264116243746e7 0.0
1.9621264116243746e7 -342878.19245637045 0.0
0.0 0.0 0.0

-3.212573381091228e6 1.3380826165899383e7 0.0
1.3380826165899383e7 379572.1994920622 0.0
0.0 0.0 0.0

-247357.28508093627 1.252971146473105e7 0.0
1.252971146473105e7 -8.152172185855484e6 0.0
0.0 0.0 0.0

-1.2673736674998313e7 2.321989545159749e7 0.0
2.321989545159749e7 8.688226699702658e6 0.0
0.0 0.0 0.0

2.1005339944930933e6 9.697837509977352e6 0.0
9.697837509977352e6 -1.246798127571151e7 0.0
0.0 0.0 0.0

-3.460804373781545e6 1.4075052828509973e7 0.0
1.4075052828509973e7 723641.165851312 0.0
0.0 0.0 0.0

-2.0273530695662892e6 7.171957087775212e6 0.0
7.171957087775212e6 550778.7221334184 0.0
0.0 0.0 0.0

-5.780362867378999e6 1.3750460933289474e7 0.0
1.3750460933289474e7 6.689846398744198e6 0.0
0.0 0.0 0.0

-1.7380739602286335e7 4.071417811587854e7 0.0
4.071417811587854e7 -1.5249858513991348e6 0.0
0.0 0.0 0.0

-6.92249212367023e6 9.868642590971969e6 0.0
9.868642590971969e6 9.273108120947985e6 0.0
0.0 0.0 0.0

-1.1906795902155233e6 6.169216593877628e6 0.0
6.169216593877628e6 -2.1261780115259425e6 0.0
0.0 0.0 0.0

-3.164245500573036e6 1.6112965708027985e7 0.0
1.6112965708027985e7 -306531.7348899193 0.0
0.0 0.0 0.0

-5.204318464413414e6 1.620710662994024e7 0.0
1.620710662994024e7 3.2599733106264733e6 0.0
0.0 0.0 0.0

-1.223107111882385e6 1.4487609863558419e7 0.0
1.4487609863558419e7 -4.962406285227169e6 0.0
0.0 0.0 0.0

-3.7269819268319197e6 1.5726357504634164e7 0.0
1.5726357504634164e7 -904290.0023525878 0.0
0.0 0.0 0.0

-3.9719699810388004e6 2.94134879775553e6 0.0
2.94134879775553e6 4.003405787949984e6 0.0
0.0 0.0 0.0

761395.6969526275 1.219825901149003e7 0.0
1.219825901149003e7 -4.254276576291932e6 0.0
0.0 0.0 0.0

-5.29672586578336e6 1.6805863483634032e7 0.0
1.6805863483634032e7 3.511292142253248e6 0.0
0.0 0.0 0.0

1.4212773394921175e6 8.958374504299916e6 0.0
8.958374504299916e6 -9.344882599776737e6 0.0
0.0 0.0 0.0

971385.4241585883 1.2519297547671128e7 0.0
1.2519297547671128e7 -3.708298303400974e6 0.0
0.0 0.0 0.0

-1.2517388672501307e7 1.764117686435809e7 0.0
1.764117686435809e7 3.001254594824236e6 0.0
0.0 0.0 0.0

-6.39753486209044e6 1.0582959302164046e7 0.0
1.0582959302164046e7 8.361662786999272e6 0.0
0.0 0.0 0.0

14627.412822964136 1.3637962817121506e7 0.0
1.3637962817121506e7 -1.1129022479464075e7 0.0
0.0 0.0 0.0

-5.529222268465853e6 1.7274410238249768e7 0.0
1.7274410238249768e7 5.047581225804285e6 0.0
0.0 0.0 0.0

3.7563963450746834e6 3.9835759621732584e6 0.0
3.9835759621732584e6 -1.076249699007285e7 0.0
0.0 0.0 0.0

-267691.7308726489 2.2039908609246607e6 0.0
2.2039908609246607e6 -1.0183646823421208e6 0.0
0.0 0.0 0.0

323448.5995956473 2.6157302656915495e6 0.0
2.6157302656915495e6 -1.7483246330917575e6 0.0
0.0 0.0 0.0

-5.9272748519413145e6 -8.492916852520555e6 0.0
-8.492916852520555e6 1.2067496334262602e7 0.0
0.0 0.0 0.0

687833.3846395315 2.9866038491135677e6 0.0
2.9866038491135677e6 -2.793643300598249e6 0.0
0.0 0.0 0.0

-5.892583652616866e6 -7.23264814844575e6 0.0
-7.23264814844575e6 9.510749029835604e6 0.0
0.0 0.0 0.0

3.487359435481294e6 4.1852239816639777e6 0.0
4.1852239816639777e6 -9.110826740801712e6 0.0
0.0 0.0 0.0

-1.9826700234104176e6 228131.77743800712 0.0
228131.77743800712 1.5806756894509294e6 0.0
0.0 0.0 0.0

-4.259314330425098e6 -1.5150823377216533e6 0.0
-1.5150823377216533e6 4.2513340287828725e6 0.0
0.0 0.0 0.0

1.2128328648759827e6 3.3974317406574497e6 0.0
3.3974317406574497e6 -4.085582397904378e6 0.0
0.0 0.0 0.0

-4.567416331749107e6 -5.122969815561958e6 0.0
-5.122969815561958e6 6.221537055799646e6 0.0
0.0 0.0 0.0

2.827580800157971e6 4.288968487616087e6 0.0
4.288968487616087e6 -7.4133066855255645e6 0.0
0.0 0.0 0.0

2.0647381671202593e6 4.094439146179382e6 0.0
4.094439146179382e6 -5.905299805252088e6 0.0
0.0 0.0 0.0

-348357.7512330216 1.7308151854028883e6 0.0
1.7308151854028883e6 -564569.104069294 0.0
0.0 0.0 0.0

5.119584878722406e6 4.1506507655972326e6 0.0
4.1506507655972326e6 -1.5547802653487964e7 0.0
0.0 0.0 0.0

5.326163762050185e6 4.0251074107538173e6 0.0
4.0251074107538173e6 -1.652025571934646e7 0.0
0.0 0.0 0.0

4.96181873707383e6 4.203599730221447e6 0.0
4.203599730221447e6 -1.470205625521529e7 0.0
0.0 0.0 0.0

4.690126999599995e6 4.155369483686312e6 0.0
4.155369483686312e6 -1.3324035417079829e7 0.0
0.0 0.0 0.0

-1.2351660872458671e6 979145.1733829742 0.0
979145.1733829742 497383.3550591032 0.0
0.0 0.0 0.0

-4.952911719281739e6 -6.434225686159071e6 0.0
-6.434225686159071e6 7.5081641797842095e6 0.0
0.0 0.0 0.0

5.234986157202453e6 4.128360378984344e6 0.0
4.128360378984344e6 -1.6073273989402857e7 0.0
0.0 0.0 0.0

4.05564953968923e6 4.004827693652025e6 0.0
4.004827693652025e6 -1.1964509439677171e7 0.0
0.0 0.0 0.0

4.319436450622034e6 4.037857091233727e6 0.0
4.037857091233727e6 -1.264602950483414e7 0.0
0.0 0.0 0.0

4.0807544639354832e6 4.027908245641019e6 0.0
4.027908245641019e6 -1.1504227289451282e7 0.0
0.0 0.0 0.0

775419.1847124645 1.2636938747572029e7 0.0
1.2636938747572029e7 -9.781958461886305e6 0.0
0.0 0.0 0.0

-8.38278465778534e6 7.9294413229117105e6 0.0
7.9294413229117105e6 1.2496516962461226e7 0.0
0.0 0.0 0.0

-1.2252374354230704e7 2.8603038431920214e6 0.0
2.8603038431920214e6 1.6524614836934064e7 0.0
0.0 0.0 0.0

-5.588115893963298e6 1.7676317792762715e7 0.0
1.7676317792762715e7 7.81464509285711e6 0.0
0.0 0.0 0.0

614286.0757506583 1.2497505725065175e7 0.0
1.2497505725065175e7 -1.5247435967484735e7 0.0
0.0 0.0 0.0

-5.237100822084875e6 1.4144007436834523e7 0.0
1.4144007436834523e7 2.5168450709448354e6 0.0
0.0 0.0 0.0

-1.6506950057694059e7 3.1143270129508007e7 0.0
3.1143270129508007e7 811188.4731989717 0.0
0.0 0.0 0.0

-3.3350936984842303e6 1.2570775043112163e7 0.0
1.2570775043112163e7 -1.2735390934432014e6 0.0
0.0 0.0 0.0

-2.5213381348716123e6 1.4819392051846232e7 0.0
1.4819392051846232e7 -6.129220991903019e6 0.0
0.0 0.0 0.0

2.101503451176903e6 1.5604967128353989e7 0.0
1.5604967128353989e7 5.84743800761943e6 0.0
0.0 0.0 0.0

-3.021498914922366e6 1.507079452712212e7 0.0
1.507079452712212e7 4.49526331612532e6 0.0
0.0 0.0 0.0

-5.762987474846346e6 1.4563540281152504e7 0.0
1.4563540281152504e7 6.718026403634768e6 0.0
0.0 0.0 0.0

-26157.401544492226 1.490657365338447e7 0.0
1.490657365338447e7 -8.984492891084163e6 0.0
0.0 0.0 0.0

-6.119088176646898e6 1.3271213295675255e7 0.0
1.3271213295675255e7 7.561127982114506e6 0.0
0.0 0.0 0.0

-4.006443991455402e6 1.6104026192017395e7 0.0
1.6104026192017395e7 -120437.58452410647 0.0
0.0 0.0 0.0

-2.9681511236656974e6 1.500687301188684e7 0.0
1.500687301188684e7 -2.6160670774665726e6 0.0
0.0 0.0 0.0

-6.501048963201094e6 1.0128842878010582e7 0.0
1.0128842878010582e7 5.1898750497888755e6 0.0
0.0 0.0 0.0

-473643.5170583837 1.1805462040824419e7 0.0
1.1805462040824419e7 -6.940169560571531e6 0.0
0.0 0.0 0.0

-3.4203263673681756e6 1.3016111576944875e7 0.0
1.3016111576944875e7 997594.2890436251 0.0
0.0 0.0 0.0

1.8548354126979527e6 8.541218612968937e6 0.0
8.541218612968937e6 -9.992386473521458e6 0.0
0.0 0.0 0.0

58515.434030136144 1.9844522929896663e6 0.0
1.9844522929896663e6 -128023.82387559749 0.0
0.0 0.0 0.0

296397.7973994923 2.5407996108546867e6 0.0
2.5407996108546867e6 -868144.7283496723 0.0
0.0 0.0 0.0

-3.711418196779796e6 -5.652892064839953e6 0.0
-5.652892064839953e6 9.335812289583778e6 0.0
0.0 0.0 0.0

-141823.2443292156 1.5833344909018367e6 0.0
1.5833344909018367e6 500544.6661001536 0.0
0.0 0.0 0.0

-965667.2887526014 782282.647819065 0.0
782282.647819065 1.454562119147033e6 0.0
0.0 0.0 0.0

5.122467792048111e6 4.153459407204582e6 0.0
4.153459407204582e6 -1.560719558644016e7 0.0
0.0 0.0 0.0

5.170143184699452e6 4.077570890776726e6 0.0
4.077570890776726e6 -1.598312530261985e7 0.0
0.0 0.0 0.0

-4.854085714245847e6 -6.579858961129267e6 0.0
-6.579858961129267e6 1.1113974754240025e7 0.0
0.0 0.0 0.0

4.515438757554279e6 4.179035359612128e6 0.0
4.179035359612128e6 -1.2707973215872154e7 0.0
0.0 0.0 0.0

4.0324839031424173e6 4.1231143926669206e6 0.0
4.1231143926669206e6 -1.0810677525379403e7 0.0
0.0 0.0 0.0

4.2599100477567315e6 4.10462022147584e6 0.0
4.10462022147584e6 -1.1925468809619853e7 0.0
0.0 0.0 0.0

4.0821380757044246e6 4.0410451887320634e6 0.0
4.0410451887320634e6 -1.1385730317556635e7 0.0
0.0 0.0 0.0

-3.7661074736022516e6 1.1753910862493332e7 0.0
1.1753910862493332e7 -139135.70803420083 0.0
0.0 0.0 0.0

-1.0454334275425581e7 1.3491237610978926e7 0.0
1.3491237610978926e7 1.685236630961555e7 0.0
0.0 0.0 0.0

-6.784072496475419e6 1.3029067305318642e7 0.0
1.3029067305318642e7 9.291540684291804e6 0.0
0.0 0.0 0.0

4.440887651227357e6 6.046915496119687e6 0.0
6.046915496119687e6 -1.4101581120958773e7 0.0
0.0 0.0 0.0

-3.0348767048556805e6 1.7586673121454865e7 0.0
1.7586673121454865e7 -2.1648313303683056e6 0.0
0.0 0.0 0.0

-4.1733534813198983e6 1.5569776832507908e7 0.0
1.5569776832507908e7 1.1380082495009566e7 0.0
0.0 0.0 0.0

-1.1849339854027357e7 8.794676743788147e6 0.0
8.794676743788147e6 1.435325839265588e7 0.0
0.0 0.0 0.0

2.568231108546177e6 8.377490973746151e6 0.0
8.377490973746151e6 -1.2030088985315539e7 0.0
0.0 0.0 0.0

2.0531021586122215e6 9.972718560907543e6 0.0
9.972718560907543e6 -1.275974135334027e7 0.0
0.0 0.0 0.0

-2.7686667228832473e6 1.442481986096577e7 0.0
1.442481986096577e7 -2.9607375009555067e6 0.0
0.0 0.0 0.0

-5.450566642461254e6 1.5443279496278685e7 0.0
1.5443279496278685e7 1.293042038719051e7 0.0
0.0 0.0 0.0

-2.38846227691675e6 8.702121668812033e6 0.0
8.702121668812033e6 603746.4077982466 0.0
0.0 0.0 0.0

-1.553503640302931e6 1.4873384512481665e7 0.0
1.4873384512481665e7 -4.1495678036516854e6 0.0
0.0 0.0 0.0

-3.6733584319339124e6 1.756877153755539e7 0.0
1.756877153755539e7 1.1287800695767098e6 0.0
0.0 0.0 0.0

1.3903067413034406e6 1.0924087280449858e7 0.0
1.0924087280449858e7 -9.58114242071161e6 0.0
0.0 0.0 0.0

-3.0095722460023556e6 1.553489323410114e7 0.0
1.553489323410114e7 -624675.9546951172 0.0
0.0 0.0 0.0

438375.88397807674 2.238258261315938e6 0.0
2.238258261315938e6 2.9321086154601877e6 0.0
0.0 0.0 0.0

-5.676281804757577e6 1.5428255495707812e7 0.0
1.5428255495707812e7 1.2662040013257666e7 0.0
0.0 0.0 0.0

3.39768719464531e6 8.838545696963472e6 0.0
8.838545696963472e6 -2.2558657023462832e7 0.0
0.0 0.0 0.0

2.873870532767975e6 9.509916389582733e6 0.0
9.509916389582733e6 -1.8752418671851847e7 0.0
0.0 0.0 0.0

-1.291380568454767e6 1.4316118783692878e7 0.0
1.4316118783692878e7 -4.50733270229394e6 0.0
0.0 0.0 0.0

-7.313488558837486e6 1.7378215895605866e7 0.0
1.7378215895605866e7 4.283158894470459e6 0.0
0.0 0.0 0.0

2.8660003421841967e6 6.208351746717558e6 0.0
6.208351746717558e6 -8.653157005125681e6 0.0
0.0 0.0 0.0

-2.9355800004010084e6 1.2669078523494406e7 0.0
1.2669078523494406e7 35448.443173594074 0.0
0.0 0.0 0.0

-3.5854836602567364e6 1.5138036235709222e7 0.0
1.5138036235709222e7 -1.2369511707805726e6 0.0
0.0 0.0 0.0

-2.799426906720431e6 1.5755962004992034e7 0.0
1.5755962004992034e7 -1.15258574195981e6 0.0
0.0 0.0 0.0

742107.6361911604 1.2462213914163169e7 0.0
1.2462213914163169e7 -1.631311376856324e7 0.0
0.0 0.0 0.0

2.5033721600821046e6 9.831481401025554e6 0.0
9.831481401025554e6 -1.5915112464119272e7 0.0
0.0 0.0 0.0

-3.437527579158496e6 8.967799043554462e6 0.0
8.967799043554462e6 240499.58688390488 0.0
0.0 0.0 0.0

-6.832145035826558e6 1.3676891476832116e7 0.0
1.3676891476832116e7 6.881959861497948e6 0.0
0.0 0.0 0.0

1.6238360353356665e6 1.1634502181236481e7 0.0
1.1634502181236481e7 -1.685513988153395e7 0.0
0.0 0.0 0.0

-2.3144023787252326e6 1.6297428943632768e7 0.0
1.6297428943632768e7 -2.6123967194479033e6 0.0
0.0 0.0 0.0

2.404615115611127e6 4.1910519068504893e6 0.0
4.1910519068504893e6 -6.488561206982754e6 0.0
0.0 0.0 0.0

-1.651032688683854e6 2.1930938522299338e7 0.0
2.1930938522299338e7 -956837.7990351035 0.0
0.0 0.0 0.0

2.4570951207731697e6 6.6849919765996775e6 0.0
6.6849919765996775e6 -8.065398888120273e6 0.0
0.0 0.0 0.0

-997820.3459707273 1.1299588594019748e7 0.0
1.1299588594019748e7 -3.567343038106337e6 0.0
0.0 0.0 0.0

-6.639667978896296e6 1.587155329584834e7 0.0
1.587155329584834e7 8.687980291691216e6 0.0
0.0 0.0 0.0

-2.400349666204346e6 1.0660652979983995e7 0.0
1.0660652979983995e7 -112288.28926649562 0.0
0.0 0.0 0.0

-2.835138101090412e6 1.2215642624181414e7 0.0
1.2215642624181414e7 -2.1764413283084105e6 0.0
0.0 0.0 0.0

-3.9538580238091606e6 1.5480271416208258e7 0.0
1.5480271416208258e7 -377628.34102989454 0.0
0.0 0.0 0.0

-2.9249444719987945e6 8.111342580405031e6 0.0
8.111342580405031e6 -267274.62221305224 0.0
0.0 0.0 0.0

-3.402969035698964e6 2.347295855657647e6 0.0
2.347295855657647e6 3.9019544350161096e6 0.0
0.0 0.0 0.0

-5.741583116425533e6 1.2856115025879271e7 0.0
1.2856115025879271e7 6.6025050913607655e6 0.0
0.0 0.0 0.0

-4.782684834577118e6 1.423717408004406e7 0.0
1.423717408004406e7 4.022082850023076e6 0.0
0.0 0.0 0.0

942107.9380557705 6.515851602943685e6 0.0
6.515851602943685e6 -6.22623001907755e6 0.0
0.0 0.0 0.0

-6.094606366869144e6 1.1337192160975184e7 0.0
1.1337192160975184e7 7.379828272035684e6 0.0
0.0 0.0 0.0

-3.510912455270589e6 1.5941137308379496e7 0.0
1.5941137308379496e7 -1.4166550016882615e6 0.0
0.0 0.0 0.0

3.9941424065778265e6 8.00444210085915e6 0.0
8.00444210085915e6 -1.6392327375509296e7 0.0
0.0 0.0 0.0

-5.695092854555476e6 1.7520762319947854e7 0.0
1.7520762319947854e7 3.646687140395588e6 0.0
0.0 0.0 0.0

-2.5409397323350543e6 1.3816427946089717e7 0.0
1.3816427946089717e7 -3.3109229103189157e6 0.0
0.0 0.0 0.0

2.268318489068929e6 4.220058638010872e6 0.0
4.220058638010872e6 -5.688085718517345e6 0.0
0.0 0.0 0.0

-5.442366794292262e6 1.894598017434418e7 0.0
1.894598017434418e7 6.273939173667647e6 0.0
0.0 0.0 0.0

-1.0141375533870138e7 5.6567250835755635e6 0.0
5.6567250835755635e6 1.1399811015585821e7 0.0
0.0 0.0 0.0

-2.9300710868297117e6 1.3241899370025275e7 0.0
1.3241899370025275e7 -2.3312596611339217e6 0.0
0.0 0.0 0.0

-3.1181739440674637e6 1.683715723132376e7 0.0
1.683715723132376e7 -535334.9352624023 0.0
0.0 0.0 0.0

-4.2217449558458505e6 1.7234702582896963e7 0.0
1.7234702582896963e7 557876.112496298 0.0
0.0 0.0 0.0

-3.148646383623273e6 1.5574739076331688e7 0.0
1.5574739076331688e7 -2.2688055497650667e6 0.0
0.0 0.0 0.0

-3.6038511810992886e6 1.5623705812865684e7 0.0
1.5623705812865684e7 750414.3033637677 0.0
0.0 0.0 0.0

2.9899303918783735e6 4.226123826479522e6 0.0
4.226123826479522e6 -7.928781260267479e6 0.0
0.0 0.0 0.0

-3.3115483278220156e6 1.8766805323780473e7 0.0
1.8766805323780473e7 -1.2150061899338388e6 0.0
0.0 0.0 0.0

-6.444033308648225e6 1.571520070351259e7 0.0
1.571520070351259e7 -3.263560188031656e7 0.0
0.0 0.0 0.0

6.650631491624922e6 1.5174468411587037e7 0.0
1.5174468411587037e7 3.6927579742728285e7 0.0
0.0 0.0 0.0

1.1339708375990605e6 1.1712458366057776e7 0.0
1.1712458366057776e7 -1.2194740124634333e7 0.0
0.0 0.0 0.0

-1.9631787507142848e6 1.5218357640180025e7 0.0
1.5218357640180025e7 -3.3400718768414077e6 0.0
0.0 0.0 0.0

-1.1074538080145004e6 1.2116287057510398e7 0.0
1.2116287057510398e7 -1.2813363215128584e7 0.0
0.0 0.0 0.0

-2.2737356636023084e6 1.3194551097387569e7 0.0
1.3194551097387569e7 -3.6798616069768644e6 0.0
0.0 0.0 0.0

-493442.3669498833 1.5182844086461153e7 0.0
1.5182844086461153e7 -8.3533286580742095e6 0.0
0.0 0.0 0.0

-1.3744988652254234e6 1.2502769367894419e7 0.0
1.2502769367894419e7 -5.342661446538646e6 0.0
0.0 0.0 0.0

-4.134371909376991e6 1.5257930334141813e7 0.0
1.5257930334141813e7 145792.71126121283 0.0
0.0 0.0 0.0

3.959442795020353e6 8.132516862009493e6 0.0
8.132516862009493e6 -2.686616454299431e7 0.0
0.0 0.0 0.0

-6.19744507012106e6 1.6560749793822581e7 0.0
1.6560749793822581e7 2.6342767629141216e6 0.0
0.0 0.0 0.0

-5.740534740398215e6 1.5630810146684697e7 0.0
1.5630810146684697e7 4.620837088004019e6 0.0
0.0 0.0 0.0

-1.0272651329912272e6 1.2636792278834715e7 0.0
1.2636792278834715e7 -4.218248278683583e6 0.0
0.0 0.0 0.0

2.2370324022860667e6 1.0240322175678998e7 0.0
1.0240322175678998e7 -1.5124561502971523e7 0.0
0.0 0.0 0.0

7.0073859595695585e6 1.5281230019608863e7 0.0
1.5281230019608863e7 2.3357952121417563e7 0.0
0.0 0.0 0.0

-1.579753048331489e6 1.5504101089491664e7 0.0
1.5504101089491664e7 -5.239281037237065e6 0.0
0.0 0.0 0.0

-2.3884956241678085e7 3.433763600324466e7 0.0
3.433763600324466e7 581097.3434921512 0.0
0.0 0.0 0.0

1.3959565144793643e6 1.1326711360943645e7 0.0
1.1326711360943645e7 -1.2909416039690917e7 0.0
0.0 0.0 0.0

-2.4351397095252685e6 1.5396526401801541e7 0.0
1.5396526401801541e7 -2.0118311399336187e6 0.0
0.0 0.0 0.0

2.8236837893987414e6 4.28817395063047e6 0.0
4.28817395063047e6 -7.3776681973875435e6 0.0
0.0 0.0 0.0

3.749163144334879e6 7.395009648378635e6 0.0
7.395009648378635e6 -1.6215182111536177e7 0.0
0.0 0.0 0.0

-3.568380568962195e6 1.70438071729349e7 0.0
1.70438071729349e7 850504.958816437 0.0
0.0 0.0 0.0

-2.3372704816047996e6 1.3248728643695211e7 0.0
1.3248728643695211e7 -2.1030652704919398e7 0.0
0.0 0.0 0.0

-1.4708706790518202e6 1.2986437513097687e7 0.0
1.2986437513097687e7 -3.3776055155296735e6 0.0
0.0 0.0 0.0

1.3921806768984748e6 9.834319911550507e6 0.0
9.834319911550507e6 -7.936499676395315e6 0.0
0.0 0.0 0.0

-3.5586451630333057e6 1.1293602122509263e7 0.0
1.1293602122509263e7 2.0188321952545585e6 0.0
0.0 0.0 0.0

1.720118499592375e6 1.0969982297965553e7 0.0
1.0969982297965553e7 -1.3673604080241514e7 0.0
0.0 0.0 0.0

-4.338312294638122e6 1.0725928818712637e7 0.0
1.0725928818712637e7 1.1592896660597536e6 0.0
0.0 0.0 0.0

303172.5461614672 1.3300552267710073e7 0.0
1.3300552267710073e7 -1.1902035764121193e7 0.0
0.0 0.0 0.0

-1.3550025368070586e7 2.1434423632224314e7 0.0
2.1434423632224314e7 204733.56497663353 0.0
0.0 0.0 0.0

-3.507376539259715e6 -302685.2583712487 0.0
-302685.2583712487 2.902451755711581e6 0.0
0.0 0.0 0.0

-4.494163163735434e6 1.1094487765561335e7 0.0
1.1094487765561335e7 3.9587836133501134e6 0.0
0.0 0.0 0.0

-3.372172940151645e6 1.5870931870489253e7 0.0
1.5870931870489253e7 241726.5827623685 0.0
0.0 0.0 0.0

-1.0589127723839497e7 -2.4304587031741156e6 0.0
-2.4304587031741156e6 2.9612741347019374e7 0.0
0.0 0.0 0.0

-1.266394426517244e6 1.4746567695477141e7 0.0
1.4746567695477141e7 6.438832314856358e6 0.0
0.0 0.0 0.0

-1.8252343909799433e6 1.2846709756551059e7 0.0
1.2846709756551059e7 -4.52480689696691e6 0.0
0.0 0.0 0.0

-821816.3035016435 1.512991060160608e7 0.0
1.512991060160608e7 -7.311908503244147e6 0.0
0.0 0.0 0.0

-1.2283004495616432e6 1.3752278910870915e7 0.0
1.3752278910870915e7 -6.286291175910053e6 0.0
0.0 0.0 0.0

-894229.4275742766 1.0857038875598453e7 0.0
1.0857038875598453e7 -5.551682934381953e6 0.0
0.0 0.0 0.0

-2.416176981322326e6 1.4843049291106747e7 0.0
1.4843049291106747e7 -3.928100412015096e6 0.0
0.0 0.0 0.0

-6.590893840520363e6 1.3884606161024485e7 0.0
1.3884606161024485e7 9.1662256828522e6 0.0
0.0 0.0 0.0

-3.6495057981522363e6 1.3734702696541201e7 0.0
1.3734702696541201e7 1.3292372897103408e6 0.0
0.0 0.0 0.0

-3.132151958380576e6 1.2913723350998571e7 0.0
1.2913723350998571e7 -1.8187238143847976e6 0.0
0.0 0.0 0.0

4.39320833111134e6 7.192794350072781e6 0.0
7.192794350072781e6 -1.9971168496067006e7 0.0
0.0 0.0 0.0

-5.629319396356184e6 1.9334047311285622e7 0.0
1.9334047311285622e7 6.564727966425368e6 0.0
0.0 0.0 0.0

-894916.0405035301 3.9540253362375717e6 0.0
3.9540253362375717e6 -79739.61217402172 0.0
0.0 0.0 0.0

-6.386334095151741e6 1.3610304660480374e7 0.0
1.3610304660480374e7 8.405689846038753e6 0.0
0.0 0.0 0.0

877124.8331928267 9.89822002996704e6 0.0
9.89822002996704e6 -6.771669252952994e6 0.0
0.0 0.0 0.0

4.423577493224848e6 4.833967693250078e6 0.0
4.833967693250078e6 -1.3544618008203885e7 0.0
0.0 0.0 0.0

1.974662222242753e6 1.0576918808889402e7 0.0
1.0576918808889402e7 -1.4449242808938706e7 0.0
0.0 0.0 0.0

-1.8222948542495572e6 6.367263025029953e6 0.0
6.367263025029953e6 -1.267485293845334e6 0.0
0.0 0.0 0.0

-1.2992595493389426e7 8.630788355452355e6 0.0
8.630788355452355e6 1.713449307286902e7 0.0
0.0 0.0 0.0

-2.3600536606848035e6 1.4072028176371347e7 0.0
1.4072028176371347e7 -3.802029426644068e6 0.0
0.0 0.0 0.0

-2.3178798310716483e6 317704.28561321454 0.0
317704.28561321454 3.451118876334535e6 0.0
0.0 0.0 0.0

-3.9226343851320716e6 9.842096944350675e6 0.0
9.842096944350675e6 714566.7073471125 0.0
0.0 0.0 0.0

-1.095288919410243e6 1.5508229685560316e7 0.0
1.5508229685560316e7 -6.447489396774154e6 0.0
0.0 0.0 0.0

-147450.94377169805 1.32231639184495e7 0.0
1.32231639184495e7 -1.2684145348535988e7 0.0
0.0 0.0 0.0

1.4816159830105556e6 9.915646423045797e6 0.0
9.915646423045797e6 -1.0475794075795572e7 0.0
0.0 0.0 0.0

208291.07832068368 8.037438108389178e6 0.0
8.037438108389178e6 -5.800269497398997e6 0.0
0.0 0.0 0.0

-1.7526288858260815e6 1.3617950556320177e7 0.0
1.3617950556320177e7 -3.02370335793809e6 0.0
0.0 0.0 0.0

-7.180600976941507e6 1.4984094480756888e7 0.0
1.4984094480756888e7 1.4419117193464903e7 0.0
0.0 0.0 0.0

-4.027900023190254e6 1.735061557440079e7 0.0
1.735061557440079e7 49681.595627791015 0.0
0.0 0.0 0.0

-8.950359398941312e6 1.3741769303217757e7 0.0
1.3741769303217757e7 1.2505891529483955e7 0.0
0.0 0.0 0.0

-5.969745308629211e6 1.5871133924323253e7 0.0
1.5871133924323253e7 8.016551083431777e6 0.0
0.0 0.0 0.0

502625.67715904536 8.987284272537097e6 0.0
8.987284272537097e6 -7.013716468558709e6 0.0
0.0 0.0 0.0

-3.2190663462609216e6 1.0424190053482363e7 0.0
1.0424190053482363e7 1.5902904222765844e6 0.0
0.0 0.0 0.0

-2.4121294557159203e6 1.4708835206290174e7 0.0
1.4708835206290174e7 6.788215002484922e6 0.0
0.0 0.0 0.0

-1.3502640429213925e6 1.1220682359007258e7 0.0
1.1220682359007258e7 -4.735027887432612e6 0.0
0.0 0.0 0.0

1.3909358530564075e6 1.1823965552769763e7 0.0
1.1823965552769763e7 -1.5811006855154138e7 0.0
0.0 0.0 0.0

-2.0114908813733757e6 1.4227576367736526e7 0.0
1.4227576367736526e7 -2.672387232816115e6 0.0
0.0 0.0 0.0

818254.4226689874 1.2061794008826412e7 0.0
1.2061794008826412e7 -1.148272238306965e7 0.0
0.0 0.0 0.0

-3.329588805695706e6 1.1797038828782693e7 0.0
1.1797038828782693e7 1.3080340952876194e6 0.0
0.0 0.0 0.0

-3.400482244961448e6 1.2655770402666774e7 0.0
1.2655770402666774e7 -1.5882084870686581e7 0.0
0.0 0.0 0.0

-2.2375470775021566e6 1.482086634235365e7 0.0
1.482086634235365e7 -2.3453822694808925e6 0.0
0.0 0.0 0.0

2.7437021915989793e6 1.3952472083014391e7 0.0
1.3952472083014391e7 -2.7020653355641905e6 0.0
0.0 0.0 0.0

-1.0943639226599516e7 -437138.6149454101 0.0
-437138.6149454101 2.892064092795515e7 0.0
0.0 0.0 0.0

-8.015186633527078e6 2.3796917740861945e7 0.0
2.3796917740861945e7 6.447286666866088e6 0.0
0.0 0.0 0.0

-3.8471685601728447e6 1.5500314552949013e7 0.0
1.5500314552949013e7 5.876128890905232e6 0.0
0.0 0.0 0.0

-1.213428032707128e7 1.0168595821736101e7 0.0
1.0168595821736101e7 1.82695053058671e7 0.0
0.0 0.0 0.0

-5.514355931683619e6 1.767953375499067e7 0.0
1.767953375499067e7 7.303749289005525e6 0.0
0.0 0.0 0.0

-2.6190665655228924e6 1.1927390729831621e7 0.0
1.1927390729831621e7 -341867.38068369037 0.0
0.0 0.0 0.0

-891059.2929014537 1.2916032873812081e7 0.0
1.2916032873812081e7 -4.694151595253986e6 0.0
0.0 0.0 0.0

-1.58385746379728e6 1.3878913593652138e7 0.0
1.3878913593652138e7 -3.5152702759070513e6 0.0
0.0 0.0 0.0

-499677.4584548588 8.467376839387469e6 0.0
8.467376839387469e6 -2.6866689045859566e6 0.0
0.0 0.0 0.0

-1.3914828788383314e6 1.589412653254426e7 0.0
1.589412653254426e7 -5.636235684682705e6 0.0
0.0 0.0 0.0

3.558806177658909e6 6.498182871984196e6 0.0
6.498182871984196e6 -1.3272480322181448e7 0.0
0.0 0.0 0.0

1.8094878679989898e6 6.256777263718422e6 0.0
6.256777263718422e6 -7.848891520141302e6 0.0
0.0 0.0 0.0

-6.319559893358212e6 1.5526284764144104e7 0.0
1.5526284764144104e7 9.342393899637492e6 0.0
0.0 0.0 0.0

-3.712815495863069e6 1.700873499422011e7 0.0
1.700873499422011e7 -789068.3575743036 0.0
0.0 0.0 0.0

2.002789578327315e6 1.442776063084375e7 0.0
1.442776063084375e7 -4.022898827171657e6 0.0
0.0 0.0 0.0

-9.27178213375782e6 1.8666895512842547e7 0.0
1.8666895512842547e7 5.217195637849891e6 0.0
0.0 0.0 0.0

2.4893544209529683e6 6.093898710785562e6 0.0
6.093898710785562e6 -9.874524149091017e6 0.0
0.0 0.0 0.0

-1.8555482275679237e6 1.1538241066059781e7 0.0
1.1538241066059781e7 -3.9206557180651007e6 0.0
0.0 0.0 0.0

2.2348539553882558e7 1.183702971205645e7 0.0
1.183702971205645e7 -135895.45175127126 0.0
0.0 0.0 0.0

325035.14694114216 8.308345630442142e6 0.0
8.308345630442142e6 -6.40464110893283e6 0.0
0.0 0.0 0.0

3.9286748769689687e6 6.614252409924364e6 0.0
6.614252409924364e6 -1.556840071115068e7 0.0
0.0 0.0 0.0

-1.0031797580335582e7 1.3715124328291934e7 0.0
1.3715124328291934e7 1.6120892821703618e7 0.0
0.0 0.0 0.0

724761.343434975 1.2686493125034664e7 0.0
1.2686493125034664e7 -1.2322131772217553e7 0.0
0.0 0.0 0.0

-6.76636374915394e6 7.445298505652775e6 0.0
7.445298505652775e6 1.0010124989971867e7 0.0
0.0 0.0 0.0

-1.0656703819331128e7 2.3274495298200168e7 0.0
2.3274495298200168e7 7.4802010079240175e6 0.0
0.0 0.0 0.0

-9.616830685378276e6 1.3818072354456404e7 0.0
1.3818072354456404e7 1.5565213759517785e7 0.0
0.0 0.0 0.0

-5.488846605534347e6 1.8121336343328472e7 0.0
1.8121336343328472e7 7.271162077898098e6 0.0
0.0 0.0 0.0

-9.662430449900437e6 1.9848629650450964e7 0.0
1.9848629650450964e7 981358.3141213665 0.0
0.0 0.0 0.0

-3.8268974212044184e6 1.2921202831826927e7 0.0
1.2921202831826927e7 -336710.1935829505 0.0
0.0 0.0 0.0

2.2790158656375665e7 5.7967778384948885e6 0.0
5.7967778384948885e6 -3.4061151418243647e6 0.0
0.0 0.0 0.0

-948166.2282551526 1.4169926512217814e7 0.0
1.4169926512217814e7 -5.767216520325464e6 0.0
0.0 0.0 0.0

-1.0253989729413241e6 1.0079857848294249e7 0.0
1.0079857848294249e7 -1.08986386635378e6 0.0
0.0 0.0 0.0

-1.7090911778943185e6 1.6268245786834633e7 0.0
1.6268245786834633e7 -4.791580423059688e6 0.0
0.0 0.0 0.0

-5.908071942151246e6 1.6722373948966274e7 0.0
1.6722373948966274e7 -2.1175268266451033e6 0.0
0.0 0.0 0.0

508001.51161537785 7.816741173511687e6 0.0
7.816741173511687e6 -4.106739955442787e6 0.0
0.0 0.0 0.0

-5.336315344898185e6 1.5580572171655854e7 0.0
1.5580572171655854e7 9.542385164206717e6 0.0
0.0 0.0 0.0

-647653.6330468198 1.2277194862638611e7 0.0
1.2277194862638611e7 -1.2474380819796272e7 0.0
0.0 0.0 0.0

-1.1846143667885937e7 855134.610385398 0.0
855134.610385398 1.6497205295790585e7 0.0
0.0 0.0 0.0

-3.9326741447957437e6 1.683741877665376e7 0.0
1.683741877665376e7 -302692.32653424283 0.0
0.0 0.0 0.0

-2.44919427658614e6 1.232529260433312e7 0.0
1.232529260433312e7 -910561.4825418155 0.0
0.0 0.0 0.0

-3.3810771181217968e6 1.7199393674509518e7 0.0
1.7199393674509518e7 265472.76466362085 0.0
0.0 0.0 0.0

33676.7518773051 1.2945536891218565e7 0.0
1.2945536891218565e7 -7.546221654782971e6 0.0
0.0 0.0 0.0

-2.7250497310143085e6 6.552183440599596e6 0.0
6.552183440599596e6 1.958609609075497e6 0.0
0.0 0.0 0.0

-5.47096913094922e6 1.7771597998419505e7 0.0
1.7771597998419505e7 5.157746448444603e6 0.0
0.0 0.0 0.0

-6.555400942541562e6 1.5181552749767894e7 0.0
1.5181552749767894e7 1.1276258442070693e7 0.0
0.0 0.0 0.0

-6.155407743384963e6 1.516687704851803e7 0.0
1.516687704851803e7 8.193316478108776e6 0.0
0.0 0.0 0.0

-546328.8829560793 1.0984352719236003e7 0.0
1.0984352719236003e7 -4.378925591342195e6 0.0
0.0 0.0 0.0

2.625436427937775e6 9.835502422869172e6 0.0
9.835502422869172e6 -1.6909341742261905e7 0.0
0.0 0.0 0.0

-4.478343070653426e6 1.4002226047801875e7 0.0
1.4002226047801875e7 922960.4570898747 0.0
0.0 0.0 0.0

-518578.70143198967 1.3884012440797588e7 0.0
1.3884012440797588e7 -9.032034367018318e6 0.0
0.0 0.0 0.0

-261298.37448952394 1.2789502642876603e7 0.0
1.2789502642876603e7 -8.50142928499859e6 0.0
0.0 0.0 0.0

-2.889608261573198e6 1.7127600527991377e7 0.0
1.7127600527991377e7 -2.969611064911714e6 0.0
0.0 0.0 0.0

-1.511387804340642e6 1.4323087055344483e7 0.0
1.4323087055344483e7 -5.84626110072145e6 0.0
0.0 0.0 0.0

2.230314263261468e6 1.0021237089615116e7 0.0
1.0021237089615116e7 -1.3836865741479598e7 0.0
0.0 0.0 0.0

1.7369553701263282e6 6.260528093238529e6 0.0
6.260528093238529e6 -5.834053195306109e6 0.0
0.0 0.0 0.0

-226389.74497943686 5.838391430524942e6 0.0
5.838391430524942e6 -1.6169255698009338e6 0.0
0.0 0.0 0.0

-3.4130759685522816e6 2.1766259023633957e7 0.0
2.1766259023633957e7 1.9776839096768985e6 0.0
0.0 0.0 0.0

-4.302685666178143e6 1.3275778806971462e7 0.0
1.3275778806971462e7 610259.3980647451 0.0
0.0 0.0 0.0

-2.290199047069846e6 1.5041339574334556e7 0.0
1.5041339574334556e7 -4.390849062845832e6 0.0
0.0 0.0 0.0

3.395902906373854e6 4.886054775840667e6 0.0
4.886054775840667e6 -9.593730607512705e6 0.0
0.0 0.0 0.0

-1.1897997426201597e7 1.8554050029690545e6 0.0
1.8554050029690545e6 2.862850885768348e7 0.0
0.0 0.0 0.0

2.2657775064084968e6 8.436816440020978e6 0.0
8.436816440020978e6 -1.1020899639040777e7 0.0
0.0 0.0 0.0

-254706.79515323555 1.7736436567477014e7 0.0
1.7736436567477014e7 -4.914968851359796e6 0.0
0.0 0.0 0.0

-2.4590736905131815e6 1.814523649478128e7 0.0
1.814523649478128e7 -2.4395923757740157e6 0.0
0.0 0.0 0.0

-5.333070870573133e6 1.804281043453842e7 0.0
1.804281043453842e7 4.604229046144607e6 0.0
0.0 0.0 0.0

5.0501564741526935e6 4.7481564586818125e6 0.0
4.7481564586818125e6 -1.752418208358534e7 0.0
0.0 0.0 0.0

-2.273605525755462e6 1.5594118089076228e7 0.0
1.5594118089076228e7 -2.515611168431149e6 0.0
0.0 0.0 0.0

-2.2801321097044754e6 1.6393478003418561e7 0.0
1.6393478003418561e7 -3.093792606251971e6 0.0
0.0 0.0 0.0

3.9116619762519896e6 7.049473167528487e6 0.0
7.049473167528487e6 -1.6864780695066478e7 0.0
0.0 0.0 0.0

-3.528606670245681e6 1.827538481609014e7 0.0
1.827538481609014e7 -718339.3422611535 0.0
0.0 0.0 0.0

87221.90623326506 1.5235159127811765e7 0.0
1.5235159127811765e7 -6.728941809013031e6 0.0
0.0 0.0 0.0

-2.7773852179973107e6 1.5210165340271398e7 0.0
1.5210165340271398e7 -3.1116457829082087e6 0.0
0.0 0.0 0.0

1.2518955932401866e6 1.214319846771737e7 0.0
1.214319846771737e7 -1.6633714970661098e7 0.0
0.0 0.0 0.0

2.0895316304379231e6 6.5689872914705975e6 0.0
6.5689872914705975e6 -9.233702655277153e6 0.0
0.0 0.0 0.0

1.0499185731016495e6 9.704325366451265e6 0.0
9.704325366451265e6 -9.080550941446174e6 0.0
0.0 0.0 0.0

-1.960703140287605e6 1.5644641958286997e7 0.0
1.5644641958286997e7 -4.672720502340657e6 0.0
0.0 0.0 0.0

-354446.49014189374 1.5287158696483484e7 0.0
1.5287158696483484e7 -7.463626580117764e6 0.0
0.0 0.0 0.0

-1.8698985827958295e6 1.4626055683394415e7 0.0
1.4626055683394415e7 -5.1406619225587435e6 0.0
0.0 0.0 0.0

2.96200290907507e6 7.07847199465834e6 0.0
7.07847199465834e6 -9.394927742753346e6 0.0
0.0 0.0 0.0

4.81992580165712e6 5.497512494938455e6 0.0
5.497512494938455e6 -1.5267741398264224e7 0.0
0.0 0.0 0.0

135580.67813959625 1.2788891647671318e7 0.0
1.2788891647671318e7 -1.0005593154707382e7 0.0
0.0 0.0 0.0

615194.3128126948 1.0097157334620269e7 0.0
1.0097157334620269e7 -8.34307544595365e6 0.0
0.0 0.0 0.0

-3.534798569356248e6 1.2182428977306806e7 0.0
1.2182428977306806e7 -712290.0402438841 0.0
0.0 0.0 0.0

-8.093782032376641e6 1.909730458936972e7 0.0
1.909730458936972e7 5.953750984318401e6 0.0
0.0 0.0 0.0

-6.522300029249763e6 1.1408950111162432e7 0.0
1.1408950111162432e7 4.852125562632404e7 0.0
0.0 0.0 0.0

-1.1698416462038998e7 1.2963388956046775e6 0.0
1.2963388956046775e6 1.511508178601473e7 0.0
0.0 0.0 0.0

-2.2747058418596485e6 1.7142428062834848e7 0.0
1.7142428062834848e7 -4.757877121709116e6 0.0
0.0 0.0 0.0

-4.0539395988607355e6 1.2531431397877676e7 0.0
1.2531431397877676e7 249902.86551404116 0.0
0.0 0.0 0.0

-1.189228568419409e7 3.5162305325947655e6 0.0
3.5162305325947655e6 2.2575705402112916e7 0.0
0.0 0.0 0.0

4.505297825097331e6 5.551204851223964e6 0.0
5.551204851223964e6 -1.3982465157363292e7 0.0
0.0 0.0 0.0

-3.8671948078482635e6 1.3386759432959607e7 0.0
1.3386759432959607e7 2.0449439022203113e6 0.0
0.0 0.0 0.0

867258.5164655214 1.24555917536363e7 0.0
1.24555917536363e7 -1.3399819392024219e7 0.0
0.0 0.0 0.0

-1.964221831549773e6 1.6704544164819706e7 0.0
1.6704544164819706e7 -4.0089518950376427e6 0.0
0.0 0.0 0.0

-2.114473674548421e6 1.57556269655524e7 0.0
1.57556269655524e7 -2.99794260347536e6 0.0
0.0 0.0 0.0

-5.6620671344436845e6 1.1436563381589461e7 0.0
1.1436563381589461e7 3.460697048255637e6 0.0
0.0 0.0 0.0

-2.107124399555048e6 1.3010951597288946e7 0.0
1.3010951597288946e7 -1.996958499809362e6 0.0
0.0 0.0 0.0

-4.8820286690581795e6 7.023183884710709e6 0.0
7.023183884710709e6 2.9883545902290074e6 0.0
0.0 0.0 0.0

-3.116257154652415e7 1.6357495021426857e7 0.0
1.6357495021426857e7 1.0110623838368118e7 0.0
0.0 0.0 0.0

-738605.1775191072 1.4634005824886193e7 0.0
1.4634005824886193e7 7.419361250505939e6 0.0
0.0 0.0 0.0

-5.864582861444544e6 1.6617478950753076e7 0.0
1.6617478950753076e7 8.414427485419817e6 0.0
0.0 0.0 0.0

-3.9576436519154585e6 1.8403573849843547e7 0.0
1.8403573849843547e7 2.1171187088578027e6 0.0
0.0 0.0 0.0

2.7822605256666234e6 8.294376245478252e6 0.0
8.294376245478252e6 -1.3060657605650958e7 0.0
0.0 0.0 0.0

3.6364966443931973e6 7.32197254208196e6 0.0
7.32197254208196e6 -1.5354754022870537e7 0.0
0.0 0.0 0.0

3.912539643152587e6 8.349561982938527e6 0.0
8.349561982938527e6 -1.7679711986836527e7 0.0
0.0 0.0 0.0

-4.651091388789746e6 1.1608631692611704e7 0.0
1.1608631692611704e7 1.5535480650408245e6 0.0
0.0 0.0 0.0

-1.2814815270351578e7 7.68936656611623e6 0.0
7.68936656611623e6 1.6057576971619267e7 0.0
0.0 0.0 0.0

-4.196480001385132e6 7.829228800309023e6 0.0
7.829228800309023e6 4.1732939288366353e6 0.0
0.0 0.0 0.0

1.1599736964761901e6 1.4854023496762069e7 0.0
1.4854023496762069e7 -5.050939516236025e6 0.0
0.0 0.0 0.0

-282493.9235836095 1.2429294356237741e7 0.0
1.2429294356237741e7 -1.1908269519416878e7 0.0
0.0 0.0 0.0

-5.574922618986411e6 1.8076630502731502e7 0.0
1.8076630502731502e7 6.333898612245072e6 0.0
0.0 0.0 0.0

-1.3755146597196544e6 2.130585683728581e7 0.0
2.130585683728581e7 -1.708667482953778e6 0.0
0.0 0.0 0.0

-7.088182299287867e6 1.9309015021298513e7 0.0
1.9309015021298513e7 6.355312611883309e6 0.0
0.0 0.0 0.0

-7.655606193493367e6 1.4169072713621888e7 0.0
1.4169072713621888e7 1.3101330436567768e7 0.0
0.0 0.0 0.0

4.282548623667343e6 6.7280889713389585e6 0.0
6.7280889713389585e6 -2.6814891037821647e7 0.0
0.0 0.0 0.0

-5576.407088591717 1.2439024476193514e7 0.0
1.2439024476193514e7 -6.769744957193603e6 0.0
0.0 0.0 0.0

3.252865590672881e6 4.328383866548214e6 0.0
4.328383866548214e6 -8.515054852285884e6 0.0
0.0 0.0 0.0

4.333161478248641e6 7.485342348147711e6 0.0
7.485342348147711e6 -1.8071509009822283e7 0.0
0.0 0.0 0.0

-5.174693431343463e6 1.8299692641623408e7 0.0
1.8299692641623408e7 4.0498994766956437e6 0.0
0.0 0.0 0.0

-1.1037080151445441e7 8.073748694726809e6 0.0
8.073748694726809e6 1.561197260503675e7 0.0
0.0 0.0 0.0

-8.529127754781093e6 1.3731828736376131e7 0.0
1.3731828736376131e7 1.4229703245842032e7 0.0
0.0 0.0 0.0

-5.614082005878147e6 1.7076851614077684e7 0.0
1.7076851614077684e7 8.143280353338564e6 0.0
0.0 0.0 0.0

2.604317692484777e6 8.565166509124972e6 0.0
8.565166509124972e6 -9.911829467164751e6 0.0
0.0 0.0 0.0

-2.3031951645855135e6 1.708394810454793e7 0.0
1.708394810454793e7 -3.9435862482134746e6 0.0
0.0 0.0 0.0

-3.3445592838784703e6 2.1560368051290896e7 0.0
2.1560368051290896e7 789897.641124611 0.0
0.0 0.0 0.0

-5.232467491609069e6 1.9106238160984024e7 0.0
1.9106238160984024e7 5.395100973597763e6 0.0
0.0 0.0 0.0

-8.829259848741705e6 1.391929813740678e7 0.0
1.391929813740678e7 1.4862108992275435e7 0.0
0.0 0.0 0.0

-1.5849823264789967e7 3.7770586928229846e7 0.0
3.7770586928229846e7 -1.157686473340837e7 0.0
0.0 0.0 0.0

-3.6251849104437074e6 1.647792258876345e7 0.0
1.647792258876345e7 -4.836365548714225e6 0.0
0.0 0.0 0.0

-6.601637066688422e6 1.3259021398310713e7 0.0
1.3259021398310713e7 5.946327666102465e6 0.0
0.0 0.0 0.0

-4.981171230441608e6 3.166623292438988e6 0.0
3.166623292438988e6 4.4975386115079e6 0.0
0.0 0.0 0.0

-1.3143461618502992e6 1.3271383046278652e7 0.0
1.3271383046278652e7 -3.86646565669856e6 0.0
0.0 0.0 0.0

-4.0225425506269387e6 1.708626359977747e7 0.0
1.708626359977747e7 -2.523030003433046e6 0.0
0.0 0.0 0.0

-7.652487867316395e6 2.3009670789975032e7 0.0
2.3009670789975032e7 6.051551086271328e6 0.0
0.0 0.0 0.0

-1.5177622800022704e6 1.5003998053403622e7 0.0
1.5003998053403622e7 -4.527671289326144e6 0.0
0.0 0.0 0.0

-2.6497616219679294e6 1.6024066985731497e7 0.0
1.6024066985731497e7 -3.6244202592933467e6 0.0
0.0 0.0 0.0

-8.828291644075997e6 980352.1554424117 0.0
980352.1554424117 1.24347974046602e7 0.0
0.0 0.0 0.0

4.143278430400376e6 6.12654248246993e6 0.0
6.12654248246993e6 -1.2685981263578342e7 0.0
0.0 0.0 0.0

-3.0187147251677634e6 2.103467056439638e7 0.0
2.103467056439638e7 1.0948806163165262e6 0.0
0.0 0.0 0.0

-7.079122456385523e6 1.4685133786289597e7 0.0
1.4685133786289597e7 1.21774691131455e7 0.0
0.0 0.0 0.0

-6.796337075896126e6 1.7674039141113535e7 0.0
1.7674039141113535e7 -734559.3462389822 0.0
0.0 0.0 0.0

-19357.980263599893 5.598004777998064e6 0.0
5.598004777998064e6 -3.663026547785946e6 0.0
0.0 0.0 0.0

-4.6029224242398795e6 1.8134808272389837e7 0.0
1.8134808272389837e7 -3.765116340636787e6 0.0
0.0 0.0 0.0

-2.607386961127594e6 1.538187967645128e7 0.0
1.538187967645128e7 -3.580639547701462e6 0.0
0.0 0.0 0.0

479100.83541476587 1.2431790788248366e7 0.0
1.2431790788248366e7 -1.074259316728327e7 0.0
0.0 0.0 0.0

-1.8541141186360526e6 1.4465417792957412e7 0.0
1.4465417792957412e7 -3.1787943868737235e6 0.0
0.0 0.0 0.0

2.2526693769588573e6 8.775714529580798e6 0.0
8.775714529580798e6 -1.1394064760384757e7 0.0
0.0 0.0 0.0

-3.3969378296187315e6 1.5023982588416172e7 0.0
1.5023982588416172e7 491051.9263261338 0.0
0.0 0.0 0.0

-4.743309681438526e6 4.180557101416543e6 0.0
4.180557101416543e6 3.705649085679765e6 0.0
0.0 0.0 0.0

-7.757253491471087e6 9.066295033639094e6 0.0
9.066295033639094e6 1.1354651544676712e7 0.0
0.0 0.0 0.0

-5.121733944021457e6 1.1480106687511666e7 0.0
1.1480106687511666e7 5.256033928987103e6 0.0
0.0 0.0 0.0

-2.5677763422679626e6 1.2006554070407402e7 0.0
1.2006554070407402e7 -1.1027427091274189e7 0.0
0.0 0.0 0.0

-4.1636530929730637e6 1.1643528390368868e7 0.0
1.1643528390368868e7 3.174199630791438e6 0.0
0.0 0.0 0.0

-2.2606509734962665e7 2.0061246304767083e7 0.0
2.0061246304767083e7 5.7351411463082805e6 0.0
0.0 0.0 0.0

-4.597702163364202e6 1.28971374097007e7 0.0
1.28971374097007e7 1.2366425502658023e6 0.0
0.0 0.0 0.0

-504710.0501834576 1.4973611319372917e7 0.0
1.4973611319372917e7 -2.0729847019365793e6 0.0
0.0 0.0 0.0

-3.521625618387498e7 1.5223051932768354e7 0.0
1.5223051932768354e7 8.276652568670394e6 0.0
0.0 0.0 0.0

618346.3375796669 1.5133061253529498e7 0.0
1.5133061253529498e7 -6.0038042857012525e6 0.0
0.0 0.0 0.0

-3.121223734831067e6 1.2261520771918032e7 0.0
1.2261520771918032e7 648171.7836600854 0.0
0.0 0.0 0.0

1.8102254835667214e6 9.410318896998879e6 0.0
9.410318896998879e6 -8.617741332299478e6 0.0
0.0 0.0 0.0

-4.148804335645187e6 1.8727722997950938e7 0.0
1.8727722997950938e7 2.7938757060148325e6 0.0
0.0 0.0 0.0

1.8754861322833952e6 9.784237424770677e6 0.0
9.784237424770677e6 -1.1485136216924919e7 0.0
0.0 0.0 0.0

1.748342188131092e6 1.0375485226049611e7 0.0
1.0375485226049611e7 -1.219051745256831e7 0.0
0.0 0.0 0.0

-3.1207287184592495e6 6.684373838025697e6 0.0
6.684373838025697e6 578643.0243748855 0.0
0.0 0.0 0.0

-6.533718522851606e6 1.5274207944298215e7 0.0
1.5274207944298215e7 6.907791231285438e6 0.0
0.0 0.0 0.0

4.238093849941191e6 7.139273119300837e6 0.0
7.139273119300837e6 -1.5807301023462843e7 0.0
0.0 0.0 0.0

-7.531818707455245e6 4.504614519225696e6 0.0
4.504614519225696e6 1.0212141505695954e7 0.0
0.0 0.0 0.0

1.8317452704402292e6 1.0065487229276229e7 0.0
1.0065487229276229e7 -1.1849132673072219e7 0.0
0.0 0.0 0.0

-5.793200582504337e7 5.173981084041007e6 0.0
5.173981084041007e6 9.283906091835711e6 0.0
0.0 0.0 0.0

4.35445426737746e6 6.609675149471821e6 0.0
6.609675149471821e6 -2.520396190706583e7 0.0
0.0 0.0 0.0

-6.513410505819405e6 1.4133979287909886e7 0.0
1.4133979287909886e7 6.05683359197013e6 0.0
0.0 0.0 0.0

-6.140502010404665e6 1.5351362778100148e7 0.0
1.5351362778100148e7 5.285970028181416e6 0.0
0.0 0.0 0.0

-5.435755356778799e6 1.8933022812084775e7 0.0
1.8933022812084775e7 7.110134324732631e6 0.0
0.0 0.0 0.0

-2.103073772063963e6 1.3471063310083747e7 0.0
1.3471063310083747e7 -4.1602722183692623e6 0.0
0.0 0.0 0.0

-6.397942860227097e6 1.5299924228642471e7 0.0
1.5299924228642471e7 1.1076281328075163e7 0.0
0.0 0.0 0.0

888313.1452496857 1.122909523933697e7 0.0
1.122909523933697e7 -1.0001489000806194e7 0.0
0.0 0.0 0.0

3.155352488352147e6 8.440850385150768e6 0.0
8.440850385150768e6 -1.5278025036014857e7 0.0
0.0 0.0 0.0

-4.340653813533356e6 1.8543649280947387e7 0.0
1.8543649280947387e7 3.2667197712064306e6 0.0
0.0 0.0 0.0

-2.870140232679521e6 1.900862794133139e7 0.0
1.900862794133139e7 -2.191682615771312e6 0.0
0.0 0.0 0.0

4.1610907568488317e6 7.912017576272411e6 0.0
7.912017576272411e6 -2.0850880426661484e7 0.0
0.0 0.0 0.0

-4.459556983250543e6 9.504636722914299e6 0.0
9.504636722914299e6 4.1637844147482086e6 0.0
0.0 0.0 0.0

-6.33365073091187e6 1.9291182559710078e7 0.0
1.9291182559710078e7 6.63115029317267e6 0.0
0.0 0.0 0.0

-3.80646699599841e7 4.047534582627268e7 0.0
4.047534582627268e7 -1.1877436952472292e6 0.0
0.0 0.0 0.0

-1.212038247511256e7 4.883109155546111e6 0.0
4.883109155546111e6 1.993630967568018e7 0.0
0.0 0.0 0.0

-1.4872451701416092e6 1.1333734641286017e7 0.0
1.1333734641286017e7 -9.930188173141697e6 0.0
0.0 0.0 0.0

365431.9449440085 5.536732925551008e6 0.0
5.536732925551008e6 -2.3904866682920023e6 0.0
0.0 0.0 0.0

-5.996663880682594e6 -8.409385124367246e6 0.0
-8.409385124367246e6 1.5252896415505486e7 0.0
0.0 0.0 0.0

5.536959611741175e6 3.9004760209778342e6 0.0
3.9004760209778342e6 -1.7975440256474793e7 0.0
0.0 0.0 0.0

-4.0732131017132443e6 1.6758160338373851e7 0.0
1.6758160338373851e7 1.5911013466382464e6 0.0
0.0 0.0 0.0

212423.27032723837 1.2983610842433358e7 0.0
1.2983610842433358e7 -1.2790238741768235e7 0.0
0.0 0.0 0.0

-1.1535766919242922e7 1.110613272025817e7 0.0
1.110613272025817e7 1.9664443647404537e7 0.0
0.0 0.0 0.0

-1.9864907539459656e6 1.6696028379246473e7 0.0
1.6696028379246473e7 -5.53248287603444e6 0.0
0.0 0.0 0.0

1.9024327374061448e6 9.497496106413232e6 0.0
9.497496106413232e6 -1.1112629580491329e7 0.0
0.0 0.0 0.0

-8.555634531933682e6 1.2481068092254141e7 0.0
1.2481068092254141e7 2.5717343473709367e7 0.0
0.0 0.0 0.0

-2.557751573324119e6 1.3354547999821512e7 0.0
1.3354547999821512e7 -1.1115809239961514e6 0.0
0.0 0.0 0.0

-6.640640531940704e6 1.4547317978037367e7 0.0
1.4547317978037367e7 1.6447562463653974e7 0.0
0.0 0.0 0.0

210719.1225728849 1.3198135588226682e7 0.0
1.3198135588226682e7 -1.2106084551805303e7 0.0
0.0 0.0 0.0

4.0482760530400924e7 7.033932859259897e6 0.0
7.033932859259897e6 -1.6812739785891548e6 0.0
0.0 0.0 0.0

-2.2391508494602055e6 1.711040109660298e7 0.0
1.711040109660298e7 -3.2608028837596606e6 0.0
0.0 0.0 0.0

-2.629667731175338e6 2.091679298786357e7 0.0
2.091679298786357e7 460711.47617285687 0.0
0.0 0.0 0.0

1.5696460388163696e6 1.015891035618376e7 0.0
1.015891035618376e7 -1.0812990744303972e7 0.0
0.0 0.0 0.0

2.467784823899409e6 9.52221010567083e6 0.0
9.52221010567083e6 -1.106989611147031e7 0.0
0.0 0.0 0.0

-1.6651163317893546e6 1.3117394400991356e7 0.0
1.3117394400991356e7 -5.002045511372975e6 0.0
0.0 0.0 0.0

-1.1607343520769132e7 5.614711949513172e6 0.0
5.614711949513172e6 1.6322664220169269e7 0.0
0.0 0.0 0.0

111041.5969404662 1.2397583985522762e7 0.0
1.2397583985522762e7 -1.611902994329683e7 0.0
0.0 0.0 0.0

3.0844148427728857e6 4.277230829512736e6 0.0
4.277230829512736e6 -8.007919792989131e6 0.0
0.0 0.0 0.0

883382.3908886756 1.1741290267321572e7 0.0
1.1741290267321572e7 -1.0725705599644985e7 0.0
0.0 0.0 0.0

-1.8634900949857585e7 2.123973522020825e7 0.0
2.123973522020825e7 1.0958043901432492e7 0.0
0.0 0.0 0.0

-2.010029710815778e6 9.045118945195567e6 0.0
9.045118945195567e6 -2.2548794339590105e6 0.0
0.0 0.0 0.0

-7.230431764882185e6 1.2677497809000952e7 0.0
1.2677497809000952e7 3.1373558002916753e7 0.0
0.0 0.0 0.0

-4.816932990227992e6 1.5424150394175772e7 0.0
1.5424150394175772e7 8.692092202295486e6 0.0
0.0 0.0 0.0

2.830685902049436e6 1.4469113785052953e7 0.0
1.4469113785052953e7 91544.83209865936 0.0
0.0 0.0 0.0

-5.738727850884698e6 1.9166863511615723e7 0.0
1.9166863511615723e7 6.847657016903477e6 0.0
0.0 0.0 0.0

-2.4176544902037564e6 1.751109665740454e7 0.0
1.751109665740454e7 -2.410404467076336e6 0.0
0.0 0.0 0.0

-5.383825745672632e6 1.8881861383784518e7 0.0
1.8881861383784518e7 5.812521079368945e6 0.0
0.0 0.0 0.0

-1.0873709343646651e7 6.020071148144277e6 0.0
6.020071148144277e6 1.510594643313628e7 0.0
0.0 0.0 0.0

-8.171939466311286e6 1.0662806862256186e7 0.0
1.0662806862256186e7 1.2087154084536742e7 0.0
0.0 0.0 0.0

-4.665389904159587e6 4.890845629967274e6 0.0
4.890845629967274e6 2.8957779124361165e6 0.0
0.0 0.0 0.0

7.800849566559823e6 1.0198285434619809e7 0.0
1.0198285434619809e7 1.1908443568083632e6 0.0
0.0 0.0 0.0

165852.21858968772 1.3437849920915721e7 0.0
1.3437849920915721e7 -1.1452811608848462e7 0.0
0.0 0.0 0.0

-2.56856185342175e6 1.7440776572894376e7 0.0
1.7440776572894376e7 -1.9378481854735832e6 0.0
0.0 0.0 0.0

-4.974584043235682e6 1.8506600263756298e7 0.0
1.8506600263756298e7 3.5090029173199674e6 0.0
0.0 0.0 0.0

-6.761180340406223e6 -2.852757781619074e6 0.0
-2.852757781619074e6 8.630127517084558e6 0.0
0.0 0.0 0.0

-5.034515989041671e6 1.957597993033917e7 0.0
1.957597993033917e7 4.535256206627769e6 0.0
0.0 0.0 0.0

-3.6208465252212957e6 1.2602268418482466e7 0.0
1.2602268418482466e7 1.6756695313520166e6 0.0
0.0 0.0 0.0

-5.270048335765772e6 2.0020852008951172e7 0.0
2.0020852008951172e7 5.329844776149358e6 0.0
0.0 0.0 0.0

3.0953890118370177e6 1.3612072246913014e7 0.0
1.3612072246913014e7 -905514.015303138 0.0
0.0 0.0 0.0

-2.7577838582923007e6 1.9751563568203297e7 0.0
1.9751563568203297e7 -420310.59549253265 0.0
0.0 0.0 0.0

4.423971647593879e6 5.552163523550584e6 0.0
5.552163523550584e6 -1.5380456256581824e7 0.0
0.0 0.0 0.0

-1.2054917395106034e7 4.863068558435887e6 0.0
4.863068558435887e6 1.869782220831195e7 0.0
0.0 0.0 0.0

625340.3009648705 1.4135632111079164e7 0.0
1.4135632111079164e7 -8.046940402633841e6 0.0
0.0 0.0 0.0

86210.7960483376 1.3735934401555559e7 0.0
1.3735934401555559e7 -1.0751943121289523e7 0.0
0.0 0.0 0.0

-2.287735838330676e6 1.26732449373255e7 0.0
1.26732449373255e7 -1.4630747859322608e6 0.0
0.0 0.0 0.0

-3.6914590627739117e6 1.5760579691947702e7 0.0
1.5760579691947702e7 3.3271117248586104e6 0.0
0.0 0.0 0.0

-1.461051754136136e6 1.7202418840772375e7 0.0
1.7202418840772375e7 -5.008363123907044e6 0.0
0.0 0.0 0.0

556918.1333693485 1.2892252317354817e7 0.0
1.2892252317354817e7 -7.157223185046915e6 0.0
0.0 0.0 0.0

-9.571992722082637e6 8.670250505786005e6 0.0
8.670250505786005e6 1.1208868485944722e7 0.0
0.0 0.0 0.0

3.3642219600912994e6 8.308161989832278e6 0.0
8.308161989832278e6 -1.297391338124782e7 0.0
0.0 0.0 0.0

306349.2795503647 1.3373107982041394e7 0.0
1.3373107982041394e7 -1.1181698818993624e7 0.0
0.0 0.0 0.0

-1.6206622731733653e6 1.4857663559327342e7 0.0
1.4857663559327342e7 8.769304399297047e6 0.0
0.0 0.0 0.0

-2.581104257243756e6 1.4650393434541088e7 0.0
1.4650393434541088e7 -3.454527303038676e6 0.0
0.0 0.0 0.0

4.719870958061537e6 6.819857573979366e6 0.0
6.819857573979366e6 -2.0113198950861122e7 0.0
0.0 0.0 0.0

5.405179386005584e6 5.59206819726552e6 0.0
5.59206819726552e6 -2.5401608330309942e7 0.0
0.0 0.0 0.0

-6.177260315994075e6 1.1878216643455734e7 0.0
1.1878216643455734e7 4.634151047298241e6 0.0
0.0 0.0 0.0

-4.765682824243925e6 1.8702759607484132e7 0.0
1.8702759607484132e7 3.017193347307001e6 0.0
0.0 0.0 0.0

-9.918832448735502e6 -241212.56758090827 0.0
-241212.56758090827 1.5535891764724674e7 0.0
0.0 0.0 0.0

-7.468889559710473e6 1.1090621066046806e7 0.0
1.1090621066046806e7 7.527817663920106e6 0.0
0.0 0.0 0.0

-6.402593845023373e6 1.4920040808880176e7 0.0
1.4920040808880176e7 6.128478898878563e6 0.0
0.0 0.0 0.0

3.1145002404024145e6 8.427705843853937e6 0.0
8.427705843853937e6 -1.1942024218791245e7 0.0
0.0 0.0 0.0

5.536385492531478e6 3.787047825652814e6 0.0
3.787047825652814e6 -1.842756804250475e7 0.0
0.0 0.0 0.0

-6.064530100586731e6 1.412536506920535e7 0.0
1.412536506920535e7 7.562508369824651e6 0.0
0.0 0.0 0.0

-5.13892821889947e6 1.406107916094707e7 0.0
1.406107916094707e7 4.002266532401426e7 0.0
0.0 0.0 0.0

-5.386145652869612e6 1.5682411050566083e7 0.0
1.5682411050566083e7 5.796116998274521e6 0.0
0.0 0.0 0.0

-2.699798944299821e6 1.784384812417548e7 0.0
1.784384812417548e7 -1.746300436283085e6 0.0
0.0 0.0 0.0

1.5540590249462733e6 1.065900827558915e7 0.0
1.065900827558915e7 -1.136022475936667e7 0.0
0.0 0.0 0.0

-3.463028168880399e6 1.9180278869152714e7 0.0
1.9180278869152714e7 1.041524179851718e6 0.0
0.0 0.0 0.0

-4.526870591696398e6 1.8339870720717043e7 0.0
1.8339870720717043e7 3.769754629357669e6 0.0
0.0 0.0 0.0

1.7358692803271255e6 1.3964583875271972e7 0.0
1.3964583875271972e7 1.5435296521502808e7 0.0
0.0 0.0 0.0

3.137916882782602e6 4.268558369249455e6 0.0
4.268558369249455e6 -8.423961534317484e6 0.0
0.0 0.0 0.0

289375.35242778924 1.567095649339942e7 0.0
1.567095649339942e7 -6.236029102417603e6 0.0
0.0 0.0 0.0

3.9677098345830096e6 4.806944620960874e6 0.0
4.806944620960874e6 -1.2190704015097186e7 0.0
0.0 0.0 0.0

-7.614993896280563e6 7.6539327224466475e6 0.0
7.6539327224466475e6 1.1308682182846066e7 0.0
0.0 0.0 0.0

-5.397554339350046e6 1.7565547243508354e7 0.0
1.7565547243508354e7 4.514877862378312e6 0.0
0.0 0.0 0.0

-2.0821450279059797e6 1.5034573094541682e7 0.0
1.5034573094541682e7 -2.8534827681669565e6 0.0
0.0 0.0 0.0

2.587210022077553e6 8.88775956754617e6 0.0
8.88775956754617e6 -1.029565208502772e7 0.0
0.0 0.0 0.0

336625.77929043677 1.3374936303448375e7 0.0
1.3374936303448375e7 -8.0353079865528215e6 0.0
0.0 0.0 0.0

-2.935785270913073e6 1.822070746416192e7 0.0
1.822070746416192e7 -1.0396953660846367e6 0.0
0.0 0.0 0.0

-1.118449586260305e7 816002.7796228571 0.0
816002.7796228571 1.8909082094301775e7 0.0
0.0 0.0 0.0

-8.221395326832656e6 1.2096938781179031e7 0.0
1.2096938781179031e7 1.2489730922375929e7 0.0
0.0 0.0 0.0

-8.784561920475405e6 5.010745253699134e6 0.0
5.010745253699134e6 1.2478559977856366e7 0.0
0.0 0.0 0.0

-4.332501294543218e6 1.2090438210804438e7 0.0
1.2090438210804438e7 871362.437702396 0.0
0.0 0.0 0.0

-5.053303536765445e6 1.865129760016787e7 0.0
1.865129760016787e7 6.177054550656628e6 0.0
0.0 0.0 0.0

-3.382594476030898e6 1.4522918328901457e7 0.0
1.4522918328901457e7 -1.6058158994456755e6 0.0
0.0 0.0 0.0

-4.296175092160281e6 1.912131551805721e7 0.0
1.912131551805721e7 1.6651187407573594e6 0.0
0.0 0.0 0.0

-3.981411381030555e6 6.774842449586443e6 0.0
6.774842449586443e6 1.70798098622935e6 0.0
0.0 0.0 0.0

-7.778248276247671e6 1.0360641071320083e7 0.0
1.0360641071320083e7 1.1289270123892337e7 0.0
0.0 0.0 0.0

-4.606790270759809e6 1.886977605447871e7 0.0
1.886977605447871e7 2.571625947197306e6 0.0
0.0 0.0 0.0

-1.0074438878696593e6 1.6521594008316468e7 0.0
1.6521594008316468e7 -6.271567006121447e6 0.0
0.0 0.0 0.0

3.01793203436871e6 1.647130250634545e7 0.0
1.647130250634545e7 8.753580885906957e6 0.0
0.0 0.0 0.0

-3.8653386279517184e6 1.2154210645018252e7 0.0
1.2154210645018252e7 2.4205200570378527e6 0.0
0.0 0.0 0.0

-54478.458674085094 1.8287778769518536e7 0.0
1.8287778769518536e7 -4.382935332257417e6 0.0
0.0 0.0 0.0

-4.957336962127536e6 1.2961367492564192e7 0.0
1.2961367492564192e7 4.629381760498379e6 0.0
0.0 0.0 0.0

-7.974396251117671e6 1.1814305752693145e7 0.0
1.1814305752693145e7 1.1821329830904929e7 0.0
0.0 0.0 0.0

-3.403466782650325e6 7.520074581142119e6 0.0
7.520074581142119e6 2.8152652282724474e6 0.0
0.0 0.0 0.0

-4.45883313468374e6 1.9002496210505713e7 0.0
1.9002496210505713e7 2.0867345906446583e6 0.0
0.0 0.0 0.0

4.560912567734756e6 6.2860449390261695e6 0.0
6.2860449390261695e6 -1.5055544571360063e7 0.0
0.0 0.0 0.0

3.9619946355250636e6 7.436272387054339e6 0.0
7.436272387054339e6 -1.4254717927810915e7 0.0
0.0 0.0 0.0

-5.265779393278638e6 1.86336482538812e7 0.0
1.86336482538812e7 7.285881298604697e6 0.0
0.0 0.0 0.0

122621.52230151673 9.67254010485497e6 0.0
9.67254010485497e6 -5.361730462696584e6 0.0
0.0 0.0 0.0

2.5399218632196905e6 9.22156246488436e6 0.0
9.22156246488436e6 -1.067384959473792e7 0.0
0.0 0.0 0.0

-3.8025307907799156e6 2.0392826284561824e7 0.0
2.0392826284561824e7 1.5189984625259428e6 0.0
0.0 0.0 0.0

-3.2648640580108035e6 1.8879449774474166e7 0.0
1.8879449774474166e7 374595.17481706943 0.0
0.0 0.0 0.0

-2.423976141149423e6 1.5527178554758139e7 0.0
1.5527178554758139e7 -3.9788820120456833e6 0.0
0.0 0.0 0.0

369300.7249438716 1.2840470408041568e7 0.0
1.2840470408041568e7 -1.5088052271123096e7 0.0
0.0 0.0 0.0

-4.615726441089603e6 2.0703413728247028e7 0.0
2.0703413728247028e7 3.4718594710229496e6 0.0
0.0 0.0 0.0

-8.370677249280794e6 1.2361778691393012e7 0.0
1.2361778691393012e7 1.2866681589883858e7 0.0
0.0 0.0 0.0

2.5677869490230246e6 6.583894353475803e6 0.0
6.583894353475803e6 -1.0139805453480253e7 0.0
0.0 0.0 0.0

-3.2840845021285554e6 2.1807014861046042e7 0.0
2.1807014861046042e7 1.6307861991462065e6 0.0
0.0 0.0 0.0

-3.7461353910381417e6 1.5768138742443986e7 0.0
1.5768138742443986e7 7.1385756753865415e6 0.0
0.0 0.0 0.0

-3.1041102278508623e6 1.855448501386476e7 0.0
1.855448501386476e7 -275625.6769906973 0.0
0.0 0.0 0.0

-15791.42790785944 1.403596963376122e7 0.0
1.403596963376122e7 -1.0087668079749322e7 0.0
0.0 0.0 0.0

-3.825685945113008e6 1.9386630998146605e7 0.0
1.9386630998146605e7 2.0923600334746386e6 0.0
0.0 0.0 0.0

-5.690476850555386e6 1.6217994697450068e7 0.0
1.6217994697450068e7 9.801330477319961e6 0.0
0.0 0.0 0.0

-3.909497436104165e6 1.93051649647461e7 0.0
1.93051649647461e7 871955.0496051027 0.0
0.0 0.0 0.0

-1.2703025967377115e6 2.2985557460106995e7 0.0
2.2985557460106995e7 -651483.3380476373 0.0
0.0 0.0 0.0

-1.1768933792493412e7 9.347622952369671e6 0.0
9.347622952369671e6 1.6595486601610407e7 0.0
0.0 0.0 0.0

2.1859841289617657e6 9.91944711799056e6 0.0
9.91944711799056e6 -1.0438063950027084e7 0.0
0.0 0.0 0.0

-1.1936212267556615e7 6.278503903665641e6 0.0
6.278503903665641e6 1.6884273685850523e7 0.0
0.0 0.0 0.0

-8.300386175540517e6 9.426917772347048e6 0.0
9.426917772347048e6 9.318046742306717e6 0.0
0.0 0.0 0.0

-627324.2251304933 -1.1852816753711468e6 0.0
-1.1852816753711468e6 995454.0915813337 0.0
0.0 0.0 0.0

-421528.8490953379 -1.3418087865135456e6 0.0
-1.3418087865135456e6 1.8195801034755306e6 0.0
0.0 0.0 0.0

-1.1936701301349623e7 1.0067944016966315e7 0.0
1.0067944016966315e7 1.6881148518314194e7 0.0
0.0 0.0 0.0

3.7843423302295096e6 1.5263343227133648e7 0.0
1.5263343227133648e7 4.61784229099142e6 0.0
0.0 0.0 0.0

-2.971440379949628e6 1.944190886173692e7 0.0
1.944190886173692e7 -63641.43169594242 0.0
0.0 0.0 0.0

-2.0613889300110913e6 1.5928063110528678e7 0.0
1.5928063110528678e7 -3.5026347367797233e6 0.0
0.0 0.0 0.0

2.1248604000920826e6 1.0190269835166428e7 0.0
1.0190269835166428e7 -1.085585745214555e7 0.0
0.0 0.0 0.0

1.6971849845064147e6 1.4103410765072815e7 0.0
1.4103410765072815e7 1.2835173793842223e7 0.0
0.0 0.0 0.0

-4.434683040487157e6 2.1064660798003647e7 0.0
2.1064660798003647e7 4.306833312102061e6 0.0
0.0 0.0 0.0

-3.82748832330281e6 2.070365167932387e7 0.0
2.070365167932387e7 1.664943582554047e6 0.0
0.0 0.0 0.0

-3.6906125650640046e6 2.1063587105274368e7 0.0
2.1063587105274368e7 1.7136934142849436e6 0.0
0.0 0.0 0.0

-7.136103640458482e6 1.4315809535312036e7 0.0
1.4315809535312036e7 8.402665180265587e6 0.0
0.0 0.0 0.0

-6.6517927453365605e6 1.2299906266212652e7 0.0
1.2299906266212652e7 5.759918898338253e6 0.0
0.0 0.0 0.0

-5.496307717997803e6 8.16600314441197e6 0.0
8.16600314441197e6 3.7143067668376225e6 0.0
0.0 0.0 0.0

-5.570788872928067e6 1.7012001185913555e7 0.0
1.7012001185913555e7 7.286263336878406e6 0.0
0.0 0.0 0.0

-5.636053545091736e6 1.187041975430873e7 0.0
1.187041975430873e7 6.447904838365418e6 0.0
0.0 0.0 0.0

-1.2470826932222929e7 9.349925578147689e6 0.0
9.349925578147689e6 1.819485763220038e7 0.0
0.0 0.0 0.0

2.0698024535531346e6 1.050646577651405e7 0.0
1.050646577651405e7 -1.1174783863447255e7 0.0
0.0 0.0 0.0

-6.5901727597430255e6 1.5556431334842078e7 0.0
1.5556431334842078e7 7.524715532195527e6 0.0
0.0 0.0 0.0

-1.230691320906483e7 7.792512197755685e6 0.0
7.792512197755685e6 1.8835995822841175e7 0.0
0.0 0.0 0.0

-938492.365314919 1.4644592820924528e7 0.0
1.4644592820924528e7 7.627845714205866e6 0.0
0.0 0.0 0.0

-5.450362761237514e6 1.2904454133624816e7 0.0
1.2904454133624816e7 2.99074981073746e6 0.0
0.0 0.0 0.0

-3.831587218472922e6 1.9760769710139185e7 0.0
1.9760769710139185e7 2.2996653849264625e6 0.0
0.0 0.0 0.0

-3.795760111231916e6 1.8981227750421666e7 0.0
1.8981227750421666e7 1.8735564152381287e6 0.0
0.0 0.0 0.0

-5.513768812787559e6 1.6733299229275517e7 0.0
1.6733299229275517e7 9.136833711888215e6 0.0
0.0 0.0 0.0

179946.50425607525 1.3235910209266094e7 0.0
1.3235910209266094e7 -1.3210229465151766e7 0.0
0.0 0.0 0.0

-5.725556882709917e6 1.6989036105630543e7 0.0
1.6989036105630543e7 5.734058325562252e6 0.0
0.0 0.0 0.0

-7.822514784289896e6 1.311429517980538e7 0.0
1.311429517980538e7 1.1988655665237164e7 0.0
0.0 0.0 0.0

-1.897679532395315e6 1.5415265797611278e7 0.0
1.5415265797611278e7 -3.8069326738904524e6 0.0
0.0 0.0 0.0

-2.365687613061061e6 2.129923056285306e7 0.0
2.129923056285306e7 413844.7337987466 0.0
0.0 0.0 0.0

-5.411182045960592e6 1.7256699532601796e7 0.0
1.7256699532601796e7 8.533618855274722e6 0.0
0.0 0.0 0.0

-2.0632543916603269e6 1.5165399037971145e7 0.0
1.5165399037971145e7 -4.78276085281341e6 0.0
0.0 0.0 0.0

3.774110920517454e6 7.780382108823048e6 0.0
7.780382108823048e6 -1.4631005596246414e7 0.0
0.0 0.0 0.0

-6.282406780772867e6 1.4425319250504306e7 0.0
1.4425319250504306e7 8.317954314825498e6 0.0
0.0 0.0 0.0

-1.147208343435306e6 1.813757068023467e7 0.0
1.813757068023467e7 -4.14864883526272e6 0.0
0.0 0.0 0.0

2.6884999235575874e6 4.349121677165718e6 0.0
4.349121677165718e6 -6.886132752856649e6 0.0
0.0 0.0 0.0

3.702377819386728e6 7.842046107800562e6 0.0
7.842046107800562e6 -1.862787021452505e7 0.0
0.0 0.0 0.0

-956265.8925959659 1.4463403958903536e7 0.0
1.4463403958903536e7 -6.1089047195139015e6 0.0
0.0 0.0 0.0

3.0153232917557014e6 1.6058184117005313e7 0.0
1.6058184117005313e7 6.518322402064897e6 0.0
0.0 0.0 0.0

3.235693754044147e6 8.05413171776416e6 0.0
8.05413171776416e6 -1.5064833137775734e7 0.0
0.0 0.0 0.0

2.9116131687244354e6 8.767593742223324e6 0.0
8.767593742223324e6 -1.4702795155398574e7 0.0
0.0 0.0 0.0

-7519.054165246664 1.2863941663604198e7 0.0
1.2863941663604198e7 2.848709085110488e6 0.0
0.0 0.0 0.0

-1.1440138452423789e7 2.0899955938079732e6 0.0
2.0899955938079732e6 1.806438838248329e7 0.0
0.0 0.0 0.0

-6.762252100382691e6 8.48828335853576e6 0.0
8.48828335853576e6 6.273738917064552e6 0.0
0.0 0.0 0.0

-3.6737708576803673e6 1.4091888863552252e7 0.0
1.4091888863552252e7 -2.303477910645738e7 0.0
0.0 0.0 0.0

-7.353633286536461e6 1.2177151154346619e7 0.0
1.2177151154346619e7 7.667421413672423e6 0.0
0.0 0.0 0.0

-1.1371602684440667e7 6.368710695019313e6 0.0
6.368710695019313e6 1.3175200613184758e7 0.0
0.0 0.0 0.0

-1.092166284290304e6 1.491487573077759e7 0.0
1.491487573077759e7 7.008281384057602e6 0.0
0.0 0.0 0.0

-5.664337441972932e6 -8.431897850073252e6 0.0
-8.431897850073252e6 1.4303590546597013e7 0.0
0.0 0.0 0.0

-6.69147527387559e6 1.450759274807192e7 0.0
1.450759274807192e7 6.921630351615362e6 0.0
0.0 0.0 0.0

-5.131000713660133e6 1.8723535941495713e7 0.0
1.8723535941495713e7 6.62208208341932e6 0.0
0.0 0.0 0.0

-187005.9548820057 1.3355674928276945e7 0.0
1.3355674928276945e7 -9.554510655977387e6 0.0
0.0 0.0 0.0

-2.224620378843824e6 1.4168072516745045e6 0.0
1.4168072516745045e6 1.0744439296939273e6 0.0
0.0 0.0 0.0

-4.727292177522357e6 7.833143863253933e6 0.0
7.833143863253933e6 2.38595724935313e6 0.0
0.0 0.0 0.0

3.8938773315557893e6 7.200336544053551e6 0.0
7.200336544053551e6 -2.889159747362116e7 0.0
0.0 0.0 0.0

-1.5173352431333323e6 2.1451291388893172e7 0.0
2.1451291388893172e7 -579521.9835058061 0.0
0.0 0.0 0.0

-1.1851841059235862e7 7.8473472034753e6 0.0
7.8473472034753e6 2.3435462663315486e7 0.0
0.0 0.0 0.0

-2.9554879577303063e6 1.4000525093733007e7 0.0
1.4000525093733007e7 -7.435316228935891e6 0.0
0.0 0.0 0.0

-1.2180451309075698e7 5.593419024305289e6 0.0
5.593419024305289e6 1.4394140453990798e7 0.0
0.0 0.0 0.0

-6.894849679799264e6 1.9332122661916055e7 0.0
1.9332122661916055e7 1.3664033136218213e6 0.0
0.0 0.0 0.0

-572288.8952110894 1.4620935576023614e7 0.0
1.4620935576023614e7 -3.124086131499567e6 0.0
0.0 0.0 0.0

-175003.64651076822 1.4258950748548698e7 0.0
1.4258950748548698e7 6.7228968555098595e6 0.0
0.0 0.0 0.0

3.9499709026400615e6 7.400017310927752e6 0.0
7.400017310927752e6 -1.9379926936715838e7 0.0
0.0 0.0 0.0

-4.727467013088801e6 1.2493192054714518e7 0.0
1.2493192054714518e7 -3.563207793907569e6 0.0
0.0 0.0 0.0

-2.0963478755449518e6 2.4078921597911928e7 0.0
2.4078921597911928e7 -2.582992149931047e6 0.0
0.0 0.0 0.0

-6.421584705741873e6 1.467510645199337e7 0.0
1.467510645199337e7 8.952146571910542e6 0.0
0.0 0.0 0.0

-7.288499534330607e6 -8.241998555477064e6 0.0
-8.241998555477064e6 1.777922915232823e7 0.0
0.0 0.0 0.0

-3.589219993670265e6 1.4789365159903478e7 0.0
1.4789365159903478e7 8.579457346813368e6 0.0
0.0 0.0 0.0

-4.915796552934572e6 1.8586271827378105e7 0.0
1.8586271827378105e7 -1.4365475535075958e6 0.0
0.0 0.0 0.0

-3.0598129717082353e6 7.440141535287614e6 0.0
7.440141535287614e6 176084.41751392803 0.0
0.0 0.0 0.0

-2.0168294553598193e6 1.508006977143634e7 0.0
1.508006977143634e7 1.661923862702206e7 0.0
0.0 0.0 0.0

-9.022246347278709e6 1.128571439500179e7 0.0
1.128571439500179e7 1.1004786324697714e7 0.0
0.0 0.0 0.0

-8.790919134365425e6 9.69184199566854e6 0.0
9.69184199566854e6 1.0283349873963814e7 0.0
0.0 0.0 0.0

-1.2025592653454984e7 6.068828624707944e6 0.0
6.068828624707944e6 2.3299235842700567e7 0.0
0.0 0.0 0.0

-4.429073972258043e6 1.51252605360355e7 0.0
1.51252605360355e7 1.0803219745216535e7 0.0
0.0 0.0 0.0

-7.422520897002753e6 2.1158053690179024e7 0.0
2.1158053690179024e7 6.221777943445966e6 0.0
0.0 0.0 0.0

-3.951760258494037e6 2.2220636364563886e7 0.0
2.2220636364563886e7 1.8045240690921391e6 0.0
0.0 0.0 0.0

-6.306934111725979e6 1.616756050766728e7 0.0
1.616756050766728e7 7.484762133667937e6 0.0
0.0 0.0 0.0

2.468403142599331e6 4.235478444478482e6 0.0
4.235478444478482e6 -6.302298665785405e6 0.0
0.0 0.0 0.0

2.715015339654087e6 9.437654053915288e6 0.0
9.437654053915288e6 -1.2064322883871377e7 0.0
0.0 0.0 0.0

2.2228813777812775e6 9.316187133469375e6 0.0
9.316187133469375e6 -9.665185774680955e6 0.0
0.0 0.0 0.0

-6.947470875260584e6 1.2767291693010123e7 0.0
1.2767291693010123e7 6.808975543169667e6 0.0
0.0 0.0 0.0

-7.57050071336214e6 2.820543931970431e7 0.0
2.820543931970431e7 -1.6528073162719775e6 0.0
0.0 0.0 0.0

-4.540020394457693e6 5.9920427520681145e6 0.0
5.9920427520681145e6 2.238391926000418e6 0.0
0.0 0.0 0.0

-2.629346295795235e6 2.0097118424145225e7 0.0
2.0097118424145225e7 -345137.83683070116 0.0
0.0 0.0 0.0

-1.2647282608519008e6 1.8693777594041087e7 0.0
1.8693777594041087e7 -3.4841390845664856e6 0.0
0.0 0.0 0.0

-2.5443334307058845e6 8.0323949895849405e6 0.0
8.0323949895849405e6 1.061805044593017e6 0.0
0.0 0.0 0.0

-491647.9839721278 1.1491536732396562e7 0.0
1.1491536732396562e7 -61844.569995014914 0.0
0.0 0.0 0.0

7.042145831146948e6 1.6091860321771717e7 0.0
1.6091860321771717e7 7.403350580341456e6 0.0
0.0 0.0 0.0

2.355097958230675e6 1.5471620477035344e7 0.0
1.5471620477035344e7 1.4499654483654257e7 0.0
0.0 0.0 0.0

-1.0062733206471284e6 1.4347802247025246e7 0.0
1.4347802247025246e7 6.131899185490566e6 0.0
0.0 0.0 0.0

-8.650753961026587e6 1.0965882334113691e7 0.0
1.0965882334113691e7 1.0261439149636596e7 0.0
0.0 0.0 0.0

-6.460503974288459e6 2.6668499469286032e7 0.0
2.6668499469286032e7 -504351.4667079062 0.0
0.0 0.0 0.0

-1.0398945138906015e7 1.984013542994377e7 0.0
1.984013542994377e7 2.4960752481402205e6 0.0
0.0 0.0 0.0

-9.215744065784916e6 1.0003097930952825e7 0.0
1.0003097930952825e7 1.11212539573384e7 0.0
0.0 0.0 0.0

2.4232933521094304e6 1.0139349585507931e7 0.0
1.0139349585507931e7 -1.9871111761767473e7 0.0
0.0 0.0 0.0

5.752840471527529e6 3.5713724055936984e6 0.0
3.5713724055936984e6 -2.091825993057912e7 0.0
0.0 0.0 0.0

745190.8789606965 1.2838844108410165e7 0.0
1.2838844108410165e7 -1.0087860800711254e7 0.0
0.0 0.0 0.0

2.3975036633890006e6 9.817651097752675e6 0.0
9.817651097752675e6 -1.145659222844775e7 0.0
0.0 0.0 0.0

101586.4423483559 1.3747472502463087e7 0.0
1.3747472502463087e7 -8.873853628756544e6 0.0
0.0 0.0 0.0

-9.025337560060102e6 3.0063565715383902e7 0.0
3.0063565715383902e7 -3.757313980292839e6 0.0
0.0 0.0 0.0

-4.717569321621336e6 1.714759122472617e7 0.0
1.714759122472617e7 3.949622077902779e6 0.0
0.0 0.0 0.0

-1.4831789267608891e6 1.5699307131204812e7 0.0
1.5699307131204812e7 -7.237914046480886e6 0.0
0.0 0.0 0.0

-1.392318630027618e6 1.5199684100387843e7 0.0
1.5199684100387843e7 -7.35777796288422e6 0.0
0.0 0.0 0.0

2.8182221054054997e6 8.82238766855175e6 0.0
8.82238766855175e6 -1.1304999600648424e7 0.0
0.0 0.0 0.0

-6.1180877001503445e6 1.6910425197914593e7 0.0
1.6910425197914593e7 7.887187588652255e6 0.0
0.0 0.0 0.0

-2.2435664318833044e6 1.5358159048720278e7 0.0
1.5358159048720278e7 9.005909513149656e6 0.0
0.0 0.0 0.0

-5.281908169666175e6 1.7113135178733498e7 0.0
1.7113135178733498e7 5.633852865994744e6 0.0
0.0 0.0 0.0

-8.733418202872636e6 5.469521838435644e6 0.0
5.469521838435644e6 4.713543692055555e7 0.0
0.0 0.0 0.0

-6.236848347744875e6 -670447.8367918466 0.0
-670447.8367918466 8.922127394178443e6 0.0
0.0 0.0 0.0

-2.2317552218801208e7 4.3545188144066766e7 0.0
4.3545188144066766e7 -1.818649514370793e7 0.0
0.0 0.0 0.0

497476.2595179952 1.4465729013878208e7 0.0
1.4465729013878208e7 8.277595782148185e6 0.0
0.0 0.0 0.0

-5.619813017377942e6 2.5626077724097736e7 0.0
2.5626077724097736e7 498447.88009996386 0.0
0.0 0.0 0.0

-276805.8021259005 1.3528053580673382e7 0.0
1.3528053580673382e7 -7.09933148783229e6 0.0
0.0 0.0 0.0

-578797.2094222226 1.5221459711442215e7 0.0
1.5221459711442215e7 -8.045120786314077e6 0.0
0.0 0.0 0.0

-5.04837529001304e6 1.8027509759904213e7 0.0
1.8027509759904213e7 5.554197479751747e6 0.0
0.0 0.0 0.0

4.789648099560251e6 4.0981406250015493e6 0.0
4.0981406250015493e6 -1.3802578966568436e7 0.0
0.0 0.0 0.0

3.8958401172706787e6 1.3758666016328292e7 0.0
1.3758666016328292e7 -591299.7211260437 0.0
0.0 0.0 0.0

2.6265915799800884e6 9.76973975004429e6 0.0
9.76973975004429e6 -1.246041237010533e7 0.0
0.0 0.0 0.0

-87624.6974173258 1.719769920647488e7 0.0
1.719769920647488e7 -5.328593255792636e6 0.0
0.0 0.0 0.0

4.527481771098306e6 6.995516511267508e6 0.0
6.995516511267508e6 -1.8761261308059547e7 0.0
0.0 0.0 0.0

-5.702859449456463e6 1.5323742299216798e7 0.0
1.5323742299216798e7 6.757085342269899e6 0.0
0.0 0.0 0.0

2.9112183864379935e6 6.660951908265432e6 0.0
6.660951908265432e6 -9.013459805600822e6 0.0
0.0 0.0 0.0

-1.0137771347269346e6 8.744660460920261e6 0.0
8.744660460920261e6 -1.8016926753705228e6 0.0
0.0 0.0 0.0

-8.125939156992409e6 1.696106271498588e7 0.0
1.696106271498588e7 -1.9750541500285727e6 0.0
0.0 0.0 0.0

3.4479946082940735e6 8.51376856542827e6 0.0
8.51376856542827e6 -1.4297431236680264e7 0.0
0.0 0.0 0.0

-2.6601865148169613e6 1.2567086943501597e7 0.0
1.2567086943501597e7 -2.685027361078681e6 0.0
0.0 0.0 0.0

-2.0078950687874078e6 1.5990073969955608e7 0.0
1.5990073969955608e7 -5.7391954816796025e6 0.0
0.0 0.0 0.0

-5.098841198991949e6 1.5288727894565187e7 0.0
1.5288727894565187e7 1.3141071558910564e7 0.0
0.0 0.0 0.0

699660.6439139583 1.3069901066958845e7 0.0
1.3069901066958845e7 -2.88382763716135e6 0.0
0.0 0.0 0.0

-7.019891833865144e6 1.1772409444168111e7 0.0
1.1772409444168111e7 6.668137302865092e6 0.0
0.0 0.0 0.0

-1.2740599007197492e7 3.3952308691046033e6 0.0
3.3952308691046033e6 1.9733367777355142e7 0.0
0.0 0.0 0.0

-4.577858083208223e6 1.5442864983053658e7 0.0
1.5442864983053658e7 1.3387159015128037e7 0.0
0.0 0.0 0.0

-8.648602483665798e6 1.2373384399915561e7 0.0
1.2373384399915561e7 1.086511494337397e7 0.0
0.0 0.0 0.0

-1.1179604818585988e7 -826288.9327926004 0.0
-826288.9327926004 1.6981305540308416e7 0.0
0.0 0.0 0.0

-6.779627128134277e6 1.412502300626621e7 0.0
1.412502300626621e7 9.752075475073796e6 0.0
0.0 0.0 0.0

-6.536049203016566e6 1.563523667112149e7 0.0
1.563523667112149e7 1.0401631326533338e7 0.0
0.0 0.0 0.0

-4.0783280371968457e6 5.08233630826009e6 0.0
5.08233630826009e6 4.82676338784198e6 0.0
0.0 0.0 0.0

-1.6921509510874175e6 1.5604091453065397e7 0.0
1.5604091453065397e7 -6.569113764068224e6 0.0
0.0 0.0 0.0

-5.2115501793000195e6 1.7820766632342998e7 0.0
1.7820766632342998e7 3.929065795222417e6 0.0
0.0 0.0 0.0

-8.76417536505478e6 1.272483239542584e7 0.0
1.272483239542584e7 1.1377456852059513e7 0.0
0.0 0.0 0.0

-1.1901231375522677e7 -633592.365740344 0.0
-633592.365740344 2.5795232511398144e7 0.0
0.0 0.0 0.0

-3.404081676427025e6 1.5200961528287215e7 0.0
1.5200961528287215e7 7.080784872359851e6 0.0
0.0 0.0 0.0

-8.267386894748057e6 9.364462960872984e6 0.0
9.364462960872984e6 1.2247944145693129e7 0.0
0.0 0.0 0.0

2.635404770388049e6 9.9392569018148e6 0.0
9.9392569018148e6 -1.891831479358197e7 0.0
0.0 0.0 0.0

-6.500848390498903e6 1.4806979781936359e7 0.0
1.4806979781936359e7 1.677824671675178e7 0.0
0.0 0.0 0.0

-1.1025022680744579e7 1.0124967517934602e7 0.0
1.0124967517934602e7 1.5613484395263875e7 0.0
0.0 0.0 0.0

2.217075376953253e6 8.98976109362173e6 0.0
8.98976109362173e6 -9.277591041818924e6 0.0
0.0 0.0 0.0

4.91700789854249e6 4.753851958499043e6 0.0
4.753851958499043e6 -1.755088757355565e7 0.0
0.0 0.0 0.0

-1.4022590411290834e6 1.5012901572073285e7 0.0
1.5012901572073285e7 1.1688762808791984e7 0.0
0.0 0.0 0.0

-3.7019621386886546e6 1.5305765672442827e7 0.0
1.5305765672442827e7 1.4055962447092295e7 0.0
0.0 0.0 0.0

-772062.5949304721 1.3154515262888975e7 0.0
1.3154515262888975e7 -5.175962591489667e6 0.0
0.0 0.0 0.0

-5.317231105029096e6 1.7797568406894553e7 0.0
1.7797568406894553e7 8.000764370627107e6 0.0
0.0 0.0 0.0

-4.342793071609028e6 2.3577911788931e7 0.0
2.3577911788931e7 1.4760785177645714e6 0.0
0.0 0.0 0.0

-170814.30163460877 1.4396018617095266e7 0.0
1.4396018617095266e7 -9.394467536435707e6 0.0
0.0 0.0 0.0

-7.109945147677738e6 -379717.90396664676 0.0
-379717.90396664676 9.838424949360952e6 0.0
0.0 0.0 0.0

1.9517628269321173e6 1.1205998192699512e7 0.0
1.1205998192699512e7 -1.658779665933393e7 0.0
0.0 0.0 0.0

-6.047030653989233e6 1.6107154863540908e7 0.0
1.6107154863540908e7 9.059407841495797e6 0.0
0.0 0.0 0.0

-1.1323426208237391e7 8.812921623051383e6 0.0
8.812921623051383e6 1.6129010173070692e7 0.0
0.0 0.0 0.0

792546.3568742727 1.2632967196384415e7 0.0
1.2632967196384415e7 4.001950522245876e6 0.0
0.0 0.0 0.0

3.4919908578599235e6 8.372731623652766e6 0.0
8.372731623652766e6 -2.153949120784316e7 0.0
0.0 0.0 0.0

2.6659433869396243e6 9.86060401017847e6 0.0
9.86060401017847e6 -1.787199870753057e7 0.0
0.0 0.0 0.0

-1.7801805788935958e6 2.4947802121517766e7 0.0
2.4947802121517766e7 -3.927502885085905e6 0.0
0.0 0.0 0.0

-4.486828921037306e6 1.7390223351998493e7 0.0
1.7390223351998493e7 3.359034146543186e6 0.0
0.0 0.0 0.0

-4.885146614213992e6 1.8306817938775856e7 0.0
1.8306817938775856e7 5.014772294248845e6 0.0
0.0 0.0 0.0

-3.8779647500392105e6 1.799132403079277e7 0.0
1.799132403079277e7 -103975.22556688264 0.0
0.0 0.0 0.0

4.327941378434785e6 5.069709612711981e6 0.0
5.069709612711981e6 -1.1644635264392216e7 0.0
0.0 0.0 0.0

-137670.97412986262 1.1181502150651382e7 0.0
1.1181502150651382e7 -5.924441851003901e6 0.0
0.0 0.0 0.0

-6.013364890008259e6 1.6027379334436113e7 0.0
1.6027379334436113e7 8.587034228639292e6 0.0
0.0 0.0 0.0

-1.144328459400001e6 1.5996014504293157e7 0.0
1.5996014504293157e7 -6.752324610096559e6 0.0
0.0 0.0 0.0

-4.0761269163285177e6 2.3049249065622706e7 0.0
2.3049249065622706e7 1.699184951438526e6 0.0
0.0 0.0 0.0

-3.500904782424966e6 6.715148939683322e6 0.0
6.715148939683322e6 3.3572980680896593e6 0.0
0.0 0.0 0.0

-1.2703032497500045e7 4.741814354602862e6 0.0
4.741814354602862e6 1.6566809809463322e7 0.0
0.0 0.0 0.0

-3.9939952900204347e6 2.2623652338588256e7 0.0
2.2623652338588256e7 1.8555575125918156e6 0.0
0.0 0.0 0.0

-2.271407311648838e6 1.6395423331457807e7 0.0
1.6395423331457807e7 -4.964564211770545e6 0.0
0.0 0.0 0.0

2.216783787299606e6 9.099096446429627e6 0.0
9.099096446429627e6 -1.1745414516074006e7 0.0
0.0 0.0 0.0

-6.472856563650036e6 1.2714262370433278e7 0.0
1.2714262370433278e7 8.463381466418995e6 0.0
0.0 0.0 0.0

3.716056020670738e6 7.914986105129401e6 0.0
7.914986105129401e6 -2.2358794728365283e7 0.0
0.0 0.0 0.0

-3.802257753687915e6 2.045805385104132e7 0.0
2.045805385104132e7 2.609121884400108e6 0.0
0.0 0.0 0.0

-3.489525359531235e6 1.5892516312291788e7 0.0
1.5892516312291788e7 5.82415193600954e6 0.0
0.0 0.0 0.0

2.0125959942424837e6 1.0650890076948546e7 0.0
1.0650890076948546e7 -1.998731172225658e7 0.0
0.0 0.0 0.0

-5.311647464869729e6 1.867714144308367e7 0.0
1.867714144308367e7 5.3201165040691085e6 0.0
0.0 0.0 0.0

-1.2814332233261844e7 4.752811616212366e6 0.0
4.752811616212366e6 1.7655537507144034e7 0.0
0.0 0.0 0.0

1.8816110680793542e6 8.85883640919265e6 0.0
8.85883640919265e6 -1.0377357835284203e7 0.0
0.0 0.0 0.0

-1.5579777604630156e6 1.416486972791248e7 0.0
1.416486972791248e7 6.703725963631758e6 0.0
0.0 0.0 0.0

-5.22053848764745e6 1.7220128922729146e7 0.0
1.7220128922729146e7 6.086531470902352e6 0.0
0.0 0.0 0.0

1.50258379286082e6 1.1217543731211295e7 0.0
1.1217543731211295e7 -1.965847884933333e7 0.0
0.0 0.0 0.0

-1.0803159415291546e7 3.259420957577604e7 0.0
3.259420957577604e7 -6.895713839451968e6 0.0
0.0 0.0 0.0

-1.0469975477546446e7 1.1672061367716962e7 0.0
1.1672061367716962e7 1.383096259937219e7 0.0
0.0 0.0 0.0

-3.861355720000428e6 1.447835573266704e7 0.0
1.447835573266704e7 -2.6666193555774543e7 0.0
0.0 0.0 0.0

-2.6637140323336124e6 7.339869563317822e6 0.0
7.339869563317822e6 1.5548916431176974e6 0.0
0.0 0.0 0.0

-6.796681402837744e6 1.481731894849492e7 0.0
1.481731894849492e7 7.64891811904313e6 0.0
0.0 0.0 0.0

-9.104625494784687e6 1.3986317921357395e7 0.0
1.3986317921357395e7 1.728468263089281e7 0.0
0.0 0.0 0.0

-6.496415062611535e6 1.1706938367271788e7 0.0
1.1706938367271788e7 8.455502908488167e6 0.0
0.0 0.0 0.0

-7.093580132333534e6 1.3097832929944541e7 0.0
1.3097832929944541e7 3.4452837864983015e7 0.0
0.0 0.0 0.0

-5.985442434885293e6 1.4897325202580502e7 0.0
1.4897325202580502e7 7.52868104225811e6 0.0
0.0 0.0 0.0

466265.16422096733 1.3007751481379878e7 0.0
1.3007751481379878e7 -1.4362681806508513e7 0.0
0.0 0.0 0.0

-169853.50949833263 1.4826585332269201e7 0.0
1.4826585332269201e7 -9.340492037276914e6 0.0
0.0 0.0 0.0

8.14417628844997e7 1.5270796426022941e7 0.0
1.5270796426022941e7 5.330027977085162e6 0.0
0.0 0.0 0.0

-7.79275176951336e6 -7.997081243234067e6 0.0
-7.997081243234067e6 1.917834233051566e7 0.0
0.0 0.0 0.0

5.637724674227444e6 3.6876963543311497e6 0.0
3.6876963543311497e6 -1.9431548549384322e7 0.0
0.0 0.0 0.0

-2.8820663292737007e6 3.002542862970601e6 0.0
3.002542862970601e6 1.5095019349574675e6 0.0
0.0 0.0 0.0

-3.615711270778025e6 1.76055300057647e7 0.0
1.76055300057647e7 -820319.8355702122 0.0
0.0 0.0 0.0

-9.626824736336133e6 -6.186655250763509e6 0.0
-6.186655250763509e6 2.8269058282207903e7 0.0
0.0 0.0 0.0

-2.813823173801723e6 1.2855942282880718e7 0.0
1.2855942282880718e7 -1.737151140501869e7 0.0
0.0 0.0 0.0

-1.160600080193251e7 7.3010514244203e6 0.0
7.3010514244203e6 1.630574004647464e7 0.0
0.0 0.0 0.0

-9.04425357877136e6 1.2954041991886314e7 0.0
1.2954041991886314e7 1.1847682181736646e7 0.0
0.0 0.0 0.0

5.750903096761716e6 3.5187193929463523e6 0.0
3.5187193929463523e6 -2.1439566061627693e7 0.0
0.0 0.0 0.0

437675.0526038557 1.3207306186508294e7 0.0
1.3207306186508294e7 -9.336202632531198e6 0.0
0.0 0.0 0.0

-4.749569345550658e6 2.422575322374731e7 0.0
2.422575322374731e7 1.468234779475442e6 0.0
0.0 0.0 0.0

1.4679159464503042e6 9.2892875158907e6 0.0
9.2892875158907e6 -9.750460710461952e6 0.0
0.0 0.0 0.0

-1.0681949985053255e6 1.5759697461057195e7 0.0
1.5759697461057195e7 -2.219600008559303e6 0.0
0.0 0.0 0.0

-4.73839084738674e6 6.343965274156642e6 0.0
6.343965274156642e6 7.005552975899643e7 0.0
0.0 0.0 0.0

2.2295525666783787e6 7.625561830099265e6 0.0
7.625561830099265e6 -4.878358326065132e7 0.0
0.0 0.0 0.0

-119154.93385632709 1.3905050624339709e7 0.0
1.3905050624339709e7 -3.929044612171268e7 0.0
0.0 0.0 0.0

1.328750413913012e6 1.2122693771846121e7 0.0
1.2122693771846121e7 -1.1527009188385302e7 0.0
0.0 0.0 0.0

4.882687918613875e6 6.501746385162296e6 0.0
6.501746385162296e6 -2.3482029418661147e7 0.0
0.0 0.0 0.0

-1.4118906514561597e7 1.855614442130848e7 0.0
1.855614442130848e7 6.044357266248686e6 0.0
0.0 0.0 0.0

-1.293273522890452e6 1.5650630722817522e7 0.0
1.5650630722817522e7 -7.601965915380274e6 0.0
0.0 0.0 0.0

-8.095087611305223e6 -7.95145338050698e6 0.0
-7.95145338050698e6 2.029091076847643e7 0.0
0.0 0.0 0.0

-5.586320745444662e6 8.161963869441912e6 0.0
8.161963869441912e6 5.575728065922787e6 0.0
0.0 0.0 0.0

-4.691837797188662e6 1.855205163914869e7 0.0
1.855205163914869e7 4.444111341219589e6 0.0
0.0 0.0 0.0

-6.346810701188116e6 1.6354109822796097e7 0.0
1.6354109822796097e7 7.99807447200059e6 0.0
0.0 0.0 0.0

-7.918817992082206e6 1.0343748303270707e7 0.0
1.0343748303270707e7 8.492919763888923e6 0.0
0.0 0.0 0.0

-3.9199421704854295e6 5.762353723723424e6 0.0
5.762353723723424e6 4.367285530266907e6 0.0
0.0 0.0 0.0

2.9764959775398066e6 1.365722378654944e7 0.0
1.365722378654944e7 1.2570413381643132e6 0.0
0.0 0.0 0.0

-2.577018114332108e6 1.6823517772813883e7 0.0
1.6823517772813883e7 -4.181570897659819e6 0.0
0.0 0.0 0.0

-616036.6430997292 5.876307761590529e6 0.0
5.876307761590529e6 -2.917392789410784e6 0.0
0.0 0.0 0.0

-3.113534192343329e6 1.89804842748595e7 0.0
1.89804842748595e7 -23623.48441903526 0.0
0.0 0.0 0.0

-1.24359849613459e7 1.013268294147264e7 0.0
1.013268294147264e7 1.5120740804994617e7 0.0
0.0 0.0 0.0

-6.121960075915467e6 1.2339661415102541e7 0.0
1.2339661415102541e7 7.522595256282153e6 0.0
0.0 0.0 0.0

-8.25382691862313e6 -7.5578228216414e6 0.0
-7.5578228216414e6 2.142021364514593e7 0.0
0.0 0.0 0.0

5.671059330358811e6 3.619492667007061e6 0.0
3.619492667007061e6 -2.041559626756538e7 0.0
0.0 0.0 0.0

4.869559631140277e6 6.715383006915632e6 0.0
6.715383006915632e6 -2.480879974070477e7 0.0
0.0 0.0 0.0

-1.2486412885500718e7 6.348977158673725e6 0.0
6.348977158673725e6 1.496113565518177e7 0.0
0.0 0.0 0.0

3.970329335640803e6 5.527955027011804e6 0.0
5.527955027011804e6 -4.180085337208204e7 0.0
0.0 0.0 0.0

-9.423291526516173e6 -3.1347354931085804e6 0.0
-3.1347354931085804e6 3.942191004638104e7 0.0
0.0 0.0 0.0

2.4969798349558245e6 8.711188012501856e6 0.0
8.711188012501856e6 -1.2390842682971794e7 0.0
0.0 0.0 0.0

3.663954160595471e6 7.873437125821405e6 0.0
7.873437125821405e6 -1.3605982520168543e7 0.0
0.0 0.0 0.0

-1.871029179996783e6 2.2544693217430983e7 0.0
2.2544693217430983e7 -203907.14202761662 0.0
0.0 0.0 0.0

-6.356723209617905e6 2.110163118811096e7 0.0
2.110163118811096e7 6.546519669848627e6 0.0
0.0 0.0 0.0

-5.474740035788357e6 1.691860024279562e7 0.0
1.691860024279562e7 6.631306506200898e6 0.0
0.0 0.0 0.0

-2.773874376143649e6 1.8255619504910186e7 0.0
1.8255619504910186e7 -1.4350203660857484e6 0.0
0.0 0.0 0.0

-4.221906695422763e6 2.304680532239703e7 0.0
2.304680532239703e7 3.6031868768841242e6 0.0
0.0 0.0 0.0

-5.2902840415302515e6 1.7859433909185834e7 0.0
1.7859433909185834e7 6.706320345717825e6 0.0
0.0 0.0 0.0

-1.4573210951958236e6 1.4448879288458388e7 0.0
1.4448879288458388e7 5.263513648546678e6 0.0
0.0 0.0 0.0

5.209209545765327e6 3.8194880424174345e6 0.0
3.8194880424174345e6 -3.446815223231804e7 0.0
0.0 0.0 0.0

5.844963347142838e6 3.2996849529361934e6 0.0
3.2996849529361934e6 -2.3592367842978846e7 0.0
0.0 0.0 0.0

5.763522022997797e6 3.332150351394667e6 0.0
3.332150351394667e6 -2.9721497558678724e7 0.0
0.0 0.0 0.0

-4.626392965460169e6 1.843250243876919e7 0.0
1.843250243876919e7 2.3397838837290634e6 0.0
0.0 0.0 0.0

-3.864515210506427e6 7.604758736492835e6 0.0
7.604758736492835e6 1.216029920749853e6 0.0
0.0 0.0 0.0

-9.497800151953392e6 -5.835807103553102e6 0.0
-5.835807103553102e6 2.9221422633415986e7 0.0
0.0 0.0 0.0

-1.1810281427933633e7 6.720173285887365e6 0.0
6.720173285887365e6 1.3856662030010426e7 0.0
0.0 0.0 0.0

4.8000665355750425e6 4.903473254473816e6 0.0
4.903473254473816e6 -1.4563295786996147e7 0.0
0.0 0.0 0.0

-9.704817362741444e6 1.931546720458837e7 0.0
1.931546720458837e7 6.165586876963455e6 0.0
0.0 0.0 0.0

-2.9620380997834913e6 1.2924625842172606e7 0.0
1.2924625842172606e7 -1.5644963721532764e7 0.0
0.0 0.0 0.0

-5.943707696950448e6 -8.361182399814268e6 0.0
-8.361182399814268e6 1.4682513908960743e7 0.0
0.0 0.0 0.0

-9.891051838255659e6 1.3317297901148063e6 0.0
1.3317297901148063e6 1.1955641865703847e7 0.0
0.0 0.0 0.0

-1.2907426950837579e7 4.608385241333854e6 0.0
4.608385241333854e6 2.0229285752492853e7 0.0
0.0 0.0 0.0

-6.253888553919932e6 1.497347619828245e7 0.0
1.497347619828245e7 1.1694117988841362e7 0.0
0.0 0.0 0.0

2.3648950170433186e6 1.0198929389963884e7 0.0
1.0198929389963884e7 -1.614226171013883e7 0.0
0.0 0.0 0.0

5.708978132163327e6 3.5644740930653075e6 0.0
3.5644740930653075e6 -3.2715135700113386e7 0.0
0.0 0.0 0.0

5.432286550593428e6 3.834308010316673e6 0.0
3.834308010316673e6 -1.801961083664733e7 0.0
0.0 0.0 0.0

622378.9090975728 2.399019982487757e7 0.0
2.399019982487757e7 -6.577110261327019e6 0.0
0.0 0.0 0.0

-9.655139259119205e6 -3.514377661594106e6 0.0
-3.514377661594106e6 3.770149586875817e7 0.0
0.0 0.0 0.0

4.408090034077437e6 7.463104480622275e6 0.0
7.463104480622275e6 -2.1704605550336994e7 0.0
0.0 0.0 0.0

-8.774065871508718e6 196962.6557067683 0.0
196962.6557067683 5.226103319596407e7 0.0
0.0 0.0 0.0

5.022354211942118e6 4.33201843614028e6 0.0
4.33201843614028e6 -3.732404584885227e7 0.0
0.0 0.0 0.0

-5.189012277488015e6 1.8721153825980254e7 0.0
1.8721153825980254e7 7.021688828208926e6 0.0
0.0 0.0 0.0

-591155.1093172592 9.817870983644955e6 0.0
9.817870983644955e6 -5.242864747434364e6 0.0
0.0 0.0 0.0

-930314.6056299903 1.376412351536071e7 0.0
1.376412351536071e7 -7.363360869612519e6 0.0
0.0 0.0 0.0

540982.7106702849 1.2970475785828972e7 0.0
1.2970475785828972e7 -1.2674136957467277e7 0.0
0.0 0.0 0.0

-9.233121230662277e6 -2.66460665043149e6 0.0
-2.66460665043149e6 4.169429989735483e7 0.0
0.0 0.0 0.0

5.654445568784652e6 3.47255733920983e6 0.0
3.47255733920983e6 -3.1044053825925466e7 0.0
0.0 0.0 0.0

-1.2085723523779653e7 1.0941985154915532e7 0.0
1.0941985154915532e7 1.5630828303648164e7 0.0
0.0 0.0 0.0

-1.2227955496257044e7 9.567733510757864e6 0.0
9.567733510757864e6 1.4777869527587522e7 0.0
0.0 0.0 0.0

-1.2951379094530694e7 5.761795693913762e6 0.0
5.761795693913762e6 1.808790103496076e7 0.0
0.0 0.0 0.0

-6.918384823883561e6 1.0973897420012893e7 0.0
1.0973897420012893e7 9.442429299989609e6 0.0
0.0 0.0 0.0

-1.1643750448341854e6 1.534806777266398e7 0.0
1.534806777266398e7 1.703690027284711e7 0.0
0.0 0.0 0.0

-2.048445590132244e6 1.7183393716985703e7 0.0
1.7183393716985703e7 -3.6129893452947745e6 0.0
0.0 0.0 0.0

-4.470977288770343e6 1.9418670868672725e7 0.0
1.9418670868672725e7 2.3215774546931684e6 0.0
0.0 0.0 0.0

-2.821082821694973e6 1.7993367881161667e7 0.0
1.7993367881161667e7 -2.6272116613980196e6 0.0
0.0 0.0 0.0

3.0687804291036734e6 8.741401268431487e6 0.0
8.741401268431487e6 -1.2316305710580025e7 0.0
0.0 0.0 0.0

-4.96008175135656e6 2.025625684736097e7 0.0
2.025625684736097e7 5.680257350782975e6 0.0
0.0 0.0 0.0

-670688.1050976046 1.5138684846080963e7 0.0
1.5138684846080963e7 -3.21604830427944e6 0.0
0.0 0.0 0.0

1.915151361982747e6 1.1425918842099149e7 0.0
1.1425918842099149e7 -1.2921057809088185e7 0.0
0.0 0.0 0.0

-1.225505846811362e7 9.742424877157046e6 0.0
9.742424877157046e6 1.9204370426974103e7 0.0
0.0 0.0 0.0

-1.2659213967301559e7 6.9816832441765675e6 0.0
6.9816832441765675e6 1.553173043761431e7 0.0
0.0 0.0 0.0

3.0379611890288712e6 8.1911752258451255e6 0.0
8.1911752258451255e6 -1.4104456021316124e7 0.0
0.0 0.0 0.0

-9.143101676828125e6 -6.996344798561662e6 0.0
-6.996344798561662e6 2.4781163647197794e7 0.0
0.0 0.0 0.0

5.751130485628515e6 3.4875783540926166e6 0.0
3.4875783540926166e6 -2.1949220768701825e7 0.0
0.0 0.0 0.0

-3.7197877444123407e6 1.5298665261498528e7 0.0
1.5298665261498528e7 1.1202488479487024e7 0.0
0.0 0.0 0.0

-9.671108224539218e6 -3.942380805281907e6 0.0
-3.942380805281907e6 3.602294403805445e7 0.0
0.0 0.0 0.0

5.796816365329234e6 3.3352685515655437e6 0.0
3.3352685515655437e6 -2.77283359753145e7 0.0
0.0 0.0 0.0

5.733155171792045e6 3.4680892888304633e6 0.0
3.4680892888304633e6 -2.245665849541613e7 0.0
0.0 0.0 0.0

-9.286396302856492e6 -6.762706789405748e6 0.0
-6.762706789405748e6 2.5864646807964202e7 0.0
0.0 0.0 0.0

-8.897943356296208e6 1.3037368603342758e7 0.0
1.3037368603342758e7 2.228701230183212e7 0.0
0.0 0.0 0.0

5.895686792631829e6 3.2966683258342324e6 0.0
3.2966683258342324e6 -2.7000879932496477e7 0.0
0.0 0.0 0.0

-9.6351368201115e6 -4.4261879082833e6 0.0
-4.4261879082833e6 3.432395154047945e7 0.0
0.0 0.0 0.0

-6.925929802977489e6 1.497636440778394e7 0.0
1.497636440778394e7 1.2688623201905267e7 0.0
0.0 0.0 0.0

-9.463163246015282e6 -4.658635826897608e6 0.0
-4.658635826897608e6 2.195750419741092e7 0.0
0.0 0.0 0.0

-9.514571543934172e6 -6.4351824236918185e6 0.0
-6.4351824236918185e6 2.7195016844811894e7 0.0
0.0 0.0 0.0

5.894419201265496e6 3.409768752671721e6 0.0
3.409768752671721e6 -2.3099416955128487e7 0.0
0.0 0.0 0.0

5.887117992128428e6 3.3375748441802943e6 0.0
3.3375748441802943e6 -2.622183612042467e7 0.0
0.0 0.0 0.0

-9.675063393793859e6 -4.82571970310564e6 0.0
-4.82571970310564e6 3.288237163757447e7 0.0
0.0 0.0 0.0

-1.795171943181743e8 4.286371816280642e7 0.0
4.286371816280642e7 -1.6225530259358644e7 0.0
0.0 0.0 0.0

1.3508975863675067e8 2.4061731610766392e7 0.0
2.4061731610766392e7 5.684322756872594e6 0.0
0.0 0.0 0.0

-8.273721109093956e6 1.066938030672549e7 0.0
1.066938030672549e7 9.42986868593866e6 0.0
0.0 0.0 0.0

5.7869750729110185e6 3.322947798329651e6 0.0
3.322947798329651e6 -2.5477169954767615e7 0.0
0.0 0.0 0.0

-9.747906465456208e6 -5.089712086321487e6 0.0
-5.089712086321487e6 3.1751029332505807e7 0.0
0.0 0.0 0.0

704951.7420923472 1.2095950141823754e7 0.0
1.2095950141823754e7 -2.2877826640219614e6 0.0
0.0 0.0 0.0

-1.245148560058026e7 8.018280239074594e6 0.0
8.018280239074594e6 1.4975581954692354e7 0.0
0.0 0.0 0.0

-4.486270142736701e6 1.8779989319450896e7 0.0
1.8779989319450896e7 3.933041401417658e6 0.0
0.0 0.0 0.0

-3.0717038904530504e6 1.565936775699019e7 0.0
1.565936775699019e7 1.1736179011136865e7 0.0
0.0 0.0 0.0

-9.679765480134597e6 -5.38962239302528e6 0.0
-5.38962239302528e6 3.0552441680795193e7 0.0
0.0 0.0 0.0

5.883706877402658e6 3.275431165191323e6 0.0
3.275431165191323e6 -2.4949020622751214e7 0.0
0.0 0.0 0.0

-2.7818760909212218e6 1.7217901663405057e7 0.0
1.7217901663405057e7 -3.3757368672996033e6 0.0
0.0 0.0 0.0

-2.3396620674259504e6 1.3920836444417048e7 0.0
1.3920836444417048e7 -2.8571584917946003e7 0.0
0.0 0.0 0.0

-3.745935131239691e6 1.9001920589030147e7 0.0
1.9001920589030147e7 217711.55981767434 0.0
0.0 0.0 0.0

1.0779935581317605e6 1.248848016414591e7 0.0
1.248848016414591e7 -1.0797731904269263e7 0.0
0.0 0.0 0.0

1.358973274201937e6 1.1833403345356602e7 0.0
1.1833403345356602e7 -1.5002980845695518e7 0.0
0.0 0.0 0.0

-967903.9784828256 1.4308650890957452e7 0.0
1.4308650890957452e7 2.712987292136925e6 0.0
0.0 0.0 0.0

-1.9141049981952186e6 1.727079091271865e7 0.0
1.727079091271865e7 -5.113692535590534e6 0.0
0.0 0.0 0.0

-1.2070140891354573e6 1.5958523334422149e7 0.0
1.5958523334422149e7 -6.46735846237739e6 0.0
0.0 0.0 0.0

-1.2036193316376256e6 1.2816255698826967e7 0.0
1.2816255698826967e7 -2.2790395644477542e7 0.0
0.0 0.0 0.0

-4.015066807758362e6 1.927694544743398e7 0.0
1.927694544743398e7 2.54525926106673e6 0.0
0.0 0.0 0.0

-5.972955850433253e6 1.6672282861878712e7 0.0
1.6672282861878712e7 7.056327991066169e6 0.0
0.0 0.0 0.0

-3.396429750501477e6 1.7787026959681693e7 0.0
1.7787026959681693e7 -4.436554813952387e6 0.0
0.0 0.0 0.0

1.1718022528359732e6 1.2101048303201621e7 0.0
1.2101048303201621e7 -1.505326361272165e7 0.0
0.0 0.0 0.0

-1.0559834360055283e7 7.583983227838198e6 0.0
7.583983227838198e6 1.2239085145793838e7 0.0
0.0 0.0 0.0

250319.29256649385 1.376925410692702e7 0.0
1.376925410692702e7 4.559737230421384e6 0.0
0.0 0.0 0.0

-1.0093155798662666e7 8.995953502525356e6 0.0
8.995953502525356e6 1.203940950297426e7 0.0
0.0 0.0 0.0

-2.3634360055762455e6 1.3665871943007024e7 0.0
1.3665871943007024e7 -1.6616012949819616e6 0.0
0.0 0.0 0.0

-4.1496384517211835e6 1.915273107315298e7 0.0
1.915273107315298e7 3.044415021047011e6 0.0
0.0 0.0 0.0

508747.02864324395 1.2184269032148957e7 0.0
1.2184269032148957e7 -1.7751975916261382e7 0.0
0.0 0.0 0.0

-5.789541856302524e6 1.522723797299044e7 0.0
1.522723797299044e7 1.1935628940373627e7 0.0
0.0 0.0 0.0

-4.506375949174072e6 2.351272038210063e7 0.0
2.351272038210063e7 3.9496147798329857e6 0.0
0.0 0.0 0.0

-3.1523774849594603e6 1.3886342923228888e7 0.0
1.3886342923228888e7 -1.9740439154593307e6 0.0
0.0 0.0 0.0

-3.2214811170558957e6 1.7954698894321334e7 0.0
1.7954698894321334e7 -1.8992232812647764e6 0.0
0.0 0.0 0.0

4.626582923714913e6 1.596581221653114e7 0.0
1.596581221653114e7 6.637477625465626e6 0.0
0.0 0.0 0.0

-4.329696368538966e6 1.8981282478246633e7 0.0
1.8981282478246633e7 3.455660992809983e6 0.0
0.0 0.0 0.0

-9.966157916472737e6 8.912470708372796e6 0.0
8.912470708372796e6 5.167303407433842e6 0.0
0.0 0.0 0.0

-3.9711336910055736e6 2.034384310570263e7 0.0
2.034384310570263e7 2.9760837965134764e6 0.0
0.0 0.0 0.0

5.034700811741238e6 4.1609372501488663e6 0.0
4.1609372501488663e6 -1.506041868068342e7 0.0
0.0 0.0 0.0

5.009335462728677e6 4.228907081544509e6 0.0
4.228907081544509e6 -1.4671678745554268e7 0.0
0.0 0.0 0.0

-2.9556504848301993e6 1.7616988277829308e7 0.0
1.7616988277829308e7 -2.5007715787100815e6 0.0
0.0 0.0 0.0

-2.90096125520009e6 1.5614645532092122e7 0.0
1.5614645532092122e7 1.4524848729393454e7 0.0
0.0 0.0 0.0

-3.8089410377874877e6 2.0790275543124873e7 0.0
2.0790275543124873e7 2.8342760384779535e6 0.0
0.0 0.0 0.0

-1.2829112903635997e7 5.72786883246108e6 0.0
5.72786883246108e6 1.6987383209389918e7 0.0
0.0 0.0 0.0

-4.0160424258085727e6 2.2280946413200933e7 0.0
2.2280946413200933e7 3.4628446280536316e6 0.0
0.0 0.0 0.0

-4.0986817106275223e6 1.5327531379581971e7 0.0
1.5327531379581971e7 7.279946116915368e6 0.0
0.0 0.0 0.0

-988374.3357452224 1.1300651008913249e7 0.0
1.1300651008913249e7 2.232869100529927e6 0.0
0.0 0.0 0.0

2.98501236724374e6 9.99141933764266e6 0.0
9.99141933764266e6 -1.6768467850083962e7 0.0
0.0 0.0 0.0

-5.114709119222455e6 1.873952826404214e7 0.0
1.873952826404214e7 4.1458783973336685e6 0.0
0.0 0.0 0.0

-7.503931628121597e6 -4.1151807759578195e6 0.0
-4.1151807759578195e6 1.2623448550846566e7 0.0
0.0 0.0 0.0

-9.42880430524228e6 1.2084463988080408e7 0.0
1.2084463988080408e7 2.311415077209434e7 0.0
0.0 0.0 0.0

-609945.0355869895 1.2592079273985058e7 0.0
1.2592079273985058e7 -2.576363195888299e7 0.0
0.0 0.0 0.0

-1.2323802631609108e7 6.881743505523822e6 0.0
6.881743505523822e6 1.9503700733878355e7 0.0
0.0 0.0 0.0

730817.1342898412 1.762118032718367e7 0.0
1.762118032718367e7 -4.941503632293169e6 0.0
0.0 0.0 0.0

2.6896702168029454e6 1.0346557243281836e7 0.0
1.0346557243281836e7 -1.5073948278725285e7 0.0
0.0 0.0 0.0

-3.393423589992627e6 1.3601410703573951e7 0.0
1.3601410703573951e7 -1.474106366305614e6 0.0
0.0 0.0 0.0

-3.546769375526053e6 1.868335424283696e7 0.0
1.868335424283696e7 -463726.4312981225 0.0
0.0 0.0 0.0

515428.788170608 1.1885061909546094e7 0.0
1.1885061909546094e7 -4.835162031920945e6 0.0
0.0 0.0 0.0

-1.1289704801519293e7 6.544836086527089e6 0.0
6.544836086527089e6 1.5740619181798715e7 0.0
0.0 0.0 0.0

-1.2404972332873043e7 8.714133797779823e6 0.0
8.714133797779823e6 1.908312351197949e7 0.0
0.0 0.0 0.0

-3.385639790641442e6 1.8317709871520605e7 0.0
1.8317709871520605e7 -1.178230504109833e6 0.0
0.0 0.0 0.0

-7.394433162481369e6 1.0119169652799694e7 0.0
1.0119169652799694e7 1.0365237128976824e7 0.0
0.0 0.0 0.0

5.408927497570578e6 4.988484132217596e6 0.0
4.988484132217596e6 -2.1982682771267965e7 0.0
0.0 0.0 0.0

-7.601272674781587e6 1.2527078683382483e7 0.0
1.2527078683382483e7 8.571040491102125e6 0.0
0.0 0.0 0.0

171613.68193339324 1.230660099848008e7 0.0
1.230660099848008e7 -8.308718549075278e6 0.0
0.0 0.0 0.0

402462.7171384231 1.2185679577374134e7 0.0
1.2185679577374134e7 -186119.9228929335 0.0
0.0 0.0 0.0

-1.725696727294764e6 1.5191773755292913e7 0.0
1.5191773755292913e7 -6.46759638471721e6 0.0
0.0 0.0 0.0

-1.9311977870387074e6 1.3708784958701499e7 0.0
1.3708784958701499e7 -4.652231111341151e6 0.0
0.0 0.0 0.0

1.1232039355631033e6 1.2144756626433972e7 0.0
1.2144756626433972e7 -1.4193648461825794e7 0.0
0.0 0.0 0.0

3.771522969780945e6 7.43991531328788e6 0.0
7.43991531328788e6 -1.7217413396552645e7 0.0
0.0 0.0 0.0

339454.4866002002 1.2085409462693347e7 0.0
1.2085409462693347e7 -6.64888824982101e6 0.0
0.0 0.0 0.0

2.441832666945561e6 9.021698042509027e6 0.0
9.021698042509027e6 -1.2758451740765141e7 0.0
0.0 0.0 0.0

4.31318322759278e6 4.961135708596512e6 0.0
4.961135708596512e6 -1.2534015576221017e7 0.0
0.0 0.0 0.0

-4.764020168067839e6 1.9145618959869593e7 0.0
1.9145618959869593e7 3.1989531079098806e6 0.0
0.0 0.0 0.0

-561567.7717025531 1.0145486823092554e7 0.0
1.0145486823092554e7 -5.929178174322007e6 0.0
0.0 0.0 0.0

-5.650330015496042e6 1.5062082249445884e7 0.0
1.5062082249445884e7 1.109617021599929e7 0.0
0.0 0.0 0.0

-3.02662466672026e6 -839244.6188954602 0.0
-839244.6188954602 5.207433750334047e6 0.0
0.0 0.0 0.0

1.7637144504796867e6 1.3633462365831397e7 0.0
1.3633462365831397e7 -354432.7437707193 0.0
0.0 0.0 0.0

-2.6169112322516227e6 1.5433922188861791e7 0.0
1.5433922188861791e7 -5.130466428312528e6 0.0
0.0 0.0 0.0

3.3322103094574576e6 7.735085738234053e6 0.0
7.735085738234053e6 -1.472865086889226e7 0.0
0.0 0.0 0.0

-6.833635696476467e7 1.0881174113754574e7 0.0
1.0881174113754574e7 9.88003806266252e6 0.0
0.0 0.0 0.0

-8.059205256954592e6 1.4170650612069609e7 0.0
1.4170650612069609e7 1.392525043814707e7 0.0
0.0 0.0 0.0

26092.284094864037 1.409617223763231e7 0.0
1.409617223763231e7 -9.349509218316084e6 0.0
0.0 0.0 0.0

-1.2305354983486147e6 1.276200619554611e7 0.0
1.276200619554611e7 -5.807052201934188e6 0.0
0.0 0.0 0.0

2.306978843236368e6 1.1061219645405507e7 0.0
1.1061219645405507e7 -1.547642148237098e7 0.0
0.0 0.0 0.0

-882029.8481828722 1.425320390148957e7 0.0
1.425320390148957e7 5.122834255272426e6 0.0
0.0 0.0 0.0

2.7763627120755687e6 1.0238374110525414e7 0.0
1.0238374110525414e7 -1.8650073956168965e7 0.0
0.0 0.0 0.0

-690084.6749314496 1.4480322935530487e7 0.0
1.4480322935530487e7 6.131068164054645e6 0.0
0.0 0.0 0.0

126147.90993867442 1.2979377163535148e7 0.0
1.2979377163535148e7 -1.0298555670731943e7 0.0
0.0 0.0 0.0

4.034620795327926e6 7.594455376996985e6 0.0
7.594455376996985e6 -1.5483118339938283e7 0.0
0.0 0.0 0.0

5.558460701663034e6 3.903403198504778e6 0.0
3.903403198504778e6 -2.4674943347447682e7 0.0
0.0 0.0 0.0

-1.6922104806193258e6 1.8815414834693722e7 0.0
1.8815414834693722e7 -3.6678980263590696e6 0.0
0.0 0.0 0.0

2.969864463443334e6 1.0079479887481676e7 0.0
1.0079479887481676e7 -1.7734873381443147e7 0.0
0.0 0.0 0.0

-5.065309296271713e6 1.98669171034907e7 0.0
1.98669171034907e7 6.00499211219355e6 0.0
0.0 0.0 0.0

-4.435446963404864e6 1.5995622665643357e7 0.0
1.5995622665643357e7 1.1732894244353557e6 0.0
0.0 0.0 0.0

2.5072858730813195e6 7.1049753361665625e6 0.0
7.1049753361665625e6 -8.415448609161416e6 0.0
0.0 0.0 0.0

-5.0450763612552695e6 2.4038306463124506e7 0.0
2.4038306463124506e7 4.213092168349033e6 0.0
0.0 0.0 0.0

3.5642940120484764e6 8.205253125871003e6 0.0
8.205253125871003e6 -1.3955517123078749e7 0.0
0.0 0.0 0.0

-5.467918627799784e6 1.4355284372225903e7 0.0
1.4355284372225903e7 2.178673699163132e7 0.0
0.0 0.0 0.0

-536914.8410308186 1.4469404540470826e7 0.0
1.4469404540470826e7 261861.35895345313 0.0
0.0 0.0 0.0

-6.530436232325502e6 2.0535262049427774e7 0.0
2.0535262049427774e7 6.653378375730654e6 0.0
0.0 0.0 0.0

-9.031444998162208e6 8.293831830742137e6 0.0
8.293831830742137e6 1.3301894018690225e7 0.0
0.0 0.0 0.0

1.9686934091537232e6 1.0897096449242052e7 0.0
1.0897096449242052e7 -1.5563738758813377e7 0.0
0.0 0.0 0.0

-1.406419812083804e6 8.749662011121338e6 0.0
8.749662011121338e6 -3.1105168646007436e6 0.0
0.0 0.0 0.0

-1.4368866992563982e6 1.4108909122728076e7 0.0
1.4108909122728076e7 -4.0190032003629417e6 0.0
0.0 0.0 0.0

5.807635268553897e6 1.4137456823125338e7 0.0
1.4137456823125338e7 -1.2110989637023471e6 0.0
0.0 0.0 0.0

275454.98620657204 1.4062887118520902e7 0.0
1.4062887118520902e7 -1.0491420150255535e7 0.0
0.0 0.0 0.0

1.044663065387229e6 7.715112846899846e6 0.0
7.715112846899846e6 -5.323564092514253e6 0.0
0.0 0.0 0.0

1.5202836338894423e6 1.152605836266838e7 0.0
1.152605836266838e7 -1.4911843776295394e7 0.0
0.0 0.0 0.0

-8.052371086654841e6 -5.825918216937214e6 0.0
-5.825918216937214e6 1.7326876700507797e7 0.0
0.0 0.0 0.0

-5.951359856783118e6 1.5692570994399574e7 0.0
1.5692570994399574e7 1.0503018833544258e7 0.0
0.0 0.0 0.0

-1.2617929034451049e7 8.537545890339576e6 0.0
8.537545890339576e6 1.550891787457433e7 0.0
0.0 0.0 0.0

-1.0920817285411734e7 1.9796068146573413e7 0.0
1.9796068146573413e7 3.2806266009167163e6 0.0
0.0 0.0 0.0

-1.066359598343132e6 1.2810539017687336e7 0.0
1.2810539017687336e7 -2.232699758379914e7 0.0
0.0 0.0 0.0

-5.203282993411776e6 1.8302007362346396e7 0.0
1.8302007362346396e7 6.694040062272692e6 0.0
0.0 0.0 0.0

-5.452841479138349e6 1.8944016227054726e7 0.0
1.8944016227054726e7 6.691618504398387e6 0.0
0.0 0.0 0.0

-1.036332284180827e6 1.6098289028262775e7 0.0
1.6098289028262775e7 -6.9693181883388115e6 0.0
0.0 0.0 0.0

357322.4221191043 1.1904565073393645e7 0.0
1.1904565073393645e7 -2.3378126397486575e7 0.0
0.0 0.0 0.0

-5.319442375961654e6 1.4889622703985766e7 0.0
1.4889622703985766e7 1.0934617257770404e7 0.0
0.0 0.0 0.0

-1.1955286232104577e7 1.7067434125738111e6 0.0
1.7067434125738111e6 2.7259328038287096e7 0.0
0.0 0.0 0.0

2.502099628336562e6 4.24887154173785e6 0.0
4.24887154173785e6 -6.856365531131448e6 0.0
0.0 0.0 0.0

371694.92807036266 1.2808491807490068e7 0.0
1.2808491807490068e7 -1.4045265477712123e7 0.0
0.0 0.0 0.0

-1.6655583899237027e6 1.6793342887072958e7 0.0
1.6793342887072958e7 -5.851259762443744e6 0.0
0.0 0.0 0.0

-2.60215690514669e6 1.4306630999519583e7 0.0
1.4306630999519583e7 -1.300105990607562e6 0.0
0.0 0.0 0.0

-382914.9808203415 1.2045798959699072e7 0.0
1.2045798959699072e7 -7.357303788976955e6 0.0
0.0 0.0 0.0

-3.542299942566209e6 1.3185904930028101e7 0.0
1.3185904930028101e7 -1.7802753195278116e7 0.0
0.0 0.0 0.0

-1.2984873370587043e7 7.688345689584415e6 0.0
7.688345689584415e6 1.7772805007450577e7 0.0
0.0 0.0 0.0

-3.4356002370396233e6 2.0586445458092142e7 0.0
2.0586445458092142e7 1.833683778933163e6 0.0
0.0 0.0 0.0

-1.653966223436126e7 1.8127263732747372e7 0.0
1.8127263732747372e7 7.419351652826691e6 0.0
0.0 0.0 0.0

1.9233229742089966e6 1.3931223923895793e7 0.0
1.3931223923895793e7 -227707.58473883825 0.0
0.0 0.0 0.0

2.1562802053513005e6 6.9750143139606835e6 0.0
6.9750143139606835e6 -9.513247642633649e6 0.0
0.0 0.0 0.0

-2.794974877716435e6 1.4013994766670031e7 0.0
1.4013994766670031e7 -811564.5722082097 0.0
0.0 0.0 0.0

-1.224858506701254e7 5.796505449027738e6 0.0
5.796505449027738e6 2.1636933324783273e7 0.0
0.0 0.0 0.0

-5.535080698573947e6 2.0917875359845743e7 0.0
2.0917875359845743e7 5.926425861960945e6 0.0
0.0 0.0 0.0

-6.053249134473158e6 1.4813832312221954e7 0.0
1.4813832312221954e7 1.1799830424605835e7 0.0
0.0 0.0 0.0

-4.256546957094806e6 1.951075591329506e7 0.0
1.951075591329506e7 1.9057354820344981e6 0.0
0.0 0.0 0.0

452783.84988201456 1.2638045349542877e7 0.0
1.2638045349542877e7 -1.1024291513135614e7 0.0
0.0 0.0 0.0

-1.2687071374172458e7 7.63414732690677e6 0.0
7.63414732690677e6 2.0662855048606243e7 0.0
0.0 0.0 0.0

409222.0294899242 1.3167386833076548e7 0.0
1.3167386833076548e7 -1.2707731500352833e7 0.0
0.0 0.0 0.0

-2.5130439268244407e6 1.603844861819778e7 0.0
1.603844861819778e7 -2.0363595703366734e6 0.0
0.0 0.0 0.0

-3.517035872553116e6 2.08442726857761e7 0.0
2.08442726857761e7 1.8966208291457072e6 0.0
0.0 0.0 0.0

3.9586619280588115e6 5.550352724514126e6 0.0
5.550352724514126e6 -1.2949028088697962e7 0.0
0.0 0.0 0.0

214482.5895886803 1.548654874497424e7 0.0
1.548654874497424e7 -7.151635090599546e6 0.0
0.0 0.0 0.0

-5.133066520722351e6 1.8197622541767314e7 0.0
1.8197622541767314e7 6.145301891308827e6 0.0
0.0 0.0 0.0

-1.0007392796497706e7 7.198961028063145e6 0.0
7.198961028063145e6 1.4389126749710748e7 0.0
0.0 0.0 0.0

-2.0939774775487385e6 1.705900329791459e7 0.0
1.705900329791459e7 -4.391019466070949e6 0.0
0.0 0.0 0.0

-1.288158483528912e7 9.593819085343402e6 0.0
9.593819085343402e6 1.717760450814546e7 0.0
0.0 0.0 0.0

-1.8070508788614601e6 4.1670124391700025e6 0.0
4.1670124391700025e6 5.010411097634751e6 0.0
0.0 0.0 0.0

-5.195807667130867e6 1.7738570693514127e7 0.0
1.7738570693514127e7 6.084922595644154e6 0.0
0.0 0.0 0.0

-1.2791368303418845e7 5.977862659576877e6 0.0
5.977862659576877e6 1.6010545746233305e7 0.0
0.0 0.0 0.0

-6.831564554406039e6 1.5060286579095222e7 0.0
1.5060286579095222e7 8.279818934590738e6 0.0
0.0 0.0 0.0

-165699.38747951295 1.506282517827118e7 0.0
1.506282517827118e7 1.3139050715832802e7 0.0
0.0 0.0 0.0

832070.7980362773 1.1661890353334012e7 0.0
1.1661890353334012e7 -2.12276080441054e7 0.0
0.0 0.0 0.0

-3.3785357856852636e6 -432260.2039830895 0.0
-432260.2039830895 4.845235894892793e6 0.0
0.0 0.0 0.0

486650.9123199545 1.8892453976482462e7 0.0
1.8892453976482462e7 -4.488666256400814e6 0.0
0.0 0.0 0.0

-1.2157012823370803e7 5.904051447269073e6 0.0
5.904051447269073e6 1.9138295522164766e7 0.0
0.0 0.0 0.0

752928.6505310037 1.06847589081281e7 0.0
1.06847589081281e7 -9.134270521366693e6 0.0
0.0 0.0 0.0

-4.365697542158347e6 1.4904389719419742e7 0.0
1.4904389719419742e7 9.210349154895008e6 0.0
0.0 0.0 0.0

-1.172079393791026e6 1.3519080365649762e7 0.0
1.3519080365649762e7 -4.361199269484863e6 0.0
0.0 0.0 0.0

-7.008172956275303e6 1.5186292494451433e7 0.0
1.5186292494451433e7 1.1187709606117569e7 0.0
0.0 0.0 0.0

351591.4166055233 9.101610943408718e6 0.0
9.101610943408718e6 -5.68500003903975e6 0.0
0.0 0.0 0.0

-5.276898646259894e6 1.705460105148241e7 0.0
1.705460105148241e7 5.056145613159679e6 0.0
0.0 0.0 0.0

-6.794605645211687e6 1.5193887763049655e7 0.0
1.5193887763049655e7 8.834575606762774e6 0.0
0.0 0.0 0.0

-76198.71346093155 1.5435817853067646e7 0.0
1.5435817853067646e7 -7.733357563310729e6 0.0
0.0 0.0 0.0

-5.406894912734882e6 1.822986684066837e7 0.0
1.822986684066837e7 5.228088784109736e6 0.0
0.0 0.0 0.0

-3.7674557240152154e6 2.1147174097583376e7 0.0
2.1147174097583376e7 3.0365117410274376e6 0.0
0.0 0.0 0.0

951862.1181703499 1.1678879214085558e7 0.0
1.1678879214085558e7 -1.8908399583290648e7 0.0
0.0 0.0 0.0

1.8047309324796028e6 3.982913011988259e6 0.0
3.982913011988259e6 -4.1341690106315534e6 0.0
0.0 0.0 0.0

-1.9008579138763691e6 3.1995027548840684e6 0.0
3.1995027548840684e6 328081.1784612634 0.0
0.0 0.0 0.0

5.442444064020531e6 4.82265142770481e6 0.0
4.82265142770481e6 -3.0333981555351898e7 0.0
0.0 0.0 0.0

-2.061102874642508e6 1.6631601429615501e7 0.0
1.6631601429615501e7 -3.618386329624046e6 0.0
0.0 0.0 0.0

-6.690179627712785e6 1.4672415829240661e7 0.0
1.4672415829240661e7 1.2462260461099856e7 0.0
0.0 0.0 0.0

-1.2175324575621104e7 7.286432140055621e6 0.0
7.286432140055621e6 1.439078085289678e7 0.0
0.0 0.0 0.0

-5.662907038404523e6 2.463618402984894e7 0.0
2.463618402984894e7 4.4360339680848885e6 0.0
0.0 0.0 0.0

-1.2792438922677353e7 4.620199354668909e6 0.0
4.620199354668909e6 1.882937875271016e7 0.0
0.0 0.0 0.0

1.221470739678752e7 3.89473202863475e7 0.0
3.89473202863475e7 -9.83734062627627e6 0.0
0.0 0.0 0.0

-1.2670657943444466e6 1.5301247445893852e7 0.0
1.5301247445893852e7 -7.6311007205418395e6 0.0
0.0 0.0 0.0

1.6138828942167293e6 1.1769630292282857e7 0.0
1.1769630292282857e7 -1.2194858607889151e7 0.0
0.0 0.0 0.0

-5.51188513461408e6 1.5293283399188621e7 0.0
1.5293283399188621e7 1.0326028839020092e7 0.0
0.0 0.0 0.0

-1.2972979289938606e7 6.839195826887762e6 0.0
6.839195826887762e6 1.960458072497948e7 0.0
0.0 0.0 0.0

-1.5940197028163818e6 1.6321901222988093e7 0.0
1.6321901222988093e7 -5.228171284038004e6 0.0
0.0 0.0 0.0

-124011.45373038552 1.2458020818969496e7 0.0
1.2458020818969496e7 1.921243821082047e6 0.0
0.0 0.0 0.0

5.325259157734842e6 4.152821835617943e6 0.0
4.152821835617943e6 -2.0257939733928077e7 0.0
0.0 0.0 0.0

-4.72844096538589e6 6.274319923860529e6 0.0
6.274319923860529e6 5.877294860480698e6 0.0
0.0 0.0 0.0

-7.197618663374171e6 2.626869966242251e7 0.0
2.626869966242251e7 5.169883682636154e6 0.0
0.0 0.0 0.0

-8.066511797035453e6 1.4581637254912056e7 0.0
1.4581637254912056e7 1.3365454488560941e7 0.0
0.0 0.0 0.0

30094.84977257857 1.28687917356361e7 0.0
1.28687917356361e7 -1.212113155581065e7 0.0
0.0 0.0 0.0

2.3554801252311626e6 1.4042619452106196e7 0.0
1.4042619452106196e7 3.3678736957027656e6 0.0
0.0 0.0 0.0

-4.749347459120976e6 3.62788058440818e6 0.0
3.62788058440818e6 4.91940116796463e6 0.0
0.0 0.0 0.0

-3.6193457535667904e6 8.290289511922988e6 0.0
8.290289511922988e6 726159.0107154811 0.0
0.0 0.0 0.0

6045.477734550368 1.247235732182604e7 0.0
1.247235732182604e7 -9.83816564344707e6 0.0
0.0 0.0 0.0

35283.22707571741 1.2711095721461926e7 0.0
1.2711095721461926e7 -7.20100120812929e6 0.0
0.0 0.0 0.0

-8.362361141027599e6 1.36780660966977e7 0.0
1.36780660966977e7 1.1037171136922054e7 0.0
0.0 0.0 0.0

341361.23319159914 1.2643166188743288e7 0.0
1.2643166188743288e7 -1.4779477826401468e7 0.0
0.0 0.0 0.0

2.75308697922899e6 1.0356124620579608e7 0.0
1.0356124620579608e7 -1.6030211977917474e7 0.0
0.0 0.0 0.0

-5.234590870513603e6 1.834885333661414e7 0.0
1.834885333661414e7 7.097203556875145e6 0.0
0.0 0.0 0.0

1.024514238658892e6 1.2944310303101733e7 0.0
1.2944310303101733e7 -1.2667714152693791e7 0.0
0.0 0.0 0.0

-1.1959367907200627e7 7.889478067700784e6 0.0
7.889478067700784e6 1.6767176168592058e7 0.0
0.0 0.0 0.0

3.5708831787330396e6 5.47467948738006e6 0.0
5.47467948738006e6 -1.0118639925987782e7 0.0
0.0 0.0 0.0

-1.8958183442485735e7 2.2821685060695495e7 0.0
2.2821685060695495e7 -544955.0719793411 0.0
0.0 0.0 0.0

1.7792009409304103e6 6.6112754116560705e6 0.0
6.6112754116560705e6 -8.17512458273736e6 0.0
0.0 0.0 0.0

3.7883985010513444e6 4.0893775808549924e6 0.0
4.0893775808549924e6 -1.0210853678138562e7 0.0
0.0 0.0 0.0

-5.4720234646508135e6 1.8841439184009816e7 0.0
1.8841439184009816e7 6.940171759811692e6 0.0
0.0 0.0 0.0

890334.0956315899 1.1624757163156928e7 0.0
1.1624757163156928e7 2.9677807061349265e6 0.0
0.0 0.0 0.0

2.043795067048515e6 1.4603042309043257e7 0.0
1.4603042309043257e7 -3.761199201659418e6 0.0
0.0 0.0 0.0

-9.582320892687757e6 1.3783520298625749e7 0.0
1.3783520298625749e7 1.5809447811036855e7 0.0
0.0 0.0 0.0

-6.792557400644731e6 1.473772676567606e7 0.0
1.473772676567606e7 1.5836364871968566e7 0.0
0.0 0.0 0.0

2.8936762178362543e6 1.3573872947796343e7 0.0
1.3573872947796343e7 2.618333482203729e7 0.0
0.0 0.0 0.0

55350.2765967946 1.3761188352221128e7 0.0
1.3761188352221128e7 -2.7025053633001316e6 0.0
0.0 0.0 0.0

-6.322896569930322e6 1.5254651058183128e7 0.0
1.5254651058183128e7 1.1283123580586582e7 0.0
0.0 0.0 0.0

-7.2113259973307885e6 1.3150122572414258e7 0.0
1.3150122572414258e7 7.715980659879605e6 0.0
0.0 0.0 0.0

-103646.70402473677 1.2613535370935218e7 0.0
1.2613535370935218e7 -1.1310063827049881e7 0.0
0.0 0.0 0.0

-5.47019597262454e6 1.8415638920304608e7 0.0
1.8415638920304608e7 5.791863769342875e6 0.0
0.0 0.0 0.0

-1.3005723251054488e7 6.726122672409524e6 0.0
6.726122672409524e6 1.843779052119444e7 0.0
0.0 0.0 0.0

3.308353140930607e6 1.783572996360422e7 0.0
1.783572996360422e7 -5.048993263213847e6 0.0
0.0 0.0 0.0

-1.0163772335682521e6 1.5563098363024695e7 0.0
1.5563098363024695e7 -6.831219030711515e6 0.0
0.0 0.0 0.0

3.7186290461575733e6 6.69417987084748e6 0.0
6.69417987084748e6 -1.4636078461862417e7 0.0
0.0 0.0 0.0

-55001.798020156566 1.6569617473676622e7 0.0
1.6569617473676622e7 -5.543338337839314e6 0.0
0.0 0.0 0.0

-3.443405162708233e6 1.8770915911171377e7 0.0
1.8770915911171377e7 763162.9900755228 0.0
0.0 0.0 0.0

-2.229047755752172e6 1.2191713897130117e7 0.0
1.2191713897130117e7 -7.430160503455571e6 0.0
0.0 0.0 0.0

5.243419500977785e6 1.632075562300973e7 0.0
1.632075562300973e7 1.747807380062362e7 0.0
0.0 0.0 0.0

-1.053742554853506e7 -4.491808260533452e6 0.0
-4.491808260533452e6 2.629292883876101e7 0.0
0.0 0.0 0.0

-507178.556456398 1.3847996286772402e7 0.0
1.3847996286772402e7 3.786779207442289e6 0.0
0.0 0.0 0.0

-8.602446697780646e6 -6.460516266480086e6 0.0
-6.460516266480086e6 1.9240557785754554e7 0.0
0.0 0.0 0.0

-2.9671786151235634e6 1.9036718231531326e7 0.0
1.9036718231531326e7 -394065.30726014916 0.0
0.0 0.0 0.0

-1.51769491101728e6 1.8228453664476383e7 0.0
1.8228453664476383e7 -4.283227480711857e6 0.0
0.0 0.0 0.0

-6.383357542396504e6 2.5349657757644653e7 0.0
2.5349657757644653e7 4.526733928309381e6 0.0
0.0 0.0 0.0

22378.877960643265 1.5018519831886008e7 0.0
1.5018519831886008e7 7.778098502926972e6 0.0
0.0 0.0 0.0

-1.227538346882398e7 5.875197215829942e6 0.0
5.875197215829942e6 2.032541176756446e7 0.0
0.0 0.0 0.0

-3.1597907293430646e6 1.938727267167155e7 0.0
1.938727267167155e7 361610.8558508733 0.0
0.0 0.0 0.0

-6.618856700225676e6 1.5758311871430455e7 0.0
1.5758311871430455e7 8.172622853607109e6 0.0
0.0 0.0 0.0

-5.637805840984233e6 1.74703942467962e7 0.0
1.74703942467962e7 5.670387658205718e6 0.0
0.0 0.0 0.0

4.2436900111848395e6 7.740670763338673e6 0.0
7.740670763338673e6 -2.3031462945986822e7 0.0
0.0 0.0 0.0

-5.273054251440365e6 1.828751187151697e7 0.0
1.828751187151697e7 7.516429630609445e6 0.0
0.0 0.0 0.0

5.963533374831246e6 1.3165439978418427e7 0.0
1.3165439978418427e7 3.6502292217931394e6 0.0
0.0 0.0 0.0

2.431433796029915e6 1.0732100854098335e7 0.0
1.0732100854098335e7 -1.4349231356573248e7 0.0
0.0 0.0 0.0

-1.0438651455823561e7 6065.498448055877 0.0
6065.498448055877 3.966315467229533e7 0.0
0.0 0.0 0.0

-3.8253304352213047e6 2.0111881816417035e7 0.0
2.0111881816417035e7 2.4807790418504355e6 0.0
0.0 0.0 0.0

505979.71543322434 1.4176172026928602e7 0.0
1.4176172026928602e7 3.306052321229226e6 0.0
0.0 0.0 0.0

-5.947886859285305e7 4.8849751225187205e7 0.0
4.8849751225187205e7 -1.3213975593234621e7 0.0
0.0 0.0 0.0

4.0493182932242947e6 5.022720408033401e6 0.0
5.022720408033401e6 -1.2578473834202625e7 0.0
0.0 0.0 0.0

-3.0194023369839136e6 1.4655600615431223e7 0.0
1.4655600615431223e7 -451375.2974327914 0.0
0.0 0.0 0.0

-1.0112415817666408e7 1.8777201105395425e7 0.0
1.8777201105395425e7 4.842059451283194e6 0.0
0.0 0.0 0.0

236649.81342291413 1.408351099186733e7 0.0
1.408351099186733e7 -1.018778132214989e7 0.0
0.0 0.0 0.0

-1.1945701644227607e6 1.524781057060838e7 0.0
1.524781057060838e7 -8.1059154173758235e6 0.0
0.0 0.0 0.0

4.525878166443385e6 1.4856908053580135e7 0.0
1.4856908053580135e7 -2.8320294318546304e6 0.0
0.0 0.0 0.0

-4.752693914460025e6 2.2461092202012178e7 0.0
2.2461092202012178e7 4.823495852435781e6 0.0
0.0 0.0 0.0

-1.7148060951350017e6 1.5795813193959624e7 0.0
1.5795813193959624e7 -5.376040273905927e6 0.0
0.0 0.0 0.0

5.339427249800382e6 5.307085452247909e6 0.0
5.307085452247909e6 -2.3936075044763517e7 0.0
0.0 0.0 0.0

-1.4971315158079432e7 2.040294265311278e7 0.0
2.040294265311278e7 -1.1153775535602998e6 0.0
0.0 0.0 0.0

-6.223281405813746e6 1.5397008855502795e7 0.0
1.5397008855502795e7 8.795459030099306e6 0.0
0.0 0.0 0.0

-1.3534881974011706e6 1.766723099693698e7 0.0
1.766723099693698e7 -4.868610011378892e6 0.0
0.0 0.0 0.0

-5.900317856784282e6 1.4332908182577932e7 0.0
1.4332908182577932e7 2.0245512303925943e7 0.0
0.0 0.0 0.0

5.357197000686061e6 1.6206869215523388e7 0.0
1.6206869215523388e7 -5.680579269888632e6 0.0
0.0 0.0 0.0

-5.485691628817819e6 1.710652917090625e7 0.0
1.710652917090625e7 8.587822473183533e6 0.0
0.0 0.0 0.0

-587489.6751985173 1.3146733648714634e7 0.0
1.3146733648714634e7 -7.826223265422664e6 0.0
0.0 0.0 0.0

860002.1297448173 8.929285377841193e6 0.0
8.929285377841193e6 3.727554975741786e6 0.0
0.0 0.0 0.0

634153.2552439179 1.536929696175105e7 0.0
1.536929696175105e7 -6.521115771801803e6 0.0
0.0 0.0 0.0

-9.016294510760546e6 1.4360567447070355e7 0.0
1.4360567447070355e7 1.4529296276778672e7 0.0
0.0 0.0 0.0

-1.0111428567943716e7 3.3993985159689724e6 0.0
3.3993985159689724e6 4.1757512868126564e7 0.0
0.0 0.0 0.0

-9.753424320548305e6 -1.3243340438536725e6 0.0
-1.3243340438536725e6 4.426530532735429e7 0.0
0.0 0.0 0.0

-1.2226360265466096e6 1.431439098008953e7 0.0
1.431439098008953e7 -6.84659565679331e6 0.0
0.0 0.0 0.0

172696.75425267173 1.4686424686363848e7 0.0
1.4686424686363848e7 -8.946411653911293e6 0.0
0.0 0.0 0.0

-1.066665275049406e6 1.523144634855537e7 0.0
1.523144634855537e7 -8.353355761764673e6 0.0
0.0 0.0 0.0

-5.311572479348814e6 1.709317610801349e7 0.0
1.709317610801349e7 -1.2518523899150316e6 0.0
0.0 0.0 0.0

7.0488438586611785e6 1.4389555146647403e7 0.0
1.4389555146647403e7 3.536340552131918e6 0.0
0.0 0.0 0.0

-8.3415520910861995e6 1.4386499658492645e7 0.0
1.4386499658492645e7 1.2891421535230475e7 0.0
0.0 0.0 0.0

-833273.085789064 1.5164274894437144e7 0.0
1.5164274894437144e7 -8.559332127823068e6 0.0
0.0 0.0 0.0

-677199.6476190754 1.2627093847780472e7 0.0
1.2627093847780472e7 -7.062122060937234e6 0.0
0.0 0.0 0.0

-6.568720399157423e6 -2.7992631501068505e6 0.0
-2.7992631501068505e6 1.119579441133313e7 0.0
0.0 0.0 0.0

1.9182400208139373e6 1.0903842898727369e7 0.0
1.0903842898727369e7 -1.8921095650673956e7 0.0
0.0 0.0 0.0

-1.055818007310307e7 -3.5557689787272867e6 0.0
-3.5557689787272867e6 1.897995686312801e7 0.0
0.0 0.0 0.0

-4.990936606753491e6 -8.029575671376962e6 0.0
-8.029575671376962e6 1.1652373039423076e7 0.0
0.0 0.0 0.0

-5.425197303519666e6 -7.624399010613957e6 0.0
-7.624399010613957e6 1.1931044718206603e7 0.0
0.0 0.0 0.0

-3.200752990392339e6 8.244182202482735e6 0.0
8.244182202482735e6 2.158435320837038e6 0.0
0.0 0.0 0.0

775749.9454313437 1.22782222116058e7 0.0
1.22782222116058e7 -1.1764913993799428e7 0.0
0.0 0.0 0.0

2.3932976900168303e6 1.0746439035175715e7 0.0
1.0746439035175715e7 -1.867429078046952e7 0.0
0.0 0.0 0.0

-174174.76479342056 1.4782672083571713e7 0.0
1.4782672083571713e7 -2.934779407631107e6 0.0
0.0 0.0 0.0

-437544.8159072015 1.5766186959854389e7 0.0
1.5766186959854389e7 -6.773008322158368e6 0.0
0.0 0.0 0.0

2.3047154539625584e6 1.4353470424154509e7 0.0
1.4353470424154509e7 -2.082037539411389e6 0.0
0.0 0.0 0.0

-2.8600981656207596e6 1.7828346662501104e7 0.0
1.7828346662501104e7 -1.281400401942383e6 0.0
0.0 0.0 0.0

2.5754908151975848e7 1.6311337149447538e7 0.0
1.6311337149447538e7 2.597412529107943e6 0.0
0.0 0.0 0.0

17672.943875884637 1.1958724630437782e7 0.0
1.1958724630437782e7 9.400500005233858e6 0.0
0.0 0.0 0.0

1.5801731360839098e6 1.4931143375601416e7 0.0
1.4931143375601416e7 -4.919729553556729e6 0.0
0.0 0.0 0.0

-682475.8900537913 1.8255508179727837e7 0.0
1.8255508179727837e7 -4.240372931490101e6 0.0
0.0 0.0 0.0

-3.5110287053333838e6 1.9925730581255578e7 0.0
1.9925730581255578e7 1.524567313093943e6 0.0
0.0 0.0 0.0

689783.9081885894 1.3437309314159812e7 0.0
1.3437309314159812e7 -1.2023761136576176e7 0.0
0.0 0.0 0.0

-9.520353178571679e6 1.816840377630382e7 0.0
1.816840377630382e7 2.683614870105386e6 0.0
0.0 0.0 0.0

-5.75552240663564e6 1.913342957165139e7 0.0
1.913342957165139e7 6.7865787845648285e6 0.0
0.0 0.0 0.0

4.835599163275546e6 4.133302323073808e6 0.0
4.133302323073808e6 -1.3884817043951908e7 0.0
0.0 0.0 0.0

-3.73426561495585e6 1.8593653716547683e7 0.0
1.8593653716547683e7 -64867.23524443759 0.0
0.0 0.0 0.0

-8.958284168455712e6 2.712539862881122e7 0.0
2.712539862881122e7 5.277914307679895e6 0.0
0.0 0.0 0.0

-911986.3132170388 9.885181993206125e6 0.0
9.885181993206125e6 -4.906143809049018e6 0.0
0.0 0.0 0.0

2.512674780214576e6 1.0718768794245018e7 0.0
1.0718768794245018e7 -1.5287450946895197e7 0.0
0.0 0.0 0.0

2.5767560816338416e6 1.0514720774726158e7 0.0
1.0514720774726158e7 -1.790604542844517e7 0.0
0.0 0.0 0.0

1.805540578666457e6 1.1318475069121648e7 0.0
1.1318475069121648e7 -1.8600968828338575e7 0.0
0.0 0.0 0.0

367280.4934394753 2.4044498327756237e7 0.0
2.4044498327756237e7 -3.0476447661915263e6 0.0
0.0 0.0 0.0

-615714.7720926204 1.5003306967370104e7 0.0
1.5003306967370104e7 -8.739797149881799e6 0.0
0.0 0.0 0.0

1.037202080881793e6 1.5465620824957844e7 0.0
1.5465620824957844e7 1.3755302330858946e7 0.0
0.0 0.0 0.0

-1.892698027394949e7 1.2516007062149819e7 0.0
1.2516007062149819e7 1.0082723545327317e7 0.0
0.0 0.0 0.0

-4.063391033719022e7 2.244640858608385e7 0.0
2.244640858608385e7 3.500432570309516e6 0.0
0.0 0.0 0.0

4.993832701506356e6 6.218284930000809e6 0.0
6.218284930000809e6 -2.9422384441870764e7 0.0
0.0 0.0 0.0

995512.2343314011 1.5234858478045048e7 0.0
1.5234858478045048e7 -5.848525059857182e6 0.0
0.0 0.0 0.0

-734097.1895268485 1.7187830509101063e7 0.0
1.7187830509101063e7 -5.313055995969143e6 0.0
0.0 0.0 0.0

4.609092283915789e6 4.087809179333555e6 0.0
4.087809179333555e6 -1.3261900287516935e7 0.0
0.0 0.0 0.0

-6.972710973984418e6 1.7684303170343846e7 0.0
1.7684303170343846e7 -1.6621911569733946e6 0.0
0.0 0.0 0.0

-4.387743512281738e6 1.5146585630229676e7 0.0
1.5146585630229676e7 1.0935578656594995e7 0.0
0.0 0.0 0.0

-663692.1068615783 1.4665758226269498e7 0.0
1.4665758226269498e7 1.1534813839648161e7 0.0
0.0 0.0 0.0

-4.561067421277901e6 -2.5951668724250672e6 0.0
-2.5951668724250672e6 8.140542907726562e6 0.0
0.0 0.0 0.0

1.4325466639344562e6 1.2334734717678636e7 0.0
1.2334734717678636e7 -1.4197584579163566e7 0.0
0.0 0.0 0.0

2.750641401503535e6 8.6156337924204e6 0.0
8.6156337924204e6 -1.3450049639521752e7 0.0
0.0 0.0 0.0

1.0034085308678674e6 7.410743037555657e6 0.0
7.410743037555657e6 -4.828425807252639e6 0.0
0.0 0.0 0.0

-4.982080446532035e6 -2.0822830685375654e6 0.0
-2.0822830685375654e6 6.278244642511974e6 0.0
0.0 0.0 0.0

-1.8398149953400772e6 1.4898779117425056e7 0.0
1.4898779117425056e7 5.02441280137268e7 0.0
0.0 0.0 0.0

-1.195726769025481e7 653838.4623391206 0.0
653838.4623391206 2.652055777869046e7 0.0
0.0 0.0 0.0

-2.4684017775758784e6 2.044675776042087e7 0.0
2.044675776042087e7 -306042.37596873136 0.0
0.0 0.0 0.0

-3.1956756830841727e6 1.4372983213485597e7 0.0
1.4372983213485597e7 65327.62133529503 0.0
0.0 0.0 0.0

-85246.98468762217 1.2060249193705628e7 0.0
1.2060249193705628e7 -8.864808293784695e6 0.0
0.0 0.0 0.0

-1.107258593544715e6 1.698006094878946e7 0.0
1.698006094878946e7 -5.562382646231973e6 0.0
0.0 0.0 0.0

-5.4545350286442265e6 1.853591787379034e7 0.0
1.853591787379034e7 6.315887106901467e6 0.0
0.0 0.0 0.0

-2.6854079339131736e6 2.72020106329592e7 0.0
2.72020106329592e7 -250526.8209839043 0.0
0.0 0.0 0.0

3.0005820025830967e6 4.996866069523957e6 0.0
4.996866069523957e6 -8.468841555096548e6 0.0
0.0 0.0 0.0

-7.439982849287661e6 -3.3853164951509135e6 0.0
-3.3853164951509135e6 9.757675508647379e6 0.0
0.0 0.0 0.0

-353010.73022625875 1.393780177923501e7 0.0
1.393780177923501e7 334652.4649708654 0.0
0.0 0.0 0.0

-7.301505372160814e6 1.933513073039399e7 0.0
1.933513073039399e7 6.32267013368359e6 0.0
0.0 0.0 0.0

-5.4926422006585235e6 1.523096111354848e7 0.0
1.523096111354848e7 1.2851967935459029e7 0.0
0.0 0.0 0.0

-1.2116330616902735e7 7.032728384750449e6 0.0
7.032728384750449e6 1.7358574571036585e7 0.0
0.0 0.0 0.0

2.080716957248873e6 1.141096498166176e7 0.0
1.141096498166176e7 -1.4745032438469045e7 0.0
0.0 0.0 0.0

-1.0930321025052473e8 1.732102311955384e7 0.0
1.732102311955384e7 -574291.5393806025 0.0
0.0 0.0 0.0

-1.223015482374242e7 5.915437746450232e6 0.0
5.915437746450232e6 1.8034203512434453e7 0.0
0.0 0.0 0.0

-6.658218656296073e6 1.9391746943139296e7 0.0
1.9391746943139296e7 6.47729330219673e6 0.0
0.0 0.0 0.0

923758.9932596125 1.316560691565016e7 0.0
1.316560691565016e7 -1.2727351712159453e7 0.0
0.0 0.0 0.0

984905.6254972192 1.1784961904379059e7 0.0
1.1784961904379059e7 -1.821398991331465e7 0.0
0.0 0.0 0.0

-3.0369324848979604e6 2.6008032016141847e7 0.0
2.6008032016141847e7 668691.5653629065 0.0
0.0 0.0 0.0

584330.7869939236 1.2211138879435599e7 0.0
1.2211138879435599e7 -1.6863022131886993e7 0.0
0.0 0.0 0.0

-339370.80680337036 1.4773222243960623e7 0.0
1.4773222243960623e7 -8.714075650758553e6 0.0
0.0 0.0 0.0

-149421.7524310606 1.4112821634917706e7 0.0
1.4112821634917706e7 1.416909865214136e6 0.0
0.0 0.0 0.0

-3.2126033048964455e6 2.243187599515246e7 0.0
2.243187599515246e7 2.1343595879062046e6 0.0
0.0 0.0 0.0

-7.974914297439417e6 1.9115541403650846e7 0.0
1.9115541403650846e7 5.91808125511403e6 0.0
0.0 0.0 0.0

1.6465732640813198e6 1.2059330461706888e7 0.0
1.2059330461706888e7 -1.4081455058171572e7 0.0
0.0 0.0 0.0

-641728.0839726883 1.4840724034771562e7 0.0
1.4840724034771562e7 -8.253900241861869e6 0.0
0.0 0.0 0.0

-4.812563513234509e6 1.8263080222439133e7 0.0
1.8263080222439133e7 2.852077554309151e6 0.0
0.0 0.0 0.0

-6.130899200664345e6 1.9302433471319824e7 0.0
1.9302433471319824e7 6.637158988840768e6 0.0
0.0 0.0 0.0

-7.466349861707491e6 -7.928482507953859e6 0.0
-7.928482507953859e6 1.875371963411334e7 0.0
0.0 0.0 0.0

-7.963225592658636e6 1.3349430252726315e7 0.0
1.3349430252726315e7 1.2464145921966447e7 0.0
0.0 0.0 0.0

253493.09699160978 1.2497141649532033e7 0.0
1.2497141649532033e7 -1.5542665211643867e7 0.0
0.0 0.0 0.0

8.415944623765903e6 1.3856312237058515e7 0.0
1.3856312237058515e7 -2.229513032725307e6 0.0
0.0 0.0 0.0

1.1926577796553718e6 1.2538446199798219e7 0.0
1.2538446199798219e7 -1.4268726084339991e7 0.0
0.0 0.0 0.0

349005.48841640935 1.2733809844490595e7 0.0
1.2733809844490595e7 -3.4741953146551475e6 0.0
0.0 0.0 0.0

-1.2060123237478275e7 4.732029739554249e6 0.0
4.732029739554249e6 2.1281075730984725e7 0.0
0.0 0.0 0.0

-4.736128158749551e6 1.6581488420926554e7 0.0
1.6581488420926554e7 -3.2138151475491356e6 0.0
0.0 0.0 0.0

209069.99461750593 1.1592379378899453e7 0.0
1.1592379378899453e7 -5.448165551990571e6 0.0
0.0 0.0 0.0

376060.96641573356 1.4169299568023505e7 0.0
1.4169299568023505e7 -9.20484708422488e6 0.0
0.0 0.0 0.0

-1.4797189501955742e7 2.9175083572754893e7 0.0
2.9175083572754893e7 6.867612270440562e6 0.0
0.0 0.0 0.0

-3.53606759627002e7 9.46446468642902e6 0.0
9.46446468642902e6 9.691095169717686e6 0.0
0.0 0.0 0.0

-2.7680347786650816e6 2.096818820772366e7 0.0
2.096818820772366e7 -699953.5854711347 0.0
0.0 0.0 0.0

-1.1218838679305656e7 2.811844677118087e7 0.0
2.811844677118087e7 6.111383813242584e6 0.0
0.0 0.0 0.0

5.632161464630565e6 3.3534787399179906e7 0.0
3.3534787399179906e7 -4.896176544065505e6 0.0
0.0 0.0 0.0

1.3909143750744062e6 1.155786473666063e7 0.0
1.155786473666063e7 -1.7714502758908924e7 0.0
0.0 0.0 0.0

-4.0803711241811775e6 1.3092738315916864e7 0.0
1.3092738315916864e7 -1.703147105141265e7 0.0
0.0 0.0 0.0

-5.157571195002079e6 1.800201517876583e7 0.0
1.800201517876583e7 7.476948849231342e6 0.0
0.0 0.0 0.0

-1.2967457973003998e7 6.778870900789271e6 0.0
6.778870900789271e6 1.7383474489868343e7 0.0
0.0 0.0 0.0

-7.430084764813469e6 1.687703209646392e7 0.0
1.687703209646392e7 2.6425768500941563e6 0.0
0.0 0.0 0.0

-1.3639711278206764e6 1.2783870761223476e7 0.0
1.2783870761223476e7 4.677477658527665e6 0.0
0.0 0.0 0.0

-623465.5819528655 1.3603409232071826e7 0.0
1.3603409232071826e7 -6.160194317032454e6 0.0
0.0 0.0 0.0

-2.409482617773985e6 2.8539777738529727e7 0.0
2.8539777738529727e7 -1.55213270857526e6 0.0
0.0 0.0 0.0

-1.3003378575415802e6 1.6525320776169788e7 0.0
1.6525320776169788e7 -6.285885477288057e6 0.0
0.0 0.0 0.0

1.3086911615552332e6 1.3779472743958516e7 0.0
1.3779472743958516e7 -4.4558554533846555e6 0.0
0.0 0.0 0.0

5.6979373675085725e6 3.536313123403238e6 0.0
3.536313123403238e6 -2.1014723909456555e7 0.0
0.0 0.0 0.0

-5.480476191113688e6 1.8558344371128485e7 0.0
1.8558344371128485e7 6.756828672413234e6 0.0
0.0 0.0 0.0

-4.340918251886519e6 1.3808093587615725e7 0.0
1.3808093587615725e7 3.0421877520542443e6 0.0
0.0 0.0 0.0

1.798434185247669e6 1.0009447363459771e7 0.0
1.0009447363459771e7 -9.38151264065452e6 0.0
0.0 0.0 0.0

1.1445476982738357e6 1.1830866156501865e7 0.0
1.1830866156501865e7 -1.829457290537658e7 0.0
0.0 0.0 0.0

-5.303063066470686e6 1.5325283578866312e7 0.0
1.5325283578866312e7 1.0735851173594765e7 0.0
0.0 0.0 0.0

-7.108224165951291e6 1.4979178844533633e7 0.0
1.4979178844533633e7 1.4868196077958003e7 0.0
0.0 0.0 0.0

-818779.6439368307 1.3123953494210187e7 0.0
1.3123953494210187e7 -3.145781388034569e6 0.0
0.0 0.0 0.0

-43490.14085571398 1.770407326892011e7 0.0
1.770407326892011e7 -4.880188551438089e6 0.0
0.0 0.0 0.0

-5.390912754848387e6 1.7978379523776412e7 0.0
1.7978379523776412e7 7.559762336317363e6 0.0
0.0 0.0 0.0

-1.0702606499490026e7 -416371.466207298 0.0
-416371.466207298 3.496566622540187e7 0.0
0.0 0.0 0.0

-3.0274621099636834e6 8.91683288012635e6 0.0
8.91683288012635e6 1.6633526121826374e6 0.0
0.0 0.0 0.0

-82695.48376481887 1.3881293657727318e7 0.0
1.3881293657727318e7 -3.7284679727861835e6 0.0
0.0 0.0 0.0

-5.674526206099015e6 1.862110741439914e7 0.0
1.862110741439914e7 7.101082942366935e6 0.0
0.0 0.0 0.0

-6.36249230575402e6 1.5666475939535161e7 0.0
1.5666475939535161e7 9.805637803853994e6 0.0
0.0 0.0 0.0

2.539185132169092e6 1.0136261217940373e7 0.0
1.0136261217940373e7 -1.2712165571365077e7 0.0
0.0 0.0 0.0

-4.02151930444951e6 1.964270122046871e7 0.0
1.964270122046871e7 2.6819721661222097e6 0.0
0.0 0.0 0.0

-3.132586924230255e6 2.3245264031908244e7 0.0
2.3245264031908244e7 1.974283054898227e6 0.0
0.0 0.0 0.0

-4.87333350507081e6 1.6287930725467695e7 0.0
1.6287930725467695e7 4.3293838724657595e6 0.0
0.0 0.0 0.0

2.0130676366577595e6 1.1414312009541122e7 0.0
1.1414312009541122e7 -1.3792354474320402e7 0.0
0.0 0.0 0.0

-3.9068941920970147e6 1.96853901917186e7 0.0
1.96853901917186e7 1.1457232368375522e6 0.0
0.0 0.0 0.0

-1.6993350465973723e6 1.750732034225146e7 0.0
1.750732034225146e7 -4.952874662721223e6 0.0
0.0 0.0 0.0

-3.590667399965617e6 1.5506340387263313e7 0.0
1.5506340387263313e7 1.4156166692769915e7 0.0
0.0 0.0 0.0

-5.204281197668618e6 1.5898143064049555e7 0.0
1.5898143064049555e7 5.050561755005365e6 0.0
0.0 0.0 0.0

-5.382194307979206e6 1.967648357506573e7 0.0
1.967648357506573e7 5.7158627037734855e6 0.0
0.0 0.0 0.0

-1.0438043441131024e7 -3.9487602729278253e6 0.0
-3.9487602729278253e6 2.62654028610927e7 0.0
0.0 0.0 0.0

-3.156439571150121e6 2.278850594848671e7 0.0
2.278850594848671e7 2.112971601108926e6 0.0
0.0 0.0 0.0

5.652631899915151e6 3.6050859281159258e6 0.0
3.6050859281159258e6 -2.0540238769736547e7 0.0
0.0 0.0 0.0

-3.2780703819287196e6 1.8356430362001397e7 0.0
1.8356430362001397e7 -1.5672852206732437e6 0.0
0.0 0.0 0.0

-9.234028320500862e6 -6.158163677360625e6 0.0
-6.158163677360625e6 2.184172905478202e7 0.0
0.0 0.0 0.0

-56970.206320604775 1.0994384373505944e7 0.0
1.0994384373505944e7 -4.0336778333921405e6 0.0
0.0 0.0 0.0

-6.8064359881852865e6 1.8068704274571177e7 0.0
1.8068704274571177e7 4.210354188926974e6 0.0
0.0 0.0 0.0

-686786.8066811087 1.5359460697566612e7 0.0
1.5359460697566612e7 -2.2599754712444493e6 0.0
0.0 0.0 0.0

-1.0926894491789197e6 1.5661141295467794e7 0.0
1.5661141295467794e7 -2.9366904975361056e6 0.0
0.0 0.0 0.0

81975.68322147056 1.338035887697403e7 0.0
1.338035887697403e7 -1.211271121826871e7 0.0
0.0 0.0 0.0

-1.2899921693702241e7 8.599942596628247e6 0.0
8.599942596628247e6 1.792701547714567e7 0.0
0.0 0.0 0.0

-1.8416812831423874e6 1.343891480021549e7 0.0
1.343891480021549e7 6.526101501604721e6 0.0
0.0 0.0 0.0

4.1039792786728926e6 7.564410077898256e6 0.0
7.564410077898256e6 -1.6128411968686476e7 0.0
0.0 0.0 0.0

-887929.5321868341 1.568663570878042e7 0.0
1.568663570878042e7 1.244051697490718e7 0.0
0.0 0.0 0.0

-3.79873436915664e6 1.5244049264189968e7 0.0
1.5244049264189968e7 -3.228402591548047e7 0.0
0.0 0.0 0.0

-6.494572634957941e6 1.4863780153684951e7 0.0
1.4863780153684951e7 9.490337813162837e6 0.0
0.0 0.0 0.0

-4.196378827690152e6 1.9877142168422874e7 0.0
1.9877142168422874e7 2.123091250884895e6 0.0
0.0 0.0 0.0

-4.712613563626759e6 1.5623543995867182e7 0.0
1.5623543995867182e7 1.754750028083851e6 0.0
0.0 0.0 0.0

-877790.8164940283 1.5608738186731413e7 0.0
1.5608738186731413e7 -7.153820687481327e6 0.0
0.0 0.0 0.0

474123.3210193096 1.4644889496593524e7 0.0
1.4644889496593524e7 -6.413147253071852e6 0.0
0.0 0.0 0.0

-5.466701118890295e6 1.8525383949290033e7 0.0
1.8525383949290033e7 7.109353139369728e6 0.0
0.0 0.0 0.0

-6.12010991914103e6 1.5234335762010463e7 0.0
1.5234335762010463e7 1.1359741879865075e7 0.0
0.0 0.0 0.0

-7.083292300182813e6 1.4898980831638765e7 0.0
1.4898980831638765e7 1.4761707796820687e7 0.0
0.0 0.0 0.0

-1.3862778138490748e6 1.2666069120010542e7 0.0
1.2666069120010542e7 -1.1768043870806739e7 0.0
0.0 0.0 0.0

1.0458678168582721e6 1.1939154949525239e7 0.0
1.1939154949525239e7 -1.245160616084731e7 0.0
0.0 0.0 0.0

-4.401476236469632e6 1.5330171374314476e7 0.0
1.5330171374314476e7 9.815267672854047e6 0.0
0.0 0.0 0.0

3.436984382656201e6 8.705494679685378e6 0.0
8.705494679685378e6 -2.1754487835255045e7 0.0
0.0 0.0 0.0

-1.254885279870278e6 1.4824505567925485e7 0.0
1.4824505567925485e7 -6.029945999193394e6 0.0
0.0 0.0 0.0

-3.093627031782167e6 2.3842053868131924e7 0.0
2.3842053868131924e7 1.8918431021720627e6 0.0
0.0 0.0 0.0

-1.3040711339908428e6 1.5054301387437565e7 0.0
1.5054301387437565e7 9.989842806672778e6 0.0
0.0 0.0 0.0

1.345562302509748e7 1.9678551420122173e7 0.0
1.9678551420122173e7 4.4852054788036466e7 0.0
0.0 0.0 0.0

-1.11255918316118e7 1.830605512227763e7 0.0
1.830605512227763e7 -3.7085288635693066e7 0.0
0.0 0.0 0.0

-4.792350511008554e6 1.3704903343382135e7 0.0
1.3704903343382135e7 1.5524152203687318e6 0.0
0.0 0.0 0.0

-2.153933776400938e7 2.3029447165962774e7 0.0
2.3029447165962774e7 1.091427427467095e7 0.0
0.0 0.0 0.0

-3.347150835607155e6 1.72579645725572e7 0.0
1.72579645725572e7 -1.682351551403191e6 0.0
0.0 0.0 0.0

-3.5001453413287704e6 1.539654489148942e7 0.0
1.539654489148942e7 8.099966321061747e6 0.0
0.0 0.0 0.0

-2.2054849962661695e6 1.528235995420981e7 0.0
1.528235995420981e7 1.1799849270971041e7 0.0
0.0 0.0 0.0

1.1939827074614018e6 1.6150557685216414e7 0.0
1.6150557685216414e7 2.317332036804638e7 0.0
0.0 0.0 0.0

1.6129588477783576e6 1.4640966451163648e7 0.0
1.4640966451163648e7 5.411644100166592e6 0.0
0.0 0.0 0.0

2.2460762163750753e6 1.4215045027879508e7 0.0
1.4215045027879508e7 1.1169430341527008e7 0.0
0.0 0.0 0.0

-881353.6032159607 1.7738239650830146e7 0.0
1.7738239650830146e7 -4.834205127216905e6 0.0
0.0 0.0 0.0

-1.8188602866257434e6 1.4794121314248009e7 0.0
1.4794121314248009e7 7.51307851893104e6 0.0
0.0 0.0 0.0

-4.397972070858708e6 1.4972857714371864e7 0.0
1.4972857714371864e7 9.955957998248987e6 0.0
0.0 0.0 0.0

-2.210458524808847e6 2.1706644536556747e7 0.0
2.1706644536556747e7 351188.07440226746 0.0
0.0 0.0 0.0

-663123.8250280963 1.4670342341063939e7 0.0
1.4670342341063939e7 8.26545140635706e6 0.0
0.0 0.0 0.0

5.28498658566145e6 4.031735552882918e6 0.0
4.031735552882918e6 -1.677764164216526e7 0.0
0.0 0.0 0.0

-9.931120512895666e6 1.0621214615327032e7 0.0
1.0621214615327032e7 1.2644030350374168e7 0.0
0.0 0.0 0.0

-7.828038130770556e6 -7.92549350926441e6 0.0
-7.92549350926441e6 1.9427086236825194e7 0.0
0.0 0.0 0.0

-7.470724384193236e6 1.4784149993827045e7 0.0
1.4784149993827045e7 1.2619737377893507e7 0.0
0.0 0.0 0.0

-3.120699093898928e6 2.013506793214994e7 0.0
2.013506793214994e7 795365.3846138881 0.0
0.0 0.0 0.0

2.318567248793841e6 1.6566532475684196e7 0.0
1.6566532475684196e7 9.453901832293453e6 0.0
0.0 0.0 0.0

620392.9678197287 1.4343821191173948e7 0.0
1.4343821191173948e7 8.402605885111209e6 0.0
0.0 0.0 0.0

-4.958448865742065e6 1.949110172107209e7 0.0
1.949110172107209e7 6.016821228594478e6 0.0
0.0 0.0 0.0

3.787507793222213e6 4.889891542633831e6 0.0
4.889891542633831e6 -1.0570182540502898e7 0.0
0.0 0.0 0.0

-3.4392108226822605e6 1.8738620627208125e7 0.0
1.8738620627208125e7 -827195.1790604854 0.0
0.0 0.0 0.0

3.259205940778018e6 8.952193208016397e6 0.0
8.952193208016397e6 -1.3575301011576898e7 0.0
0.0 0.0 0.0

-6.791179216555866e6 1.8686180522584323e7 0.0
1.8686180522584323e7 6.312663081505539e6 0.0
0.0 0.0 0.0

-1.185168469709243e6 1.8978866158618677e7 0.0
1.8978866158618677e7 -3.8316297580830315e6 0.0
0.0 0.0 0.0

-5.598695367350075e6 1.6199514318704873e7 0.0
1.6199514318704873e7 717857.405013409 0.0
0.0 0.0 0.0

5.926715634658482e6 3.3256816818646044e6 0.0
3.3256816818646044e6 -2.8726520197661377e7 0.0
0.0 0.0 0.0

2.280518932175815e6 1.43547421248959e7 0.0
1.43547421248959e7 -79263.22039159725 0.0
0.0 0.0 0.0

-2.4864819512285036e6 1.9321734379102997e7 0.0
1.9321734379102997e7 -1.1475337807479545e6 0.0
0.0 0.0 0.0

-1.9218489739979135e6 1.7145490273257814e7 0.0
1.7145490273257814e7 -4.099310306835088e6 0.0
0.0 0.0 0.0

-199865.59466264676 1.2870860717572173e7 0.0
1.2870860717572173e7 -9.234645002079492e6 0.0
0.0 0.0 0.0

4.577910653217964e6 5.244487868091947e6 0.0
5.244487868091947e6 -1.5860462304979172e7 0.0
0.0 0.0 0.0

-5.6295354564119e6 1.6820330838850427e7 0.0
1.6820330838850427e7 5.079415421407191e6 0.0
0.0 0.0 0.0

2.263229975461662e6 1.0448797808223706e7 0.0
1.0448797808223706e7 -1.8976539798366204e7 0.0
0.0 0.0 0.0

-8.851667753846463e6 -7.324716364298335e6 0.0
-7.324716364298335e6 2.2705044800081156e7 0.0
0.0 0.0 0.0

-7.382834817224717e6 1.4005704550891746e7 0.0
1.4005704550891746e7 1.1530540130521271e7 0.0
0.0 0.0 0.0

-1.0241274592203856e7 1.7971093886662774e7 0.0
1.7971093886662774e7 4.1532724805549043e6 0.0
0.0 0.0 0.0

4.663571363105968e6 5.937346127058293e6 0.0
5.937346127058293e6 -4.2082147292014934e7 0.0
0.0 0.0 0.0

-9.647782965156756e6 1.2246985227055732e7 0.0
1.2246985227055732e7 2.1239555741144426e7 0.0
0.0 0.0 0.0

-3.5142136378613417e6 1.562287682184509e7 0.0
1.562287682184509e7 1.1638028061338715e7 0.0
0.0 0.0 0.0

-6.556938579973337e6 1.439853758150909e7 0.0
1.439853758150909e7 1.724373124950221e7 0.0
0.0 0.0 0.0

-3.65673967840484e6 1.4684888702775484e7 0.0
1.4684888702775484e7 888547.1577608532 0.0
0.0 0.0 0.0

-7.210327227919519e6 1.4538587818981495e7 0.0
1.4538587818981495e7 8.979633336347053e6 0.0
0.0 0.0 0.0

-63063.53174731508 1.2712219929637896e7 0.0
1.2712219929637896e7 -7.687293252786671e6 0.0
0.0 0.0 0.0

1.3183742361297747e6 1.1588167933989106e7 0.0
1.1588167933989106e7 -1.3120573865432626e7 0.0
0.0 0.0 0.0

3.6989457100888453e6 8.450990798182938e6 0.0
8.450990798182938e6 -2.5914375233379062e7 0.0
0.0 0.0 0.0

-8.396010586093824e6 -7.6588792946943445e6 0.0
-7.6588792946943445e6 2.070826407757727e7 0.0
0.0 0.0 0.0

-9.839953580305494e6 -6.059128564992284e6 0.0
-6.059128564992284e6 2.8147340266444605e7 0.0
0.0 0.0 0.0

-4.983680714014512e6 1.7169382278328355e7 0.0
1.7169382278328355e7 1.797110560415895e6 0.0
0.0 0.0 0.0

-794134.2529414927 1.5597518883113932e7 0.0
1.5597518883113932e7 -7.542038019545522e6 0.0
0.0 0.0 0.0

-5.434205119312444e6 1.4611302271916075e7 0.0
1.4611302271916075e7 2.063000914673283e7 0.0
0.0 0.0 0.0

53431.53570031375 1.2545135100029932e7 0.0
1.2545135100029932e7 -5.943093601340849e6 0.0
0.0 0.0 0.0

-110364.39880197588 1.7102811758227285e7 0.0
1.7102811758227285e7 -5.169186251248712e6 0.0
0.0 0.0 0.0

-5.562365901648106e6 1.794224701158729e7 0.0
1.794224701158729e7 5.750564522745775e6 0.0
0.0 0.0 0.0

-6.8002022330522975e6 -3.7129082881687684e6 0.0
-3.7129082881687684e6 1.1768693491832517e7 0.0
0.0 0.0 0.0

-207860.86852440692 3.040592113453721e7 0.0
3.040592113453721e7 -3.266132443790474e6 0.0
0.0 0.0 0.0

404567.4075494148 1.3722051770179087e7 0.0
1.3722051770179087e7 -7.474617302180046e6 0.0
0.0 0.0 0.0

-1.3903085969595918e6 1.324230101840424e7 0.0
1.324230101840424e7 -2.7194133373787444e7 0.0
0.0 0.0 0.0

5.620045038366479e6 4.253511209711984e6 0.0
4.253511209711984e6 -1.9280461142559532e7 0.0
0.0 0.0 0.0

-97202.28519420768 1.4130767938473647e7 0.0
1.4130767938473647e7 -3.69483041502876e6 0.0
0.0 0.0 0.0

-8.656054930862777e6 1.276397498171946e7 0.0
1.276397498171946e7 1.3317479789391827e7 0.0
0.0 0.0 0.0

-1.9297421538267646e7 1.26476920461119e7 0.0
1.26476920461119e7 1.0202562357555993e7 0.0
0.0 0.0 0.0

-1.6348718885142608e6 1.6383064939083913e7 0.0
1.6383064939083913e7 -4.0142277172357906e6 0.0
0.0 0.0 0.0

1.5830630913221696e6 1.3989154838748168e7 0.0
1.3989154838748168e7 9.329604806535697e6 0.0
0.0 0.0 0.0

-579377.3974034386 1.2637578641688013e7 0.0
1.2637578641688013e7 -9.751674946339305e6 0.0
0.0 0.0 0.0

-7.526982995402187e6 -1.7556022036669266e6 0.0
-1.7556022036669266e6 1.220924928966316e7 0.0
0.0 0.0 0.0

-1.4999173049038448e6 1.4587826649910048e7 0.0
1.4587826649910048e7 -6.042815912792239e6 0.0
0.0 0.0 0.0

-704947.1550425973 1.4434979540844271e7 0.0
1.4434979540844271e7 1.2784096967163887e6 0.0
0.0 0.0 0.0

-2.666234496479808e6 1.5235199153288338e7 0.0
1.5235199153288338e7 8.180088053151631e6 0.0
0.0 0.0 0.0

40105.02316803578 1.334397162944795e7 0.0
1.334397162944795e7 -1.0760659176943105e7 0.0
0.0 0.0 0.0

-5.00168062480577e6 1.5512038422300441e7 0.0
1.5512038422300441e7 1.3267582789318848e7 0.0
0.0 0.0 0.0

213111.1549015672 1.1797582577655485e7 0.0
1.1797582577655485e7 -1.0603946113130257e6 0.0
0.0 0.0 0.0

-627508.1027910125 1.5538268214607378e7 0.0
1.5538268214607378e7 -7.891628095081771e6 0.0
0.0 0.0 0.0

2.126626335372311e6 1.3847153077582285e7 0.0
1.3847153077582285e7 -3.094494229532942e6 0.0
0.0 0.0 0.0

2.4379456847223183e6 1.0220799669489935e7 0.0
1.0220799669489935e7 -1.71272365213969e7 0.0
0.0 0.0 0.0

-7.567439134973481e6 1.4741674567205653e7 0.0
1.4741674567205653e7 1.198303246000599e7 0.0
0.0 0.0 0.0

-442007.0223643787 1.2569030162306748e7 0.0
1.2569030162306748e7 -5.514111613045443e6 0.0
0.0 0.0 0.0

-3.2042752463743463e7 1.9314978704270247e7 0.0
1.9314978704270247e7 8.759600283426056e6 0.0
0.0 0.0 0.0

-2.8871496088560466e6 1.5013945433367964e7 0.0
1.5013945433367964e7 2.683441364440397e7 0.0
0.0 0.0 0.0

5.717827890434032e6 3.4975560869586742e6 0.0
3.4975560869586742e6 -2.1499381145360705e7 0.0
0.0 0.0 0.0

-9.78606246013773e6 -6.267812677909714e6 0.0
-6.267812677909714e6 2.6988056093107454e7 0.0
0.0 0.0 0.0

-61456.546870835125 1.2211318160317589e7 0.0
1.2211318160317589e7 -2.446536995181242e7 0.0
0.0 0.0 0.0

663085.436957214 1.2334260688873978e7 0.0
1.2334260688873978e7 -1.7048180411569923e7 0.0
0.0 0.0 0.0

-600622.1431452918 1.5282072402561052e7 0.0
1.5282072402561052e7 -2.9517494910771796e6 0.0
0.0 0.0 0.0

-9.136252675866937e6 2.0854089987181354e7 0.0
2.0854089987181354e7 -1.993951175134047e6 0.0
0.0 0.0 0.0

-9.404570576232534e6 1.404758531829297e7 0.0
1.404758531829297e7 1.544259595651396e7 0.0
0.0 0.0 0.0

-455214.95376946824 1.5419885145483507e7 0.0
1.5419885145483507e7 -8.178707936400741e6 0.0
0.0 0.0 0.0

-9.853991007618263e6 -3.4077856604003953e6 0.0
-3.4077856604003953e6 3.8052877366996445e7 0.0
0.0 0.0 0.0

-1.047909632376565e7 1.1474162765205527e7 0.0
1.1474162765205527e7 1.5236693335929329e7 0.0
0.0 0.0 0.0

5.354315668567836e6 4.644438956644662e6 0.0
4.644438956644662e6 -3.93808215584078e7 0.0
0.0 0.0 0.0

-4.1906621790109016e6 2.0241458150699638e7 0.0
2.0241458150699638e7 2.282164827757627e6 0.0
0.0 0.0 0.0

5.644697847841347e6 3.5505568490688596e6 0.0
3.5505568490688596e6 -3.410329527847018e7 0.0
0.0 0.0 0.0

-2.1738673481426477e7 2.9234135052876245e7 0.0
2.9234135052876245e7 8.398052915478785e6 0.0
0.0 0.0 0.0

-9.768749460812606e6 -2.9572616022105264e6 0.0
-2.9572616022105264e6 4.010046243738883e7 0.0
0.0 0.0 0.0

2.713620866240603e6 1.0377659124018818e7 0.0
1.0377659124018818e7 -1.6983832065649666e7 0.0
0.0 0.0 0.0

-8.416877072892236e6 1.7876633153472897e7 0.0
1.7876633153472897e7 4.539578991302699e6 0.0
0.0 0.0 0.0

-3.0607622152396537e7 1.665655887297505e7 0.0
1.665655887297505e7 3.262649672561301e6 0.0
0.0 0.0 0.0

5.504410729540132e6 4.0301194499873137e6 0.0
4.0301194499873137e6 -3.661414551835357e7 0.0
0.0 0.0 0.0

-5.0551433658989975e6 1.7044041320977602e7 0.0
1.7044041320977602e7 2.88715466302202e6 0.0
0.0 0.0 0.0

-5.975139618632109e6 1.6195204635517564e7 0.0
1.6195204635517564e7 9.523304870776154e6 0.0
0.0 0.0 0.0

6.418956225658621e6 1.3540748095628716e7 0.0
1.3540748095628716e7 6.191301399129112e6 0.0
0.0 0.0 0.0

924235.240182694 1.2277335411988197e7 0.0
1.2277335411988197e7 -1.5546412079282984e7 0.0
0.0 0.0 0.0

138008.84607837908 1.2712402192398218e7 0.0
1.2712402192398218e7 -1.5855798714654438e7 0.0
0.0 0.0 0.0

-2.416815451440433e6 1.6837644177081715e7 0.0
1.6837644177081715e7 -4.598126921252503e6 0.0
0.0 0.0 0.0

-4.211208784466067e6 2.055785867970824e7 0.0
2.055785867970824e7 2.47103579794087e6 0.0
0.0 0.0 0.0

-1.2314143256146912e7 6.8841363959585e6 0.0
6.8841363959585e6 2.067974920537757e7 0.0
0.0 0.0 0.0

5.874859249929938e6 3.3353506792040677e6 0.0
3.3353506792040677e6 -3.0750445651459053e7 0.0
0.0 0.0 0.0

-9.434225150659481e6 2.281718643936978e7 0.0
2.281718643936978e7 6.738259365645956e6 0.0
0.0 0.0 0.0

4.458532357069156e6 5.8566623190974e6 0.0
5.8566623190974e6 -1.329528065913224e7 0.0
0.0 0.0 0.0

-77824.8159125424 1.3281223859558785e7 0.0
1.3281223859558785e7 -1.1473804563471785e7 0.0
0.0 0.0 0.0

5.784515792952759e6 3.5086881978644626e6 0.0
3.5086881978644626e6 -3.1991450875312183e7 0.0
0.0 0.0 0.0

-78801.6695656944 1.2954726385587648e7 0.0
1.2954726385587648e7 -1.4600298807168167e7 0.0
0.0 0.0 0.0

-1.255940846778257e7 4.364428095554489e6 0.0
4.364428095554489e6 2.3272136704488527e7 0.0
0.0 0.0 0.0

-76795.05856891838 3.848329364345098e6 0.0
3.848329364345098e6 -2.359691152220475e6 0.0
0.0 0.0 0.0

-4.920859280525839e6 1.2484237091367744e7 0.0
1.2484237091367744e7 1.917654853253177e6 0.0
0.0 0.0 0.0

-289933.7034600703 1.548731738496172e7 0.0
1.548731738496172e7 1.0659013330402944e7 0.0
0.0 0.0 0.0

5.741766100866023e6 3.3162257964899815e6 0.0
3.3162257964899815e6 -2.3446807221786857e7 0.0
0.0 0.0 0.0

-5.361561130496662e6 1.80305585871936e7 0.0
1.80305585871936e7 7.533660922563169e6 0.0
0.0 0.0 0.0

-8.82156911966426e6 -6.022331074309286e6 0.0
-6.022331074309286e6 1.9781094704463523e7 0.0
0.0 0.0 0.0

217774.9739051172 1.2775643588296285e7 0.0
1.2775643588296285e7 -1.3219776812663907e6 0.0
0.0 0.0 0.0

2.2037649320623325e6 1.0558900929803038e7 0.0
1.0558900929803038e7 -1.6347559551860478e7 0.0
0.0 0.0 0.0

-6.510101438560994e6 1.5058605981793541e7 0.0
1.5058605981793541e7 1.2092770125229971e7 0.0
0.0 0.0 0.0

-2.2562391362531325e6 1.5215087912040275e7 0.0
1.5215087912040275e7 1.534512906859426e7 0.0
0.0 0.0 0.0

-564473.732916596 1.3989494494765155e7 0.0
1.3989494494765155e7 -2.9586581588966805e6 0.0
0.0 0.0 0.0

-1.8409599601142714e6 1.6723564132798906e7 0.0
1.6723564132798906e7 -4.450158978417716e6 0.0
0.0 0.0 0.0

-5.293401514350664e6 1.8510516798170123e7 0.0
1.8510516798170123e7 4.688762425830806e6 0.0
0.0 0.0 0.0

-190106.10810678324 1.4674736243364194e7 0.0
1.4674736243364194e7 -3.781503656225169e6 0.0
0.0 0.0 0.0

1.0163623801895052e7 5.685501905523e6 0.0
5.685501905523e6 -2.6845777142229937e6 0.0
0.0 0.0 0.0

-1.0041357364296058e7 -3.722018541387783e6 0.0
-3.722018541387783e6 3.6096026246271715e7 0.0
0.0 0.0 0.0

868173.0391907429 1.516385436384047e7 0.0
1.516385436384047e7 7.4129430825302e6 0.0
0.0 0.0 0.0

-9.953752759354932e6 -5.584589153224321e6 0.0
-5.584589153224321e6 2.953640076748288e7 0.0
0.0 0.0 0.0

-494638.2881413722 1.4767258914610969e7 0.0
1.4767258914610969e7 -1.045041822606603e6 0.0
0.0 0.0 0.0

-1.0561286802532654e7 6.936012416822707e6 0.0
6.936012416822707e6 2.0976892102011696e7 0.0
0.0 0.0 0.0

-4.430094396192002e6 1.2546756804814328e7 0.0
1.2546756804814328e7 3.5445927043669415e6 0.0
0.0 0.0 0.0

1.1235205680005697e6 3.2649540603859997e6 0.0
3.2649540603859997e6 -3.0089017167407004e6 0.0
0.0 0.0 0.0

1.18376034174194e6 3.5074886197790685e6 0.0
3.5074886197790685e6 -2.949975123520384e6 0.0
0.0 0.0 0.0

-400745.6448351485 1.5175370889970496e7 0.0
1.5175370889970496e7 -8.601803246729355e6 0.0
0.0 0.0 0.0

-3.6081801080322675e6 1.6421031270065658e7 0.0
1.6421031270065658e7 -1.8419196468248267e6 0.0
0.0 0.0 0.0

-159391.51617191453 1.5292029217893612e7 0.0
1.5292029217893612e7 -8.303926056523117e6 0.0
0.0 0.0 0.0

-1.2969183766326692e7 5.661964208756661e6 0.0
5.661964208756661e6 1.9225402743131507e7 0.0
0.0 0.0 0.0

-348776.74158786144 1.300586359832226e7 0.0
1.300586359832226e7 -1.0692885708176736e7 0.0
0.0 0.0 0.0

2.4425788316826522e6 1.0264890326207837e7 0.0
1.0264890326207837e7 -1.802352023656546e7 0.0
0.0 0.0 0.0

-5.148467936416513e6 1.7593587569646057e7 0.0
1.7593587569646057e7 7.873085543391969e6 0.0
0.0 0.0 0.0

2.115165301487135e6 1.0549607287044957e7 0.0
1.0549607287044957e7 -1.5389969848554557e7 0.0
0.0 0.0 0.0

-6.6345697281818464e7 2.3589963806108247e7 0.0
2.3589963806108247e7 3.4505260694808513e6 0.0
0.0 0.0 0.0

394348.0577328694 1.298898595460497e7 0.0
1.298898595460497e7 -1.1498551264637453e7 0.0
0.0 0.0 0.0

-5.285195702547766e6 2.3234205983521953e7 0.0
2.3234205983521953e7 3.513701308242473e6 0.0
0.0 0.0 0.0

-852541.3298426786 1.2322888354670715e7 0.0
1.2322888354670715e7 2.8773848223159364e6 0.0
0.0 0.0 0.0

-8.579094959935203e6 1.4461852969109673e7 0.0
1.4461852969109673e7 1.403786641498778e7 0.0
0.0 0.0 0.0

-2.5484365427631726e6 1.6168564638939535e7 0.0
1.6168564638939535e7 -5.802959605731713e6 0.0
0.0 0.0 0.0

1.3134458315388397e6 2.486966246997232e7 0.0
2.486966246997232e7 -4.781921945716383e6 0.0
0.0 0.0 0.0

-9.405504293219432e6 -6.870586145488349e6 0.0
-6.870586145488349e6 2.490727436349395e7 0.0
0.0 0.0 0.0

5.70853864042326e6 3.459905613820807e6 0.0
3.459905613820807e6 -2.20454363436895e7 0.0
0.0 0.0 0.0

-2.302338107363647e6 1.7057602200732864e7 0.0
1.7057602200732864e7 -2.897436628822119e6 0.0
0.0 0.0 0.0

-5.957874591851095e6 -1.1918806485383469e6 0.0
-1.1918806485383469e6 5.2544682952845525e6 0.0
0.0 0.0 0.0

5.90184602475879e6 3.2737469940636447e6 0.0
3.2737469940636447e6 -2.743679930502863e7 0.0
0.0 0.0 0.0

-1.0060292650741419e7 -4.204478116201184e6 0.0
-4.204478116201184e6 3.472781121054841e7 0.0
0.0 0.0 0.0

-6.688275930675821e6 -8.152105967915051e6 0.0
-8.152105967915051e6 1.631726791903099e7 0.0
0.0 0.0 0.0

-260614.48387056566 1.210298833415795e7 0.0
1.210298833415795e7 -4.6087936510407105e6 0.0
0.0 0.0 0.0

-9.670516991950652e6 -6.553078278627391e6 0.0
-6.553078278627391e6 2.6096302061839927e7 0.0
0.0 0.0 0.0

5.715060806925069e6 3.4704536212392044e6 0.0
3.4704536212392044e6 -2.2700544952931456e7 0.0
0.0 0.0 0.0

5.908107278405059e6 3.337789317856126e6 0.0
3.337789317856126e6 -2.645712539260088e7 0.0
0.0 0.0 0.0

-9.970376634637896e6 -4.658531157424733e6 0.0
-4.658531157424733e6 3.3326773694692787e7 0.0
0.0 0.0 0.0

-3.1043891352116857e6 1.5083549129151242e7 0.0
1.5083549129151242e7 -6.564477457409264e6 0.0
0.0 0.0 0.0

-229956.48695772607 1.4829781705922956e7 0.0
1.4829781705922956e7 -9.14937013366155e6 0.0
0.0 0.0 0.0

-4.841899596483666e6 1.874301851823557e7 0.0
1.874301851823557e7 5.055927031501319e6 0.0
0.0 0.0 0.0

5.899619667896999e6 3.3294784441536185e6 0.0
3.3294784441536185e6 -2.5820362341588613e7 0.0
0.0 0.0 0.0

-9.910800853632392e6 -4.991722153405581e6 0.0
-4.991722153405581e6 3.177164142254725e7 0.0
0.0 0.0 0.0

58617.28627770534 1.2413350949466575e7 0.0
1.2413350949466575e7 -4.0441110316079124e6 0.0
0.0 0.0 0.0

2.276528885309712e6 1.1069706573069653e7 0.0
1.1069706573069653e7 -1.4593609032229438e7 0.0
0.0 0.0 0.0

-3.0301138342250525e6 1.816691530757374e7 0.0
1.816691530757374e7 -630138.3956932711 0.0
0.0 0.0 0.0

-4.0026288254505475e6 1.4575866267120246e7 0.0
1.4575866267120246e7 -230597.00383788417 0.0
0.0 0.0 0.0

-6.939235672239701e6 1.4802914714365473e7 0.0
1.4802914714365473e7 1.5278461184804691e7 0.0
0.0 0.0 0.0

-9.94817189392141e6 -5.234663182830027e6 0.0
-5.234663182830027e6 3.0529371241562527e7 0.0
0.0 0.0 0.0

5.900569511080682e6 3.2811562292861287e6 0.0
3.2811562292861287e6 -2.494914644895049e7 0.0
0.0 0.0 0.0

-2.327764281651206e6 1.9823316317540277e7 0.0
1.9823316317540277e7 -2.1467218802051973e6 0.0
0.0 0.0 0.0

-4.367741625953017e6 1.491414575374076e7 0.0
1.491414575374076e7 2.4505856795861855e7 0.0
0.0 0.0 0.0

3.2911896256809846e7 4.41207688169572e7 0.0
4.41207688169572e7 -2.3996023002273038e7 0.0
0.0 0.0 0.0

143163.01541430736 8.96023756006927e6 0.0
8.96023756006927e6 -6.139191033757833e6 0.0
0.0 0.0 0.0

-4.14376471083456e6 2.0186609155426983e7 0.0
2.0186609155426983e7 3.2047315103816707e6 0.0
0.0 0.0 0.0

-3.6525591294804234e6 2.405958118963103e6 0.0
2.405958118963103e6 2.363776785510227e6 0.0
0.0 0.0 0.0

-4.645841815789581e6 1.9002229857721865e7 0.0
1.9002229857721865e7 4.554936457982327e6 0.0
0.0 0.0 0.0

3.495912232510087e6 4.1296587807539245e6 0.0
4.1296587807539245e6 -9.577372124212975e6 0.0
0.0 0.0 0.0

1.7031697193475328e6 1.852682205939059e7 0.0
1.852682205939059e7 -4.784650260461633e6 0.0
0.0 0.0 0.0

-1.303357684403668e6 1.744109794678865e7 0.0
1.744109794678865e7 -4.852992923697678e6 0.0
0.0 0.0 0.0

-8.428673071789142e6 1.2097864811284326e7 0.0
1.2097864811284326e7 1.0159035078657892e7 0.0
0.0 0.0 0.0

-493849.135870908 1.5143978110893007e7 0.0
1.5143978110893007e7 -1.207816103374518e6 0.0
0.0 0.0 0.0

-8.750824500812793e6 -1.8088247578149226e6 0.0
-1.8088247578149226e6 4.468336896975097e7 0.0
0.0 0.0 0.0

1.3630335902050312e6 4.45377042096462e6 0.0
4.45377042096462e6 -3.7434473622286115e6 0.0
0.0 0.0 0.0

-3.2350567833318254e6 -556170.4867262727 0.0
-556170.4867262727 1.6854359239509425e6 0.0
0.0 0.0 0.0

1.155169534977092e6 -1.548352942288209e6 0.0
-1.548352942288209e6 -2.3677974832896125e6 0.0
0.0 0.0 0.0

-1.047784333709246e6 1.7621132507604364e7 0.0
1.7621132507604364e7 -4.801320738530368e6 0.0
0.0 0.0 0.0

-925620.7568136547 1.2884048970338633e7 0.0
1.2884048970338633e7 -2.666815187190847e7 0.0
0.0 0.0 0.0

-287642.42112462875 1.5069227107024191e7 0.0
1.5069227107024191e7 1.2307342195639007e7 0.0
0.0 0.0 0.0

-1.5519492037266549e6 1.441596115737834e7 0.0
1.441596115737834e7 -6.577656213228326e6 0.0
0.0 0.0 0.0

5.117742094595571e6 4.199996261288413e6 0.0
4.199996261288413e6 -1.5148207712701559e7 0.0
0.0 0.0 0.0

-931486.8062195921 1.1211873744192818e7 0.0
1.1211873744192818e7 -3.793687619022684e6 0.0
0.0 0.0 0.0

240618.34783885675 1.4361146493499083e7 0.0
1.4361146493499083e7 -9.573843718644165e6 0.0
0.0 0.0 0.0

104336.13250821363 1.198240797845131e7 0.0
1.198240797845131e7 -2.037182118740337e7 0.0
0.0 0.0 0.0

-2.940186582589379e6 1.8628056500252526e7 0.0
1.8628056500252526e7 -708108.9702301661 0.0
0.0 0.0 0.0

-7.305994315278446e6 1.4535778389186254e7 0.0
1.4535778389186254e7 1.3343761566701649e7 0.0
0.0 0.0 0.0

-447035.4375240718 1.1567280150674745e7 0.0
1.1567280150674745e7 -3.360183142305521e6 0.0
0.0 0.0 0.0

-230161.5742088214 1.2977743529275415e7 0.0
1.2977743529275415e7 906842.5223293023 0.0
0.0 0.0 0.0

-1.9219531680579851e6 1.2323105733703282e7 0.0
1.2323105733703282e7 -1.461215922629808e7 0.0
0.0 0.0 0.0

-1.3430428799824502e7 1.9808277840657562e7 0.0
1.9808277840657562e7 5.148991584447051e6 0.0
0.0 0.0 0.0

48183.70864668209 2.6584477861735925e7 0.0
2.6584477861735925e7 -3.6470451186853456e6 0.0
0.0 0.0 0.0

498928.6116006841 3.06341845037264e6 0.0
3.06341845037264e6 -1.707162477704808e6 0.0
0.0 0.0 0.0

647571.4908971372 2.9217771276495047e6 0.0
2.9217771276495047e6 -1.9435450676670505e6 0.0
0.0 0.0 0.0

-6.858179356468355e6 1.5005164818789052e7 0.0
1.5005164818789052e7 1.1862003309787229e7 0.0
0.0 0.0 0.0

-2.865217132905195e6 1.6479582167264247e7 0.0
1.6479582167264247e7 -3.07930725334727e6 0.0
0.0 0.0 0.0

-3.9769372942464333e6 2.0686827876829717e7 0.0
2.0686827876829717e7 3.2351884135182044e6 0.0
0.0 0.0 0.0

-4.480123984510064e6 1.9226167455910508e7 0.0
1.9226167455910508e7 4.113147422898818e6 0.0
0.0 0.0 0.0

3.8050354332311433e6 1.4585590217566362e7 0.0
1.4585590217566362e7 4.4094916644320795e6 0.0
0.0 0.0 0.0

1.5504838478356206e6 1.4581810436623357e7 0.0
1.4581810436623357e7 -5.207030239400934e6 0.0
0.0 0.0 0.0

-3.0356592569471374e6 1.4228872153672276e7 0.0
1.4228872153672276e7 2.680051406823403e7 0.0
0.0 0.0 0.0

-2.5046768270452403e7 1.910150593629006e7 0.0
1.910150593629006e7 -2.2001150895435084e6 0.0
0.0 0.0 0.0

-7.671790795432422e7 2.6050989288031384e7 0.0
2.6050989288031384e7 1.1361252224985752e7 0.0
0.0 0.0 0.0

-7.817084643513307e6 1.1500525871077077e7 0.0
1.1500525871077077e7 8.536741093668919e6 0.0
0.0 0.0 0.0

-4.46038858237166e6 1.5514379485901562e7 0.0
1.5514379485901562e7 9.352317260727802e6 0.0
0.0 0.0 0.0

4.151803849868901e6 5.681481797890615e6 0.0
5.681481797890615e6 -1.4133665051108738e7 0.0
0.0 0.0 0.0

-9.104905609971888e6 1.1739021625601877e7 0.0
1.1739021625601877e7 1.358991406073858e7 0.0
0.0 0.0 0.0

-3.3715385922954483e6 -565171.2349948473 0.0
-565171.2349948473 3.2001863688489078e6 0.0
0.0 0.0 0.0

831491.6521811308 1.5869002457428744e7 0.0
1.5869002457428744e7 8.707920333308717e6 0.0
0.0 0.0 0.0

613332.2350029983 1.200691037540367e7 0.0
1.200691037540367e7 -2.0269689536046345e7 0.0
0.0 0.0 0.0

5.117881191075661e6 5.257708290988859e6 0.0
5.257708290988859e6 -1.6909138660160366e7 0.0
0.0 0.0 0.0

1.840864608286919e6 1.3754215290080637e7 0.0
1.3754215290080637e7 2.7944261996062347e6 0.0
0.0 0.0 0.0

-6.1798033676782325e6 2.3767578030823017e6 0.0
2.3767578030823017e6 5.9863969128184095e7 0.0
0.0 0.0 0.0

-5.201998476564839e6 2.020645908526517e7 0.0
2.020645908526517e7 6.078016217378145e6 0.0
0.0 0.0 0.0

-1.0782505939990072e7 1.7161663560570717e7 0.0
1.7161663560570717e7 2.0130352342060562e6 0.0
0.0 0.0 0.0

-1.3307452925006098e6 1.6738632098774213e7 0.0
1.6738632098774213e7 -5.761234820418514e6 0.0
0.0 0.0 0.0

-6.256081713039765e6 -7.968256184077448e6 0.0
-7.968256184077448e6 1.4405964737514192e7 0.0
0.0 0.0 0.0

-1.1398066956568877e6 1.199763019099981e7 0.0
1.199763019099981e7 3.4564192624496007e6 0.0
0.0 0.0 0.0

-8.641493280714635e6 -7.33447993518521e6 0.0
-7.33447993518521e6 2.1829333522257466e7 0.0
0.0 0.0 0.0

1.7894392521420934e6 1.45466384420406e7 0.0
1.45466384420406e7 2.453129566602339e6 0.0
0.0 0.0 0.0

-3.9838505642306977e6 1.606862431680641e7 0.0
1.606862431680641e7 1.4897461068569368e6 0.0
0.0 0.0 0.0

5.535285092235395e6 4.401168740850917e6 0.0
4.401168740850917e6 -1.824686105219587e7 0.0
0.0 0.0 0.0

-3.156328522856621e6 1.5672740339830467e7 0.0
1.5672740339830467e7 -5.454194443620173e6 0.0
0.0 0.0 0.0

4.95618008719943e6 4.300903249815304e6 0.0
4.300903249815304e6 -1.3981397556728974e7 0.0
0.0 0.0 0.0

763149.809737985 1.269786414012986e7 0.0
1.269786414012986e7 -1.3488687867228659e7 0.0
0.0 0.0 0.0

-6.415051874142176e6 2.3141203721714336e7 0.0
2.3141203721714336e7 5.201560595817357e6 0.0
0.0 0.0 0.0

-456477.2158571589 1.0112419200590648e7 0.0
1.0112419200590648e7 -928318.654908439 0.0
0.0 0.0 0.0

-2.1567400729795387e6 1.6425912473645186e7 0.0
1.6425912473645186e7 -5.3717070010960875e6 0.0
0.0 0.0 0.0

-5.188609865612733e6 2.2159262453577396e7 0.0
2.2159262453577396e7 4.27980454235661e6 0.0
0.0 0.0 0.0

-5.012326691689476e6 1.847460300258319e7 0.0
1.847460300258319e7 5.624113034222139e6 0.0
0.0 0.0 0.0

-4.918004385357288e6 1.8948432017622266e7 0.0
1.8948432017622266e7 3.667591167769866e6 0.0
0.0 0.0 0.0

-3.939298874210563e6 2.1892520230969798e7 0.0
2.1892520230969798e7 2.0054771952430443e6 0.0
0.0 0.0 0.0

-1.2843546637708347e6 1.595676852147597e7 0.0
1.595676852147597e7 -6.036108530271614e6 0.0
0.0 0.0 0.0

-5.830412445114719e6 2.3729103974543363e7 0.0
2.3729103974543363e7 3.729404889373688e6 0.0
0.0 0.0 0.0

-8.217728296725221e6 8.1100489912333535e6 0.0
8.1100489912333535e6 8.94980517647438e6 0.0
0.0 0.0 0.0

1.2838000823563542e6 1.0790291778480088e7 0.0
1.0790291778480088e7 -1.056377389711156e7 0.0
0.0 0.0 0.0

-8.329266443481014e6 -2.535024070749624e6 0.0
-2.535024070749624e6 1.0576977820915516e7 0.0
0.0 0.0 0.0

-8.130756093724975e6 1.865483688430147e7 0.0
1.865483688430147e7 5.213779454560686e6 0.0
0.0 0.0 0.0

-1.0499619924630746e7 -2.995944964238663e6 0.0
-2.995944964238663e6 3.156750313329599e7 0.0
0.0 0.0 0.0

-2.5731153751909337e6 2.044122369051541e7 0.0
2.044122369051541e7 -1.461246708567238e6 0.0
0.0 0.0 0.0

1.245634907360008e6 1.2641164569084356e7 0.0
1.2641164569084356e7 -1.3423849063140042e7 0.0
0.0 0.0 0.0

-1.1185891727990604e6 1.3724697832557978e7 0.0
1.3724697832557978e7 4.916089786441036e6 0.0
0.0 0.0 0.0

-784550.1106256275 1.240092206889241e7 0.0
1.240092206889241e7 -6.607927236275133e6 0.0
0.0 0.0 0.0

2.255325516417564e6 1.1040903655627377e7 0.0
1.1040903655627377e7 -1.7821259252700754e7 0.0
0.0 0.0 0.0

3.5770560317356214e6 4.7435096371482825e6 0.0
4.7435096371482825e6 -1.0956832668995634e7 0.0
0.0 0.0 0.0

-628630.0238470928 1.7716310483614165e7 0.0
1.7716310483614165e7 -4.805060369272828e6 0.0
0.0 0.0 0.0

-589276.4122067587 1.4696474695656987e7 0.0
1.4696474695656987e7 2.5395189236801374e6 0.0
0.0 0.0 0.0

-3.5673540629564454e6 1.422397965675573e7 0.0
1.422397965675573e7 -1.107116864130524e6 0.0
0.0 0.0 0.0

5.881634161539016e6 3.2571325209021373e6 0.0
3.2571325209021373e6 -2.9528302881811254e7 0.0
0.0 0.0 0.0

-9.644703408980928e6 1.2328292549001067e6 0.0
1.2328292549001067e6 1.3268234227498015e7 0.0
0.0 0.0 0.0

5.308614335463228e6 4.76890393365422e6 0.0
4.76890393365422e6 -2.9522979487643067e7 0.0
0.0 0.0 0.0

-3.894607641250059e6 -3.492490676574063e6 0.0
-3.492490676574063e6 4.841948462135611e6 0.0
0.0 0.0 0.0

-4.218183891179485e6 1.5860137451665454e7 0.0
1.5860137451665454e7 379163.964463491 0.0
0.0 0.0 0.0

-497429.8733513632 1.4730752914793536e7 0.0
1.4730752914793536e7 1.1959974807021986e6 0.0
0.0 0.0 0.0

-724521.2266349541 1.3291485107208341e7 0.0
1.3291485107208341e7 3.102653292662295e6 0.0
0.0 0.0 0.0

-7.343290168084307e6 1.1269593952042779e7 0.0
1.1269593952042779e7 1.0331359085347036e7 0.0
0.0 0.0 0.0

-6.707308328197041e6 -7.904970923134176e6 0.0
-7.904970923134176e6 1.6563098641198423e7 0.0
0.0 0.0 0.0

-790451.6557747987 1.884393719254128e7 0.0
1.884393719254128e7 -3.6224914474783563e6 0.0
0.0 0.0 0.0

-1.6426895850013904e6 1.5870785170795802e7 0.0
1.5870785170795802e7 1.0865051800748581e7 0.0
0.0 0.0 0.0

3.505246869227402e6 7.690763889204796e6 0.0
7.690763889204796e6 -1.5484336981921146e7 0.0
0.0 0.0 0.0

-8.190678976568354e6 -6.257964101106805e6 0.0
-6.257964101106805e6 1.9565689612152264e7 0.0
0.0 0.0 0.0

-1.5399102719459007e6 1.4532956107004125e7 0.0
1.4532956107004125e7 8.053131626250303e6 0.0
0.0 0.0 0.0

-8.649906912255669e6 1.280354420882377e7 0.0
1.280354420882377e7 2.402600086859397e7 0.0
0.0 0.0 0.0

-207486.89993794123 1.5294617585638143e7 0.0
1.5294617585638143e7 8.258607835665034e6 0.0
0.0 0.0 0.0

-400557.2157896077 1.2406318804568242e7 0.0
1.2406318804568242e7 -2.549372377727019e7 0.0
0.0 0.0 0.0

-7.2379711984248385e6 1.499951734043176e7 0.0
1.499951734043176e7 1.4230744272642666e7 0.0
0.0 0.0 0.0

-1.996110712148943e6 1.477497321568484e7 0.0
1.477497321568484e7 8.85360241338443e6 0.0
0.0 0.0 0.0

-339034.3816719875 1.5567996907403901e7 0.0
1.5567996907403901e7 -7.849748352650615e6 0.0
0.0 0.0 0.0

-928294.6077085899 1.5643501774015864e7 0.0
1.5643501774015864e7 -3.1410061394494185e6 0.0
0.0 0.0 0.0

3.962689140678214e6 7.473239156680064e6 0.0
7.473239156680064e6 -2.32174270755112e7 0.0
0.0 0.0 0.0

4.210378632777827e6 6.962158819699659e6 0.0
6.962158819699659e6 -2.4228873199588627e7 0.0
0.0 0.0 0.0

-65335.096162389964 1.2209627047138909e7 0.0
1.2209627047138909e7 -6.311687523690273e6 0.0
0.0 0.0 0.0

-1.1515748443303617e7 1.2205503412832694e7 0.0
1.2205503412832694e7 1.7944367584968425e7 0.0
0.0 0.0 0.0

-762169.1178747714 1.4857292552743245e7 0.0
1.4857292552743245e7 -9.116417616187073e6 0.0
0.0 0.0 0.0

-9.609730776503135e6 756192.0054618375 0.0
756192.0054618375 4.225487670041935e7 0.0
0.0 0.0 0.0

660100.7341125384 1.0845684828732846e7 0.0
1.0845684828732846e7 -1.5486624146492012e7 0.0
0.0 0.0 0.0

-2.9562173282875065e6 1.1794107785514949e7 0.0
1.1794107785514949e7 4.231175796973289e7 0.0
0.0 0.0 0.0

5.894259706193943e6 3.352995578379605e6 0.0
3.352995578379605e6 -2.8398091270930763e7 0.0
0.0 0.0 0.0

-1.6885861435410692e6 1.6625664598185858e7 0.0
1.6625664598185858e7 -5.411127734438039e6 0.0
0.0 0.0 0.0

-1.2370652450850755e6 1.5158353544797845e7 0.0
1.5158353544797845e7 8.941365678849757e6 0.0
0.0 0.0 0.0

-1.6566117281044982e6 1.3115190671480106e7 0.0
1.3115190671480106e7 -2.3225614800659478e7 0.0
0.0 0.0 0.0

2.331484930084548e6 9.005729955747938e6 0.0
9.005729955747938e6 2.1158657691677925e6 0.0
0.0 0.0 0.0

-841934.787350626 1.5058765543231705e7 0.0
1.5058765543231705e7 -4.0762203967895834e6 0.0
0.0 0.0 0.0

-1.8688781743463282e6 1.4977282831209285e7 0.0
1.4977282831209285e7 9.164506623390734e6 0.0
0.0 0.0 0.0

-5.935877683395119e6 1.6478419309154898e7 0.0
1.6478419309154898e7 7.939456343964254e6 0.0
0.0 0.0 0.0

-5.132798102777276e6 1.5450456476207312e7 0.0
1.5450456476207312e7 9.875292672150029e6 0.0
0.0 0.0 0.0

1.108262900456071e6 1.0008297540745432e7 0.0
1.0008297540745432e7 -9.507418630921923e6 0.0
0.0 0.0 0.0

-1.2693945083765462e7 1.0377601699587572e7 0.0
1.0377601699587572e7 1.6666636571433086e7 0.0
0.0 0.0 0.0

129376.1726597203 1.200081943281629e7 0.0
1.200081943281629e7 -2.4150405633582104e7 0.0
0.0 0.0 0.0

-1.0902318223793423e6 1.4887822788238803e7 0.0
1.4887822788238803e7 -5.931075630450053e6 0.0
0.0 0.0 0.0

-4.69145549465558e6 1.6536466218605893e7 0.0
1.6536466218605893e7 4.1826016255395454e6 0.0
0.0 0.0 0.0

680454.1285108216 8.970345959562117e6 0.0
8.970345959562117e6 -6.292784711819766e6 0.0
0.0 0.0 0.0

-8.860257873997036e6 3.9742904019143926e6 0.0
3.9742904019143926e6 5.655021273982088e7 0.0
0.0 0.0 0.0

-1.6475696691660509e6 1.3445520260298163e7 0.0
1.3445520260298163e7 -2.7938267818964355e7 0.0
0.0 0.0 0.0

-6.86502749716163e6 1.4950152831869574e7 0.0
1.4950152831869574e7 1.5466288005324997e7 0.0
0.0 0.0 0.0

-4.191537853983898e6 2.090979189612017e7 0.0
2.090979189612017e7 2.651900347029872e6 0.0
0.0 0.0 0.0

6.682984316701034e6 1.6215756387595732e7 0.0
1.6215756387595732e7 5.289209382655842e6 0.0
0.0 0.0 0.0

-5.78696759479139e6 1.4792715852960225e7 0.0
1.4792715852960225e7 1.9351171103108294e7 0.0
0.0 0.0 0.0

-6.750172954825231e6 1.4828476476915998e7 0.0
1.4828476476915998e7 1.2144471418930184e7 0.0
0.0 0.0 0.0

849253.762211652 1.1466347054864453e7 0.0
1.1466347054864453e7 -1.026780998225833e7 0.0
0.0 0.0 0.0

-1.4033464148252918e6 1.4438988727859698e7 0.0
1.4438988727859698e7 -6.588093697229452e6 0.0
0.0 0.0 0.0

-7.565577111184801e6 1.3742028635453064e7 0.0
1.3742028635453064e7 9.167470320260769e6 0.0
0.0 0.0 0.0

-7.47786734665595e6 1.255079611043338e7 0.0
1.255079611043338e7 1.0890253449719667e7 0.0
0.0 0.0 0.0

4.981997136889007e6 4.543405081252544e6 0.0
4.543405081252544e6 -1.7283371632832963e7 0.0
0.0 0.0 0.0

-5.279108727593979e6 1.8123404103145808e7 0.0
1.8123404103145808e7 7.675623031206174e6 0.0
0.0 0.0 0.0

-552103.0160762898 1.0592574359678173e7 0.0
1.0592574359678173e7 -2.6467153127128193e6 0.0
0.0 0.0 0.0

4.899601577933646e6 4.744529727155472e6 0.0
4.744529727155472e6 -1.356915554064971e7 0.0
0.0 0.0 0.0

-2.948213701008906e6 1.9824603901681617e7 0.0
1.9824603901681617e7 -1.307730370827371e6 0.0
0.0 0.0 0.0

-1.3660375858438606e6 1.5587141210751532e7 0.0
1.5587141210751532e7 1.015902820539781e7 0.0
0.0 0.0 0.0

-1.0163517538820315e7 -1.3087766292671345e6 0.0
-1.3087766292671345e6 3.645651707957662e7 0.0
0.0 0.0 0.0

1.3498896310096402e6 1.6083794482881328e7 0.0
1.6083794482881328e7 6.666325915720391e6 0.0
0.0 0.0 0.0

1.1772348794820295e6 1.5026216205333982e7 0.0
1.5026216205333982e7 4.735544240326578e6 0.0
0.0 0.0 0.0

119750.78590238607 1.3831690054736331e7 0.0
1.3831690054736331e7 -9.769507024837138e6 0.0
0.0 0.0 0.0

5.396800805928358e6 4.250035109497755e6 0.0
4.250035109497755e6 -2.1617800970054086e7 0.0
0.0 0.0 0.0

193333.44150952436 1.3595290652303968e7 0.0
1.3595290652303968e7 4.739007995569562e6 0.0
0.0 0.0 0.0

27708.13904113695 1.415987899437625e7 0.0
1.415987899437625e7 -9.066082027067583e6 0.0
0.0 0.0 0.0

-1.0803430246033736e6 1.3557969039186103e7 0.0
1.3557969039186103e7 5.795783214166593e6 0.0
0.0 0.0 0.0

-6.346760447252406e6 4.507584627216511e6 0.0
4.507584627216511e6 8.507376818583855e6 0.0
0.0 0.0 0.0

-3.610398548241691e6 -2.154845551522167e6 0.0
-2.154845551522167e6 4.647542735655052e6 0.0
0.0 0.0 0.0

-3.6176132387892012e6 1.6005383891080674e7 0.0
1.6005383891080674e7 2.165540482922187e6 0.0
0.0 0.0 0.0

2.0676495119626047e6 1.1417675834281512e7 0.0
1.1417675834281512e7 -1.562783618232767e7 0.0
0.0 0.0 0.0

-791457.8434560332 1.2800593267968556e7 0.0
1.2800593267968556e7 -1.1241143846584313e7 0.0
0.0 0.0 0.0

-9.024072419128384e6 552690.60066915 0.0
552690.60066915 5.513985468618488e7 0.0
0.0 0.0 0.0

-6.705808117968907e6 2.4293412293196127e7 0.0
2.4293412293196127e7 3.899731322593486e6 0.0
0.0 0.0 0.0

1.299631674012883e6 5.634159919981992e6 0.0
5.634159919981992e6 -4.239304000867953e6 0.0
0.0 0.0 0.0

-655607.1621751419 1.4873464459090695e7 0.0
1.4873464459090695e7 -8381.286148872518 0.0
0.0 0.0 0.0

-1.7631826232519294e6 1.458548419328517e7 0.0
1.458548419328517e7 7.70406461632681e6 0.0
0.0 0.0 0.0

-1.148570316838811e7 1.2064665475294193e7 0.0
1.2064665475294193e7 1.6741155101251815e7 0.0
0.0 0.0 0.0

-8.112434867643462e6 1.825121202146253e7 0.0
1.825121202146253e7 3.7455366447438668e6 0.0
0.0 0.0 0.0

43907.39875303954 1.512796973511818e7 0.0
1.512796973511818e7 6.062596317909737e6 0.0
0.0 0.0 0.0

-1.7615267818021164e6 1.4858476923481047e7 0.0
1.4858476923481047e7 7.44761914737498e6 0.0
0.0 0.0 0.0

425096.14836202003 1.3826723544310972e7 0.0
1.3826723544310972e7 -1.1409124133015584e7 0.0
0.0 0.0 0.0

2.545222197481437e6 5.535273697623614e6 0.0
5.535273697623614e6 -8.976699568805775e6 0.0
0.0 0.0 0.0

248917.72609730065 1.3817032409221984e7 0.0
1.3817032409221984e7 -1.0816443629234297e7 0.0
0.0 0.0 0.0

-1.5812400123836305e6 1.5642358794614017e7 0.0
1.5642358794614017e7 -6.89687123834952e6 0.0
0.0 0.0 0.0

-4.915615972556411e6 1.7849033053880483e7 0.0
1.7849033053880483e7 4.916169740465419e6 0.0
0.0 0.0 0.0

-652044.6544870981 1.6263453530387292e7 0.0
1.6263453530387292e7 -6.704145520496192e6 0.0
0.0 0.0 0.0

-777783.9591284995 1.5784938047040675e7 0.0
1.5784938047040675e7 -7.336805293202929e6 0.0
0.0 0.0 0.0

5.356211685349988e6 4.849552025280067e6 0.0
4.849552025280067e6 -1.9879731209195226e7 0.0
0.0 0.0 0.0

124719.20051400736 1.4167774103032468e7 0.0
1.4167774103032468e7 3.961214271334418e6 0.0
0.0 0.0 0.0

-1.8958686591718346e6 1.601892914206936e7 0.0
1.601892914206936e7 -6.084895810996823e6 0.0
0.0 0.0 0.0

-1.158320779589655e7 8.263547244369818e6 0.0
8.263547244369818e6 1.3696712356804345e7 0.0
0.0 0.0 0.0

-5.51695086759001e7 2.1576269280377157e7 0.0
2.1576269280377157e7 2.324833902256917e6 0.0
0.0 0.0 0.0

1.973779443279627e7 2.404573222517824e7 0.0
2.404573222517824e7 6.57928054392709e7 0.0
0.0 0.0 0.0

-1.4826076533032054e7 2.1027730789382797e7 0.0
2.1027730789382797e7 -4.94203739827111e7 0.0
0.0 0.0 0.0

-7.87838592761772e6 1.44540158517701e7 0.0
1.44540158517701e7 1.4102307973635e7 0.0
0.0 0.0 0.0

1.603391108979852e6 1.1248168528224122e7 0.0
1.1248168528224122e7 -1.383110046535766e7 0.0
0.0 0.0 0.0

-1.9072057760290608e6 1.5290596516577855e7 0.0
1.5290596516577855e7 -5.991876777448555e6 0.0
0.0 0.0 0.0

-3.7674292384840082e6 2.436897955088462e7 0.0
2.436897955088462e7 -95044.13545199251 0.0
0.0 0.0 0.0

174270.45201559924 1.2810328151681093e7 0.0
1.2810328151681093e7 -1.346481445822291e7 0.0
0.0 0.0 0.0

-1.3182284624037594e6 1.5990385676721176e7 0.0
1.5990385676721176e7 -3.6223746439007195e6 0.0
0.0 0.0 0.0

-1.1416455553383384e7 1.0114837007281763e7 0.0
1.0114837007281763e7 1.4309171563855171e7 0.0
0.0 0.0 0.0

-3.282064144792501e6 1.783955631305965e7 0.0
1.783955631305965e7 110497.19793912675 0.0
0.0 0.0 0.0

282596.2269614171 1.2342397196597915e7 0.0
1.2342397196597915e7 -1.8892519479965508e7 0.0
0.0 0.0 0.0

-365851.74571143626 1.5180142748382011e7 0.0
1.5180142748382011e7 -3.7396636583073325e6 0.0
0.0 0.0 0.0

-6.294148973799875e6 1.6450774567107687e7 0.0
1.6450774567107687e7 8.480807277395356e6 0.0
0.0 0.0 0.0

7.091794335642628e6 1.5235325951901082e7 0.0
1.5235325951901082e7 -4.0689060981990895e6 0.0
0.0 0.0 0.0

-911605.6809088774 1.2883598944913818e7 0.0
1.2883598944913818e7 4.010121820764634e6 0.0
0.0 0.0 0.0

-7.323193851667207e6 1.4403121613722136e7 0.0
1.4403121613722136e7 1.2937365430288464e7 0.0
0.0 0.0 0.0

-1.2063068458701497e7 1.699488066605318e7 0.0
1.699488066605318e7 732949.4614863084 0.0
0.0 0.0 0.0

-917464.472525693 1.308020184232052e7 0.0
1.308020184232052e7 4.024363878616229e6 0.0
0.0 0.0 0.0

-2.771630488821128e6 2.013405217327202e7 0.0
2.013405217327202e7 -1.225462914384665e6 0.0
0.0 0.0 0.0

1.5291816100079e6 1.861039347413675e7 0.0
1.861039347413675e7 -4.919114970322751e6 0.0
0.0 0.0 0.0

1.7935363220935548e6 1.0803633278401341e7 0.0
1.0803633278401341e7 -1.0728376690986829e7 0.0
0.0 0.0 0.0

-9.08206169664334e6 1.4212740074201198e7 0.0
1.4212740074201198e7 1.6431710579871614e7 0.0
0.0 0.0 0.0

98390.74599191034 1.3545764023526851e7 0.0
1.3545764023526851e7 -1.1911763008059138e7 0.0
0.0 0.0 0.0

-4.1432215021256097e6 1.298745821003985e7 0.0
1.298745821003985e7 2.7411419931445015e6 0.0
0.0 0.0 0.0

-8.17912871821963e6 1.3376710836731663e7 0.0
1.3376710836731663e7 1.061986419187018e7 0.0
0.0 0.0 0.0

2.0969155151243382e6 6.702720450862619e6 0.0
6.702720450862619e6 -7.167302849666135e6 0.0
0.0 0.0 0.0

-709372.2487909733 1.4165638443310782e7 0.0
1.4165638443310782e7 4.105131827879736e6 0.0
0.0 0.0 0.0

-1.0512295048533198e6 1.835462503822571e7 0.0
1.835462503822571e7 -4.383131940447159e6 0.0
0.0 0.0 0.0

2.945402551018223e6 9.715406427193316e6 0.0
9.715406427193316e6 -3.287201519743762e7 0.0
0.0 0.0 0.0

-1.1187747077689178e7 7.966340604935558e6 0.0
7.966340604935558e6 1.303192779908001e7 0.0
0.0 0.0 0.0

3.699783889468706e6 2.534675142855607e7 0.0
2.534675142855607e7 -6.62386310022041e6 0.0
0.0 0.0 0.0

4.7100123046968905e6 6.989034645253443e6 0.0
6.989034645253443e6 -2.2543400056007575e7 0.0
0.0 0.0 0.0

-619021.7253680865 1.3999001213001836e7 0.0
1.3999001213001836e7 3.1283895249806563e6 0.0
0.0 0.0 0.0

-1.522101417138259e6 1.7006356304046027e7 0.0
1.7006356304046027e7 -5.6010902984491885e6 0.0
0.0 0.0 0.0

6.224600101535879e6 1.8359158551148165e7 0.0
1.8359158551148165e7 1.0143475716514368e8 0.0
0.0 0.0 0.0

-5.371805632668175e6 1.740905960405481e7 0.0
1.740905960405481e7 -7.299217977455696e7 0.0
0.0 0.0 0.0

1.3666109010998674e7 1.5073478113542043e7 0.0
1.5073478113542043e7 3.308476961392243e6 0.0
0.0 0.0 0.0

2.6485736379518653e6 1.813340943390105e7 0.0
1.813340943390105e7 -5.52584636104449e6 0.0
0.0 0.0 0.0

775665.5979841722 8.614087010897756e6 0.0
8.614087010897756e6 -5.7784673893494755e6 0.0
0.0 0.0 0.0

5.187096768557763e6 2.3165965547685612e7 0.0
2.3165965547685612e7 -7.144320226177969e6 0.0
0.0 0.0 0.0

-4.369060509968653e6 1.5400242872347983e7 0.0
1.5400242872347983e7 1.1004178434599718e7 0.0
0.0 0.0 0.0

5.836866951245874e6 1.5046195874380447e7 0.0
1.5046195874380447e7 -3.492005037900927e6 0.0
0.0 0.0 0.0

-5.712337600433245e6 1.7592685972575117e7 0.0
1.7592685972575117e7 6.298072294937571e6 0.0
0.0 0.0 0.0

-6.874884337540997e6 1.2068648099698069e7 0.0
1.2068648099698069e7 9.371485027381707e6 0.0
0.0 0.0 0.0

1.1011762705345545e6 4.486191982327398e6 0.0
4.486191982327398e6 -4.734833926481403e6 0.0
0.0 0.0 0.0

-1.2685937139505092e6 1.5973689551909983e7 0.0
1.5973689551909983e7 1.1215001880061803e7 0.0
0.0 0.0 0.0

-2.8573702297810195e6 1.769915785627482e7 0.0
1.769915785627482e7 -2.6521288038123427e6 0.0
0.0 0.0 0.0

-8.305533404970958e6 1.4580339423138248e7 0.0
1.4580339423138248e7 1.487033184743874e7 0.0
0.0 0.0 0.0

-5.661063951925112e6 1.821743147346859e7 0.0
1.821743147346859e7 7.305810039114525e6 0.0
0.0 0.0 0.0

-5.340820753472233e6 1.7375088603319023e7 0.0
1.7375088603319023e7 6.687722236895863e6 0.0
0.0 0.0 0.0

-712801.2572399197 1.1684408940890735e7 0.0
1.1684408940890735e7 -5.219382429317554e6 0.0
0.0 0.0 0.0

-6.675140608884941e6 1.4921531194688734e7 0.0
1.4921531194688734e7 1.6071164483948212e7 0.0
0.0 0.0 0.0

-5.348869327041433e6 1.794293973302079e7 0.0
1.794293973302079e7 7.213949543673644e6 0.0
0.0 0.0 0.0

-3.739853324933731e6 9.176579828131584e6 0.0
9.176579828131584e6 2.859968825973413e6 0.0
0.0 0.0 0.0

-2.6162093452728555e7 2.126886109202529e7 0.0
2.126886109202529e7 5.223592896817263e6 0.0
0.0 0.0 0.0

-1.0648430217882276e7 1.2641708193650825e6 0.0
1.2641708193650825e6 3.632723267974085e7 0.0
0.0 0.0 0.0

-6.487596273651698e6 1.8277189308883242e7 0.0
1.8277189308883242e7 6.516505515605784e6 0.0
0.0 0.0 0.0

-6.755716220428738e6 2.145960204965717e7 0.0
2.145960204965717e7 6.677645592362248e6 0.0
0.0 0.0 0.0

1.2038519784358572e6 1.1977239924621323e7 0.0
1.1977239924621323e7 -1.7468305560733043e7 0.0
0.0 0.0 0.0

-4.599708487825178e6 2.2805454683192078e7 0.0
2.2805454683192078e7 4.0060040968305217e6 0.0
0.0 0.0 0.0

-7.991517929738887e6 2.500137158900281e7 0.0
2.500137158900281e7 3.9816424430295937e6 0.0
0.0 0.0 0.0

-9.31728813162277e6 2.56339573894455e7 0.0
2.56339573894455e7 4.259242233686203e6 0.0
0.0 0.0 0.0

-3.619757498763813e6 1.9088024974546507e7 0.0
1.9088024974546507e7 -109255.72398032574 0.0
0.0 0.0 0.0

-1.235927865201332e7 7.81635968615796e6 0.0
7.81635968615796e6 1.982451561185033e7 0.0
0.0 0.0 0.0

5.522169311822596e6 3.795367555353888e6 0.0
3.795367555353888e6 -1.8711082906837136e7 0.0
0.0 0.0 0.0

-7.221911304472912e6 1.5013557730666423e7 0.0
1.5013557730666423e7 1.4471382437300978e7 0.0
0.0 0.0 0.0

-2.970070536764897e6 2.0617180824259695e7 0.0
2.0617180824259695e7 -571307.5276186704 0.0
0.0 0.0 0.0

985072.265401789 1.2387486287855558e7 0.0
1.2387486287855558e7 -1.426304701224062e7 0.0
0.0 0.0 0.0

-1.005384382583758e7 -4.802923793584562e6 0.0
-4.802923793584562e6 2.7028102829922017e7 0.0
0.0 0.0 0.0

-48932.449517321606 1.4589739232875714e7 0.0
1.4589739232875714e7 -30211.236683663912 0.0
0.0 0.0 0.0

-166984.28452328546 1.4536190810217308e7 0.0
1.4536190810217308e7 -8.49400785628367e6 0.0
0.0 0.0 0.0

225976.99149031425 1.352065584838215e7 0.0
1.352065584838215e7 -1.039672896793474e7 0.0
0.0 0.0 0.0

-1.0119536489541847e6 1.1640318445315912e7 0.0
1.1640318445315912e7 -9.685364887262272e6 0.0
0.0 0.0 0.0

-5.609638666074103e6 -2.017137180040088e6 0.0
-2.017137180040088e6 7.161298444092963e6 0.0
0.0 0.0 0.0

466661.01090160105 1.1768009491338963e7 0.0
1.1768009491338963e7 -2.8901767258695504e6 0.0
0.0 0.0 0.0

448434.1901374648 1.3298731591791509e7 0.0
1.3298731591791509e7 3.415521795674447e6 0.0
0.0 0.0 0.0

8.268842150909584e6 1.353410368652672e7 0.0
1.353410368652672e7 473051.9193167039 0.0
0.0 0.0 0.0

-1.028881242907304e7 2.6804742066901978e7 0.0
2.6804742066901978e7 4.748287239903996e6 0.0
0.0 0.0 0.0

-7.205822337060911e6 1.2318499970577436e7 0.0
1.2318499970577436e7 1.0189007752646068e7 0.0
0.0 0.0 0.0

-3.3930269740244877e6 1.467284136675193e7 0.0
1.467284136675193e7 -3.0979068411468945e7 0.0
0.0 0.0 0.0

4.7839620799457105e6 6.560366168691695e6 0.0
6.560366168691695e6 -1.933397866790782e7 0.0
0.0 0.0 0.0

-5.408237941136801e6 -8.23058377048504e6 0.0
-8.23058377048504e6 1.3245558174857663e7 0.0
0.0 0.0 0.0

-1.2354131373815726e7 2.0808665872597508e7 0.0
2.0808665872597508e7 2.125818075693573e6 0.0
0.0 0.0 0.0

-1.0489269737713e7 1.7558997483652826e7 0.0
1.7558997483652826e7 -728592.0413193335 0.0
0.0 0.0 0.0

-329290.28687343514 1.226641979887922e7 0.0
1.226641979887922e7 -6.510917660703738e6 0.0
0.0 0.0 0.0

-3.523084767849115e6 2.0331973071836818e7 0.0
2.0331973071836818e7 486475.7882706332 0.0
0.0 0.0 0.0

4.2556159673567e6 6.5444308766417615e6 0.0
6.5444308766417615e6 -3.184844958249055e7 0.0
0.0 0.0 0.0

2.338351743755076e6 1.6221472318254676e7 0.0
1.6221472318254676e7 -4.611160827259501e6 0.0
0.0 0.0 0.0

335399.29185389844 1.5564845546781141e7 0.0
1.5564845546781141e7 6.698859202962451e6 0.0
0.0 0.0 0.0

2.1527688282430284e6 1.108102605697286e7 0.0
1.108102605697286e7 -1.3628474065641766e7 0.0
0.0 0.0 0.0

-3.7896338727085358e6 1.683298173960402e7 0.0
1.683298173960402e7 1.3523961327662452e6 0.0
0.0 0.0 0.0

1.8273993741148748e6 1.0503275253335264e7 0.0
1.0503275253335264e7 -1.0179618039673662e7 0.0
0.0 0.0 0.0

1.8178367457415406e6 1.0926455965281067e7 0.0
1.0926455965281067e7 -1.4648313226421423e7 0.0
0.0 0.0 0.0

-224827.13211810729 1.225984124755498e7 0.0
1.225984124755498e7 -1.0386265119680839e7 0.0
0.0 0.0 0.0

-6.842095952135955e6 2.0843585318001688e7 0.0
2.0843585318001688e7 6.245260296270272e6 0.0
0.0 0.0 0.0

-6.834373515234476e6 1.7051189442172136e7 0.0
1.7051189442172136e7 -3.5749725432556406e7 0.0
0.0 0.0 0.0

3.357660919342663e6 2.2952643251481656e7 0.0
2.2952643251481656e7 -5.073180608350866e6 0.0
0.0 0.0 0.0

-394670.6672956075 1.83874316139571e7 0.0
1.83874316139571e7 -4.514730959529155e6 0.0
0.0 0.0 0.0

-4.348367477396119e6 2.156958725313874e7 0.0
2.156958725313874e7 4.076633563929716e6 0.0
0.0 0.0 0.0

-5.712870944253119e6 1.75562466283217e7 0.0
1.75562466283217e7 7.952754225131604e6 0.0
0.0 0.0 0.0

4.479288104749959e6 5.781403233639296e6 0.0
5.781403233639296e6 -3.2903010270957403e7 0.0
0.0 0.0 0.0

-5.611340374432164e6 1.612662133578596e7 0.0
1.612662133578596e7 9.84028184458069e6 0.0
0.0 0.0 0.0

4.867034700837215e6 5.5731689741602205e6 0.0
5.5731689741602205e6 -2.7194370462058432e7 0.0
0.0 0.0 0.0

-1.5325065504696032e6 1.5202342547984986e7 0.0
1.5202342547984986e7 -5.049271164607182e6 0.0
0.0 0.0 0.0

-1.2615253666827967e6 1.4719844226266595e7 0.0
1.4719844226266595e7 -5.350199740503203e6 0.0
0.0 0.0 0.0

174608.95974743762 1.1454069256876068e7 0.0
1.1454069256876068e7 -3.52439085603638e6 0.0
0.0 0.0 0.0

-5.075230214202789e6 1.4999292762036417e7 0.0
1.4999292762036417e7 1.0235529622248454e7 0.0
0.0 0.0 0.0

-3.916460975642993e6 1.845220850613463e7 0.0
1.845220850613463e7 296554.40546769556 0.0
0.0 0.0 0.0

-6.726246693478287e6 1.524831227127737e7 0.0
1.524831227127737e7 9.360859301989974e6 0.0
0.0 0.0 0.0

-6.504376216385342e6 -8.030140394959029e6 0.0
-8.030140394959029e6 1.6841370743971545e7 0.0
0.0 0.0 0.0

4.4317494969978575e6 6.381994908237607e6 0.0
6.381994908237607e6 -2.0445204354379766e7 0.0
0.0 0.0 0.0

3.580402241847979e6 7.845996071987558e6 0.0
7.845996071987558e6 -1.6586440047054792e7 0.0
0.0 0.0 0.0

-3.347095457206283e6 2.1915016370783824e7 0.0
2.1915016370783824e7 1.2627802593815192e6 0.0
0.0 0.0 0.0

-1.0723516118280366e6 1.5305044544892192e7 0.0
1.5305044544892192e7 -5.415318514475023e6 0.0
0.0 0.0 0.0

1.768904268150092e6 1.15258551701745e7 0.0
1.15258551701745e7 -1.7661967845826533e7 0.0
0.0 0.0 0.0

-3.052265977607658e6 1.5377581870963933e7 0.0
1.5377581870963933e7 1.1810532921253769e7 0.0
0.0 0.0 0.0

-8.151433169144906e6 766554.667082631 0.0
766554.667082631 1.1452359282569302e7 0.0
0.0 0.0 0.0

-73570.84397162404 1.619895217322401e7 0.0
1.619895217322401e7 8.200887119993485e6 0.0
0.0 0.0 0.0

-1.1800446059386875e7 2.2260270621054184e7 0.0
2.2260270621054184e7 8.761822039017793e6 0.0
0.0 0.0 0.0

771356.5661651007 1.3877508320421625e7 0.0
1.3877508320421625e7 3.6202725761497933e6 0.0
0.0 0.0 0.0

-336710.8339590763 1.4049583228207402e7 0.0
1.4049583228207402e7 5.9138320937723275e6 0.0
0.0 0.0 0.0

-5.530742935448643e6 2.0491986930336487e7 0.0
2.0491986930336487e7 6.021628215707218e6 0.0
0.0 0.0 0.0

-5.701372944267029e6 1.5403090071641088e7 0.0
1.5403090071641088e7 1.0588334684148014e7 0.0
0.0 0.0 0.0

-6.329843558753172e6 1.4047138892411932e7 0.0
1.4047138892411932e7 1.839874761705363e7 0.0
0.0 0.0 0.0

-9.43023459632895e6 1.819585403447158e7 0.0
1.819585403447158e7 635117.3908455409 0.0
0.0 0.0 0.0

-8.872758049415767e6 1.715135238962947e7 0.0
1.715135238962947e7 2.7353682069080845e6 0.0
0.0 0.0 0.0

-1.0637667427679852e7 8.859843145026328e6 0.0
8.859843145026328e6 6.9030803805019595e6 0.0
0.0 0.0 0.0

-4.950846093945481e7 2.4302399125927236e7 0.0
2.4302399125927236e7 6.878736191504408e6 0.0
0.0 0.0 0.0

4.7902165397124905e6 1.3895286717532841e7 0.0
1.3895286717532841e7 2.0431114545163107e6 0.0
0.0 0.0 0.0

612216.8538190201 1.215451780778548e7 0.0
1.215451780778548e7 -1.7704465806591853e7 0.0
0.0 0.0 0.0

-5.860494222158215e6 1.7113209740951728e7 0.0
1.7113209740951728e7 6.315594721501058e6 0.0
0.0 0.0 0.0

-490656.16548817 1.4489153381725932e7 0.0
1.4489153381725932e7 -9.91564342312527e6 0.0
0.0 0.0 0.0

2.2487662993337575e7 1.2144218662347967e7 0.0
1.2144218662347967e7 -470339.58089412656 0.0
0.0 0.0 0.0

-1.1871931983793816e6 2.0468042195437297e6 0.0
2.0468042195437297e6 988976.3055085418 0.0
0.0 0.0 0.0

3.7041380507095405e6 4.036442184876585e6 0.0
4.036442184876585e6 -1.0173115443133777e7 0.0
0.0 0.0 0.0

-1.10361533804536e6 1.4907198842708558e7 0.0
1.4907198842708558e7 -8.024975998368492e6 0.0
0.0 0.0 0.0

-43493.22164495324 1.2366469721210169e7 0.0
1.2366469721210169e7 -1.9540751543961316e6 0.0
0.0 0.0 0.0

-1.119009493564331e7 638102.5210444591 0.0
638102.5210444591 2.722180148729367e7 0.0
0.0 0.0 0.0

565812.7207841005 1.8837293036244288e7 0.0
1.8837293036244288e7 -4.395160096108747e6 0.0
0.0 0.0 0.0

-1.3866830291899655e7 2.7524523221391417e7 0.0
2.7524523221391417e7 5.168851562822546e6 0.0
0.0 0.0 0.0

4.420744007491931e6 1.4463593388197567e7 0.0
1.4463593388197567e7 1.138614889862181e6 0.0
0.0 0.0 0.0

-5.44161781815587e6 -7.72846497633406e6 0.0
-7.72846497633406e6 1.0733952873011747e7 0.0
0.0 0.0 0.0

-1.6247073435438635e7 1.80113147518444e7 0.0
1.80113147518444e7 7.497994205537617e6 0.0
0.0 0.0 0.0

-301346.054711665 1.1969154775139872e7 0.0
1.1969154775139872e7 3.3447638848391664e6 0.0
0.0 0.0 0.0

-1.779850248133541e7 2.8532982395546038e7 0.0
2.8532982395546038e7 5.900246688523669e6 0.0
0.0 0.0 0.0

-9.428589071468223e6 1.2182837423164338e7 0.0
1.2182837423164338e7 1.447751250772834e7 0.0
0.0 0.0 0.0

1.2001597878519632e6 1.3536275644815456e7 0.0
1.3536275644815456e7 -3.0529749569330434e6 0.0
0.0 0.0 0.0

-2.8439854968869886e6 1.2609426748829052e7 0.0
1.2609426748829052e7 -1.4237129549103417e7 0.0
0.0 0.0 0.0

-500670.9173640907 1.2473367375360671e7 0.0
1.2473367375360671e7 -8.179861704646159e6 0.0
0.0 0.0 0.0

2.267030570468478e6 1.5772578340127159e7 0.0
1.5772578340127159e7 -4.659700344336846e6 0.0
0.0 0.0 0.0

8.793803810225606e6 2.695109349458342e7 0.0
2.695109349458342e7 -1.5254989491368376e7 0.0
0.0 0.0 0.0

-5.702554736453411e6 -2.0262891424805822e6 0.0
-2.0262891424805822e6 8.821072305583198e6 0.0
0.0 0.0 0.0

-3.658987949925778e6 2.365014660399663e7 0.0
2.365014660399663e7 98650.44377005077 0.0
0.0 0.0 0.0

-2.202937119244445e6 2.075464255591429e7 0.0
2.075464255591429e7 -364579.5639214801 0.0
0.0 0.0 0.0

-1.0070241852643907e7 -4.816095503480226e6 0.0
-4.816095503480226e6 2.0002101734393764e7 0.0
0.0 0.0 0.0

5.528651776299531e6 3.7653014541459586e6 0.0
3.7653014541459586e6 -1.8824185550186448e7 0.0
0.0 0.0 0.0

-5.188904900772274e6 1.9083931948608495e7 0.0
1.9083931948608495e7 6.925445921979504e6 0.0
0.0 0.0 0.0

-1.0775315648570964e6 1.6031374324126367e7 0.0
1.6031374324126367e7 9.289771346707677e6 0.0
0.0 0.0 0.0

-3.668034855862995e6 2.651976130560145e6 0.0
2.651976130560145e6 5.932651320717071e6 0.0
0.0 0.0 0.0

-1.0001597441951405e7 1.0158185251940886e7 0.0
1.0158185251940886e7 1.4213015992296206e7 0.0
0.0 0.0 0.0

-1.7311146652597333e6 1.5750729251909615e7 0.0
1.5750729251909615e7 9.894519910656344e6 0.0
0.0 0.0 0.0

-617394.4645152234 1.2895011347084343e7 0.0
1.2895011347084343e7 -7.446078061685168e6 0.0
0.0 0.0 0.0

-561324.6129930629 1.2085485835972602e7 0.0
1.2085485835972602e7 -1.0884367101020275e7 0.0
0.0 0.0 0.0

-3.0481280429076436e6 1.9444912463229846e7 0.0
1.9444912463229846e7 -1.3098289453085398e6 0.0
0.0 0.0 0.0

-2.380615593307891e6 1.4674921892908476e6 0.0
1.4674921892908476e6 3.038724238524085e6 0.0
0.0 0.0 0.0

-4.045747447327126e6 1.4161741078321952e7 0.0
1.4161741078321952e7 2.3485215359749217e6 0.0
0.0 0.0 0.0

-1.1324640492037756e7 1.2614699416385386e7 0.0
1.2614699416385386e7 1.7205225764815316e7 0.0
0.0 0.0 0.0

1.0739043411999745e6 1.1101123973862698e7 0.0
1.1101123973862698e7 -8.536562880651485e6 0.0
0.0 0.0 0.0

-1.7482758060885887e6 1.651590688795222e7 0.0
1.651590688795222e7 -6.156771089977435e6 0.0
0.0 0.0 0.0

-3.590171641369641e6 2.522571268344082e7 0.0
2.522571268344082e7 1.2046942477694803e6 0.0
0.0 0.0 0.0

1.459862251726713e6 1.1363857944554437e7 0.0
1.1363857944554437e7 -1.8676190632125266e7 0.0
0.0 0.0 0.0

-3.5152067960461035e7 2.797654130899329e7 0.0
2.797654130899329e7 9.31550943686333e6 0.0
0.0 0.0 0.0

1.663462840993001e6 3.645854186046051e6 0.0
3.645854186046051e6 -4.081489377233778e6 0.0
0.0 0.0 0.0

1.5103038919866204e6 3.7542448953951388e6 0.0
3.7542448953951388e6 -4.849491909911036e6 0.0
0.0 0.0 0.0

811684.5517575066 1.5422406779720595e7 0.0
1.5422406779720595e7 1.0745588740319885e7 0.0
0.0 0.0 0.0

-701553.7017079368 1.6266942638383543e7 0.0
1.6266942638383543e7 1.147383450410435e7 0.0
0.0 0.0 0.0

-865053.1921258382 1.4596821192140996e7 0.0
1.4596821192140996e7 3.9111128538012737e6 0.0
0.0 0.0 0.0

-9.561333269724596e6 8.664958600677576e6 0.0
8.664958600677576e6 1.410512711620585e7 0.0
0.0 0.0 0.0

1.4004742996305209e6 4.380317618804797e6 0.0
4.380317618804797e6 -988561.7135066984 0.0
0.0 0.0 0.0

-2.816418821206309e6 1.5548375144689595e7 0.0
1.5548375144689595e7 5.49221399142394e6 0.0
0.0 0.0 0.0

-3.5632264251171174e6 2.026306272090252e7 0.0
2.026306272090252e7 1.7216384885044894e6 0.0
0.0 0.0 0.0

951652.6553570777 1.1866126690419756e7 0.0
1.1866126690419756e7 -1.928494391726231e7 0.0
0.0 0.0 0.0

995466.313372385 1.6744875568544576e7 0.0
1.6744875568544576e7 9.043724084030744e6 0.0
0.0 0.0 0.0

5.868022827878777e6 1.4745219184503082e7 0.0
1.4745219184503082e7 2.9752179507827493e6 0.0
0.0 0.0 0.0

-2.255159561385335e7 2.900012017972586e7 0.0
2.900012017972586e7 8.0378998580892505e6 0.0
0.0 0.0 0.0

-1.3746660163899658e6 1.3332304239035437e7 0.0
1.3332304239035437e7 5.887150488270147e6 0.0
0.0 0.0 0.0

-5.40816837121284e6 6.257930566209856e6 0.0
6.257930566209856e6 3.6091373038473967e6 0.0
0.0 0.0 0.0

-1.2895732749889283e7 6.685408707434746e6 0.0
6.685408707434746e6 1.6459024468847748e7 0.0
0.0 0.0 0.0

-3.727375548046006e6 1.980274505359239e7 0.0
1.980274505359239e7 961847.4152625958 0.0
0.0 0.0 0.0

-1.9013299796455675e6 1.6168616505038949e7 0.0
1.6168616505038949e7 1.1995142488160126e7 0.0
0.0 0.0 0.0

-1.1171102490819793e7 1.6687145631587189e6 0.0
1.6687145631587189e6 4.040742418713417e7 0.0
0.0 0.0 0.0

-2.6104503685172256e6 1.4878652539029907e7 0.0
1.4878652539029907e7 7.896146819160196e6 0.0
0.0 0.0 0.0

-4.611070415929461e6 1.3517305663476741e7 0.0
1.3517305663476741e7 -1.8659083307601348e7 0.0
0.0 0.0 0.0

-1.6021088468064233e6 1.614414967048185e7 0.0
1.614414967048185e7 1.0927004146289703e7 0.0
0.0 0.0 0.0

-8.822002747147951e6 1.4281628237444373e7 0.0
1.4281628237444373e7 1.5167309337431744e7 0.0
0.0 0.0 0.0

-301728.36379619595 1.2284789982886223e7 0.0
1.2284789982886223e7 -7.7798170279865675e6 0.0
0.0 0.0 0.0

-2.787624246801434e6 1.5016888554778006e7 0.0
1.5016888554778006e7 4.749149832781313e7 0.0
0.0 0.0 0.0

497006.70695831324 1.8236209413772512e7 0.0
1.8236209413772512e7 -4.721907843327079e6 0.0
0.0 0.0 0.0

241174.85181668913 1.3430350168962607e7 0.0
1.3430350168962607e7 -1.1930032867063425e7 0.0
0.0 0.0 0.0

-183614.8307191145 1.0276406221416581e7 0.0
1.0276406221416581e7 -4.616800894946576e6 0.0
0.0 0.0 0.0

5.580423704860559e6 4.219121845110008e6 0.0
4.219121845110008e6 -2.2715229748322483e7 0.0
0.0 0.0 0.0

-3.297058801472459e6 2.436557717345081e7 0.0
2.436557717345081e7 1.7523480682517856e6 0.0
0.0 0.0 0.0

-1.2934765042998454e7 7.585945053715429e6 0.0
7.585945053715429e6 1.685385529174677e7 0.0
0.0 0.0 0.0

9224.005781790242 1.4280594621771887e7 0.0
1.4280594621771887e7 7.634724464223112e6 0.0
0.0 0.0 0.0

-6.87249845537138e6 1.8414776679284036e7 0.0
1.8414776679284036e7 5.381323923717029e6 0.0
0.0 0.0 0.0

-4.256143161730094e6 1.5469465703257067e7 0.0
1.5469465703257067e7 1.5300101242251117e6 0.0
0.0 0.0 0.0

-1.1473832783684356e7 1.0838033541486556e7 0.0
1.0838033541486556e7 1.4383626267717026e7 0.0
0.0 0.0 0.0

2.6706018459483394e6 8.930107130001927e6 0.0
8.930107130001927e6 -1.3813186463644307e7 0.0
0.0 0.0 0.0

-1.3049504591021571e7 2.6074566521266326e7 0.0
2.6074566521266326e7 8.018511064636526e6 0.0
0.0 0.0 0.0

1.1064552707969759e7 1.0254488124263337e7 0.0
1.0254488124263337e7 -11218.504098038655 0.0
0.0 0.0 0.0

-7.451296258733433e6 -378028.65766904986 0.0
-378028.65766904986 8.585597050322223e6 0.0
0.0 0.0 0.0

-6.201459720129548e6 2.1114223180253487e7 0.0
2.1114223180253487e7 6.091066686881986e6 0.0
0.0 0.0 0.0

-2.107569240349146e7 1.3826989758642001e7 0.0
1.3826989758642001e7 1.021047573443582e7 0.0
0.0 0.0 0.0

-1.5832331902029063e6 1.5983805330825325e7 0.0
1.5983805330825325e7 -5.152006343820985e6 0.0
0.0 0.0 0.0

-3.1093542532324743e7 2.212492494274229e7 0.0
2.212492494274229e7 5.82856429625139e6 0.0
0.0 0.0 0.0

-1.2964421869696965e6 1.6066480761838669e7 0.0
1.6066480761838669e7 -3.095587703882771e6 0.0
0.0 0.0 0.0

-7.372438285042631e6 1.3715037510090735e7 0.0
1.3715037510090735e7 1.1161721494644184e7 0.0
0.0 0.0 0.0

-1.067192685676783e7 7.520703104427553e6 0.0
7.520703104427553e6 1.5043182184570607e7 0.0
0.0 0.0 0.0

-8.118829048662278e6 1.180047815488759e7 0.0
1.180047815488759e7 9.400856659626346e6 0.0
0.0 0.0 0.0

-5.5369070137109365e6 1.7396125251172066e7 0.0
1.7396125251172066e7 8.251210030056009e6 0.0
0.0 0.0 0.0

-1.0569889899564413e7 -2.9047984243745795e6 0.0
-2.9047984243745795e6 2.6971340061726764e7 0.0
0.0 0.0 0.0

-84718.9716794435 1.1507486863090213e7 0.0
1.1507486863090213e7 -1.7657485797706598e6 0.0
0.0 0.0 0.0

1.8121511117181075e6 9.717235489451623e6 0.0
9.717235489451623e6 -9.043067981364964e6 0.0
0.0 0.0 0.0

1.0645213491001562e6 1.2442267245477745e7 0.0
1.2442267245477745e7 -1.2043347254607767e7 0.0
0.0 0.0 0.0

-6.850669597256916e6 -5.804005163947273e6 0.0
-5.804005163947273e6 1.3965905643515594e7 0.0
0.0 0.0 0.0

-637530.6593093534 1.1810461874140875e7 0.0
1.1810461874140875e7 -585760.6049095913 0.0
0.0 0.0 0.0

-6.441735805092632e6 1.8696630964925878e7 0.0
1.8696630964925878e7 6.106578193960253e6 0.0
0.0 0.0 0.0

-1.9410768890736662e6 1.5696550354264705e7 0.0
1.5696550354264705e7 1.2260964667885005e7 0.0
0.0 0.0 0.0

-671717.3145445166 1.4474590676781923e7 0.0
1.4474590676781923e7 -8.303266826901835e6 0.0
0.0 0.0 0.0

-359147.7435292776 1.4117717895313364e7 0.0
1.4117717895313364e7 1.4907337725893063e6 0.0
0.0 0.0 0.0

-3.56614440323034e6 2.302677074964504e7 0.0
2.302677074964504e7 594565.2602477889 0.0
0.0 0.0 0.0

-193255.77812123485 1.4857072744888635e7 0.0
1.4857072744888635e7 -8.057117264229607e6 0.0
0.0 0.0 0.0

4.706306723166821e7 1.8974770196092192e7 0.0
1.8974770196092192e7 472857.7012346126 0.0
0.0 0.0 0.0

1.6441811005334568e6 1.4153396197731595e7 0.0
1.4153396197731595e7 -4.297874018137077e6 0.0
0.0 0.0 0.0

59698.99699974246 1.3079970873373887e7 0.0
1.3079970873373887e7 -1.3887294319770673e7 0.0
0.0 0.0 0.0

-889728.8807973843 1.6196866881095957e7 0.0
1.6196866881095957e7 -6.597005183609548e6 0.0
0.0 0.0 0.0

-1.859578645339959e7 1.9535772850729603e7 0.0
1.9535772850729603e7 6.387892379535263e6 0.0
0.0 0.0 0.0

-5.636942882096406e6 1.8203722265083633e7 0.0
1.8203722265083633e7 6.773812295876692e6 0.0
0.0 0.0 0.0

6.653748603273268e6 1.451625356202842e7 0.0
1.451625356202842e7 -1.0981271835714928e6 0.0
0.0 0.0 0.0

466772.54316233564 1.1830384176614048e7 0.0
1.1830384176614048e7 -2.228286011961073e7 0.0
0.0 0.0 0.0

708187.415053355 1.4808443405133892e7 0.0
1.4808443405133892e7 1.3533766053747667e7 0.0
0.0 0.0 0.0

4.824651921978224e6 5.7075816642938815e6 0.0
5.7075816642938815e6 -1.5524943193584409e7 0.0
0.0 0.0 0.0

-708137.4798434989 1.6681370880770383e7 0.0
1.6681370880770383e7 -6.041578528430251e6 0.0
0.0 0.0 0.0

5.119287449428571e6 5.011440696970447e6 0.0
5.011440696970447e6 -2.6438927632387042e7 0.0
0.0 0.0 0.0

-1.6313836972173583e6 1.6334826603594393e7 0.0
1.6334826603594393e7 -6.204225791518162e6 0.0
0.0 0.0 0.0

-202054.38198591932 1.890078848486642e7 0.0
1.890078848486642e7 -3.9490294011085182e6 0.0
0.0 0.0 0.0

-3.810938203269491e6 1.5304475836105466e7 0.0
1.5304475836105466e7 1.2180439784919485e6 0.0
0.0 0.0 0.0

-1.0378324266756203e7 2.2231095189594682e7 0.0
2.2231095189594682e7 7.259051699469234e6 0.0
0.0 0.0 0.0

-9.209219765941024e6 1.4237442087666163e7 0.0
1.4237442087666163e7 1.5068900816789707e7 0.0
0.0 0.0 0.0

-1.186489744221978e6 1.2589566890959032e7 0.0
1.2589566890959032e7 4.978490715655759e6 0.0
0.0 0.0 0.0

-2.7617411591024198e7 2.1478705650384534e7 0.0
2.1478705650384534e7 1.1188328281661663e7 0.0
0.0 0.0 0.0

4.856222325966942e6 1.4966086599710813e7 0.0
1.4966086599710813e7 5.086027445844655e6 0.0
0.0 0.0 0.0

-4.335816728529663e6 8.484787818387825e6 0.0
8.484787818387825e6 1.8672611930201899e6 0.0
0.0 0.0 0.0

-5.585801082075607e6 2.0728993130770367e7 0.0
2.0728993130770367e7 5.672671990236104e6 0.0
0.0 0.0 0.0

-1.5623222618918745e6 1.643841827248839e7 0.0
1.643841827248839e7 -3.8362457513781395e6 0.0
0.0 0.0 0.0

1.143697704718376e6 1.1374205659141585e7 0.0
1.1374205659141585e7 -9.004158259060593e6 0.0
0.0 0.0 0.0

5.615851755028349e6 3.669112874456624e6 0.0
3.669112874456624e6 -1.9679132058978833e7 0.0
0.0 0.0 0.0

82021.94323674263 1.181699294277967e7 0.0
1.181699294277967e7 -7.23508703686698e6 0.0
0.0 0.0 0.0

2.5105699686162584e7 5.692526757832215e6 0.0
5.692526757832215e6 -3.3215147984509375e6 0.0
0.0 0.0 0.0

-9.00820191362834e6 1.4246027069526518e7 0.0
1.4246027069526518e7 1.5739492288240228e7 0.0
0.0 0.0 0.0

-6.574449945519816e6 2.041732174435085e7 0.0
2.041732174435085e7 6.376601353459313e6 0.0
0.0 0.0 0.0

-9.190521013973951e6 -6.858233348403178e6 0.0
-6.858233348403178e6 2.3410210622083493e7 0.0
0.0 0.0 0.0

-4.736873321791721e6 2.2869903858098157e7 0.0
2.2869903858098157e7 3.3267011927657295e6 0.0
0.0 0.0 0.0

-1.5573211609215666e7 1.757599806162978e7 0.0
1.757599806162978e7 7.525616487965148e6 0.0
0.0 0.0 0.0

-7151.9694724264555 1.3766676665195888e7 0.0
1.3766676665195888e7 -1.121481725869803e7 0.0
0.0 0.0 0.0

755243.1898181052 1.5104500164689071e7 0.0
1.5104500164689071e7 9.36006373867851e6 0.0
0.0 0.0 0.0

-694565.8238646743 1.272394523882703e7 0.0
1.272394523882703e7 2.202036484711664e6 0.0
0.0 0.0 0.0

-5.622319406451159e6 1.6493905066852428e7 0.0
1.6493905066852428e7 6.604393578037261e6 0.0
0.0 0.0 0.0

805061.8216283303 1.0948862920350367e7 0.0
1.0948862920350367e7 -9.591106542685136e6 0.0
0.0 0.0 0.0

3.2846328602350177e6 8.63499351565925e6 0.0
8.63499351565925e6 -1.3330671993386202e7 0.0
0.0 0.0 0.0

132032.0251823389 7.752084315209087e6 0.0
7.752084315209087e6 -5.354781123379077e6 0.0
0.0 0.0 0.0

-5.401581589542147e6 2.0405814737130642e7 0.0
2.0405814737130642e7 5.458035998968774e6 0.0
0.0 0.0 0.0

-937674.6354297563 1.3182486147671334e7 0.0
1.3182486147671334e7 -6.7014485606799405e6 0.0
0.0 0.0 0.0

9.4964757274738e6 1.0218879129914664e7 0.0
1.0218879129914664e7 -156840.06825831207 0.0
0.0 0.0 0.0

5.631434094656236e6 3.678117943273218e6 0.0
3.678117943273218e6 -1.9805563315061428e7 0.0
0.0 0.0 0.0

-652914.8923520036 1.4831118198873103e7 0.0
1.4831118198873103e7 9.810227313367087e6 0.0
0.0 0.0 0.0

703095.5642379196 7.658990430151485e6 0.0
7.658990430151485e6 -6.460663737240946e6 0.0
0.0 0.0 0.0

-2.444779988568597e6 1.9633617843324248e7 0.0
1.9633617843324248e7 -1.0159993105227344e6 0.0
0.0 0.0 0.0

-1.1522421651070286e6 1.4608080897789424e7 0.0
1.4608080897789424e7 5.2581964031070685e6 0.0
0.0 0.0 0.0

-1.2199399043903638e7 3.425512776677699e6 0.0
3.425512776677699e6 2.4248547997897178e7 0.0
0.0 0.0 0.0

-1.6848089912361833e6 2.9421788068199465e6 0.0
2.9421788068199465e6 1.3681259810305417e6 0.0
0.0 0.0 0.0

-450203.8482440136 1.9018949363941878e7 0.0
1.9018949363941878e7 -4.1424466956411097e6 0.0
0.0 0.0 0.0

-3.6085848076865435e7 9.546462369832959e6 0.0
9.546462369832959e6 1.1073023897192152e7 0.0
0.0 0.0 0.0

672350.0167155014 1.2854448522954531e7 0.0
1.2854448522954531e7 -1.350630197771302e7 0.0
0.0 0.0 0.0

-2.1113366406185473e6 1.0604773542395264e7 0.0
1.0604773542395264e7 4.2788198796355985e6 0.0
0.0 0.0 0.0

-7.242956985028381e6 1.3511383426798029e7 0.0
1.3511383426798029e7 1.0708478672937142e7 0.0
0.0 0.0 0.0

-3.818488334820706e7 9.352727834134573e6 0.0
9.352727834134573e6 1.0582470051265527e7 0.0
0.0 0.0 0.0

92597.9495313149 1.2695680754506936e7 0.0
1.2695680754506936e7 -1.420757899072387e7 0.0
0.0 0.0 0.0

-934259.8321574368 1.5888361235616833e7 0.0
1.5888361235616833e7 -7.175242762527252e6 0.0
0.0 0.0 0.0

1.6748273948251354e6 5.514454657669151e6 0.0
5.514454657669151e6 -5.058639035883845e6 0.0
0.0 0.0 0.0

-3.852199463218433e6 1.743841355844393e7 0.0
1.743841355844393e7 -3.1367689414555375e6 0.0
0.0 0.0 0.0

-1.0415128987474032e6 2.1286277969839487e7 0.0
2.1286277969839487e7 -2.4925429207350356e6 0.0
0.0 0.0 0.0

-4.24699133712054e6 2.1289273312315542e7 0.0
2.1289273312315542e7 2.8243295271180375e6 0.0
0.0 0.0 0.0

-5.567280533791463e6 1.5932880373656739e7 0.0
1.5932880373656739e7 3.83079589248811e6 0.0
0.0 0.0 0.0

-1.223694720535947e7 1.0411020456957476e7 0.0
1.0411020456957476e7 1.819855744886309e7 0.0
0.0 0.0 0.0

-5.01757541929879e6 1.6104458282082513e7 0.0
1.6104458282082513e7 9.354454821850248e6 0.0
0.0 0.0 0.0

-4.561978124846983e6 2.2422588802109674e7 0.0
2.2422588802109674e7 3.232892571731501e6 0.0
0.0 0.0 0.0

1.4979434917165553e6 9.602527287548874e6 0.0
9.602527287548874e6 -1.0117802159251275e7 0.0
0.0 0.0 0.0

-4.549203514657745e6 2.2048047694207296e7 0.0
2.2048047694207296e7 3.084741479571552e6 0.0
0.0 0.0 0.0

-1.3149017707998198e6 1.634931569851108e7 0.0
1.634931569851108e7 1.1549997393616978e7 0.0
0.0 0.0 0.0

-1.2405187026895884e7 7.574098585493977e6 0.0
7.574098585493977e6 1.7689586929541722e7 0.0
0.0 0.0 0.0

5.195717400703531e6 4.405048435723041e6 0.0
4.405048435723041e6 -2.06005600040331e7 0.0
0.0 0.0 0.0

-7.579116267851021e6 1.837856147599015e7 0.0
1.837856147599015e7 5.59147525338204e6 0.0
0.0 0.0 0.0

-3.358782675076673e6 1.793814604753704e7 0.0
1.793814604753704e7 -1.472237608045577e6 0.0
0.0 0.0 0.0

-2.6086197321327394e6 1.7874494881932564e7 0.0
1.7874494881932564e7 -2.125361832502395e6 0.0
0.0 0.0 0.0

-4.530345539179236e7 3.131862871625253e7 0.0
3.131862871625253e7 -1.1886867462969862e7 0.0
0.0 0.0 0.0

260133.8983282107 1.414417391142121e7 0.0
1.414417391142121e7 -1.0601652153231418e7 0.0
0.0 0.0 0.0

-3.4899858499305476e6 1.9578046252843164e7 0.0
1.9578046252843164e7 1.2858026790769312e6 0.0
0.0 0.0 0.0

-7.750556311465716e6 1.4218280190879982e7 0.0
1.4218280190879982e7 1.0290709971357053e7 0.0
0.0 0.0 0.0

-2.2316359553224485e7 1.5013693396157684e7 0.0
1.5013693396157684e7 1.0903534690365216e7 0.0
0.0 0.0 0.0

204402.05744553238 1.4009836685703415e7 0.0
1.4009836685703415e7 -625737.2770796014 0.0
0.0 0.0 0.0

-3.659980560410667e6 1.5761902606718821e7 0.0
1.5761902606718821e7 1.2789069733047847e7 0.0
0.0 0.0 0.0

5.786169296556201e6 3.292728262337379e6 0.0
3.292728262337379e6 -2.409030527154936e7 0.0
0.0 0.0 0.0

-1.672064014373579e7 2.420219134147079e7 0.0
2.420219134147079e7 1.0281024363991112e7 0.0
0.0 0.0 0.0

-9.520082229462141e6 -5.175035949374245e6 0.0
-5.175035949374245e6 2.445539330770779e7 0.0
0.0 0.0 0.0

-1.0856111016608514e7 -3.068236938574831e6 0.0
-3.068236938574831e6 2.9662739100925885e7 0.0
0.0 0.0 0.0

-782959.1065853946 2.6988967017045724e6 0.0
2.6988967017045724e6 971624.8665079568 0.0
0.0 0.0 0.0

-1.2269186008298554e7 8.807803269836163e6 0.0
8.807803269836163e6 1.9897595973505586e7 0.0
0.0 0.0 0.0

-4.573302725734109e6 1.3360693046209734e7 0.0
1.3360693046209734e7 9.48924088060662e6 0.0
0.0 0.0 0.0

1.0483468797375998e6 1.2347974423378617e7 0.0
1.2347974423378617e7 -1.5174414842155043e7 0.0
0.0 0.0 0.0

-3.002903095177728e7 2.865437222971455e7 0.0
2.865437222971455e7 1.0204140826959137e7 0.0
0.0 0.0 0.0

-1.2285685078987634e7 8.420046127660753e6 0.0
8.420046127660753e6 1.807651308172779e7 0.0
0.0 0.0 0.0

500623.1834056964 1.166529519643385e7 0.0
1.166529519643385e7 -2.29809461537223e7 0.0
0.0 0.0 0.0

-1.519885890779009e7 1.6526559930543492e7 0.0
1.6526559930543492e7 7.782136250468442e6 0.0
0.0 0.0 0.0

-1.0173619527029082e7 -3.4880553821969004e6 0.0
-3.4880553821969004e6 3.0622060743943363e7 0.0
0.0 0.0 0.0

-207690.29797516298 1.3526240538510267e7 0.0
1.3526240538510267e7 -9.780736022165757e6 0.0
0.0 0.0 0.0

-2.5347546033821004e6 1.3642249403775342e7 0.0
1.3642249403775342e7 -2.444559903541932e7 0.0
0.0 0.0 0.0

-782397.8040940382 1.5636010977079049e7 0.0
1.5636010977079049e7 -3.6634790644458896e6 0.0
0.0 0.0 0.0

-1.4120947542370306e7 1.4617752962480066e7 0.0
1.4617752962480066e7 7.772790260973976e6 0.0
0.0 0.0 0.0

2.2493018792973273e7 1.759329648136761e7 0.0
1.759329648136761e7 3.522691953601586e6 0.0
0.0 0.0 0.0

-696805.3924348549 9.736123865035763e6 0.0
9.736123865035763e6 -2.88833816766993e6 0.0
0.0 0.0 0.0

1.0046818007955425e6 1.2710212527422354e7 0.0
1.2710212527422354e7 -1.1087819063597193e7 0.0
0.0 0.0 0.0

-340230.94797729934 1.1843141916206272e7 0.0
1.1843141916206272e7 -9.51401067895041e6 0.0
0.0 0.0 0.0

5.929427445347769e6 3.328078946167203e6 0.0
3.328078946167203e6 -2.4232644945501033e7 0.0
0.0 0.0 0.0

-2.7187561260817945e6 1.9039478496375144e7 0.0
1.9039478496375144e7 -782943.5373771028 0.0
0.0 0.0 0.0

-374361.12529613264 1.2501295731855152e7 0.0
1.2501295731855152e7 -1.4996710242792377e7 0.0
0.0 0.0 0.0

83028.9780047792 1.5026375637847297e7 0.0
1.5026375637847297e7 -8.325712015699181e6 0.0
0.0 0.0 0.0

-366327.75405019335 1.2554281629300136e7 0.0
1.2554281629300136e7 187825.69196990374 0.0
0.0 0.0 0.0

-3.8861800192854037e6 8.487331985423991e6 0.0
8.487331985423991e6 3.4164663219177406e6 0.0
0.0 0.0 0.0

-6.013894225938816e6 1.6214055347730843e7 0.0
1.6214055347730843e7 6.171989050048852e6 0.0
0.0 0.0 0.0

-4.514507470700125e6 1.546342446778145e7 0.0
1.546342446778145e7 1.3585644846819337e7 0.0
0.0 0.0 0.0

5.3490502282323055e6 4.0289496895726463e6 0.0
4.0289496895726463e6 -1.7000158494141113e7 0.0
0.0 0.0 0.0

-1.3558847090430733e7 7.001314602599583e6 0.0
7.001314602599583e6 5.340005927908951e6 0.0
0.0 0.0 0.0

-1.181276690169233e6 1.6381548840609718e7 0.0
1.6381548840609718e7 1.0479210093141932e7 0.0
0.0 0.0 0.0

57589.84749797825 1.3081870449756835e7 0.0
1.3081870449756835e7 -1.1485488337389367e7 0.0
0.0 0.0 0.0

3.8190925858923964e7 7.4313139034894565e6 0.0
7.4313139034894565e6 -2.1636519248522352e6 0.0
0.0 0.0 0.0

1.0615740242077895e6 1.2880175110843113e7 0.0
1.2880175110843113e7 -1.350297846550716e7 0.0
0.0 0.0 0.0

-3.112843586246128e6 1.8356370141006473e7 0.0
1.8356370141006473e7 -1.9568474609770058e6 0.0
0.0 0.0 0.0

-4.387596200327936e6 1.646697182878248e7 0.0
1.646697182878248e7 673158.8983693162 0.0
0.0 0.0 0.0

-730890.6949407514 1.5021012919994678e7 0.0
1.5021012919994678e7 3.3722962617197e7 0.0
0.0 0.0 0.0

-1.2296077282111973e7 7.863171750131258e6 0.0
7.863171750131258e6 2.086662872779511e7 0.0
0.0 0.0 0.0

-8.914653382973792e6 -7.306060974472992e6 0.0
-7.306060974472992e6 2.3031980117328886e7 0.0
0.0 0.0 0.0

-1.2463417362140706e7 1.9266413036758795e6 0.0
1.9266413036758795e6 2.4686868255111616e7 0.0
0.0 0.0 0.0

-4.384522177823315e6 2.0807629156159017e7 0.0
2.0807629156159017e7 3.0518097503316235e6 0.0
0.0 0.0 0.0

2.686149261160331e6 9.498977923262179e6 0.0
9.498977923262179e6 -1.4413752401454555e7 0.0
0.0 0.0 0.0

-5.520072427359361e6 1.7187358603550136e7 0.0
1.7187358603550136e7 8.136871462698547e6 0.0
0.0 0.0 0.0

-25746.79845585162 1.446432429444447e7 0.0
1.446432429444447e7 -9.904664995812949e6 0.0
0.0 0.0 0.0

-7.889201130292296e6 1.279803920223537e7 0.0
1.279803920223537e7 9.318204608741375e6 0.0
0.0 0.0 0.0

-5.449280865264909e6 1.8573931827469513e7 0.0
1.8573931827469513e7 7.042263179737998e6 0.0
0.0 0.0 0.0

1.5590493600228797e6 1.788585612204365e7 0.0
1.788585612204365e7 -4.8944057271008985e6 0.0
0.0 0.0 0.0

-6.082839518721786e6 1.570741494370335e7 0.0
1.570741494370335e7 1.0434600445440294e7 0.0
0.0 0.0 0.0

-5.823264035126207e6 1.6671997463377673e7 0.0
1.6671997463377673e7 8.85162589033479e6 0.0
0.0 0.0 0.0

-1.145326912507426e6 1.2408120162738878e7 0.0
1.2408120162738878e7 -1.0348887808616642e7 0.0
0.0 0.0 0.0

-1.2869115732358942e7 8.203759442109789e6 0.0
8.203759442109789e6 1.6290252998983514e7 0.0
0.0 0.0 0.0

-4.176718222317914e6 2.089904803273768e7 0.0
2.089904803273768e7 3.785917742871631e6 0.0
0.0 0.0 0.0

4.573890546702571e6 5.407049463855028e6 0.0
5.407049463855028e6 -1.6393866786719438e7 0.0
0.0 0.0 0.0

-1.0670471544970224e7 135084.56317210195 0.0
135084.56317210195 3.968150046231596e7 0.0
0.0 0.0 0.0

-420525.9507503236 1.5127177830281813e7 0.0
1.5127177830281813e7 -4.552760116564535e6 0.0
0.0 0.0 0.0

-4.4282056970011685e6 2.117200493759066e7 0.0
2.117200493759066e7 3.235121977145564e6 0.0
0.0 0.0 0.0

2.5206368976444583e6 1.0731067166117955e7 0.0
1.0731067166117955e7 -1.6229079039527416e7 0.0
0.0 0.0 0.0

-3.3363579146510544e6 1.914367204389974e7 0.0
1.914367204389974e7 -981745.7791232398 0.0
0.0 0.0 0.0

2.9683174907514947e6 8.50887785918547e6 0.0
8.50887785918547e6 -1.4445606914274033e7 0.0
0.0 0.0 0.0

-1.2284210958878929e7 6.82081104080716e6 0.0
6.82081104080716e6 1.844128672701288e7 0.0
0.0 0.0 0.0

-4.078131971574089e7 2.7178662958554003e7 0.0
2.7178662958554003e7 1.1158102392012063e7 0.0
0.0 0.0 0.0

-7.476240709103511e6 1.743771220201767e7 0.0
1.743771220201767e7 1.0290365058327531e6 0.0
0.0 0.0 0.0

-5.26654391577523e6 1.709402764883109e7 0.0
1.709402764883109e7 8.554318162546935e6 0.0
0.0 0.0 0.0

-3.421060727827832e6 -2.0642763267163883e6 0.0
-2.0642763267163883e6 6.202066850429825e6 0.0
0.0 0.0 0.0

-9.06455359447486e6 1.665273385144717e7 0.0
1.665273385144717e7 -186031.09189206734 0.0
0.0 0.0 0.0

-6.1127831473422935e6 1.880473311518975e7 0.0
1.880473311518975e7 6.546150690192439e6 0.0
0.0 0.0 0.0

5.460282714671843e6 4.232426121075038e6 0.0
4.232426121075038e6 -2.0988273328760173e7 0.0
0.0 0.0 0.0

-7.674166256947546e6 1.1527448471079541e7 0.0
1.1527448471079541e7 1.1128280100337142e7 0.0
0.0 0.0 0.0

-1.0268463608025797e7 8.912106134699795e6 0.0
8.912106134699795e6 1.4700630784036268e7 0.0
0.0 0.0 0.0

-2.343905273975799e6 2.320455614972839e7 0.0
2.320455614972839e7 790574.0619000867 0.0
0.0 0.0 0.0

-9.391636248099033e6 -25346.08562161751 0.0
-25346.08562161751 1.0804008456946224e7 0.0
0.0 0.0 0.0

-1.283948035154844e7 9.234492918316532e6 0.0
9.234492918316532e6 1.689486062352023e7 0.0
0.0 0.0 0.0

-3.799263791357205e6 2.151054557032285e7 0.0
2.151054557032285e7 3.1904730225364612e6 0.0
0.0 0.0 0.0

-1.0692845101865461e7 -2.8234130180359925e6 0.0
-2.8234130180359925e6 3.2064775439003333e7 0.0
0.0 0.0 0.0

-5.379546578730319e6 -787461.73120958 0.0
-787461.73120958 8.509404110467682e6 0.0
0.0 0.0 0.0

4.047210194464393e6 6.895744894751535e6 0.0
6.895744894751535e6 -1.571958876713295e7 0.0
0.0 0.0 0.0

-5.759827981793022e6 1.6545390059411874e7 0.0
1.6545390059411874e7 6.903636812928351e6 0.0
0.0 0.0 0.0

-1.2586324394557271e7 9.483265077099526e6 0.0
9.483265077099526e6 1.8121538591520246e7 0.0
0.0 0.0 0.0

-548846.1232917905 1.4145322481630804e7 0.0
1.4145322481630804e7 -9.3487581205801e6 0.0
0.0 0.0 0.0

380749.47444249317 1.3599299151416134e7 0.0
1.3599299151416134e7 -9.83041473629335e6 0.0
0.0 0.0 0.0

2.844110733803428e6 9.330289389458911e6 0.0
9.330289389458911e6 -1.531016310634157e7 0.0
0.0 0.0 0.0

896307.7074504849 1.2602876504537633e7 0.0
1.2602876504537633e7 -1.4384445704551993e7 0.0
0.0 0.0 0.0

-716363.7943959609 1.2692792277222283e7 0.0
1.2692792277222283e7 4.524015408959522e6 0.0
0.0 0.0 0.0

-1.2692461285629554e7 1.0534501171613768e7 0.0
1.0534501171613768e7 1.7206436153729443e7 0.0
0.0 0.0 0.0

-3.15464892729739e6 1.8677550106686294e7 0.0
1.8677550106686294e7 -1.7886781545561498e6 0.0
0.0 0.0 0.0

-5.558380048193861e6 2.0331215009424895e7 0.0
2.0331215009424895e7 5.909586105807112e6 0.0
0.0 0.0 0.0

-3.965144857823968e6 2.104214934454484e7 0.0
2.104214934454484e7 3.433703689113699e6 0.0
0.0 0.0 0.0

6.49182635744657e6 1.941658267148551e7 0.0
1.941658267148551e7 4.344069474517996e7 0.0
0.0 0.0 0.0

-5.3009825283157155e6 1.6734036237427007e7 0.0
1.6734036237427007e7 6.144227867091796e6 0.0
0.0 0.0 0.0

722146.11534678 1.305811220610547e7 0.0
1.305811220610547e7 -1.0347312934318759e7 0.0
0.0 0.0 0.0

397355.967145632 1.2968013258517375e7 0.0
1.2968013258517375e7 -1.363144776074911e7 0.0
0.0 0.0 0.0

968866.7303657713 1.2895899149334928e7 0.0
1.2895899149334928e7 -1.1350448480469963e7 0.0
0.0 0.0 0.0

-3.059160703169861e6 2.0545397511075888e7 0.0
2.0545397511075888e7 837926.1050389656 0.0
0.0 0.0 0.0

-5.902944599054905e6 1.587719371417065e7 0.0
1.587719371417065e7 5.491442334438462e6 0.0
0.0 0.0 0.0

-263908.3339446831 1.1962053971296292e7 0.0
1.1962053971296292e7 996796.5776166306 0.0
0.0 0.0 0.0

227811.99945151992 1.3291479095609182e7 0.0
1.3291479095609182e7 -1.1157340777368622e7 0.0
0.0 0.0 0.0

-5.045207130840244e6 8.737366214525431e6 0.0
8.737366214525431e6 3.1155580708758943e6 0.0
0.0 0.0 0.0

-3.7241976216771607e6 2.6295053889697354e7 0.0
2.6295053889697354e7 -3.295958531869922e6 0.0
0.0 0.0 0.0

5.386411655059753e6 4.617730027536448e6 0.0
4.617730027536448e6 -2.840508326540877e7 0.0
0.0 0.0 0.0

4.816567689159643e7 2.006389858424339e7 0.0
2.006389858424339e7 6.585175639802953e6 0.0
0.0 0.0 0.0

1.7534037509765632e7 2.3734080697001845e7 0.0
2.3734080697001845e7 -2.1604698479691386e7 0.0
0.0 0.0 0.0

-3.4496283792650327e6 1.5145215593062028e7 0.0
1.5145215593062028e7 9.440729631742436e6 0.0
0.0 0.0 0.0

-602210.716799221 1.327619823703028e7 0.0
1.327619823703028e7 6.078590834033065e6 0.0
0.0 0.0 0.0

-1.5029658214261495e7 1.759959799914481e7 0.0
1.759959799914481e7 3.3522987529348973e6 0.0
0.0 0.0 0.0

-4.075483776558274e7 1.934886990961776e7 0.0
1.934886990961776e7 7.051648122612108e6 0.0
0.0 0.0 0.0

-6.19142460268254e6 9.160572729358641e6 0.0
9.160572729358641e6 7.225157096817195e6 0.0
0.0 0.0 0.0

-3.23710949088609e6 1.8444721061394293e7 0.0
1.8444721061394293e7 122868.96013068827 0.0
0.0 0.0 0.0

1.206491084502399e6 1.2333821594001487e7 0.0
1.2333821594001487e7 -1.1788923482341215e7 0.0
0.0 0.0 0.0

4.60373984680346e6 6.971071475592102e6 0.0
6.971071475592102e6 -2.643842050481128e7 0.0
0.0 0.0 0.0

712854.2819234361 1.2492124796194578e7 0.0
1.2492124796194578e7 -1.2036758508696225e7 0.0
0.0 0.0 0.0

723622.206727094 1.1515278410724565e7 0.0
1.1515278410724565e7 -2.104390590085045e7 0.0
0.0 0.0 0.0

-1.0613178785947433e7 9.393129898848256e6 0.0
9.393129898848256e6 1.2780247795871109e7 0.0
0.0 0.0 0.0

-2.876713864755894e6 1.5270476368128758e7 0.0
1.5270476368128758e7 1.1598754941025186e7 0.0
0.0 0.0 0.0

-1.1370269918955958e6 1.1846258228269937e7 0.0
1.1846258228269937e7 3.632792567814655e6 0.0
0.0 0.0 0.0

-6.691544697380623e6 2.428239131905282e6 0.0
2.428239131905282e6 4.648621360745193e6 0.0
0.0 0.0 0.0

-1.2145589909094661e7 448185.1521578765 0.0
448185.1521578765 2.410824074285125e7 0.0
0.0 0.0 0.0

-4.982414687521074e6 1.8850639968925085e7 0.0
1.8850639968925085e7 5.622044829948904e6 0.0
0.0 0.0 0.0

-4.219970593447447e6 1.5582316559030019e7 0.0
1.5582316559030019e7 1.3765917814449288e7 0.0
0.0 0.0 0.0

-6.993253729732014e6 1.3272156937221568e7 0.0
1.3272156937221568e7 1.0075267298672428e7 0.0
0.0 0.0 0.0

-1.0793532991159463e6 4.116746079719361e6 0.0
4.116746079719361e6 -1.0242368057645157e6 0.0
0.0 0.0 0.0

-9.941903711242914e6 9.335978007001644e6 0.0
9.335978007001644e6 4.05849126592819e7 0.0
0.0 0.0 0.0

-3.997742916270906e6 1.5061355395777017e7 0.0
1.5061355395777017e7 1.7803077629376065e6 0.0
0.0 0.0 0.0

-2.9457212554111173e6 1.823088372122803e7 0.0
1.823088372122803e7 -2.6093139217982115e6 0.0
0.0 0.0 0.0

-4.2783118391168695e6 1.532908857862843e7 0.0
1.532908857862843e7 1.3865437030974817e7 0.0
0.0 0.0 0.0

-4.6007088371963985e6 8.840991112210607e6 0.0
8.840991112210607e6 4.648200970503328e6 0.0
0.0 0.0 0.0

572216.4215467444 1.8184579434464183e7 0.0
1.8184579434464183e7 -4.631206043527984e6 0.0
0.0 0.0 0.0

-9.36537369164736e6 2.153727998376523e6 0.0
2.153727998376523e6 4.622161154234518e7 0.0
0.0 0.0 0.0

1.663808672588642e6 1.6717804669986635e7 0.0
1.6717804669986635e7 -5.105825265268726e6 0.0
0.0 0.0 0.0

-4.205553630239081e6 2.1234473141239643e7 0.0
2.1234473141239643e7 3.9802991428719675e6 0.0
0.0 0.0 0.0

-1.771146353182252e6 1.2050680753089398e7 0.0
1.2050680753089398e7 -1.3299465180615868e7 0.0
0.0 0.0 0.0

-5.97105621522712e6 1.5257480696959557e7 0.0
1.5257480696959557e7 1.0936024068442091e7 0.0
0.0 0.0 0.0

-1.2935332053222097e7 7.713326587825964e6 0.0
7.713326587825964e6 1.8769510195950974e7 0.0
0.0 0.0 0.0

-2.0585871589541915e6 2.022988204319177e7 0.0
2.022988204319177e7 -1.1289030660086735e6 0.0
0.0 0.0 0.0

2.8289771993758585e6 5.634023343412761e6 0.0
5.634023343412761e6 -8.001810757163102e6 0.0
0.0 0.0 0.0

-5.244401111472071e6 2.491208218390478e7 0.0
2.491208218390478e7 1.0517804270140233e6 0.0
0.0 0.0 0.0

676864.3211039201 1.4620339678509122e7 0.0
1.4620339678509122e7 4.1200038090592907e6 0.0
0.0 0.0 0.0

-2.8754709484283244e6 1.7121695180428598e7 0.0
1.7121695180428598e7 -1.4637211966686924e6 0.0
0.0 0.0 0.0

4.803539268432277e6 5.663580303928943e6 0.0
5.663580303928943e6 -2.1082496143044136e7 0.0
0.0 0.0 0.0

-657966.6863362617 1.5673709102634551e7 0.0
1.5673709102634551e7 -4.888189896749667e6 0.0
0.0 0.0 0.0

-781405.724984189 1.6593357515365077e7 0.0
1.6593357515365077e7 1.108218286771591e7 0.0
0.0 0.0 0.0

-3.9619857137533035e6 1.9984246066343717e7 0.0
1.9984246066343717e7 2.879855050138116e6 0.0
0.0 0.0 0.0

-122227.58314150851 1.5624618961516796e7 0.0
1.5624618961516796e7 1.2495575537160952e7 0.0
0.0 0.0 0.0

-150178.60670727747 3.7625419292926765e6 0.0
3.7625419292926765e6 -477754.3298795913 0.0
0.0 0.0 0.0

-6.252064763977926e6 1.4685015392598912e7 0.0
1.4685015392598912e7 1.7643947720388103e7 0.0
0.0 0.0 0.0

-4.988742273224519e6 1.7116518504291363e7 0.0
1.7116518504291363e7 3.4721270799279315e6 0.0
0.0 0.0 0.0

1.419850526254857e6 1.735705961713636e7 0.0
1.735705961713636e7 -5.042881213648088e6 0.0
0.0 0.0 0.0

-1.048329579933248e6 1.6661883515045559e7 0.0
1.6661883515045559e7 -5.991433432532394e6 0.0
0.0 0.0 0.0

-621870.3228907255 2.1142263041148726e7 0.0
2.1142263041148726e7 -2.5272182831631196e6 0.0
0.0 0.0 0.0

-723476.2219805792 1.0965949711450549e7 0.0
1.0965949711450549e7 1.9219420865625173e6 0.0
0.0 0.0 0.0

-5.347241006881151e6 1.761631269368566e7 0.0
1.761631269368566e7 8.11155861585586e6 0.0
0.0 0.0 0.0

-2.684925500887676e6 2.17627030418265e7 0.0
2.17627030418265e7 -1.0520305807207988e6 0.0
0.0 0.0 0.0

-2.363120373319122e6 1.3494741132877415e7 0.0
1.3494741132877415e7 -2.3814049436981246e7 0.0
0.0 0.0 0.0

-5.560613079595044e6 7.123992463801217e6 0.0
7.123992463801217e6 4.129963466878813e6 0.0
0.0 0.0 0.0

-1.4571331207108651e6 1.2607030057814451e7 0.0
1.2607030057814451e7 5.0478938198463e6 0.0
0.0 0.0 0.0

-2.357159813876219e6 2.0801928359082695e7 0.0
2.0801928359082695e7 -1.7945266040241618e6 0.0
0.0 0.0 0.0

192469.742643232 1.3569958227185057e7 0.0
1.3569958227185057e7 -1.1511958764260108e7 0.0
0.0 0.0 0.0

4.9969936233590795e6 4.776118346166539e6 0.0
4.776118346166539e6 -1.568333786501975e7 0.0
0.0 0.0 0.0

-9.830962627685519e6 -2.4748471968427664e6 0.0
-2.4748471968427664e6 4.228240449900351e7 0.0
0.0 0.0 0.0

2.482045263646153e6 1.0777382030779215e7 0.0
1.0777382030779215e7 -1.7135425497768626e7 0.0
0.0 0.0 0.0

-1.8432429990389668e6 1.4038109813682882e7 0.0
1.4038109813682882e7 7.71382017664419e6 0.0
0.0 0.0 0.0

-9.210378385873988e6 1.0044772178045249e7 0.0
1.0044772178045249e7 1.376290024346962e7 0.0
0.0 0.0 0.0

1.3909527428173458e6 1.7324704854974654e7 0.0
1.7324704854974654e7 -4.969848472505084e6 0.0
0.0 0.0 0.0

3.8561091733227298e6 6.095047134151715e6 0.0
6.095047134151715e6 -1.3671178789034743e7 0.0
0.0 0.0 0.0

1.751082791251039e6 1.4384473036661739e7 0.0
1.4384473036661739e7 -3.9623597485422892e6 0.0
0.0 0.0 0.0

-387712.81720918464 1.6577245782662626e7 0.0
1.6577245782662626e7 9.621493077259246e6 0.0
0.0 0.0 0.0

-964936.2428023056 2.5907693008791205e7 0.0
2.5907693008791205e7 -6.30576111437714e6 0.0
0.0 0.0 0.0

-270608.9274742934 1.6325275451306388e7 0.0
1.6325275451306388e7 -6.387621870085401e6 0.0
0.0 0.0 0.0

-4.486138971196872e6 1.4325363235139344e7 0.0
1.4325363235139344e7 2.4005993849756207e7 0.0
0.0 0.0 0.0

5.616964636219386e6 3.7872651915390217e6 0.0
3.7872651915390217e6 -1.8957553494449623e7 0.0
0.0 0.0 0.0

-3.4657034285204276e6 2.121556874576887e7 0.0
2.121556874576887e7 821899.2236343692 0.0
0.0 0.0 0.0

2.2213825345881265e6 1.345332052850015e7 0.0
1.345332052850015e7 1.0584474009071598e6 0.0
0.0 0.0 0.0

-4.5043905229332305e7 1.1721228621607684e7 0.0
1.1721228621607684e7 8.693494980216503e6 0.0
0.0 0.0 0.0

-5.962211501521891e6 1.8782177554947615e7 0.0
1.8782177554947615e7 6.845460427341434e6 0.0
0.0 0.0 0.0

-4.476620270790789e6 6.822048939308079e6 0.0
6.822048939308079e6 4.5808133895740565e6 0.0
0.0 0.0 0.0

1.1762074768236699e6 1.252103609777719e7 0.0
1.252103609777719e7 -1.5228461630947333e7 0.0
0.0 0.0 0.0

-3.5695237062567403e6 1.4939143587587737e7 0.0
1.4939143587587737e7 8.460963723356305e6 0.0
0.0 0.0 0.0

-43598.86257451121 1.241598293191813e7 0.0
1.241598293191813e7 -1.8841327840707045e7 0.0
0.0 0.0 0.0

5.863013831462916e6 3.930349039420576e6 0.0
3.930349039420576e6 -2.3663121642507344e7 0.0
0.0 0.0 0.0

2.7368903630055726e7 1.3010299402944675e7 0.0
1.3010299402944675e7 583289.3014482716 0.0
0.0 0.0 0.0

-7.984742976171522e7 3.27903269278496e7 0.0
3.27903269278496e7 -4.629102192834958e6 0.0
0.0 0.0 0.0

3.54339126157167e6 1.5858852530924715e7 0.0
1.5858852530924715e7 6.665012827619098e6 0.0
0.0 0.0 0.0

-2.2251624658029256e6 1.6800356386018094e7 0.0
1.6800356386018094e7 -5.07685239438624e6 0.0
0.0 0.0 0.0

-5.209788836883767e6 1.601109199943208e7 0.0
1.601109199943208e7 9.197161415570898e6 0.0
0.0 0.0 0.0

4.8235237371399775e6 4.80451560423033e6 0.0
4.80451560423033e6 -1.5415344846527701e7 0.0
0.0 0.0 0.0

-5.481864622888683e6 1.724393310464794e7 0.0
1.724393310464794e7 4.925815838867288e6 0.0
0.0 0.0 0.0

-2.7399061890810956e6 2.1698559583521094e7 0.0
2.1698559583521094e7 1.009280770144456e6 0.0
0.0 0.0 0.0

-447672.0265315138 1.2867180646132682e7 0.0
1.2867180646132682e7 -1.5356826509852998e7 0.0
0.0 0.0 0.0

-3.1184715611948017e6 1.6862321294113476e7 0.0
1.6862321294113476e7 -2.4131067923467457e6 0.0
0.0 0.0 0.0

2.1609324804557287e6 5.635026751258355e6 0.0
5.635026751258355e6 -6.288440256336074e6 0.0
0.0 0.0 0.0

1.1924724592706657e6 1.6249355088528974e7 0.0
1.6249355088528974e7 9.894415734143369e6 0.0
0.0 0.0 0.0

-5.164270685499903e6 1.6724957906095134e7 0.0
1.6724957906095134e7 -820501.8645238893 0.0
0.0 0.0 0.0

-249124.07658001082 1.4256013080475956e7 0.0
1.4256013080475956e7 -8.3641022602949e6 0.0
0.0 0.0 0.0

-4.629295951716977e6 1.7468210508538403e7 0.0
1.7468210508538403e7 1.787694331629941e6 0.0
0.0 0.0 0.0

2.0270910751138758e6 1.0913006238308629e7 0.0
1.0913006238308629e7 -1.651159160890343e7 0.0
0.0 0.0 0.0

-1.0519226095624711e7 -2.6485543714280967e6 0.0
-2.6485543714280967e6 3.293828137194962e7 0.0
0.0 0.0 0.0

419746.70684045274 1.282521497306582e7 0.0
1.282521497306582e7 -1.125810633040389e7 0.0
0.0 0.0 0.0

1.966055917513351e6 1.3393779270926515e7 0.0
1.3393779270926515e7 -1.985400591746219e6 0.0
0.0 0.0 0.0

-6.487194987687023e6 1.5941212924832923e7 0.0
1.5941212924832923e7 -2.9471156101083335e7 0.0
0.0 0.0 0.0

4.455694734560653e6 6.457511982435757e6 0.0
6.457511982435757e6 -1.529716859191718e7 0.0
0.0 0.0 0.0

545545.1989672473 1.374919541695702e7 0.0
1.374919541695702e7 -1.1265575150566354e7 0.0
0.0 0.0 0.0

-5.475066159649268e6 1.8387963130459517e7 0.0
1.8387963130459517e7 7.300185346317402e6 0.0
0.0 0.0 0.0

-3.7693457809919924e6 1.9406215537403755e7 0.0
1.9406215537403755e7 500452.89445635513 0.0
0.0 0.0 0.0

-5.550258028499527e6 1.7009329833475955e7 0.0
1.7009329833475955e7 7.804390316816321e6 0.0
0.0 0.0 0.0

1.0792489889670794e6 1.424908245569253e7 0.0
1.424908245569253e7 4.613798696043065e6 0.0
0.0 0.0 0.0

-5.526160547591316e7 1.6442988598018676e7 0.0
1.6442988598018676e7 6.932859547297422e6 0.0
0.0 0.0 0.0

1.0399666357616971e6 3.367566605305256e6 0.0
3.367566605305256e6 -3.508990108915161e6 0.0
0.0 0.0 0.0

-327663.48741853016 1.103311231449364e7 0.0
1.103311231449364e7 -2.173701799200408e6 0.0
0.0 0.0 0.0

5.423738334873163e6 1.4157214253823435e7 0.0
1.4157214253823435e7 -1.3247195397991522e6 0.0
0.0 0.0 0.0

-4.036896210619612e6 2.265259524313804e7 0.0
2.265259524313804e7 3.605524446092105e6 0.0
0.0 0.0 0.0

758350.6103002084 1.1718716777496936e7 0.0
1.1718716777496936e7 -2.2121559440281995e7 0.0
0.0 0.0 0.0

-990874.2977470851 1.5501548702451888e7 0.0
1.5501548702451888e7 -3.960460227029773e6 0.0
0.0 0.0 0.0

-575897.4683495266 1.7216179952656727e7 0.0
1.7216179952656727e7 -5.354427350641254e6 0.0
0.0 0.0 0.0

1.0901517752038678e6 1.1908608390952578e7 0.0
1.1908608390952578e7 -9.727754972388113e6 0.0
0.0 0.0 0.0

-259084.36488618003 1.6751924778118378e7 0.0
1.6751924778118378e7 -5.746924623476167e6 0.0
0.0 0.0 0.0

-737086.8646829699 1.4399282335230924e7 0.0
1.4399282335230924e7 3.8933679341745353e6 0.0
0.0 0.0 0.0

-3.3346439837426418e6 1.927836574170813e7 0.0
1.927836574170813e7 651230.4684358477 0.0
0.0 0.0 0.0

3.6457554821020383e6 8.219237844057765e6 0.0
8.219237844057765e6 -1.4931717818340093e7 0.0
0.0 0.0 0.0

5.466450353580947e6 4.236693556027723e6 0.0
4.236693556027723e6 -2.1106416013044592e7 0.0
0.0 0.0 0.0

-1.5630320247172783e6 452047.94755345746 0.0
452047.94755345746 -598491.6779894466 0.0
0.0 0.0 0.0

-6.343642995999999e6 324069.82078817085 0.0
324069.82078817085 1.7980024624722432e6 0.0
0.0 0.0 0.0

-1.5030602232789602e6 1.4915713507164685e7 0.0
1.4915713507164685e7 9.591793612487901e6 0.0
0.0 0.0 0.0

-322672.6187188856 1.3942581339640915e7 0.0
1.3942581339640915e7 4.726358736847529e6 0.0
0.0 0.0 0.0

-1.2375044993394623e6 1.4364444647200352e7 0.0
1.4364444647200352e7 3.991527818539531e6 0.0
0.0 0.0 0.0

3.2727902997211083e6 5.388783962436235e6 0.0
5.388783962436235e6 -1.106790364414231e7 0.0
0.0 0.0 0.0

676098.9796875217 1.5760511001018755e7 0.0
1.5760511001018755e7 -6.159630558845227e6 0.0
0.0 0.0 0.0

2.3882976270869845e6 4.973760496383011e6 0.0
4.973760496383011e6 -6.880467015640801e6 0.0
0.0 0.0 0.0

-491979.7457362483 1.674829349292433e7 0.0
1.674829349292433e7 -5.847900874396665e6 0.0
0.0 0.0 0.0

-1.1970014639870223e7 1.1351597919262769e7 0.0
1.1351597919262769e7 1.816547096318114e7 0.0
0.0 0.0 0.0

-2.5436160195749532e6 1.858313625561353e7 0.0
1.858313625561353e7 -1.5993716773108314e6 0.0
0.0 0.0 0.0

-1.8777375492430911e6 2.110842751588679e7 0.0
2.110842751588679e7 -452573.0094495817 0.0
0.0 0.0 0.0

3.951535366139086e6 6.834926678809175e6 0.0
6.834926678809175e6 -1.5873914156480588e7 0.0
0.0 0.0 0.0

4.225631258932085e6 6.122614607700301e6 0.0
6.122614607700301e6 -1.617124872073027e7 0.0
0.0 0.0 0.0

6.468015395269811e6 1.5141473003981534e7 0.0
1.5141473003981534e7 -4.251514140536763e6 0.0
0.0 0.0 0.0

-2.668143641984759e6 1.5671874882535629e7 0.0
1.5671874882535629e7 1.1878496851976521e7 0.0
0.0 0.0 0.0

68519.94379846053 1.3190528283584809e7 0.0
1.3190528283584809e7 -1.052768451516856e7 0.0
0.0 0.0 0.0

-8.633461058561763e6 -7.106993496134698e6 0.0
-7.106993496134698e6 2.372351782036842e7 0.0
0.0 0.0 0.0

-3.9174397041840423e6 2.1870657555822782e7 0.0
2.1870657555822782e7 3.3068046375856176e6 0.0
0.0 0.0 0.0

-1.2259012999819033e7 9.24887208412356e6 0.0
9.24887208412356e6 1.7224420244566135e7 0.0
0.0 0.0 0.0

-4.924279192399327e6 33275.41215740043 0.0
33275.41215740043 4.605757708862147e6 0.0
0.0 0.0 0.0

-332104.90932177124 1.3024136193380592e7 0.0
1.3024136193380592e7 -6.483140604637078e6 0.0
0.0 0.0 0.0

5.4856682020630855e6 4.288514182816745e6 0.0
4.288514182816745e6 -2.0442992800457995e7 0.0
0.0 0.0 0.0

-5.158783894004144e6 2.0620017770088058e7 0.0
2.0620017770088058e7 5.779548392848153e6 0.0
0.0 0.0 0.0

-2.492473711923955e6 1.6765088720848558e7 0.0
1.6765088720848558e7 -2.215660195957883e6 0.0
0.0 0.0 0.0

2.2559215531741707e6 1.0604489858952876e7 0.0
1.0604489858952876e7 -1.731742600151673e7 0.0
0.0 0.0 0.0

7.093739428615229e6 1.3535190852694841e7 0.0
1.3535190852694841e7 290658.50317697367 0.0
0.0 0.0 0.0

-5.516755683571046e6 2.008432599153979e7 0.0
2.008432599153979e7 6.256884201812362e6 0.0
0.0 0.0 0.0

-9.650945025791153e6 -6.154020184879878e6 0.0
-6.154020184879878e6 2.2449445173081182e7 0.0
0.0 0.0 0.0

-5.996514973322384e6 -8.015603983870234e6 0.0
-8.015603983870234e6 1.3628834818818925e7 0.0
0.0 0.0 0.0

2.602163751254942e6 1.3641291273158336e7 0.0
1.3641291273158336e7 -1.839615272977519e6 0.0
0.0 0.0 0.0

-1.7414218081476872e6 1.6707982667809356e7 0.0
1.6707982667809356e7 -4.9223425855135955e6 0.0
0.0 0.0 0.0

-1.7634755369918284e6 1.7073649466571864e7 0.0
1.7073649466571864e7 -4.626640841270108e6 0.0
0.0 0.0 0.0

-1.0348833778183188e7 3.4802854655834795e6 0.0
3.4802854655834795e6 3.6851583245558925e7 0.0
0.0 0.0 0.0

3.478276199304691e6 4.1795807759326757e6 0.0
4.1795807759326757e6 -9.124000051724218e6 0.0
0.0 0.0 0.0

-3.307421368125123e6 1.665986190046933e7 0.0
1.665986190046933e7 -1.1081198147412802e6 0.0
0.0 0.0 0.0

-5.714737253505152e6 1.7089320762805205e7 0.0
1.7089320762805205e7 -3.0955522600608952e6 0.0
0.0 0.0 0.0

-2.0299646641221315e7 1.9689890732286457e7 0.0
1.9689890732286457e7 5.854473319800159e6 0.0
0.0 0.0 0.0

-3.3966904596043397e6 2.1981415651269924e7 0.0
2.1981415651269924e7 2.182652048725198e6 0.0
0.0 0.0 0.0

-29258.99933146854 1.3352304403919533e7 0.0
1.3352304403919533e7 -523891.9681350969 0.0
0.0 0.0 0.0

-9.854815607664617e6 -5.291285991452291e6 0.0
-5.291285991452291e6 2.4334401860710707e7 0.0
0.0 0.0 0.0

5.4160972437151335e6 1.4961599402748523e7 0.0
1.4961599402748523e7 -3.648614527821043e6 0.0
0.0 0.0 0.0

-646484.3157870553 1.414474262788559e7 0.0
1.414474262788559e7 -6.7109090931435935e6 0.0
0.0 0.0 0.0

-8.652399622855641e6 -4.099470671970345e6 0.0
-4.099470671970345e6 1.694131715704999e7 0.0
0.0 0.0 0.0

-5.888633701406922e6 1.7275182536792926e7 0.0
1.7275182536792926e7 7.1801500456419205e6 0.0
0.0 0.0 0.0

-5.521203681681519e6 1.8173405901131418e7 0.0
1.8173405901131418e7 6.8251800954442285e6 0.0
0.0 0.0 0.0

-548948.7121040175 3.441297247850126e6 0.0
3.441297247850126e6 -1.2327699103283845e6 0.0
0.0 0.0 0.0

4.496753536298484e6 5.650254307626979e6 0.0
5.650254307626979e6 -1.6694554806646178e7 0.0
0.0 0.0 0.0

3.6477817374545243e6 7.660919996822125e6 0.0
7.660919996822125e6 -2.738628739782579e7 0.0
0.0 0.0 0.0

-463157.74671185017 1.5789517696825473e7 0.0
1.5789517696825473e7 9.67046754965913e6 0.0
0.0 0.0 0.0

2.838013560131049e6 5.042834667939839e6 0.0
5.042834667939839e6 -8.395779520511026e6 0.0
0.0 0.0 0.0

6.387576790180492e6 2.0100130216099847e7 0.0
2.0100130216099847e7 -9.350284540593423e6 0.0
0.0 0.0 0.0

5.026896569396748e6 5.23735034712706e6 0.0
5.23735034712706e6 -1.5969172665052997e7 0.0
0.0 0.0 0.0

4.217534954075516e6 5.5988647683978705e6 0.0
5.5988647683978705e6 -1.1930628105776247e7 0.0
0.0 0.0 0.0

4.364704430314718e6 5.5162869719926575e6 0.0
5.5162869719926575e6 -1.453536481221871e7 0.0
0.0 0.0 0.0

58482.662011841676 1.3970473422675228e7 0.0
1.3970473422675228e7 458314.6205371618 0.0
0.0 0.0 0.0

-267487.99403508124 1.3729585840559674e7 0.0
1.3729585840559674e7 3.5126129732388137e6 0.0
0.0 0.0 0.0

1.584876971635296e6 1.1949450098409945e7 0.0
1.1949450098409945e7 -1.5888516192451099e7 0.0
0.0 0.0 0.0

4.584789809484233e6 2.135331543201117e7 0.0
2.135331543201117e7 -7.784569568212733e6 0.0
0.0 0.0 0.0

-8.13775025993401e6 -5.891632392489325e6 0.0
-5.891632392489325e6 1.5744636319096552e7 0.0
0.0 0.0 0.0

-5.591512500525694e6 1.747255006616604e7 0.0
1.747255006616604e7 8.241099977116909e6 0.0
0.0 0.0 0.0

-4.327026185191046e6 2.1661692862684168e7 0.0
2.1661692862684168e7 2.9625444538670285e6 0.0
0.0 0.0 0.0

-2.7569162911674185e6 1.866826957743369e7 0.0
1.866826957743369e7 -1.0876122652766013e6 0.0
0.0 0.0 0.0

-5.444443427390099e6 -2.0152488265293357e6 0.0
-2.0152488265293357e6 7.871938361727446e6 0.0
0.0 0.0 0.0

-5.732142559052736e6 1.1383920998156439e6 0.0
1.1383920998156439e6 5.820275024245342e6 0.0
0.0 0.0 0.0

-1.150183636013886e6 1.5595145127936302e7 0.0
1.5595145127936302e7 1.0639713727529835e7 0.0
0.0 0.0 0.0

561931.6389446937 3.0026732898697164e6 0.0
3.0026732898697164e6 -2.2377117953334306e6 0.0
0.0 0.0 0.0

547536.9213686876 1.761024860147611e7 0.0
1.761024860147611e7 -4.8964816221255e6 0.0
0.0 0.0 0.0

-1.7603559693801447e6 1.6039602866432866e7 0.0
1.6039602866432866e7 -6.304167042549157e6 0.0
0.0 0.0 0.0

675747.6369078537 1.3623862786090368e7 0.0
1.3623862786090368e7 -1.203484234389902e7 0.0
0.0 0.0 0.0

-3.6653184820946865e6 1.6219422931785889e7 0.0
1.6219422931785889e7 1.0365618327381797e6 0.0
0.0 0.0 0.0

-6.176375161477815e6 1.6737524006587695e7 0.0
1.6737524006587695e7 7.368849314197655e6 0.0
0.0 0.0 0.0

-1.0671466861974042e7 9.395642022988241e6 0.0
9.395642022988241e6 1.5289820473701002e7 0.0
0.0 0.0 0.0

-1.755727762831884e7 2.5956061777030528e7 0.0
2.5956061777030528e7 8.618690222086567e6 0.0
0.0 0.0 0.0

3.0105765855825213e6 4.988479023063578e6 0.0
4.988479023063578e6 -8.604575502531227e6 0.0
0.0 0.0 0.0

378789.89226370445 1.339313181799582e7 0.0
1.339313181799582e7 -9.64072354539739e6 0.0
0.0 0.0 0.0

5.516378007279411e6 4.66421557365012e6 0.0
4.66421557365012e6 -2.853675937150132e7 0.0
0.0 0.0 0.0

-1.1847225761735474e6 1.7145613286134742e7 0.0
1.7145613286134742e7 -5.442928360164871e6 0.0
0.0 0.0 0.0

-6.1601466477216855e6 8.622523096186355e6 0.0
8.622523096186355e6 5.324102372848144e6 0.0
0.0 0.0 0.0

-3.4455033797677886e6 1.2899677769455193e7 0.0
1.2899677769455193e7 -1.758628680195166e7 0.0
0.0 0.0 0.0

1.4480345918749683e7 1.524819626111242e7 0.0
1.524819626111242e7 3.2279833226548163e6 0.0
0.0 0.0 0.0

-4.6451207504277695e6 2.9378990322383433e6 0.0
2.9378990322383433e6 6.372195271804169e6 0.0
0.0 0.0 0.0

1.30256351470502e6 1.6242828122918658e7 0.0
1.6242828122918658e7 8.657985467870362e6 0.0
0.0 0.0 0.0

1.365450892587028e6 1.3214123410726886e7 0.0
1.3214123410726886e7 1.3152078346212417e7 0.0
0.0 0.0 0.0

-4.0110025006375723e6 1.2285405080450285e7 0.0
1.2285405080450285e7 -7.737779180165536e6 0.0
0.0 0.0 0.0

-2.8589723206070913e6 2.2924370545105103e7 0.0
2.2924370545105103e7 -795522.5486979567 0.0
0.0 0.0 0.0

-2.675430700270199e6 1.6756595377393369e7 0.0
1.6756595377393369e7 -3.809139061413496e6 0.0
0.0 0.0 0.0

-7.709479590118577e6 1.2809373228989424e7 0.0
1.2809373228989424e7 1.1538881480827494e7 0.0
0.0 0.0 0.0

3.3397429957577735e6 7.902684021008632e6 0.0
7.902684021008632e6 -3.7243818444513924e7 0.0
0.0 0.0 0.0

-5.29949092359147e6 2.2451429454827188e6 0.0
2.2451429454827188e6 5.421642851702652e6 0.0
0.0 0.0 0.0

-447178.74223934335 1.4279551957768807e7 0.0
1.4279551957768807e7 -4.567743058952014e6 0.0
0.0 0.0 0.0

2.207594710183957e6 1.4982617990075218e7 0.0
1.4982617990075218e7 6.07804512903413e6 0.0
0.0 0.0 0.0

-4.682253165257582e6 9.80867305017943e6 0.0
9.80867305017943e6 6.509839643171303e6 0.0
0.0 0.0 0.0

-5.7723466534882e6 1.6038462715697892e7 0.0
1.6038462715697892e7 9.719272251613338e6 0.0
0.0 0.0 0.0

-4.796830629502377e6 1.915847210534309e7 0.0
1.915847210534309e7 5.094146951422468e6 0.0
0.0 0.0 0.0

-1.6710143224471018e7 2.6312391432055593e7 0.0
2.6312391432055593e7 9.189347478822006e6 0.0
0.0 0.0 0.0

1.334968694635432e6 6.904234877266626e6 0.0
6.904234877266626e6 -5.553964197912868e6 0.0
0.0 0.0 0.0

-5.25006699407989e6 1.89326818584991e7 0.0
1.89326818584991e7 4.755308798261846e6 0.0
0.0 0.0 0.0

-2.1493477437336184e6 1.6163738671490772e7 0.0
1.6163738671490772e7 -4.0070945741448244e6 0.0
0.0 0.0 0.0

4.368999340823819e6 1.6302859627217054e7 0.0
1.6302859627217054e7 9.114629771229608e6 0.0
0.0 0.0 0.0

-3.083357463997517e6 1.8005910401169807e7 0.0
1.8005910401169807e7 -2.2837497782987347e6 0.0
0.0 0.0 0.0

2.421335623917951e6 4.995668293441646e6 0.0
4.995668293441646e6 -7.474182843895365e6 0.0
0.0 0.0 0.0

-788974.6295915588 1.4385620206153834e7 0.0
1.4385620206153834e7 -8.548142504030079e6 0.0
0.0 0.0 0.0

-8.794872810875366e6 -132980.4939546341 0.0
-132980.4939546341 1.2994936729214203e7 0.0
0.0 0.0 0.0

4.72381703041899e6 6.011343204933033e6 0.0
6.011343204933033e6 -1.573753991534977e7 0.0
0.0 0.0 0.0

5.439735692974424e6 5.204797999643868e6 0.0
5.204797999643868e6 -3.0659204931135893e7 0.0
0.0 0.0 0.0

-1.8077504636455425e6 1.5233519929196881e7 0.0
1.5233519929196881e7 8.839694164420767e6 0.0
0.0 0.0 0.0

221137.61640631082 1.4203038181301761e7 0.0
1.4203038181301761e7 -1.0762337238230972e7 0.0
0.0 0.0 0.0

-8.062116810748156e6 1.306299655593351e7 0.0
1.306299655593351e7 1.0015223033566184e7 0.0
0.0 0.0 0.0

4.868351888385189e6 4.202826810428908e6 0.0
4.202826810428908e6 -1.4356311344716776e7 0.0
0.0 0.0 0.0

1.5443960287530143e6 1.2032733540199896e7 0.0
1.2032733540199896e7 -1.2414649532095402e7 0.0
0.0 0.0 0.0

379750.2581354482 1.3224255649949975e7 0.0
1.3224255649949975e7 -1.2716922618811332e7 0.0
0.0 0.0 0.0

-7.7374721362715345e6 1.3982578162338775e7 0.0
1.3982578162338775e7 9.760874162831884e6 0.0
0.0 0.0 0.0

-4.703338916988804e6 4.19697804516527e6 0.0
4.19697804516527e6 4.345070889307748e6 0.0
0.0 0.0 0.0

-7.670730828137485e6 -2.7997508875456955e6 0.0
-2.7997508875456955e6 1.2569958379541717e7 0.0
0.0 0.0 0.0

-5503.719557669479 1.3872713684472473e7 0.0
1.3872713684472473e7 -1.1120220001828447e7 0.0
0.0 0.0 0.0

-5.05538451999183e6 7.849963681927737e6 0.0
7.849963681927737e6 5.486939002995754e6 0.0
0.0 0.0 0.0

3.8954914352936796e6 1.5620551824782694e7 0.0
1.5620551824782694e7 9.005652672275031e6 0.0
0.0 0.0 0.0

-1.9846005991192977e6 1.6404851434271822e7 0.0
1.6404851434271822e7 -5.809052856802232e6 0.0
0.0 0.0 0.0

2.515796604307631e6 5.004328428624533e6 0.0
5.004328428624533e6 -6.993251529148626e6 0.0
0.0 0.0 0.0

-1.112676399837251e7 1.692221166932644e6 0.0
1.692221166932644e6 2.5518693417614453e7 0.0
0.0 0.0 0.0

-4.318279942778169e6 2.0122668780520234e7 0.0
2.0122668780520234e7 2.6635452062754203e6 0.0
0.0 0.0 0.0

-7.712417382024337e6 2.139634099131376e7 0.0
2.139634099131376e7 6.64621928676401e6 0.0
0.0 0.0 0.0

-6.539398418209171e6 3.2668306281796517e6 0.0
3.2668306281796517e6 6.299931867662432e6 0.0
0.0 0.0 0.0

-9.801276304791842e6 -2.8916275870512957e6 0.0
-2.8916275870512957e6 1.8874003731695123e7 0.0
0.0 0.0 0.0

1.9918815126747964e6 1.098234120853938e7 0.0
1.098234120853938e7 -1.74351721127533e7 0.0
0.0 0.0 0.0

-6.965946481691684e6 1.4443851535612255e7 0.0
1.4443851535612255e7 1.052467358416563e7 0.0
0.0 0.0 0.0

-1.169433499092498e7 2.9456330451614875e6 0.0
2.9456330451614875e6 2.5919353931716155e7 0.0
0.0 0.0 0.0

-4.289685167908136e7 1.280342549911017e7 0.0
1.280342549911017e7 1.0380775954790168e7 0.0
0.0 0.0 0.0

1.563861671148433e6 1.039231485335622e7 0.0
1.039231485335622e7 -1.117163752580427e7 0.0
0.0 0.0 0.0

118175.0697786824 1.3801519967343472e7 0.0
1.3801519967343472e7 -758622.3546787017 0.0
0.0 0.0 0.0

5.692566594736408e6 3.6791811295982543e6 0.0
3.6791811295982543e6 -1.995299912787153e7 0.0
0.0 0.0 0.0

-4.247757490947623e6 1.542475286975221e7 0.0
1.542475286975221e7 1.2146940934632812e7 0.0
0.0 0.0 0.0

-1.2460306140519083e7 2.9038870143889026e6 0.0
2.9038870143889026e6 2.336131730632218e7 0.0
0.0 0.0 0.0

1.5283810547041325e6 6.260384330564888e6 0.0
6.260384330564888e6 -6.697457200362916e6 0.0
0.0 0.0 0.0

-2.0598192724167411e6 1.6216459598215774e7 0.0
1.6216459598215774e7 -3.9496596272907476e6 0.0
0.0 0.0 0.0

-4.458579964285126e6 1.8116133561445203e7 0.0
1.8116133561445203e7 1.6319742961585673e6 0.0
0.0 0.0 0.0

-5.779066655812306e6 1.6155112287283974e7 0.0
1.6155112287283974e7 7.130622160322017e6 0.0
0.0 0.0 0.0

-6.078162550006893e6 2.0995512739186194e7 0.0
2.0995512739186194e7 5.978643823642381e6 0.0
0.0 0.0 0.0

-4.247252464456121e6 1.4896616922849696e7 0.0
1.4896616922849696e7 557301.949292843 0.0
0.0 0.0 0.0

-1.07363135515981e7 -3.7654891595719475e6 0.0
-3.7654891595719475e6 2.8796648819059268e7 0.0
0.0 0.0 0.0

-362008.8540821355 1.5036586403919335e7 0.0
1.5036586403919335e7 8.90082353163277e6 0.0
0.0 0.0 0.0

692794.9498509564 1.323453782975628e7 0.0
1.323453782975628e7 -1.0620563621740883e7 0.0
0.0 0.0 0.0

-1.0915151618064959e7 1.990242535029878e7 0.0
1.990242535029878e7 3.8531471201795647e6 0.0
0.0 0.0 0.0

-1.4337259491820047e6 2.287200547997802e6 0.0
2.287200547997802e6 15255.40997694264 0.0
0.0 0.0 0.0

-4.0131042123937896e6 2.1410656811227888e7 0.0
2.1410656811227888e7 3.611849829882324e6 0.0
0.0 0.0 0.0

-63320.76107396907 1.3483678794230366e7 0.0
1.3483678794230366e7 -1.7046474712861665e6 0.0
0.0 0.0 0.0

-1.1949239404843278e7 1.210674349836915e7 0.0
1.210674349836915e7 1.653936627657583e7 0.0
0.0 0.0 0.0

3.1290869442853555e6 9.431582507499283e6 0.0
9.431582507499283e6 -1.4396033467989229e7 0.0
0.0 0.0 0.0

-1.1089849554841857e7 1.0758481934619883e7 0.0
1.0758481934619883e7 1.6085538623878757e7 0.0
0.0 0.0 0.0

2.2299369309147946e6 5.053926607947078e6 0.0
5.053926607947078e6 -6.704005661441369e6 0.0
0.0 0.0 0.0

4.392960208188056e6 6.771292846781647e6 0.0
6.771292846781647e6 -1.5656968283681836e7 0.0
0.0 0.0 0.0

-632596.3579065304 1.5650946685553065e7 0.0
1.5650946685553065e7 -4.3158028890135065e6 0.0
0.0 0.0 0.0

-4.346979330717569e6 1.6004544011224307e7 0.0
1.6004544011224307e7 2.2379926974837673e6 0.0
0.0 0.0 0.0

-4.1521939552561557e6 1.827678264613249e7 0.0
1.827678264613249e7 2.5815530556601128e6 0.0
0.0 0.0 0.0

-628652.6065547401 1.6699160781279143e7 0.0
1.6699160781279143e7 -5.785858891754266e6 0.0
0.0 0.0 0.0

4.666490771748018e6 5.641975002409477e6 0.0
5.641975002409477e6 -1.4497986942767298e7 0.0
0.0 0.0 0.0

1.7975665412146081e6 4.978764442502188e6 0.0
4.978764442502188e6 -5.727690076155087e6 0.0
0.0 0.0 0.0

4.0928223688062206e6 6.405099844809296e6 0.0
6.405099844809296e6 -1.651306298153236e7 0.0
0.0 0.0 0.0

2.0788887591764457e6 6.232516907661151e6 0.0
6.232516907661151e6 -6.948947117746069e6 0.0
0.0 0.0 0.0

7.69561256960907e6 1.5416227968317768e7 0.0
1.5416227968317768e7 7.174754229674653e6 0.0
0.0 0.0 0.0

-4.927895731357118e6 2.3293647982570596e7 0.0
2.3293647982570596e7 4.6866397896377565e6 0.0
0.0 0.0 0.0

-9.20209874076504e6 -6.079434780928054e6 0.0
-6.079434780928054e6 2.1496679668962203e7 0.0
0.0 0.0 0.0

4.356143134010933e6 7.424655433712378e6 0.0
7.424655433712378e6 -2.5145223709673125e7 0.0
0.0 0.0 0.0

-923901.5509267361 1.712724556592289e7 0.0
1.712724556592289e7 -5.416160252243903e6 0.0
0.0 0.0 0.0

-757429.3613114519 1.5385635698894203e7 0.0
1.5385635698894203e7 -5.298814338949332e6 0.0
0.0 0.0 0.0

4.1692422515746225e6 6.969323668311736e6 0.0
6.969323668311736e6 -1.9994850992071904e7 0.0
0.0 0.0 0.0

-7.0456248388396185e6 2.3406464956792604e7 0.0
2.3406464956792604e7 6.7908671823973805e6 0.0
0.0 0.0 0.0

-355418.5452781273 1.6534669932985712e7 0.0
1.6534669932985712e7 1.0161977008587787e7 0.0
0.0 0.0 0.0

-3.0030420971492626e7 2.2993241414156623e7 0.0
2.2993241414156623e7 1.1014239992063744e7 0.0
0.0 0.0 0.0

-5.7486099780241735e6 1.5065047353574524e7 0.0
1.5065047353574524e7 1.2188464962917592e7 0.0
0.0 0.0 0.0

3.178166688814695e6 8.804250087185478e6 0.0
8.804250087185478e6 -1.468950393876285e7 0.0
0.0 0.0 0.0

3.77957382729837e7 1.5603531810115026e7 0.0
1.5603531810115026e7 3.011315226802189e6 0.0
0.0 0.0 0.0

-2.0598161203561919e6 1.5922933376678579e7 0.0
1.5922933376678579e7 1.245460280352144e7 0.0
0.0 0.0 0.0

-9.673303921360094e6 164176.9057885092 0.0
164176.9057885092 1.4136927071299046e7 0.0
0.0 0.0 0.0

-319382.84323710133 1.405525751330061e7 0.0
1.405525751330061e7 3.7729000134346136e6 0.0
0.0 0.0 0.0

-104731.97422870155 1.258876031924422e7 0.0
1.258876031924422e7 -1.4930465522676494e7 0.0
0.0 0.0 0.0

2.3871051985385125e6 1.6986593733310398e7 0.0
1.6986593733310398e7 -5.11095875388605e6 0.0
0.0 0.0 0.0

-5.6217070129048675e6 1.6301244382916229e7 0.0
1.6301244382916229e7 5.91347182675698e6 0.0
0.0 0.0 0.0

-1.203031085551959e7 1.3609465661571166e6 0.0
1.3609465661571166e6 2.2660746387967993e7 0.0
0.0 0.0 0.0

-6.863646244238049e6 2.372871693428848e7 0.0
2.372871693428848e7 5.831256237016203e6 0.0
0.0 0.0 0.0

-5.263827989122108e6 1.6679247398620766e7 0.0
1.6679247398620766e7 3.3914922629316924e6 0.0
0.0 0.0 0.0

-4.65006132843706e6 1.797920634876843e7 0.0
1.797920634876843e7 2.0932957439216601e6 0.0
0.0 0.0 0.0

-2.439002572827627e6 2.0007974819459233e7 0.0
2.0007974819459233e7 -1.0291332405709627e6 0.0
0.0 0.0 0.0

-4.318271150030094e6 1.9762393266323976e7 0.0
1.9762393266323976e7 2.4961207456257585e6 0.0
0.0 0.0 0.0

-162242.2863363245 1.403377153405416e7 0.0
1.403377153405416e7 -730486.1974059197 0.0
0.0 0.0 0.0

-3.1993869322169833e6 1.5487256358966298e7 0.0
1.5487256358966298e7 9.831658971873417e6 0.0
0.0 0.0 0.0

1.295485956580238e6 1.3630882835531995e7 0.0
1.3630882835531995e7 -1.6349354472895302e6 0.0
0.0 0.0 0.0

-2.819779489527053e6 1.3549917641574124e7 0.0
1.3549917641574124e7 -2.165137277030885e7 0.0
0.0 0.0 0.0

-219846.17982141077 1.4141047875128508e7 0.0
1.4141047875128508e7 392412.25842608453 0.0
0.0 0.0 0.0

-4.506152189607193e6 1.5819294810252447e7 0.0
1.5819294810252447e7 1.216334946947665e6 0.0
0.0 0.0 0.0

-2.7785093789809626e6 1.1402675264367525e7 0.0
1.1402675264367525e7 1.2676591186520066e7 0.0
0.0 0.0 0.0

-809827.8827239973 1.5263386973255124e7 0.0
1.5263386973255124e7 -7.565965541154231e6 0.0
0.0 0.0 0.0

1.2586162213329067e6 1.181832212437176e7 0.0
1.181832212437176e7 -1.315310815715604e7 0.0
0.0 0.0 0.0

4.806593955422104e6 5.304242550418498e6 0.0
5.304242550418498e6 -1.4967764230860792e7 0.0
0.0 0.0 0.0

-2.3219851616330734e6 1.588790590367777e7 0.0
1.588790590367777e7 1.1581738115796365e7 0.0
0.0 0.0 0.0

-2.799343115143664e6 1.5351886304764075e7 0.0
1.5351886304764075e7 6.912325057118926e6 0.0
0.0 0.0 0.0

-1.1405016835862186e7 1.1246978092771718e7 0.0
1.1246978092771718e7 1.6125983301261377e7 0.0
0.0 0.0 0.0

-5.584840472147364e6 1.5915452890791135e7 0.0
1.5915452890791135e7 6.557345519682657e6 0.0
0.0 0.0 0.0

-1.3966739233282688e6 1.5755375581672909e7 0.0
1.5755375581672909e7 -4.48162424988382e6 0.0
0.0 0.0 0.0

-1.1681940907360002e7 1.1427671954123504e7 0.0
1.1427671954123504e7 1.4666586642995251e7 0.0
0.0 0.0 0.0

-1.2405632468571909e7 1.1273613676208753e7 0.0
1.1273613676208753e7 1.6722136436074864e7 0.0
0.0 0.0 0.0

-1.1096460394072179e7 9.546374126098657e6 0.0
9.546374126098657e6 1.3443606564782962e7 0.0
0.0 0.0 0.0

-7.385326497308812e6 -4.046160065057433e6 0.0
-4.046160065057433e6 1.1112639648190103e7 0.0
0.0 0.0 0.0

-5.429087243272483e6 1.747415058253305e7 0.0
1.747415058253305e7 7.301126419946989e6 0.0
0.0 0.0 0.0

-105523.80374931172 1.2355947393328803e7 0.0
1.2355947393328803e7 -2.0246416549000304e7 0.0
0.0 0.0 0.0

1.1535373251281278e6 1.194711945550178e7 0.0
1.194711945550178e7 -1.5916361227005914e7 0.0
0.0 0.0 0.0

-1.7740451214096077e7 2.1795406900676847e7 0.0
2.1795406900676847e7 1.903725007566535e6 0.0
0.0 0.0 0.0

-1.1011763349939138e7 836218.0096152207 0.0
836218.0096152207 2.9615911390558526e7 0.0
0.0 0.0 0.0

1.4757382333741179e6 1.226704292028086e7 0.0
1.226704292028086e7 -1.5017092977903603e7 0.0
0.0 0.0 0.0

-3.887457890905781e6 2.006276120087041e7 0.0
2.006276120087041e7 1.344109916499723e6 0.0
0.0 0.0 0.0

-2554.2270566029474 1.436429847843903e7 0.0
1.436429847843903e7 6.690918599853742e6 0.0
0.0 0.0 0.0

-2.775223565676045e6 -4.109314643925234e6 0.0
-4.109314643925234e6 7.739704449117903e6 0.0
0.0 0.0 0.0

-430244.38546210306 1.3834415253727932e7 0.0
1.3834415253727932e7 -1.8726034265015062e6 0.0
0.0 0.0 0.0

-1.7970204085521009e6 1.4862271983032085e7 0.0
1.4862271983032085e7 -5.375073686467541e6 0.0
0.0 0.0 0.0

-8.111619069663165e6 4.875182951447866e6 0.0
4.875182951447866e6 8.478246470193783e6 0.0
0.0 0.0 0.0

5.858262422233557e6 3.296332946361908e6 0.0
3.296332946361908e6 -2.426919510649828e7 0.0
0.0 0.0 0.0

564483.5702287527 8.444809132614087e6 0.0
8.444809132614087e6 -6.744817784483213e6 0.0
0.0 0.0 0.0

-1.1357408501463573e7 -1.9189254227787978e6 0.0
-1.9189254227787978e6 1.687541350722227e7 0.0
0.0 0.0 0.0

-1.0212450604225828e6 1.5551278318346467e7 0.0
1.5551278318346467e7 -7.854828690048473e6 0.0
0.0 0.0 0.0

1.4381952756853886e6 1.4717210814869395e7 0.0
1.4717210814869395e7 1.1564058787421644e7 0.0
0.0 0.0 0.0

529542.7831388141 8.129817479494969e6 0.0
8.129817479494969e6 -4.620585876444614e6 0.0
0.0 0.0 0.0

-275465.85659347754 1.6080289311374858e7 0.0
1.6080289311374858e7 1.0878548947572727e7 0.0
0.0 0.0 0.0

-5.469337912050726e6 2.3791495782423697e7 0.0
2.3791495782423697e7 4.9126170660053715e6 0.0
0.0 0.0 0.0

-1.0191770017432492e7 436788.20328792057 0.0
436788.20328792057 1.2112201202094745e7 0.0
0.0 0.0 0.0

-2.7642513939275616e6 1.5402008250376973e7 0.0
1.5402008250376973e7 9.772637251898324e6 0.0
0.0 0.0 0.0

2.7272429991905065e6 9.032255561410872e6 0.0
9.032255561410872e6 -1.5044141676520541e7 0.0
0.0 0.0 0.0

-1.2290040948250953e7 1.8574608565502778e7 0.0
1.8574608565502778e7 4.872291973635619e6 0.0
0.0 0.0 0.0

-3.5951593527893536e6 989621.8763578857 0.0
989621.8763578857 3.02471458931535e6 0.0
0.0 0.0 0.0

-4.369061111114596e6 1.6856902482230697e7 0.0
1.6856902482230697e7 -3.1462822148422375e6 0.0
0.0 0.0 0.0

1.4680911825314172e7 1.6007778451899603e7 0.0
1.6007778451899603e7 3.5539107146357344e6 0.0
0.0 0.0 0.0

-2.512496138891624e6 1.6287217668435205e7 0.0
1.6287217668435205e7 -3.763537096387489e6 0.0
0.0 0.0 0.0

3.0559999881389933e6 9.163439260769485e6 0.0
9.163439260769485e6 -1.3992824773294179e7 0.0
0.0 0.0 0.0

-5.4984398664698e6 1.7543440242429256e7 0.0
1.7543440242429256e7 8.011036728716517e6 0.0
0.0 0.0 0.0

-1.0627746357115079e7 -2.4564155423815264e6 0.0
-2.4564155423815264e6 3.379543051971718e7 0.0
0.0 0.0 0.0

-2.529941318207475e6 1.5528060798464315e7 0.0
1.5528060798464315e7 -6.298917546635936e6 0.0
0.0 0.0 0.0

-4.103775886083523e6 2.1762218857651908e7 0.0
2.1762218857651908e7 3.783696175654676e6 0.0
0.0 0.0 0.0

1.0490682633079812e6 1.1433679358892096e7 0.0
1.1433679358892096e7 -1.997915836350348e7 0.0
0.0 0.0 0.0

600996.1551834117 1.3677557794959426e7 0.0
1.3677557794959426e7 -1.2067235910927625e7 0.0
0.0 0.0 0.0

789818.2464080872 1.3320312945926351e7 0.0
1.3320312945926351e7 -1.279654161200404e7 0.0
0.0 0.0 0.0

-1.2339754639696239e7 8.707898304521205e6 0.0
8.707898304521205e6 2.072063360770199e7 0.0
0.0 0.0 0.0

-5.7775610474713165e6 1.6670684701092577e7 0.0
1.6670684701092577e7 6.31950332814149e6 0.0
0.0 0.0 0.0

-9.253817630663037e6 9.162972465065263e6 0.0
9.162972465065263e6 6.467298133152994e7 0.0
0.0 0.0 0.0

6.056301770825934e6 1.019336144206121e7 0.0
1.019336144206121e7 -4.839006175654808e7 0.0
0.0 0.0 0.0

-9.539822916936614e6 2.0583977266624093e7 0.0
2.0583977266624093e7 -613362.6129687 0.0
0.0 0.0 0.0

-3.5574815990004363e6 1.4843648199388688e7 0.0
1.4843648199388688e7 7.472630870195603e6 0.0
0.0 0.0 0.0

-1.2172201253988026e7 1.9002955489463594e7 0.0
1.9002955489463594e7 1.2907507680320204e6 0.0
0.0 0.0 0.0

-4.473997493479711e6 664189.1382908797 0.0
664189.1382908797 6.471812435077656e6 0.0
0.0 0.0 0.0

-9.826970836978257e6 1.2386278764647096e7 0.0
1.2386278764647096e7 1.2730242131128442e7 0.0
0.0 0.0 0.0

-5.044007892742545e6 1.745669165190358e7 0.0
1.745669165190358e7 -2.401476000821614e6 0.0
0.0 0.0 0.0

-1.054016965563694e7 -727845.170964777 0.0
-727845.170964777 1.9104093052876934e7 0.0
0.0 0.0 0.0

1.4468639657666665e7 1.4881959379858784e7 0.0
1.4881959379858784e7 3.4157298048509024e6 0.0
0.0 0.0 0.0

-3.13843118010493e6 1.55684016315197e7 0.0
1.55684016315197e7 1.1701427177565217e7 0.0
0.0 0.0 0.0

-6.8395659451519335e6 1.4306392255035864e7 0.0
1.4306392255035864e7 1.0258062757357096e7 0.0
0.0 0.0 0.0

-2.0580537313526884e7 2.358870659765085e7 0.0
2.358870659765085e7 1.2029744014104102e7 0.0
0.0 0.0 0.0

1.4341114408471421e6 1.4296058675459402e7 0.0
1.4296058675459402e7 1.9330180395084566e6 0.0
0.0 0.0 0.0

1.896725993677847e6 1.3235926575334717e7 0.0
1.3235926575334717e7 -2.755811023267239e6 0.0
0.0 0.0 0.0

-5.364782292779302e6 1.842779248108724e7 0.0
1.842779248108724e7 7.36083172817331e6 0.0
0.0 0.0 0.0

-3.561338560919709e6 1.6229826573252235e7 0.0
1.6229826573252235e7 -319307.0484059681 0.0
0.0 0.0 0.0

-173659.5360145995 1.2000660515916143e7 0.0
1.2000660515916143e7 -2.6926432831952e6 0.0
0.0 0.0 0.0

1.8436577937760565e6 1.3963555902315715e7 0.0
1.3963555902315715e7 -4.207606426727896e6 0.0
0.0 0.0 0.0

-1.6363335816968554e6 1.4818816051549327e7 0.0
1.4818816051549327e7 8.811963335377319e6 0.0
0.0 0.0 0.0

-2.185548673717202e6 2.213294063324473e7 0.0
2.213294063324473e7 235954.7577985205 0.0
0.0 0.0 0.0

-5.655136122698603e6 1.7272016108303193e7 0.0
1.7272016108303193e7 7.760296152832167e6 0.0
0.0 0.0 0.0

-6.3047205752143115e6 2.3500761599143744e7 0.0
2.3500761599143744e7 4.458102911086404e6 0.0
0.0 0.0 0.0

-1.8775816664022226e6 1.3265695901926797e7 0.0
1.3265695901926797e7 -2.383262747325991e7 0.0
0.0 0.0 0.0

-6.31829794717285e6 1.6056835898149977e7 0.0
1.6056835898149977e7 -4.2704122764312536e7 0.0
0.0 0.0 0.0

6.171472219139079e6 1.5829774382674761e7 0.0
1.5829774382674761e7 5.476324088883016e7 0.0
0.0 0.0 0.0

1.681100678649914e6 1.496090047201242e7 0.0
1.496090047201242e7 1.1327912610096646e7 0.0
0.0 0.0 0.0

3.3320719217311796e6 8.518753708922759e6 0.0
8.518753708922759e6 -2.2665116614222273e7 0.0
0.0 0.0 0.0

-3.194760115300075e6 2.195662153845324e7 0.0
2.195662153845324e7 5907.002873223042 0.0
0.0 0.0 0.0

-1.4769437147682044e6 1.6310205031630978e7 0.0
1.6310205031630978e7 -5.665789369080077e6 0.0
0.0 0.0 0.0

-485468.80459523597 1.4526979768702615e7 0.0
1.4526979768702615e7 -4.110979033537066e6 0.0
0.0 0.0 0.0

-720583.1891641219 1.574938759477038e7 0.0
1.574938759477038e7 -7.544288997571488e6 0.0
0.0 0.0 0.0

-2.5124306509828746e7 2.411961208075413e7 0.0
2.411961208075413e7 1.2877840854930636e7 0.0
0.0 0.0 0.0

-4.545135072175123e6 2.1540472243394077e7 0.0
2.1540472243394077e7 3.425400436816151e6 0.0
0.0 0.0 0.0

-6.113880388809128e6 1.872638833520136e7 0.0
1.872638833520136e7 6.7595590907218205e6 0.0
0.0 0.0 0.0

5.567234598398859e6 4.233481028072697e6 0.0
4.233481028072697e6 -2.5923372914137952e7 0.0
0.0 0.0 0.0

2.355116804261225e6 1.7516844613181718e7 0.0
1.7516844613181718e7 -5.32321502654462e6 0.0
0.0 0.0 0.0

920078.225416664 1.1774321123352554e7 0.0
1.1774321123352554e7 -1.9088786063530363e7 0.0
0.0 0.0 0.0

1.4437484732290823e6 1.7922269843423124e7 0.0
1.7922269843423124e7 -4.948014740792745e6 0.0
0.0 0.0 0.0

97913.9340383443 1.145425214445388e7 0.0
1.145425214445388e7 -1.9480556829952106e6 0.0
0.0 0.0 0.0

-2.3908857028981196e6 1.5852489863458384e7 0.0
1.5852489863458384e7 1.0321188736227807e7 0.0
0.0 0.0 0.0

-5.451951557147138e6 2.0005405430817544e7 0.0
2.0005405430817544e7 5.78824206818191e6 0.0
0.0 0.0 0.0

-8.396294621393971e6 -5.786043491721054e6 0.0
-5.786043491721054e6 1.5774657912470356e7 0.0
0.0 0.0 0.0

7.1004727836917965e6 1.3998282075676227e7 0.0
1.3998282075676227e7 -2.0391790249641151e6 0.0
0.0 0.0 0.0

-4.70481300603757e7 1.7774410204193175e7 0.0
1.7774410204193175e7 9.151155280406138e6 0.0
0.0 0.0 0.0

-1.2884541533607483e7 8.796661110807007e6 0.0
8.796661110807007e6 1.882150375129707e7 0.0
0.0 0.0 0.0

-4.775407430696042e6 1.6473102159118792e7 0.0
1.6473102159118792e7 3.4895293762899553e6 0.0
0.0 0.0 0.0

1.9404004230332929e6 1.4186804570719425e7 0.0
1.4186804570719425e7 -2.4755895494610732e6 0.0
0.0 0.0 0.0

5.402482842241531e6 4.529745409589066e6 0.0
4.529745409589066e6 -1.818580653753342e7 0.0
0.0 0.0 0.0

-3.5284756432237523e6 1.5121230926228076e7 0.0
1.5121230926228076e7 5.914731863563363e6 0.0
0.0 0.0 0.0

-1.035195227087517e7 -3.998685450268709e6 0.0
-3.998685450268709e6 2.930480404789488e7 0.0
0.0 0.0 0.0

-7.270764818785344e6 1.811608878880401e7 0.0
1.811608878880401e7 -4.8014323623791404e7 0.0
0.0 0.0 0.0

6.886190574181691e6 2.038038575507358e7 0.0
2.038038575507358e7 6.144379839241322e7 0.0
0.0 0.0 0.0

2.242946185936871e6 1.0585492152280955e7 0.0
1.0585492152280955e7 -1.8005810986849412e7 0.0
0.0 0.0 0.0

1.5208397077089956e6 5.01206622511929e6 0.0
5.01206622511929e6 -5.533340945497536e6 0.0
0.0 0.0 0.0

2.6224593269075947e6 1.4676152730147965e7 0.0
1.4676152730147965e7 5.72586561940111e6 0.0
0.0 0.0 0.0

-1.0987760964358473e7 -1.7082763290011853e6 0.0
-1.7082763290011853e6 3.387267855977583e7 0.0
0.0 0.0 0.0

1.2407961367659867e6 7.131648762645332e6 0.0
7.131648762645332e6 -6.063865930216425e6 0.0
0.0 0.0 0.0

-1.8246061392357578e6 2.1387597387986682e7 0.0
2.1387597387986682e7 -1.6616241950156628e6 0.0
0.0 0.0 0.0

-540674.9924273654 1.4060694271272717e7 0.0
1.4060694271272717e7 -9.190142236701516e6 0.0
0.0 0.0 0.0

759813.1942286773 1.4737309378127526e7 0.0
1.4737309378127526e7 8.32366424756212e6 0.0
0.0 0.0 0.0

-2.9566476000057086e6 1.6550249381204847e7 0.0
1.6550249381204847e7 111826.14668979426 0.0
0.0 0.0 0.0

-1.4397013460058134e7 1.79625963965e7 0.0
1.79625963965e7 -428123.6202466516 0.0
0.0 0.0 0.0

-4.647960220613712e6 2.1364913040906046e7 0.0
2.1364913040906046e7 3.7973075573280063e6 0.0
0.0 0.0 0.0

-711854.3158987781 1.4429262201296963e7 0.0
1.4429262201296963e7 5.0899261508418685e6 0.0
0.0 0.0 0.0

-3.496722349716926e6 1.5306634604411675e7 0.0
1.5306634604411675e7 8.75491483177015e6 0.0
0.0 0.0 0.0

1.2447429168686057e6 1.229280232346783e7 0.0
1.229280232346783e7 -1.2758597381842159e7 0.0
0.0 0.0 0.0

-756608.0193550338 1.5388137601306343e7 0.0
1.5388137601306343e7 -8.076755780837635e6 0.0
0.0 0.0 0.0

-1.1449800867634743e7 -502085.178174324 0.0
-502085.178174324 3.228527207391477e7 0.0
0.0 0.0 0.0

-2.214662343610062e7 2.565868055262499e7 0.0
2.565868055262499e7 9.854142690272953e6 0.0
0.0 0.0 0.0

-1.0385071387688935e7 2.243640020076076e7 0.0
2.243640020076076e7 7.927638177351576e6 0.0
0.0 0.0 0.0

-1.9193432974993512e7 1.8317109978677537e7 0.0
1.8317109978677537e7 7.761418377441751e6 0.0
0.0 0.0 0.0

-341232.82052585494 1.4418697380950613e7 0.0
1.4418697380950613e7 1.2957515690567961e6 0.0
0.0 0.0 0.0

-4.161872163583048e6 1.6903361210094225e7 0.0
1.6903361210094225e7 -459744.3040673331 0.0
0.0 0.0 0.0

-1.021997824602406e7 1.952488948684255e7 0.0
1.952488948684255e7 4.0555478470162125e6 0.0
0.0 0.0 0.0

1.8362060912245237e6 6.672503010815794e6 0.0
6.672503010815794e6 -6.1027004894230375e6 0.0
0.0 0.0 0.0

-107852.96562409634 1.518094486101e7 0.0
1.518094486101e7 9.02802458207819e6 0.0
0.0 0.0 0.0

4.127749879747864e6 7.937032598125566e6 0.0
7.937032598125566e6 -2.2065616371419296e7 0.0
0.0 0.0 0.0

-1.1946830524110442e7 9.77109199657999e6 0.0
9.77109199657999e6 1.9974976752305873e7 0.0
0.0 0.0 0.0

-1.0255675146599965e7 -2.158975058352019e6 0.0
-2.158975058352019e6 3.489825863578177e7 0.0
0.0 0.0 0.0

5.715042490592929e6 4.325306145869408e6 0.0
4.325306145869408e6 -2.5713515790711883e7 0.0
0.0 0.0 0.0

-2.2182783426992197e7 1.8947149840573303e7 0.0
1.8947149840573303e7 6.835250002836103e6 0.0
0.0 0.0 0.0

-1.0122515930647442e7 -5.17152565554693e6 0.0
-5.17152565554693e6 2.6097160476239093e7 0.0
0.0 0.0 0.0

-9.233265102213778e6 -6.149859000291602e6 0.0
-6.149859000291602e6 2.1304038827691406e7 0.0
0.0 0.0 0.0

1.4221648015386285e6 6.438509219253206e6 0.0
6.438509219253206e6 -7.23201253754326e6 0.0
0.0 0.0 0.0

-9.339571896479338e6 -4.402903824133363e6 0.0
-4.402903824133363e6 2.0533215092009895e7 0.0
0.0 0.0 0.0

-3.1973037699874304e6 2.734426010549823e7 0.0
2.734426010549823e7 -4.52625233149511e6 0.0
0.0 0.0 0.0

-6.529477201189073e6 1.5053732538937809e7 0.0
1.5053732538937809e7 9.910878409839176e6 0.0
0.0 0.0 0.0

5.134828417310229e6 5.030792134461325e6 0.0
5.030792134461325e6 -3.1001261318325892e7 0.0
0.0 0.0 0.0

5.046365846118713e6 4.868873929528123e6 0.0
4.868873929528123e6 -2.099782405468508e7 0.0
0.0 0.0 0.0

-5.894963259158096e6 1.6428291427754879e7 0.0
1.6428291427754879e7 5.7040431798212025e6 0.0
0.0 0.0 0.0

-5.99734647333955e6 2.3410868846189257e7 0.0
2.3410868846189257e7 5.597939686674083e6 0.0
0.0 0.0 0.0

992390.3880386117 8.752877481129082e6 0.0
8.752877481129082e6 2.769115647614506e6 0.0
0.0 0.0 0.0

1.7832261033524596e6 1.636537586065272e7 0.0
1.636537586065272e7 1.02073064432833e7 0.0
0.0 0.0 0.0

2.344534763846647e6 1.6954263856760006e7 0.0
1.6954263856760006e7 -4.9828482594183525e6 0.0
0.0 0.0 0.0

-1.0466031923884775e7 -4.93625706557181e6 0.0
-4.93625706557181e6 2.5515193424521662e7 0.0
0.0 0.0 0.0

-1.3703596472351931e7 1.563119614795484e7 0.0
1.563119614795484e7 7.993048148232719e6 0.0
0.0 0.0 0.0

-4.576030094189689e6 2.100556931666081e7 0.0
2.100556931666081e7 3.613100370569643e6 0.0
0.0 0.0 0.0

-3.651596214691546e6 1.471517666770832e7 0.0
1.471517666770832e7 2.638587430920391e7 0.0
0.0 0.0 0.0

3.0861462347398894e6 1.717768777746215e7 0.0
1.717768777746215e7 -4.76791145721809e6 0.0
0.0 0.0 0.0

-1.130882505705874e6 1.5944826633665537e7 0.0
1.5944826633665537e7 -4.198364900541537e6 0.0
0.0 0.0 0.0

-5.6765494478134485e6 1.5651751459475247e7 0.0
1.5651751459475247e7 1.0270557676445697e7 0.0
0.0 0.0 0.0

-1.2745526459594918e6 1.5285361004614746e7 0.0
1.5285361004614746e7 -4.774110476027427e6 0.0
0.0 0.0 0.0

-4.493710239125931e7 2.457366144732702e7 0.0
2.457366144732702e7 3.3692021598312333e6 0.0
0.0 0.0 0.0

-7.317514967384153e6 1.4758255592629457e7 0.0
1.4758255592629457e7 9.447162522005333e6 0.0
0.0 0.0 0.0

-1.186108231871038e6 1.6005725574394045e7 0.0
1.6005725574394045e7 -3.8404792056214698e6 0.0
0.0 0.0 0.0

-5.442342349949161e6 1.6113510507906271e7 0.0
1.6113510507906271e7 9.789531832961125e6 0.0
0.0 0.0 0.0

1.4125986236863174e6 1.6670994622723604e7 0.0
1.6670994622723604e7 -4.958984283941249e6 0.0
0.0 0.0 0.0

5.118821831198526e6 4.562956283155115e6 0.0
4.562956283155115e6 -1.7724464530191492e7 0.0
0.0 0.0 0.0

-581119.5037140455 1.6318005745402826e7 0.0
1.6318005745402826e7 -6.186390177022622e6 0.0
0.0 0.0 0.0

-2.2428735677745e7 2.5322237601789635e7 0.0
2.5322237601789635e7 9.213908236774432e6 0.0
0.0 0.0 0.0

-5.97713522108829e6 2.0747607794639982e7 0.0
2.0747607794639982e7 6.425386378100197e6 0.0
0.0 0.0 0.0

-7.664648818281729e6 -3.9734740122635323e6 0.0
-3.9734740122635323e6 1.1392134802267667e7 0.0
0.0 0.0 0.0

-235592.12838466885 1.415364523201931e7 0.0
1.415364523201931e7 -1.0577602620465953e7 0.0
0.0 0.0 0.0

5.631133367790887e6 1.4512391519068144e7 0.0
1.4512391519068144e7 -1.2340355510211966e6 0.0
0.0 0.0 0.0

-4.197506440387153e7 1.936640403373018e7 0.0
1.936640403373018e7 9.361031785472777e6 0.0
0.0 0.0 0.0

476618.7445277914 1.3721074103973417e7 0.0
1.3721074103973417e7 5.605956905136132e6 0.0
0.0 0.0 0.0

3.771726507929025e6 7.897448315732159e6 0.0
7.897448315732159e6 -2.3262371158705037e7 0.0
0.0 0.0 0.0

954809.074092702 1.2192504835400991e7 0.0
1.2192504835400991e7 -1.2647074708826138e7 0.0
0.0 0.0 0.0

-3.2223401388557125e6 1.5364907781769307e7 0.0
1.5364907781769307e7 7.075802569195719e6 0.0
0.0 0.0 0.0

-7.408199899493355e6 2.353962666237761e7 0.0
2.353962666237761e7 5.537528197747683e6 0.0
0.0 0.0 0.0

-2.682487800498926e6 1.827347258747657e7 0.0
1.827347258747657e7 -1.8137166574818233e6 0.0
0.0 0.0 0.0

5.453365367386536e6 4.27146005445874e6 0.0
4.27146005445874e6 -2.0547195752174255e7 0.0
0.0 0.0 0.0

-603659.3250850802 1.4894437217106199e7 0.0
1.4894437217106199e7 1.9785081244714126e7 0.0
0.0 0.0 0.0

-331061.41537686414 1.1142673263453778e7 0.0
1.1142673263453778e7 -2.0610976270825882e6 0.0
0.0 0.0 0.0

-3.200447468699515e7 2.1873585985571742e7 0.0
2.1873585985571742e7 1.2709487819620593e7 0.0
0.0 0.0 0.0

-1.0059227429713037e7 -3.9983841093883757e6 0.0
-3.9983841093883757e6 1.686798157921049e7 0.0
0.0 0.0 0.0

-9.29233625974099e6 -4.04371804537868e6 0.0
-4.04371804537868e6 1.948070947300883e7 0.0
0.0 0.0 0.0

5.175496179644478e6 1.4287692658353997e7 0.0
1.4287692658353997e7 1.37779257991955e6 0.0
0.0 0.0 0.0

-9.921221948671667e6 -5.14367247077103e6 0.0
-5.14367247077103e6 2.5542386327122383e7 0.0
0.0 0.0 0.0

448249.258452808 1.3862578212746948e7 0.0
1.3862578212746948e7 5.5280011985306265e6 0.0
0.0 0.0 0.0

2.3216650452111866e6 1.5007322813726978e7 0.0
1.5007322813726978e7 1.1949185123419605e7 0.0
0.0 0.0 0.0

-3.554251031893749e6 2.191146438639258e7 0.0
2.191146438639258e7 1.4909675677885066e6 0.0
0.0 0.0 0.0

-1.1567081650159776e7 2.7622551045223456e6 0.0
2.7622551045223456e6 3.560846132552685e7 0.0
0.0 0.0 0.0

628408.4617783986 1.1855906111558875e7 0.0
1.1855906111558875e7 -1.9159388717827894e7 0.0
0.0 0.0 0.0

1.0447556976473625e6 6.944139775669318e6 0.0
6.944139775669318e6 -6.526810710071354e6 0.0
0.0 0.0 0.0

-3.0579873731651553e6 1.5127168995847827e7 0.0
1.5127168995847827e7 5.689702399083297e6 0.0
0.0 0.0 0.0

-215781.218148781 1.5547634978841245e7 0.0
1.5547634978841245e7 1.2531615880966276e7 0.0
0.0 0.0 0.0

-1.1003662011216454e7 -3.7083589068627995e6 0.0
-3.7083589068627995e6 2.4481373421564084e7 0.0
0.0 0.0 0.0

-9.045975001026856e6 4.862727584788817e6 0.0
4.862727584788817e6 8.164319278279604e6 0.0
0.0 0.0 0.0

-4.297938684213334e6 1.5468135217717683e7 0.0
1.5468135217717683e7 1.2950206552941161e6 0.0
0.0 0.0 0.0

-2.9840840021520853e6 7.2133472702568425e6 0.0
7.2133472702568425e6 1.1602212481674196e7 0.0
0.0 0.0 0.0

1.8217580396102804e6 1.3581032387889069e7 0.0
1.3581032387889069e7 -3.439829183784701e6 0.0
0.0 0.0 0.0

-1.0000473547105368e7 -4.629710046651668e6 0.0
-4.629710046651668e6 1.8344918978785165e7 0.0
0.0 0.0 0.0

-1.0834419818026818e7 2.809073395670135e6 0.0
2.809073395670135e6 3.830653615641012e7 0.0
0.0 0.0 0.0

1.6292849655716924e6 1.39481027629319e7 0.0
1.39481027629319e7 -2.804410356093984e6 0.0
0.0 0.0 0.0

-227353.74365542224 1.4397758765682891e7 0.0
1.4397758765682891e7 -8.787623330350008e6 0.0
0.0 0.0 0.0

-1.0892869428082382e7 2.683663989052962e6 0.0
2.683663989052962e6 3.796907903838268e7 0.0
0.0 0.0 0.0

1.9510576051888955e6 1.6522707784174535e7 0.0
1.6522707784174535e7 -5.137700926497327e6 0.0
0.0 0.0 0.0

-400905.8786413693 1.4624257304179372e7 0.0
1.4624257304179372e7 8.597672176940104e6 0.0
0.0 0.0 0.0

-5.705013150976153e6 8.096153693433685e6 0.0
8.096153693433685e6 5.268457043744473e6 0.0
0.0 0.0 0.0

-6.365024364768136e6 4.676754280090709e6 0.0
4.676754280090709e6 8.72088954214717e6 0.0
0.0 0.0 0.0

-8.965568508598767e6 3.0314783048496223e6 0.0
3.0314783048496223e6 4.572094467372568e6 0.0
0.0 0.0 0.0

