# vtk DataFile Version 2.0
phase field modeling fracture
ASCII
DATASET UNSTRUCTURED_GRID
POINTS 2538 float
0.0 0.0 0.0
10.0 0.0 0.0
0.0 10.0 0.0
10.0 10.0 0.0
0.0 4.9995 0.0
0.0 5.0005 0.0
5.0 5.0 0.0
0.9416964895726688 0.0 0.0
1.803581725054446 0.0 0.0
2.592419885431098 0.0 0.0
3.314401822861676 0.0 0.0
3.975193910351406 0.0 0.0
4.579982132660152 0.0 0.0
5.133512780936812 0.0 0.0
5.640130319506143 0.0 0.0
6.103810708661955 0.0 0.0
6.528192895506818 0.0 0.0
6.916607540127679 0.0 0.0
7.272102969376355 0.0 0.0
7.597469242948583 0.0 0.0
7.895259826292669 0.0 0.0
8.167811885738017 0.0 0.0
8.417264413845215 0.0 0.0
8.645575169389538 0.0 0.0
8.854535961159101 0.0 0.0
9.045786767735546 0.0 0.0
9.220828555767493 0.0 0.0
9.38103509633881 0.0 0.0
9.527663687265145 0.0 0.0
9.661865124984566 0.0 0.0
9.784692609918062 0.0 0.0
9.897110148790482 0.0 0.0
10.0 0.09999999999992584 0.0
10.0 0.199999999999856 0.0
10.0 0.2999999999997771 0.0
10.0 0.3999999999996677 0.0
10.0 0.4999999999995511 0.0
10.0 0.5999999999994683 0.0
10.0 0.6999999999993983 0.0
10.0 0.7999999999993286 0.0
10.0 0.8999999999992587 0.0
10.0 0.9999999999991888 0.0
10.0 1.099999999999119 0.0
10.0 1.199999999999033 0.0
10.0 1.299999999998852 0.0
10.0 1.399999999998576 0.0
10.0 1.499999999998284 0.0
10.0 1.599999999997992 0.0
10.0 1.6999999999977 0.0
10.0 1.799999999997408 0.0
10.0 1.899999999997116 0.0
10.0 1.999999999996825 0.0
10.0 2.099999999996533 0.0
10.0 2.199999999996241 0.0
10.0 2.299999999995949 0.0
10.0 2.399999999995657 0.0
10.0 2.499999999995365 0.0
10.0 2.599999999995073 0.0
10.0 2.699999999994782 0.0
10.0 2.79999999999449 0.0
10.0 2.899999999994198 0.0
10.0 2.999999999993906 0.0
10.0 3.099999999993614 0.0
10.0 3.199999999993322 0.0
10.0 3.299999999993029 0.0
10.0 3.399999999992738 0.0
10.0 3.499999999992446 0.0
10.0 3.599999999992154 0.0
10.0 3.699999999991863 0.0
10.0 3.799999999991571 0.0
10.0 3.899999999991278 0.0
10.0 3.999999999991022 0.0
10.0 4.099999999991035 0.0
10.0 4.199999999991187 0.0
10.0 4.299999999991338 0.0
10.0 4.399999999991491 0.0
10.0 4.499999999991642 0.0
10.0 4.599999999991795 0.0
10.0 4.699999999991947 0.0
10.0 4.799999999992099 0.0
10.0 4.89999999999225 0.0
10.0 4.999999999992403 0.0
10.0 5.099999999992555 0.0
10.0 5.199999999992706 0.0
10.0 5.299999999992858 0.0
10.0 5.39999999999301 0.0
10.0 5.499999999993161 0.0
10.0 5.599999999993313 0.0
10.0 5.699999999993466 0.0
10.0 5.799999999993618 0.0
10.0 5.899999999993771 0.0
10.0 5.999999999993922 0.0
10.0 6.099999999994074 0.0
10.0 6.199999999994227 0.0
10.0 6.299999999994378 0.0
10.0 6.39999999999453 0.0
10.0 6.499999999994682 0.0
10.0 6.599999999994833 0.0
10.0 6.699999999994986 0.0
10.0 6.799999999995138 0.0
10.0 6.899999999995289 0.0
10.0 6.999999999995442 0.0
10.0 7.099999999995594 0.0
10.0 7.199999999995747 0.0
10.0 7.299999999995897 0.0
10.0 7.39999999999605 0.0
10.0 7.499999999996202 0.0
10.0 7.599999999996353 0.0
10.0 7.699999999996505 0.0
10.0 7.799999999996658 0.0
10.0 7.899999999996808 0.0
10.0 7.999999999996962 0.0
10.0 8.099999999997113 0.0
10.0 8.199999999997265 0.0
10.0 8.299999999997418 0.0
10.0 8.399999999997569 0.0
10.0 8.499999999997721 0.0
10.0 8.599999999997873 0.0
10.0 8.699999999998024 0.0
10.0 8.799999999998176 0.0
10.0 8.899999999998329 0.0
10.0 8.99999999999848 0.0
10.0 9.099999999998634 0.0
10.0 9.199999999998786 0.0
10.0 9.299999999998937 0.0
10.0 9.399999999999089 0.0
10.0 9.499999999999241 0.0
10.0 9.599999999999392 0.0
10.0 9.699999999999545 0.0
10.0 9.799999999999697 0.0
10.0 9.899999999999848 0.0
9.897110148790565 10.0 0.0
9.784692609918244 10.0 0.0
9.66186512498486 10.0 0.0
9.527663687265571 10.0 0.0
9.381035096339392 10.0 0.0
9.220828555768257 10.0 0.0
9.045786767736512 10.0 0.0
8.854535961160305 10.0 0.0
8.645575169391027 10.0 0.0
8.417264413847017 10.0 0.0
8.167811885740178 10.0 0.0
7.895259826295246 10.0 0.0
7.597469242951631 10.0 0.0
7.272102969379938 10.0 0.0
6.916607540131873 10.0 0.0
6.528192895511704 10.0 0.0
6.103810708667616 10.0 0.0
5.640130319512691 10.0 0.0
5.13351278094435 10.0 0.0
4.579982132668816 10.0 0.0
3.975193910361222 10.0 0.0
3.314401822869852 10.0 0.0
2.592419885437257 10.0 0.0
1.803581725058137 10.0 0.0
0.9416964895740705 10.0 0.0
0.0 9.00010000000243 0.0
0.0 8.000200000005481 0.0
0.0 7.000300000005135 0.0
0.0 6.000400000002569 0.0
0.901790731451151 5.000409820926855 0.0
1.657200899774397 5.000334279910023 0.0
2.289991063707192 5.000271000893629 0.0
2.820065163538221 5.000217993483646 0.0
3.264096435579811 5.000173590356442 0.0
3.636051481595835 5.00013639485184 0.0
3.947629914072366 5.000105237008593 0.0
4.208632181002628 5.0000791367819 0.0
4.427267949625672 5.000057273205037 0.0
4.610414277633563 5.000038958572237 0.0
4.763831845154243 5.000023616815485 0.0
4.892346298799659 5.00001076537012 0.0
4.892346298799748 4.99998923462988 0.0
4.763831845154455 4.999976383184515 0.0
4.610414277633943 4.999961041427763 0.0
4.427267949626277 4.999942726794963 0.0
4.208632181003523 4.9999208632181 0.0
3.94762991407365 4.999894762991407 0.0
3.636051481597624 4.99986360514816 0.0
3.264096435582253 4.999826409643559 0.0
2.820065163541503 4.999782006516354 0.0
2.289991063711534 4.999728999106371 0.0
1.657200899778495 4.999665720089978 0.0
0.9017907314530094 4.999590179073145 0.0
0.0 3.999600000002013 0.0
0.0 2.999700000005187 0.0
0.0 1.99980000000512 0.0
0.0 0.9999000000025537 0.0
9.897889398521345 2.93573355845387 0.0
9.906568249974548 7.060009441434234 0.0
9.913122631074113 3.64016132281653 0.0
9.922462129543863 6.354535290629151 0.0
9.917693659967533 4.354211663134567 0.0
9.909873057440208 5.637584487339942 0.0
9.914183254994697 4.950672966925282 0.0
9.913885043715895 7.666887930262611 0.0
9.91009668007573 2.351889069770817 0.0
9.905135696074536 8.138152454502785 0.0
9.913397459621809 1.849999999997262 0.0
7.099302372137626 0.297750452375005 0.0
7.095143729410097 9.700359990366296 0.0
4.942912558701401 5.095838627899509 0.0
4.315009232304429 5.165022115481685 0.0
4.946182472483878 4.906763777264103 0.0
4.317967462990024 4.825955043772673 0.0
9.916390871492647 8.64999999999792 0.0
9.921504649680616 1.368376469890358 0.0
8.292538149791614 0.206877570318844 0.0
8.292538149793597 9.793122429681448 0.0
5.884594439766573 9.587645267048616 0.0
5.794826292691579 0.3794853783929359 0.0
9.913397459621425 9.049999999998557 0.0
9.908526577714177 0.9568239351922434 0.0
3.456851160380649 5.315740054130451 0.0
3.457889657868442 4.707121019609468 0.0
8.945214200703926 0.1503383337970344 0.0
8.950161364448409 9.8413906539257 0.0
9.913862335499305 4.055887885208452 0.0
9.916697353372683 4.650158482607802 0.0
9.919076340414442 6.049999999994006 0.0
9.906994308667635 5.25749687748192 0.0
9.917490342358025 6.655979201891897 0.0
9.915757520293784 7.343848891656911 0.0
9.910049507471042 3.363474386285078 0.0
9.914471988502868 2.647400064832979 0.0
9.91474124160965 9.337490423485129 0.0
9.916971008170838 0.6499999999994355 0.0
4.307157269264427 9.509674045029644 0.0
4.331527375865619 0.4401616696422582 0.0
9.45434939180249 9.878397030523757 0.0
9.457696120412969 0.1270877537061785 0.0
2.555070293622606 5.422044496190925 0.0
2.566232917480916 4.608001224030952 0.0
3.026511860837692 9.332320638257093 0.0
2.945561971800619 0.5895662714727601 0.0
7.7395404387124 0.2511088946967771 0.0
7.736379255744154 9.745848826372828 0.0
4.687135269408529 5.122111433928926 0.0
4.688420821504113 4.871895064967488 0.0
9.910554884115975 0.3448356354522978 0.0
9.911230082250466 9.65764729394159 0.0
9.921953841410854 6.851023993342036 0.0
9.912065178606017 5.448170483544033 0.0
9.911660025326261 3.861846960030188 0.0
9.914847467973438 3.14501593945607 0.0
9.913397459621425 5.849999999993703 0.0
9.913397459621425 7.849999999996735 0.0
9.906916878988277 2.15455769998631 0.0
9.913397459621425 8.349999999997479 0.0
9.909472363117661 1.640528221515488 0.0
9.913987325695956 1.152857110636247 0.0
9.913397459621425 8.849999999998241 0.0
0.9100099990995943 2.614215977520411 0.0
0.8395284981715456 7.451196254860987 0.0
9.723278867451556 9.898135916635193 0.0
9.723316350887044 0.09841820909386662 0.0
1.385819164827588 4.454539963646463 0.0
1.338343629665047 5.523111536005823 0.0
1.377179700550677 0.6809168304959698 0.0
1.418060461092743 9.285896715136046 0.0
9.91268220142518 0.1457914080939694 0.0
9.906737126737994 9.845745933882352 0.0
0.7108351382691361 6.537941170074089 0.0
1.527735020267026 6.915620208855231 0.0
1.630993885659103 7.838271825205868 0.0
2.232760943566823 7.370850737296832 0.0
2.243414218068206 6.688299277952821 0.0
2.779655053105118 7.021588754814074 0.0
2.80227799359795 7.632420170547022 0.0
3.282022065908813 7.305859666021318 0.0
3.327597298795347 7.857554136825748 0.0
3.743210251018715 7.549183328204379 0.0
3.716353232200752 7.062036086888612 0.0
4.111978858674101 7.27497101169417 0.0
4.104192177581432 6.879858986267289 0.0
4.436230765617037 7.045693351607117 0.0
4.430360014817357 6.703971783962796 0.0
4.732390145036301 6.849841042423394 0.0
5.056161327708878 5.095276573498806 0.0
5.111586796021131 4.999081142133581 0.0
5.169267363407189 5.09444870412406 0.0
5.223795108752053 4.996986220359468 0.0
5.281480803887719 5.092780870372803 0.0
5.335670761900611 4.994887492556936 0.0
5.393485214772442 5.090486192743301 0.0
5.447323082877892 4.992601527033996 0.0
5.505243219343024 5.087953380710069 0.0
5.558739102026105 4.990287787962959 0.0
5.616491581184779 5.085335255235766 0.0
5.669852346908056 4.9879269227514 0.0
5.727502713908907 5.082679981817038 0.0
5.780766004135139 4.988313988715834 0.0
5.838244881129535 5.080480568766611 0.0
5.891357695677371 4.986433849408193 0.0
5.948696036767613 5.077969900389505 0.0
6.001601341641615 4.981313698556656 0.0
6.058851024265095 5.074871552128682 0.0
6.111614020704875 4.978360695880202 0.0
6.168801161530775 5.072044953270978 0.0
6.221368818778567 4.975825765213497 0.0
6.278268309066882 5.066182320461055 0.0
6.330814273567539 4.972837984645718 0.0
6.387565032421376 5.062889771971895 0.0
6.437476667631405 4.971693683589553 0.0
6.496181111585419 5.060210690175857 0.0
6.539454812256072 4.964658165361536 0.0
6.604198202576491 5.056387520850258 0.0
6.648506025747331 4.939374587506267 0.0
6.714026758992516 5.05873885840664 0.0
6.764418045981209 4.959246676066148 0.0
6.8219334571197 5.055299567406268 0.0
6.873708540948134 4.960426349093742 0.0
6.930181428849307 5.053461390218819 0.0
6.981893615341967 4.96435459462232 0.0
7.037791764774784 5.051219747103022 0.0
7.090993561518408 4.96392420322464 0.0
5.504417457283294 4.900897920552702 0.0
7.145434864123609 5.048960634292441 0.0
6.054532384032612 4.883956083938546 0.0
6.738027949040956 4.850032323068674 0.0
7.198432914526514 4.956325226333323 0.0
7.252637187936749 5.046012229327236 0.0
7.30926729605109 4.948903216650376 0.0
7.248106275544042 4.860306312845646 0.0
7.363100274863074 4.849952416808486 0.0
7.365733472701664 5.039519554615095 0.0
7.308483293090149 5.137557220352172 0.0
6.768399513646964 5.145609705119954 0.0
7.422800035311104 5.132251445551834 0.0
7.358273518796229 5.235980394389298 0.0
7.480824155801127 5.227946127939927 0.0
7.302193400058628 4.761917474298247 0.0
7.413570879789824 4.754555110721153 0.0
7.414392998903179 5.334729114426734 0.0
7.352769630272076 4.660405502266205 0.0
7.467556835255426 4.658352623795039 0.0
7.536246869015014 5.328986926716081 0.0
7.478865844607288 5.432598185493195 0.0
7.406396991826072 4.556956233957538 0.0
7.523581002009154 4.552005631348623 0.0
7.597792398573263 5.429506106314967 0.0
7.540511043402902 5.53619421580439 0.0
7.46214474876342 4.452580994318881 0.0
7.5852185078634 4.446021810672608 0.0
7.663329342323453 5.533453399066901 0.0
7.603478967594521 5.643227430483237 0.0
7.513450346818673 4.347641323140766 0.0
7.640744971722214 4.333388343316237 0.0
7.727671715775243 5.642390483050116 0.0
7.667774597993788 5.753188858425915 0.0
7.570065256728661 4.230515669344811 0.0
7.702881065467917 4.218307808529532 0.0
7.638288257073729 4.107994211855027 0.0
7.493362356301017 4.120843902105771 0.0
7.779018500630071 5.521233457321821 0.0
7.794641287388929 5.752364621610818 0.0
7.73369774483611 5.865894287356292 0.0
7.600834531784728 5.867752110500446 0.0
6.233038857278689 5.15645045634683 0.0
7.669727996028819 5.985665563643058 0.0
7.528582452554481 5.987393423295551 0.0
7.598722674572824 6.11001923494443 0.0
7.778305000222867 4.104318908265786 0.0
7.704329019832056 3.987744174608892 0.0
7.838453459801382 4.213322728668484 0.0
7.864495721576461 5.862306066517277 0.0
7.846552353360407 3.98481756181946 0.0
7.769730409703277 3.86544808681145 0.0
5.785249360396857 5.177248808588045 0.0
7.908837087876153 3.861484036275285 0.0
7.834824606222196 3.740586825753288 0.0
7.97685993406276 3.736209527152902 0.0
7.89665098770825 3.615501862931453 0.0
7.753228010315262 3.617800245018972 0.0
7.826063013090472 3.483173292579822 0.0
7.66789744383048 3.48859328808356 0.0
8.042515855796823 3.595394268381807 0.0
7.75200750488492 3.341279823834038 0.0
7.582870318332553 3.346584916806707 0.0
8.120807847415062 3.732493963388337 0.0
8.189783970303546 3.61159165475499 0.0
7.657801000286734 3.200439907646711 0.0
7.486781956172036 3.201402473247712 0.0
7.452595103886905 6.11418616185016 0.0
7.527098033550077 6.243191052852112 0.0
8.260502906807751 3.728437634721859 0.0
8.327629317451398 3.608173631356984 0.0
7.372763970891452 6.247552889754036 0.0
7.456170570815929 6.384992468962936 0.0
7.621837793616884 6.376077080857113 0.0
7.548039512904141 6.520750676893614 0.0
7.717475944451644 6.514856553988943 0.0
7.636658166268699 6.661648164052906 0.0
7.807468267259438 6.664076174524672 0.0
7.718022764310774 6.817938967122142 0.0
7.887785766941087 6.807440365887151 0.0
7.545993589083432 6.815070675854734 0.0
7.809874785067209 6.967537287475282 0.0
7.975643812145337 6.948729406725126 0.0
8.396477808021062 3.725446935061211 0.0
7.565651643157136 3.044354774611752 0.0
7.384328725505071 3.043048915147076 0.0
8.056405351948353 6.802790889114673 0.0
8.14128318237188 6.940027831915737 0.0
8.064621760266059 7.086348792208953 0.0
8.225003598857908 6.805225152373254 0.0
8.463085452993242 3.606998510553562 0.0
8.230426869720718 7.079551841000411 0.0
8.155262284174286 7.224761758176069 0.0
8.530696760758996 3.721683301125054 0.0
8.596669886994064 3.604516769862316 0.0
8.528531058025589 3.490411531312337 0.0
8.320451770844851 7.218191678954744 0.0
8.245273958732774 7.363444652121271 0.0
8.66324687389452 3.717094013035765 0.0
8.600103125209296 3.831913857228569 0.0
8.662131102573216 3.488322280861316 0.0
8.594166125380536 3.374071873435548 0.0
8.411074336066186 7.353871649576861 0.0
8.339644223432472 7.505172120620427 0.0
8.165883718619623 7.513159193685373 0.0
8.483453820080417 7.2082285366806 0.0
8.261200365730348 7.657400951288149 0.0
8.081570576666843 7.670933304838066 0.0
7.471613195794025 2.872548423100142 0.0
7.268733678357991 2.881209199257603 0.0
7.184255506995786 3.084448584600423 0.0
7.065899603697895 2.883902449336828 0.0
6.960163891183182 3.081014635802978 0.0
6.847612128388715 2.885646860602812 0.0
6.739800729737967 3.078895733381448 0.0
8.729373804596847 3.827689165637365 0.0
8.668550856907444 3.938702277545298 0.0
8.72770789162863 3.371798381178293 0.0
8.659764090070603 3.257493349874974 0.0
8.436453928793245 7.648724489148887 0.0
6.619080287792762 2.90880017416788 0.0
6.511740956842646 3.09340654756684 0.0
8.793527829963288 3.935174834810256 0.0
8.736430500996828 4.042719556852617 0.0
7.631260330584174 4.565300771328012 0.0
8.359058396840432 7.801678182761817 0.0
5.339436215072359 5.184870243702279 0.0
4.994031736761993 5.193306795607908 0.0
6.383387675268097 4.87760645722207 0.0
7.29117392392962 6.382172868329505 0.0
6.378196825372041 2.907113079755629 0.0
6.269817199014261 3.12412150658573 0.0
8.793149127377946 3.255386294257182 0.0
8.725774239201558 3.141596687892195 0.0
8.857434600673502 4.041295940541356 0.0
8.802868937128341 4.1471119953668 0.0
8.532045262478793 7.7905977476835 0.0
7.364542641624493 2.699128473342751 0.0
7.571677611088925 2.695732556686516 0.0
6.723058333614999 2.672341359410618 0.0
8.456744924757372 7.94483904450548 0.0
6.140831279784704 2.921247401137864 0.0
6.02419219050745 3.14358702955763 0.0
8.916255604212301 3.934279868822481 0.0
8.859287250884009 3.140226640574265 0.0
8.791092798057303 3.025929352146465 0.0
7.210445465986021 6.245773134960393 0.0
7.120884161792869 6.385155584680196 0.0
7.036931702064287 6.240721609143972 0.0
6.943722280007011 6.3869279517155 0.0
8.920094519678617 4.144837222494242 0.0
8.864374107136287 4.250930406527029 0.0
7.347569838739255 4.463467417508182 0.0
5.90383431757064 2.935113219563906 0.0
5.783476009580765 3.156456199832474 0.0
8.626013191558314 7.935092223505354 0.0
8.687240186957197 7.796697889991163 0.0
5.642059327424706 2.903018174330269 0.0
5.52647853955939 3.162549070310043 0.0
8.555300051897738 8.086169516016518 0.0
8.405624441178524 8.083972416481254 0.0
5.374124307190728 2.945480555950917 0.0
8.935805220807357 3.249260758206028 0.0
8.981625171409894 4.247375537584228 0.0
8.924725364486765 4.352101286657735 0.0
8.807208588134106 4.356163101450244 0.0
8.868277832430604 4.45657124153171 0.0
8.75099635287701 4.460644845248524 0.0
8.812385950597063 4.560891222623518 0.0
8.693833206943118 4.564602972998703 0.0
8.756474732548273 4.665720853686476 0.0
8.63721608225855 4.669394550615355 0.0
8.700108119351134 4.770682016274914 0.0
8.81920502916846 4.767536120893284 0.0
8.76355311338807 4.871451945248518 0.0
8.881442328033694 4.868382238751069 0.0
8.826433523510634 4.97132552240372 0.0
8.943387824985514 4.967694248194483 0.0
8.888718468126953 5.071044784833541 0.0
8.580377663835254 4.774669738817985 0.0
8.770572242937233 5.073880380431421 0.0
8.832915096600454 5.174518948293615 0.0
8.952224483821848 5.170970838320107 0.0
8.897282771771884 5.275476392171722 0.0
7.463928467290875 2.513944501591933 0.0
7.675935950092034 2.509420347143072 0.0
8.924252417741767 3.024418701372628 0.0
8.857265893102921 2.911213535286156 0.0
8.776981063213334 5.27944309004916 0.0
8.840710910770163 5.380165700477552 0.0
8.960876896785969 5.375521424256389 0.0
8.904555918255223 5.482125846038813 0.0
7.567193097677677 2.32750151280277 0.0
7.780880844888839 2.323064027160363 0.0
6.851602118390116 6.234522818184622 0.0
6.758680682687229 6.389359516748128 0.0
6.66345977321418 6.231254850996584 0.0
8.715764716958308 8.079994249772627 0.0
8.65189989696114 8.227534663647639 0.0
9.042229096541828 4.348551764001607 0.0
6.436774206993324 3.316782326998922 0.0
7.590527613340588 5.22651784724799 0.0
9.024366884701616 5.476726561488805 0.0
8.968734351641839 5.583879050892151 0.0
8.845941080047659 5.586406316932274 0.0
8.909881305857882 5.690482454668167 0.0
7.348726871578975 5.44047403999932 0.0
6.567070253986433 6.398115757512583 0.0
6.697077150072261 6.553426749743366 0.0
5.252377383990728 3.187782967482479 0.0
8.988440431820699 2.908621158637298 0.0
8.922541972760119 2.796420836075996 0.0
6.466806010659505 6.229115583261771 0.0
9.033851153821296 5.686506775615425 0.0
8.978340519963718 5.795772485582058 0.0
8.85111463793018 5.798672910287243 0.0
8.922171984280597 5.907237880910408 0.0
8.795190680908043 5.911854068712683 0.0
8.864373398892472 6.019728357749566 0.0
8.991346995940626 6.014539153309398 0.0
8.93374019140187 6.12698887312768 0.0
5.095192648098848 2.952353430985476 0.0
7.672651464908932 2.141715359830917 0.0
7.886266921042761 2.136211284120189 0.0
9.098474286589756 4.245971410451114 0.0
8.813172564986438 8.216887361735234 0.0
8.74802978243154 8.366104673219047 0.0
9.059985162956899 6.120982589539211 0.0
9.00342813739303 6.233245043891739 0.0
4.961413514304496 3.214209167276753 0.0
9.05248113004685 2.794651022570942 0.0
8.986028039118027 2.681341972594222 0.0
5.671890458441996 3.377122473800023 0.0
4.755829262593116 7.184480462344647 0.0
9.158258644940048 4.34465968221255 0.0
4.799687186662534 2.961354824469195 0.0
6.030554747591715 2.726787502996874 0.0
8.938327180212585 8.34758372042188 0.0
8.847392320655468 8.503370672816716 0.0
8.67342124373679 8.518117686968314 0.0
5.234423106934083 2.694925204361751 0.0
8.964923046453565 8.185313058214797 0.0
7.456650986668838 2.134076476407834 0.0
9.111732084821366 2.897226832609386 0.0
6.368055837513985 6.402805870976705 0.0
6.265629899005033 6.226581076317183 0.0
8.736327196352686 6.026404178766982 0.0
9.117473097358854 2.67987006607594 0.0
9.052137415465204 2.565428515518978 0.0
7.781001557847192 1.955874236406257 0.0
7.992134447300669 1.949184538864554 0.0
8.593074792993455 3.143159483125708 0.0
9.1291360203536 6.226877897052981 0.0
9.072154326613617 6.338696745620542 0.0
8.916532550320525 2.566986282201109 0.0
8.984021113721658 2.449252898983242 0.0
9.178032243215632 6.120533546076094 0.0
9.213703592343162 4.244823670856978 0.0
9.11972142641474 2.449071238668887 0.0
9.052853896812186 2.33190758581705 0.0
8.635035926402708 4.462329956179506 0.0
8.773614475966344 8.657865377672689 0.0
8.596400917257634 8.67759750279447 0.0
8.942023339420883 8.644678093589654 0.0
9.19471670675691 6.33096438039349 0.0
9.138460613363325 6.443043552768813 0.0
8.66620319432524 5.916297234509582 0.0
8.606669825267202 6.032658196729024 0.0
9.27222540210304 4.341341907533128 0.0
9.013782808177437 6.451040569407859 0.0
9.08360982569773 6.55729980456602 0.0
7.885622149776354 1.768093045890686 0.0
8.095672144455353 1.768790621151345 0.0
9.208772072925791 6.549717411809656 0.0
9.154272208194383 6.662613503537815 0.0
9.187669783927937 2.334640996932141 0.0
9.122379015831417 2.215832190697178 0.0
6.164077036161143 6.404611236428829 0.0
6.062367614988677 6.224307160647549 0.0
8.987075041759633 2.211477580983978 0.0
9.056972755801603 2.093573581203428 0.0
9.194557288902232 2.096029761809264 0.0
9.131223008370409 1.972713028695079 0.0
8.87381302587057 8.795793668920256 0.0
9.039169086943392 8.781606667490083 0.0
4.662813350519927 3.228118291851354 0.0
4.474181267994617 2.945703616023359 0.0
6.562627723301209 6.075544382232434 0.0
9.326886053211574 4.243083624343211 0.0
9.280374192897945 6.656072830232892 0.0
9.224718905178564 6.766740750539347 0.0
4.703284910421452 6.528907865005451 0.0
8.955136474970331 6.565989985649191 0.0
8.998148826814893 4.865480736169776 0.0
8.99429836796776 1.965972383552685 0.0
9.065669391141741 1.847195105148808 0.0
9.207236162050343 1.853010386995843 0.0
9.143218073349985 1.725630086781897 0.0
8.998867447699345 1.719378449325465 0.0
9.082595782768397 1.592017827427701 0.0
8.92804562738841 1.585238202229766 0.0
9.01637794607019 1.453847302675876 0.0
8.854253119154375 1.446306868730686 0.0
8.941620273019874 1.320083886766936 0.0
8.775393064215876 1.308487027359826 0.0
9.102170347200483 1.324733726345249 0.0
9.013857060361985 1.178821526410403 0.0
7.991031819452564 1.587689878441685 0.0
7.767218744640202 1.595993197647291 0.0
9.191539171305216 1.194087248761656 0.0
9.123965901037613 1.057102462689568 0.0
4.853921953226772 3.470213116851758 0.0
7.496563223334782 3.470157221608763 0.0
8.536691379028115 5.921845852206257 0.0
8.475496498707471 6.037633662010236 0.0
7.978668526342969 2.307231488316941 0.0
9.384721922092124 4.337357165846226 0.0
9.331039180200886 4.435926256444196 0.0
8.546261775564837 6.150267290476958 0.0
8.411727261785726 6.155319300628062 0.0
8.972203609044218 8.930944433074036 0.0
9.133480321468399 8.90955269607895 0.0
9.197778815538276 8.768743880012563 0.0
6.162231825784922 6.05277753404107 0.0
5.962111081146334 6.046949845237622 0.0
9.268727788642101 4.146883230687689 0.0
9.380694211527906 4.144811697563401 0.0
9.323823335199954 4.049557759546529 0.0
9.283324894520613 1.736313094621396 0.0
5.858151623803662 6.22041808248046 0.0
5.759668475561988 6.038806123495502 0.0
7.836860473863919 3.191674397465999 0.0
9.348591928839294 6.75855034547469 0.0
9.293979592221298 6.870213350675044 0.0
9.170543172728557 6.879819332293818 0.0
9.240028263813034 6.983394994050525 0.0
4.347372565145963 3.312731475520695 0.0
4.114183445909965 2.96879678229065 0.0
8.616264880152233 4.042035981070631 0.0
9.403174760076901 6.650407069150438 0.0
4.173860112179449 7.723461240865885 0.0
9.365302975518428 6.973476802087294 0.0
9.312420275675276 7.088420778208979 0.0
9.184876614539778 7.0978133687822 0.0
9.25921281729617 7.204979813006656 0.0
9.12816413817609 7.21569648263899 0.0
9.203944409919862 7.322703303071253 0.0
9.334311975087337 7.311477957762272 0.0
9.280415785210538 7.428795599957155 0.0
9.274060219641907 1.066603180421249 0.0
9.211820491509728 0.9316562593680151 0.0
9.050684011148748 0.9017681241401576 0.0
9.441953732403995 4.432092590771756 0.0
9.394725873909666 4.526051349391942 0.0
9.43453556160865 4.048003950509361 0.0
9.378043599351757 3.952631412328806 0.0
9.289691247910705 8.890746792319852 0.0
9.228148443138926 9.030109127390128 0.0
4.440757888677695 6.389562448928118 0.0
4.689874463978985 6.239329075084555 0.0
4.291519540095677 2.622920583112654 0.0
3.886073352912894 2.632778677714434 0.0
9.344015622314338 1.202401041544343 0.0
8.193292196814806 3.849649660906171 0.0
6.960946604527747 6.07044529864598 0.0
9.347708267319902 8.756364147482309 0.0
6.826423138602714 3.261415861395883 0.0
6.06309517882478 5.884563187328262 0.0
9.4085057714426 7.414123963607981 0.0
9.356416821537886 7.532359471354527 0.0
5.042074134251055 6.938947182785697 0.0
5.063988238156824 7.311205832605263 0.0
3.946666851334923 3.30681624613374 0.0
8.189857914071878 1.939951128540477 0.0
7.880690277686857 1.38928908049477 0.0
7.63766396748483 1.399736360041063 0.0
9.345004233592562 1.857695941115052 0.0
9.440465164139875 7.085860901905448 0.0
7.918332480761888 5.744468010879592 0.0
9.08007135068879 5.372457017512481 0.0
8.78639561093144 3.718391405525285 0.0
9.356843485085705 0.9414458825132457 0.0
9.29705128845331 0.8103081541678832 0.0
9.251825423225316 2.451701826351773 0.0
8.483895366325516 6.270717564685176 0.0
8.346386886249478 6.275973306650227 0.0
9.493299170161215 4.138582531223591 0.0
5.321115649032961 7.117073603021904 0.0
5.354076009109965 7.436189411362466 0.0
5.597984079819928 7.254284331170681 0.0
5.644042313435943 7.564172740776336 0.0
5.383963016128051 7.753854027984002 0.0
5.681168258142109 7.880444993178456 0.0
5.935548099874979 7.687258900444162 0.0
5.979508404301389 7.994332725561488 0.0
6.21936843555201 7.802335560754011 0.0
6.267092590637372 8.104873033518185 0.0
6.498845418385807 7.917606504106031 0.0
6.544600005636809 8.209910620392591 0.0
6.77336078689533 8.027284686082275 0.0
6.814840179123049 8.311778392637773 0.0
6.721304148677048 7.737863326704131 0.0
7.031320924898797 8.1335673274533 0.0
7.077388928622946 8.403901803728003 0.0
5.417471987089176 8.090112295667405 0.0
8.845427688507666 2.446352368201366 0.0
9.318512319918124 2.339233739859646 0.0
9.380241452597096 2.451895615249572 0.0
7.283805558009199 8.237518806365102 0.0
7.329200330160381 8.497045124353782 0.0
7.233272584416691 7.991590926766813 0.0
9.142592248414191 5.471315142785471 0.0
9.196303265878848 5.36738298742727 0.0
9.25795832955665 5.465260877691205 0.0
9.310581303233182 5.36341558704714 0.0
9.371094700882272 5.459458038195667 0.0
9.422767107822985 5.360687090455724 0.0
9.36402660964156 5.264821436196721 0.0
9.474220736978928 5.262802348886269 0.0
9.41680330511366 5.169477108906666 0.0
5.168675939028436 4.895496152382537 0.0
9.482591449057548 5.454699312257291 0.0
9.431567605310825 5.552723344040521 0.0
7.531449703396948 4.741663470323411 0.0
8.517293123442691 4.672601123164268 0.0
8.459978676626639 4.778466809901586 0.0
8.396595115309985 4.67568709170855 0.0
8.338966609235166 4.782101664607259 0.0
8.275355646032752 4.678829956447008 0.0
8.217675280223542 4.785699596769931 0.0
8.28149024865807 4.888803783902183 0.0
8.16019781596952 4.892696417098926 0.0
8.22433278506531 4.995725219088695 0.0
8.102825704443651 4.999629142625341 0.0
8.166887930010795 5.098242831115916 0.0
8.034904900788316 4.896825406879729 0.0
8.15353539905931 4.682103688185489 0.0
8.211891449058882 4.574219757233394 0.0
8.290305306104333 5.094007100958221 0.0
8.225684228618732 5.201525567655179 0.0
9.444618942559746 2.343141375196729 0.0
6.929446520625337 4.868116916840016 0.0
5.737810725167649 4.893891407574175 0.0
8.720389971487277 5.38508368411851 0.0
8.805734920311323 8.951818172412821 0.0
8.905272694453211 9.083303226359831 0.0
6.006155038818204 5.171375272745409 0.0
6.431496448228514 5.152985998213245 0.0
9.052675024457304 7.106590131831544 0.0
7.740007013494393 6.09727525827826 0.0
9.375852260355511 9.013078430361404 0.0
9.32035844773103 9.14584923943073 0.0
6.989707597683965 5.146377438798643 0.0
9.488190206836386 3.951168069367155 0.0
9.432429152094464 3.855725756072153 0.0
5.568386402814275 5.185723849666124 0.0
9.525561551078322 5.166162126187324 0.0
9.465026391994275 5.072601962964018 0.0
9.320357339516937 3.857795423728873 0.0
9.375955927831914 3.759314274140895 0.0
9.261783786753899 3.761412578759438 0.0
9.31820665563318 3.661845422072752 0.0
9.431798673168924 3.660830894813109 0.0
9.374584413615914 3.563138564686839 0.0
9.48759661134647 3.562294297118573 0.0
9.431339678707085 3.464016717943268 0.0
9.417896212887529 1.746970678437863 0.0
8.731705369070733 9.110902182838881 0.0
5.652297951447118 6.21188565774667 0.0
5.569122518069258 6.024400786163834 0.0
8.257007204149394 3.505875091031567 0.0
8.717428603143034 2.925525757227976 0.0
6.882852832747376 8.57686572931064 0.0
6.337330066435714 8.416819098143066 0.0
9.50188906539997 4.521022403818629 0.0
9.453500859905136 4.617181635748691 0.0
9.46806769570129 6.749352117850711 0.0
8.836822104875719 1.72282859852854 0.0
7.481071063421426 5.64593758994851 0.0
5.668814988976305 5.86611128457842 0.0
5.487644760735084 5.847591822776978 0.0
8.993992818065195 7.228173913870249 0.0
7.98322414937693 7.229980191466666 0.0
9.22810751684646 7.54864871395298 0.0
9.304103360459063 7.654622011545798 0.0
9.432787371848761 7.633691049023619 0.0
9.382619818023882 7.759136995934441 0.0
7.239096822516492 4.679179578301165 0.0
9.47692479956498 1.861231395362419 0.0
8.041243110813022 5.095895152648969 0.0
6.190208781188077 7.509864122823853 0.0
9.283062812782122 4.549418667685757 0.0
9.503847665760087 2.450295046295932 0.0
9.443345385250678 2.557904120404248 0.0
9.52009568463353 6.644015937008899 0.0
9.203119005973903 3.662458522935253 0.0
8.406198651282708 5.92630414760378 0.0
8.467263597743843 5.811987729136874 0.0
9.461423029059445 9.128120577356565 0.0
9.408445330070542 9.26024300250086 0.0
9.266505293379728 9.277952925446408 0.0
4.14874709022218 3.631681332690154 0.0
9.437448107949258 0.8198473430736303 0.0
9.376993771693973 0.6910550697058979 0.0
9.22882356848217 0.6931820370818127 0.0
4.451823867195988 6.103664366188579 0.0
4.200031743909027 6.232039028149317 0.0
4.687154754667774 5.975132870483986 0.0
6.268889397098538 6.592235545990395 0.0
7.509366161722768 8.340075462391164 0.0
7.564775703413765 8.59800936579159 0.0
9.542148732924264 3.854614593058991 0.0
7.036231103929761 6.550562550831048 0.0
4.089373665437328 2.268193930262139 0.0
3.642558884866483 2.250386188148396 0.0
3.442182385618804 2.651948803899947 0.0
3.146832503011753 2.222630466765926 0.0
2.948870467975985 2.805088883766417 0.0
9.352005315330274 5.067356449300542 0.0
9.31729677031493 3.462944187594675 0.0
9.37428383619102 3.365546369736205 0.0
9.4883538239391 3.365384871181599 0.0
9.432147665178338 3.267287636377487 0.0
9.25034519267688 7.775848812012313 0.0
9.332091350002502 7.881724023243533 0.0
9.462101000264603 7.86490055671988 0.0
9.413353271651825 7.98561007219363 0.0
8.273592814723814 6.158623919352561 0.0
8.207135014732339 6.280394934566054 0.0
9.541483811580331 5.548224291759592 0.0
9.491365919893726 5.644847811894615 0.0
8.088095771120983 4.577581369371366 0.0
8.14760102783746 4.468303741922308 0.0
9.556217963323956 4.414867468889523 0.0
9.543667331547693 3.266908751519594 0.0
9.489307652535885 3.169908976697059 0.0
9.26285575842982 8.635341362685686 0.0
9.403220742003983 8.621447866627538 0.0
9.326013417886902 8.506778946171965 0.0
9.455477927154853 8.503896705359047 0.0
9.566646674069602 4.611465258087684 0.0
9.499341049870914 0.9352184973273918 0.0
8.683891958597638 1.444705608998412 0.0
8.599973456173778 1.287265568270043 0.0
7.760988189317371 1.175381292562583 0.0
7.50927661322749 1.171223823957793 0.0
7.380927152434357 1.411062577009695 0.0
7.242417847270241 1.170759311509981 0.0
7.107236746116019 1.421234419770886 0.0
6.960799033544566 1.169618322344823 0.0
6.817786081200392 1.434174581170586 0.0
9.48095050141868 8.738557748483624 0.0
9.319762046171894 3.263060331456388 0.0
8.920653400180534 7.117307656029475 0.0
9.452431221190624 6.544166520883111 0.0
9.571407933653493 6.540336592280795 0.0
9.507586285214174 6.443281357841339 0.0
9.575252974749443 5.070210512157044 0.0
5.755172844377253 6.370710487467459 0.0
9.541351959064952 7.969072511059531 0.0
9.354607289792183 9.3921968735401 0.0
9.495213435762107 9.37218405175897 0.0
3.77688136092967 3.643094492921176 0.0
5.460967180339239 6.159077196937325 0.0
8.656589552918996 5.283032675040985 0.0
8.599307076390474 5.387421722684671 0.0
9.584017606465821 5.263931993965828 0.0
9.51536593891754 4.977534386249715 0.0
7.788544970111893 2.70578432810479 0.0
7.381746833264364 8.755477463411431 0.0
7.615969996822885 8.852710176548548 0.0
7.783643411970649 8.691528137204457 0.0
7.845017394185501 8.938777577473743 0.0
8.570520580943368 7.342304222498308 0.0
9.103648004226827 5.781084627507008 0.0
8.338082930126799 5.815990105349368 0.0
8.930848895071895 4.561111316304916 0.0
7.381089602119859 5.983657236035151 0.0
8.42066837692862 6.393608568217351 0.0
8.888256157021065 6.459558428285236 0.0
8.826495664731354 6.575679897210801 0.0
4.22522220414496 5.921354747981145 0.0
3.943296448343383 6.075578573904587 0.0
9.563175937841836 2.554860696349795 0.0
9.505342423182917 2.656889632284623 0.0
6.660863480070611 1.168750929063519 0.0
6.518316961679488 1.436478598119306 0.0
6.683474168246802 1.694104067636375 0.0
6.376799057174731 1.707382100972048 0.0
6.205091481342603 1.443621641108414 0.0
6.058670988071357 1.728841803855816 0.0
5.877457486049096 1.454297236926778 0.0
5.724979192982589 1.756666409586195 0.0
5.529885788012015 1.462283739157555 0.0
9.514953777019835 0.7018468683209754 0.0
8.398665270372675 5.702731562702358 0.0
9.456442249775696 0.5772068858285652 0.0
9.565795671866349 2.345573662774494 0.0
8.830758563027459 9.247271599108435 0.0
8.523580738257648 4.88015211128435 0.0
5.580123316488715 5.701889892660689 0.0
5.398591029446707 5.685938459654249 0.0
5.367686360823392 1.778740548277203 0.0
9.546603444041448 1.754984055696778 0.0
9.489649223089446 1.641312329051244 0.0
9.617973952467912 3.363804764345866 0.0
9.584322830999731 6.729956156156573 0.0
9.597221861144487 3.948534024289882 0.0
9.49401963819799 8.089507968561776 0.0
9.207321074262563 9.416906871900888 0.0
8.27185428346661 4.464932191097996 0.0
8.207416067213774 4.35878753684812 0.0
8.332747746635944 4.354903699457511 0.0
3.990181919126853 3.930792395858886 0.0
8.267392138262498 4.254008221702929 0.0
7.997788712685495 1.196805377512679 0.0
9.600316638269724 5.639973985281733 0.0
9.550939606739425 5.737313319038155 0.0
9.44084303195315 5.74233753256161 0.0
9.50112296154558 5.834555019909565 0.0
8.897429225733994 6.685415510921676 0.0
8.762930941408914 6.695907295903629 0.0
8.654628175336732 9.278157371342388 0.0
8.544676900803436 9.133790942553834 0.0
5.294904777716057 5.855935872688884 0.0
5.216749389964556 5.66865685845661 0.0
9.508453581298625 2.239460033375932 0.0
9.599691370793206 3.169496930704394 0.0
9.546615051106684 3.073514534194011 0.0
7.484714626923596 5.028675123117963 0.0
9.588496050271255 7.850836295555126 0.0
5.153197381012662 1.471340286561097 0.0
9.433168304679345 3.071871997104804 0.0
9.610464706874994 5.829217654498672 0.0
9.561407772947403 5.926179534044419 0.0
8.273381980676042 5.705233340662362 0.0
8.330794188929296 5.594351887246082 0.0
8.207319603076424 5.596747949305344 0.0
7.251338559467102 5.233758892662348 0.0
8.708518799790543 1.130513882092466 0.0
9.590155250193266 0.5878623138195824 0.0
9.389919385420015 5.841079912164009 0.0
7.991397852194216 5.859910582924319 0.0
9.624951589233206 4.975554514425905 0.0
7.240016788025947 2.531866266726309 0.0
7.635666783493215 3.873554782053258 0.0
9.608476620993713 1.863530872936442 0.0
9.365330459496413 8.10677840682376 0.0
8.775076110585598 2.572737931759856 0.0
8.699389445914996 2.444602334375113 0.0
8.625078713232146 2.580891022578613 0.0
8.54447196848446 2.447624719286678 0.0
8.468898498943965 2.586757328881282 0.0
8.62282309213608 2.307826916202421 0.0
9.622102662978762 6.439307895185218 0.0
9.561995355724862 6.35103962032292 0.0
3.898245450818314 1.856155797593496 0.0
9.681759177700954 5.07069253017652 0.0
9.059254996454502 4.963357716933865 0.0
9.113144532326562 4.861710138088372 0.0
9.62140874877204 2.656009146517733 0.0
7.884510615470827 0.9666888912541309 0.0
8.14902661050739 1.005010215149227 0.0
8.491263206618079 8.527197931363634 0.0
8.408859203395778 8.697060715788105 0.0
6.54422152733529 1.954566069381189 0.0
9.563546573097593 2.755667904356369 0.0
9.453065492925557 2.761122255953964 0.0
9.676889098520615 2.755084315170127 0.0
9.678287124781653 2.556838324720633 0.0
2.60254317790297 2.278874965850319 0.0
9.211706272534968 4.050470567310489 0.0
8.526711683538949 5.698821878547752 0.0
8.296604023060945 8.533761944401608 0.0
9.649704314258118 5.543946557831669 0.0
9.651176136337964 3.85122804518279 0.0
9.44590154800397 9.498503704959054 0.0
9.580491248736612 9.476376347552954 0.0
4.3239388803087 3.921156392977062 0.0
9.65737873521736 3.075324100817917 0.0
8.128000846282253 6.160273991836929 0.0
8.06242981852327 6.292371360998262 0.0
8.500465019503922 1.442700595221201 0.0
9.615253212967009 1.649819368149096 0.0
9.561768620580791 1.538553925606111 0.0
9.435477757657937 1.527391516499924 0.0
9.627993450010088 2.242685831452484 0.0
9.5338252733548 0.4673994795805215 0.0
9.398055066504014 0.4589059948533885 0.0
9.669486082509058 5.920177035588319 0.0
9.621072177439727 6.016493814615133 0.0
9.506185962103057 6.018397021409126 0.0
9.196884440497488 7.898824858961557 0.0
9.112591143666748 7.789491461180181 0.0
9.664357762385308 7.950712034233033 0.0
8.46233617997115 2.308903464128035 0.0
8.547917980328803 2.169381684694277 0.0
8.139931430059324 6.410762600521521 0.0
7.672499127532963 9.099143622036436 0.0
7.91372855627271 9.178704612763656 0.0
8.463425076318451 9.290653726808348 0.0
9.643938029094286 9.335632419679458 0.0
9.647017668702574 0.7068996148634754 0.0
6.241662276606473 5.884018212993202 0.0
6.157742245066693 5.73500474100449 0.0
6.318815619949124 5.730068085823802 0.0
6.247706374231452 5.593094310939028 0.0
6.406948541886973 5.593272398468375 0.0
6.092564106310554 5.587409338401505 0.0
8.535507922245372 5.286142900439676 0.0
8.022959839404006 4.471630490587016 0.0
7.963561162854596 4.581393556789843 0.0
9.683487139413305 1.546750704925431 0.0
9.630761777960082 1.435922217091829 0.0
5.121714348989337 7.950140247572198 0.0
5.136464096196084 8.310254432483559 0.0
5.47349124035624 8.455234262268478 0.0
5.176273618280354 8.687190323573228 0.0
4.796664658962938 8.592678692862421 0.0
9.568705729418735 4.887269869750176 0.0
9.462711651199594 4.88832222094458 0.0
9.674903475028225 4.882285174433025 0.0
5.4996067353406 5.546583260717527 0.0
5.663632234555963 5.557613452957074 0.0
6.829408195405585 1.947174574944512 0.0
5.336529198289861 1.127585641139875 0.0
9.672387559812332 6.34138351957329 0.0
4.463988917379896 2.271060678869338 0.0
8.618048281355405 6.263841736419089 0.0
6.480949808711781 5.74815588680617 0.0
6.562207427719153 5.592185077216444 0.0
6.643040463857446 5.721233693378952 0.0
6.712825900331884 5.588664360236 0.0
6.79240375630333 5.711383948285569 0.0
6.86115931532141 5.584697050428064 0.0
6.939210100691576 5.704407337029545 0.0
7.007668476576536 5.580801046893123 0.0
7.084627386867475 5.702817970154801 0.0
6.633257976075473 5.460881327825488 0.0
6.931430743764456 5.461960451448691 0.0
9.682652370938209 6.533133024505995 0.0
8.761108695241376 9.450742747770144 0.0
9.146031326900015 3.764292700000154 0.0
9.089378801805193 3.661317181076136 0.0
9.514354521818781 8.994988681611192 0.0
8.157650730500988 4.262987189670279 0.0
6.329633198899328 5.4647789391701 0.0
2.340685767996258 2.811285337457589 0.0
7.379572471323651 0.9290892725587991 0.0
4.171878172186605 4.222320767259098 0.0
4.4876601621649 4.16473354200826 0.0
5.336389369563535 6.806464508860387 0.0
9.595468321212476 9.108133206829102 0.0
9.645038675267227 8.982113951305912 0.0
8.393140678816192 4.246338342095281 0.0
8.309440721624494 4.155300532283633 0.0
9.418269339704423 1.9925512363779 0.0
9.662781807969623 0.477809346089035 0.0
8.011297869803792 0.7518828483803571 0.0
8.250149975885678 0.7646904662196189 0.0
9.608674873602773 0.3618049194050078 0.0
8.692696069692623 6.582927327365709 0.0
8.628225948401226 6.705702462696891 0.0
8.701883181418305 6.822086652299242 0.0
8.559276855155542 6.829564723911442 0.0
7.069268463354993 5.459534423493629 0.0
2.654575201159115 3.323490466195074 0.0
3.610801136544596 4.044075244426243 0.0
8.263757217166944 5.48730323490738 0.0
8.138838162809126 5.491254533497952 0.0
7.90196833683664 4.477386962763833 0.0
7.987943097943191 3.978756490171551 0.0
9.704623491880403 3.945605151832784 0.0
9.461009573830147 7.301728818091931 0.0
9.532468631193666 7.399916015174975 0.0
9.582688928417856 7.292330983701011 0.0
9.652579613269625 7.387768793572397 0.0
9.699264016151023 7.282867433965265 0.0
9.633305589700536 7.188543855060478 0.0
9.505576100168666 6.961225778216469 0.0
9.43876966151099 6.342441564206569 0.0
4.908483672172518 6.098703904450545 0.0
9.135448256237908 5.269827196966999 0.0
5.905650502271389 2.025036080946255 0.0
9.709890722072377 9.452748507541063 0.0
9.663337613522643 9.572126259365891 0.0
9.603900123387826 7.495180532331903 0.0
9.720147629525837 7.483400774981126 0.0
9.674588415444239 7.588303295299578 0.0
9.653186673863587 4.039274180923234 0.0
9.053164539680804 4.764545162185531 0.0
9.164908495749003 4.763017269285045 0.0
9.226019227262443 4.858029410614327 0.0
8.809947621994619 3.4964384919072 0.0
9.10538997155458 4.665865142902959 0.0
9.331074106432244 5.748993480915537 0.0
9.055854333858068 7.918554535314415 0.0
9.446431573964945 8.209836764658437 0.0
9.573844810886287 8.191100251691205 0.0
9.309704769895653 8.244395007943949 0.0
7.240329561730736 1.676197957122907 0.0
9.543389817573933 3.660019800390455 0.0
9.598599341122098 3.563130123982772 0.0
9.652615161407017 3.658119804270645 0.0
9.706336063693934 3.564815526226687 0.0
8.632284427755456 6.946688912416058 0.0
9.682863230715835 2.349655023034811 0.0
9.571538455120994 2.142369886250143 0.0
8.090821900439733 9.017409120951333 0.0
6.812258669899192 0.9007667548831626 0.0
6.50135254578461 0.8974046495177885 0.0
9.598335906230732 6.246437748035812 0.0
9.719677442549804 6.253968775436637 0.0
8.593026822691716 5.180101360605356 0.0
5.537586126848265 8.836083861509138 0.0
9.688689404995035 2.143487155934306 0.0
2.821389253975936 6.507820864074362 0.0
9.176571289960709 8.507736431357309 0.0
2.918303740542162 8.256728920338826 0.0
3.428955230180972 8.401446814887457 0.0
8.490587404589881 6.715350139132777 0.0
8.86049054904785 7.243279881821806 0.0
8.93696309213556 7.356650230611625 0.0
3.951931175165697 5.78308550088855 0.0
3.65055612573298 5.91672400098539 0.0
3.668142216548471 6.247526235973777 0.0
9.717269848920886 5.821831227352286 0.0
9.708364917734201 3.164198601626433 0.0
8.45581975650687 4.569560863828342 0.0
8.204448312099833 6.040774355519757 0.0
8.65969449127868 5.485991799508151 0.0
9.707534571012967 5.634423933296901 0.0
9.62102991883279 2.849662850313935 0.0
9.144093558002634 3.560383427867003 0.0
8.29763273805118 1.77155302934031 0.0
5.280452715709455 9.01633391004168 0.0
8.984558945859158 6.99932633710603 0.0
8.4157550875812 1.275784953143711 0.0
2.068078118650995 3.355462780535101 0.0
9.205703884756806 5.568274778556933 0.0
9.745857863753141 7.178456670302003 0.0
9.681628895748586 7.081494416756802 0.0
8.875818787971069 6.240744812097083 0.0
7.993733797566922 6.414830952863579 0.0
8.462810157069566 3.377071044664789 0.0
9.29428363519789 4.759591981903337 0.0
7.933956818298286 5.97437536746848 0.0
9.028281726378319 3.558713145763133 0.0
9.083461773461467 3.455531762175701 0.0
9.73231939683535 2.849247643393067 0.0
6.70072305037728 2.192432536215492 0.0
6.423245125077639 2.212870246546939 0.0
4.931537051605536 1.135086496804522 0.0
4.746426561586179 1.500381091957315 0.0
9.707706579932626 7.836419656220658 0.0
8.590593344701457 1.595639668013959 0.0
8.708946574109854 2.1688179918246 0.0
8.634728854549891 2.028564483452208 0.0
9.230357659411311 8.129337203173913 0.0
9.102841374461482 4.452881308250647 0.0
8.472081531214734 5.388993924853032 0.0
4.925996806199801 5.844046944846857 0.0
4.702806345752284 5.745688656289065 0.0
4.884357002239844 5.633237011762874 0.0
4.709628434300812 5.536404116679045 0.0
4.530800966746534 5.627044171217377 0.0
6.040296145349247 6.603808099703576 0.0
6.162203578696918 6.795213950202512 0.0
5.923135943221574 6.824060069869489 0.0
6.046693245732212 7.010423490915212 0.0
6.297337598588478 6.979895528204233 0.0
7.760448385794147 0.7294020304851334 0.0
8.492228348169641 6.958778476405878 0.0
2.89219822877093 1.704113597264478 0.0
2.26178643438086 1.7814602252425 0.0
9.726968895980871 6.009547057102511 0.0
6.63195110828313 0.6072886418835157 0.0
7.984023036954866 7.515675826210831 0.0
7.893857204140559 7.681876703427663 0.0
7.778465117872411 7.537836322197895 0.0
7.998204230811618 7.844922503023499 0.0
7.798554315988981 7.858161805718108 0.0
7.917846202023782 8.03040048103727 0.0
8.547520504556728 2.721261126162116 0.0
8.39253850806587 2.732073315877738 0.0
8.306047241032278 2.59069854402512 0.0
8.233011054235162 2.739783364361515 0.0
8.318836035587811 2.879838477099622 0.0
8.159530874574331 2.888511553151382 0.0
8.245490421394788 3.024568439743106 0.0
9.759103003747676 3.077839427881478 0.0
8.083610090773394 3.033523757291178 0.0
8.174562583800352 3.166768504406541 0.0
6.046769434852523 1.155662270344939 0.0
6.968371001421964 2.176347877216873 0.0
8.324858098380334 3.152966249334499 0.0
8.145556596142626 2.609897633546475 0.0
8.970652052821418 7.804556541250797 0.0
9.033737629244714 7.681328986528639 0.0
9.62347010002576 4.796939565664328 0.0
9.72520380348743 4.790261082613535 0.0
4.882631186210167 5.455006233451049 0.0
4.618356368594037 3.933076284395493 0.0
4.748083507220199 4.151025177732873 0.0
4.641724290430313 4.358202249373887 0.0
4.87055838101999 4.337900676660481 0.0
4.974114446887331 4.149149057174687 0.0
5.081577844806959 4.3240148266423 0.0
5.179521650033781 4.148725180298481 0.0
5.276261408871418 4.316673822529601 0.0
5.369189110897883 4.148362797753505 0.0
5.463892033849439 4.338819369807593 0.0
5.550828466075906 4.146274465971151 0.0
5.646554822352869 4.303571429647391 0.0
5.728109623160046 4.138582010823754 0.0
5.821689108984419 4.291959598724587 0.0
5.906082534948073 4.141649907302701 0.0
5.99655838673762 4.288752711512514 0.0
6.077312859438928 4.141011188943332 0.0
6.164215275138099 4.281164574562373 0.0
6.241782344986693 4.140701084167517 0.0
6.324316420613108 4.277393447415522 0.0
6.40284165425941 4.140026953305852 0.0
6.483655157361099 4.273418937894759 0.0
6.561170698911611 4.136221843106807 0.0
6.63512300179586 4.269917278694155 0.0
6.720306110251473 4.133393659385058 0.0
6.63777078218551 3.99617001426095 0.0
6.802492763973074 3.994355399489989 0.0
6.798834760478153 4.276914787769972 0.0
6.15377608509923 4.000134206628027 0.0
6.548727135071258 4.400510710520637 0.0
6.251479300130713 4.421887359316258 0.0
5.275876048175579 3.979624500657822 0.0
5.910905077162284 4.431174408784691 0.0
6.717070288412452 3.851239795555301 0.0
6.883499045994213 3.852555480300214 0.0
6.96664848901999 3.994033961856844 0.0
7.048208567116626 3.854750001965969 0.0
5.810004974283072 3.982497501655442 0.0
5.586615391658107 4.471070246359201 0.0
6.547331954052155 3.853872077215347 0.0
5.179081233207816 4.485638492900557 0.0
7.126615227065496 3.995337770596979 0.0
7.209459742762513 3.856893463870469 0.0
7.130226097876905 3.713620439679428 0.0
6.63075064074106 3.699684148676045 0.0
6.446985573861992 3.697358756862005 0.0
7.043151422977365 4.131713936060725 0.0
7.198322215260019 4.129850614748363 0.0
7.119378405252723 4.26005098890218 0.0
4.797146270976422 4.525762781577414 0.0
4.608329098388589 4.573584257851931 0.0
7.294442092743627 3.720853338661503 0.0
7.215753312764997 3.571378507508807 0.0
7.049631633956289 3.568047985538775 0.0
7.133765707749521 3.414282375958479 0.0
9.755079417839903 5.539705890434435 0.0
9.698955703441971 5.450920012703194 0.0
9.717604099406742 9.09084770432896 0.0
9.276716006673976 5.847248422342224 0.0
9.339081208926798 5.941174203394446 0.0
9.031261921742963 3.750271483819014 0.0
9.08721978689863 3.853416037308712 0.0
4.801461566647803 7.510704110489921 0.0
8.206553504932042 5.818005960412773 0.0
7.362361315389098 3.863102442315545 0.0
9.492826845316191 2.963845037486267 0.0
9.376710375304633 2.97229517374228 0.0
9.3192743723601 3.070687802230453 0.0
7.915389082113898 6.293241865913004 0.0
6.735006382384437 5.832450056405368 0.0
8.456481836836168 4.35369289249905 0.0
8.517718268476031 4.246675068616396 0.0
5.583512022030555 5.411069060406398 0.0
5.73625200174779 5.422617752052123 0.0
5.81006929286229 5.548584937688919 0.0
5.903438861894402 5.420604003204523 0.0
5.43801870974416 5.402925156167655 0.0
7.022641548594327 5.825217331839047 0.0
7.165095795605366 5.826005223633447 0.0
7.223078558430726 5.690146755650336 0.0
7.841396000338385 4.586693006493787 0.0
7.904793170875705 4.690826189066096 0.0
7.785999820520073 4.696719777099973 0.0
7.846448506395101 4.798518978096564 0.0
7.728149182067156 4.803800941124008 0.0
7.788983823826226 4.904802634695232 0.0
7.672018889153144 4.910077510508749 0.0
7.731996012352178 5.014717724244488 0.0
7.852072803124419 5.00743796185411 0.0
7.779278698005006 5.118909346425974 0.0
8.088113864063853 5.605434545811022 0.0
8.016457362785575 5.494849890158723 0.0
8.072290383394757 5.385594956317259 0.0
7.95068657972964 5.38825563681957 0.0
8.309366678475389 1.438342408757099 0.0
9.748160780780179 1.447794693754379 0.0
9.696454228162398 1.337889922375316 0.0
9.568813761940916 1.329560834053294 0.0
9.638326779791626 1.226729570935787 0.0
8.472132467407484 5.182856496818138 0.0
8.066211547412054 6.53691730655352 0.0
8.217035586462373 6.522976700918602 0.0
3.544839338670893 3.324491119989469 0.0
6.999740002965287 5.347729916247808 0.0
6.874544698914502 5.347027470386579 0.0
4.880451234715014 5.193043717957879 0.0
9.104510033763066 9.313204713465637 0.0
9.0466357104558 9.45359399494339 0.0
9.146803165140184 9.569652364413551 0.0
8.134107047896672 0.5527712356100052 0.0
8.369770412730738 0.5571215815175228 0.0
8.47386979744655 0.7564607169846485 0.0
8.585193608569258 0.5749174254532757 0.0
8.683868132726584 0.75505070091701 0.0
8.787381435061018 0.5813987798627239 0.0
8.697570280442534 0.3771156480326233 0.0
8.530048434259976 5.077280516000916 0.0
7.995091351438729 2.90367515012593 0.0
9.731083608815164 1.662638626153251 0.0
7.260488865351954 4.255073962371814 0.0
9.760728358076392 8.990038509880067 0.0
9.716710396257366 8.884160310398862 0.0
8.794627466210242 7.369659405098349 0.0
8.868068657550866 7.515048014893154 0.0
8.702594597629135 7.510501129643432 0.0
5.132320689147051 0.7610757801158905 0.0
9.755852887652699 3.853180024615871 0.0
9.787424819067885 2.757921105725315 0.0
9.731193479931608 0.3736343090103709 0.0
9.796526908308536 0.489684029254899 0.0
8.226019692057042 2.453349105940535 0.0
4.560989821496479 5.428206018250252 0.0
4.348810639659689 5.517048281386008 0.0
8.785190163106925 7.119142251269924 0.0
9.015515413043023 7.464769766852701 0.0
9.754861440190705 3.659036930324926 0.0
9.7543610723378 4.033687839160082 0.0
9.707881226943384 4.127219992296752 0.0
9.52841017383273 8.309020665649431 0.0
9.65186044414544 8.289498614805698 0.0
9.714051275521857 8.173576484362068 0.0
8.209758892476394 8.715513071423135 0.0
8.097084883671858 8.548851201381087 0.0
8.177989947800599 8.367872862579052 0.0
7.974142434808908 8.36779470623567 0.0
8.409012054919861 2.142624252464372 0.0
7.707002321497132 8.039129945341395 0.0
7.574653123518228 7.83895791570255 0.0
9.229858094382692 5.951357214361815 0.0
9.75307989876696 1.229893222503321 0.0
9.715811155868643 1.128779429890018 0.0
9.597960915003707 1.117058287635912 0.0
9.672063923518955 1.020806103150243 0.0
8.99090422125785 9.593878510105375 0.0
8.133165456134304 9.257620998029804 0.0
7.976779931497633 9.420725324095141 0.0
9.77231778617502 7.927819487779705 0.0
7.957213679655531 4.364530256281665 0.0
9.609903116082736 8.403725680286847 0.0
9.724891358972584 8.388392708395173 0.0
9.687487059868507 8.495935345161797 0.0
9.810055520269009 8.494090598382963 0.0
9.755967487162335 8.599790818513082 0.0
9.645698986824481 8.606121319182705 0.0
9.721376049217765 8.699989876681524 0.0
9.773009257015609 4.884557953188837 0.0
9.830105798750992 4.796546393900876 0.0
9.775335108731761 4.686093304257503 0.0
7.455611517737074 3.730099283949135 0.0
8.906943567829634 0.4197477661467797 0.0
8.980613334153533 0.5814185917581446 0.0
9.081059111759728 0.4263421860552371 0.0
9.821654809259165 3.576985724143072 0.0
9.761309244784803 3.4792267780002 0.0
9.763329553045937 9.353068233045157 0.0
4.463051839136694 1.164440352584939 0.0
8.0213168204867 5.283436382300235 0.0
7.89385412333227 5.290429544753158 0.0
5.806940001023414 8.583716119232427 0.0
5.88977793877374 8.96065112858812 0.0
9.177759062826041 8.25539130897928 0.0
9.626582559276994 2.05283181283147 0.0
9.747673294325121 2.064954301745188 0.0
8.775905508647185 6.951821187702613 0.0
2.3581644273991 6.029034686663493 0.0
9.777798009058461 9.548066962498762 0.0
9.737129197219856 9.662299853506903 0.0
9.615080366030512 9.683349544763068 0.0
3.315839678697904 6.042943273456425 0.0
8.915083018115329 7.937748428923896 0.0
9.489832173860055 4.712364754630572 0.0
8.118313727862493 8.013944064029838 0.0
8.902248750797776 7.67372145952523 0.0
8.954075939212636 3.463080912810881 0.0
9.45247551997678 2.133243108303608 0.0
8.311151553157742 8.899233004613622 0.0
3.28672004268868 6.826745674539142 0.0
9.86008383798735 3.468233656255824 0.0
8.389990589860254 1.947086063498656 0.0
7.144231739553659 5.329544660076687 0.0
9.654500729007207 7.743301971143119 0.0
9.761920842881946 7.740144345898896 0.0
9.692820773976567 0.2651585113981998 0.0
9.690951720399688 6.100517071814821 0.0
9.775704281989471 6.077882312279847 0.0
9.823117117198079 4.115168542267924 0.0
9.764391943581737 4.214465954230587 0.0
9.659455011849253 4.218716850797838 0.0
9.713462125022623 4.30742830316693 0.0
9.849638067150842 4.208845651573708 0.0
6.376241713254513 3.858766051594979 0.0
6.274931849158213 3.701528298009006 0.0
7.097780104117746 1.926449727602711 0.0
2.457742027508782 3.810157622192786 0.0
2.963634206580268 3.740748099915693 0.0
5.065585416063965 5.544355730437482 0.0
9.783560252464587 7.566507987677117 0.0
9.825819294611026 7.470942204664841 0.0
9.799976114123012 1.01659516618323 0.0
9.745559590633832 0.9150866860898854 0.0
8.20473400632469 9.495828670767946 0.0
8.784586030320169 2.054461500762216 0.0
8.758471587067168 1.888286802854785 0.0
0.9188935087347281 8.510730800272478 0.0
9.674192026048217 9.20389587377276 0.0
9.796314981283475 9.185916994648775 0.0
7.206882433199502 5.452024361489832 0.0
9.773927048949279 6.334665846819535 0.0
9.830288393591173 6.225300227041885 0.0
8.25177349297509 3.282767705830209 0.0
8.099233469407428 3.304040153764131 0.0
9.607860512870598 4.315652630490023 0.0
9.403674738018715 8.367349042046314 0.0
7.611756786273919 5.018691202305147 0.0
7.549513964643336 4.923310232561835 0.0
9.80986724662116 0.2915868356190958 0.0
0.7757562810577034 3.504187313079081 0.0
7.659562100664981 4.698467529240196 0.0
6.539424975891206 3.541729955691742 0.0
6.717348880400739 3.55221857686142 0.0
6.836337579501807 2.417476958454302 0.0
7.096480496160066 5.959124656438389 0.0
7.189742782777612 4.377051328076039 0.0
7.051723187622053 4.38470822973091 0.0
7.125489805519186 4.497018383456762 0.0
6.994915621927777 4.501504591168814 0.0
7.056755276274058 4.607929817497045 0.0
6.932937068803914 4.613249390039674 0.0
6.86629288290367 4.50541343988659 0.0
6.80427099775847 4.617607827251794 0.0
6.739195362053689 4.511124964201849 0.0
6.677260697693361 4.624288827143181 0.0
6.996760608675822 4.711715831373894 0.0
6.316045249462968 0.6456945497683586 0.0
7.321834163850416 5.816449323512759 0.0
7.833101485370825 4.390058096386987 0.0
4.996572652976738 4.498711166259074 0.0
5.112334577457371 4.663858846723513 0.0
5.271923064784868 4.629759173373871 0.0
4.93773508827367 4.668006487116195 0.0
5.348137647919096 4.485934621930562 0.0
5.413454827497575 4.62999925573761 0.0
5.356581113747675 4.770594395332836 0.0
5.013422223730484 4.793321773780133 0.0
8.58674425943957 0.9312335381466886 0.0
8.776450596582496 0.9362399987293505 0.0
4.783496233934828 9.486061758876032 0.0
4.544176394620909 9.034071856445296 0.0
4.082330493623582 9.015765881393772 0.0
9.820867469965414 7.285959215547852 0.0
9.852697883440127 7.166089674802766 0.0
9.260999083164238 2.971390964911171 0.0
9.197701900169713 3.073162109379564 0.0
9.31960210441945 2.867465579641856 0.0
6.660951583415121 3.383363199709994 0.0
5.210469976037585 4.761678854423166 0.0
6.740780285297665 4.733615686805694 0.0
6.611362405615225 4.731958642073806 0.0
6.549091884465382 4.629620704100811 0.0
6.491761716522486 4.733409494449344 0.0
6.425259228542098 4.640546096196947 0.0
9.715556659367534 2.986725573570596 0.0
3.710524324925069 9.463213827486557 0.0
4.768537031214573 4.727001037865238 0.0
5.039413681704655 5.378508462165627 0.0
5.188746429211535 5.440476671296013 0.0
5.172214816037712 5.298914527247826 0.0
4.469063601436893 3.667917323494335 0.0
3.799121596584382 4.741629285988305 0.0
3.661085664896249 4.442847704416992 0.0
3.316563386321876 4.380147387454913 0.0
3.802087298647255 5.26743535640985 0.0
9.738116341343215 8.047178982429934 0.0
9.85106076399546 8.021725551312715 0.0
9.837581050304836 2.844176011307251 0.0
9.664579962075123 4.402853107737106 0.0
9.76433159763034 4.39807801415352 0.0
9.718924973226878 4.487825491046641 0.0
9.826405563645343 4.494594135148365 0.0
4.931068003413168 6.359330991212394 0.0
5.130175746947236 6.201075257041828 0.0
5.143884286052002 6.445382329515047 0.0
4.953395875296406 6.628748468717369 0.0
7.833019185167153 5.400347121613631 0.0
7.766636138801143 5.313240048256084 0.0
9.767038723422333 4.578090619166644 0.0
7.315369355237483 3.441501197259575 0.0
9.556068971301514 0.2347811136726856 0.0
5.733871280791703 4.444861510772459 0.0
5.828809543126846 4.569791247698539 0.0
5.986701526182213 4.562881783985375 0.0
5.912543327921148 4.692966271273211 0.0
6.052130330528581 4.682477327897978 0.0
5.773525984744635 4.697697018456535 0.0
6.121646311546238 4.572302645403103 0.0
6.182349700936326 4.67713231096357 0.0
5.846371383601797 4.808939734754761 0.0
5.117807918383606 5.974361363083184 0.0
6.256132501905665 4.575863546153224 0.0
6.324770064521816 9.645040261272253 0.0
7.345522892050965 4.12581088034536 0.0
9.338523512844539 4.854480276600515 0.0
9.286984287289403 4.959628690044808 0.0
5.676298026114105 4.589279806918992 0.0
5.631257891894775 4.722749088404111 0.0
7.970415275563177 5.621040275419208 0.0
9.565118337557308 7.081391220827488 0.0
9.626201005045262 6.980441083020495 0.0
9.733729506193331 6.979928568877979 0.0
9.684556253529976 6.887102896543928 0.0
9.780785815410074 6.890287441101827 0.0
9.740054813822885 6.794211367612523 0.0
6.462628988057306 7.629921412015864 0.0
6.692564520952154 7.473594130811262 0.0
6.927983108788191 7.570982428592125 0.0
6.899878641134941 7.329306734748538 0.0
7.117542472438434 7.416951094809493 0.0
7.089537168123128 7.186691566729968 0.0
7.296585396514727 7.275888419524222 0.0
6.879678873774065 7.097443005287856 0.0
7.063454637059129 6.967740076426161 0.0
7.329105042924355 7.496317641003757 0.0
6.867084781778411 6.878842928865059 0.0
7.494278796275744 7.351949197351029 0.0
7.462564159480594 7.150140034494138 0.0
7.644835001206406 7.21506678718646 0.0
6.682478929414216 7.008358327294905 0.0
6.449199855715812 7.365660640952548 0.0
7.548139855358765 7.57299228324251 0.0
7.008502809092701 7.844601794812628 0.0
7.371739019901781 7.707688433423657 0.0
5.665345294602155 5.290628720253272 0.0
3.987583013016546 4.486920698115711 0.0
8.893480480320447 0.7785000884179994 0.0
9.715485963651112 0.5955299613117169 0.0
9.761785841543585 0.7048670948649375 0.0
9.670304314877074 4.578896619304786 0.0
8.058509626083154 5.744161686650483 0.0
6.181795443628869 5.462040811515966 0.0
6.256771804808641 5.338464817889848 0.0
6.124070400983443 5.352376180901929 0.0
6.399679261813415 5.349186390888865 0.0
6.477776305607503 5.46505688468465 0.0
6.541624525938461 5.346017118512589 0.0
6.673064575428321 5.339051516933525 0.0
6.599301548842115 5.241958624987057 0.0
9.573774011620444 0.815274945835158 0.0
5.86493292693426 5.877588788523632 0.0
5.552663040119136 6.957487930464628 0.0
5.535080960199246 6.663033131707637 0.0
3.708603689392072 0.5979254716153909 0.0
3.31896983256719 1.188583855309964 0.0
3.895664898001925 1.128137111173669 0.0
6.363360407965353 6.032416442205533 0.0
9.445959758065749 1.070139246426051 0.0
9.50632172780449 1.214052376665338 0.0
9.441030033980638 1.325047485624912 0.0
9.295799464644857 1.341410624832976 0.0
9.184164107767781 1.461677744200096 0.0
6.407191016756832 4.407273313799791 0.0
5.544591888593027 0.7652641669375747 0.0
7.883090151006535 2.497506182548758 0.0
8.073420508370992 2.120510489750234 0.0
5.494822040671399 4.732314720081375 0.0
0.8986976806403217 1.464611451578306 0.0
9.536325549598013 6.83286654168725 0.0
5.972289519322897 5.727532110854501 0.0
9.82203607053145 9.443411729566549 0.0
7.263199949874008 7.064207941227515 0.0
7.233659553805083 6.853135694774254 0.0
9.793310082768443 7.072747972018893 0.0
6.734168931095253 9.67499220075154 0.0
6.941134861034159 9.382328333169653 0.0
7.285822522704258 9.443989747444657 0.0
6.576263515512108 9.333035011158342 0.0
7.160560566479093 9.127732577621245 0.0
6.218711947378506 9.298064908857533 0.0
6.432383355119106 8.980985203293491 0.0
6.795390278360442 9.046043538032663 0.0
8.54677014121837 0.1957422484480979 0.0
8.528696320820908 9.804850950580938 0.0
8.42644965647489 9.604735484095604 0.0
8.010239224104339 9.715048083583248 0.0
8.644359648763341 9.628432815860457 0.0
5.344212921686536 5.526744195650314 0.0
9.760936589662048 7.38409687515441 0.0
9.128187788393989 0.1445485608215519 0.0
9.133307661752394 9.854833215426817 0.0
4.867351616228264 3.944459575003425 0.0
5.905323253270366 7.385600364255367 0.0
5.909045412185362 3.361969954191194 0.0
5.80580919758911 3.569999290452344 0.0
5.578230704221431 3.587842862412673 0.0
6.013352753603037 3.550699073477782 0.0
5.936624955014758 3.721630401607248 0.0
5.735413275357409 3.78528948606432 0.0
5.512538847486775 3.794760621907932 0.0
5.360571639388366 3.618649018042938 0.0
5.134141179590394 3.459385929220745 0.0
6.167399567008798 3.367365990358096 0.0
9.766756262206602 8.291756450136036 0.0
5.486063578307141 9.64505925252771 0.0
9.497624614180321 4.328873442170357 0.0
9.811387324954623 1.570516917365688 0.0
9.389210081887331 4.69150887571586 0.0
9.704395728912932 3.754226393630331 0.0
9.808172776193384 3.748784464356272 0.0
6.549660911932182 4.839747932361234 0.0
6.757415124099031 6.077939876843736 0.0
3.805578542126494 8.040840085419626 0.0
4.232580149691158 8.198659880701744 0.0
4.559765382564095 7.87091698350757 0.0
8.3829075948167 0.9495097054886067 0.0
9.8571301061408 1.456307792614791 0.0
2.005900212453279 4.535525273813588 0.0
1.85904408608185 3.956445706785572 0.0
1.979307922430775 5.474327285927505 0.0
4.387923194305381 4.427191306527721 0.0
9.429258370703248 8.873693567695483 0.0
8.99196583083892 4.664567567015693 0.0
3.050357122593155 5.368999067452741 0.0
2.861107385476722 5.785089447130829 0.0
5.005058958272409 3.711196438448062 0.0
9.8972295764837 2.755337284632969 0.0
9.581048890980513 8.853909321617065 0.0
9.668838904423916 1.762418716497425 0.0
9.716576458425756 1.852218615166234 0.0
9.799043132681442 1.780583141193779 0.0
7.661868217848455 2.880323287492419 0.0
6.780136552904057 5.443858690999834 0.0
6.489544866845868 5.913957888434588 0.0
6.880149522020364 4.134257616716107 0.0
6.970134365280068 4.264072319341612 0.0
2.225481516813409 9.348422240784 0.0
1.843418032490818 8.641605249943353 0.0
2.198000805242772 0.6459947140825729 0.0
8.740020306282506 0.1903932731609072 0.0
6.86957996016679 4.720776242956433 0.0
7.430920333506809 0.2702852342693345 0.0
7.302066064947383 0.6134316505458445 0.0
9.305398039877746 4.64854361125207 0.0
4.078151380865065 5.203425462519088 0.0
4.080704120371218 4.778853303303787 0.0
8.052525541571825 5.965483159581719 0.0
6.367194027835946 4.754896037842673 0.0
8.604191121620719 7.648182513679963 0.0
9.546446695207845 9.234701521982952 0.0
9.018652854946867 3.351011585453845 0.0
9.143853648154607 3.350173119015413 0.0
9.067079866763024 3.245174561579149 0.0
8.991492136849105 3.135578770028028 0.0
9.29603967712795 0.1426516429033488 0.0
9.392428271030795 0.2506306237151588 0.0
9.223973843394301 0.2912279164401488 0.0
8.39375191941536 3.018777714002827 0.0
8.4836475746111 2.88135207267795 0.0
8.741089053946197 9.821127577434911 0.0
9.803966507713174 5.448064463539533 0.0
9.748132240148552 5.359371181503531 0.0
9.850258990973547 5.355211921626304 0.0
9.7965346514158 5.266762244994661 0.0
9.84142096963129 5.171050273734619 0.0
9.738843612428232 5.167483913244169 0.0
9.64168976006725 5.359875132194057 0.0
3.335917453809221 5.671837672982919 0.0
6.962669142802881 1.683222554707996 0.0
7.365210844496719 1.887492842536114 0.0
7.517378971174123 1.677983072937792 0.0
8.00383870208024 6.089394601875145 0.0
1.725435941000569 2.759295503019395 0.0
7.907977929549089 5.102827208603365 0.0
8.052861051278896 0.2683271125209605 0.0
9.80169732768395 3.385443381464333 0.0
9.831597648680848 3.28491948963525 0.0
9.736335895866404 3.316207814499244 0.0
9.597256128490281 3.756160701977744 0.0
8.865819925321706 3.366235906378775 0.0
8.489614436807788 1.757152185195495 0.0
8.88089641144391 1.078983279100314 0.0
7.430923851187758 9.724389499796425 0.0
7.584252919312249 9.509430586267927 0.0
9.744026095940516 2.247117754488748 0.0
9.729961521243718 2.659836747108116 0.0
9.790866569780063 2.558993767350471 0.0
9.736606445116795 2.455104424879619 0.0
9.846806182714698 2.452157456754448 0.0
4.518102112052724 5.141350889745285 0.0
4.519880229178207 4.85678334497067 0.0
9.7302407894617 6.434012603549242 0.0
9.787537474544765 6.523591663056312 0.0
9.744262337067932 6.617499601377625 0.0
9.8406238811518 6.41591236129004 0.0
8.914967252734657 3.579360039684312 0.0
9.154797282599406 5.670753066089419 0.0
4.228839454580575 4.612979739018002 0.0
6.095037541675208 4.42126627187728 0.0
9.304166983880842 9.864854494751789 0.0
9.406445527105628 9.759007358529582 0.0
9.256225114941945 9.700832989525724 0.0
9.796206564635622 2.351215649506205 0.0
9.849373673349081 2.25090453834006 0.0
6.332048155295931 3.511675163099286 0.0
9.069679774213784 3.022879178706259 0.0
9.070599961450037 9.055284879641471 0.0
1.808685691036764 6.331557276533421 0.0
7.120156826652838 4.698481230214924 0.0
7.052894345811342 4.799848851879358 0.0
4.739957520484086 5.369107149361242 0.0
9.389197839958292 7.197139943834638 0.0
9.046688232613976 4.560364044038737 0.0
9.162685461967492 4.562194096410666 0.0
4.227377821420887 1.564128177298305 0.0
9.201090975245227 2.794301402811909 0.0
9.251941624303948 2.677556975242327 0.0
9.186758273070138 2.563916005021366 0.0
9.317609833868786 2.560335260954038 0.0
6.57599191748324 2.437689779955877 0.0
6.305556560534859 2.459112595979303 0.0
6.981058048792093 2.642476994448363 0.0
9.886113463139504 6.510498309609482 0.0
9.250462794607717 6.221362629571698 0.0
9.305373999084068 6.108271307139882 0.0
9.390477915810829 6.228015172491477 0.0
9.44452571968143 6.114582165110393 0.0
9.502105740270528 6.197677857389309 0.0
9.31559697209813 6.331647407124485 0.0
9.370938253597153 6.437386206819511 0.0
9.594764406124872 0.1099001288712305 0.0
9.602872681151728 9.894988341116305 0.0
9.622661196143387 8.076680696281343 0.0
9.769069277144705 5.9102532189237 0.0
2.615076109785583 8.807551523115547 0.0
9.658920005405456 5.730890135691177 0.0
9.76063135061807 5.720703211793342 0.0
8.63963723169499 7.177334225227945 0.0
7.841904391869763 6.41346852896409 0.0
7.764520718520185 6.297267738834625 0.0
9.546492996136271 3.465225175657335 0.0
9.25600964352143 2.219157062786616 0.0
7.625057159226293 7.012987957636062 0.0
9.529121062829038 7.730283486008674 0.0
8.329887090625894 3.845190321147069 0.0
8.265841850823831 3.95687001944245 0.0
8.402006523775544 3.947660780406651 0.0
8.128436391670505 3.968543393650448 0.0
8.46705122470662 3.835767362024195 0.0
8.218867047074696 4.063481375518748 0.0
8.089763413611255 4.08062363292928 0.0
7.939578083855268 4.111915744184436 0.0
3.74991304509639 6.615676756107112 0.0
2.627714335615619 1.170993030860914 0.0
7.046129971268607 6.759930788612616 0.0
8.534603732661887 7.486325780553722 0.0
1.569381386467569 2.042794535871475 0.0
6.228703743210918 1.986421863690014 0.0
6.467030855792859 2.67190498312861 0.0
9.272246093269825 1.975478263632296 0.0
8.05269609263041 3.854522845257449 0.0
8.008595521536957 3.177870309354594 0.0
7.929796740504207 3.350600835935766 0.0
8.048703574664067 3.449582532910417 0.0
9.72947480375618 4.973926800124758 0.0
9.784850360535604 5.072865219810449 0.0
9.896036387646596 5.069261557893528 0.0
9.633140953203334 5.168645132864771 0.0
9.558102991128836 7.602453108835212 0.0
7.278758746505716 3.994295887299482 0.0
8.306681733482405 6.936428510427854 0.0
9.487163072013963 3.757777670075558 0.0
9.532950522284125 5.359403698944497 0.0
9.816036650072329 3.927268437107025 0.0
6.173882586235392 8.734645960664665 0.0
7.972518459433741 5.003005338485466 0.0
8.398453459336153 1.601072016988848 0.0
8.97460527296194 4.040886705742754 0.0
9.037941657530773 4.143578781749325 0.0
8.849604200183613 3.828506169652706 0.0
9.545296177100065 4.042698359132156 0.0
8.595941796785514 5.806754902023664 0.0
8.65588412428292 5.694192853853139 0.0
8.723710665131787 5.801528918332044 0.0
6.861288985046249 6.673713222735126 0.0
8.87477249219366 4.664500928777609 0.0
8.72385765226959 3.608276264790996 0.0
7.145228858696953 5.573648565429618 0.0
7.282945121585866 5.558559688509987 0.0
9.224761401603633 1.602363370249125 0.0
9.609115686587552 2.986868833620756 0.0
9.633989947851914 6.628120633848649 0.0
6.046214325132457 5.45615093027661 0.0
9.017014346798927 5.271996636983457 0.0
9.070824864071271 5.168510834798647 0.0
9.189021391555556 5.166867900487267 0.0
9.123328759137758 5.064718588163964 0.0
9.240587446378079 5.06459430516883 0.0
9.250848280531756 5.267364371053135 0.0
5.773050603406019 5.7192906317521 0.0
8.576466432793914 4.3559007860436 0.0
8.634627802680399 4.253467736542067 0.0
8.461790117175607 5.591735227444779 0.0
8.907610717370224 3.713397213891439 0.0
9.80665594564509 5.628066492225966 0.0
8.985935132601089 4.455263493464225 0.0
9.00640209566022 5.067597672073404 0.0
9.833659276096986 6.976519563917422 0.0
8.0283368553477 4.687271895436317 0.0
8.326580191759327 9.127498457128247 0.0
8.650637373791266 5.07513089931925 0.0
8.701067313435203 2.700069743477523 0.0
4.825307249916392 4.884175191874744 0.0
9.418335984190309 6.858444798015129 0.0
3.91434687300816 8.542956908935874 0.0
5.569239724399552 2.064135034637056 0.0
5.234271567762738 2.128974435011933 0.0
5.757920427527626 2.312422707096966 0.0
5.43365689737979 2.427455772745759 0.0
5.673210219624612 2.602111218343444 0.0
7.214258468265766 6.652783071431555 0.0
9.823626269633962 4.30685540664529 0.0
7.96996639420014 4.794005510174826 0.0
7.616003332725032 0.502676560965646 0.0
3.050634530589821 4.659174799474146 0.0
2.870894249800723 4.246924313393336 0.0
5.285393339952368 6.079037173753393 0.0
9.439954241218905 4.23581687956071 0.0
9.67709722097145 4.710772408106511 0.0
7.40767785509217 4.259947873553335 0.0
8.396202587439676 5.486075637998701 0.0
8.323689688705493 5.372061002264632 0.0
8.191312386254125 5.384662546230823 0.0
5.304380054816289 5.369675374029755 0.0
9.093848379546637 4.047647920840374 0.0
7.916313220758624 3.045043876114836 0.0
8.435854831444637 4.144861908356168 0.0
9.060262453079693 0.7340576053322918 0.0
7.053195520344596 5.238809779682351 0.0
9.621762679347093 2.45205452967588 0.0
8.410730269104743 5.287995309529392 0.0
9.655094569234972 3.472720279371932 0.0
7.982140513923982 6.667914768024983 0.0
8.402690325256646 4.883576657130221 0.0
9.17488654147479 4.962006474835693 0.0
9.013188196102961 8.49700148123058 0.0
9.795977244531603 2.156818021002043 0.0
9.893813711206834 9.545820400859157 0.0
7.965349232662289 4.250048884270795 0.0
8.644264557989125 4.874751532150782 0.0
8.215430976121077 1.26077208565765 0.0
8.379717637669398 8.37324652769609 0.0
9.320026533461409 5.559861899725609 0.0
7.885778178744864 0.4977439426642278 0.0
7.547066983926719 5.125166613071239 0.0
7.657542898944819 5.122996245335209 0.0
7.423918840193691 9.000935553397358 0.0
9.854133000712425 5.541931969512857 0.0
9.328508174398952 2.101486405523264 0.0
9.300749600926641 9.530012105354274 0.0
8.130307182491519 5.277079344947874 0.0
8.346752967392757 4.987627363826086 0.0
9.118404185029991 6.007087846617186 0.0
9.048232213728614 5.89431792713258 0.0
9.088340967655858 5.576242562571367 0.0
8.094762487139027 4.789727191449318 0.0
9.915265904493378 5.749591413470928 0.0
9.92169805280126 6.154216704502091 0.0
9.918022441582268 4.549125436287157 0.0
9.919332362905616 4.849536560132457 0.0
9.914800786693318 6.750595509794719 0.0
9.811792900437824 6.703950687575952 0.0
9.900643083988882 3.749855087409844 0.0
9.912423171222734 3.043228996968949 0.0
9.91892875832665 5.949999999993851 0.0
9.913300070218703 3.960831593817277 0.0
7.709347001661226 4.444236534782706 0.0
7.479443107717332 8.071637285053104 0.0
8.839057072155848 6.807845119358974 0.0
8.972330068019902 6.78765448182788 0.0
8.542093772125282 3.941452413628317 0.0
8.279144752968262 5.930387616620717 0.0
9.393455876855919 4.973162505621418 0.0
9.507123333872533 2.855087674515822 0.0
8.77504684283825 2.317347145885344 0.0
8.394133129040345 4.464046960801843 0.0
5.725509852450801 8.210843960481027 0.0
5.62632390239664 3.967637659758752 0.0
7.910815814627989 4.900765971697654 0.0
8.595808444085467 5.590040244353608 0.0
9.705160502006024 0.8106158419444889 0.0
9.82021247904746 0.808810893177099 0.0
9.218352146075844 4.447736986422823 0.0
9.20781892622228 3.858281726888132 0.0
8.713609974387523 5.178241668554946 0.0
3.55755059259364 8.921522400238844 0.0
9.59122926011489 5.452844834281716 0.0
9.70565100407009 9.77887811062354 0.0
9.826938454219809 9.74303055702321 0.0
7.238962096855633 3.278078153406256 0.0
8.575609105166194 4.567807831727537 0.0
8.936449841121737 4.765835458965493 0.0
5.59323463391086 9.248527978398117 0.0
5.280809113285124 4.886132326418428 0.0
9.328132730893216 6.544753806716806 0.0
9.026944889277736 6.67247283515637 0.0
9.81946239021469 3.007926663525007 0.0
8.677633568960493 6.144049349297466 0.0
8.33427489656924 4.571212803519522 0.0
8.55734024448315 6.382535186588269 0.0
8.692399379422756 6.372347713955898 0.0
8.495817478252626 6.503308565233578 0.0
9.905494734661673 2.544078755559835 0.0
6.177101405266569 7.228490244483556 0.0
9.825373011845263 5.807482724503027 0.0
9.808678508609606 8.118683092442964 0.0
8.397717712407108 7.08010313863416 0.0
7.428555529689225 4.935946611338556 0.0
9.575504958128711 6.125633853639113 0.0
9.154066996197898 4.146562596982661 0.0
8.074381802159323 4.337569667261167 0.0
7.018337246891919 8.843475095716133 0.0
7.970627172560641 2.658650028065857 0.0
7.382546388883145 6.723381543491632 0.0
6.822972334933889 4.884555620881615 0.0
8.343732976791593 6.041576709398377 0.0
7.743680217306919 8.423336160305476 0.0
8.505717922983454 1.115022897794028 0.0
9.113973198216474 6.992972408167606 0.0
5.818882632841168 5.300437503812764 0.0
5.951991891717714 5.279516346785062 0.0
9.450183479138845 5.92934813870612 0.0
8.783346541536119 5.48419035750989 0.0
9.38074895894124 5.65076274999803 0.0
9.513658728876734 7.193620441323493 0.0
6.396040948797887 6.776064256962667 0.0
5.389661780244388 4.89715084345563 0.0
4.473247649068957 5.85935163892416 0.0
9.249586607512612 8.37680799459232 0.0
9.103796366487646 8.379197231055114 0.0
6.274057301184156 4.87985402946409 0.0
9.259628836118232 3.561431822636308 0.0
4.037922477011971 5.489409780163391 0.0
5.62712958624254 4.893925433488392 0.0
8.806426003347967 6.133410188141932 0.0
9.53304466499349 9.59279975429444 0.0
9.542890959420024 1.966631379116419 0.0
7.459736176874619 5.863847835420528 0.0
5.937613117200432 4.89232797168023 0.0
6.171611131472617 4.879541833448487 0.0
6.100695199816815 2.291172318314745 0.0
2.315194906726768 8.081958163666464 0.0
6.878489987598286 5.148099521847569 0.0
9.105264414399338 8.639184652727645 0.0
9.20047261316883 3.457820810661327 0.0
9.895329010385955 7.55944047105717 0.0
9.912742873006831 7.76210330502246 0.0
9.37761459375249 3.168397068877758 0.0
8.946121261512507 6.345629828835438 0.0
9.918632496443566 4.449809517365367 0.0
6.848211525651934 5.945010613369067 0.0
9.915721525903255 2.047407395915179 0.0
6.117255841708726 5.163321965161054 0.0
7.276595248786602 5.347247322210079 0.0
6.32682869954104 5.23674259421017 0.0
8.785886448438022 5.692775375342819 0.0
9.099994401883361 6.776698531382792 0.0
9.913397459621638 0.2499999999998165 0.0
9.910352525643928 0.4481571029410266 0.0
9.907850422008579 0.5479735220323012 0.0
9.911983631350465 9.24778487019403 0.0
9.917634740384067 0.7514684821956668 0.0
9.195214232985496 3.254172408378337 0.0
5.000896927376288 1.846006038077654 0.0
9.917172478547403 8.250155740683276 0.0
9.908120476950126 1.742986232208194 0.0
9.914524635720774 1.949567899316728 0.0
9.907358878377153 9.145625165175748 0.0
9.917695944922635 8.949999999998397 0.0
7.648387553139914 5.325741673607362 0.0
9.605343588986079 4.130627398479715 0.0
6.648113233057817 6.774798386229164 0.0
9.910347203087213 8.446729917003672 0.0
9.913623694530468 8.548470085896316 0.0
9.9201245863254 1.536225488581779 0.0
9.906538426683255 1.059019360781604 0.0
9.912867352010919 8.74999999999809 0.0
9.799662981388353 8.79550485462418 0.0
9.831828680383174 5.99966894118311 0.0
9.91414179906643 1.263025320602998 0.0
9.920690092699912 7.240982963665807 0.0
9.385889285950551 2.235126904097426 0.0
9.28133998925606 8.00415195851526 0.0
9.817074723108401 3.172398890123306 0.0
9.482030285089927 7.512954023388035 0.0
6.682432918504054 7.233889573028878 0.0
8.528699633246763 3.260502457553277 0.0
8.91699963742029 2.327016692708648 0.0
9.267676068834481 3.954520684561369 0.0
8.70811637467455 4.974101624783084 0.0
8.18184214270768 7.816666208279135 0.0
9.690393137288163 5.264344933127836 0.0
6.937111790104696 5.245184991960528 0.0
5.895846026722989 5.174232967273284 0.0
8.281683356622615 6.400073017261236 0.0
9.150883172924027 7.444273543454419 0.0
5.430406600793122 3.390815886517273 0.0
5.049583827974758 5.697634876048387 0.0
8.3966710383105 3.495813899905868 0.0
9.007538428392454 8.046563579784266 0.0
4.645155158868719 2.637132843684674 0.0
4.887444326771336 2.30020425915506 0.0
6.483736782775559 4.522536327482678 0.0
7.843169154548308 8.2116075844056 0.0
5.06295551628385 4.901632590583318 0.0
7.201400991012747 5.138239336380897 0.0
8.519791031104612 8.848807089071627 0.0
8.658623737989732 3.031313729049854 0.0
7.585566208322493 3.629882964874684 0.0
8.411818469596405 6.834326722716643 0.0
9.172363528634236 7.669230647622864 0.0
8.85455683341768 2.682483055215344 0.0
9.359398739738925 1.631421337140716 0.0
9.071793864444992 7.337030604117359 0.0
6.968394563521436 3.712808894519514 0.0
7.899236117684646 7.094583340182754 0.0
9.54362864504834 9.781852543872333 0.0
7.151298729743687 7.644795130415299 0.0
5.452218361466201 5.186873761308322 0.0
5.517642289161902 5.293540933999446 0.0
7.802500357665464 5.978295671754199 0.0
6.594850839687122 8.491429270558893 0.0
6.029132431949566 8.294997405201931 0.0
9.31286590869111 0.5672913838331921 0.0
9.25238720319541 0.4415953739444106 0.0
9.550589523211062 4.228044955453704 0.0
8.748611832783206 6.250900951984038 0.0
7.566980108995873 3.995148257893202 0.0
7.426142759241261 3.996743578498081 0.0
6.478912513785404 4.000296412419969 0.0
9.30435638148753 5.168210982711592 0.0
7.542154188520517 5.752525075248498 0.0
7.219033852073297 2.139582470800704 0.0
7.370913620388047 6.545121498197235 0.0
5.226731036024996 5.187572666585561 0.0
8.515591031124366 4.462223215179979 0.0
6.762864307079274 0.3078036604979366 0.0
8.587432696997471 4.977010533175154 0.0
8.703948448756302 8.815629076400704 0.0
8.081003990931544 7.370949680119862 0.0
7.424404567669909 6.949730915714445 0.0
8.578903262311433 8.377992954045473 0.0
7.301258690263783 6.106184350645308 0.0
5.991600556904204 3.99820087171043 0.0
8.203048538477193 1.601044215405025 0.0
7.289972483120081 4.572350254111052 0.0
7.714697186439165 5.420586967696794 0.0
8.918853780709807 1.841796898567452 0.0
9.919941345877513 4.749808449067644 0.0
7.245589454939737 5.94251251443003 0.0
9.258480524497795 3.358952871140391 0.0
3.705877615124628 5.574038727593425 0.0
8.287096858129765 7.962370605242409 0.0
6.799629860952143 3.705385600481528 0.0
4.146753450763018 6.544154457143895 0.0
7.413973555029582 5.545687501585183 0.0
8.466524978378082 4.980481756569235 0.0
7.336312153537934 2.337983522449311 0.0
7.695505222753409 3.747498713679684 0.0
4.898236813123799 4.795853653580084 0.0
4.59779105899602 1.896916774247134 0.0
8.560170375862322 7.072369101894893 0.0
8.386150468360862 2.449771437140704 0.0
8.41200018115259 5.084601315536367 0.0
5.102189912301071 7.621598618277815 0.0
8.336320418935243 6.71651223072348 0.0
5.081745734883095 3.977838926197614 0.0
7.63590698378166 0.9500570055008507 0.0
7.743369677149255 3.051233984704873 0.0
5.357527459690566 0.3809996753407537 0.0
5.967373112873382 0.7731113464301924 0.0
8.169449265206127 6.666271947462212 0.0
5.95122726745053 5.55758205410881 0.0
9.922289489207834 3.53923011719877 0.0
9.39154684476555 2.659037023454942 0.0
7.701415639167884 7.690060291860976 0.0
9.819179654793023 1.329863870021845 0.0
8.358229579054417 6.506108206863729 0.0
9.269720555169467 5.657096143475924 0.0
4.473187658045934 7.435037860084884 0.0
9.65807158077373 3.255496360750368 0.0
9.605155446454205 8.713645566904637 0.0
7.097383547728313 5.141197376985936 0.0
9.812212483832656 1.89920712759492 0.0
9.83875570675407 6.81603549325055 0.0
8.926246869879279 2.079976511571457 0.0
9.166785856141402 9.169070814302419 0.0
8.763479010228052 1.587152667342957 0.0
5.957377924852992 6.404530806530254 0.0
7.14506854375872 6.10342416684208 0.0
5.672595070581394 5.164323323112049 0.0
4.899782787268781 0.3801727265981219 0.0
4.447133848117348 4.673614099606824 0.0
7.044865074789195 3.253639989243549 0.0
9.818461337102992 7.819456450952447 0.0
9.925334577033155 7.954012377173311 0.0
6.352907898232792 1.173665225954276 0.0
7.351721385581032 5.660361289755705 0.0
9.337367583861807 2.76534436379692 0.0
8.693118347802024 4.360254099729149 0.0
9.476812970101324 0.3524826622168163 0.0
7.109868985890334 0.9024224571333925 0.0
7.899106846231403 5.511805431542581 0.0
8.352799544476607 5.187887629361129 0.0
6.957483547582747 0.6176251309213842 0.0
8.099559500483094 1.412323841044818 0.0
9.913030944540278 0.8542404645334569 0.0
9.143075088381442 8.022165366829135 0.0
8.819861450593166 6.356592599428041 0.0
9.319444417409162 1.49938505915629 0.0
6.490262520326714 7.118204362551877 0.0
6.490874470087819 6.582907761235813 0.0
9.82506653058937 0.6146757679104559 0.0
6.803129818897624 4.419048038171804 0.0
9.840901379354312 0.08198751964190581 0.0
9.839740374244226 9.918356239418472 0.0
8.551927134544655 9.449788917425456 0.0
9.92097857388158 3.249999999993177 0.0
5.797087413057367 7.077351493358238 0.0
9.255412859987286 6.433984412022419 0.0
8.668174522249984 1.740767926084485 0.0
9.920991430240607 6.25262219124529 0.0
7.57275248448898 1.94367954756322 0.0
8.052865444445507 8.19900054463639 0.0
8.748697149245206 4.25201068974208 0.0
9.158270227735827 0.5542256343091421 0.0
5.997487767477439 4.787924707603557 0.0
6.119759900601896 4.78043793682227 0.0
4.353034750397793 8.619182743639561 0.0
8.721093521611476 5.588932824583312 0.0
5.717101151444983 1.123034066822819 0.0
9.825602081347064 8.68753399402474 0.0
8.005502510832988 8.7824052910506 0.0
5.548184234622668 6.408009287230429 0.0
5.77830300433981 6.598697187164234 0.0
9.613093825495433 4.50282172481406 0.0
9.928981132641653 9.74928475696928 0.0
6.613628176297015 4.515513362596662 0.0
1.822126723816303 1.297795131355289 0.0
9.514164594137375 1.43081427463862 0.0
4.735494753432723 3.698541604583975 0.0
9.52844959749262 8.615213629960298 0.0
4.660704511759056 0.7947595073298008 0.0
6.82340845160293 5.239926830264399 0.0
7.885938077030673 7.380147032865134 0.0
7.884599891021201 6.09005968568029 0.0
8.846834820720167 9.653276456345532 0.0
8.457777199486827 0.3851010632068662 0.0
6.66485224572131 8.771510767670392 0.0
9.091499342133352 9.708315832477556 0.0
9.824286725109655 4.976315293637262 0.0
7.848197684391786 5.632217046637356 0.0
3.88430598115417 4.225391362015386 0.0
8.776890759183289 2.809688928468134 0.0
7.393884285023409 3.59397875231041 0.0
6.927568893329758 4.396788356869783 0.0
4.96854327720728 2.662368428358774 0.0
9.1480130720193 3.951479613991279 0.0
7.071049729490975 2.38092990636632 0.0
3.40193058782919 1.686321186206593 0.0
7.612042194200681 4.815904436723407 0.0
9.043395868401339 6.888481825015849 0.0
9.098933057562759 8.152197681006806 0.0
6.058682303253315 3.857501492181965 0.0
3.707092669281355 2.986685502034343 0.0
5.113272509841263 5.189455016444592 0.0
6.960565857079232 3.416349532571279 0.0
8.755151527375476 7.649255597361291 0.0
3.393680865444538 3.679982303262531 0.0
3.117424600120088 3.35605258976247 0.0
8.530814041264104 5.488376426140491 0.0
4.820719767306654 5.106646490188182 0.0
9.918899263509473 4.144927088739744 0.0
9.918194630017027 7.447268230913605 0.0
8.461970084137805 3.144844565847669 0.0
9.924415919486059 6.949999999995354 0.0
7.184050152099684 2.72771667662237 0.0
8.834356715215904 7.801565642745232 0.0
8.689015446783005 4.145232831954543 0.0
8.490778532265319 8.234414357968106 0.0
8.63666290918932 2.83060276219705 0.0
4.61028976098935 4.741894230894578 0.0
6.314735925012879 4.003132559161639 0.0
9.20786580425652 4.67001723737971 0.0
7.141401229301469 4.873205425098625 0.0
6.235177809922153 4.774126344778935 0.0
9.12491895896937 3.145675090615719 0.0
9.255747684068178 3.162525801823036 0.0
8.312852272796098 2.290855459722148 0.0
1.449266720542303 3.363629101350872 0.0
9.525687840398492 4.800807314407045 0.0
4.829905263804087 8.14474456977717 0.0
9.09338914689732 7.563794106183232 0.0
5.389401689694107 5.283808684471545 0.0
8.530979415204587 3.029374286908943 0.0
7.901489077080633 6.535344047486632 0.0
9.218572924671975 5.760893551533255 0.0
8.562382833959296 4.143913974026883 0.0
8.62959127904665 8.974877485888243 0.0
9.408442441596518 9.62276529745719 0.0
7.5034765601713 3.869833107932387 0.0
9.842813436634783 6.600620949014236 0.0
9.826116984327193 8.911617279149695 0.0
7.529907780698261 0.7369111006685982 0.0
7.832164962480427 2.905293639437395 0.0
8.39517908433056 3.267417602291069 0.0
9.823014010107707 9.085319632577246 0.0
9.022314123618541 3.944559746338292 0.0
4.243701230676532 5.332574856090426 0.0
9.816740542566388 1.127839952679595 0.0
8.166775715766304 5.693916696568397 0.0
8.865374421689054 8.068986769641638 0.0
8.761145809863661 6.470583506581853 0.0
8.998345275919851 9.209303502026401 0.0
9.698477487436316 6.706902829754045 0.0
6.439032098063426 0.3109134377713525 0.0
7.562681994382136 4.643158005207056 0.0
9.03999088074715 0.2799354672273258 0.0
5.180741540467516 3.805018725608906 0.0
6.243990330956698 2.718077286244967 0.0
9.79416634023361 0.1815240178579244 0.0
9.926540005061975 2.847049370876555 0.0
9.826476210374608 2.670192168078066 0.0
6.365816673179121 4.536333049275508 0.0
5.546353765219417 4.618331215552614 0.0
9.820703096450293 2.000649418331399 0.0
6.884388790679166 3.561583980715254 0.0
7.431303395649604 5.747824222777201 0.0
8.849816832721245 2.19318290395604 0.0
4.185147517585975 5.697469360586313 0.0
9.165905238119013 5.873664931582344 0.0
7.70479478158537 1.788324620089049 0.0
9.627376046933474 0.9196091445437269 0.0
6.657687963328663 5.144792385996769 0.0
9.83245016645186 0.3925568446109945 0.0
7.483092985762584 9.253837199159435 0.0
5.445348362202234 3.977855663863651 0.0
7.476680532833337 4.837183287808616 0.0
9.572749890969304 8.505160319814301 0.0
9.915853314998252 9.437014513917465 0.0
7.679469018350979 7.390484878021194 0.0
9.418139053434402 4.790576000488359 0.0
8.096967733471567 5.865447162201908 0.0
9.829153508938724 8.378494945652118 0.0
9.926595955569645 5.157718300415699 0.0
8.774484245600224 7.939747459426853 0.0
8.629764448155779 6.481031318922794 0.0
8.961169458302376 3.839036702328818 0.0
4.617199205561317 5.256318959792646 0.0
8.480815774219478 4.031210317621497 0.0
9.708341592512763 3.401018043990571 0.0
7.183974816647467 4.77882314543966 0.0
9.821437962294304 7.659391965474772 0.0
8.150320284869602 2.286501016204562 0.0
9.828114434347311 1.684891358832554 0.0
5.349187766238684 6.538177907133678 0.0
8.076053471314525 2.76180604769483 0.0
4.907713691134565 5.29818629967416 0.0
0.6874399366049438 4.328593906714074 0.0
0.6980011780697519 5.702671170050627 0.0
8.263861466707834 8.182284285231713 0.0
5.838783785156478 4.913981390426639 0.0
7.807619472656604 7.235706382002089 0.0
9.388504256318683 6.022122644748753 0.0
9.929839894767033 6.436189192303577 0.0
8.3205848711706 3.39107920408397 0.0
3.240770542267401 4.019899919523968 0.0
8.059047070496568 2.468855909103855 0.0
9.932479519490421 2.449625056415224 0.0
7.737639000139152 4.580708137963557 0.0
8.26141077223695 0.3940397126348397 0.0
9.69568953371801 1.959951226402445 0.0
6.469120930453264 4.892267070266994 0.0
9.167223997255698 0.8102256463122337 0.0
6.236889648241256 0.9291076084031108 0.0
8.306379082772498 5.268830342852036 0.0
6.716089118890225 5.239344620507032 0.0
9.82511981852641 9.282822358664017 0.0
6.68375719572285 4.404998642130821 0.0
8.913754712375674 6.908138360584365 0.0
6.173250048857013 5.251634416326969 0.0
4.235907497612446 1.924052997345291 0.0
5.151007663981651 2.438629730660893 0.0
8.924254300637541 9.3764975797567 0.0
4.438612423541503 5.287968640901957 0.0
8.571203234299599 1.897009944569934 0.0
6.878800676380218 5.821332862798138 0.0
5.710626178601224 4.792560699857408 0.0
7.149510071621283 5.216310009157644 0.0
2.099966541549645 2.334742113488256 0.0
9.93396330620579 5.350566393301629 0.0
7.143046479323961 8.646955109387985 0.0
7.965747313080266 5.193641450105844 0.0
6.3314394693073 5.135050228240639 0.0
7.665821333021348 6.222698255001823 0.0
6.305321657053551 4.659816230868476 0.0
7.833020917089713 5.208837056143474 0.0
9.41455902676429 2.869725681199307 0.0
8.567151507735133 6.598605357295113 0.0
7.405527786978573 4.377085529441429 0.0
6.552969697053132 5.137148974085434 0.0
9.93630620742063 8.042778076596578 0.0
7.166743296019233 4.593171678848165 0.0
6.595561806063966 5.839366735225723 0.0
6.066152182102007 5.262519562574559 0.0
9.834694151277489 0.9093455747994099 0.0
8.98259191950674 7.579732466796592 0.0
6.465071238839505 5.25485771955322 0.0
9.759759896588413 3.236659507608532 0.0
4.775529448101694 5.224235675150505 0.0
9.935991245222917 7.153416415978829 0.0
0.6530736820718381 9.352299998916202 0.0
0.6449439415299687 0.6468300344151556 0.0
7.804690364869245 4.495816547678174 0.0
9.84503784553893 5.70620404704573 0.0
9.83525329400959 3.826992990746767 0.0
9.922964894244684 4.265000406933376 0.0
8.333767638401964 1.121219971446645 0.0
8.876012546033895 7.019147158538482 0.0
8.172413577824324 3.413096916572049 0.0
7.232233017296214 4.478957103028363 0.0
6.214597295185415 3.852860083673202 0.0
9.85013791746415 4.400709747289421 0.0
3.941627380932058 6.342995010255737 0.0
3.097271569675528 8.77391871286929 0.0
9.292917152323044 6.010976049411984 0.0
8.104342196673183 5.184165973282902 0.0
8.994300084006271 3.652611812846807 0.0
9.937157897030163 5.549999999993244 0.0
8.721368888525245 7.274540720770752 0.0
8.920003648712827 0.9516585309368178 0.0
7.910527456030004 8.536826514867816 0.0
9.846441288756814 4.60515911863952 0.0
9.584942233925151 4.712073182517884 0.0
9.642357858573972 6.805672051759494 0.0
9.797024725252207 9.838837222258014 0.0
9.842451438022124 4.018973836958878 0.0
6.112723137676118 3.704473949316424 0.0
7.574641969193845 3.765362276156904 0.0
7.826594968121701 6.200366572362263 0.0
7.762805366733504 9.34009502796868 0.0
9.56854033867856 1.012566255816665 0.0
7.71256563655353 5.219373702836014 0.0
9.68039392238282 8.786964504862018 0.0
5.910362452777086 9.277662068919813 0.0
7.418090653922814 3.326443419100716 0.0
9.857704179097952 4.697553149694669 0.0
8.452469674653342 8.996585816905599 0.0
9.522351366699843 2.057525484575908 0.0
7.802315574700843 9.548878971475935 0.0
9.938875656926385 3.449999999992592 0.0
8.425189037911712 6.608575180629274 0.0
5.925965231566842 2.523669697740033 0.0
6.654918072256329 5.95749128982984 0.0
9.826748589235729 9.631118448471485 0.0
8.6684585637523 7.39633999085442 0.0
9.844673843931567 3.090088625379724 0.0
9.93613850661301 2.250382721159617 0.0
9.218291993658738 2.892108990205171 0.0
9.83502846611296 8.212781989607324 0.0
7.754136409732265 7.104288507262783 0.0
8.510570542791681 2.036933285735889 0.0
7.757745059307245 4.315798612475442 0.0
7.989231770559189 6.201656630465583 0.0
8.068934521422738 4.198631572122605 0.0
4.957478134450373 9.038766150325067 0.0
7.208661142641733 6.501402463831379 0.0
7.299506095906239 4.363561999234681 0.0
8.250303873550486 2.105322217421675 0.0
8.678637541413377 7.053471135702286 0.0
9.761528395137384 6.163503990672834 0.0
9.84494857233395 8.59999999999775 0.0
9.83825138794677 3.672838954969637 0.0
5.121008544047756 5.808127183024784 0.0
8.343911550360986 4.043535893276861 0.0
9.85324441775315 5.899999999993774 0.0
9.51114465213134 8.41035540646284 0.0
6.505812179224195 6.93390566262983 0.0
6.15572847138365 9.023097246950844 0.0
3.352081892333425 3.024853379890529 0.0
6.433163283162099 8.675072413910678 0.0
8.825744236698243 3.624446391299867 0.0
4.883007294861279 7.819620905924936 0.0
5.876659170760434 5.638247433601083 0.0
6.859400040348503 6.510797998354633 0.0
7.946400945409184 3.500317276373196 0.0
7.496830255505493 6.653194511698024 0.0
9.852183479755313 4.891525833556942 0.0
9.77998778436291 2.922486526124376 0.0
6.774672660492365 5.324728659740495 0.0
5.717254072187427 6.824125962512845 0.0
9.713440940838062 4.63793103997539 0.0
8.859858662536796 0.2721395536350836 0.0
8.37556017530946 9.436653414116012 0.0
7.395237381047616 7.885576562773319 0.0
5.4709157802033 4.511152089197594 0.0
9.489749416979361 9.691840729914848 0.0
4.599216022837964 3.46438688931078 0.0
5.572287492757569 4.807021644849729 0.0
9.926499336309957 9.92730688390086 0.0
9.926499336310107 0.07269311609890093 0.0
9.338127766332573 0.3585313952168247 0.0
6.810761948165162 3.414693294319008 0.0
8.166274345037138 5.943611545564389 0.0
5.2892644736731 6.301081312912763 0.0
9.731911074791544 7.649313380659622 0.0
8.90251102352767 9.50983415326544 0.0
8.997881406541017 1.033666784655452 0.0
5.835124768755703 2.738139962594905 0.0
9.665357480775825 6.185331297099201 0.0
7.656532192558493 8.217157287499347 0.0
9.170463887605525 2.975444721032631 0.0
4.208158615905443 0.8648302238584886 0.0
6.97015686031129 5.933674629077266 0.0
6.181941366523793 3.565885175921835 0.0
3.30313590337911 6.393402837735046 0.0
6.447482061767014 4.816169316820496 0.0
8.185341428749446 4.169172087371246 0.0
4.552595724340015 8.298301336212145 0.0
9.84850676569699 8.999999999998423 0.0
9.846941514449377 7.393642828194986 0.0
7.924592433490734 2.788309934035703 0.0
8.154308714226714 8.853640122009672 0.0
8.876629743004642 1.96110242719995 0.0
7.228849192966834 8.90811350348676 0.0
9.852301635085423 8.296637825215246 0.0
5.219795195341889 5.547413133147649 0.0
9.861497117995457 6.901363010201344 0.0
2.953911258021604 6.136007283255669 0.0
6.93158841067062 4.77708273647784 0.0
9.67540418457871 2.912802891506324 0.0
4.194055958522277 4.437353127730132 0.0
6.133959559341536 0.406856611599261 0.0
8.29952795189331 9.309744645643846 0.0
9.843692337952948 1.209647690818311 0.0
5.164986286280336 6.671544079402435 0.0
9.838533350075606 2.081705440779448 0.0
8.301244777513975 6.604088853319459 0.0
5.471494771710784 2.714598185146428 0.0
8.86534684892311 1.208599471795828 0.0
9.940610684232212 1.451558535868664 0.0
9.40896208432968 1.428353940655538 0.0
2.329177605337097 4.238803555614174 0.0
5.980761651517799 7.182207186682233 0.0
9.66541573964336 0.1719254072074424 0.0
7.220979380229172 7.806128737674462 0.0
1.251721227904697 6.151932667911503 0.0
8.104967286191181 6.057912607875576 0.0
6.650768762224724 4.817922869198292 0.0
6.634976350437587 3.213339182992986 0.0
7.034320437500567 4.898219100342838 0.0
9.502772020064167 6.283064492634301 0.0
8.13187938667684 3.518506862055515 0.0
9.855471943454193 2.599999999994991 0.0
9.056747742708522 8.263936599935574 0.0
4.352645795441222 5.724453640019 0.0
3.744263984699181 1.488951698361357 0.0
5.175860134287045 3.6375726667098 0.0
7.736434712114619 6.400417475661193 0.0
9.857658576695343 6.316607183405179 0.0
7.876525261950537 4.304285002335559 0.0
9.856114384785611 7.914602773442983 0.0
9.848334119947063 0.7059644476295188 0.0
9.59694321995579 6.895814046141667 0.0
5.906465212962551 3.869023950643881 0.0
9.840676994268005 9.364956386459765 0.0
5.355015287544095 3.83518170601625 0.0
6.374090407153147 5.855743754257685 0.0
8.227401290513832 5.297819733684674 0.0
5.451235131977493 4.825706629991923 0.0
6.022070213762754 5.355923882747634 0.0
9.845674433677614 6.108401449483281 0.0
9.835067400944396 7.739582406783081 0.0
8.602026805792988 2.941372356914139 0.0
5.059869081004962 5.269480960018243 0.0
5.284714507903736 5.26496663762182 0.0
9.627110479149561 7.660076105040499 0.0
6.820001127809743 4.792514421153957 0.0
5.120512795059439 4.806607659110254 0.0
9.56933817216883 2.911464407429096 0.0
9.74091654291531 9.267545397628387 0.0
9.93006767325302 6.576784040838644 0.0
9.642486276936268 4.650227701598451 0.0
5.185183328569137 9.410919109238325 0.0
9.37052946854105 4.605636695802024 0.0
1.677077220416309 5.871167715901136 0.0
7.345783833404538 3.184020711886284 0.0
5.419239942654976 5.982692039856376 0.0
6.133318300188262 2.551919945731369 0.0
6.187291396343277 4.499077117404439 0.0
1.231465237822878 3.921479198315213 0.0
8.969849937139944 9.699215363213542 0.0
9.218303154263054 6.037447959776716 0.0
CELLS 4886 19544
3 1113 1356 1450
3 1402 231 1659
3 272 269 1414
3 396 394 1777
3 1451 945 1452
3 194 81 1801
3 1847 1501 2104
3 2024 2121 2479
3 1115 1113 1450
3 1124 1413 1844
3 1061 1955 2409
3 307 305 1645
3 1592 1369 1593
3 238 1501 1847
3 1955 1883 2409
3 1808 243 1910
3 1885 978 2362
3 1440 793 2092
3 189 1488 1608
3 353 350 1864
3 2007 2231 2232
3 307 1645 2493
3 1096 1760 2496
3 2178 874 2179
3 621 625 1595
3 1493 1480 1938
3 1655 1268 2137
3 1341 1410 2212
3 243 1808 2360
3 1902 1446 2516
3 1760 1096 1763
3 856 790 2180
3 2008 2046 2105
3 789 1809 2067
3 694 1543 1575
3 1127 1762 1953
3 1748 807 2228
3 1543 1308 1575
3 820 1872 2170
3 1417 954 1998
3 1369 1592 2386
3 272 1414 1787
3 329 333 1998
3 1544 1095 1545
3 2231 1490 2232
3 1342 1683 1790
3 374 377 1797
3 807 1678 2228
3 1665 198 2128
3 141 142 1620
3 325 322 1952
3 231 1402 1654
3 198 1665 2010
3 1890 1307 2387
3 208 1438 1619
3 2016 1970 2156
3 1436 212 2020
3 954 1417 2333
3 1736 1894 2244
3 1491 1750 2143
3 1677 1064 2146
3 1474 1258 1475
3 1500 233 1930
3 1446 2415 2516
3 1700 973 1800
3 2128 2270 2316
3 1316 1315 1593
3 1307 2341 2387
3 2258 1324 2328
3 1083 1507 1508
3 693 1095 1544
3 621 1595 1596
3 667 1571 1872
3 1932 1766 2061
3 393 391 2240
3 1342 1790 2400
3 252 1707 2234
3 931 978 1885
3 1430 1116 1704
3 1411 1109 1714
3 1478 1227 2440
3 1990 195 2297
3 1792 1167 1985
3 1682 444 1975
3 394 397 1777
3 1711 2028 2162
3 1574 856 2180
3 2008 1851 2046
3 736 1493 1938
3 1069 1060 1662
3 1458 455 1754
3 862 691 1705
3 1161 1642 2286
3 1699 1700 1800
3 447 516 1637
3 955 1482 1483
3 2024 206 2121
3 391 1773 2240
3 1072 1412 1893
3 212 1436 2350
3 1566 1365 1568
3 259 1441 1672
3 872 870 1764
3 330 328 1889
3 1539 1161 2286
3 1897 1898 2275
3 1434 1990 2297
3 1109 1411 1730
3 319 307 2493
3 1762 1761 1953
3 1369 1316 1593
3 1540 834 1832
3 1505 652 2442
3 1732 1655 2137
3 921 1712 2295
3 1872 1388 2170
3 1712 921 2125
3 2028 244 2162
3 1506 1570 1680
3 1569 368 1964
3 1571 667 2375
3 1587 2178 2179
3 196 1723 1737
3 524 2016 2156
3 1528 1250 1733
3 1115 1450 1973
3 1938 1480 1971
3 1809 1396 2067
3 1641 249 2299
3 1223 1258 1474
3 1365 1566 2120
3 1981 962 2316
3 1538 353 1864
3 455 1458 1756
3 152 233 1500
3 1116 1430 1703
3 817 652 1505
3 1347 2003 2004
3 1607 1958 2085
3 194 1801 2195
3 1410 1341 2351
3 223 1415 1710
3 197 1511 2346
3 2198 787 2225
3 81 82 1801
3 1438 208 1620
3 1444 522 1823
3 1511 197 1950
3 726 718 1567
3 1637 516 1739
3 1708 2337 2341
3 1280 1649 2124
3 2337 1395 2341
3 1327 1709 2315
3 1225 1227 1478
3 691 624 1705
3 476 2224 2305
3 830 832 2204
3 1750 1491 2403
3 1366 1897 2275
3 2345 1583 2352
3 2054 405 2110
3 1984 2172 2230
3 1846 2198 2225
3 1177 2042 2418
3 2121 1367 2479
3 1527 1531 1541
3 916 1039 1834
3 1413 1124 2467
3 1622 1503 1868
3 249 1641 2019
3 1805 405 2054
3 1761 1007 1953
3 1415 223 2395
3 960 1756 2203
3 368 1569 2135
3 1402 1659 2473
3 941 1433 2471
3 1267 1477 1501
3 260 2002 2265
3 1704 558 2077
3 2224 1886 2305
3 2053 1386 2199
3 1452 945 1952
3 1717 1611 1718
3 1682 1975 2230
3 1760 1762 2496
3 1481 203 2104
3 1264 1266 1670
3 142 236 1620
3 2133 1182 2179
3 1791 1602 2183
3 350 346 1864
3 1412 1072 2393
3 1281 1575 2255
3 1565 1948 2155
3 849 1449 1513
3 1958 396 2085
3 1339 1069 1662
3 834 1540 1917
3 269 267 1414
3 1268 1267 1501
3 1440 2092 2468
3 1399 1981 2316
3 1635 1636 2041
3 1454 252 2234
3 1451 1305 1890
3 1375 1883 1955
3 362 366 1786
3 1484 2410 2528
3 1449 849 1640
3 1267 1474 1477
3 200 1611 1717
3 1054 1581 1582
3 1350 1977 2253
3 190 1390 2118
3 788 1956 2193
3 1709 1327 1888
3 2233 2298 2413
3 1488 189 2355
3 478 1685 1714
3 230 1525 1690
3 1687 478 1688
3 427 429 1756
3 1570 1065 2476
3 1880 1133 1988
3 1649 656 2124
3 1537 209 1614
3 1134 1769 1986
3 1220 1268 1655
3 396 1777 2085
3 1167 1755 1985
3 2229 1744 2296
3 1575 1281 2287
3 127 240 1882
3 377 647 1797
3 954 329 1998
3 220 1697 1698
3 1342 1341 2212
3 1441 264 1672
3 1512 188 2433
3 763 2345 2352
3 1685 1411 1714
3 1805 1188 1951
3 1347 2004 2157
3 1054 1582 1667
3 1333 1617 1674
3 2217 73 2361
3 1539 1036 1917
3 1039 1292 1834
3 208 141 1620
3 1965 1964 2038
3 693 1544 1969
3 1453 239 2279
3 203 1481 2049
3 945 1451 1889
3 680 1459 2134
3 354 2147 2196
3 1405 1932 2061
3 1723 1722 1737
3 1748 1175 1927
3 1532 1528 1733
3 2057 1824 2154
3 1406 1659 1702
3 1948 1186 2155
3 210 1598 2114
3 1685 478 1687
3 1324 1325 2328
3 1526 1250 1527
3 165 166 1509
3 1493 736 2523
3 1526 1527 1541
3 1390 190 2417
3 522 1444 1998
3 1680 1570 1732
3 1017 1442 2525
3 374 1797 2430
3 1507 1083 2197
3 1756 960 2221
3 2270 1400 2316
3 2205 1452 2282
3 1074 1187 1888
3 2158 1245 2200
3 1442 1017 1684
3 864 1116 1703
3 1750 1751 2143
3 1456 516 1492
3 1677 2146 2149
3 2022 1339 2388
3 1602 258 2183
3 678 1594 1595
3 1245 1670 2200
3 972 830 2204
3 2143 983 2342
3 1268 1501 2226
3 1266 1461 1670
3 1487 222 2465
3 1382 2022 2388
3 58 59 1661
3 2147 1543 2196
3 1484 1485 2410
3 628 2053 2199
3 1906 1549 2259
3 364 362 1786
3 1339 2022 2247
3 1636 525 2041
3 625 678 1595
3 678 1593 1594
3 2212 1410 2222
3 1837 1865 2215
3 1699 1800 1801
3 866 864 1703
3 893 1472 1982
3 1735 1736 2244
3 1633 1255 1922
3 126 127 1882
3 681 867 1656
3 1351 1401 2363
3 11 228 1588
3 1127 1953 2454
3 265 266 267
3 1722 1122 1737
3 1389 1691 2069
3 1613 1610 1616
3 1227 1256 2440
3 429 455 1756
3 1535 1177 2418
3 322 324 1952
3 973 1700 1802
3 1964 368 2038
3 1176 1865 1866
3 1096 872 1764
3 1176 1866 1875
3 193 1839 1892
3 156 157 1441
3 615 617 1596
3 686 1520 2480
3 1409 2097 2305
3 2410 1151 2528
3 1427 2217 2361
3 440 1911 2314
3 1744 1743 2296
3 516 1456 1739
3 1939 589 2164
3 690 931 2150
3 1062 1579 1580
3 1054 1580 1581
3 955 1483 1716
3 1064 1677 2248
3 1956 1616 2193
3 1776 1893 2026
3 1398 1115 1973
3 2002 1453 2265
3 1541 1531 1542
3 216 2191 2536
3 1736 1326 1894
3 1065 994 1066
3 1598 2115 2175
3 2314 1911 2358
3 1433 941 2042
3 2115 1209 2175
3 717 1550 1551
3 188 1941 2433
3 267 1132 1414
3 771 1569 2064
3 1157 1545 1546
3 1231 1250 1526
3 1933 240 2181
3 222 1487 2025
3 1525 230 1765
3 1430 1704 2077
3 757 1744 2495
3 264 263 265
3 883 773 1917
3 739 2205 2282
3 1667 1582 2434
3 1744 757 2474
3 239 1453 2002
3 1441 259 2356
3 2005 1443 2012
3 254 1766 1932
3 1509 166 1679
3 1477 1475 1481
3 793 1440 2165
3 1385 1523 2377
3 1481 1475 2523
3 156 1441 2356
3 1066 1220 1655
3 945 325 1952
3 2094 2087 2134
3 1747 1175 1748
3 253 262 263
3 1327 1074 1888
3 718 715 1567
3 2046 1043 2105
3 240 1933 2399
3 1305 1307 1890
3 224 58 1661
3 1195 1566 2285
3 1590 1393 1749
3 1255 1230 1922
3 353 1538 2073
3 358 1999 2325
3 882 1802 2036
3 1024 1020 1604
3 333 522 1998
3 1401 1351 2414
3 1475 1258 1476
3 2310 786 2364
3 328 945 1889
3 807 1748 1927
3 825 724 1912
3 1742 263 2491
3 267 266 1132
3 2077 2102 2203
3 1431 1432 1860
3 1212 1957 2312
3 2097 476 2305
3 1132 1402 2473
3 717 713 1550
3 1746 693 1969
3 1372 1124 1844
3 1256 1541 2269
3 1977 1350 2274
3 2332 1978 2443
3 874 2133 2179
3 1983 1534 2171
3 1157 1544 1545
3 1230 1228 1922
3 1580 1579 1581
3 1565 806 1948
3 1416 1363 2413
3 1287 1995 2398
3 265 263 266
3 1534 1529 2171
3 1604 1834 2428
3 1255 1633 2509
3 1344 1643 1644
3 1332 1388 1571
3 1423 217 2217
3 2191 1057 2451
3 458 447 1637
3 1250 1233 1733
3 472 2212 2222
3 1175 1747 1840
3 1652 256 1653
3 1073 1347 1572
3 200 145 1609
3 683 640 1585
3 1116 862 1705
3 1221 1223 1474
3 1778 801 1803
3 1503 1622 2471
3 1475 1493 2523
3 464 680 2134
3 14 210 2114
3 579 1880 1988
3 1434 1435 1990
3 1447 2310 2364
3 275 274 276
3 2294 1871 2419
3 814 1068 1684
3 1172 1439 2273
3 273 272 274
3 1363 1416 2406
3 1220 1219 1221
3 1060 1656 1662
3 1099 1792 1985
3 2048 1198 2168
3 1241 1245 2323
3 699 723 1753
3 1640 1862 2070
3 910 1018 1584
3 1586 1067 1587
3 1656 867 1662
3 1067 686 2480
3 654 2242 2294
3 1593 1315 1594
3 1880 553 1974
3 236 1717 1718
3 617 621 1596
3 1723 196 2313
3 402 1877 2116
3 273 274 275
3 2202 1869 2252
3 1510 1358 1767
3 193 1892 2373
3 1188 1805 2054
3 1220 1221 1267
3 1066 1218 1219
3 1517 1097 1518
3 1677 1676 1858
3 686 277 1520
3 268 267 269
3 697 857 1592
3 220 1698 1699
3 1802 1700 2036
3 1612 1537 1614
3 929 817 994
3 228 12 2136
3 2110 2116 2482
3 1659 1658 1702
3 1611 1613 2280
3 1344 991 1643
3 683 1585 1604
3 1638 1358 2404
3 1485 1034 2410
3 2214 833 2424
3 271 272 273
3 1482 955 1962
3 1066 1219 1220
3 931 1885 2150
3 1613 1891 2280
3 1189 1589 2204
3 1566 1195 2120
3 726 1567 2490
3 1122 1722 1874
3 1494 319 2493
3 1671 259 1672
3 1267 1221 1474
3 603 528 1591
3 1664 2128 2316
3 1817 1924 2174
3 1626 1660 2111
3 1474 1475 1477
3 1023 1062 1580
3 1957 1599 2312
3 1764 1939 2164
3 1358 1950 2404
3 200 1609 1610
3 1431 1082 1432
3 1778 1803 2521
3 1830 1832 2075
3 1930 233 2369
3 1329 1482 1650
3 757 1959 2522
3 1239 1247 1597
3 758 1978 2332
3 1569 1290 2064
3 216 1694 2191
3 1453 1420 2265
3 1549 1906 2129
3 24 215 1674
3 19 235 1676
3 1621 1057 2191
3 1691 1389 2262
3 1617 1333 2192
3 929 994 1065
3 1769 1672 1986
3 1893 1412 2026
3 1609 1537 1612
3 271 269 272
3 1373 1438 1620
3 217 1423 2381
3 517 330 1889
3 1322 1055 1667
3 1974 553 2499
3 228 2136 2187
3 1589 1189 1788
3 1999 1577 2325
3 2110 405 2116
3 189 1608 1842
3 1055 1050 1667
3 739 1455 2205
3 1865 1176 2215
3 319 1494 2522
3 2474 757 2522
3 1484 227 1485
3 10 11 1588
3 723 809 1753
3 27 230 1689
3 1550 806 1565
3 1179 1180 1217
3 207 1617 2192
3 1433 1217 1502
3 1562 1556 1606
3 1379 2017 2018
3 1245 2158 2323
3 675 1097 1517
3 884 501 1599
3 1020 683 1604
3 1603 1095 1848
3 1001 2057 2154
3 1604 1585 1834
3 1610 1612 1616
3 1764 870 1939
3 2242 1871 2294
3 1669 1264 1670
3 1658 213 1702
3 1995 1646 2398
3 631 539 1600
3 1491 2143 2342
3 1801 1800 2195
3 1200 1199 1693
3 1535 940 1861
3 1534 758 2332
3 914 2258 2328
3 1588 228 2457
3 216 138 1694
3 151 152 1500
3 1133 1880 1974
3 1677 1858 2248
3 1294 1622 1868
3 875 1010 1767
3 1379 2018 2416
3 1279 2202 2252
3 182 256 1652
3 1592 857 2386
3 672 681 1656
3 615 1596 1824
3 1093 1487 1623
3 1823 522 2100
3 1245 1242 1669
3 1582 1581 1583
3 758 1534 2306
3 1975 1984 2230
3 1358 1510 1950
3 1663 1336 1665
3 2102 960 2203
3 366 1087 1786
3 1740 1490 2231
3 21 207 1709
3 145 146 1609
3 2339 765 2384
3 603 1591 1668
3 2081 199 2149
3 1540 1832 1879
3 1721 1723 1947
3 1754 455 1793
3 1751 1753 2119
3 882 1701 1807
3 1540 1539 1917
3 242 1695 1697
3 1521 354 2091
3 1363 2233 2413
3 1584 1018 1925
3 703 1067 1586
3 1177 1178 1179
3 795 916 1834
3 277 276 607
3 1571 1388 1872
3 22 23 1617
3 1097 823 1177
3 25 26 1624
3 419 418 1790
3 1728 1906 2259
3 440 1455 2261
3 1877 1318 2116
3 1488 1156 1608
3 1439 2130 2273
3 1889 1451 1890
3 1614 209 2389
3 1472 893 2094
3 675 821 823
3 23 24 1674
3 1788 1190 2183
3 917 941 1622
3 1763 1096 1764
3 1068 1442 1684
3 1034 1485 2173
3 2172 1533 2230
3 138 139 1694
3 1065 1570 2197
3 607 674 675
3 1536 1248 2268
3 229 135 1734
3 1437 1925 1926
3 680 510 1646
3 147 209 1537
3 26 27 1689
3 1627 705 2163
3 206 1651 2121
3 2409 1785 2462
3 1492 682 2447
3 1223 1225 1258
3 889 1772 2374
3 253 263 264
3 275 276 277
3 1455 739 2261
3 2022 1382 2176
3 150 227 1484
3 639 1019 1591
3 1449 1640 2070
3 1082 833 2214
3 1503 1502 1504
3 144 200 1717
3 1643 991 1713
3 1190 1791 2183
3 1538 1804 2073
3 1256 2269 2440
3 18 19 1676
3 521 531 2000
3 790 849 2180
3 1075 1329 1650
3 1087 1782 1785
3 1066 994 1218
3 270 269 271
3 682 1492 2494
3 185 252 1454
3 253 158 262
3 1629 1632 1633
3 200 1610 1611
3 1477 1481 2104
3 1623 1487 2465
3 1518 1097 1535
3 1414 1132 2460
3 1179 1217 1433
3 177 1506 1680
3 1392 1017 2525
3 1832 834 2075
3 675 823 1097
3 1459 2094 2134
3 1782 1087 1795
3 1838 1730 2372
3 1639 149 2528
3 1617 23 1674
3 2265 1420 2489
3 180 232 1859
3 1527 1250 1528
3 20 21 1709
3 1083 1508 2311
3 903 866 1703
3 1455 440 2314
3 1187 1858 1888
3 1659 1406 2473
3 1446 1902 2166
3 421 1951 2106
3 1598 210 2115
3 154 259 1671
3 1288 1835 2080
3 1832 1831 1879
3 1258 1225 1478
3 1024 1604 2117
3 1263 1429 1739
3 706 705 1627
3 1583 1581 2352
3 407 1805 1951
3 856 1574 2527
3 1701 882 2036
3 1624 26 1689
3 717 1551 1552
3 1385 2377 2391
3 2302 1745 2354
3 1572 1347 2157
3 1036 883 1917
3 1689 1690 1691
3 1664 1665 2128
3 1476 1479 1480
3 1751 2119 2143
3 815 814 1684
3 1790 889 2400
3 1606 1607 2085
3 265 267 268
3 418 889 1790
3 1522 1521 2091
3 135 136 1734
3 1726 1445 1729
3 647 1796 1797
3 1346 1453 2279
3 1293 1827 2117
3 1242 1244 1669
3 1853 1852 1854
3 889 2374 2400
3 1039 1038 1290
3 1524 628 2199
3 1331 1332 1571
3 1291 1290 1569
3 1475 1476 1493
3 1850 1852 1853
3 1490 1740 2456
3 1689 230 1690
3 1256 1526 1541
3 1704 1705 2167
3 1465 1470 1675
3 956 1073 1572
3 1613 1616 1956
3 916 917 1038
3 2014 1522 2091
3 1221 1222 1223
3 1999 763 2352
3 234 10 1588
3 1697 220 2335
3 1527 1528 1529
3 2298 1600 2413
3 1436 2020 2254
3 1642 1161 1678
3 1523 1385 2436
3 1730 1838 2426
3 795 796 916
3 713 711 1550
3 1456 1263 1739
3 999 1336 1663
3 1785 1784 2462
3 409 415 1783
3 607 675 1517
3 1229 1231 1526
3 1958 1855 2078
3 1589 1588 1590
3 1933 261 2380
3 762 1965 2038
3 1756 1458 2203
3 1776 597 1893
3 1794 1072 1893
3 188 1512 2266
3 1774 2339 2384
3 188 1908 1941
3 1010 1510 1767
3 2189 2285 2307
3 773 834 1917
3 1245 1669 1670
3 1248 1597 2268
3 146 1537 1609
3 818 910 1584
3 1641 1313 1651
3 1217 1745 2302
3 1065 1066 1655
3 1597 1247 2047
3 1360 2177 2376
3 1612 1615 1616
3 2126 867 2186
3 1019 683 1020
3 1747 892 1840
3 1092 1093 1623
3 261 1933 2181
3 400 424 1666
3 1516 1903 2377
3 1100 1392 1605
3 247 1738 1881
3 268 1134 1986
3 1177 823 1178
3 884 1599 1957
3 263 262 2491
3 806 1627 1948
3 1227 1229 1256
3 191 1729 2504
3 1636 1635 2502
3 1480 1479 1601
3 1721 1947 2498
3 1924 1146 2174
3 229 1734 1735
3 175 204 1725
3 1179 1178 1180
3 354 1521 2147
3 665 697 1592
3 640 646 1585
3 627 545 1636
3 1882 240 2399
3 1556 1555 1606
3 1373 1620 2394
3 1871 1071 2419
3 548 1628 1629
3 455 436 1793
3 974 1831 1841
3 1844 1413 2392
3 1612 1614 1615
3 209 1639 1937
3 1329 1330 1331
3 1823 2100 2142
3 1097 1177 1535
3 1021 1020 1022
3 825 1912 2455
3 913 1122 1874
3 400 1666 2113
3 1256 1229 1526
3 1419 1418 2450
3 1552 1551 1553
3 1850 1099 1852
3 1629 1631 1632
3 801 685 2029
3 1618 1619 1621
3 265 268 1986
3 1715 2165 2330
3 1531 1529 1534
3 1022 1024 1576
3 658 693 1746
3 703 686 1067
3 1062 1576 1577
3 1023 1022 1062
3 236 1718 2394
3 1688 502 1740
3 1501 1477 2104
3 213 165 1509
3 646 795 1585
3 196 1737 1738
3 379 679 1795
3 639 640 683
3 924 875 1767
3 1752 699 1753
3 207 2192 2315
3 627 1636 1660
3 1217 1180 1745
3 730 728 1833
3 528 561 1591
3 1444 1417 1998
3 252 186 1602
3 1729 1445 2504
3 460 502 1688
3 1418 946 1778
3 1203 1200 1693
3 548 470 1628
3 849 668 1640
3 646 785 795
3 607 276 674
3 14 15 210
3 147 148 209
3 478 460 1688
3 1709 207 2315
3 1157 1546 1608
3 1155 1731 1899
3 1524 1934 2390
3 1775 921 1876
3 1433 1502 1503
3 470 458 1628
3 1223 1224 1225
3 1291 1569 1964
3 871 1056 1826
3 1781 1783 1915
3 1587 1067 2300
3 916 1038 1039
3 1388 1387 1389
3 1611 1610 1613
3 1075 1328 1329
3 1039 1290 1291
3 1538 1265 1804
3 1184 1185 2163
3 597 598 1794
3 1450 1356 2421
3 1835 576 2080
3 1629 1628 1631
3 1331 1330 1332
3 561 639 1591
3 1476 1480 1493
3 705 703 1586
3 639 683 1019
3 1951 1188 2106
3 436 446 1793
3 1472 1297 2142
3 1332 1387 1388
3 1345 984 1720
3 1329 1328 1330
3 1050 1048 1667
3 150 151 227
3 11 12 228
3 557 541 2256
3 1831 974 1879
3 134 229 1766
3 1357 1358 1638
3 1336 1641 2299
3 1650 1482 1962
3 1591 1019 2512
3 1506 1507 1570
3 1803 801 2029
3 1178 823 1972
3 1552 1553 1554
3 1290 1038 1294
3 1028 1313 1641
3 1237 1239 1597
3 993 1017 1100
3 893 2087 2094
3 149 1484 2528
3 1768 1142 1949
3 9 234 1673
3 1554 1553 1555
3 668 632 1640
3 711 806 1550
3 1628 458 1637
3 1098 1829 1830
3 1482 1331 1483
3 531 1818 2000
3 435 419 1790
3 1156 1157 1608
3 1182 1184 2179
3 510 512 1646
3 1231 1233 1250
3 946 841 1778
3 1483 1331 1571
3 1459 680 2458
3 1166 1040 1210
3 892 1657 1820
3 1042 1445 1726
3 1019 1020 1021
3 749 805 1810
3 234 1588 1589
3 1695 242 1892
3 556 1853 2483
3 1018 1572 1573
3 1529 1528 1530
3 1606 1558 1607
3 1761 1759 2308
3 1396 1032 1921
3 1018 956 1572
3 689 1150 1416
3 1827 1293 2515
3 149 150 1484
3 1647 656 1648
3 1543 694 2196
3 399 409 1783
3 545 525 1636
3 268 269 270
3 715 713 717
3 1100 1017 1392
3 1657 892 1747
3 207 22 1617
3 1666 884 2249
3 1671 1672 1769
3 1554 1555 1556
3 146 147 1537
3 1081 1444 1822
3 711 709 806
3 1443 2005 2322
3 660 658 1746
3 1166 1458 1754
3 916 796 917
3 1056 1728 1826
3 1068 1069 1275
3 184 185 1454
3 158 159 262
3 2007 1687 2231
3 805 1708 1810
3 1672 264 1986
3 1561 1562 1563
3 978 1075 1650
3 1590 1588 2457
3 215 25 1624
3 1551 1550 1565
3 1073 1346 1347
3 857 818 1584
3 1648 656 1649
3 675 674 821
3 561 594 639
3 1731 529 1899
3 2303 1454 2535
3 981 903 1040
3 1630 1629 1633
3 993 877 1017
3 724 718 726
3 512 603 1646
3 1676 235 1858
3 814 1060 1068
3 715 717 1567
3 1796 647 1870
3 1715 1171 2165
3 678 1592 1593
3 644 613 1824
3 1690 1525 2145
3 1297 1822 1823
3 271 656 1647
3 1704 1116 1705
3 1225 1226 1227
3 1275 1069 1338
3 910 956 1018
3 1824 1596 2154
3 1403 1100 1605
3 1221 1219 1222
3 1068 1060 1069
3 1901 245 1949
3 1081 1055 1321
3 1751 563 1752
3 1021 1022 1023
3 672 638 681
3 1095 657 1848
3 1235 1237 1248
3 1561 1556 1562
3 1265 1259 1804
3 524 1819 2016
3 978 1650 2362
3 1492 516 2494
3 229 1735 2061
3 185 186 252
3 157 158 253
3 152 153 233
3 9 10 234
3 1527 1529 1531
3 1808 1344 2360
3 1062 1577 1579
3 1509 1679 1977
3 424 454 1666
3 637 638 672
3 981 1040 1166
3 1555 1558 1606
3 751 749 1810
3 1166 1210 1458
3 1651 1313 2121
3 15 16 2260
3 1633 1632 2509
3 2167 1705 2276
3 551 602 2045
3 697 818 857
3 364 1786 1883
3 832 1189 2204
3 1476 1478 1479
3 678 665 1592
3 213 1509 2096
3 1015 888 1124
3 1062 1022 1576
3 679 1782 1795
3 680 1646 1995
3 1101 1100 1403
3 1109 433 1714
3 1248 1237 1597
3 733 730 1833
3 1702 213 2096
3 499 498 1828
3 1418 1778 2521
3 637 600 638
3 1048 1046 1054
3 1577 1576 1578
3 814 766 1060
3 1279 2252 2292
3 474 470 548
3 199 18 1676
3 157 253 1441
3 1048 1054 1667
3 471 472 2290
3 625 665 678
3 795 785 796
3 1264 1265 1266
3 1437 1926 2350
3 1362 2048 2168
3 1394 2337 2371
3 454 884 1666
3 1022 1020 1024
3 751 1810 1923
3 1046 1023 1580
3 1807 1701 1931
3 1618 208 1619
3 566 588 689
3 1828 498 1829
3 501 509 1599
3 1118 780 1775
3 878 817 929
3 1510 1511 1950
3 1618 1621 1694
3 1052 1081 1822
3 1416 1150 1715
3 1239 1241 1247
3 1396 1921 2067
3 1751 1752 1753
3 1264 1259 1265
3 539 566 1600
3 1762 1127 2496
3 1673 1788 2183
3 1555 1557 1558
3 1052 1050 1055
3 725 724 825
3 1142 1770 1771
3 681 853 867
3 454 501 884
3 1346 1420 1453
3 932 1147 1770
3 1546 1545 1547
3 533 582 1818
3 1266 1337 1460
3 1872 820 2318
3 1117 1119 1713
3 1081 1321 1417
3 1253 1259 1264
3 1569 771 2135
3 1052 1055 1081
3 1181 1178 1972
3 709 706 1627
3 1073 1076 1346
3 1098 1828 1829
3 1382 1380 2176
3 1442 1275 1443
3 919 999 1663
3 1789 828 1855
3 877 815 1684
3 509 539 631
3 992 877 993
3 1266 1265 1337
3 2268 1498 2340
3 1130 1032 1396
3 1095 1603 2508
3 886 826 887
3 531 533 1818
3 1131 1400 1881
3 447 437 516
3 2460 1132 2473
3 940 1535 2418
3 768 1873 2037
3 1813 1869 1954
3 1627 2163 2488
3 1497 1495 1645
3 1198 1409 2168
3 724 726 1912
3 1869 987 1954
3 763 1999 2338
3 1010 1170 1374
3 984 976 1720
3 1470 1743 1744
3 689 588 1150
3 1901 1949 2359
3 1640 632 1862
3 274 272 1787
3 563 564 1752
3 994 817 1505
3 737 1807 1931
3 1770 1147 1771
3 1233 1235 1733
3 2450 1418 2521
3 414 410 1821
3 908 1099 1850
3 1227 1228 1229
3 1692 1203 1693
3 1625 216 2194
3 512 528 603
3 1377 1357 1638
3 1465 1464 1470
3 1360 1359 2177
3 1686 2007 2095
3 1336 1028 1641
3 1857 751 1923
3 1758 572 1759
3 553 541 557
3 1171 1715 1811
3 956 1003 1073
3 1467 1465 1675
3 719 718 724
3 1509 1977 2096
3 1734 1625 1736
3 1503 1504 1868
3 592 597 1776
3 180 181 232
3 162 163 231
3 2308 1759 2370
3 1357 1114 1358
3 875 946 1010
3 509 631 1599
3 17 18 199
3 144 145 200
3 1099 906 1792
3 1469 1467 1494
3 605 589 1939
3 1208 1205 1211
3 354 344 2091
3 692 782 804
3 1010 946 1170
3 1463 1462 1464
3 716 715 718
3 714 713 715
3 271 273 656
3 139 1618 1694
3 549 277 686
3 673 672 766
3 1378 1377 1379
3 2007 868 2095
3 999 1028 1336
3 1208 1211 1447
3 601 545 627
3 1119 1643 1713
3 1332 1333 1387
3 910 912 956
3 520 521 2000
3 828 1789 1819
3 277 607 1520
3 1338 1339 2247
3 818 819 910
3 767 766 814
3 712 711 713
3 1494 1467 1675
3 639 594 640
3 2044 557 2256
3 235 20 1709
3 1620 236 2394
3 804 919 962
3 1862 702 2070
3 681 852 853
3 1559 1556 1561
3 1622 941 2471
3 2165 1440 2330
3 612 644 692
3 697 698 818
3 1903 1516 1994
3 371 379 1795
3 428 426 2138
3 1290 1294 2064
3 1384 1904 2432
3 566 689 1600
3 471 452 472
3 1092 1091 1093
3 1002 1131 1719
3 1090 1089 1091
3 875 841 946
3 1758 1760 1763
3 1562 1606 2085
3 1833 1830 2075
3 178 179 214
3 164 165 213
3 769 923 1815
3 692 644 782
3 804 782 919
3 182 183 256
3 160 161 257
3 1329 1331 1482
3 962 1663 1664
3 1177 1179 2042
3 403 405 1805
3 1461 1460 1462
3 140 208 1618
3 1859 232 1860
3 274 1787 2099
3 1381 2126 2186
3 1558 1560 1789
3 430 428 682
3 452 435 1683
3 1487 1156 1488
3 1470 1464 1743
3 597 1794 1893
3 1244 1253 1669
3 962 919 1663
3 258 8 1673
3 1087 1785 1786
3 970 1042 1726
3 199 1677 2149
3 1664 1663 1665
3 1229 1230 1231
3 991 827 1713
3 792 1603 1848
3 1822 1444 1823
3 665 666 697
3 19 20 235
3 142 143 236
3 728 1098 1833
3 532 530 1898
3 1015 1124 1372
3 1546 1547 1548
3 1851 1850 1853
3 1877 393 2240
3 923 1105 1815
3 1090 1091 1092
3 687 686 703
3 1683 435 1790
3 887 826 1961
3 684 663 1089
3 426 1934 2138
3 464 510 680
3 853 854 855
3 568 572 1758
3 1376 1357 1377
3 1205 1203 1692
3 1607 1789 1855
3 710 709 711
3 780 781 1775
3 1434 1103 1435
3 876 815 877
3 766 672 1656
3 1393 1590 2457
3 684 1089 1090
3 530 890 1898
3 926 1920 1943
3 696 414 1821
3 1563 1562 1777
3 1054 1046 1580
3 1398 1973 1974
3 137 216 1625
3 1210 1040 1430
3 1750 563 1751
3 2010 1665 2299
3 1510 1374 1511
3 1777 1562 2085
3 1707 252 1791
3 1932 1404 1933
3 459 438 1814
3 139 140 1618
3 1093 1156 1487
3 231 163 1658
3 699 722 723
3 1545 1095 2508
3 598 612 1794
3 579 554 1880
3 1941 1908 2401
3 1231 1232 1233
3 1831 1829 1841
3 1037 1383 1799
3 177 178 1506
3 636 600 637
3 1036 1539 2286
3 1356 1114 1357
3 1523 1516 2377
3 704 703 705
3 403 402 405
3 648 792 1848
3 723 756 808
3 1388 1389 2170
3 933 932 1770
3 223 1710 1711
3 1779 399 1783
3 1223 1222 1224
3 1028 1029 1313
3 257 161 1654
3 418 412 421
3 734 882 1807
3 693 657 1095
3 1368 1370 1436
3 136 137 1625
3 688 652 817
3 1075 1327 1328
3 540 479 1813
3 398 395 402
3 548 1629 1630
3 574 591 699
3 1469 1494 1495
3 1041 1598 2175
3 167 168 202
3 175 176 204
3 2045 2046 2201
3 186 187 1602
3 886 887 888
3 1253 1254 1259
3 8 9 1673
3 792 655 810
3 843 1145 1960
3 1180 1349 1745
3 1165 1345 1512
3 708 706 709
3 136 1625 1734
3 21 22 207
3 140 141 208
3 625 626 665
3 1093 1094 1156
3 1585 795 1834
3 1117 1713 1806
3 599 579 600
3 810 871 1826
3 1047 1046 1048
3 1292 1291 1293
3 161 162 1654
3 199 1676 1677
3 1260 1282 1804
3 1005 1142 1768
3 1233 1234 1235
3 792 810 922
3 1122 1719 1737
3 976 985 1720
3 1278 1279 2292
3 2390 1934 2531
3 1436 1437 2350
3 270 271 1647
3 1199 966 1846
3 1683 1342 2212
3 656 273 2124
3 699 591 722
3 1977 1139 2096
3 1738 1719 1881
3 1722 985 1874
3 1797 1448 1798
3 162 231 1654
3 632 604 1862
3 252 1602 1791
3 1051 1050 1052
3 1045 1023 1046
3 648 655 792
3 993 1100 1101
3 1321 1055 1322
3 806 709 1627
3 904 903 981
3 1220 1267 1268
3 648 605 655
3 1737 1719 1738
3 385 399 1779
3 506 499 1828
3 1132 266 1402
3 1170 1418 1419
3 1323 2302 2354
3 24 25 215
3 137 138 216
3 721 965 1919
3 1787 1414 2460
3 778 1117 1806
3 723 722 756
3 407 403 1805
3 564 574 1752
3 1049 1048 1050
3 842 841 875
3 1608 1546 1842
3 809 808 899
3 1517 1519 1520
3 1530 1532 1533
3 889 421 1772
3 913 1002 1122
3 1314 1316 1367
3 1017 877 1684
3 841 802 1778
3 1235 1236 1237
3 751 1857 1900
3 1114 924 1767
3 1344 1644 2360
3 1895 1394 2371
3 1518 1535 1861
3 1758 1759 1760
3 1122 1002 1719
3 546 563 1750
3 1056 1726 1727
3 663 660 1746
3 621 622 625
3 1720 985 1721
3 1857 1843 1900
3 808 756 913
3 1056 970 1726
3 27 28 230
3 134 135 229
3 908 906 1099
3 163 164 1658
3 1727 1726 1729
3 7 8 258
3 154 155 259
3 1101 1403 1404
3 808 913 1874
3 1260 1269 1282
3 1389 1387 2262
3 1297 1053 1822
3 1555 1553 1557
3 1463 1464 1465
3 230 28 1765
3 1237 1238 1239
3 554 553 1880
3 775 778 1806
3 985 899 1874
3 1270 1524 2199
3 489 1820 1936
3 692 1072 1794
3 1472 2142 2272
3 1845 496 1929
3 438 431 1814
3 613 615 1824
3 1241 1242 1245
3 1783 415 1915
3 1192 2081 2149
3 178 214 1506
3 1816 988 1817
3 1760 1759 1761
3 1103 1092 1623
3 1512 1345 1661
3 1876 921 2295
3 1165 984 1345
3 978 1074 1075
3 1239 1240 1241
3 542 541 553
3 813 988 1816
3 1148 984 1165
3 871 970 1056
3 472 452 1683
3 1207 1796 1870
3 1167 1166 1754
3 1296 1053 1297
3 966 964 1846
3 976 899 985
3 982 976 984
3 702 1815 2015
3 900 899 976
3 1143 995 1206
3 1576 1024 1827
3 1235 1248 1733
3 1558 1557 1560
3 943 995 1143
3 1920 1144 1943
3 1471 2115 2477
3 29 30 255
3 132 133 254
3 1630 1633 1634
3 1225 1224 1226
3 1925 1573 1926
3 1211 1205 1692
3 725 825 826
3 1113 924 1114
3 600 579 1988
3 717 1552 1567
3 1820 1657 1936
3 674 276 2099
3 395 393 1877
3 572 543 1897
3 1575 1308 2255
3 999 1000 1028
3 1118 1775 1876
3 1797 1798 2430
3 526 546 559
3 867 853 2186
3 1142 1771 1949
3 1068 1275 1442
3 679 385 1779
3 1607 1558 1789
3 580 568 1758
3 1244 1252 1253
3 1760 1761 1762
3 398 402 403
3 1476 1258 1478
3 418 421 889
3 1771 1147 1839
3 164 213 1658
3 1720 1721 2267
3 1668 1591 2512
3 1042 1128 1445
3 1098 1830 1833
3 1102 1092 1103
3 2249 884 2466
3 1104 1103 1434
3 410 416 1821
3 514 513 541
3 580 1758 1763
3 637 673 1741
3 1913 936 1914
3 1394 1395 2337
3 919 920 999
3 577 554 579
3 2111 1660 2263
3 231 1658 1659
3 612 613 644
3 568 543 572
3 770 775 1806
3 1445 1128 1446
3 1546 1548 1842
3 448 460 478
3 810 870 871
3 1789 1560 1819
3 1154 1082 1431
3 873 973 1802
3 379 385 679
3 837 850 921
3 1461 1462 1463
3 1346 1076 1420
3 1088 1344 1808
3 2125 1143 2353
3 931 977 978
3 882 772 1802
3 29 255 1765
3 849 1513 2180
3 1713 827 1806
3 1130 1396 1397
3 681 638 852
3 1417 1321 1873
3 1654 1402 2530
3 502 526 1740
3 1124 888 2177
3 1266 1460 1461
3 515 1175 1840
3 1253 1264 1669
3 479 466 1813
3 1727 1729 1757
3 379 380 385
3 1971 1480 2514
3 1637 1739 2459
3 1207 1205 1208
3 529 519 1899
3 1129 1845 1929
3 224 1661 2267
3 192 1856 2361
3 732 734 1807
3 1184 2163 2435
3 1119 1120 1353
3 415 414 431
3 719 724 725
3 559 546 1750
3 871 872 970
3 1038 917 1622
3 574 699 1752
3 166 167 1679
3 1117 1118 1119
3 1409 1196 2035
3 617 619 621
3 1172 1173 1439
3 1191 1005 1768
3 664 663 684
3 494 493 1841
3 890 529 1731
3 840 802 841
3 493 974 1841
3 385 386 399
3 679 1779 1780
3 371 376 379
3 416 433 1109
3 670 769 1815
3 902 866 903
3 1780 1779 1781
3 480 515 1840
3 970 971 1042
3 433 448 1714
3 28 29 1765
3 1005 949 1142
3 778 780 1117
3 959 1037 1799
3 1073 1003 1076
3 535 532 1898
3 1119 1118 1120
3 658 657 693
3 1378 1379 1380
3 1397 1396 1809
3 1610 1609 1612
3 1819 1560 2016
3 1837 952 1865
3 1719 1131 1881
3 1131 1399 1400
3 1352 1138 2058
3 399 406 409
3 548 1630 2041
3 1275 1338 2251
3 582 1816 1818
3 1835 1836 2144
3 993 1101 1980
3 1699 1698 1700
3 2407 364 2505
3 1189 1190 1788
3 1117 780 1118
3 1830 1829 1831
3 637 672 673
3 692 804 1072
3 1204 1203 1205
3 1374 1170 2139
3 612 692 1794
3 1642 1408 2286
3 723 808 809
3 450 459 1812
3 409 410 414
3 802 801 1778
3 1853 1854 2483
3 1042 1127 1128
3 1199 1846 2225
3 1147 990 1273
3 1383 1384 2432
3 432 431 438
3 1353 1120 1390
3 1093 1091 1094
3 2020 250 2254
3 148 149 1639
3 606 605 648
3 1970 2016 2422
3 2201 2046 2327
3 475 471 513
3 412 407 1951
3 1991 246 2139
3 727 695 728
3 1673 234 1788
3 1554 1556 1559
3 1089 663 1746
3 1846 964 2056
3 923 991 1088
3 409 406 410
3 729 728 730
3 1424 1427 1856
3 1473 1911 2407
3 1376 1377 1378
3 1010 1374 1510
3 853 852 854
3 366 369 1087
3 772 873 1802
3 1219 1218 1626
3 1766 229 2061
3 1088 991 1344
3 922 810 1826
3 518 506 695
3 405 402 2116
3 962 1664 2316
3 913 942 1002
3 932 990 1147
3 629 813 1816
3 876 877 992
3 399 386 406
3 932 845 990
3 1002 1123 1131
3 843 996 1145
3 781 837 1775
3 262 2304 2491
3 431 696 1814
3 1273 1695 1892
3 731 730 732
3 737 732 1807
3 439 438 450
3 1829 498 1841
3 800 685 801
3 767 814 815
3 1060 766 1656
3 673 766 767
3 1403 1605 1882
3 716 718 719
3 1338 1069 1339
3 847 752 1843
3 864 862 1116
3 2302 443 2519
3 923 827 991
3 526 559 1740
3 1911 1473 2358
3 1085 1310 1867
3 809 899 900
3 1227 1226 1228
3 729 730 731
3 1436 1370 1437
3 731 732 737
3 769 827 923
3 456 452 471
3 1433 1503 2471
3 1435 1103 1623
3 385 380 386
3 1141 1787 2460
3 1354 1088 1808
3 657 649 1848
3 415 431 432
3 484 892 1820
3 727 728 729
3 855 854 1450
3 1721 1722 1723
3 1643 1353 1644
3 1145 1916 1960
3 1421 1191 1422
3 466 1812 1813
3 943 944 995
3 1356 1357 1376
3 714 715 716
3 1156 1094 1157
3 598 611 612
3 631 1600 2298
3 590 589 605
3 965 969 1919
3 416 1109 1821
3 242 1697 2335
3 1548 1547 1549
3 550 573 584
3 584 604 632
3 409 414 415
3 712 713 714
3 642 670 702
3 818 698 819
3 1006 1005 1191
3 1624 1689 1691
3 169 170 237
3 173 174 238
3 956 912 1003
3 937 936 1913
3 1317 1025 1875
3 515 540 550
3 973 1799 1800
3 973 959 1799
3 518 695 727
3 910 819 912
3 584 573 604
3 1170 946 1418
3 173 238 1847
3 550 540 573
3 982 984 1148
3 900 976 982
3 441 435 452
3 448 478 1714
3 1849 1648 2173
3 1631 1628 1637
3 1830 1831 1832
3 1383 1216 1384
3 734 772 882
3 949 933 1770
3 1332 1330 1333
3 574 575 591
3 1105 1088 1354
3 702 670 1815
3 498 494 1841
3 827 770 1806
3 873 959 973
3 1390 1391 1415
3 450 438 459
3 950 949 1005
3 351 362 364
3 1313 1029 1314
3 432 438 439
3 837 838 850
3 1273 1274 1695
3 850 851 943
3 911 952 1837
3 1259 1260 1804
3 566 587 588
3 1037 1216 1383
3 1337 1265 1538
3 1087 369 1795
3 810 655 870
3 1559 1561 1566
3 1147 1273 1839
3 732 733 734
3 1662 867 2126
3 890 1731 2241
3 1854 1852 2397
3 515 479 540
3 451 450 466
3 697 666 698
3 1367 1316 1368
3 662 660 663
3 365 355 694
3 1358 1114 1767
3 379 376 380
3 1796 1448 1797
3 179 180 1859
3 790 668 849
3 569 568 580
3 690 860 931
3 466 450 1812
3 431 414 696
3 1973 1133 1974
3 651 649 657
3 467 466 479
3 1288 1289 1835
3 264 265 1986
3 1302 1303 1304
3 592 596 597
3 1873 1321 2037
3 544 543 568
3 275 277 549
3 209 1937 2389
3 539 565 566
3 1485 227 1486
3 2384 2190 2408
3 1781 1779 1783
3 480 479 515
3 689 1416 2413
3 1108 1161 1539
3 1867 1310 1895
3 1300 1301 1302
3 1695 1696 1697
3 633 632 668
3 1304 1451 1452
3 988 911 1837
3 168 169 1724
3 969 1012 1172
3 582 629 1816
3 1843 752 1900
3 629 812 813
3 710 711 712
3 1782 1780 1784
3 536 535 543
3 1089 1746 1969
3 1108 1107 1161
3 1514 1426 1856
3 486 484 1820
3 369 371 1795
3 1817 988 1924
3 493 609 974
3 1422 1191 2023
3 1426 1424 1856
3 842 875 924
3 922 1826 2259
3 989 1361 1886
3 928 1070 1288
3 669 668 790
3 1113 1114 1356
3 1027 847 1843
3 728 695 1098
3 734 735 772
3 975 1107 1108
3 955 859 1962
3 813 911 988
3 1208 1448 1796
3 1101 1405 1980
3 602 676 2045
3 586 581 589
3 546 547 563
3 493 491 609
3 628 1524 2390
3 348 344 354
3 1298 1299 1300
3 509 538 539
3 974 609 975
3 813 891 911
3 871 870 872
3 1355 1354 1423
3 489 486 1820
3 778 779 780
3 1025 1176 1875
3 772 773 873
3 803 1743 2347
3 167 202 1679
3 873 883 959
3 1483 1571 2375
3 427 1756 2221
3 540 1813 1954
3 1202 1200 1203
3 959 1035 1037
3 837 921 1775
3 1304 1305 1451
3 1799 1383 2195
3 604 642 1862
3 1470 1744 2474
3 1854 2397 2453
3 1282 1269 1386
3 1573 1572 2157
3 472 2222 2290
3 1307 1708 2341
3 769 770 827
3 1037 1215 1216
3 791 790 856
3 1053 1052 1822
3 1056 1727 1728
3 1341 1138 1352
3 1300 1299 1301
3 1814 696 1838
3 1198 1196 1409
3 492 491 493
3 439 450 451
3 1171 858 2132
3 1259 1254 1260
3 665 626 666
3 970 872 971
3 258 1602 2357
3 1296 1297 1472
3 490 489 491
3 516 437 2494
3 1298 1027 1299
3 846 845 932
3 501 508 509
3 460 461 502
3 448 449 460
3 482 480 1840
3 1229 1228 1230
3 604 641 642
3 1424 1423 1427
3 502 503 526
3 1028 1000 1029
3 935 933 949
3 1084 1085 1867
3 2028 1711 2353
3 1513 1426 1514
3 892 482 1840
3 852 638 1988
3 402 395 1877
3 738 737 845
3 413 412 418
3 1119 1353 1643
3 526 527 546
3 280 279 281
3 1731 1155 2123
3 1042 971 1127
3 1208 1447 1448
3 433 434 448
3 262 159 2304
3 184 1454 2303
3 1051 1052 1053
3 1816 1817 1818
3 1081 1417 1444
3 781 836 837
3 911 951 952
3 1090 1092 1102
3 202 168 1724
3 1085 1309 1310
3 408 407 412
3 1337 1538 1864
3 1515 1514 1516
3 530 529 890
3 1517 1518 1519
3 549 686 687
3 923 1088 1105
3 404 403 407
3 1835 1289 1836
3 1314 1367 2121
3 1380 1379 2416
3 670 671 769
3 899 808 1874
3 1040 903 1703
3 1596 1595 2154
3 1496 1495 1497
3 636 637 1741
3 1377 1638 2288
3 1288 1070 1289
3 1072 804 1981
3 1129 1334 1845
3 1865 1084 1866
3 792 922 1603
3 1253 1252 1254
3 981 1167 1792
3 1302 1301 1303
3 1641 1651 2019
3 952 953 1084
3 1813 1812 1869
3 732 730 733
3 975 1106 1107
3 1142 949 1770
3 981 1166 1167
3 840 841 842
3 451 466 467
3 1273 990 1274
3 1049 1050 1051
3 1473 2407 2505
3 968 966 1199
3 642 643 670
3 1310 1309 1311
3 422 419 435
3 1063 833 1082
3 919 782 920
3 911 891 951
3 1084 953 1085
3 1763 1764 2164
3 1498 1497 1682
3 515 550 1175
3 1079 937 1913
3 642 702 1862
3 845 737 1931
3 1394 1311 1395
3 1395 1521 1522
3 467 479 480
3 1755 1754 1793
3 1231 1230 1232
3 1557 1553 2030
3 1624 1691 2262
3 584 632 633
3 1094 1091 1969
3 708 709 710
3 1948 1627 2488
3 952 951 953
3 1102 1103 1104
3 1047 1048 1049
3 1310 1311 1394
3 1852 1099 1985
3 143 144 1717
3 813 812 891
3 1944 1044 1945
3 1105 1354 1355
3 1300 1302 1455
3 1914 936 1940
3 1415 1391 1710
3 1299 1027 1843
3 952 1084 1865
3 1695 1274 1696
3 776 774 1928
3 282 281 283
3 2003 1347 2279
3 1206 995 1499
3 1164 1685 1686
3 1551 1565 2030
3 969 1172 1919
3 633 668 669
3 734 733 735
3 1373 1372 1438
3 599 600 636
3 1431 1860 2487
3 1579 1577 1999
3 484 482 892
3 917 940 941
3 2144 1836 2169
3 1866 1084 1867
3 1110 1747 1748
3 998 1171 1811
3 1390 1120 1391
3 644 1824 2057
3 1362 1961 2048
3 944 1283 1825
3 1086 1027 1298
3 679 1780 1782
3 974 975 1879
3 507 506 518
3 1121 1079 1401
3 775 777 778
3 1965 762 2349
3 1045 1046 1047
3 1772 421 2106
3 16 17 2081
3 416 417 433
3 921 850 2125
3 1607 1855 1958
3 649 648 1848
3 1241 1240 1242
3 2012 1443 2251
3 926 928 1920
3 1487 1488 2025
3 1006 1191 1421
3 1355 1423 1424
3 1133 852 1988
3 591 592 1776
3 1299 1843 1857
3 1085 1308 1309
3 490 491 492
3 958 694 1575
3 1384 1216 1385
3 741 915 1878
3 1233 1232 1234
3 669 790 791
3 481 480 482
3 687 703 704
3 492 493 494
3 1634 1633 1922
3 1697 1696 1698
3 1721 985 1722
3 1839 1273 1892
3 772 735 773
3 488 486 489
3 950 1005 1006
3 1513 1514 1515
3 454 500 501
3 873 773 883
3 284 283 285
3 2185 1505 2442
3 959 883 1035
3 543 535 1897
3 1904 1384 2093
3 800 801 802
3 1037 1035 1215
3 1293 1964 1965
3 1239 1238 1240
3 943 1143 2125
3 1782 1784 1785
3 913 756 942
3 488 490 1884
3 1590 1749 2501
3 1235 1234 1236
3 791 856 1408
3 702 2015 2070
3 1108 1539 1540
3 1021 1023 1045
3 695 506 1828
3 1530 1528 1532
3 488 489 490
3 1621 1619 2161
3 704 705 706
3 1304 1303 1305
3 558 1704 2167
3 625 622 626
3 542 553 554
3 604 573 641
3 664 684 685
3 564 571 574
3 1108 1540 1879
3 1856 1427 2361
3 880 1025 1129
3 1395 1311 1521
3 1466 1465 1467
3 915 495 1884
3 1515 1516 1523
3 1237 1236 1238
3 606 648 649
3 999 920 1000
3 676 829 1043
3 2100 794 2142
3 227 151 1500
3 577 579 599
3 153 154 1671
3 1175 550 1927
3 1014 888 1015
3 286 285 287
3 1649 1280 2427
3 1725 204 2137
3 975 609 1106
3 1129 1317 1334
3 1109 1730 2426
3 1468 1467 1469
3 1131 1123 1399
3 1215 2235 2378
3 1976 1149 1989
3 397 395 398
3 746 743 1878
3 1041 1343 1598
3 975 1108 1879
3 741 495 915
3 1167 1754 1755
3 288 287 289
3 743 741 1878
3 1274 990 1931
3 1506 214 1507
3 857 1584 2277
3 2341 1522 2387
3 846 932 933
3 1107 1106 1110
3 584 633 1927
3 290 289 291
3 722 591 1776
3 1544 1094 1969
3 1135 270 1647
3 935 949 950
3 1920 1288 2080
3 754 1896 2108
3 1693 1199 2225
3 292 291 293
3 394 393 395
3 745 743 746
3 1002 942 1123
3 731 737 738
3 294 293 295
3 1018 1573 1925
3 296 295 297
3 298 297 299
3 321 322 325
3 317 320 321
3 314 315 317
3 312 313 314
3 310 311 312
3 308 309 310
3 1898 890 2275
3 306 307 308
3 304 305 306
3 1401 1079 1913
3 300 299 301
3 302 303 304
3 300 301 302
3 302 301 303
3 491 489 1936
3 298 299 300
3 304 303 305
3 306 305 307
3 308 307 309
3 310 309 311
3 312 311 313
3 314 313 315
3 317 315 320
3 321 320 322
3 1301 1299 1857
3 514 541 542
3 296 297 298
3 850 838 851
3 1310 1394 1895
3 294 295 296
3 590 605 606
3 292 293 294
3 651 657 658
3 290 291 292
3 1207 1208 1796
3 835 1976 1989
3 621 619 622
3 746 1878 1896
3 481 482 483
3 1026 847 1027
3 1335 1207 1870
3 1661 59 2266
3 727 729 1155
3 288 289 290
3 1058 776 1928
3 662 663 664
3 495 488 1884
3 1959 319 2522
3 943 851 944
3 1293 1291 1964
3 534 532 535
3 640 645 646
3 2280 1014 2385
3 286 287 288
3 591 575 592
3 521 519 529
3 13 14 2114
3 780 779 781
3 918 908 1850
3 837 836 838
3 209 148 1639
3 754 748 1896
3 745 746 747
3 769 671 770
3 929 1065 2197
3 1278 1058 1279
3 483 482 484
3 1564 1557 2030
3 633 807 1927
3 392 391 393
3 1057 1621 2161
3 569 580 581
3 284 285 286
3 876 992 1894
3 497 494 498
3 1630 1635 2041
3 982 1148 1918
3 612 611 613
3 700 634 1044
3 822 674 2099
3 880 1129 1929
3 432 439 654
3 1039 1291 1292
3 1164 1686 1989
3 1129 1025 1317
3 738 845 846
3 582 583 629
3 278 6 279
3 544 568 569
3 1701 1274 1931
3 747 749 751
3 1085 953 1308
3 928 930 1070
3 747 748 749
3 1421 1422 2415
3 902 903 904
3 1309 1308 1543
3 642 641 643
3 904 981 1792
3 646 784 785
3 536 543 544
3 1204 1205 1207
3 365 694 958
3 71 72 217
3 88 89 1901
3 87 88 193
3 101 102 189
3 85 86 242
3 99 100 241
3 74 75 192
3 91 92 219
3 94 95 191
3 83 84 220
3 97 98 221
3 77 78 218
3 80 81 194
3 89 90 245
3 62 63 244
3 60 61 188
3 64 65 223
3 67 68 190
3 90 91 1909
3 98 99 1905
3 61 62 1908
3 69 70 243
3 68 69 1907
3 70 71 1910
3 410 411 416
3 586 589 590
3 685 684 2029
3 390 389 391
3 1715 1150 1811
3 1924 1837 2215
3 282 283 284
3 496 497 1929
3 233 1671 1769
3 627 2185 2442
3 1567 1552 2062
3 629 630 812
3 424 453 454
3 583 562 1942
3 749 750 805
3 744 743 745
3 1897 535 1898
3 467 480 481
3 504 759 880
3 670 643 671
3 89 245 1901
3 193 88 1901
3 221 98 1905
3 245 90 1909
3 91 219 1909
3 62 244 1908
3 188 61 1908
3 99 241 1905
3 190 68 1907
3 71 217 1910
3 69 243 1907
3 243 70 1910
3 505 499 506
3 475 513 514
3 1945 1044 2071
3 1712 2125 2353
3 339 343 440
3 989 1360 1361
3 764 869 1152
3 778 777 779
3 1686 1685 1687
3 742 741 743
3 979 989 1886
3 729 731 1887
3 926 927 928
3 1305 1306 1307
3 1838 1278 2292
3 747 746 748
3 181 182 1652
3 1886 1361 2305
3 1595 1594 2486
3 597 596 598
3 928 1288 1920
3 1970 824 2156
3 1425 1424 1426
3 497 504 1929
3 748 746 1896
3 745 747 1900
3 998 858 1171
3 563 547 564
3 1155 729 1887
3 634 583 1942
3 1439 1173 1440
3 1026 1027 1086
3 79 80 1904
3 1533 1532 1536
3 1449 1426 1513
3 1106 609 1936
3 1318 1013 1319
3 1098 695 1828
3 492 494 496
3 750 748 754
3 731 738 1887
3 2415 1422 2516
3 533 562 582
3 988 1837 1924
3 1216 1215 1863
3 534 535 536
3 747 751 1900
3 1753 809 2119
3 1183 824 1970
3 740 495 741
3 80 194 1904
3 893 383 2087
3 655 605 1939
3 1884 2034 2082
3 1301 1857 1923
3 1307 1306 1708
3 752 745 1900
3 750 754 755
3 76 77 1903
3 2090 2347 2365
3 255 30 2159
3 132 254 2160
3 448 434 449
3 753 848 926
3 1075 1074 1327
3 487 488 495
3 377 381 647
3 483 484 485
3 755 754 2148
3 1584 1925 2277
3 1186 1183 1970
3 951 891 1281
3 485 484 486
3 546 527 547
3 133 134 1766
3 1786 1785 2409
3 280 281 282
3 460 449 461
3 744 745 752
3 77 218 1903
3 983 1918 2342
3 1708 1306 1810
3 1389 2069 2170
3 487 486 488
3 641 573 1954
3 507 518 519
3 502 461 503
3 519 518 1899
3 1202 1203 1204
3 821 897 1972
3 92 93 1902
3 521 529 530
3 749 748 750
3 2176 1380 2416
3 885 826 886
3 485 486 487
3 371 372 376
3 1289 1070 1871
3 1110 1657 1747
3 753 926 1943
3 700 1044 1944
3 880 881 1025
3 496 1845 2034
3 1072 1981 2393
3 462 464 2134
3 1949 1771 2359
3 1044 634 1942
3 550 584 1927
3 1390 1415 2118
3 526 503 527
3 990 845 1931
3 1009 1213 1214
3 740 742 1144
3 219 92 1902
3 727 1155 1899
3 369 370 371
3 623 690 2150
3 1279 1058 1928
3 1408 2235 2286
3 487 495 740
3 979 1886 2086
3 1305 1303 1306
3 421 412 1951
3 843 844 996
3 633 669 807
3 518 727 1899
3 826 825 1961
3 1657 1106 1936
3 1172 1012 1173
3 740 741 742
3 433 417 434
3 505 506 507
3 1333 1674 2437
3 742 743 744
3 469 458 470
3 1381 1380 1382
3 1293 1965 2515
3 1554 1559 2062
3 553 557 2499
3 1774 389 2339
3 497 498 499
3 483 485 576
3 740 1144 1935
3 773 735 834
3 366 367 369
3 1120 1118 1876
3 1515 1523 1574
3 1319 1013 2039
3 1303 1301 1923
3 457 447 458
3 561 593 594
3 1355 1424 1425
3 609 491 1936
3 204 1732 2137
3 791 1408 1642
3 995 944 1825
3 456 471 475
3 1692 1693 2239
3 580 1763 2164
3 1292 1293 2117
3 441 452 456
3 388 384 389
3 823 821 1972
3 504 880 1929
3 176 177 1680
3 1070 1071 1871
3 15 2260 2477
3 362 363 366
3 2178 2300 2449
3 1035 883 1036
3 2285 1563 2307
3 978 977 1074
3 1090 1102 2029
3 1810 1306 1923
3 496 494 497
3 1306 1303 1923
3 432 654 1915
3 934 933 935
3 356 355 365
3 398 403 404
3 635 701 843
3 1110 1106 1657
3 574 571 575
3 1025 881 1176
3 386 380 786
3 415 432 1915
3 343 347 1911
3 1070 930 1071
3 1688 1740 2231
3 1385 1216 1863
3 1696 1274 1701
3 1645 305 2317
3 880 759 881
3 926 848 927
3 1427 1423 2217
3 1339 1662 2388
3 770 774 775
3 1263 1257 1428
3 1337 1864 2412
3 349 348 355
3 2267 1721 2498
3 753 752 847
3 1375 1086 1473
3 900 982 983
3 332 335 739
3 429 428 430
3 744 752 753
3 1171 2132 2165
3 1425 1426 1449
3 987 641 1954
3 1883 1786 2409
3 427 426 428
3 928 927 930
3 1815 1105 2015
3 1206 1499 1941
3 410 406 411
3 573 540 1954
3 497 499 504
3 528 560 561
3 1933 1404 2399
3 1091 1089 1969
3 1804 1282 2073
3 504 505 759
3 963 924 1113
3 1711 1710 1712
3 881 759 1146
3 968 1199 1200
3 351 352 362
3 848 847 1026
3 521 530 531
3 1884 490 2034
3 1277 957 1966
3 1349 1350 2329
3 676 1043 2045
3 997 1159 1286
3 517 1889 1890
3 781 835 836
3 944 948 1283
3 722 1776 2026
3 507 519 520
3 2040 1352 2058
3 1276 957 1277
3 446 437 447
3 931 860 977
3 361 359 765
3 1248 1536 2534
3 512 523 528
3 408 412 413
3 1368 1369 1370
3 451 2169 2223
3 192 75 1994
3 942 756 2026
3 345 344 348
3 764 1152 1963
3 413 418 419
3 1286 1773 1774
3 770 671 774
3 275 549 2124
3 1497 1645 2461
3 1982 1472 2272
3 422 435 441
3 281 279 736
3 1134 270 1135
3 582 562 583
3 1421 2415 2454
3 485 487 1935
3 2300 1067 2480
3 1578 1576 1827
3 930 927 1061
3 1026 1086 1375
3 922 2259 2379
3 1391 1120 1876
3 1495 1494 2493
3 404 407 408
3 879 2178 2449
3 1700 1698 2036
3 607 1517 1520
3 753 847 848
3 416 411 417
3 1144 742 1943
3 775 776 777
3 754 2108 2148
3 1006 1421 1953
3 585 581 586
3 531 530 532
3 235 1709 1888
3 520 519 521
3 1180 1181 1349
3 1146 759 1967
3 708 710 1921
3 1350 2253 2329
3 436 430 437
3 504 499 505
3 643 641 987
3 336 330 517
3 811 1059 1149
3 1164 1411 1685
3 846 933 934
3 635 843 1960
3 983 982 1918
3 971 872 1096
3 1149 1163 1164
3 169 237 1724
3 1314 1315 1316
3 629 583 630
3 891 812 1916
3 462 463 464
3 487 740 1935
3 798 2084 2189
3 1814 1838 2292
3 1284 1489 1491
3 340 336 2014
3 1670 1461 2200
3 920 782 2057
3 890 2241 2275
3 510 511 512
3 278 279 280
3 839 802 840
3 1858 235 1888
3 1698 1696 2036
3 104 105 222
3 57 58 224
3 1185 1183 1186
3 588 587 623
3 638 600 1988
3 1282 1386 2245
3 811 776 1058
3 816 815 876
3 2034 1845 2082
3 761 636 1741
3 566 565 587
3 174 175 1725
3 347 350 351
3 1469 1495 1496
3 1059 1058 1278
3 811 1149 1976
3 576 485 1935
3 659 658 660
3 859 1153 1962
3 76 1903 1994
3 1821 1109 2426
3 1294 1038 1622
3 733 1833 2075
3 992 993 1980
3 1566 1561 2285
3 525 474 2041
3 464 465 510
3 343 346 347
3 360 893 1982
3 650 649 651
3 896 608 936
3 950 1006 1007
3 1508 1859 1860
3 539 538 565
3 440 343 1911
3 341 340 344
3 221 1905 1906
3 1297 1823 2142
3 759 505 1967
3 1295 1053 1296
3 473 470 474
3 1463 1465 1466
3 1143 1206 2028
3 799 685 800
3 1210 2077 2203
3 509 508 538
3 492 496 2034
3 1553 1551 2030
3 1260 1261 1269
3 1430 1040 1703
3 586 590 1940
3 838 836 868
3 1705 624 2276
3 1749 972 2501
3 742 744 1943
3 804 962 1981
3 1367 1368 2254
3 531 532 533
3 337 336 340
3 1157 1094 1544
3 536 544 1158
3 812 630 1960
3 781 779 835
3 56 57 1947
3 630 583 634
3 1405 1404 1932
3 1281 891 1916
3 339 342 343
3 1411 1163 1730
3 322 323 324
3 344 340 2091
3 1735 1734 1736
3 75 76 1994
3 430 682 2494
3 1907 243 2360
3 589 581 2164
3 694 355 2196
3 744 753 1943
3 775 774 776
3 1210 1430 2077
3 335 338 339
3 1102 1803 2029
3 1078 937 1079
3 870 655 1939
3 505 507 1967
3 357 360 1982
3 1896 1878 2101
3 326 325 328
3 934 935 957
3 585 608 895
3 333 330 336
3 1270 1272 1524
3 688 817 878
3 507 520 1967
3 1428 1257 2074
3 1818 1817 2000
3 896 937 1077
3 934 957 1111
3 329 328 330
3 1499 995 1825
3 944 851 948
3 387 445 462
3 1678 1161 2228
3 777 776 811
3 313 311 757
3 324 331 332
3 848 1026 1955
3 1312 998 1811
3 1321 1322 2037
3 1080 1079 1121
3 1105 1355 2015
3 1645 2317 2461
3 1559 1568 2062
3 332 334 335
3 501 500 508
3 321 325 326
3 394 395 397
3 322 320 323
3 1529 1530 2171
3 1137 797 1138
3 811 1058 1059
3 661 660 662
3 569 581 585
3 183 4 2303
3 5 160 2304
3 1340 1138 1341
3 1660 1626 2185
3 1743 1464 2347
3 1026 1375 1955
3 1149 1059 1163
3 1736 1625 2194
3 1322 1667 2434
3 311 309 1959
3 309 307 319
3 894 700 1944
3 533 534 562
3 1276 1277 1366
3 2190 1706 2408
3 533 532 534
3 1214 1213 1410
3 1164 1163 1411
3 843 701 844
3 1009 1214 2055
3 234 1589 1788
3 2000 1817 2174
3 317 321 2050
3 328 325 945
3 392 393 394
3 588 623 2089
3 1162 958 1681
3 1078 1080 1136
3 927 848 1955
3 1496 1497 1498
3 390 391 392
3 1061 927 1955
3 1283 948 1284
3 635 634 700
3 1244 1251 1252
3 218 78 2093
3 756 722 2026
3 1071 1784 2419
3 1218 1505 2185
3 1284 948 1285
3 1489 1285 1490
3 918 1850 1851
3 684 1090 2029
3 1759 572 2537
3 1691 1690 2446
3 1979 1158 2071
3 606 649 650
3 2045 1043 2046
3 103 104 2025
3 630 634 635
3 360 383 893
3 406 386 2043
3 1909 219 2023
3 1111 957 1276
3 1925 1437 2277
3 1536 2268 2340
3 854 852 1133
3 233 153 1671
3 651 658 659
3 2099 1787 2368
3 1033 1032 1130
3 1015 1372 1373
3 1412 942 2026
3 253 264 1441
3 1531 1534 2332
3 701 700 894
3 106 107 1990
3 2048 1961 2455
3 276 274 2099
3 738 846 1968
3 1325 925 1326
3 896 936 937
3 585 586 608
3 1450 854 1973
3 1361 1360 1362
3 1045 1668 2512
3 303 301 444
3 996 844 997
3 79 1904 2093
3 1989 1686 2095
3 1928 774 2033
3 1942 562 1979
3 287 285 316
3 935 950 1966
3 1466 1467 1468
3 1242 1243 1244
3 1887 738 1968
3 2115 210 2477
3 878 929 1083
3 1326 1736 2194
3 886 888 1014
3 895 608 896
3 289 287 1978
3 821 822 897
3 936 608 1940
3 613 614 615
3 51 52 1996
3 417 411 1160
3 1149 1164 1989
3 386 786 2043
3 285 283 1971
3 1309 1543 2147
3 375 373 2053
3 371 370 372
3 779 777 1976
3 1286 1159 1773
3 2177 887 2376
3 1560 1557 1564
3 1403 1882 2399
3 1727 1757 2246
3 279 6 2049
3 1619 1438 2438
3 291 289 758
3 1781 1915 2294
3 425 401 426
3 349 355 356
3 66 67 2118
3 474 548 2041
3 1686 1687 2007
3 1262 1456 1457
3 1123 942 1412
3 1916 812 1960
3 1355 1425 2015
3 735 733 2075
3 1861 879 2449
3 1284 1285 1489
3 490 492 2034
3 366 363 367
3 980 578 2051
3 906 904 1792
3 534 536 1979
3 842 924 963
3 2051 578 2083
3 1077 937 1078
3 1102 1104 1803
3 894 1944 1946
3 398 404 2060
3 1007 1006 1953
3 369 367 370
3 348 354 2196
3 1078 1079 1080
3 1378 1380 1381
3 1568 1365 2439
3 608 586 1940
3 598 610 611
3 760 636 761
3 869 1137 1351
3 671 643 2033
3 1661 1345 2267
3 938 914 1057
3 783 761 914
3 576 1835 2144
3 388 389 390
3 297 295 318
3 454 453 500
3 1906 1728 2246
3 1439 1440 2468
3 1159 1013 1318
3 764 797 869
3 236 143 1717
3 782 644 2057
3 592 595 596
3 1542 2332 2443
3 1521 1311 2147
3 345 348 349
3 1304 1452 2205
3 1644 1907 2360
3 2146 1125 2149
3 997 844 1013
3 628 375 2053
3 299 297 1984
3 957 935 1966
3 664 685 799
3 301 299 1975
3 362 352 363
3 777 811 1976
3 1942 1979 2071
3 1001 920 2057
3 312 314 768
3 1552 1554 2062
3 615 616 617
3 357 1982 2076
3 800 802 839
3 774 671 2033
3 1749 1169 2105
3 365 958 1162
3 617 618 619
3 283 281 1938
3 1351 1772 2414
3 1525 1765 2489
3 846 934 1968
3 635 700 701
3 555 554 577
3 536 1158 1979
3 1101 1404 1405
3 630 635 1960
3 1811 1150 2089
3 2113 1666 2249
3 172 173 1847
3 107 108 195
3 54 55 196
3 1191 1768 2023
3 1455 1302 2205
3 115 116 2017
3 1387 1333 2437
3 659 661 764
3 1080 1121 1188
3 50 51 2011
3 411 406 2043
3 295 293 1983
3 643 987 2033
3 707 706 708
3 129 130 261
3 32 33 260
3 2159 260 2265
3 449 434 567
3 1314 1029 1315
3 917 796 940
3 378 375 628
3 108 109 1991
3 2370 1759 2537
3 341 344 345
3 997 1013 1159
3 544 569 1993
3 950 1007 1966
3 477 474 525
3 351 350 352
3 1696 1701 2036
3 334 331 803
3 1137 1138 1340
3 562 534 1979
3 109 110 246
3 52 53 247
3 1368 1316 1369
3 659 660 661
3 33 34 2002
3 123 124 2005
3 835 779 1976
3 851 838 1992
3 1530 1533 2172
3 1668 1045 2348
3 1162 1681 1706
3 342 338 468
3 298 300 358
3 765 359 2065
3 725 826 885
3 35 36 2003
3 46 47 2019
3 38 39 2006
3 336 517 2014
3 934 1111 1968
3 116 117 2018
3 650 651 1963
3 223 1711 2162
3 640 594 645
3 1333 1330 2192
3 104 222 2025
3 1603 922 2379
3 963 1113 1115
3 2084 1193 2189
3 564 570 571
3 36 37 2004
3 57 224 1947
3 1542 1601 2269
3 122 123 2012
3 1000 920 1001
3 127 128 240
3 34 35 239
3 383 387 2087
3 1161 1107 2228
3 1781 2294 2419
3 1201 1200 1202
3 124 125 225
3 37 38 226
3 1340 1341 1342
3 869 797 1137
3 839 840 1008
3 1158 544 1993
3 1326 925 1894
3 352 350 353
3 326 329 954
3 1864 2344 2412
3 836 835 2095
3 1051 1053 1295
3 1031 720 1032
3 503 461 787
3 1407 1112 2044
3 661 662 2058
3 838 868 1992
3 112 113 197
3 49 50 198
3 1359 980 1413
3 121 122 211
3 40 41 212
3 48 49 2010
3 113 114 2009
3 1741 673 2131
3 41 42 2020
3 120 121 2013
3 1409 2035 2097
3 1511 1374 2506
3 114 115 248
3 47 48 249
3 42 43 250
3 119 120 251
3 171 6 201
3 6 172 203
3 585 895 1993
3 43 44 2024
3 118 119 2021
3 905 904 906
3 764 661 797
3 337 340 341
3 1413 980 2051
3 117 118 205
3 44 45 206
3 347 346 350
3 1420 1076 1525
3 324 323 331
3 434 417 2031
3 965 967 969
3 716 719 788
3 1260 1254 1261
3 2053 373 2103
3 2069 2068 2170
3 326 328 329
3 1706 996 2408
3 273 275 2124
3 969 1011 1012
3 590 606 2001
3 1718 1611 2280
3 1914 1940 2001
3 915 1884 2082
3 329 330 333
3 620 859 955
3 2168 1409 2305
3 296 298 1997
3 915 2082 2101
3 339 338 342
3 1218 994 1505
3 333 336 337
3 266 263 1742
3 1873 768 2127
3 244 63 2162
3 64 223 2162
3 343 342 346
3 914 761 2258
3 310 312 1987
3 799 800 2055
3 302 304 763
3 1559 1566 1568
3 1598 1343 2114
3 592 575 595
3 341 345 794
3 189 1842 2220
3 767 815 816
3 1003 912 1004
3 839 1008 1009
3 1263 1428 1429
3 564 547 570
3 1845 1334 2082
3 332 331 334
3 901 866 902
3 651 659 1963
3 1009 1112 1213
3 335 334 338
3 569 585 1993
3 1665 1336 2299
3 1945 2071 2153
3 863 862 864
3 907 906 908
3 1849 1486 1930
3 1935 1144 2080
3 967 966 968
3 809 900 2119
3 865 864 866
3 835 1989 2095
3 190 1907 2417
3 333 337 522
3 1110 1748 2228
3 1193 1194 1195
3 94 191 2166
3 473 1854 2453
3 1769 1134 2369
3 948 851 1992
3 237 170 2216
3 420 419 422
3 1448 1447 2364
3 483 576 2144
3 721 1919 2032
3 885 886 1891
3 613 611 614
3 886 1014 1891
3 1160 411 2043
3 1918 1283 2342
3 1651 206 2485
3 1242 1240 1243
3 598 596 610
3 1295 1296 1459
3 1185 1186 1948
3 1425 1449 2070
3 294 296 762
3 1285 948 1992
3 925 876 1894
3 712 714 789
3 603 1668 2398
3 1940 590 2001
3 721 570 964
3 834 735 2075
3 1144 1920 2080
3 2263 1635 2511
3 1204 1207 1335
3 2235 1408 2378
3 965 964 966
3 1990 1435 2218
3 397 398 2060
3 1138 797 2058
3 1787 1141 2368
3 2068 820 2170
3 360 359 361
3 387 462 2087
3 1524 1272 1934
3 819 698 820
3 1197 1196 1198
3 1662 2126 2388
3 78 79 2093
3 1150 588 2089
3 1269 1261 1270
3 1878 915 2101
3 451 467 2169
3 2262 1387 2437
3 1009 1008 1112
3 757 311 1959
3 897 898 1139
3 1854 473 2483
3 2015 1425 2070
3 2082 1334 2101
3 963 1115 1174
3 1047 1049 1287
3 1194 423 1196
3 321 326 2050
3 417 1160 2031
3 854 1133 1973
3 1201 1212 1348
3 705 1586 2163
3 309 319 1959
3 1353 1390 2417
3 427 428 429
3 357 356 359
3 606 650 2001
3 549 1280 2124
3 1213 1112 1407
3 256 2303 2535
3 356 365 2065
3 662 664 2040
3 701 894 2039
3 1325 1371 2451
3 666 626 667
3 1902 93 2166
3 1236 1234 1246
3 800 839 2055
3 1869 1812 2252
3 1197 1364 1365
3 576 1935 2080
3 404 408 798
3 1678 807 2529
3 1560 1564 2016
3 1319 2039 2122
3 425 426 427
3 349 356 357
3 308 310 327
3 1716 622 2484
3 1801 82 2289
3 1768 1949 2420
3 2006 1926 2507
3 351 364 2407
3 420 423 1193
3 659 764 1963
3 292 294 2038
3 840 842 2027
3 736 279 2049
3 372 373 374
3 461 449 2052
3 2189 1195 2285
3 1174 1115 1398
3 367 363 961
3 909 908 918
3 1738 247 2402
3 1007 1761 2308
3 288 290 2135
3 422 441 2035
3 623 624 690
3 537 525 545
3 1953 1421 2454
3 1887 1968 2123
3 861 691 862
3 654 439 2223
3 1136 1080 2054
3 1312 1811 2089
3 575 571 2032
3 383 361 384
3 968 1200 1201
3 797 661 2058
3 1423 1354 2381
3 1180 1178 1181
3 1513 1515 2180
3 72 73 2217
3 462 445 463
3 12 13 2136
3 457 458 469
3 542 554 555
3 599 636 760
3 254 133 1766
3 1130 1397 1937
3 404 798 2060
3 1044 1942 2071
3 690 691 860
3 357 359 360
3 1008 2027 2152
3 1232 1230 1255
3 372 370 373
3 850 943 2125
3 1457 1456 1492
3 1952 324 2282
3 155 2 2356
3 0 7 2357
3 2017 1379 2288
3 918 1851 2008
3 195 1991 2517
3 2090 803 2347
3 1244 1243 1251
3 290 292 368
3 1432 1082 2214
3 1008 840 2027
3 1743 803 2296
3 1013 844 2039
3 365 1162 2065
3 1594 1315 2184
3 387 384 388
3 1508 1860 2311
3 547 527 2056
3 2005 225 2322
3 314 317 2127
3 1853 556 2327
3 201 6 278
3 1907 1644 2417
3 1896 2101 2108
3 646 645 784
3 538 508 558
3 374 375 377
3 1630 1634 1635
3 1579 1999 2352
3 1647 1648 1849
3 1313 1314 2121
3 1179 1433 2042
3 844 701 2039
3 1252 1251 2098
3 816 876 925
3 1922 1228 2281
3 392 394 396
3 1915 654 2294
3 1652 1653 2487
3 429 430 436
3 456 475 476
3 1605 1392 2510
3 126 1882 2284
3 1784 1780 2419
3 500 453 960
3 377 378 381
3 2178 1587 2300
3 1222 1219 1626
3 413 419 420
3 381 382 400
3 2169 1836 2223
3 1906 1905 2129
3 616 614 793
3 1170 1419 2139
3 101 189 2220
3 241 100 2220
3 1968 1111 2123
3 567 434 2031
3 615 614 616
3 1032 720 1921
3 682 428 2138
3 469 470 473
3 339 440 2261
3 1501 238 2226
3 1154 1431 1653
3 446 447 457
3 1251 1243 1257
3 2229 315 2495
3 1201 1202 1212
3 785 784 879
3 464 463 465
3 66 2118 2395
3 324 332 2282
3 286 288 771
3 17 199 2081
3 571 570 721
3 611 610 2092
3 617 616 618
3 1542 1531 2332
3 400 401 424
3 1325 1326 1371
3 1140 1406 1702
3 1323 443 2302
3 1926 1573 2507
3 436 437 446
3 1262 1457 2098
3 67 190 2118
3 1518 1861 2449
3 989 1359 1360
3 1063 1082 1154
3 1757 96 2526
3 969 967 1011
3 868 836 2095
3 1215 1035 2235
3 96 1757 2309
3 261 2160 2380
3 1381 1382 2126
3 1468 1469 2182
3 1334 1317 2108
3 861 863 1064
3 1270 1261 1271
3 360 361 383
3 287 316 1978
3 1856 192 2367
3 1905 241 2129
3 1615 1809 2425
3 528 523 560
3 979 980 989
3 662 2040 2058
3 721 964 965
3 170 171 2216
3 664 799 2040
3 512 511 523
3 1201 1348 2107
3 620 618 858
3 758 289 1978
3 859 858 998
3 424 425 453
3 1616 1615 2193
3 444 301 1975
3 561 560 593
3 965 966 967
3 1798 376 2430
3 340 2014 2091
3 510 465 511
3 107 195 1990
3 1080 1188 2054
3 1153 998 1312
3 1226 1224 1249
3 1012 1011 1363
3 902 904 905
3 842 963 2027
3 268 270 1134
3 865 901 1125
3 2077 558 2102
3 282 284 442
3 1977 1679 2253
3 1496 1498 2047
3 284 286 2063
3 281 736 1938
3 2132 793 2165
3 1674 215 2437
3 2078 1855 2411
3 839 1009 2055
3 1182 824 1183
3 1168 947 1169
3 1289 1871 2242
3 316 285 1971
3 1270 1271 1272
3 1755 1793 2264
3 51 1996 2011
3 383 384 387
3 1146 1924 2215
3 1279 1928 2202
3 619 618 620
3 1194 1196 1197
3 555 578 979
3 1937 1639 2528
3 1262 1257 1263
3 389 384 2339
3 2251 1338 2464
3 1155 1887 2123
3 1151 1937 2528
3 465 463 828
3 1318 1319 2116
3 1687 1688 2231
3 326 954 2050
3 297 318 1984
3 1308 953 2255
3 1846 2056 2198
3 320 315 2229
3 1254 1252 2059
3 760 761 783
3 951 1281 2255
3 1459 1296 2094
3 2288 1638 2470
3 1975 299 1984
3 52 247 1996
3 468 338 2090
3 2140 1511 2506
3 1125 1126 1192
3 593 824 1182
3 720 708 1921
3 704 706 707
3 623 587 624
3 2044 1112 2152
3 1393 1169 1749
3 900 983 2119
3 783 914 938
3 255 2265 2489
3 2039 894 2122
3 317 2050 2127
3 1866 1867 2513
3 374 373 375
3 429 436 455
3 387 388 445
3 1193 423 1194
3 555 577 578
3 1074 977 1187
3 449 567 2052
3 1197 1198 1364
3 2154 1595 2486
3 1486 1849 2173
3 318 295 1983
3 939 1016 1844
3 131 132 2160
3 30 31 2159
3 881 1146 2215
3 1294 1868 2238
3 1300 1455 2314
3 1365 1364 1912
3 783 938 939
3 2061 1735 2441
3 551 545 601
3 2194 216 2536
3 1251 1257 1262
3 888 887 2177
3 1364 1198 2048
3 1498 1682 2340
3 1589 1590 2501
3 60 188 2266
3 1401 1913 2324
3 195 108 1991
3 420 422 423
3 1675 1470 2474
3 258 1673 2183
3 2161 1619 2438
3 1296 1472 2094
3 1808 1910 2381
3 334 803 2090
3 1490 1285 2232
3 523 511 524
3 1240 1238 2074
3 1184 1183 1185
3 39 40 2151
3 473 474 477
3 1461 1463 2200
3 2072 353 2073
3 861 862 863
3 1206 1941 2401
3 958 1575 2287
3 614 611 2092
3 110 111 2140
3 1136 2054 2110
3 645 594 2133
3 260 33 2002
3 673 767 2131
3 989 980 1359
3 1741 2131 2258
3 1317 1875 2148
3 894 1946 2122
3 863 864 865
3 787 461 2052
3 857 2277 2386
3 109 246 1991
3 2017 116 2018
3 1182 1183 1184
3 377 375 378
3 816 925 1324
3 865 866 901
3 1262 1263 1456
3 359 356 2065
3 2129 241 2472
3 283 1938 1971
3 1458 1210 2203
3 1076 1003 2145
3 196 1738 2402
3 1033 1130 1151
3 1188 1121 2106
3 1140 1702 2096
3 549 687 1280
3 1694 1621 2191
3 861 1064 2112
3 1548 1549 2129
3 1784 1071 2462
3 714 716 2066
3 1961 825 2455
3 1447 1211 2250
3 979 578 980
3 905 907 1209
3 381 378 382
3 457 469 552
3 595 575 2032
3 408 413 2084
3 481 483 2144
3 1745 1349 2293
3 1980 1405 2441
3 198 50 2011
3 248 115 2017
3 912 819 2068
3 620 858 859
3 707 708 720
3 821 674 822
3 514 542 2086
3 400 382 401
3 123 2005 2012
3 1772 1351 2374
3 34 239 2002
3 768 314 2127
3 2003 36 2004
3 280 282 2079
3 124 225 2005
3 596 595 2130
3 593 560 824
3 1504 1502 2519
3 239 35 2003
3 1311 1309 2147
3 1318 1877 2240
3 1860 1432 2311
3 1416 1715 2330
3 859 998 1153
3 352 353 2072
3 312 768 1987
3 2027 1174 2152
3 226 38 2006
3 1827 1024 2117
3 1710 1391 2295
3 690 624 691
3 37 226 2004
3 1153 1312 1885
3 853 855 2186
3 1892 242 2373
3 1967 520 2174
3 939 938 1016
3 47 249 2019
3 388 390 2078
3 1991 2139 2517
3 905 906 907
3 571 721 2032
3 1196 423 2035
3 1324 925 1325
3 1151 1130 1937
3 363 352 2072
3 345 349 2076
3 1031 1032 1033
3 214 179 1859
3 211 122 2012
3 602 601 652
3 117 205 2018
3 710 712 2067
3 1602 187 2357
3 520 2000 2174
3 85 242 2335
3 220 84 2335
3 381 400 2113
3 1586 1587 2435
3 424 401 425
3 963 1174 2027
3 860 691 861
3 610 596 2130
3 1958 2078 2431
3 570 547 2056
3 237 2216 2354
3 1211 1692 2219
3 298 358 1997
3 909 947 1041
3 441 456 2097
3 1135 1647 1849
3 1601 1542 2443
3 197 113 2009
3 49 198 2010
3 1911 347 2407
3 1729 191 2309
3 212 41 2020
3 121 211 2013
3 222 105 2218
3 1125 901 1126
3 114 248 2009
3 249 48 2010
3 42 250 2020
3 251 120 2013
3 233 1769 2369
3 1870 647 2113
3 794 345 2076
3 250 43 2024
3 119 251 2021
3 901 902 2141
3 964 570 2056
3 739 335 2261
3 2108 1317 2148
3 577 599 2083
3 205 118 2021
3 44 206 2024
3 1247 1241 2323
3 1894 992 2244
3 6 203 2049
3 1642 1678 2529
3 1417 1873 2333
3 1422 2023 2516
3 341 794 2100
3 73 74 2361
3 1234 1232 2088
3 1261 1254 2059
3 896 1077 2257
3 1921 710 2067
3 125 126 2284
3 220 1699 2289
3 159 5 2304
3 4 184 2303
3 2059 1252 2098
3 1003 1004 2145
3 2328 1325 2451
3 1486 227 1500
3 63 64 2162
3 2081 1192 2260
3 508 500 2102
3 667 1872 2318
3 338 334 2090
3 423 422 2035
3 1192 1126 1471
3 907 908 909
3 1330 1328 2192
3 1972 897 2500
3 2443 316 2514
3 242 86 2373
3 87 193 2373
3 420 1193 2084
3 1473 1086 2358
3 1987 768 2037
3 522 337 2100
3 627 1660 2185
3 1793 446 2264
3 1405 2061 2441
3 1502 1217 2302
3 171 201 2216
3 1158 1993 2153
3 1197 1365 2120
3 1712 1710 2295
3 1121 1401 2414
3 93 94 2166
3 653 652 688
3 622 1716 2452
3 1345 1720 2267
3 477 537 556
3 128 129 2181
3 2331 1295 2458
3 784 645 874
3 1269 1270 2199
3 189 102 2355
3 1041 1168 1343
3 246 110 2140
3 477 525 537
3 755 1895 2371
3 1947 1723 2313
3 1134 1135 2369
3 223 65 2395
3 968 1201 2107
3 1577 1578 2325
3 210 15 2477
3 961 363 2072
3 1581 1579 2352
3 349 357 2076
3 337 341 2100
3 305 303 2317
3 370 367 2103
3 762 296 1997
3 581 580 2164
3 1278 1838 2372
3 1548 2129 2472
3 594 593 2133
3 2021 251 2022
3 2047 1247 2182
3 967 968 2107
3 1169 947 2008
3 481 2144 2169
3 793 614 2092
3 1910 217 2381
3 1251 1262 2098
3 716 788 2066
3 2101 1334 2108
3 2006 39 2151
3 1603 2379 2508
3 1926 2006 2151
3 96 97 2526
3 750 755 2371
3 789 714 2066
3 909 918 947
3 1993 895 2153
3 106 1990 2218
3 1243 1240 2074
3 832 986 1189
3 1283 1284 2342
3 2297 195 2517
3 1043 829 2326
3 767 816 2131
3 602 653 676
3 1004 912 2068
3 2086 1886 2224
3 1124 2177 2467
3 426 401 2531
3 707 720 1030
3 1000 1001 2184
3 1315 1029 2184
3 467 481 2169
3 541 513 2256
3 647 381 2113
3 225 2284 2510
3 2 156 2356
3 187 0 2357
3 40 212 2151
3 2245 1386 2383
3 676 677 829
3 1004 2068 2069
3 1860 232 2487
3 1031 1033 1034
3 829 830 972
3 996 997 2408
3 1195 1194 2120
3 987 1869 2202
3 1410 1213 2222
3 819 820 2068
3 1485 1486 2173
3 1564 2030 2155
3 807 669 2529
3 129 261 2181
3 1525 1076 2145
3 578 577 2083
3 327 310 1987
3 1083 929 2197
3 2131 1324 2258
3 798 408 2084
3 1838 696 2426
3 1486 1500 1930
3 1946 1944 2291
3 2257 1077 2291
3 1512 1661 2266
3 445 388 2078
3 1192 1471 2260
3 2118 1415 2395
3 1466 1468 2158
3 830 677 831
3 211 2012 2251
3 652 601 2442
3 537 545 551
3 558 508 2102
3 198 2011 2128
3 1718 2280 2385
3 500 960 2102
3 1168 1169 1393
3 1127 971 2496
3 95 96 2309
3 2030 1565 2155
3 1919 1172 2273
3 977 860 2112
3 240 128 2181
3 294 762 2038
3 1800 1799 2195
3 712 789 2067
3 972 1749 2326
3 472 1683 2212
3 874 645 2133
3 551 2045 2201
3 2105 1043 2326
3 1957 1212 2301
3 1514 1856 2367
3 565 538 2167
3 373 370 2103
3 355 348 2196
3 1934 1272 2138
3 1934 426 2531
3 1881 1400 2481
3 2046 1851 2327
3 367 961 2103
3 1963 1152 2206
3 201 278 443
3 3 131 2444
3 31 1 2445
3 2035 441 2097
3 503 787 2198
3 1135 1849 1930
3 1534 1983 2306
3 2089 623 2150
3 687 704 2109
3 869 1351 2363
3 1302 1304 2205
3 955 1716 2484
3 1030 720 1031
3 1159 1318 2240
3 1228 1226 2281
3 947 918 2008
3 413 420 2084
3 785 879 2532
3 1041 947 1168
3 1468 2182 2323
3 1246 1234 2088
3 1730 1163 2372
3 542 555 2086
3 1599 631 2312
3 1146 1967 2174
3 1078 1136 2343
3 1515 1574 2180
3 2336 885 2469
3 1257 1243 2074
3 1347 1346 2279
3 2001 650 2206
3 1480 1601 2514
3 1029 1000 2184
3 1956 788 2336
3 1271 1261 2059
3 130 3 2444
3 1 32 2445
3 1570 1507 2197
3 1232 1255 2088
3 791 1642 2529
3 1601 1479 2269
3 1361 1362 2168
3 1634 1922 2281
3 765 2065 2190
3 2071 1158 2153
3 1699 1801 2289
3 832 831 833
3 1864 346 2344
3 456 476 2097
3 1855 828 2411
3 2065 1162 2190
3 1125 1192 2149
3 599 760 2083
3 361 765 2339
3 1731 2123 2241
3 1349 1181 1350
3 1443 1275 2251
3 1819 524 2429
3 1021 1045 2512
3 858 618 2132
3 1999 358 2338
3 368 292 2038
3 290 368 2135
3 803 331 2296
3 1112 1008 2152
3 56 1947 2313
3 555 979 2086
3 1469 1496 2182
3 1011 967 2107
3 248 2017 2288
3 1809 789 2425
3 960 453 2221
3 538 558 2167
3 1858 1187 2248
3 2246 1757 2526
3 902 905 2141
3 1851 1853 2327
3 1224 1222 2111
3 771 288 2135
3 1945 2153 2257
3 1420 1525 2489
3 1399 1123 2393
3 103 2025 2355
3 897 822 898
3 1861 940 2532
3 865 1125 2146
3 1675 2474 2522
3 1573 2157 2507
3 1632 1631 2382
3 551 601 602
3 527 503 2198
3 1708 805 2337
3 1059 1278 2372
3 2056 527 2198
3 860 861 2112
3 1668 2348 2398
3 255 2159 2265
3 1541 1542 2269
3 1428 2074 2227
3 1582 1583 2321
3 389 1774 2503
3 2004 226 2157
3 1777 397 2405
3 1368 1436 2254
3 1061 2409 2462
3 1071 930 2462
3 1126 901 2141
3 1194 1197 2120
3 1452 1952 2282
3 2116 1319 2482
3 105 106 2218
3 1981 1399 2393
3 2119 983 2143
3 444 1682 2461
3 2173 1648 2463
3 616 793 2132
3 1791 1190 2334
3 1826 1728 2259
3 602 652 653
3 1834 1292 2428
3 556 2201 2327
3 1014 1015 2385
3 1995 1287 2331
3 1193 1195 2189
3 816 1324 2131
3 879 1861 2532
3 593 1182 2133
3 1402 266 1742
3 2216 1323 2354
3 1660 1636 2502
3 620 955 2484
3 1162 1706 2190
3 1870 2113 2249
3 204 1680 1732
3 1909 2023 2420
3 217 72 2217
3 376 372 2430
3 905 1209 2141
3 1378 1381 2283
3 1236 1246 2227
3 286 771 2063
3 1635 2263 2502
3 100 101 2220
3 1139 898 1140
3 2114 1343 2136
3 442 284 2063
3 1772 2106 2414
3 1985 1755 2533
3 2192 1328 2315
3 1064 863 2146
3 1631 1637 2459
3 736 2049 2523
3 221 1906 2246
3 318 1983 2171
3 1496 2047 2182
3 1374 2139 2506
3 196 55 2313
3 2087 462 2134
3 676 653 677
3 2304 257 2491
3 1401 2324 2363
3 829 677 830
3 654 2223 2242
3 1187 977 2112
3 1463 1466 2200
3 2023 219 2516
3 1176 881 2215
3 513 471 2290
3 1812 459 2252
3 1386 1269 2199
3 291 758 2306
3 618 616 2132
3 278 280 2210
3 83 220 2289
3 82 83 2289
3 938 1057 2161
3 1189 986 1190
3 788 719 2336
3 1914 2001 2206
3 232 181 1652
3 1567 2062 2490
3 313 757 2495
3 622 619 2484
3 688 878 1320
3 1222 1626 2111
3 282 442 2079
3 1169 2008 2105
3 1966 1007 2308
3 2040 799 2237
3 1744 2229 2495
3 986 833 1063
3 2284 1605 2510
3 887 1961 2376
3 215 1624 2262
3 830 831 832
3 476 475 2224
3 439 451 2223
3 1932 1933 2380
3 2227 1246 2366
3 1212 1202 2301
3 1107 1110 2228
3 249 2010 2299
3 1983 293 2306
3 2055 1214 2237
3 1438 1372 2478
3 824 560 2156
3 2320 1866 2513
3 1351 1137 2374
3 868 2007 2232
3 2063 771 2064
3 1507 214 1508
3 1728 1727 2246
3 1045 1047 2348
3 1139 1140 2096
3 1648 1649 2463
3 1502 2302 2519
3 704 707 2109
3 2343 1136 2396
3 650 1963 2206
3 2153 895 2257
3 396 1958 2431
3 1379 1377 2288
3 2115 1471 2319
3 2033 987 2202
3 2239 1693 2518
3 2025 1488 2355
3 1209 2115 2319
3 523 524 2156
3 783 939 2243
3 376 1798 2497
3 2066 788 2193
3 1984 318 2172
3 425 427 2221
3 203 172 1847
3 446 457 2264
3 1312 2089 2150
3 2138 1272 2211
3 897 1139 2274
3 828 1819 2429
3 1249 1224 2111
3 666 667 2318
3 1371 1326 2194
3 2433 1499 2475
3 1272 1271 2211
3 1367 2254 2479
3 1386 2053 2383
3 2074 1238 2227
3 755 2148 2320
3 2117 1604 2428
3 475 514 2224
3 228 2187 2457
3 1868 1504 2520
3 1626 1218 2185
3 2123 1111 2241
3 1287 1049 2331
3 1280 687 2109
3 459 1814 2292
3 54 196 2402
3 863 865 2146
3 204 176 1680
3 514 2086 2224
3 1646 603 2398
3 112 197 2346
3 358 300 2338
3 1140 898 1141
3 1204 1335 2301
3 1016 2161 2438
3 909 1041 2175
3 1681 2448 2492
3 2252 459 2292
3 1992 868 2232
3 1035 1036 2235
3 1051 1295 2331
3 1836 1289 2242
3 1508 214 1859
3 247 53 2402
3 1016 938 2161
3 1408 856 2378
3 1466 2158 2200
3 725 885 2336
3 855 1450 2421
3 2023 1768 2420
3 1238 1236 2227
3 1679 202 2253
3 2107 1348 2233
3 1653 1431 2487
3 1946 2291 2343
3 2253 202 2329
3 1885 1312 2150
3 378 628 2390
3 2195 1383 2432
3 1520 1519 2480
3 1532 1733 2534
3 308 327 2278
3 953 951 2255
3 1213 1407 2222
3 1561 1563 2285
3 302 763 2338
3 1928 2033 2202
3 763 304 2345
3 832 833 986
3 1352 2040 2237
3 247 1881 2481
3 560 523 2156
3 335 339 2261
3 346 342 2344
3 201 443 1323
3 2301 1335 2466
3 323 320 2229
3 1136 2110 2396
3 1139 1977 2274
3 1809 1615 2423
3 1707 1791 2334
3 46 2019 2485
3 2064 1294 2238
3 1950 197 2404
3 2021 2022 2176
3 1949 245 2420
3 2044 2152 2207
3 1063 1154 1707
3 1012 1363 2406
3 280 2079 2210
3 2237 1214 2351
3 820 698 2318
3 1140 1141 1406
3 205 2021 2176
3 2043 786 2310
3 2145 1004 2446
3 707 1030 2109
3 1406 2460 2473
3 2137 1268 2226
3 16 2081 2260
3 567 2031 2219
3 2112 1064 2248
3 206 45 2485
3 2347 1462 2365
3 1650 1962 2362
3 453 425 2221
3 1209 907 2175
3 1111 1276 2241
3 2448 1145 2492
3 2051 2083 2243
3 59 60 2266
3 1402 1742 2530
3 831 677 2209
3 624 587 2276
3 238 174 1725
3 1011 2107 2233
3 468 2365 2412
3 2337 805 2371
3 254 1932 2380
3 1174 1398 2207
3 2140 111 2346
3 1381 2186 2283
3 1987 2037 2188
3 1740 559 2456
3 1773 391 2503
3 1335 1870 2249
3 1945 2257 2291
3 828 463 2411
3 1246 2088 2208
3 2060 798 2307
3 1773 1159 2240
3 1187 2112 2248
3 1352 2237 2351
3 2037 1322 2188
3 1941 1499 2433
3 2322 225 2510
3 1031 1034 2236
3 327 2188 2321
3 595 2032 2273
3 1464 1462 2347
3 1285 1992 2232
3 799 2055 2237
3 443 278 2210
3 784 874 2178
3 392 396 2431
3 191 95 2309
3 879 784 2178
3 524 511 2429
3 2128 2011 2270
3 895 896 2257
3 2206 1152 2324
3 318 2171 2172
3 2259 1549 2379
3 1214 1410 2351
3 306 308 2278
3 2022 251 2247
3 1757 1729 2309
3 1283 1918 2524
3 996 1706 2492
3 557 2044 2207
3 1798 1448 2364
3 1447 2250 2310
3 559 1750 2403
3 1363 1011 2233
3 1343 1168 2187
3 1407 2044 2256
3 1462 1460 2365
3 1995 2331 2458
3 327 1987 2188
3 2160 254 2380
3 1681 958 2287
3 2031 1160 2250
3 1600 689 2413
3 2219 1692 2239
3 1494 1675 2522
3 1281 1916 2448
3 907 909 2175
3 565 2167 2276
3 2241 1276 2275
3 1978 316 2443
3 2151 212 2350
3 203 1847 2104
3 2049 1481 2523
3 1961 1362 2376
3 2187 1393 2457
3 940 796 2532
3 2293 1349 2329
3 572 1897 2537
3 332 739 2282
3 2052 567 2239
3 1437 1370 2277
3 567 2219 2239
3 667 626 2452
3 1914 2206 2324
3 2243 939 2392
3 2136 1343 2187
3 257 1654 2530
3 1376 1378 2283
3 2076 1982 2272
3 2083 760 2243
3 1944 1945 2291
3 1771 1839 2359
3 1404 1403 2399
3 1875 1866 2320
3 1460 1337 2412
3 760 783 2243
3 1276 1366 2275
3 1428 2227 2366
3 1882 1605 2284
3 1739 1429 2459
3 2321 2188 2434
3 1328 1327 2315
3 798 2189 2307
3 2152 1174 2207
3 2182 1247 2323
3 1516 1514 2367
3 293 291 2306
3 556 537 2201
3 1298 1300 2314
3 1400 1399 2316
3 1649 2236 2463
3 833 831 2424
3 2127 2050 2333
3 1057 914 2328
3 1839 193 2359
3 761 1741 2258
3 1186 1970 2422
3 1429 2366 2382
3 2211 1271 2271
3 1733 1248 2534
3 13 2114 2136
3 2078 390 2431
3 1533 1536 2340
3 1690 2145 2446
3 1277 2308 2370
3 1168 1393 2187
3 1597 2047 2268
3 587 565 2276
3 1908 244 2401
3 225 125 2284
3 610 2130 2468
3 1749 2105 2326
3 1913 1914 2324
3 2366 2208 2382
3 1391 1876 2295
3 457 552 2264
3 653 688 2209
3 1601 2443 2514
3 682 2138 2211
3 992 1980 2244
3 55 56 2313
3 1645 1495 2493
3 473 477 2483
3 202 1724 2329
3 465 828 2429
3 1277 1966 2308
3 1416 2330 2406
3 1912 1364 2455
3 1716 1483 2375
3 2019 1651 2485
3 1725 2137 2226
3 201 1323 2216
3 878 1083 2213
3 2072 2073 2245
3 1563 1777 2405
3 244 2028 2401
3 2016 1564 2422
3 1682 1497 2461
3 1962 1153 2362
3 1298 2314 2358
3 1384 1385 2391
3 688 1320 2209
3 1587 2179 2435
3 786 380 2497
3 1395 1522 2341
3 2032 1919 2273
3 251 2013 2247
3 2219 2031 2250
3 2397 552 2453
3 1765 255 2489
3 2475 1825 2524
3 1202 1204 2301
3 445 2078 2411
3 323 2229 2296
3 1286 2384 2408
3 537 551 2201
3 1724 237 2293
3 84 85 2335
3 1471 1126 2319
3 1635 1634 2511
3 300 302 2338
3 698 666 2318
3 1030 1031 2236
3 2098 1457 2271
3 696 1821 2426
3 1457 1492 2447
3 1956 2336 2469
3 331 323 2296
3 1284 1491 2342
3 2011 1996 2270
3 256 183 2303
3 160 257 2304
3 2204 1589 2501
3 1891 1014 2280
3 719 725 2336
3 1354 1808 2381
3 437 430 2494
3 2377 218 2391
3 2211 2271 2447
3 1407 2256 2290
3 2365 1460 2412
3 2047 1498 2268
3 1825 1283 2524
3 1499 1825 2475
3 1226 1249 2281
3 2051 2243 2392
3 2250 1160 2310
3 111 112 2346
3 304 306 2345
3 1341 1352 2351
3 2166 191 2504
3 2223 1836 2242
3 1996 247 2481
3 1049 1051 2331
3 1086 1298 2358
3 2130 595 2273
3 1249 2111 2263
3 680 1995 2458
3 1511 2140 2346
3 102 103 2355
3 469 473 2453
3 961 2072 2245
3 2073 1282 2245
3 1442 1443 2525
3 74 192 2361
3 2163 1586 2435
3 1519 1518 2449
3 897 2274 2500
3 303 444 2317
3 1615 1614 2423
3 197 2009 2404
3 1634 2281 2511
3 1780 1781 2419
3 1435 1623 2465
3 1286 1774 2384
3 384 361 2339
3 193 1901 2359
3 1165 2433 2475
3 2277 1370 2386
3 677 653 2209
3 1994 1516 2367
3 1479 1478 2440
3 1165 1512 2433
3 1644 1353 2417
3 1711 1712 2353
3 2193 1615 2425
3 1613 1956 2469
3 1440 1173 2330
3 2269 1479 2440
3 222 2218 2465
3 391 389 2503
3 306 2278 2345
3 468 2090 2365
3 221 2246 2526
3 1445 1446 2504
3 939 1844 2392
3 86 87 2373
3 1429 1428 2366
3 2053 2103 2383
3 1348 1212 2312
3 805 750 2371
3 997 1286 2408
3 1152 869 2363
3 2063 2064 2238
3 192 1994 2367
3 1160 2043 2310
3 1926 2151 2350
3 2059 2098 2271
3 1897 1366 2537
3 215 2262 2437
3 1655 1732 2476
3 2415 1128 2454
3 1320 2213 2214
3 7 258 2357
3 259 155 2356
3 2171 1530 2172
3 347 351 2407
3 1077 1078 2343
3 239 2003 2279
3 1446 1128 2415
3 1034 1033 2410
3 601 627 2442
3 1154 1653 2234
3 397 2060 2405
3 2142 794 2272
3 442 2063 2238
3 1863 1215 2378
3 794 2076 2272
3 1883 1375 2505
3 1320 878 2213
3 342 468 2344
3 1903 218 2377
3 380 376 2497
3 1549 1547 2379
3 1148 1165 2475
3 2157 226 2507
3 829 972 2326
3 884 1957 2466
3 2291 1077 2343
3 65 66 2395
3 787 2052 2518
3 2298 1348 2312
3 1946 2343 2396
3 1653 256 2535
3 1842 1548 2472
3 1957 2301 2466
3 1366 1277 2370
3 2213 1432 2214
3 961 2245 2383
3 218 2093 2391
3 1376 2283 2421
3 1873 2127 2333
3 1019 1021 2512
3 1128 1127 2454
3 1104 1434 2450
3 2130 1439 2468
3 2396 2110 2482
3 2186 855 2283
3 1724 2293 2329
3 1163 1059 2372
3 1614 2389 2423
3 53 54 2402
3 1063 1707 2334
3 2283 855 2421
3 1385 1863 2436
3 364 1883 2505
3 517 1890 2387
3 1145 996 2492
3 1047 1287 2348
3 2148 1875 2320
3 205 2176 2416
3 1372 1844 2478
3 1211 2219 2250
3 1141 898 2368
3 245 1909 2420
3 2278 327 2321
3 2389 1397 2423
3 2256 513 2290
3 559 2403 2456
3 1137 1340 2374
3 2093 1384 2391
3 1918 1148 2524
3 1030 2236 2427
3 1867 1895 2513
3 2014 517 2387
3 2271 1457 2447
3 1143 2028 2353
3 1904 194 2432
3 1148 2475 2524
3 1574 1523 2436
3 2213 1083 2311
3 1997 358 2325
3 2139 246 2506
3 1370 1369 2386
3 1271 2059 2271
3 1034 2173 2463
3 1123 1412 2393
3 1578 1827 2515
3 2209 1320 2424
3 2079 1504 2210
3 1361 2168 2305
3 1491 1489 2403
3 238 1725 2226
3 1190 986 2334
3 1547 1545 2508
3 1891 1613 2469
3 1153 1885 2362
3 2208 1632 2382
3 2287 1281 2448
3 1356 1376 2421
3 1965 2349 2515
3 2155 1186 2422
3 1522 2014 2387
3 2158 1468 2323
3 2050 954 2333
3 1397 1809 2423
3 1362 1360 2376
3 1852 1985 2397
3 2069 1691 2446
3 789 2066 2425
3 1895 755 2513
3 1707 1154 2234
3 372 374 2430
3 2225 787 2518
3 2028 1206 2401
3 986 1063 2334
3 1912 726 2439
3 1340 1342 2400
3 1916 1145 2448
3 2236 1649 2427
3 2374 1340 2400
3 2222 1407 2290
3 2324 1152 2363
3 241 2220 2472
3 765 2190 2384
3 2375 667 2452
3 2330 1173 2406
3 1181 1972 2500
3 2126 1382 2388
3 1173 1012 2406
3 315 313 2495
3 1015 1373 2385
3 97 221 2526
3 1937 1397 2389
3 930 1061 2462
3 971 1096 2496
3 45 46 2485
3 669 791 2529
3 1104 2450 2521
3 382 378 2390
3 2191 1371 2536
3 2235 1036 2286
3 831 2209 2424
3 762 1997 2349
3 2379 1547 2508
3 2177 1359 2467
3 2403 1489 2456
3 796 785 2532
3 219 1902 2516
3 1519 2300 2480
3 1065 1655 2476
3 1375 1473 2505
3 1489 1490 2456
3 390 392 2431
3 2247 2013 2464
3 1135 1930 2369
3 2278 1583 2345
3 626 622 2452
3 631 2298 2312
3 2233 1348 2298
3 1398 1974 2499
3 1706 1681 2492
3 261 130 2444
3 32 260 2445
3 822 2099 2368
3 1365 1912 2439
3 941 940 2418
3 1446 2166 2504
3 2106 1121 2414
3 2300 1519 2449
3 1803 1104 2521
3 1732 1570 2476
3 1413 2051 2392
3 2122 1946 2396
3 2238 1868 2520
3 477 556 2483
3 2397 1985 2533
3 463 445 2411
3 2163 1185 2488
3 1126 2141 2319
3 1755 2264 2533
3 972 2204 2501
3 2230 1533 2340
3 1774 1773 2503
3 1997 2325 2349
3 1004 2069 2446
3 2159 31 2445
3 131 2160 2444
3 1371 2191 2451
3 1001 2154 2486
3 1682 2230 2340
3 2103 961 2383
3 1033 1151 2410
3 382 2390 2531
3 1504 2079 2520
3 1583 2278 2321
3 511 465 2429
3 250 2024 2479
3 2208 2088 2509
3 619 620 2484
3 1246 2208 2366
3 2141 1209 2319
3 1359 1413 2467
3 1295 1459 2458
3 2218 1435 2465
3 2281 1249 2511
3 2293 237 2354
3 2207 1398 2499
3 1564 2155 2422
3 552 469 2453
3 1947 224 2498
3 2062 1568 2490
3 2018 205 2416
3 260 2159 2445
3 2160 261 2444
3 2092 610 2468
3 194 2195 2432
3 1432 2213 2311
3 211 2251 2464
3 2378 856 2527
3 1536 1532 2534
3 2364 786 2497
3 2438 1438 2478
3 1185 1948 2488
3 2042 941 2418
3 1582 2321 2434
3 885 1891 2469
3 1364 2048 2455
3 1693 2225 2518
3 401 382 2531
3 1338 2247 2464
3 442 2238 2520
3 1292 2117 2428
3 2274 1350 2500
3 2066 2193 2425
3 2179 1184 2435
3 898 822 2368
3 2436 1863 2527
3 1844 1016 2478
3 2184 1001 2486
3 557 2207 2499
3 2013 211 2464
3 2254 250 2479
3 1350 1181 2500
3 2009 248 2470
3 246 2140 2506
3 1574 2436 2527
3 2139 1419 2517
3 316 1971 2514
3 1319 2122 2482
3 226 2006 2507
3 1400 2270 2481
3 1681 2287 2448
3 2325 1578 2349
3 232 1652 2487
3 1320 2214 2424
3 1632 2208 2509
3 248 2288 2470
3 1406 1141 2460
3 2188 1322 2434
3 2244 1980 2441
3 2088 1255 2509
3 1280 2109 2427
3 2060 2307 2405
3 2236 1034 2463
3 1745 2293 2354
3 2122 2396 2482
3 2109 1030 2427
3 2307 1563 2405
3 1429 2382 2459
3 224 2267 2498
3 682 2211 2447
3 2079 442 2520
3 2348 1287 2398
3 2220 1842 2472
3 1335 2249 2466
3 1249 2263 2511
3 443 2210 2519
3 2385 1373 2394
3 1594 2184 2486
3 2052 2239 2518
3 1568 2439 2490
3 2349 1578 2515
3 2344 468 2412
3 2270 1996 2481
3 1735 2244 2441
3 2260 1471 2477
3 2210 1504 2519
3 1434 2297 2450
3 2297 1419 2450
3 2263 1660 2502
3 2404 2009 2470
3 1718 2385 2394
3 1371 2194 2536
3 2317 444 2461
3 1443 2322 2525
3 1716 2375 2452
3 1863 2378 2527
3 2439 726 2490
3 1057 2328 2451
3 1638 2404 2470
3 1454 2234 2535
3 755 2320 2513
3 2234 1653 2535
3 2264 552 2533
3 1419 2297 2517
3 1392 2322 2510
3 552 2397 2533
3 1798 2364 2497
3 2322 1392 2525
3 2382 1631 2459
3 1016 2438 2478
3 1366 2370 2537
3 1742 2491 2530
3 2491 257 2530
CELL_TYPES 4886
5
5
5
5
5
5
5
5
5
5
5
5
5
5
5
5
5
5
5
5
5
5
5
5
5
5
5
5
5
5
5
5
5
5
5
5
5
5
5
5
5
5
5
5
5
5
5
5
5
5
5
5
5
5
5
5
5
5
5
5
5
5
5
5
5
5
5
5
5
5
5
5
5
5
5
5
5
5
5
5
5
5
5
5
5
5
5
5
5
5
5
5
5
5
5
5
5
5
5
5
5
5
5
5
5
5
5
5
5
5
5
5
5
5
5
5
5
5
5
5
5
5
5
5
5
5
5
5
5
5
5
5
5
5
5
5
5
5
5
5
5
5
5
5
5
5
5
5
5
5
5
5
5
5
5
5
5
5
5
5
5
5
5
5
5
5
5
5
5
5
5
5
5
5
5
5
5
5
5
5
5
5
5
5
5
5
5
5
5
5
5
5
5
5
5
5
5
5
5
5
5
5
5
5
5
5
5
5
5
5
5
5
5
5
5
5
5
5
5
5
5
5
5
5
5
5
5
5
5
5
5
5
5
5
5
5
5
5
5
5
5
5
5
5
5
5
5
5
5
5
5
5
5
5
5
5
5
5
5
5
5
5
5
5
5
5
5
5
5
5
5
5
5
5
5
5
5
5
5
5
5
5
5
5
5
5
5
5
5
5
5
5
5
5
5
5
5
5
5
5
5
5
5
5
5
5
5
5
5
5
5
5
5
5
5
5
5
5
5
5
5
5
5
5
5
5
5
5
5
5
5
5
5
5
5
5
5
5
5
5
5
5
5
5
5
5
5
5
5
5
5
5
5
5
5
5
5
5
5
5
5
5
5
5
5
5
5
5
5
5
5
5
5
5
5
5
5
5
5
5
5
5
5
5
5
5
5
5
5
5
5
5
5
5
5
5
5
5
5
5
5
5
5
5
5
5
5
5
5
5
5
5
5
5
5
5
5
5
5
5
5
5
5
5
5
5
5
5
5
5
5
5
5
5
5
5
5
5
5
5
5
5
5
5
5
5
5
5
5
5
5
5
5
5
5
5
5
5
5
5
5
5
5
5
5
5
5
5
5
5
5
5
5
5
5
5
5
5
5
5
5
5
5
5
5
5
5
5
5
5
5
5
5
5
5
5
5
5
5
5
5
5
5
5
5
5
5
5
5
5
5
5
5
5
5
5
5
5
5
5
5
5
5
5
5
5
5
5
5
5
5
5
5
5
5
5
5
5
5
5
5
5
5
5
5
5
5
5
5
5
5
5
5
5
5
5
5
5
5
5
5
5
5
5
5
5
5
5
5
5
5
5
5
5
5
5
5
5
5
5
5
5
5
5
5
5
5
5
5
5
5
5
5
5
5
5
5
5
5
5
5
5
5
5
5
5
5
5
5
5
5
5
5
5
5
5
5
5
5
5
5
5
5
5
5
5
5
5
5
5
5
5
5
5
5
5
5
5
5
5
5
5
5
5
5
5
5
5
5
5
5
5
5
5
5
5
5
5
5
5
5
5
5
5
5
5
5
5
5
5
5
5
5
5
5
5
5
5
5
5
5
5
5
5
5
5
5
5
5
5
5
5
5
5
5
5
5
5
5
5
5
5
5
5
5
5
5
5
5
5
5
5
5
5
5
5
5
5
5
5
5
5
5
5
5
5
5
5
5
5
5
5
5
5
5
5
5
5
5
5
5
5
5
5
5
5
5
5
5
5
5
5
5
5
5
5
5
5
5
5
5
5
5
5
5
5
5
5
5
5
5
5
5
5
5
5
5
5
5
5
5
5
5
5
5
5
5
5
5
5
5
5
5
5
5
5
5
5
5
5
5
5
5
5
5
5
5
5
5
5
5
5
5
5
5
5
5
5
5
5
5
5
5
5
5
5
5
5
5
5
5
5
5
5
5
5
5
5
5
5
5
5
5
5
5
5
5
5
5
5
5
5
5
5
5
5
5
5
5
5
5
5
5
5
5
5
5
5
5
5
5
5
5
5
5
5
5
5
5
5
5
5
5
5
5
5
5
5
5
5
5
5
5
5
5
5
5
5
5
5
5
5
5
5
5
5
5
5
5
5
5
5
5
5
5
5
5
5
5
5
5
5
5
5
5
5
5
5
5
5
5
5
5
5
5
5
5
5
5
5
5
5
5
5
5
5
5
5
5
5
5
5
5
5
5
5
5
5
5
5
5
5
5
5
5
5
5
5
5
5
5
5
5
5
5
5
5
5
5
5
5
5
5
5
5
5
5
5
5
5
5
5
5
5
5
5
5
5
5
5
5
5
5
5
5
5
5
5
5
5
5
5
5
5
5
5
5
5
5
5
5
5
5
5
5
5
5
5
5
5
5
5
5
5
5
5
5
5
5
5
5
5
5
5
5
5
5
5
5
5
5
5
5
5
5
5
5
5
5
5
5
5
5
5
5
5
5
5
5
5
5
5
5
5
5
5
5
5
5
5
5
5
5
5
5
5
5
5
5
5
5
5
5
5
5
5
5
5
5
5
5
5
5
5
5
5
5
5
5
5
5
5
5
5
5
5
5
5
5
5
5
5
5
5
5
5
5
5
5
5
5
5
5
5
5
5
5
5
5
5
5
5
5
5
5
5
5
5
5
5
5
5
5
5
5
5
5
5
5
5
5
5
5
5
5
5
5
5
5
5
5
5
5
5
5
5
5
5
5
5
5
5
5
5
5
5
5
5
5
5
5
5
5
5
5
5
5
5
5
5
5
5
5
5
5
5
5
5
5
5
5
5
5
5
5
5
5
5
5
5
5
5
5
5
5
5
5
5
5
5
5
5
5
5
5
5
5
5
5
5
5
5
5
5
5
5
5
5
5
5
5
5
5
5
5
5
5
5
5
5
5
5
5
5
5
5
5
5
5
5
5
5
5
5
5
5
5
5
5
5
5
5
5
5
5
5
5
5
5
5
5
5
5
5
5
5
5
5
5
5
5
5
5
5
5
5
5
5
5
5
5
5
5
5
5
5
5
5
5
5
5
5
5
5
5
5
5
5
5
5
5
5
5
5
5
5
5
5
5
5
5
5
5
5
5
5
5
5
5
5
5
5
5
5
5
5
5
5
5
5
5
5
5
5
5
5
5
5
5
5
5
5
5
5
5
5
5
5
5
5
5
5
5
5
5
5
5
5
5
5
5
5
5
5
5
5
5
5
5
5
5
5
5
5
5
5
5
5
5
5
5
5
5
5
5
5
5
5
5
5
5
5
5
5
5
5
5
5
5
5
5
5
5
5
5
5
5
5
5
5
5
5
5
5
5
5
5
5
5
5
5
5
5
5
5
5
5
5
5
5
5
5
5
5
5
5
5
5
5
5
5
5
5
5
5
5
5
5
5
5
5
5
5
5
5
5
5
5
5
5
5
5
5
5
5
5
5
5
5
5
5
5
5
5
5
5
5
5
5
5
5
5
5
5
5
5
5
5
5
5
5
5
5
5
5
5
5
5
5
5
5
5
5
5
5
5
5
5
5
5
5
5
5
5
5
5
5
5
5
5
5
5
5
5
5
5
5
5
5
5
5
5
5
5
5
5
5
5
5
5
5
5
5
5
5
5
5
5
5
5
5
5
5
5
5
5
5
5
5
5
5
5
5
5
5
5
5
5
5
5
5
5
5
5
5
5
5
5
5
5
5
5
5
5
5
5
5
5
5
5
5
5
5
5
5
5
5
5
5
5
5
5
5
5
5
5
5
5
5
5
5
5
5
5
5
5
5
5
5
5
5
5
5
5
5
5
5
5
5
5
5
5
5
5
5
5
5
5
5
5
5
5
5
5
5
5
5
5
5
5
5
5
5
5
5
5
5
5
5
5
5
5
5
5
5
5
5
5
5
5
5
5
5
5
5
5
5
5
5
5
5
5
5
5
5
5
5
5
5
5
5
5
5
5
5
5
5
5
5
5
5
5
5
5
5
5
5
5
5
5
5
5
5
5
5
5
5
5
5
5
5
5
5
5
5
5
5
5
5
5
5
5
5
5
5
5
5
5
5
5
5
5
5
5
5
5
5
5
5
5
5
5
5
5
5
5
5
5
5
5
5
5
5
5
5
5
5
5
5
5
5
5
5
5
5
5
5
5
5
5
5
5
5
5
5
5
5
5
5
5
5
5
5
5
5
5
5
5
5
5
5
5
5
5
5
5
5
5
5
5
5
5
5
5
5
5
5
5
5
5
5
5
5
5
5
5
5
5
5
5
5
5
5
5
5
5
5
5
5
5
5
5
5
5
5
5
5
5
5
5
5
5
5
5
5
5
5
5
5
5
5
5
5
5
5
5
5
5
5
5
5
5
5
5
5
5
5
5
5
5
5
5
5
5
5
5
5
5
5
5
5
5
5
5
5
5
5
5
5
5
5
5
5
5
5
5
5
5
5
5
5
5
5
5
5
5
5
5
5
5
5
5
5
5
5
5
5
5
5
5
5
5
5
5
5
5
5
5
5
5
5
5
5
5
5
5
5
5
5
5
5
5
5
5
5
5
5
5
5
5
5
5
5
5
5
5
5
5
5
5
5
5
5
5
5
5
5
5
5
5
5
5
5
5
5
5
5
5
5
5
5
5
5
5
5
5
5
5
5
5
5
5
5
5
5
5
5
5
5
5
5
5
5
5
5
5
5
5
5
5
5
5
5
5
5
5
5
5
5
5
5
5
5
5
5
5
5
5
5
5
5
5
5
5
5
5
5
5
5
5
5
5
5
5
5
5
5
5
5
5
5
5
5
5
5
5
5
5
5
5
5
5
5
5
5
5
5
5
5
5
5
5
5
5
5
5
5
5
5
5
5
5
5
5
5
5
5
5
5
5
5
5
5
5
5
5
5
5
5
5
5
5
5
5
5
5
5
5
5
5
5
5
5
5
5
5
5
5
5
5
5
5
5
5
5
5
5
5
5
5
5
5
5
5
5
5
5
5
5
5
5
5
5
5
5
5
5
5
5
5
5
5
5
5
5
5
5
5
5
5
5
5
5
5
5
5
5
5
5
5
5
5
5
5
5
5
5
5
5
5
5
5
5
5
5
5
5
5
5
5
5
5
5
5
5
5
5
5
5
5
5
5
5
5
5
5
5
5
5
5
5
5
5
5
5
5
5
5
5
5
5
5
5
5
5
5
5
5
5
5
5
5
5
5
5
5
5
5
5
5
5
5
5
5
5
5
5
5
5
5
5
5
5
5
5
5
5
5
5
5
5
5
5
5
5
5
5
5
5
5
5
5
5
5
5
5
5
5
5
5
5
5
5
5
5
5
5
5
5
5
5
5
5
5
5
5
5
5
5
5
5
5
5
5
5
5
5
5
5
5
5
5
5
5
5
5
5
5
5
5
5
5
5
5
5
5
5
5
5
5
5
5
5
5
5
5
5
5
5
5
5
5
5
5
5
5
5
5
5
5
5
5
5
5
5
5
5
5
5
5
5
5
5
5
5
5
5
5
5
5
5
5
5
5
5
5
5
5
5
5
5
5
5
5
5
5
5
5
5
5
5
5
5
5
5
5
5
5
5
5
5
5
5
5
5
5
5
5
5
5
5
5
5
5
5
5
5
5
5
5
5
5
5
5
5
5
5
5
5
5
5
5
5
5
5
5
5
5
5
5
5
5
5
5
5
5
5
5
5
5
5
5
5
5
5
5
5
5
5
5
5
5
5
5
5
5
5
5
5
5
5
5
5
5
5
5
5
5
5
5
5
5
5
5
5
5
5
5
5
5
5
5
5
5
5
5
5
5
5
5
5
5
5
5
5
5
5
5
5
5
5
5
5
5
5
5
5
5
5
5
5
5
5
5
5
5
5
5
5
5
5
5
5
5
5
5
5
5
5
5
5
5
5
5
5
5
5
5
5
5
5
5
5
5
5
5
5
5
5
5
5
5
5
5
5
5
5
5
5
5
5
5
5
5
5
5
5
5
5
5
5
5
5
5
5
5
5
5
5
5
5
5
5
5
5
5
5
5
5
5
5
5
5
5
5
5
5
5
5
5
5
5
5
5
5
5
5
5
5
5
5
5
5
5
5
5
5
5
5
5
5
5
5
5
5
5
5
5
5
5
5
5
5
5
5
5
5
5
5
5
5
5
5
5
5
5
5
5
5
5
5
5
5
5
5
5
5
5
5
5
5
5
5
5
5
5
5
5
5
5
5
5
5
5
5
5
5
5
5
5
5
5
5
5
5
5
5
5
5
5
5
5
5
5
5
5
5
5
5
5
5
5
5
5
5
5
5
5
5
5
5
5
5
5
5
5
5
5
5
5
5
5
5
5
5
5
5
5
5
5
5
5
5
5
5
5
5
5
5
5
5
5
5
5
5
5
5
5
5
5
5
5
5
5
5
5
5
5
5
5
5
5
5
5
5
5
5
5
5
5
5
5
5
5
5
5
5
5
5
5
5
5
5
5
5
5
5
5
5
5
5
5
5
5
5
5
5
5
5
5
5
5
5
5
5
5
5
5
5
5
5
5
5
5
5
5
5
5
5
5
5
5
5
5
5
5
5
5
5
5
5
5
5
5
5
5
5
5
5
5
5
5
5
5
5
5
5
5
5
5
5
5
5
5
5
5
5
5
5
5
5
5
5
5
5
5
5
5
5
5
5
5
5
5
5
5
5
5
5
5
5
5
5
5
5
5
5
5
5
5
5
5
5
5
5
5
5
5
5
5
5
5
5
5
5
5
5
5
5
5
5
5
5
5
5
5
5
5
5
5
5
5
5
5
5
5
5
5
5
5
5
5
5
5
5
5
5
5
5
5
5
5
5
5
5
5
5
5
5
5
5
5
5
5
5
5
5
5
5
5
5
5
5
5
5
5
5
5
5
5
5
5
5
5
5
5
5
5
5
5
5
5
5
5
5
5
5
5
5
5
5
5
5
5
5
5
5
5
5
5
5
5
5
5
5
5
5
5
5
5
5
5
5
5
5
5
5
5
5
5
5
5
5
5
5
5
5
5
5
5
5
5
5
5
5
5
5
5
5
5
5
5
5
5
5
5
5
5
5
5
5
5
5
5
5
5
5
5
5
5
5
5
5
5
5
5
5
5
5
5
5
5
5
5
5
5
5
5
5
5
5
5
5
5
5
5
5
5
5
5
5
5
5
5
5
5
5
5
5
5
5
5
5
5
5
5
5
5
5
5
5
5
5
5
5
5
5
5
5
5
5
5
5
5
5
5
5
5
5
5
5
5
5
5
5
5
5
5
5
5
5
5
5
5
5
5
5
5
5
5
5
5
5
5
5
5
5
5
5
5
5
5
5
5
5
5
5
5
5
5
5
5
5
5
5
5
5
5
5
5
5
5
5
5
5
5
5
5
5
5
5
5
5
5
5
5
5
5
5
5
5
5
5
5
5
5
5
5
5
5
5
5
5
5
5
5
5
5
5
5
5
5
5
5
5
5
5
5
5
5
5
5
5
5
5
5
5
5
5
5
5
5
5
5
5
5
5
5
5
5
5
5
5
5
5
5
5
5
5
5
5
5
5
5
5
5
5
5
5
5
5
5
5
5
5
5
5
5
5
5
5
5
5
5
5
5
5
5
5
5
5
5
5
5
5
5
5
5
5
5
5
5
5
5
5
5
5
5
5
5
5
5
5
5
5
5
5
5
5
5
5
5
5
5
5
5
5
5
5
5
5
5
5
5
5
5
5
5
5
5
5
5
5
5
5
5
5
5
5
5
5
5
5
5
5
5
5
5
5
5
5
5
5
5
5
5
5
5
5
5
5
5
5
5
5
5
5
5
5
5
5
5
5
5
5
5
5
5
5
5
5
5
5
5
5
5
5
5
5
5
5
5
5
5
5
5
5
5
5
5
5
5
5
5
5
5
5
5
5
5
5
5
5
5
5
5
5
5
5
5
5
5
5
5
5
5
5
5
5
5
5
5
5
5
5
5
5
5
5
5
5
5
5
5
5
5
5
5
5
5
5
5
5
5
5
5
5
5
5
5
5
5
5
5
5
5
5
5
5
5
5
5
5
5
5
5
5
5
5
5
5
5
5
5
5
5
5
5
5
5
5
5
5
5
5
5
5
5
5
5
5
5
5
5
5
5
5
5
5
5
5
5
5
5
5
5
5
5
5
5
5
5
5
5
5
5
5
5
5
5
5
5
5
5
5
5
5
5
5
5
5
5
5
5
5
5
5
5
5
5
5
5
5
5
5
5
5
5
5
5
5
5
5
5
5
5
5
5
5
5
5
5
5
5
5
5
5
5
5
5
5
5
5
5
5
5
5
5
5
5
5
5
5
5
5
5
5
5
5
5
5
5
5
5
5
5
5
5
5
5
5
5
5
5
5
5
5
5
5
5
5
5
5
5
5
5
5
5
5
5
5
5
5
5
5
5
5
5
5
5
5
5
5
5
5
5
5
5
5
5
5
5
5
5
5
5
5
5
5
5
5
5
5
5
5
5
5
5
5
5
5
5
5
5
5
5
5
5
5
5
5
5
5
5
5
5
5
5
5
5
5
5
5
5
5
5
5
5
5
5
5
5
5
5
5
5
5
5
5
5
5
5
5
5
5
5
5
5
5
5
5
5
5
5
5
5
5
5
5
5
5
5
5
5
5
5
5
5
5
5
5
5
5
5
5
5
5
5
5
5
5
5
5
5
5
5
5
5
5
5
5
5
5
5
5
5
5
5
5
5
5
5
5
5
5
5
5
5
5
5
5
5
5
5
5
5
5
5
5
5
5
5
5
5
5
5
5
5
5
5
5
5
5
5
5
5
5
5
5
5
5
5
5
5
5
5
5
5
5
5
5
5
5
5
5
5
5
5
5
5
5
5
5
5
5
5
5
5
5
5
5
5
5
5
5
5
5
5
5
5
5
5
5
5
5
5
5
5
5
5
5
5
5
5
5
5
5
5
5
5
5
5
5
5
5
5
5
5
5
5
5
5
5
5
5
5
5
5
5
5
5
5
5
5
5
5
5
5
5
5
5
5
5
5
5
5
5
5
5
5
5
5
5
5
5
5
5
5
5
5
5
5
5
5
5
5
5
5
5
5
5
5
5
5
5
5
5
5
5
5
5
5
5
5
5
5
5
5
5
5
5
5
5
5
5
5
5
5
5
5
5
5
5
5
5
5
5
5
5
5
5
5
5
5
5
5
5
5
5
5
5
5
5
5
5
5
5
5
5
5
5
5
5
5
5
5
5
5
5
5
5
5
5
5
5
5
5
5
5
5
5
5
5
5
5
5
5
5
5
5
5
5
5
5
5
5
5
5
5
5
5
5
5
5
5
5
5
5
5
5
5
5
5
5
5
5
5
5
5
5
5
5
5
5
5
5
5
5
5
5
5
5
5
5
5
5
5
5
5
5
5
5
5
5
5
5
5
5
5
5
5
5
5
5
5
5
5
5
5
5
5
5
5
5
5
5
5
5
5
5
5
5
5
5
5
5
5
5
5
5
5
5
5
5
5
5
5
5
5
5
5
5
5
5
5
5
5
5
5
5
5
5
5
5
5
5
5
5
5
5
5
5
5
5
5
5
5
5
5
5
5
5
5
5
5
5
5
5
5
5
5
5
5
5
5
5
5
5
5
5
5
5
5
5
5
5
5
5
5
5
5
5
5
5
5
5
5
5
5
5
5
5
5
5
5
5
5
5
5
5
5
5
5
5
5
5
5
5
5
5
5
5
5
5
5
5
5
5
5
5
5
5
5
5
5
5
5
5
5
5
5
5
5
5
5
5
5
5
5
5
5
5
5
5
5
5
5
5
5
5
5
5
5
5
5
5
5
5
5
5
5
5
5
5
5
5
5
5
5
5
5
5
5
5
5
5
5
5
5
5
5
5
5
5
5
5
5
5
5
5
5
5
5
5
5
5
5
5
5
5
5
5
5
5
5
5
5
5
5
5
5
5
5
5
5
5
5
5
5
5
5
5
5
5
5
5
5
5
5
5
5
5
5
5
5
5
5
5
5
5
5
5
5
5
5
5
5
5
5
5
5
5
5
5
5
5
5
5
5
5
5
5
5
5
5
5
5
5
5
5
5
5
5
5
5
5
5
5
5
5
5
5
5
5
5
5
5
5
5
5
5
5
5
5
5
5
5
5
5
5
5
5
5
5
5
5
5
5
5
5
5
5
5
5
5
5
5
5
5
5
5
5
5
5
5
5
5
5
5
5
5
5
5
5
5
5
5
5
5
5
5
5
5
5
5
5
5
5
5
5
5
5
5
5
5
5
5
5
5
5
5
5
5
5
5
5
5
5
5
5
5
5
5
5
5
5
5
5
5
5
5
5
5
5
5
5
5
5
5
5
5
5
5
5
5
5
5
5
5
5
5
5
5
5
5
5
5
5
5
5
5
5
5
5
5
5
5
5
5
5
5
5
5
5
5
5
5
5
5
5
5
5
5
5
5
5
5
5
5
5
5
5
5
5
5
5
5
5
5
5
5
5
5
5
5
5
5
5
5
5
5
5
5
5
5
5
5
5
5
5
5
5
5
5
5
5
5
5
5
5
5
5
5
5
5
5
5
5
5
5
5
5
5
5
5
5
5
5
5
5
5
5
5
5
5
5
5
5
5
5
5
5
5
5
5
5
5
5
5
5
5
5
5
5
5
5
5
5
5
5
5
5
5
5
5
5
5
5
5
5
5
5
5
5
5
5
5
5
5
5
5
5
5
5
5
5
5
5
5
5
5
5
5
5
5
5
5
5
5
5
5
5
5
5
5
5
5
5
5
5
5
5
5
5
5
5
5
5
5
5
5
5
5
5
5
5
5
5
5
5
5
5
5
5
5
5
5
5
5
5
5
5
5
5
5
5
5
5
5
5
5
5
5
5
5
5
5
5
5
5
5
5
5
5
5
5
5
5
5
5
5
5
5
5
5
5
5
5
5
5
5
5
5
5
5
5
5
5
5
5
5
5
5
5
5
5
5
5
5
5
5
5
5
5
5
5
5
5
5
5
5
5
5
5
5
5
5
5
5
5
5
5
5
5
5
5
5
5
5
5
5
5
5
5
5
5
5
5
5
5
5
5
5
5
5
5
5
5
5
5
5
5
5
5
5
5
POINT_DATA 2538
VECTORS disp float
1.702291631175832e-11 4.202538306384116e-11 0.0
3.4410053438042785e-11 -9.366853582347586e-11 0.0
0.003899999987571932 3.1922417739519905e-11 0.0
0.0038999999637368606 -9.984800593377636e-11 0.0
0.0012792363048281254 0.000527521151978911 0.0
0.0028181221991673785 0.0002943547941783296 0.0
0.0019184722149477784 0.00011100969656332435 0.0
4.269073657373823e-12 2.9556314641231655e-12 0.0
8.040803203563498e-12 9.415983140385616e-12 0.0
7.204135089840798e-12 5.565625561022654e-12 0.0
6.94875195576772e-12 5.128824652153957e-12 0.0
6.375276503422223e-12 3.719359515167648e-12 0.0
5.8909216681038145e-12 2.5644430528691095e-12 0.0
5.4437259310652654e-12 1.4020170120504722e-12 0.0
5.095933043419561e-12 1.720762726763577e-13 0.0
4.4253994976689305e-12 -1.1767171305169118e-12 0.0
4.683552884928038e-12 -2.3951101514356903e-12 0.0
4.502636000850336e-12 -3.8246582569669055e-12 0.0
4.5439796348266104e-12 -5.362268967751256e-12 0.0
4.726249845867305e-12 -6.907518078446783e-12 0.0
4.716721382103466e-12 -8.352520503861914e-12 0.0
5.042648950679989e-12 -1.0087295565479081e-11 0.0
5.076343412378192e-12 -1.1525282165888794e-11 0.0
5.3965941752163454e-12 -1.3237575670468118e-11 0.0
5.54597023842225e-12 -1.5160189456884356e-11 0.0
5.81410938945671e-12 -1.6979562630833712e-11 0.0
6.1295922358946e-12 -1.9174661965113473e-11 0.0
6.536301623139647e-12 -2.164587829053937e-11 0.0
7.238647025406273e-12 -2.467822158877621e-11 0.0
7.32657008024197e-12 -2.791667260033898e-11 0.0
1.0025561591905387e-11 -3.5474188058539916e-11 0.0
4.496496641311762e-12 -3.232952908665766e-11 0.0
4.89120601800468e-5 -6.394526937524127e-5 0.0
8.474707005010459e-5 -0.00011003551040317299 0.0
0.00011948118885327834 -0.00015012626071371835 0.0
0.00015269898206258145 -0.00018650471516113744 0.0
0.00018484912596140833 -0.0002202967366359243 0.0
0.00021658284643420386 -0.0002523760244886171 0.0
0.00024842090390206513 -0.00028286998666035313 0.0
0.00028006241413705676 -0.00031203173036409656 0.0
0.0003117836717880508 -0.0003401295921412873 0.0
0.000343664325004793 -0.000367164827689809 0.0
0.00037572005592101306 -0.00039337184664595256 0.0
0.00040819479615891735 -0.0004187559696634531 0.0
0.0004408431313484955 -0.00044331784547615153 0.0
0.00047382618881276675 -0.0004672454148552065 0.0
0.0005073418410084699 -0.0004904884044331519 0.0
0.0005410258929438595 -0.0005130229777083375 0.0
0.0005751145071260906 -0.0005349838455248004 0.0
0.0006095987955544906 -0.000556261354983459 0.0
0.0006444503021186711 -0.0005769774520151669 0.0
0.0006796865808127034 -0.0005971257214885954 0.0
0.0007153514695520034 -0.0006167079011405965 0.0
0.0007513577012131238 -0.0006357112533859198 0.0
0.0007879225321923486 -0.0006542219127873446 0.0
0.00082469454587402 -0.0006721337897256359 0.0
0.0008620722121152522 -0.000689538382859494 0.0
0.0008996268305185624 -0.0007063457644571822 0.0
0.0009376459273390158 -0.0007226564603397002 0.0
0.0009759729768801166 -0.0007383609716019261 0.0
0.0010148303623315452 -0.0007535878923755051 0.0
0.0010538376197990439 -0.0007682465941156902 0.0
0.001093371616063742 -0.0007824065920444513 0.0
0.0011331893819844466 -0.0007959642506181683 0.0
0.001173390343895466 -0.0008090041728789165 0.0
0.0012138316113859725 -0.0008214662948690937 0.0
0.0012547555930649084 -0.0008334130590237976 0.0
0.0012958001634210288 -0.0008447418639258546 0.0
0.001337210625471263 -0.0008555229484472 0.0
0.0013788399825233014 -0.0008656619010783033 0.0
0.0014207589357832955 -0.0008751854855868441 0.0
0.0014629010761685027 -0.0008841846702957538 0.0
0.0015052319235905312 -0.0008924971706650137 0.0
0.00154784620006864 -0.0009002825553537328 0.0
0.0015906704508297715 -0.0009074068569138763 0.0
0.0016336109785734776 -0.0009139914926783401 0.0
0.0016767649389600819 -0.0009198590252405674 0.0
0.0017198991176160469 -0.000925165179464055 0.0
0.0017632359069829563 -0.0009298676802554645 0.0
0.0018065868202534465 -0.0009338865266299773 0.0
0.001849985566402851 -0.0009373586492267289 0.0
0.0018935339570373016 -0.0009401443242778452 0.0
0.001936708334700061 -0.0009421573000467002 0.0
0.0019802939105785294 -0.0009436526099280067 0.0
0.0020229892347639654 -0.0009443609755323842 0.0
0.0020661203318921113 -0.0009444804749943217 0.0
0.0021072551434914164 -0.0009434513080979888 0.0
0.002149925573196037 -0.0009418848270226954 0.0
0.002191034447755409 -0.0009396086389636471 0.0
0.0022319140254122177 -0.0009360891347051562 0.0
0.002272724700433502 -0.0009318977168572185 0.0
0.002313448620906626 -0.0009261809760363181 0.0
0.0023540083812435978 -0.0009196247510508872 0.0
0.002394718949453983 -0.0009116730222643918 0.0
0.0024358249400037485 -0.0009028263020839549 0.0
0.002476972257175332 -0.0008926001000755012 0.0
0.0025186083792644565 -0.0008814762157627818 0.0
0.002560369011281544 -0.0008695914137428055 0.0
0.0026018899452087533 -0.0008568361230602246 0.0
0.0026434959749965536 -0.0008435021225581973 0.0
0.0026851621881582577 -0.0008294390506483117 0.0
0.002726763384090308 -0.0008146735538391128 0.0
0.002768027121882452 -0.000799360175446836 0.0
0.002809384969473738 -0.0007833253667247091 0.0
0.002850293864807053 -0.0007666960181477297 0.0
0.002890969843525286 -0.0007496119189381347 0.0
0.0029315778882058716 -0.0007318065009529233 0.0
0.0029716871150438987 -0.0007135277987807316 0.0
0.0030116228308060726 -0.0006946713283942486 0.0
0.003051211007738904 -0.0006752459687487253 0.0
0.0030906182240004448 -0.0006552470730179679 0.0
0.003129720391534904 -0.0006345977837717063 0.0
0.0031685407914361294 -0.000613331834051671 0.0
0.0032068779923293527 -0.0005915172139249398 0.0
0.003245019216681638 -0.0005691065753468037 0.0
0.0032829415645300175 -0.000546010528201719 0.0
0.003320475901082114 -0.00052226324664946 0.0
0.003357813129725577 -0.0004978951985561611 0.0
0.0033950674967167293 -0.00047271065489771136 0.0
0.0034319675978470134 -0.0004467432766813621 0.0
0.0034686007974486697 -0.00042004478875631716 0.0
0.003505287339244638 -0.00039244522858214784 0.0
0.003542003832083325 -0.0003637953811750411 0.0
0.003578539591469164 -0.00033403522865485476 0.0
0.003614993659225545 -0.00030312321569581747 0.0
0.0036516713780013472 -0.0002707860417953074 0.0
0.0036890206766678098 -0.00023664543651099812 0.0
0.0037265506828757415 -0.00020046455282128644 0.0
0.0037646940802366123 -0.00016140543565057845 0.0
0.003805172785726238 -0.00011810972047102819 0.0
0.00384672171954281 -6.837262713026985e-5 0.0
0.0038999999949029833 -3.073559200506191e-11 0.0
0.0038999999890224554 -3.4028275511548825e-11 0.0
0.003899999992277071 -2.344313988622211e-11 0.0
0.003899999992293949 -2.0714119059690334e-11 0.0
0.0038999999928286525 -1.7523669990926666e-11 0.0
0.003899999993185689 -1.515189755011351e-11 0.0
0.003899999993332297 -1.3337483307341642e-11 0.0
0.00389999999359069 -1.1705257220111455e-11 0.0
0.003899999993684037 -1.0199268739981525e-11 0.0
0.0038999999938579464 -8.739723899376292e-12 0.0
0.0038999999941355763 -7.559228727442264e-12 0.0
0.0038999999941714118 -6.027604856066026e-12 0.0
0.003899999994324759 -4.879826570123105e-12 0.0
0.003899999994446446 -3.5376213977419343e-12 0.0
0.003899999994500469 -2.2529129901186055e-12 0.0
0.0038999999944935135 -8.827027667276671e-13 0.0
0.0038999999945269655 4.733276011453048e-13 0.0
0.003899999994015728 2.0142536968507497e-12 0.0
0.0038999999943826608 3.2646255303737225e-12 0.0
0.0038999999935325183 4.868484151119588e-12 0.0
0.003899999993526293 5.931182154402218e-12 0.0
0.0038999999932155054 7.0985591747320245e-12 0.0
0.0038999999934628466 7.417655894163646e-12 0.0
0.0038999999933497093 1.013914106284204e-11 0.0
0.003899999996526465 4.4728574128979455e-12 0.0
0.003609719034894869 0.00019829323772639003 0.0
0.0033586417532143007 0.00028830790507679434 0.0
0.0031323050811856755 0.00031813600813371127 0.0
0.0029407425367613863 0.0003118136884968072 0.0
0.0028114663263822024 0.00017402644523366054 0.0
0.0027910433010443973 0.00011243718019445611 0.0
0.002744529835257998 8.759749194151454e-5 0.0
0.0026895379651349963 8.229520972859945e-5 0.0
0.0026262134135910595 8.730733217244776e-5 0.0
0.0025587816478948107 9.442937435082097e-5 0.0
0.0024881699713518285 0.00010167977736400262 0.0
0.002415404235653452 0.0001100825206493529 0.0
0.0023389791278713326 0.0001168733028552059 0.0
0.002258148987242965 0.00012132172198340377 0.0
0.0021688662128723003 0.00012283749115420502 0.0
0.0020625008459858583 0.00012263656022956963 0.0
0.001784038385094498 0.00015034645179288044 0.0
0.0016893967212044875 0.00016324768799278936 0.0
0.0016114893852095873 0.00016891804773158198 0.0
0.0015437896976641112 0.00017292053953008222 0.0
0.0014826346947725785 0.0001767510842519057 0.0
0.0014274939436268428 0.00018134981990474834 0.0
0.001378129889105919 0.00018807780319751258 0.0
0.0013362405128594995 0.0001986142729306075 0.0
0.0013036634886491034 0.00021793918342604456 0.0
0.001281581496779456 0.0002504234191138614 0.0
0.001274957396389912 0.0003065997282781279 0.0
0.0012750718272839887 0.00039260695612936767 0.0
0.0011332047437799405 0.0005398328915852753 0.0
0.0009212630839272336 0.0005090167735375339 0.0
0.0006427534420906474 0.0004173829854304123 0.0
0.0003408497207463488 0.00027207474613032134 0.0
0.0010224917134620036 -0.0007217695502396333 0.0
0.0027595387128587848 -0.0007617696154051364 0.0
0.0013080223253125057 -0.0008158561809234839 0.0
0.0024634080649410905 -0.0008591217120903926 0.0
0.0016110082724874457 -0.0008786409716556493 0.0
0.002167186004582126 -0.0009018035129639697 0.0
0.0018706722881239235 -0.0009044504384359531 0.0
0.0030066044237685007 -0.0006630976929255149 0.0
0.0008007403669979383 -0.0006325066602261234 0.0
0.0031928472252724317 -0.0005655350676172845 0.0
0.0006204192701189713 -0.0005382973127930688 0.0
6.412460903875198e-5 -1.1849142149366386e-5 0.0
0.0038338278500194096 -1.0946703178465e-5 0.0
0.0020821649559181485 0.00014140649252902766 0.0
0.002385931024424899 0.00013386334566352278 0.0
0.0017545602293398176 0.00015527215766737528 0.0
0.0014935595704999366 0.00018998524324542163 0.0
0.0033856036436927567 -0.0004522271435677965 0.0
0.0004567852770657261 -0.0004352738097428798 0.0
4.475009194616705e-5 -2.143458969981559e-5 0.0
0.003853376035952567 -1.8515847182744795e-5 0.0
0.0038058097974610194 2.7690764478865357e-6 0.0
8.594128858814598e-5 3.1255743020949832e-6 0.0
0.003533762187613683 -0.00034517960263082587 0.0
0.0003215525251833543 -0.0003283627215765759 0.0
0.0025970121077139915 0.00011801442881936673 0.0
0.001326813422807133 0.00020620436572803643 0.0
3.363890296149549e-5 -2.3219767748089952e-5 0.0
0.0038628803521217024 -2.1035036144963403e-5 0.0
0.0014830142146408415 -0.0008553192315143508 0.0
0.0017393958776606435 -0.0008945866769874442 0.0
0.0023373668200291453 -0.0008838950594394201 0.0
0.002004680671436524 -0.0009063539737943936 0.0
0.0025899663192690556 -0.0008225217004736373 0.0
0.0028756900800079215 -0.0007209494838602425 0.0
0.0011941158929549816 -0.0007831223761784879 0.0
0.00091201772875594 -0.0006837563498212294 0.0
0.0036393229777173714 -0.00025947391853596303 0.0
0.00022422825538115677 -0.00024341369208962456 0.0
0.0037798091313851713 2.3861097291257625e-5 0.0
0.0001081010814019649 1.9160262065395358e-5 0.0
0.0038690252134780953 -2.3864766695718723e-5 0.0
3.126931963702002e-5 -2.8325259380366507e-5 0.0
0.0027262977231990145 0.00011085174912763761 0.0
0.001239831859751268 0.00024101307806971879 0.0
0.0037311211355697876 4.455965937508696e-5 0.0
0.00015181171446213167 3.832922643140532e-5 0.0
5.397229754385191e-5 -1.797651460280974e-5 0.0
0.0038434887943797195 -1.6012273622561754e-5 0.0
0.0022346201470848604 0.00014295195674786566 0.0
0.0016214424635098976 0.00018266640439264315 0.0
0.00012425915198200951 -0.00014075798423220006 0.0
0.003761004033335175 -0.000146680129408812 0.0
0.0026711082433445417 -0.0007990490802474141 0.0
0.0020869604676240472 -0.0009077286692419671 0.0
0.0014007776813432956 -0.0008374518768831312 0.0
0.0011063535131134873 -0.0007570169179617165 0.0
0.0022550879917272964 -0.0008938718893590234 0.0
0.003079356403798002 -0.0006279323723852193 0.0
0.0007282885305956873 -0.000595647943108255 0.0
0.0032730667363883624 -0.0005222448627288622 0.0
0.0005475840486130766 -0.0004930015569092715 0.0
0.0003853382950218396 -0.0003807066103658785 0.0
0.003460028501970707 -0.00039991031482528966 0.0
0.0007657694400145583 0.0002827250617714886 0.0
0.0032325987025993734 0.00020860569908643148 0.0
0.0038698060215753235 -2.8462859122104874e-5 0.0
2.7201551171141892e-5 -2.8944413688500878e-5 0.0
0.0011983303258354362 0.00033300257776722864 0.0
0.0028347518035641743 0.0001521027159319231 0.0
0.0001742086540205894 6.10769929894677e-5 0.0
0.0037262316458344584 5.7868786255171554e-5 0.0
5.4267268424492825e-5 -6.317463969406648e-5 0.0
0.003838156865199928 -6.706884856749926e-5 0.0
0.0030270226567245206 0.00022566554526611143 0.0
0.003091010696647668 0.00018542955943080165 0.0
0.003334119863346106 0.00015111982877131968 0.0
0.0031951831418234643 0.00015937404647321056 0.0
0.0030074439146288248 0.0001704969805176685 0.0
0.003075865505510847 0.00016641314996537293 0.0
0.003255385844348337 0.00014583070788447224 0.0
0.0031435918401461083 0.00015666559239144363 0.0
0.003312810374661795 0.0001308268587141079 0.0
0.003209936840917371 0.00014002657029804915 0.0
0.0030512973105640204 0.00016166924624476105 0.0
0.0031124301839385348 0.00014361986134788968 0.0
0.0029759606270661288 0.00016073465018417128 0.0
0.003025560243668541 0.00014103517894315155 0.0
0.002901364154083114 0.00015553463511739306 0.0
0.0029461734676796466 0.00013218806431112895 0.0
0.0020334585584036013 9.490577349805792e-5 0.0
0.0019136053633966301 7.53725281610017e-5 0.0
0.002007091345370544 6.583627958935502e-5 0.0
0.0019096992066187546 5.177904940205621e-5 0.0
0.001991593639367937 4.361072549067649e-5 0.0
0.0019076329280756862 3.275859875753649e-5 0.0
0.0019815673088013587 2.4718106681767457e-5 0.0
0.0019055351590057004 1.522994654096454e-5 0.0
0.001974238826389972 7.564887165196977e-6 0.0
0.0019037108423136874 -1.0804562502358578e-6 0.0
0.001968654390475767 -8.332976230970234e-6 0.0
0.0019022515484793077 -1.642981121818408e-5 0.0
0.0019643067920263823 -2.3806799897913218e-5 0.0
0.0019027364908565487 -3.1387925532617414e-5 0.0
0.001960879916259875 -3.8719896747935524e-5 0.0
0.0019016491646426203 -4.60838038189443e-5 0.0
0.0019577469572352522 -5.329684133943547e-5 0.0
0.001898717873125246 -6.052972690008136e-5 0.0
0.0019546499888471814 -6.771881330360588e-5 0.0
0.0018972119503298682 -7.478777920201563e-5 0.0
0.0019520326299150691 -8.208187786367055e-5 0.0
0.0018959544704185561 -8.904206717277343e-5 0.0
0.0019478641190082836 -9.635971792900358e-5 0.0
0.0018943801112654935 -0.00010338127360591628 0.0
0.0019453102041637157 -0.00011076389810079146 0.0
0.001893820121556291 -0.00011748259203319936 0.0
0.0019430886214202006 -0.00012527352775250946 0.0
0.0018898502153005176 -0.0001311434141161293 0.0
0.0019403236021934514 -0.00013988939511850305 0.0
0.001875981369468193 -0.0001459725377787633 0.0
0.0019410067481579413 -0.00015499848886956662 0.0
0.0018867131694517095 -0.0001620510561998877 0.0
0.0019384865810731949 -0.00017018523001542158 0.0
0.0018871295046868329 -0.00017764240293207564 0.0
0.0019368168227874587 -0.0001858202387781252 0.0
0.0018889715267256739 -0.00019340687058451043 0.0
0.0019349361880393106 -0.0002017259493801525 0.0
0.0018883592121955628 -0.00020974924002886946 0.0
0.0018391478873723017 8.177955896343528e-6 0.0
0.0019330211666009813 -0.00021808698821164965 0.0
0.0018410793376536644 -6.670823842145108e-5 0.0
0.0018276688241465509 -0.0001578582856838564 0.0
0.0018839551084066128 -0.00022627717429180962 0.0
0.001930740766115376 -0.00023487964847201416 0.0
0.0018796212228710475 -0.00024385199242763647 0.0
0.0018336092635777852 -0.00023362334505093102 0.0
0.0018280391464238228 -0.00025205734646549174 0.0
0.0019265487983857119 -0.0002531527504747935 0.0
0.0019783046877611776 -0.00024353012493968568 0.0
0.0019878501950395784 -0.00016213990144458602 0.0
0.0019744038639406157 -0.00026234035152833364 0.0
0.002029301812746611 -0.0002508989731439363 0.0
0.002023593661633452 -0.00027145546099716474 0.0
0.0017825158099846273 -0.000241333144284734 0.0
0.0017787957795488015 -0.0002594196159820867 0.0
0.0020801622314992477 -0.00025898876437634513 0.0
0.0017303715094167944 -0.00024809502120436854 0.0
0.00172962021324215 -0.00026707952087135514 0.0
0.002075371681898597 -0.00027980281461177046 0.0
0.0021301287673154566 -0.00026828320063092655 0.0
0.0016778653662969795 -0.0002549701878386281 0.0
0.001675882028511103 -0.00027452952788258695 0.0
0.0021265071094751175 -0.00028898294949627476 0.0
0.002182763306730628 -0.00027675664586324414 0.0
0.0016255722532175607 -0.00026182469168554566 0.0
0.0016231005709838005 -0.00028256210360415556 0.0
0.0021789838768640087 -0.0002985469914526133 0.0
0.002236704380647186 -0.00028509318147985435 0.0
0.0015736724657248293 -0.00026758787666722 0.0
0.0015677363529906841 -0.0002889679403428914 0.0
0.0022336145525312435 -0.0003074584188700653 0.0
0.002291607250370665 -0.0002932222768171323 0.0
0.0015166255501251004 -0.00027333883093978733 0.0
0.0015120411957626411 -0.0002959488643336209 0.0
0.0014579814648231048 -0.00028043016417924114 0.0
0.0014622939342973122 -0.0002564875248714554 0.0
0.0021704987261095903 -0.00032004605429827014 0.0
0.0022882262677094904 -0.00031648503978910856 0.0
0.00234733361498328 -0.0003011951353353558 0.0
0.0023516691152789294 -0.000277320480338513 0.0
0.00200040785562244 -8.980020737536597e-5 0.0
0.0024095988755668198 -0.00028484287259598684 0.0
0.002414424474201303 -0.00026007258117171234 0.0
0.002474166215092456 -0.0002667866215161623 0.0
0.0014579294442892687 -0.00030486826575790713 0.0
0.0014014764652694645 -0.00028672525859525615 0.0
0.0015109675021181418 -0.00032024720287876615 0.0
0.002342228462006508 -0.0003256959161324423 0.0
0.0014021064417579741 -0.00031181116978030277 0.0
0.0013450179095960701 -0.0002922771988814972 0.0
0.0020234754555338826 -3.0018097773742542e-5 0.0
0.0013454507516512417 -0.00031684900461567494 0.0
0.0012884715870362894 -0.00029698864545207426 0.0
0.0012890813098398537 -0.00032216730002014934 0.0
0.0012328809726853912 -0.0003004658183677603 0.0
0.0012310353349534043 -0.0002759118308859638 0.0
0.0011721613489931368 -0.00028006187080008516 0.0
0.0011711763201258888 -0.0002541283795076038 0.0
0.001226804790611758 -0.00032535574637825715 0.0
0.001107995307240397 -0.00025855916808212906 0.0
0.0011065374880996808 -0.00023200097045618465 0.0
0.0012901495964739598 -0.0003488076114953095 0.0
0.0012371836922507088 -0.0003540731345325373 0.0
0.001044864795413873 -0.00023435561887694416 0.0
0.001041321238891306 -0.00020848503322213046 0.0
0.0024806909763863518 -0.00024171120208173514 0.0
0.0025427890144560476 -0.00024806533710744044 0.0
0.001291082051221648 -0.0003757892621665215 0.0
0.0012387655946722413 -0.0003808845312750125 0.0
0.002550040732824781 -0.00022221767491802498 0.0
0.0026150904841654742 -0.00022875684561622617 0.0
0.0026051005433448985 -0.000257091435888087 0.0
0.002677819056815357 -0.0002362066052325202 0.0
0.002668971786515501 -0.000265205256397391 0.0
0.0027417077250510525 -0.0002420553007350137 0.0
0.0027364541193522734 -0.00027079166913784804 0.0
0.002811549230243327 -0.0002446407068617599 0.0
0.0027999637704129604 -0.0002739856762341333 0.0
0.0028168118203822745 -0.00021709804294642556 0.0
0.002876145471473548 -0.00024824730284989864 0.0
0.0028605799821001853 -0.00027744162997559596 0.0
0.0012926060633997388 -0.00040327915268114413 0.0
0.0009763914561358917 -0.00021018028732508752 0.0
0.0009716282007155342 -0.00018392969639979899 0.0
0.0027907070448585686 -0.0003040286946750083 0.0
0.0028489416926095346 -0.00030697768487953985 0.0
0.0029176711093345633 -0.00027995863115042394 0.0
0.0027840096407978953 -0.0003346514423793247 0.0
0.00124150660147262 -0.00040854227786270265 0.0
0.002906135644967776 -0.0003089737051120604 0.0
0.00297331694174205 -0.0002812299227626417 0.0
0.001293987666019353 -0.00043154609597181366 0.0
0.0012438421747832194 -0.00043699626890169024 0.0
0.0011921797935663522 -0.00041307066892842494 0.0
0.0029611649776205133 -0.0003097722595045672 0.0
0.003027494759248023 -0.00028099096199507345 0.0
0.0012952005260591804 -0.0004606784625678392 0.0
0.0013448307582477163 -0.0004548034997109549 0.0
0.0011950764512010336 -0.00044175393403238537 0.0
0.0011438690706038848 -0.0004170365928459107 0.0
0.0030132175593653916 -0.00030957297064059035 0.0
0.0030810475283706714 -0.0002796217499735315 0.0
0.003094569242709976 -0.0002519736251855302 0.0
0.0029466178849631127 -0.0003396302101796818 0.0
0.0031482571641772913 -0.0002496059946351181 0.0
0.0031635581595176325 -0.0002226649230674959 0.0
0.0009028227743970611 -0.00018548465119394488 0.0
0.0009017246691265946 -0.00015842932286666935 0.0
0.0009843067036295133 -0.00015837959503740655 0.0
0.0008981438952416895 -0.00013182193950351875 0.0
0.0009775177808063278 -0.0001277638179693416 0.0
0.0008937994302818272 -0.00010393296008286291 0.0
0.0009710928749393098 -9.837427957326729e-5 0.0
0.001345906288578508 -0.0004842267690100345 0.0
0.0013943464293273108 -0.0004777715045600422 0.0
0.0011470703914842997 -0.0004459462826573897 0.0
0.001096323165765925 -0.00042036620010795514 0.0
0.003133787704346788 -0.00027721489699373175 0.0
0.0008977927810914551 -7.603397812481177e-5 0.0
0.0009710204314637612 -6.912976984227911e-5 0.0
0.0013954495044082968 -0.0005072344687081495 0.0
0.0014427664162925129 -0.0005006004447361484 0.0
0.0016829863617299327 -0.0002934721749766936 0.0
0.003200389979748983 -0.0002463020521633312 0.0
0.002057900956134096 3.834093744334117e-5 0.0
0.0021415403140660925 0.00012927763983126045 0.0
0.0018408600956287533 -0.00010979931013099835 0.0
0.0026195227344791216 -0.00020228378165116688 0.0
0.0008911925477101384 -4.612148936401176e-5 0.0
0.0009767699155315305 -3.85711665502165e-5 0.0
0.0010999622964633243 -0.0004494830022037604 0.0
0.0010499276761463453 -0.00042323743319570937 0.0
0.0014445480701808593 -0.0005302150424816612 0.0
0.0014914955618646436 -0.0005232520631204751 0.0
0.003184549946075749 -0.0002735826073273992 0.0
0.0008302341380955451 -0.00016005183749288754 0.0
0.0008335801394091616 -0.00018723293346208477 0.0
0.0008058495913319972 -7.96129496180771e-5 0.0
0.0032508221471839733 -0.00024190735696498773 0.0
0.000890755452039789 -1.7238070790165637e-5 0.0
0.000977082033644433 -6.975277913980444e-6 0.0
0.0013979151057042817 -0.0005376205815313305 0.0
0.0010542198673695075 -0.0004527472725061462 0.0
0.00100443911388896 -0.00042539279250561064 0.0
0.002554710133472763 -0.0001962915348302201 0.0
0.0026272433961207864 -0.00017554611602049993 0.0
0.002558558765734986 -0.0001696828306129974 0.0
0.0026352012527716645 -0.0001486651146748826 0.0
0.0014926065046970093 -0.0005527588933667417 0.0
0.0015400013642783805 -0.0005446691419225859 0.0
0.0016302106230218038 -0.00024325867325244744 0.0
0.0008901161891175126 1.1220562805799189e-5 0.0
0.0009744989291854555 2.394197249685745e-5 0.0
0.00323533614981686 -0.0002683249251286593 0.0
0.0031755170258489364 -0.0002977906050396793 0.0
0.0008710342873322053 4.165590393909973e-5 0.0
0.0009689698818726288 5.593550603943303e-5 0.0
0.00329942652458408 -0.00023682628211986484 0.0
0.0033079296091084957 -0.00021700727112700585 0.0
0.0008814619262968729 7.07155915518499e-5 0.0
0.0011025480381515135 -0.0004819325661417731 0.0
0.0015403075939270743 -0.0005749884993107952 0.0
0.0015873795560361126 -0.0005656306733629997 0.0
0.0015877764654966973 -0.0005355796581289847 0.0
0.0016351058904307846 -0.0005558146175664441 0.0
0.0016359926251302817 -0.0005261202141642036 0.0
0.0016835648397939657 -0.000545539921466107 0.0
0.0016847690346324807 -0.0005158066713700602 0.0
0.0017330710919091932 -0.0005346734236829062 0.0
0.0017347243102332531 -0.0005050805515511309 0.0
0.0017834272697928159 -0.0005230925609060467 0.0
0.0017817073889043371 -0.000553455011592894 0.0
0.001831842829540816 -0.0005410782588069535 0.0
0.0018298249885281255 -0.0005719199384257296 0.0
0.0018797474229669778 -0.0005587172975576313 0.0
0.0018771172226828778 -0.0005900898971215725 0.0
0.0019274576354122372 -0.000575972323601296 0.0
0.0017856799757433605 -0.000493733225032804 0.0
0.0019301627379217719 -0.0005447138677421668 0.0
0.0019785323030890333 -0.0005609709843899698 0.0
0.001975085534755289 -0.0005932847441198008 0.0
0.0020268053423001297 -0.000577448880470163 0.0
0.0007595699661074018 -0.00016067276383998778 0.0
0.0007626075521919048 -0.0001875307139004051 0.0
0.0010090579428005855 -0.0004549940474079407 0.0
0.000960257930510989 -0.0004271598602604264 0.0
0.002030867064115861 -0.0005454022036080823 0.0
0.0020791368563993946 -0.0005606534452935117 0.0
0.002074343185083331 -0.0005933641747333599 0.0
0.002127612378861925 -0.0005754859167151563 0.0
0.0006905127043700611 -0.00016030106423578697 0.0
0.0006936478055714479 -0.0001864013840850528 0.0
0.002562846952881609 -0.00014202044741069223 0.0
0.002644515529471869 -0.00012101396794407674 0.0
0.0025696939877055828 -0.00011428663369670439 0.0
0.003285514438144078 -0.00026136097046569997 0.0
0.0033471161476776898 -0.00023031873962503944 0.0
0.0015874517413592716 -0.0005968730547408681 0.0
0.0010635638159699203 -6.702552574771292e-5 0.0
0.0020215082201000306 -0.0002904397449658724 0.0
0.0021220176193240126 -0.0006087782610926824 0.0
0.0021754529475311963 -0.0005898977074042468 0.0
0.0021800798194504577 -0.0005566137543473245 0.0
0.0022289022435795953 -0.0005697230398785752 0.0
0.002136510741695 -0.0002463714205056137 0.0
0.002658311416427702 -9.249238198312175e-5 0.0
0.0027278143170152923 -0.00010422639876963751 0.0
0.0009709372044262274 8.79393370573652e-5 0.0
0.0009646961396663707 -0.00045651111245420886 0.0
0.0009168247327915967 -0.0004280910631163567 0.0
0.0025787380493032565 -8.548116112786701e-5 0.0
0.002222962650934571 -0.0006039125126744798 0.0
0.0022773042088671345 -0.00058328869567711 0.0
0.002283201770335329 -0.0005491387312016642 0.0
0.0023327488522463056 -0.000561952657731925 0.0
0.0023397762561987354 -0.0005287231881824084 0.0
0.0023885530210673482 -0.0005397815789555641 0.0
0.0023803945012757658 -0.000573367732157084 0.0
0.002435662166303151 -0.0005499021598854632 0.0
0.0008789100216826803 9.780533093664903e-5 0.0
0.0006236466302797158 -0.00015876812259694748 0.0
0.0006264725083141436 -0.0001836419319001141 0.0
0.0015418198944616448 -0.0006065284395385265 0.0
0.0033309920091406033 -0.0002558584046754133 0.0
0.0033927786819252116 -0.00022308009257695002 0.0
0.0024261831477068044 -0.0005836580616289867 0.0
0.0024806670722548195 -0.000559052545239633 0.0
0.000973629362707178 0.00011824561035344727 0.0
0.0009218548460331934 -0.0004575346438981894 0.0
0.0008739431630331942 -0.0004280034645158436 0.0
0.0010608350560730828 3.6659003097514205e-5 0.0
0.0030689346926204217 0.00011769607850235938 0.0
0.0015875864919037076 -0.0006289270975403017 0.0
0.00087772291160774 0.00012245327607434347 0.0
0.0008122236827453634 -1.0716802457563249e-6 0.0
0.0033709027262425134 -0.00025488928331032773 0.0
0.0034369093801342003 -0.00021565277926302394 0.0
0.003454157313295563 -0.00019081440857024898 0.0
0.0007872386345649555 7.83905970075121e-5 0.0
0.003306030548696969 -0.0002863091918020726 0.0
0.0006164889564030981 -0.0001340172631654828 0.0
0.0009655978905427757 -0.000484565277480574 0.0
0.00267175619543228 -6.303770966391676e-5 0.0
0.0025894023606417614 -5.5645987414222015e-5 0.0
0.0023969504684674854 -0.0005071343347435535 0.0
0.0008795079696083429 -0.00045817167200735075 0.0
0.0008316819276404564 -0.00042774421472587616 0.0
0.0005588507633233968 -0.000155904726480823 0.0
0.0005612639604917065 -0.0001791588398282398 0.0
0.0010460394530631147 -0.00039538809417916137 0.0
0.0024698206894223675 -0.0005928432301876281 0.0
0.0025237101108434687 -0.0005668332079515163 0.0
0.0008259989363706609 -0.0003982135315591716 0.0
0.0007835494587375928 -0.0003970659838001315 0.0
0.0024189971609490405 -0.0006159051994142562 0.0
0.0015436585538814616 -0.0006388951871898631 0.0
0.0007901160175335755 -0.0004270998110507596 0.0
0.0007421374360831119 -0.0003955488419253333 0.0
0.0016359665907162383 -0.0004977362593961116 0.0
0.0034986173407030537 -0.00018188915501974635 0.0
0.0035155982369784304 -0.00015984051068958186 0.0
0.00348203522119298 -0.00020578416840556804 0.0
0.002511356030550412 -0.0006002667919464125 0.0
0.0025649723342122204 -0.0005731674291551752 0.0
0.002346440359878941 -0.0004963513896989015 0.0
0.002404815600086105 -0.00047542529100897486 0.0
0.0015882183185795425 -0.0006616679644906803 0.0
0.002577847923933966 -0.000540301877618837 0.0
0.002619341678186973 -0.0005461045326073009 0.0
0.0004951641418702154 -0.00015073109761587247 0.0
0.0005002111203252966 -0.00017323613312161156 0.0
0.0026057174221673024 -0.0005797451818794141 0.0
0.0026593048923090985 -0.0005517456344660127 0.0
0.0007501139918518244 -0.00042614792705672944 0.0
0.0007020486646620452 -0.0003936451121442153 0.0
0.002685565573712008 -3.2604154896819256e-5 0.0
0.0026023128559937614 -2.4760756865148788e-5 0.0
0.0006935796485139446 -0.00036445461140264824 0.0
0.0006533204119777411 -0.00036130870818849907 0.0
0.000661553336005003 -0.0003909680704650288 0.0
0.0006130676278888953 -0.0003577124321078145 0.0
0.003541665693043711 -0.00017205409950421638 0.0
0.0035246812420859745 -0.00019596070467200373 0.0
0.0009720366199174053 0.00014390419033393943 0.0
0.0008679802957574201 0.0001432147108924338 0.0
0.002494582996632496 -0.00010636190632125557 0.0
0.0015454524994175543 -0.0006719303477274084 0.0
0.0026453836429419283 -0.0005866452165976871 0.0
0.002698000710676008 -0.000557419228804439 0.0
0.0028241391222989815 0.00014622648325271492 0.0
0.0026329834898460463 -0.0005134165533317341 0.0
0.0018280395760180842 -0.0006036336240185933 0.0
0.0006034990027863848 -0.00032949793779611707 0.0
0.0005644236687315965 -0.00032447208223214977 0.0
0.0005742071380286323 -0.0003537939966958688 0.0
0.000525410767141531 -0.00031929424712697407 0.0
0.0005156465398814078 -0.0002916504360016529 0.0
0.0004754381064256028 -0.0002853502714255603 0.0
0.0004653717061003848 -0.0002583210522296731 0.0
0.00042458376126329066 -0.00025063716390158 0.0
0.00041457898429297647 -0.00022534383660589085 0.0
0.00037608170519604805 -0.0002170940694991022 0.0
0.000365450986717957 -0.00019379873888359896 0.0
0.000385318988103228 -0.00024162815814511313 0.0
0.0003326438048920843 -0.00020279202507296086 0.0
0.00043601258564858865 -0.00014447038096590976 0.0
0.0004345904020396628 -0.00012444617373856166 0.0
0.000346563228709348 -0.00023145090558676493 0.0
0.0002984108904496113 -0.00019563511731615757 0.0
0.0010678313904536072 0.00013707166118173445 0.0
0.001159313701796022 -0.0002257765189872101 0.0
0.002353370303123859 -0.00046511089771779677 0.0
0.0024117918140923967 -0.0004447220368550606 0.0
0.0006926425570009501 -0.00021086348928565433 0.0
0.0015888103641713896 -0.0006952546947466018 0.0
0.0016319179381314112 -0.0006844082652454486 0.0
0.0024636118332043984 -0.0004539353296443872 0.0
0.00247102343731762 -0.00042339505055896584 0.0
0.003583185394853701 -0.00016125048575369594 0.0
0.003563632619125506 -0.00018627761449567935 0.0
0.0035063753843152753 -0.0002238807069254245 0.0
0.0025059894596057997 -4.806924318928826e-5 0.0
0.002517944413554611 -1.725462094750955e-5 0.0
0.001501244951260416 -0.0006484201123572489 0.0
0.001503288669420826 -0.0006815532240618035 0.0
0.0014597470988873089 -0.0006576339331576677 0.0
0.000537217425053669 -0.00034952279160079 0.0
0.0026165055255294957 7.100294039715988e-6 0.0
0.002531575267866288 1.5418293690449707e-5 0.0
0.0010453500906324033 -0.00026206314581501576 0.0
0.0026831483581478627 -0.0005935196399695329 0.0
0.0027359467482964187 -0.0005631385846680936 0.0
0.00275138524084533 -0.0005285273789951257 0.0
0.0027891305475822247 -0.0005330736418774436 0.0
0.0009952109948269299 0.00016838922283172463 0.0
0.0008708131075593319 0.00016242979423127419 0.0
0.0014402536961919301 -0.0004722294101596042 0.0
0.0026318588236402558 -0.0006236273711119068 0.0
0.0032608662458083063 0.0001199612293178787 0.0
0.002773110722433076 -0.0005699585718057544 0.0
0.002826694481313437 -0.0005386152580408635 0.0
0.0028427491682733526 -0.0005027817291055644 0.0
0.0028808400512165574 -0.0005072216469826925 0.0
0.002897745908598806 -0.00047194739156352023 0.0
0.0029353671486259756 -0.00047545262606458354 0.0
0.002918054308071069 -0.0005125254062217551 0.0
0.0029719966480651018 -0.00047969388678543133 0.0
0.0003094778664240306 -0.00021900797338825218 0.0
0.0002625791611075725 -0.00018276403376219058 0.0
0.0002457355086974714 -0.00015771936356113672 0.0
0.0016323598440626252 -0.0007184603343075258 0.0
0.0016737173488978534 -0.0007084741298915982 0.0
0.0014623856157722904 -0.0006909303897779031 0.0
0.0014190077032175457 -0.0006662748328990532 0.0
0.0035429418500677163 -0.00021605704096612006 0.0
0.003599400518873176 -0.00017701629304088014 0.0
0.0027825469471595794 0.00016676150529064401 0.0
0.0027089969800367826 0.0001573371287672851 0.0
0.0007556099070473437 0.00013607861583535716 0.0
0.000756018577361821 0.00015252561071882776 0.0
0.00035830485316143195 -0.0002587810528643988 0.0
0.001344829786549684 -0.00037008244418863914 0.0
0.0024749182895501356 -0.0001656625193609009 0.0
0.0034873372985706084 -0.0002558402935995133 0.0
0.0010511895898834454 -0.00011800053589266163 0.0
0.0024225989215569503 -4.096989717414229e-5 0.0
0.002953294586118429 -0.0005187638777449491 0.0
0.003007068551876296 -0.00048476403113148183 0.0
0.00297163260238759 0.00010565584393821055 0.0
0.0031097127873363044 9.185771362745982e-5 0.0
0.0009819092537007902 0.0001859721999235403 0.0
0.0005631460925299464 -0.00020214633259685365 0.0
0.0003689129930278189 -0.00011637206550004758 0.0
0.0003686908319459954 -9.82177340829179e-5 0.0
0.0005840061155573193 -0.00038475450832002107 0.0
0.002813332925257041 -0.0005775381337182843 0.0
0.0022813525654570713 -0.0003402811785420748 0.0
0.002070290021891049 -0.0006271121318523049 0.0
0.0012989993544902277 -0.0004893281965102945 0.0
0.0002736891832991992 -0.00020566388633108903 0.0
0.00022841281016054037 -0.0001688420912797022 0.0
0.0007979954009517315 -0.0004587448800691869 0.0
0.002523575694720495 -0.0004315768917019195 0.0
0.002531464725994398 -0.0004013745431796567 0.0
0.0015038038264786838 -0.0007160202343346987 0.0
0.0030325869005216957 7.640231770616178e-5 0.0
0.0031507193654141006 6.621825172533075e-5 0.0
0.0030785588202274354 4.839611049795837e-5 0.0
0.0031930513403419254 4.034689848242843e-5 0.0
0.0032629208353670584 5.640383948635554e-5 0.0
0.0033043367084389205 3.303451927088195e-5 0.0
0.0032335140260304203 1.4745269412280274e-5 0.0
0.0033411362877872604 1.0258966229262867e-5 0.0
0.0032709696457003568 -9.548841179256152e-6 0.0
0.003376448148373314 -1.0856512324182118e-5 0.0
0.0033081181093199572 -3.240197026621567e-5 0.0
0.0034091437948120308 -3.0051182007040702e-5 0.0
0.003342709022275827 -5.3398198178456765e-5 0.0
0.00344027275303457 -4.733548105400183e-5 0.0
0.0032375403760572 -5.826284624870347e-5 0.0
0.0033755374609962907 -7.173271033521141e-5 0.0
0.003467265735312536 -6.30301813797839e-5 0.0
0.0033758619274411703 4.6049637207667306e-5 0.0
0.0007760979062477197 -0.00036799187454188457 0.0
0.0007590158965122492 -0.00045823026343579733 0.0
0.0008051458232860829 -0.0004911925116135242 0.0
0.003406759719439209 -8.778298771788974e-5 0.0
0.003493860535698851 -7.623260526891323e-5 0.0
0.0033197038574759733 -9.756231121635106e-5 0.0
0.002116342984676606 -0.0006429720442591682 0.0
0.002065291779209936 -0.0006613873642535928 0.0
0.0021103575303194695 -0.0006777354072155841 0.0
0.0020608619764474097 -0.0006964216629783266 0.0
0.0021045246528618457 -0.000713254380230958 0.0
0.002057110481736525 -0.0007321987170796726 0.0
0.0020134977713747743 -0.0007146590442264664 0.0
0.002010788254574576 -0.0007503508561157613 0.0
0.00196835619994117 -0.0007319906998182342 0.0
0.0018080587063106133 6.838443101227035e-5 0.0
0.0020992657528992914 -0.000749769525334614 0.0
0.002146143071912006 -0.0007297301502199377 0.0
0.0017721735401957715 -0.0002791543273232744 0.0
0.001736285605305497 -0.0004764339552944508 0.0
0.001787945020131642 -0.0004653264239509176 0.0
0.0017378882929977738 -0.00044868980215807597 0.0
0.00179019546487742 -0.00043787508572600383 0.0
0.0017395821271033144 -0.0004218921694757761 0.0
0.0017924675725623817 -0.0004114231771831716 0.0
0.001843308718914688 -0.0004265887389928096 0.0
0.0018460605367949653 -0.0004005084550583814 0.0
0.00189713815482865 -0.0004148854082908406 0.0
0.0019001928928649406 -0.00038916070646609363 0.0
0.001949244784645074 -0.00040267429746126515 0.0
0.001848948998376518 -0.0003746559725147613 0.0
0.0017413776931084718 -0.00039601202226279475 0.0
0.0016883470817419999 -0.000405754407558335 0.0
0.0019457073710813007 -0.00042945508710778325 0.0
0.0020005602991256515 -0.0004148515897824366 0.0
0.0007677602038204348 -0.0004912085975480168 0.0
0.0018377976397401035 -0.00018533735794207506 0.0
0.00184148630012882 -2.4763122423980767e-5 0.0
0.0020839996682480424 -0.0005291837849865026 0.0
0.0035999778912386583 -0.0001406127897659586 0.0
0.0036395131882824725 -0.0001294342219080619 0.0
0.0020134091419417074 -5.9663028447052156e-5 0.0
0.001995748161772329 -0.00011602740091698844 0.0
0.002858569423882613 -0.00046902942784308424 0.0
0.002463597847312231 -0.0002924587823005155 0.0
0.0035797279078158975 -0.00020615018331757593 0.0
0.0036332788390548683 -0.0001672645658665925 0.0
0.001986063355537661 -0.00019417337687758872 0.0
0.001422049720567126 -0.0006999280503312232 0.0
0.0013788863700483287 -0.0006746286708105159 0.0
0.0020391999871454737 1.216279551191815e-6 0.0
0.0019657842940962187 -0.0007677332957869541 0.0
0.0019232530173411044 -0.0007471751597913869 0.0
0.001375917368727085 -0.0006413836584095345 0.0
0.0013353959699088792 -0.0006491236293665047 0.0
0.0013322536843993031 -0.0006162257437113752 0.0
0.0012915397012467009 -0.000623261365662389 0.0
0.0012954700032092121 -0.0006566121799943409 0.0
0.0012517851862350118 -0.0006300216873288822 0.0
0.0012560950983903458 -0.000663782769125899 0.0
0.0012124557057445634 -0.0006365202342152446 0.0
0.0005493207193503708 -0.00038141303660979754 0.0
0.0036559075897733668 -0.00011149736202428602 0.0
0.002630259951732671 3.9794105444243186e-5 0.0
0.0025431494984581534 4.7535612834269644e-5 0.0
0.0011919381529942148 -0.0003594859626812485 0.0
0.0009605914687472406 -0.0003988484922181256 0.0
0.0035257752510070165 -4.3038441521516454e-5 0.0
0.0034786127981655283 -1.2697594376160514e-5 0.0
0.0016733228599344779 -0.0007422992208382887 0.0
0.0017157011024147369 -0.0007312280898540453 0.0
0.002668172388220754 -0.0006317959759175943 0.0
0.0005091729096631582 -0.00026511009157019694 0.0
0.002240768026770096 -0.0002637753222822838 0.0
0.002447265877137768 2.2530401808695324e-5 0.0
0.002457795406292762 5.446823257781583e-5 0.0
0.0029152069733661095 -0.0004387373207427295 0.0
0.0029842644063917704 -0.0002530476568855472 0.0
0.0030264333000335013 -0.000447272956177135 0.0
0.003062185535937192 -0.00045038983768674526 0.0
0.0030407266947369664 -0.0004909601037061256 0.0
0.003096603684108971 -0.0004549009050367521 0.0
0.0017396260405430804 -0.00023019953541010397 0.0
0.0005935833727330466 -0.00041677203312990896 0.0
0.0019494165919017683 -0.0003765858844996713 0.0
0.003162922396152552 -9.57506635102722e-6 0.0
0.0016825505160782755 -0.0006755201847649571 0.0
0.0008116833132391385 -0.0005242379143618647 0.0
0.0008492339544580901 -0.0005240041220774243 0.0
0.002618485274354095 -0.0006623821442068152 0.0
0.001287624978479669 -0.0005909594318460365 0.0
0.00235956631518166 -0.00043497873987675137 0.0
0.0023014558555212207 -0.0004541562560897588 0.0
0.0036135926217936145 -0.00019678140846775217 0.0
0.0036668780962794594 -0.0001560000894402886 0.0
0.0036845029290723725 -0.0001319732464350772 0.0
0.0011008188481398456 0.00019235745819040387 0.0
0.00023962524969510315 -0.000190716904687368 0.0
0.0001952374498484781 -0.00015258106261106027 0.0
0.00018876245225208464 -0.00013639114407521002 0.0
0.0026700438367115507 0.00017508282243052151 0.0
0.002738007652642887 0.0001789144892231468 0.0
0.0025989599426912663 0.00016583880446895336 0.0
0.002769458096906496 -4.06580527542377e-5 0.0
0.0034370731687354823 -0.00010010204223128226 0.0
0.003522373969335678 -8.602431343185214e-5 0.0
0.0013824261800459282 -0.0007087422871473474 0.0
0.0027114082678002813 -0.0001542750214682641 0.0
0.0006386838559572405 0.00012432072534137562 0.0
0.0006324329275029176 0.00013685065342226044 0.0
0.0007575840829611707 0.00016660093950044655 0.0
0.000622482175301462 0.0001465524375000853 0.0
0.0007986744710019308 0.0001876303436520445 0.0
0.0019214575428300354 -0.0007109287384881903 0.0
0.0012072269245951056 -0.0006033239301304371 0.0
0.00116891938635873 -0.0006091969401349519 0.0
0.0011739650004142434 -0.0006428238937146363 0.0
0.0011308835184558252 -0.0006149277259600475 0.0
0.0031166064725993373 -0.00041635568652056965 0.0
0.0031509084941749484 -0.0004198399157833428 0.0
0.0031309312710028512 -0.0004602430514621789 0.0
0.0031839715351991865 -0.0004241096417710946 0.0
0.002477420925493633 -0.00039343907325403997 0.0
0.0025386860751776836 -0.0003721252196472 0.0
0.0021403894864434015 -0.0007666773439258243 0.0
0.002186260802982103 -0.0007455796583061669 0.0
0.0016898611033408523 -0.0003801634974760464 0.0
0.0016365661661998127 -0.000389273934295681 0.0
0.0016272286856867995 -0.0007542638605938367 0.0
0.0011360104192549402 -0.0006483986139776482 0.0
0.0010937489244867153 -0.0006202731079956338 0.0
0.003450322588221106 -0.000262623886123313 0.0
0.00343080718377434 -0.0002970516682622949 0.0
0.0033952426799025454 -0.00030209804797049465 0.0
0.003380669027645461 -0.00033501932095286356 0.0
0.0017148835865966293 -0.000767806056802831 0.0
0.0002809881367511968 -0.0002281600204733175 0.0
0.00040731199406508317 -0.0002026395229861406 0.0
0.00035241003284821866 -0.000170834600307664 0.0
0.00030053326013063715 -8.945175837198936e-5 0.0
0.00029672249556107896 -7.313653482401618e-5 0.0
0.0003692478806455975 -7.997323906018181e-5 0.0
0.0002945331843769388 -5.720705643410623e-5 0.0
0.000369949114907075 -6.131994258888528e-5 0.0
0.00029273430434061326 -4.136905934053403e-5 0.0
0.0003720153727221344 -4.245981742340578e-5 0.0
0.0034667972256870227 -0.0002912551269452487 0.0
0.0011240401326278696 -0.0005823229784527689 0.0
0.0028746099329255625 -0.00043760178370447667 0.0
0.002581859006761907 -0.0006520614570530029 0.0
0.0025696941786174515 -0.0006926852197230212 0.0
0.002533799114204056 -0.0006817975805132864 0.0
0.0019218452954700392 -0.0007838267187407287 0.0
0.002698305588357015 2.785275248948215e-5 0.0
0.00316418142817075 -0.0004661608357716038 0.0
0.003718047748575875 -0.000118715479337102 0.0
0.0036994824171566556 -0.00014337807853214118 0.0
0.0010861167934480456 0.00020462047064102786 0.0
0.0026211824989396115 6.902870579335872e-5 0.0
0.0020347207012903355 -0.0005145985794991296 0.0
0.0020875334064740982 -0.0004988104214597934 0.0
0.0020097705883486998 -0.0007873624732980217 0.0
0.0018796908813533495 -0.0007623555299049968 0.0
0.0008427856326999663 -0.0002181922055500028 0.0
0.0035755846459305817 -6.446504909045852e-5 0.0
0.0036020976148373567 -7.138796172225558e-5 0.0
0.0035480227000553614 -9.379881967133414e-5 0.0
0.003624607477066134 -7.744756977169242e-5 0.0
0.002997366380665625 -0.00033874039969045936 0.0
0.002265535524001862 -0.0006189834515923596 0.0
0.002306952075855363 -0.00042477563863572564 0.0
0.001684403491564854 -0.0005765425024264461 0.0
0.002416772833643691 -0.00023542402407699298 0.0
0.0025844015339306224 -0.0004086875654970424 0.0
0.002590225211527292 -0.000508667394659385 0.0
0.00264627763499333 -0.0004821062078714164 0.0
0.0026205534912167065 0.00018239297679878655 0.0
0.0027034445167019618 0.00018088428876736776 0.0
0.0008550012096874074 -0.0005573211401615754 0.0
0.0008909123843313542 -0.0005560065806623351 0.0
0.00029158772159608773 -2.551898184314311e-5 0.0
0.0003713560207913122 -2.3562954564993035e-5 0.0
0.0004539647836878894 -4.132215752074688e-5 0.0
0.00045628357706874683 -1.904379679537805e-5 0.0
0.00037292903947077396 -5.169343452787625e-6 0.0
0.00046190824529810444 2.7427113855726355e-6 0.0
0.0003763390161883722 1.2425502940826544e-5 0.0
0.00047042638361663333 2.409555809395706e-5 0.0
0.00038000086792111944 2.91497778632956e-5 0.0
0.0002069506788039663 -0.00017422573291662322 0.0
0.0022490594833262656 -0.0004427492243032463 0.0
0.0001639273347765395 -0.00013550840882341444 0.0
0.0007760049517755037 -0.0005248310999995994 0.0
0.003696064488628497 -9.895779323812442e-5 0.0
0.001837458291198817 -0.00048183416743949824 0.0
0.0023641323172749764 2.9024861353091377e-5 0.0
0.002378752612487681 6.317787717108922e-5 0.0
0.00047811860195876336 4.482697551209668e-5 0.0
0.0005606266253427687 -0.00041430080073697736 0.0
0.0005170692711780153 -0.000378147265915839 0.0
0.0011794070856532323 -0.0006829946583740702 0.0
0.0026492276406563744 -0.0006741406936330154 0.0
0.001424806312716547 -0.0007346538881251816 0.0
0.003216538799221196 -0.00042862861057959417 0.0
0.003735248604498008 -9.877145697144984e-5 0.0
0.001635382778397915 -0.0004152826202901449 0.0
0.0015838780161706641 -0.0003979163797031592 0.0
0.001582871904824614 -0.00042442516600147963 0.0
0.001191478098506181 0.00020710967749051494 0.0
0.0015343592596386087 -0.00040628276664484716 0.0
0.00031023253064143945 -0.00010768737268396905 0.0
0.002179647853698124 -0.0007833274419052317 0.0
0.002225355615231691 -0.0007609452088269215 0.0
0.002232856068997311 -0.0007236997560001997 0.0
0.0022712564733251167 -0.0007378298852999767 0.0
0.00268986759629956 -0.000486313795304256 0.0
0.0027040575707492982 -0.00045477726555260157 0.0
0.0037105475892341266 -8.451545840629461e-5 0.0
0.0036690226191430472 -9.640950547163519e-5 0.0
0.0024870125224707275 9.12151128310807e-5 0.0
0.0023961445971401804 0.0001003425928865604 0.0
0.0007329677085040965 -0.0004913835989592482 0.0
0.0010991021554464801 -0.000653965149607643 0.0
0.0010576375279259319 -0.000625464219044706 0.0
0.0019200571725580026 -0.000273022286835712 0.0
0.003112416918923353 -0.0005034972309964879 0.0
0.00038506242175749105 4.5051384034644105e-5 0.0
0.001051222375256829 -0.0005916833778820273 0.0
0.002262685372584679 -0.0007759129004215722 0.0
0.0023077481640535183 -0.0007514631420782958 0.0
0.0022533483432774976 -0.00041477348714281736 0.0
0.0021964904875971867 -0.0004309624297776388 0.0
0.0022003666292976826 -0.00040384416029347456 0.0
0.002029495376461815 -0.00023363162496839205 0.0
0.0003053594385289439 -0.00015971673686382456 0.0
0.0001756377562969132 -0.00015638853340357707 0.0
0.0022802200481615176 -0.0007010453125155739 0.0
0.0023378478416559915 -0.0003504198861857544 0.0
0.0018791172286215499 -0.0007993617191914991 0.0
0.0007617989649212864 -0.0001343217675767122 0.0
0.0013466225080670138 -0.0002696390648848026 0.0
0.0006031756491954919 -0.0004513580723127113 0.0
0.0032366669993883486 -0.00038868031453609945 0.0
0.0008220929599580342 -0.0003698727575849323 0.0
0.0007692192362039349 -0.0003395458054216565 0.0
0.0008192765215506831 -0.00034188298264055964 0.0
0.0007643513931780933 -0.0003119160789726239 0.0
0.0008158319048148536 -0.000314263774254848 0.0
0.0007138422162456793 -0.0003089442923100193 0.0
0.0025222734159075283 -0.0007227823753207975 0.0
0.002489590382808415 -0.0007107592383535959 0.0
0.0005101105098784902 0.00010556148213151034 0.0
0.0019220244260549275 -0.000820767267019894 0.0
0.0018742875220891535 -0.0006223443633848083 0.0
0.0018260308854412737 -0.0006360278084620487 0.0
0.0008972806672734893 -0.0005899705517424488 0.0
0.00024002963402939076 -7.948070352776586e-5 0.0
0.00025433030227495126 -9.9019248453585e-5 0.0
0.0034675973041528286 -0.00016935590061226258 0.0
0.0035307841740406564 -0.00013996343033317076 0.0
0.0005398457968232638 -3.7386892930617695e-5 0.0
0.0009326053061365361 -0.0005873308421415106 0.0
0.0009286369860868424 -0.0005561212355241516 0.0
0.00093891556971867 -0.0006218074612550261 0.0
0.0008626817510794206 -0.0005920185395207883 0.0
0.0006366863266951358 0.0001632336506382574 0.0
0.0014570375530756408 -0.0006252596524886137 0.0
0.0022438771624056515 -0.00047261244445202165 0.0
0.003478847519847096 -0.00014948224020679723 0.0
0.0021349135867850325 -0.0008049391935476758 0.0
0.001385206577403185 -0.0007440248212996123 0.0
0.0037484843143273843 -0.00010568224785223522 0.0
0.003729535846196894 -0.00013101199560530252 0.0
0.0012128369785484136 0.0001949634189536147 0.0
0.0010641628642315377 -0.0006601864514156695 0.0
0.0024830070269716937 -0.0003633423545808369 0.0
0.0025494839409369386 -0.00034250721318483337 0.0
0.0004004918441088728 -0.0001807231160320222 0.0
0.0005287249243688756 -0.0004110814656390631 0.0
0.0004865411531687337 -0.00037490266357797803 0.0
0.0004740555342330588 -0.0003432085777617132 0.0
0.0007416931103385747 -0.0005253680847706242 0.0
0.00013386676940736557 -0.00011701890522358047 0.0
0.00012470098924997853 -0.00010142727524293884 0.0
0.0022981357547543087 -0.0007906382372376997 0.0
0.0023422903820128132 -0.0007649839645687887 0.0
0.002351407336208602 -0.000724759292126224 0.0
0.003171266572550556 -0.00038265737425318097 0.0
0.0031355438799065775 -0.00038112748649908926 0.0
0.0031442610962081102 -0.0005113486595529975 0.0
0.0007082471612991192 -0.000282087473546342 0.0
0.0006589182332384089 -0.0002794396179650582 0.0
0.0026037099047352043 -0.0003499649338506947 0.0
0.003674820674822815 -5.70869310526575e-5 0.0
0.0036946439119675016 -6.12591244843907e-5 0.0
0.00371826154453683 -7.388395084794717e-5 0.0
0.003671107501285322 -0.00018236101436961303 0.0
0.00021819938630949866 -0.00019815190414279222 0.0
0.002410570878941644 -6.768907938586013e-5 0.0
0.0023338835937750345 -6.194158511286011e-5 0.0
0.0023222813838928128 -8.538365134428164e-5 0.0
0.0022497060969876503 -8.056161728528633e-5 0.0
0.00224286472135406 -0.00010291431946089593 0.0
0.0022545524444209752 -5.875698082889976e-5 0.0
0.0020382997938437394 -0.00048483877822492756 0.0
0.0016377178831631296 -0.00036419892645941676 0.0
0.0016916009903642532 -0.00035542220665674395 0.0
0.0004981906133423208 -0.0004076109329734251 0.0
0.0004565596972417947 -0.0003703113287062902 0.0
0.0033305246705888614 6.703263559708846e-5 0.0
0.0034460791452187254 5.430405348837178e-5 0.0
0.003491583452447683 3.420835900955541e-5 0.0
0.0035601248895406196 4.018336042699828e-5 0.0
0.003531117296042585 5.6983154194576507e-5 0.0
0.001838935669569672 -0.0007782112640738343 0.0
0.0018388393303198985 -0.0007433063291381604 0.0
0.0018375756982925411 -0.0008144967573900624 0.0
0.0022809511811510874 3.398397916790403e-5 0.0
0.002269265074022005 5.440443695856798e-6 0.0
0.0005404634673311862 -6.216310560661687e-5 0.0
0.00028399461762424984 2.7946979102477445e-5 0.0
0.0024764492391904204 -0.000752539284134988 0.0
0.0006394396334756017 0.00010975952089548573 0.0
0.002514650724533214 -0.0004623979135228258 0.0
0.0023246289286645836 -0.00010796753052900624 0.0
0.0022364600780610056 -0.00012475918173046702 0.0
0.002303561416068678 -0.00013212537196060858 0.0
0.0022297287802311326 -0.0001462247533852173 0.0
0.0022931086157336983 -0.00015401754868038338 0.0
0.0022234154418647113 -0.00016780306146844725 0.0
0.0022848795687603406 -0.00017589143154288282 0.0
0.0022175613953409603 -0.00018968570789296496 0.0
0.002279955879473212 -0.00019799981729776568 0.0
0.002162558470487895 -0.000138274406597954 0.0
0.0021559621591451597 -0.00018108017459051017 0.0
0.0025570152548277385 -0.0007351806802762589 0.0
0.0037595314868313075 -6.728754350860994e-5 0.0
0.0013296349106985779 -0.0005844148861196709 0.0
0.0012832339772276733 -0.0005602827974707553 0.0
0.003558903465682082 -0.00024026972505677434 0.0
0.0015376930740488438 -0.000383964699379241 0.0
0.002174086284381085 -9.620862559582338e-5 0.0
0.0007937425606264757 0.00020529794590776063 0.0
0.00022553749653331993 -5.09355572157629e-5 0.0
0.0013035604480623464 0.00020748982583177915 0.0
0.0013149097550570535 0.00019382666017366492 0.0
0.0029104822235820594 8.131006752909467e-5 0.0
0.003592084957908662 -0.00023187249814904677 0.0
0.0035397694154278648 -0.0002771988312964941 0.0
0.0015319424013341015 -0.000432938887529226 0.0
0.0014882406876875764 -0.0004105982844934229 0.0
0.0006369340589150496 -0.0004258623102944088 0.0
0.00014560228530938492 -0.00013688547448841603 0.0
0.00018049978553991524 -6.665146066017665e-5 0.0
0.00018653936909251124 -7.949968705776208e-5 0.0
0.00010477217589074101 -9.689828846796149e-5 0.0
0.0026580234675016873 -0.00045116807876720717 0.0
0.00271711046147742 -0.00042458919686501963 0.0
0.0027639958327751596 -0.0004274571529793264 0.0
0.002776547613721011 -0.0003971822734713128 0.0
0.0021518023913371345 -0.0002018391923729201 0.0
0.0009441842493231051 0.00022157101870275307 0.0
0.0011957669924669793 0.00021602091987572733 0.0
0.0021440537153443033 -0.0004188511379167159 0.0
0.002148449169111248 -0.00039193979843188495 0.0
0.0016401143147868587 -0.0003409036148993384 0.0
0.0014012498928005985 -0.00033759162227048784 0.0
0.0014276362377103203 -0.0007704289379232337 0.0
0.0029015813073660296 -0.000552395627568744 0.0
0.0029351968777589724 -0.0005607828483978651 0.0
0.0028858128733306653 -0.0005949675161433029 0.0
0.002918464855021205 -0.0006055426775759218 0.0
0.002870748350896921 -0.0006399089104729997 0.0
0.002837913060612824 -0.0006290803947087252 0.0
0.002754582112102112 -0.0006161108490018914 0.0
0.0024966868817782356 -0.000670803464351815 0.0
0.002635826920151313 0.00014259051312793728 0.0
0.002019825002782311 -0.0006447807889421721 0.0
0.0005586493689437232 1.3864822968038697e-5 0.0
0.0037074356107348826 -0.0001634319356810006 0.0
0.003756878433486035 -0.00011829065583000727 0.0
0.002967275516967988 -0.0005703142659938861 0.0
0.00295117356594575 -0.000615781177924202 0.0
0.0029982112914194994 -0.0005806648812395534 0.0
0.0014659179418133046 -0.0007606992993973131 0.0
0.0017803293134484083 -0.0006166612318490621 0.0
0.0017799102351388903 -0.0006485306095828005 0.0
0.0018242932169922935 -0.0006690504372960873 0.0
0.001203076911866125 -0.000476061308341186 0.0
0.0017343839385329368 -0.0006283884239634364 0.0
0.002240982027380305 -0.0006883507699946079 0.0
0.003192696000028022 -0.0003478229017939671 0.0
0.0032684985216402426 -0.00039152970986535215 0.0
0.003247819393948197 -0.000433790160727762 0.0
0.0032961163734806153 -0.00034882288750741304 0.0
0.00045355895044887304 -8.479094742193426e-5 0.0
0.0012996425049934643 -0.0006909499126510419 0.0
0.0012612445131069108 -0.00069870336160546 0.0
0.0013034930264596593 -0.0007260738761643352 0.0
0.0012668408581935592 -0.0007343342452771963 0.0
0.002823332551767234 -0.000398824583355619 0.0
0.0007848909838364275 -0.0005596890391053724 0.0
0.0007011751550826152 -0.0004920701576250503 0.0
0.0036439665426062817 -8.365461202529752e-5 0.0
0.00021608254006708625 -2.5066989762315404e-5 0.0
0.00021531125496570286 -1.314295013276563e-5 0.0
0.002442285476543615 -0.0007346414257492342 0.0
0.002435694205865546 -0.0007801636212747964 0.0
0.0019847383512729966 -0.0004997382530786733 0.0
0.00360481241200259 2.2866145245147602e-5 0.0
0.0007092573550301919 -0.0005257298318653797 0.0
0.002923954345589231 0.00016959521801672583 0.0
0.0034103403260236104 -0.0002696810401452582 0.0
0.003435235214179593 0.0001127364870959404 0.0
0.00347342114582728 9.902201220586833e-5 0.0
0.0027294716848507315 -0.00039504456718362954 0.0
0.002933126679010364 -0.00040781685128523764 0.0
0.0029741213437454463 -0.0004081667995509295 0.0
0.0026076012975010166 0.00017346006882739014 0.0
0.002684893755782682 0.00016961595025559892 0.0
0.0027844580898771813 0.00017788397497697317 0.0
0.0022534230670767934 -0.0008156939346661075 0.0
0.0011026153745547274 -0.0006881671943006457 0.0
0.0016864393363740294 -0.00045934363937511895 0.0
0.002421994671889852 -0.0003855357948470082 0.0
0.0021351893702401853 -0.0005116180389471981 0.0
0.002172909112823737 -0.0008225853990417538 0.0
0.0009726564344996025 -0.0006181306184817279 0.0
0.0012418402857396406 -0.0005654318783752539 0.0
0.0005066168025703954 -0.00019699170302796542 0.0
0.0036540160335885637 2.659690921723318e-5 0.0
0.0028189087297159996 -0.0004675927702557114 0.0
0.0003435604943229836 -0.00015084193794939087 0.0
0.0009417016274826212 0.00024473187010473526 0.0
0.0021608229682627375 -0.0006585267768428802 0.0
0.0028232180088576973 -0.0006745910227718417 0.0
0.0027886838953443786 -0.0006632830763114331 0.0
0.002491345832927222 -0.0005259863957935805 0.0
0.002611008546889034 -0.000321571588833259 0.0
0.001141316584362903 -0.00038998172611235196 0.0
0.0017788929242373778 -0.0006868750052153457 0.0
0.0023967273377955498 -0.00033438464307503643 0.0
0.0012370534567506953 -0.0005350911754945101 0.0
0.001195019784496417 -0.0005393499393660559 0.0
0.0009788753596826506 -0.0006531960417576753 0.0
0.0006251840907966639 -5.911936717760311e-5 0.0
0.0006286745033424881 -3.273403869735973e-5 0.0
0.0002893037779950889 3.97750648381652e-5 0.0
0.0003967867758255276 6.098101016763347e-5 0.0
0.0030945200117896803 -0.0005486704206555501 0.0
0.00045515257282687134 -0.00021175859378387083 0.0
0.0006650583887049545 -0.00030631550691547556 0.0
0.0006102510150490083 -0.0002757377167341348 0.0
0.0032592175478499056 -0.0003506940142165021 0.0
0.001636073532009377 -0.0006188713936474525 0.0
0.0020907074114588026 -0.0004681940016556613 0.0
0.002520128951359662 0.0001471017815857671 0.0
0.0024974606164158966 0.00017037585885858254 0.0
0.0024231529590556344 0.00015587244617757857 0.0
0.0024005464186832057 0.00017216920013523755 0.0
0.0024679129395949496 0.00017821081139840803 0.0
0.0027886540282322796 -7.496730494230995e-6 0.0
0.0028688805998909454 -1.9044934644830036e-5 0.0
0.00289354037238574 1.2995123207063572e-5 0.0
0.0029671333647619744 1.2198526849094782e-7 0.0
0.002943773784910849 -3.181513211410974e-5 0.0
0.00017278650472171705 -5.4141465489999935e-5 0.0
0.00283777246840954 -0.00036987799130759987 0.0
0.00046569895223671245 0.0001167528127825076 0.0
0.0004885294608163405 0.00013475298170061332 0.0
0.002332184384863952 -0.0008054124895879917 0.0
0.00013938867297826575 -1.1886032071974758e-5 0.0
0.0031049914012877813 -0.00022514433280530088 0.0
0.003176943458131587 -0.00019646686110892097 0.0
0.003123453652789291 -0.0001945235028268557 0.0
0.0032368116210590406 -0.00019342290036052017 0.0
0.0032506693065641524 -0.00016801776160064874 0.0
0.003311660560201424 -0.0001652709616912381 0.0
0.0008719189619604807 -0.0003430997051266902 0.0
0.00087085630998364 -0.00031613637322740754 0.0
0.0008118851565307603 -0.00028701873741989126 0.0
0.0008688487391671061 -0.0002895889245590954 0.0
0.0009282191174404918 -0.0003176446527806935 0.0
0.0009269530235408265 -0.00029101328130106514 0.0
0.0009856329247206659 -0.00031794504157033147 0.0
0.0010707294895190714 -0.0006938042273856941 0.0
0.0009847948474019637 -0.0002906753790882895 0.0
0.0010433462576299882 -0.00031746991366261564 0.0
0.0002881052738531156 3.0846121919607792e-6 0.0
0.0006234444851814938 -8.529254373507836e-5 0.0
0.0010417724081915043 -0.00034376537467179955 0.0
0.0008145135752565843 -0.000263198722220264 0.0
0.00315483856428108 -0.0003484748202835172 0.0
0.0030991204277342017 -0.00038080790972440886 0.0
0.0017988139219457572 -0.0007941415485796289 0.0
0.0017971397586052408 -0.0008294024980813093 0.0
0.0023311855290643817 0.00015788355995473744 0.0
0.0012359761094158804 0.00017599661271995842 0.0
0.001331494722163029 0.00017150454834413852 0.0
0.0014057824663377362 0.00018874528067265586 0.0
0.0014221387156268936 0.00016153814367019854 0.0
0.0013488811174438705 0.00014166820581022172 0.0
0.0014383596314872938 0.0001243455387439192 0.0
0.0013664402887771181 0.00010688080485953333 0.0
0.0014566576672019852 8.45306548048819e-5 0.0
0.0013834500236901417 7.175690198048399e-5 0.0
0.0014880431819453293 4.642933201587886e-5 0.0
0.0013984198255889743 3.8786905657904896e-5 0.0
0.0014865365701397341 1.5219604037836943e-5 0.0
0.0014085440641339114 8.884171104031681e-6 0.0
0.0014940554165087856 -1.3144117132621138e-5 0.0
0.001422327288081197 -1.993743550105283e-5 0.0
0.0015036065056598556 -4.0062851462873885e-5 0.0
0.0014320821955029314 -4.609542622637773e-5 0.0
0.001508503099132551 -6.444121373887892e-5 0.0
0.0014401028508841478 -7.028650250086551e-5 0.0
0.0015135412080394257 -8.728699752038794e-5 0.0
0.0014465340515394675 -9.348751422672818e-5 0.0
0.0015172683728415135 -0.00010972384400403576 0.0
0.0014502411632315345 -0.00011598638177169508 0.0
0.0015200645431331086 -0.00013110397232425289 0.0
0.0014536051150176948 -0.00013872032308578168 0.0
0.001383449217015627 -0.00012181913321336121 0.0
0.0013873949959536636 -0.00014554561446994288 0.0
0.0015277257242037282 -0.00015481692664668704 0.0
0.0013660360099576252 -5.187580357948782e-5 0.0
0.0015851135575665183 -0.00012291250083178585 0.0
0.0015866897025813465 -8.203356103869303e-5 0.0
0.0012978974165746187 9.131320848362247e-5 0.0
0.0015749368390949002 -3.3203116895340427e-5 0.0
0.0013159928626311854 -0.0001276176977066514 0.0
0.0013213317310051857 -0.00015178591588613585 0.0
0.0013913666979412708 -0.00016959300190130602 0.0
0.0013264518028820122 -0.0001761402565918598 0.0
0.001337718993797833 1.6233071503110795e-6 0.0
0.001572484024971954 1.6951090626219017e-5 0.0
0.0013117181145961463 -0.00010331664110598643 0.0
0.0015319621814159888 9.927640706927e-5 0.0
0.0013954692597691535 -0.00019360493112235652 0.0
0.001330988886219601 -0.00020056612694966682 0.0
0.0012620889926232806 -0.00018224953154005443 0.0
0.001241935787519641 -0.00010914676118054118 0.0
0.0012344390078557039 -8.277843563372184e-5 0.0
0.0014603218762095742 -0.00018602151326068737 0.0
0.0014622576637240007 -0.00020960389261124815 0.0
0.0015253449510224293 -0.00020182138546342111 0.0
0.0014976811430727707 0.00017710498189537737 0.0
0.001487308229755058 0.00019528454826964499 0.0
0.001269056360276366 -0.00020745685121141924 0.0
0.0011987026957180104 -0.00018830946423877676 0.0
0.0011932355389776684 -0.00016367583914333062 0.0
0.0011261591791673674 -0.00016847318270111063 0.0
0.0021298729667287596 -0.000843946848712528 0.0
0.002092095722165102 -0.0008254611615743185 0.0
0.00357187458034144 -0.0002693812537379501 0.0
0.002288876234448438 -0.0006657075081910991 0.0
0.0023283328888064124 -0.0006779448929283008 0.0
0.0013199397084894082 -0.0005527426405357473 0.0
0.0013667558470605887 -0.0005759268336763476 0.0
0.003183744252632532 0.00010177624206849192 0.0
0.0023113643953366855 -0.000396143977771586 0.0
0.0013369331847136428 -0.0002246181498002204 0.0
0.0010108498068840998 -0.0005951390817354272 0.0
0.0010083716841637017 -0.0005630866482893392 0.0
0.0010452429582682259 -0.0005595627225337087 0.0
0.002554881152721959 -0.00031445266003242455 0.0
0.002359385838289324 -0.00014149124100258802 0.0
0.0015832288640081848 -0.0004517411365401414 0.0
0.0015334302908280746 -0.0004608032480149522 0.0
0.0021861879600983663 1.021638473451109e-5 0.0
0.0021802703004863947 -1.3578136753231399e-5 0.0
0.0022508589917446978 -1.8639542306339418e-5 0.0
0.0021680274989299467 -3.836660192279368e-5 0.0
0.0021972415787694967 3.5658190313245194e-5 0.0
0.0023458450916732016 -0.00018450831736206962 0.0
0.00234201044505221 -0.00020654695530588382 0.0
0.0022697365032174083 -0.0002200833352281293 0.0
0.0016940770594070513 -0.0003321309710245521 0.0
0.0017460777774019787 -0.0003462653170969048 0.0
0.0017491864356866673 -0.00032386134998740835 0.0
0.0018003497256252143 -0.00033668320943324543 0.0
0.0018034087552459461 -0.00031472655621861564 0.0
0.0018544608232935497 -0.00032686633226142674 0.0
0.001857804755582853 -0.00030543837866238237 0.0
0.0019109741145419228 -0.00031672211619287717 0.0
0.0019062711714334353 -0.0003392391645859652 0.0
0.0019639337135110087 -0.00032535639746313533 0.0
0.0022072280949907005 -0.0003785165779327759 0.0
0.0021525915611779137 -0.0003667124073204305 0.0
0.0020960899169517842 -0.000380207232176343 0.0
0.0020994564101153457 -0.0003556594446214717 0.0
0.000393696732540807 -0.00015996488219619106 0.0
0.00046950007175389837 -0.00040358973511585343 0.0
0.0004286217090399199 -0.0003651885435169389 0.0
0.00041620948272902593 -0.00033222795554718846 0.0
0.000387078357444051 -0.00032547396309128045 0.0
0.0019878292767819185 -0.0004706998481290231 0.0
0.0026664647580324423 -0.0003267918021315462 0.0
0.002653792625135634 -0.00035688340958836366 0.0
0.0009741481217080677 0.00019849018405222784 0.0
0.0020935986960150046 -0.00019335896022428328 0.0
0.002095437290678181 -0.00017498175614558592 0.0
0.002179126664836872 0.00015096677658415412 0.0
0.003706085003849756 -0.00010859216278548966 0.0
0.003753155094813522 -8.112706555918734e-5 0.0
0.00378564092833069 -6.761351476471854e-5 0.0
0.00012845392430845367 -5.261471623961084e-5 0.0
0.0001314542410576923 -6.171816143706195e-5 0.0
0.0001872573306471365 -9.044402958568654e-5 0.0
0.0001383897942488385 -7.285788735615169e-5 0.0
0.0001906290502984286 -0.00010301536200347273 0.0
0.00014316275712668379 -8.373739648771578e-5 0.0
8.748491809591328e-5 -5.052224222880062e-5 0.0
0.0019346194950929166 -0.0004847237965191177 0.0
0.0009285858582133477 -0.00026539751869049193 0.0
0.0005416023924641082 -0.00044504336808422207 0.0
0.001524941248213731 -0.00022351707053299425 0.0
0.0035294367387265057 -0.0003097198353676238 0.0
0.003495068818023965 -0.00032336931741965247 0.0
0.002991693919249915 -0.0003772472556762417 0.0
0.0030459322381862722 -0.00037127636877498844 0.0
0.0030575742396824514 -0.0003404354619648914 0.0
0.00018588506564844295 2.178097642036625e-5 0.0
0.0013903102714549849 -0.0007800587839281105 0.0
0.0009465821341446574 -0.0006577912088565782 0.0
0.00011693437049816943 -0.00011618076132933821 0.0
0.00016067589145758504 -0.00016421349858455433 0.0
0.000755704961406467 -0.0002604199029843167 0.0
0.0023821610265181876 0.00017107921944896636 0.0
0.0024586696708318906 0.00017092582110220746 0.0
0.002886561416836762 -0.00040865209347834585 0.0
0.0030121041040360556 -0.0004095333521349245 0.0
0.001308465257107292 -0.0007608740280802226 0.0
0.0014672375938707897 -0.0007951730732058594 0.0
0.0015058228011384394 -0.0007862217307140227 0.0
0.0032983651765675333 -0.00039591967838876113 0.0
0.003277658480989354 -0.00043944103874234684 0.0
0.0032262426189142578 -0.0004849107700551741 0.0
0.0035441235289617695 -0.000121794341297789 0.0
0.003491623511658823 -0.00013029899282995997 0.0
0.003424950733929589 -0.00015707005993133614 0.0
0.0034327527447166576 -0.0001377749673246065 0.0
0.0006439897450958195 -0.00025463971814444514 0.0
0.0033229831638427573 -0.00014184901783438435 0.0
0.003251864625501474 -0.00014391306191465452 0.0
0.0023391027287274903 -0.0006445997094306573 0.0
0.00039712384112398555 -0.0003549636403015815 0.0
0.00036071161019023964 -0.00032128108681959505 0.0
0.00034756302182074677 -0.0002907264692159556 0.0
0.00032190611872807767 -0.0002843866094059516 0.0
0.003796087261502704 -5.691025286787884e-5 0.0
0.0037141955710040704 -6.323301794551555e-5 0.0
0.003761054992882869 -4.401060366992745e-5 0.0
0.0031241769532515153 -0.0005558150760763504 0.0
0.0015852044412842166 -0.0003479907584279222 0.0
0.0033258909329319905 -0.00040158946735373627 0.0
0.0033077532346442377 -0.00044328365464263653 0.0
0.0033525978738944565 -0.00040659059625921493 0.0
0.003338618400907189 -0.00044973608560562497 0.0
0.0033844075576373624 -0.0004060258745264997 0.0
0.0033989013929332564 -0.0003680837095409183 0.0
0.0034259866004778643 -0.0003704684139384079 0.0
0.0018396867290933143 -0.0008496667202728444 0.0
0.0018016498319649798 -0.0008677673348885588 0.0
0.0017519422547710318 -0.0008434528082560644 0.0
0.0012766093491039944 -0.00023316402246505285 0.0
0.00010113406184701474 -6.457248429106956e-5 0.0
0.00014735932814730497 -9.517717968701586e-5 0.0
0.00010598076786579365 -7.385837343958039e-5 0.0
0.0012773690268111228 -0.0007756370634469536 0.0
0.0012339526287391187 -0.0007437668034102189 0.0
0.003663746908181703 -0.00020743028308989954 0.0
0.00030157978383897854 5.2549212512183375e-5 0.0
0.002044961137135802 -0.0003712759930298187 0.0
0.0020503598811869076 -0.00034589787131409456 0.0
0.0035313237185849475 1.5967528058165636e-5 0.0
0.003641464277631019 8.301231008187648e-6 0.0
0.0033135638088024693 -0.0003163187699575577 0.0
0.0006721531154239122 -0.0004915701970498298 0.0
0.0006848372744167508 -0.0005288757403230773 0.0
0.0028153556881184336 -0.0004277632520409968 0.0
0.002836708621661031 0.00015080323867045528 0.0
0.003735411861857687 -0.00014919955209528326 0.0
0.003783507477954837 -0.00010345921196635533 0.0
0.0038017479335411856 -7.948681703670612e-5 0.0
0.0027567795329228404 0.0001654699639984712 0.0
0.0032131050404648315 -0.00031693233224692774 0.0
0.0017591868483015785 -0.0007467744692497493 0.0
0.0032964598459429527 -0.00018992908333496586 0.0
0.0031079274049372815 -0.00035482688375028805 0.0
0.0011935856885669893 -0.0005075235432355661 0.0
0.0006903451633958985 -0.0004586924309378255 0.0
0.0036015044227877915 -0.00010872774659535244 0.0
0.0029927206021374744 0.00017054211932192035 0.0
0.0012343346312788512 -0.0007773892113344442 0.0
0.0005717624550839001 -0.00022923379992319717 0.0
0.002081548036767396 -0.00021562908165374464 0.0
0.0030625848674396593 -0.0005461278058543811 0.0
0.00305063105577112 -0.000587211875503426 0.0
7.86366039739391e-5 -7.741047126224133e-5 0.0
0.002373182731885238 -0.0007837299421450379 0.0
0.0023576765068049183 -0.0008193611165995291 0.0
0.0015047554292957944 -0.0008262082977805751 0.0
0.0015454748079675256 -0.0008125420530903208 0.0
0.0015439152635170652 -0.0007762462639624204 0.0
0.001584245197105398 -0.0008008677341926807 0.0
0.0015460109345373882 -0.0008430229086077701 0.0
0.0013076155724924812 -7.89058383298306e-5 0.0
0.0012296019290097904 -5.8347871071345244e-5 0.0
0.0005367352147121624 -8.567343800147155e-5 0.0
0.0010653230123553463 0.0002428342550577278 0.0
0.001070216419245761 0.00022465791452309502 0.0
0.002350303127924314 0.00012781516895877897 0.0
0.002978760130845081 -0.0006266989178238088 0.0
0.0029359823885955483 -0.0006605943753125699 0.0
0.0003311599979947817 -0.00031442978150617447 0.0
0.00029368329207134225 -0.00027474704844799084 0.0
0.0037792301830410833 -4.3903596259782355e-5 0.0
0.0006260392778026326 -0.00030404577618610987 0.0
0.0005645318526152392 -0.00027654809977778764 0.0
0.003514870116112476 0.0001345779832239372 0.0
0.0036186980756410473 -0.00022629764651857333 0.0
0.0035978876152569263 -0.00026636015075392745 0.0
0.002145187853805682 -0.000223312118477343 0.0
0.00246551353560466 -0.0007943358777338257 0.0
0.002415489766574371 -0.0008290734570600271 0.0
0.001094943978057916 -0.0003410844774973544 0.0
0.0011001376808710366 -0.0003148990130037089 0.0
0.0015847873235224727 -0.0007653538870263768 0.0
0.0033338670327121528 -0.00034897984525207517 0.0
0.001913941441620414 -0.0002950385517781141 0.0
0.0018652288668082034 -0.00028390549723357553 0.0
9.628739666772594e-5 -0.00010133435174397862 0.0
0.0010115708321896176 0.0003736723195730097 0.0
0.0017501393380066755 -0.00030093829513344253 0.0
0.0011665070068423433 -8.985552595039699e-5 0.0
0.00117696590015024 -0.00011538807351547646 0.0
0.0007101736933686643 -8.206563398014104e-5 0.0
0.0024130007981680167 -0.0001909796445143071 0.0
0.0015850328816303285 -0.0002160642646336444 0.0
0.0015870836165477224 -0.0001951764589305326 0.0
0.0016452136099780275 -0.00020915413093489254 0.0
0.0016460194622011431 -0.0001895480126688074 0.0
0.0017016925387161909 -0.00020097673698136478 0.0
0.0017033331866276116 -0.00018264625828717253 0.0
0.0016463029114004407 -0.00017073234332138284 0.0
0.0017041675624242772 -0.00016409810694414465 0.0
0.0016472421031452041 -0.00015260328390443535 0.0
0.0017059791597540677 -0.00014628056188711503 0.0
0.0017554487579132983 -0.00019360697031960215 0.0
0.00014993039969925958 -4.716043296348204e-6 0.0
0.002332765075562066 -0.00023196669786306606 0.0
0.0015969694332844037 -0.0003253903253583051 0.0
0.0015124936136187135 0.00014155537431815608 0.0
0.001621875911160662 0.00010751860015167773 0.0
0.0016283480105702712 6.905481736670132e-5 0.0
0.0015918737912625823 0.00015568281213039107 0.0
0.001554623699936051 6.17948675650086e-5 0.0
0.0016477192286968182 3.8885200550176934e-5 0.0
0.0017343310821510789 3.9790391359385474e-5 0.0
0.0016853430562510136 0.00013131546748339153 0.0
0.0002404350551567158 -0.00012071892175689356 0.0
0.00024697201224922565 -0.00013706105333915973 0.0
0.0037759185881475234 1.9462390055191245e-5 0.0
0.0036550792992771112 4.3643521518669845e-5 0.0
0.003647864130546113 5.305554236238991e-5 0.0
0.00286070784672859 -0.0006890476038511848 0.0
0.002808352077657843 -0.0007216608088273674 0.0
0.001002390104487382 -0.0005316816222817176 0.0
0.0010406198202586074 -0.0005274536539874882 0.0
0.0009635971338474434 -0.0005339911060659465 0.0
0.0010998464407884372 -0.00010048393600068674 0.0
0.0017071805749906284 7.207779414488284e-5 0.0
0.0017650679016195747 -0.00015696824170844564 0.0
0.0017628417192372728 -0.00013895141514565345 0.0
0.0017067205793303583 -0.00012864452010662478 0.0
0.0017621286659802514 -0.00012266285261935232 0.0
0.0017101624987993635 -0.00011195423013778035 0.0
0.0010319881085322975 -0.0006670900799541996 0.0
0.003765811949670622 3.17179890636336e-5 0.0
0.0015871743934286428 0.00018507269677221444 0.0
0.0022559079195580466 0.0001280775926953844 0.0
0.0022636793301335245 9.349173289881061e-5 0.0
0.0021709960239958796 8.534131894497654e-5 0.0
0.0011279740329377984 0.00017649788582276143 0.0
0.0013777287512444782 0.00019917618377716543 0.0
0.0013025095682591328 0.00021118936906757454 0.0
0.0012518204095271286 0.00021886031557314498 0.0
0.002527668090667743 0.00012450583799642322 0.0
0.0031745830942546483 -0.0005192735826985469 0.0
0.003153148644201362 -0.0005680232580884001 0.0
0.0009831182928472142 -0.0006875507320129288 0.0
0.0016246349946896972 -0.0007899005286611298 0.0
0.0016253123641183616 -0.0008246123420739481 0.0
0.001663419394556666 -0.0008135944403546371 0.0
0.0016692235600481713 -0.000852655550571122 0.0
0.0027450876929537714 0.000133060407512069 0.0
0.002665693974684195 0.00011511430743670996 0.0
0.0027701382739968657 0.00010873465534255725 0.0
0.0028534741970595895 0.00012281838056207 0.0
0.0021075729537781136 -0.00033263934794942716 0.0
0.0020638853981538585 -0.00032140999974868926 0.0
0.001704290955874632 -0.000835449947041372 0.0
0.001142530376451908 -0.00019655265350698324 0.0
6.328635432292834e-5 -5.824532604502689e-5 0.0
0.0015703140533430472 -6.316698665946509e-6 0.0
0.0016478570007955762 -2.688919242784841e-5 0.0
0.0016525086594299336 -4.9569352808937195e-5 0.0
0.001724178380058026 -4.363026391079911e-5 0.0
0.0017234920556822204 -6.240376152498836e-5 0.0
0.0017203613599228002 -2.4051517263315257e-5 0.0
0.0016636645587899228 -6.87485144278258e-5 0.0
0.0017245017671053387 -7.98657839216301e-5 0.0
0.0017912751886477991 -3.782839976460129e-5 0.0
0.0025634458723657735 0.00011996458751509666 0.0
0.001670256518823599 -8.731281435560375e-5 0.0
0.003820282726537076 -2.8724128336535834e-6 0.0
0.0014626370193767733 -0.0002325883299784141 0.0
0.0018229103023026435 -0.0007031382450398482 0.0
0.0018715593030629858 -0.0006894744500532652 0.0
0.001648657949669683 -4.397576697138644e-6 0.0
0.0017270342957175291 -4.010822041604482e-6 0.0
0.002217612386023978 -0.00035435556919041213 0.0
0.002799588903363058 -0.0006199012411055611 0.0
0.0027512986699759234 -0.0006564237093223568 0.0
0.002741341769808393 -0.0006986371893098701 0.0
0.0027067890352779887 -0.0006917168633043736 0.0
0.0026995889962346665 -0.000730697406297417 0.0
0.0026626659472607536 -0.0007263931466987781 0.0
0.0032025328583326507 -3.512317150124953e-5 0.0
0.0031354500647867213 -6.428538993633527e-5 0.0
0.003167331515507978 -8.704204003308496e-5 0.0
0.0030695214501297863 -9.50150421728689e-5 0.0
0.00309847914926929 -0.00011765158874451085 0.0
0.0030016661033697794 -0.00012703775857079752 0.0
0.0030324263190708235 -0.00014952506770174275 0.0
0.002970749413179455 -0.00010359937958377692 0.0
0.00290553015147895 -0.00013569696253137024 0.0
0.00312384341076859 -0.00013930982335843913 0.0
0.0028731490124712213 -0.00011272074102096274 0.0
0.003057396000637352 -0.000171109507493995 0.0
0.002971422618584633 -0.00018123057517328592 0.0
0.00299257803600345 -0.000202931358156011 0.0
0.0029394896416177654 -8.135331199327092e-5 0.0
0.0030994456053557947 -3.99802665715671e-5 0.0
0.0031472659610987963 -0.0001614232188012959 0.0
0.0032709806865137193 -8.297727465603392e-5 0.0
0.003207357346982175 -0.00013024210721612495 0.0
0.002102161586121323 -9.101267085660584e-6 0.0
0.001356862779088184 0.00020798489832683496 0.0
0.0002025499001254715 -0.0001217478180557113 0.0
0.0001878003765648874 -0.00018021392166124827 0.0
0.0002272260992523798 -0.00022125819467328083 0.0
0.001702436439825695 -0.0008013999856343228 0.0
0.002277935530380716 -0.00036813121852125773 0.0
0.002178310659940722 -7.594890445882705e-5 0.0
0.002104749244491879 -8.967819271074714e-5 0.0
0.0021172759127300097 -7.141428731884897e-5 0.0
0.0021068088102484785 -0.00010867065565656419 0.0
0.0021692950633550854 -0.00011657311579383464 0.0
0.0021015478915328276 -0.0001280767129688316 0.0
0.002094902027208779 -0.0001463738016230288 0.0
0.002042882657266126 -0.00013765664728866846 0.0
0.00024756441298949495 -0.0002125990166189677 0.0
0.0024345928552476047 -1.0085552768249724e-5 0.0
0.002963785922296156 5.633544316460382e-5 0.0
0.0028430156346690165 6.049519813438742e-5 0.0
0.00015141214431618402 3.264028882898223e-5 0.0
0.0003154471004256608 7.416793277203669e-5 0.0
0.0002958009709359272 6.190544220154311e-5 0.0
0.0024826726276757347 -7.90710014263037e-5 0.0
0.00032126633181487355 -0.0002490957652870049 0.0
0.0003731378545411932 -0.00029299024388808743 0.0
0.0004056682638697205 -0.00030325227920900526 0.0
0.0004018234466677376 -0.0002778340034867761 0.0
0.0004360927213142372 -0.0002804758141313158 0.0
0.0015844724029660533 -0.00010328890716131383 0.0
0.0001840678682819945 1.3493586265542224e-5 0.0
0.0007630962029473057 -0.0002145445726615905 0.0
0.0006255086045063374 -0.0002057147789885766 0.0
0.0017227281600765653 1.7504601755342943e-5 0.0
0.00042132856699045453 0.0001634331133924081 0.0
0.0026973221266282437 -0.0006438414081321059 0.0
0.0023419451135140053 -3.47406877633764e-5 0.0
0.0036905691464210024 -0.00019540604458595184 0.0
0.0029410574971270686 -0.00015835824597860258 0.0
0.002846390822305289 -0.00016692406504995865 0.0
0.0027748511060394746 -0.0007100493640721593 0.0
0.003827860458226266 -7.419882637826894e-6 0.0
0.0037560226682678854 -1.9110892619345543e-5 0.0
0.00377094456550468 -2.4924513480390586e-5 0.0
0.003743472389947288 -1.1299683184354149e-5 0.0
0.0036873260156761014 -3.5371231451002783e-5 0.0
0.0037336885104910997 -2.72821421765349e-6 0.0
0.0036484493860481195 -1.1801534931655884e-5 0.0
0.0036660635939732202 -2.4444465524809848e-5 0.0
4.2721330079255175e-5 -2.3639180958860054e-5 0.0
0.0038554708273099026 -2.00780425002992e-5 0.0
0.0038056870463301063 -3.891583146740618e-5 0.0
0.003835854809998198 -2.1451935014207015e-5 0.0
0.0038101777075343042 -4.160211997108032e-5 0.0
0.0022908293746541878 6.442897215936297e-5 0.0
0.002906612289270972 -0.0006484927890611949 0.0
3.302244458641365e-5 -2.5211983503486537e-5 0.0
0.003865374035631213 -2.173658910586032e-5 0.0
0.001255444392351067 0.0001510342477810895 0.0
0.0031218841909139788 1.8045761272452985e-5 0.0
0.0010640613571995647 4.0142718173056675e-6 0.0
0.001148902981751232 1.4372509997383999e-5 0.0
0.0011452890757118852 4.778064692930139e-5 0.0
0.0011499788590478713 -1.5341479197949978e-5 0.0
0.0012230326359195462 -9.097585549194343e-6 0.0
0.0012408624911345362 1.9910528232714017e-5 0.0
0.0012318607979705579 5.493090819729338e-5 0.0
0.0011474473287152393 7.930925819620928e-5 0.0
0.0010731681773053846 0.00010681786798096609 0.0
0.0010761627925754854 -3.182136921911881e-5 0.0
0.0032663735600677864 -0.0004792473085208624 0.0
0.0038176117038849046 6.905870462621945e-6 0.0
0.0015877068996675535 -0.0007301475314231811 0.0
0.0005160459855313744 -0.00044826072869225955 0.0
0.0017486106080771336 -0.0007138804003156599 0.0
0.0013462684440617156 -0.0007529470558220139 0.0
0.00134852738747847 -0.0007885422039729711 0.0
0.001821003794663 -0.0001318739915980468 0.0
0.0024868747854363805 -0.00013494309113025644 0.0
0.003363885933785875 0.00011317768611487434 0.0
0.0034108667088794866 9.377613334208395e-5 0.0
0.0033065409283901887 9.827999133501187e-5 0.0
0.00024178094168430714 -0.00010839830025019412 0.0
0.0004809884460868862 -0.0004363494815654466 0.0
0.0012118322054124736 0.00027435286287541295 0.0
0.001087585438617603 0.00027584580780370916 0.0
0.0027839814253287306 0.00012537809592303123 0.0
0.0013986776095809938 0.00020349345731892433 0.0
0.0035227537974607827 -0.0002484357323169708 0.0
0.001733187255551627 -0.0005967181132741504 0.0
0.002662537901797091 0.00011326183632262518 0.0
0.0027436398995098754 0.00014209562460096133 0.0
0.0011682392361674248 0.0001279912452938392 0.0
0.0009523144845452353 -0.0006946532480362371 0.0
0.003499072924422708 -0.00029095509261425895 0.0
0.0005717822469572177 -0.0004479655830608659 0.0
0.0006067771873010016 -0.00047915642590125925 0.0
0.0005876152711808342 -0.0004887642502510824 0.0
0.000910502348719698 -0.00021301077534660004 0.0
0.0021496500145448696 -0.0001594810467225967 0.0
0.002413272109750773 -0.00010264925201301987 0.0
0.0014580800480315699 -0.00016197499531845215 0.0
0.00152478371753202 -0.00017946190182535835 0.0
0.0037373156301402856 4.701076998277827e-5 0.0
0.00355024846249672 9.714981012523208e-5 0.0
0.00016685916498817524 4.7796028030709496e-5 0.0
4.2224716929542894e-5 -2.6016143502930933e-5 0.0
0.0017593539416456553 -0.00017514061490925351 0.0
5.802270640499786e-5 -1.5111824579024576e-5 0.0
0.00014058628101607675 -3.0764407684273316e-5 0.0
0.001728125618877527 -0.0006863159000905603 0.0
0.0024574112167351577 0.00012776828756394287 0.0
0.0014328773992583301 0.00019424888861736565 0.0
0.002389046411105521 -0.0003580478632027355 0.0
0.001771980512213199 -0.00010625963482098636 0.0
0.0031217355492622573 -0.00030443721869358187 0.0
0.0036441375513939223 -0.0001881361378707735 0.0
0.0011484053834083662 -0.0005124534704545479 0.0
0.0011528788998996348 -0.0005443390897583125 0.0
0.0011059435662784563 -0.0005135353243292394 0.0
0.0010574668435949734 -0.0004831441319291016 0.0
3.37734724271662e-5 -2.8094903685073305e-5 0.0
6.375019269999363e-5 -5.3865133673240486e-5 0.0
7.162600065611275e-5 -5.521542608346943e-5 0.0
0.000987750433482237 -0.0003444705679997412 0.0
0.0009341954417563015 -0.000347896104792513 0.0
0.0038586840760010625 -2.0849931835896534e-5 0.0
0.0020886438732298134 -0.0008649997133734611 0.0
0.0020504474177778314 -0.000845197762251222 0.0
0.00204741713635095 -0.0008842227911700599 0.0
0.002009026931604888 -0.0008638499227006089 0.0
0.001966788884342916 -0.0008804685553059358 0.0
0.001965219638295535 -0.0008421610140418482 0.0
0.0020523602291772705 -0.0008065003049073721 0.0
0.0026645915385963732 0.00014403929048186696 0.0
0.0004528527742281712 -6.26131049271716e-5 0.0
0.0005270940702954916 -0.00010856173726728948 0.0
0.0004577744458218656 -0.0001084772876935607 0.0
0.002451914530991239 -0.00034250111845626183 0.0
0.0007812383977240785 0.00022756163910381532 0.0
0.001954370426422597 -0.0003499775297116025 0.0
5.808231566224409e-5 -2.383924309931645e-5 0.0
0.0011974135201453736 -0.000746981437749148 0.0
0.0011580601541506096 -0.0007453268818691374 0.0
0.001165833232038515 -0.0007163252261324899 0.0
0.0013425937884385109 -0.0007174805161271724 0.0
0.0011493105988589108 -0.0004770313007280125 0.0
0.0005076431097959592 -0.00021958684861454007 0.0
0.00029502372907549886 -0.00016992920773277104 0.0
0.0038390545989580005 -1.377943306550123e-5 0.0
0.0037863983240398447 -2.808199212356493e-5 0.0
0.0007508982348541743 -0.0005606479339235133 0.0
0.0009052563392619649 -0.000624267354795395 0.0
0.0008705069543156372 -0.0006279601898129436 0.0
0.0008278165278375827 -0.0005937264490587596 0.0
0.0008338487345344336 -0.000628716509530674 0.0
0.002311334406883051 0.0001390327661781312 0.0
0.0015569666643029771 0.00018558956512910616 0.0
0.0025110829766775327 -0.0007654282403893695 0.0
0.0025443714857057774 -0.0007794587773013871 0.0
0.0025876519317720266 -0.0007501499692672516 0.0
0.0024947878829704884 -0.000814609087115541 0.0
0.001242140239455889 -0.0005086446380260757 0.0
0.00221127888156378 -0.0006392072719729565 0.0
0.0014274568224572454 0.00020193149190516385 0.0
0.001579499934399862 -5.9820069369180315e-5 0.0
0.0038667443185582693 -2.3093159520419447e-5 0.0
0.0038354247633714334 -4.6213639300156195e-5 0.0
0.0038221110743337037 -5.008113681531361e-5 0.0
0.0007928503816869469 -0.0005950525866740001 0.0
0.0007593942360017319 -0.0005945578677544163 0.0
0.0011456914304664723 -5.9511415999304814e-5 0.0
0.0010145087307339095 -0.0004892951971803347 0.0
0.0036203329910709627 -0.00015108074834480133 0.0
0.002945728587418535 0.0001730353709015649 0.0
0.0017491399449900012 -0.00021201913159958779 0.0
0.0018019060601856074 -0.00020302856502521093 0.0
0.0023154580160884646 0.00016750771747743937 0.0
0.002864997626163915 -0.0005455979255387031 0.0
0.0016849749581689057 -0.0006079804643397823 0.0
0.001686969465974132 -0.000640754664424485 0.0
0.0004197808711255319 7.991010987331849e-5 0.0
0.0009286806654081521 -0.0004935813317513 0.0
0.0008852846814149589 -0.0004907998192310876 0.0
0.0008377562283583628 -0.0004589912104134713 0.0
0.000843206797099663 -0.0004910720104762484 0.0
0.0007131461370935479 -5.4491527265504285e-5 0.0
0.0007165147998039216 -2.6316036634356336e-5 0.0
0.000799456325261249 -0.0001090646445314622 0.0
0.0025313211288851447 -0.0008249028011166744 0.0
0.0024588549295342043 -0.000626920171220298 0.0
0.0024048968877464594 -0.0006537923185243828 0.0
0.0024511047799465864 -0.0006677857995433566 0.0
0.0023973514787209442 -0.0006958305239049594 0.0
0.0024292376432204373 -0.0007067951859516679 0.0
0.0025022135779177884 -0.00063444330979001 0.0
0.002543207267741385 -0.0006391207219591326 0.0
2.854125711842059e-5 -2.791246034632502e-5 0.0
0.0038719220217901347 -2.4098276425829816e-5 0.0
0.0031980830548754874 -0.0004725941739418426 0.0
0.002287770500611395 -0.0008298088119001446 0.0
0.0035907237073962914 8.11595522135741e-5 0.0
0.002217258630291521 -0.0007996530820171563 0.0
0.0022079713578056995 -0.0008385380338894119 0.0
0.0029224809082960897 -0.00037237278775724864 0.0
0.0026157297484331317 -0.00029367088782149785 0.0
0.0025617817030167142 -0.0002865038969414021 0.0
0.0012180487537645488 -0.0006717891872957362 0.0
0.0007105348153127385 -0.00042444669073843095 0.0
0.0029041573151786597 -0.0002153988246990954 0.0
0.003070082386882633 -0.000504959795535339 0.0
0.00134529942808676 -0.0003974193106039126 0.0
0.001395328284692148 -0.00039096075209892446 0.0
0.0013933704109087635 -0.0004189116244895573 0.0
0.0013985805282222877 -0.00036405296032539767 0.0
0.0013437282228935864 -0.00042575990139844276 0.0
0.0014441229619157532 -0.00038717669825614386 0.0
0.0014504858622482442 -0.0003621795681302738 0.0
0.0014634537253320158 -0.0003347853277783041 0.0
0.002900162299187753 0.00017536441304119043 0.0
0.0003123642059634062 8.222160949536196e-5 0.0
0.002810553925112474 -0.00014462740656527934 0.0
0.003060266244342815 -0.0003140322631176268 0.0
0.0005714149345704081 0.00018009385990737728 0.0
0.0005478259599563057 -1.1592622498590488e-5 0.0
0.000800278867377838 -4.961354910203929e-5 0.0
0.0006219767481259013 -0.0003885540003851046 0.0
0.001344632102535769 -0.00034315121575348906 0.0
0.0010436835914203664 -0.00028948875625780753 0.0
0.001116136220911683 -0.0002887697651304423 0.0
0.0011622312076719943 -0.0003165951633945108 0.0
0.0018790240440745545 -0.000836098659868336 0.0
0.0019232843479459088 -0.0008579959261692131 0.0
0.0019223892183608778 -0.0008999677960809216 0.0
0.001966165020910309 -0.0008044988703803711 0.0
0.003015444673056097 -0.0005364474107485031 0.0
0.0013978685126360638 -0.00021700566394385076 0.0
0.002838791224972743 -0.00033724099242113316 0.0
0.001338914564449611 -0.0006826924264085302 0.0
0.00205421057813377 -0.0007688202246904902 0.0
0.0014242643935483059 -0.0008080389572560328 0.0
0.0035771559503038394 -2.348368316416062e-6 0.0
0.0019030115024156326 -0.0003627176921784253 0.0
0.00045074532732890477 -0.0001889513871718442 0.0
0.0014469254271942708 -0.0005601080877781147 0.0
0.001494424124301703 -0.0005836968883903281 0.0
0.0013492405054121904 -0.0005131628393556252 0.0
0.0014636529218178603 -0.0007254313032962665 0.0
0.002295189834075829 -0.0004847195053387733 0.0
0.0022381464678105727 -0.000504042031065295 0.0
0.0022887528646545006 -0.0005163677403293379 0.0
0.002777706526940323 -0.00012219684644654416 0.0
0.0017327431480887528 -0.0005652355798703196 0.0
0.0012489917509443697 -0.00046587877400105604 0.0
0.0022105145358531616 -0.00021096297198044665 0.0
0.0021995815447749282 -0.0002331464760965163 0.0
0.0004869063984139827 -0.0003135529387176441 0.0
0.0010261904358833086 -0.0006333138883239412 0.0
0.0026015681250637643 -0.00070512899708602 0.0
0.002181245927202436 -5.728357754596406e-5 0.0
0.002022982392282577 -0.0006106343718751575 0.0
0.0019722283129881718 -0.0006266876835951104 0.0
0.00196984783647445 -0.0006613069721061574 0.0
0.0019220178694138495 -0.0006417264950317115 0.0
0.0019209495218102202 -0.0006765518345761578 0.0
0.002016624247520216 -0.0006793817292532288 0.0
0.002353888071039837 -3.4879850957882583e-6 0.0
0.0015852837838878852 -0.00047942136222185207 0.0
0.0015379855767581074 -0.0004883104801086004 0.0
0.0021922279631092037 -0.0004609224361898504 0.0
0.001300177436276342 -0.0005182792471041929 0.0
0.0021665606594398405 -0.0008606066131755541 0.0
0.0016357240726115033 -0.0005868687229860515 0.0
0.0019245381470825722 -0.0006083222172291497 0.0
0.002731100782468327 -0.0007414465056455023 0.0
0.0017441291550360553 -0.0003704909789548872 0.0
0.0036724458474688437 -8.509373930842075e-5 0.0
0.0019321568845684506 -0.0005142012840735214 0.0
0.000869306799373568 -0.0003702493110501687 0.0
0.0016826393381106201 0.00017523043155182746 0.0
0.0027192456237464173 -0.0006017675247332681 0.0
0.003513836405340947 8.27360535713514e-5 0.0
0.0005704786925946418 3.882517773511939e-5 0.0
0.0005917091593915942 6.261847788449164e-5 0.0
0.0006565324953713434 2.7108854041750557e-5 0.0
0.0006940080140536781 5.583335138395189e-5 0.0
0.0007592347261212078 3.6800121557038225e-5 0.0
0.0027532862668206114 -0.00017562447124155152 0.0
0.0015874417729041482 -0.0008402058639532486 0.0
0.0017976147644362173 -0.00036056261138994186 0.0
0.0001137347365720041 -3.3023547525323276e-5 0.0
0.001279449863774084 0.00021883304666029955 0.0
0.0011882313911701313 0.00023185023882661538 0.0
0.0025981708506446948 9.486800508822075e-5 0.0
0.0015450596484224111 -0.0007059850765995697 0.0
0.0017611202231020504 -0.0008095748705429062 0.0
0.0015292330668410302 -0.0002472625993369785 0.0
0.0021408235284610592 -0.00044859183150747857 0.0
0.002084914040439635 -0.0004344057714808189 0.0
0.002093609562023662 -0.0004051610156695668 0.0
0.0021947824940470703 6.025983972593636e-5 0.0
0.001452755836396489 -0.0005923491241618928 0.0
0.0009852248584960737 -0.00026402033319346426 0.0
0.0014849327214974 -0.00043735237399337886 0.0
0.00019470510237092414 -0.00012837756004101 0.0
0.002034661130633156 -0.00020288567226560137 0.0
0.0008194725329950618 -0.0005583086718533429 0.0
0.0020412713791929543 -0.00045548114650295244 0.0
0.001226196401324481 -0.0007072853393802577 0.0
0.0027313896502875715 -0.0003013811565680737 0.0
0.0018399168332754873 -0.0004536846012579686 0.0
0.0018730586399093238 -0.0006558111104190964 0.0
0.003421153782318278 -0.00024201834925238798 0.0
0.0007213961776180913 -0.0005605012795970528 0.0
0.003720158186699682 -0.00018215665602499577 0.0
0.0015298342005467139 -0.00034542970085778865 0.0
0.0018340925169990242 -0.0005110419028161094 0.0
0.00033413053167948275 -0.00013122193255841647 0.0
0.0034176296813949263 -0.0001772503922851557 0.0
0.002153169721293579 -0.0006938126202118554 0.0
0.00011318682062043088 -3.993928961680103e-5 0.0
0.001969504235066697 -0.0002835197374851918 0.0
0.001967276648492608 -0.0003030503234116898 0.0
0.003649069525780932 -5.226265708090955e-5 0.0
0.0021281504477305606 -0.0008825601079715086 0.0
0.0006712120867383798 -0.0004226813824611126 0.0
0.0037676630786152416 -8.477000895435157e-5 0.0
0.002040125300063371 -0.0003938248809804295 0.0
0.001891971959395283 -0.0004418534206627235 0.0
0.0023706248559844283 -0.0006086268846922909 0.0
0.002321359569536057 -0.0005968698570697195 0.0
0.0021682574995209774 -0.0006238234889550534 0.0
0.0017949755869539961 -0.0003856804149741041 0.0
0.002213889174221736 -0.0008997420956031401 0.0
0.0023803140320580334 -0.000877079193313851 0.0
0.0016955162012846497 -0.0008901631174132198 0.0
0.0018264466234722432 -0.0009035235618257823 0.0
0.0026296074898136176 -0.0008091772577528061 0.0
0.0026185283127561896 -0.0007683030275619042 0.0
0.0013532177257009805 -0.0008224529084951172 0.0
0.001065679479737636 -0.0007422336426610588 0.0
0.0022965383452465417 -0.0008905731671835676 0.0
0.001442559355971775 -0.0008470305917861558 0.0
0.0016229163110471937 -0.00030440668544911615 0.0
0.0033425199167610303 -0.00011628281200518341 0.0
0.002747886176525928 -0.00045879502080550295 0.0
0.0027287078625502334 -0.0004915963250880685 0.0
0.001393098804299705 -0.00044912559035491115 0.0
0.002365299751057721 -0.0004068803475258382 0.0
0.0018776940367236426 -0.0007228456623776538 0.0
0.000968465714560525 -0.0005846799769350773 0.0
0.0007237287326297549 -0.00033760209910044627 0.0
0.0016354722736894708 -0.00044198674540627886 0.0
0.0034145907739626244 2.5322272950529677e-5 0.0
0.0013183238487939001 3.216759483312304e-5 0.0
0.0018517030490724966 -0.00035005605038885423 0.0
0.002188228641542032 -0.0004929244486582115 0.0
0.0002564529331343174 -0.00023779268658179618 0.0
0.0002659093403987509 -0.00026419655860594055 0.0
0.0016353711503987003 -0.00065161777336298 0.0
0.0013724949889909338 -0.0006093009357412939 0.0
0.0019820861188632743 -0.0005299055844461495 0.0
0.003620498339706746 6.596444435010767e-5 0.0
0.0020955336271192065 -0.0007869063608512973 0.0
0.0038299582054526224 -6.170286033680993e-5 0.0
0.003805589871885046 -9.197148405258083e-5 0.0
0.0010687673108109408 -0.00017656826452631887 0.0
0.0016858928719875716 -0.0004872486030115536 0.0
0.0017808296753198721 -0.0005845292073301167 0.0
0.0037187060446869217 1.2904895398451148e-5 0.0
0.0018141007880093781 4.6128740328870354e-5 0.0
0.0025931987424742775 -0.0006138329822265828 0.0
0.0026741860680441127 -0.000518546100397251 0.0
0.0010462975878644475 -0.0007047447882101405 0.0
0.0024554007035157105 -0.0004850854561683264 0.0
0.0016870342566681269 -0.0004320959057309096 0.0
0.0025731128271514487 -0.00043932262675220197 0.0
0.0025617933323251432 -0.0004707695852705118 0.0
0.00263226229611738 -0.00041581304685801927 0.0
0.0008723112726230752 -0.0006637288611311366 0.0
0.003052694732879898 -1.163981501234815e-5 0.0
0.002241625388459563 -0.0008591454797858481 0.0
0.0031951750685427515 -0.0005315630451381329 0.0
0.002896785388059885 -0.0003387762737922297 0.0
0.0018723503755841732 -0.0002633669314030448 0.0
0.002392520951439318 -0.0007385621695206154 0.0
0.001498324171481423 -0.0006157085810503159 0.0
0.0015728175951597544 -0.00037003080704457324 0.0
0.0036063803847636616 -4.087932296495918e-5 0.0
0.0008288564527014634 -0.00024092488474329363 0.0
0.002780294109315931 -0.00019735351982894377 0.0
0.0018464448790372946 -0.00017006531496863703 0.0
0.0024180226062995767 -0.0004151722797977941 0.0
0.0034596256793114045 -0.00011275774929807753 0.0
0.0002948952424289748 -0.00013861602884011027 0.0
0.0028047975661134273 -0.0004992259633774318 0.0
0.002099359645683592 -3.0810718344818116e-5 0.0
0.0020805432539943106 -4.994192668121341e-5 0.0
0.0023163808108797807 -0.0007139783251810947 0.0
0.002131495640379336 -0.0005432223104416519 0.0
0.002193395319546517 -0.0007091383695952211 0.0
0.002851435752301453 -0.0005858840970812772 0.0
0.0028481039503263465 -5.170487531587188e-5 0.0
0.0018310820545935705 2.650812350257524e-5 0.0
0.0025705096119609237 0.00017850135959130776 0.0
0.0033532250304184816 -0.000309668674338951 0.0
0.0033682159010494537 -0.000278992911874119 0.0
0.001841164160153219 -9.543791083362848e-5 0.0
0.0012465691393722363 -0.0005970330290304605 0.0
0.002512551661218692 0.0001552732773370569 0.0
0.0018385817719487627 -9.404583064000332e-6 0.0
0.0024447698050654217 -0.0005171909532007347 0.0
0.0037753493626154697 -9.350781773696634e-5 0.0
0.0006356565075490561 -0.0004529700676215271 0.0
0.0023533478779151013 -0.0002531487131509115 0.0
0.0018443421571428668 -5.1587621950042845e-5 0.0
0.001839940881238574 -8.196640780386765e-5 0.0
0.000652493164955981 -3.556652309838242e-6 0.0
0.003392986255497976 0.0001265419944535051 0.0
0.0019880994116754404 -0.0001778580660626346 0.0
0.0034664625663020604 -0.0002321870683710367 0.0
0.0012004163160811753 -0.0005704779992816656 0.0
0.0029652492212762544 -0.0006746163998344799 0.0
0.0030446129123539137 -0.0006446818737863306 0.0
0.0010877738415887434 -0.0005875808937725546 0.0
0.0025351793494078107 -0.0005340526126552576 0.0
0.0016525110062201006 -0.0008848724655762518 0.0
0.002414246685067584 -0.000153888713803398 0.0
0.0006903723092624931 -0.0005782189406151042 0.0
0.002006366100591443 -7.445739820042886e-5 0.0
0.0020888057544220587 -0.00023622387309874714 0.0
0.002044841714247354 -0.00010106324752981937 0.0
0.0022337711252879504 -0.0005369530043947977 0.0
0.0027133035094798596 -0.0005238331772511968 0.0
9.188562161861755e-5 -0.00010568763793438198 0.0
0.000158640544533249 -0.00017708661913239446 0.0
0.00019044881029825988 -0.00020914632785685493 0.0
0.003606661756965478 -0.0002865187812954054 0.0
0.00025674497428044077 -0.0002737671716205479 0.0
0.001114972548130136 -0.0005474833082031917 0.0
0.0005009166255204689 6.53177776111726e-5 0.0
0.0032345533786994267 -0.0005461572967700621 0.0
0.0005828170493196248 -0.0005144655144936634 0.0
0.000655502739023369 -0.0005586817982510021 0.0
0.003569752260695305 -0.0003154061608121288 0.0
0.003496352655260073 -0.00037464925873305853 0.0
0.0020720485588092566 -0.0002996379223887535 0.0
0.001503846462861666 -0.0007517556546568431 0.0
0.0028350765368870667 -8.691624792110234e-5 0.0
0.0033100291948669203 -0.0004987819220728296 0.0
0.003347830912059417 -0.0004759925463953998 0.0
0.0005130562392290667 -0.00047333043355645056 0.0
0.00035418906030087734 -0.00035465202760406596 0.0
0.003423234285953218 -0.0004256654369712223 0.0
0.0034528149984672804 -0.00037305241693602945 0.0
0.0023215045986175677 -0.0008488002122818309 0.0
0.0004214702427837876 -0.0004079524454299975 0.0
0.002833219106935269 -0.0007400236216801939 0.0
0.0007239507712329892 -0.00045862731276712256 0.0
0.0032047469102901836 -0.0003852509202485447 0.0
0.0011118120691653232 -0.0007258895042990571 0.0
0.002986620185195821 -0.0005261034993529719 0.0
0.003037126575371792 -7.201228127293752e-5 0.0
0.0010934196587145935 -0.00039319693628768194 0.0
0.0007337474839147535 -0.00036648795433856475 0.0
0.0014163923741079725 -0.0006339932059643255 0.0
0.001882074545461485 -0.0005281603325087177 0.0
0.003216528931230855 -0.00022003869655645047 0.0
0.002008739402005975 -0.0008247657149316066 0.0
0.0020396493590965855 -0.00018551911875110176 0.0
0.0020179478874633493 -4.495568005326173e-5 0.0
0.0025931526589880655 -0.00037912180186838436 0.0
0.002990953065630883 -0.00044404829293854875 0.0
0.0010569267908092854 6.897380079313663e-5 0.0
0.0024345959193218807 0.00013130158584491092 0.0
0.0011910178173946406 -0.0003862824881442625 0.0
0.00324792171648658 -0.0003171192351022039 0.0
0.0007622248427422023 0.00011851240266094004 0.0
0.0006484751703697514 8.964070437384864e-5 0.0
0.001647898187595109 -0.00011721401859181393 0.0
0.003381607408035088 -0.00014028605511516717 0.0
0.0017932262014689123 9.743526048379432e-5 0.0
0.001979709928171323 -0.00022646025458036276 0.0
0.003577669947264954 -0.0001302731275800763 0.0
0.0010018059361424825 -0.00039777846080544317 0.0
0.0012331610482183746 -0.00024877926435666614 0.0
0.0027873711212849984 -0.0003675105784267721 0.0
0.003081062933535035 -0.00041436819091058354 0.0
0.0008686113597711902 -0.00039958039131191247 0.0
0.0005051489421775304 -0.0003465591393846551 0.0
0.002953775291379965 -0.00044105242753262166 0.0
0.0012577960074525052 -0.00015831452033266026 0.0
0.0029289914620972126 -0.00025208838683885005 0.0
0.003838372084178102 -4.830794875592642e-5 0.0
0.0031897137494731466 -0.00010875868509871985 0.0
0.0020482708856371123 1.9273219080211912e-5 0.0
0.002115853271851445 1.4358141318034701e-5 0.0
0.0024022496644983734 -0.00030933979055215857 0.0
0.003500931935340632 -2.776887909185496e-5 0.0
0.003441042518344574 5.864303247098859e-6 0.0
0.00015392538564865465 -0.00011801992616596306 0.0
0.00011453046797258362 -8.66235418344247e-5 0.0
0.0015447011522205373 -0.000740704547219817 0.0
0.0025025356879742385 -0.0004940793524290546 0.0
0.0014029833628149814 -0.0002636342603716513 0.0
0.0014015414458651604 -0.0002405455457654207 0.0
0.0013800392366539898 -9.915551820007223e-5 0.0
0.0019690315924593103 -0.000696415063126201 0.0
0.0022942542017030908 -0.00027110612431751604 0.0
0.0006141958403160011 -0.00010920704629832768 0.0
0.0026959403255271764 -0.0002060629022728431 0.0
0.0020756539335811184 6.115389125251035e-5 0.0
0.0016352075121502335 -0.0004695196545164417 0.0
6.664049422616494e-5 -7.67972719549197e-6 0.0
0.0018845477865209043 -0.0004981871602342425 0.0
0.00355828163102628 -0.0001510130884327385 0.0
0.003039634685421869 -0.0002542695376433269 0.0
0.0028833039156801053 -0.0001893106477702782 0.0
0.003408390703175619 -0.00019939463620186586 0.0
0.0024814364413522816 -0.00021720502029675678 0.0
0.0013564828450475578 -2.7406464274650488e-5 0.0
0.0004453495070608376 -0.00016726903971757428 0.0
0.0016850485946423896 -0.00023640076680223114 0.0
0.0021199340922608938 -0.0003101782736101456 0.0
0.0005551883003732472 -0.0002967610753296727 0.0
0.0017830035394537896 -0.0009001443367507235 0.0
0.0023997511691507736 -0.0002150572190610756 0.0
0.0011612236969091383 -0.0005759704246645177 0.0
0.0025906450245295897 0.00014948765579151488 0.0
0.0032678321763809134 -0.00021673328135942476 0.0
0.001249764041651125 -0.0001335586870682119 0.0
0.002855244193079337 0.0001713255409474969 0.0
0.002190173401524235 -0.000254975962712892 0.0
0.0018873368160748285 -0.00046931398692489284 0.0
0.0006897096437330545 -0.00013390633959441426 0.0
0.0012891048551002251 -0.0002733985655601615 0.0
0.0016581329744097518 0.0001663072034206875 0.0
0.0005189936019768695 8.531244250634218e-5 0.0
0.0028829529752240745 -0.00036998995802104117 0.0
0.0007595412431238335 -0.00028538898122158513 0.0
0.0019396091202678264 -0.00045695492667674747 0.0
0.0032193668447935476 7.902932945177027e-5 0.0
0.0027381171781098263 -0.00036414530112239 0.0
0.0012831075387473403 0.00012255292741112666 0.0
0.0002331393777581534 -6.493870834454614e-5 0.0
0.0009835165468065439 -0.00023731801198973088 0.0
8.802206966217351e-5 7.854083085838626e-6 0.0
0.0001836312035836917 3.786782151660735e-6 0.0
0.002722819798038734 -0.00033628425972470334 0.0
0.0022461865059044133 -3.938961735702067e-5 0.0
0.0012668014605629052 -0.0008082594577869975 0.0
0.0008854563349374493 -0.0005247063625434924 0.0
0.0031882847584610865 -0.00017124728685466214 0.0
0.0004356319883970857 -0.00039635722025831296 0.0
0.002639907825424437 -0.0003867015674351112 0.0
0.002200616498928406 -0.0006741694821131876 0.0
0.0031613284443848303 0.00012198267065208742 0.0
0.0011370034230221693 -0.0006831187370583951 0.0
0.00344390422805345 -0.00033084562744691747 0.0
0.0019822616206116523 -0.00021035479796437952 0.0
0.0006302835931301655 -0.0005166172139548299 0.0
0.002663389169915549 -0.0007658002390493168 0.0
0.0006418668904277416 -0.00033347774727515234 0.0
0.0036534864473751604 -0.0001413385923717716 0.0
0.0004588177670879034 -0.00023394137188006785 0.0
0.002699881070812139 -1.3101723433498552e-6 0.0
0.0024851582676551146 -0.00019251220088914396 0.0
0.002019708302304422 -1.434163500767499e-5 0.0
9.00556252115376e-5 1.2004300269001714e-5 0.0
0.001488963786878378 0.00019776088502789472 0.0
0.001053461285176433 -0.00014783212465182147 0.0
0.003076669721094324 -0.0005946482857735331 0.0
0.003119194725618183 -0.0006122326811996359 0.0
0.00029284451250045256 -1.0622368723839152e-5 0.0
0.0022511413511711403 -0.00024169905690433853 0.0
0.000924147461661147 -0.0005250598606136564 0.0
0.0015884298467468822 -0.0005074841509415748 0.0
9.57010007115852e-5 -8.256002397968786e-5 0.0
0.00021700754621794093 -3.757271642857591e-5 0.0
0.00216341959454318 -0.0003431326547549628 0.0
0.001991999698540606 -0.00044307243050924607 0.0
0.00014160143751722656 -2.0922208395857446e-5 0.0
0.0003803292706709356 -0.0001372092608684899 0.0
0.00028901804842115423 -0.0003016578730510252 0.0
0.003225550544585521 -0.00034941928016601323 0.0
0.0025476959017368644 -0.0005021620262940489 0.0
0.0004570600101875161 -0.00031315353874658097 0.0
0.0029951896849086204 -5.20159965540498e-5 0.0
0.0027525000680478045 -7.30844973208444e-5 0.0
0.00020395555022580778 -0.0002092238604842645 0.0
0.0016005156343761942 -0.00015944982875552044 0.0
2.514370110452806e-5 -2.8844758521894018e-5 0.0
0.0038734976896971714 -2.837102795072549e-5 0.0
0.003762525442734383 -5.934962396170844e-5 0.0
0.0011487791654944857 -0.000772978738479537 0.0
0.003004043249161749 2.9445262474472963e-5 0.0
0.0025515975367572177 -0.0006059398034192631 0.0
0.0005084172441905505 -0.000242154558112852 0.0
0.0024208391717866 -0.0008681310350900586 0.0
0.0005503521230924102 -0.000132870818549 0.0
0.003368837306626797 -0.0001626176948718231 0.0
0.0015388105691215446 -0.000515739863492023 0.0
0.00014437461526368975 -0.00010254090121082568 0.0
0.0017832010615046233 -5.76335072540203e-5 0.0
0.0017818210153050839 -7.373232516151903e-5 0.0
0.0035368578347931665 6.854791123691778e-5 0.0
0.0021845852155071926 -0.0005241492401021699 0.0
0.00028015245179814765 1.5192337786653359e-5 0.0
0.003409627884249358 -0.0004092328306280894 0.0
0.003572193777701706 -0.00010050151765100899 0.0
0.0027306809086242224 5.858610290745161e-5 0.0
0.002802134648955641 2.9098003585651434e-5 0.0
0.0016674918277210244 -0.0007780010471508043 0.0
0.0037945061736695497 -0.00011545010659353775 0.0
0.001647147105475651 -0.0001350639252687519 0.0
0.0003515134582371657 0.00010421552866181702 0.0
0.0004464102300544704 -0.00034138208887401166 0.0
0.0011512207470976295 0.00015665323096065114 0.0
0.003415155170163789 -0.0003312245839765296 0.0
0.0001982657830471963 3.1311313648681455e-5 0.0
0.0020383970218802202 -0.0001690556442150793 0.0
0.0030529533333057677 -0.0002240613401332006 0.0
0.002455768312209199 -0.0003195763217096794 0.0
0.0038147273812867387 -4.391052915926134e-5 0.0
8.78675677112123e-5 -4.453579543259404e-5 0.0
0.0035869392042985476 -2.5526102577776882e-5 0.0
0.0038266756333971714 -4.316954452892712e-5 0.0
0.0018808871432003753 -0.0008708825814798116 0.0
0.002225874861485468 -0.000330278877050434 0.0
0.0012725504867901528 0.00021216575398899412 0.0
0.0009160970111523833 -0.00039832338311757414 0.0
0.0012128990921260855 -0.000216518459249286 0.0
0.0015912999041130136 -0.00017704855015456417 0.0
0.0007731111195452262 9.839503259618244e-5 0.0
0.001411591877302909 -0.0006000801156584787 0.0
0.0007007471487863454 -0.00010638410610863234 0.0
0.00046009496607240407 0.0001059132222446378 0.0
0.0018099028572783169 -0.00029401146556651487 0.0
0.0027663619316229794 -0.0004957914900073045 0.0
0.0032809377989545586 -0.00031777322873064107 0.0
0.0012925738575435503 -3.21971320085095e-5 0.0
0.0008696289180956552 0.00017792599674055536 0.0
0.0021007296381944183 8.928128823157045e-5 0.0
0.0011227425945909977 -0.00014379211769420487 0.0
0.003110410128381321 -0.00033064336982990036 0.0
0.0010755403196979242 0.00021365805026045444 0.0
0.0009677760184922315 0.00020941155185721344 0.0
0.0021391670242651268 -0.0004800391401736457 0.0
0.0021602793902843935 0.00014358102166150272 0.0
0.0015211166951463158 -0.0008643048232355575 0.0
0.0029176884964242115 -0.0007043950432524378 0.0
0.0010425133067756332 -0.00036926382990775937 0.0
0.0027122502824485323 -0.0007862178095300664 0.0
0.0008377641778985436 -0.00013859918746781627 0.0
0.0031655609989837525 -0.0003228571291287267 0.0
0.0014887528391005894 -0.0004954031259017917 0.0
0.0033600687358733765 -0.00020812452598560773 0.0
0.000919126604763659 -0.00037211238345878563 0.0
0.0015511435109939963 0.00019167562035155323 0.0
0.0013749093585735176 -7.55611789504684e-5 0.0
0.0017370235938128653 -0.0006581876508828427 0.0
0.001840477104714573 -0.00021707872074067268 0.0
0.00178056335600575 -8.889210878450631e-5 0.0
0.0010671832865605812 -0.0005171281252442811 0.0
0.001079780147637403 -0.0005532521960969706 0.0
0.000696284189481362 -0.0002567421187080922 0.0
0.0009455744759424965 0.000282367871725334 0.0
0.001799502419196621 -0.000761469397211134 0.0
0.0033938160998604077 7.420009837578284e-5 0.0
0.0030455989824778366 -0.0004122822554081472 0.0
0.0021230966083158596 3.605997599096793e-5 0.0
0.000996634746250996 -0.00037177081334733143 0.0
0.0026719867002814876 -0.00029639962995223147 0.0
0.0022513553014417973 -0.0006534562005907302 0.0
0.0014862453475266019 -0.00046570046487989634 0.0
0.0036153940512822134 -0.0001225126032013836 0.0
0.003792756747903018 -7.413983454372589e-5 0.0
0.0013426501481336053 -0.00024752177121882925 0.0
0.0025724562862889542 -0.000794791204753581 0.0
0.0034927718422769847 -0.00035217805018144936 0.0
0.0001738835401554392 -4.564162865287074e-5 0.0
0.0009250118425748644 -0.00024008362503024047 0.0
0.001092373246926532 -0.00036715584334783176 0.0
0.0035574356218656096 -0.0003037366485398933 0.0
0.0014051489943792432 -0.0005657651506795161 0.0
0.002433831996055826 0.00015005063825027228 0.0
0.00036882830383060073 -0.00034702723736634356 0.0
0.0022501818250130826 -0.0003922716580330883 0.0
0.0032692145785467447 -0.00028749956663471255 0.0
0.002603065496518967 -0.00047769467127715444 0.0
0.0036770317391013755 -0.00011724559538587184 0.0
0.002629363254605382 -0.0007204950652143367 0.0
6.806561602584987e-5 -3.688921781919312e-6 0.0
0.0017220852752425923 -0.00028304729107702205 0.0
6.62532029424694e-5 -4.650038175288781e-5 0.0
0.0012164302210115787 0.00010587657424040833 0.0
0.0008134492400040355 -2.5219804939130765e-5 0.0
5.685485151560935e-5 -6.026374595900389e-5 0.0
0.0009896552025146915 -0.0007189637155976715 0.0
0.0009152056637546481 -0.0006573371808799878 0.0
0.0016521252242572917 -0.0001013761778273296 0.0
0.0016548432074592085 1.5365315264123648e-5 0.0
0.0006668432408064421 -0.0005389285261387894 0.0
0.001186016507310267 -0.0001395261438280382 0.0
0.0022945407416400322 -0.0002523620455406156 0.0
0.0006802777618417536 -0.00033503900465057433 0.0
0.002546239118647352 0.00017603139505478302 0.0
0.0023063373109599053 -0.0006313347187334596 0.0
0.0004987043286809672 -0.0001342531828393226 0.0
0.0002855110352129213 -0.0002494162488330334 0.0
0.0019885386169065152 -0.00014674053958264278 0.0
0.000132212900202979 -0.00014019279317369526 0.0
0.003719837752925504 -4.0262026858169024e-5 0.0
0.0013099516419666048 6.241566187067839e-5 0.0
0.001821195927523886 -0.0002708340399419188 0.0
0.003368549286647459 -0.00036818358114096105 0.0
0.003676122028797803 -0.0002272942970537624 0.0
0.0030662821575859456 -0.0001936563226665083 0.0
0.001793999356636791 -0.0007263644845054981 0.0
0.0023379420060416407 -0.0003714008791177594 0.0
0.003292795774099376 -0.00048318825135664964 0.0
0.0019613447894504562 -0.0009132813365739075 0.0
0.003225737559617666 -0.0002917037824674501 0.0
0.0026151840412779676 -0.00044694331083961695 0.0
0.0013568872768833463 -0.0005418459236902371 0.0
0.002303794564371288 0.0001573449180853052 0.0
0.0014330245275286332 -0.00044099009425005686 0.0
0.0011990940114176918 -0.0007169444657762213 0.0
0.0017911581509347655 -0.00022282202434974693 0.0
0.0030124740440367745 -0.0006256946597797925 0.0
0.0006896044036385793 -0.00023256611499513957 0.0
0.0005565794442396547 -0.00047766566107231945 0.0
0.0027991141022064695 8.382938257694021e-5 0.0
0.0008730616448313256 -0.00026617450437825416 0.0
0.0022368745066445803 0.00015336361937641203 0.0
0.001186431582692179 0.0004199424743208575 0.0
0.0028846586195670626 0.00021057896683313238 0.0
0.0033529776421739113 -0.00018757000611047578 0.0
0.0018561142606556696 -3.855556190269175e-5 0.0
0.0029947217811854693 -0.00022544242412382185 0.0
0.0023612409499063495 -0.0006868052161815513 0.0
0.002496784517716919 -0.0008541634785818369 0.0
0.0011434867111321679 -0.0003629109692742483 0.0
0.0011592479555394867 0.0002216936245153303 0.0
0.000756739497556776 -0.0002369983358346289 0.0
0.0008386232507865065 -0.000657147752648196 0.0
0.0016909667270675727 -0.0003128311643579053 0.0
8.931596614696924e-5 -4.045033936368928e-5 0.0
0.0006435548537047565 -0.0004938321024986905 0.0
0.0018495592487700653 -0.00012140617462793845 0.0
0.00022218410206429733 -0.0001533900259847103 0.0
0.00022463203010325875 -4.077573434458185e-6 0.0
0.0020332485553104514 -0.0004319879981459807 0.0
0.002039616095556901 -0.00015385837136755836 0.0
0.003630326875097001 -0.0002468437215792278 0.0
0.0015907986364463733 -0.00014208923898766397 0.0
0.0027856832204418724 -0.0004632014251347992 0.0
0.002056963289883471 -8.039739700743288e-5 0.0
0.000529756127754261 9.957112790382837e-5 0.0
0.0006965182736013877 7.75334295961018e-5 0.0
0.0037331662542791923 -8.567456332682183e-5 0.0
0.0023696873629791247 0.00015340926537557253 0.0
0.0005602341928945915 -0.0002487705574743613 0.0
0.002348432580464606 -0.00016300570525303566 0.0
0.001775745402256439 -1.8489338075715127e-5 0.0
0.0020215255557408545 -0.00021776448781528587 0.0
0.0006530732287293681 0.00018203726274400206 0.0
0.0020449348778593486 -0.000917125083667213 0.0
0.00354490423088779 -5.617538510808449e-5 0.0
0.0019999860443793943 -0.00036091820717274207 0.0
0.001986812014188374 -0.0001028527822675126 0.0
0.002528204387197245 -0.00027296248729101816 0.0
0.0017179622251922303 -9.615057627172762e-5 0.0
0.0020093929703776142 -0.0003349934925877572 0.0
0.0009693064538236204 -0.0005602855257597827 0.0
0.002672329589897808 -0.00042234285740547044 0.0
0.0015873596021784445 -0.00025043403627505957 0.0
0.0019854289643106847 -0.00013248646073698222 0.0
0.0031526852809932457 -0.0005985564802104476 0.0
0.0016949081209251743 -0.00021746428826123238 0.0
0.002368643410106132 -0.00012099896907183697 0.0
0.0020664119537738956 -6.590031942050066e-5 0.0
0.0002996232727237934 -0.00029541875818903286 0.0
0.0030623385339762508 -0.0003854439796460652 0.0
0.0020523302301131505 -0.00011923380867822844 0.0
0.001134653944337473 -0.000714525282794098 0.0
0.0022355517633891077 0.0001572453456660436 0.0
0.0027957583176110904 -0.0007609643288782952 0.0
0.003743707492513867 6.891692612543364e-5 0.0
0.00017031832348837428 8.580946661894459e-5 0.0
0.0016488857054639033 -0.00032314341879458003 0.0
0.002198242553322032 -0.0008724469440059886 0.0
0.001382679712350806 -0.000805868111258905 0.0
0.001572836243118977 -0.0008746774985416919 0.0
0.0002930664957642729 -0.00012510778180318047 0.0
0.002836453590090543 -0.0004408305066281269 0.0
0.001149279983058014 -0.0003365249390431472 0.0
0.0016370557968667335 -0.00022528733525691897 0.0
0.0012978954782685878 -5.518649847609155e-5 0.0
0.0016290265808917442 -0.0008560018457040476 0.0
0.0027958961146175992 0.00017918297797342108 0.0
0.0035796832099291307 7.967742675171414e-5 0.0
0.002362285879351981 -0.0006584804134404049 0.0
0.0019933793666022134 -0.00038918409355314493 0.0
0.001276393377880737 -0.000534944087051344 0.0
0.002129535453359469 -0.0009156650666266496 0.0
0.0029575473956312054 -0.0003756499890343623 0.0
0.0002566371372589002 -0.0001531211483923289 0.0
0.0034933165455551998 -0.00011645399973779708 0.0
0.0017180838018745752 -0.000865858309063312 0.0
0.0017603160682734813 -0.0007780537773827807 0.0
0.0026761536542991527 -0.0006861086813442626 0.0
0.0038454208666579247 -5.275831263372667e-5 0.0
0.0014644126706324543 -0.0008255546328687149 0.0
0.001223798178770038 -3.477430074202389e-5 0.0
0.001295181683052604 -0.00025412722986798444 0.0
0.0025121411658842285 -0.0003030692523323547 0.0
0.003741105572046486 -4.3679950101248076e-5 0.0
0.00031128739868883367 -0.00026008211543142106 0.0
0.0020163089608030127 -0.0003124203418586305 0.0
0.003463113851938746 -0.000336308472220656 0.0
0.0037270080809006655 4.80963218048943e-6 0.0
0.0010940359237402023 -0.00020560133353275618 0.0
0.0017586758591871332 -0.0008742185045803538 0.0
0.0036283889194079185 -0.00010721429336791089 0.0
0.0006670589048946524 -0.00046390857056013626 0.0
0.0037951747080750293 -3.018131648341605e-5 0.0
0.001231021282009641 -0.0008042238185780674 0.0
0.002684305816534038 -0.0003917706185146999 0.0
0.0007342471274463462 1.1699840265031873e-5 0.0
0.0024285387567464906 -0.0001248771085458027 0.0
0.003761334226912477 -0.0001329973380797523 0.0
0.003012813732584802 -0.0003496440632657626 0.0
0.0010803998300635532 -0.0007246875607837822 0.0
0.0007652373383535827 -0.0006231457691187806 0.0
0.0009686113855668635 -0.0005105850645277039 0.0
0.0032287049412351803 -0.0005218390045726547 0.0
0.0029394317663821033 -0.00022834413119230437 0.0
0.0006086310024570322 -0.00025741006254557854 0.0
0.0015600338242264878 -0.00030921546284201786 0.0
0.002507727371178892 -0.0003336711794372184 0.0
0.0015061258411870428 -0.0003634681376596413 0.0
0.0036586888514511294 3.4231857337926975e-5 0.0
0.0026807472372635233 -0.00018307365674595982 0.0
0.0015795349538477639 -0.00023298572317439177 0.0
0.0006250427122283026 -0.00022780511456338184 0.0
0.0028664206388732813 -0.0003954496134540337 0.0
0.002394528291870967 -0.0008059344152470401 0.0
0.003374698263006595 -0.00043761555249586143 0.0
0.001318109751407003 -0.0007917309866021325 0.0
0.0024824470713403564 0.00011975459220920353 0.0
0.001436611157402368 -0.0004120861680672984 0.0
0.0022788294702906185 -0.000864825848399926 0.0
0.003338880101196107 -0.000370188197245708 0.0
0.00291395358009291 -6.0668804602523316e-5 0.0
0.003659362188121873 -1.3566660123796167e-6 0.0
0.0008743086054016477 0.0001895420683524459 0.0
0.0035585112848747756 -1.5580609242956967e-5 0.0
0.001259010877733259 -0.0004909816187476309 0.0
0.003287900411793717 8.461545998868431e-5 0.0
0.0022979185368871857 -2.438390019445223e-5 0.0
0.0026995610371859506 -0.000130040675794156 0.0
0.0011824026101886398 -0.00030187414265933263 0.0
0.002742849525282041 -0.00021980291031391833 0.0
0.0018438348617147331 -0.0008791392848422228 0.0
0.0010103325316473016 -0.000679366066604417 0.0
0.002085166302898264 -0.00016088806265577088 0.0
0.0029025708464166296 3.819945486145249e-5 0.0
0.0017294124241072127 -0.000819332331131743 0.0
6.268589759623856e-5 -4.020930606875527e-5 0.0
0.0037610312841265554 -5.482854228686347e-5 0.0
0.003275347984928443 -0.0001206940147742233 0.0
0.001583508885233474 3.556207102667555e-5 0.0
0.0038114809314110155 -6.551779740943223e-5 0.0
0.0010577996461880723 0.0001585524840094403 0.0
0.0017781626843900104 1.3831369542480095e-6 0.0
0.0038718211693299608 -3.3127455170338855e-5 0.0
2.6259943978569446e-5 -3.2363078090401545e-5 0.0
9.304621102015974e-5 -7.463398970061724e-5 0.0
0.0011180506905838123 -0.000122649686671462 0.0
0.002374995685297882 -0.0003822634634807606 0.0
0.0026995036290144757 9.360167006025464e-5 0.0
0.0030171699600050157 -0.0005918825735252852 0.0
0.0037735594974579612 -6.53504694915718e-5 0.0
0.00028538000066876784 -0.00017549913548350028 0.0
0.0008126695523344597 2.0356538008722272e-5 0.0
0.0024109432061052726 -0.0007660437291406852 0.0
0.0033896277341141524 -0.00012216431697603656 0.0
0.000999859933045881 -0.0005088146586306358 0.0
0.0002205739552885726 4.171927760808154e-5 0.0
0.002404007329949882 -0.00017254236525947745 0.0
0.0011640403995342122 -4.0133545283747256e-5 0.0
0.0028579948912479947 0.00017342048260130582 0.0
0.0018070936186405536 -0.00011785312195190616 0.0
0.001493380191675099 -0.00038549567478083176 0.0
0.0034413606599512777 7.82773854804204e-5 0.0
0.0035228589232638567 -0.00033611944078996005 0.0
0.002902415801960687 -0.0006826173035926888 0.0
0.0008796672801600245 -0.0002449238533488256 0.0
0.0035909288968004566 -0.00010366119889277583 0.0
0.0005960946447696801 -0.000307119231993475 0.0
0.003623585762313439 -4.832967818491561e-5 0.0
0.0032591313961809654 -0.0005102728229764768 0.0
0.0023241039506226168 9.287869073073526e-5 0.0
0.002697236545883597 -0.0007644323970171544 0.0
0.0028152929893720895 0.00016064977887380512 0.0
0.0017894997957947545 -0.00018482398814057607 0.0
0.0010005254321948736 -0.0006439813524317244 0.0
0.0013722502920664986 0.00020475644856532988 0.0
9.167860714970233e-5 -4.7578520901460485e-7 0.0
0.0037264846489546964 -6.504017815458538e-5 0.0
0.000397971810606255 -0.0003746153362740461 0.0
0.002862363064764268 0.00010135877033609237 0.0
0.000697202125029099 -0.0005599771894915863 0.0
0.0026880846742045996 -0.00036709574020208247 0.0
0.0007976148103091813 5.7384544614319616e-5 0.0
0.0003362220649222124 -0.00018910627394561378 0.0
0.0004861926267417396 -0.00046048684029477546 0.0
0.00043846469592969485 -0.00031771436588436727 0.0
0.0011592736144178445 0.0002542235563474487 0.0
0.003039872440103412 9.263511380614323e-6 0.0
4.8206315891011325e-5 -4.776456454777894e-5 0.0
0.0032502211147178452 -0.00010715466576597264 0.0
0.002934552705674432 0.00018577617426054902 0.0
0.0024334123161504875 -0.0003641708592885605 0.0
0.001809812554697724 -0.00014540953307196113 0.0
0.001025254509285057 -8.998782489655935e-5 0.0
0.0018537489589302253 -0.0002009624606246684 0.0
0.002465747714716939 -0.0006982566188770073 0.0
0.001194604937482918 -0.00033670618473529915 0.0
0.0008901761722563585 -0.0006560530740845955 0.0
0.0033283381406429453 -0.0002902654042124165 0.0
0.0025315671398201643 0.000179335134721056 0.0
0.0004007330175804272 8.643306696196348e-5 0.0
0.0011468342543767033 0.00010425371722665775 0.0
0.0026129072713127217 -0.0002755295586166846 0.0
0.0024518763011587793 -0.0008325326983705584 0.0
0.0015553883243647887 -0.000330665116418997 0.0
0.003110558536740864 -0.0005915159807278183 0.0
0.00023554118516508628 -0.0002420718109627002 0.0
0.0027185164857356004 -0.0006573426367138151 0.0
0.0012898672641612353 -9.413482913896118e-6 0.0
0.0036587247553295814 -0.00022633738511703254 0.0
0.0012399883361790772 7.935564339602721e-5 0.0
0.00238793254304194 -8.829503910492327e-5 0.0
0.002049065603423576 -0.00041428296405577865 0.0
0.0017829393138481184 1.9449264607579476e-5 0.0
0.002123477933052378 -5.7392550654895056e-5 0.0
0.002365846336049678 -0.0008461805865732718 0.0
0.003043154433071652 -0.0006165313599305065 0.0
0.0009628365111629735 -0.00037701812005116 0.0
0.0021773658054120865 0.00011562177532211282 0.0
0.00212459238096675 5.523022917086556e-5 0.0
0.003031977374792906 -0.0005509920246315764 0.0
0.0017971770393539225 -0.00016894215252859316 0.0
0.0017234927689878065 9.175854270063305e-5 0.0
0.0009941623124595093 -0.0006110048384158439 0.0
0.0036348019376095993 -0.00022664939086580025 0.0
0.0025558808963047313 -0.0008381991348627207 0.0
0.001733500531918485 -0.0007951678571455774 0.0
0.003758655550098898 1.7172892263654496e-5 0.0
0.0017092794401860282 -0.0007046213272889192 0.0
0.0028619811680419575 0.00015571470816553372 0.0
0.0010306373151790155 -0.0001867849850698152 0.0
0.0025375915353925502 7.238564172067923e-5 0.0
0.000748223741073179 -9.928605583043764e-6 0.0
0.0016260532443611582 -7.560745844116815e-5 0.0
0.001087813383803438 0.0003354284867738076 0.0
0.00382537270534122 -4.126192353823299e-5 0.0
0.0023786466780283083 -0.0006346383657880387 0.0
SCALARS damage float 1
LOOKUP_TABLE damage
0.34544178286178323
0.10650812171715265
0.42440026184720103
0.13179449428527815
0.9674371265198674
0.9781699204616651
0.027863519359433604
0.5182541159041651
0.5113495203219874
0.5159311090521969
0.5399220685603252
0.5603201339492252
0.5884723761819743
0.6160553620127098
0.6336272129142482
0.6479815066870771
0.6447093221638747
0.6391364764843794
0.6254881387700003
0.6053111664015752
0.5855844010422506
0.5727102936454732
0.5508760063212759
0.5268804743419806
0.5106664912731458
0.48845229463423717
0.45881373287389626
0.43174120905151536
0.3942219972724574
0.3560826163525776
0.3084527842991825
0.2534250020296704
0.09058076463151174
0.16861913150618854
0.1862459109091905
0.21298253137824338
0.2313851475488112
0.2452859880193705
0.2610389737002349
0.2724730162473432
0.28431532068787685
0.296136186277341
0.30550302815939206
0.3162881306640604
0.32735751926515494
0.334939578908087
0.342732287104448
0.3522020576250608
0.36287780244293866
0.37532097556890487
0.382670378801403
0.392396661616021
0.40180139553828476
0.41492337036426635
0.41966938327584824
0.435114254263218
0.4417646912058937
0.45580227500380044
0.4650705607352025
0.4815331514649894
0.4859672703030583
0.50364457205221
0.5147124465514626
0.530118586007799
0.5408271968858716
0.5564337940288042
0.5648868143515856
0.5776031011777665
0.5940037662855611
0.6117908966702944
0.63316672357419
0.6490034927458691
0.6657951557190128
0.6919108849352116
0.7078489945165158
0.7288224668052457
0.7534223588570074
0.7679908261931923
0.7941964800099585
0.811831570045941
0.8318624327644696
0.8547850908939343
0.872416791190292
0.8795863718249968
0.9056229443146689
0.9154708022805674
0.9413141737554227
0.9413623383160012
0.9523953174836284
0.9485931565174758
0.9387306272082894
0.9221052024900928
0.9036294343881912
0.8820660753487043
0.8634100402808527
0.8381439715314741
0.8244958874619579
0.8037346394310652
0.7769900500818154
0.75909225056638
0.7405876265334149
0.7302101980567056
0.7074895237223893
0.7014185939228513
0.6853587309167708
0.6718813873880637
0.6615547617596389
0.6419661411886752
0.6354968826808497
0.6234023111307213
0.6111953878511087
0.5952742713231595
0.595498837465026
0.5745995000918425
0.5681425509234447
0.5529412046527964
0.5426313917095009
0.5328900405990773
0.5170580088414687
0.5058252425342322
0.4967118725991847
0.4825945890671039
0.46541238045141115
0.4474995888515778
0.4348209988025572
0.4174968007069507
0.40177393212127804
0.36234908704978114
0.3302916451201135
0.3144610251707886
0.20038297500144034
0.263275666949549
0.3363774213224171
0.41679762979333884
0.46137004711021484
0.4863562907166084
0.5047596294097543
0.5178527491712763
0.5268096101501157
0.533657063829737
0.5436981021986116
0.5505485146117145
0.5571642230935279
0.5635845326248659
0.5695422861394022
0.5716270494707093
0.5694409688503117
0.5633559841677835
0.5580064302205632
0.5409693747845461
0.5340977319283853
0.5240886225218981
0.5160505814185675
0.5248909688775512
0.5401568919960542
0.6203253261167065
0.4930297916461801
0.842988630299957
1.0024144514347002
0.9918338804800938
0.9844999808826336
0.9367960035912104
0.8088670502293761
0.7135486077360439
0.6067209397085519
0.518348742257272
0.42892848873806194
0.3682202972761115
0.2952861421808166
0.22483652069583163
0.1560666181514808
0.1235217392343379
0.0157323146220655
0.06258803127862163
0.11622896964820537
0.1837311021999377
0.26264035925637247
0.3618612504241366
0.47211727586406854
0.6066293586202723
0.7503125320861281
0.902369588355029
1.009367896932429
0.9976875902702332
1.0032291375294264
0.9506694046159967
0.8329139171539679
0.5793015565914245
0.49622890121813523
0.7371252034333562
0.5921389880220375
0.8561576705381999
0.7156516506109775
0.9413992483875487
0.8372071058902381
0.6554293408649503
0.4302139456943036
0.599321900765104
0.38015333927696854
0.6029505966560267
0.5655086661385968
0.39152354732185096
0.4134037753886638
0.04235554659433264
0.22348165142700174
0.5386826218350729
0.33434689940125406
0.5396090865584062
0.54324786082727
0.5476037392890951
0.6277792245749223
0.48783626366203714
0.2890632462641105
0.6483743225950133
0.4696780252714017
0.48072828104448007
0.5121548333039501
0.6541315803766815
0.779283504030839
0.9152838521437535
0.8837620651160427
0.8049757828752605
0.690903267652413
0.552562143856775
0.46120678446608515
0.435747906230352
0.2511783109973429
0.5146071946346656
0.5931526233678391
0.46418787508140436
0.3816044461835829
0.7994092595415484
0.7334908602382552
0.5148444417436973
0.525646397947639
0.5758842042542266
0.5609549030802209
0.33455776091989803
0.11441957546838215
0.19993833064427932
0.36730194169347485
0.761611166237239
0.9198047463965654
0.6198591371390617
0.5213653247914555
0.9406087664680349
0.6298387417867585
0.40999481324043063
0.5739648425276954
0.3593051876293285
0.31171404408177694
0.5113184207889923
0.7636811901517412
0.7760843230315791
0.3848748389828606
0.29761120663773644
0.9765510632320482
0.9551329402515298
0.4675596958176206
0.565658865582548
0.1565870490334785
0.30327061767801516
0.9518200894124945
0.7435964243193243
0.5936703968534436
0.6069504196349196
0.7016852915766378
0.5815170605078692
0.538977146896002
0.5185353217251812
0.4971129260406686
0.48051009176939025
0.49096974886514083
0.4680161151503294
0.47631343912002383
0.46192659837327976
0.47089386066853167
0.47015953682538436
0.30566215024696597
0.12132281361783492
0.2646627920287352
0.1522631611382587
0.2555859034080995
0.19199216526539606
0.2609391250795325
0.22160295418356593
0.2706620381648669
0.24179604445872077
0.27626312435209366
0.2611035380449632
0.29111937902335583
0.2756101990817016
0.3001395986984192
0.28994500318325445
0.3095213611959374
0.2995775928808364
0.3166718557719416
0.31010547753878037
0.3244070844975594
0.3206538015043342
0.33185532968936565
0.32976293397071066
0.3415367710328679
0.3408323086123877
0.35054361885618757
0.34893077158441144
0.3584194848160052
0.35596352924871316
0.3661792931544313
0.3670854825047533
0.3755994621984636
0.3769516071034507
0.38432914727261264
0.38583846044876274
0.3932771885161361
0.3958864977091377
0.21103948643500695
0.40301194546061153
0.2972835249453054
0.3627481976024582
0.4057623962679356
0.4132292537300522
0.4162768919093543
0.4089177205018291
0.419573842221824
0.42383278142392694
0.4209218733877004
0.37442670281679696
0.43198835484064024
0.4288796516877117
0.43956845394560207
0.4121512972751285
0.4231583253678142
0.43646153438219354
0.4159794078562881
0.4270018913712602
0.44877611059040096
0.4460602507978394
0.420844295367035
0.4317527997247584
0.45870991452055615
0.4564285491386315
0.42512149300134805
0.43560773663849467
0.46965987010474847
0.46756822877327414
0.4282384041117772
0.4396532614558945
0.48121418149317663
0.47922097978222916
0.43162076334150634
0.4448359194945938
0.43600230062839335
0.42417526001307576
0.4834388364662625
0.49330392665797856
0.4907876574150837
0.47619209393062056
0.3369627806613785
0.48880005379555574
0.47365073180304357
0.4865467251737133
0.44929357196789416
0.4412312929499353
0.4551670931326662
0.5058736019822084
0.45181281612574153
0.4432215166825189
0.31893783466998926
0.45329661617376676
0.4450466695441325
0.45454146422968594
0.44611829423933064
0.43712205857932696
0.43759582006219394
0.43112296811430045
0.4553090066312681
0.4343715571534175
0.42632465243093204
0.464845687173839
0.46447571923017256
0.42904287121319856
0.4230596068208417
0.47387029804007713
0.4863765615820996
0.47405790684419524
0.4721610603347588
0.47493333060439263
0.4887122627415793
0.5013634800417852
0.5022740310749274
0.5195007929123601
0.5176211297245138
0.5354039799389974
0.5314727467827081
0.5508239613985122
0.516939697289682
0.544764429068619
0.5665726790029522
0.4828442427946427
0.42647168039913896
0.42144193250875917
0.5728992651127023
0.5895707321202001
0.58076282843889
0.6008479784811505
0.48056638434793153
0.6049710503179616
0.5934783334643386
0.4917557565948492
0.4897605097452662
0.47896389119506994
0.6183580236195434
0.6056194689401881
0.5022805695175951
0.5051762141955364
0.4868683444396832
0.47556968284973733
0.6276019559209524
0.6153311295684581
0.5893390979563395
0.6414089139525041
0.5968998825618961
0.5755397035465366
0.4252449173680601
0.4224321643378541
0.41607033664349574
0.4222622486120261
0.41180181468861676
0.4196995829444596
0.40774918928152243
0.5162110294881805
0.5189806330893313
0.4824190323388236
0.47152768267109324
0.621113531246767
0.4211940955180525
0.4078054318065192
0.5304391857796061
0.5334417205877996
0.4412068462940177
0.6030554913854148
0.335641840996652
0.7032990670667908
0.332094853722038
0.4780964931584549
0.4238535814995209
0.409563084827215
0.4790801461574055
0.46864838196362957
0.5451644752274888
0.5493458081877146
0.6268719870962439
0.4288608844693021
0.42973407862862545
0.43373608327751273
0.6053428288929685
0.4323146664249973
0.4143571568592335
0.5411733099714152
0.4739681722683352
0.463416814058904
0.4648079370634541
0.4713475563871378
0.457773729245495
0.4690876905431217
0.5613521137571282
0.5652825370047272
0.41350834482273213
0.43940169158476144
0.4294523722645085
0.630084487672213
0.6474523821593295
0.46129522331477224
0.4447716482049138
0.6109087435393482
0.5872022246352037
0.47558664701955244
0.485874997723692
0.5789101936899524
0.5823825975966483
0.5681246941407034
0.5856034833163146
0.570329180203632
0.5880432192232213
0.5717027260066769
0.5890307345654436
0.5715175132790825
0.5886649324840973
0.6074767435068003
0.6072229660150935
0.627365673020867
0.6267041676265762
0.6481310049525258
0.6469487854538722
0.5704636535201038
0.6241281284920601
0.6440508866533207
0.668762009780152
0.6654772248905108
0.4322149366701399
0.4318156675151166
0.46883195225086444
0.4586940929468002
0.639650304235888
0.6604757282345767
0.6884040203186124
0.6827945502780133
0.43618961043734267
0.43372024375373736
0.45592179785884396
0.4712651701481018
0.45929868918576944
0.63368146110083
0.6137589351571462
0.5974915414934617
0.3909779060044474
0.4521457146211145
0.7128646277478872
0.7063984444227125
0.6757656259898319
0.6994299765534219
0.4338156333390778
0.48005307241687284
0.4908238176103494
0.46182173666613724
0.463245294428482
0.4533855174108776
0.4669383014547784
0.7308135218256909
0.7239477815796064
0.6906380917604076
0.7164804490386335
0.6826303752122088
0.7068794905736139
0.7419875593061773
0.7310718776368592
0.4867765190470189
0.43856115764830195
0.4343650925681098
0.5938578869900485
0.637463758012929
0.6188072835129778
0.7630383438244899
0.7542517366693866
0.4674764537722995
0.45884861597403204
0.44816329925695764
0.4111908167778305
0.4649780653322887
0.6130809026192486
0.4876882543618861
0.45440889491200737
0.6419555769103119
0.6177885923753591
0.5892571620689533
0.4961298472676659
0.6537631325802821
0.4453182631594242
0.4651380383046577
0.497514434419525
0.4852478045009302
0.6741930776891238
0.4512030538048497
0.44126982409456544
0.44057204186163457
0.4346552687281527
0.46245624201644286
0.7857544432684892
0.7713341952995658
0.43857004582968423
0.432559341777433
0.7959602608491317
0.6077039064821312
0.4338895711481042
0.42553004132301614
0.5554928154381847
0.5895165710899488
0.5633473032469208
0.6178103888144441
0.8012689025238445
0.7860388423712901
0.6516325387204103
0.643717266425577
0.6278099566436282
0.7577194817728229
0.7697135508130664
0.4432788543475802
0.4343253193074864
0.7947461974952836
0.7770421288249156
0.4259152629063243
0.41756989414165463
0.5209135565699913
0.5124304193753297
0.41814385195960385
0.41068910202585707
0.4082113781451295
0.40151837418057834
0.5886629158977558
0.6153286857225546
0.4693609052604336
0.4862341436396916
0.4455265244234071
0.6222898360968919
0.7990044185826551
0.7813595553414774
0.47982094966229294
0.7425354137888803
0.647618902999012
0.40493589972402133
0.3965995112330148
0.39291466719365625
0.38713000321764374
0.39215106127385124
0.3830343890114167
0.3905362826408575
0.3816359810606024
0.3934649042810775
0.38413934077153894
0.3993740642285724
0.37158635232517634
0.3781830540390747
0.44423258940332294
0.4555070348632728
0.35612151390359026
0.3643582460838617
0.4545784057037345
0.42278794229768313
0.6228622775906317
0.6158139124075136
0.4313078552143609
0.6430123148753332
0.6476017722035338
0.6357926143356393
0.6086110942327111
0.587546109890911
0.6082154734323733
0.6240915858632133
0.4728477975716803
0.503952178572665
0.6020681461210838
0.6153379947336967
0.5964183829437385
0.3819509430137566
0.5435323584736693
0.5430967511332865
0.4347504243889464
0.800109229079232
0.7827525127832373
0.7652698082599645
0.7680340515317345
0.45530116200803483
0.4750557595614091
0.5215497098544024
0.8152338269647449
0.46713093257036237
0.7817035208257843
0.7677463985780121
0.7513183840960652
0.7526272617031402
0.7359110042203924
0.7379468236143805
0.7503939072107257
0.7364196755589567
0.34632464666149476
0.3501606522817529
0.37587658691663084
0.6625351363697091
0.6702643436426159
0.6081168122527233
0.5895293190048777
0.6095819554489235
0.5963591741051081
0.4822593184201874
0.4887966149875639
0.5018615569985048
0.4938819530967053
0.3428725790534874
0.4745278300520399
0.4439997305193969
0.6191222667870558
0.40166124371623557
0.45630282488118706
0.7446184778089554
0.7323530031255174
0.47951543020292775
0.4711266240416167
0.44832233207576255
0.42977846367382255
0.45815745258410145
0.4715589104441216
0.3886957664559873
0.7777840372305808
0.5096729963696975
0.7175803453089147
0.5118339501066428
0.33153311019550225
0.3382025433083535
0.4357219623348545
0.628163005743421
0.601327268459358
0.6270574456311946
0.48526565975178654
0.4794744001910119
0.4906809393210917
0.4877442718517916
0.4795017485986415
0.4871540744446563
0.49608274148410986
0.49378163193405383
0.5047788074897797
0.5067713652019524
0.5136636686240963
0.5151706151634878
0.5235443286353477
0.5226662536759873
0.5214689025732016
0.5287744017298194
0.5305018489176051
0.48280342189105885
0.430773854594745
0.42733142293164866
0.43718263623021003
0.5364010731549544
0.535547333640982
0.5346800677954379
0.7439077106791443
0.7475395176346945
0.7748144670722883
0.7775582466497685
0.8051074357137802
0.8065823871670048
0.7779738798477497
0.8050624845155434
0.7752915171565903
0.1051344945233783
0.8348807337380507
0.8329451849526301
0.43540601058421463
0.5545475218367182
0.5526666187913651
0.537849402288148
0.5351739187261572
0.5214370718395739
0.5182769319980338
0.5316146752759381
0.5143368932384177
0.5280063847856545
0.5092232560031295
0.5225468860136996
0.4976006512010785
0.5053789404007745
0.5087960129267078
0.541276630181692
0.5359982699672802
0.4285529202188655
0.3785804914708064
0.25521151531986475
0.6342082238141431
0.5562809016504345
0.5511567233567419
0.3255960357239615
0.35145878747563314
0.732027686568294
0.5025222686116834
0.5941118896011552
0.5823715023367951
0.39244114663710544
0.6005376323633285
0.5822448418996717
0.3167544082589198
0.7990596985679942
0.7683696562946751
0.5716056686119241
0.5655387169105307
0.554757040469825
0.5497972331898409
0.5595573619710502
0.5440301871038514
0.5542609265863777
0.5383059193050616
0.3792386306270451
0.5320097466672614
0.5789553526716558
0.5842063604699276
0.46418253497060813
0.45557334629774465
0.5262017925866525
0.5106907841305836
0.6856398195999457
0.691847596703519
0.8112526516097915
0.3995025677083978
0.4546581439295108
0.5349083493897222
0.5941883211835444
0.7163496395855775
0.5711045088977732
0.7225005160130664
0.7183254942862286
0.7232501367281241
0.7100141802337511
0.4047960829758358
0.3879836190972146
0.5045806634960098
0.5084452791464672
0.6550651057651012
0.43914979029483686
0.4477040444267794
0.8259935795822474
0.5396103846981242
0.5960362786796486
0.6028669707388825
0.5733227017085756
0.562707591626716
0.5650868092078578
0.4212171791908317
0.3144394486644355
0.32376502005444174
0.3538365326529968
0.5061235945526452
0.5087039167422672
0.5079648510623836
0.5211549575934609
0.5381523943716595
0.5385791204832328
0.5929048981458442
0.48263554638881195
0.5160215596407693
0.51061781651345
0.48546841550853154
0.49691213859901345
0.4950222515704357
0.7441603417305019
0.5296286029867254
0.5231691820742408
0.5319851588741019
0.5177222514666878
0.7069123986276118
0.7006154513181871
0.6997749768185841
0.6886268212621107
0.5823175136897905
0.5757681348062677
0.8621051601830911
0.858366713695182
0.49329635282229045
0.4969471463912105
0.6744879738858663
0.5242757179869787
0.5104296835840372
0.6337627378671434
0.6299226859537885
0.6447870165773693
0.6357333091773256
0.7097849392042851
0.3113468926647236
0.4059635739406094
0.4140303046982612
0.4786189944093179
0.4934528306656218
0.48253480089981443
0.5092431851059394
0.4971456649679977
0.5248415356279216
0.5127213924729368
0.6109097480733253
0.5092618824353439
0.71038250334807
0.8305088476937627
0.8412873820620921
0.8448647531717459
0.7919643657310961
0.5628065404666209
0.6821810170878314
0.5475428089746264
0.5373705433486453
0.4188598046170152
0.5713831762402181
0.6154547909072784
0.6089632511255176
0.8295112797945156
0.7618881563472619
0.4305997391129302
0.5351928912973883
0.5379439739415606
0.535905139765928
0.5349239859499699
0.6506932961812063
0.7567913112580308
0.5775083795233011
0.6049122433172412
0.46117746053131714
0.6205215754599267
0.7281898540778687
0.7139054977934102
0.5567209422913661
0.5653489572486697
0.4498423336266976
0.4593416859907999
0.5410063015097243
0.5292135416002834
0.4999232081174033
0.5159213924749216
0.5444326029915693
0.530942441745293
0.5569653001089329
0.5433968730051683
0.566051400397209
0.2989150171200343
0.5844476558181528
0.30993283935685856
0.4299098082799489
0.5272838670025355
0.5681865636509116
0.5235960960785028
0.6052648462077692
0.5510559527734035
0.37663418372215235
0.3686916601699261
0.5397182294112032
0.8196576185338058
0.610707136517195
0.6715199984740603
0.5333619875256018
0.5109030952118173
0.4986295174059741
0.5120480000986126
0.37464187010736094
0.5007068281555161
0.46170706111789295
0.8857178203988509
0.8807109363628471
0.8540398118089043
0.8752248749431824
0.7271968990639414
0.699697999174527
0.5200443705219921
0.5268436440555414
0.6236868048605984
0.6535257155818375
0.41961606986093347
0.5168179457065102
0.5033790719774455
0.4361176729803668
0.69172324057494
0.5672145795196575
0.4973152698852044
0.8984881236661976
0.8911202753165294
0.5635621910907767
0.5679074658912129
0.5464256529393514
0.41882563216626784
0.4096207852151932
0.28080256779960944
0.8458316070609528
0.5215092911395544
0.7843261427772206
0.4340850938876171
0.43395127716821186
0.3839128005007122
0.6793435983819034
0.4371618863994739
0.4305327701744138
0.43637084925006675
0.430587192915474
0.4348641633465394
0.42528465408664745
0.8562854675481294
0.8584916229524351
0.523047482246946
0.8145642400096641
0.6696474997586394
0.6674600695215496
0.4603065920278387
0.48630610366783483
0.4643764325761576
0.5641678178535973
0.5487668117239527
0.4886060959555686
0.4700451611172666
0.46764191134209965
0.47212467164737154
0.4514967404299305
0.49859527330184905
0.5835680959016067
0.6096135057935579
0.5528486828588758
0.886674534087205
0.6043965256301487
0.5235183024336759
0.5093729457066445
0.3849526449842031
0.5073790834270512
0.558203659887936
0.5545098187829252
0.41888767627349394
0.36513858229963586
0.3571255677298676
0.36233190676684557
0.42143974994571914
0.29327644975491995
0.33128800206743897
0.9096132888515469
0.897700634898697
0.876959176059294
0.6938674058403258
0.6944763548770626
0.6685654382229791
0.4263918613415027
0.4223601374832023
0.5710023514776286
0.5382976507181453
0.5358174702410848
0.523780042533926
0.5123315122743494
0.2779183628658546
0.4380496825042227
0.4204626370411289
0.4114610516296829
0.3938823925455844
0.3932679003626996
0.39938835839148096
0.591799413859456
0.4827142262297961
0.4784289624753082
0.35389760489449273
0.3452851963951944
0.47370045064806543
0.47843119467615036
0.4902353531535856
0.49216993959731015
0.484467140986055
0.7569170975340956
0.7364223692865879
0.777750642680859
0.49392538596994573
0.44706918949399954
0.4756624507429758
0.5880133041245222
0.868874617078394
0.5261499300760886
0.6570773351627369
0.41064248597632325
0.3937194433698281
0.4086094232558828
0.3979668820874928
0.41098631103403754
0.4046456390761809
0.4173001573978122
0.4131747749582689
0.4255637769301445
0.38505397237488875
0.40192084453322824
0.8452806170824363
0.5115544185281463
0.5445891576052488
0.5305017834961999
0.5808126455684574
0.49082981883745735
0.37628306701720654
0.5448091588347089
0.5224197936114809
0.33015194866989117
0.350729136369038
0.49558219356387406
0.5517666569806537
0.5556460897499217
0.513016850322715
0.4997971936819302
0.3979324152485169
0.26037479769359667
0.49571948526189424
0.4747014294038089
0.27688035716334486
0.6862348438272579
0.6721450483634934
0.6847685966244521
0.6587720055499814
0.41130826094477735
0.5315623508643901
0.39157963244472765
0.5526773451028273
0.531926696132495
0.47089451954220113
0.4625653384432211
0.6231815015350137
0.7552234856999812
0.7432568133389079
0.7533775100388167
0.7369243906742086
0.7431538446608852
0.76282060272178
0.7912660317055156
0.8441459911960657
0.511441299389263
0.7206233521964654
0.5151931925531317
0.47581811442621114
0.4710645727859224
0.7299146433176184
0.7191216326960543
0.714368115158095
0.6323512134023818
0.6444439274417553
0.6650950887220879
0.6858030314607327
0.4965035379176876
0.642579271174432
0.8232771959200272
0.6812455902965718
0.6654633865286058
0.6529488484326602
0.6675903761040852
0.4760872932811189
0.5699279342020663
0.5622978772399031
0.5779627626406594
0.571511006316854
0.6713786367105465
0.4308553378069494
0.4117433547668022
0.533685140942746
0.5589411018894224
0.5742638189086551
0.8723073354191745
0.878929788383273
0.5974764128243488
0.5045577055539224
0.4111741685346395
0.6552779711848243
0.6456582771005912
0.5127442282958756
0.49227289772947946
0.6440217274952758
0.6964204180956395
0.7013018694630433
0.638825834162901
0.6587473670217164
0.5771139915006303
0.9182111811973653
0.5202917037270679
0.5395369935294183
0.5675996458537009
0.6269333522613499
0.9070492194072682
0.47915545045967745
0.5252019304133716
0.4250426927006822
0.5014959269206584
0.7298738530299199
0.4293852809865012
0.6242834909327278
0.7703429818235132
0.751122660513438
0.7729933759947853
0.720253492699729
0.5487156238381389
0.46880401620654427
0.6824943597753113
0.520056058356079
0.5152218015117608
0.5109549494243272
0.4837075597854116
0.4649867006950792
0.4769677555443289
0.581078541811143
0.5634076360240576
0.6745368671456403
0.41183679581933497
0.41875188484119863
0.41527044220629633
0.6772287316467669
0.6173336077041832
0.5835039610280788
0.5442745197459489
0.5318292574922845
0.5710396759225403
0.5729432701978681
0.5788802416702648
0.5360366551734358
0.529394187014426
0.5299729254297414
0.5177097859015389
0.5262805448176527
0.5165620245232897
0.6457761134240967
0.5073703121164761
0.5207070416937701
0.9119698941910944
0.5909895684328208
0.5685263270356612
0.5611392439259938
0.5528456452861559
0.5658339398298332
0.5555485150796884
0.5559720738871922
0.4400757546737969
0.4385941702436578
0.4336422543641703
0.43648407791357835
0.4421146872152506
0.43778022064695804
0.4442541112141846
0.5114117946467523
0.44049270574459914
0.4462723965755995
0.5743566785238476
0.4564054946499412
0.4516087933527912
0.433206741293374
0.6801381480312393
0.6941544963488997
0.7565930730762528
0.7758738754538325
0.6120429879256318
0.4027267466462864
0.3790183217300148
0.31643842947448086
0.35013656478077404
0.380117159153288
0.3295312141796786
0.347062312630889
0.28682857101569303
0.3127114647105042
0.265172415237382
0.3004200634564364
0.27096985686714015
0.2992046835172984
0.28188457254398047
0.3033960073748335
0.2961802995367399
0.3124866295962059
0.30897692891190515
0.3237331283314148
0.3231151896007792
0.33589151629094227
0.33714984386699576
0.3486255395153402
0.35062662518094206
0.3611941695502461
0.35923678600604075
0.3710828420886159
0.3655457722656601
0.32877111974005113
0.3408838116607978
0.31216896566132457
0.3667620168899639
0.27751022574090156
0.3702897920720534
0.38074082361036826
0.38323082331922914
0.39182592011856027
0.32274687736644697
0.24162357468014006
0.35956682615858965
0.25482142921837936
0.39525719772440315
0.40287034088290774
0.39946076242120643
0.3715123024324424
0.3644708399748556
0.3872810334757746
0.3998587939155531
0.3929433954804867
0.2913339190886493
0.2332548532902931
0.40959984864663423
0.40696924872287193
0.3982188518410888
0.4056413740981845
0.9066754524032944
0.8836879393799096
0.5251770758359786
0.8128977766103838
0.8391132027174439
0.5354632713007166
0.5496815048855571
0.46463838770763466
0.5551320918217525
0.413610312705468
0.4895904340316637
0.4862166355358926
0.491132503401287
0.5336631430070732
0.42008385074006416
0.5258080714502453
0.5260246702689774
0.41004998144983507
0.3840142571544003
0.4184650130784019
0.37391640640193147
0.4480104541872748
0.42938597884738533
0.43753351426566167
0.4337045268140196
0.46619428621457704
0.47599621183740476
0.4621150961325237
0.47165046041658043
0.45754874832013837
0.4673619994116172
0.453478448479917
0.4628528487841367
0.4772845031521406
0.47110890205771233
0.527219034635095
0.5137272228653498
0.5174580110224178
0.5011185038657556
0.4300814540129256
0.3421642973890896
0.3345627432676133
0.33726238924166024
0.3263156496774596
0.5761292277054133
0.5648557227069452
0.5872871010025815
0.44574503063817644
0.4014362194574181
0.3927774437556086
0.6790532564001334
0.5382344432497207
0.5130083581207587
0.5010122349119853
0.5069492269166966
0.4850422766742962
0.45597102945123574
0.4619997127318497
0.4323180221704312
0.43488862841434855
0.47288668614158375
0.5803030287593385
0.43542943521360106
0.3643243882374715
0.40488063745960684
0.5272662638421663
0.5499262853349547
0.6824470041743328
0.6841603018073322
0.6646792015143889
0.6014176784511677
0.6113064829891198
0.4747152186414326
0.23577061703624028
0.23583667032283226
0.4298098836774541
0.6150050891690128
0.6439628886817086
0.6904369249628224
0.7081966482837473
0.5852252089024353
0.6366050310503435
0.6498910335763167
0.6502319164831757
0.6331139112465237
0.6357211340717076
0.5369755320864688
0.5482795041238399
0.5538643856190969
0.5453098180220418
0.4241714143190786
0.5471237040056118
0.5455200193404739
0.8110868000361742
0.3217563677259857
0.3116393689217043
0.32063491178964454
0.3059610838409991
0.5009260426252701
0.5319254315075237
0.5392829336023075
0.6534836811884165
0.4725812679304208
0.6258426635321966
0.6092057962434525
0.6019953797770204
0.582456447472203
0.5811423599143151
0.5972739528315982
0.5740198902964361
0.7962000342128166
0.7906332267481813
0.7594207999746854
0.4191680349959695
0.435876536843485
0.405654467891824
0.40589117884431924
0.5792103561713102
0.5631687461086903
0.47274729775527785
0.5712370621789575
0.506959482170259
0.4902154349935023
0.49926395408873053
0.5138848305975476
0.6655437293266527
0.4025552858428466
0.40096854283823785
0.6954208362579913
0.8305923053215333
0.4411731321151157
0.42744079739186264
0.4581862870130352
0.6955178578942337
0.6656390114598162
0.7107101722861525
0.5664506080163612
0.6786984787307428
0.5027119973878306
0.41081214173592623
0.5324062935212661
0.5503517993664273
0.5625178776533779
0.42152496960295377
0.4116525161911507
0.6899704750986904
0.6806482536969489
0.25247997831835817
0.900601316558643
0.9088087250690527
0.6547838405588563
0.6657177524677118
0.6572065012403326
0.6775774033757951
0.6721720225315314
0.3499792907971289
0.3574459794692508
0.4660573742763263
0.581964536440126
0.49321889350067455
0.6578379326173122
0.6948440206861697
0.700528977343005
0.2978604814829141
0.28931443219789826
0.5314443948052892
0.4126913173607164
0.4082978778826397
0.6139854437473293
0.5234725224078652
0.49740711437143764
0.4216763540318718
0.8735725711490419
0.8897796383986574
0.4539670958774492
0.448279973936221
0.6658751966418902
0.6537635929550023
0.44892880910278476
0.44031157314103886
0.20895706801101155
0.9306902682323767
0.4477864276007614
0.37961832995617434
0.38410606215716564
0.44576567886909135
0.4420299565110701
0.3980436295378188
0.38656701590626996
0.3921116374020988
0.3815460110379666
0.3871236219462113
0.3757477099749762
0.3700703468167167
0.36411568842265374
0.3575871962035517
0.35275739614643636
0.3835157189353517
0.599213371127532
0.44832120547640536
0.46067998684305905
0.29664252034710364
0.19810141392402092
0.18922747599790532
0.248954451820698
0.23554332678133544
0.20178782095671915
0.17320100295096838
0.1651710774294935
0.428246478158969
0.4085644981904002
0.5223784585336904
0.49320530425606923
0.4906253401088001
0.7270305148890354
0.7408571838561967
0.48191372758907575
0.48643923469772815
0.4756783422121831
0.38942780226005214
0.14189681678157942
0.35928928513046005
0.34751874943661937
0.340315063415659
0.33592246509973184
0.3276603377924467
0.498275172180028
0.5104749671263276
0.1769169822675152
0.7081098944665265
0.6480430091103888
0.5500999157306738
0.4265203602760131
0.3766487033681617
0.36179887268980776
0.44279815106193904
0.5714149007525987
0.6477482259710949
0.627811646459212
0.484032346358956
0.6862717681485884
0.6995946137833596
0.7124671901316912
0.7283774724716424
0.49912474848634214
0.5280356937672078
0.5041413197727413
0.4849063110416484
0.4860718973314043
0.47478500802166884
0.7346795778221621
0.41413557254778877
0.3159293812229372
0.2590675764838475
0.25955817251055374
0.2785749891540186
0.2700287248699111
0.28733487391908663
0.24965964769424065
0.29780062347073327
0.3030393863181503
0.26523834915262584
0.5718473872376764
0.3114216991500949
0.5596466684685861
0.4123143097283125
0.7076714922368131
0.7124243971851922
0.23865126191482772
0.22701924097750514
0.5116712629499842
0.779833162229513
0.7859051715950054
0.7808347778246127
0.7952116102861695
0.7873869827829016
0.8071654809325511
0.515972241561204
0.5220364030013075
0.5271317251567114
0.5242406897799671
0.527811049154525
0.5199247987448644
0.5263740042599017
0.5165773155950829
0.5093087004985282
0.5333855940170322
0.5066662728197118
0.5359277129848599
0.5278193190418198
0.5384014358703562
0.5174095387710779
0.519104118110228
0.5448109370442081
0.5298718711637452
0.5390064199904181
0.35107969498822034
0.3126200345666319
0.40245388661155845
0.25744084753983065
0.2641703932817458
0.7225082050087622
0.5285138852941725
0.376163904977352
0.3612953172373998
0.3593072468892833
0.3651676779792622
0.38021514021993985
0.3717324783230947
0.37875102947726924
0.36857579383074585
0.29578903760652847
0.4891039159608657
0.4992521912666031
0.5201085368287374
0.5570042830227765
0.5293972446978774
0.5582999739423388
0.4515881392051504
0.3282669262169155
0.331030261014504
0.34525260284744425
0.35650251072658146
0.3703562408798336
0.32696786649341647
0.605839599316479
0.430557973503132
0.4300575531621167
0.2015026595045643
0.6103985704459439
0.807310565586815
0.43600819384243994
0.44186447946580787
0.5163214107204886
0.5048332536825272
0.7583746545672857
0.5628854230404726
0.5457127666483288
0.5470750332475525
0.5389515472886524
0.5401882753141221
0.5297647082743163
0.5275910625550878
0.5353971768786909
0.5183046170359842
0.5334525472854396
0.5267035278246931
0.5506099243419843
0.5182330687001845
0.5608746924494976
0.7246851499818043
0.4494462300797871
0.500400446122862
0.4118323199140392
0.500273471730779
0.39676275282868473
0.3774694214542239
0.3908710812501189
0.37208876096741267
0.35275773508353325
0.3514696432417545
0.3669703607609984
0.40750441670615
0.44634719745915347
0.38931923466672336
0.6114658418720746
0.5389696531410383
0.6558994874904027
0.35310623266851565
0.6931489271735416
0.5949472070611438
0.6038810025859426
0.34369000273288614
0.4427945496510672
0.4781762733660715
0.47300502748705103
0.4670575341245927
0.449394375995704
0.34150366101109
0.8675187870497676
0.7641634327310997
0.88467950255178
0.2770273789336912
0.601555310824827
0.624912827425308
0.7113197982730828
0.7887393237810255
0.42842880020820684
0.4753579173158545
0.5836014401832392
0.37443656829821537
0.38101528055190304
0.37338692794544126
0.42750025903128863
0.3922167391380303
0.42994679298281524
0.37398527626337286
0.37927904463581424
0.544951723701861
0.5547087183131741
0.48369881035437057
0.5020528572155857
0.3710046609971434
0.5897715034037724
0.555302505432661
0.6720086002038484
0.4944408456700801
0.28523933869704193
0.5359351309012114
0.3248529366855367
0.6427709728251199
0.5445290281733894
0.49768683853375095
0.5064290761181751
0.4922398002733605
0.47904744209595973
0.4195120238735848
0.3659242871581045
0.4006236412295135
0.44758450433700436
0.445892292684062
0.5243885624205763
0.9050507564130499
0.8790843656775577
0.8918703203809641
0.870922818200871
0.8568266752663491
0.8439088255490851
0.8570610204404756
0.7499808337005717
0.48624639526396773
0.4558211793703538
0.4614670183252632
0.5343681940205727
0.6418292922433272
0.4872259661831137
0.5501855444270105
0.5524328304350535
0.5402314218834877
0.5400404557093356
0.5858641571860128
0.49040001232071867
0.4173399113303471
0.39212595702030034
0.5642071167314747
0.5480907296359692
0.4210822377998823
0.4621938290539714
0.45248797551651915
0.4411226488072737
0.43991984925375555
0.367133030385834
0.16170737513244765
0.8579807083379694
0.8458376159708826
0.8312184999783094
0.8574195436167447
0.5111849335251064
0.763820371312486
0.25946572766814585
0.29507420588099664
0.48997604025852526
0.4761930047587379
0.4914100442637546
0.43095641033241966
0.4190063204541123
0.371849919411487
0.47605996680990803
0.583718448643903
0.8728213713435
0.3943743751426595
0.39009132624216547
0.6056705920123442
0.762973670554007
0.6213706797776386
0.6389262729713218
0.5523570161963909
0.46230939602189497
0.4535268827576356
0.4438289441159066
0.4458409380060631
0.45264098311997303
0.4595016413592979
0.4311550881894046
0.8327398137888307
0.8190576838169529
0.8309827583035762
0.8458857824963132
0.8603647811586628
0.869263654220925
0.8282237065180698
0.8310149869655427
0.3490594978244818
0.43852207506326873
0.6627647523631441
0.9219817649089
0.5146651748745232
0.9047963676333859
0.9234814616694358
0.6655241132611321
0.5295430587676088
0.5156041161448973
0.5461134829523819
0.417276934684068
0.5303643806961675
0.7091764694241259
0.48485474810502466
0.48486813059383616
0.4965101505934059
0.47340070243659194
0.49456301197600877
0.48555169052117514
0.4747993346734501
0.4622844622419763
0.5130406059749065
0.5051164789387934
0.4962337657280624
0.6394747936740701
0.5760826672918138
0.5024800278835619
0.4383157912532714
0.3998619523208443
0.4635428718784691
0.441203988295509
0.44171982285719286
0.44973003841761366
0.8069666145487072
0.8362250809579316
0.8523600997051264
0.8229612889716902
0.722234842738004
0.40722944718325704
0.617460425105042
0.5756790175510489
0.833754579319617
0.6248895900993813
0.5080232394988826
0.49289132153201115
0.4223614030759467
0.558339022624773
0.5755958590257056
0.524998535282235
0.6196930534079176
0.6296907885843855
0.6375024605162755
0.6590018770348601
0.49283919946671867
0.6068730553423534
0.4969026777270341
0.4224507960718036
0.43275372176411253
0.3758257277576456
0.4973756992491977
0.83197219557325
0.37904232763294676
0.6925506217918985
0.6946626004309869
0.7213568173575379
0.6942796701980627
0.7190263044331684
0.7492763135071525
0.4709603877197912
0.5402384868071933
0.5388596185312058
0.5920831337634715
0.5219500617649372
0.9253405131631516
0.6011791791754338
0.6702092181857032
0.7679508270707055
0.4900400078711937
0.5269158674036003
0.6017888967393558
0.44232962410099896
0.08539938318130648
0.7971834795129782
0.4824854971010078
0.5285919379702573
0.5341624259310374
0.5053975496792744
0.5101122097956695
0.48397972207345313
0.4925217617139675
0.6908187855080111
0.4864978526308284
0.5488005594039547
0.584919428953911
0.5387457662954132
0.5668949070500402
0.6356945789847273
0.7522437839089093
0.41834676831473844
0.5748823067612688
0.5585566946749422
0.5367894305905411
0.5002328665331863
0.5708513361493717
0.43604265705957357
0.511542897513257
0.3805004286568622
0.40067934780768943
0.4405101910168196
0.570753441055998
0.5569701199925423
0.558241907845045
0.5494878166649928
0.6921801100590034
0.6377896425600963
0.411215687401323
0.4034402590534765
0.46943428189891473
0.5873882754994038
0.4443729903869146
0.5663500280242337
0.8023449779208637
0.5288681798907241
0.44413610921129226
0.4570774772963627
0.535633149831328
0.9246456588457342
0.4077437234912678
0.5219149532809239
0.5233742423970803
0.5458610521591799
0.7765443783930789
0.7503017405787608
0.7378675660353626
0.5018437839427202
0.9459291878121722
0.8953153180566032
0.7572511444573303
0.8215492692579992
0.7806763679826385
0.8131231886533015
0.6051817814149851
0.508803319503157
0.9301107137086855
0.6392016104086448
0.4488880233917191
0.5419883950235141
0.7112640224496393
0.7365810861828364
0.5079147406868222
0.5726811115836259
0.7376843808303045
0.47727737586701824
0.42429633759588004
0.5252775418548649
0.4915031119492806
0.32741638527148303
0.48192940476538737
0.6182680078180129
0.28139672865839566
0.2734446016917455
0.6340058531552891
0.561069178378058
0.6201823733050894
0.491425500965187
0.8613673303973526
0.416990098051517
0.3721711630801312
0.41446502692825676
0.5553222214833722
0.6264650357774635
0.51833976089263
0.14479717911734089
0.8146745392089437
0.7533810530803707
0.5028717501316546
0.6653669950638486
0.5241864589744876
0.648049151881245
0.6783900821499589
0.6392550824419021
0.4483979015867366
0.5156286992083596
0.9319215298447551
0.6243616370997513
0.6296148248823291
0.4279830950887141
0.8818157448530499
0.5887979642909067
0.4850911991810734
0.5323684135448838
0.4320909600805592
0.5032018839869354
0.3716185701825952
0.5895071521572791
0.5438746878057301
0.42974311954866445
0.7493432253125788
0.34827473153349725
0.34329957130817473
0.8669814431044927
0.6543131601118414
0.8289683988225699
0.7679307726682867
0.5205902562110127
0.1841753614953442
0.5255319382422501
0.658162676740682
0.6525547482751545
0.3197472935533326
0.5350406093449112
0.6731188495812946
0.2360840599394821
0.6970299132093446
0.49762574055447967
0.39550064798856643
0.46325396686772763
0.28359412678099793
0.3098278743057922
0.48678925445599724
0.5537843032427604
0.3835919517337858
0.6333238646806877
0.5205482900982384
0.6698495211942616
0.6420442181275271
0.5036021505432924
0.7409441440488742
0.7344416654501617
0.43065657939433627
0.39859591988848914
0.3308004897485859
0.4243613880458344
0.35238450525337567
0.6677220823058614
0.7602261400886917
0.18157841874295655
0.214723498747911
0.2372286639934806
0.45329069532275335
0.26326744182160106
0.5011016106530044
0.5493234049509313
0.585584114348065
0.36774840021145244
0.3904235169324036
0.47526297593091793
0.4981187692321001
0.46114177081148455
0.6386660172286706
0.5083113368047989
0.5648753513081212
0.5489424417477954
0.3474054400119453
0.30196777700640176
0.5285477390120261
0.5442494207351593
0.9199552018600923
0.3218351561840094
0.7113346393326745
0.4184876777365221
0.6893357082810359
0.5233149837465354
0.7342341886523072
0.5209108221732646
0.4651555658154653
0.42487345625508305
0.5782094041001309
0.6054822953289267
0.5805664535819592
0.8511786998552078
0.39175592300179535
0.3200415490584303
0.5948956314130726
0.7233177379055657
0.4324828232472212
0.6184085025099264
0.47122239777131153
0.6680197763868914
0.5052482848831126
0.5274058986425836
0.33320230926406863
0.5509630179011383
0.07531612793583987
0.41088410710757534
0.5401848889030061
0.4594107759822104
0.42780044985062565
0.632261049980007
0.7093851260250664
0.4445670891811916
0.37196165572490875
0.7205065296010956
0.39012632181267093
0.5597242051852175
0.4637193355445287
0.5340013042239289
0.32139153570595874
0.36902853223611715
0.5039187666661846
0.5182946585360954
0.5027635802512812
0.34232355153285265
0.36789196295811355
0.6470276679308963
0.6874967304561781
0.42937465674974323
0.41841792226916774
0.3477478586117032
0.7483406880655579
0.4662824178168341
0.4498112230503928
0.4911181586239408
0.37724232607065494
0.5400626360893933
0.6208271004812236
0.5845008298366449
0.5582226065840084
0.5808271062553796
0.5147794746298837
0.5865592599108753
0.461608123557427
0.322452981833508
0.43303779037563844
0.408865903243743
0.4718025008332335
0.40099133352230926
0.7973090699985688
0.4496548097912593
0.5147745829263157
0.7141920624004151
0.583211825429394
0.3805778748389599
0.48773266323578013
0.44415090620831493
0.5647157903856306
0.4384188639695761
0.43686850390885573
0.1601307692251858
0.5421489665278476
0.6541759472010774
0.4298935992140817
0.5604700433030941
0.47332905179488266
0.6194557302188721
0.39870997738802133
0.5019859090256967
0.43048448997025385
0.6264152431347041
0.5997342856313984
0.5849796224132986
0.40398134812025077
0.5736277337883798
0.455207515455697
0.5505608313427443
0.3307574745009164
0.6122462054456123
0.7973007756255446
0.46326740921776915
0.5276066045289393
0.5949750870301065
0.4005838014115425
0.385173984309494
0.7914770701871494
0.41208022533043076
0.5746982753691016
0.401592792145311
0.5392195189372793
0.452548564209803
0.30726219600330157
0.6127250484182076
0.2073148338420475
0.40638909693429437
0.6571245640723523
0.6129615051267583
0.556471551247742
0.44287593481161014
0.46290742786474287
0.5538781899290277
0.32174332494759644
0.5382630667311784
0.4980325504860759
0.5558012079721759
0.5753789733891002
0.4454637236783909
0.2782828362540788
0.6817313236636671
0.7091767428587481
0.36382484805451804
0.5203422173013682
0.5034365745409556
0.2467052956771746
0.3661786173515261
0.22406737747874172
0.31958183101905735
0.5175993628978153
0.5371462166343745
0.5074155221569
0.8115080370366539
0.40775206796520397
0.8802876661112181
0.44873673708631473
0.5580288099959768
0.5522342288282442
0.3770366348968986
0.2835675000791077
0.29886117196959655
0.48139417181992405
0.6465623426069209
0.5816417308390814
0.5561164282441932
0.5367494329042827
0.5428714889426337
0.5389612802173317
0.6967859300658698
0.32216085110217235
0.34604118569180675
0.5120295831793573
0.349789199411932
0.4343521347762623
0.6165466550420854
0.587716264887678
0.38323367981128126
0.5617186741076376
0.5185882081426679
0.5079442089348548
0.4977431129883541
0.5208375299779586
0.4927629897859833
0.8238338661695923
0.49604595475830077
0.3391974751458533
0.45072984119075366
0.4170998115890533
0.37474763590079246
0.5048083778412027
0.5657475857503577
0.4416400354073415
0.5217855880743036
0.4453187582103782
0.7445031197458422
0.6702678144492581
0.33860229022637267
0.4728181512346979
0.4603592231195857
0.39874176556297153
0.6617034732048447
0.4341138921879021
0.4713386616662868
0.599956477799469
0.33449357051236395
0.6743216900519027
0.682128694809267
0.4561119167957767
0.7526000620954767
0.42595436500687633
0.6637182036155208
0.5367054766056888
0.5885752229420871
0.4481454448914332
0.1647200298960765
0.3378308255920869
0.656299513259724
0.39864430416689584
0.3122801550634847
0.48875317678302743
0.49625254437443167
0.42712948945733376
0.7843165689762344
0.7348213792102569
0.4766803068408055
0.7110035876495048
0.392052389776223
0.45448509456136854
0.5424429651034599
0.7907402400699524
0.5237418991542554
0.538569180507807
0.4961168997163923
0.42399994194713425
0.831429793613406
0.5256808014508385
0.5251900850767703
0.43296554822486205
0.4596041119033984
0.5042541132833618
0.5535159594697976
0.6154445651450191
0.30835039493442784
0.5445928221917207
0.6516238635526593
0.6985268465902044
0.5500283392193142
0.8217688501292955
0.6335272695547687
0.4367274694949377
0.439448798628369
0.4022193446446332
0.44286518646035405
0.21230156266838385
0.48557938805891293
0.4657562650694629
0.3211616063494477
0.21802995701016928
0.3971244101613825
0.39065860244823913
0.45559578616263996
0.4180974564266368
0.6243855529579576
0.780483781235757
0.4477415781520038
0.29735721614857713
0.36613475500034626
0.21534897122979688
0.5429641418620489
0.3394042447017004
0.4321042156270893
0.6196551896725837
0.4164617054823879
0.5475558578097304
0.7125951195818565
0.5394808073600312
0.5922047484334748
0.866273692874978
0.6492904527491459
0.6681105433051248
0.5368744424038662
0.5846497433179677
0.5088272749312756
0.5524938311127949
0.40143032217567143
0.6781066468576531
0.42911108863658254
0.3643921423100078
0.5208523493265128
0.4343999510807637
0.6583553550956746
0.976481644944548
0.9839768077719196
0.5693964163815795
0.27588020381278
0.5524628473163332
0.8563518306190839
0.8369404323252827
0.46229150640446975
0.43995047957005357
0.43023571244183045
0.44016549636532754
0.4560128352014364
0.5115389988547843
0.3924787840414006
0.33848675503199843
0.36208101639701495
0.5809615411419136
0.5508737224572612
0.37526335167305963
0.4698332295163478
0.35236547141069013
0.7224282915952137
0.3460755516477483
0.5330694389719017
0.5154410816648999
0.5152935165047652
0.5896414380361366
0.41557393998415604
0.42273531603572834
0.2423876898866086
0.4075762502560673
0.5201480495177634
0.8996563828091898
0.5345630587078978
0.4975744216983546
0.34127002830021513
0.4992166553693624
0.3175404948621334
0.4801003461661193
0.47597476886006473
0.6576528818049652
0.41965082945041676
0.35861434431204037
0.6019317506793003
0.3978010661044002
0.420720212984019
0.3437927237454967
0.2849505630482851
0.6965350944658261
0.36107012153672824
0.5277783223456813
0.592977102521197
0.7207958293434764
0.5005876529840934
0.4553725291445109
0.4610567275491409
0.9354557707737047
0.6115182642189897
0.6955543069022713
0.4412299131065878
0.7131933428860548
0.4559768181107822
0.4032999021519532
0.34409893084349985
0.7144915415568084
0.520847684636931
0.5049145206891646
0.8304289710293989
0.5157060158671289
0.5234575873635947
0.937809289574009
0.6746779680720026
0.3901707774241175
0.5429898611748659
0.7597361622375028
0.7324503987052825
0.811807859810851
0.36712417833936983
0.6357030656979455
0.3548375351070128
0.42990810171499916
0.5163731114809842
0.5418729251087349
0.31068754390033926
0.4653676918873481
0.572746644809132
0.5302141669340142
0.42002018297748167
0.7739358238607386
0.5335687789881006
0.4061618673222229
0.542020665103217
0.5615142270214076
0.6311602800252709
0.4774030153486021
0.43057068315449143
0.4071186361299501
0.6649176521032112
0.5138566846400628
0.41842169693695935
0.47199524792336794
0.6063821472651174
0.5458801236559068
0.42046083950502866
0.4503039194366248
0.5363484674773045
0.4775812820677097
0.4946967857804517
0.48164874724149703
0.4076452458430202
0.4254441431234205
0.673947408041884
0.8955885707629689
0.5617068841870004
0.5955613815070833
0.5873400554869984
0.49682810900581176
0.9305527292970699
0.6371621550999079
0.5209590367416889
0.5205635387840846
0.4665212307488945
0.516795294085544
0.5073745015733063
0.4682694910703687
0.42767289435094247
0.48144270206237194
0.44741445206840175
0.5073543710847092
0.8160904425625881
0.4927722496612206
0.3838340154979768
0.5153133464762899
0.7366957392232198
0.4636581935840289
0.5238534592189131
0.5396165471766353
0.23143613870193983
0.4885620014977352
0.4477933794755768
0.21839359623130203
0.21469577458070363
0.1325741022354425
0.35963763066481125
0.3946601444704799
0.5545958306208488
0.5377111791729104
0.6926469887632208
0.5177280764455533
0.3793946051356282
0.46553962622067385
0.8851168728514714
0.5451911873563673
0.47562385795463447
0.5693541076170736
0.43330125829158145
0.3702188028432134
0.6060122918170684
0.3348574445129314
0.48849850952082446
0.469698149291144
0.508024014898187
0.7072408034468921
0.43295227037910566
0.5382894508724265
0.4094375796572906
0.5356355911018283
0.5926758043233215
0.6623833027501728
0.7756734897247095
0.7178913567270208
0.3777889235377233
0.49021249578033216
0.282672636468011
0.6312280440299873
0.5270414400818183
0.3166602169993514
0.497785408939425
0.4034602226038874
0.6077236545235948
0.48924674936035206
0.3916604231326507
0.33980116293983587
0.358566693397186
0.6485098988065789
0.5135663561049302
0.29136771385148785
0.5353107762382223
0.9229244186411892
0.5480310087410533
0.3509711816206692
0.40025131637274247
0.38996336201182696
0.857507266427484
0.45859844466771993
0.4580722942333378
0.6633646234114227
0.5852265152067261
0.5369408787892747
0.4304078169106943
0.5161777909210428
0.8789910059375162
0.45992777915890454
0.6421009269195064
0.258440404338603
0.8009432657747421
0.3329967993174223
0.45349513954917114
0.37974511125826016
0.4275185687138151
0.5405361933841716
0.19252419914891983
0.3614051832223706
0.9077972165260391
0.6667922615236904
0.4531820009047705
0.6603397013704178
0.4242800423200135
0.7062802945881478
0.3688900938930412
0.11451445418931588
0.48766066138835423
0.5034848526261628
0.8196806929247339
0.7330142468074147
0.5247242757540316
0.6776372428921672
0.9201768177981984
0.41789529424186816
0.6046299781841413
0.4641248483918166
0.3028434233300489
0.9127184642515673
0.5150811389339525
0.8097598343771758
CELL_DATA 4886
TENSORS stress float
-1.010910036293667e7 7.7315221278e6 0.0
7.7315221278e6 3.5449112650420815e7 0.0
0.0 0.0 0.0

-2.0542063577064097e7 1.245887732317239e7 0.0
1.245887732317239e7 8.126158821165079e6 0.0
0.0 0.0 0.0

-9.80726913926277e6 2.3829164996747352e7 0.0
2.3829164996747352e7 -8.744103828923026e6 0.0
0.0 0.0 0.0

-3.581315313996887e6 2.271251055607797e7 0.0
2.271251055607797e7 1.3531638904216515e7 0.0
0.0 0.0 0.0

-1.9010094385530844e6 2.6316426018265855e7 0.0
2.6316426018265855e7 -1.2613055632547317e6 0.0
0.0 0.0 0.0

1.6113572910763004e6 2.772361071894049e6 0.0
2.772361071894049e6 -4.268146425417197e6 0.0
0.0 0.0 0.0

6.024471277960781e7 2.839288006547557e7 0.0
2.839288006547557e7 1.5509565420711698e7 0.0
0.0 0.0 0.0

2.4729089775654227e6 3.0054522966572936e6 0.0
3.0054522966572936e6 -4.730442605874069e7 0.0
0.0 0.0 0.0

-9.791339672018584e6 9.588757660841396e6 0.0
9.588757660841396e6 3.686306796217399e7 0.0
0.0 0.0 0.0

1.5568628213581648e6 1.9711995908778902e7 0.0
1.9711995908778902e7 2.1934614193740837e7 0.0
0.0 0.0 0.0

-867470.804862811 2.132094030476049e7 0.0
2.132094030476049e7 -8.119031317179312e6 0.0
0.0 0.0 0.0

-216762.4742262736 3.1845491792905975e7 0.0
3.1845491792905975e7 -1.137753709379234e6 0.0
0.0 0.0 0.0

1.188145890194673e6 9.555353260614771e6 0.0
9.555353260614771e6 -4.332507635766693e7 0.0
0.0 0.0 0.0

8.62394003968901e7 3.1577233785688702e7 0.0
3.1577233785688702e7 1.6983965251037195e7 0.0
0.0 0.0 0.0

-589358.4508092094 2.1987260023545716e7 0.0
2.1987260023545716e7 -8.103940773282569e6 0.0
0.0 0.0 0.0

3.404475318977371e6 3.9836972266999907e6 0.0
3.9836972266999907e6 -1.7107819300129294e7 0.0
0.0 0.0 0.0

-3.5099636054761447e6 1.7979073150960796e7 0.0
1.7979073150960796e7 -2.2385939847318463e7 0.0
0.0 0.0 0.0

21307.89876629226 1.4348247876873722e7 0.0
1.4348247876873722e7 -2.985421498077368e7 0.0
0.0 0.0 0.0

-9.22704435504436e6 -1.8465864546948948e6 0.0
-1.8465864546948948e6 2.8242239302078646e7 0.0
0.0 0.0 0.0

-49117.03650093172 2.4663738143432148e7 0.0
2.4663738143432148e7 -7.353378261821864e6 0.0
0.0 0.0 0.0

2.22734254951007e6 1.1581883216713931e7 0.0
1.1581883216713931e7 -2.1345232761843525e7 0.0
0.0 0.0 0.0

1.0544445685993473e6 3.1502126390113145e7 0.0
3.1502126390113145e7 -1.1153778474793835e6 0.0
0.0 0.0 0.0

-1.0652353260909572e7 8.234451908019945e6 0.0
8.234451908019945e6 1.9032243390780997e7 0.0
0.0 0.0 0.0

-1.4717411553356528e7 2.4459868084590632e7 0.0
2.4459868084590632e7 -383789.4206682276 0.0
0.0 0.0 0.0

-426331.7276758794 1.2689069911741666e7 0.0
1.2689069911741666e7 -3.899911971890503e7 0.0
0.0 0.0 0.0

2.46558710281294e7 4.348737738065174e7 0.0
4.348737738065174e7 -9.922644596308619e6 0.0
0.0 0.0 0.0

4.039829924765796e7 2.269701911067639e7 0.0
2.269701911067639e7 8.713037230367038e6 0.0
0.0 0.0 0.0

-9.149236357351663e6 1.696930844917128e7 0.0
1.696930844917128e7 2.6105590834273666e7 0.0
0.0 0.0 0.0

3.522984040056059e6 4.004435736953357e6 0.0
4.004435736953357e6 -1.7494425708001852e7 0.0
0.0 0.0 0.0

-7.690232261522159e6 -3.2006138085573446e6 0.0
-3.2006138085573446e6 1.489768671474785e7 0.0
0.0 0.0 0.0

-1.1483092799657151e7 9.937057059638858e6 0.0
9.937057059638858e6 1.695156223796808e7 0.0
0.0 0.0 0.0

1.4025028961591562e6 8.94173732367783e6 0.0
8.94173732367783e6 -8.91535241874382e6 0.0
0.0 0.0 0.0

1.9369175447498064e6 2.1512288343592506e7 0.0
2.1512288343592506e7 9.0815515202988e6 0.0
0.0 0.0 0.0

-31953.09994534905 1.9155761629302893e7 0.0
1.9155761629302893e7 254634.4589931943 0.0
0.0 0.0 0.0

-3.1215590705657965e6 2.3691271957951713e7 0.0
2.3691271957951713e7 5.1078019752269145e6 0.0
0.0 0.0 0.0

-1.1423512873369906e7 6.848346371995192e6 0.0
6.848346371995192e6 1.5847575601777095e7 0.0
0.0 0.0 0.0

75422.94893804705 1.2788441054879272e7 0.0
1.2788441054879272e7 -7.76422515563804e6 0.0
0.0 0.0 0.0

-2.5629454622703395e6 2.3393186771379102e7 0.0
2.3393186771379102e7 5.623075482578518e6 0.0
0.0 0.0 0.0

-4.624478215983109e6 1.580229304818766e7 0.0
1.580229304818766e7 -4.046847542763521e7 0.0
0.0 0.0 0.0

-2.611396259027347e6 2.8373054898496743e7 0.0
2.8373054898496743e7 1.6459718919928714e6 0.0
0.0 0.0 0.0

239802.64915248752 9.695923410075502e6 0.0
9.695923410075502e6 -4.727399442917403e7 0.0
0.0 0.0 0.0

-1.2404009833998071e7 2.5488694019010056e7 0.0
2.5488694019010056e7 -9.91318010738063e6 0.0
0.0 0.0 0.0

-2.580497001406283e6 2.765304317542125e7 0.0
2.765304317542125e7 1.501187702826512e6 0.0
0.0 0.0 0.0

-1.113558273239545e7 4.915077297579495e6 0.0
4.915077297579495e6 2.5767676549076103e7 0.0
0.0 0.0 0.0

1.6887936716412045e6 1.1478583520736532e7 0.0
1.1478583520736532e7 -2.3358077483940218e7 0.0
0.0 0.0 0.0

-7.642444551646324e6 1.8118225777111407e7 0.0
1.8118225777111407e7 2.475124317033659e7 0.0
0.0 0.0 0.0

728606.8217362594 2.106373468786882e7 0.0
2.106373468786882e7 -1.2706364528940136e7 0.0
0.0 0.0 0.0

-666052.2848923698 1.2308801930907099e7 0.0
1.2308801930907099e7 -8.56994819648926e6 0.0
0.0 0.0 0.0

2.94645127525077e6 3.07033267157263e6 0.0
3.07033267157263e6 -3.9157016294626616e7 0.0
0.0 0.0 0.0

4.963689548628409e6 1.731606115905511e7 0.0
1.731606115905511e7 1.6545631916415785e7 0.0
0.0 0.0 0.0

-1.0111346529104876e6 2.7457692479050826e7 0.0
2.7457692479050826e7 -433952.29864171374 0.0
0.0 0.0 0.0

-1.5031519617647994e7 1.031506408145314e7 0.0
1.031506408145314e7 7.367309586820151e6 0.0
0.0 0.0 0.0

2.982313433757741e6 3.1134200690119937e6 0.0
3.1134200690119937e6 -4.061566985175388e7 0.0
0.0 0.0 0.0

-1.7606573556992486e6 2.5505985433058523e7 0.0
2.5505985433058523e7 921518.4152951773 0.0
0.0 0.0 0.0

5.25636823202328e6 1.7519217837303713e7 0.0
1.7519217837303713e7 2.0000020816650577e7 0.0
0.0 0.0 0.0

-8.056045129359186e6 2.5482058595215634e7 0.0
2.5482058595215634e7 6.024689641245374e6 0.0
0.0 0.0 0.0

2.0919766466316767e6 3.703562499491813e6 0.0
3.703562499491813e6 -5.18834127843656e7 0.0
0.0 0.0 0.0

-1.9809328423329818e6 2.8592108634430602e7 0.0
2.8592108634430602e7 1.706289680675733e6 0.0
0.0 0.0 0.0

4.868726088411521e6 1.905251555269519e7 0.0
1.905251555269519e7 3.883122071504311e7 0.0
0.0 0.0 0.0

2.4024767361376714e6 1.0459084834162988e7 0.0
1.0459084834162988e7 -2.5787413916566476e7 0.0
0.0 0.0 0.0

-2.365865705303561e6 1.7196781742094643e7 0.0
1.7196781742094643e7 -1.1314494771117553e7 0.0
0.0 0.0 0.0

2.9507026906120475e7 2.4987007015838318e7 0.0
2.4987007015838318e7 526456.0174704548 0.0
0.0 0.0 0.0

-4.180530511477838e6 2.0106621255233925e7 0.0
2.0106621255233925e7 -1.3499828403475916e7 0.0
0.0 0.0 0.0

-9.079129832786366e6 -223232.87124610785 0.0
-223232.87124610785 1.5527233442282517e7 0.0
0.0 0.0 0.0

89231.33378743543 6.433670916572965e6 0.0
6.433670916572965e6 -1.6035773431428582e6 0.0
0.0 0.0 0.0

2.7190731451924983e6 4.402738760412191e6 0.0
4.402738760412191e6 -3.819690749671162e7 0.0
0.0 0.0 0.0

1.8144056344896946e6 8.300191802931056e6 0.0
8.300191802931056e6 -4.303227752057784e7 0.0
0.0 0.0 0.0

-2.4538229350240333e6 2.507741523564603e7 0.0
2.507741523564603e7 181378.69263150776 0.0
0.0 0.0 0.0

1.925487000481952e6 1.8978555896039292e7 0.0
1.8978555896039292e7 3.1957961287189532e7 0.0
0.0 0.0 0.0

2.150922801492095e7 1.8034232995358013e7 0.0
1.8034232995358013e7 4.547356730541818e6 0.0
0.0 0.0 0.0

-1.2043724510788662e7 6.665760623851813e6 0.0
6.665760623851813e6 2.327951839633147e7 0.0
0.0 0.0 0.0

414438.89869882725 1.2747727175710157e7 0.0
1.2747727175710157e7 -3.6086996013349816e7 0.0
0.0 0.0 0.0

-4.2678237068332825e6 1.6811156825168792e7 0.0
1.6811156825168792e7 -3.727318958768084e7 0.0
0.0 0.0 0.0

6.682496065326469e6 1.8666283507986832e7 0.0
1.8666283507986832e7 5.297077816839235e7 0.0
0.0 0.0 0.0

-3.422451452525302e6 2.2841359501290854e7 0.0
2.2841359501290854e7 1.2865944252787404e7 0.0
0.0 0.0 0.0

-7.843167373708172e6 1.8334722896038093e7 0.0
1.8334722896038093e7 2.4327058659374274e7 0.0
0.0 0.0 0.0

-2.333103063427803e6 1.40011296282645e7 0.0
1.40011296282645e7 1.0355962552619038e7 0.0
0.0 0.0 0.0

-2.676336055149706e6 1.768592717731212e7 0.0
1.768592717731212e7 -2.1986072210200526e7 0.0
0.0 0.0 0.0

-795158.702650175 1.893546938034356e7 0.0
1.893546938034356e7 -1.1640277885922775e7 0.0
0.0 0.0 0.0

940294.2907423247 1.4357984740068967e7 0.0
1.4357984740068967e7 -1.8864204147245012e7 0.0
0.0 0.0 0.0

2.3311474950750384e7 2.665890825701225e7 0.0
2.665890825701225e7 -3.968650342935901e6 0.0
0.0 0.0 0.0

-9.26765019745143e6 -1.359687547093166e6 0.0
-1.359687547093166e6 3.3137680334357228e7 0.0
0.0 0.0 0.0

1.478975816540504e6 1.9562205081663083e7 0.0
1.9562205081663083e7 -2.145867972554582e6 0.0
0.0 0.0 0.0

1.1627636116669201e6 3.29670504147513e7 0.0
3.29670504147513e7 -1.9471315662868689e6 0.0
0.0 0.0 0.0

-3.7942622962882733e6 2.2802633915321995e7 0.0
2.2802633915321995e7 1.363484815782224e7 0.0
0.0 0.0 0.0

3.535298261174605e6 3.482961530655875e6 0.0
3.482961530655875e6 -2.422724482336523e7 0.0
0.0 0.0 0.0

904390.9242958571 8.021777423100538e6 0.0
8.021777423100538e6 -1.0059035369787429e7 0.0
0.0 0.0 0.0

1.7417245948050073e6 2.0402130457982183e7 0.0
2.0402130457982183e7 8.299548356805631e6 0.0
0.0 0.0 0.0

2.0300398723849535e7 4.5012285245635994e7 0.0
4.5012285245635994e7 -1.230735009885944e7 0.0
0.0 0.0 0.0

-8.512986750998931e6 8.688208967467012e6 0.0
8.688208967467012e6 4.478677889493895e7 0.0
0.0 0.0 0.0

1.4779417124879388e6 2.112579761293993e7 0.0
2.112579761293993e7 -7.314676082094366e6 0.0
0.0 0.0 0.0

-1.8648466758858305e6 1.933276694186486e7 0.0
1.933276694186486e7 -1.4340764770115683e7 0.0
0.0 0.0 0.0

-597571.709316829 1.1222462646271821e7 0.0
1.1222462646271821e7 -7.28043842509221e6 0.0
0.0 0.0 0.0

-946541.303818966 5.398938825779611e6 0.0
5.398938825779611e6 -3.0824343721500062e6 0.0
0.0 0.0 0.0

5.1967681817771755e6 2.2004602077515427e7 0.0
2.2004602077515427e7 -4.364755653693512e6 0.0
0.0 0.0 0.0

-3.809893922118444e6 1.7494262419886027e7 0.0
1.7494262419886027e7 -3.022249384784988e7 0.0
0.0 0.0 0.0

2.422851219217032e6 3.0059236089139436e6 0.0
3.0059236089139436e6 -4.708190054720186e7 0.0
0.0 0.0 0.0

-3.9191250554344887e6 2.3311484756458614e7 0.0
2.3311484756458614e7 1.1618617035156108e7 0.0
0.0 0.0 0.0

1.938980739554407e6 9.138053093777787e6 0.0
9.138053093777787e6 -3.4124217852477446e7 0.0
0.0 0.0 0.0

2.0762494757099487e6 3.6919073409829405e6 0.0
3.6919073409829405e6 -5.263141291751635e7 0.0
0.0 0.0 0.0

-3.1279464882823797e6 2.1497895599107224e7 0.0
2.1497895599107224e7 1.4572372596031822e7 0.0
0.0 0.0 0.0

-5.368113959276129e6 1.875157603142559e7 0.0
1.875157603142559e7 -1.765038030145641e7 0.0
0.0 0.0 0.0

-1.120794767071775e7 8.545608366150752e6 0.0
8.545608366150752e6 2.0867637877706565e7 0.0
0.0 0.0 0.0

-1.6346604943797996e6 2.692093237343112e7 0.0
2.692093237343112e7 1.0736129675335747e6 0.0
0.0 0.0 0.0

-224313.5967386642 1.1412798043420916e7 0.0
1.1412798043420916e7 -5.216366623728251e6 0.0
0.0 0.0 0.0

-5.46624749776567e6 1.4224811781896425e7 0.0
1.4224811781896425e7 1.2423112194770072e7 0.0
0.0 0.0 0.0

-9.04979451526793e6 -1.182781352318796e6 0.0
-1.182781352318796e6 3.3480157145031467e7 0.0
0.0 0.0 0.0

1.3996759571431e6 1.458917826727322e7 0.0
1.458917826727322e7 -1.7594581570054527e7 0.0
0.0 0.0 0.0

429273.43193784705 3.114570611246689e7 0.0
3.114570611246689e7 -1.3199984754965631e6 0.0
0.0 0.0 0.0

-9.57596593283413e6 7.693691560264038e6 0.0
7.693691560264038e6 1.7119414052571118e7 0.0
0.0 0.0 0.0

712053.9777766801 8.43551216022013e6 0.0
8.43551216022013e6 -4.66966407610155e7 0.0
0.0 0.0 0.0

-2.4100316870615752e6 1.2247344937340928e7 0.0
1.2247344937340928e7 -3.347839759090604e6 0.0
0.0 0.0 0.0

9.49786123663263e6 2.2856535522885386e7 0.0
2.2856535522885386e7 1.1974241022487342e7 0.0
0.0 0.0 0.0

4.106856244930168e7 2.3576749087303247e7 0.0
2.3576749087303247e7 8.319000084336604e6 0.0
0.0 0.0 0.0

3.2819090718832966e6 6.190108917877589e6 0.0
6.190108917877589e6 -2.213457730884733e7 0.0
0.0 0.0 0.0

-5.716355594537738e6 1.739566557876889e7 0.0
1.739566557876889e7 -3.799338824133661e7 0.0
0.0 0.0 0.0

3.0533654752591643e6 6.137915222642407e6 0.0
6.137915222642407e6 -2.3312424873748913e7 0.0
0.0 0.0 0.0

3.744491610421812e6 3.513996056086963e6 0.0
3.513996056086963e6 -2.5136701359157838e7 0.0
0.0 0.0 0.0

3.4186583173552394e7 1.4988359515239326e7 0.0
1.4988359515239326e7 1.5967811561842598e6 0.0
0.0 0.0 0.0

-1.0725900618024802e7 3.757835978450726e7 0.0
3.757835978450726e7 3.3304186155076995e6 0.0
0.0 0.0 0.0

-3.511197115163952e6 1.6044616393363314e7 0.0
1.6044616393363314e7 -3.426958711899732e7 0.0
0.0 0.0 0.0

-1.1432155483976442e7 2.3764723157378726e7 0.0
2.3764723157378726e7 -3.256635291712661e6 0.0
0.0 0.0 0.0

3.588908747482557e6 3.4364796559945676e6 0.0
3.4364796559945676e6 -3.2753244253935706e7 0.0
0.0 0.0 0.0

-8.398416832415165e6 2.527696735954292e7 0.0
2.527696735954292e7 6.731102803391473e6 0.0
0.0 0.0 0.0

9.412294420093963e6 3.159614185574849e7 0.0
3.159614185574849e7 -5.14416034400009e6 0.0
0.0 0.0 0.0

-1.0217424316856619e7 1.0863088316363415e7 0.0
1.0863088316363415e7 3.393961704936169e7 0.0
0.0 0.0 0.0

1.3831199396337477e7 4.378034404005013e7 0.0
4.378034404005013e7 -7.73218633541943e6 0.0
0.0 0.0 0.0

-791344.4476223572 2.0129118349506482e7 0.0
2.0129118349506482e7 -756981.1818340141 0.0
0.0 0.0 0.0

2.8132393926581647e6 2.983230038254276e6 0.0
2.983230038254276e6 -4.1670769609689936e7 0.0
0.0 0.0 0.0

3.0242092052926984e7 2.0058013129702e7 0.0
2.0058013129702e7 6.128495798711468e6 0.0
0.0 0.0 0.0

-2.639199599204747e6 2.10007475286396e7 0.0
2.10007475286396e7 1.4843802643502723e7 0.0
0.0 0.0 0.0

2.201582711053623e6 6.315287567372452e6 0.0
6.315287567372452e6 -3.7552792083286524e7 0.0
0.0 0.0 0.0

868296.359311875 2.5163742203398686e7 0.0
2.5163742203398686e7 -6.531971505780149e6 0.0
0.0 0.0 0.0

1.4688272271406557e6 2.0382923134415176e7 0.0
2.0382923134415176e7 -8.228231945450264e6 0.0
0.0 0.0 0.0

-3.6597655104014496e6 1.8869485212756276e7 0.0
1.8869485212756276e7 -1.3881322584925761e7 0.0
0.0 0.0 0.0

-837418.0351555618 1.981289935764159e7 0.0
1.981289935764159e7 -1.0199502648400158e7 0.0
0.0 0.0 0.0

1.244483189256339e7 2.3418793532116927e7 0.0
2.3418793532116927e7 1.2012914403743189e7 0.0
0.0 0.0 0.0

259858.0759640634 6.827514841244721e6 0.0
6.827514841244721e6 -6.5324498144250825e7 0.0
0.0 0.0 0.0

-4.794400758699456e6 2.4098887584240388e7 0.0
2.4098887584240388e7 1.1191841165370718e7 0.0
0.0 0.0 0.0

1.1408731621583162e6 4.511740118551226e6 0.0
4.511740118551226e6 -3.7022671974982084e6 0.0
0.0 0.0 0.0

-9.590071875965822e6 1.555278852309138e7 0.0
1.555278852309138e7 2.6796767888237245e7 0.0
0.0 0.0 0.0

3.9167975352137648e6 3.9978016302913018e6 0.0
3.9978016302913018e6 -2.193199680358969e7 0.0
0.0 0.0 0.0

-8.273146225324497e6 -1.7342413873940778e6 0.0
-1.7342413873940778e6 3.992856322601379e7 0.0
0.0 0.0 0.0

1.3179798265008107e6 1.54463656356297e7 0.0
1.54463656356297e7 -2.136728572381112e7 0.0
0.0 0.0 0.0

888215.5928418266 2.4527043494362906e6 0.0
2.4527043494362906e6 -3.7594868598452546e6 0.0
0.0 0.0 0.0

4.256993034513899e6 1.824864358036931e7 0.0
1.824864358036931e7 1.9206493483854767e7 0.0
0.0 0.0 0.0

-2.590264243293839e6 2.7927212214477e7 0.0
2.7927212214477e7 3.7132740465357103e6 0.0
0.0 0.0 0.0

-9.087528665791538e6 -367400.5899976539 0.0
-367400.5899976539 3.809039780150739e7 0.0
0.0 0.0 0.0

-1.5389724035374317e6 2.0633010172679607e7 0.0
2.0633010172679607e7 8.8253029350225e6 0.0
0.0 0.0 0.0

5.587707474485795e6 2.3341223417991612e7 0.0
2.3341223417991612e7 -5.368686506355946e6 0.0
0.0 0.0 0.0

-2.5063066077612345e6 2.4253907649281044e7 0.0
2.4253907649281044e7 -47583.3088907965 0.0
0.0 0.0 0.0

-4.871795643655327e6 2.181137070487337e7 0.0
2.181137070487337e7 -1.0296589158178708e7 0.0
0.0 0.0 0.0

-1.9835793607744104e6 2.4402318823078137e7 0.0
2.4402318823078137e7 1.6132979331758902e6 0.0
0.0 0.0 0.0

-6.07700313758117e6 1.727915858788021e7 0.0
1.727915858788021e7 -2.0767539141470674e7 0.0
0.0 0.0 0.0

1.955882391041427e7 2.5958239106385536e7 0.0
2.5958239106385536e7 -4.25839640059194e6 0.0
0.0 0.0 0.0

-1.8131679489970421e6 1.8289112477403052e7 0.0
1.8289112477403052e7 -1.5577279252308413e7 0.0
0.0 0.0 0.0

-3.8587786405939776e6 1.987159704452209e7 0.0
1.987159704452209e7 2.420334822196797e7 0.0
0.0 0.0 0.0

4.936676159863276e6 2.1618176263431475e7 0.0
2.1618176263431475e7 1.4429507655506289e7 0.0
0.0 0.0 0.0

2.0756408951262347e6 1.0595973501082093e7 0.0
1.0595973501082093e7 -2.492785879421369e7 0.0
0.0 0.0 0.0

-6.766961349351379e6 1.342767785850372e7 0.0
1.342767785850372e7 1.1421822889174014e7 0.0
0.0 0.0 0.0

-3.0154507265570806e6 3.2267489058341853e7 0.0
3.2267489058341853e7 1.2713573822991322e6 0.0
0.0 0.0 0.0

-5.343542469991443e6 2.0089359592845727e7 0.0
2.0089359592845727e7 1.7093491581325497e7 0.0
0.0 0.0 0.0

3.6033026829640702e6 3.412103743677544e7 0.0
3.412103743677544e7 -1.7120119654410777e6 0.0
0.0 0.0 0.0

799074.2874359572 1.51086110521413e7 0.0
1.51086110521413e7 -2.275149071531208e7 0.0
0.0 0.0 0.0

-2.309940209636349e7 2.73921377021375e7 0.0
2.73921377021375e7 -9.405960860958302e6 0.0
0.0 0.0 0.0

2.7237793835560195e6 4.665919617259731e6 0.0
4.665919617259731e6 -4.634735589031237e7 0.0
0.0 0.0 0.0

1.2728709225019855e7 3.419214420887574e7 0.0
3.419214420887574e7 -4.978471646559745e6 0.0
0.0 0.0 0.0

-1.9347652032220606e7 3.2425405977461103e7 0.0
3.2425405977461103e7 6.726204248860885e6 0.0
0.0 0.0 0.0

1.2201755784338778e6 1.950783935073162e7 0.0
1.950783935073162e7 2.007338329986565e7 0.0
0.0 0.0 0.0

-3.644618769243925e7 3.27233385677745e7 0.0
3.27233385677745e7 6.278583135592056e6 0.0
0.0 0.0 0.0

3.010669809782069e6 3.0360643871106915e6 0.0
3.0360643871106915e6 -4.2937240678612724e7 0.0
0.0 0.0 0.0

-4.896903030635225e6 1.989158313115752e7 0.0
1.989158313115752e7 1.8411011387844402e7 0.0
0.0 0.0 0.0

-1.0362303436256666e7 7.472454814532143e6 0.0
7.472454814532143e6 1.4274590575406935e7 0.0
0.0 0.0 0.0

3.576820951521815e6 3.10826443495957e6 0.0
3.10826443495957e6 -2.3142356509790093e7 0.0
0.0 0.0 0.0

680907.0775381527 2.0330998162250765e7 0.0
2.0330998162250765e7 -1.006672984870753e7 0.0
0.0 0.0 0.0

-6.858118801514797e6 3.903618439428033e7 0.0
3.903618439428033e7 4.5991866399690695e6 0.0
0.0 0.0 0.0

-1.3396810436478363e7 1.7825590959698267e7 0.0
1.7825590959698267e7 6.165002475086085e6 0.0
0.0 0.0 0.0

-3.622646565625532e7 2.7843078714347158e7 0.0
2.7843078714347158e7 300469.73521379195 0.0
0.0 0.0 0.0

4.3312459892134406e7 2.337122750196918e7 0.0
2.337122750196918e7 1.6128958784505904e7 0.0
0.0 0.0 0.0

-7.749201297996268e6 1.6395237202948391e7 0.0
1.6395237202948391e7 -8.371473176335387e7 0.0
0.0 0.0 0.0

-283960.44406066556 1.9230939815161195e7 0.0
1.9230939815161195e7 -1.2878005167231107e7 0.0
0.0 0.0 0.0

-3.531670639333262e6 1.936021064140301e7 0.0
1.936021064140301e7 2.4269993993396275e7 0.0
0.0 0.0 0.0

1.020092663226984e6 2.309304745172311e7 0.0
2.309304745172311e7 -9.740081796838785e6 0.0
0.0 0.0 0.0

-1.1401233947511734e6 2.6728784797645174e7 0.0
2.6728784797645174e7 -584690.6380874296 0.0
0.0 0.0 0.0

2.9961271829536227e6 1.7077066986082304e7 0.0
1.7077066986082304e7 1.1100962662080733e7 0.0
0.0 0.0 0.0

3.0078502410814664e6 3.3330848130952306e7 0.0
3.3330848130952306e7 -1.6669190878457208e6 0.0
0.0 0.0 0.0

-1.0717889745849062e7 8.20041249453493e6 0.0
8.20041249453493e6 1.7286302756982736e7 0.0
0.0 0.0 0.0

5.7669139145959206e7 3.515250274589029e7 0.0
3.515250274589029e7 2.3606666099289544e7 0.0
0.0 0.0 0.0

1.5519415424530902e6 2.6596619774929818e7 0.0
2.6596619774929818e7 -6.252180186173015e6 0.0
0.0 0.0 0.0

4.0572228322739443e6 1.6314611195156496e7 0.0
1.6314611195156496e7 1.5310306914723037e7 0.0
0.0 0.0 0.0

-1.152697523302058e7 2.5422643099937323e7 0.0
2.5422643099937323e7 2.001097864653198e6 0.0
0.0 0.0 0.0

408843.4041603878 1.833867867669403e7 0.0
1.833867867669403e7 1.7187368274614446e7 0.0
0.0 0.0 0.0

501867.89972848515 2.5111395118595097e7 0.0
2.5111395118595097e7 -6.100895545603608e6 0.0
0.0 0.0 0.0

2.358508563600898e6 8.106591431675647e6 0.0
8.106591431675647e6 -3.3357540934567228e7 0.0
0.0 0.0 0.0

-2.9551568428973844e6 2.2617658513042856e7 0.0
2.2617658513042856e7 6.124430610397536e6 0.0
0.0 0.0 0.0

-6.321491873721595e6 2.2796605219252393e7 0.0
2.2796605219252393e7 3.890347530142835e6 0.0
0.0 0.0 0.0

1.3230188010679209e6 8.068718074876433e6 0.0
8.068718074876433e6 -1.2210971646942148e7 0.0
0.0 0.0 0.0

-3.558047055272444e6 2.3434244432561323e7 0.0
2.3434244432561323e7 1.1846753073385827e7 0.0
0.0 0.0 0.0

-7.995999474164885e6 5.998775699267087e6 0.0
5.998775699267087e6 4.8587242131495416e7 0.0
0.0 0.0 0.0

-1.0120501704758347e6 1.1688939260261798e7 0.0
1.1688939260261798e7 -2.464938156542134e6 0.0
0.0 0.0 0.0

-1.1391666456763238e7 2.395967513134247e7 0.0
2.395967513134247e7 -9.215957014756192e6 0.0
0.0 0.0 0.0

3.997558556336731e7 2.9226922703799166e7 0.0
2.9226922703799166e7 1.7367297240356326e7 0.0
0.0 0.0 0.0

416911.28909979574 1.4662305074459638e7 0.0
1.4662305074459638e7 -2.9164606126439717e7 0.0
0.0 0.0 0.0

2.9000122433477826e6 6.361103922210047e6 0.0
6.361103922210047e6 -3.522858043333045e7 0.0
0.0 0.0 0.0

9.225829119369967e6 2.179792154310056e7 0.0
2.179792154310056e7 4.104685039159756e6 0.0
0.0 0.0 0.0

-3.591487916945909e6 1.1688775473193021e7 0.0
1.1688775473193021e7 1.5802158213091336e7 0.0
0.0 0.0 0.0

-1.5328203160713066e6 2.572653716507706e7 0.0
2.572653716507706e7 3500.1701422977494 0.0
0.0 0.0 0.0

-1.1504118245252364e6 2.2122905951352518e7 0.0
2.2122905951352518e7 -7.611668988004836e6 0.0
0.0 0.0 0.0

-450161.04426861927 2.235649424043629e7 0.0
2.235649424043629e7 -9.453075639620172e6 0.0
0.0 0.0 0.0

-1.071252609099618e6 1.9370424282670084e7 0.0
1.9370424282670084e7 -7.9216853949626945e6 0.0
0.0 0.0 0.0

1.9880392826342513e6 8.862442438236594e6 0.0
8.862442438236594e6 -1.1020725781993436e7 0.0
0.0 0.0 0.0

3.328961634251421e7 2.6459709667017635e7 0.0
2.6459709667017635e7 1.4498695019995967e7 0.0
0.0 0.0 0.0

2.605694217257253e6 1.7858862639758773e7 0.0
1.7858862639758773e7 9.94353663213291e6 0.0
0.0 0.0 0.0

-3.3174294591737315e6 3.1556680976236563e7 0.0
3.1556680976236563e7 3.2782734799272753e6 0.0
0.0 0.0 0.0

-3.702817564214786e7 2.2175671737257108e7 0.0
2.2175671737257108e7 6.687744463336289e6 0.0
0.0 0.0 0.0

3.8229927547212588e6 3.7002175996705643e6 0.0
3.7002175996705643e6 -2.0533462343410015e7 0.0
0.0 0.0 0.0

612599.5740932769 1.9674091146419313e7 0.0
1.9674091146419313e7 6.914182116457366e6 0.0
0.0 0.0 0.0

-4.532486127436104e6 1.6523853040212546e7 0.0
1.6523853040212546e7 -1.9846736139357805e7 0.0
0.0 0.0 0.0

-207405.7136160722 1.7508859429614928e7 0.0
1.7508859429614928e7 -2.1419167342851628e7 0.0
0.0 0.0 0.0

-9.4422484428436e6 -2.5815536308205724e6 0.0
-2.5815536308205724e6 2.7180630450171437e7 0.0
0.0 0.0 0.0

1.1380245121469218e6 1.3793172949433144e7 0.0
1.3793172949433144e7 -2.0238394618685786e7 0.0
0.0 0.0 0.0

-1.0106365690222356e7 1.7399896985826083e7 0.0
1.7399896985826083e7 -4.9588130526883505e7 0.0
0.0 0.0 0.0

1.3456190467953542e6 1.3187199425188009e7 0.0
1.3187199425188009e7 -2.138197884104427e7 0.0
0.0 0.0 0.0

1.832202363065301e6 2.0961160602105897e7 0.0
2.0961160602105897e7 -9.295482431956952e6 0.0
0.0 0.0 0.0

3.1716500286514938e7 2.1998805592600808e7 0.0
2.1998805592600808e7 7.348823103215687e6 0.0
0.0 0.0 0.0

-7.686482451036036e6 1.5077729034133634e7 0.0
1.5077729034133634e7 3.5041065986512564e7 0.0
0.0 0.0 0.0

-5.2098792263074275e6 2.2827534198869005e7 0.0
2.2827534198869005e7 -1.0916796237959282e7 0.0
0.0 0.0 0.0

317930.2297120702 1.8166849295598473e7 0.0
1.8166849295598473e7 824842.3580031649 0.0
0.0 0.0 0.0

-6.203305507681496e6 2.0868584165601984e7 0.0
2.0868584165601984e7 -1.3922498015604258e7 0.0
0.0 0.0 0.0

3.1501058851563584e7 2.674258445503362e7 0.0
2.674258445503362e7 1.3908486847886987e7 0.0
0.0 0.0 0.0

-4.285880689635186e6 2.3505027471446376e7 0.0
2.3505027471446376e7 1.2563200176975759e7 0.0
0.0 0.0 0.0

1.890080938989515e6 2.064956760895842e7 0.0
2.064956760895842e7 -3.317649944257305e6 0.0
0.0 0.0 0.0

-84250.6744489873 2.8551771321170986e7 0.0
2.8551771321170986e7 -1.590967926827815e6 0.0
0.0 0.0 0.0

-2.8893617790771965e6 2.2604601176618155e7 0.0
2.2604601176618155e7 6.98285754329708e6 0.0
0.0 0.0 0.0

-5.476278952432759e6 1.8051596786941676e6 0.0
1.8051596786941676e6 7.311745175729814e7 0.0
0.0 0.0 0.0

416152.9140822161 2.0435088104225025e7 0.0
2.0435088104225025e7 -1.4044920876623336e7 0.0
0.0 0.0 0.0

-1.9295013761584503e6 2.7976558297364604e7 0.0
2.7976558297364604e7 2.0522272113916073e6 0.0
0.0 0.0 0.0

-402178.4962637512 3.9393666366823646e6 0.0
3.9393666366823646e6 524503.0219148641 0.0
0.0 0.0 0.0

-8.543529715221832e6 1.70324791686603e7 0.0
1.70324791686603e7 2.5967362833453514e7 0.0
0.0 0.0 0.0

-3.8271335871535405e6 1.8216301029668793e7 0.0
1.8216301029668793e7 -1.2882907252580466e7 0.0
0.0 0.0 0.0

3.2658068850873895e6 3.6925113741833675e6 0.0
3.6925113741833675e6 -2.857584371809959e7 0.0
0.0 0.0 0.0

-1.8085873067022618e6 3.2733754083573963e7 0.0
3.2733754083573963e7 1.9851084582730518e6 0.0
0.0 0.0 0.0

1.7178768663300276e6 1.4064584204008717e7 0.0
1.4064584204008717e7 -1.848771628698764e7 0.0
0.0 0.0 0.0

-5.682498597975727e6 1.9363994521126315e7 0.0
1.9363994521126315e7 2.0113872230207548e7 0.0
0.0 0.0 0.0

1.4372650391323566e6 6.126581635555819e6 0.0
6.126581635555819e6 -6.043500304862665e7 0.0
0.0 0.0 0.0

-4.050589949726986e6 3.1176182455805585e7 0.0
3.1176182455805585e7 2.7979716027617473e6 0.0
0.0 0.0 0.0

-7.97823362746731e6 1.7485118409038596e7 0.0
1.7485118409038596e7 -2.9371192112242654e7 0.0
0.0 0.0 0.0

3.5266566942232056e6 2.725573120586409e6 0.0
2.725573120586409e6 -1.3551001372034889e7 0.0
0.0 0.0 0.0

-610294.4192948042 1.0918439913030667e7 0.0
1.0918439913030667e7 -3.923793166073704e6 0.0
0.0 0.0 0.0

-1.6161513204526398e7 3.2536860526104107e7 0.0
3.2536860526104107e7 5.91518031903525e6 0.0
0.0 0.0 0.0

5.3625692580853095e6 1.6379412745724143e7 0.0
1.6379412745724143e7 1.8025769608126685e7 0.0
0.0 0.0 0.0

-7.934677879238379e6 3.681840061156678e7 0.0
3.681840061156678e7 3.0238663813476637e6 0.0
0.0 0.0 0.0

-1.1063270648828255e7 6.447355543507265e6 0.0
6.447355543507265e6 2.6628662475871317e7 0.0
0.0 0.0 0.0

113746.84393771365 9.21756087074538e6 0.0
9.21756087074538e6 -6.739763594529542e7 0.0
0.0 0.0 0.0

7.519230133026798e7 2.5305558409043003e7 0.0
2.5305558409043003e7 5.638649649566662e6 0.0
0.0 0.0 0.0

-1.4451170627954754e6 2.6479078155212462e7 0.0
2.6479078155212462e7 174293.2849496705 0.0
0.0 0.0 0.0

-5.240719893465286e6 2.7619905777277794e7 0.0
2.7619905777277794e7 6.617986441756737e6 0.0
0.0 0.0 0.0

-2.4068658372651734e6 2.4656262201055776e7 0.0
2.4656262201055776e7 4.546436278348083e6 0.0
0.0 0.0 0.0

7.097307639355041e6 2.0057563934045434e7 0.0
2.0057563934045434e7 5.4133291171216056e7 0.0
0.0 0.0 0.0

2.8843162086739372e6 3.968777092454114e6 0.0
3.968777092454114e6 -3.3540685403522197e7 0.0
0.0 0.0 0.0

248465.83401351143 1.3255315755506754e7 0.0
1.3255315755506754e7 -8.70924277977961e6 0.0
0.0 0.0 0.0

7.464218999388033e6 3.151717284974587e7 0.0
3.151717284974587e7 -4.660708264371386e6 0.0
0.0 0.0 0.0

762414.6240466405 1.091800861138356e7 0.0
1.091800861138356e7 -3.803435493753514e7 0.0
0.0 0.0 0.0

-2.0003503499249097e7 2.0049101515904136e7 0.0
2.0049101515904136e7 5.74445023211803e6 0.0
0.0 0.0 0.0

-6.274501730816392e6 2.3084558858603362e7 0.0
2.3084558858603362e7 2.649155803868184e6 0.0
0.0 0.0 0.0

458406.3457641868 1.854576056068835e7 0.0
1.854576056068835e7 4.1188080436707633e6 0.0
0.0 0.0 0.0

1.8672199889364615e6 1.3469979350944286e7 0.0
1.3469979350944286e7 -1.9714714716466513e7 0.0
0.0 0.0 0.0

2.687005444658434e6 1.9328754118803807e7 0.0
1.9328754118803807e7 3.42987833091071e7 0.0
0.0 0.0 0.0

1.231436119719423e7 3.1695170429707058e7 0.0
3.1695170429707058e7 -5.6110113180336775e6 0.0
0.0 0.0 0.0

-4.334184780708225e7 3.665346787944166e6 0.0
3.665346787944166e6 6.609341146226006e6 0.0
0.0 0.0 0.0

4.332939869435389e7 4.234825813154219e7 0.0
4.234825813154219e7 -9.732960435219245e6 0.0
0.0 0.0 0.0

1.1675560100426001e7 3.198382653557274e7 0.0
3.198382653557274e7 -6.086448616759495e6 0.0
0.0 0.0 0.0

3.5028544092073506e6 3.7802520617098818e6 0.0
3.7802520617098818e6 -1.9795824759346966e7 0.0
0.0 0.0 0.0

-2.9824172595333755e6 2.8048938355270956e7 0.0
2.8048938355270956e7 2.2913649361448614e6 0.0
0.0 0.0 0.0

3.8200298515786506e7 1.5373094951685019e7 0.0
1.5373094951685019e7 2.088429750405822e6 0.0
0.0 0.0 0.0

-6.93374854939384e6 8.192978114541433e6 0.0
8.192978114541433e6 5.243812785441907e7 0.0
0.0 0.0 0.0

406317.81134528294 2.0663829911519673e7 0.0
2.0663829911519673e7 -1.3579715265093463e7 0.0
0.0 0.0 0.0

2.4027057508261524e7 1.8988408841749948e7 0.0
1.8988408841749948e7 4.95176738786553e6 0.0
0.0 0.0 0.0

1.3375789948552805e6 2.0980606360854592e7 0.0
2.0980606360854592e7 -1.0923317882861411e7 0.0
0.0 0.0 0.0

3.078551751017399e6 4.479328787599284e6 0.0
4.479328787599284e6 -3.60688618139161e7 0.0
0.0 0.0 0.0

-999255.3854749361 2.6257425274874825e7 0.0
2.6257425274874825e7 -1.5305779958170517e6 0.0
0.0 0.0 0.0

-3.9395661936385743e6 1.683993665394411e7 0.0
1.683993665394411e7 -1.8022776727324713e7 0.0
0.0 0.0 0.0

1.9792297358209486e6 2.8087196048265368e7 0.0
2.8087196048265368e7 -5.040146202485152e6 0.0
0.0 0.0 0.0

-5.521265246500023e6 1.0895535577656692e7 0.0
1.0895535577656692e7 5.443264173343645e7 0.0
0.0 0.0 0.0

-925969.8898340454 1.8554807198126685e7 0.0
1.8554807198126685e7 -1.0218810625383299e7 0.0
0.0 0.0 0.0

2.0317886457003169e6 1.0271936099512206e7 0.0
1.0271936099512206e7 -2.6816546400325216e7 0.0
0.0 0.0 0.0

4.04642359983046e6 2.3551002939096607e7 0.0
2.3551002939096607e7 -6.50940084230733e6 0.0
0.0 0.0 0.0

-2.7684121139518493e6 1.811842605398391e7 0.0
1.811842605398391e7 -9.410948494831821e6 0.0
0.0 0.0 0.0

-7.998849549143728e6 3.432160962071457e6 0.0
3.432160962071457e6 4.861214454471012e7 0.0
0.0 0.0 0.0

2.172696750688823e6 1.976738899710837e7 0.0
1.976738899710837e7 2.1210087742432095e7 0.0
0.0 0.0 0.0

552575.3742349502 1.0549304786540411e7 0.0
1.0549304786540411e7 -4.0996607522476085e7 0.0
0.0 0.0 0.0

2.7051583376880954e6 2.783673116340436e7 0.0
2.783673116340436e7 -4.917958937884827e6 0.0
0.0 0.0 0.0

3.286194729545661e6 2.1892942684598867e7 0.0
2.1892942684598867e7 1.3901120615744287e7 0.0
0.0 0.0 0.0

2.7631469196716845e6 9.224449332197502e6 0.0
9.224449332197502e6 -2.622767306166537e7 0.0
0.0 0.0 0.0

5.644251601851396e7 2.557783655382693e7 0.0
2.557783655382693e7 1.274612720391843e7 0.0
0.0 0.0 0.0

1.9412982256703137e6 2.723882066951586e7 0.0
2.723882066951586e7 -5.101790274313933e6 0.0
0.0 0.0 0.0

-9.300409451124728e6 -2.1246263649030365e6 0.0
-2.1246263649030365e6 3.0325840868423354e7 0.0
0.0 0.0 0.0

-9.065223983024206e6 3.7196542985069854e6 0.0
3.7196542985069854e6 4.518283301155352e7 0.0
0.0 0.0 0.0

3.6327924637234565e6 2.0173483927239825e6 0.0
2.0173483927239825e6 -3.031918478540527e7 0.0
0.0 0.0 0.0

-3.002601752014345e6 2.4234088224397052e7 0.0
2.4234088224397052e7 3.9797361057737716e6 0.0
0.0 0.0 0.0

-1.4893321874093688e6 1.861665699457054e7 0.0
1.861665699457054e7 -8.7853462373168e6 0.0
0.0 0.0 0.0

990294.3359953132 2.251181493234426e7 0.0
2.251181493234426e7 -1.0919898769935783e7 0.0
0.0 0.0 0.0

-9.914839156728847e6 251448.03407203924 0.0
251448.03407203924 2.337068778693936e7 0.0
0.0 0.0 0.0

-63880.02907154942 2.2808979967879977e7 0.0
2.2808979967879977e7 -7.970638766151457e6 0.0
0.0 0.0 0.0

-8.258079953468695e6 3.301857201051752e6 0.0
3.301857201051752e6 4.838455601989079e7 0.0
0.0 0.0 0.0

8.912594962684657e6 2.0605692931998733e7 0.0
2.0605692931998733e7 5.765350900112378e6 0.0
0.0 0.0 0.0

35918.02185470611 1.2683461338192718e7 0.0
1.2683461338192718e7 -3.909622601119747e7 0.0
0.0 0.0 0.0

1.1426583770254478e6 1.0532596498516941e7 0.0
1.0532596498516941e7 -4.1190902730797e7 0.0
0.0 0.0 0.0

-8.689800935200179e6 1.6669950237705966e7 0.0
1.6669950237705966e7 2.730325387427201e7 0.0
0.0 0.0 0.0

-2.693869335606614e6 2.041101124112511e7 0.0
2.041101124112511e7 4.915377472872924e6 0.0
0.0 0.0 0.0

624653.4417456037 4.743354769020946e6 0.0
4.743354769020946e6 -2.047507719191193e6 0.0
0.0 0.0 0.0

-1.185074582555574e6 1.9490221580981724e7 0.0
1.9490221580981724e7 -8.74056737745667e6 0.0
0.0 0.0 0.0

-3.3290117908708197e6 2.6542735591200657e7 0.0
2.6542735591200657e7 6.689092438445557e6 0.0
0.0 0.0 0.0

6.327167617813459e6 1.995166987916058e7 0.0
1.995166987916058e7 4.273678531005932e7 0.0
0.0 0.0 0.0

1.2902086805974131e7 2.3203252348873686e7 0.0
2.3203252348873686e7 -2.28439219169794e6 0.0
0.0 0.0 0.0

-4.999237048583791e6 1.4062124312258752e6 0.0
1.4062124312258752e6 7.08619962647696e7 0.0
0.0 0.0 0.0

-7.935717574047586e6 1.067340654237886e7 0.0
1.067340654237886e7 4.297608593843e7 0.0
0.0 0.0 0.0

-8.907454951713923e6 1.6501949942696849e7 0.0
1.6501949942696849e7 2.2561832425083004e7 0.0
0.0 0.0 0.0

2.0036735729675994e6 1.85929462337026e7 0.0
1.85929462337026e7 1.073341344542359e7 0.0
0.0 0.0 0.0

-1.0452732891359266e7 4.0273143223629394e6 0.0
4.0273143223629394e6 1.7508123925507575e7 0.0
0.0 0.0 0.0

-1.0510004529002627e7 2.1297961306407902e7 0.0
2.1297961306407902e7 -6.404454720072969e6 0.0
0.0 0.0 0.0

3.4280452746491507e6 4.936403591174892e6 0.0
4.936403591174892e6 -3.195682494187057e7 0.0
0.0 0.0 0.0

-7.586824254750772e6 1.721187046266863e7 0.0
1.721187046266863e7 -4.190205498119054e7 0.0
0.0 0.0 0.0

1.7115661653783508e6 1.7786185476920884e7 0.0
1.7786185476920884e7 6.898183233851618e6 0.0
0.0 0.0 0.0

1.7265939332155284e7 2.84554103718539e7 0.0
2.84554103718539e7 -5.9636344164805915e6 0.0
0.0 0.0 0.0

1.7992288129193755e6 2.157529762183607e7 0.0
2.157529762183607e7 -8.332147822966045e6 0.0
0.0 0.0 0.0

-2.291875853826873e7 2.651989261678733e7 0.0
2.651989261678733e7 -7.16400368980763e6 0.0
0.0 0.0 0.0

-1.4376932409794254e6 2.7268397113708265e7 0.0
2.7268397113708265e7 -1.723294037817862e6 0.0
0.0 0.0 0.0

-1.5960912825602458e6 7.093666351490228e6 0.0
7.093666351490228e6 -2.6435259073791667e6 0.0
0.0 0.0 0.0

-5.24656037982918e6 3.775018943954463e7 0.0
3.775018943954463e7 4.469276812690454e6 0.0
0.0 0.0 0.0

-2.5588410273237373e6 2.0905076237586103e7 0.0
2.0905076237586103e7 3.629610110753332e6 0.0
0.0 0.0 0.0

-1.211370389451092e7 8.51279221097342e6 0.0
8.51279221097342e6 1.7818952985147998e7 0.0
0.0 0.0 0.0

-3.08881743712586e6 2.086339971681624e7 0.0
2.086339971681624e7 1.7469952735569219e6 0.0
0.0 0.0 0.0

-5.144988050696801e6 1.9501743413592197e6 0.0
1.9501743413592197e6 5.094357206444146e6 0.0
0.0 0.0 0.0

769250.095066512 1.0293843049420228e7 0.0
1.0293843049420228e7 -1.777395891501021e7 0.0
0.0 0.0 0.0

362948.09242808446 1.3302874122507108e7 0.0
1.3302874122507108e7 -3.385183310226546e7 0.0
0.0 0.0 0.0

-1.0014757911403954e7 2.2751846162248317e7 0.0
2.2751846162248317e7 -8.594422129385257e6 0.0
0.0 0.0 0.0

-3.7601359302716553e6 1.9949337278595418e7 0.0
1.9949337278595418e7 2.2811468644772008e7 0.0
0.0 0.0 0.0

-1.1012426563902507e6 1.849453891751896e7 0.0
1.849453891751896e7 -6.34949151277204e6 0.0
0.0 0.0 0.0

3.258033864436279e6 4.170459364252754e6 0.0
4.170459364252754e6 -1.3758552022198107e7 0.0
0.0 0.0 0.0

-997761.0639934683 2.4588153485904608e7 0.0
2.4588153485904608e7 -5.248713919887496e6 0.0
0.0 0.0 0.0

-479540.92739284714 2.835305624681562e7 0.0
2.835305624681562e7 -2.718923695625489e6 0.0
0.0 0.0 0.0

5.56268337942606e6 2.3081300578813024e7 0.0
2.3081300578813024e7 -5.766577175008835e6 0.0
0.0 0.0 0.0

-1.163713127198575e7 1.1671389425268965e7 0.0
1.1671389425268965e7 1.9136946576784506e7 0.0
0.0 0.0 0.0

-2.238136616263055e6 1.7794245870736092e7 0.0
1.7794245870736092e7 -2.003879894559061e7 0.0
0.0 0.0 0.0

-5.7255551599850785e6 3.2636511450700983e7 0.0
3.2636511450700983e7 3.178724390052396e6 0.0
0.0 0.0 0.0

-4.796798423270801e6 3.19131795635183e7 0.0
3.19131795635183e7 2.97946635628121e6 0.0
0.0 0.0 0.0

-2.777269200370189e6 1.5932282547814015e7 0.0
1.5932282547814015e7 -3.1506111318291407e7 0.0
0.0 0.0 0.0

-3.5673422904896946e6 1.797471455029257e7 0.0
1.797471455029257e7 -1.211358863892831e7 0.0
0.0 0.0 0.0

900353.275954936 1.8551826554616213e7 0.0
1.8551826554616213e7 5.715731117700032e6 0.0
0.0 0.0 0.0

1.851327788041776e6 9.75992565728364e6 0.0
9.75992565728364e6 -3.237876984676349e7 0.0
0.0 0.0 0.0

-9.39563301309744e6 1.1956619658500992e7 0.0
1.1956619658500992e7 3.539779059649124e7 0.0
0.0 0.0 0.0

-1.8188826561307088e6 1.25426268128566e7 0.0
1.25426268128566e7 -6.999744309530143e7 0.0
0.0 0.0 0.0

1.0073104021697303e7 3.525171152566494e7 0.0
3.525171152566494e7 -6.469774955885794e6 0.0
0.0 0.0 0.0

6.602061480752071e6 1.7860848519085806e7 0.0
1.7860848519085806e7 2.9601963587744903e7 0.0
0.0 0.0 0.0

4.123235395932478e6 1.8895050822672535e7 0.0
1.8895050822672535e7 3.854568911746623e7 0.0
0.0 0.0 0.0

2.3432341369960476e7 2.403680913151651e7 0.0
2.403680913151651e7 1.1379627695215546e7 0.0
0.0 0.0 0.0

-282090.30818429147 1.9095186939391263e7 0.0
1.9095186939391263e7 3.107686567430947e6 0.0
0.0 0.0 0.0

-911131.1331780439 2.4177092298061512e7 0.0
2.4177092298061512e7 -5.001698247434755e6 0.0
0.0 0.0 0.0

-2.9918572523315717e7 2.7000968325089898e7 0.0
2.7000968325089898e7 -8.280673374499737e6 0.0
0.0 0.0 0.0

-262428.2898430033 1.8184799636462986e7 0.0
1.8184799636462986e7 1.1029425469823158e6 0.0
0.0 0.0 0.0

-3.70986746418048e6 2.1968461065214198e7 0.0
2.1968461065214198e7 5.699750730598424e6 0.0
0.0 0.0 0.0

3.841938427490022e6 3.814437080414951e6 0.0
3.814437080414951e6 -2.6454694115239482e7 0.0
0.0 0.0 0.0

-1.1800267967228899e7 2.287745310966326e7 0.0
2.287745310966326e7 -4.68215514458452e6 0.0
0.0 0.0 0.0

-1.431711009562395e7 3.966839795225346e7 0.0
3.966839795225346e7 5.2207372038357e6 0.0
0.0 0.0 0.0

-1.021482273318472e7 2.13613950273182e6 0.0
2.13613950273182e6 2.6348993027106404e7 0.0
0.0 0.0 0.0

1.1936585167725623e7 2.9407368220015965e7 0.0
2.9407368220015965e7 -5.329454143442286e6 0.0
0.0 0.0 0.0

-3.428542936730478e6 1.0560831456077868e7 0.0
1.0560831456077868e7 7.697141767154387e7 0.0
0.0 0.0 0.0

-9.225089176500484e6 -2.1579538426925577e6 0.0
-2.1579538426925577e6 3.0131251462182254e7 0.0
0.0 0.0 0.0

-1.3171840475481803e7 1.9577009939080473e7 0.0
1.9577009939080473e7 -5.4300023430672646e7 0.0
0.0 0.0 0.0

-330138.43738413556 2.005189180639949e7 0.0
2.005189180639949e7 -1.1499589242952844e7 0.0
0.0 0.0 0.0

-273035.0841018716 2.9239844552861754e7 0.0
2.9239844552861754e7 -1.4342743758429985e6 0.0
0.0 0.0 0.0

-7.649858533771712e6 1.9402659054050572e7 0.0
1.9402659054050572e7 -9.419815862483019e6 0.0
0.0 0.0 0.0

-783370.0071119585 1.0348071448522279e7 0.0
1.0348071448522279e7 -2.576613529987301e6 0.0
0.0 0.0 0.0

-1.4669094473449704e6 2.6026483586580273e7 0.0
2.6026483586580273e7 -2.873885316845066e6 0.0
0.0 0.0 0.0

-3.0586289331794493e6 3.091569389929641e7 0.0
3.091569389929641e7 2.7312926131892474e6 0.0
0.0 0.0 0.0

-10705.522115811007 2.940395479273709e7 0.0
2.940395479273709e7 -1.8291997278464888e6 0.0
0.0 0.0 0.0

-3.718014569762185e6 1.163991728993375e7 0.0
1.163991728993375e7 -7.623215598917103e7 0.0
0.0 0.0 0.0

-5.427156500416834e6 1.925776704300869e7 0.0
1.925776704300869e7 -1.861055501335119e7 0.0
0.0 0.0 0.0

-6.800290958829831e6 2.549032914440064e6 0.0
2.549032914440064e6 5.753369581310231e7 0.0
0.0 0.0 0.0

1.29988201831487e7 2.2640895401912924e7 0.0
2.2640895401912924e7 6.093642851614512e7 0.0
0.0 0.0 0.0

-4.8467962685779944e7 3.5928817690152875e6 0.0
3.5928817690152875e6 6.476523491174873e6 0.0
0.0 0.0 0.0

3.926101372906681e7 2.7423091382179044e7 0.0
2.7423091382179044e7 6.289278118288964e6 0.0
0.0 0.0 0.0

-1143.3105043452233 1.565247612980048e7 0.0
1.565247612980048e7 -2.8134467101263322e7 0.0
0.0 0.0 0.0

2.233425023063568e6 5.541820809715801e6 0.0
5.541820809715801e6 -8.50642410163812e6 0.0
0.0 0.0 0.0

5.337953449818829e7 2.60131502696483e7 0.0
2.60131502696483e7 -1.9623253680660576e6 0.0
0.0 0.0 0.0

3.0691149163108654e6 1.1876527371686459e7 0.0
1.1876527371686459e7 -2.3105658792095818e7 0.0
0.0 0.0 0.0

2.9209713851728056e7 2.4166066142256178e7 0.0
2.4166066142256178e7 1.2052663898738794e7 0.0
0.0 0.0 0.0

-1.783823200480274e6 2.7048013880341455e7 0.0
2.7048013880341455e7 -1.1012047816749134e6 0.0
0.0 0.0 0.0

-4.522485683196757e6 2.7033390659126665e7 0.0
2.7033390659126665e7 6.822348447550612e6 0.0
0.0 0.0 0.0

-843316.8863202301 1.3718582948125105e7 0.0
1.3718582948125105e7 -9.434147633102454e6 0.0
0.0 0.0 0.0

-6.8797909897555e6 1.4271853939211296e7 0.0
1.4271853939211296e7 -4.57545590375237e6 0.0
0.0 0.0 0.0

-5.227522206081425e6 1.785834795502486e7 0.0
1.785834795502486e7 -1.951173283352482e7 0.0
0.0 0.0 0.0

-1.9217411774052344e6 2.1044234444870677e7 0.0
2.1044234444870677e7 8.628062203042084e6 0.0
0.0 0.0 0.0

2.935842943937223e6 2.0836922547413483e7 0.0
2.0836922547413483e7 1.031853745429785e7 0.0
0.0 0.0 0.0

-3.964334883710917e6 9.110870457117917e6 0.0
9.110870457117917e6 7.222275492723617e7 0.0
0.0 0.0 0.0

-2.2322343272469863e6 2.5362566017477207e7 0.0
2.5362566017477207e7 -613913.0145767003 0.0
0.0 0.0 0.0

3.5944261037781425e6 1.9938996938751696e6 0.0
1.9938996938751696e6 -3.0537889294240076e7 0.0
0.0 0.0 0.0

-3.381596031969934e6 2.182660429558115e7 0.0
2.182660429558115e7 1.5432034064964168e7 0.0
0.0 0.0 0.0

1.8812658955180522e6 2.081982859114496e7 0.0
2.081982859114496e7 1.1883807082576426e7 0.0
0.0 0.0 0.0

1.1946256825162644e7 2.5023233834908687e7 0.0
2.5023233834908687e7 -4.230642684144858e6 0.0
0.0 0.0 0.0

400852.21456172364 2.454018992966185e7 0.0
2.454018992966185e7 -7.91322527326855e6 0.0
0.0 0.0 0.0

-3.986771891452874e6 3.437109353127453e7 0.0
3.437109353127453e7 1.841358872249934e6 0.0
0.0 0.0 0.0

-2.609901636367359e6 7.701008020636354e6 0.0
7.701008020636354e6 -1.0680905017255978e6 0.0
0.0 0.0 0.0

-1.167338191968461e7 3.21789879484016e7 0.0
3.21789879484016e7 5.2933281114918105e6 0.0
0.0 0.0 0.0

-2.165906576041706e6 2.7681148773231868e7 0.0
2.7681148773231868e7 2.895975699919832e6 0.0
0.0 0.0 0.0

-8.405165862966776e6 1.75839152238099e7 0.0
1.75839152238099e7 2.255486649135375e7 0.0
0.0 0.0 0.0

3.2286808996199682e7 2.4127766047248393e7 0.0
2.4127766047248393e7 116558.61637682654 0.0
0.0 0.0 0.0

714179.9111386109 1.9007968250886455e7 0.0
1.9007968250886455e7 -1.4777457150260571e7 0.0
0.0 0.0 0.0

-2.0792575503474327e6 2.6804127364269435e7 0.0
2.6804127364269435e7 -364802.37045434053 0.0
0.0 0.0 0.0

-586539.9709722511 1.2509021476736011e7 0.0
1.2509021476736011e7 -9.782066319076478e6 0.0
0.0 0.0 0.0

-1.354570432407138e6 2.0681434505022198e7 0.0
2.0681434505022198e7 1.3575358612776719e7 0.0
0.0 0.0 0.0

-1.0862296455356658e7 1.522811963092927e7 0.0
1.522811963092927e7 -1.489732699525877e6 0.0
0.0 0.0 0.0

-1.2181244322497414e7 2.2134704842198603e7 0.0
2.2134704842198603e7 -4.9513371023000125e6 0.0
0.0 0.0 0.0

213366.04230245156 1.9748338375670984e7 0.0
1.9748338375670984e7 -1.1464759107351577e7 0.0
0.0 0.0 0.0

9.908281095231043e6 1.5855687391013248e7 0.0
1.5855687391013248e7 4.537071754339518e6 0.0
0.0 0.0 0.0

-24460.824522505514 1.8447519806974802e7 0.0
1.8447519806974802e7 -1.839660174620522e7 0.0
0.0 0.0 0.0

-3.8095269270995846e6 1.9748303101246413e7 0.0
1.9748303101246413e7 2.2741743535843883e7 0.0
0.0 0.0 0.0

-1.6408873826301673e7 2.1084638340834524e7 0.0
2.1084638340834524e7 707018.9697454851 0.0
0.0 0.0 0.0

-2.6911562027739855e6 2.0831067781610187e7 0.0
2.0831067781610187e7 3.566482444228557e6 0.0
0.0 0.0 0.0

-1.2128358811229102e7 7.677763119371384e6 0.0
7.677763119371384e6 2.4306172889499668e7 0.0
0.0 0.0 0.0

2.420016115071439e6 1.888245471286356e7 0.0
1.888245471286356e7 1.9488611692870863e7 0.0
0.0 0.0 0.0

1.445067342029269e7 3.2097712513420355e7 0.0
3.2097712513420355e7 -6.816364139336456e6 0.0
0.0 0.0 0.0

-3.951141944633613e7 2.6762902380584538e7 0.0
2.6762902380584538e7 1.8364619224283062e6 0.0
0.0 0.0 0.0

9.310575366160309e6 3.966359300724361e7 0.0
3.966359300724361e7 -3.488588274776139e6 0.0
0.0 0.0 0.0

-1.3940334993983146e7 2.4217770013305508e7 0.0
2.4217770013305508e7 -93909.00050796196 0.0
0.0 0.0 0.0

5.4534776106260475e6 3.610879807418097e7 0.0
3.610879807418097e7 -2.113467749438097e6 0.0
0.0 0.0 0.0

-1.16581702559167e7 3.771903564103782e6 0.0
3.771903564103782e6 2.3786143511142775e7 0.0
0.0 0.0 0.0

1.4842453209083766e7 2.3934465197986394e7 0.0
2.3934465197986394e7 -2.5212355370626273e6 0.0
0.0 0.0 0.0

-3.862464693749197e6 3.2284877140533227e7 0.0
3.2284877140533227e7 3.55936946445533e6 0.0
0.0 0.0 0.0

-4.9548591473093005e6 2.1732656891931474e7 0.0
2.1732656891931474e7 1.0101735227045598e6 0.0
0.0 0.0 0.0

-332413.84610753227 1.72576448479276e7 0.0
1.72576448479276e7 -2.3326850984840617e7 0.0
0.0 0.0 0.0

-6.238140244367911e6 2.922164259332572e7 0.0
2.922164259332572e7 5.792856048256491e6 0.0
0.0 0.0 0.0

-7.595146063749034e6 1.9109470178137403e7 0.0
1.9109470178137403e7 -5.619460715118095e6 0.0
0.0 0.0 0.0

4.679248054140787e6 3.542351157781187e7 0.0
3.542351157781187e7 -3.9732175436441014e6 0.0
0.0 0.0 0.0

-1.4887399399358828e7 3.261776155733056e7 0.0
3.261776155733056e7 6.418317094402028e6 0.0
0.0 0.0 0.0

1.0168158976530127e7 2.423665979041157e7 0.0
2.423665979041157e7 -3.794530823551074e6 0.0
0.0 0.0 0.0

3.5129818113033744e6 5.720353970986927e6 0.0
5.720353970986927e6 -1.7562783738028158e7 0.0
0.0 0.0 0.0

-5.847949098140606e6 1.7726318789834715e7 0.0
1.7726318789834715e7 -3.39518976507911e7 0.0
0.0 0.0 0.0

3.2078200160703817e6 4.06206419466433e6 0.0
4.06206419466433e6 -1.5001653543091124e7 0.0
0.0 0.0 0.0

4.861145523852669e6 1.831687714250679e7 0.0
1.831687714250679e7 2.809473547900187e7 0.0
0.0 0.0 0.0

5.272124697255006e6 2.241266270967843e7 0.0
2.241266270967843e7 -3.883181540943446e6 0.0
0.0 0.0 0.0

9.108060725125238e6 2.971399308816284e7 0.0
2.971399308816284e7 -5.280968574378215e6 0.0
0.0 0.0 0.0

-8.439186746915104e6 1.76272695987899e7 0.0
1.76272695987899e7 2.5902678677373886e7 0.0
0.0 0.0 0.0

-54747.959340306 1.437223363646068e7 0.0
1.437223363646068e7 -8.443841496497765e6 0.0
0.0 0.0 0.0

39689.329825702356 9.132465433825748e6 0.0
9.132465433825748e6 4.440304163943573e6 0.0
0.0 0.0 0.0

-479936.53957284987 1.0922716533395015e7 0.0
1.0922716533395015e7 -5.77503108531374e7 0.0
0.0 0.0 0.0

2.1569596203728532e6 1.6121200230960768e7 0.0
1.6121200230960768e7 6.542503733605423e6 0.0
0.0 0.0 0.0

-1.4292599989095595e7 2.924587181514077e7 0.0
2.924587181514077e7 5.325909959617684e6 0.0
0.0 0.0 0.0

-1.289114259632383e6 1.845105395381758e7 0.0
1.845105395381758e7 -1.3044994671813218e7 0.0
0.0 0.0 0.0

2.466193707612479e7 2.3203997858736563e7 0.0
2.3203997858736563e7 1.0033074476097604e7 0.0
0.0 0.0 0.0

-1.0713829019877855e7 6.530889363695453e6 0.0
6.530889363695453e6 3.155644357795511e7 0.0
0.0 0.0 0.0

-3.2577092483173385e7 3.0313813961099938e7 0.0
3.0313813961099938e7 1.8004317317766119e6 0.0
0.0 0.0 0.0

3.0947667828455072e7 3.3527312379065532e7 0.0
3.3527312379065532e7 -9.745205290728146e6 0.0
0.0 0.0 0.0

-4.760136272804057e6 2.7154242817264944e7 0.0
2.7154242817264944e7 7.585074255495958e6 0.0
0.0 0.0 0.0

-39673.00635636016 1.6716647767479636e7 0.0
1.6716647767479636e7 2.513379393244819e6 0.0
0.0 0.0 0.0

-6.991946323078312e6 1.6639517329613492e7 0.0
1.6639517329613492e7 3.193814486200607e7 0.0
0.0 0.0 0.0

-9.733026599933079e6 -959133.7611394803 0.0
-959133.7611394803 3.1050501857059132e7 0.0
0.0 0.0 0.0

197733.4179264186 1.862581472682975e7 0.0
1.862581472682975e7 -1.609215692585832e7 0.0
0.0 0.0 0.0

-9.87884957486713e6 2.5040925886394873e7 0.0
2.5040925886394873e7 -1.1317604924106224e7 0.0
0.0 0.0 0.0

-121369.82390169939 1.8993668170927208e7 0.0
1.8993668170927208e7 -1.0719744608946195e7 0.0
0.0 0.0 0.0

-6.036367226312228e6 1.1335920722445004e7 0.0
1.1335920722445004e7 5.001458591823637e7 0.0
0.0 0.0 0.0

514507.86166501045 1.4647302677680438e7 0.0
1.4647302677680438e7 -2.761207968330408e7 0.0
0.0 0.0 0.0

-9.796781627011767e6 2.4882452327470392e7 0.0
2.4882452327470392e7 -1.1513421448514776e7 0.0
0.0 0.0 0.0

-386513.8349390561 1.6816899381021105e7 0.0
1.6816899381021105e7 -2.3230822427144855e7 0.0
0.0 0.0 0.0

2.531610049600634e7 2.286876295419075e7 0.0
2.286876295419075e7 1.2242518282113016e7 0.0
0.0 0.0 0.0

-7.654333516035145e6 9.594787420579916e6 0.0
9.594787420579916e6 4.6051583352981575e7 0.0
0.0 0.0 0.0

1.2795238341226592e6 2.0549301521740183e7 0.0
2.0549301521740183e7 -1.0336186195487664e6 0.0
0.0 0.0 0.0

-2.139478024178517e6 2.072128957406183e7 0.0
2.072128957406183e7 1.8634305313429702e7 0.0
0.0 0.0 0.0

3.4961732899936438e6 2.854874757787357e7 0.0
2.854874757787357e7 -4.877062022947919e6 0.0
0.0 0.0 0.0

2.5700470967789534e6 1.0027431481977876e7 0.0
1.0027431481977876e7 -2.816917804163636e7 0.0
0.0 0.0 0.0

1.9804416570500494e6 9.453271728678899e6 0.0
9.453271728678899e6 -1.1895877933648948e7 0.0
0.0 0.0 0.0

-410239.4282901604 1.1431398856163723e7 0.0
1.1431398856163723e7 -4.998337914680845e7 0.0
0.0 0.0 0.0

-9.657953519925106e6 2.3263864814446814e7 0.0
2.3263864814446814e7 -4.406671301752372e6 0.0
0.0 0.0 0.0

-9.050474942870144e6 9.35732808569006e6 0.0
9.35732808569006e6 4.142790407643881e7 0.0
0.0 0.0 0.0

-8.428905631128171e6 2.304930937577848e7 0.0
2.304930937577848e7 -8.064648807240375e6 0.0
0.0 0.0 0.0

-16296.918492477387 1.8001310156611294e7 0.0
1.8001310156611294e7 -1.1114130919806978e7 0.0
0.0 0.0 0.0

944894.0495354552 8.900839839701176e6 0.0
8.900839839701176e6 -4.396546669084546e7 0.0
0.0 0.0 0.0

-7.960799039397057e6 1.550934099021105e7 0.0
1.550934099021105e7 3.2805139933048125e7 0.0
0.0 0.0 0.0

3.286731222774581e6 1.7824488468118936e7 0.0
1.7824488468118936e7 1.2665188905686544e7 0.0
0.0 0.0 0.0

-422653.0064765718 1.3064668232318085e7 0.0
1.3064668232318085e7 -3.6584981371769466e7 0.0
0.0 0.0 0.0

3.132771960574804e6 2.7149132470550505e6 0.0
2.7149132470550505e6 -3.404721093203561e7 0.0
0.0 0.0 0.0

-3.71910010395673e6 2.1317942831940055e7 0.0
2.1317942831940055e7 1.5398955621802337e7 0.0
0.0 0.0 0.0

-7.939681832586735e6 2.3675794368513662e7 0.0
2.3675794368513662e7 -1.089511210335457e7 0.0
0.0 0.0 0.0

1.2112691107483553e6 1.3391774197903719e7 0.0
1.3391774197903719e7 -1.386878195004604e7 0.0
0.0 0.0 0.0

-9.388882523249367e6 2.83922587993282e6 0.0
2.83922587993282e6 3.815377194593223e7 0.0
0.0 0.0 0.0

-3.1736739361001807e6 1.5648486503506869e6 0.0
1.5648486503506869e6 5.657514923688082e6 0.0
0.0 0.0 0.0

-6.169209122675573e6 1.9596651576237604e7 0.0
1.9596651576237604e7 1.8671695789979056e7 0.0
0.0 0.0 0.0

2.6881791992010403e7 2.538024595643957e7 0.0
2.538024595643957e7 1.560638070458899e7 0.0
0.0 0.0 0.0

2.0431643482077654e7 2.3386915783818908e7 0.0
2.3386915783818908e7 1.2026398015500378e7 0.0
0.0 0.0 0.0

-1.52498429938933e7 2.4078482388794467e7 0.0
2.4078482388794467e7 -9.955514076989595e6 0.0
0.0 0.0 0.0

-3.836084144232885e6 1.6421715928013608e7 0.0
1.6421715928013608e7 -1.2289916423663616e7 0.0
0.0 0.0 0.0

-8.774795907445394e6 2.4110496501920637e7 0.0
2.4110496501920637e7 -9.352201233244695e6 0.0
0.0 0.0 0.0

-9.289865732070856e6 2.267254178011952e7 0.0
2.267254178011952e7 -9.523573479780491e6 0.0
0.0 0.0 0.0

-228482.0106531456 1.2066052575138966e7 0.0
1.2066052575138966e7 -4.436077117178842e7 0.0
0.0 0.0 0.0

-1.0016217043843423e6 4.213656503618268e6 0.0
4.213656503618268e6 -1.7214966266343629e6 0.0
0.0 0.0 0.0

-795193.2139788043 6.999818015000876e6 0.0
6.999818015000876e6 36050.88063518627 0.0
0.0 0.0 0.0

1.1391627265682574e6 1.72283297432835e7 0.0
1.72283297432835e7 1.7667526428034222e6 0.0
0.0 0.0 0.0

1.824728103094849e7 2.3595935792028956e7 0.0
2.3595935792028956e7 1.1573079834624723e7 0.0
0.0 0.0 0.0

1.1912618756427122e6 1.79685245597344e7 0.0
1.79685245597344e7 8.103318139042269e6 0.0
0.0 0.0 0.0

-4.564050030031561e6 2.0508977031252388e7 0.0
2.0508977031252388e7 1.592207023860782e7 0.0
0.0 0.0 0.0

-2.4318550535246465e7 1.2063737834710587e7 0.0
1.2063737834710587e7 8.668017168485265e6 0.0
0.0 0.0 0.0

2.3760705958254496e6 1.787563439840967e7 0.0
1.787563439840967e7 9.951124782999745e6 0.0
0.0 0.0 0.0

2.655343557105569e6 6.259941364365511e6 0.0
6.259941364365511e6 -1.838434705515445e7 0.0
0.0 0.0 0.0

-1.4238331366702626e7 3.0949837351096645e7 0.0
3.0949837351096645e7 6.029397969891681e6 0.0
0.0 0.0 0.0

-8.857533032648979e6 873809.1522081702 0.0
873809.1522081702 4.037282053161143e7 0.0
0.0 0.0 0.0

-1.6225775815458642e6 2.0131490353374712e7 0.0
2.0131490353374712e7 -9.080492739061778e6 0.0
0.0 0.0 0.0

8.366996179435845e6 2.148454157695487e7 0.0
2.148454157695487e7 1.1650698413809957e7 0.0
0.0 0.0 0.0

-7.547940863738876e6 2.341958416127055e7 0.0
2.341958416127055e7 -1.0903152284388786e7 0.0
0.0 0.0 0.0

-2.978938421785525e6 1.6554685339223493e7 0.0
1.6554685339223493e7 -2.8610079388489842e7 0.0
0.0 0.0 0.0

2.1306205685046285e7 2.450300066242668e7 0.0
2.450300066242668e7 1.4452428331597362e7 0.0
0.0 0.0 0.0

-2.9511213809446124e6 1.8357081093855117e7 0.0
1.8357081093855117e7 -2.083821030891187e7 0.0
0.0 0.0 0.0

1.6194960422856393e6 1.8840746606279407e7 0.0
1.8840746606279407e7 1.1712884206021989e7 0.0
0.0 0.0 0.0

4.227490899531008e6 2.0909447638353344e7 0.0
2.0909447638353344e7 1.465508517347639e7 0.0
0.0 0.0 0.0

-3.412854810459923e6 2.11069592953666e7 0.0
2.11069592953666e7 1.6351989459573776e7 0.0
0.0 0.0 0.0

-2.6249058754654108e6 2.1032126915938918e7 0.0
2.1032126915938918e7 1.092470281864445e7 0.0
0.0 0.0 0.0

2.7098402805491034e6 5.475306281702569e6 0.0
5.475306281702569e6 -3.276263102045473e7 0.0
0.0 0.0 0.0

753000.5936163939 3.0711202596336212e7 0.0
3.0711202596336212e7 -1.9587369607698293e6 0.0
0.0 0.0 0.0

-5.93354691708147e6 2.0013627507382743e7 0.0
2.0013627507382743e7 -1.5069818049878886e7 0.0
0.0 0.0 0.0

3.0816449364697278e7 2.1454345029459607e7 0.0
2.1454345029459607e7 1.2033458138312126e7 0.0
0.0 0.0 0.0

-8.457341277898103e6 2.8389090959476385e7 0.0
2.8389090959476385e7 6.363441455558784e6 0.0
0.0 0.0 0.0

2.892007140631158e6 4.513217878047594e6 0.0
4.513217878047594e6 -3.787494897217013e7 0.0
0.0 0.0 0.0

-3.004583479606624e6 1.881763158233414e7 0.0
1.881763158233414e7 6.463817225750148e6 0.0
0.0 0.0 0.0

1.5484921262026498e7 2.1260920868911847e7 0.0
2.1260920868911847e7 8.374670518573027e6 0.0
0.0 0.0 0.0

3.972254014828027e7 1.9757937466898836e7 0.0
1.9757937466898836e7 9.411399438670414e6 0.0
0.0 0.0 0.0

-5.3220857608510675e6 3.2140993940143544e7 0.0
3.2140993940143544e7 4.515579357097418e6 0.0
0.0 0.0 0.0

404677.75999904517 1.932484847402006e7 0.0
1.932484847402006e7 -1.7221827265187543e7 0.0
0.0 0.0 0.0

-1.0868588105541348e7 1.0834534315930806e7 0.0
1.0834534315930806e7 2.0661866141698204e7 0.0
0.0 0.0 0.0

-9.300597807978004e6 1.0056911952964807e6 0.0
1.0056911952964807e6 3.874194350602418e7 0.0
0.0 0.0 0.0

1.924692557905951e6 1.792273054764449e7 0.0
1.792273054764449e7 6.872087382971459e6 0.0
0.0 0.0 0.0

1.223323371271602e7 1.815291133059472e7 0.0
1.815291133059472e7 9.844588415744137e6 0.0
0.0 0.0 0.0

-1.0675579699618144e7 4.222604325388382e6 0.0
4.222604325388382e6 3.018410976050283e7 0.0
0.0 0.0 0.0

-3.052487550041559e6 1.2878819019549318e7 0.0
1.2878819019549318e7 -1.7942927101968718e6 0.0
0.0 0.0 0.0

-3.863573931296053e6 2.016594569124687e7 0.0
2.016594569124687e7 -1.3971434733264314e7 0.0
0.0 0.0 0.0

-4.0673677640015315e6 1.6909815643115945e7 0.0
1.6909815643115945e7 -2.6588745631470855e7 0.0
0.0 0.0 0.0

-184464.24450486497 3.0048987103476346e7 0.0
3.0048987103476346e7 -1.562345040869851e6 0.0
0.0 0.0 0.0

4.333770216534601e6 2.912618717019779e7 0.0
2.912618717019779e7 -5.100140420815347e6 0.0
0.0 0.0 0.0

4.1833142488136906e6 3.868547360607861e7 0.0
3.868547360607861e7 -3.682000954877476e6 0.0
0.0 0.0 0.0

-1.4078514151016023e7 3.734728956035293e7 0.0
3.734728956035293e7 6.41413693193607e6 0.0
0.0 0.0 0.0

7.402664227012996e6 1.8872508297743544e7 0.0
1.8872508297743544e7 2.8011914304912128e7 0.0
0.0 0.0 0.0

-7.56079985792747e6 1.7217694578562453e7 0.0
1.7217694578562453e7 -7.335766865592553e7 0.0
0.0 0.0 0.0

-1.0598718808050666e7 -464507.80186035665 0.0
-464507.80186035665 2.1825146775908586e7 0.0
0.0 0.0 0.0

-9.23474352986859e6 1.5998685276249642e7 0.0
1.5998685276249642e7 -3.1877335595940765e7 0.0
0.0 0.0 0.0

-4.176283574495961e6 1.5503494231211713e7 0.0
1.5503494231211713e7 -1.4069677503524963e7 0.0
0.0 0.0 0.0

5.820033419944925e6 1.9266179329395637e7 0.0
1.9266179329395637e7 2.7113148893511537e7 0.0
0.0 0.0 0.0

-8.838966759869583e6 1.778775582574203e7 0.0
1.778775582574203e7 -3.797497727611315e7 0.0
0.0 0.0 0.0

-6.76129185988028e6 1.6334599773728155e7 0.0
1.6334599773728155e7 -2.6834094358026702e7 0.0
0.0 0.0 0.0

1.7766254386012383e7 2.329047809927451e7 0.0
2.329047809927451e7 1.00422362185649e7 0.0
0.0 0.0 0.0

-5.390654200934107e6 2.056373758635826e7 0.0
2.056373758635826e7 -1.3466573372478636e7 0.0
0.0 0.0 0.0

2.4626546759676635e6 9.22872687907077e6 0.0
9.22872687907077e6 -3.167620892174327e7 0.0
0.0 0.0 0.0

1.227703888741602e6 1.8015931980799124e7 0.0
1.8015931980799124e7 3.7785305535394545e6 0.0
0.0 0.0 0.0

-9.210398022332435e6 2.4170789341847334e7 0.0
2.4170789341847334e7 -1.1505063938852787e7 0.0
0.0 0.0 0.0

4.333325240013805e6 1.7605174072257273e7 0.0
1.7605174072257273e7 1.7214603629711792e7 0.0
0.0 0.0 0.0

3.2898198429345675e6 4.0727777621911857e6 0.0
4.0727777621911857e6 -1.542218802944612e7 0.0
0.0 0.0 0.0

-2.3059792848345474e6 2.6568467616589997e7 0.0
2.6568467616589997e7 487389.0914564199 0.0
0.0 0.0 0.0

-3.7392293569224575e6 3.0215998556276362e7 0.0
3.0215998556276362e7 2.619713162879644e6 0.0
0.0 0.0 0.0

-8.38107399622334e6 1.570590568699916e7 0.0
1.570590568699916e7 3.159818317396594e7 0.0
0.0 0.0 0.0

1.7762775406211352e6 1.9250200589457206e7 0.0
1.9250200589457206e7 8.903971441358045e6 0.0
0.0 0.0 0.0

4.0747886940725506e6 2.1198840744978696e7 0.0
2.1198840744978696e7 1.5513227029230962e7 0.0
0.0 0.0 0.0

-3.779107762396926e6 3.38666645498499e7 0.0
3.38666645498499e7 2.9915745795893418e6 0.0
0.0 0.0 0.0

-4.337084717189394e6 2.0394317104390256e7 0.0
2.0394317104390256e7 1.6547986300191386e7 0.0
0.0 0.0 0.0

-1.0062147851874053e7 -1.7760306596076728e6 0.0
-1.7760306596076728e6 2.527523847602104e7 0.0
0.0 0.0 0.0

-3.312065629424256e6 3.0075118656164754e7 0.0
3.0075118656164754e7 3.9551161467263205e6 0.0
0.0 0.0 0.0

-852818.0655004231 2.5756682793523554e7 0.0
2.5756682793523554e7 -2.5303863364039892e6 0.0
0.0 0.0 0.0

-3.3254649405185133e6 2.046061657592058e7 0.0
2.046061657592058e7 2.8155465971760703e6 0.0
0.0 0.0 0.0

465634.05761710904 3.03777583035563e7 0.0
3.03777583035563e7 -2.0653008264723837e6 0.0
0.0 0.0 0.0

413172.35975687066 2.9775425661841523e7 0.0
2.9775425661841523e7 -1.6795218436582119e6 0.0
0.0 0.0 0.0

-2.0340712663500346e6 1.947258382636567e7 0.0
1.947258382636567e7 -1.0083546640057936e7 0.0
0.0 0.0 0.0

3.5992889768860587e6 1.947916248917589e7 0.0
1.947916248917589e7 1.1997630501527296e7 0.0
0.0 0.0 0.0

2.1498409124456327e6 9.084483963073824e6 0.0
9.084483963073824e6 -2.9726973005739883e7 0.0
0.0 0.0 0.0

-1.2132307616368782e7 1.6903391384816073e7 0.0
1.6903391384816073e7 -4.560639821466336e7 0.0
0.0 0.0 0.0

-4.400141209770523e6 2.2096840456017308e7 0.0
2.2096840456017308e7 3.4151493898692913e6 0.0
0.0 0.0 0.0

-3.5287518718043156e7 3.3080095603079773e7 0.0
3.3080095603079773e7 -1.2673583775895163e7 0.0
0.0 0.0 0.0

-7.150790575248792e6 1.7369931838211346e7 0.0
1.7369931838211346e7 -2.5512231354737602e7 0.0
0.0 0.0 0.0

-3.9569533124513805e7 3.2430359045377787e7 0.0
3.2430359045377787e7 -6.593544754541378e6 0.0
0.0 0.0 0.0

-3.723798773369451e6 2.2688621018843196e7 0.0
2.2688621018843196e7 1.1720153657714121e7 0.0
0.0 0.0 0.0

-8.157168137577267e6 -191149.5002223779 0.0
-191149.5002223779 4.478354540350725e7 0.0
0.0 0.0 0.0

2.793794447790255e6 2.8414054433205582e7 0.0
2.8414054433205582e7 -4.822141565632882e6 0.0
0.0 0.0 0.0

-1.5456902528817307e7 2.602965887230053e7 0.0
2.602965887230053e7 -1.045680629636032e7 0.0
0.0 0.0 0.0

305001.18981634546 1.9925557333755765e7 0.0
1.9925557333755765e7 -1.5661524183345202e7 0.0
0.0 0.0 0.0

-1.1390886735287255e7 3.1005460458682816e7 0.0
3.1005460458682816e7 5.827598644947312e6 0.0
0.0 0.0 0.0

-1.1572127017736474e7 7.450263527198785e6 0.0
7.450263527198785e6 2.408226086301606e7 0.0
0.0 0.0 0.0

1.4643837292391844e6 1.0118511467361452e7 0.0
1.0118511467361452e7 -3.723712702658146e7 0.0
0.0 0.0 0.0

-1.491208048791621e7 3.069737570367924e7 0.0
3.069737570367924e7 5.643219570087535e6 0.0
0.0 0.0 0.0

1.3535752881933595e6 1.8715051912443306e7 0.0
1.8715051912443306e7 5.746453725416908e6 0.0
0.0 0.0 0.0

-1.2145370982395902e7 9.463805702211298e6 0.0
9.463805702211298e6 1.898074945069246e7 0.0
0.0 0.0 0.0

-703564.4260967616 1.828718328599867e7 0.0
1.828718328599867e7 -1.1569870429870443e7 0.0
0.0 0.0 0.0

2.617374934751257e6 2.6991027541923314e7 0.0
2.6991027541923314e7 -5.634712796292324e6 0.0
0.0 0.0 0.0

-2.604146405551149e7 1.258303886664545e7 0.0
1.258303886664545e7 8.316024844980549e6 0.0
0.0 0.0 0.0

-6.129683392405834e6 2.8565526444804307e7 0.0
2.8565526444804307e7 6.531348218450801e6 0.0
0.0 0.0 0.0

-278772.37662474625 1.9015272941812743e7 0.0
1.9015272941812743e7 -1.8345702040410027e7 0.0
0.0 0.0 0.0

2.2416979978163596e6 9.340920956785168e6 0.0
9.340920956785168e6 -2.634156750696943e7 0.0
0.0 0.0 0.0

-7471.119546742877 4.885239594367461e6 0.0
4.885239594367461e6 -4.201322264388191e6 0.0
0.0 0.0 0.0

945717.1654900396 1.706540379642098e7 0.0
1.706540379642098e7 -2.016006949777401e7 0.0
0.0 0.0 0.0

-2.1622712159416046e7 2.6007033667203538e7 0.0
2.6007033667203538e7 -4.540869946348144e6 0.0
0.0 0.0 0.0

6.590120562527331e6 3.840379460660102e7 0.0
3.840379460660102e7 -2.920258230436083e6 0.0
0.0 0.0 0.0

1.1329319631496202e6 1.8732485039128456e7 0.0
1.8732485039128456e7 3.1569427857395295e7 0.0
0.0 0.0 0.0

2.751511453375036e6 1.9634100745315444e7 0.0
1.9634100745315444e7 1.0936344571828537e7 0.0
0.0 0.0 0.0

7.686080738353585e6 1.6889542740526967e7 0.0
1.6889542740526967e7 2.7264965325803082e7 0.0
0.0 0.0 0.0

-3.8959563638583305e6 1.92295511056345e7 0.0
1.92295511056345e7 -1.298652152641179e7 0.0
0.0 0.0 0.0

-8.497677400982585e6 1.5269288306998914e7 0.0
1.5269288306998914e7 3.2411830519548833e7 0.0
0.0 0.0 0.0

-3.0031495296570975e6 1.7601679646716602e7 0.0
1.7601679646716602e7 -1.388789724642244e7 0.0
0.0 0.0 0.0

-2.6219794369664457e7 3.4166091183761664e7 0.0
3.4166091183761664e7 7.766208364383873e6 0.0
0.0 0.0 0.0

-9.792629609916568e6 4.225510398914434e6 0.0
4.225510398914434e6 3.620661110665654e7 0.0
0.0 0.0 0.0

-8.113238194876306e6 -208954.92330223005 0.0
-208954.92330223005 4.544121928924866e7 0.0
0.0 0.0 0.0

675188.8428390548 1.3220744053236175e7 0.0
1.3220744053236175e7 -1.575474380481913e7 0.0
0.0 0.0 0.0

707872.6335544543 3.4117921879316615e6 0.0
3.4117921879316615e6 -75854.33064943444 0.0
0.0 0.0 0.0

436392.8771502115 9.808748657030955e6 0.0
9.808748657030955e6 -4.6697169364527e7 0.0
0.0 0.0 0.0

-8.19580678667834e6 1.2628320328241734e7 0.0
1.2628320328241734e7 3.8900195560096756e7 0.0
0.0 0.0 0.0

229935.26438318007 1.2307542425255649e7 0.0
1.2307542425255649e7 -3.626767273044373e7 0.0
0.0 0.0 0.0

-9.634611553061232e6 207297.18157628764 0.0
207297.18157628764 2.9895362458386526e7 0.0
0.0 0.0 0.0

-3.1563766995764803e6 2.754700698641508e7 0.0
2.754700698641508e7 3.1125088260499826e6 0.0
0.0 0.0 0.0

3.4031778734312844e6 2.748497099229941e7 0.0
2.748497099229941e7 -5.508806651239207e6 0.0
0.0 0.0 0.0

-3.6712598418093235e6 3.181295856394635e7 0.0
3.181295856394635e7 1.9698795277189875e6 0.0
0.0 0.0 0.0

3.6873788590794243e6 3.734912321178354e7 0.0
3.734912321178354e7 -2.2041012081779046e6 0.0
0.0 0.0 0.0

1.3481651489334377e6 3.368987197227798e7 0.0
3.368987197227798e7 -2.30973213275623e6 0.0
0.0 0.0 0.0

-9.3451932462494e6 942163.433875244 0.0
942163.433875244 3.7216015135823935e7 0.0
0.0 0.0 0.0

2.421915915892666e6 4.88721896768192e6 0.0
4.88721896768192e6 -4.062588299885925e7 0.0
0.0 0.0 0.0

594155.1358409389 2.0665701537694912e7 0.0
2.0665701537694912e7 -1.1495307256396739e7 0.0
0.0 0.0 0.0

94130.0032864078 2.215314871792958e7 0.0
2.215314871792958e7 -9.144871847078826e6 0.0
0.0 0.0 0.0

2.0561393837390915e6 1.1975413745873105e7 0.0
1.1975413745873105e7 -2.187234842885303e7 0.0
0.0 0.0 0.0

-6.29399868717709e6 1.5544695246392993e7 0.0
1.5544695246392993e7 -2.088373993507549e7 0.0
0.0 0.0 0.0

1.505265188609947e6 1.7074036445902187e7 0.0
1.7074036445902187e7 5.017550616761456e6 0.0
0.0 0.0 0.0

-3.5817534439361063e6 2.433320022362098e7 0.0
2.433320022362098e7 8.66178683543494e6 0.0
0.0 0.0 0.0

-9.123603495522523e6 2.9348822542165607e7 0.0
2.9348822542165607e7 5.901930880911948e6 0.0
0.0 0.0 0.0

-2.3159837542183073e6 1.75910584306159e7 0.0
1.75910584306159e7 -7.557490326332831e6 0.0
0.0 0.0 0.0

-1.3938379199304823e6 1.2962535347130984e7 0.0
1.2962535347130984e7 -2.3617975956634157e6 0.0
0.0 0.0 0.0

3.1828048492426667e6 3.322280236762328e6 0.0
3.322280236762328e6 -3.259180412062729e7 0.0
0.0 0.0 0.0

2.4198556483339253e6 2.0363409454555083e7 0.0
2.0363409454555083e7 -6.005476609647694e6 0.0
0.0 0.0 0.0

2.072177708778398e6 9.72937558144237e6 0.0
9.72937558144237e6 -2.827321414371036e7 0.0
0.0 0.0 0.0

-3.5903974805885567e6 8.366473402404919e6 0.0
8.366473402404919e6 692277.9046935495 0.0
0.0 0.0 0.0

-1.7165231415119113e6 1.1655767968883904e7 0.0
1.1655767968883904e7 -4.97344529220308e6 0.0
0.0 0.0 0.0

-2.860284927313819e6 3.133687444247876e6 0.0
3.133687444247876e6 1.1327181396104249e6 0.0
0.0 0.0 0.0

-2.28820999277809e6 2.5140998574457046e7 0.0
2.5140998574457046e7 3.5094310703571727e6 0.0
0.0 0.0 0.0

-132707.17414893396 1.7653525770526927e7 0.0
1.7653525770526927e7 -2.1536037195619255e7 0.0
0.0 0.0 0.0

-362434.59855289385 9.473065661120364e6 0.0
9.473065661120364e6 -5.397956887304642e7 0.0
0.0 0.0 0.0

-7.328555708273743e6 2.2369541455359794e7 0.0
2.2369541455359794e7 -6.351718230478087e6 0.0
0.0 0.0 0.0

-2.587008612994893e7 2.9828023163784496e7 0.0
2.9828023163784496e7 -1.236303859703675e7 0.0
0.0 0.0 0.0

-1.924904741370575e7 2.991479380498436e7 0.0
2.991479380498436e7 5.046042426606155e6 0.0
0.0 0.0 0.0

-1.0643102144974904e7 2.4988398271728322e7 0.0
2.4988398271728322e7 -1.0875904889448062e7 0.0
0.0 0.0 0.0

-4.517367854462239e6 1.6006266454683745e7 0.0
1.6006266454683745e7 -3.5904510569832616e7 0.0
0.0 0.0 0.0

-7.96264702195375e6 1.678868853612212e7 0.0
1.678868853612212e7 -2.6542157674977027e7 0.0
0.0 0.0 0.0

-2.0015808156485062e7 2.7456180151888687e7 0.0
2.7456180151888687e7 -1.0808074374447335e7 0.0
0.0 0.0 0.0

-1.1500130670809142e7 1.757324619885212e7 0.0
1.757324619885212e7 -3.833377010424964e7 0.0
0.0 0.0 0.0

-6.64754724244952e6 1.9394758844487015e7 0.0
1.9394758844487015e7 2.2028300535845384e7 0.0
0.0 0.0 0.0

-1.086407266190948e7 337216.8820041697 0.0
337216.8820041697 2.0180637552319266e7 0.0
0.0 0.0 0.0

-841868.4819466807 2.539436766912968e7 0.0
2.539436766912968e7 -4.0806173440909768e6 0.0
0.0 0.0 0.0

-4.21907743804621e6 2.178554541178477e7 0.0
2.178554541178477e7 1.3696422843684688e7 0.0
0.0 0.0 0.0

-1.0404204028372124e7 -539350.1871476973 0.0
-539350.1871476973 2.5921285820938878e7 0.0
0.0 0.0 0.0

861871.8212325424 1.4364924772221424e7 0.0
1.4364924772221424e7 -2.7212969325264312e7 0.0
0.0 0.0 0.0

-2.152972435441985e6 2.6074743902079888e7 0.0
2.6074743902079888e7 -488924.5990420002 0.0
0.0 0.0 0.0

493968.5386562785 1.7748806541848253e7 0.0
1.7748806541848253e7 -1.5653648451478528e6 0.0
0.0 0.0 0.0

-4.226389950174348e6 2.7054982119485676e7 0.0
2.7054982119485676e7 6.035991145417583e6 0.0
0.0 0.0 0.0

-1.838279740951428e7 2.7747867728291705e7 0.0
2.7747867728291705e7 -1.1834314697183296e7 0.0
0.0 0.0 0.0

-9.009505076409625e6 1.7059712979529683e7 0.0
1.7059712979529683e7 -3.003168406460016e7 0.0
0.0 0.0 0.0

4.302948387407368e6 2.0867932392759245e7 0.0
2.0867932392759245e7 1.6680033902777204e7 0.0
0.0 0.0 0.0

-2.9426996923949815e7 3.031798769572948e7 0.0
3.031798769572948e7 3.978383405789066e6 0.0
0.0 0.0 0.0

-1.0541795273911359e7 9.662558591894185e6 0.0
9.662558591894185e6 1.9950275610798623e7 0.0
0.0 0.0 0.0

-7.517810765743241e6 1.007395356951408e7 0.0
1.007395356951408e7 4.845120917349869e7 0.0
0.0 0.0 0.0

-2.207627174888922e6 1.9558135218154896e7 0.0
1.9558135218154896e7 -1.0008389804791171e7 0.0
0.0 0.0 0.0

3.0421396906784447e6 3.342664860085531e7 0.0
3.342664860085531e7 -3.267285772898484e6 0.0
0.0 0.0 0.0

7.685477868794072e6 1.7767676906560715e7 0.0
1.7767676906560715e7 2.5618259860459607e7 0.0
0.0 0.0 0.0

2.37255398211796e7 2.017400639315047e7 0.0
2.017400639315047e7 5.212662789400275e6 0.0
0.0 0.0 0.0

-1.4205020408194264e7 2.621572387587788e7 0.0
2.621572387587788e7 -1.1385804399965072e7 0.0
0.0 0.0 0.0

4.603030735917503e6 3.0981596148933705e7 0.0
3.0981596148933705e7 -4.6358431714973515e6 0.0
0.0 0.0 0.0

1.0456676089129394e7 1.7585676413074706e7 0.0
1.7585676413074706e7 3.9775862517884366e7 0.0
0.0 0.0 0.0

1.8106540359637775e6 6.8463354127235925e6 0.0
6.8463354127235925e6 -5.213377258957004e7 0.0
0.0 0.0 0.0

-5.849022860206622e6 2.768884122328301e7 0.0
2.768884122328301e7 7.165543364095385e6 0.0
0.0 0.0 0.0

738057.7021275118 1.644782029412192e7 0.0
1.644782029412192e7 242522.91005977214 0.0
0.0 0.0 0.0

-1.2985548388597041e7 1.821190915954853e7 0.0
1.821190915954853e7 -4.328516298776119e7 0.0
0.0 0.0 0.0

-5.963597076970891e6 2.261084094469512e7 0.0
2.261084094469512e7 -2.3318194975332175e6 0.0
0.0 0.0 0.0

2.74453171815636e6 3.068143163098264e6 0.0
3.068143163098264e6 -4.475215059328573e7 0.0
0.0 0.0 0.0

-797254.6875743582 2.094927381734674e7 0.0
2.094927381734674e7 -9.517424413503421e6 0.0
0.0 0.0 0.0

3.583905338279528e6 2.31220888215164e7 0.0
2.31220888215164e7 -7.824529605369005e6 0.0
0.0 0.0 0.0

2.284447003319963e7 2.3472098748172507e7 0.0
2.3472098748172507e7 648100.4379762532 0.0
0.0 0.0 0.0

-8.0260217132561235e6 1.802677022126742e7 0.0
1.802677022126742e7 2.2563377303920284e7 0.0
0.0 0.0 0.0

-2.1646540572599173e6 1.5843181171818258e7 0.0
1.5843181171818258e7 -6.797366630054435e6 0.0
0.0 0.0 0.0

-8.75382914573017e6 2.3587024294566747e7 0.0
2.3587024294566747e7 -1.091545264473355e7 0.0
0.0 0.0 0.0

-1.1966784048788832e6 2.560131562024958e7 0.0
2.560131562024958e7 -3.581995837348196e6 0.0
0.0 0.0 0.0

-8.016906081271388e6 2.4077272943734406e6 0.0
2.4077272943734406e6 4.819613656945752e7 0.0
0.0 0.0 0.0

-1.9408341475660072e6 1.7817958458313216e7 0.0
1.7817958458313216e7 -9.053707195059493e6 0.0
0.0 0.0 0.0

-1.0518289258909633e7 2.9762556965642493e7 0.0
2.9762556965642493e7 6.023939194650742e6 0.0
0.0 0.0 0.0

1.3487440337720672e6 8.685306335642612e6 0.0
8.685306335642612e6 -1.3055978829066943e7 0.0
0.0 0.0 0.0

9.8042975739602e6 2.0618702274658754e7 0.0
2.0618702274658754e7 1.2664531563047107e7 0.0
0.0 0.0 0.0

-4.486868802607125e7 3.1782199817922853e7 0.0
3.1782199817922853e7 4.325578757349731e6 0.0
0.0 0.0 0.0

2.803442721020544e6 1.6111324899901196e7 0.0
1.6111324899901196e7 9.510443765143799e6 0.0
0.0 0.0 0.0

3.252753748652613e6 7.05947365708147e6 0.0
7.05947365708147e6 -1.7131278127076633e7 0.0
0.0 0.0 0.0

3.929462380111007e6 2.007134541243248e7 0.0
2.007134541243248e7 1.9444613768812615e7 0.0
0.0 0.0 0.0

1.2236444495355622e6 2.4985931085577298e7 0.0
2.4985931085577298e7 -7.177378024365979e6 0.0
0.0 0.0 0.0

1.991639322888119e7 3.1323322846390747e7 0.0
3.1323322846390747e7 -6.120066448794691e6 0.0
0.0 0.0 0.0

-3.686415220961912e6 1.6513238930787409e7 0.0
1.6513238930787409e7 -1.2288051110006426e7 0.0
0.0 0.0 0.0

-3.546408503697015e6 1.7078647994590644e7 0.0
1.7078647994590644e7 8.372039314412155e6 0.0
0.0 0.0 0.0

756251.3485755036 8.79697337395137e6 0.0
8.79697337395137e6 -1.1036248102133239e7 0.0
0.0 0.0 0.0

-4.745423032326894e6 1.8130026731205657e7 0.0
1.8130026731205657e7 -2.5043860575372204e7 0.0
0.0 0.0 0.0

41363.95394742163 2.1257982651304696e7 0.0
2.1257982651304696e7 -9.890690508700669e6 0.0
0.0 0.0 0.0

1.6541818855582748e7 2.388049451856051e7 0.0
2.388049451856051e7 1.2905537015922943e7 0.0
0.0 0.0 0.0

-7.153183962269718e6 2.2799314241646405e7 0.0
2.2799314241646405e7 -1.1316615154233817e7 0.0
0.0 0.0 0.0

3.081745119976485e6 2.29736498285598e7 0.0
2.29736498285598e7 -7.265498466287574e6 0.0
0.0 0.0 0.0

-8.093264731373057e6 3.7005725023042713e6 0.0
3.7005725023042713e6 1.1390864285432864e7 0.0
0.0 0.0 0.0

-362145.6836241591 7.309720467369372e6 0.0
7.309720467369372e6 -172538.47757539764 0.0
0.0 0.0 0.0

9.830425855505e6 2.2491233828691635e7 0.0
2.2491233828691635e7 -1.8284068003773214e6 0.0
0.0 0.0 0.0

2.3287145524396207e6 1.7031026645807706e7 0.0
1.7031026645807706e7 8.10822781886231e6 0.0
0.0 0.0 0.0

5.4080423749286644e7 2.2405368434628207e7 0.0
2.2405368434628207e7 1.4058982805709792e7 0.0
0.0 0.0 0.0

-1.0173863456412079e7 -337358.3935546442 0.0
-337358.3935546442 2.8965915923326686e7 0.0
0.0 0.0 0.0

-1.7569272460105207e7 2.6008373710859038e7 0.0
2.6008373710859038e7 -8.27294205674969e6 0.0
0.0 0.0 0.0

-1.4410808897426825e7 2.422370033273074e7 0.0
2.422370033273074e7 -5.6030439518867545e6 0.0
0.0 0.0 0.0

-3.3215112967568927e7 2.7526442714790046e7 0.0
2.7526442714790046e7 -1.1912216692000367e7 0.0
0.0 0.0 0.0

3.631936317944365e7 5.968846829822836e6 0.0
5.968846829822836e6 -1.866599607337147e6 0.0
0.0 0.0 0.0

-6.204817775067359e6 8.943064689203285e6 0.0
8.943064689203285e6 5.631578004606899e7 0.0
0.0 0.0 0.0

-1.67131043507283e6 1.2298711804913951e7 0.0
1.2298711804913951e7 -869776.5999363007 0.0
0.0 0.0 0.0

-1.6643962888494529e7 2.5354132485724166e7 0.0
2.5354132485724166e7 -1.1248761372351417e7 0.0
0.0 0.0 0.0

-4.241481977354266e6 2.7233312350133907e7 0.0
2.7233312350133907e7 7.161397754035167e6 0.0
0.0 0.0 0.0

-433097.49630588014 2.0846842600435317e7 0.0
2.0846842600435317e7 -1.1234363966339022e7 0.0
0.0 0.0 0.0

1.033199201222809e6 1.402413963467832e7 0.0
1.402413963467832e7 -1.6836065465126794e7 0.0
0.0 0.0 0.0

-85560.60991239944 1.7691651631586332e7 0.0
1.7691651631586332e7 -6.0438968024515435e6 0.0
0.0 0.0 0.0

-7.716917284830955e6 1.5705052522022288e7 0.0
1.5705052522022288e7 -2.8070004087150555e7 0.0
0.0 0.0 0.0

-9.885251234618535e6 1.8345848132034864e7 0.0
1.8345848132034864e7 -6.2150593367900044e7 0.0
0.0 0.0 0.0

1.3166410475145599e7 5.810849191368889e6 0.0
5.810849191368889e6 -2.3253557438019225e6 0.0
0.0 0.0 0.0

9.166052592016123e6 3.1734275627949625e7 0.0
3.1734275627949625e7 -5.365120384928187e6 0.0
0.0 0.0 0.0

-5.857840917317925e6 1.665083295118204e7 0.0
1.665083295118204e7 -1.9526137188283764e7 0.0
0.0 0.0 0.0

1.7941437157645978e7 1.7267242606336292e7 0.0
1.7267242606336292e7 4.441593978755621e6 0.0
0.0 0.0 0.0

-494239.0908832138 1.8615650248582937e7 0.0
1.8615650248582937e7 -7.29780679920339e6 0.0
0.0 0.0 0.0

-733673.2713839612 2.4958429187093455e7 0.0
2.4958429187093455e7 -3.808469397203289e6 0.0
0.0 0.0 0.0

-4.412801665102311e6 1.7823957878527176e7 0.0
1.7823957878527176e7 -1.6509172580296809e7 0.0
0.0 0.0 0.0

-1.941851462825241e7 1.972460676992031e7 0.0
1.972460676992031e7 3.416212825077773e6 0.0
0.0 0.0 0.0

-8.49165931276545e6 -3.5123083566322816e6 0.0
-3.5123083566322816e6 1.4982466795180578e7 0.0
0.0 0.0 0.0

-6.402359061272134e6 1.8894599733613666e7 0.0
1.8894599733613666e7 2.1707997276470326e7 0.0
0.0 0.0 0.0

-468877.40259180835 1.74994337363451e7 0.0
1.74994337363451e7 2.227422419503435e6 0.0
0.0 0.0 0.0

-6.2501279110203e6 1.8364233418442942e7 0.0
1.8364233418442942e7 -1.7274218355394453e7 0.0
0.0 0.0 0.0

-696260.2574286696 1.8797665938482925e7 0.0
1.8797665938482925e7 -7.919291858233729e6 0.0
0.0 0.0 0.0

-2.6809958128179517e6 1.3487231515427615e7 0.0
1.3487231515427615e7 -3.1963902385081192e6 0.0
0.0 0.0 0.0

2.660895258751334e7 2.3124102288002554e7 0.0
2.3124102288002554e7 -58337.85374529101 0.0
0.0 0.0 0.0

-1.0475386867139243e7 3.264717376668837e7 0.0
3.264717376668837e7 5.962945530668847e6 0.0
0.0 0.0 0.0

6.165336606193783e6 2.3911904567428764e7 0.0
2.3911904567428764e7 -5.522028204152649e6 0.0
0.0 0.0 0.0

-4.759322496928974e6 2.1426663720201313e7 0.0
2.1426663720201313e7 -3.84044966230473e6 0.0
0.0 0.0 0.0

-2.648714162231742e6 3.2204492279336438e7 0.0
3.2204492279336438e7 2.5832754583507767e6 0.0
0.0 0.0 0.0

-5.850538575491578e6 2.0115159126974855e7 0.0
2.0115159126974855e7 1.8726311842929684e7 0.0
0.0 0.0 0.0

1.2633235422256463e6 8.067607090048061e6 0.0
8.067607090048061e6 -8.514613773645181e6 0.0
0.0 0.0 0.0

-1.7294506241496527e6 7.624814629545055e6 0.0
7.624814629545055e6 1.8643168499362855e6 0.0
0.0 0.0 0.0

-1.0752997029495077e7 1.6440096426942915e7 0.0
1.6440096426942915e7 -4.058172250682736e7 0.0
0.0 0.0 0.0

-3.3127598972763414e6 2.1384518601796214e7 0.0
2.1384518601796214e7 5.980293607396075e6 0.0
0.0 0.0 0.0

1.5961439828407983e6 5.356198644552226e6 0.0
5.356198644552226e6 -8.666868493435562e6 0.0
0.0 0.0 0.0

-5.4005435591651395e7 3.280361354253387e7 0.0
3.280361354253387e7 -5.013136605911341e6 0.0
0.0 0.0 0.0

-679537.6806235313 8.875548198380621e6 0.0
8.875548198380621e6 -6.2625911254361e7 0.0
0.0 0.0 0.0

-1.5077670894710682e6 1.0358806908983516e7 0.0
1.0358806908983516e7 -4.997379693632861e6 0.0
0.0 0.0 0.0

-9.693298607977744e6 1.7082706893784113e7 0.0
1.7082706893784113e7 -4.336704265945663e7 0.0
0.0 0.0 0.0

2.7125185218941495e6 4.561817937699923e6 0.0
4.561817937699923e6 -3.965667130841661e7 0.0
0.0 0.0 0.0

2.4573447484048318e7 3.522410308392117e7 0.0
3.522410308392117e7 -8.575318130383018e6 0.0
0.0 0.0 0.0

2.682460017973451e6 1.0004591816643257e7 0.0
1.0004591816643257e7 -2.6459717217709474e7 0.0
0.0 0.0 0.0

-6.066511868764479e6 1.3418057243763499e7 0.0
1.3418057243763499e7 4.468948146077445e7 0.0
0.0 0.0 0.0

-7.747227995210972e6 1.8263003716233816e7 0.0
1.8263003716233816e7 2.2956187300627112e7 0.0
0.0 0.0 0.0

-3.903899379135099e6 2.34715579968323e7 0.0
2.34715579968323e7 1.1100137942803666e7 0.0
0.0 0.0 0.0

-8.74594457094831e6 2.204229039673987e7 0.0
2.204229039673987e7 -9.300361689115021e6 0.0
0.0 0.0 0.0

-6.703253597883876e6 1.89163522948391e7 0.0
1.89163522948391e7 2.3640858505544152e7 0.0
0.0 0.0 0.0

-2.7128846112320037e6 2.5129636263920225e7 0.0
2.5129636263920225e7 1.9732919305261783e6 0.0
0.0 0.0 0.0

1.1266558610886497e7 1.8928699438471403e7 0.0
1.8928699438471403e7 3.75551968553568e7 0.0
0.0 0.0 0.0

-1.0396271757224489e7 -336391.75710974453 0.0
-336391.75710974453 1.7369353871377163e7 0.0
0.0 0.0 0.0

776784.111218553 2.0415155879370432e7 0.0
2.0415155879370432e7 -1.4028014044299245e7 0.0
0.0 0.0 0.0

-3.474035537822012e6 1.2590513782975238e7 0.0
1.2590513782975238e7 -7.029946802689861e7 0.0
0.0 0.0 0.0

-9.110668025420902e6 3.434137936624458e7 0.0
3.434137936624458e7 5.755261229619885e6 0.0
0.0 0.0 0.0

3.1437132497378853e6 2.6607284061499022e7 0.0
2.6607284061499022e7 -6.414883341806016e6 0.0
0.0 0.0 0.0

3.0561225251364848e6 2.094295059722589e7 0.0
2.094295059722589e7 2.6017364328172435e6 0.0
0.0 0.0 0.0

-7.6372202533450425e6 1.8189025041691396e7 0.0
1.8189025041691396e7 2.4353070609732144e7 0.0
0.0 0.0 0.0

-2.067282630859857e7 3.466146163992293e7 0.0
3.466146163992293e7 6.785843596233355e6 0.0
0.0 0.0 0.0

1.2612881960786302e6 2.2881034874663755e7 0.0
2.2881034874663755e7 -1.0049291517850395e7 0.0
0.0 0.0 0.0

-4.737647781465967e6 1.6607468889681626e7 0.0
1.6607468889681626e7 -3.222445604749982e7 0.0
0.0 0.0 0.0

-1.570532134726317e7 3.6832686075107515e7 0.0
3.6832686075107515e7 5.6641632520020725e6 0.0
0.0 0.0 0.0

3.452027677365885e7 3.2491803297636617e7 0.0
3.2491803297636617e7 -9.49149843537854e6 0.0
0.0 0.0 0.0

2.3232570869549904e6 1.993932337375686e7 0.0
1.993932337375686e7 3.8678999597012773e6 0.0
0.0 0.0 0.0

1.9319462619175175e6 1.1844863812337535e7 0.0
1.1844863812337535e7 -2.3599900133696716e7 0.0
0.0 0.0 0.0

-1.2138871508349992e7 1.891595927337313e7 0.0
1.891595927337313e7 -4.736175164018324e7 0.0
0.0 0.0 0.0

1.5827169722474363e7 3.1542693130729947e7 0.0
3.1542693130729947e7 -5.951574742823132e6 0.0
0.0 0.0 0.0

-578809.9759702468 1.8978913158089098e7 0.0
1.8978913158089098e7 -1.4459492211255116e7 0.0
0.0 0.0 0.0

386477.95202664635 2.9120495005758606e7 0.0
2.9120495005758606e7 -3.1723165887719523e6 0.0
0.0 0.0 0.0

-2.2081633041296825e6 1.1660147666807167e7 0.0
1.1660147666807167e7 -5.8846695692374416e7 0.0
0.0 0.0 0.0

1.1950767798253598e6 1.91747664075747e7 0.0
1.91747664075747e7 8.093966662489915e6 0.0
0.0 0.0 0.0

-2.485066701101537e7 3.1594319175186854e7 0.0
3.1594319175186854e7 6.2922963356985655e6 0.0
0.0 0.0 0.0

-2.123941549737772e6 2.5591053071719315e7 0.0
2.5591053071719315e7 2.639335728134208e6 0.0
0.0 0.0 0.0

2.3936777434540242e7 2.082609006172667e7 0.0
2.082609006172667e7 8.959638698279262e6 0.0
0.0 0.0 0.0

-3.4591245809892346e6 3.2982617158485014e7 0.0
3.2982617158485014e7 1.4381570421107071e6 0.0
0.0 0.0 0.0

3.221855646654073e6 1.902360698974206e7 0.0
1.902360698974206e7 1.2954050134551642e7 0.0
0.0 0.0 0.0

-1.3409177410952207e6 3.1501247831776217e6 0.0
3.1501247831776217e6 -762235.9378861012 0.0
0.0 0.0 0.0

9.624990464816554e6 3.36152872508036e7 0.0
3.36152872508036e7 -4.544358487960426e6 0.0
0.0 0.0 0.0

-137308.69688488636 1.839035954808205e7 0.0
1.839035954808205e7 -2.0027559894018684e7 0.0
0.0 0.0 0.0

2.4458310535564013e6 3.7025290686425874e6 0.0
3.7025290686425874e6 -4.950919934101184e7 0.0
0.0 0.0 0.0

-277913.65291785216 1.1364805013397774e7 0.0
1.1364805013397774e7 -7.303255841540355e6 0.0
0.0 0.0 0.0

1.7386997472699652e6 6.643006298071926e6 0.0
6.643006298071926e6 -8.872502348187305e6 0.0
0.0 0.0 0.0

1.1061767692950713e6 1.490001849896823e7 0.0
1.490001849896823e7 -1.6689272192250466e7 0.0
0.0 0.0 0.0

-2.1673147952139154e7 2.9747962291328326e7 0.0
2.9747962291328326e7 5.280667280320772e6 0.0
0.0 0.0 0.0

-2.9045842920754524e6 2.1469454797466435e7 0.0
2.1469454797466435e7 3.2955969490621956e6 0.0
0.0 0.0 0.0

4.994837960555209e6 2.430798884451911e7 0.0
2.430798884451911e7 -6.132296452541733e6 0.0
0.0 0.0 0.0

2.887047098587379e6 5.889857535263259e6 0.0
5.889857535263259e6 -3.883167609680222e7 0.0
0.0 0.0 0.0

-242554.77880226262 2.0791740254902754e7 0.0
2.0791740254902754e7 -9.575465265250567e6 0.0
0.0 0.0 0.0

-90246.74553891644 1.7498368929702766e7 0.0
1.7498368929702766e7 -1.4472534813756684e7 0.0
0.0 0.0 0.0

-1.3117027977322266e7 2.43398020067322e7 0.0
2.43398020067322e7 -1.0835512827198347e7 0.0
0.0 0.0 0.0

1.404936203129788e7 2.914093700990104e7 0.0
2.914093700990104e7 -5.841042581719808e6 0.0
0.0 0.0 0.0

-4.7099943595276475e6 2.4764008045780957e7 0.0
2.4764008045780957e7 1.0366199610651065e7 0.0
0.0 0.0 0.0

2.815893826150929e6 1.994430495587301e7 0.0
1.994430495587301e7 1.2937013818426587e7 0.0
0.0 0.0 0.0

3.9188275522074103e6 1.8019578081088334e7 0.0
1.8019578081088334e7 7.346797643515834e7 0.0
0.0 0.0 0.0

-4.0367312885496262e6 3.656625056987604e7 0.0
3.656625056987604e7 3.472610091925293e6 0.0
0.0 0.0 0.0

1.1225924231465538e6 2.1000554610739328e7 0.0
2.1000554610739328e7 -9.362522444393704e6 0.0
0.0 0.0 0.0

2.1939203014984503e6 1.0690152944995375e7 0.0
1.0690152944995375e7 -3.0727913696586348e7 0.0
0.0 0.0 0.0

2.2538751383271553e6 9.833875448830906e6 0.0
9.833875448830906e6 -3.2402062641856037e7 0.0
0.0 0.0 0.0

3.873318852334846e6 3.190329053238854e6 0.0
3.190329053238854e6 -2.768061042176287e7 0.0
0.0 0.0 0.0

-3.246669714169699e6 2.404408769708815e7 0.0
2.404408769708815e7 1.0220552094876172e7 0.0
0.0 0.0 0.0

3.5143608206670173e6 3.4537126203120686e6 0.0
3.4537126203120686e6 -2.758565969337189e7 0.0
0.0 0.0 0.0

-1.0136012313635802e7 2.87349369315279e6 0.0
2.87349369315279e6 3.4935878869571514e7 0.0
0.0 0.0 0.0

-3.7546275914722625e6 2.1820863876916967e7 0.0
2.1820863876916967e7 1.6282953429450445e7 0.0
0.0 0.0 0.0

-2.166994339289328e6 1.0932461581316793e7 0.0
1.0932461581316793e7 -3.5142466215960025e6 0.0
0.0 0.0 0.0

2.2677768241960085e6 2.718515880706447e7 0.0
2.718515880706447e7 -5.969788265833164e6 0.0
0.0 0.0 0.0

5.954026508826492e6 3.0495953071378935e7 0.0
3.0495953071378935e7 -4.181445920413126e6 0.0
0.0 0.0 0.0

1.4718755315681358e6 1.6240455646512337e7 0.0
1.6240455646512337e7 3.459681650588442e6 0.0
0.0 0.0 0.0

-1.3554161333953496e6 1.1794657320232682e7 0.0
1.1794657320232682e7 -5.05480927166214e7 0.0
0.0 0.0 0.0

2.9912740750091206e6 4.229196245246707e6 0.0
4.229196245246707e6 -4.26795083238279e7 0.0
0.0 0.0 0.0

-4.9404454607648976e7 3.748417764713887e7 0.0
3.748417764713887e7 -1.1531479879912604e7 0.0
0.0 0.0 0.0

2.3676322387327492e7 2.4487269202079084e7 0.0
2.4487269202079084e7 1.1484458616591392e7 0.0
0.0 0.0 0.0

4.729270519051414e6 3.0034829979998555e7 0.0
3.0034829979998555e7 -4.1517553294466548e6 0.0
0.0 0.0 0.0

-378590.62279839907 1.943041810134818e7 0.0
1.943041810134818e7 1.909727086328475e7 0.0
0.0 0.0 0.0

1.1494376566664719e6 1.784547205003425e7 0.0
1.784547205003425e7 3.724283481150903e6 0.0
0.0 0.0 0.0

-9.515182616335893e6 7.8316543559509115e6 0.0
7.8316543559509115e6 4.0775197330827765e7 0.0
0.0 0.0 0.0

-1.1426248406692863e7 3.0932903609604683e7 0.0
3.0932903609604683e7 5.695950498540948e6 0.0
0.0 0.0 0.0

-1.1477985146497136e6 1.4796136017307473e7 0.0
1.4796136017307473e7 -9.110439702235438e6 0.0
0.0 0.0 0.0

-1.0846767701507624e7 1.6335805966735191e6 0.0
1.6335805966735191e6 2.745009727502685e7 0.0
0.0 0.0 0.0

-390546.4341844283 1.2640296882030904e7 0.0
1.2640296882030904e7 8.833350279747456e7 0.0
0.0 0.0 0.0

786982.4260538574 2.103254864691441e7 0.0
2.103254864691441e7 -1.2969327799002009e7 0.0
0.0 0.0 0.0

2.5584952191367163e6 4.448108205000093e6 0.0
4.448108205000093e6 -9.37081508963475e6 0.0
0.0 0.0 0.0

-6.290579696079496e6 8.800101364369402e6 0.0
8.800101364369402e6 5.851791516824411e7 0.0
0.0 0.0 0.0

3.4118179987630397e6 3.3779022395644304e6 0.0
3.3779022395644304e6 -3.499479186365912e7 0.0
0.0 0.0 0.0

-6.516818571531797e6 2.1750560769264333e7 0.0
2.1750560769264333e7 -1.2261130968414115e7 0.0
0.0 0.0 0.0

-2.1646077926094905e7 2.641618382636598e7 0.0
2.641618382636598e7 -1.1714387801779741e7 0.0
0.0 0.0 0.0

71786.54712874815 1.9045940845601466e7 0.0
1.9045940845601466e7 -1.6791436669934366e7 0.0
0.0 0.0 0.0

-2.9511785381925367e6 1.1776860759980453e7 0.0
1.1776860759980453e7 3.2802719283516174e6 0.0
0.0 0.0 0.0

-5.219913321354788e6 2.2368563804539286e7 0.0
2.2368563804539286e7 854111.6695892031 0.0
0.0 0.0 0.0

1.783045972084025e7 2.8201743384462427e7 0.0
2.8201743384462427e7 -5.565526363753077e6 0.0
0.0 0.0 0.0

-8.374112386853124e6 -3.7255917606299096e6 0.0
-3.7255917606299096e6 1.7500072440679945e7 0.0
0.0 0.0 0.0

1.0912390562257072e7 2.074274150985026e7 0.0
2.074274150985026e7 6.638610995683752e6 0.0
0.0 0.0 0.0

1.708253461178164e7 3.661335340095411e7 0.0
3.661335340095411e7 -8.112949142930183e6 0.0
0.0 0.0 0.0

3.668347187610619e6 3.4269191100557083e6 0.0
3.4269191100557083e6 -3.101029754257181e7 0.0
0.0 0.0 0.0

-3.664926665664834e6 1.8891592459677916e7 0.0
1.8891592459677916e7 4.256484115910332e6 0.0
0.0 0.0 0.0

1.0622954664413454e7 2.0217945288126346e7 0.0
2.0217945288126346e7 4.2458624412706815e7 0.0
0.0 0.0 0.0

5.946931398778631e7 7.200363570854186e6 0.0
7.200363570854186e6 -830858.1395585351 0.0
0.0 0.0 0.0

-2.8222671089690693e7 2.8619233853086628e7 0.0
2.8619233853086628e7 -1.0747445563750302e7 0.0
0.0 0.0 0.0

-2.868389821879058e6 2.4723646663097e7 0.0
2.4723646663097e7 2.9318457720271545e6 0.0
0.0 0.0 0.0

-871988.0062904973 1.2026455720260574e7 0.0
1.2026455720260574e7 -4.414257269889333e7 0.0
0.0 0.0 0.0

-1.6208644715706348e7 2.9220390454394583e7 0.0
2.9220390454394583e7 5.430252305812495e6 0.0
0.0 0.0 0.0

9.321445719404928e6 2.1177757145314556e7 0.0
2.1177757145314556e7 8.53058854919422e6 0.0
0.0 0.0 0.0

-3.6664006520295553e6 8.43443607557496e6 0.0
8.43443607557496e6 7.091607275737655e7 0.0
0.0 0.0 0.0

-4.651578728939904e6 2.3242134138024513e7 0.0
2.3242134138024513e7 1.1234297227589201e7 0.0
0.0 0.0 0.0

3.409798628819152e6 1.7990630255378615e7 0.0
1.7990630255378615e7 1.6834074816784255e7 0.0
0.0 0.0 0.0

-814331.0989866587 1.920754640616896e7 0.0
1.920754640616896e7 -1.0908208969988594e7 0.0
0.0 0.0 0.0

7.741373867268554e6 2.2252965749870747e7 0.0
2.2252965749870747e7 -1.5025566361854766e6 0.0
0.0 0.0 0.0

2.235465841770904e6 2.1614818943019595e7 0.0
2.1614818943019595e7 -6.601629252621763e6 0.0
0.0 0.0 0.0

-2.8453017386381906e6 1.4703928757397102e7 0.0
1.4703928757397102e7 -2.946436518686037e6 0.0
0.0 0.0 0.0

1.6108591700552963e6 1.9146092389685545e7 0.0
1.9146092389685545e7 2.205017442459397e7 0.0
0.0 0.0 0.0

991665.0626828384 1.8798980776736025e7 0.0
1.8798980776736025e7 2.635550009127735e6 0.0
0.0 0.0 0.0

214894.69597771997 1.831815242575852e7 0.0
1.831815242575852e7 -3.66768889774381e6 0.0
0.0 0.0 0.0

-4.901605838494586e6 1.6877927429190498e7 0.0
1.6877927429190498e7 -2.8296795579956893e7 0.0
0.0 0.0 0.0

-2.779054835506148e6 2.7420704579744928e7 0.0
2.7420704579744928e7 4.519401875657799e6 0.0
0.0 0.0 0.0

-1.9121614575358547e7 2.50169984853824e7 0.0
2.50169984853824e7 -1.098042984684803e7 0.0
0.0 0.0 0.0

-9.451029954705898e6 3.1849158780989084e7 0.0
3.1849158780989084e7 5.108400398991419e6 0.0
0.0 0.0 0.0

-1.0251460925018014e6 2.0309407623254165e7 0.0
2.0309407623254165e7 1.3778672942232762e7 0.0
0.0 0.0 0.0

3.2025396973519046e6 6.3882340668493025e6 0.0
6.3882340668493025e6 -3.1207868718183756e7 0.0
0.0 0.0 0.0

612259.4412442464 2.044605173957528e7 0.0
2.044605173957528e7 -1.3958157271602066e7 0.0
0.0 0.0 0.0

1.4724187169207774e7 2.889248899259486e7 0.0
2.889248899259486e7 -5.452615546760513e6 0.0
0.0 0.0 0.0

-1.0255771918274269e7 1.8440025228086622e6 0.0
1.8440025228086622e6 3.213804421740832e7 0.0
0.0 0.0 0.0

-4.324420732362779e6 2.25183266843598e7 0.0
2.25183266843598e7 7.9960778508552695e6 0.0
0.0 0.0 0.0

1.5907405556869663e6 2.0753917323155895e7 0.0
2.0753917323155895e7 2.1670066495404746e6 0.0
0.0 0.0 0.0

8.395924751601813e6 2.3274684897737425e7 0.0
2.3274684897737425e7 -3.270391187774748e6 0.0
0.0 0.0 0.0

-1.0907672896680702e7 8.013174552356633e6 0.0
8.013174552356633e6 3.0207005975769226e7 0.0
0.0 0.0 0.0

5.511503738503646e6 1.7566964705235943e7 0.0
1.7566964705235943e7 2.292184001403583e7 0.0
0.0 0.0 0.0

-8.1413299934597e6 2.139550398348119e7 0.0
2.139550398348119e7 -1.1613399785776572e7 0.0
0.0 0.0 0.0

-342473.5527033387 1.6645122614654368e7 0.0
1.6645122614654368e7 -2.5718863278543826e7 0.0
0.0 0.0 0.0

8.527331006062852e6 3.569973209238085e7 0.0
3.569973209238085e7 -3.62809119217608e6 0.0
0.0 0.0 0.0

-9.080413250690702e6 3.3011072088163152e7 0.0
3.3011072088163152e7 4.506708759644695e6 0.0
0.0 0.0 0.0

-1.130721339524262e7 9.158602075485116e6 0.0
9.158602075485116e6 2.6277571993675806e7 0.0
0.0 0.0 0.0

-8.265696875710685e6 2.305370331821434e7 0.0
2.305370331821434e7 -6.54326273854243e6 0.0
0.0 0.0 0.0

-6.783809736807853e6 3.338165426450321e7 0.0
3.338165426450321e7 3.4936367342198486e6 0.0
0.0 0.0 0.0

-7.450835642365947e6 3.239161881574858e7 0.0
3.239161881574858e7 4.223902345114687e6 0.0
0.0 0.0 0.0

3.4167081181167564e6 1.7125890769892454e7 0.0
1.7125890769892454e7 1.3982784920251824e7 0.0
0.0 0.0 0.0

1.9482436989091942e6 1.3320155803696625e7 0.0
1.3320155803696625e7 -2.138820145127762e7 0.0
0.0 0.0 0.0

5.352672755755016e7 3.2942806762269314e7 0.0
3.2942806762269314e7 2.265629207339063e7 0.0
0.0 0.0 0.0

-3.779111420705876e7 3.0370316486722697e6 0.0
3.0370316486722697e6 7.218059483867368e6 0.0
0.0 0.0 0.0

-1.79816328249928e7 2.8436825392989937e7 0.0
2.8436825392989937e7 4.1617857392442385e6 0.0
0.0 0.0 0.0

2.9652932269646414e6 3.1754274946072474e6 0.0
3.1754274946072474e6 -3.484556233452222e7 0.0
0.0 0.0 0.0

-288601.5352120586 2.0183816612430327e7 0.0
2.0183816612430327e7 -1.2438133574862236e7 0.0
0.0 0.0 0.0

-1.3330315965450916e7 2.9599961547460053e7 0.0
2.9599961547460053e7 5.879158468108498e6 0.0
0.0 0.0 0.0

-1.0733103454962805e7 5.416621391753699e6 0.0
5.416621391753699e6 3.3690421621671416e7 0.0
0.0 0.0 0.0

1.796408892012678e6 1.041554905787842e7 0.0
1.041554905787842e7 -2.8797804920528423e7 0.0
0.0 0.0 0.0

-6.213008670488933e6 1.6389993914608493e7 0.0
1.6389993914608493e7 -2.3036305836438213e7 0.0
0.0 0.0 0.0

9.474457364329994e6 2.2177488667850934e7 0.0
2.2177488667850934e7 8.706499182099015e6 0.0
0.0 0.0 0.0

-3.7904720781242065e7 3.081781530377617e7 0.0
3.081781530377617e7 -8.552217531143837e6 0.0
0.0 0.0 0.0

-4.0444638176071835e6 1.2946689865766866e7 0.0
1.2946689865766866e7 1.3802132475129324e6 0.0
0.0 0.0 0.0

-1.0075796193529854e7 2.8525358847783748e7 0.0
2.8525358847783748e7 6.118919382099192e6 0.0
0.0 0.0 0.0

-2.265415511591754e6 2.8433188690194596e7 0.0
2.8433188690194596e7 2.939902791781402e6 0.0
0.0 0.0 0.0

-7.86448980659683e6 6.214448420860419e6 0.0
6.214448420860419e6 1.8826187686097782e7 0.0
0.0 0.0 0.0

-8.900946430229846e6 -1.0444196042007358e6 0.0
-1.0444196042007358e6 1.856271070200874e7 0.0
0.0 0.0 0.0

1.209894406116967e6 1.3693910557725992e7 0.0
1.3693910557725992e7 -2.199383920815408e7 0.0
0.0 0.0 0.0

-1.02161397464793e7 4.1357840131414635e6 0.0
4.1357840131414635e6 3.357920385839221e7 0.0
0.0 0.0 0.0

474433.4641178204 1.706269147959495e7 0.0
1.706269147959495e7 -2.0116756813521706e7 0.0
0.0 0.0 0.0

7.95126423729012e6 2.0998599991772946e7 0.0
2.0998599991772946e7 -89966.17117622076 0.0
0.0 0.0 0.0

855627.2654402372 9.387265025782293e6 0.0
9.387265025782293e6 -1.1884814893065553e7 0.0
0.0 0.0 0.0

-1.9089537444220558e7 2.8415878537662208e7 0.0
2.8415878537662208e7 4.1649692752042767e6 0.0
0.0 0.0 0.0

-1.1586770597496621e7 2.4483920331458032e7 0.0
2.4483920331458032e7 -1.100283982382628e7 0.0
0.0 0.0 0.0

543055.7580438739 1.742061293963406e7 0.0
1.742061293963406e7 1.8101868242205838e6 0.0
0.0 0.0 0.0

-442765.11298910656 1.7570792987972967e7 0.0
1.7570792987972967e7 -1.4758844450065026e6 0.0
0.0 0.0 0.0

1.7691132583936723e6 1.4013515102856688e7 0.0
1.4013515102856688e7 -2.0220542061074592e7 0.0
0.0 0.0 0.0

-5.637434856948035e6 1.7102042894678682e7 0.0
1.7102042894678682e7 -2.2567767425721887e7 0.0
0.0 0.0 0.0

-1.084664473881129e7 889484.809827411 0.0
889484.809827411 2.451849850094118e7 0.0
0.0 0.0 0.0

-3.9643354165567444e6 1.416988791496295e7 0.0
1.416988791496295e7 7.42861174478009e6 0.0
0.0 0.0 0.0

1.318702314752121e6 2.2567960070314094e7 0.0
2.2567960070314094e7 -1.0249653437977284e7 0.0
0.0 0.0 0.0

2.6754619201786593e6 7.292112113739588e6 0.0
7.292112113739588e6 -2.206051794338952e7 0.0
0.0 0.0 0.0

-4.084058427185122e7 2.716430810343652e7 0.0
2.716430810343652e7 -4.768935119293928e6 0.0
0.0 0.0 0.0

6.061948284516951e6 2.20205774438368e7 0.0
2.20205774438368e7 -1.7622443141571707e6 0.0
0.0 0.0 0.0

2.358891188082873e7 2.05916379491175e7 0.0
2.05916379491175e7 4.0861357027641754e6 0.0
0.0 0.0 0.0

-9.887246535721235e6 3.682995960878597e7 0.0
3.682995960878597e7 5.74093427030478e6 0.0
0.0 0.0 0.0

-1.0774763484351497e7 3.9093556479695314e6 0.0
3.9093556479695314e6 2.173062987699916e7 0.0
0.0 0.0 0.0

-344899.68085503904 1.8125552167163264e7 0.0
1.8125552167163264e7 -1.3277470375520598e7 0.0
0.0 0.0 0.0

-1.0063519250355402e7 2.2893944262151435e7 0.0
2.2893944262151435e7 -5.999256781813914e6 0.0
0.0 0.0 0.0

-2.0443864848838724e7 3.193310956954936e7 0.0
3.193310956954936e7 5.945242840069573e6 0.0
0.0 0.0 0.0

-7.266717367778725e6 1.7774108700364746e7 0.0
1.7774108700364746e7 -3.575962775579261e7 0.0
0.0 0.0 0.0

1.8701087779869346e6 1.8584351327747516e7 0.0
1.8584351327747516e7 9.109253309451072e6 0.0
0.0 0.0 0.0

-4.757066980998438e6 1.6909289742488272e7 0.0
1.6909289742488272e7 -2.469188511177915e7 0.0
0.0 0.0 0.0

-1.5092656428910352e7 3.4885918788395114e7 0.0
3.4885918788395114e7 6.442006885587244e6 0.0
0.0 0.0 0.0

937909.7864204431 2.517059294095699e7 0.0
2.517059294095699e7 -7.454631872923091e6 0.0
0.0 0.0 0.0

-7.342149515666354e6 2.3311839300700136e7 0.0
2.3311839300700136e7 -706319.4030247338 0.0
0.0 0.0 0.0

1.8335769420530647e6 1.1447861949608942e7 0.0
1.1447861949608942e7 -3.1241097979615755e7 0.0
0.0 0.0 0.0

-9.723138946937406e6 7.835350050962949e6 0.0
7.835350050962949e6 3.833113524230919e7 0.0
0.0 0.0 0.0

-1.472304546394262e6 1.8211800178612687e7 0.0
1.8211800178612687e7 -8.86261985278545e6 0.0
0.0 0.0 0.0

8.463731181361672e6 2.192471445996517e7 0.0
2.192471445996517e7 -1.9179702373552052e6 0.0
0.0 0.0 0.0

-6.056311695924949e6 1.7901254829219628e7 0.0
1.7901254829219628e7 -2.989835716456597e7 0.0
0.0 0.0 0.0

-1.09687046653625e7 2.8320713673735037e7 0.0
2.8320713673735037e7 5.78399379867792e6 0.0
0.0 0.0 0.0

2.6787974075228952e7 3.453867760168772e7 0.0
3.453867760168772e7 -7.526175367746048e6 0.0
0.0 0.0 0.0

-6.893717389200243e6 2.275710911266173e7 0.0
2.275710911266173e7 -4.513984199566518e6 0.0
0.0 0.0 0.0

-1.1419365764776183e7 2.961423735682976e7 0.0
2.961423735682976e7 5.753773174288971e6 0.0
0.0 0.0 0.0

-6.844566048775845e6 1.9183779078905363e7 0.0
1.9183779078905363e7 2.010353846210991e7 0.0
0.0 0.0 0.0

3.304881811201238e6 2.091320007774488e7 0.0
2.091320007774488e7 -5.402282451766046e6 0.0
0.0 0.0 0.0

-3.3155982262031785e6 2.7501065042674925e7 0.0
2.7501065042674925e7 5.3209351926846085e6 0.0
0.0 0.0 0.0

-5.936347954635936e6 1.6681000111196944e7 0.0
1.6681000111196944e7 -3.4247489370387636e7 0.0
0.0 0.0 0.0

2.951018396851696e6 4.992543710206536e6 0.0
4.992543710206536e6 -2.97892351586195e7 0.0
0.0 0.0 0.0

-5.985879108877193e6 1.795303394260679e7 0.0
1.795303394260679e7 -2.627184971767236e7 0.0
0.0 0.0 0.0

-4.58303287548821e6 3.039333244761693e7 0.0
3.039333244761693e7 3.4703635783523535e6 0.0
0.0 0.0 0.0

-3.208597856989821e6 1.8855723981568784e7 0.0
1.8855723981568784e7 -1.0695326196828635e7 0.0
0.0 0.0 0.0

2.870112941725999e6 1.8891847792649817e7 0.0
1.8891847792649817e7 9.567043672997894e6 0.0
0.0 0.0 0.0

-8.218535770735621e6 1.689353585125886e7 0.0
1.689353585125886e7 2.8425117624428745e7 0.0
0.0 0.0 0.0

-1.6588824785527743e6 1.4199184953358179e7 0.0
1.4199184953358179e7 -2.1381264273343664e6 0.0
0.0 0.0 0.0

1.1831895539339129e7 1.8101125850382265e7 0.0
1.8101125850382265e7 4.5837457311529785e7 0.0
0.0 0.0 0.0

-9.791795804584794e6 2.792207638646653e6 0.0
2.792207638646653e6 3.790677967441226e7 0.0
0.0 0.0 0.0

2.4335122701572534e6 4.343701492032332e6 0.0
4.343701492032332e6 -4.2297904511036485e7 0.0
0.0 0.0 0.0

-3.9454874003298953e6 1.7958560156748418e7 0.0
1.7958560156748418e7 -2.7009675250823688e7 0.0
0.0 0.0 0.0

-9.714402206598295e6 2.972468669921599e7 0.0
2.972468669921599e7 5.749932730464596e6 0.0
0.0 0.0 0.0

2.8546957220809437e7 1.398407146640156e7 0.0
1.398407146640156e7 954975.7174415346 0.0
0.0 0.0 0.0

-1.1530282199084423e7 6.458756824206454e6 0.0
6.458756824206454e6 2.8384511455133513e7 0.0
0.0 0.0 0.0

-2.4074132695860002e7 2.989242897071493e7 0.0
2.989242897071493e7 -1.1815100825602598e7 0.0
0.0 0.0 0.0

-3.7811801061762944e6 2.194798546038963e7 0.0
2.194798546038963e7 8.325484962996119e6 0.0
0.0 0.0 0.0

-2.0175530987076417e7 3.47616686337923e7 0.0
3.47616686337923e7 6.9212798316561e6 0.0
0.0 0.0 0.0

2.1995183149263654e6 4.863125450073289e6 0.0
4.863125450073289e6 -4.363187624916923e7 0.0
0.0 0.0 0.0

5.842711387246372e6 2.9326918367492285e7 0.0
2.9326918367492285e7 -4.813684805775825e6 0.0
0.0 0.0 0.0

-4.650694656278465e6 1.2927530210473066e7 0.0
1.2927530210473066e7 5.350305369875138e7 0.0
0.0 0.0 0.0

-3.559855623637037e6 2.6595108472516607e7 0.0
2.6595108472516607e7 7.40767483374666e6 0.0
0.0 0.0 0.0

-1.5611751371410615e6 1.759782301538675e7 0.0
1.759782301538675e7 -6.497673745890873e6 0.0
0.0 0.0 0.0

-7.101388512539762e6 2.087580404410139e6 0.0
2.087580404410139e6 1.1942704326514903e7 0.0
0.0 0.0 0.0

4.434113393970322e6 1.9267163086788576e7 0.0
1.9267163086788576e7 1.522172788649709e7 0.0
0.0 0.0 0.0

-4.67662495437346e6 2.2959765984292034e7 0.0
2.2959765984292034e7 9.829539214705914e6 0.0
0.0 0.0 0.0

1.5336443039878337e6 1.0164860035401875e7 0.0
1.0164860035401875e7 -1.0683371136915594e7 0.0
0.0 0.0 0.0

-3.3506025028288323e6 2.100848565964047e7 0.0
2.100848565964047e7 969548.7233939946 0.0
0.0 0.0 0.0

6.886273425871939e6 2.1549393704289734e7 0.0
2.1549393704289734e7 -2.44719498201517e6 0.0
0.0 0.0 0.0

-2.4264115191288395e6 1.427731333717649e7 0.0
1.427731333717649e7 905554.7634233779 0.0
0.0 0.0 0.0

-3.7680325787248835e6 1.6543792921709241e7 0.0
1.6543792921709241e7 -3.030055625517913e7 0.0
0.0 0.0 0.0

-4.356831913612806e6 1.774081411600304e7 0.0
1.774081411600304e7 7.248000529284855e6 0.0
0.0 0.0 0.0

-6.259791839807766e6 1.9093564470264673e7 0.0
1.9093564470264673e7 2.361908373202026e7 0.0
0.0 0.0 0.0

-9.974418446464388e6 755057.4830586307 0.0
755057.4830586307 2.7574285791987382e7 0.0
0.0 0.0 0.0

-1.199040397624242e7 2.3399276967769433e7 0.0
2.3399276967769433e7 112029.59522985574 0.0
0.0 0.0 0.0

-7.058242151561706e6 2.8020085783302598e7 0.0
2.8020085783302598e7 6.668274834662795e6 0.0
0.0 0.0 0.0

1.1218059308697734e7 2.960604908906574e7 0.0
2.960604908906574e7 -5.616307368233433e6 0.0
0.0 0.0 0.0

-1.1084908075310798e7 6.012821491456008e6 0.0
6.012821491456008e6 3.093309412474882e7 0.0
0.0 0.0 0.0

-4.799077764830767e6 1.742333676360712e7 0.0
1.742333676360712e7 -3.161188100275611e7 0.0
0.0 0.0 0.0

-4.579157866881531e6 2.786605483514743e7 0.0
2.786605483514743e7 6.612596787916895e6 0.0
0.0 0.0 0.0

587766.9333726321 1.9458229260342162e7 0.0
1.9458229260342162e7 -7.85680132041036e6 0.0
0.0 0.0 0.0

-1.6211918542313187e6 1.54493963109746e7 0.0
1.54493963109746e7 -7.752363082672299e6 0.0
0.0 0.0 0.0

-1.0042037801430158e7 1.501632917555611e6 0.0
1.501632917555611e6 1.9640299133085676e7 0.0
0.0 0.0 0.0

-9.342128816826398e6 3.0888399589649178e7 0.0
3.0888399589649178e7 5.72844036997637e6 0.0
0.0 0.0 0.0

-1.8189793591916051e6 2.330542930468906e7 0.0
2.330542930468906e7 -380959.64765070495 0.0
0.0 0.0 0.0

3.5023183085362124e6 2.0554855950227525e7 0.0
2.0554855950227525e7 1.4034707568254976e7 0.0
0.0 0.0 0.0

-1.920353103592049e6 2.624823452729297e6 0.0
2.624823452729297e6 4.261507996399194e6 0.0
0.0 0.0 0.0

4.210771994862681e6 2.0687613882189907e7 0.0
2.0687613882189907e7 4.716629882245578e6 0.0
0.0 0.0 0.0

-437018.71995092556 9.108959085765209e6 0.0
9.108959085765209e6 -5.772651143852645e7 0.0
0.0 0.0 0.0

6.240535293127405e6 3.3519095610142548e7 0.0
3.3519095610142548e7 -4.6086292142100055e6 0.0
0.0 0.0 0.0

-5.139818240342279e6 2.3971056499464195e7 0.0
2.3971056499464195e7 1.0568689844562594e7 0.0
0.0 0.0 0.0

-1.0465028275625989e7 9.945073873454615e6 0.0
9.945073873454615e6 1.4429597156955337e7 0.0
0.0 0.0 0.0

-1.2935715527330947e6 2.032576316389945e7 0.0
2.032576316389945e7 -3.2579292512127394e6 0.0
0.0 0.0 0.0

-643136.085166283 1.1295981495156657e7 0.0
1.1295981495156657e7 -5.376548953891109e7 0.0
0.0 0.0 0.0

-877571.978635015 1.722138999905431e7 0.0
1.722138999905431e7 -2.3186685598812338e7 0.0
0.0 0.0 0.0

-9.589740849381365e6 3.447566704023837e7 0.0
3.447566704023837e7 4.1451159215486343e6 0.0
0.0 0.0 0.0

-2.496864313362369e6 1.857173223726903e7 0.0
1.857173223726903e7 -8.322882068443837e6 0.0
0.0 0.0 0.0

-4.948926260117829e6 2.232678979486959e7 0.0
2.232678979486959e7 -1.1856132035844497e7 0.0
0.0 0.0 0.0

-2.5392716787450355e6 2.4108736954901196e7 0.0
2.4108736954901196e7 5.666670265267482e6 0.0
0.0 0.0 0.0

555399.5733679924 1.817359364791001e7 0.0
1.817359364791001e7 -1.340025885510456e7 0.0
0.0 0.0 0.0

7.364254826896371e6 2.1986640879826885e7 0.0
2.1986640879826885e7 7.241209174347788e6 0.0
0.0 0.0 0.0

-8.084253434796996e6 2.30630812162251e7 0.0
2.30630812162251e7 -1.1646911425139708e7 0.0
0.0 0.0 0.0

-2.3689426744221244e6 2.1342248138548084e7 0.0
2.1342248138548084e7 5.875637685868546e6 0.0
0.0 0.0 0.0

-5.5052707294620015e6 9.33107286261122e6 0.0
9.33107286261122e6 5.933867617606281e7 0.0
0.0 0.0 0.0

-532455.7547118559 1.501775843910457e7 0.0
1.501775843910457e7 -7.071430427647409e6 0.0
0.0 0.0 0.0

-7.033411416584362e6 1.5666878545864355e7 0.0
1.5666878545864355e7 -2.4468038573969323e7 0.0
0.0 0.0 0.0

517434.31695750076 1.9917646999324612e7 0.0
1.9917646999324612e7 -1.5335100416457392e7 0.0
0.0 0.0 0.0

-5.56668507063182e6 2.009272394780905e7 0.0
2.009272394780905e7 -1.5188518157932857e7 0.0
0.0 0.0 0.0

-3.7977257512306864e6 2.2421947846999273e7 0.0
2.2421947846999273e7 1.0252154698809694e7 0.0
0.0 0.0 0.0

533553.0061808473 1.72754731876821e7 0.0
1.72754731876821e7 1.778510073153381e6 0.0
0.0 0.0 0.0

-2.7174557725079274e6 2.865877203104651e7 0.0
2.865877203104651e7 3.799837155785595e6 0.0
0.0 0.0 0.0

-3.4883464097594963e6 2.1695307177539274e7 0.0
2.1695307177539274e7 750903.3315676732 0.0
0.0 0.0 0.0

-7.11682817322506e6 2.762562079389079e6 0.0
2.762562079389079e6 5.807837503180547e7 0.0
0.0 0.0 0.0

-1.2089205053340478e7 1.027568849530947e7 0.0
1.027568849530947e7 2.404833229575562e7 0.0
0.0 0.0 0.0

1.3567076161974645e6 1.9892945004800558e7 0.0
1.9892945004800558e7 -6.879775979247296e6 0.0
0.0 0.0 0.0

-2.5076434454577744e7 2.8286969121534318e7 0.0
2.8286969121534318e7 2.936398685490703e6 0.0
0.0 0.0 0.0

-1.129520361672907e7 2.151424472329797e6 0.0
2.151424472329797e6 1.9167756250248164e7 0.0
0.0 0.0 0.0

-8.15942298831257e6 7.644494896876711e6 0.0
7.644494896876711e6 4.8143751858947635e7 0.0
0.0 0.0 0.0

-2.677958752174581e6 1.3425278793161686e6 0.0
1.3425278793161686e6 5.360452367914822e6 0.0
0.0 0.0 0.0

-4.747413741502691e6 5.046719894559258e6 0.0
5.046719894559258e6 -159633.73603459168 0.0
0.0 0.0 0.0

1.6342586177391987e6 1.2049507516380103e7 0.0
1.2049507516380103e7 -2.2165185956663664e7 0.0
0.0 0.0 0.0

-2.4674709061210426e6 2.367672386849291e7 0.0
2.367672386849291e7 -1.0435735002705945e6 0.0
0.0 0.0 0.0

-6.572911143849632e6 1.9896543258929476e7 0.0
1.9896543258929476e7 -1.4708125998336121e7 0.0
0.0 0.0 0.0

-3.4982318808179395e6 2.2070150076332204e7 0.0
2.2070150076332204e7 1.3539574291786898e7 0.0
0.0 0.0 0.0

-3.9423504046839233e6 1.710251352038848e7 0.0
1.710251352038848e7 -2.2978629576752022e7 0.0
0.0 0.0 0.0

2.053912388029803e6 2.011109737737765e7 0.0
2.011109737737765e7 1.2639143844967352e7 0.0
0.0 0.0 0.0

-1.0061117333461104e7 1.6167274866599876e7 0.0
1.6167274866599876e7 -3.606461657286629e7 0.0
0.0 0.0 0.0

-4.053753085164208e6 2.1606636977978244e7 0.0
2.1606636977978244e7 3.5830700656937947e6 0.0
0.0 0.0 0.0

-2.410784315755479e6 1.1812748077755783e7 0.0
1.1812748077755783e7 -6.36411808761322e7 0.0
0.0 0.0 0.0

-273951.98115709797 1.1778795536395622e7 0.0
1.1778795536395622e7 -4.692623677543737e7 0.0
0.0 0.0 0.0

-3.853427204636899e6 2.1467907403422773e7 0.0
2.1467907403422773e7 -1.1265562410842696e7 0.0
0.0 0.0 0.0

-1.5100535889294975e7 2.573109338917499e7 0.0
2.573109338917499e7 -1.0790323227452587e7 0.0
0.0 0.0 0.0

-1.2134566526559807e7 2.836207965764999e7 0.0
2.836207965764999e7 5.782742780546833e6 0.0
0.0 0.0 0.0

-4.949653704598436e6 1.4805918319605134e7 0.0
1.4805918319605134e7 6.288235454478139e6 0.0
0.0 0.0 0.0

-2.5575262929701875e6 6.63472685742131e6 0.0
6.63472685742131e6 7.81762245616885e6 0.0
0.0 0.0 0.0

291961.0759135303 1.906401535672228e7 0.0
1.906401535672228e7 -6.268278167914842e6 0.0
0.0 0.0 0.0

9.628695451063644e6 2.2701476012340426e7 0.0
2.2701476012340426e7 -1.683987442431292e6 0.0
0.0 0.0 0.0

-3.647334938764341e6 1.355427224724854e7 0.0
1.355427224724854e7 5.4388743138350435e7 0.0
0.0 0.0 0.0

-1.4967884161316562e6 2.0893627169740748e7 0.0
2.0893627169740748e7 1.1092818639713448e7 0.0
0.0 0.0 0.0

-7.148768918530901e6 2.8061729108378805e7 0.0
2.8061729108378805e7 6.750760213146559e6 0.0
0.0 0.0 0.0

-4.0068019800026137e6 1.7306249043217808e7 0.0
1.7306249043217808e7 -1.448149415910682e7 0.0
0.0 0.0 0.0

-7.575772490794094e6 1.0950594813569881e7 0.0
1.0950594813569881e7 4.5047273818007395e7 0.0
0.0 0.0 0.0

-2.102735876629931e6 2.0619312578346252e7 0.0
2.0619312578346252e7 6.288978447222164e6 0.0
0.0 0.0 0.0

298739.2547432203 1.9797933151159592e7 0.0
1.9797933151159592e7 -1.5213975199711725e7 0.0
0.0 0.0 0.0

-953588.4704343211 1.6065453086164976e7 0.0
1.6065453086164976e7 -2.7335156385887835e7 0.0
0.0 0.0 0.0

120964.23464581929 1.0566649700856963e7 0.0
1.0566649700856963e7 -4.4629159444899805e7 0.0
0.0 0.0 0.0

765959.5268859603 1.1417170345445225e7 0.0
1.1417170345445225e7 -3.581252527035118e7 0.0
0.0 0.0 0.0

-1.0237282236333396e7 1.8656186102573954e7 0.0
1.8656186102573954e7 -5.112592535482615e7 0.0
0.0 0.0 0.0

-3.048032643970941e6 2.807827496323743e7 0.0
2.807827496323743e7 4.555992658457112e6 0.0
0.0 0.0 0.0

-5.343383804794498e6 2.2187272359062154e7 0.0
2.2187272359062154e7 -1.1869767061821558e7 0.0
0.0 0.0 0.0

-1.2394231413338794e6 1.9633094725022033e7 0.0
1.9633094725022033e7 -1.28133200469195e7 0.0
0.0 0.0 0.0

2.167946533163002e7 2.2769017893824384e7 0.0
2.2769017893824384e7 -297474.7808994008 0.0
0.0 0.0 0.0

-7.298394047922432e6 5.548960170203746e6 0.0
5.548960170203746e6 5.2196108185986556e7 0.0
0.0 0.0 0.0

-1.744735809450943e6 1.1683782374576477e7 0.0
1.1683782374576477e7 -5.436745184973542e7 0.0
0.0 0.0 0.0

1.1218319765894394e6 1.1747947093873065e7 0.0
1.1747947093873065e7 -3.5638812621355005e7 0.0
0.0 0.0 0.0

-4.197533588450119e6 9.292569714573547e6 0.0
9.292569714573547e6 6.528115185982807e7 0.0
0.0 0.0 0.0

1.986999758061276e7 2.3119929947814398e7 0.0
2.3119929947814398e7 1.2560978264340699e7 0.0
0.0 0.0 0.0

-7.078510084430333e6 8.834527686314015e6 0.0
8.834527686314015e6 4.9584741495962076e7 0.0
0.0 0.0 0.0

-6.514882221299266e6 -731096.9610327614 0.0
-731096.9610327614 8.178856744878786e6 0.0
0.0 0.0 0.0

-3.4074379895577263e6 2.9478285192008346e7 0.0
2.9478285192008346e7 2.5009329248090675e6 0.0
0.0 0.0 0.0

1.727195127672881e6 1.1131107753190545e7 0.0
1.1131107753190545e7 -2.7351948889349785e7 0.0
0.0 0.0 0.0

-7.092967041644223e6 3.1696996989756502e7 0.0
3.1696996989756502e7 5.41006968476448e6 0.0
0.0 0.0 0.0

-7.204050656601597e6 1.3579221155438455e7 0.0
1.3579221155438455e7 4.015014625710329e7 0.0
0.0 0.0 0.0

-1.2306979855476204e7 8.215265214939471e6 0.0
8.215265214939471e6 2.2322659877818212e7 0.0
0.0 0.0 0.0

7.277750978431473e6 2.9602439529559482e7 0.0
2.9602439529559482e7 -5.016825612639675e6 0.0
0.0 0.0 0.0

-4.0718715372463986e6 2.2735202656035338e7 0.0
2.2735202656035338e7 1.3106705608519781e7 0.0
0.0 0.0 0.0

1.7705858075958863e6 2.5559966104831334e7 0.0
2.5559966104831334e7 -6.831467104131446e6 0.0
0.0 0.0 0.0

-6.600895348718352e6 2.5487706634164162e7 0.0
2.5487706634164162e7 7.3121395227802545e6 0.0
0.0 0.0 0.0

-3.6352904936254565e6 1.8166408046338387e7 0.0
1.8166408046338387e7 -2.443350731043003e7 0.0
0.0 0.0 0.0

4.574575310225498e6 2.28098207789279e7 0.0
2.28098207789279e7 -6.784045864588838e6 0.0
0.0 0.0 0.0

7.680798032675842e6 1.8660307267996773e7 0.0
1.8660307267996773e7 4.373631847848324e7 0.0
0.0 0.0 0.0

-5.57972103294448e6 5.283719479648725e6 0.0
5.283719479648725e6 1.6654674170587782e7 0.0
0.0 0.0 0.0

-2.4305000313560506e6 8.608816280706728e6 0.0
8.608816280706728e6 -6.695367242511444e6 0.0
0.0 0.0 0.0

-4.400314374571783e6 1.9456466811163735e7 0.0
1.9456466811163735e7 -1.4667714353515143e7 0.0
0.0 0.0 0.0

4.286543288349337e6 1.9807482521396752e7 0.0
1.9807482521396752e7 1.4288477863647858e7 0.0
0.0 0.0 0.0

7.8386318555999845e6 3.424549939180547e7 0.0
3.424549939180547e7 -5.5012974575488325e6 0.0
0.0 0.0 0.0

3.6338295496756565e6 5.2630133246125225e6 0.0
5.2630133246125225e6 -1.683083243765917e7 0.0
0.0 0.0 0.0

-4.429686699954854e6 3.309295700757434e7 0.0
3.309295700757434e7 3.889029119205609e6 0.0
0.0 0.0 0.0

-4.099357654813234e7 1.5197834450608151e7 0.0
1.5197834450608151e7 7.929461054313371e6 0.0
0.0 0.0 0.0

593788.6175527703 2.025223454332955e7 0.0
2.025223454332955e7 -1.389449654547482e7 0.0
0.0 0.0 0.0

-6.860860449418098e6 1.5275218032085665e7 0.0
1.5275218032085665e7 3.603575983103768e7 0.0
0.0 0.0 0.0

259976.71123651834 2.027694971313739e7 0.0
2.027694971313739e7 -6.648175403276228e6 0.0
0.0 0.0 0.0

-4.260632514668817e6 2.3288709770928543e7 0.0
2.3288709770928543e7 9.982308429854315e6 0.0
0.0 0.0 0.0

-2.3383390598126063e6 2.3155203481686626e7 0.0
2.3155203481686626e7 -2.0818830537760952e6 0.0
0.0 0.0 0.0

696951.1873772973 2.0611747198232714e7 0.0
2.0611747198232714e7 -8.096931284565696e6 0.0
0.0 0.0 0.0

2.157816805249477e6 4.0284604402305186e6 0.0
4.0284604402305186e6 -4.564893648616448e7 0.0
0.0 0.0 0.0

-782293.0752993715 1.6840109035295907e7 0.0
1.6840109035295907e7 -2.6076439898672467e6 0.0
0.0 0.0 0.0

1.0658007171221916e7 2.3890146642901316e7 0.0
2.3890146642901316e7 -3.5692072200493133e6 0.0
0.0 0.0 0.0

-1.4266134729758226e6 1.9240830987845622e7 0.0
1.9240830987845622e7 -1.4823678608037522e7 0.0
0.0 0.0 0.0

5.751274440997433e6 2.18546420132611e7 0.0
2.18546420132611e7 1.0435992264071733e7 0.0
0.0 0.0 0.0

-1.0879451585610155e6 1.1949687809836844e7 0.0
1.1949687809836844e7 -4.719799610568345e7 0.0
0.0 0.0 0.0

-560736.26361193 2.2496887093596417e7 0.0
2.2496887093596417e7 -8.63212761612021e6 0.0
0.0 0.0 0.0

4.307370144969595e6 2.1818941438816857e7 0.0
2.1818941438816857e7 1.464608132419273e7 0.0
0.0 0.0 0.0

2.5747065855136782e7 2.8580209602580823e7 0.0
2.8580209602580823e7 -4.76089816166527e6 0.0
0.0 0.0 0.0

81282.65354476497 1.2068080872372728e7 0.0
1.2068080872372728e7 -4.0953488185466655e7 0.0
0.0 0.0 0.0

-3.353992290694685e7 1.3884767298793744e7 0.0
1.3884767298793744e7 8.216425731877372e6 0.0
0.0 0.0 0.0

1.8846714883910152e6 1.8842878191975087e7 0.0
1.8842878191975087e7 1.7013033490550924e7 0.0
0.0 0.0 0.0

-6.333052438563914e6 3.2826037710075933e7 0.0
3.2826037710075933e7 4.908438407826562e6 0.0
0.0 0.0 0.0

211248.34101894172 2.0625750801779397e7 0.0
2.0625750801779397e7 -1.0899159369948182e7 0.0
0.0 0.0 0.0

-6.041446477597218e6 2.8450738873483073e7 0.0
2.8450738873483073e7 6.27723288195598e6 0.0
0.0 0.0 0.0

-4.462124656695984e6 1.2608810917275459e7 0.0
1.2608810917275459e7 5.809992485801886e7 0.0
0.0 0.0 0.0

1.3668968140789317e6 1.5274204926242992e7 0.0
1.5274204926242992e7 -1.7729882340585366e7 0.0
0.0 0.0 0.0

5.429790435897235e6 2.9549446320861988e7 0.0
2.9549446320861988e7 -5.183829787658451e6 0.0
0.0 0.0 0.0

-2.6759157304259287e6 1.2294401977683678e7 0.0
1.2294401977683678e7 2.4390370361061813e6 0.0
0.0 0.0 0.0

-3.049211173261637e7 1.317886643487274e7 0.0
1.317886643487274e7 8.00964460295775e6 0.0
0.0 0.0 0.0

-3.526629182778122e6 1.604141470995537e7 0.0
1.604141470995537e7 123451.68883517827 0.0
0.0 0.0 0.0

-1.093002825930208e7 4.223474169059032e6 0.0
4.223474169059032e6 3.1200706032232676e7 0.0
0.0 0.0 0.0

-6.0338045917262435e6 1.5940779302911276e7 0.0
1.5940779302911276e7 3.695939056215075e7 0.0
0.0 0.0 0.0

-5.295756245778221e6 3.1049359467479426e7 0.0
3.1049359467479426e7 3.640051639604274e6 0.0
0.0 0.0 0.0

-5.566117472583253e6 3.384620790404618e7 0.0
3.384620790404618e7 4.224199096369771e6 0.0
0.0 0.0 0.0

-6.5112886683116965e6 1.1953685003621044e7 0.0
1.1953685003621044e7 4.629441318721059e7 0.0
0.0 0.0 0.0

1.2038551810709294e6 1.3794490440868938e7 0.0
1.3794490440868938e7 -1.4630970007582083e7 0.0
0.0 0.0 0.0

6.493986225280233e6 2.1722555302969933e7 0.0
2.1722555302969933e7 871033.3269057402 0.0
0.0 0.0 0.0

-3.2819750218316615e6 1.5478628144874273e7 0.0
1.5478628144874273e7 -1.0545222176185077e7 0.0
0.0 0.0 0.0

1.1009851671344484e6 1.0048558946595153e7 0.0
1.0048558946595153e7 -1.1634968494852353e7 0.0
0.0 0.0 0.0

-3.8245585737751555e6 3.0763785685322914e7 0.0
3.0763785685322914e7 4.0171857304750406e6 0.0
0.0 0.0 0.0

-7.63647127965641e6 1.8170668584626008e7 0.0
1.8170668584626008e7 2.596656249158671e7 0.0
0.0 0.0 0.0

-624904.0920888428 1.2395470218279025e7 0.0
1.2395470218279025e7 -4.145648224174859e7 0.0
0.0 0.0 0.0

-2.187862723550199e7 2.7224931170980703e7 0.0
2.7224931170980703e7 2.257381169231043e6 0.0
0.0 0.0 0.0

1.8998553023323226e6 2.641113217886583e7 0.0
2.641113217886583e7 -5.952367234064047e6 0.0
0.0 0.0 0.0

1.1091896581936888e6 5.626876449557322e6 0.0
5.626876449557322e6 -5.458864815675052e7 0.0
0.0 0.0 0.0

-2.0079357058192138e6 1.9992130564207874e7 0.0
1.9992130564207874e7 1.9462202947442316e7 0.0
0.0 0.0 0.0

-2.1438129992951937e6 2.3507859592816867e7 0.0
2.3507859592816867e7 1.441172177802479e6 0.0
0.0 0.0 0.0

486481.88301935885 2.0439324482737653e7 0.0
2.0439324482737653e7 -1.4157583797140034e7 0.0
0.0 0.0 0.0

-8.664852848189369e6 3.217683081880539e7 0.0
3.217683081880539e7 5.631449649309235e6 0.0
0.0 0.0 0.0

-1.621172312279533e6 2.3628993041211657e7 0.0
2.3628993041211657e7 -1.3106607187522487e6 0.0
0.0 0.0 0.0

-6.308176133545241e6 3.1742460776959524e7 0.0
3.1742460776959524e7 3.8910948127892725e6 0.0
0.0 0.0 0.0

-2.680705782454215e6 8.2662408196605155e6 0.0
8.2662408196605155e6 3.720990099654965e6 0.0
0.0 0.0 0.0

5.811082867062168e6 1.838600820503045e7 0.0
1.838600820503045e7 2.1753993652783137e7 0.0
0.0 0.0 0.0

-1.026262345330392e6 1.78721963422048e7 0.0
1.78721963422048e7 -2.0768350303399332e7 0.0
0.0 0.0 0.0

-2.51397570454231e6 1.55129112250664e7 0.0
1.55129112250664e7 1.0001719768447093e6 0.0
0.0 0.0 0.0

-47144.022571715526 1.9128594089788932e7 0.0
1.9128594089788932e7 -1.6445575041409807e7 0.0
0.0 0.0 0.0

2.3890439284061613e6 8.031366337481007e6 0.0
8.031366337481007e6 -2.086393379164261e7 0.0
0.0 0.0 0.0

1.3045202153449543e7 2.2879265610938013e7 0.0
2.2879265610938013e7 1.0386557841278527e7 0.0
0.0 0.0 0.0

-8.74838244042379e6 308554.1089180833 0.0
308554.1089180833 3.894453430361342e7 0.0
0.0 0.0 0.0

6.558576203371595e6 1.8579721847271465e7 0.0
1.8579721847271465e7 2.474769586221897e7 0.0
0.0 0.0 0.0

-3.733097514683959e6 2.897933624800082e7 0.0
2.897933624800082e7 3.32759518845869e6 0.0
0.0 0.0 0.0

-706556.1685057832 1.752710593793249e7 0.0
1.752710593793249e7 -2.3638468057667978e7 0.0
0.0 0.0 0.0

4.63768273609001e6 2.8951497344185013e7 0.0
2.8951497344185013e7 -4.835255246489562e6 0.0
0.0 0.0 0.0

-696607.8199945154 1.939765007993225e7 0.0
1.939765007993225e7 -2.5704885861503957e6 0.0
0.0 0.0 0.0

2.448650025428677e6 1.0717300611696623e7 0.0
1.0717300611696623e7 -2.6690460249847356e7 0.0
0.0 0.0 0.0

1.5419033133004764e6 2.571730400727277e7 0.0
2.571730400727277e7 -7.073820533659722e6 0.0
0.0 0.0 0.0

-719825.8784810575 1.8234605998403803e7 0.0
1.8234605998403803e7 -1.9266786130283188e7 0.0
0.0 0.0 0.0

-1.1118878178965997e7 6.679223041073677e6 0.0
6.679223041073677e6 1.7196890961581375e7 0.0
0.0 0.0 0.0

4.1671841648670435e6 2.043971868961875e7 0.0
2.043971868961875e7 1.682715271513243e7 0.0
0.0 0.0 0.0

-5.452458270343343e6 2.374273653988711e7 0.0
2.374273653988711e7 9.498992874114396e6 0.0
0.0 0.0 0.0

-4.138621155690466e6 2.9699648845346592e7 0.0
2.9699648845346592e7 3.360716996227998e6 0.0
0.0 0.0 0.0

-474247.66137154726 1.9827369500494942e7 0.0
1.9827369500494942e7 1.160358162687532e7 0.0
0.0 0.0 0.0

-6.362281361435723e6 4.067997391018293e6 0.0
4.067997391018293e6 1.1041024864495214e7 0.0
0.0 0.0 0.0

-9.147380006690226e6 1.0630795947198229e7 0.0
1.0630795947198229e7 3.87570361638689e7 0.0
0.0 0.0 0.0

279625.67626571096 1.9633540177744783e7 0.0
1.9633540177744783e7 -1.517764736997301e7 0.0
0.0 0.0 0.0

-3.450848918490894e6 1.4714748714894643e7 0.0
1.4714748714894643e7 -6.300616665691348e7 0.0
0.0 0.0 0.0

-5.2112386333530955e6 5.862320544564891e6 0.0
5.862320544564891e6 9.361715031441063e6 0.0
0.0 0.0 0.0

-1.1136699491167173e7 2.175297277998252e6 0.0
2.175297277998252e6 2.3274241075597867e7 0.0
0.0 0.0 0.0

-4.417933769311508e6 1.8143495045257036e7 0.0
1.8143495045257036e7 8.576056642606642e6 0.0
0.0 0.0 0.0

1.3670328353378624e6 2.6652279396706898e7 0.0
2.6652279396706898e7 -5.32192790974679e6 0.0
0.0 0.0 0.0

-4.304859961265139e6 1.6245113406382259e7 0.0
1.6245113406382259e7 -4.032425645771936e7 0.0
0.0 0.0 0.0

3.1102512690422293e6 7.665907311412081e6 0.0
7.665907311412081e6 -1.803855458329859e7 0.0
0.0 0.0 0.0

-2.4217757249749806e6 2.9161870740882345e7 0.0
2.9161870740882345e7 2.982976442804572e6 0.0
0.0 0.0 0.0

2.382069471139069e6 2.607600747003942e7 0.0
2.607600747003942e7 -6.501355602981766e6 0.0
0.0 0.0 0.0

-9.586935609609064e6 3.902130052098075e7 0.0
3.902130052098075e7 3.7865075497016367e6 0.0
0.0 0.0 0.0

-2.9980150688884547e6 2.934677849643312e7 0.0
2.934677849643312e7 3.8870403133217767e6 0.0
0.0 0.0 0.0

-2.5501236188075785e7 2.87610081100922e7 0.0
2.87610081100922e7 -9.364333252408747e6 0.0
0.0 0.0 0.0

-4.151243696787861e6 2.1922893321891025e7 0.0
2.1922893321891025e7 -1.6925791387089659e6 0.0
0.0 0.0 0.0

-3.7062984037638754e6 1.462534571905401e7 0.0
1.462534571905401e7 -5.792996387171109e7 0.0
0.0 0.0 0.0

-3.5754898062310857e6 1.4841966257798346e7 0.0
1.4841966257798346e7 -21200.72732033138 0.0
0.0 0.0 0.0

-9.036970375769606e6 2.508319939316917e6 0.0
2.508319939316917e6 4.453185610288868e7 0.0
0.0 0.0 0.0

-7.661522350933909e6 6.26238362874022e6 0.0
6.26238362874022e6 5.1785633818361856e7 0.0
0.0 0.0 0.0

2.049275023263758e6 6.612665228436362e6 0.0
6.612665228436362e6 -3.985730901237815e7 0.0
0.0 0.0 0.0

-4.776884862517012e6 2.498951364160099e7 0.0
2.498951364160099e7 9.205654444509601e6 0.0
0.0 0.0 0.0

-4.401603042237759e6 1.392488773685901e7 0.0
1.392488773685901e7 4.997239266025259e7 0.0
0.0 0.0 0.0

-382423.7641846724 1.8672398420445498e7 0.0
1.8672398420445498e7 -1.781872922753503e7 0.0
0.0 0.0 0.0

-2.237250809624605e6 1.5931887532024248e7 0.0
1.5931887532024248e7 4.7403859452174954e7 0.0
0.0 0.0 0.0

941973.90888299 2.6030826333174832e7 0.0
2.6030826333174832e7 -6.5534048180958e6 0.0
0.0 0.0 0.0

3.3304656764045786e6 3.142256515712906e7 0.0
3.142256515712906e7 -3.8276507602323103e6 0.0
0.0 0.0 0.0

-363972.56308237975 1.924985426854814e7 0.0
1.924985426854814e7 -4.50954475898811e6 0.0
0.0 0.0 0.0

-1.1403342752214013e7 5.09924794538684e6 0.0
5.09924794538684e6 2.263394482952424e7 0.0
0.0 0.0 0.0

679401.06290435 1.9302287097989768e7 0.0
1.9302287097989768e7 1.4338692689859416e7 0.0
0.0 0.0 0.0

-3.640408013782893e6 1.751332978800238e7 0.0
1.751332978800238e7 9.683996331056358e6 0.0
0.0 0.0 0.0

2.713260793128593e6 4.704051868879657e6 0.0
4.704051868879657e6 -3.638643793470585e7 0.0
0.0 0.0 0.0

4.348370311134347e6 2.259343170034098e7 0.0
2.259343170034098e7 -5.583410301643754e6 0.0
0.0 0.0 0.0

-1.4271887601584205e7 2.160602081371667e7 0.0
2.160602081371667e7 1.5935910720860139e6 0.0
0.0 0.0 0.0

-2.367141139846501e7 2.4738091961692642e7 0.0
2.4738091961692642e7 -7.478751875975093e6 0.0
0.0 0.0 0.0

-2.4453793386695134e6 2.9687874856843546e7 0.0
2.9687874856843546e7 904708.7587382487 0.0
0.0 0.0 0.0

278484.34942865744 1.333475082779036e7 0.0
1.333475082779036e7 -1.3800554030076753e7 0.0
0.0 0.0 0.0

-6.237825477179266e6 2.1649828736197975e7 0.0
2.1649828736197975e7 -1.471093074332499e6 0.0
0.0 0.0 0.0

1.9515074783495255e6 3.1573752850003507e7 0.0
3.1573752850003507e7 -1.8916919781568304e6 0.0
0.0 0.0 0.0

-2.828359522197364e6 2.0075537307392497e7 0.0
2.0075537307392497e7 2.0590315789677594e7 0.0
0.0 0.0 0.0

-1.3669718020550678e6 2.0275279625331324e7 0.0
2.0275279625331324e7 1.1461298970487883e7 0.0
0.0 0.0 0.0

1.2152367326709563e6 1.2878769663918156e7 0.0
1.2878769663918156e7 -1.3062946943430103e7 0.0
0.0 0.0 0.0

-2.069225509665743e6 3.3562867075935155e7 0.0
3.3562867075935155e7 1.685986805357743e6 0.0
0.0 0.0 0.0

-1.0193398410616228e7 1.8415644807861876e6 0.0
1.8415644807861876e6 3.398715117858535e7 0.0
0.0 0.0 0.0

3.4371184862893596e6 5.844376052991939e6 0.0
5.844376052991939e6 -2.843402161077202e7 0.0
0.0 0.0 0.0

380521.3338560095 2.873069378444474e7 0.0
2.873069378444474e7 -2.1072867566616377e6 0.0
0.0 0.0 0.0

-1.0111369410227528e6 1.820841383160913e7 0.0
1.820841383160913e7 -2.12974945989096e7 0.0
0.0 0.0 0.0

-4.921678752543937e6 124070.0926105193 0.0
124070.0926105193 8.500670894854818e6 0.0
0.0 0.0 0.0

887586.0059259254 9.980440992114864e6 0.0
9.980440992114864e6 -1.2752087111808788e7 0.0
0.0 0.0 0.0

-1.0129209917013686e7 2.4493369325167567e7 0.0
2.4493369325167567e7 -9.437361108742356e6 0.0
0.0 0.0 0.0

2.1418316053568106e6 1.2003727767262867e7 0.0
1.2003727767262867e7 -2.5860143138253592e7 0.0
0.0 0.0 0.0

1.2431350155223148e7 2.3545266096603535e7 0.0
2.3545266096603535e7 1.2095674640429711e7 0.0
0.0 0.0 0.0

-4.547278859420423e6 9.020699078723537e6 0.0
9.020699078723537e6 2.5239827208779845e6 0.0
0.0 0.0 0.0

-7.348254875325829e6 4.474113235164071e6 0.0
4.474113235164071e6 7.286276233725423e6 0.0
0.0 0.0 0.0

9.104066528361704e6 2.9683340666044284e7 0.0
2.9683340666044284e7 -5.208771390001437e6 0.0
0.0 0.0 0.0

-1.0091103778216293e7 2.239066822687908e6 0.0
2.239066822687908e6 3.3121962673765987e7 0.0
0.0 0.0 0.0

935650.7204228817 1.6550371911564903e7 0.0
1.6550371911564903e7 -1.5203571872792765e7 0.0
0.0 0.0 0.0

1.3437030416431604e6 1.953194711531637e7 0.0
1.953194711531637e7 2.597109289099861e6 0.0
0.0 0.0 0.0

1.693381246346572e7 2.5156640681128476e7 0.0
2.5156640681128476e7 -3.125529121775344e6 0.0
0.0 0.0 0.0

904452.1428107237 1.755920892130506e7 0.0
1.755920892130506e7 -1.86434640213848e7 0.0
0.0 0.0 0.0

8.629647485003678e6 1.9301866929048993e7 0.0
1.9301866929048993e7 3.2694568197262265e7 0.0
0.0 0.0 0.0

-8.421823601830265e6 2.8371607189169195e7 0.0
2.8371607189169195e7 6.327734885966813e6 0.0
0.0 0.0 0.0

-8.720150627267068e6 2.431699939372341e6 0.0
2.431699939372341e6 4.142164278943987e7 0.0
0.0 0.0 0.0

1.0438420298948982e6 2.8815650216697935e7 0.0
2.8815650216697935e7 -2.6748439212166797e6 0.0
0.0 0.0 0.0

393722.13534119166 2.017754128349515e7 0.0
2.017754128349515e7 2.001422053206066e7 0.0
0.0 0.0 0.0

1.708337549667295e6 1.1479133702078057e7 0.0
1.1479133702078057e7 -2.1559439788360547e7 0.0
0.0 0.0 0.0

2.9158667914706916e6 4.951794958823029e6 0.0
4.951794958823029e6 -4.080005875308129e7 0.0
0.0 0.0 0.0

-2.132671338757359e6 2.342888213410296e7 0.0
2.342888213410296e7 -2.9656306380945304e6 0.0
0.0 0.0 0.0

-8.493425981497534e6 1.200057501157974e7 0.0
1.200057501157974e7 1.699637129287719e7 0.0
0.0 0.0 0.0

-7.528854289588746e6 1.6918632321639072e7 0.0
1.6918632321639072e7 3.1023975302313935e7 0.0
0.0 0.0 0.0

-1.0466719179261466e6 1.7169890777066596e7 0.0
1.7169890777066596e7 -2.5291769369703997e7 0.0
0.0 0.0 0.0

-3.0656014116822183e6 1.4111559290269958e7 0.0
1.4111559290269958e7 -5.3874800718207896e7 0.0
0.0 0.0 0.0

1.4850037329037501e6 2.946340546825553e7 0.0
2.946340546825553e7 -2.6437655758274295e6 0.0
0.0 0.0 0.0

-740511.0745325633 1.997184201335214e7 0.0
1.997184201335214e7 9.032053974838406e6 0.0
0.0 0.0 0.0

-3.74462428965765e7 1.419633749642808e7 0.0
1.419633749642808e7 7.667138837695278e6 0.0
0.0 0.0 0.0

9.418072555851692e6 1.9737117065201454e7 0.0
1.9737117065201454e7 3.677950343693658e7 0.0
0.0 0.0 0.0

-3.437749353123696e7 3.389637282529443e7 0.0
3.389637282529443e7 6.697646140698003e6 0.0
0.0 0.0 0.0

1.457213768409744e6 1.10903472512321e7 0.0
1.10903472512321e7 -3.1329697130946297e7 0.0
0.0 0.0 0.0

7.887301141332641e6 5.743464148401498e6 0.0
5.743464148401498e6 -1.4721407003541342e6 0.0
0.0 0.0 0.0

-1.875084651761697e7 921246.4934201743 0.0
921246.4934201743 6.65820740907636e6 0.0
0.0 0.0 0.0

-8.068960218817941e6 1.073034880808464e7 0.0
1.073034880808464e7 1.5064982139888989e7 0.0
0.0 0.0 0.0

-9.29738498789067e6 3.7426087117401557e6 0.0
3.7426087117401557e6 3.936434101881273e7 0.0
0.0 0.0 0.0

-1.0704601977136264e7 4.335301159880296e6 0.0
4.335301159880296e6 3.2791352529651586e7 0.0
0.0 0.0 0.0

26470.17125369236 1.94347798731549e7 0.0
1.94347798731549e7 -1.6969125452462446e7 0.0
0.0 0.0 0.0

-2.623881178415033e6 1.656642919380477e7 0.0
1.656642919380477e7 -8.746270672249202e6 0.0
0.0 0.0 0.0

2.4087585930855144e6 1.698760082447093e7 0.0
1.698760082447093e7 8.029195411594055e6 0.0
0.0 0.0 0.0

1.0747125451465817e6 1.9265910265303634e7 0.0
1.9265910265303634e7 -351420.15028579574 0.0
0.0 0.0 0.0

1.9814136613808102e6 3.0105926845020156e7 0.0
3.0105926845020156e7 -2.559763516984802e6 0.0
0.0 0.0 0.0

-1.0936622135035656e7 1.161963002445392e7 0.0
1.161963002445392e7 2.150305898288638e7 0.0
0.0 0.0 0.0

373661.46795738675 1.8217981498666454e7 0.0
1.8217981498666454e7 -1.747888505848086e7 0.0
0.0 0.0 0.0

-2.8950121049151532e6 2.5442557450476523e7 0.0
2.5442557450476523e7 3.013368536038081e6 0.0
0.0 0.0 0.0

1.5587809771985374e6 9.006849361343082e6 0.0
9.006849361343082e6 -3.686429643096395e7 0.0
0.0 0.0 0.0

-9.824210133806635e6 3.1299289561456665e6 0.0
3.1299289561456665e6 3.53751934636735e7 0.0
0.0 0.0 0.0

1.241102457914226e6 2.8120347372684505e7 0.0
2.8120347372684505e7 -3.5766529036050932e6 0.0
0.0 0.0 0.0

-1.0594441845113048e6 2.0012005552121438e7 0.0
2.0012005552121438e7 6.421687579853248e6 0.0
0.0 0.0 0.0

-1.4241681535891e6 2.020158984652406e7 0.0
2.020158984652406e7 3.8426841958372775e6 0.0
0.0 0.0 0.0

-6.884020544188382e6 2.3578534747852497e7 0.0
2.3578534747852497e7 -1.1877697989588752e7 0.0
0.0 0.0 0.0

6.717319598335758e6 1.6737485494825272e7 0.0
1.6737485494825272e7 2.4038473016923394e7 0.0
0.0 0.0 0.0

-7.746256255055485e6 2.259958041665092e7 0.0
2.259958041665092e7 -9.93840438322689e6 0.0
0.0 0.0 0.0

-6.615430686849615e6 1.4699226175543934e7 0.0
1.4699226175543934e7 3.869349309762875e7 0.0
0.0 0.0 0.0

-9.312378330257453e6 2.3545401246456816e6 0.0
2.3545401246456816e6 4.118907239848985e7 0.0
0.0 0.0 0.0

2.3914130685501397e6 1.1022889210825654e7 0.0
1.1022889210825654e7 -2.0804759705159515e7 0.0
0.0 0.0 0.0

2.0588682923838198e6 5.760669187258344e6 0.0
5.760669187258344e6 -4.18283911702714e7 0.0
0.0 0.0 0.0

878411.3002333567 1.871216401216568e7 0.0
1.871216401216568e7 -1.6156793929471966e7 0.0
0.0 0.0 0.0

7.557006691103423e6 2.257276752959899e7 0.0
2.257276752959899e7 9.908112330998043e6 0.0
0.0 0.0 0.0

2.601943206375391e6 6.8963525171184195e6 0.0
6.8963525171184195e6 -1.927724269148804e7 0.0
0.0 0.0 0.0

-7.297999232662944e6 1.77330299712348e7 0.0
1.77330299712348e7 -3.1424730099129546e7 0.0
0.0 0.0 0.0

-2.540362743772246e6 1.3798124500510223e7 0.0
1.3798124500510223e7 -5.00720854382948e7 0.0
0.0 0.0 0.0

-4.274466507731088e6 1.7235897511056453e7 0.0
1.7235897511056453e7 5.917428844123074e6 0.0
0.0 0.0 0.0

-6.209614256330958e6 2.5351453933570947e7 0.0
2.5351453933570947e7 8.734229850825654e6 0.0
0.0 0.0 0.0

-1.0279332976423217e7 2.3423525104054585e7 0.0
2.3423525104054585e7 -1.0399605547298225e7 0.0
0.0 0.0 0.0

-7.592196493088514e6 3.234014565838582e6 0.0
3.234014565838582e6 5.095412859816332e7 0.0
0.0 0.0 0.0

-2.0065401867260337e6 1.3660426579352377e7 0.0
1.3660426579352377e7 -4.6789850852770925e7 0.0
0.0 0.0 0.0

-6.318349691886045e6 1.4010505537079142e7 0.0
1.4010505537079142e7 4.1466439498340145e7 0.0
0.0 0.0 0.0

-1.9524161948624048e6 2.0378985632083043e7 0.0
2.0378985632083043e7 1.2489940351390908e6 0.0
0.0 0.0 0.0

753414.2557177795 2.975603079098098e7 0.0
2.975603079098098e7 -3.1074427735006413e6 0.0
0.0 0.0 0.0

-1.3446735833706958e7 2.7899180645162724e7 0.0
2.7899180645162724e7 5.059629898593812e6 0.0
0.0 0.0 0.0

-8.384379208664224e6 1.6125604820327148e7 0.0
1.6125604820327148e7 3.070674984738768e7 0.0
0.0 0.0 0.0

-5.026843379072309e6 1.5494499833274232e7 0.0
1.5494499833274232e7 -1.7598138404444247e7 0.0
0.0 0.0 0.0

4.407112837560705e6 1.791948942700432e7 0.0
1.791948942700432e7 1.4890140715056082e7 0.0
0.0 0.0 0.0

1.9101507908223271e6 7.26343164311202e6 0.0
7.26343164311202e6 -3.811909615745193e7 0.0
0.0 0.0 0.0

1.3433660682989703e6 9.276419821090788e6 0.0
9.276419821090788e6 -1.3942311368300267e7 0.0
0.0 0.0 0.0

-8.293434497533137e6 1.1768232847373735e7 0.0
1.1768232847373735e7 4.015655047500818e7 0.0
0.0 0.0 0.0

-3.3834692723346306e6 2.1943866544278968e7 0.0
2.1943866544278968e7 1.2226537634004246e7 0.0
0.0 0.0 0.0

-3.3544150791285276e7 2.8505566686427467e7 0.0
2.8505566686427467e7 1.1469024148320574e6 0.0
0.0 0.0 0.0

-435454.70026770607 1.5493000250920381e7 0.0
1.5493000250920381e7 -2.7811986910102434e7 0.0
0.0 0.0 0.0

1.1627463618858121e6 1.052528172485039e7 0.0
1.052528172485039e7 -3.548224972173643e7 0.0
0.0 0.0 0.0

-1.4787803553059008e6 1.3662945058483582e7 0.0
1.3662945058483582e7 -4.373414913324835e7 0.0
0.0 0.0 0.0

2.740433819869687e6 4.37542799067479e6 0.0
4.37542799067479e6 -1.0294361974564578e7 0.0
0.0 0.0 0.0

415211.85045464616 2.0818542163990423e7 0.0
2.0818542163990423e7 -1.1431003201270849e7 0.0
0.0 0.0 0.0

1.9461524594587418e6 2.2494318503682468e7 0.0
2.2494318503682468e7 -9.334342410621207e6 0.0
0.0 0.0 0.0

-2.0566491713818993e7 3.717679440601814e7 0.0
3.717679440601814e7 6.789532088707559e6 0.0
0.0 0.0 0.0

1.5709696470575477e6 4.455082882157764e6 0.0
4.455082882157764e6 -5.696319078355593e6 0.0
0.0 0.0 0.0

-628356.4903285066 1.8585849504919816e7 0.0
1.8585849504919816e7 -1.9724104966040768e7 0.0
0.0 0.0 0.0

-6.917672928556247e6 1.8307313983477965e7 0.0
1.8307313983477965e7 2.6213173134341054e7 0.0
0.0 0.0 0.0

-1.037205312715376e7 3.0678336324307406e6 0.0
3.0678336324307406e6 2.926593035228804e7 0.0
0.0 0.0 0.0

2.6041710956422538e6 5.36145131024662e6 0.0
5.36145131024662e6 -3.486386186463152e7 0.0
0.0 0.0 0.0

-1.0900540902281398e7 5.841549426499507e6 0.0
5.841549426499507e6 2.8770554151378594e7 0.0
0.0 0.0 0.0

-1.011150294112487e7 5.821621764727449e6 0.0
5.821621764727449e6 3.44972080173205e7 0.0
0.0 0.0 0.0

-9.674546491576504e6 1.0859977391557727e7 0.0
1.0859977391557727e7 1.8531157280133307e7 0.0
0.0 0.0 0.0

-4.44455862812053e6 2.334592100326691e7 0.0
2.334592100326691e7 1.2210777552926714e7 0.0
0.0 0.0 0.0

-2.27391673334762e6 1.2977637454160525e7 0.0
1.2977637454160525e7 811989.0006063237 0.0
0.0 0.0 0.0

2.1803072851106133e7 6.033810021430646e6 0.0
6.033810021430646e6 -2.395612684928774e6 0.0
0.0 0.0 0.0

-3.4199167746679485e7 2.873441735537096e6 0.0
2.873441735537096e6 6.861624393893296e6 0.0
0.0 0.0 0.0

2.6601909205577625e6 8.603477924037874e6 0.0
8.603477924037874e6 -1.4949225280051183e7 0.0
0.0 0.0 0.0

1.9376395220913552e6 1.0080470251039814e7 0.0
1.0080470251039814e7 -3.481013232064067e7 0.0
0.0 0.0 0.0

2.38161486460275e6 8.404626632299652e6 0.0
8.404626632299652e6 -3.595537529123331e7 0.0
0.0 0.0 0.0

507361.1139142367 2.0610984566021624e6 0.0
2.0610984566021624e6 1.801568255432853e6 0.0
0.0 0.0 0.0

-4.216378775115734e6 -1.1081361045387622e6 0.0
-1.1081361045387622e6 3.964713937366196e6 0.0
0.0 0.0 0.0

-4.873303388282018e6 1.783582193736624e7 0.0
1.783582193736624e7 -2.825819096843262e7 0.0
0.0 0.0 0.0

2.2708503989188056e6 5.719217996069563e6 0.0
5.719217996069563e6 -3.9225547190099366e7 0.0
0.0 0.0 0.0

-2.707481258837114e7 2.6155289508876268e7 0.0
2.6155289508876268e7 -1.0772671062021246e7 0.0
0.0 0.0 0.0

-5.211375260119174e6 2.0668834080036737e7 0.0
2.0668834080036737e7 1.7018613945773587e7 0.0
0.0 0.0 0.0

1.344281767299289e6 2.7394103582141157e7 0.0
2.7394103582141157e7 -4.431447985853914e6 0.0
0.0 0.0 0.0

5.828235719467814e6 1.6570139614350602e7 0.0
1.6570139614350602e7 2.102353593427173e7 0.0
0.0 0.0 0.0

1.2655044731851757e7 1.1543833925517758e7 0.0
1.1543833925517758e7 1.3619284500303334e6 0.0
0.0 0.0 0.0

-1.30975183464286e7 2.5929205489137314e7 0.0
2.5929205489137314e7 -1.0650552712412776e7 0.0
0.0 0.0 0.0

-8.565508258762475e6 6.240698655803521e6 0.0
6.240698655803521e6 4.4359934259831116e7 0.0
0.0 0.0 0.0

-5.9803962323887525e6 2.452792686244925e7 0.0
2.452792686244925e7 9.165237758699639e6 0.0
0.0 0.0 0.0

2.5757611875729063e6 2.2615962774017096e7 0.0
2.2615962774017096e7 -8.114569958005836e6 0.0
0.0 0.0 0.0

-6.625137828245033e6 1.8728701953622673e7 0.0
1.8728701953622673e7 2.4944045721869703e7 0.0
0.0 0.0 0.0

-9.536898729611058e6 -733731.6465481913 0.0
-733731.6465481913 2.91394122437924e7 0.0
0.0 0.0 0.0

-34642.059980296995 2.8440378646373905e7 0.0
2.8440378646373905e7 -3.260762653343454e6 0.0
0.0 0.0 0.0

1.4890915460372102e6 1.0405850251336575e7 0.0
1.0405850251336575e7 -3.3190165193737365e7 0.0
0.0 0.0 0.0

3.1499611993193203e6 2.6516938105746996e7 0.0
2.6516938105746996e7 -6.271271739801353e6 0.0
0.0 0.0 0.0

2.7547457513697576e6 6.798909918549729e6 0.0
6.798909918549729e6 -3.737962199063453e7 0.0
0.0 0.0 0.0

5.825746027095849e6 1.8798798471872114e7 0.0
1.8798798471872114e7 1.8096476867194965e7 0.0
0.0 0.0 0.0

-610402.275069091 2.145147279068873e7 0.0
2.145147279068873e7 -9.958100847029814e6 0.0
0.0 0.0 0.0

-1.1308067478399495e7 2.787869093108466e6 0.0
2.787869093108466e6 1.7403948482465062e7 0.0
0.0 0.0 0.0

-2.7194619854722354e6 1.639584360731219e7 0.0
1.639584360731219e7 -9.065935662494756e6 0.0
0.0 0.0 0.0

3.087538950916877e6 4.999067727763023e6 0.0
4.999067727763023e6 -3.812245406933133e7 0.0
0.0 0.0 0.0

1.403747196988799e7 2.660464769134445e7 0.0
2.660464769134445e7 -4.402133443596732e6 0.0
0.0 0.0 0.0

2.3160133492369056e6 7.671723362872099e6 0.0
7.671723362872099e6 -1.8108089802963234e7 0.0
0.0 0.0 0.0

-1.2318143268473934e7 7.387021208754029e6 0.0
7.387021208754029e6 2.1316095919468157e7 0.0
0.0 0.0 0.0

-3.391510868206751e6 2.825543073230699e7 0.0
2.825543073230699e7 3.192404049993354e6 0.0
0.0 0.0 0.0

-1.264990757098157e6 1.3689790238099705e7 0.0
1.3689790238099705e7 -4.078773749727093e7 0.0
0.0 0.0 0.0

-4.720120334202383e6 1.653352321014652e7 0.0
1.653352321014652e7 -1.5733734426009813e7 0.0
0.0 0.0 0.0

4.1540391252360474e6 1.7104053613020163e7 0.0
1.7104053613020163e7 1.3846797427420778e7 0.0
0.0 0.0 0.0

-2.764694950328801e6 1.3656142761010256e7 0.0
1.3656142761010256e7 2.488340745190792e6 0.0
0.0 0.0 0.0

-5.519473353741247e6 1.5777810818889532e7 0.0
1.5777810818889532e7 9.276118856862165e6 0.0
0.0 0.0 0.0

2.3316745019064373e6 1.947190903798518e7 0.0
1.947190903798518e7 1.9191931545006614e7 0.0
0.0 0.0 0.0

-1.0095617683058808e7 724765.2193219592 0.0
724765.2193219592 2.54777661767903e7 0.0
0.0 0.0 0.0

2.0194446286497028e6 2.1091111516943872e7 0.0
2.1091111516943872e7 4.983193655689627e6 0.0
0.0 0.0 0.0

-4.0435402815788593e6 2.2721054446889423e7 0.0
2.2721054446889423e7 1.2766567845017193e7 0.0
0.0 0.0 0.0

2.100916650478065e6 7.855851434913213e6 0.0
7.855851434913213e6 -1.6126211129463013e7 0.0
0.0 0.0 0.0

-1.1474565141104726e7 4.3174215910333935e6 0.0
4.3174215910333935e6 2.674096356127052e7 0.0
0.0 0.0 0.0

-6.304438467556326e6 2.213099607215308e7 0.0
2.213099607215308e7 -8.311493151274652e6 0.0
0.0 0.0 0.0

-7.002953481951777e6 1.909403502027402e7 0.0
1.909403502027402e7 2.3674389600026436e7 0.0
0.0 0.0 0.0

-199699.1331228055 2.0243872446161304e7 0.0
2.0243872446161304e7 1.6170402414376007e7 0.0
0.0 0.0 0.0

-1.1158577914520899e7 8.593765149704661e6 0.0
8.593765149704661e6 2.8232728300009664e7 0.0
0.0 0.0 0.0

1.8927069287987337e6 2.2148958390459053e7 0.0
2.2148958390459053e7 -1.0237853018269654e7 0.0
0.0 0.0 0.0

-5.950076964728458e6 2.7569882806173638e7 0.0
2.7569882806173638e7 6.944543824141077e6 0.0
0.0 0.0 0.0

-8.898982494801495e6 1.0051972571823794e7 0.0
1.0051972571823794e7 3.973901658345458e7 0.0
0.0 0.0 0.0

-9.504363886229357e6 1.2990500847450702e7 0.0
1.2990500847450702e7 1.5067218613477044e7 0.0
0.0 0.0 0.0

-9.700472621807406e6 3.7128687737739407e6 0.0
3.7128687737739407e6 3.876814662200854e7 0.0
0.0 0.0 0.0

437973.476304627 1.7652674620187983e7 0.0
1.7652674620187983e7 -1.8791750544518314e7 0.0
0.0 0.0 0.0

-5.398895990033784e6 2.4705857715453014e7 0.0
2.4705857715453014e7 9.923650412354916e6 0.0
0.0 0.0 0.0

-2.5292820889414116e6 2.0571862536982402e7 0.0
2.0571862536982402e7 -1.25900412904628e6 0.0
0.0 0.0 0.0

2.937703366206566e6 8.734935860517511e6 0.0
8.734935860517511e6 -1.965825144408115e7 0.0
0.0 0.0 0.0

-9.468885852033459e6 145545.39165999196 0.0
145545.39165999196 3.242902833634273e7 0.0
0.0 0.0 0.0

-3.1606215751916077e6 1.6229183404028691e7 0.0
1.6229183404028691e7 4.3852027679963045e7 0.0
0.0 0.0 0.0

-6.999914579761339e6 1.2783535996971084e7 0.0
1.2783535996971084e7 4.2903508711742535e7 0.0
0.0 0.0 0.0

1.8451553394433893e6 1.9760492450102724e7 0.0
1.9760492450102724e7 1.116637179026695e7 0.0
0.0 0.0 0.0

-1.1841220177009065e7 7.090029654398188e6 0.0
7.090029654398188e6 2.621868322814959e7 0.0
0.0 0.0 0.0

-4.515342170048876e6 1.5102562752876626e7 0.0
1.5102562752876626e7 1.0502494504988385e7 0.0
0.0 0.0 0.0

-1.0351733325334463e6 2.0377151672338527e7 0.0
2.0377151672338527e7 -6.272048896887286e6 0.0
0.0 0.0 0.0

401227.03373376187 1.5958568031957686e7 0.0
1.5958568031957686e7 -1.6142530018187407e7 0.0
0.0 0.0 0.0

-4.0514504367942372e6 2.2727847860219695e7 0.0
2.2727847860219695e7 1.3984164084970947e7 0.0
0.0 0.0 0.0

-4.458333190535335e6 3.1423882576271854e7 0.0
3.1423882576271854e7 4.224315654733719e6 0.0
0.0 0.0 0.0

-9.511768881727606e6 1.3558565383528775e7 0.0
1.3558565383528775e7 3.26512770578864e7 0.0
0.0 0.0 0.0

8.489440232444458e6 1.7083526385909755e7 0.0
1.7083526385909755e7 3.0782509355244834e7 0.0
0.0 0.0 0.0

-57061.5967641538 2.021603252239248e7 0.0
2.021603252239248e7 -9.150584084906172e6 0.0
0.0 0.0 0.0

2.324937429288257e6 1.1422100450498194e7 0.0
1.1422100450498194e7 -2.5401108913406804e7 0.0
0.0 0.0 0.0

2.830943213892948e6 3.0386461261618678e6 0.0
3.0386461261618678e6 -4.1051470839829214e7 0.0
0.0 0.0 0.0

-9.366756849751387e6 435372.2887868898 0.0
435372.2887868898 3.620284713318831e7 0.0
0.0 0.0 0.0

-3.5461177419785643e6 2.2683004847759183e7 0.0
2.2683004847759183e7 1.2782135538208038e7 0.0
0.0 0.0 0.0

-2.0205049149816493e6 1.67471210174932e7 0.0
1.67471210174932e7 1.62435114889849e7 0.0
0.0 0.0 0.0

977072.7550155222 1.6760995373337451e7 0.0
1.6760995373337451e7 6.3496562282546766e7 0.0
0.0 0.0 0.0

192928.46255671233 1.5179610686848626e7 0.0
1.5179610686848626e7 -1.4915905290476235e7 0.0
0.0 0.0 0.0

6.783667796990863e6 1.7552329418968603e7 0.0
1.7552329418968603e7 2.2612226497783244e7 0.0
0.0 0.0 0.0

-1.0559072203660468e7 444437.93766078015 0.0
444437.93766078015 2.6860138495716825e7 0.0
0.0 0.0 0.0

-2.3133052952613678e7 1.5166180202928784e6 0.0
1.5166180202928784e6 8.231700245642403e6 0.0
0.0 0.0 0.0

1.940997798489621e6 9.75510035148815e6 0.0
9.75510035148815e6 -3.026958526153418e7 0.0
0.0 0.0 0.0

-1.1863898586751185e7 4.9538521778655145e6 0.0
4.9538521778655145e6 2.3194298404645376e7 0.0
0.0 0.0 0.0

1.1560646557163317e6 1.1145993764676116e7 0.0
1.1145993764676116e7 -3.3553474660014626e7 0.0
0.0 0.0 0.0

-6.398490296821861e6 1.699686214849805e7 0.0
1.699686214849805e7 3.246263500829014e7 0.0
0.0 0.0 0.0

3.7762762857362553e6 3.4813991522269193e6 0.0
3.4813991522269193e6 -2.5801670774134226e7 0.0
0.0 0.0 0.0

1.1325293255887296e7 2.7573221656692553e7 0.0
2.7573221656692553e7 -4.935043772428406e6 0.0
0.0 0.0 0.0

-2.12080097351831e6 1.4857187169940269e7 0.0
1.4857187169940269e7 -559755.0388075969 0.0
0.0 0.0 0.0

973046.4062835942 6.742583048471701e6 0.0
6.742583048471701e6 -4.219424685344429e6 0.0
0.0 0.0 0.0

3.1085496303162646e7 6.154335181133318e6 0.0
6.154335181133318e6 -1.996368429885624e6 0.0
0.0 0.0 0.0

-4.772246548887543e6 1.7424063240373265e7 0.0
1.7424063240373265e7 3.3196283174025528e7 0.0
0.0 0.0 0.0

-1.127663619087372e6 1.089507745445639e7 0.0
1.089507745445639e7 -6.237934197847969e6 0.0
0.0 0.0 0.0

-1.0380410843244042e7 5.099995071230805e6 0.0
5.099995071230805e6 3.635447965945642e7 0.0
0.0 0.0 0.0

1.886695372465284e6 5.589897034918055e6 0.0
5.589897034918055e6 -1.0095388406589048e7 0.0
0.0 0.0 0.0

-5.525641720953013e6 2.1703149879681535e7 0.0
2.1703149879681535e7 -6.18241782874052e6 0.0
0.0 0.0 0.0

-4.1240288597764764e6 2.0768821131549977e7 0.0
2.0768821131549977e7 1.7095798640268013e7 0.0
0.0 0.0 0.0

-1.1511941963055855e7 8.916356250656484e6 0.0
8.916356250656484e6 2.332852913108093e7 0.0
0.0 0.0 0.0

2.194571200583376e6 8.350808022674928e6 0.0
8.350808022674928e6 -3.120738676379113e7 0.0
0.0 0.0 0.0

-6.161356467949795e6 1.6518762731084725e7 0.0
1.6518762731084725e7 -3.8329266227870494e7 0.0
0.0 0.0 0.0

-7.39308111797931e6 6.879923230841702e6 0.0
6.879923230841702e6 7.701308355755357e6 0.0
0.0 0.0 0.0

3.330350227209883e6 3.728091230602651e6 0.0
3.728091230602651e6 -2.362009850768873e7 0.0
0.0 0.0 0.0

-231675.980329738 1.842914141620673e7 0.0
1.842914141620673e7 -1.378677813842762e7 0.0
0.0 0.0 0.0

1.9326141165690303e7 2.224879879910754e7 0.0
2.224879879910754e7 6.799791610524239e6 0.0
0.0 0.0 0.0

2.708022760844739e6 5.961131034187481e6 0.0
5.961131034187481e6 -4.156601242504085e7 0.0
0.0 0.0 0.0

-1.3301595873212788e7 -50287.1516605592 0.0
-50287.1516605592 6.58946441587246e6 0.0
0.0 0.0 0.0

-6.049997762116266e6 1.922770262632224e7 0.0
1.922770262632224e7 2.1976553066324323e7 0.0
0.0 0.0 0.0

-2.1606087153842873e6 9.289681612215852e6 0.0
9.289681612215852e6 2.118477009422276e6 0.0
0.0 0.0 0.0

-1.1431391983716093e7 8.091448913078853e6 0.0
8.091448913078853e6 2.5406741639071133e7 0.0
0.0 0.0 0.0

2.215736813990971e6 6.373790700686872e6 0.0
6.373790700686872e6 -4.799365061766428e7 0.0
0.0 0.0 0.0

9.872649157110263e6 1.8348102799290743e7 0.0
1.8348102799290743e7 3.2908831082075983e7 0.0
0.0 0.0 0.0

9.289165823485063e6 2.3384595011968274e7 0.0
2.3384595011968274e7 1.2263853590163553e7 0.0
0.0 0.0 0.0

-5.337890007438639e6 1.7937768184151433e7 0.0
1.7937768184151433e7 -2.2959607148872573e7 0.0
0.0 0.0 0.0

-113035.71854049806 1.3949493396629121e7 0.0
1.3949493396629121e7 -1.2626169014312059e7 0.0
0.0 0.0 0.0

-3.709529270903143e6 2.1501684914193626e7 0.0
2.1501684914193626e7 1.5862455044477409e7 0.0
0.0 0.0 0.0

9.92007571959596e6 2.1135421950033158e7 0.0
2.1135421950033158e7 392199.74670834374 0.0
0.0 0.0 0.0

1.6325701289798655e6 1.1070017595671657e7 0.0
1.1070017595671657e7 -2.927045395287476e7 0.0
0.0 0.0 0.0

1.1556196472602554e6 3.0420219579903424e7 0.0
3.0420219579903424e7 -3.053518373640486e6 0.0
0.0 0.0 0.0

-133589.31246724539 1.8353824018608462e7 0.0
1.8353824018608462e7 4.1175711028233157e6 0.0
0.0 0.0 0.0

-6.86392997793415e7 5.986221077199041e6 0.0
5.986221077199041e6 4.235523378437016e6 0.0
0.0 0.0 0.0

5.57311580779986e7 7.344437329334945e6 0.0
7.344437329334945e6 -696469.2376436479 0.0
0.0 0.0 0.0

4.079820449198117e6 2.1335089324045602e7 0.0
2.1335089324045602e7 8.979967008014785e6 0.0
0.0 0.0 0.0

-5.050759161361104e6 8.146191133850979e6 0.0
8.146191133850979e6 2.7549326566966813e7 0.0
0.0 0.0 0.0

895530.7761803875 1.9855588340508636e7 0.0
1.9855588340508636e7 1.6304298020457331e7 0.0
0.0 0.0 0.0

2.0956193252318325e6 2.5309229717601478e7 0.0
2.5309229717601478e7 -7.510557251341437e6 0.0
0.0 0.0 0.0

4.878346138720656e6 1.9869078298948377e7 0.0
1.9869078298948377e7 1.6261154502824463e7 0.0
0.0 0.0 0.0

-1.142988051929453e7 7.875356288479892e6 0.0
7.875356288479892e6 2.2604031289048065e7 0.0
0.0 0.0 0.0

-3.063906039504538e6 2.1198984020716857e7 0.0
2.1198984020716857e7 1.0675489630473306e7 0.0
0.0 0.0 0.0

-4.616674149927263e7 3.520639860440493e7 0.0
3.520639860440493e7 -8.69210215943123e6 0.0
0.0 0.0 0.0

3.0243991784940735e6 4.27612251858933e6 0.0
4.27612251858933e6 -2.929364293982057e7 0.0
0.0 0.0 0.0

-3.1472565525507727e6 2.0841387176236574e7 0.0
2.0841387176236574e7 -3.6400044692707807e6 0.0
0.0 0.0 0.0

9.201534438874772e6 1.730166704181336e7 0.0
1.730166704181336e7 3.47977436926407e7 0.0
0.0 0.0 0.0

-6.831426576187529e6 1.6639378927628493e7 0.0
1.6639378927628493e7 -2.2771422010674194e7 0.0
0.0 0.0 0.0

5.901193150909455e6 1.73361386169638e7 0.0
1.73361386169638e7 1.967064457833615e7 0.0
0.0 0.0 0.0

-886951.2814201675 1.3972648431042183e7 0.0
1.3972648431042183e7 -3.838480571278569e7 0.0
0.0 0.0 0.0

-1.0129505667923566e7 1.7932053852295903e6 0.0
1.7932053852295903e6 2.8570575529059283e7 0.0
0.0 0.0 0.0

-1.7745727161135808e7 3.053466782695846e7 0.0
3.053466782695846e7 6.032722810915473e6 0.0
0.0 0.0 0.0

2.2468297184177227e6 8.238979411077501e6 0.0
8.238979411077501e6 -1.8946898004143454e7 0.0
0.0 0.0 0.0

-4.909784487565296e6 1.7829925234035674e7 0.0
1.7829925234035674e7 3.1389390214672983e7 0.0
0.0 0.0 0.0

-1.2016530475366678e7 5.168948675173447e6 0.0
5.168948675173447e6 1.9280976526413605e7 0.0
0.0 0.0 0.0

-4.956074149251158e6 3.0636996129173823e7 0.0
3.0636996129173823e7 4.857895950953528e6 0.0
0.0 0.0 0.0

-1.1450390212665576e7 3.471907216716343e7 0.0
3.471907216716343e7 5.840477279166697e6 0.0
0.0 0.0 0.0

-1.2595535776557598e7 -322965.4850257112 0.0
-322965.4850257112 7.016114213465662e6 0.0
0.0 0.0 0.0

-3.0091136368650175e6 1.7472740653906465e7 0.0
1.7472740653906465e7 -1.108116314791211e7 0.0
0.0 0.0 0.0

1.574778856216011e6 2.471304314242732e7 0.0
2.471304314242732e7 -7.757891219064783e6 0.0
0.0 0.0 0.0

-9.165247299687944e6 2.9196994180296343e6 0.0
2.9196994180296343e6 1.0629169302739887e7 0.0
0.0 0.0 0.0

8.906792765225844e6 2.8120548861628957e7 0.0
2.8120548861628957e7 -5.253240961935911e6 0.0
0.0 0.0 0.0

-1.2244595154081795e7 6.322271749106235e6 0.0
6.322271749106235e6 2.040279905357574e7 0.0
0.0 0.0 0.0

2.753674327855831e6 4.674802861049661e6 0.0
4.674802861049661e6 -3.423725857944149e7 0.0
0.0 0.0 0.0

2.801410669807533e6 5.605672544839203e6 0.0
5.605672544839203e6 -3.0634321155621715e7 0.0
0.0 0.0 0.0

722948.9741380047 1.3667420068297647e7 0.0
1.3667420068297647e7 -1.6431463468845202e7 0.0
0.0 0.0 0.0

1.5090401511871666e6 2.202884306392909e7 0.0
2.202884306392909e7 -1.1096376681868788e7 0.0
0.0 0.0 0.0

2.2176892012997605e6 5.679123894786344e6 0.0
5.679123894786344e6 -5.087607398990113e7 0.0
0.0 0.0 0.0

-6.512474432177115e6 2.2929501183678683e7 0.0
2.2929501183678683e7 -1.244928002721863e7 0.0
0.0 0.0 0.0

674988.3930065511 1.5623167607507832e7 0.0
1.5623167607507832e7 -2.2826331887664817e7 0.0
0.0 0.0 0.0

-8.116707106920028e6 1.8133890106436912e7 0.0
1.8133890106436912e7 2.490370081711436e7 0.0
0.0 0.0 0.0

-5.767608869153285e6 2.2594110744058415e7 0.0
2.2594110744058415e7 -1.1207046014981527e7 0.0
0.0 0.0 0.0

2.3426008451022636e6 1.0691795893693937e7 0.0
1.0691795893693937e7 -2.8678421031291664e7 0.0
0.0 0.0 0.0

-3.149067940542665e7 2.394027365817335e7 0.0
2.394027365817335e7 5.039990096858343e6 0.0
0.0 0.0 0.0

2.769118404576104e6 3.864892983918972e6 0.0
3.864892983918972e6 -3.577452656194347e7 0.0
0.0 0.0 0.0

3.3669636733700335e6 5.721689227821982e6 0.0
5.721689227821982e6 -3.051068159278325e7 0.0
0.0 0.0 0.0

791551.892693229 2.010578686901302e7 0.0
2.010578686901302e7 -1.4176493880700013e7 0.0
0.0 0.0 0.0

-1.7218358214623325e7 -35253.1168060195 0.0
-35253.1168060195 8.266150446320774e6 0.0
0.0 0.0 0.0

1.542046336516203e6 1.072769731241298e7 0.0
1.072769731241298e7 -1.158936983287624e7 0.0
0.0 0.0 0.0

-765961.7394282315 1.806090794488934e7 0.0
1.806090794488934e7 2.065202635499052e7 0.0
0.0 0.0 0.0

-3.750026558619868e6 2.9362860374039963e7 0.0
2.9362860374039963e7 4.736618993085198e6 0.0
0.0 0.0 0.0

-5.952553247011058e6 3.1179449279362347e7 0.0
3.1179449279362347e7 5.110858436609246e6 0.0
0.0 0.0 0.0

-1.2307182696247283e7 8.96951217832362e6 0.0
8.96951217832362e6 2.059292479758797e7 0.0
0.0 0.0 0.0

-2.6109696237500124e6 1.3754299290347215e7 0.0
1.3754299290347215e7 5.960379069898312e7 0.0
0.0 0.0 0.0

-2.592444372329427e6 2.988208163761404e7 0.0
2.988208163761404e7 3.1516128455392225e6 0.0
0.0 0.0 0.0

-4.0746885724136247e6 2.1190623786081806e7 0.0
2.1190623786081806e7 -1.478975419645417e6 0.0
0.0 0.0 0.0

-90889.83231883543 1.9977248994889908e7 0.0
1.9977248994889908e7 -4.885696509277886e6 0.0
0.0 0.0 0.0

3.5557335893181525e7 2.389553754092544e7 0.0
2.389553754092544e7 1.3879910389990143e7 0.0
0.0 0.0 0.0

-1.1325983785772871e7 1.0267871125448987e7 0.0
1.0267871125448987e7 2.2485811935904223e7 0.0
0.0 0.0 0.0

3.450095783035619e6 4.11843967255778e6 0.0
4.11843967255778e6 -3.3416338160948075e7 0.0
0.0 0.0 0.0

409229.99265495036 1.9094537996454358e7 0.0
1.9094537996454358e7 -1.2732839961302532e7 0.0
0.0 0.0 0.0

-2.8030519687627098e6 1.6138123428336138e7 0.0
1.6138123428336138e7 2.5171451527413367e6 0.0
0.0 0.0 0.0

-1.2713658438941495e7 1.965302314037098e7 0.0
1.965302314037098e7 2.4463078827527994e6 0.0
0.0 0.0 0.0

-9.474228074922536e6 1.7607675690120454e6 0.0
1.7607675690120454e6 3.477130420612348e7 0.0
0.0 0.0 0.0

-7.40722943205232e7 4.5394078939897366e7 0.0
4.5394078939897366e7 -1.5107631976872828e7 0.0
0.0 0.0 0.0

-1.018351445193565e7 1.721189338976335e7 0.0
1.721189338976335e7 -3.394504910780475e7 0.0
0.0 0.0 0.0

8.744280345091935e6 1.8002450629064914e7 0.0
1.8002450629064914e7 2.9147602051018827e7 0.0
0.0 0.0 0.0

762483.3548258282 1.45789173928666e7 0.0
1.45789173928666e7 -2.5801842673324175e7 0.0
0.0 0.0 0.0

-1.3425138104954759e7 2.4320835821056813e7 0.0
2.4320835821056813e7 -5.299059156200914e6 0.0
0.0 0.0 0.0

2.7712453376095667e6 8.971161215199022e6 0.0
8.971161215199022e6 -1.774927747829556e7 0.0
0.0 0.0 0.0

2.6528892234420236e6 9.313226583836671e6 0.0
9.313226583836671e6 -2.957796136671633e7 0.0
0.0 0.0 0.0

-4.697338768755776e6 2.016945604442822e7 0.0
2.016945604442822e7 1.882886560475657e7 0.0
0.0 0.0 0.0

1.5548506745051146e6 1.1711912068362294e7 0.0
1.1711912068362294e7 -2.7789068847225063e7 0.0
0.0 0.0 0.0

-4.21252384164107e6 3.0009523961504035e7 0.0
3.0009523961504035e7 4.797258542674677e6 0.0
0.0 0.0 0.0

-1.1093080776426632e7 7.069818686712212e6 0.0
7.069818686712212e6 3.184064283832746e7 0.0
0.0 0.0 0.0

-9.582615016035128e6 -435763.36872001743 0.0
-435763.36872001743 2.68806193938412e7 0.0
0.0 0.0 0.0

2.395995684581086e6 7.650381668166693e6 0.0
7.650381668166693e6 -3.0557793067347433e7 0.0
0.0 0.0 0.0

-1.2170676764047671e7 2.3368594891682096e7 0.0
2.3368594891682096e7 -9.557637675081547e6 0.0
0.0 0.0 0.0

4.949381171068307e6 3.286525978736614e7 0.0
3.286525978736614e7 -4.06325272687601e6 0.0
0.0 0.0 0.0

-7.174750414859303e6 1.844150011168382e7 0.0
1.844150011168382e7 2.3152104700175896e7 0.0
0.0 0.0 0.0

2.549344181100443e6 6.134777670624598e6 0.0
6.134777670624598e6 -3.347014023876741e7 0.0
0.0 0.0 0.0

2.31223840115132e6 6.307439483415272e6 0.0
6.307439483415272e6 -4.4536828102904335e7 0.0
0.0 0.0 0.0

-5.682999870098358e6 1.264732836951265e7 0.0
1.264732836951265e7 4.8465310752479404e7 0.0
0.0 0.0 0.0

-1.0572533931430887e7 7.301597678573988e6 0.0
7.301597678573988e6 3.276419489419956e7 0.0
0.0 0.0 0.0

7.077290310758987e6 2.8261672895493507e7 0.0
2.8261672895493507e7 -5.411942796539895e6 0.0
0.0 0.0 0.0

-1.5095487617368242e6 2.3088573653228186e7 0.0
2.3088573653228186e7 -2.4008446706762626e6 0.0
0.0 0.0 0.0

-9.669658792484319e6 5.264215845696568e6 0.0
5.264215845696568e6 3.7482033054066435e7 0.0
0.0 0.0 0.0

3.003285657942652e6 4.959896268963319e6 0.0
4.959896268963319e6 -1.866135838604099e7 0.0
0.0 0.0 0.0

-2.7386598161021504e6 2.3139012303677585e7 0.0
2.3139012303677585e7 726839.7430828726 0.0
0.0 0.0 0.0

-1.7852238808643557e7 2.415424835636445e7 0.0
2.415424835636445e7 -8.093846910640899e6 0.0
0.0 0.0 0.0

-1.0580449433496572e7 1.1059284019252457e7 0.0
1.1059284019252457e7 1.5573338810016342e7 0.0
0.0 0.0 0.0

3.237425395763658e6 5.597768764984444e6 0.0
5.597768764984444e6 -3.266501752364154e7 0.0
0.0 0.0 0.0

1.5979700885722078e6 1.1738535152625859e7 0.0
1.1738535152625859e7 -2.59144485873705e7 0.0
0.0 0.0 0.0

-1.0950795029717535e7 894818.9371076454 0.0
894818.9371076454 1.8146520073293824e7 0.0
0.0 0.0 0.0

-1.123346776872723e7 1.0118937537782917e7 0.0
1.0118937537782917e7 2.701559390583508e7 0.0
0.0 0.0 0.0

-750867.4443657827 1.4213405258424541e7 0.0
1.4213405258424541e7 -3.5781919765770264e7 0.0
0.0 0.0 0.0

3.487457870216731e6 5.065441415303225e6 0.0
5.065441415303225e6 -2.9836233674134932e7 0.0
0.0 0.0 0.0

-2.0345797726002333e6 2.2848833201787204e7 0.0
2.2848833201787204e7 -4.0857011874785274e6 0.0
0.0 0.0 0.0

2.9667766220306363e6 7.857938236509854e6 0.0
7.857938236509854e6 -3.0432288931637157e7 0.0
0.0 0.0 0.0

-1.0363302469333991e7 2.7015250611465233e6 0.0
2.7015250611465233e6 2.0613194118424237e7 0.0
0.0 0.0 0.0

-1.4695340814510234e7 1.892654072808134e7 0.0
1.892654072808134e7 -4.898447257500889e7 0.0
0.0 0.0 0.0

1.2939649003168155e7 1.9593889202013742e7 0.0
1.9593889202013742e7 4.313216577499547e7 0.0
0.0 0.0 0.0

701634.182915823 2.030286323645114e7 0.0
2.030286323645114e7 1.1492405925846314e6 0.0
0.0 0.0 0.0

-2.627170683162928e7 2.0874818740762072e6 0.0
2.0874818740762072e6 7.501800612045605e6 0.0
0.0 0.0 0.0

-9.584131754821302e6 -361811.35423113406 0.0
-361811.35423113406 2.0358703308248755e7 0.0
0.0 0.0 0.0

5.91416535362697e6 1.968032659987536e7 0.0
1.968032659987536e7 1.971388159466394e7 0.0
0.0 0.0 0.0

-5.343098857570735e6 1.871829568140894e7 0.0
1.871829568140894e7 -1.7810327068020795e7 0.0
0.0 0.0 0.0

-1.844353840929158e6 1.400060772492179e7 0.0
1.400060772492179e7 6.522391054126919e7 0.0
0.0 0.0 0.0

2.482719045147242e6 6.919438384549077e6 0.0
6.919438384549077e6 -3.201803226543963e7 0.0
0.0 0.0 0.0

1.30875308874767e6 2.4019673581079792e7 0.0
2.4019673581079792e7 -8.894472250235992e6 0.0
0.0 0.0 0.0

-7.5553953831831105e6 1.689393226654505e7 0.0
1.689393226654505e7 -3.701639171106548e7 0.0
0.0 0.0 0.0

-3.89312151619981e6 2.83439615154806e7 0.0
2.83439615154806e7 4.165980731837382e6 0.0
0.0 0.0 0.0

-4.52321295825492e6 2.2824517417861708e7 0.0
2.2824517417861708e7 8.353457334139458e6 0.0
0.0 0.0 0.0

603551.0339598283 2.8380836155629635e7 0.0
2.8380836155629635e7 -3.987845955212613e6 0.0
0.0 0.0 0.0

-1.3082640546795323e7 1.736423457387666e7 0.0
1.736423457387666e7 -5.144997308499523e7 0.0
0.0 0.0 0.0

5.563291661096169e6 2.8208670767110378e7 0.0
2.8208670767110378e7 -5.5046009096075315e6 0.0
0.0 0.0 0.0

-6.9790728610952385e6 1.722305769131991e7 0.0
1.722305769131991e7 3.0442972383166973e7 0.0
0.0 0.0 0.0

1.9282504044035608e6 9.500690584659396e6 0.0
9.500690584659396e6 -1.8596377766374916e7 0.0
0.0 0.0 0.0

2.641132572066361e6 6.248253802043581e6 0.0
6.248253802043581e6 -3.1327010734683655e7 0.0
0.0 0.0 0.0

1.487085709591899e6 2.2938317200781025e7 0.0
2.2938317200781025e7 -1.0124060399716629e7 0.0
0.0 0.0 0.0

-2.0319742560228682e6 1.611086898278704e7 0.0
1.611086898278704e7 -6.374790259008264e6 0.0
0.0 0.0 0.0

1.5808645500532202e6 9.60840203743849e6 0.0
9.60840203743849e6 -3.4982277275273345e7 0.0
0.0 0.0 0.0

-3.3352542282381216e6 2.6998504086665902e7 0.0
2.6998504086665902e7 5.0627243298825305e6 0.0
0.0 0.0 0.0

-2.3273929120300487e6 1.8221351108647652e7 0.0
1.8221351108647652e7 -88132.81473967119 0.0
0.0 0.0 0.0

767497.223405486 1.5845745265466502e7 0.0
1.5845745265466502e7 -1.390828818530479e7 0.0
0.0 0.0 0.0

963497.6611310802 1.2530669186953425e7 0.0
1.2530669186953425e7 -3.363922975142379e7 0.0
0.0 0.0 0.0

3.342349196586208e6 2.7629775670009628e7 0.0
2.7629775670009628e7 -5.735175989325726e6 0.0
0.0 0.0 0.0

428328.74199235067 1.7831247782891363e7 0.0
1.7831247782891363e7 -1.2823328678575978e7 0.0
0.0 0.0 0.0

-1.9009489101832793e6 1.658291387041333e7 0.0
1.658291387041333e7 -5.734403722638629e6 0.0
0.0 0.0 0.0

2.7322827697116293e7 5.750224870325864e6 0.0
5.750224870325864e6 -2.327883623377621e6 0.0
0.0 0.0 0.0

-3.042048405644138e6 1.928996444875409e7 0.0
1.928996444875409e7 7.669019985143542e6 0.0
0.0 0.0 0.0

-9.622447038514452e6 1.0144215241508234e7 0.0
1.0144215241508234e7 1.733465893775764e7 0.0
0.0 0.0 0.0

-9.851086029869065e6 1.4504662355750494e6 0.0
1.4504662355750494e6 3.0834626893412214e7 0.0
0.0 0.0 0.0

3.735573979820231e6 3.7489365058101327e6 0.0
3.7489365058101327e6 -2.8436806128481627e7 0.0
0.0 0.0 0.0

3.1838599997338e6 6.397857309181712e6 0.0
6.397857309181712e6 -2.1142638977914456e7 0.0
0.0 0.0 0.0

3.5602661051464826e6 5.198039353788052e6 0.0
5.198039353788052e6 -2.770853597813515e7 0.0
0.0 0.0 0.0

-4.512997752865763e6 1.8301679784529246e7 0.0
1.8301679784529246e7 -2.1667179413488116e7 0.0
0.0 0.0 0.0

4.347669990674523e6 2.797144987694736e7 0.0
2.797144987694736e7 -5.606824125521582e6 0.0
0.0 0.0 0.0

-7.034774823755186e6 1.752221543413579e7 0.0
1.752221543413579e7 2.853036962293354e7 0.0
0.0 0.0 0.0

-3.7075836571904114e6 1.983401023423729e7 0.0
1.983401023423729e7 6.718564517112557e6 0.0
0.0 0.0 0.0

2.8737895891291704e6 5.767746635502694e6 0.0
5.767746635502694e6 -2.8646003548567057e7 0.0
0.0 0.0 0.0

-1.1746924375289414e7 3.9338917426545797e6 0.0
3.9338917426545797e6 1.8434327410945863e7 0.0
0.0 0.0 0.0

-7.380636320207667e6 1.863505709723321e7 0.0
1.863505709723321e7 2.477491741887814e7 0.0
0.0 0.0 0.0

717687.237490776 1.9774590128619846e7 0.0
1.9774590128619846e7 -1.5254166339782083e7 0.0
0.0 0.0 0.0

1.1394589932422023e6 2.066284233538859e7 0.0
2.066284233538859e7 -5.785851489625486e6 0.0
0.0 0.0 0.0

-3.5808070898694145e6 2.8024831380781684e7 0.0
2.8024831380781684e7 5.494638287288432e6 0.0
0.0 0.0 0.0

1.2496817124546235e6 1.5484958858414313e7 0.0
1.5484958858414313e7 -2.263511953310552e7 0.0
0.0 0.0 0.0

3.277711990305351e6 6.502870171542571e6 0.0
6.502870171542571e6 -2.916522931449403e7 0.0
0.0 0.0 0.0

2.747355423915347e6 6.383405044734094e6 0.0
6.383405044734094e6 -2.928997941500845e7 0.0
0.0 0.0 0.0

1.7530000605523717e6 8.558690497967286e6 0.0
8.558690497967286e6 -1.5034698293871408e7 0.0
0.0 0.0 0.0

2.5697030758629832e6 6.994966930475475e6 0.0
6.994966930475475e6 -2.9958436456781693e7 0.0
0.0 0.0 0.0

3.629973288987766e6 5.690952108807495e6 0.0
5.690952108807495e6 -2.4319935203804985e7 0.0
0.0 0.0 0.0

-7.744030680131089e6 3.351047581341386e7 0.0
3.351047581341386e7 5.270944865618197e6 0.0
0.0 0.0 0.0

7.196482594590176e6 2.9735689949659053e7 0.0
2.9735689949659053e7 -5.2519143019401245e6 0.0
0.0 0.0 0.0

-5.118880314321622e6 2.3780584793699265e7 0.0
2.3780584793699265e7 8.417361572674572e6 0.0
0.0 0.0 0.0

2.8088710682947002e6 6.288876294039461e6 0.0
6.288876294039461e6 -2.528296831518134e7 0.0
0.0 0.0 0.0

-1.8230436508963262e6 1.980294807142277e7 0.0
1.980294807142277e7 -7.181624094844152e6 0.0
0.0 0.0 0.0

-1.2505188908866632e6 1.7249051244585153e7 0.0
1.7249051244585153e7 -244079.37481223416 0.0
0.0 0.0 0.0

-1.9390927074046437e7 2.1260556345815938e7 0.0
2.1260556345815938e7 -6.463643822938151e7 0.0
0.0 0.0 0.0

1.8423270304436054e7 2.2801091942573924e7 0.0
2.2801091942573924e7 6.141091867975818e7 0.0
0.0 0.0 0.0

1.1934589185775248e7 2.1485848803516727e7 0.0
2.1485848803516727e7 472557.6465547243 0.0
0.0 0.0 0.0

1.81746672401233e7 2.3057233751631435e7 0.0
2.3057233751631435e7 176559.19904958177 0.0
0.0 0.0 0.0

610640.6022233814 6.860982612488347e6 0.0
6.860982612488347e6 -5.613879919565709e7 0.0
0.0 0.0 0.0

903020.804651076 1.8149335846130777e7 0.0
1.8149335846130777e7 -1.7403361361191284e7 0.0
0.0 0.0 0.0

-398671.9933405528 2.0312445191436227e7 0.0
2.0312445191436227e7 1.386997851457114e7 0.0
0.0 0.0 0.0

-1.0654448111103978e7 6.638849500691328e6 0.0
6.638849500691328e6 3.441899447908382e7 0.0
0.0 0.0 0.0

-6.218211587394826e6 1.6513440527888523e7 0.0
1.6513440527888523e7 3.456306402514368e7 0.0
0.0 0.0 0.0

-3.034150611227199e6 2.1848718534309834e7 0.0
2.1848718534309834e7 8.1123529955521505e6 0.0
0.0 0.0 0.0

-999680.2157554303 1.5674400767650878e7 0.0
1.5674400767650878e7 -5.679546761050368e6 0.0
0.0 0.0 0.0

-1.329121072909056e7 2.6258880194203146e7 0.0
2.6258880194203146e7 -1.1359804999751471e7 0.0
0.0 0.0 0.0

-3.5558144741397128e6 2.216545240962913e7 0.0
2.216545240962913e7 1.4288716246588802e7 0.0
0.0 0.0 0.0

-7.77007484923805e6 1.4200198960552363e7 0.0
1.4200198960552363e7 1.352222232274026e7 0.0
0.0 0.0 0.0

-2.835463269917152e6 2.2774927613140523e7 0.0
2.2774927613140523e7 5.204985165922966e6 0.0
0.0 0.0 0.0

2.5850835138058662e6 6.860324136914384e6 0.0
6.860324136914384e6 -3.9732829109563455e7 0.0
0.0 0.0 0.0

3.2602861494146306e6 7.458355862845051e6 0.0
7.458355862845051e6 -1.9981445526886217e7 0.0
0.0 0.0 0.0

179036.94534127507 2.020966456478388e7 0.0
2.020966456478388e7 -1.3513901998969227e7 0.0
0.0 0.0 0.0

1.4814231342809396e6 1.2437897967522614e7 0.0
1.2437897967522614e7 -2.4633372951280076e7 0.0
0.0 0.0 0.0

-8.616925392504146e6 8.924883076139087e6 0.0
8.924883076139087e6 4.206336428958066e7 0.0
0.0 0.0 0.0

-7.786961770635891e6 2.503288619828611e6 0.0
2.503288619828611e6 9.019687727513038e6 0.0
0.0 0.0 0.0

-6.484981639994174e6 7.929098771348474e6 0.0
7.929098771348474e6 5.371453905952529e7 0.0
0.0 0.0 0.0

-280339.01497597666 1.9329261276551798e7 0.0
1.9329261276551798e7 -1.3097488433482727e7 0.0
0.0 0.0 0.0

-4.628565056171607e6 2.4142527344796136e7 0.0
2.4142527344796136e7 9.645931909771701e6 0.0
0.0 0.0 0.0

-8.663779598171271e6 1.2853498807120778e7 0.0
1.2853498807120778e7 1.7941200021527242e7 0.0
0.0 0.0 0.0

2.9051022811972834e6 2.5667737924746398e7 0.0
2.5667737924746398e7 -7.073066152253744e6 0.0
0.0 0.0 0.0

-1.082817371617208e7 8.683846293636112e6 0.0
8.683846293636112e6 1.5298869756881991e7 0.0
0.0 0.0 0.0

-4.540895396135187e6 2.1482643845881674e7 0.0
2.1482643845881674e7 1.5838003931516407e7 0.0
0.0 0.0 0.0

2.4822309855093706e7 2.7807544168825734e7 0.0
2.7807544168825734e7 -5.942768828700459e6 0.0
0.0 0.0 0.0

-7.204695832649889e6 1.9145433466926742e7 0.0
1.9145433466926742e7 2.179561735748094e7 0.0
0.0 0.0 0.0

-4.785564769036287e6 3.7263561211027955e6 0.0
3.7263561211027955e6 8.408485041118538e6 0.0
0.0 0.0 0.0

-2.9765482538824543e7 2.162878360918852e6 0.0
2.162878360918852e6 7.7673607657528315e6 0.0
0.0 0.0 0.0

3.09969290555433e6 4.354691773594353e6 0.0
4.354691773594353e6 -3.1061259952720083e7 0.0
0.0 0.0 0.0

-7.999066397596199e6 2.9774598210460506e7 0.0
2.9774598210460506e7 6.266659516116973e6 0.0
0.0 0.0 0.0

-1.1135970961603582e7 1.3754401653019506e6 0.0
1.3754401653019506e6 1.601815257212653e7 0.0
0.0 0.0 0.0

-3.5620704536923347e6 1.3578928414007131e7 0.0
1.3578928414007131e7 -158951.95749025466 0.0
0.0 0.0 0.0

-1.0884634835113661e7 2.7222237712592753e6 0.0
2.7222237712592753e6 2.8329043683781274e7 0.0
0.0 0.0 0.0

268790.23336365353 1.9771638698882934e7 0.0
1.9771638698882934e7 -1.53145136796462e7 0.0
0.0 0.0 0.0

-1.0452702193661127e7 1.2961835228443467e6 0.0
1.2961835228443467e6 2.999964427554114e7 0.0
0.0 0.0 0.0

429299.0984177254 1.620738236730514e7 0.0
1.620738236730514e7 -1.698401878214097e7 0.0
0.0 0.0 0.0

-6.755900391949767e6 1.8194871567581482e7 0.0
1.8194871567581482e7 2.717753065397101e7 0.0
0.0 0.0 0.0

-1.0634235293569818e7 1.1999679169510879e7 0.0
1.1999679169510879e7 1.6628856394267589e7 0.0
0.0 0.0 0.0

-4.613679287783537e6 1.6996409000380464e7 0.0
1.6996409000380464e7 3.5238515691563345e7 0.0
0.0 0.0 0.0

-9.447351981455833e6 1.6019814728323063e7 0.0
1.6019814728323063e7 2.032378014969015e7 0.0
0.0 0.0 0.0

-2.66051930879938e6 2.392946852244679e7 0.0
2.392946852244679e7 723182.0072431179 0.0
0.0 0.0 0.0

2.4664032797730565e6 7.6460189681750955e6 0.0
7.6460189681750955e6 -3.790671366595458e7 0.0
0.0 0.0 0.0

-5.011901760326181e6 1.818968804032909e7 0.0
1.818968804032909e7 2.9824969671442255e7 0.0
0.0 0.0 0.0

1.2719709501734266e7 2.1531496428906728e7 0.0
2.1531496428906728e7 7.551066567265555e6 0.0
0.0 0.0 0.0

-1.996245429501544e7 1.2020198394175425e7 0.0
1.2020198394175425e7 9.045653818929497e6 0.0
0.0 0.0 0.0

1.448311188069705e6 1.1648104205599263e7 0.0
1.1648104205599263e7 -3.3341492128328487e7 0.0
0.0 0.0 0.0

-6.9744389938250305e6 1.3683816849813128e7 0.0
1.3683816849813128e7 1.6191482870842109e7 0.0
0.0 0.0 0.0

2.518976811365895e6 9.694207621719358e6 0.0
9.694207621719358e6 -1.6649337387555555e7 0.0
0.0 0.0 0.0

-9.432709230502777e6 302729.7547719367 0.0
302729.7547719367 1.7887828597807974e7 0.0
0.0 0.0 0.0

-1.0464671241669618e7 -329992.24311683176 0.0
-329992.24311683176 2.389861891643065e7 0.0
0.0 0.0 0.0

1.0126104893019991e6 1.4304195233892126e7 0.0
1.4304195233892126e7 -2.067200503147362e7 0.0
0.0 0.0 0.0

-1.1191260121758733e7 6.875623135768348e6 0.0
6.875623135768348e6 2.17002961787064e7 0.0
0.0 0.0 0.0

-5.441358924896486e6 2.47383007979222e7 0.0
2.47383007979222e7 8.425009256414622e6 0.0
0.0 0.0 0.0

5.869687527161247e6 1.679481243832738e7 0.0
1.679481243832738e7 7.42983608347697e6 0.0
0.0 0.0 0.0

-477561.25674856687 7.972545843306238e6 0.0
7.972545843306238e6 -1.354032484793048e6 0.0
0.0 0.0 0.0

345244.6077247886 1.9963007706976328e7 0.0
1.9963007706976328e7 -1.2096138282256948e7 0.0
0.0 0.0 0.0

2.5324006721413666e6 7.72833595407844e6 0.0
7.72833595407844e6 -2.289539952153986e7 0.0
0.0 0.0 0.0

829891.6418967829 2.762348039876323e7 0.0
2.762348039876323e7 -4.803748827044668e6 0.0
0.0 0.0 0.0

-5.766301169746077e6 1.5535414780767823e7 0.0
1.5535414780767823e7 -6.421108699564963e7 0.0
0.0 0.0 0.0

2.7393476653042277e6 5.64170037993501e6 0.0
5.64170037993501e6 -1.7426695980611462e7 0.0
0.0 0.0 0.0

2.9898592728992123e6 5.59583646584744e6 0.0
5.59583646584744e6 -2.4681278686547887e7 0.0
0.0 0.0 0.0

-3.786073392750583e6 1.8417675296378702e7 0.0
1.8417675296378702e7 -1.9702823355186325e7 0.0
0.0 0.0 0.0

-1.287213029305066e6 8.63151559995442e6 0.0
8.63151559995442e6 336399.0486936716 0.0
0.0 0.0 0.0

-1.5084137849715093e7 1.811286801730778e7 0.0
1.811286801730778e7 -5.9287904851408735e7 0.0
0.0 0.0 0.0

1.9797197838636697e6 8.215760060008505e6 0.0
8.215760060008505e6 -1.008418639795414e7 0.0
0.0 0.0 0.0

2.864769578586527e6 8.42311774925525e6 0.0
8.42311774925525e6 -1.6909205490929097e7 0.0
0.0 0.0 0.0

-632912.3843728973 1.9614490534834836e7 0.0
1.9614490534834836e7 -2.62951163334185e6 0.0
0.0 0.0 0.0

-8.325473610184839e6 1.354963080183543e7 0.0
1.354963080183543e7 3.6354632909889445e7 0.0
0.0 0.0 0.0

-2.752747532218914e6 2.9274185964219257e7 0.0
2.9274185964219257e7 1.694436345432544e6 0.0
0.0 0.0 0.0

-1.1465725313349899e7 9.373211270110667e6 0.0
9.373211270110667e6 8.621774217566028e6 0.0
0.0 0.0 0.0

1.3804618021651292e6 1.301084395220803e7 0.0
1.301084395220803e7 -2.3253062331147175e7 0.0
0.0 0.0 0.0

1.3217029544290379e6 1.989811404746194e7 0.0
1.989811404746194e7 1.8692529432808027e7 0.0
0.0 0.0 0.0

899242.905591591 2.68722621659421e7 0.0
2.68722621659421e7 -5.675401511780865e6 0.0
0.0 0.0 0.0

-664468.9241342591 1.4160121819936857e7 0.0
1.4160121819936857e7 -1.0441297261534069e7 0.0
0.0 0.0 0.0

2.258124468029743e6 2.6219529226759505e7 0.0
2.6219529226759505e7 -6.728673401084757e6 0.0
0.0 0.0 0.0

570835.575171019 1.4606844681912497e7 0.0
1.4606844681912497e7 -1.1604819949165735e7 0.0
0.0 0.0 0.0

-9.755056672758471e6 -1.8470911255482794e6 0.0
-1.8470911255482794e6 1.8294614520359784e7 0.0
0.0 0.0 0.0

-133294.325814344 1.9555838274692774e7 0.0
1.9555838274692774e7 -1.3592604495269088e7 0.0
0.0 0.0 0.0

1.3941434408066463e7 4.3230461748790115e7 0.0
4.3230461748790115e7 -7.3245842467163475e6 0.0
0.0 0.0 0.0

5.974209096687914e6 2.3037071443282034e7 0.0
2.3037071443282034e7 -4.523575204436244e6 0.0
0.0 0.0 0.0

774059.8259564368 1.8998979949761067e7 0.0
1.8998979949761067e7 -1.6362195244881416e7 0.0
0.0 0.0 0.0

-3.713118633013467e6 1.5431749158846114e7 0.0
1.5431749158846114e7 7.230346508677494e6 0.0
0.0 0.0 0.0

-3.1312249665485146e6 1.868054861036889e7 0.0
1.868054861036889e7 -843096.2634062907 0.0
0.0 0.0 0.0

3.621416391089523e6 3.3033462734426516e6 0.0
3.3033462734426516e6 -2.9982367135104794e7 0.0
0.0 0.0 0.0

3.10493679488567e6 4.217741365826104e6 0.0
4.217741365826104e6 -1.238644518346628e7 0.0
0.0 0.0 0.0

-3.889077737446111e6 9.998843886935202e6 0.0
9.998843886935202e6 993041.5151300423 0.0
0.0 0.0 0.0

-9.345606188007472e6 2.2468148567344572e7 0.0
2.2468148567344572e7 -1.9988591830247536e6 0.0
0.0 0.0 0.0

2.815520671195958e6 6.097204050624e6 0.0
6.097204050624e6 -2.053136208448197e7 0.0
0.0 0.0 0.0

54795.86923213396 1.6518593013994835e7 0.0
1.6518593013994835e7 -1.5055313773301972e7 0.0
0.0 0.0 0.0

-569759.8785997452 2.0417056373115182e7 0.0
2.0417056373115182e7 1.1306951952824045e7 0.0
0.0 0.0 0.0

2.17544475013195e6 1.204022196773421e7 0.0
1.204022196773421e7 -2.39956520018964e7 0.0
0.0 0.0 0.0

-1.0929659202570975e7 5.583221654988144e6 0.0
5.583221654988144e6 2.0804552954687677e7 0.0
0.0 0.0 0.0

-2.674008616648845e7 3.049104680674759e7 0.0
3.049104680674759e7 4.329545407335293e6 0.0
0.0 0.0 0.0

2.229379213934548e6 1.1362044259906508e7 0.0
1.1362044259906508e7 -2.722822987673022e7 0.0
0.0 0.0 0.0

-5.4175646036158204e7 4.60710485688248e6 0.0
4.60710485688248e6 5.275001208356757e6 0.0
0.0 0.0 0.0

2.48226169924054e6 7.475076708265116e6 0.0
7.475076708265116e6 -2.0104978099540114e7 0.0
0.0 0.0 0.0

-3.773906652749965e6 2.008359228780754e7 0.0
2.008359228780754e7 2.1163009824359242e7 0.0
0.0 0.0 0.0

-575107.2302343417 1.4456338603569658e7 0.0
1.4456338603569658e7 -3.378873399400566e7 0.0
0.0 0.0 0.0

582473.9855181277 1.556138584529142e7 0.0
1.556138584529142e7 -2.581336669963805e7 0.0
0.0 0.0 0.0

-8.2233732837665975e6 2.755227463461913e6 0.0
2.755227463461913e6 1.4013474061727785e7 0.0
0.0 0.0 0.0

-1.192973616170311e7 9.72365402813668e6 0.0
9.72365402813668e6 2.591807159085842e7 0.0
0.0 0.0 0.0

-2.9430233847453906e6 1.5866926824431902e7 0.0
1.5866926824431902e7 -2.67242922844718e6 0.0
0.0 0.0 0.0

-4.2443335461796895e6 1.4656463096617054e7 0.0
1.4656463096617054e7 8.946378918890888e6 0.0
0.0 0.0 0.0

-1.136708709880361e7 8.604603955670994e6 0.0
8.604603955670994e6 2.9952189056607693e7 0.0
0.0 0.0 0.0

-1.874632190027648e6 1.5395555525471022e7 0.0
1.5395555525471022e7 -1.9133409225462987e6 0.0
0.0 0.0 0.0

-81560.70179842971 1.8693511482461635e7 0.0
1.8693511482461635e7 -1.4294646708284017e7 0.0
0.0 0.0 0.0

219762.62965204148 1.9730630543532573e7 0.0
1.9730630543532573e7 -1.1539041166755991e7 0.0
0.0 0.0 0.0

-57219.40405252064 2.033959214932206e7 0.0
2.033959214932206e7 -1.2901582750519887e7 0.0
0.0 0.0 0.0

663396.3657644829 1.5548368690204913e7 0.0
1.5548368690204913e7 -1.816134433197559e7 0.0
0.0 0.0 0.0

1.6916118143829126e6 9.153596075837186e6 0.0
9.153596075837186e6 -1.5861703416370796e7 0.0
0.0 0.0 0.0

-847628.5154683656 1.9565915551429726e7 0.0
1.9565915551429726e7 -5.9226496576293e6 0.0
0.0 0.0 0.0

-468141.545413855 1.9075251899900686e7 0.0
1.9075251899900686e7 -1.260115900141115e7 0.0
0.0 0.0 0.0

72731.64712835616 1.4823444769623455e7 0.0
1.4823444769623455e7 -9.431154948869966e6 0.0
0.0 0.0 0.0

-1.0412579495054368e7 4.424723948245303e6 0.0
4.424723948245303e6 1.98123844530477e7 0.0
0.0 0.0 0.0

826471.84413845 1.4949032556606127e7 0.0
1.4949032556606127e7 -1.9426091928447843e7 0.0
0.0 0.0 0.0

-1.6745933512878485e7 1.9977051666346025e7 0.0
1.9977051666346025e7 -5.581977881303317e7 0.0
0.0 0.0 0.0

-7.536504142346964e6 4.590210851760293e6 0.0
4.590210851760293e6 1.3012387868836347e7 0.0
0.0 0.0 0.0

2.17442481366695e6 8.773706634005297e6 0.0
8.773706634005297e6 -1.972655759680044e7 0.0
0.0 0.0 0.0

-386669.90977011225 7.44448671534419e6 0.0
7.44448671534419e6 -5.352443079637789e6 0.0
0.0 0.0 0.0

-4.399351855062289e6 1.4651153300609875e7 0.0
1.4651153300609875e7 -5.80245786830171e7 0.0
0.0 0.0 0.0

-4.779354251627604e6 1.5469437158619191e7 0.0
1.5469437158619191e7 1.2108494285904055e7 0.0
0.0 0.0 0.0

3.318226136767525e6 6.90892377459893e6 0.0
6.90892377459893e6 -1.919963099564047e7 0.0
0.0 0.0 0.0

-1.2240395743659776e7 9.288278872575263e6 0.0
9.288278872575263e6 2.314068962081819e7 0.0
0.0 0.0 0.0

-8.308814172905838e6 2.2517984224132425e6 0.0
2.2517984224132425e6 4.454999830983704e7 0.0
0.0 0.0 0.0

460352.2886585954 1.8875588032162353e7 0.0
1.8875588032162353e7 -1.921876251361981e6 0.0
0.0 0.0 0.0

1.7407967313674442e6 1.70609033747048e7 0.0
1.70609033747048e7 5.051062171328502e6 0.0
0.0 0.0 0.0

-7.20675935759774e6 2.4994957660624724e7 0.0
2.4994957660624724e7 7.877813089195797e6 0.0
0.0 0.0 0.0

-3.3085699248851095e6 2.0945512393019084e7 0.0
2.0945512393019084e7 3.9992777706304276e6 0.0
0.0 0.0 0.0

3.30707728380193e6 4.875509217785531e6 0.0
4.875509217785531e6 -3.411466982448686e7 0.0
0.0 0.0 0.0

3.3155301199649405e6 5.547383919964439e6 0.0
5.547383919964439e6 -3.459558155995396e7 0.0
0.0 0.0 0.0

-1.0020269616830902e7 1.4970784259684538e7 0.0
1.4970784259684538e7 2.6759883576956563e7 0.0
0.0 0.0 0.0

42886.35843588691 1.780679116969351e7 0.0
1.780679116969351e7 -1.5023346271860695e7 0.0
0.0 0.0 0.0

8.319877133747536e6 2.1870919327044066e7 0.0
2.1870919327044066e7 1.1214567360182973e6 0.0
0.0 0.0 0.0

-8.247549017605301e6 4.5197182435903745e6 0.0
4.5197182435903745e6 5.086735208375113e7 0.0
0.0 0.0 0.0

-3.3058842950298083e6 1.8599145122092113e7 0.0
1.8599145122092113e7 9.276867969214309e6 0.0
0.0 0.0 0.0

-1.1205756633775546e6 1.7570288284858663e7 0.0
1.7570288284858663e7 -1.0092402138875948e7 0.0
0.0 0.0 0.0

-1.3960204074976519e6 1.6171740540574828e7 0.0
1.6171740540574828e7 5.188737278138824e7 0.0
0.0 0.0 0.0

-107427.79788990035 5.221866607314853e6 0.0
5.221866607314853e6 -328663.11157060263 0.0
0.0 0.0 0.0

-730440.0575566066 2.3140289167276014e7 0.0
2.3140289167276014e7 -7.705036313405257e6 0.0
0.0 0.0 0.0

4.714018531139094e6 2.0663620309037324e7 0.0
2.0663620309037324e7 1.6295818704801517e7 0.0
0.0 0.0 0.0

2.9838556144785685e6 8.237382747227489e6 0.0
8.237382747227489e6 -1.8867440324190784e7 0.0
0.0 0.0 0.0

-3.1865006387609523e6 1.4152528022859324e7 0.0
1.4152528022859324e7 -1.6145193003997614e6 0.0
0.0 0.0 0.0

-5.778971255140102e6 1.5413159813165817e7 0.0
1.5413159813165817e7 3.965741919773565e7 0.0
0.0 0.0 0.0

2.272379138106752e6 9.25037431277493e6 0.0
9.25037431277493e6 -3.4423743012080975e7 0.0
0.0 0.0 0.0

792574.8392586308 1.8466314583774664e7 0.0
1.8466314583774664e7 -1.7613601706272416e7 0.0
0.0 0.0 0.0

-9.297873366146442e6 784458.9945802585 0.0
784458.9945802585 3.606231407411996e7 0.0
0.0 0.0 0.0

1.9024273063415084e6 1.0749916732462645e7 0.0
1.0749916732462645e7 -3.294149297504796e7 0.0
0.0 0.0 0.0

229062.82094007032 1.037247113288532e7 0.0
1.037247113288532e7 -6.435990418468788e6 0.0
0.0 0.0 0.0

2.870664247796852e6 8.630133108828569e6 0.0
8.630133108828569e6 -2.8983960937524732e7 0.0
0.0 0.0 0.0

110831.80548715033 1.4799683542418549e7 0.0
1.4799683542418549e7 -1.4199618309728866e7 0.0
0.0 0.0 0.0

178665.9876514487 1.686444868476e7 0.0
1.686444868476e7 -1.570104255948601e7 0.0
0.0 0.0 0.0

-1.146675643023895e7 7.343558759301848e6 0.0
7.343558759301848e6 2.929839323874612e7 0.0
0.0 0.0 0.0

3.398275613395852e6 2.0555526445795033e7 0.0
2.0555526445795033e7 4.531278653348124e6 0.0
0.0 0.0 0.0

-1.0491249152146246e7 3.1309500312616853e6 0.0
3.1309500312616853e6 1.873022167436049e7 0.0
0.0 0.0 0.0

1.2283308290713364e6 1.6053494795434639e7 0.0
1.6053494795434639e7 -2.1417677265863173e7 0.0
0.0 0.0 0.0

-3.9561037329667136e6 5.436449938498541e6 0.0
5.436449938498541e6 6.919105155545211e6 0.0
0.0 0.0 0.0

750192.9808293544 5.517347393852355e6 0.0
5.517347393852355e6 -6.554100783500593e6 0.0
0.0 0.0 0.0

-36264.2481762534 1.6179118468209647e7 0.0
1.6179118468209647e7 -1.443692003690508e7 0.0
0.0 0.0 0.0

3.6044575491608866e6 5.39457136826578e6 0.0
5.39457136826578e6 -1.9479378718914133e7 0.0
0.0 0.0 0.0

-1.1341259657088958e7 3.1768866745916884e6 0.0
3.1768866745916884e6 2.5890760785067715e7 0.0
0.0 0.0 0.0

2.0932942937349714e6 3.4214253869837304e6 0.0
3.4214253869837304e6 -5.044780281212716e7 0.0
0.0 0.0 0.0

-1.2828395169566462e6 1.7855263915524162e7 0.0
1.7855263915524162e7 -4.276131240336059e6 0.0
0.0 0.0 0.0

-1.209575401772425e7 1.1233733532591555e7 0.0
1.1233733532591555e7 2.0684880508621562e7 0.0
0.0 0.0 0.0

-8.208603093250528e6 2.400521211769816e7 0.0
2.400521211769816e7 5.5804060183166135e6 0.0
0.0 0.0 0.0

2.9576332395489495e6 2.1331153796527863e7 0.0
2.1331153796527863e7 8.697625871545775e6 0.0
0.0 0.0 0.0

-6.556478601827053e6 1.8703678572814513e7 0.0
1.8703678572814513e7 2.592105980532023e7 0.0
0.0 0.0 0.0

-5.335462592880916e6 1.966415185607142e7 0.0
1.966415185607142e7 2.043040687879114e7 0.0
0.0 0.0 0.0

-9.015089042302506e6 -1.2982569106658224e6 0.0
-1.2982569106658224e6 3.602224199097917e7 0.0
0.0 0.0 0.0

-3.17534757643882e6 1.430917239369735e7 0.0
1.430917239369735e7 4.120191465148099e6 0.0
0.0 0.0 0.0

4.879439602072057e6 2.0713687566395555e7 0.0
2.0713687566395555e7 1.5767679383090938e7 0.0
0.0 0.0 0.0

-4.0150388131086687e6 2.2578686369692914e7 0.0
2.2578686369692914e7 1.1804556573871767e7 0.0
0.0 0.0 0.0

-1.2061834174417753e7 8.721383649830116e6 0.0
8.721383649830116e6 2.5079888964784496e7 0.0
0.0 0.0 0.0

882095.2223006375 1.4564271886807134e7 0.0
1.4564271886807134e7 -2.4167893679551475e7 0.0
0.0 0.0 0.0

2.4389657953839926e6 7.115378067703925e6 0.0
7.115378067703925e6 -1.7218018177361947e7 0.0
0.0 0.0 0.0

757159.6403483702 1.7544283476811547e7 0.0
1.7544283476811547e7 -1.4612058599485807e7 0.0
0.0 0.0 0.0

-3.2157785254293326e6 1.2983506064620562e7 0.0
1.2983506064620562e7 4.141515220716034e6 0.0
0.0 0.0 0.0

3.2017152348078014e6 5.380514852907711e6 0.0
5.380514852907711e6 -1.2506071669669496e7 0.0
0.0 0.0 0.0

-858181.7687705231 2.371361102354959e7 0.0
2.371361102354959e7 -6.593190708244319e6 0.0
0.0 0.0 0.0

-8.667290302785605e6 3.63257948515398e6 0.0
3.63257948515398e6 4.250816896945802e7 0.0
0.0 0.0 0.0

-9.37089809429856e6 1.8048802785946901e6 0.0
1.8048802785946901e6 3.724798250850019e7 0.0
0.0 0.0 0.0

-9.39345059432975e6 1.1743811394002957e7 0.0
1.1743811394002957e7 3.6398839112118214e7 0.0
0.0 0.0 0.0

-390005.25245920103 2.1679058884058863e7 0.0
2.1679058884058863e7 -1.0590488197611626e7 0.0
0.0 0.0 0.0

-2.130375934675606e6 8.676093602925753e6 0.0
8.676093602925753e6 -2.46976072009492e6 0.0
0.0 0.0 0.0

1.5785555823722634e7 2.3122495042320456e7 0.0
2.3122495042320456e7 1.276647782324443e7 0.0
0.0 0.0 0.0

1.1863351068036443e7 2.1312549696758024e7 0.0
2.1312549696758024e7 4.9190497779336214e7 0.0
0.0 0.0 0.0

3.3154890771275796e6 6.448154718827603e6 0.0
6.448154718827603e6 -1.6151085143221613e7 0.0
0.0 0.0 0.0

-1.1047382612962345e7 5.176165440332006e6 0.0
5.176165440332006e6 2.2706250105024114e7 0.0
0.0 0.0 0.0

-3.092788320207916e6 1.5545467725361735e7 0.0
1.5545467725361735e7 4.0549094360627974e6 0.0
0.0 0.0 0.0

-4.591703536245673e6 2.123362699094985e7 0.0
2.123362699094985e7 1.5594098894114206e7 0.0
0.0 0.0 0.0

2.96498807707813e6 6.000888577318892e6 0.0
6.000888577318892e6 -3.709711959693922e7 0.0
0.0 0.0 0.0

3.027452176640976e6 7.052470634181112e6 0.0
7.052470634181112e6 -3.188529109524229e7 0.0
0.0 0.0 0.0

-6.257462395997667e6 6.244955130200559e6 0.0
6.244955130200559e6 5.672495842541197e6 0.0
0.0 0.0 0.0

-3.0772934015082996e6 1.9630971991657883e7 0.0
1.9630971991657883e7 8.902084690753497e6 0.0
0.0 0.0 0.0

-1.8247027325199544e6 1.6570555552783202e7 0.0
1.6570555552783202e7 4.814695771227492e7 0.0
0.0 0.0 0.0

632204.7319125608 1.847389830769601e7 0.0
1.847389830769601e7 -1.3956323622703448e7 0.0
0.0 0.0 0.0

-4.311556319954688e6 7.472425569873499e6 0.0
7.472425569873499e6 7.530353326345653e6 0.0
0.0 0.0 0.0

3.1083128382326327e6 6.2585760880545685e6 0.0
6.2585760880545685e6 -3.3298346092747103e7 0.0
0.0 0.0 0.0

-3.6615309349964326e6 2.1804642085938103e7 0.0
2.1804642085938103e7 9.674658413191574e6 0.0
0.0 0.0 0.0

2.3014511867641537e6 8.515530773301583e6 0.0
8.515530773301583e6 -2.1799763222486548e7 0.0
0.0 0.0 0.0

-9.470861616048066e6 8.537872432171136e6 0.0
8.537872432171136e6 956114.2517232061 0.0
0.0 0.0 0.0

251773.091820281 1.553304702810837e7 0.0
1.553304702810837e7 -1.5646027951250764e7 0.0
0.0 0.0 0.0

-4.553676912730914e6 3.4687419827270564e6 0.0
3.4687419827270564e6 2.93754754718965e6 0.0
0.0 0.0 0.0

-3.178048527000633e6 1.1554969179198325e7 0.0
1.1554969179198325e7 4.1033770141360257e6 0.0
0.0 0.0 0.0

-2.992168359822311e6 9.972574621679751e6 0.0
9.972574621679751e6 3.986623373553563e6 0.0
0.0 0.0 0.0

-127164.92797576729 1.577366083447439e7 0.0
1.577366083447439e7 -1.3774086542455584e7 0.0
0.0 0.0 0.0

-3.242032929935538e6 1.53770201809447e7 0.0
1.53770201809447e7 -1.405393758438223e6 0.0
0.0 0.0 0.0

-1.1705728694647143e7 9.087614179252032e6 0.0
9.087614179252032e6 2.792695775711156e7 0.0
0.0 0.0 0.0

-4.96210684334578e6 1.4329379730664004e7 0.0
1.4329379730664004e7 4.5849261207894884e7 0.0
0.0 0.0 0.0

-7.929159051124638e6 1.1694604706494406e7 0.0
1.1694604706494406e7 4.161982064819805e7 0.0
0.0 0.0 0.0

-5.438650793301785e6 1.4885782165286602e7 0.0
1.4885782165286602e7 4.258654809625857e7 0.0
0.0 0.0 0.0

-5.928183989746328e6 7.552490949698776e6 0.0
7.552490949698776e6 6.3038582081010476e7 0.0
0.0 0.0 0.0

-826099.7891412061 2.051270037993918e7 0.0
2.051270037993918e7 8.766915426578393e6 0.0
0.0 0.0 0.0

-8.554151775198882e6 5.684495921969012e6 0.0
5.684495921969012e6 4.803146690817831e7 0.0
0.0 0.0 0.0

-1.8922322023915574e6 2.2235479427534785e7 0.0
2.2235479427534785e7 -5.247628680473318e6 0.0
0.0 0.0 0.0

-1.577791514677297e6 1.9445060911007635e7 0.0
1.9445060911007635e7 -1.1554172823186418e7 0.0
0.0 0.0 0.0

-5.514871759296856e7 3.48202432021912e7 0.0
3.48202432021912e7 -1.0505986742154777e7 0.0
0.0 0.0 0.0

2.9525752274882337e6 7.864758239883996e6 0.0
7.864758239883996e6 -1.6032119448612668e7 0.0
0.0 0.0 0.0

2.0750531876733936e6 1.2754578296127701e7 0.0
1.2754578296127701e7 -2.2862917379610967e7 0.0
0.0 0.0 0.0

-509832.9678074091 2.3913402691592816e7 0.0
2.3913402691592816e7 -5.66181001183794e6 0.0
0.0 0.0 0.0

-2.3302962673639716e6 2.282164687145216e7 0.0
2.282164687145216e7 3.481765390685093e6 0.0
0.0 0.0 0.0

3.0445069999167398e6 7.925181572418131e6 0.0
7.925181572418131e6 -2.845246745127002e7 0.0
0.0 0.0 0.0

1.6588822005142407e7 2.4869215651629977e7 0.0
2.4869215651629977e7 -3.5202538660162035e6 0.0
0.0 0.0 0.0

-4.571966887703634e6 1.2232738964753745e7 0.0
1.2232738964753745e7 2.9964268505346924e6 0.0
0.0 0.0 0.0

1.078518437859159e6 6.249088414220661e6 0.0
6.249088414220661e6 -5.176117743122444e7 0.0
0.0 0.0 0.0

-4.616852181606124e6 1.0704623314500844e7 0.0
1.0704623314500844e7 2.8020319882093854e6 0.0
0.0 0.0 0.0

2.0466776617768118e6 8.438579845667843e6 0.0
8.438579845667843e6 -1.6963304331422538e7 0.0
0.0 0.0 0.0

-6.330975428369401e6 1.9055480138900787e7 0.0
1.9055480138900787e7 2.4681726858549327e7 0.0
0.0 0.0 0.0

-3.604975325824866e7 3.001444945631853e7 0.0
3.001444945631853e7 1.2638051648145653e6 0.0
0.0 0.0 0.0

-1.0228772610790808e7 359343.49285567633 0.0
359343.49285567633 2.9555014155588303e7 0.0
0.0 0.0 0.0

535680.3358166646 1.9341996222405493e7 0.0
1.9341996222405493e7 -1.3264390890478507e7 0.0
0.0 0.0 0.0

-1.5892458557092682e7 2.6036957594601817e7 0.0
2.6036957594601817e7 -6.523840513543362e6 0.0
0.0 0.0 0.0

3.346220137561554e6 5.83293346656308e6 0.0
5.83293346656308e6 -1.5520922783956086e7 0.0
0.0 0.0 0.0

-1.148856415237443e7 9.803373395125719e6 0.0
9.803373395125719e6 2.443238050261854e7 0.0
0.0 0.0 0.0

584819.6537725655 1.6855275932998054e7 0.0
1.6855275932998054e7 -1.337852470862886e7 0.0
0.0 0.0 0.0

-782483.8203261246 1.609747486068193e7 0.0
1.609747486068193e7 -6.744631326956422e6 0.0
0.0 0.0 0.0

-4.442782638068985e6 1.3627493097920831e7 0.0
1.3627493097920831e7 3.079103107110191e6 0.0
0.0 0.0 0.0

-9.878094633352162e6 1.0179126104319679e7 0.0
1.0179126104319679e7 3.644582049518213e7 0.0
0.0 0.0 0.0

3.6027855904514417e6 4.248786082288837e6 0.0
4.248786082288837e6 -3.1205631135366365e7 0.0
0.0 0.0 0.0

2.9438941183401365e6 5.542306441960155e6 0.0
5.542306441960155e6 -1.9394046289078146e7 0.0
0.0 0.0 0.0

-3.6477992849641982e6 2.148663891044583e7 0.0
2.148663891044583e7 8.7433455292175e6 0.0
0.0 0.0 0.0

-1.008318922961881e7 1.847966194611564e6 0.0
1.847966194611564e6 1.305455465652151e7 0.0
0.0 0.0 0.0

5734.795947577804 1.4370213437541539e7 0.0
1.4370213437541539e7 -1.3467233003128896e7 0.0
0.0 0.0 0.0

3.2773586475723777e6 7.04798017388651e6 0.0
7.04798017388651e6 -2.3960314291892797e7 0.0
0.0 0.0 0.0

-9.425846718255375e6 4.940853170517693e6 0.0
4.940853170517693e6 4.003761366430689e7 0.0
0.0 0.0 0.0

-1.1373980287931343e6 2.0687053808623556e7 0.0
2.0687053808623556e7 6.142278076613767e6 0.0
0.0 0.0 0.0

-1.1052563687603468e7 2.0217645092249108e6 0.0
2.0217645092249108e6 2.5234276368601777e7 0.0
0.0 0.0 0.0

1.3910221754842177e6 1.220076553136947e7 0.0
1.220076553136947e7 -3.1599932176033475e7 0.0
0.0 0.0 0.0

-420864.4858137453 1.809312295320782e7 0.0
1.809312295320782e7 -1.967076647063686e7 0.0
0.0 0.0 0.0

-1.1599044628245883e7 1.2424610949284613e7 0.0
1.2424610949284613e7 1.9989756718195375e7 0.0
0.0 0.0 0.0

938719.6740132561 1.5484410627029344e7 0.0
1.5484410627029344e7 -2.4246654098633777e7 0.0
0.0 0.0 0.0

1.1172179866309864e6 1.5876543603289256e7 0.0
1.5876543603289256e7 -1.6476879465242527e7 0.0
0.0 0.0 0.0

-742056.2474227992 2.8184823069342924e6 0.0
2.8184823069342924e6 1.4139861489158636e6 0.0
0.0 0.0 0.0

-1.1025086459685497e7 970125.6502121673 0.0
970125.6502121673 2.2439836049897898e7 0.0
0.0 0.0 0.0

98887.41296522832 1.240846944771642e7 0.0
1.240846944771642e7 -1.210688575169625e7 0.0
0.0 0.0 0.0

490170.97369373357 1.1245276518315729e7 0.0
1.1245276518315729e7 -1.2429472015607351e7 0.0
0.0 0.0 0.0

718211.6289389264 1.719385476570161e7 0.0
1.719385476570161e7 -1.3995231389962101e7 0.0
0.0 0.0 0.0

-1.714337050706427e6 2.084779097635051e7 0.0
2.084779097635051e7 3.4972128707211614e6 0.0
0.0 0.0 0.0

1.3461130137304114e6 9.867697457885658e6 0.0
9.867697457885658e6 -1.4736462051895378e7 0.0
0.0 0.0 0.0

-2.3712087641251143e6 1.362460451384302e7 0.0
1.362460451384302e7 -4.677414758214322e7 0.0
0.0 0.0 0.0

-9.778172056550466e6 3.6719456159217996e6 0.0
3.6719456159217996e6 1.2465038928815912e7 0.0
0.0 0.0 0.0

-1.1028922270165855e7 1.8385420923488867e7 0.0
1.8385420923488867e7 -4.169244227861856e7 0.0
0.0 0.0 0.0

-1.1662648422817181e8 1.4068874491404062e7 0.0
1.4068874491404062e7 -793639.3168796748 0.0
0.0 0.0 0.0

1.0303990471506146e8 1.4971914836969241e7 0.0
1.4971914836969241e7 4.940219020445455e6 0.0
0.0 0.0 0.0

-3.6967298139560465e6 1.4037611017355733e7 0.0
1.4037611017355733e7 -5.383352187613894e7 0.0
0.0 0.0 0.0

-7.907839236648728e6 1.6510200082256613e7 0.0
1.6510200082256613e7 2.1096247671845205e7 0.0
0.0 0.0 0.0

-3.1184928612476503e6 2.0272804763456326e7 0.0
2.0272804763456326e7 545867.4017656597 0.0
0.0 0.0 0.0

-251075.70721983537 1.3508178759594882e7 0.0
1.3508178759594882e7 -1.1759821802679572e7 0.0
0.0 0.0 0.0

-659958.4971367045 6.542761668136821e6 0.0
6.542761668136821e6 -4.084291078235051e6 0.0
0.0 0.0 0.0

346936.1805233543 7.358991085938522e6 0.0
7.358991085938522e6 -2.8937409935702616e6 0.0
0.0 0.0 0.0

-4.257074318117846e6 1.4924585686627362e7 0.0
1.4924585686627362e7 3.093159872295128e6 0.0
0.0 0.0 0.0

-3.0100761697515827e6 1.3793584654027972e7 0.0
1.3793584654027972e7 -5.010619923679945e7 0.0
0.0 0.0 0.0

1.1446278407699373e6 1.1931779471379682e7 0.0
1.1931779471379682e7 -1.1341746163182057e7 0.0
0.0 0.0 0.0

-1.0667271048583528e7 3.345529708162967e6 0.0
3.345529708162967e6 3.2196381613492858e7 0.0
0.0 0.0 0.0

8.43632833784655e7 1.8404020936096314e7 0.0
1.8404020936096314e7 49000.030799832195 0.0
0.0 0.0 0.0

772187.179622361 1.3069771064049717e7 0.0
1.3069771064049717e7 -1.1060898106196333e7 0.0
0.0 0.0 0.0

3.3680801682769638e6 6.608632311400182e6 0.0
6.608632311400182e6 -2.7230781911631837e7 0.0
0.0 0.0 0.0

3.20819759170394e6 7.254076925737622e6 0.0
7.254076925737622e6 -2.7846788477141153e7 0.0
0.0 0.0 0.0

-6.129235923106493e6 1.942572896697612e7 0.0
1.942572896697612e7 2.3442054224797145e7 0.0
0.0 0.0 0.0

1.5866465045871204e6 1.4601378290596267e7 0.0
1.4601378290596267e7 -1.8859061427619364e7 0.0
0.0 0.0 0.0

-3.423057266964132e6 2.1262585374314982e7 0.0
2.1262585374314982e7 -1.1704011820215316e7 0.0
0.0 0.0 0.0

6.573253767143409e6 2.278525988475273e7 0.0
2.278525988475273e7 -3.267942016704298e6 0.0
0.0 0.0 0.0

-1.9372389769247295e6 1.3598129382958222e7 0.0
1.3598129382958222e7 -718211.0309738677 0.0
0.0 0.0 0.0

1.612061160523231e6 6.07382519402516e6 0.0
6.07382519402516e6 -5.599063261976606e6 0.0
0.0 0.0 0.0

-3.021789502175204e6 9.319773262121689e6 0.0
9.319773262121689e6 -750363.5258149782 0.0
0.0 0.0 0.0

-6.355080263139097e6 6.413568175175696e6 0.0
6.413568175175696e6 1.1442183055433463e7 0.0
0.0 0.0 0.0

-5.976876373769787e6 1.6663853872540401e7 0.0
1.6663853872540401e7 -2.9977700381283738e7 0.0
0.0 0.0 0.0

1.9872637473544218e6 1.2002243478971299e7 0.0
1.2002243478971299e7 -2.7681828515408076e7 0.0
0.0 0.0 0.0

2.411142567948606e6 6.413924867415544e6 0.0
6.413924867415544e6 -1.6444629551319005e7 0.0
0.0 0.0 0.0

2.3173178495304277e6 9.331582581827573e6 0.0
9.331582581827573e6 -1.383584794227993e7 0.0
0.0 0.0 0.0

-2.246628530541744e6 1.6042452838242764e7 0.0
1.6042452838242764e7 -389740.93361202854 0.0
0.0 0.0 0.0

1.9828088932219176e6 8.976760478387676e6 0.0
8.976760478387676e6 -1.7792198972347803e7 0.0
0.0 0.0 0.0

-1.2622110965607946e6 8.035105486207295e6 0.0
8.035105486207295e6 -3.9672405187626644e6 0.0
0.0 0.0 0.0

3.8106352123403363e6 4.682255180860126e6 0.0
4.682255180860126e6 -2.0544105789655477e7 0.0
0.0 0.0 0.0

706508.0877651656 1.5424449746871281e7 0.0
1.5424449746871281e7 -1.3219173539674258e7 0.0
0.0 0.0 0.0

-9.609992476559933e6 5.641953904862024e6 0.0
5.641953904862024e6 1.1268748092592094e7 0.0
0.0 0.0 0.0

-578295.5918561472 2.3109953958222367e7 0.0
2.3109953958222367e7 -8.443310592986558e6 0.0
0.0 0.0 0.0

1.799481949868014e6 5.811649150711814e6 0.0
5.811649150711814e6 -4.482738562821735e7 0.0
0.0 0.0 0.0

491226.68187217694 1.6450683582854569e7 0.0
1.6450683582854569e7 -1.274096236274283e7 0.0
0.0 0.0 0.0

3.0146125906106383e6 8.577899796311842e6 0.0
8.577899796311842e6 -2.153323702385965e7 0.0
0.0 0.0 0.0

-2.670727282713148e6 4.846331930692991e6 0.0
4.846331930692991e6 5.058358346950991e6 0.0
0.0 0.0 0.0

3.1696878850490507e6 7.845099422282821e6 0.0
7.845099422282821e6 -2.2779894654663272e7 0.0
0.0 0.0 0.0

-2.715312326924734e6 2.0857568407310594e7 0.0
2.0857568407310594e7 5.994444656479419e6 0.0
0.0 0.0 0.0

1.4195231183809661e6 2.4849785790149227e7 0.0
2.4849785790149227e7 -7.959687057101737e6 0.0
0.0 0.0 0.0

-1.183308029350277e6 1.8825667670158435e7 0.0
1.8825667670158435e7 -1.918434226287157e7 0.0
0.0 0.0 0.0

248746.25502039166 6.754851345236803e6 0.0
6.754851345236803e6 -6.635228409445994e6 0.0
0.0 0.0 0.0

1.3525057987151314e6 2.5810055836339198e7 0.0
2.5810055836339198e7 -6.221956185129071e6 0.0
0.0 0.0 0.0

270208.534717008 2.1472525970550176e7 0.0
2.1472525970550176e7 -1.0289526254137784e7 0.0
0.0 0.0 0.0

-1.228199127838291e7 7.952774402526251e6 0.0
7.952774402526251e6 1.9700614893400345e7 0.0
0.0 0.0 0.0

-3.570909577437981e6 2.221969538801894e7 0.0
2.221969538801894e7 1.3889025591039281e7 0.0
0.0 0.0 0.0

-5.679696476480752e6 4.219995094143321e6 0.0
4.219995094143321e6 5.112128479127059e6 0.0
0.0 0.0 0.0

-2.5214644290412283e6 1.0858875371390032e7 0.0
1.0858875371390032e7 2.310012808004073e6 0.0
0.0 0.0 0.0

-8.318036385119548e6 7.961711803997394e6 0.0
7.961711803997394e6 4.506696549777728e7 0.0
0.0 0.0 0.0

-5.674893360211836e6 1.3968766106978623e7 0.0
1.3968766106978623e7 7.930236131949283e6 0.0
0.0 0.0 0.0

3.0188970071946355e6 2.002440593978899e7 0.0
2.002440593978899e7 1.876797373508403e6 0.0
0.0 0.0 0.0

470316.2014104095 1.418168440993417e7 0.0
1.418168440993417e7 -1.070500337589807e7 0.0
0.0 0.0 0.0

-246902.27766382368 1.5394414682288878e7 0.0
1.5394414682288878e7 -1.3002506647310812e7 0.0
0.0 0.0 0.0

-2.1167404116901476e6 1.360153629154985e7 0.0
1.360153629154985e7 -4.371917982112629e7 0.0
0.0 0.0 0.0

1.352926480674887e6 6.220579805913174e6 0.0
6.220579805913174e6 -4.776273196033639e7 0.0
0.0 0.0 0.0

-1.1912605083148763e7 1.1198713665101564e7 0.0
1.1198713665101564e7 2.484623705898136e7 0.0
0.0 0.0 0.0

-2.6773905844524717e6 2.430394622588913e7 0.0
2.430394622588913e7 6.58825522309925e6 0.0
0.0 0.0 0.0

-1.0328757937565962e7 3.803128402403433e6 0.0
3.803128402403433e6 3.5685421501263686e7 0.0
0.0 0.0 0.0

410154.38881611545 2.0158560027498487e7 0.0
2.0158560027498487e7 -1.2617172501411434e7 0.0
0.0 0.0 0.0

247863.0179135399 1.9639865544653893e7 0.0
1.9639865544653893e7 -1.506066427205748e7 0.0
0.0 0.0 0.0

1.4006462187307859e7 5.940581620171247e6 0.0
5.940581620171247e6 -2.214748825692774e6 0.0
0.0 0.0 0.0

1.489612788663913e6 9.576079532518847e6 0.0
9.576079532518847e6 -9.880817424832989e6 0.0
0.0 0.0 0.0

-9.60865794050175e6 1.37065116449768e7 0.0
1.37065116449768e7 1.6458935925744174e7 0.0
0.0 0.0 0.0

-2.9606032343659424e6 1.8727046672686864e7 0.0
1.8727046672686864e7 -1.83221240911904e7 0.0
0.0 0.0 0.0

638264.6735787336 1.5043932459923217e7 0.0
1.5043932459923217e7 -1.2448837294273265e7 0.0
0.0 0.0 0.0

856121.5607665759 1.6228102551175693e7 0.0
1.6228102551175693e7 -1.4601085345116582e7 0.0
0.0 0.0 0.0

-8.706636104006257e6 1.3468099698410371e7 0.0
1.3468099698410371e7 3.5350101767306395e7 0.0
0.0 0.0 0.0

-1.212566712410294e7 1.0835022927041246e7 0.0
1.0835022927041246e7 2.2401956530998126e7 0.0
0.0 0.0 0.0

-382256.1303380239 1.4994703479132196e7 0.0
1.4994703479132196e7 -1.2219035904211279e7 0.0
0.0 0.0 0.0

-1.2255243934079201e6 1.848789197815899e7 0.0
1.848789197815899e7 -9.734778174614267e6 0.0
0.0 0.0 0.0

-5.876901105436122e6 1.9955494060349975e7 0.0
1.9955494060349975e7 -1.0526097546192056e7 0.0
0.0 0.0 0.0

-1.8720383504070505e6 2.501714126067374e7 0.0
2.501714126067374e7 -2.479543607136459e6 0.0
0.0 0.0 0.0

1.7695099835026953e6 1.2092725117430381e7 0.0
1.2092725117430381e7 -2.9589727007860273e7 0.0
0.0 0.0 0.0

-2.0420459649104727e6 2.9662473122087993e7 0.0
2.9662473122087993e7 2.2737915174432206e6 0.0
0.0 0.0 0.0

-8.248567398906154e6 1.4536791904111218e7 0.0
1.4536791904111218e7 1.471554397406257e7 0.0
0.0 0.0 0.0

-7.944189990219321e6 2.4048390152229372e7 0.0
2.4048390152229372e7 -1.0261133428701118e7 0.0
0.0 0.0 0.0

46506.82373579673 1.7670208324608177e7 0.0
1.7670208324608177e7 -1.7138065452813182e6 0.0
0.0 0.0 0.0

-764865.4232110009 1.9129997363383494e7 0.0
1.9129997363383494e7 -1.7807836752427887e7 0.0
0.0 0.0 0.0

-2.219379942173965e6 1.8957206235211134e7 0.0
1.8957206235211134e7 -1.0815435198830532e7 0.0
0.0 0.0 0.0

-3.4979543753774324e6 2.3550652414395865e7 0.0
2.3550652414395865e7 9.048922981371084e6 0.0
0.0 0.0 0.0

309479.4128710767 1.879549577598544e7 0.0
1.879549577598544e7 -1.2178299253664616e7 0.0
0.0 0.0 0.0

-522756.187570184 1.4595490682208799e7 0.0
1.4595490682208799e7 -1.1361764850334803e7 0.0
0.0 0.0 0.0

-444614.4873587908 1.7827430637648843e7 0.0
1.7827430637648843e7 -2.154985784110771e7 0.0
0.0 0.0 0.0

-1.4505176551441061e6 1.2221716209631424e7 0.0
1.2221716209631424e7 -6.373730823244826e6 0.0
0.0 0.0 0.0

-2.82049675194899e6 2.2858298845993157e7 0.0
2.2858298845993157e7 1.844970571542969e6 0.0
0.0 0.0 0.0

-1.742909365111852e6 2.4483106456167422e7 0.0
2.4483106456167422e7 -3.589779268021433e6 0.0
0.0 0.0 0.0

-1.4882567341375556e6 4.359058857223302e6 0.0
4.359058857223302e6 2.9253602975381846e6 0.0
0.0 0.0 0.0

436895.55950744497 1.0685385891175913e7 0.0
1.0685385891175913e7 -1.1521486115636116e7 0.0
0.0 0.0 0.0

-1.2404086859914456e6 2.600419050457153e7 0.0
2.600419050457153e7 -749260.1133645882 0.0
0.0 0.0 0.0

-3.469275318485474e6 2.0413935535029896e7 0.0
2.0413935535029896e7 5.287544182526904e6 0.0
0.0 0.0 0.0

-8.76857959239201e7 8.643896348143097e6 0.0
8.643896348143097e6 1.9360475232590325e6 0.0
0.0 0.0 0.0

586934.40075278 1.6003694212354679e7 0.0
1.6003694212354679e7 -2.4340138986523654e7 0.0
0.0 0.0 0.0

-4.0436202864772934e6 1.9196673607236665e7 0.0
1.9196673607236665e7 8.233848638422711e6 0.0
0.0 0.0 0.0

-1.3525025085789463e6 2.2517587040124252e7 0.0
2.2517587040124252e7 -3.5406807412807704e6 0.0
0.0 0.0 0.0

-3.7589438569212416e6 2.019841518671205e7 0.0
2.019841518671205e7 7.919746531520011e6 0.0
0.0 0.0 0.0

-2.1162514211207256e6 2.1087418076638374e7 0.0
2.1087418076638374e7 910839.2628763415 0.0
0.0 0.0 0.0

-5286.041532339528 2.033394468696412e7 0.0
2.033394468696412e7 -1.0554854631542705e7 0.0
0.0 0.0 0.0

-6.8013010829637805e6 1.5419417643005405e7 0.0
1.5419417643005405e7 1.2657451120830974e7 0.0
0.0 0.0 0.0

-1.1188998794339495e7 7.476277433126803e6 0.0
7.476277433126803e6 2.749449948528796e7 0.0
0.0 0.0 0.0

-669506.9481769921 1.2864600717245696e7 0.0
1.2864600717245696e7 -5.184265860438952e6 0.0
0.0 0.0 0.0

2.8283123143399423e6 6.005526978701494e6 0.0
6.005526978701494e6 -1.1426381566287164e7 0.0
0.0 0.0 0.0

-1.7993469563976177e6 1.6513547455621218e7 0.0
1.6513547455621218e7 -7.404125249469834e6 0.0
0.0 0.0 0.0

-217639.0894794548 2.102144199115035e7 0.0
2.102144199115035e7 -1.1736665978954075e7 0.0
0.0 0.0 0.0

-3.6840197740260777e6 1.942353523126047e7 0.0
1.942353523126047e7 5.479081069584578e6 0.0
0.0 0.0 0.0

-2.5662029752988247e6 1.5200871976052329e7 0.0
1.5200871976052329e7 -4.1649729220057335e6 0.0
0.0 0.0 0.0

-8.117248089010076e6 914227.3632103532 0.0
914227.3632103532 1.4613720593922189e7 0.0
0.0 0.0 0.0

2.2416095198272495e6 5.90282628458236e6 0.0
5.90282628458236e6 -1.3377588851225877e7 0.0
0.0 0.0 0.0

-1.0115134897269376e7 6.94539774966539e6 0.0
6.94539774966539e6 3.542277783527983e7 0.0
0.0 0.0 0.0

-1.1610562386944344e7 3.286922983898025e6 0.0
3.286922983898025e6 2.0088784378488548e7 0.0
0.0 0.0 0.0

-2.187975335900153e6 1.9572011365605857e7 0.0
1.9572011365605857e7 2.325283666824106e7 0.0
0.0 0.0 0.0

-1.2906550152636615e6 1.9391903744962126e7 0.0
1.9391903744962126e7 -9.313079601167914e6 0.0
0.0 0.0 0.0

284332.4720321023 1.0057461251023635e7 0.0
1.0057461251023635e7 -1.0642212428642806e7 0.0
0.0 0.0 0.0

-9.61263116304661e6 6.65846242413177e6 0.0
6.65846242413177e6 3.81102674063851e7 0.0
0.0 0.0 0.0

-1.0824032380894264e6 2.2776437831357166e7 0.0
2.2776437831357166e7 -4.403639073318716e6 0.0
0.0 0.0 0.0

-3.9666912480113246e6 1.4270339338777151e7 0.0
1.4270339338777151e7 1.4818194578932533e6 0.0
0.0 0.0 0.0

-1.7584858170889944e6 1.0161643377646014e7 0.0
1.0161643377646014e7 544571.3969809999 0.0
0.0 0.0 0.0

-1.8301497453197457e6 1.3367978230348993e7 0.0
1.3367978230348993e7 -5.994682709285652e6 0.0
0.0 0.0 0.0

-2.9686872073510075e6 1.73340173167008e7 0.0
1.73340173167008e7 -2.804913704634097e7 0.0
0.0 0.0 0.0

-2.8511506799006774e6 2.0271005412282925e7 0.0
2.0271005412282925e7 7.391744912893277e6 0.0
0.0 0.0 0.0

799631.2032044148 1.9584941067898694e7 0.0
1.9584941067898694e7 -1.508034467411971e7 0.0
0.0 0.0 0.0

507943.27902085334 1.710511563148172e7 0.0
1.710511563148172e7 5.736188888572443e7 0.0
0.0 0.0 0.0

4.448399394250697e6 2.2589337704947133e7 0.0
2.2589337704947133e7 1.161183587355287e7 0.0
0.0 0.0 0.0

-1.0792133299860034e7 1.340291285200342e7 0.0
1.340291285200342e7 1.897443919010043e7 0.0
0.0 0.0 0.0

2.022762120195249e6 1.2653939231309136e7 0.0
1.2653939231309136e7 -2.443307379505638e7 0.0
0.0 0.0 0.0

-1.6227391353090494e6 1.5865762676409796e7 0.0
1.5865762676409796e7 -3.138156141657582e6 0.0
0.0 0.0 0.0

1.2257617244364768e6 2.227432310405634e7 0.0
2.227432310405634e7 -1.1084738022382723e7 0.0
0.0 0.0 0.0

-2.4796347402250436e6 2.5366152687417418e7 0.0
2.5366152687417418e7 4.519274443586008e6 0.0
0.0 0.0 0.0

-1.6359240216415036e6 2.3891373689981177e7 0.0
2.3891373689981177e7 -4.551023324543913e6 0.0
0.0 0.0 0.0

-365885.8909549834 1.95259039022142e7 0.0
1.95259039022142e7 -1.6435424857182935e7 0.0
0.0 0.0 0.0

-1.413555140667503e6 1.4732943879909268e7 0.0
1.4732943879909268e7 -3.422021505560445e6 0.0
0.0 0.0 0.0

-3.486003201270758e6 2.0796544411958363e7 0.0
2.0796544411958363e7 6.486592648908404e6 0.0
0.0 0.0 0.0

-1.2189468333750688e7 6.931892706642132e6 0.0
6.931892706642132e6 1.8346687751241527e7 0.0
0.0 0.0 0.0

2.517788564899168e6 5.756267507927458e6 0.0
5.756267507927458e6 -1.5432655549735676e7 0.0
0.0 0.0 0.0

-1.1867662849867046e6 1.6751100260653356e7 0.0
1.6751100260653356e7 -5.382769212887063e6 0.0
0.0 0.0 0.0

2.693490731178443e6 9.501543227447433e6 0.0
9.501543227447433e6 -1.8552777832702436e7 0.0
0.0 0.0 0.0

-2.490516225047099e6 2.0338932922066808e7 0.0
2.0338932922066808e7 2.632008813592702e6 0.0
0.0 0.0 0.0

-928896.7173057112 9.525691626951301e6 0.0
9.525691626951301e6 -1.1841387154861738e6 0.0
0.0 0.0 0.0

-282333.8224636343 2.7772816107314363e7 0.0
2.7772816107314363e7 -3.513366891089037e6 0.0
0.0 0.0 0.0

-5.81965213174993e7 4.530346858000507e6 0.0
4.530346858000507e6 5.641496044400275e6 0.0
0.0 0.0 0.0

-229448.76004379545 8.847654463707715e6 0.0
8.847654463707715e6 -2.730621506692351e6 0.0
0.0 0.0 0.0

-3.449098352690869e6 1.63950071043844e7 0.0
1.63950071043844e7 -3.439282473753955e7 0.0
0.0 0.0 0.0

1.0640592233604812e6 2.1345060996111512e7 0.0
2.1345060996111512e7 -9.800540868954113e6 0.0
0.0 0.0 0.0

822924.914862759 1.3520170897532007e7 0.0
1.3520170897532007e7 -1.194072775931994e7 0.0
0.0 0.0 0.0

761935.8804109236 1.7938040616223186e7 0.0
1.7938040616223186e7 -1.8874106972198877e7 0.0
0.0 0.0 0.0

424758.6477916937 8.243606362660862e6 0.0
8.243606362660862e6 -4.1232333243257795e6 0.0
0.0 0.0 0.0

3.1584555864071827e6 7.916563096329753e6 0.0
7.916563096329753e6 -2.0827504563776404e7 0.0
0.0 0.0 0.0

-1.9903975531821675e6 2.5543905785229605e7 0.0
2.5543905785229605e7 -1.474331142021858e6 0.0
0.0 0.0 0.0

107121.51628954406 6.0065158820255725e6 0.0
6.0065158820255725e6 -5.281596831146613e6 0.0
0.0 0.0 0.0

911749.9488927433 1.0544597155115638e7 0.0
1.0544597155115638e7 -1.3613639015450103e7 0.0
0.0 0.0 0.0

-12890.078891813406 2.900377791002012e7 0.0
2.900377791002012e7 -2.5748431549770967e6 0.0
0.0 0.0 0.0

3.5702760803747517e6 2.099013222491669e7 0.0
2.099013222491669e7 679867.8338131445 0.0
0.0 0.0 0.0

1.3883803579102e6 2.3901608608742647e7 0.0
2.3901608608742647e7 -8.730988555127362e6 0.0
0.0 0.0 0.0

1.291047976162739e6 8.224747965927027e6 0.0
8.224747965927027e6 -5.6477248131217144e7 0.0
0.0 0.0 0.0

-7.9293908505120985e6 1.731488687036892e7 0.0
1.731488687036892e7 2.7517755163530353e7 0.0
0.0 0.0 0.0

-1.8385857965110778e6 2.470990426676179e7 0.0
2.470990426676179e7 781566.251922915 0.0
0.0 0.0 0.0

2.5813453037866354e6 9.160847881184377e6 0.0
9.160847881184377e6 -1.5812619561976537e7 0.0
0.0 0.0 0.0

945277.5426203553 7.535288483787092e6 0.0
7.535288483787092e6 -5.415962887241162e6 0.0
0.0 0.0 0.0

175173.3856260064 9.440651390554393e6 0.0
9.440651390554393e6 -9.7044994440334e6 0.0
0.0 0.0 0.0

-3.365149641009831e6 2.8708579726323586e7 0.0
2.8708579726323586e7 4.687356789012883e6 0.0
0.0 0.0 0.0

-9.94535670988767e6 928413.4718130776 0.0
928413.4718130776 2.155725959939888e7 0.0
0.0 0.0 0.0

-1.0017842833474621e7 1.5672365040056236e7 0.0
1.5672365040056236e7 2.5184602937598784e7 0.0
0.0 0.0 0.0

-1.157782755454913e6 2.4156387515255265e7 0.0
2.4156387515255265e7 -3.060112157169342e6 0.0
0.0 0.0 0.0

1.0116015237619812e6 1.524892828958585e7 0.0
1.524892828958585e7 -1.5200353663657783e7 0.0
0.0 0.0 0.0

-2.9972005731429365e6 2.07496010765034e7 0.0
2.07496010765034e7 1.9525162365910467e7 0.0
0.0 0.0 0.0

-2.672623879969825e6 1.6322263750132816e7 0.0
1.6322263750132816e7 -3.870452221986856e6 0.0
0.0 0.0 0.0

403164.4560096883 1.6043263222158186e7 0.0
1.6043263222158186e7 -1.2033081677298088e7 0.0
0.0 0.0 0.0

-1.1693931859260853e6 1.5770334418217447e7 0.0
1.5770334418217447e7 -2.9171508827609964e7 0.0
0.0 0.0 0.0

2.144949995000787e6 2.521794194590261e7 0.0
2.521794194590261e7 -7.3651643923874805e6 0.0
0.0 0.0 0.0

-1.650899598904414e6 1.38510523749293e7 0.0
1.38510523749293e7 -4.103027686012561e7 0.0
0.0 0.0 0.0

-1.19267351508389e7 5.725114224215784e6 0.0
5.725114224215784e6 1.7425939022535015e7 0.0
0.0 0.0 0.0

5.0497592585096285e6 2.084702235677988e7 0.0
2.084702235677988e7 2.290399482346633e7 0.0
0.0 0.0 0.0

-3.9323852134452728e6 2.7697634051785972e7 0.0
2.7697634051785972e7 5.066748185089903e6 0.0
0.0 0.0 0.0

-2.419428632686239e6 1.6755262717719415e7 0.0
1.6755262717719415e7 -4.986074581182039e6 0.0
0.0 0.0 0.0

3.757240354082787e6 2.224108827483249e7 0.0
2.224108827483249e7 -6.016242269201442e6 0.0
0.0 0.0 0.0

-964524.9961471064 2.3619685618782997e7 0.0
2.3619685618782997e7 -4.1205324097141814e6 0.0
0.0 0.0 0.0

-6.270219129309509e6 8.391710941267816e6 0.0
8.391710941267816e6 6.030462133306333e6 0.0
0.0 0.0 0.0

-21622.489018081687 1.9928148543556012e7 0.0
1.9928148543556012e7 -1.515229012963527e7 0.0
0.0 0.0 0.0

1.6632502434119582e6 1.450398290082908e7 0.0
1.450398290082908e7 -2.0696506401150726e7 0.0
0.0 0.0 0.0

1.469338286908295e6 1.5084044861018222e7 0.0
1.5084044861018222e7 -1.939475766682189e7 0.0
0.0 0.0 0.0

-942661.1353978482 1.5229077984368179e7 0.0
1.5229077984368179e7 -1.0071718423394324e7 0.0
0.0 0.0 0.0

1.4402723348522604e7 2.625018985064525e7 0.0
2.625018985064525e7 -4.871771893211305e6 0.0
0.0 0.0 0.0

1.5450045457785446e6 1.1263217844201682e7 0.0
1.1263217844201682e7 -1.2489357776447672e7 0.0
0.0 0.0 0.0

2.5556468088093046e6 5.227311797898941e6 0.0
5.227311797898941e6 -1.4599619293548396e7 0.0
0.0 0.0 0.0

1.8057930488056205e6 1.3871533232570514e7 0.0
1.3871533232570514e7 -2.1890077088575326e7 0.0
0.0 0.0 0.0

1.770727938889347e6 6.678994169859696e6 0.0
6.678994169859696e6 -4.259271604141493e7 0.0
0.0 0.0 0.0

-8.467278689995259e6 7.509365567626545e6 0.0
7.509365567626545e6 9.619954465190904e6 0.0
0.0 0.0 0.0

-3.0180880814811047e6 2.2320856689677082e7 0.0
2.2320856689677082e7 2.747759188793893e6 0.0
0.0 0.0 0.0

3.4845970513172243e6 4.737545732165905e6 0.0
4.737545732165905e6 -2.4664810098700453e7 0.0
0.0 0.0 0.0

1.8146332894929368e6 6.644543977080622e6 0.0
6.644543977080622e6 -1.2439309251738688e7 0.0
0.0 0.0 0.0

-348189.8063821057 1.5457246937105883e7 0.0
1.5457246937105883e7 -8.111392800487112e6 0.0
0.0 0.0 0.0

-7.4085083220494315e6 1.4336854962947603e7 0.0
1.4336854962947603e7 3.749111528832817e7 0.0
0.0 0.0 0.0

-4.162778428794292e6 2.207311952832913e7 0.0
2.207311952832913e7 1.4211227066793293e7 0.0
0.0 0.0 0.0

-5.3741426560343085e6 9.683543759036109e6 0.0
9.683543759036109e6 4.408964241680117e6 0.0
0.0 0.0 0.0

-6.132138973419213e6 1.991312014161595e7 0.0
1.991312014161595e7 2.06162170607525e7 0.0
0.0 0.0 0.0

3.481772604439281e6 6.263660058454816e6 0.0
6.263660058454816e6 -1.829703672432203e7 0.0
0.0 0.0 0.0

1.844381782764569e6 1.3269142470640969e7 0.0
1.3269142470640969e7 -2.3298200717037667e7 0.0
0.0 0.0 0.0

-1.8160857511301734e6 6.0029322319977365e7 0.0
6.0029322319977365e7 4.830195282012274e6 0.0
0.0 0.0 0.0

-5.383570810998344e6 1.344360107499113e7 0.0
1.344360107499113e7 6.333978998562014e6 0.0
0.0 0.0 0.0

-1.1431893672709448e7 4.155720493877511e6 0.0
4.155720493877511e6 1.6543014317659933e7 0.0
0.0 0.0 0.0

239087.01901845727 1.8823613921067905e7 0.0
1.8823613921067905e7 -1.6273764407525439e7 0.0
0.0 0.0 0.0

1.3251293048495986e6 1.5692613462603608e7 0.0
1.5692613462603608e7 -1.8234274786958817e7 0.0
0.0 0.0 0.0

-340968.30889502843 2.624671811550216e6 0.0
2.624671811550216e6 3.9293645246298136e6 0.0
0.0 0.0 0.0

-2.686143798285668e6 1.4003507309560224e6 0.0
1.4003507309560224e6 6.317414098796346e6 0.0
0.0 0.0 0.0

-4.353352129689382e6 2.902576230253109e7 0.0
2.902576230253109e7 4.206484115281939e6 0.0
0.0 0.0 0.0

-3.9824485825038822e6 1.8814905168890104e7 0.0
1.8814905168890104e7 6.933232958783164e6 0.0
0.0 0.0 0.0

-3.1181691315834112e6 2.8790210586282745e7 0.0
2.8790210586282745e7 2.3891483234683825e6 0.0
0.0 0.0 0.0

2.8236313940487793e6 9.324021100442898e6 0.0
9.324021100442898e6 -2.0469097602634564e7 0.0
0.0 0.0 0.0

-3.3042703294036193e6 2.1349275685066223e7 0.0
2.1349275685066223e7 5.148613431827225e6 0.0
0.0 0.0 0.0

-1.0508230874016771e7 4.176629208340578e6 0.0
4.176629208340578e6 3.0193298086721983e7 0.0
0.0 0.0 0.0

-7.114525877052636e7 6.026045488531799e6 0.0
6.026045488531799e6 4.791963246036921e6 0.0
0.0 0.0 0.0

-2.946053750106084e6 2.3221459082382772e7 0.0
2.3221459082382772e7 2.806185859224801e6 0.0
0.0 0.0 0.0

-5.537388172271921e6 2.03720643832486e7 0.0
2.03720643832486e7 1.9090289374829326e7 0.0
0.0 0.0 0.0

519045.35730808415 2.5410068215493497e7 0.0
2.5410068215493497e7 -6.881004906941898e6 0.0
0.0 0.0 0.0

1.902250167746015e6 6.021113741992071e6 0.0
6.021113741992071e6 -1.1272904727590078e7 0.0
0.0 0.0 0.0

-5.238081124950532e6 1.5286211899101336e7 0.0
1.5286211899101336e7 7.792627765958262e6 0.0
0.0 0.0 0.0

-1.3731935457615454e7 2.496348197412238e7 0.0
2.496348197412238e7 -8.150933398937944e6 0.0
0.0 0.0 0.0

-6.722734476992278e6 2.321829277285877e7 0.0
2.321829277285877e7 -8.602252673480034e6 0.0
0.0 0.0 0.0

3.0749732759331316e6 7.254556243468294e6 0.0
7.254556243468294e6 -1.5126174469220698e7 0.0
0.0 0.0 0.0

-5.036878766303617e6 2.0898123480599508e7 0.0
2.0898123480599508e7 1.749137055296403e7 0.0
0.0 0.0 0.0

-406140.6207748153 1.8135759603758685e7 0.0
1.8135759603758685e7 -9.185937964111162e6 0.0
0.0 0.0 0.0

1.7849262518972252e6 4.894264059811356e6 0.0
4.894264059811356e6 -4.665093031490633e7 0.0
0.0 0.0 0.0

-8.906970810438205e6 1.6422078426388158e6 0.0
1.6422078426388158e6 4.364506093851167e7 0.0
0.0 0.0 0.0

2.267310968006213e6 9.883872846419267e6 0.0
9.883872846419267e6 -1.4707381856116176e7 0.0
0.0 0.0 0.0

3.1347402508744486e6 7.181020795824665e6 0.0
7.181020795824665e6 -2.9809306114358217e7 0.0
0.0 0.0 0.0

-467477.25656195614 1.9908373232055977e7 0.0
1.9908373232055977e7 -7.647065588990616e6 0.0
0.0 0.0 0.0

298997.7694739774 1.181762688711202e7 0.0
1.181762688711202e7 -3.902673156600607e7 0.0
0.0 0.0 0.0

1.5841164327925814e6 3.1104995219489496e7 0.0
3.1104995219489496e7 -3.067569336935196e6 0.0
0.0 0.0 0.0

-4.0243611042147763e6 1.7429399343925346e7 0.0
1.7429399343925346e7 3.58240467019728e7 0.0
0.0 0.0 0.0

-9.37603014836661e6 1.495842674710321e6 0.0
1.495842674710321e6 4.02265596649634e7 0.0
0.0 0.0 0.0

-506154.9858473786 1.9067758927500453e7 0.0
1.9067758927500453e7 -8.799992391284669e6 0.0
0.0 0.0 0.0

2.0581512545182928e6 7.938945729614382e6 0.0
7.938945729614382e6 -3.606658535276955e7 0.0
0.0 0.0 0.0

-2.309438820436861e6 1.924357373596764e7 0.0
1.924357373596764e7 39028.43935206672 0.0
0.0 0.0 0.0

-3.13026024749908e6 2.1425887053408954e7 0.0
2.1425887053408954e7 2.717418517125127e6 0.0
0.0 0.0 0.0

-1.1350013717094826e7 6.357952759467045e6 0.0
6.357952759467045e6 2.3605395853017885e7 0.0
0.0 0.0 0.0

2.8356384262251602e6 2.562892976587343e7 0.0
2.562892976587343e7 -7.003390085794026e6 0.0
0.0 0.0 0.0

771799.2970816507 2.0355836560172357e7 0.0
2.0355836560172357e7 -4.0248155634143455e6 0.0
0.0 0.0 0.0

-1.243702673484309e6 2.472457377368402e7 0.0
2.472457377368402e7 -2.0096902238324909e6 0.0
0.0 0.0 0.0

2.5953936709700115e6 2.861760128685892e6 0.0
2.861760128685892e6 -4.423352799203021e7 0.0
0.0 0.0 0.0

-3.163157300144771e6 2.1863349785198838e7 0.0
2.1863349785198838e7 3.872101835886318e6 0.0
0.0 0.0 0.0

862162.6900287997 1.39511434616427e7 0.0
1.39511434616427e7 -1.2786375054140424e7 0.0
0.0 0.0 0.0

-4.036863265319473e6 1.1525693081389232e7 0.0
1.1525693081389232e7 1.2416976710025948e6 0.0
0.0 0.0 0.0

-936679.4329706623 1.4091832029416515e7 0.0
1.4091832029416515e7 -4.89452591059011e6 0.0
0.0 0.0 0.0

-8.510585281294752e6 5.056330253846516e6 0.0
5.056330253846516e6 9.433677545039035e6 0.0
0.0 0.0 0.0

1.0912145427081608e6 1.9458748890603267e7 0.0
1.9458748890603267e7 -5.1665780669165095e6 0.0
0.0 0.0 0.0

-1.0353839972926604e7 8.54783483236834e6 0.0
8.54783483236834e6 3.3578801275064334e7 0.0
0.0 0.0 0.0

302332.7614710927 1.565771349465063e7 0.0
1.565771349465063e7 -1.1213965960715987e7 0.0
0.0 0.0 0.0

-4.923913533840053e6 5.788651088710617e6 0.0
5.788651088710617e6 3.5536316805016613e6 0.0
0.0 0.0 0.0

-4.856060352199776e6 2.967875596379276e7 0.0
2.967875596379276e7 4.281430060938265e6 0.0
0.0 0.0 0.0

-253520.26024334505 2.3487906091885068e7 0.0
2.3487906091885068e7 -6.369997359928946e6 0.0
0.0 0.0 0.0

949026.8042516038 1.6499712723307202e7 0.0
1.6499712723307202e7 -2.144175540818488e7 0.0
0.0 0.0 0.0

1.9141461563570779e6 1.0573670075435407e7 0.0
1.0573670075435407e7 -1.3617014481576685e7 0.0
0.0 0.0 0.0

-2.280899057585528e6 2.363677146783308e7 0.0
2.363677146783308e7 3.432949077506817e6 0.0
0.0 0.0 0.0

-5.8427192488146145e6 1.9827678629570846e7 0.0
1.9827678629570846e7 2.2053751763662983e7 0.0
0.0 0.0 0.0

5.673057572672859e6 1.987729360945245e7 0.0
1.987729360945245e7 1.1554971311635653e7 0.0
0.0 0.0 0.0

1.582888842100544e6 8.214025471547191e6 0.0
8.214025471547191e6 -3.875370374792892e7 0.0
0.0 0.0 0.0

-2.7215190233946517e6 2.120433702758115e7 0.0
2.120433702758115e7 7.118587614819708e6 0.0
0.0 0.0 0.0

-2.480668317814545e6 2.2309688471822158e7 0.0
2.2309688471822158e7 4.547685122113325e6 0.0
0.0 0.0 0.0

-1.1655845347330008e7 1.092097290437752e7 0.0
1.092097290437752e7 1.805287647455593e7 0.0
0.0 0.0 0.0

2.177550950831123e6 3.1813596301121786e7 0.0
3.1813596301121786e7 -3.087588797592021e6 0.0
0.0 0.0 0.0

363684.61553141894 1.3735048059640964e7 0.0
1.3735048059640964e7 -9.769802609609032e6 0.0
0.0 0.0 0.0

-8.405897063089874e6 1.7188824980759032e7 0.0
1.7188824980759032e7 1.9796965509980433e7 0.0
0.0 0.0 0.0

1.9560756294324491e6 1.0029298553098183e7 0.0
1.0029298553098183e7 -1.2762460304567559e7 0.0
0.0 0.0 0.0

-3.589175372705087e6 8.859706385968365e6 0.0
8.859706385968365e6 5.744327444154235e6 0.0
0.0 0.0 0.0

-2.141647135144663e6 2.3997063998670906e7 0.0
2.3997063998670906e7 2.4362412684143553e6 0.0
0.0 0.0 0.0

-2.138015167650299e6 2.483421450985381e7 0.0
2.483421450985381e7 2.4866889664873644e6 0.0
0.0 0.0 0.0

200538.97122678207 1.5252919057896614e7 0.0
1.5252919057896614e7 -1.0339009496239629e7 0.0
0.0 0.0 0.0

1.9900113715283256e6 2.105989472704608e7 0.0
2.105989472704608e7 -5.142952636156319e6 0.0
0.0 0.0 0.0

1.2081007170570284e7 2.727161513807361e7 0.0
2.727161513807361e7 -5.434040051140416e6 0.0
0.0 0.0 0.0

-5.502248242636598e6 2.3272802494096894e7 0.0
2.3272802494096894e7 7.964751381956527e6 0.0
0.0 0.0 0.0

-8.937638382630482e6 1.677219117424224e7 0.0
1.677219117424224e7 -3.885477842361333e7 0.0
0.0 0.0 0.0

1.1171598001273037e6 1.1415567858761812e7 0.0
1.1415567858761812e7 -1.0384017898312159e7 0.0
0.0 0.0 0.0

-1.0695466731854625e7 4.659000866274539e6 0.0
4.659000866274539e6 2.795772348938185e7 0.0
0.0 0.0 0.0

-2.684472730931123e6 2.132336195502302e7 0.0
2.132336195502302e7 -1.5840972189354124e6 0.0
0.0 0.0 0.0

-5.7876837879906725e6 2.198521008923234e7 0.0
2.198521008923234e7 -1.057484221504414e6 0.0
0.0 0.0 0.0

-2.610031898664664e6 2.1736338495677833e7 0.0
2.1736338495677833e7 5.739349363305825e6 0.0
0.0 0.0 0.0

-1.0026028013023006e7 2.49742336968207e6 0.0
2.49742336968207e6 3.1487793055595975e7 0.0
0.0 0.0 0.0

-5.5772388141238615e6 3.0325033152869053e7 0.0
3.0325033152869053e7 4.376700886302529e6 0.0
0.0 0.0 0.0

-2.770579834944208e6 2.3628051346740324e7 0.0
2.3628051346740324e7 1.7999619361866103e6 0.0
0.0 0.0 0.0

2.124887398652345e6 1.969965711916029e7 0.0
1.969965711916029e7 657393.31106364 0.0
0.0 0.0 0.0

3.296440986468183e6 1.7009900746791646e7 0.0
1.7009900746791646e7 1.098813687089473e7 0.0
0.0 0.0 0.0

-2.8867567517869095e6 2.059953959548036e7 0.0
2.059953959548036e7 8.542984797377778e6 0.0
0.0 0.0 0.0

-5.500650885703162e6 1.8522758642221875e7 0.0
1.8522758642221875e7 1.4018524956630515e7 0.0
0.0 0.0 0.0

3.103804171150866e6 6.609352749343726e6 0.0
6.609352749343726e6 -1.4208664743433075e7 0.0
0.0 0.0 0.0

-958574.4000553576 2.4969156145695016e7 0.0
2.4969156145695016e7 -2.834543521609338e6 0.0
0.0 0.0 0.0

-8.99397411905485e6 1.5379319706112204e7 0.0
1.5379319706112204e7 2.164999794751095e7 0.0
0.0 0.0 0.0

3.124427723145079e6 4.41925851573796e6 0.0
4.41925851573796e6 -2.2656507183948092e7 0.0
0.0 0.0 0.0

-1.7723591658232673e6 2.3099837472859204e7 0.0
2.3099837472859204e7 -4.925386966350402e6 0.0
0.0 0.0 0.0

-2.5356249127892274e6 2.13770177908555e7 0.0
2.13770177908555e7 4.703979700062509e6 0.0
0.0 0.0 0.0

-3.680201263155567e6 5.200283585391624e6 0.0
5.200283585391624e6 1.6022563252705843e6 0.0
0.0 0.0 0.0

1.3233519798594061e6 1.1380260589838106e7 0.0
1.1380260589838106e7 -1.711122906603615e7 0.0
0.0 0.0 0.0

587000.1715546852 5.28190023459764e7 0.0
5.28190023459764e7 3.5599109340011887e6 0.0
0.0 0.0 0.0

581594.7089888267 7.390586865313454e6 0.0
7.390586865313454e6 -6.667390795107184e7 0.0
0.0 0.0 0.0

2.994715484847838e6 5.535865482915191e6 0.0
5.535865482915191e6 -2.6474699411982566e7 0.0
0.0 0.0 0.0

1.9462129179164702e6 1.2825990284247994e7 0.0
1.2825990284247994e7 -1.921753904945764e7 0.0
0.0 0.0 0.0

-5.160092570759175e6 2.2715458153809436e7 0.0
2.2715458153809436e7 5.882527378185906e6 0.0
0.0 0.0 0.0

493933.7309166044 1.5114371258572161e7 0.0
1.5114371258572161e7 -2.5950315977073357e7 0.0
0.0 0.0 0.0

1.0708460875327042e6 1.086812877495986e7 0.0
1.086812877495986e7 -9.45558980912159e6 0.0
0.0 0.0 0.0

-3.367492465777842e6 1.0823548796844056e7 0.0
1.0823548796844056e7 -507339.6934101817 0.0
0.0 0.0 0.0

3.435244762122958e6 1.9020992173917342e7 0.0
1.9020992173917342e7 1.9011272973720483e7 0.0
0.0 0.0 0.0

-4.302632298106724e6 1.7685278437056452e7 0.0
1.7685278437056452e7 3.356981769118706e7 0.0
0.0 0.0 0.0

1.190795450152955e7 1.4819054571988037e7 0.0
1.4819054571988037e7 6.396292129636186e6 0.0
0.0 0.0 0.0

-4.943370426057287e6 3.3467702688923772e7 0.0
3.3467702688923772e7 2.3952797788957236e6 0.0
0.0 0.0 0.0

-1.3833840735485055e6 1.5863072466565976e7 0.0
1.5863072466565976e7 -8.75142751133518e6 0.0
0.0 0.0 0.0

-2.993196756554797e7 2.606186916958209e7 0.0
2.606186916958209e7 -1.366767158557226e6 0.0
0.0 0.0 0.0

-237100.73169595562 1.7238446473499678e7 0.0
1.7238446473499678e7 -9.57309488179074e6 0.0
0.0 0.0 0.0

-2.4998361566557726e6 2.192746374323396e7 0.0
2.192746374323396e7 3.475778953624958e6 0.0
0.0 0.0 0.0

-235671.9764455133 1.3912001333934303e7 0.0
1.3912001333934303e7 -7.380665762320481e6 0.0
0.0 0.0 0.0

-1.4808595968337292e6 1.6603834452257408e7 0.0
1.6603834452257408e7 -2.660350798726264e7 0.0
0.0 0.0 0.0

3.044625524212461e6 5.266462317733406e6 0.0
5.266462317733406e6 -2.153265295742662e7 0.0
0.0 0.0 0.0

1.4622884483790528e6 1.0970943398017194e7 0.0
1.0970943398017194e7 -3.5194019844133854e7 0.0
0.0 0.0 0.0

-1.0155097879483989e6 2.0513221911005646e7 0.0
2.0513221911005646e7 1.751520728524185e7 0.0
0.0 0.0 0.0

3.1155327245448045e6 7.5309112656505285e6 0.0
7.5309112656505285e6 -2.465161339432873e7 0.0
0.0 0.0 0.0

-1.4571367861482848e6 2.327339438054485e7 0.0
2.327339438054485e7 -5.64099210718946e6 0.0
0.0 0.0 0.0

-482621.621929273 1.9976542254770942e7 0.0
1.9976542254770942e7 -1.1912030135172905e7 0.0
0.0 0.0 0.0

-2.3723883800925845e6 1.4029811611095643e7 0.0
1.4029811611095643e7 -4.500303687984769e6 0.0
0.0 0.0 0.0

-4.0317567245671256e6 1.6130463235918792e7 0.0
1.6130463235918792e7 3.0726006566309915e6 0.0
0.0 0.0 0.0

-8.055693415597828e6 1.775942780222881e7 0.0
1.775942780222881e7 2.0573249981854904e7 0.0
0.0 0.0 0.0

2.4494522206350593e6 1.0213631328939416e7 0.0
1.0213631328939416e7 -1.7445519292305082e7 0.0
0.0 0.0 0.0

-6.030593761535364e6 3.594148617658277e7 0.0
3.594148617658277e7 2.4868561109454366e6 0.0
0.0 0.0 0.0

-6.51514473761644e6 3.08561336059905e7 0.0
3.08561336059905e7 4.616586600941177e6 0.0
0.0 0.0 0.0

-7.50229584522464e6 1.869628053853972e7 0.0
1.869628053853972e7 2.1408973145493872e7 0.0
0.0 0.0 0.0

-1.6450598900845658e6 1.6654095069077782e7 0.0
1.6654095069077782e7 -5.483532656426646e6 0.0
0.0 0.0 0.0

1.1606195933155203e6 1.627935915826368e7 0.0
1.627935915826368e7 -1.69886340554625e7 0.0
0.0 0.0 0.0

3.279722610667214e6 7.2963774851629045e6 0.0
7.2963774851629045e6 -2.2111049232392073e7 0.0
0.0 0.0 0.0

-4.0509946437789644e6 2.420057501354362e7 0.0
2.420057501354362e7 1.0444060693747211e7 0.0
0.0 0.0 0.0

-1.2330491042375568e7 9.861865374249654e6 0.0
9.861865374249654e6 2.149792151020117e7 0.0
0.0 0.0 0.0

4.39731033636968e6 2.785658249933307e7 0.0
2.785658249933307e7 -5.425256042981334e6 0.0
0.0 0.0 0.0

-7.58014923518974e6 2.383735353816333e6 0.0
2.383735353816333e6 5.401044193019459e7 0.0
0.0 0.0 0.0

-1.5764631803278206e6 2.007021543103329e7 0.0
2.007021543103329e7 -8.057374179224747e6 0.0
0.0 0.0 0.0

-9.397275373394758e6 -2.134755551795731e6 0.0
-2.134755551795731e6 2.8183962382036377e7 0.0
0.0 0.0 0.0

-8.96011894652307e6 3.6926856087392373e6 0.0
3.6926856087392373e6 1.5216032004955033e7 0.0
0.0 0.0 0.0

3.1268536523551596e6 5.9030146128221145e6 0.0
5.9030146128221145e6 -1.3470574883444108e7 0.0
0.0 0.0 0.0

-8.433429478962313e6 1.4438226883877235e7 0.0
1.4438226883877235e7 3.404706710198091e7 0.0
0.0 0.0 0.0

2.087352096261911e6 1.1384165944255099e7 0.0
1.1384165944255099e7 -2.916179469172846e7 0.0
0.0 0.0 0.0

-1.2551786288000057e6 2.3373404599979997e7 0.0
2.3373404599979997e7 -3.26551049638881e6 0.0
0.0 0.0 0.0

-2.4337513465647995e6 2.315372130535477e7 0.0
2.315372130535477e7 4.535640899686204e6 0.0
0.0 0.0 0.0

-1.7724586654678187e6 1.6969054426646642e7 0.0
1.6969054426646642e7 -2.873418398937813e6 0.0
0.0 0.0 0.0

-2.6185161856293683e6 2.3501251184497904e7 0.0
2.3501251184497904e7 6.78823473520299e6 0.0
0.0 0.0 0.0

995277.7356477627 6.039677138885712e6 0.0
6.039677138885712e6 -7.695614182949376e6 0.0
0.0 0.0 0.0

-2.4948430852947207e6 1.9817797759773135e7 0.0
1.9817797759773135e7 -4.0297937145989127e6 0.0
0.0 0.0 0.0

1.0125009618977688e7 2.7952712453660592e7 0.0
2.7952712453660592e7 -5.513589143076289e6 0.0
0.0 0.0 0.0

875696.8108684286 1.0133029056964677e7 0.0
1.0133029056964677e7 -8.688694044921847e6 0.0
0.0 0.0 0.0

-190377.17305166833 1.5877174551728183e7 0.0
1.5877174551728183e7 -9.067210212949459e6 0.0
0.0 0.0 0.0

-5.7435378234016765e6 2.261813347622742e7 0.0
2.261813347622742e7 -6.492167670946863e6 0.0
0.0 0.0 0.0

-2.0008804186796327e6 1.6516078386404011e7 0.0
1.6516078386404011e7 -1.6770599494942124e6 0.0
0.0 0.0 0.0

1.1367131552815557e7 2.325961449995369e7 0.0
2.325961449995369e7 -2.0866142250337042e6 0.0
0.0 0.0 0.0

-2.458824783939746e6 4.545476433434133e6 0.0
4.545476433434133e6 -392398.39701836236 0.0
0.0 0.0 0.0

2.8432537978372667e6 4.791909844064255e6 0.0
4.791909844064255e6 -3.2031414283623368e7 0.0
0.0 0.0 0.0

-3.345293830176144e6 3.0998928701875047e6 0.0
3.0998928701875047e6 6.899710440242883e6 0.0
0.0 0.0 0.0

-2.5691387236099364e6 1.0149679723711506e7 0.0
1.0149679723711506e7 -2.162073483859641e6 0.0
0.0 0.0 0.0

-2.17155366367704e6 1.7165055959514473e7 0.0
1.7165055959514473e7 -6.042644129924957e6 0.0
0.0 0.0 0.0

-8.643884693283005e6 5.226601444546679e6 0.0
5.226601444546679e6 1.4721550979357474e7 0.0
0.0 0.0 0.0

2.5065715103533654e6 6.774280635076064e6 0.0
6.774280635076064e6 -1.0170931411654044e7 0.0
0.0 0.0 0.0

371220.73482529726 2.0420886219754692e7 0.0
2.0420886219754692e7 -1.391466879395268e7 0.0
0.0 0.0 0.0

-1.722300887832484e6 9.525870106588354e6 0.0
9.525870106588354e6 -3.83263493106972e6 0.0
0.0 0.0 0.0

64441.322123039165 4.756718599397339e7 0.0
4.756718599397339e7 2.1601812666790746e6 0.0
0.0 0.0 0.0

1.2239655637845974e7 2.2640725264123917e7 0.0
2.2640725264123917e7 1.1224836991043046e7 0.0
0.0 0.0 0.0

-943092.9312128946 8.855854288980823e6 0.0
8.855854288980823e6 -5.113078606998868e6 0.0
0.0 0.0 0.0

-5.714259803884215e6 1.457019487874943e7 0.0
1.457019487874943e7 1.414031489758353e7 0.0
0.0 0.0 0.0

1.8184891915735863e6 4.345809307652828e6 0.0
4.345809307652828e6 -6.694485442039061e6 0.0
0.0 0.0 0.0

-1.0788704302433373e7 9.068572872012544e6 0.0
9.068572872012544e6 3.1282175462755837e7 0.0
0.0 0.0 0.0

-270472.0174548866 8.155337628841358e6 0.0
8.155337628841358e6 -6.420097794811385e6 0.0
0.0 0.0 0.0

-7.929448178599743e6 3.5829715911370695e7 0.0
3.5829715911370695e7 4.510321780363053e6 0.0
0.0 0.0 0.0

5.517343175025603e6 2.8133600698236242e7 0.0
2.8133600698236242e7 -5.368259964039581e6 0.0
0.0 0.0 0.0

3.448535650670558e6 6.516557836148348e6 0.0
6.516557836148348e6 -2.3232229215507597e7 0.0
0.0 0.0 0.0

-650032.4594412511 2.053316521090151e7 0.0
2.053316521090151e7 -1.0694762999128608e7 0.0
0.0 0.0 0.0

2.2926434925748874e6 7.595459848363578e6 0.0
7.595459848363578e6 -3.2727871255026072e7 0.0
0.0 0.0 0.0

-2.496086457502446e6 1.7812674630318016e7 0.0
1.7812674630318016e7 -4.670832141324313e6 0.0
0.0 0.0 0.0

2.654621002352125e6 2.045544490611088e7 0.0
2.045544490611088e7 1.249511462850058e7 0.0
0.0 0.0 0.0

8.31681514928445e6 2.8251272425514143e7 0.0
2.8251272425514143e7 -5.435131992705219e6 0.0
0.0 0.0 0.0

835745.9806872853 9.666544388159607e6 0.0
9.666544388159607e6 -7.585154178883664e6 0.0
0.0 0.0 0.0

2.3829763728544824e6 8.7095179889281e6 0.0
8.7095179889281e6 -1.2996513771396287e7 0.0
0.0 0.0 0.0

-729093.6918983891 1.2325432897605846e7 0.0
1.2325432897605846e7 -3.9901517692793803e6 0.0
0.0 0.0 0.0

-7.948286671414355e6 3.1310327717234097e7 0.0
3.1310327717234097e7 4.782665543740004e6 0.0
0.0 0.0 0.0

-3.8476727520332714e6 1.5511369464270445e7 0.0
1.5511369464270445e7 1.5411862152619245e6 0.0
0.0 0.0 0.0

7.395920156301297e6 3.3084154483538006e7 0.0
3.3084154483538006e7 -3.928043230061582e6 0.0
0.0 0.0 0.0

-1.543934012649277e6 1.7394936948724438e7 0.0
1.7394936948724438e7 -3.998889063416822e6 0.0
0.0 0.0 0.0

5.430184009263251e6 1.8987658987675548e7 0.0
1.8987658987675548e7 2.403458389122686e7 0.0
0.0 0.0 0.0

-4.914985185636596e6 2.222802419644353e7 0.0
2.222802419644353e7 -4.195737258320337e6 0.0
0.0 0.0 0.0

-1.3974300922342138e6 2.5227857699433904e7 0.0
2.5227857699433904e7 -970609.9118316513 0.0
0.0 0.0 0.0

-982574.507997442 1.9820272685853384e7 0.0
1.9820272685853384e7 -1.3589061587129813e7 0.0
0.0 0.0 0.0

-1.4757450148143284e6 1.3980398409177952e7 0.0
1.3980398409177952e7 -3.843151940384849e7 0.0
0.0 0.0 0.0

-6.392351837861991e6 1.744930522768852e7 0.0
1.744930522768852e7 3.0798819374941483e7 0.0
0.0 0.0 0.0

551937.7011729507 1.1761562442789147e7 0.0
1.1761562442789147e7 -1.3296099935048165e7 0.0
0.0 0.0 0.0

-1.1100432410569193e7 9.59152562745559e6 0.0
9.59152562745559e6 2.8934621879650794e7 0.0
0.0 0.0 0.0

1.9006422737978213e6 1.2625279737918409e7 0.0
1.2625279737918409e7 -2.626878862283035e7 0.0
0.0 0.0 0.0

-2.117053409658104e6 1.2812233452488642e7 0.0
1.2812233452488642e7 -4.748138780398296e6 0.0
0.0 0.0 0.0

2.9877383006498655e6 4.226398699629537e6 0.0
4.226398699629537e6 -1.3369831635391835e7 0.0
0.0 0.0 0.0

-3.215845163324592e6 1.9259996107684154e7 0.0
1.9259996107684154e7 493318.1064472359 0.0
0.0 0.0 0.0

-2.7469332053072713e6 2.4394317273831103e7 0.0
2.4394317273831103e7 1.7938580407941132e6 0.0
0.0 0.0 0.0

1.0790980047163935e6 2.9005804460714072e7 0.0
2.9005804460714072e7 -3.8666561160813384e6 0.0
0.0 0.0 0.0

-2.5167694857653016e6 1.882941359565017e7 0.0
1.882941359565017e7 -4.343227568133524e6 0.0
0.0 0.0 0.0

2.493339380779173e6 6.035941009734732e6 0.0
6.035941009734732e6 -9.270386301347768e6 0.0
0.0 0.0 0.0

6.787607207878936e6 2.8280049515396107e7 0.0
2.8280049515396107e7 -5.423333245833294e6 0.0
0.0 0.0 0.0

-1.130463466627904e7 1.1189135784239478e7 0.0
1.1189135784239478e7 2.3383366330832638e7 0.0
0.0 0.0 0.0

1.6774589715778362e6 7.500856015050871e6 0.0
7.500856015050871e6 -4.066022063578748e7 0.0
0.0 0.0 0.0

3.550444587380339e6 2.2355170505663335e7 0.0
2.2355170505663335e7 1.2172935026451273e7 0.0
0.0 0.0 0.0

-3.2685967982124025e6 2.7050408790028553e7 0.0
2.7050408790028553e7 3.9432149243341046e6 0.0
0.0 0.0 0.0

-2.6934935593254943e6 1.838667622109639e7 0.0
1.838667622109639e7 -1.1747190669546155e7 0.0
0.0 0.0 0.0

-4.514598953833394e6 1.8001564941081222e7 0.0
1.8001564941081222e7 3.1644453566184577e7 0.0
0.0 0.0 0.0

-4.757084738899291e6 1.92059680369295e7 0.0
1.92059680369295e7 -1.585694922527937e7 0.0
0.0 0.0 0.0

-405384.26759107225 1.3033153277727216e7 0.0
1.3033153277727216e7 -1.0815623406622993e7 0.0
0.0 0.0 0.0

1.851412013024001e6 1.9437857451830376e7 0.0
1.9437857451830376e7 1.6551405287266841e7 0.0
0.0 0.0 0.0

249602.89282178704 4.424287846433162e7 0.0
4.424287846433162e7 1.7609299206737434e6 0.0
0.0 0.0 0.0

-3.6871756108843554e6 2.224501934335791e7 0.0
2.224501934335791e7 -9.62766795190856e6 0.0
0.0 0.0 0.0

5.615393959978832e7 1.9236725603081424e7 0.0
1.9236725603081424e7 4.539451317666015e6 0.0
0.0 0.0 0.0

-2.0835910700503506e6 1.4543966549355116e7 0.0
1.4543966549355116e7 -5.608889395281688e6 0.0
0.0 0.0 0.0

-3.0626766200378565e6 1.969237382024223e7 0.0
1.969237382024223e7 -702539.4343793448 0.0
0.0 0.0 0.0

844413.109354605 1.4729689351267492e7 0.0
1.4729689351267492e7 -1.7090763581085626e7 0.0
0.0 0.0 0.0

1.5315139131038387e6 2.9613521877835732e7 0.0
2.9613521877835732e7 -3.845564054994855e6 0.0
0.0 0.0 0.0

2.4546033756683897e6 6.062681506407985e6 0.0
6.062681506407985e6 -3.549417539862773e7 0.0
0.0 0.0 0.0

-99473.51054578554 8.704889027883232e6 0.0
8.704889027883232e6 -7.471392204880325e6 0.0
0.0 0.0 0.0

1.5130404072182458e6 1.1666647690032002e7 0.0
1.1666647690032002e7 -1.96765341497135e7 0.0
0.0 0.0 0.0

-4.0456502025243733e6 2.2168450338884197e7 0.0
2.2168450338884197e7 1.4675948860659491e7 0.0
0.0 0.0 0.0

-2.4555250936710336e6 2.0766684551803783e7 0.0
2.0766684551803783e7 -3.736458491659346e6 0.0
0.0 0.0 0.0

282883.4171335008 1.933012161059542e7 0.0
1.933012161059542e7 5.721509620312423e6 0.0
0.0 0.0 0.0

-1.1310602936654855e6 1.3526380541407762e7 0.0
1.3526380541407762e7 -3.7017669558202256e6 0.0
0.0 0.0 0.0

-1.6997452218951583e6 1.9434697623377934e7 0.0
1.9434697623377934e7 -3.4061108710192917e6 0.0
0.0 0.0 0.0

1.9833485370495578e6 1.9879453082022045e7 0.0
1.9879453082022045e7 -4.337860788105917e6 0.0
0.0 0.0 0.0

797247.0563745056 4.188176905747891e7 0.0
4.188176905747891e7 1.746314872387447e6 0.0
0.0 0.0 0.0

-1.700194594676875e6 2.0395076708441388e7 0.0
2.0395076708441388e7 -3.129139513973779e6 0.0
0.0 0.0 0.0

-3.184584974162371e6 6.944621214448852e6 0.0
6.944621214448852e6 5.328357962916191e6 0.0
0.0 0.0 0.0

2.6408188582500115e7 1.3418307819164738e7 0.0
1.3418307819164738e7 1.4832616510736495e6 0.0
0.0 0.0 0.0

-126028.96986755356 9.882129251688497e6 0.0
9.882129251688497e6 -5.040042113371999e7 0.0
0.0 0.0 0.0

-1.9722466762572126e6 2.520316975241013e7 0.0
2.520316975241013e7 1.727035653151941e6 0.0
0.0 0.0 0.0

-5.269921602871681e6 8.075679672219963e6 0.0
8.075679672219963e6 9.508510080434155e6 0.0
0.0 0.0 0.0

-1.5527177087019053e6 1.3950152842454256e7 0.0
1.3950152842454256e7 -6.932352514902534e6 0.0
0.0 0.0 0.0

-13487.71690704953 1.190752893259374e7 0.0
1.190752893259374e7 -1.117291433284404e7 0.0
0.0 0.0 0.0

737062.8880911692 3.990505848003632e7 0.0
3.990505848003632e7 1.062762639921693e6 0.0
0.0 0.0 0.0

1.734423302883599e6 1.0422334160713505e7 0.0
1.0422334160713505e7 -3.0795598717954062e7 0.0
0.0 0.0 0.0

-1.1689256329645472e7 4.862199416859336e6 0.0
4.862199416859336e6 2.4551720277540226e7 0.0
0.0 0.0 0.0

-5.173311625967365e6 2.161242483415715e7 0.0
2.161242483415715e7 -1.2665187060455304e7 0.0
0.0 0.0 0.0

-7.418231236773035e6 7.027641305594093e6 0.0
7.027641305594093e6 1.3347681447237745e7 0.0
0.0 0.0 0.0

-1.5463862573588311e6 1.914899390982385e7 0.0
1.914899390982385e7 -8.468533059930284e6 0.0
0.0 0.0 0.0

-2.7678993058601464e6 2.0981446232628617e7 0.0
2.0981446232628617e7 -1.5309450167257083e6 0.0
0.0 0.0 0.0

660718.3181695864 1.6092406927845722e7 0.0
1.6092406927845722e7 -2.1262166670511253e7 0.0
0.0 0.0 0.0

410863.412080383 3.826708950789223e7 0.0
3.826708950789223e7 780432.5701348506 0.0
0.0 0.0 0.0

-3.9255803365050238e6 2.2824007209386613e7 0.0
2.2824007209386613e7 1.3235407342243534e7 0.0
0.0 0.0 0.0

-1.6699842353408234e6 2.1320101291696336e7 0.0
2.1320101291696336e7 -2.879016718299267e6 0.0
0.0 0.0 0.0

2.3456978294333797e6 6.83369287997244e6 0.0
6.83369287997244e6 -3.421412776000391e7 0.0
0.0 0.0 0.0

-3.7238468433254943e6 1.0612471363187386e7 0.0
1.0612471363187386e7 5.829559765208494e6 0.0
0.0 0.0 0.0

610450.2659201082 3.69861754253598e7 0.0
3.69861754253598e7 820866.2668677772 0.0
0.0 0.0 0.0

953552.063612543 8.883975441311453e6 0.0
8.883975441311453e6 -5.30522933651204e7 0.0
0.0 0.0 0.0

669959.3159992405 3.5913533812896125e7 0.0
3.5913533812896125e7 686158.1897689498 0.0
0.0 0.0 0.0

538327.7420138486 3.492953076895341e7 0.0
3.492953076895341e7 441526.72414672666 0.0
0.0 0.0 0.0

-1.681138931871745e6 2.7738794111206185e7 0.0
2.7738794111206185e7 -882466.9415564509 0.0
0.0 0.0 0.0

-1.5777948388254019e6 2.8391791266578507e7 0.0
2.8391791266578507e7 -718288.2657630688 0.0
0.0 0.0 0.0

-1.5159450292568014e6 2.9036641332964744e7 0.0
2.9036641332964744e7 -601061.4340737063 0.0
0.0 0.0 0.0

-1.4421946319631794e6 2.9648132857487872e7 0.0
2.9648132857487872e7 -561849.6811332484 0.0
0.0 0.0 0.0

-1.3974803850292375e6 3.026531541402083e7 0.0
3.026531541402083e7 -464062.2402811905 0.0
0.0 0.0 0.0

-1.3583858081823369e6 3.0914264940049406e7 0.0
3.0914264940049406e7 -488181.34863670124 0.0
0.0 0.0 0.0

-6.142356722204459e6 1.4466688023560772e7 0.0
1.4466688023560772e7 9.524712319635486e6 0.0
0.0 0.0 0.0

-1.2173137625632475e6 3.155536682644517e7 0.0
3.155536682644517e7 -386008.0339796399 0.0
0.0 0.0 0.0

-1.302674423767282e6 3.2242562740646183e7 0.0
3.2242562740646183e7 -359975.2079435493 0.0
0.0 0.0 0.0

-7.872539920000826e6 1.7007377443741832e7 0.0
1.7007377443741832e7 2.1804465104297884e7 0.0
0.0 0.0 0.0

378945.40125120024 3.4055216457483195e7 0.0
3.4055216457483195e7 412117.79656698235 0.0
0.0 0.0 0.0

-1.4166547094080308e6 3.2878070760120325e7 0.0
3.2878070760120325e7 -311221.2954034822 0.0
0.0 0.0 0.0

-1.295759943588034e6 3.36708376525278e7 0.0
3.36708376525278e7 -178313.04627869627 0.0
0.0 0.0 0.0

265800.5314798153 3.329706731887961e7 0.0
3.329706731887961e7 344724.9284933384 0.0
0.0 0.0 0.0

-1.3995209963196318e6 1.6320528896550577e7 0.0
1.6320528896550577e7 -4.291641553732908e6 0.0
0.0 0.0 0.0

-1.481384477628124e6 3.4506261734663844e7 0.0
3.4506261734663844e7 -222217.78293008244 0.0
0.0 0.0 0.0

-59161.39752718577 3.2540830446936082e7 0.0
3.2540830446936082e7 140004.5403993806 0.0
0.0 0.0 0.0

110755.1816834224 3.185729381419905e7 0.0
3.185729381419905e7 141952.0301323512 0.0
0.0 0.0 0.0

-158141.76965810524 3.1264776995716028e7 0.0
3.1264776995716028e7 68406.41097029462 0.0
0.0 0.0 0.0

-395296.1086297499 3.0580941918473642e7 0.0
3.0580941918473642e7 30116.24679660861 0.0
0.0 0.0 0.0

-494521.13868553156 2.9984720329288464e7 0.0
2.9984720329288464e7 -35684.53267487952 0.0
0.0 0.0 0.0

-731830.7438603779 2.935553826008675e7 0.0
2.935553826008675e7 -95412.08685931141 0.0
0.0 0.0 0.0

-780720.5630476546 2.8750686105013676e7 0.0
2.8750686105013676e7 -150446.15394451361 0.0
0.0 0.0 0.0

-886019.94279593 2.8115639798648518e7 0.0
2.8115639798648518e7 -281655.95100415853 0.0
0.0 0.0 0.0

-1.896021609511204e6 2.3690486162375603e7 0.0
2.3690486162375603e7 -3.7849985107088964e6 0.0
0.0 0.0 0.0

-6.219605363613069e6 1.7945159856039442e7 0.0
1.7945159856039442e7 2.913415042593225e7 0.0
0.0 0.0 0.0

-1.773633308559549e6 3.537269442499146e7 0.0
3.537269442499146e7 -161319.62640862906 0.0
0.0 0.0 0.0

2.3968698377519473e6 8.353574399594734e6 0.0
8.353574399594734e6 -2.358584617379474e7 0.0
0.0 0.0 0.0

-2.228832851892906e6 2.321926724895327e7 0.0
2.321926724895327e7 2.402967120817364e6 0.0
0.0 0.0 0.0

-2.229128518105793e6 3.6445993089366145e7 0.0
3.6445993089366145e7 -25052.383535039844 0.0
0.0 0.0 0.0

-1.089168010531259e7 1.2390275969497465e7 0.0
1.2390275969497465e7 2.238262831810997e7 0.0
0.0 0.0 0.0

-2.8762619430155098e6 3.7682640531169124e7 0.0
3.7682640531169124e7 -99690.53776941635 0.0
0.0 0.0 0.0

-1.1359503570117144e7 1.0736946311123451e7 0.0
1.0736946311123451e7 2.5074160663916398e7 0.0
0.0 0.0 0.0

-3.709243372091313e6 3.904750514523719e7 0.0
3.904750514523719e7 -237344.08835197845 0.0
0.0 0.0 0.0

327542.92256680876 1.9036109261159934e7 0.0
1.9036109261159934e7 -1.6352663710096147e7 0.0
0.0 0.0 0.0

2.2614111111736214e6 1.1222637248225177e7 0.0
1.1222637248225177e7 -1.8967524364711504e7 0.0
0.0 0.0 0.0

-1.1233320790412761e6 1.417765433926773e7 0.0
1.417765433926773e7 -3.5690959578750536e7 0.0
0.0 0.0 0.0

-1.8795657468563647e6 2.0993032406826552e7 0.0
2.0993032406826552e7 -1.8908257441076385e6 0.0
0.0 0.0 0.0

-1.17276842247743e6 1.625506580122492e7 0.0
1.625506580122492e7 -9.662119348308638e6 0.0
0.0 0.0 0.0

-1.611071188980102e6 2.2458263305072896e7 0.0
2.2458263305072896e7 -6.086214260113413e6 0.0
0.0 0.0 0.0

298288.78002857417 1.924285907013552e7 0.0
1.924285907013552e7 -1.6350164102069119e7 0.0
0.0 0.0 0.0

3.7055244717162717e6 2.0976626963430964e6 0.0
2.0976626963430964e6 -2.888523640100974e7 0.0
0.0 0.0 0.0

-3.63278524278803e6 1.3594710590268036e7 0.0
1.3594710590268036e7 5.816906867187386e6 0.0
0.0 0.0 0.0

-4.638560393919643e6 4.075244208188052e7 0.0
4.075244208188052e7 -20772.57945157471 0.0
0.0 0.0 0.0

1.8891746676790025e6 1.2089381950202486e7 0.0
1.2089381950202486e7 -1.5985123143826444e7 0.0
0.0 0.0 0.0

-1.1086031516340181e7 1.109375381020651e7 0.0
1.109375381020651e7 2.7745327329063926e7 0.0
0.0 0.0 0.0

-1.6416488790515084e6 1.8436347219925232e7 0.0
1.8436347219925232e7 -3.7071619394690227e6 0.0
0.0 0.0 0.0

271778.21363689005 3.0351921242884636e7 0.0
3.0351921242884636e7 -1.4513387009256254e6 0.0
0.0 0.0 0.0

2.5579396316917557e6 7.588169067231781e6 0.0
7.588169067231781e6 -2.4810829255597405e7 0.0
0.0 0.0 0.0

-1.1748736793430941e7 3.615064875552821e7 0.0
3.615064875552821e7 4.696037483908381e6 0.0
0.0 0.0 0.0

-5.752565198714506e6 1.6233725177283986e7 0.0
1.6233725177283986e7 1.0773479426208857e7 0.0
0.0 0.0 0.0

-1.6542989520902138e7 2.7099464851212256e7 0.0
2.7099464851212256e7 3.5668266241458654e6 0.0
0.0 0.0 0.0

2.302783487402151e6 1.8892932584006466e7 0.0
1.8892932584006466e7 1.4309122374742512e7 0.0
0.0 0.0 0.0

-6.708383426919593e6 4.315793288999922e7 0.0
4.315793288999922e7 63181.84965095669 0.0
0.0 0.0 0.0

1.4026626741500665e6 1.1716941087856904e7 0.0
1.1716941087856904e7 -2.9683133505000263e7 0.0
0.0 0.0 0.0

-4.639097304036396e6 1.6070237811133405e7 0.0
1.6070237811133405e7 6.140390788044804e6 0.0
0.0 0.0 0.0

1.3591914940687194e6 1.777147959883683e7 0.0
1.777147959883683e7 4.530638771228996e6 0.0
0.0 0.0 0.0

2.0866559933013143e6 9.298765407512208e6 0.0
9.298765407512208e6 -2.0562771479268715e7 0.0
0.0 0.0 0.0

936957.9124537171 2.060144141944555e7 0.0
2.060144141944555e7 4.1038948386666244e6 0.0
0.0 0.0 0.0

2.243057720645969e6 9.118189898740696e6 0.0
9.118189898740696e6 -2.2401829353800632e7 0.0
0.0 0.0 0.0

-136276.7916004354 1.6780620325502396e7 0.0
1.6780620325502396e7 -2.855059103573897e6 0.0
0.0 0.0 0.0

-2.0250027239941575e6 2.1537059570214704e7 0.0
2.1537059570214704e7 -678724.7783243796 0.0
0.0 0.0 0.0

-2.3843039645336526e6 2.1677580996548273e7 0.0
2.1677580996548273e7 -3.461929264071131e6 0.0
0.0 0.0 0.0

1.6693571651682947e6 9.698356879742263e6 0.0
9.698356879742263e6 -1.6680256029522216e7 0.0
0.0 0.0 0.0

2.5188476292349726e7 2.30016019981893e7 0.0
2.30016019981893e7 9.829040689478781e6 0.0
0.0 0.0 0.0

1.5316606623898512e6 1.3144688923692588e7 0.0
1.3144688923692588e7 -1.5617682240293585e7 0.0
0.0 0.0 0.0

-576488.4915999728 1.6515273829227787e7 0.0
1.6515273829227787e7 -7.745861820094423e6 0.0
0.0 0.0 0.0

-5.413569281193016e6 2.318493595832161e7 0.0
2.318493595832161e7 6.654143513982969e6 0.0
0.0 0.0 0.0

622436.6085387315 1.210546241304619e7 0.0
1.210546241304619e7 -9.166475841344438e6 0.0
0.0 0.0 0.0

-3.985466515050818e6 2.351547569249954e7 0.0
2.351547569249954e7 1.1719715386114676e7 0.0
0.0 0.0 0.0

4.442357993941603e6 1.8177462486967757e7 0.0
1.8177462486967757e7 2.5185023506778624e7 0.0
0.0 0.0 0.0

-8.88754417408409e6 1.3524492751905585e7 0.0
1.3524492751905585e7 1.8992920976885993e7 0.0
0.0 0.0 0.0

-9.84065018648356e6 4.591050861221201e7 0.0
4.591050861221201e7 -417998.1248928029 0.0
0.0 0.0 0.0

725875.2824232168 1.8304631356954932e7 0.0
1.8304631356954932e7 4.174208632567403e7 0.0
0.0 0.0 0.0

-3.2468784807032538e6 1.653360460458241e7 0.0
1.653360460458241e7 -1.19495202798485e6 0.0
0.0 0.0 0.0

1.070769997719722e7 2.0572386325405777e7 0.0
2.0572386325405777e7 3.413861650884959e6 0.0
0.0 0.0 0.0

2.7036308517938703e6 7.050504834163287e6 0.0
7.050504834163287e6 -2.796679114269937e7 0.0
0.0 0.0 0.0

751548.9361366592 1.1965911667409765e7 0.0
1.1965911667409765e7 -3.382656487901265e7 0.0
0.0 0.0 0.0

-4.744058077529148e6 1.921393242138332e7 0.0
1.921393242138332e7 1.2273637487320106e7 0.0
0.0 0.0 0.0

-1.3967739385819925e7 2.5783654594740298e7 0.0
2.5783654594740298e7 -1.011499475921519e7 0.0
0.0 0.0 0.0

-2.4970790871028523e6 1.8802973265293866e7 0.0
1.8802973265293866e7 1.2558731864936259e6 0.0
0.0 0.0 0.0

-299393.3243371495 1.6754717729439149e7 0.0
1.6754717729439149e7 -1.3218294668087507e7 0.0
0.0 0.0 0.0

-1.575785481217733e7 3.467887955015299e7 0.0
3.467887955015299e7 6.117167461427379e6 0.0
0.0 0.0 0.0

1.4682090790077373e6 1.2129992120202444e7 0.0
1.2129992120202444e7 -2.035308021845578e7 0.0
0.0 0.0 0.0

-2.4457200055674016e6 1.9801400648190886e7 0.0
1.9801400648190886e7 1.3356568665562943e6 0.0
0.0 0.0 0.0

-4.426799449119753e6 9.461606830148501e6 0.0
9.461606830148501e6 7.66208548557484e6 0.0
0.0 0.0 0.0

-3.3903201572567113e6 1.8937005488791965e7 0.0
1.8937005488791965e7 1.0520723702164926e7 0.0
0.0 0.0 0.0

-6.104004102827818e6 6.980112004146442e7 0.0
6.980112004146442e7 1.9962154280978316e6 0.0
0.0 0.0 0.0

-7.486299298339033e6 1.428761445653251e7 0.0
1.428761445653251e7 1.7386705903420173e7 0.0
0.0 0.0 0.0

-4.1423038600903824e6 7.218491310475017e6 0.0
7.218491310475017e6 2.0904120077628405e6 0.0
0.0 0.0 0.0

-1.733136578039566e6 2.278909570462794e7 0.0
2.278909570462794e7 -1.4532879473454058e6 0.0
0.0 0.0 0.0

-2.9742782767999135e6 2.2681822457277987e7 0.0
2.2681822457277987e7 3.8973002825572686e6 0.0
0.0 0.0 0.0

-558917.118528171 2.0003779664270785e7 0.0
2.0003779664270785e7 -8.345161461171922e6 0.0
0.0 0.0 0.0

-2.486039296667396e6 2.226344504373884e7 0.0
2.226344504373884e7 -2.2658657637522677e6 0.0
0.0 0.0 0.0

-9.62311054281449e6 1.736565701281003e6 0.0
1.736565701281003e6 1.5361714707010515e7 0.0
0.0 0.0 0.0

-82716.21835963475 1.8701845293321855e7 0.0
1.8701845293321855e7 -4.376705433025392e6 0.0
0.0 0.0 0.0

-3.0028715098009417e6 2.3504277132420022e7 0.0
2.3504277132420022e7 3.937985513460528e6 0.0
0.0 0.0 0.0

952155.6210441263 1.1081184100218501e7 0.0
1.1081184100218501e7 -1.4438353485593857e7 0.0
0.0 0.0 0.0

655884.7573495219 1.9147759544830043e7 0.0
1.9147759544830043e7 -3.3292943952860264e6 0.0
0.0 0.0 0.0

-1.9516701219209567e7 2.5958448068233762e7 0.0
2.5958448068233762e7 1.0745390432703802e6 0.0
0.0 0.0 0.0

-6.001553346157331e6 1.501709160552543e7 0.0
1.501709160552543e7 1.5508871459696615e7 0.0
0.0 0.0 0.0

335849.8758941032 1.8478203241325136e7 0.0
1.8478203241325136e7 -1.7584337440537054e7 0.0
0.0 0.0 0.0

-3.178841407567095e6 2.3925162319556262e7 0.0
2.3925162319556262e7 6.059429855576285e6 0.0
0.0 0.0 0.0

3.563472470974814e6 2.635927128365697e6 0.0
2.635927128365697e6 -1.555595899721609e7 0.0
0.0 0.0 0.0

-4.376457602155075e6 -3.1612295781917158e6 0.0
-3.1612295781917158e6 5.726071236336434e6 0.0
0.0 0.0 0.0

-2.912702500007555e6 -1.856909669557362e6 0.0
-1.856909669557362e6 3.678565368101785e6 0.0
0.0 0.0 0.0

-8.752755560962467e6 -4.249118288037858e6 0.0
-4.249118288037858e6 2.800093011618342e7 0.0
0.0 0.0 0.0

-1.8840109451295303e6 -73680.42161929514 0.0
-73680.42161929514 1.4931305091222813e6 0.0
0.0 0.0 0.0

-8.61647407550815e6 -4.690146209054648e6 0.0
-4.690146209054648e6 2.554120159706257e7 0.0
0.0 0.0 0.0

3.5116218704051767e6 2.810561090500042e6 0.0
2.810561090500042e6 -1.21157849677938e7 0.0
0.0 0.0 0.0

-5.558509128546425e6 -5.879579073100936e6 0.0
-5.879579073100936e6 1.1444897232301e7 0.0
0.0 0.0 0.0

-7.836120250356033e6 -6.173606112247941e6 0.0
-6.173606112247941e6 1.8101567941739872e7 0.0
0.0 0.0 0.0

-84902.55739864154 1.6567697335918893e6 0.0
1.6567697335918893e6 -1.442201975975554e6 0.0
0.0 0.0 0.0

-8.515597357766919e6 -5.286675220289316e6 0.0
-5.286675220289316e6 2.2955902157764647e7 0.0
0.0 0.0 0.0

2.8101520809262553e6 2.9212175449677636e6 0.0
2.9212175449677636e6 -8.561955958549226e6 0.0
0.0 0.0 0.0

1.6989106502520093e6 2.735718873217601e6 0.0
2.735718873217601e6 -5.061676907154985e6 0.0
0.0 0.0 0.0

-4.262663333319623e6 -4.244372835357475e6 0.0
-4.244372835357475e6 7.104036695839049e6 0.0
0.0 0.0 0.0

3.817422403372178e6 2.1798479303825484e6 0.0
2.1798479303825484e6 -2.5970090426490135e7 0.0
0.0 0.0 0.0

3.846084840169193e6 2.089835989821029e6 0.0
2.089835989821029e6 -2.8163578028396446e7 0.0
0.0 0.0 0.0

3.8638476737351697e6 2.2106751489353753e6 0.0
2.2106751489353753e6 -2.3765089678313002e7 0.0
0.0 0.0 0.0

4.0449353079225915e6 2.4444807509564892e6 0.0
2.4444807509564892e6 -2.034868845036411e7 0.0
0.0 0.0 0.0

-5.588070480422298e6 -5.171891142712502e6 0.0
-5.171891142712502e6 9.757060497629233e6 0.0
0.0 0.0 0.0

-8.405955621055027e6 -4.933640453083029e6 0.0
-4.933640453083029e6 2.4146214317676395e7 0.0
0.0 0.0 0.0

3.8346912952454705e6 2.185723641789287e6 0.0
2.185723641789287e6 -2.7169588469044864e7 0.0
0.0 0.0 0.0

3.642172296914541e6 2.5523082438253122e6 0.0
2.5523082438253122e6 -1.795451732803028e7 0.0
0.0 0.0 0.0

3.8160280127283623e6 2.5059783708059806e6 0.0
2.5059783708059806e6 -1.913309685844054e7 0.0
0.0 0.0 0.0

3.7888148947276175e6 2.5800436404080843e6 0.0
2.5800436404080843e6 -1.686172494946443e7 0.0
0.0 0.0 0.0

940641.038680627 1.690669381548866e7 0.0
1.690669381548866e7 -1.586171268728368e7 0.0
0.0 0.0 0.0

-1.0101803270678641e7 1.3341100326815011e7 0.0
1.3341100326815011e7 2.1334328573758975e7 0.0
0.0 0.0 0.0

-1.1733792336862853e7 8.122869332681993e6 0.0
8.122869332681993e6 2.7077133944096304e7 0.0
0.0 0.0 0.0

-3.9411687524312055e6 2.4267317647863697e7 0.0
2.4267317647863697e7 1.043489732828914e7 0.0
0.0 0.0 0.0

-1.1730112664176412e6 1.6876177250223815e7 0.0
1.6876177250223815e7 -2.478910608684389e7 0.0
0.0 0.0 0.0

-3.4803642968360195e6 1.993675675785114e7 0.0
1.993675675785114e7 4.097277509220905e6 0.0
0.0 0.0 0.0

-1.4827669048469879e7 4.992897748897527e7 0.0
4.992897748897527e7 -911523.2779962095 0.0
0.0 0.0 0.0

-3.2043707344162874e6 1.7632435371909928e7 0.0
1.7632435371909928e7 -1.0079107249527583e6 0.0
0.0 0.0 0.0

-4.881091294417994e6 2.03820483993355e7 0.0
2.03820483993355e7 -1.4724480016059361e7 0.0
0.0 0.0 0.0

9.478082935998157e6 2.275672090230264e7 0.0
2.275672090230264e7 1.1148503162236812e7 0.0
0.0 0.0 0.0

-2.906662436565935e6 2.1060571067896657e7 0.0
2.1060571067896657e7 8.759395186407864e6 0.0
0.0 0.0 0.0

-3.1398803207448986e6 1.9942212290913705e7 0.0
1.9942212290913705e7 1.0066783851978716e7 0.0
0.0 0.0 0.0

723512.221418485 2.0939552112439334e7 0.0
2.0939552112439334e7 -1.2778586767587848e7 0.0
0.0 0.0 0.0

-3.8450917619127175e6 1.8211392894760076e7 0.0
1.8211392894760076e7 1.225031264919801e7 0.0
0.0 0.0 0.0

-2.515460292026287e6 2.2833098220194146e7 0.0
2.2833098220194146e7 -1.1897870363240263e6 0.0
0.0 0.0 0.0

-2.228475533008556e6 2.1073468177229013e7 0.0
2.1073468177229013e7 -4.682045924561006e6 0.0
0.0 0.0 0.0

-6.519138096488056e6 1.492397461518932e7 0.0
1.492397461518932e7 1.1247175998884343e7 0.0
0.0 0.0 0.0

-772098.1786718355 1.563422063784101e7 0.0
1.563422063784101e7 -1.0940266748569028e7 0.0
0.0 0.0 0.0

-2.696906709603543e6 1.8333170691328242e7 0.0
1.8333170691328242e7 2.5364757903154027e6 0.0
0.0 0.0 0.0

1.330161236657489e6 1.0400729932221923e7 0.0
1.0400729932221923e7 -1.5543745530275468e7 0.0
0.0 0.0 0.0

-3.5277407845750917e6 -3.763257684344859e6 0.0
-3.763257684344859e6 8.927340912071578e6 0.0
0.0 0.0 0.0

-2.8583665624960214e6 -2.2268940504967677e6 0.0
-2.2268940504967677e6 7.128895927167828e6 0.0
0.0 0.0 0.0

-8.714497274738882e6 -5.156786192692429e6 0.0
-5.156786192692429e6 2.284268678658623e7 0.0
0.0 0.0 0.0

-4.195583453113311e6 -4.361645594062986e6 0.0
-4.361645594062986e6 1.057406171594824e7 0.0
0.0 0.0 0.0

-5.057787857440622e6 -5.576308270833731e6 0.0
-5.576308270833731e6 1.1980806050204335e7 0.0
0.0 0.0 0.0

3.766477526713684e6 2.148633296322595e6 0.0
2.148633296322595e6 -2.6153704847392038e7 0.0
0.0 0.0 0.0

3.715758612596184e6 2.0944960407817946e6 0.0
2.0944960407817946e6 -2.704816969887694e7 0.0
0.0 0.0 0.0

-8.653777935164593e6 -4.792645676929648e6 0.0
-4.792645676929648e6 2.4428996291032568e7 0.0
0.0 0.0 0.0

3.7832998881882774e6 2.5019836700160066e6 0.0
2.5019836700160066e6 -1.9652485397099044e7 0.0
0.0 0.0 0.0

3.7364501988642486e6 2.703936730208892e6 0.0
2.703936730208892e6 -1.5856903091325765e7 0.0
0.0 0.0 0.0

3.747867450045433e6 2.5910667100864113e6 0.0
2.5910667100864113e6 -1.8057612774029557e7 0.0
0.0 0.0 0.0

3.7580424795372086e6 2.557374606950414e6 0.0
2.557374606950414e6 -1.694038848231148e7 0.0
0.0 0.0 0.0

-3.7200099766261927e6 1.6679525649134208e7 0.0
1.6679525649134208e7 1.6075223139371462e6 0.0
0.0 0.0 0.0

-6.116525843949625e6 1.8398385824513495e7 0.0
1.8398385824513495e7 2.7496517654858574e7 0.0
0.0 0.0 0.0

-4.731983431195602e6 1.7845964777286947e7 0.0
1.7845964777286947e7 1.5270302389010046e7 0.0
0.0 0.0 0.0

3.586780286609403e6 5.866792410856687e6 0.0
5.866792410856687e6 -2.2948869213643e7 0.0
0.0 0.0 0.0

-711228.6760831621 2.5198974885907758e7 0.0
2.5198974885907758e7 -5.161724507978363e6 0.0
0.0 0.0 0.0

-1.0667752316196337e6 2.028710977535278e7 0.0
2.028710977535278e7 2.1402824765296288e7 0.0
0.0 0.0 0.0

-1.0481670351262225e7 1.5198675797736868e7 0.0
1.5198675797736868e7 2.3059715318155967e7 0.0
0.0 0.0 0.0

1.8634753414627267e6 1.0014596798753807e7 0.0
1.0014596798753807e7 -1.9383837971548915e7 0.0
0.0 0.0 0.0

1.4385004872019906e6 1.2572499478424123e7 0.0
1.2572499478424123e7 -2.089542917150801e7 0.0
0.0 0.0 0.0

-2.278509466118177e6 2.0148909176103406e7 0.0
2.0148909176103406e7 -4.997871294517403e6 0.0
0.0 0.0 0.0

-1.9896908716446804e6 1.9979321890948553e7 0.0
1.9979321890948553e7 2.385602160433558e7 0.0
0.0 0.0 0.0

-3.7280927641271222e6 1.2183573791621868e7 0.0
1.2183573791621868e7 5.854034110400022e6 0.0
0.0 0.0 0.0

-766443.8462020184 2.065195707334899e7 0.0
2.065195707334899e7 -7.141200086204092e6 0.0
0.0 0.0 0.0

-1.6431036183360047e6 2.4968300125742845e7 0.0
2.4968300125742845e7 -59025.267161510885 0.0
0.0 0.0 0.0

1.1558785506999604e6 1.4140800272708636e7 0.0
1.4140800272708636e7 -1.5408249266198626e7 0.0
0.0 0.0 0.0

-1.828370500810184e6 2.1899814151755262e7 0.0
2.1899814151755262e7 -1.6650329181047485e6 0.0
0.0 0.0 0.0

2.4808804541441007e6 4.237100323550967e6 0.0
4.237100323550967e6 1.3004696024449808e6 0.0
0.0 0.0 0.0

-2.432861874321214e6 2.025819504191187e7 0.0
2.025819504191187e7 2.2593578081442755e7 0.0
0.0 0.0 0.0

898827.3177260086 1.075238669826578e7 0.0
1.075238669826578e7 -4.00030933902862e7 0.0
0.0 0.0 0.0

1.1382650307354573e6 1.1776430456484893e7 0.0
1.1776430456484893e7 -3.1744901878692463e7 0.0
0.0 0.0 0.0

-747770.8780500679 1.973585610878485e7 0.0
1.973585610878485e7 -7.532119296551656e6 0.0
0.0 0.0 0.0

-9.85258864360947e6 2.482172577243246e7 0.0
2.482172577243246e7 5.001893506989991e6 0.0
0.0 0.0 0.0

2.8281961443133093e6 6.639823417871071e6 0.0
6.639823417871071e6 -1.2224006938785663e7 0.0
0.0 0.0 0.0

-2.5371939792917455e6 1.776872369534764e7 0.0
1.776872369534764e7 1.1856249847762971e6 0.0
0.0 0.0 0.0

-2.5949953420690997e6 2.1358249311593972e7 0.0
2.1358249311593972e7 -2.5002647931588423e6 0.0
0.0 0.0 0.0

-1.5976818523002518e6 2.222395773511187e7 0.0
2.222395773511187e7 -2.6166426533726673e6 0.0
0.0 0.0 0.0

-1.4332501247858359e6 1.689541470645318e7 0.0
1.689541470645318e7 -2.710474031417735e7 0.0
0.0 0.0 0.0

1.43283772774853e6 1.2324981070759809e7 0.0
1.2324981070759809e7 -2.636829850107843e7 0.0
0.0 0.0 0.0

-5.005192272287563e6 1.2865012910176724e7 0.0
1.2865012910176724e7 4.710540272377139e6 0.0
0.0 0.0 0.0

-4.631452497637402e6 1.887106523028181e7 0.0
1.887106523028181e7 1.1100944044536836e7 0.0
0.0 0.0 0.0

147950.57215487026 1.528242133537832e7 0.0
1.528242133537832e7 -2.787148315983263e7 0.0
0.0 0.0 0.0

-839199.687325558 2.3011940436723486e7 0.0
2.3011940436723486e7 -5.226105763038268e6 0.0
0.0 0.0 0.0

2.1746509549557e6 2.7899932747519477e6 0.0
2.7899932747519477e6 -6.291849907011829e6 0.0
0.0 0.0 0.0

5.761863277054587e6 3.255524662488566e7 0.0
3.255524662488566e7 -3.576205874893122e6 0.0
0.0 0.0 0.0

2.432802161354268e6 7.473856754904029e6 0.0
7.473856754904029e6 -1.1215165219467625e7 0.0
0.0 0.0 0.0

-1.1847021279950142e6 1.5204426455439236e7 0.0
1.5204426455439236e7 -4.578462773883744e6 0.0
0.0 0.0 0.0

-4.1612216099307397e6 2.1614328730583414e7 0.0
2.1614328730583414e7 1.2937785499277003e7 0.0
0.0 0.0 0.0

-2.81361744425751e6 1.492997340353152e7 0.0
1.492997340353152e7 2.506974392626576e6 0.0
0.0 0.0 0.0

-2.9768754657601076e6 1.697772278853657e7 0.0
1.697772278853657e7 -2.426504166979254e6 0.0
0.0 0.0 0.0

-2.680481517811908e6 2.1906182180274893e7 0.0
2.1906182180274893e7 -1.3095032061649333e6 0.0
0.0 0.0 0.0

-5.232594769131076e6 1.1356864830251776e7 0.0
1.1356864830251776e7 4.601418898465257e6 0.0
0.0 0.0 0.0

-8.80635618638708e6 -140824.6009421853 0.0
-140824.6009421853 1.4771343103367679e7 0.0
0.0 0.0 0.0

-3.718833657959607e6 1.786189218654235e7 0.0
1.786189218654235e7 1.0999213550034754e7 0.0
0.0 0.0 0.0

-2.848705418087789e6 1.9865739780325994e7 0.0
1.9865739780325994e7 6.211617636058651e6 0.0
0.0 0.0 0.0

293353.0039142431 7.407584559821895e6 0.0
7.407584559821895e6 -7.544150939528777e6 0.0
0.0 0.0 0.0

-4.987199737167629e6 1.5916832704965511e7 0.0
1.5916832704965511e7 1.3450564700024292e7 0.0
0.0 0.0 0.0

-2.275112923567389e6 2.2579963640551835e7 0.0
2.2579963640551835e7 -3.205902049987045e6 0.0
0.0 0.0 0.0

2.7819940390025023e6 9.37497947822812e6 0.0
9.37497947822812e6 -2.7666143282796357e7 0.0
0.0 0.0 0.0

-8.914996696448445e6 2.5093045298915062e7 0.0
2.5093045298915062e7 4.23686105238566e6 0.0
0.0 0.0 0.0

-2.295801831353299e6 1.91857545003006e7 0.0
1.91857545003006e7 -5.33071197206074e6 0.0
0.0 0.0 0.0

1.9363442328414468e6 2.865547602926811e6 0.0
2.865547602926811e6 -5.334546467684101e6 0.0
0.0 0.0 0.0

-4.222352063404623e6 2.6379400893947832e7 0.0
2.6379400893947832e7 7.083459165367268e6 0.0
0.0 0.0 0.0

-1.2107510817040978e7 1.0331260631256603e7 0.0
1.0331260631256603e7 1.983825216953612e7 0.0
0.0 0.0 0.0

-2.7394466491591646e6 1.8453789923038177e7 0.0
1.8453789923038177e7 -3.319823909446836e6 0.0
0.0 0.0 0.0

-1.3996630744807906e6 2.3917522379366692e7 0.0
2.3917522379366692e7 -2.19596011092148e6 0.0
0.0 0.0 0.0

-2.34144913948251e6 2.4542381684227485e7 0.0
2.4542381684227485e7 -787012.7502051331 0.0
0.0 0.0 0.0

-2.14809802801032e6 2.197604078639957e7 0.0
2.197604078639957e7 -4.386701925632693e6 0.0
0.0 0.0 0.0

-2.1389373306499636e6 2.2040273820257213e7 0.0
2.2040273820257213e7 462077.301310339 0.0
0.0 0.0 0.0

3.0392515805131476e6 2.8692348383796737e6 0.0
2.8692348383796737e6 -9.700532972815532e6 0.0
0.0 0.0 0.0

-75540.72646979312 2.7132582930759843e7 0.0
2.7132582930759843e7 -4.367204952178834e6 0.0
0.0 0.0 0.0

-1.6118990673390884e7 1.897889351072686e7 0.0
1.897889351072686e7 -6.915398225328806e7 0.0
0.0 0.0 0.0

1.5690259620007824e7 1.9724566165033735e7 0.0
1.9724566165033735e7 6.701848071108487e7 0.0
0.0 0.0 0.0

829401.798483206 1.5365708952710463e7 0.0
1.5365708952710463e7 -1.9843159333922163e7 0.0
0.0 0.0 0.0

-1.042462719117139e6 2.127463438263758e7 0.0
2.127463438263758e7 -5.928921180024218e6 0.0
0.0 0.0 0.0

-4.219290755224603e6 1.6900655606302682e7 0.0
1.6900655606302682e7 -2.1336919263730433e7 0.0
0.0 0.0 0.0

-2.2548402716239933e6 1.8191999769120123e7 0.0
1.8191999769120123e7 -5.687243561463546e6 0.0
0.0 0.0 0.0

882905.3592866184 2.1099741853530314e7 0.0
2.1099741853530314e7 -1.2971291281715186e7 0.0
0.0 0.0 0.0

-1.5826950142962392e6 1.689953948988116e7 0.0
1.689953948988116e7 -8.350199804901862e6 0.0
0.0 0.0 0.0

-2.7939621592527875e6 2.156425516886823e7 0.0
2.156425516886823e7 -327205.0900629504 0.0
0.0 0.0 0.0

915116.7759277243 9.419210695813987e6 0.0
9.419210695813987e6 -4.96881315104195e7 0.0
0.0 0.0 0.0

-9.481462160287762e6 2.3601673859753218e7 0.0
2.3601673859753218e7 3.3920436581275207e6 0.0
0.0 0.0 0.0

-3.2830712645265185e6 2.169096585162393e7 0.0
2.169096585162393e7 6.320984881565193e6 0.0
0.0 0.0 0.0

-984330.9454484818 1.7154176958997395e7 0.0
1.7154176958997395e7 -6.419023564188546e6 0.0
0.0 0.0 0.0

1.341115036336518e6 1.2972723693467248e7 0.0
1.2972723693467248e7 -2.4941689365737878e7 0.0
0.0 0.0 0.0

1.5130661625045022e7 2.056765641912116e7 0.0
2.056765641912116e7 5.043553883399504e7 0.0
0.0 0.0 0.0

-237570.92866739118 2.1687987072105743e7 0.0
2.1687987072105743e7 -9.023334189093877e6 0.0
0.0 0.0 0.0

-2.5094578814073924e7 5.632129714550712e7 0.0
5.632129714550712e7 -788333.9179354189 0.0
0.0 0.0 0.0

957019.1511746179 1.4746239497193221e7 0.0
1.4746239497193221e7 -2.107298110078402e7 0.0
0.0 0.0 0.0

-1.4387759666116284e6 2.162841923617452e7 0.0
2.162841923617452e7 -3.821191384485866e6 0.0
0.0 0.0 0.0

2.8536886797183407e6 2.930865515464934e6 0.0
2.930865515464934e6 -8.94079158960417e6 0.0
0.0 0.0 0.0

2.4682957893360704e6 8.283874865880015e6 0.0
8.283874865880015e6 -2.7182133214355398e7 0.0
0.0 0.0 0.0

-1.7223094645694394e6 2.417320591638697e7 0.0
2.417320591638697e7 -189853.369666606 0.0
0.0 0.0 0.0

-7.111227029275637e6 1.7523219378631655e7 0.0
1.7523219378631655e7 -4.003082929118756e7 0.0
0.0 0.0 0.0

-1.3320218757888824e6 1.7800168996566713e7 0.0
1.7800168996566713e7 -5.061204624062203e6 0.0
0.0 0.0 0.0

1.1748793198060729e6 1.2426991124033015e7 0.0
1.2426991124033015e7 -1.2233191298610767e7 0.0
0.0 0.0 0.0

-3.295421497231267e6 1.6108207754204052e7 0.0
1.6108207754204052e7 5.551025959319682e6 0.0
0.0 0.0 0.0

1.1519932188443132e6 1.4171221504898079e7 0.0
1.4171221504898079e7 -2.2368630799759984e7 0.0
0.0 0.0 0.0

-4.464194227525282e6 1.5518735868937388e7 0.0
1.5518735868937388e7 4.6465816053568395e6 0.0
0.0 0.0 0.0

353762.0641174754 1.79368846450469e7 0.0
1.79368846450469e7 -1.8837294010475412e7 0.0
0.0 0.0 0.0

-2.348936574549915e7 2.9140611526313975e7 0.0
2.9140611526313975e7 -1.0189369913122298e7 0.0
0.0 0.0 0.0

-6.640438911817899e6 -6.245276277543653e6 0.0
-6.245276277543653e6 1.3911325899420012e7 0.0
0.0 0.0 0.0

-3.8809023302450967e6 1.589417718025845e7 0.0
1.589417718025845e7 8.724721126552178e6 0.0
0.0 0.0 0.0

-1.9395283775793745e6 2.2426536353811327e7 0.0
2.2426536353811327e7 -484008.83188993536 0.0
0.0 0.0 0.0

-7.978143257217446e6 1.472017225587101e6 0.0
1.472017225587101e6 4.67377371474774e7 0.0
0.0 0.0 0.0

546261.1701200595 1.9877396490631603e7 0.0
1.9877396490631603e7 1.3999469365280846e7 0.0
0.0 0.0 0.0

-1.9423127425404917e6 1.7540694991370726e7 0.0
1.7540694991370726e7 -7.031889503768133e6 0.0
0.0 0.0 0.0

524701.0128171635 2.098895114077381e7 0.0
2.098895114077381e7 -1.2008042560987124e7 0.0
0.0 0.0 0.0

-989109.491884816 1.8786022846119564e7 0.0
1.8786022846119564e7 -1.0416476400689304e7 0.0
0.0 0.0 0.0

-1.37811182237319e6 1.435669570534839e7 0.0
1.435669570534839e7 -8.077777552501372e6 0.0
0.0 0.0 0.0

-1.8029049404329709e6 2.0713971988526452e7 0.0
2.0713971988526452e7 -6.80726454364699e6 0.0
0.0 0.0 0.0

-4.1105196459494038e6 1.8858888921820834e7 0.0
1.8858888921820834e7 1.4561511427622823e7 0.0
0.0 0.0 0.0

-2.597489092292914e6 1.9334337505895082e7 0.0
1.9334337505895082e7 2.5420530702698184e6 0.0
0.0 0.0 0.0

-2.969348423281542e6 1.8052663801797688e7 0.0
1.8052663801797688e7 -2.2134415951550305e6 0.0
0.0 0.0 0.0

2.4805345713970102e6 8.121415075748367e6 0.0
8.121415075748367e6 -3.482709486446701e7 0.0
0.0 0.0 0.0

-5.177153294165786e6 2.6992361456109423e7 0.0
2.6992361456109423e7 7.341905261158148e6 0.0
0.0 0.0 0.0

-5.838776448069928e6 2.1325434190427125e6 0.0
2.1325434190427125e6 9.28290215881979e6 0.0
0.0 0.0 0.0

-3.974498605287567e6 1.854162340495118e7 0.0
1.854162340495118e7 1.34419370214415e7 0.0
0.0 0.0 0.0

701369.742875786 1.2605738893376572e7 0.0
1.2605738893376572e7 -1.0143346437531207e7 0.0
0.0 0.0 0.0

3.5270386022725757e6 3.5899895872615166e6 0.0
3.5899895872615166e6 -2.163827465582177e7 0.0
0.0 0.0 0.0

1.238996650630802e6 1.3537113678027624e7 0.0
1.3537113678027624e7 -2.3724286401226547e7 0.0
0.0 0.0 0.0

-5.318930261335413e6 7.75425382755677e6 0.0
7.75425382755677e6 4.0593892529814914e6 0.0
0.0 0.0 0.0

-1.0356429072122421e7 1.4671556302293248e7 0.0
1.4671556302293248e7 2.7477752709806316e7 0.0
0.0 0.0 0.0

-2.0624667020647577e6 1.9515570049169857e7 0.0
1.9515570049169857e7 -6.2773428787212735e6 0.0
0.0 0.0 0.0

-5.809458644006791e6 -5.861135095726172e6 0.0
-5.861135095726172e6 1.3800358107225858e7 0.0
0.0 0.0 0.0

-4.754550683638442e6 1.4247089031261347e7 0.0
1.4247089031261347e7 4.7110275433692e6 0.0
0.0 0.0 0.0

451317.58108055126 2.161840008351742e7 0.0
2.161840008351742e7 -1.0808329982361596e7 0.0
0.0 0.0 0.0

-2.342939562756771e6 1.8701919543610983e7 0.0
1.8701919543610983e7 -1.9540684608770452e7 0.0
0.0 0.0 0.0

978629.2077341154 1.2538245867005879e7 0.0
1.2538245867005879e7 -1.6728346715733605e7 0.0
0.0 0.0 0.0

-535684.9293406808 9.96046383564627e6 0.0
9.96046383564627e6 -7.196468092039115e6 0.0
0.0 0.0 0.0

-1.4342592252704664e6 1.881012541440427e7 0.0
1.881012541440427e7 -4.728753325384496e6 0.0
0.0 0.0 0.0

-3.2582023396781906e6 1.9238236171456803e7 0.0
1.9238236171456803e7 2.585180321871836e7 0.0
0.0 0.0 0.0

-2.150021550661342e6 2.4772574074035864e7 0.0
2.4772574074035864e7 -1.6637093385475783e6 0.0
0.0 0.0 0.0

-6.48202829323073e6 1.9588917085783787e7 0.0
1.9588917085783787e7 2.0326166072488062e7 0.0
0.0 0.0 0.0

-3.096568831032642e6 2.1474515152104493e7 0.0
2.1474515152104493e7 1.1591039776724137e7 0.0
0.0 0.0 0.0

77777.14018043643 1.1304723265215388e7 0.0
1.1304723265215388e7 -1.0166225638576088e7 0.0
0.0 0.0 0.0

-3.481515119407475e6 1.4896906343518218e7 0.0
1.4896906343518218e7 5.705959253868623e6 0.0
0.0 0.0 0.0

-335394.5753227072 1.9706259112558674e7 0.0
1.9706259112558674e7 1.4229595721480023e7 0.0
0.0 0.0 0.0

-1.8252202676191234e6 1.5024572267406505e7 0.0
1.5024572267406505e7 -6.697076012021721e6 0.0
0.0 0.0 0.0

129220.9163597282 1.5581250428784234e7 0.0
1.5581250428784234e7 -2.5853090553706676e7 0.0
0.0 0.0 0.0

-1.4842027492875964e6 1.9781573572209258e7 0.0
1.9781573572209258e7 -4.40503740542808e6 0.0
0.0 0.0 0.0

652371.3448483124 1.594781803996002e7 0.0
1.594781803996002e7 -1.863532079300304e7 0.0
0.0 0.0 0.0

-3.0091617121909214e6 1.6716986469795225e7 0.0
1.6716986469795225e7 3.9751958679468976e6 0.0
0.0 0.0 0.0

-8.002181757169068e6 1.680203046529803e7 0.0
1.680203046529803e7 -2.9787359348656166e7 0.0
0.0 0.0 0.0

-1.4823385266466083e6 2.0720059448553097e7 0.0
2.0720059448553097e7 -4.110226478724264e6 0.0
0.0 0.0 0.0

6.202806688020612e6 2.0733494481192414e7 0.0
2.0733494481192414e7 -686516.4619460497 0.0
0.0 0.0 0.0

-8.250203405081753e6 3.5999141191110318e6 0.0
3.5999141191110318e6 4.5695529225293376e7 0.0
0.0 0.0 0.0

-7.953815330531599e6 3.5526632371426724e7 0.0
3.5526632371426724e7 4.224561429479029e6 0.0
0.0 0.0 0.0

-3.273844659723435e6 2.1637078221581686e7 0.0
2.1637078221581686e7 1.0495299178338666e7 0.0
0.0 0.0 0.0

-8.364112949291537e6 1.5563586801584307e7 0.0
1.5563586801584307e7 3.0211857566787127e7 0.0
0.0 0.0 0.0

-3.493890237782585e6 2.4248518523263805e7 0.0
2.4248518523263805e7 9.494258806476556e6 0.0
0.0 0.0 0.0

-2.5517330675169784e6 1.6674420110250715e7 0.0
1.6674420110250715e7 1.0920333611606285e6 0.0
0.0 0.0 0.0

-791475.6295619924 1.7523499372046243e7 0.0
1.7523499372046243e7 -7.371215346979667e6 0.0
0.0 0.0 0.0

-1.2086773323619731e6 1.91481551052862e7 0.0
1.91481551052862e7 -5.692756054976449e6 0.0
0.0 0.0 0.0

-1.4161191507091227e6 1.0940229371333307e7 0.0
1.0940229371333307e7 -991709.9800149304 0.0
0.0 0.0 0.0

377889.866873282 2.227947947540067e7 0.0
2.227947947540067e7 -9.699414929240944e6 0.0
0.0 0.0 0.0

2.6899223641307913e6 6.69688132544753e6 0.0
6.69688132544753e6 -2.1324304818553917e7 0.0
0.0 0.0 0.0

1.4425983738788762e6 6.782499452056684e6 0.0
6.782499452056684e6 -1.0419666800969053e7 0.0
0.0 0.0 0.0

-3.534788545557131e6 2.100027763895221e7 0.0
2.100027763895221e7 1.4090186821831394e7 0.0
0.0 0.0 0.0

-1.998779141667243e6 2.4249766454285413e7 0.0
2.4249766454285413e7 -2.747662720027229e6 0.0
0.0 0.0 0.0

5.297563906640741e6 2.1077922461136643e7 0.0
2.1077922461136643e7 -2.860400481093185e6 0.0
0.0 0.0 0.0

-1.2389862117258646e7 2.6792434705418736e7 0.0
2.6792434705418736e7 4.779186045662532e6 0.0
0.0 0.0 0.0

2.1370589468653826e6 6.50294265535933e6 0.0
6.50294265535933e6 -1.4491007929856695e7 0.0
0.0 0.0 0.0

-2.2856111762789097e6 1.5662488504576154e7 0.0
1.5662488504576154e7 -5.307991647357784e6 0.0
0.0 0.0 0.0

4.5042576535036564e7 1.6445333786459623e7 0.0
1.6445333786459623e7 2.6281815281529613e6 0.0
0.0 0.0 0.0

-274638.25308531243 1.0332093172720524e7 0.0
1.0332093172720524e7 -8.455015428667739e6 0.0
0.0 0.0 0.0

2.6770211107928474e6 6.87847826543616e6 0.0
6.87847826543616e6 -2.5987081946615808e7 0.0
0.0 0.0 0.0

-5.969032428082451e6 1.876236648731688e7 0.0
1.876236648731688e7 2.604838502660659e7 0.0
0.0 0.0 0.0

645704.6151035978 1.692839675839532e7 0.0
1.692839675839532e7 -1.983636619093507e7 0.0
0.0 0.0 0.0

-9.787936137230858e6 1.1789961190755224e7 0.0
1.1789961190755224e7 1.9439855731526375e7 0.0
0.0 0.0 0.0

-1.2660619986181092e7 3.427133998939172e7 0.0
3.427133998939172e7 5.164310042383121e6 0.0
0.0 0.0 0.0

-5.793202339792227e6 1.9090324332905535e7 0.0
1.9090324332905535e7 2.476507503046859e7 0.0
0.0 0.0 0.0

-3.992540242543903e6 2.4980961966635123e7 0.0
2.4980961966635123e7 9.205645853069782e6 0.0
0.0 0.0 0.0

-1.9569487919111695e7 2.6984240246184386e7 0.0
2.6984240246184386e7 -9.533675695338361e6 0.0
0.0 0.0 0.0

-3.346318764950067e6 1.8246594728863984e7 0.0
1.8246594728863984e7 388352.36630231375 0.0
0.0 0.0 0.0

4.188293416843693e7 6.554994397283027e6 0.0
6.554994397283027e6 -1.226971476037668e6 0.0
0.0 0.0 0.0

-362442.8712451733 1.9460671506813552e7 0.0
1.9460671506813552e7 -9.555397111389155e6 0.0
0.0 0.0 0.0

-1.4286778609894896e6 1.6550406395838276e7 0.0
1.6550406395838276e7 -504620.9826732368 0.0
0.0 0.0 0.0

278375.29327230575 2.2921222896143313e7 0.0
2.2921222896143313e7 -8.544705731572866e6 0.0
0.0 0.0 0.0

-1.3545876321494453e7 2.3316554213736057e7 0.0
2.3316554213736057e7 -5.635164655405541e6 0.0
0.0 0.0 0.0

-64181.93673479138 9.631859166951988e6 0.0
9.631859166951988e6 -3.8295984229147285e6 0.0
0.0 0.0 0.0

-3.6181557002647817e6 2.150535047776819e7 0.0
2.150535047776819e7 1.5361669143695187e7 0.0
0.0 0.0 0.0

-3.4586632446479746e6 1.7278708738838628e7 0.0
1.7278708738838628e7 -2.007437332185148e7 0.0
0.0 0.0 0.0

-1.1497590556711081e7 5.435687216780758e6 0.0
5.435687216780758e6 2.7552783109389935e7 0.0
0.0 0.0 0.0

-2.24779441271663e6 2.3982066147284612e7 0.0
2.3982066147284612e7 -1.8874582319360035e6 0.0
0.0 0.0 0.0

-2.307180883569933e6 1.715712178986053e7 0.0
1.715712178986053e7 -227668.76647286507 0.0
0.0 0.0 0.0

-1.5024418256562508e6 2.445413712968689e7 0.0
2.445413712968689e7 -1.146576620063123e6 0.0
0.0 0.0 0.0

273634.12310506497 1.741424450056007e7 0.0
1.741424450056007e7 -1.225115394334878e7 0.0
0.0 0.0 0.0

-6.135759444096079e6 8.63869038631854e6 0.0
8.63869038631854e6 1.1347775662883777e7 0.0
0.0 0.0 0.0

-3.236875508175507e6 2.4675565913255002e7 0.0
2.4675565913255002e7 5.955765279148818e6 0.0
0.0 0.0 0.0

-4.117164823218734e6 2.090534574794391e7 0.0
2.090534574794391e7 1.752765008570998e7 0.0
0.0 0.0 0.0

-3.297400433267642e6 2.0525245902080752e7 0.0
2.0525245902080752e7 1.2195212550111923e7 0.0
0.0 0.0 0.0

-755021.3789903873 1.4573578857947582e7 0.0
1.4573578857947582e7 -5.978471833627767e6 0.0
0.0 0.0 0.0

1.3277081152956598e6 1.231353156291125e7 0.0
1.231353156291125e7 -2.8174962621804297e7 0.0
0.0 0.0 0.0

-3.238234089015444e6 1.9806090109575935e7 0.0
1.9806090109575935e7 1.7354100096907474e6 0.0
0.0 0.0 0.0

76906.93550399411 1.891771215262824e7 0.0
1.891771215262824e7 -1.4705127899151275e7 0.0
0.0 0.0 0.0

-220046.5674025584 1.7157158666145142e7 0.0
1.7157158666145142e7 -1.3850589007074252e7 0.0
0.0 0.0 0.0

-748149.6814810149 2.445383075038208e7 0.0
2.445383075038208e7 -6.243876556312666e6 0.0
0.0 0.0 0.0

-1.0597076737900916e6 1.97219188742345e7 0.0
1.97219188742345e7 -9.882671387672704e6 0.0
0.0 0.0 0.0

1.5330604712869748e6 1.2633998753899837e7 0.0
1.2633998753899837e7 -2.274678687091662e7 0.0
0.0 0.0 0.0

1.5626822281838357e6 6.821501475427893e6 0.0
6.821501475427893e6 -6.602593596709955e6 0.0
0.0 0.0 0.0

-2.1432228342078067e6 6.381218546469999e6 0.0
6.381218546469999e6 3.427152190736533e6 0.0
0.0 0.0 0.0

795834.5672327476 3.2179238942034196e7 0.0
3.2179238942034196e7 -769095.3910303824 0.0
0.0 0.0 0.0

-3.4069662396064997e6 1.8813184069031253e7 0.0
1.8813184069031253e7 1.7256656923661022e6 0.0
0.0 0.0 0.0

-1.5823061172006158e6 2.0981621466850914e7 0.0
2.0981621466850914e7 -7.663351865588053e6 0.0
0.0 0.0 0.0

3.3548924339662483e6 4.222734109022809e6 0.0
4.222734109022809e6 -1.3661902239866339e7 0.0
0.0 0.0 0.0

-8.656876281673247e6 5.972822595230635e6 0.0
5.972822595230635e6 4.5925919520813435e7 0.0
0.0 0.0 0.0

1.649546127634651e6 1.0201044938711952e7 0.0
1.0201044938711952e7 -1.7468019016429678e7 0.0
0.0 0.0 0.0

5.649851196931791e6 2.5074678626368705e7 0.0
2.5074678626368705e7 -6.111352513581034e6 0.0
0.0 0.0 0.0

826952.2338287379 2.6025306268923983e7 0.0
2.6025306268923983e7 -5.674012619222337e6 0.0
0.0 0.0 0.0

-3.185033321239222e6 2.5201712162870344e7 0.0
2.5201712162870344e7 4.93743330629343e6 0.0
0.0 0.0 0.0

3.2637870505151637e6 3.6032962375683896e6 0.0
3.6032962375683896e6 -3.038235239716396e7 0.0
0.0 0.0 0.0

-1.1902419518455737e6 2.1911871297295656e7 0.0
2.1911871297295656e7 -4.723827417446328e6 0.0
0.0 0.0 0.0

-640642.1154777166 2.317678602873771e7 0.0
2.317678602873771e7 -6.05040455821579e6 0.0
0.0 0.0 0.0

2.4683113545315154e6 7.682459476997623e6 0.0
7.682459476997623e6 -2.854040331011083e7 0.0
0.0 0.0 0.0

-1.0707754817113199e6 2.6301409424627822e7 0.0
2.6301409424627822e7 -3.3737048904743115e6 0.0
0.0 0.0 0.0

2.5397676232151403e6 2.1621626807782672e7 0.0
2.1621626807782672e7 -8.31747005251341e6 0.0
0.0 0.0 0.0

-1.9877810688880743e6 2.1353560652116474e7 0.0
2.1353560652116474e7 -5.591056985032016e6 0.0
0.0 0.0 0.0

-650724.1104348768 1.6272547844305044e7 0.0
1.6272547844305044e7 -2.7645267891954087e7 0.0
0.0 0.0 0.0

1.7688994534179745e6 7.331535848508304e6 0.0
7.331535848508304e6 -1.3371686191781854e7 0.0
0.0 0.0 0.0

603894.0350922234 1.2238642116446838e7 0.0
1.2238642116446838e7 -1.4141085519336827e7 0.0
0.0 0.0 0.0

-746815.3280171861 2.1885843238429002e7 0.0
2.1885843238429002e7 -8.382465034348567e6 0.0
0.0 0.0 0.0

1.8125391353249252e6 2.1515277140349593e7 0.0
2.1515277140349593e7 -9.91016284470311e6 0.0
0.0 0.0 0.0

-1.286263259777591e6 2.028056335373938e7 0.0
2.028056335373938e7 -8.778930574869493e6 0.0
0.0 0.0 0.0

2.722722914255623e6 8.010086284736902e6 0.0
8.010086284736902e6 -1.408973592784921e7 0.0
0.0 0.0 0.0

3.6430299265712705e6 4.842157049725348e6 0.0
4.842157049725348e6 -2.5499442142943453e7 0.0
0.0 0.0 0.0

250043.43261655048 1.7149811972627312e7 0.0
1.7149811972627312e7 -1.6240630746963777e7 0.0
0.0 0.0 0.0

197583.23539327178 1.2879223252274934e7 0.0
1.2879223252274934e7 -1.2960366856385073e7 0.0
0.0 0.0 0.0

-3.4461275367561607e6 1.717064178350439e7 0.0
1.717064178350439e7 263687.90635028505 0.0
0.0 0.0 0.0

-1.010067624544396e7 2.7149405999354742e7 0.0
2.7149405999354742e7 5.885630845550343e6 0.0
0.0 0.0 0.0

69950.47875713184 1.4900641995647198e7 0.0
1.4900641995647198e7 7.340749102479663e7 0.0
0.0 0.0 0.0

-1.1864107978681795e7 5.977903044786877e6 0.0
5.977903044786877e6 2.5406245982003927e7 0.0
0.0 0.0 0.0

887459.0115807639 2.433236109210524e7 0.0
2.433236109210524e7 -8.393090968565496e6 0.0
0.0 0.0 0.0

-3.5577047930452633e6 1.7776424832205135e7 0.0
1.7776424832205135e7 1.6757162402636355e6 0.0
0.0 0.0 0.0

-9.93273443009868e6 8.197294804043208e6 0.0
8.197294804043208e6 3.620910606879871e7 0.0
0.0 0.0 0.0

3.6243222650752356e6 4.890406628234138e6 0.0
4.890406628234138e6 -2.2632826911175862e7 0.0
0.0 0.0 0.0

-2.7641687157283076e6 1.885356182056366e7 0.0
1.885356182056366e7 3.863984889822781e6 0.0
0.0 0.0 0.0

451934.07049180754 1.6559385242915884e7 0.0
1.6559385242915884e7 -2.1519717749016088e7 0.0
0.0 0.0 0.0

205185.28720950894 2.363995848786811e7 0.0
2.363995848786811e7 -7.5179458475285545e6 0.0
0.0 0.0 0.0

-909177.4494047889 2.214634999759314e7 0.0
2.214634999759314e7 -5.585596511469886e6 0.0
0.0 0.0 0.0

-4.801263753312575e6 1.656098211383817e7 0.0
1.656098211383817e7 7.563140060374393e6 0.0
0.0 0.0 0.0

-1.866414084876023e6 1.802706399618314e7 0.0
1.802706399618314e7 -2.6185664346182006e6 0.0
0.0 0.0 0.0

-8.50245500629133e6 1.0268635520905908e7 0.0
1.0268635520905908e7 1.1416390234320126e7 0.0
0.0 0.0 0.0

-4.599280847731293e7 2.5751508014245257e7 0.0
2.5751508014245257e7 4.566084099957261e6 0.0
0.0 0.0 0.0

4.43402675278108e6 2.162402636942092e7 0.0
2.162402636942092e7 1.1225648696387166e7 0.0
0.0 0.0 0.0

-3.208966569430081e6 2.2539038298520442e7 0.0
2.2539038298520442e7 1.1865856220116587e7 0.0
0.0 0.0 0.0

-1.7052215624574705e6 2.6211928147073563e7 0.0
2.6211928147073563e7 981940.5027107213 0.0
0.0 0.0 0.0

1.99912838581808e6 9.829225348997269e6 0.0
9.829225348997269e6 -2.1282668771625225e7 0.0
0.0 0.0 0.0

2.4856608028463256e6 8.14443010902291e6 0.0
8.14443010902291e6 -2.5535174541603055e7 0.0
0.0 0.0 0.0

2.4283008921178784e6 9.977543739854712e6 0.0
9.977543739854712e6 -3.011843388333263e7 0.0
0.0 0.0 0.0

-4.1668223369456166e6 1.6702927386075368e7 0.0
1.6702927386075368e7 4.5403725859641535e6 0.0
0.0 0.0 0.0

-1.1017832916914377e7 1.4025932172930233e7 0.0
1.4025932172930233e7 2.5498473752034467e7 0.0
0.0 0.0 0.0

-6.465078205713424e6 1.1253888804954112e7 0.0
1.1253888804954112e7 1.2919423561005823e7 0.0
0.0 0.0 0.0

4.180199357463643e6 2.1401938128733736e7 0.0
2.1401938128733736e7 -4.787464947643608e6 0.0
0.0 0.0 0.0

-2.769870197671418e6 1.7630911793750226e7 0.0
1.7630911793750226e7 -1.8553707060011107e7 0.0
0.0 0.0 0.0

-3.599303629873144e6 2.497098964105136e7 0.0
2.497098964105136e7 7.659896644754442e6 0.0
0.0 0.0 0.0

6.367844295293088e6 3.1168310552972615e7 0.0
3.1168310552972615e7 -4.122540865983191e6 0.0
0.0 0.0 0.0

-8.292429353694024e6 2.7261000515345156e7 0.0
2.7261000515345156e7 6.654455724628506e6 0.0
0.0 0.0 0.0

-5.113153061733466e6 1.9923314569162067e7 0.0
1.9923314569162067e7 2.0666731555126496e7 0.0
0.0 0.0 0.0

1.1059135104693826e6 7.12660778559058e6 0.0
7.12660778559058e6 -4.8986340047780626e7 0.0
0.0 0.0 0.0

50989.42576594325 1.660535165904543e7 0.0
1.660535165904543e7 -1.083307301755814e7 0.0
0.0 0.0 0.0

3.272501596136861e6 2.955038558355225e6 0.0
2.955038558355225e6 -1.1278527504509913e7 0.0
0.0 0.0 0.0

2.7635669482644983e6 8.548453441814227e6 0.0
8.548453441814227e6 -3.104861659555392e7 0.0
0.0 0.0 0.0

-3.0934573313235864e6 2.5708961793757305e7 0.0
2.5708961793757305e7 3.9647942065491006e6 0.0
0.0 0.0 0.0

-1.0302088116929132e7 1.446448859300562e7 0.0
1.446448859300562e7 2.4417661513389587e7 0.0
0.0 0.0 0.0

-5.705905761004387e6 1.950879189791431e7 0.0
1.950879189791431e7 2.225612128405051e7 0.0
0.0 0.0 0.0

-3.2051983262227946e6 2.326555393121034e7 0.0
2.326555393121034e7 1.1161205108134072e7 0.0
0.0 0.0 0.0

2.2331159616638524e6 1.0403537571000243e7 0.0
1.0403537571000243e7 -1.5553217489424206e7 0.0
0.0 0.0 0.0

-6.49045323646521e6 2.2789479703423705e7 0.0
2.2789479703423705e7 -1.0708918048149403e7 0.0
0.0 0.0 0.0

1.2070434271613304e6 3.1874378797764365e7 0.0
3.1874378797764365e7 -2.361711469191214e6 0.0
0.0 0.0 0.0

-3.7671300678576566e6 2.6795990446294554e7 0.0
2.6795990446294554e7 5.609871973872493e6 0.0
0.0 0.0 0.0

-5.475138313661393e6 1.941974962312581e7 0.0
1.941974962312581e7 2.3464678081643626e7 0.0
0.0 0.0 0.0

-6.731824067855736e6 6.145903899352191e7 0.0
6.145903899352191e7 -1.1804550227884717e7 0.0
0.0 0.0 0.0

-5.789213509563064e6 2.2014859587632198e7 0.0
2.2014859587632198e7 -1.3027331630456647e7 0.0
0.0 0.0 0.0

-4.517733408125805e6 1.8514774834825363e7 0.0
1.8514774834825363e7 9.864410581904113e6 0.0
0.0 0.0 0.0

-1.0529958610947149e7 2.167337591858615e6 0.0
2.167337591858615e6 1.473853165363742e7 0.0
0.0 0.0 0.0

-1.121744992395135e6 1.8173152851882793e7 0.0
1.8173152851882793e7 -6.050904705896913e6 0.0
0.0 0.0 0.0

-1.0698974734438807e7 2.3644788659312934e7 0.0
2.3644788659312934e7 -6.0953850407256065e6 0.0
0.0 0.0 0.0

-8.20803402589708e6 3.40148289294045e7 0.0
3.40148289294045e7 3.9064456785341287e6 0.0
0.0 0.0 0.0

-617839.8026065708 2.085155711080929e7 0.0
2.085155711080929e7 -7.857009396798056e6 0.0
0.0 0.0 0.0

-1.3712194556624875e6 2.262701281399635e7 0.0
2.262701281399635e7 -6.851847172363654e6 0.0
0.0 0.0 0.0

-1.0704119172207972e7 3.397883014002531e6 0.0
3.397883014002531e6 2.331809389252816e7 0.0
0.0 0.0 0.0

3.4605489102111273e6 5.990565441221878e6 0.0
5.990565441221878e6 -2.0206050713975895e7 0.0
0.0 0.0 0.0

1.5061437853214762e6 3.097117141459442e7 0.0
3.097117141459442e7 -1.8233525886510639e6 0.0
0.0 0.0 0.0

-4.594965544281221e6 2.0392258921095252e7 0.0
2.0392258921095252e7 1.9152700647194922e7 0.0
0.0 0.0 0.0

-1.5318617070241444e7 2.5161561083358932e7 0.0
2.5161561083358932e7 -3.3252267192740426e6 0.0
0.0 0.0 0.0

-1.9347572762383074e6 5.958180539611391e6 0.0
5.958180539611391e6 -1.4899216551117082e6 0.0
0.0 0.0 0.0

-1.1906306905806778e7 2.499326395399741e7 0.0
2.499326395399741e7 -9.830779234801836e6 0.0
0.0 0.0 0.0

-1.7278268341663647e6 2.1595278725167066e7 0.0
2.1595278725167066e7 -6.4451047103268e6 0.0
0.0 0.0 0.0

457871.15520188306 1.6555751224930514e7 0.0
1.6555751224930514e7 -1.7424538224232517e7 0.0
0.0 0.0 0.0

-1.2668995115988352e6 2.009430849511482e7 0.0
2.009430849511482e7 -5.36111151893476e6 0.0
0.0 0.0 0.0

1.6102920825793557e6 1.0700829881045932e7 0.0
1.0700829881045932e7 -1.8236502348147083e7 0.0
0.0 0.0 0.0

-2.171076687505845e6 2.1162823656736348e7 0.0
2.1162823656736348e7 371281.4950444907 0.0
0.0 0.0 0.0

-1.0577157313907433e7 4.376759226829755e6 0.0
4.376759226829755e6 1.414871256886163e7 0.0
0.0 0.0 0.0

-8.992238728840822e6 1.411669523340148e7 0.0
1.411669523340148e7 2.0065990422385495e7 0.0
0.0 0.0 0.0

-4.0395687553553456e6 1.6341636633584103e7 0.0
1.6341636633584103e7 1.0149546039760614e7 0.0
0.0 0.0 0.0

-5.330336420096266e6 1.7373310198408227e7 0.0
1.7373310198408227e7 -1.7715226918562673e7 0.0
0.0 0.0 0.0

-3.441100607939056e6 1.6605640785591453e7 0.0
1.6605640785591453e7 6.979935517766228e6 0.0
0.0 0.0 0.0

-3.5453921015496545e7 2.987305861881837e7 0.0
2.987305861881837e7 -3.976283229039572e6 0.0
0.0 0.0 0.0

-3.631637825309825e6 1.833514477479078e7 0.0
1.833514477479078e7 3.014662541012644e6 0.0
0.0 0.0 0.0

-1.8455756796486452e6 2.0246123887312874e7 0.0
2.0246123887312874e7 -3.314473051598451e6 0.0
0.0 0.0 0.0

-5.1966740648927785e7 2.4857362450627927e7 0.0
2.4857362450627927e7 2.6943034958093055e6 0.0
0.0 0.0 0.0

3.2883366742603793e6 2.1647142593247276e7 0.0
2.1647142593247276e7 -6.731165044425586e6 0.0
0.0 0.0 0.0

-2.7603647288403674e6 1.7271886182117596e7 0.0
1.7271886182117596e7 2.5280925321132205e6 0.0
0.0 0.0 0.0

1.5457633339533415e6 1.1752600071454754e7 0.0
1.1752600071454754e7 -1.335845782120843e7 0.0
0.0 0.0 0.0

-1.8866716601956037e6 2.6636499595787168e7 0.0
2.6636499595787168e7 1.8781194761809432e6 0.0
0.0 0.0 0.0

1.2969316026479108e6 1.230347350763798e7 0.0
1.230347350763798e7 -1.854599679721068e7 0.0
0.0 0.0 0.0

1.2010276771015683e6 1.3222938548285263e7 0.0
1.3222938548285263e7 -1.9869761849905245e7 0.0
0.0 0.0 0.0

-7.108970314058939e6 9.02803926313748e6 0.0
9.02803926313748e6 7.928039857503968e6 0.0
0.0 0.0 0.0

-3.892146842814258e6 2.0860670460304476e7 0.0
2.0860670460304476e7 1.0139598276586622e7 0.0
0.0 0.0 0.0

3.0817448868810646e6 7.906902045911622e6 0.0
7.906902045911622e6 -2.6577201477439262e7 0.0
0.0 0.0 0.0

-1.1444476689087672e7 7.325041458281785e6 0.0
7.325041458281785e6 2.013976701217099e7 0.0
0.0 0.0 0.0

1.266791503325468e6 1.274040572503383e7 0.0
1.274040572503383e7 -1.9234754780487727e7 0.0
0.0 0.0 0.0

-8.757981311393237e7 9.751844924487896e6 0.0
9.751844924487896e6 4.0787212267455906e6 0.0
0.0 0.0 0.0

1.4072214504421651e6 7.005029702696264e6 0.0
7.005029702696264e6 -4.559619680000066e7 0.0
0.0 0.0 0.0

-4.111093188668101e6 1.955051325512122e7 0.0
1.955051325512122e7 9.457393288113095e6 0.0
0.0 0.0 0.0

-3.57255399803664e6 2.1171208060421973e7 0.0
2.1171208060421973e7 7.569613973835958e6 0.0
0.0 0.0 0.0

-4.798282541684024e6 2.6311838314364657e7 0.0
2.6311838314364657e7 8.43587209736326e6 0.0
0.0 0.0 0.0

-2.0258316587960362e6 1.8546498160775345e7 0.0
1.8546498160775345e7 -6.643710623443517e6 0.0
0.0 0.0 0.0

-4.284839908997696e6 2.1219185328744143e7 0.0
2.1219185328744143e7 1.7838699009821758e7 0.0
0.0 0.0 0.0

582473.6926749926 1.4647794829681616e7 0.0
1.4647794829681616e7 -1.607430988916209e7 0.0
0.0 0.0 0.0

2.0853295816054605e6 1.0020843550793594e7 0.0
1.0020843550793594e7 -2.5424294707539625e7 0.0
0.0 0.0 0.0

-2.120812506489822e6 2.625306848069039e7 0.0
2.625306848069039e7 2.69875041970541e6 0.0
0.0 0.0 0.0

1.4092487165752463e6 2.7477322181643784e7 0.0
2.7477322181643784e7 -5.4908125431361385e6 0.0
0.0 0.0 0.0

2.0184831177980602e6 9.306393765619194e6 0.0
9.306393765619194e6 -3.659672300903311e7 0.0
0.0 0.0 0.0

-5.00575820679827e6 1.3779246292107522e7 0.0
1.3779246292107522e7 1.0715139255246095e7 0.0
0.0 0.0 0.0

-6.828378573441392e6 2.7090249039754875e7 0.0
2.7090249039754875e7 7.295072946457643e6 0.0
0.0 0.0 0.0

-4.579920840586841e7 6.613212107865658e7 0.0
6.613212107865658e7 -2.698307626159452e6 0.0
0.0 0.0 0.0

-1.0545744304441445e7 1.0175319289913505e7 0.0
1.0175319289913505e7 3.1838495388693172e7 0.0
0.0 0.0 0.0

-4.304126301562868e6 1.6287306583088543e7 0.0
1.6287306583088543e7 -1.5902779422304632e7 0.0
0.0 0.0 0.0

-1.0406904519173662e6 5.767034473994244e6 0.0
5.767034473994244e6 1.457204599129877e6 0.0
0.0 0.0 0.0

-8.459694619027e6 -3.6423182869802536e6 0.0
-3.6423182869802536e6 3.1630290033474594e7 0.0
0.0 0.0 0.0

3.713491056938175e6 1.9753154565311696e6 0.0
1.9753154565311696e6 -3.1507344448068418e7 0.0
0.0 0.0 0.0

-7.381597731957186e6 2.3863863231558118e7 0.0
2.3863863231558118e7 2.208880643695287e6 0.0
0.0 0.0 0.0

-1.371717399272859e6 1.803412579258819e7 0.0
1.803412579258819e7 -1.983517747800235e7 0.0
0.0 0.0 0.0

-6.957163653666912e6 1.5971273564553529e7 0.0
1.5971273564553529e7 3.379683610797589e7 0.0
0.0 0.0 0.0

854472.1856285669 2.35648193781655e7 0.0
2.35648193781655e7 -9.331148587110396e6 0.0
0.0 0.0 0.0

1.326194027529098e6 1.1857445510295589e7 0.0
1.1857445510295589e7 -1.781513812423556e7 0.0
0.0 0.0 0.0

-2.7184105004789922e6 1.6461233679653283e7 0.0
1.6461233679653283e7 4.4173283041295364e7 0.0
0.0 0.0 0.0

-2.1135589479761845e6 1.864261189279445e7 0.0
1.864261189279445e7 -1.2693687437280877e6 0.0
0.0 0.0 0.0

-1.8918010956024379e6 1.855018805073583e7 0.0
1.855018805073583e7 3.2127937457665622e7 0.0
0.0 0.0 0.0

-1.0064839096416393e6 1.8363294591188923e7 0.0
1.8363294591188923e7 -1.8404448025556326e7 0.0
0.0 0.0 0.0

7.447148168043266e7 9.63341405128332e6 0.0
9.63341405128332e6 1.8160276474831402e6 0.0
0.0 0.0 0.0

136657.88501681667 2.433621306112837e7 0.0
2.433621306112837e7 -6.53649434784656e6 0.0
0.0 0.0 0.0

2.5577422207813314e6 3.0768869908323787e7 0.0
3.0768869908323787e7 -2.546298192848943e6 0.0
0.0 0.0 0.0

1.100029876434723e6 1.2930027148551775e7 0.0
1.2930027148551775e7 -1.736418134304824e7 0.0
0.0 0.0 0.0

2.0510287627495509e6 1.187934914570343e7 0.0
1.187934914570343e7 -1.7866059436875243e7 0.0
0.0 0.0 0.0

-1.712837277334271e6 1.7897583394818056e7 0.0
1.7897583394818056e7 -7.960714115569261e6 0.0
0.0 0.0 0.0

-1.1221350868835542e7 1.1617969593514541e7 0.0
1.1617969593514541e7 2.5832481146110248e7 0.0
0.0 0.0 0.0

-2.5191064705425976e6 1.6784704562364385e7 0.0
1.6784704562364385e7 -2.7190171379401382e7 0.0
0.0 0.0 0.0

3.110437606351303e6 2.890785128521542e6 0.0
2.890785128521542e6 -1.0207084565608887e7 0.0
0.0 0.0 0.0

704298.5199211882 1.545188672034151e7 0.0
1.545188672034151e7 -1.736362707571162e7 0.0
0.0 0.0 0.0

-2.7031137030347265e7 3.3813766995927095e7 0.0
3.3813766995927095e7 7.19636898142213e6 0.0
0.0 0.0 0.0

-3.507480650811302e6 1.224429375722307e7 0.0
1.224429375722307e7 -327323.98518225143 0.0
0.0 0.0 0.0

-579585.2824515142 1.6563099594821593e7 0.0
1.6563099594821593e7 5.243886460156414e7 0.0
0.0 0.0 0.0

-3.37376021896765e6 2.1393342905911222e7 0.0
2.1393342905911222e7 1.447034345427766e7 0.0
0.0 0.0 0.0

7.016734512905847e6 2.167068312627951e7 0.0
2.167068312627951e7 3.764843966259542e6 0.0
0.0 0.0 0.0

-5.614856793921118e6 2.6766777900004476e7 0.0
2.6766777900004476e7 7.832077117946987e6 0.0
0.0 0.0 0.0

145710.32058930374 2.4992202835558835e7 0.0
2.4992202835558835e7 -5.444619726118605e6 0.0
0.0 0.0 0.0

-3.8610272587666363e6 2.6336382931558993e7 0.0
2.6336382931558993e7 6.364600577253156e6 0.0
0.0 0.0 0.0

-1.1163998642481752e7 1.2027181936880816e7 0.0
1.2027181936880816e7 2.4062670673384186e7 0.0
0.0 0.0 0.0

-7.906369140447799e6 1.5972063796139091e7 0.0
1.5972063796139091e7 2.0320705734877486e7 0.0
0.0 0.0 0.0

-1.0553023679524047e7 6.261159363176695e6 0.0
6.261159363176695e6 1.297654951354438e7 0.0
0.0 0.0 0.0

1.791211543826171e7 1.2325868839586543e7 0.0
1.2325868839586543e7 1.0345308163283262e6 0.0
0.0 0.0 0.0

-619497.7355814483 1.870690197509475e7 0.0
1.870690197509475e7 -1.709920876821188e7 0.0
0.0 0.0 0.0

-289508.65896166535 2.488789592120209e7 0.0
2.488789592120209e7 -4.768255985815763e6 0.0
0.0 0.0 0.0

-2.936948808187128e6 2.6152731266660243e7 0.0
2.6152731266660243e7 3.0340753872336596e6 0.0
0.0 0.0 0.0

-9.381698933195876e6 -2.9350990979488473e6 0.0
-2.9350990979488473e6 2.280725592429117e7 0.0
0.0 0.0 0.0

-3.502610134028068e6 2.7714647631581772e7 0.0
2.7714647631581772e7 4.0523024865088942e6 0.0
0.0 0.0 0.0

-2.8873184030970903e6 1.781264501614099e7 0.0
1.781264501614099e7 3.908822872233305e6 0.0
0.0 0.0 0.0

-4.4561584273754945e6 2.8333319141764406e7 0.0
2.8333319141764406e7 5.020983102283181e6 0.0
0.0 0.0 0.0

6.738026191152031e6 2.050512100886054e7 0.0
2.050512100886054e7 1.9365032874137275e6 0.0
0.0 0.0 0.0

1.692572416013416e6 2.8735693973534904e7 0.0
2.8735693973534904e7 -3.4332396998547995e6 0.0
0.0 0.0 0.0

3.192151107385114e6 4.935412660279861e6 0.0
4.935412660279861e6 -2.558532381851277e7 0.0
0.0 0.0 0.0

-1.0888764934118366e7 1.0552605395070022e7 0.0
1.0552605395070022e7 2.975252240472944e7 0.0
0.0 0.0 0.0

401385.21350909024 2.0480672227760505e7 0.0
2.0480672227760505e7 -1.0164942089547718e7 0.0
0.0 0.0 0.0

-251221.5989040751 1.914281048851932e7 0.0
1.914281048851932e7 -1.5777079267238643e7 0.0
0.0 0.0 0.0

-2.086654878858394e6 1.759571505466277e7 0.0
1.759571505466277e7 -1.4625543667934262e6 0.0
0.0 0.0 0.0

-4.4792048750270605e6 2.2255701950154256e7 0.0
2.2255701950154256e7 6.136237845066542e6 0.0
0.0 0.0 0.0

1.8833788046778957e6 2.440723210205038e7 0.0
2.440723210205038e7 -8.2402685963604e6 0.0
0.0 0.0 0.0

-232560.7093521729 1.900508225665537e7 0.0
1.900508225665537e7 -8.919478393534556e6 0.0
0.0 0.0 0.0

-1.0670758041252535e7 1.411273961396691e7 0.0
1.411273961396691e7 1.987678761689823e7 0.0
0.0 0.0 0.0

2.7037632880558353e6 9.832149816045403e6 0.0
9.832149816045403e6 -2.1205795847778462e7 0.0
0.0 0.0 0.0

-1.2103136659186212e6 1.916286248810536e7 0.0
1.916286248810536e7 -1.6420436188399127e7 0.0
0.0 0.0 0.0

2.445996427690509e6 2.137347492603178e7 0.0
2.137347492603178e7 1.3090897876712436e7 0.0
0.0 0.0 0.0

-2.044911077531632e6 2.0448957584274795e7 0.0
2.0448957584274795e7 -5.928255734094235e6 0.0
0.0 0.0 0.0

2.7269540199983995e6 7.515694064077517e6 0.0
7.515694064077517e6 -3.535563855090317e7 0.0
0.0 0.0 0.0

2.6378756702296697e6 5.540894463098132e6 0.0
5.540894463098132e6 -4.686382364720546e7 0.0
0.0 0.0 0.0

-4.889487048031631e6 1.7027568822655763e7 0.0
1.7027568822655763e7 8.935344479919787e6 0.0
0.0 0.0 0.0

-2.737443075940558e6 2.657156824654324e7 0.0
2.657156824654324e7 2.1795023700966816e6 0.0
0.0 0.0 0.0

-1.067196166937203e7 3.459928592931175e6 0.0
3.459928592931175e6 2.7071118483474806e7 0.0
0.0 0.0 0.0

-7.119510586224791e6 1.5869331822047489e7 0.0
1.5869331822047489e7 1.4007356989796836e7 0.0
0.0 0.0 0.0

-3.8031195678727506e6 2.0514746592196107e7 0.0
2.0514746592196107e7 9.08396421761897e6 0.0
0.0 0.0 0.0

2.5762273047335716e6 1.0048112155368473e7 0.0
1.0048112155368473e7 -1.9340643452547044e7 0.0
0.0 0.0 0.0

3.6032407579459865e6 1.8501902685594768e6 0.0
1.8501902685594768e6 -3.2533790968081057e7 0.0
0.0 0.0 0.0

-3.4677505433135936e6 1.9258047628734384e7 0.0
1.9258047628734384e7 1.170787833936543e7 0.0
0.0 0.0 0.0

2.4924783585297354e6 1.802846787109983e7 0.0
1.802846787109983e7 6.475811419742944e7 0.0
0.0 0.0 0.0

-2.7570025771034635e6 2.151410753123684e7 0.0
2.151410753123684e7 8.099307670540454e6 0.0
0.0 0.0 0.0

-45835.09931745962 2.5551821752852455e7 0.0
2.5551821752852455e7 -4.59624581792669e6 0.0
0.0 0.0 0.0

1.1126393536415817e6 1.3711285709942468e7 0.0
1.3711285709942468e7 -1.8444765305456024e7 0.0
0.0 0.0 0.0

-644417.1632000875 2.7670835158755258e7 0.0
2.7670835158755258e7 -1.0950731495760134e6 0.0
0.0 0.0 0.0

-2.310600181614717e6 2.58317044814899e7 0.0
2.58317044814899e7 3.562229539952526e6 0.0
0.0 0.0 0.0

7.522077581552312e6 1.806299528057515e7 0.0
1.806299528057515e7 3.766770736163019e7 0.0
0.0 0.0 0.0

3.1399319231553534e6 2.9039031033657417e6 0.0
2.9039031033657417e6 -1.0793085547503542e7 0.0
0.0 0.0 0.0

3.4534998244466344e6 2.2289329385101248e7 0.0
2.2289329385101248e7 -7.611939093355425e6 0.0
0.0 0.0 0.0

3.4891977931963634e6 3.9545562703819773e6 0.0
3.9545562703819773e6 -1.8482682860984296e7 0.0
0.0 0.0 0.0

-1.0008386548946701e7 1.2613052345252858e7 0.0
1.2613052345252858e7 2.040974039131856e7 0.0
0.0 0.0 0.0

-3.1048660533335833e6 2.4475877214678597e7 0.0
2.4475877214678597e7 5.049039950441051e6 0.0
0.0 0.0 0.0

-1.2559107955028345e6 2.1013784112338908e7 0.0
2.1013784112338908e7 -5.044575759353473e6 0.0
0.0 0.0 0.0

2.1897955367321065e6 1.0905702271428531e7 0.0
1.0905702271428531e7 -1.6335511617302943e7 0.0
0.0 0.0 0.0

-87715.36622641422 1.9370504533176914e7 0.0
1.9370504533176914e7 -1.0389665309534429e7 0.0
0.0 0.0 0.0

-211356.95442979853 2.6154537631479185e7 0.0
2.6154537631479185e7 -3.719992028361266e6 0.0
0.0 0.0 0.0

-1.0545588684275718e7 5.2943491654692795e6 0.0
5.2943491654692795e6 3.1138754899927e7 0.0
0.0 0.0 0.0

-6.817985958186836e6 1.7522755555345636e7 0.0
1.7522755555345636e7 2.036133354820577e7 0.0
0.0 0.0 0.0

-1.1341793508049268e7 9.408460852406463e6 0.0
9.408460852406463e6 2.166178887286806e7 0.0
0.0 0.0 0.0

-3.8227179533355515e6 1.726498651764736e7 0.0
1.726498651764736e7 3.048998088503826e6 0.0
0.0 0.0 0.0

-3.069504223577601e6 2.587859228587994e7 0.0
2.587859228587994e7 7.086820735778546e6 0.0
0.0 0.0 0.0

-2.6606977240143307e6 2.0423612231654376e7 0.0
2.0423612231654376e7 -2.771692271158637e6 0.0
0.0 0.0 0.0

-2.0334277154023207e6 2.7515190138277177e7 0.0
2.7515190138277177e7 -185611.18138914026 0.0
0.0 0.0 0.0

-7.889141213530999e6 9.58055180477517e6 0.0
9.58055180477517e6 9.767673968088035e6 0.0
0.0 0.0 0.0

-7.84555682529315e6 1.5394586617828736e7 0.0
1.5394586617828736e7 1.9464191510467798e7 0.0
0.0 0.0 0.0

-2.5369980520650316e6 2.694254196922846e7 0.0
2.694254196922846e7 1.398977002244247e6 0.0
0.0 0.0 0.0

1.7320830171949281e6 2.3285741457265936e7 0.0
2.3285741457265936e7 -9.368511698808828e6 0.0
0.0 0.0 0.0

1.3548022682873685e7 2.3328531311906006e7 0.0
2.3328531311906006e7 1.1947552037512979e7 0.0
0.0 0.0 0.0

-3.1200930230784803e6 1.724443828538434e7 0.0
1.724443828538434e7 5.396180397828241e6 0.0
0.0 0.0 0.0

5.758387813920155e6 2.6191325643527962e7 0.0
2.6191325643527962e7 -6.026244931155932e6 0.0
0.0 0.0 0.0

-3.268349022004264e6 1.82079863908989e7 0.0
1.82079863908989e7 7.985516878616372e6 0.0
0.0 0.0 0.0

-6.841456847956352e6 1.7046699867218528e7 0.0
1.7046699867218528e7 1.9578954711943448e7 0.0
0.0 0.0 0.0

-5.884470056628528e6 1.0590822580644583e7 0.0
1.0590822580644583e7 1.1313920065706272e7 0.0
0.0 0.0 0.0

-2.312915746784042e6 2.7246718659692787e7 0.0
2.7246718659692787e7 547916.0147700835 0.0
0.0 0.0 0.0

3.4805575359016582e6 6.290207937857178e6 0.0
6.290207937857178e6 -2.506868405226919e7 0.0
0.0 0.0 0.0

3.088097641517832e6 8.365783734476651e6 0.0
8.365783734476651e6 -2.3497979032772336e7 0.0
0.0 0.0 0.0

-4.158080679222477e6 2.5778842869856514e7 0.0
2.5778842869856514e7 8.938955865058871e6 0.0
0.0 0.0 0.0

-167973.3465160313 1.2468988784731831e7 0.0
1.2468988784731831e7 -6.983077730460454e6 0.0
0.0 0.0 0.0

2.1331561929983553e6 1.1410561990224414e7 0.0
1.1410561990224414e7 -1.709154682548026e7 0.0
0.0 0.0 0.0

-809990.3765241181 2.980461265474477e7 0.0
2.980461265474477e7 -1.1484010605406943e6 0.0
0.0 0.0 0.0

-432690.5963543424 2.720003924698713e7 0.0
2.720003924698713e7 -1.9407767969418673e6 0.0
0.0 0.0 0.0

-1.4252152093233769e6 2.1803994165998183e7 0.0
2.1803994165998183e7 -7.230066500688114e6 0.0
0.0 0.0 0.0

-1.7882031273918021e6 1.7646701634679776e7 0.0
1.7646701634679776e7 -2.4568351290171735e7 0.0
0.0 0.0 0.0

-3.0166432051723916e6 3.000391454224255e7 0.0
3.000391454224255e7 1.7434066784090071e6 0.0
0.0 0.0 0.0

-6.72044794425393e6 1.7972472095256764e7 0.0
1.7972472095256764e7 2.089692506663055e7 0.0
0.0 0.0 0.0

2.1541178948766254e6 7.233738359553972e6 0.0
7.233738359553972e6 -1.5257577509103931e7 0.0
0.0 0.0 0.0

1.1905665475373596e6 3.2344265052309014e7 0.0
3.2344265052309014e7 -1.284896704877281e6 0.0
0.0 0.0 0.0

-3.24657094129702e6 2.1977515689768646e7 0.0
2.1977515689768646e7 1.2301356272042902e7 0.0
0.0 0.0 0.0

-301892.2130873784 2.6693259812846493e7 0.0
2.6693259812846493e7 -2.7549921242277212e6 0.0
0.0 0.0 0.0

129856.3391911313 1.958553282001859e7 0.0
1.958553282001859e7 -1.4565602020965442e7 0.0
0.0 0.0 0.0

-1.2776046753680997e6 2.7883798545584004e7 0.0
2.7883798545584004e7 403296.9731257792 0.0
0.0 0.0 0.0

-3.5855798445266243e6 2.218457683632965e7 0.0
2.218457683632965e7 1.4729200949224722e7 0.0
0.0 0.0 0.0

-1.2858241226646695e6 2.7941738029648423e7 0.0
2.7941738029648423e7 -1.5302817151569515e6 0.0
0.0 0.0 0.0

6.928144592485796e6 3.462541201898243e7 0.0
3.462541201898243e7 -3.0108827243046863e6 0.0
0.0 0.0 0.0

-9.672590666893644e6 1.5736013625537831e7 0.0
1.5736013625537831e7 2.555485228197597e7 0.0
0.0 0.0 0.0

1.8329616260512937e6 1.2531197725337291e7 0.0
1.2531197725337291e7 -1.6738873010379001e7 0.0
0.0 0.0 0.0

-1.0988803894880235e7 1.2440223046724834e7 0.0
1.2440223046724834e7 2.6547703761350725e7 0.0
0.0 0.0 0.0

-9.685846696777057e6 1.4306038194551675e7 0.0
1.4306038194551675e7 1.761799183267297e7 0.0
0.0 0.0 0.0

-552803.3875877319 -1.2327505496023688e6 0.0
-1.2327505496023688e6 1.2449000449581458e6 0.0
0.0 0.0 0.0

-741043.7571506536 -2.4112670696326746e6 0.0
-2.4112670696326746e6 2.443534323428118e6 0.0
0.0 0.0 0.0

-9.269253189439388e6 1.6319248855269672e7 0.0
1.6319248855269672e7 2.6048104148673862e7 0.0
0.0 0.0 0.0

1.2058619736538474e7 2.246621564662332e7 0.0
2.246621564662332e7 1.0626347132940598e7 0.0
0.0 0.0 0.0

708814.0418583612 2.819047222849901e7 0.0
2.819047222849901e7 -2.8931983812012672e6 0.0
0.0 0.0 0.0

-703638.8106530244 2.2397065137472194e7 0.0
2.2397065137472194e7 -6.495890084203726e6 0.0
0.0 0.0 0.0

1.7701792700832123e6 1.2959827834455654e7 0.0
1.2959827834455654e7 -1.75282906520868e7 0.0
0.0 0.0 0.0

6.891886312214468e6 1.7975872766588368e7 0.0
1.7975872766588368e7 3.3313613487633593e7 0.0
0.0 0.0 0.0

-2.7821456813492374e6 3.0529333959692456e7 0.0
3.0529333959692456e7 2.8598100668298854e6 0.0
0.0 0.0 0.0

-734841.970974681 3.0381371277658988e7 0.0
3.0381371277658988e7 -1.120779997797296e6 0.0
0.0 0.0 0.0

-358092.278005603 3.098550742615151e7 0.0
3.098550742615151e7 -1.1239864872812333e6 0.0
0.0 0.0 0.0

-4.865480309402535e6 1.9537672506065283e7 0.0
1.9537672506065283e7 1.3343951851764929e7 0.0
0.0 0.0 0.0

-5.0415893983821925e6 1.74111463440244e7 0.0
1.74111463440244e7 1.029355087157692e7 0.0
0.0 0.0 0.0

-7.80525120324722e6 1.2177958793073481e7 0.0
1.2177958793073481e7 1.1298565705286335e7 0.0
0.0 0.0 0.0

-2.9593139891145728e6 2.318141608061206e7 0.0
2.318141608061206e7 9.847787142603233e6 0.0
0.0 0.0 0.0

-4.1472014232121008e6 1.67059610381002e7 0.0
1.67059610381002e7 1.15213672151615e7 0.0
0.0 0.0 0.0

-9.5565643466198e6 1.5322706410880817e7 0.0
1.5322706410880817e7 2.8451343743631158e7 0.0
0.0 0.0 0.0

1.7628953391468208e6 1.3476796731560446e7 0.0
1.3476796731560446e7 -1.8107148435866598e7 0.0
0.0 0.0 0.0

-3.9729401239651022e6 2.1161101311060812e7 0.0
2.1161101311060812e7 1.1100609341127444e7 0.0
0.0 0.0 0.0

-1.0085818432587508e7 1.3694895320809202e7 0.0
1.3694895320809202e7 2.960562430404836e7 0.0
0.0 0.0 0.0

3.93847672841689e6 2.0105045987994973e7 0.0
2.0105045987994973e7 1.4816205147445986e7 0.0
0.0 0.0 0.0

-3.9498010505552366e6 1.8348785858018912e7 0.0
1.8348785858018912e7 5.699880254500388e6 0.0
0.0 0.0 0.0

-1.2027059494425794e6 2.8513471781398177e7 0.0
2.8513471781398177e7 505806.88166439923 0.0
0.0 0.0 0.0

-1.3353950039720316e6 2.7212629802512508e7 0.0
2.7212629802512508e7 298558.58858119656 0.0
0.0 0.0 0.0

-3.497717238778511e6 2.2852211440446638e7 0.0
2.2852211440446638e7 1.326477829982323e7 0.0
0.0 0.0 0.0

-1.6653493718544366e6 1.848166741910687e7 0.0
1.848166741910687e7 -2.057129877494648e7 0.0
0.0 0.0 0.0

-3.2478691660741563e6 2.3404964893805984e7 0.0
2.3404964893805984e7 7.325640705055134e6 0.0
0.0 0.0 0.0

-5.863837402402473e6 1.8468914653348904e7 0.0
1.8468914653348904e7 1.942343063394112e7 0.0
0.0 0.0 0.0

-861793.7675066509 2.1532715602083053e7 0.0
2.1532715602083053e7 -6.80250928514253e6 0.0
0.0 0.0 0.0

3.2947565000154898e6 3.1440286183793176e7 0.0
3.1440286183793176e7 -2.547149970503786e6 0.0
0.0 0.0 0.0

-3.570634636367889e6 2.3613409639528546e7 0.0
2.3613409639528546e7 1.1872504436396634e7 0.0
0.0 0.0 0.0

-1.144118027383924e6 2.1179562390949957e7 0.0
2.1179562390949957e7 -8.356308611066236e6 0.0
0.0 0.0 0.0

2.8400191669425527e6 8.96041221994771e6 0.0
8.96041221994771e6 -2.424748218431806e7 0.0
0.0 0.0 0.0

-3.5796832570388503e6 1.955479764766495e7 0.0
1.955479764766495e7 1.281305283481319e7 0.0
0.0 0.0 0.0

3.656202351336327e6 2.5933039809775554e7 0.0
2.5933039809775554e7 -6.658184951495423e6 0.0
0.0 0.0 0.0

2.6362314357924243e6 2.991596175693212e6 0.0
2.991596175693212e6 -7.772798216448395e6 0.0
0.0 0.0 0.0

1.998059813758757e6 9.054234443758203e6 0.0
9.054234443758203e6 -3.183688003162748e7 0.0
0.0 0.0 0.0

-191162.27389483666 1.9929637094463848e7 0.0
1.9929637094463848e7 -1.0180731761904515e7 0.0
0.0 0.0 0.0

1.2324796820874646e7 2.33511204074708e7 0.0
2.33511204074708e7 1.226081332487301e7 0.0
0.0 0.0 0.0

2.1756943158521876e6 9.403515714994455e6 0.0
9.403515714994455e6 -2.495461680943615e7 0.0
0.0 0.0 0.0

1.971325992091936e6 1.0597726748158725e7 0.0
1.0597726748158725e7 -2.426804681334918e7 0.0
0.0 0.0 0.0

1.5473821352626116e6 1.9846955366006788e7 0.0
1.9846955366006788e7 5.590365437778977e6 0.0
0.0 0.0 0.0

-1.0930157300164804e7 6.970016720220133e6 0.0
6.970016720220133e6 2.950678370493803e7 0.0
0.0 0.0 0.0

-9.125776533099608e6 1.2601117781331867e7 0.0
1.2601117781331867e7 1.4310192666229762e7 0.0
0.0 0.0 0.0

-9.467886005732944e6 1.8349147405947026e7 0.0
1.8349147405947026e7 -4.573172147000791e7 0.0
0.0 0.0 0.0

-6.1141381702668015e6 1.7075050801740427e7 0.0
1.7075050801740427e7 1.3421936224117035e7 0.0
0.0 0.0 0.0

-1.1867406973096449e7 1.2118415666576544e7 0.0
1.2118415666576544e7 2.1611215526841417e7 0.0
0.0 0.0 0.0

2.839660482451087e6 2.195518853933947e7 0.0
2.195518853933947e7 1.0670959279273767e7 0.0
0.0 0.0 0.0

-8.623407394838534e6 -3.9201021468563494e6 0.0
-3.9201021468563494e6 3.067167493547199e7 0.0
0.0 0.0 0.0

-4.201233786545014e6 1.9885421849308223e7 0.0
1.9885421849308223e7 1.0624204397486374e7 0.0
0.0 0.0 0.0

-3.4125501421481515e6 2.593770482866036e7 0.0
2.593770482866036e7 7.7747276637422135e6 0.0
0.0 0.0 0.0

153635.70230805967 1.8067314815586075e7 0.0
1.8067314815586075e7 -1.5521341005520808e7 0.0
0.0 0.0 0.0

-7.371179300074291e6 -2.52152699668933e6 0.0
-2.52152699668933e6 1.1275071589002214e7 0.0
0.0 0.0 0.0

-7.38254530255669e6 1.1543389566015473e7 0.0
1.1543389566015473e7 9.695296574977301e6 0.0
0.0 0.0 0.0

331850.7045134418 7.713584728937882e6 0.0
7.713584728937882e6 -5.327963517364824e7 0.0
0.0 0.0 0.0

5.525273505345735e6 3.1688663915135007e7 0.0
3.1688663915135007e7 -3.320518675182168e6 0.0
0.0 0.0 0.0

-8.408488050813979e6 1.264333136032094e7 0.0
1.264333136032094e7 3.769974370548724e7 0.0
0.0 0.0 0.0

-5.181375516916383e6 1.897917994423639e7 0.0
1.897917994423639e7 -1.548193303507841e7 0.0
0.0 0.0 0.0

-1.197879398729318e7 1.1683176818125624e7 0.0
1.1683176818125624e7 2.3222988770365454e7 0.0
0.0 0.0 0.0

-1.2740119776259802e7 2.5552615800624434e7 0.0
2.5552615800624434e7 -8.667936190154437e6 0.0
0.0 0.0 0.0

-1.263595773422923e6 1.9906355212610886e7 0.0
1.9906355212610886e7 -5.0457701898376765e6 0.0
0.0 0.0 0.0

3.031054892219415e6 1.8380946156777125e7 0.0
1.8380946156777125e7 1.7153723504237942e7 0.0
0.0 0.0 0.0

2.0836264743704665e6 8.318792715069148e6 0.0
8.318792715069148e6 -3.3394376412893996e7 0.0
0.0 0.0 0.0

-4.870686868349699e6 1.743407785345879e7 0.0
1.743407785345879e7 -1.4836715747267712e7 0.0
0.0 0.0 0.0

6.75830239749597e6 3.633483756609585e7 0.0
3.633483756609585e7 -4.607535680808047e6 0.0
0.0 0.0 0.0

-3.6940480539261093e6 1.9845596088071436e7 0.0
1.9845596088071436e7 1.3836300595100218e7 0.0
0.0 0.0 0.0

-8.588859576237133e6 -3.1912668607213655e6 0.0
-3.1912668607213655e6 3.398074647153031e7 0.0
0.0 0.0 0.0

-1.4929884550630962e6 1.9898013122292012e7 0.0
1.9898013122292012e7 1.6669781345903903e7 0.0
0.0 0.0 0.0

-1.0584211999279149e7 2.4575580649962377e7 0.0
2.4575580649962377e7 -1.0381862688368246e7 0.0
0.0 0.0 0.0

-6.090485253426227e6 1.0311509782687511e7 0.0
1.0311509782687511e7 6.251266001831679e6 0.0
0.0 0.0 0.0

2.9068824671657886e6 1.881970376313969e7 0.0
1.881970376313969e7 3.616027471206261e7 0.0
0.0 0.0 0.0

-8.48421871322417e6 1.6693506308487572e7 0.0
1.6693506308487572e7 1.9012294216099426e7 0.0
0.0 0.0 0.0

-9.678194445171284e6 1.488787321473665e7 0.0
1.488787321473665e7 1.8656176592423245e7 0.0
0.0 0.0 0.0

-9.185725943568401e6 1.0810770132504763e7 0.0
1.0810770132504763e7 3.744660961155156e7 0.0
0.0 0.0 0.0

-1.4793401886816407e6 1.9733595560539596e7 0.0
1.9733595560539596e7 2.0674482257867903e7 0.0
0.0 0.0 0.0

-8.697221656748487e6 3.0232849890272353e7 0.0
3.0232849890272353e7 5.301844145164684e6 0.0
0.0 0.0 0.0

-198570.30464864237 3.308970205222248e7 0.0
3.308970205222248e7 -1.1844306280442209e6 0.0
0.0 0.0 0.0

-3.6972351978586977e6 2.2026249530007944e7 0.0
2.2026249530007944e7 1.0597078863914618e7 0.0
0.0 0.0 0.0

2.3066206537186624e6 2.849779583982452e6 0.0
2.849779583982452e6 -6.571814884362456e6 0.0
0.0 0.0 0.0

2.2149283218844617e6 1.1698982351958081e7 0.0
1.1698982351958081e7 -1.969130432947661e7 0.0
0.0 0.0 0.0

1.8857735492249802e6 1.158605627676556e7 0.0
1.158605627676556e7 -1.5244091952275783e7 0.0
0.0 0.0 0.0

-5.177199899266088e6 1.7799346441142432e7 0.0
1.7799346441142432e7 1.1599138424367107e7 0.0
0.0 0.0 0.0

-1.2498379713737776e6 4.4338163790400915e7 0.0
4.4338163790400915e7 -3.2609278856072994e6 0.0
0.0 0.0 0.0

-9.57520237965149e6 8.161056010014587e6 0.0
8.161056010014587e6 1.1448833860492771e7 0.0
0.0 0.0 0.0

2.2248040728611154e6 2.931965741308338e7 0.0
2.931965741308338e7 -3.3770834588414733e6 0.0
0.0 0.0 0.0

4.066925035859393e6 2.6856533684430365e7 0.0
2.6856533684430365e7 -6.037916454784378e6 0.0
0.0 0.0 0.0

-4.36770841879026e6 1.119829863404183e7 0.0
1.119829863404183e7 7.60985573451433e6 0.0
0.0 0.0 0.0

-276231.6935750763 1.8341905691586364e7 0.0
1.8341905691586364e7 1.2305549237176878e6 0.0
0.0 0.0 0.0

1.905041897774277e7 2.2276022381345235e7 0.0
2.2276022381345235e7 9.983556777755503e6 0.0
0.0 0.0 0.0

7.520290456133764e6 1.965832140118223e7 0.0
1.965832140118223e7 3.475454109576988e7 0.0
0.0 0.0 0.0

1.5916738260614877e6 1.8881072486569338e7 0.0
1.8881072486569338e7 1.4506911253569333e7 0.0
0.0 0.0 0.0

-8.516540248916585e6 1.6153053162788594e7 0.0
1.6153053162788594e7 1.8130690909434058e7 0.0
0.0 0.0 0.0

-506613.82788672566 4.141292098732835e7 0.0
4.141292098732835e7 -2.5193830902576973e6 0.0
0.0 0.0 0.0

-1.8547596456586912e7 2.6899579024733573e7 0.0
2.6899579024733573e7 -8.157491015014489e6 0.0
0.0 0.0 0.0

-9.577435011447858e6 1.5487815624103704e7 0.0
1.5487815624103704e7 1.9546985449583083e7 0.0
0.0 0.0 0.0

290691.3210330326 1.2775643569136176e7 0.0
1.2775643569136176e7 -3.401474707482513e7 0.0
0.0 0.0 0.0

3.3144904454866387e6 1.7046434247196955e6 0.0
1.7046434247196955e6 -3.8170012170506276e7 0.0
0.0 0.0 0.0

952947.0645078002 1.7224252552780848e7 0.0
1.7224252552780848e7 -1.6350449085825255e7 0.0
0.0 0.0 0.0

1.9804692436196394e6 1.2348151083565963e7 0.0
1.2348151083565963e7 -1.860652694073631e7 0.0
0.0 0.0 0.0

705403.2500603022 1.8713100123157423e7 0.0
1.8713100123157423e7 -1.4406096175891459e7 0.0
0.0 0.0 0.0

-2.1305417154954183e6 4.8017959233322404e7 0.0
4.8017959233322404e7 -5.245842688781224e6 0.0
0.0 0.0 0.0

-2.4222528691475173e6 2.3939545327980753e7 0.0
2.3939545327980753e7 4.468997248419187e6 0.0
0.0 0.0 0.0

459994.08027421124 2.1857730865760934e7 0.0
2.1857730865760934e7 -1.1644937801290836e7 0.0
0.0 0.0 0.0

9506.30810020119 2.1100728378059648e7 0.0
2.1100728378059648e7 -1.2146585106282344e7 0.0
0.0 0.0 0.0

2.3470478353559887e6 1.0730844888984157e7 0.0
1.0730844888984157e7 -1.821886009765187e7 0.0
0.0 0.0 0.0

-3.8200125003430834e6 2.3088365941241153e7 0.0
2.3088365941241153e7 1.089503509101577e7 0.0
0.0 0.0 0.0

98274.43398621678 2.0312859893608667e7 0.0
2.0312859893608667e7 1.824337672659946e7 0.0
0.0 0.0 0.0

-6.478570000783377e6 2.4142745550250825e7 0.0
2.4142745550250825e7 7.959262645195748e6 0.0
0.0 0.0 0.0

-3.6244215811129026e6 8.314431518763748e6 0.0
8.314431518763748e6 7.059850375074151e7 0.0
0.0 0.0 0.0

-8.915147785949897e6 -1.9553643551919165e6 0.0
-1.9553643551919165e6 2.1385926063566152e7 0.0
0.0 0.0 0.0

-1.1721138275730126e7 7.169339995494904e7 0.0
7.169339995494904e7 -1.686649093563795e7 0.0
0.0 0.0 0.0

3.9203892253002287e6 1.8573186011713337e7 0.0
1.8573186011713337e7 2.181821836255823e7 0.0
0.0 0.0 0.0

-117575.59653548087 3.945299732799948e7 0.0
3.945299732799948e7 -1.7998106494284351e6 0.0
0.0 0.0 0.0

179578.11982257664 1.8389411342489783e7 0.0
1.8389411342489783e7 -1.1620739859339718e7 0.0
0.0 0.0 0.0

1.1682546099957959e6 2.1237021918989398e7 0.0
2.1237021918989398e7 -1.1211230131971795e7 0.0
0.0 0.0 0.0

-2.7333612473308532e6 2.4997858392157193e7 0.0
2.4997858392157193e7 6.45467953297606e6 0.0
0.0 0.0 0.0

4.0015063411287153e6 2.2747547521512946e6 0.0
2.2747547521512946e6 -2.1457157901814625e7 0.0
0.0 0.0 0.0

8.617480302585157e6 2.0611756028185073e7 0.0
2.0611756028185073e7 2.748762913307935e6 0.0
0.0 0.0 0.0

2.1266859011712326e6 1.2255971151668577e7 0.0
1.2255971151668577e7 -2.037104772774673e7 0.0
0.0 0.0 0.0

4.296706447026251e6 2.44682608929698e7 0.0
2.44682608929698e7 -6.819712625460748e6 0.0
0.0 0.0 0.0

2.7918245589948725e6 7.743327131794936e6 0.0
7.743327131794936e6 -3.2516980892436765e7 0.0
0.0 0.0 0.0

-2.95996737012603e6 2.090478346441915e7 0.0
2.090478346441915e7 9.692456877304025e6 0.0
0.0 0.0 0.0

2.78431313713341e6 7.361677005030627e6 0.0
7.361677005030627e6 -1.3186846707010562e7 0.0
0.0 0.0 0.0

-2.0403571132973903e6 1.159769332843914e7 0.0
1.159769332843914e7 710229.1715377413 0.0
0.0 0.0 0.0

-1.7262736795668595e7 2.3999013205362525e7 0.0
2.3999013205362525e7 -5.811307054122581e6 0.0
0.0 0.0 0.0

2.6210824059357597e6 1.0201449982954156e7 0.0
1.0201449982954156e7 -2.362588715432738e7 0.0
0.0 0.0 0.0

-2.7327437899418166e6 1.740659263130073e7 0.0
1.740659263130073e7 -3.5812587053488116e6 0.0
0.0 0.0 0.0

-166546.51127770636 2.2444969298865467e7 0.0
2.2444969298865467e7 -9.944631326237129e6 0.0
0.0 0.0 0.0

-1.3291244306091499e6 1.9219477215393078e7 0.0
1.9219477215393078e7 2.587570654804557e7 0.0
0.0 0.0 0.0

354737.2283978504 2.0104084264635537e7 0.0
2.0104084264635537e7 -1.8938804540336365e6 0.0
0.0 0.0 0.0

-5.925981113551229e6 1.6669718541537572e7 0.0
1.6669718541537572e7 1.2129917729630208e7 0.0
0.0 0.0 0.0

-1.096460237101526e7 8.264225262123405e6 0.0
8.264225262123405e6 3.248681849160284e7 0.0
0.0 0.0 0.0

-782441.4798175525 1.957255335434113e7 0.0
1.957255335434113e7 2.6370759042767216e7 0.0
0.0 0.0 0.0

-7.372274131513707e6 1.7756133529761814e7 0.0
1.7756133529761814e7 1.8333826422119062e7 0.0
0.0 0.0 0.0

-1.0965129816094143e7 3.620658648753979e6 0.0
3.620658648753979e6 2.912124805848158e7 0.0
0.0 0.0 0.0

-4.303749922325865e6 1.9200253276736323e7 0.0
1.9200253276736323e7 1.5496737231078561e7 0.0
0.0 0.0 0.0

-4.384871251427579e6 2.158781324083151e7 0.0
2.158781324083151e7 1.6252022435439112e7 0.0
0.0 0.0 0.0

-9.507367936095385e6 6.273522129260516e6 0.0
6.273522129260516e6 1.6463196248764012e7 0.0
0.0 0.0 0.0

-64591.77855786402 2.177976724683719e7 0.0
2.177976724683719e7 -1.1054248063167198e7 0.0
0.0 0.0 0.0

-2.996948482721147e6 2.4982655826240186e7 0.0
2.4982655826240186e7 4.006810653075396e6 0.0
0.0 0.0 0.0

-7.227655428856539e6 1.8238193909236707e7 0.0
1.8238193909236707e7 1.9070121718241684e7 0.0
0.0 0.0 0.0

-9.351551362127822e6 3.645188196773373e6 0.0
3.645188196773373e6 4.1964482633494705e7 0.0
0.0 0.0 0.0

-2.1981956932772473e6 2.1123564235356916e7 0.0
2.1123564235356916e7 1.3024833115532096e7 0.0
0.0 0.0 0.0

-9.035708561118543e6 1.4776387585239008e7 0.0
1.4776387585239008e7 2.0894348048252553e7 0.0
0.0 0.0 0.0

821441.9739940166 1.2476727656330269e7 0.0
1.2476727656330269e7 -3.2024951642444286e7 0.0
0.0 0.0 0.0

-1.9091183202202395e6 1.8528485892028295e7 0.0
1.8528485892028295e7 3.209965940352204e7 0.0
0.0 0.0 0.0

-9.207468570146741e6 1.6404431982446786e7 0.0
1.6404431982446786e7 2.4287850432073772e7 0.0
0.0 0.0 0.0

1.8973972303458285e6 1.1075492498054838e7 0.0
1.1075492498054838e7 -1.4468764819168836e7 0.0
0.0 0.0 0.0

3.162314846422836e6 3.503133985797136e6 0.0
3.503133985797136e6 -3.030066468980287e7 0.0
0.0 0.0 0.0

2.511801828910889e6 1.874601794359003e7 0.0
1.874601794359003e7 2.78992452559537e7 0.0
0.0 0.0 0.0

487309.4055256825 1.891939294031996e7 0.0
1.891939294031996e7 3.0090947148076788e7 0.0
0.0 0.0 0.0

-608337.7023578773 1.7845199110652283e7 0.0
1.7845199110652283e7 -8.288366367647598e6 0.0
0.0 0.0 0.0

-3.642307653684538e6 2.440962243741792e7 0.0
2.440962243741792e7 1.065251193090536e7 0.0
0.0 0.0 0.0

22906.389667310345 3.565000022533342e7 0.0
3.565000022533342e7 -1.4139556831423205e6 0.0
0.0 0.0 0.0

507275.54218156636 2.0106871751732536e7 0.0
2.0106871751732536e7 -1.338154437812113e7 0.0
0.0 0.0 0.0

-9.665995358005546e6 -769341.5818091354 0.0
-769341.5818091354 2.2476707104886226e7 0.0
0.0 0.0 0.0

384423.5188369043 1.4598611770717766e7 0.0
1.4598611770717766e7 -2.7524411155926555e7 0.0
0.0 0.0 0.0

-3.355868744530284e6 2.1829600664028317e7 0.0
2.1829600664028317e7 1.3264970107501967e7 0.0
0.0 0.0 0.0

-9.929103556605764e6 1.5160677057457013e7 0.0
1.5160677057457013e7 2.4966586414795566e7 0.0
0.0 0.0 0.0

3.512995050798831e6 1.6189947904485993e7 0.0
1.6189947904485993e7 1.2419021948721966e7 0.0
0.0 0.0 0.0

1.1825581057440042e6 9.909295032041451e6 0.0
9.909295032041451e6 -3.749597687346264e7 0.0
0.0 0.0 0.0

1.1277042829624265e6 1.2355296298421247e7 0.0
1.2355296298421247e7 -2.9998940336870104e7 0.0
0.0 0.0 0.0

8.297568468076786e6 3.797097097611456e7 0.0
3.797097097611456e7 -5.390032345398668e6 0.0
0.0 0.0 0.0

-2.2650764851107197e6 2.4408384787913673e7 0.0
2.4408384787913673e7 3.440386105593951e6 0.0
0.0 0.0 0.0

-2.649621137533362e6 2.5534474001497906e7 0.0
2.5534474001497906e7 5.454644623286813e6 0.0
0.0 0.0 0.0

-1.7431075451138036e6 2.5792987197098814e7 0.0
2.5792987197098814e7 -2.2809087519675437e6 0.0
0.0 0.0 0.0

3.8176056824879097e6 4.245068345278098e6 0.0
4.245068345278098e6 -1.784166982049244e7 0.0
0.0 0.0 0.0

-2.0189984961902332e6 1.7082609214282297e7 0.0
1.7082609214282297e7 -7.823319281530881e6 0.0
0.0 0.0 0.0

-3.213433423441018e6 2.167048208540933e7 0.0
2.167048208540933e7 1.2505194328876961e7 0.0
0.0 0.0 0.0

922531.5711898613 2.2403069296811778e7 0.0
2.2403069296811778e7 -1.0745382568739552e7 0.0
0.0 0.0 0.0

14742.227301499166 3.467109049955898e7 0.0
3.467109049955898e7 -1.2547637778901558e6 0.0
0.0 0.0 0.0

-6.925101754274328e6 9.268573322474474e6 0.0
9.268573322474474e6 1.3175575503156891e7 0.0
0.0 0.0 0.0

-1.1718862730099263e7 1.0625266957984248e7 0.0
1.0625266957984248e7 2.6758090627683178e7 0.0
0.0 0.0 0.0

-85969.65503691079 3.387738980307977e7 0.0
3.387738980307977e7 -1.098933627981035e6 0.0
0.0 0.0 0.0

-242769.97630368872 2.314355705387302e7 0.0
2.314355705387302e7 -8.901070893264506e6 0.0
0.0 0.0 0.0

1.5688475973281804e6 1.1191840897660268e7 0.0
1.1191840897660268e7 -1.896263821919801e7 0.0
0.0 0.0 0.0

-4.516438840337739e6 1.7480937728473134e7 0.0
1.7480937728473134e7 1.4081590775853315e7 0.0
0.0 0.0 0.0

1.2392155189998988e6 9.163861904471204e6 0.0
9.163861904471204e6 -3.933625199397951e7 0.0
0.0 0.0 0.0

-1.083946546392476e6 2.9720756474914134e7 0.0
2.9720756474914134e7 620754.5262183212 0.0
0.0 0.0 0.0

-3.7194286455598306e6 2.2277808273159705e7 0.0
2.2277808273159705e7 1.0122135934530418e7 0.0
0.0 0.0 0.0

-277793.2769888304 1.3591195997845354e7 0.0
1.3591195997845354e7 -3.428607338356804e7 0.0
0.0 0.0 0.0

-3.4981509185560476e6 2.6099809311130445e7 0.0
2.6099809311130445e7 5.707857673588129e6 0.0
0.0 0.0 0.0

-1.1419362651375044e7 1.0261544491432901e7 0.0
1.0261544491432901e7 2.8677792666587133e7 0.0
0.0 0.0 0.0

1.3288758219489316e6 1.0884204410657605e7 0.0
1.0884204410657605e7 -1.633711575979631e7 0.0
0.0 0.0 0.0

1.8100435962278896e6 2.1178657676839806e7 0.0
2.1178657676839806e7 1.054133211056531e7 0.0
0.0 0.0 0.0

-2.6878060744157475e6 2.3676914769428726e7 0.0
2.3676914769428726e7 7.738646482503095e6 0.0
0.0 0.0 0.0

-953538.8327714223 1.4512523217360707e7 0.0
1.4512523217360707e7 -3.387366077189535e7 0.0
0.0 0.0 0.0

-2.936618968411943e6 5.311438606576263e7 0.0
5.311438606576263e7 -8.246119438115825e6 0.0
0.0 0.0 0.0

-8.41853214279165e6 1.7611691812816344e7 0.0
1.7611691812816344e7 2.2145794344106585e7 0.0
0.0 0.0 0.0

-1.121421799451176e7 1.79436835542697e7 0.0
1.79436835542697e7 -5.524373505209418e7 0.0
0.0 0.0 0.0

-5.160255391581346e6 1.00547627176327e7 0.0
1.00547627176327e7 9.499312669109087e6 0.0
0.0 0.0 0.0

-4.298975191795927e6 2.020385415367276e7 0.0
2.020385415367276e7 1.1691643835543726e7 0.0
0.0 0.0 0.0

-4.6214577523052e6 1.826436652917207e7 0.0
1.826436652917207e7 2.9954657355358124e7 0.0
0.0 0.0 0.0

-5.193499841953938e6 1.6322834878923643e7 0.0
1.6322834878923643e7 1.474344951465646e7 0.0
0.0 0.0 0.0

-184412.55193631724 1.6822653646994907e7 0.0
1.6822653646994907e7 5.6942174507705376e7 0.0
0.0 0.0 0.0

-3.198264213385346e6 2.023894022208216e7 0.0
2.023894022208216e7 1.1177386873955078e7 0.0
0.0 0.0 0.0

-1.3775177159957606e6 1.792959844461072e7 0.0
1.792959844461072e7 -2.2968116207839653e7 0.0
0.0 0.0 0.0

623100.5178928208 2.0548847825112306e7 0.0
2.0548847825112306e7 -1.4094095812470902e7 0.0
0.0 0.0 0.0

1.5150656505406585e8 2.6838884150138568e7 0.0
2.6838884150138568e7 1.409972213459929e7 0.0
0.0 0.0 0.0

-8.508081992635477e6 -3.0610057764863097e6 0.0
-3.0610057764863097e6 3.516051617509359e7 0.0
0.0 0.0 0.0

3.5002421479845773e6 1.7537661746848319e6 0.0
1.7537661746848319e6 -3.477368123223599e7 0.0
0.0 0.0 0.0

-8.844045424322091e6 1.080914087932074e6 0.0
1.080914087932074e6 1.198362487972239e7 0.0
0.0 0.0 0.0

-1.5707199209859758e6 2.5217674063023135e7 0.0
2.5217674063023135e7 -3.229632998388793e6 0.0
0.0 0.0 0.0

-7.748660609484201e6 -2.128672399958241e6 0.0
-2.128672399958241e6 4.5169964921733e7 0.0
0.0 0.0 0.0

-7.272551748503858e6 1.6961774022899967e7 0.0
1.6961774022899967e7 -3.29068100847314e7 0.0
0.0 0.0 0.0

-1.0686973009819143e7 1.358950699164673e7 0.0
1.358950699164673e7 2.545741455411557e7 0.0
0.0 0.0 0.0

-7.128217612314076e6 1.8674051422483567e7 0.0
1.8674051422483567e7 1.9650742976397038e7 0.0
0.0 0.0 0.0

3.206127130034512e6 1.6519468650924254e6 0.0
1.6519468650924254e6 -3.933470080796394e7 0.0
0.0 0.0 0.0

806805.1169961067 1.783101380391758e7 0.0
1.783101380391758e7 -1.5151909784919985e7 0.0
0.0 0.0 0.0

-18722.837250813434 3.6807469838575974e7 0.0
3.6807469838575974e7 -1.2177466138676119e6 0.0
0.0 0.0 0.0

969755.9452963443 1.1569751020048503e7 0.0
1.1569751020048503e7 -1.5265963870064436e7 0.0
0.0 0.0 0.0

-3.398257534678609e6 2.159718933632513e7 0.0
2.159718933632513e7 -3.9437754454595144e6 0.0
0.0 0.0 0.0

-144360.9047689736 8.628675098976512e6 0.0
8.628675098976512e6 9.943087841005567e7 0.0
0.0 0.0 0.0

-2.56571378424187e6 8.293614157326636e6 0.0
8.293614157326636e6 -9.295019619119883e7 0.0
0.0 0.0 0.0

-6.127720736531172e6 1.6900663651466638e7 0.0
1.6900663651466638e7 -7.806637315166387e7 0.0
0.0 0.0 0.0

1.2364271079015378e6 1.6063935696295306e7 0.0
1.6063935696295306e7 -1.87087123159354e7 0.0
0.0 0.0 0.0

2.328385083711935e6 7.0259703796936795e6 0.0
7.0259703796936795e6 -4.247340697761918e7 0.0
0.0 0.0 0.0

-2.4701972918269258e7 2.851125955039589e7 0.0
2.851125955039589e7 2.5815290773778018e6 0.0
0.0 0.0 0.0

760368.4606319042 2.178923131412086e7 0.0
2.178923131412086e7 -1.1901092954497825e7 0.0
0.0 0.0 0.0

-8.361071623984197e6 -2.981602103793363e6 0.0
-2.981602103793363e6 3.634239780378967e7 0.0
0.0 0.0 0.0

-7.813008807701364e6 1.203677771090021e7 0.0
1.203677771090021e7 1.4700895411276955e7 0.0
0.0 0.0 0.0

-2.5119320231508035e6 2.6036014727872346e7 0.0
2.6036014727872346e7 4.475552851400004e6 0.0
0.0 0.0 0.0

-3.8710876118424605e6 2.2266626830132756e7 0.0
2.2266626830132756e7 1.1437857263698433e7 0.0
0.0 0.0 0.0

-8.450766850956982e6 1.5099608680344896e7 0.0
1.5099608680344896e7 1.5947739354108594e7 0.0
0.0 0.0 0.0

-8.451727514109528e6 7.68409517065927e6 0.0
7.68409517065927e6 1.532107532451661e7 0.0
0.0 0.0 0.0

7.038324389276667e6 2.0602991870933615e7 0.0
2.0602991870933615e7 4.715345266622399e6 0.0
0.0 0.0 0.0

-369640.90161663014 2.387644894509664e7 0.0
2.387644894509664e7 -7.891797669025705e6 0.0
0.0 0.0 0.0

-3.0959443158828225e6 6.539552769933576e6 0.0
6.539552769933576e6 244700.68116650614 0.0
0.0 0.0 0.0

-29430.48394502746 2.7382899702648193e7 0.0
2.7382899702648193e7 -2.585778263527116e6 0.0
0.0 0.0 0.0

-9.807743248988952e6 1.64739814491877e7 0.0
1.64739814491877e7 2.408027491600821e7 0.0
0.0 0.0 0.0

-4.32897207502335e6 1.710666689934815e7 0.0
1.710666689934815e7 1.2827542001290629e7 0.0
0.0 0.0 0.0

-8.237512849422399e6 -2.8303469987701355e6 0.0
-2.8303469987701355e6 3.752653760659446e7 0.0
0.0 0.0 0.0

3.3065963296490908e6 1.7254836553293585e6 0.0
1.7254836553293585e6 -3.701472559189717e7 0.0
0.0 0.0 0.0

2.12455310325134e6 7.304892745833766e6 0.0
7.304892745833766e6 -4.532660262272381e7 0.0
0.0 0.0 0.0

-1.172070586575051e7 1.2547025894403648e7 0.0
1.2547025894403648e7 2.3979993598192006e7 0.0
0.0 0.0 0.0

-475519.98130776733 5.051709722192064e6 0.0
5.051709722192064e6 -8.032415661554638e7 0.0
0.0 0.0 0.0

-6.343343450857203e6 -576497.162463203 0.0
-576497.162463203 5.992102288257912e7 0.0
0.0 0.0 0.0

1.7860316630625827e6 1.0532644205832971e7 0.0
1.0532644205832971e7 -2.011568730422395e7 0.0
0.0 0.0 0.0

2.891021302825948e6 9.104844311717326e6 0.0
9.104844311717326e6 -2.2331659702566914e7 0.0
0.0 0.0 0.0

5.401689515268208e6 3.375396197122051e7 0.0
3.375396197122051e7 -2.865736801420694e6 0.0
0.0 0.0 0.0

-6.888947434270939e6 3.0127325972034637e7 0.0
3.0127325972034637e7 5.854135009326423e6 0.0
0.0 0.0 0.0

-2.8566663695079163e6 2.3123357222503338e7 0.0
2.3123357222503338e7 8.838855459119804e6 0.0
0.0 0.0 0.0

198564.65182394627 2.6221918955605004e7 0.0
2.6221918955605004e7 -4.338988395612029e6 0.0
0.0 0.0 0.0

-1.064076901394361e6 3.4500124714912884e7 0.0
3.4500124714912884e7 1.1839027498466703e6 0.0
0.0 0.0 0.0

-2.9971410416199896e6 2.4555810276802875e7 0.0
2.4555810276802875e7 8.365434559668536e6 0.0
0.0 0.0 0.0

409625.7779023531 1.9426715038269516e7 0.0
1.9426715038269516e7 1.1950752161743725e7 0.0
0.0 0.0 0.0

1.1103498868641444e6 2.68610888913563e6 0.0
2.68610888913563e6 -6.725093798358682e7 0.0
0.0 0.0 0.0

2.993505501505116e6 1.5254965462401733e6 0.0
1.5254965462401733e6 -4.417109490005406e7 0.0
0.0 0.0 0.0

2.0161890723429322e6 1.8208667796110269e6 0.0
1.8208667796110269e6 -5.771863068582679e7 0.0
0.0 0.0 0.0

-2.5419658712030035e6 2.625518971203848e7 0.0
2.625518971203848e7 1.2907961465032646e6 0.0
0.0 0.0 0.0

-6.807038700763619e6 1.093558509996565e7 0.0
1.093558509996565e7 8.020543657377502e6 0.0
0.0 0.0 0.0

-7.488720095790589e6 -1.967213054689897e6 0.0
-1.967213054689897e6 4.648948015783846e7 0.0
0.0 0.0 0.0

-1.1653463006780252e7 1.2878366782883e7 0.0
1.2878366782883e7 2.2431162593105145e7 0.0
0.0 0.0 0.0

3.7675650424457807e6 3.615857530125249e6 0.0
3.615857530125249e6 -2.3639333033377714e7 0.0
0.0 0.0 0.0

-1.4395903646776e7 2.7976021471322116e7 0.0
2.7976021471322116e7 4.955235367914225e6 0.0
0.0 0.0 0.0

-6.979603371138094e6 1.785479992310165e7 0.0
1.785479992310165e7 -2.800463083134729e7 0.0
0.0 0.0 0.0

-8.733022771880602e6 -3.794432618833458e6 0.0
-3.794432618833458e6 3.0073674175588757e7 0.0
0.0 0.0 0.0

-1.1790334060211949e7 4.466277064343535e6 0.0
4.466277064343535e6 2.111248249812121e7 0.0
0.0 0.0 0.0

-1.0720187682295263e7 9.527056873262335e6 0.0
9.527056873262335e6 3.3176316145449318e7 0.0
0.0 0.0 0.0

-4.027014742489348e6 2.0689309468243115e7 0.0
2.0689309468243115e7 1.8922096281660885e7 0.0
0.0 0.0 0.0

1.2558338029270712e6 1.2907861918560797e7 0.0
1.2907861918560797e7 -2.6717632011259235e7 0.0
0.0 0.0 0.0

1.802660482294049e6 2.2559613240073957e6 0.0
2.2559613240073957e6 -6.361777756074555e7 0.0
0.0 0.0 0.0

3.5309681260115784e6 1.8601142931067923e6 0.0
1.8601142931067923e6 -3.154828949384172e7 0.0
0.0 0.0 0.0

1.30645829579112e7 3.602311355830606e7 0.0
3.602311355830606e7 -6.929665297764346e6 0.0
0.0 0.0 0.0

-6.661381693798821e6 -800412.3981435652 0.0
-800412.3981435652 5.752189053214173e7 0.0
0.0 0.0 0.0

2.13008740562124e6 8.568639367338818e6 0.0
8.568639367338818e6 -3.847618731858614e7 0.0
0.0 0.0 0.0

-5.107388568965185e6 2.2460511952124676e6 0.0
2.2460511952124676e6 7.658601777046698e7 0.0
0.0 0.0 0.0

869390.2026376165 3.4683116004952e6 0.0
3.4683116004952e6 -7.249609183411337e7 0.0
0.0 0.0 0.0

-3.760033993645773e6 2.590206809360586e7 0.0
2.590206809360586e7 8.416918403688915e6 0.0
0.0 0.0 0.0

-1.239896447020602e6 1.2762394130879138e7 0.0
1.2762394130879138e7 -7.066109499248664e6 0.0
0.0 0.0 0.0

-607877.5821456946 1.8747415292611912e7 0.0
1.8747415292611912e7 -1.2184938265163597e7 0.0
0.0 0.0 0.0

320000.3400572147 1.7412842507636476e7 0.0
1.7412842507636476e7 -2.013603171709045e7 0.0
0.0 0.0 0.0

-5.948548107976429e6 -230056.2986704883 0.0
-230056.2986704883 6.2889783368258e7 0.0
0.0 0.0 0.0

1.794609418751523e6 2.0618420326930871e6 0.0
2.0618420326930871e6 -6.044954151788576e7 0.0
0.0 0.0 0.0

-8.924233174983975e6 1.7246235691426054e7 0.0
1.7246235691426054e7 2.47464704425172e7 0.0
0.0 0.0 0.0

-1.0203865875897871e7 1.5902354788956022e7 0.0
1.5902354788956022e7 2.354169899115092e7 0.0
0.0 0.0 0.0

-1.1165834283624675e7 1.1287929824240621e7 0.0
1.1287929824240621e7 2.934216122587667e7 0.0
0.0 0.0 0.0

-6.362145469744107e6 1.5569073004024565e7 0.0
1.5569073004024565e7 1.671338461288413e7 0.0
0.0 0.0 0.0

3.945226995343089e6 1.925025484629701e7 0.0
1.925025484629701e7 3.678156209493765e7 0.0
0.0 0.0 0.0

566016.4068604764 2.4437236509116326e7 0.0
2.4437236509116326e7 -7.007029738346638e6 0.0
0.0 0.0 0.0

-2.33859301213e6 2.791935495886176e7 0.0
2.791935495886176e7 676486.7440852962 0.0
0.0 0.0 0.0

324123.71166029805 2.5821024771617256e7 0.0
2.5821024771617256e7 -5.907741958491348e6 0.0
0.0 0.0 0.0

2.507161645014841e6 1.0558804604697293e7 0.0
1.0558804604697293e7 -2.006973586641777e7 0.0
0.0 0.0 0.0

-3.979372129990774e6 2.864601902940248e7 0.0
2.864601902940248e7 5.489521154468506e6 0.0
0.0 0.0 0.0

-1.9546576600597724e6 2.0634886375067636e7 0.0
2.0634886375067636e7 -5.572002261381493e6 0.0
0.0 0.0 0.0

1.5457835118030608e6 1.495012939131659e7 0.0
1.495012939131659e7 -2.108520875713007e7 0.0
0.0 0.0 0.0

-9.047511922180135e6 1.5405496482603278e7 0.0
1.5405496482603278e7 3.0395800410624236e7 0.0
0.0 0.0 0.0

-1.1369455868504135e7 1.3313449525067115e7 0.0
1.3313449525067115e7 2.4745396817316674e7 0.0
0.0 0.0 0.0

2.138612481927097e6 9.633758276128396e6 0.0
9.633758276128396e6 -2.316273517944345e7 0.0
0.0 0.0 0.0

-8.0428692908887025e6 -2.518280983099666e6 0.0
-2.518280983099666e6 4.121637946615079e7 0.0
0.0 0.0 0.0

3.1039335865057874e6 1.6522870597384498e6 0.0
1.6522870597384498e6 -4.0501013987574555e7 0.0
0.0 0.0 0.0

-335876.17859717924 1.9366300804683607e7 0.0
1.9366300804683607e7 2.30140262020628e7 0.0
0.0 0.0 0.0

-6.783937353307094e6 -1.0155029087707609e6 0.0
-1.0155029087707609e6 5.526451360818132e7 0.0
0.0 0.0 0.0

2.2296076316199563e6 1.7095922102188433e6 0.0
1.7095922102188433e6 -5.3401588807591066e7 0.0
0.0 0.0 0.0

3.00453617097592e6 1.6905659235119503e6 0.0
1.6905659235119503e6 -4.165365806613876e7 0.0
0.0 0.0 0.0

-7.898632370778551e6 -2.348034674581889e6 0.0
-2.348034674581889e6 4.245168744502125e7 0.0
0.0 0.0 0.0

-3.65403731701163e6 1.7128020404499207e7 0.0
1.7128020404499207e7 3.850891413538037e7 0.0
0.0 0.0 0.0

2.4604447356943116e6 1.6294440826137508e6 0.0
1.6294440826137508e6 -5.167590449160278e7 0.0
0.0 0.0 0.0

-6.926660569926873e6 -1.3096264437912907e6 0.0
-1.3096264437912907e6 5.312112217729864e7 0.0
0.0 0.0 0.0

-3.744961487087461e6 2.033795878285427e7 0.0
2.033795878285427e7 2.1388684720200267e7 0.0
0.0 0.0 0.0

-8.867544926545635e6 -119140.6596877707 0.0
-119140.6596877707 3.747991994912785e7 0.0
0.0 0.0 0.0

-7.831196095513687e6 -2.1956830034558503e6 0.0
-2.1956830034558503e6 4.384273546133155e7 0.0
0.0 0.0 0.0

3.139486887938818e6 1.6466258490667942e6 0.0
1.6466258490667942e6 -4.297988956669406e7 0.0
0.0 0.0 0.0

2.547289705449255e6 1.6543557269492042e6 0.0
1.6543557269492042e6 -5.0004059123412415e7 0.0
0.0 0.0 0.0

-7.125729824664243e6 -1.5618980592002056e6 0.0
-1.5618980592002056e6 5.1259256902478196e7 0.0
0.0 0.0 0.0

-2.7735003608689517e8 6.1780884068956725e7 0.0
6.1780884068956725e7 -3.2635305641985506e7 0.0
0.0 0.0 0.0

2.570346801352022e8 5.168522678106271e7 0.0
5.168522678106271e7 2.434355158522754e7 0.0
0.0 0.0 0.0

-8.506777823682148e6 1.5629884033136133e7 0.0
1.5629884033136133e7 1.7088323037164956e7 0.0
0.0 0.0 0.0

2.4951846443398297e6 1.5656835239772487e6 0.0
1.5656835239772487e6 -4.837519623219762e7 0.0
0.0 0.0 0.0

-7.387799674317695e6 -1.6857529975343854e6 0.0
-1.6857529975343854e6 4.9718416530285686e7 0.0
0.0 0.0 0.0

259224.68278364727 1.88272093057649e7 0.0
1.88272093057649e7 -1.4587339035658415e6 0.0
0.0 0.0 0.0

-1.1025699668539422e7 1.4389666312572492e7 0.0
1.4389666312572492e7 2.3847308139755826e7 0.0
0.0 0.0 0.0

-2.3178406513673104e6 2.6513982852667484e7 0.0
2.6513982852667484e7 3.594056770565851e6 0.0
0.0 0.0 0.0

418965.5336922584 1.9916090121131476e7 0.0
1.9916090121131476e7 2.381084359454197e7 0.0
0.0 0.0 0.0

-7.482113840872789e6 -1.7735748212920465e6 0.0
-1.7735748212920465e6 4.812445316456392e7 0.0
0.0 0.0 0.0

2.7324242300424315e6 1.4555526499295912e6 0.0
1.4555526499295912e6 -4.703541148921296e7 0.0
0.0 0.0 0.0

-400395.4985910731 2.4564637248175457e7 0.0
2.4564637248175457e7 -6.9042154375321865e6 0.0
0.0 0.0 0.0

-8.272504530276531e6 1.7583902112379514e7 0.0
1.7583902112379514e7 -5.67230854167364e7 0.0
0.0 0.0 0.0

-1.0659758480708045e6 2.746924123397275e7 0.0
2.746924123397275e7 -2.374103995668284e6 0.0
0.0 0.0 0.0

1.1337466066469587e6 1.665117059111469e7 0.0
1.665117059111469e7 -1.7507155090351615e7 0.0
0.0 0.0 0.0

467989.45910770446 1.556609356018028e7 0.0
1.556609356018028e7 -2.4370930047586307e7 0.0
0.0 0.0 0.0

-217229.68119616667 1.9501849539842747e7 0.0
1.9501849539842747e7 6.868429108858697e6 0.0
0.0 0.0 0.0

1.88690968033671e6 2.445369977795193e7 0.0
2.445369977795193e7 -8.313855175527027e6 0.0
0.0 0.0 0.0

861445.2613791344 2.2383431685143046e7 0.0
2.2383431685143046e7 -1.0619437104005761e7 0.0
0.0 0.0 0.0

-5.771114321969689e6 1.641149946945323e7 0.0
1.641149946945323e7 -4.3761409540064916e7 0.0
0.0 0.0 0.0

-1.6241216541501684e6 2.761198310769251e7 0.0
2.761198310769251e7 1.1485057916237987e6 0.0
0.0 0.0 0.0

-3.344958688839005e6 2.269811510355244e7 0.0
2.269811510355244e7 9.57373094649079e6 0.0
0.0 0.0 0.0

-7.371310566089513e6 2.3900955608185172e7 0.0
2.3900955608185172e7 -1.1240982597902877e7 0.0
0.0 0.0 0.0

164758.21002124995 1.6025074653531194e7 0.0
1.6025074653531194e7 -2.4376475574565656e7 0.0
0.0 0.0 0.0

-1.1409044042002417e7 1.3209249021092078e7 0.0
1.3209249021092078e7 2.080732638804157e7 0.0
0.0 0.0 0.0

2.4622739206234543e6 1.8437962782700673e7 0.0
1.8437962782700673e7 1.2092348646442432e7 0.0
0.0 0.0 0.0

-1.0485369000154752e7 1.4730802238702876e7 0.0
1.4730802238702876e7 2.0672448188960977e7 0.0
0.0 0.0 0.0

-1.904192302285486e6 1.9051791542977426e7 0.0
1.9051791542977426e7 -2.3756416298336964e6 0.0
0.0 0.0 0.0

-1.862639017896525e6 2.732130095300426e7 0.0
2.732130095300426e7 2.0256987743027702e6 0.0
0.0 0.0 0.0

-2.1178952532505216e6 1.6275761762797311e7 0.0
1.6275761762797311e7 -3.0452957912464876e7 0.0
0.0 0.0 0.0

-2.815581315010825e6 2.041504071228156e7 0.0
2.041504071228156e7 2.091699379776327e7 0.0
0.0 0.0 0.0

-1.243022069947451e6 3.5385327402606316e7 0.0
3.5385327402606316e7 1.6081172375288564e6 0.0
0.0 0.0 0.0

-2.703121400209673e6 1.9456716648262996e7 0.0
1.9456716648262996e7 -3.0500906339501087e6 0.0
0.0 0.0 0.0

-630090.0265528043 2.5800157910960183e7 0.0
2.5800157910960183e7 -4.992843050949041e6 0.0
0.0 0.0 0.0

1.6287010315634748e7 2.351412044143172e7 0.0
2.351412044143172e7 1.1922668691732977e7 0.0
0.0 0.0 0.0

-2.129104503179196e6 2.694481569063993e7 0.0
2.694481569063993e7 2.7669133873782232e6 0.0
0.0 0.0 0.0

-8.924443281177178e6 1.6202639001271183e7 0.0
1.6202639001271183e7 -37133.45611644769 0.0
0.0 0.0 0.0

-1.5582656139498618e6 2.942788465159464e7 0.0
2.942788465159464e7 1.2680484024700199e6 0.0
0.0 0.0 0.0

3.793512487320656e6 2.118467285632402e6 0.0
2.118467285632402e6 -2.4910032003701307e7 0.0
0.0 0.0 0.0

3.865362161496238e6 2.1893733202635883e6 0.0
2.1893733202635883e6 -2.396903017367354e7 0.0
0.0 0.0 0.0

-442954.1447379347 2.5209182247864764e7 0.0
2.5209182247864764e7 -5.77171611467339e6 0.0
0.0 0.0 0.0

1.3356323816836998e6 1.9402742721614137e7 0.0
1.9402742721614137e7 3.0784309534594845e7 0.0
0.0 0.0 0.0

-1.0318067351378107e6 3.0315582043538675e7 0.0
3.0315582043538675e7 748512.2606366086 0.0
0.0 0.0 0.0

-1.137677404828717e7 1.164598375929868e7 0.0
1.164598375929868e7 2.746564266978461e7 0.0
0.0 0.0 0.0

-1.0055300394685775e6 3.3046324406278532e7 0.0
3.3046324406278532e7 1.0256880146932502e6 0.0
0.0 0.0 0.0

-2.9312457929893862e6 2.1317607321587116e7 0.0
2.1317607321587116e7 1.2734484689110346e7 0.0
0.0 0.0 0.0

86472.90052888496 1.792263719697659e7 0.0
1.792263719697659e7 4.942635051466614e6 0.0
0.0 0.0 0.0

1.6798635103533193e6 1.265201459101581e7 0.0
1.265201459101581e7 -2.8069557182539217e7 0.0
0.0 0.0 0.0

-3.182538625211113e6 2.6395973680462614e7 0.0
2.6395973680462614e7 3.8956700973846903e6 0.0
0.0 0.0 0.0

-9.098590293448703e6 -2.601170836898359e6 0.0
-2.601170836898359e6 2.7126508572456915e7 0.0
0.0 0.0 0.0

-3.785433304678105e6 1.630592119502929e7 0.0
1.630592119502929e7 4.061652980377765e7 0.0
0.0 0.0 0.0

-5.138105167577649e6 1.5989508897525163e7 0.0
1.5989508897525163e7 -4.929798811385996e7 0.0
0.0 0.0 0.0

-1.0242784508897698e7 1.2549573943516364e7 0.0
1.2549573943516364e7 3.096251732661327e7 0.0
0.0 0.0 0.0

6.137256250198558e6 2.5212071690025527e7 0.0
2.5212071690025527e7 -5.889403000744423e6 0.0
0.0 0.0 0.0

1.8063987714702971e6 1.3217291661829766e7 0.0
1.3217291661829766e7 -2.4912500489025727e7 0.0
0.0 0.0 0.0

-2.9326002237412618e6 1.908929609942587e7 0.0
1.908929609942587e7 -2.0163206429832082e6 0.0
0.0 0.0 0.0

-848458.8363053346 2.6968948824599627e7 0.0
2.6968948824599627e7 -3.2109652193322014e6 0.0
0.0 0.0 0.0

-748841.1790905171 1.823415067270781e7 0.0
1.823415067270781e7 -5.5044818126061e6 0.0
0.0 0.0 0.0

-1.0970325179988647e7 1.280034891101017e7 0.0
1.280034891101017e7 2.4801325206853308e7 0.0
0.0 0.0 0.0

-9.650374035750622e6 1.4556615362639954e7 0.0
1.4556615362639954e7 3.0024684128364936e7 0.0
0.0 0.0 0.0

-721192.6983993228 2.6395599663815502e7 0.0
2.6395599663815502e7 -4.1078323507562755e6 0.0
0.0 0.0 0.0

-7.734534673557163e6 1.4848033931126669e7 0.0
1.4848033931126669e7 1.8478479333970238e7 0.0
0.0 0.0 0.0

2.9865925380436704e6 4.431090560343131e6 0.0
4.431090560343131e6 -3.988703079970457e7 0.0
0.0 0.0 0.0

-6.272794033583304e6 1.7474716629539125e7 0.0
1.7474716629539125e7 1.465162358000306e7 0.0
0.0 0.0 0.0

-1.6446219352205836e6 1.812852745456264e7 0.0
1.812852745456264e7 -1.135186025812282e7 0.0
0.0 0.0 0.0

531690.8972997383 1.9072998315448847e7 0.0
1.9072998315448847e7 1.480396975240986e6 0.0
0.0 0.0 0.0

-3.5145863804807332e6 2.0674420249201696e7 0.0
2.0674420249201696e7 -1.2597957585963199e7 0.0
0.0 0.0 0.0

-1.7841137535223188e6 1.8860833787379235e7 0.0
1.8860833787379235e7 -7.57565726683241e6 0.0
0.0 0.0 0.0

465406.05513032805 1.6059546868985618e7 0.0
1.6059546868985618e7 -2.2916791934279308e7 0.0
0.0 0.0 0.0

2.298694843937667e6 8.352707998227018e6 0.0
8.352707998227018e6 -2.9163525442084927e7 0.0
0.0 0.0 0.0

-1.248882060678129e6 1.8167835062204488e7 0.0
1.8167835062204488e7 -8.438760276450608e6 0.0
0.0 0.0 0.0

1.7335805477241864e6 1.1025920163749259e7 0.0
1.1025920163749259e7 -2.081254116406816e7 0.0
0.0 0.0 0.0

3.7129233633776978e6 3.9027751078481697e6 0.0
3.9027751078481697e6 -1.925680455589366e7 0.0
0.0 0.0 0.0

-2.823093774545123e6 2.7276462834908176e7 0.0
2.7276462834908176e7 2.2207390569506334e6 0.0
0.0 0.0 0.0

-1.117948583187739e6 1.3239319330757441e7 0.0
1.3239319330757441e7 -8.439486537021166e6 0.0
0.0 0.0 0.0

-3.6471110602804637e6 2.0738587909043677e7 0.0
2.0738587909043677e7 1.839196711712313e7 0.0
0.0 0.0 0.0

-7.1785697698525665e6 -5.988962662390014e6 0.0
-5.988962662390014e6 1.6959646819843337e7 0.0
0.0 0.0 0.0

3.955622642987603e6 2.056467789117878e7 0.0
2.056467789117878e7 2.22141715560068e6 0.0
0.0 0.0 0.0

-4.779762049106734e6 2.100719206004532e7 0.0
2.100719206004532e7 -1.3709044081779495e7 0.0
0.0 0.0 0.0

2.3079370568518545e6 8.868578028596425e6 0.0
8.868578028596425e6 -2.430408914640964e7 0.0
0.0 0.0 0.0

-1.0519867826599957e8 1.7649686697978184e7 0.0
1.7649686697978184e7 4.61364650253772e6 0.0
0.0 0.0 0.0

-5.170664909045418e6 1.9803788973979224e7 0.0
1.9803788973979224e7 2.2044140512226876e7 0.0
0.0 0.0 0.0

775592.1750990609 1.928339094088825e7 0.0
1.928339094088825e7 -1.4966814491346398e7 0.0
0.0 0.0 0.0

-1.3612985651991505e6 1.725365764993417e7 0.0
1.725365764993417e7 -9.237834308442574e6 0.0
0.0 0.0 0.0

1.269092263034366e6 1.4380465003988307e7 0.0
1.4380465003988307e7 -2.5491431727983717e7 0.0
0.0 0.0 0.0

1.2666107265252774e6 1.9029255347843565e7 0.0
1.9029255347843565e7 1.2179755272640893e7 0.0
0.0 0.0 0.0

923159.3335192613 1.3055656225729035e7 0.0
1.3055656225729035e7 -3.178868849095286e7 0.0
0.0 0.0 0.0

1.3897429752713079e6 1.937129880517398e7 0.0
1.937129880517398e7 1.4159090219542742e7 0.0
0.0 0.0 0.0

305839.94684511144 1.744348087610796e7 0.0
1.744348087610796e7 -1.669196557197941e7 0.0
0.0 0.0 0.0

2.985618308218017e6 8.623084687802047e6 0.0
8.623084687802047e6 -2.5822197599542446e7 0.0
0.0 0.0 0.0

2.48274378441328e6 2.492793166341873e6 0.0
2.492793166341873e6 -4.598352688601385e7 0.0
0.0 0.0 0.0

4.1431555963223004e6 2.6903944785929643e7 0.0
2.6903944785929643e7 -6.126365802146755e6 0.0
0.0 0.0 0.0

1.4042541639618017e6 1.2796806059359765e7 0.0
1.2796806059359765e7 -2.993017307350244e7 0.0
0.0 0.0 0.0

-4.0999408939529997e6 2.7924600479349952e7 0.0
2.7924600479349952e7 6.1888915699133845e6 0.0
0.0 0.0 0.0

-7.934221279734185e6 2.2521730012140185e7 0.0
2.2521730012140185e7 1.7700311754825194e6 0.0
0.0 0.0 0.0

2.4154804808902834e6 8.136678077674138e6 0.0
8.136678077674138e6 -1.2142186278220292e7 0.0
0.0 0.0 0.0

-1.6501989545611418e6 3.632336422608195e7 0.0
3.632336422608195e7 1.9393282279841288e6 0.0
0.0 0.0 0.0

2.7568899795861486e6 9.667108983494567e6 0.0
9.667108983494567e6 -2.2992901375213858e7 0.0
0.0 0.0 0.0

383804.23748989217 1.81341266065813e7 0.0
1.81341266065813e7 4.150772420548959e7 0.0
0.0 0.0 0.0

-778956.9520718557 1.9680736608935323e7 0.0
1.9680736608935323e7 1.880907299960541e6 0.0
0.0 0.0 0.0

-7.186156267633645e6 2.9085073138636313e7 0.0
2.9085073138636313e7 6.429360481815318e6 0.0
0.0 0.0 0.0

-1.0049208008427784e7 1.404974832496338e7 0.0
1.404974832496338e7 2.2030205551344212e7 0.0
0.0 0.0 0.0

1.0092834224358797e6 1.4036291997291652e7 0.0
1.4036291997291652e7 -2.5563724601476707e7 0.0
0.0 0.0 0.0

-2.8392845918078967e6 1.154430895094077e7 0.0
1.154430895094077e7 -1.959098708353857e6 0.0
0.0 0.0 0.0

-984335.2372331244 1.945643323533058e7 0.0
1.945643323533058e7 -6.633785775105825e6 0.0
0.0 0.0 0.0

1.315082302593986e7 2.1338198668248538e7 0.0
2.1338198668248538e7 3.210350745026074e6 0.0
0.0 0.0 0.0

712258.9718603967 1.9245734148968596e7 0.0
1.9245734148968596e7 -1.6435323925311133e7 0.0
0.0 0.0 0.0

751477.6093061706 9.345419291837974e6 0.0
9.345419291837974e6 -6.330895925440235e6 0.0
0.0 0.0 0.0

695965.0924629252 1.5061180480764855e7 0.0
1.5061180480764855e7 -2.4295929953565538e7 0.0
0.0 0.0 0.0

-8.981558438092317e6 -1.8258544407066598e6 0.0
-1.8258544407066598e6 3.2930193548114005e7 0.0
0.0 0.0 0.0

-3.7882834895819174e6 2.1546698970818415e7 0.0
2.1546698970818415e7 1.6207619508351706e7 0.0
0.0 0.0 0.0

-1.0636470651746161e7 1.4991381798323914e7 0.0
1.4991381798323914e7 2.4535989113037862e7 0.0
0.0 0.0 0.0

-1.6739138196197186e7 2.6028475282854762e7 0.0
2.6028475282854762e7 -6.734290576702883e6 0.0
0.0 0.0 0.0

-5.292636014933329e6 1.6760134477806214e7 0.0
1.6760134477806214e7 -4.186948941743988e7 0.0
0.0 0.0 0.0

-3.1725892489127647e6 2.52522513360016e7 0.0
2.52522513360016e7 8.110409372505311e6 0.0
0.0 0.0 0.0

-4.528063187555766e6 2.6338554963743445e7 0.0
2.6338554963743445e7 7.7584396566275805e6 0.0
0.0 0.0 0.0

1.7723401614254476e6 2.257614565750927e7 0.0
2.257614565750927e7 -1.0220782787892487e7 0.0
0.0 0.0 0.0

-3.370507172577476e6 1.5243949936378669e7 0.0
1.5243949936378669e7 -4.333940069120822e7 0.0
0.0 0.0 0.0

-3.0897874800237743e6 2.0297847423622243e7 0.0
2.0297847423622243e7 1.8974903510584634e7 0.0
0.0 0.0 0.0

-8.73385019199538e6 5.762134308389331e6 0.0
5.762134308389331e6 4.396182646334281e7 0.0
0.0 0.0 0.0

2.359684203358927e6 2.864331823254095e6 0.0
2.864331823254095e6 -7.329787488001149e6 0.0
0.0 0.0 0.0

-1.3105965590260094e6 1.7555174330223728e7 0.0
1.7555174330223728e7 -2.2373744979255766e7 0.0
0.0 0.0 0.0

1.6898326668326599e6 2.3662328681047272e7 0.0
2.3662328681047272e7 -9.175441491264967e6 0.0
0.0 0.0 0.0

-1.9082096241752028e6 2.0035393947881505e7 0.0
2.0035393947881505e7 -2.123140869996628e6 0.0
0.0 0.0 0.0

-608284.4392200154 1.5996563053148136e7 0.0
1.5996563053148136e7 -1.1745445391987896e7 0.0
0.0 0.0 0.0

-8.388991857345223e6 1.7657289869563043e7 0.0
1.7657289869563043e7 -3.3730108851898335e7 0.0
0.0 0.0 0.0

-1.0575632863381686e7 1.353430927336881e7 0.0
1.353430927336881e7 2.867945556599014e7 0.0
0.0 0.0 0.0

77792.17713611026 3.009952089321856e7 0.0
3.009952089321856e7 -692946.8334554243 0.0
0.0 0.0 0.0

-2.3925646754758634e7 2.6445043902480282e7 0.0
2.6445043902480282e7 -1.9857428100758037e6 0.0
0.0 0.0 0.0

4.337071431816884e6 2.112711509790855e7 0.0
2.112711509790855e7 2.4839939705235204e6 0.0
0.0 0.0 0.0

1.7776059032368725e6 7.965627881481585e6 0.0
7.965627881481585e6 -1.4186766478415206e7 0.0
0.0 0.0 0.0

-2.111469433269158e6 1.9647349111566484e7 0.0
1.9647349111566484e7 -1.120536311393858e6 0.0
0.0 0.0 0.0

-9.926186211787423e6 1.0842503710405273e7 0.0
1.0842503710405273e7 3.474408996156893e7 0.0
0.0 0.0 0.0

-5.374109621832246e6 2.9739086223572664e7 0.0
2.9739086223572664e7 5.402668780575557e6 0.0
0.0 0.0 0.0

-3.7087013547215275e6 2.0344477812606383e7 0.0
2.0344477812606383e7 1.9708254376099274e7 0.0
0.0 0.0 0.0

-1.9677102247856213e6 2.816467168307387e7 0.0
2.816467168307387e7 -42137.06813713303 0.0
0.0 0.0 0.0

481349.93912359234 1.6874544014732487e7 0.0
1.6874544014732487e7 -1.785560862130458e7 0.0
0.0 0.0 0.0

-9.461968741387108e6 1.2732392712490272e7 0.0
1.2732392712490272e7 3.418275801503205e7 0.0
0.0 0.0 0.0

82159.90484367497 1.7761006368686114e7 0.0
1.7761006368686114e7 -2.001463200979402e7 0.0
0.0 0.0 0.0

-6.632912210283065e6 2.2006309508406244e7 0.0
2.2006309508406244e7 -4.1411318117408967e6 0.0
0.0 0.0 0.0

52721.584863022086 3.063241458336042e7 0.0
3.063241458336042e7 -797172.6203340278 0.0
0.0 0.0 0.0

3.203404958968969e6 4.970499682436561e6 0.0
4.970499682436561e6 -2.0418103332199514e7 0.0
0.0 0.0 0.0

1.928345776877895e6 2.207631941665336e7 0.0
2.207631941665336e7 -9.052192798778461e6 0.0
0.0 0.0 0.0

-2.9219377318930347e6 2.516139650214419e7 0.0
2.516139650214419e7 7.295434605461048e6 0.0
0.0 0.0 0.0

-1.075286153062669e7 1.3152009471613178e7 0.0
1.3152009471613178e7 2.3078275814744156e7 0.0
0.0 0.0 0.0

-5.653332636575368e6 2.321609960851416e7 0.0
2.321609960851416e7 -1.0001844639994357e7 0.0
0.0 0.0 0.0

-9.729864843920687e6 1.548286485069869e7 0.0
1.548286485069869e7 2.7887088123628635e7 0.0
0.0 0.0 0.0

-2.5282116080643237e6 6.38937375204678e6 0.0
6.38937375204678e6 5.887816171896939e6 0.0
0.0 0.0 0.0

-2.8030028877095045e6 2.4447676703574676e7 0.0
2.4447676703574676e7 7.459635330905953e6 0.0
0.0 0.0 0.0

-1.1650634866872568e7 1.2095384011100857e7 0.0
1.2095384011100857e7 2.5668434623335358e7 0.0
0.0 0.0 0.0

-4.3525420958624575e6 2.0486728593811866e7 0.0
2.0486728593811866e7 1.271452850228528e7 0.0
0.0 0.0 0.0

4.314609477227695e6 1.890718510277782e7 0.0
1.890718510277782e7 3.186064277533086e7 0.0
0.0 0.0 0.0

-2.3119344806281514e6 1.5144046205209393e7 0.0
1.5144046205209393e7 -3.812206958905484e7 0.0
0.0 0.0 0.0

-6.674548630349954e6 -6.26824259319471e6 0.0
-6.26824259319471e6 1.5476060977632359e7 0.0
0.0 0.0 0.0

8.3624704297769405e6 2.6818409446412306e7 0.0
2.6818409446412306e7 -5.259531576042805e6 0.0
0.0 0.0 0.0

-1.055508154618453e7 1.1575109689429728e7 0.0
1.1575109689429728e7 3.0382171624479093e7 0.0
0.0 0.0 0.0

373736.3482219968 1.3782205359181158e7 0.0
1.3782205359181158e7 -1.4514429420185445e7 0.0
0.0 0.0 0.0

-2.6476687052842714e6 2.0409286811499376e7 0.0
2.0409286811499376e7 1.6483972646607928e7 0.0
0.0 0.0 0.0

-915395.519318084 1.849796539873244e7 0.0
1.849796539873244e7 -7.004035605662703e6 0.0
0.0 0.0 0.0

-4.743640734781818e6 2.1089241518122185e7 0.0
2.1089241518122185e7 1.7812772620860428e7 0.0
0.0 0.0 0.0

-27408.883168689907 1.1532207889440566e7 0.0
1.1532207889440566e7 -7.946319332749588e6 0.0
0.0 0.0 0.0

-6.191024728991399e6 2.4175279023715533e7 0.0
2.4175279023715533e7 6.992927135716919e6 0.0
0.0 0.0 0.0

-4.323412232963699e6 2.0692611580698915e7 0.0
2.0692611580698915e7 1.3611277630417233e7 0.0
0.0 0.0 0.0

1.4950211346728052e6 2.1850750042076614e7 0.0
2.1850750042076614e7 -1.0467863013194572e7 0.0
0.0 0.0 0.0

-3.358919342336685e6 2.5395866948902395e7 0.0
2.5395866948902395e7 5.8095317599930875e6 0.0
0.0 0.0 0.0

-948896.3167068723 3.0958491549844097e7 0.0
3.0958491549844097e7 868745.7684153228 0.0
0.0 0.0 0.0

-1.8161232560674679e6 1.522298270398726e7 0.0
1.522298270398726e7 -3.313026947182836e7 0.0
0.0 0.0 0.0

1.0843931546220507e6 2.698594004367825e6 0.0
2.698594004367825e6 -1.9716801507671643e6 0.0
0.0 0.0 0.0

-8.068519149780726e6 790199.5227687448 0.0
790199.5227687448 9.911958176495643e6 0.0
0.0 0.0 0.0

1.8688173342495337e6 4.097583568096822e6 0.0
4.097583568096822e6 -5.7119687062021345e7 0.0
0.0 0.0 0.0

-82635.85879219463 2.355140933305729e7 0.0
2.355140933305729e7 -6.925623947440882e6 0.0
0.0 0.0 0.0

-4.246677957987544e6 2.027940681689579e7 0.0
2.027940681689579e7 2.0270665224244997e7 0.0
0.0 0.0 0.0

-1.136041467815102e7 1.3645914419955516e7 0.0
1.3645914419955516e7 2.3149210265992835e7 0.0
0.0 0.0 0.0

-2.201509698094022e6 3.737408262961416e7 0.0
3.737408262961416e7 2.2139063503572205e6 0.0
0.0 0.0 0.0

-1.107483685335283e7 9.788846901463645e6 0.0
9.788846901463645e6 3.0762811497544948e7 0.0
0.0 0.0 0.0

3.956177069398424e7 6.558959539774911e7 0.0
6.558959539774911e7 -5.483157122130191e6 0.0
0.0 0.0 0.0

296626.1838693358 2.1227752172574222e7 0.0
2.1227752172574222e7 -1.2378139955378035e7 0.0
0.0 0.0 0.0

1.3805368650187552e6 1.5493663936736155e7 0.0
1.5493663936736155e7 -1.986833284678748e7 0.0
0.0 0.0 0.0

-3.66018310207099e6 2.1120958785539616e7 0.0
2.1120958785539616e7 1.6906457019478835e7 0.0
0.0 0.0 0.0

-1.0321194054277344e7 1.2140673204102466e7 0.0
1.2140673204102466e7 3.210995942803745e7 0.0
0.0 0.0 0.0

562158.7355246642 2.2984646225469902e7 0.0
2.2984646225469902e7 -9.112660283482244e6 0.0
0.0 0.0 0.0

809421.7059909371 1.9387245259049963e7 0.0
1.9387245259049963e7 4.332297277822017e6 0.0
0.0 0.0 0.0

3.0095147711289395e6 2.5980635856330427e6 0.0
2.5980635856330427e6 -3.632533646373529e7 0.0
0.0 0.0 0.0

-9.026216356267232e6 8.723431993615435e6 0.0
8.723431993615435e6 1.6483774187271735e7 0.0
0.0 0.0 0.0

-3.6356133297603843e6 4.031185752361796e7 0.0
4.031185752361796e7 3.4197039232343175e6 0.0
0.0 0.0 0.0

-4.881244128897179e6 2.0140364243070755e7 0.0
2.0140364243070755e7 2.1880151824955337e7 0.0
0.0 0.0 0.0

-1.8644523669735212e6 1.80842252318018e7 0.0
1.80842252318018e7 -1.856104817615795e7 0.0
0.0 0.0 0.0

7.157162679725472e6 2.0967333844203558e7 0.0
2.0967333844203558e7 7.358155345293949e6 0.0
0.0 0.0 0.0

-1.0233867367113404e7 4.0167915861002025e6 0.0
4.0167915861002025e6 1.629396585112274e7 0.0
0.0 0.0 0.0

-5.770926240668137e6 1.1959396313152388e7 0.0
1.1959396313152388e7 6.320567513055e6 0.0
0.0 0.0 0.0

-1.9785320622599223e6 1.803427046024147e7 0.0
1.803427046024147e7 -1.4222259910528643e7 0.0
0.0 0.0 0.0

177045.70178726874 1.7022421767979067e7 0.0
1.7022421767979067e7 -1.1616809088223018e7 0.0
0.0 0.0 0.0

-6.338462918028602e6 1.9203133701022964e7 0.0
1.9203133701022964e7 1.8168470756755915e7 0.0
0.0 0.0 0.0

-1.681580317021072e6 1.7272118367049217e7 0.0
1.7272118367049217e7 -2.398246898952364e7 0.0
0.0 0.0 0.0

1.6207462350692656e6 1.3234833922982806e7 0.0
1.3234833922982806e7 -2.6622539294946708e7 0.0
0.0 0.0 0.0

-3.4531569722974612e6 2.528700779739271e7 0.0
2.528700779739271e7 8.771970144372867e6 0.0
0.0 0.0 0.0

703374.5365094142 1.7435308423187353e7 0.0
1.7435308423187353e7 -2.0208367672669146e7 0.0
0.0 0.0 0.0

-1.0407154579964047e7 1.4268443622745082e7 0.0
1.4268443622745082e7 2.6065420329855625e7 0.0
0.0 0.0 0.0

3.4449565070449654e6 5.326127340766879e6 0.0
5.326127340766879e6 -1.4718412038543042e7 0.0
0.0 0.0 0.0

-3.2381373125393044e7 3.227684260529912e7 0.0
3.227684260529912e7 -1.1680942582337048e7 0.0
0.0 0.0 0.0

1.4253535003746832e6 7.420696437211822e6 0.0
7.420696437211822e6 -1.1261796978121443e7 0.0
0.0 0.0 0.0

3.702845631973177e6 2.7225380719174244e6 0.0
2.7225380719174244e6 -1.4459915687851565e7 0.0
0.0 0.0 0.0

-4.854410035179004e6 2.620663324025808e7 0.0
2.620663324025808e7 8.242494284493996e6 0.0
0.0 0.0 0.0

2.0819277074506197e6 1.822159983122384e7 0.0
1.822159983122384e7 6.939759563433384e6 0.0
0.0 0.0 0.0

4.61699286380675e6 2.1609388339388415e7 0.0
2.1609388339388415e7 -2.088664126977134e6 0.0
0.0 0.0 0.0

-5.1049547484602e6 1.848698038694682e7 0.0
1.848698038694682e7 2.813945525666043e7 0.0
0.0 0.0 0.0

-2.2749672067897897e6 1.8799122224949345e7 0.0
1.8799122224949345e7 3.0508410655042887e7 0.0
0.0 0.0 0.0

1.1239799732362334e7 1.8346678289305076e7 0.0
1.8346678289305076e7 5.408573456894624e7 0.0
0.0 0.0 0.0

190821.79983638506 1.8521499704178784e7 0.0
1.8521499704178784e7 -3.843287643079247e6 0.0
0.0 0.0 0.0

-4.0268764607981946e6 2.1028889178350333e7 0.0
2.1028889178350333e7 1.7697579334187217e7 0.0
0.0 0.0 0.0

-5.353880368095865e6 1.817054016481917e7 0.0
1.817054016481917e7 1.2845201301508369e7 0.0
0.0 0.0 0.0

-2.2659521459121504e6 1.7956234307424836e7 0.0
1.7956234307424836e7 -1.709442780962935e7 0.0
0.0 0.0 0.0

-3.6120534919534763e6 2.5585493655573126e7 0.0
2.5585493655573126e7 6.609489446619193e6 0.0
0.0 0.0 0.0

-1.0764883399993546e7 1.2268843717782445e7 0.0
1.2268843717782445e7 2.994042481596097e7 0.0
0.0 0.0 0.0

1.2652257971587872e7 2.52828672518949e7 0.0
2.52828672518949e7 -3.825558190914982e6 0.0
0.0 0.0 0.0

652213.2396934889 2.1712681132244945e7 0.0
2.1712681132244945e7 -1.1259332757670753e7 0.0
0.0 0.0 0.0

2.6244849023278896e6 7.025776744886472e6 0.0
7.025776744886472e6 -2.4121392076365728e7 0.0
0.0 0.0 0.0

4.4297470048593525e6 2.344517562644822e7 0.0
2.344517562644822e7 -6.900334944987171e6 0.0
0.0 0.0 0.0

-814921.9306493859 2.7000253621932264e7 0.0
2.7000253621932264e7 -1.2915775857696484e6 0.0
0.0 0.0 0.0

-7.015548773025865e6 1.8561832059801538e7 0.0
1.8561832059801538e7 -2.3385168916044243e7 0.0
0.0 0.0 0.0

8.746910002317648e6 2.025479043978714e7 0.0
2.025479043978714e7 2.915637570337535e7 0.0
0.0 0.0 0.0

-8.411976139319984e6 -255739.53179079355 0.0
-255739.53179079355 4.27256344963202e7 0.0
0.0 0.0 0.0

1.4598414414245444e6 2.101430007687694e7 0.0
2.101430007687694e7 6.784971114792485e6 0.0
0.0 0.0 0.0

-8.813695825958949e6 -1.4625601516545787e6 0.0
-1.4625601516545787e6 3.503780965121671e7 0.0
0.0 0.0 0.0

423462.2260200998 2.7515678468014866e7 0.0
2.7515678468014866e7 -3.1646601905432134e6 0.0
0.0 0.0 0.0

3.8563705373289334e6 2.5921483302162908e7 0.0
2.5921483302162908e7 -6.650714151393257e6 0.0
0.0 0.0 0.0

-2.943060466730644e6 3.865383989585306e7 0.0
3.865383989585306e7 2.387507850068606e6 0.0
0.0 0.0 0.0

8.759328685522e6 1.9273865705366924e7 0.0
1.9273865705366924e7 8.2944130066912975e6 0.0
0.0 0.0 0.0

-1.0296442998449014e7 1.120822793227428e7 0.0
1.120822793227428e7 3.2480960523490928e7 0.0
0.0 0.0 0.0

188610.37165392807 2.806369981120489e7 0.0
2.806369981120489e7 -2.2545611790460763e6 0.0
0.0 0.0 0.0

-4.0425861633539274e6 2.140993231762282e7 0.0
2.140993231762282e7 1.209485982447958e7 0.0
0.0 0.0 0.0

-3.3102800348009625e6 2.4131126591101803e7 0.0
2.4131126591101803e7 6.970552878932312e6 0.0
0.0 0.0 0.0

1.7511221317261122e6 8.999966319449391e6 0.0
8.999966319449391e6 -4.123735752929241e7 0.0
0.0 0.0 0.0

-3.7582669566917396e6 2.5182576797510322e7 0.0
2.5182576797510322e7 9.501737097601902e6 0.0
0.0 0.0 0.0

1.5325856690104162e7 1.642976294585416e7 0.0
1.642976294585416e7 4.227975610855729e6 0.0
0.0 0.0 0.0

1.7181981769636143e6 1.3820157652736375e7 0.0
1.3820157652736375e7 -2.360584021731928e7 0.0
0.0 0.0 0.0

-6.712460323842876e6 2.8360434402732644e6 0.0
2.8360434402732644e6 6.031849422342196e7 0.0
0.0 0.0 0.0

-1.1537534286606328e6 2.9114198597753316e7 0.0
2.9114198597753316e7 593731.8263930812 0.0
0.0 0.0 0.0

2.9535863684176216e6 2.1281313652061787e7 0.0
2.1281313652061787e7 6.48044161899631e6 0.0
0.0 0.0 0.0

-8.813557687326606e7 8.045220537052903e7 0.0
8.045220537052903e7 -1.188093230818992e7 0.0
0.0 0.0 0.0

3.305579652862693e6 4.0891046998357293e6 0.0
4.0891046998357293e6 -1.9564774393682145e7 0.0
0.0 0.0 0.0

-2.0774688520913054e6 2.0611899868526354e7 0.0
2.0611899868526354e7 -904878.1479044801 0.0
0.0 0.0 0.0

-1.6660870655835187e7 2.7302700022394497e7 0.0
2.7302700022394497e7 3.251791715931748e6 0.0
0.0 0.0 0.0

-340261.2822940927 1.9939977312648796e7 0.0
1.9939977312648796e7 -1.4472503267455703e7 0.0
0.0 0.0 0.0

417624.1680288082 2.1145302030312944e7 0.0
2.1145302030312944e7 -1.2836248655238608e7 0.0
0.0 0.0 0.0

1.055579619700284e7 2.2171380643646058e7 0.0
2.2171380643646058e7 772838.8350957124 0.0
0.0 0.0 0.0

-3.0728539948487217e6 3.3071062507559527e7 0.0
3.3071062507559527e7 2.9034041606856724e6 0.0
0.0 0.0 0.0

-3.7237385184246167e6 2.1052766827218745e7 0.0
2.1052766827218745e7 -1.2157896768841328e7 0.0
0.0 0.0 0.0

2.6589306866195947e6 5.093165353453837e6 0.0
5.093165353453837e6 -4.381360445369914e7 0.0
0.0 0.0 0.0

-3.0181880254780058e7 2.9535544169179138e7 0.0
2.9535544169179138e7 -7.666836318959353e6 0.0
0.0 0.0 0.0

-3.3823199151075557e6 2.0781986306140024e7 0.0
2.0781986306140024e7 1.3180065297290497e7 0.0
0.0 0.0 0.0

3.5116426031414703e6 2.5018431161108468e7 0.0
2.5018431161108468e7 -7.202818155273286e6 0.0
0.0 0.0 0.0

-269040.37962726876 1.8236401125278827e7 0.0
1.8236401125278827e7 3.896244331966263e7 0.0
0.0 0.0 0.0

1.3847454659735987e7 2.3867788081096306e7 0.0
2.3867788081096306e7 -2.726272899154121e6 0.0
0.0 0.0 0.0

-3.9906179499712223e6 2.3509128429844834e7 0.0
2.3509128429844834e7 1.2281364700354066e7 0.0
0.0 0.0 0.0

-463671.43517786777 1.775239051010544e7 0.0
1.775239051010544e7 -1.2811075254001494e7 0.0
0.0 0.0 0.0

6.831291037884296e6 1.1927929633374572e7 0.0
1.1927929633374572e7 4.192978782867432e6 0.0
0.0 0.0 0.0

2.6196030842212364e6 2.20994752177701e7 0.0
2.20994752177701e7 -7.553951743506518e6 0.0
0.0 0.0 0.0

-5.189778582588134e6 1.9474800769644063e7 0.0
1.9474800769644063e7 2.436610796814302e7 0.0
0.0 0.0 0.0

-5.610977023568202e6 6.339623135847913e6 0.0
6.339623135847913e6 6.318278422337941e7 0.0
0.0 0.0 0.0

-6.098327346273039e6 943333.4261451781 0.0
943333.4261451781 6.6306795778917685e7 0.0
0.0 0.0 0.0

-650657.20723713 1.966475420569319e7 0.0
1.966475420569319e7 -1.1441436447195051e7 0.0
0.0 0.0 0.0

607479.6059390176 2.080364447784952e7 0.0
2.080364447784952e7 -1.231600511286596e7 0.0
0.0 0.0 0.0

566621.7842379911 2.1100831934981365e7 0.0
2.1100831934981365e7 -1.291962769084725e7 0.0
0.0 0.0 0.0

-1.2614576058446113e7 2.394808286005312e7 0.0
2.394808286005312e7 -3.5840042533347225e6 0.0
0.0 0.0 0.0

1.917786588294482e7 2.1750367931075096e7 0.0
2.1750367931075096e7 1.0351933494092263e7 0.0
0.0 0.0 0.0

-5.494819386288639e6 2.0227137197760694e7 0.0
2.0227137197760694e7 2.0786805159627207e7 0.0
0.0 0.0 0.0

770244.1529889051 2.103123662553982e7 0.0
2.103123662553982e7 -1.2840909580043193e7 0.0
0.0 0.0 0.0

-784778.7366369413 1.694555453575537e7 0.0
1.694555453575537e7 -1.1367150779338708e7 0.0
0.0 0.0 0.0

-9.458463381764375e6 -2.8100547830090504e6 0.0
-2.8100547830090504e6 2.359905430995918e7 0.0
0.0 0.0 0.0

-145386.71739683114 1.4044232745071761e7 0.0
1.4044232745071761e7 -3.2082305598182604e7 0.0
0.0 0.0 0.0

-9.95323226956857e6 950741.5264202242 0.0
950741.5264202242 3.3469712295481898e7 0.0
0.0 0.0 0.0

-8.7325315933977e6 -4.3404529114435045e6 0.0
-4.3404529114435045e6 2.6487989044426892e7 0.0
0.0 0.0 0.0

-8.702439911977962e6 -4.652603857406674e6 0.0
-4.652603857406674e6 2.5696413822513383e7 0.0
0.0 0.0 0.0

-4.911007989858895e6 1.1775460985847779e7 0.0
1.1775460985847779e7 9.307493427547837e6 0.0
0.0 0.0 0.0

647301.0008023055 1.628672222557639e7 0.0
1.628672222557639e7 -1.905859280697105e7 0.0
0.0 0.0 0.0

417003.3207260445 1.3892084729423504e7 0.0
1.3892084729423504e7 -3.1841348821345054e7 0.0
0.0 0.0 0.0

-1.198467165367618e6 1.98941551120395e7 0.0
1.98941551120395e7 -5.063873582496265e6 0.0
0.0 0.0 0.0

2.4378770551739754e6 2.223670532942e7 0.0
2.223670532942e7 -8.948711829751655e6 0.0
0.0 0.0 0.0

5.033478196772204e6 2.1458338174914278e7 0.0
2.1458338174914278e7 432462.4506946944 0.0
0.0 0.0 0.0

-464723.9776755859 2.552076698546582e7 0.0
2.552076698546582e7 -3.9372361183689786e6 0.0
0.0 0.0 0.0

5.518883047220872e7 2.5894506886921253e7 0.0
2.5894506886921253e7 8.185332648893876e6 0.0
0.0 0.0 0.0

7.663560540596323e6 1.5747548508026926e7 0.0
1.5747548508026926e7 9.42319526358244e6 0.0
0.0 0.0 0.0

3.9708329981397092e6 2.1854440804519508e7 0.0
2.1854440804519508e7 -4.163808481986679e6 0.0
0.0 0.0 0.0

4.633733468737748e6 2.611953105529125e7 0.0
2.611953105529125e7 -6.340639164479295e6 0.0
0.0 0.0 0.0

-378544.1110033122 2.8932887731420234e7 0.0
2.8932887731420234e7 -765055.5551193261 0.0
0.0 0.0 0.0

547656.5654673846 1.8269360398538962e7 0.0
1.8269360398538962e7 -1.894569404039145e7 0.0
0.0 0.0 0.0

-1.8244424178459395e7 2.6487919743576955e7 0.0
2.6487919743576955e7 565010.5115794418 0.0
0.0 0.0 0.0

-5.655330244637089e6 2.673033400832252e7 0.0
2.673033400832252e7 7.768187070441902e6 0.0
0.0 0.0 0.0

3.832239293034995e6 2.178176872719711e6 0.0
2.178176872719711e6 -2.211189683538668e7 0.0
0.0 0.0 0.0

-1.239398668223387e6 2.679990357962087e7 0.0
2.679990357962087e7 -2.559337199269529e6 0.0
0.0 0.0 0.0

-5.705337809928823e6 4.185705468418331e7 0.0
4.185705468418331e7 3.678115007888181e6 0.0
0.0 0.0 0.0

-2.3093317718813214e6 1.5588800248032995e7 0.0
1.5588800248032995e7 -7.015181505044283e6 0.0
0.0 0.0 0.0

1.5679685082502998e6 1.3818854494193628e7 0.0
1.3818854494193628e7 -2.5221305163876016e7 0.0
0.0 0.0 0.0

879485.4529638886 1.3515759286185209e7 0.0
1.3515759286185209e7 -3.0208469311746433e7 0.0
0.0 0.0 0.0

-370295.89426846616 1.4815783628840974e7 0.0
1.4815783628840974e7 -3.17935399913722e7 0.0
0.0 0.0 0.0

1.1314982577218117e7 3.676897292027938e7 0.0
3.676897292027938e7 -4.478378135736243e6 0.0
0.0 0.0 0.0

846345.8861205578 2.08584509906434e7 0.0
2.08584509906434e7 -1.269707320418298e7 0.0
0.0 0.0 0.0

5.658172456167727e6 1.947839093692478e7 0.0
1.947839093692478e7 3.268048557916827e7 0.0
0.0 0.0 0.0

-2.323565430348417e7 2.127701446162077e7 0.0
2.127701446162077e7 4.956300204887887e6 0.0
0.0 0.0 0.0

-6.828315908688612e7 3.417649318059073e7 0.0
3.417649318059073e7 -6.014305805856636e6 0.0
0.0 0.0 0.0

1.7667198317348808e6 6.423008818395792e6 0.0
6.423008818395792e6 -5.54520722734598e7 0.0
0.0 0.0 0.0

3.104016083072208e6 2.2076307283005193e7 0.0
2.2076307283005193e7 -6.001323049498994e6 0.0
0.0 0.0 0.0

4.032349660686246e6 2.4273861587054007e7 0.0
2.4273861587054007e7 -7.137552941079454e6 0.0
0.0 0.0 0.0

3.779338250635758e6 2.276060946943313e6 0.0
2.276060946943313e6 -2.0883363929599356e7 0.0
0.0 0.0 0.0

-1.6746413023120586e7 2.496739853148179e7 0.0
2.496739853148179e7 -5.700452290275175e6 0.0
0.0 0.0 0.0

-1.1292984406027403e6 1.9467120310043752e7 0.0
1.9467120310043752e7 2.1738630865095783e7 0.0
0.0 0.0 0.0

7.876594028624594e6 1.8859308831133634e7 0.0
1.8859308831133634e7 1.319529119227839e7 0.0
0.0 0.0 0.0

-8.042412914783392e6 -5.125903426464035e6 0.0
-5.125903426464035e6 2.186457919367585e7 0.0
0.0 0.0 0.0

611546.4968318073 1.6473667076887922e7 0.0
1.6473667076887922e7 -2.29130613007695e7 0.0
0.0 0.0 0.0

1.959945480896728e6 1.0356836763077857e7 0.0
1.0356836763077857e7 -2.2012673246227805e7 0.0
0.0 0.0 0.0

599553.2391080984 8.885566672372496e6 0.0
8.885566672372496e6 -5.192449107919713e6 0.0
0.0 0.0 0.0

-8.910764958078187e6 -4.991513150042887e6 0.0
-4.991513150042887e6 1.8782793056574367e7 0.0
0.0 0.0 0.0

5.591831277056277e6 1.9020323578406524e7 0.0
1.9020323578406524e7 7.966610395979631e7 0.0
0.0 0.0 0.0

-9.120689962463086e6 4.84301293727048e6 0.0
4.84301293727048e6 4.2837116240820915e7 0.0
0.0 0.0 0.0

2.850980259285248e6 2.9936447676178884e7 0.0
2.9936447676178884e7 -3.340006927139341e6 0.0
0.0 0.0 0.0

-2.2467862771539814e6 2.021165536361262e7 0.0
2.021165536361262e7 110770.05328730878 0.0
0.0 0.0 0.0

-2.248616320091282e6 1.7713581895458005e7 0.0
1.7713581895458005e7 -1.262835321457352e7 0.0
0.0 0.0 0.0

2.173526423324458e6 2.4038741187809307e7 0.0
2.4038741187809307e7 -8.548782465836423e6 0.0
0.0 0.0 0.0

-3.836022915944171e6 2.570128435443066e7 0.0
2.570128435443066e7 7.389933070104122e6 0.0
0.0 0.0 0.0

6.686717294523726e6 4.282128527877407e7 0.0
4.282128527877407e7 -1.1841043512172764e6 0.0
0.0 0.0 0.0

2.973052720479556e6 4.344549607187895e6 0.0
4.344549607187895e6 -1.1438734625518102e7 0.0
0.0 0.0 0.0

-9.563577744099308e6 -2.808553660645619e6 0.0
-2.808553660645619e6 2.379227684856329e7 0.0
0.0 0.0 0.0

-152083.14201310906 1.8904903505982645e7 0.0
1.8904903505982645e7 2.40047274636977e6 0.0
0.0 0.0 0.0

-9.225811113468025e6 2.7458202443287395e7 0.0
2.7458202443287395e7 6.368599128190792e6 0.0
0.0 0.0 0.0

-1.83179182402258e6 1.936999339843014e7 0.0
1.936999339843014e7 2.456292457599492e7 0.0
0.0 0.0 0.0

-1.0684354304219995e7 1.3252527758715257e7 0.0
1.3252527758715257e7 2.7173388448673368e7 0.0
0.0 0.0 0.0

1.2550218303609705e6 1.4941765295221444e7 0.0
1.4941765295221444e7 -2.41216302510084e7 0.0
0.0 0.0 0.0

-1.6901199484904253e8 2.7653151194197465e7 0.0
2.7653151194197465e7 -1.1628750739564061e7 0.0
0.0 0.0 0.0

-1.0886740888661703e7 1.1967262205357399e7 0.0
1.1967262205357399e7 2.8469851172864743e7 0.0
0.0 0.0 0.0

-7.75233349774109e6 2.73852948205328e7 0.0
2.73852948205328e7 6.841680583116628e6 0.0
0.0 0.0 0.0

489094.80642739777 1.7830674802935548e7 0.0
1.7830674802935548e7 -2.0150032608937368e7 0.0
0.0 0.0 0.0

-1.4324901202562451e6 1.5540286855958108e7 0.0
1.5540286855958108e7 -3.112058396672986e7 0.0
0.0 0.0 0.0

5.043248806571053e6 4.050308199812886e7 0.0
4.050308199812886e7 -820394.3203013309 0.0
0.0 0.0 0.0

-1.79679929059284e6 1.6374105951060463e7 0.0
1.6374105951060463e7 -2.8366415643257856e7 0.0
0.0 0.0 0.0

853401.5323489415 2.065652239479206e7 0.0
2.065652239479206e7 -1.2277493787169512e7 0.0
0.0 0.0 0.0

725371.7284147389 1.9307495626925375e7 0.0
1.9307495626925375e7 4.699663929689345e6 0.0
0.0 0.0 0.0

1.6084176659222282e6 3.3494841468331944e7 0.0
3.3494841468331944e7 -553878.1299831832 0.0
0.0 0.0 0.0

-1.096160721152012e7 2.7328694116674267e7 0.0
2.7328694116674267e7 5.620371971942293e6 0.0
0.0 0.0 0.0

948480.623213185 1.5995972359334027e7 0.0
1.5995972359334027e7 -2.2840219074379295e7 0.0
0.0 0.0 0.0

582462.2238535853 2.0492475609651882e7 0.0
2.0492475609651882e7 -1.3347424993682025e7 0.0
0.0 0.0 0.0

-2.7163889549566237e6 2.5881536471060183e7 0.0
2.5881536471060183e7 2.151643605529955e6 0.0
0.0 0.0 0.0

-6.558956185864623e6 2.7105483101157524e7 0.0
2.7105483101157524e7 7.303553434508383e6 0.0
0.0 0.0 0.0

-8.530195108396485e6 -3.217191852000969e6 0.0
-3.217191852000969e6 3.418030134767757e7 0.0
0.0 0.0 0.0

-5.818214846280435e6 1.8881179281248473e7 0.0
1.8881179281248473e7 1.9998558995432552e7 0.0
0.0 0.0 0.0

-2.08745463593279e6 1.700368954951412e7 0.0
1.700368954951412e7 -2.5694746073786587e7 0.0
0.0 0.0 0.0

1.90137909335635e7 2.0901829268010948e7 0.0
2.0901829268010948e7 3.0093603047365136e6 0.0
0.0 0.0 0.0

160921.83663251996 1.6826999933948293e7 0.0
1.6826999933948293e7 -2.2934488172565766e7 0.0
0.0 0.0 0.0

-460693.7179675434 1.9659682853772245e7 0.0
1.9659682853772245e7 -2.9709067957596094e6 0.0
0.0 0.0 0.0

-1.0140227378207376e7 9.71272496122813e6 0.0
9.71272496122813e6 3.417690555199141e7 0.0
0.0 0.0 0.0

-6.795552959140364e6 2.1891167964537956e7 0.0
2.1891167964537956e7 -1.2404551769969765e7 0.0
0.0 0.0 0.0

-1.416217107227642e6 1.7745773537930667e7 0.0
1.7745773537930667e7 -6.722756088922907e6 0.0
0.0 0.0 0.0

-78399.8566885977 2.030723944298276e7 0.0
2.030723944298276e7 -1.240821682665089e7 0.0
0.0 0.0 0.0

-1.3037731250022262e7 4.606142110110539e7 0.0
4.606142110110539e7 5.75021831751288e6 0.0
0.0 0.0 0.0

-5.115785546872933e7 1.610499614503654e7 0.0
1.610499614503654e7 5.398059382234789e6 0.0
0.0 0.0 0.0

2.778669354578006e6 3.080830632741251e7 0.0
3.080830632741251e7 -3.8130351351967393e6 0.0
0.0 0.0 0.0

-8.406974240766749e6 4.379723777865954e7 0.0
4.379723777865954e7 4.784171694028528e6 0.0
0.0 0.0 0.0

2.5390459919392098e7 5.593108691608382e7 0.0
5.593108691608382e7 -3.0632699884835146e6 0.0
0.0 0.0 0.0

-599533.0877335574 1.5142254455660842e7 0.0
1.5142254455660842e7 -2.9711439547911245e7 0.0
0.0 0.0 0.0

-8.725681967399187e6 1.742666121138543e7 0.0
1.742666121138543e7 -3.272310959221489e7 0.0
0.0 0.0 0.0

-4.24969278217005e6 2.492319304640006e7 0.0
2.492319304640006e7 9.72412826734511e6 0.0
0.0 0.0 0.0

-1.1053268407798203e7 1.264858765451558e7 0.0
1.264858765451558e7 2.8089953337265175e7 0.0
0.0 0.0 0.0

-1.131364776891728e7 2.4182286154915866e7 0.0
2.4182286154915866e7 2.8176816178780883e6 0.0
0.0 0.0 0.0

831323.2342182137 1.9522756236102253e7 0.0
1.9522756236102253e7 8.177619639510889e6 0.0
0.0 0.0 0.0

-243201.6618386777 1.85211892124431e7 0.0
1.85211892124431e7 -1.0050263356053084e7 0.0
0.0 0.0 0.0

8.59106346526859e6 4.564516817974578e7 0.0
4.564516817974578e7 -1.8426050449998719e6 0.0
0.0 0.0 0.0

1.9964897955749868e6 2.323129984044203e7 0.0
2.323129984044203e7 -9.280110477343334e6 0.0
0.0 0.0 0.0

2.7527146857814165e6 2.037055139850797e7 0.0
2.037055139850797e7 -3.753195894825466e6 0.0
0.0 0.0 0.0

3.187436491506517e6 1.626097286425975e6 0.0
1.626097286425975e6 -3.816283542180896e7 0.0
0.0 0.0 0.0

-4.13958966487219e6 2.570560092214544e7 0.0
2.570560092214544e7 8.09912195454295e6 0.0
0.0 0.0 0.0

-2.8158077365992283e6 1.9382114898675323e7 0.0
1.9382114898675323e7 5.0656980410737675e6 0.0
0.0 0.0 0.0

1.5145479287720975e6 1.2695496151352707e7 0.0
1.2695496151352707e7 -1.4877797344679348e7 0.0
0.0 0.0 0.0

-1.2648428429752234e6 1.5679650657965986e7 0.0
1.5679650657965986e7 -3.1355595607692488e7 0.0
0.0 0.0 0.0

-3.168580254289277e6 2.1074621542654615e7 0.0
2.1074621542654615e7 1.8255645465932626e7 0.0
0.0 0.0 0.0

-3.0131342635252755e6 1.9035594881225653e7 0.0
1.9035594881225653e7 2.723883900100758e7 0.0
0.0 0.0 0.0

-991468.2799579888 1.779790576301032e7 0.0
1.779790576301032e7 -4.321382321279009e6 0.0
0.0 0.0 0.0

5.047382413065392e6 2.5264194719551582e7 0.0
2.5264194719551582e7 -6.39538558856708e6 0.0
0.0 0.0 0.0

-3.5505222234336785e6 2.466096202450406e7 0.0
2.466096202450406e7 9.796904935101952e6 0.0
0.0 0.0 0.0

-7.232150392617125e6 2.904947233441411e6 0.0
2.904947233441411e6 5.386714602543873e7 0.0
0.0 0.0 0.0

-4.1893768747619437e6 1.2758337817946427e7 0.0
1.2758337817946427e7 7.544700946177877e6 0.0
0.0 0.0 0.0

-70343.05129983835 1.8857007968064703e7 0.0
1.8857007968064703e7 -5.864292255120224e6 0.0
0.0 0.0 0.0

-5.422203024346994e6 2.593290259865675e7 0.0
2.593290259865675e7 8.614676784027815e6 0.0
0.0 0.0 0.0

-3.6835310272446265e6 2.1235164855231818e7 0.0
2.1235164855231818e7 1.4885195361859348e7 0.0
0.0 0.0 0.0

2.054736327904746e6 1.2853874555568893e7 0.0
1.2853874555568893e7 -2.0830076967433374e7 0.0
0.0 0.0 0.0

-1.6044346203080178e6 2.8227566702500958e7 0.0
2.8227566702500958e7 1.1654579751366097e6 0.0
0.0 0.0 0.0

2.2904608036430078e6 3.5116728828383826e7 0.0
3.5116728828383826e7 -639406.0459057039 0.0
0.0 0.0 0.0

-2.508908015439848e6 2.2599378331075884e7 0.0
2.2599378331075884e7 5.526976483121304e6 0.0
0.0 0.0 0.0

1.4659817348680394e6 1.4934667372841919e7 0.0
1.4934667372841919e7 -2.2525193880202524e7 0.0
0.0 0.0 0.0

-1.1589709539903973e6 2.8577765728644203e7 0.0
2.8577765728644203e7 -1.3229437135636497e6 0.0
0.0 0.0 0.0

2.6369832834681002e6 2.480301614428482e7 0.0
2.480301614428482e7 -7.761356284169934e6 0.0
0.0 0.0 0.0

457316.1490850579 1.9386680901283514e7 0.0
1.9386680901283514e7 2.9279363458782144e7 0.0
0.0 0.0 0.0

-2.661959321877501e6 2.196033909707756e7 0.0
2.196033909707756e7 6.749369958488862e6 0.0
0.0 0.0 0.0

-4.507806704362974e6 2.7668381626261096e7 0.0
2.7668381626261096e7 5.800571743359527e6 0.0
0.0 0.0 0.0

-8.571853263579424e6 435885.4100311022 0.0
435885.4100311022 4.236636613594794e7 0.0
0.0 0.0 0.0

1.87292084470595e6 3.4231535767765306e7 0.0
3.4231535767765306e7 -546190.9160604137 0.0
0.0 0.0 0.0

3.242936607671179e6 1.6852522948551476e6 0.0
1.6852522948551476e6 -3.71114289160286e7 0.0
0.0 0.0 0.0

-359586.2518807263 2.6452904981279675e7 0.0
2.6452904981279675e7 -4.707056739818096e6 0.0
0.0 0.0 0.0

-8.569384620985221e6 -1.5490240952113979e6 0.0
-1.5490240952113979e6 3.739326065050176e7 0.0
0.0 0.0 0.0

-1.493471145496191e6 1.7186212668907475e7 0.0
1.7186212668907475e7 -4.746563972966055e6 0.0
0.0 0.0 0.0

-1.0666325912811652e7 2.5943284648224086e7 0.0
2.5943284648224086e7 4.213043242763525e6 0.0
0.0 0.0 0.0

-2.170313729329503e6 2.100378641862314e7 0.0
2.100378641862314e7 -3.6723551371909673e6 0.0
0.0 0.0 0.0

-3.819552610309438e6 2.1178427900709026e7 0.0
2.1178427900709026e7 -5.841079390023459e6 0.0
0.0 0.0 0.0

-1.7018308910901644e6 1.893682411968808e7 0.0
1.893682411968808e7 -1.8292100665574115e7 0.0
0.0 0.0 0.0

-1.0003515982088482e7 1.4359153810982225e7 0.0
1.4359153810982225e7 2.916579913863229e7 0.0
0.0 0.0 0.0

1.4466818472378468e6 2.003143518570964e7 0.0
2.003143518570964e7 1.0557523122612506e7 0.0
0.0 0.0 0.0

2.8978006640809644e6 8.612016890060253e6 0.0
8.612016890060253e6 -2.7206805489731893e7 0.0
0.0 0.0 0.0

2.897373890810498e6 1.9673124176197868e7 0.0
1.9673124176197868e7 2.7748159591776706e7 0.0
0.0 0.0 0.0

-1.1185075675160855e7 1.8939299943271875e7 0.0
1.8939299943271875e7 -6.61670899866224e7 0.0
0.0 0.0 0.0

-3.79156142995142e6 2.012003272574286e7 0.0
2.012003272574286e7 1.4745713744073633e7 0.0
0.0 0.0 0.0

-1.873793049203637e6 2.878167137057988e7 0.0
2.878167137057988e7 80984.63750268647 0.0
0.0 0.0 0.0

-2.9496321049333108e6 2.2001783489327226e7 0.0
2.2001783489327226e7 1.8707376226619815e6 0.0
0.0 0.0 0.0

862001.0002890201 2.1770811084108744e7 0.0
2.1770811084108744e7 -1.1536194342355287e7 0.0
0.0 0.0 0.0

2.3822277202388127e6 2.0981206877533544e7 0.0
2.0981206877533544e7 -7.354032389027451e6 0.0
0.0 0.0 0.0

-4.444736449528934e6 2.564797939248515e7 0.0
2.564797939248515e7 8.728892831420017e6 0.0
0.0 0.0 0.0

-3.8625675859340867e6 2.102913009452663e7 0.0
2.102913009452663e7 1.8840132124768697e7 0.0
0.0 0.0 0.0

-2.946405437159924e6 1.9200868090624157e7 0.0
1.9200868090624157e7 2.746676999867908e7 0.0
0.0 0.0 0.0

-4.34923474872103e6 1.8320452786737766e7 0.0
1.8320452786737766e7 -1.8240979228515156e7 0.0
0.0 0.0 0.0

768229.1626064153 1.572724131123712e7 0.0
1.572724131123712e7 -2.0235647769248866e7 0.0
0.0 0.0 0.0

-2.387495759012103e6 2.1003557454286866e7 0.0
2.1003557454286866e7 1.7343068756877325e7 0.0
0.0 0.0 0.0

969166.0255981386 1.0478037088898689e7 0.0
1.0478037088898689e7 -3.8314597701123364e7 0.0
0.0 0.0 0.0

-2.8490421152444943e6 1.9954318709781e7 0.0
1.9954318709781e7 -1.1786378258084191e7 0.0
0.0 0.0 0.0

2.842600067330871e6 3.6183665738824904e7 0.0
3.6183665738824904e7 -572522.2869996247 0.0
0.0 0.0 0.0

2.222861960363172e6 1.8927943248112276e7 0.0
1.8927943248112276e7 2.366819143243003e7 0.0
0.0 0.0 0.0

2.2911928793036193e7 2.4969927898628343e7 0.0
2.4969927898628343e7 7.637306110365514e7 0.0
0.0 0.0 0.0

-2.3196833731516436e7 2.3590547445754997e7 0.0
2.3590547445754997e7 -7.732274631619161e7 0.0
0.0 0.0 0.0

-3.4476623156560743e6 1.939186955269295e7 0.0
1.939186955269295e7 2.955760436076096e6 0.0
0.0 0.0 0.0

-2.811670912512669e7 3.696067069381927e7 0.0
3.696067069381927e7 7.539816155627936e6 0.0
0.0 0.0 0.0

-1.409461891098534e6 2.4655767092880562e7 0.0
2.4655767092880562e7 -4.300805687847045e6 0.0
0.0 0.0 0.0

-1.9522297498077787e6 2.116796336212707e7 0.0
2.116796336212707e7 1.4873120403470982e7 0.0
0.0 0.0 0.0

1.6538752895033946e6 1.903037990000262e7 0.0
1.903037990000262e7 2.6809253875712264e7 0.0
0.0 0.0 0.0

7.770984832933378e6 2.0401738138658654e7 0.0
2.0401738138658654e7 4.6834154959627934e7 0.0
0.0 0.0 0.0

7.362632317699445e6 2.160096385098678e7 0.0
2.160096385098678e7 9.651080425631829e6 0.0
0.0 0.0 0.0

7.179178418777566e6 1.819395811257053e7 0.0
1.819395811257053e7 2.988559937869642e7 0.0
0.0 0.0 0.0

4.501384243577054e6 2.510474965623361e7 0.0
2.510474965623361e7 -6.645627644834135e6 0.0
0.0 0.0 0.0

1.017758980376197e6 1.9301171258944403e7 0.0
1.9301171258944403e7 1.6698538038422026e7 0.0
0.0 0.0 0.0

-2.2559892622527843e6 2.022947915037277e7 0.0
2.022947915037277e7 1.8063068405625165e7 0.0
0.0 0.0 0.0

3.9948236962731266e6 3.214712651924453e7 0.0
3.214712651924453e7 -2.5273023916870663e6 0.0
0.0 0.0 0.0

3.2489621420045425e6 2.1112160754080575e7 0.0
2.1112160754080575e7 1.3329298733761886e7 0.0
0.0 0.0 0.0

3.680109916739812e6 2.0247118430745124e6 0.0
2.0247118430745124e6 -2.8730353559400346e7 0.0
0.0 0.0 0.0

-9.169511033973671e6 1.6565774610182922e7 0.0
1.6565774610182922e7 2.112188886340656e7 0.0
0.0 0.0 0.0

-8.424989476753078e6 -3.1493770242151e6 0.0
-3.1493770242151e6 3.51017587563133e7 0.0
0.0 0.0 0.0

-4.707095863966674e6 2.049889232715601e7 0.0
2.049889232715601e7 2.059693250734822e7 0.0
0.0 0.0 0.0

777089.4523120457 2.9369254099969406e7 0.0
2.9369254099969406e7 -2.006119959092096e6 0.0
0.0 0.0 0.0

5.918367001004665e6 2.0947637072564237e7 0.0
2.0947637072564237e7 1.760977584964437e7 0.0
0.0 0.0 0.0

4.365398245502125e6 1.81341292095619e7 0.0
1.81341292095619e7 2.2268944888958797e7 0.0
0.0 0.0 0.0

-3.5999794458606555e6 2.729029889513146e7 0.0
2.729029889513146e7 6.405345825780927e6 0.0
0.0 0.0 0.0

3.505868718367571e6 4.154384242304444e6 0.0
4.154384242304444e6 -1.5720984773677222e7 0.0
0.0 0.0 0.0

-504330.5292908227 2.707326529959698e7 0.0
2.707326529959698e7 -3.8253265086568766e6 0.0
0.0 0.0 0.0

2.5607526845355825e6 1.089610151860651e7 0.0
1.089610151860651e7 -2.2353521745334186e7 0.0
0.0 0.0 0.0

-7.797303197886484e6 2.6336591330462627e7 0.0
2.6336591330462627e7 7.10907647209895e6 0.0
0.0 0.0 0.0

5.302634006571954e6 2.7085038460338555e7 0.0
2.7085038460338555e7 -5.866392058869744e6 0.0
0.0 0.0 0.0

-1.0087177653303836e7 2.2857715687431786e7 0.0
2.2857715687431786e7 636673.8952165144 0.0
0.0 0.0 0.0

2.3228919591368437e6 1.7454573428131382e6 0.0
1.7454573428131382e6 -5.549885596668169e7 0.0
0.0 0.0 0.0

5.415352013677016e6 2.154240999518737e7 0.0
2.154240999518737e7 3.070580916961575e6 0.0
0.0 0.0 0.0

1.9123599116880521e6 2.7999175604338467e7 0.0
2.7999175604338467e7 -4.218444374118781e6 0.0
0.0 0.0 0.0

848596.5592688965 2.4358532518341754e7 0.0
2.4358532518341754e7 -7.629460948392362e6 0.0
0.0 0.0 0.0

-2.296169674548396e6 1.899305470955028e7 0.0
1.899305470955028e7 -1.2767563803442493e7 0.0
0.0 0.0 0.0

3.218542831446195e6 4.362374884589993e6 0.0
4.362374884589993e6 -2.664309684705296e7 0.0
0.0 0.0 0.0

-3.1820032199366624e6 2.3243817175796963e7 0.0
2.3243817175796963e7 6.379295918782152e6 0.0
0.0 0.0 0.0

320634.29697723873 1.3288929450277613e7 0.0
1.3288929450277613e7 -3.2151589414105847e7 0.0
0.0 0.0 0.0

-8.333520848548608e6 -2.7460152254155315e6 0.0
-2.7460152254155315e6 3.8798522237888e7 0.0
0.0 0.0 0.0

-5.021026524054058e6 1.9403579488718465e7 0.0
1.9403579488718465e7 1.835593470849089e7 0.0
0.0 0.0 0.0

-1.4789487732770499e7 2.604887043521396e7 0.0
2.604887043521396e7 3.3233868940012213e6 0.0
0.0 0.0 0.0

810962.3173686042 5.808950144001779e6 0.0
5.808950144001779e6 -8.095812769269922e7 0.0
0.0 0.0 0.0

-4.255871384759905e6 1.6577123658917231e7 0.0
1.6577123658917231e7 3.777000459399071e7 0.0
0.0 0.0 0.0

-251114.7004114613 2.012183414103477e7 0.0
2.012183414103477e7 2.2679399750170223e7 0.0
0.0 0.0 0.0

-1.5051091098788884e6 1.836464886520824e7 0.0
1.836464886520824e7 3.391539985114119e7 0.0
0.0 0.0 0.0

-2.4009323824245455e6 2.0700280900831006e7 0.0
2.0700280900831006e7 1.236116644706545e6 0.0
0.0 0.0 0.0

-4.919061196757947e6 1.9834906990280114e7 0.0
1.9834906990280114e7 1.4302361224777328e7 0.0
0.0 0.0 0.0

-1.9438813601651988e6 1.9063417095914267e7 0.0
1.9063417095914267e7 -9.917259721842512e6 0.0
0.0 0.0 0.0

895992.1064688871 1.5157623608901847e7 0.0
1.5157623608901847e7 -2.137258933740403e7 0.0
0.0 0.0 0.0

758770.9131218996 9.972971729648521e6 0.0
9.972971729648521e6 -4.7412173009567045e7 0.0
0.0 0.0 0.0

-8.402074346432969e6 -2.957618362222017e6 0.0
-2.957618362222017e6 3.6238245861674294e7 0.0
0.0 0.0 0.0

-7.733930225175181e6 -2.13386195786224e6 0.0
-2.13386195786224e6 4.50728344586605e7 0.0
0.0 0.0 0.0

-9.198176579738174e6 2.4540219780260142e7 0.0
2.4540219780260142e7 1.8883713810436414e6 0.0
0.0 0.0 0.0

939634.510246207 2.1753510579090714e7 0.0
2.1753510579090714e7 -1.185053413751687e7 0.0
0.0 0.0 0.0

-125004.18496596254 1.8322640460648425e7 0.0
1.8322640460648425e7 3.908150622182845e7 0.0
0.0 0.0 0.0

-1.5033187226668787e6 1.9116969980990175e7 0.0
1.9116969980990175e7 -6.978734352865028e6 0.0
0.0 0.0 0.0

5.092602518949805e6 2.4177266431948777e7 0.0
2.4177266431948777e7 -6.363845028698482e6 0.0
0.0 0.0 0.0

-3.4199487661548434e6 2.4842646240352176e7 0.0
2.4842646240352176e7 6.803347696320562e6 0.0
0.0 0.0 0.0

-9.227226944979643e6 -2.9825636171179186e6 0.0
-2.9825636171179186e6 2.4833670564590782e7 0.0
0.0 0.0 0.0

1.374440035717374e7 4.973370866054756e7 0.0
4.973370866054756e7 -2.6233964276766777e6 0.0
0.0 0.0 0.0

681987.2191929538 1.9859580048580457e7 0.0
1.9859580048580457e7 -9.273606706306817e6 0.0
0.0 0.0 0.0

-6.482437442313755e6 1.6776836763961194e7 0.0
1.6776836763961194e7 -5.291506462277094e7 0.0
0.0 0.0 0.0

3.614891830279572e6 2.850338241250868e6 0.0
2.850338241250868e6 -3.432034232470152e7 0.0
0.0 0.0 0.0

-430650.98855748284 1.9036325671353318e7 0.0
1.9036325671353318e7 -6.134030139240638e6 0.0
0.0 0.0 0.0

-6.682873774342186e6 1.8480662633160084e7 0.0
1.8480662633160084e7 2.1317987749591388e7 0.0
0.0 0.0 0.0

-2.4986869327899918e7 2.193748497367732e7 0.0
2.193748497367732e7 5.27169015726972e6 0.0
0.0 0.0 0.0

-5.48496865493311e6 2.2007965236845482e7 0.0
2.2007965236845482e7 -9.51237123280311e6 0.0
0.0 0.0 0.0

5.997733360521095e6 1.769215449830595e7 0.0
1.769215449830595e7 2.5971710994157456e7 0.0
0.0 0.0 0.0

-3.0155349678157438e6 1.8581499151235096e7 0.0
1.8581499151235096e7 -1.3961951356635846e7 0.0
0.0 0.0 0.0

-9.775733413920337e6 -691562.9430255746 0.0
-691562.9430255746 2.45346558157542e7 0.0
0.0 0.0 0.0

-865381.102369138 2.0130147590915732e7 0.0
2.0130147590915732e7 -1.0266130456193276e7 0.0
0.0 0.0 0.0

-437570.6240788442 1.9667170560395855e7 0.0
1.9667170560395855e7 4.0551645964314872e6 0.0
0.0 0.0 0.0

-996385.6791405994 2.069206559787359e7 0.0
2.069206559787359e7 1.5811389562855495e7 0.0
0.0 0.0 0.0

329392.75674382877 1.8004613523319036e7 0.0
1.8004613523319036e7 -1.7291134184596337e7 0.0
0.0 0.0 0.0

-1.361413240187453e6 1.9819047920008086e7 0.0
1.9819047920008086e7 2.5205074696738165e7 0.0
0.0 0.0 0.0

-118952.91280115934 1.8563901462570406e7 0.0
1.8563901462570406e7 133784.0755872014 0.0
0.0 0.0 0.0

1.0273494516194286e6 2.171170875721247e7 0.0
2.171170875721247e7 -1.2017006198367529e7 0.0
0.0 0.0 0.0

4.640186686236175e6 2.065112497808811e7 0.0
2.065112497808811e7 -1.5190394290509452e6 0.0
0.0 0.0 0.0

1.0839302164063025e6 1.2935493459029289e7 0.0
1.2935493459029289e7 -2.851279352933164e7 0.0
0.0 0.0 0.0

-5.093691426310052e6 2.0622084803668413e7 0.0
2.0622084803668413e7 1.9314258354042515e7 0.0
0.0 0.0 0.0

-395525.51089592045 1.689420323954325e7 0.0
1.689420323954325e7 -8.674083424152365e6 0.0
0.0 0.0 0.0

-4.931254441150878e7 2.9360267783565395e7 0.0
2.9360267783565395e7 1.658263183768442e6 0.0
0.0 0.0 0.0

3.9010580161711816e6 1.8910544550677974e7 0.0
1.8910544550677974e7 4.937551795620848e7 0.0
0.0 0.0 0.0

3.1305597585860565e6 1.6087256880646928e6 0.0
1.6087256880646928e6 -3.925820740006916e7 0.0
0.0 0.0 0.0

-7.861313110313427e6 -2.1719404687563544e6 0.0
-2.1719404687563544e6 4.3586689673311815e7 0.0
0.0 0.0 0.0

-4.1554369270823337e6 1.5571148137653917e7 0.0
1.5571148137653917e7 -4.607836736565549e7 0.0
0.0 0.0 0.0

-1.7655667759884326e6 1.666046143515021e7 0.0
1.666046143515021e7 -2.879969427330846e7 0.0
0.0 0.0 0.0

-2.4325356249032826e6 2.060335271132934e7 0.0
2.060335271132934e7 -5.524624489006174e6 0.0
0.0 0.0 0.0

-1.7533100227864657e7 2.770073687253335e7 0.0
2.770073687253335e7 -1.1318469155715097e7 0.0
0.0 0.0 0.0

-5.098411524633475e6 1.886402815532634e7 0.0
1.886402815532634e7 2.695961449382472e7 0.0
0.0 0.0 0.0

1.0333514900041916e6 2.1597434630197186e7 0.0
2.1597434630197186e7 -1.2027490734911837e7 0.0
0.0 0.0 0.0

-6.692668216191947e6 -794793.0167745848 0.0
-794793.0167745848 5.795959748985935e7 0.0
0.0 0.0 0.0

-8.191078489343895e6 1.7588104394159988e7 0.0
1.7588104394159988e7 2.386571925909712e7 0.0
0.0 0.0 0.0

1.2972548780718371e6 3.878082184064094e6 0.0
3.878082184064094e6 -7.53367321635945e7 0.0
0.0 0.0 0.0

-1.8988850815022234e6 2.9406167106760703e7 0.0
2.9406167106760703e7 133742.62928777596 0.0
0.0 0.0 0.0

1.751792606006343e6 2.254783981958023e6 0.0
2.254783981958023e6 -6.517585195788124e7 0.0
0.0 0.0 0.0

-2.2994565265916206e7 4.746170375355167e7 0.0
4.746170375355167e7 7.358477909722546e6 0.0
0.0 0.0 0.0

-6.525109487136386e6 -495334.88894609734 0.0
-495334.88894609734 6.06408768490105e7 0.0
0.0 0.0 0.0

1.2898829426815659e6 1.3279513994758269e7 0.0
1.3279513994758269e7 -2.841580040531204e7 0.0
0.0 0.0 0.0

-1.1288398782757344e7 2.5670771974879794e7 0.0
2.5670771974879794e7 4.658014454005255e6 0.0
0.0 0.0 0.0

-4.741240510810668e7 3.0082136851154793e7 0.0
3.0082136851154793e7 -2.0850829583940078e6 0.0
0.0 0.0 0.0

1.5252810940180793e6 2.979811333593567e6 0.0
2.979811333593567e6 -6.997923508502376e7 0.0
0.0 0.0 0.0

-2.857491261245298e6 2.3977532727858566e7 0.0
2.3977532727858566e7 2.8683340332953027e6 0.0
0.0 0.0 0.0

-3.404675934140144e6 2.1999567364948533e7 0.0
2.1999567364948533e7 1.39999340162366e7 0.0
0.0 0.0 0.0

1.6714223195236973e7 1.733867837037153e7 0.0
1.733867837037153e7 7.082466214068694e6 0.0
0.0 0.0 0.0

-650480.6662798431 1.6406722731900077e7 0.0
1.6406722731900077e7 -2.5302321219354037e7 0.0
0.0 0.0 0.0

-2.36049390227836e6 1.7422475097789753e7 0.0
1.7422475097789753e7 -2.6306166409926463e7 0.0
0.0 0.0 0.0

25540.181225913577 2.3875678997246906e7 0.0
2.3875678997246906e7 -8.409609800250357e6 0.0
0.0 0.0 0.0

-1.9316167295854674e6 2.9983352959366046e7 0.0
2.9983352959366046e7 228683.50950668356 0.0
0.0 0.0 0.0

-9.892416380595323e6 1.2238219004483905e7 0.0
1.2238219004483905e7 3.3044012570580065e7 0.0
0.0 0.0 0.0

2.114775340501208e6 1.813862190183846e6 0.0
1.813862190183846e6 -5.8806407027655266e7 0.0
0.0 0.0 0.0

-1.1285331578744289e7 3.3490147661093622e7 0.0
3.3490147661093622e7 4.645391924455076e6 0.0
0.0 0.0 0.0

3.72078198804897e6 5.455876113848633e6 0.0
5.455876113848633e6 -2.1355095267195642e7 0.0
0.0 0.0 0.0

-2.1265732479148284e6 1.9054105179117963e7 0.0
1.9054105179117963e7 -1.7038774456746403e7 0.0
0.0 0.0 0.0

1.967203028691642e6 2.1252324525716878e6 0.0
2.1252324525716878e6 -6.132057594233168e7 0.0
0.0 0.0 0.0

-2.5364038667240907e6 1.8001256986446332e7 0.0
1.8001256986446332e7 -2.3680883227376718e7 0.0
0.0 0.0 0.0

-9.720698885510108e6 8.979856996524932e6 0.0
8.979856996524932e6 3.833231381153315e7 0.0
0.0 0.0 0.0

-4.0198192312592994e6 1.7991058181592342e6 0.0
1.7991058181592342e6 2.9573155847118786e6 0.0
0.0 0.0 0.0

-3.9077206472670827e6 1.78346428751425e7 0.0
1.78346428751425e7 4.403914762821074e6 0.0
0.0 0.0 0.0

3.3236517565203886e6 1.964843556799211e7 0.0
1.964843556799211e7 2.476139799055497e7 0.0
0.0 0.0 0.0

2.856262957851853e6 1.4541691611627336e6 0.0
1.4541691611627336e6 -4.340345587652994e7 0.0
0.0 0.0 0.0

-4.150970910586747e6 2.488039304339093e7 0.0
2.488039304339093e7 9.785432751494579e6 0.0
0.0 0.0 0.0

-8.974215973553453e6 -1.3305697972806469e6 0.0
-1.3305697972806469e6 3.477396757678197e7 0.0
0.0 0.0 0.0

-42778.0810032055 1.9857147349221226e7 0.0
1.9857147349221226e7 22019.060347298037 0.0
0.0 0.0 0.0

1.0446530825064275e6 1.3493310477385093e7 0.0
1.3493310477385093e7 -2.7027144044676967e7 0.0
0.0 0.0 0.0

-3.815361528453178e6 2.068053224046506e7 0.0
2.068053224046506e7 2.0149805464527473e7 0.0
0.0 0.0 0.0

2.480215204899514e6 1.9038287305905096e7 0.0
1.9038287305905096e7 3.394238813330515e7 0.0
0.0 0.0 0.0

-890866.4871410807 1.9011277113693506e7 0.0
1.9011277113693506e7 -4.322534720122559e6 0.0
0.0 0.0 0.0

535714.3709394843 2.3667875565238353e7 0.0
2.3667875565238353e7 -8.079291579174361e6 0.0
0.0 0.0 0.0

-3.308000177729903e6 2.5922225437900256e7 0.0
2.5922225437900256e7 4.828525007561054e6 0.0
0.0 0.0 0.0

-1.0327724439906187e6 1.972613374464646e7 0.0
1.972613374464646e7 -6.839370528247224e6 0.0
0.0 0.0 0.0

2.0097103866636023e7 5.798021536638459e6 0.0
5.798021536638459e6 -2.5912081964112483e6 0.0
0.0 0.0 0.0

-6.954005657368533e6 -915993.9173996088 0.0
-915993.9173996088 5.537513746746363e7 0.0
0.0 0.0 0.0

7.7634303354752045e6 2.221626263381567e7 0.0
2.221626263381567e7 1.1536726063240882e7 0.0
0.0 0.0 0.0

-7.6150544551295135e6 -1.9023682683751367e6 0.0
-1.9023682683751367e6 4.670888870320139e7 0.0
0.0 0.0 0.0

-1.3337457109742397e6 2.005813007524226e7 0.0
2.005813007524226e7 -933583.6966300714 0.0
0.0 0.0 0.0

-7.706251557771435e6 1.0003831127534932e7 0.0
1.0003831127534932e7 2.9236224655513074e7 0.0
0.0 0.0 0.0

-3.215923416706518e6 1.7748723895971734e7 0.0
1.7748723895971734e7 6.72786351902264e6 0.0
0.0 0.0 0.0

-94785.76486149759 1.0694092566434413e6 0.0
1.0694092566434413e6 542138.6901805729 0.0
0.0 0.0 0.0

307.93521849488025 1.747674174070062e6 0.0
1.747674174070062e6 618922.1437124289 0.0
0.0 0.0 0.0

830119.9271716475 2.1122483428886417e7 0.0
2.1122483428886417e7 -1.3000574023730269e7 0.0
0.0 0.0 0.0

-8.775077014397081e6 2.279864740962799e7 0.0
2.279864740962799e7 -4.0723746586742173e6 0.0
0.0 0.0 0.0

1.0998617778397952e6 2.149697023928879e7 0.0
2.149697023928879e7 -1.1764234437336724e7 0.0
0.0 0.0 0.0

-1.082982788000857e7 1.087720326444929e7 0.0
1.087720326444929e7 3.139509007642188e7 0.0
0.0 0.0 0.0

-2.67647325400414e6 1.8900968013510153e7 0.0
1.8900968013510153e7 -1.5608676692823702e7 0.0
0.0 0.0 0.0

830283.3932765555 1.3006525384677304e7 0.0
1.3006525384677304e7 -3.025524241116831e7 0.0
0.0 0.0 0.0

-3.9144242601773525e6 2.427023624523556e7 0.0
2.427023624523556e7 1.0685668584828515e7 0.0
0.0 0.0 0.0

1.1932557502324376e6 1.3479374830692727e7 0.0
1.3479374830692727e7 -2.5330407814526413e7 0.0
0.0 0.0 0.0

-1.028152219560417e8 3.5778140944550835e7 0.0
3.5778140944550835e7 -6.142833861553721e6 0.0
0.0 0.0 0.0

494903.84095906373 1.7430079419100907e7 0.0
1.7430079419100907e7 -1.8462050992197983e7 0.0
0.0 0.0 0.0

-3.075189468467744e6 3.491180070790374e7 0.0
3.491180070790374e7 877600.579505621 0.0
0.0 0.0 0.0

401846.3941269764 1.9155411388993543e7 0.0
1.9155411388993543e7 5.640095305959857e6 0.0
0.0 0.0 0.0

-4.98402298057545e6 1.979463593073348e7 0.0
1.979463593073348e7 2.3156898725000113e7 0.0
0.0 0.0 0.0

-4.646934557080397e6 2.1735992092713557e7 0.0
2.1735992092713557e7 -1.2785165596027987e7 0.0
0.0 0.0 0.0

1.39122386718985e7 3.847041854098137e7 0.0
3.847041854098137e7 -5.573135248601194e6 0.0
0.0 0.0 0.0

-8.066170288869627e6 -2.499156772744183e6 0.0
-2.499156772744183e6 4.111971758730527e7 0.0
0.0 0.0 0.0

3.030820394277582e6 1.6105082285867988e6 0.0
1.6105082285867988e6 -4.0408397311539955e7 0.0
0.0 0.0 0.0

-130305.74277412798 2.42475013572105e7 0.0
2.42475013572105e7 -5.9267211009521205e6 0.0
0.0 0.0 0.0

-9.039877327698726e6 -3.960024195594214e6 0.0
-3.960024195594214e6 1.7866939755786166e7 0.0
0.0 0.0 0.0

2.4701954913702607e6 1.622674659153932e6 0.0
1.622674659153932e6 -5.187534368230945e7 0.0
0.0 0.0 0.0

-7.0866990841303915e6 -1.2361677049573718e6 0.0
-1.2361677049573718e6 5.350181174111053e7 0.0
0.0 0.0 0.0

-8.68059891630799e6 -3.5251593944511125e6 0.0
-3.5251593944511125e6 3.1550056946660988e7 0.0
0.0 0.0 0.0

-1.654101390145863e6 1.871792323941965e7 0.0
1.871792323941965e7 -5.138579617437023e6 0.0
0.0 0.0 0.0

-7.964974388395688e6 -2.3080208194204504e6 0.0
-2.3080208194204504e6 4.239580444257755e7 0.0
0.0 0.0 0.0

2.945752376101421e6 1.6596769262722563e6 0.0
1.6596769262722563e6 -4.1867554620276205e7 0.0
0.0 0.0 0.0

2.593754090249032e6 1.683200896128078e6 0.0
1.683200896128078e6 -4.994110907563788e7 0.0
0.0 0.0 0.0

-7.201126890452091e6 -1.526416068248322e6 0.0
-1.526416068248322e6 5.169710579004658e7 0.0
0.0 0.0 0.0

-5.09207367694416e6 2.0243319782273162e7 0.0
2.0243319782273162e7 -1.4296330872110195e7 0.0
0.0 0.0 0.0

775514.4225754384 2.0511415487989783e7 0.0
2.0511415487989783e7 -1.4108369695082411e7 0.0
0.0 0.0 0.0

-2.7734522869148077e6 2.6217593682979766e7 0.0
2.6217593682979766e7 5.295606340562403e6 0.0
0.0 0.0 0.0

2.6324785290016327e6 1.5995601080054138e6 0.0
1.5995601080054138e6 -4.858639340137988e7 0.0
0.0 0.0 0.0

-7.331960802115217e6 -1.7196126778570851e6 0.0
-1.7196126778570851e6 4.972508024563149e7 0.0
0.0 0.0 0.0

-1.0775576756298249e6 1.9202907024397865e7 0.0
1.9202907024397865e7 -4.0446944583922466e6 0.0
0.0 0.0 0.0

1.530389325998648e6 1.4385793246356593e7 0.0
1.4385793246356593e7 -2.394178844345184e7 0.0
0.0 0.0 0.0

-486163.4363019099 2.6075963688833997e7 0.0
2.6075963688833997e7 -3.0324126032398986e6 0.0
0.0 0.0 0.0

-2.9390269419960375e6 2.0602209109747052e7 0.0
2.0602209109747052e7 -531212.3506806192 0.0
0.0 0.0 0.0

-2.6309214140228685e6 1.8976732461043883e7 0.0
1.8976732461043883e7 2.894644642911776e7 0.0
0.0 0.0 0.0

-7.480190580686111e6 -1.7734850097911954e6 0.0
-1.7734850097911954e6 4.809223738875583e7 0.0
0.0 0.0 0.0

2.7452318723287117e6 1.5244180390244136e6 0.0
1.5244180390244136e6 -4.6717021187446736e7 0.0
0.0 0.0 0.0

3.4791804484500713e6 2.8741384066404544e7 0.0
2.8741384066404544e7 -5.067696453328318e6 0.0
0.0 0.0 0.0

1.9596070824008808e6 1.872395621686784e7 0.0
1.872395621686784e7 4.5615983044947125e7 0.0
0.0 0.0 0.0

7.538858545173422e7 7.882731341618529e7 0.0
7.882731341618529e7 -1.4217758158632144e7 0.0
0.0 0.0 0.0

-313227.9215186089 1.1362497278766045e7 0.0
1.1362497278766045e7 -8.260356116537714e6 0.0
0.0 0.0 0.0

-2.0123137890276732e6 2.9057827868498713e7 0.0
2.9057827868498713e7 1.753417928109854e6 0.0
0.0 0.0 0.0

-9.131864043270197e6 -70829.94951387974 0.0
-70829.94951387974 1.269802245086303e7 0.0
0.0 0.0 0.0

-2.6091652570522483e6 2.6746600364086535e7 0.0
2.6746600364086535e7 4.4412564472075375e6 0.0
0.0 0.0 0.0

3.4219598922065655e6 2.749820275791142e6 0.0
2.749820275791142e6 -1.3222015152625116e7 0.0
0.0 0.0 0.0

1.0348376379094739e7 2.6243074624429945e7 0.0
2.6243074624429945e7 -4.713729862847291e6 0.0
0.0 0.0 0.0

2.5072485369513645e6 2.4801058061562978e7 0.0
2.4801058061562978e7 -7.755873727557572e6 0.0
0.0 0.0 0.0

-7.436230253229898e6 1.7283431473897357e7 0.0
1.7283431473897357e7 1.746632874552263e7 0.0
0.0 0.0 0.0

-1.425386039496842e6 2.0787119120623294e7 0.0
2.0787119120623294e7 -1.274189750001466e6 0.0
0.0 0.0 0.0

-5.243416074144866e6 524204.61902549333 0.0
524204.61902549333 6.6708185746334724e7 0.0
0.0 0.0 0.0

496396.51572842215 3.761148419065328e6 0.0
3.761148419065328e6 -1.1414664561152481e6 0.0
0.0 0.0 0.0

-5.011607827013768e6 -1.1503711867828546e6 0.0
-1.1503711867828546e6 1.988645728390063e6 0.0
0.0 0.0 0.0

843777.829632641 -1.7278777248791514e6 0.0
-1.7278777248791514e6 -2.209460831806101e6 0.0
0.0 0.0 0.0

3.1843341552215912e6 2.508496963126284e7 0.0
2.508496963126284e7 -7.303069575078365e6 0.0
0.0 0.0 0.0

-5.927425608460378e6 1.6079343766904272e7 0.0
1.6079343766904272e7 -5.19113528594696e7 0.0
0.0 0.0 0.0

3.9929721028325185e6 1.8883975898226533e7 0.0
1.8883975898226533e7 2.994228780746701e7 0.0
0.0 0.0 0.0

-3.025225056651136e6 1.9769999488568608e7 0.0
1.9769999488568608e7 -1.1920885391695369e7 0.0
0.0 0.0 0.0

3.94773355111506e6 2.201837242224153e6 0.0
2.201837242224153e6 -2.4895524456214737e7 0.0
0.0 0.0 0.0

-1.7430890392811904e6 1.7653232445043486e7 0.0
1.7653232445043486e7 -4.425740139008737e6 0.0
0.0 0.0 0.0

157886.0566055784 2.0350780743068196e7 0.0
2.0350780743068196e7 -1.3352115197143978e7 0.0
0.0 0.0 0.0

-3.4350843561067004e6 1.5499668092705205e7 0.0
1.5499668092705205e7 -3.722078056378787e7 0.0
0.0 0.0 0.0

128586.02619925025 2.6828154119511332e7 0.0
2.6828154119511332e7 -3.444801471335915e6 0.0
0.0 0.0 0.0

-4.478536653063097e6 1.999902976686203e7 0.0
1.999902976686203e7 2.170481863984191e7 0.0
0.0 0.0 0.0

-1.3762278136611772e6 1.8183791217265513e7 0.0
1.8183791217265513e7 -3.4912539998118808e6 0.0
0.0 0.0 0.0

203167.81105021527 2.0127353991887543e7 0.0
2.0127353991887543e7 2.960705080379972e6 0.0
0.0 0.0 0.0

-5.617277872830415e6 1.6708637633686904e7 0.0
1.6708637633686904e7 -2.5928807390037335e7 0.0
0.0 0.0 0.0

-2.285809459700819e7 2.8407391620170645e7 0.0
2.8407391620170645e7 -5.574743618857621e6 0.0
0.0 0.0 0.0

1.2408811508041564e7 4.182391346292588e7 0.0
4.182391346292588e7 -4.2731584246624075e6 0.0
0.0 0.0 0.0

-2.3114564771770616e6 83374.96456428673 0.0
83374.96456428673 4.493319802624808e6 0.0
0.0 0.0 0.0

-1.598798325958468e6 -751967.7580339228 0.0
-751967.7580339228 4.0539042182349795e6 0.0
0.0 0.0 0.0

-4.512942483661884e6 2.0842868450750496e7 0.0
2.0842868450750496e7 1.9314980987951133e7 0.0
0.0 0.0 0.0

-1.2752612443241032e6 2.3351978271926586e7 0.0
2.3351978271926586e7 -6.240872918995557e6 0.0
0.0 0.0 0.0

-1.5645065099958107e6 3.0035333304075148e7 0.0
3.0035333304075148e7 1.4462938625853732e6 0.0
0.0 0.0 0.0

-2.411335495998143e6 2.7218926841449536e7 0.0
2.7218926841449536e7 3.6392538109074133e6 0.0
0.0 0.0 0.0

1.1837393838563135e7 2.1597862573465146e7 0.0
2.1597862573465146e7 9.528047408141699e6 0.0
0.0 0.0 0.0

3.1062315444123987e6 2.1523340181301102e7 0.0
2.1523340181301102e7 -4.8090108369878745e6 0.0
0.0 0.0 0.0

4.2148876589456145e6 1.8239734410166517e7 0.0
1.8239734410166517e7 5.083640620162531e7 0.0
0.0 0.0 0.0

-4.462079848936226e7 2.9081365480119705e7 0.0
2.9081365480119705e7 -1.3729992762955293e7 0.0
0.0 0.0 0.0

-1.1749287482693979e8 3.983766991590877e7 0.0
3.983766991590877e7 3.973918549374707e6 0.0
0.0 0.0 0.0

-7.295923972322034e6 1.6363831696154527e7 0.0
1.6363831696154527e7 1.527367700113573e7 0.0
0.0 0.0 0.0

-2.9464614761479776e6 2.1438853000697277e7 0.0
2.1438853000697277e7 1.6249764830354042e7 0.0
0.0 0.0 0.0

3.110975851024228e6 5.150675138619129e6 0.0
5.150675138619129e6 -2.3090534965951033e7 0.0
0.0 0.0 0.0

-7.643587265970758e6 1.758046987879634e7 0.0
1.758046987879634e7 2.189662034142515e7 0.0
0.0 0.0 0.0

-6.65513908605859e6 -6.240212989483059e6 0.0
-6.240212989483059e6 1.5696898635078313e7 0.0
0.0 0.0 0.0

9.31963250919673e6 2.292543431554331e7 0.0
2.292543431554331e7 1.2306689775161237e7 0.0
0.0 0.0 0.0

-2.3482133420284875e6 1.5805723757674731e7 0.0
1.5805723757674731e7 -3.57668199567595e7 0.0
0.0 0.0 0.0

3.6505037751205955e6 4.5118095440033255e6 0.0
4.5118095440033255e6 -2.900662115206823e7 0.0
0.0 0.0 0.0

5.522049934065007e6 2.0721647670833282e7 0.0
2.0721647670833282e7 6.296598678103751e6 0.0
0.0 0.0 0.0

-1.973856674538564e6 4.473759266755351e6 0.0
4.473759266755351e6 8.599927335616717e7 0.0
0.0 0.0 0.0

-4.571957081664163e6 2.848127021053591e7 0.0
2.848127021053591e7 6.128002444264399e6 0.0
0.0 0.0 0.0

-1.7224781985742964e7 2.4978810894571327e7 0.0
2.4978810894571327e7 522629.0314448457 0.0
0.0 0.0 0.0

1.5451533652209463e6 2.3624743318495296e7 0.0
2.3624743318495296e7 -9.122940576262238e6 0.0
0.0 0.0 0.0

-8.766884959644549e6 -4.1679950202343753e6 0.0
-4.1679950202343753e6 2.8659536802989744e7 0.0
0.0 0.0 0.0

386637.9977899147 1.8737104201307755e7 0.0
1.8737104201307755e7 6.667609206256501e6 0.0
0.0 0.0 0.0

-8.226911264431922e6 -2.8386793852640577e6 0.0
-2.8386793852640577e6 3.7615529846852064e7 0.0
0.0 0.0 0.0

5.548521605101982e6 2.1691623411258742e7 0.0
2.1691623411258742e7 6.177445316854649e6 0.0
0.0 0.0 0.0

-2.300349276486872e6 2.2610956506425977e7 0.0
2.2610956506425977e7 1.2193157860650045e6 0.0
0.0 0.0 0.0

3.7517742725537177e6 2.999742920677758e6 0.0
2.999742920677758e6 -3.205156517753757e7 0.0
0.0 0.0 0.0

-5.058920641635217e6 2.086763762592675e7 0.0
2.086763762592675e7 -1.363100362663872e7 0.0
0.0 0.0 0.0

3.9216587386705484e6 2.3355561058312e6 0.0
2.3355561058312e6 -2.2382564416116934e7 0.0
0.0 0.0 0.0

273389.2575298324 1.6973552774355456e7 0.0
1.6973552774355456e7 -2.1547163056291886e7 0.0
0.0 0.0 0.0

-5.800492792118729e6 3.440042606695295e7 0.0
3.440042606695295e7 2.893235240135885e6 0.0
0.0 0.0 0.0

-305943.8326956668 1.6526176146752872e7 0.0
1.6526176146752872e7 -168744.1916002015 0.0
0.0 0.0 0.0

77155.68330247654 2.3156223926304117e7 0.0
2.3156223926304117e7 -9.380046780965306e6 0.0
0.0 0.0 0.0

-4.24281871471208e6 3.2630585045609016e7 0.0
3.2630585045609016e7 2.2225950176139167e6 0.0
0.0 0.0 0.0

-2.861778034537431e6 2.5702747542424772e7 0.0
2.5702747542424772e7 6.306006210277221e6 0.0
0.0 0.0 0.0

-2.9986968229444046e6 2.6851777277896304e7 0.0
2.6851777277896304e7 3.0505315253650984e6 0.0
0.0 0.0 0.0

-378564.2051208022 3.252436283189526e7 0.0
3.252436283189526e7 -930285.7643349672 0.0
0.0 0.0 0.0

622762.8082654402 2.2351317035086967e7 0.0
2.2351317035086967e7 -1.0189644424859755e7 0.0
0.0 0.0 0.0

-3.6679770406598034e6 3.5813942967879854e7 0.0
3.5813942967879854e7 1.140984282610242e6 0.0
0.0 0.0 0.0

-1.0739525445833761e7 1.2764439724852994e7 0.0
1.2764439724852994e7 1.7823645459658735e7 0.0
0.0 0.0 0.0

946658.6152418908 1.3964116321507037e7 0.0
1.3964116321507037e7 -1.7022078100762438e7 0.0
0.0 0.0 0.0

-1.0345809476937074e7 -1.2556771758836964e6 0.0
-1.2556771758836964e6 2.3349274067735963e7 0.0
0.0 0.0 0.0

-1.250086142004522e7 2.6884477220578615e7 0.0
2.6884477220578615e7 4.632178505377452e6 0.0
0.0 0.0 0.0

-7.763045579446379e6 621294.8491390895 0.0
621294.8491390895 4.9563501309018604e7 0.0
0.0 0.0 0.0

3.1883644891850934e6 2.9823703042915553e7 0.0
2.9823703042915553e7 -4.498829145255933e6 0.0
0.0 0.0 0.0

671763.1038637469 1.6950407370695554e7 0.0
1.6950407370695554e7 -2.153537207302028e7 0.0
0.0 0.0 0.0

1.0650252999543124e6 2.077240527606289e7 0.0
2.077240527606289e7 8.18230212081301e6 0.0
0.0 0.0 0.0

-972108.0138274515 1.6609030619724665e7 0.0
1.6609030619724665e7 -1.051454994447408e7 0.0
0.0 0.0 0.0

487541.6333840173 1.4388222591135822e7 0.0
1.4388222591135822e7 -3.0033209505208053e7 0.0
0.0 0.0 0.0

3.3221199127757484e6 4.0365339295629524e6 0.0
4.0365339295629524e6 -1.6001683479258053e7 0.0
0.0 0.0 0.0

4.03222040114329e6 2.5239688329844262e7 0.0
2.5239688329844262e7 -6.854315114201677e6 0.0
0.0 0.0 0.0

-113912.66268018354 2.0197675201642368e7 0.0
2.0197675201642368e7 6.419592299452499e6 0.0
0.0 0.0 0.0

-2.8346860992068932e6 2.0038036096700948e7 0.0
2.0038036096700948e7 -1.7775278991567236e6 0.0
0.0 0.0 0.0

2.2286488542778827e6 1.6519388178161718e6 0.0
1.6519388178161718e6 -5.6267642866863415e7 0.0
0.0 0.0 0.0

-1.101047344385446e7 4.646029917659939e6 0.0
4.646029917659939e6 2.3864607711769342e7 0.0
0.0 0.0 0.0

1.812770660341069e6 4.0955053557654973e6 0.0
4.0955053557654973e6 -5.6106872411554605e7 0.0
0.0 0.0 0.0

-8.528247038534906e6 -5.441819210973755e6 0.0
-5.441819210973755e6 2.1211129928329386e7 0.0
0.0 0.0 0.0

-2.6668965263695815e6 2.2484510362539854e7 0.0
2.2484510362539854e7 -252175.10618798004 0.0
0.0 0.0 0.0

-516461.3535922584 2.0255416608603656e7 0.0
2.0255416608603656e7 3.7581684675193485e6 0.0
0.0 0.0 0.0

531454.1185170657 2.0416257542660546e7 0.0
2.0416257542660546e7 5.809651952175692e6 0.0
0.0 0.0 0.0

-6.626919017491867e6 1.606042283778952e7 0.0
1.606042283778952e7 1.7790205372733887e7 0.0
0.0 0.0 0.0

-8.61960277403551e6 -3.2361587323188996e6 0.0
-3.2361587323188996e6 3.226803309232259e7 0.0
0.0 0.0 0.0

5.114116646393215e6 2.708208793517829e7 0.0
2.708208793517829e7 -5.847149419295634e6 0.0
0.0 0.0 0.0

5.627647091863457e6 2.1265129081063308e7 0.0
2.1265129081063308e7 1.5492086476223169e7 0.0
0.0 0.0 0.0

2.3279833461976293e6 8.751695367422516e6 0.0
8.751695367422516e6 -2.5848176152427252e7 0.0
0.0 0.0 0.0

-8.825703333172195e6 -1.5965107334219767e6 0.0
-1.5965107334219767e6 3.4470722993193805e7 0.0
0.0 0.0 0.0

3.550022308071623e6 2.1312066267192632e7 0.0
2.1312066267192632e7 1.2102333130049104e7 0.0
0.0 0.0 0.0

-3.1508454579809327e6 1.6861848144013047e7 0.0
1.6861848144013047e7 4.132605407126311e7 0.0
0.0 0.0 0.0

6.395697247819848e6 2.231497452520076e7 0.0
2.231497452520076e7 1.201481937761047e7 0.0
0.0 0.0 0.0

-4.92108508772438e6 1.5552299052188335e7 0.0
1.5552299052188335e7 -4.867951088093998e7 0.0
0.0 0.0 0.0

-3.500033242967924e6 1.9703599403310828e7 0.0
1.9703599403310828e7 2.5140597917036843e7 0.0
0.0 0.0 0.0

936070.1013170909 1.9007290072461348e7 0.0
1.9007290072461348e7 1.950050695847153e7 0.0
0.0 0.0 0.0

1.559574354053407e6 2.1963126111873392e7 0.0
2.1963126111873392e7 -1.1228143912223693e7 0.0
0.0 0.0 0.0

-2.9486284920263225e6 2.133113845235183e7 0.0
2.133113845235183e7 -5.863904711209372e6 0.0
0.0 0.0 0.0

1.3424599178892802e6 8.43210175081523e6 0.0
8.43210175081523e6 -4.1272876684315875e7 0.0
0.0 0.0 0.0

1.4351313407474682e6 7.59717814923596e6 0.0
7.59717814923596e6 -4.3397390680252e7 0.0
0.0 0.0 0.0

-68464.05949696712 1.6259933440812197e7 0.0
1.6259933440812197e7 -9.966890362465426e6 0.0
0.0 0.0 0.0

-7.341481255927958e6 1.739558541329761e7 0.0
1.739558541329761e7 2.9063553470856935e7 0.0
0.0 0.0 0.0

491094.75251052994 2.049475797440737e7 0.0
2.049475797440737e7 -1.4028159572986778e7 0.0
0.0 0.0 0.0

-5.765216493800968e6 3.4610574876139034e6 0.0
3.4610574876139034e6 6.366629896911834e7 0.0
0.0 0.0 0.0

-2.3936265247538667e6 1.5319669646568848e7 0.0
1.5319669646568848e7 -4.038069537905914e7 0.0
0.0 0.0 0.0

842249.135006614 1.5464274327170776e7 0.0
1.5464274327170776e7 5.467305759963657e7 0.0
0.0 0.0 0.0

2.356748404603567e6 1.7484926205643832e6 0.0
1.7484926205643832e6 -5.397892578987316e7 0.0
0.0 0.0 0.0

804514.0078557329 2.3414134937636632e7 0.0
2.3414134937636632e7 -9.201508762213506e6 0.0
0.0 0.0 0.0

5.17780730424019e6 2.2036066555237666e7 0.0
2.2036066555237666e7 1.2652152402559776e7 0.0
0.0 0.0 0.0

-6.454740299900272e6 1.6960267540614497e7 0.0
1.6960267540614497e7 -4.454947028496215e7 0.0
0.0 0.0 0.0

1.0520092489141477e7 1.111551936071063e7 0.0
1.111551936071063e7 1.2854050473274007e6 0.0
0.0 0.0 0.0

-1.975149609025185e6 2.0505417522801735e7 0.0
2.0505417522801735e7 -7.327192106664578e6 0.0
0.0 0.0 0.0

4.280078291293563e6 2.160680567202302e7 0.0
2.160680567202302e7 1.3211705159500195e7 0.0
0.0 0.0 0.0

-3.2478465544816745e6 2.2394613658818837e7 0.0
2.2394613658818837e7 1.1136447238746818e7 0.0
0.0 0.0 0.0

-3.3355363100080173e6 2.134520612549001e7 0.0
2.134520612549001e7 1.6695298454363633e7 0.0
0.0 0.0 0.0

653291.0733428607 1.2700847145751888e7 0.0
1.2700847145751888e7 -1.4976365290175416e7 0.0
0.0 0.0 0.0

-9.447580859404419e6 1.6392676030991158e7 0.0
1.6392676030991158e7 2.6870140304802544e7 0.0
0.0 0.0 0.0

-3.992113273428349e6 1.510921321378308e7 0.0
1.510921321378308e7 -4.539594305757268e7 0.0
0.0 0.0 0.0

-2.4319279826663295e6 2.035241190279091e7 0.0
2.035241190279091e7 -1.1045523220530838e7 0.0
0.0 0.0 0.0

-6.585560949999433e6 2.3379900615244836e7 0.0
2.3379900615244836e7 6.302649472691059e6 0.0
0.0 0.0 0.0

471570.6939595225 1.1320475721173218e7 0.0
1.1320475721173218e7 -8.682861350291148e6 0.0
0.0 0.0 0.0

-4.732257307820242e6 6.045675238154848e6 0.0
6.045675238154848e6 8.32265136202271e7 0.0
0.0 0.0 0.0

-7.262285396881461e6 1.6711178199029775e7 0.0
1.6711178199029775e7 -5.559554719670132e7 0.0
0.0 0.0 0.0

-2.6537525149679296e6 1.8869935400812514e7 0.0
1.8869935400812514e7 2.8813665691826455e7 0.0
0.0 0.0 0.0

-1.900405778985916e6 3.0601528750693094e7 0.0
3.0601528750693094e7 308412.67827331985 0.0
0.0 0.0 0.0

1.8091966238526843e7 2.178116055500742e7 0.0
2.178116055500742e7 7.381443371255079e6 0.0
0.0 0.0 0.0

-735564.1824865509 1.8507095313791852e7 0.0
1.8507095313791852e7 3.66645870473467e7 0.0
0.0 0.0 0.0

-4.355047093091365e6 2.0555447762355063e7 0.0
2.0555447762355063e7 1.9252469646252584e7 0.0
0.0 0.0 0.0

564732.2908072453 1.499835823846017e7 0.0
1.499835823846017e7 -1.660764975313257e7 0.0
0.0 0.0 0.0

-2.989171892457219e6 1.9471151478674024e7 0.0
1.9471151478674024e7 -1.2752975501464095e7 0.0
0.0 0.0 0.0

-5.562775594364444e6 1.8890717852620333e7 0.0
1.8890717852620333e7 1.4996859365868444e7 0.0
0.0 0.0 0.0

-5.840050296940646e6 1.759959576346362e7 0.0
1.759959576346362e7 1.7902001888007097e7 0.0
0.0 0.0 0.0

3.2567643396100886e6 3.0399438141319696e6 0.0
3.0399438141319696e6 -2.9784563220138688e7 0.0
0.0 0.0 0.0

-4.0514378821720695e6 2.4982997643943198e7 0.0
2.4982997643943198e7 9.942468575028803e6 0.0
0.0 0.0 0.0

-1.6248519227316757e6 1.6844925114168316e7 0.0
1.6844925114168316e7 -2.8752961567317713e6 0.0
0.0 0.0 0.0

4.175823511498173e6 3.3863325999606475e6 0.0
3.3863325999606475e6 -2.142973224850154e7 0.0
0.0 0.0 0.0

1.8170363781964781e6 2.8825888278984774e7 0.0
2.8825888278984774e7 -4.551083188398263e6 0.0
0.0 0.0 0.0

6.157279620720118e6 2.2122196622389913e7 0.0
2.2122196622389913e7 1.3756582536575051e7 0.0
0.0 0.0 0.0

-6.788933794391669e6 1.8118340504456954e6 0.0
1.8118340504456954e6 5.5872466830478095e7 0.0
0.0 0.0 0.0

8.582858247003391e6 2.339891961042493e7 0.0
2.339891961042493e7 1.1435577242476461e7 0.0
0.0 0.0 0.0

5.730852515312628e6 2.2093363493667595e7 0.0
2.2093363493667595e7 8.920599477442356e6 0.0
0.0 0.0 0.0

-66967.02152327448 1.9510777929844532e7 0.0
1.9510777929844532e7 -1.377354387299994e7 0.0
0.0 0.0 0.0

2.8797879152002707e6 3.032313932950183e6 0.0
3.032313932950183e6 -3.937531287482706e7 0.0
0.0 0.0 0.0

2.872459332415548e6 1.782194389155859e7 0.0
1.782194389155859e7 1.2819216866677284e7 0.0
0.0 0.0 0.0

372500.6081480603 1.9948286145921696e7 0.0
1.9948286145921696e7 -1.2508533608363375e7 0.0
0.0 0.0 0.0

1.2490290846520923e6 2.0443596957108416e7 0.0
2.0443596957108416e7 9.511677560285475e6 0.0
0.0 0.0 0.0

-1.0996717401403192e7 6.540966962238102e6 0.0
6.540966962238102e6 1.8859480742764395e7 0.0
0.0 0.0 0.0

-7.527917232748812e6 -5.700182809505823e6 0.0
-5.700182809505823e6 1.9989393455644075e7 0.0
0.0 0.0 0.0

-5.192700430870108e6 2.2672697918239117e7 0.0
2.2672697918239117e7 4.1465605614503147e6 0.0
0.0 0.0 0.0

892273.5269072074 1.495587449637701e7 0.0
1.495587449637701e7 -2.571216250926736e7 0.0
0.0 0.0 0.0

-3.4671722779375957e6 1.857405331510465e7 0.0
1.857405331510465e7 -1.6892625228661537e7 0.0
0.0 0.0 0.0

-5.080292400387879e6 2.463240009871577e6 0.0
2.463240009871577e6 8.065767811178589e7 0.0
0.0 0.0 0.0

-4.661794928903867e6 3.680858652899533e7 0.0
3.680858652899533e7 1.3302819874931166e6 0.0
0.0 0.0 0.0

799288.1404212906 5.856138670053135e6 0.0
5.856138670053135e6 -3.002825255855986e6 0.0
0.0 0.0 0.0

-1.267402799276033e6 2.044795457106201e7 0.0
2.044795457106201e7 1.301179263604233e6 0.0
0.0 0.0 0.0

2.927093434412568e6 2.1289687215610545e7 0.0
2.1289687215610545e7 1.1939995954007683e7 0.0
0.0 0.0 0.0

-7.733652140701648e6 1.7775673373660974e7 0.0
1.7775673373660974e7 2.6158674443884194e7 0.0
0.0 0.0 0.0

-1.4091522501252387e7 2.6383446424931224e7 0.0
2.6383446424931224e7 2.8171037929360904e6 0.0
0.0 0.0 0.0

4.20156875827573e6 2.2133218858666066e7 0.0
2.2133218858666066e7 9.94440722907202e6 0.0
0.0 0.0 0.0

2.2074871750054606e6 2.1877998325861223e7 0.0
2.1877998325861223e7 1.1194814345890345e7 0.0
0.0 0.0 0.0

520982.2208679607 1.89654878750744e7 0.0
1.89654878750744e7 -1.7688607937387705e7 0.0
0.0 0.0 0.0

2.262708684231543e6 5.446784675784848e6 0.0
5.446784675784848e6 -1.2428371568328835e7 0.0
0.0 0.0 0.0

-759881.1068487857 1.9544331508884866e7 0.0
1.9544331508884866e7 -1.5679386719193397e7 0.0
0.0 0.0 0.0

196198.42532514734 2.1815669980532404e7 0.0
2.1815669980532404e7 -1.1390012456820995e7 0.0
0.0 0.0 0.0

-2.578131594135876e6 2.4833002831587274e7 0.0
2.4833002831587274e7 5.545913147909508e6 0.0
0.0 0.0 0.0

1.8690138894518125e6 2.2906211165310618e7 0.0
2.2906211165310618e7 -9.448430289687775e6 0.0
0.0 0.0 0.0

1.2409996978573804e6 2.2095124049970903e7 0.0
2.2095124049970903e7 -1.034434744298312e7 0.0
0.0 0.0 0.0

3.26933353648849e6 4.052933104660828e6 0.0
4.052933104660828e6 -3.540149807701126e7 0.0
0.0 0.0 0.0

2.9388251622544792e6 2.131655265077329e7 0.0
2.131655265077329e7 7.158106968429781e6 0.0
0.0 0.0 0.0

118137.93119358364 2.2455888932565127e7 0.0
2.2455888932565127e7 -1.0328826031565918e7 0.0
0.0 0.0 0.0

-1.09147720642158e7 1.455130296341604e7 0.0
1.455130296341604e7 2.2323087588769414e7 0.0
0.0 0.0 0.0

-8.76370005027475e7 3.2493763257457394e7 0.0
3.2493763257457394e7 -8.15589423634544e6 0.0
0.0 0.0 0.0

3.0047131875841863e7 2.9818470339793652e7 0.0
2.9818470339793652e7 1.0015730819123515e8 0.0
0.0 0.0 0.0

-2.935383028564193e7 2.778793181953793e7 0.0
2.778793181953793e7 -9.784629477466905e7 0.0
0.0 0.0 0.0

-4.632819807247954e6 1.9690189389700063e7 0.0
1.9690189389700063e7 2.30646681423743e7 0.0
0.0 0.0 0.0

1.0183732381570414e6 1.4611149810173592e7 0.0
1.4611149810173592e7 -2.2589563386371605e7 0.0
0.0 0.0 0.0

-3.73369356433314e6 2.0491845880800918e7 0.0
2.0491845880800918e7 -1.303216543936139e7 0.0
0.0 0.0 0.0

2.499677519245225e6 3.714829839694758e7 0.0
3.714829839694758e7 -2.592539167626056e6 0.0
0.0 0.0 0.0

-1.7657824310768154e6 1.7758219945036173e7 0.0
1.7758219945036173e7 -2.1310373151622962e7 0.0
0.0 0.0 0.0

-4.638012216611566e6 2.155034743816036e7 0.0
2.155034743816036e7 -7.8227331344441185e6 0.0
0.0 0.0 0.0

-9.597571954735514e6 1.6481085281537522e7 0.0
1.6481085281537522e7 2.2977779323657546e7 0.0
0.0 0.0 0.0

-1.0760047687533102e6 2.54789826081747e7 0.0
2.54789826081747e7 -1.7691343909669751e6 0.0
0.0 0.0 0.0

-2.6123592070088545e6 1.652986477364509e7 0.0
1.652986477364509e7 -3.2949267058831565e7 0.0
0.0 0.0 0.0

-1.860924308891995e6 2.042560547656638e7 0.0
2.042560547656638e7 -7.174547572172095e6 0.0
0.0 0.0 0.0

-3.9407194352141134e6 2.2438127163565226e7 0.0
2.2438127163565226e7 1.2248940632329265e7 0.0
0.0 0.0 0.0

1.7559136876327153e7 2.218976825071603e7 0.0
2.218976825071603e7 -17470.840155693702 0.0
0.0 0.0 0.0

942124.2987899391 1.978314509284321e7 0.0
1.978314509284321e7 7.064802319365712e6 0.0
0.0 0.0 0.0

-4.7673884670070615e6 2.010353429148253e7 0.0
2.010353429148253e7 2.061563123775375e7 0.0
0.0 0.0 0.0

-2.0877477345677193e7 2.508512442920453e7 0.0
2.508512442920453e7 -1.940580744221013e6 0.0
0.0 0.0 0.0

575033.2378896847 2.0101309818115e7 0.0
2.0101309818115e7 7.077021040486485e6 0.0
0.0 0.0 0.0

2.4848882739361473e6 2.9334688183340024e7 0.0
2.9334688183340024e7 -4.381842383363795e6 0.0
0.0 0.0 0.0

8.96588759220691e6 2.670589887355745e7 0.0
2.670589887355745e7 -5.430120340454021e6 0.0
0.0 0.0 0.0

1.547903495927683e6 1.396801332715337e7 0.0
1.396801332715337e7 -1.7285447165628754e7 0.0
0.0 0.0 0.0

-4.751016490145806e6 1.859063555393262e7 0.0
1.859063555393262e7 2.8304583694716107e7 0.0
0.0 0.0 0.0

-208370.32828531787 1.8545021316851266e7 0.0
1.8545021316851266e7 -1.8238454416401006e7 0.0
0.0 0.0 0.0

-2.9778306198530532e6 1.832532689118545e7 0.0
1.832532689118545e7 5.196664477733796e6 0.0
0.0 0.0 0.0

-6.354711475109107e6 1.8730156645167913e7 0.0
1.8730156645167913e7 1.7601049389630347e7 0.0
0.0 0.0 0.0

2.0283477206484973e6 7.533878981804681e6 0.0
7.533878981804681e6 -9.269581427475052e6 0.0
0.0 0.0 0.0

1.031848811529241e6 1.905049048130103e7 0.0
1.905049048130103e7 1.0055700436613008e7 0.0
0.0 0.0 0.0

4.919513044916702e6 2.6062445946927126e7 0.0
2.6062445946927126e7 -6.267099837689886e6 0.0
0.0 0.0 0.0

-900597.8426340371 1.1363275120818166e7 0.0
1.1363275120818166e7 -6.2942416154486515e7 0.0
0.0 0.0 0.0

-1.1222940801866982e7 1.391388696269214e7 0.0
1.391388696269214e7 2.159360827922459e7 0.0
0.0 0.0 0.0

1.9754709723176144e7 3.976155025300936e7 0.0
3.976155025300936e7 -6.571914150495966e6 0.0
0.0 0.0 0.0

2.3038995253275204e6 7.807788976793819e6 0.0
7.807788976793819e6 -4.040405155656915e7 0.0
0.0 0.0 0.0

561227.0997329252 1.89211325583285e7 0.0
1.89211325583285e7 7.990255057504078e6 0.0
0.0 0.0 0.0

2.301651626034389e6 2.39924962919483e7 0.0
2.39924962919483e7 -8.476393050074393e6 0.0
0.0 0.0 0.0

1.353193103390406e7 2.363672823980199e7 0.0
2.363672823980199e7 1.408046338742529e8 0.0
0.0 0.0 0.0

-1.4365639741713695e7 2.2846373681903258e7 0.0
2.2846373681903258e7 -1.3220004333602276e8 0.0
0.0 0.0 0.0

2.7701515627322555e7 2.0231144930923525e7 0.0
2.0231144930923525e7 5.751994445813337e6 0.0
0.0 0.0 0.0

1.0589266813834958e7 2.6060139894219898e7 0.0
2.6060139894219898e7 -5.046058742341436e6 0.0
0.0 0.0 0.0

509075.89884522045 1.0749395633959956e7 0.0
1.0749395633959956e7 -7.697820591961903e6 0.0
0.0 0.0 0.0

2.003035077375638e7 3.5603563911086865e7 0.0
3.5603563911086865e7 -6.745559711251649e6 0.0
0.0 0.0 0.0

-1.650094824438245e6 2.04654015057733e7 0.0
2.04654015057733e7 2.0107731568438433e7 0.0
0.0 0.0 0.0

1.4409651076255484e7 2.1888133723018125e7 0.0
2.1888133723018125e7 145130.9412617227 0.0
0.0 0.0 0.0

-3.4769611887711957e6 2.4228455833576348e7 0.0
2.4228455833576348e7 7.86543296424561e6 0.0
0.0 0.0 0.0

-5.436408575250407e6 1.676311030907334e7 0.0
1.676311030907334e7 1.5946194615568312e7 0.0
0.0 0.0 0.0

-43811.680840208544 3.9170146676667035e6 0.0
3.9170146676667035e6 -3.318124980858975e6 0.0
0.0 0.0 0.0

6.737482040464054e6 2.1795962725285634e7 0.0
2.1795962725285634e7 1.4550493343232844e7 0.0
0.0 0.0 0.0

-96708.58005914977 2.5324034967497557e7 0.0
2.5324034967497557e7 -6.057582924474562e6 0.0
0.0 0.0 0.0

-4.68720516716277e6 1.9487280728127033e7 0.0
1.9487280728127033e7 2.446495903057238e7 0.0
0.0 0.0 0.0

-5.347191719711971e6 2.533073707553144e7 0.0
2.533073707553144e7 9.357049051162787e6 0.0
0.0 0.0 0.0

-2.843277523816345e6 2.382147047888421e7 0.0
2.382147047888421e7 8.611710921697631e6 0.0
0.0 0.0 0.0

-2.209720883790569e6 1.8108585685121756e7 0.0
1.8108585685121756e7 -6.345538287103075e6 0.0
0.0 0.0 0.0

-2.301089515546372e6 1.8700357338376403e7 0.0
1.8700357338376403e7 3.038654218845079e7 0.0
0.0 0.0 0.0

-3.2383287616302106e6 2.463596777739763e7 0.0
2.463596777739763e7 9.162871356996512e6 0.0
0.0 0.0 0.0

-4.621177927637675e6 1.3285627518237859e7 0.0
1.3285627518237859e7 9.160260439198583e6 0.0
0.0 0.0 0.0

-3.971505256599802e7 3.2222210546373725e7 0.0
3.2222210546373725e7 -4.230835026254054e6 0.0
0.0 0.0 0.0

-6.770582076029766e6 4.627970440805542e6 0.0
4.627970440805542e6 5.578237098378384e7 0.0
0.0 0.0 0.0

-7.250330713897051e6 2.5714124664105024e7 0.0
2.5714124664105024e7 7.792668426853254e6 0.0
0.0 0.0 0.0

-7.4812495580925355e6 3.068326076529674e7 0.0
3.068326076529674e7 5.768245513249945e6 0.0
0.0 0.0 0.0

-956032.0104030203 1.597152274060418e7 0.0
1.597152274060418e7 -2.9496825805221807e7 0.0
0.0 0.0 0.0

-2.350695776663998e6 3.383788807838324e7 0.0
3.383788807838324e7 1.6345134549952634e6 0.0
0.0 0.0 0.0

-6.147541850979932e6 3.801989406204286e7 0.0
3.801989406204286e7 1.395316745654853e6 0.0
0.0 0.0 0.0

-7.694902738501699e6 3.917782049368009e7 0.0
3.917782049368009e7 1.8407177569658281e6 0.0
0.0 0.0 0.0

-697603.6869553787 2.7626025911881626e7 0.0
2.7626025911881626e7 -2.941826229603421e6 0.0
0.0 0.0 0.0

-9.798299025755672e6 1.3478287818206761e7 0.0
1.3478287818206761e7 3.1507790190077405e7 0.0
0.0 0.0 0.0

3.4737070807084907e6 1.7846976091779566e6 0.0
1.7846976091779566e6 -3.3039006646762498e7 0.0
0.0 0.0 0.0

-3.251761513057582e6 1.9470859968954016e7 0.0
1.9470859968954016e7 2.624775673581823e7 0.0
0.0 0.0 0.0

2.130222924600452e6 3.0214845551183518e7 0.0
3.0214845551183518e7 -3.77798151821387e6 0.0
0.0 0.0 0.0

244255.97750027757 1.648167206754766e7 0.0
1.648167206754766e7 -2.2906074603550866e7 0.0
0.0 0.0 0.0

-8.12117454781867e6 -531293.0542501332 0.0
-531293.0542501332 4.3643519563921645e7 0.0
0.0 0.0 0.0

305351.68127457006 2.0021058267499674e7 0.0
2.0021058267499674e7 1.5243388615819e6 0.0
0.0 0.0 0.0

684715.0093228989 2.0435434537127636e7 0.0
2.0435434537127636e7 -1.148466881593563e7 0.0
0.0 0.0 0.0

-412150.318017195 1.9065427052914534e7 0.0
1.9065427052914534e7 -1.4982216124325244e7 0.0
0.0 0.0 0.0

-3.6971972890521847e6 1.6849100571276754e7 0.0
1.6849100571276754e7 -1.4756769813052816e7 0.0
0.0 0.0 0.0

-9.295832153155752e6 -3.634415461094436e6 0.0
-3.634415461094436e6 1.9104129844982587e7 0.0
0.0 0.0 0.0

-410218.0127050933 1.8355732559453033e7 0.0
1.8355732559453033e7 -2.5442262617851505e6 0.0
0.0 0.0 0.0

2.833697746509441e6 2.030915565823125e7 0.0
2.030915565823125e7 6.413732424867814e6 0.0
0.0 0.0 0.0

1.932843961799366e7 2.0682592858654894e7 0.0
2.0682592858654894e7 6.835464382745607e6 0.0
0.0 0.0 0.0

-8.692055239591409e6 4.1237644018743835e7 0.0
4.1237644018743835e7 2.623553109272847e6 0.0
0.0 0.0 0.0

-5.686487341818473e6 1.7170952385925576e7 0.0
1.7170952385925576e7 1.7044284521538064e7 0.0
0.0 0.0 0.0

-1.0178468756784849e7 1.8424809737501834e7 0.0
1.8424809737501834e7 -6.2276842821559966e7 0.0
0.0 0.0 0.0

2.9046996224983595e6 7.004503457734527e6 0.0
7.004503457734527e6 -3.383585624739895e7 0.0
0.0 0.0 0.0

-8.77850986209996e6 -3.9844651263179486e6 0.0
-3.9844651263179486e6 2.8967246222584303e7 0.0
0.0 0.0 0.0

-2.0799146516989883e7 2.8449339515483435e7 0.0
2.8449339515483435e7 -8.492109921514697e6 0.0
0.0 0.0 0.0

-2.0677613527445525e7 2.5613755298635017e7 0.0
2.5613755298635017e7 -4.302521236067598e6 0.0
0.0 0.0 0.0

-2.1393082505768193e6 1.8650229681670696e7 0.0
1.8650229681670696e7 -8.148798103327181e6 0.0
0.0 0.0 0.0

127577.9637054993 2.970965870553999e7 0.0
2.970965870553999e7 -2.606298678957565e6 0.0
0.0 0.0 0.0

469328.52370360866 6.604922195687967e6 0.0
6.604922195687967e6 -5.975881960836942e7 0.0
0.0 0.0 0.0

8.574762070056416e6 2.309362011280843e7 0.0
2.309362011280843e7 -3.476555859135961e6 0.0
0.0 0.0 0.0

5.841997707168253e6 2.261565075222778e7 0.0
2.261565075222778e7 1.1060128481737847e7 0.0
0.0 0.0 0.0

1.62984124679506e6 1.440508747008875e7 0.0
1.440508747008875e7 -2.231326086189276e7 0.0
0.0 0.0 0.0

-1.9323551470687767e6 2.3827789767810214e7 0.0
2.3827789767810214e7 686196.3572141754 0.0
0.0 0.0 0.0

1.526427676896507e6 1.3454954261609651e7 0.0
1.3454954261609651e7 -1.6403582550783977e7 0.0
0.0 0.0 0.0

1.0545889511875324e6 1.4080999018266864e7 0.0
1.4080999018266864e7 -2.4017264817719612e7 0.0
0.0 0.0 0.0

-2.582675636459048e6 1.767535910962011e7 0.0
1.767535910962011e7 -1.5471359159769353e7 0.0
0.0 0.0 0.0

-7.788289763772136e6 2.9688377762059283e7 0.0
2.9688377762059283e7 5.66346552773428e6 0.0
0.0 0.0 0.0

-1.5890867411909707e7 2.198971780347617e7 0.0
2.198971780347617e7 -7.22454423381079e7 0.0
0.0 0.0 0.0

1.6439790004119338e7 3.492086273193535e7 0.0
3.492086273193535e7 -5.543425149615182e6 0.0
0.0 0.0 0.0

6.173043217718735e6 2.6047913549207766e7 0.0
2.6047913549207766e7 -5.8164466332575735e6 0.0
0.0 0.0 0.0

-2.4408052013875223e6 3.148619150399566e7 0.0
3.148619150399566e7 2.3380326937806606e6 0.0
0.0 0.0 0.0

-3.8180013786004763e6 2.4047700778129764e7 0.0
2.4047700778129764e7 1.0686914954353869e7 0.0
0.0 0.0 0.0

579442.1745718755 5.452304996578748e6 0.0
5.452304996578748e6 -6.2501941821071275e7 0.0
0.0 0.0 0.0

-3.8657380391283976e6 2.2148138469451595e7 0.0
2.2148138469451595e7 1.508900444736074e7 0.0
0.0 0.0 0.0

1.5794424827672187e6 5.274908276272193e6 0.0
5.274908276272193e6 -5.037139806361967e7 0.0
0.0 0.0 0.0

-431128.45495985635 2.119273329932578e7 0.0
2.119273329932578e7 -8.674473795500534e6 0.0
0.0 0.0 0.0

-443943.14230998326 2.0369138250373237e7 0.0
2.0369138250373237e7 -9.047364273040188e6 0.0
0.0 0.0 0.0

-1.033697829238247e6 1.7863382121797685e7 0.0
1.7863382121797685e7 -3.7129668871643916e6 0.0
0.0 0.0 0.0

-3.1468644894324495e6 2.0641540878880873e7 0.0
2.0641540878880873e7 1.7588584172091827e7 0.0
0.0 0.0 0.0

-1.5991845578880627e6 2.653224864056492e7 0.0
2.653224864056492e7 -1.9828034551999683e6 0.0
0.0 0.0 0.0

-4.284127064795668e6 2.0818260916441534e7 0.0
2.0818260916441534e7 1.4395070940684441e7 0.0
0.0 0.0 0.0

-8.474180115167513e6 -3.367287317361122e6 0.0
-3.367287317361122e6 3.3068581935755037e7 0.0
0.0 0.0 0.0

2.295364190615615e6 6.661719567502892e6 0.0
6.661719567502892e6 -3.574486362816039e7 0.0
0.0 0.0 0.0

2.2485149677285515e6 9.024820999244655e6 0.0
9.024820999244655e6 -2.7886655660159916e7 0.0
0.0 0.0 0.0

1.4717501869019913e6 3.2608683440076843e7 0.0
3.2608683440076843e7 -1.7357520703911607e6 0.0
0.0 0.0 0.0

-2.8554634484741306e6 2.0485474758116875e7 0.0
2.0485474758116875e7 -1.0983828070451185e7 0.0
0.0 0.0 0.0

-163943.24144001864 1.5196498348385684e7 0.0
1.5196498348385684e7 -2.9791291455094084e7 0.0
0.0 0.0 0.0

3.0714165630647754e6 1.981481775378839e7 0.0
1.981481775378839e7 1.5828916446198963e7 0.0
0.0 0.0 0.0

-1.0282295050064396e7 2.0715584783729129e6 0.0
2.0715584783729129e6 2.2710954590322215e7 0.0
0.0 0.0 0.0

6.610848171506734e6 2.3203257703310348e7 0.0
2.3203257703310348e7 1.2240356383609615e7 0.0
0.0 0.0 0.0

-1.4450397640257582e7 3.280706650932624e7 0.0
3.280706650932624e7 6.508770596747848e6 0.0
0.0 0.0 0.0

4.152637149774826e6 2.091235022376432e7 0.0
2.091235022376432e7 7.043249940319706e6 0.0
0.0 0.0 0.0

2.528413382321627e6 1.8313860824722435e7 0.0
1.8313860824722435e7 1.4935805425612662e7 0.0
0.0 0.0 0.0

-5.381683698280318e6 2.8967875368213214e7 0.0
2.8967875368213214e7 5.870691133970248e6 0.0
0.0 0.0 0.0

-3.7668169222281566e6 2.134525245798221e7 0.0
2.134525245798221e7 1.73886483408452e7 0.0
0.0 0.0 0.0

-1.0587969821620937e6 1.804028761867609e7 0.0
1.804028761867609e7 3.607027244065338e7 0.0
0.0 0.0 0.0

-1.9768099868460674e7 2.624687187326169e7 0.0
2.624687187326169e7 -2.3919992270101677e6 0.0
0.0 0.0 0.0

-1.315501634705333e7 2.4842916188901532e7 0.0
2.4842916188901532e7 2.4447762446653843e6 0.0
0.0 0.0 0.0

-1.1904137098444048e7 1.7051794523288038e7 0.0
1.7051794523288038e7 1.478656665432176e6 0.0
0.0 0.0 0.0

-7.928154685420015e7 3.5446883424173035e7 0.0
3.5446883424173035e7 -2.738619001908198e6 0.0
0.0 0.0 0.0

1.1644254965582019e7 2.0792482462935034e7 0.0
2.0792482462935034e7 6.790266345609981e6 0.0
0.0 0.0 0.0

-2.0675736171344519e6 1.6242482106652621e7 0.0
1.6242482106652621e7 -3.0410661887885675e7 0.0
0.0 0.0 0.0

-3.4542986299997116e6 2.3519659900947344e7 0.0
2.3519659900947344e7 8.181330056945832e6 0.0
0.0 0.0 0.0

388455.09783462994 1.9908182152990244e7 0.0
1.9908182152990244e7 -1.5215675397507638e7 0.0
0.0 0.0 0.0

4.3041979531716615e7 1.6485814263233805e7 0.0
1.6485814263233805e7 2.3180335761019047e6 0.0
0.0 0.0 0.0

-6.30017329202346e6 -1.8697243058898007e6 0.0
-1.8697243058898007e6 1.1270095901218362e7 0.0
0.0 0.0 0.0

3.583960033420356e6 2.6465373105588714e6 0.0
2.6465373105588714e6 -1.4681510177955037e7 0.0
0.0 0.0 0.0

73184.50657991227 2.0554215827902243e7 0.0
2.0554215827902243e7 -1.3051213451245077e7 0.0
0.0 0.0 0.0

-694059.1725252634 1.931439629204673e7 0.0
1.931439629204673e7 -1.0445938102226235e6 0.0
0.0 0.0 0.0

-8.72362732569688e6 4.8290821951864185e6 0.0
4.8290821951864185e6 4.3286990067448616e7 0.0
0.0 0.0 0.0

7.484758034911735e6 2.7060974599808864e7 0.0
2.7060974599808864e7 -5.615512962578493e6 0.0
0.0 0.0 0.0

-1.3293361911813926e7 4.270954402313625e7 0.0
4.270954402313625e7 3.0575344901870554e6 0.0
0.0 0.0 0.0

1.0953902106041241e7 2.158804879213373e7 0.0
2.158804879213373e7 6.0037903989676535e6 0.0
0.0 0.0 0.0

-8.547025750536324e6 -4.472463244576936e6 0.0
-4.472463244576936e6 2.696688589323414e7 0.0
0.0 0.0 0.0

-2.3034898153403763e7 2.6821597221535403e7 0.0
2.6821597221535403e7 -1.6903149459746014e6 0.0
0.0 0.0 0.0

982095.0672278786 1.8881128809068285e7 0.0
1.8881128809068285e7 6.541961797891746e6 0.0
0.0 0.0 0.0

-1.86015879288183e7 4.479267064434317e7 0.0
4.479267064434317e7 3.827412721060803e6 0.0
0.0 0.0 0.0

-7.349529559998003e6 1.809904544584639e7 0.0
1.809904544584639e7 2.2778298648406286e7 0.0
0.0 0.0 0.0

2.0521043650943334e6 2.0312235578147493e7 0.0
2.0312235578147493e7 -1.7327389291908247e6 0.0
0.0 0.0 0.0

-6.525810451398619e6 1.7661696142580695e7 0.0
1.7661696142580695e7 -2.459076469238063e7 0.0
0.0 0.0 0.0

-2.6682919543119646e6 1.867981119059202e7 0.0
1.867981119059202e7 -1.1039848637184251e7 0.0
0.0 0.0 0.0

7.567162707100207e6 2.2709143080345012e7 0.0
2.2709143080345012e7 -3.990923993362763e6 0.0
0.0 0.0 0.0

3.4369631951128125e7 4.365019046055976e7 0.0
4.365019046055976e7 -1.1807237751462134e7 0.0
0.0 0.0 0.0

-9.454356411821429e6 -2.8379535690430966e6 0.0
-2.8379535690430966e6 2.08628473021007e7 0.0
0.0 0.0 0.0

2.0968661420553273e6 3.565181814639204e7 0.0
3.565181814639204e7 -2.761847483615161e6 0.0
0.0 0.0 0.0

3.6288006568706944e6 3.0504530720465943e7 0.0
3.0504530720465943e7 -3.3397297568014157e6 0.0
0.0 0.0 0.0

-9.491826533901988e6 -26050.66529493528 0.0
-26050.66529493528 3.50890018375441e7 0.0
0.0 0.0 0.0

3.423586028368246e6 1.8172743046142568e6 0.0
1.8172743046142568e6 -3.3431038900857806e7 0.0
0.0 0.0 0.0

-4.131498503710529e6 2.6516725045503136e7 0.0
2.6516725045503136e7 8.047661598012866e6 0.0
0.0 0.0 0.0

5.2761101754896e6 2.2888943869058754e7 0.0
2.2888943869058754e7 1.280034171671633e7 0.0
0.0 0.0 0.0

-4.833311739289636e6 5.734649640977391e6 0.0
5.734649640977391e6 7.073330767794631e6 0.0
0.0 0.0 0.0

-8.888917527085152e6 1.6462196229008142e7 0.0
1.6462196229008142e7 2.291303403486118e7 0.0
0.0 0.0 0.0

4.231404443900308e6 2.246280549671397e7 0.0
2.246280549671397e7 1.334591681326804e7 0.0
0.0 0.0 0.0

-631904.9122670498 1.7341861344687257e7 0.0
1.7341861344687257e7 -1.2117638872457933e7 0.0
0.0 0.0 0.0

-3.2121617766184923e6 1.7340539453343652e7 0.0
1.7340539453343652e7 -1.6756911200544192e7 0.0
0.0 0.0 0.0

1.3131359889493692e6 2.822186239084518e7 0.0
2.822186239084518e7 -4.565830967188913e6 0.0
0.0 0.0 0.0

-7.31834060167943e6 -2.6141433171667694e6 0.0
-2.6141433171667694e6 1.4061340703145416e7 0.0
0.0 0.0 0.0

-2.6212068183212336e6 1.987263698584505e7 0.0
1.987263698584505e7 3.7859900513349175e6 0.0
0.0 0.0 0.0

-7.134092202254951e6 1.783590857596283e7 0.0
1.783590857596283e7 2.7554903187670283e7 0.0
0.0 0.0 0.0

914126.9981269026 1.4416750728711568e7 0.0
1.4416750728711568e7 -1.3600491645550244e7 0.0
0.0 0.0 0.0

1.1342795340791252e6 2.324334279044785e7 0.0
2.324334279044785e7 -9.917452787372155e6 0.0
0.0 0.0 0.0

3.2380638207326913e6 3.891806863335884e7 0.0
3.891806863335884e7 -792324.163223126 0.0
0.0 0.0 0.0

-769883.9694612045 1.4796017520742081e7 0.0
1.4796017520742081e7 -3.1771527686424255e7 0.0
0.0 0.0 0.0

-4.355417882999131e7 4.581301773529485e7 0.0
4.581301773529485e7 6.075510742492896e6 0.0
0.0 0.0 0.0

872130.1383928265 2.162125373105858e6 0.0
2.162125373105858e6 -1.8684026163195884e6 0.0
0.0 0.0 0.0

572215.9695654189 2.3626287354085655e6 0.0
2.3626287354085655e6 -2.818954971732314e6 0.0
0.0 0.0 0.0

4.7085531142796185e6 1.9613025023163483e7 0.0
1.9613025023163483e7 2.6129131669472843e7 0.0
0.0 0.0 0.0

4.738931094403773e6 2.1368228329505257e7 0.0
2.1368228329505257e7 1.5594038989303736e7 0.0
0.0 0.0 0.0

5854.265193414409 2.00334613257947e7 0.0
2.00334613257947e7 9.02685109551449e6 0.0
0.0 0.0 0.0

-9.886169240264647e6 1.4682233182288485e7 0.0
1.4682233182288485e7 2.2752556713080898e7 0.0
0.0 0.0 0.0

6.204125870220083e6 5.583702430595037e6 0.0
5.583702430595037e6 -1.4261221644269824e6 0.0
0.0 0.0 0.0

-2.4597694298873013e6 2.1778012379440494e7 0.0
2.1778012379440494e7 1.0222506353702746e7 0.0
0.0 0.0 0.0

-344998.3806290827 2.9538431874331996e7 0.0
2.9538431874331996e7 -732815.9326100879 0.0
0.0 0.0 0.0

-1.7015524587917458e6 1.5661434448128743e7 0.0
1.5661434448128743e7 -3.35744215884377e7 0.0
0.0 0.0 0.0

1.008396354372479e7 2.288700365951945e7 0.0
2.288700365951945e7 1.1150857398063064e7 0.0
0.0 0.0 0.0

1.5552915980832882e7 2.2057267471286044e7 0.0
2.2057267471286044e7 9.788434600719929e6 0.0
0.0 0.0 0.0

-2.5809161202517375e7 4.6633143363147594e7 0.0
4.6633143363147594e7 6.080931964608837e6 0.0
0.0 0.0 0.0

1.5938690434851553e6 2.0148045710328013e7 0.0
2.0148045710328013e7 9.456731322878782e6 0.0
0.0 0.0 0.0

-1.0037621883575324e7 9.016194406471469e6 0.0
9.016194406471469e6 1.3021543045083433e7 0.0
0.0 0.0 0.0

-1.1294972730599659e7 1.292365950733218e7 0.0
1.292365950733218e7 2.638940184805573e7 0.0
0.0 0.0 0.0

-702948.2706473531 2.8810460777614087e7 0.0
2.8810460777614087e7 -1.7622229323761133e6 0.0
0.0 0.0 0.0

6.743820008411935e6 2.093061908412983e7 0.0
2.093061908412983e7 1.5032263025730852e7 0.0
0.0 0.0 0.0

-7.208375836370405e6 4.401260170261433e6 0.0
4.401260170261433e6 6.156897270654838e7 0.0
0.0 0.0 0.0

-18044.60313160345 1.9625852561872274e7 0.0
1.9625852561872274e7 1.6462245776221437e7 0.0
0.0 0.0 0.0

-1.007642123376944e7 1.785984448918802e7 0.0
1.785984448918802e7 -3.658150371029192e7 0.0
0.0 0.0 0.0

4.686513641922158e6 2.229688337305665e7 0.0
2.229688337305665e7 1.3920437623986717e7 0.0
0.0 0.0 0.0

-4.809049546430552e6 1.903890225317715e7 0.0
1.903890225317715e7 2.558054056360081e7 0.0
0.0 0.0 0.0

-446047.25030320557 1.6359119715569967e7 0.0
1.6359119715569967e7 -1.2526486313401902e7 0.0
0.0 0.0 0.0

5.17539532243355e6 1.9018252677908428e7 0.0
1.9018252677908428e7 7.456526083471629e7 0.0
0.0 0.0 0.0

7.638342683422523e6 2.5791988517078858e7 0.0
2.5791988517078858e7 -5.308129881725056e6 0.0
0.0 0.0 0.0

207597.27073629946 1.8183541888086893e7 0.0
1.8183541888086893e7 -1.8711447839369226e7 0.0
0.0 0.0 0.0

-446544.03670551395 1.34441274903727e7 0.0
1.34441274903727e7 -6.117950221699102e6 0.0
0.0 0.0 0.0

2.9557245759068783e6 3.075040187378618e6 0.0
3.075040187378618e6 -4.1816006835057504e7 0.0
0.0 0.0 0.0

3.056409296202473e6 3.718662500113212e7 0.0
3.718662500113212e7 -501704.65028916486 0.0
0.0 0.0 0.0

-1.0818354674057905e7 1.372601603153557e7 0.0
1.372601603153557e7 2.7081800813473232e7 0.0
0.0 0.0 0.0

3.312274240844627e6 1.821766931187421e7 0.0
1.821766931187421e7 1.962975421732618e7 0.0
0.0 0.0 0.0

-9.487489286990948e6 2.6322614034182236e7 0.0
2.6322614034182236e7 5.675630199466395e6 0.0
0.0 0.0 0.0

-2.549396835009466e6 2.183270215139586e7 0.0
2.183270215139586e7 1.9050309473804808e6 0.0
0.0 0.0 0.0

-9.120249356148444e6 1.7051635921628688e7 0.0
1.7051635921628688e7 2.3133812013912857e7 0.0
0.0 0.0 0.0

1.8587845379372817e6 1.0862431022771664e7 0.0
1.0862431022771664e7 -2.2709038718817335e7 0.0
0.0 0.0 0.0

-1.2459524311209355e7 4.018528078399622e7 0.0
4.018528078399622e7 6.054443454697889e6 0.0
0.0 0.0 0.0

2.3058489871441253e7 1.2568747633518657e7 0.0
1.2568747633518657e7 604418.9205531301 0.0
0.0 0.0 0.0

-1.0558258433804547e7 -809732.6846439783 0.0
-809732.6846439783 1.9275635504568644e7 0.0
0.0 0.0 0.0

-6.637277998679213e6 3.0108996480794623e7 0.0
3.0108996480794623e7 5.356358311709756e6 0.0
0.0 0.0 0.0

-2.7524366578891408e7 2.2571829606662557e7 0.0
2.2571829606662557e7 4.839446673404416e6 0.0
0.0 0.0 0.0

-3.764155610212208e6 2.1670884782561127e7 0.0
2.1670884782561127e7 -1.0602733094028842e7 0.0
0.0 0.0 0.0

-5.351751788628836e7 3.353429920274257e7 0.0
3.353429920274257e7 -2.0170193296403773e6 0.0
0.0 0.0 0.0

-4.188366529256877e6 2.195967971051473e7 0.0
2.195967971051473e7 -6.140361282503867e6 0.0
0.0 0.0 0.0

-5.116879500631309e6 1.8966000414827295e7 0.0
1.8966000414827295e7 1.787786580570271e7 0.0
0.0 0.0 0.0

-1.0593685217362896e7 1.3802902036702534e7 0.0
1.3802902036702534e7 2.3787684920116395e7 0.0
0.0 0.0 0.0

-7.395516155227376e6 1.6800880351376507e7 0.0
1.6800880351376507e7 1.6441413035594903e7 0.0
0.0 0.0 0.0

-4.4690920818368485e6 2.4003079536559768e7 0.0
2.4003079536559768e7 1.153198136950548e7 0.0
0.0 0.0 0.0

-8.480669515028244e6 1.363048029228783e6 0.0
1.363048029228783e6 4.340784733678464e7 0.0
0.0 0.0 0.0

-416449.5395101054 1.824872389337437e7 0.0
1.824872389337437e7 -1.1401878820017753e6 0.0
0.0 0.0 0.0

1.529625808875369e6 1.2225783819934761e7 0.0
1.2225783819934761e7 -1.41829921977512e7 0.0
0.0 0.0 0.0

861170.2073408002 1.6546522663435396e7 0.0
1.6546522663435396e7 -1.94648795816036e7 0.0
0.0 0.0 0.0

-8.82835953256854e6 -2.6950991322869887e6 0.0
-2.6950991322869887e6 2.9544885802389406e7 0.0
0.0 0.0 0.0

-1.168002048961101e6 1.86572493423061e7 0.0
1.86572493423061e7 608952.9811651136 0.0
0.0 0.0 0.0

-7.944767295409129e6 2.6511187840663325e7 0.0
2.6511187840663325e7 6.702763265329156e6 0.0
0.0 0.0 0.0

1.7690705327874701e6 1.970646678266935e7 0.0
1.970646678266935e7 2.6456836147225372e7 0.0
0.0 0.0 0.0

242386.96747461054 1.9868301581968006e7 0.0
1.9868301581968006e7 -1.3517795137926731e7 0.0
0.0 0.0 0.0

366208.4917086151 1.911955278772812e7 0.0
1.911955278772812e7 4.702090350671628e6 0.0
0.0 0.0 0.0

1.7064363034769683e6 3.455563805980045e7 0.0
3.455563805980045e7 -2.4103728996127723e6 0.0
0.0 0.0 0.0

1.3397615861862898e6 2.0928818218486205e7 0.0
2.0928818218486205e7 -1.0879516409418292e7 0.0
0.0 0.0 0.0

9.749097835634236e7 3.503214498950159e7 0.0
3.503214498950159e7 2.4966505876768455e6 0.0
0.0 0.0 0.0

4.022594233082601e6 2.0789404148319602e7 0.0
2.0789404148319602e7 -3.4331846428167047e6 0.0
0.0 0.0 0.0

-2.1116732164911097e6 1.823109375121571e7 0.0
1.823109375121571e7 -2.205116473304097e7 0.0
0.0 0.0 0.0

2.2354409917739313e6 2.274165449089531e7 0.0
2.274165449089531e7 -9.190226992566815e6 0.0
0.0 0.0 0.0

-2.7495495462878775e7 2.890690114490137e7 0.0
2.890690114490137e7 -3.2865301682677977e6 0.0
0.0 0.0 0.0

-5.717466483109657e6 2.552948181085573e7 0.0
2.552948181085573e7 8.257906646732159e6 0.0
0.0 0.0 0.0

1.5865701859832684e7 2.196031209700418e7 0.0
2.196031209700418e7 4.832790477035856e6 0.0
0.0 0.0 0.0

-2.97589131620769e6 1.5164803405768463e7 0.0
1.5164803405768463e7 -4.055845369749081e7 0.0
0.0 0.0 0.0

5.541144378295669e6 1.8692680142768934e7 0.0
1.8692680142768934e7 3.3410120123932756e7 0.0
0.0 0.0 0.0

3.6366534240868054e6 5.288068677688063e6 0.0
5.288068677688063e6 -2.6039821578894302e7 0.0
0.0 0.0 0.0

2.411633660872505e6 2.3607238277638044e7 0.0
2.3607238277638044e7 -8.692240550602987e6 0.0
0.0 0.0 0.0

1.8873657819900233e6 4.366073275268003e6 0.0
4.366073275268003e6 -4.894533886453639e7 0.0
0.0 0.0 0.0

924576.7964170994 2.2985245834370293e7 0.0
2.2985245834370293e7 -1.0207245213065114e7 0.0
0.0 0.0 0.0

6.248729127551596e6 2.7169146367390126e7 0.0
2.7169146367390126e7 -5.731965829902263e6 0.0
0.0 0.0 0.0

-2.291488628295277e6 2.1611733227486912e7 0.0
2.1611733227486912e7 1.362613021215017e6 0.0
0.0 0.0 0.0

-1.328363805844203e7 3.2407993674659904e7 0.0
3.2407993674659904e7 5.2373284270298565e6 0.0
0.0 0.0 0.0

-5.111770756007554e6 1.9171492611241445e7 0.0
1.9171492611241445e7 2.5704133650310073e7 0.0
0.0 0.0 0.0

1.2992134306696614e6 1.8989120330639087e7 0.0
1.8989120330639087e7 1.0115268146985952e7 0.0
0.0 0.0 0.0

-3.758554914477413e7 3.600884440042195e7 0.0
3.600884440042195e7 7.330463124954935e6 0.0
0.0 0.0 0.0

1.5339355748950668e7 2.2291357869880036e7 0.0
2.2291357869880036e7 1.093803096542404e7 0.0
0.0 0.0 0.0

-6.140991680011548e6 1.252412580088587e7 0.0
1.252412580088587e7 8.014244878749149e6 0.0
0.0 0.0 0.0

-5.495649438644074e6 2.9521509986076105e7 0.0
2.9521509986076105e7 5.105274551434003e6 0.0
0.0 0.0 0.0

-4.932189279156954e6 2.242524257460176e7 0.0
2.242524257460176e7 -8.18815343400548e6 0.0
0.0 0.0 0.0

1.0138293413293762e6 1.486206634593152e7 0.0
1.486206634593152e7 -1.4415763706587719e7 0.0
0.0 0.0 0.0

3.364166702785693e6 1.663000814770365e6 0.0
1.663000814770365e6 -3.518819476885425e7 0.0
0.0 0.0 0.0

-1.8498568222547397e6 1.7713425986441255e7 0.0
1.7713425986441255e7 -9.65123425866573e6 0.0
0.0 0.0 0.0

4.728994404307458e7 6.502138157942795e6 0.0
6.502138157942795e6 -1.3481876516981442e6 0.0
0.0 0.0 0.0

-4.800615429514904e6 1.879536682660048e7 0.0
1.879536682660048e7 2.688712800239441e7 0.0
0.0 0.0 0.0

-7.360851506440058e6 2.894096766577977e7 0.0
2.894096766577977e7 6.137252594954282e6 0.0
0.0 0.0 0.0

-8.197945243926996e6 -2.412394016897882e6 0.0
-2.412394016897882e6 3.9348242578418225e7 0.0
0.0 0.0 0.0

-2.396308052605817e6 3.418786605701579e7 0.0
3.418786605701579e7 673461.1731484986 0.0
0.0 0.0 0.0

-2.1062867628943183e7 2.5547724341136713e7 0.0
2.5547724341136713e7 -1.5930250728044016e6 0.0
0.0 0.0 0.0

263087.55746605527 1.87106842979432e7 0.0
1.87106842979432e7 -1.753222927379815e7 0.0
0.0 0.0 0.0

4.45541275465255e6 1.9339866367031828e7 0.0
1.9339866367031828e7 2.336707547294646e7 0.0
0.0 0.0 0.0

48319.2999203573 1.9802050006332252e7 0.0
1.9802050006332252e7 4.574013485842831e6 0.0
0.0 0.0 0.0

-2.946293593698735e6 2.250327740070054e7 0.0
2.250327740070054e7 8.95126127553412e6 0.0
0.0 0.0 0.0

466755.1641326826 1.4216735987743093e7 0.0
1.4216735987743093e7 -1.5309051320502292e7 0.0
0.0 0.0 0.0

2.5947465493260827e6 1.0373740036124479e7 0.0
1.0373740036124479e7 -2.1876311529796563e7 0.0
0.0 0.0 0.0

-765388.9887339459 9.521295123479655e6 0.0
9.521295123479655e6 -6.158137642133483e6 0.0
0.0 0.0 0.0

-4.936719147522879e6 2.896323200793387e7 0.0
2.896323200793387e7 5.022508788864674e6 0.0
0.0 0.0 0.0

-878354.9940762464 1.786060478237684e7 0.0
1.786060478237684e7 -1.091641866237617e7 0.0
0.0 0.0 0.0

1.8920242483079724e7 1.2370645438318813e7 0.0
1.2370645438318813e7 344080.27575720474 0.0
0.0 0.0 0.0

3.3264504273571e6 1.7801461000121338e6 0.0
1.7801461000121338e6 -3.5590737285183884e7 0.0
0.0 0.0 0.0

3.077535897394879e6 1.8627254015780058e7 0.0
1.8627254015780058e7 2.4517003589402698e7 0.0
0.0 0.0 0.0

140916.44340880495 9.243567347929178e6 0.0
9.243567347929178e6 -8.36345166541906e6 0.0
0.0 0.0 0.0

2.451681339159347e6 2.853788917316427e7 0.0
2.853788917316427e7 -4.076331405040632e6 0.0
0.0 0.0 0.0

130616.43743942678 1.9889883432494123e7 0.0
1.9889883432494123e7 1.1629747777024165e7 0.0
0.0 0.0 0.0

-9.686191848138675e6 7.872032757968193e6 0.0
7.872032757968193e6 3.8855494488021344e7 0.0
0.0 0.0 0.0

-7.367344863099421e6 705291.0364336178 0.0
705291.0364336178 1.2454168916924976e7 0.0
0.0 0.0 0.0

6.718032890828034e6 2.7074072725214265e7 0.0
2.7074072725214265e7 -5.611510290972311e6 0.0
0.0 0.0 0.0

-5.268228697302913e7 1.6429664288477954e7 0.0
1.6429664288477954e7 7.302093939136568e6 0.0
0.0 0.0 0.0

75590.42730655428 1.7286986559960898e7 0.0
1.7286986559960898e7 -2.142502008027569e7 0.0
0.0 0.0 0.0

4.596241342241018e6 1.3229586767121421e7 0.0
1.3229586767121421e7 3.544054840093575e6 0.0
0.0 0.0 0.0

-5.069887726267022e6 1.861239964342504e7 0.0
1.861239964342504e7 1.723357766034867e7 0.0
0.0 0.0 0.0

-5.660976510138635e7 1.5780714090577696e7 0.0
1.5780714090577696e7 6.049042253570508e6 0.0
0.0 0.0 0.0

-2.172054145691583e6 1.7564646507757146e7 0.0
1.7564646507757146e7 -2.3017310365069702e7 0.0
0.0 0.0 0.0

1.0542347769267121e6 2.2233295220962234e7 0.0
2.2233295220962234e7 -1.1021117521536406e7 0.0
0.0 0.0 0.0

1.3681793984739534e6 5.488003337664354e6 0.0
5.488003337664354e6 -4.467441888076139e6 0.0
0.0 0.0 0.0

-1.0620669018158808e7 2.422943696260146e7 0.0
2.422943696260146e7 -7.90531485041842e6 0.0
0.0 0.0 0.0

6.692434118355004e6 3.13576670970589e7 0.0
3.13576670970589e7 -4.796491545960243e6 0.0
0.0 0.0 0.0

-1.9305146296755793e6 3.127028466555012e7 0.0
3.127028466555012e7 395838.9542584651 0.0
0.0 0.0 0.0

-3.243332337185898e6 2.219711250159215e7 0.0
2.219711250159215e7 4.9689668074372e6 0.0
0.0 0.0 0.0

-8.874731059633883e6 1.6120596410455553e7 0.0
1.6120596410455553e7 2.8730605090762716e7 0.0
0.0 0.0 0.0

-3.7526166636156077e6 2.2295765367606264e7 0.0
2.2295765367606264e7 1.4915607373822048e7 0.0
0.0 0.0 0.0

-2.2411733492542114e6 3.330118275014408e7 0.0
3.330118275014408e7 594954.3797977848 0.0
0.0 0.0 0.0

990032.8195442352 1.2059330172378648e7 0.0
1.2059330172378648e7 -1.602190754294303e7 0.0
0.0 0.0 0.0

-2.2705401037714514e6 3.2650364160655275e7 0.0
3.2650364160655275e7 460986.87026457896 0.0
0.0 0.0 0.0

5.2832944210961275e6 2.1546594575477034e7 0.0
2.1546594575477034e7 1.4044315402766958e7 0.0
0.0 0.0 0.0

-1.0449842537377026e7 1.388167997324522e7 0.0
1.388167997324522e7 2.7739284364368998e7 0.0
0.0 0.0 0.0

2.834634917960882e6 3.1402319283899884e6 0.0
3.1402319283899884e6 -3.687913601730048e7 0.0
0.0 0.0 0.0

-9.397932992324073e6 2.6124430572308276e7 0.0
2.6124430572308276e7 6.066812333568467e6 0.0
0.0 0.0 0.0

-962054.0772994568 2.577763710915796e7 0.0
2.577763710915796e7 -4.301519472270254e6 0.0
0.0 0.0 0.0

322264.61849198886 2.561701766586124e7 0.0
2.561701766586124e7 -5.162986708602849e6 0.0
0.0 0.0 0.0

-7.473247482956512e7 4.559893102877683e7 0.0
4.559893102877683e7 -2.7283077554018077e7 0.0
0.0 0.0 0.0

609366.2352858223 1.9410823104707558e7 0.0
1.9410823104707558e7 -1.6390747463237118e7 0.0
0.0 0.0 0.0

-489948.80544766516 2.8328064575102884e7 0.0
2.8328064575102884e7 -937276.4147431337 0.0
0.0 0.0 0.0

-5.5241133946735e6 1.9662935752037972e7 0.0
1.9662935752037972e7 1.6661754252194019e7 0.0
0.0 0.0 0.0

-3.0719418767316937e7 2.4164700287475772e7 0.0
2.4164700287475772e7 5.384973004182341e6 0.0
0.0 0.0 0.0

944010.9921122735 1.9050069027194906e7 0.0
1.9050069027194906e7 497639.5466130168 0.0
0.0 0.0 0.0

3.0973185824274104e6 1.9798408864590906e7 0.0
1.9798408864590906e7 1.5801908218030788e7 0.0
0.0 0.0 0.0

2.778355486381445e6 1.414326876283315e6 0.0
1.414326876283315e6 -4.492162881213045e7 0.0
0.0 0.0 0.0

-1.9054391058974706e7 3.782859501908839e7 0.0
3.782859501908839e7 7.843001362240697e6 0.0
0.0 0.0 0.0

-8.26195773265017e6 -813065.7310244051 0.0
-813065.7310244051 4.033370575762307e7 0.0
0.0 0.0 0.0

-8.14675939383045e6 608732.5883497243 0.0
608732.5883497243 4.702061822639036e7 0.0
0.0 0.0 0.0

-6.188228078684026e6 -791828.3623845484 0.0
-791828.3623845484 1.159024201823551e7 0.0
0.0 0.0 0.0

-9.278868776120711e6 1.4371753712818054e7 0.0
1.4371753712818054e7 3.1825429041696113e7 0.0
0.0 0.0 0.0

2.8780150137827857e6 1.7694520733802587e7 0.0
1.7694520733802587e7 1.1289544239471013e7 0.0
0.0 0.0 0.0

-106737.95916544739 1.6501824932101823e7 0.0
1.6501824932101823e7 -2.4560773215605818e7 0.0
0.0 0.0 0.0

-3.872197108601761e7 4.750494648106996e7 0.0
4.750494648106996e7 8.714295557426158e6 0.0
0.0 0.0 0.0

-9.986758142873852e6 1.4520208196785104e7 0.0
1.4520208196785104e7 2.825577740903662e7 0.0
0.0 0.0 0.0

-3.2005070283486303e6 1.4754362467348138e7 0.0
1.4754362467348138e7 -4.2521306817610584e7 0.0
0.0 0.0 0.0

-2.024657592017657e7 2.5203015390068855e7 0.0
2.5203015390068855e7 -1.3025522409187593e6 0.0
0.0 0.0 0.0

-7.66429364447148e6 252146.98676193587 0.0
252146.98676193587 4.822285488538076e7 0.0
0.0 0.0 0.0

203246.59067256376 1.8323465663005996e7 0.0
1.8323465663005996e7 -1.585922032260624e7 0.0
0.0 0.0 0.0

-7.913976850722299e6 1.762895705260219e7 0.0
1.762895705260219e7 -4.775480502575272e7 0.0
0.0 0.0 0.0

-3.110175687240079e6 2.104814072248175e7 0.0
2.104814072248175e7 -7.463847213151476e6 0.0
0.0 0.0 0.0

-1.784957421989242e7 2.3456984831247926e7 0.0
2.3456984831247926e7 -677526.5896223243 0.0
0.0 0.0 0.0

4.772274497955817e7 2.6785103270001847e7 0.0
2.6785103270001847e7 1.0094705903310938e7 0.0
0.0 0.0 0.0

-1.5246699392805237e6 1.5829884150160959e7 0.0
1.5829884150160959e7 -3.5456752930555046e6 0.0
0.0 0.0 0.0

1.0828531554129003e6 1.700513323030842e7 0.0
1.700513323030842e7 -1.7932624960255116e7 0.0
0.0 0.0 0.0

-2.770860252100479e6 1.7322742060006026e7 0.0
1.7322742060006026e7 -1.4042151351804102e7 0.0
0.0 0.0 0.0

2.858250002349356e6 1.5658897096791742e6 0.0
1.5658897096791742e6 -4.53267511692153e7 0.0
0.0 0.0 0.0

932227.3682042668 2.752858034060672e7 0.0
2.752858034060672e7 -3.744418759722052e6 0.0
0.0 0.0 0.0

-3.228612544670837e6 1.7072422178033672e7 0.0
1.7072422178033672e7 -2.517707799085225e7 0.0
0.0 0.0 0.0

1.0502644889579252e6 2.125062182559502e7 0.0
2.125062182559502e7 -1.1386118363780063e7 0.0
0.0 0.0 0.0

-412386.21478638507 1.9615553275895644e7 0.0
1.9615553275895644e7 1.8564035290574383e6 0.0
0.0 0.0 0.0

-5.366322248171009e6 1.2308186669087041e7 0.0
1.2308186669087041e7 1.0893139565625168e7 0.0
0.0 0.0 0.0

-3.3408655454769945e6 2.2207652545026075e7 0.0
2.2207652545026075e7 8.49473915825174e6 0.0
0.0 0.0 0.0

-660808.3610601127 1.9241826685069192e7 0.0
1.9241826685069192e7 2.7400008371705264e7 0.0
0.0 0.0 0.0

3.7225051189636346e6 2.0767001292798994e6 0.0
2.0767001292798994e6 -2.9337090011624422e7 0.0
0.0 0.0 0.0

-1.5855996994653692e7 1.454706377913192e7 0.0
1.454706377913192e7 3.743029034092243e6 0.0
0.0 0.0 0.0

6.07947220299351e6 2.2854908792086393e7 0.0
2.2854908792086393e7 1.3219790271000678e7 0.0
0.0 0.0 0.0

-1.4712489127633418e6 1.8372313471300106e7 0.0
1.8372313471300106e7 -1.716177649616473e7 0.0
0.0 0.0 0.0

7.380365752604955e7 1.0764507978007326e7 0.0
1.0764507978007326e7 -221222.8655982986 0.0
0.0 0.0 0.0

314505.76497057173 1.7379609826855537e7 0.0
1.7379609826855537e7 -2.152139948039152e7 0.0
0.0 0.0 0.0

85214.37538033305 2.6457005405137904e7 0.0
2.6457005405137904e7 -5.20917422202296e6 0.0
0.0 0.0 0.0

-2.6609304582544924e6 2.335226434752516e7 0.0
2.335226434752516e7 -213726.09611546271 0.0
0.0 0.0 0.0

7.117789125651075e6 1.9090965236649472e7 0.0
1.9090965236649472e7 6.0663108482764274e7 0.0
0.0 0.0 0.0

-9.436757203867521e6 1.319760556664442e7 0.0
1.319760556664442e7 3.343729802336586e7 0.0
0.0 0.0 0.0

-8.107438378427336e6 -2.8779362180074537e6 0.0
-2.8779362180074537e6 3.893591984619686e7 0.0
0.0 0.0 0.0

-9.75511762474345e6 6.30132413645241e6 0.0
6.30132413645241e6 4.027918000970464e7 0.0
0.0 0.0 0.0

-2.483678807360464e6 3.0322102996564094e7 0.0
3.0322102996564094e7 1.0074622314964429e6 0.0
0.0 0.0 0.0

1.8569017938330416e6 1.1798291976606317e7 0.0
1.1798291976606317e7 -2.376639666367112e7 0.0
0.0 0.0 0.0

-3.3047495722783785e6 2.345545112129465e7 0.0
2.345545112129465e7 1.1104805970644534e7 0.0
0.0 0.0 0.0

633123.2920656027 1.992553775498065e7 0.0
1.992553775498065e7 -1.5263338161842836e7 0.0
0.0 0.0 0.0

-6.420275272571382e6 1.785380908699942e7 0.0
1.785380908699942e7 1.5751043415416328e7 0.0
0.0 0.0 0.0

-5.097894960055847e6 2.589155657740313e7 0.0
2.589155657740313e7 8.568369036320347e6 0.0
0.0 0.0 0.0

9.205953431021482e6 2.531923938191694e7 0.0
2.531923938191694e7 -4.77288983610077e6 0.0
0.0 0.0 0.0

-4.116817177415545e6 2.1694788417508747e7 0.0
2.1694788417508747e7 1.6492081381469624e7 0.0
0.0 0.0 0.0

-3.3116478042987604e6 2.2655812260807123e7 0.0
2.2655812260807123e7 1.2556349632064449e7 0.0
0.0 0.0 0.0

-3.7552648591403756e6 1.820923235805006e7 0.0
1.820923235805006e7 -1.5336263550213946e7 0.0
0.0 0.0 0.0

-1.058413439853782e7 1.4570180748278597e7 0.0
1.4570180748278597e7 2.6063355347399123e7 0.0
0.0 0.0 0.0

-2.1294104296969404e6 3.0291329467068207e7 0.0
3.0291329467068207e7 2.1836500863934755e6 0.0
0.0 0.0 0.0

3.1413504137669746e6 4.715820203389669e6 0.0
4.715820203389669e6 -2.7676331003160674e7 0.0
0.0 0.0 0.0

-6.86236255222268e6 2.914750425152802e6 0.0
2.914750425152802e6 6.043422029905993e7 0.0
0.0 0.0 0.0

-1.6867632648006058e6 2.034064211740769e7 0.0
2.034064211740769e7 -8.823310571984243e6 0.0
0.0 0.0 0.0

-2.5325960765758157e6 3.0970231476993777e7 0.0
3.0970231476993777e7 1.0993433759224173e6 0.0
0.0 0.0 0.0

1.2810527358089928e6 1.3840413093455348e7 0.0
1.3840413093455348e7 -2.6923830986509744e7 0.0
0.0 0.0 0.0

214183.9337350945 2.776984759561269e7 0.0
2.776984759561269e7 -4.1173885279285954e6 0.0
0.0 0.0 0.0

2.049089126312985e6 1.0156801662124583e7 0.0
1.0156801662124583e7 -2.379936212536152e7 0.0
0.0 0.0 0.0

-1.054552753759817e7 1.283864422419288e7 0.0
1.283864422419288e7 2.9074014612331998e7 0.0
0.0 0.0 0.0

-5.9510169666665405e7 4.40967831082552e7 0.0
4.40967831082552e7 1.033186526435839e7 0.0
0.0 0.0 0.0

-1.4349840803945761e7 2.5329484887157284e7 0.0
2.5329484887157284e7 -546152.2768672477 0.0
0.0 0.0 0.0

-3.644175698782214e6 2.3448644134445466e7 0.0
2.3448644134445466e7 1.215851066705404e7 0.0
0.0 0.0 0.0

-8.0806017239716025e6 -6.045215282900409e6 0.0
-6.045215282900409e6 1.863863554169582e7 0.0
0.0 0.0 0.0

-1.715043480799145e7 2.401732921325946e7 0.0
2.401732921325946e7 -2.580130452915952e6 0.0
0.0 0.0 0.0

-6.812344090062261e6 2.6471676739767656e7 0.0
2.6471676739767656e7 7.41031842224007e6 0.0
0.0 0.0 0.0

3.079793885703191e6 2.959503182208668e6 0.0
2.959503182208668e6 -3.777626129152295e7 0.0
0.0 0.0 0.0

-6.7756910022699945e6 1.654396130692416e7 0.0
1.654396130692416e7 1.875395583349841e7 0.0
0.0 0.0 0.0

-9.768681233746879e6 1.5236664205045465e7 0.0
1.5236664205045465e7 2.337912512080156e7 0.0
0.0 0.0 0.0

4.396364276423873e6 3.503020700341134e7 0.0
3.503020700341134e7 -1.8240802050333829e6 0.0
0.0 0.0 0.0

-1.137939692845696e7 1.9608589341050338e6 0.0
1.9608589341050338e6 2.0984609687390402e7 0.0
0.0 0.0 0.0

-1.0049690142472954e7 1.549169437436352e7 0.0
1.549169437436352e7 2.6876403451952253e7 0.0
0.0 0.0 0.0

-831483.9436942236 3.161838608798992e7 0.0
3.161838608798992e7 913593.0774560132 0.0
0.0 0.0 0.0

-7.743372656718936e6 637893.7585275703 0.0
637893.7585275703 5.011725970635389e7 0.0
0.0 0.0 0.0

-8.410855501080483e6 -3.725710448011147e6 0.0
-3.725710448011147e6 2.091808321552044e7 0.0
0.0 0.0 0.0

2.8181967374097966e6 7.425008988930533e6 0.0
7.425008988930533e6 -2.62813873433045e7 0.0
0.0 0.0 0.0

-3.1289401842217636e6 2.256658296368831e7 0.0
2.256658296368831e7 9.58631727901975e6 0.0
0.0 0.0 0.0

-9.221052982775256e6 1.5097995687194793e7 0.0
1.5097995687194793e7 2.968515424528038e7 0.0
0.0 0.0 0.0

210846.2957708491 1.9346409514602963e7 0.0
1.9346409514602963e7 -1.499580892365836e7 0.0
0.0 0.0 0.0

872907.0759312175 1.8452406185926504e7 0.0
1.8452406185926504e7 -1.5845856949897533e7 0.0
0.0 0.0 0.0

1.8777215291768406e6 1.1499406752597967e7 0.0
1.1499406752597967e7 -2.5398576859897118e7 0.0
0.0 0.0 0.0

37084.9699406391 1.6896994507183585e7 0.0
1.6896994507183585e7 -2.301989985364367e7 0.0
0.0 0.0 0.0

1.0687185598168732e6 1.9649409350690488e7 0.0
1.9649409350690488e7 8.070315902602993e6 0.0
0.0 0.0 0.0

-9.054265074948942e6 1.6184903347333385e7 0.0
1.6184903347333385e7 2.8201664532949895e7 0.0
0.0 0.0 0.0

350533.8153849428 2.701067397022023e7 0.0
2.701067397022023e7 -5.029953321317904e6 0.0
0.0 0.0 0.0

-5.339102772664409e6 2.875809030252039e7 0.0
2.875809030252039e7 5.743625130238157e6 0.0
0.0 0.0 0.0

-1.530677804008501e6 3.067283630265775e7 0.0
3.067283630265775e7 1.5567552433038426e6 0.0
0.0 0.0 0.0

1.509435467846668e7 2.4058997877753597e7 0.0
2.4058997877753597e7 7.208091753241794e7 0.0
0.0 0.0 0.0

-2.651011120222147e6 2.296611323481822e7 0.0
2.296611323481822e7 8.036783045728413e6 0.0
0.0 0.0 0.0

977995.0318425456 1.7569292572696e7 0.0
1.7569292572696e7 -1.6737056794916663e7 0.0
0.0 0.0 0.0

-713511.2562055085 1.7679180470454596e7 0.0
1.7679180470454596e7 -2.1449698327789977e7 0.0
0.0 0.0 0.0

1.0306265532059502e6 1.730839837870776e7 0.0
1.730839837870776e7 -1.8270149196736272e7 0.0
0.0 0.0 0.0

1.147961860996101e6 3.0080114464928623e7 0.0
3.0080114464928623e7 -2.040864347732591e6 0.0
0.0 0.0 0.0

-3.2837317336722496e6 2.1891497495834168e7 0.0
2.1891497495834168e7 7.44540846949072e6 0.0
0.0 0.0 0.0

134430.9730151021 1.8802669920849808e7 0.0
1.8802669920849808e7 2.995480893526653e6 0.0
0.0 0.0 0.0

-877466.9491922939 1.8759241335159726e7 0.0
1.8759241335159726e7 -1.6478507078559887e7 0.0
0.0 0.0 0.0

-6.420004552105667e6 1.3029971795304623e7 0.0
1.3029971795304623e7 9.61769720547366e6 0.0
0.0 0.0 0.0

5.2568318403526675e6 4.068101610294291e7 0.0
4.068101610294291e7 -4.932156352945294e6 0.0
0.0 0.0 0.0

1.943647674232658e6 3.8449760282673985e6 0.0
3.8449760282673985e6 -5.3862649058925495e7 0.0
0.0 0.0 0.0

1.0139877488886978e8 3.896984649649103e7 0.0
3.896984649649103e7 2.4301917321369972e7 0.0
0.0 0.0 0.0

4.41538874174874e7 4.0984065228801444e7 0.0
4.0984065228801444e7 -1.726055203214351e7 0.0
0.0 0.0 0.0

-1.12872029896437e6 1.9986693654219147e7 0.0
1.9986693654219147e7 1.8419167618824072e7 0.0
0.0 0.0 0.0

1.8026247054489662e6 2.0044684166235678e7 0.0
2.0044684166235678e7 1.0386425986517351e7 0.0
0.0 0.0 0.0

-2.588417572586243e7 2.5873063038180687e7 0.0
2.5873063038180687e7 -385629.4424622478 0.0
0.0 0.0 0.0

-6.113322640879375e7 3.0331638625040896e7 0.0
3.0331638625040896e7 153763.60333167017 0.0
0.0 0.0 0.0

-7.186275208954259e6 1.3119109885940628e7 0.0
1.3119109885940628e7 1.5148240221656851e7 0.0
0.0 0.0 0.0

-637171.099280862 2.651795595601701e7 0.0
2.651795595601701e7 -2.087511655649687e6 0.0
0.0 0.0 0.0

1.1091569184437376e6 1.6404240808055298e7 0.0
1.6404240808055298e7 -1.910207119788022e7 0.0
0.0 0.0 0.0

1.6502669829025567e6 7.68190845487311e6 0.0
7.68190845487311e6 -4.8854741479465544e7 0.0
0.0 0.0 0.0

617861.7085560272 1.6620709791802833e7 0.0
1.6620709791802833e7 -1.9440528181077942e7 0.0
0.0 0.0 0.0

-2.4826283279670253e6 1.484141546225619e7 0.0
1.484141546225619e7 -3.773846762816844e7 0.0
0.0 0.0 0.0

-1.0273534955043226e7 1.5344802465206398e7 0.0
1.5344802465206398e7 2.141529402099343e7 0.0
0.0 0.0 0.0

805805.4311102601 1.9099053060676564e7 0.0
1.9099053060676564e7 2.5518653392756432e7 0.0
0.0 0.0 0.0

656670.428645577 1.8371027804262884e7 0.0
1.8371027804262884e7 7.480195055723794e6 0.0
0.0 0.0 0.0

-1.186169874083379e7 8.1942564490975635e6 0.0
8.1942564490975635e6 5.929724318587583e6 0.0
0.0 0.0 0.0

-9.781470942284979e6 4.863840266004995e6 0.0
4.863840266004995e6 3.966542685971504e7 0.0
0.0 0.0 0.0

-3.0385690251515773e6 2.6326128193942767e7 0.0
2.6326128193942767e7 6.092762735903979e6 0.0
0.0 0.0 0.0

-298222.34816379845 1.953591194990529e7 0.0
1.953591194990529e7 2.7813820565458573e7 0.0
0.0 0.0 0.0

-4.881342541885559e6 1.8226608048160624e7 0.0
1.8226608048160624e7 1.6316546347353341e7 0.0
0.0 0.0 0.0

-6.459514511428732e6 2.434380894731497e6 0.0
2.434380894731497e6 6.50999414088314e6 0.0
0.0 0.0 0.0

-4.014722325421948e6 1.2526069519137925e7 0.0
1.2526069519137925e7 6.341417926717474e7 0.0
0.0 0.0 0.0

-2.4345416609958187e6 2.117200630138662e7 0.0
2.117200630138662e7 2.227031217174719e6 0.0
0.0 0.0 0.0

463947.7420033016 2.625114907117578e7 0.0
2.625114907117578e7 -5.958168100093816e6 0.0
0.0 0.0 0.0

-218819.03877183422 1.9007726027899098e7 0.0
1.9007726027899098e7 2.8728663393272333e7 0.0
0.0 0.0 0.0

-5.816301232455444e6 1.289599877710257e7 0.0
1.289599877710257e7 1.2399509621400416e7 0.0
0.0 0.0 0.0

6.773066273754885e6 2.6068534263744373e7 0.0
2.6068534263744373e7 -5.717098120065963e6 0.0
0.0 0.0 0.0

-5.035713127283044e6 4.829760866631449e6 0.0
4.829760866631449e6 6.865771793695842e7 0.0
0.0 0.0 0.0

6.796557059686426e6 2.4018842222259663e7 0.0
2.4018842222259663e7 -5.30012075524941e6 0.0
0.0 0.0 0.0

-2.162899806582055e6 3.08924495997058e7 0.0
3.08924495997058e7 2.328116882101201e6 0.0
0.0 0.0 0.0

-5.2205023145209225e6 1.664308429702888e7 0.0
1.664308429702888e7 -2.2775277629301067e7 0.0
0.0 0.0 0.0

-3.8797046999322036e6 2.105484134806085e7 0.0
2.105484134806085e7 1.746651097615072e7 0.0
0.0 0.0 0.0

-1.0201409826093094e7 1.3218005418568576e7 0.0
1.3218005418568576e7 3.059408750961273e7 0.0
0.0 0.0 0.0

3.7001094607912125e6 2.9565562877203405e7 0.0
2.9565562877203405e7 -4.0905075399937276e6 0.0
0.0 0.0 0.0

2.8581413279478615e6 5.50995276805325e6 0.0
5.50995276805325e6 -1.0421071227060579e7 0.0
0.0 0.0 0.0

-302104.77926138556 3.806606175376002e7 0.0
3.806606175376002e7 -1.5685657063524444e6 0.0
0.0 0.0 0.0

4.1118115515515218e6 2.167017971907445e7 0.0
2.167017971907445e7 7.7471878707470875e6 0.0
0.0 0.0 0.0

-952898.9443687217 2.4340817026704803e7 0.0
2.4340817026704803e7 -3.8798758007723982e6 0.0
0.0 0.0 0.0

2.5493405565799493e6 5.392488214633214e6 0.0
5.392488214633214e6 -3.736890874643029e7 0.0
0.0 0.0 0.0

-2.4149206636182787e6 2.1115975087773114e7 0.0
2.1115975087773114e7 -1.0222513565937446e7 0.0
0.0 0.0 0.0

6.947710555431377e6 2.2399957972008113e7 0.0
2.2399957972008113e7 1.315901622949472e7 0.0
0.0 0.0 0.0

-1.514025255589332e6 2.882488858664865e7 0.0
2.882488858664865e7 1.272480200320432e6 0.0
0.0 0.0 0.0

4.026467449433632e6 1.9565911448990766e7 0.0
1.9565911448990766e7 2.8942545177937828e7 0.0
0.0 0.0 0.0

-4.137619888882862e6 1.3964657360028448e6 0.0
1.3964657360028448e6 8.0859661671183845e6 0.0
0.0 0.0 0.0

-1.4680061082284544e6 1.8384946079012435e7 0.0
1.8384946079012435e7 3.3945082047882326e7 0.0
0.0 0.0 0.0

-7.463472133561104e6 2.4391328030460708e7 0.0
2.4391328030460708e7 4.603673131205476e6 0.0
0.0 0.0 0.0

7.274519613825052e6 2.484133473620771e7 0.0
2.484133473620771e7 -5.281848085695345e6 0.0
0.0 0.0 0.0

2.683429299463609e6 2.34636664216766e7 0.0
2.34636664216766e7 -8.461350833971132e6 0.0
0.0 0.0 0.0

7.3354040616305545e6 3.111668905339591e7 0.0
3.111668905339591e7 -4.741301487126481e6 0.0
0.0 0.0 0.0

643246.3618406353 1.7290473679317065e7 0.0
1.7290473679317065e7 5.387549839779964e6 0.0
0.0 0.0 0.0

-4.0237028729728237e6 2.4235937819287892e7 0.0
2.4235937819287892e7 1.1055902254575081e7 0.0
0.0 0.0 0.0

3.762817048739158e6 3.2130132729331538e7 0.0
3.2130132729331538e7 -3.985188475319463e6 0.0
0.0 0.0 0.0

-7.952183427989268e6 1.6956483657351177e7 0.0
1.6956483657351177e7 -4.76270859872478e7 0.0
0.0 0.0 0.0

-8.731253559212731e6 1.0737138369442219e7 0.0
1.0737138369442219e7 1.2769140078712296e7 0.0
0.0 0.0 0.0

947851.8859274134 1.924396630410248e7 0.0
1.924396630410248e7 9.155709385797627e6 0.0
0.0 0.0 0.0

3.8850031751391487e6 3.0380285496078823e7 0.0
3.0380285496078823e7 -4.701971961692724e6 0.0
0.0 0.0 0.0

-1.2020429583349293e6 1.919974760310077e7 0.0
1.919974760310077e7 -1.706612848830373e7 0.0
0.0 0.0 0.0

3.760138338518249e6 3.43072520831412e6 0.0
3.43072520831412e6 -2.6235010576805234e7 0.0
0.0 0.0 0.0

-6.384586367642466e6 -124804.03953832532 0.0
-124804.03953832532 6.35847393434012e7 0.0
0.0 0.0 0.0

957976.7089123148 1.3915487376224142e7 0.0
1.3915487376224142e7 -2.8683743952868763e7 0.0
0.0 0.0 0.0

2.1586843019489013e6 2.08053558375037e7 0.0
2.08053558375037e7 1.1739713625540534e7 0.0
0.0 0.0 0.0

-8.886486244578654e6 1.5985889754512733e7 0.0
1.5985889754512733e7 2.23825073800127e7 0.0
0.0 0.0 0.0

8.205355094228562e6 2.445244320175e7 0.0
2.445244320175e7 -4.659105408501727e6 0.0
0.0 0.0 0.0

2.893330149627909e6 5.922326216818066e6 0.0
5.922326216818066e6 -2.2155261444047052e7 0.0
0.0 0.0 0.0

3.5509210245283563e6 2.135625756992094e7 0.0
2.135625756992094e7 -2.643697875406516e6 0.0
0.0 0.0 0.0

7.321309649976416e6 2.3205689413565766e7 0.0
2.3205689413565766e7 1.2579175211254297e7 0.0
0.0 0.0 0.0

1.0754150103717368e7 3.981189983690054e7 0.0
3.981189983690054e7 -7.29794509211176e6 0.0
0.0 0.0 0.0

2.637502865815421e6 2.3158173278078735e7 0.0
2.3158173278078735e7 -8.566209215617454e6 0.0
0.0 0.0 0.0

1.9130595806084257e6 1.822734570368543e7 0.0
1.822734570368543e7 4.5205834076159574e7 0.0
0.0 0.0 0.0

3.5625611451787017e6 1.8393320726226121e6 0.0
1.8393320726226121e6 -3.374041792426515e7 0.0
0.0 0.0 0.0

626345.6713358975 3.1292079284263387e7 0.0
3.1292079284263387e7 -2.3159435885625402e6 0.0
0.0 0.0 0.0

5.236784455015244e6 2.039701731024187e7 0.0
2.039701731024187e7 4.1427970860017417e6 0.0
0.0 0.0 0.0

-6.741587575854039e7 1.9357052611790754e7 0.0
1.9357052611790754e7 3.6550160006043427e6 0.0
0.0 0.0 0.0

-6.237003910625938e6 2.6305746572643686e7 0.0
2.6305746572643686e7 8.026192066005432e6 0.0
0.0 0.0 0.0

-7.787625766809725e6 9.840105549026258e6 0.0
9.840105549026258e6 1.4295097276649173e7 0.0
0.0 0.0 0.0

-143713.2316296827 1.6904206560410146e7 0.0
1.6904206560410146e7 -2.4686478595687732e7 0.0
0.0 0.0 0.0

-2.0066705890025897e6 2.031957277353181e7 0.0
2.031957277353181e7 1.58066125746738e7 0.0
0.0 0.0 0.0

-3.183990095507902e6 1.6715351684339447e7 0.0
1.6715351684339447e7 -3.3166850633818626e7 0.0
0.0 0.0 0.0

3.096234882498672e6 2.69884917488115e6 0.0
2.69884917488115e6 -4.402096536979975e7 0.0
0.0 0.0 0.0

5.541888975569297e7 1.9411807170150023e7 0.0
1.9411807170150023e7 4.239913482450511e6 0.0
0.0 0.0 0.0

-1.2233052559590223e8 4.710986032559219e7 0.0
4.710986032559219e7 -1.826833401559133e7 0.0
0.0 0.0 0.0

1.3625160858360356e7 2.1154123536774952e7 0.0
2.1154123536774952e7 7.975165191912981e6 0.0
0.0 0.0 0.0

446205.0785758444 2.3776472219670475e7 0.0
2.3776472219670475e7 -8.91412239142599e6 0.0
0.0 0.0 0.0

-3.485604262160768e6 2.2056176738080364e7 0.0
2.2056176738080364e7 1.4320382048377182e7 0.0
0.0 0.0 0.0

3.55299364027106e6 3.4346710257924325e6 0.0
3.4346710257924325e6 -2.5719965152599286e7 0.0
0.0 0.0 0.0

-7.390878487345279e6 2.449283812408875e7 0.0
2.449283812408875e7 6.534484456337209e6 0.0
0.0 0.0 0.0

2.645663394125805e6 3.2147332849877466e7 0.0
3.2147332849877466e7 -1.9247181036620312e6 0.0
0.0 0.0 0.0

-3.2430498317064913e6 1.784982132565309e7 0.0
1.784982132565309e7 -2.5469266041932534e7 0.0
0.0 0.0 0.0

-1.3135484378371078e6 2.4010975735075857e7 0.0
2.4010975735075857e7 -5.261048811502858e6 0.0
0.0 0.0 0.0

2.0444991339722304e6 5.5037602856650045e6 0.0
5.5037602856650045e6 -6.888350051680213e6 0.0
0.0 0.0 0.0

1.0484815122495787e7 2.2805550973537534e7 0.0
2.2805550973537534e7 1.2526174483823873e7 0.0
0.0 0.0 0.0

-1.1506881716816664e7 2.3333517706818633e7 0.0
2.3333517706818633e7 -2.2854672202774864e6 0.0
0.0 0.0 0.0

592951.8397057308 1.9526842069370575e7 0.0
1.9526842069370575e7 -1.3620312906397248e7 0.0
0.0 0.0 0.0

-2.5843194252588376e6 2.475993892196875e7 0.0
2.475993892196875e7 965790.9722032355 0.0
0.0 0.0 0.0

799293.716305593 1.406650676773716e7 0.0
1.406650676773716e7 -2.7268073363822524e7 0.0
0.0 0.0 0.0

-7.653075656008355e6 807706.6099766983 0.0
807706.6099766983 5.1301273819160804e7 0.0
0.0 0.0 0.0

493274.25787424296 1.716948448937554e7 0.0
1.716948448937554e7 -1.818498289848867e7 0.0
0.0 0.0 0.0

3.861119477079879e6 2.0298524701929647e7 0.0
2.0298524701929647e7 -88016.65727290954 0.0
0.0 0.0 0.0

-1.5037120115789289e7 2.0408652665473755e7 0.0
2.0408652665473755e7 -6.0952960862415105e7 0.0
0.0 0.0 0.0

3.3358955535966083e6 6.654456995422241e6 0.0
6.654456995422241e6 -2.554575369796613e7 0.0
0.0 0.0 0.0

706271.7677532742 1.87532931274209e7 0.0
1.87532931274209e7 -1.7684450196699113e7 0.0
0.0 0.0 0.0

-4.780167389059627e6 2.5492601694458902e7 0.0
2.5492601694458902e7 9.196376960273823e6 0.0
0.0 0.0 0.0

-911470.2357045681 2.8135587786027826e7 0.0
2.8135587786027826e7 -2.1958408484876533e6 0.0
0.0 0.0 0.0

-3.0099362259868677e6 2.3171438593083575e7 0.0
2.3171438593083575e7 1.064988607031513e7 0.0
0.0 0.0 0.0

5.519799585485428e6 2.1226591744632985e7 0.0
2.1226591744632985e7 8.444637171355167e6 0.0
0.0 0.0 0.0

-8.396410324490948e7 2.570318555511032e7 0.0
2.570318555511032e7 180794.57029889524 0.0
0.0 0.0 0.0

-530763.6255808829 1.3815537058730375e6 0.0
1.3815537058730375e6 -398228.0115484129 0.0
0.0 0.0 0.0

-1.3287754332832657e6 1.7487558033419862e7 0.0
1.7487558033419862e7 -1.9135491321151068e6 0.0
0.0 0.0 0.0

1.2597505754185725e7 2.098844030728732e7 0.0
2.098844030728732e7 3.0213475721811973e6 0.0
0.0 0.0 0.0

-878311.1337602263 3.375008753073279e7 0.0
3.375008753073279e7 1.1962715738965527e6 0.0
0.0 0.0 0.0

-2.5700551373707186e6 1.5093770959777132e7 0.0
1.5093770959777132e7 -4.041792852921698e7 0.0
0.0 0.0 0.0

-2.8243781161009716e6 2.1088023303290427e7 0.0
2.1088023303290427e7 -7.532689984228758e6 0.0
0.0 0.0 0.0

3.4518801170004043e6 2.445390690806067e7 0.0
2.445390690806067e7 -7.420115627569424e6 0.0
0.0 0.0 0.0

1.051490931391947e6 1.5700379926407544e7 0.0
1.5700379926407544e7 -1.5736672362235159e7 0.0
0.0 0.0 0.0

3.389862183670554e6 2.3704485548766617e7 0.0
2.3704485548766617e7 -7.336061967864708e6 0.0
0.0 0.0 0.0

421246.2624614439 1.9661168281598203e7 0.0
1.9661168281598203e7 9.395393272255793e6 0.0
0.0 0.0 0.0

-276284.130181183 2.786230690641337e7 0.0
2.786230690641337e7 -1.7581977603689386e6 0.0
0.0 0.0 0.0

2.660842745170474e6 9.668438796125306e6 0.0
9.668438796125306e6 -2.4874325332843516e7 0.0
0.0 0.0 0.0

3.0641907193191666e6 2.9506352385274726e6 0.0
2.9506352385274726e6 -3.824192294010651e7 0.0
0.0 0.0 0.0

-1.6504690034082665e6 776951.1635205841 0.0
776951.1635205841 -701168.1228909034 0.0
0.0 0.0 0.0

-9.8205040350018e6 408806.9263603181 0.0
408806.9263603181 2.616381268298073e6 0.0
0.0 0.0 0.0

3.2331522187337596e6 2.1010268418848995e7 0.0
2.1010268418848995e7 1.4338073663322695e7 0.0
0.0 0.0 0.0

2.0919661075957369e6 1.8429129777374037e7 0.0
1.8429129777374037e7 1.2085282395157266e7 0.0
0.0 0.0 0.0

41225.77431538841 1.9488719805037353e7 0.0
1.9488719805037353e7 9.426226290915515e6 0.0
0.0 0.0 0.0

2.843587891944954e6 5.1549946645442415e6 0.0
5.1549946645442415e6 -1.6636878466737892e7 0.0
0.0 0.0 0.0

3.3924194428004096e6 2.2569106973341104e7 0.0
2.2569106973341104e7 -6.8952627454009345e6 0.0
0.0 0.0 0.0

2.3267324854063415e6 4.289041015538724e6 0.0
4.289041015538724e6 -8.117874257994585e6 0.0
0.0 0.0 0.0

2.8641697926456695e6 2.375734175418283e7 0.0
2.375734175418283e7 -8.019926784664007e6 0.0
0.0 0.0 0.0

-8.148875851520013e6 1.6802798865466822e7 0.0
1.6802798865466822e7 2.8985630111555256e7 0.0
0.0 0.0 0.0

999517.9699506529 2.678877558888766e7 0.0
2.678877558888766e7 -4.689787005216958e6 0.0
0.0 0.0 0.0

4.500494349888308e6 3.1091999810956497e7 0.0
3.1091999810956497e7 -3.3172570031395047e6 0.0
0.0 0.0 0.0

2.7036807668152116e6 7.340691775780266e6 0.0
7.340691775780266e6 -2.6587680438840523e7 0.0
0.0 0.0 0.0

2.8478628818568587e6 6.017639912396965e6 0.0
6.017639912396965e6 -2.7174498415728327e7 0.0
0.0 0.0 0.0

1.528306882743335e7 2.263511841524641e7 0.0
2.263511841524641e7 289363.08050617855 0.0
0.0 0.0 0.0

862224.6944302525 1.9760083567485806e7 0.0
1.9760083567485806e7 2.4976580087739196e7 0.0
0.0 0.0 0.0

305117.0333466418 1.776082754059282e7 0.0
1.776082754059282e7 -1.7022697229323145e7 0.0
0.0 0.0 0.0

-7.918180068465954e6 -2.67862633082089e6 0.0
-2.67862633082089e6 4.015644541946325e7 0.0
0.0 0.0 0.0

-917319.7824922097 3.2278341542761385e7 0.0
3.2278341542761385e7 918420.7410312959 0.0
0.0 0.0 0.0

-9.707211759464053e6 1.5621488794421721e7 0.0
1.5621488794421721e7 2.70618817286463e7 0.0
0.0 0.0 0.0

-8.472224578586284e6 -3.6393212400206877e6 0.0
-3.6393212400206877e6 1.6483630604888897e7 0.0
0.0 0.0 0.0

-139133.24373566546 1.7567995505180843e7 0.0
1.7567995505180843e7 -1.045410732118366e7 0.0
0.0 0.0 0.0

3.2229697982433066e6 3.0326132861425243e6 0.0
3.0326132861425243e6 -3.682885537795311e7 0.0
0.0 0.0 0.0

-4.563965076299573e6 2.924204092918082e7 0.0
2.924204092918082e7 5.44303218225071e6 0.0
0.0 0.0 0.0

-715280.4013331574 2.3751345271607917e7 0.0
2.3751345271607917e7 -4.888272812947385e6 0.0
0.0 0.0 0.0

835489.2290844917 1.35681087099617e7 0.0
1.35681087099617e7 -2.88284678291407e7 0.0
0.0 0.0 0.0

1.6163471087885337e7 2.0480627838171277e7 0.0
2.0480627838171277e7 5.7076239601177825e6 0.0
0.0 0.0 0.0

-5.257096356941884e6 2.8216671680380095e7 0.0
2.8216671680380095e7 6.473488495408921e6 0.0
0.0 0.0 0.0

-8.86628672815778e6 -1.449357719832443e6 0.0
-1.449357719832443e6 3.825765404501193e7 0.0
0.0 0.0 0.0

-8.790732236710189e6 -4.0354854646657854e6 0.0
-4.0354854646657854e6 2.943239777323669e7 0.0
0.0 0.0 0.0

5.267071675998497e6 2.0666755646021362e7 0.0
2.0666755646021362e7 362994.8293480696 0.0
0.0 0.0 0.0

748885.5499986787 2.360833019819065e7 0.0
2.360833019819065e7 -8.659926671586663e6 0.0
0.0 0.0 0.0

1.1106552245441773e6 2.420411765998181e7 0.0
2.420411765998181e7 -8.204983055217958e6 0.0
0.0 0.0 0.0

-6.025308599375412e6 6.84928765294421e6 0.0
6.84928765294421e6 5.6819023432380445e7 0.0
0.0 0.0 0.0

3.477277485037594e6 2.7631194621469495e6 0.0
2.7631194621469495e6 -1.2499629879800664e7 0.0
0.0 0.0 0.0

-8.260073099133306e6 2.3269306613697212e7 0.0
2.3269306613697212e7 -2.4512854743839963e6 0.0
0.0 0.0 0.0

-1.4074232921204371e7 2.366381251875529e7 0.0
2.366381251875529e7 -8.062851630379766e6 0.0
0.0 0.0 0.0

-3.023545550564708e7 2.8732866405732792e7 0.0
2.8732866405732792e7 -3.9460759610476913e6 0.0
0.0 0.0 0.0

990509.0263412283 3.268474279755447e7 0.0
3.268474279755447e7 -552767.567378622 0.0
0.0 0.0 0.0

594341.2275827276 1.7901314976034224e7 0.0
1.7901314976034224e7 885609.8641089845 0.0
0.0 0.0 0.0

-8.497476045091862e6 -812558.3135576537 0.0
-812558.3135576537 4.052197163434659e7 0.0
0.0 0.0 0.0

1.2869052790912397e7 2.23343266450428e7 0.0
2.23343266450428e7 323342.6732533742 0.0
0.0 0.0 0.0

38220.91258541029 1.9398107159507293e7 0.0
1.9398107159507293e7 -1.1081674850811781e7 0.0
0.0 0.0 0.0

-9.395453164773213e6 -559041.622764933 0.0
-559041.622764933 3.1439352704721063e7 0.0
0.0 0.0 0.0

-3.663733537462399e6 2.365741437032929e7 0.0
2.365741437032929e7 9.538605102534208e6 0.0
0.0 0.0 0.0

-3.771588069543632e6 2.5072306822470523e7 0.0
2.5072306822470523e7 8.439465478429435e6 0.0
0.0 0.0 0.0

-5.362213665044112e6 491929.8707069093 0.0
491929.8707069093 6.042439086737968e6 0.0
0.0 0.0 0.0

3.0098269773579855e6 5.175592078075695e6 0.0
5.175592078075695e6 -2.8278092575514466e7 0.0
0.0 0.0 0.0

314187.20159088075 8.537224177578712e6 0.0
8.537224177578712e6 -5.004678389599571e7 0.0
0.0 0.0 0.0

7.366222860835435e6 2.262407763066999e7 0.0
2.262407763066999e7 1.2952703202138526e7 0.0
0.0 0.0 0.0

2.730506873212102e6 4.413488021368362e6 0.0
4.413488021368362e6 -1.1186514351149954e7 0.0
0.0 0.0 0.0

2.033124807190757e7 3.041226111198956e7 0.0
3.041226111198956e7 -7.607550724004542e6 0.0
0.0 0.0 0.0

3.736253413774589e6 4.451845859778988e6 0.0
4.451845859778988e6 -2.6977905474611476e7 0.0
0.0 0.0 0.0

3.7116552617346123e6 5.005967779168736e6 0.0
5.005967779168736e6 -1.8513021572474837e7 0.0
0.0 0.0 0.0

3.274135414102547e6 4.773460260716675e6 0.0
4.773460260716675e6 -2.3876748310517736e7 0.0
0.0 0.0 0.0

877628.7476598207 1.8921759838172086e7 0.0
1.8921759838172086e7 2.7094919587798445e6 0.0
0.0 0.0 0.0

1.4073005296116553e6 1.840686277028516e7 0.0
1.840686277028516e7 9.18541375119105e6 0.0
0.0 0.0 0.0

139837.5566233117 1.589161255773517e7 0.0
1.589161255773517e7 -2.6043725633824363e7 0.0
0.0 0.0 0.0

1.9224305377296854e7 3.146428336359208e7 0.0
3.146428336359208e7 -6.264211578600927e6 0.0
0.0 0.0 0.0

-9.197189320344621e6 -1.9626606606945381e6 0.0
-1.9626606606945381e6 3.1299590942600824e7 0.0
0.0 0.0 0.0

-3.580489750881594e6 2.3863039483670108e7 0.0
2.3863039483670108e7 1.1206047482414123e7 0.0
0.0 0.0 0.0

-1.9898885665148296e6 3.194619188971336e7 0.0
3.194619188971336e7 420290.02293997596 0.0
0.0 0.0 0.0

581405.3806730821 2.6902752367878124e7 0.0
2.6902752367878124e7 -4.010931957326811e6 0.0
0.0 0.0 0.0

-8.43203737245353e6 -3.4721182911371253e6 0.0
-3.4721182911371253e6 2.2339626038048968e7 0.0
0.0 0.0 0.0

-9.756748427948944e6 -1.2299974771128201e6 0.0
-1.2299974771128201e6 1.5644207426088344e7 0.0
0.0 0.0 0.0

2.206460860628495e6 1.9810656506098326e7 0.0
1.9810656506098326e7 2.3834718431322236e7 0.0
0.0 0.0 0.0

-2.2724742287797686e6 -230131.7994432561 0.0
-230131.7994432561 2.451219881957348e6 0.0
0.0 0.0 0.0

7.0100463238774035e6 2.4850076458778415e7 0.0
2.4850076458778415e7 -5.311503466904386e6 0.0
0.0 0.0 0.0

374319.30063659884 2.2456152804878682e7 0.0
2.2456152804878682e7 -1.0480200698941099e7 0.0
0.0 0.0 0.0

400955.6034180727 1.862378585769115e7 0.0
1.862378585769115e7 -1.8750008749705173e7 0.0
0.0 0.0 0.0

-1.9964139852038685e6 2.2925617952089902e7 0.0
2.2925617952089902e7 557201.5650434474 0.0
0.0 0.0 0.0

-3.7220080080492347e6 2.285644196381282e7 0.0
2.285644196381282e7 1.0139248988599116e7 0.0
0.0 0.0 0.0

-9.56795228147665e6 1.5744524879292902e7 0.0
1.5744524879292902e7 2.3909251682871006e7 0.0
0.0 0.0 0.0

-2.0112059177424617e7 4.054047500618406e7 0.0
4.054047500618406e7 6.073208674489883e6 0.0
0.0 0.0 0.0

2.953361173035889e6 4.337943069268067e6 0.0
4.337943069268067e6 -1.1409553426065871e7 0.0
0.0 0.0 0.0

815720.7223761221 1.8132783998897415e7 0.0
1.8132783998897415e7 -1.5597041559425e7 0.0
0.0 0.0 0.0

2.1530298516221754e6 3.963163627348039e6 0.0
3.963163627348039e6 -5.36683309884948e7 0.0
0.0 0.0 0.0

3.1287290683951625e6 2.420627390458228e7 0.0
2.420627390458228e7 -7.826658835323291e6 0.0
0.0 0.0 0.0

-7.404852849057252e6 1.290173793708803e7 0.0
1.290173793708803e7 1.329753468501687e7 0.0
0.0 0.0 0.0

-8.469577067077111e6 1.6683901867406927e7 0.0
1.6683901867406927e7 -3.4367657399568014e7 0.0
0.0 0.0 0.0

3.227042897878599e7 2.131598323824361e7 0.0
2.131598323824361e7 6.752580678370293e6 0.0
0.0 0.0 0.0

-9.702493509555526e6 2.2305463492441247e6 0.0
2.2305463492441247e6 1.7866970222720735e7 0.0
0.0 0.0 0.0

1.0326521984732866e7 2.1375385763513256e7 0.0
2.1375385763513256e7 9.664602961310884e6 0.0
0.0 0.0 0.0

6.069272402289362e6 1.7005847283386808e7 0.0
1.7005847283386808e7 2.476388398558529e7 0.0
0.0 0.0 0.0

-6.747522064362596e6 1.6870912802502014e7 0.0
1.6870912802502014e7 -2.1273080158754595e7 0.0
0.0 0.0 0.0

3.742440826915647e6 3.4280148121278375e7 0.0
3.4280148121278375e7 -3.6258618016369226e6 0.0
0.0 0.0 0.0

-695472.1531187375 2.381676042891557e7 0.0
2.381676042891557e7 -7.343332060565952e6 0.0
0.0 0.0 0.0

-5.898164622028909e6 1.801665592897337e7 0.0
1.801665592897337e7 1.876057902159982e7 0.0
0.0 0.0 0.0

-881738.7241942883 8.509929836579539e6 0.0
8.509929836579539e6 -7.067317220956603e7 0.0
0.0 0.0 0.0

-1.0145764318681702e7 192332.84014975978 0.0
192332.84014975978 1.520644082421428e7 0.0
0.0 0.0 0.0

-1.2797851421859923e6 1.917266294299363e7 0.0
1.917266294299363e7 -8.084676310318039e6 0.0
0.0 0.0 0.0

9.364691474111121e6 2.20058253082358e7 0.0
2.20058253082358e7 1.0620809902167004e7 0.0
0.0 0.0 0.0

1.3534876016523174e6 1.3943121560838185e7 0.0
1.3943121560838185e7 6.557759836317777e6 0.0
0.0 0.0 0.0

-3.919012589116575e6 2.2106583432309777e7 0.0
2.2106583432309777e7 1.5035151328388944e7 0.0
0.0 0.0 0.0

-2.963328873520812e6 2.688087372135484e7 0.0
2.688087372135484e7 5.17173964617264e6 0.0
0.0 0.0 0.0

-1.738548867327156e7 4.140343993899384e7 0.0
4.140343993899384e7 7.362609538292535e6 0.0
0.0 0.0 0.0

1.0578401155768577e6 8.02147666558509e6 0.0
8.02147666558509e6 -6.495726102882701e6 0.0
0.0 0.0 0.0

-3.475018889222216e6 2.6577481029216442e7 0.0
2.6577481029216442e7 4.722882065608775e6 0.0
0.0 0.0 0.0

-602908.1298561706 2.2783552167586338e7 0.0
2.2783552167586338e7 -7.3276866555621745e6 0.0
0.0 0.0 0.0

1.4860523085823428e7 2.2255250248589482e7 0.0
2.2255250248589482e7 1.1264553272381252e7 0.0
0.0 0.0 0.0

-245635.1647679021 2.5860352279369283e7 0.0
2.5860352279369283e7 -5.554483181307414e6 0.0
0.0 0.0 0.0

2.272520704740405e6 4.380330608527609e6 0.0
4.380330608527609e6 -9.065621660032943e6 0.0
0.0 0.0 0.0

138273.5031073736 1.97429120118534e7 0.0
1.97429120118534e7 -1.3970940587653168e7 0.0
0.0 0.0 0.0

-1.0458864107178774e7 1.9822532237588672e6 0.0
1.9822532237588672e6 2.4164498217909485e7 0.0
0.0 0.0 0.0

3.5279192708371077e6 5.877326533148563e6 0.0
5.877326533148563e6 -2.6469022555649247e7 0.0
0.0 0.0 0.0

1.9725390534804352e6 4.780785194028822e6 0.0
4.780785194028822e6 -5.816563034744075e7 0.0
0.0 0.0 0.0

2.8027053731563217e6 2.1901168656509288e7 0.0
2.1901168656509288e7 1.2698216096054848e7 0.0
0.0 0.0 0.0

579067.6240312401 1.964259724420415e7 0.0
1.964259724420415e7 -1.6381514867888235e7 0.0
0.0 0.0 0.0

-6.396239049790558e6 1.828379691285136e7 0.0
1.828379691285136e7 1.671250701610709e7 0.0
0.0 0.0 0.0

3.8890492201037025e6 2.2635531519283196e6 0.0
2.2635531519283196e6 -2.2726813543432258e7 0.0
0.0 0.0 0.0

1.3163138002863275e6 1.5906588384298308e7 0.0
1.5906588384298308e7 -2.018370259615699e7 0.0
0.0 0.0 0.0

-82879.90953409765 1.7951851093149506e7 0.0
1.7951851093149506e7 -1.984940367451262e7 0.0
0.0 0.0 0.0

-5.643945654875635e6 1.9251773418128997e7 0.0
1.9251773418128997e7 1.591741285277208e7 0.0
0.0 0.0 0.0

-1.1241995072801807e6 8.814782054220513e6 0.0
8.814782054220513e6 4.32602079731249e6 0.0
0.0 0.0 0.0

-9.551888457891854e6 -1.4752497997591167e6 0.0
-1.4752497997591167e6 2.587834017505061e7 0.0
0.0 0.0 0.0

179127.71320492495 1.8921066079859402e7 0.0
1.8921066079859402e7 -1.7146046785044286e7 0.0
0.0 0.0 0.0

-7.06676232093129e6 1.163352155480703e7 0.0
1.163352155480703e7 1.4280068819435656e7 0.0
0.0 0.0 0.0

1.3703465885588948e7 2.048487328317614e7 0.0
2.048487328317614e7 1.0344516671381433e7 0.0
0.0 0.0 0.0

438640.3268492585 2.307639335844192e7 0.0
2.307639335844192e7 -9.826707275219154e6 0.0
0.0 0.0 0.0

2.440447506764592e6 4.361148275834855e6 0.0
4.361148275834855e6 -7.947300381861035e6 0.0
0.0 0.0 0.0

-8.884624960231947e6 6.034833147916023e6 0.0
6.034833147916023e6 4.098232435513793e7 0.0
0.0 0.0 0.0

-2.2126856383616533e6 2.9114867779957354e7 0.0
2.9114867779957354e7 809203.9673697278 0.0
0.0 0.0 0.0

-9.208542698777992e6 3.0731459297135767e7 0.0
3.0731459297135767e7 5.514337722273285e6 0.0
0.0 0.0 0.0

-1.140539088158533e7 3.333260566618624e6 0.0
3.333260566618624e6 1.5757252324593809e7 0.0
0.0 0.0 0.0

-9.700714393452782e6 1.2459215764637915e6 0.0
1.2459215764637915e6 3.2957762417538725e7 0.0
0.0 0.0 0.0

444839.8760416731 1.4188767658923522e7 0.0
1.4188767658923522e7 -2.9064771788410936e7 0.0
0.0 0.0 0.0

-4.46585348292984e6 1.980195990801056e7 0.0
1.980195990801056e7 1.653334625424779e7 0.0
0.0 0.0 0.0

-9.0405114800377e6 7.311923377734013e6 0.0
7.311923377734013e6 4.149453352473743e7 0.0
0.0 0.0 0.0

-6.4538040774187595e7 2.020018063909329e7 0.0
2.020018063909329e7 4.977576791022133e6 0.0
0.0 0.0 0.0

1.0897730153845903e6 1.3279435454386346e7 0.0
1.3279435454386346e7 -1.8040455140521917e7 0.0
0.0 0.0 0.0

884339.542828032 1.8841803630369324e7 0.0
1.8841803630369324e7 389476.45005224657 0.0
0.0 0.0 0.0

3.429002787969986e6 1.7576366765387475e6 0.0
1.7576366765387475e6 -3.599261796658323e7 0.0
0.0 0.0 0.0

3.5600804184710896e6 1.965510207900115e7 0.0
1.965510207900115e7 1.5084382689533418e7 0.0
0.0 0.0 0.0

-1.0014393659397608e7 7.52037520295702e6 0.0
7.52037520295702e6 3.8266589490161896e7 0.0
0.0 0.0 0.0

1.1298251383393821e6 6.814173751871349e6 0.0
6.814173751871349e6 -8.375045772054023e6 0.0
0.0 0.0 0.0

-524770.5597670269 2.282766990313894e7 0.0
2.282766990313894e7 -7.31887261628625e6 0.0
0.0 0.0 0.0

-2.3690219329471835e6 2.5849284829555437e7 0.0
2.5849284829555437e7 374199.1471565892 0.0
0.0 0.0 0.0

-3.0418319569981387e6 2.1990794248955242e7 0.0
2.1990794248955242e7 9.950439503934052e6 0.0
0.0 0.0 0.0

-6.396886941833287e6 2.997873344197951e7 0.0
2.997873344197951e7 5.248288312942548e6 0.0
0.0 0.0 0.0

-2.8557557454885314e6 2.1115342325369675e7 0.0
2.1115342325369675e7 559512.7908466661 0.0
0.0 0.0 0.0

-8.16842402354428e6 88271.73808727806 0.0
88271.73808727806 4.5882250155850925e7 0.0
0.0 0.0 0.0

2.8338902832876677e6 1.926862857975359e7 0.0
1.926862857975359e7 2.1571107303339977e7 0.0
0.0 0.0 0.0

966885.5885709012 1.7866878515664924e7 0.0
1.7866878515664924e7 -1.709872525132391e7 0.0
0.0 0.0 0.0

-1.771123146002022e7 2.7091217917670872e7 0.0
2.7091217917670872e7 -6.577092471323619e6 0.0
0.0 0.0 0.0

-6.773194050892072e6 -1.4057450065756575e6 0.0
-1.4057450065756575e6 9.38247189800949e6 0.0
0.0 0.0 0.0

-1.5490511997934114e6 3.133564122634832e7 0.0
3.133564122634832e7 1.6717763026999882e6 0.0
0.0 0.0 0.0

299181.0654640596 1.8102665234290645e7 0.0
1.8102665234290645e7 -1.6682702557819623e6 0.0
0.0 0.0 0.0

-7.852613167417562e6 1.760516211866344e7 0.0
1.760516211866344e7 2.719519860688946e7 0.0
0.0 0.0 0.0

2.400273681815208e6 1.171068628202878e7 0.0
1.171068628202878e7 -2.373307910733138e7 0.0
0.0 0.0 0.0

-8.709154285255948e6 1.6996633658703525e7 0.0
1.6996633658703525e7 2.4885257051645964e7 0.0
0.0 0.0 0.0

1.9787925842868998e6 4.475763666156932e6 0.0
4.475763666156932e6 -7.666242250800005e6 0.0
0.0 0.0 0.0

3.2653644188964833e6 7.256690250059122e6 0.0
7.256690250059122e6 -2.6167116916743558e7 0.0
0.0 0.0 0.0

-2.57855718735926e6 2.1099732640906394e7 0.0
2.1099732640906394e7 -8.864169803488137e6 0.0
0.0 0.0 0.0

-2.4716865490718363e6 2.247065350811367e7 0.0
2.247065350811367e7 2.469187819469763e6 0.0
0.0 0.0 0.0

-1.9313432567989696e6 2.593473443816776e7 0.0
2.593473443816776e7 1.8046153195158793e6 0.0
0.0 0.0 0.0

3.505608247921463e6 2.354437247486833e7 0.0
2.354437247486833e7 -7.685930481289215e6 0.0
0.0 0.0 0.0

3.7048352616589814e6 5.086352529214453e6 0.0
5.086352529214453e6 -2.3745725000455078e7 0.0
0.0 0.0 0.0

1.4066220120396756e6 4.38857727152005e6 0.0
4.38857727152005e6 -5.290448489830462e6 0.0
0.0 0.0 0.0

2.64836033400576e6 6.531099334307398e6 0.0
6.531099334307398e6 -2.785214391106136e7 0.0
0.0 0.0 0.0

1.9685260638571465e6 6.760360118786172e6 0.0
6.760360118786172e6 -8.664606155807393e6 0.0
0.0 0.0 0.0

1.8708637191601887e7 2.045871071817534e7 0.0
2.045871071817534e7 8.865678796908595e6 0.0
0.0 0.0 0.0

-2.632863152564925e6 3.477281131052086e7 0.0
3.477281131052086e7 2.4403001194975656e6 0.0
0.0 0.0 0.0

-8.762247464908164e6 -1.4288151719149116e6 0.0
-1.4288151719149116e6 3.671326104494954e7 0.0
0.0 0.0 0.0

1.5266757424938865e6 8.407753771227965e6 0.0
8.407753771227965e6 -4.60170501496405e7 0.0
0.0 0.0 0.0

2.741520072574874e6 2.430499083197833e7 0.0
2.430499083197833e7 -7.980119558381461e6 0.0
0.0 0.0 0.0

-2.0816836756197237e6 2.090611705620516e7 0.0
2.090611705620516e7 -1.029033742663103e7 0.0
0.0 0.0 0.0

2.1429142048919555e6 7.605494760772821e6 0.0
7.605494760772821e6 -3.481273671778072e7 0.0
0.0 0.0 0.0

-6.646796412463814e6 3.4601525334035374e7 0.0
3.4601525334035374e7 4.789612041789273e6 0.0
0.0 0.0 0.0

7.793892656290717e6 2.245977266779938e7 0.0
2.245977266779938e7 1.186191270480816e7 0.0
0.0 0.0 0.0

-3.945231475911503e7 3.906980169999727e7 0.0
3.906980169999727e7 7.491748083201919e6 0.0
0.0 0.0 0.0

-2.636042091219385e6 1.97861810524799e7 0.0
1.97861810524799e7 2.1968110796177223e7 0.0
0.0 0.0 0.0

2.2638659167807223e6 1.0674983888682446e7 0.0
1.0674983888682446e7 -2.4367654933206335e7 0.0
0.0 0.0 0.0

7.35002473922674e7 2.436781970680847e7 0.0
2.436781970680847e7 9.603897740271289e6 0.0
0.0 0.0 0.0

5.181381325611561e6 2.0667727980173174e7 0.0
2.0667727980173174e7 1.6958996901471313e7 0.0
0.0 0.0 0.0

-1.091899379445207e7 3.152246280925397e6 0.0
3.152246280925397e6 2.505084271267233e7 0.0
0.0 0.0 0.0

1.5998117433468776e6 1.893753815517519e7 0.0
1.893753815517519e7 9.667562188348157e6 0.0
0.0 0.0 0.0

-2.6943129104646984e6 1.732335437148893e7 0.0
1.732335437148893e7 -2.4665086700297207e7 0.0
0.0 0.0 0.0

8.589678379869847e6 2.4440913120750323e7 0.0
2.4440913120750323e7 -4.600117483959786e6 0.0
0.0 0.0 0.0

-3.0075253273314126e6 2.2409095536189213e7 0.0
2.2409095536189213e7 7.946893989900817e6 0.0
0.0 0.0 0.0

-9.951081418521365e6 5.951875599889902e6 0.0
5.951875599889902e6 3.7427134918098025e7 0.0
0.0 0.0 0.0

-5.978001025662015e6 3.527134157360238e7 0.0
3.527134157360238e7 3.608597890997487e6 0.0
0.0 0.0 0.0

-7.887530848543998e6 2.3567097680337623e7 0.0
2.3567097680337623e7 4.822034189743249e6 0.0
0.0 0.0 0.0

-2.5607096230016234e6 2.5549602074409537e7 0.0
2.5549602074409537e7 1.1716201360922197e6 0.0
0.0 0.0 0.0

2.7808281599554373e6 2.914229441796393e7 0.0
2.914229441796393e7 -4.088495491424658e6 0.0
0.0 0.0 0.0

-2.203740020751247e6 2.8501921294004448e7 0.0
2.8501921294004448e7 741806.0901710199 0.0
0.0 0.0 0.0

157362.7597578391 1.91103125748695e7 0.0
1.91103125748695e7 274353.60936288704 0.0
0.0 0.0 0.0

-581015.4096716549 2.0468074900287744e7 0.0
2.0468074900287744e7 1.900169052633745e7 0.0
0.0 0.0 0.0

2.1971239816450905e6 2.0766242245236643e7 0.0
2.0766242245236643e7 320521.1776563328 0.0
0.0 0.0 0.0

-8.311273305876763e6 1.7565841289931484e7 0.0
1.7565841289931484e7 -4.2271382866132684e7 0.0
0.0 0.0 0.0

49318.64067579142 1.9127911955542926e7 0.0
1.9127911955542926e7 2.379846651919265e6 0.0
0.0 0.0 0.0

-2.7848569561684867e6 2.2401722817062497e7 0.0
2.2401722817062497e7 1.1043788896719427e6 0.0
0.0 0.0 0.0

3.5817363667759877e6 1.6209009223621517e7 0.0
1.6209009223621517e7 1.372987678724672e7 0.0
0.0 0.0 0.0

590449.2704413049 2.1159260820607528e7 0.0
2.1159260820607528e7 -1.2269318258081853e7 0.0
0.0 0.0 0.0

849648.562832824 1.553383422946422e7 0.0
1.553383422946422e7 -2.1360833461677168e7 0.0
0.0 0.0 0.0

3.7108981605452746e6 4.455800567538974e6 0.0
4.455800567538974e6 -2.4768022843654767e7 0.0
0.0 0.0 0.0

4.27028775753787e6 2.0369219241891883e7 0.0
2.0369219241891883e7 1.4103231994084822e7 0.0
0.0 0.0 0.0

-1.8736571720461473e6 2.1224980349807452e7 0.0
2.1224980349807452e7 1.3068852490640182e7 0.0
0.0 0.0 0.0

-8.404017739408132e6 1.7393483346840944e7 0.0
1.7393483346840944e7 2.495762268675928e7 0.0
0.0 0.0 0.0

-2.863456150730601e6 2.1724579301260214e7 0.0
2.1724579301260214e7 9.085067861786745e6 0.0
0.0 0.0 0.0

-3.982769743947626e6 2.1242477884493303e7 0.0
2.1242477884493303e7 -9.189964277935939e6 0.0
0.0 0.0 0.0

-8.687614395299267e6 1.756802967777852e7 0.0
1.756802967777852e7 2.348567884479729e7 0.0
0.0 0.0 0.0

-8.70084689877159e6 1.705330476753951e7 0.0
1.705330476753951e7 2.7113708872102242e7 0.0
0.0 0.0 0.0

-1.003187358130049e7 1.5799931331125835e7 0.0
1.5799931331125835e7 2.2088235009382762e7 0.0
0.0 0.0 0.0

-9.238398728029126e6 -2.8799029278713292e6 0.0
-2.8799029278713292e6 2.542125498748565e7 0.0
0.0 0.0 0.0

-3.0103897885978674e6 2.3896634437441695e7 0.0
2.3896634437441695e7 9.577227966338016e6 0.0
0.0 0.0 0.0

-3.4604069134445293e6 1.6391519374187902e7 0.0
1.6391519374187902e7 -3.618708629051332e7 0.0
0.0 0.0 0.0

-305922.53074350767 1.5828306813159596e7 0.0
1.5828306813159596e7 -2.5990294572655488e7 0.0
0.0 0.0 0.0

-2.946744301528113e7 3.09186788656545e7 0.0
3.09186788656545e7 -8.912595561983919e6 0.0
0.0 0.0 0.0

-7.99845007442292e6 4.841219053007123e6 0.0
4.841219053007123e6 4.674404316870023e7 0.0
0.0 0.0 0.0

265113.0309220804 1.6393694076964868e7 0.0
1.6393694076964868e7 -2.4395568388258986e7 0.0
0.0 0.0 0.0

-1.0717485074932643e6 2.9229166101384256e7 0.0
2.9229166101384256e7 -1.224203980015953e6 0.0
0.0 0.0 0.0

2.761961038822981e6 1.8911331091290463e7 0.0
1.8911331091290463e7 1.672323562923369e7 0.0
0.0 0.0 0.0

-8.497872397605445e6 -5.408905577290521e6 0.0
-5.408905577290521e6 2.1515567519981362e7 0.0
0.0 0.0 0.0

-313612.3718867543 1.8853244008830268e7 0.0
1.8853244008830268e7 -1.9766319278065525e6 0.0
0.0 0.0 0.0

-1.0910650461384866e6 2.0600711464642167e7 0.0
2.0600711464642167e7 -9.285254893293973e6 0.0
0.0 0.0 0.0

-1.2283349641472358e7 7.331499042543778e6 0.0
7.331499042543778e6 1.730551747255112e7 0.0
0.0 0.0 0.0

2.8590849062545057e6 1.5055762133422673e6 0.0
1.5055762133422673e6 -4.5628253684167325e7 0.0
0.0 0.0 0.0

104525.20386878448 1.0550812423914129e7 0.0
1.0550812423914129e7 -9.386976367761826e6 0.0
0.0 0.0 0.0

-1.09361070732056e7 2.4161628551660613e6 0.0
2.4161628551660613e6 3.0048525272339106e7 0.0
0.0 0.0 0.0

999353.7902128035 2.1641207516888548e7 0.0
2.1641207516888548e7 -1.1872883868073504e7 0.0
0.0 0.0 0.0

5.843250510609526e6 1.870875949901045e7 0.0
1.870875949901045e7 3.0201262033509605e7 0.0
0.0 0.0 0.0

42057.38606417971 1.0090451861299038e7 0.0
1.0090451861299038e7 -5.105643300459398e6 0.0
0.0 0.0 0.0

8.248385615832454e6 2.240692964639706e7 0.0
2.240692964639706e7 1.348334614442531e7 0.0
0.0 0.0 0.0

-3.245925110700176e6 3.561844128066887e7 0.0
3.561844128066887e7 2.6956527452793294e6 0.0
0.0 0.0 0.0

-1.1728758383241687e7 3.393579477800719e6 0.0
3.393579477800719e6 2.2052883344023414e7 0.0
0.0 0.0 0.0

94983.11157377623 1.970042124715698e7 0.0
1.970042124715698e7 2.062190131332994e7 0.0
0.0 0.0 0.0

1.7193846329148384e6 1.1004864709918074e7 0.0
1.1004864709918074e7 -2.487958657803097e7 0.0
0.0 0.0 0.0

-2.1705901592020553e7 2.7422186311126083e7 0.0
2.7422186311126083e7 2.0211284467288917e6 0.0
0.0 0.0 0.0

-7.889786917793414e6 -3.0102469184731194e6 0.0
-3.0102469184731194e6 1.299095579627927e7 0.0
0.0 0.0 0.0

-1.1373339324587962e7 2.3132903362827342e7 0.0
2.3132903362827342e7 -7.858429789577169e6 0.0
0.0 0.0 0.0

3.266922886416103e7 2.281506604469323e7 0.0
2.281506604469323e7 7.405803874690935e6 0.0
0.0 0.0 0.0

-1.0523059405902582e6 2.295509541771618e7 0.0
2.295509541771618e7 -7.1675578455800945e6 0.0
0.0 0.0 0.0

2.28390719312115e6 1.126054181279987e7 0.0
1.126054181279987e7 -2.3086208229395133e7 0.0
0.0 0.0 0.0

-4.1135140169090177e6 2.41446499772228e7 0.0
2.41446499772228e7 1.0945671179138076e7 0.0
0.0 0.0 0.0

-7.4797636831484325e6 773315.1963058742 0.0
773315.1963058742 5.232029200702674e7 0.0
0.0 0.0 0.0

-4.505188709400807e6 2.100931467345089e7 0.0
2.100931467345089e7 -1.355877662031397e7 0.0
0.0 0.0 0.0

-1.6040501087453868e6 3.199598607147201e7 0.0
3.199598607147201e7 1.759646620669794e6 0.0
0.0 0.0 0.0

-1.8637024484099597e6 1.487991895596839e7 0.0
1.487991895596839e7 -3.53609373427468e7 0.0
0.0 0.0 0.0

113740.91995618585 1.88246787436377e7 0.0
1.88246787436377e7 -1.861071098594928e7 0.0
0.0 0.0 0.0

144162.50226157904 1.8163251819616966e7 0.0
1.8163251819616966e7 -2.009240704960543e7 0.0
0.0 0.0 0.0

-8.962348957536733e6 1.4013361846629802e7 0.0
1.4013361846629802e7 3.34073912228876e7 0.0
0.0 0.0 0.0

-3.1626593022215553e6 2.2809707294917982e7 0.0
2.2809707294917982e7 8.456153615498895e6 0.0
0.0 0.0 0.0

-5.734512106709823e6 1.2037699083415085e7 0.0
1.2037699083415085e7 9.595421741430506e7 0.0
0.0 0.0 0.0

3.0854656453887112e6 1.2097603242800085e7 0.0
1.2097603242800085e7 -9.30225336224648e7 0.0
0.0 0.0 0.0

-1.6621282652279433e7 2.7051975593996003e7 0.0
2.7051975593996003e7 -1.0272202971017385e7 0.0
0.0 0.0 0.0

-2.438176594521325e6 2.044248200155004e7 0.0
2.044248200155004e7 1.3992639316578772e7 0.0
0.0 0.0 0.0

-2.512805096512603e7 2.8111956761988945e7 0.0
2.8111956761988945e7 -3.0759380472244434e6 0.0
0.0 0.0 0.0

-8.142967020416255e6 -3.2443676858598604e6 0.0
-3.2443676858598604e6 1.7606174496292748e7 0.0
0.0 0.0 0.0

-7.7520917037355965e6 1.8289280976052914e7 0.0
1.8289280976052914e7 2.103586775740469e7 0.0
0.0 0.0 0.0

-1.2883703698781502e7 2.4470436011030693e7 0.0
2.4470436011030693e7 -6.248806359948419e6 0.0
0.0 0.0 0.0

-1.0061145439222563e7 3.6147481075412673e6 0.0
3.6147481075412673e6 3.228292129695637e7 0.0
0.0 0.0 0.0

3.0650838894806292e7 2.056693238796135e7 0.0
2.056693238796135e7 6.71551220161516e6 0.0
0.0 0.0 0.0

348263.38513894845 1.9502126517164834e7 0.0
1.9502126517164834e7 2.460007813396614e7 0.0
0.0 0.0 0.0

-4.362490125429648e6 1.9510719157726783e7 0.0
1.9510719157726783e7 1.6217180775047971e7 0.0
0.0 0.0 0.0

-2.506945065229275e7 3.831480808901026e7 0.0
3.831480808901026e7 9.541174874983026e6 0.0
0.0 0.0 0.0

4.192479804891701e6 2.1421109132891543e7 0.0
2.1421109132891543e7 5.194266792901345e6 0.0
0.0 0.0 0.0

3.12334887680507e6 2.016899557455932e7 0.0
2.016899557455932e7 -1.3798818615393494e6 0.0
0.0 0.0 0.0

-4.5845139088080535e6 2.553520521898217e7 0.0
2.553520521898217e7 9.24501411087393e6 0.0
0.0 0.0 0.0

-7.8146207019964615e6 2.2591914253870748e7 0.0
2.2591914253870748e7 -532646.1414526161 0.0
0.0 0.0 0.0

-1.0310205681203285e6 1.878954026078526e7 0.0
1.878954026078526e7 -2.2963180243400056e6 0.0
0.0 0.0 0.0

3.0443992004093984e6 2.0969674464209132e7 0.0
2.0969674464209132e7 -3.304231822332187e6 0.0
0.0 0.0 0.0

3.737017407566139e6 2.1291618452194374e7 0.0
2.1291618452194374e7 1.3354331331916638e7 0.0
0.0 0.0 0.0

4.476329340117623e6 3.296580148133207e7 0.0
3.296580148133207e7 -2.545650995032442e6 0.0
0.0 0.0 0.0

-3.551475282550576e6 2.3646390346165143e7 0.0
2.3646390346165143e7 1.0457916769368822e7 0.0
0.0 0.0 0.0

-5.042832796092082e6 3.516994572486563e7 0.0
3.516994572486563e7 1.9753997728410086e6 0.0
0.0 0.0 0.0

-6.986799814117045e6 1.6872152613969795e7 0.0
1.6872152613969795e7 -4.6497961332630284e7 0.0
0.0 0.0 0.0

-1.606612345181329e7 1.9639980134789556e7 0.0
1.9639980134789556e7 -8.693190770355457e7 0.0
0.0 0.0 0.0

1.492683476915584e7 2.0527663578028414e7 0.0
2.0527663578028414e7 8.771651523374425e7 0.0
0.0 0.0 0.0

6.090345568195035e6 1.906392986999269e7 0.0
1.906392986999269e7 2.9076592049466334e7 0.0
0.0 0.0 0.0

777937.7005751133 1.0136855395028247e7 0.0
1.0136855395028247e7 -3.997945297321712e7 0.0
0.0 0.0 0.0

2.3148293173434883e6 3.2559762563981358e7 0.0
3.2559762563981358e7 -3.0894478010449135e6 0.0
0.0 0.0 0.0

803852.1875337511 2.2946857749279607e7 0.0
2.2946857749279607e7 -9.624023522827765e6 0.0
0.0 0.0 0.0

-1.0309944772479346e6 1.9820567076966535e7 0.0
1.9820567076966535e7 -6.923088521684423e6 0.0
0.0 0.0 0.0

1.102739730881262e6 2.2078599547574375e7 0.0
2.2078599547574375e7 -1.1186163828922562e7 0.0
0.0 0.0 0.0

-3.3067140057683475e7 4.081843399628044e7 0.0
4.081843399628044e7 1.0304938773979673e7 0.0
0.0 0.0 0.0

-2.765443047164672e6 3.164457742026239e7 0.0
3.164457742026239e7 1.2234839172110206e6 0.0
0.0 0.0 0.0

-6.413215767277628e6 2.6223293422002137e7 0.0
2.6223293422002137e7 7.8901359483947335e6 0.0
0.0 0.0 0.0

2.433671570130581e6 3.209406981282086e6 0.0
3.209406981282086e6 -4.86519040170303e7 0.0
0.0 0.0 0.0

9.341672052401744e6 2.5185897558624998e7 0.0
2.5185897558624998e7 -4.939691769700791e6 0.0
0.0 0.0 0.0

-1.7403710838410482e6 1.5441183411000982e7 0.0
1.5441183411000982e7 -3.3111040103335645e7 0.0
0.0 0.0 0.0

8.095342388020825e6 2.5700186093640592e7 0.0
2.5700186093640592e7 -5.349670273772934e6 0.0
0.0 0.0 0.0

-582867.358320824 1.8071688426758494e7 0.0
1.8071688426758494e7 -1.3107619562431313e6 0.0
0.0 0.0 0.0

869480.6701484555 2.0352670826075967e7 0.0
2.0352670826075967e7 2.14502714932407e7 0.0
0.0 0.0 0.0

-4.99373814144218e6 2.821395791834516e7 0.0
2.821395791834516e7 5.736398312601708e6 0.0
0.0 0.0 0.0

-9.488533680758806e6 -1.7384789806671548e6 0.0
-1.7384789806671548e6 3.0560760254674148e7 0.0
0.0 0.0 0.0

1.5941822933973616e7 2.090673588882866e7 0.0
2.090673588882866e7 2.642336672257868e6 0.0
0.0 0.0 0.0

-7.236594889342129e7 2.6827206942756165e7 0.0
2.6827206942756165e7 2.198005196502898e6 0.0
0.0 0.0 0.0

-9.633913154931104e6 1.4241206021074172e7 0.0
1.4241206021074172e7 3.099261339701061e7 0.0
0.0 0.0 0.0

-6.387157066874428e6 2.3481404261593625e7 0.0
2.3481404261593625e7 5.243567586993521e6 0.0
0.0 0.0 0.0

3.902928530748966e6 2.1234227834215853e7 0.0
2.1234227834215853e7 -423643.16804921 0.0
0.0 0.0 0.0

3.6717350908993483e6 3.168538093086489e6 0.0
3.168538093086489e6 -3.18032798315049e7 0.0
0.0 0.0 0.0

-2.846332717206221e6 2.107223833048881e7 0.0
2.107223833048881e7 1.1015579028924875e7 0.0
0.0 0.0 0.0

-8.028899903123252e6 -36650.314407625716 0.0
-36650.314407625716 4.645277603360484e7 0.0
0.0 0.0 0.0

-1.6635960156097071e7 2.346152406287985e7 0.0
2.346152406287985e7 -9.26454310811303e7 0.0
0.0 0.0 0.0

1.5085533737851864e7 2.522094497144612e7 0.0
2.522094497144612e7 9.26138921146141e7 0.0
0.0 0.0 0.0

540710.6259873621 1.3536332786966477e7 0.0
1.3536332786966477e7 -3.021867815104467e7 0.0
0.0 0.0 0.0

819022.4432961179 4.582133889535446e6 0.0
4.582133889535446e6 -5.377196430141131e6 0.0
0.0 0.0 0.0

1.1926512005900351e7 1.8859512863563694e7 0.0
1.8859512863563694e7 6.169371057790516e6 0.0
0.0 0.0 0.0

-7.662373734782238e6 1.46267073619697e6 0.0
1.46267073619697e6 5.262271554560087e7 0.0
0.0 0.0 0.0

919756.1242807093 8.329156447525102e6 0.0
8.329156447525102e6 -7.716797387465646e6 0.0
0.0 0.0 0.0

5.665933617251005e6 3.133764234368132e7 0.0
3.133764234368132e7 -4.176716526590009e6 0.0
0.0 0.0 0.0

132051.7940941546 1.9172445229992155e7 0.0
1.9172445229992155e7 -1.4884841040401794e7 0.0
0.0 0.0 0.0

4.258369598023636e6 1.9108342433309056e7 0.0
1.9108342433309056e7 2.0950572143694203e7 0.0
0.0 0.0 0.0

-6.208247126365642e6 2.324250997293218e7 0.0
2.324250997293218e7 403220.2298957275 0.0
0.0 0.0 0.0

-2.9720791044334188e7 2.617786337579696e7 0.0
2.617786337579696e7 -6.180364775636999e6 0.0
0.0 0.0 0.0

-3.189004294913289e6 3.1195563573747385e7 0.0
3.1195563573747385e7 1.9024960249196533e6 0.0
0.0 0.0 0.0

989915.3030205714 1.9528550532454554e7 0.0
1.9528550532454554e7 1.1879215453808727e7 0.0
0.0 0.0 0.0

-1.5355874001418902e6 2.081851323439906e7 0.0
2.081851323439906e7 1.6289483465551207e7 0.0
0.0 0.0 0.0

1.0453302479603877e6 1.6380263003178798e7 0.0
1.6380263003178798e7 -2.0611138631667618e7 0.0
0.0 0.0 0.0

1.1631981993266721e6 2.142402791403112e7 0.0
2.142402791403112e7 -1.1711509002114424e7 0.0
0.0 0.0 0.0

-8.192421459525719e6 3.011923506452813e6 0.0
3.011923506452813e6 5.064552273787746e7 0.0
0.0 0.0 0.0

-2.7091444264201537e7 4.122375096269049e7 0.0
4.122375096269049e7 7.145571914988326e6 0.0
0.0 0.0 0.0

-1.2232308007585892e7 3.2824554049026947e7 0.0
3.2824554049026947e7 5.799682838058841e6 0.0
0.0 0.0 0.0

-2.913374157637523e7 2.825997246427767e7 0.0
2.825997246427767e7 -679994.4669230692 0.0
0.0 0.0 0.0

122787.30018372298 1.9759800992102843e7 0.0
1.9759800992102843e7 4.219171149797876e6 0.0
0.0 0.0 0.0

-9.133449424367242e6 2.39441651358821e7 0.0
2.39441651358821e7 -1.295763887462141e6 0.0
0.0 0.0 0.0

-1.7075289776454654e7 2.6266734475303173e7 0.0
2.6266734475303173e7 -6.399712203290692e6 0.0
0.0 0.0 0.0

1.6920321051857504e6 7.51142077336738e6 0.0
7.51142077336738e6 -7.366515954490773e6 0.0
0.0 0.0 0.0

3.348864326407856e6 1.940675410560928e7 0.0
1.940675410560928e7 2.176886786333498e7 0.0
0.0 0.0 0.0

1.761725915165387e6 9.30389757957974e6 0.0
9.30389757957974e6 -3.915732860306766e7 0.0
0.0 0.0 0.0

-8.522001153196607e6 1.5233451072823504e7 0.0
1.5233451072823504e7 3.2193010058849644e7 0.0
0.0 0.0 0.0

-7.151444785258722e6 1.0888922335184219e6 0.0
1.0888922335184219e6 5.374249120749475e7 0.0
0.0 0.0 0.0

2.686914609787097e6 3.423751240342898e6 0.0
3.423751240342898e6 -4.79527647945351e7 0.0
0.0 0.0 0.0

-3.3273164590535916e7 2.8476565733861234e7 0.0
2.8476565733861234e7 -1.9309474639977869e6 0.0
0.0 0.0 0.0

-8.338005791469144e6 -802584.2368957086 0.0
-802584.2368957086 4.2432433810192265e7 0.0
0.0 0.0 0.0

-8.868259045018736e6 -1.3601418036930496e6 0.0
-1.3601418036930496e6 3.698790851165967e7 0.0
0.0 0.0 0.0

995351.924233831 7.2270234095679615e6 0.0
7.2270234095679615e6 -9.449210931659818e6 0.0
0.0 0.0 0.0

-9.201527306506386e6 -28987.374012352688 0.0
-28987.374012352688 3.5427643665988676e7 0.0
0.0 0.0 0.0

7.829285364406697e6 4.275591215860408e7 0.0
4.275591215860408e7 -5.210652701413859e6 0.0
0.0 0.0 0.0

-3.876539520456979e6 2.0437345108706586e7 0.0
2.0437345108706586e7 1.5446074936371423e7 0.0
0.0 0.0 0.0

1.4794389564097114e6 4.443811541391855e6 0.0
4.443811541391855e6 -5.904171208598532e7 0.0
0.0 0.0 0.0

2.684826265466679e6 4.023239707344152e6 0.0
4.023239707344152e6 -3.762990661426301e7 0.0
0.0 0.0 0.0

-3.2740998808504725e6 2.260500777319734e7 0.0
2.260500777319734e7 7.525452315320666e6 0.0
0.0 0.0 0.0

-4.728945906142592e6 3.474844751862023e7 0.0
3.474844751862023e7 3.4401641466807034e6 0.0
0.0 0.0 0.0

5.386623396181553e6 1.1009880360064821e7 0.0
1.1009880360064821e7 2.1443257636209563e6 0.0
0.0 0.0 0.0

1.120470519253064e7 2.204973062753755e7 0.0
2.204973062753755e7 1.22016439440822e7 0.0
0.0 0.0 0.0

9.437280283221427e6 2.400574448150224e7 0.0
2.400574448150224e7 -3.8260404603320835e6 0.0
0.0 0.0 0.0

-8.54296276235298e6 -566878.8279617134 0.0
-566878.8279617134 4.1617478244537696e7 0.0
0.0 0.0 0.0

-1.764129698669288e7 2.3634678204637356e7 0.0
2.3634678204637356e7 -598538.8614887623 0.0
0.0 0.0 0.0

-3.0645479532975936e6 3.0542046405003894e7 0.0
3.0542046405003894e7 1.777257949199023e6 0.0
0.0 0.0 0.0

3.0525189602563605e6 1.8590557994958952e7 0.0
1.8590557994958952e7 4.8891681397083685e7 0.0
0.0 0.0 0.0

1.131607443258854e7 2.445357347592767e7 0.0
2.445357347592767e7 -3.801820568164808e6 0.0
0.0 0.0 0.0

-4.0300785199864004e6 2.1367836566590272e7 0.0
2.1367836566590272e7 -9.093440002980342e6 0.0
0.0 0.0 0.0

-3.6820269532935554e6 2.1554618976036575e7 0.0
2.1554618976036575e7 1.6160792343634672e7 0.0
0.0 0.0 0.0

-3.111464788313064e6 2.068148157597415e7 0.0
2.068148157597415e7 -9.177698324325483e6 0.0
0.0 0.0 0.0

-6.893395569059193e7 3.719363670864921e7 0.0
3.719363670864921e7 -5.803313433498213e6 0.0
0.0 0.0 0.0

-4.948878360736758e6 2.0163414846863184e7 0.0
2.0163414846863184e7 1.5030722811460098e7 0.0
0.0 0.0 0.0

-3.6511516828935556e6 2.178737153351059e7 0.0
2.178737153351059e7 -7.738740558673196e6 0.0
0.0 0.0 0.0

-3.8622604562192736e6 2.2245772640152242e7 0.0
2.2245772640152242e7 1.5365745689369014e7 0.0
0.0 0.0 0.0

7.415706470658019e6 2.3632142525042575e7 0.0
2.3632142525042575e7 -4.620237592849744e6 0.0
0.0 0.0 0.0

3.307016649164127e6 3.156934624828537e6 0.0
3.156934624828537e6 -3.0881733684997562e7 0.0
0.0 0.0 0.0

2.8697119949973463e6 2.2944170012921512e7 0.0
2.2944170012921512e7 -8.079395010168466e6 0.0
0.0 0.0 0.0

-2.5869912207252678e7 4.126581583211126e7 0.0
4.126581583211126e7 6.995588153980786e6 0.0
0.0 0.0 0.0

-6.204557139542778e6 2.9407597447897233e7 0.0
2.9407597447897233e7 6.141762320206794e6 0.0
0.0 0.0 0.0

-9.637770049198661e6 -2.613130758126149e6 0.0
-2.613130758126149e6 2.4720900674100984e7 0.0
0.0 0.0 0.0

304061.61629327945 1.938188419247892e7 0.0
1.938188419247892e7 -1.6313718400871947e7 0.0
0.0 0.0 0.0

1.317104563289539e7 2.1673176564156722e7 0.0
2.1673176564156722e7 3.842773748906788e6 0.0
0.0 0.0 0.0

-6.283284975116105e7 3.1797229215724733e7 0.0
3.1797229215724733e7 2.676430338794343e6 0.0
0.0 0.0 0.0

3.58067199063029e6 1.784317600102441e7 0.0
1.784317600102441e7 1.5060786328352354e7 0.0
0.0 0.0 0.0

1.1244559441447407e6 9.104126907288393e6 0.0
9.104126907288393e6 -4.1325656785637304e7 0.0
0.0 0.0 0.0

698322.1347600091 1.6118648899159627e7 0.0
1.6118648899159627e7 -2.0510116574465565e7 0.0
0.0 0.0 0.0

-2.5450397181241233e6 2.1363070373315684e7 0.0
2.1363070373315684e7 1.2843625079995953e7 0.0
0.0 0.0 0.0

-7.081472381889284e6 3.5033577067964345e7 0.0
3.5033577067964345e7 3.2045895526574845e6 0.0
0.0 0.0 0.0

469828.50579500897 2.624709961181153e7 0.0
2.624709961181153e7 -4.898691928210131e6 0.0
0.0 0.0 0.0

3.1301481624921e6 2.9634451787147294e6 0.0
2.9634451787147294e6 -3.690114743596701e7 0.0
0.0 0.0 0.0

5.683984980290878e6 1.8877037993913297e7 0.0
1.8877037993913297e7 4.2503001040827826e7 0.0
0.0 0.0 0.0

-640786.462396036 1.779434834834803e7 0.0
1.779434834834803e7 -1.7609248403009751e6 0.0
0.0 0.0 0.0

-4.91640091517792e7 3.693106518878312e7 0.0
3.693106518878312e7 1.0664676150717918e7 0.0
0.0 0.0 0.0

-1.0104809488184644e7 440659.3899249292 0.0
440659.3899249292 3.152002484249574e7 0.0
0.0 0.0 0.0

-9.373603705581672e6 180117.42120737126 0.0
180117.42120737126 3.378979593101623e7 0.0
0.0 0.0 0.0

1.2580377838636907e7 2.161193508753535e7 0.0
2.161193508753535e7 6.488664012343457e6 0.0
0.0 0.0 0.0

-8.297392315057028e6 -901635.9692230639 0.0
-901635.9692230639 4.14068003743323e7 0.0
0.0 0.0 0.0

3.035958550750861e6 1.8322018195420165e7 0.0
1.8322018195420165e7 1.4677156399773043e7 0.0
0.0 0.0 0.0

7.262524449150382e6 1.9202360304398175e7 0.0
1.9202360304398175e7 3.0834445510575816e7 0.0
0.0 0.0 0.0

827768.9545314263 3.248647060299258e7 0.0
3.248647060299258e7 -1.4741272792705821e6 0.0
0.0 0.0 0.0

-7.451135428419039e6 6.031569475605653e6 0.0
6.031569475605653e6 5.541047590294126e7 0.0
0.0 0.0 0.0

-2.404558946678214e6 1.5490521275325911e7 0.0
1.5490521275325911e7 -3.4008494741693236e7 0.0
0.0 0.0 0.0

531554.3697106587 8.072953657704615e6 0.0
8.072953657704615e6 -8.257374222613936e6 0.0
0.0 0.0 0.0

-2.1652398353051934e6 2.0925505133443516e7 0.0
2.0925505133443516e7 1.1079161705624234e7 0.0
0.0 0.0 0.0

3.9107557932153344e6 1.9380809231176123e7 0.0
1.9380809231176123e7 3.0131971621133942e7 0.0
0.0 0.0 0.0

-9.245438327102683e6 757475.2810084611 0.0
757475.2810084611 4.0259446057318546e7 0.0
0.0 0.0 0.0

-7.685553428390471e6 8.45880722401094e6 0.0
8.45880722401094e6 6.8803361630555885e6 0.0
0.0 0.0 0.0

-2.709108135565432e6 2.180202097683003e7 0.0
2.180202097683003e7 1.1548874635678022e6 0.0
0.0 0.0 0.0

611950.0979231959 1.1638743199931439e7 0.0
1.1638743199931439e7 1.1546133068079479e7 0.0
0.0 0.0 0.0

3.586279684805968e6 2.035683678111944e7 0.0
2.035683678111944e7 -2.169785502255463e6 0.0
0.0 0.0 0.0

-9.779812515777241e6 967.2142646094821 0.0
967.2142646094821 3.3497686358157128e7 0.0
0.0 0.0 0.0

-6.628132441144299e6 5.960564222322542e6 0.0
5.960564222322542e6 5.898046288529061e7 0.0
0.0 0.0 0.0

2.919430697041173e6 2.096701342180741e7 0.0
2.096701342180741e7 -1.0959860201270222e6 0.0
0.0 0.0 0.0

749812.5424624281 1.9792561369082943e7 0.0
1.9792561369082943e7 -1.4137725983233117e7 0.0
0.0 0.0 0.0

-6.525024951598436e6 5.796791349927046e6 0.0
5.796791349927046e6 5.842907076400309e7 0.0
0.0 0.0 0.0

7.178943396595268e6 2.3725355749489177e7 0.0
2.3725355749489177e7 -4.502338784983828e6 0.0
0.0 0.0 0.0

3.158336887680904e6 1.852912438400046e7 0.0
1.852912438400046e7 2.2034337406371925e7 0.0
0.0 0.0 0.0

-7.953180688844618e6 1.2229348416515542e7 0.0
1.2229348416515542e7 1.2906157176179344e7 0.0
0.0 0.0 0.0

-6.13765077021296e6 1.19612665649872e7 0.0
1.19612665649872e7 7.887862537994269e6 0.0
0.0 0.0 0.0

-1.2743026345798666e7 8.451693228021841e6 0.0
8.451693228021841e6 5.816491591156335e6 0.0
0.0 0.0 0.0

